# vtk DataFile Version 3.0
Some data
ASCII
DATASET UNSTRUCTURED_GRID
POINTS 4221 float
0.0 -10.0 0.0
0.5 -10.0 0.0
1.0 -10.0 0.0
1.5 -10.0 0.0
2.0 -10.0 0.0
2.5 -10.0 0.0
3.0 -10.0 0.0
3.5 -10.0 0.0
4.0 -10.0 0.0
4.5 -10.0 0.0
5.0 -10.0 0.0
5.5 -10.0 0.0
6.0 -10.0 0.0
6.5 -10.0 0.0
7.0 -10.0 0.0
7.5 -10.0 0.0
8.0 -10.0 0.0
8.5 -10.0 0.0
9.0 -10.0 0.0
9.5 -10.0 0.0
10.0 -10.0 0.0
10.5 -10.0 0.0
11.0 -10.0 0.0
11.5 -10.0 0.0
12.0 -10.0 0.0
12.5 -10.0 0.0
13.0 -10.0 0.0
13.5 -10.0 0.0
14.0 -10.0 0.0
14.5 -10.0 0.0
15.0 -10.0 0.0
15.5 -10.0 0.0
16.0 -10.0 0.0
16.5 -10.0 0.0
17.0 -10.0 0.0
17.5 -10.0 0.0
18.0 -10.0 0.0
18.5 -10.0 0.0
19.0 -10.0 0.0
19.5 -10.0 0.0
20.0 -10.0 0.0
20.5 -10.0 0.0
21.0 -10.0 0.0
21.5 -10.0 0.0
22.0 -10.0 0.0
22.5 -10.0 0.0
23.0 -10.0 0.0
23.5 -10.0 0.0
24.0 -10.0 0.0
24.5 -10.0 0.0
25.0 -10.0 0.0
25.5 -10.0 0.0
26.0 -10.0 0.0
26.5 -10.0 0.0
27.0 -10.0 0.0
27.5 -10.0 0.0
28.0 -10.0 0.0
28.5 -10.0 0.0
29.0 -10.0 0.0
29.5 -10.0 0.0
30.0 -10.0 0.0
30.5 -10.0 0.0
31.0 -10.0 0.0
31.5 -10.0 0.0
32.0 -10.0 0.0
32.5 -10.0 0.0
33.0 -10.0 0.0
33.5 -10.0 0.0
34.0 -10.0 0.0
34.5 -10.0 0.0
35.0 -10.0 0.0
35.5 -10.0 0.0
36.0 -10.0 0.0
36.5 -10.0 0.0
37.0 -10.0 0.0
37.5 -10.0 0.0
38.0 -10.0 0.0
38.5 -10.0 0.0
39.0 -10.0 0.0
39.5 -10.0 0.0
40.0 -10.0 0.0
40.5 -10.0 0.0
41.0 -10.0 0.0
41.5 -10.0 0.0
42.0 -10.0 0.0
42.5 -10.0 0.0
43.0 -10.0 0.0
43.5 -10.0 0.0
44.0 -10.0 0.0
44.5 -10.0 0.0
45.0 -10.0 0.0
45.5 -10.0 0.0
46.0 -10.0 0.0
46.5 -10.0 0.0
47.0 -10.0 0.0
47.5 -10.0 0.0
48.0 -10.0 0.0
48.5 -10.0 0.0
49.0 -10.0 0.0
49.5 -10.0 0.0
50.0 -10.0 0.0
50.5 -10.0 0.0
51.0 -10.0 0.0
51.5 -10.0 0.0
52.0 -10.0 0.0
52.5 -10.0 0.0
53.0 -10.0 0.0
53.5 -10.0 0.0
54.0 -10.0 0.0
54.5 -10.0 0.0
55.0 -10.0 0.0
55.5 -10.0 0.0
56.0 -10.0 0.0
56.5 -10.0 0.0
57.0 -10.0 0.0
57.5 -10.0 0.0
58.0 -10.0 0.0
58.5 -10.0 0.0
59.0 -10.0 0.0
59.5 -10.0 0.0
60.0 -10.0 0.0
60.5 -10.0 0.0
61.0 -10.0 0.0
61.5 -10.0 0.0
62.0 -10.0 0.0
62.5 -10.0 0.0
63.0 -10.0 0.0
63.5 -10.0 0.0
64.0 -10.0 0.0
64.5 -10.0 0.0
65.0 -10.0 0.0
65.5 -10.0 0.0
66.0 -10.0 0.0
66.5 -10.0 0.0
67.0 -10.0 0.0
67.5 -10.0 0.0
68.0 -10.0 0.0
68.5 -10.0 0.0
69.0 -10.0 0.0
69.5 -10.0 0.0
70.0 -10.0 0.0
70.5 -10.0 0.0
71.0 -10.0 0.0
71.5 -10.0 0.0
72.0 -10.0 0.0
72.5 -10.0 0.0
73.0 -10.0 0.0
73.5 -10.0 0.0
74.0 -10.0 0.0
74.5 -10.0 0.0
75.0 -10.0 0.0
75.5 -10.0 0.0
76.0 -10.0 0.0
76.5 -10.0 0.0
77.0 -10.0 0.0
77.5 -10.0 0.0
78.0 -10.0 0.0
78.5 -10.0 0.0
79.0 -10.0 0.0
79.5 -10.0 0.0
80.0 -10.0 0.0
80.5 -10.0 0.0
81.0 -10.0 0.0
81.5 -10.0 0.0
82.0 -10.0 0.0
82.5 -10.0 0.0
83.0 -10.0 0.0
83.5 -10.0 0.0
84.0 -10.0 0.0
84.5 -10.0 0.0
85.0 -10.0 0.0
85.5 -10.0 0.0
86.0 -10.0 0.0
86.5 -10.0 0.0
87.0 -10.0 0.0
87.5 -10.0 0.0
88.0 -10.0 0.0
88.5 -10.0 0.0
89.0 -10.0 0.0
89.5 -10.0 0.0
90.0 -10.0 0.0
90.5 -10.0 0.0
91.0 -10.0 0.0
91.5 -10.0 0.0
92.0 -10.0 0.0
92.5 -10.0 0.0
93.0 -10.0 0.0
93.5 -10.0 0.0
94.0 -10.0 0.0
94.5 -10.0 0.0
95.0 -10.0 0.0
95.5 -10.0 0.0
96.0 -10.0 0.0
96.5 -10.0 0.0
97.0 -10.0 0.0
97.5 -10.0 0.0
98.0 -10.0 0.0
98.5 -10.0 0.0
99.0 -10.0 0.0
99.5 -10.0 0.0
100.0 -10.0 0.0
0.0 -9.0 0.0
0.5 -9.0 0.0
1.0 -9.0 0.0
1.5 -9.0 0.0
2.0 -9.0 0.0
2.5 -9.0 0.0
3.0 -9.0 0.0
3.5 -9.0 0.0
4.0 -9.0 0.0
4.5 -9.0 0.0
5.0 -9.0 0.0
5.5 -9.0 0.0
6.0 -9.0 0.0
6.5 -9.0 0.0
7.0 -9.0 0.0
7.5 -9.0 0.0
8.0 -9.0 0.0
8.5 -9.0 0.0
9.0 -9.0 0.0
9.5 -9.0 0.0
10.0 -9.0 0.0
10.5 -9.0 0.0
11.0 -9.0 0.0
11.5 -9.0 0.0
12.0 -9.0 0.0
12.5 -9.0 0.0
13.0 -9.0 0.0
13.5 -9.0 0.0
14.0 -9.0 0.0
14.5 -9.0 0.0
15.0 -9.0 0.0
15.5 -9.0 0.0
16.0 -9.0 0.0
16.5 -9.0 0.0
17.0 -9.0 0.0
17.5 -9.0 0.0
18.0 -9.0 0.0
18.5 -9.0 0.0
19.0 -9.0 0.0
19.5 -9.0 0.0
20.0 -9.0 0.0
20.5 -9.0 0.0
21.0 -9.0 0.0
21.5 -9.0 0.0
22.0 -9.0 0.0
22.5 -9.0 0.0
23.0 -9.0 0.0
23.5 -9.0 0.0
24.0 -9.0 0.0
24.5 -9.0 0.0
25.0 -9.0 0.0
25.5 -9.0 0.0
26.0 -9.0 0.0
26.5 -9.0 0.0
27.0 -9.0 0.0
27.5 -9.0 0.0
28.0 -9.0 0.0
28.5 -9.0 0.0
29.0 -9.0 0.0
29.5 -9.0 0.0
30.0 -9.0 0.0
30.5 -9.0 0.0
31.0 -9.0 0.0
31.5 -9.0 0.0
32.0 -9.0 0.0
32.5 -9.0 0.0
33.0 -9.0 0.0
33.5 -9.0 0.0
34.0 -9.0 0.0
34.5 -9.0 0.0
35.0 -9.0 0.0
35.5 -9.0 0.0
36.0 -9.0 0.0
36.5 -9.0 0.0
37.0 -9.0 0.0
37.5 -9.0 0.0
38.0 -9.0 0.0
38.5 -9.0 0.0
39.0 -9.0 0.0
39.5 -9.0 0.0
40.0 -9.0 0.0
40.5 -9.0 0.0
41.0 -9.0 0.0
41.5 -9.0 0.0
42.0 -9.0 0.0
42.5 -9.0 0.0
43.0 -9.0 0.0
43.5 -9.0 0.0
44.0 -9.0 0.0
44.5 -9.0 0.0
45.0 -9.0 0.0
45.5 -9.0 0.0
46.0 -9.0 0.0
46.5 -9.0 0.0
47.0 -9.0 0.0
47.5 -9.0 0.0
48.0 -9.0 0.0
48.5 -9.0 0.0
49.0 -9.0 0.0
49.5 -9.0 0.0
50.0 -9.0 0.0
50.5 -9.0 0.0
51.0 -9.0 0.0
51.5 -9.0 0.0
52.0 -9.0 0.0
52.5 -9.0 0.0
53.0 -9.0 0.0
53.5 -9.0 0.0
54.0 -9.0 0.0
54.5 -9.0 0.0
55.0 -9.0 0.0
55.5 -9.0 0.0
56.0 -9.0 0.0
56.5 -9.0 0.0
57.0 -9.0 0.0
57.5 -9.0 0.0
58.0 -9.0 0.0
58.5 -9.0 0.0
59.0 -9.0 0.0
59.5 -9.0 0.0
60.0 -9.0 0.0
60.5 -9.0 0.0
61.0 -9.0 0.0
61.5 -9.0 0.0
62.0 -9.0 0.0
62.5 -9.0 0.0
63.0 -9.0 0.0
63.5 -9.0 0.0
64.0 -9.0 0.0
64.5 -9.0 0.0
65.0 -9.0 0.0
65.5 -9.0 0.0
66.0 -9.0 0.0
66.5 -9.0 0.0
67.0 -9.0 0.0
67.5 -9.0 0.0
68.0 -9.0 0.0
68.5 -9.0 0.0
69.0 -9.0 0.0
69.5 -9.0 0.0
70.0 -9.0 0.0
70.5 -9.0 0.0
71.0 -9.0 0.0
71.5 -9.0 0.0
72.0 -9.0 0.0
72.5 -9.0 0.0
73.0 -9.0 0.0
73.5 -9.0 0.0
74.0 -9.0 0.0
74.5 -9.0 0.0
75.0 -9.0 0.0
75.5 -9.0 0.0
76.0 -9.0 0.0
76.5 -9.0 0.0
77.0 -9.0 0.0
77.5 -9.0 0.0
78.0 -9.0 0.0
78.5 -9.0 0.0
79.0 -9.0 0.0
79.5 -9.0 0.0
80.0 -9.0 0.0
80.5 -9.0 0.0
81.0 -9.0 0.0
81.5 -9.0 0.0
82.0 -9.0 0.0
82.5 -9.0 0.0
83.0 -9.0 0.0
83.5 -9.0 0.0
84.0 -9.0 0.0
84.5 -9.0 0.0
85.0 -9.0 0.0
85.5 -9.0 0.0
86.0 -9.0 0.0
86.5 -9.0 0.0
87.0 -9.0 0.0
87.5 -9.0 0.0
88.0 -9.0 0.0
88.5 -9.0 0.0
89.0 -9.0 0.0
89.5 -9.0 0.0
90.0 -9.0 0.0
90.5 -9.0 0.0
91.0 -9.0 0.0
91.5 -9.0 0.0
92.0 -9.0 0.0
92.5 -9.0 0.0
93.0 -9.0 0.0
93.5 -9.0 0.0
94.0 -9.0 0.0
94.5 -9.0 0.0
95.0 -9.0 0.0
95.5 -9.0 0.0
96.0 -9.0 0.0
96.5 -9.0 0.0
97.0 -9.0 0.0
97.5 -9.0 0.0
98.0 -9.0 0.0
98.5 -9.0 0.0
99.0 -9.0 0.0
99.5 -9.0 0.0
100.0 -9.0 0.0
0.0 -8.0 0.0
0.5 -8.0 0.0
1.0 -8.0 0.0
1.5 -8.0 0.0
2.0 -8.0 0.0
2.5 -8.0 0.0
3.0 -8.0 0.0
3.5 -8.0 0.0
4.0 -8.0 0.0
4.5 -8.0 0.0
5.0 -8.0 0.0
5.5 -8.0 0.0
6.0 -8.0 0.0
6.5 -8.0 0.0
7.0 -8.0 0.0
7.5 -8.0 0.0
8.0 -8.0 0.0
8.5 -8.0 0.0
9.0 -8.0 0.0
9.5 -8.0 0.0
10.0 -8.0 0.0
10.5 -8.0 0.0
11.0 -8.0 0.0
11.5 -8.0 0.0
12.0 -8.0 0.0
12.5 -8.0 0.0
13.0 -8.0 0.0
13.5 -8.0 0.0
14.0 -8.0 0.0
14.5 -8.0 0.0
15.0 -8.0 0.0
15.5 -8.0 0.0
16.0 -8.0 0.0
16.5 -8.0 0.0
17.0 -8.0 0.0
17.5 -8.0 0.0
18.0 -8.0 0.0
18.5 -8.0 0.0
19.0 -8.0 0.0
19.5 -8.0 0.0
20.0 -8.0 0.0
20.5 -8.0 0.0
21.0 -8.0 0.0
21.5 -8.0 0.0
22.0 -8.0 0.0
22.5 -8.0 0.0
23.0 -8.0 0.0
23.5 -8.0 0.0
24.0 -8.0 0.0
24.5 -8.0 0.0
25.0 -8.0 0.0
25.5 -8.0 0.0
26.0 -8.0 0.0
26.5 -8.0 0.0
27.0 -8.0 0.0
27.5 -8.0 0.0
28.0 -8.0 0.0
28.5 -8.0 0.0
29.0 -8.0 0.0
29.5 -8.0 0.0
30.0 -8.0 0.0
30.5 -8.0 0.0
31.0 -8.0 0.0
31.5 -8.0 0.0
32.0 -8.0 0.0
32.5 -8.0 0.0
33.0 -8.0 0.0
33.5 -8.0 0.0
34.0 -8.0 0.0
34.5 -8.0 0.0
35.0 -8.0 0.0
35.5 -8.0 0.0
36.0 -8.0 0.0
36.5 -8.0 0.0
37.0 -8.0 0.0
37.5 -8.0 0.0
38.0 -8.0 0.0
38.5 -8.0 0.0
39.0 -8.0 0.0
39.5 -8.0 0.0
40.0 -8.0 0.0
40.5 -8.0 0.0
41.0 -8.0 0.0
41.5 -8.0 0.0
42.0 -8.0 0.0
42.5 -8.0 0.0
43.0 -8.0 0.0
43.5 -8.0 0.0
44.0 -8.0 0.0
44.5 -8.0 0.0
45.0 -8.0 0.0
45.5 -8.0 0.0
46.0 -8.0 0.0
46.5 -8.0 0.0
47.0 -8.0 0.0
47.5 -8.0 0.0
48.0 -8.0 0.0
48.5 -8.0 0.0
49.0 -8.0 0.0
49.5 -8.0 0.0
50.0 -8.0 0.0
50.5 -8.0 0.0
51.0 -8.0 0.0
51.5 -8.0 0.0
52.0 -8.0 0.0
52.5 -8.0 0.0
53.0 -8.0 0.0
53.5 -8.0 0.0
54.0 -8.0 0.0
54.5 -8.0 0.0
55.0 -8.0 0.0
55.5 -8.0 0.0
56.0 -8.0 0.0
56.5 -8.0 0.0
57.0 -8.0 0.0
57.5 -8.0 0.0
58.0 -8.0 0.0
58.5 -8.0 0.0
59.0 -8.0 0.0
59.5 -8.0 0.0
60.0 -8.0 0.0
60.5 -8.0 0.0
61.0 -8.0 0.0
61.5 -8.0 0.0
62.0 -8.0 0.0
62.5 -8.0 0.0
63.0 -8.0 0.0
63.5 -8.0 0.0
64.0 -8.0 0.0
64.5 -8.0 0.0
65.0 -8.0 0.0
65.5 -8.0 0.0
66.0 -8.0 0.0
66.5 -8.0 0.0
67.0 -8.0 0.0
67.5 -8.0 0.0
68.0 -8.0 0.0
68.5 -8.0 0.0
69.0 -8.0 0.0
69.5 -8.0 0.0
70.0 -8.0 0.0
70.5 -8.0 0.0
71.0 -8.0 0.0
71.5 -8.0 0.0
72.0 -8.0 0.0
72.5 -8.0 0.0
73.0 -8.0 0.0
73.5 -8.0 0.0
74.0 -8.0 0.0
74.5 -8.0 0.0
75.0 -8.0 0.0
75.5 -8.0 0.0
76.0 -8.0 0.0
76.5 -8.0 0.0
77.0 -8.0 0.0
77.5 -8.0 0.0
78.0 -8.0 0.0
78.5 -8.0 0.0
79.0 -8.0 0.0
79.5 -8.0 0.0
80.0 -8.0 0.0
80.5 -8.0 0.0
81.0 -8.0 0.0
81.5 -8.0 0.0
82.0 -8.0 0.0
82.5 -8.0 0.0
83.0 -8.0 0.0
83.5 -8.0 0.0
84.0 -8.0 0.0
84.5 -8.0 0.0
85.0 -8.0 0.0
85.5 -8.0 0.0
86.0 -8.0 0.0
86.5 -8.0 0.0
87.0 -8.0 0.0
87.5 -8.0 0.0
88.0 -8.0 0.0
88.5 -8.0 0.0
89.0 -8.0 0.0
89.5 -8.0 0.0
90.0 -8.0 0.0
90.5 -8.0 0.0
91.0 -8.0 0.0
91.5 -8.0 0.0
92.0 -8.0 0.0
92.5 -8.0 0.0
93.0 -8.0 0.0
93.5 -8.0 0.0
94.0 -8.0 0.0
94.5 -8.0 0.0
95.0 -8.0 0.0
95.5 -8.0 0.0
96.0 -8.0 0.0
96.5 -8.0 0.0
97.0 -8.0 0.0
97.5 -8.0 0.0
98.0 -8.0 0.0
98.5 -8.0 0.0
99.0 -8.0 0.0
99.5 -8.0 0.0
100.0 -8.0 0.0
0.0 -7.0 0.0
0.5 -7.0 0.0
1.0 -7.0 0.0
1.5 -7.0 0.0
2.0 -7.0 0.0
2.5 -7.0 0.0
3.0 -7.0 0.0
3.5 -7.0 0.0
4.0 -7.0 0.0
4.5 -7.0 0.0
5.0 -7.0 0.0
5.5 -7.0 0.0
6.0 -7.0 0.0
6.5 -7.0 0.0
7.0 -7.0 0.0
7.5 -7.0 0.0
8.0 -7.0 0.0
8.5 -7.0 0.0
9.0 -7.0 0.0
9.5 -7.0 0.0
10.0 -7.0 0.0
10.5 -7.0 0.0
11.0 -7.0 0.0
11.5 -7.0 0.0
12.0 -7.0 0.0
12.5 -7.0 0.0
13.0 -7.0 0.0
13.5 -7.0 0.0
14.0 -7.0 0.0
14.5 -7.0 0.0
15.0 -7.0 0.0
15.5 -7.0 0.0
16.0 -7.0 0.0
16.5 -7.0 0.0
17.0 -7.0 0.0
17.5 -7.0 0.0
18.0 -7.0 0.0
18.5 -7.0 0.0
19.0 -7.0 0.0
19.5 -7.0 0.0
20.0 -7.0 0.0
20.5 -7.0 0.0
21.0 -7.0 0.0
21.5 -7.0 0.0
22.0 -7.0 0.0
22.5 -7.0 0.0
23.0 -7.0 0.0
23.5 -7.0 0.0
24.0 -7.0 0.0
24.5 -7.0 0.0
25.0 -7.0 0.0
25.5 -7.0 0.0
26.0 -7.0 0.0
26.5 -7.0 0.0
27.0 -7.0 0.0
27.5 -7.0 0.0
28.0 -7.0 0.0
28.5 -7.0 0.0
29.0 -7.0 0.0
29.5 -7.0 0.0
30.0 -7.0 0.0
30.5 -7.0 0.0
31.0 -7.0 0.0
31.5 -7.0 0.0
32.0 -7.0 0.0
32.5 -7.0 0.0
33.0 -7.0 0.0
33.5 -7.0 0.0
34.0 -7.0 0.0
34.5 -7.0 0.0
35.0 -7.0 0.0
35.5 -7.0 0.0
36.0 -7.0 0.0
36.5 -7.0 0.0
37.0 -7.0 0.0
37.5 -7.0 0.0
38.0 -7.0 0.0
38.5 -7.0 0.0
39.0 -7.0 0.0
39.5 -7.0 0.0
40.0 -7.0 0.0
40.5 -7.0 0.0
41.0 -7.0 0.0
41.5 -7.0 0.0
42.0 -7.0 0.0
42.5 -7.0 0.0
43.0 -7.0 0.0
43.5 -7.0 0.0
44.0 -7.0 0.0
44.5 -7.0 0.0
45.0 -7.0 0.0
45.5 -7.0 0.0
46.0 -7.0 0.0
46.5 -7.0 0.0
47.0 -7.0 0.0
47.5 -7.0 0.0
48.0 -7.0 0.0
48.5 -7.0 0.0
49.0 -7.0 0.0
49.5 -7.0 0.0
50.0 -7.0 0.0
50.5 -7.0 0.0
51.0 -7.0 0.0
51.5 -7.0 0.0
52.0 -7.0 0.0
52.5 -7.0 0.0
53.0 -7.0 0.0
53.5 -7.0 0.0
54.0 -7.0 0.0
54.5 -7.0 0.0
55.0 -7.0 0.0
55.5 -7.0 0.0
56.0 -7.0 0.0
56.5 -7.0 0.0
57.0 -7.0 0.0
57.5 -7.0 0.0
58.0 -7.0 0.0
58.5 -7.0 0.0
59.0 -7.0 0.0
59.5 -7.0 0.0
60.0 -7.0 0.0
60.5 -7.0 0.0
61.0 -7.0 0.0
61.5 -7.0 0.0
62.0 -7.0 0.0
62.5 -7.0 0.0
63.0 -7.0 0.0
63.5 -7.0 0.0
64.0 -7.0 0.0
64.5 -7.0 0.0
65.0 -7.0 0.0
65.5 -7.0 0.0
66.0 -7.0 0.0
66.5 -7.0 0.0
67.0 -7.0 0.0
67.5 -7.0 0.0
68.0 -7.0 0.0
68.5 -7.0 0.0
69.0 -7.0 0.0
69.5 -7.0 0.0
70.0 -7.0 0.0
70.5 -7.0 0.0
71.0 -7.0 0.0
71.5 -7.0 0.0
72.0 -7.0 0.0
72.5 -7.0 0.0
73.0 -7.0 0.0
73.5 -7.0 0.0
74.0 -7.0 0.0
74.5 -7.0 0.0
75.0 -7.0 0.0
75.5 -7.0 0.0
76.0 -7.0 0.0
76.5 -7.0 0.0
77.0 -7.0 0.0
77.5 -7.0 0.0
78.0 -7.0 0.0
78.5 -7.0 0.0
79.0 -7.0 0.0
79.5 -7.0 0.0
80.0 -7.0 0.0
80.5 -7.0 0.0
81.0 -7.0 0.0
81.5 -7.0 0.0
82.0 -7.0 0.0
82.5 -7.0 0.0
83.0 -7.0 0.0
83.5 -7.0 0.0
84.0 -7.0 0.0
84.5 -7.0 0.0
85.0 -7.0 0.0
85.5 -7.0 0.0
86.0 -7.0 0.0
86.5 -7.0 0.0
87.0 -7.0 0.0
87.5 -7.0 0.0
88.0 -7.0 0.0
88.5 -7.0 0.0
89.0 -7.0 0.0
89.5 -7.0 0.0
90.0 -7.0 0.0
90.5 -7.0 0.0
91.0 -7.0 0.0
91.5 -7.0 0.0
92.0 -7.0 0.0
92.5 -7.0 0.0
93.0 -7.0 0.0
93.5 -7.0 0.0
94.0 -7.0 0.0
94.5 -7.0 0.0
95.0 -7.0 0.0
95.5 -7.0 0.0
96.0 -7.0 0.0
96.5 -7.0 0.0
97.0 -7.0 0.0
97.5 -7.0 0.0
98.0 -7.0 0.0
98.5 -7.0 0.0
99.0 -7.0 0.0
99.5 -7.0 0.0
100.0 -7.0 0.0
0.0 -6.0 0.0
0.5 -6.0 0.0
1.0 -6.0 0.0
1.5 -6.0 0.0
2.0 -6.0 0.0
2.5 -6.0 0.0
3.0 -6.0 0.0
3.5 -6.0 0.0
4.0 -6.0 0.0
4.5 -6.0 0.0
5.0 -6.0 0.0
5.5 -6.0 0.0
6.0 -6.0 0.0
6.5 -6.0 0.0
7.0 -6.0 0.0
7.5 -6.0 0.0
8.0 -6.0 0.0
8.5 -6.0 0.0
9.0 -6.0 0.0
9.5 -6.0 0.0
10.0 -6.0 0.0
10.5 -6.0 0.0
11.0 -6.0 0.0
11.5 -6.0 0.0
12.0 -6.0 0.0
12.5 -6.0 0.0
13.0 -6.0 0.0
13.5 -6.0 0.0
14.0 -6.0 0.0
14.5 -6.0 0.0
15.0 -6.0 0.0
15.5 -6.0 0.0
16.0 -6.0 0.0
16.5 -6.0 0.0
17.0 -6.0 0.0
17.5 -6.0 0.0
18.0 -6.0 0.0
18.5 -6.0 0.0
19.0 -6.0 0.0
19.5 -6.0 0.0
20.0 -6.0 0.0
20.5 -6.0 0.0
21.0 -6.0 0.0
21.5 -6.0 0.0
22.0 -6.0 0.0
22.5 -6.0 0.0
23.0 -6.0 0.0
23.5 -6.0 0.0
24.0 -6.0 0.0
24.5 -6.0 0.0
25.0 -6.0 0.0
25.5 -6.0 0.0
26.0 -6.0 0.0
26.5 -6.0 0.0
27.0 -6.0 0.0
27.5 -6.0 0.0
28.0 -6.0 0.0
28.5 -6.0 0.0
29.0 -6.0 0.0
29.5 -6.0 0.0
30.0 -6.0 0.0
30.5 -6.0 0.0
31.0 -6.0 0.0
31.5 -6.0 0.0
32.0 -6.0 0.0
32.5 -6.0 0.0
33.0 -6.0 0.0
33.5 -6.0 0.0
34.0 -6.0 0.0
34.5 -6.0 0.0
35.0 -6.0 0.0
35.5 -6.0 0.0
36.0 -6.0 0.0
36.5 -6.0 0.0
37.0 -6.0 0.0
37.5 -6.0 0.0
38.0 -6.0 0.0
38.5 -6.0 0.0
39.0 -6.0 0.0
39.5 -6.0 0.0
40.0 -6.0 0.0
40.5 -6.0 0.0
41.0 -6.0 0.0
41.5 -6.0 0.0
42.0 -6.0 0.0
42.5 -6.0 0.0
43.0 -6.0 0.0
43.5 -6.0 0.0
44.0 -6.0 0.0
44.5 -6.0 0.0
45.0 -6.0 0.0
45.5 -6.0 0.0
46.0 -6.0 0.0
46.5 -6.0 0.0
47.0 -6.0 0.0
47.5 -6.0 0.0
48.0 -6.0 0.0
48.5 -6.0 0.0
49.0 -6.0 0.0
49.5 -6.0 0.0
50.0 -6.0 0.0
50.5 -6.0 0.0
51.0 -6.0 0.0
51.5 -6.0 0.0
52.0 -6.0 0.0
52.5 -6.0 0.0
53.0 -6.0 0.0
53.5 -6.0 0.0
54.0 -6.0 0.0
54.5 -6.0 0.0
55.0 -6.0 0.0
55.5 -6.0 0.0
56.0 -6.0 0.0
56.5 -6.0 0.0
57.0 -6.0 0.0
57.5 -6.0 0.0
58.0 -6.0 0.0
58.5 -6.0 0.0
59.0 -6.0 0.0
59.5 -6.0 0.0
60.0 -6.0 0.0
60.5 -6.0 0.0
61.0 -6.0 0.0
61.5 -6.0 0.0
62.0 -6.0 0.0
62.5 -6.0 0.0
63.0 -6.0 0.0
63.5 -6.0 0.0
64.0 -6.0 0.0
64.5 -6.0 0.0
65.0 -6.0 0.0
65.5 -6.0 0.0
66.0 -6.0 0.0
66.5 -6.0 0.0
67.0 -6.0 0.0
67.5 -6.0 0.0
68.0 -6.0 0.0
68.5 -6.0 0.0
69.0 -6.0 0.0
69.5 -6.0 0.0
70.0 -6.0 0.0
70.5 -6.0 0.0
71.0 -6.0 0.0
71.5 -6.0 0.0
72.0 -6.0 0.0
72.5 -6.0 0.0
73.0 -6.0 0.0
73.5 -6.0 0.0
74.0 -6.0 0.0
74.5 -6.0 0.0
75.0 -6.0 0.0
75.5 -6.0 0.0
76.0 -6.0 0.0
76.5 -6.0 0.0
77.0 -6.0 0.0
77.5 -6.0 0.0
78.0 -6.0 0.0
78.5 -6.0 0.0
79.0 -6.0 0.0
79.5 -6.0 0.0
80.0 -6.0 0.0
80.5 -6.0 0.0
81.0 -6.0 0.0
81.5 -6.0 0.0
82.0 -6.0 0.0
82.5 -6.0 0.0
83.0 -6.0 0.0
83.5 -6.0 0.0
84.0 -6.0 0.0
84.5 -6.0 0.0
85.0 -6.0 0.0
85.5 -6.0 0.0
86.0 -6.0 0.0
86.5 -6.0 0.0
87.0 -6.0 0.0
87.5 -6.0 0.0
88.0 -6.0 0.0
88.5 -6.0 0.0
89.0 -6.0 0.0
89.5 -6.0 0.0
90.0 -6.0 0.0
90.5 -6.0 0.0
91.0 -6.0 0.0
91.5 -6.0 0.0
92.0 -6.0 0.0
92.5 -6.0 0.0
93.0 -6.0 0.0
93.5 -6.0 0.0
94.0 -6.0 0.0
94.5 -6.0 0.0
95.0 -6.0 0.0
95.5 -6.0 0.0
96.0 -6.0 0.0
96.5 -6.0 0.0
97.0 -6.0 0.0
97.5 -6.0 0.0
98.0 -6.0 0.0
98.5 -6.0 0.0
99.0 -6.0 0.0
99.5 -6.0 0.0
100.0 -6.0 0.0
0.0 -5.0 0.0
0.5 -5.0 0.0
1.0 -5.0 0.0
1.5 -5.0 0.0
2.0 -5.0 0.0
2.5 -5.0 0.0
3.0 -5.0 0.0
3.5 -5.0 0.0
4.0 -5.0 0.0
4.5 -5.0 0.0
5.0 -5.0 0.0
5.5 -5.0 0.0
6.0 -5.0 0.0
6.5 -5.0 0.0
7.0 -5.0 0.0
7.5 -5.0 0.0
8.0 -5.0 0.0
8.5 -5.0 0.0
9.0 -5.0 0.0
9.5 -5.0 0.0
10.0 -5.0 0.0
10.5 -5.0 0.0
11.0 -5.0 0.0
11.5 -5.0 0.0
12.0 -5.0 0.0
12.5 -5.0 0.0
13.0 -5.0 0.0
13.5 -5.0 0.0
14.0 -5.0 0.0
14.5 -5.0 0.0
15.0 -5.0 0.0
15.5 -5.0 0.0
16.0 -5.0 0.0
16.5 -5.0 0.0
17.0 -5.0 0.0
17.5 -5.0 0.0
18.0 -5.0 0.0
18.5 -5.0 0.0
19.0 -5.0 0.0
19.5 -5.0 0.0
20.0 -5.0 0.0
20.5 -5.0 0.0
21.0 -5.0 0.0
21.5 -5.0 0.0
22.0 -5.0 0.0
22.5 -5.0 0.0
23.0 -5.0 0.0
23.5 -5.0 0.0
24.0 -5.0 0.0
24.5 -5.0 0.0
25.0 -5.0 0.0
25.5 -5.0 0.0
26.0 -5.0 0.0
26.5 -5.0 0.0
27.0 -5.0 0.0
27.5 -5.0 0.0
28.0 -5.0 0.0
28.5 -5.0 0.0
29.0 -5.0 0.0
29.5 -5.0 0.0
30.0 -5.0 0.0
30.5 -5.0 0.0
31.0 -5.0 0.0
31.5 -5.0 0.0
32.0 -5.0 0.0
32.5 -5.0 0.0
33.0 -5.0 0.0
33.5 -5.0 0.0
34.0 -5.0 0.0
34.5 -5.0 0.0
35.0 -5.0 0.0
35.5 -5.0 0.0
36.0 -5.0 0.0
36.5 -5.0 0.0
37.0 -5.0 0.0
37.5 -5.0 0.0
38.0 -5.0 0.0
38.5 -5.0 0.0
39.0 -5.0 0.0
39.5 -5.0 0.0
40.0 -5.0 0.0
40.5 -5.0 0.0
41.0 -5.0 0.0
41.5 -5.0 0.0
42.0 -5.0 0.0
42.5 -5.0 0.0
43.0 -5.0 0.0
43.5 -5.0 0.0
44.0 -5.0 0.0
44.5 -5.0 0.0
45.0 -5.0 0.0
45.5 -5.0 0.0
46.0 -5.0 0.0
46.5 -5.0 0.0
47.0 -5.0 0.0
47.5 -5.0 0.0
48.0 -5.0 0.0
48.5 -5.0 0.0
49.0 -5.0 0.0
49.5 -5.0 0.0
50.0 -5.0 0.0
50.5 -5.0 0.0
51.0 -5.0 0.0
51.5 -5.0 0.0
52.0 -5.0 0.0
52.5 -5.0 0.0
53.0 -5.0 0.0
53.5 -5.0 0.0
54.0 -5.0 0.0
54.5 -5.0 0.0
55.0 -5.0 0.0
55.5 -5.0 0.0
56.0 -5.0 0.0
56.5 -5.0 0.0
57.0 -5.0 0.0
57.5 -5.0 0.0
58.0 -5.0 0.0
58.5 -5.0 0.0
59.0 -5.0 0.0
59.5 -5.0 0.0
60.0 -5.0 0.0
60.5 -5.0 0.0
61.0 -5.0 0.0
61.5 -5.0 0.0
62.0 -5.0 0.0
62.5 -5.0 0.0
63.0 -5.0 0.0
63.5 -5.0 0.0
64.0 -5.0 0.0
64.5 -5.0 0.0
65.0 -5.0 0.0
65.5 -5.0 0.0
66.0 -5.0 0.0
66.5 -5.0 0.0
67.0 -5.0 0.0
67.5 -5.0 0.0
68.0 -5.0 0.0
68.5 -5.0 0.0
69.0 -5.0 0.0
69.5 -5.0 0.0
70.0 -5.0 0.0
70.5 -5.0 0.0
71.0 -5.0 0.0
71.5 -5.0 0.0
72.0 -5.0 0.0
72.5 -5.0 0.0
73.0 -5.0 0.0
73.5 -5.0 0.0
74.0 -5.0 0.0
74.5 -5.0 0.0
75.0 -5.0 0.0
75.5 -5.0 0.0
76.0 -5.0 0.0
76.5 -5.0 0.0
77.0 -5.0 0.0
77.5 -5.0 0.0
78.0 -5.0 0.0
78.5 -5.0 0.0
79.0 -5.0 0.0
79.5 -5.0 0.0
80.0 -5.0 0.0
80.5 -5.0 0.0
81.0 -5.0 0.0
81.5 -5.0 0.0
82.0 -5.0 0.0
82.5 -5.0 0.0
83.0 -5.0 0.0
83.5 -5.0 0.0
84.0 -5.0 0.0
84.5 -5.0 0.0
85.0 -5.0 0.0
85.5 -5.0 0.0
86.0 -5.0 0.0
86.5 -5.0 0.0
87.0 -5.0 0.0
87.5 -5.0 0.0
88.0 -5.0 0.0
88.5 -5.0 0.0
89.0 -5.0 0.0
89.5 -5.0 0.0
90.0 -5.0 0.0
90.5 -5.0 0.0
91.0 -5.0 0.0
91.5 -5.0 0.0
92.0 -5.0 0.0
92.5 -5.0 0.0
93.0 -5.0 0.0
93.5 -5.0 0.0
94.0 -5.0 0.0
94.5 -5.0 0.0
95.0 -5.0 0.0
95.5 -5.0 0.0
96.0 -5.0 0.0
96.5 -5.0 0.0
97.0 -5.0 0.0
97.5 -5.0 0.0
98.0 -5.0 0.0
98.5 -5.0 0.0
99.0 -5.0 0.0
99.5 -5.0 0.0
100.0 -5.0 0.0
0.0 -4.0 0.0
0.5 -4.0 0.0
1.0 -4.0 0.0
1.5 -4.0 0.0
2.0 -4.0 0.0
2.5 -4.0 0.0
3.0 -4.0 0.0
3.5 -4.0 0.0
4.0 -4.0 0.0
4.5 -4.0 0.0
5.0 -4.0 0.0
5.5 -4.0 0.0
6.0 -4.0 0.0
6.5 -4.0 0.0
7.0 -4.0 0.0
7.5 -4.0 0.0
8.0 -4.0 0.0
8.5 -4.0 0.0
9.0 -4.0 0.0
9.5 -4.0 0.0
10.0 -4.0 0.0
10.5 -4.0 0.0
11.0 -4.0 0.0
11.5 -4.0 0.0
12.0 -4.0 0.0
12.5 -4.0 0.0
13.0 -4.0 0.0
13.5 -4.0 0.0
14.0 -4.0 0.0
14.5 -4.0 0.0
15.0 -4.0 0.0
15.5 -4.0 0.0
16.0 -4.0 0.0
16.5 -4.0 0.0
17.0 -4.0 0.0
17.5 -4.0 0.0
18.0 -4.0 0.0
18.5 -4.0 0.0
19.0 -4.0 0.0
19.5 -4.0 0.0
20.0 -4.0 0.0
20.5 -4.0 0.0
21.0 -4.0 0.0
21.5 -4.0 0.0
22.0 -4.0 0.0
22.5 -4.0 0.0
23.0 -4.0 0.0
23.5 -4.0 0.0
24.0 -4.0 0.0
24.5 -4.0 0.0
25.0 -4.0 0.0
25.5 -4.0 0.0
26.0 -4.0 0.0
26.5 -4.0 0.0
27.0 -4.0 0.0
27.5 -4.0 0.0
28.0 -4.0 0.0
28.5 -4.0 0.0
29.0 -4.0 0.0
29.5 -4.0 0.0
30.0 -4.0 0.0
30.5 -4.0 0.0
31.0 -4.0 0.0
31.5 -4.0 0.0
32.0 -4.0 0.0
32.5 -4.0 0.0
33.0 -4.0 0.0
33.5 -4.0 0.0
34.0 -4.0 0.0
34.5 -4.0 0.0
35.0 -4.0 0.0
35.5 -4.0 0.0
36.0 -4.0 0.0
36.5 -4.0 0.0
37.0 -4.0 0.0
37.5 -4.0 0.0
38.0 -4.0 0.0
38.5 -4.0 0.0
39.0 -4.0 0.0
39.5 -4.0 0.0
40.0 -4.0 0.0
40.5 -4.0 0.0
41.0 -4.0 0.0
41.5 -4.0 0.0
42.0 -4.0 0.0
42.5 -4.0 0.0
43.0 -4.0 0.0
43.5 -4.0 0.0
44.0 -4.0 0.0
44.5 -4.0 0.0
45.0 -4.0 0.0
45.5 -4.0 0.0
46.0 -4.0 0.0
46.5 -4.0 0.0
47.0 -4.0 0.0
47.5 -4.0 0.0
48.0 -4.0 0.0
48.5 -4.0 0.0
49.0 -4.0 0.0
49.5 -4.0 0.0
50.0 -4.0 0.0
50.5 -4.0 0.0
51.0 -4.0 0.0
51.5 -4.0 0.0
52.0 -4.0 0.0
52.5 -4.0 0.0
53.0 -4.0 0.0
53.5 -4.0 0.0
54.0 -4.0 0.0
54.5 -4.0 0.0
55.0 -4.0 0.0
55.5 -4.0 0.0
56.0 -4.0 0.0
56.5 -4.0 0.0
57.0 -4.0 0.0
57.5 -4.0 0.0
58.0 -4.0 0.0
58.5 -4.0 0.0
59.0 -4.0 0.0
59.5 -4.0 0.0
60.0 -4.0 0.0
60.5 -4.0 0.0
61.0 -4.0 0.0
61.5 -4.0 0.0
62.0 -4.0 0.0
62.5 -4.0 0.0
63.0 -4.0 0.0
63.5 -4.0 0.0
64.0 -4.0 0.0
64.5 -4.0 0.0
65.0 -4.0 0.0
65.5 -4.0 0.0
66.0 -4.0 0.0
66.5 -4.0 0.0
67.0 -4.0 0.0
67.5 -4.0 0.0
68.0 -4.0 0.0
68.5 -4.0 0.0
69.0 -4.0 0.0
69.5 -4.0 0.0
70.0 -4.0 0.0
70.5 -4.0 0.0
71.0 -4.0 0.0
71.5 -4.0 0.0
72.0 -4.0 0.0
72.5 -4.0 0.0
73.0 -4.0 0.0
73.5 -4.0 0.0
74.0 -4.0 0.0
74.5 -4.0 0.0
75.0 -4.0 0.0
75.5 -4.0 0.0
76.0 -4.0 0.0
76.5 -4.0 0.0
77.0 -4.0 0.0
77.5 -4.0 0.0
78.0 -4.0 0.0
78.5 -4.0 0.0
79.0 -4.0 0.0
79.5 -4.0 0.0
80.0 -4.0 0.0
80.5 -4.0 0.0
81.0 -4.0 0.0
81.5 -4.0 0.0
82.0 -4.0 0.0
82.5 -4.0 0.0
83.0 -4.0 0.0
83.5 -4.0 0.0
84.0 -4.0 0.0
84.5 -4.0 0.0
85.0 -4.0 0.0
85.5 -4.0 0.0
86.0 -4.0 0.0
86.5 -4.0 0.0
87.0 -4.0 0.0
87.5 -4.0 0.0
88.0 -4.0 0.0
88.5 -4.0 0.0
89.0 -4.0 0.0
89.5 -4.0 0.0
90.0 -4.0 0.0
90.5 -4.0 0.0
91.0 -4.0 0.0
91.5 -4.0 0.0
92.0 -4.0 0.0
92.5 -4.0 0.0
93.0 -4.0 0.0
93.5 -4.0 0.0
94.0 -4.0 0.0
94.5 -4.0 0.0
95.0 -4.0 0.0
95.5 -4.0 0.0
96.0 -4.0 0.0
96.5 -4.0 0.0
97.0 -4.0 0.0
97.5 -4.0 0.0
98.0 -4.0 0.0
98.5 -4.0 0.0
99.0 -4.0 0.0
99.5 -4.0 0.0
100.0 -4.0 0.0
0.0 -3.0 0.0
0.5 -3.0 0.0
1.0 -3.0 0.0
1.5 -3.0 0.0
2.0 -3.0 0.0
2.5 -3.0 0.0
3.0 -3.0 0.0
3.5 -3.0 0.0
4.0 -3.0 0.0
4.5 -3.0 0.0
5.0 -3.0 0.0
5.5 -3.0 0.0
6.0 -3.0 0.0
6.5 -3.0 0.0
7.0 -3.0 0.0
7.5 -3.0 0.0
8.0 -3.0 0.0
8.5 -3.0 0.0
9.0 -3.0 0.0
9.5 -3.0 0.0
10.0 -3.0 0.0
10.5 -3.0 0.0
11.0 -3.0 0.0
11.5 -3.0 0.0
12.0 -3.0 0.0
12.5 -3.0 0.0
13.0 -3.0 0.0
13.5 -3.0 0.0
14.0 -3.0 0.0
14.5 -3.0 0.0
15.0 -3.0 0.0
15.5 -3.0 0.0
16.0 -3.0 0.0
16.5 -3.0 0.0
17.0 -3.0 0.0
17.5 -3.0 0.0
18.0 -3.0 0.0
18.5 -3.0 0.0
19.0 -3.0 0.0
19.5 -3.0 0.0
20.0 -3.0 0.0
20.5 -3.0 0.0
21.0 -3.0 0.0
21.5 -3.0 0.0
22.0 -3.0 0.0
22.5 -3.0 0.0
23.0 -3.0 0.0
23.5 -3.0 0.0
24.0 -3.0 0.0
24.5 -3.0 0.0
25.0 -3.0 0.0
25.5 -3.0 0.0
26.0 -3.0 0.0
26.5 -3.0 0.0
27.0 -3.0 0.0
27.5 -3.0 0.0
28.0 -3.0 0.0
28.5 -3.0 0.0
29.0 -3.0 0.0
29.5 -3.0 0.0
30.0 -3.0 0.0
30.5 -3.0 0.0
31.0 -3.0 0.0
31.5 -3.0 0.0
32.0 -3.0 0.0
32.5 -3.0 0.0
33.0 -3.0 0.0
33.5 -3.0 0.0
34.0 -3.0 0.0
34.5 -3.0 0.0
35.0 -3.0 0.0
35.5 -3.0 0.0
36.0 -3.0 0.0
36.5 -3.0 0.0
37.0 -3.0 0.0
37.5 -3.0 0.0
38.0 -3.0 0.0
38.5 -3.0 0.0
39.0 -3.0 0.0
39.5 -3.0 0.0
40.0 -3.0 0.0
40.5 -3.0 0.0
41.0 -3.0 0.0
41.5 -3.0 0.0
42.0 -3.0 0.0
42.5 -3.0 0.0
43.0 -3.0 0.0
43.5 -3.0 0.0
44.0 -3.0 0.0
44.5 -3.0 0.0
45.0 -3.0 0.0
45.5 -3.0 0.0
46.0 -3.0 0.0
46.5 -3.0 0.0
47.0 -3.0 0.0
47.5 -3.0 0.0
48.0 -3.0 0.0
48.5 -3.0 0.0
49.0 -3.0 0.0
49.5 -3.0 0.0
50.0 -3.0 0.0
50.5 -3.0 0.0
51.0 -3.0 0.0
51.5 -3.0 0.0
52.0 -3.0 0.0
52.5 -3.0 0.0
53.0 -3.0 0.0
53.5 -3.0 0.0
54.0 -3.0 0.0
54.5 -3.0 0.0
55.0 -3.0 0.0
55.5 -3.0 0.0
56.0 -3.0 0.0
56.5 -3.0 0.0
57.0 -3.0 0.0
57.5 -3.0 0.0
58.0 -3.0 0.0
58.5 -3.0 0.0
59.0 -3.0 0.0
59.5 -3.0 0.0
60.0 -3.0 0.0
60.5 -3.0 0.0
61.0 -3.0 0.0
61.5 -3.0 0.0
62.0 -3.0 0.0
62.5 -3.0 0.0
63.0 -3.0 0.0
63.5 -3.0 0.0
64.0 -3.0 0.0
64.5 -3.0 0.0
65.0 -3.0 0.0
65.5 -3.0 0.0
66.0 -3.0 0.0
66.5 -3.0 0.0
67.0 -3.0 0.0
67.5 -3.0 0.0
68.0 -3.0 0.0
68.5 -3.0 0.0
69.0 -3.0 0.0
69.5 -3.0 0.0
70.0 -3.0 0.0
70.5 -3.0 0.0
71.0 -3.0 0.0
71.5 -3.0 0.0
72.0 -3.0 0.0
72.5 -3.0 0.0
73.0 -3.0 0.0
73.5 -3.0 0.0
74.0 -3.0 0.0
74.5 -3.0 0.0
75.0 -3.0 0.0
75.5 -3.0 0.0
76.0 -3.0 0.0
76.5 -3.0 0.0
77.0 -3.0 0.0
77.5 -3.0 0.0
78.0 -3.0 0.0
78.5 -3.0 0.0
79.0 -3.0 0.0
79.5 -3.0 0.0
80.0 -3.0 0.0
80.5 -3.0 0.0
81.0 -3.0 0.0
81.5 -3.0 0.0
82.0 -3.0 0.0
82.5 -3.0 0.0
83.0 -3.0 0.0
83.5 -3.0 0.0
84.0 -3.0 0.0
84.5 -3.0 0.0
85.0 -3.0 0.0
85.5 -3.0 0.0
86.0 -3.0 0.0
86.5 -3.0 0.0
87.0 -3.0 0.0
87.5 -3.0 0.0
88.0 -3.0 0.0
88.5 -3.0 0.0
89.0 -3.0 0.0
89.5 -3.0 0.0
90.0 -3.0 0.0
90.5 -3.0 0.0
91.0 -3.0 0.0
91.5 -3.0 0.0
92.0 -3.0 0.0
92.5 -3.0 0.0
93.0 -3.0 0.0
93.5 -3.0 0.0
94.0 -3.0 0.0
94.5 -3.0 0.0
95.0 -3.0 0.0
95.5 -3.0 0.0
96.0 -3.0 0.0
96.5 -3.0 0.0
97.0 -3.0 0.0
97.5 -3.0 0.0
98.0 -3.0 0.0
98.5 -3.0 0.0
99.0 -3.0 0.0
99.5 -3.0 0.0
100.0 -3.0 0.0
0.0 -2.0 0.0
0.5 -2.0 0.0
1.0 -2.0 0.0
1.5 -2.0 0.0
2.0 -2.0 0.0
2.5 -2.0 0.0
3.0 -2.0 0.0
3.5 -2.0 0.0
4.0 -2.0 0.0
4.5 -2.0 0.0
5.0 -2.0 0.0
5.5 -2.0 0.0
6.0 -2.0 0.0
6.5 -2.0 0.0
7.0 -2.0 0.0
7.5 -2.0 0.0
8.0 -2.0 0.0
8.5 -2.0 0.0
9.0 -2.0 0.0
9.5 -2.0 0.0
10.0 -2.0 0.0
10.5 -2.0 0.0
11.0 -2.0 0.0
11.5 -2.0 0.0
12.0 -2.0 0.0
12.5 -2.0 0.0
13.0 -2.0 0.0
13.5 -2.0 0.0
14.0 -2.0 0.0
14.5 -2.0 0.0
15.0 -2.0 0.0
15.5 -2.0 0.0
16.0 -2.0 0.0
16.5 -2.0 0.0
17.0 -2.0 0.0
17.5 -2.0 0.0
18.0 -2.0 0.0
18.5 -2.0 0.0
19.0 -2.0 0.0
19.5 -2.0 0.0
20.0 -2.0 0.0
20.5 -2.0 0.0
21.0 -2.0 0.0
21.5 -2.0 0.0
22.0 -2.0 0.0
22.5 -2.0 0.0
23.0 -2.0 0.0
23.5 -2.0 0.0
24.0 -2.0 0.0
24.5 -2.0 0.0
25.0 -2.0 0.0
25.5 -2.0 0.0
26.0 -2.0 0.0
26.5 -2.0 0.0
27.0 -2.0 0.0
27.5 -2.0 0.0
28.0 -2.0 0.0
28.5 -2.0 0.0
29.0 -2.0 0.0
29.5 -2.0 0.0
30.0 -2.0 0.0
30.5 -2.0 0.0
31.0 -2.0 0.0
31.5 -2.0 0.0
32.0 -2.0 0.0
32.5 -2.0 0.0
33.0 -2.0 0.0
33.5 -2.0 0.0
34.0 -2.0 0.0
34.5 -2.0 0.0
35.0 -2.0 0.0
35.5 -2.0 0.0
36.0 -2.0 0.0
36.5 -2.0 0.0
37.0 -2.0 0.0
37.5 -2.0 0.0
38.0 -2.0 0.0
38.5 -2.0 0.0
39.0 -2.0 0.0
39.5 -2.0 0.0
40.0 -2.0 0.0
40.5 -2.0 0.0
41.0 -2.0 0.0
41.5 -2.0 0.0
42.0 -2.0 0.0
42.5 -2.0 0.0
43.0 -2.0 0.0
43.5 -2.0 0.0
44.0 -2.0 0.0
44.5 -2.0 0.0
45.0 -2.0 0.0
45.5 -2.0 0.0
46.0 -2.0 0.0
46.5 -2.0 0.0
47.0 -2.0 0.0
47.5 -2.0 0.0
48.0 -2.0 0.0
48.5 -2.0 0.0
49.0 -2.0 0.0
49.5 -2.0 0.0
50.0 -2.0 0.0
50.5 -2.0 0.0
51.0 -2.0 0.0
51.5 -2.0 0.0
52.0 -2.0 0.0
52.5 -2.0 0.0
53.0 -2.0 0.0
53.5 -2.0 0.0
54.0 -2.0 0.0
54.5 -2.0 0.0
55.0 -2.0 0.0
55.5 -2.0 0.0
56.0 -2.0 0.0
56.5 -2.0 0.0
57.0 -2.0 0.0
57.5 -2.0 0.0
58.0 -2.0 0.0
58.5 -2.0 0.0
59.0 -2.0 0.0
59.5 -2.0 0.0
60.0 -2.0 0.0
60.5 -2.0 0.0
61.0 -2.0 0.0
61.5 -2.0 0.0
62.0 -2.0 0.0
62.5 -2.0 0.0
63.0 -2.0 0.0
63.5 -2.0 0.0
64.0 -2.0 0.0
64.5 -2.0 0.0
65.0 -2.0 0.0
65.5 -2.0 0.0
66.0 -2.0 0.0
66.5 -2.0 0.0
67.0 -2.0 0.0
67.5 -2.0 0.0
68.0 -2.0 0.0
68.5 -2.0 0.0
69.0 -2.0 0.0
69.5 -2.0 0.0
70.0 -2.0 0.0
70.5 -2.0 0.0
71.0 -2.0 0.0
71.5 -2.0 0.0
72.0 -2.0 0.0
72.5 -2.0 0.0
73.0 -2.0 0.0
73.5 -2.0 0.0
74.0 -2.0 0.0
74.5 -2.0 0.0
75.0 -2.0 0.0
75.5 -2.0 0.0
76.0 -2.0 0.0
76.5 -2.0 0.0
77.0 -2.0 0.0
77.5 -2.0 0.0
78.0 -2.0 0.0
78.5 -2.0 0.0
79.0 -2.0 0.0
79.5 -2.0 0.0
80.0 -2.0 0.0
80.5 -2.0 0.0
81.0 -2.0 0.0
81.5 -2.0 0.0
82.0 -2.0 0.0
82.5 -2.0 0.0
83.0 -2.0 0.0
83.5 -2.0 0.0
84.0 -2.0 0.0
84.5 -2.0 0.0
85.0 -2.0 0.0
85.5 -2.0 0.0
86.0 -2.0 0.0
86.5 -2.0 0.0
87.0 -2.0 0.0
87.5 -2.0 0.0
88.0 -2.0 0.0
88.5 -2.0 0.0
89.0 -2.0 0.0
89.5 -2.0 0.0
90.0 -2.0 0.0
90.5 -2.0 0.0
91.0 -2.0 0.0
91.5 -2.0 0.0
92.0 -2.0 0.0
92.5 -2.0 0.0
93.0 -2.0 0.0
93.5 -2.0 0.0
94.0 -2.0 0.0
94.5 -2.0 0.0
95.0 -2.0 0.0
95.5 -2.0 0.0
96.0 -2.0 0.0
96.5 -2.0 0.0
97.0 -2.0 0.0
97.5 -2.0 0.0
98.0 -2.0 0.0
98.5 -2.0 0.0
99.0 -2.0 0.0
99.5 -2.0 0.0
100.0 -2.0 0.0
0.0 -1.0 0.0
0.5 -1.0 0.0
1.0 -1.0 0.0
1.5 -1.0 0.0
2.0 -1.0 0.0
2.5 -1.0 0.0
3.0 -1.0 0.0
3.5 -1.0 0.0
4.0 -1.0 0.0
4.5 -1.0 0.0
5.0 -1.0 0.0
5.5 -1.0 0.0
6.0 -1.0 0.0
6.5 -1.0 0.0
7.0 -1.0 0.0
7.5 -1.0 0.0
8.0 -1.0 0.0
8.5 -1.0 0.0
9.0 -1.0 0.0
9.5 -1.0 0.0
10.0 -1.0 0.0
10.5 -1.0 0.0
11.0 -1.0 0.0
11.5 -1.0 0.0
12.0 -1.0 0.0
12.5 -1.0 0.0
13.0 -1.0 0.0
13.5 -1.0 0.0
14.0 -1.0 0.0
14.5 -1.0 0.0
15.0 -1.0 0.0
15.5 -1.0 0.0
16.0 -1.0 0.0
16.5 -1.0 0.0
17.0 -1.0 0.0
17.5 -1.0 0.0
18.0 -1.0 0.0
18.5 -1.0 0.0
19.0 -1.0 0.0
19.5 -1.0 0.0
20.0 -1.0 0.0
20.5 -1.0 0.0
21.0 -1.0 0.0
21.5 -1.0 0.0
22.0 -1.0 0.0
22.5 -1.0 0.0
23.0 -1.0 0.0
23.5 -1.0 0.0
24.0 -1.0 0.0
24.5 -1.0 0.0
25.0 -1.0 0.0
25.5 -1.0 0.0
26.0 -1.0 0.0
26.5 -1.0 0.0
27.0 -1.0 0.0
27.5 -1.0 0.0
28.0 -1.0 0.0
28.5 -1.0 0.0
29.0 -1.0 0.0
29.5 -1.0 0.0
30.0 -1.0 0.0
30.5 -1.0 0.0
31.0 -1.0 0.0
31.5 -1.0 0.0
32.0 -1.0 0.0
32.5 -1.0 0.0
33.0 -1.0 0.0
33.5 -1.0 0.0
34.0 -1.0 0.0
34.5 -1.0 0.0
35.0 -1.0 0.0
35.5 -1.0 0.0
36.0 -1.0 0.0
36.5 -1.0 0.0
37.0 -1.0 0.0
37.5 -1.0 0.0
38.0 -1.0 0.0
38.5 -1.0 0.0
39.0 -1.0 0.0
39.5 -1.0 0.0
40.0 -1.0 0.0
40.5 -1.0 0.0
41.0 -1.0 0.0
41.5 -1.0 0.0
42.0 -1.0 0.0
42.5 -1.0 0.0
43.0 -1.0 0.0
43.5 -1.0 0.0
44.0 -1.0 0.0
44.5 -1.0 0.0
45.0 -1.0 0.0
45.5 -1.0 0.0
46.0 -1.0 0.0
46.5 -1.0 0.0
47.0 -1.0 0.0
47.5 -1.0 0.0
48.0 -1.0 0.0
48.5 -1.0 0.0
49.0 -1.0 0.0
49.5 -1.0 0.0
50.0 -1.0 0.0
50.5 -1.0 0.0
51.0 -1.0 0.0
51.5 -1.0 0.0
52.0 -1.0 0.0
52.5 -1.0 0.0
53.0 -1.0 0.0
53.5 -1.0 0.0
54.0 -1.0 0.0
54.5 -1.0 0.0
55.0 -1.0 0.0
55.5 -1.0 0.0
56.0 -1.0 0.0
56.5 -1.0 0.0
57.0 -1.0 0.0
57.5 -1.0 0.0
58.0 -1.0 0.0
58.5 -1.0 0.0
59.0 -1.0 0.0
59.5 -1.0 0.0
60.0 -1.0 0.0
60.5 -1.0 0.0
61.0 -1.0 0.0
61.5 -1.0 0.0
62.0 -1.0 0.0
62.5 -1.0 0.0
63.0 -1.0 0.0
63.5 -1.0 0.0
64.0 -1.0 0.0
64.5 -1.0 0.0
65.0 -1.0 0.0
65.5 -1.0 0.0
66.0 -1.0 0.0
66.5 -1.0 0.0
67.0 -1.0 0.0
67.5 -1.0 0.0
68.0 -1.0 0.0
68.5 -1.0 0.0
69.0 -1.0 0.0
69.5 -1.0 0.0
70.0 -1.0 0.0
70.5 -1.0 0.0
71.0 -1.0 0.0
71.5 -1.0 0.0
72.0 -1.0 0.0
72.5 -1.0 0.0
73.0 -1.0 0.0
73.5 -1.0 0.0
74.0 -1.0 0.0
74.5 -1.0 0.0
75.0 -1.0 0.0
75.5 -1.0 0.0
76.0 -1.0 0.0
76.5 -1.0 0.0
77.0 -1.0 0.0
77.5 -1.0 0.0
78.0 -1.0 0.0
78.5 -1.0 0.0
79.0 -1.0 0.0
79.5 -1.0 0.0
80.0 -1.0 0.0
80.5 -1.0 0.0
81.0 -1.0 0.0
81.5 -1.0 0.0
82.0 -1.0 0.0
82.5 -1.0 0.0
83.0 -1.0 0.0
83.5 -1.0 0.0
84.0 -1.0 0.0
84.5 -1.0 0.0
85.0 -1.0 0.0
85.5 -1.0 0.0
86.0 -1.0 0.0
86.5 -1.0 0.0
87.0 -1.0 0.0
87.5 -1.0 0.0
88.0 -1.0 0.0
88.5 -1.0 0.0
89.0 -1.0 0.0
89.5 -1.0 0.0
90.0 -1.0 0.0
90.5 -1.0 0.0
91.0 -1.0 0.0
91.5 -1.0 0.0
92.0 -1.0 0.0
92.5 -1.0 0.0
93.0 -1.0 0.0
93.5 -1.0 0.0
94.0 -1.0 0.0
94.5 -1.0 0.0
95.0 -1.0 0.0
95.5 -1.0 0.0
96.0 -1.0 0.0
96.5 -1.0 0.0
97.0 -1.0 0.0
97.5 -1.0 0.0
98.0 -1.0 0.0
98.5 -1.0 0.0
99.0 -1.0 0.0
99.5 -1.0 0.0
100.0 -1.0 0.0
0.0 0.0 0.0
0.5 0.0 0.0
1.0 0.0 0.0
1.5 0.0 0.0
2.0 0.0 0.0
2.5 0.0 0.0
3.0 0.0 0.0
3.5 0.0 0.0
4.0 0.0 0.0
4.5 0.0 0.0
5.0 0.0 0.0
5.5 0.0 0.0
6.0 0.0 0.0
6.5 0.0 0.0
7.0 0.0 0.0
7.5 0.0 0.0
8.0 0.0 0.0
8.5 0.0 0.0
9.0 0.0 0.0
9.5 0.0 0.0
10.0 0.0 0.0
10.5 0.0 0.0
11.0 0.0 0.0
11.5 0.0 0.0
12.0 0.0 0.0
12.5 0.0 0.0
13.0 0.0 0.0
13.5 0.0 0.0
14.0 0.0 0.0
14.5 0.0 0.0
15.0 0.0 0.0
15.5 0.0 0.0
16.0 0.0 0.0
16.5 0.0 0.0
17.0 0.0 0.0
17.5 0.0 0.0
18.0 0.0 0.0
18.5 0.0 0.0
19.0 0.0 0.0
19.5 0.0 0.0
20.0 0.0 0.0
20.5 0.0 0.0
21.0 0.0 0.0
21.5 0.0 0.0
22.0 0.0 0.0
22.5 0.0 0.0
23.0 0.0 0.0
23.5 0.0 0.0
24.0 0.0 0.0
24.5 0.0 0.0
25.0 0.0 0.0
25.5 0.0 0.0
26.0 0.0 0.0
26.5 0.0 0.0
27.0 0.0 0.0
27.5 0.0 0.0
28.0 0.0 0.0
28.5 0.0 0.0
29.0 0.0 0.0
29.5 0.0 0.0
30.0 0.0 0.0
30.5 0.0 0.0
31.0 0.0 0.0
31.5 0.0 0.0
32.0 0.0 0.0
32.5 0.0 0.0
33.0 0.0 0.0
33.5 0.0 0.0
34.0 0.0 0.0
34.5 0.0 0.0
35.0 0.0 0.0
35.5 0.0 0.0
36.0 0.0 0.0
36.5 0.0 0.0
37.0 0.0 0.0
37.5 0.0 0.0
38.0 0.0 0.0
38.5 0.0 0.0
39.0 0.0 0.0
39.5 0.0 0.0
40.0 0.0 0.0
40.5 0.0 0.0
41.0 0.0 0.0
41.5 0.0 0.0
42.0 0.0 0.0
42.5 0.0 0.0
43.0 0.0 0.0
43.5 0.0 0.0
44.0 0.0 0.0
44.5 0.0 0.0
45.0 0.0 0.0
45.5 0.0 0.0
46.0 0.0 0.0
46.5 0.0 0.0
47.0 0.0 0.0
47.5 0.0 0.0
48.0 0.0 0.0
48.5 0.0 0.0
49.0 0.0 0.0
49.5 0.0 0.0
50.0 0.0 0.0
50.5 0.0 0.0
51.0 0.0 0.0
51.5 0.0 0.0
52.0 0.0 0.0
52.5 0.0 0.0
53.0 0.0 0.0
53.5 0.0 0.0
54.0 0.0 0.0
54.5 0.0 0.0
55.0 0.0 0.0
55.5 0.0 0.0
56.0 0.0 0.0
56.5 0.0 0.0
57.0 0.0 0.0
57.5 0.0 0.0
58.0 0.0 0.0
58.5 0.0 0.0
59.0 0.0 0.0
59.5 0.0 0.0
60.0 0.0 0.0
60.5 0.0 0.0
61.0 0.0 0.0
61.5 0.0 0.0
62.0 0.0 0.0
62.5 0.0 0.0
63.0 0.0 0.0
63.5 0.0 0.0
64.0 0.0 0.0
64.5 0.0 0.0
65.0 0.0 0.0
65.5 0.0 0.0
66.0 0.0 0.0
66.5 0.0 0.0
67.0 0.0 0.0
67.5 0.0 0.0
68.0 0.0 0.0
68.5 0.0 0.0
69.0 0.0 0.0
69.5 0.0 0.0
70.0 0.0 0.0
70.5 0.0 0.0
71.0 0.0 0.0
71.5 0.0 0.0
72.0 0.0 0.0
72.5 0.0 0.0
73.0 0.0 0.0
73.5 0.0 0.0
74.0 0.0 0.0
74.5 0.0 0.0
75.0 0.0 0.0
75.5 0.0 0.0
76.0 0.0 0.0
76.5 0.0 0.0
77.0 0.0 0.0
77.5 0.0 0.0
78.0 0.0 0.0
78.5 0.0 0.0
79.0 0.0 0.0
79.5 0.0 0.0
80.0 0.0 0.0
80.5 0.0 0.0
81.0 0.0 0.0
81.5 0.0 0.0
82.0 0.0 0.0
82.5 0.0 0.0
83.0 0.0 0.0
83.5 0.0 0.0
84.0 0.0 0.0
84.5 0.0 0.0
85.0 0.0 0.0
85.5 0.0 0.0
86.0 0.0 0.0
86.5 0.0 0.0
87.0 0.0 0.0
87.5 0.0 0.0
88.0 0.0 0.0
88.5 0.0 0.0
89.0 0.0 0.0
89.5 0.0 0.0
90.0 0.0 0.0
90.5 0.0 0.0
91.0 0.0 0.0
91.5 0.0 0.0
92.0 0.0 0.0
92.5 0.0 0.0
93.0 0.0 0.0
93.5 0.0 0.0
94.0 0.0 0.0
94.5 0.0 0.0
95.0 0.0 0.0
95.5 0.0 0.0
96.0 0.0 0.0
96.5 0.0 0.0
97.0 0.0 0.0
97.5 0.0 0.0
98.0 0.0 0.0
98.5 0.0 0.0
99.0 0.0 0.0
99.5 0.0 0.0
100.0 0.0 0.0
0.0 1.0 0.0
0.5 1.0 0.0
1.0 1.0 0.0
1.5 1.0 0.0
2.0 1.0 0.0
2.5 1.0 0.0
3.0 1.0 0.0
3.5 1.0 0.0
4.0 1.0 0.0
4.5 1.0 0.0
5.0 1.0 0.0
5.5 1.0 0.0
6.0 1.0 0.0
6.5 1.0 0.0
7.0 1.0 0.0
7.5 1.0 0.0
8.0 1.0 0.0
8.5 1.0 0.0
9.0 1.0 0.0
9.5 1.0 0.0
10.0 1.0 0.0
10.5 1.0 0.0
11.0 1.0 0.0
11.5 1.0 0.0
12.0 1.0 0.0
12.5 1.0 0.0
13.0 1.0 0.0
13.5 1.0 0.0
14.0 1.0 0.0
14.5 1.0 0.0
15.0 1.0 0.0
15.5 1.0 0.0
16.0 1.0 0.0
16.5 1.0 0.0
17.0 1.0 0.0
17.5 1.0 0.0
18.0 1.0 0.0
18.5 1.0 0.0
19.0 1.0 0.0
19.5 1.0 0.0
20.0 1.0 0.0
20.5 1.0 0.0
21.0 1.0 0.0
21.5 1.0 0.0
22.0 1.0 0.0
22.5 1.0 0.0
23.0 1.0 0.0
23.5 1.0 0.0
24.0 1.0 0.0
24.5 1.0 0.0
25.0 1.0 0.0
25.5 1.0 0.0
26.0 1.0 0.0
26.5 1.0 0.0
27.0 1.0 0.0
27.5 1.0 0.0
28.0 1.0 0.0
28.5 1.0 0.0
29.0 1.0 0.0
29.5 1.0 0.0
30.0 1.0 0.0
30.5 1.0 0.0
31.0 1.0 0.0
31.5 1.0 0.0
32.0 1.0 0.0
32.5 1.0 0.0
33.0 1.0 0.0
33.5 1.0 0.0
34.0 1.0 0.0
34.5 1.0 0.0
35.0 1.0 0.0
35.5 1.0 0.0
36.0 1.0 0.0
36.5 1.0 0.0
37.0 1.0 0.0
37.5 1.0 0.0
38.0 1.0 0.0
38.5 1.0 0.0
39.0 1.0 0.0
39.5 1.0 0.0
40.0 1.0 0.0
40.5 1.0 0.0
41.0 1.0 0.0
41.5 1.0 0.0
42.0 1.0 0.0
42.5 1.0 0.0
43.0 1.0 0.0
43.5 1.0 0.0
44.0 1.0 0.0
44.5 1.0 0.0
45.0 1.0 0.0
45.5 1.0 0.0
46.0 1.0 0.0
46.5 1.0 0.0
47.0 1.0 0.0
47.5 1.0 0.0
48.0 1.0 0.0
48.5 1.0 0.0
49.0 1.0 0.0
49.5 1.0 0.0
50.0 1.0 0.0
50.5 1.0 0.0
51.0 1.0 0.0
51.5 1.0 0.0
52.0 1.0 0.0
52.5 1.0 0.0
53.0 1.0 0.0
53.5 1.0 0.0
54.0 1.0 0.0
54.5 1.0 0.0
55.0 1.0 0.0
55.5 1.0 0.0
56.0 1.0 0.0
56.5 1.0 0.0
57.0 1.0 0.0
57.5 1.0 0.0
58.0 1.0 0.0
58.5 1.0 0.0
59.0 1.0 0.0
59.5 1.0 0.0
60.0 1.0 0.0
60.5 1.0 0.0
61.0 1.0 0.0
61.5 1.0 0.0
62.0 1.0 0.0
62.5 1.0 0.0
63.0 1.0 0.0
63.5 1.0 0.0
64.0 1.0 0.0
64.5 1.0 0.0
65.0 1.0 0.0
65.5 1.0 0.0
66.0 1.0 0.0
66.5 1.0 0.0
67.0 1.0 0.0
67.5 1.0 0.0
68.0 1.0 0.0
68.5 1.0 0.0
69.0 1.0 0.0
69.5 1.0 0.0
70.0 1.0 0.0
70.5 1.0 0.0
71.0 1.0 0.0
71.5 1.0 0.0
72.0 1.0 0.0
72.5 1.0 0.0
73.0 1.0 0.0
73.5 1.0 0.0
74.0 1.0 0.0
74.5 1.0 0.0
75.0 1.0 0.0
75.5 1.0 0.0
76.0 1.0 0.0
76.5 1.0 0.0
77.0 1.0 0.0
77.5 1.0 0.0
78.0 1.0 0.0
78.5 1.0 0.0
79.0 1.0 0.0
79.5 1.0 0.0
80.0 1.0 0.0
80.5 1.0 0.0
81.0 1.0 0.0
81.5 1.0 0.0
82.0 1.0 0.0
82.5 1.0 0.0
83.0 1.0 0.0
83.5 1.0 0.0
84.0 1.0 0.0
84.5 1.0 0.0
85.0 1.0 0.0
85.5 1.0 0.0
86.0 1.0 0.0
86.5 1.0 0.0
87.0 1.0 0.0
87.5 1.0 0.0
88.0 1.0 0.0
88.5 1.0 0.0
89.0 1.0 0.0
89.5 1.0 0.0
90.0 1.0 0.0
90.5 1.0 0.0
91.0 1.0 0.0
91.5 1.0 0.0
92.0 1.0 0.0
92.5 1.0 0.0
93.0 1.0 0.0
93.5 1.0 0.0
94.0 1.0 0.0
94.5 1.0 0.0
95.0 1.0 0.0
95.5 1.0 0.0
96.0 1.0 0.0
96.5 1.0 0.0
97.0 1.0 0.0
97.5 1.0 0.0
98.0 1.0 0.0
98.5 1.0 0.0
99.0 1.0 0.0
99.5 1.0 0.0
100.0 1.0 0.0
0.0 2.0 0.0
0.5 2.0 0.0
1.0 2.0 0.0
1.5 2.0 0.0
2.0 2.0 0.0
2.5 2.0 0.0
3.0 2.0 0.0
3.5 2.0 0.0
4.0 2.0 0.0
4.5 2.0 0.0
5.0 2.0 0.0
5.5 2.0 0.0
6.0 2.0 0.0
6.5 2.0 0.0
7.0 2.0 0.0
7.5 2.0 0.0
8.0 2.0 0.0
8.5 2.0 0.0
9.0 2.0 0.0
9.5 2.0 0.0
10.0 2.0 0.0
10.5 2.0 0.0
11.0 2.0 0.0
11.5 2.0 0.0
12.0 2.0 0.0
12.5 2.0 0.0
13.0 2.0 0.0
13.5 2.0 0.0
14.0 2.0 0.0
14.5 2.0 0.0
15.0 2.0 0.0
15.5 2.0 0.0
16.0 2.0 0.0
16.5 2.0 0.0
17.0 2.0 0.0
17.5 2.0 0.0
18.0 2.0 0.0
18.5 2.0 0.0
19.0 2.0 0.0
19.5 2.0 0.0
20.0 2.0 0.0
20.5 2.0 0.0
21.0 2.0 0.0
21.5 2.0 0.0
22.0 2.0 0.0
22.5 2.0 0.0
23.0 2.0 0.0
23.5 2.0 0.0
24.0 2.0 0.0
24.5 2.0 0.0
25.0 2.0 0.0
25.5 2.0 0.0
26.0 2.0 0.0
26.5 2.0 0.0
27.0 2.0 0.0
27.5 2.0 0.0
28.0 2.0 0.0
28.5 2.0 0.0
29.0 2.0 0.0
29.5 2.0 0.0
30.0 2.0 0.0
30.5 2.0 0.0
31.0 2.0 0.0
31.5 2.0 0.0
32.0 2.0 0.0
32.5 2.0 0.0
33.0 2.0 0.0
33.5 2.0 0.0
34.0 2.0 0.0
34.5 2.0 0.0
35.0 2.0 0.0
35.5 2.0 0.0
36.0 2.0 0.0
36.5 2.0 0.0
37.0 2.0 0.0
37.5 2.0 0.0
38.0 2.0 0.0
38.5 2.0 0.0
39.0 2.0 0.0
39.5 2.0 0.0
40.0 2.0 0.0
40.5 2.0 0.0
41.0 2.0 0.0
41.5 2.0 0.0
42.0 2.0 0.0
42.5 2.0 0.0
43.0 2.0 0.0
43.5 2.0 0.0
44.0 2.0 0.0
44.5 2.0 0.0
45.0 2.0 0.0
45.5 2.0 0.0
46.0 2.0 0.0
46.5 2.0 0.0
47.0 2.0 0.0
47.5 2.0 0.0
48.0 2.0 0.0
48.5 2.0 0.0
49.0 2.0 0.0
49.5 2.0 0.0
50.0 2.0 0.0
50.5 2.0 0.0
51.0 2.0 0.0
51.5 2.0 0.0
52.0 2.0 0.0
52.5 2.0 0.0
53.0 2.0 0.0
53.5 2.0 0.0
54.0 2.0 0.0
54.5 2.0 0.0
55.0 2.0 0.0
55.5 2.0 0.0
56.0 2.0 0.0
56.5 2.0 0.0
57.0 2.0 0.0
57.5 2.0 0.0
58.0 2.0 0.0
58.5 2.0 0.0
59.0 2.0 0.0
59.5 2.0 0.0
60.0 2.0 0.0
60.5 2.0 0.0
61.0 2.0 0.0
61.5 2.0 0.0
62.0 2.0 0.0
62.5 2.0 0.0
63.0 2.0 0.0
63.5 2.0 0.0
64.0 2.0 0.0
64.5 2.0 0.0
65.0 2.0 0.0
65.5 2.0 0.0
66.0 2.0 0.0
66.5 2.0 0.0
67.0 2.0 0.0
67.5 2.0 0.0
68.0 2.0 0.0
68.5 2.0 0.0
69.0 2.0 0.0
69.5 2.0 0.0
70.0 2.0 0.0
70.5 2.0 0.0
71.0 2.0 0.0
71.5 2.0 0.0
72.0 2.0 0.0
72.5 2.0 0.0
73.0 2.0 0.0
73.5 2.0 0.0
74.0 2.0 0.0
74.5 2.0 0.0
75.0 2.0 0.0
75.5 2.0 0.0
76.0 2.0 0.0
76.5 2.0 0.0
77.0 2.0 0.0
77.5 2.0 0.0
78.0 2.0 0.0
78.5 2.0 0.0
79.0 2.0 0.0
79.5 2.0 0.0
80.0 2.0 0.0
80.5 2.0 0.0
81.0 2.0 0.0
81.5 2.0 0.0
82.0 2.0 0.0
82.5 2.0 0.0
83.0 2.0 0.0
83.5 2.0 0.0
84.0 2.0 0.0
84.5 2.0 0.0
85.0 2.0 0.0
85.5 2.0 0.0
86.0 2.0 0.0
86.5 2.0 0.0
87.0 2.0 0.0
87.5 2.0 0.0
88.0 2.0 0.0
88.5 2.0 0.0
89.0 2.0 0.0
89.5 2.0 0.0
90.0 2.0 0.0
90.5 2.0 0.0
91.0 2.0 0.0
91.5 2.0 0.0
92.0 2.0 0.0
92.5 2.0 0.0
93.0 2.0 0.0
93.5 2.0 0.0
94.0 2.0 0.0
94.5 2.0 0.0
95.0 2.0 0.0
95.5 2.0 0.0
96.0 2.0 0.0
96.5 2.0 0.0
97.0 2.0 0.0
97.5 2.0 0.0
98.0 2.0 0.0
98.5 2.0 0.0
99.0 2.0 0.0
99.5 2.0 0.0
100.0 2.0 0.0
0.0 3.0 0.0
0.5 3.0 0.0
1.0 3.0 0.0
1.5 3.0 0.0
2.0 3.0 0.0
2.5 3.0 0.0
3.0 3.0 0.0
3.5 3.0 0.0
4.0 3.0 0.0
4.5 3.0 0.0
5.0 3.0 0.0
5.5 3.0 0.0
6.0 3.0 0.0
6.5 3.0 0.0
7.0 3.0 0.0
7.5 3.0 0.0
8.0 3.0 0.0
8.5 3.0 0.0
9.0 3.0 0.0
9.5 3.0 0.0
10.0 3.0 0.0
10.5 3.0 0.0
11.0 3.0 0.0
11.5 3.0 0.0
12.0 3.0 0.0
12.5 3.0 0.0
13.0 3.0 0.0
13.5 3.0 0.0
14.0 3.0 0.0
14.5 3.0 0.0
15.0 3.0 0.0
15.5 3.0 0.0
16.0 3.0 0.0
16.5 3.0 0.0
17.0 3.0 0.0
17.5 3.0 0.0
18.0 3.0 0.0
18.5 3.0 0.0
19.0 3.0 0.0
19.5 3.0 0.0
20.0 3.0 0.0
20.5 3.0 0.0
21.0 3.0 0.0
21.5 3.0 0.0
22.0 3.0 0.0
22.5 3.0 0.0
23.0 3.0 0.0
23.5 3.0 0.0
24.0 3.0 0.0
24.5 3.0 0.0
25.0 3.0 0.0
25.5 3.0 0.0
26.0 3.0 0.0
26.5 3.0 0.0
27.0 3.0 0.0
27.5 3.0 0.0
28.0 3.0 0.0
28.5 3.0 0.0
29.0 3.0 0.0
29.5 3.0 0.0
30.0 3.0 0.0
30.5 3.0 0.0
31.0 3.0 0.0
31.5 3.0 0.0
32.0 3.0 0.0
32.5 3.0 0.0
33.0 3.0 0.0
33.5 3.0 0.0
34.0 3.0 0.0
34.5 3.0 0.0
35.0 3.0 0.0
35.5 3.0 0.0
36.0 3.0 0.0
36.5 3.0 0.0
37.0 3.0 0.0
37.5 3.0 0.0
38.0 3.0 0.0
38.5 3.0 0.0
39.0 3.0 0.0
39.5 3.0 0.0
40.0 3.0 0.0
40.5 3.0 0.0
41.0 3.0 0.0
41.5 3.0 0.0
42.0 3.0 0.0
42.5 3.0 0.0
43.0 3.0 0.0
43.5 3.0 0.0
44.0 3.0 0.0
44.5 3.0 0.0
45.0 3.0 0.0
45.5 3.0 0.0
46.0 3.0 0.0
46.5 3.0 0.0
47.0 3.0 0.0
47.5 3.0 0.0
48.0 3.0 0.0
48.5 3.0 0.0
49.0 3.0 0.0
49.5 3.0 0.0
50.0 3.0 0.0
50.5 3.0 0.0
51.0 3.0 0.0
51.5 3.0 0.0
52.0 3.0 0.0
52.5 3.0 0.0
53.0 3.0 0.0
53.5 3.0 0.0
54.0 3.0 0.0
54.5 3.0 0.0
55.0 3.0 0.0
55.5 3.0 0.0
56.0 3.0 0.0
56.5 3.0 0.0
57.0 3.0 0.0
57.5 3.0 0.0
58.0 3.0 0.0
58.5 3.0 0.0
59.0 3.0 0.0
59.5 3.0 0.0
60.0 3.0 0.0
60.5 3.0 0.0
61.0 3.0 0.0
61.5 3.0 0.0
62.0 3.0 0.0
62.5 3.0 0.0
63.0 3.0 0.0
63.5 3.0 0.0
64.0 3.0 0.0
64.5 3.0 0.0
65.0 3.0 0.0
65.5 3.0 0.0
66.0 3.0 0.0
66.5 3.0 0.0
67.0 3.0 0.0
67.5 3.0 0.0
68.0 3.0 0.0
68.5 3.0 0.0
69.0 3.0 0.0
69.5 3.0 0.0
70.0 3.0 0.0
70.5 3.0 0.0
71.0 3.0 0.0
71.5 3.0 0.0
72.0 3.0 0.0
72.5 3.0 0.0
73.0 3.0 0.0
73.5 3.0 0.0
74.0 3.0 0.0
74.5 3.0 0.0
75.0 3.0 0.0
75.5 3.0 0.0
76.0 3.0 0.0
76.5 3.0 0.0
77.0 3.0 0.0
77.5 3.0 0.0
78.0 3.0 0.0
78.5 3.0 0.0
79.0 3.0 0.0
79.5 3.0 0.0
80.0 3.0 0.0
80.5 3.0 0.0
81.0 3.0 0.0
81.5 3.0 0.0
82.0 3.0 0.0
82.5 3.0 0.0
83.0 3.0 0.0
83.5 3.0 0.0
84.0 3.0 0.0
84.5 3.0 0.0
85.0 3.0 0.0
85.5 3.0 0.0
86.0 3.0 0.0
86.5 3.0 0.0
87.0 3.0 0.0
87.5 3.0 0.0
88.0 3.0 0.0
88.5 3.0 0.0
89.0 3.0 0.0
89.5 3.0 0.0
90.0 3.0 0.0
90.5 3.0 0.0
91.0 3.0 0.0
91.5 3.0 0.0
92.0 3.0 0.0
92.5 3.0 0.0
93.0 3.0 0.0
93.5 3.0 0.0
94.0 3.0 0.0
94.5 3.0 0.0
95.0 3.0 0.0
95.5 3.0 0.0
96.0 3.0 0.0
96.5 3.0 0.0
97.0 3.0 0.0
97.5 3.0 0.0
98.0 3.0 0.0
98.5 3.0 0.0
99.0 3.0 0.0
99.5 3.0 0.0
100.0 3.0 0.0
0.0 4.0 0.0
0.5 4.0 0.0
1.0 4.0 0.0
1.5 4.0 0.0
2.0 4.0 0.0
2.5 4.0 0.0
3.0 4.0 0.0
3.5 4.0 0.0
4.0 4.0 0.0
4.5 4.0 0.0
5.0 4.0 0.0
5.5 4.0 0.0
6.0 4.0 0.0
6.5 4.0 0.0
7.0 4.0 0.0
7.5 4.0 0.0
8.0 4.0 0.0
8.5 4.0 0.0
9.0 4.0 0.0
9.5 4.0 0.0
10.0 4.0 0.0
10.5 4.0 0.0
11.0 4.0 0.0
11.5 4.0 0.0
12.0 4.0 0.0
12.5 4.0 0.0
13.0 4.0 0.0
13.5 4.0 0.0
14.0 4.0 0.0
14.5 4.0 0.0
15.0 4.0 0.0
15.5 4.0 0.0
16.0 4.0 0.0
16.5 4.0 0.0
17.0 4.0 0.0
17.5 4.0 0.0
18.0 4.0 0.0
18.5 4.0 0.0
19.0 4.0 0.0
19.5 4.0 0.0
20.0 4.0 0.0
20.5 4.0 0.0
21.0 4.0 0.0
21.5 4.0 0.0
22.0 4.0 0.0
22.5 4.0 0.0
23.0 4.0 0.0
23.5 4.0 0.0
24.0 4.0 0.0
24.5 4.0 0.0
25.0 4.0 0.0
25.5 4.0 0.0
26.0 4.0 0.0
26.5 4.0 0.0
27.0 4.0 0.0
27.5 4.0 0.0
28.0 4.0 0.0
28.5 4.0 0.0
29.0 4.0 0.0
29.5 4.0 0.0
30.0 4.0 0.0
30.5 4.0 0.0
31.0 4.0 0.0
31.5 4.0 0.0
32.0 4.0 0.0
32.5 4.0 0.0
33.0 4.0 0.0
33.5 4.0 0.0
34.0 4.0 0.0
34.5 4.0 0.0
35.0 4.0 0.0
35.5 4.0 0.0
36.0 4.0 0.0
36.5 4.0 0.0
37.0 4.0 0.0
37.5 4.0 0.0
38.0 4.0 0.0
38.5 4.0 0.0
39.0 4.0 0.0
39.5 4.0 0.0
40.0 4.0 0.0
40.5 4.0 0.0
41.0 4.0 0.0
41.5 4.0 0.0
42.0 4.0 0.0
42.5 4.0 0.0
43.0 4.0 0.0
43.5 4.0 0.0
44.0 4.0 0.0
44.5 4.0 0.0
45.0 4.0 0.0
45.5 4.0 0.0
46.0 4.0 0.0
46.5 4.0 0.0
47.0 4.0 0.0
47.5 4.0 0.0
48.0 4.0 0.0
48.5 4.0 0.0
49.0 4.0 0.0
49.5 4.0 0.0
50.0 4.0 0.0
50.5 4.0 0.0
51.0 4.0 0.0
51.5 4.0 0.0
52.0 4.0 0.0
52.5 4.0 0.0
53.0 4.0 0.0
53.5 4.0 0.0
54.0 4.0 0.0
54.5 4.0 0.0
55.0 4.0 0.0
55.5 4.0 0.0
56.0 4.0 0.0
56.5 4.0 0.0
57.0 4.0 0.0
57.5 4.0 0.0
58.0 4.0 0.0
58.5 4.0 0.0
59.0 4.0 0.0
59.5 4.0 0.0
60.0 4.0 0.0
60.5 4.0 0.0
61.0 4.0 0.0
61.5 4.0 0.0
62.0 4.0 0.0
62.5 4.0 0.0
63.0 4.0 0.0
63.5 4.0 0.0
64.0 4.0 0.0
64.5 4.0 0.0
65.0 4.0 0.0
65.5 4.0 0.0
66.0 4.0 0.0
66.5 4.0 0.0
67.0 4.0 0.0
67.5 4.0 0.0
68.0 4.0 0.0
68.5 4.0 0.0
69.0 4.0 0.0
69.5 4.0 0.0
70.0 4.0 0.0
70.5 4.0 0.0
71.0 4.0 0.0
71.5 4.0 0.0
72.0 4.0 0.0
72.5 4.0 0.0
73.0 4.0 0.0
73.5 4.0 0.0
74.0 4.0 0.0
74.5 4.0 0.0
75.0 4.0 0.0
75.5 4.0 0.0
76.0 4.0 0.0
76.5 4.0 0.0
77.0 4.0 0.0
77.5 4.0 0.0
78.0 4.0 0.0
78.5 4.0 0.0
79.0 4.0 0.0
79.5 4.0 0.0
80.0 4.0 0.0
80.5 4.0 0.0
81.0 4.0 0.0
81.5 4.0 0.0
82.0 4.0 0.0
82.5 4.0 0.0
83.0 4.0 0.0
83.5 4.0 0.0
84.0 4.0 0.0
84.5 4.0 0.0
85.0 4.0 0.0
85.5 4.0 0.0
86.0 4.0 0.0
86.5 4.0 0.0
87.0 4.0 0.0
87.5 4.0 0.0
88.0 4.0 0.0
88.5 4.0 0.0
89.0 4.0 0.0
89.5 4.0 0.0
90.0 4.0 0.0
90.5 4.0 0.0
91.0 4.0 0.0
91.5 4.0 0.0
92.0 4.0 0.0
92.5 4.0 0.0
93.0 4.0 0.0
93.5 4.0 0.0
94.0 4.0 0.0
94.5 4.0 0.0
95.0 4.0 0.0
95.5 4.0 0.0
96.0 4.0 0.0
96.5 4.0 0.0
97.0 4.0 0.0
97.5 4.0 0.0
98.0 4.0 0.0
98.5 4.0 0.0
99.0 4.0 0.0
99.5 4.0 0.0
100.0 4.0 0.0
0.0 5.0 0.0
0.5 5.0 0.0
1.0 5.0 0.0
1.5 5.0 0.0
2.0 5.0 0.0
2.5 5.0 0.0
3.0 5.0 0.0
3.5 5.0 0.0
4.0 5.0 0.0
4.5 5.0 0.0
5.0 5.0 0.0
5.5 5.0 0.0
6.0 5.0 0.0
6.5 5.0 0.0
7.0 5.0 0.0
7.5 5.0 0.0
8.0 5.0 0.0
8.5 5.0 0.0
9.0 5.0 0.0
9.5 5.0 0.0
10.0 5.0 0.0
10.5 5.0 0.0
11.0 5.0 0.0
11.5 5.0 0.0
12.0 5.0 0.0
12.5 5.0 0.0
13.0 5.0 0.0
13.5 5.0 0.0
14.0 5.0 0.0
14.5 5.0 0.0
15.0 5.0 0.0
15.5 5.0 0.0
16.0 5.0 0.0
16.5 5.0 0.0
17.0 5.0 0.0
17.5 5.0 0.0
18.0 5.0 0.0
18.5 5.0 0.0
19.0 5.0 0.0
19.5 5.0 0.0
20.0 5.0 0.0
20.5 5.0 0.0
21.0 5.0 0.0
21.5 5.0 0.0
22.0 5.0 0.0
22.5 5.0 0.0
23.0 5.0 0.0
23.5 5.0 0.0
24.0 5.0 0.0
24.5 5.0 0.0
25.0 5.0 0.0
25.5 5.0 0.0
26.0 5.0 0.0
26.5 5.0 0.0
27.0 5.0 0.0
27.5 5.0 0.0
28.0 5.0 0.0
28.5 5.0 0.0
29.0 5.0 0.0
29.5 5.0 0.0
30.0 5.0 0.0
30.5 5.0 0.0
31.0 5.0 0.0
31.5 5.0 0.0
32.0 5.0 0.0
32.5 5.0 0.0
33.0 5.0 0.0
33.5 5.0 0.0
34.0 5.0 0.0
34.5 5.0 0.0
35.0 5.0 0.0
35.5 5.0 0.0
36.0 5.0 0.0
36.5 5.0 0.0
37.0 5.0 0.0
37.5 5.0 0.0
38.0 5.0 0.0
38.5 5.0 0.0
39.0 5.0 0.0
39.5 5.0 0.0
40.0 5.0 0.0
40.5 5.0 0.0
41.0 5.0 0.0
41.5 5.0 0.0
42.0 5.0 0.0
42.5 5.0 0.0
43.0 5.0 0.0
43.5 5.0 0.0
44.0 5.0 0.0
44.5 5.0 0.0
45.0 5.0 0.0
45.5 5.0 0.0
46.0 5.0 0.0
46.5 5.0 0.0
47.0 5.0 0.0
47.5 5.0 0.0
48.0 5.0 0.0
48.5 5.0 0.0
49.0 5.0 0.0
49.5 5.0 0.0
50.0 5.0 0.0
50.5 5.0 0.0
51.0 5.0 0.0
51.5 5.0 0.0
52.0 5.0 0.0
52.5 5.0 0.0
53.0 5.0 0.0
53.5 5.0 0.0
54.0 5.0 0.0
54.5 5.0 0.0
55.0 5.0 0.0
55.5 5.0 0.0
56.0 5.0 0.0
56.5 5.0 0.0
57.0 5.0 0.0
57.5 5.0 0.0
58.0 5.0 0.0
58.5 5.0 0.0
59.0 5.0 0.0
59.5 5.0 0.0
60.0 5.0 0.0
60.5 5.0 0.0
61.0 5.0 0.0
61.5 5.0 0.0
62.0 5.0 0.0
62.5 5.0 0.0
63.0 5.0 0.0
63.5 5.0 0.0
64.0 5.0 0.0
64.5 5.0 0.0
65.0 5.0 0.0
65.5 5.0 0.0
66.0 5.0 0.0
66.5 5.0 0.0
67.0 5.0 0.0
67.5 5.0 0.0
68.0 5.0 0.0
68.5 5.0 0.0
69.0 5.0 0.0
69.5 5.0 0.0
70.0 5.0 0.0
70.5 5.0 0.0
71.0 5.0 0.0
71.5 5.0 0.0
72.0 5.0 0.0
72.5 5.0 0.0
73.0 5.0 0.0
73.5 5.0 0.0
74.0 5.0 0.0
74.5 5.0 0.0
75.0 5.0 0.0
75.5 5.0 0.0
76.0 5.0 0.0
76.5 5.0 0.0
77.0 5.0 0.0
77.5 5.0 0.0
78.0 5.0 0.0
78.5 5.0 0.0
79.0 5.0 0.0
79.5 5.0 0.0
80.0 5.0 0.0
80.5 5.0 0.0
81.0 5.0 0.0
81.5 5.0 0.0
82.0 5.0 0.0
82.5 5.0 0.0
83.0 5.0 0.0
83.5 5.0 0.0
84.0 5.0 0.0
84.5 5.0 0.0
85.0 5.0 0.0
85.5 5.0 0.0
86.0 5.0 0.0
86.5 5.0 0.0
87.0 5.0 0.0
87.5 5.0 0.0
88.0 5.0 0.0
88.5 5.0 0.0
89.0 5.0 0.0
89.5 5.0 0.0
90.0 5.0 0.0
90.5 5.0 0.0
91.0 5.0 0.0
91.5 5.0 0.0
92.0 5.0 0.0
92.5 5.0 0.0
93.0 5.0 0.0
93.5 5.0 0.0
94.0 5.0 0.0
94.5 5.0 0.0
95.0 5.0 0.0
95.5 5.0 0.0
96.0 5.0 0.0
96.5 5.0 0.0
97.0 5.0 0.0
97.5 5.0 0.0
98.0 5.0 0.0
98.5 5.0 0.0
99.0 5.0 0.0
99.5 5.0 0.0
100.0 5.0 0.0
0.0 6.0 0.0
0.5 6.0 0.0
1.0 6.0 0.0
1.5 6.0 0.0
2.0 6.0 0.0
2.5 6.0 0.0
3.0 6.0 0.0
3.5 6.0 0.0
4.0 6.0 0.0
4.5 6.0 0.0
5.0 6.0 0.0
5.5 6.0 0.0
6.0 6.0 0.0
6.5 6.0 0.0
7.0 6.0 0.0
7.5 6.0 0.0
8.0 6.0 0.0
8.5 6.0 0.0
9.0 6.0 0.0
9.5 6.0 0.0
10.0 6.0 0.0
10.5 6.0 0.0
11.0 6.0 0.0
11.5 6.0 0.0
12.0 6.0 0.0
12.5 6.0 0.0
13.0 6.0 0.0
13.5 6.0 0.0
14.0 6.0 0.0
14.5 6.0 0.0
15.0 6.0 0.0
15.5 6.0 0.0
16.0 6.0 0.0
16.5 6.0 0.0
17.0 6.0 0.0
17.5 6.0 0.0
18.0 6.0 0.0
18.5 6.0 0.0
19.0 6.0 0.0
19.5 6.0 0.0
20.0 6.0 0.0
20.5 6.0 0.0
21.0 6.0 0.0
21.5 6.0 0.0
22.0 6.0 0.0
22.5 6.0 0.0
23.0 6.0 0.0
23.5 6.0 0.0
24.0 6.0 0.0
24.5 6.0 0.0
25.0 6.0 0.0
25.5 6.0 0.0
26.0 6.0 0.0
26.5 6.0 0.0
27.0 6.0 0.0
27.5 6.0 0.0
28.0 6.0 0.0
28.5 6.0 0.0
29.0 6.0 0.0
29.5 6.0 0.0
30.0 6.0 0.0
30.5 6.0 0.0
31.0 6.0 0.0
31.5 6.0 0.0
32.0 6.0 0.0
32.5 6.0 0.0
33.0 6.0 0.0
33.5 6.0 0.0
34.0 6.0 0.0
34.5 6.0 0.0
35.0 6.0 0.0
35.5 6.0 0.0
36.0 6.0 0.0
36.5 6.0 0.0
37.0 6.0 0.0
37.5 6.0 0.0
38.0 6.0 0.0
38.5 6.0 0.0
39.0 6.0 0.0
39.5 6.0 0.0
40.0 6.0 0.0
40.5 6.0 0.0
41.0 6.0 0.0
41.5 6.0 0.0
42.0 6.0 0.0
42.5 6.0 0.0
43.0 6.0 0.0
43.5 6.0 0.0
44.0 6.0 0.0
44.5 6.0 0.0
45.0 6.0 0.0
45.5 6.0 0.0
46.0 6.0 0.0
46.5 6.0 0.0
47.0 6.0 0.0
47.5 6.0 0.0
48.0 6.0 0.0
48.5 6.0 0.0
49.0 6.0 0.0
49.5 6.0 0.0
50.0 6.0 0.0
50.5 6.0 0.0
51.0 6.0 0.0
51.5 6.0 0.0
52.0 6.0 0.0
52.5 6.0 0.0
53.0 6.0 0.0
53.5 6.0 0.0
54.0 6.0 0.0
54.5 6.0 0.0
55.0 6.0 0.0
55.5 6.0 0.0
56.0 6.0 0.0
56.5 6.0 0.0
57.0 6.0 0.0
57.5 6.0 0.0
58.0 6.0 0.0
58.5 6.0 0.0
59.0 6.0 0.0
59.5 6.0 0.0
60.0 6.0 0.0
60.5 6.0 0.0
61.0 6.0 0.0
61.5 6.0 0.0
62.0 6.0 0.0
62.5 6.0 0.0
63.0 6.0 0.0
63.5 6.0 0.0
64.0 6.0 0.0
64.5 6.0 0.0
65.0 6.0 0.0
65.5 6.0 0.0
66.0 6.0 0.0
66.5 6.0 0.0
67.0 6.0 0.0
67.5 6.0 0.0
68.0 6.0 0.0
68.5 6.0 0.0
69.0 6.0 0.0
69.5 6.0 0.0
70.0 6.0 0.0
70.5 6.0 0.0
71.0 6.0 0.0
71.5 6.0 0.0
72.0 6.0 0.0
72.5 6.0 0.0
73.0 6.0 0.0
73.5 6.0 0.0
74.0 6.0 0.0
74.5 6.0 0.0
75.0 6.0 0.0
75.5 6.0 0.0
76.0 6.0 0.0
76.5 6.0 0.0
77.0 6.0 0.0
77.5 6.0 0.0
78.0 6.0 0.0
78.5 6.0 0.0
79.0 6.0 0.0
79.5 6.0 0.0
80.0 6.0 0.0
80.5 6.0 0.0
81.0 6.0 0.0
81.5 6.0 0.0
82.0 6.0 0.0
82.5 6.0 0.0
83.0 6.0 0.0
83.5 6.0 0.0
84.0 6.0 0.0
84.5 6.0 0.0
85.0 6.0 0.0
85.5 6.0 0.0
86.0 6.0 0.0
86.5 6.0 0.0
87.0 6.0 0.0
87.5 6.0 0.0
88.0 6.0 0.0
88.5 6.0 0.0
89.0 6.0 0.0
89.5 6.0 0.0
90.0 6.0 0.0
90.5 6.0 0.0
91.0 6.0 0.0
91.5 6.0 0.0
92.0 6.0 0.0
92.5 6.0 0.0
93.0 6.0 0.0
93.5 6.0 0.0
94.0 6.0 0.0
94.5 6.0 0.0
95.0 6.0 0.0
95.5 6.0 0.0
96.0 6.0 0.0
96.5 6.0 0.0
97.0 6.0 0.0
97.5 6.0 0.0
98.0 6.0 0.0
98.5 6.0 0.0
99.0 6.0 0.0
99.5 6.0 0.0
100.0 6.0 0.0
0.0 7.0 0.0
0.5 7.0 0.0
1.0 7.0 0.0
1.5 7.0 0.0
2.0 7.0 0.0
2.5 7.0 0.0
3.0 7.0 0.0
3.5 7.0 0.0
4.0 7.0 0.0
4.5 7.0 0.0
5.0 7.0 0.0
5.5 7.0 0.0
6.0 7.0 0.0
6.5 7.0 0.0
7.0 7.0 0.0
7.5 7.0 0.0
8.0 7.0 0.0
8.5 7.0 0.0
9.0 7.0 0.0
9.5 7.0 0.0
10.0 7.0 0.0
10.5 7.0 0.0
11.0 7.0 0.0
11.5 7.0 0.0
12.0 7.0 0.0
12.5 7.0 0.0
13.0 7.0 0.0
13.5 7.0 0.0
14.0 7.0 0.0
14.5 7.0 0.0
15.0 7.0 0.0
15.5 7.0 0.0
16.0 7.0 0.0
16.5 7.0 0.0
17.0 7.0 0.0
17.5 7.0 0.0
18.0 7.0 0.0
18.5 7.0 0.0
19.0 7.0 0.0
19.5 7.0 0.0
20.0 7.0 0.0
20.5 7.0 0.0
21.0 7.0 0.0
21.5 7.0 0.0
22.0 7.0 0.0
22.5 7.0 0.0
23.0 7.0 0.0
23.5 7.0 0.0
24.0 7.0 0.0
24.5 7.0 0.0
25.0 7.0 0.0
25.5 7.0 0.0
26.0 7.0 0.0
26.5 7.0 0.0
27.0 7.0 0.0
27.5 7.0 0.0
28.0 7.0 0.0
28.5 7.0 0.0
29.0 7.0 0.0
29.5 7.0 0.0
30.0 7.0 0.0
30.5 7.0 0.0
31.0 7.0 0.0
31.5 7.0 0.0
32.0 7.0 0.0
32.5 7.0 0.0
33.0 7.0 0.0
33.5 7.0 0.0
34.0 7.0 0.0
34.5 7.0 0.0
35.0 7.0 0.0
35.5 7.0 0.0
36.0 7.0 0.0
36.5 7.0 0.0
37.0 7.0 0.0
37.5 7.0 0.0
38.0 7.0 0.0
38.5 7.0 0.0
39.0 7.0 0.0
39.5 7.0 0.0
40.0 7.0 0.0
40.5 7.0 0.0
41.0 7.0 0.0
41.5 7.0 0.0
42.0 7.0 0.0
42.5 7.0 0.0
43.0 7.0 0.0
43.5 7.0 0.0
44.0 7.0 0.0
44.5 7.0 0.0
45.0 7.0 0.0
45.5 7.0 0.0
46.0 7.0 0.0
46.5 7.0 0.0
47.0 7.0 0.0
47.5 7.0 0.0
48.0 7.0 0.0
48.5 7.0 0.0
49.0 7.0 0.0
49.5 7.0 0.0
50.0 7.0 0.0
50.5 7.0 0.0
51.0 7.0 0.0
51.5 7.0 0.0
52.0 7.0 0.0
52.5 7.0 0.0
53.0 7.0 0.0
53.5 7.0 0.0
54.0 7.0 0.0
54.5 7.0 0.0
55.0 7.0 0.0
55.5 7.0 0.0
56.0 7.0 0.0
56.5 7.0 0.0
57.0 7.0 0.0
57.5 7.0 0.0
58.0 7.0 0.0
58.5 7.0 0.0
59.0 7.0 0.0
59.5 7.0 0.0
60.0 7.0 0.0
60.5 7.0 0.0
61.0 7.0 0.0
61.5 7.0 0.0
62.0 7.0 0.0
62.5 7.0 0.0
63.0 7.0 0.0
63.5 7.0 0.0
64.0 7.0 0.0
64.5 7.0 0.0
65.0 7.0 0.0
65.5 7.0 0.0
66.0 7.0 0.0
66.5 7.0 0.0
67.0 7.0 0.0
67.5 7.0 0.0
68.0 7.0 0.0
68.5 7.0 0.0
69.0 7.0 0.0
69.5 7.0 0.0
70.0 7.0 0.0
70.5 7.0 0.0
71.0 7.0 0.0
71.5 7.0 0.0
72.0 7.0 0.0
72.5 7.0 0.0
73.0 7.0 0.0
73.5 7.0 0.0
74.0 7.0 0.0
74.5 7.0 0.0
75.0 7.0 0.0
75.5 7.0 0.0
76.0 7.0 0.0
76.5 7.0 0.0
77.0 7.0 0.0
77.5 7.0 0.0
78.0 7.0 0.0
78.5 7.0 0.0
79.0 7.0 0.0
79.5 7.0 0.0
80.0 7.0 0.0
80.5 7.0 0.0
81.0 7.0 0.0
81.5 7.0 0.0
82.0 7.0 0.0
82.5 7.0 0.0
83.0 7.0 0.0
83.5 7.0 0.0
84.0 7.0 0.0
84.5 7.0 0.0
85.0 7.0 0.0
85.5 7.0 0.0
86.0 7.0 0.0
86.5 7.0 0.0
87.0 7.0 0.0
87.5 7.0 0.0
88.0 7.0 0.0
88.5 7.0 0.0
89.0 7.0 0.0
89.5 7.0 0.0
90.0 7.0 0.0
90.5 7.0 0.0
91.0 7.0 0.0
91.5 7.0 0.0
92.0 7.0 0.0
92.5 7.0 0.0
93.0 7.0 0.0
93.5 7.0 0.0
94.0 7.0 0.0
94.5 7.0 0.0
95.0 7.0 0.0
95.5 7.0 0.0
96.0 7.0 0.0
96.5 7.0 0.0
97.0 7.0 0.0
97.5 7.0 0.0
98.0 7.0 0.0
98.5 7.0 0.0
99.0 7.0 0.0
99.5 7.0 0.0
100.0 7.0 0.0
0.0 8.0 0.0
0.5 8.0 0.0
1.0 8.0 0.0
1.5 8.0 0.0
2.0 8.0 0.0
2.5 8.0 0.0
3.0 8.0 0.0
3.5 8.0 0.0
4.0 8.0 0.0
4.5 8.0 0.0
5.0 8.0 0.0
5.5 8.0 0.0
6.0 8.0 0.0
6.5 8.0 0.0
7.0 8.0 0.0
7.5 8.0 0.0
8.0 8.0 0.0
8.5 8.0 0.0
9.0 8.0 0.0
9.5 8.0 0.0
10.0 8.0 0.0
10.5 8.0 0.0
11.0 8.0 0.0
11.5 8.0 0.0
12.0 8.0 0.0
12.5 8.0 0.0
13.0 8.0 0.0
13.5 8.0 0.0
14.0 8.0 0.0
14.5 8.0 0.0
15.0 8.0 0.0
15.5 8.0 0.0
16.0 8.0 0.0
16.5 8.0 0.0
17.0 8.0 0.0
17.5 8.0 0.0
18.0 8.0 0.0
18.5 8.0 0.0
19.0 8.0 0.0
19.5 8.0 0.0
20.0 8.0 0.0
20.5 8.0 0.0
21.0 8.0 0.0
21.5 8.0 0.0
22.0 8.0 0.0
22.5 8.0 0.0
23.0 8.0 0.0
23.5 8.0 0.0
24.0 8.0 0.0
24.5 8.0 0.0
25.0 8.0 0.0
25.5 8.0 0.0
26.0 8.0 0.0
26.5 8.0 0.0
27.0 8.0 0.0
27.5 8.0 0.0
28.0 8.0 0.0
28.5 8.0 0.0
29.0 8.0 0.0
29.5 8.0 0.0
30.0 8.0 0.0
30.5 8.0 0.0
31.0 8.0 0.0
31.5 8.0 0.0
32.0 8.0 0.0
32.5 8.0 0.0
33.0 8.0 0.0
33.5 8.0 0.0
34.0 8.0 0.0
34.5 8.0 0.0
35.0 8.0 0.0
35.5 8.0 0.0
36.0 8.0 0.0
36.5 8.0 0.0
37.0 8.0 0.0
37.5 8.0 0.0
38.0 8.0 0.0
38.5 8.0 0.0
39.0 8.0 0.0
39.5 8.0 0.0
40.0 8.0 0.0
40.5 8.0 0.0
41.0 8.0 0.0
41.5 8.0 0.0
42.0 8.0 0.0
42.5 8.0 0.0
43.0 8.0 0.0
43.5 8.0 0.0
44.0 8.0 0.0
44.5 8.0 0.0
45.0 8.0 0.0
45.5 8.0 0.0
46.0 8.0 0.0
46.5 8.0 0.0
47.0 8.0 0.0
47.5 8.0 0.0
48.0 8.0 0.0
48.5 8.0 0.0
49.0 8.0 0.0
49.5 8.0 0.0
50.0 8.0 0.0
50.5 8.0 0.0
51.0 8.0 0.0
51.5 8.0 0.0
52.0 8.0 0.0
52.5 8.0 0.0
53.0 8.0 0.0
53.5 8.0 0.0
54.0 8.0 0.0
54.5 8.0 0.0
55.0 8.0 0.0
55.5 8.0 0.0
56.0 8.0 0.0
56.5 8.0 0.0
57.0 8.0 0.0
57.5 8.0 0.0
58.0 8.0 0.0
58.5 8.0 0.0
59.0 8.0 0.0
59.5 8.0 0.0
60.0 8.0 0.0
60.5 8.0 0.0
61.0 8.0 0.0
61.5 8.0 0.0
62.0 8.0 0.0
62.5 8.0 0.0
63.0 8.0 0.0
63.5 8.0 0.0
64.0 8.0 0.0
64.5 8.0 0.0
65.0 8.0 0.0
65.5 8.0 0.0
66.0 8.0 0.0
66.5 8.0 0.0
67.0 8.0 0.0
67.5 8.0 0.0
68.0 8.0 0.0
68.5 8.0 0.0
69.0 8.0 0.0
69.5 8.0 0.0
70.0 8.0 0.0
70.5 8.0 0.0
71.0 8.0 0.0
71.5 8.0 0.0
72.0 8.0 0.0
72.5 8.0 0.0
73.0 8.0 0.0
73.5 8.0 0.0
74.0 8.0 0.0
74.5 8.0 0.0
75.0 8.0 0.0
75.5 8.0 0.0
76.0 8.0 0.0
76.5 8.0 0.0
77.0 8.0 0.0
77.5 8.0 0.0
78.0 8.0 0.0
78.5 8.0 0.0
79.0 8.0 0.0
79.5 8.0 0.0
80.0 8.0 0.0
80.5 8.0 0.0
81.0 8.0 0.0
81.5 8.0 0.0
82.0 8.0 0.0
82.5 8.0 0.0
83.0 8.0 0.0
83.5 8.0 0.0
84.0 8.0 0.0
84.5 8.0 0.0
85.0 8.0 0.0
85.5 8.0 0.0
86.0 8.0 0.0
86.5 8.0 0.0
87.0 8.0 0.0
87.5 8.0 0.0
88.0 8.0 0.0
88.5 8.0 0.0
89.0 8.0 0.0
89.5 8.0 0.0
90.0 8.0 0.0
90.5 8.0 0.0
91.0 8.0 0.0
91.5 8.0 0.0
92.0 8.0 0.0
92.5 8.0 0.0
93.0 8.0 0.0
93.5 8.0 0.0
94.0 8.0 0.0
94.5 8.0 0.0
95.0 8.0 0.0
95.5 8.0 0.0
96.0 8.0 0.0
96.5 8.0 0.0
97.0 8.0 0.0
97.5 8.0 0.0
98.0 8.0 0.0
98.5 8.0 0.0
99.0 8.0 0.0
99.5 8.0 0.0
100.0 8.0 0.0
0.0 9.0 0.0
0.5 9.0 0.0
1.0 9.0 0.0
1.5 9.0 0.0
2.0 9.0 0.0
2.5 9.0 0.0
3.0 9.0 0.0
3.5 9.0 0.0
4.0 9.0 0.0
4.5 9.0 0.0
5.0 9.0 0.0
5.5 9.0 0.0
6.0 9.0 0.0
6.5 9.0 0.0
7.0 9.0 0.0
7.5 9.0 0.0
8.0 9.0 0.0
8.5 9.0 0.0
9.0 9.0 0.0
9.5 9.0 0.0
10.0 9.0 0.0
10.5 9.0 0.0
11.0 9.0 0.0
11.5 9.0 0.0
12.0 9.0 0.0
12.5 9.0 0.0
13.0 9.0 0.0
13.5 9.0 0.0
14.0 9.0 0.0
14.5 9.0 0.0
15.0 9.0 0.0
15.5 9.0 0.0
16.0 9.0 0.0
16.5 9.0 0.0
17.0 9.0 0.0
17.5 9.0 0.0
18.0 9.0 0.0
18.5 9.0 0.0
19.0 9.0 0.0
19.5 9.0 0.0
20.0 9.0 0.0
20.5 9.0 0.0
21.0 9.0 0.0
21.5 9.0 0.0
22.0 9.0 0.0
22.5 9.0 0.0
23.0 9.0 0.0
23.5 9.0 0.0
24.0 9.0 0.0
24.5 9.0 0.0
25.0 9.0 0.0
25.5 9.0 0.0
26.0 9.0 0.0
26.5 9.0 0.0
27.0 9.0 0.0
27.5 9.0 0.0
28.0 9.0 0.0
28.5 9.0 0.0
29.0 9.0 0.0
29.5 9.0 0.0
30.0 9.0 0.0
30.5 9.0 0.0
31.0 9.0 0.0
31.5 9.0 0.0
32.0 9.0 0.0
32.5 9.0 0.0
33.0 9.0 0.0
33.5 9.0 0.0
34.0 9.0 0.0
34.5 9.0 0.0
35.0 9.0 0.0
35.5 9.0 0.0
36.0 9.0 0.0
36.5 9.0 0.0
37.0 9.0 0.0
37.5 9.0 0.0
38.0 9.0 0.0
38.5 9.0 0.0
39.0 9.0 0.0
39.5 9.0 0.0
40.0 9.0 0.0
40.5 9.0 0.0
41.0 9.0 0.0
41.5 9.0 0.0
42.0 9.0 0.0
42.5 9.0 0.0
43.0 9.0 0.0
43.5 9.0 0.0
44.0 9.0 0.0
44.5 9.0 0.0
45.0 9.0 0.0
45.5 9.0 0.0
46.0 9.0 0.0
46.5 9.0 0.0
47.0 9.0 0.0
47.5 9.0 0.0
48.0 9.0 0.0
48.5 9.0 0.0
49.0 9.0 0.0
49.5 9.0 0.0
50.0 9.0 0.0
50.5 9.0 0.0
51.0 9.0 0.0
51.5 9.0 0.0
52.0 9.0 0.0
52.5 9.0 0.0
53.0 9.0 0.0
53.5 9.0 0.0
54.0 9.0 0.0
54.5 9.0 0.0
55.0 9.0 0.0
55.5 9.0 0.0
56.0 9.0 0.0
56.5 9.0 0.0
57.0 9.0 0.0
57.5 9.0 0.0
58.0 9.0 0.0
58.5 9.0 0.0
59.0 9.0 0.0
59.5 9.0 0.0
60.0 9.0 0.0
60.5 9.0 0.0
61.0 9.0 0.0
61.5 9.0 0.0
62.0 9.0 0.0
62.5 9.0 0.0
63.0 9.0 0.0
63.5 9.0 0.0
64.0 9.0 0.0
64.5 9.0 0.0
65.0 9.0 0.0
65.5 9.0 0.0
66.0 9.0 0.0
66.5 9.0 0.0
67.0 9.0 0.0
67.5 9.0 0.0
68.0 9.0 0.0
68.5 9.0 0.0
69.0 9.0 0.0
69.5 9.0 0.0
70.0 9.0 0.0
70.5 9.0 0.0
71.0 9.0 0.0
71.5 9.0 0.0
72.0 9.0 0.0
72.5 9.0 0.0
73.0 9.0 0.0
73.5 9.0 0.0
74.0 9.0 0.0
74.5 9.0 0.0
75.0 9.0 0.0
75.5 9.0 0.0
76.0 9.0 0.0
76.5 9.0 0.0
77.0 9.0 0.0
77.5 9.0 0.0
78.0 9.0 0.0
78.5 9.0 0.0
79.0 9.0 0.0
79.5 9.0 0.0
80.0 9.0 0.0
80.5 9.0 0.0
81.0 9.0 0.0
81.5 9.0 0.0
82.0 9.0 0.0
82.5 9.0 0.0
83.0 9.0 0.0
83.5 9.0 0.0
84.0 9.0 0.0
84.5 9.0 0.0
85.0 9.0 0.0
85.5 9.0 0.0
86.0 9.0 0.0
86.5 9.0 0.0
87.0 9.0 0.0
87.5 9.0 0.0
88.0 9.0 0.0
88.5 9.0 0.0
89.0 9.0 0.0
89.5 9.0 0.0
90.0 9.0 0.0
90.5 9.0 0.0
91.0 9.0 0.0
91.5 9.0 0.0
92.0 9.0 0.0
92.5 9.0 0.0
93.0 9.0 0.0
93.5 9.0 0.0
94.0 9.0 0.0
94.5 9.0 0.0
95.0 9.0 0.0
95.5 9.0 0.0
96.0 9.0 0.0
96.5 9.0 0.0
97.0 9.0 0.0
97.5 9.0 0.0
98.0 9.0 0.0
98.5 9.0 0.0
99.0 9.0 0.0
99.5 9.0 0.0
100.0 9.0 0.0
0.0 10.0 0.0
0.5 10.0 0.0
1.0 10.0 0.0
1.5 10.0 0.0
2.0 10.0 0.0
2.5 10.0 0.0
3.0 10.0 0.0
3.5 10.0 0.0
4.0 10.0 0.0
4.5 10.0 0.0
5.0 10.0 0.0
5.5 10.0 0.0
6.0 10.0 0.0
6.5 10.0 0.0
7.0 10.0 0.0
7.5 10.0 0.0
8.0 10.0 0.0
8.5 10.0 0.0
9.0 10.0 0.0
9.5 10.0 0.0
10.0 10.0 0.0
10.5 10.0 0.0
11.0 10.0 0.0
11.5 10.0 0.0
12.0 10.0 0.0
12.5 10.0 0.0
13.0 10.0 0.0
13.5 10.0 0.0
14.0 10.0 0.0
14.5 10.0 0.0
15.0 10.0 0.0
15.5 10.0 0.0
16.0 10.0 0.0
16.5 10.0 0.0
17.0 10.0 0.0
17.5 10.0 0.0
18.0 10.0 0.0
18.5 10.0 0.0
19.0 10.0 0.0
19.5 10.0 0.0
20.0 10.0 0.0
20.5 10.0 0.0
21.0 10.0 0.0
21.5 10.0 0.0
22.0 10.0 0.0
22.5 10.0 0.0
23.0 10.0 0.0
23.5 10.0 0.0
24.0 10.0 0.0
24.5 10.0 0.0
25.0 10.0 0.0
25.5 10.0 0.0
26.0 10.0 0.0
26.5 10.0 0.0
27.0 10.0 0.0
27.5 10.0 0.0
28.0 10.0 0.0
28.5 10.0 0.0
29.0 10.0 0.0
29.5 10.0 0.0
30.0 10.0 0.0
30.5 10.0 0.0
31.0 10.0 0.0
31.5 10.0 0.0
32.0 10.0 0.0
32.5 10.0 0.0
33.0 10.0 0.0
33.5 10.0 0.0
34.0 10.0 0.0
34.5 10.0 0.0
35.0 10.0 0.0
35.5 10.0 0.0
36.0 10.0 0.0
36.5 10.0 0.0
37.0 10.0 0.0
37.5 10.0 0.0
38.0 10.0 0.0
38.5 10.0 0.0
39.0 10.0 0.0
39.5 10.0 0.0
40.0 10.0 0.0
40.5 10.0 0.0
41.0 10.0 0.0
41.5 10.0 0.0
42.0 10.0 0.0
42.5 10.0 0.0
43.0 10.0 0.0
43.5 10.0 0.0
44.0 10.0 0.0
44.5 10.0 0.0
45.0 10.0 0.0
45.5 10.0 0.0
46.0 10.0 0.0
46.5 10.0 0.0
47.0 10.0 0.0
47.5 10.0 0.0
48.0 10.0 0.0
48.5 10.0 0.0
49.0 10.0 0.0
49.5 10.0 0.0
50.0 10.0 0.0
50.5 10.0 0.0
51.0 10.0 0.0
51.5 10.0 0.0
52.0 10.0 0.0
52.5 10.0 0.0
53.0 10.0 0.0
53.5 10.0 0.0
54.0 10.0 0.0
54.5 10.0 0.0
55.0 10.0 0.0
55.5 10.0 0.0
56.0 10.0 0.0
56.5 10.0 0.0
57.0 10.0 0.0
57.5 10.0 0.0
58.0 10.0 0.0
58.5 10.0 0.0
59.0 10.0 0.0
59.5 10.0 0.0
60.0 10.0 0.0
60.5 10.0 0.0
61.0 10.0 0.0
61.5 10.0 0.0
62.0 10.0 0.0
62.5 10.0 0.0
63.0 10.0 0.0
63.5 10.0 0.0
64.0 10.0 0.0
64.5 10.0 0.0
65.0 10.0 0.0
65.5 10.0 0.0
66.0 10.0 0.0
66.5 10.0 0.0
67.0 10.0 0.0
67.5 10.0 0.0
68.0 10.0 0.0
68.5 10.0 0.0
69.0 10.0 0.0
69.5 10.0 0.0
70.0 10.0 0.0
70.5 10.0 0.0
71.0 10.0 0.0
71.5 10.0 0.0
72.0 10.0 0.0
72.5 10.0 0.0
73.0 10.0 0.0
73.5 10.0 0.0
74.0 10.0 0.0
74.5 10.0 0.0
75.0 10.0 0.0
75.5 10.0 0.0
76.0 10.0 0.0
76.5 10.0 0.0
77.0 10.0 0.0
77.5 10.0 0.0
78.0 10.0 0.0
78.5 10.0 0.0
79.0 10.0 0.0
79.5 10.0 0.0
80.0 10.0 0.0
80.5 10.0 0.0
81.0 10.0 0.0
81.5 10.0 0.0
82.0 10.0 0.0
82.5 10.0 0.0
83.0 10.0 0.0
83.5 10.0 0.0
84.0 10.0 0.0
84.5 10.0 0.0
85.0 10.0 0.0
85.5 10.0 0.0
86.0 10.0 0.0
86.5 10.0 0.0
87.0 10.0 0.0
87.5 10.0 0.0
88.0 10.0 0.0
88.5 10.0 0.0
89.0 10.0 0.0
89.5 10.0 0.0
90.0 10.0 0.0
90.5 10.0 0.0
91.0 10.0 0.0
91.5 10.0 0.0
92.0 10.0 0.0
92.5 10.0 0.0
93.0 10.0 0.0
93.5 10.0 0.0
94.0 10.0 0.0
94.5 10.0 0.0
95.0 10.0 0.0
95.5 10.0 0.0
96.0 10.0 0.0
96.5 10.0 0.0
97.0 10.0 0.0
97.5 10.0 0.0
98.0 10.0 0.0
98.5 10.0 0.0
99.0 10.0 0.0
99.5 10.0 0.0
100.0 10.0 0.0
CELLS 4000 20000
4 0 1 202 201
4 1 2 203 202
4 2 3 204 203
4 3 4 205 204
4 4 5 206 205
4 5 6 207 206
4 6 7 208 207
4 7 8 209 208
4 8 9 210 209
4 9 10 211 210
4 10 11 212 211
4 11 12 213 212
4 12 13 214 213
4 13 14 215 214
4 14 15 216 215
4 15 16 217 216
4 16 17 218 217
4 17 18 219 218
4 18 19 220 219
4 19 20 221 220
4 20 21 222 221
4 21 22 223 222
4 22 23 224 223
4 23 24 225 224
4 24 25 226 225
4 25 26 227 226
4 26 27 228 227
4 27 28 229 228
4 28 29 230 229
4 29 30 231 230
4 30 31 232 231
4 31 32 233 232
4 32 33 234 233
4 33 34 235 234
4 34 35 236 235
4 35 36 237 236
4 36 37 238 237
4 37 38 239 238
4 38 39 240 239
4 39 40 241 240
4 40 41 242 241
4 41 42 243 242
4 42 43 244 243
4 43 44 245 244
4 44 45 246 245
4 45 46 247 246
4 46 47 248 247
4 47 48 249 248
4 48 49 250 249
4 49 50 251 250
4 50 51 252 251
4 51 52 253 252
4 52 53 254 253
4 53 54 255 254
4 54 55 256 255
4 55 56 257 256
4 56 57 258 257
4 57 58 259 258
4 58 59 260 259
4 59 60 261 260
4 60 61 262 261
4 61 62 263 262
4 62 63 264 263
4 63 64 265 264
4 64 65 266 265
4 65 66 267 266
4 66 67 268 267
4 67 68 269 268
4 68 69 270 269
4 69 70 271 270
4 70 71 272 271
4 71 72 273 272
4 72 73 274 273
4 73 74 275 274
4 74 75 276 275
4 75 76 277 276
4 76 77 278 277
4 77 78 279 278
4 78 79 280 279
4 79 80 281 280
4 80 81 282 281
4 81 82 283 282
4 82 83 284 283
4 83 84 285 284
4 84 85 286 285
4 85 86 287 286
4 86 87 288 287
4 87 88 289 288
4 88 89 290 289
4 89 90 291 290
4 90 91 292 291
4 91 92 293 292
4 92 93 294 293
4 93 94 295 294
4 94 95 296 295
4 95 96 297 296
4 96 97 298 297
4 97 98 299 298
4 98 99 300 299
4 99 100 301 300
4 100 101 302 301
4 101 102 303 302
4 102 103 304 303
4 103 104 305 304
4 104 105 306 305
4 105 106 307 306
4 106 107 308 307
4 107 108 309 308
4 108 109 310 309
4 109 110 311 310
4 110 111 312 311
4 111 112 313 312
4 112 113 314 313
4 113 114 315 314
4 114 115 316 315
4 115 116 317 316
4 116 117 318 317
4 117 118 319 318
4 118 119 320 319
4 119 120 321 320
4 120 121 322 321
4 121 122 323 322
4 122 123 324 323
4 123 124 325 324
4 124 125 326 325
4 125 126 327 326
4 126 127 328 327
4 127 128 329 328
4 128 129 330 329
4 129 130 331 330
4 130 131 332 331
4 131 132 333 332
4 132 133 334 333
4 133 134 335 334
4 134 135 336 335
4 135 136 337 336
4 136 137 338 337
4 137 138 339 338
4 138 139 340 339
4 139 140 341 340
4 140 141 342 341
4 141 142 343 342
4 142 143 344 343
4 143 144 345 344
4 144 145 346 345
4 145 146 347 346
4 146 147 348 347
4 147 148 349 348
4 148 149 350 349
4 149 150 351 350
4 150 151 352 351
4 151 152 353 352
4 152 153 354 353
4 153 154 355 354
4 154 155 356 355
4 155 156 357 356
4 156 157 358 357
4 157 158 359 358
4 158 159 360 359
4 159 160 361 360
4 160 161 362 361
4 161 162 363 362
4 162 163 364 363
4 163 164 365 364
4 164 165 366 365
4 165 166 367 366
4 166 167 368 367
4 167 168 369 368
4 168 169 370 369
4 169 170 371 370
4 170 171 372 371
4 171 172 373 372
4 172 173 374 373
4 173 174 375 374
4 174 175 376 375
4 175 176 377 376
4 176 177 378 377
4 177 178 379 378
4 178 179 380 379
4 179 180 381 380
4 180 181 382 381
4 181 182 383 382
4 182 183 384 383
4 183 184 385 384
4 184 185 386 385
4 185 186 387 386
4 186 187 388 387
4 187 188 389 388
4 188 189 390 389
4 189 190 391 390
4 190 191 392 391
4 191 192 393 392
4 192 193 394 393
4 193 194 395 394
4 194 195 396 395
4 195 196 397 396
4 196 197 398 397
4 197 198 399 398
4 198 199 400 399
4 199 200 401 400
4 201 202 403 402
4 202 203 404 403
4 203 204 405 404
4 204 205 406 405
4 205 206 407 406
4 206 207 408 407
4 207 208 409 408
4 208 209 410 409
4 209 210 411 410
4 210 211 412 411
4 211 212 413 412
4 212 213 414 413
4 213 214 415 414
4 214 215 416 415
4 215 216 417 416
4 216 217 418 417
4 217 218 419 418
4 218 219 420 419
4 219 220 421 420
4 220 221 422 421
4 221 222 423 422
4 222 223 424 423
4 223 224 425 424
4 224 225 426 425
4 225 226 427 426
4 226 227 428 427
4 227 228 429 428
4 228 229 430 429
4 229 230 431 430
4 230 231 432 431
4 231 232 433 432
4 232 233 434 433
4 233 234 435 434
4 234 235 436 435
4 235 236 437 436
4 236 237 438 437
4 237 238 439 438
4 238 239 440 439
4 239 240 441 440
4 240 241 442 441
4 241 242 443 442
4 242 243 444 443
4 243 244 445 444
4 244 245 446 445
4 245 246 447 446
4 246 247 448 447
4 247 248 449 448
4 248 249 450 449
4 249 250 451 450
4 250 251 452 451
4 251 252 453 452
4 252 253 454 453
4 253 254 455 454
4 254 255 456 455
4 255 256 457 456
4 256 257 458 457
4 257 258 459 458
4 258 259 460 459
4 259 260 461 460
4 260 261 462 461
4 261 262 463 462
4 262 263 464 463
4 263 264 465 464
4 264 265 466 465
4 265 266 467 466
4 266 267 468 467
4 267 268 469 468
4 268 269 470 469
4 269 270 471 470
4 270 271 472 471
4 271 272 473 472
4 272 273 474 473
4 273 274 475 474
4 274 275 476 475
4 275 276 477 476
4 276 277 478 477
4 277 278 479 478
4 278 279 480 479
4 279 280 481 480
4 280 281 482 481
4 281 282 483 482
4 282 283 484 483
4 283 284 485 484
4 284 285 486 485
4 285 286 487 486
4 286 287 488 487
4 287 288 489 488
4 288 289 490 489
4 289 290 491 490
4 290 291 492 491
4 291 292 493 492
4 292 293 494 493
4 293 294 495 494
4 294 295 496 495
4 295 296 497 496
4 296 297 498 497
4 297 298 499 498
4 298 299 500 499
4 299 300 501 500
4 300 301 502 501
4 301 302 503 502
4 302 303 504 503
4 303 304 505 504
4 304 305 506 505
4 305 306 507 506
4 306 307 508 507
4 307 308 509 508
4 308 309 510 509
4 309 310 511 510
4 310 311 512 511
4 311 312 513 512
4 312 313 514 513
4 313 314 515 514
4 314 315 516 515
4 315 316 517 516
4 316 317 518 517
4 317 318 519 518
4 318 319 520 519
4 319 320 521 520
4 320 321 522 521
4 321 322 523 522
4 322 323 524 523
4 323 324 525 524
4 324 325 526 525
4 325 326 527 526
4 326 327 528 527
4 327 328 529 528
4 328 329 530 529
4 329 330 531 530
4 330 331 532 531
4 331 332 533 532
4 332 333 534 533
4 333 334 535 534
4 334 335 536 535
4 335 336 537 536
4 336 337 538 537
4 337 338 539 538
4 338 339 540 539
4 339 340 541 540
4 340 341 542 541
4 341 342 543 542
4 342 343 544 543
4 343 344 545 544
4 344 345 546 545
4 345 346 547 546
4 346 347 548 547
4 347 348 549 548
4 348 349 550 549
4 349 350 551 550
4 350 351 552 551
4 351 352 553 552
4 352 353 554 553
4 353 354 555 554
4 354 355 556 555
4 355 356 557 556
4 356 357 558 557
4 357 358 559 558
4 358 359 560 559
4 359 360 561 560
4 360 361 562 561
4 361 362 563 562
4 362 363 564 563
4 363 364 565 564
4 364 365 566 565
4 365 366 567 566
4 366 367 568 567
4 367 368 569 568
4 368 369 570 569
4 369 370 571 570
4 370 371 572 571
4 371 372 573 572
4 372 373 574 573
4 373 374 575 574
4 374 375 576 575
4 375 376 577 576
4 376 377 578 577
4 377 378 579 578
4 378 379 580 579
4 379 380 581 580
4 380 381 582 581
4 381 382 583 582
4 382 383 584 583
4 383 384 585 584
4 384 385 586 585
4 385 386 587 586
4 386 387 588 587
4 387 388 589 588
4 388 389 590 589
4 389 390 591 590
4 390 391 592 591
4 391 392 593 592
4 392 393 594 593
4 393 394 595 594
4 394 395 596 595
4 395 396 597 596
4 396 397 598 597
4 397 398 599 598
4 398 399 600 599
4 399 400 601 600
4 400 401 602 601
4 402 403 604 603
4 403 404 605 604
4 404 405 606 605
4 405 406 607 606
4 406 407 608 607
4 407 408 609 608
4 408 409 610 609
4 409 410 611 610
4 410 411 612 611
4 411 412 613 612
4 412 413 614 613
4 413 414 615 614
4 414 415 616 615
4 415 416 617 616
4 416 417 618 617
4 417 418 619 618
4 418 419 620 619
4 419 420 621 620
4 420 421 622 621
4 421 422 623 622
4 422 423 624 623
4 423 424 625 624
4 424 425 626 625
4 425 426 627 626
4 426 427 628 627
4 427 428 629 628
4 428 429 630 629
4 429 430 631 630
4 430 431 632 631
4 431 432 633 632
4 432 433 634 633
4 433 434 635 634
4 434 435 636 635
4 435 436 637 636
4 436 437 638 637
4 437 438 639 638
4 438 439 640 639
4 439 440 641 640
4 440 441 642 641
4 441 442 643 642
4 442 443 644 643
4 443 444 645 644
4 444 445 646 645
4 445 446 647 646
4 446 447 648 647
4 447 448 649 648
4 448 449 650 649
4 449 450 651 650
4 450 451 652 651
4 451 452 653 652
4 452 453 654 653
4 453 454 655 654
4 454 455 656 655
4 455 456 657 656
4 456 457 658 657
4 457 458 659 658
4 458 459 660 659
4 459 460 661 660
4 460 461 662 661
4 461 462 663 662
4 462 463 664 663
4 463 464 665 664
4 464 465 666 665
4 465 466 667 666
4 466 467 668 667
4 467 468 669 668
4 468 469 670 669
4 469 470 671 670
4 470 471 672 671
4 471 472 673 672
4 472 473 674 673
4 473 474 675 674
4 474 475 676 675
4 475 476 677 676
4 476 477 678 677
4 477 478 679 678
4 478 479 680 679
4 479 480 681 680
4 480 481 682 681
4 481 482 683 682
4 482 483 684 683
4 483 484 685 684
4 484 485 686 685
4 485 486 687 686
4 486 487 688 687
4 487 488 689 688
4 488 489 690 689
4 489 490 691 690
4 490 491 692 691
4 491 492 693 692
4 492 493 694 693
4 493 494 695 694
4 494 495 696 695
4 495 496 697 696
4 496 497 698 697
4 497 498 699 698
4 498 499 700 699
4 499 500 701 700
4 500 501 702 701
4 501 502 703 702
4 502 503 704 703
4 503 504 705 704
4 504 505 706 705
4 505 506 707 706
4 506 507 708 707
4 507 508 709 708
4 508 509 710 709
4 509 510 711 710
4 510 511 712 711
4 511 512 713 712
4 512 513 714 713
4 513 514 715 714
4 514 515 716 715
4 515 516 717 716
4 516 517 718 717
4 517 518 719 718
4 518 519 720 719
4 519 520 721 720
4 520 521 722 721
4 521 522 723 722
4 522 523 724 723
4 523 524 725 724
4 524 525 726 725
4 525 526 727 726
4 526 527 728 727
4 527 528 729 728
4 528 529 730 729
4 529 530 731 730
4 530 531 732 731
4 531 532 733 732
4 532 533 734 733
4 533 534 735 734
4 534 535 736 735
4 535 536 737 736
4 536 537 738 737
4 537 538 739 738
4 538 539 740 739
4 539 540 741 740
4 540 541 742 741
4 541 542 743 742
4 542 543 744 743
4 543 544 745 744
4 544 545 746 745
4 545 546 747 746
4 546 547 748 747
4 547 548 749 748
4 548 549 750 749
4 549 550 751 750
4 550 551 752 751
4 551 552 753 752
4 552 553 754 753
4 553 554 755 754
4 554 555 756 755
4 555 556 757 756
4 556 557 758 757
4 557 558 759 758
4 558 559 760 759
4 559 560 761 760
4 560 561 762 761
4 561 562 763 762
4 562 563 764 763
4 563 564 765 764
4 564 565 766 765
4 565 566 767 766
4 566 567 768 767
4 567 568 769 768
4 568 569 770 769
4 569 570 771 770
4 570 571 772 771
4 571 572 773 772
4 572 573 774 773
4 573 574 775 774
4 574 575 776 775
4 575 576 777 776
4 576 577 778 777
4 577 578 779 778
4 578 579 780 779
4 579 580 781 780
4 580 581 782 781
4 581 582 783 782
4 582 583 784 783
4 583 584 785 784
4 584 585 786 785
4 585 586 787 786
4 586 587 788 787
4 587 588 789 788
4 588 589 790 789
4 589 590 791 790
4 590 591 792 791
4 591 592 793 792
4 592 593 794 793
4 593 594 795 794
4 594 595 796 795
4 595 596 797 796
4 596 597 798 797
4 597 598 799 798
4 598 599 800 799
4 599 600 801 800
4 600 601 802 801
4 601 602 803 802
4 603 604 805 804
4 604 605 806 805
4 605 606 807 806
4 606 607 808 807
4 607 608 809 808
4 608 609 810 809
4 609 610 811 810
4 610 611 812 811
4 611 612 813 812
4 612 613 814 813
4 613 614 815 814
4 614 615 816 815
4 615 616 817 816
4 616 617 818 817
4 617 618 819 818
4 618 619 820 819
4 619 620 821 820
4 620 621 822 821
4 621 622 823 822
4 622 623 824 823
4 623 624 825 824
4 624 625 826 825
4 625 626 827 826
4 626 627 828 827
4 627 628 829 828
4 628 629 830 829
4 629 630 831 830
4 630 631 832 831
4 631 632 833 832
4 632 633 834 833
4 633 634 835 834
4 634 635 836 835
4 635 636 837 836
4 636 637 838 837
4 637 638 839 838
4 638 639 840 839
4 639 640 841 840
4 640 641 842 841
4 641 642 843 842
4 642 643 844 843
4 643 644 845 844
4 644 645 846 845
4 645 646 847 846
4 646 647 848 847
4 647 648 849 848
4 648 649 850 849
4 649 650 851 850
4 650 651 852 851
4 651 652 853 852
4 652 653 854 853
4 653 654 855 854
4 654 655 856 855
4 655 656 857 856
4 656 657 858 857
4 657 658 859 858
4 658 659 860 859
4 659 660 861 860
4 660 661 862 861
4 661 662 863 862
4 662 663 864 863
4 663 664 865 864
4 664 665 866 865
4 665 666 867 866
4 666 667 868 867
4 667 668 869 868
4 668 669 870 869
4 669 670 871 870
4 670 671 872 871
4 671 672 873 872
4 672 673 874 873
4 673 674 875 874
4 674 675 876 875
4 675 676 877 876
4 676 677 878 877
4 677 678 879 878
4 678 679 880 879
4 679 680 881 880
4 680 681 882 881
4 681 682 883 882
4 682 683 884 883
4 683 684 885 884
4 684 685 886 885
4 685 686 887 886
4 686 687 888 887
4 687 688 889 888
4 688 689 890 889
4 689 690 891 890
4 690 691 892 891
4 691 692 893 892
4 692 693 894 893
4 693 694 895 894
4 694 695 896 895
4 695 696 897 896
4 696 697 898 897
4 697 698 899 898
4 698 699 900 899
4 699 700 901 900
4 700 701 902 901
4 701 702 903 902
4 702 703 904 903
4 703 704 905 904
4 704 705 906 905
4 705 706 907 906
4 706 707 908 907
4 707 708 909 908
4 708 709 910 909
4 709 710 911 910
4 710 711 912 911
4 711 712 913 912
4 712 713 914 913
4 713 714 915 914
4 714 715 916 915
4 715 716 917 916
4 716 717 918 917
4 717 718 919 918
4 718 719 920 919
4 719 720 921 920
4 720 721 922 921
4 721 722 923 922
4 722 723 924 923
4 723 724 925 924
4 724 725 926 925
4 725 726 927 926
4 726 727 928 927
4 727 728 929 928
4 728 729 930 929
4 729 730 931 930
4 730 731 932 931
4 731 732 933 932
4 732 733 934 933
4 733 734 935 934
4 734 735 936 935
4 735 736 937 936
4 736 737 938 937
4 737 738 939 938
4 738 739 940 939
4 739 740 941 940
4 740 741 942 941
4 741 742 943 942
4 742 743 944 943
4 743 744 945 944
4 744 745 946 945
4 745 746 947 946
4 746 747 948 947
4 747 748 949 948
4 748 749 950 949
4 749 750 951 950
4 750 751 952 951
4 751 752 953 952
4 752 753 954 953
4 753 754 955 954
4 754 755 956 955
4 755 756 957 956
4 756 757 958 957
4 757 758 959 958
4 758 759 960 959
4 759 760 961 960
4 760 761 962 961
4 761 762 963 962
4 762 763 964 963
4 763 764 965 964
4 764 765 966 965
4 765 766 967 966
4 766 767 968 967
4 767 768 969 968
4 768 769 970 969
4 769 770 971 970
4 770 771 972 971
4 771 772 973 972
4 772 773 974 973
4 773 774 975 974
4 774 775 976 975
4 775 776 977 976
4 776 777 978 977
4 777 778 979 978
4 778 779 980 979
4 779 780 981 980
4 780 781 982 981
4 781 782 983 982
4 782 783 984 983
4 783 784 985 984
4 784 785 986 985
4 785 786 987 986
4 786 787 988 987
4 787 788 989 988
4 788 789 990 989
4 789 790 991 990
4 790 791 992 991
4 791 792 993 992
4 792 793 994 993
4 793 794 995 994
4 794 795 996 995
4 795 796 997 996
4 796 797 998 997
4 797 798 999 998
4 798 799 1000 999
4 799 800 1001 1000
4 800 801 1002 1001
4 801 802 1003 1002
4 802 803 1004 1003
4 804 805 1006 1005
4 805 806 1007 1006
4 806 807 1008 1007
4 807 808 1009 1008
4 808 809 1010 1009
4 809 810 1011 1010
4 810 811 1012 1011
4 811 812 1013 1012
4 812 813 1014 1013
4 813 814 1015 1014
4 814 815 1016 1015
4 815 816 1017 1016
4 816 817 1018 1017
4 817 818 1019 1018
4 818 819 1020 1019
4 819 820 1021 1020
4 820 821 1022 1021
4 821 822 1023 1022
4 822 823 1024 1023
4 823 824 1025 1024
4 824 825 1026 1025
4 825 826 1027 1026
4 826 827 1028 1027
4 827 828 1029 1028
4 828 829 1030 1029
4 829 830 1031 1030
4 830 831 1032 1031
4 831 832 1033 1032
4 832 833 1034 1033
4 833 834 1035 1034
4 834 835 1036 1035
4 835 836 1037 1036
4 836 837 1038 1037
4 837 838 1039 1038
4 838 839 1040 1039
4 839 840 1041 1040
4 840 841 1042 1041
4 841 842 1043 1042
4 842 843 1044 1043
4 843 844 1045 1044
4 844 845 1046 1045
4 845 846 1047 1046
4 846 847 1048 1047
4 847 848 1049 1048
4 848 849 1050 1049
4 849 850 1051 1050
4 850 851 1052 1051
4 851 852 1053 1052
4 852 853 1054 1053
4 853 854 1055 1054
4 854 855 1056 1055
4 855 856 1057 1056
4 856 857 1058 1057
4 857 858 1059 1058
4 858 859 1060 1059
4 859 860 1061 1060
4 860 861 1062 1061
4 861 862 1063 1062
4 862 863 1064 1063
4 863 864 1065 1064
4 864 865 1066 1065
4 865 866 1067 1066
4 866 867 1068 1067
4 867 868 1069 1068
4 868 869 1070 1069
4 869 870 1071 1070
4 870 871 1072 1071
4 871 872 1073 1072
4 872 873 1074 1073
4 873 874 1075 1074
4 874 875 1076 1075
4 875 876 1077 1076
4 876 877 1078 1077
4 877 878 1079 1078
4 878 879 1080 1079
4 879 880 1081 1080
4 880 881 1082 1081
4 881 882 1083 1082
4 882 883 1084 1083
4 883 884 1085 1084
4 884 885 1086 1085
4 885 886 1087 1086
4 886 887 1088 1087
4 887 888 1089 1088
4 888 889 1090 1089
4 889 890 1091 1090
4 890 891 1092 1091
4 891 892 1093 1092
4 892 893 1094 1093
4 893 894 1095 1094
4 894 895 1096 1095
4 895 896 1097 1096
4 896 897 1098 1097
4 897 898 1099 1098
4 898 899 1100 1099
4 899 900 1101 1100
4 900 901 1102 1101
4 901 902 1103 1102
4 902 903 1104 1103
4 903 904 1105 1104
4 904 905 1106 1105
4 905 906 1107 1106
4 906 907 1108 1107
4 907 908 1109 1108
4 908 909 1110 1109
4 909 910 1111 1110
4 910 911 1112 1111
4 911 912 1113 1112
4 912 913 1114 1113
4 913 914 1115 1114
4 914 915 1116 1115
4 915 916 1117 1116
4 916 917 1118 1117
4 917 918 1119 1118
4 918 919 1120 1119
4 919 920 1121 1120
4 920 921 1122 1121
4 921 922 1123 1122
4 922 923 1124 1123
4 923 924 1125 1124
4 924 925 1126 1125
4 925 926 1127 1126
4 926 927 1128 1127
4 927 928 1129 1128
4 928 929 1130 1129
4 929 930 1131 1130
4 930 931 1132 1131
4 931 932 1133 1132
4 932 933 1134 1133
4 933 934 1135 1134
4 934 935 1136 1135
4 935 936 1137 1136
4 936 937 1138 1137
4 937 938 1139 1138
4 938 939 1140 1139
4 939 940 1141 1140
4 940 941 1142 1141
4 941 942 1143 1142
4 942 943 1144 1143
4 943 944 1145 1144
4 944 945 1146 1145
4 945 946 1147 1146
4 946 947 1148 1147
4 947 948 1149 1148
4 948 949 1150 1149
4 949 950 1151 1150
4 950 951 1152 1151
4 951 952 1153 1152
4 952 953 1154 1153
4 953 954 1155 1154
4 954 955 1156 1155
4 955 956 1157 1156
4 956 957 1158 1157
4 957 958 1159 1158
4 958 959 1160 1159
4 959 960 1161 1160
4 960 961 1162 1161
4 961 962 1163 1162
4 962 963 1164 1163
4 963 964 1165 1164
4 964 965 1166 1165
4 965 966 1167 1166
4 966 967 1168 1167
4 967 968 1169 1168
4 968 969 1170 1169
4 969 970 1171 1170
4 970 971 1172 1171
4 971 972 1173 1172
4 972 973 1174 1173
4 973 974 1175 1174
4 974 975 1176 1175
4 975 976 1177 1176
4 976 977 1178 1177
4 977 978 1179 1178
4 978 979 1180 1179
4 979 980 1181 1180
4 980 981 1182 1181
4 981 982 1183 1182
4 982 983 1184 1183
4 983 984 1185 1184
4 984 985 1186 1185
4 985 986 1187 1186
4 986 987 1188 1187
4 987 988 1189 1188
4 988 989 1190 1189
4 989 990 1191 1190
4 990 991 1192 1191
4 991 992 1193 1192
4 992 993 1194 1193
4 993 994 1195 1194
4 994 995 1196 1195
4 995 996 1197 1196
4 996 997 1198 1197
4 997 998 1199 1198
4 998 999 1200 1199
4 999 1000 1201 1200
4 1000 1001 1202 1201
4 1001 1002 1203 1202
4 1002 1003 1204 1203
4 1003 1004 1205 1204
4 1005 1006 1207 1206
4 1006 1007 1208 1207
4 1007 1008 1209 1208
4 1008 1009 1210 1209
4 1009 1010 1211 1210
4 1010 1011 1212 1211
4 1011 1012 1213 1212
4 1012 1013 1214 1213
4 1013 1014 1215 1214
4 1014 1015 1216 1215
4 1015 1016 1217 1216
4 1016 1017 1218 1217
4 1017 1018 1219 1218
4 1018 1019 1220 1219
4 1019 1020 1221 1220
4 1020 1021 1222 1221
4 1021 1022 1223 1222
4 1022 1023 1224 1223
4 1023 1024 1225 1224
4 1024 1025 1226 1225
4 1025 1026 1227 1226
4 1026 1027 1228 1227
4 1027 1028 1229 1228
4 1028 1029 1230 1229
4 1029 1030 1231 1230
4 1030 1031 1232 1231
4 1031 1032 1233 1232
4 1032 1033 1234 1233
4 1033 1034 1235 1234
4 1034 1035 1236 1235
4 1035 1036 1237 1236
4 1036 1037 1238 1237
4 1037 1038 1239 1238
4 1038 1039 1240 1239
4 1039 1040 1241 1240
4 1040 1041 1242 1241
4 1041 1042 1243 1242
4 1042 1043 1244 1243
4 1043 1044 1245 1244
4 1044 1045 1246 1245
4 1045 1046 1247 1246
4 1046 1047 1248 1247
4 1047 1048 1249 1248
4 1048 1049 1250 1249
4 1049 1050 1251 1250
4 1050 1051 1252 1251
4 1051 1052 1253 1252
4 1052 1053 1254 1253
4 1053 1054 1255 1254
4 1054 1055 1256 1255
4 1055 1056 1257 1256
4 1056 1057 1258 1257
4 1057 1058 1259 1258
4 1058 1059 1260 1259
4 1059 1060 1261 1260
4 1060 1061 1262 1261
4 1061 1062 1263 1262
4 1062 1063 1264 1263
4 1063 1064 1265 1264
4 1064 1065 1266 1265
4 1065 1066 1267 1266
4 1066 1067 1268 1267
4 1067 1068 1269 1268
4 1068 1069 1270 1269
4 1069 1070 1271 1270
4 1070 1071 1272 1271
4 1071 1072 1273 1272
4 1072 1073 1274 1273
4 1073 1074 1275 1274
4 1074 1075 1276 1275
4 1075 1076 1277 1276
4 1076 1077 1278 1277
4 1077 1078 1279 1278
4 1078 1079 1280 1279
4 1079 1080 1281 1280
4 1080 1081 1282 1281
4 1081 1082 1283 1282
4 1082 1083 1284 1283
4 1083 1084 1285 1284
4 1084 1085 1286 1285
4 1085 1086 1287 1286
4 1086 1087 1288 1287
4 1087 1088 1289 1288
4 1088 1089 1290 1289
4 1089 1090 1291 1290
4 1090 1091 1292 1291
4 1091 1092 1293 1292
4 1092 1093 1294 1293
4 1093 1094 1295 1294
4 1094 1095 1296 1295
4 1095 1096 1297 1296
4 1096 1097 1298 1297
4 1097 1098 1299 1298
4 1098 1099 1300 1299
4 1099 1100 1301 1300
4 1100 1101 1302 1301
4 1101 1102 1303 1302
4 1102 1103 1304 1303
4 1103 1104 1305 1304
4 1104 1105 1306 1305
4 1105 1106 1307 1306
4 1106 1107 1308 1307
4 1107 1108 1309 1308
4 1108 1109 1310 1309
4 1109 1110 1311 1310
4 1110 1111 1312 1311
4 1111 1112 1313 1312
4 1112 1113 1314 1313
4 1113 1114 1315 1314
4 1114 1115 1316 1315
4 1115 1116 1317 1316
4 1116 1117 1318 1317
4 1117 1118 1319 1318
4 1118 1119 1320 1319
4 1119 1120 1321 1320
4 1120 1121 1322 1321
4 1121 1122 1323 1322
4 1122 1123 1324 1323
4 1123 1124 1325 1324
4 1124 1125 1326 1325
4 1125 1126 1327 1326
4 1126 1127 1328 1327
4 1127 1128 1329 1328
4 1128 1129 1330 1329
4 1129 1130 1331 1330
4 1130 1131 1332 1331
4 1131 1132 1333 1332
4 1132 1133 1334 1333
4 1133 1134 1335 1334
4 1134 1135 1336 1335
4 1135 1136 1337 1336
4 1136 1137 1338 1337
4 1137 1138 1339 1338
4 1138 1139 1340 1339
4 1139 1140 1341 1340
4 1140 1141 1342 1341
4 1141 1142 1343 1342
4 1142 1143 1344 1343
4 1143 1144 1345 1344
4 1144 1145 1346 1345
4 1145 1146 1347 1346
4 1146 1147 1348 1347
4 1147 1148 1349 1348
4 1148 1149 1350 1349
4 1149 1150 1351 1350
4 1150 1151 1352 1351
4 1151 1152 1353 1352
4 1152 1153 1354 1353
4 1153 1154 1355 1354
4 1154 1155 1356 1355
4 1155 1156 1357 1356
4 1156 1157 1358 1357
4 1157 1158 1359 1358
4 1158 1159 1360 1359
4 1159 1160 1361 1360
4 1160 1161 1362 1361
4 1161 1162 1363 1362
4 1162 1163 1364 1363
4 1163 1164 1365 1364
4 1164 1165 1366 1365
4 1165 1166 1367 1366
4 1166 1167 1368 1367
4 1167 1168 1369 1368
4 1168 1169 1370 1369
4 1169 1170 1371 1370
4 1170 1171 1372 1371
4 1171 1172 1373 1372
4 1172 1173 1374 1373
4 1173 1174 1375 1374
4 1174 1175 1376 1375
4 1175 1176 1377 1376
4 1176 1177 1378 1377
4 1177 1178 1379 1378
4 1178 1179 1380 1379
4 1179 1180 1381 1380
4 1180 1181 1382 1381
4 1181 1182 1383 1382
4 1182 1183 1384 1383
4 1183 1184 1385 1384
4 1184 1185 1386 1385
4 1185 1186 1387 1386
4 1186 1187 1388 1387
4 1187 1188 1389 1388
4 1188 1189 1390 1389
4 1189 1190 1391 1390
4 1190 1191 1392 1391
4 1191 1192 1393 1392
4 1192 1193 1394 1393
4 1193 1194 1395 1394
4 1194 1195 1396 1395
4 1195 1196 1397 1396
4 1196 1197 1398 1397
4 1197 1198 1399 1398
4 1198 1199 1400 1399
4 1199 1200 1401 1400
4 1200 1201 1402 1401
4 1201 1202 1403 1402
4 1202 1203 1404 1403
4 1203 1204 1405 1404
4 1204 1205 1406 1405
4 1206 1207 1408 1407
4 1207 1208 1409 1408
4 1208 1209 1410 1409
4 1209 1210 1411 1410
4 1210 1211 1412 1411
4 1211 1212 1413 1412
4 1212 1213 1414 1413
4 1213 1214 1415 1414
4 1214 1215 1416 1415
4 1215 1216 1417 1416
4 1216 1217 1418 1417
4 1217 1218 1419 1418
4 1218 1219 1420 1419
4 1219 1220 1421 1420
4 1220 1221 1422 1421
4 1221 1222 1423 1422
4 1222 1223 1424 1423
4 1223 1224 1425 1424
4 1224 1225 1426 1425
4 1225 1226 1427 1426
4 1226 1227 1428 1427
4 1227 1228 1429 1428
4 1228 1229 1430 1429
4 1229 1230 1431 1430
4 1230 1231 1432 1431
4 1231 1232 1433 1432
4 1232 1233 1434 1433
4 1233 1234 1435 1434
4 1234 1235 1436 1435
4 1235 1236 1437 1436
4 1236 1237 1438 1437
4 1237 1238 1439 1438
4 1238 1239 1440 1439
4 1239 1240 1441 1440
4 1240 1241 1442 1441
4 1241 1242 1443 1442
4 1242 1243 1444 1443
4 1243 1244 1445 1444
4 1244 1245 1446 1445
4 1245 1246 1447 1446
4 1246 1247 1448 1447
4 1247 1248 1449 1448
4 1248 1249 1450 1449
4 1249 1250 1451 1450
4 1250 1251 1452 1451
4 1251 1252 1453 1452
4 1252 1253 1454 1453
4 1253 1254 1455 1454
4 1254 1255 1456 1455
4 1255 1256 1457 1456
4 1256 1257 1458 1457
4 1257 1258 1459 1458
4 1258 1259 1460 1459
4 1259 1260 1461 1460
4 1260 1261 1462 1461
4 1261 1262 1463 1462
4 1262 1263 1464 1463
4 1263 1264 1465 1464
4 1264 1265 1466 1465
4 1265 1266 1467 1466
4 1266 1267 1468 1467
4 1267 1268 1469 1468
4 1268 1269 1470 1469
4 1269 1270 1471 1470
4 1270 1271 1472 1471
4 1271 1272 1473 1472
4 1272 1273 1474 1473
4 1273 1274 1475 1474
4 1274 1275 1476 1475
4 1275 1276 1477 1476
4 1276 1277 1478 1477
4 1277 1278 1479 1478
4 1278 1279 1480 1479
4 1279 1280 1481 1480
4 1280 1281 1482 1481
4 1281 1282 1483 1482
4 1282 1283 1484 1483
4 1283 1284 1485 1484
4 1284 1285 1486 1485
4 1285 1286 1487 1486
4 1286 1287 1488 1487
4 1287 1288 1489 1488
4 1288 1289 1490 1489
4 1289 1290 1491 1490
4 1290 1291 1492 1491
4 1291 1292 1493 1492
4 1292 1293 1494 1493
4 1293 1294 1495 1494
4 1294 1295 1496 1495
4 1295 1296 1497 1496
4 1296 1297 1498 1497
4 1297 1298 1499 1498
4 1298 1299 1500 1499
4 1299 1300 1501 1500
4 1300 1301 1502 1501
4 1301 1302 1503 1502
4 1302 1303 1504 1503
4 1303 1304 1505 1504
4 1304 1305 1506 1505
4 1305 1306 1507 1506
4 1306 1307 1508 1507
4 1307 1308 1509 1508
4 1308 1309 1510 1509
4 1309 1310 1511 1510
4 1310 1311 1512 1511
4 1311 1312 1513 1512
4 1312 1313 1514 1513
4 1313 1314 1515 1514
4 1314 1315 1516 1515
4 1315 1316 1517 1516
4 1316 1317 1518 1517
4 1317 1318 1519 1518
4 1318 1319 1520 1519
4 1319 1320 1521 1520
4 1320 1321 1522 1521
4 1321 1322 1523 1522
4 1322 1323 1524 1523
4 1323 1324 1525 1524
4 1324 1325 1526 1525
4 1325 1326 1527 1526
4 1326 1327 1528 1527
4 1327 1328 1529 1528
4 1328 1329 1530 1529
4 1329 1330 1531 1530
4 1330 1331 1532 1531
4 1331 1332 1533 1532
4 1332 1333 1534 1533
4 1333 1334 1535 1534
4 1334 1335 1536 1535
4 1335 1336 1537 1536
4 1336 1337 1538 1537
4 1337 1338 1539 1538
4 1338 1339 1540 1539
4 1339 1340 1541 1540
4 1340 1341 1542 1541
4 1341 1342 1543 1542
4 1342 1343 1544 1543
4 1343 1344 1545 1544
4 1344 1345 1546 1545
4 1345 1346 1547 1546
4 1346 1347 1548 1547
4 1347 1348 1549 1548
4 1348 1349 1550 1549
4 1349 1350 1551 1550
4 1350 1351 1552 1551
4 1351 1352 1553 1552
4 1352 1353 1554 1553
4 1353 1354 1555 1554
4 1354 1355 1556 1555
4 1355 1356 1557 1556
4 1356 1357 1558 1557
4 1357 1358 1559 1558
4 1358 1359 1560 1559
4 1359 1360 1561 1560
4 1360 1361 1562 1561
4 1361 1362 1563 1562
4 1362 1363 1564 1563
4 1363 1364 1565 1564
4 1364 1365 1566 1565
4 1365 1366 1567 1566
4 1366 1367 1568 1567
4 1367 1368 1569 1568
4 1368 1369 1570 1569
4 1369 1370 1571 1570
4 1370 1371 1572 1571
4 1371 1372 1573 1572
4 1372 1373 1574 1573
4 1373 1374 1575 1574
4 1374 1375 1576 1575
4 1375 1376 1577 1576
4 1376 1377 1578 1577
4 1377 1378 1579 1578
4 1378 1379 1580 1579
4 1379 1380 1581 1580
4 1380 1381 1582 1581
4 1381 1382 1583 1582
4 1382 1383 1584 1583
4 1383 1384 1585 1584
4 1384 1385 1586 1585
4 1385 1386 1587 1586
4 1386 1387 1588 1587
4 1387 1388 1589 1588
4 1388 1389 1590 1589
4 1389 1390 1591 1590
4 1390 1391 1592 1591
4 1391 1392 1593 1592
4 1392 1393 1594 1593
4 1393 1394 1595 1594
4 1394 1395 1596 1595
4 1395 1396 1597 1596
4 1396 1397 1598 1597
4 1397 1398 1599 1598
4 1398 1399 1600 1599
4 1399 1400 1601 1600
4 1400 1401 1602 1601
4 1401 1402 1603 1602
4 1402 1403 1604 1603
4 1403 1404 1605 1604
4 1404 1405 1606 1605
4 1405 1406 1607 1606
4 1407 1408 1609 1608
4 1408 1409 1610 1609
4 1409 1410 1611 1610
4 1410 1411 1612 1611
4 1411 1412 1613 1612
4 1412 1413 1614 1613
4 1413 1414 1615 1614
4 1414 1415 1616 1615
4 1415 1416 1617 1616
4 1416 1417 1618 1617
4 1417 1418 1619 1618
4 1418 1419 1620 1619
4 1419 1420 1621 1620
4 1420 1421 1622 1621
4 1421 1422 1623 1622
4 1422 1423 1624 1623
4 1423 1424 1625 1624
4 1424 1425 1626 1625
4 1425 1426 1627 1626
4 1426 1427 1628 1627
4 1427 1428 1629 1628
4 1428 1429 1630 1629
4 1429 1430 1631 1630
4 1430 1431 1632 1631
4 1431 1432 1633 1632
4 1432 1433 1634 1633
4 1433 1434 1635 1634
4 1434 1435 1636 1635
4 1435 1436 1637 1636
4 1436 1437 1638 1637
4 1437 1438 1639 1638
4 1438 1439 1640 1639
4 1439 1440 1641 1640
4 1440 1441 1642 1641
4 1441 1442 1643 1642
4 1442 1443 1644 1643
4 1443 1444 1645 1644
4 1444 1445 1646 1645
4 1445 1446 1647 1646
4 1446 1447 1648 1647
4 1447 1448 1649 1648
4 1448 1449 1650 1649
4 1449 1450 1651 1650
4 1450 1451 1652 1651
4 1451 1452 1653 1652
4 1452 1453 1654 1653
4 1453 1454 1655 1654
4 1454 1455 1656 1655
4 1455 1456 1657 1656
4 1456 1457 1658 1657
4 1457 1458 1659 1658
4 1458 1459 1660 1659
4 1459 1460 1661 1660
4 1460 1461 1662 1661
4 1461 1462 1663 1662
4 1462 1463 1664 1663
4 1463 1464 1665 1664
4 1464 1465 1666 1665
4 1465 1466 1667 1666
4 1466 1467 1668 1667
4 1467 1468 1669 1668
4 1468 1469 1670 1669
4 1469 1470 1671 1670
4 1470 1471 1672 1671
4 1471 1472 1673 1672
4 1472 1473 1674 1673
4 1473 1474 1675 1674
4 1474 1475 1676 1675
4 1475 1476 1677 1676
4 1476 1477 1678 1677
4 1477 1478 1679 1678
4 1478 1479 1680 1679
4 1479 1480 1681 1680
4 1480 1481 1682 1681
4 1481 1482 1683 1682
4 1482 1483 1684 1683
4 1483 1484 1685 1684
4 1484 1485 1686 1685
4 1485 1486 1687 1686
4 1486 1487 1688 1687
4 1487 1488 1689 1688
4 1488 1489 1690 1689
4 1489 1490 1691 1690
4 1490 1491 1692 1691
4 1491 1492 1693 1692
4 1492 1493 1694 1693
4 1493 1494 1695 1694
4 1494 1495 1696 1695
4 1495 1496 1697 1696
4 1496 1497 1698 1697
4 1497 1498 1699 1698
4 1498 1499 1700 1699
4 1499 1500 1701 1700
4 1500 1501 1702 1701
4 1501 1502 1703 1702
4 1502 1503 1704 1703
4 1503 1504 1705 1704
4 1504 1505 1706 1705
4 1505 1506 1707 1706
4 1506 1507 1708 1707
4 1507 1508 1709 1708
4 1508 1509 1710 1709
4 1509 1510 1711 1710
4 1510 1511 1712 1711
4 1511 1512 1713 1712
4 1512 1513 1714 1713
4 1513 1514 1715 1714
4 1514 1515 1716 1715
4 1515 1516 1717 1716
4 1516 1517 1718 1717
4 1517 1518 1719 1718
4 1518 1519 1720 1719
4 1519 1520 1721 1720
4 1520 1521 1722 1721
4 1521 1522 1723 1722
4 1522 1523 1724 1723
4 1523 1524 1725 1724
4 1524 1525 1726 1725
4 1525 1526 1727 1726
4 1526 1527 1728 1727
4 1527 1528 1729 1728
4 1528 1529 1730 1729
4 1529 1530 1731 1730
4 1530 1531 1732 1731
4 1531 1532 1733 1732
4 1532 1533 1734 1733
4 1533 1534 1735 1734
4 1534 1535 1736 1735
4 1535 1536 1737 1736
4 1536 1537 1738 1737
4 1537 1538 1739 1738
4 1538 1539 1740 1739
4 1539 1540 1741 1740
4 1540 1541 1742 1741
4 1541 1542 1743 1742
4 1542 1543 1744 1743
4 1543 1544 1745 1744
4 1544 1545 1746 1745
4 1545 1546 1747 1746
4 1546 1547 1748 1747
4 1547 1548 1749 1748
4 1548 1549 1750 1749
4 1549 1550 1751 1750
4 1550 1551 1752 1751
4 1551 1552 1753 1752
4 1552 1553 1754 1753
4 1553 1554 1755 1754
4 1554 1555 1756 1755
4 1555 1556 1757 1756
4 1556 1557 1758 1757
4 1557 1558 1759 1758
4 1558 1559 1760 1759
4 1559 1560 1761 1760
4 1560 1561 1762 1761
4 1561 1562 1763 1762
4 1562 1563 1764 1763
4 1563 1564 1765 1764
4 1564 1565 1766 1765
4 1565 1566 1767 1766
4 1566 1567 1768 1767
4 1567 1568 1769 1768
4 1568 1569 1770 1769
4 1569 1570 1771 1770
4 1570 1571 1772 1771
4 1571 1572 1773 1772
4 1572 1573 1774 1773
4 1573 1574 1775 1774
4 1574 1575 1776 1775
4 1575 1576 1777 1776
4 1576 1577 1778 1777
4 1577 1578 1779 1778
4 1578 1579 1780 1779
4 1579 1580 1781 1780
4 1580 1581 1782 1781
4 1581 1582 1783 1782
4 1582 1583 1784 1783
4 1583 1584 1785 1784
4 1584 1585 1786 1785
4 1585 1586 1787 1786
4 1586 1587 1788 1787
4 1587 1588 1789 1788
4 1588 1589 1790 1789
4 1589 1590 1791 1790
4 1590 1591 1792 1791
4 1591 1592 1793 1792
4 1592 1593 1794 1793
4 1593 1594 1795 1794
4 1594 1595 1796 1795
4 1595 1596 1797 1796
4 1596 1597 1798 1797
4 1597 1598 1799 1798
4 1598 1599 1800 1799
4 1599 1600 1801 1800
4 1600 1601 1802 1801
4 1601 1602 1803 1802
4 1602 1603 1804 1803
4 1603 1604 1805 1804
4 1604 1605 1806 1805
4 1605 1606 1807 1806
4 1606 1607 1808 1807
4 1608 1609 1810 1809
4 1609 1610 1811 1810
4 1610 1611 1812 1811
4 1611 1612 1813 1812
4 1612 1613 1814 1813
4 1613 1614 1815 1814
4 1614 1615 1816 1815
4 1615 1616 1817 1816
4 1616 1617 1818 1817
4 1617 1618 1819 1818
4 1618 1619 1820 1819
4 1619 1620 1821 1820
4 1620 1621 1822 1821
4 1621 1622 1823 1822
4 1622 1623 1824 1823
4 1623 1624 1825 1824
4 1624 1625 1826 1825
4 1625 1626 1827 1826
4 1626 1627 1828 1827
4 1627 1628 1829 1828
4 1628 1629 1830 1829
4 1629 1630 1831 1830
4 1630 1631 1832 1831
4 1631 1632 1833 1832
4 1632 1633 1834 1833
4 1633 1634 1835 1834
4 1634 1635 1836 1835
4 1635 1636 1837 1836
4 1636 1637 1838 1837
4 1637 1638 1839 1838
4 1638 1639 1840 1839
4 1639 1640 1841 1840
4 1640 1641 1842 1841
4 1641 1642 1843 1842
4 1642 1643 1844 1843
4 1643 1644 1845 1844
4 1644 1645 1846 1845
4 1645 1646 1847 1846
4 1646 1647 1848 1847
4 1647 1648 1849 1848
4 1648 1649 1850 1849
4 1649 1650 1851 1850
4 1650 1651 1852 1851
4 1651 1652 1853 1852
4 1652 1653 1854 1853
4 1653 1654 1855 1854
4 1654 1655 1856 1855
4 1655 1656 1857 1856
4 1656 1657 1858 1857
4 1657 1658 1859 1858
4 1658 1659 1860 1859
4 1659 1660 1861 1860
4 1660 1661 1862 1861
4 1661 1662 1863 1862
4 1662 1663 1864 1863
4 1663 1664 1865 1864
4 1664 1665 1866 1865
4 1665 1666 1867 1866
4 1666 1667 1868 1867
4 1667 1668 1869 1868
4 1668 1669 1870 1869
4 1669 1670 1871 1870
4 1670 1671 1872 1871
4 1671 1672 1873 1872
4 1672 1673 1874 1873
4 1673 1674 1875 1874
4 1674 1675 1876 1875
4 1675 1676 1877 1876
4 1676 1677 1878 1877
4 1677 1678 1879 1878
4 1678 1679 1880 1879
4 1679 1680 1881 1880
4 1680 1681 1882 1881
4 1681 1682 1883 1882
4 1682 1683 1884 1883
4 1683 1684 1885 1884
4 1684 1685 1886 1885
4 1685 1686 1887 1886
4 1686 1687 1888 1887
4 1687 1688 1889 1888
4 1688 1689 1890 1889
4 1689 1690 1891 1890
4 1690 1691 1892 1891
4 1691 1692 1893 1892
4 1692 1693 1894 1893
4 1693 1694 1895 1894
4 1694 1695 1896 1895
4 1695 1696 1897 1896
4 1696 1697 1898 1897
4 1697 1698 1899 1898
4 1698 1699 1900 1899
4 1699 1700 1901 1900
4 1700 1701 1902 1901
4 1701 1702 1903 1902
4 1702 1703 1904 1903
4 1703 1704 1905 1904
4 1704 1705 1906 1905
4 1705 1706 1907 1906
4 1706 1707 1908 1907
4 1707 1708 1909 1908
4 1708 1709 1910 1909
4 1709 1710 1911 1910
4 1710 1711 1912 1911
4 1711 1712 1913 1912
4 1712 1713 1914 1913
4 1713 1714 1915 1914
4 1714 1715 1916 1915
4 1715 1716 1917 1916
4 1716 1717 1918 1917
4 1717 1718 1919 1918
4 1718 1719 1920 1919
4 1719 1720 1921 1920
4 1720 1721 1922 1921
4 1721 1722 1923 1922
4 1722 1723 1924 1923
4 1723 1724 1925 1924
4 1724 1725 1926 1925
4 1725 1726 1927 1926
4 1726 1727 1928 1927
4 1727 1728 1929 1928
4 1728 1729 1930 1929
4 1729 1730 1931 1930
4 1730 1731 1932 1931
4 1731 1732 1933 1932
4 1732 1733 1934 1933
4 1733 1734 1935 1934
4 1734 1735 1936 1935
4 1735 1736 1937 1936
4 1736 1737 1938 1937
4 1737 1738 1939 1938
4 1738 1739 1940 1939
4 1739 1740 1941 1940
4 1740 1741 1942 1941
4 1741 1742 1943 1942
4 1742 1743 1944 1943
4 1743 1744 1945 1944
4 1744 1745 1946 1945
4 1745 1746 1947 1946
4 1746 1747 1948 1947
4 1747 1748 1949 1948
4 1748 1749 1950 1949
4 1749 1750 1951 1950
4 1750 1751 1952 1951
4 1751 1752 1953 1952
4 1752 1753 1954 1953
4 1753 1754 1955 1954
4 1754 1755 1956 1955
4 1755 1756 1957 1956
4 1756 1757 1958 1957
4 1757 1758 1959 1958
4 1758 1759 1960 1959
4 1759 1760 1961 1960
4 1760 1761 1962 1961
4 1761 1762 1963 1962
4 1762 1763 1964 1963
4 1763 1764 1965 1964
4 1764 1765 1966 1965
4 1765 1766 1967 1966
4 1766 1767 1968 1967
4 1767 1768 1969 1968
4 1768 1769 1970 1969
4 1769 1770 1971 1970
4 1770 1771 1972 1971
4 1771 1772 1973 1972
4 1772 1773 1974 1973
4 1773 1774 1975 1974
4 1774 1775 1976 1975
4 1775 1776 1977 1976
4 1776 1777 1978 1977
4 1777 1778 1979 1978
4 1778 1779 1980 1979
4 1779 1780 1981 1980
4 1780 1781 1982 1981
4 1781 1782 1983 1982
4 1782 1783 1984 1983
4 1783 1784 1985 1984
4 1784 1785 1986 1985
4 1785 1786 1987 1986
4 1786 1787 1988 1987
4 1787 1788 1989 1988
4 1788 1789 1990 1989
4 1789 1790 1991 1990
4 1790 1791 1992 1991
4 1791 1792 1993 1992
4 1792 1793 1994 1993
4 1793 1794 1995 1994
4 1794 1795 1996 1995
4 1795 1796 1997 1996
4 1796 1797 1998 1997
4 1797 1798 1999 1998
4 1798 1799 2000 1999
4 1799 1800 2001 2000
4 1800 1801 2002 2001
4 1801 1802 2003 2002
4 1802 1803 2004 2003
4 1803 1804 2005 2004
4 1804 1805 2006 2005
4 1805 1806 2007 2006
4 1806 1807 2008 2007
4 1807 1808 2009 2008
4 1809 1810 2011 2010
4 1810 1811 2012 2011
4 1811 1812 2013 2012
4 1812 1813 2014 2013
4 1813 1814 2015 2014
4 1814 1815 2016 2015
4 1815 1816 2017 2016
4 1816 1817 2018 2017
4 1817 1818 2019 2018
4 1818 1819 2020 2019
4 1819 1820 2021 2020
4 1820 1821 2022 2021
4 1821 1822 2023 2022
4 1822 1823 2024 2023
4 1823 1824 2025 2024
4 1824 1825 2026 2025
4 1825 1826 2027 2026
4 1826 1827 2028 2027
4 1827 1828 2029 2028
4 1828 1829 2030 2029
4 1829 1830 2031 2030
4 1830 1831 2032 2031
4 1831 1832 2033 2032
4 1832 1833 2034 2033
4 1833 1834 2035 2034
4 1834 1835 2036 2035
4 1835 1836 2037 2036
4 1836 1837 2038 2037
4 1837 1838 2039 2038
4 1838 1839 2040 2039
4 1839 1840 2041 2040
4 1840 1841 2042 2041
4 1841 1842 2043 2042
4 1842 1843 2044 2043
4 1843 1844 2045 2044
4 1844 1845 2046 2045
4 1845 1846 2047 2046
4 1846 1847 2048 2047
4 1847 1848 2049 2048
4 1848 1849 2050 2049
4 1849 1850 2051 2050
4 1850 1851 2052 2051
4 1851 1852 2053 2052
4 1852 1853 2054 2053
4 1853 1854 2055 2054
4 1854 1855 2056 2055
4 1855 1856 2057 2056
4 1856 1857 2058 2057
4 1857 1858 2059 2058
4 1858 1859 2060 2059
4 1859 1860 2061 2060
4 1860 1861 2062 2061
4 1861 1862 2063 2062
4 1862 1863 2064 2063
4 1863 1864 2065 2064
4 1864 1865 2066 2065
4 1865 1866 2067 2066
4 1866 1867 2068 2067
4 1867 1868 2069 2068
4 1868 1869 2070 2069
4 1869 1870 2071 2070
4 1870 1871 2072 2071
4 1871 1872 2073 2072
4 1872 1873 2074 2073
4 1873 1874 2075 2074
4 1874 1875 2076 2075
4 1875 1876 2077 2076
4 1876 1877 2078 2077
4 1877 1878 2079 2078
4 1878 1879 2080 2079
4 1879 1880 2081 2080
4 1880 1881 2082 2081
4 1881 1882 2083 2082
4 1882 1883 2084 2083
4 1883 1884 2085 2084
4 1884 1885 2086 2085
4 1885 1886 2087 2086
4 1886 1887 2088 2087
4 1887 1888 2089 2088
4 1888 1889 2090 2089
4 1889 1890 2091 2090
4 1890 1891 2092 2091
4 1891 1892 2093 2092
4 1892 1893 2094 2093
4 1893 1894 2095 2094
4 1894 1895 2096 2095
4 1895 1896 2097 2096
4 1896 1897 2098 2097
4 1897 1898 2099 2098
4 1898 1899 2100 2099
4 1899 1900 2101 2100
4 1900 1901 2102 2101
4 1901 1902 2103 2102
4 1902 1903 2104 2103
4 1903 1904 2105 2104
4 1904 1905 2106 2105
4 1905 1906 2107 2106
4 1906 1907 2108 2107
4 1907 1908 2109 2108
4 1908 1909 2110 2109
4 1909 1910 2111 2110
4 1910 1911 2112 2111
4 1911 1912 2113 2112
4 1912 1913 2114 2113
4 1913 1914 2115 2114
4 1914 1915 2116 2115
4 1915 1916 2117 2116
4 1916 1917 2118 2117
4 1917 1918 2119 2118
4 1918 1919 2120 2119
4 1919 1920 2121 2120
4 1920 1921 2122 2121
4 1921 1922 2123 2122
4 1922 1923 2124 2123
4 1923 1924 2125 2124
4 1924 1925 2126 2125
4 1925 1926 2127 2126
4 1926 1927 2128 2127
4 1927 1928 2129 2128
4 1928 1929 2130 2129
4 1929 1930 2131 2130
4 1930 1931 2132 2131
4 1931 1932 2133 2132
4 1932 1933 2134 2133
4 1933 1934 2135 2134
4 1934 1935 2136 2135
4 1935 1936 2137 2136
4 1936 1937 2138 2137
4 1937 1938 2139 2138
4 1938 1939 2140 2139
4 1939 1940 2141 2140
4 1940 1941 2142 2141
4 1941 1942 2143 2142
4 1942 1943 2144 2143
4 1943 1944 2145 2144
4 1944 1945 2146 2145
4 1945 1946 2147 2146
4 1946 1947 2148 2147
4 1947 1948 2149 2148
4 1948 1949 2150 2149
4 1949 1950 2151 2150
4 1950 1951 2152 2151
4 1951 1952 2153 2152
4 1952 1953 2154 2153
4 1953 1954 2155 2154
4 1954 1955 2156 2155
4 1955 1956 2157 2156
4 1956 1957 2158 2157
4 1957 1958 2159 2158
4 1958 1959 2160 2159
4 1959 1960 2161 2160
4 1960 1961 2162 2161
4 1961 1962 2163 2162
4 1962 1963 2164 2163
4 1963 1964 2165 2164
4 1964 1965 2166 2165
4 1965 1966 2167 2166
4 1966 1967 2168 2167
4 1967 1968 2169 2168
4 1968 1969 2170 2169
4 1969 1970 2171 2170
4 1970 1971 2172 2171
4 1971 1972 2173 2172
4 1972 1973 2174 2173
4 1973 1974 2175 2174
4 1974 1975 2176 2175
4 1975 1976 2177 2176
4 1976 1977 2178 2177
4 1977 1978 2179 2178
4 1978 1979 2180 2179
4 1979 1980 2181 2180
4 1980 1981 2182 2181
4 1981 1982 2183 2182
4 1982 1983 2184 2183
4 1983 1984 2185 2184
4 1984 1985 2186 2185
4 1985 1986 2187 2186
4 1986 1987 2188 2187
4 1987 1988 2189 2188
4 1988 1989 2190 2189
4 1989 1990 2191 2190
4 1990 1991 2192 2191
4 1991 1992 2193 2192
4 1992 1993 2194 2193
4 1993 1994 2195 2194
4 1994 1995 2196 2195
4 1995 1996 2197 2196
4 1996 1997 2198 2197
4 1997 1998 2199 2198
4 1998 1999 2200 2199
4 1999 2000 2201 2200
4 2000 2001 2202 2201
4 2001 2002 2203 2202
4 2002 2003 2204 2203
4 2003 2004 2205 2204
4 2004 2005 2206 2205
4 2005 2006 2207 2206
4 2006 2007 2208 2207
4 2007 2008 2209 2208
4 2008 2009 2210 2209
4 2010 2011 2212 2211
4 2011 2012 2213 2212
4 2012 2013 2214 2213
4 2013 2014 2215 2214
4 2014 2015 2216 2215
4 2015 2016 2217 2216
4 2016 2017 2218 2217
4 2017 2018 2219 2218
4 2018 2019 2220 2219
4 2019 2020 2221 2220
4 2020 2021 2222 2221
4 2021 2022 2223 2222
4 2022 2023 2224 2223
4 2023 2024 2225 2224
4 2024 2025 2226 2225
4 2025 2026 2227 2226
4 2026 2027 2228 2227
4 2027 2028 2229 2228
4 2028 2029 2230 2229
4 2029 2030 2231 2230
4 2030 2031 2232 2231
4 2031 2032 2233 2232
4 2032 2033 2234 2233
4 2033 2034 2235 2234
4 2034 2035 2236 2235
4 2035 2036 2237 2236
4 2036 2037 2238 2237
4 2037 2038 2239 2238
4 2038 2039 2240 2239
4 2039 2040 2241 2240
4 2040 2041 2242 2241
4 2041 2042 2243 2242
4 2042 2043 2244 2243
4 2043 2044 2245 2244
4 2044 2045 2246 2245
4 2045 2046 2247 2246
4 2046 2047 2248 2247
4 2047 2048 2249 2248
4 2048 2049 2250 2249
4 2049 2050 2251 2250
4 2050 2051 2252 2251
4 2051 2052 2253 2252
4 2052 2053 2254 2253
4 2053 2054 2255 2254
4 2054 2055 2256 2255
4 2055 2056 2257 2256
4 2056 2057 2258 2257
4 2057 2058 2259 2258
4 2058 2059 2260 2259
4 2059 2060 2261 2260
4 2060 2061 2262 2261
4 2061 2062 2263 2262
4 2062 2063 2264 2263
4 2063 2064 2265 2264
4 2064 2065 2266 2265
4 2065 2066 2267 2266
4 2066 2067 2268 2267
4 2067 2068 2269 2268
4 2068 2069 2270 2269
4 2069 2070 2271 2270
4 2070 2071 2272 2271
4 2071 2072 2273 2272
4 2072 2073 2274 2273
4 2073 2074 2275 2274
4 2074 2075 2276 2275
4 2075 2076 2277 2276
4 2076 2077 2278 2277
4 2077 2078 2279 2278
4 2078 2079 2280 2279
4 2079 2080 2281 2280
4 2080 2081 2282 2281
4 2081 2082 2283 2282
4 2082 2083 2284 2283
4 2083 2084 2285 2284
4 2084 2085 2286 2285
4 2085 2086 2287 2286
4 2086 2087 2288 2287
4 2087 2088 2289 2288
4 2088 2089 2290 2289
4 2089 2090 2291 2290
4 2090 2091 2292 2291
4 2091 2092 2293 2292
4 2092 2093 2294 2293
4 2093 2094 2295 2294
4 2094 2095 2296 2295
4 2095 2096 2297 2296
4 2096 2097 2298 2297
4 2097 2098 2299 2298
4 2098 2099 2300 2299
4 2099 2100 2301 2300
4 2100 2101 2302 2301
4 2101 2102 2303 2302
4 2102 2103 2304 2303
4 2103 2104 2305 2304
4 2104 2105 2306 2305
4 2105 2106 2307 2306
4 2106 2107 2308 2307
4 2107 2108 2309 2308
4 2108 2109 2310 2309
4 2109 2110 2311 2310
4 2110 2111 2312 2311
4 2111 2112 2313 2312
4 2112 2113 2314 2313
4 2113 2114 2315 2314
4 2114 2115 2316 2315
4 2115 2116 2317 2316
4 2116 2117 2318 2317
4 2117 2118 2319 2318
4 2118 2119 2320 2319
4 2119 2120 2321 2320
4 2120 2121 2322 2321
4 2121 2122 2323 2322
4 2122 2123 2324 2323
4 2123 2124 2325 2324
4 2124 2125 2326 2325
4 2125 2126 2327 2326
4 2126 2127 2328 2327
4 2127 2128 2329 2328
4 2128 2129 2330 2329
4 2129 2130 2331 2330
4 2130 2131 2332 2331
4 2131 2132 2333 2332
4 2132 2133 2334 2333
4 2133 2134 2335 2334
4 2134 2135 2336 2335
4 2135 2136 2337 2336
4 2136 2137 2338 2337
4 2137 2138 2339 2338
4 2138 2139 2340 2339
4 2139 2140 2341 2340
4 2140 2141 2342 2341
4 2141 2142 2343 2342
4 2142 2143 2344 2343
4 2143 2144 2345 2344
4 2144 2145 2346 2345
4 2145 2146 2347 2346
4 2146 2147 2348 2347
4 2147 2148 2349 2348
4 2148 2149 2350 2349
4 2149 2150 2351 2350
4 2150 2151 2352 2351
4 2151 2152 2353 2352
4 2152 2153 2354 2353
4 2153 2154 2355 2354
4 2154 2155 2356 2355
4 2155 2156 2357 2356
4 2156 2157 2358 2357
4 2157 2158 2359 2358
4 2158 2159 2360 2359
4 2159 2160 2361 2360
4 2160 2161 2362 2361
4 2161 2162 2363 2362
4 2162 2163 2364 2363
4 2163 2164 2365 2364
4 2164 2165 2366 2365
4 2165 2166 2367 2366
4 2166 2167 2368 2367
4 2167 2168 2369 2368
4 2168 2169 2370 2369
4 2169 2170 2371 2370
4 2170 2171 2372 2371
4 2171 2172 2373 2372
4 2172 2173 2374 2373
4 2173 2174 2375 2374
4 2174 2175 2376 2375
4 2175 2176 2377 2376
4 2176 2177 2378 2377
4 2177 2178 2379 2378
4 2178 2179 2380 2379
4 2179 2180 2381 2380
4 2180 2181 2382 2381
4 2181 2182 2383 2382
4 2182 2183 2384 2383
4 2183 2184 2385 2384
4 2184 2185 2386 2385
4 2185 2186 2387 2386
4 2186 2187 2388 2387
4 2187 2188 2389 2388
4 2188 2189 2390 2389
4 2189 2190 2391 2390
4 2190 2191 2392 2391
4 2191 2192 2393 2392
4 2192 2193 2394 2393
4 2193 2194 2395 2394
4 2194 2195 2396 2395
4 2195 2196 2397 2396
4 2196 2197 2398 2397
4 2197 2198 2399 2398
4 2198 2199 2400 2399
4 2199 2200 2401 2400
4 2200 2201 2402 2401
4 2201 2202 2403 2402
4 2202 2203 2404 2403
4 2203 2204 2405 2404
4 2204 2205 2406 2405
4 2205 2206 2407 2406
4 2206 2207 2408 2407
4 2207 2208 2409 2408
4 2208 2209 2410 2409
4 2209 2210 2411 2410
4 2211 2212 2413 2412
4 2212 2213 2414 2413
4 2213 2214 2415 2414
4 2214 2215 2416 2415
4 2215 2216 2417 2416
4 2216 2217 2418 2417
4 2217 2218 2419 2418
4 2218 2219 2420 2419
4 2219 2220 2421 2420
4 2220 2221 2422 2421
4 2221 2222 2423 2422
4 2222 2223 2424 2423
4 2223 2224 2425 2424
4 2224 2225 2426 2425
4 2225 2226 2427 2426
4 2226 2227 2428 2427
4 2227 2228 2429 2428
4 2228 2229 2430 2429
4 2229 2230 2431 2430
4 2230 2231 2432 2431
4 2231 2232 2433 2432
4 2232 2233 2434 2433
4 2233 2234 2435 2434
4 2234 2235 2436 2435
4 2235 2236 2437 2436
4 2236 2237 2438 2437
4 2237 2238 2439 2438
4 2238 2239 2440 2439
4 2239 2240 2441 2440
4 2240 2241 2442 2441
4 2241 2242 2443 2442
4 2242 2243 2444 2443
4 2243 2244 2445 2444
4 2244 2245 2446 2445
4 2245 2246 2447 2446
4 2246 2247 2448 2447
4 2247 2248 2449 2448
4 2248 2249 2450 2449
4 2249 2250 2451 2450
4 2250 2251 2452 2451
4 2251 2252 2453 2452
4 2252 2253 2454 2453
4 2253 2254 2455 2454
4 2254 2255 2456 2455
4 2255 2256 2457 2456
4 2256 2257 2458 2457
4 2257 2258 2459 2458
4 2258 2259 2460 2459
4 2259 2260 2461 2460
4 2260 2261 2462 2461
4 2261 2262 2463 2462
4 2262 2263 2464 2463
4 2263 2264 2465 2464
4 2264 2265 2466 2465
4 2265 2266 2467 2466
4 2266 2267 2468 2467
4 2267 2268 2469 2468
4 2268 2269 2470 2469
4 2269 2270 2471 2470
4 2270 2271 2472 2471
4 2271 2272 2473 2472
4 2272 2273 2474 2473
4 2273 2274 2475 2474
4 2274 2275 2476 2475
4 2275 2276 2477 2476
4 2276 2277 2478 2477
4 2277 2278 2479 2478
4 2278 2279 2480 2479
4 2279 2280 2481 2480
4 2280 2281 2482 2481
4 2281 2282 2483 2482
4 2282 2283 2484 2483
4 2283 2284 2485 2484
4 2284 2285 2486 2485
4 2285 2286 2487 2486
4 2286 2287 2488 2487
4 2287 2288 2489 2488
4 2288 2289 2490 2489
4 2289 2290 2491 2490
4 2290 2291 2492 2491
4 2291 2292 2493 2492
4 2292 2293 2494 2493
4 2293 2294 2495 2494
4 2294 2295 2496 2495
4 2295 2296 2497 2496
4 2296 2297 2498 2497
4 2297 2298 2499 2498
4 2298 2299 2500 2499
4 2299 2300 2501 2500
4 2300 2301 2502 2501
4 2301 2302 2503 2502
4 2302 2303 2504 2503
4 2303 2304 2505 2504
4 2304 2305 2506 2505
4 2305 2306 2507 2506
4 2306 2307 2508 2507
4 2307 2308 2509 2508
4 2308 2309 2510 2509
4 2309 2310 2511 2510
4 2310 2311 2512 2511
4 2311 2312 2513 2512
4 2312 2313 2514 2513
4 2313 2314 2515 2514
4 2314 2315 2516 2515
4 2315 2316 2517 2516
4 2316 2317 2518 2517
4 2317 2318 2519 2518
4 2318 2319 2520 2519
4 2319 2320 2521 2520
4 2320 2321 2522 2521
4 2321 2322 2523 2522
4 2322 2323 2524 2523
4 2323 2324 2525 2524
4 2324 2325 2526 2525
4 2325 2326 2527 2526
4 2326 2327 2528 2527
4 2327 2328 2529 2528
4 2328 2329 2530 2529
4 2329 2330 2531 2530
4 2330 2331 2532 2531
4 2331 2332 2533 2532
4 2332 2333 2534 2533
4 2333 2334 2535 2534
4 2334 2335 2536 2535
4 2335 2336 2537 2536
4 2336 2337 2538 2537
4 2337 2338 2539 2538
4 2338 2339 2540 2539
4 2339 2340 2541 2540
4 2340 2341 2542 2541
4 2341 2342 2543 2542
4 2342 2343 2544 2543
4 2343 2344 2545 2544
4 2344 2345 2546 2545
4 2345 2346 2547 2546
4 2346 2347 2548 2547
4 2347 2348 2549 2548
4 2348 2349 2550 2549
4 2349 2350 2551 2550
4 2350 2351 2552 2551
4 2351 2352 2553 2552
4 2352 2353 2554 2553
4 2353 2354 2555 2554
4 2354 2355 2556 2555
4 2355 2356 2557 2556
4 2356 2357 2558 2557
4 2357 2358 2559 2558
4 2358 2359 2560 2559
4 2359 2360 2561 2560
4 2360 2361 2562 2561
4 2361 2362 2563 2562
4 2362 2363 2564 2563
4 2363 2364 2565 2564
4 2364 2365 2566 2565
4 2365 2366 2567 2566
4 2366 2367 2568 2567
4 2367 2368 2569 2568
4 2368 2369 2570 2569
4 2369 2370 2571 2570
4 2370 2371 2572 2571
4 2371 2372 2573 2572
4 2372 2373 2574 2573
4 2373 2374 2575 2574
4 2374 2375 2576 2575
4 2375 2376 2577 2576
4 2376 2377 2578 2577
4 2377 2378 2579 2578
4 2378 2379 2580 2579
4 2379 2380 2581 2580
4 2380 2381 2582 2581
4 2381 2382 2583 2582
4 2382 2383 2584 2583
4 2383 2384 2585 2584
4 2384 2385 2586 2585
4 2385 2386 2587 2586
4 2386 2387 2588 2587
4 2387 2388 2589 2588
4 2388 2389 2590 2589
4 2389 2390 2591 2590
4 2390 2391 2592 2591
4 2391 2392 2593 2592
4 2392 2393 2594 2593
4 2393 2394 2595 2594
4 2394 2395 2596 2595
4 2395 2396 2597 2596
4 2396 2397 2598 2597
4 2397 2398 2599 2598
4 2398 2399 2600 2599
4 2399 2400 2601 2600
4 2400 2401 2602 2601
4 2401 2402 2603 2602
4 2402 2403 2604 2603
4 2403 2404 2605 2604
4 2404 2405 2606 2605
4 2405 2406 2607 2606
4 2406 2407 2608 2607
4 2407 2408 2609 2608
4 2408 2409 2610 2609
4 2409 2410 2611 2610
4 2410 2411 2612 2611
4 2412 2413 2614 2613
4 2413 2414 2615 2614
4 2414 2415 2616 2615
4 2415 2416 2617 2616
4 2416 2417 2618 2617
4 2417 2418 2619 2618
4 2418 2419 2620 2619
4 2419 2420 2621 2620
4 2420 2421 2622 2621
4 2421 2422 2623 2622
4 2422 2423 2624 2623
4 2423 2424 2625 2624
4 2424 2425 2626 2625
4 2425 2426 2627 2626
4 2426 2427 2628 2627
4 2427 2428 2629 2628
4 2428 2429 2630 2629
4 2429 2430 2631 2630
4 2430 2431 2632 2631
4 2431 2432 2633 2632
4 2432 2433 2634 2633
4 2433 2434 2635 2634
4 2434 2435 2636 2635
4 2435 2436 2637 2636
4 2436 2437 2638 2637
4 2437 2438 2639 2638
4 2438 2439 2640 2639
4 2439 2440 2641 2640
4 2440 2441 2642 2641
4 2441 2442 2643 2642
4 2442 2443 2644 2643
4 2443 2444 2645 2644
4 2444 2445 2646 2645
4 2445 2446 2647 2646
4 2446 2447 2648 2647
4 2447 2448 2649 2648
4 2448 2449 2650 2649
4 2449 2450 2651 2650
4 2450 2451 2652 2651
4 2451 2452 2653 2652
4 2452 2453 2654 2653
4 2453 2454 2655 2654
4 2454 2455 2656 2655
4 2455 2456 2657 2656
4 2456 2457 2658 2657
4 2457 2458 2659 2658
4 2458 2459 2660 2659
4 2459 2460 2661 2660
4 2460 2461 2662 2661
4 2461 2462 2663 2662
4 2462 2463 2664 2663
4 2463 2464 2665 2664
4 2464 2465 2666 2665
4 2465 2466 2667 2666
4 2466 2467 2668 2667
4 2467 2468 2669 2668
4 2468 2469 2670 2669
4 2469 2470 2671 2670
4 2470 2471 2672 2671
4 2471 2472 2673 2672
4 2472 2473 2674 2673
4 2473 2474 2675 2674
4 2474 2475 2676 2675
4 2475 2476 2677 2676
4 2476 2477 2678 2677
4 2477 2478 2679 2678
4 2478 2479 2680 2679
4 2479 2480 2681 2680
4 2480 2481 2682 2681
4 2481 2482 2683 2682
4 2482 2483 2684 2683
4 2483 2484 2685 2684
4 2484 2485 2686 2685
4 2485 2486 2687 2686
4 2486 2487 2688 2687
4 2487 2488 2689 2688
4 2488 2489 2690 2689
4 2489 2490 2691 2690
4 2490 2491 2692 2691
4 2491 2492 2693 2692
4 2492 2493 2694 2693
4 2493 2494 2695 2694
4 2494 2495 2696 2695
4 2495 2496 2697 2696
4 2496 2497 2698 2697
4 2497 2498 2699 2698
4 2498 2499 2700 2699
4 2499 2500 2701 2700
4 2500 2501 2702 2701
4 2501 2502 2703 2702
4 2502 2503 2704 2703
4 2503 2504 2705 2704
4 2504 2505 2706 2705
4 2505 2506 2707 2706
4 2506 2507 2708 2707
4 2507 2508 2709 2708
4 2508 2509 2710 2709
4 2509 2510 2711 2710
4 2510 2511 2712 2711
4 2511 2512 2713 2712
4 2512 2513 2714 2713
4 2513 2514 2715 2714
4 2514 2515 2716 2715
4 2515 2516 2717 2716
4 2516 2517 2718 2717
4 2517 2518 2719 2718
4 2518 2519 2720 2719
4 2519 2520 2721 2720
4 2520 2521 2722 2721
4 2521 2522 2723 2722
4 2522 2523 2724 2723
4 2523 2524 2725 2724
4 2524 2525 2726 2725
4 2525 2526 2727 2726
4 2526 2527 2728 2727
4 2527 2528 2729 2728
4 2528 2529 2730 2729
4 2529 2530 2731 2730
4 2530 2531 2732 2731
4 2531 2532 2733 2732
4 2532 2533 2734 2733
4 2533 2534 2735 2734
4 2534 2535 2736 2735
4 2535 2536 2737 2736
4 2536 2537 2738 2737
4 2537 2538 2739 2738
4 2538 2539 2740 2739
4 2539 2540 2741 2740
4 2540 2541 2742 2741
4 2541 2542 2743 2742
4 2542 2543 2744 2743
4 2543 2544 2745 2744
4 2544 2545 2746 2745
4 2545 2546 2747 2746
4 2546 2547 2748 2747
4 2547 2548 2749 2748
4 2548 2549 2750 2749
4 2549 2550 2751 2750
4 2550 2551 2752 2751
4 2551 2552 2753 2752
4 2552 2553 2754 2753
4 2553 2554 2755 2754
4 2554 2555 2756 2755
4 2555 2556 2757 2756
4 2556 2557 2758 2757
4 2557 2558 2759 2758
4 2558 2559 2760 2759
4 2559 2560 2761 2760
4 2560 2561 2762 2761
4 2561 2562 2763 2762
4 2562 2563 2764 2763
4 2563 2564 2765 2764
4 2564 2565 2766 2765
4 2565 2566 2767 2766
4 2566 2567 2768 2767
4 2567 2568 2769 2768
4 2568 2569 2770 2769
4 2569 2570 2771 2770
4 2570 2571 2772 2771
4 2571 2572 2773 2772
4 2572 2573 2774 2773
4 2573 2574 2775 2774
4 2574 2575 2776 2775
4 2575 2576 2777 2776
4 2576 2577 2778 2777
4 2577 2578 2779 2778
4 2578 2579 2780 2779
4 2579 2580 2781 2780
4 2580 2581 2782 2781
4 2581 2582 2783 2782
4 2582 2583 2784 2783
4 2583 2584 2785 2784
4 2584 2585 2786 2785
4 2585 2586 2787 2786
4 2586 2587 2788 2787
4 2587 2588 2789 2788
4 2588 2589 2790 2789
4 2589 2590 2791 2790
4 2590 2591 2792 2791
4 2591 2592 2793 2792
4 2592 2593 2794 2793
4 2593 2594 2795 2794
4 2594 2595 2796 2795
4 2595 2596 2797 2796
4 2596 2597 2798 2797
4 2597 2598 2799 2798
4 2598 2599 2800 2799
4 2599 2600 2801 2800
4 2600 2601 2802 2801
4 2601 2602 2803 2802
4 2602 2603 2804 2803
4 2603 2604 2805 2804
4 2604 2605 2806 2805
4 2605 2606 2807 2806
4 2606 2607 2808 2807
4 2607 2608 2809 2808
4 2608 2609 2810 2809
4 2609 2610 2811 2810
4 2610 2611 2812 2811
4 2611 2612 2813 2812
4 2613 2614 2815 2814
4 2614 2615 2816 2815
4 2615 2616 2817 2816
4 2616 2617 2818 2817
4 2617 2618 2819 2818
4 2618 2619 2820 2819
4 2619 2620 2821 2820
4 2620 2621 2822 2821
4 2621 2622 2823 2822
4 2622 2623 2824 2823
4 2623 2624 2825 2824
4 2624 2625 2826 2825
4 2625 2626 2827 2826
4 2626 2627 2828 2827
4 2627 2628 2829 2828
4 2628 2629 2830 2829
4 2629 2630 2831 2830
4 2630 2631 2832 2831
4 2631 2632 2833 2832
4 2632 2633 2834 2833
4 2633 2634 2835 2834
4 2634 2635 2836 2835
4 2635 2636 2837 2836
4 2636 2637 2838 2837
4 2637 2638 2839 2838
4 2638 2639 2840 2839
4 2639 2640 2841 2840
4 2640 2641 2842 2841
4 2641 2642 2843 2842
4 2642 2643 2844 2843
4 2643 2644 2845 2844
4 2644 2645 2846 2845
4 2645 2646 2847 2846
4 2646 2647 2848 2847
4 2647 2648 2849 2848
4 2648 2649 2850 2849
4 2649 2650 2851 2850
4 2650 2651 2852 2851
4 2651 2652 2853 2852
4 2652 2653 2854 2853
4 2653 2654 2855 2854
4 2654 2655 2856 2855
4 2655 2656 2857 2856
4 2656 2657 2858 2857
4 2657 2658 2859 2858
4 2658 2659 2860 2859
4 2659 2660 2861 2860
4 2660 2661 2862 2861
4 2661 2662 2863 2862
4 2662 2663 2864 2863
4 2663 2664 2865 2864
4 2664 2665 2866 2865
4 2665 2666 2867 2866
4 2666 2667 2868 2867
4 2667 2668 2869 2868
4 2668 2669 2870 2869
4 2669 2670 2871 2870
4 2670 2671 2872 2871
4 2671 2672 2873 2872
4 2672 2673 2874 2873
4 2673 2674 2875 2874
4 2674 2675 2876 2875
4 2675 2676 2877 2876
4 2676 2677 2878 2877
4 2677 2678 2879 2878
4 2678 2679 2880 2879
4 2679 2680 2881 2880
4 2680 2681 2882 2881
4 2681 2682 2883 2882
4 2682 2683 2884 2883
4 2683 2684 2885 2884
4 2684 2685 2886 2885
4 2685 2686 2887 2886
4 2686 2687 2888 2887
4 2687 2688 2889 2888
4 2688 2689 2890 2889
4 2689 2690 2891 2890
4 2690 2691 2892 2891
4 2691 2692 2893 2892
4 2692 2693 2894 2893
4 2693 2694 2895 2894
4 2694 2695 2896 2895
4 2695 2696 2897 2896
4 2696 2697 2898 2897
4 2697 2698 2899 2898
4 2698 2699 2900 2899
4 2699 2700 2901 2900
4 2700 2701 2902 2901
4 2701 2702 2903 2902
4 2702 2703 2904 2903
4 2703 2704 2905 2904
4 2704 2705 2906 2905
4 2705 2706 2907 2906
4 2706 2707 2908 2907
4 2707 2708 2909 2908
4 2708 2709 2910 2909
4 2709 2710 2911 2910
4 2710 2711 2912 2911
4 2711 2712 2913 2912
4 2712 2713 2914 2913
4 2713 2714 2915 2914
4 2714 2715 2916 2915
4 2715 2716 2917 2916
4 2716 2717 2918 2917
4 2717 2718 2919 2918
4 2718 2719 2920 2919
4 2719 2720 2921 2920
4 2720 2721 2922 2921
4 2721 2722 2923 2922
4 2722 2723 2924 2923
4 2723 2724 2925 2924
4 2724 2725 2926 2925
4 2725 2726 2927 2926
4 2726 2727 2928 2927
4 2727 2728 2929 2928
4 2728 2729 2930 2929
4 2729 2730 2931 2930
4 2730 2731 2932 2931
4 2731 2732 2933 2932
4 2732 2733 2934 2933
4 2733 2734 2935 2934
4 2734 2735 2936 2935
4 2735 2736 2937 2936
4 2736 2737 2938 2937
4 2737 2738 2939 2938
4 2738 2739 2940 2939
4 2739 2740 2941 2940
4 2740 2741 2942 2941
4 2741 2742 2943 2942
4 2742 2743 2944 2943
4 2743 2744 2945 2944
4 2744 2745 2946 2945
4 2745 2746 2947 2946
4 2746 2747 2948 2947
4 2747 2748 2949 2948
4 2748 2749 2950 2949
4 2749 2750 2951 2950
4 2750 2751 2952 2951
4 2751 2752 2953 2952
4 2752 2753 2954 2953
4 2753 2754 2955 2954
4 2754 2755 2956 2955
4 2755 2756 2957 2956
4 2756 2757 2958 2957
4 2757 2758 2959 2958
4 2758 2759 2960 2959
4 2759 2760 2961 2960
4 2760 2761 2962 2961
4 2761 2762 2963 2962
4 2762 2763 2964 2963
4 2763 2764 2965 2964
4 2764 2765 2966 2965
4 2765 2766 2967 2966
4 2766 2767 2968 2967
4 2767 2768 2969 2968
4 2768 2769 2970 2969
4 2769 2770 2971 2970
4 2770 2771 2972 2971
4 2771 2772 2973 2972
4 2772 2773 2974 2973
4 2773 2774 2975 2974
4 2774 2775 2976 2975
4 2775 2776 2977 2976
4 2776 2777 2978 2977
4 2777 2778 2979 2978
4 2778 2779 2980 2979
4 2779 2780 2981 2980
4 2780 2781 2982 2981
4 2781 2782 2983 2982
4 2782 2783 2984 2983
4 2783 2784 2985 2984
4 2784 2785 2986 2985
4 2785 2786 2987 2986
4 2786 2787 2988 2987
4 2787 2788 2989 2988
4 2788 2789 2990 2989
4 2789 2790 2991 2990
4 2790 2791 2992 2991
4 2791 2792 2993 2992
4 2792 2793 2994 2993
4 2793 2794 2995 2994
4 2794 2795 2996 2995
4 2795 2796 2997 2996
4 2796 2797 2998 2997
4 2797 2798 2999 2998
4 2798 2799 3000 2999
4 2799 2800 3001 3000
4 2800 2801 3002 3001
4 2801 2802 3003 3002
4 2802 2803 3004 3003
4 2803 2804 3005 3004
4 2804 2805 3006 3005
4 2805 2806 3007 3006
4 2806 2807 3008 3007
4 2807 2808 3009 3008
4 2808 2809 3010 3009
4 2809 2810 3011 3010
4 2810 2811 3012 3011
4 2811 2812 3013 3012
4 2812 2813 3014 3013
4 2814 2815 3016 3015
4 2815 2816 3017 3016
4 2816 2817 3018 3017
4 2817 2818 3019 3018
4 2818 2819 3020 3019
4 2819 2820 3021 3020
4 2820 2821 3022 3021
4 2821 2822 3023 3022
4 2822 2823 3024 3023
4 2823 2824 3025 3024
4 2824 2825 3026 3025
4 2825 2826 3027 3026
4 2826 2827 3028 3027
4 2827 2828 3029 3028
4 2828 2829 3030 3029
4 2829 2830 3031 3030
4 2830 2831 3032 3031
4 2831 2832 3033 3032
4 2832 2833 3034 3033
4 2833 2834 3035 3034
4 2834 2835 3036 3035
4 2835 2836 3037 3036
4 2836 2837 3038 3037
4 2837 2838 3039 3038
4 2838 2839 3040 3039
4 2839 2840 3041 3040
4 2840 2841 3042 3041
4 2841 2842 3043 3042
4 2842 2843 3044 3043
4 2843 2844 3045 3044
4 2844 2845 3046 3045
4 2845 2846 3047 3046
4 2846 2847 3048 3047
4 2847 2848 3049 3048
4 2848 2849 3050 3049
4 2849 2850 3051 3050
4 2850 2851 3052 3051
4 2851 2852 3053 3052
4 2852 2853 3054 3053
4 2853 2854 3055 3054
4 2854 2855 3056 3055
4 2855 2856 3057 3056
4 2856 2857 3058 3057
4 2857 2858 3059 3058
4 2858 2859 3060 3059
4 2859 2860 3061 3060
4 2860 2861 3062 3061
4 2861 2862 3063 3062
4 2862 2863 3064 3063
4 2863 2864 3065 3064
4 2864 2865 3066 3065
4 2865 2866 3067 3066
4 2866 2867 3068 3067
4 2867 2868 3069 3068
4 2868 2869 3070 3069
4 2869 2870 3071 3070
4 2870 2871 3072 3071
4 2871 2872 3073 3072
4 2872 2873 3074 3073
4 2873 2874 3075 3074
4 2874 2875 3076 3075
4 2875 2876 3077 3076
4 2876 2877 3078 3077
4 2877 2878 3079 3078
4 2878 2879 3080 3079
4 2879 2880 3081 3080
4 2880 2881 3082 3081
4 2881 2882 3083 3082
4 2882 2883 3084 3083
4 2883 2884 3085 3084
4 2884 2885 3086 3085
4 2885 2886 3087 3086
4 2886 2887 3088 3087
4 2887 2888 3089 3088
4 2888 2889 3090 3089
4 2889 2890 3091 3090
4 2890 2891 3092 3091
4 2891 2892 3093 3092
4 2892 2893 3094 3093
4 2893 2894 3095 3094
4 2894 2895 3096 3095
4 2895 2896 3097 3096
4 2896 2897 3098 3097
4 2897 2898 3099 3098
4 2898 2899 3100 3099
4 2899 2900 3101 3100
4 2900 2901 3102 3101
4 2901 2902 3103 3102
4 2902 2903 3104 3103
4 2903 2904 3105 3104
4 2904 2905 3106 3105
4 2905 2906 3107 3106
4 2906 2907 3108 3107
4 2907 2908 3109 3108
4 2908 2909 3110 3109
4 2909 2910 3111 3110
4 2910 2911 3112 3111
4 2911 2912 3113 3112
4 2912 2913 3114 3113
4 2913 2914 3115 3114
4 2914 2915 3116 3115
4 2915 2916 3117 3116
4 2916 2917 3118 3117
4 2917 2918 3119 3118
4 2918 2919 3120 3119
4 2919 2920 3121 3120
4 2920 2921 3122 3121
4 2921 2922 3123 3122
4 2922 2923 3124 3123
4 2923 2924 3125 3124
4 2924 2925 3126 3125
4 2925 2926 3127 3126
4 2926 2927 3128 3127
4 2927 2928 3129 3128
4 2928 2929 3130 3129
4 2929 2930 3131 3130
4 2930 2931 3132 3131
4 2931 2932 3133 3132
4 2932 2933 3134 3133
4 2933 2934 3135 3134
4 2934 2935 3136 3135
4 2935 2936 3137 3136
4 2936 2937 3138 3137
4 2937 2938 3139 3138
4 2938 2939 3140 3139
4 2939 2940 3141 3140
4 2940 2941 3142 3141
4 2941 2942 3143 3142
4 2942 2943 3144 3143
4 2943 2944 3145 3144
4 2944 2945 3146 3145
4 2945 2946 3147 3146
4 2946 2947 3148 3147
4 2947 2948 3149 3148
4 2948 2949 3150 3149
4 2949 2950 3151 3150
4 2950 2951 3152 3151
4 2951 2952 3153 3152
4 2952 2953 3154 3153
4 2953 2954 3155 3154
4 2954 2955 3156 3155
4 2955 2956 3157 3156
4 2956 2957 3158 3157
4 2957 2958 3159 3158
4 2958 2959 3160 3159
4 2959 2960 3161 3160
4 2960 2961 3162 3161
4 2961 2962 3163 3162
4 2962 2963 3164 3163
4 2963 2964 3165 3164
4 2964 2965 3166 3165
4 2965 2966 3167 3166
4 2966 2967 3168 3167
4 2967 2968 3169 3168
4 2968 2969 3170 3169
4 2969 2970 3171 3170
4 2970 2971 3172 3171
4 2971 2972 3173 3172
4 2972 2973 3174 3173
4 2973 2974 3175 3174
4 2974 2975 3176 3175
4 2975 2976 3177 3176
4 2976 2977 3178 3177
4 2977 2978 3179 3178
4 2978 2979 3180 3179
4 2979 2980 3181 3180
4 2980 2981 3182 3181
4 2981 2982 3183 3182
4 2982 2983 3184 3183
4 2983 2984 3185 3184
4 2984 2985 3186 3185
4 2985 2986 3187 3186
4 2986 2987 3188 3187
4 2987 2988 3189 3188
4 2988 2989 3190 3189
4 2989 2990 3191 3190
4 2990 2991 3192 3191
4 2991 2992 3193 3192
4 2992 2993 3194 3193
4 2993 2994 3195 3194
4 2994 2995 3196 3195
4 2995 2996 3197 3196
4 2996 2997 3198 3197
4 2997 2998 3199 3198
4 2998 2999 3200 3199
4 2999 3000 3201 3200
4 3000 3001 3202 3201
4 3001 3002 3203 3202
4 3002 3003 3204 3203
4 3003 3004 3205 3204
4 3004 3005 3206 3205
4 3005 3006 3207 3206
4 3006 3007 3208 3207
4 3007 3008 3209 3208
4 3008 3009 3210 3209
4 3009 3010 3211 3210
4 3010 3011 3212 3211
4 3011 3012 3213 3212
4 3012 3013 3214 3213
4 3013 3014 3215 3214
4 3015 3016 3217 3216
4 3016 3017 3218 3217
4 3017 3018 3219 3218
4 3018 3019 3220 3219
4 3019 3020 3221 3220
4 3020 3021 3222 3221
4 3021 3022 3223 3222
4 3022 3023 3224 3223
4 3023 3024 3225 3224
4 3024 3025 3226 3225
4 3025 3026 3227 3226
4 3026 3027 3228 3227
4 3027 3028 3229 3228
4 3028 3029 3230 3229
4 3029 3030 3231 3230
4 3030 3031 3232 3231
4 3031 3032 3233 3232
4 3032 3033 3234 3233
4 3033 3034 3235 3234
4 3034 3035 3236 3235
4 3035 3036 3237 3236
4 3036 3037 3238 3237
4 3037 3038 3239 3238
4 3038 3039 3240 3239
4 3039 3040 3241 3240
4 3040 3041 3242 3241
4 3041 3042 3243 3242
4 3042 3043 3244 3243
4 3043 3044 3245 3244
4 3044 3045 3246 3245
4 3045 3046 3247 3246
4 3046 3047 3248 3247
4 3047 3048 3249 3248
4 3048 3049 3250 3249
4 3049 3050 3251 3250
4 3050 3051 3252 3251
4 3051 3052 3253 3252
4 3052 3053 3254 3253
4 3053 3054 3255 3254
4 3054 3055 3256 3255
4 3055 3056 3257 3256
4 3056 3057 3258 3257
4 3057 3058 3259 3258
4 3058 3059 3260 3259
4 3059 3060 3261 3260
4 3060 3061 3262 3261
4 3061 3062 3263 3262
4 3062 3063 3264 3263
4 3063 3064 3265 3264
4 3064 3065 3266 3265
4 3065 3066 3267 3266
4 3066 3067 3268 3267
4 3067 3068 3269 3268
4 3068 3069 3270 3269
4 3069 3070 3271 3270
4 3070 3071 3272 3271
4 3071 3072 3273 3272
4 3072 3073 3274 3273
4 3073 3074 3275 3274
4 3074 3075 3276 3275
4 3075 3076 3277 3276
4 3076 3077 3278 3277
4 3077 3078 3279 3278
4 3078 3079 3280 3279
4 3079 3080 3281 3280
4 3080 3081 3282 3281
4 3081 3082 3283 3282
4 3082 3083 3284 3283
4 3083 3084 3285 3284
4 3084 3085 3286 3285
4 3085 3086 3287 3286
4 3086 3087 3288 3287
4 3087 3088 3289 3288
4 3088 3089 3290 3289
4 3089 3090 3291 3290
4 3090 3091 3292 3291
4 3091 3092 3293 3292
4 3092 3093 3294 3293
4 3093 3094 3295 3294
4 3094 3095 3296 3295
4 3095 3096 3297 3296
4 3096 3097 3298 3297
4 3097 3098 3299 3298
4 3098 3099 3300 3299
4 3099 3100 3301 3300
4 3100 3101 3302 3301
4 3101 3102 3303 3302
4 3102 3103 3304 3303
4 3103 3104 3305 3304
4 3104 3105 3306 3305
4 3105 3106 3307 3306
4 3106 3107 3308 3307
4 3107 3108 3309 3308
4 3108 3109 3310 3309
4 3109 3110 3311 3310
4 3110 3111 3312 3311
4 3111 3112 3313 3312
4 3112 3113 3314 3313
4 3113 3114 3315 3314
4 3114 3115 3316 3315
4 3115 3116 3317 3316
4 3116 3117 3318 3317
4 3117 3118 3319 3318
4 3118 3119 3320 3319
4 3119 3120 3321 3320
4 3120 3121 3322 3321
4 3121 3122 3323 3322
4 3122 3123 3324 3323
4 3123 3124 3325 3324
4 3124 3125 3326 3325
4 3125 3126 3327 3326
4 3126 3127 3328 3327
4 3127 3128 3329 3328
4 3128 3129 3330 3329
4 3129 3130 3331 3330
4 3130 3131 3332 3331
4 3131 3132 3333 3332
4 3132 3133 3334 3333
4 3133 3134 3335 3334
4 3134 3135 3336 3335
4 3135 3136 3337 3336
4 3136 3137 3338 3337
4 3137 3138 3339 3338
4 3138 3139 3340 3339
4 3139 3140 3341 3340
4 3140 3141 3342 3341
4 3141 3142 3343 3342
4 3142 3143 3344 3343
4 3143 3144 3345 3344
4 3144 3145 3346 3345
4 3145 3146 3347 3346
4 3146 3147 3348 3347
4 3147 3148 3349 3348
4 3148 3149 3350 3349
4 3149 3150 3351 3350
4 3150 3151 3352 3351
4 3151 3152 3353 3352
4 3152 3153 3354 3353
4 3153 3154 3355 3354
4 3154 3155 3356 3355
4 3155 3156 3357 3356
4 3156 3157 3358 3357
4 3157 3158 3359 3358
4 3158 3159 3360 3359
4 3159 3160 3361 3360
4 3160 3161 3362 3361
4 3161 3162 3363 3362
4 3162 3163 3364 3363
4 3163 3164 3365 3364
4 3164 3165 3366 3365
4 3165 3166 3367 3366
4 3166 3167 3368 3367
4 3167 3168 3369 3368
4 3168 3169 3370 3369
4 3169 3170 3371 3370
4 3170 3171 3372 3371
4 3171 3172 3373 3372
4 3172 3173 3374 3373
4 3173 3174 3375 3374
4 3174 3175 3376 3375
4 3175 3176 3377 3376
4 3176 3177 3378 3377
4 3177 3178 3379 3378
4 3178 3179 3380 3379
4 3179 3180 3381 3380
4 3180 3181 3382 3381
4 3181 3182 3383 3382
4 3182 3183 3384 3383
4 3183 3184 3385 3384
4 3184 3185 3386 3385
4 3185 3186 3387 3386
4 3186 3187 3388 3387
4 3187 3188 3389 3388
4 3188 3189 3390 3389
4 3189 3190 3391 3390
4 3190 3191 3392 3391
4 3191 3192 3393 3392
4 3192 3193 3394 3393
4 3193 3194 3395 3394
4 3194 3195 3396 3395
4 3195 3196 3397 3396
4 3196 3197 3398 3397
4 3197 3198 3399 3398
4 3198 3199 3400 3399
4 3199 3200 3401 3400
4 3200 3201 3402 3401
4 3201 3202 3403 3402
4 3202 3203 3404 3403
4 3203 3204 3405 3404
4 3204 3205 3406 3405
4 3205 3206 3407 3406
4 3206 3207 3408 3407
4 3207 3208 3409 3408
4 3208 3209 3410 3409
4 3209 3210 3411 3410
4 3210 3211 3412 3411
4 3211 3212 3413 3412
4 3212 3213 3414 3413
4 3213 3214 3415 3414
4 3214 3215 3416 3415
4 3216 3217 3418 3417
4 3217 3218 3419 3418
4 3218 3219 3420 3419
4 3219 3220 3421 3420
4 3220 3221 3422 3421
4 3221 3222 3423 3422
4 3222 3223 3424 3423
4 3223 3224 3425 3424
4 3224 3225 3426 3425
4 3225 3226 3427 3426
4 3226 3227 3428 3427
4 3227 3228 3429 3428
4 3228 3229 3430 3429
4 3229 3230 3431 3430
4 3230 3231 3432 3431
4 3231 3232 3433 3432
4 3232 3233 3434 3433
4 3233 3234 3435 3434
4 3234 3235 3436 3435
4 3235 3236 3437 3436
4 3236 3237 3438 3437
4 3237 3238 3439 3438
4 3238 3239 3440 3439
4 3239 3240 3441 3440
4 3240 3241 3442 3441
4 3241 3242 3443 3442
4 3242 3243 3444 3443
4 3243 3244 3445 3444
4 3244 3245 3446 3445
4 3245 3246 3447 3446
4 3246 3247 3448 3447
4 3247 3248 3449 3448
4 3248 3249 3450 3449
4 3249 3250 3451 3450
4 3250 3251 3452 3451
4 3251 3252 3453 3452
4 3252 3253 3454 3453
4 3253 3254 3455 3454
4 3254 3255 3456 3455
4 3255 3256 3457 3456
4 3256 3257 3458 3457
4 3257 3258 3459 3458
4 3258 3259 3460 3459
4 3259 3260 3461 3460
4 3260 3261 3462 3461
4 3261 3262 3463 3462
4 3262 3263 3464 3463
4 3263 3264 3465 3464
4 3264 3265 3466 3465
4 3265 3266 3467 3466
4 3266 3267 3468 3467
4 3267 3268 3469 3468
4 3268 3269 3470 3469
4 3269 3270 3471 3470
4 3270 3271 3472 3471
4 3271 3272 3473 3472
4 3272 3273 3474 3473
4 3273 3274 3475 3474
4 3274 3275 3476 3475
4 3275 3276 3477 3476
4 3276 3277 3478 3477
4 3277 3278 3479 3478
4 3278 3279 3480 3479
4 3279 3280 3481 3480
4 3280 3281 3482 3481
4 3281 3282 3483 3482
4 3282 3283 3484 3483
4 3283 3284 3485 3484
4 3284 3285 3486 3485
4 3285 3286 3487 3486
4 3286 3287 3488 3487
4 3287 3288 3489 3488
4 3288 3289 3490 3489
4 3289 3290 3491 3490
4 3290 3291 3492 3491
4 3291 3292 3493 3492
4 3292 3293 3494 3493
4 3293 3294 3495 3494
4 3294 3295 3496 3495
4 3295 3296 3497 3496
4 3296 3297 3498 3497
4 3297 3298 3499 3498
4 3298 3299 3500 3499
4 3299 3300 3501 3500
4 3300 3301 3502 3501
4 3301 3302 3503 3502
4 3302 3303 3504 3503
4 3303 3304 3505 3504
4 3304 3305 3506 3505
4 3305 3306 3507 3506
4 3306 3307 3508 3507
4 3307 3308 3509 3508
4 3308 3309 3510 3509
4 3309 3310 3511 3510
4 3310 3311 3512 3511
4 3311 3312 3513 3512
4 3312 3313 3514 3513
4 3313 3314 3515 3514
4 3314 3315 3516 3515
4 3315 3316 3517 3516
4 3316 3317 3518 3517
4 3317 3318 3519 3518
4 3318 3319 3520 3519
4 3319 3320 3521 3520
4 3320 3321 3522 3521
4 3321 3322 3523 3522
4 3322 3323 3524 3523
4 3323 3324 3525 3524
4 3324 3325 3526 3525
4 3325 3326 3527 3526
4 3326 3327 3528 3527
4 3327 3328 3529 3528
4 3328 3329 3530 3529
4 3329 3330 3531 3530
4 3330 3331 3532 3531
4 3331 3332 3533 3532
4 3332 3333 3534 3533
4 3333 3334 3535 3534
4 3334 3335 3536 3535
4 3335 3336 3537 3536
4 3336 3337 3538 3537
4 3337 3338 3539 3538
4 3338 3339 3540 3539
4 3339 3340 3541 3540
4 3340 3341 3542 3541
4 3341 3342 3543 3542
4 3342 3343 3544 3543
4 3343 3344 3545 3544
4 3344 3345 3546 3545
4 3345 3346 3547 3546
4 3346 3347 3548 3547
4 3347 3348 3549 3548
4 3348 3349 3550 3549
4 3349 3350 3551 3550
4 3350 3351 3552 3551
4 3351 3352 3553 3552
4 3352 3353 3554 3553
4 3353 3354 3555 3554
4 3354 3355 3556 3555
4 3355 3356 3557 3556
4 3356 3357 3558 3557
4 3357 3358 3559 3558
4 3358 3359 3560 3559
4 3359 3360 3561 3560
4 3360 3361 3562 3561
4 3361 3362 3563 3562
4 3362 3363 3564 3563
4 3363 3364 3565 3564
4 3364 3365 3566 3565
4 3365 3366 3567 3566
4 3366 3367 3568 3567
4 3367 3368 3569 3568
4 3368 3369 3570 3569
4 3369 3370 3571 3570
4 3370 3371 3572 3571
4 3371 3372 3573 3572
4 3372 3373 3574 3573
4 3373 3374 3575 3574
4 3374 3375 3576 3575
4 3375 3376 3577 3576
4 3376 3377 3578 3577
4 3377 3378 3579 3578
4 3378 3379 3580 3579
4 3379 3380 3581 3580
4 3380 3381 3582 3581
4 3381 3382 3583 3582
4 3382 3383 3584 3583
4 3383 3384 3585 3584
4 3384 3385 3586 3585
4 3385 3386 3587 3586
4 3386 3387 3588 3587
4 3387 3388 3589 3588
4 3388 3389 3590 3589
4 3389 3390 3591 3590
4 3390 3391 3592 3591
4 3391 3392 3593 3592
4 3392 3393 3594 3593
4 3393 3394 3595 3594
4 3394 3395 3596 3595
4 3395 3396 3597 3596
4 3396 3397 3598 3597
4 3397 3398 3599 3598
4 3398 3399 3600 3599
4 3399 3400 3601 3600
4 3400 3401 3602 3601
4 3401 3402 3603 3602
4 3402 3403 3604 3603
4 3403 3404 3605 3604
4 3404 3405 3606 3605
4 3405 3406 3607 3606
4 3406 3407 3608 3607
4 3407 3408 3609 3608
4 3408 3409 3610 3609
4 3409 3410 3611 3610
4 3410 3411 3612 3611
4 3411 3412 3613 3612
4 3412 3413 3614 3613
4 3413 3414 3615 3614
4 3414 3415 3616 3615
4 3415 3416 3617 3616
4 3417 3418 3619 3618
4 3418 3419 3620 3619
4 3419 3420 3621 3620
4 3420 3421 3622 3621
4 3421 3422 3623 3622
4 3422 3423 3624 3623
4 3423 3424 3625 3624
4 3424 3425 3626 3625
4 3425 3426 3627 3626
4 3426 3427 3628 3627
4 3427 3428 3629 3628
4 3428 3429 3630 3629
4 3429 3430 3631 3630
4 3430 3431 3632 3631
4 3431 3432 3633 3632
4 3432 3433 3634 3633
4 3433 3434 3635 3634
4 3434 3435 3636 3635
4 3435 3436 3637 3636
4 3436 3437 3638 3637
4 3437 3438 3639 3638
4 3438 3439 3640 3639
4 3439 3440 3641 3640
4 3440 3441 3642 3641
4 3441 3442 3643 3642
4 3442 3443 3644 3643
4 3443 3444 3645 3644
4 3444 3445 3646 3645
4 3445 3446 3647 3646
4 3446 3447 3648 3647
4 3447 3448 3649 3648
4 3448 3449 3650 3649
4 3449 3450 3651 3650
4 3450 3451 3652 3651
4 3451 3452 3653 3652
4 3452 3453 3654 3653
4 3453 3454 3655 3654
4 3454 3455 3656 3655
4 3455 3456 3657 3656
4 3456 3457 3658 3657
4 3457 3458 3659 3658
4 3458 3459 3660 3659
4 3459 3460 3661 3660
4 3460 3461 3662 3661
4 3461 3462 3663 3662
4 3462 3463 3664 3663
4 3463 3464 3665 3664
4 3464 3465 3666 3665
4 3465 3466 3667 3666
4 3466 3467 3668 3667
4 3467 3468 3669 3668
4 3468 3469 3670 3669
4 3469 3470 3671 3670
4 3470 3471 3672 3671
4 3471 3472 3673 3672
4 3472 3473 3674 3673
4 3473 3474 3675 3674
4 3474 3475 3676 3675
4 3475 3476 3677 3676
4 3476 3477 3678 3677
4 3477 3478 3679 3678
4 3478 3479 3680 3679
4 3479 3480 3681 3680
4 3480 3481 3682 3681
4 3481 3482 3683 3682
4 3482 3483 3684 3683
4 3483 3484 3685 3684
4 3484 3485 3686 3685
4 3485 3486 3687 3686
4 3486 3487 3688 3687
4 3487 3488 3689 3688
4 3488 3489 3690 3689
4 3489 3490 3691 3690
4 3490 3491 3692 3691
4 3491 3492 3693 3692
4 3492 3493 3694 3693
4 3493 3494 3695 3694
4 3494 3495 3696 3695
4 3495 3496 3697 3696
4 3496 3497 3698 3697
4 3497 3498 3699 3698
4 3498 3499 3700 3699
4 3499 3500 3701 3700
4 3500 3501 3702 3701
4 3501 3502 3703 3702
4 3502 3503 3704 3703
4 3503 3504 3705 3704
4 3504 3505 3706 3705
4 3505 3506 3707 3706
4 3506 3507 3708 3707
4 3507 3508 3709 3708
4 3508 3509 3710 3709
4 3509 3510 3711 3710
4 3510 3511 3712 3711
4 3511 3512 3713 3712
4 3512 3513 3714 3713
4 3513 3514 3715 3714
4 3514 3515 3716 3715
4 3515 3516 3717 3716
4 3516 3517 3718 3717
4 3517 3518 3719 3718
4 3518 3519 3720 3719
4 3519 3520 3721 3720
4 3520 3521 3722 3721
4 3521 3522 3723 3722
4 3522 3523 3724 3723
4 3523 3524 3725 3724
4 3524 3525 3726 3725
4 3525 3526 3727 3726
4 3526 3527 3728 3727
4 3527 3528 3729 3728
4 3528 3529 3730 3729
4 3529 3530 3731 3730
4 3530 3531 3732 3731
4 3531 3532 3733 3732
4 3532 3533 3734 3733
4 3533 3534 3735 3734
4 3534 3535 3736 3735
4 3535 3536 3737 3736
4 3536 3537 3738 3737
4 3537 3538 3739 3738
4 3538 3539 3740 3739
4 3539 3540 3741 3740
4 3540 3541 3742 3741
4 3541 3542 3743 3742
4 3542 3543 3744 3743
4 3543 3544 3745 3744
4 3544 3545 3746 3745
4 3545 3546 3747 3746
4 3546 3547 3748 3747
4 3547 3548 3749 3748
4 3548 3549 3750 3749
4 3549 3550 3751 3750
4 3550 3551 3752 3751
4 3551 3552 3753 3752
4 3552 3553 3754 3753
4 3553 3554 3755 3754
4 3554 3555 3756 3755
4 3555 3556 3757 3756
4 3556 3557 3758 3757
4 3557 3558 3759 3758
4 3558 3559 3760 3759
4 3559 3560 3761 3760
4 3560 3561 3762 3761
4 3561 3562 3763 3762
4 3562 3563 3764 3763
4 3563 3564 3765 3764
4 3564 3565 3766 3765
4 3565 3566 3767 3766
4 3566 3567 3768 3767
4 3567 3568 3769 3768
4 3568 3569 3770 3769
4 3569 3570 3771 3770
4 3570 3571 3772 3771
4 3571 3572 3773 3772
4 3572 3573 3774 3773
4 3573 3574 3775 3774
4 3574 3575 3776 3775
4 3575 3576 3777 3776
4 3576 3577 3778 3777
4 3577 3578 3779 3778
4 3578 3579 3780 3779
4 3579 3580 3781 3780
4 3580 3581 3782 3781
4 3581 3582 3783 3782
4 3582 3583 3784 3783
4 3583 3584 3785 3784
4 3584 3585 3786 3785
4 3585 3586 3787 3786
4 3586 3587 3788 3787
4 3587 3588 3789 3788
4 3588 3589 3790 3789
4 3589 3590 3791 3790
4 3590 3591 3792 3791
4 3591 3592 3793 3792
4 3592 3593 3794 3793
4 3593 3594 3795 3794
4 3594 3595 3796 3795
4 3595 3596 3797 3796
4 3596 3597 3798 3797
4 3597 3598 3799 3798
4 3598 3599 3800 3799
4 3599 3600 3801 3800
4 3600 3601 3802 3801
4 3601 3602 3803 3802
4 3602 3603 3804 3803
4 3603 3604 3805 3804
4 3604 3605 3806 3805
4 3605 3606 3807 3806
4 3606 3607 3808 3807
4 3607 3608 3809 3808
4 3608 3609 3810 3809
4 3609 3610 3811 3810
4 3610 3611 3812 3811
4 3611 3612 3813 3812
4 3612 3613 3814 3813
4 3613 3614 3815 3814
4 3614 3615 3816 3815
4 3615 3616 3817 3816
4 3616 3617 3818 3817
4 3618 3619 3820 3819
4 3619 3620 3821 3820
4 3620 3621 3822 3821
4 3621 3622 3823 3822
4 3622 3623 3824 3823
4 3623 3624 3825 3824
4 3624 3625 3826 3825
4 3625 3626 3827 3826
4 3626 3627 3828 3827
4 3627 3628 3829 3828
4 3628 3629 3830 3829
4 3629 3630 3831 3830
4 3630 3631 3832 3831
4 3631 3632 3833 3832
4 3632 3633 3834 3833
4 3633 3634 3835 3834
4 3634 3635 3836 3835
4 3635 3636 3837 3836
4 3636 3637 3838 3837
4 3637 3638 3839 3838
4 3638 3639 3840 3839
4 3639 3640 3841 3840
4 3640 3641 3842 3841
4 3641 3642 3843 3842
4 3642 3643 3844 3843
4 3643 3644 3845 3844
4 3644 3645 3846 3845
4 3645 3646 3847 3846
4 3646 3647 3848 3847
4 3647 3648 3849 3848
4 3648 3649 3850 3849
4 3649 3650 3851 3850
4 3650 3651 3852 3851
4 3651 3652 3853 3852
4 3652 3653 3854 3853
4 3653 3654 3855 3854
4 3654 3655 3856 3855
4 3655 3656 3857 3856
4 3656 3657 3858 3857
4 3657 3658 3859 3858
4 3658 3659 3860 3859
4 3659 3660 3861 3860
4 3660 3661 3862 3861
4 3661 3662 3863 3862
4 3662 3663 3864 3863
4 3663 3664 3865 3864
4 3664 3665 3866 3865
4 3665 3666 3867 3866
4 3666 3667 3868 3867
4 3667 3668 3869 3868
4 3668 3669 3870 3869
4 3669 3670 3871 3870
4 3670 3671 3872 3871
4 3671 3672 3873 3872
4 3672 3673 3874 3873
4 3673 3674 3875 3874
4 3674 3675 3876 3875
4 3675 3676 3877 3876
4 3676 3677 3878 3877
4 3677 3678 3879 3878
4 3678 3679 3880 3879
4 3679 3680 3881 3880
4 3680 3681 3882 3881
4 3681 3682 3883 3882
4 3682 3683 3884 3883
4 3683 3684 3885 3884
4 3684 3685 3886 3885
4 3685 3686 3887 3886
4 3686 3687 3888 3887
4 3687 3688 3889 3888
4 3688 3689 3890 3889
4 3689 3690 3891 3890
4 3690 3691 3892 3891
4 3691 3692 3893 3892
4 3692 3693 3894 3893
4 3693 3694 3895 3894
4 3694 3695 3896 3895
4 3695 3696 3897 3896
4 3696 3697 3898 3897
4 3697 3698 3899 3898
4 3698 3699 3900 3899
4 3699 3700 3901 3900
4 3700 3701 3902 3901
4 3701 3702 3903 3902
4 3702 3703 3904 3903
4 3703 3704 3905 3904
4 3704 3705 3906 3905
4 3705 3706 3907 3906
4 3706 3707 3908 3907
4 3707 3708 3909 3908
4 3708 3709 3910 3909
4 3709 3710 3911 3910
4 3710 3711 3912 3911
4 3711 3712 3913 3912
4 3712 3713 3914 3913
4 3713 3714 3915 3914
4 3714 3715 3916 3915
4 3715 3716 3917 3916
4 3716 3717 3918 3917
4 3717 3718 3919 3918
4 3718 3719 3920 3919
4 3719 3720 3921 3920
4 3720 3721 3922 3921
4 3721 3722 3923 3922
4 3722 3723 3924 3923
4 3723 3724 3925 3924
4 3724 3725 3926 3925
4 3725 3726 3927 3926
4 3726 3727 3928 3927
4 3727 3728 3929 3928
4 3728 3729 3930 3929
4 3729 3730 3931 3930
4 3730 3731 3932 3931
4 3731 3732 3933 3932
4 3732 3733 3934 3933
4 3733 3734 3935 3934
4 3734 3735 3936 3935
4 3735 3736 3937 3936
4 3736 3737 3938 3937
4 3737 3738 3939 3938
4 3738 3739 3940 3939
4 3739 3740 3941 3940
4 3740 3741 3942 3941
4 3741 3742 3943 3942
4 3742 3743 3944 3943
4 3743 3744 3945 3944
4 3744 3745 3946 3945
4 3745 3746 3947 3946
4 3746 3747 3948 3947
4 3747 3748 3949 3948
4 3748 3749 3950 3949
4 3749 3750 3951 3950
4 3750 3751 3952 3951
4 3751 3752 3953 3952
4 3752 3753 3954 3953
4 3753 3754 3955 3954
4 3754 3755 3956 3955
4 3755 3756 3957 3956
4 3756 3757 3958 3957
4 3757 3758 3959 3958
4 3758 3759 3960 3959
4 3759 3760 3961 3960
4 3760 3761 3962 3961
4 3761 3762 3963 3962
4 3762 3763 3964 3963
4 3763 3764 3965 3964
4 3764 3765 3966 3965
4 3765 3766 3967 3966
4 3766 3767 3968 3967
4 3767 3768 3969 3968
4 3768 3769 3970 3969
4 3769 3770 3971 3970
4 3770 3771 3972 3971
4 3771 3772 3973 3972
4 3772 3773 3974 3973
4 3773 3774 3975 3974
4 3774 3775 3976 3975
4 3775 3776 3977 3976
4 3776 3777 3978 3977
4 3777 3778 3979 3978
4 3778 3779 3980 3979
4 3779 3780 3981 3980
4 3780 3781 3982 3981
4 3781 3782 3983 3982
4 3782 3783 3984 3983
4 3783 3784 3985 3984
4 3784 3785 3986 3985
4 3785 3786 3987 3986
4 3786 3787 3988 3987
4 3787 3788 3989 3988
4 3788 3789 3990 3989
4 3789 3790 3991 3990
4 3790 3791 3992 3991
4 3791 3792 3993 3992
4 3792 3793 3994 3993
4 3793 3794 3995 3994
4 3794 3795 3996 3995
4 3795 3796 3997 3996
4 3796 3797 3998 3997
4 3797 3798 3999 3998
4 3798 3799 4000 3999
4 3799 3800 4001 4000
4 3800 3801 4002 4001
4 3801 3802 4003 4002
4 3802 3803 4004 4003
4 3803 3804 4005 4004
4 3804 3805 4006 4005
4 3805 3806 4007 4006
4 3806 3807 4008 4007
4 3807 3808 4009 4008
4 3808 3809 4010 4009
4 3809 3810 4011 4010
4 3810 3811 4012 4011
4 3811 3812 4013 4012
4 3812 3813 4014 4013
4 3813 3814 4015 4014
4 3814 3815 4016 4015
4 3815 3816 4017 4016
4 3816 3817 4018 4017
4 3817 3818 4019 4018
4 3819 3820 4021 4020
4 3820 3821 4022 4021
4 3821 3822 4023 4022
4 3822 3823 4024 4023
4 3823 3824 4025 4024
4 3824 3825 4026 4025
4 3825 3826 4027 4026
4 3826 3827 4028 4027
4 3827 3828 4029 4028
4 3828 3829 4030 4029
4 3829 3830 4031 4030
4 3830 3831 4032 4031
4 3831 3832 4033 4032
4 3832 3833 4034 4033
4 3833 3834 4035 4034
4 3834 3835 4036 4035
4 3835 3836 4037 4036
4 3836 3837 4038 4037
4 3837 3838 4039 4038
4 3838 3839 4040 4039
4 3839 3840 4041 4040
4 3840 3841 4042 4041
4 3841 3842 4043 4042
4 3842 3843 4044 4043
4 3843 3844 4045 4044
4 3844 3845 4046 4045
4 3845 3846 4047 4046
4 3846 3847 4048 4047
4 3847 3848 4049 4048
4 3848 3849 4050 4049
4 3849 3850 4051 4050
4 3850 3851 4052 4051
4 3851 3852 4053 4052
4 3852 3853 4054 4053
4 3853 3854 4055 4054
4 3854 3855 4056 4055
4 3855 3856 4057 4056
4 3856 3857 4058 4057
4 3857 3858 4059 4058
4 3858 3859 4060 4059
4 3859 3860 4061 4060
4 3860 3861 4062 4061
4 3861 3862 4063 4062
4 3862 3863 4064 4063
4 3863 3864 4065 4064
4 3864 3865 4066 4065
4 3865 3866 4067 4066
4 3866 3867 4068 4067
4 3867 3868 4069 4068
4 3868 3869 4070 4069
4 3869 3870 4071 4070
4 3870 3871 4072 4071
4 3871 3872 4073 4072
4 3872 3873 4074 4073
4 3873 3874 4075 4074
4 3874 3875 4076 4075
4 3875 3876 4077 4076
4 3876 3877 4078 4077
4 3877 3878 4079 4078
4 3878 3879 4080 4079
4 3879 3880 4081 4080
4 3880 3881 4082 4081
4 3881 3882 4083 4082
4 3882 3883 4084 4083
4 3883 3884 4085 4084
4 3884 3885 4086 4085
4 3885 3886 4087 4086
4 3886 3887 4088 4087
4 3887 3888 4089 4088
4 3888 3889 4090 4089
4 3889 3890 4091 4090
4 3890 3891 4092 4091
4 3891 3892 4093 4092
4 3892 3893 4094 4093
4 3893 3894 4095 4094
4 3894 3895 4096 4095
4 3895 3896 4097 4096
4 3896 3897 4098 4097
4 3897 3898 4099 4098
4 3898 3899 4100 4099
4 3899 3900 4101 4100
4 3900 3901 4102 4101
4 3901 3902 4103 4102
4 3902 3903 4104 4103
4 3903 3904 4105 4104
4 3904 3905 4106 4105
4 3905 3906 4107 4106
4 3906 3907 4108 4107
4 3907 3908 4109 4108
4 3908 3909 4110 4109
4 3909 3910 4111 4110
4 3910 3911 4112 4111
4 3911 3912 4113 4112
4 3912 3913 4114 4113
4 3913 3914 4115 4114
4 3914 3915 4116 4115
4 3915 3916 4117 4116
4 3916 3917 4118 4117
4 3917 3918 4119 4118
4 3918 3919 4120 4119
4 3919 3920 4121 4120
4 3920 3921 4122 4121
4 3921 3922 4123 4122
4 3922 3923 4124 4123
4 3923 3924 4125 4124
4 3924 3925 4126 4125
4 3925 3926 4127 4126
4 3926 3927 4128 4127
4 3927 3928 4129 4128
4 3928 3929 4130 4129
4 3929 3930 4131 4130
4 3930 3931 4132 4131
4 3931 3932 4133 4132
4 3932 3933 4134 4133
4 3933 3934 4135 4134
4 3934 3935 4136 4135
4 3935 3936 4137 4136
4 3936 3937 4138 4137
4 3937 3938 4139 4138
4 3938 3939 4140 4139
4 3939 3940 4141 4140
4 3940 3941 4142 4141
4 3941 3942 4143 4142
4 3942 3943 4144 4143
4 3943 3944 4145 4144
4 3944 3945 4146 4145
4 3945 3946 4147 4146
4 3946 3947 4148 4147
4 3947 3948 4149 4148
4 3948 3949 4150 4149
4 3949 3950 4151 4150
4 3950 3951 4152 4151
4 3951 3952 4153 4152
4 3952 3953 4154 4153
4 3953 3954 4155 4154
4 3954 3955 4156 4155
4 3955 3956 4157 4156
4 3956 3957 4158 4157
4 3957 3958 4159 4158
4 3958 3959 4160 4159
4 3959 3960 4161 4160
4 3960 3961 4162 4161
4 3961 3962 4163 4162
4 3962 3963 4164 4163
4 3963 3964 4165 4164
4 3964 3965 4166 4165
4 3965 3966 4167 4166
4 3966 3967 4168 4167
4 3967 3968 4169 4168
4 3968 3969 4170 4169
4 3969 3970 4171 4170
4 3970 3971 4172 4171
4 3971 3972 4173 4172
4 3972 3973 4174 4173
4 3973 3974 4175 4174
4 3974 3975 4176 4175
4 3975 3976 4177 4176
4 3976 3977 4178 4177
4 3977 3978 4179 4178
4 3978 3979 4180 4179
4 3979 3980 4181 4180
4 3980 3981 4182 4181
4 3981 3982 4183 4182
4 3982 3983 4184 4183
4 3983 3984 4185 4184
4 3984 3985 4186 4185
4 3985 3986 4187 4186
4 3986 3987 4188 4187
4 3987 3988 4189 4188
4 3988 3989 4190 4189
4 3989 3990 4191 4190
4 3990 3991 4192 4191
4 3991 3992 4193 4192
4 3992 3993 4194 4193
4 3993 3994 4195 4194
4 3994 3995 4196 4195
4 3995 3996 4197 4196
4 3996 3997 4198 4197
4 3997 3998 4199 4198
4 3998 3999 4200 4199
4 3999 4000 4201 4200
4 4000 4001 4202 4201
4 4001 4002 4203 4202
4 4002 4003 4204 4203
4 4003 4004 4205 4204
4 4004 4005 4206 4205
4 4005 4006 4207 4206
4 4006 4007 4208 4207
4 4007 4008 4209 4208
4 4008 4009 4210 4209
4 4009 4010 4211 4210
4 4010 4011 4212 4211
4 4011 4012 4213 4212
4 4012 4013 4214 4213
4 4013 4014 4215 4214
4 4014 4015 4216 4215
4 4015 4016 4217 4216
4 4016 4017 4218 4217
4 4017 4018 4219 4218
4 4018 4019 4220 4219
CELL_TYPES 4000
9
9
9
9
9
9
9
9
9
9
9
9
9
9
9
9
9
9
9
9
9
9
9
9
9
9
9
9
9
9
9
9
9
9
9
9
9
9
9
9
9
9
9
9
9
9
9
9
9
9
9
9
9
9
9
9
9
9
9
9
9
9
9
9
9
9
9
9
9
9
9
9
9
9
9
9
9
9
9
9
9
9
9
9
9
9
9
9
9
9
9
9
9
9
9
9
9
9
9
9
9
9
9
9
9
9
9
9
9
9
9
9
9
9
9
9
9
9
9
9
9
9
9
9
9
9
9
9
9
9
9
9
9
9
9
9
9
9
9
9
9
9
9
9
9
9
9
9
9
9
9
9
9
9
9
9
9
9
9
9
9
9
9
9
9
9
9
9
9
9
9
9
9
9
9
9
9
9
9
9
9
9
9
9
9
9
9
9
9
9
9
9
9
9
9
9
9
9
9
9
9
9
9
9
9
9
9
9
9
9
9
9
9
9
9
9
9
9
9
9
9
9
9
9
9
9
9
9
9
9
9
9
9
9
9
9
9
9
9
9
9
9
9
9
9
9
9
9
9
9
9
9
9
9
9
9
9
9
9
9
9
9
9
9
9
9
9
9
9
9
9
9
9
9
9
9
9
9
9
9
9
9
9
9
9
9
9
9
9
9
9
9
9
9
9
9
9
9
9
9
9
9
9
9
9
9
9
9
9
9
9
9
9
9
9
9
9
9
9
9
9
9
9
9
9
9
9
9
9
9
9
9
9
9
9
9
9
9
9
9
9
9
9
9
9
9
9
9
9
9
9
9
9
9
9
9
9
9
9
9
9
9
9
9
9
9
9
9
9
9
9
9
9
9
9
9
9
9
9
9
9
9
9
9
9
9
9
9
9
9
9
9
9
9
9
9
9
9
9
9
9
9
9
9
9
9
9
9
9
9
9
9
9
9
9
9
9
9
9
9
9
9
9
9
9
9
9
9
9
9
9
9
9
9
9
9
9
9
9
9
9
9
9
9
9
9
9
9
9
9
9
9
9
9
9
9
9
9
9
9
9
9
9
9
9
9
9
9
9
9
9
9
9
9
9
9
9
9
9
9
9
9
9
9
9
9
9
9
9
9
9
9
9
9
9
9
9
9
9
9
9
9
9
9
9
9
9
9
9
9
9
9
9
9
9
9
9
9
9
9
9
9
9
9
9
9
9
9
9
9
9
9
9
9
9
9
9
9
9
9
9
9
9
9
9
9
9
9
9
9
9
9
9
9
9
9
9
9
9
9
9
9
9
9
9
9
9
9
9
9
9
9
9
9
9
9
9
9
9
9
9
9
9
9
9
9
9
9
9
9
9
9
9
9
9
9
9
9
9
9
9
9
9
9
9
9
9
9
9
9
9
9
9
9
9
9
9
9
9
9
9
9
9
9
9
9
9
9
9
9
9
9
9
9
9
9
9
9
9
9
9
9
9
9
9
9
9
9
9
9
9
9
9
9
9
9
9
9
9
9
9
9
9
9
9
9
9
9
9
9
9
9
9
9
9
9
9
9
9
9
9
9
9
9
9
9
9
9
9
9
9
9
9
9
9
9
9
9
9
9
9
9
9
9
9
9
9
9
9
9
9
9
9
9
9
9
9
9
9
9
9
9
9
9
9
9
9
9
9
9
9
9
9
9
9
9
9
9
9
9
9
9
9
9
9
9
9
9
9
9
9
9
9
9
9
9
9
9
9
9
9
9
9
9
9
9
9
9
9
9
9
9
9
9
9
9
9
9
9
9
9
9
9
9
9
9
9
9
9
9
9
9
9
9
9
9
9
9
9
9
9
9
9
9
9
9
9
9
9
9
9
9
9
9
9
9
9
9
9
9
9
9
9
9
9
9
9
9
9
9
9
9
9
9
9
9
9
9
9
9
9
9
9
9
9
9
9
9
9
9
9
9
9
9
9
9
9
9
9
9
9
9
9
9
9
9
9
9
9
9
9
9
9
9
9
9
9
9
9
9
9
9
9
9
9
9
9
9
9
9
9
9
9
9
9
9
9
9
9
9
9
9
9
9
9
9
9
9
9
9
9
9
9
9
9
9
9
9
9
9
9
9
9
9
9
9
9
9
9
9
9
9
9
9
9
9
9
9
9
9
9
9
9
9
9
9
9
9
9
9
9
9
9
9
9
9
9
9
9
9
9
9
9
9
9
9
9
9
9
9
9
9
9
9
9
9
9
9
9
9
9
9
9
9
9
9
9
9
9
9
9
9
9
9
9
9
9
9
9
9
9
9
9
9
9
9
9
9
9
9
9
9
9
9
9
9
9
9
9
9
9
9
9
9
9
9
9
9
9
9
9
9
9
9
9
9
9
9
9
9
9
9
9
9
9
9
9
9
9
9
9
9
9
9
9
9
9
9
9
9
9
9
9
9
9
9
9
9
9
9
9
9
9
9
9
9
9
9
9
9
9
9
9
9
9
9
9
9
9
9
9
9
9
9
9
9
9
9
9
9
9
9
9
9
9
9
9
9
9
9
9
9
9
9
9
9
9
9
9
9
9
9
9
9
9
9
9
9
9
9
9
9
9
9
9
9
9
9
9
9
9
9
9
9
9
9
9
9
9
9
9
9
9
9
9
9
9
9
9
9
9
9
9
9
9
9
9
9
9
9
9
9
9
9
9
9
9
9
9
9
9
9
9
9
9
9
9
9
9
9
9
9
9
9
9
9
9
9
9
9
9
9
9
9
9
9
9
9
9
9
9
9
9
9
9
9
9
9
9
9
9
9
9
9
9
9
9
9
9
9
9
9
9
9
9
9
9
9
9
9
9
9
9
9
9
9
9
9
9
9
9
9
9
9
9
9
9
9
9
9
9
9
9
9
9
9
9
9
9
9
9
9
9
9
9
9
9
9
9
9
9
9
9
9
9
9
9
9
9
9
9
9
9
9
9
9
9
9
9
9
9
9
9
9
9
9
9
9
9
9
9
9
9
9
9
9
9
9
9
9
9
9
9
9
9
9
9
9
9
9
9
9
9
9
9
9
9
9
9
9
9
9
9
9
9
9
9
9
9
9
9
9
9
9
9
9
9
9
9
9
9
9
9
9
9
9
9
9
9
9
9
9
9
9
9
9
9
9
9
9
9
9
9
9
9
9
9
9
9
9
9
9
9
9
9
9
9
9
9
9
9
9
9
9
9
9
9
9
9
9
9
9
9
9
9
9
9
9
9
9
9
9
9
9
9
9
9
9
9
9
9
9
9
9
9
9
9
9
9
9
9
9
9
9
9
9
9
9
9
9
9
9
9
9
9
9
9
9
9
9
9
9
9
9
9
9
9
9
9
9
9
9
9
9
9
9
9
9
9
9
9
9
9
9
9
9
9
9
9
9
9
9
9
9
9
9
9
9
9
9
9
9
9
9
9
9
9
9
9
9
9
9
9
9
9
9
9
9
9
9
9
9
9
9
9
9
9
9
9
9
9
9
9
9
9
9
9
9
9
9
9
9
9
9
9
9
9
9
9
9
9
9
9
9
9
9
9
9
9
9
9
9
9
9
9
9
9
9
9
9
9
9
9
9
9
9
9
9
9
9
9
9
9
9
9
9
9
9
9
9
9
9
9
9
9
9
9
9
9
9
9
9
9
9
9
9
9
9
9
9
9
9
9
9
9
9
9
9
9
9
9
9
9
9
9
9
9
9
9
9
9
9
9
9
9
9
9
9
9
9
9
9
9
9
9
9
9
9
9
9
9
9
9
9
9
9
9
9
9
9
9
9
9
9
9
9
9
9
9
9
9
9
9
9
9
9
9
9
9
9
9
9
9
9
9
9
9
9
9
9
9
9
9
9
9
9
9
9
9
9
9
9
9
9
9
9
9
9
9
9
9
9
9
9
9
9
9
9
9
9
9
9
9
9
9
9
9
9
9
9
9
9
9
9
9
9
9
9
9
9
9
9
9
9
9
9
9
9
9
9
9
9
9
9
9
9
9
9
9
9
9
9
9
9
9
9
9
9
9
9
9
9
9
9
9
9
9
9
9
9
9
9
9
9
9
9
9
9
9
9
9
9
9
9
9
9
9
9
9
9
9
9
9
9
9
9
9
9
9
9
9
9
9
9
9
9
9
9
9
9
9
9
9
9
9
9
9
9
9
9
9
9
9
9
9
9
9
9
9
9
9
9
9
9
9
9
9
9
9
9
9
9
9
9
9
9
9
9
9
9
9
9
9
9
9
9
9
9
9
9
9
9
9
9
9
9
9
9
9
9
9
9
9
9
9
9
9
9
9
9
9
9
9
9
9
9
9
9
9
9
9
9
9
9
9
9
9
9
9
9
9
9
9
9
9
9
9
9
9
9
9
9
9
9
9
9
9
9
9
9
9
9
9
9
9
9
9
9
9
9
9
9
9
9
9
9
9
9
9
9
9
9
9
9
9
9
9
9
9
9
9
9
9
9
9
9
9
9
9
9
9
9
9
9
9
9
9
9
9
9
9
9
9
9
9
9
9
9
9
9
9
9
9
9
9
9
9
9
9
9
9
9
9
9
9
9
9
9
9
9
9
9
9
9
9
9
9
9
9
9
9
9
9
9
9
9
9
9
9
9
9
9
9
9
9
9
9
9
9
9
9
9
9
9
9
9
9
9
9
9
9
9
9
9
9
9
9
9
9
9
9
9
9
9
9
9
9
9
9
9
9
9
9
9
9
9
9
9
9
9
9
9
9
9
9
9
9
9
9
9
9
9
9
9
9
9
9
9
9
9
9
9
9
9
9
9
9
9
9
9
9
9
9
9
9
9
9
9
9
9
9
9
9
9
9
9
9
9
9
9
9
9
9
9
9
9
9
9
9
9
9
9
9
9
9
9
9
9
9
9
9
9
9
9
9
9
9
9
9
9
9
9
9
9
9
9
9
9
9
9
9
9
9
9
9
9
9
9
9
9
9
9
9
9
9
9
9
9
9
9
9
9
9
9
9
9
9
9
9
9
9
9
9
9
9
9
9
9
9
9
9
9
9
9
9
9
9
9
9
9
9
9
9
9
9
9
9
9
9
9
9
9
9
9
9
9
9
9
9
9
9
9
9
9
9
9
9
9
9
9
9
9
9
9
9
9
9
9
9
9
9
9
9
9
9
9
9
9
9
9
9
9
9
9
9
9
9
9
9
9
9
9
9
9
9
9
9
9
9
9
9
9
9
9
9
9
9
9
9
9
9
9
9
9
9
9
9
9
9
9
9
9
9
9
9
9
9
9
9
9
9
9
9
9
9
9
9
9
9
9
9
9
9
9
9
9
9
9
9
9
9
9
9
9
9
9
9
9
9
9
9
9
9
9
9
9
9
9
9
9
9
9
9
9
9
9
9
9
9
9
9
9
9
9
9
9
9
9
9
9
9
9
9
9
9
9
9
9
9
9
9
9
9
9
9
9
9
9
9
9
9
9
9
9
9
9
9
9
9
9
9
9
9
9
9
9
9
9
9
9
9
9
9
9
9
9
9
9
9
9
9
9
9
9
9
9
9
9
9
9
9
9
9
9
9
9
9
9
9
9
9
9
9
9
9
9
9
9
9
9
9
9
9
9
9
9
9
9
9
9
9
9
9
9
9
9
9
9
9
9
9
9
9
9
9
9
9
9
9
9
9
9
9
9
9
9
9
9
9
9
9
9
9
9
9
9
9
9
9
9
9
9
9
9
9
9
9
9
9
9
9
9
9
9
9
9
9
9
9
9
9
9
9
9
9
9
9
9
9
9
9
9
9
9
9
9
9
9
9
9
9
9
9
9
9
9
9
9
9
9
9
9
9
9
9
9
9
9
9
9
9
9
9
9
9
9
9
9
9
9
9
9
9
9
9
9
9
9
9
9
9
9
9
9
9
9
9
9
9
9
9
9
9
9
9
9
9
9
9
9
9
9
9
9
9
9
9
9
9
9
9
9
9
9
9
9
9
9
9
9
9
9
9
9
9
9
9
9
9
9
9
9
9
9
9
9
9
9
9
9
9
9
9
9
9
9
9
9
9
9
9
9
9
9
9
9
9
9
9
9
9
9
9
9
9
9
9
9
9
9
9
9
9
9
9
9
9
9
9
9
9
9
9
9
9
9
9
9
9
9
9
9
9
9
9
9
9
9
9
9
9
9
9
9
9
9
9
9
9
9
9
9
9
9
9
9
9
9
9
9
9
9
9
9
9
9
9
9
9
9
9
9
9
9
9
9
9
9
9
9
9
9
9
9
9
9
9
9
9
9
9
9
9
9
9
9
9
9
9
9
9
9
9
9
9
9
9
9
9
9
9
9
9
9
9
9
9
9
9
9
9
9
9
9
9
9
9
9
9
9
9
9
9
9
9
9
9
9
9
9
9
9
9
9
9
9
9
9
9
9
9
9
9
9
9
9
9
9
9
9
9
9
9
9
9
9
9
9
9
9
9
9
9
9
9
9
9
9
9
9
9
9
9
9
9
9
9
9
9
9
9
9
9
9
9
9
9
9
9
9
9
9
9
9
9
9
9
9
9
9
9
9
9
9
9
9
9
9
9
9
9
9
9
9
9
9
9
9
9
9
9
9
9
9
9
9
9
9
9
9
9
9
9
9
9
9
9
9
9
9
9
9
9
9
9
9
9
9
9
9
9
9
9
9
9
9
9
9
9
9
9
9
9
9
9
9
9
9
9
9
9
9
9
9
9
9
9
9
9
9
9
9
9
9
9
9
9
9
9
9
9
9
9
9
9
9
9
9
9
9
9
9
9
9
9
9
9
9
9
9
9
9
9
9
9
9
9
9
9
9
9
9
9
9
9
9
9
9
9
9
9
9
9
9
9
9
9
9
9
9
9
9
9
9
9
9
9
9
9
9
9
9
9
9
9
9
9
9
9
9
9
9
9
9
9
9
9
9
9
9
9
9
9
9
9
9
9
9
9
9
9
9
9
9
9
9
9
9
9
9
9
9
9
9
9
9
9
9
9
9
9
9
9
9
9
9
9
9
9
9
9
9
9
9
9
9
9
9
9
9
9
9
9
9
9
9
9
9
9
9
9
9
9
9
9
9
9
9
9
9
9
9
9
9
9
9
9
9
9
9
9
9
9
9
9
9
9
9
9
9
9
9
9
9
9
9
9
9
9
9
9
9
9
9
9
9
9
9
9
9
9
9
9
9
9
9
9
9
9
9
9
9
9
9
9
9
9
9
9
9
9
9
9
9
9
9
9
9
9
9
9
9
9
9
9
9
9
9
9
9
9
9
9
9
9
9
9
9
9
9
9
9
9
9
9
9
9
9
9
9
9
9
9
9
9
9
9
9
9
9
9
9
9
9
9
9
9
9
9
9
9
9
9
9
9
9
9
9
9
9
9
9
9
9
9
9
9
9
9
9
9
9
9
9
9
9
9
9
9
9
9
9
9
9
9
9
9
9
9
9
9
9
9
9
9
9
9
9
9
9
9
9
9
9
9
9
9
9
9
9
9
9
9
9
9
9
9
9
9
9
9
9
9
9
9
9
9
9
9
9
9
9
9
9
9
9
9
9
9
9
9
9
9
9
9
9
9
9
9
9
9
9
9
9
9
9
9
9
9
9
9
9
9
9
9
9
9
9
9
9
9
9
9
9
9
9
9
9
9
9
9
9
9
9
9
9
9
9
9
9
9
9
9
9
9
9
9
9
9
9
9
9
9
9
9
9
9
9
9
9
9
9
9
9
9
9
9
9
9
9
9
9
9
9
9
9
9
9
9
9
9
9
9
9
9
9
9
9
9
9
9
9
9
9
9
9
9
9
9
9
9
9
9
9
9
9
9
9
9
9
9
9
9
9
9
9
9
9
9
9
9
9
9
9
9
9
9
9
9
9
9
9
9
9
9
9
9
9
9
9
9
9
9
9
9
9
9
9
9
9
9
9
9
9
9
9
9
9
9
9
9
9
9
9
9
9
9
9
9
9
9
9
9
9
9
9
9
9
9
9
9
9
9
9
9
9
9
9
9
9
9
9
9
9
9
9
9
9
9
9
9
9
9
9
9
9
9
9
9
9
9
9
9
9
9
9
9
9
9
9
9
9
9
9
9
9
9
9
9
9
9
9
9
9
9
9
9
9
9
9
9
9
9
9
9
9
9
9
9
9
9
9
9
9
9
9
9
9
9
9
9
9
9
9
9
9
9
9
9
9
9
9
9
9
9
9
9
9
9
9
9
9
9
9
9
9
9
9
9
9
9
9
9
9
9
9
9
9
9
9
9
9
9
9
9
9
9
9
9
9
9
9
9
9
9
9
9
9
9
9
9
9
9
9
9
9
9
9
9
9
9
9
9
9
9
9
9
9
9
9
9
9
9
9
9
9
9
9
9
9
9
9
9
9
9
9
9
9
9
9
9
9
9
9
9
9
9
9
9
9
9
9
9
9
9
9
9
9
9
9
9
9
9
9
9
9
9
9
9
9
9
9
9
9
9
9
9
9
9
9
9
9
9
9
9
9
9
9
9
9
9
9
9
9
9
9
9
9
9
9
9
9
9
9
9
9
9
9
9
9
9
9
9
9
9
9
9
9
9
9
9
9
9
9
9
9
9
9
9
9
9
9
9
9
9
9
9
9
9
9
9
9
9
9
9
9
9
9
9
9
9
9
9
9
9
9
9
9
9
9
9
9
9
9
9
9
9
9
9
9
9
9
9
9
9
9
9
9
9
9
9
9
9
9
9
9
9
9
9
9
9
9
9
9
9
9
9
9
9
9
9
9
9
9
9
9
9
9
9
9
9
9
9
9
9
9
9
9
9
9
9
9
9
9
9
9
9
9
9
9
9
9
9
9
9
9
9
9
9
9
9
9
9
9
9
9
9
9
9
9
9
9
9
9
9
9
9
9
9
9
9
9
9
9
9
9
9
9
9
9
9
9
9
9
9
9
9
9
9
9
9
9
9
9
9
9
9
9
9
9
9
9
9
9
9
9
9
9
9
9
9
9
9
9
9
9
9
9
9
9
9
9
9
9
9
9
9
9
9
9
9
9
9
9
9
9
9
9
9
9
9
9
9
9
9
9
9
9
9
9
POINT_DATA 4221
VECTORS Disp float
0.0 0.0 0.0
0.0 0.0 0.0004679747043926747
0.0 0.0 -5.035851689510229e-05
0.0 0.0 -0.0014543448007017536
0.0 0.0 -0.004385050522984069
0.0 0.0 -0.00819414811838554
0.0 0.0 -0.013870960756052854
0.0 0.0 -0.02030760830640032
0.0 0.0 -0.02888039140060855
0.0 0.0 -0.038045260978484714
0.0 0.0 -0.049580090471587034
0.0 0.0 -0.061514241467165866
0.0 0.0 -0.0760336672424781
0.0 0.0 -0.09074571675286236
0.0 0.0 -0.10824773083672441
0.0 0.0 -0.12572749380702047
0.0 0.0 -0.14619557982375367
0.0 0.0 -0.16642162212961217
0.0 0.0 -0.1898305240616075
0.0 0.0 -0.21277462576332704
0.0 0.0 -0.23909383651094182
0.0 0.0 -0.2647237401931575
0.0 0.0 -0.2939196795131831
0.0 0.0 -0.32220082329544214
0.0 0.0 -0.35423822019647244
0.0 0.0 -0.38513484151573224
0.0 0.0 -0.4199776151391764
0.0 0.0 -0.4534534523498957
0.0 0.0 -0.4910652687897809
0.0 0.0 -0.5270840007289552
0.0 0.0 -0.5674286174623775
0.0 0.0 -0.6059541306288585
0.0 0.0 -0.648995600972368
0.0 0.0 -0.6899921431077228
0.0 0.0 -0.735694928611574
0.0 0.0 -0.7791271878474056
0.0 0.0 -0.8274562107103196
0.0 0.0 -0.8732893465983856
0.0 0.0 -0.924210003702979
0.0 0.0 -0.9724096478570391
0.0 0.0 -1.025887800968315
0.0 0.0 -1.0764200392317653
0.0 0.0 -1.132421991101828
0.0 0.0 -1.1852533351897596
0.0 0.0 -1.2437457980334863
0.0 0.0 -1.2988431518870884
0.0 0.0 -1.3597932124530587
0.0 0.0 -1.417123836693967
0.0 0.0 -1.4804989206285326
0.0 0.0 -1.5400303972434854
0.0 0.0 -1.6057982344123638
0.0 0.0 -1.667498432950905
0.0 0.0 -1.7356270246893883
0.0 0.0 -1.799464070692172
0.0 0.0 -1.8699216594961159
0.0 0.0 -1.9358639055003217
0.0 0.0 -2.0086189473716614
0.0 0.0 -2.076634946601668
0.0 0.0 -2.151656086073213
0.0 0.0 -2.221714568776182
0.0 0.0 -2.2989706165252746
0.0 0.0 -2.3710404688232742
0.0 0.0 -2.4505003817179065
0.0 0.0 -2.5245506268002176
0.0 0.0 -2.606183490187704
0.0 0.0 -2.6821832716450014
0.0 0.0 -2.7659582836805954
0.0 0.0 -2.8438768507773546
0.0 0.0 -2.929763308590667
0.0 0.0 -3.0095700032770196
0.0 0.0 -3.0975372907822543
0.0 0.0 -3.179201536257262
0.0 0.0 -3.2692191134259754
0.0 0.0 -3.352710404078225
0.0 0.0 -3.4447477975080028
0.0 0.0 -3.5300356900745498
0.0 0.0 -3.6240624847023724
0.0 0.0 -3.711116590502542
0.0 0.0 -3.807102422326843
0.0 0.0 -3.895892400442117
0.0 0.0 -3.9938069501318383
0.0 0.0 -4.084302501417103
0.0 0.0 -4.184115488699617
0.0 0.0 -4.276286350523768
0.0 0.0 -4.377967529255624
0.0 0.0 -4.471783470881207
0.0 0.0 -4.575302624716756
0.0 0.0 -4.670733443238798
0.0 0.0 -4.776060381821591
0.0 0.0 -4.873075898595076
0.0 0.0 -4.980180454205801
0.0 0.0 -5.078750511699411
0.0 0.0 -5.187602536301771
0.0 0.0 -5.2876969953230075
0.0 0.0 -5.398266357955894
0.0 0.0 -5.499855095198858
0.0 0.0 -5.6121116796690265
0.0 0.0 -5.715164585541832
0.0 0.0 -5.829078288376566
0.0 0.0 -5.933565265070337
0.0 0.0 -6.049105993694161
0.0 0.0 -6.154996953459436
0.0 0.0 -6.272134624562752
0.0 0.0 -6.379399488163164
0.0 0.0 -6.4981040262341425
0.0 0.0 -6.6067127215500365
0.0 0.0 -6.7269540575438365
0.0 0.0 -6.836876518301301
0.0 0.0 -6.95862458842328
0.0 0.0 -7.069830753026121
0.0 0.0 -7.193055497607495
0.0 0.0 -7.305515308051677
0.0 0.0 -7.430186670497878
0.0 0.0 -7.543870071349201
0.0 0.0 -7.669957997142382
0.0 0.0 -7.7848349345593855
0.0 0.0 -7.9123093702974385
0.0 0.0 -8.028349791082318
0.0 0.0 -8.157180683537494
0.0 0.0 -8.274354534198254
0.0 0.0 -8.404511829378746
0.0 0.0 -8.522789055186024
0.0 0.0 -8.654242697383898
0.0 0.0 -8.773593241405791
0.0 0.0 -8.906313172214432
0.0 0.0 -9.02670697431226
0.0 0.0 -9.160663131595893
0.0 0.0 -9.282070127362978
0.0 0.0 -9.41723244416008
0.0 0.0 -9.539622563784732
0.0 0.0 -9.675960967125587
0.0 0.0 -9.799304134158099
0.0 0.0 -9.936788543775632
0.0 0.0 -10.061054673777122
0.0 0.0 -10.199655000687768
0.0 0.0 -10.324813999736698
0.0 0.0 -10.464500144665804
0.0 0.0 -10.590521907695262
0.0 0.0 -10.731263759318685
0.0 0.0 -10.85811816825434
0.0 0.0 -10.999885601224351
0.0 0.0 -11.127542522889245
0.0 0.0 -11.27030539560878
0.0 0.0 -11.398734679356924
0.0 0.0 -11.542462831461629
0.0 0.0 -11.67163430649703
0.0 0.0 -11.81629755599904
0.0 0.0 -11.946181028331196
0.0 0.0 -12.091749168372441
0.0 0.0 -12.222314417352715
0.0 0.0 -12.3687572125088
0.0 0.0 -12.499973986884998
0.0 0.0 -12.647261168952921
0.0 0.0 -12.779099182371825
0.0 0.0 -12.927200445567493
0.0 0.0 -13.05962937144703
0.0 0.0 -13.208514366931121
0.0 0.0 -13.341503832617839
0.0 0.0 -13.491142162262548
0.0 0.0 -13.624661742385232
0.0 0.0 -13.775022951692563
0.0 0.0 -13.90904216062387
0.0 0.0 -14.06009573071099
0.0 0.0 -14.19458401405957
0.0 0.0 -14.346299352644765
0.0 0.0 -14.481226077727998
0.0 0.0 -14.633572509091165
0.0 0.0 -14.768906954395495
0.0 0.0 -14.921853708365179
0.0 0.0 -15.057565052106398
0.0 0.0 -15.211081252265032
0.0 0.0 -15.347138560344135
0.0 0.0 -15.501193211881194
0.0 0.0 -15.637565425838591
0.0 0.0 -15.792127403873023
0.0 0.0 -15.928783329943343
0.0 0.0 -16.083821369762102
0.0 0.0 -16.22072967091978
0.0 0.0 -16.37621236254347
0.0 0.0 -16.513341556641553
0.0 0.0 -16.66923734755407
0.0 0.0 -16.806555816466613
0.0 0.0 -16.962833028311056
0.0 0.0 -17.100309045621422
0.0 0.0 -17.25693591301465
0.0 0.0 -17.394537701631023
0.0 0.0 -17.551482443010887
0.0 0.0 -17.689178280287724
0.0 0.0 -17.846409208288396
0.0 0.0 -17.984167609463608
0.0 0.0 -18.141653269603992
0.0 0.0 -18.2794433198404
0.0 0.0 -18.43715256986476
0.0 0.0 -18.574944614802185
0.0 0.0 -18.732846277593367
0.0 0.0 -18.870613684215666
0.0 0.0 -19.02867446608737
0.0 0.0 -19.16639874969214
0.0 0.0 -19.324576180348686
0.0 0.0 -19.462258557349955
0.0 0.0 -19.620490215408818
0.0 0.0 0.0
0.0 0.0 -0.00042905577995123507
0.0 0.0 -0.0016192227098197145
0.0 0.0 -0.004079066307226394
0.0 0.0 -0.007405128008095878
0.0 0.0 -0.012401138660965903
0.0 0.0 -0.01818315270893754
0.0 0.0 -0.025931553683366797
0.0 0.0 -0.03431980827973091
0.0 0.0 -0.04492545441451135
0.0 0.0 -0.05599214163826424
0.0 0.0 -0.0695030591795652
0.0 0.0 -0.08327797428850303
0.0 0.0 -0.09970999966059477
0.0 0.0 -0.1161981737161142
0.0 0.0 -0.1355479046899238
0.0 0.0 -0.15473931542022765
0.0 0.0 -0.17699151332519905
0.0 0.0 -0.19886680370946982
0.0 0.0 -0.22399885921422352
0.0 0.0 -0.24853285515101342
0.0 0.0 -0.27651757789024445
0.0 0.0 -0.3036815119134868
0.0 0.0 -0.33448890975907664
0.0 0.0 -0.3642518482752954
0.0 0.0 -0.39785027377449933
0.0 0.0 -0.4301800382586559
0.0 0.0 -0.46653692834778776
0.0 0.0 -0.5014006883391967
0.0 0.0 -0.5404830384368807
0.0 0.0 -0.5778476891174743
0.0 0.0 -0.6196223522940789
0.0 0.0 -0.6594547499489997
0.0 0.0 -0.7038886206485113
0.0 0.0 -0.7461557244180768
0.0 0.0 -0.7932158462247242
0.0 0.0 -0.8378847984180978
0.0 0.0 -0.8875384222635705
0.0 0.0 -0.934576588835127
0.0 0.0 -0.986791199323268
0.0 0.0 -1.0361661849706376
0.0 0.0 -1.0909095066360757
0.0 0.0 -1.1425891541642645
0.0 0.0 -1.1998291455231354
0.0 0.0 -1.2537815258638494
0.0 0.0 -1.313486366437863
0.0 0.0 -1.3696797635126006
0.0 0.0 -1.4318178371999102
0.0 0.0 -1.4902207303317496
0.0 0.0 -1.5547606072819287
0.0 0.0 -1.6153416528654603
0.0 0.0 -1.682252071202484
0.0 0.0 -1.74498008467811
0.0 0.0 -1.814229932875741
0.0 0.0 -1.8790738716168274
0.0 0.0 -1.9506321719768136
0.0 0.0 -2.0175611194130423
0.0 0.0 -2.0913970128677706
0.0 0.0 -2.160380163985475
0.0 0.0 -2.236462896301946
0.0 0.0 -2.3074695445481606
0.0 0.0 -2.385768453921226
0.0 0.0 -2.458767979469672
0.0 0.0 -2.539252485440329
0.0 0.0 -2.6142143447387074
0.0 0.0 -2.6968539383451624
0.0 0.0 -2.7737476548435755
0.0 0.0 -2.8585118898999915
0.0 0.0 -2.9373070458528474
0.0 0.0 -3.0241655312474727
0.0 0.0 -3.104831760481362
0.0 0.0 -3.1937541533883245
0.0 0.0 -3.276261134932756
0.0 0.0 -3.367217134837677
0.0 0.0 -3.451534587322488
0.0 0.0 -3.5444939307696264
0.0 0.0 -3.6305916075008415
0.0 0.0 -3.7255240634777023
0.0 0.0 -3.813371748111935
0.0 0.0 -3.910247113995555
0.0 0.0 -3.9998146167412325
0.0 0.0 -4.09860271473831
0.0 0.0 -4.189859869019655
0.0 0.0 -4.290530543040144
0.0 0.0 -4.383447202566978
0.0 0.0 -4.485970315477562
0.0 0.0 -4.5805163516705445
0.0 0.0 -4.684861782880502
0.0 0.0 -4.781007082607194
0.0 0.0 -4.887144725944775
0.0 0.0 -4.9848591895271115
0.0 0.0 -5.092758951369398
0.0 0.0 -5.192012490827734
0.0 0.0 -5.301644288451246
0.0 0.0 -5.402406825954294
0.0 0.0 -5.513740586077435
0.0 0.0 -5.615982052570827
0.0 0.0 -5.728987710062613
0.0 0.0 -5.832678044052083
0.0 0.0 -5.947325540784354
0.0 0.0 -6.052434687252068
0.0 0.0 -6.168693971075164
0.0 0.0 -6.275191880510106
0.0 0.0 -6.393032904333781
0.0 0.0 -6.500889531859222
0.0 0.0 -6.620282252822776
0.0 0.0 -6.729467557405366
0.0 0.0 -6.850381936122231
0.0 0.0 -6.960865879848813
0.0 0.0 -7.083271879712423
0.0 0.0 -7.195024427121839
0.0 0.0 -7.31889201366039
0.0 0.0 -7.431883131118461
0.0 0.0 -7.5571822713873535
0.0 0.0 -7.671381926494031
0.0 0.0 -7.798082588495134
0.0 0.0 -7.913460749513345
0.0 0.0 -8.041532901630873
0.0 0.0 -8.158059536926984
0.0 0.0 -8.287473147370093
0.0 0.0 -8.40511822485606
0.0 0.0 -8.535843261098169
0.0 0.0 -8.65457674766557
0.0 0.0 -8.786583175870556
0.0 0.0 -8.906375036806397
0.0 0.0 -9.039632821231391
0.0 0.0 -9.160453019605335
0.0 0.0 -9.294932121969575
0.0 0.0 -9.416750617981515
0.0 0.0 -9.552420996789907
0.0 0.0 -9.675207747066414
0.0 0.0 -9.812039356875525
0.0 0.0 -9.935764313702194
0.0 0.0 -10.07372710431556
0.0 0.0 -10.198360214791498
0.0 0.0 -10.337424130369408
0.0 0.0 -10.462935335468257
0.0 0.0 -10.603070313535595
0.0 0.0 -10.729429547055664
0.0 0.0 -10.870605517389372
0.0 0.0 -10.997782704773117
0.0 0.0 -11.139969588148197
0.0 0.0 -11.267934645148639
0.0 0.0 -11.411102351918496
0.0 0.0 -11.539825183086661
0.0 0.0 -11.683943611570175
0.0 0.0 -11.813394108533691
0.0 0.0 -11.95843314317666
0.0 0.0 -12.088581182674817
0.0 0.0 -12.234510691948481
0.0 0.0 -12.365326133583135
0.0 0.0 -12.51211596757586
0.0 0.0 -12.64356865123109
0.0 0.0 -12.791188638881946
0.0 0.0 -12.923248381756817
0.0 0.0 -13.071668327671242
0.0 0.0 -13.20430492086077
0.0 0.0 -13.35349460163816
0.0 0.0 -13.486677806187233
0.0 0.0 -13.636606966179443
0.0 0.0 -13.770306508522713
0.0 0.0 -13.920944854930816
0.0 0.0 -14.05513042162048
0.0 0.0 -14.206447618826603
0.0 0.0 -14.3410888504407
0.0 0.0 -14.49305451346505
0.0 0.0 -14.62812099758605
0.0 0.0 -14.780704684561435
0.0 0.0 -14.916165947724512
0.0 0.0 -15.069337151301394
0.0 0.0 -15.205162649847615
0.0 0.0 -15.358890787498032
0.0 0.0 -15.495049897350016
0.0 0.0 -15.649304300656864
0.0 0.0 -15.785766306201074
0.0 0.0 -15.940516209446171
0.0 0.0 -16.077250292017013
0.0 0.0 -16.23246482079182
0.0 0.0 -16.369440047810272
0.0 0.0 -16.525088209079826
0.0 0.0 -16.662273525867313
0.0 0.0 -16.81832420207517
0.0 0.0 -16.95568843001359
0.0 0.0 -17.112110381560367
0.0 0.0 -17.249622229072884
0.0 0.0 -17.40638411170183
0.0 0.0 -17.544012209449615
0.0 0.0 -17.701082614341654
0.0 0.0 -17.83879559565474
0.0 0.0 -17.99614311434628
0.0 0.0 -18.133909785130303
0.0 0.0 -18.291503066701928
0.0 0.0 -18.429292780324282
0.0 0.0 -18.58710040860648
0.0 0.0 -18.724884012869936
0.0 0.0 -18.88287352733221
0.0 0.0 -19.020626119451098
0.0 0.0 -19.178759871008552
0.0 0.0 -19.316468668183234
0.0 0.0 -19.474692790138842
0.0 0.0 -19.61236844632607
0.0 0.0 0.0
0.0 0.0 -0.0006150997380874309
0.0 0.0 -0.002478624847819931
0.0 0.0 -0.005285526711759409
0.0 0.0 -0.00960694339817576
0.0 0.0 -0.014762586095575249
0.0 0.0 -0.02172680987072004
0.0 0.0 -0.02938506021143588
0.0 0.0 -0.039111322880657204
0.0 0.0 -0.04936159065187398
0.0 0.0 -0.06191507979039229
0.0 0.0 -0.07480321131199658
0.0 0.0 -0.0902143828399387
0.0 0.0 -0.10575857867788929
0.0 0.0 -0.12403585084868031
0.0 0.0 -0.1422367010982699
0.0 0.0 -0.16337438496132245
0.0 0.0 -0.18422115515501447
0.0 0.0 -0.2082044569335892
0.0 0.0 -0.23167908549085242
0.0 0.0 -0.2584873130154153
0.0 0.0 -0.2845669914990799
0.0 0.0 -0.3141756359786422
0.0 0.0 -0.34283449203121413
0.0 0.0 -0.3752165904671147
0.0 0.0 -0.4064267916852459
0.0 0.0 -0.4415538215719787
0.0 0.0 -0.4752863005739003
0.0 0.0 -0.5131287671546142
0.0 0.0 -0.5493536967370628
0.0 0.0 -0.589881516907328
0.0 0.0 -0.6285686196392943
0.0 0.0 -0.6717513710294515
0.0 0.0 -0.7128701190771486
0.0 0.0 -0.7586771998075628
0.0 0.0 -0.8021969421250674
0.0 0.0 -0.8505976715642466
0.0 0.0 -0.8964877132290446
0.0 0.0 -0.9474513939984526
0.0 0.0 -0.9956810442256808
0.0 0.0 -1.049176998947909
0.0 0.0 -1.099715598792671
0.0 0.0 -1.1557131905551614
0.0 0.0 -1.208530127606841
0.0 0.0 -1.2669987700793404
0.0 0.0 -1.3220634849686035
0.0 0.0 -1.3829726460813396
0.0 0.0 -1.4402546339602817
0.0 0.0 -1.5035738356939299
0.0 0.0 -1.563042644743543
0.0 0.0 -1.6287414606804336
0.0 0.0 -1.6903666889656372
0.0 0.0 -1.7584147406550281
0.0 0.0 -1.8221660321631876
0.0 0.0 -1.8925329849609085
0.0 0.0 -1.958380025342171
0.0 0.0 -2.0310355841284915
0.0 0.0 -2.0989480964497482
0.0 0.0 -2.173862001463363
0.0 0.0 -2.2438097421545797
0.0 0.0 -2.320951765074333
0.0 0.0 -2.392904520161435
0.0 0.0 -2.472244460500415
0.0 0.0 -2.5461720421661354
0.0 0.0 -2.627679724001408
0.0 0.0 -2.703551967483374
0.0 0.0 -2.7871972365198747
0.0 0.0 -2.8649839973363243
0.0 0.0 -2.9507367182893622
0.0 0.0 -3.030407869772607
0.0 0.0 -3.1182379240459905
0.0 0.0 -3.1997633551586575
0.0 0.0 -3.289640638792335
0.0 0.0 -3.3729902521996884
0.0 0.0 -3.464884674060084
0.0 0.0 -3.5500283844318674
0.0 0.0 -3.6439098646189305
0.0 0.0 -3.730817597135489
0.0 0.0 -3.8266560655820507
0.0 0.0 -3.915297754621327
0.0 0.0 -4.013063149862376
0.0 0.0 -4.103408737846414
0.0 0.0 -4.20307100593799
0.0 0.0 -4.295090442319696
0.0 0.0 -4.396619535889241
0.0 0.0 -4.490282776262208
0.0 0.0 -4.593648653674081
0.0 0.0 -4.688925658990194
0.0 0.0 -4.794098283611968
0.0 0.0 -4.890959019493245
0.0 0.0 -4.997908359050024
0.0 0.0 -5.096322795182621
0.0 0.0 -5.205018821188127
0.0 0.0 -5.304956930787931
0.0 0.0 -5.415369618042293
0.0 0.0 -5.516801377382759
0.0 0.0 -5.628900703528298
0.0 0.0 -5.731796091522151
0.0 0.0 -5.845552036649201
0.0 0.0 -5.949881034476722
0.0 0.0 -6.065263580772657
0.0 0.0 -6.17099617154992
0.0 0.0 -6.287975302985171
0.0 0.0 -6.395081471466389
0.0 0.0 -6.513627173511876
0.0 0.0 -6.622076905820682
0.0 0.0 -6.742159165191687
0.0 0.0 -6.851922448576524
0.0 0.0 -6.973511252998543
0.0 0.0 -7.0845580756078785
0.0 0.0 -7.207623413600233
0.0 0.0 -7.319923764273659
0.0 0.0 -7.444435624947086
0.0 0.0 -7.557959493018545
0.0 0.0 -7.683887865883235
0.0 0.0 -7.798605240992962
0.0 0.0 -7.925920115773552
0.0 0.0 -8.04180098768536
0.0 0.0 -8.170472354139662
0.0 0.0 -8.287486712560296
0.0 0.0 -8.417484560298583
0.0 0.0 -8.535602394696005
0.0 0.0 -8.666896712997465
0.0 0.0 -8.786088012414748
0.0 0.0 -8.91864879003798
0.0 0.0 -9.038883542899491
0.0 0.0 -9.172680767883426
0.0 0.0 -9.293928961789748
0.0 0.0 -9.428932621241598
0.0 0.0 -9.5511642427493
0.0 0.0 -9.687344322615289
0.0 0.0 -9.810529356997618
0.0 0.0 -9.94785584181233
0.0 0.0 -10.071964272796004
0.0 0.0 -10.210407145405396
0.0 0.0 -10.335408954878416
0.0 0.0 -10.474938196130935
0.0 0.0 -10.600803363815432
0.0 0.0 -10.741388952214756
0.0 0.0 -10.868087455297816
0.0 0.0 -11.00969936660972
0.0 0.0 -11.137201179323954
0.0 0.0 -11.279809386128234
0.0 0.0 -11.408084479272247
0.0 0.0 -11.551658950448626
0.0 0.0 -11.680677290835167
0.0 0.0 -11.825187990969948
0.0 0.0 -11.954919540786765
0.0 0.0 -12.100336429483189
0.0 0.0 -12.230751145547726
0.0 0.0 -12.37704417661911
0.0 0.0 -12.508112009503114
0.0 0.0 -12.65525113002142
0.0 0.0 -12.786942023014953
0.0 0.0 -12.934897172179888
0.0 0.0 -13.067181060054372
0.0 0.0 -13.215922167837695
0.0 0.0 -13.348768975356293
0.0 0.0 -13.498265960861195
0.0 0.0 -13.631645600967785
0.0 0.0 -13.781868370424993
0.0 0.0 -13.915750742021547
0.0 0.0 -14.06666918631831
0.0 0.0 -14.201024171511516
0.0 0.0 -14.352608163117084
0.0 0.0 -14.487405623778205
0.0 0.0 -14.639625012887306
0.0 0.0 -14.77483478632188
0.0 0.0 -14.927659395985486
0.0 0.0 -15.063251289452033
0.0 0.0 -15.216650909402414
0.0 0.0 -15.35259469315419
0.0 0.0 -15.50653907196429
0.0 0.0 -15.642804470422707
0.0 0.0 -15.79726330558084
0.0 0.0 -15.933819986206256
0.0 0.0 -16.0887629116667
0.0 0.0 -16.225580471118313
0.0 0.0 -16.380977041969427
0.0 0.0 -16.518024989343882
0.0 0.0 -16.67384466353797
0.0 0.0 -16.811092401051425
0.0 0.0 -16.967304518865372
0.0 0.0 -17.104721321721435
0.0 0.0 -17.261295085024518
0.0 0.0 -17.39885008527125
0.0 0.0 -17.555754540787184
0.0 0.0 -17.693416726686532
0.0 0.0 -17.850620758601742
0.0 0.0 -17.988359016427843
0.0 0.0 -18.14583134502116
0.0 0.0 -18.28361460947904
0.0 0.0 -18.441323738056482
0.0 0.0 -18.579121435245433
0.0 0.0 -18.737035260536775
0.0 0.0 -18.874818638383843
0.0 0.0 -19.03290262578665
0.0 0.0 -19.170649033670617
0.0 0.0 -19.32885914592844
0.0 0.0 -19.466564026785893
0.0 0.0 -19.624833608924288
0.0 0.0 0.0
0.0 0.0 -0.0007576569700020241
0.0 0.0 -0.002724204302218043
0.0 0.0 -0.00618148653530277
0.0 0.0 -0.010601418291466826
0.0 0.0 -0.016721836769134517
0.0 0.0 -0.02362202862302561
0.0 0.0 -0.032461358901558095
0.0 0.0 -0.04190117093137674
0.0 0.0 -0.053512153144881905
0.0 0.0 -0.06553433243165963
0.0 0.0 -0.07994930552391769
0.0 0.0 -0.09457654877426212
0.0 0.0 -0.11180973017163631
0.0 0.0 -0.12904899641001039
0.0 0.0 -0.14910122408414875
0.0 0.0 -0.1689482345935109
0.0 0.0 -0.19181097507764533
0.0 0.0 -0.21425366956530315
0.0 0.0 -0.2399119444302506
0.0 0.0 -0.26493293220406616
0.0 0.0 -0.2933673572085931
0.0 0.0 -0.3209456061187615
0.0 0.0 -0.3521337859920801
0.0 0.0 -0.3822457719996498
0.0 0.0 -0.41616324662048315
0.0 0.0 -0.4487837318684404
0.0 0.0 -0.4854046157414397
0.0 0.0 -0.5205071739884675
0.0 0.0 -0.5598045879793342
0.0 0.0 -0.5973619594447652
0.0 0.0 -0.6393083225906137
0.0 0.0 -0.6792926541304252
0.0 0.0 -0.7238598815464583
0.0 0.0 -0.766242889973123
0.0 0.0 -0.8134025278800396
0.0 0.0 -0.8581556118488115
0.0 0.0 -0.9078789305295565
0.0 0.0 -0.9549732480058731
0.0 0.0 -1.007231306591546
0.0 0.0 -1.0566378292456615
0.0 0.0 -1.1114015215858608
0.0 0.0 -1.163091073660208
0.0 0.0 -1.2203311614267467
0.0 0.0 -1.2742744480855526
0.0 0.0 -1.3339615851903606
0.0 0.0 -1.3901292136759953
0.0 0.0 -1.452233964712323
0.0 0.0 -1.5105964605171809
0.0 0.0 -1.5750893150263487
0.0 0.0 -1.635617134552362
0.0 0.0 -1.7024685183201451
0.0 0.0 -1.7651320590125277
0.0 0.0 -1.8343123432053008
0.0 0.0 -1.8990819518273938
0.0 0.0 -1.9705614605186563
0.0 0.0 -2.0374074400241127
0.0 0.0 -2.111156456490898
0.0 0.0 -2.180049071810348
0.0 0.0 -2.2560378438658653
0.0 0.0 -2.326947326832885
0.0 0.0 -2.405146071386311
0.0 0.0 -2.478042624965883
0.0 0.0 -2.5584215319496817
0.0 0.0 -2.633275333890671
0.0 0.0 -2.7158045696613384
0.0 0.0 -2.7925857756659385
0.0 0.0 -2.8772354859603073
0.0 0.0 -2.955914232443442
0.0 0.0 -3.0426545449558224
0.0 0.0 -3.123200951453266
0.0 0.0 -3.2120019780865325
0.0 0.0 -3.294386149359949
0.0 0.0 -3.3852179881946083
0.0 0.0 -3.469410016073887
0.0 0.0 -3.56224275309218
0.0 0.0 -3.648212718089201
0.0 0.0 -3.743016428685889
0.0 0.0 -3.8307344014090683
0.0 0.0 -3.927479151716046
0.0 0.0 -4.016915194110931
0.0 0.0 -4.115571042159235
0.0 0.0 -4.206695208597083
0.0 0.0 -4.307232205336835
0.0 0.0 -4.4000145435703395
0.0 0.0 -4.5024027337664805
0.0 0.0 -4.596813285769437
0.0 0.0 -4.70102270878899
0.0 0.0 -4.797031511494576
0.0 0.0 -4.903032201999167
0.0 0.0 -5.000609287949781
0.0 0.0 -5.108371276505555
0.0 0.0 -5.207486674425489
0.0 0.0 -5.316979988041151
0.0 0.0 -5.417603723342264
0.0 0.0 -5.528798385944544
0.0 0.0 -5.6309004811736685
0.0 0.0 -5.743766514028659
0.0 0.0 -5.847316989264662
0.0 0.0 -5.96182441135234
0.0 0.0 -6.066793284559775
0.0 0.0 -6.182912112908297
0.0 0.0 -6.289269400253855
0.0 0.0 -6.4069696502395646
0.0 0.0 -6.514685366376851
0.0 0.0 -6.633937051995135
0.0 0.0 -6.742981210322873
0.0 0.0 -6.863754344434758
0.0 0.0 -6.974096957332839
0.0 0.0 -7.096361551891592
0.0 0.0 -7.207972630939211
0.0 0.0 -7.331698697200934
0.0 0.0 -7.444548253380608
0.0 0.0 -7.569705802102556
0.0 0.0 -7.6837638459936
0.0 0.0 -7.810322887623702
0.0 0.0 -7.9255594295886285
0.0 0.0 -8.053489974449503
0.0 0.0 -8.169875024816497
0.0 0.0 -8.299147083287243
0.0 0.0 -8.416650652531967
0.0 0.0 -8.547234235230851
0.0 0.0 -8.665826334160807
0.0 0.0 -8.797691452132039
0.0 0.0 -8.91734209207657
0.0 0.0 -9.050458756984368
0.0 0.0 -9.17113794999368
0.0 0.0 -9.30547617432697
0.0 0.0 -9.427153933383396
0.0 0.0 -9.562683730674669
0.0 0.0 -9.685330069919855
0.0 0.0 -9.822021454981597
0.0 0.0 -9.945606389963277
0.0 0.0 -10.083429379145995
0.0 0.0 -10.207922927088216
0.0 0.0 -10.346847538563976
0.0 0.0 -10.47221971866497
0.0 0.0 -10.61221597274059
0.0 0.0 -10.738436806502476
0.0 0.0 -10.87947472596679
0.0 0.0 -11.0065142375615
0.0 0.0 -11.148563848071058
0.0 0.0 -11.276392064746663
0.0 0.0 -11.419423395253801
0.0 0.0 -11.548010347785418
0.0 0.0 -11.69199343101259
0.0 0.0 -11.8213091542007
0.0 0.0 -11.966214027163392
0.0 0.0 -12.096228560381586
0.0 0.0 -12.242025264960617
0.0 0.0 -12.372708652751808
0.0 0.0 -12.519367236312508
0.0 0.0 -12.65068952902911
0.0 0.0 -12.798180045079633
0.0 0.0 -12.930111299556563
0.0 0.0 -13.078403808430354
0.0 0.0 -13.21091408867011
0.0 0.0 -13.35997865820509
0.0 0.0 -13.493038036039874
0.0 0.0 -13.642844742209423
0.0 0.0 -13.77642329788337
0.0 0.0 -13.926942225307835
0.0 0.0 -14.06101004789071
0.0 0.0 -14.212211290119889
0.0 0.0 -14.346738477617338
0.0 0.0 -14.498592137018733
0.0 0.0 -14.633548795978014
0.0 0.0 -14.786024982986437
0.0 0.0 -14.921381227301566
0.0 0.0 -15.074450058673667
0.0 0.0 -15.210176007162076
0.0 0.0 -15.36380760272319
0.0 0.0 -15.499873374863505
0.0 0.0 -15.654037852022547
0.0 0.0 -15.790413560999003
0.0 0.0 -15.945081026027166
0.0 0.0 -16.081736767913398
0.0 0.0 -16.23687730263273
0.0 0.0 -16.373783140178144
0.0 0.0 -16.52936678230916
0.0 0.0 -16.666492721431464
0.0 0.0 -16.82248943648986
0.0 0.0 -16.95980539343361
0.0 0.0 -17.116185035955617
0.0 0.0 -17.253660793705038
0.0 0.0 -17.410393056130427
0.0 0.0 -17.547998211496314
0.0 0.0 -17.705052560749937
0.0 0.0 -17.84275647222985
0.0 0.0 -18.000102076179125
0.0 0.0 -18.13787384657643
0.0 0.0 -18.295479486032516
0.0 0.0 -18.433288077857867
0.0 0.0 -18.591121976998764
0.0 0.0 -18.728936738399028
0.0 0.0 -18.886965931284973
0.0 0.0 -19.024758425554396
0.0 0.0 -19.18294600438848
0.0 0.0 -19.320697165048593
0.0 0.0 -19.478990531567483
0.0 0.0 -19.61670911925701
0.0 0.0 0.0
0.0 0.0 -0.0007528237833685974
0.0 0.0 -0.0030235001508614086
0.0 0.0 -0.006459850713672058
0.0 0.0 -0.011556699319861315
0.0 0.0 -0.017572115984558753
0.0 0.0 -0.02543719154815187
0.0 0.0 -0.03400801800749635
0.0 0.0 -0.04463894403610608
0.0 0.0 -0.05577292353150284
0.0 0.0 -0.06918062501797957
0.0 0.0 -0.08288799954494713
0.0 0.0 -0.09908010812874082
0.0 0.0 -0.1153650916881734
0.0 0.0 -0.1343422134166185
0.0 0.0 -0.15320193496957893
0.0 0.0 -0.17495800437937886
0.0 0.0 -0.19638354422747342
0.0 0.0 -0.22090713408496124
0.0 0.0 -0.24488488471606107
0.0 0.0 -0.2721605032139182
0.0 0.0 -0.2986733493331732
0.0 0.0 -0.3286824836566524
0.0 0.0 -0.35771070854316694
0.0 0.0 -0.39043260274191
0.0 0.0 -0.42195455063166415
0.0 0.0 -0.45736676684989996
0.0 0.0 -0.4913593171004779
0.0 0.0 -0.5294381357073425
0.0 0.0 -0.5658770405174088
0.0 0.0 -0.6065977455381305
0.0 0.0 -0.6454578717597415
0.0 0.0 -0.6887949564043737
0.0 0.0 -0.7300504609386232
0.0 0.0 -0.7759777779862845
0.0 0.0 -0.8196022373987575
0.0 0.0 -0.8680931115447417
0.0 0.0 -0.9140596200238903
0.0 0.0 -0.9650869338133188
0.0 0.0 -1.013368179017676
0.0 0.0 -1.0669044401946601
0.0 0.0 -1.1174727634058244
0.0 0.0 -1.1734901589382596
0.0 0.0 -1.2263176038349735
0.0 0.0 -1.284788044160485
0.0 0.0 -1.3398463971332797
0.0 0.0 -1.4007415530373177
0.0 0.0 -1.4580023770420039
0.0 0.0 -1.5212937108315
0.0 0.0 -1.5807283741731575
0.0 0.0 -1.6463871663166354
0.0 0.0 -1.7079668673554484
0.0 0.0 -1.7759642394345914
0.0 0.0 -1.8396600279389272
0.0 0.0 -1.9099669625389848
0.0 0.0 -1.9757497582323966
0.0 0.0 -2.0483371162513317
0.0 0.0 -2.1161777249779066
0.0 0.0 -2.191016260732261
0.0 0.0 -2.260885388579119
0.0 0.0 -2.3379457630122027
0.0 0.0 -2.4098140286663483
0.0 0.0 -2.4890668209114564
0.0 0.0 -2.562904766482398
0.0 0.0 -2.6443204839937846
0.0 0.0 -2.7200985844981527
0.0 0.0 -2.8036476719312957
0.0 0.0 -2.881336343607819
0.0 0.0 -2.966989190605499
0.0 0.0 -3.0465587982060702
0.0 0.0 -3.134285746226063
0.0 0.0 -3.2157066094096844
0.0 0.0 -3.3054779577126108
0.0 0.0 -3.3887203566530135
0.0 0.0 -3.4805063675539714
0.0 0.0 -3.5655405478579847
0.0 0.0 -3.6593114513329157
0.0 0.0 -3.7461076283547183
0.0 0.0 -3.841833626081275
0.0 0.0 -3.930361988707389
0.0 0.0 -4.028013257610407
0.0 0.0 -4.118243971581068
0.0 0.0 -4.217790666944274
0.0 0.0 -4.309693877769012
0.0 0.0 -4.411106135967163
0.0 0.0 -4.504651971485374
0.0 0.0 -4.607899912384447
0.0 0.0 -4.703058485015658
0.0 0.0 -4.808112214083051
0.0 0.0 -4.904853622806283
0.0 0.0 -5.011683232967896
0.0 0.0 -5.109977565064664
0.0 0.0 -5.218553138341498
0.0 0.0 -5.318370470933082
0.0 0.0 -5.428662079885943
0.0 0.0 -5.529972481291907
0.0 0.0 -5.641950190299667
0.0 0.0 -5.744723721241426
0.0 0.0 -5.85835758763521
0.0 0.0 -5.962564302305851
0.0 0.0 -6.077824377379172
0.0 0.0 -6.183434324398322
0.0 0.0 -6.30029065431086
0.0 0.0 -6.407273877581374
0.0 0.0 -6.525696504172394
0.0 0.0 -6.634023043654009
0.0 0.0 -6.753982005179589
0.0 0.0 -6.863621897593064
0.0 0.0 -6.985087229400271
0.0 0.0 -7.096010508874498
0.0 0.0 -7.218952244024279
0.0 0.0 -7.331128942697725
0.0 0.0 -7.455517112547506
0.0 0.0 -7.56891726113456
0.0 0.0 -7.694721895890884
0.0 0.0 -7.809315524223143
0.0 0.0 -7.936506653473925
0.0 0.0 -8.05226379102589
0.0 0.0 -8.180811444261836
0.0 0.0 -8.297702120670241
0.0 0.0 -8.427576327804493
0.0 0.0 -8.545570573390496
0.0 0.0 -8.67674136528565
0.0 0.0 -8.795809211589031
0.0 0.0 -8.928246620600813
0.0 0.0 -9.048358100935484
0.0 0.0 -9.18203216148251
0.0 0.0 -9.303157311523162
0.0 0.0 -9.43803806069294
0.0 0.0 -9.560146919102872
0.0 0.0 -9.696204397304395
0.0 0.0 -9.819267006415647
0.0 0.0 -9.956471258089865
0.0 0.0 -10.080457664647252
0.0 0.0 -10.218778739047835
0.0 0.0 -10.343658995029575
0.0 0.0 -10.483066947086908
0.0 0.0 -10.60881111061573
0.0 0.0 -10.749276001898801
0.0 0.0 -10.875854138258566
0.0 0.0 -11.017346038050498
0.0 0.0 -11.144728220824845
0.0 0.0 -11.287217207329155
0.0 0.0 -11.415373519680019
0.0 0.0 -11.558829681376169
0.0 0.0 -11.687730217481345
0.0 0.0 -11.832123654649351
0.0 0.0 -11.961738521319326
0.0 0.0 -12.107039347754123
0.0 0.0 -12.237338666249167
0.0 0.0 -12.383517011185551
0.0 0.0 -12.51447091925349
0.0 0.0 -12.661496929521594
0.0 0.0 -12.793075583675336
0.0 0.0 -12.940919426103592
0.0 0.0 -13.073093004152563
0.0 0.0 -13.221724868229524
0.0 0.0 -13.35446357207187
0.0 0.0 -13.503853672867027
0.0 0.0 -13.637127731534934
0.0 0.0 -13.787246312861209
0.0 0.0 -13.921025985789123
0.0 0.0 -14.07184332356034
0.0 0.0 -14.2060989040091
0.0 0.0 -14.357585309700488
0.0 0.0 -14.492287128214052
0.0 0.0 -14.644412952263302
0.0 0.0 -14.779531379947965
0.0 0.0 -14.93226701482819
0.0 0.0 -15.067772466112912
0.0 0.0 -15.221088348647564
0.0 0.0 -15.356951282988149
0.0 0.0 -15.510817895238874
0.0 0.0 -15.647008816936983
0.0 0.0 -15.80139668464113
0.0 0.0 -15.93788613952064
0.0 0.0 -16.092765826536617
0.0 0.0 -16.229524393598897
0.0 0.0 -16.384866490070795
0.0 0.0 -16.521864765371376
0.0 0.0 -16.67763986627713
0.0 0.0 -16.814848435081995
0.0 0.0 -16.97102710443532
0.0 0.0 -17.10841649628988
0.0 0.0 -17.264969210603123
0.0 0.0 -17.402509830753324
0.0 0.0 -17.55940689389586
0.0 0.0 -17.69706892528854
0.0 0.0 -17.854280346946595
0.0 0.0 -17.992033625255893
0.0 0.0 -18.149528959553056
0.0 0.0 -18.28734285486297
0.0 0.0 -18.445091005242517
0.0 0.0 -18.58293443855212
0.0 0.0 -18.74090341599892
0.0 0.0 -18.878745392519626
0.0 0.0 -19.036901660827645
0.0 0.0 -19.17471353053573
0.0 0.0 -19.333017553075916
0.0 0.0 -19.47078659608202
0.0 0.0 -19.62917029646699
0.0 0.0 0.0
0.0 0.0 -0.0008312062329445028
0.0 0.0 -0.003038675227784973
0.0 0.0 -0.006890802400917141
0.0 0.0 -0.011834733500176303
0.0 0.0 -0.01857469555890688
0.0 0.0 -0.026157926319192067
0.0 0.0 -0.03571726687124417
0.0 0.0 -0.04589345805686601
0.0 0.0 -0.0582417400892271
0.0 0.0 -0.07099081405685553
0.0 0.0 -0.08611413628561805
0.0 0.0 -0.1014254624606166
0.0 0.0 -0.11931456659003327
0.0 0.0 -0.13717907634772902
0.0 0.0 -0.1578243834456936
0.0 0.0 -0.1782316010419222
0.0 0.0 -0.2016215497195148
0.0 0.0 -0.2245587601944114
0.0 0.0 -0.25067948520523037
0.0 0.0 -0.27613171597931613
0.0 0.0 -0.30496720042827014
0.0 0.0 -0.3329174614934127
0.0 0.0 -0.3644498147009124
0.0 0.0 -0.39487938454187765
0.0 0.0 -0.42908911945576467
0.0 0.0 -0.4619778054640327
0.0 0.0 -0.4988440784664478
0.0 0.0 -0.5341704353752947
0.0 0.0 -0.5736712441479381
0.0 0.0 -0.611412752910408
0.0 0.0 -0.6535250982171815
0.0 0.0 -0.6936583126236627
0.0 0.0 -0.7383583315857432
0.0 0.0 -0.7808589998419285
0.0 0.0 -0.8281220772628123
0.0 0.0 -0.8729652443065993
0.0 0.0 -0.922766107041439
0.0 0.0 -0.9699262018623173
0.0 0.0 -1.0222389998448242
0.0 0.0 -1.0716899108576345
0.0 0.0 -1.1264882873618707
0.0 0.0 -1.1782034280170066
0.0 0.0 -1.2354605810103614
0.0 0.0 -1.2894129472301266
0.0 0.0 -1.3491016831899192
0.0 0.0 -1.4052639038267098
0.0 0.0 -1.4673566850722521
0.0 0.0 -1.5257010663229185
0.0 0.0 -1.5901700527008984
0.0 0.0 -1.6506686172353848
0.0 0.0 -1.7174857028500605
0.0 0.0 -1.7801102242895541
0.0 0.0 -1.8492470698648997
0.0 0.0 -1.9139691031549
0.0 0.0 -1.9853971645374613
0.0 0.0 -2.0521880726919846
0.0 0.0 -2.1258786259412976
0.0 0.0 -2.1947096035782727
0.0 0.0 -2.270633767040294
0.0 0.0 -2.341475861080776
0.0 0.0 -2.419604614795658
0.0 0.0 -2.4924287426582405
0.0 0.0 -2.572732945415037
0.0 0.0 -2.647509911000298
0.0 0.0 -2.729960315316632
0.0 0.0 -2.80666082304374
0.0 0.0 -2.8912280883174892
0.0 0.0 -2.9698227554457275
0.0 0.0 -3.0564774594979522
0.0 0.0 -3.1369368269395665
0.0 0.0 -3.2256494761428978
0.0 0.0 -3.307944017949952
0.0 0.0 -3.39868505611425
0.0 0.0 -3.4827851878009963
0.0 0.0 -3.575525003968055
0.0 0.0 -3.6614010898114215
0.0 0.0 -3.7561100250926613
0.0 0.0 -3.8437323845366107
0.0 0.0 -3.9403807381117817
0.0 0.0 -4.029719651386348
0.0 0.0 -4.128277685767248
0.0 0.0 -4.219303398819814
0.0 0.0 -4.319741344470558
0.0 0.0 -4.412424073295243
0.0 0.0 -4.514712132689691
0.0 0.0 -4.609022067130483
0.0 0.0 -4.713130418317674
0.0 0.0 -4.809037725411777
0.0 0.0 -4.914936525151828
0.0 0.0 -5.012411352071862
0.0 0.0 -5.120070738597302
0.0 0.0 -5.219083215243883
0.0 0.0 -5.328473310694923
0.0 0.0 -5.428993551985253
0.0 0.0 -5.540084464561712
0.0 0.0 -5.642082572454326
0.0 0.0 -5.754844398322088
0.0 0.0 -5.858290463613385
0.0 0.0 -5.972693288598903
0.0 0.0 -6.077557392523077
0.0 0.0 -6.193571293625776
0.0 0.0 -6.299823509286294
0.0 0.0 -6.417418556035424
0.0 0.0 -6.525028949693294
0.0 0.0 -6.64417520537324
0.0 0.0 -6.753113837614692
0.0 0.0 -6.8737813603802
0.0 0.0 -6.984018287184388
0.0 0.0 -7.106177131085409
0.0 0.0 -7.2176824048109545
0.0 0.0 -7.341302620745209
0.0 0.0 -7.454046291052933
0.0 0.0 -7.579097927662907
0.0 0.0 -7.693050042391006
0.0 0.0 -7.819503146921197
0.0 0.0 -7.934633752928393
0.0 0.0 -8.062458372057916
0.0 0.0 -8.178737516049233
0.0 0.0 -8.307903696714519
0.0 0.0 -8.425301426064392
0.0 0.0 -8.555779216286385
0.0 0.0 -8.6742655798736
0.0 0.0 -8.806025029604054
0.0 0.0 -8.92557007867313
0.0 0.0 -9.0585812406749
0.0 0.0 -9.179155029739194
0.0 0.0 -9.313387960515998
0.0 0.0 -9.434960548318266
0.0 0.0 -9.570385309110359
0.0 0.0 -9.692926759657754
0.0 0.0 -9.829513417520847
0.0 0.0 -9.952993801212543
0.0 0.0 -10.090712430198945
0.0 0.0 -10.215101825065982
0.0 0.0 -10.353922507528605
0.0 0.0 -10.47919100060768
0.0 0.0 -10.619083828649492
0.0 0.0 -10.745201517514401
0.0 0.0 -10.886136594608475
0.0 0.0 -11.01307358908567
0.0 0.0 -11.155021031893547
0.0 0.0 -11.282747455990945
0.0 0.0 -11.425677396410071
0.0 0.0 -11.554163390491698
0.0 0.0 -11.698045977966109
0.0 0.0 -11.827261701208242
0.0 0.0 -11.97206710534012
0.0 0.0 -12.101982738508536
0.0 0.0 -12.247681152011873
0.0 0.0 -12.378266900603135
0.0 0.0 -12.524828542644258
0.0 0.0 -12.656054640437175
0.0 0.0 -12.803449760409265
0.0 0.0 -12.935286473475117
0.0 0.0 -13.083485355256133
0.0 0.0 -13.215902986476124
0.0 0.0 -13.364875953217739
0.0 0.0 -13.49784484735435
0.0 0.0 -13.6475622668453
0.0 0.0 -13.781052816205616
0.0 0.0 -13.931485106840684
0.0 0.0 -14.065467757553593
0.0 0.0 -14.216585394917262
0.0 0.0 -14.351030653816132
0.0 0.0 -14.502804177849933
0.0 0.0 -14.637682619900907
0.0 0.0 -14.790082642556774
0.0 0.0 -14.925364918686354
0.0 0.0 -15.078362131858457
0.0 0.0 -15.214018976894979
0.0 0.0 -15.36758416024552
0.0 0.0 -15.50358640046497
0.0 0.0 -15.657690428476307
0.0 0.0 -15.794008987885258
0.0 0.0 -15.948622835019867
0.0 0.0 -16.085228738939794
0.0 0.0 -16.240323481072476
0.0 0.0 -16.377187854686298
0.0 0.0 -16.53273466383617
0.0 0.0 -16.669828721928678
0.0 0.0 -16.8257988495279
0.0 0.0 -16.963093871415367
0.0 0.0 -17.11945861258127
0.0 0.0 -17.25692589282002
0.0 0.0 -17.413656519990962
0.0 0.0 -17.55126728059703
0.0 0.0 -17.708334929434503
0.0 0.0 -17.846060173563576
0.0 0.0 -18.00343565899559
0.0 0.0 -18.141245943356175
0.0 0.0 -18.29889948772945
0.0 0.0 -18.436764608207717
0.0 0.0 -18.59466550774749
0.0 0.0 -18.73255418853319
0.0 0.0 -18.890670600034166
0.0 0.0 -19.02855064279542
0.0 0.0 -19.18684958462228
0.0 0.0 -19.324690593668493
0.0 0.0 -19.483127279862742
0.0 0.0 -19.620932004242604
0.0 0.0 0.0
0.0 0.0 -0.000796044302516073
0.0 0.0 -0.003219183221928355
0.0 0.0 -0.006914840776674471
0.0 0.0 -0.012367099618835909
0.0 0.0 -0.01881884691141227
0.0 0.0 -0.02718302311551395
0.0 0.0 -0.036297535985950084
0.0 0.0 -0.047500361110823286
0.0 0.0 -0.05922062843721292
0.0 0.0 -0.07321782145939434
0.0 0.0 -0.08750911505487576
0.0 0.0 -0.10427286195623588
0.0 0.0 -0.12111220709437588
0.0 0.0 -0.1406228058880385
0.0 0.0 -0.15999262148905008
0.0 0.0 -0.1822337807661247
0.0 0.0 -0.20411847286800613
0.0 0.0 -0.22907487841181723
0.0 0.0 -0.2534591205326992
0.0 0.0 -0.28111523148602957
0.0 0.0 -0.30798313036051256
0.0 0.0 -0.3383226086922327
0.0 0.0 -0.36765732178419996
0.0 0.0 -0.4006627840898728
0.0 0.0 -0.43244636758087557
0.0 0.0 -0.46809930222678386
0.0 0.0 -0.5023126780561372
0.0 0.0 -0.540593448302636
0.0 0.0 -0.5772164333805896
0.0 0.0 -0.6181043253806162
0.0 0.0 -0.6571156929734306
0.0 0.0 -0.7005889865089002
0.0 0.0 -0.7419665432784817
0.0 0.0 -0.7880025927797453
0.0 0.0 -0.8317232619995305
0.0 0.0 -0.8802985805829979
0.0 0.0 -0.9263384859366507
0.0 0.0 -0.9774288281485161
0.0 0.0 -1.0257633747954849
0.0 0.0 -1.0793438155294284
0.0 0.0 -1.1299477665281514
0.0 0.0 -1.1859927747064984
0.0 0.0 -1.2388403217859303
0.0 0.0 -1.2973238281184538
0.0 0.0 -1.352388656372935
0.0 0.0 -1.413284114978092
0.0 0.0 -1.470539461438219
0.0 0.0 -1.5338199054128083
0.0 0.0 -1.5932386116830368
0.0 0.0 -1.6588767028921076
0.0 0.0 -1.7204312621884927
0.0 0.0 -1.7883993356543153
0.0 0.0 -1.8520619346533511
0.0 0.0 -1.9223320379757711
0.0 0.0 -1.9880745939191018
0.0 0.0 -2.0606185221773035
0.0 0.0 -2.1284127156819816
0.0 0.0 -2.2032020422624776
0.0 0.0 -2.2730193462731014
0.0 0.0 -2.350025450049107
0.0 0.0 -2.4218371553438356
0.0 0.0 -2.5010312446034084
0.0 0.0 -2.574808482235611
0.0 0.0 -2.65616161572406
0.0 0.0 -2.731875376748547
0.0 0.0 -2.815358482157381
0.0 0.0 -2.892979634956903
0.0 0.0 -2.978563525158765
0.0 0.0 -3.0580628306543773
0.0 0.0 -3.14571821795207
0.0 0.0 -3.2270663429505206
0.0 0.0 -3.316763851579021
0.0 0.0 -3.3999313804823403
0.0 0.0 -3.4916415575758
0.0 0.0 -3.576599002652603
0.0 0.0 -3.6702923278640194
0.0 0.0 -3.7570101382589303
0.0 0.0 -3.8526570321982256
0.0 0.0 -3.9411056018351083
0.0 0.0 -4.038676433471755
0.0 0.0 -4.128826107987911
0.0 0.0 -4.228291201146883
0.0 0.0 -4.320112283979065
0.0 0.0 -4.4214419230434485
0.0 0.0 -4.51490468077197
0.0 0.0 -4.618069115691956
0.0 0.0 -4.713143782736474
0.0 0.0 -4.818113233432508
0.0 0.0 -4.9147700161818415
0.0 0.0 -5.021514676419179
0.0 0.0 -5.11972375686761
0.0 0.0 -5.228213797670355
0.0 0.0 -5.32794533662439
0.0 0.0 -5.4381509092890665
0.0 0.0 -5.5393750492010225
0.0 0.0 -5.651266287962599
0.0 0.0 -5.753953155440839
0.0 0.0 -5.867500179838231
0.0 0.0 -5.971619887878298
0.0 0.0 -6.08679280486094
0.0 0.0 -6.192315454836804
0.0 0.0 -6.309084360649384
0.0 0.0 -6.415980044099995
0.0 0.0 -6.534315025978603
0.0 0.0 -6.6425538262210795
0.0 0.0 -6.762424963930574
0.0 0.0 -6.87197695752853
0.0 0.0 -6.993354324768267
0.0 0.0 -7.104189582881132
0.0 0.0 -7.227043248583804
0.0 0.0 -7.339131838220929
0.0 0.0 -7.463431867767454
0.0 0.0 -7.576743852969063
0.0 0.0 -7.702460309340869
0.0 0.0 -7.816965752306746
0.0 0.0 -7.944068697195743
0.0 0.0 -8.059737659381494
0.0 0.0 -8.188197154277395
0.0 0.0 -8.304999697477559
0.0 0.0 -8.434785804751717
0.0 0.0 -8.55269199218898
0.0 0.0 -8.68377477619372
0.0 0.0 -8.802754673633336
0.0 0.0 -8.935104201836351
0.0 0.0 -9.055127878745427
0.0 0.0 -9.18871422291909
0.0 0.0 -9.309751753691256
0.0 0.0 -9.444544991177992
0.0 0.0 -9.566566456445011
0.0 0.0 -9.702536671521008
0.0 0.0 -9.82551215957457
0.0 0.0 -9.9626294449359
0.0 0.0 -10.086529053284691
0.0 0.0 -10.22476351168219
0.0 0.0 -10.349557348771727
0.0 0.0 -10.48887909482345
0.0 0.0 -10.614537281949254
0.0 0.0 -10.75491644416261
0.0 0.0 -10.881409117610275
0.0 0.0 -11.022815840649653
0.0 0.0 -11.150113154099895
0.0 0.0 -11.292517601339732
0.0 0.0 -11.420589728580813
0.0 0.0 -11.563962084989292
0.0 0.0 -11.692779222984626
0.0 0.0 -11.837089698388638
0.0 0.0 -11.966622070753456
0.0 0.0 -12.111840903542156
0.0 0.0 -12.242058764490022
0.0 0.0 -12.388156225821362
0.0 0.0 -12.519029864648742
0.0 0.0 -12.665976263231348
0.0 0.0 -12.797476009417037
0.0 0.0 -12.945241696948269
0.0 0.0 -13.07733792595271
0.0 0.0 -13.225893303302787
0.0 0.0 -13.358556443161355
0.0 0.0 -13.507871967401387
0.0 0.0 -13.641072506213535
0.0 0.0 -13.791118698592673
0.0 0.0 -13.924827193014341
0.0 0.0 -14.075574647994657
0.0 0.0 -14.209761732842212
0.0 0.0 -14.361181128297078
0.0 0.0 -14.49581752736309
0.0 0.0 -14.647879636029655
0.0 0.0 -14.78293617418622
0.0 0.0 -14.935611876426249
0.0 0.0 -15.07105949303939
0.0 0.0 -15.224319790889075
0.0 0.0 -15.360129554466235
0.0 0.0 -15.513945586818235
0.0 0.0 -15.65008871062607
0.0 0.0 -15.804431769139622
0.0 0.0 -15.940879627198944
0.0 0.0 -16.095721172097566
0.0 0.0 -16.23244531438236
0.0 0.0 -16.38775698853482
0.0 0.0 -16.52472915318328
0.0 0.0 -16.680482791530988
0.0 0.0 -16.817674910081625
0.0 0.0 -16.973842539156514
0.0 0.0 -17.111226727630996
0.0 0.0 -17.267780545886094
0.0 0.0 -17.405329068777018
0.0 0.0 -17.562241391591986
0.0 0.0 -17.699926575161793
0.0 0.0 -17.85716971724643
0.0 0.0 -17.994963768284155
0.0 0.0 -18.152509820846944
0.0 0.0 -18.290384467596766
0.0 0.0 -18.448204920011005
0.0 0.0 -18.586130718001257
0.0 0.0 -18.744195948854337
0.0 0.0 -18.882141006441273
0.0 0.0 -19.040420182081725
0.0 0.0 -19.1783485545849
0.0 0.0 -19.33681215000582
0.0 0.0 -19.47469114131054
0.0 0.0 -19.633276621408044
0.0 0.0 0.0
0.0 0.0 -0.0008586351624048354
0.0 0.0 -0.003165210526332234
0.0 0.0 -0.007189607726006366
0.0 0.0 -0.012375254361747022
0.0 0.0 -0.019418601911791743
0.0 0.0 -0.027356980190211794
0.0 0.0 -0.03731216238918906
0.0 0.0 -0.04791376422926465
0.0 0.0 -0.06070666399690223
0.0 0.0 -0.07391042925591951
0.0 0.0 -0.08949079549575988
0.0 0.0 -0.1052552062761168
0.0 0.0 -0.12358842602722178
0.0 0.0 -0.14188422106725349
0.0 0.0 -0.162945102680421
0.0 0.0 -0.18375012249090664
0.0 0.0 -0.20751871119946172
0.0 0.0 -0.23081455227141723
0.0 0.0 -0.2572734835911652
0.0 0.0 -0.28304342131960597
0.0 0.0 -0.3121763013032756
0.0 0.0 -0.3404040343923
0.0 0.0 -0.37219447271501266
0.0 0.0 -0.4028633846620661
0.0 0.0 -0.43729443671058815
0.0 0.0 -0.47038718070573005
0.0 0.0 -0.5074410453947973
0.0 0.0 -0.5429393313630972
0.0 0.0 -0.5825972085751985
0.0 0.0 -0.6204817160032934
0.0 0.0 -0.6627237628013384
0.0 0.0 -0.7029741307197063
0.0 0.0 -0.7477794773808263
0.0 0.0 -0.7903743402502231
0.0 0.0 -0.8377211410271951
0.0 0.0 -0.8826381903828872
0.0 0.0 -0.9325036928366135
0.0 0.0 -0.9797197517615438
0.0 0.0 -1.0320803743528602
0.0 0.0 -1.0815714765931215
0.0 0.0 -1.1364028880740147
0.0 0.0 -1.1881443567396437
0.0 0.0 -1.2454215534258013
0.0 0.0 -1.2993880762819467
0.0 0.0 -1.3590854549583142
0.0 0.0 -1.4152511546605488
0.0 0.0 -1.4773425799573514
0.0 0.0 -1.535681078455319
0.0 0.0 -1.6001399442262025
0.0 0.0 -1.6606244211099583
0.0 0.0 -1.7274237057764574
0.0 0.0 -1.7900269506766038
0.0 0.0 -1.8591392667620648
0.0 0.0 -1.9238337261105587
0.0 0.0 -1.99523136433143
0.0 0.0 -2.061989182893792
0.0 0.0 -2.135644151247178
0.0 0.0 -2.204437208881631
0.0 0.0 -2.2803212671922304
0.0 0.0 -2.3511212112993163
0.0 0.0 -2.4292059016842633
0.0 0.0 -2.5019841757963115
0.0 0.0 -2.5822408494850295
0.0 0.0 -2.6569687184181148
0.0 0.0 -2.7393685593338057
0.0 0.0 -2.816017131291786
0.0 0.0 -2.900531176766564
0.0 0.0 -2.9790714227513817
0.0 0.0 -3.0656705817114345
0.0 0.0 -3.146073352558544
0.0 0.0 -3.234728421481024
0.0 0.0 -3.3169644628049415
0.0 0.0 -3.407646139715507
0.0 0.0 -3.491686105018972
0.0 0.0 -3.5843650017686826
0.0 0.0 -3.670179463940018
0.0 0.0 -3.7648261169727335
0.0 0.0 -3.8523855783698586
0.0 0.0 -3.948970458166569
0.0 0.0 -4.038245359462678
0.0 0.0 -4.136738878827048
0.0 0.0 -4.227699606772138
0.0 0.0 -4.328072128101893
0.0 0.0 -4.420689022335816
0.0 0.0 -4.522910864007276
0.0 0.0 -4.6171542230436895
0.0 0.0 -4.721195665021365
0.0 0.0 -4.817035751507589
0.0 0.0 -4.9228670402773815
0.0 0.0 -5.020274085622596
0.0 0.0 -5.127865438535308
0.0 0.0 -5.2268096469884755
0.0 0.0 -5.336131256090087
0.0 0.0 -5.436582808339375
0.0 0.0 -5.547604843755433
0.0 0.0 -5.649533900112498
0.0 0.0 -5.762226513046285
0.0 0.0 -5.865603216271495
0.0 0.0 -5.979936541668752
0.0 0.0 -6.08473101948712
0.0 0.0 -6.200675178414265
0.0 0.0 -6.306857545766415
0.0 0.0 -6.424382647544178
0.0 0.0 -6.531923008612048
0.0 0.0 -6.65099915274211
0.0 0.0 -6.759867602785016
0.0 0.0 -6.88046488070361
0.0 0.0 -6.990631507737076
0.0 0.0 -7.112720004426419
0.0 0.0 -7.224154890773373
0.0 0.0 -7.347704686259414
0.0 0.0 -7.460377910001065
0.0 0.0 -7.585359080763912
0.0 0.0 -7.699240717115845
0.0 0.0 -7.825623337437689
0.0 0.0 -7.94068346007561
0.0 0.0 -8.068437603349913
0.0 0.0 -8.184646285708185
0.0 0.0 -8.313742025733381
0.0 0.0 -8.431069342299386
0.0 0.0 -8.561476754579733
0.0 0.0 -8.679892782206984
0.0 0.0 -8.811581945283605
0.0 0.0 -8.931056764546643
0.0 0.0 -9.0639977613823
0.0 0.0 -9.18450145799742
0.0 0.0 -9.31866437743946
0.0 0.0 -9.440167043776384
0.0 0.0 -9.575521982123828
0.0 0.0 -9.697993718835123
0.0 0.0 -9.834510781537647
0.0 0.0 -9.95792169933485
0.0 0.0 -10.095571002853935
0.0 0.0 -10.219891224461946
0.0 0.0 -10.358642898327322
0.0 0.0 -10.483842560652091
0.0 0.0 -10.623666749750235
0.0 0.0 -10.7497160062985
0.0 0.0 -10.89058287343446
0.0 0.0 -11.017451897029085
0.0 0.0 -11.159331625807747
0.0 0.0 -11.28699061164796
0.0 0.0 -11.429853409727166
0.0 0.0 -11.55827257884945
0.0 0.0 -11.702088681624504
0.0 0.0 -11.831238284827712
0.0 0.0 -11.975977959615292
0.0 0.0 -12.105828281922857
0.0 0.0 -12.251461832722361
0.0 0.0 -12.38198319846513
0.0 0.0 -12.528480971387223
0.0 0.0 -12.659643750003479
0.0 0.0 -12.806976139469283
0.0 0.0 -12.93875075213329
0.0 0.0 -13.086888207964352
0.0 0.0 -13.219245135172374
0.0 0.0 -13.368158170710291
0.0 0.0 -13.501067960973934
0.0 0.0 -13.65072716239069
0.0 0.0 -13.78416044221096
0.0 0.0 -13.934536479196824
0.0 0.0 -14.068463964519715
0.0 0.0 -14.219527602564229
0.0 0.0 -14.353920111948623
0.0 0.0 -14.505642226461207
0.0 0.0 -14.640470696221787
0.0 0.0 -14.792822288769981
0.0 0.0 -14.928057790387271
0.0 0.0 -15.081010007357488
0.0 0.0 -15.216623767468603
0.0 0.0 -15.370147921465882
0.0 0.0 -15.506111344747579
0.0 0.0 -15.66017893902959
0.0 0.0 -15.79646363423388
0.0 0.0 -15.951046390382382
0.0 0.0 -16.087624199632064
0.0 0.0 -16.24269408843344
0.0 0.0 -16.379537119531076
0.0 0.0 -16.535066394536535
0.0 0.0 -16.672147055286644
0.0 0.0 -16.82810828750472
0.0 0.0 -16.96539931948545
0.0 0.0 -17.12176542965644
0.0 0.0 -17.259239935602817
0.0 0.0 -17.415984216631568
0.0 0.0 -17.553615668457144
0.0 0.0 -17.710711783230973
0.0 0.0 -17.84847398113991
0.0 0.0 -18.005895907550503
0.0 0.0 -18.143762818946374
0.0 0.0 -18.301484692033274
0.0 0.0 -18.439429984728395
0.0 0.0 -18.597425762854982
0.0 0.0 -18.735421514909103
0.0 0.0 -18.893664448066158
0.0 0.0 -19.031677569192286
0.0 0.0 -19.19014009748456
0.0 0.0 -19.328123536155836
0.0 0.0 -19.48678364507863
0.0 0.0 -19.62471389437499
0.0 0.0 0.0
0.0 0.0 -0.000813337140736043
0.0 0.0 -0.003300671682136159
0.0 0.0 -0.007109048120666641
0.0 0.0 -0.012721460582962257
0.0 0.0 -0.01937729164757564
0.0 0.0 -0.027984017337942497
0.0 0.0 -0.037373018595175854
0.0 0.0 -0.04887526521179632
0.0 0.0 -0.06091292019376417
0.0 0.0 -0.07523893205379154
0.0 0.0 -0.08986462362980943
0.0 0.0 -0.10696330577705139
0.0 0.0 -0.12413392235029373
0.0 0.0 -0.1439687359481221
0.0 0.0 -0.16365305490719168
0.0 0.0 -0.18619700116634436
0.0 0.0 -0.20837131551681393
0.0 0.0 -0.23360319638251692
0.0 0.0 -0.258248167728965
0.0 0.0 -0.2861499719097455
0.0 0.0 -0.3132484835867626
0.0 0.0 -0.3438036412413895
0.0 0.0 -0.3733393933145365
0.0 0.0 -0.4065316563544333
0.0 0.0 -0.4384882830457795
0.0 0.0 -0.4743010382333513
0.0 0.0 -0.5086615814726232
0.0 0.0 -0.5470774547774319
0.0 0.0 -0.5838240745828881
0.0 0.0 -0.6248247269941409
0.0 0.0 -0.6639385656853145
0.0 0.0 -0.7075046117988868
0.0 0.0 -0.7489657554518776
0.0 0.0 -0.795076758390411
0.0 0.0 -0.8388642575663702
0.0 0.0 -0.8874987693063128
0.0 0.0 -0.9335906939612681
0.0 0.0 -0.9847263207924905
0.0 0.0 -1.0330998330604713
0.0 0.0 -1.086713313127083
0.0 0.0 -1.1373447475920453
0.0 0.0 -1.1934120323079325
0.0 0.0 -1.2462769773319549
0.0 0.0 -1.3047733116792364
0.0 0.0 -1.3598466879615883
0.0 0.0 -1.420746686787698
0.0 0.0 -1.4780028210270006
0.0 0.0 -1.5412805398181129
0.0 0.0 -1.600693232437441
0.0 0.0 -1.6663222319097315
0.0 0.0 -1.727864818486196
0.0 0.0 -1.7958182228703248
0.0 0.0 -1.8594636293248163
0.0 0.0 -1.9297141785364653
0.0 0.0 -1.9954349703788083
0.0 0.0 -2.0679550664451605
0.0 0.0 -2.1357234924971604
0.0 0.0 -2.2104852406968183
0.0 0.0 -2.280273271771828
0.0 0.0 -2.357248516977184
0.0 0.0 -2.429027880007217
0.0 0.0 -2.508188238715885
0.0 0.0 -2.581930446803661
0.0 0.0 -2.663247335323541
0.0 0.0 -2.7389237141686578
0.0 0.0 -2.8223683733887057
0.0 0.0 -2.89995008450175
0.0 0.0 -2.9854936016433657
0.0 0.0 -3.0649516627237197
0.0 0.0 -3.152564990429384
0.0 0.0 -3.2338702932445056
0.0 0.0 -3.32352426632305
0.0 0.0 -3.4066475923907795
0.0 0.0 -3.4983129425036212
0.0 0.0 -3.5832249768452855
0.0 0.0 -3.676872345385629
0.0 0.0 -3.763543688586976
0.0 0.0 -3.859143637974722
0.0 0.0 -3.947544816763864
0.0 0.0 -4.04506784035263
0.0 0.0 -4.1351693168793515
0.0 0.0 -4.234585847648603
0.0 0.0 -4.326358027627319
0.0 0.0 -4.42763844581179
0.0 0.0 -4.521051685670883
0.0 0.0 -4.624166325461192
0.0 0.0 -4.719190938624287
0.0 0.0 -4.8241100940564525
0.0 0.0 -4.9207163564660545
0.0 0.0 -5.027410286603513
0.0 0.0 -5.125568441584205
0.0 0.0 -5.234007375083598
0.0 0.0 -5.333687637630454
0.0 0.0 -5.443841776771533
0.0 0.0 -5.545014337339268
0.0 0.0 -5.656853861589935
0.0 0.0 -5.759488889449534
0.0 0.0 -5.872983958628847
0.0 0.0 -5.977051604850845
0.0 0.0 -6.092172361945711
0.0 0.0 -6.197642762062691
0.0 0.0 -6.314359335747894
0.0 0.0 -6.421202612143135
0.0 0.0 -6.539485119049118
0.0 0.0 -6.647671383113504
0.0 0.0 -6.767489929881876
0.0 0.0 -6.876989283977055
0.0 0.0 -6.9983139691400424
0.0 0.0 -7.109096508402469
0.0 0.0 -7.231897424119469
0.0 0.0 -7.343933238137117
0.0 0.0 -7.468180471818969
0.0 0.0 -7.581439646210247
0.0 0.0 -7.707103282059821
0.0 0.0 -7.821555899982622
0.0 0.0 -7.948606020478874
0.0 0.0 -8.064222164096305
0.0 0.0 -8.192628851448085
0.0 0.0 -8.309378603376672
0.0 0.0 -8.439111940971852
0.0 0.0 -8.556965385737913
0.0 0.0 -8.687995459613424
0.0 0.0 -8.80692268514333
0.0 0.0 -8.939219585502142
0.0 0.0 -9.059190684672698
0.0 0.0 -9.192724507474544
0.0 0.0 -9.313709579751084
0.0 0.0 -9.448450428405135
0.0 0.0 -9.570419581596328
0.0 0.0 -9.706337568785937
0.0 0.0 -9.829260920946576
0.0 0.0 -9.966326170618588
0.0 0.0 -10.090173852134292
0.0 0.0 -10.228356501688552
0.0 0.0 -10.353098657579835
0.0 0.0 -10.49236886029812
0.0 0.0 -10.617975652785354
0.0 0.0 -10.758303580543902
0.0 0.0 -10.884745191919706
0.0 0.0 -11.026101038234712
0.0 0.0 -11.153347674096445
0.0 0.0 -11.295701657558528
0.0 0.0 -11.423723550460803
0.0 0.0 -11.567045918622638
0.0 0.0 -11.695813332218385
0.0 0.0 -11.840074366008917
0.0 0.0 -11.969557599758023
0.0 0.0 -12.11472761850839
0.0 0.0 -12.244897013045549
0.0 0.0 -12.390946380225602
0.0 0.0 -12.521772323494336
0.0 0.0 -12.668671453275527
0.0 0.0 -12.800124387554057
0.0 0.0 -12.947843752335215
0.0 0.0 -13.079894182302668
0.0 0.0 -13.228404321360806
0.0 0.0 -13.36102282338077
0.0 0.0 -13.510294352840326
0.0 0.0 -13.643451585673947
0.0 0.0 -13.793455210027588
0.0 0.0 -13.927121927232399
0.0 0.0 -14.077828452695496
0.0 0.0 -14.211975517021187
0.0 0.0 -14.36335586706382
0.0 0.0 -14.497954267225401
0.0 0.0 -14.64997950070281
0.0 0.0 -14.785000370997322
0.0 0.0 -14.937641703395965
0.0 0.0 -15.073056346736333
0.0 0.0 -15.226285175171602
0.0 0.0 -15.362065090242472
0.0 0.0 -15.515853022988928
0.0 0.0 -15.65196993638777
0.0 0.0 -15.806288827895813
0.0 0.0 -15.942714732306966
0.0 0.0 -16.097536724858408
0.0 0.0 -16.234243924508846
0.0 0.0 -16.38954149787691
0.0 0.0 -16.526502662709618
0.0 0.0 -16.68224869339036
0.0 0.0 -16.819436923473173
0.0 0.0 -16.975604755188105
0.0 0.0 -17.112993656596977
0.0 0.0 -17.2695571837409
0.0 0.0 -17.407120955744787
0.0 0.0 -17.56405472120726
0.0 0.0 -17.70176824960589
0.0 0.0 -17.85904755830954
0.0 0.0 -17.996886493163437
0.0 0.0 -18.154487545419723
0.0 0.0 -18.29242828508955
0.0 0.0 -18.450328351254683
0.0 0.0 -18.588347655650303
0.0 0.0 -18.746525385353326
0.0 0.0 -18.884598590039666
0.0 0.0 -19.043034753902777
0.0 0.0 -19.18112834082339
0.0 0.0 -19.339807340950905
0.0 0.0 -19.477843467811947
0.0 0.0 -19.636739020111747
0.0 0.0 0.0
0.0 0.0 -0.0008689690368970137
0.0 0.0 -0.00321416107780045
0.0 0.0 -0.0073069802824346445
0.0 0.0 -0.012590629120499018
0.0 0.0 -0.0197599062405745
0.0 0.0 -0.027849399519519986
0.0 0.0 -0.037977284665528015
0.0 0.0 -0.04876912136248814
0.0 0.0 -0.06176558183443161
0.0 0.0 -0.07518212771952495
0.0 0.0 -0.09098067511237598
0.0 0.0 -0.10696525523208386
0.0 0.0 -0.12551769067782834
0.0 0.0 -0.14402929334180545
0.0 0.0 -0.16530059158521948
0.0 0.0 -0.18630908851820074
0.0 0.0 -0.21027305227105195
0.0 0.0 -0.23375533681074806
0.0 0.0 -0.2603912311343528
0.0 0.0 -0.28632833398227975
0.0 0.0 -0.31561845101825214
0.0 0.0 -0.3439935114796707
0.0 0.0 -0.3759215014021358
0.0 0.0 -0.40671841086082816
0.0 0.0 -0.4412681928599312
0.0 0.0 -0.47447073190567374
0.0 0.0 -0.5116258204663654
0.0 0.0 -0.5472171419064222
0.0 0.0 -0.5869602585879286
0.0 0.0 -0.6249226041718416
0.0 0.0 -0.6672354791901476
0.0 0.0 -0.7075500492551563
0.0 0.0 -0.7524133452515231
0.0 0.0 -0.7950602651175561
0.0 0.0 -0.8424535767530023
0.0 0.0 -0.8874119218283937
0.0 0.0 -0.9373138201632003
0.0 0.0 -0.9845616745641947
0.0 0.0 -1.0369497758773147
0.0 0.0 -1.0864643082240355
0.0 0.0 -1.14131535423098
0.0 0.0 -1.1930729002780582
0.0 0.0 -1.2503628416084056
0.0 0.0 -1.3043389873625324
0.0 0.0 -1.3640430654003708
0.0 0.0 -1.4202127269992932
0.0 0.0 -1.482305551302748
0.0 0.0 -1.5406430496256727
0.0 0.0 -1.6050986694960436
0.0 0.0 -1.6655777985518048
0.0 0.0 -1.7323697681732386
0.0 0.0 -1.7949638569797717
0.0 0.0 -1.864065294069441
0.0 0.0 -1.928747262137619
0.0 0.0 -2.0001309003498102
0.0 0.0 -2.066873307111251
0.0 0.0 -2.1405115426038885
0.0 0.0 -2.209286631238585
0.0 0.0 -2.285151563888433
0.0 0.0 -2.3559313000555435
0.0 0.0 -2.4339947698321787
0.0 0.0 -2.5067508758128807
0.0 0.0 -2.5869844948131893
0.0 0.0 -2.661688479555783
0.0 0.0 -2.7440636601742963
0.0 0.0 -2.820686845699725
0.0 0.0 -2.9051748253743486
0.0 0.0 -2.983688369962138
0.0 0.0 -3.070260232895294
0.0 0.0 -3.150635151429897
0.0 0.0 -3.239261847645167
0.0 0.0 -3.321469029463279
0.0 0.0 -3.4121213915191744
0.0 0.0 -3.4961316160613625
0.0 0.0 -3.588780373708008
0.0 0.0 -3.6745643242435797
0.0 0.0 -3.7691801172751513
0.0 0.0 -3.8567083929379584
0.0 0.0 -3.95326178246416
0.0 0.0 -4.042504908808858
0.0 0.0 -4.1409663871420985
0.0 0.0 -4.231894825405466
0.0 0.0 -4.3322348247368305
0.0 0.0 -4.424818979966443
0.0 0.0 -4.527007879982742
0.0 0.0 -4.621218108175795
0.0 0.0 -4.725226242751505
0.0 0.0 -4.82103285712931
0.0 0.0 -4.926830520211207
0.0 0.0 -5.024203796739831
0.0 0.0 -5.131761247527906
0.0 0.0 -5.230671429782156
0.0 0.0 -5.339958897298115
0.0 0.0 -5.440376200754624
0.0 0.0 -5.551363887878436
0.0 0.0 -5.653258503713456
0.0 0.0 -5.765916590759103
0.0 0.0 -5.869258689217985
0.0 0.0 -5.9835573371114705
0.0 0.0 -6.08831707050917
0.0 0.0 -6.20422642362479
0.0 0.0 -6.310373929030357
0.0 0.0 -6.4278641177352185
0.0 0.0 -6.535369519387556
0.0 0.0 -6.65441066233921
0.0 0.0 -6.763244073836716
0.0 0.0 -6.88380628007441
0.0 0.0 -6.993937806377065
0.0 0.0 -7.1159911772434645
0.0 0.0 -7.227390916522687
0.0 0.0 -7.350905547450025
0.0 0.0 -7.463543592818868
0.0 0.0 -7.588489575010878
0.0 0.0 -7.702336016165138
0.0 0.0 -7.828683438204524
0.0 0.0 -7.943708363003707
0.0 0.0 -8.071427312413467
0.0 0.0 -8.187600808429393
0.0 0.0 -8.316661373215616
0.0 0.0 -8.43395352927609
0.0 0.0 -8.56432579947938
0.0 0.0 -8.682706707234235
0.0 0.0 -8.814360776517194
0.0 0.0 -8.933800532054281
0.0 0.0 -9.066706499353222
0.0 0.0 -9.187175204893089
0.0 0.0 -9.321303176163154
0.0 0.0 -9.442770941862383
0.0 0.0 -9.578091031947132
0.0 0.0 -9.700527977842519
0.0 0.0 -9.83701031250132
0.0 0.0 -9.960386570629556
0.0 0.0 -10.098001288759114
0.0 0.0 -10.222287005490024
0.0 0.0 -10.361004261579902
0.0 0.0 -10.486169600205447
0.0 0.0 -10.625959567072146
0.0 0.0 -10.751974710698178
0.0 0.0 -10.892807582547857
0.0 0.0 -11.019642737341782
0.0 0.0 -11.161488733218059
0.0 0.0 -11.289114132072907
0.0 0.0 -11.431943499754412
0.0 0.0 -11.560329406438449
0.0 0.0 -11.70411242686042
0.0 0.0 -11.833229140732156
0.0 0.0 -11.977936133018073
0.0 0.0 -12.107753994399616
0.0 0.0 -12.253355321603305
0.0 0.0 -12.383844717920656
0.0 0.0 -12.530310793596945
0.0 0.0 -12.661442166415856
0.0 0.0 -12.80874346215976
0.0 0.0 -12.940487315270177
0.0 0.0 -13.088594369392322
0.0 0.0 -13.220921278125214
0.0 0.0 -13.36980470566581
0.0 0.0 -13.502685327665723
0.0 0.0 -13.652315831993736
0.0 0.0 -13.785720919720308
0.0 0.0 -13.936069306021608
0.0 0.0 -14.069969721318259
0.0 0.0 -14.221006912350097
0.0 0.0 -14.355373643502238
0.0 0.0 -14.507070698087759
0.0 0.0 -14.641874879902925
0.0 0.0 -14.794203014765491
0.0 0.0 -14.929415952352588
0.0 0.0 -15.082346568056407
0.0 0.0 -15.217939765173334
0.0 0.0 -15.371444477158827
0.0 0.0 -15.507389670254756
0.0 0.0 -15.661440346256168
0.0 0.0 -15.797709545682409
0.0 0.0 -15.95227835122407
0.0 0.0 -16.088843891565418
0.0 0.0 -16.24390334580644
0.0 0.0 -16.380737947956938
0.0 0.0 -16.53626099298635
0.0 0.0 -16.673337841557533
0.0 0.0 -16.829297929516528
0.0 0.0 -16.966590770575767
0.0 0.0 -17.122961975092963
0.0 0.0 -17.260445241271363
0.0 0.0 -17.417202403589165
0.0 0.0 -17.554851376293282
0.0 0.0 -17.711970304726997
0.0 0.0 -17.849761325368483
0.0 0.0 -18.00721908719341
0.0 0.0 -18.14512982429582
0.0 0.0 -18.302905227248516
0.0 0.0 -18.440914964192558
0.0 0.0 -18.59898950765444
0.0 0.0 -18.737079212323984
0.0 0.0 -18.89543940905044
0.0 0.0 -19.033590420763776
0.0 0.0 -19.192234720694415
0.0 0.0 -19.33041956162626
0.0 0.0 -19.489384940644314
0.0 0.0 -19.627467579196196
0.0 0.0 0.0
0.0 0.0 -0.0008181621781529294
0.0 0.0 -0.0033237267527739234
0.0 0.0 -0.007164472314733439
0.0 0.0 -0.012823451625534549
0.0 0.0 -0.019539430746573997
0.0 0.0 -0.02821869687486098
0.0 0.0 -0.037691053783893765
0.0 0.0 -0.049285626322543345
0.0 0.0 -0.06142261060085949
0.0 0.0 -0.0758529898427132
0.0 0.0 -0.09058621860787709
0.0 0.0 -0.10779390401286067
0.0 0.0 -0.12507349161918455
0.0 0.0 -0.1450159699433578
0.0 0.0 -0.16480559857547417
0.0 0.0 -0.18745166476587782
0.0 0.0 -0.2097242694929914
0.0 0.0 -0.23505014295970855
0.0 0.0 -0.2597844878836696
0.0 0.0 -0.28777084830868616
0.0 0.0 -0.31494900123889596
0.0 0.0 -0.34557886823812073
0.0 0.0 -0.3751844442660895
0.0 0.0 -0.40844174111577136
0.0 0.0 -0.44045874315936195
0.0 0.0 -0.4763273732722304
0.0 0.0 -0.5107394671924025
0.0 0.0 -0.549202754710079
0.0 0.0 -0.5859928464463009
0.0 0.0 -0.6270332250579705
0.0 0.0 -0.6661832400290227
0.0 0.0 -0.7097821052227713
0.0 0.0 -0.7512728986538113
0.0 0.0 -0.7974105638978313
0.0 0.0 -0.8412219128113133
0.0 0.0 -0.8898776291481818
0.0 0.0 -0.9359882728944217
0.0 0.0 -0.9871402850213101
0.0 0.0 -1.0355279925807845
0.0 0.0 -1.08915361391801
0.0 0.0 -1.1397952639946314
0.0 0.0 -1.1958709596451353
0.0 0.0 -1.2487426248074422
0.0 0.0 -1.3072440955791542
0.0 0.0 -1.3623211251731626
0.0 0.0 -1.4232233886406773
0.0 0.0 -1.4804804874579978
0.0 0.0 -1.5437579538534876
0.0 0.0 -1.6031692549871175
0.0 0.0 -1.6687957968620621
0.0 0.0 -1.7303349280923968
0.0 0.0 -1.798283943406021
0.0 0.0 -1.8619240870156608
0.0 0.0 -1.9321685557345465
0.0 0.0 -1.9978825019765842
0.0 0.0 -2.070395036513825
0.0 0.0 -2.138155231136714
0.0 0.0 -2.212908121085482
0.0 0.0 -2.2826867074029584
0.0 0.0 -2.3596519590723677
0.0 0.0 -2.431420815094742
0.0 0.0 -2.5105701863643723
0.0 0.0 -2.5843009575011613
0.0 0.0 -2.6656059884929744
0.0 0.0 -2.741270116310953
0.0 0.0 -2.8247021563455816
0.0 0.0 -2.9022709038304977
0.0 0.0 -2.987801135096476
0.0 0.0 -3.067245608826676
0.0 0.0 -3.1548450671503265
0.0 0.0 -3.2361362367498843
0.0 0.0 -3.325775829813753
0.0 0.0 -3.408884545013574
0.0 0.0 -3.5005350683330865
0.0 0.0 -3.5854320739317336
0.0 0.0 -3.67906422486477
0.0 0.0 -3.7657201738473796
0.0 0.0 -3.861304563879414
0.0 0.0 -3.9496900289225763
0.0 0.0 -4.047197194441496
0.0 0.0 -4.137282678005014
0.0 0.0 -4.2366830897539485
0.0 0.0 -4.328439032936184
0.0 0.0 -4.429703104310198
0.0 0.0 -4.523099894622498
0.0 0.0 -4.626197988954867
0.0 0.0 -4.721205967151688
0.0 0.0 -4.826108404117928
0.0 0.0 -4.92269787020294
0.0 0.0 -5.029374931455352
0.0 0.0 -5.12751614996925
0.0 0.0 -5.235938084101285
0.0 0.0 -5.335601288784491
0.0 0.0 -5.445738315712358
0.0 0.0 -5.54689371362482
0.0 0.0 -5.658716028463592
0.0 0.0 -5.7613338036342725
0.0 0.0 -5.8748115801367815
0.0 0.0 -5.978861896807165
0.0 0.0 -6.093965290426418
0.0 0.0 -6.199418295945225
0.0 0.0 -6.3161174465741885
0.0 0.0 -6.42294327399433
0.0 0.0 -6.541208308431502
0.0 0.0 -6.649377078855064
0.0 0.0 -6.769178113039175
0.0 0.0 -6.8786599377518
0.0 0.0 -6.999967078805181
0.0 0.0 -7.110732061237371
0.0 0.0 -7.233515409353926
0.0 0.0 -7.345533646903956
0.0 0.0 -7.46976329711503
0.0 0.0 -7.5830048828655565
0.0 0.0 -7.708650926714854
0.0 0.0 -7.823085951073509
0.0 0.0 -7.950118478230546
0.0 0.0 -8.065717030523496
0.0 0.0 -8.194106130364226
0.0 0.0 -8.310838300410671
0.0 0.0 -8.44055406359294
0.0 0.0 -8.558389943288516
0.0 0.0 -8.689402463350373
0.0 0.0 -8.808312148287426
0.0 0.0 -8.940591523296469
0.0 0.0 -9.060545114449779
0.0 0.0 -9.194061448732768
0.0 0.0 -9.315029054240695
0.0 0.0 -9.449752460224163
0.0 0.0 -9.571704197296883
0.0 0.0 -9.707604797491438
0.0 0.0 -9.830510794480277
0.0 0.0 -9.967558723644196
0.0 0.0 -10.091389122309105
0.0 0.0 -10.229554529830033
0.0 0.0 -10.354279487846172
0.0 0.0 -10.493532540383836
0.0 0.0 -10.619122234132664
0.0 0.0 -10.759433118571014
0.0 0.0 -10.885857746267003
0.0 0.0 -11.02719667303008
0.0 0.0 -11.154426458241042
0.0 0.0 -11.29676366503436
0.0 0.0 -11.42476886066169
0.0 0.0 -11.56807461671017
0.0 0.0 -11.696825509504977
0.0 0.0 -11.841070120369572
0.0 0.0 -11.970537036073456
0.0 0.0 -12.11569084914171
0.0 0.0 -12.245844158355384
0.0 0.0 -12.391877569118543
0.0 0.0 -12.522687694020233
0.0 0.0 -12.669571153269269
0.0 0.0 -12.801008575328167
0.0 0.0 -12.948712597427885
0.0 0.0 -13.080747866286703
0.0 0.0 -13.229243038719456
0.0 0.0 -13.361846782457421
0.0 0.0 -13.51110377686995
0.0 0.0 -13.644246713905261
0.0 0.0 -13.794236298946435
0.0 0.0 -13.92788925189841
0.0 0.0 -14.07858230820594
0.0 0.0 -14.212716220118308
0.0 0.0 -14.364083757904801
0.0 0.0 -14.498669711337111
0.0 0.0 -14.650682891147975
0.0 0.0 -14.785692130782985
0.0 0.0 -14.938322288161617
0.0 0.0 -15.073726247765334
0.0 0.0 -15.226944922779799
0.0 0.0 -15.362715257606064
0.0 0.0 -15.516494230491261
0.0 0.0 -15.652602856573994
0.0 0.0 -15.806914191158347
0.0 0.0 -15.94333333342617
0.0 0.0 -16.098149430603826
0.0 0.0 -16.234851682457993
0.0 0.0 -16.39014534683969
0.0 0.0 -16.52710374488266
0.0 0.0 -16.68284826910856
0.0 0.0 -16.820036388313824
0.0 0.0 -16.976205661742352
0.0 0.0 -17.113597738888974
0.0 0.0 -17.270166391400124
0.0 0.0 -17.40773748865223
0.0 0.0 -17.564681088420006
0.0 0.0 -17.702407315238133
0.0 0.0 -17.859702657981906
0.0 0.0 -17.997561477972663
0.0 0.0 -18.155187054279804
0.0 0.0 -18.293157708300367
0.0 0.0 -18.45109458174919
0.0 0.0 -18.58915862953204
0.0 0.0 -18.747392445615734
0.0 0.0 -18.88553425073481
0.0 0.0 -19.044060972779494
0.0 0.0 -19.182267226044676
0.0 0.0 -19.34111499978281
0.0 0.0 -19.479368438193053
0.0 0.0 -19.638777600043706
0.0 0.0 0.0
0.0 0.0 -0.0008689690369046582
0.0 0.0 -0.0032141610778294314
0.0 0.0 -0.007306980282497945
0.0 0.0 -0.01259062912060876
0.0 0.0 -0.019759906240741955
0.0 0.0 -0.027849399519755586
0.0 0.0 -0.03797728466584129
0.0 0.0 -0.048769121362887774
0.0 0.0 -0.06176558183492553
0.0 0.0 -0.07518212772012033
0.0 0.0 -0.09098067511307918
0.0 0.0 -0.1069652552329007
0.0 0.0 -0.12551769067876392
0.0 0.0 -0.14402929334286468
0.0 0.0 -0.16530059158640636
0.0 0.0 -0.1863090885195191
0.0 0.0 -0.21027305227250492
0.0 0.0 -0.2337553368123388
0.0 0.0 -0.26039123113608376
0.0 0.0 -0.2863283339841533
0.0 0.0 -0.3156184510202706
0.0 0.0 -0.3439935114818357
0.0 0.0 -0.3759215014044493
0.0 0.0 -0.40671841086329147
0.0 0.0 -0.4412681928625465
0.0 0.0 -0.47447073190844113
0.0 0.0 -0.5116258204692877
0.0 0.0 -0.547217141909499
0.0 0.0 -0.5869602585911627
0.0 0.0 -0.6249226041752325
0.0 0.0 -0.6672354791936975
0.0 0.0 -0.707550049258865
0.0 0.0 -0.7524133452553924
0.0 0.0 -0.7950602651215855
0.0 0.0 -0.8424535767571938
0.0 0.0 -0.8874119218327464
0.0 0.0 -0.9373138201677169
0.0 0.0 -0.9845616745688747
0.0 0.0 -1.0369497758821582
0.0 0.0 -1.0864643082290424
0.0 0.0 -1.1413153542361514
0.0 0.0 -1.1930729002833935
0.0 0.0 -1.2503628416139059
0.0 0.0 -1.304338987368198
0.0 0.0 -1.3640430654062037
0.0 0.0 -1.4202127270052916
0.0 0.0 -1.4823055513089136
0.0 0.0 -1.540643049632005
0.0 0.0 -1.605098669502544
0.0 0.0 -1.6655777985584717
0.0 0.0 -1.7323697681800727
0.0 0.0 -1.7949638569867712
0.0 0.0 -1.864065294076607
0.0 0.0 -1.92874726214495
0.0 0.0 -2.0001309003573073
0.0 0.0 -2.0668733071189136
0.0 0.0 -2.1405115426117165
0.0 0.0 -2.209286631246576
0.0 0.0 -2.285151563896589
0.0 0.0 -2.3559313000638613
0.0 0.0 -2.433994769840659
0.0 0.0 -2.5067508758215227
0.0 0.0 -2.5869844948219924
0.0 0.0 -2.6616884795647437
0.0 0.0 -2.7440636601834174
0.0 0.0 -2.8206868457090035
0.0 0.0 -2.905174825383785
0.0 0.0 -2.9836883699717305
0.0 0.0 -3.070260232905043
0.0 0.0 -3.1506351514398014
0.0 0.0 -3.2392618476552233
0.0 0.0 -3.32146902947349
0.0 0.0 -3.412121391529536
0.0 0.0 -3.4961316160718736
0.0 0.0 -3.588780373718665
0.0 0.0 -3.6745643242543813
0.0 0.0 -3.7691801172860955
0.0 0.0 -3.856708392949042
0.0 0.0 -3.9532617824753817
0.0 0.0 -4.042504908820216
0.0 0.0 -4.140966387153587
0.0 0.0 -4.2318948254170845
0.0 0.0 -4.33223482474858
0.0 0.0 -4.4248189799783235
0.0 0.0 -4.527007879994748
0.0 0.0 -4.621218108187927
0.0 0.0 -4.72522624276376
0.0 0.0 -4.821032857141684
0.0 0.0 -4.926830520223698
0.0 0.0 -5.024203796752434
0.0 0.0 -5.131761247540621
0.0 0.0 -5.230671429794982
0.0 0.0 -5.339958897311054
0.0 0.0 -5.440376200767671
0.0 0.0 -5.551363887891589
0.0 0.0 -5.653258503726713
0.0 0.0 -5.765916590772468
0.0 0.0 -5.869258689231447
0.0 0.0 -5.983557337125042
0.0 0.0 -6.088317070522833
0.0 0.0 -6.20422642363856
0.0 0.0 -6.310373929044213
0.0 0.0 -6.427864117749175
0.0 0.0 -6.535369519401598
0.0 0.0 -6.654410662353347
0.0 0.0 -6.763244073850939
0.0 0.0 -6.883806280088716
0.0 0.0 -6.993937806391465
0.0 0.0 -7.115991177257945
0.0 0.0 -7.227390916537254
0.0 0.0 -7.350905547464667
0.0 0.0 -7.463543592833587
0.0 0.0 -7.58848957502567
0.0 0.0 -7.702336016180002
0.0 0.0 -7.82868343821946
0.0 0.0 -7.9437083630187155
0.0 0.0 -8.071427312428543
0.0 0.0 -8.18760080844453
0.0 0.0 -8.316661373230827
0.0 0.0 -8.433953529291369
0.0 0.0 -8.564325799494723
0.0 0.0 -8.682706707249642
0.0 0.0 -8.814360776532673
0.0 0.0 -8.933800532069835
0.0 0.0 -9.066706499368852
0.0 0.0 -9.187175204908797
0.0 0.0 -9.32130317617894
0.0 0.0 -9.442770941878248
0.0 0.0 -9.578091031963082
0.0 0.0 -9.700527977858547
0.0 0.0 -9.837010312517439
0.0 0.0 -9.960386570645753
0.0 0.0 -10.098001288775412
0.0 0.0 -10.222287005506395
0.0 0.0 -10.361004261596362
0.0 0.0 -10.48616960022199
0.0 0.0 -10.62595956708878
0.0 0.0 -10.751974710714904
0.0 0.0 -10.89280758256467
0.0 0.0 -11.0196427373587
0.0 0.0 -11.161488733235075
0.0 0.0 -11.28911413209003
0.0 0.0 -11.431943499771632
0.0 0.0 -11.56032940645578
0.0 0.0 -11.704112426877856
0.0 0.0 -11.833229140749701
0.0 0.0 -11.977936133035728
0.0 0.0 -12.107753994417385
0.0 0.0 -12.253355321621187
0.0 0.0 -12.383844717938643
0.0 0.0 -12.530310793615044
0.0 0.0 -12.661442166434073
0.0 0.0 -12.808743462178096
0.0 0.0 -12.94048731528863
0.0 0.0 -13.088594369410892
0.0 0.0 -13.220921278143898
0.0 0.0 -13.369804705684615
0.0 0.0 -13.502685327684622
0.0 0.0 -13.652315832012736
0.0 0.0 -13.785720919739395
0.0 0.0 -13.936069306040789
0.0 0.0 -14.069969721337511
0.0 0.0 -14.221006912369438
0.0 0.0 -14.355373643521643
0.0 0.0 -14.507070698107245
0.0 0.0 -14.64187487992248
0.0 0.0 -14.79420301478513
0.0 0.0 -14.929415952372283
0.0 0.0 -15.082346568076163
0.0 0.0 -15.217939765193131
0.0 0.0 -15.37144447717867
0.0 0.0 -15.507389670274657
0.0 0.0 -15.661440346276105
0.0 0.0 -15.797709545702386
0.0 0.0 -15.952278351244093
0.0 0.0 -16.08884389158549
0.0 0.0 -16.24390334582657
0.0 0.0 -16.380737947977117
0.0 0.0 -16.536260993006586
0.0 0.0 -16.673337841577823
0.0 0.0 -16.82929792953687
0.0 0.0 -16.96659077059618
0.0 0.0 -17.122961975113437
0.0 0.0 -17.260445241291904
0.0 0.0 -17.41720240360976
0.0 0.0 -17.554851376313945
0.0 0.0 -17.711970304747712
0.0 0.0 -17.849761325389267
0.0 0.0 -18.007219087214246
0.0 0.0 -18.145129824316715
0.0 0.0 -18.30290522726947
0.0 0.0 -18.440914964213572
0.0 0.0 -18.59898950767551
0.0 0.0 -18.7370792123451
0.0 0.0 -18.895439409071624
0.0 0.0 -19.033590420785
0.0 0.0 -19.192234720715692
0.0 0.0 -19.330419561647584
0.0 0.0 -19.48938494066568
0.0 0.0 -19.627467579217615
0.0 0.0 0.0
0.0 0.0 -0.0008133371407514628
0.0 0.0 -0.0033006716821946573
0.0 0.0 -0.007109048120794198
0.0 0.0 -0.012721460583183249
0.0 0.0 -0.01937729164791265
0.0 0.0 -0.027984017338416243
0.0 0.0 -0.03737301859580542
0.0 0.0 -0.048875265212599016
0.0 0.0 -0.060912920194755714
0.0 0.0 -0.07523893205498604
0.0 0.0 -0.08986462363121986
0.0 0.0 -0.10696330577868896
0.0 0.0 -0.1241339223521691
0.0 0.0 -0.14396873595024426
0.0 0.0 -0.1636530549095692
0.0 0.0 -0.1861970011689844
0.0 0.0 -0.20837131551972332
0.0 0.0 -0.23360319638570132
0.0 0.0 -0.2582481677324298
0.0 0.0 -0.28614997191349545
0.0 0.0 -0.31324848359080165
0.0 0.0 -0.3438036412457217
0.0 0.0 -0.37333939331916527
0.0 0.0 -0.40653165635936234
0.0 0.0 -0.43848828305101073
0.0 0.0 -0.474301038238889
0.0 0.0 -0.5086615814784673
0.0 0.0 -0.5470774547835883
0.0 0.0 -0.5838240745893554
0.0 0.0 -0.6248247270009246
0.0 0.0 -0.6639385656924137
0.0 0.0 -0.7075046118063056
0.0 0.0 -0.7489657554596145
0.0 0.0 -0.79507675839847
0.0 0.0 -0.8388642575747508
0.0 0.0 -0.8874987693150194
0.0 0.0 -0.9335906939702985
0.0 0.0 -0.9847263208018492
0.0 0.0 -1.033099833070156
0.0 0.0 -1.0867133131370956
0.0 0.0 -1.137344747602386
0.0 0.0 -1.1934120323186033
0.0 0.0 -1.2462769773429556
0.0 0.0 -1.3047733116905689
0.0 0.0 -1.3598466879732511
0.0 0.0 -1.4207466867996958
0.0 0.0 -1.4780028210393306
0.0 0.0 -1.5412805398307776
0.0 0.0 -1.6006932324504377
0.0 0.0 -1.6663222319230615
0.0 0.0 -1.727864818499859
0.0 0.0 -1.7958182228843216
0.0 0.0 -1.8594636293391427
0.0 0.0 -1.929714178551124
0.0 0.0 -1.9954349703937995
0.0 0.0 -2.0679550664604798
0.0 0.0 -2.1357234925128092
0.0 0.0 -2.210485240712797
0.0 0.0 -2.2802732717881318
0.0 0.0 -2.3572485169938173
0.0 0.0 -2.4290278800241754
0.0 0.0 -2.508188238733167
0.0 0.0 -2.5819304468212634
0.0 0.0 -2.6632473353414645
0.0 0.0 -2.738923714186897
0.0 0.0 -2.822368373407262
0.0 0.0 -2.8999500845206208
0.0 0.0 -2.9854936016625495
0.0 0.0 -3.064951662743215
0.0 0.0 -3.1525649904491884
0.0 0.0 -3.233870293264621
0.0 0.0 -3.3235242663434685
0.0 0.0 -3.4066475924115043
0.0 0.0 -3.4983129425246413
0.0 0.0 -3.5832249768666005
0.0 0.0 -3.676872345407233
0.0 0.0 -3.7635436886088667
0.0 0.0 -3.8591436379968926
0.0 0.0 -3.947544816786311
0.0 0.0 -4.0450678403753475
0.0 0.0 -4.135169316902338
0.0 0.0 -4.234585847671848
0.0 0.0 -4.326358027650826
0.0 0.0 -4.427638445835552
0.0 0.0 -4.521051685694899
0.0 0.0 -4.624166325485459
0.0 0.0 -4.7191909386488
0.0 0.0 -4.824110094081208
0.0 0.0 -4.92071635649104
0.0 0.0 -5.027410286628731
0.0 0.0 -5.1255684416096505
0.0 0.0 -5.234007375109267
0.0 0.0 -5.333687637656348
0.0 0.0 -5.443841776797641
0.0 0.0 -5.545014337365589
0.0 0.0 -5.656853861616471
0.0 0.0 -5.759488889476268
0.0 0.0 -5.872983958655801
0.0 0.0 -5.977051604877986
0.0 0.0 -6.092172361973067
0.0 0.0 -6.197642762090229
0.0 0.0 -6.314359335775639
0.0 0.0 -6.421202612171051
0.0 0.0 -6.539485119077231
0.0 0.0 -6.647671383141786
0.0 0.0 -6.767489929910341
0.0 0.0 -6.8769892840056945
0.0 0.0 -6.998313969168847
0.0 0.0 -7.109096508431448
0.0 0.0 -7.231897424148605
0.0 0.0 -7.34393323816641
0.0 0.0 -7.468180471848411
0.0 0.0 -7.581439646239836
0.0 0.0 -7.707103282089553
0.0 0.0 -7.821555900012501
0.0 0.0 -7.948606020508891
0.0 0.0 -8.064222164126456
0.0 0.0 -8.192628851478377
0.0 0.0 -8.309378603407087
0.0 0.0 -8.439111941002409
0.0 0.0 -8.556965385768596
0.0 0.0 -8.687995459644254
0.0 0.0 -8.8069226851743
0.0 0.0 -8.939219585533264
0.0 0.0 -9.059190684703974
0.0 0.0 -9.19272450750597
0.0 0.0 -9.31370957978267
0.0 0.0 -9.448450428436887
0.0 0.0 -9.570419581628236
0.0 0.0 -9.706337568818025
0.0 0.0 -9.829260920978818
0.0 0.0 -9.966326170651017
0.0 0.0 -10.090173852166878
0.0 0.0 -10.228356501721326
0.0 0.0 -10.35309865761277
0.0 0.0 -10.492368860331238
0.0 0.0 -10.617975652818648
0.0 0.0 -10.758303580577389
0.0 0.0 -10.884745191953389
0.0 0.0 -11.026101038268578
0.0 0.0 -11.15334767413052
0.0 0.0 -11.29570165759279
0.0 0.0 -11.42372355049529
0.0 0.0 -11.56704591865732
0.0 0.0 -11.695813332253296
0.0 0.0 -11.840074366044034
0.0 0.0 -11.969557599793362
0.0 0.0 -12.114727618543942
0.0 0.0 -12.24489701308132
0.0 0.0 -12.390946380261603
0.0 0.0 -12.52177232353057
0.0 0.0 -12.668671453311982
0.0 0.0 -12.800124387590747
0.0 0.0 -12.947843752372151
0.0 0.0 -13.079894182339832
0.0 0.0 -13.228404321398196
0.0 0.0 -13.361022823418374
0.0 0.0 -13.510294352878141
0.0 0.0 -13.643451585711972
0.0 0.0 -13.7934552100658
0.0 0.0 -13.927121927270774
0.0 0.0 -14.077828452734055
0.0 0.0 -14.211975517059898
0.0 0.0 -14.363355867102694
0.0 0.0 -14.497954267264413
0.0 0.0 -14.649979500741965
0.0 0.0 -14.7850003710366
0.0 0.0 -14.937641703435391
0.0 0.0 -15.073056346775864
0.0 0.0 -15.226285175211242
0.0 0.0 -15.362065090282215
0.0 0.0 -15.515853023028745
0.0 0.0 -15.6519699364277
0.0 0.0 -15.806288827935838
0.0 0.0 -15.942714732347087
0.0 0.0 -16.097536724898628
0.0 0.0 -16.234243924549162
0.0 0.0 -16.38954149791733
0.0 0.0 -16.526502662750143
0.0 0.0 -16.682248693431003
0.0 0.0 -16.819436923513937
0.0 0.0 -16.97560475522898
0.0 0.0 -17.11299365663798
0.0 0.0 -17.269557183782027
0.0 0.0 -17.40712095578605
0.0 0.0 -17.56405472124863
0.0 0.0 -17.7017682496474
0.0 0.0 -17.85904755835115
0.0 0.0 -17.99688649320517
0.0 0.0 -18.154487545461578
0.0 0.0 -18.292428285131503
0.0 0.0 -18.45032835129676
0.0 0.0 -18.588347655692495
0.0 0.0 -18.74652538539564
0.0 0.0 -18.884598590082057
0.0 0.0 -19.043034753945282
0.0 0.0 -19.18112834086597
0.0 0.0 -19.339807340993588
0.0 0.0 -19.47784346785472
0.0 0.0 -19.636739020154614
0.0 0.0 0.0
0.0 0.0 -0.0008586351624284301
0.0 0.0 -0.0031652105264212294
0.0 0.0 -0.00718960772620024
0.0 0.0 -0.012375254362082373
0.0 0.0 -0.01941860191230242
0.0 0.0 -0.027356980190928953
0.0 0.0 -0.03731216239014097
0.0 0.0 -0.04791376423047715
0.0 0.0 -0.060706663998398566
0.0 0.0 -0.07391042925772091
0.0 0.0 -0.08949079549788502
0.0 0.0 -0.1052552062785831
0.0 0.0 -0.12358842603004422
0.0 0.0 -0.14188422107044607
0.0 0.0 -0.16294510268399576
0.0 0.0 -0.18375012249487518
0.0 0.0 -0.20751871120383344
0.0 0.0 -0.23081455227620137
0.0 0.0 -0.2572734835963692
0.0 0.0 -0.2830434213252372
0.0 0.0 -0.3121763013093403
0.0 0.0 -0.3404040343988037
0.0 0.0 -0.37219447272196104
0.0 0.0 -0.40286338466946314
0.0 0.0 -0.4372944367184401
0.0 0.0 -0.47038718071403834
0.0 0.0 -0.507441045403569
0.0 0.0 -0.5429393313723319
0.0 0.0 -0.582597208584904
0.0 0.0 -0.6204817160134681
0.0 0.0 -0.6627237628119897
0.0 0.0 -0.7029741307308319
0.0 0.0 -0.7477794773924338
0.0 0.0 -0.7903743402623103
0.0 0.0 -0.8377211410397681
0.0 0.0 -0.8826381903959439
0.0 0.0 -0.9325036928501605
0.0 0.0 -0.979719751775577
0.0 0.0 -1.0320803743673856
0.0 0.0 -1.0815714766081377
0.0 0.0 -1.1364028880895252
0.0 0.0 -1.1881443567556473
0.0 0.0 -1.2454215534423014
0.0 0.0 -1.2993880762989418
0.0 0.0 -1.3590854549758093
0.0 0.0 -1.4152511546785405
0.0 0.0 -1.4773425799758437
0.0 0.0 -1.5356810784743091
0.0 0.0 -1.600139944245693
0.0 0.0 -1.6606244211299472
0.0 0.0 -1.7274237057969464
0.0 0.0 -1.7900269506975885
0.0 0.0 -1.85913926678355
0.0 0.0 -1.9238337261325398
0.0 0.0 -1.9952313643539061
0.0 0.0 -2.0619891829167663
0.0 0.0 -2.135644151270645
0.0 0.0 -2.204437208905591
0.0 0.0 -2.280321267216684
0.0 0.0 -2.351121211324258
0.0 0.0 -2.429205901709692
0.0 0.0 -2.5019841758222263
0.0 0.0 -2.582240849511427
0.0 0.0 -2.656968718444991
0.0 0.0 -2.739368559361161
0.0 0.0 -2.8160171313196147
0.0 0.0 -2.900531176794866
0.0 0.0 -2.979071422780156
0.0 0.0 -3.0656705817406755
0.0 0.0 -3.1460733525882523
0.0 0.0 -3.234728421511192
0.0 0.0 -3.3169644628355712
0.0 0.0 -3.407646139746587
0.0 0.0 -3.491686105050501
0.0 0.0 -3.5843650018006508
0.0 0.0 -3.670179463972423
0.0 0.0 -3.7648261170055672
0.0 0.0 -3.8523855784031165
0.0 0.0 -3.9489704582002405
0.0 0.0 -4.038245359496759
0.0 0.0 -4.136738878861527
0.0 0.0 -4.227699606807017
0.0 0.0 -4.32807212813716
0.0 0.0 -4.42068902237147
0.0 0.0 -4.5229108640433076
0.0 0.0 -4.617154223080094
0.0 0.0 -4.72119566505814
0.0 0.0 -4.817035751544722
0.0 0.0 -4.922867040314873
0.0 0.0 -5.020274085660439
0.0 0.0 -5.1278654385735
0.0 0.0 -5.22680964702701
0.0 0.0 -5.336131256128955
0.0 0.0 -5.436582808378574
0.0 0.0 -5.547604843794961
0.0 0.0 -5.649533900152331
0.0 0.0 -5.762226513086448
0.0 0.0 -5.86560321631195
0.0 0.0 -5.979936541709531
0.0 0.0 -6.084731019528176
0.0 0.0 -6.2006751784556355
0.0 0.0 -6.306857545808053
0.0 0.0 -6.424382647586118
0.0 0.0 -6.531923008654245
0.0 0.0 -6.650999152784595
0.0 0.0 -6.759867602827752
0.0 0.0 -6.880464880746604
0.0 0.0 -6.990631507780322
0.0 0.0 -7.112720004469895
0.0 0.0 -7.224154890817099
0.0 0.0 -7.347704686303365
0.0 0.0 -7.460377910045241
0.0 0.0 -7.585359080808309
0.0 0.0 -7.699240717160462
0.0 0.0 -7.825623337482512
0.0 0.0 -7.940683460120643
0.0 0.0 -8.068437603395154
0.0 0.0 -8.184646285753619
0.0 0.0 -8.31374202577903
0.0 0.0 -8.431069342345225
0.0 0.0 -8.561476754625794
0.0 0.0 -8.679892782253244
0.0 0.0 -8.811581945330094
0.0 0.0 -8.931056764593354
0.0 0.0 -9.063997761429244
0.0 0.0 -9.184501458044602
0.0 0.0 -9.318664377486884
0.0 0.0 -9.440167043824044
0.0 0.0 -9.575521982171749
0.0 0.0 -9.697993718883273
0.0 0.0 -9.83451078158607
0.0 0.0 -9.95792169938351
0.0 0.0 -10.095571002902881
0.0 0.0 -10.219891224511127
0.0 0.0 -10.358642898376784
0.0 0.0 -10.483842560701815
0.0 0.0 -10.623666749800245
0.0 0.0 -10.749716006348788
0.0 0.0 -10.890582873485037
0.0 0.0 -11.017451897079964
0.0 0.0 -11.159331625858918
0.0 0.0 -11.286990611699446
0.0 0.0 -11.429853409778943
0.0 0.0 -11.558272578901558
0.0 0.0 -11.702088681676914
0.0 0.0 -11.831238284880461
0.0 0.0 -11.975977959668349
0.0 0.0 -12.105828281976237
0.0 0.0 -12.25146183277608
0.0 0.0 -12.381983198519181
0.0 0.0 -12.528480971441605
0.0 0.0 -12.659643750058219
0.0 0.0 -12.806976139524368
0.0 0.0 -12.938750752188723
0.0 0.0 -13.08688820802014
0.0 0.0 -13.219245135228498
0.0 0.0 -13.368158170766753
0.0 0.0 -13.501067961030708
0.0 0.0 -13.650727162447751
0.0 0.0 -13.784160442268309
0.0 0.0 -13.934536479254453
0.0 0.0 -14.068463964577587
0.0 0.0 -14.219527602622371
0.0 0.0 -14.353920112006985
0.0 0.0 -14.505642226519802
0.0 0.0 -14.640470696280575
0.0 0.0 -14.79282228882899
0.0 0.0 -14.928057790446445
0.0 0.0 -15.081010007416863
0.0 0.0 -15.21662376752815
0.0 0.0 -15.370147921525582
0.0 0.0 -15.506111344807453
0.0 0.0 -15.660178939089608
0.0 0.0 -15.796463634294051
0.0 0.0 -15.9510463904427
0.0 0.0 -16.08762419969251
0.0 0.0 -16.242694088494048
0.0 0.0 -16.37953711959183
0.0 0.0 -16.535066394597465
0.0 0.0 -16.672147055347736
0.0 0.0 -16.82810828756599
0.0 0.0 -16.965399319546904
0.0 0.0 -17.121765429718064
0.0 0.0 -17.259239935664645
0.0 0.0 -17.415984216693566
0.0 0.0 -17.553615668519345
0.0 0.0 -17.710711783293338
0.0 0.0 -17.84847398120248
0.0 0.0 -18.005895907613226
0.0 0.0 -18.143762819009282
0.0 0.0 -18.301484692096345
0.0 0.0 -18.439429984791627
0.0 0.0 -18.597425762918395
0.0 0.0 -18.735421514972657
0.0 0.0 -18.893664448129872
0.0 0.0 -19.031677569256114
0.0 0.0 -19.190140097548525
0.0 0.0 -19.328123536219934
0.0 0.0 -19.486783645142857
0.0 0.0 -19.624713894439335
0.0 0.0 0.0
0.0 0.0 -0.0007960443025482987
0.0 0.0 -0.003219183222049695
0.0 0.0 -0.00691484077693779
0.0 0.0 -0.01236709961929041
0.0 0.0 -0.0188188469121031
0.0 0.0 -0.027183023116482203
0.0 0.0 -0.036297535987233356
0.0 0.0 -0.047500361112455376
0.0 0.0 -0.05922062843922463
0.0 0.0 -0.07321782146181313
0.0 0.0 -0.08750911505772688
0.0 0.0 -0.10427286195954123
0.0 0.0 -0.12111220709815616
0.0 0.0 -0.14062280589231135
0.0 0.0 -0.15999262149383242
0.0 0.0 -0.1822337807714304
0.0 0.0 -0.20411847287384904
0.0 0.0 -0.22907487841820845
0.0 0.0 -0.2534591205396499
0.0 0.0 -0.2811152314935487
0.0 0.0 -0.3079831303686091
0.0 0.0 -0.33832260870091396
0.0 0.0 -0.3676573217934728
0.0 0.0 -0.40066278409974465
0.0 0.0 -0.4324463675913503
0.0 0.0 -0.4680993022378702
0.0 0.0 -0.5023126780678361
0.0 0.0 -0.5405934483149573
0.0 0.0 -0.5772164333935317
0.0 0.0 -0.6181043253941892
0.0 0.0 -0.6571156929876324
0.0 0.0 -0.7005889865237406
0.0 0.0 -0.7419665432939577
0.0 0.0 -0.788002592795866
0.0 0.0 -0.8317232620162928
0.0 0.0 -0.8802985806004099
0.0 0.0 -0.9263384859547081
0.0 0.0 -0.9774288281672279
0.0 0.0 -1.0257633748148474
0.0 0.0 -1.079343815549448
0.0 0.0 -1.1299477665488271
0.0 0.0 -1.185992774727835
0.0 0.0 -1.2388403218079265
0.0 0.0 -1.2973238281411135
0.0 0.0 -1.352388656396256
0.0 0.0 -1.413284115002078
0.0 0.0 -1.470539461462868
0.0 0.0 -1.5338199054381245
0.0 0.0 -1.5932386117090163
0.0 0.0 -1.6588767029187528
0.0 0.0 -1.7204312622158002
0.0 0.0 -1.7883993356822898
0.0 0.0 -1.8520619346819862
0.0 0.0 -1.9223320380050686
0.0 0.0 -1.9880745939490625
0.0 0.0 -2.060618522207923
0.0 0.0 -2.1284127157132633
0.0 0.0 -2.203202042294417
0.0 0.0 -2.2730193463056962
0.0 0.0 -2.350025450082354
0.0 0.0 -2.421837155377733
0.0 0.0 -2.501031244637951
0.0 0.0 -2.5748084822707966
0.0 0.0 -2.656161615759889
0.0 0.0 -2.7318753767850095
0.0 0.0 -2.8153584821944797
0.0 0.0 -2.892979634994635
0.0 0.0 -2.978563525197124
0.0 0.0 -3.0580628306933613
0.0 0.0 -3.145718217991675
0.0 0.0 -3.2270663429907427
0.0 0.0 -3.31676385161985
0.0 0.0 -3.3999313805237774
0.0 0.0 -3.491641557617831
0.0 0.0 -3.5765990026952226
0.0 0.0 -3.6702923279072226
0.0 0.0 -3.7570101383027064
0.0 0.0 -3.852657032242565
0.0 0.0 -3.9411056018800035
0.0 0.0 -4.038676433517192
0.0 0.0 -4.128826108033889
0.0 0.0 -4.228291201193385
0.0 0.0 -4.320112284026093
0.0 0.0 -4.421441923090989
0.0 0.0 -4.514904680820021
0.0 0.0 -4.618069115740512
0.0 0.0 -4.713143782785523
0.0 0.0 -4.818113233482048
0.0 0.0 -4.9147700162318575
0.0 0.0 -5.0215146764696685
0.0 0.0 -5.119723756918563
0.0 0.0 -5.2282137977217715
0.0 0.0 -5.327945336676257
0.0 0.0 -5.438150909341379
0.0 0.0 -5.5393750492537634
0.0 0.0 -5.651266288015783
0.0 0.0 -5.753953155494425
0.0 0.0 -5.867500179892255
0.0 0.0 -5.9716198879326985
0.0 0.0 -6.086792804915763
0.0 0.0 -6.192315454891995
0.0 0.0 -6.309084360704988
0.0 0.0 -6.415980044155947
0.0 0.0 -6.534315026034945
0.0 0.0 -6.6425538262777595
0.0 0.0 -6.762424963987619
0.0 0.0 -6.871976957585904
0.0 0.0 -6.993354324825963
0.0 0.0 -7.104189582939154
0.0 0.0 -7.227043248642125
0.0 0.0 -7.33913183827956
0.0 0.0 -7.463431867826379
0.0 0.0 -7.576743853028284
0.0 0.0 -7.702460309400373
0.0 0.0 -7.816965752366536
0.0 0.0 -7.944068697255806
0.0 0.0 -8.059737659441828
0.0 0.0 -8.188197154338013
0.0 0.0 -8.304999697538442
0.0 0.0 -8.434785804812892
0.0 0.0 -8.552691992250425
0.0 0.0 -8.683774776255468
0.0 0.0 -8.802754673695377
0.0 0.0 -8.935104201898701
0.0 0.0 -9.05512787880809
0.0 0.0 -9.188714222982071
0.0 0.0 -9.309751753754558
0.0 0.0 -9.44454499124163
0.0 0.0 -9.566566456508966
0.0 0.0 -9.702536671585314
0.0 0.0 -9.825512159639183
0.0 0.0 -9.962629445000877
0.0 0.0 -10.08652905334998
0.0 0.0 -10.224763511747865
0.0 0.0 -10.349557348837742
0.0 0.0 -10.488879094889853
0.0 0.0 -10.614537282016013
0.0 0.0 -10.754916444229771
0.0 0.0 -10.881409117677817
0.0 0.0 -11.022815840717591
0.0 0.0 -11.150113154168242
0.0 0.0 -11.292517601408475
0.0 0.0 -11.420589728649984
0.0 0.0 -11.563962085058863
0.0 0.0 -11.692779223054636
0.0 0.0 -11.837089698459058
0.0 0.0 -11.966622070824316
0.0 0.0 -12.111840903613448
0.0 0.0 -12.242058764561737
0.0 0.0 -12.388156225893523
0.0 0.0 -12.51902986472135
0.0 0.0 -12.665976263304403
0.0 0.0 -12.79747600949056
0.0 0.0 -12.945241697022254
0.0 0.0 -13.077337926027143
0.0 0.0 -13.225893303377665
0.0 0.0 -13.358556443236674
0.0 0.0 -13.507871967477119
0.0 0.0 -13.641072506289682
0.0 0.0 -13.7911186986692
0.0 0.0 -13.924827193091222
0.0 0.0 -14.0755746480719
0.0 0.0 -14.209761732919784
0.0 0.0 -14.361181128374984
0.0 0.0 -14.495817527441282
0.0 0.0 -14.647879636108152
0.0 0.0 -14.782936174264975
0.0 0.0 -14.935611876505284
0.0 0.0 -15.071059493118653
0.0 0.0 -15.224319790968588
0.0 0.0 -15.360129554545988
0.0 0.0 -15.513945586898206
0.0 0.0 -15.65008871070627
0.0 0.0 -15.804431769220022
0.0 0.0 -15.940879627279546
0.0 0.0 -16.09572117217839
0.0 0.0 -16.23244531446337
0.0 0.0 -16.387756988616047
0.0 0.0 -16.524729153264726
0.0 0.0 -16.68048279161268
0.0 0.0 -16.81767491016353
0.0 0.0 -16.973842539238653
0.0 0.0 -17.111226727713387
0.0 0.0 -17.267780545968733
0.0 0.0 -17.405329068859917
0.0 0.0 -17.562241391675116
0.0 0.0 -17.699926575245193
0.0 0.0 -17.85716971733004
0.0 0.0 -17.994963768368024
0.0 0.0 -18.152509820931023
0.0 0.0 -18.290384467681058
0.0 0.0 -18.44820492009552
0.0 0.0 -18.586130718085965
0.0 0.0 -18.744195948939264
0.0 0.0 -18.882141006526357
0.0 0.0 -19.040420182166997
0.0 0.0 -19.178348554670322
0.0 0.0 -19.33681215009141
0.0 0.0 -19.47469114139628
0.0 0.0 -19.63327662149394
0.0 0.0 0.0
0.0 0.0 -0.0008312062329864366
0.0 0.0 -0.003038675227940961
0.0 0.0 -0.00689080240125453
0.0 0.0 -0.011834733500756594
0.0 0.0 -0.018574695559786185
0.0 0.0 -0.02615792632042154
0.0 0.0 -0.03571726687286984
0.0 0.0 -0.04589345805892973
0.0 0.0 -0.0582417400917664
0.0 0.0 -0.07099081405990461
0.0 0.0 -0.08611413628920717
0.0 0.0 -0.10142546246477381
0.0 0.0 -0.11931456659478296
0.0 0.0 -0.13717907635309406
0.0 0.0 -0.15782438345169345
0.0 0.0 -0.17823160104857602
0.0 0.0 -0.2016215497268379
0.0 0.0 -0.22455876020241944
0.0 0.0 -0.25067948521393574
0.0 0.0 -0.27613171598873126
0.0 0.0 -0.3049672004384056
0.0 0.0 -0.3329174615042783
0.0 0.0 -0.3644498147125171
0.0 0.0 -0.39487938455422816
0.0 0.0 -0.42908911946887107
0.0 0.0 -0.46197780547789846
0.0 0.0 -0.4988440784810836
0.0 0.0 -0.534170435390701
0.0 0.0 -0.5736712441641271
0.0 0.0 -0.6114127529273773
0.0 0.0 -0.6535250982349436
0.0 0.0 -0.6936583126422144
0.0 0.0 -0.7383583316050963
0.0 0.0 -0.7808589998620782
0.0 0.0 -0.8281220772837695
0.0 0.0 -0.8729652443283599
0.0 0.0 -0.9227661070640133
0.0 0.0 -0.9699262018857007
0.0 0.0 -1.0222389998690273
0.0 0.0 -1.071689910882653
0.0 0.0 -1.126488287387714
0.0 0.0 -1.1782034280436717
0.0 0.0 -1.2354605810378534
0.0 0.0 -1.2894129472584441
0.0 0.0 -1.3491016832190676
0.0 0.0 -1.4052639038566854
0.0 0.0 -1.4673566851030588
0.0 0.0 -1.5257010663545532
0.0 0.0 -1.5901700527333646
0.0 0.0 -1.6506686172686784
0.0 0.0 -1.7174857028841872
0.0 0.0 -1.7801102243245057
0.0 0.0 -1.8492470699006813
0.0 0.0 -1.9139691031915087
0.0 0.0 -1.9853971645748962
0.0 0.0 -2.0521880727302477
0.0 0.0 -2.1258786259803837
0.0 0.0 -2.1947096036181812
0.0 0.0 -2.2706337670810215
0.0 0.0 -2.341475861122321
0.0 0.0 -2.4196046148380135
0.0 0.0 -2.4924287427014047
0.0 0.0 -2.5727329454590095
0.0 0.0 -2.64750991104507
0.0 0.0 -2.729960315362206
0.0 0.0 -2.806660823090106
0.0 0.0 -2.891228088364644
0.0 0.0 -2.9698227554936687
0.0 0.0 -3.056477459546674
0.0 0.0 -3.1369368269890647
0.0 0.0 -3.225649476193164
0.0 0.0 -3.3079440180009834
0.0 0.0 -3.3986850561660282
0.0 0.0 -3.4827851878535196
0.0 0.0 -3.5755250040213142
0.0 0.0 -3.6614010898654046
0.0 0.0 -3.7561100251473607
0.0 0.0 -3.8437323845920193
0.0 0.0 -3.9403807381678813
0.0 0.0 -4.029719651443141
0.0 0.0 -4.128277685824707
0.0 0.0 -4.219303398877939
0.0 0.0 -4.319741344529338
0.0 0.0 -4.412424073354674
0.0 0.0 -4.5147121327497635
0.0 0.0 -4.609022067191182
0.0 0.0 -4.713130418379
0.0 0.0 -4.809037725473719
0.0 0.0 -4.914936525214376
0.0 0.0 -5.012411352135006
0.0 0.0 -5.120070738661037
0.0 0.0 -5.219083215308194
0.0 0.0 -5.328473310759806
0.0 0.0 -5.428993552050689
0.0 0.0 -5.540084464627708
0.0 0.0 -5.642082572520845
0.0 0.0 -5.754844398389157
0.0 0.0 -5.85829046368095
0.0 0.0 -5.9726932886670046
0.0 0.0 -6.077557392591643
0.0 0.0 -6.193571293694858
0.0 0.0 -6.299823509355824
0.0 0.0 -6.4174185561054555
0.0 0.0 -6.525028949763752
0.0 0.0 -6.644175205444162
0.0 0.0 -6.753113837686025
0.0 0.0 -6.87378136045196
0.0 0.0 -6.984018287256561
0.0 0.0 -7.106177131157969
0.0 0.0 -7.217682404883913
0.0 0.0 -7.341302620818533
0.0 0.0 -7.454046291126627
0.0 0.0 -7.579097927736956
0.0 0.0 -7.693050042465418
0.0 0.0 -7.819503146995953
0.0 0.0 -7.9346337530035065
0.0 0.0 -8.062458372133372
0.0 0.0 -8.178737516125032
0.0 0.0 -8.307903696790683
0.0 0.0 -8.4253014261409
0.0 0.0 -8.555779216363273
0.0 0.0 -8.674265579950847
0.0 0.0 -8.806025029681686
0.0 0.0 -8.925570078751154
0.0 0.0 -9.058581240753314
0.0 0.0 -9.179155029818011
0.0 0.0 -9.313387960595227
0.0 0.0 -9.434960548397903
0.0 0.0 -9.570385309190419
0.0 0.0 -9.6929267597382
0.0 0.0 -9.829513417601742
0.0 0.0 -9.952993801293829
0.0 0.0 -10.090712430280702
0.0 0.0 -10.215101825148151
0.0 0.0 -10.353922507611264
0.0 0.0 -10.479191000690776
0.0 0.0 -10.619083828733086
0.0 0.0 -10.74520151759846
0.0 0.0 -10.886136594693044
0.0 0.0 -11.013073589170729
0.0 0.0 -11.155021031979105
0.0 0.0 -11.282747456077034
0.0 0.0 -11.425677396496656
0.0 0.0 -11.554163390578827
0.0 0.0 -11.698045978053747
0.0 0.0 -11.827261701296422
0.0 0.0 -11.972067105428822
0.0 0.0 -12.10198273859777
0.0 0.0 -12.247681152101666
0.0 0.0 -12.378266900693452
0.0 0.0 -12.52482854273512
0.0 0.0 -12.656054640528607
0.0 0.0 -12.803449760501268
0.0 0.0 -12.935286473567674
0.0 0.0 -13.083485355349254
0.0 0.0 -13.215902986569775
0.0 0.0 -13.364875953311927
0.0 0.0 -13.497844847449073
0.0 0.0 -13.647562266940527
0.0 0.0 -13.781052816301335
0.0 0.0 -13.931485106936877
0.0 0.0 -14.06546775765021
0.0 0.0 -14.216585395014304
0.0 0.0 -14.351030653913561
0.0 0.0 -14.502804177947764
0.0 0.0 -14.637682619999087
0.0 0.0 -14.790082642655342
0.0 0.0 -14.925364918785228
0.0 0.0 -15.078362131957684
0.0 0.0 -15.214018976994511
0.0 0.0 -15.367584160345348
0.0 0.0 -15.503586400565096
0.0 0.0 -15.657690428576716
0.0 0.0 -15.79400898798595
0.0 0.0 -15.948622835120837
0.0 0.0 -16.08522873904103
0.0 0.0 -16.240323481173995
0.0 0.0 -16.37718785478809
0.0 0.0 -16.532734663938246
0.0 0.0 -16.669828722031017
0.0 0.0 -16.825798849630548
0.0 0.0 -16.96309387151831
0.0 0.0 -17.119458612684507
0.0 0.0 -17.256925892923572
0.0 0.0 -17.413656520094815
0.0 0.0 -17.551267280701225
0.0 0.0 -17.70833492953898
0.0 0.0 -17.846060173668377
0.0 0.0 -18.003435659100667
0.0 0.0 -18.141245943461524
0.0 0.0 -18.298899487835058
0.0 0.0 -18.436764608313574
0.0 0.0 -18.594665507853616
0.0 0.0 -18.73255418863952
0.0 0.0 -18.89067060014075
0.0 0.0 -19.028550642902193
0.0 0.0 -19.186849584729277
0.0 0.0 -19.324690593775653
0.0 0.0 -19.4831272799701
0.0 0.0 -19.620932004350152
0.0 0.0 0.0
0.0 0.0 -0.0007528237834211855
0.0 0.0 -0.0030235001510559353
0.0 0.0 -0.0064598507140894166
0.0 0.0 -0.011556699320575443
0.0 0.0 -0.017572115985636613
0.0 0.0 -0.025437191549653557
0.0 0.0 -0.03400801800947645
0.0 0.0 -0.04463894403861352
0.0 0.0 -0.05577292353458218
0.0 0.0 -0.06918062502167063
0.0 0.0 -0.08288799954928651
0.0 0.0 -0.09908010813376072
0.0 0.0 -0.11536509169390383
0.0 0.0 -0.13434221342308547
0.0 0.0 -0.1532019349768073
0.0 0.0 -0.17495800438738937
0.0 0.0 -0.19638354423628657
0.0 0.0 -0.22090713409459375
0.0 0.0 -0.24488488472652958
0.0 0.0 -0.27216050322523655
0.0 0.0 -0.29867334934535456
0.0 0.0 -0.32868248366970854
0.0 0.0 -0.35771070855710824
0.0 0.0 -0.39043260275674746
0.0 0.0 -0.42195455064740434
0.0 0.0 -0.45736676686655486
0.0 0.0 -0.49135931711805036
0.0 0.0 -0.5294381357258456
0.0 0.0 -0.5658770405368418
0.0 0.0 -0.6065977455585078
0.0 0.0 -0.6454578717810598
0.0 0.0 -0.6887949564266469
0.0 0.0 -0.7300504609618468
0.0 0.0 -0.7759777780104717
0.0 0.0 -0.8196022374239041
0.0 0.0 -0.8680931115708594
0.0 0.0 -0.9140596200509743
0.0 0.0 -0.9650869338413819
0.0 0.0 -1.013368179046713
0.0 0.0 -1.066904440224683
0.0 0.0 -1.117472763436829
0.0 0.0 -1.1734901589702547
0.0 0.0 -1.2263176038679564
0.0 0.0 -1.284788044194462
0.0 0.0 -1.339846397168248
0.0 0.0 -1.4007415530732832
0.0 0.0 -1.4580023770789607
0.0 0.0 -1.5212937108694544
0.0 0.0 -1.5807283742121048
0.0 0.0 -1.64638716635658
0.0 0.0 -1.707966867396386
0.0 0.0 -1.775964239476526
0.0 0.0 -1.8396600279818525
0.0 0.0 -1.9099669625829028
0.0 0.0 -1.9757497582773074
0.0 0.0 -2.04833711629723
0.0 0.0 -2.1161777250247953
0.0 0.0 -2.191016260780134
0.0 0.0 -2.2608853886279765
0.0 0.0 -2.337945763062037
0.0 0.0 -2.4098140287171628
0.0 0.0 -2.4890668209632447
0.0 0.0 -2.562904766535155
0.0 0.0 -2.644320484047509
0.0 0.0 -2.7200985845528316
0.0 0.0 -2.8036476719869308
0.0 0.0 -2.8813363436644015
0.0 0.0 -2.966989190663021
0.0 0.0 -3.0465587982645297
0.0 0.0 -3.1342857462854528
0.0 0.0 -3.215706609469996
0.0 0.0 -3.3054779577738307
0.0 0.0 -3.3887203567151376
0.0 0.0 -3.480506367616983
0.0 0.0 -3.5655405479218745
0.0 0.0 -3.659311451397676
0.0 0.0 -3.7461076284203396
0.0 0.0 -3.8418336261477406
0.0 0.0 -3.930361988774697
0.0 0.0 -4.0280132576785315
0.0 0.0 -4.1182439716500125
0.0 0.0 -4.217790667014019
0.0 0.0 -4.3096938778395515
0.0 0.0 -4.411106136038483
0.0 0.0 -4.504651971557465
0.0 0.0 -4.6078999124573095
0.0 0.0 -4.703058485089271
0.0 0.0 -4.808112214157407
0.0 0.0 -4.904853622881372
0.0 0.0 -5.0116832330437076
0.0 0.0 -5.109977565141187
0.0 0.0 -5.218553138418719
0.0 0.0 -5.318370471010984
0.0 0.0 -5.428662079964531
0.0 0.0 -5.529972481371143
0.0 0.0 -5.641950190379569
0.0 0.0 -5.744723721321938
0.0 0.0 -5.85835758771637
0.0 0.0 -5.962564302387591
0.0 0.0 -6.077824377461536
0.0 0.0 -6.183434324481237
0.0 0.0 -6.300290654394382
0.0 0.0 -6.407273877665419
0.0 0.0 -6.525696504257013
0.0 0.0 -6.634023043739129
0.0 0.0 -6.753982005265252
0.0 0.0 -6.863621897679212
0.0 0.0 -6.985087229486913
0.0 0.0 -7.096010508961623
0.0 0.0 -7.218952244111854
0.0 0.0 -7.331128942785759
0.0 0.0 -7.455517112635971
0.0 0.0 -7.568917261223471
0.0 0.0 -7.69472189598021
0.0 0.0 -7.809315524312911
0.0 0.0 -7.936506653564107
0.0 0.0 -8.052263791116507
0.0 0.0 -8.180811444352882
0.0 0.0 -8.29770212076171
0.0 0.0 -8.42757632789641
0.0 0.0 -8.545570573482845
0.0 0.0 -8.676741365378456
0.0 0.0 -8.795809211682295
0.0 0.0 -8.928246620694532
0.0 0.0 -9.048358101029685
0.0 0.0 -9.182032161577201
0.0 0.0 -9.30315731161833
0.0 0.0 -9.438038060788617
0.0 0.0 -9.560146919199026
0.0 0.0 -9.696204397401068
0.0 0.0 -9.819267006512787
0.0 0.0 -9.956471258187564
0.0 0.0 -10.080457664745438
0.0 0.0 -10.218778739146604
0.0 0.0 -10.343658995128857
0.0 0.0 -10.483066947186792
0.0 0.0 -10.608811110716163
0.0 0.0 -10.749276001999847
0.0 0.0 -10.875854138360195
0.0 0.0 -11.017346038152738
0.0 0.0 -11.144728220927702
0.0 0.0 -11.287217207432613
0.0 0.0 -11.41537351978412
0.0 0.0 -11.558829681480876
0.0 0.0 -11.687730217586696
0.0 0.0 -11.832123654755327
0.0 0.0 -11.961738521425941
0.0 0.0 -12.107039347861381
0.0 0.0 -12.237338666357038
0.0 0.0 -12.383517011294092
0.0 0.0 -12.514470919362683
0.0 0.0 -12.661496929631443
0.0 0.0 -12.793075583785843
0.0 0.0 -12.940919426214771
0.0 0.0 -13.073093004264392
0.0 0.0 -13.221724868342005
0.0 0.0 -13.354463572184985
0.0 0.0 -13.503853672980757
0.0 0.0 -13.637127731649274
0.0 0.0 -13.787246312976134
0.0 0.0 -13.921025985904603
0.0 0.0 -14.071843323676362
0.0 0.0 -14.206098904125616
0.0 0.0 -14.357585309817498
0.0 0.0 -14.49228712833152
0.0 0.0 -14.64441295238125
0.0 0.0 -14.779531380066324
0.0 0.0 -14.932267014947008
0.0 0.0 -15.067772466232118
0.0 0.0 -15.221088348767163
0.0 0.0 -15.356951283108126
0.0 0.0 -15.51081789535922
0.0 0.0 -15.64700881705767
0.0 0.0 -15.80139668476217
0.0 0.0 -15.937886139642021
0.0 0.0 -16.092765826658358
0.0 0.0 -16.22952439372098
0.0 0.0 -16.384866490193218
0.0 0.0 -16.521864765494133
0.0 0.0 -16.677639866400256
0.0 0.0 -16.814848435205462
0.0 0.0 -16.97102710455915
0.0 0.0 -17.108416496414083
0.0 0.0 -17.2649692107277
0.0 0.0 -17.40250983087828
0.0 0.0 -17.559406894021162
0.0 0.0 -17.69706892541424
0.0 0.0 -17.854280347072628
0.0 0.0 -17.99203362538227
0.0 0.0 -18.149528959679753
0.0 0.0 -18.287342854989976
0.0 0.0 -18.44509100536983
0.0 0.0 -18.582934438679683
0.0 0.0 -18.74090341612679
0.0 0.0 -18.878745392647726
0.0 0.0 -19.036901660956016
0.0 0.0 -19.17471353066432
0.0 0.0 -19.333017553204765
0.0 0.0 -19.47078659621109
0.0 0.0 -19.62917029659628
0.0 0.0 0.0
0.0 0.0 -0.0007576569700680405
0.0 0.0 -0.0027242043024551356
0.0 0.0 -0.0061814865358069656
0.0 0.0 -0.01060141829232346
0.0 0.0 -0.016721836770419815
0.0 0.0 -0.023622028624808694
0.0 0.0 -0.03246135890390112
0.0 0.0 -0.041901170934336346
0.0 0.0 -0.05351215314850892
0.0 0.0 -0.06553433243600051
0.0 0.0 -0.07994930552901396
0.0 0.0 -0.09457654878015195
0.0 0.0 -0.11180973017835338
0.0 0.0 -0.12904899641758621
0.0 0.0 -0.14910122409261037
0.0 0.0 -0.16894823460288458
0.0 0.0 -0.1918109750879528
0.0 0.0 -0.214253669576566
0.0 0.0 -0.2399119444424867
0.0 0.0 -0.2649329322172925
0.0 0.0 -0.29336735722282475
0.0 0.0 -0.3209456061340122
0.0 0.0 -0.35213378600836287
0.0 0.0 -0.3822457720169751
0.0 0.0 -0.4161632466388645
0.0 0.0 -0.4487837318878833
0.0 0.0 -0.4854046157619579
0.0 0.0 -0.5205071740100631
0.0 0.0 -0.559804588002022
0.0 0.0 -0.5973619594685439
0.0 0.0 -0.639308322615498
0.0 0.0 -0.6792926541564118
0.0 0.0 -0.7238598815735621
0.0 0.0 -0.7662428900013396
0.0 0.0 -0.8134025279093837
0.0 0.0 -0.8581556118792786
0.0 0.0 -0.9078789305611599
0.0 0.0 -0.9549732480386071
0.0 0.0 -1.0072313066254255
0.0 0.0 -1.0566378292806815
0.0 0.0 -1.1114015216220325
0.0 0.0 -1.1630910736975284
0.0 0.0 -1.2203311614652237
0.0 0.0 -1.2742744481251849
0.0 0.0 -1.3339615852311533
0.0 0.0 -1.3901292137179444
0.0 0.0 -1.4522339647554354
0.0 0.0 -1.5105964605614495
0.0 0.0 -1.5750893150717793
0.0 0.0 -1.6356171345989503
0.0 0.0 -1.7024685183678956
0.0 0.0 -1.7651320590614359
0.0 0.0 -1.834312343255371
0.0 0.0 -1.8990819518786208
0.0 0.0 -1.9705614605710375
0.0 0.0 -2.0374074400776503
0.0 0.0 -2.1111564565455865
0.0 0.0 -2.180049071866188
0.0 0.0 -2.25603784392285
0.0 0.0 -2.326947326891018
0.0 0.0 -2.405146071445582
0.0 0.0 -2.478042625026293
0.0 0.0 -2.558421532011225
0.0 0.0 -2.6332753339533377
0.0 0.0 -2.7158045697251265
0.0 0.0 -2.7925857757308377
0.0 0.0 -2.8772354860263096
0.0 0.0 -2.9559142325105445
0.0 0.0 -3.0426545450240132
0.0 0.0 -3.123200951522538
0.0 0.0 -3.2120019781568767
0.0 0.0 -3.2943861494313587
0.0 0.0 -3.385217988267064
0.0 0.0 -3.4694100161473793
0.0 0.0 -3.5622427531666987
0.0 0.0 -3.6482127181647335
0.0 0.0 -3.7430164287624215
0.0 0.0 -3.8307344014865956
0.0 0.0 -3.9274791517945435
0.0 0.0 -4.016915194190402
0.0 0.0 -4.115571042239655
0.0 0.0 -4.206695208678447
0.0 0.0 -4.307232205419125
0.0 0.0 -4.400014543653548
0.0 0.0 -4.502402733850598
0.0 0.0 -4.596813285854449
0.0 0.0 -4.7010227088748895
0.0 0.0 -4.797031511581355
0.0 0.0 -4.903032202086802
0.0 0.0 -5.000609288038264
0.0 0.0 -5.108371276594876
0.0 0.0 -5.207486674515624
0.0 0.0 -5.3169799881321
0.0 0.0 -5.417603723433982
0.0 0.0 -5.528798386037052
0.0 0.0 -5.630900481266907
0.0 0.0 -5.74376651412266
0.0 0.0 -5.847316989359357
0.0 0.0 -5.961824411447769
0.0 0.0 -6.066793284655868
0.0 0.0 -6.182912113005103
0.0 0.0 -6.289269400351287
0.0 0.0 -6.406969650337676
0.0 0.0 -6.514685366475563
0.0 0.0 -6.633937052094491
0.0 0.0 -6.742981210422806
0.0 0.0 -6.863754344535297
0.0 0.0 -6.974096957433944
0.0 0.0 -7.096361551993254
0.0 0.0 -7.207972631041424
0.0 0.0 -7.331698697303665
0.0 0.0 -7.444548253483872
0.0 0.0 -7.56970580220632
0.0 0.0 -7.683763846097887
0.0 0.0 -7.810322887728481
0.0 0.0 -7.925559429693925
0.0 0.0 -8.053489974555298
0.0 0.0 -8.16987502492281
0.0 0.0 -8.299147083394068
0.0 0.0 -8.4166506526393
0.0 0.0 -8.547234235338708
0.0 0.0 -8.665826334269184
0.0 0.0 -8.797691452240938
0.0 0.0 -8.917342092186024
0.0 0.0 -9.050458757094365
0.0 0.0 -9.171137950104228
0.0 0.0 -9.305476174438098
0.0 0.0 -9.427153933495083
0.0 0.0 -9.56268373078696
0.0 0.0 -9.6853300700327
0.0 0.0 -9.822021455095085
0.0 0.0 -9.945606390077318
0.0 0.0 -10.08342937926071
0.0 0.0 -10.207922927203514
0.0 0.0 -10.34684753867997
0.0 0.0 -10.472219718781577
0.0 0.0 -10.612215972857923
0.0 0.0 -10.73843680662048
0.0 0.0 -10.879474726085522
0.0 0.0 -11.006514237680923
0.0 0.0 -11.148563848191191
0.0 0.0 -11.276392064867522
0.0 0.0 -11.419423395375377
0.0 0.0 -11.548010347907748
0.0 0.0 -11.691993431135643
0.0 0.0 -11.821309154324505
0.0 0.0 -11.966214027287938
0.0 0.0 -12.096228560506864
0.0 0.0 -12.242025265086667
0.0 0.0 -12.372708652878584
0.0 0.0 -12.519367236440047
0.0 0.0 -12.650689529157416
0.0 0.0 -12.798180045208696
0.0 0.0 -12.930111299686383
0.0 0.0 -13.07840380856094
0.0 0.0 -13.210914088801442
0.0 0.0 -13.359978658337146
0.0 0.0 -13.493038036172655
0.0 0.0 -13.642844742342897
0.0 0.0 -13.776423298017521
0.0 0.0 -13.92694222544264
0.0 0.0 -14.061010048026121
0.0 0.0 -14.212211290255917
0.0 0.0 -14.346738477753929
0.0 0.0 -14.4985921371559
0.0 0.0 -14.6335487961157
0.0 0.0 -14.786024983124676
0.0 0.0 -14.92138122744028
0.0 0.0 -15.074450058812886
0.0 0.0 -15.210176007301762
0.0 0.0 -15.363807602863325
0.0 0.0 -15.499873375004066
0.0 0.0 -15.65403785216355
0.0 0.0 -15.79041356114042
0.0 0.0 -15.945081026169014
0.0 0.0 -16.081736768055652
0.0 0.0 -16.23687730277542
0.0 0.0 -16.373783140321237
0.0 0.0 -16.52936678245269
0.0 0.0 -16.66649272157539
0.0 0.0 -16.822489436634235
0.0 0.0 -16.959805393578417
0.0 0.0 -17.116185036100863
0.0 0.0 -17.253660793850713
0.0 0.0 -17.4103930562765
0.0 0.0 -17.54799821164285
0.0 0.0 -17.705052560896853
0.0 0.0 -17.8427564723772
0.0 0.0 -18.00010207632684
0.0 0.0 -18.137873846724517
0.0 0.0 -18.29547948618096
0.0 0.0 -18.433288078006623
0.0 0.0 -18.59112197714787
0.0 0.0 -18.7289367385484
0.0 0.0 -18.88696593143468
0.0 0.0 -19.024758425704377
0.0 0.0 -19.18294600453875
0.0 0.0 -19.32069716519912
0.0 0.0 -19.478990531718296
0.0 0.0 -19.61670911940811
0.0 0.0 0.0
0.0 0.0 -0.0006150997381680032
0.0 0.0 -0.0024786248481055415
0.0 0.0 -0.0052855267123557625
0.0 0.0 -0.009606943399177477
0.0 0.0 -0.0147625860970687
0.0 0.0 -0.021726809872783186
0.0 0.0 -0.02938506021413983
0.0 0.0 -0.03911132288406593
0.0 0.0 -0.04936159065604583
0.0 0.0 -0.061915079795379566
0.0 0.0 -0.07480321131784716
0.0 0.0 -0.09021438284669517
0.0 0.0 -0.10575857868559108
0.0 0.0 -0.12403585085736192
0.0 0.0 -0.14223670110796396
0.0 0.0 -0.1633743849720567
0.0 0.0 -0.18422115516681592
0.0 0.0 -0.20820445694648052
0.0 0.0 -0.23167908550485547
0.0 0.0 -0.25848731303054884
0.0 0.0 -0.2845669915153615
0.0 0.0 -0.314175635996088
0.0 0.0 -0.34283449204983807
0.0 0.0 -0.3752165904869314
0.0 0.0 -0.40642679170626433
0.0 0.0 -0.44155382159421447
0.0 0.0 -0.4752863005973581
0.0 0.0 -0.5131287671793097
0.0 0.0 -0.5493536967629963
0.0 0.0 -0.5898815169345164
0.0 0.0 -0.6285686196677355
0.0 0.0 -0.6717513710591614
0.0 0.0 -0.7128701191081234
0.0 0.0 -0.7586771998398191
0.0 0.0 -0.8021969421586009
0.0 0.0 -0.8505976715990728
0.0 0.0 -0.8964877132651585
0.0 0.0 -0.9474513940358699
0.0 0.0 -0.9956810442643955
0.0 0.0 -1.0491769989879354
0.0 0.0 -1.0997155988340048
0.0 0.0 -1.1557131905978133
0.0 0.0 -1.208530127650808
0.0 0.0 -1.2669987701246297
0.0 0.0 -1.322063485015213
0.0 0.0 -1.3829726461292766
0.0 0.0 -1.4402546340095395
0.0 0.0 -1.5035738357445165
0.0 0.0 -1.5630426447954513
0.0 0.0 -1.6287414607336692
0.0 0.0 -1.6903666890201965
0.0 0.0 -1.7584147407109156
0.0 0.0 -1.8221660322203979
0.0 0.0 -1.8925329850194426
0.0 0.0 -1.9583800254020278
0.0 0.0 -2.0310355841896657
0.0 0.0 -2.0989480965122427
0.0 0.0 -2.1738620015271697
0.0 0.0 -2.2438097422197014
0.0 0.0 -2.3209517651407596
0.0 0.0 -2.3929045202291688
0.0 0.0 -2.4722444605694474
0.0 0.0 -2.546172042236461
0.0 0.0 -2.6276797240730203
0.0 0.0 -2.7035519675562623
0.0 0.0 -2.7871972365940327
0.0 0.0 -2.8649839974117453
0.0 0.0 -2.9507367183660334
0.0 0.0 -3.030407869850525
0.0 0.0 -3.118237924125142
0.0 0.0 -3.1997633552390354
0.0 0.0 -3.289640638873921
0.0 0.0 -3.372990252282479
0.0 0.0 -3.4648846741440593
0.0 0.0 -3.5500283845170166
0.0 0.0 -3.6439098647052357
0.0 0.0 -3.7308175972229427
0.0 0.0 -3.8266560656706323
0.0 0.0 -3.9152977547110335
0.0 0.0 -4.013063149953181
0.0 0.0 -4.103408737938318
0.0 0.0 -4.203071006030975
0.0 0.0 -4.295090442413749
0.0 0.0 -4.39661953598435
0.0 0.0 -4.490282776358356
0.0 0.0 -4.59364865377126
0.0 0.0 -4.688925659088392
0.0 0.0 -4.794098283711163
0.0 0.0 -4.890959019593436
0.0 0.0 -4.99790835915119
0.0 0.0 -5.09632279528474
0.0 0.0 -5.2050188212911905
0.0 0.0 -5.304956930891899
0.0 0.0 -5.415369618147183
0.0 0.0 -5.5168013774885045
0.0 0.0 -5.628900703634926
0.0 0.0 -5.731796091629597
0.0 0.0 -5.845552036757493
0.0 0.0 -5.949881034585796
0.0 0.0 -6.0652635808825535
0.0 0.0 -6.170996171660551
0.0 0.0 -6.287975303096594
0.0 0.0 -6.395081471578512
0.0 0.0 -6.513627173624747
0.0 0.0 -6.622076905934228
0.0 0.0 -6.742159165305943
0.0 0.0 -6.8519224486914325
0.0 0.0 -6.9735112531141175
0.0 0.0 -7.084558075724092
0.0 0.0 -7.207623413717061
0.0 0.0 -7.319923764391118
0.0 0.0 -7.4444356250651404
0.0 0.0 -7.557959493137214
0.0 0.0 -7.683887866002486
0.0 0.0 -7.798605241112817
0.0 0.0 -7.92592011589398
0.0 0.0 -8.041800987806381
0.0 0.0 -8.170472354261264
0.0 0.0 -8.287486712682483
0.0 0.0 -8.417484560421363
0.0 0.0 -8.535602394819374
0.0 0.0 -8.666896713121428
0.0 0.0 -8.786088012539327
0.0 0.0 -8.91864879016316
0.0 0.0 -9.038883543025303
0.0 0.0 -9.17268076800988
0.0 0.0 -9.293928961916823
0.0 0.0 -9.428932621369341
0.0 0.0 -9.551164242877679
0.0 0.0 -9.687344322744382
0.0 0.0 -9.810529357127352
0.0 0.0 -9.947855841942818
0.0 0.0 -10.071964272927149
0.0 0.0 -10.21040714553733
0.0 0.0 -10.335408955011044
0.0 0.0 -10.47493819626438
0.0 0.0 -10.600803363949623
0.0 0.0 -10.741388952349777
0.0 0.0 -10.86808745543362
0.0 0.0 -11.009699366746354
0.0 0.0 -11.1372011794614
0.0 0.0 -11.2798093862665
0.0 0.0 -11.40808447941135
0.0 0.0 -11.551658950588562
0.0 0.0 -11.680677290975964
0.0 0.0 -11.825187991111582
0.0 0.0 -11.954919540929245
0.0 0.0 -12.100336429626541
0.0 0.0 -12.230751145691903
0.0 0.0 -12.377044176764176
0.0 0.0 -12.50811200964904
0.0 0.0 -12.655251130168205
0.0 0.0 -12.78694202316261
0.0 0.0 -12.934897172328409
0.0 0.0 -13.067181060203742
0.0 0.0 -13.215922167987896
0.0 0.0 -13.348768975507326
0.0 0.0 -13.498265961013027
0.0 0.0 -13.631645601120416
0.0 0.0 -13.781868370578398
0.0 0.0 -13.915750742175687
0.0 0.0 -14.066669186473177
0.0 0.0 -14.201024171667058
0.0 0.0 -14.35260816327331
0.0 0.0 -14.48740562393507
0.0 0.0 -14.639625013044814
0.0 0.0 -14.77483478647997
0.0 0.0 -14.927659396144195
0.0 0.0 -15.063251289611287
0.0 0.0 -15.216650909562226
0.0 0.0 -15.35259469331452
0.0 0.0 -15.506539072125141
0.0 0.0 -15.642804470584064
0.0 0.0 -15.797263305742698
0.0 0.0 -15.933819986368608
0.0 0.0 -16.088762911829548
0.0 0.0 -16.225580471281646
0.0 0.0 -16.380977042133267
0.0 0.0 -16.51802498950818
0.0 0.0 -16.6738446637028
0.0 0.0 -16.81109240121674
0.0 0.0 -16.967304519031185
0.0 0.0 -17.10472132188775
0.0 0.0 -17.26129508519132
0.0 0.0 -17.398850085438543
0.0 0.0 -17.555754540954904
0.0 0.0 -17.69341672685475
0.0 0.0 -17.85062075877037
0.0 0.0 -17.98835901659693
0.0 0.0 -18.14583134519064
0.0 0.0 -18.283614609648918
0.0 0.0 -18.441323738226743
0.0 0.0 -18.579121435416035
0.0 0.0 -18.737035260707763
0.0 0.0 -18.87481863855514
0.0 0.0 -19.032902625958286
0.0 0.0 -19.170649033842555
0.0 0.0 -19.32885914610068
0.0 0.0 -19.466564026958437
0.0 0.0 -19.624833609097127
0.0 0.0 0.0
0.0 0.0 -0.0004290557800537105
0.0 0.0 -0.001619222710148145
0.0 0.0 -0.004079066307898498
0.0 0.0 -0.0074051280092210375
0.0 0.0 -0.012401138662642718
0.0 0.0 -0.01818315271125554
0.0 0.0 -0.025931553686406303
0.0 0.0 -0.03431980828356483
0.0 0.0 -0.044925454419204966
0.0 0.0 -0.05599214164387699
0.0 0.0 -0.06950305918615009
0.0 0.0 -0.08327797429610873
0.0 0.0 -0.09970999966926428
0.0 0.0 -0.11619817372588748
0.0 0.0 -0.13554790470083583
0.0 0.0 -0.15473931543231143
0.0 0.0 -0.17699151333848273
0.0 0.0 -0.19886680372398066
0.0 0.0 -0.22399885922998466
0.0 0.0 -0.2485328551680467
0.0 0.0 -0.2765175779085694
0.0 0.0 -0.3036815119331212
0.0 0.0 -0.33448890978003715
0.0 0.0 -0.3642518482975953
0.0 0.0 -0.39785027379815513
0.0 0.0 -0.4301800382836752
0.0 0.0 -0.46653692837418753
0.0 0.0 -0.5014006883669805
0.0 0.0 -0.5404830384660658
0.0 0.0 -0.5778476891480602
0.0 0.0 -0.6196223523260834
0.0 0.0 -0.6594547499824204
0.0 0.0 -0.703888620683366
0.0 0.0 -0.7461557244543612
0.0 0.0 -0.7932158462624563
0.0 0.0 -0.8378847984572726
0.0 0.0 -0.8875384223042044
0.0 0.0 -0.9345765888772148
0.0 0.0 -0.9867911993668264
0.0 0.0 -1.0361661850156616
0.0 0.0 -1.0909095066825771
0.0 0.0 -1.1425891542122408
0.0 0.0 -1.1998291455725958
0.0 0.0 -1.2537815259147915
0.0 0.0 -1.3134863664902943
0.0 0.0 -1.3696797635665172
0.0 0.0 -1.4318178372553203
0.0 0.0 -1.4902207303886457
0.0 0.0 -1.5547606073403188
0.0 0.0 -1.615341652925339
0.0 0.0 -1.682252071263856
0.0 0.0 -1.744980084740971
0.0 0.0 -1.814229932940094
0.0 0.0 -1.8790738716826683
0.0 0.0 -1.950632172044142
0.0 0.0 -2.017561119481858
0.0 0.0 -2.0913970129380677
0.0 0.0 -2.160380164057254
0.0 0.0 -2.2364628963751993
0.0 0.0 -2.307469544622891
0.0 0.0 -2.3857684539974224
0.0 0.0 -2.4587679795473285
0.0 0.0 -2.539252485519438
0.0 0.0 -2.614214344819261
0.0 0.0 -2.696853938427151
0.0 0.0 -2.773747654926993
0.0 0.0 -2.8585118899848223
0.0 0.0 -2.9373070459390904
0.0 0.0 -3.0241655313351132
0.0 0.0 -3.1048317605703932
0.0 0.0 -3.1937541534787295
0.0 0.0 -3.276261135024528
0.0 0.0 -3.3672171349307956
0.0 0.0 -3.4515345874169463
0.0 0.0 -3.5444939308654027
0.0 0.0 -3.6305916075979265
0.0 0.0 -3.725524063576074
0.0 0.0 -3.8133717482115865
0.0 0.0 -3.91024711409646
0.0 0.0 -3.9998146168433912
0.0 0.0 -4.0986027148416975
0.0 0.0 -4.1898598691242634
0.0 0.0 -4.290530543145961
0.0 0.0 -4.383447202673986
0.0 0.0 -4.48597031558575
0.0 0.0 -4.580516351779898
0.0 0.0 -4.684861782991001
0.0 0.0 -4.781007082718834
0.0 0.0 -4.887144726057529
0.0 0.0 -4.984859189640966
0.0 0.0 -5.092758951484334
0.0 0.0 -5.192012490943718
0.0 0.0 -5.301644288568278
0.0 0.0 -5.402406826072313
0.0 0.0 -5.5137405861964695
0.0 0.0 -5.615982052690801
0.0 0.0 -5.728987710183549
0.0 0.0 -5.832678044173922
0.0 0.0 -5.947325540907132
0.0 0.0 -6.052434687375694
0.0 0.0 -6.168693971199695
0.0 0.0 -6.275191880635443
0.0 0.0 -6.393032904459989
0.0 0.0 -6.5008895319862
0.0 0.0 -6.620282252950567
0.0 0.0 -6.729467557533907
0.0 0.0 -6.850381936251542
0.0 0.0 -6.960865879978854
0.0 0.0 -7.083271879843186
0.0 0.0 -7.195024427253324
0.0 0.0 -7.318892013792561
0.0 0.0 -7.431883131251348
0.0 0.0 -7.5571822715209125
0.0 0.0 -7.671381926628285
0.0 0.0 -7.798082588630036
0.0 0.0 -7.91346074964893
0.0 0.0 -8.041532901767104
0.0 0.0 -8.158059537063881
0.0 0.0 -8.287473147507642
0.0 0.0 -8.40511822499427
0.0 0.0 -8.535843261237034
0.0 0.0 -8.654576747805129
0.0 0.0 -8.786583176010778
0.0 0.0 -8.906375036947326
0.0 0.0 -9.039632821373011
0.0 0.0 -9.160453019747655
0.0 0.0 -9.294932122112632
0.0 0.0 -9.416750618125288
0.0 0.0 -9.552420996934455
0.0 0.0 -9.67520774721168
0.0 0.0 -9.812039357021614
0.0 0.0 -9.935764313849013
0.0 0.0 -10.073727104463247
0.0 0.0 -10.198360214939957
0.0 0.0 -10.337424130518771
0.0 0.0 -10.462935335618441
0.0 0.0 -10.60307031368671
0.0 0.0 -10.729429547207639
0.0 0.0 -10.870605517542288
0.0 0.0 -10.997782704926932
0.0 0.0 -11.139969588302952
0.0 0.0 -11.267934645304322
0.0 0.0 -11.41110235207512
0.0 0.0 -11.539825183244234
0.0 0.0 -11.683943611728688
0.0 0.0 -11.813394108693165
0.0 0.0 -11.958433143337102
0.0 0.0 -12.088581182836203
0.0 0.0 -12.23451069211086
0.0 0.0 -12.365326133746466
0.0 0.0 -12.51211596774017
0.0 0.0 -12.64356865139638
0.0 0.0 -12.791188639048203
0.0 0.0 -12.923248381924028
0.0 0.0 -13.071668327839394
0.0 0.0 -13.204304921029854
0.0 0.0 -13.353494601808157
0.0 0.0 -13.486677806358134
0.0 0.0 -13.636606966351241
0.0 0.0 -13.770306508695379
0.0 0.0 -13.920944855104329
0.0 0.0 -14.055130421794798
0.0 0.0 -14.206447619001722
0.0 0.0 -14.34108885061657
0.0 0.0 -14.493054513641663
0.0 0.0 -14.628120997763357
0.0 0.0 -14.780704684739447
0.0 0.0 -14.916165947903176
0.0 0.0 -15.069337151480726
0.0 0.0 -15.205162650027559
0.0 0.0 -15.358890787678595
0.0 0.0 -15.495049897531176
0.0 0.0 -15.649304300838597
0.0 0.0 -15.785766306383392
0.0 0.0 -15.940516209629058
0.0 0.0 -16.07725029220046
0.0 0.0 -16.23246482097583
0.0 0.0 -16.369440047994814
0.0 0.0 -16.525088209264958
0.0 0.0 -16.662273526052974
0.0 0.0 -16.818324202261433
0.0 0.0 -16.955688430200397
0.0 0.0 -17.11211038174773
0.0 0.0 -17.249622229260794
0.0 0.0 -17.406384111890258
0.0 0.0 -17.54401220963859
0.0 0.0 -17.70108261453108
0.0 0.0 -17.838795595844694
0.0 0.0 -17.99614311453668
0.0 0.0 -18.133909785321183
0.0 0.0 -18.291503066893238
0.0 0.0 -18.429292780516004
0.0 0.0 -18.587100408798634
0.0 0.0 -18.724884013062443
0.0 0.0 -18.882873527525113
0.0 0.0 -19.020626119644326
0.0 0.0 -19.178759871202132
0.0 0.0 -19.316468668377144
0.0 0.0 -19.474692790333076
0.0 0.0 -19.612368446520666
0.0 0.0 0.0
0.0 0.0 0.00046797470432797844
0.0 0.0 -5.0358517188543505e-05
0.0 0.0 -0.0014543448013704962
0.0 0.0 -0.004385050524155655
0.0 0.0 -0.008194148120173696
0.0 0.0 -0.013870960758558426
0.0 0.0 -0.020307608309713922
0.0 0.0 -0.028880391404810937
0.0 0.0 -0.038045260983648896
0.0 0.0 -0.04958009047777812
0.0 0.0 -0.0615142414744431
0.0 0.0 -0.07603366725089399
0.0 0.0 -0.09074571676246539
0.0 0.0 -0.1082477308475572
0.0 0.0 -0.1257274938191229
0.0 0.0 -0.14619557983716025
0.0 0.0 -0.16642162214435582
0.0 0.0 -0.1898305240777162
0.0 0.0 -0.2127746257808277
0.0 0.0 -0.2390938365298576
0.0 0.0 -0.2647237402135103
0.0 0.0 -0.29391967953499226
0.0 0.0 -0.322200823318725
0.0 0.0 -0.3542382202212468
0.0 0.0 -0.38513484154200983
0.0 0.0 -0.4199776151669749
0.0 0.0 -0.45345345237922174
0.0 0.0 -0.4910652688206523
0.0 0.0 -0.5270840007613745
0.0 0.0 -0.5674286174963636
0.0 0.0 -0.6059541306644104
0.0 0.0 -0.648995601009504
0.0 0.0 -0.6899921431464405
0.0 0.0 -0.7356949286518925
0.0 0.0 -0.7791271878893201
0.0 0.0 -0.8274562107538487
0.0 0.0 -0.8732893466435245
0.0 0.0 -0.9242100037497449
0.0 0.0 -0.9724096479054274
0.0 0.0 -1.0258878010183405
0.0 0.0 -1.0764200392834247
0.0 0.0 -1.1324219911551323
0.0 0.0 -1.1852533352447066
0.0 0.0 -1.2437457980900848
0.0 0.0 -1.2988431519453354
0.0 0.0 -1.3597932125129617
0.0 0.0 -1.417123836755521
0.0 0.0 -1.4804989206917465
0.0 0.0 -1.5400303973083518
0.0 0.0 -1.6057982344788901
0.0 0.0 -1.6674984330190865
0.0 0.0 -1.7356270247592283
0.0 0.0 -1.7994640707636664
0.0 0.0 -1.8699216595692656
0.0 0.0 -1.9358639055751246
0.0 0.0 -2.0086189474481153
0.0 0.0 -2.076634946679774
0.0 0.0 -2.151656086152964
0.0 0.0 -2.2217145688575783
0.0 0.0 -2.298970616608305
0.0 0.0 -2.371040468907937
0.0 0.0 -2.4505003818041917
0.0 0.0 -2.5245506268881157
0.0 0.0 -2.606183490277204
0.0 0.0 -2.682183271736096
0.0 0.0 -2.765958283773271
0.0 0.0 -2.8438768508716104
0.0 0.0 -2.929763308686486
0.0 0.0 -3.009570003374395
0.0 0.0 -3.0975372908811694
0.0 0.0 -3.17920153635771
0.0 0.0 -3.2692191135279356
0.0 0.0 -3.3527104041816886
0.0 0.0 -3.444747797612947
0.0 0.0 -3.5300356901809673
0.0 0.0 -3.624062484810241
0.0 0.0 -3.7111165906118493
0.0 0.0 -3.8071024224375636
0.0 0.0 -3.8958924005542452
0.0 0.0 -3.9938069502453453
0.0 0.0 -4.084302501531988
0.0 0.0 -4.184115488815858
0.0 0.0 -4.276286350641357
0.0 0.0 -4.377967529374547
0.0 0.0 -4.471783471001446
0.0 0.0 -4.5753026248382955
0.0 0.0 -4.670733443361627
0.0 0.0 -4.776060381945683
0.0 0.0 -4.8730758987204155
0.0 0.0 -4.98018045433236
0.0 0.0 -5.078750511827168
0.0 0.0 -5.187602536430711
0.0 0.0 -5.287696995453083
0.0 0.0 -5.3982663580871115
0.0 0.0 -5.499855095331142
0.0 0.0 -5.612111679802404
0.0 0.0 -5.715164585676237
0.0 0.0 -5.829078288512019
0.0 0.0 -5.933565265206762
0.0 0.0 -6.049105993831601
0.0 0.0 -6.154996953597798
0.0 0.0 -6.2721346247020975
0.0 0.0 -6.379399488303386
0.0 0.0 -6.498104026375296
0.0 0.0 -6.606712721692041
0.0 0.0 -6.726954057686717
0.0 0.0 -6.836876518445001
0.0 0.0 -6.95862458856781
0.0 0.0 -7.069830753171459
0.0 0.0 -7.193055497753619
0.0 0.0 -7.305515308198609
0.0 0.0 -7.43018667064557
0.0 0.0 -7.543870071497681
0.0 0.0 -7.669957997291606
0.0 0.0 -7.784834934709375
0.0 0.0 -7.912309370448149
0.0 0.0 -8.028349791233776
0.0 0.0 -8.157180683689667
0.0 0.0 -8.27435453435116
0.0 0.0 -8.40451182953238
0.0 0.0 -8.522789055340404
0.0 0.0 -8.654242697539008
0.0 0.0 -8.773593241561676
0.0 0.0 -8.90631317237107
0.0 0.0 -9.02670697446968
0.0 0.0 -9.16066313175411
0.0 0.0 -9.282070127521981
0.0 0.0 -9.417232444319913
0.0 0.0 -9.53962256394536
0.0 0.0 -9.675960967287105
0.0 0.0 -9.799304134320428
0.0 0.0 -9.936788543938903
0.0 0.0 -10.06105467394124
0.0 0.0 -10.199655000852864
0.0 0.0 -10.32481399990268
0.0 0.0 -10.464500144832803
0.0 0.0 -10.590521907863199
0.0 0.0 -10.731263759487664
0.0 0.0 -10.8581181684243
0.0 0.0 -10.999885601395363
0.0 0.0 -11.127542523061278
0.0 0.0 -11.270305395781866
0.0 0.0 -11.398734679531062
0.0 0.0 -11.542462831636815
0.0 0.0 -11.671634306673287
0.0 0.0 -11.816297556176352
0.0 0.0 -11.946181028509569
0.0 0.0 -12.09174916855191
0.0 0.0 -12.22231441753324
0.0 0.0 -12.368757212690435
0.0 0.0 -12.499973987067719
0.0 0.0 -12.647261169136707
0.0 0.0 -12.779099182556667
0.0 0.0 -12.927200445753394
0.0 0.0 -13.059629371633969
0.0 0.0 -13.20851436711909
0.0 0.0 -13.341503832806819
0.0 0.0 -13.491142162452537
0.0 0.0 -13.624661742576198
0.0 0.0 -13.775022951884505
0.0 0.0 -13.909042160816753
0.0 0.0 -14.060095730904811
0.0 0.0 -14.194584014254268
0.0 0.0 -14.346299352840338
0.0 0.0 -14.481226077924369
0.0 0.0 -14.633572509288339
0.0 0.0 -14.768906954593412
0.0 0.0 -14.921853708563852
0.0 0.0 -15.057565052305787
0.0 0.0 -15.211081252465142
0.0 0.0 -15.347138560544925
0.0 0.0 -15.501193212082653
0.0 0.0 -15.637565426040727
0.0 0.0 -15.792127404075796
0.0 0.0 -15.92878333014675
0.0 0.0 -16.083821369966135
0.0 0.0 -16.220729671124438
0.0 0.0 -16.376212362748785
0.0 0.0 -16.513341556847465
0.0 0.0 -16.66923734776065
0.0 0.0 -16.806555816673775
0.0 0.0 -16.962833028518855
0.0 0.0 -17.100309045829817
0.0 0.0 -17.256935913223643
0.0 0.0 -17.394537701840616
0.0 0.0 -17.55148244322103
0.0 0.0 -17.689178280498467
0.0 0.0 -17.846409208499633
0.0 0.0 -17.98416760967539
0.0 0.0 -18.141653269816256
0.0 0.0 -18.27944332005316
0.0 0.0 -18.437152570077988
0.0 0.0 -18.574944615015824
0.0 0.0 -18.732846277807454
0.0 0.0 -18.870613684430133
0.0 0.0 -19.028674466302228
0.0 0.0 -19.166398749907348
0.0 0.0 -19.32457618056425
0.0 0.0 -19.462258557565878
0.0 0.0 -19.62049021562506
VECTORS Rot float
0.0 0.0 0.0
-0.0013324979232535077 0.0013535756288525949 0.0
-0.002289805223905874 0.0031673798683894256 0.0
-0.0031570734880332716 0.005344375841189506 0.0
-0.003962837148399064 0.007753849137777667 0.0
-0.004714196283192782 0.010313941320332247 0.0
-0.005414466687698247 0.012974568065457694 0.0
-0.006066650668510609 0.015703445321052823 0.0
-0.006673683028834662 0.018478626976400372 0.0
-0.0072383795111980245 0.021284565665444552 0.0
-0.0077633864863189996 0.024109904715641763 0.0
-0.008251168081541664 0.026946160170989567 0.0
-0.008704010798545296 0.02978688830596294 0.0
-0.009124036533153393 0.03262713536155394 0.0
-0.009513217554923868 0.03546305997155058 0.0
-0.009873391332922293 0.038291666081616486 0.0
-0.010206273974930827 0.04111060913159325 0.0
-0.010513472071435714 0.043918052365974444 0.0
-0.010796492897565515 0.04671255835544513 0.0
-0.011056753148713475 0.04949300584214937 0.0
-0.011295586390308853 0.052258525171027956 0.0
-0.011514249430193295 0.05500844761314555 0.0
-0.01171392779567103 0.05774226523774142 0.0
-0.0118957404809569 0.06045959890720326 0.0
-0.012060744103028438 0.06316017260279742 0.0
-0.012209936581980704 0.06584379273621527 0.0
-0.012344260439795108 0.06851033142261208 0.0
-0.012464605793308879 0.07115971292486781 0.0
-0.012571813101184317 0.07379190265215195 0.0
-0.012666675711678843 0.07640689822626219 0.0
-0.012749942247219592 0.07900472222857378 0.0
-0.012822318853169432 0.08158541631713262 0.0
-0.01288447133128903 0.08414903646330987 0.0
-0.012937027173021632 0.08669564910466354 0.0
-0.012980577503601907 0.08922532804826033 0.0
-0.0130156789448659 0.0917381519888692 0.0
-0.013042855402318636 0.09423420253082235 0.0
-0.013062599780366686 0.09671356262213619 0.0
-0.013075375628443447 0.09917631532565771 0.0
-0.013081618720005673 0.10162254286525745 0.0
-0.01308173856586201 0.1040523258959779 0.0
-0.013076119863060549 0.10646574295604133 0.0
-0.013065123880420589 0.10886287006602201 0.0
-0.013049089781800432 0.11124378044661924 0.0
-0.013028335888240523 0.11360854433154578 0.0
-0.013003160880216772 0.11595722885623366 0.0
-0.012973844941381665 0.11828989800653406 0.0
-0.012940650845257085 0.1206066126144662 0.0
-0.012903824986495302 0.12290743039044327 0.0
-0.012863598358400459 0.12519240598336545 0.0
-0.012820187478535191 0.12746159106160104 0.0
-0.012773795264256392 0.12971503440919863 0.0
-0.012724611860121702 0.13195278203279281 0.0
-0.012672815419124088 0.13417487727555916 0.0
-0.012618572839734096 0.13638136093531875 0.0
-0.01256204046071748 0.1385722713845105 0.0
-0.012503364715718767 0.14074764469023748 0.0
-0.012442682749536367 0.142907514733 0.0
-0.012380122997991804 0.1450519133230693 0.0
-0.012315805733285884 0.14718087031370627 0.0
-0.012249843576617112 0.14929441371065702 0.0
-0.012182341979845157 0.1513925697775262 0.0
-0.012113399677872961 0.1534753631367686 0.0
-0.012043109113398866 0.15554281686614582 0.0
-0.011971556835576484 0.15759495259058823 0.0
-0.011898823874106046 0.1596317905694583 0.0
-0.011824986090155027 0.16165334977927961 0.0
-0.011750114505491403 0.1636596479920161 0.0
-0.011674275611109411 0.16565070184903233 0.0
-0.011597531656585624 0.16762652693087607 0.0
-0.011519940921316491 0.16958713782304483 0.0
-0.011441557968751327 0.17153254817790117 0.0
-0.011362433884645074 0.1734627707729179 0.0
-0.011282616500353112 0.17537781756541312 0.0
-0.01120215060203157 0.17727769974397287 0.0
-0.011121078126704743 0.17916242777671526 0.0
-0.011039438345923157 0.18103201145657236 0.0
-0.010957268037891762 0.18288645994375408 0.0
-0.010874601648726901 0.18472578180554827 0.0
-0.010791471443564092 0.18654998505361606 0.0
-0.010707907648137243 0.18835907717892023 0.0
-0.010623938581489443 0.1901530651844225 0.0
-0.010539590780296175 0.1919319556156918 0.0
-0.01045488911545992 0.19369575458953922 0.0
-0.010369856901361206 0.19544446782080224 0.0
-0.010284515998311688 0.19717810064738664 0.0
-0.01019888690865254 0.19889665805366363 0.0
-0.010112988866859796 0.20060014469234586 0.0
-0.010026839924121752 0.20228856490490568 0.0
-0.00994045702772405 0.20396192274063069 0.0
-0.009853856095557492 0.2056202219744148 0.0
-0.009767052086146083 0.20726346612334928 0.0
-0.009680059064424755 0.2088916584621709 0.0
-0.009592890263623654 0.21050480203765784 0.0
-0.009505558143467896 0.21210289968202753 0.0
-0.009418074444989828 0.21368595402539264 0.0
-0.009330450242223284 0.21525396750732007 0.0
-0.0092426959908791 0.2168069423875669 0.0
-0.009154821574370163 0.21834488075602504 0.0
-0.009066836347295675 0.21986778454190112 0.0
-0.008978749176623502 0.22137565552221244 0.0
-0.008890568480674392 0.22286849532960282 0.0
-0.008802302266191364 0.22434630545952863 0.0
-0.00871395816356 0.225809087276837 0.0
-0.008625543460401073 0.22725684202176624 0.0
-0.008537065133628683 0.22868957081541003 0.0
-0.008448529880162103 0.23010727466464306 0.0
-0.008359944146392104 0.23150995446655828 0.0
-0.008271314156556476 0.23289761101240594 0.0
-0.008182645940132587 0.23427024499108093 0.0
-0.008093945358368626 0.23562785699214583 0.0
-0.00800521813007743 0.23697044750843188 0.0
-0.007916469856816972 0.2382980169382001 0.0
-0.007827706047535521 0.2396105655868881 0.0
-0.007738932142810934 0.2409080936684522 0.0
-0.007650153538826408 0.24219060130630857 0.0
-0.007561375611064824 0.24345808853386075 0.0
-0.007472603738040228 0.2447105552946541 0.0
-0.007383843324909007 0.24594800144210394 0.0
-0.007295099827301112 0.24717042673885156 0.0
-0.007206378775306871 0.24837783085570317 0.0
-0.007117685797838642 0.2495702133701632 0.0
-0.007029026647400532 0.25074757376456663 0.0
-0.006940407225400487 0.2519099114237643 0.0
-0.0068518336081355765 0.2530572256324116 0.0
-0.006763312073544096 0.2541895155717657 0.0
-0.006674849128821615 0.25530678031606713 0.0
-0.0065864515390558305 0.25640901882841155 0.0
-0.006498126357057862 0.2574962299561364 0.0
-0.006409880954324719 0.258568412425684 0.0
-0.006321723053547099 0.2596255648369249 0.0
-0.006233660762526488 0.260667685656916 0.0
-0.0061457026099049185 0.2616947732130383 0.0
-0.006057857582640283 0.26270682568552595 0.0
-0.005970135165552236 0.26370384109929457 0.0
-0.005882545383017648 0.2646858173150911 0.0
-0.005795098843035811 0.26565275201986405 0.0
-0.005707806783814645 0.26660464271635 0.0
-0.005620681123132031 0.2675414867117998 0.0
-0.005533734510631216 0.2684632811057928 0.0
-0.0054469803833100015 0.26937002277707855 0.0
-0.005360433024340289 0.2702617083693961 0.0
-0.005274107625611597 0.2711383342761655 0.0
-0.005188020354114914 0.2719998966240095 0.0
-0.005102188422489851 0.2728463912549718 0.0
-0.0050166301639739475 0.2736778137074115 0.0
-0.004931365112093068 0.2744941591954114 0.0
-0.0048464140853105644 0.2752954225866241 0.0
-0.00476179927698807 0.276081598378452 0.0
-0.004677544350856967 0.276852680672416 0.0
-0.004593674542523475 0.27760866314662 0.0
-0.004510216766961124 0.27834953902615905 0.0
-0.004427199732609144 0.2790753010513491 0.0
-0.0043446540621313616 0.27978594144362223 0.0
-0.0042626124201302525 0.28048145186899304 0.0
-0.004181109647983861 0.28116182339892026 0.0
-0.004100182906024941 0.28182704646849327 0.0
-0.004019871822976652 0.28247711083177196 0.0
-0.003940218652723165 0.28311200551430193 0.0
-0.003861268438153395 0.2837317187626895 0.0
-0.003783069181709237 0.2843362379913222 0.0
-0.003705672022094157 0.2849255497263514 0.0
-0.003629131416205207 0.285499639547109 0.0
-0.003553505325079355 0.28605849202545564 0.0
-0.0034788554021555986 0.28660209066356535 0.0
-0.0034052471816154585 0.2871304178310344 0.0
-0.003332750263711676 0.28764345470259234 0.0
-0.0032614384935981604 0.28814118119809945 0.0
-0.0031913901282916656 0.28862357592709376 0.0
-0.0031226879863581005 0.28909061614096815 0.0
-0.003055419571554472 0.28954227769700963 0.0
-0.0029896771629117566 0.28997853503926946 0.0
-0.002925557855855637 0.2903993612038202 0.0
-0.0028631635473042806 0.29080472785623057 0.0
-0.0028026008337418023 0.2911946053745851 0.0
-0.002743980828354925 0.2915689629888549 0.0
-0.002687418822072343 0.29192776900168016 0.0
-0.0026330338576693174 0.29227099109983096 0.0
-0.002580947997968364 0.2925985968095809 0.0
-0.0025312856098177374 0.2929105540809839 0.0
-0.0024841719373272517 0.2932068321347228 0.0
-0.0024397322409545246 0.29348740243915794 0.0
-0.0023980889297490725 0.2937522402155805 0.0
-0.002359361506277251 0.2940013258683225 0.0
-0.0023236599636670217 0.29423464767017143 0.0
-0.0022910895204969004 0.29445220332103905 0.0
-0.0022617323068194746 0.2946540051066167 0.0
-0.0022356720097099435 0.2948400796918305 0.0
-0.0022129347929858573 0.2950104797899152 0.0
-0.0021935897576325887 0.29516527452212005 0.0
-0.0021775420144496665 0.29530458191718395 0.0
-0.0021649146833763503 0.29542852131129027 0.0
-0.002155299682154816 0.29553731931883026 0.0
-0.0021491770792900627 0.29563112000877323 0.0
-0.0021451786746864787 0.2957103553948021 0.0
-0.0021452837288082017 0.2957750420085072 0.0
-0.0021449428248459562 0.2958260637801334 0.0
-0.0021513229561861344 0.29586284249169315 0.0
-0.002150978548287518 0.29588677321562445 0.0
-0.002161830215755725 0.29589636600836156 0.0
-0.0021503549643429633 0.295895876495339 0.0
0.0 0.0 0.0
-0.0006750840477061752 0.001456024313220091 0.0
-0.0012759214297172756 0.003394776297842535 0.0
-0.0019304655790903904 0.005632736225164427 0.0
-0.0026028217314262797 0.00806521005344597 0.0
-0.003265064859986686 0.010629342080852203 0.0
-0.0039035485184734445 0.013284517212214996 0.0
-0.004512057192586007 0.016003045553689203 0.0
-0.005088048167721315 0.018765333487934382 0.0
-0.005630842471301479 0.021557113750518286 0.0
-0.006140738981209581 0.024367764368798495 0.0
-0.006618560338468684 0.027189239338068452 0.0
-0.007065409276982625 0.030015362613920443 0.0
-0.007482532583090236 0.03284134600893469 0.0
-0.007871242777054263 0.03566345039683755 0.0
-0.00823287194548955 0.038478741527878745 0.0
-0.008568744093188974 0.041284910211730065 0.0
-0.008880158431699923 0.044080137411236786 0.0
-0.009168379275533501 0.04686299142138828 0.0
-0.00943463000165672 0.04963234843824646 0.0
-0.009680089553083377 0.052387330498642 0.0
-0.009905890561927214 0.05512725652890832 0.0
-0.010113118523359034 0.0578516034304313 0.0
-0.010302811665807411 0.06055997494603076 0.0
-0.010475961293870973 0.06325207662464456 0.0
-0.010633512460686903 0.0659276956103098 0.0
-0.010776364876205462 0.06858668427809714 0.0
-0.01090537398849696 0.07122894695803936 0.0
-0.011021352194291718 0.07385442915146499 0.0
-0.011125070146819377 0.07646310876792327 0.0
-0.01121725813651625 0.07905498900593351 0.0
-0.011298607524992546 0.08163009257460546 0.0
-0.011369772215905386 0.08418845701111809 0.0
-0.011431370148697276 0.08673013089495714 0.0
-0.011483984802943211 0.08925517079649406 0.0
-0.011528166702531704 0.09176363882700914 0.0
-0.011564434910202407 0.09425560068115632 0.0
-0.011593278504172444 0.09673112408231817 0.0
-0.011615158029697559 0.0991902775571905 0.0
-0.01163050691948255 0.10163312947896065 0.0
-0.01163973287785075 0.10405974732916058 0.0
-0.01164321922451324 0.10647019713708969 0.0
-0.01164132619464507 0.10886454306298786 0.0
-0.011634392192754351 0.11124284709714373 0.0
-0.01162273499854814 0.11360516885208756 0.0
-0.011606652923621221 0.11595156542911887 0.0
-0.011586425918355861 0.1182820913438205 0.0
-0.011562316628903443 0.12059679849799258 0.0
-0.011534571404517935 0.12289573618776994 0.0
-0.011503421255878754 0.12517895113958602 0.0
-0.011469082765309165 0.12744648756721863 0.0
-0.011431758950047081 0.1296983872444521 0.0
-0.011391640079895248 0.13193468958894813 0.0
-0.011348904450740037 0.13415543175380135 0.0
-0.011303719115513469 0.1363606487239623 0.0
-0.011256240574272745 0.13855037341530804 0.0
-0.011206615425093295 0.14072463677460462 0.0
-0.011154980977516915 0.1428834678790114 0.0
-0.011101465830286083 0.14502689403408048 0.0
-0.011046190415091799 0.14715494086946887 0.0
-0.010989267508033218 0.14926763243179067 0.0
-0.010930802710456633 0.1513649912741841 0.0
-0.010870894900791468 0.15344703854232786 0.0
-0.01080963665895537 0.15551379405672858 0.0
-0.010747114664846536 0.15756527639118548 0.0
-0.01068341007237188 0.1596015029474131 0.0
-0.010618598860424454 0.1616224900258408 0.0
-0.010552752162127635 0.16362825289266222 0.0
-0.010485936573633555 0.16561880584321348 0.0
-0.010418214443684045 0.16759416226180635 0.0
-0.010349644145080144 0.1695543346781391 0.0
-0.01028028032916693 0.17149933482042182 0.0
-0.010210174164348162 0.17342917366535784 0.0
-0.010139373559629088 0.17534386148514255 0.0
-0.010067923374098094 0.17724340789160287 0.0
-0.009995865613227711 0.17912782187764964 0.0
-0.0099232396128063 0.18099711185616224 0.0
-0.0098500822112944 0.18285128569646306 0.0
-0.009776427911324584 0.18469035075850174 0.0
-0.009702309031023875 0.18651431392489295 0.0
-0.00962775584582142 0.1883231816309211 0.0
-0.009552796721342923 0.19011695989263178 0.0
-0.009477458237957365 0.19189565433312444 0.0
-0.009401765307526884 0.19365927020715312 0.0
-0.00932574128284094 0.19540781242413996 0.0
-0.00924940806024576 0.1971412855696817 0.0
-0.009172786175871315 0.19885969392566477 0.0
-0.009095894895910008 0.20056304148904872 0.0
-0.009018752301319507 0.20225133198940898 0.0
-0.008941375367324771 0.20392456890531444 0.0
-0.008863780038073277 0.20558275547960647 0.0
-0.00878598129675389 0.20722589473365083 0.0
-0.008707993231499095 0.20885398948061792 0.0
-0.00862982909735934 0.21046704233784552 0.0
-0.008551501374608209 0.2120650557383488 0.0
-0.00847302182365406 0.21364803194151966 0.0
-0.008394401536777025 0.21521597304306278 0.0
-0.008315650986933591 0.216768880984215 0.0
-0.008236780073835792 0.2183067575602848 0.0
-0.008157798167510588 0.21982960442855104 0.0
-0.008078714149540143 0.22133742311554785 0.0
-0.007999536452126654 0.22283021502378608 0.0
-0.007920273095218465 0.22430798143792927 0.0
-0.007840931721782064 0.22577072353043545 0.0
-0.007761519631450938 0.22721844236672276 0.0
-0.007682043812643618 0.2286511389098529 0.0
-0.007602510973321253 0.2300688140247732 0.0
-0.007522927570505917 0.2314714684821203 0.0
-0.007443299838697516 0.23285910296161097 0.0
-0.00736363381731594 0.2342317180550274 0.0
-0.007283935377273611 0.23558931426882554 0.0
-0.0072042102468243534 0.23693189202636106 0.0
-0.00712446403675949 0.23825945166975124 0.0
-0.007044702265119908 0.23957199346137345 0.0
-0.006964930381468088 0.24086951758501496 0.0
-0.006885153790882816 0.2421520241466787 0.0
-0.0068053778777492245 0.24341951317505023 0.0
-0.006725608029451334 0.24467198462161108 0.0
-0.00664584966009472 0.24590943836042192 0.0
-0.006566108234332847 0.24713187418755167 0.0
-0.006486389291421066 0.24833929182017148 0.0
-0.006406698469604118 0.24953169089529917 0.0
-0.006327041530929126 0.2507090709681832 0.0
-0.00624742438662274 0.25187143151032043 0.0
-0.006167853123097968 0.25301877190710964 0.0
-0.006088334028764411 0.25415109145512 0.0
-0.006008873621697317 0.2552683893589532 0.0
-0.005929478678340291 0.2563706647276985 0.0
-0.00585015626333594 0.25745791657097306 0.0
-0.005770913760634712 0.2585301437944948 0.0
-0.005691758905979708 0.25958734519518506 0.0
-0.005612699820973569 0.26062951945580076 0.0
-0.005533745048820044 0.2616566651390272 0.0
-0.005454903591917496 0.2626687806810311 0.0
-0.005376184951477463 0.2636658643844243 0.0
-0.005297599169325663 0.26464791441062147 0.0
-0.0052191568720629505 0.26561492877153914 0.0
-0.005140869317785008 0.2665669053206072 0.0
-0.0050627484455730105 0.2675038417430105 0.0
-0.004984806927928586 0.26842573554517213 0.0
-0.004907058226408115 0.269332584043372 0.0
-0.004829516650683302 0.2702243843514486 0.0
-0.004752197421243002 0.27110113336753694 0.0
-0.004675116736026889 0.2719628277597613 0.0
-0.004598291841233759 0.2728094639507998 0.0
-0.004521741106605771 0.2736410381012279 0.0
-0.004445484105424548 0.2744575460915928 0.0
-0.0043695416995843716 0.27525898350304706 0.0
-0.00429393612998969 0.2760453455965108 0.0
-0.004218691112609883 0.27681662729018913 0.0
-0.004143831940482112 0.2775728231353575 0.0
-0.004069385592020921 0.2783139272902676 0.0
-0.003995380845846402 0.2790399334920138 0.0
-0.003921848402491626 0.2797508350262747 0.0
-0.0038488210131881096 0.2804466246947263 0.0
-0.0037763336159756787 0.281127294780004 0.0
-0.003704423479281715 0.2817928370080346 0.0
-0.003633130353051708 0.2824432425076308 0.0
-0.0035624966274237645 0.28307850176719046 0.0
-0.0034925674987756035 0.28369860458842855 0.0
-0.0034233911428516403 0.2843035400370188 0.0
-0.003355018894342841 0.28489329639019323 0.0
-0.0032875054322024136 0.285467861081359 0.0
-0.0032209089693836517 0.2860272206418645 0.0
-0.003155291445413743 0.2865713606403153 0.0
-0.003090718719586589 0.2871002656199444 0.0
-0.0030272607617954183 0.2876139190348457 0.0
-0.0029649918372446995 0.2881123031863021 0.0
-0.0029039906801866964 0.28859539916081195 0.0
-0.0028443406503851233 0.28906318677219517 0.0
-0.0027861298646693284 0.2895156445107197 0.0
-0.0027294512936173756 0.2899527495037488 0.0
-0.002674402811666227 0.29037447749280737 0.0
-0.002621087185244903 0.29078080283540403 0.0
-0.0025696119820513047 0.2911716985388281 0.0
-0.002520089377482695 0.2915471363421693 0.0
-0.0024726358366456004 0.29190708685398536 0.0
-0.0024273716329386145 0.2922515197805466 0.0
-0.002384420183829836 0.29258040423966 0.0
-0.0023439071324479472 0.2928937092470901 0.0
-0.0023059591893491746 0.2931914043040964 0.0
-0.0022707025724214317 0.2934734603393732 0.0
-0.002238261213521198 0.29373985065765595 0.0
-0.0022087542656769074 0.2939905527239424 0.0
-0.002182293674229127 0.2942255493736516 0.0
-0.0021589802423499374 0.29444483235044194 0.0
-0.0021389011470301584 0.2946484027964602 0.0
-0.002122123241992643 0.2948362791855891 0.0
-0.002108693117493504 0.29500849267176343 0.0
-0.002098623041329414 0.295165108300763 0.0
-0.0020919031108024284 0.29530619811629977 0.0
-0.0020884624482213903 0.29543190775234596 0.0
-0.002088227871526219 0.2955423443071911 0.0
-0.0020909951397912407 0.2956378067023617 0.0
-0.002096661015619262 0.2957183610749268 0.0
-0.0021047599708914093 0.29578466064669473 0.0
-0.0021153462334239587 0.29583643111303487 0.0
-0.002127201314948072 0.2958752029667826 0.0
-0.00214129995462616 0.2959000681329365 0.0
-0.002153317902503571 0.29591397902948924 0.0
-0.00215362220141503 0.29592013438703585 0.0
0.0 0.0 0.0
-0.0003615342701312277 0.002386259114826509 0.0
-0.000660941711018288 0.004724850226791795 0.0
-0.0010997893982018796 0.007110383332126197 0.0
-0.0016124901129905232 0.00957483832774916 0.0
-0.00215521738020365 0.012115819425813678 0.0
-0.002703158172330548 0.014720640299689624 0.0
-0.003242274819839066 0.01737538415621007 0.0
-0.0037645521485838427 0.020067650081639694 0.0
-0.004265449788141569 0.02278710913030538 0.0
-0.004742501776283591 0.025525372250686938 0.0
-0.00519451619075928 0.028275688241518934 0.0
-0.005621102132167025 0.031032637765416357 0.0
-0.006022381027626279 0.03379186989972412 0.0
-0.006398805330973095 0.036549887555091316 0.0
-0.006751041608212869 0.03930387632945305 0.0
-0.007079893338517234 0.042051568860392095 0.0
-0.007386248828089944 0.04479113732413209 0.0
-0.0076710453959989225 0.047521107997369284 0.0
-0.00793524433887077 0.05024029309208789 0.0
-0.008179813194492621 0.0529477361469332 0.0
-0.008405713051220147 0.055642668110474164 0.0
-0.008613889418311444 0.0583244719018031 0.0
-0.008805265659019304 0.06099265372969286 0.0
-0.008980738303288889 0.06364681982709382 0.0
-0.009141173763094028 0.06628665754447025 0.0
-0.009287406110866172 0.0689119199651568 0.0
-0.009420235674207687 0.07152241337582636 0.0
-0.009540428263786179 0.07411798705748178 0.0
-0.009648714895760252 0.07669852496634767 0.0
-0.009745791901716861 0.07926393895629756 0.0
-0.009832321342066587 0.08181416326002236 0.0
-0.009908931655876238 0.08434914999872284 0.0
-0.009976218493045405 0.08686886553249436 0.0
-0.010034745684756957 0.08937328749790896 0.0
-0.010085046316066028 0.09186240240719756 0.0
-0.010127623870894225 0.09433620370619253 0.0
-0.010162953424934316 0.096794690206781 0.0
-0.010191482866318593 0.0992378648248415 0.0
-0.010213634127538345 0.10166573356710773 0.0
-0.010229804415170615 0.10407830472064113 0.0
-0.01024036742654728 0.10647558820699057 0.0
-0.010245674544705085 0.10885759507001458 0.0
-0.010246056004802415 0.1112243370719986 0.0
-0.010241822026758569 0.11357582637734503 0.0
-0.010233263910196104 0.11591207530692861 0.0
-0.010220655088868496 0.11823309614932666 0.0
-0.010204252142685387 0.12053890101770055 0.0
-0.010184295766210369 0.12282950174319747 0.0
-0.010161011693141937 0.12510490979746178 0.0
-0.010134611576793752 0.12736513623824136 0.0
-0.010105293827017062 0.1296101916732221 0.0
-0.010073244404329433 0.13184008623816323 0.0
-0.010038637572265075 0.13405482958615986 0.0
-0.010001636609187655 0.13625443088548622 0.0
-0.009962394480910935 0.13843889882397414 0.0
-0.00992105447561738 0.14060824161829397 0.0
-0.009877750802603585 0.14276246702682938 0.0
-0.009832609156440823 0.14490158236511805 0.0
-0.009785747248141961 0.14702559452303893 0.0
-0.009737275304935055 0.14913450998310893 0.0
-0.009687296540213934 0.15122833483938403 0.0
-0.009635907595220186 0.1533070748165822 0.0
-0.009583198953956585 0.15537073528913503 0.0
-0.00952925533279567 0.15741932129994338 0.0
-0.00947415604620206 0.159452837578671 0.0
-0.009417975349907192 0.161471288559461 0.0
-0.009360782762854429 0.16347467839799545 0.0
-0.009302643369144383 0.16546301098783717 0.0
-0.00924361810116616 0.16743628997602508 0.0
-0.009183764005037036 0.16939451877791298 0.0
-0.009123134489418351 0.17133770059124734 0.0
-0.009061779558730873 0.17326583840948973 0.0
-0.008999746031698449 0.1751789350344026 0.0
-0.008937077746155608 0.17707699308792463 0.0
-0.008873815750953858 0.17896001502335146 0.0
-0.008809998485779437 0.18082800313585967 0.0
-0.008745661949638038 0.18268095957239014 0.0
-0.008680839858721687 0.1845188863409405 0.0
-0.008615563794331262 0.18634178531926873 0.0
-0.008549863341490068 0.18814965826306707 0.0
-0.00848376621883711 0.18994250681361485 0.0
-0.008417298400366018 0.19172033250494921 0.0
-0.008350484229527564 0.19348313677057669 0.0
-0.008283346526201878 0.19523092094975047 0.0
-0.008215906686984388 0.196963686293346 0.0
-0.008148184779248386 0.198681433969351 0.0
-0.008080199629369438 0.20038416506799608 0.0
-0.008011968905500566 0.202071880606544 0.0
-0.007943509195278644 0.20374458153376282 0.0
-0.007874836078769055 0.2054022687341023 0.0
-0.0078059641969982375 0.2070449430315797 0.0
-0.0077369073163606 0.2086726051934085 0.0
-0.007667678389172425 0.21028525593337788 0.0
-0.007598289610657913 0.21188289591499343 0.0
-0.007528752472604325 0.2134655257543959 0.0
-0.00745907781391715 0.2150331460230774 0.0
-0.007389275868320883 0.2165857572503958 0.0
-0.007319356309382431 0.21812335992590878 0.0
-0.007249328293079342 0.2196459545015251 0.0
-0.007179200498087032 0.2211535413934984 0.0
-0.007108981163976876 0.22264612098425485 0.0
-0.007038678127472521 0.22412369362408194 0.0
-0.006968298856927132 0.22558625963267032 0.0
-0.006897850485203495 0.22703381930051722 0.0
-0.006827339841057161 0.2284663728902072 0.0
-0.006756773479192066 0.2298839206375725 0.0
-0.006686157709103228 0.231286462752725 0.0
-0.006615498622849202 0.23267399942097716 0.0
-0.006544802121863643 0.23404653080366988 0.0
-0.006474073942924002 0.23540405703887127 0.0
-0.006403319683403795 0.23674657824198328 0.0
-0.006332544825903931 0.2380740945062533 0.0
-0.006261754762389522 0.2393866059031749 0.0
-0.006190954817918699 0.2406841124828111 0.0
-0.00612015027408284 0.24196661427400315 0.0
-0.006049346392250681 0.24323411128448424 0.0
-0.005978548436732623 0.24448660350092488 0.0
-0.005907761697948557 0.24572409088886288 0.0
-0.005836991515718848 0.24694657339253653 0.0
-0.005766243302771098 0.24815405093463752 0.0
-0.005695522568564457 0.24934652341595456 0.0
-0.005624834943557886 0.25052399071491827 0.0
-0.005554186203983818 0.2516864526870516 0.0
-0.005483582297287041 0.25283390916431253 0.0
-0.005413029368321267 0.25396635995432526 0.0
-0.005342533786392057 0.255083804839503 0.0
-0.0052721021733120425 0.25618624357604863 0.0
-0.005201741432564948 0.2572736758928259 0.0
-0.0051314587797010765 0.2583461014901096 0.0
-0.005061261774121791 0.25940352003819983 0.0
-0.0049911583523811155 0.260445931175875 0.0
-0.004921156863123324 0.2614733345086968 0.0
-0.004851266103867053 0.2624857296071437 0.0
-0.004781495359757436 0.2634831160045567 0.0
-0.004711854444451255 0.26446549319490564 0.0
-0.004642353743343047 0.2654328606303138 0.0
-0.004573004259292706 0.26638521771836954 0.0
-0.0045038176610795455 0.2673225638191868 0.0
-0.004434806334762618 0.2682448982421711 0.0
-0.004365983438180849 0.2691522202424868 0.0
-0.004297362958861315 0.270044529017182 0.0
-0.004228959775493863 0.2709218237009292 0.0
-0.004160789723334897 0.27178410336136644 0.0
-0.0040928696637243574 0.2726313669939411 0.0
-0.004025217558061831 0.2734636135162323 0.0
-0.003957852546506921 0.2742808417616967 0.0
-0.003890795031715002 0.27508305047272025 0.0
-0.0038240667679435075 0.2758702382929316 0.0
-0.0037576909558716984 0.2766424037586458 0.0
-0.0036916923434190223 0.27739954528933536 0.0
-0.0036260973329948335 0.27814166117698325 0.0
-0.0035609340954421654 0.2788687495741383 0.0
-0.003496232691073897 0.27958080848057343 0.0
-0.0034320251981123004 0.28027783572821874 0.0
-0.0033683458488408887 0.28095982896419824 0.0
-0.003305231173760089 0.2816267856316769 0.0
-0.003242720153955769 0.28227870294816404 0.0
-0.0031808543818479577 0.282915577880955 0.0
-0.0031196782304006515 0.28353740711919473 0.0
-0.003059239030702659 0.28414418704216143 0.0
-0.0029995872577240185 0.2847359136831575 0.0
-0.002940776723724751 0.2853125826883934 0.0
-0.0028828647787145414 0.2858741892701778 0.0
-0.0028259125167223987 0.28642072815360053 0.0
-0.0027699849864091693 0.28695219351586415 0.0
-0.0027151514038165955 0.2874685789172966 0.0
-0.0026614853644352267 0.28796987722311523 0.0
-0.002609065050678107 0.28845608051489907 0.0
-0.0025579734298303613 0.288927179990702 0.0
-0.002508298436073717 0.28938316585302826 0.0
-0.0024601331281937497 0.2898240271837269 0.0
-0.0024135758129158066 0.29024975180580675 0.0
-0.002368730119994618 0.29066032613160114 0.0
-0.002325705013983805 0.29105573499985077 0.0
-0.0022846147197111443 0.29143596150118556 0.0
-0.0022455785412718817 0.29180098680208455 0.0
-0.0022087205342326954 0.2921507899635548 0.0
-0.0021741690123466234 0.29248534778671625 0.0
-0.0021420558090434446 0.292804634661698 0.0
-0.002112515309306437 0.29310862252135084 0.0
-0.0020856830621097475 0.2933972807857074 0.0
-0.002061694155910876 0.29367057662917995 0.0
-0.0020406808071548057 0.29392847508755265 0.0
-0.0020227700105208486 0.2941709401375332 0.0
-0.002008079424511363 0.2943979348385972 0.0
-0.0019967148433161865 0.29460942453072636 0.0
-0.0019887627547460515 0.2948053757991821 0.0
-0.0019842905475187934 0.29498576559490647 0.0
-0.001983330563503099 0.2951505732290749 0.0
-0.001985894283933775 0.2952998077731663 0.0
-0.0019919287271362484 0.2954334698290973 0.0
-0.0020013846775923964 0.29555164081774643 0.0
-0.00201407309327481 0.29565432787991097 0.0
-0.0020299276838625676 0.29574177519689265 0.0
-0.002048510364453225 0.295813880345716 0.0
-0.0020699212540985098 0.2958712980861316 0.0
-0.002093371656822415 0.2959133587147995 0.0
-0.00211878806883117 0.2959415681494608 0.0
-0.002144408620739894 0.29595464304930913 0.0
-0.002140885111456807 0.2959577166377625 0.0
0.0 0.0 0.0
-0.00017406189454399765 0.0026691615885069235 0.0
-0.00036898840453766514 0.005276624799966062 0.0
-0.0006530117692654782 0.007847399881504354 0.0
-0.0010136336727448268 0.010421153937816686 0.0
-0.001423407215527398 0.013016838070529604 0.0
-0.0018597678606118472 0.0156399681167941 0.0
-0.00230648794774033 0.01828943175042767 0.0
-0.0027524221771759445 0.02096132433157425 0.0
-0.0031900811034894496 0.02365087792394191 0.0
-0.003614514922539641 0.02635335954265075 0.0
-0.004022525632942716 0.02906444907951852 0.0
-0.004412127384270804 0.03178036493388904 0.0
-0.004782179183550811 0.03449787248000682 0.0
-0.005132133358783799 0.03721424215164247 0.0
-0.005461861417413477 0.03992718944180323 0.0
-0.005771531830336347 0.04263481204428432 0.0
-0.006061523050457647 0.04533553088200946 0.0
-0.006332360743108752 0.04802803763422536 0.0
-0.006584671911732403 0.05071124937846826 0.0
-0.006819150993353087 0.0533842700532435 0.0
-0.007036534571274862 0.056046358068421474 0.0
-0.007237582386885573 0.05869689927683095 0.0
-0.0074230630255616905 0.06133538453018502 0.0
-0.0075937431187816365 0.06396139110735095 0.0
-0.007750379224804959 0.06657456738699477 0.0
-0.007893711771978887 0.06917462022327035 0.0
-0.008024460604774731 0.07176130456435811 0.0
-0.008143321783894143 0.07433441492627596 0.0
-0.008250965372433288 0.07689377839760309 0.0
-0.008348033999424328 0.07943924890493527 0.0
-0.00843514203646973 0.08197070251480164 0.0
-0.008512875256916198 0.08448803358641671 0.0
-0.008581790873035929 0.08699115162197978 0.0
-0.008642417867038591 0.0894799786881969 0.0
-0.008695257547866079 0.09195444730510408 0.0
-0.008740784278628235 0.09441449871684132 0.0
-0.008779446329972096 0.0968600814743767 0.0
-0.008811666823165773 0.09929115027285208 0.0
-0.008837844733619298 0.10170766499665043 0.0
-0.008858355931274757 0.10410958993386797 0.0
-0.008873554238985806 0.1064968931289131 0.0
-0.00888377249388789 0.10886954584773056 0.0
-0.008889323599945322 0.11122752213486646 0.0
-0.00889050156249514 0.11357079844546016 0.0
-0.008887582497764609 0.1158993533383977 0.0
-0.00888082561212228 0.1182131672194354 0.0
-0.008870474147255586 0.12051222212519734 0.0
-0.008856756288668817 0.1227965015406552 0.0
-0.008839886035826064 0.12506599024408982 0.0
-0.008820064033051574 0.12732067417465334 0.0
-0.008797478360898137 0.12956054031857225 0.0
-0.008772305288182385 0.13178557661077006 0.0
-0.008744709985267666 0.13399577184928727 0.0
-0.008714847199450388 0.136191115620377 0.0
-0.008682861893543854 0.13837159823253148 0.0
-0.008648889848886402 0.1405372106580271 0.0
-0.00861305823414228 0.14268794448082908 0.0
-0.0085754861412991 0.14482379184990687 0.0
-0.008536285090344008 0.14694474543718355 0.0
-0.008495559504090179 0.14905079839947774 0.0
-0.008453407154631871 0.15114194434390837 0.0
-0.00840991958288669 0.1532181772963206 0.0
-0.008365182492655767 0.15527949167236754 0.0
-0.00831927612058807 0.15732588225094268 0.0
-0.008272275583396889 0.1593573441496982 0.0
-0.00822425120361298 0.16137387280243917 0.0
-0.008175268815129475 0.1633754639382016 0.0
-0.008125390049707472 0.16536211356184585 0.0
-0.008074672605586116 0.16733381793604407 0.0
-0.008023170499265878 0.16929057356452587 0.0
-0.007970934301485683 0.17123237717648243 0.0
-0.007918011358354002 0.17315922571203565 0.0
-0.007864445998565344 0.17507111630868694 0.0
-0.007810279727543894 0.17696804628867305 0.0
-0.007755551409343091 0.17885001314716678 0.0
-0.007700297437063148 0.18071701454124917 0.0
-0.007644551892511644 0.18256904827961754 0.0
-0.007588346695792371 0.18440611231296056 0.0
-0.0075317117454482725 0.18622820472496174 0.0
-0.007474675049780334 0.18803532372389897 0.0
-0.007417262849891133 0.18982746763478858 0.0
-0.007359499735002616 0.1916046348920392 0.0
-0.007301408750526917 0.19336682403258926 0.0
-0.007243011499378322 0.1951140336894951 0.0
-0.007184328236954418 0.19684626258593904 0.0
-0.007125377960204513 0.1985635095296297 0.0
-0.007066178491180933 0.20026577340757734 0.0
-0.007006746555422596 0.20195305318120857 0.0
-0.006947097855524946 0.20362534788181091 0.0
-0.00688724714021947 0.20528265660628106 0.0
-0.006827208269258249 0.20692497851317004 0.0
-0.00676699427439038 0.2085523128189848 0.0
-0.006706617416697185 0.21016465879474694 0.0
-0.006646089240547943 0.21176201576279524 0.0
-0.006585420624390901 0.21334438309381035 0.0
-0.0065246218286228565 0.2149117602040461 0.0
-0.006463702540739544 0.2164641465527701 0.0
-0.00640267191796674 0.21800154163988608 0.0
-0.006341538627557649 0.21952394500373623 0.0
-0.006280310884931325 0.22103135621907372 0.0
-0.0062189964898318375 0.22252377489519495 0.0
-0.006157602860645361 0.22400120067421966 0.0
-0.0060961370670645325 0.22546363322950974 0.0
-0.0060346058611812645 0.22691107226424984 0.0
-0.0059730157072164095 0.22834351751013104 0.0
-0.0059113728099606175 0.22976096872617124 0.0
-0.005849683142086591 0.2311634256976599 0.0
-0.005787952470438805 0.23255088823520612 0.0
-0.005726186381400809 0.23392335617391352 0.0
-0.005664390305498979 0.2352808293726475 0.0
-0.005602569541287246 0.23662330771341542 0.0
-0.005540729278686045 0.23795079110084535 0.0
-0.0054788746218102724 0.23926327946177367 0.0
-0.005417010611439399 0.24056077274490875 0.0
-0.005355142247211244 0.2418432709206122 0.0
-0.0052932745096210656 0.24311077398075398 0.0
-0.005231412381950051 0.24436328193868462 0.0
-0.005169560872200321 0.24560079482928132 0.0
-0.0051077250351431866 0.24682331270910157 0.0
-0.00504590999457204 0.2480308356566191 0.0
-0.004984120965865444 0.24922336377256007 0.0
-0.004922363278943391 0.25040089718033964 0.0
-0.004860642401747646 0.25156343602658443 0.0
-0.004798963964314148 0.2527109804817566 0.0
-0.0047373337835755576 0.25384353074089483 0.0
-0.0046757578889785436 0.25496108702443365 0.0
-0.0046142425490440985 0.256063649579145 0.0
-0.004552794299002953 0.2571512186791747 0.0
-0.004491419969573389 0.2582237946272042 0.0
-0.004430126717076786 0.25928137775571664 0.0
-0.004368922054981164 0.26032396842839006 0.0
-0.004307813887031803 0.2613515670415901 0.0
-0.0042468105421085344 0.2623641740260066 0.0
-0.0041859208109568035 0.2633617898484006 0.0
-0.0041251539849721155 0.2643444150134808 0.0
-0.0040645198972105315 0.2653120500659118 0.0
-0.004004028965785694 0.2662646955924424 0.0
-0.003943692239874112 0.26720235222418015 0.0
-0.003883521448508217 0.2681250206389609 0.0
-0.003823529052410008 0.2690327015638565 0.0
-0.003763728299031726 0.26992539577778196 0.0
-0.0037041332811304675 0.2708031041142323 0.0
-0.003644758999077794 0.27166582746406204 0.0
-0.00358562142718796 0.27251356677834787 0.0
-0.0035267375843865555 0.2733463230712937 0.0
-0.0034681256094942375 0.27416409742312775 0.0
-0.003409804841486526 0.2749668909829576 0.0
-0.0033517959050492225 0.27575470497152244 0.0
-0.0032941208018168137 0.27652754068376084 0.0
-0.0032368030076732426 0.27728539949112 0.0
-0.00317986757651622 0.2780282828434871 0.0
-0.0031233412509237995 0.27875619227058557 0.0
-0.00306725258015902 0.2794691293826863 0.0
-0.003011632045957409 0.2801670958704432 0.0
-0.0029565121965957762 0.2808500935035242 0.0
-0.0029019277896874408 0.2815181241278091 0.0
-0.0028479159442054936 0.2821711896607233 0.0
-0.00279451630217229 0.2828092920842864 0.0
-0.0027417712004896987 0.2834324334352697 0.0
-0.0026897258532885154 0.284040615791877 0.0
-0.0026384285451496233 0.2846338412560796 0.0
-0.002587930835452081 0.28521211193072027 0.0
-0.002538287773934448 0.28577542989019517 0.0
-0.0024895581274436696 0.2863237971433934 0.0
-0.002441804617519391 0.28685721558730687 0.0
-0.002395094168213863 0.28737568694938903 0.0
-0.002349498162971446 0.2878792127164562 0.0
-0.0023050927089538725 0.28836779404753865 0.0
-0.0022619589063455465 0.28884143166766685 0.0
-0.002220183119036005 0.28930012573903974 0.0
-0.002179857242160096 0.2897438757057054 0.0
-0.002141078959460534 0.290172680106982 0.0
-0.0021039519826999194 0.2905865363551698 0.0
-0.0020685862594435893 0.29098544047099345 0.0
-0.0020350981381014196 0.29136938677308305 0.0
-0.0020036104618045072 0.2917383675119949 0.0
-0.0019742525811287737 0.2920923724508743 0.0
-0.0019471602208895307 0.29243138837507104 0.0
-0.0019224752174047464 0.292755398556133 0.0
-0.001900344956595796 0.29306438212313873 0.0
-0.0018809216641334679 0.29335831345011576 0.0
-0.0018643610395349907 0.29363716139662316 0.0
-0.0018508209432848634 0.2939008888028999 0.0
-0.0018404584583838932 0.2941494516215607 0.0
-0.001833428186614153 0.294382799118451 0.0
-0.0018298759025465025 0.29460087276922636 0.0
-0.001829938487008098 0.29480360895865365 0.0
-0.001833728932280107 0.29499093644135616 0.0
-0.0018413471715731265 0.2951627869101231 0.0
-0.0018528390791015723 0.2953190846032043 0.0
-0.0018682540774328424 0.29545978148739444 0.0
-0.001887515298307401 0.29558481091911315 0.0
-0.0019106537596900656 0.29569420370727245 0.0
-0.0019373553700258706 0.29578789615748524 0.0
-0.0019678158686822025 0.2958661377565836 0.0
-0.0020011572016716893 0.2959287517146275 0.0
-0.0020381838051264645 0.29597672516790924 0.0
-0.002077388438618004 0.29600923803432805 0.0
-0.0021155793781784823 0.29602910026534757 0.0
-0.002112034095535512 0.2960404203740214 0.0
0.0 0.0 0.0
-0.00010947661877909858 0.0028897421803289933 0.0
-0.00022700576826986457 0.005686096073940717 0.0
-0.0004126825849401167 0.008417189281907192 0.0
-0.0006592354904417639 0.011108330680249499 0.0
-0.000954255480877862 0.013780281005903878 0.0
-0.0012834103899731892 0.016446317760138187 0.0
-0.0016337122311893466 0.019113533487799827 0.0
-0.0019945770354845693 0.021784911244840634 0.0
-0.0023578441631596564 0.024460989548661882 0.0
-0.0027174291096000946 0.02714097897450848 0.0
-0.003068906600594092 0.029823448131529092 0.0
-0.003409135079498855 0.0325067226279149 0.0
-0.003735950671571811 0.03518910568916203 0.0
-0.004047928676693059 0.03786899225868581 0.0
-0.004344201220801321 0.04054492127412096 0.0
-0.004624318871558085 0.04321559307719251 0.0
-0.004888145675519421 0.0458798679440016 0.0
-0.005135779340091376 0.048536755075647135 0.0
-0.005367490278779326 0.05118539742238201 0.0
-0.005583674854273785 0.053825055355343925 0.0
-0.0057848193662471065 0.05645509080841145 0.0
-0.005971472231207145 0.05907495269666213 0.0
-0.006144222455817629 0.06168416394706902 0.0
-0.006303682982395549 0.0642823102117089 0.0
-0.006450477832405137 0.06686903019120279 0.0
-0.006585232228628052 0.06944400742599785 0.0
-0.0067085650647977415 0.07200696338530642 0.0
-0.006821083231967841 0.07455765167966023 0.0
-0.006923377416759664 0.07709585323211952 0.0
-0.007016019067414607 0.07962137225854563 0.0
-0.007099558285841347 0.0821340329251338 0.0
-0.007174522452369831 0.0846336765693594 0.0
-0.0072414154280950795 0.08712015938741978 0.0
-0.007300717209972024 0.08959335050656417 0.0
-0.007352883938037609 0.0920531303741779 0.0
-0.007398348173592458 0.09449938940710587 0.0
-0.0074375193829040115 0.09693202685459763 0.0
-0.0074707845737425425 0.09935094983657362 0.0
-0.0074985090424325015 0.10175607252586114 0.0
-0.007521037197544501 0.10414731544879918 0.0
-0.007538693433232001 0.10652460488335085 0.0
-0.007551783030830635 0.10888787233775532 0.0
-0.007560593071902378 0.11123705409592148 0.0
-0.007565393349626537 0.11357209081835368 0.0
-0.007566437268458747 0.11589292718950377 0.0
-0.0075639627244172844 0.11819951160414174 0.0
-0.007558192960342696 0.12049179588671628 0.0
-0.007549337392052018 0.12276973503879028 0.0
-0.007537592402591904 0.12503328701053076 0.0
-0.00752314210279989 0.12728241249295577 0.0
-0.0075061590571909925 0.12951707472823007 0.0
-0.007486804974812507 0.13173723933576093 0.0
-0.00746523136519825 0.13394287415224024 0.0
-0.00744158015992819 0.1361339490840613 0.0
-0.007415984300587474 0.1383104359708167 0.0
-0.007388568294113874 0.14047230845875394 0.0
-0.0073594487366847134 0.14261954188324877 0.0
-0.00732873480738558 0.14475211315947484 0.0
-0.007296528732968422 0.14687000068057346 0.0
-0.007262926225046796 0.1489731842226958 0.0
-0.007228016891067319 0.15106164485637907 0.0
-0.00719188462041035 0.15313536486376883 0.0
-0.007154607946932996 0.15519432766126223 0.0
-0.007116260389247096 0.15723851772717626 0.0
-0.007076910769972235 0.15926792053409508 0.0
-0.007036623515174375 0.1612825224855756 0.0
-0.006995458935140714 0.16328231085690884 0.0
-0.006953473487587154 0.16526727373968386 0.0
-0.006910720024361099 0.16723739998989118 0.0
-0.006867248022625052 0.1691926791793415 0.0
-0.0068231038014813635 0.17113310155019024 0.0
-0.006778330724921118 0.17305865797236133 0.0
-0.006732969391956614 0.17496933990369232 0.0
-0.006687057814734426 0.17686513935263354 0.0
-0.006640631585374822 0.17874604884332412 0.0
-0.006593724032257358 0.18061206138290947 0.0
-0.006546366366424625 0.18246317043095997 0.0
-0.006498587818715627 0.18429936987084486 0.0
-0.006450415768242448 0.18612065398295408 0.0
-0.00640187586274873 0.1879270174196506 0.0
-0.0063529921313800995 0.18971845518183664 0.0
-0.006303787090353544 0.19149496259704 0.0
-0.006254281841989325 0.1932565352989271 0.0
-0.006204496167533557 0.19500316920815297 0.0
-0.00615444861417661 0.19673486051445976 0.0
-0.0061041565766485565 0.19845160565995232 0.0
-0.00605363637375907 0.20015340132348103 0.0
-0.006002903320188999 0.2018402444060592 0.0
-0.005951971793888825 0.20351213201724722 0.0
-0.005900855299339201 0.2051690614624593 0.0
-0.005849566526982541 0.20681103023112452 0.0
-0.005798117409067276 0.2084380359856522 0.0
-0.005746519172157327 0.21005007655115993 0.0
-0.005694782386541277 0.21164714990591196 0.0
-0.005642917012747169 0.21322925417242947 0.0
-0.0055909324453832015 0.21479638760923755 0.0
-0.005538837554478868 0.21634854860320882 0.0
-0.005486640724519196 0.21788573566247163 0.0
-0.005434349891354554 0.21940794740984088 0.0
-0.005381972577119484 0.2209151825767659 0.0
-0.005329515923339539 0.22240743999775442 0.0
-0.005276986722359184 0.2238847186052429 0.0
-0.005224391447244176 0.22534701742490246 0.0
-0.005171736280265436 0.22679433557134512 0.0
-0.0051190271401032345 0.22822667224423057 0.0
-0.005066269707906138 0.22964402672475495 0.0
-0.00501346945228658 0.2310463983724767 0.0
-0.004960631653390263 0.23243378662250144 0.0
-0.004907761426142008 0.23380619098300684 0.0
-0.004854863742750584 0.2351636110330606 0.0
-0.004801943454600384 0.23650604642077924 0.0
-0.004749005313599085 0.2378334968617807 0.0
-0.004696053993090925 0.23914596213792585 0.0
-0.004643094108437629 0.24044344209636154 0.0
-0.004590130237325136 0.24172593664884506 0.0
-0.0045371669399146605 0.24299344577135368 0.0
-0.0044842087789226425 0.24424596950397584 0.0
-0.004431260339705115 0.24548350795109025 0.0
-0.004378326250443228 0.24670606128181058 0.0
-0.004325411202524672 0.24791362973074604 0.0
-0.004272519971205597 0.24910621359901064 0.0
-0.004219657436630274 0.25028381325554006 0.0
-0.004166828605333253 0.25144642913871557 0.0
-0.004114038632294186 0.2525940617582742 0.0
-0.004061292843642891 0.25372671169754474 0.0
-0.004008596760135261 0.25484437961599093 0.0
-0.003955956121490714 0.2559470662520948 0.0
-0.0039033769116795717 0.25703477242657813 0.0
-0.0038508653853262026 0.25810749904597285 0.0
-0.003798428095306017 0.25916524710656935 0.0
-0.0037460719216420974 0.260208017698751 0.0
-0.0036938041018941365 0.26123581201172874 0.0
-0.003641632263118016 0.26224863133867776 0.0
-0.0035895644555657053 0.2632464770823224 0.0
-0.003537609188288406 0.2642293507609825 0.0
-0.003485775466771527 0.26519725401509014 0.0
-0.0034340728328074925 0.2661501886142105 0.0
-0.0033825114067799595 0.26708815646457823 0.0
-0.0033311019325361507 0.2680111596171787 0.0
-0.0032798558250878296 0.26891920027638705 0.0
-0.003228785221335955 0.2698122808092042 0.0
-0.0031779030340744405 0.270690403755097 0.0
-0.003127223009514705 0.27155357183645445 0.0
-0.0030767597886368387 0.2724017879696792 0.0
-0.003026528972602284 0.27323505527695435 0.0
-0.0029765471926218342 0.27405337709865807 0.0
-0.002926832184562356 0.2748567570064038 0.0
-0.0028774028686774063 0.27564519881676525 0.0
-0.0028282794348806705 0.2764187066056143 0.0
-0.002779483433964789 0.2771772847230329 0.0
-0.002731037875240743 0.27792093780874993 0.0
-0.0026829673311141128 0.2786496708080414 0.0
-0.0026352980491059982 0.2793634889879412 0.0
-0.002588058071959391 0.2800623979536404 0.0
-0.0025412773664190403 0.28074640366486237 0.0
-0.0024949879614054155 0.28141551245198726 0.0
-0.0024492240963074684 0.28206973103155125 0.0
-0.002404022380226916 0.2827090665207257 0.0
-0.0023594219629878444 0.28333352645027027 0.0
-0.002315464718890933 0.2839431187752734 0.0
-0.002272195444168957 0.2845378518828853 0.0
-0.0022296620691914367 0.2851177345960212 0.0
-0.002187915886549949 0.28568277617179333 0.0
-0.0021470117961205266 0.2862329862930994 0.0
-0.002107008568310653 0.28676837505153363 0.0
-0.0020679691266202276 0.28728895291923034 0.0
-0.0020299608506269906 0.28779473070679884 0.0
-0.001993055900401692 0.28828571950396426 0.0
-0.001957331563022599 0.2887619305986048 0.0
-0.0019228706218076769 0.2892233753690808 0.0
-0.0018897617477366005 0.28967006514363575 0.0
-0.0018580999127671592 0.2901020110194445 0.0
-0.0018279868215846154 0.2905192236319439 0.0
-0.0017995313604504827 0.290921712864261 0.0
-0.0017728500515514691 0.2913094874827242 0.0
-0.001748067513123044 0.29168255468517895 0.0
-0.001725316891025507 0.2920409195407951 0.0
-0.001704740277686571 0.2923845843079914 0.0
-0.0016864890155903443 0.29271354759467955 0.0
-0.0016707239797989228 0.29302780336227985 0.0
-0.0016576155131282275 0.2933273397011337 0.0
-0.0016473434392178254 0.29361213745118686 0.0
-0.0016400960604135853 0.2938821684785943 0.0
-0.0016360698640162674 0.2941373939645874 0.0
-0.001635466128540849 0.2943777620933875 0.0
-0.001638491091252596 0.2946032065270966 0.0
-0.0016453460732626956 0.29481364344900474 0.0
-0.0016562327144242534 0.2950089722575495 0.0
-0.0016713240157790782 0.2951890715452139 0.0
-0.0016907950191934684 0.29535380861784116 0.0
-0.0017147329754024702 0.29550303062983696 0.0
-0.001743274458283938 0.29563660270459735 0.0
-0.0017763081765517041 0.2957543706269979 0.0
-0.001814019987877553 0.29585628567723377 0.0
-0.001855854088375633 0.29594221436783563 0.0
-0.0019024842249628152 0.2960123686625748 0.0
-0.001952112113707546 0.2960663149308622 0.0
-0.002005974223425559 0.2961055096438199 0.0
-0.0020590501610473623 0.29612805935740344 0.0
-0.002051540778146331 0.29613979327979484 0.0
0.0 0.0 0.0
-6.800774175588649e-05 0.003012498146908197 0.0
-0.00014653515179649542 0.005934207501443616 0.0
-0.0002714428478563348 0.008780157921424024 0.0
-0.00044188993859032926 0.011569482107638793 0.0
-0.0006514779058959683 0.014318038497686602 0.0
-0.0008924640761936132 0.017038512055761457 0.0
-0.0011565798166908313 0.01974019619896112 0.0
-0.001435986736941641 0.022429364986061538 0.0
-0.0017238261803296892 0.025109944488035066 0.0
-0.0020144091934243403 0.027784181497076635 0.0
-0.0023031931938559107 0.03045318996320423 0.0
-0.0025866589223109823 0.03311735407478466 0.0
-0.0028621551420498588 0.035776608420365 0.0
-0.00312774474189391 0.03843062507817697 0.0
-0.0033820667953759036 0.041078934762576985 0.0
-0.003624218985847671 0.04372100307246336 0.0
-0.0038536601768006705 0.04635627699209608 0.0
-0.004070130965026837 0.04898421209990636 0.0
-0.004273589526419449 0.05160428751334454 0.0
-0.004464160120814919 0.05421601320677208 0.0
-0.004642091929855168 0.056818932715706115 0.0
-0.004807726262389043 0.05941262315704852 0.0
-0.004961470510076736 0.06199669378080162 0.0
-0.005103777537788836 0.06457078380325494 0.0
-0.005235129446381312 0.06713455997149571 0.0
-0.005356024851431703 0.06968771411804367 0.0
-0.005466968988019403 0.07222996084475503 0.0
-0.00556846608524222 0.07476103540181732 0.0
-0.0056610135614443375 0.07728069178410313 0.0
-0.005745097677281219 0.07978870104248022 0.0
-0.005821190353117997 0.08228484979477808 0.0
-0.0058897469132419495 0.0847689389153626 0.0
-0.005951204564654828 0.0872407823807414 0.0
-0.006005981454932353 0.08970020624941497 0.0
-0.006054476183446685 0.09214704775616593 0.0
-0.006097067664490271 0.094581154503433 0.0
-0.006134115260554873 0.09700238373493685 0.0
-0.006165959120066858 0.0994106016791107 0.0
-0.0061929206669302335 0.10180568295200118 0.0
-0.006215303199846754 0.10418751001115834 0.0
-0.006233392567999589 0.10655597265355637 0.0
-0.006247457896683691 0.10891096755188258 0.0
-0.006257752342129892 0.11125239782456653 0.0
-0.00626451385935001 0.11358017263577039 0.0
-0.006267965970521357 0.11589420682222792 0.0
-0.006268318524406242 0.118194420544361 0.0
-0.006265768439674321 0.12048073895952498 0.0
-0.006260500426909617 0.12275309191556832 0.0
-0.006252687685587803 0.12501141366315918 0.0
-0.006242492573520327 0.12725564258553404 0.0
-0.006230067247191511 0.12948572094449337 0.0
-0.006215554272157779 0.13170159464159537 0.0
-0.006199087203255529 0.1339032129936029 0.0
-0.006180791134783085 0.13609052852133902 0.0
-0.006160783221167811 0.1382634967511486 0.0
-0.006139173168863573 0.1404220760282433 0.0
-0.006116063700404242 0.14256622734125055 0.0
-0.006091550991654459 0.14469591415732655 0.0
-0.0060657250833880015 0.1468111022672334 0.0
-0.0060386702683506745 0.14891175963982045 0.0
-0.006010465455016457 0.1509978562853629 0.0
-0.005981184509210042 0.15306936412726013 0.0
-0.005950896574779674 0.15512625688161524 0.0
-0.005919666374470517 0.15716850994422255 0.0
-0.005887554492112152 0.1591961002845565 0.0
-0.005854617637195285 0.16120900634633537 0.0
-0.0058209088928765735 0.16320720795427718 0.0
-0.005786477948394062 0.16519068622668107 0.0
-0.005751371316832721 0.1671594234934887 0.0
-0.0057156325391433975 0.16911340321948973 0.0
-0.005679302375248477 0.1710526099323713 0.0
-0.005642418983046617 0.17297702915531474 0.0
-0.00560501808606735 0.17488664734385992 0.0
-0.005567133130487644 0.17678145182677982 0.0
-0.005528795432189114 0.17866143075072172 0.0
-0.005490034314486459 0.18052657302837638 0.0
-0.005450877237107487 0.1823768682899665 0.0
-0.00541134991701106 0.1842123068378487 0.0
-0.005371476441541536 0.18603287960402598 0.0
-0.005331279374433136 0.18783857811040675 0.0
-0.005290779855108469 0.18962939443162494 0.0
-0.005249997691719009 0.19140532116027945 0.0
-0.005208951448334096 0.19316635137442625 0.0
-0.00516765852665109 0.19491247860719077 0.0
-0.005126135242591164 0.1966436968183731 0.0
-0.00508439689812753 0.19836000036791762 0.0
-0.005042457848626569 0.20006138399114004 0.0
-0.005000331566057437 0.20174784277558755 0.0
-0.004958030698278019 0.20341937213945147 0.0
-0.004915567124719681 0.2050759678114294 0.0
-0.004872952008669692 0.20671762581194936 0.0
-0.004830195846417646 0.20834434243567135 0.0
-0.004787308513456718 0.2099561142351901 0.0
-0.004744299307948397 0.21155293800588376 0.0
-0.004701176991649653 0.21313481077180838 0.0
-0.004657949828486241 0.21470172977261598 0.0
-0.004614625620919899 0.21625369245141152 0.0
-0.004571211744295943 0.21779069644350335 0.0
-0.004527715179303059 0.2193127395660032 0.0
-0.00448414254269876 0.22081981980822346 0.0
-0.004440500116433024 0.2223119353228235 0.0
-0.004396793875302912 0.223789084417696 0.0
-0.004353029513239572 0.2252512655485121 0.0
-0.004309212468376596 0.22669847731192608 0.0
-0.004265347946986921 0.22813071843940003 0.0
-0.004221440946391156 0.22954798779162738 0.0
-0.0041774962769558265 0.23095028435351384 0.0
-0.0041335185832651064 0.23233760722971677 0.0
-0.004089512364562568 0.23370995564070426 0.0
-0.004045481994556689 0.23506732891932236 0.0
-0.004001431740670697 0.23640972650785866 0.0
-0.003957365782822212 0.23773714795559273 0.0
-0.003913288231834578 0.23904959291680994 0.0
-0.0038692031475090756 0.2403470611492811 0.0
-0.003825114556519942 0.24162955251319587 0.0
-0.0037810264701238637 0.24289706697054467 0.0
-0.003736942901827031 0.24414960458495705 0.0
-0.003692867885050904 0.24538716552197481 0.0
-0.0036488054909015535 0.24660975004979896 0.0
-0.003604759846083722 0.24781735854044024 0.0
-0.00356073515108299 0.24900999147137753 0.0
-0.0035167356986720313 0.2501876494276495 0.0
-0.0034727658928101314 0.2513503331044291 0.0
-0.00342883026805929 0.25249804331007736 0.0
-0.003384933509567835 0.25363078096970243 0.0
-0.0033410804737197654 0.2547485471292146 0.0
-0.003297276209553793 0.25585134295994166 0.0
-0.0032535259810433956 0.25693916976374814 0.0
-0.0032098352903217006 0.2580120289787841 0.0
-0.003166209901980344 0.25906992218576974 0.0
-0.0031226558685381713 0.26011285111495086 0.0
-0.0030791795571936988 0.26114081765368147 0.0
-0.003035787677995645 0.26215382385468783 0.0
-0.0029924873135544483 0.2631518719450645 0.0
-0.002949285950423591 0.264134964336016 0.0
-0.002906191512327729 0.265103103633389 0.0
-0.0028632123953471478 0.26605629264905434 0.0
-0.0028203575052647757 0.26699453441315557 0.0
-0.0027776362972468855 0.26791783218729354 0.0
-0.0027350588180265786 0.26882618947868875 0.0
-0.002692635750842411 0.26971961005536993 0.0
-0.0026503784633081194 0.2705980979624568 0.0
-0.002608299058492185 0.2714616575395657 0.0
-0.002566410429445381 0.2723102934394182 0.0
-0.00252472631748527 0.27314401064771554 0.0
-0.002483261374534635 0.27396281450430343 0.0
-0.0024420312298485598 0.27476671072572034 0.0
-0.0024010525615369965 0.2755557054291605 0.0
-0.002360343173240818 0.27632980515787914 0.0
-0.002319922076479077 0.2770890169081265 0.0
-0.002279809579103672 0.277833348157611 0.0
-0.0022400273804541143 0.2785628068955054 0.0
-0.00220059867384447 0.27927740165400666 0.0
-0.0021615482570035223 0.27997714154137743 0.0
-0.0021229026513009904 0.2806620362764942 0.0
-0.0020846902305748276 0.28133209622469135 0.0
-0.0020469413605605407 0.2819873324348304 0.0
-0.0020096885499429956 0.28262775667731144 0.0
-0.0019729666143203663 0.28325338148273543 0.0
-0.0019368128543913302 0.2838642201807882 0.0
-0.0019012672499724875 0.2844602869387757 0.0
-0.0018663726715439093 0.2850415967991023 0.0
-0.0018321751113525445 0.2856081657146989 0.0
-0.0017987239363202838 0.28616001058118407 0.0
-0.001766072165225553 0.2866971492642154 0.0
-0.0017342767731085458 0.28721960061995744 0.0
-0.0017033990260474762 0.2877273845061974 0.0
-0.0016735048499450257 0.28822052178087165 0.0
-0.0016446652373529028 0.28869903428389515 0.0
-0.00161695669662757 0.2891629447971802 0.0
-0.0015904617486324508 0.2896122769763886 0.0
-0.0015652694753984064 0.29004705524620633 0.0
-0.0015414761276852068 0.29046730464890586 0.0
-0.0015191857940902757 0.2908730506332031 0.0
-0.001498511142438882 0.29126431876716796 0.0
-0.0014795742271916476 0.29164113435473116 0.0
-0.0014625073861762666 0.29200352193015966 0.0
-0.0014474541868187785 0.29235150459861414 0.0
-0.00143457049248228 0.29268510318296737 0.0
-0.0014240254897393823 0.2930043351283739 0.0
-0.0014160029300557615 0.29330921310468794 0.0
-0.0014107020023969128 0.2935997432370773 0.0
-0.001408338791300674 0.2938759228814532 0.0
-0.0014091462165475455 0.2941377378588013 0.0
-0.001413376062379283 0.29438515905401874 0.0
-0.0014212954992436737 0.2946181383241023 0.0
-0.0014331916591329079 0.29483660368499626 0.0
-0.0014493566974842788 0.29504045394925144 0.0
-0.0014701040293895594 0.2952295531307071 0.0
-0.0014957152988819245 0.2954037256785841 0.0
-0.0015265068379759384 0.2955627540950835 0.0
-0.0015626487114564734 0.29570638254535475 0.0
-0.0016044379071552112 0.2958343318014765 0.0
-0.0016516831021736705 0.2959463295593225 0.0
-0.0017048057938325901 0.29604218068772614 0.0
-0.0017627227828755912 0.2961217705119192 0.0
-0.0018271170196242081 0.296185378329094 0.0
-0.0018942831770408894 0.296232112832131 0.0
-0.001960266117661924 0.29626595775364506 0.0
-0.0019551200987070767 0.29629040422941044 0.0
0.0 0.0 0.0
-4.492153323450445e-05 0.0030963933394049688 0.0
-9.686778262477211e-05 0.006103248057999773 0.0
-0.00018131855264052124 0.0090319691252501 0.0
-0.0002985005228637949 0.011895931712992398 0.0
-0.0004454195934769823 0.01470774723097899 0.0
-0.0006176829091759799 0.01747829022250854 0.0
-0.0008102862138752539 0.02021658244184618 0.0
-0.0010180490350896643 0.02292978855887833 0.0
-0.0012360071358456521 0.025623368880287847 0.0
-0.0014596796209469295 0.02830134078602744 0.0
-0.0016852050592137421 0.03096656921049257 0.0
-0.0019093774242549082 0.03362103569582135 0.0
-0.0021296187664030836 0.03626606356063309 0.0
-0.002343918346838885 0.038902495258264676 0.0
-0.0025507580374068937 0.04153082680311574 0.0
-0.0027490359354211628 0.04415130719064084 0.0
-0.0029379945931817275 0.04676401079352681 0.0
-0.003117156853940474 0.04936888959702082 0.0
-0.003286270259249946 0.05196581071050414 0.0
-0.003445259905420231 0.054554583269452034 0.0
-0.003594189078399446 0.057134977749518714 0.0
-0.00373322677379537 0.05970673987158228 0.0
-0.0038626211582798203 0.06226960064956764 0.0
-0.003982678071109629 0.06482328367864397 0.0
-0.004093743748407175 0.06736751043744864 0.0
-0.004196191052552138 0.06990200414972367 0.0
-0.0042904085892626915 0.07242649259096089 0.0
-0.004376792188824259 0.0749407101142943 0.0
-0.004455738312056835 0.0774443990923358 0.0
-0.004527639015161524 0.07993731091757365 0.0
-0.004592878170712201 0.08241920666607454 0.0
-0.0046518286956023225 0.08488985750250154 0.0
-0.00470485058174244 0.08734904488541353 0.0
-0.004752289562844553 0.08979656061805778 0.0
-0.004794476281772576 0.09223220677979849 0.0
-0.004831725848657559 0.09465579556581619 0.0
-0.004864337701135009 0.09706714905702248 0.0
-0.00489259569540001 0.09946609893774999 0.0
-0.004916768370948869 0.10185248617534115 0.0
-0.004937109343419173 0.10422616067301553 0.0
-0.004953857789324011 0.10658698090520885 0.0
-0.004967238994071297 0.10893481354277418 0.0
-0.004977464940809119 0.11126953307397995 0.0
-0.004984734922587837 0.11359102142603172 0.0
-0.004989236164304181 0.1158991675908461 0.0
-0.004991144444086987 0.11819386725798982 0.0
-0.004990624706327873 0.12047502245700949 0.0
-0.004987831660582729 0.12274254121082259 0.0
-0.004982910362179188 0.12499633720137722 0.0
-0.0049759967716288865 0.12723632944840718 0.0
-0.004967218290932512 0.12946244200181217 0.0
-0.004956694275643169 0.13167460364792574 0.0
-0.004944536522144981 0.1338727476297523 0.0
-0.004930849730065703 0.13605681138107817 0.0
-0.004915731940074049 0.13822673627425358 0.0
-0.0048992749475886685 0.14038246738133414 0.0
-0.004881564693085832 0.1425239532481975 0.0
-0.004862681629841862 0.14465114568120602 0.0
-0.004842701070025702 0.1467639995459382 0.0
-0.004821693510104273 0.1488624725775018 0.0
-0.004799724936561483 0.1509465252019032 0.0
-0.004776857112928843 0.15301612036797171 0.0
-0.004753147849124833 0.15507122338930687 0.0
-0.004728651254075873 0.15711180179575604 0.0
-0.004703417972560692 0.1591378251939048 0.0
-0.0046774954072154274 0.1611492651361117 0.0
-0.004650927926541267 0.16314609499760388 0.0
-0.00462375705979122 0.16512828986118164 0.0
-0.0045960216795120044 0.1670958264091071 0.0
-0.004567758172508404 0.1690486828217482 0.0
-0.004539000599949316 0.17098683868258988 0.0
-0.004509780847292302 0.1729102748892281 0.0
-0.004480128764671742 0.17481897357000017 0.0
-0.004450072298348029 0.1767129180058965 0.0
-0.004419637613794608 0.1785920925574477 0.0
-0.004388849210949201 0.18045648259627475 0.0
-0.004357730032136414 0.18230607444101724 0.0
-0.004326301563136299 0.1841408552973758 0.0
-0.004294583927830508 0.1859608132020095 0.0
-0.00426259597685267 0.18776593697005128 0.0
-0.004230355370629576 0.18955621614602455 0.0
-0.004197878657171581 0.1913316409579328 0.0
-0.0041651813449653146 0.1930922022743472 0.0
-0.0041322779712808545 0.19483789156429335 0.0
-0.004099182166202182 0.19656870085976094 0.0
-0.004065906712649972 0.19828462272069078 0.0
-0.004032463602688106 0.1999856502022596 0.0
-0.0039988640903205 0.20167177682435788 0.0
-0.003965118741057609 0.20334299654308882 0.0
-0.003931237478440789 0.2049993037241935 0.0
-0.003897229627728935 0.20664069311827268 0.0
-0.0038631039569666783 0.20826715983769564 0.0
-0.003828868715580963 0.2098786993350998 0.0
-0.003794531670703809 0.21147530738338283 0.0
-0.0037601001413672145 0.21305698005711557 0.0
-0.003725581030721801 0.2146237137152607 0.0
-0.0036909808564279363 0.21617550498515856 0.0
-0.003656305779346314 0.21771235074769324 0.0
-0.0036215616306601783 0.21923424812355352 0.0
-0.0035867539375369867 0.22074119446057877 0.0
-0.003551887947464193 0.22223318732207992 0.0
-0.003516968651351431 0.22371022447612282 0.0
-0.0034820008054834398 0.22517230388570217 0.0
-0.0034469889524707704 0.22661942369977825 0.0
-0.0034119374412366838 0.2280515822451301 0.0
-0.003376850446160462 0.22946877801899482 0.0
-0.0033417319854523804 0.23087100968245358 0.0
-0.003306585938834566 0.23225827605453975 0.0
-0.003271416064626459 0.23363057610704752 0.0
-0.003236226016280758 0.23498790896000213 0.0
-0.0032010193584665497 0.23633027387778774 0.0
-0.0031657995827573163 0.23765767026591508 0.0
-0.0031305701230047067 0.2389700976684002 0.0
-0.0030953343704530987 0.24026755576576694 0.0
-0.003060095688664848 0.24155004437363375 0.0
-0.0030248574283292125 0.2428175634419075 0.0
-0.002989622942015388 0.24407011305456688 0.0
-0.0029543955989356453 0.24530769343003667 0.0
-0.0029191787997739365 0.24653030492214964 0.0
-0.0028839759916807657 0.24773794802170823 0.0
-0.0028487906834295256 0.24893062335864982 0.0
-0.002813626460902516 0.25010833170482044 0.0
-0.0027784870028742165 0.2512710739773798 0.0
-0.0027433760972317115 0.25241885124284563 0.0
-0.0027082976576756116 0.2535516647217899 0.0
-0.002673255740983477 0.25466951579423364 0.0
-0.002638254564907069 0.25577240600571943 0.0
-0.0026032985267883143 0.2568603370741329 0.0
-0.002568392222994083 0.25793331089727445 0.0
-0.002533540469216773 0.25899132956123677 0.0
-0.002498748321781242 0.26003439534960077 0.0
-0.002464021100032975 0.2610625107535118 0.0
-0.0024293644099057077 0.2620756784826678 0.0
-0.0023947841687890262 0.2630739014772798 0.0
-0.002360286631811494 0.2640571829210457 0.0
-0.0023258784196845362 0.2650255262551956 0.0
-0.0022915665481910985 0.26597893519368193 0.0
-0.0022573584595151027 0.2669174137395769 0.0
-0.0022232620555498956 0.26784096620274317 0.0
-0.002189285733335439 0.2687495972188461 0.0
-0.002155438422864528 0.2696433117698246 0.0
-0.0021217296273566876 0.2705221152058773 0.0
-0.002088169466336664 0.27138601326905604 0.0
-0.002054768721660772 0.2722350121186035 0.0
-0.0020215388868041776 0.2730691183580885 0.0
-0.0019884922196753804 0.27388833906451526 0.0
-0.0019556417992991743 0.2746926818194632 0.0
-0.0019230015866602659 0.2754821547424039 0.0
-0.0018905864902135482 0.27625676652636594 0.0
-0.0018584124363664669 0.27701652647600405 0.0
-0.00182649644555404 0.27776144454827545 0.0
-0.001794856714372975 0.2784915313958224 0.0
-0.001763512704424918 0.2792067984132496 0.0
-0.001732485238635546 0.27990725778634673 0.0
-0.0017017966057907372 0.28059292254448087 0.0
-0.0016714706742509905 0.28126380661621275 0.0
-0.0016415330159085665 0.2819199248882607 0.0
-0.0016120110415935997 0.28256129326786716 0.0
-0.0015829341493412874 0.2831879287486281 0.0
-0.0015543338871599165 0.283799849479711 0.0
-0.0015262441321370575 0.2843970748384176 0.0
-0.001498701288122785 0.28497962550588035 0.0
-0.0014717445044723106 0.2855475235455333 0.0
-0.0014454159188431708 0.28610079248390874 0.0
-0.0014197609274511505 0.286639457392951 0.0
-0.00139482848688048 0.2871635449728985 0.0
-0.0013706714520590982 0.2876730836342544 0.0
-0.0013473469560488962 0.2881681035768569 0.0
-0.0013249168379161152 0.2886486368634981 0.0
-0.0013034481265573894 0.28911471748451345 0.0
-0.0012830135888414168 0.28956638140867186 0.0
-0.0012636923533244535 0.29000366661407095 0.0
-0.0012455706201294817 0.2904266130910713 0.0
-0.0012287424740510381 0.29083526280584787 0.0
-0.0012133108119389338 0.29122965961131714 0.0
-0.0011993884137636221 0.29160984908457116 0.0
-0.0011870991595856533 0.29197587826950916 0.0
-0.001176579454928123 0.2923277952849887 0.0
-0.001167979819899039 0.292665648768137 0.0
-0.0011614668103515774 0.29298948707026923 0.0
-0.0011572250352528503 0.2932993571780099 0.0
-0.00115545980832084 0.2935953031664113 0.0
-0.001156399471784745 0.2938773642302488 0.0
-0.0011602992724523817 0.2941455717764507 0.0
-0.0011674431329256852 0.29439994600773856 0.0
-0.0011781501353094403 0.29464049043918716 0.0
-0.0011927721359847115 0.2948671864010484 0.0
-0.0012117075694648254 0.29507998242217204 0.0
-0.0012353813910116096 0.29527878694220955 0.0
-0.0012642836960261533 0.2954634467935934 0.0
-0.0012988830043178475 0.29563374437554696 0.0
-0.0013397567813153192 0.29578935174808235 0.0
-0.0013872628914872677 0.2959298665224025 0.0
-0.0014420271527861798 0.29605471199784705 0.0
-0.0015037526726061207 0.2961633556725726 0.0
-0.0015732056082781388 0.2962551165850054 0.0
-0.001647922794125403 0.2963298987928166 0.0
-0.0017316461651434893 0.2963882291900466 0.0
-0.0018135382897434217 0.2964263817868032 0.0
-0.0017995344922410352 0.2964527124432087 0.0
0.0 0.0 0.0
-2.9012354765267005e-05 0.003150494485954541 0.0
-6.317289357067176e-05 0.0062145665783990426 0.0
-0.00011903261638183101 0.009200337330444007 0.0
-0.00019737414491510162 0.012118062749401488 0.0
-0.00029678929285612487 0.014977710327028937 0.0
-0.00041491586409315165 0.017788521608472167 0.0
-0.000548785679181708 0.02055870146452639 0.0
-0.0006951481440948154 0.02329531359951 0.0
-0.0008507082869130162 0.026004272245420068 0.0
-0.0010123181781100399 0.02869040548649398 0.0
-0.001177111423682239 0.031357568182482295 0.0
-0.0013425811430302895 0.03400877821221026 0.0
-0.001506610563279168 0.03664635532235096 0.0
-0.001667469123946723 0.03927204959449373 0.0
-0.001823786607843771 0.04188715346301143 0.0
-0.001974515239139927 0.044492595731661325 0.0
-0.002118886886364221 0.04708901858668812 0.0
-0.0022563700076865443 0.049676839720876366 0.0
-0.002386629110827624 0.0522563019916159 0.0
-0.0025094881774506556 0.05482751291357034 0.0
-0.0026248986415035496 0.057390475991415064 0.0
-0.002732911973900148 0.0599451155565329 0.0
-0.0028336566189261264 0.06249129645116136 0.0
-0.0029273188688977965 0.06502883962740996 0.0
-0.00301412720041744 0.06755753450287703 0.0
-0.003094339589283961 0.0700771487347926 0.0
-0.0031682333475554084 0.07258743593376557 0.0
-0.0032360970691024966 0.07508814172856607 0.0
-0.0032982243194705544 0.07757900850822486 0.0
-0.0033549087559169373 0.08005977910143931 0.0
-0.0034064404108231435 0.08253019960144323 0.0
-0.0034531029145704216 0.08499002150373419 0.0
-0.0034951714717570224 0.08743900329177462 0.0
-0.003532911437267869 0.08987691158006098 0.0
-0.0035665773664607663 0.09230352190333047 0.0
-0.0035964124370806393 0.09471861922404554 0.0
-0.003622648159954489 0.09712199821682396 0.0
-0.003645504311617711 0.09951346337752007 0.0
-0.0036651890352341894 0.10189282899573572 0.0
-0.003681899067004467 0.1042599190222253 0.0
-0.003695820054046426 0.10661456685668422 0.0
-0.003707126936890982 0.10895661507650553 0.0
-0.0037159843754874865 0.11128591512308164 0.0
-0.003722547202270378 0.1136023269589289 0.0
-0.003726960889560621 0.11590571870623019 0.0
-0.0037293620215536876 0.11819596627518213 0.0
-0.0037298787635205687 0.12047295298873713 0.0
-0.003728631322736757 0.12273656920886969 0.0
-0.0037257323971302755 0.1249867119683043 0.0
-0.0037212876088292923 0.12722328461067872 0.0
-0.003715395920686146 0.12944619644133373 0.0
-0.0037081500345818225 0.13165536239030642 0.0
-0.003699636770857616 0.13385070268858607 0.0
-0.003689937428635035 0.136032142558307 0.0
-0.0036791281271120507 0.13819961191723115 0.0
-0.0036672801281514298 0.14035304509762744 0.0
-0.00365446014065062 0.1424923805794653 0.0
-0.0036407306072997136 0.14461756073768894 0.0
-0.003626149974422978 0.14672853160323912 0.0
-0.0036107729456449156 0.1488252426373913 0.0
-0.0035946507201504853 0.15090764651894542 0.0
-0.0035778312163225576 0.15297569894374324 0.0
-0.0035603592815325073 0.15502935843597535 0.0
-0.003542276888850721 0.1570685861707287 0.0
-0.0035236233214193716 0.159093345807222 0.0
-0.0035044353452183944 0.16110360333218232 0.0
-0.0034847473708916684 0.16309932691281706 0.0
-0.003464591605326858 0.16508048675886558 0.0
-0.0034439981935883396 0.16704705499321815 0.0
-0.003422995351819713 0.16899900553061736 0.0
-0.003401609491672961 0.17093631396396924 0.0
-0.0033798653367987518 0.17285895745781835 0.0
-0.0033577860319037203 0.17476691464856123 0.0
-0.003335393244841406 0.1766601655510026 0.0
-0.0033127072621951035 0.178538691470852 0.0
-0.0032897470787602934 0.18040247492280914 0.0
-0.003266530481316668 0.18225149955390765 0.0
-0.003243074127081496 0.1840857500717706 0.0
-0.0032193936171560716 0.18590521217749365 0.0
-0.0031955035653179705 0.18770987250285823 0.0
-0.0031714176624499236 0.18949971855161168 0.0
-0.003147148736893699 0.19127473864456437 0.0
-0.0031227088109905933 0.1930349218682567 0.0
-0.00309810915407168 0.1947802580269868 0.0
-0.003073360332114865 0.19651073759798013 0.0
-0.0030484722543053866 0.19822635168951472 0.0
-0.0030234542166914335 0.19992709200181707 0.0
-0.002998314943137269 0.20161295079055017 0.0
-0.002973062623752855 0.20328392083274757 0.0
-0.00294770495096858 0.20493999539504143 0.0
-0.0029222491534191455 0.20658116820403388 0.0
-0.002896702027768865 0.20820743341870102 0.0
-0.002871069968650856 0.20981878560468498 0.0
-0.0028453589968230157 0.21141521971038238 0.0
-0.0028195747856765273 0.21299673104471706 0.0
-0.002793722686219389 0.21456331525649555 0.0
-0.002767807750634039 0.21611496831526122 0.0
-0.0027418347545164574 0.217651686493552 0.0
-0.002715808217906067 0.21917346635050283 0.0
-0.002689732425183894 0.22068030471669647 0.0
-0.0026636114439283513 0.22217219868022384 0.0
-0.002637449142820492 0.22364914557386625 0.0
-0.002611249208679437 0.2251111429633522 0.0
-0.002585015162686344 0.22655818863664598 0.0
-0.0025587503758842715 0.22799028059421678 0.0
-0.0025324580840173196 0.22940741704023376 0.0
-0.002506141401776432 0.23080959637466403 0.0
-0.002479803336500899 0.23219681718623902 0.0
-0.0024534468014264363 0.2335690782462331 0.0
-0.0024270746284999227 0.2349263785030698 0.0
-0.0024006895808435782 0.23626871707768832 0.0
-0.002374294364927599 0.2375960932596642 0.0
-0.0023478916424716444 0.23890850650410692 0.0
-0.002321484042170293 0.24020595642925333 0.0
-0.0022950741712616336 0.2414884428147846 0.0
-0.00226866462700644 0.24275596560086873 0.0
-0.002242258008127271 0.24400852488789887 0.0
-0.002215856926245294 0.24524612093694137 0.0
-0.0021894640173866354 0.246468754170892 0.0
-0.0021630819535866804 0.24767642517634328 0.0
-0.0021367134546691016 0.2488691347061805 0.0
-0.0021103613002256927 0.2500468836828981 0.0
-0.0020840283418627832 0.2512096732026801 0.0
-0.00205771751578887 0.25235750454023587 0.0
-0.002031431855745059 0.2534903791544401 0.0
-0.0020051745064086457 0.25460829869476886 0.0
-0.00197894873725977 0.255711265008593 0.0
-0.001952757957034986 0.2567992801493471 0.0
-0.0019266057287874482 0.2578723463856108 0.0
-0.0019004957856506067 0.25893046621114024 0.0
-0.0018744320473732087 0.25997364235591697 0.0
-0.0018484186376802546 0.2610018777982285 0.0
-0.0018224599025879055 0.26201517577787925 0.0
-0.0017965604297158326 0.26301353981055026 0.0
-0.0017707250686986975 0.26399697370341063 0.0
-0.0017449589528206657 0.2649654815720288 0.0
-0.0017192675219676946 0.26591906785867553 0.0
-0.0016936565469852895 0.26685773735211205 0.0
-0.001668132155619105 0.26778149520891675 0.0
-0.001642700860134806 0.26869034697651817 0.0
-0.001617369586762438 0.26958429861800315 0.0
-0.0015921457071830473 0.27046335653880627 0.0
-0.001567037072157128 0.271327527615454 0.0
-0.001542052047563693 0.27217681922647685 0.0
-0.0015171995530062579 0.2730112392856507 0.0
-0.001492489103295436 0.27383079627774126 0.0
-0.0014679308529886785 0.2746354992969181 0.0
-0.0014435356444041088 0.2754253580880454 0.0
-0.0014193150593394138 0.2762003830910648 0.0
-0.0013952814749508364 0.2769605854886925 0.0
-0.0013714481242108614 0.27770597725769924 0.0
-0.0013478291614296971 0.2784365712240145 0.0
-0.0013244397334068387 0.27915238112197693 0.0
-0.0013012960569053432 0.27985342165804816 0.0
-0.0012784155031449044 0.28053970857930166 0.0
-0.0012558166902079193 0.2812112587470933 0.0
-0.0012335195843693903 0.28186809021627196 0.0
-0.0012115456115166401 0.28251022232039025 0.0
-0.0011899177800005338 0.28313767576331267 0.0
-0.0011686608165428036 0.2837504727177105 0.0
-0.0011478013170756988 0.28434863693094886 0.0
-0.0011273679146865958 0.2849321938387942 0.0
-0.0011073914672972214 0.2855011706875092 0.0
-0.0010879052681209973 0.28605559666470665 0.0
-0.001068945282612128 0.28659550303948217 0.0
-0.001050550416106429 0.28712092331212025 0.0
-0.0010327628174782873 0.28763189337357203 0.0
-0.0010156282248428299 0.2881284516747848 0.0
-0.0009991963607957188 0.2886106394055286 0.0
-0.0009835213859156191 0.2890785006821492 0.0
-0.0009686624215668055 0.2895320827427918 0.0
-0.0009546841542546314 0.2899714361483288 0.0
-0.0009416575385460927 0.2903966149850856 0.0
-0.0009296606152573932 0.29080767706555444 0.0
-0.0009187794728730202 0.29120468411809436 0.0
-0.0009091093721896225 0.29158770195884276 0.0
-0.0009007560862701068 0.29195680062462065 0.0
-0.0008938374674986902 0.2923120544589915 0.0
-0.0008884853574019758 0.29265354209774236 0.0
-0.0008848477890599 0.2929813463602782 0.0
-0.0008830917924783596 0.2932955538975047 0.0
-0.000883406473746451 0.29359625468913364 0.0
-0.0008860073317151143 0.2938835409356161 0.0
-0.0008911403730202893 0.2941575058209447 0.0
-0.0008990892918267953 0.2944182406569063 0.0
-0.0009101800474157488 0.2946658324264487 0.0
-0.0009247944142909362 0.2949003566069006 0.0
-0.0009433710162675557 0.2951218732368474 0.0
-0.0009664357152267705 0.29533040812359224 0.0
-0.000994581054120459 0.29552594967261414 0.0
-0.0010285476082494114 0.2957083963846203 0.0
-0.0010691084706480427 0.2958775701987428 0.0
-0.0011173177865964165 0.2960330618777927 0.0
-0.0011740063494974694 0.2961743427466155 0.0
-0.0012406085988415033 0.2963003125302497 0.0
-0.0013170155862728427 0.29640992712831576 0.0
-0.001404707776041326 0.29650114269639416 0.0
-0.0014960170055506273 0.2965742727720739 0.0
-0.0015909942999583157 0.29663513553736676 0.0
-0.001586819230616166 0.2966839650398203 0.0
0.0 0.0 0.0
-1.753988893696861e-05 0.0031850286751182177 0.0
-3.826599217155357e-05 0.006285847095432858 0.0
-7.240118923446314e-05 0.009308987577000806 0.0
-0.0001205903639517156 0.012262721390138962 0.0
-0.00018220032514869704 0.015155388615585725 0.0
-0.0002560118388268667 0.01799499604370396 0.0
-0.00034040087078402234 0.02078899948726223 0.0
-0.00043348792909516986 0.023544140283223703 0.0
-0.0005332909197029876 0.02626636522869699 0.0
-0.0006378463938651944 0.028960806031012837 0.0
-0.0007453023886456639 0.03163180303158376 0.0
-0.0008539825412084008 0.03428295979669409 0.0
-0.000962423488829134 0.03691721612142823 0.0
-0.0010693897654631775 0.039536929174476425 0.0
-0.001173871563267188 0.042143955143238224 0.0
-0.0012750708338031035 0.04473972648964003 0.0
-0.0013723804341958586 0.047325322095313274 0.0
-0.0014653599892248607 0.04990152915678681 0.0
-0.0015537110702166913 0.05246889668903776 0.0
-0.0016372533889769205 0.05502778108197688 0.0
-0.0017159029977230728 0.05757838444629366 0.0
-0.0017896529800311284 0.060120786598959815 0.0
-0.0018585567748417339 0.06265497154462939 0.0
-0.001922714060849054 0.06518084925876087 0.0
-0.001982259005075222 0.06769827350036764 0.0
-0.002037350619141459 0.07020705629537444 0.0
-0.002088164947230355 0.07270697964514809 0.0
-0.002134888815371676 0.07519780493419362 0.0
-0.002177714891402635 0.07767928043846502 0.0
-0.0022168378315526763 0.08015114727198376 0.0
-0.0022524513184518104 0.08261314405428087 0.0
-0.0022847458236904955 0.08506501053396703 0.0
-0.002313906954358611 0.0875064903636787 0.0
-0.0023401142664939934 0.08993733318788454 0.0
-0.0023635404488721607 0.092357296176701 0.0
-0.0023843507980948397 0.09476614511520635 0.0
-0.0024027029207376103 0.0971636551380446 0.0
-0.0024187466106438084 0.09954961118276488 0.0
-0.0024326238596704824 0.10192380822179935 0.0
-0.0024444689685660676 0.1042860513218142 0.0
-0.0024544087314995766 0.10663615556995802 0.0
-0.0024625626733181835 0.10897394589895254 0.0
-0.0024690433230967613 0.1112992568367585 0.0
-0.0024739565111589487 0.11361193220146458 0.0
-0.0024774016796396303 0.11591182475787375 0.0
-0.002479472198984091 0.118198795848885 0.0
-0.002480255684611633 0.12047271501198598 0.0
-0.0024798343094325774 0.12273345958894293 0.0
-0.0024782851090613075 0.12498091433495455 0.0
-0.002475680277471815 0.12721497103206555 0.0
-0.0024720874515493175 0.12943552811046052 0.0
-0.0024675699835315394 0.1316424902802975 0.0
-0.0024621872007786565 0.13383576817600745 0.0
-0.0024559946525989896 0.13601527801435404 0.0
-0.00244904434413725 0.1381809412671 0.0
-0.0024413849574862596 0.14033268434873297 0.0
-0.002433062060325011 0.14247043831942263 0.0
-0.002424118302490679 0.1445941386031582 0.0
-0.0024145936009308364 0.1467037247208327 0.0
-0.002404525313546069 0.14879914003793973 0.0
-0.0023939484024500324 0.15088033152641636 0.0
-0.002382895587173681 0.15294724954014363 0.0
-0.0023713974883543478 0.15499984760353835 0.0
-0.0023594827624376707 0.15703808221266974 0.0
-0.002347178227901693 0.1590619126482959 0.0
-0.002334508983497493 0.1610713008002409 0.0
-0.0023214985189958953 0.1630662110025092 0.0
-0.0023081688188826177 0.1650466098785687 0.0
-0.002294540459445203 0.167012466196243 0.0
-0.0022806326996568215 0.16896375073166062 0.0
-0.002266463566256037 0.17090043614174819 0.0
-0.002252049933378014 0.17282249684476003 0.0
-0.002237407597096403 0.17472990890837667 0.0
-0.002222551345194225 0.17662264994490662 0.0
-0.0022074950224714195 0.17850069901317267 0.0
-0.002192251591881103 0.1803640365266755 0.0
-0.0021768331917595076 0.18221264416763483 0.0
-0.0021612511894066643 0.18404650480656687 0.0
-0.002145516231255631 0.18586560242704736 0.0
-0.0021296382898468988 0.18766992205532393 0.0
-0.0021136267078262407 0.18945944969451461 0.0
-0.002097490239151518 0.19123417226305942 0.0
-0.0020812370876992082 0.19299407753720163 0.0
-0.0020648749434417925 0.19473915409722317 0.0
-0.0020484110163428485 0.19646939127721041 0.0
-0.002031852068143952 0.1981847791181311 0.0
-0.002015204442162506 0.1998853083240142 0.0
-0.001998474091247433 0.20157097022105286 0.0
-0.001981666604009738 0.20324175671942932 0.0
-0.0019647872294373914 0.20489766027771783 0.0
-0.0019478409000275973 0.20653867386969743 0.0
-0.001930832253507679 0.2081647909534314 0.0
-0.001913765653263647 0.20977600544246847 0.0
-0.001896645207558502 0.2113723116790614 0.0
-0.0018794747876208942 0.21295370440926664 0.0
-0.0018622580446924924 0.21452017875981327 0.0
-0.0018449984261098167 0.2160717302166614 0.0
-0.001827699190475105 0.2176083546051331 0.0
-0.001810363422011134 0.21913004807153366 0.0
-0.001792994044132161 0.2206368070661966 0.0
-0.001775593832318108 0.22212862832785646 0.0
-0.0017581654263341274 0.22360550886929798 0.0
-0.0017407113418456464 0.22506744596420555 0.0
-0.0017232339814969978 0.22651443713516708 0.0
-0.0017057356454892357 0.22794648014276803 0.0
-0.001688218541695706 0.22936357297573334 0.0
-0.001670684795391893 0.23076571384208358 0.0
-0.00165313645860605 0.23215290116123874 0.0
-0.0016355755191492186 0.23352513355707755 0.0
-0.0016180039093688571 0.2348824098518701 0.0
-0.0016004235146523165 0.23622472906109285 0.0
-0.0015828361817237806 0.23755209038911143 0.0
-0.001565243726778496 0.23886449322567113 0.0
-0.0015476479434769958 0.24016193714321898 0.0
-0.0015300506108340596 0.24144442189502496 0.0
-0.0015124535010664077 0.2427119474140949 0.0
-0.0014948583873781718 0.24396451381289447 0.0
-0.0014772670517819362 0.2452021213838391 0.0
-0.0014596812929466223 0.2464247706005997 0.0
-0.0014421029341116485 0.24763246212019474 0.0
-0.001424533831125526 0.2488251967858962 0.0
-0.0014069758806242495 0.25000297563095986 0.0
-0.0013894310283925615 0.2511657998831918 0.0
-0.0013719012779415997 0.25231367097037916 0.0
-0.0013543886993550448 0.2534465905265955 0.0
-0.0013368954384123566 0.25456456039944475 0.0
-0.0013194237260774533 0.2556675826582349 0.0
-0.001301975888353824 0.2567556596031345 0.0
-0.0012845543565688715 0.2578287937753722 0.0
-0.0012671616781381684 0.2588869879685051 0.0
-0.0012498005278577494 0.25993024524080466 0.0
-0.0012324737197699023 0.2609585689288608 0.0
-0.0012151842196663782 0.2619719626623927 0.0
-0.0011979351582852133 0.2629704303804079 0.0
-0.001180729845272764 0.26395397634877327 0.0
-0.0011635717839748067 0.26492260517923505 0.0
-0.001146464687126582 0.2658763218500594 0.0
-0.0011294124935404162 0.2668151317282969 0.0
-0.0011124193858480388 0.26773904059390136 0.0
-0.0010954898094379367 0.26864805466571057 0.0
-0.001078628492637327 0.26954218062950563 0.0
-0.0010618404683111378 0.27042142566825705 0.0
-0.0010451310969655221 0.2712857974947195 0.0
-0.001028506091511873 0.2721353043865513 0.0
-0.0010119715438391848 0.2729699552241834 0.0
-0.0009955339533946185 0.2737897595316091 0.0
-0.0009792002579466909 0.2745947275203412 0.0
-0.0009629778667465957 0.27538487013681157 0.0
-0.0009468746963687002 0.27616019911348505 0.0
-0.0009308992094947665 0.2769207270240124 0.0
-0.0009150604569714642 0.2776664673427362 0.0
-0.0008993681235290976 0.278397434509024 0.0
-0.0008838325775558545 0.27911364399676974 0.0
-0.0008684649254932713 0.279815112389582 0.0
-0.0008532770713521306 0.28050185746220624 0.0
-0.0008382817820743932 0.28117389826875955 0.0
-0.0008234927595307973 0.28183125523844643 0.0
-0.0008089247200024594 0.28247395027950584 0.0
-0.0007945934823480103 0.2831020068922362 0.0
-0.0007805160659989753 0.28371545029197665 0.0
-0.0007667108003938446 0.28431430754312453 0.0
-0.0007531974475845068 0.28489860770537156 0.0
-0.0007399973401589714 0.28546838199335856 0.0
-0.0007271335370106352 0.2860236639512717 0.0
-0.0007146309999552169 0.28656448964391557 0.0
-0.0007025167949520685 0.28709089786606545 0.0
-0.0006908203221006804 0.28760293037204004 0.0
-0.0006795735799448779 0.2881006321275697 0.0
-0.0006688114703062153 0.2885840515863862 0.0
-0.0006585721516841958 0.2890532409938965 0.0
-0.0006488974504954178 0.2895082567208888 0.0
-0.0006398333424621031 0.289949159629651 0.0
-0.0006314305178176161 0.29037601547617414 0.0
-0.0006237450501500732 0.2907888953500212 0.0
-0.0006168391884085016 0.2911878761571416 0.0
-0.0006107823069573823 0.2915730411432692 0.0
-0.0006056520381055539 0.29194448046877863 0.0
-0.0006015356569209657 0.29230229181782014 0.0
-0.0005985317342186018 0.2926465810740138 0.0
-0.0005967522219443745 0.2929774629925232 0.0
-0.0005963249105225532 0.2932950619832646 0.0
-0.0005973967115866365 0.29359951274525836 0.0
-0.0006001373472215272 0.29389096118026575 0.0
-0.000604744861387047 0.2941695646412557 0.0
-0.0006114510747897793 0.29443549312121237 0.0
-0.0006205317567328002 0.2946889279493177 0.0
-0.0006323139960760207 0.2949300639898725 0.0
-0.0006471975631721357 0.2951591028108886 0.0
-0.0006656614511611967 0.295376259092671 0.0
-0.000688315973458955 0.2955817343076932 0.0
-0.0007158919502073264 0.29577574000150547 0.0
-0.0007493866221778328 0.29595840122317446 0.0
-0.0007899595086242132 0.2961298431027923 0.0
-0.0008393855966894193 0.2962898313009746 0.0
-0.0008995116702819302 0.29643807915766424 0.0
-0.0009737804618435394 0.29657284766445846 0.0
-0.0010642079628629478 0.2966920117660042 0.0
-0.0011767157739283 0.29678738102612817 0.0
-0.0012829650147960728 0.2968519267102646 0.0
-0.0012543319673471226 0.2969038422305827 0.0
0.0 0.0 0.0
-8.268816369429044e-06 0.0032041481250251734 0.0
-1.80924826769712e-05 0.006325543077526349 0.0
-3.43050734104293e-05 0.009369812767958978 0.0
-5.727500574942137e-05 0.012344194193617989 0.0
-8.676909190896158e-05 0.015256117566097786 0.0
-0.0001222674302797171 0.018112881634461283 0.0
-0.00016304884338593138 0.02092144411211726 0.0
-0.00020825979780019253 0.023688273964270104 0.0
-0.000256975745177815 0.026419244260865612 0.0
-0.0003082598799002412 0.029119574011922285 0.0
-0.0003612103761328252 0.031793810021174325 0.0
-0.0004149949199867151 0.03444584022129915 0.0
-0.00046887309662183436 0.037078930038081166 0.0
-0.0005222081104275898 0.03969577386955385 0.0
-0.0005744698441474676 0.04229855496406637 0.0
-0.0006252314402489248 0.04488900831191437 0.0
-0.0006741615292482439 0.04746848263880889 0.0
-0.0007210139297240843 0.050037998874119013 0.0
-0.0007656162560257869 0.05259830354185467 0.0
-0.000807858462515895 0.05514991632371893 0.0
-0.000847681998380881 0.05769317161480972 0.0
-0.0008850699630143145 0.0602282542644973 0.0
-0.0009200384446434481 0.0627552299195427 0.0
-0.0009526290830530618 0.06527407050230749 0.0
-0.000982902808142308 0.06778467539967728 0.0
-0.0010109346553341136 0.0702868889333629 0.0
-0.0010368095349594147 0.07278051464898874 0.0
-0.00106061882626183 0.07526532691282146 0.0
-0.001082457670873963 0.07774108025009316 0.0
-0.00110242285072991 0.08020751680316263 0.0
-0.0011206111482583811 0.08266437223466731 0.0
-0.0011371181003451444 0.08511138035211993 0.0
-0.001152037070774512 0.08754827668695808 0.0
-0.0011654585780147668 0.0899748012230259 0.0
-0.001177469826000256 0.0923907004366645 0.0
-0.0011881543949156497 0.09479572878262038 0.0
-0.0011975920569417843 0.09718964973633175 0.0
-0.0012058586886078753 0.0995722364833016 0.0
-0.0012130262569385235 0.10194327232970962 0.0
-0.0012191628611617764 0.1043025508946592 0.0
-0.0012243328154723475 0.10664987613307161 0.0
-0.0012285967613879655 0.10898506222887278 0.0
-0.0012320118006965153 0.11130793339040605 0.0
-0.001234631641960895 0.11361832357369953 0.0
-0.0012365067551432733 0.11591607615405387 0.0
-0.0012376845301693595 0.11820104356221527 0.0
-0.0012382094362638743 0.12047308689798196 0.0
-0.001238123179687192 0.12273207553131929 0.0
-0.001237464858127191 0.12497788669881502 0.0
-0.0012362711104979209 0.1272104051015047 0.0
-0.0012345762612774684 0.12942952250863923 0.0
-0.001232412458824758 0.13163513737080182 0.0
-0.0012298098073310767 0.13382715444485058 0.0
-0.001226796492257514 0.13600548443243182 0.0
-0.0012233988992192055 0.13817004363321894 0.0
-0.0012196417263951758 0.14032075361356844 0.0
-0.0012155480906063994 0.14245754089094606 0.0
-0.001211139627254314 0.14458033663417408 0.0
-0.0012064365843474573 0.1466890763793678 0.0
-0.0012014579108796538 0.1487836997612479 0.0
-0.0011962213398096894 0.1508641502594171 0.0
-0.0011907434659279065 0.15293037495909304 0.0
-0.0011850398188753006 0.1549823243257421 0.0
-0.0011791249315814979 0.15701995199301963 0.0
-0.0011730124043888971 0.15904321456340278 0.0
-0.0011667149651182875 0.16105207142088865 0.0
-0.001160244525309825 0.1630464845551467 0.0
-0.0011536122328810346 0.1650264183965071 0.0
-0.0011468285214218817 0.16699183966119605 0.0
-0.001139903156334257 0.16894271720623844 0.0
-0.0011328452780201624 0.17087902189347035 0.0
-0.001125663442300571 0.1728007264621331 0.0
-0.001118365658241872 0.17470780540953687 0.0
-0.0011109594235642715 0.17660023487931298 0.0
-0.0011034517577826987 0.17847799255679905 0.0
-0.001095849233218115 0.18034105757110624 0.0
-0.0010881580040340978 0.18218941040348582 0.0
-0.0010803838334231333 0.1840230328015786 0.0
-0.0010725321190496045 0.18584190769920758 0.0
-0.0010646079168796841 0.18764601914135295 0.0
-0.0010566159634924582 0.1894353522139858 0.0
-0.0010485606969861643 0.19120989297848281 0.0
-0.0010404462765512136 0.1929696284103074 0.0
-0.0010322766008213486 0.19471454634170654 0.0
-0.0010240553250604406 0.19644463540816506 0.0
-0.0010157858772786884 0.19815988499840137 0.0
-0.0010074714733488063 0.1998602852076662 0.0
-0.000999115131175459 0.20154582679415065 0.0
-0.000990719683996354 0.2032165011383071 0.0
-0.0009822877928697413 0.20487230020491953 0.0
-0.0009738219583968069 0.20651321650772939 0.0
-0.0009653245317322158 0.208139243076484 0.0
-0.0009567977249508472 0.20975037342625827 0.0
-0.0009482436207818882 0.21134660152890694 0.0
-0.0009396641817896387 0.21292792178653258 0.0
-0.0009310612590089687 0.21449432900684418 0.0
-0.0009224366000974917 0.21604581838030087 0.0
-0.0009137918570359416 0.2175823854589471 0.0
-0.0009051285933962937 0.21910402613682897 0.0
-0.0008964482912294159 0.2206107366319213 0.0
-0.0008877523575869811 0.22210251346948467 0.0
-0.000879042130717115 0.22357935346676747 0.0
-0.0008703188859578603 0.2250412537189993 0.0
-0.0008615838413458676 0.2264882115866094 0.0
-0.0008528381629815154 0.22792022468360013 0.0
-0.0008440829701638822 0.2293372908670534 0.0
-0.000835319340316585 0.23073940822769398 0.0
-0.0008265483137256 0.23212657508149123 0.0
-0.0008177708981277244 0.2334987899622548 0.0
-0.0008089880731361774 0.23485605161516435 0.0
-0.0008002007945612986 0.23619835899126568 0.0
-0.0007914099986112025 0.2375257112428464 0.0
-0.000782616606019167 0.2388381077197142 0.0
-0.000773821526088105 0.24013554796633474 0.0
-0.0007650256607034675 0.24141803171983928 0.0
-0.0007562299082987177 0.24268555890886676 0.0
-0.0007474351678159677 0.24393812965325198 0.0
-0.0007386423426590314 0.24517574426457026 0.0
-0.0007298523446699107 0.2463984032475209 0.0
-0.0007210660981591681 0.2476061073021603 0.0
-0.0007122845439600971 0.24879885732699847 0.0
-0.0007035086435935627 0.24997665442297276 0.0
-0.0006947393834911908 0.2511394998983272 0.0
-0.0006859777793561032 0.252287395274387 0.0
-0.0006772248806408978 0.2534203422923084 0.0
-0.0006684817751787817 0.2545383429207789 0.0
-0.0006597495939953547 0.2556413993647314 0.0
-0.0006510295163014297 0.2567295140751347 0.0
-0.0006423227747139399 0.2578026897598617 0.0
-0.0006336306607119085 0.2588609293957049 0.0
-0.0006249545303666102 0.25990423624160924 0.0
-0.0006162958103568668 0.26093261385316974 0.0
-0.0006076560043212627 0.26194606609847243 0.0
-0.0005990366995492621 0.2629445971753314 0.0
-0.0005904395740675606 0.2639282116300543 0.0
-0.0005818664041465939 0.2648969143777908 0.0
-0.0005733190722758961 0.26585071072456984 0.0
-0.0005647995756288248 0.2667896063911494 0.0
-0.0005563100350888127 0.2677136075387897 0.0
-0.000547852704860074 0.26862272079711197 0.0
-0.0005394299827507043 0.26951695329414527 0.0
-0.0005310444211422926 0.2703963126887703 0.0
-0.0005226987387600212 0.2712608072057137 0.0
-0.0005143958332741238 0.272110445673306 0.0
-0.00050613879486818 0.27294523756421213 0.0
-0.0004979309207954741 0.27376519303937735 0.0
-0.0004897757311001835 0.2745703229954792 0.0
-0.0004816769855691157 0.2753606391161609 0.0
-0.0004736387020736035 0.2761361539273974 0.0
-0.00046566517644170444 0.2768968808573564 0.0
-0.00045776100404479255 0.2776428343011891 0.0
-0.00044993110328941737 0.27837402969120756 0.0
-0.0004421807412866252 0.2790904835729726 0.0
-0.00043451556188294757 0.27979221368789825 0.0
-0.00042694161645808544 0.2804792390630553 0.0
-0.00041946539782179867 0.2811515801088655 0.0
-0.0004120938776129158 0.2818092587256478 0.0
-0.0004048345477597125 0.2824522984198892 0.0
-0.0003976954665521519 0.28308072443143195 0.0
-0.0003906853100465617 0.28369456387276343 0.0
-0.000383813429681703 0.2842938458819071 0.0
-0.00037708991703784355 0.2848786017905017 0.0
-0.0003705256769756692 0.28544886530899216 0.0
-0.0003641325105932197 0.2860046727310046 0.0
-0.00035792320967123893 0.286546063159454 0.0
-0.00035191166474157396 0.2870730787571566 0.0
-0.00034611298925546073 0.28758576502514716 0.0
-0.00034054366289859816 0.28808417111256934 0.0
-0.0003352216978186355 0.28856835016232973 0.0
-0.00033016683228236966 0.28903835969768316 0.0
-0.00032540075755327233 0.2894942620553645 0.0
-0.00032094738467974946 0.28993612487247716 0.0
-0.00031683316057678096 0.2903640216344264 0.0
-0.00031308744333757095 0.29077803229485366 0.0
-0.0003097429526326734 0.291178243975995 0.0
-0.00030683630965519537 0.29156475176865665 0.0
-0.00030440869607978386 0.29193765963752005 0.0
-0.0003025066498192673 0.29229708147279765 0.0
-0.00030118306065369816 0.29264314227347865 0.0
-0.0003004983734629829 0.29297597957040317 0.0
-0.00030052215658559476 0.2932957449823623 0.0
-0.00030133496722218033 0.2936026062397333 0.0
-0.000303030967532358 0.2938967492016496 0.0
-0.0003057208729627899 0.29417838099849863 0.0
-0.00030953668178588286 0.2944477324238132 0.0
-0.0003146363445199273 0.29470506358021276 0.0
-0.0003212133092023983 0.29495066564680755 0.0
-0.00032950360808884044 0.2951848732365632 0.0
-0.0003398079409898541 0.2954080606564312 0.0
-0.0003525007312113228 0.2956206748434317 0.0
-0.0003680893091849209 0.2958232057359396 0.0
-0.00038721837059719816 0.29601628737747376 0.0
-0.0004108528324000512 0.29620056054263527 0.0
-0.0004402504135093616 0.2963770070019335 0.0
-0.00047761709480860607 0.29654636375021776 0.0
-0.0005259671213996322 0.2967102615872565 0.0
-0.000591986811402927 0.2968685169308159 0.0
-0.000684309985843014 0.2970232301984761 0.0
-0.0008220304025770063 0.2971597092628586 0.0
-0.0008063480512435961 0.2972658210845865 0.0
0.0 0.0 0.0
-9.845457787509057e-15 0.0032102994979090194 0.0
-2.0615641461747914e-14 0.006338321624596045 0.0
-3.741418105205417e-14 0.009389430363337566 0.0
-6.022924489204159e-14 0.012370540610662834 0.0
-8.867702615462805e-14 0.015288788474337362 0.0
-1.223366808437667e-13 0.018151237271996943 0.0
-1.6076917193013664e-13 0.02096468058265893 0.0
-2.0357000644787427e-13 0.023735485570067383 0.0
-2.503465973127441e-13 0.026469486780080768 0.0
-3.007101288788399e-13 0.029171917997581 0.0
-3.543390222452123e-13 0.03184738157688215 0.0
-4.1086752196406715e-13 0.0344998491367168 0.0
-4.700486477076936e-13 0.03713268632824708 0.0
-5.315540477874283e-13 0.039748694580508497 0.0
-5.951968508682189e-13 0.04235016339893281 0.0
-6.607214417937391e-13 0.044938927920495975 0.0
-7.278946737803754e-13 0.047516427571220994 0.0
-7.966154993774492e-13 0.050083762839253816 0.0
-8.665721041229172e-13 0.052641748187556035 0.0
-9.377828728445579e-13 0.05519095997103797 0.0
-1.0100829761933871e-12 0.05773177885637223 0.0
-1.083350619965321e-12 0.060264426695122435 0.0
-1.1575362123840973e-12 0.06278899809599228 0.0
-1.2325004080063356e-12 0.06530548711776338 0.0
-1.3081875188082436e-12 0.06781380959177465 0.0
-1.384538019455492e-12 0.07031382160996516 0.0
-1.4616521643304572e-12 0.0728053347025471 0.0
-1.5393041613829698e-12 0.07528812819437092 0.0
-1.6174740545151198e-12 0.07776195918195856 0.0
-1.6961971295997653e-12 0.08022657052151692 0.0
-1.7753280818804156e-12 0.0826816971666721 0.0
-1.8549211145872398e-12 0.08512707114600356 0.0
-1.9349062813086854e-12 0.08756242542615998 0.0
-2.015211902452559e-12 0.089987496867035 0.0
-2.0960418695212555e-12 0.09240202844124297 0.0
-2.1770881647511992e-12 0.09480577086072992 0.0
-2.2585920097058173e-12 0.09719848372835875 0.0
-2.3401100149345543e-12 0.09957993631126338 0.0
-2.4219524718655974e-12 0.10194990801513369 0.0
-2.5038784200053667e-12 0.10430818862395201 0.0
-2.5858884941381433e-12 0.10665457835755315 0.0
-2.6681371863847194e-12 0.10898888778936648 0.0
-2.7506127414979837e-12 0.11131093765847491 0.0
-2.833381964717081e-12 0.11362055860337765 0.0
-2.916393197790692e-12 0.11591759083933333 0.0
-2.999668236670085e-12 0.11820188379667279 0.0
-3.08321415334481e-12 0.12047329573381842 0.0
-3.166633963303967e-12 0.12273169333579181 0.0
-3.250074061420728e-12 0.12497695130659514 0.0
-3.33336714112391e-12 0.12720895196192739 0.0
-3.4166024623303157e-12 0.12942758482714525 0.0
-3.4998938073518804e-12 0.13163274624413718 0.0
-3.582919998620279e-12 0.13382433898979196 0.0
-3.6652914773393e-12 0.13600227190794834 0.0
-3.747832570689357e-12 0.13816645955609724 0.0
-3.830995106918972e-12 0.14031682186762331 0.0
-3.913470701406827e-12 0.14245328382997932 0.0
-3.9952908276512654e-12 0.14457577517890763 0.0
-4.077471032871896e-12 0.14668423010858575 0.0
-4.1588651954891726e-12 0.14877858699741633 0.0
-4.2397047821396565e-12 0.15085878814904516 0.0
-4.320291698960984e-12 0.1529247795481134 0.0
-4.4008151249719e-12 0.1549765106301798 0.0
-4.48026376562953e-12 0.15701393406521458 0.0
-4.5599142843020165e-12 0.1590370055540434 0.0
-4.6382875166378605e-12 0.16104568363711907 0.0
-4.717183485441385e-12 0.16303992951495816 0.0
-4.7950421961685864e-12 0.165019706879664 0.0
-4.8738407844969065e-12 0.16698498175690962 0.0
-4.950730641395822e-12 0.1689357223577846 0.0
-5.028065726546582e-12 0.17087189893995072 0.0
-5.104320486386722e-12 0.17279348367755862 0.0
-5.179240145944378e-12 0.17470045053940914 0.0
-5.254130254794008e-12 0.17659277517486258 0.0
-5.327725534692002e-12 0.17847043480702796 0.0
-5.39939906748119e-12 0.1803334081327873 0.0
-5.471151473282642e-12 0.18218167522923598 0.0
-5.5411068220675504e-12 0.18401521746615218 0.0
-5.609892030348716e-12 0.18583401742410846 0.0
-5.677350857870561e-12 0.18763805881787587 0.0
-5.7436830425338365e-12 0.18942732642481042 0.0
-5.809151116415346e-12 0.1912018060178888 0.0
-5.874269183651057e-12 0.1929614843031164 0.0
-5.938545423337591e-12 0.19470634886103108 0.0
-6.001635032917324e-12 0.1964363880920466 0.0
-6.064408522314884e-12 0.19815159116541067 0.0
-6.125773044025631e-12 0.19985194797152714 0.0
-6.1856706762759e-12 0.20153744907746407 0.0
-6.244341823850839e-12 0.20320808568543933 0.0
-6.301083698783453e-12 0.20486384959407955 0.0
-6.357450942785489e-12 0.20650473316233367 0.0
-6.412784571288055e-12 0.20813072927583584 0.0
-6.468104344594124e-12 0.2097418313155806 0.0
-6.52217476870429e-12 0.21133803312879676 0.0
-6.575527984676225e-12 0.212919329001854 0.0
-6.628056860931695e-12 0.2144857136351199 0.0
-6.680970346355208e-12 0.21603718211962855 0.0
-6.732064838787331e-12 0.21757372991547216 0.0
-6.7824853847915525e-12 0.2190953528318206 0.0
-6.832923767417619e-12 0.22060204700846608 0.0
-6.882450698679732e-12 0.2220938088988389 0.0
-6.929800036999808e-12 0.22357063525439988 0.0
-6.976864718955093e-12 0.22503252311033764 0.0
-7.0225626951153376e-12 0.2264794697725091 0.0
-7.0673633922027446e-12 0.22791147280560456 0.0
-7.1099742385311795e-12 0.22932853002240994 0.0
-7.153909972665434e-12 0.2307306394741855 0.0
-7.194971513244932e-12 0.23211779944209449 0.0
-7.239269144570876e-12 0.23349000842963402 0.0
-7.280002613385586e-12 0.23484726515605184 0.0
-7.320076577488662e-12 0.23618956855070852 0.0
-7.357202617317018e-12 0.2375169177483759 0.0
-7.394271151082812e-12 0.23882931208542102 0.0
-7.430285631358784e-12 0.24012675109689802 0.0
-7.465959351482855e-12 0.2414092345145054 0.0
-7.502170026968271e-12 0.24267676226540752 0.0
-7.535789079820004e-12 0.24392933447192858 0.0
-7.570151743486289e-12 0.24516695145208975 0.0
-7.604734831223966e-12 0.2463896137210265 0.0
-7.638022519874455e-12 0.24759732199327583 0.0
-7.6715991301216e-12 0.24879007718593704 0.0
-7.704528699823751e-12 0.24996788042272158 0.0
-7.7408353878029e-12 0.251130733038938 0.0
-7.77695175662242e-12 0.2522786365873927 0.0
-7.81432256476967e-12 0.25341159284526166 0.0
-7.853035270248498e-12 0.2545296038219733 0.0
-7.894627047889669e-12 0.2556326717681124 0.0
-7.933086261912108e-12 0.2567207991853906 0.0
-7.974413696622015e-12 0.2577939888377489 0.0
-8.016302489184588e-12 0.25885224376364624 0.0
-8.05732685189261e-12 0.2598955672895557 0.0
-8.102423163618441e-12 0.26092396304478294 0.0
-8.14191735242393e-12 0.26193743497762134 0.0
-8.186322622304516e-12 0.26293598737299406 0.0
-8.228504840934113e-12 0.26391962487160053 0.0
-8.273093725479305e-12 0.2648883524907033 0.0
-8.318093388115443e-12 0.26584217564666524 0.0
-8.361235169531988e-12 0.2667811001793055 0.0
-8.408080664272617e-12 0.2677051323782613 0.0
-8.45941362419447e-12 0.2686142790114491 0.0
-8.50930898007557e-12 0.26950854735582075 0.0
-8.562523535456929e-12 0.2703879452305261 0.0
-8.61340206956945e-12 0.2712524810327266 0.0
-8.666967302209616e-12 0.2721021637762602 0.0
-8.719265440899045e-12 0.2729370031333296 0.0
-8.773835416106859e-12 0.2737570094795275 0.0
-8.827245149562394e-12 0.27456219394249337 0.0
-8.883140471241116e-12 0.2753525684544535 0.0
-8.941363593481281e-12 0.2761281458090176 0.0
-8.996744900517241e-12 0.2768889397226778 0.0
-9.050868267433049e-12 0.2776349649014097 0.0
-9.111239196427574e-12 0.2783662371128527 0.0
-9.168842338165475e-12 0.2790827732646857 0.0
-9.225941575090199e-12 0.27978459148979073 0.0
-9.284685662721517e-12 0.2804717112389218 0.0
-9.340035336551044e-12 0.2811441533817483 0.0
-9.395771707509738e-12 0.2818019403171279 0.0
-9.450763599443448e-12 0.28244509609370083 0.0
-9.497042016920661e-12 0.28307364654201544 0.0
-9.541132382266212e-12 0.2836876194195633 0.0
-9.586190788044711e-12 0.28428704457028453 0.0
-9.626275476336707e-12 0.28487195410039634 0.0
-9.66663960298382e-12 0.2854423825725744 0.0
-9.702719267660227e-12 0.2859983672209342 0.0
-9.741130569163432e-12 0.28653994818960754 0.0
-9.77628389854872e-12 0.287067168798067 0.0
-9.813818644552772e-12 0.2875800758369691 0.0
-9.840968288778783e-12 0.2880787198988415 0.0
-9.87133020938879e-12 0.28856315574877556 0.0
-9.900247888195572e-12 0.28903344274090226 0.0
-9.921711660954134e-12 0.2894896452879792 0.0
-9.945990768718229e-12 0.28993183339199896 0.0
-9.967210703878388e-12 0.2903600832465973 0.0
-9.99113601352727e-12 0.2907744779217945 0.0
-1.0015106976162043e-11 0.29117510814872827 0.0
-1.0035920665918453e-11 0.29156207321660016 0.0
-1.0066450067096778e-11 0.2919354820155688 0.0
-1.0088068468542957e-11 0.29229545423216335 0.0
-1.0116289034148322e-11 0.29264212177530463 0.0
-1.0145895207024045e-11 0.2929756303994985 0.0
-1.017407246955649e-11 0.29329614174182644 0.0
-1.020600910802326e-11 0.293603835559235 0.0
-1.0235545671000766e-11 0.29389891284997677 0.0
-1.026726128314143e-11 0.2941815989241693 0.0
-1.029984939334646e-11 0.2944521487507434 0.0
-1.032852121494001e-11 0.2947108508799459 0.0
-1.0358454372273284e-11 0.2949580381805521 0.0
-1.0387450812325672e-11 0.295194091301153 0.0
-1.0417145069008867e-11 0.29541946462923185 0.0
-1.044756959708474e-11 0.29563468204532933 0.0
-1.0474924159889482e-11 0.29584041138265443 0.0
-1.0503446608126069e-11 0.2960374224264348 0.0
-1.0531237926354093e-11 0.2962268314031398 0.0
-1.0560310658248563e-11 0.2964099134778611 0.0
-1.0585615816227434e-11 0.2965890078175079 0.0
-1.0614707110267038e-11 0.296766843749662 0.0
-1.0638833641557086e-11 0.29695045041778523 0.0
-1.0661618726313503e-11 0.29714824554850866 0.0
-1.0682834133896092e-11 0.297388508520992 0.0
-1.0681786212150576e-11 0.29759249190036824 0.0
0.0 0.0 0.0
8.268816349584666e-06 0.003204148125053274 0.0
1.809248263542844e-05 0.006325543077581087 0.0
3.430507333508711e-05 0.009369812768038782 0.0
5.72750056281988e-05 0.012344194193721196 0.0
8.676909173059203e-05 0.015256117566222667 0.0
0.00012226743003379326 0.018112881634606132 0.0
0.00016304884306291942 0.02092144411228037 0.0
0.0002082597973913811 0.023688273964449853 0.0
0.00025697574467531674 0.026419244261060428 0.0
0.000308259879296899 0.0291195740121307 0.0
0.0003612103754221917 0.031793810021394975 0.0
0.0004149949191630012 0.03444584022153083 0.0
0.0004688730956798187 0.03707893003832278 0.0
0.000522208109362528 0.03969577386980436 0.0
0.0005744698429552221 0.0422985549643248 0.0
0.0006252314389257335 0.04488900831217985 0.0
0.0006741615277907831 0.047468482639080684 0.0
0.0007210139281293667 0.05003799887439646 0.0
0.0007656162542912192 0.0525983035421371 0.0
0.0008078584606389889 0.05514991632400588 0.0
0.0008476819963595379 0.0576931716151007 0.0
0.0008850699608465582 0.060228254264792 0.0
0.0009200384423274899 0.06275522991984092 0.0
0.000952629080587242 0.06527407050260883 0.0
0.0009829028055251372 0.06778467539998138 0.0
0.0010109346525643448 0.07028688893366962 0.0
0.001036809532035866 0.07278051464929787 0.0
0.0010606188231829748 0.07526532691313301 0.0
0.0010824576676389088 0.07774108025040691 0.0
0.0011024228473374314 0.0802075168034784 0.0
0.0011206111447076997 0.08266437223498468 0.0
0.0011371180966353639 0.0851113803524386 0.0
0.0011520370669050118 0.0875482766872785 0.0
0.001165458573984693 0.08997480122334783 0.0
0.001177469821808895 0.09239070043698794 0.0
0.0011881543905622159 0.0947957287829455 0.0
0.0011975920524257152 0.09718964973665818 0.0
0.0012058586839284583 0.09957223648362838 0.0
0.0012130262520956016 0.1019432723300367 0.0
0.0012191628561552118 0.10430255089498705 0.0
0.0012243328103014243 0.10664987613340028 0.0
0.0012285967560523138 0.10898506222920225 0.0
0.0012320117951955033 0.11130793339073666 0.0
0.0012346316362945463 0.1136183235740315 0.0
0.0012365067493111269 0.11591607615438661 0.0
0.001237684524170643 0.11820104356254828 0.0
0.001238209430098473 0.12047308689831594 0.0
0.0012381231733550636 0.1227320755316535 0.0
0.0012374648516286905 0.12497788669914897 0.0
0.0012362711038330664 0.1272104051018382 0.0
0.0012345762544464073 0.1294295225089724 0.0
0.00123241245182704 0.131635137371134 0.0
0.0012298098001675588 0.1338271544451823 0.0
0.0012267964849282038 0.13600548443276364 0.0
0.0012233988917239953 0.1381700436335494 0.0
0.0012196417187352877 0.14032075361389854 0.0
0.0012155480827825674 0.14245754089127483 0.0
0.0012111396192656429 0.14458033663450184 0.0
0.001206436576195319 0.14668907637969453 0.0
0.0012014579025637386 0.14878369976157385 0.0
0.0011962213313310454 0.15086415025974165 0.0
0.0011907434572880312 0.15293037495941544 0.0
0.001185039810074738 0.15498232432606254 0.0
0.0011791249226207935 0.1570199519933383 0.0
0.0011730123952695896 0.15904321456372 0.0
0.0011667149558404722 0.16105207142120415 0.0
0.0011602445158748675 0.16304648455546053 0.0
0.0011536122232898302 0.16502641839681978 0.0
0.0011468285116751366 0.16699183966150702 0.0
0.0011399031464328865 0.16894271720654744 0.0
0.0011328452679644455 0.1708790218937768 0.0
0.001125663432091974 0.17280072646243666 0.0
0.0011183656478816679 0.17470780540983652 0.0
0.0011109594130560107 0.17660023487960957 0.0
0.0011034517471272928 0.17847799255709065 0.0
0.0010958492224162682 0.1803410575713938 0.0
0.0010881579930911642 0.18218941040376818 0.0
0.00108038382234006 0.1840230328018565 0.0
0.0010725321078282073 0.1858419076994812 0.0
0.001064607905522503 0.18764601914162052 0.0
0.0010566159520017373 0.18943535221424873 0.0
0.0010485606853636168 0.19120989297874322 0.0
0.001040446264799608 0.19296962841056686 0.0
0.001032276588941298 0.19471454634196206 0.0
0.0010240553130542002 0.19644463540841728 0.0
0.0010157858651477492 0.19815988499864928 0.0
0.0010074714610947724 0.19986028520790883 0.0
0.0009991151188008028 0.20154582679438812 0.0
0.0009907196715049876 0.20321650113853876 0.0
0.000982287780263298 0.20487230020514816 0.0
0.000973821945675316 0.20651321650795476 0.0
0.0009653245188986668 0.20813924307670675 0.0
0.0009567977120063696 0.20975037342647673 0.0
0.0009482436077299208 0.2113466015291219 0.0
0.0009396641686306506 0.21292792178674552 0.0
0.0009310612457445239 0.21449432900705373 0.0
0.0009224365867292262 0.21604581838050807 0.0
0.0009137918435644262 0.21758238545915157 0.0
0.0009051285798239856 0.21910402613703026 0.0
0.0008964482775569943 0.22061073663211936 0.0
0.0008877523438151359 0.22210251346967755 0.0
0.0008790421168513859 0.22357935346695543 0.0
0.0008703188719988667 0.22504125371918465 0.0
0.00086158382729476 0.2264882115867905 0.0
0.000852838148840295 0.22792022468377773 0.0
0.0008440829559333947 0.22933729086722734 0.0
0.0008353193259992637 0.23073940822786554 0.0
0.0008265482993223775 0.2321265750816618 0.0
0.0008177708836415594 0.23349878996242002 0.0
0.0008089880585704552 0.23485605161532416 0.0
0.0008002007799164376 0.23619835899141975 0.0
0.0007914099838916382 0.23752571124299565 0.0
0.0007826165912255193 0.23883810771985953 0.0
0.0007738215112219666 0.2401355479664789 0.0
0.0007650256457660205 0.24141803171998183 0.0
0.0007562298932924962 0.24268555890900506 0.0
0.0007474351527404251 0.24393812965338696 0.0
0.0007386423275147396 0.24517574426470637 0.0
0.0007298523294599689 0.24639840324765666 0.0
0.0007210660828807153 0.24760610730229476 0.0
0.0007122845286149237 0.24879885732713372 0.0
0.0007035086281779263 0.2499766544231135 0.0
0.0006947393680033978 0.25113949989847123 0.0
0.0006859777637941437 0.25228739527453803 0.0
0.0006772248650025072 0.2534203422924637 0.0
0.0006684817594609167 0.2545383429209354 0.0
0.0006597495782013402 0.2556413993648904 0.0
0.0006510295004263421 0.2567295140752968 0.0
0.0006423227587556963 0.2578026897600277 0.0
0.0006336306446706113 0.25886092939587246 0.0
0.0006249545142399274 0.25990423624178005 0.0
0.0006162957941460636 0.2609326138533445 0.0
0.0006076559880226054 0.26194606609864474 0.0
0.0005990366831653983 0.2629445971755016 0.0
0.0005904395575938525 0.2639282116302275 0.0
0.0005818663875866239 0.26489691437796753 0.0
0.0005733190556248084 0.2658507107247524 0.0
0.0005647995588841341 0.26678960639133625 0.0
0.0005563100182472948 0.2677136075389825 0.0
0.0005478526879231993 0.26862272079731003 0.0
0.0005394299657134815 0.26951695329434616 0.0
0.0005310444040058332 0.27039631268897313 0.0
0.0005226987215193385 0.27126080720592344 0.0
0.000514395815928032 0.2721104456735213 0.0
0.000506138777414874 0.27294523756442873 0.0
0.000497930903234015 0.2737651930395932 0.0
0.0004897757134309388 0.274570322995697 0.0
0.0004816769677915695 0.27536063911638275 0.0
0.0004736386841851514 0.2761361539276218 0.0
0.00046566515844029575 0.2768968808575835 0.0
0.00045776098592320796 0.2776428343014198 0.0
0.0004499310850597325 0.2783740296914375 0.0
0.0004421807229409037 0.2790904835732014 0.0
0.00043451554341630903 0.2797922136881301 0.0
0.0004269415978795577 0.2804792390632855 0.0
0.00041946537913131076 0.2811515801090921 0.0
0.000412093858813745 0.281809258725863 0.0
0.0004048345288593822 0.28245229842009195 0.0
0.0003976954475477946 0.28308072443162396 0.0
0.00039068529094616803 0.2836945638729446 0.0
0.00038381341049546926 0.2842938458820806 0.0
0.00037708989776424234 0.2848786017906659 0.0
0.0003705256576223026 0.2854488653091471 0.0
0.00036413249116316475 0.28600467273115215 0.0
0.00035792319016756524 0.28654606315959763 0.0
0.0003519116451675867 0.287073078757296 0.0
0.0003461129696171642 0.28758576502528044 0.0
0.00034054364319404713 0.2880841711126896 0.0
0.00033522167805538714 0.28856835016243704 0.0
0.00033016681246913614 0.28903835969778346 0.0
0.000325400737686543 0.28949426205546264 0.0
0.0003209473647664457 0.28993612487257114 0.0
0.0003168331406143441 0.2903640216345183 0.0
0.0003130874233273893 0.2907780322949506 0.0
0.0003097429325724761 0.29117824397609626 0.0
0.00030683628954884524 0.29156475176876007 0.0
0.00030440867592067554 0.2919376596376246 0.0
0.00030250662960597165 0.2922970814729084 0.0
0.00030118304038874417 0.2926431422735909 0.0
0.0003004983531405239 0.29297597957051624 0.0
0.00030052213620210125 0.2932957449824783 0.0
0.00030133494678338606 0.2936026062398562 0.0
0.00030303094703098253 0.2938967492017733 0.0
0.0003057208523974997 0.2941783809986224 0.0
0.00030953666116158784 0.29444773242393607 0.0
0.00031463632382965106 0.29470506358033366 0.0
0.0003212132884514868 0.29495066564692685 0.0
0.00032950358728061306 0.29518487323668163 0.0
0.00033980792012274614 0.29540806065655145 0.0
0.0003525007102894132 0.2956206748435493 0.0
0.0003680892882061379 0.29582320573605725 0.0
0.000387218349558395 0.29601628737758634 0.0
0.0004108528113060983 0.2962005605427473 0.0
0.0004402503923636028 0.2963770070020407 0.0
0.00047761707361027446 0.29654636375031823 0.0
0.0005259671001549966 0.29671026158735214 0.0
0.0005919867901105972 0.2968685169309062 0.0
0.0006843099645050477 0.2970232301985674 0.0
0.0008220303811976275 0.29715970926295066 0.0
0.0008063480298655685 0.29726582108467586 0.0
0.0 0.0 0.0
1.7539888916628097e-05 0.0031850286751748465 0.0
3.826599212906095e-05 0.006285847095543071 0.0
7.240118915753238e-05 0.009308987577161342 0.0
0.0001205903638281747 0.012262721390346376 0.0
0.00018220032496725372 0.015155388615836492 0.0
0.00025601183857714663 0.017994996043994533 0.0
0.00034040087045658076 0.020788999487589183 0.0
0.00043348792868141853 0.02354414028358373 0.0
0.0005332909191951364 0.026266365229086982 0.0
0.0006378463932562493 0.02896080603142991 0.0
0.000745302387929283 0.031631803032025216 0.0
0.0008539825403789051 0.03428295979715742 0.0
0.0009624234878814114 0.036917216121911255 0.0
0.0010693897643926163 0.03953692917497713 0.0
0.0011738715620696787 0.042143955143754776 0.0
0.0012750708324749175 0.04473972649017071 0.0
0.00137238043273367 0.04732532209585649 0.0
0.0014653599876256738 0.04990152915734129 0.0
0.0015537110684778947 0.05246889668960234 0.0
0.0016372533870961214 0.05502778108255038 0.0
0.0017159029956981154 0.05757838444687536 0.0
0.0017896529778600539 0.0601207865995489 0.0
0.0018585567725227785 0.0626549715452253 0.0
0.0019227140583806734 0.06518084925936304 0.0
0.0019822590024558186 0.06769827350097554 0.0
0.002037350616369653 0.07020705629598742 0.0
0.0020881649443047537 0.07270697964576613 0.0
0.0021348888122913615 0.07519780493481643 0.0
0.002177714888166317 0.0776792804390921 0.0
0.00221683782815958 0.08015114727261477 0.0
0.0022524513149007218 0.08261314405491559 0.0
0.002284745819980793 0.08506501053460472 0.0
0.0023139069504891667 0.08750649036431923 0.0
0.002340114262464272 0.08993733318852828 0.0
0.002363540444681128 0.09235729617734793 0.0
0.0023843507937421566 0.0947661451158559 0.0
0.0024027029162225605 0.09716365513869644 0.0
0.002418746605965779 0.09954961118341871 0.0
0.002432623854829272 0.10192380822245438 0.0
0.002444468963560942 0.10428605132247044 0.0
0.0024544087263298096 0.1066361555706161 0.0
0.002462562667983411 0.10897394589961232 0.0
0.0024690433175971055 0.11129925683742016 0.0
0.002473956505493758 0.11361193220212745 0.0
0.002477401673808604 0.11591182475853803 0.0
0.002479472192986867 0.11819879584955073 0.0
0.0024802556784488347 0.12047271501265218 0.0
0.0024798343031036734 0.12273345958960893 0.0
0.002478285102566258 0.12498091433562017 0.0
0.002475680270810967 0.12721497103273102 0.0
0.002472087444722142 0.129435528111125 0.0
0.0024675699765386253 0.1316424902809613 0.0
0.0024621871936193356 0.1338357681766706 0.0
0.002455994645274168 0.13601527801501623 0.0
0.0024490443366475784 0.1381809412677612 0.0
0.002441384949830542 0.1403326843493923 0.0
0.002433062052505353 0.14247043832008055 0.0
0.0024241182945065956 0.1445941386038134 0.0
0.0024145935927826 0.1467037247214869 0.0
0.0024045253052347878 0.14879914003859157 0.0
0.0023939483939768623 0.1508803315270647 0.0
0.0023828955785378855 0.15294724954078753 0.0
0.002371397479557521 0.15499984760417804 0.0
0.0023594827534817067 0.15703808221330523 0.0
0.0023471782187851967 0.1590619126489294 0.0
0.002334508974222525 0.1610713008008724 0.0
0.0023214985095629586 0.16306621100313778 0.0
0.0023081688092927125 0.16504660987919398 0.0
0.002294540449699238 0.1670124661968646 0.0
0.0022806326897562663 0.16896375073227865 0.0
0.0022664635562011652 0.17090043614236167 0.0
0.0022520499231707277 0.17282249684536774 0.0
0.0022374075867382733 0.1747299089089767 0.0
0.002222551334686713 0.17662264994549753 0.0
0.0022074950118164184 0.17850069901375631 0.0
0.002192251581080058 0.18036403652725136 0.0
0.0021768331808159104 0.18221264416820215 0.0
0.0021612511783230095 0.18404650480712523 0.0
0.0021455162200331736 0.18586560242759392 0.0
0.0021296382784878895 0.18766992205586203 0.0
0.002113626696331487 0.1894594496950444 0.0
0.002097490227524576 0.19123417226358178 0.0
0.00208123707594214 0.19299407753771786 0.0
0.002064874931556506 0.19473915409773299 0.0
0.002048411004331449 0.19646939127771262 0.0
0.0020318520560074636 0.19818477911862462 0.0
0.002015204429904272 0.1998853083244999 0.0
0.001998474078868637 0.20157097022152856 0.0
0.0019816665915095575 0.2032417567198961 0.0
0.001964787216818394 0.2048976602781763 0.0
0.0019478408872911077 0.2065386738701516 0.0
0.0019308322406553747 0.20816479095387902 0.0
0.0019137656402987693 0.2097760054429104 0.0
0.0018966451944824698 0.21137231167949744 0.0
0.0018794747744364049 0.21295370440969366 0.0
0.0018622580314019285 0.21452017876023316 0.0
0.0018449984127146175 0.21607173021707682 0.0
0.0018276991769781347 0.21760835460554118 0.0
0.0018103634084124978 0.21913004807193584 0.0
0.001792994030433644 0.22063680706659256 0.0
0.0017755938185227132 0.22212862832824504 0.0
0.0017581654124422402 0.22360550886967695 0.0
0.0017407113278601581 0.22506744596457623 0.0
0.0017232339674204788 0.2265144371355295 0.0
0.0017057356313207243 0.2279464801431221 0.0
0.001688218527439029 0.22936357297608045 0.0
0.001670684781051734 0.23076571384242217 0.0
0.0016531364441842648 0.2321529011615708 0.0
0.0016355755046489726 0.23352513355740276 0.0
0.0016180038947916221 0.2348824098521839 0.0
0.0016004234999987023 0.23622472906139802 0.0
0.0015828361669953763 0.2375520903894098 0.0
0.0015652437119770483 0.23886449322596323 0.0
0.0015476479286028184 0.24016193714350637 0.0
0.0015300505958904921 0.24144442189530818 0.0
0.0015124534860530392 0.24271194741437277 0.0
0.0014948583722961305 0.2439645138131676 0.0
0.001477267036633468 0.2452021213841107 0.0
0.0014596812777290013 0.24642477060087065 0.0
0.0014421029188244163 0.24763246212046566 0.0
0.001424533815767985 0.24882519678617268 0.0
0.0014069758651938896 0.25000297563124546 0.0
0.001389431012888342 0.25116579988348725 0.0
0.0013719012623629213 0.25231367097068047 0.0
0.00135438868369702 0.25344659052690366 0.0
0.00133689542267341 0.2545645603997611 0.0
0.0013194237102583217 0.25566758265855705 0.0
0.0013019758724520365 0.2567556596034623 0.0
0.0012845543405839493 0.2578287937757035 0.0
0.0012671616620711563 0.2588869879688402 0.0
0.0012498005117056715 0.2599302452411468 0.0
0.0012324737035339392 0.26095856892920727 0.0
0.001215184203343497 0.2619719626627419 0.0
0.001197935141874745 0.26297043038075646 0.0
0.0011807298287715281 0.2639539763491234 0.0
0.001163571767380228 0.2649226051795957 0.0
0.0011464646704380942 0.2658763218504283 0.0
0.0011294124767555667 0.26681513172867705 0.0
0.0011124193689682456 0.2677390405942906 0.0
0.0010954897924567461 0.26864805466610603 0.0
0.001078628475556542 0.2695421806299073 0.0
0.0010618404511308743 0.270421425668666 0.0
0.001045131079684932 0.2712857974951323 0.0
0.0010285060741274958 0.2721353043869715 0.0
0.0010119715263474062 0.27296995522461154 0.0
0.0009955339357982436 0.27378975953204143 0.0
0.0009792002402431298 0.2745947275207757 0.0
0.0009629778489363716 0.2753848701372516 0.0
0.0009468746784483261 0.27616019911393364 0.0
0.0009308991914638826 0.27692072702446285 0.0
0.0009150604388267119 0.27766646734319184 0.0
0.0008993681052689557 0.27839743450948595 0.0
0.0008838325591809472 0.27911364399723504 0.0
0.0008684649070022678 0.2798151123900486 0.0
0.0008532770527422127 0.2805018574626655 0.0
0.0008382817633559818 0.2811738982692052 0.0
0.000823492740702373 0.2818312552388747 0.0
0.0008089247010725643 0.28247395027991434 0.0
0.0007945934633187665 0.28310200689261933 0.0
0.0007805160468739832 0.2837154502923362 0.0
0.0007667107811733863 0.2843143075434708 0.0
0.0007531974282761952 0.2848986077057066 0.0
0.0007399973207652892 0.28546838199367663 0.0
0.0007271335175323165 0.28602366395157636 0.0
0.0007146309804062043 0.28656448964420334 0.0
0.0007025167753347239 0.28709089786634107 0.0
0.0006908203024199942 0.28760293037230455 0.0
0.0006795735602000583 0.28810063212781983 0.0
0.0006688114504982369 0.28858405158661643 0.0
0.000658572131813508 0.2890532409941133 0.0
0.0006488974305637213 0.2895082567210897 0.0
0.000639833322477055 0.2899491596298463 0.0
0.000631430497775671 0.29037601547637093 0.0
0.0006237450300569946 0.29078889535021746 0.0
0.0006168391682634357 0.2911878761573366 0.0
0.0006107822867654955 0.291573041143467 0.0
0.0006056520178660241 0.29194448046898447 0.0
0.0006015356366264402 0.2923022918180315 0.0
0.0005985317138711384 0.29264658107423447 0.0
0.0005967522015404876 0.2929774629927554 0.0
0.0005963248900614958 0.2932950619835047 0.0
0.0005973966910643864 0.29359951274550156 0.0
0.0006001373266372614 0.2938909611805146 0.0
0.0006047448407447843 0.29416956464151034 0.0
0.000611451054085568 0.2944354931214617 0.0
0.0006205317359627866 0.29468892794956025 0.0
0.0006323139752479797 0.29493006399010924 0.0
0.0006471975422848061 0.29515910281111907 0.0
0.0006656614302117524 0.2953762590929032 0.0
0.0006883159524559106 0.2955817343079204 0.0
0.0007158919291507695 0.2957757400017274 0.0
0.0007493866010663458 0.2959584012234004 0.0
0.0007899594874574761 0.2961298431030134 0.0
0.0008393855754733624 0.29628983130118175 0.0
0.000899511649020466 0.296438079157854 0.0
0.0009737804405398634 0.29657284766464365 0.0
0.0010642079415184268 0.29669201176618787 0.0
0.0011767157525445482 0.2967873810263132 0.0
0.0012829649933736597 0.2968519267104428 0.0
0.0012543319459289509 0.29690384223075295 0.0
0.0 0.0 0.0
2.9012354744073857e-05 0.0031504944860405973 0.0
6.317289352650891e-05 0.006214566578566264 0.0
0.00011903261630216448 0.009200337330687187 0.0
0.0001973741447876109 0.012118062749715173 0.0
0.00029678929266949253 0.01497771032740758 0.0
0.0004149158638371067 0.017788521608910302 0.0
0.000548785678846951 0.020558701465018734 0.0
0.0006951481436729793 0.023295313600051538 0.0
0.0008507082863965251 0.026004272246006124 0.0
0.0010123181774920895 0.028690405487120204 0.0
0.0011771114229567204 0.031357568183144655 0.0
0.001342581142191687 0.03400877821290512 0.0
0.001506610562322493 0.03664635532307505 0.0
0.001667469122867514 0.03927204959524405 0.0
0.0018237866066379957 0.04188715346378533 0.0
0.0019745152378039263 0.044492595732456376 0.0
0.002118886884894705 0.04708901858750202 0.0
0.002256370006080569 0.04967683972170711 0.0
0.002386629109082433 0.05225630199246163 0.0
0.0025094881755639187 0.05482751291442968 0.0
0.0026248986394730458 0.05739047599228661 0.0
0.00273291197172391 0.05994511555741559 0.0
0.002833656616602503 0.06249129645205432 0.0
0.0029273188664251234 0.06502883962831232 0.0
0.003014127197794129 0.06755753450378786 0.0
0.003094339586508595 0.07007714873571143 0.0
0.0031682333446266643 0.07258743593469183 0.0
0.0032360970660192975 0.07508814172949917 0.0
0.0032982243162319805 0.07757900850916452 0.0
0.003354908752521848 0.0800597791023849 0.0
0.0034064404072705985 0.0825301996023941 0.0
0.003453102910859187 0.08499002150468991 0.0
0.003495171467886388 0.087439003292735 0.0
0.003532911433237001 0.08987691158102595 0.0
0.003566577362269161 0.0923035219042992 0.0
0.0035964124327277757 0.09471861922501826 0.0
0.0036226481554399153 0.0971219982177999 0.0
0.0036455043069409084 0.09951346337849942 0.0
0.003665189030394166 0.10189282899671766 0.0
0.0036818990620007155 0.10425991902320986 0.0
0.003695820048878154 0.10661456685767116 0.0
0.0037071269315579847 0.10895661507749511 0.0
0.003715984369989242 0.11128591512407346 0.0
0.003722547196606704 0.1136023269599229 0.0
0.003726960883731554 0.115905718707226 0.0
0.003729362015559174 0.11819596627617932 0.0
0.0037298787573605656 0.1204729529897349 0.0
0.0037286313164113403 0.12273656920986774 0.0
0.0037257323906390106 0.1249867119693024 0.0
0.003721287602172263 0.12722328461167634 0.0
0.0037153959138629075 0.12944619644233046 0.0
0.003708150027593605 0.13165536239130202 0.0
0.003699636763703659 0.1338507026895804 0.0
0.0036899374213156177 0.13603214255930027 0.0
0.0036791281196271912 0.13819961191822278 0.0
0.0036672801205014783 0.1403530450986173 0.0
0.003654460132834813 0.1424923805804525 0.0
0.0036407305993194617 0.14461756073867413 0.0
0.003626149966279067 0.14672853160422006 0.0
0.0036107729373381623 0.1488252426383679 0.0
0.0035946507116818107 0.15090764651991764 0.0
0.003577831207692237 0.15297569894471094 0.0
0.0035603592727416413 0.15502935843693805 0.0
0.003542276879898919 0.15706858617168565 0.0
0.0035236233123087965 0.15909334580817444 0.0
0.003504435335947382 0.1611036033331308 0.0
0.003484747361462425 0.16309932691376147 0.0
0.0034645915957401546 0.16508048675980486 0.0
0.0034439981838454243 0.16704705499415162 0.0
0.0034229953419213765 0.16899900553154495 0.0
0.0034016094816211317 0.17093631396488881 0.0
0.003379865326594613 0.17285895745872795 0.0
0.0033577860215489573 0.17476691464946098 0.0
0.0033353932343375245 0.17666016555189185 0.0
0.003312707251543997 0.1785386914717283 0.0
0.00328974706796219 0.18040247492367412 0.0
0.003266530470375864 0.18225149955475936 0.0
0.0032430741159990293 0.18408575007260822 0.0
0.0032193936059339446 0.18590521217831718 0.0
0.0031955035539595836 0.18770987250366825 0.0
0.0031714176509563896 0.18949971855240963 0.0
0.003147148725265758 0.19127473864535238 0.0
0.0031227087992328683 0.1930349218690331 0.0
0.0030981091421839217 0.19478025802775284 0.0
0.003073360320098413 0.1965107375987357 0.0
0.003048472242162983 0.19822635169025993 0.0
0.0030234542044244254 0.19992709200255065 0.0
0.0029983149307475252 0.20161295079127073 0.0
0.0029730626112386325 0.20328392083345667 0.0
0.0029477049383356767 0.20493999539573965 0.0
0.0029222491406655773 0.20658116820472286 0.0
0.0028967020148990925 0.20820743341938036 0.0
0.00287106995566552 0.20981878560535125 0.0
0.0028453589837243638 0.21141521971103655 0.0
0.0028195747724666844 0.21299673104535963 0.0
0.0027937226729012393 0.21456331525712782 0.0
0.0027678077372074146 0.21611496831588323 0.0
0.00274183474098609 0.2176516864941658 0.0
0.00271580820427556 0.21917346635110516 0.0
0.002689732411453661 0.22068030471728897 0.0
0.0026636114300997407 0.2221721986808068 0.0
0.0026374491288960354 0.22364914557443658 0.0
0.002611249194661087 0.22511114296390874 0.0
0.0025850151485760017 0.22655818863719096 0.0
0.0025587503616848516 0.22799028059474935 0.0
0.002532458069732988 0.2294074170407513 0.0
0.0025061413874107232 0.2308095963751686 0.0
0.002479803322057342 0.2321968171867305 0.0
0.0024534467869076057 0.2335690782467142 0.0
0.0024270746139049967 0.23492637850353978 0.0
0.002400689566176133 0.23626871707814426 0.0
0.0023742943501861512 0.23759609326011027 0.0
0.002347891627658238 0.23890850650454462 0.0
0.0023214840272862206 0.24020595642968046 0.0
0.0022950741563061315 0.24148844281520282 0.0
0.002268664611981421 0.24275596560128224 0.0
0.0022422579930349087 0.24400852488830965 0.0
0.002215856911083691 0.24524612093735154 0.0
0.0021894640021525246 0.24646875417130357 0.0
0.0021630819382794575 0.2476764251767621 0.0
0.002136713439287224 0.24886913470660507 0.0
0.00211036128476617 0.2500468836833305 0.0
0.0020840283263264077 0.2512096732031268 0.0
0.0020577175001741223 0.25235750454069455 0.0
0.002031431840051061 0.2534903791549088 0.0
0.0020051744906292857 0.25460829869524615 0.0
0.0019789487214011744 0.25571126500907687 0.0
0.0019527579410931414 0.25679928014983844 0.0
0.0019266057127619036 0.2578723463861064 0.0
0.0019004957695442919 0.2589304662116409 0.0
0.001874432031184449 0.2599736423564245 0.0
0.0018484186214068516 0.26100187779874484 0.0
0.001822459886229266 0.2620151757784034 0.0
0.0017965604132661958 0.2630135398110803 0.0
0.0017707250521545857 0.26399697370394876 0.0
0.0017449589361828784 0.26496548157257843 0.0
0.0017192675052312514 0.2659190678592394 0.0
0.0016936565301518265 0.2668577373526854 0.0
0.001668132138691096 0.267781495209501 0.0
0.0016427008431004332 0.2686903469771133 0.0
0.0016173695696249572 0.2695842986186044 0.0
0.0015921456899433467 0.27046335653941667 0.0
0.0015670370548154094 0.2713275276160758 0.0
0.0015420520301185198 0.27217681922710873 0.0
0.0015171995354579307 0.27301123928629106 0.0
0.0014924890856420113 0.2738307962783856 0.0
0.0014679308352286518 0.2746354992975673 0.0
0.0014435356265364687 0.27542535808869995 0.0
0.001419315041365403 0.2762003830917254 0.0
0.0013952814568704832 0.27696058548936414 0.0
0.0013714481060228365 0.27770597725838164 0.0
0.0013478291431285232 0.27843657122470616 0.0
0.0013244397149924441 0.27915238112267116 0.0
0.001301296038381218 0.2798534216587371 0.0
0.0012784154845087515 0.28053970857998134 0.0
0.0012558166714624875 0.28121125874775593 0.0
0.0012335195655153038 0.2818680902169118 0.0
0.0012115455925601514 0.282510222321003 0.0
0.0011899177609428194 0.2831376757638962 0.0
0.0011686607973876856 0.2837504727182684 0.0
0.001147801297826123 0.28434863693148354 0.0
0.0011273678953453209 0.2849321938393072 0.0
0.0011073914478698765 0.2855011706879956 0.0
0.0010879052486118099 0.28605559666516356 0.0
0.0010689452630231588 0.28659550303991776 0.0
0.0010505503964420978 0.28712092331253286 0.0
0.0010327627977468079 0.2876318933739661 0.0
0.001015628205041301 0.2881284516751597 0.0
0.0009991963409266861 0.28861063940588627 0.0
0.0009835213659800622 0.28907850068248514 0.0
0.0009686624015632285 0.2895320827431223 0.0
0.0009546841341857277 0.2899714361486487 0.0
0.0009416575184157522 0.2903966149853941 0.0
0.000929660595071352 0.2908076770658557 0.0
0.0009187794526305056 0.29120468411838935 0.0
0.0009091093518928807 0.29158770195914874 0.0
0.0009007560659200479 0.29195680062493046 0.0
0.0008938374470956352 0.29231205445931036 0.0
0.0008884853369401256 0.2926535420980763 0.0
0.0008848477685409211 0.29298134636062056 0.0
0.0008830917719044671 0.2932955538978493 0.0
0.0008834064531135445 0.29359625468948936 0.0
0.000886007311021307 0.2938835409359858 0.0
0.0008911403522627887 0.29415750582131933 0.0
0.000899089271007609 0.2944182406572788 0.0
0.0009101800265379201 0.2946658324268171 0.0
0.0009247943933520812 0.2949003566072666 0.0
0.0009433709952698677 0.2951218732372023 0.0
0.0009664356941685318 0.2953304081239415 0.0
0.0009945810330075234 0.29552594967295237 0.0
0.0010285475870860288 0.29570839638495144 0.0
0.0010691084494363963 0.29587757019906497 0.0
0.0011173177653387735 0.29603306187810313 0.0
0.0011740063281962768 0.2961743427469111 0.0
0.0012406085774990018 0.29630031253052197 0.0
0.0013170155648919845 0.2964099271285764 0.0
0.0014047077546232476 0.29650114269664923 0.0
0.0014960169840990318 0.2965742727723255 0.0
0.0015909942784768226 0.2966351355376096 0.0
0.001586819209138527 0.29668396504005506 0.0
0.0 0.0 0.0
4.492153321198933e-05 0.003096393339521836 0.0
9.686778257815032e-05 0.006103248058226279 0.0
0.00018131855255688529 0.009031969125578685 0.0
0.0002985005227306707 0.011895931713415199 0.0
0.0004454195932831276 0.014707747231488173 0.0
0.0006176829089112961 0.0174782902230965 0.0
0.0008102862135307204 0.020216582442505678 0.0
0.0010180490346571823 0.02292978855960263 0.0
0.0012360071353179631 0.025623368881070686 0.0
0.0014596796203175059 0.028301340786863114 0.0
0.001685205058476684 0.030966569211375784 0.0
0.0019093774234048742 0.03362103569674731 0.0
0.002129618765435277 0.036266063561597596 0.0
0.0023439183457489494 0.03890249525926386 0.0
0.0025507580361908916 0.04153082680414606 0.0
0.0027490359340754775 0.0441513071916991 0.0
0.002937994591703175 0.04676401079461015 0.0
0.003117156852326007 0.049368889598126686 0.0
0.0032862702574969218 0.05196581071163027 0.0
0.0034452599035261757 0.05455458327059637 0.0
0.003594189076362135 0.05713497775067947 0.0
0.003733226771612739 0.05970673987275781 0.0
0.0038626211559501544 0.0622696006507568 0.0
0.003982678068631351 0.06482328367984554 0.0
0.00409374374577871 0.06736751043866185 0.0
0.004196191049772076 0.06990200415094742 0.0
0.004290408586329785 0.07242649259219455 0.0
0.004376792185737221 0.07494071011553706 0.0
0.004455738308814499 0.07744439909358715 0.0
0.0045276390117628745 0.07993731091883283 0.0
0.00459287816715638 0.08241920666734104 0.0
0.004651828691888296 0.08488985750377483 0.0
0.0047048505778695794 0.08734904488669305 0.0
0.004752289558812275 0.08979656061934295 0.0
0.004794476277580256 0.09223220678108901 0.0
0.004831725844304741 0.09465579556711151 0.0
0.004864337696621005 0.09706714905832213 0.0
0.004892595690723773 0.09946609893905432 0.0
0.0049167683661099125 0.10185248617664976 0.0
0.004937109338416783 0.1042261606743284 0.0
0.004953857784157569 0.1065869809065253 0.0
0.004967238988740251 0.10893481354409373 0.0
0.004977464935313294 0.11126953307530231 0.0
0.004984734916926576 0.11359102142735633 0.0
0.004989236158477411 0.11589916759217227 0.0
0.004991144438095203 0.11819386725931703 0.0
0.004990624700170774 0.12047502245833795 0.0
0.004987831654260415 0.12274254121215186 0.0
0.004982910355691656 0.12499633720270602 0.0
0.00497599676497605 0.1272363294497353 0.0
0.00496721828411454 0.12946244200313917 0.0
0.004956694268659614 0.13167460364925218 0.0
0.004944536514996791 0.13387274763107757 0.0
0.004930849722751613 0.13605681138240208 0.0
0.00491573193259482 0.1382267362755762 0.0
0.004899274939944564 0.14038246738265445 0.0
0.004881564685276953 0.1425239532495152 0.0
0.004862681621868895 0.14465114568251886 0.0
0.004842701061889068 0.14676399954724634 0.0
0.004821693501804156 0.14886247257880375 0.0
0.004799724928098397 0.15094652520319918 0.0
0.004776857104304233 0.1530161203692616 0.0
0.00475314784033865 0.155071223390591 0.0
0.00472865124512693 0.15711180179703368 0.0
0.0047034179634529915 0.1591378251951766 0.0
0.004677495397948143 0.1611492651373778 0.0
0.004650927917115572 0.16314609499886348 0.0
0.0046237570502081875 0.1651282898624338 0.0
0.004596021669772727 0.16709582641035123 0.0
0.004567758162614076 0.1690486828229835 0.0
0.00453900058990184 0.1709868386838145 0.0
0.00450978083709378 0.1729102748904407 0.0
0.004480128754322991 0.17481897357119897 0.0
0.00445007228785209 0.17671291800708075 0.0
0.004419637603151999 0.17859209255861785 0.0
0.0043888492001605715 0.18045648259742883 0.0
0.004357730021205175 0.18230607444215433 0.0
0.0043263015520632045 0.18414085529849486 0.0
0.004294583916616286 0.1859608132031099 0.0
0.004262595965500001 0.187765936971135 0.0
0.004230355359141155 0.189556216147091 0.0
0.004197878645549378 0.1913316409589832 0.0
0.004165181333209987 0.19309220227538562 0.0
0.004132277959393598 0.19483789156531903 0.0
0.004099182154184085 0.1965687008607741 0.0
0.004065906700504503 0.19828462272168865 0.0
0.004032463590412874 0.19998565020324258 0.0
0.0039988640779179225 0.20167177682532578 0.0
0.003965118728531575 0.20334299654404192 0.0
0.003931237465791262 0.2049993037251337 0.0
0.003897229614960141 0.20664069311919916 0.0
0.0038631039440798114 0.20826715983860736 0.0
0.003828868702577322 0.20987869933599593 0.0
0.003794531657586998 0.21147530738426396 0.0
0.003760100128138033 0.21305698005798127 0.0
0.0037255810173802495 0.21462371371611055 0.0
0.003690980842978321 0.2161755049859934 0.0
0.0036563057657924567 0.2177123507485117 0.0
0.003621561617002638 0.21923424812435777 0.0
0.0035867539237810888 0.22074119446136806 0.0
0.003551887933612286 0.22223318732285519 0.0
0.0035169686374039513 0.22371022447688169 0.0
0.003482000791443145 0.22517230388644338 0.0
0.003446988938342519 0.22661942370050162 0.0
0.0034119374270223405 0.2280515822458338 0.0
0.0033768504318621565 0.22946877801967702 0.0
0.003341731971071166 0.23087100968311636 0.0
0.0033065859243734206 0.23225827605518543 0.0
0.003271416050088263 0.2336305761076766 0.0
0.003236226001666854 0.23498790896061675 0.0
0.0032010193437792865 0.23633027387839042 0.0
0.0031657995680001486 0.23765767026650517 0.0
0.003130570108177856 0.23897009766898014 0.0
0.003095334355555314 0.24026755576633785 0.0
0.0030600956736973124 0.2415500443741941 0.0
0.003024857413289405 0.24281756344246092 0.0
0.0029896229269047634 0.24407011305511933 0.0
0.0029543955837500547 0.24530769343058959 0.0
0.0029191787845155555 0.24653030492270772 0.0
0.0028839759763440247 0.24773794802227458 0.0
0.002848790668015281 0.24893062335922772 0.0
0.0028136264454083075 0.25010833170541447 0.0
0.0027784869873008857 0.25127107397798615 0.0
0.002743376081575754 0.2524188512434638 0.0
0.0027082976419389834 0.25355166472242036 0.0
0.002673255725164753 0.25466951579487407 0.0
0.0026382545490028476 0.2557724060063686 0.0
0.0026032985108015174 0.2568603370747868 0.0
0.002568392206925229 0.257933310897934 0.0
0.0025335404530644743 0.2589913295619025 0.0
0.0024987483055477263 0.26003439535027517 0.0
0.0024640210837153366 0.2610625107541966 0.0
0.002429364393500242 0.2620756784833682 0.0
0.0023947841522876734 0.26307390147799686 0.0
0.0023602866152167556 0.26405718292177716 0.0
0.0023258784029927954 0.26502552625594056 0.0
0.002291566531400658 0.26597893519444166 0.0
0.0022573584426237732 0.26691741374035366 0.0
0.002223262038553009 0.2678409662035314 0.0
0.002189285716243564 0.2687495972196464 0.0
0.0021554384056687676 0.2696433117706377 0.0
0.002121729610057066 0.2705221152066972 0.0
0.0020881694489310572 0.27138601326988476 0.0
0.002054768704149842 0.2722350121194388 0.0
0.0020215388691883916 0.27306911835893355 0.0
0.001988492201958139 0.27388833906536725 0.0
0.001955641781475245 0.27469268182031875 0.0
0.0019230015687324996 0.27548215474326904 0.0
0.0018905864721796548 0.27625676652723913 0.0
0.00185841241823072 0.27701652647688635 0.0
0.0018264964273161603 0.27776144454916857 0.0
0.0017948566960252713 0.27849153139673105 0.0
0.001763512685971869 0.2792067984141601 0.0
0.0017324852200765457 0.2799072577872519 0.0
0.0017017965871260745 0.28059292254537427 0.0
0.0016714706554852906 0.2812638066170876 0.0
0.0016415329970416038 0.2819199248891106 0.0
0.0016120110226183842 0.28256129326869145 0.0
0.0015829341302620588 0.283187928749418 0.0
0.0015543338679784309 0.28379984948046016 0.0
0.0015262441128583368 0.2843970748391338 0.0
0.0014987012687568085 0.2849796255065659 0.0
0.0014717444850227464 0.28554752354619156 0.0
0.0014454158993113776 0.2861007924845332 0.0
0.0014197609078377233 0.2866394573935463 0.0
0.0013948284671835144 0.287163544973469 0.0
0.0013706714322842593 0.28767308363479505 0.0
0.0013473469361964111 0.288168103577371 0.0
0.0013249168179938476 0.2886486368639939 0.0
0.0013034481065648477 0.2891147174849933 0.0
0.0012830135687824614 0.2895663814091305 0.0
0.0012636923331958345 0.29000366661451926 0.0
0.0012455705999367427 0.29042661309150475 0.0
0.0012287424537888577 0.2908352628062726 0.0
0.0012133107916128948 0.29122965961174074 0.0
0.001199388393367071 0.29160984908498705 0.0
0.0011870991391288326 0.29197587826993 0.0
0.0011765794344125895 0.29232779528542696 0.0
0.001167979799322041 0.2926656487685892 0.0
0.0011614667897189637 0.29298948707072975 0.0
0.0011572250145618435 0.29329935717847777 0.0
0.0011554597875753302 0.29359530316688837 0.0
0.0011563994509784477 0.29387736423073607 0.0
0.0011602992515865249 0.29414557177694467 0.0
0.0011674431119979459 0.2943999460082342 0.0
0.001178150114316434 0.2946404904396782 0.0
0.0011927721149306782 0.2948671864015304 0.0
0.0012117075483519505 0.2950799824226439 0.0
0.0012353813698363406 0.29527878694266013 0.0
0.0012642836748080007 0.2954634467940287 0.0
0.0012988829830565013 0.2956337443759771 0.0
0.001339756760007459 0.29578935174849896 0.0
0.001387262870137832 0.2959298665228013 0.0
0.001442027131396819 0.29605471199822053 0.0
0.0015037526511766227 0.2961633556729236 0.0
0.001573205586806048 0.29625511658534487 0.0
0.0016479227726189825 0.29632989879314614 0.0
0.0017316461436091978 0.29638822919036256 0.0
0.0018135382681827167 0.2964263817871174 0.0
0.001799534470680095 0.29645271244350774 0.0
0.0 0.0 0.0
6.800774173161505e-05 0.0030124981470578977 0.0
0.00014653515174652463 0.005934207501732678 0.0
0.00027144284776746104 0.008780157921841723 0.0
0.00044188993845009573 0.0115694821081744 0.0
0.0006514779056932857 0.014318038498329626 0.0
0.0008924640759187125 0.01703851205650196 0.0
0.0011565798163350844 0.01974019619978986 0.0
0.0014359867364973308 0.022429364986970023 0.0
0.0017238261797898687 0.025109944489015566 0.0
0.002014409192782739 0.02778418149812209 0.0
0.0023031931931068103 0.030453189964308288 0.0
0.0025866589214491994 0.03311735407594155 0.0
0.002862155141070689 0.035776608421569454 0.0
0.0031277447407930628 0.038430625079424276 0.0
0.0033820667941494966 0.041078934763862957 0.0
0.0036242189844921426 0.04372100307378403 0.0
0.0038536601753127197 0.04635627699344809 0.0
0.004070130963403593 0.04898421210128656 0.0
0.0042735895246581715 0.05160428751475008 0.0
0.004464160118913137 0.054216013208200416 0.0
0.004642091927810718 0.056818932717155185 0.0
0.004807726260199836 0.05941262315851636 0.0
0.004961470507740836 0.06199669378228639 0.0
0.005103777535304633 0.06457078380475542 0.0
0.005235129443747024 0.06713455997301082 0.0
0.005356024848646259 0.06968771411957216 0.0
0.005466968985081415 0.07222996084629582 0.0
0.005568466082150452 0.07476103540336947 0.0
0.005661013558197784 0.07728069178566571 0.0
0.005745097673878701 0.07978870104405293 0.0
0.005821190349558651 0.08228484979635986 0.0
0.0058897469095251925 0.08476893891695245 0.0
0.005951204560780035 0.08724078238233873 0.0
0.006005981450898838 0.08970020625101914 0.0
0.0060544761792536705 0.09214704775777659 0.0
0.006097067660136873 0.09458115450504992 0.0
0.006134115256040636 0.09700238373656021 0.0
0.006165959115390774 0.09941060168073977 0.0
0.006192920662091684 0.10180568295363583 0.0
0.006215303194845038 0.10418751001279843 0.0
0.006233392562834265 0.10655597265520156 0.0
0.006247457891354327 0.10891096755353159 0.0
0.006257752336636019 0.11125239782621893 0.0
0.006264513853691189 0.1135801726374255 0.0
0.006267965964697418 0.11589420682388506 0.0
0.006268318518417206 0.11819442054601982 0.0
0.006265768433520254 0.12048073896118455 0.0
0.006260500420590046 0.12275309191722827 0.0
0.006252687679103313 0.125011413664819 0.0
0.006242492566870592 0.1272556425871939 0.0
0.006230067240376279 0.1294857209461522 0.0
0.006215554265177802 0.13170159464325193 0.0
0.006199087196110616 0.13390321299525818 0.0
0.006180791127473445 0.13609052852299314 0.0
0.00616078321369353 0.13826349675280097 0.0
0.006139173161224807 0.1404220760298926 0.0
0.0061160636926012625 0.1425662273428955 0.0
0.006091550983688167 0.14469591415896682 0.0
0.006065725075257546 0.14681110226886832 0.0
0.006038670260056552 0.14891175964144915 0.0
0.006010465446558709 0.15099785628698476 0.0
0.005981184500588003 0.15306936412887662 0.0
0.005950896565994843 0.1551262568832245 0.0
0.0059196663655241705 0.15716850994582438 0.0
0.00588755448300485 0.1591961002861491 0.0
0.005854617627929242 0.16120900634791932 0.0
0.005820908883452183 0.16320720795585236 0.0
0.005786477938813231 0.16519068622824798 0.0
0.005751371307095945 0.1671594234950452 0.0
0.005715632529252678 0.16911340322103316 0.0
0.005679302365205469 0.17105260993390012 0.0
0.005642418972853416 0.17297702915682694 0.0
0.005605018075725031 0.1748866473453545 0.0
0.0055671331199981435 0.17678145182825736 0.0
0.005528795421555347 0.17866143075218105 0.0
0.00549003430370844 0.1805265730298171 0.0
0.005450877226186544 0.1823768682913886 0.0
0.005411349905947957 0.18421230683925052 0.0
0.005371476430338584 0.18603287960540793 0.0
0.005331279363090401 0.1878385781117672 0.0
0.00529077984362642 0.18962939443296592 0.0
0.005249997680100641 0.19140532116160383 0.0
0.0052089514365803976 0.193166351375733 0.0
0.005167658514763631 0.19491247860848154 0.0
0.005126135230572115 0.19664369681964713 0.0
0.0050843968859756086 0.19836000036917462 0.0
0.005042457836346055 0.2000613839923798 0.0
0.005000331553649052 0.201747842776809 0.0
0.004958030685743656 0.20341937214065406 0.0
0.004915567112058995 0.2050759678126156 0.0
0.004872951995887566 0.2067176258131163 0.0
0.004830195833517836 0.20834434243681782 0.0
0.004787308500440391 0.20995611423631727 0.0
0.004744299294814209 0.21155293800699107 0.0
0.004701176978403603 0.21313481077289448 0.0
0.004657949815131257 0.21470172977368185 0.0
0.00461462560745796 0.21625369245245776 0.0
0.004571211730731396 0.21779069644452892 0.0
0.004527715165636794 0.2193127395670081 0.0
0.004484142528933641 0.22081981980920778 0.0
0.004440500102572572 0.22231193532378907 0.0
0.0043967938613486204 0.22378908441864162 0.0
0.0043530294991941994 0.22525126554943525 0.0
0.004309212454242917 0.22669847731282244 0.0
0.0042653479327652835 0.22813071844027255 0.0
0.004221440932086237 0.2295479877924781 0.0
0.0041774962625683336 0.23095028435434156 0.0
0.004133518568795413 0.2323376072305224 0.0
0.004089512350013792 0.23370995564148786 0.0
0.004045481979931524 0.2350673289200852 0.0
0.00400143172597078 0.23640972650860317 0.0
0.003957365768052313 0.23773714795632286 0.0
0.0039132882169911655 0.23904959291753006 0.0
0.0038692031325963335 0.2403470611499924 0.0
0.003825114541532061 0.24162955251390103 0.0
0.0037810264550618665 0.24289706697124422 0.0
0.003736942886685958 0.24414960458565532 0.0
0.0036928678698340393 0.2453871655226822 0.0
0.0036488054756089873 0.24660975005051197 0.0
0.0036047598307123235 0.24781735854116296 0.0
0.0035607351356324955 0.24900999147211286 0.0
0.0035167356831405207 0.2501876494283996 0.0
0.0034727658771998484 0.25135033310519755 0.0
0.0034288302523703255 0.252498043310862 0.0
0.003384933493798059 0.25363078097050074 0.0
0.003341080457864788 0.2547485471300262 0.0
0.0032972761936191945 0.25585134296076034 0.0
0.003253525965025597 0.25693916976457354 0.0
0.003209835274219429 0.2580120289796072 0.0
0.003166209885796387 0.25906992218660263 0.0
0.00312265585226714 0.2601128511157977 0.0
0.0030791795408342862 0.2611408176545448 0.0
0.0030357876615440425 0.26215382385557046 0.0
0.002992487297008173 0.26315187194596956 0.0
0.002949285933781174 0.2641349643369408 0.0
0.002906191495587548 0.2651031036343317 0.0
0.0028632123785056938 0.2660562926500134 0.0
0.0028203574883226244 0.26699453441413273 0.0
0.00277763628020052 0.2679178321882869 0.0
0.0027350588008765208 0.26882618947969333 0.0
0.0026926357335872527 0.2697196100563865 0.0
0.0026503784459482034 0.27059809796348483 0.0
0.0026082990410267615 0.27146165754060614 0.0
0.0025664104118758987 0.2723102934404663 0.0
0.0025247262998136983 0.2731440106487674 0.0
0.0024832613567578807 0.27396281450536225 0.0
0.0024420312119709437 0.27476671072678943 0.0
0.0024010525435580045 0.2755557054302334 0.0
0.0023603431551582807 0.2763298051589576 0.0
0.002319922058292252 0.27708901690921733 0.0
0.0022798095608097093 0.27783334815871724 0.0
0.002240027362060187 0.27856280689662327 0.0
0.0022005986553508454 0.279277401655125 0.0
0.002161548238409358 0.2799771415424886 0.0
0.002122902632603246 0.2806620362775877 0.0
0.0020846902117806257 0.28133209622576777 0.0
0.002046941341663379 0.28198733243588586 0.0
0.0020096885309459577 0.2826277566783394 0.0
0.001972966595222018 0.28325338148372714 0.0
0.0019368128351964211 0.28386422018173685 0.0
0.0019012672306803087 0.2844602869396776 0.0
0.0018663726521610817 0.2850415967999624 0.0
0.0018321750918825672 0.2856081657155212 0.0
0.0017987239167624844 0.286160010581976 0.0
0.0017660721455885378 0.28669714926497447 0.0
0.0017342767533856222 0.28721960062068513 0.0
0.0017033990062440653 0.2877273845068971 0.0
0.0016735048300596845 0.2882205217815456 0.0
0.0016446652173877129 0.288699034284542 0.0
0.0016169566765885288 0.28916294479780147 0.0
0.0015904617285192784 0.28961227697698605 0.0
0.0015652694552150334 0.2900470552467851 0.0
0.0015414761074359197 0.2904673046494726 0.0
0.0015191857737695384 0.29087305063375957 0.0
0.0014985111220474584 0.2912643187677205 0.0
0.0014795742067256088 0.29164113435528477 0.0
0.0014625073656471816 0.29200352193071416 0.0
0.0014474541662233289 0.2923515045991724 0.0
0.0014345704718270555 0.2926851031835347 0.0
0.001424025469021261 0.29300433512895235 0.0
0.001416002909274493 0.2933092131052794 0.0
0.0014107019815490281 0.29359974323768007 0.0
0.0014083387703922486 0.2938759228820684 0.0
0.0014091461955790417 0.2941377378594266 0.0
0.0014133760413464781 0.29438515905464685 0.0
0.0014212954781547416 0.29461813832472117 0.0
0.0014331916379842862 0.2948366036856012 0.0
0.0014493566762823022 0.29504045394983514 0.0
0.0014701040081335584 0.2952295531312605 0.0
0.0014957152775795486 0.2954037256791182 0.0
0.001526506816626291 0.2955627540956018 0.0
0.00156264869006314 0.2957063825458566 0.0
0.001604437885724041 0.29583433180195656 0.0
0.0016516830807003977 0.2959463295597804 0.0
0.0017048057723200109 0.29604218068816424 0.0
0.0017627227613286115 0.2961217705123367 0.0
0.0018271169980357716 0.2961853783294902 0.0
0.0018942831554148206 0.2962321128325119 0.0
0.0019602660959999107 0.2962659577540132 0.0
0.001955120077052937 0.29629040422976954 0.0
0.0 0.0 0.0
0.00010947661875231857 0.0028897421805140064 0.0
0.0002270057682156374 0.005686096074295715 0.0
0.00041268258484514377 0.00841718928241754 0.0
0.0006592354902936117 0.011108330680900754 0.0
0.0009542554806659845 0.013780281006682585 0.0
0.0012834103896884016 0.016446317761032066 0.0
0.0016337122308234104 0.019113533488797806 0.0
0.0019945770350300383 0.0217849112459327 0.0
0.002357844162609787 0.024460989549838958 0.0
0.0027174291089486825 0.027140978975762387 0.0
0.0030689065998355104 0.029823448132852367 0.0
0.0034091350786279724 0.03250672262930077 0.0
0.0037359506705839465 0.0351891056906044 0.0
0.00404792867558388 0.037868992260179236 0.0
0.0043442012195669556 0.04054492127566042 0.0
0.004624318870194985 0.04321559307877355 0.0
0.004888145674024357 0.04587986794562007 0.0
0.005135779338461335 0.048536755077299355 0.0
0.005367490277011559 0.05118539742406461 0.0
0.005583674852365995 0.05382505535705417 0.0
0.005784819364196973 0.05645509081014657 0.0
0.005971472229012676 0.05907495269841992 0.0
0.006144222453476796 0.06168416394884753 0.0
0.006303682979906555 0.06428231021350629 0.0
0.006450477829766455 0.06686903019301768 0.0
0.006585232225838084 0.06944400742782866 0.0
0.006708565061855359 0.07200696338715198 0.0
0.006821083228871997 0.07455765168151955 0.0
0.006923377413509461 0.07709585323399139 0.0
0.007016019064009107 0.07962137226042902 0.0
0.00709955828227953 0.08213403292702784 0.0
0.007174522448651346 0.0846336765712633 0.0
0.00724141542421895 0.08712015938933275 0.0
0.007300717205937351 0.08959335050848548 0.0
0.007352883933843412 0.09205313037610707 0.0
0.007398348169238089 0.0944993894090426 0.0
0.007437519378389079 0.0969320268565416 0.0
0.007470784569065965 0.0993509498385251 0.0
0.007498509037594002 0.10175607252781993 0.0
0.007521037192543326 0.1041473154507645 0.0
0.007538693428067548 0.10652460488532177 0.0
0.0075517830255022655 0.10888787233973145 0.0
0.007560593066409464 0.11123705409790216 0.0
0.007565393343969093 0.11357209082033785 0.0
0.007566437262636687 0.11589292719149043 0.0
0.00756396271843014 0.11819951160612903 0.0
0.007558192954190302 0.12049179588870416 0.0
0.007549337385734891 0.12276973504077861 0.0
0.007537592396109737 0.125033287012519 0.0
0.0075231420961526085 0.12728241249494385 0.0
0.007506159050378368 0.12951707473021745 0.0
0.007486804967834496 0.1317372393377473 0.0
0.007465231358054647 0.13394287415422482 0.0
0.007441580152619335 0.13613394908604412 0.0
0.007415984293114149 0.13831043597279716 0.0
0.007388568286476705 0.14047230846073136 0.0
0.0073594487288836385 0.14261954188522166 0.0
0.007328734799420133 0.14475211316144276 0.0
0.0072965287248390265 0.14687000068253556 0.0
0.007262926216753264 0.14897318422465186 0.0
0.007228016882609439 0.15106164485832865 0.0
0.00719188461178884 0.15313536486571042 0.0
0.007154607938149119 0.15519432766319452 0.0
0.007116260380301606 0.1572385177290977 0.0
0.00707691076086576 0.15926792053600572 0.0
0.007036623505909072 0.16128252248747424 0.0
0.00699545892571812 0.16328231085879616 0.0
0.006953473478008614 0.1652672737415593 0.0
0.006910720014628208 0.1672373999917532 0.0
0.006867248012739051 0.16919267918118944 0.0
0.00682310379144401 0.17113310155202102 0.0
0.006778330714732761 0.173058657974172 0.0
0.006732969381620327 0.17496933990548202 0.0
0.006687057804251264 0.17686513935440307 0.0
0.006640631574745747 0.1787460488450722 0.0
0.006593724021484178 0.18061206138463717 0.0
0.006546366355508485 0.18246317043266644 0.0
0.006498587807658095 0.1842993698725286 0.0
0.006450415757043902 0.18612065398461503 0.0
0.006401875851409838 0.18792701742128906 0.0
0.006352992119901303 0.18971845518345248 0.0
0.0063037870787356785 0.19149496259863474 0.0
0.0062542818302358865 0.1932565353005024 0.0
0.0062044961556456425 0.19500316920970945 0.0
0.006154448602154441 0.19673486051599692 0.0
0.00610415656449523 0.1984516056614702 0.0
0.006053636361473717 0.20015340132497877 0.0
0.006002903307774404 0.20184024440753487 0.0
0.00595197178134684 0.20351213201870025 0.0
0.00590085528667259 0.20516906146389097 0.0
0.005849566514192196 0.206811030232532 0.0
0.005798117396156927 0.20843803598703534 0.0
0.005746519159129086 0.21005007655251898 0.0
0.005694782373399626 0.21164714990724512 0.0
0.005642916999495329 0.21322925417373614 0.0
0.005590932432024789 0.21479638761051806 0.0
0.005538837541016293 0.21634854860446426 0.0
0.00548664071095583 0.21788573566370054 0.0
0.005434349877691516 0.21940794741104247 0.0
0.005381972563357871 0.22091518257794315 0.0
0.005329515909482055 0.22240743999890794 0.0
0.005276986708409383 0.22388471860637146 0.0
0.005224391433204807 0.22534701742600355 0.0
0.005171736266137016 0.22679433557241693 0.0
0.005119027125888358 0.2282266722452767 0.0
0.005066269693605425 0.22964402672577347 0.0
0.005013469437901212 0.23104639837346666 0.0
0.004960631638923572 0.23243378662346662 0.0
0.004907761411593765 0.23380619098394687 0.0
0.0048548637281246925 0.23516361103397493 0.0
0.00480194343989648 0.2365060464216746 0.0
0.00474900529881589 0.2378334968626615 0.0
0.004696053978231146 0.2391459621387954 0.0
0.0046430940935008064 0.24044344209722524 0.0
0.0045901302223116695 0.24172593664970238 0.0
0.004537166924822626 0.24299344577220922 0.0
0.004484208763751368 0.24424596950483507 0.0
0.004431260324452042 0.2454835079519518 0.0
0.00437832623510999 0.2467060612826806 0.0
0.004325411187114855 0.24791362973162498 0.0
0.004272519955719499 0.24910621359990182 0.0
0.004219657421067566 0.2502838132564447 0.0
0.004166828589696576 0.2514464291396344 0.0
0.004114038616579608 0.2525940617592116 0.0
0.004061292827850561 0.25372671169849836 0.0
0.004008596744266228 0.25484437961696293 0.0
0.003955956105541222 0.25594706625307617 0.0
0.003903376895646748 0.25703477242756695 0.0
0.0038508653692118375 0.25810749904696484 0.0
0.0037984280791023275 0.2591652471075719 0.0
0.003746071905349173 0.26020801769977214 0.0
0.003693804085510945 0.26123581201277407 0.0
0.0036416322466405805 0.2622486313397449 0.0
0.0035895644389967573 0.2632464770834134 0.0
0.003537609171621174 0.2642293507620986 0.0
0.0034857754500067853 0.2651972540162324 0.0
0.0034340728159399122 0.26615018861537565 0.0
0.0033825113898063495 0.2670881564657652 0.0
0.0033311019154573986 0.2680111596183801 0.0
0.0032798558079047972 0.2689192002776008 0.0
0.0032287852040498257 0.26981228081043 0.0
0.0031779030166851413 0.2706904037563354 0.0
0.0031272229920230625 0.27155357183770196 0.0
0.0030767597710359847 0.2724017879709356 0.0
0.0030265289548967993 0.2732350552782223 0.0
0.0029765471748114804 0.2740533770999289 0.0
0.0029268321666452496 0.2748567570076771 0.0
0.0028774028506531974 0.2756451988180431 0.0
0.0028282794167534897 0.2764187066069032 0.0
0.0027794834157341113 0.2771772847243326 0.0
0.002731037856903894 0.27792093781006333 0.0
0.0026829673126787254 0.2786496708093651 0.0
0.0026352980305724325 0.27936348898926283 0.0
0.002588058053326232 0.2800623979549534 0.0
0.0025412773476841586 0.2807464036661615 0.0
0.002494987942567633 0.2814155124532628 0.0
0.0024492240773729395 0.2820697310328008 0.0
0.002404022361200924 0.28270906652194505 0.0
0.002359421943867313 0.28333352645145393 0.0
0.002315464699679059 0.28394311877641065 0.0
0.002272195424864819 0.284537851883973 0.0
0.002229662049797494 0.28511773459706036 0.0
0.002187915867060177 0.28568277617278676 0.0
0.002147011776540535 0.2862329862940584 0.0
0.0021070085486414075 0.2867683750524645 0.0
0.002067969106867415 0.28728895292012724 0.0
0.00202996083079137 0.28779473070766265 0.0
0.001993055880485418 0.2882857195047979 0.0
0.0019573315430270236 0.28876193059940064 0.0
0.0019228706017355884 0.2892233753698445 0.0
0.0018897617275871344 0.28967006514438 0.0
0.001858099892546767 0.2901020110201674 0.0
0.0018279868012922092 0.29051922363265154 0.0
0.001799531340085856 0.2909217128649613 0.0
0.0017728500311130985 0.2913094874834201 0.0
0.0017480674926180079 0.29168255468587 0.0
0.0017253168704453449 0.2920409195414877 0.0
0.0017047402570337308 0.29238458430868436 0.0
0.0016864889948655416 0.2927135475953753 0.0
0.0016707239590062857 0.2930278033629885 0.0
0.001657615492266362 0.2933273397018531 0.0
0.001647343418286058 0.2936121374519162 0.0
0.0016400960394136192 0.2938821684793301 0.0
0.0016360698429573612 0.2941373939653253 0.0
0.0016354661074310447 0.29437776209412325 0.0
0.001638491070084779 0.29460320652782607 0.0
0.0016453460520461625 0.2948136434497193 0.0
0.0016562326931550883 0.29500897225823736 0.0
0.0016713239944532298 0.29518907154587637 0.0
0.0016907949978268051 0.2953538086184739 0.0
0.0017147329539952737 0.2955030306304431 0.0
0.001743274436836648 0.29563660270517306 0.0
0.0017763081550612062 0.29575437062754933 0.0
0.001814019966352615 0.2958562856777665 0.0
0.0018558540668115113 0.29594221436834683 0.0
0.0019024842033584265 0.2960123686630712 0.0
0.0019521120920626416 0.2960663149313449 0.0
0.0020059742017405247 0.2961055096442886 0.0
0.002059050139319129 0.2961280593578671 0.0
0.0020515407564237996 0.2961397932802469 0.0
0.0 0.0 0.0
0.0001740618945150996 0.00266916158873002 0.0
0.000368988404479892 0.00527662480039158 0.0
0.0006530117691653596 0.007847399882111378 0.0
0.0010136336725913434 0.010421153938586817 0.0
0.0014234072153107428 0.013016838071446784 0.0
0.0018597678603229984 0.015639968117844114 0.0
0.0023064879473710157 0.018289431751597786 0.0
0.0027524221767185595 0.02096132433285298 0.0
0.003190081102937082 0.02365087792531888 0.0
0.0036145149218860034 0.02635335954411658 0.0
0.004022525632182065 0.02906444908106468 0.0
0.00441212738339791 0.03178036493550783 0.0
0.004782179182560993 0.03449787248169122 0.0
0.005132133357672707 0.037214242153386125 0.0
0.005461861416177212 0.039927189443600436 0.0
0.005771531828971319 0.042634812046130004 0.0
0.006061523048960616 0.04533553088389891 0.0
0.006332360741476739 0.04802803763615426 0.0
0.006584671909962766 0.05071124938043277 0.0
0.006819150991443328 0.05338427005524017 0.0
0.007036534569222725 0.056046358070447465 0.0
0.007237582384688889 0.05869689927888372 0.0
0.007423063023218774 0.06133538453226226 0.0
0.007593743116290646 0.06396139110945069 0.0
0.007750379222164212 0.06657456738911502 0.0
0.007893711769187349 0.06917462022540911 0.0
0.008024460601830943 0.07176130456651401 0.0
0.008143321780797031 0.07433441492844743 0.0
0.008250965369182075 0.07689377839978899 0.0
0.008348033996017993 0.07943924890713445 0.0
0.008435142032907447 0.08197070251701304 0.0
0.00851287525319726 0.0844880335886395 0.0
0.008581790869159238 0.08699115162421331 0.0
0.008642417863003519 0.08947997869044072 0.0
0.0086952575436716 0.09195444730735745 0.0
0.00874078427427335 0.09441449871910372 0.0
0.008779446325456233 0.09686008147664815 0.0
0.008811666818488252 0.09929115027513244 0.0
0.008837844728779786 0.10170766499893912 0.0
0.008858355926272609 0.10410958993616383 0.0
0.008873554233820698 0.10649689313121556 0.0
0.00888377248855907 0.10886954585003901 0.0
0.008889323594452957 0.11122752213717996 0.0
0.008890501556838409 0.11357079844777797 0.0
0.008887582491943408 0.11589935334071848 0.0
0.008880825606136422 0.1182131672217578 0.0
0.008870474141105193 0.1205122221275202 0.0
0.008856756282353004 0.12279650154297835 0.0
0.008839886029345401 0.1250659902464134 0.0
0.00882006402640584 0.1273206741769772 0.0
0.00879747835408742 0.12956054032089592 0.0
0.008772305281205602 0.13178557661309281 0.0
0.008744709978125126 0.13399577185160774 0.0
0.008714847192142766 0.1361911156226939 0.0
0.00868286188607059 0.13837159823484507 0.0
0.008648889841248663 0.1405372106603372 0.0
0.008613058226339705 0.14268794448313504 0.0
0.008575486133331154 0.14482379185220762 0.0
0.008536285082211595 0.14694474543947836 0.0
0.008495559495794378 0.1490507984017659 0.0
0.008453407146173118 0.15114194434618905 0.0
0.008409919574265191 0.15321817729859197 0.0
0.00836518248387286 0.15527949167462757 0.0
0.008319276111644777 0.15732588225318922 0.0
0.008272275574293992 0.15935734415193106 0.0
0.008224251194352524 0.16137387280465867 0.0
0.008175268805711844 0.1633754639404065 0.0
0.008125390040134439 0.16536211356403618 0.0
0.00807467259585889 0.16733381793821867 0.0
0.008023170489386552 0.16929057356668292 0.0
0.007970934291453822 0.1712323771786192 0.0
0.007918011348171725 0.17315922571414993 0.0
0.007864445988233524 0.17507111631077707 0.0
0.007810279717063434 0.17696804629073926 0.0
0.007755551398716038 0.17885001314920934 0.0
0.007700297426291075 0.18071701454326886 0.0
0.007644551881596846 0.18256904828161355 0.0
0.007588346684734951 0.18440611231493154 0.0
0.0075317117342497165 0.1862282047269085 0.0
0.007474675038439909 0.18803532372582216 0.0
0.007417262838411262 0.1898274676366879 0.0
0.007359499723384426 0.19160463489391313 0.0
0.007301408738771088 0.19336682403443983 0.0
0.007243011487486362 0.19511403369132446 0.0
0.007184328224928111 0.1968462625877473 0.0
0.007125377948045488 0.19856350953141624 0.0
0.00706617847889196 0.20026577340934082 0.0
0.007006746543004883 0.20195305318294726 0.0
0.006947097842977548 0.20362534788352166 0.0
0.006887247127546045 0.20528265660796474 0.0
0.006827208256462274 0.20692497851482403 0.0
0.006766994261473027 0.20855231282060802 0.0
0.006706617403665338 0.21016465879633905 0.0
0.006646089227403208 0.21176201576435563 0.0
0.006585420611136365 0.2133443830953375 0.0
0.0065246218152619955 0.2149117602055398 0.0
0.0064637025272743604 0.21646414655423213 0.0
0.00640267190440078 0.2180015416413167 0.0
0.006341538613891174 0.21952394500513855 0.0
0.006280310871168216 0.22103135622044845 0.0
0.006218996475974133 0.22252377489654138 0.0
0.006157602846696641 0.22400120067553042 0.0
0.006096137053025693 0.22546363323079022 0.0
0.006034605847055553 0.22691107226549995 0.0
0.005973015693004389 0.22834351751135065 0.0
0.005911372795663653 0.22976096872736237 0.0
0.005849683127707186 0.23116342569882165 0.0
0.005787952455973576 0.23255088823634026 0.0
0.005726186366854738 0.23392335617502016 0.0
0.005664390290869506 0.23528082937372696 0.0
0.0056025695265754325 0.23662330771447318 0.0
0.0055407292638905495 0.2379507911018878 0.0
0.005478874606931842 0.239263279462804 0.0
0.005417010596478515 0.2405607727459325 0.0
0.005355142232168715 0.2418432709216295 0.0
0.005293274494497952 0.2431107739817698 0.0
0.005231412366749194 0.24436328193970366 0.0
0.005169560856921269 0.24560079483030375 0.0
0.005107725019786973 0.24682331271012706 0.0
0.0050459099791394435 0.24803083565765122 0.0
0.004984120950357351 0.24922336377360363 0.0
0.004922363263362211 0.25040089718139674 0.0
0.0048606423860904045 0.25156343602765746 0.0
0.004798963948583268 0.2527109804828493 0.0
0.004737333767769313 0.25384353074200533 0.0
0.0046757578730960625 0.25496108702555986 0.0
0.004614242533086611 0.25606364958028544 0.0
0.004552794282966951 0.2571512186803292 0.0
0.004491419953454897 0.25822379462837214 0.0
0.004430126700867573 0.259281377756903 0.0
0.004368922038679287 0.2603239684295971 0.0
0.004307813870639869 0.2613515670428225 0.0
0.00424681052562404 0.26236417402726747 0.0
0.004185920794375346 0.2633617898496886 0.0
0.004125153968293248 0.2643444150147982 0.0
0.004064519880429579 0.26531205006726066 0.0
0.004004028948902305 0.26626469559382127 0.0
0.003943692222887006 0.26720235222557825 0.0
0.0038835214314192276 0.2681250206403722 0.0
0.003823529035216011 0.2690327015652777 0.0
0.0037637282817364172 0.26992539577921804 0.0
0.0037041332637286193 0.2708031041156832 0.0
0.003644758981570941 0.27166582746552653 0.0
0.0035856214095737393 0.2725135667798228 0.0
0.003526737566666343 0.2733463230727732 0.0
0.0034681255916655827 0.2741640974246121 0.0
0.0034098048235510804 0.27496689098444665 0.0
0.0033517958870045842 0.2757547049730164 0.0
0.0032941207836635193 0.2765275406852599 0.0
0.003236802989414519 0.27728539949263026 0.0
0.003179867558152362 0.27802828284500636 0.0
0.003123341232455232 0.2787561922721071 0.0
0.003067252561585484 0.27946912938420826 0.0
0.003011632027286942 0.2801670958719587 0.0
0.002956512177826084 0.2808500935050243 0.0
0.002901927770824231 0.2815181241292849 0.0
0.0028479159252475183 0.28217118966217586 0.0
0.0027945162831202186 0.28280929208570343 0.0
0.0027417711813459444 0.2834324334366431 0.0
0.002689725834051529 0.2840406157932022 0.0
0.0026384285258194283 0.2846338412573548 0.0
0.002587930816029296 0.285212111931949 0.0
0.0025382877544212566 0.28577542989137844 0.0
0.0024895581078358112 0.2863237971445374 0.0
0.0024418045978268628 0.28685721558841615 0.0
0.0023950941484323827 0.2873756869504621 0.0
0.0023494981431080274 0.2878792127174891 0.0
0.0023050926890094523 0.28836779404853585 0.0
0.0022619588863218043 0.28884143166863335 0.0
0.0022201830989299056 0.28930012573996916 0.0
0.0021798572219838253 0.2897438757065942 0.0
0.002141078939206483 0.29017268010784975 0.0
0.0021039519623687578 0.29058653635602805 0.0
0.002068586239032235 0.29098544047184494 0.0
0.002035098117619266 0.2913693867739229 0.0
0.002003610441247104 0.2917383675128326 0.0
0.0019742525605009496 0.2920923724517158 0.0
0.001947160200185159 0.29243138837590854 0.0
0.0019224751966267037 0.2927553985569749 0.0
0.0019003449357454852 0.29306438212398905 0.0
0.0018809216432132683 0.2933583134509768 0.0
0.0018643610185472717 0.2936371613974895 0.0
0.0018508209222361147 0.29390088880375825 0.0
0.001840458437274693 0.29414945162240996 0.0
0.0018334281654526332 0.2943827991192932 0.0
0.0018298758813385509 0.2946008727700593 0.0
0.0018299384657491098 0.2948036089594656 0.0
0.001833728910977531 0.2949909364421363 0.0
0.001841347150226669 0.2951627869108679 0.0
0.0018528390577070724 0.2953190846039223 0.0
0.001868254055995987 0.2954597814880787 0.0
0.0018875152768275257 0.2955848109197673 0.0
0.0019106537381707452 0.2956942037079019 0.0
0.0019373553484658662 0.2957878961580914 0.0
0.0019678158470859282 0.29586613775716997 0.0
0.002001157180036408 0.2959287517151911 0.0
0.002038183783459245 0.29597672516846274 0.0
0.0020773884169137213 0.2960092380348789 0.0
0.0021155793564421907 0.2960291002658954 0.0
0.002112034073798653 0.29604042037456857 0.0
0.0 0.0 0.0
0.00036153427010055043 0.002386259115089933 0.0
0.0006609417109583641 0.004724850227282974 0.0
0.001099789398104465 0.0071103833328205 0.0
0.0016124901128441486 0.00957483832862659 0.0
0.002155217379997087 0.012115819426856784 0.0
0.0027031581720535066 0.014720640300882704 0.0
0.003242274819482317 0.017375384157538906 0.0
0.003764552148139117 0.02006765008309136 0.0
0.004265449787601499 0.02278710913186814 0.0
0.004742501775641624 0.025525372252350163 0.0
0.0051945161900095495 0.028275688243272985 0.0
0.00562110213130421 0.031032637767252513 0.0
0.006022381026645642 0.033791869901634485 0.0
0.006398805329870372 0.036549887557068846 0.0
0.006751041606984067 0.03930387633149126 0.0
0.007079893337158898 0.04205156886248514 0.0
0.007386248826598826 0.044791137326274794 0.0
0.00767104539437222 0.04752110799955688 0.0
0.007935244337105756 0.05024029309431599 0.0
0.00817981319258685 0.05294773614919799 0.0
0.008405713049171488 0.055642668112772305 0.0
0.008613889416117779 0.05832447190413166 0.0
0.008805265656678826 0.0609926537320492 0.0
0.008980738300800088 0.06364681982947544 0.0
0.009141173760455493 0.06628665754687504 0.0
0.009287406108076554 0.06891191996758267 0.0
0.009420235671265834 0.07152241337827152 0.0
0.00954042826069104 0.07411798705994462 0.0
0.009648714892510808 0.07669852496882672 0.0
0.009745791898312199 0.07926393895879137 0.0
0.009832321338505668 0.08181416326252997 0.0
0.009908931652158101 0.08434915000124336 0.0
0.00997621848916945 0.08686886553502732 0.0
0.010034745680721999 0.0893732875004539 0.0
0.010085046311871449 0.09186240240975382 0.0
0.01012762386653934 0.09433620370875921 0.0
0.01016295342041858 0.09679469020935776 0.0
0.010191482861640956 0.09923786482742815 0.0
0.01021363412269852 0.1016657335697035 0.0
0.010229804410168098 0.10407830472324509 0.0
0.010240367421381832 0.10647558820960193 0.0
0.010245674539376649 0.1088575950726326 0.0
0.010246055999310746 0.1112243370746222 0.0
0.01024182202110316 0.11357582637997336 0.0
0.01023326390437652 0.11591207530956056 0.0
0.010220655082884441 0.11823309615196065 0.0
0.010204252136536461 0.12053890102033546 0.0
0.010184295759896376 0.12282950174583306 0.0
0.01016101168666218 0.12510490980009806 0.0
0.010134611570148487 0.127365136240878 0.0
0.01010529382020708 0.1296101916758587 0.0
0.01007324439735328 0.1318400862407989 0.0
0.01003863756512358 0.1340548295887935 0.0
0.010001636601880063 0.13625443088811687 0.0
0.009962394473437811 0.1384388988266013 0.0
0.009921054467978524 0.14060824162091715 0.0
0.009877750794799548 0.14276246702944775 0.0
0.009832609148471786 0.14490158236773026 0.0
0.009785747240008504 0.1470255945256448 0.0
0.009737275296637189 0.14913450998570738 0.0
0.009687296531753325 0.151228334841973 0.0
0.00963590758659835 0.15330707481915945 0.0
0.009583198945174317 0.15537073529169995 0.0
0.009529255323853774 0.157419321302494 0.0
0.009474156037102223 0.15945283758120485 0.0
0.009417975340649648 0.16147128856197768 0.0
0.00936078275344035 0.16347467840049595 0.0
0.00930264335957525 0.16546301099032068 0.0
0.00924361809144212 0.1674362899784899 0.0
0.009183763995159055 0.16939451878035733 0.0
0.009123134479389183 0.17133770059366998 0.0
0.009061779548550367 0.17326583841188892 0.0
0.008999746021367189 0.1751789350367763 0.0
0.00893707773567431 0.17707699309027128 0.0
0.00887381574032554 0.1789600150256709 0.0
0.008809998475005345 0.18082800313815126 0.0
0.008745661938719661 0.182680959574656 0.0
0.008680839847660759 0.1845188863431797 0.0
0.008615563783128798 0.18634178532148302 0.0
0.00854986333014712 0.1881496582652559 0.0
0.008483766207354578 0.18994250681577862 0.0
0.008417298388744488 0.1917203325070878 0.0
0.00835048421776692 0.19348313677268825 0.0
0.008283346514302606 0.1952309209518362 0.0
0.008215906674949142 0.1969636862954071 0.0
0.008148184767080272 0.1986814339713865 0.0
0.008080199617069954 0.2003841650700041 0.0
0.00801196889307357 0.20207188060852413 0.0
0.007943509182722032 0.20374458153571512 0.0
0.007874836066086932 0.2054022687360219 0.0
0.007805964184194576 0.20704494303346244 0.0
0.007736907303439049 0.20867260519525366 0.0
0.007667678376135895 0.21028525593518643 0.0
0.007598289597509741 0.21188289591676204 0.0
0.007528752459346537 0.21346552575612507 0.0
0.007459077800553304 0.215033146024769 0.0
0.0073892758548539834 0.21658575725205298 0.0
0.007319356295812893 0.21812335992753112 0.0
0.007249328279408998 0.21964595450311356 0.0
0.007179200484321221 0.22115354139505117 0.0
0.007108981150116369 0.2226461209857722 0.0
0.007038678113519787 0.22412369362556528 0.0
0.006968298842883473 0.22558625963411766 0.0
0.0068978504710723735 0.22703381930193006 0.0
0.006827339826840439 0.2284663728915889 0.0
0.006756773464889534 0.2298839206389234 0.0
0.006686157694717977 0.2312864627540431 0.0
0.0066154986083825805 0.23267399942226577 0.0
0.006544802107313019 0.23404653080493246 0.0
0.006474073928287552 0.23540405704011172 0.0
0.006403319668680808 0.2367465782432043 0.0
0.0063325448110944545 0.23807409450745803 0.0
0.006261754747493507 0.23938660590436822 0.0
0.006190954802940043 0.24068411248399307 0.0
0.006120150259021155 0.2419666142751742 0.0
0.006049346377111255 0.24323411128564967 0.0
0.005978548421517176 0.244486603502088 0.0
0.005907761682659343 0.24572409089002772 0.0
0.005836991500356314 0.24694657339370676 0.0
0.005766243287335914 0.2481540509358146 0.0
0.005695522553055514 0.24934652341714053 0.0
0.005624834927970685 0.2505239907161173 0.0
0.005554186188319968 0.25168645268826606 0.0
0.005483582281550259 0.252833909165544 0.0
0.005413029352510096 0.2539663599555747 0.0
0.005342533770503135 0.2550838048407734 0.0
0.0052721021573463945 0.2561862435773369 0.0
0.005201741416519605 0.25727367589413286 0.0
0.005131458763570695 0.2583461014914395 0.0
0.005061261757908962 0.2594035200395538 0.0
0.004991158336078557 0.26044593117725373 0.0
0.004921156846728239 0.26147333451010313 0.0
0.004851266087381923 0.2624857296085816 0.0
0.004781495343172077 0.2634831160060315 0.0
0.00471185442776591 0.26446549319641555 0.0
0.004642353726554642 0.2654328606318569 0.0
0.00457300424240366 0.26638521771994156 0.0
0.004503817644090618 0.2673225638207805 0.0
0.004434806317668348 0.2682448982437796 0.0
0.004365983420983466 0.269152220244107 0.0
0.004297362941556179 0.27004452901881165 0.0
0.004228959758081226 0.270921823702576 0.0
0.004160789705815602 0.27178410336303016 0.0
0.004092869646099361 0.27263136699561763 0.0
0.0040252175403321135 0.27346361351791965 0.0
0.003957852528669507 0.2742808417633868 0.0
0.003890795013768489 0.2750830504744142 0.0
0.0038240667498897806 0.27587023829463186 0.0
0.003757690937704215 0.27664240376035326 0.0
0.0036916923251436315 0.2773995452910514 0.0
0.0036260973146111522 0.27814166117870004 0.0
0.0035609340769527462 0.27886874957585783 0.0
0.003496232672481718 0.2795808084822855 0.0
0.003432025179420587 0.2802778357299171 0.0
0.0033683458300580844 0.2809598289658741 0.0
0.0033052311548854743 0.281626785633326 0.0
0.003242720134987933 0.2822787029497872 0.0
0.0031808543627823154 0.2829155778825456 0.0
0.003119678211238197 0.283537407120746 0.0
0.0030592390114448286 0.28414418704366284 0.0
0.0029995872383673083 0.2847359136846071 0.0
0.0029407767042755354 0.2853125826897945 0.0
0.0028828647591718124 0.28587418927153274 0.0
0.002825912497088325 0.2864207281549148 0.0
0.002769984966686692 0.28695219351713475 0.0
0.0027151513840125937 0.2874685789185254 0.0
0.0026614853445448322 0.28796987722430656 0.0
0.002609065030707445 0.28845608051604915 0.0
0.0025579734097781193 0.288927179991813 0.0
0.002508298415943315 0.2893831658541001 0.0
0.00246013310797947 0.28982402718476963 0.0
0.0024135757926236397 0.2902497518068287 0.0
0.0023687300996258344 0.29066032613260745 0.0
0.0023257049935374342 0.29105573500084675 0.0
0.002284614699191489 0.29143596150217266 0.0
0.002245578520672894 0.2918009868030645 0.0
0.0022087205135704227 0.29215078996452964 0.0
0.0021741689916189703 0.29248534778769103 0.0
0.002142055788245064 0.2928046346626793 0.0
0.002112515288440242 0.2931086225223422 0.0
0.00208568304117237 0.29339728078670146 0.0
0.0020616941349117257 0.293670576630169 0.0
0.0020406807860974593 0.29392847508853254 0.0
0.002022769989405899 0.2941709401384949 0.0
0.0020080794033415497 0.2943979348395336 0.0
0.0019967148220979827 0.294609424531643 0.0
0.001988762733488414 0.29480537580007554 0.0
0.0019842905262185194 0.294985765595777 0.0
0.0019833305421566656 0.29515057322991795 0.0
0.0019858942625406695 0.29529980777397247 0.0
0.001991928705703429 0.2954334698298697 0.0
0.0020013846561127103 0.29555164081848834 0.0
0.0020140730717524567 0.2956543278806238 0.0
0.0020299276623043047 0.29574177519757655 0.0
0.0020485103428562945 0.295813880346376 0.0
0.002069921232474493 0.29587129808676566 0.0
0.002093371635167415 0.29591335871541197 0.0
0.0021187880471454663 0.2959415681500665 0.0
0.0021444085990289055 0.2959546430499184 0.0
0.00214088508974843 0.2959577166383824 0.0
0.0 0.0 0.0
0.0006750840476984662 0.0014560243135034563 0.0
0.0012759214296990424 0.0033947762983944996 0.0
0.0019304655790415583 0.00563273622595805 0.0
0.0026028217313304076 0.00806521005445633 0.0
0.003265064859829941 0.010629342082057073 0.0
0.003903548518244124 0.013284517213594655 0.0
0.0045120571922741375 0.01600304555522607 0.0
0.005088048167318321 0.018765333489612797 0.0
0.005630842470799895 0.021557113752324226 0.0
0.006140738980602893 0.024367764370719396 0.0
0.0066185603377511 0.027189239340093072 0.0
0.007065409276149081 0.030015362616038696 0.0
0.007482532582136163 0.03284134601113756 0.0
0.007871242775975555 0.035663450399116906 0.0
0.00823287194428251 0.03847874153022723 0.0
0.008568744091850268 0.041284910214141046 0.0
0.008880158430226564 0.0440801374137043 0.0
0.009168379273922726 0.04686299142390687 0.0
0.00943462999990605 0.049632348440811325 0.0
0.009680089551190534 0.05238733050124886 0.0
0.009905890559890055 0.05512725653155332 0.0
0.010113118521175891 0.057851603433110944 0.0
0.010302811663476618 0.06055997494874196 0.0
0.010475961291390938 0.06325207662738451 0.0
0.010633512458056368 0.06592769561307596 0.0
0.010776364873423244 0.06858668428088709 0.0
0.010905373985562052 0.07122894696085116 0.0
0.011021352191202883 0.0738544291542968 0.0
0.011125070143575645 0.07646310877077352 0.0
0.01121725813311678 0.07905498900880097 0.0
0.011298607521436419 0.08163009257748903 0.0
0.011369772212191773 0.08418845701401671 0.0
0.011431370144824992 0.08673013089786986 0.0
0.011483984798912014 0.08925517079942065 0.0
0.011528166698340439 0.09176363882994881 0.0
0.011564434905850633 0.09425560068410804 0.0
0.011593278499659418 0.09673112408528148 0.0
0.01161515802502263 0.09919027756016478 0.0
0.01163050691464554 0.10163312948194542 0.0
0.011639732872851015 0.10405974733215455 0.0
0.011643219219350291 0.10647019714009197 0.0
0.011641326189318487 0.10886454306599756 0.0
0.011634392187263913 0.11124284710015991 0.0
0.011622734992893829 0.11360516885510888 0.0
0.011606652917802314 0.11595156543214472 0.0
0.011586425912372427 0.11828209134684949 0.0
0.011562316622754937 0.12059679850102328 0.0
0.011534571398204229 0.12289573619080194 0.0
0.011503421249399638 0.12517895114261895 0.0
0.01146908275866404 0.12744648757025204 0.0
0.01143175894323613 0.1296983872474851 0.0
0.011391640072919087 0.13193468959198024 0.0
0.011348904443598293 0.13415543175683156 0.0
0.011303719108206016 0.13636064872699016 0.0
0.011256240566799454 0.13855037341833282 0.0
0.011206615417453906 0.14072463677762517 0.0
0.011154980969711629 0.14288346788202674 0.0
0.011101465822315177 0.1450268940370885 0.0
0.01104619040695564 0.14715494087246936 0.0
0.010989267499732615 0.14926763243478106 0.0
0.01093080270199277 0.15136499127716138 0.0
0.010870894892166012 0.1534470385452902 0.0
0.010809636650170571 0.1555137940596747 0.0
0.010747114655902274 0.1575652763941145 0.0
0.010683410063269953 0.15960150295032352 0.0
0.010618598851165504 0.16162249002873325 0.0
0.010552752152711713 0.16362825289553692 0.0
0.010485936564061625 0.1656188058460693 0.0
0.010418214433956009 0.16759416226464147 0.0
0.010349644135199088 0.1695543346809516 0.0
0.010280280319133164 0.17149933482320837 0.0
0.010210174154162692 0.1734291736681177 0.0
0.010139373549293621 0.17534386148787479 0.0
0.010067923363614131 0.17724340789430584 0.0
0.009995865602594788 0.17912782188032245 0.0
0.00992323960202545 0.18099711185880463 0.0
0.009850082200369219 0.1828512856990736 0.0
0.009776427900256283 0.18469035076108126 0.0
0.009702309019813775 0.18651431392744316 0.0
0.009627755834471625 0.18832318163344414 0.0
0.009552796709853885 0.1901169598951285 0.0
0.009477458226330136 0.19189565433559366 0.0
0.009401765295759158 0.19365927020959625 0.0
0.009325741270935111 0.1954078124265544 0.0
0.009249408048202405 0.1971412855720681 0.0
0.009172786163692756 0.19885969392802155 0.0
0.009095894883596484 0.20056304149137455 0.0
0.00901875228887548 0.20225133199170142 0.0
0.00894137535475275 0.20392456890756838 0.0
0.008863780025378146 0.2055827554818191 0.0
0.00878598128393822 0.20722589473582073 0.0
0.008707993218563796 0.20885398948274317 0.0
0.008629829084309038 0.21046704233992364 0.0
0.008551501361447209 0.21206505574038087 0.0
0.008473021810386028 0.21364803194350523 0.0
0.008394401523403523 0.21521597304500373 0.0
0.008315650973456655 0.21676888098611513 0.0
0.00823678006025842 0.21830675756214596 0.0
0.008157798153837655 0.21982960443037114 0.0
0.008078714135769195 0.22133742311732896 0.0
0.00799953643826485 0.22283021502552924 0.0
0.007920273081261602 0.2243079814396323 0.0
0.00784093170773274 0.22577072353209898 0.0
0.0077615196173110275 0.22721844236834593 0.0
0.007682043798417635 0.2286511389114395 0.0
0.007602510959009407 0.2300688140263252 0.0
0.0075229275561103075 0.23147146848364059 0.0
0.007443299824220088 0.23285910296310133 0.0
0.007363633802752587 0.2342317180564906 0.0
0.007283935362626519 0.23558931427026758 0.0
0.007204210232092095 0.23693189202778614 0.0
0.007124464021941527 0.23825945167115925 0.0
0.007044702250216938 0.23957199346276364 0.0
0.006964930366482782 0.24086951758638595 0.0
0.006885153775818222 0.24215202414803685 0.0
0.006805377862608268 0.24341951317639726 0.0
0.0067256080142371584 0.24467198462295275 0.0
0.006645849644809416 0.24590943836176243 0.0
0.006566108218975504 0.24713187418889376 0.0
0.006486389275991426 0.24833929182152065 0.0
0.006406698454100865 0.24953169089666283 0.0
0.0063270415153523175 0.2507090709695629 0.0
0.006247424370971447 0.2518714315117181 0.0
0.006167853107371705 0.25301877190852623 0.0
0.006088334012959567 0.2541510914565574 0.0
0.006008873605813726 0.2552683893604106 0.0
0.005929478662374995 0.2563706647291769 0.0
0.005850156247290564 0.2574579165724784 0.0
0.005770913744506069 0.2585301437960282 0.0
0.005691758889767072 0.2595873451967482 0.0
0.005612699804672547 0.26062951945739693 0.0
0.0055337450324263685 0.261656665140657 0.0
0.005454903575428834 0.2626687806826951 0.0
0.005376184934896422 0.26366586438612616 0.0
0.005297599152647622 0.26464791441236407 0.0
0.00521915685528602 0.2656149287733207 0.0
0.005140869300909869 0.2665669053224175 0.0
0.005062748428595058 0.2675038417448483 0.0
0.004984806910846607 0.26842573554703314 0.0
0.004907058209220741 0.26933258404525073 0.0
0.004829516633388611 0.2702243843533429 0.0
0.0047521974038363946 0.2711011333694443 0.0
0.004675116718510874 0.2719628277616821 0.0
0.004598291823609558 0.2728094639527305 0.0
0.004521741088873605 0.2736410381031686 0.0
0.004445484087584369 0.2744575460935404 0.0
0.004369541681637082 0.27525898350500333 0.0
0.0042939361119318665 0.2760453455984775 0.0
0.004218691094434673 0.2768166272921645 0.0
0.00414383192219631 0.27757282313733717 0.0
0.004069385573627479 0.27831392729224275 0.0
0.003995380827353232 0.2790399334939787 0.0
0.003921848383899108 0.2797508350282229 0.0
0.003848820994501936 0.2804466246966529 0.0
0.0037763335971909653 0.28112729478190646 0.0
0.003704423460402186 0.2817928370099099 0.0
0.0036331303340775135 0.28244324250947683 0.0
0.0035624966083498966 0.28307850176900967 0.0
0.003492567479608226 0.2836986045902135 0.0
0.0034233911235823653 0.28430354003876135 0.0
0.003355018874970238 0.2848932963918892 0.0
0.003287505412727206 0.2854678610829996 0.0
0.003220908949808628 0.2860272206434493 0.0
0.0031552914257485212 0.2865713606418416 0.0
0.0030907186998344223 0.28710026562141433 0.0
0.003027260741960305 0.28761391903626293 0.0
0.0029649918173319683 0.2881123031876759 0.0
0.00290399066019829 0.28859539916215077 0.0
0.0028443406303178174 0.28906318677349374 0.0
0.0027861298445212663 0.28951564451198103 0.0
0.0027294512733906226 0.28995274950497874 0.0
0.0026744027913607684 0.29037447749400974 0.0
0.002621087164862095 0.2907808028365859 0.0
0.0025696119615930455 0.2911716985399919 0.0
0.0025200893569564263 0.29154713634332113 0.0
0.00247263581604845 0.29190708685512967 0.0
0.0024273716122726417 0.2922515197816864 0.0
0.0023844201630926773 0.29258040424080173 0.0
0.002343907111643036 0.2928937092482326 0.0
0.0023059591684762852 0.2931914043052372 0.0
0.0022707025514950743 0.29347346034050326 0.0
0.0022382611925338153 0.29373985065877595 0.0
0.0022087542446346956 0.29399055272504837 0.0
0.002182293653132804 0.294225549374738 0.0
0.0021589802211994997 0.29444483235150365 0.0
0.002138901125820581 0.2946484027974964 0.0
0.0021221232207297358 0.2948362791865963 0.0
0.002108693096186996 0.29500849267274026 0.0
0.002098623019976008 0.2951651083017029 0.0
0.0020919030894115 0.2953061981172074 0.0
0.0020884624267846594 0.29543190775321737 0.0
0.002088227850047104 0.29554234430802445 0.0
0.002090995118273404 0.2956378067031606 0.0
0.0020966609940717067 0.2957183610756878 0.0
0.0021047599493119844 0.2957846606474243 0.0
0.0021153462118111673 0.29583643111373426 0.0
0.002127201293311329 0.29587520296746483 0.0
0.0021412999329635447 0.2959000681336084 0.0
0.0021533178808227113 0.295913979030159 0.0
0.002153622179734226 0.2959201343877104 0.0
0.0 0.0 0.0
0.0013324979233603484 0.001353575629150223 0.0
0.002289805224007459 0.0031673798689573107 0.0
0.003157073488098741 0.005344375842003867 0.0
0.003962837148408819 0.007753849138814878 0.0
0.004714196283132551 0.0103139413215701 0.0
0.005414466687556675 0.012974568066875945 0.0
0.006066650668278306 0.01570344532263332 0.0
0.006673683028503725 0.018478626978126873 0.0
0.007238379510761613 0.021284565667302517 0.0
0.007763386485771206 0.024109904717618202 0.0
0.008251168080877332 0.02694616017307282 0.0
0.008704010797759938 0.02978688830814264 0.0
0.009124036532242837 0.03262713536382069 0.0
0.009513217553884505 0.0354630599738961 0.0
0.009873391331750837 0.03829166608403322 0.0
0.010206273973624353 0.041110609134074334 0.0
0.010513472069991337 0.043918052368513684 0.0
0.010796492895980999 0.0467125583580371 0.0
0.011056753146986594 0.04949300584478898 0.0
0.011295586388437515 0.05225852517371068 0.0
0.011514249428175692 0.055008447615867456 0.0
0.011713927793505784 0.05774226524049911 0.0
0.011895740478642263 0.060459598909993445 0.0
0.012060744100563275 0.06316017260561713 0.0
0.012209936579363673 0.06584379273906184 0.0
0.012344260437025181 0.0685103314254831 0.0
0.012464605790385037 0.07115971292776135 0.0
0.012571813098105946 0.07379190265506613 0.0
0.01266667570844502 0.07640689822919539 0.0
0.012749942243828792 0.07900472223152454 0.0
0.012822318849621336 0.08158541632009986 0.0
0.012884471327582863 0.08414903646629276 0.0
0.01293702716915673 0.08669564910766138 0.0
0.01298057749957775 0.08922532805127215 0.0
0.01301567894068124 0.09173815199189415 0.0
0.013042855397973294 0.09423420253386007 0.0
0.013062599775859416 0.09671356262518595 0.0
0.013075375623774197 0.0991763153287194 0.0
0.013081618715173752 0.10162254286832942 0.0
0.013081738560867152 0.10405232589905919 0.0
0.013076119857901893 0.10646574295913096 0.0
0.013065123875097649 0.10886287006911893 0.0
0.013049089776313267 0.1112437804497229 0.0
0.013028335882588062 0.11360854433465492 0.0
0.01300316087439906 0.1159572288593472 0.0
0.01297384493539916 0.11828989800965066 0.0
0.012940650839109087 0.12060661261758505 0.0
0.012903824980181708 0.12290743039356361 0.0
0.012863598351921442 0.1251924059864872 0.0
0.012820187471890359 0.12746159106472316 0.0
0.012773795257444575 0.12971503441232005 0.0
0.012724611853144266 0.13195278203591373 0.0
0.01267281541198087 0.13417487727867766 0.0
0.012618572832425826 0.13638136093843425 0.0
0.012562040453242728 0.13857227138762354 0.0
0.012503364708078134 0.14074764469334625 0.0
0.012442682741728063 0.14290751473610294 0.0
0.012380122990016128 0.1450519133261654 0.0
0.012315805725143647 0.14718087031679425 0.0
0.012249843568311401 0.1492944137137339 0.0
0.012182341971376165 0.15139256978058982 0.0
0.012113399669241492 0.15347536313981644 0.0
0.012043109104605858 0.15554281686917645 0.0
0.011971556826623977 0.15759495259360112 0.0
0.011898823864996806 0.15963179057245394 0.0
0.011824986080888384 0.1616533497822577 0.0
0.011750114496064789 0.16365964799497543 0.0
0.011674275601525915 0.16565070185197064 0.0
0.011597531646847218 0.1676265269337918 0.0
0.011519940911424265 0.16958713782593648 0.0
0.011441557958704327 0.1715325481807684 0.0
0.011362433874447337 0.1734627707757582 0.0
0.01128261649000331 0.1753778175682243 0.0
0.011202150591534836 0.17727769974675525 0.0
0.011121078116057493 0.1791624277794669 0.0
0.011039438335129687 0.18103201145929246 0.0
0.010957268026951362 0.1828864599464417 0.0
0.01087460163764415 0.18472578180820418 0.0
0.010791471432340176 0.18654998505624296 0.0
0.010707907636776894 0.18835907718151895 0.0
0.01062393856998741 0.19015306518699437 0.0
0.010539590768654412 0.19193195561823728 0.0
0.01045488910367996 0.1936957545920581 0.0
0.010369856889440258 0.19544446782329336 0.0
0.010284515986254574 0.19717810064984612 0.0
0.010198886896454937 0.19889665805609283 0.0
0.010112988854525579 0.20060014469474258 0.0
0.0100268399116573 0.20228856490726488 0.0
0.009940457015130725 0.2039619227429506 0.0
0.009853856082839984 0.205620221976695 0.0
0.009767052073307955 0.20726346612558508 0.0
0.00968005905146857 0.2088916584643581 0.0
0.009592890250547497 0.2105048020397969 0.0
0.009505558130278476 0.2121028996841183 0.0
0.009418074431698639 0.21368595402743557 0.0
0.00933045022882893 0.2152539675093177 0.0
0.009242695977378538 0.21680694238952375 0.0
0.00915482156077085 0.2183448807579399 0.0
0.009066836333604625 0.2198677845437746 0.0
0.00897874916283673 0.2213756555240442 0.0
0.008890568466795003 0.222868495331394 0.0
0.008802302252215987 0.22434630546128084 0.0
0.008713958149494582 0.22580908727854723 0.0
0.008625543446242934 0.2272568420234378 0.0
0.008537065119380361 0.22868957081704194 0.0
0.00844852986583084 0.23010727466623937 0.0
0.008359944131978868 0.2315099544681221 0.0
0.008271314142062353 0.23289761101394038 0.0
0.008182645925555706 0.23427024499258936 0.0
0.008093945343706707 0.2356278569936337 0.0
0.008005218115332564 0.23697044750990323 0.0
0.007916469841990313 0.2382980169396557 0.0
0.007827706032627009 0.23961056558832597 0.0
0.00773893212782262 0.24090809366987145 0.0
0.0076501535237554034 0.24219060130770945 0.0
0.00756137559592444 0.24345808853524933 0.0
0.007472603722825056 0.24471055529603214 0.0
0.007383843309626326 0.24594800144347892 0.0
0.0072950998119483135 0.24717042674023085 0.0
0.007206378759882224 0.24837783085709136 0.0
0.007117685782340097 0.2495702133715667 0.0
0.007029026631834801 0.2507475737659853 0.0
0.006940407209762474 0.2519099114252013 0.0
0.00685183359241924 0.25305722563386546 0.0
0.00676331205774726 0.2541895155732416 0.0
0.006674849112937414 0.25530678031756676 0.0
0.0065864515231007425 0.2564090188299364 0.0
0.00649812634102678 0.2574962299576849 0.0
0.00640988093821668 0.2585684124272593 0.0
0.006321723037349763 0.25962556483853316 0.0
0.006233660746240881 0.260667685658556 0.0
0.006145702593523564 0.26169477321471885 0.0
0.006057857566163838 0.26270682568724363 0.0
0.005970135148984018 0.2637038411010539 0.0
0.005882545366358964 0.26468581731689006 0.0
0.005795098826280429 0.2656527520216973 0.0
0.00570780676695445 0.266604642718215 0.0
0.005620681106171771 0.2675414867136929 0.0
0.005533734493568348 0.26846328110770845 0.0
0.005446980366134238 0.2693700227790153 0.0
0.005360433007051552 0.27026170837135005 0.0
0.005274107608216019 0.27113833427813455 0.0
0.005188020336608228 0.2719998966259863 0.0
0.005102188404869766 0.2728463912569587 0.0
0.005016630146239307 0.27367781370940897 0.0
0.004931365094257891 0.27449415919742054 0.0
0.00484641406736821 0.2752954225886441 0.0
0.004761799258927936 0.27608159838048074 0.0
0.004677544332688628 0.2768526806744502 0.0
0.004593674524229802 0.277608663148657 0.0
0.0045102167485527875 0.2783495390281882 0.0
0.004427199714109199 0.2790753010533647 0.0
0.004344654043540036 0.2797859414456225 0.0
0.0042626124014333525 0.2804814518709715 0.0
0.004181109629192505 0.28116182340087664 0.0
0.004100182887133583 0.281827046470421 0.0
0.004019871803982488 0.2824771108336747 0.0
0.003940218633635731 0.28311200551617327 0.0
0.0038612684189704982 0.28373171876452646 0.0
0.0037830691624189724 0.28433623799311875 0.0
0.0037056720026989883 0.2849255497280966 0.0
0.003629131396695079 0.285499639548802 0.0
0.0035535053054709625 0.28605849202709055 0.0
0.0034788553824539616 0.2866020906651398 0.0
0.003405247161825701 0.2871304178325444 0.0
0.0033327502438501525 0.2876434547040555 0.0
0.0032614384736665432 0.2881411811995236 0.0
0.003191390108284925 0.28862357592847493 0.0
0.0031226879662748126 0.2890906161423162 0.0
0.003055419551392558 0.289542277698321 0.0
0.002989677142673279 0.28997853504054594 0.0
0.00292555783554657 0.29039936120506704 0.0
0.0028631635269106056 0.29080472785745853 0.0
0.0028026008132843007 0.29119460537579045 0.0
0.0027439808078340493 0.2915689629900474 0.0
0.0026874188014863057 0.291927769002866 0.0
0.0026330338370067928 0.29227099110101024 0.0
0.0025809479772219298 0.2925985968107616 0.0
0.0025312855890061306 0.2929105540821634 0.0
0.0024841719164397564 0.29320683213589793 0.0
0.002439732220020743 0.2934874024403261 0.0
0.002398088908767673 0.29375224021673685 0.0
0.002359361485242267 0.2940013258694628 0.0
0.002323659942564262 0.29423464767129104 0.0
0.002291089499345439 0.29445220332213645 0.0
0.0022617322856116687 0.2946540051076827 0.0
0.002235671988434065 0.2948400796928649 0.0
0.0022129347716596604 0.2950104797909176 0.0
0.00219358973626606 0.29516527452309044 0.0
0.002177541993037911 0.29530458191811876 0.0
0.002164914661922009 0.29542852131218855 0.0
0.0021552996606574006 0.29553731931968746 0.0
0.002149177057773163 0.2956311200095955 0.0
0.0021451786531189215 0.2957103553955874 0.0
0.002145283707219527 0.2957750420092528 0.0
0.0021449428032243156 0.29582606378084875 0.0
0.002151322934550174 0.29586284249238876 0.0
0.002150978526633312 0.295886773216314 0.0
0.00216183019408558 0.29589636600904967 0.0
0.002150354942681875 0.29589587649603477 0.0
SCALARS Stress float 6
LOOKUP_TABLE default
44.62337237975592 148.7445745991864 0.0 0.0 35.998054184051924 -2.7755575615628914e-16
88.33119978374513 184.86835335459503 0.0 0.0 50.12373507528819 16.748747650369154
121.49032186207 235.98710717546678 0.0 0.0 47.886937049807564 27.728501191586986
142.99718075600853 272.2226176962148 0.0 0.0 38.833993657713066 20.475076211870434
156.64203630305536 295.47088484805363 0.0 0.0 39.00176231130309 36.25998704950984
165.67841217088505 310.73947003526706 0.0 0.0 31.847349510132965 19.50791310047763
171.85545985939436 321.0318379938475 0.0 0.0 33.119533747804084 42.39518210821379
176.14346973667065 328.0459864681351 0.0 0.0 26.69287217296646 17.0271265978513
179.11928375993776 332.7918023475677 0.0 0.0 28.499011704460962 47.471774988934634
181.1494704213716 335.9087280884811 0.0 0.0 22.49486901792589 13.77638750659197
182.47944267983107 337.8235580812003 0.0 0.0 24.650931806177354 51.97443537083788
183.2803747345788 338.8332919364329 0.0 0.0 18.94551538840279 10.090398813166871
183.67549883142794 339.1514091776475 0.0 0.0 21.362039241016223 56.1424520200144
183.75579394172811 338.93532146190046 0.0 0.0 15.887375665678304 6.144370208499099
183.58977988397635 338.30346996832003 0.0 0.0 18.51088143817278 60.106718289772154
183.22989755195303 337.3464272677196 0.0 0.0 13.223734407201986 2.0377096161138892
182.7168003873212 336.13435433409455 0.0 0.0 16.018492653906197 63.943783786801596
182.0823300489756 334.7221602072865 0.0 0.0 10.888774158486303 -2.1699663135066007
181.3516299387081 333.1531627903583 0.0 0.0 13.829027758857217 67.70050960396937
180.54468086437365 331.461745038453 0.0 0.0 8.834361262118199 -6.4415500839602835
179.67743783100738 329.6753198991115 0.0 0.0 11.900413122979682 71.40645193220257
178.7626861692375 327.81580918644454 0.0 0.0 7.02325426554804 -10.753394880526239
177.81069563347853 325.9007733929287 0.0 0.0 10.199312902182541 75.08059212951157
176.82972663001632 323.944286241806 0.0 0.0 5.425316304376171 -15.09023010298421
175.8264262561027 321.9576193274314 0.0 0.0 8.698245481052986 78.73523170020891
174.80614105704407 319.9497833078462 0.0 0.0 4.015299750434465 -19.442141414860856
173.77316594425326 317.9279592159031 0.0 0.0 7.3738687864854775 82.37835847367934
172.73094360845482 315.8978445595297 0.0 0.0 2.771510548588793 -23.80270017627663
171.6822251269734 313.863932607811 0.0 0.0 6.2059335804772005 86.01513660647964
170.6291998783525 311.8297387845971 0.0 0.0 1.6749828332983832 -28.167769086409116
169.57360098705882 309.79798483963884 0.0 0.0 5.17662802579347 89.64886892779919
168.51679113174245 307.770749076327 0.0 0.0 0.7089541208553154 -32.53472354042147
167.45983250785324 305.7495891289029 0.0 0.0 4.270153247898865 93.28162902528149
166.40354394557713 303.73564243119733 0.0 0.0 -0.14148209779947685 -36.901937221800424
165.34854757804382 301.72970848369704 0.0 0.0 3.472434945284345 96.91468065766281
164.2953069836707 299.7323162232025 0.0 0.0 -0.8896196106278111 -41.26843970971945
163.24415835694106 297.7437791704321 0.0 0.0 2.770914609318833 100.548757482323
162.19533596949708 295.76424053261655 0.0 0.0 -1.5473219432033591 -45.633687877621554
161.14899294957465 293.7937100409343 0.0 0.0 2.1543871924726936 104.1842498575169
160.10521822083388 291.8320939822588 0.0 0.0 -2.1251692337909294 -49.99741331627527
159.0640502882648 289.8792196256728 0.0 0.0 1.612866201987071 107.82132936689705
158.02548843739257 287.9348550334233 0.0 0.0 -2.632583748921455 -54.359520817301416
156.98950181037878 285.9987250720096 0.0 0.0 1.1374656933575338 111.46003146092959
155.95603674193455 284.0705242987683 0.0 0.0 -3.0779417322630795 -58.72002121443416
154.92502266904975 282.14992728143517 0.0 0.0 0.7202936237433057 115.10030991836005
153.8963768731889 280.23659681137076 0.0 0.0 -3.4686755130380433 -63.07898732914898
152.8700082689873 278.33019039232374 0.0 0.0 0.35435383288999134 118.74207237845218
151.84582041353875 276.43036531952237 0.0 0.0 -3.811367731079077 -67.43652541100684
150.82371388171063 274.53678260947424 0.0 0.0 0.03345542020340275 122.38520320300697
149.80358812467222 272.6491099952897 0.0 0.0 -4.11183847943127 -71.79275692471747
148.78534291076858 270.7670241648907 0.0 0.0 -0.24787099303754445 126.02957790149843
147.76887942674986 268.89021238761427 0.0 0.0 -4.375225685627175 -76.14780720471128
146.754101106297 267.01837364991474 0.0 0.0 -0.4944503259089075 129.67507197692026
145.74091423856203 265.15121939786457 0.0 0.0 -4.6060588910752 -80.5017986324932
144.72922840143036 263.2884739679966 0.0 0.0 -0.7105335704404538 133.3215661162596
143.7189567538659 261.42987477209715 0.0 0.0 -4.808326578305564 -84.85484676054952
142.71001621826 259.5751722899543 0.0 0.0 -0.8998619657470073 136.96894901299666
141.70232757521993 257.7241299141574 0.0 0.0 -4.9855372519638514 -89.20705832945225
140.6958154899781 255.87652368230667 0.0 0.0 -1.0657250555500184 140.61711868191114
139.69040848738484 254.0321419256019 0.0 0.0 -5.140774552131774 -93.55853047992076
138.68603888625685 252.19078485687416 0.0 0.0 -1.2110129398165341 144.2659828357982
137.68264270450553 250.3522641169311 0.0 0.0 -5.2767467348227015 -97.90935069641323
136.68015954216358 248.51640229362954 0.0 0.0 -1.3382630836216407 147.91545869644023
135.6785324499662 246.6830324259711 0.0 0.0 -5.395830909691529 -102.2595971812561
134.67770778701663 244.8519975017306 0.0 0.0 -1.4497020844878463 151.5654724835959
133.67763507371353 243.02314995668408 0.0 0.0 -5.500112439762795 -106.6093394636772
132.67826684054432 241.19635118005215 0.0 0.0 -1.5472828104952185 155.21595873747412
131.67955847744912 239.37147103086895 0.0 0.0 -5.591419925202768 -110.95863912097694
130.68146808427724 237.54838736828123 0.0 0.0 -1.6327173320656598 158.86685957419155
129.68395632446854 235.7269855979651 0.0 0.0 -5.67135618122483 -115.30755053336316
128.68698628263087 233.90715823604455 0.0 0.0 -1.7075060460619014 162.5181239311043
127.69052332672119 232.08880449167094 0.0 0.0 -5.741325608469914 -119.65612162735212
126.69453497530247 230.27182986818968 0.0 0.0 -1.7729633863574463 166.16970684095656
125.6989907714573 228.45614578418673 0.0 0.0 -5.80255833133522 -124.0043945807328
124.7038621606652 226.64166921330485 0.0 0.0 -1.8302404750873578 169.82156875179047
123.70912237675054 224.82832234299647 0.0 0.0 -5.85613144822122 -128.35240647583902
122.71474633123597 223.01603225131052 0.0 0.0 -1.8803450546058542 173.4736749020652
121.72071051044767 221.20473060193177 0.0 0.0 -5.902987719861358 -132.7001898949247
120.72699287697336 219.3943533561916 0.0 0.0 -1.9241590010591096 177.1259947551775
119.73357277757147 217.58484050186829 0.0 0.0 -5.9439519761226265 -137.047773456664
118.74043085482197 215.77613579676932 0.0 0.0 -1.9624536947876692 180.77850149009802
117.74754896582377 213.96818652832602 0.0 0.0 -5.979745513708657 -141.3951822968344
116.75491010295696 212.16094328672148 0.0 0.0 -1.995903499019846 184.43117154840957
115.7624983223165 210.35435975221571 0.0 0.0 -6.01099871035467 -145.74243849677015
114.77029867442283 208.54839249469848 0.0 0.0 -2.025097562990126 188.08398423105186
113.77829713870084 206.74300078468121 0.0 0.0 -6.038262067151024 -150.08956146319468
112.78648056423012 204.9381464172292 0.0 0.0 -2.050550150971425 191.73692134090874
111.79483661112036 203.1337935454366 0.0 0.0 -6.062015864906847 -154.43656826324906
110.80335369712617 201.3299085233797 0.0 0.0 -2.0727096681566266 195.3899668661108
109.81202094791311 199.52645975983046 0.0 0.0 -6.082678599173931 -158.7834739221017
108.82082814834018 197.72341758043166 0.0 0.0 -2.0919665353863053 199.04310670181383
107.82976569884781 195.9207540974603 0.0 0.0 -6.100614331620321 -163.13029168622487
106.83882457243085 194.11844308715942 0.0 0.0 -2.108660054892489 202.6963284023932
105.84799627589655 192.31645987560265 0.0 0.0 -6.116139094832185 -167.47703325443635
104.8572728120952 190.5147812303692 0.0 0.0 -2.1230843777990955 206.3496209641462
103.86664664415014 188.71338525787257 0.0 0.0 -6.129526451545708 -171.8237089841818
102.87611066475418 186.9122513081374 0.0 0.0 -2.1354936789644086 210.00297463167323
101.88565816247154 185.1113598839871 0.0 0.0 -6.141012306589836 -176.17032807315664
100.89528279311179 183.3106925546443 0.0 0.0 -2.1461066338556947 213.6563807251342
99.90497855172049 181.51023187488698 0.0 0.0 -6.1507990651426 -180.5168987200601
98.91473974691601 179.7099613091602 0.0 0.0 -2.1551102649210065 217.30983148912904
97.92456097486826 177.9098651582711 0.0 0.0 -6.1590591918823705 -184.86342827126447
96.93443709577829 176.10992849044445 0.0 0.0 -2.1626632384870277 220.9633199552951
95.94436321149664 174.31013707533293 0.0 0.0 -6.1659382521069475 -189.20992334829194
94.95433464406881 172.5104773218737 0.0 0.0 -2.168898657925112 224.61683982006127
93.96434691473118 170.71093621825992 0.0 0.0 -6.17155747240222 -193.55638996575064
92.97439572446851 168.91150127475356 0.0 0.0 -2.1739264084549745 228.27038533200755
91.98447693489295 167.11216046861188 0.0 0.0 -6.176015880238047 -197.90283363608057
90.99458655031597 165.31290219122636 0.0 0.0 -2.177835092873039 231.92395119319073
90.00472069992406 163.5137151969726 0.0 0.0 -6.179392043665771 -202.24925946804103
89.01487562089622 161.7145885538181 0.0 0.0 -2.180693592726172 235.57753246242896
88.02504764117343 159.91551159506534 0.0 0.0 -6.181745459584121 -206.59567225517165
87.03523316452467 158.1164738721685 0.0 0.0 -2.1825522816706098 239.23112447047924
86.04542865336504 156.31746510861439 0.0 0.0 -6.183117600624151 -210.94207656220735
85.05563061367995 154.5184751551254 0.0 0.0 -2.183443912702913 242.88472273699858
84.06583558055802 152.71949394459477 0.0 0.0 -6.183532644113107 -215.2884768047209
83.07604009995951 150.92051144726508 0.0 0.0 -2.1833841950982986 246.53832289065696
82.08624071768376 149.12151762746345 0.0 0.0 -6.182997900043645 -219.63487732747114
81.09643396008471 147.32250239790088 0.0 0.0 -2.1823720705310308 250.19192059302193
80.10661632132111 145.52345557635954 0.0 0.0 -6.181503938577151 -223.9812824822222
79.11678424611483 143.7243668394151 0.0 0.0 -2.180389694896647 253.845511461244
78.12693411503123 141.92522567768327 0.0 0.0 -6.179024422663275 -228.3276967040235
77.13706222811724 140.1260213484896 0.0 0.0 -2.177402123080782 257.49909098952236
76.14716478743011 138.32674282847572 0.0 0.0 -6.175515644885465 -232.67412459093913
75.15723788121063 136.52737876443405 0.0 0.0 -2.1733566944208746 261.1526544681505
74.167277465733 134.72791742249575 0.0 0.0 -6.170915757501604 -237.0205709841192
73.17727934714536 132.9283466364349 0.0 0.0 -2.1681821019818415 264.80619689924123
72.18723916133628 131.12865375186436 0.0 0.0 -6.165143683737938 -241.36704105932057
71.19715235734381 129.32882557082576 0.0 0.0 -2.1617871391805465 268.4597129085809
70.2070141717889 127.52884829096182 0.0 0.0 -6.158097685463375 -245.71354041735975
69.21681961192243 125.72870744517638 0.0 0.0 -2.1540590938740536 272.1131966430609
68.22656342785365 123.92838783402567 0.0 0.0 -6.149653581913739 -250.0600751884724
67.23624009164038 122.12787345798877 0.0 0.0 -2.1448617685874467 275.766641667039
66.24584376921239 120.32714744357668 0.0 0.0 -6.1396625618008045 -254.40665214609493
65.25536829364412 118.52619196635162 0.0 0.0 -2.1340330877493017 279.42004083932477
64.26480713532044 116.7249881690706 0.0 0.0 -6.127948574978362 -258.75327883435307
63.27415337090773 114.9235160742158 0.0 0.0 -2.1213822578562684 283.07338617624515
62.283399648921 113.1217544914636 0.0 0.0 -6.114305251094663 -263.0999637121829
61.292538153400265 111.31968091816401 0.0 0.0 -2.1066864337332163 286.72666869812696
60.301560565178995 109.51727143349146 0.0 0.0 -6.098492302900951 -267.4467163230997
59.31045802103702 107.71450058647557 0.0 0.0 -2.08968683943705 290.37987825170654
58.31922106500477 105.91134127385146 0.0 0.0 -6.080231347309521 -271.79354748513936
57.327839601791155 104.10776461120437 0.0 0.0 -2.0700842888925024 294.0330032982718
56.336302842302636 102.30373979300452 0.0 0.0 -6.059201109145448 -276.1404695175271
55.34459924597289 100.49923394389423 0.0 0.0 -2.0475340436281897 297.6860306713738
54.352716456047204 98.69421195879465 0.0 0.0 -6.035031923115653 -280.4874965065361
53.36064123254337 96.88863633039117 0.0 0.0 -2.0216399521119257 301.33894528617566
52.36835937573405 95.08246696474794 0.0 0.0 -6.007299491404737 -284.83464462127614
51.37585564483198 93.27566098304308 0.0 0.0 -1.9919478102201396 304.9917297927843
50.38311366469777 91.46817250781197 0.0 0.0 -5.975517843997409 -289.1819324965342
49.39011583320283 89.65995243711558 0.0 0.0 -1.9579379100393766 308.6443641610542
48.39684320653416 87.8509481984133 0.0 0.0 -5.939131459950531 -293.5293816885525
47.4032753847088 86.04110348857222 0.0 0.0 -1.9190167491840953 312.29682517078794
46.409390380929594 84.23035799647599 0.0 0.0 -5.8975065749465045 -297.8770172303825
45.4151644797552 82.41864710882683 0.0 0.0 -1.87450793122008 315.9490858002353
44.420572080124096 80.60590159904996 0.0 0.0 -5.849921719594619 -302.2248683163844
43.42558552740294 78.7920473008055 0.0 0.0 -1.8236423967766342 319.60111447604123
42.430174926787714 76.97700476846842 0.0 0.0 -5.795557678984679 -306.5729691285793
41.43430794366284 75.16068892897596 0.0 0.0 -1.7655481957740449 323.2528741553001
40.43794958702505 73.34300872711827 0.0 0.0 -5.733487204724469 -310.9213598483629
39.44106197561392 71.52386677578022 0.0 0.0 -1.6992402812913525 326.90432121376574
38.443604092712675 69.70315901715622 0.0 0.0 -5.6626650799681215 -315.2700878790266
37.44553152384982 67.8807744123672 0.0 0.0 -1.6236110998479774 330.55540410444223
36.44679618860453 66.05659467939786 0.0 0.0 -5.581919550615069 -319.6192093059164
35.44734606678374 64.23049409896986 0.0 0.0 -1.537423263716164 334.2060617776527
34.44712493060288 62.40233943053141 0.0 0.0 -5.48994674483238 -323.9687905937805
33.44607208987886 60.571989980219904 0.0 0.0 -1.4393063424609807 337.856221877981
32.44412218153275 58.73929787953232 0.0 0.0 -5.385310612079508 -328.31891047462705
31.44120499810915 56.904108642869005 0.0 0.0 -1.3277609156259302 341.50579880615027
30.437245436689803 55.06626212680316 0.0 0.0 -5.266452264785343 -332.6696618706807
29.432163537117844 53.22559397620208 0.0 0.0 -1.201174643329992 345.15469188352665
28.42587479876626 51.381937780157315 0.0 0.0 -5.131714495904802 -337.02115349936827
27.418290619655895 49.535128033951324 0.0 0.0 -1.0578573321963916 348.8027841167036
26.40931941147438 47.68500436168498 0.0 0.0 -4.979389830574107 -341.373510421839
25.398867663614006 45.83141693029716 0.0 0.0 -0.8961050064395408 352.4499425266081
24.386842802238508 43.97423419542327 0.0 0.0 -4.807803854700509 -345.7268720951338
23.37315487470114 42.113352011213344 0.0 0.0 -0.7143067214755234 356.0960218139427
22.357723467083694 40.24870743516177 0.0 0.0 -4.61544928988009 -350.08138516801245
21.34047848815459 38.380292604093896 0.0 0.0 -0.5111120074034687 359.74087427561335
20.321377742437985 36.50817957982824 0.0 0.0 -4.4011896005860365 -354.437185709753
19.300398650015836 34.632537503706544 0.0 0.0 -0.28568039753571384 363.38437015707274
18.277587515955595 32.75368029766985 0.0 0.0 -4.164550685632491 -358.79436029244084
17.253007965782935 30.872073847964064 0.0 0.0 -0.03803612398262146 367.0264318159078
16.226894339430494 28.98844103137769 0.0 0.0 -3.906109049054365 -363.15286279497343
15.199424464443483 27.10369997516249 0.0 0.0 0.2304484835142233 370.6670732859177
14.171236762667393 25.21924285106421 0.0 0.0 -3.627949045984792 -367.5123288579962
13.142531375096183 23.33657795210123 0.0 0.0 0.5164019198687555 374.3063795420574
12.11489959927701 21.45820404470655 0.0 0.0 -3.3340609878001857 -371.87161708537013
11.087918932923388 19.58611719435245 0.0 0.0 0.8134851549138915 377.9441317938592
10.065788707901298 17.724842975808485 0.0 0.0 -3.0302612875807426 -376.2275048090899
9.044667054851908 15.875739574966701 0.0 0.0 1.1104438612715057 381.5779418514764
8.037003057629597 14.047970999605317 0.0 0.0 -2.72226728764133 -380.5704683905547
7.024803289752473 12.237375861075346 0.0 0.0 1.3855521939237718 385.19573933211996
6.049052873097826 10.466519660522392 0.0 0.0 -2.4072199934079777 -384.86987403871177
5.0381460982087525 8.707543816159736 0.0 0.0 1.5879223585813662 388.7478230044666
4.133861182207385 7.0255776212259065 0.0 0.0 -2.0440955959533085 -389.0215149130008
3.073447053725072 5.312058275417272 0.0 0.0 1.576857833006045 392.04959465843007
2.3260698838124356 3.7332927396977595 0.0 0.0 -1.4950680623120718 -392.68455231641786
1.0843763001033764 2.0014887234516285 0.0 0.0 1.0371368388827165 394.55733514379244
0.6177635805776139 0.640493059899663 0.0 0.0 -0.6795789142043986 -395.0924066589222
-0.19565631239642314 -0.10764819597694752 0.0 0.0 -791.0553700914713 395.081694118869
48.00080153472828 160.00267178242763 0.0 0.0 -33.004290765479624 2.0539125955565396e-15
82.63267669856594 194.5286179016966 0.0 0.0 -6.276861407677842 5.136416402543173
113.59589725423592 242.91436477348768 0.0 0.0 -9.816701132024079 2.376471702110047
133.5039654723476 273.572877421876 0.0 0.0 -5.891118196605275 0.572100906213955
146.93160848409912 293.9097753296184 0.0 0.0 -9.8793192420592 -0.31248869882944197
156.33415379809205 307.86560407787925 0.0 0.0 -5.718562307287197 -0.7366972541603344
163.06402744697536 317.60438187594286 0.0 0.0 -9.457608084073177 -0.9375399561596485
167.93586851931803 324.42157434176494 0.0 0.0 -5.1388468116988 -1.0257215358373895
171.47175270187557 329.14493565201695 0.0 0.0 -8.791047815775794 -1.054522011654326
174.0216552630474 332.3280406221199 0.0 0.0 -4.431523385194223 -1.0508602074290183
175.82857314740414 334.3548513217299 0.0 0.0 -8.070784471359872 -1.0290645458863912
177.0662318092186 335.49978179886347 0.0 0.0 -3.7151273911678304 -0.9970993825640864
177.8618865081873 335.9638994957683 0.0 0.0 -7.368379504198517 -0.9595585287563142
178.31066415597195 335.89758839264704 0.0 0.0 -3.032823795249546 -0.9191684393551294
178.48487734387936 335.41523915036674 0.0 0.0 -6.709793557364978 -0.8775857278340138
178.4402641111244 334.6050699779629 0.0 0.0 -2.400006778258085 -0.8358346205836708
178.2202792974841 333.53587795714736 0.0 0.0 -6.103785520968915 -0.7945567536697666
177.859120031338 332.26179649231227 0.0 0.0 -1.8211876155905298 -0.7541569615859998
177.38390433440634 330.8257226508054 0.0 0.0 -5.552094909082578 -0.7148907868208552
176.81627077458631 329.26183509506217 0.0 0.0 -1.2962693575825668 -0.6769177733062209
176.17357280805916 327.5974763755112 0.0 0.0 -5.053391437653964 -0.6403345828206533
175.4697840122729 325.85458179314736 0.0 0.0 -0.82308590634835 -0.6051958089999029
174.71619306684218 324.0507787761749 0.0 0.0 -4.604939938495599 -0.5715272834817133
173.92194336443833 322.2002427199946 0.0 0.0 -0.3985159914581402 -0.5393346953310303
173.09445599744404 320.31437001318443 0.0 0.0 -4.203361183769411 -0.5086092865446687
172.2397640373138 318.402311883823 0.0 0.0 -0.01901434810525693 -0.4793316949973965
171.36277850457898 316.4714009378521 0.0 0.0 -3.8450113535119974 -0.45147462291048246
170.4675011846678 314.52749402379334 0.0 0.0 0.3191106730223705 -0.42500475020581674
169.55719569583744 312.57524920294645 0.0 0.0 -3.526189908764435 -0.3998841586507691
168.6345255109805 310.618350376719 0.0 0.0 0.6195380633015954 -0.3760714320923244
167.70166564593524 308.6596900278896 0.0 0.0 -3.2432635101743763 -0.3535225368854844
166.7603932476258 306.70151823351574 0.0 0.0 0.88583627232045 -0.33219154713061405
165.81216119845604 304.74556437712084 0.0 0.0 -2.9927439736302537 -0.312031255245123
164.85815800004988 302.7931366688138 0.0 0.0 1.1214009953830892 -0.2929936929053758
163.89935654055333 300.8452035647654 0.0 0.0 -2.771337681502974 -0.2750305788892282
162.9365538350886 298.9024603836392 0.0 0.0 1.3294164226117253 -0.25809370381676455
161.97040342334705 296.9653837924559 0.0 0.0 -2.5759752957732003 -0.24213526004221553
161.00144178716704 295.0342763378592 0.0 0.0 1.512833280344454 -0.22710812142458803
160.03010989314123 293.10930280006636 0.0 0.0 -2.403827019494673 -0.2129660784346319
159.05677075959827 291.1905198263834 0.0 0.0 1.6743593634686906 -0.1996640322396397
158.08172377936293 289.2779000402601 0.0 0.0 -2.2523070633420463 -0.1871581517779406
157.10521639586906 287.3713516101243 0.0 0.0 1.8164593639428208 -0.17540599767588372
156.1274536194485 285.47073408853663 0.0 0.0 -2.11907015662314 -0.16436661621555615
155.14860578180827 283.57587118952654 0.0 0.0 1.941361444578936 -0.15400060716332664
154.16881485348983 281.6865610548031 0.0 0.0 -2.002002409221709 -0.14427016841754536
153.1881995895727 279.8025844635198 0.0 0.0 2.05106847568587 -0.13513912063218925
152.20685972080807 277.9237113599296 0.0 0.0 -1.899208393335206 -0.12657291479458088
151.2248793665209 276.0497060074283 0.0 0.0 2.1473722631970276 -0.1185386251554501
150.24232981431263 274.1803310239643 0.0 0.0 -1.8089959326309355 -0.11100493002229683
149.25927178372888 272.3153505075526 0.0 0.0 2.231869456766729 -0.1039420826939148
148.2757572709093 270.4545324245777 0.0 0.0 -1.7298597437125647 -0.09732187406896387
147.29183105156727 268.5976504019465 0.0 0.0 2.305978146224488 -0.09111758919094459
146.30753190664322 266.74448503945507 0.0 0.0 -1.660464781116131 -0.08530395864060658
145.32289362273372 264.89482483752806 0.0 0.0 2.3709544263226334 -0.07985710645091881
144.33794580907875 263.0484668180591 0.0 0.0 -1.5996298888642322 -0.07475449549474433
143.35271456571294 261.2052169018309 0.0 0.0 2.4279084266305304 -0.06997487122520685
142.3672230308632 259.3648900944282 0.0 0.0 -1.5463121674130438 -0.0654982046845003
141.38149183017285 257.52731052284423 0.0 0.0 2.477819483823218 -0.06130563549882684
140.39553944575397 255.69231135659814 0.0 0.0 -1.4995923113254523 -0.0573794149598541
139.40938252115495 253.85973464185642 0.0 0.0 2.5215502608926705 -0.053702850269948144
138.42303611294528 252.02943106964602 0.0 0.0 -1.458661057315199 -0.050260249857117856
137.43651389982227 250.2012596968059 0.0 0.0 2.5598597181786396 -0.047036870149092636
136.44982835657845 248.37508763419686 0.0 0.0 -1.4228067990301927 -0.044018863954002896
135.4629908999137 246.55078971285576 0.0 0.0 2.593414911280213 -0.04119323090000648
134.47601201075662 244.72824813745407 0.0 0.0 -1.3914043710707098 -0.0385477694289893
133.4889013378354 242.90735213411912 0.0 0.0 2.6228016363298394 -0.03607103132750744
132.5016677856411 241.08799759815085 0.0 0.0 -1.3639049610716363 -0.03375227751844356
131.51431958957647 239.27008674550717 0.0 0.0 2.6485339765430567 -0.03158143682706438
130.52686438053567 237.45352777136648 0.0 0.0 -1.3398270872697076 -0.029549065918216044
129.53930924106666 235.63823451860023 0.0 0.0 2.671062818883918 -0.027646311917791877
128.55166075408613 233.8241261569991 0.0 0.0 -1.3187485658456382 -0.025864876466949127
127.56392504572048 232.0111268746537 0.0 0.0 2.690783424176068 -0.024196981951355667
126.57610782270947 230.19916558284825 0.0 0.0 -1.3002993844372526 -0.022635339680453725
125.58821440663908 228.38817563424146 0.0 0.0 2.7080421311367964 -0.021173119324908285
124.60024976319332 226.57809455431428 0.0 0.0 -1.2841553979478775 -0.019803920850273826
123.61221852984953 224.76886378692473 0.0 0.0 2.7231422806645433 -0.018521747355590534
122.62412503933353 222.9604284524684 0.0 0.0 -1.270032765869729 -0.01732097972575275
121.6359733422365 221.15273711964468 0.0 0.0 2.7363494372913806 -0.016196353028123056
120.64776722701052 219.34574158960055 0.0 0.0 -1.257683051964488 -0.015142933819864979
119.6595102385841 217.53939669254441 0.0 0.0 2.7478959844530166 -0.01415609927150463
118.6712056947921 215.73366009537577 0.0 0.0 -1.2468889166629182 -0.01323151721139304
117.68285670259132 213.9284921209434 0.0 0.0 2.757985161924907 -0.012365127410285837
116.69446617151101 212.12385557752367 0.0 0.0 -1.2374603350025168 -0.011553124202647425
115.70603682806826 210.31971559919796 0.0 0.0 2.7667946088084925 -0.010791939885908874
114.71757122737604 208.5160394946428 0.0 0.0 -1.229231279992291 -0.010078229512737735
113.7290717648959 206.71279660571136 0.0 0.0 2.774479465910151 -0.009408855946782424
112.74054068748205 204.9099581745939 0.0 0.0 -1.222056818241935 -0.008780876595460896
111.75198010266136 203.1074972180081 0.0 0.0 2.781175092329274 -0.008191530302399386
110.76339198847873 201.30538840983013 0.0 0.0 -1.2158105716631447 -0.007638225717188973
109.77477820230467 199.503607970565 0.0 0.0 2.7869994383435 -0.007118529223559378
108.7861404887436 197.70213356344235 0.0 0.0 -1.2103825006764701 -0.0066301553138625735
107.79748048776705 195.90094419690297 0.0 0.0 2.792055116443297 -0.006170955828105562
106.8087997412351 194.10002013210413 0.0 0.0 -1.2056769703729664 -0.005738910720898716
105.8200997002682 192.2993427966249 0.0 0.0 2.7964312032352225 -0.005332119345091257
104.83138173116755 190.49889470305996 0.0 0.0 -1.2016110708743284 -0.0049487919762487564
103.84264712126065 188.69865937207695 0.0 0.0 2.800204807185569 -0.004587242182990892
102.85389708580578 186.8986212605081 0.0 0.0 -1.1981131582403854 -0.004245879173712552
101.86513277174275 185.0987656926245 0.0 0.0 2.803442421522483 -0.003923200981581942
100.87635526344374 183.29907879583487 0.0 0.0 -1.1951215944754061 -0.003617787728344979
99.88756558720229 181.49954743931326 0.0 0.0 2.8062010987261026 -0.003328295480429233
98.89876471641573 179.7001591766799 0.0 0.0 -1.1925836639275076 -0.00305345031073756
97.90995357490085 177.90090219154308 0.0 0.0 2.808529451790715 -0.0027920428918850604
96.92113304144152 176.10176524490163 0.0 0.0 -1.1904546418322184 -0.0025429227437125945
95.93230395354351 174.30273762573935 0.0 0.0 2.81046851226316 -0.002304993461621052
94.94346711121023 172.503809104236 0.0 0.0 -1.1886970104567212 -0.002077208275494513
93.95462328026878 170.7049698866025 0.0 0.0 2.812052450448757 -0.0018585645741850954
92.96577319589227 168.90621057213792 0.0 0.0 -1.1872797953710439 -0.0016481001605264112
91.97691756570195 167.1075221116001 0.0 0.0 2.813309179754455 -0.0014448886802131966
90.98805707284431 165.30889576720804 0.0 0.0 -1.1861780223616627 -0.0012480359321642709
89.99919237905647 163.51032307444308 0.0 0.0 2.814260846185867 -0.0010566754903660325
89.0103241276042 161.71179580496198 0.0 0.0 -1.1853722746345419 -0.0008699652285315551
88.02145294585284 159.91330593003988 0.0 0.0 2.8149242207692495 -0.00068708330811873
87.03257944836447 158.11484558512817 0.0 0.0 -1.1848483543261743 -0.0005072248124520229
86.04370423912741 156.31640703492468 0.0 0.0 2.8153109924567516 -0.0003295981842796891
85.05482791415828 154.51798263950798 0.0 0.0 -1.1845970294063086 -0.00015342146092223174
84.0659510649645 152.71956482125103 0.0 0.0 2.8154279755820326 2.2080541583591184e-05
83.077074279494 150.9211460304681 0.0 0.0 -1.1846138726559623 0.00019768047342694217
82.08819814644546 149.12271871251772 0.0 0.0 2.8152772297085704 0.0003741511807415776
81.09932325617571 147.3242752738815 0.0 0.0 -1.184899184620889 0.0005522696414068662
80.11045020417599 145.52580804873134 0.0 0.0 2.8148560951085173 0.0007328196909064388
79.12157959297457 143.7273092652676 0.0 0.0 -1.1854579962903102 0.0009165962731110255
78.13271203519784 141.92877101114402 0.0 0.0 2.814157145719527 0.001104408241996424
77.14384815536857 140.13018519767465 0.0 0.0 -1.1863001617285605 0.0012970825226226168
76.15498859265244 138.331543524119 0.0 0.0 2.8131680575359184 0.0014954670915017232
75.16613400352402 136.5328374410354 0.0 0.0 -1.1874405278570705 0.0017004355763354795
74.17728506398204 134.7340581113712 0.0 0.0 2.8118713916358047 0.0019128903535516883
73.18844247188642 132.93519637049155 0.0 0.0 -1.1888992012357278 0.002133766562199213
72.19960694933378 131.13624268579701 0.0 0.0 2.81024428911045 0.002364036732497965
71.21077924644807 129.33718711375076 0.0 0.0 -1.1907018984023594 0.0026047144981120596
70.22196014150617 127.53801925305021 0.0 0.0 2.8082580613571864 0.0028568596234990196
69.23315044529868 125.73872819888666 0.0 0.0 -1.19288040129112 0.0031215818976306764
68.24435100139179 123.93930249252486 0.0 0.0 2.8058776931333185 0.0034000466806389795
67.25556269010447 122.13973006854867 0.0 0.0 -1.1954731155833613 0.0036934796446672635
66.26678642888652 120.33999819851931 0.0 0.0 2.8030612203653575 0.0040031721558086986
65.27802317442324 118.54009343184421 0.0 0.0 -1.198525747055335 0.004330487072625289
64.28927392404736 116.74000153295836 0.0 0.0 2.7997589946633923 0.0046768640986663
63.300539716599104 114.93970741426664 0.0 0.0 -1.2020921018817106 0.005043826817967556
62.3118216319984 113.1391950631663 0.0 0.0 2.7959128153266164 0.005432988474279199
61.32312079097365 111.33844746553847 0.0 0.0 -1.206235029450454 0.0058460591296771725
60.33443835399807 109.53744652427703 0.0 0.0 2.791454912330366 0.0062848534776911436
59.345775519094005 107.73617296955058 0.0 0.0 -1.2110275174775182 0.006751297070536566
58.3571335158762 105.93460626300623 0.0 0.0 2.7863067665463817 0.007247435685464154
57.36851360179589 104.132724496175 0.0 0.0 -1.2165539522524824 0.007775442964085499
56.379917053234315 102.330504279113 0.0 0.0 2.7803777591102303 0.008337629449439277
55.391345155095514 100.52792061986055 0.0 0.0 -1.222911572484172 0.008936451312774096
54.402799186481595 98.7249467955956 0.0 0.0 2.7735636228876217 0.009574520712874346
53.414280403231835 96.92155421192723 0.0 0.0 -1.2302121112457698 0.010254614185328137
52.42579001501018 95.11771225040374 0.0 0.0 2.765744689261467 0.010979684607956841
51.437329157412286 93.31338810432727 0.0 0.0 -1.2385836657720475 0.011752869793479448
50.4488988542117 91.50854659859995 0.0 0.0 2.756783918040327 0.01257750399350499
49.46049997669013 89.70314999692937 0.0 0.0 -1.248172770019707 0.013457127963665272
48.47213318571525 87.89715778852656 0.0 0.0 2.7465247044722645 0.014395498537304263
47.48379886734138 86.09052646055639 0.0 0.0 -1.259146695143869 0.01539659992877418
46.495497051785335 84.28320925116239 0.0 0.0 2.734788482446831 0.016464651052057633
45.50722731471248 82.47515588087902 0.0 0.0 -1.27169594498028 0.017604115047866742
44.51898865736092 80.66631226262206 0.0 0.0 2.721372155934965 0.01881970404355826
43.53077936376259 78.85662019047095 0.0 0.0 -1.2860368801276891 0.020116384384728292
42.54259682731897 77.04601700598968 0.0 0.0 2.7060454294980403 0.02149937788158951
41.55443734488567 75.2344352433516 0.0 0.0 -1.3024143881993524 0.022974157700605957
40.56629586949867 73.42180225226699 0.0 0.0 2.6885481903507156 0.024546442287650905
39.57816571608164 71.60803980305734 0.0 0.0 -1.3211043981783348 0.026222178327184764
38.59003821357812 69.7930636810822 0.0 0.0 2.6685881701449503 0.028007519347760024
37.60190229349464 67.97678327161083 0.0 0.0 -1.3424159398038071 0.029908790146674136
36.61374400380712 66.1591011489559 0.0 0.0 2.645839293939794 0.031932438888404135
35.62554594178974 64.33991268653244 0.0 0.0 -1.3666922357506976 0.03408497127633581
34.63728659133308 62.51910570391948 0.0 0.0 2.6199413304391044 0.036372864717382214
33.6489395524641 60.69656018362361 0.0 0.0 -1.3943100592910866 0.03880245101911939
32.66047265776616 58.87214809564274 0.0 0.0 2.5905018399196464 0.04137977123803083
31.671846954653603 57.04573338104883 0.0 0.0 -1.4256761210548206 0.044110385876752645
30.68301556242855 55.217172164117 0.0 0.0 2.5571018880904433 0.046999137207087927
29.693922373981408 53.38631328987499 0.0 0.0 -1.461218689204017 0.050049845337760246
28.70450065853278 51.55299930194201 0.0 0.0 2.519307744068904 0.05326494577985841
27.71467148167489 49.71706802726379 0.0 0.0 -1.5013717701632459 0.05664500453863042
26.72434216818951 47.87835495149314 0.0 0.0 2.476691705756778 0.06018819950234544
25.733404500471647 46.036696688405726 0.0 0.0 -1.5465480954959077 0.06388954397055713
24.741733454344793 44.19193579416755 0.0 0.0 2.4288663934240162 0.0677402317970035
23.749185269968393 42.34392749985621 0.0 0.0 -1.5970958331451044 0.07172632105473298
22.755597660477598 40.49254858187347 0.0 0.0 2.3755379725806733 0.07582821817304719
21.760787515050463 38.63770958168982 0.0 0.0 -1.6532326289473787 0.08001810968400136
20.764556028465503 36.77937003036057 0.0 0.0 2.316584232583132 0.08426081865997403
19.766683609633994 34.91755969704538 0.0 0.0 -1.714949663496327 0.08850759231033933
18.766950301661982 33.052402768475176 0.0 0.0 2.2521612727615477 0.09270307753603291
17.76511551043207 31.184153881590525 0.0 0.0 -1.7818779822278827 0.09676678320516885
16.7609870527426 29.31323191560489 0.0 0.0 2.182833255686006 0.10062367962203567
15.754333215545731 27.44028128963802 0.0 0.0 -1.8531064543141724 0.10414112675020348
14.745114001942301 25.56620534101293 0.0 0.0 2.1096912964653143 0.10724700911870144
13.733119906362138 23.69227772926645 0.0 0.0 -1.926917052442981 0.10970226473562761
12.718768685324822 21.8201243707584 0.0 0.0 2.0343454025365943 0.11154009953206412
11.701695455257731 19.951964395270462 0.0 0.0 -2.000282033010876 0.11222926229497432
10.683584089320973 18.0903474536124 0.0 0.0 1.958416353881674 0.11229073900825881
9.662840699606694 16.238824789031344 0.0 0.0 -2.067470744192555 0.11020777759640765
8.64488106524445 14.400773864139655 0.0 0.0 1.8812522449908968 0.10837034226575781
7.622372927799022 12.581659379128403 0.0 0.0 -2.115292206316802 0.10168367948064727
6.613023259798966 10.784745364725506 0.0 0.0 1.791313719697797 0.09941992949865508
5.586905423728114 9.018768843767786 0.0 0.0 -2.1060634923155703 0.08344399673181613
4.60481833021418 7.2849474044659015 0.0 0.0 1.636694828269306 0.08780333858772948
3.5534879890157876 5.5931624010987075 0.0 0.0 -1.9197139734012225 0.04870706861676766
2.641030530349111 3.9741601541871274 0.0 0.0 1.2559321016660263 0.07920483491983887
1.523519700008751 2.395859045333521 0.0 0.0 -1.2634998983286323 -0.007032125013132884
0.809377677896085 1.2461260083343306 0.0 0.0 0.5461879481295924 0.022430174396692593
0.4630846687382038 0.754461155280957 0.0 0.0 791.108538945728 -0.695175243087288
78.66788290636845 262.2262763545615 0.0 0.0 -47.31536446826392 1.1102230246251565e-16
91.64649146256194 263.7364587783583 0.0 0.0 -3.5525281920547167 7.585910580993585
102.78592185602814 267.041987421793 0.0 0.0 2.0932020430698413 4.171189031504769
115.0397436922893 277.01132815555513 0.0 0.0 -0.6898160857550275 1.8684340062958207
126.16620095862474 288.1216649719614 0.0 0.0 3.76072861282015 0.5517296655788173
135.4159018577903 297.9148691543604 0.0 0.0 -0.15565564348493321 -0.19737207233292842
142.84394220053386 305.8314191799799 0.0 0.0 3.775622454960967 -0.6261455659034356
148.73008554988238 311.96951476246835 0.0 0.0 -0.351109758733958 -0.8702995867915411
153.36980700556478 316.59719080643515 0.0 0.0 3.50460158467669 -1.0049683553490278
157.01633706704328 319.99100957247515 0.0 0.0 -0.6402992088349966 -1.073060655527216
159.87284410434256 322.39080879198036 0.0 0.0 3.2212150217057416 -1.0997546313113835
162.09873665834135 323.9928967339737 0.0 0.0 -0.9082618472119949 -1.100268516037103
163.81843097898167 324.9546122039537 0.0 0.0 2.9719384432151514 -1.084042719712247
165.1292108061648 325.40125272559726 0.0 0.0 -1.1383888083656497 -1.0570856882491584
166.10750758537978 325.4325737620606 0.0 0.0 2.76019748887356 -1.02330830673052
166.8137173422127 325.12818046770286 0.0 0.0 -1.3329916611175612 -0.985311111523187
167.2958477928587 324.5518040718101 0.0 0.0 2.58133860182903 -0.9448556970920323
167.5922764678184 323.7546397892048 0.0 0.0 -1.4974864667147965 -0.903155697430817
167.73384596698423 322.7779421878852 0.0 0.0 2.4299100588987956 -0.8610589199128015
167.74546647424913 321.65504742047074 0.0 0.0 -1.6370380668533568 -0.81916419779939
167.6473508451113 320.41295617284703 0.0 0.0 2.3011591809894965 -0.777897385912776
167.45597372456834 319.0735798608654 0.0 0.0 -1.7559558751032012 -0.7375618443909078
167.18482164848015 317.6547274554789 0.0 0.0 2.191206525725269 -0.6983724740746358
166.84498339066363 316.17089128173535 0.0 0.0 -1.8577214915309122 -0.6604791339394653
166.44561714164183 314.6338758813616 0.0 0.0 2.0969297331557346 -0.6239830341660759
165.99432194284972 313.0533034860039 0.0 0.0 -1.9451369382204997 -0.5889484576097539
165.49743414945718 311.4370218126427 0.0 0.0 2.0158106347113556 -0.5554113086959072
164.9602648109126 309.7914340595229 0.0 0.0 -2.0204694926589557 -0.523385485318582
164.38729023929574 308.12176659785456 0.0 0.0 1.9458036276640538 -0.4928677249681579
163.78230532075693 306.4322865370159 0.0 0.0 -2.085568706387598 -0.4638413640957264
163.14854706859128 304.7264788043108 0.0 0.0 1.8852328486953578 -0.436279304945705
162.48879434005403 303.0071904232786 0.0 0.0 -2.1419562346540073 -0.4101463923387678
161.80544841957095 301.2767481494709 0.0 0.0 1.8327138795570175 -0.385401339866311
161.10059821903914 299.53705442501825 0.0 0.0 -2.1908940621960826 -0.361998304925633
160.37607309688337 297.78966566422616 0.0 0.0 1.7870942303819586 -0.3398881833123517
159.6334857042793 296.0358561254624 0.0 0.0 -2.2334365186976894 -0.31901967660232344
158.87426679462146 294.2766700175572 0.0 0.0 1.7474077775164165 -0.2993401716405808
158.0996935546623 292.51296399884546 0.0 0.0 -2.270470285578913 -0.2807964637925693
157.31091271230247 290.74544183002604 0.0 0.0 1.7128395463596409 -0.2633353482536118
156.50895943250057 288.974682619731 0.0 0.0 -2.3027454749412355 -0.24690410002411056
155.69477281609045 287.20116383896885 0.0 0.0 1.6826982173481113 -0.23145085928134712
154.86920865800846 285.4252800660754 0.0 0.0 -2.3309000100793984 -0.2169249363553014
154.03304999346156 283.6473582484404 0.0 0.0 1.6563944555492647 -0.2032770487182609
153.18701585734317 281.8676701237251 0.0 0.0 -2.3554789300052663 -0.19045950011996737
152.33176859920303 280.0864423262601 0.0 0.0 1.6334236762560614 -0.1784263112666924
151.46792002872502 278.303864607699 0.0 0.0 -2.376949810422306 -0.16713330971655438
150.5960366125483 276.52009652236256 0.0 0.0 1.613352217228421 -0.1565381857294268
149.71664390028442 274.73527286362656 0.0 0.0 -2.395715188076913 -0.1466005200411633
148.83023032158948 272.94950808453837 0.0 0.0 1.5958061514176904 -0.1372817886591351
147.93725046920386 271.16289989295547 0.0 0.0 -2.412122655441422 -0.12854534877500257
147.03812795917005 269.37553217576743 0.0 0.0 1.5804621594976496 -0.12035640989739882
146.133257942365 267.5874773788044 0.0 0.0 -2.4264731297175253 -0.11268199282379499
145.22300932625043 265.79879844476284 0.0 0.0 1.5670400235796258 -0.10549087997542017
144.3077267545647 264.0095503925182 0.0 0.0 -2.4390276815527088 -0.09875355825762355
143.38773238328733 262.219781605701 0.0 0.0 1.55529640394683 -0.09244215752533336
142.4633274838888 260.42953488555514 0.0 0.0 -2.450013215744004 -0.08653038501189414
141.53479389890234 258.6388483124333 0.0 0.0 1.5450196429293293 -0.08099345838305361
140.60239537002937 256.8477559522118 0.0 0.0 -2.459627232386161 -0.07580803692593818
139.6663787558435 255.0562884372298 0.0 0.0 1.5360253956400136 -0.07095215367838481
138.72697515226156 253.26447344522262 0.0 0.0 -2.468041843518078 -0.06640514684100296
137.7844009272009 251.47233609541624 0.0 0.0 1.5281529328198076 -0.062147593346804975
136.8388586788112 249.6798992773073 0.0 0.0 -2.4754071806687197 -0.058161243408022756
135.8905381251475 247.88718392509335 0.0 0.0 1.5212619954848705 -0.054428957124095234
134.93961693176624 246.09420924758746 0.0 0.0 -2.481854302207731 -0.05093464305842765
133.98626148296836 244.30099292168893 0.0 0.0 1.5152301040256688 -0.047663199461371875
133.03062760125195 242.50755125625733 0.0 0.0 -2.487497684495377 -0.04460045714871619
132.07286121994846 240.7138993322056 0.0 0.0 1.509950250413187 -0.04173312591469003
131.11309901164435 238.92005112230103 0.0 0.0 -2.492437365047145 -0.039048742468935416
130.15146897648 237.1260195944264 0.0 0.0 1.5053289059267279 -0.03653562126206644
129.1880909929509 235.33181680167579 0.0 0.0 -2.4967607924549142 -0.034182808026157474
128.223077333725 233.53745396122807 0.0 0.0 1.5012843024295144 -0.0319800351946693
127.25653314910114 231.74294152356663 0.0 0.0 -2.500544426796985 -0.029917680209216257
126.28855691998153 229.94828923375835 0.0 0.0 1.4977449407311063 -0.027986725609192575
125.31924088254651 228.1535061865098 0.0 0.0 -2.5038551286945143 -0.02617872180677061
124.34867142647052 226.358600875385 0.0 0.0 1.4946482978877498 -0.02448575168789624
123.37692946828645 224.5635812372364 0.0 0.0 -2.506751365192681 -0.022900397046116794
122.40409080127355 222.76845469231583 0.0 0.0 1.4919397014899225 -0.021415707702605147
121.43022642393574 220.97322818122268 0.0 0.0 -2.5092842588460478 -0.020025171364595806
120.45540284778487 219.1779081982652 0.0 0.0 1.4895713500602064 -0.018722686339147643
119.4796823860321 217.3825008221402 0.0 0.0 -2.511498502167587 -0.017502535171921352
118.50312342441717 215.5870117446334 0.0 0.0 1.4875014608135793 -0.01635935996542237
117.52578067530459 213.7914462966994 0.0 0.0 -2.5134331538131143 -0.015288139445303273
116.54770541571028 211.99580947280546 0.0 0.0 1.4856935256530939 -0.014284167237804013
115.56894571100932 210.20010595336714 0.0 0.0 -2.5151223336576862 -0.013343031453855403
114.58954662429178 208.4043401257545 0.0 0.0 1.4841156629738066 -0.01246059534578059
113.60955041350688 206.60851610407798 0.0 0.0 -2.516595826715271 -0.011632979802017829
112.62899671584648 204.8126377472549 0.0 0.0 1.4827400525408194 -0.010856546065250328
111.64792272101262 203.0167086759525 0.0 0.0 -2.517879611119973 -0.010127879777485305
110.66636333398282 201.22073228853353 0.0 0.0 1.4815424420543977 -0.009443776550183358
109.68435132787953 199.42471177627965 0.0 0.0 -2.5189963189829925 -0.008801227612320162
108.70191748747048 197.62865013708426 0.0 0.0 1.480501720228542 -0.008197406365358262
107.71909074393852 195.83255018849175 0.0 0.0 -2.51996563554653 -0.0076296569372225065
106.73589830185823 194.03641458046792 0.0 0.0 1.4795995422204697 -0.007095481429926664
105.7523657586026 192.24024580682905 0.0 0.0 -2.520804645720215 -0.006592530001006125
104.768517216239 190.44404621577468 0.0 0.0 1.4788200063704302 -0.006118589528069762
103.78437538773542 188.64781802052147 0.0 0.0 -2.521528138791581 -0.0056715749915756675
102.79996169654137 186.85156330895717 0.0 0.0 1.4781493725732773 -0.005249519373114353
101.81529637068282 185.05528405277215 0.0 0.0 -2.522148865598492 -0.0048505654444515045
100.83039853150044 183.25898211591377 0.0 0.0 1.4775758206366376 -0.004472957969371194
99.84528627765667 181.4626592627773 0.0 0.0 -2.5226777665975035 -0.0041150351560279574
98.85997676501829 179.6663171659929 0.0 0.0 1.4770892423329478 -0.00377522181076273
97.87448628145387 177.86995741361156 0.0 0.0 -2.523124163845086 -0.0034520226729402026
96.88883031929619 176.07358151656217 0.0 0.0 1.4766810619800061 -0.003144015493614205
95.90302364227237 174.27719091444695 0.0 0.0 -2.5234959244034414 -0.002849844830208781
94.91708035142311 172.4807869822709 0.0 0.0 1.4763440855436833 -0.0025682157865638544
93.93101394671307 170.6843710367762 0.0 0.0 -2.523799600093792 -0.0022978893017224777
92.94483738657439 168.88794434186164 0.0 0.0 1.4760723743196493 -0.002037675442288389
91.95856314456397 167.0915081136027 0.0 0.0 -2.524040543542398 -0.0017864292355476152
90.9722032644413 165.29506352657845 0.0 0.0 1.475861139350556 -0.001543044744858335
89.98576941350633 163.49861171876046 0.0 0.0 -2.5242230008094957 -0.0013064508241740214
88.9992729330409 161.7021537955835 0.0 0.0 1.475706657362558 -0.0010756062047594384
88.01272488918474 159.90569083585694 0.0 0.0 -2.524350187231242 -0.0008494949454060929
87.02613612056079 158.10922389574887 0.0 0.0 1.475606206394474 -0.0006271219094848846
86.03951728693134 156.31275401396817 0.0 0.0 -2.5244243451500026 -0.0004075081326213592
85.05287891553918 154.5162822160732 0.0 0.0 1.4755580152419583 -0.00018968715406764147
84.0662314471278 152.7198095177949 0.0 0.0 -2.5244467812735714 2.729994852757045e-05
83.07958528245052 150.9233369308219 0.0 0.0 1.47556123409138 0.000244408052999745
82.09295082770528 149.12686546724404 0.0 0.0 -2.5244178917071665 0.0004625929841886034
81.10633854014824 147.33039614262776 0.0 0.0 1.475615920155768 0.000682815083923316
80.1197589740235 145.53392998093997 0.0 0.0 -2.524337168735279 0.0009060439835550937
79.1332228269188 143.73746801897738 0.0 0.0 1.475723035719163 0.0011332622350721522
78.14674098645916 141.94101130997433 0.0 0.0 -2.524203189511745 0.001365470131087676
77.16032457813068 140.14456092829104 0.0 0.0 1.4758844682728167 0.0016036900090767858
76.17398501405701 138.34811797393226 0.0 0.0 -2.524013594657255 0.0018489708619675582
75.18773404252778 136.55168357644098 0.0 0.0 1.4761030604486294 0.0021023923251668464
74.20158379953583 134.75525889938177 0.0 0.0 -2.5237650431448557 0.0023650705214492973
73.21554686134037 132.95884514457018 0.0 0.0 1.476382663201619 0.002638162267999178
72.22963629917402 131.16244355589737 0.0 0.0 -2.523453158702729 0.0029228698315613144
71.24386573542793 129.36605542367775 0.0 0.0 1.4767282028601798 0.0032204470971990418
70.25824940345325 127.56968208973382 0.0 0.0 -2.523072445381814 0.0035322046110977112
69.27280220775175 125.77332495059585 0.0 0.0 1.4771457646530166 0.003859515446695383
68.28753978820296 123.97698546130937 0.0 0.0 -2.5226161987522318 0.004203820969518546
67.30247858652405 122.1806651393934 0.0 0.0 1.4776427043627507 0.004566637744325419
66.31763591551886 120.38436556764943 0.0 0.0 -2.5220763815041707 0.004949563425100223
65.33303003235714 118.58808839780214 0.0 0.0 1.4782277747966646 0.0053542845691332275
64.34868021449982 116.79183535220383 0.0 0.0 -2.521443486012906 0.005782583357426319
63.364606838756615 114.99560822482043 0.0 0.0 1.4789112805543851 0.006236345635247886
62.38083146492112 113.19940888312775 0.0 0.0 -2.520706363477615 0.0067175690772671715
61.39737692252366 111.40323926683742 0.0 0.0 1.4797052616698139 0.007228372072312084
60.41426740110887 109.60710138533227 0.0 0.0 -2.5198520305205605 0.0077710020526708945
59.431528544083356 107.81099731376898 0.0 0.0 1.4806237057392124 0.008347845730778403
58.44918754717039 106.0149291862699 0.0 0.0 -2.518865435793181 0.008961439664201265
57.4672732588789 104.21889918688518 0.0 0.0 1.4816827937283747 0.009614480029700445
56.48581628451173 102.42290953594787 0.0 0.0 -2.5177291933486217 0.010309833885084885
55.50484909245313 100.6269624710272 0.0 0.0 1.482901193037769 0.011050551823082344
54.52440612287352 98.83106022464375 0.0 0.0 -2.516423272782319 0.011839879033111345
53.544523896239156 97.03520499327136 0.0 0.0 1.48430038835793 0.01268126925968005
52.56524112194488 95.23939889832921 0.0 0.0 -2.514924635420954 0.013578398065902775
51.58659880482918 93.44364393772493 0.0 0.0 1.4859050758072385 0.014535175251214838
50.6086403471235 91.64794192432255 0.0 0.0 -2.5132068182544884 0.015555761663680556
49.6314116431685 89.85229440982246 0.0 0.0 1.4877436134526008 0.01664458013064163
48.65496116446379 88.05670258948747 0.0 0.0 -2.5112394354953054 0.017806333444461586
47.679340029580004 86.2611671883832 0.0 0.0 1.4898485499117413 0.019046016660983156
46.70460205441955 84.46568832034808 0.0 0.0 -2.5089876113490703 0.020368931935490053
45.73080377487887 82.67026531370455 0.0 0.0 1.4922572615542862 0.0217807015050262
44.758004435571415 80.87489650357952 0.0 0.0 -2.506411292733631 0.02328728015553594
43.786265933345206 79.07957897829442 0.0 0.0 1.495012682947987 0.024894964924357055
42.8156527036558 77.28430827500148 0.0 0.0 -2.5034644358873948 0.02661040347093646
41.846231534886876 75.48907801200006 0.0 0.0 1.4981642102331705 0.028440597237533893
40.87807129147613 73.69387944776167 0.0 0.0 -2.500094023109014 0.030392900420970648
39.91124252584453 71.89870095588803 0.0 0.0 1.5017687846106114 0.032475014435021876
38.94581694869206 70.10352739620537 0.0 0.0 -2.496238852329931 0.03469496981089648
37.98186672974086 68.3083393699418 0.0 0.0 1.5058922468574352 0.03706110041149557
37.0194635871846 66.513112336515 0.0 0.0 -2.491828022964839 0.03958200282377433
36.05867762038103 64.71781557043066 0.0 0.0 1.5106110352119728 0.0422664770058816
35.099575832001186 62.92241093440409 0.0 0.0 -2.4867790139343313 0.04512344491889664
34.142220272862744 61.12685144441286 0.0 0.0 1.5160143700023383 0.04816183985727562
33.186665737218114 59.331079601289304 0.0 0.0 -2.4809951947956677 0.051390458964743146
32.2329569171679 57.53502545449105 0.0 0.0 1.5222071056101854 0.054817775019333936
31.281124915304808 55.73860438105133 0.0 0.0 -2.4743625471815847 0.05845168049582128
30.33118300681985 53.94171455328921 0.0 0.0 1.5293134951265444 0.06229918635000686
29.38312151440561 52.14423409324546 0.0 0.0 -2.4667453134767356 0.06636598512693226
28.43690167390747 50.346017895883826 0.0 0.0 1.5374822033537825 0.07065600656173388
27.492448323390143 48.54689419921851 0.0 0.0 -2.4579801902808356 0.07517065971516601
26.549641328526857 46.74666087777987 0.0 0.0 1.5468929345208977 0.07990827000476486
25.608305514327544 44.945081765985584 0.0 0.0 -2.447868641306151 0.08486266201663639
24.668199237984556 43.14188288985744 0.0 0.0 1.5577650010995825 0.09002281074754848
23.729001170024038 41.33674958259343 0.0 0.0 -2.436166891160198 0.095369760663079
22.790296204017054 39.529323768364755 0.0 0.0 1.5703677364246573 0.10087801581176237
21.851559225933514 37.71920449951165 0.0 0.0 -2.422573340193871 0.10650747605955502
20.91214030656787 35.90594829244471 0.0 0.0 1.5850313003284313 0.11221258585186433
19.971246510589214 34.08907934463372 0.0 0.0 -2.4067131420567236 0.11791749098415849
19.02793283223458 32.268094941931324 0.0 0.0 1.6021522759829168 0.12355561161999873
18.081083170439268 30.44250036879393 0.0 0.0 -2.388118138287716 0.12898498195585262
17.129424903076547 28.611815023152346 0.0 0.0 1.6221764507595324 0.13414209398974464
16.17150251790291 26.77567041502768 0.0 0.0 -2.3661893871829633 0.13873885432142075
15.205764308641893 24.933777321835002 0.0 0.0 1.6455044401865422 0.14283922954981065
14.23047784320421 23.086196561968613 0.0 0.0 -2.340077514492947 0.145751946253462
13.24402865794179 21.233080092022906 0.0 0.0 1.672148215288182 0.1481638447914655
12.244537821762876 19.37547025951896 0.0 0.0 -2.3081996284887154 0.14806334924705666
11.23082394819518 17.514077185579225 0.0 0.0 1.7005662296015913 0.14859849507076106
10.200774657599942 15.651884626287494 0.0 0.0 -2.2662771624483042 0.14304084006355566
9.154599002939857 13.78928224156466 0.0 0.0 1.7236558212669664 0.143688876940125
8.0885166920024 11.933273964910105 0.0 0.0 -2.1997923222674345 0.12649604356408517
7.006514425175769 10.079577617803277 0.0 0.0 1.7143099416013996 0.1371122813865533
5.897193289905469 8.245302448917686 0.0 0.0 -2.0571116984539515 0.08878415668537443
4.776814648416255 6.406962848698371 0.0 0.0 1.57318459060199 0.1449308634200186
3.6038337312950235 4.594653285849448 0.0 0.0 -1.6600548842089253 0.011729494471584445
2.4363218877460735 2.7951132918072297 0.0 0.0 1.0221166994403603 0.17460139057176605
1.3029565193984725 1.1983113709041777 0.0 0.0 -0.762305636080157 -0.17161898391012187
1.2438574731742618 0.6805160872876523 0.0 0.0 -791.594139962261 -1.1327443850836474
87.99433808264584 293.31446027548617 0.0 0.0 -58.28130538477109 4.996003610813204e-16
93.90199261900457 292.00183778400446 0.0 0.0 -2.1170274504276927 4.046148919362091
97.27689336667257 288.09498265987327 0.0 0.0 -5.661721743641728 3.7134905006510226
103.6764916475862 288.3294043868071 0.0 0.0 -1.1466964517088183 2.5326833965058966
111.3988334056019 291.8915594729433 0.0 0.0 -4.584472923656188 1.490604303924996
119.01786831627025 296.6460694437519 0.0 0.0 -0.14508696266112864 0.7170104244480001
125.91494478835715 301.40416743141043 0.0 0.0 -3.829000601134102 0.17603930368962994
131.90594278895077 305.63959357569274 0.0 0.0 0.39574777217453416 -0.19195962653476772
137.00117629691798 309.1726615647873 0.0 0.0 -3.4411504519060383 -0.4380154057113108
141.28644922054428 311.98769531998835 0.0 0.0 0.6814009099624352 -0.5994360124989875
144.8685538469632 314.13912393291946 0.0 0.0 -3.2228013994243936 -0.7022188943845249
147.85200068429023 315.7058697672018 0.0 0.0 0.8551052659999208 -0.7641724435601789
150.330249806625 316.7702449664027 0.0 0.0 -3.0792197626773365 -0.7975100050098103
152.3834254589705 317.4088885253626 0.0 0.0 0.977878625329307 -0.8106662150473876
154.07875910323847 317.6894758207919 0.0 0.0 -2.9712215719210535 -0.8095355840497684
155.4720418405675 317.67010718426286 0.0 0.0 1.0750483962589774 -0.7982891631160116
156.60932228249678 317.3998686950602 0.0 0.0 -2.882267277394157 -0.7799184112261739
157.52853039931696 316.9198386168464 0.0 0.0 1.1575350083562652 -0.7565956066084821
158.2609108182093 316.2641980684023 0.0 0.0 -2.8050660915330985 -0.7299166375864541
158.83223932698695 315.4612927490029 0.0 0.0 1.230259219433064 -0.7010654181503078
159.26383390633984 314.5345846695632 0.0 0.0 -2.736258657655123 -0.6709271499368832
159.5733851408106 313.50347672161536 0.0 0.0 1.2955443740817003 -0.6401671450687811
159.77563363083564 312.3840131774273 0.0 0.0 -2.6742117944666814 -0.6092866199835996
159.88292037125495 311.1894676373769 0.0 0.0 1.354563434483687 -0.5786627082574909
159.90563282909855 309.93083268921686 0.0 0.0 -2.618058501998554 -0.5485776390779895
159.85256594067374 308.61722557817154 0.0 0.0 1.4079814693938921 -0.5192403232352087
159.7312139740694 307.2562230603881 0.0 0.0 -2.567265295622754 -0.49080257622237955
159.54800635201406 305.85413705588473 0.0 0.0 1.4562478588856482 -0.4633714813098102
159.30849812542093 304.4162410998747 0.0 0.0 -2.5214350622494917 -0.43701894115385453
159.017523796598 302.94695607194456 0.0 0.0 1.4997285117483994 -0.4117891438359158
158.67932155553268 301.45000232658765 0.0 0.0 -2.480219474768447 -0.3877044606489415
158.29763365698085 299.92852417116626 0.0 0.0 1.5387626593000334 -0.3647701443788325
157.8757875772883 298.3851916320935 0.0 0.0 -2.443283439543179 -0.34297809788147404
157.41676170380325 296.8222836001505 0.0 0.0 1.5736838185309256 -0.32230991159369093
156.923238589547 295.2417557330787 0.0 0.0 -2.4102940532558748 -0.3027393200872579
156.397648220194 293.6452958982783 0.0 0.0 1.6048242082925555 -0.28423419149608176
155.84220326553123 292.0343694432899 0.0 0.0 -2.380920487520405 -0.2667581392050664
155.25892790210867 290.41025617117043 0.0 0.0 1.632512204420852 -0.2502718250271734
154.64968148187623 288.7740805582498 0.0 0.0 -2.354838043739906 -0.23473401028268537
154.01617806910372 287.1268364715256 0.0 0.0 1.6570675716259071 -0.22010239916784302
153.36000266438745 285.4694074124486 0.0 0.0 -2.3317330941012067 -0.2063343115735341
152.68262477013303 283.80258312417004 0.0 0.0 1.6787967063997709 -0.19338721503579892
151.9854098199582 282.12707324365664 0.0 0.0 -2.3113074290655957 -0.1812191408124555
151.269628888401 280.44351855300044 0.0 0.0 1.6979888277786035 -0.16978900464863056
150.53646701238415 278.75250028027796 0.0 0.0 -2.293281467424457 -0.15905684912071827
149.7870303879811 277.05454781515726 0.0 0.0 1.7149133828783398 -0.14898402205581274
149.02235265195065 275.3501451355679 0.0 0.0 -2.277396251053445 -0.13953330257064067
148.24340041413666 273.6397361852314 0.0 0.0 1.7298186158343682 -0.13066898481896505
147.4510781729073 271.9237293964954 0.0 0.0 -2.263414360398956 -0.12235692754641647
146.6462327183767 270.2025015154199 0.0 0.0 1.742931111878029 -0.11456457619964766
145.82965710668512 268.47640085612863 0.0 0.0 -2.2511199670598767 -0.10726096343908154
145.00209427187127 266.7457500873984 0.0 0.0 1.7544560925344825 -0.10041669258814334
144.16424032818483 265.0108486342057 0.0 0.0 -2.240318245589121 -0.09400390766063893
143.31674760524706 263.2719747619214 0.0 0.0 1.7645782469886946 -0.08799625392287513
142.4602274507142 261.5293873974254 0.0 0.0 -2.230834345338705 -0.08236883029623421
141.59525282729484 259.7833277306943 0.0 0.0 1.7734629158441564 -0.07709813726302261
140.72236072752966 258.0340206331401 0.0 0.0 -2.2225120851811013 -0.07216202053611731
139.84205442436073 256.28167592129637 0.0 0.0 1.7812574844075755 -0.06753961295896538
138.9548055732945 254.52648948971134 0.0 0.0 -2.215212502302828 -0.06321127499683143
138.06105617901272 252.76864433224767 0.0 0.0 1.78809287102019 -0.05915853561039519
137.1612204374498 251.00831146747754 0.0 0.0 -2.2088123449387584 -0.05536403247653965
136.255686462976 249.2456507810356 0.0 0.0 1.794085035015211 -0.05181145480618099
135.34481790893787 247.4808117956398 0.0 0.0 -2.203202578843378 -0.048485485919457005
134.4289554889242 245.7139343777818 0.0 0.0 1.7993364453553404 -0.04537174905867136
133.5084184051362 243.9451493880728 0.0 0.0 -2.198286950581405 -0.04245675386036396
132.58350569032135 242.17457928191908 0.0 0.0 1.8039374780685833 -0.03972784585753786
131.65449746798942 240.40233866556324 0.0 0.0 -2.193980635731055 -0.03717315757707418
130.72165613620035 238.62853481119146 0.0 0.0 1.807967719173412 -0.03478156224372597
129.78522747974492 236.85326813604718 0.0 0.0 -2.190208987306475 -0.032542629262028555
128.8454417146449 235.07663264839425 0.0 0.0 1.8114971622812597 -0.03044658250980703
127.90251446909285 233.2987163626443 0.0 0.0 -2.1869063917071045 -0.028484260381977933
126.95664770447428 231.51960168683195 0.0 0.0 1.8145872999767505 -0.02664707798932575
126.00803058056194 229.7393657843935 0.0 0.0 -2.1840152323118502 -0.02492699168235646
125.05684026714982 227.95808091201334 0.0 0.0 1.8172921057045954 -0.023316465269326514
124.1032427062936 226.17581473588012 0.0 0.0 -2.181484957671735 -0.02180843846823599
123.14739332760213 224.3926306270873 0.0 0.0 1.8196589174606537 -0.020396296758393717
122.18943771957544 222.60858793841152 0.0 0.0 -2.1792712483914123 -0.01907384343318519
121.22951225934739 220.82374226337342 0.0 0.0 1.8217292211723901 -0.017835273203791857
120.26774470364226 219.03814567830275 0.0 0.0 -2.177335276813718 -0.01667514691287053
119.30425474318291 217.25184696987515 0.0 0.0 1.8235393499622958 -0.015588368571016531
118.33915452300654 215.4648918482437 0.0 0.0 -2.1756430496283024 -0.014570162911349271
117.37254913025102 213.67732314608583 0.0 0.0 1.8251211014168476 -0.01361605521704945
116.40453705200149 211.88918100563214 0.0 0.0 -2.1741648292476405 -0.01272185151310623
115.43521060471876 210.10050305420918 0.0 0.0 1.8265022819894554 -0.01188362043297353
114.46465633731322 208.31132456868397 0.0 0.0 -2.172874621215602 -0.011097676264363088
113.49295540902682 206.5216786294414 0.0 0.0 1.8277071861866219 -0.010360562638521031
112.52018394458254 204.73159626528948 0.0 0.0 -2.171749726095193 -0.00966903762282989
111.54641336696862 202.9411065890315 0.0 0.0 1.828757016907332 -0.009020059658856994
110.57171071021197 201.15023692474276 0.0 0.0 -2.1707703449492115 -0.008410773799649718
109.59613891300293 199.35901292752504 0.0 0.0 1.8296702540481675 -0.007838499780335795
108.61975709465139 197.56745869634997 0.0 0.0 -2.1699192348844853 -0.007300719849428816
107.64262081422876 195.7755968794547 0.0 0.0 1.8304629793264944 -0.006795067818694989
106.66478231427087 193.98344877312582 0.0 0.0 -2.169181408110269 -0.006319319040729354
105.68629075003756 192.19103441553372 0.0 0.0 1.8311491527836417 -0.005871379910216135
104.70719240534842 190.3983726747751 0.0 0.0 -2.1685438691111507 -0.005449279905882065
103.72753089581458 188.6054813312856 0.0 0.0 1.8317408617699016 -0.005051160892936224
102.74734736015816 186.81237715603135 0.0 0.0 -2.167995387219527 -0.004675271618102883
101.76668064137266 185.01907598440764 0.0 0.0 1.8322485298912028 -0.0043199576120045435
100.7855674572225 183.22559278547203 0.0 0.0 -2.1675262998169984 -0.003983655308607226
99.80404256146637 181.43194172782222 0.0 0.0 1.8326811009006327 -0.0036648848924176747
98.82213889678015 179.63813624197155 0.0 0.0 -2.167128341715113 -0.0033622433093825066
97.83988773969556 177.8441890792071 0.0 0.0 1.8330461967078513 -0.003074398799066458
96.85731883797258 176.05011236713054 0.0 0.0 -2.166794501882819 -0.0028000846004996305
95.87446054123765 174.25591766387913 0.0 0.0 1.8333502504931616 -0.002538093421840415
94.891339926122 172.46161600890179 0.0 0.0 -2.1665188969687783 -0.00228727224251557
93.90798291502064 170.66721797057488 0.0 0.0 1.8335986196222436 -0.0020465171671020244
92.92441439019858 168.87273369350132 0.0 0.0 -2.166296671169466 -0.0018147688703997744
91.94065830322964 167.07817294271157 0.0 0.0 1.8337956805243039 -0.0015910070365947604
90.9567377805246 165.28354514683713 0.0 0.0 -2.1661239087372017 -0.0013742470998820977
89.97267522490323 163.4888594395414 0.0 0.0 1.8339449054648718 -0.001163534971434288
88.98849241413593 161.6941246993348 0.0 0.0 -2.1659975651580083 -0.0009579432269646304
88.00421059676111 159.89934958891953 0.0 0.0 1.8340489238260176 -0.0007565671464497825
87.01985058570847 158.10454259362436 0.0 0.0 -2.1659154144600983 -0.0005585201477842361
86.03543284990761 156.30971205814222 0.0 0.0 1.8341095685197288 -0.0003629306399854926
85.05097760396129 154.51486622311506 0.0 0.0 -2.165876009072786 -0.00016893791092442711
84.06650489738598 152.72001326147785 0.0 0.0 1.8341279071170078 2.4312326605269163e-05
83.08203470273277 150.9251613144409 0.0 0.0 -2.1658786556550425 0.00021767056169608168
82.09758700347189 149.13031852740787 0.0 0.0 1.8341042621718913 0.00041198788863994196
81.11318188169315 147.33549308535703 0.0 0.0 -2.165923402336553 0.0006081197367642233
80.12883960654688 145.54069324885444 0.0 0.0 1.8340382165313116 0.0008069296387880343
79.1445807231195 143.74592738986286 0.0 0.0 -2.166011038054478 0.00100929295781782
78.16042614261558 141.95120402881344 0.0 0.0 1.8339286045909446 0.0012161007752702346
77.17639723467589 140.15653187161863 0.0 0.0 -2.1661431095042545 0.0014282634817917028
76.19251592034877 138.3619198469488 0.0 0.0 1.833773493214757 0.0016467156006108041
75.20880476865628 136.56737714611634 0.0 0.0 -2.166321945012406 0.001872419108391199
74.22528709573103 134.77291326257208 0.0 0.0 1.833570145570981 0.0021063684186728437
73.24198706612387 132.97853803234665 0.0 0.0 -2.1665506988572716 0.002349593724712662
72.25892979851564 131.18426167660803 0.0 0.0 1.8333149779764355 0.002603166837712223
71.27614147584877 129.39009484571466 0.0 0.0 -2.166833404813083 0.002868205115220235
70.29364945879227 127.59604866473487 0.0 0.0 1.8330034901779584 0.0031458764590936994
69.31148240459582 125.80213478067171 0.0 0.0 -2.1671750465291097 0.003437404727780091
68.32967039184415 124.008365411229 0.0 0.0 1.832630191128743 0.003744075666375579
67.348245049426 122.2147533956544 0.0 0.0 -2.1675816464053383 0.004067240917606796
66.36723969327771 120.42131224850598 0.0 0.0 1.8321885026809 0.004408326293170006
65.3866894691287 118.6280562144514 0.0 0.0 -2.1680603685014432 0.004768836047134073
64.40663150191234 116.83500032613703 0.0 0.0 1.8316706432567003 0.005150361266718306
63.427105053530006 115.04216046413995 0.0 0.0 -2.16861964237345 0.005554585509184307
62.448151688082284 113.2495534198399 0.0 0.0 1.8310674975440406 0.005983293765638109
61.469815445347656 111.45719695952673 0.0 0.0 -2.169269308528044 0.006438378880119444
60.49214302286491 109.66510989067746 0.0 0.0 1.8303684591091027 0.006921851270472956
59.515183966639086 107.87331213104542 0.0 0.0 -2.1700207850362787 0.007435846987650763
58.53899087227592 106.08182478047307 0.0 0.0 1.8295612547550704 0.007982637895473488
57.563619593061986 104.2906701919215 0.0 0.0 -2.1708872502709724 0.008564641142854157
56.58912945850349 102.49987204332895 0.0 0.0 1.8286317425274348 0.00918443041387107
55.61558350072875 100.70945541180275 0.0 0.0 -2.17188386327809 0.009844746883366895
54.643048690315325 98.91944684608885 0.0 0.0 1.8275636926802008 0.010548511399139926
53.67159617811613 97.12987443662995 0.0 0.0 -2.173027987460472 0.011298838170915815
52.701301543666375 95.34076788283413 0.0 0.0 1.8263385411329338 0.012099046382594736
51.732245048023366 93.55215855456947 0.0 0.0 -2.1743394501613693 0.012952676219651238
50.76451188872493 91.7640795464975 0.0 0.0 1.8249351361605264 0.013863503696466495
49.7981924530212 89.97656572221793 0.0 0.0 -2.1758407987459094 0.014835555842022785
48.83338256685262 88.18965374333446 0.0 0.0 1.8233294686210328 0.01587312792473483
47.87018373207758 86.40338207958763 0.0 0.0 -2.177557559435776 0.01698080149758141
46.90870334842019 84.61779099740905 0.0 0.0 1.8214944319462774 0.018163460233278528
45.94905490812185 82.83292251433042 0.0 0.0 -2.179518472188164 0.019426311718213185
44.991358154982876 81.04882031478895 0.0 0.0 1.8193996145097273 0.020774903805701683
44.03573919434443 79.26552961825868 0.0 0.0 -2.1817556510991594 0.022215145076941667
43.082330536667655 77.48309698486716 0.0 0.0 1.8170111907461077 0.023753323726207753
42.13127105354091 75.70157004338289 0.0 0.0 -2.1843046171199987 0.02539612526583568
41.182705823274375 73.92099712651395 0.0 0.0 1.814291991310462 0.027150650600191284
40.23678583235465 72.14142679020499 0.0 0.0 -2.187204097505557 0.029024430055727635
39.293667496182124 70.36290719101856 0.0 0.0 1.811201874603242 0.03102543699400684
38.35351195062246 68.58548529096538 0.0 0.0 -2.190495436085115 0.03316209372728807
37.41648405957384 66.80920585153002 0.0 0.0 1.8076985986311485 0.03544327476512876
36.482751067827095 65.03411017593432 0.0 0.0 -2.1942213633420877 0.0378782977434895
35.552480815821426 63.26023454452837 0.0 0.0 1.8037394858106168 0.04047690752441824
34.62583941444953 61.48760828180117 0.0 0.0 -2.1984237813503498 0.04324923908538736
33.702988260934184 59.71625138576096 0.0 0.0 1.799284342421963 0.04620576643725727
32.78408024732989 57.94617163473177 0.0 0.0 -2.2031399881669316 0.049357215473193605
31.86925499198999 56.177361072653106 0.0 0.0 1.7943002752791273 0.05271445789611562
30.958632887065583 54.40979176804862 0.0 0.0 -2.2083965570236117 0.05628832546971907
30.05230772589342 52.64341071488235 0.0 0.0 1.7887693951037988 0.06008942996637856
29.150337632617493 50.878133763004364 0.0 0.0 -2.214199706811236 0.06412777567750894
28.252733978485214 49.11383839411714 0.0 0.0 1.782700756801738 0.06841252158520206
27.359447919816006 47.35035527160981 0.0 0.0 -2.2205205241081742 0.07295112688301941
26.470354196718958 45.58745830909029 0.0 0.0 1.776148411030995 0.07774926569221208
25.58523172592333 43.82485340734125 0.0 0.0 -2.227272829616922 0.08280872484694868
24.703740688265388 42.06216536028562 0.0 0.0 1.7692379280353379 0.08812849372281306
23.825395544374032 40.29892392624238 0.0 0.0 -2.2342808215835888 0.0936988540033532
22.949534128947505 38.534547642066684 0.0 0.0 1.7622039544253667 0.09950783306051747
22.075282030141963 36.76832930818036 0.0 0.0 -2.241232983116653 0.10552257751275107
21.20151409538935 34.99941790283784 0.0 0.0 1.755440306449863 0.11171726339486199
20.326811218778456 33.22681100484064 0.0 0.0 -2.2476180434930697 0.11800979081575136
19.4494198270259 31.449337194984626 0.0 0.0 1.7495589026515574 0.12437150238908856
18.567207028440674 29.66567788608712 0.0 0.0 -2.2526366634497847 0.13060265691784778
17.677636938733787 27.874348464903157 0.0 0.0 1.7454356604961063 0.13674790683615967
16.777737807284932 26.073813352317273 0.0 0.0 -2.255071164864269 0.14228262338079745
15.864145185747647 24.262427162212468 0.0 0.0 1.7441625043429312 0.14766100012925065
14.933093515830071 22.43882562822191 0.0 0.0 -2.253037993433118 0.1513369175100827
13.980644088816033 20.601601319051717 0.0 0.0 1.7466370595032643 0.15549067487360446
13.002637667668195 18.750520163868398 0.0 0.0 -2.243278853330196 0.15506973679143243
11.99537201316283 16.88492739939461 0.0 0.0 1.751930998412405 0.15889944109599696
10.95504261635387 15.007623778808028 0.0 0.0 -2.2184633514292216 0.14929635733407665
9.879562080943916 13.11813054288758 0.0 0.0 1.751660235180104 0.15969639791666168
8.76560784537584 11.226384819168256 0.0 0.0 -2.156081873933431 0.126063036692468
7.614549735246187 9.327142777687985 0.0 0.0 1.7096385083084442 0.17072310732089235
6.422787800304983 7.4562069063753995 0.0 0.0 -1.9738995724809953 0.06306466058653726
5.207454256461418 5.586552261965606 0.0 0.0 1.4609874503700055 0.22828356034433384
3.962607249137519 3.807537046657505 0.0 0.0 -1.3572747952486424 -0.0698128891504517
2.8590072392453942 2.4168191564403534 0.0 0.0 0.6594637280726943 0.16518192740067406
2.82770504722699 1.9803223815502582 0.0 0.0 792.432499806847 -2.165756762148739
95.26622572513165 317.55408575043873 0.0 0.0 -57.90952179758442 -1.1579279202145187e-15
96.64043398770718 313.29693389334795 0.0 0.0 -5.1445373281698235 2.796230281071506
97.22311850791455 305.5392906312843 0.0 0.0 -0.8050329370286491 2.6834732879384653
99.86015618665968 301.069777171437 0.0 0.0 -4.46191873433514 2.2317173897280966
104.10985627891499 299.3875430835086 0.0 0.0 -0.15133040912295836 1.6376110033471374
109.19564718584185 299.658048150187 0.0 0.0 -3.8542777841031706 1.0702340766030523
114.48503498779682 301.0081345911366 0.0 0.0 0.4006052769454218 0.594674688075368
119.58967642502652 302.8065771626301 0.0 0.0 -3.393038467476104 0.22147101331940933
124.31068892174545 304.6660097196264 0.0 0.0 0.7694508013133019 -0.06025104846376961
128.56855936704588 306.37395429350613 0.0 0.0 -3.103516661985032 -0.26728111588240644
132.35112304493478 307.82826605684085 0.0 0.0 0.9962677332378291 -0.415834730686655
135.6807316244687 308.9914021576617 0.0 0.0 -2.924422278161437 -0.5195684713883
138.59513726757103 309.86141906191835 0.0 0.0 1.1396340264854699 -0.5892986030143921
141.13697307592028 310.45457346132156 0.0 0.0 -2.807676873678852 -0.6333668317952945
143.34829582047368 310.79526799408814 0.0 0.0 1.236499126164909 -0.6581266217784778
145.26799761377998 310.91044020946873 0.0 0.0 -2.7257572553613594 -0.6684023065810458
146.93079248398527 310.82657123922775 0.0 0.0 1.3070699730008482 -0.6678597172145163
148.36703496510313 310.56821041226226 0.0 0.0 -2.6639139069513647 -0.6592940544353096
149.60295233819133 310.15735962047813 0.0 0.0 1.3620995022891798 -0.644845171643522
150.66105915195118 309.6133317304246 0.0 0.0 -2.6142964067299297 -0.6261580273284713
151.56062923505021 308.9528580719867 0.0 0.0 1.407336085836235 -0.6045012827384282
152.31816061018185 308.19031524896496 0.0 0.0 -2.572678243182128 -0.5808555227474583
152.94780240909566 307.33799765560764 0.0 0.0 1.4459033334022848 -0.5559790814790844
153.46173144266547 306.4063951851385 0.0 0.0 -2.536736084178327 -0.5304576384063431
153.8704760294795 305.40445501553177 0.0 0.0 1.4795432004485587 -0.5047418737836735
154.18318975266533 304.33981764024685 0.0 0.0 -2.5051506456657022 -0.47917635521635926
154.40788013761974 303.219023746467 0.0 0.0 1.5092675840013836 -0.4540218910820575
154.55159804815275 302.047692097565 0.0 0.0 -2.477133543697717 -0.429472988704263
154.6205935917523 300.83067041818083 0.0 0.0 1.5357024126659304 -0.4056715940689033
154.62044390989496 299.5721621172372 0.0 0.0 -2.4521768718590864 -0.38271798239568255
154.55615763603487 298.27583194152373 0.0 0.0 1.5592698543513972 -0.3606794387212928
154.43226016043963 296.94489358882083 0.0 0.0 -2.4299208118925897 -0.33959720933327464
154.25286321554555 295.58218207896437 0.0 0.0 1.5802842491324025 -0.3194920864970845
154.02172172263647 294.1902133770299 0.0 0.0 -2.4100844035068345 -0.3003689056688028
153.74228033409648 292.7712334381349 0.0 0.0 1.5990017857641394 -0.2822201704143441
153.41771166880287 291.3272585277265 0.0 0.0 -2.3924301645820005 -0.2650289749500603
153.05094786785205 289.8601083813429 0.0 0.0 1.6156454605050534 -0.24877135774721726
152.64470678840343 288.3714335099093 0.0 0.0 -2.3767466915179893 -0.23341819374145167
152.20151389717054 286.8627377323255 0.0 0.0 1.6304170303090544 -0.21893671074934762
151.72372071495545 285.3353968257627 0.0 0.0 -2.362840595388602 -0.20529170025445698
151.2135204923576 283.79067402219135 0.0 0.0 1.6435023327277314 -0.1924464785410711
150.67296165823868 282.2297329452774 0.0 0.0 -2.350533086496145 -0.18036364511585035
150.10395947105997 280.6536484698498 0.0 0.0 1.6550734079114715 -0.16900567571388692
149.50830621358367 279.063415893993 0.0 0.0 -2.3396587039936128 -0.15833538096057875
148.8876802003982 277.459958739233 0.0 0.0 1.665289232604767 -0.14831625617349875
148.24365381088197 275.84413543266874 0.0 0.0 -2.3300648972870928 -0.1389127430988406
147.57770071548256 274.21674507527183 0.0 0.0 1.6742959775778044 -0.1300904207720155
146.89120242775806 272.57853246075473 0.0 0.0 -2.3216118256185414 -0.12181613929151602
146.18545428702964 270.9301924768319 0.0 0.0 1.682227216808796 -0.11405810833572616
145.4616709543282 269.27237399457204 0.0 0.0 -2.314172100173387 -0.10678594934426577
144.7209914876601 267.60568333126287 0.0 0.0 1.689204256317005 -0.09997071967728655
143.96448404916833 265.9306873550087 0.0 0.0 -2.3076303741006647 -0.09358491409703618
143.193150286558 264.24791628647625 0.0 0.0 1.6953366262400031 -0.08760245002047995
142.40792942286689 262.55786624187795 0.0 0.0 -2.301882775100708 -0.08199863851025135
141.60970208277965 260.8610015536567 0.0 0.0 1.7007227150646997 -0.07675014711114869
140.7992938788912 259.15775689830025 0.0 0.0 -2.2968362127434343 -0.07183495442338916
139.97747877698032 257.44853925469863 0.0 0.0 1.7054505093654697 -0.06723230084498777
139.14498225743307 255.7337297132736 0.0 0.0 -2.292407603063598 -0.0629226351993033
138.30248428679795 254.013685152273 0.0 0.0 1.7095983947157265 -0.05888756065045442
137.45062211232369 252.28873979474506 0.0 0.0 -2.2885230526297047 -0.055109778698581025
136.58999289073847 250.55920665750267 0.0 0.0 1.7132359794661163 -0.0515730345592198
135.7211561609679 248.82537890194175 0.0 0.0 -2.2851170336459266 -0.04826206178402792
134.8446361705092 247.08753109530983 0.0 0.0 1.7164249122806297 -0.045162529552691844
133.96092406375166 245.34592038949756 0.0 0.0 -2.2821315794708585 -0.042260990186978376
133.07047994003509 243.600787623654 0.0 0.0 1.719219670054283 -0.03954482947883964
132.17373478913063 241.85235835670724 0.0 0.0 -2.2795155160297362 -0.037002218246007246
131.2710923106036 240.1008438338706 0.0 0.0 1.7216683041876522 -0.03462206639862142
130.36293062411772 238.34644189265046 0.0 0.0 -2.2772237420820822 -0.03239397885915274
129.4496038764518 236.58933781205508 0.0 0.0 1.723813132011351 -0.030308213681303542
128.53144375131896 234.8297051082802 0.0 0.0 -2.275216564355155 -0.028355642450438978
127.60876088741512 233.06770628117695 0.0 0.0 1.725691374155648 -0.026527712493074063
126.68184621013954 231.3034935140313 0.0 0.0 -2.2734590906479895 -0.02481641159067216
125.75097218155604 229.53720932957114 0.0 0.0 1.7273357320253844 -0.02321423386381305
124.81639397421259 227.76898720587582 0.0 0.0 -2.2719206795612337 -0.021714148617673956
123.87835057239943 225.9989521533105 0.0 0.0 1.728774910059066 -0.020309570018945067
122.93706580548093 224.22722125543822 0.0 0.0 -2.270574446917781 -0.018994329328062776
121.99274931753158 222.45390417704772 0.0 0.0 1.7300340837048225 -0.017762648181815166
121.04559747707108 220.67910363989031 0.0 0.0 -2.2693968230491564 -0.016609113901912664
120.0957942301591 218.9029158687544 0.0 0.0 1.7311353143830104 -0.015528655982487649
119.14351190082878 217.12543101053453 0.0 0.0 -2.2683671606868643 -0.014516524057057723
118.18891194166841 215.34673352662796 0.0 0.0 1.732097922031496 -0.013568267674511247
117.23214563781039 213.56690256081262 0.0 0.0 -2.2674673857708356 -0.012679716396622354
116.27335476752506 211.78601228478286 0.0 0.0 1.7329388113317883 -0.011846962003033923
115.31267222144623 210.00413222208545 0.0 0.0 -2.266681690877842 -0.011066341247788714
114.35022258370392 208.22132755174357 0.0 0.0 1.7336727611652627 -0.010334419941038675
113.38612267700154 206.43765939306724 0.0 0.0 -2.2659962624966035 -0.009647978012640834
112.42048207389317 204.65318507322866 0.0 0.0 1.7343126795877666 -0.009003995171100954
111.45340357743036 202.86795837857088 0.0 0.0 -2.265399043135531 -0.008399637800865278
110.48498367101273 201.0820297896124 0.0 0.0 1.7348698244011835 -0.007832246591350511
109.51531294195036 199.2954467025905 0.0 0.0 -2.2648795229882737 -0.007299324673850194
108.54447647874146 197.50825363748905 0.0 0.0 1.7353540030226746 -0.006798526948614381
107.57255424462389 195.7204924330332 0.0 0.0 -2.264428556851559 -0.006327649652066114
106.59962142840672 193.9322024302944 0.0 0.0 1.7357737397554232 -0.005884620347874403
105.62574877462482 192.1434206453771 0.0 0.0 -2.264038203314584 -0.005467489551833182
104.65100289454021 190.35418193183847 0.0 0.0 1.7361364263887964 -0.005074421285929276
103.67544655869779 188.5645191338886 0.0 0.0 -2.2637015882511378 -0.004703686031774623
102.69913897264378 186.7744632307612 0.0 0.0 1.7364484507578055 -0.004353651763040034
101.72213603736493 184.9840434729126 0.0 0.0 -2.263412781983984 -0.0040227782760347
100.7444905947813 183.19328751003778 0.0 0.0 1.736715309487682 -0.0037096093092010562
99.76625266019641 181.40222151277223 0.0 0.0 -2.263166696987412 -0.0034127664520529066
98.78746964232633 179.6108702883739 0.0 0.0 1.7369417036640087 -0.0031309435152415688
97.80818655178535 177.81925738938327 0.0 0.0 -2.262958997474332 -0.0028628999862192472
96.82844619866128 176.02740521700002 0.0 0.0 1.7371316226940188 -0.002607456162303734
95.84828938149192 174.23533511955964 0.0 0.0 -2.2627860243182134 -0.002363487922959706
94.86775506597634 172.44306748619854 0.0 0.0 1.7372884119234726 -0.002129921380909394
93.8868805570162 170.65062183759653 0.0 0.0 -2.2626447293309866 -0.0019057288286425944
92.90570166255854 168.85801691107332 0.0 0.0 1.7374148346932756 -0.001689923201801946
91.9242528510621 167.06527074264318 0.0 0.0 -2.2625326232693723 -0.001481555148931335
90.94256740362036 165.27240074759288 0.0 0.0 1.7375131179790486 -0.0012797070801688903
89.96067755971815 163.47942379587369 0.0 0.0 -2.262447730845995 -0.001083491018206928
88.97861465949849 161.68635628647067 0.0 0.0 1.7375849935874186 -0.0008920431354848546
87.99640928155576 159.8932142204734 0.0 0.0 -2.262388555652862 -0.0007045206332918497
87.01409137779652 158.10001327066885 0.0 0.0 1.7376317286759928 -0.0005200985706341754
86.03169040451039 156.30676885039333 0.0 0.0 -2.262354055860449 -0.0003379648021351045
85.04923545279777 154.51349618179884 0.0 0.0 1.737654145375501 -0.00015731789925332862
84.06675537600493 152.72021036240787 0.0 0.0 -2.262343622862499 2.2637599517594253e-05
83.08427891691444 150.92692643161456 0.0 0.0 1.7376526387327331 0.00020269355037250136
82.10183483420255 149.1336594370901 0.0 0.0 -2.2623570744284507 0.00038364293232362456
81.11945202885374 147.3404245003943 0.0 0.0 1.7376271822229867 0.0005662821822731701
80.13715967129463 145.5472368841792 0.0 0.0 -2.2623946479855874 0.0007514156359818003
79.15498732989992 143.75411205897322 0.0 0.0 1.7375773265799737 0.0009398581797128713
78.17296510051824 141.96106576985613 0.0 0.0 -2.262457005644432 0.0011324399515508787
77.19112373885476 140.1681141069024 0.0 0.0 1.7375021925084582 0.0013300089557155559
76.20949479609878 138.37527357553643 0.0 0.0 -2.2625452479081822 0.0015334356076053268
75.228110756933 136.5825611685384 0.0 0.0 1.7374004547284088 0.001743615892017658
74.2470051823559 134.78999444054267 0.0 0.0 -2.262660928922358 0.0019614760132249387
73.26621285683544 132.9975915845532 0.0 0.0 1.7372703197136445 0.002187976116537982
72.28576994073134 131.20537151157905 0.0 0.0 -2.2628060898026874 0.002424114484295359
71.30571412874721 129.41335393252749 0.0 0.0 1.737109494903713 0.002670932501882106
70.32608481446218 127.62155944389994 0.0 0.0 -2.262983287827957 0.0029295185660274115
69.3469232627287 125.83000961772528 0.0 0.0 1.7369151459676857 0.003201013718484802
68.3682727895224 124.03872709482523 0.0 0.0 -2.2631956430501248 0.003486616096758155
67.39017895038853 122.24773568145298 0.0 0.0 1.7366838509221978 0.003787586951450095
66.41268973816209 120.45706045113278 0.0 0.0 -2.26344689582713 0.004105255505066907
65.43585579080207 118.66672785247724 0.0 0.0 1.736411538417947 0.004441026263855008
64.45973061014223 116.87676582143031 0.0 0.0 -2.263741465134437 0.004796383625084388
63.48437079174855 115.08720389892824 0.0 0.0 1.7360934205076504 0.005172900646744694
62.50983626734638 113.298073354609 0.0 0.0 -2.2640845262645612 0.005572244453158959
61.53619056017197 111.50940731646179 0.0 0.0 1.7357239131262716 0.005996185299167678
60.56350105347929 109.72124090648664 0.0 0.0 -2.2644820967820465 0.006446603601013123
59.59183927469048 107.93361138368238 0.0 0.0 1.7352965425854023 0.00692550012831461
58.62128119272728 106.14655829331465 0.0 0.0 -2.2649411327713693 0.007435003500823711
57.651907532211744 104.36012362217674 0.0 0.0 1.7348038433225952 0.00797738210604848
56.68380410260738 102.57435195989042 0.0 0.0 -2.2654696368793736 0.008555053004329238
55.717062144024595 100.78929066820047 0.0 0.0 1.7342372442551195 0.009170596036234713
54.75177868924776 99.00499005571864 0.0 0.0 -2.2660767780020095 0.009826763178942599
53.78805694036458 97.22150355458172 0.0 0.0 1.7335869491224187 0.010526494253703333
52.826006662150505 95.43888790400445 0.0 0.0 -2.2667730141779714 0.011272930652147295
51.86574458897063 93.65720333721654 0.0 0.0 1.7328418048579834 0.012069430877975407
50.907394844411016 91.8765137667037 0.0 0.0 -2.26757022363919 0.012919586697567098
49.95108937020657 90.09688696784143 0.0 0.0 1.7319891810899293 0.01382724231659438
48.996968363122235 88.31839475936175 0.0 0.0 -2.268481818841458 0.014796514029733032
48.0451807138579 86.54111317371924 0.0 0.0 1.7310148537266414 0.01583181090382979
47.09588444159185 84.76512261242696 0.0 0.0 -2.269522848397358 0.016937857230512776
46.14924711831309 82.99050798155307 0.0 0.0 1.7299029389694667 0.018119718544145513
45.20544627205777 81.21735879896042 0.0 0.0 -2.270710041173672 0.019382828028113863
44.2646697562072 79.44576926130625 0.0 0.0 1.728635872274893 0.020733015354831963
43.32711606835181 77.67583825742658 0.0 0.0 -2.272061767384926 0.022176537788897832
42.392994600568585 75.90766931612067 0.0 0.0 1.727194525566567 0.023720114938605263
41.46252579389929 74.14137046555325 0.0 0.0 -2.2735978426231114 0.025370963469633523
40.53594116665294 72.37705398074434 0.0 0.0 1.7255585032571474 0.027136837246374057
39.61348317653361 70.61483599035066 0.0 0.0 -2.2753390864952294 0.02902606708438782
38.69540486958894 68.85483590628213 0.0 0.0 1.72370677079045 0.031047605747428264
37.78196925353947 67.09717562997288 0.0 0.0 -2.2773064750646554 0.033211071679119186
36.873448323284514 65.34197848399953 0.0 0.0 1.7216187750937735 0.03552679713438778
35.970121647593444 63.589367800824924 0.0 0.0 -2.2795196646801017 0.038005873494853404
35.072274402869475 61.83946508412183 0.0 0.0 1.7192763583193482 0.04066019898104045
34.180194718800394 60.09238765233717 0.0 0.0 -2.281994541908986 0.043502517612122205
33.294170167373906 58.34824564050907 0.0 0.0 1.7166668853563891 0.04654646184286193
32.41448318853287 56.60713821238923 0.0 0.0 -2.284739260388605 0.04980656260412175
31.541405204039457 54.86914881276192 0.0 0.0 1.7137882247690186 0.05329828292138217
30.675189113896938 53.13433925235262 0.0 0.0 -2.287747987472592 0.05703794501248183
29.81605980898389 51.40274235810238 0.0 0.0 1.7106565619845782 0.06104277055128904
28.964202250126338 49.67435291586173 0.0 0.0 -2.2909911655968855 0.06533056556841288
28.11974658850253 47.9491165155656 0.0 0.0 1.707318484826466 0.06991989700102863
27.282749676189297 46.226915948752854 0.0 0.0 -2.294400490839763 0.07482904619002895
26.453172237784983 44.507554574878284 0.0 0.0 1.7038694969688137 0.08007692024952107
25.630850786812598 42.79073637666636 0.0 0.0 -2.2978458993906727 0.08567965967722557
24.815463362676073 41.07604170302419 0.0 0.0 1.7004821350005983 0.09165475415508695
24.006487843283484 39.36289906740607 0.0 0.0 -2.301100448177216 0.098009695716609
23.203151943102363 37.650550905640024 0.0 0.0 1.6974481408192048 0.10475889195226529
22.404373280821897 35.93801642959745 0.0 0.0 -2.303786809802581 0.11188438878010132
21.608689659736402 34.22404577094815 0.0 0.0 1.6952401271813926 0.11940185910906109
20.814177473201017 32.50707891198761 0.0 0.0 -2.30529573887128 0.12722106099438335
20.01836293165643 30.785189619159077 0.0 0.0 1.6945961978983917 0.13539640472577474
19.21812257528484 29.05606489804365 0.0 0.0 -2.304661513462392 0.14362301051984971
18.40959386464706 27.316945940254453 0.0 0.0 1.6966150723559181 0.1521746496857439
17.588084234807177 25.5647117930914 0.0 0.0 -2.300369297329901 0.16006657613364084
16.74805199234466 23.795820408163124 0.0 0.0 1.7027803921493998 0.1685402908433602
15.883103251608611 22.006748990064793 0.0 0.0 -2.2900408172812803 0.17433105954432548
14.986242609711443 20.19382701406747 0.0 0.0 1.7145773369580084 0.1825626662108064
14.050101415127141 18.354734762348464 0.0 0.0 -2.269809985653822 0.18200488210366927
13.067873218337326 16.487361823547104 0.0 0.0 1.731500594080515 0.1926647446126033
12.033671321886981 14.594250028385396 0.0 0.0 -2.232312669219098 0.17472316112859687
10.944464625133147 12.67552642942714 0.0 0.0 1.7435272971848477 0.20365079988017243
9.798347968523068 10.743653657609176 0.0 0.0 -2.1550177265366557 0.13537360685976196
8.596009797034341 8.783831090439628 0.0 0.0 1.7011787103253084 0.24521555584561128
7.333828962893328 6.857197751123034 0.0 0.0 -1.9068199002816613 0.01238449261257557
6.048129601700147 4.901660207574305 0.0 0.0 1.2478499050362686 0.3561505183098568
4.831962695097809 3.163770607279475 0.0 0.0 -0.9493859104714844 -0.35861486859459646
4.697656695003237 2.5826892476411687 0.0 0.0 -793.3695188514731 -2.303912101973129
99.31312572224827 331.0437524074943 0.0 0.0 -63.938940995730995 3.3306690738754696e-16
99.59009852776825 326.5874046305113 0.0 0.0 -1.0068108029529146 1.7845185454672552
98.64653435040083 317.9769490309116 0.0 0.0 -4.8226410203470635 1.872831394731622
99.24529659386546 311.53731928791865 0.0 0.0 -0.6115519602810675 1.6903006290434262
101.19404706965705 307.25224293402596 0.0 0.0 -4.400425013497912 1.4111457347319907
104.12785319435382 304.68985336443944 0.0 0.0 -0.19824312804495214 1.0812477872772523
107.66544235060226 303.4075177689068 0.0 0.0 -4.002279099070865 0.7518574043297294
111.48180701906986 302.987188620725 0.0 0.0 0.17940235719936926 0.45464721015234977
115.34002675382622 303.08942247984527 0.0 0.0 -3.6580089200530184 0.20300767627102534
119.08590477810618 303.46659698418694 0.0 0.0 0.4841726171362506 -0.0010104817445973913
122.62903224600726 303.9509834322603 0.0 0.0 -3.3928730505508238 -0.16111643396337394
125.92321670343861 304.4355938964329 0.0 0.0 0.7131369016589764 -0.28325235032303664
128.9507892730883 304.8561596399653 0.0 0.0 -3.195239601176237 -0.37376890140554675
131.7113875605526 305.1769664377813 0.0 0.0 0.884405125098402 -0.43856004043808383
134.21445426322427 305.3806533895664 0.0 0.0 -3.045837595513862 -0.48274976215662413
136.47444999907324 305.46123471404167 0.0 0.0 1.0157718609157786 -0.5106332446027687
138.50791961121917 305.4194873593202 0.0 0.0 -2.929353898378594 -0.525738750970596
140.33177194515073 305.2599829556947 0.0 0.0 1.1199169079580136 -0.5309285948351676
141.96232964010926 304.9892249544557 0.0 0.0 -2.835514838813655 -0.5285076308126806
143.41485394639597 304.6145115272048 0.0 0.0 1.2050664784555316 -0.5203223807543749
144.70335357886 304.14326619173715 0.0 0.0 -2.7577698564522586 -0.5078467400291338
145.84055653883303 303.5826644754718 0.0 0.0 1.2764308311349222 -0.4922532236351951
146.83796968321641 302.93944415974 0.0 0.0 -2.6919659843747605 -0.4744713615792868
147.70598036433148 302.21982641962086 0.0 0.0 1.33733585909955 -0.45523501691547774
148.45397323358168 301.4295015047788 0.0 0.0 -2.635421215275734 -0.4351206227925637
149.09044705690127 300.5736498565073 0.0 0.0 1.389963436182006 -0.4145780086311166
149.62312362723912 299.6569807511375 0.0 0.0 -2.5863420245953654 -0.3939552696244082
150.0590452142648 298.68377775296153 0.0 0.0 1.4358051343446014 -0.37351883885565074
150.40465952616609 297.65794482525524 0.0 0.0 -2.5434722951168167 -0.3534697078676601
150.66589255770793 296.5830498004574 0.0 0.0 1.4759326534599317 -0.333956544079252
150.8482104026936 295.462363654555 0.0 0.0 -2.5058856447317215 -0.31508630621701084
150.9566713972133 294.2988950632823 0.0 0.0 1.5111569816763968 -0.2969328356411829
150.99597000949205 293.09542030101426 0.0 0.0 -2.47286358457892 -0.27954380851156113
150.9704738127494 291.8545088464447 0.0 0.0 1.5421216336743733 -0.2629463567087793
150.88425473577468 290.5785451919597 0.0 0.0 -2.4438241405477346 -0.24715160761603006
150.7411156229629 289.2697473877902 0.0 0.0 1.569357365204091 -0.2321583438382242
150.54461297245751 287.9301828302833 0.0 0.0 -2.4182798151379252 -0.21795594760992287
150.29807657075912 286.5617817551134 0.0 0.0 1.5933145853428314 -0.20452676251498803
150.0046266093721 285.16634883602933 0.0 0.0 -2.395812472096491 -0.1918479819929617
149.6671887558302 283.74557322913125 0.0 0.0 1.614382949384348 -0.17989315284854435
149.28850755655066 282.30103734472476 0.0 0.0 -2.376057918764694 -0.16863336682011365
148.87115847094915 280.8342245774981 0.0 0.0 1.632903622469346 -0.15803819861801527
148.41755877377585 279.3465261826412 0.0 0.0 -2.3586960233976013 -0.14807643983155572
147.92997751170154 277.8392474479001 0.0 0.0 1.6491773633366513 -0.13871666725535103
147.41054466031676 276.313613281164 0.0 0.0 -2.3434439918067813 -0.12992767824820994
146.8612595963992 274.7707733084503 0.0 0.0 1.6634702171046918 -0.12167881946880943
146.28399897550918 273.21180655750584 0.0 0.0 -2.3300514604748424 -0.1139402300299146
145.6805240862424 271.6377257862394 0.0 0.0 1.6760178198493954 -0.10668301665513358
145.05248773763185 270.04948150299845 0.0 0.0 -2.3182966568240584 -0.0998793747916249
144.40144072505865 268.4479657158024 0.0 0.0 1.687028872832025 -0.09350266737968926
143.72883791130587 266.83401544010263 0.0 0.0 -2.30798321647147 -0.08752746984346516
143.0360439531672 265.20841598901734 0.0 0.0 1.6966880893703227 -0.08192958963999164
142.32433869876473 263.57190406510415 0.0 0.0 -2.2989374324337337 -0.07668606554313762
141.59492227745739 261.9251706704187 0.0 0.0 1.705158779142053 -0.07177515217248587
140.84891990082173 260.2688638475317 0.0 0.0 -2.2910058162579894 -0.06717629269946102
140.08738639164855 258.60359126270976 0.0 0.0 1.7125851562924872 -0.06287008402749628
139.31131045567008 256.92992264179964 0.0 0.0 -2.2840529074274425 -0.058838235468293476
138.52161871013269 255.24839206720202 0.0 0.0 1.7190944216427546 -0.05506352435700279
137.7191794816876 253.5595001436486 0.0 0.0 -2.277959294993206 -0.05152974822935619
136.9048063856882 251.86371604040065 0.0 0.0 1.7247986434548466 -0.04822167705628999
136.07926169835778 250.16147941598228 0.0 0.0 -2.272619828628608 -0.04512500389142282
135.2432595321331 248.45320223162372 0.0 0.0 1.7297964576322151 -0.04222629720190696
134.39746882507995 246.7392704601407 0.0 0.0 -2.2679420045482654 -0.03951295253650322
133.54251615345083 245.0200456941558 0.0 0.0 1.7341745983804877 -0.03697314718612432
132.67898837736226 243.295866660272 0.0 0.0 -2.2638445143289427 -0.034595794892547715
131.8074351285508 241.56705064420734 0.0 0.0 1.7380092736392179 -0.032370503275194196
130.92837114811323 239.83389483046514 0.0 0.0 -2.2602559430944726 -0.030287532592383926
130.0422784837042 238.09667756239327 0.0 0.0 1.7413673958119666 -0.02833775636810465
129.14960855282573 236.35565952642446 0.0 0.0 -2.2571136070218216 -0.02651262458983794
128.2507840806129 234.61108486461848 0.0 0.0 1.7443076788095446 -0.024804127715190916
127.34620091885216 232.86318221978644 0.0 0.0 -2.2543625174843935 -0.02320476386463355
126.43622975349025 231.11216571729685 0.0 0.0 1.7468816148423478 -0.021707506529006437
125.52121770664795 229.3582358864251 0.0 0.0 -2.2519544629901507 -0.02030577532525335
124.60148983966856 227.6015805251557 0.0 0.0 1.7491343390771803 -0.018993407550201624
123.67735056328291 225.84237551207661 0.0 0.0 -2.249847193273652 -0.01776463180465271
122.74908495983948 224.08078556778028 0.0 0.0 1.7511053960391294 -0.016614043065182216
121.81696002348916 222.31696496928404 0.0 0.0 -2.248003701136941 -0.015536579432222197
120.88122582339557 220.55105822063422 0.0 0.0 1.752829414501523 -0.014527499937441846
119.94211659381943 218.78320068112063 0.0 0.0 -2.2463915874098817 -0.013582364001512914
118.99985175677892 217.01351915493473 0.0 0.0 1.7543367034202433 -0.01269701223538
118.05463688064326 215.24213244413914 0.0 0.0 -2.2449825022869874 -0.011867547715906923
117.10666457896006 213.46915186732326 0.0 0.0 1.7556537753266959 -0.011090319747800947
116.15611535337261 211.69468174607832 0.0 0.0 -2.2437516550676904 -0.010361907134537773
115.20315838381359 209.91881986071107 0.0 0.0 1.7568038075365315 -0.009679103545956025
114.24795226980268 208.14165787828364 0.0 0.0 -2.2426773823781083 -0.009038903539217102
113.29064572556382 206.36328175401042 0.0 0.0 1.7578070435985076 -0.008438488701411728
112.33137823238296 204.58377210806114 0.0 0.0 -2.241740771678643 -0.007875216416728392
111.37028065035547 202.8032045786045 0.0 0.0 1.7586811479955884 -0.007346606963276159
110.40747579273022 201.02165015339227 0.0 0.0 -2.2409253294537663 -0.006850333524516472
109.44307896528392 199.2391754816781 0.0 0.0 1.7594415141039583 -0.006384211584425259
108.47719847244878 197.45584316662826 0.0 0.0 -2.240216694051764 -0.005946189296970772
107.50993609337262 195.6717120401082 0.0 0.0 1.7601015356669762 -0.0055343385877257845
106.54138752870928 193.88683742064768 0.0 0.0 -2.239602382682097 -0.005146846551349782
105.57164282153315 192.10127135708012 0.0 0.0 1.7606728391676825 -0.004782007610659278
104.60078675297952 190.31506285680922 0.0 0.0 -2.2390715733265054 -0.004438215916135135
103.6288992148153 188.52825810105486 0.0 0.0 1.7611654898409412 -0.004113957998995943
102.65605556107846 186.74090064847803 0.0 0.0 -2.2386149137418805 -0.0038078069028468775
101.68232693910291 184.9530316260986 0.0 0.0 1.7615881674769156 -0.0035184148632634304
100.70778060241457 183.16468991030825 0.0 0.0 -2.2382243581241497 -0.003244508254221401
99.73248020677079 181.37591229803795 0.0 0.0 1.761948319722471 -0.0029848815690201036
98.75648608996455 179.58673366800707 0.0 0.0 -2.2378930250141984 -0.0027383917502739052
97.77985553733201 177.79718713482774 0.0 0.0 1.762252292480568 -0.002503954162909494
96.80264303354211 176.00730419449434 0.0 0.0 -2.2376150751634505 -0.0022805368604750242
95.82490050271464 174.21711486232076 0.0 0.0 1.7625054427400855 -0.002067156578327456
94.8466775364674 172.4266478053359 0.0 0.0 -2.237385611165312 -0.001862874127233738
93.86802161228873 170.63593046874968 0.0 0.0 1.7627122308872636 -0.00166679031709549
92.88897830258115 168.84498919646404 0.0 0.0 -2.2372005896167195 -0.0014780423473759186
91.90959147494073 167.05384934695243 0.0 0.0 1.7628763006914312 -0.0012957991373347966
90.92990348543827 165.26253540515273 0.0 0.0 -2.2370567497098683 -0.0011192589559385624
89.94995536480495 163.47107108972077 0.0 0.0 1.7630005437568705 -0.0009476444110259052
88.96978699896843 161.6794794574093 0.0 0.0 -2.2369515568275737 -0.0007802002188093127
87.98943730483595 159.88778300496685 0.0 0.0 1.7630871492739502 -0.0006161896604197636
87.00894440144357 158.0960037679979 0.0 0.0 -2.23688315788306 -0.0004548904543746346
86.02834577745203 156.30416341765527 0.0 0.0 1.763137643719162 -0.0002955929492625131
85.04767845648631 154.5122833562434 0.0 0.0 -2.23685034641073 -0.0001375955051869937
84.0669791598472 152.7203848111334 0.0 0.0 1.763152915823376 1.9796876232547334e-05
83.08628446819125 150.92848892851686 0.0 0.0 -2.236852545167256 0.0001772774946751099
82.10563098256438 149.13661686627668 0.0 0.0 1.7631332352571505 0.00033553943808861675
81.12505548556638 147.3447898877654 0.0 0.0 -2.2368897934593193 0.000495279666736792
80.14459510298225 145.55302945416642 0.0 0.0 1.7630782553072706 0.0006572016655184143
79.164287466787 143.76135731896449 0.0 0.0 -2.236962747187249 0.0008220181640119506
78.18417088191254 141.96979562503583 0.0 0.0 1.7629870065241704 0.0009904554489175155
77.20428449337092 140.17836700058973 0.0 0.0 -2.237072693066331 0.001163255242158101
76.2246684592237 138.38709465915935 0.0 0.0 1.7628578807667168 0.0013411791858572997
75.24536412710029 136.5960025017947 0.0 0.0 -2.237221568005019 0.0015250111349942586
74.26641421564858 134.80511522155524 0.0 0.0 1.762688601456091 0.0017155614141195485
73.28786300261929 133.01445841274884 0.0 0.0 -2.2374119955765295 0.0019136703827520307
72.30975651933535 131.22405868248075 0.0 0.0 1.762476187237347 0.00212021181625488
71.33214275265718 129.43394376791903 0.0 0.0 -2.237647331239515 0.0023360967968741875
70.35507185563394 127.64414265776985 0.0 0.0 1.762216896004503 0.002562278955480224
69.37859636783793 125.85468571868935 0.0 0.0 -2.2379317199725435 0.0027997567022275405
68.4027714452715 124.065604829167 0.0 0.0 1.7619061600742825 0.0030495798977128175
67.42765510173994 122.27693351736951 0.0 0.0 -2.238270169783732 0.003312852932019439
66.45330846269533 120.4887071079587 0.0 0.0 1.7615385096351375 0.003590741408391551
65.47979603224137 118.70096287608126 0.0 0.0 -2.238668638289141 0.0038844760215432927
64.50718597449567 116.9137402085762 0.0 0.0 1.7611074737458736 0.004195359492467077
63.535550409614906 115.1270807748004 0.0 0.0 -2.2391341345971156 0.004524771470830302
62.56496572737143 113.34102870653851 0.0 0.0 1.7606054743139339 0.004874176337199998
61.5955129178128 111.55563078730468 0.0 0.0 -2.2396748395370167 0.005245129286510775
60.627277920499104 109.77093665280906 0.0 0.0 1.7600236931962172 0.005639284309189918
59.66035199445704 107.98699900215757 0.0 0.0 -2.2403002455082444 0.006058401898933141
58.69483210802947 106.20387382081263 0.0 0.0 1.7593519268011093 0.006504358397055654
57.730821352615465 104.42162061557217 0.0 0.0 -2.2410213101712273 0.006979154605346594
56.768429377881105 102.64030266143357 0.0 0.0 1.7585784159270688 0.0074849266758576505
55.80777285346139 100.85998726353242 0.0 0.0 -2.2418506393048787 0.008023957047587515
54.84897595410034 99.08074603049222 0.0 0.0 1.7576896604034715 0.008598686369307273
53.892170872234075 97.30265516190912 0.0 0.0 -2.2428026810326145 0.009211726542417864
52.937498356522724 95.52579574981054 0.0 0.0 1.756670208644195 0.009865876235430449
51.98510827781379 93.75025409128423 0.0 0.0 -2.2438939459307576 0.010564135434073307
51.03516022106291 91.9761220146162 0.0 0.0 1.7555024338427216 0.011309723645457126
50.0878241054241 90.20349721822014 0.0 0.0 -2.2451432406216014 0.012106099032671125
49.14328082730945 88.43248361713958 0.0 0.0 1.7541662913454275 0.012956979961771253
48.20172292798253 86.66319169818026 0.0 0.0 -2.24657190394786 0.013866368287366981
47.26335528033847 84.89573887770497 0.0 0.0 1.7526390793135604 0.014838576697858485
46.32839579165895 83.13024986187602 0.0 0.0 -2.2482040573016846 0.015878256313488492
45.39707611584249 81.36685700044964 0.0 0.0 1.7508952110747487 0.016990431805268713
44.4696423669265 79.6057006268862 0.0 0.0 -2.250066804459344 0.018180536322407903
43.546355823377986 77.84692937801807 0.0 0.0 1.7489060231808011 0.019454454566027124
42.62749360924054 76.09070047802538 0.0 0.0 -2.2521903942065364 0.020818567770309215
41.713349333313914 74.33717997383326 0.0 0.0 1.7466396720236261 0.022279808462133843
40.80423366360354 72.58654290109371 0.0 0.0 -2.254608253590696 0.023845717676241662
39.900474808251 70.83897335817831 0.0 0.0 1.7440611845238507 0.02552451393991717
39.002418863257056 69.09466445513584 0.0 0.0 -2.257356826152943 0.027325168658499877
38.11042998150257 67.35381809853865 0.0 0.0 1.7411327753283032 0.029257492179592504
37.224890301847736 65.61664456637942 0.0 0.0 -2.2604750571338954 0.031332231802363
36.34619956383289 63.88336180781774 0.0 0.0 1.7378145936992055 0.033561181014949426
35.474774311234164 62.15419439246821 0.0 0.0 -2.264003341657059 0.03595730505815453
34.611046569132206 60.42937201644961 0.0 0.0 1.7340661827534731 0.038534881572587665
33.75546183987464 58.709127436849116 0.0 0.0 -2.2679815697969445 0.04130965061152736
32.90847623328563 56.99369368541173 0.0 0.0 1.72984904869746 0.04429900437889245
32.070552493031315 55.28330037258041 0.0 0.0 -2.272445764711428 0.04752214895176721
31.24215462392501 53.57816883848472 0.0 0.0 1.725131015276638 0.05100036880070746
30.423740740469043 51.87850584800473 0.0 0.0 -2.277422483971357 0.05475714300105494
29.61575367179155 50.18449545137731 0.0 0.0 1.7198934083703392 0.058818582378933115
28.818608718591392 48.49628852868426 0.0 0.0 -2.2829196293022207 0.06321326322683163
28.03267781674061 46.81398942142409 0.0 0.0 1.714142793429744 0.06797320331669354
27.258269152594583 45.13763889536342 0.0 0.0 -2.2889114568943754 0.0731325660631974
26.49560103762809 43.467192505439115 0.0 0.0 1.7079301405832794 0.07873055559131359
25.744768528656156 41.80249319898318 0.0 0.0 -2.2953140416252538 0.08480595404521551
25.005700921625284 40.143236764475496 0.0 0.0 1.701382330306636 0.09140717428547873
24.278107760430444 38.488928414156 0.0 0.0 -2.301944744514138 0.09857164652582995
23.561410524654256 36.8388285925661 0.0 0.0 1.6947545383340668 0.10636270152353688
22.854656509784583 35.19188579119982 0.0 0.0 -2.3084544725848772 0.11479391531430139
22.156411034704863 33.54665439661286 0.0 0.0 1.6885183384178646 0.12396618236628498
21.464623491846634 31.901195675831598 0.0 0.0 -2.314213495731096 0.13379134852581132
20.776463593289936 30.252962343036142 0.0 0.0 1.683510654203296 0.14450194350725454
20.088124574990797 28.59866892137299 0.0 0.0 -2.318119978505365 0.15564043003754335
19.394596493611218 26.934160205538706 0.0 0.0 1.6811814787638255 0.16795086564216177
18.689417922689568 25.25429766234617 0.0 0.0 -2.31829276284671 0.1796749063781995
17.964441273820317 23.55291884877866 0.0 0.0 1.683974542713365 0.19355827924507096
17.209667631680517 21.822948508325464 0.0 0.0 -2.3116559721457293 0.20325584368837113
16.413299207336067 20.05683310073497 0.0 0.0 1.6957401362772728 0.21924888753223826
15.56220606605574 18.24754713946753 0.0 0.0 -2.293748949392466 0.21889720053548345
14.643227841897609 16.390319050955647 0.0 0.0 1.721210615680178 0.24223779180148952
13.645663924207948 14.486143489745386 0.0 0.0 -2.2601048983699954 0.2083336332143375
12.564999651855146 12.541547525391099 0.0 0.0 1.7587086728366543 0.26918588496511475
11.406516524872501 10.581837025851952 0.0 0.0 -2.2005413921438333 0.13315983982117885
10.175678893110643 8.569819678523537 0.0 0.0 1.7472098469977908 0.36942288616478436
8.864717390458939 6.688386444690659 0.0 0.0 -1.7531695512593473 -0.11597261194173214
7.705678837131483 5.226273515109841 0.0 0.0 0.94412228975186 0.3074424385586205
7.7291773852677395 4.763400792117833 0.0 0.0 795.4213642191578 -3.7708604546297675
102.07890129906491 340.2630043302164 0.0 0.0 -61.23417711662101 -1.7139067942650854e-15
101.67429180743086 335.6646904422179 0.0 0.0 -4.722687789361023 1.2002718655514701
100.12933323442039 326.81758926258266 0.0 0.0 -0.5980160061010338 1.2923128211977364
99.67089078214497 319.5354499842746 0.0 0.0 -4.4595104483635755 1.2275342344580817
100.27424882177363 313.87117993297636 0.0 0.0 -0.31055468251516327 1.0861573876320998
101.76109117443762 309.64625282813836 0.0 0.0 -4.1606256038098035 0.9025545013289022
103.92443237969172 306.6190902572673 0.0 0.0 -0.0153404626649003 0.6983066794659396
106.55750382777467 304.54216796682186 0.0 0.0 -3.8752135947367443 0.49378672703116766
109.4755619755996 303.18199051476324 0.0 0.0 0.25754260059567713 0.3036903419363064
112.52882499192691 302.33625885503375 0.0 0.0 -3.6189026262775457 0.13635315415727023
115.60470366585533 301.8414276099927 0.0 0.0 0.4943910909461495 -0.004922253271585353
118.62359110027535 301.57182281977856 0.0 0.0 -3.402741782653261 -0.12017484066016149
121.53226344409363 301.4343965402543 0.0 0.0 0.690140627738538 -0.2113262882767013
124.29726143507371 301.3621565526882 0.0 0.0 -3.226168121905828 -0.2811904688914022
126.89927372079048 301.3079442403693 0.0 0.0 0.8492639842501237 -0.33284665089787335
129.32877326807207 301.23922859922914 0.0 0.0 -3.0826182680933636 -0.36929153680002313
131.58280607017542 301.134041341606 0.0 0.0 0.9790696801826346 -0.3932611181172614
133.66271247979222 300.97793406293664 0.0 0.0 -2.9648789294493585 -0.4071594919902961
135.57255240457923 300.76176157023974 0.0 0.0 1.086228166453667 -0.41304556009301885
137.31803898490523 300.48009531703207 0.0 0.0 -2.8670139887772095 -0.41265129682525625
138.90582875750044 300.1301005779793 0.0 0.0 1.1759016014862151 -0.40741402787234393
140.34305630851017 299.71074699906563 0.0 0.0 -2.7845944878591355 -0.39851381166551114
141.63703375050133 299.2222551275966 0.0 0.0 1.251863380571871 -0.38691060185453185
142.7950597633963 298.66570828210365 0.0 0.0 -2.714413387408805 -0.373378798858103
143.82430059394588 298.042779572233 0.0 0.0 1.3168416141677373 -0.3585380378705234
144.73171781900245 297.3555388996856 0.0 0.0 -2.6541422870176956 -0.34287996171182833
145.5240262157992 296.6063155403523 0.0 0.0 1.3728336331550892 -0.326791088328964
146.20767085731808 295.79759948572735 0.0 0.0 -2.6020571112025515 -0.3105721120002487
146.78881640012844 294.93196998878443 0.0 0.0 1.421338070844934 -0.2944540414222323
147.27334406432385 294.01204338326437 0.0 0.0 -2.5568456017030643 -0.27861159897371834
147.66685345075595 293.040434722163 0.0 0.0 1.4635124897232856 -0.26317428004565224
147.97466739702148 292.0197294655004 0.0 0.0 -2.517479315740075 -0.24823543716489205
148.20183874381692 290.95246259009576 0.0 0.0 1.500276825013346 -0.23385970844050652
148.35315830306482 289.8411032687323 0.0 0.0 -2.483130208911407 -0.220089069199223
148.43316357954575 288.68804379311206 0.0 0.0 1.5323806541848022 -0.20694774241345026
148.44614795716927 287.4955917750709 0.0 0.0 -2.4531162866973313 -0.19444616995360864
148.39617015780266 286.26596490853973 0.0 0.0 1.5604472575357757 -0.18258421101457634
148.2870638395786 285.00128774856324 0.0 0.0 -2.4268657113704393 -0.17135370970333152
148.1224472373722 283.70359008714513 0.0 0.0 1.585003035235692 -0.16074054666522342
147.90573277075146 282.37480659450136 0.0 0.0 -2.403892521961307 -0.15072627188833376
147.64013655942009 281.01677746121004 0.0 0.0 1.6064977057354248 -0.14128939708314636
147.32868779693268 279.6312498270122 0.0 0.0 -2.3837796869801195 -0.13240641339007198
146.9742379410817 278.2198798208801 0.0 0.0 1.62531865364695 -0.12405258642930406
146.5794696867289 276.78423506889584 0.0 0.0 -2.3661668451949778 -0.11620257349867913
146.14690569228893 275.32579755099385 0.0 0.0 1.6418015010653786 -0.10883089700988258
145.6789170366924 273.84596670891347 0.0 0.0 -2.350741107387373 -0.1019123035841325
145.1777313887528 272.34606272479647 0.0 0.0 1.6562381809756221 -0.09542203201533095
144.6454408750941 270.8273299041677 0.0 0.0 -2.337229911813587 -0.08933600852655665
144.084009637184 269.2909401095417 0.0 0.0 1.6688833078881942 -0.08363098528480517
143.49528107165602 267.7379962007261 0.0 0.0 -2.3253953046817664 -0.07828463357089888
142.8809847514288 266.1695354471767 0.0 0.0 1.6799593442860221 -0.07327560222601459
142.24274302792617 264.5865328843069 0.0 0.0 -2.3150292459948094 -0.06858354869513938
141.58207731703357 262.9899045921155 0.0 0.0 1.6896608872064043 -0.0641891492939255
140.9004140738832 261.38051087978465 0.0 0.0 -2.305949680889924 -0.060074093755169145
140.19909046288012 259.75915936392954 0.0 0.0 1.6981582818201026 -0.056221067834838045
139.47935973102668 258.1266079321089 0.0 0.0 -2.297997203058415 -0.05261372732168468
138.74239629336554 256.4835675852066 0.0 0.0 1.7056007097539982 -0.04923666597089493
137.9893005405694 254.83070515576281 0.0 0.0 -2.291032191396555 -0.046075379008891915
137.22110337909743 253.1686459007626 0.0 0.0 1.712118849482227 -0.04311622451374664
136.43877051490367 251.49797596926044 0.0 0.0 -2.284932334272556 -0.04034638240913857
135.64320649134004 249.81924474565355 0.0 0.0 1.7178271833643528 -0.037753814062360114
134.83525849307517 248.1329670714196 0.0 0.0 -2.2795904768542723 -0.03532722081731343
134.01571992663975 246.43962534817538 0.0 0.0 1.7228260075751187 -0.033056004109869086
133.1853337889496 244.7396715259015 0.0 0.0 -2.2749127440289314 -0.03093022580595317
132.34479583457536 243.03352898026822 0.0 0.0 1.7272031853579648 -0.0289405704896053
131.49475755236722 241.32159428349252 0.0 0.0 -2.270816900637115 -0.02707830869344008
130.63582896143816 239.60423887338638 0.0 0.0 1.7310356829173443 -0.025335261831252787
129.7685812370021 237.8818106245982 0.0 0.0 -2.2672309146274596 -0.023703769085628323
128.8935491749766 236.15463532765511 0.0 0.0 1.734390911801615 -0.022176655226012087
128.0112335050635 234.42301807984668 0.0 0.0 -2.2640916999506686 -0.02074720111041728
127.12210306080557 232.68724459237825 0.0 0.0 1.7373279078761215 -0.01940911463952233
126.2265968149304 230.94758241847504 0.0 0.0 -2.2613440138469105 -0.018156504375298255
125.3251257882983 229.20428210700553 0.0 0.0 1.7398983618714574 -0.016983853929826154
124.41807483968913 227.45757828532794 0.0 0.0 -2.2589394915522867 -0.015885998343765806
123.50580434381274 225.70769067552274 0.0 0.0 1.74214752433652 -0.014858101535534018
122.58865176431217 223.95482504820632 0.0 0.0 -2.256835798882676 -0.013895635347815016
121.66693312823898 222.19917411694962 0.0 0.0 1.7441149979970305 -0.01299435957324846
120.74094440800725 220.4409183774559 0.0 0.0 -2.254995891900073 -0.012150303834214782
119.81096281661844 218.68022689459775 0.0 0.0 1.7458354306405006 -0.011359749511008488
118.8772480217235 216.9172580402897 0.0 0.0 -2.253387366174234 -0.010619213979904174
117.94004328363113 215.15216018583985 0.0 0.0 1.7473391249402894 -0.009925435112469572
116.99957652163332 213.38507235056565 0.0 0.0 -2.2519818885802465 -0.009275356544911517
116.05606131370625 211.61612481024517 0.0 0.0 1.748652568410833 -0.00866611502985748
115.10969783406136 209.84543966824594 0.0 0.0 -2.2507547007532516 -0.00809502700484721
114.16067373152909 208.07313139014607 0.0 0.0 1.749798899527974 -0.007559577165272557
113.20916495370227 206.29930730598278 0.0 0.0 -2.2496841825611043 -0.007057407311540587
112.25533651981696 204.52406808087798 0.0 0.0 1.7507983149049515 -0.006586305883782728
111.2993432454774 202.7475081569967 0.0 0.0 -2.2487514727556572 -0.006144198342573404
110.34133042356265 200.96971616852812 0.0 0.0 1.7516684227223571 -0.0057291379167896395
109.3814344622674 199.19077533046092 0.0 0.0 -2.2479401377883583 -0.0053392968962509
108.41978348520342 197.4107638047531 0.0 0.0 1.7524245548060158 -0.004972958701250363
107.45649789428052 195.62975504338948 0.0 0.0 -2.2472358809312496 -0.004628510567457056
106.4916908995892 193.84781811123233 0.0 0.0 1.7530800351258762 -0.0043044357382076015
105.5254690169829 192.0650179894545 0.0 0.0 -2.2466262928063045 -0.003999307747523773
104.55793253667103 190.28141586178828 0.0 0.0 1.7536464134672798 -0.0037117829698480875
103.58917596428151 188.4970693831778 0.0 0.0 -2.246100631433869 -0.0034405958801659864
102.61928843661124 186.7120329331331 0.0 0.0 1.7541336709501678 -0.003184552493168624
101.64835411388364 184.9263578557905 0.0 0.0 -2.245649633547721 -0.0029425257947384154
100.67645254990293 183.14009268471926 0.0 0.0 1.7545503936415194 -0.0027134503389660836
99.70365904198665 181.35328335687285 0.0 0.0 -2.2452653521442727 -0.002496317881439225
98.73004496238136 179.56597341503246 0.0 0.0 1.7549039258557961 -0.002290172510681643
97.75567807228263 177.77820419888604 0.0 0.0 -2.2449410139718395 -0.0020941069647246735
96.78062282021334 175.99001502717627 0.0 0.0 1.7552004973853634 -0.0019072580124444016
95.80494062509321 174.20144337029942 0.0 0.0 -2.2446709045096043 -0.001728803598727069
94.82869014689601 172.41252501546577 0.0 0.0 1.755445334409707 -0.0015579579380009534
93.85192754485058 170.62329422428112 0.0 0.0 -2.244450263014933 -0.0013939691457700576
92.87470672439281 168.83378388348953 0.0 0.0 1.7556427517830286 -0.001236115463230547
91.89707957434995 167.04402564955038 0.0 0.0 -2.2442752014996614 -0.0010837020475200632
90.91909619562018 165.25405008838328 0.0 0.0 1.7557962284021578 -0.0009360580619013348
89.94080512125231 163.46388680949676 0.0 0.0 -2.2441426342553896 -0.0007925337740779526
88.96225353024458 161.67356459608476 0.0 0.0 1.7559084694280855 -0.0006524972525188133
87.98348745535374 159.8831115322525 0.0 0.0 -2.2440502254410255 -0.0005153321377626696
87.00455198522191 158.09255512618864 0.0 0.0 1.755981453139455 -0.0003804349596485679
86.02549146357298 156.30192243166547 0.0 0.0 -2.2439963466824153 -0.00024721146107609115
85.0463496834859 154.51124016672117 0.0 0.0 1.756016464795401 -0.00011507559396761735
84.06717008084102 152.72053483127763 0.0 0.0 -2.24398004767869 1.65545701129588e-05
83.08799592520047 150.92983282421628 0.0 0.0 1.7560141215259648 0.00014825848779231876
82.10887051036381 149.13916055956614 0.0 0.0 -2.244001041747449 0.00028061604799134443
81.1298373449248 147.34854458261512 0.0 0.0 1.7559743834286223 0.0004142099950854572
80.15094034389743 145.55801168674824 0.0 0.0 -2.2440596989891404 0.0005496285659596367
79.17222402189992 143.7675890315797 0.0 0.0 1.755896549540772 0.0006874686255287088
78.19373368904441 141.97730426232408 0.0 0.0 -2.244157052087459 0.0008283367737504932
77.2155156506682 140.1871856316992 0.0 0.0 1.7557792486196817 0.0009728542488147696
76.23761741105601 138.39726212457435 0.0 0.0 -2.2442948172418404 0.0011216576860029193
75.2600878823204 136.6075635851997 0.0 0.0 1.7556204137230225 0.0012754028803527717
74.28297760042787 134.8181208495283 0.0 0.0 -2.2444754211028766 0.0014347683329276606
73.30633894694616 133.02896588056058 0.0 0.0 1.75541724632145 0.0016004565371332546
72.33022638004415 131.24013190897853 0.0 0.0 -2.244702045523873 0.0017731991157354798
71.3546966742154 129.45165358001714 0.0 0.0 1.7551661683486017 0.001953758787891502
70.37980917023596 127.6635671062655 0.0 0.0 -2.2449786823290054 0.0021429330546496317
69.40562603641571 125.87591042724091 0.0 0.0 1.7548627568747293 0.0023415589225130873
68.43221254203166 124.08872337635864 0.0 0.0 -2.2453102034850048 0.002550514642553736
67.4596373448798 122.30204785681224 0.0 0.0 1.7545016689765234 0.0027707261213301138
66.48797279309218 120.51592802632901 0.0 0.0 -2.2457024469434685 0.003003169654515858
65.51729524355409 118.7304104919624 0.0 0.0 1.7540765478282836 0.0032488771369116876
64.54768539764805 116.94554451508573 0.0 0.0 -2.246162315954507 0.0035089404799393265
63.5792286562866 115.16138222870006 0.0 0.0 1.7535799102616352 0.0037845184603426674
62.61201549473165 113.37797886748447 0.0 0.0 -2.2466979030307925 0.004076839206472727
61.646141860336385 111.59539301116416 0.0 0.0 1.7530030213757968 0.004387210237080552
60.68170959311303 109.81368684139507 0.0 0.0 -2.2473186268581387 0.004717021397691923
59.718826871995184 108.0329264156696 0.0 0.0 1.7523357395328887 0.005067754954012571
58.75760868952443 106.25318195841706 0.0 0.0 -2.2480353943499765 0.0054409909634109965
57.79817735340425 104.47452816759144 0.0 0.0 1.751566344647081 0.005838417201974977
56.84066302117462 102.69704454266065 0.0 0.0 -2.248860788597433 0.006261838083275961
55.885204266515736 100.92081573157844 0.0 0.0 1.7506813380369977 0.006713184013207751
54.93194868203482 99.14593190019848 0.0 0.0 -2.2498092793075415 0.00719452334273285
53.98105351824192 97.37248912420651 0.0 0.0 1.7496652186175652 0.00770807458082956
53.03268636244624 95.60058980316401 0.0 0.0 -2.250897463604751 0.008256219658719033
52.08702585919028 93.83034310289362 0.0 0.0 1.7485002245537515 0.008841519267580367
51.144262474217456 92.06186542227454 0.0 0.0 -2.2521443399920145 0.009466729581582456
50.20459930422944 90.29528088674472 0.0 0.0 1.7471660494874612 0.010134821928129867
49.26825293362083 88.53072187100189 0.0 0.0 -2.2535716042187772 0.010849002770218164
48.33545434090344 86.76832955097669 0.0 0.0 1.745639520195077 0.011612739249244441
47.406449855831006 85.00825448296742 0.0 0.0 -2.2552039873668974 0.01242978530402894
46.48150216585022 83.2506572113192 0.0 0.0 1.7438942566294813 0.0133042134239858
45.56089137570567 81.49570890601176 0.0 0.0 -2.2570696168034488 0.014240449256977428
44.644916116340255 79.74359202389181 0.0 0.0 1.7419002911501948 0.015243312555739408
43.7338947028515 77.99450099357587 0.0 0.0 -2.2592003977141957 0.016318062807744838
42.82816633645078 76.24864291930635 0.0 0.0 1.7396236802031098 0.01747045386252921
41.92809234687105 74.50623829625071 0.0 0.0 -2.2616324099130267 0.018706794084067724
41.034057464895504 72.76752172894109 0.0 0.0 1.7370261117292713 0.02003401877423272
40.14647111534081 71.0327426430703 0.0 0.0 -2.264406291148653 0.021459771766231484
39.265768712274074 69.3021659694708 0.0 0.0 1.7340645385401174 0.022992502377245927
38.39241293605364 67.57607278223519 0.0 0.0 -2.2675675725674367 0.02464157645375309
37.52689496290897 65.854760859756 0.0 0.0 1.7306908859379746 0.02641740760651956
36.66973560459536 64.13854513086574 0.0 0.0 -2.271166908799728 0.02833160826577341
35.821486312751645 62.42775795899576 0.0 0.0 1.7268519141407026 0.030397170779973948
34.98272997099507 60.722749189217836 0.0 0.0 -2.275260089959204 0.03262867139347847
34.1540813914391 59.02388587961404 0.0 0.0 1.7224893726150015 0.035042522696517864
33.33618739426124 57.33155160110545 0.0 0.0 -2.2799076666074 0.03765724618860844
32.52972631363193 55.646145152777216 0.0 0.0 1.7175406795089714 0.040493836399946304
31.735406725278487 53.96807849545787 0.0 0.0 -2.2851738649160183 0.04357610234172071
30.953965125918636 52.297773657747605 0.0 0.0 1.7119405475407063 0.04693123152782874
30.186162203441306 50.635658249878205 0.0 0.0 -2.291124242770259 0.05059013412749991
29.432777224735453 48.9821591797113 0.0 0.0 1.7056243451817608 0.054588451529834714
28.694599912082527 47.337693909786644 0.0 0.0 -2.2978210239853283 0.05896656466353889
27.97241895376985 45.70265859573076 0.0 0.0 1.6985346597760653 0.0637718318591638
27.267006048260658 44.07741183535554 0.0 0.0 -2.3053141441796967 0.06905688863437476
26.579093914747162 42.46225310581649 0.0 0.0 1.6906340025434972 0.07488586687835053
25.909346325511947 40.85739316168117 0.0 0.0 -2.3136241549785055 0.08132575834626721
25.258317214374944 39.262915657959596 0.0 0.0 1.6819296894613274 0.08846659107929611
24.62639547424854 37.67872344937831 0.0 0.0 -2.322709519847713 0.09638641699650208
24.0137296701594 36.10447151299286 0.0 0.0 1.6725237323938629 0.10522204924653877
23.42012707717615 34.53946862512391 0.0 0.0 -2.3324038206087963 0.11503593076971086
22.844915110470914 32.982563407631716 0.0 0.0 1.6627165548973863 0.1260723482539241
22.286757367978623 31.43196034722144 0.0 0.0 -2.342296082758118 0.13826202388143116
21.743398016864234 29.885039070553695 0.0 0.0 1.6532328619803494 0.1521617405254041
21.21133062178269 28.337998335777993 0.0 0.0 -2.35150974609909 0.1671245288642318
20.685329832785627 26.78562600789184 0.0 0.0 1.6457423003119018 0.1847608190100658
20.15788288504395 25.220583436580736 0.0 0.0 -2.3583330119133166 0.20219667522557216
19.618371009997553 23.63338296986973 0.0 0.0 1.64413388382534 0.22484234327322028
19.052258308239274 22.010925216920327 0.0 0.0 -2.3597995583104847 0.24157124638892213
18.439932113234935 20.338086976747228 0.0 0.0 1.6577439840321944 0.2718661913905649
17.7564909455389 18.594959771896782 0.0 0.0 -2.3523969586760387 0.27443606699156575
16.971709966436013 16.76597049843661 0.0 0.0 1.7085983782058278 0.32169095499331135
16.056042507859786 14.83704211027539 0.0 0.0 -2.3414444159337364 0.2626406388669089
14.98991947113078 12.824131853540223 0.0 0.0 1.8295554375648777 0.37470807094699765
13.798813368340284 10.795274262560792 0.0 0.0 -2.38727427986759 0.10255242257139585
12.531757359401492 8.583676907149805 0.0 0.0 1.7554794003515752 0.5836508258038293
11.207740923101 6.58648493503594 0.0 0.0 -1.4649852084489439 -0.5632430076951067
10.986199334546548 5.928925440912611 0.0 0.0 -796.85568276108 -3.515791306007525
103.86245558091896 346.20818526972994 0.0 0.0 -66.04885864652582 8.326672684688674e-17
103.19015360815828 341.68537500239967 0.0 0.0 -0.5660015529882152 0.7833052175108494
101.3326235479918 332.89192928887104 0.0 0.0 -4.477153277018861 0.8626409025680641
100.30261170350349 325.2655920611734 0.0 0.0 -0.3733271142608414 0.8434209379133153
100.11906474898453 318.9043692539419 0.0 0.0 -4.266593707072689 0.776679340458706
100.70040065304107 313.73306314944637 0.0 0.0 -0.15444236291724422 0.6756509528630583
101.93037782548316 309.6286702225179 0.0 0.0 -4.039956497121427 0.5545674184183064
103.68023455258049 306.4436699176658 0.0 0.0 0.07374713359785101 0.4247836372625312
105.82152677282143 304.02499707653027 0.0 0.0 -3.8149233924290087 0.29600360031926964
108.23547660255642 302.22523732996603 0.0 0.0 0.29258533712370305 0.17547725528447233
110.81897772854592 300.9104901716751 0.0 0.0 -3.604846629371952 0.06780311197876387
113.4869864285124 299.96473221436827 0.0 0.0 0.4919677801906843 -0.024725530176642696
116.17217491669533 299.29100946844216 0.0 0.0 -3.4173968942952824 -0.10156797605662238
118.82302491604484 298.810476588987 0.0 0.0 0.66694350824244 -0.16334864152905848
121.40130400472518 298.4602982344416 0.0 0.0 -3.254886873286486 -0.21138100365675294
123.87950979231508 298.19115979607466 0.0 0.0 0.8173861291648414 -0.24731158565496303
126.23857625890307 297.9648290615054 0.0 0.0 -3.1158764376690247 -0.2728831142267327
128.46594924491464 297.7519842342262 0.0 0.0 0.9457233145223105 -0.2897860784490256
130.5540359250627 297.5303810239079 0.0 0.0 -2.9974104164267166 -0.2995760639728875
132.4989863914736 297.28335555214073 0.0 0.0 1.0551132087358255 -0.3036341271246825
134.29975044842882 296.9986251244871 0.0 0.0 -2.89633840539162 -0.30315516951284494
135.9573534740087 296.66733819033095 0.0 0.0 1.1485737969603793 -0.2991527546732058
137.4743425717587 296.2833257588422 0.0 0.0 -2.809840584774786 -0.29247310300832297
138.85436335066836 295.84251254905405 0.0 0.0 1.228699284429398 -0.283813317006669
140.1018362991753 295.3424534755362 0.0 0.0 -2.7355526217478334 -0.273740899323883
141.22170900443768 294.7819680704628 0.0 0.0 1.2976330466574417 -0.26271277055701314
142.21926626219243 294.16085142308475 0.0 0.0 -2.6715365160225324 -0.2510928461466406
143.09998456858304 293.4796450592488 0.0 0.0 1.357126015320775 -0.2391677187509642
143.86942082769662 292.73945497127346 0.0 0.0 -2.616209685968181 -0.22716031905320921
144.53312759280595 291.9418069215032 0.0 0.0 1.4086103088019541 -0.21524160302534145
145.09658899834795 291.08853136042273 0.0 0.0 -2.568274026938784 -0.20354041713205362
145.56517290212423 290.18167198538146 0.0 0.0 1.453264808868676 -0.19215173533907448
145.94409577227125 289.2234132482521 0.0 0.0 -2.526656759763981 -0.18114347780461504
146.23839761483285 288.2160231007904 0.0 0.0 1.492067740678598 -0.17056211311400515
146.45292481549652 287.1618080224416 0.0 0.0 -2.4904640887662683 -0.1604372332711348
146.59231921129523 286.06307796261603 0.0 0.0 1.5258373333217055 -0.15078526765683709
146.6610120510664 284.9221192899947 0.0 0.0 -2.4589455912629923 -0.14161248372582147
146.66322177148697 283.7411742051731 0.0 0.0 1.5552630064373698 -0.13291739823582693
146.6029547281113 282.5224253640209 0.0 0.0 -2.4314668740998044 -0.12469270651940434
146.48400818960215 281.2679846921415 0.0 0.0 1.5809293907010957 -0.11692681765758595
146.30997503907142 279.97988555914594 0.0 0.0 -2.4074884203487397 -0.10960507010631826
146.08424973605992 278.6600776348302 0.0 0.0 1.6033350062177796 -0.10271068848477771
145.81003518108747 277.3104238741988 0.0 0.0 -2.38654904928457 -0.0962255317683498
145.49035019687855 275.932699180232 0.0 0.0 1.6229069530300606 -0.09013067402909414
145.12803739884654 274.5285903770811 0.0 0.0 -2.3682528301547636 -0.0844068508078788
144.72577127517843 273.0996971952156 0.0 0.0 1.6400126010638285 -0.07903479868786079
144.28606633535904 271.6475340259553 0.0 0.0 -2.352258609822645 -0.07399550959663337
143.81128521782347 270.1735322497249 0.0 0.0 1.654968998719216 -0.06927041808665191
143.3036466728143 268.67904298020176 0.0 0.0 -2.338271537722882 -0.06484153520670155
142.7652333572334 267.1653400976211 0.0 0.0 1.668050525599444 -0.06069154122469378
142.1979993949106 265.63362346994603 0.0 0.0 -2.3260361375518883 -0.05680384548320738
141.60377766922593 264.08502228215366 0.0 0.0 1.6794951803139746 -0.05316262175141251
140.9842868259072 262.52059841038806 0.0 0.0 -2.3153305884882602 -0.04975282395317571
140.34113797161203 260.941349791513 0.0 0.0 1.6895097935078631 -0.04656018750337054
139.6758410619169 259.3482137508303 0.0 0.0 -2.3059619637887625 -0.04357121970192601
138.9898109760735 257.742070258845 0.0 0.0 1.698274384496898 -0.040773182360752
138.28437328139876 256.1237450961285 0.0 0.0 -2.2977622354400875 -0.03815406835287405
137.56076969224497 254.49401291074815 0.0 0.0 1.7059458317958196 -0.035702574560574796
136.82016323119407 252.85360015804824 0.0 0.0 -2.2905848985652977 -0.033408071944762696
136.06364310209557 251.20318791574653 0.0 0.0 1.7126609828488455 -0.03126057463024878
135.29222928521963 249.54341457088174 0.0 0.0 -2.284302101625066 -0.02925070744109526
134.50687686600608 247.87487837739948 0.0 0.0 1.7185393057736178 -0.027369674629925456
133.70848010915145 246.1981398842413 0.0 0.0 -2.2788021931767535 -0.02560922753141881
132.8978762901582 244.51372423632034 0.0 0.0 1.7236851604713266 -0.023961634312375857
132.07584929632458 242.82212335123162 0.0 0.0 -2.2739876172327627 -0.02241964961860532
131.24313300909864 241.12379797541215 0.0 0.0 1.7281897519326392 -0.020976485990915172
130.40041448008154 239.41917962377724 0.0 0.0 -2.2697730990305747 -0.01962578630851297
129.54833691086031 237.7086724074201 0.0 0.0 1.7321328162591954 -0.018361597376864935
128.68750244915532 235.9926547548008 0.0 0.0 -2.2660840771158473 -0.01717834513725336
127.81847481093087 234.27148103086944 0.0 0.0 1.7355840790305521 -0.016070810871275043
126.94178173907252 232.54548305927648 0.0 0.0 -2.262855345064935 -0.01503410913333525
126.05791730807314 230.81497155247055 0.0 0.0 1.7386045220172193 -0.01406366612795118
125.1673440843261 229.08023745489623 0.0 0.0 -2.2600298717086638 -0.013155200608109041
124.27049515071198 227.34155320442832 0.0 0.0 1.7412474819385686 -0.012304704452363424
123.36777600352431 225.59917391559742 0.0 0.0 -2.257557775925349 -0.011508425748989026
122.45956632986537 223.85333848928542 0.0 0.0 1.7435596079314273 -0.010762851773336024
121.54622167311759 222.10427065471714 0.0 0.0 -2.2553954323397747 -0.010064694022975829
120.62807499323608 220.35217994604469 0.0 0.0 1.7455816949130742 -0.009410873318897117
119.70543812860538 218.59726261788177 0.0 0.0 -2.253504694827072 -0.008798506406320072
118.77860316558895 216.8397025040568 0.0 0.0 1.7473494105690541 -0.00822489314794872
117.84784372188454 215.07967182246745 0.0 0.0 -2.251852216110308 -0.007687504584019678
116.91341614909467 213.31733193003765 0.0 0.0 1.7488939289232412 -0.0071839719403214986
115.97556065953535 211.55283403011256 0.0 0.0 -2.2504088569830323 -0.006712075641335247
115.03450238240524 209.7863198358419 0.0 0.0 1.7502424837605481 -0.006269736029768325
114.09045235365726 208.01792219226894 0.0 0.0 -2.2491491691118206 -0.005855003827567984
113.14360844439847 206.24776565971698 0.0 0.0 1.7514188502370232 -0.0054660515919859876
112.1941562309938 204.47596706114433 0.0 0.0 -2.2480509450892363 -0.005101165868204305
111.24226981172694 202.70263599528977 0.0 0.0 1.7524437661046761 -0.004758739016978097
110.28811257229039 200.9278753182123 0.0 0.0 -2.247094825648631 -0.004437262883104864
109.3318379050172 199.15178159606805 0.0 0.0 1.7533352977389356 -0.004135321310743123
108.37358988393378 197.37444552949597 0.0 0.0 -2.2462639571523866 -0.0038515845574735863
107.4135038982722 195.59595235246255 0.0 0.0 1.7541091597176077 -0.0035848030346361526
106.4517072486177 193.81638220714234 0.0 0.0 -2.2455436952981422 -0.003333802008407716
105.488319706762 192.03581049609704 0.0 0.0 1.754778991729264 -0.0030974761609883217
104.52345404298232 190.25430821449874 0.0 0.0 -2.2449213447882777 -0.0028747850045416357
103.55721652236865 188.47194226236888 0.0 0.0 1.7553565997950251 -0.0026647479228039117
102.58970737241165 186.68877573892973 0.0 0.0 -2.2443859366934262 -0.0024664403741141427
101.62102122395531 184.90486822000773 0.0 0.0 1.7558521640557814 -0.0022789889534635677
100.6512475279169 183.12027602045558 0.0 0.0 -2.243928035215596 -0.0021015689142647176
99.68047094878386 181.33505244185912 0.0 0.0 1.756274418389765 -0.001933398779302209
98.7087717372921 179.54924800723825 0.0 0.0 -2.243539569890409 -0.0017737385403151507
97.73622608373478 177.76291068360874 0.0 0.0 1.7566308049366341 -0.0016218851954512559
96.76290645314039 175.97608609235922 0.0 0.0 -2.243213694146718 -0.0014771705593563667
95.78888190400072 174.1888177101863 0.0 0.0 1.7569276045426676 -0.001338957346526115
94.81421839265174 172.40114706102472 0.0 0.0 -2.242944664860328 -0.0012066373852839263
93.83897906318992 170.61311389834574 0.0 0.0 1.7571700480608499 -0.0010796280015483717
92.86322452563496 168.8247563800535 0.0 0.0 -2.2427277409885207 -0.0009573705340493177
91.88701312262782 167.03611123705213 0.0 0.0 1.7573624078117582 -0.0008393263938852868
90.91040118598724 165.24721393424767 0.0 0.0 -2.242559098810748 -0.0007249764267456271
89.9334432850465 163.45809882705151 0.0 0.0 1.7575080745268252 -0.0006138169827352158
88.95619246662167 161.66879931274718 0.0 0.0 -2.2424357663133385 -0.0005053589598666974
87.97870048821054 159.8793479761823 0.0 0.0 1.7576096152552054 -0.0003991249988573031
87.00101804628292 158.08977673481505 0.0 0.0 -2.2423555705805605 -0.00029464728760331127
86.02319499944252 156.3001169792908 0.0 0.0 1.7576688202927002 -0.00019146620427434868
85.04528058743732 154.5103997101158 0.0 0.0 -2.2423170969399315 -8.912712810626999e-05
84.06732364835263 152.72065567527636 0.0 0.0 1.7576867315771096 1.2820126839230284e-05
83.08937283327926 150.9309155056971 0.0 0.0 -2.2423196675167922 0.00011482462803868998
82.11147682090083 149.14120984990143 0.0 0.0 1.7576636663076854 0.00021733545335855808
81.13368453158317 147.35156950913483 0.0 0.0 -2.242363328023643 0.0003208038667352753
80.15604534254075 145.56202557285965 0.0 0.0 1.7575992187914053 0.00042568578182766714
79.17860930610449 143.7726095562552 0.0 0.0 -2.2424488464551686 0.0005324430613491415
78.2014273691458 141.9833535384861 0.0 0.0 1.7574922531772543 0.0006415462349700363
77.2245515982978 140.19429030447043 0.0 0.0 -2.2425777297822123 0.0007534759594278739
76.24803540890855 138.40545348955726 0.0 0.0 1.757340885481561 0.0008687256165451629
75.2719338007166 136.61687772821267 0.0 0.0 -2.2427522483920654 0.0009878035995143364
74.29630360001036 134.8285988066539 0.0 0.0 1.7571424485618437 0.0011112349839059732
73.32120371051776 133.04065382079915 0.0 0.0 -2.2429754766460377 0.0012395646841270036
72.3466953729824 131.25308134080663 0.0 0.0 1.7568934472505546 0.0013733594638623003
71.37284243530728 129.4659215814834 0.0 0.0 -2.2432513469457334 0.0015132101005868037
70.3997116346452 127.67921658004963 0.0 0.0 1.756589495021366 0.001659735751786684
69.42737289182149 125.89301038285461 0.0 0.0 -2.243584718416038 0.0018135840590360885
68.45589962023185 124.10734924048174 0.0 0.0 1.7562252380920427 0.0019754373133764602
67.48536905056129 122.32228181328153 0.0 0.0 -2.2439814637700835 0.002146012922821683
66.5158625723188 120.53785938778513 0.0 0.0 1.7557942610219328 0.0023260687873047914
65.54746609402885 118.75413610477838 0.0 0.0 -2.2444485706048667 0.002516405132475086
64.58027042378718 116.97116920106316 0.0 0.0 1.755288971593366 0.002717870952544388
63.6143716722163 115.18901926491017 0.0 0.0 -2.2449942649906376 0.00293136484491896
62.64987167896815 113.40775050785079 0.0 0.0 1.754700471783039 0.003157843013443795
61.686878464818875 111.62743105150571 0.0 0.0 -2.245628158086973 0.003398320747542982
60.72550671278961 109.8481332341439 0.0 0.0 1.7540183973532493 0.0036538808819130963
59.765878278828126 108.06993393796856 0.0 0.0 -2.246361414227245 0.00392567715253378
58.80812273626507 106.29291493528348 0.0 0.0 1.7532307357531565 0.004214941847951792
57.85237795373768 104.51716325866303 0.0 0.0 -2.2472069466769824 0.004522991642119223
56.898790713557595 102.74277159759677 0.0 0.0 1.7523236139485192 0.0048512370970428265
55.94751736997016 100.96983872082556 0.0 0.0 -2.248179648567664 0.005201188075165675
54.99872455284759 99.19846992907586 0.0 0.0 1.7512810533216268 0.005574466412841872
54.05258991871476 97.42877753898566 0.0 0.0 -2.2492966556944296 0.00597281365096336
53.10930295425761 95.66088140148501 0.0 0.0 1.7500846835594146 0.0063981039812262
52.16906583521108 93.89490945789777 0.0 0.0 -2.2505776547520213 0.0068523572053678095
51.232094347062976 92.13099833647253 0.0 0.0 1.74871341508684 0.0073377529266061
50.298618869570056 90.36929399259184 0.0 0.0 -2.2520452372098987 0.007856647370708458
49.36888543340031 88.60995239611975 0.0 0.0 1.7471430519784334 0.008411592828402092
48.443156851937296 86.85314026946783 0.0 0.0 -2.253725309567457 0.009005359242756583
47.521713936518545 85.09903588263987 0.0 0.0 1.745345852459188 0.009640957601128264
46.6048568004709 83.3478299063801 0.0 0.0 -2.2556475777311036 0.010321670493453894
45.692906260047025 81.59972633027292 0.0 0.0 1.7432900083243439 0.011051083274530527
44.78620533952674 79.85494345037259 0.0 0.0 -2.257846109480944 0.011833123068303308
43.88512088889898 78.11371493151589 0.0 0.0 1.7409390274033498 0.012672102381586114
42.99004532460298 76.37629094941495 0.0 0.0 -2.2603600002335895 0.013572771013986795
42.10139849959887 74.64293941588978 0.0 0.0 1.7382510110748939 0.014540376723555681
41.219629718204246 72.91394729726906 0.0 0.0 -2.2632341701690635 0.015580734042515587
40.34521990091861 71.18962202446096 0.0 0.0 1.7351777766598104 0.016700309513343115
39.478683914134194 69.4702930022575 0.0 0.0 -2.266520331370657 0.017906317947602446
38.62057307309896 67.7563132175516 0.0 0.0 1.7316637923158282 0.01920683882115526
37.77147783011774 66.04806094768114 0.0 0.0 -2.270278164101512 0.02061095190735074
36.93203065780458 64.34594156802078 0.0 0.0 1.7276448583887074 0.022128902218454982
36.10290913138294 62.65038944390883 0.0 0.0 -2.2745767943325106 0.023772289553821935
35.284839218602826 60.961869898807954 0.0 0.0 1.7230464649052522 0.025554304913132597
34.478598771372894 59.28088122924146 0.0 0.0 -2.2794966432493666 0.027489999371756113
33.6850212095757 57.60795673109403 0.0 0.0 1.7177816997178041 0.029596627935909225
32.904999374481655 55.94366667550605 0.0 0.0 -2.28513177867341 0.03189402507876338
32.139489506972666 54.28862016107563 0.0 0.0 1.7117486083554425 0.03440513263422673
31.38951528128134 52.643466699075255 0.0 0.0 -2.2915928990845273 0.03715649649685204
30.656171776022177 51.008897394085096 0.0 0.0 1.7048268764687933 0.04017914213885021
29.940629222698092 49.38564541724657 0.0 0.0 -2.2990110477786914 0.04350912164022347
29.244136250094776 47.77448553944658 0.0 0.0 1.696873842659464 0.04718918703676778
28.568022272582958 46.1762320080899 0.0 0.0 -2.3075420082221285 0.05126891421495827
27.913698394761774 44.591734525864304 0.0 0.0 1.6877202157127655 0.055808577929472136
27.282656095609717 43.021870484769266 0.0 0.0 -2.317370927250522 0.06087678672740893
26.676462265178248 41.46753374389106 0.0 0.0 1.6771670067109667 0.06656131671300969
26.09674912814901 39.929614726563116 0.0 0.0 -2.3287156886687796 0.07295612973491927
25.54519566053742 38.408975140933315 0.0 0.0 1.6649884115142441 0.0801960270937272
25.023497791237425 36.906401242941115 0.0 0.0 -2.341825483880733 0.08840222888674987
24.533318781589198 35.422552225029186 0.0 0.0 1.650954547951116 0.09780187398522244
24.076215490094278 33.95785071153638 0.0 0.0 -2.3569674686964817 0.1085171391455404
23.653517072480906 32.51238539694419 0.0 0.0 1.6349154837652549 0.12099261310284604
23.266152433330404 31.08564322971464 0.0 0.0 -2.3743912674424834 0.1352015299513063
22.91435786120547 29.67634787829399 0.0 0.0 1.6170740052415766 0.15219970158562646
22.59727792053948 28.281759210740773 0.0 0.0 -2.394272410747888 0.17117248883497638
22.312247288748317 26.897495974959966 0.0 0.0 1.5988583511330248 0.1951259841143269
22.053864812748184 25.515572495227445 0.0 0.0 -2.4167234675003044 0.21995260503789993
21.81218048867341 24.124680453034582 0.0 0.0 1.5857924078044974 0.25534084070860885
21.57058942420157 22.704451485881375 0.0 0.0 -2.4423316525319194 0.284340338776115
21.30128877985441 21.229014027593475 0.0 0.0 1.5973729650416715 0.34034469514411825
20.961317240960177 19.65092779513719 0.0 0.0 -2.474710175331495 0.35723461547672386
20.48328657539391 17.92420505763053 0.0 0.0 1.702240271719191 0.4544922941150169
19.77811115717805 15.974941654376869 0.0 0.0 -2.5277803880712995 0.37421829788888417
18.745115865860527 13.840816947663793 0.0 0.0 2.1221435708380483 0.5697944921913276
17.454013620844528 11.93584613488262 0.0 0.0 -2.664416230786024 -0.060710269008840356
16.38430317569261 10.399904340029604 0.0 0.0 1.7222045465146465 0.5704249714065917
16.58785516038993 9.859306793473678 0.0 0.0 800.9025556578778 -5.553081586119914
105.00094533356761 350.00315111189207 0.0 0.0 -62.564395441234076 -1.2490009027033011e-15
104.18274163888881 345.54717726330955 0.0 0.0 -4.447807962228556 0.4758827573415165
102.18285033030917 336.8528001932222 0.0 0.0 -0.37938017299013627 0.5304121706709706
100.84758570865563 329.09799044790196 0.0 0.0 -4.3000509163573835 0.5274965777047691
100.218125338369 322.3854895307567 0.0 0.0 -0.21238987577064616 0.4962686375275676
100.25782948038912 316.69108152236663 0.0 0.0 -4.121851515173768 0.4441600291276604
100.90150980272904 311.95099652464387 0.0 0.0 -0.02811168831748656 0.377006698952714
102.06657636009949 308.0771848840169 0.0 0.0 -3.9326302535224285 0.30152817748246474
103.66230195482086 304.9669776581843 0.0 0.0 0.16302633213080142 0.22343701859339482
105.59703270353528 302.51239720051746 0.0 0.0 -3.7423697422396844 0.14738465147300994
107.7835434049963 300.60695316583764 0.0 0.0 0.3500998064448444 0.07681392547960775
110.14267326808152 299.1504902644872 0.0 0.0 -3.560411218312953 0.013945397600440224
112.60533178434775 298.052254027528 0.0 0.0 0.5254260080674431 -0.040074491351356656
115.11316190458065 297.23241746049086 0.0 0.0 -3.392848063172703 -0.08495524900561158
117.61825347816281 296.62242713394824 0.0 0.0 0.6844852914809039 -0.12101430049282058
120.08228441743037 296.16455108340926 0.0 0.0 -3.2426951916930946 -0.14895727430967254
122.47538379494591 295.8109627422362 0.0 0.0 0.8256107699147535 -0.16969922476711252
124.77491641219892 295.52260828099827 0.0 0.0 -3.110504648430368 -0.18423467689440365
126.96430863178973 295.26802227576087 0.0 0.0 0.9491132552248818 -0.19354924771313353
129.0319782943922 295.02218974782073 0.0 0.0 -2.9953399304158266 -0.19856543758055212
130.97039476066763 294.76550629099523 0.0 0.0 1.0563547761242535 -0.20011316769213994
132.77527344264902 294.48285788194084 0.0 0.0 -2.8955725134730925 -0.19891768327686243
134.44489752437545 294.1628241740987 0.0 0.0 1.1491104302268855 -0.195598602086277
135.979554125366 293.7969992276635 0.0 0.0 -2.8093680159444423 -0.1906757199944531
137.38107031010142 293.37941887994344 0.0 0.0 1.2292125968434213 -0.18457840507449874
138.65243445723274 292.906082167848 0.0 0.0 -2.7349376365521407 -0.17765652293571943
139.79748958291535 292.37455411389686 0.0 0.0 1.2983795588740747 -0.17019157040068
140.82068670020607 291.7836379510206 0.0 0.0 -2.6706499589420294 -0.16240725206369966
141.72688787996756 291.1331060298362 0.0 0.0 1.3581470741823924 -0.15447908810678124
142.52121019974382 290.4234799494301 0.0 0.0 -2.6150683939958443 -0.1465428831700546
143.20890315045415 289.655851735928 0.0 0.0 1.4098526752891622 -0.1387020277492903
143.79525328996468 288.83173908615197 0.0 0.0 -2.5669519409545387 -0.13103369049019342
144.2855109852742 287.9529687654741 0.0 0.0 1.4546449001489634 -0.1235940013303134
144.68483498167632 287.02158319037846 0.0 0.0 -2.5252395325243073 -0.11642234576204746
144.99825129303542 286.0397660390263 0.0 0.0 1.4935028227615135 -0.109544891253464
145.23062353993404 285.00978342807116 0.0 0.0 -2.4890284307947077 -0.10297746274523689
145.38663238931716 283.9339377839746 0.0 0.0 1.5272584734002859 -0.09672787148196882
145.47076218537978 282.8145320335407 0.0 0.0 -2.4575518512709325 -0.09079779060014204
145.48729322150223 281.65384215418777 0.0 0.0 1.5566185985413057 -0.08518425699007048
145.4402983990451 280.45409647217804 0.0 0.0 -2.4301581843472118 -0.0798808675698428
145.33364326202988 279.21746038654214 0.0 0.0 1.5821842400049313 -0.07487872657938333
145.17098859497506 277.94602543541015 0.0 0.0 -2.406292726610184 -0.07016719165741137
144.95579493360742 276.64180182010665 0.0 0.0 1.6044676554790147 -0.06573445727083538
144.6913284697307 275.3067136665213 0.0 0.0 -2.3854820978976132 -0.06156800789706729
144.38066793897355 273.9425964374548 0.0 0.0 1.6239066089069176 -0.057654966691521814
144.0267121667476 272.55119602104634 0.0 0.0 -2.3673211764554116 -0.05398236110123911
143.63218801790308 271.13416911098284 0.0 0.0 1.6408762873946507 -0.05053732262294908
143.19965855196293 269.69308456848523 0.0 0.0 -2.3514622472771514 -0.04730723410466631
142.73153123161254 268.22942551791135 0.0 0.0 1.6556991731783128 -0.04427983631221455
142.2300660680398 266.74459197654227 0.0 0.0 -2.337606025540449 -0.041443302280486094
141.697383616345 265.23990386020233 0.0 0.0 1.6686532042447801 -0.038786286587705554
141.13547275680935 263.71660423864114 0.0 0.0 -2.325494235900262 -0.03629795543184322
140.54619821662686 262.1758627423341 0.0 0.0 1.6799785260426567 -0.03396800201559724
139.93130780111082 260.6187790431578 0.0 0.0 -2.3149034666336625 -0.03178665036713291
139.2924393140949 259.0463863488562 0.0 0.0 1.6898830908461235 -0.029744651204279826
138.6311271571491 257.4596548660934 0.0 0.0 -2.305640061375451 -0.027833271269097182
137.94880860301794 255.85949519703854 0.0 0.0 1.6985473223324377 -0.026044278582947555
137.24682974448777 254.24676164460755 0.0 0.0 -2.2975358551699543 -0.02436992423399076
136.52645112339113 252.6222554075204 0.0 0.0 1.706128018893601 -0.02280292255184957
135.78885304792442 250.98672765345464 0.0 0.0 -2.290444597421626 -0.021336429642717647
135.03514060756825 249.34088246145555 0.0 0.0 1.712761636543405 -0.019964021829409262
134.2663483973393 247.68537962939803 0.0 0.0 -2.2842389340265914 -0.01867967337819465
133.48344496340218 246.02083734511956 0.0 0.0 1.718567065383656 -0.017477735025576813
132.6873369827712 244.3478347211368 0.0 0.0 -2.2788078506740455 -0.016352912516975238
131.87887319021286 242.6669141949409 0.0 0.0 1.723647987426265 -0.015300246024049002
131.05884806519686 240.97858379811663 0.0 0.0 -2.274054494966606 -0.014315090132297925
130.22800529198014 239.2833192982582 0.0 0.0 1.7280948903386282 -0.013393095084249573
129.3870410049041 237.58156621786 0.0 0.0 -2.269894313473234 -0.012530188328655711
128.5366068320359 235.87374173630096 0.0 0.0 1.731986792267982 -0.01172255752881668
127.6773127478467 234.16023647895085 0.0 0.0 -2.266253452892485 -0.010966634020364907
126.80972974693911 232.44141619934229 0.0 0.0 1.7353927260007467 -0.01025907769263057
125.9343923492431 230.71762335974373 0.0 0.0 -2.2630673814501048 -0.00959676213296845
125.0518009471229 228.98917861556123 0.0 0.0 1.738373018685369 -0.00897676116901458
124.16242400411618 227.25638220856658 0.0 0.0 -2.2602796997870627 -0.008396336045397135
123.26670011414163 225.51951527404424 0.0 0.0 1.7409804000205042 -0.007852923122799282
122.36503993059691 223.77884106762258 0.0 0.0 -2.2578411089992905 -0.007344122749445958
121.4578279730622 222.0346061150257 0.0 0.0 1.743260960986511 -0.0068676884548626305
120.54542431915927 220.28704129031667 0.0 0.0 -2.2557085176219864 -0.00642151728464313
119.6281661897219 218.5363628275429 0.0 0.0 1.7452549876165016 -0.006003640130128218
118.70636943298567 216.78277326774665 0.0 0.0 -2.2538442638913985 -0.005612213063935556
117.78032991534712 215.02646234796663 0.0 0.0 1.7469976860089211 -0.0052455093364596195
116.85032482414152 213.26760783401622 0.0 0.0 -2.2522154407252017 -0.004901911510312829
115.91661388790469 211.50637630072097 0.0 0.0 1.7485198112059912 -0.004579904334216067
114.97944052026482 209.74292386426774 0.0 0.0 -2.250793307156929 -0.004278068061552176
114.03903289163775 207.97739686793145 0.0 0.0 1.7498482176564956 -0.003995071986821586
113.0956049340436 206.20993252560993 0.0 0.0 -2.249552776602986 -0.003729668840293243
112.1493572832124 204.44065952514973 0.0 0.0 1.7510063357055614 -0.003480688815413302
111.20047816196858 202.66969859467636 0.0 0.0 -2.2484719709567216 -0.003247034901045609
110.24914420909022 200.8971630334831 0.0 0.0 1.7520145878977331 -0.003027677431754583
109.295521257019 199.1231592103549 0.0 0.0 -2.2475318319817887 -0.002821650135700793
108.33976506208057 197.3477870320319 0.0 0.0 1.7528907526192476 -0.002628045410476787
107.38202199039866 195.5711403828006 0.0 0.0 -2.246715784109135 -0.0024460104273327232
106.42242966206825 193.79330753717332 0.0 0.0 1.7536502762832527 -0.0022747435426619944
105.46111755708836 192.0143715486271 0.0 0.0 -2.2460094410116795 -0.0021134903998270005
104.49820758571542 190.23441061562403 0.0 0.0 1.7543065480034308 -0.0019615409911502013
103.53381462467064 188.45349842499462 0.0 0.0 -2.245400351375231 -0.0018182262155761464
102.5680470232765 186.67170447671992 0.0 0.0 1.7548711364083118 -0.001682914865391183
101.60100708045157 184.8890943901263 0.0 0.0 -2.2448777788258383 -0.001555011492898828
100.63279149461184 183.10573019199637 0.0 0.0 1.7553539931434052 -0.0014339527200402102
99.66349178977703 181.32167059010897 0.0 0.0 -2.244432512727162 -0.0013192057099704613
98.69319471835666 179.53697123164898 0.0 0.0 1.75576362882207 -0.0012102650995409192
97.72198264291796 177.75168494794568 0.0 0.0 -2.2440567049006894 -0.001106651702750483
96.74993389870477 175.96586198706774 0.0 0.0 1.7561072635715647 -0.0010079091055850142
95.7771231385457 174.17955023502097 0.0 0.0 -2.2437437314893742 -0.0009136028567446886
94.80362166148265 172.3927954265692 0.0 0.0 1.7563909537655995 -0.0008233176288907629
93.82949772644196 170.6056413462435 0.0 0.0 -2.243488076471337 -0.000736656181580031
92.85481685282298 168.81813002162343 0.0 0.0 1.7566196994379695 -0.0006532366910807497
91.87964210887591 167.03030190793248 0.0 0.0 -2.243285233963885 -0.0005726926312554781
90.90403438933178 165.24219606649766 0.0 0.0 1.756797531730463 -0.0004946688098641516
89.92805268344875 163.45385033660318 0.0 0.0 -2.2431316288823844 -0.0004188220621728078
88.95175433442112 161.66530150109168 0.0 0.0 1.7569275854160793 -0.00034481876240732845
87.97519529195269 159.8765854496522 0.0 0.0 -2.2430245540747897 -0.0002723328119884627
86.99843035888375 158.08773733657947 0.0 0.0 1.7570121531456167 -0.0002010452943572716
86.02151343178605 156.2987917349137 0.0 0.0 -2.24296212233941 -0.00013064247571037413
85.04449773885894 154.5097827893474 0.0 0.0 1.7570527248552565 -6.0814238143080956e-05
84.06743607372813 152.72074436591316 0.0 0.0 -2.242943231789102 8.746802024006683e-06
83.09038102828137 150.93171020196104 0.0 0.0 1.7570500158079483 7.834683882990134e-05
82.11338522411614 149.14271405444524 0.0 0.0 -2.242967550578175 0.00014829237161251285
81.13650154421406 147.35378984852488 0.0 0.0 1.7570039797072852 0.00021889146493947464
80.15978336621129 145.5649718276439 0.0 0.0 -2.243035506496323 0.0002904549597069206
79.18328479685216 143.77629470388123 0.0 0.0 1.7569138059384457 0.0003632984640589143
78.20706091121109 141.98779381161992 0.0 0.0 -2.2431482952005766 0.0004377423226209487
77.23116799476622 140.19950526320983 0.0 0.0 1.756777905449873 0.0005141153645631391
76.25566379184463 138.41146610851595 0.0 0.0 -2.243307904777609 0.0005927537634633495
75.28060776030144 136.62371449827415 0.0 0.0 1.7565938851549134 0.0006740047306976749
74.30606133361327 134.83628985336415 0.0 0.0 -2.2435171463824872 0.0007582266850931774
73.33208819267894 133.04923303977438 0.0 0.0 1.75635850222789 0.0008457914679915746
72.35875454610661 131.26258654832074 0.0 0.0 -2.2437797060305655 0.0009370857822474932
71.38612942351436 129.47639468391816 0.0 0.0 1.756067611188172 0.0010325135943496377
70.414284980656 127.69070376272765 0.0 0.0 -2.2441002088765813 0.0011324968259138757
69.44329681863121 125.90556231721251 0.0 0.0 1.7557160868021668 0.0012374784692745777
68.47324431923117 124.121021313554 0.0 0.0 -2.2444843017614815 0.001347923875325563
67.5042109965994 122.33713437838229 0.0 0.0 1.7552977363973596 0.001464323742673912
66.53628486799107 120.55395803774991 0.0 0.0 -2.244938752672951 0.0015871953075787815
65.56955884601328 118.77155197282997 0.0 0.0 1.754805187059901 0.001717086367076348
64.60413115185231 116.98997928691296 0.0 0.0 -2.2454715691012765 0.0018545762741055682
63.64010575400415 115.20930679050784 0.0 0.0 1.7542297583225306 0.0020002806396277606
62.677592833212124 113.42960530305719 0.0 0.0 -2.2460921432233647 0.0021548527881236623
61.7167092764187 111.65094997502355 0.0 0.0 1.7535613055727168 0.002318988523065002
60.75757920270604 109.87342063149569 0.0 0.0 -2.246811419537252 0.0024934287905828967
59.80033452300307 108.09710213711591 0.0 0.0 1.7527880373191849 0.0026789650111354035
58.84511553680208 106.32208478836247 0.0 0.0 -2.247642088772082 0.0028764415860926817
57.892071570577826 104.5484647318631 0.0 0.0 1.7518963039635764 0.0030867629788247086
56.94136165861729 102.77634441229864 0.0 0.0 -2.2485988226886207 0.003310897787979883
55.99315527384436 101.00583305535042 0.0 0.0 1.7508703448971303 0.003549885091999272
55.04763310914212 99.23704718563381 0.0 0.0 -2.249698542210517 0.0038048415639266864
54.104987917435864 97.47011118312273 0.0 0.0 1.7496919989364201 0.004076968162124217
53.165425412362325 95.70515788383314 0.0 0.0 -2.2509607358505406 0.004367559788910569
52.229165239596604 93.94232922907254 0.0 0.0 1.7483403571265441 0.004678014170632849
51.29644202160181 92.18177696652184 0.0 0.0 -2.2524078356066823 0.005009842206476378
50.36750648515986 90.42366340810523 0.0 0.0 1.7467913549331087 0.005364682020946532
49.442626680577504 88.66816225475253 0.0 0.0 -2.2540656609800678 0.005744311953023384
48.52208930110963 86.91545949200876 0.0 0.0 1.7450172807790523 0.006150666911739933
47.60620111140156 85.16575436132077 0.0 0.0 -2.2559639585225355 0.006585858354270613
46.69529050231584 83.41926042251974 0.0 0.0 1.7429861911580886 0.007052194255354749
45.78970918113563 81.67620671321718 0.0 0.0 -2.2581370532358065 0.007552206431718389
44.889834014566915 79.93683901637964 0.0 0.0 1.740661179138101 0.008088679071015292
43.99606904407328 78.20142125053806 0.0 0.0 -2.260624656674679 0.008664683566326659
43.10884769315362 76.47023699743477 0.0 0.0 1.7379994741689515 0.009283619541804455
42.228635190407836 74.74359118066091 0.0 0.0 -2.263472885484539 0.009949262484425958
41.3559312370666 73.02181191553522 0.0 0.0 1.7349512895963173 0.010665820218250133
40.491272951399296 71.30525255516464 0.0 0.0 -2.266735568646652 0.011438000106302582
39.63523812607566 69.59429394952284 0.0 0.0 1.7314583299162436 0.012271088925057683
38.78844884235242 67.88934694771206 0.0 0.0 -2.270475960261763 0.013171047207013231
37.95157549071398 66.19085517506512 0.0 0.0 1.7274518100269347 0.014144623209649154
37.12534125871313 64.499298117303 0.0 0.0 -2.2747690413812762 0.01519948765422896
36.31052714943824 62.815194551056166 0.0 0.0 1.7228497747559715 0.01634439933703291
35.50797761333411 61.13910635921151 0.0 0.0 -2.27970465828961 0.017589397873038592
34.71860688329454 59.47164278229577 0.0 0.0 1.7175534061743107 0.01894604942977196
33.94340612014207 57.81346515238327 0.0 0.0 -2.285391894291699 0.020427725004250163
33.18345149271475 56.16529217294502 0.0 0.0 1.711441836832691 0.02204997381082663
32.439913336985356 54.52790578882341 0.0 0.0 -2.2919652474873544 0.023830924001519094
31.71406655895862 52.902157731955214 0.0 0.0 1.7043647829000506 0.02579187981275055
31.007302477786304 51.288976761845035 0.0 0.0 -2.299593488608785 0.027957866508920404
30.321142321436653 49.689376744803646 0.0 0.0 1.6961319548615137 0.030358687931414607
29.657252642559094 48.10446545516806 0.0 0.0 -2.308492517402051 0.0330295217066876
29.017462898809352 46.53545445149558 0.0 0.0 1.6864977457308399 0.03601308771573741
28.403785574749495 44.9836693999714 0.0 0.0 -2.318944220093627 0.03935967713455213
27.818439033530915 43.450561971817805 0.0 0.0 1.6751391171187393 0.04313246117425962
27.263873669508577 41.93772083600545 0.0 0.0 -2.331324593858504 0.047404204293055585
26.74280113042261 40.44688580166557 0.0 0.0 1.6616241909623568 0.05227255766919825
26.25822767950108 38.97995594060651 0.0 0.0 -2.346146710877285 0.05784248531740843
25.813489690245323 37.53900675712851 0.0 0.0 1.645370056065559 0.06427563184227125
25.412294004976854 36.12628300135982 0.0 0.0 -2.364129712780155 0.07171649837846417
25.058754522678512 34.74422340413674 0.0 0.0 1.6255959017609172 0.08046258132195305
24.757433925223623 33.395395580669344 0.0 0.0 -2.3863209671391914 0.09067676891316978
24.513357804722133 32.08255077442199 0.0 0.0 1.601311085121047 0.10299379473730141
24.332033572281535 30.80835315022696 0.0 0.0 -2.41435047746004 0.11743261782605074
24.219353567522987 29.5755612101837 0.0 0.0 1.571509743917936 0.13559418790066147
24.18150198680426 28.38602543627116 0.0 0.0 -2.4510775965061953 0.15660114270816905
24.224419456312923 27.241371278615034 0.0 0.0 1.536245445471117 0.18512687442933995
24.353254075638482 26.13932199675407 0.0 0.0 -2.502532055909789 0.21632086868649836
24.570108813816805 25.07618770848562 0.0 0.0 1.5011793238489943 0.265265003734644
24.871511013088885 24.03295719393248 0.0 0.0 -2.5842690710695635 0.3110426497897407
25.23894420085952 22.983486003856072 0.0 0.0 1.4960350619520284 0.4052649710635592
25.62640994844019 21.838741158725817 0.0 0.0 -2.7418996840120045 0.4627376208619012
25.91780301860365 20.471971322577936 0.0 0.0 1.6575723360217651 0.6674875421915516
25.86376323187411 18.485797053047104 0.0 0.0 -3.099049312426338 0.649859920498784
24.935604018238013 15.47642841849224 0.0 0.0 2.7790014449853686 1.103963027455233
23.045071979506588 12.736581816579497 0.0 0.0 -3.0674019451954635 -0.6801064632129687
23.15301658665632 12.13745700780689 0.0 0.0 -803.356244961781 -4.711940125225677
105.63125686896178 352.104189563206 0.0 0.0 -66.84377206900108 3.469446951953614e-16
104.74905866601466 347.7018714761219 0.0 0.0 -0.3851135682798761 0.2252422177302254
102.68309829426431 339.0881616349696 0.0 0.0 -4.3256987696647915 0.25249797531111007
101.19757853989103 331.2918293665494 0.0 0.0 -0.2559721053688593 0.25357601450117717
100.33992425205417 324.4172171825568 0.0 0.0 -4.181990943148674 0.24151863320286382
100.09375795510988 318.46249942869787 0.0 0.0 -0.10203203550739204 0.2192131696070425
100.41779577791804 313.3916660343493 0.0 0.0 -4.019107326624695 0.189525454633655
101.25374364034465 309.1457395825444 0.0 0.0 0.06624112111949287 0.1550480394990158
102.53208841045628 305.6496339605543 0.0 0.0 -3.8470463320571118 0.11843240102606756
104.17777329791072 302.8183343719823 0.0 0.0 0.23991937803053354 0.08194390885203784
106.1149958722448 300.56278677710895 0.0 0.0 -3.6738179239269004 0.047345593823258536
108.27093719553427 298.79459162750396 0.0 0.0 0.41086571597599253 0.015880273038312298
110.57842172916607 297.42952736409234 0.0 0.0 -3.506744005893455 -0.011699919920165947
112.97757355252487 296.3899544784924 0.0 0.0 0.5727664753683852 -0.03505914706058455
115.41661320117437 295.60623025961274 0.0 0.0 -3.3510399168183134 -0.05418796885623989
117.85198428814029 295.01731740446843 0.0 0.0 0.7215302950420313 -0.06930730745344205
120.248006538129 294.57078569856475 0.0 0.0 -3.2097066891574872 -0.08078305837713406
122.5762299667788 294.2223971002656 0.0 0.0 0.8551671639088347 -0.08905610924900542
124.81462995208008 293.93543413791315 0.0 0.0 -3.0838457377627284 -0.09459072583571881
126.94674557994693 293.6798961539798 0.0 0.0 0.9733219354986105 -0.09783928178870838
128.9608305442902 293.43165281103904 0.0 0.0 -2.9732138530931276 -0.09922065209360698
130.84905937307718 293.1716148508416 0.0 0.0 1.0766968237970467 -0.09910875714669043
132.6068121370211 292.88495887775565 0.0 0.0 -2.8767738225559496 -0.09782828274208111
134.23204715303058 292.56042603641885 0.0 0.0 1.1665591686576793 -0.09565504357790466
135.72476229937618 292.189702696541 0.0 0.0 -2.7931136726116037 -0.09281913907631889
137.08654017583183 291.76688360551987 0.0 0.0 1.2443982627581374 -0.08950956341978511
138.32016943252188 291.2880132953296 0.0 0.0 -2.7207181950468966 -0.08587938867152367
139.4293333363692 290.75069897383867 0.0 0.0 1.3117172400088464 -0.08205095885351632
140.418356442171 290.15378698787237 0.0 0.0 -2.6581234131432208 -0.07812077160323838
141.292000659062 289.49709471477667 0.0 0.0 1.3699224874547262 -0.07416387817192316
142.055302763763 288.7811900578366 0.0 0.0 -2.603992271396583 -0.07023773787989374
142.7134463200785 288.0072113438881 0.0 0.0 1.42027505203278 -0.0663855229101058
143.27166190137484 287.17672118495153 0.0 0.0 -2.5571426636851893 -0.06263890758214963
143.7351504111894 286.29158866865595 0.0 0.0 1.4638778676174269 -0.05902039201099685
144.10902511820427 285.35389502078243 0.0 0.0 -2.516549171277318 -0.05554521905281007
144.39826875090156 284.3658586049951 0.0 0.0 1.501681762577892 -0.05222294120262472
144.6077026296183 283.3297757722485 0.0 0.0 -2.481331829915189 -0.04905869303278543
144.74196535405912 282.2479746402789 0.0 0.0 1.5345000204063624 -0.046054216727549946
144.8054990200664 281.12277937491325 0.0 0.0 -2.4507396466432025 -0.04320868469279748
144.80254132041475 279.956482964005 0.0 0.0 1.563025764198919 -0.04051935454328026
144.73712219998305 278.75132682809453 0.0 0.0 -2.424133038679905 -0.03798208853114815
144.61306399565447 277.50948590937423 0.0 0.0 1.5878491941819473 -0.03559176233196926
144.43398420469 276.2330581281295 0.0 0.0 -2.400967252052359 -0.033342585133707026
144.20330019896141 274.9240573010256 0.0 0.0 1.609473305079126 -0.031228347969071812
143.9242353437977 273.58440878552824 0.0 0.0 -2.380777625583545 -0.029242615309625464
143.59982609430435 272.2159472540782 0.0 0.0 1.628327588181989 -0.027378870916910714
143.23292973465072 270.82041611680063 0.0 0.0 -2.3631669293217605 -0.02563062770107649
142.82623249974833 269.39946820512637 0.0 0.0 1.64477967702339 -0.023991509030189206
142.38225787818018 267.9546674051054 0.0 0.0 -2.347794691368387 -0.022455307696326088
141.9033749429247 266.4874909921461 0.0 0.0 1.6591451032078623 -0.02101602734464514
141.39180659431284 264.99933246950536 0.0 0.0 -2.3343682957932526 -0.019667910277973988
140.84963762942314 263.49150475368435 0.0 0.0 1.6716954104581419 -0.018405454727921544
140.27882257578167 261.9652435833016 0.0 0.0 -2.322635592315571 -0.017223423976279406
139.6811932465312 260.42171105545924 0.0 0.0 1.6826648847647299 -0.01611684966247573
139.0584659877668 258.8619992147479 0.0 0.0 -2.3123787668275124 -0.015081030114421523
138.4122486008624 257.2871336370897 0.0 0.0 1.6922561379394558 -0.01411152572699681
137.74404693108644 255.69807696568276 0.0 0.0 -2.3034092503900894 -0.01320415142084741
137.05527112019018 254.09573236633886 0.0 0.0 1.7006447543266923 -0.012354968087796792
136.34724152605529 252.48094687890196 0.0 0.0 -2.295563475765489 -0.011560272215884737
135.6211943158693 250.85451464845053 0.0 0.0 1.7079831695932377 -0.010816585299469494
134.87828674221967 249.2171800251318 0.0 0.0 -2.2886993268576727 -0.010120642779337885
134.1196021131155 247.56964052619105 0.0 0.0 1.714403926140676 -0.009469382798388715
133.34615446836216 245.91254965675824 0.0 0.0 -2.282693150666839 -0.008859935219899029
132.55889297553546 244.24651958899042 0.0 0.0 1.7200224169119558 -0.008289610565307193
131.75870605917058 242.57212370078457 0.0 0.0 -2.277437234145438 -0.007755889822481876
130.9464252764613 240.88989897638947 0.0 0.0 1.7249392100049938 -0.0072564137895669845
130.1228289534491 239.20034827322988 0.0 0.0 -2.272837660126191 -0.006788973834888523
129.28864559477427 237.50394245935487 0.0 0.0 1.7292420282478496 -0.00635150246212568
128.44455708014303 235.80112242651202 0.0 0.0 -2.268812478413814 -0.0059420643873568935
127.59120165962071 234.09230098445553 0.0 0.0 1.7330074398706827 -0.00555884831887532
126.72917676018315 232.37786464176958 0.0 0.0 -2.2652901397616745 -0.005200159120519743
125.85904161441633 230.6581752790568 0.0 0.0 1.7363023111182088 -0.004864410360683635
124.9813197229011 228.93357172019586 0.0 0.0 -2.2622081490163843 -0.0045501173266124795
124.0965011600298 227.2043712070025 0.0 0.0 1.7391850558657325 -0.0042558905968235194
123.2050447334454 225.47087078314348 0.0 0.0 -2.259511904670383 -0.003980429551951659
122.3073800060343 223.73334859147323 0.0 0.0 1.7417067147034047 -0.0037225169848689177
121.40390918938917 221.9920650911553 0.0 0.0 -2.2571536937081547 -0.003481013550430845
120.49500891680708 220.24726419866062 0.0 0.0 1.7439118887288814 -0.003254852599814839
119.58103190380842 218.49917435723168 0.0 0.0 -2.2550918242625393 -0.0030430354905011114
118.66230850303161 216.7480095396272 0.0 0.0 1.7458395503172497 -0.002844627183538506
117.7391481603419 214.99397018701066 0.0 0.0 -2.25328986863866 -0.0026587520566749845
116.81184077913404 213.2372440902335 0.0 0.0 1.747523745288774 -0.002484589949210303
115.8806579982243 211.47800721555052 0.0 0.0 -2.2517160096177165 -0.002321372562677837
114.94585438898886 209.71642447788454 0.0 0.0 1.7489942049836458 -0.0021683800352327864
114.0076685774143 207.95265046611047 0.0 0.0 -2.250342469451752 -0.0020249377964223214
113.06632429555329 206.18683012340995 0.0 0.0 1.7502768773913608 -0.001890413353603293
112.12203136758818 204.41909938533183 0.0 0.0 -2.249145013874692 -0.0017642138120823603
111.17498663423835 202.64958577773345 0.0 0.0 1.7513943904846982 -0.0016457827572384787
110.22537481995379 200.87840897803233 0.0 0.0 -2.248102521204469 -0.0015345985511157068
109.27336934688809 199.10568134251062 0.0 0.0 1.7523664533148278 -0.0014301710231716669
108.31913309861709 197.3315084006979 0.0 0.0 -2.247196606860591 -0.0013320403658152458
107.36281913760504 195.55598931950448 0.0 0.0 1.7532102078577871 -0.0012397740761347364
106.4045713794572 193.77921734028268 0.0 0.0 -2.246411297214749 -0.0011529658251276942
105.44452522663009 192.00128018913847 0.0 0.0 1.7539405303071334 -0.001071233394634774
104.48280816486006 190.22226046317303 0.0 0.0 -2.2457327467493435 -0.0009942165480065768
103.5195403243874 188.44223599417745 0.0 0.0 1.7545702961629992 -0.0009215764351022671
102.55483500893958 186.6612801910956 0.0 0.0 -2.245148993100326 -0.0008529930399454599
101.58879919479597 184.8794623635827 0.0 0.0 1.7551106066378246 -0.0007881643154377116
100.6215340016457 183.09684802689887 0.0 0.0 -2.2446497469508415 -0.0007268050809692284
99.65313513772416 181.31349919002653 0.0 0.0 1.7555709863400963 -0.0006686447484334224
98.68369332122609 179.5294746291506 0.0 0.0 -2.2442262076914794 -0.0006134278368694623
97.71329467976214 177.7448301462356 0.0 0.0 1.7559595498295586 -0.0005609107912274425
96.74202112948083 175.9596188145755 0.0 0.0 -2.2438709101084164 -0.0005108626684240392
95.76995073554757 174.17389121276005 0.0 0.0 1.7562831460581414 -0.00046306305866039565
94.7971580559046 172.38769564681243 0.0 0.0 -2.2435775916427794 -0.0004173017863919881
93.82371446945804 170.6010783630373 0.0 0.0 1.7565474785865547 -0.0003733768604288201
92.84968849016568 168.81408375174124 0.0 0.0 -2.243341082465701 -0.00033109559154809176
91.8751460687003 167.02675454250237 0.0 0.0 1.7567572055428684 -0.0002902713888115471
90.9001508831752 165.23913199299415 0.0 0.0 -2.243157213990145 -0.00025072477001586435
89.92476461851128 163.4512560692085 0.0 0.0 1.7569160243269515 -0.00021228168159481697
88.94904723888423 161.66316562220956 0.0 0.0 -2.243022745994807 -0.0001747727769760843
87.97305725113969 159.87489855944565 0.0 0.0 1.7570267340417445 -0.00013803300642756255
86.99685196251922 158.08649201118254 0.0 0.0 -2.2429353079381507 -0.00010190075745342142
86.02048773289079 156.29798249428387 0.0 0.0 1.757091286321888 -6.62167301452854e-05
85.04402022312495 154.5094060731907 0.0 0.0 -2.242893358087251 -3.082418529132269e-05
84.06750463976164 152.72079851853047 0.0 0.0 1.7571108181335902 4.433091724820315e-06
83.09099597834776 150.9321954641394 0.0 0.0 -2.2428961568244645 3.9710129961179064e-05
82.11454926550726 149.1436325648257 0.0 0.0 1.757085675651581 7.516236397542286e-05
81.13821980146042 147.35514565388598 0.0 0.0 -2.242943753075295 0.00011094570253433744
80.16206340373475 145.56677090062524 0.0 0.0 1.7570154162056468 0.0001472180914667831
79.18613665275218 143.7785449697052 0.0 0.0 -2.243036984768821 0.00018413907283587605
78.21049714124749 141.99050518299774 0.0 0.0 1.7568988021074503 0.00022187146951679892
77.2352037284868 140.20268968497936 0.0 0.0 -2.243177493829535 0.00026058148834451345
76.26031679945712 138.41513761054654 0.0 0.0 1.7567337800906273 0.0003004401130226597
75.28589853168688 136.62788925856898 0.0 0.0 -2.243367755331846 0.0003416228238677377
74.31201316966741 134.84098627049778 0.0 0.0 1.756517442354017 0.0003843115828168209
73.33872730805237 133.05447181356442 0.0 0.0 -2.243611121346497 0.00042869488304120296
72.36611018671202 131.26839077380464 0.0 0.0 1.7562459782757642 0.00047496883805919765
71.39423399722322 129.48278995568262 0.0 0.0 -2.2439118785866654 0.0005233379635747326
70.4231742015532 127.69771828897244 0.0 0.0 1.7559146048610543 0.0005740167816306041
69.45300986731806 125.9132270475714 0.0 0.0 -2.244275326274071 0.000627229301141341
68.48382401866331 124.1293700788425 0.0 0.0 1.7555174835539518 0.0006832121451338935
67.51570400509257 122.34620404468531 0.0 0.0 -2.244707870059365 0.0007422135886727688
66.54874189069866 120.56378867529045 0.0 0.0 1.7550476157220842 0.0008044967373201928
65.58303486395643 118.78218703828057 0.0 0.0 -2.24521713292917 0.0008703387997393008
64.618685673623 117.00146582505508 0.0 0.0 1.7544967164695393 0.0009400346068346721
63.65580308821498 115.22169565224053 0.0 0.0 -2.2458120944084285 0.0010138957506917734
62.69450238526542 113.44295138351072 0.0 0.0 1.753855070747214 0.0010922546314908743
61.73490587118461 111.66531247235024 0.0 0.0 -2.246503252390795 0.0011754643543326893
60.77714343454697 109.8888633284933 0.0 0.0 1.7531113533061173 0.0012639015114430663
59.8213531371389 108.11369370891939 0.0 0.0 -2.2473028111651985 0.0013579683223134964
58.867681844039005 106.3398991361285 0.0 0.0 1.7522524238495336 0.0014580943467841223
57.916285898068644 104.56758134784428 0.0 0.0 -2.248224907065577 0.001564739453932873
56.9673318426795 102.79684877958832 0.0 0.0 1.7512630834858456 0.0016783967672431288
56.020997196261945 101.02781708379769 0.0 0.0 -2.2492858731612273 0.0017995964806800657
55.07747128469013 99.26060968897387 0.0 0.0 1.7501257885787354 0.001928906586439183
54.13695613684054 97.49535840440316 0.0 0.0 -2.250504549068154 0.002066941075987927
53.199667450262645 95.732204074255 0.0 0.0 1.7488203085255378 0.0022143609096296757
52.26583563226302 93.97129728558882 0.0 0.0 -2.2519026565502287 0.0023718811241906224
51.33570692705121 92.21279913789262 0.0 0.0 1.7473233213630408 0.002540275220578536
50.40954463662183 90.45688208057098 0.0 0.0 -2.253505241598347 0.002720383516042091
49.48763044591376 88.70373082632956 0.0 0.0 1.7456079227834778 0.002913119078101545
48.570265865054694 86.95354334869411 0.0 0.0 -2.255341215768759 0.003119477638207968
47.65777380223711 85.20653197520602 0.0 0.0 1.7436430249625943 0.003340547382826742
46.75050028343184 83.46292458916196 0.0 0.0 -2.257444025507681 0.0035775211023150177
45.848816336478016 81.72296594930624 0.0 0.0 1.7413926160876017 0.003831709232319014
44.95312006290903 79.98691914850019 0.0 0.0 -2.2598524855027406 0.004104557575182355
44.063838921683164 78.25506722769174 0.0 0.0 1.7388148130022856 0.004397664896444553
43.18143225335652 76.52771496521372 0.0 0.0 -2.2626118476068413 0.004712805702375533
42.30639408174428 74.80519086823361 0.0 0.0 1.7358606480025855 0.0050519574742580176
41.43925622920155 73.08784939251825 0.0 0.0 -2.2657751964838866 0.005417331713861273
40.58059179809357 71.37607342634072 0.0 0.0 1.7324724597909409 0.00581141063256041
39.73101907168394 69.6702770757605 0.0 0.0 -2.269405307430027 0.006236992902490357
38.89120590093642 67.97090879542708 0.0 0.0 1.7285817312129197 0.006697246800577261
38.06187465892859 66.27845492076898 0.0 0.0 -2.273577178981519 0.0071957732341942915
37.24380785454059 64.59344366396145 0.0 0.0 1.7241061063481524 0.007736685218631578
36.43785452174904 62.91644964118141 0.0 0.0 -2.278381560573017 0.008324698497077065
35.644937514684294 61.2480990250425 0.0 0.0 1.718945210952434 0.008965247041139435
34.866061879490964 59.589075422977395 0.0 0.0 -2.28392993636335 0.009664618198769404
34.102324491845685 57.94012660324516 0.0 0.0 1.7129746762399805 0.010430127670712608
33.35492520892258 56.30207221441295 0.0 0.0 -2.290361720664734 0.011270314794273872
32.62517982005748 54.6758126857161 0.0 0.0 1.7060374592587806 0.012195221457453442
31.914535163550923 53.062339502160356 0.0 0.0 -2.297854802494861 0.01321667357990819
31.22458684825062 51.46274717330163 0.0 0.0 1.6979310299312047 0.01434874866571434
30.55710014011299 49.878247120465225 0.0 0.0 -2.3066412711335857 0.01560815654638148
29.914034688877603 48.310184096809124 0.0 0.0 1.68838819181763 0.017015116539369046
29.29757400649635 46.760055278199374 0.0 0.0 -2.3170312967314217 0.01859372869381204
28.710160728673394 45.22953342565265 0.0 0.0 1.677047923030642 0.020373904107010787
28.15453924197987 43.72049357052481 0.0 0.0 -2.3294502736401768 0.022391093419965813
27.633807216088698 42.23504704510293 0.0 0.0 1.6634104954313713 0.024691312812944233
27.151479041997227 40.775579156784104 0.0 0.0 -2.3444984529358663 0.02732747547214842
26.711563240289838 39.34480243859274 0.0 0.0 1.6467678510920365 0.030374471542511827
26.31866024596025 37.94580903814853 0.0 0.0 -2.363051411453469 0.03391115762871877
25.978082204538083 36.58216259962851 0.0 0.0 1.6260963865994427 0.03807005899988525
25.696010560932983 35.25796427646115 0.0 0.0 -2.3864422193043353 0.04296320580776225
25.479687184571354 33.978035241077 0.0 0.0 1.5999000728695378 0.04885492560655891
25.33768352200242 32.74796620631815 0.0 0.0 -2.4168291392292005 0.05587454408499326
25.280213723293212 31.574546934513503 0.0 0.0 1.566021984780221 0.064634349300011
25.319630729639925 30.465639700075997 0.0 0.0 -2.4580473018079303 0.07514507326656172
25.470945188602517 29.431363900004094 0.0 0.0 1.5216049652269916 0.08905909142666601
25.752829964736996 28.483102964841198 0.0 0.0 -2.5178927566640823 0.10562696816378647
26.188446707628167 27.637160714393673 0.0 0.0 1.4640707385494949 0.12991168368636963
26.807678453071283 26.910043870705422 0.0 0.0 -2.615116479025623 0.15781243637824716
27.648111889252178 26.330414789759324 0.0 0.0 1.396631200547617 0.2063804435722858
28.760096447213456 25.91818931328583 0.0 0.0 -2.8036305408887543 0.2584723963255122
30.205066233244747 25.72424913612295 0.0 0.0 1.3521273240964646 0.3764133552775668
32.062427461200905 25.726387268266958 0.0 0.0 -3.271156027847468 0.49452627081891265
34.39530546582072 25.967022200726234 0.0 0.0 1.5144641664565128 0.867084644555824
37.127229738799386 25.697785523774492 0.0 0.0 -4.884221208597523 1.1723296112140673
39.24504219174341 23.903056963041458 0.0 0.0 4.295834343199864 2.290200462452855
37.95786106425249 21.998540492063626 0.0 0.0 811.5593838780734 -8.190073643689141
105.83404938161603 352.78016460538674 0.0 0.0 -62.93555216560995 -3.7470027081099033e-16
104.93215954606156 348.39572909362073 0.0 0.0 -4.362586725573254 2.3166425722198625e-10
102.84789792773431 339.8109126497477 0.0 0.0 -0.3072504609410105 2.3557980566302206e-10
101.31707523037335 332.0060718724515 0.0 0.0 -4.242096516271507 2.2166019020275485e-10
100.3891449993818 325.0846490498043 0.0 0.0 -0.169916199143211 2.060487891419882e-10
100.05374122087969 319.0509554329696 0.0 0.0 -4.094491345733661 1.903598390029515e-10
100.27665179413333 313.8776009543186 0.0 0.0 -0.014837127800976901 1.7457912893092953e-10
101.00677651898667 309.514447859218 0.0 0.0 -3.9326486547468456 1.5884848991731815e-10
102.1814097155131 305.8947327857459 0.0 0.0 0.1511058885256622 1.4421375205131426e-10
103.7310699549808 302.94094236217506 0.0 0.0 -3.7644900034265127 1.302091767740876e-10
105.58397355159255 300.56993190554687 0.0 0.0 0.3196150216692937 1.1615719497370947e-10
107.66976469880491 298.69748636643163 0.0 0.0 -3.5974074332826733 1.0540945893922071e-10
109.92232664749116 297.2419355624942 0.0 0.0 0.4836971311272338 9.44850864215141e-11
112.28168842243609 296.1267787163158 0.0 0.0 -3.4376770096180134 8.668532558431252e-11
114.69512258795481 295.2823903106728 0.0 0.0 0.6379855468801434 7.493361486865524e-11
117.11757393118621 294.6469391787298 0.0 0.0 -3.2896701379687956 6.659606199832524e-11
119.51157644361453 294.16668154749345 0.0 0.0 0.7791154991828693 5.944844616578848e-11
121.84681341466293 293.7957899622909 0.0 0.0 -3.1557931772948455 5.3860471638245144e-11
124.09945680369437 293.49586785786033 0.0 0.0 0.9055557144483597 4.7401638170185834e-11
126.25139531284329 293.23527518306037 0.0 0.0 -3.036813900829963 4.2810643918755886e-11
128.28943199023627 292.9883630378805 0.0 0.0 1.0171775312130702 3.9122483030951116e-11
130.20450629645867 292.7346880931606 0.0 0.0 -2.9323489639354867 3.2663649562891806e-11
131.9909743855193 292.4582542966582 0.0 0.0 1.1147564588042922 3.309841289933502e-11
133.6459653998767 292.14681075201094 0.0 0.0 -2.8413377560960043 2.959232858756877e-11
135.1688203601572 291.79122089716543 0.0 0.0 1.1995470958056504 3.196953812789616e-11
136.56061288429973 291.3849084753786 0.0 0.0 -2.7624063340169265 2.0816237622511835e-11
137.82374654840473 290.9233795031442 0.0 0.0 1.2729837278685974 3.169287055015957e-11
138.96162136370157 290.40381562939854 0.0 0.0 -2.694105203904171 2.0162538305612543e-11
139.97836090911227 289.8247322433071 0.0 0.0 1.3364977104811686 3.566702488910778e-11
140.87859161539757 289.18569384191926 0.0 0.0 -2.6350448435699128 1.3185008640448359e-11
141.66726617844657 288.48707908921017 0.0 0.0 1.3914207228921995 3.302735862575901e-11
142.34952383675954 287.72988837535837 0.0 0.0 -2.5839614664842103 1.297895124707793e-11
142.9305811173965 286.91558730961265 0.0 0.0 1.438943123651585 2.135447374485011e-11
143.41564753567005 286.0459803122732 0.0 0.0 -2.5397403423083187 1.3533174580970808e-11
143.80986156728738 285.1231092243364 0.0 0.0 1.4801042127997093 2.2374102570665855e-11
144.11824296775012 284.14917257507113 0.0 0.0 -2.501415734907882 8.173905996500253e-12
144.34565817987192 283.1264618097507 0.0 0.0 1.5157991392913104 2.6970869981823853e-11
144.4967961452633 282.0573113702527 0.0 0.0 -2.4681594142119945 1.0063949673622119e-11
144.5761523242112 280.9440600360095 0.0 0.0 1.5467932654149905 4.89297491412799e-12
144.58801913866176 279.7890213760288 0.0 0.0 -2.4392646756159557 5.612399434085091e-12
144.53648139474333 278.5944615393954 0.0 0.0 1.573738850207068 2.1453061549436825e-11
144.42541552259522 277.3625829275029 0.0 0.0 -2.414129598932341 6.232347971035779e-12
144.25849170311406 276.09551255702377 0.0 0.0 1.5971914059750354 1.787281433962562e-11
144.03917814007488 274.79529414258144 0.0 0.0 -2.392241367058472 1.744293598449076e-11
143.77074688929912 273.46388310971025 0.0 0.0 1.6176245253021442 2.0460966254631785e-11
143.45628078108498 272.10314389908336 0.0 0.0 -2.3731623919172673 -3.808509063674137e-12
143.0986810722822 270.71484904594047 0.0 0.0 1.6354427629720565 2.475086802178339e-11
142.70067554488352 269.3006796194162 0.0 0.0 -2.3565184227769773 1.6923351608966186e-11
142.26482683264507 267.8622266886289 0.0 0.0 1.6509925643260495 1.7149837105989718e-11
141.79354080871477 266.4009935493925 0.0 0.0 -2.341988537659528 -6.368239269249898e-12
141.28907490827055 264.9183984999863 0.0 0.0 1.6645714095324493 -4.172662215751188e-12
140.75354629257566 263.41577799826246 0.0 0.0 -2.329296800539426 -1.3843148849446152e-11
140.18893978680828 261.8943900683776 0.0 0.0 1.676435418201077 4.865441383117286e-12
139.5971155435529 260.3554178536234 0.0 0.0 -2.3182053358867982 1.5329959524024162e-12
138.97981640024437 258.7999732353381 0.0 0.0 1.6868056547997057 -3.4443559115970857e-12
138.33867491066482 257.22910045694937 0.0 0.0 -2.3085085839232367 -3.5486280580698804e-11
137.67522004010223 255.6437797061355 0.0 0.0 1.6958733651023934 -1.3880452343073557e-11
136.99088352086653 254.04493062047453 0.0 0.0 -2.300028526063734 -1.6649792655698548e-11
136.28700587043386 252.43341569144985 0.0 0.0 1.703804333220873 -4.4995118742008344e-12
135.5648420782416 250.8100435489074 0.0 0.0 -2.292610703843497 -1.3999468251313374e-11
134.8255669703032 249.17557211406137 0.0 0.0 1.7107425243075838 1.247890679678676e-12
134.07028026260903 247.5307116136354 0.0 0.0 -2.286120883056782 -9.825029678722785e-12
133.30001131584413 245.87612745148556 0.0 0.0 1.7168131420989212 -3.206945820011242e-11
132.51572360469106 244.21244293646697 0.0 0.0 -2.2804422470208863 -3.042188723156869e-11
131.71831891539728 242.54024186779995 0.0 0.0 1.7221252085463021 -1.0116352200384426e-11
130.9086412857467 240.8600709809485 0.0 0.0 -2.2754730216965093 -2.4707347279218084e-11
130.08748070075862 239.17244225596536 0.0 0.0 1.72677375289069 -3.707523177354233e-11
129.25557655801285 237.47783509465182 0.0 0.0 -2.2711244590697177 -3.504396772768814e-11
128.4136209159823 235.77669837236874 0.0 0.0 1.7308416724920441 -4.050093593832571e-11
127.56226153761989 234.06945236731488 0.0 0.0 -2.2673191131466677 -1.865885224106023e-11
126.70210474153298 232.35649057451462 0.0 0.0 1.7344013298796632 -5.855227414031106e-11
125.8337180727759 230.63818141053565 0.0 0.0 -2.263989364414952 -9.100276088247483e-12
124.95763280405448 228.91486981413624 0.0 0.0 1.7375159180404012 -4.121325503092521e-11
124.07434627763527 227.1868787484892 0.0 0.0 -2.261076150980422 -6.855316314613447e-11
123.18432409867074 225.45451061054555 0.0 0.0 1.7402406423671088 -5.2166271302667155e-11
122.28800218859455 223.71804855281576 0.0 0.0 -2.2585278713555823 -2.1934454252914293e-11
121.38578870767039 221.97775772270262 0.0 0.0 1.7426237362247008 -5.5134563581304974e-11
120.47806585560936 220.23388642492588 0.0 0.0 -2.256299438776452 -3.2811087180562026e-11
119.56519155732646 218.48666721082205 0.0 0.0 1.7447073444162555 -2.433075962926523e-11
118.64750104153934 216.7363178986468 0.0 0.0 -2.254351460504818 -4.0738967754805344e-11
117.72530831932288 214.98304253089395 0.0 0.0 1.7465282861378384 -5.446665340969048e-11
116.79890756873469 213.227032271266 0.0 0.0 -2.252649524668975 -2.4979129875646322e-11
115.86857443223563 211.46846624497044 0.0 0.0 1.748118719944216 8.643752380521619e-12
114.93456723176325 209.70751232664236 0.0 0.0 -2.251163582056325 -2.091127271341975e-11
113.99712810771314 207.94432787882334 0.0 0.0 1.7495067198602001 -6.161471333143709e-11
113.0564840863297 206.17906044487884 0.0 0.0 -2.2498674085688037 -5.88329385209363e-11
112.11284808007474 204.41184839804595 0.0 0.0 1.7507167777898545 -6.502176574940677e-11
111.1664198262526 202.64282155054389 0.0 0.0 -2.2487381358667093 -6.393641172053321e-11
110.21738676713116 200.87210172574862 0.0 0.0 1.7517702389067757 -4.214406601477094e-11
109.26592487556644 199.0998032934429 0.0 0.0 -2.247755845555993 -3.290345773621084e-11
108.31219943048501 197.32603367386332 0.0 0.0 1.7526856834302613 5.352163157112955e-12
107.35636574521786 195.55089381138268 0.0 0.0 -2.24690321541949 -7.322142892007832e-12
106.39856985107325 193.77447861767064 0.0 0.0 1.7534792536025563 -3.9248604366548534e-11
105.43894914103797 191.9968773903585 0.0 0.0 -2.246165211281145 -4.672173758990539e-11
104.47763297461199 190.21817420605583 0.0 0.0 1.7541649410346913 -4.091837979558477e-11
103.51474324764233 188.43844829045022 0.0 0.0 -2.245528822318221 -2.1744384071098466e-11
102.5503949290713 186.65777436744668 0.0 0.0 1.7547548333917824 -3.9612757518625585e-11
101.58469656697966 184.8762229877058 0.0 0.0 -2.2449828292590652 -5.965183902389981e-11
100.61775076691212 183.09386083967638 0.0 0.0 1.7552593300081156 5.6269655601681734e-11
99.64965464331402 181.31075104269013 0.0 0.0 -2.2445176082712592 -1.0590639476504293e-10
98.6805002471809 179.5269534250688 0.0 0.0 1.7556873232972805 5.6269655601681734e-11
97.7103749714943 177.74252478813793 0.0 0.0 -2.244124958874515 -8.206590962345217e-11
96.73936193592739 175.9575191557162 0.0 0.0 1.7560463574764391 6.420819431696145e-11
95.76754035226028 174.17198801114034 0.0 0.0 -2.2437979606440344 -7.195666285042535e-11
94.79498587364807 172.38598052544128 0.0 0.0 1.7563427605944426 6.585665346392489e-11
93.82177092753624 170.59954377330314 0.0 0.0 -2.243530848696153 -3.787548052969214e-11
92.84796503422625 168.81272293931437 0.0 0.0 1.7565817567655344 -7.171330196342751e-11
91.87363511336711 167.02556151823637 0.0 0.0 -2.2433189161938003 4.7201353936543455e-11
90.89884577794167 165.2381015058075 0.0 0.0 1.7567675585888125 -1.8521362221690651e-10
89.92365961933233 163.45038358366742 0.0 0.0 -2.2431584273713554 -2.9036328896836494e-11
88.94813748217993 161.6624472983804 0.0 0.0 1.7569034410522875 -1.4275691739840113e-10
87.97233873275253 159.87433123603037 0.0 0.0 -2.243046553636429 -4.218136950839835e-11
86.99632152006438 158.08607319164454 0.0 0.0 1.7569917990875084 -9.728928773711232e-11
86.02014303181208 156.29771033564973 0.0 0.0 -2.2429813232014624 -6.854250500509806e-11
85.04385974617276 154.50927937806986 0.0 0.0 1.757034190236709 -5.910116840368573e-11
84.067527680636 152.72081672966266 0.0 0.0 -2.242961583995026 -8.71978045324795e-11
83.09120263860156 150.93235866273744 0.0 0.0 1.7570313623353542 -8.417799790549907e-11
82.11494045510261 149.14394147064263 0.0 0.0 -2.242986990481782 -8.123635097945225e-11
81.13879724265193 147.35560162769224 0.0 0.0 1.756983265865017 5.801226166113338e-11
80.16282963850365 145.56737595085553 0.0 0.0 -2.2430579880140193 -4.8061110646813177e-11
79.18709505456634 143.77930176189753 0.0 0.0 1.7568890550603342 -2.5423219085496385e-11
78.21165192973861 141.99141705121028 0.0 0.0 -2.24317582677903 2.6567192890070146e-11
77.23655998824422 140.20376064652336 0.0 0.0 1.7567470696528176 1.9397816686250735e-11
76.26188050267203 138.41637238435763 0.0 0.0 -2.2433425829762754 3.3516300845803926e-11
75.28767656440687 136.6292932855023 0.0 0.0 1.756554809254503 1.0786038728838321e-11
74.31401336241126 134.84256573775374 0.0 0.0 -2.2435611937621758 -6.842526545369765e-12
73.34095847115847 133.05623368388663 0.0 0.0 1.7563088867837777 -1.2452261444195756e-11
72.36858214964492 131.27034281575848 0.0 0.0 -2.2438355108885304 6.249578632377961e-11
71.39695765136506 129.48494077723583 0.0 0.0 1.7560049693016282 3.042543994524749e-11
70.42616155008311 127.70007737780733 0.0 0.0 -2.2441703664387376 -1.0729195309977513e-11
69.45627407875277 125.9158048139659 0.0 0.0 1.7556377020465064 1.2003908977931133e-10
68.48737948594928 124.13217790261938 0.0 0.0 -2.2445716615838336 -7.219114195322618e-11
67.51956641050235 122.34925432643033 0.0 0.0 1.7552006136988254 1.5576517853332916e-10
66.5529282766635 120.56709489355593 0.0 0.0 -2.2450464697990142 -2.951487942937092e-10
65.5875637115985 118.78576381243998 0.0 0.0 1.7546859971604931 8.37374614093278e-12
64.62357698590532 117.00532898123325 0.0 0.0 -2.2456031616116405 2.653877118063974e-12
63.66107848274822 115.22586229805927 0.0 0.0 1.754084777343067 7.824496606190223e-11
62.70018519401174 113.44743998831373 0.0 0.0 -2.2462515582716023 4.347811000116053e-11
61.741021249192414 111.67014295456153 0.0 0.0 1.7533863448399387 -6.401990049198503e-12
60.7837184786327 109.89405715076677 0.0 0.0 -2.2470031078257406 3.8546943414985435e-11
59.828417014256495 108.11927398224886 0.0 0.0 1.752578361929558 4.7204906650222256e-11
58.87526593160475 106.34589073333362 0.0 0.0 -2.247871094452698 8.031619813664292e-11
57.92442393658306 104.57401102626642 0.0 0.0 1.7516465339802636 4.793321295437636e-11
56.97606010219215 102.8037453173605 0.0 0.0 -2.248870887715178 1.3647394325744244e-10
56.03035465835056 101.03521142765557 0.0 0.0 1.7505743451169309 2.5497826072751195e-11
55.08749984185374 99.26853511592464 0.0 0.0 -2.250020233600452 6.761879944860993e-11
54.14770081120239 97.50385070155058 0.0 0.0 1.7493427327209972 8.01385624527029e-11
53.21117663425014 95.74130173657362 0.0 0.0 -2.251339601789681 3.015188099197985e-11
52.278161353715525 93.98104173232798 0.0 0.0 1.7479297124616338 -6.66808830374066e-11
51.34890514267446 92.22323495401857 0.0 0.0 -2.2528526082376956 -2.646061147970613e-11
50.42367555816623 90.4680572870541 0.0 0.0 1.7463099166310485 1.33329791651704e-10
49.502758903102475 88.71569717967489 0.0 0.0 -2.254586512048874 4.775202455675753e-11
48.58646171194426 86.96635667738504 0.0 0.0 1.7444540352467257 1.20490284416519e-10
47.67511237336176 85.2202525589118 0.0 0.0 -2.256572843562701 1.4498624523184844e-11
46.769062907716865 83.47761758411819 0.0 0.0 1.7423281251137368 3.5136338283336954e-12
45.86869092066488 81.73870187407931 0.0 0.0 -2.258848178810517 -4.000710873697244e-11
44.9744017548569 80.00377443676389 0.0 0.0 1.7398927319396265 -8.023093300835171e-11
44.08663086808126 78.27312485804914 0.0 0.0 -2.2614551294042755 -2.714841684792191e-10
43.205846471198235 76.54706518573623 0.0 0.0 1.7371017638696529 5.5223381423274986e-11
42.33255246201678 74.82593203172705 0.0 0.0 -2.264443633456601 -9.547207469040586e-11
41.4672917020376 73.11008892406447 0.0 0.0 1.7339010159529593 -1.255706649772037e-10
40.61064968892902 71.39992894833242 0.0 0.0 -2.267872662395753 -1.5899104255368002e-10
39.76325868615479 69.69587772034214 0.0 0.0 1.73022617280688 4.6991743829494226e-11
38.92580238793081 67.99839674327171 0.0 0.0 -2.271812549531404 -1.510223057721305e-10
38.09902120813894 66.3079872140978 0.0 0.0 1.726000082073682 -1.1301182212264393e-11
37.28371829995878 64.62519434662889 0.0 0.0 -2.2763482141353464 -9.864109529189591e-11
36.48076643753029 62.95061229933759 0.0 0.0 1.721128930573606 7.265299473147024e-12
35.69111591586084 61.284889813484064 0.0 0.0 -2.2815837181801797 -1.582272091127379e-10
34.91580365869601 59.62873668793291 0.0 0.0 1.715496788121115 -2.2422597112381482e-10
34.15596376677194 57.98293123307124 0.0 0.0 -2.287648823488503 -2.7258550971964723e-10
33.41283978773952 56.348328896506246 0.0 0.0 1.7089576989385904 5.6129323411369114e-11
32.68779906312845 54.72587227377687 0.0 0.0 -2.2947085955032946 -3.512212742862175e-11
31.98234957739156 53.11660280412229 0.0 0.0 1.701324002661508 -1.8406254298497515e-10
31.298159864517775 51.521674449132156 0.0 0.0 -2.302977710924999 -9.14894826564705e-11
30.63708263581268 49.94236989729556 0.0 0.0 1.6923488314469495 1.382076675326971e-10
30.00118302441175 48.38011964761004 0.0 0.0 -2.3127421826452803 1.319619968853658e-10
29.3927725084717 46.83652509456893 0.0 0.0 1.6816994144842639 -1.5802470443304628e-11
28.814450036768548 45.313385789190214 0.0 0.0 -2.324393088343271 9.658407407187042e-11
28.269152067767656 43.8127336071223 0.0 0.0 1.6689156729107282 -7.359446385635238e-11
27.760214325370946 42.3368726643663 0.0 0.0 -2.338480521687302 -2.5284663252023165e-11
27.29144798122465 40.88843272045659 0.0 0.0 1.6533449359068015 9.447376214666292e-11
26.86723595136306 39.470428772235536 0.0 0.0 -2.355803537154749 7.401723678412964e-11
26.492653266366716 38.08635138742517 0.0 0.0 1.634037849609392 -7.59214913159667e-11
26.17362454735948 36.74025561091988 0.0 0.0 -2.3775695306980325 -8.235545578827441e-11
25.91712268736992 35.43693184454227 0.0 0.0 1.6095831119912063 -9.300293868363951e-11
25.731442758611173 34.182030616414686 0.0 0.0 -2.405702659124053 1.0529888072596805e-10
25.626547424032616 32.98243571764386 0.0 0.0 1.5778574631862554 -1.340403343874641e-10
25.61458380159651 31.84639620083128 0.0 0.0 -2.4435146673005335 1.2096990076315706e-11
25.710523752123677 30.784479559624444 0.0 0.0 1.53571410090683 -1.8176748994847003e-10
25.93325020929722 29.80951227160739 0.0 0.0 -2.497371871802258 -1.1713652270373132e-10
26.306854218524684 28.93939393668763 0.0 0.0 1.478912216340035 8.856915201249649e-12
26.86326445204296 28.1959983908883 0.0 0.0 -2.5813879512015987 -3.595346242946107e-11
27.645294847441047 27.61458947850407 0.0 0.0 1.4038921060947516 -8.79225581229548e-11
28.714293257195834 27.238840548473664 0.0 0.0 -2.7320178231925 -5.53406209746754e-11
30.159523475104066 27.15667776093323 0.0 0.0 1.3189336572638837 6.919620432199736e-11
32.12616295328 27.484362476026647 0.0 0.0 -3.058436394340667 -1.674180793997948e-10
34.85713686046677 28.529271072003468 0.0 0.0 1.3026322998761444 7.777600785630057e-11
38.81359013245839 30.714166982067574 0.0 0.0 -3.9837148279897434 4.7766235411472735e-11
44.82018715033341 35.348961305439566 0.0 0.0 1.8089769281047836 7.475620122932014e-11
52.489247112373924 37.95909172669356 0.0 0.0 -10.541989996350154 -2.609823468446848e-11
51.02956418573236 35.70720719334415 0.0 0.0 -816.3781461895704 -1.056177367786404e-09
105.63125686988815 352.1041895662939 0.0 0.0 -66.84377206958911 1.3461454173580023e-15
104.74905866689905 347.7018714791241 0.0 0.0 -0.38511356831374144 -0.2252422172635148
102.68309829508192 339.0881616378001 0.0 0.0 -4.3256987697000895 -0.25249797483828373
101.19757854063218 331.2918293691952 0.0 0.0 -0.2559721054056219 -0.25357601405642893
100.33992425271246 324.41721718500787 0.0 0.0 -4.181990943184956 -0.24151863279031482
100.0937579556839 318.46249943095205 0.0 0.0 -0.10203203554485007 -0.2192131692276205
100.4177957784095 313.39166603640797 0.0 0.0 -4.019107326662185 -0.18952545428556
101.2537436407577 309.14573958441326 0.0 0.0 0.06624112108407143 -0.15504803918255877
102.5320884107973 305.649633962242 0.0 0.0 -3.847046332091714 -0.11843240073910266
104.17777329818654 302.8183343734984 0.0 0.0 0.23991937799521956 -0.08194390859340095
106.11499587246392 300.56278677846643 0.0 0.0 -3.67381792396011 -0.04734559358920265
108.270937195706 298.79459162871814 0.0 0.0 0.4108657159447642 -0.01588027282981752
110.57842172929824 297.42952736517987 0.0 0.0 -3.506744005921463 0.011699920109955464
112.97757355262586 296.3899544794645 0.0 0.0 0.5727664753380468 0.03505914722732495
115.41661320124679 295.606230260475 0.0 0.0 -3.351039916848759 0.054187969009793946
117.85198428819145 295.0173174052318 0.0 0.0 0.7215302950159179 0.06930730758619275
120.24800653816399 294.5707856992435 0.0 0.0 -3.2097066891805452 0.08078305849881007
122.57622996680018 294.2223971008703 0.0 0.0 0.8551671638850502 0.08905610935542585
124.8146299520916 293.9354341384478 0.0 0.0 -3.0838457377827337 0.09459072593236106
126.94674557994837 293.67989615445566 0.0 0.0 0.9733219354838862 0.0978392818725371
128.96083054428786 293.43165281146736 0.0 0.0 -2.9732138531148165 0.0992206521680874
130.84905937307357 293.17161485122875 0.0 0.0 1.0766968237798036 0.0991087572173932
132.6068121370202 292.884958878117 0.0 0.0 -2.8767738225657338 0.097828282804854
134.23204715303342 292.5604260367519 0.0 0.0 1.1665591686583614 0.09565504363855704
135.72476229938047 292.18970269683706 0.0 0.0 -2.793113672623517 0.09281913912518558
137.08654017583734 291.76688360579067 0.0 0.0 1.2443982627641113 0.08950956348006178
138.32016943252978 291.2880132955835 0.0 0.0 -2.7207181950608823 0.08587938870674616
139.42933333638555 290.7506989740847 0.0 0.0 1.3117172399985702 0.08205095891281156
140.41835644220012 290.1537869881118 0.0 0.0 -2.658123413153848 0.07812077163002584
141.29200065909407 289.4970947149976 0.0 0.0 1.3699224874458107 0.07416387822490611
142.05530276380344 288.78119005802995 0.0 0.0 -2.6039922713949446 0.07023773790534182
142.71344632011485 288.0072113440454 0.0 0.0 1.4202750520128742 0.06638552295347822
143.27166190142879 287.1767211851196 0.0 0.0 -2.5571426637051964 0.06263890759716162
143.73515041125268 286.2915886688362 0.0 0.0 1.4638778676138813 0.05902039205317555
144.10902511827314 285.3538950209534 0.0 0.0 -2.5165491712953854 0.05554521907171228
144.39826875098257 284.36585860517783 0.0 0.0 1.5016817625763608 0.05222294124597315
144.60770262970865 283.3297757724252 0.0 0.0 -2.481331829909891 0.04905869303559385
144.74196535414526 282.2479746403882 0.0 0.0 1.5345000203827244 0.046054216765077705
144.8054990201368 281.12277937496515 0.0 0.0 -2.45073964664535 0.04320868469341388
144.80254132050584 279.9564829640841 0.0 0.0 1.5630257642008463 0.04051935456382916
144.73712220008161 278.7513268282038 0.0 0.0 -2.4241330386861284 0.037982088540536196
144.6130639957368 277.50948590948104 0.0 0.0 1.587849194188232 0.03559176235520223
144.4339842047632 276.23305812824833 0.0 0.0 -2.4009672520250973 0.03334258514351873
144.20330019904537 274.92405730117474 0.0 0.0 1.6094733050880343 0.03122834799280838
143.92423534387603 273.5844087856586 0.0 0.0 -2.3807776256137325 0.029242615315625997
143.59982609436997 272.2159472541501 0.0 0.0 1.6283275881942938 0.02737887094152569
143.23292973472917 270.8204161168861 0.0 0.0 -2.3631669293043354 0.025630627698662423
142.82623249986784 269.3994682052221 0.0 0.0 1.6447796770125915 0.023991509046938475
142.38225787830024 267.95466740514183 0.0 0.0 -2.3477946914094883 0.022455307686866988
141.90337494305348 266.48749099215064 0.0 0.0 1.659145103175252 0.021016027347586785
141.39180659446146 264.9993324695103 0.0 0.0 -2.3343682957998606 0.019667910279174805
140.84963762956693 263.4915047536608 0.0 0.0 1.671695410485679 0.018405454714411462
140.2788225759464 261.9652435832781 0.0 0.0 -2.3226355922976616 0.01722342395121146
139.68119324670397 260.42171105549204 0.0 0.0 1.6826648847760737 0.01611684967566429
139.0584659879042 258.8619992147257 0.0 0.0 -2.31237876679449 0.01508103011359374
138.41224860099894 257.2871336370455 0.0 0.0 1.692256137897818 0.014111525703105698
137.74404693123117 255.6980769656426 0.0 0.0 -2.3034092504148074 0.013204151433102496
137.05527112035188 254.0957323662709 0.0 0.0 1.7006447543504457 0.0123549680743551
136.3472415262007 252.48094687884515 0.0 0.0 -2.2955634757706562 0.011560272185928255
135.62119431602443 250.85451464840892 0.0 0.0 1.7079831695877203 0.010816585302487525
134.87828674236096 249.2171800250655 0.0 0.0 -2.2886993267978646 0.010120642750782949
134.1196021132285 247.56964052604775 0.0 0.0 1.7144039261603155 0.009469382784336844
133.34615446842582 245.91254965657146 0.0 0.0 -2.2826931506737953 0.008859935180128176
132.55889297560572 244.2465195888243 0.0 0.0 1.7200224169901759 0.00828961054701427
131.75870605924356 242.57212370064755 0.0 0.0 -2.2774372341151867 0.007755889776843716
130.9464252765014 240.8898989762453 0.0 0.0 1.7249392099903709 0.007256413789142435
130.12282895343736 239.2003482730568 0.0 0.0 -2.2728376601034483 0.006788973813291577
129.28864559476642 237.5039424592096 0.0 0.0 1.7292420282489545 0.006351502445790302
128.44455708010003 235.80112242635386 0.0 0.0 -2.268812478413638 0.005942064352707277
127.59120165960627 234.0923009842643 0.0 0.0 1.7330074398105495 0.0055588482884960655
126.72917676013327 232.37786464152776 0.0 0.0 -2.2652901397167984 0.005200159091868883
125.8590416143611 230.6581752787678 0.0 0.0 1.736302311129883 0.004864410282854337
124.98131972282646 228.93357171983402 0.0 0.0 -2.2622081490651134 0.0045501173156861086
124.09650115992513 227.20437120662422 0.0 0.0 1.7391850558413964 0.004255890504861526
123.20504473333297 225.47087078270633 0.0 0.0 -2.2595119046284573 0.003980429479311098
122.30738000589712 223.7333485909784 0.0 0.0 1.7417067147583936 0.0037225169125765234
121.40390918917511 221.99206509062898 0.0 0.0 -2.2571536936823087 0.003481013547315115
120.49500891661283 220.24726419812106 0.0 0.0 1.743911888758003 0.003254852505341077
119.58103190362435 218.4991743567382 0.0 0.0 -2.2550918242371516 0.0030430354011645733
118.66230850278724 216.7480095390354 0.0 0.0 1.745839550285158 0.0028446270953832453
117.73914816004856 214.99397018639172 0.0 0.0 -2.2532898686213194 0.0026587519942165017
116.81184077881336 213.23724408978035 0.0 0.0 1.7475237453898238 0.002484589860776154
115.88065799792898 211.478007215286 0.0 0.0 -2.2517160096378745 0.002321372562777313
114.94585438867388 209.71642447754556 0.0 0.0 1.7489942048972438 0.0021683799732468145
114.00766857706888 207.95265046564208 0.0 0.0 -2.250342469495404 0.0020249377552357117
113.06632429520418 206.18683012292362 0.0 0.0 1.7502768774249482 0.001890413290556836
112.12203136722047 204.41909938474555 0.0 0.0 -2.249145013910219 0.0017642136892934701
111.17498663388379 202.64958577710888 0.0 0.0 1.7513943904987528 0.0016457826734832537
110.22537481956795 200.8784089773676 0.0 0.0 -2.2481025211399626 0.0015345984312471472
109.27336934642585 199.10568134192795 0.0 0.0 1.7523664533961423 0.0014301709762012393
108.31913309805185 197.33150840021636 0.0 0.0 -2.2471966067246925 0.0013320402820902189
107.3628191369162 195.5559893190074 0.0 0.0 1.7532102079389205 0.0012397740248104583
106.4045713786085 193.77921733968174 0.0 0.0 -2.2464112971656505 0.0011529657626887513
105.44452522571356 192.00128018847232 0.0 0.0 1.7539405302803992 0.001071233296592311
104.48280816389872 190.2222604626087 0.0 0.0 -2.245732746693765 0.000994216481446486
103.51954032337983 188.44223599360504 0.0 0.0 1.754570296265765 0.0009215763550525224
102.5548350078987 186.6612801904968 0.0 0.0 -2.2451489932248876 0.0008529928850311563
101.58879919379896 184.8794623630309 0.0 0.0 1.7551106067714777 0.0007881643716256548
100.6215340006461 183.09684802630366 0.0 0.0 -2.24464974699454 0.0007268048489237344
99.65313513669365 181.31349918939685 0.0 0.0 1.7555709863483209 0.0006686448174431092
98.68369332019063 179.52947462842147 0.0 0.0 -2.2442262076815496 0.0006134275955318458
97.71329467875883 177.74483014543245 0.0 0.0 1.755959549818762 0.0005609108954711672
96.74202112846987 175.9596188138962 0.0 0.0 -2.243870910015371 0.0005108624328951095
95.76995073456195 174.17389121212113 0.0 0.0 1.7562831461165977 0.00046306310563615227
94.79715805491443 172.38769564612795 0.0 0.0 -2.243577591566126 0.00041730160204878075
93.82371446841131 170.60107836236378 0.0 0.0 1.7565474784472315 0.00037337689364136395
92.84968848905665 168.81408375110527 0.0 0.0 -2.243341082273492 0.0003310954975894731
91.875146067756 167.02675454204964 0.0 0.0 1.7567572053888014 0.00029027129221859127
90.90015088219585 165.2391319923832 0.0 0.0 -2.2431572141253824 0.0002507247989846917
89.92476461773815 163.45125606844024 0.0 0.0 1.7569160242966433 0.00021228155030961204
88.94904723822654 161.66316562145298 0.0 0.0 -2.2430227460475045 0.0001747726948835293
87.97305725059448 159.87489855874998 0.0 0.0 1.757026734101018 0.0001380329286266857
86.99685196198992 158.08649201058478 0.0 0.0 -2.2429353079630907 0.00010190067416360193
86.02048773245238 156.29798249389793 0.0 0.0 1.757091286374461 6.621669689188536e-05
85.04402022270514 154.50940607292506 0.0 0.0 -2.2428933580223642 3.082418232480677e-05
84.06750463934438 152.7207985181103 0.0 0.0 1.7571108180832056 -4.4331661364083175e-06
83.09099597797461 150.93219546364793 0.0 0.0 -2.2428961568737904 -3.9710228950440296e-05
82.11454926518388 149.14363256461965 0.0 0.0 1.7570856758625268 -7.516231256232686e-05
81.13821980124897 147.3551456538617 0.0 0.0 -2.242943753036407 -0.00011094579157600037
80.16206340348309 145.5667709004657 0.0 0.0 1.7570154160622096 -0.00014721797703742823
79.18613665243603 143.77854496958352 0.0 0.0 -2.243036984616836 -0.00018413902483160882
78.21049714095665 141.9905051832233 0.0 0.0 1.7568988023182968 -0.00022187136849538547
77.23520372804752 140.20268968529018 0.0 0.0 -2.243177493710583 -0.00026058149894225835
76.26031679900834 138.41513761092966 0.0 0.0 1.756733780017008 -0.0003004400335981927
75.28589853119102 136.6278892589807 0.0 0.0 -2.2433677553163207 -0.00034162276159932503
74.31201316894978 134.840986270554 0.0 0.0 1.7565174423926138 -0.0003843115390118612
73.3387273072109 133.05447181349916 0.0 0.0 -2.2436111213567003 -0.0004286946692424465
72.36611018598386 131.26839077386714 0.0 0.0 1.7562459783793827 -0.00047496878249830843
71.39423399635947 129.48278995577127 0.0 0.0 -2.2439118786008265 -0.0005233380063991433
70.42317420065206 127.69771828897656 0.0 0.0 1.7559146049660086 -0.000574016633578367
69.45300986645316 125.91322704755572 0.0 0.0 -2.244275326356828 -0.0006272293841753651
68.48382401775315 124.1293700789274 0.0 0.0 1.755517483566699 -0.0006832119438442419
67.51570400426289 122.34620404451282 0.0 0.0 -2.2447078702931975 -0.0007422137107546689
66.54874188955252 120.56378867472391 0.0 0.0 1.7550476155474968 -0.0008044965009190719
65.58303486293268 118.7821870380199 0.0 0.0 -2.245217132577608 -0.0008703389421995666
64.6186856725166 117.0014658250526 0.0 0.0 1.7544967165760497 -0.0009400343154979396
63.655803087040276 115.22169565235743 0.0 0.0 -2.245812094273937 -0.0010138956950029865
62.694502383995015 113.44295138363445 0.0 0.0 1.7538550707165186 -0.0010922545168376985
61.734905869639014 111.66531247239658 0.0 0.0 -2.2465032522031976 -0.0011754642207577604
60.77714343298325 109.88886332858368 0.0 0.0 1.753111353324961 -0.0012639015153261823
59.82135313555969 108.11369370885227 0.0 0.0 -2.247302811259047 -0.0013579681857578407
58.86768184240904 106.33989913587584 0.0 0.0 1.7522524237990567 -0.0014580943447377592
57.91628589669594 104.56758134786993 0.0 0.0 -2.248224907084044 -0.0015647392493001178
56.96733184140683 102.79684877982825 0.0 0.0 1.7512630834666894 -0.001678396913483482
56.02099719499006 101.0278170837616 0.0 0.0 -2.2492858732502157 -0.0017995962674568489
55.07747128323672 99.26060968856642 0.0 0.0 1.7501257887171988 -0.0019289066546015476
54.13695613552292 97.4953584040699 0.0 0.0 -2.250504549163871 -0.002066940933456607
53.1996674490139 95.73220407418174 0.0 0.0 1.7488203082111013 -0.0022143609154881005
52.26583563116437 93.97129728558856 0.0 0.0 -2.251902656828186 -0.0023718810327153506
51.33570692610318 92.21279913786981 0.0 0.0 1.74732332165852 -0.002540275149854665
50.409544635698005 90.45688208060771 0.0 0.0 -2.253505241149817 -0.002720383453702624
49.48763044477904 88.7037308261317 0.0 0.0 1.7456079228579924 -0.002913118916819002
48.57026586398819 86.95354334827776 0.0 0.0 -2.255341216006869 -0.003119477566727369
47.657773801246904 85.20653197500721 0.0 0.0 1.7436430246512415 -0.003340547388955173
46.750500282380756 83.46292458891837 0.0 0.0 -2.2574440256115835 -0.0035775210977639915
45.84881633527633 81.72296594867959 0.0 0.0 1.7413926160050224 -0.0038317093740261043
44.95312006160807 79.9869191473588 0.0 0.0 -2.2598524858163813 -0.004104557754452287
44.06383892027665 78.2550672260768 0.0 0.0 1.7388148130625964 -0.004397664991440564
43.181432252195094 76.52771496370632 0.0 0.0 -2.2626118472410752 -0.004712805943100307
42.306394080422876 74.8051908667589 0.0 0.0 1.7358606481820118 -0.005051957812774788
41.43925622772229 73.08784939114804 0.0 0.0 -2.2657751964305604 -0.005417331904489231
40.58059179649225 71.37607342500944 0.0 0.0 1.7324724601467238 -0.005811410634493086
39.73101906984553 69.6702770742792 0.0 0.0 -2.2694053072628435 -0.006236993130482205
38.891205899003246 67.97090879401674 0.0 0.0 1.7285817313917136 -0.006697246818685443
38.061874656740585 66.278454919549 0.0 0.0 -2.2735771788175754 -0.007195773471824651
37.24380785257245 64.59344366296361 0.0 0.0 1.7241061061033491 -0.007736685325447468
36.43785451979879 62.916449640078675 0.0 0.0 -2.2783815611283416 -0.008324698609026626
35.644937512911454 61.248099023553756 0.0 0.0 1.7189452106370595 -0.008965247085377825
34.866061877335085 59.58907542103143 0.0 0.0 -2.2839299363678123 -0.009664618535083491
34.102324489722 57.94012660160945 0.0 0.0 1.7129746764731308 -0.010430127706516856
33.35492520684384 56.30207221333315 0.0 0.0 -2.2903617200058477 -0.0112703150107194
32.625179817528405 54.675812684641926 0.0 0.0 1.7060374591606973 -0.012195221621681185
31.914535160890892 53.06233950104915 0.0 0.0 -2.297854802433278 -0.013216673390008538
31.224586845344845 51.462747172576 0.0 0.0 1.697931030615905 -0.014348748697695868
30.55710013722274 49.87824712006492 0.0 0.0 -2.306641270620098 -0.015608156649360438
29.914034685829815 48.310184096220816 0.0 0.0 1.6883881920545107 -0.017015116556112986
29.29757400325241 46.76005527739004 0.0 0.0 -2.3170312968050837 -0.018593728874758852
28.71016072586477 45.22953342517643 0.0 0.0 1.6770479230103774 -0.020373903973300855
28.154539238854678 43.72049356997321 0.0 0.0 -2.329450273380651 -0.02239109335751266
27.63380721297093 42.23504704428415 0.0 0.0 1.6634104956191607 -0.024691312742522342
27.151479038979176 40.775579156065376 0.0 0.0 -2.344498452663032 -0.0273274753577617
26.71156323735069 39.344802438204944 0.0 0.0 1.6467678507838883 -0.03037447154091666
26.31866024306063 37.94580903766915 0.0 0.0 -2.3630514116785477 -0.033911157524187274
25.97808220144451 36.58216259874779 0.0 0.0 1.6260963864278253 -0.038070059024626346
25.69601055795959 35.25796427552817 0.0 0.0 -2.386442219272773 -0.04296320571733503
25.479687181652523 33.97803524005693 0.0 0.0 1.5999000729397537 -0.04885492580677919
25.337683518840166 32.74796620519158 0.0 0.0 -2.4168291391737355 -0.055874543911766494
25.280213720198518 31.574546933458876 0.0 0.0 1.5660219847740677 -0.0646343494645194
25.319630726566427 30.46563969920002 0.0 0.0 -2.4580473019287084 -0.07514507320714969
25.47094518542595 29.43136389901169 0.0 0.0 1.5216049655104342 -0.08905909139243207
25.752829961730125 28.48310296381041 0.0 0.0 -2.5178927567603537 -0.10562696837412133
26.188446704612893 27.637160713235183 0.0 0.0 1.4640707384380747 -0.12991168354615112
26.807678450104255 26.91004386953149 0.0 0.0 -2.6151164789453176 -0.15781243626064878
27.64811188630018 26.330414788607744 0.0 0.0 1.396631200903002 -0.20638044355802876
28.76009644440173 25.91818931186635 0.0 0.0 -2.8036305414558527 -0.2584723967276936
30.205066230574662 25.724249134742045 0.0 0.0 1.3521273237550062 -0.37641335514146235
32.06242745899336 25.72638726709697 0.0 0.0 -3.271156027653703 -0.49452627110676417
34.3953054639126 25.96702219993697 0.0 0.0 1.5144641661847302 -0.867084644516563
37.12722973716555 25.69778552337125 0.0 0.0 -4.884221208516188 -1.172329611333545
39.2450421901531 23.903056962469208 0.0 0.0 4.295834342981223 -2.290200462640847
37.95786106266466 21.998540491320814 0.0 0.0 811.5593838773245 8.190073641600462
105.00094533543452 350.00315111811506 0.0 0.0 -62.56439544242022 -6.938893903907228e-16
104.18274164066845 345.54717726935405 0.0 0.0 -4.447807962300437 -0.47588275686592424
102.18285033194995 336.85280019890985 0.0 0.0 -0.3793801730641029 -0.5304121701907686
100.847585710139 329.0979904532069 0.0 0.0 -4.300050916432648 -0.5274965772568935
100.21812533968408 322.3854895356626 0.0 0.0 -0.2123898758489977 -0.49626863711469427
100.25782948153287 316.6910815268678 0.0 0.0 -4.121851515250477 -0.44416002874949323
100.90150980370694 311.95099652874694 0.0 0.0 -0.028111688393875234 -0.3770066986089862
102.06657636092174 308.0771848877364 0.0 0.0 -3.9326302535994864 -0.3015281771699847
103.66230195550216 304.9669776615407 0.0 0.0 0.16302633205529915 -0.22343701831160195
105.59703270409113 302.51239720353635 0.0 0.0 -3.7423697423091484 -0.14738465121761513
107.7835434054431 300.60695316854435 0.0 0.0 0.350099806375586 -0.07681392525159136
110.14267326843502 299.1504902669059 0.0 0.0 -3.5604112183744885 -0.013945397392290726
112.60533178462394 298.0522540296894 0.0 0.0 0.5254260080058621 0.040074491534453305
115.11316190479396 297.23241746242354 0.0 0.0 -3.392848063232713 0.08495524917118313
117.61825347832685 296.62242713567395 0.0 0.0 0.68448529142404 0.12101430064209096
120.0822844175529 296.16455108494523 0.0 0.0 -3.2426951917446925 0.14895727444627838
122.47538379503354 295.8109627435957 0.0 0.0 0.8256107698685575 0.16969922488574252
124.77491641226008 295.5226082822069 0.0 0.0 -3.1105046484756396 0.18423467700309315
126.9643086318327 295.2680222768421 0.0 0.0 0.9491132551866812 0.19354924780838134
129.03197829441388 295.02218974877843 0.0 0.0 -2.9953399304533934 0.19856543766978074
130.97039476067977 294.76550629185493 0.0 0.0 1.0563547760957235 0.2001131677668111
132.77527344265442 294.4828578827224 0.0 0.0 -2.8955725134969903 0.19891768334791227
134.44489752437687 294.16282417481017 0.0 0.0 1.1491104302016932 0.1955986021517353
135.97955412537107 293.7969992283191 0.0 0.0 -2.8093680159780505 0.19067572005331623
137.3810703101106 293.37941888054524 0.0 0.0 1.2292125968308447 0.18457840513389812
138.65243445724218 292.9060821683914 0.0 0.0 -2.734937636586114 0.17765652297715917
139.79748958292853 292.37455411440766 0.0 0.0 1.2983795588768476 0.17019157045136524
140.8206867002254 291.78363795151824 0.0 0.0 -2.670649958966686 0.16240725210113194
141.72688787999746 291.13310603029794 0.0 0.0 1.358147074169846 0.15447908816094635
142.52121019978213 290.42347994985107 0.0 0.0 -2.6150683940023587 0.14654288319441378
143.20890315050835 289.6558517363264 0.0 0.0 1.4098526752544167 0.1387020277909392
143.79525329002354 288.8317390865034 0.0 0.0 -2.5669519409687545 0.13103369050820746
144.28551098533026 287.9529687657821 0.0 0.0 1.4546449001468638 0.12359400137913878
144.6848349817454 287.02158319070327 0.0 0.0 -2.525239532517014 0.11642234577511079
144.99825129311898 286.0397660393708 0.0 0.0 1.4935028227628084 0.109544891278758
145.2306235400229 285.0097834283874 0.0 0.0 -2.4890284308186903 0.10297746276201813
145.38663238941373 283.9339377842491 0.0 0.0 1.5272584733960066 0.09672787150040119
145.4707621854914 282.8145320337878 0.0 0.0 -2.4575518512817345 0.09079779060156934
145.48729322162708 281.65384215438627 0.0 0.0 1.5566185985146586 0.08518425704048793
145.44029839916507 280.4540964723366 0.0 0.0 -2.430158184306787 0.07988086757757351
145.33364326215772 279.2174603867338 0.0 0.0 1.5821842400253772 0.07487872659243289
145.17098859510617 277.94602543562644 0.0 0.0 -2.4062927266048844 0.0701671916640274
144.95579493373964 276.6418018203262 0.0 0.0 1.6044676554682447 0.06573445729715122
144.69132846985778 275.30671366671436 0.0 0.0 -2.385482097897552 0.06156800788820682
144.38066793909002 273.94259643762035 0.0 0.0 1.6239066089264504 0.05765496671347492
144.02671216687924 272.5511960212284 0.0 0.0 -2.3673211765120614 0.05398236109741106
143.63218801805021 271.13416911112313 0.0 0.0 1.6408762873419729 0.05053732264235222
143.19965855211586 269.69308456854515 0.0 0.0 -2.3514622473120337 0.04730723408188808
142.7315312317873 268.2294255179346 0.0 0.0 1.6556991731412918 0.04427983631463217
142.23006606822997 266.74459197657325 0.0 0.0 -2.337606025514294 0.04144330227924087
141.69738361654126 265.2399038602044 0.0 0.0 1.6686532042157616 0.03878628659201233
141.1354727569969 263.71660423861476 0.0 0.0 -2.325494235985323 0.03629795542423331
140.54619821686583 262.17586274233895 0.0 0.0 1.6799785260613547 0.03396800203260408
139.93130780134717 260.6187790431489 0.0 0.0 -2.31490346660609 0.03178665034780437
139.29243931433476 259.0463863488314 0.0 0.0 1.6898830907331224 0.029744651185610316
138.6311271573859 257.45965486602006 0.0 0.0 -2.3056400613551595 0.027833271269182447
137.94880860323644 255.8594951969389 0.0 0.0 1.6985473223916756 0.026044278583850833
137.24682974464017 254.2467616444468 0.0 0.0 -2.2975358552389 0.024369924248219377
136.52645112356154 252.62225540738694 0.0 0.0 1.706128018902664 0.022802922528228464
135.7888530480949 250.98672765333723 0.0 0.0 -2.2904445974385776 0.021336429607828222
135.03514060772255 249.34088246120655 0.0 0.0 1.7127616364376372 0.01996402179211465
134.26634839748203 247.68537962904293 0.0 0.0 -2.2842389340308955 0.01867967333078191
133.48344496352186 246.0208373447223 0.0 0.0 1.718567065402425 0.017477735016607987
132.68733698289876 244.3478347207538 0.0 0.0 -2.278807850747466 0.016352912508551753
131.87887319035607 242.66691419467642 0.0 0.0 1.723647987328981 0.015300245942587942
131.05884806537162 240.9785837979714 0.0 0.0 -2.2740544949563386 0.014315090125778696
130.22800529208578 239.2833192980435 0.0 0.0 1.7280948903576387 0.013393095068368055
129.3870410049583 237.5815662175645 0.0 0.0 -2.2698943134377476 0.012530188335917458
128.53660683204478 235.8737417359555 0.0 0.0 1.7319867922537604 0.011722557474660888
127.67731274783324 234.16023647858674 0.0 0.0 -2.2662534528822356 0.010966634028124034
126.80972974688854 232.441416198921 0.0 0.0 1.7353927258874897 0.0102590776403364
125.93439234917946 230.71762335920766 0.0 0.0 -2.2630673814632587 0.00959676209987137
125.05180094702347 228.98917861485825 0.0 0.0 1.738373018629055 0.00897676108874812
124.16242400398865 227.25638220768806 0.0 0.0 -2.2602796998817993 0.008396336010354943
123.26670011399182 225.51951527317985 0.0 0.0 1.74098040005034 0.007852923054283423
122.36503993046637 223.77884106682927 0.0 0.0 -2.2578411089874493 0.007344122718748736
121.45782797289601 222.0346061141598 0.0 0.0 1.7432609610018694 0.006867688433121799
120.54542431892949 220.28704128937335 0.0 0.0 -2.2557085176158296 0.006421517229034279
119.62816618939706 218.5363628264094 0.0 0.0 1.745254987678166 0.006003639991913445
118.70636943263196 216.7827732666283 0.0 0.0 -2.2538442638772906 0.0056122129812923305
117.78032991503693 215.02646234703306 0.0 0.0 1.7469976860130103 0.005245509251633251
116.85032482380521 213.2676078331296 0.0 0.0 -2.252215440625964 0.004901911486111743
115.91661388753381 211.50637629993426 0.0 0.0 1.7485198112562443 0.004579904183762196
114.9794405198903 209.74292386352926 0.0 0.0 -2.2507933071834074 0.0042780679996727855
114.03903289119452 207.97739686709645 0.0 0.0 1.7498482176811123 0.003995071938739159
113.09560493349387 206.20993252462856 0.0 0.0 -2.2495527767318357 0.003729668801085495
112.1493572826256 204.44065952414917 0.0 0.0 1.7510063355611898 0.003480688799443854
111.20047816131861 202.6696985935909 0.0 0.0 -2.248471971067694 0.0032470348419675332
110.24914420836379 200.89716303231907 0.0 0.0 1.7520145880207991 0.0030276773991708694
109.29552125610743 199.1231592092211 0.0 0.0 -2.2475318318356194 0.002821650113141061
108.33976506114533 197.34778703111942 0.0 0.0 1.752890752516958 0.002628045345772989
107.38202198933809 195.57114038193856 0.0 0.0 -2.2467157840324354 0.0024460103483470164
106.42242966087142 193.7933075362024 0.0 0.0 1.753650276245743 0.0022747435114105485
105.46111755577519 192.0143715476548 0.0 0.0 -2.246009440878609 0.0021134903837243257
104.49820758418745 190.23441061442128 0.0 0.0 1.7543065482797715 0.001961540983447918
103.53381462300703 188.45349842368717 0.0 0.0 -2.2454003514335845 0.0018182260435413156
102.56804702160952 186.6717044756388 0.0 0.0 1.7548711367186698 0.0016829149583603709
101.6010070786529 184.88909438899393 0.0 0.0 -2.2448777789231116 0.0015550113675235622
100.63279149277629 183.10573019078237 0.0 0.0 1.7553539931551505 0.0014339527014897158
99.66349178797859 181.32167058896403 0.0 0.0 -2.244432512760863 0.0013192055005504244
98.69319471654387 179.53697123042414 0.0 0.0 1.7557636287911151 0.0012102651594023683
97.72198264107782 177.75168494654233 0.0 0.0 -2.24405670486723 0.0011066515013968825
96.74993389679582 175.96586198559862 0.0 0.0 1.7561072636429316 0.0010079091832917442
95.77712313664104 174.17955023361847 0.0 0.0 -2.243743731375236 0.0009136026411624698
94.80362165958127 172.39279542516726 0.0 0.0 1.7563909536606772 0.0008233175825402839
93.82949772459136 170.60564134492472 0.0 0.0 -2.243488076376103 0.0007366559582813181
92.85481685108847 168.81813002032874 0.0 0.0 1.7566196990274534 0.0006532366938980516
91.87964210729865 167.0303019067071 0.0 0.0 -2.243285233982501 0.0005726924811568779
90.90403438800269 165.2421960654286 0.0 0.0 1.756797531420677 0.0004946687200586553
89.92805268224998 163.45385033532935 0.0 0.0 -2.24313162908863 0.0004188221648071533
88.95175433328856 161.66530149975014 0.0 0.0 1.7569275854510664 0.0003448187012331516
87.97519529107791 159.8765854486184 0.0 0.0 -2.2430245541143137 0.00027233275615401453
86.9984303580674 158.08773733568194 0.0 0.0 1.7570121532163014 0.0002010453020115932
86.02151343106225 156.29879173414767 0.0 0.0 -2.2429621222683664 0.0001306424173144194
85.04449773822044 154.50978278871358 0.0 0.0 1.7570527247176457 6.081414318970246e-05
84.0674360730751 152.72074436524107 0.0 0.0 -2.242943231908818 -8.746813776383533e-06
83.0903810275982 150.9317102012502 0.0 0.0 1.7570500161056515 -7.834679428597724e-05
82.1133852235511 149.14271405396332 0.0 0.0 -2.2429675506588325 -0.00014829233881741288
81.13650154370227 147.3537898482616 0.0 0.0 1.7570039799385526 -0.00021889148420406457
80.1597833655364 145.56497182740824 0.0 0.0 -2.243035506272797 -0.00029045496588153696
79.183284796153 143.77629470394814 0.0 0.0 1.7569138060076455 -0.0003632981742534014
78.20706091044383 141.987793812121 0.0 0.0 -2.243148295111226 -0.0004377424605408464
77.23116799387276 140.1995052638889 0.0 0.0 1.7567779054394492 -0.0005141151825007739
76.25566379076972 138.41146610898153 0.0 0.0 -2.243307904647068 -0.0005927538091867746
75.28060775906123 136.62371449853921 0.0 0.0 1.7565938848862004 -0.000674004697504671
74.30606133233384 134.8362898537332 0.0 0.0 -2.243517146235149 -0.0007582266651233738
73.33208819122079 133.04923304003853 0.0 0.0 1.7563585024940025 -0.0008457913919883708
72.35875454452142 131.2625865484186 0.0 0.0 -2.243779706226917 -0.0009370857823647327
71.38612942183192 129.47639468387314 0.0 0.0 1.7560676113290867 -0.0010325134518538448
70.41428497892707 127.69070376257301 0.0 0.0 -2.2441002090416475 -0.0011324968394035295
69.44329681702328 125.90556231727082 0.0 0.0 1.7557160869023605 -0.0012374782905979487
68.47324431771338 124.12102131366771 0.0 0.0 -2.2444843017118288 -0.0013479238853584263
67.504210994996 122.33713437825442 0.0 0.0 1.7552977365433051 -0.001464323544762891
66.5362848663783 120.55395803737247 0.0 0.0 -2.2449387523996336 -0.001587195303837774
65.56955884422189 118.77155197233989 0.0 0.0 1.7548051871452728 -0.0017170862123627728
64.60413115011778 116.98997928699805 0.0 0.0 -2.2454715688234756 -0.001854576259454177
63.640105752176424 115.20930679090026 0.0 0.0 1.7542297583183384 -0.002000280467374438
62.67759283118837 113.4296053034243 0.0 0.0 -2.246092143102018 -0.002154852739675306
61.7167092743154 111.65094997541028 0.0 0.0 1.7535613053200834 -0.0023189883931848954
60.75757920058246 109.87342063162484 0.0 0.0 -2.246811419272973 -0.002493428866468861
59.8003345205289 108.09710213699344 0.0 0.0 1.7527880373919231 -0.0026789650040655033
58.845115534270214 106.32208478827782 0.0 0.0 -2.247642088528032 -0.002876441476548308
57.8920715679262 104.54846473162783 0.0 0.0 1.7518963039138598 -0.0030867630351210096
56.94136165602674 102.7763444120832 0.0 0.0 -2.248598822904114 -0.0033108977118629923
55.99315527137463 101.00583305537477 0.0 0.0 1.75087034474344 -0.003549885212269288
55.047633106732356 99.23704718551973 0.0 0.0 -2.249698542489284 -0.003804841430280703
54.104987915013766 97.4701111827128 0.0 0.0 1.7496919990778892 -0.00407696840109395
53.165425409994455 95.70515788350546 0.0 0.0 -2.250960735848288 -0.004367559727914028
52.229165237353214 93.94232922910247 0.0 0.0 1.7483403573828795 -0.004678013949291682
51.29644201942362 92.1817769663911 0.0 0.0 -2.252407835727581 -0.005009842083591565
50.36750648310806 90.42366340784456 0.0 0.0 1.746791354417482 -0.005364682023284217
49.44262667894197 88.66816225483755 0.0 0.0 -2.254065660998428 -0.005744311814723346
48.52208929930539 86.91545949195205 0.0 0.0 1.745017281001509 -0.006150667030844659
47.606201109591254 85.16575436100912 0.0 0.0 -2.2559639590615745 -0.0065858583774911494
46.69529050063657 83.41926042171276 0.0 0.0 1.7429861909312123 -0.007052194189284933
45.789709179207364 81.67620671159172 0.0 0.0 -2.258137053057176 -0.007552206425842201
44.889834012547055 79.93683901422546 0.0 0.0 1.7406611794400035 -0.008088679087375539
43.99606904195182 78.20142124804279 0.0 0.0 -2.260624656449444 -0.008664683525804406
43.10884769086624 76.47023699449008 0.0 0.0 1.7379994736725308 -0.009283619812208599
42.22863518813556 74.74359117753309 0.0 0.0 -2.2634728860890405 -0.009949262557103822
41.35593123495663 73.02181191306228 0.0 0.0 1.734951289907933 -0.010665820474862642
40.49127294925618 71.30525255329944 0.0 0.0 -2.2667355686799766 -0.01143800011761087
39.63523812375282 69.59429394741953 0.0 0.0 1.7314583298407555 -0.012271089027784399
38.788448839820404 67.8893469454369 0.0 0.0 -2.27047596009497 -0.013171047394493485
37.95157548804055 66.19085517274803 0.0 0.0 1.7274518101609075 -0.014144623202803075
37.125341255891094 64.49929811500417 0.0 0.0 -2.274769041196258 -0.015199487802085798
36.310527146572575 62.815194549032604 0.0 0.0 1.7228497750950993 -0.016344399382187902
35.507977610354104 61.13910635704337 0.0 0.0 -2.2797046585032135 -0.017589398060174233
34.71860688006534 59.471642779613305 0.0 0.0 1.717553406005628 -0.018946049283329103
33.943406116685914 57.813465149678095 0.0 0.0 -2.2853918937772164 -0.020427724923798962
33.1834514888705 56.165292170324506 0.0 0.0 1.7114418369763698 -0.022049973921671295
32.43991333287095 54.52790578651266 0.0 0.0 -2.291965246723926 -0.023830923831944517
31.714066554615883 52.90215773044607 0.0 0.0 1.7043647831120126 -0.02579187979642228
31.007302473188965 51.28897676051254 0.0 0.0 -2.2995934892847174 -0.02795786640644593
30.321142316575674 49.68937674325533 0.0 0.0 1.6961319547686813 -0.03035868806365727
29.65725263757527 48.10446545374842 0.0 0.0 -2.308492517469226 -0.03302952178036023
29.017462893756292 46.535454450518 0.0 0.0 1.6864977458188761 -0.03601308750166865
28.403785569726793 44.9836693991416 0.0 0.0 -2.3189442199609758 -0.03935967706220822
27.818439028561325 43.45056197106577 0.0 0.0 1.675139117156931 -0.0431324608851682
27.26387366444223 41.93772083552564 0.0 0.0 -2.3313245938261176 -0.0474042042899292
26.742801125343654 40.4468858011124 0.0 0.0 1.6616241908887375 -0.05227255753715454
26.258227674451724 38.979955939641904 0.0 0.0 -2.346146710405044 -0.05784248543640658
25.813489685058148 37.53900675601395 0.0 0.0 1.645370056239095 -0.06427563172582396
25.41229399987924 36.12628300040375 0.0 0.0 -2.3641297129255463 -0.07171649807319014
25.058754517405944 34.74422340257907 0.0 0.0 1.6255959015828907 -0.08046258135545514
24.75743391966985 33.39539557839774 0.0 0.0 -2.3863209670224563 -0.09067676875109143
24.51335779936194 32.08255077218406 0.0 0.0 1.6013110848896304 -0.10299379469962133
24.33203356692039 30.808353148018426 0.0 0.0 -2.414350477351661 -0.11743261772141977
24.21935356224322 29.575561208372832 0.0 0.0 1.5715097443408368 -0.13559418824988256
24.181501981498894 28.386025434514163 0.0 0.0 -2.4510775970308103 -0.15660114234135136
24.224419450896036 27.241371276477604 0.0 0.0 1.536245445660569 -0.18512687457713284
24.35325407054729 26.13932199516671 0.0 0.0 -2.502532056019966 -0.21632086876613954
24.570108809055093 25.07618770701686 0.0 0.0 1.5011793232884685 -0.2652650035214883
24.871511008282738 24.032957191552843 0.0 0.0 -2.584269071525 -0.31104264996634257
25.238944196072904 22.983486000853492 0.0 0.0 1.4960350624105416 -0.40526497116632143
25.62640994411803 21.83874115633283 0.0 0.0 -2.7418996840898515 -0.4627376210120069
25.917803014762406 20.471971321125668 0.0 0.0 1.6575723356434082 -0.6674875421553281
25.863763228417206 18.485797052003136 0.0 0.0 -3.099049312289914 -0.649859920507204
24.935604015025582 15.476428417253233 0.0 0.0 2.7790014449011267 -1.1039630277326182
23.045071976456505 12.736581814922076 0.0 0.0 -3.0674019454648516 0.6801064630832059
23.15301658365651 12.137457006108491 0.0 0.0 -803.356244962682 4.711940123493655
103.86245558375597 346.2081852791866 0.0 0.0 -66.0488586483408 7.632783294297951e-16
103.19015361085495 341.6853750115697 0.0 0.0 -0.5660015531012412 -0.7833052170189159
101.33262355046827 332.89192929747014 0.0 0.0 -4.477153277136479 -0.8626409020779879
100.3026117057335 325.2655920691657 0.0 0.0 -0.3733271143829766 -0.8434209374600126
100.11906475095415 318.90436926130593 0.0 0.0 -4.266593707192623 -0.7766793400458645
100.70040065475149 313.733063156182 0.0 0.0 -0.15444236303858005 -0.6756509524891368
101.93037782694621 309.62867022864157 0.0 0.0 -4.0399564972403645 -0.5545674180803994
103.68023455381542 306.44366992320647 0.0 0.0 0.07374713348221995 -0.4247836369584406
105.82152677385156 304.0249970815249 0.0 0.0 -3.814923392540538 -0.296003600044491
108.23547660340726 302.2252373344552 0.0 0.0 0.29258533701405387 -0.1754772550380297
110.81897772924113 300.910490175699 0.0 0.0 -3.604846629471455 -0.06780311175527842
113.48698642907564 299.96473221796884 0.0 0.0 0.49196778009294384 0.024725530375475535
116.17217491714855 299.2910094716643 0.0 0.0 -3.417396894389109 0.10156797623808478
118.82302491640726 298.81047659186856 0.0 0.0 0.6669435081576918 0.16334864169110586
121.40130400501366 298.46029823701764 0.0 0.0 -3.2548868733644527 0.21138100380506541
123.87950979254401 298.191159798379 0.0 0.0 0.8173861290864997 0.24731158578361123
126.23857625908178 297.9648290635593 0.0 0.0 -3.115876437743016 0.2728831143492565
128.46594924505348 297.7519842360529 0.0 0.0 0.9457233144565143 0.2897860785550799
130.5540359251674 297.53038102553035 0.0 0.0 -2.9974104164836017 0.29957606407130877
132.498986391554 297.2833555535944 0.0 0.0 1.0551132086859702 0.30363412721289773
134.29975044849 296.9986251257954 0.0 0.0 -2.8963384054438635 0.3031551695940373
135.95735347405375 296.6673381915108 0.0 0.0 1.1485737969266197 0.2991527547407693
137.47434257179418 296.28332575992334 0.0 0.0 -2.809840584811307 0.29247310307425156
138.85436335069838 295.8425125500467 0.0 0.0 1.2286992844148248 0.2838133170669963
140.10183629919777 295.3424534764359 0.0 0.0 -2.735552621794477 0.2737408993735162
141.2217090044602 294.78196807129297 0.0 0.0 1.2976330466432433 0.2627127706198218
142.21926626221995 294.1608514238645 0.0 0.0 -2.671536516058068 0.25109284618225036
143.09998456861737 293.479645059972 0.0 0.0 1.3571260153175349 0.2391677188079835
143.86942082773268 292.7394549719541 0.0 0.0 -2.6162096859948107 0.22716031908366574
144.53312759284663 291.94180692214036 0.0 0.0 1.4086103087834374 0.21524160307195483
145.0965889983803 291.08853136099304 0.0 0.0 -2.5682740269472895 0.20354041714675564
145.5651729021609 290.1816719858981 0.0 0.0 1.4532648088670879 0.19215173538872543
145.94409577230857 289.22341324873673 0.0 0.0 -2.5266567597770653 0.18114347782157747
146.23839761489094 288.2160231012688 0.0 0.0 1.4920677406312368 0.1705621131546784
146.4529248155638 287.16180802287914 0.0 0.0 -2.4904640887924048 0.16043723327164816
146.5923192113877 286.06307796303156 0.0 0.0 1.5258373332882353 0.15078526768757694
146.66101205118153 284.92211929038984 0.0 0.0 -2.458945591315125 0.14161248372614477
146.66322177162493 283.7411742055459 0.0 0.0 1.5552630064232584 0.13291739827783244
146.60295472825933 282.5224253643652 0.0 0.0 -2.4314668740497574 0.12469270652706577
146.48400818974983 281.26798469244613 0.0 0.0 1.5809293906598914 0.11692681769750912
146.3099750392289 279.979885559443 0.0 0.0 -2.4074884203663656 0.1096050701211766
146.08424973623372 278.6600776351325 0.0 0.0 1.6033350062075087 0.10271068850977816
145.8100351812698 277.3104238744959 0.0 0.0 -2.386549049290167 0.09622553177939874
145.49035019705656 275.93269918050606 0.0 0.0 1.6229069530487035 0.09013067404904973
145.12803739902049 274.52859037733356 0.0 0.0 -2.3682528301838994 0.08440685080922439
144.7257712753481 273.09969719542613 0.0 0.0 1.6400126010337797 0.07903479869582952
144.28606633554077 271.64753402610773 0.0 0.0 -2.3522586098278184 0.07399550960711743
143.81128521799442 270.1735322498199 0.0 0.0 1.6549689986971146 0.06927041810350953
143.30364667300094 268.67904298027463 0.0 0.0 -2.3382715377377767 0.06484153519905256
142.76523335743258 267.1653400976588 0.0 0.0 1.6680505255671108 0.060691541221604695
142.19799939510767 265.6336234699353 0.0 0.0 -2.326036137576656 0.05680384547020978
141.60377766944538 264.0850222821179 0.0 0.0 1.6794951803317772 0.05316262178790154
140.9842868261248 262.52059841033355 0.0 0.0 -2.3153305885241267 0.04975282393804292
140.3411379718787 260.9413497914745 0.0 0.0 1.6895097934454455 0.046560187479428805
139.67584106216674 259.34821375076876 0.0 0.0 -2.3059619636977473 0.04357121969730393
138.98981097630426 257.74207025874404 0.0 0.0 1.6982743844442858 0.04077318235731564
138.2843732816447 256.12374509598055 0.0 0.0 -2.2977622354726126 0.038154068347107994
137.56076969246425 254.49401291058084 0.0 0.0 1.7059458318494585 0.03570257454282544
136.82016323139618 252.8536001577958 0.0 0.0 -2.290584898636089 0.03340807194010331
136.06364310227315 251.2031879153715 0.0 0.0 1.712660982808373 0.03126057457558051
135.29222928538286 249.54341457049551 0.0 0.0 -2.2843021015537275 0.029250707436073498
134.50687686613622 247.87487837699285 0.0 0.0 1.7185393057345912 0.027369674584916126
133.7084801093019 246.19813988381065 0.0 0.0 -2.2788021932407148 0.025609227532154222
132.8978762902737 244.51372423581807 0.0 0.0 1.7236851605019226 0.023961634298040657
132.075849296348 242.82212335072458 0.0 0.0 -2.273987617275724 0.022419649572453793
131.2431330092002 241.1237979750176 0.0 0.0 1.7281897519185598 0.020976485972273196
130.40041448015947 239.41917962339684 0.0 0.0 -2.269773098988745 0.019625786299794612
129.5483369109065 237.70867240697055 0.0 0.0 1.732132816178293 0.018361597339272784
128.68750244916396 235.99265475425693 0.0 0.0 -2.2660840771226276 0.017178345098669112
127.81847481092217 234.2714810302832 0.0 0.0 1.735584079037281 0.01607081083493611
126.94178173901426 232.54548305856338 0.0 0.0 -2.262855345035952 0.015034109048004396
126.0579173079796 230.81497155154247 0.0 0.0 1.7386045219347572 0.01406366608535592
125.16734408424061 229.0802374538811 0.0 0.0 -2.2600298718110405 0.013155200548430557
124.27049515063403 227.34155320338684 0.0 0.0 1.7412474819553019 0.0123047044034017
123.36777600345502 225.59917391440197 0.0 0.0 -2.2575577758719234 0.011508425673101286
122.45956632980555 223.85333848805357 0.0 0.0 1.743559607953177 0.010762851722773803
121.54622167305367 222.10427065346943 0.0 0.0 -2.2553954323809506 0.010064693961915339
120.62807499312463 220.35217994464332 0.0 0.0 1.7455816948343568 0.009410873238586248
119.70543812843127 218.59726261642126 0.0 0.0 -2.2535046948475923 0.008798506335230272
118.77860316536047 216.83970250260896 0.0 0.0 1.7473494105139338 0.00822489308171015
117.84784372163631 215.0796718211115 0.0 0.0 -2.251852216079257 0.0076875045551965115
116.91341614890499 213.31733192887756 0.0 0.0 1.7488939289042555 0.007183971846851378
115.97556065931025 211.55283402896737 0.0 0.0 -2.250408856972367 0.006712075609769386
115.03450238209177 209.78631983465198 0.0 0.0 1.750242483839223 0.006269735908340124
114.09045235325986 208.0179221911084 0.0 0.0 -2.2491491690530907 0.00585500375280823
113.1436084438704 206.24776565851505 0.0 0.0 1.751418850424347 0.005466051548324913
112.19415623038446 204.47596705986157 0.0 0.0 -2.24805094503483 0.005101165784886064
111.24226981085386 202.70263599379595 0.0 0.0 1.7524437663048467 0.0047587389978129835
110.28811257123338 200.9278753166708 0.0 0.0 -2.2470948254920273 0.0044372627866309244
109.33183790393886 199.151781594628 0.0 0.0 1.7533352976794205 0.004135321254370439
108.3735898827635 197.3744455281394 0.0 0.0 -2.2462639572011405 0.0038515844440656366
107.41350389707334 195.5959523511584 0.0 0.0 1.7541091596525185 0.0035848029956380145
106.45170724729331 193.81638220560797 0.0 0.0 -2.2455436952450682 0.0033338019076953884
105.48831970528205 192.0358104943941 0.0 0.0 1.7547789917480827 0.003097476111493691
104.5234540414719 190.25430821286227 0.0 0.0 -2.2449213449611953 0.0028747848530681352
103.55721652078013 188.47194226079816 0.0 0.0 1.7553566001145349 0.002664747911341081
102.58970737067166 186.6887757373788 0.0 0.0 -2.2443859368972596 0.0024664401029941274
101.62102122215573 184.9048682185438 0.0 0.0 1.7558521640344225 0.002278989009816712
100.65124752602986 183.12027601890603 0.0 0.0 -2.243928035279499 0.00210156871662015
99.68047094681447 181.33505244020313 0.0 0.0 1.7562744184465622 0.0019333987742324865
98.70877173539648 179.54924800570123 0.0 0.0 -2.2435395698473606 0.0017737384092324504
97.7362260818175 177.76291068192734 0.0 0.0 1.756630804965699 0.0016218852760090385
96.76290645117865 175.97608609045292 0.0 0.0 -2.243213694070217 0.0014771703956100168
95.78888190207783 174.188817708344 0.0 0.0 1.756927604456397 0.0013389573364914753
94.81421839083549 172.40114705928158 0.0 0.0 -2.242944664856001 0.0012066371824488442
93.83897906147772 170.61311389645775 0.0 0.0 1.7571700478578727 0.001079628001605215
92.86322452402914 168.8247563781698 0.0 0.0 -2.24272774065194 0.0009573703216716467
91.88701312107044 167.03611123528208 0.0 0.0 1.7573624076097616 0.0008393263314783184
90.91040118451909 165.247213932634 0.0 0.0 -2.242559098482335 0.0007249763333305737
89.93344328365022 163.45809882555997 0.0 0.0 1.7575080744722875 0.0006138169241740599
88.95619246519986 161.6687993110634 0.0 0.0 -2.2424357665866346 0.0005053590691765919
87.97870048689153 159.87934797458982 0.0 0.0 1.7576096154403587 0.0003991249433497046
87.00101804519176 158.08977673357484 0.0 0.0 -2.2423555705189777 0.0002946473286264961
86.02319499843183 156.3001169780387 0.0 0.0 1.7576688201681776 0.00019146603480812985
85.0452805864671 154.5103997088491 0.0 0.0 -2.242317096983534 8.912710569930482e-05
84.06732364746922 152.7206556743291 0.0 0.0 1.7576867316904057 -1.282015558956573e-05
83.08937283243047 150.93091550507103 0.0 0.0 -2.2423196676651216 -0.00011482455567701777
82.11147682006062 149.1412098494827 0.0 0.0 1.7576636666612373 -0.00021733540609503166
81.13368453057554 147.35156950886955 0.0 0.0 -2.242363327969919 -0.0003208039219337877
80.15604534156297 145.562025572997 0.0 0.0 1.7575992190596281 -0.00042568576143864334
79.17860930495841 143.77260955656067 0.0 0.0 -2.242448846199167 -0.0005324431264064344
78.20142736781168 141.98335353876433 0.0 0.0 1.7574922532890085 -0.0006415462283335671
77.22455159690874 140.19429030516093 0.0 0.0 -2.242577729584866 -0.0007534758862952629
76.2480354074435 138.4054534904329 0.0 0.0 1.7573408853288655 -0.0008687255897434909
75.27193379895566 136.61687772878278 0.0 0.0 -2.2427522482377 -0.000987803567827683
74.29630359815691 134.82859880702608 0.0 0.0 1.7571424484949816 -0.0011112349669133437
73.32120370857675 133.04065382097727 0.0 0.0 -2.2429754767706385 -0.0012395646405032323
72.34669537087633 131.2530813408772 0.0 0.0 1.7568934474399 -0.0013733594417146833
71.37284243316442 129.4659215814247 0.0 0.0 -2.2432513471190774 -0.001513210178941904
70.39971163249318 127.67921657987054 0.0 0.0 1.7565894952960974 -0.001659735639382376
69.42737288967528 125.8930103828078 0.0 0.0 -2.2435847185371216 -0.001813584194440665
68.45589961825351 124.10734924067371 0.0 0.0 1.7562252379755847 -0.001975437175513406
67.48536904859128 122.32228181352119 0.0 0.0 -2.2439814639473354 -0.002146012963955002
66.51586257027421 120.53785938785188 0.0 0.0 1.7557942610582629 -0.0023260684808334986
65.54746609176213 118.75413610479642 0.0 0.0 -2.2444485701226995 -0.0025164052575661344
64.58027042154208 116.97116920137131 0.0 0.0 1.7552889715469036 -0.0027178707836377214
63.61437166997166 115.1890192655249 0.0 0.0 -2.244994264776203 -0.0029313649889850524
62.649871676559464 113.4077505083179 0.0 0.0 1.7547004717620425 -0.003157842780282749
61.68687846222967 111.62743105174835 0.0 0.0 -2.2456281579580804 -0.0033983209580554785
60.72550670993133 109.84813323437419 0.0 0.0 1.754018397151306 -0.0036538809423518614
59.765878276067454 108.06993393799003 0.0 0.0 -2.246361414110183 -0.003925677206897404
58.80812273335803 106.29291493517458 0.0 0.0 1.7532307355897245 -0.004214941786315762
57.85237795079756 104.51716325880918 0.0 0.0 -2.247206946404127 -0.0045229916655387115
56.89879071047662 102.74277159774493 0.0 0.0 1.7523236139666665 -0.004851237106528572
55.9475173667998 100.96983872080382 0.0 0.0 -2.248179648596839 -0.005201188038615356
54.99872454964629 99.19846992873889 0.0 0.0 1.751281053253713 -0.005574466494511654
54.05258991553955 97.4287775384738 0.0 0.0 -2.24929665576569 -0.005972813652746822
53.10930295111863 95.6608814010525 0.0 0.0 1.750084684293789 -0.006398104034452956
52.16906583216981 93.89490945755539 0.0 0.0 -2.2505776550984606 -0.006852357312055801
51.23209434422623 92.13099833647668 0.0 0.0 1.7487134146652537 -0.007337752804840392
50.298618867048965 90.3692939929267 0.0 0.0 -2.2520452368696056 -0.00785664730690172
49.36888543117204 88.60995239645277 0.0 0.0 1.7471430517756517 -0.008411592825730452
48.44315684972539 86.85314026939164 0.0 0.0 -2.253725309944798 -0.009005359181458061
47.52171393432637 85.09903588184443 0.0 0.0 1.7453458524805612 -0.009640957696749552
46.60485679836235 83.34782990501795 0.0 0.0 -2.255647578260003 -0.010321670528860238
45.692906258108145 81.59972632837196 0.0 0.0 1.7432900079941973 -0.011051083252191063
44.78620533757032 79.8549434477921 0.0 0.0 -2.2578461098358247 -0.011833122929658657
43.88512088701864 78.1137149284595 0.0 0.0 1.7409390269617901 -0.012672102513011652
42.99004532243036 76.37629094594956 0.0 0.0 -2.260359999852156 -0.013572771092448477
42.10139849732229 74.6429394124666 0.0 0.0 1.738251011448888 -0.014540376842933966
41.21962971584712 72.91394729411974 0.0 0.0 -2.2632341704243686 -0.015580734236479543
40.34521989857726 71.1896220215117 0.0 0.0 1.7351777770408532 -0.016700309600196306
39.4786839117542 69.47029299912955 0.0 0.0 -2.2665203314900566 -0.017906317971270624
38.62057307063954 67.75631321401036 0.0 0.0 1.7316637921253744 -0.019206838967022577
37.771477827812234 66.0480609444523 0.0 0.0 -2.270278163976606 -0.020610952201320032
36.93203065530474 64.34594156505585 0.0 0.0 1.7276448587143562 -0.022128902170294396
36.102909128510476 62.650389440969036 0.0 0.0 -2.274576794422856 -0.023772289857451057
35.28483921539439 60.961869895959225 0.0 0.0 1.7230464652344892 -0.02555430509901413
34.4785987678145 59.28088122635222 0.0 0.0 -2.2794966427603285 -0.027489999511828955
33.68502120579344 57.607956728010556 0.0 0.0 1.7177816992717538 -0.02959662776062899
32.90499937068528 55.94366667300594 0.0 0.0 -2.2851317782179663 -0.03189402508725081
32.13948950321027 54.2886201591392 0.0 0.0 1.711748608516075 -0.034405132673729355
31.389515276974688 52.643466696684 0.0 0.0 -2.2915928990110643 -0.037156496771206804
30.65617177157422 51.00889739182476 0.0 0.0 1.7048268770005848 -0.040179142385440514
29.940629217830587 49.38564541511337 0.0 0.0 -2.299011047622045 -0.043509121646071236
29.24413624520037 47.77448553821295 0.0 0.0 1.696873843451904 -0.0471891869294403
28.56802226720424 46.17623200721619 0.0 0.0 -2.3075420076695323 -0.051268914368673535
27.913698389004573 44.591734524781195 0.0 0.0 1.6877202157831945 -0.05580857785019688
27.282656089935365 43.02187048427209 0.0 0.0 -2.3173709271679996 -0.060876786627030555
26.676462259258624 41.467533743286864 0.0 0.0 1.6771670065560471 -0.06656131655213215
26.096749122039988 39.92961472526029 0.0 0.0 -2.3287156887031912 -0.07295612996761136
25.54519565443986 38.40897513977056 0.0 0.0 1.6649884108126827 -0.08019602692275285
25.023497785517634 36.906401242480115 0.0 0.0 -2.341825483882687 -0.08840222892867544
24.533318775801966 35.42255222424105 0.0 0.0 1.650954547792061 -0.09780187403860197
24.0762154839983 33.95785070984928 0.0 0.0 -2.3569674685379027 -0.10851713907581484
23.653517066236947 32.51238539475832 0.0 0.0 1.6349154837708113 -0.12099261305020903
23.266152427097584 31.085643227521338 0.0 0.0 -2.374391267507832 -0.13520152998347967
22.914357854775506 29.676347875693487 0.0 0.0 1.6170740049795214 -0.15219970188413612
22.597277914067707 28.28175920796367 0.0 0.0 -2.3942724109608164 -0.171172489093685
22.312247282269297 26.897495972181968 0.0 0.0 1.5988583515464043 -0.19512598443654383
22.053864806539416 25.515572492457242 0.0 0.0 -2.416723467931412 -0.2199526050051155
21.812180482782768 24.124680450464915 0.0 0.0 1.5857924080201116 -0.25534084088050335
21.570589418465456 22.704451483125432 0.0 0.0 -2.442331653297906 -0.28434033904007805
21.301288774397015 21.22901402462706 0.0 0.0 1.5973729645834496 -0.3403446950945579
20.961317235570007 19.650927791611977 0.0 0.0 -2.474710175587731 -0.35723461575006965
20.483286570201095 17.92420505432394 0.0 0.0 1.7022402716725935 -0.4544922942137113
19.778111152267524 15.974941652043023 0.0 0.0 -2.5277803876718323 -0.37421829809731477
18.745115861264544 13.840816945835492 0.0 0.0 2.1221435704539218 -0.5697944922208613
17.454013616507766 11.93584613297173 0.0 0.0 -2.6644162309977446 0.060710268798281675
16.38430317161446 10.399904337960102 0.0 0.0 1.7222045464140479 -0.5704249714197864
16.58785515619919 9.859306791401977 0.0 0.0 800.9025556579755 5.553081584453125
102.07890130291769 340.2630043430589 0.0 0.0 -61.2341771190999 1.3877787807814457e-16
101.67429181107993 335.66469045463793 0.0 0.0 -4.722687789533075 -1.2002718650381785
100.12933323775071 326.8175892741679 0.0 0.0 -0.5980160062775006 -1.2923128206929178
99.67089078512771 319.5354499949844 0.0 0.0 -4.4595104485396915 -1.227534234001158
100.27424882440047 313.8711799427946 0.0 0.0 -0.31055468269668474 -1.0861573872223849
101.76109117671915 309.6462528370811 0.0 0.0 -4.160625603985803 -0.9025545009618265
103.92443238165147 306.6190902653712 0.0 0.0 -0.015340462837147406 -0.6983066791382195
106.55750382944538 304.54216797414017 0.0 0.0 -3.8752135949037214 -0.49378672673676194
109.47556197701527 303.18199052135503 0.0 0.0 0.2575426004366985 -0.30369034167176756
112.5288249931219 302.33625886096104 0.0 0.0 -3.618902626425703 -0.1363531539185141
115.6047036668601 301.84142761531285 0.0 0.0 0.4943910908027336 0.004922253486000894
118.6235911011157 301.5718228245449 0.0 0.0 -3.402741782782869 0.12017484085529517
121.53226344479683 301.4343965445302 0.0 0.0 0.6901406276148956 0.21132628845314494
124.2972614356629 301.36215655652654 0.0 0.0 -3.2261681220204665 0.28119046905194756
126.89927372128116 301.3079442438081 0.0 0.0 0.849263984139438 0.332846651040111
129.32877326847935 301.2392286023062 0.0 0.0 -3.0826182681914087 0.36929153693384986
131.58280607051282 301.1340413443581 0.0 0.0 0.9790696800961332 0.39326111823564835
133.66271248007033 300.97793406539984 0.0 0.0 -2.964878929533565 0.4071594920998063
135.57255240481035 300.7617615724492 0.0 0.0 1.086228166378568 0.4130455601916836
137.31803898509756 300.4800953190137 0.0 0.0 -2.8670139888458177 0.4126512969163425
138.9058287576579 300.13010057975816 0.0 0.0 1.1759016014296755 0.40741402795353365
140.3430563086414 299.7107470006653 0.0 0.0 -2.784594487914407 0.3985138117398481
141.63703375061323 299.22225512905027 0.0 0.0 1.2518633805384312 0.38691060192115634
142.7950597634883 298.6657082834331 0.0 0.0 -2.7144133874628484 0.3733787989155264
143.82430059402577 298.04277957346005 0.0 0.0 1.3168416141611399 0.35853803792840466
144.7317178190666 297.35553890081417 0.0 0.0 -2.6541422870631735 0.34287996176302293
145.52402621585955 296.6063155413931 0.0 0.0 1.372833633142367 0.32679108837718784
146.20767085737722 295.797599486695 0.0 0.0 -2.6020571112499633 0.3105721120358682
146.78881640018434 294.93196998968506 0.0 0.0 1.421338070823424 0.29445404146970455
147.27334406437504 294.01204338409997 0.0 0.0 -2.5568456017209806 0.27861159899911314
147.66685345080163 293.0404347229344 0.0 0.0 1.4635124897030547 0.2631742800972332
147.97466739706732 292.01972946622 0.0 0.0 -2.5174793157723956 0.24823543718037566
148.2018387438796 290.9524625907649 0.0 0.0 1.5002768249810199 0.23385970847655235
148.35315830314633 289.8411032693507 0.0 0.0 -2.4831302089405507 0.22008906919860838
148.4331635796545 288.68804379369516 0.0 0.0 1.5323806541433012 0.20694774245800618
148.4461479572979 287.4955917756173 0.0 0.0 -2.453116286725991 0.19444616996208453
148.39617015793868 286.26596490903756 0.0 0.0 1.5604472575418065 0.18258421104837996
148.28706383973662 285.00128774906204 0.0 0.0 -2.426865711378902 0.17135370971500485
148.12244723753923 283.70359008764194 0.0 0.0 1.585003035204192 0.16074054670705218
147.90573277093273 282.37480659498266 0.0 0.0 -2.403892521923426 0.1507262718966622
147.64013655960542 281.01677746165785 0.0 0.0 1.6064977057231165 0.14128939713644195
147.32868779712393 279.631249827404 0.0 0.0 -2.383779687002728 0.13240641338773962
146.97423794127909 278.21987982123505 0.0 0.0 1.6253186536139506 0.12405258644315875
146.57946968693182 276.7842350692081 0.0 0.0 -2.366166845238853 0.1162025734898453
146.14690569248458 275.3257975512415 0.0 0.0 1.6418015010462668 0.1088308970106473
145.67891703687593 273.84596670909775 0.0 0.0 -2.3507411074034668 0.10191230359654746
145.17773138894094 272.3460627249671 0.0 0.0 1.6562381809407487 0.09542203201458133
144.64544087529103 270.8273299043295 0.0 0.0 -2.337229911878545 0.08933600852162371
144.08400963734996 269.29094010960773 0.0 0.0 1.6688833078357064 0.08363098528899915
143.49528107182334 267.73799620071924 0.0 0.0 -2.32539530469605 0.07828463355094684
142.88098475159967 266.169535447138 0.0 0.0 1.6799593442701095 0.07327560224570906
142.24274302811813 264.5865328842794 0.0 0.0 -2.315029246094735 0.06858354865261163
141.582077317232 262.9899045920902 0.0 0.0 1.6896608871679035 0.0641891493033322
140.90041407409072 261.3805108797226 0.0 0.0 -2.3059496808034226 0.06007409374863215
140.19909046310448 259.75915936386275 0.0 0.0 1.6981582817434422 0.05622106784098513
139.47935973125732 258.12660793199626 0.0 0.0 -2.2979972030285296 0.052613727318210124
138.74239629359153 256.4835675850278 0.0 0.0 1.705600709742967 0.049236665955935344
137.9893005407991 254.8307051554594 0.0 0.0 -2.2910321914769067 0.04607537899191172
137.22110337932384 253.16864590035408 0.0 0.0 1.7121188494745034 0.04311622445273411
136.43877051509378 251.49797596877255 0.0 0.0 -2.2849323342711614 0.040346382399549796
135.6432064914863 249.8192447450885 0.0 0.0 1.7178271833290353 0.037753814017569276
134.83525849317587 248.13296707084478 0.0 0.0 -2.2795904768320945 0.03532722079802397
134.01571992667164 246.4396253475916 0.0 0.0 1.7228260076505109 0.03305600410368914
133.1853337889134 244.73967152527794 0.0 0.0 -2.2749127440887467 0.030930225774961073
132.34479583452253 243.03352897963742 0.0 0.0 1.7272031854027468 0.02894057052485355
131.4947575522672 241.32159428288622 0.0 0.0 -2.2708169005589696 0.02707830865136529
130.6358289613728 239.6042388727543 0.0 0.0 1.73103568279749 0.025335261779993345
129.7685812369057 237.88181062387244 0.0 0.0 -2.2672309146360163 0.023703769065484437
128.89354917488313 236.15463532685396 0.0 0.0 1.7343909117934615 0.02217665520054979
128.01123350495473 234.4230180789724 0.0 0.0 -2.264091700027411 0.0207472010716252
127.1221030606945 232.68724459137331 0.0 0.0 1.7373279077910055 0.019409114590649423
126.22659681479871 230.94758241730102 0.0 0.0 -2.2613440138256173 0.01815650433362137
125.32512578817249 229.2042821056747 0.0 0.0 1.7398983617816945 0.016983853844052987
124.41807483956302 227.4575782838707 0.0 0.0 -2.2589394916538943 0.015885998314296046
123.50580434373488 225.7076906740646 0.0 0.0 1.7421475244036024 0.014858101471812546
122.58865176429055 223.95482504668936 0.0 0.0 -2.2568357989839 0.01389563524415749
121.66693312824472 222.1991741152949 0.0 0.0 1.744114997916384 0.012994359572713776
120.74094440797519 220.4409183756939 0.0 0.0 -2.254995891827342 0.012150303766182091
119.81096281654625 218.68022689274366 0.0 0.0 1.745835430663032 0.011359749439270317
118.87724802166878 216.9172580385092 0.0 0.0 -2.2533873660274004 0.010619213976374553
117.94004328350259 215.15216018410717 0.0 0.0 1.7473391250223926 0.009925434955604828
116.99957652139982 213.38507234883025 0.0 0.0 -2.251981888561872 0.00927535648413702
116.05606131350697 211.616124808783 0.0 0.0 1.74865256837424 0.008666115007914144
115.10969783376459 209.84543966692118 0.0 0.0 -2.250754700735893 0.008095026978253372
114.16067373112112 208.0731313887614 0.0 0.0 1.7497988996419593 0.007559577083748437
113.20916495317273 206.29930730443402 0.0 0.0 -2.2496841826414204 0.007057407243243219
112.25533651905812 204.52406807914164 0.0 0.0 1.7507983149296216 0.0065863058080086745
111.29934324461271 202.7475081552398 0.0 0.0 -2.248751472789042 0.0061441983542707135
110.34133042255814 200.96971616673318 0.0 0.0 1.7516684227385184 0.005729137817336749
109.38143446125716 199.19077532877193 0.0 0.0 -2.247940137629925 0.005339296807258975
108.4197834840015 197.4107638030618 0.0 0.0 1.752424554939239 0.004972958673800321
107.45649789302672 195.62975504159004 0.0 0.0 -2.2472358809531556 0.004628510433930089
106.49169089826388 193.84781810931764 0.0 0.0 1.7530800350723155 0.004304435700611009
105.52546901562738 192.06501798751867 0.0 0.0 -2.2466262928178757 0.00399930761097167
104.5579325351934 190.28141585982425 0.0 0.0 1.7536464137660843 0.0037117828992396795
103.58917596277115 188.49706938116068 0.0 0.0 -2.246100631642957 0.0034405956910763535
102.61928843509054 186.71203293113368 0.0 0.0 1.7541336711082423 0.0031845524073439435
101.64835411239663 184.9263578537767 0.0 0.0 -2.2456496337145033 0.0029425256956958634
100.67645254845952 183.14009268275635 0.0 0.0 1.7545503938068592 0.002713450284165475
99.70365904052295 181.35328335497374 0.0 0.0 -2.2452653519918613 0.0024963176798351583
98.73004496094632 179.5659734131561 0.0 0.0 1.7549039257535064 0.0022901725337174383
97.75567807090721 177.77820419695473 0.0 0.0 -2.2449410142181954 0.002094106777807525
96.78062281883253 175.99001502505965 0.0 0.0 1.7552004973286408 0.0019072580991377208
95.80494062376566 174.20144336812618 0.0 0.0 -2.2446709043820334 0.001728803361395137
94.82869014563613 172.4125250132108 0.0 0.0 1.755445334170581 0.0015579578128921412
93.85192754356231 170.62329422183845 0.0 0.0 -2.2444502630509575 0.0013939689995616789
92.87470672315338 168.8337838810738 0.0 0.0 1.7556427512919157 0.0012361154474120895
91.89707957314943 167.04402564736392 0.0 0.0 -2.244275201078519 0.0010837019346645604
90.9190961943463 165.25405008631515 0.0 0.0 1.7557962282809783 0.0009360579847754735
89.94080511991716 163.46388680754166 0.0 0.0 -2.2441426340942883 0.0007925336535734573
88.96225352897866 161.67356459438489 0.0 0.0 1.7559084696696985 0.0006524971680921254
87.98348745405751 159.88311153063785 0.0 0.0 -2.244050225453382 0.0005153321831912194
87.0045519840657 158.09255512470554 0.0 0.0 1.7559814530839617 0.00038043488634897926
86.02549146243241 156.30192243036413 0.0 0.0 -2.2439963467094834 0.00024721146748518663
85.04634968237612 154.51124016541098 0.0 0.0 1.7560164649259633 0.00011507565437796075
84.06717007966374 152.72053483005158 0.0 0.0 -2.2439800475383294 -1.6554520556155694e-05
83.08799592405437 150.92983282347743 0.0 0.0 1.7560141219301144 -0.0001482585125138769
82.10887050901766 149.13916055913813 0.0 0.0 -2.244001041851014 -0.0002806159144128628
81.12983734349959 147.34854458246966 0.0 0.0 1.7559743835981223 -0.00041420987307283497
80.15094034251332 145.5580116870058 0.0 0.0 -2.2440596989348585 -0.0005496285507256005
79.1722240204635 143.76758903213943 0.0 0.0 1.755896549673082 -0.0006874685221589516
78.19373368761512 141.97730426327786 0.0 0.0 -2.2441570518834766 -0.000828336741292901
77.21551564915913 140.18718563266793 0.0 0.0 1.7557792485584542 -0.0009728542215725611
76.2376174094237 138.39726212529226 0.0 0.0 -2.244294817074813 -0.0011216575947159413
75.26008788067902 136.6075635859131 0.0 0.0 1.7556204135747322 -0.0012754028970967113
74.2829775987133 134.81812085012788 0.0 0.0 -2.244475421123447 -0.001434768214672033
73.30633894517673 133.02896588096397 0.0 0.0 1.7554172463464965 -0.0016004565534473159
72.33022637817712 131.24013190908877 0.0 0.0 -2.244702045855 -0.0017731990029403732
71.35469667229904 129.45165357995882 0.0 0.0 1.7551661683709199 -0.001953758933055383
70.3798091683233 127.66356710628389 0.0 0.0 -2.244978682733418 -0.0021429330727649187
69.40562603452834 125.87591042741991 0.0 0.0 1.7548627571084623 -0.0023415587562780615
68.43221254008652 124.08872337673087 0.0 0.0 -2.245310203354478 -0.002550514723235864
67.45963734294594 122.30204785753364 0.0 0.0 1.7545016693354683 -0.002770725976496635
66.48797279106859 120.51592802733059 0.0 0.0 -2.245702446933848 -0.0030031696497836435
65.51729524141015 118.73041049286901 0.0 0.0 1.7540765474886513 -0.0032488768871274942
64.5476853954072 116.94554451580834 0.0 0.0 -2.2461623158020174 -0.003508940689219031
63.57922865393912 115.16138222940796 0.0 0.0 1.753579910229476 -0.0037845182198203986
62.61201549237042 113.37797886836454 0.0 0.0 -2.2466979030402285 -0.004076839227955986
61.64614185781998 111.59539301183341 0.0 0.0 1.753003021141545 -0.004387210016961518
60.68170959024947 109.81368684171285 0.0 0.0 -2.2473186264724276 -0.004717021372524499
59.718826869227144 108.03292641608317 0.0 0.0 1.752335739283403 -0.005067754863649299
58.75760868661459 106.25318195852408 0.0 0.0 -2.248035394041217 -0.005440990888331498
57.7981773503594 104.47452816745992 0.0 0.0 1.7515663444861573 -0.0058384172582144345
56.84066301803002 102.69704454248742 0.0 0.0 -2.2488607885996927 -0.006261838075680259
55.885204263369715 100.92081573145082 0.0 0.0 1.7506813378359993 -0.006713183923523047
54.93194867892423 99.1459319001001 0.0 0.0 -2.24980927931734 -0.00719452324691261
53.981053515026844 97.37248912376705 0.0 0.0 1.7496652187317991 -0.007708074584385827
53.032686359432944 95.60058980291886 0.0 0.0 -2.25089746435296 -0.00825621967528889
52.08702585642237 93.83034310294663 0.0 0.0 1.74850022492258 -0.008841519169781265
51.144262471518445 92.0618654223217 0.0 0.0 -2.2521443398305436 -0.009466729713700772
50.20459930163224 90.2952808869601 0.0 0.0 1.7471660490537317 -0.010134821752895817
49.26825293114529 88.53072187157824 0.0 0.0 -2.253571604266945 -0.010849002881929692
48.335454338642215 86.7683295511687 0.0 0.0 1.7456395199285524 -0.011612739175525633
47.406449853596605 85.00825448212191 0.0 0.0 -2.2552039881164916 -0.012429785464473042
46.48150216364417 83.25065720980227 0.0 0.0 1.7438942565848663 -0.013304213538688714
45.56089137351448 81.49570890384031 0.0 0.0 -2.2570696167485096 -0.01424044931542312
44.644916114284136 79.74359202110227 0.0 0.0 1.741900290651131 -0.015243312421230115
43.73389470083451 77.99450099044206 0.0 0.0 -2.2592003977389936 -0.016318062637534325
42.82816633434772 76.24864291567523 0.0 0.0 1.7396236801534712 -0.01747045388530566
41.928092344517594 74.5062382917921 0.0 0.0 -2.2616324101031893 -0.018706794273715133
41.03405746258789 72.76752172456501 0.0 0.0 1.7370261124687048 -0.020034018903572814
40.14647111312185 71.03274263922401 0.0 0.0 -2.26440629106591 -0.02145977198733462
39.26576871017681 69.3021659659426 0.0 0.0 1.7340645382929623 -0.02299250259989094
38.3924129338749 67.57607277852544 0.0 0.0 -2.2675675728688347 -0.024641576518408925
37.52689496053573 65.85476085589625 0.0 0.0 1.7306908859793282 -0.026417407658460235
36.66973560238674 64.13854512750754 0.0 0.0 -2.2711669087250144 -0.028331608379964734
35.82148631024115 62.42775795551012 0.0 0.0 1.726851914436331 -0.030397170785693817
34.98272996808874 60.722749185524364 0.0 0.0 -2.2752600898934006 -0.032628671553950994
34.15408138839806 59.02388587646157 0.0 0.0 1.7224893727965878 -0.0350425225977915
33.336187391055375 57.33155159843241 0.0 0.0 -2.2799076657793336 -0.03765724637518275
32.52972631017673 55.64614514988353 0.0 0.0 1.7175406792286054 -0.04049383634470871
31.735406721747776 53.968078492821746 0.0 0.0 -2.285173864999372 -0.04357610250215771
30.953965122358778 52.29777365542042 0.0 0.0 1.7119405475010652 -0.04693123146589784
30.186162199785528 50.63565824760446 0.0 0.0 -2.291124242636542 -0.05059013428316561
29.43277722087355 48.982159178062965 0.0 0.0 1.7056243458513265 -0.0545884515344639
28.694599907846637 47.337693908076076 0.0 0.0 -2.2978210241843087 -0.05896656465832706
27.97241894907384 45.70265859418548 0.0 0.0 1.698534660100897 -0.06377183181700019
27.267006043711547 44.077411835110674 0.0 0.0 -2.3053141433461946 -0.0690568885588192
26.579093909978656 42.46225310595439 0.0 0.0 1.6906340026578661 -0.07488586696468857
25.90934632056613 40.85739316130961 0.0 0.0 -2.313624155408128 -0.08132575815547227
25.258317209161497 39.26291565717668 0.0 0.0 1.6819296895627787 -0.0884665907725477
24.62639546882383 37.6787234485773 0.0 0.0 -2.322709519100279 -0.096386416994239
24.013729664573408 36.10447151228771 0.0 0.0 1.672523732058913 -0.10522204919144329
23.420127071558774 34.53946862428415 0.0 0.0 -2.332403820992745 -0.11503593079218533
22.844915104811985 32.982563406352206 0.0 0.0 1.6627165543868472 -0.12607234815988022
22.286757362060474 31.43196034529582 0.0 0.0 -2.34229608266147 -0.13826202389403264
21.743398010838693 29.885039068060514 0.0 0.0 1.653232861699415 -0.15216174061717425
21.21133061570362 28.337998332995003 0.0 0.0 -2.3515097459685705 -0.16712452897246877
20.6853298266562 26.78562600448444 0.0 0.0 1.6457423005694096 -0.18476081926358745
20.157882879008625 25.220583432943208 0.0 0.0 -2.3583330123084423 -0.20219667524727925
19.618371004455444 23.633382967182733 0.0 0.0 1.644133884399892 -0.22484234345375498
19.052258302812856 22.010925214354316 0.0 0.0 -2.3597995584408054 -0.24157124661124385
18.43993210772569 20.338086973523673 0.0 0.0 1.6577439843019874 -0.2718661915498437
17.756490940060257 18.59495976809524 0.0 0.0 -2.352396959200462 -0.2744360672448849
16.971709960921217 16.765970494393972 0.0 0.0 1.7085983780332654 -0.32169095501613043
16.056042502626497 14.837042107004242 0.0 0.0 -2.341444415639785 -0.2626406390486373
14.989919466212825 12.824131850990524 0.0 0.0 1.8295554376061816 -0.37470807102613435
13.798813363273121 10.795274259866753 0.0 0.0 -2.387274279652395 -0.10255242288223343
12.53175735435516 8.583676904868131 0.0 0.0 1.7554794000959149 -0.5836508257204258
11.207740917862978 6.586484932619261 0.0 0.0 -1.464985208165885 0.5632430075531616
10.986199329199385 5.928925437797155 0.0 0.0 -796.8556827617472 3.515791304191646
99.31312572718348 331.0437524239449 0.0 0.0 -63.93894099895667 7.147060721024445e-16
99.59009853241582 326.58740464635866 0.0 0.0 -1.0068108031947318 -1.7845185449253282
98.64653435460941 317.9769490455741 0.0 0.0 -4.822641020592961 -1.8728313942170907
99.24529659761792 311.53731930137155 0.0 0.0 -0.6115519605349915 -1.6903006285874718
101.19404707295833 307.2522429462827 0.0 0.0 -4.400425013740479 -1.411145734331253
104.12785319723616 304.6898533755491 0.0 0.0 -0.1982431282817556 -1.081247786924641
107.6654423531112 303.4075177789451 0.0 0.0 -4.002279099296251 -0.7518574040150183
111.4818070212507 302.9871886297782 0.0 0.0 0.17940235698763285 -0.45464720987044616
115.34002675572202 303.089422488002 0.0 0.0 -3.658008920251204 -0.20300767601519887
119.08590477975454 303.4665969915298 0.0 0.0 0.48417261694902347 0.0010104819754155336
122.62903224743985 303.950983438868 0.0 0.0 -3.39287305071813 0.16111643417316035
125.92321670468418 304.4355939023784 0.0 0.0 0.713136901501989 0.2832523505142634
128.9507892741703 304.85615964530933 0.0 0.0 -3.1952396013183897 0.3737689015793877
131.71138756149188 305.1769664425837 0.0 0.0 0.8844051249690059 0.43856004059562387
134.21445426403926 305.38065339388663 0.0 0.0 -3.045837595623299 0.4827497623031425
136.4744499997779 305.46123471792066 0.0 0.0 1.015771860807849 0.5106332447335278
138.50791961182946 305.41948736280585 0.0 0.0 -2.9293538984778964 0.5257387510919824
140.3317719456786 305.25998295883 0.0 0.0 1.1199169078728728 0.5309285949436398
141.96232964056364 304.98922495726805 0.0 0.0 -2.8355148388933538 0.5285076309145209
143.41485394678432 304.6145115297279 0.0 0.0 1.2050664783951834 0.5203223808463353
144.70335357920007 304.14326619401527 0.0 0.0 -2.7577698565182107 0.5078467401139624
145.84055653913194 303.58266447753664 0.0 0.0 1.2764308310837045 0.4922532237133146
146.83796968347966 302.9394441616043 0.0 0.0 -2.691965984426051 0.4744713616492815
147.70598036456278 302.2198264213223 0.0 0.0 1.3373358590935212 0.45523501697870183
148.45397323378734 301.4295015063574 0.0 0.0 -2.635421215327873 0.43512062284538633
149.090447057082 300.5736498579613 0.0 0.0 1.389963436173927 0.4145780086907538
149.62312362739036 299.65698075246706 0.0 0.0 -2.5863420246310387 0.3939552696691848
150.05904521439444 298.68377775418355 0.0 0.0 1.435805134359125 0.3735188389006243
150.40465952628333 297.65794482637955 0.0 0.0 -2.5434722951519046 0.35346970789771426
150.66589255783066 296.58304980152195 0.0 0.0 1.4759326534451844 0.3339565441196579
150.8482104028218 295.4623636555531 0.0 0.0 -2.505885644749048 0.3150863062312821
150.95667139733135 294.2988950641749 0.0 0.0 1.5111569816525812 0.2969328356797538
150.9959700096256 293.0954203018311 0.0 0.0 -2.472863584629451 0.27954380852199545
150.97047381289516 291.85450884720285 0.0 0.0 1.5421216336475556 0.26294635674688305
150.8842547359285 290.5785451926719 0.0 0.0 -2.44382414054083 0.24715160763021338
150.74111562312171 289.26974738847605 0.0 0.0 1.5693573651936408 0.23215834386853285
150.5446129726244 287.93018283096893 0.0 0.0 -2.4182798151428617 0.217955947627944
150.29807657093372 286.5617817557728 0.0 0.0 1.5933145853630393 0.2045267625489271
150.00462660954827 285.1663488366446 0.0 0.0 -2.395812472082012 0.19184798200977315
149.6671887560238 283.74557322973857 0.0 0.0 1.6143829493729136 0.17989315289962615
149.28850755675774 282.30103734531383 0.0 0.0 -2.376057918769006 0.16863336682476415
148.87115847115112 280.83422457800526 0.0 0.0 1.632903622409886 0.15803819864505275
148.41755877396838 279.3465261830597 0.0 0.0 -2.3586960233937804 0.1480764398348171
147.929977511882 277.83924744825913 0.0 0.0 1.6491773633334201 0.13871666727201148
147.41054466049937 276.31361328145476 0.0 0.0 -2.343443991866927 0.1299276782532095
146.8612595965896 274.7707733086921 0.0 0.0 1.6634702170585012 0.12167881948588821
146.28399897567698 273.2118065576784 0.0 0.0 -2.3300514604481997 0.11394023001374975
145.68052408639016 271.6377257863398 0.0 0.0 1.6760178198804088 0.10668301666470548
145.05248773777794 270.04948150305347 0.0 0.0 -2.3182966568056553 0.09987937480280173
144.4014407252046 268.4479657158418 0.0 0.0 1.6870288728565441 0.09350266739608237
143.72883791144213 266.8340154400937 0.0 0.0 -2.307983216481926 0.0875274698372106
143.0360439532595 265.20841598887915 0.0 0.0 1.696688089408191 0.08192958964495567
142.32433869885833 263.5719040649541 0.0 0.0 -2.2989374323884046 0.076686065538901
141.5949222775428 261.92517067032145 0.0 0.0 1.7051587790511498 0.07177515216198138
140.84891990091788 260.26886384741596 0.0 0.0 -2.2910058162305393 0.06717629266678848
140.0873863917315 258.6035912624944 0.0 0.0 1.7125851561981555 0.0628700840082308
139.3113104557386 256.92992264145005 0.0 0.0 -2.2840529075189977 0.05883823544678535
138.52161871019797 255.2483920667693 0.0 0.0 1.7190944216317128 0.05506352434450168
137.71917948172808 253.5595001431572 0.0 0.0 -2.277959295020187 0.051529748202817416
136.90480638569667 251.86371603982553 0.0 0.0 1.7247986434155038 0.048221677010665154
136.07926169832356 250.16147941531932 0.0 0.0 -2.2726198285878443 0.04512500392146457
135.2432595320745 248.45320223099472 0.0 0.0 1.7297964577349774 0.042226297168279636
134.3974688249573 246.7392704594736 0.0 0.0 -2.267942004564736 0.039512952513277355
133.54251615327252 245.02004569336935 0.0 0.0 1.7341745984424932 0.03697314715004474
132.67898837718238 243.295866659385 0.0 0.0 -2.2638445143375243 0.03459579483313213
131.8074351282898 241.56705064323515 0.0 0.0 1.7380092735452806 0.032370503228980496
130.9283711478808 239.8338948295251 0.0 0.0 -2.2602559430216136 0.03028753251596683
130.04227848350857 238.09667756148292 0.0 0.0 1.7413673957549491 0.028337756325551133
129.14960855264087 236.35565952543385 0.0 0.0 -2.257113607045847 0.026512624539886787
128.25078408040025 234.61108486337727 0.0 0.0 1.744307678795689 0.02480412768329643
127.34620091862341 232.86318221833017 0.0 0.0 -2.2543625175136377 0.023204763772014303
126.43622975325374 231.112165715665 0.0 0.0 1.7468816147017776 0.02170750646846642
125.52121770636276 229.35823588462756 0.0 0.0 -2.2519544629857506 0.020305775243965485
124.60148983943911 227.60158052335237 0.0 0.0 1.7491343391662717 0.01899340748271605
123.67735056305261 225.84237551024398 0.0 0.0 -2.2498471933949453 0.017764631760966765
122.74908495960402 224.0807855658677 0.0 0.0 1.7511053960263254 0.016614043027846748
121.8169600233009 222.31696496736896 0.0 0.0 -2.248003701145379 0.0155365794334692
120.88122582316959 220.55105821862273 0.0 0.0 1.7528294143669605 0.014527499870654381
119.94211659358439 218.7832006790402 0.0 0.0 -2.246391587324119 0.01358236401531876
118.99985175652789 217.01351915279147 0.0 0.0 1.7543367033189519 0.012697012102934835
118.05463688034646 215.2421324420016 0.0 0.0 -2.2449825022014167 0.011867547682658852
117.10666457862939 213.46915186541895 0.0 0.0 1.755653775726163 0.01109031967756735
116.1561153529276 211.6946817442335 0.0 0.0 -2.2437516549047913 0.010361907025593808
115.20315838331179 209.918819858881 0.0 0.0 1.7568038075831787 0.009679103491377461
114.24795226924581 208.14165787648238 0.0 0.0 -2.242677382492648 0.009038903436493939
113.29064572489551 206.36328175212185 0.0 0.0 1.757807043776097 0.008438488715007963
112.33137823160101 204.58377210610934 0.0 0.0 -2.2417407716039293 0.007875216365311744
111.37028064948996 202.80320457656288 0.0 0.0 1.7586811478360858 0.007346606915259457
110.40747579178685 201.02165015124925 0.0 0.0 -2.240925329477104 0.006850333530108443
109.44307896426484 199.2391754796108 0.0 0.0 1.7594415141370092 0.0063842114877843414
108.47719847139237 197.45584316453056 0.0 0.0 -2.240216694065431 0.005946189291734072
107.50993609212631 195.6717120377497 0.0 0.0 1.7601015356661982 0.005534338474648237
106.54138752740937 193.88683741827143 0.0 0.0 -2.2396023827373632 0.005146846478339739
105.57164282021195 192.1012713547261 0.0 0.0 1.7606728393087288 0.004782007547889933
104.60078675162016 190.31506285434807 0.0 0.0 -2.2390715735508735 0.004438215762043285
103.6288992135101 188.52825809859226 0.0 0.0 1.7611654899210833 0.004113957946886515
102.65605555995866 186.74090064615058 0.0 0.0 -2.2386149139741605 0.0038078067692808304
101.68232693808251 184.95303162377726 0.0 0.0 1.761588167523609 0.0035184148489566525
100.70778060147217 183.1646899079595 0.0 0.0 -2.2382243584595827 0.003244508127211887
99.73248020593975 181.37591229572604 0.0 0.0 1.7619483197978418 0.002984881392670502
98.75648608915834 179.58673366579592 0.0 0.0 -2.2378930248386304 0.0027383915518672808
97.77985553654054 177.79718713265433 0.0 0.0 1.7622522926454494 0.0025039540834370655
96.80264303277835 176.0073041921418 0.0 0.0 -2.237615075210499 0.002280536698807012
95.82490050192733 174.2171148596192 0.0 0.0 1.7625054425513014 0.0020671565174890105
94.84667753562849 172.42664780255348 0.0 0.0 -2.2373856109038854 0.0018628739668642424
93.8680216115218 170.63593046623782 0.0 0.0 1.7627122307927259 0.0016667903642577642
92.8889783017764 168.8449891939823 0.0 0.0 -2.2372005891846705 0.0014780422053135567
91.90959147408327 167.05384934444038 0.0 0.0 1.7628763002462016 0.0012957991217898979
90.92990348455842 165.26253540268215 0.0 0.0 -2.2370567494781604 0.0011192588159971706
89.94995536382385 163.47107108728747 0.0 0.0 1.7630005436861644 0.0009476443054499128
88.96978699799556 161.67947945516522 0.0 0.0 -2.236951556885817 0.0007802001524659374
87.98943730384013 159.88778300303426 0.0 0.0 1.7630871495795688 0.0006161896011942503
87.00894440032596 158.09600376644147 0.0 0.0 -2.236883157682321 0.0004548904429952927
86.02834577623692 156.30416341634884 0.0 0.0 1.7631376438057274 0.00029559291631464646
85.04767845516685 154.51228335509828 0.0 0.0 -2.236850346289458 0.00013759555532999457
84.06697915839165 152.72038481010904 0.0 0.0 1.7631529159482326 -1.9796885927902963e-05
83.08628446664292 150.92848892770783 0.0 0.0 -2.236852545214603 -0.00017727741110817874
82.10563098102696 149.13661686620617 0.0 0.0 1.7631332357347702 -0.000335539423574005
81.12505548395627 147.34478988802204 0.0 0.0 -2.236889793481115 -0.0004952795620845052
80.14459510117922 145.5530294543946 0.0 0.0 1.7630782554889137 -0.000657201666477647
79.16428746514728 143.76135731958823 0.0 0.0 -2.236962747198433 -0.0008220181470939281
78.18417088039051 141.9697956259502 0.0 0.0 1.7629870063582516 -0.0009904554738682236
77.20428449203554 140.17836700184682 0.0 0.0 -2.2370726928281393 -0.0011632551599198848
76.22466845805307 138.38709466053595 0.0 0.0 1.7628578804683173 -0.0013411791957196328
75.2453641259824 136.5960025029533 0.0 0.0 -2.2372215678837932 -0.001525010988025599
74.26641421456289 134.80511522257814 0.0 0.0 1.7626886016406331 -0.0017155613252306523
73.28786300157319 133.01445841345426 0.0 0.0 -2.2374119957035177 -0.0019136704285536155
72.30975651831838 131.22405868286347 0.0 0.0 1.762476187175288 -0.0021202117135104004
71.33214275146534 129.43394376778193 0.0 0.0 -2.237647331459499 -0.0023360969444183866
70.35507185450716 127.64414265780641 0.0 0.0 1.7622168965918021 -0.0025622788027312993
69.3785963668173 125.85468571956982 0.0 0.0 -2.237931719978967 -0.0027997567025650483
68.40277144414104 124.06560483034953 0.0 0.0 1.761906160303326 -0.003049579536295255
67.42765510052885 122.2769335187954 0.0 0.0 -2.2382701697398772 -0.003312852992753079
66.45330846140654 120.4887071096602 0.0 0.0 1.7615385096573632 -0.0035907413110365383
65.47979603107936 118.70096287784074 0.0 0.0 -2.2386686382231247 -0.0038844760366956166
64.50718597312384 116.91374021004452 0.0 0.0 1.761107473582804 -0.004195359249877129
63.53555040817483 115.12708077608355 0.0 0.0 -2.2391341342482463 -0.00452477143447183
62.564965725821054 113.341028707799 0.0 0.0 1.7606054742370247 -0.004874176182777745
61.595512916117585 111.55563078851063 0.0 0.0 -2.239674839449208 -0.00524512926519094
60.6272779187023 109.77093665364174 0.0 0.0 1.7600236929950626 -0.005639284247447307
59.660351992335535 107.98699900268234 0.0 0.0 -2.2403002449430858 -0.0060584018939664475
58.694832105932946 106.20387382135492 0.0 0.0 1.7593519262315098 -0.0065043583578763275
57.73082135054551 104.42162061614545 0.0 0.0 -2.2410213102327248 -0.006979154457397385
56.768429375848704 102.64030266182854 0.0 0.0 1.758578415892714 -0.007484926753459575
55.80777285117893 100.85998726341785 0.0 0.0 -2.2418506394429727 -0.008023956951539901
54.84897595181249 99.080746030341 0.0 0.0 1.7576896604072019 -0.008598686289946755
53.89217086995979 97.30265516208752 0.0 0.0 -2.2428026812744477 -0.009211726616182858
52.937498354194716 95.5257957498153 0.0 0.0 1.7566702093522153 -0.009865876309344657
51.98510827531836 93.75025409100301 0.0 0.0 -2.2438939465758097 -0.010564135554567144
51.035160218796776 91.97612201483628 0.0 0.0 1.7555024336264182 -0.011309723435747543
50.087824103274045 90.20349721896413 0.0 0.0 -2.2451432397477475 -0.012106099101178103
49.143280825034445 88.43248361780367 0.0 0.0 1.7541662909677171 -0.012956979859229278
48.201722925771335 86.6631916981166 0.0 0.0 -2.24657190480157 -0.013866368452855937
47.26335527801534 84.89573887667082 0.0 0.0 1.752639079113564 -0.01483857659994925
46.32839578921198 83.13024985989938 0.0 0.0 -2.2482040575771904 -0.015878256429743942
45.39707611334024 81.36685699796037 0.0 0.0 1.750895210967549 -0.016990431829661645
44.469642364319995 79.6057006242048 0.0 0.0 -2.250066804141042 -0.018180536490735477
43.54635582072257 77.84692937479723 0.0 0.0 1.748906022544368 -0.019454454600492
42.627493606793685 76.09070047410064 0.0 0.0 -2.252190394685144 -0.020818567870016125
41.713349330871544 74.33717996913398 0.0 0.0 1.7466396717635249 -0.022279808403940393
40.80423366128924 72.58654289591175 0.0 0.0 -2.2546082543094528 -0.02384571779866107
39.90047480609429 70.83897335310746 0.0 0.0 1.744061184726469 -0.025524514315701907
39.00241886117792 69.09466445053587 0.0 0.0 -2.257356825809609 -0.027325168912490483
38.11042997927481 67.35381809446352 0.0 0.0 1.7411327757341226 -0.029257492263067064
37.22489029948128 65.6166445625078 0.0 0.0 -2.260475056886797 -0.031332231483702344
36.346199561241434 63.88336180383104 0.0 0.0 1.7378145941229945 -0.03356118102050942
35.47477430872166 62.15419438874712 0.0 0.0 -2.2640033420105468 -0.035957305204707524
34.611046566576455 60.42937201299562 0.0 0.0 1.7340661829846127 -0.03853488148602224
33.755461837251715 58.709127433421784 0.0 0.0 -2.267981569056765 -0.0413096508211197
32.90847623040419 56.99369368191591 0.0 0.0 1.7298490483753 -0.04429900464333514
32.07055249003125 55.283300369209115 0.0 0.0 -2.2724457638593663 -0.04752214908146968
31.242154620737306 53.57816883540156 0.0 0.0 1.7251310154852746 -0.05100036873884051
30.42374073744171 51.878505845561286 0.0 0.0 -2.277422483923239 -0.05475714321921288
29.615753668684725 50.18449544932685 0.0 0.0 1.719893408497306 -0.058818582176243694
28.818608715542567 48.49628852705867 0.0 0.0 -2.2829196294175347 -0.06321326325666732
28.032677813608228 46.813989420343766 0.0 0.0 1.7141427939817362 -0.06797320331222778
27.258269149645816 45.1376388945746 0.0 0.0 -2.2889114566311264 -0.07313256575168836
26.49560103431556 43.467192504675836 0.0 0.0 1.7079301404161882 -0.0787305557484288
25.74476852509546 41.802493198556384 0.0 0.0 -2.2953140416081013 -0.08480595420566317
25.005700917897222 40.14323676436569 0.0 0.0 1.7013823310640817 -0.09140717422484457
24.278107756432288 38.4889284141641 0.0 0.0 -2.3019447441628103 -0.09857164655145212
23.561410520361246 36.83882859249423 0.0 0.0 1.694754538003906 -0.10636270161835526
22.85465650505807 35.19188579096623 0.0 0.0 -2.3084544721578624 -0.11479391524497373
22.15641102975514 33.54665439625283 0.0 0.0 1.688518338583279 -0.12396618229636402
21.46462348675534 31.901195674948116 0.0 0.0 -2.3142134954395317 -0.13379134864725017
20.776463588182445 30.25296234118324 0.0 0.0 1.6835106535886837 -0.14450194338654399
20.088124569806602 28.598668918659897 0.0 0.0 -2.3181199786772737 -0.1556404299724221
19.394596488566947 26.934160202266128 0.0 0.0 1.6811814787496147 -0.1679508656668247
18.689417917546095 25.254297658225468 0.0 0.0 -2.318292763446763 -0.1796749068373913
17.964441268866253 23.552918844813384 0.0 0.0 1.6839745428289632 -0.19355827904405842
17.209667627021854 21.822948505172484 0.0 0.0 -2.311655972088772 -0.20325584406978692
16.413299202797585 20.056833097760883 0.0 0.0 1.69574013653979 -0.21924888787815888
15.562206061595287 18.24754713621851 0.0 0.0 -2.293748950182483 -0.21889720063789753
14.643227837298122 16.390319047379215 0.0 0.0 1.7212106160432157 -0.24223779163713388
13.645663919790985 14.486143486320286 0.0 0.0 -2.2601048982679828 -0.20833363325159482
12.564999647489987 12.541547522059226 0.0 0.0 1.7587086725935848 -0.26918588474606864
11.406516520548385 10.581837022463052 0.0 0.0 -2.2005413920677697 -0.13315983993431857
10.175678888702304 8.56981967536944 0.0 0.0 1.747209847272039 -0.36942288591810524
8.86471738585471 6.68838644190509 0.0 0.0 -1.7531695503258078 0.11597261187552377
7.705678832170463 5.2262735125338375 0.0 0.0 0.9441222889965957 -0.3074424386711314
7.7291773805299995 4.763400789791263 0.0 0.0 795.4213642180414 3.7708604530017045
95.26622573123102 317.5540857707699 0.0 0.0 -57.90952180162966 -6.661338147750939e-16
96.64043399343169 313.29693391281523 0.0 0.0 -5.144537328535751 -2.7962302805046404
97.22311851306284 305.5392906490955 0.0 0.0 -0.805032937404488 -2.6834732874124825
99.86015619123413 301.06977718762226 0.0 0.0 -4.461918734691061 -2.2317173892831463
104.10985628297463 299.3875430981448 0.0 0.0 -0.15133040947847398 -1.6376110029632323
109.19564718945733 299.65804816340295 0.0 0.0 -3.8542777844435308 -1.0702340762615807
114.48503499102799 301.0081346030696 0.0 0.0 0.4006052766239181 -0.5946746877684177
119.58967642792054 302.8065771734077 0.0 0.0 -3.393038467775386 -0.22147101304032457
124.31068892433846 304.66600972935913 0.0 0.0 0.7694508010373688 0.06025104871746925
128.56855936936887 306.37395430229526 0.0 0.0 -3.10351666223698 0.2672811161134723
132.351123047014 307.82826606477465 0.0 0.0 0.9962677330018082 0.4158347308988131
135.68073162632666 308.9914021648176 0.0 0.0 -2.9244222783756957 0.5195684715805258
138.59513726922899 309.86141906837054 0.0 0.0 1.1396340262855356 0.5892986031910004
141.13697307740068 310.4545734671435 0.0 0.0 -2.807676873859271 0.6333668319553123
143.34829582179285 310.79526799933916 0.0 0.0 1.236499125990787 0.6581266219253314
145.26799761495352 310.9104402142018 0.0 0.0 -2.725757255517462 0.6684023067144937
146.93079248502656 310.8265712434904 0.0 0.0 1.3070699728566488 0.6678597173361751
148.3670349660268 310.56821041609805 0.0 0.0 -2.6639139070871485 0.6592940545466717
149.6029523390074 310.15735962392904 0.0 0.0 1.362099502168335 0.6448451717452229
150.66105915267823 309.61333173354444 0.0 0.0 -2.6142964068543444 0.6261580274204706
151.56062923569698 308.9528580748073 0.0 0.0 1.4073360857360715 0.6045012828225838
152.31816061075423 308.19031525151354 0.0 0.0 -2.5726782432849458 0.5808555228248471
152.94780240960512 307.3379976579291 0.0 0.0 1.4459033333170197 0.5559790815526928
153.46173144312536 306.40639518725646 0.0 0.0 -2.5367360842887297 0.5304576384744477
153.87047602989298 305.4044550174755 0.0 0.0 1.4795432003935733 0.5047418738448126
154.18318975303873 304.3398176420298 0.0 0.0 -2.5051506457586092 0.4791763552628314
154.40788013795785 303.2190237481019 0.0 0.0 1.509267583948544 0.4540218911352971
154.55159804846306 302.04769209908284 0.0 0.0 -2.477133543799592 0.42947298874833173
154.62059359203894 300.8306704195814 0.0 0.0 1.535702412616459 0.40567159411186937
154.6204439101638 299.57216211852165 0.0 0.0 -2.452176871946919 0.38271798242444266
154.55615763629555 298.2758319427107 0.0 0.0 1.559269854278483 0.3606794387520056
154.4322601606967 296.94489358992263 0.0 0.0 -2.429920811965887 0.33959720936114657
154.25286321579696 295.58218207998414 0.0 0.0 1.5802842490918465 0.31949208653583483
154.02172172287118 294.1902133779701 0.0 0.0 -2.410084403543255 0.30036890569539487
153.74228033432104 292.7712334390134 0.0 0.0 1.599001785689607 0.28222017046011505
153.41771166901623 291.32725852856004 0.0 0.0 -2.3924301646443737 0.26502897497793576
153.05094786805475 289.86010838214247 0.0 0.0 1.615645460473809 0.2487713577891819
152.64470678860184 288.3714335107062 0.0 0.0 -2.376746691570383 0.23341819375370054
152.20151389737555 286.8627377331285 0.0 0.0 1.630417030249287 0.21893671080105914
151.72372071515755 285.3353968265169 0.0 0.0 -2.3628405954233926 0.20529170026309007
151.2135204925459 283.7906740228553 0.0 0.0 1.6435023326381497 0.1924464785536144
150.67296165842336 282.2297329458752 0.0 0.0 -2.350533086539545 0.18036364512149916
150.10395947123627 280.6536484703922 0.0 0.0 1.655073407843254 0.16900567574619352
149.5083062137575 279.06341589444673 0.0 0.0 -2.339658704037337 0.15833538097669386
148.88768020055392 277.4599587395781 0.0 0.0 1.6652892325572974 0.14831625617133426
148.24365381100836 275.8441354328618 0.0 0.0 -2.3300648973526332 0.13891274310073776
147.57770071558969 274.2167450753643 0.0 0.0 1.6742959775233572 0.13009042078877808
146.89120242787615 272.57853246084187 0.0 0.0 -2.321611825669782 0.12181613928608925
146.18545428713898 270.93019247688335 0.0 0.0 1.682227216728256 0.11405810833565777
145.46167095442948 269.2723739945908 0.0 0.0 -2.3141721002493014 0.10678594934448071
144.72099148775632 267.60568333125013 0.0 0.0 1.689204256232518 0.09997071966902027
143.96448404926457 265.93068735495336 0.0 0.0 -2.3076303741951776 0.09358491412911718
143.19315028659923 264.2479162863473 0.0 0.0 1.6953366262071974 0.08760245000966282
142.40792942287317 262.5578662417015 0.0 0.0 -2.3018827750424986 0.08199863848129141
141.6097020827675 260.86100155344803 0.0 0.0 1.700722714960989 0.07675014709275096
140.79929387883035 259.15775689801285 0.0 0.0 -2.296836212725161 0.07183495443195476
139.97747877688352 257.4485392542904 0.0 0.0 1.7054505093562788 0.06723230084901477
139.14498225728778 255.73372971275563 0.0 0.0 -2.292407603135519 0.06292263519911678
138.30248428657458 254.01368515166632 0.0 0.0 1.7095983946931916 0.058887560638622105
137.45062211207429 252.2887397940765 0.0 0.0 -2.288523052594794 0.05510977872247835
136.5899928904863 250.55920665680193 0.0 0.0 1.7132359794291503 0.0515730345464922
135.72115616070175 248.82537890113818 0.0 0.0 -2.2851170338172864 0.048262061778759247
134.8446361702388 247.08753109436344 0.0 0.0 1.7164249122430846 0.04516252950366528
133.96092406347205 245.34592038840512 0.0 0.0 -2.2821315796131927 0.042260990127493514
133.07047993976232 243.6007876224905 0.0 0.0 1.7192196700242448 0.039544829410793625
132.17373478887598 241.85235835549156 0.0 0.0 -2.279515516012385 0.03700221822063732
131.27109231037164 240.10084383263177 0.0 0.0 1.7216683040556902 0.034622066345892044
130.36293062391974 238.34644189142747 0.0 0.0 -2.277223742054108 0.0323939788084715
129.4496038762481 236.589337810726 0.0 0.0 1.7238131319147563 0.03030821357701008
128.53144375112777 234.82970510684686 0.0 0.0 -2.2752165645927995 0.02835564240638
127.60876088721386 233.06770627955677 0.0 0.0 1.7256913740138806 0.026527712461920316
126.68184620983253 231.30349351207894 0.0 0.0 -2.273459090600948 0.024816411532349036
125.75097218117916 229.53720932740487 0.0 0.0 1.7273357319517224 0.023214233824553787
124.81639397382273 227.7689872037013 0.0 0.0 -2.2719206796871596 0.02171414852799458
123.87835057196224 225.9989521510998 0.0 0.0 1.7287749101870986 0.020309569958339324
122.93706580497681 224.22722125319854 0.0 0.0 -2.2705744469312457 0.01899432930749967
121.99274931701035 222.45390417481477 0.0 0.0 1.7300340835926562 0.017762648139804327
121.04559747651504 220.679103637525 0.0 0.0 -2.2693968229956845 0.016609113877766646
120.09579422956446 218.90291586629857 0.0 0.0 1.731135314232052 0.015528655914316403
119.14351190020304 217.12543100808244 0.0 0.0 -2.2683671606167835 0.014516524045308898
118.18891194098785 215.34673352416704 0.0 0.0 1.732097922079916 0.013568267667647405
117.23214563714984 213.56690255842926 0.0 0.0 -2.2674673859597583 0.012679716319249579
116.27335476686153 211.7860122825562 0.0 0.0 1.7329388113570694 0.01184696193046264
115.31267222075643 210.00413221996374 0.0 0.0 -2.266681690860196 0.011066341180114847
114.35022258295216 208.22132754961285 0.0 0.0 1.7336727613565124 0.010334419924108218
113.38612267616688 206.4376593908898 0.0 0.0 -2.2659962627136494 0.009647978002339741
112.42048207304916 204.65318507100713 0.0 0.0 1.734312679408312 0.009003995074094107
111.45340357650224 202.8679583761819 0.0 0.0 -2.265399042959608 0.008399637757154466
110.48498367001935 201.08202978707862 0.0 0.0 1.7348698243887526 0.007832246456862535
109.5153129408669 199.29544670006536 0.0 0.0 -2.264879523082957 0.007299324619815195
108.54447647764013 197.50825363487965 0.0 0.0 1.7353540029494994 0.006798526845257058
107.57255424344307 195.72049243025108 0.0 0.0 -2.2644285569421037 0.006327649549062286
106.5996214271263 193.9322024274882 0.0 0.0 1.7357737398963735 0.005884620312432531
105.62574877337457 192.14342064250314 0.0 0.0 -2.264038203635536 0.005467489402375847
104.65100289338748 190.354181928875 0.0 0.0 1.7361364263700878 0.0050744213054763065
103.6754465575967 188.56451913092533 0.0 0.0 -2.263701588518792 0.004703685879201558
102.69913897163627 186.77446322789282 0.0 0.0 1.7364484508971394 0.0043536516908559975
101.72213603642533 184.98404347005075 0.0 0.0 -2.2634127821446697 0.004022778149522566
100.74449059385498 183.1932875070679 0.0 0.0 1.7367153095317391 0.0037096092524215862
99.76625265933926 181.40222150993242 0.0 0.0 -2.2631666970564837 0.00341276636303256
98.78746964158958 179.6108702857507 0.0 0.0 1.73694170371623 0.0031309434548116855
97.80818655105904 177.81925738673334 0.0 0.0 -2.2629589976589877 0.002862899813271369
96.82844619795068 176.0274052141672 0.0 0.0 1.7371316226009483 0.002607456108815853
95.84828938073626 174.23533511649632 0.0 0.0 -2.2627860241716817 0.0023634878568223883
94.86775506528976 172.44306748324618 0.0 0.0 1.737288411808045 0.0021299214738270678
93.88688055640156 170.6506218347464 0.0 0.0 -2.2626447292949408 0.0019057287202173256
92.90570166185127 168.85801690805297 0.0 0.0 1.7374148342634896 0.001689923260686399
91.92425285040535 167.0652707397802 0.0 0.0 -2.26253262284283 0.0014815549893540947
90.94256740291972 165.27240074488557 0.0 0.0 1.737513117537631 0.0012797070870949057
89.96067755895415 163.4794237931016 0.0 0.0 -2.2624477306224797 0.001083490935059217
88.97861465864327 161.68635628397905 0.0 0.0 1.7375849937955223 0.0008920430771421906
87.99640928067471 159.8932142185279 0.0 0.0 -2.262388555434427 0.000704520667348163
87.01409137666795 158.10001326904012 0.0 0.0 1.7376317287910936 0.0005200985231521571
86.03169040326716 156.3067688491673 0.0 0.0 -2.2623540555511816 0.0003379649221599834
85.04923545127274 154.51349618072734 0.0 0.0 1.7376541456498984 0.0001573178568250455
84.06675537436807 152.72021036150576 0.0 0.0 -2.2623436228298637 -2.2637523361623835e-05
83.08427891526638 150.92692643121416 0.0 0.0 1.7376526389751348 -0.00020269353244550814
82.10183483265935 149.13365943692807 0.0 0.0 -2.26235707457743 -0.0003836427998535896
81.11945202732262 147.3404245004728 0.0 0.0 1.737627182611341 -0.0005662823382088789
80.13715966983185 145.54723688460734 0.0 0.0 -2.2623946480736734 -0.0007514154907575232
79.15498732856759 143.7541120596317 0.0 0.0 1.7375773264921293 -0.0009398582610664619
78.1729650993599 141.96106577079513 0.0 0.0 -2.2624570055496207 -0.0011324398745493625
77.19112373794553 140.1681141080108 0.0 0.0 1.7375021920949791 -0.001330009068379212
76.20949479534822 138.37527357694765 0.0 0.0 -2.262545247645491 -0.0015334354818392626
75.22811075635511 136.58256117010492 0.0 0.0 1.7374004547965498 -0.001743615965946077
74.24700518192464 134.78999444214423 0.0 0.0 -2.2626609296130127 -0.0019614759719104313
73.26621285653712 132.99759158585084 0.0 0.0 1.7372703198472763 -0.0021879759688587797
72.28576994037994 131.20537151231505 0.0 0.0 -2.262806090098394 -0.002424114493415175
71.30571412842168 129.41335393295932 0.0 0.0 1.737109494990797 -0.002670932184582142
70.32608481424212 127.62155944451808 0.0 0.0 -2.2629832879810152 -0.0029295185080435715
69.34692326251606 125.83000961912144 0.0 0.0 1.7369151465716826 -0.003201013569476885
68.3682727893812 124.0387270969249 0.0 0.0 -2.263195643215063 -0.0034866161548094965
67.39017895025381 122.24773568371414 0.0 0.0 1.7366838509486442 -0.0037875867210601655
66.41268973801132 120.45706045337118 0.0 0.0 -2.2634468958971894 -0.00410525560886299
65.43585579064265 118.6667278548776 0.0 0.0 1.7364115382473528 -0.004441026068530363
64.45973060998509 116.87676582394408 0.0 0.0 -2.26374146504547 -0.004796383622757361
63.48437079143549 115.08720390128231 0.0 0.0 1.7360934201941376 -0.005172900267545799
62.50983626693155 113.29807335672089 0.0 0.0 -2.2640845261638347 -0.005572244573308183
61.53619055953468 111.50940731808383 0.0 0.0 1.7357239127363755 -0.005996185259682818
60.56350105274799 109.72124090760089 0.0 0.0 -2.264482096545052 -0.006446603729692413
59.59183927388504 107.93361138465932 0.0 0.0 1.7352965421042228 -0.006925500071524482
58.62128119203111 106.14655829434 0.0 0.0 -2.2649411324033863 -0.007435003587755062
57.651907531417564 104.36012362302388 0.0 0.0 1.7348038430524753 -0.007977381866144384
56.68380410176691 102.57435196054138 0.0 0.0 -2.2654696369392937 -0.008555053217765618
55.717062143132985 100.78929066895653 0.0 0.0 1.7342372445673249 -0.009170596006899956
54.75177868814921 99.00499005611027 0.0 0.0 -2.266076778071117 -0.00982676327476284
53.7880569390274 97.22150355444938 0.0 0.0 1.7335869494208254 -0.010526494331795533
52.82600666067805 95.43888790391537 0.0 0.0 -2.2667730145510845 -0.011272930927511027
51.86574458742439 93.6572033375329 0.0 0.0 1.73284180561091 -0.012069430827740035
50.907394842827486 91.87651376732168 0.0 0.0 -2.2675702233321218 -0.012919586703176833
49.951089368635856 90.09688696859719 0.0 0.0 1.7319891804060177 -0.01382724228393073
48.99696836159786 88.31839476010515 0.0 0.0 -2.268481818687455 -0.014796514139113981
48.04518071194454 86.54111317356134 0.0 0.0 1.7310148539407137 -0.015831810924360923
47.09588443922157 84.76512261118533 0.0 0.0 -2.269522848752878 -0.01693785718271812
46.14924711584596 82.99050797968783 0.0 0.0 1.7299029386397748 -0.01811971850990801
45.20544626946303 81.21735879630694 0.0 0.0 -2.2707100412034507 -0.019382828039230304
44.264669753493855 79.44576925801239 0.0 0.0 1.7286358718770884 -0.020733015373167518
43.32711606575522 77.6758382538391 0.0 0.0 -2.2720617673731596 -0.022176537842156563
42.392994597970805 75.90766931204756 0.0 0.0 1.7271945252151895 -0.023720114991736096
41.46252579129861 74.14137046066814 0.0 0.0 -2.273597843083799 -0.02537096356133617
40.53594116391574 72.37705397512681 0.0 0.0 1.7255585032477398 -0.027136837396405156
39.61348317387218 70.61483598464729 0.0 0.0 -2.2753390867931103 -0.029026067190535798
38.69540486693626 68.85483590076969 0.0 0.0 1.7237067708873468 -0.03104760589758726
37.781969251030965 67.09717562521246 0.0 0.0 -2.2773064749705085 -0.03321107179077387
36.87344832087771 65.3419784801484 0.0 0.0 1.7216187752451546 -0.035526797058111015
35.97012164504417 63.58936779695352 0.0 0.0 -2.2795196650457754 -0.038005873409797886
35.07227440015576 61.83946507995576 0.0 0.0 1.719276358582114 -0.04066019898482054
34.180194716109945 60.09238764836958 0.0 0.0 -2.2819945421640924 -0.04350251760149959
33.29417016463112 58.34824563628971 0.0 0.0 1.7166668847728985 -0.04654646192954104
32.41448318576974 56.60713820805813 0.0 0.0 -2.2847392598244625 -0.049806562630323015
31.54140520134557 54.869148809370515 0.0 0.0 1.7137882244744134 -0.05329828308957474
30.675189111491886 53.13433924959401 0.0 0.0 -2.2877479876907856 -0.057037945115066435
29.816059806438965 51.402742355509055 0.0 0.0 1.7106565622878591 -0.061042770504979416
28.964202247504574 49.67435291394541 0.0 0.0 -2.2909911651794843 -0.06533056571688078
28.1197465858194 47.949116514173284 0.0 0.0 1.7073184849103882 -0.06991989694506984
27.2827496735445 46.22691594749769 0.0 0.0 -2.2944004911412463 -0.07482904625944187
26.4531722352214 44.507554573946706 0.0 0.0 1.703869496544172 -0.08007692037890735
25.63085078413096 42.790736375955866 0.0 0.0 -2.2978458989139767 -0.0856796598163605
24.815463359736075 41.07604170230102 0.0 0.0 1.7004821358661601 -0.09165475415775504
24.006487840168482 39.36289906725758 0.0 0.0 -2.301100448447329 -0.09800969560961192
23.203151939859758 37.650550905847155 0.0 0.0 1.6974481407333855 -0.10475889210242428
22.404373277346746 35.938016429591144 0.0 0.0 -2.3037868092259117 -0.1118843888331682
21.60868965616532 34.22404577069742 0.0 0.0 1.6952401268837463 -0.11940185924920854
20.814177469485873 32.507078911297384 0.0 0.0 -2.305295739320222 -0.12722106113236364
20.018362927789276 30.785189617993282 0.0 0.0 1.6945961972723822 -0.1353964049595291
19.218122571609833 29.056064896519835 0.0 0.0 -2.3046615130776615 -0.14362301051092174
18.409593861028394 27.316945938110536 0.0 0.0 1.6966150718063489 -0.15217464990914564
17.588084231088732 25.564711789893803 0.0 0.0 -2.300369298013244 -0.16006657621507614
16.748051988722295 23.795820404471897 0.0 0.0 1.7027803926132918 -0.16854029105705592
15.883103248214699 22.006748986289743 0.0 0.0 -2.2900408172055364 -0.17433105927020875
14.98624260625122 20.193827010210406 0.0 0.0 1.714577337246567 -0.18256266627741624
14.050101411791458 18.35473475849685 0.0 0.0 -2.269809985821169 -0.18200488248919555
13.067873215059556 16.487361819833 0.0 0.0 1.7315005948098943 -0.19266474468960837
12.033671318757596 14.594250025299967 0.0 0.0 -2.232312669570362 -0.17472316104435137
10.94446462208664 12.675526426499767 0.0 0.0 1.7435272971120384 -0.20365079966001431
9.79834796562462 10.74365365492226 0.0 0.0 -2.155017726018052 -0.135373606781787
8.59600979413891 8.783831088146613 0.0 0.0 1.7011787106102716 -0.24521555584632893
7.3338289602736095 6.85719774895595 0.0 0.0 -1.906819900180217 -0.012384492207676345
6.048129599237354 4.901660205882764 0.0 0.0 1.2478499045073121 -0.3561505182044584
4.831962692781336 3.163770605747801 0.0 0.0 -0.9493859095197195 0.3586148685892532
4.69765669234779 2.5826892456829142 0.0 0.0 -793.3695188508453 2.3039120998659346
87.99433809000064 293.31446030000217 0.0 0.0 -58.28130538984928 1.3877787807814457e-15
93.90199262591153 292.00183780735244 0.0 0.0 -2.1170274509660025 -4.046148918788792
97.2768933728446 288.09498268092136 0.0 0.0 -5.661721744128696 -3.7134905001805842
103.67649165319953 288.3294044057217 0.0 0.0 -1.1466964521902199 -2.5326833960974344
111.39883341076312 291.891559489999 0.0 0.0 -4.584472924078227 -1.4906043035522953
119.01786832102968 296.64606945917376 0.0 0.0 -0.14508696301755375 -0.7170104241071966
125.91494479273926 301.4041674453721 0.0 0.0 -3.8290006014306637 -0.17603930337742435
131.90594279297335 305.6395935883355 0.0 0.0 0.39574777192821387 0.19195962681894418
137.00117630059717 309.1726615762341 0.0 0.0 -3.441150452108303 0.438015405970702
141.28644922389762 311.9876953303494 0.0 0.0 0.6814009097967135 0.5994360127339962
144.86855385001144 314.1391239422931 0.0 0.0 -3.222801399555655 0.7022188945975478
147.8520006870547 315.7058697756791 0.0 0.0 0.8551052658934513 0.7641724437542414
150.33024980912555 316.77024497406535 0.0 0.0 -3.079219762754453 0.7975100051871067
152.38342546122732 317.4088885322832 0.0 0.0 0.977878625267941 0.810666215206663
154.07875910527522 317.68947582704317 0.0 0.0 -2.9712215719551183 0.8095355841953151
155.47204184240204 317.67010718991435 0.0 0.0 1.0750483962345472 0.7982891632484937
156.60932228414836 317.3998687001685 0.0 0.0 -2.8822672774008193 0.7799184113470625
157.52853040079722 316.9198386214517 0.0 0.0 1.1575350083670841 0.7565956067198338
158.2609108195384 316.26419807255434 0.0 0.0 -2.8050660915231687 0.7299166376870736
158.83223932817987 315.4612927527498 0.0 0.0 1.2302592194707547 0.7010654182409323
159.2638339074085 314.5345846729572 0.0 0.0 -2.7362586576126606 0.6709271500210727
159.57338514177582 313.50347672470986 0.0 0.0 1.2955443741453703 0.6401671451456441
159.775633631703 312.38401318025126 0.0 0.0 -2.674211794402782 0.6092866200532381
159.88292037203905 311.18946763996104 0.0 0.0 1.354563434585323 0.5786627083190361
159.90563282981276 309.9308326915814 0.0 0.0 -2.6180585019557907 0.5485776391296602
159.8525659413213 308.6172255803178 0.0 0.0 1.407981469494521 0.5192403233009351
159.73121397466667 307.25622306234965 0.0 0.0 -2.5672652955487294 0.4908025762641177
159.54800635256757 305.8541370576859 0.0 0.0 1.4562478590085597 0.46337148135228556
159.30849812593485 304.4162411015292 0.0 0.0 -2.521435062179049 0.43701894118934437
159.01752379707565 302.9469560734733 0.0 0.0 1.4997285118593844 0.4117891438735346
158.67932155597538 301.45000232799373 0.0 0.0 -2.4802194746669457 0.38770446068000197
158.29763365739447 299.92852417247 0.0 0.0 1.5387626594320523 0.36477014441412203
157.8757875776631 298.3851916333141 0.0 0.0 -2.4432834394198744 0.34297809790337386
157.41676170415502 296.82228360130836 0.0 0.0 1.573683818663314 0.3223099116317867
156.9232385898665 295.2417557341677 0.0 0.0 -2.410294053117039 0.3027393201086035
156.39764822049014 293.6452958992974 0.0 0.0 1.6048242084065176 0.2842341915400839
155.84220326581516 292.0343694442797 0.0 0.0 -2.380920487403193 0.26675813922900815
155.25892790238277 290.41025617215087 0.0 0.0 1.632512204601385 0.2502718250655631
154.64968148213097 288.77408055918727 0.0 0.0 -2.354838043577659 0.23473401029411445
154.0161780693228 287.12683647236634 0.0 0.0 1.6570675717246104 0.22010239919347896
153.36000266457802 285.46940741319605 0.0 0.0 -2.331733093960863 0.20633431157954973
152.68262477031328 283.80258312485387 0.0 0.0 1.6787967064816307 0.1933872150577023
151.98540982013805 282.1270732442617 0.0 0.0 -2.3113074289506326 0.18121914083048818
151.26962888858938 280.4435185535247 0.0 0.0 1.6979888278237194 0.16978900466241154
150.53646701255997 278.75250028069445 0.0 0.0 -2.2932814673560182 0.15905684914178764
149.78703038812463 277.0545478154295 0.0 0.0 1.71491338302914 0.14898402208472383
149.02235265207005 275.35014513570843 0.0 0.0 -2.2773962509436423 0.13953330257277585
148.24340041424472 273.6397361853025 0.0 0.0 1.729818615965172 0.13066898482759637
147.45107817300573 271.923729396562 0.0 0.0 -2.263414360189776 0.1223569275323122
146.64623271845494 270.20250151547947 0.0 0.0 1.7429311120530997 0.11456457621134408
145.82965710674193 268.4764008561498 0.0 0.0 -2.2511199669007897 0.10726096343476144
145.0020942719255 266.74575008735906 0.0 0.0 1.7544560926827621 0.10041669259036645
144.16424032818304 265.01084863404463 0.0 0.0 -2.2403182454665913 0.09400390767613054
143.31674760520792 263.2719747616154 0.0 0.0 1.7645782470539615 0.08799625392905863
142.46022745063556 261.52938739705814 0.0 0.0 -2.230834345108029 0.08236883027837294
141.5952528271886 259.7833277303236 0.0 0.0 1.7734629159568733 0.07709813727191239
140.72236072735774 258.03402063270767 0.0 0.0 -2.222512085088592 0.07216202052982901
139.8420544241254 256.2816759207591 0.0 0.0 1.7812574845376332 0.06753961294900535
138.95480557301215 254.52648948906943 0.0 0.0 -2.215212502124304 0.06321127503601609
138.0610561786937 252.7686443315225 0.0 0.0 1.788092871091962 0.05915853561221596
137.16122043709723 251.00831146666377 0.0 0.0 -2.2088123448841 0.05536403247051069
136.2556864626241 249.24565078008993 0.0 0.0 1.7940850351519124 0.05181145476757365
135.34481790858823 247.48081179450173 0.0 0.0 -2.2032025788592975 0.04848548589786006
134.42895548855898 245.71393437643016 0.0 0.0 1.79933644549644 0.04537174901510088
133.5084184047877 243.94514938661172 0.0 0.0 -2.198286950490173 0.042456753829009486
132.58350569005887 242.174579280491 0.0 0.0 1.8039374780770032 0.03972784579548705
131.6544974677427 240.4023386640945 0.0 0.0 -2.1939806355586917 0.037173157542207846
130.72165613595405 238.62853480966123 0.0 0.0 1.8079677192306818 0.03478156216131012
129.78522747950356 236.85326813445886 0.0 0.0 -2.190208987233623 0.03254262919019446
128.84544171433924 235.07663264663836 0.0 0.0 1.8114971624768224 0.030446582453430793
127.90251446868962 233.29871636063174 0.0 0.0 -2.1869063915603135 0.028484260328987432
126.95664770399301 231.5196016845458 0.0 0.0 1.8145872999593102 0.02664707794587251
126.00803058000861 229.73936578189478 0.0 0.0 -2.184015232205514 0.024926991646573526
125.05684026649652 227.9580809094166 0.0 0.0 1.8172921059833556 0.023316465231289385
124.10324270556164 226.17581473328497 0.0 0.0 -2.181484957542132 0.021808438397359353
123.14739332685586 224.39263062453685 0.0 0.0 1.8196589175375841 0.02039629664681364
122.18943771878304 222.60858793584626 0.0 0.0 -2.1792712482158905 0.019073843420569503
121.22951225848362 220.82374226068077 0.0 0.0 1.8217292212040626 0.017835273131250773
120.2677447027377 219.0381456755705 0.0 0.0 -2.1773352765610525 0.01667514688601557
119.30425474228873 217.251846967221 0.0 0.0 1.8235393500569828 0.015588368542656994
118.339154522114 215.46489184560664 0.0 0.0 -2.1756430495953403 0.01457016287796975
117.3725491293373 213.67732314335143 0.0 0.0 1.8251211016749487 0.013616055207860356
116.40453705109809 211.8891810029261 0.0 0.0 -2.1741648291165667 0.01272185143572635
115.43521060378629 210.10050305170148 0.0 0.0 1.826502282258918 0.011883620381787807
114.46465633630342 208.3113245662644 0.0 0.0 -2.172874621124471 0.011097676179574023
113.49295540796061 206.52167862697678 0.0 0.0 1.8277071863609144 0.01036056253621176
112.52018394343776 204.73159626270584 0.0 0.0 -2.171749725902643 0.009669037670391845
111.54641336579212 202.94110658628742 0.0 0.0 1.8287570167897975 0.009020059526260837
110.57171070900156 201.1502369217415 0.0 0.0 -2.1707703448315065 0.00841077372334631
109.5961389116946 199.35901292438257 0.0 0.0 1.8296702543054764 0.007838499643556318
108.61975709329012 197.56745869310535 0.0 0.0 -2.169919234970905 0.007300719699234293
107.64262081286657 195.77559687602343 0.0 0.0 1.8304629793810285 0.0067950677206667365
106.66478231294374 193.9834487696356 0.0 0.0 -2.169181408280089 0.006319318892115788
105.68629074877465 192.19103441201497 0.0 0.0 1.831149153141407 0.005871379901110529
104.70719240409791 190.39837267115033 0.0 0.0 -2.1685438691385244 0.0054492796258749365
103.72753089455203 188.60548132757276 0.0 0.0 1.8317408620118165 0.005051160873831506
102.74734735893695 186.81237715241355 0.0 0.0 -2.167995387149233 0.00467527152403413
101.76668064021504 185.01907598090926 0.0 0.0 1.8322485301518547 0.004319957525016349
100.78556745606892 183.22559278214106 0.0 0.0 -2.1675262997176397 0.003983655303306577
99.8040425603443 181.43194172469077 0.0 0.0 1.8326811010390287 0.0036648848133005174
98.82213889574389 179.63813623886722 0.0 0.0 -2.1671283417657747 0.003362243214562355
97.83988773855816 177.84418907566769 0.0 0.0 1.83304619698513 0.0030743987761905345
96.85731883680516 176.05011236348363 0.0 0.0 -2.1667945017060113 0.002800084507423861
95.87446054012047 174.25591766051286 0.0 0.0 1.833350250561498 0.00253809336260602
94.89133992504422 172.46161600553438 0.0 0.0 -2.1665188966880145 0.0022872722183784333
93.90798291399759 170.6672179673186 0.0 0.0 1.8335986195928626 0.002046517144902893
92.92441438919494 168.8727336903074 0.0 0.0 -2.1662966708674993 0.0018147688771001924
91.94065830229381 167.07817293958243 0.0 0.0 1.8337956800988309 0.0015910069969162777
90.9567377796189 165.2835451438123 0.0 0.0 -2.1661239083146633 0.0013742470524498174
89.97267522393719 163.48885943651965 0.0 0.0 1.833944905343266 0.001163535033580132
88.98849241304094 161.69412469656478 0.0 0.0 -2.165997564790345 0.0009579433321995623
88.00421059562734 159.8993495867303 0.0 0.0 1.834048924072981 0.0007565671393692242
87.01985058453438 158.10454259190095 0.0 0.0 -2.1659154140773573 0.0005585201675231133
86.0354328486033 156.30971205681422 0.0 0.0 1.8341095688375972 0.000362930688508456
85.05097760259659 154.51486622205235 0.0 0.0 -2.165876008769171 0.000168937814613912
84.06650489593082 152.72001326064566 0.0 0.0 1.8341279074668506 -2.4312377647106587e-05
83.08203470145945 150.92516131414573 0.0 0.0 -2.165878655613856 -0.00021767055647714528
82.0975870023675 149.13031852740764 0.0 0.0 1.8341042622184318 -0.0004119879114217184
81.11318188080685 147.3354930854145 0.0 0.0 -2.1659234026556504 -0.0006081196646867681
80.12883960590135 145.54069324914417 0.0 0.0 1.8340382167409217 -0.0008069297727999469
79.14458072271945 143.7459273906432 0.0 0.0 -2.1660110380249407 -0.0010092929045022458
78.16042614239916 141.95120402999595 0.0 0.0 1.8339286046165029 -0.0012161008496427428
77.17639723448956 140.15653187303857 0.0 0.0 -2.1661431089900347 -0.0014282633868809569
76.19251592018966 138.36191984868287 0.0 0.0 1.833773493011428 -0.0016467155903185926
75.2088047686641 136.56737714799266 0.0 0.0 -2.166321945252072 -0.001872419150505067
74.22528709576588 134.7729132642584 0.0 0.0 1.833570146199797 -0.0021063684013071793
73.24198706607092 132.97853803382733 0.0 0.0 -2.1665506989751293 -0.0023495936778132887
72.25892979853788 131.1842616780285 0.0 0.0 1.8333149780947195 -0.0026031666586199265
71.27614147595827 129.39009484712275 0.0 0.0 -2.16683340508893 -0.0028682049530637244
70.29364945887824 127.59604866635604 0.0 0.0 1.8330034905850852 -0.00314587616332318
69.31148240498909 125.80213478274408 0.0 0.0 -2.167175046977377 -0.003437404778285469
68.32967039233648 124.00836541367283 0.0 0.0 1.8326301915124148 -0.0037440754807107623
67.34824504998629 122.21475339851317 0.0 0.0 -2.1675816461994373 -0.004067240985861531
66.36723969398358 120.42131225149998 0.0 0.0 1.8321885027745992 -0.004408326181760458
65.38668946960857 118.62805621741862 0.0 0.0 -2.1680603681001855 -0.004768836078600458
64.40663150241697 116.83500032932852 0.0 0.0 1.83167064367656 -0.005150360987624225
63.42710505389307 115.0421604673222 0.0 0.0 -2.1686196420738213 -0.005554585535829659
62.448151688305046 113.24955342237119 0.0 0.0 1.8310674968349616 -0.00598329352561322
61.4698154454618 111.45719696118366 0.0 0.0 -2.1692693084106978 -0.006438378879604301
60.492143022819306 109.66510989181863 0.0 0.0 1.830368458867028 -0.006921851241052934
59.51518396665331 107.8733121322887 0.0 0.0 -2.1700207843540227 -0.0074358470955537825
58.53899087224274 106.08182478194647 0.0 0.0 1.8295612546246716 -0.007982637920829205
57.56361959288967 104.29067019329179 0.0 0.0 -2.170887249991182 -0.00856464118882272
56.58912945813996 102.49987204442164 0.0 0.0 1.8286317424042338 -0.009184430258127207
55.61558350031192 100.70945541242507 0.0 0.0 -2.171883863263673 -0.009844746829401174
54.6430486898052 98.91944684640784 0.0 0.0 1.8275636928205827 -0.010548511540179106
53.671596177530176 97.12987443693171 0.0 0.0 -2.17302798782638 -0.01129883819781341
52.701301543016584 95.34076788311864 0.0 0.0 1.826338541860089 -0.012099046270392932
51.73224504737762 93.55215855487683 0.0 0.0 -2.174339450460131 -0.012952676369273775
50.76451188788573 91.76407954705869 0.0 0.0 1.824935136123095 -0.013863503683683831
49.79819245212642 89.97656572296134 0.0 0.0 -2.1758407979342067 -0.014835555997049
48.833382565750966 88.18965374356507 0.0 0.0 1.8233294683837187 -0.01587312808940311
47.870183730635816 86.40338207928427 0.0 0.0 -2.1775575594008103 -0.01698080143370717
46.90870334671074 84.6177909965954 0.0 0.0 1.8214944322790032 -0.01816346037387717
45.949054906153556 82.83292251264888 0.0 0.0 -2.1795184725654977 -0.01942631174841125
44.99135815301196 81.04882031221277 0.0 0.0 1.8193996140333084 -0.020774903920649734
44.03573919254916 79.26552961534378 0.0 0.0 -2.1817556508044973 -0.02221514500260824
43.08233053478378 77.48309698136313 0.0 0.0 1.817011190967328 -0.02375332380582762
42.13127105114608 75.7015700387043 0.0 0.0 -2.184304617132007 -0.025396125184926177
41.18270582060847 73.92099712112122 0.0 0.0 1.8142919913388766 -0.027150650663323006
40.23678582947256 72.14142678442778 0.0 0.0 -2.1872040976981424 -0.02902443015595324
39.29366749314771 70.36290718528498 0.0 0.0 1.8112018751430767 -0.031025436973411757
38.35351194758938 68.58548528546116 0.0 0.0 -2.19049543589297 -0.03316209374335344
37.416484056721444 66.80920584643525 0.0 0.0 1.8076985989077272 -0.0354432747129394
36.48275106512149 65.0341101714225 0.0 0.0 -2.194221363139711 -0.03787829776075213
35.55248081319104 63.260234540196464 0.0 0.0 1.8037394862464922 -0.040476907726002764
34.62583941178508 61.48760827718533 0.0 0.0 -2.198423781277569 -0.043249238974077286
33.702988258179104 59.71625138114182 0.0 0.0 1.7992843427488978 -0.04620576658177811
32.78408024474073 57.94617163063354 0.0 0.0 -2.203139987438547 -0.049357215461789394
31.869254989315436 56.1773610684601 0.0 0.0 1.7943002748687036 -0.052714457993801034
30.9586328841824 54.40979176329751 0.0 0.0 -2.2083965566431303 -0.05628832532518402
30.05230772309601 52.643410710958705 0.0 0.0 1.788769395734377 -0.060089430019747425
29.150337630142605 50.878133760735956 0.0 0.0 -2.2141997067258288 -0.06412777570301031
28.25273397611972 49.11383839259698 0.0 0.0 1.7827007568890494 -0.06841252171737366
27.359447917266195 47.35035526992246 0.0 0.0 -2.220520523838772 -0.07295112677237725
26.47035419425807 45.5874583076611 0.0 0.0 1.7761484112329597 -0.07774926587569908
25.58523172337013 43.824853406659884 0.0 0.0 -2.2272728297018887 -0.08280872472063905
24.703740686006856 42.06216535959971 0.0 0.0 1.769237928105376 -0.0881284936191129
23.82539554232705 40.29892392565354 0.0 0.0 -2.2342808217955863 -0.0936988542056163
22.94953412713814 38.53454764216691 0.0 0.0 1.762203954641329 -0.09950783268006447
22.075282028436323 36.76832930862473 0.0 0.0 -2.2412329828533544 -0.10552257757166927
21.201514093579494 34.99941790309768 0.0 0.0 1.7554403058462924 -0.11171726352182532
20.326811216883307 33.22681100413873 0.0 0.0 -2.2476180435110464 -0.11800979102347853
19.449419825168487 31.449337193574973 0.0 0.0 1.7495589024444698 -0.12437150266750052
18.56720702663575 29.665677884741008 0.0 0.0 -2.252636662524644 -0.13060265713365737
17.677636936816995 27.87434846351458 0.0 0.0 1.745435659970525 -0.13674790702436468
16.777737805402673 26.07381335024193 0.0 0.0 -2.255071165113911 -0.14228262346179932
15.864145183749043 24.262427158975886 0.0 0.0 1.744162504247349 -0.14766100015454953
14.933093513868743 22.43882562427658 0.0 0.0 -2.2530379942725816 -0.15133691722968123
13.980644087226825 20.601601315469743 0.0 0.0 1.7466370597172656 -0.15549067531330962
13.002637665944903 18.750520160327667 0.0 0.0 -2.2432788537086523 -0.15506973654495937
11.995372011405546 16.88492739567222 0.0 0.0 1.7519309989455465 -0.1588994409571498
10.955042614559133 15.007623775525236 0.0 0.0 -2.218463351737448 -0.14929635712038092
9.879562079278685 13.118130539991402 0.0 0.0 1.7516602358049411 -0.15969639791501677
8.765607843751454 11.226384816530699 0.0 0.0 -2.156081873815026 -0.1260630366146671
7.614549733642189 9.327142775075359 0.0 0.0 1.7096385073687372 -0.17072310740601537
6.422787799222895 7.456206904404113 0.0 0.0 -1.9738995722832087 -0.06306466050785531
5.207454255973182 5.586552261179503 0.0 0.0 1.4609874506809533 -0.2282835606071245
3.9626072490257056 3.807537046340569 0.0 0.0 -1.3572747948868482 0.06981288962827392
2.8590072396592117 2.416819156382696 0.0 0.0 0.6594637272543835 -0.16518192747620475
2.827705047594181 1.9803223815947328 0.0 0.0 792.4324998057692 2.1657567606119237
78.66788291505274 262.2262763835092 0.0 0.0 -47.31536447446178 -9.992007221626409e-16
91.6464914712404 263.73645880552084 0.0 0.0 -3.5525281929080106 -7.585910580514827
102.78592186421677 267.0419874457933 0.0 0.0 2.093202042123611 -4.171189030956494
115.03974370006502 277.0113281772004 0.0 0.0 -0.6898160865937077 -1.8684340057781386
126.16620096595699 288.1216649916013 0.0 0.0 3.7607286120636685 -0.5517296651129453
135.41590186463924 297.91486917219754 0.0 0.0 -0.1556556441896868 0.1973720727485433
142.8439422068791 305.83141919617 0.0 0.0 3.7756224542909864 0.6261455662719088
148.73008555572292 311.9695147771495 0.0 0.0 -0.3511097593780592 0.8702995871188617
153.36980701091488 316.5971908197361 0.0 0.0 3.5046015840524394 1.0049683556401023
157.01633707192562 319.9910095845179 0.0 0.0 -0.6402992094420838 1.073060655787493
159.87284410878556 322.3908088028777 0.0 0.0 3.2212150211090202 1.0997546315438607
162.09873666237485 323.9928967438301 0.0 0.0 -0.9082618477943862 1.1002685162454409
163.81843098263943 324.95461221286706 0.0 0.0 2.971938442637269 1.0840427199000044
165.12921080947717 325.40125273365976 0.0 0.0 -1.1383888089336844 1.0570856884197672
166.10750758837668 325.4325737693517 0.0 0.0 2.7601974883072646 1.0233083068844055
166.8137173449197 325.1281804742908 0.0 0.0 -1.332991661672585 0.9853111116613404
167.2958477953041 324.5518040777677 0.0 0.0 2.58133860127563 0.9448556972187288
167.59227647002703 323.75463979459465 0.0 0.0 -1.497486467270265 0.9031556975469099
167.73384596897526 322.7779421927522 0.0 0.0 2.429910058358945 0.8610589200166949
167.7454664760424 321.655047424868 0.0 0.0 -1.6370380673978155 0.8191641978953195
167.64735084673066 320.4129561768351 0.0 0.0 2.301159180458212 0.7778973860031825
167.45597372603115 319.0735798644931 0.0 0.0 -1.755955875647397 0.7375618444692078
167.18482164981145 317.6547274587881 0.0 0.0 2.191206525198579 0.6983724741432745
166.8449833918713 316.1708912847507 0.0 0.0 -1.8577214920892433 0.6604791340011777
166.44561714274144 314.633875884114 0.0 0.0 2.0969297326590954 0.6239830342233044
165.99432194385946 313.0533034885187 0.0 0.0 -1.945136938772424 0.5889484576623181
165.4974341503786 311.4370218149374 0.0 0.0 2.0158106341887247 0.5554113087503092
164.96026481176585 309.79143406162717 0.0 0.0 -2.0204694932180334 0.5233854853602287
164.38729024008182 308.12176659978496 0.0 0.0 1.9458036271702799 0.49286772500943665
163.78230532147316 306.43228653877964 0.0 0.0 -2.085568706919853 0.4638413641261696
163.14854706925107 304.7264788059379 0.0 0.0 1.8852328481657388 0.4362793049885525
162.4887943406641 303.00719042479955 0.0 0.0 -2.1419562351867225 0.41014639236771
161.80544842013555 301.276748150909 0.0 0.0 1.8327138790551114 0.38540133990703485
161.10059821956267 299.53705442639625 0.0 0.0 -2.190894062708087 0.3619983049471678
160.37607309737385 297.78966566553817 0.0 0.0 1.7870942298476074 0.3398881833575942
159.63348570472607 296.03585612668377 0.0 0.0 -2.2334365192300023 0.3190196766272937
158.8742667950454 294.2766700187113 0.0 0.0 1.7474077769908796 0.2993401716800337
158.09969355507027 292.51296399996875 0.0 0.0 -2.2704702861193136 0.2807964638162197
157.3109127126871 290.74544183109236 0.0 0.0 1.7128395458201453 0.26333534827009597
156.5089594328544 288.97468262070157 0.0 0.0 -2.302745475454249 0.24690410004204644
155.69477281641335 287.20116383984396 0.0 0.0 1.6826982167651092 0.23145085929661224
154.86920865829964 285.425280066866 0.0 0.0 -2.33090001062644 0.21692493638348775
154.0330499937255 283.64735824913356 0.0 0.0 1.6563944549644862 0.20327704873643082
153.18701585756622 281.8676701243079 0.0 0.0 -2.3554789305310084 0.1904595001217615
152.33176859940704 280.0864423267385 0.0 0.0 1.6334236757271654 0.17842631129288833
151.46792002888145 278.30386460802936 0.0 0.0 -2.3769498110204257 0.16713330973399998
150.59603661266348 276.520096522545 0.0 0.0 1.6133522166862342 0.15653818573444678
149.71664390036221 274.73527286372894 0.0 0.0 -2.395715188641308 0.14660052004417068
148.83023032166915 272.9495080846287 0.0 0.0 1.5958061508260677 0.13728178867547935
147.93725046926306 271.1628998930239 0.0 0.0 -2.4121226559310536 0.12854534878061763
147.03812795919134 269.37553217578795 0.0 0.0 1.5804621589421934 0.12035640988617224
146.1332579423422 267.5874773787481 0.0 0.0 -2.426473130324128 0.11268199279957081
145.22300932621917 265.79879844460675 0.0 0.0 1.5670400229840524 0.10549087996269169
144.30772675450402 264.0095503922495 0.0 0.0 -2.439027682042493 0.09875355827062648
143.38773238318478 262.2197816053453 0.0 0.0 1.5552964033278087 0.09244215754856011
142.46332748376477 260.429534885144 0.0 0.0 -2.450013216248136 0.08653038499671517
141.53479389871225 258.6388483119372 0.0 0.0 1.5450196423707467 0.0809934583688019
140.6023953697742 256.8477559515869 0.0 0.0 -2.459627232922678 0.07580803691918447
139.66637875555588 255.05628843651755 0.0 0.0 1.536025395086341 0.07095215366727903
138.7269751519317 253.26447344443525 0.0 0.0 -2.4680418440371437 0.06640514679533993
137.78440092679077 251.47233609444953 0.0 0.0 1.5281529322955762 0.06214759331429498
136.83885867832134 249.67989927610023 0.0 0.0 -2.4754071813282383 0.058161243332081725
135.8905381246423 247.88718392373914 0.0 0.0 1.5212619949259683 0.05442895707021478
134.93961693127594 246.09420924611058 0.0 0.0 -2.481854302807081 0.05093464305088169
133.9862614824297 244.30099291997416 0.0 0.0 1.515230103552046 0.04766319939673913
133.0306276007195 242.5075512544014 0.0 0.0 -2.487497684912668 0.04460045714340666
132.07286121944125 240.71389933038932 0.0 0.0 1.509950249818953 0.041733125876757704
131.11309901114495 238.92005112049415 0.0 0.0 -2.4924373655230454 0.03904874242452472
130.1514689759221 237.12601959247482 0.0 0.0 1.5053289054162562 0.03653562121334275
129.18809099228397 235.33181679951997 0.0 0.0 -2.4967607930643183 0.03418280798998374
128.22307733298362 233.53745395890067 0.0 0.0 1.5012843018143798 0.031980035119168804
127.25653314830477 231.7429415210711 0.0 0.0 -2.500544427274999 0.02991768016432772
126.28855691908691 229.94828923104254 0.0 0.0 1.4977449401870757 0.027986725582062277
125.31924088158 228.1535061835917 0.0 0.0 -2.503855129311887 0.02617872182189096
124.34867142547938 226.35860087237307 0.0 0.0 1.494648297434761 0.024485751612058237
123.37692946721785 224.56358123416368 0.0 0.0 -2.506751365564991 0.022900397009758322
122.40409080014896 222.7684546892987 0.0 0.0 1.491939701023135 0.02141570761133238
121.43022642278663 220.97322817825773 0.0 0.0 -2.509284259251345 0.020025171308910572
120.45540284663603 219.1779081953424 0.0 0.0 1.4895713495398333 0.018722686287471646
119.47968238488384 217.38250081927464 0.0 0.0 -2.5114985025251144 0.017502535110573092
118.50312342332563 215.58701174177594 0.0 0.0 1.4875014604390238 0.016359359939874807
117.52578067422405 213.79144629386167 0.0 0.0 -2.5134331544354076 0.015288139394144196
116.54770541460162 211.995809469863 0.0 0.0 1.485693525261663 0.014284167196636943
115.56894570981041 210.20010595036237 0.0 0.0 -2.515122334106323 0.013343031355649515
114.58954662307818 208.40434012286465 0.0 0.0 1.4841156626329521 0.012460595307466349
113.60955041221065 206.60851610117777 0.0 0.0 -2.5165958270792785 0.011632979805902721
112.62899671443557 204.81263774417945 0.0 0.0 1.4827400520089142 0.010856545969939901
111.64792271942605 203.01670867270985 0.0 0.0 -2.5178796114152178 0.010127879795657435
110.66636333234099 201.2207322852536 0.0 0.0 1.4815424415754528 0.00944377641975258
109.68435132620499 199.4247117727498 0.0 0.0 -2.51899631970446 0.008801227464880768
108.70191748572819 197.62865013308567 0.0 0.0 1.4805017199200563 0.008197406235399995
107.71909074217052 195.83255018423955 0.0 0.0 -2.5199656360722393 0.00762965676999805
106.73589830014159 194.0364145762411 0.0 0.0 1.479599542082635 0.0070954813143373485
105.75236575683303 192.24024580246845 0.0 0.0 -2.520804646432719 0.00659252976961433
104.76851721448327 190.44404621127768 0.0 0.0 1.478820006032322 0.006118589419539688
103.78437538609467 188.64781801617696 0.0 0.0 -2.5215281391285203 0.005671574784676281
102.7999616950074 186.85156330489744 0.0 0.0 1.4781493721895806 0.005249519243674783
101.8152963692185 185.05528404887053 0.0 0.0 -2.522148865835888 0.0048505654233199635
100.83039853005454 183.2589821120452 0.0 0.0 1.4775758204763356 0.00447295788066171
99.8452862763335 181.46265925890484 0.0 0.0 -2.522677767195404 0.004115034971029274
98.85997676363174 179.66631716202406 0.0 0.0 1.4770892421235438 0.0037752217641919827
97.87448628019801 177.86995740976712 0.0 0.0 -2.523124164215659 0.003452022588982473
96.88883031791968 176.0735815126522 0.0 0.0 1.4766810617297743 0.0031440154606023896
95.90302364082292 174.27719091048914 0.0 0.0 -2.5234959244711916 0.0028498446151274948
94.91708034995122 172.48078697854797 0.0 0.0 1.4763440851309646 0.00256821573145416
93.93101394530832 170.6843710332574 0.0 0.0 -2.5237996001640575 0.0022978892843319443
92.94483738511731 168.88794433824475 0.0 0.0 1.4760723738819408 0.0020376753877204834
91.9585631430918 167.091508110046 0.0 0.0 -2.5240405435141824 0.0017864291962474965
90.97220326319054 165.29506352342582 0.0 0.0 1.4758611386969562 0.0015430446784474583
89.98576941223739 163.4986117159706 0.0 0.0 -2.5242230004774058 0.0013064508063962421
88.9992729318721 161.70215379315567 0.0 0.0 1.475706657206537 0.001075606243391647
88.0127248880344 159.90569083372623 0.0 0.0 -2.52435018739488 0.0008494950685395963
87.02613611948709 158.1092238940422 0.0 0.0 1.4756062062187851 0.0006271218219069397
86.039517285883 156.31275401251858 0.0 0.0 -2.5244243452810657 0.00040750810008560734
85.05287891450122 154.5162822146487 0.0 0.0 1.4755580150801961 0.00018968692048737523
84.06623144624838 152.7198095167024 0.0 0.0 -2.524446781468125 -2.7299943315739483e-05
83.07958528182901 150.9233369302371 0.0 0.0 1.4755612340845872 -0.0002444082389629898
82.09295082732932 149.12686546710066 0.0 0.0 -2.5244178921502254 -0.00046259307720575293
81.10633854009362 147.33039614296652 0.0 0.0 1.4756159201563932 -0.0006828151446143238
80.11975897419396 145.53392998160243 0.0 0.0 -2.5243371689846263 -0.000906043977781934
79.13322282725971 143.73746801986712 0.0 0.0 1.4757230355232736 -0.0011332623236341988
78.14674098695424 141.94101131122136 0.0 0.0 -2.524203189427439 -0.0013654699294249895
77.1603245787203 140.1445609298922 0.0 0.0 1.475884467850321 -0.0016036901434510753
76.1739850147544 138.34811797576114 0.0 0.0 -2.524013594742641 -0.0018489707434916625
75.18773404323105 136.55168357840037 0.0 0.0 1.4761030604506544 -0.0021023923600189676
74.20158380021732 134.75525890153654 0.0 0.0 -2.5237650439811645 -0.0023650705199464994
73.21554686195005 132.95884514669487 0.0 0.0 1.4763826634974109 -0.0026381622048248232
72.22963629956217 131.16244355784193 0.0 0.0 -2.523453158781507 -0.0029228697451841867
71.24386573585676 129.3660554258882 0.0 0.0 1.4767282029574247 -0.0032204469766838884
70.25824940394843 127.56968209223047 0.0 0.0 -2.523072446156469 -0.003532204534568706
69.27280220846258 125.77332495325032 0.0 0.0 1.477145764631473 -0.003859515331598118
68.28753978908964 123.97698546419377 0.0 0.0 -2.522616199330031 -0.004203820916572454
67.30247858745042 122.18066514262651 0.0 0.0 1.4776427041619158 -0.00456663750080466
66.31763591653328 120.38436557137808 0.0 0.0 -2.52207638188019 -0.004949563484775155
65.33303003355695 118.58808840176683 0.0 0.0 1.4782277744333356 -0.005354284330863379
64.34868021564857 116.79183535596411 0.0 0.0 -2.5214434860870156 -0.005782583314822176
63.36460683989101 114.9956082282666 0.0 0.0 1.4789112798987887 -0.006236345654709652
62.38083146598124 113.19940888597367 0.0 0.0 -2.5207063635475464 -0.006717569125903822
61.39737692337584 111.40323926891527 0.0 0.0 1.4797052608590064 -0.007228371902762376
60.41426740173874 109.60710138684748 0.0 0.0 -2.5198520307023244 -0.007771001967906699
59.43152854461407 107.81099731498611 0.0 0.0 1.4806237049381323 -0.008347845697688427
58.44918754762603 106.01492918773732 0.0 0.0 -2.518865435851822 -0.008961439880692978
57.46727325930997 104.21889918871862 0.0 0.0 1.4816827933928778 -0.009614480004554338
56.48581628475013 102.42290953750593 0.0 0.0 -2.5177291934781323 -0.010309834167184562
55.504849092568705 100.62696247224413 0.0 0.0 1.4829011923763034 -0.011050551654040675
54.52440612276841 98.8310602252896 0.0 0.0 -2.5164232732166667 -0.011839879046689816
53.54452389603153 97.03520499353966 0.0 0.0 1.4843003886696735 -0.012681269205710777
52.56524112178727 95.23939889879072 0.0 0.0 -2.514924636375561 -0.013578398120642987
51.586598804689736 93.44364393835895 0.0 0.0 1.4859050759256078 -0.014535175341489293
50.60864034678164 91.64794192500935 0.0 0.0 -2.513206818501722 -0.015555761582984218
49.63141164257852 89.85229441011246 0.0 0.0 1.487743612144925 -0.016644580169216994
48.65496116370851 88.05670258943535 0.0 0.0 -2.511239435683457 -0.017806333537990326
47.679340028826445 86.26116718792153 0.0 0.0 1.489848549465144 -0.01904601668276129
46.70460205354939 84.46568831902934 0.0 0.0 -2.5089876123389843 -0.020368932140641505
45.73080377385099 82.67026531158714 0.0 0.0 1.4922572609313463 -0.021780701653018042
44.75800443434661 80.87489650074855 0.0 0.0 -2.5064112928394096 -0.02328728015207915
43.786265932026595 79.07957897525911 0.0 0.0 1.4950126823736838 -0.024894965025215043
42.81565270224584 77.28430827165322 0.0 0.0 -2.503464436338845 -0.026610403605932476
41.84623153310351 75.48907800787185 0.0 0.0 1.4981642097670687 -0.02844059697691037
40.87807128935753 73.69387944266839 0.0 0.0 -2.500094024005868 -0.030392900393326983
39.911242523282375 71.89870095003825 0.0 0.0 1.5017687842998484 -0.03247501438397293
38.94581694587324 70.10352739034334 0.0 0.0 -2.4962388528921977 -0.03469496968142849
37.9818667267392 68.30833936430483 0.0 0.0 1.5058922467759999 -0.03706110055876621
37.01946358405416 66.5131123312328 0.0 0.0 -2.491828023084757 -0.03958200289661562
36.05867761741448 64.71781556532244 0.0 0.0 1.5106110349434445 -0.04226647722512311
35.099575828953235 62.92241092921415 0.0 0.0 -2.4867790142604704 -0.04512344494504461
34.142220270082944 61.12685143961628 0.0 0.0 1.5160143701921598 -0.048161840038954296
33.18666573456634 59.331079596559405 0.0 0.0 -2.4809951951913263 -0.051390458885876455
32.232956914635466 57.53502544971508 0.0 0.0 1.5222071050584276 -0.05481777521375619
31.28112491281864 55.738604376394335 0.0 0.0 -2.4743625468666153 -0.058451680714384224
30.331183004541646 53.94171454919211 0.0 0.0 1.529313494874465 -0.06229918613859553
29.383121512196812 52.144234090089626 0.0 0.0 -2.4667453133928277 -0.06636598519660097
28.436901671895395 50.34601789346085 0.0 0.0 1.5374822032197315 -0.07065600695323226
27.492448321542476 48.54689419736347 0.0 0.0 -2.4579801902039904 -0.0751706595454138
26.549641326921858 46.74666087633867 0.0 0.0 1.5468929346401765 -0.07990827014578628
25.608305512851995 44.94508176474331 0.0 0.0 -2.4478686413310555 -0.0848626620841344
24.668199236690565 43.14188288885637 0.0 0.0 1.5577650011200745 -0.09002281065438211
23.729001168890633 41.336749581994425 0.0 0.0 -2.4361668919275914 -0.09536976066290492
22.790296203223093 39.529323768450446 0.0 0.0 1.5703677367473716 -0.10087801567630095
21.85155922546825 37.719204500199815 0.0 0.0 -2.4225733403925744 -0.10650747610641176
20.912140306156576 35.90594829295528 0.0 0.0 1.5850312992930924 -0.11221258584938099
19.97124651038105 34.08907934445298 0.0 0.0 -2.4067131417964163 -0.11791749118525985
19.027932832010002 32.268094941154764 0.0 0.0 1.6021522754193 -0.12355561154472383
18.081083170167936 30.44250036734471 0.0 0.0 -2.388118138716905 -0.12898498198138242
17.12942490271237 28.611815020865322 0.0 0.0 1.622176450166073 -0.13414209407238076
16.17150251746536 26.775670412645667 0.0 0.0 -2.366189386459453 -0.13873885458492907
15.20576430789004 24.933777319464298 0.0 0.0 1.645504439909189 -0.14283922965597284
14.2304778423351 23.086196559398186 0.0 0.0 -2.3400775150370876 -0.1457519462253245
13.244028657002959 21.233080089221136 0.0 0.0 1.6721482151629914 -0.1481638448693765
12.244537820511646 19.37547025592729 0.0 0.0 -2.3081996290140836 -0.14806334905770058
11.230823947127906 17.514077181724062 0.0 0.0 1.7005662302254763 -0.14859849513124956
10.200774656543649 15.651884622756159 0.0 0.0 -2.2662771627896277 -0.14304084008171358
9.154599001979658 13.789282238300656 0.0 0.0 1.723655821848844 -0.14368887706390865
8.088516691087591 11.933273961737058 0.0 0.0 -2.199792322800839 -0.12649604359889466
7.006514424647316 10.07957761500433 0.0 0.0 1.714309941274898 -0.13711228182950919
5.8971932895468875 8.245302446318291 0.0 0.0 -2.057111697882 -0.08878415655099658
4.776814648250181 6.40696284627068 0.0 0.0 1.573184590386262 -0.14493086342980277
3.603833731664559 4.594653284541527 0.0 0.0 -1.6600548838718083 -0.011729494531348195
2.4363218888381994 2.795113291975395 0.0 0.0 1.0221166994453057 -0.17460139057816093
1.3029565211548215 1.1983113721393537 0.0 0.0 -0.7623056357419387 0.1716189838705766
1.2438574750630664 0.6805160889125077 0.0 0.0 -791.594139961209 1.1327443835352096
48.00080154406999 160.00267181356662 0.0 0.0 -33.00429077336234 3.4416913763379853e-15
82.63267671144224 194.52861793315765 0.0 0.0 -6.276861409411094 -5.136416401941359
113.59589726708383 242.9143648028549 0.0 0.0 -9.81670113270343 -2.376471701559354
133.5039654843784 273.57287744840494 0.0 0.0 -5.891118196724729 -0.5721009057279078
146.93160849516715 293.90977535350123 0.0 0.0 -9.879319241841968 0.31248869925012723
156.33415380819952 307.86560409937636 0.0 0.0 -5.718562306824552 0.7366972545216008
163.0640274561695 317.60438189530095 0.0 0.0 -9.457608083420666 0.9375399564713751
167.93586852766137 324.42157435920547 0.0 0.0 -5.138846810893067 1.025721536108323
171.47175270943688 329.14493566773876 0.0 0.0 -8.79104781484124 1.0545220118912955
174.02165526989216 332.32804063629766 0.0 0.0 -4.431523384151294 1.050860207637406
175.82857315359584 334.3548513345209 0.0 0.0 -8.070784470220135 1.0290645460704013
177.0662318148177 335.49978181041024 0.0 0.0 -3.715127389949683 0.9970993827278439
177.86188651325332 335.9638995062004 0.0 0.0 -7.368379502905128 0.9595585289042079
178.31066416055285 335.8975884020763 0.0 0.0 -3.03282379389245 0.9191684394878936
178.48487734802012 335.41523915888945 0.0 0.0 -6.709793555947144 0.8775857279536678
178.44026411486954 334.6050699856676 0.0 0.0 -2.4000067767958777 0.8358346206926767
178.2202793008708 333.5358779641148 0.0 0.0 -6.103785519455439 0.7945567537677616
177.85912003439554 332.26179649860927 0.0 0.0 -1.8211876140332874 0.7541569616726023
177.38390433717004 330.8257226565018 0.0 0.0 -5.552094907498761 0.7148907869011403
176.81627077708885 329.2618351002263 0.0 0.0 -1.2962693559500647 0.6769177733787728
176.1735728103259 327.5974763801977 0.0 0.0 -5.053391435998574 0.6403345828885874
175.4697840143257 325.8545817974019 0.0 0.0 -0.8230859046602941 0.6051958090594655
174.71619306871406 324.05077878004647 0.0 0.0 -4.604939936800752 0.5715272835382024
173.92194336614244 322.20024272352157 0.0 0.0 -0.39851598970402335 0.5393346953820473
173.09445599899954 320.31437001639955 0.0 0.0 -4.203361182056154 0.5086092865916116
172.23976403872894 318.402311886748 0.0 0.0 -0.019014346305816332 0.47933169503364725
171.36277850587243 316.47140094052236 0.0 0.0 -3.8450113517435036 0.4514746229437634
170.4675011858526 314.52749402624164 0.0 0.0 0.31911067484038824 0.4250047502359515
169.55719569693187 312.5752492051972 0.0 0.0 -3.5261899069785505 0.39988415868400295
168.63452551199742 310.61835037880707 0.0 0.0 0.6195380651554672 0.376071432124633
167.70166564686542 308.65969002983525 0.0 0.0 -3.2432635083250645 0.35352253690874047
166.760393248492 306.7015182353342 0.0 0.0 0.8858362741896997 0.3321915471564294
165.81216119926523 304.7455643788205 0.0 0.0 -2.9927439717701283 0.312031255264575
164.85815800081417 302.7931366704408 0.0 0.0 1.121400997268383 0.29299369293961997
163.89935654129465 300.845203566336 0.0 0.0 -2.771337679606083 0.2750305788974696
162.93655383577556 298.9024603851026 0.0 0.0 1.3294164245120275 0.2580937038442954
161.97040342399882 296.9653837938334 0.0 0.0 -2.575975293850676 0.2421352600550497
161.00144178777163 295.034276339169 0.0 0.0 1.5128332822797717 0.2271081214473618
160.03010989372564 293.1093028013154 0.0 0.0 -2.403827017576466 0.21296607845391247
159.05677076014 291.1905198275306 0.0 0.0 1.6743593653387396 0.19966403225278073
158.081723779862 289.2779000412856 0.0 0.0 -2.252307061389314 0.18715815178076056
157.10521639631534 287.3713516110461 0.0 0.0 1.816459365860176 0.1754059976860547
156.127453619829 285.4707340893466 0.0 0.0 -2.119070154674458 0.16436661623282767
155.1486057821233 283.57587119020104 0.0 0.0 1.9413614465178188 0.15400060718409492
154.16881485372969 281.6865610553572 0.0 0.0 -2.0020024072765343 0.14427016841315066
153.18819958975016 279.8025844639555 0.0 0.0 2.0510684776449537 0.13513912063387679
152.20685972093025 277.92371136020785 0.0 0.0 -1.8992083914152396 0.12657291480586608
151.224879366596 276.04970600760134 0.0 0.0 2.147372265185675 0.11853862516333624
150.24232981436083 274.1803310240917 0.0 0.0 -1.8089959306255725 0.11100493002921397
149.2592717837725 272.31535050763665 0.0 0.0 2.231869458694897 0.10394208270098204
148.27575727092182 270.45453242458365 0.0 0.0 -1.7298597417299906 0.0973218740613504
147.29183105149517 268.5976504018595 0.0 0.0 2.305978148189361 0.09111758918379653
146.307531906562 266.7444850392915 0.0 0.0 -1.6604647791288656 0.08530395863764362
145.32289362261616 264.89482483727977 0.0 0.0 2.370954428262955 0.07985710644270849
144.33794580897057 263.0484668177548 0.0 0.0 -1.5996298868462144 0.0747544954801711
143.35271456554773 261.20521690141607 0.0 0.0 2.4279084285652317 0.06997487123966284
142.36722303065866 259.3648900938948 0.0 0.0 -1.5463121654160776 0.0654982046585193
141.38149182984884 257.52731052212 0.0 0.0 2.477819485828199 0.06130563549050638
140.39553944532688 255.69231135572772 0.0 0.0 -1.4995923093308168 0.0573794149181186
139.40938252062335 253.8597346408158 0.0 0.0 2.521550262775076 0.05370285022731203
138.4230361123474 252.02943106830696 0.0 0.0 -1.4586610554772914 0.05026024978993959
137.43651389913018 250.20125969519754 0.0 0.0 2.559859720154421 0.04703687012197566
136.4498283558 248.37508763240498 0.0 0.0 -1.422806797108512 0.044018863915621154
135.46299089906898 246.5507897109348 0.0 0.0 2.5934149131475266 0.04119323085342508
134.4760120098767 244.7282481354055 0.0 0.0 -1.3914043691911377 0.038547769458675774
133.48890133697378 242.90735213203072 0.0 0.0 2.6228016381457877 0.036071031283793964
132.50166778480124 241.08799759610946 0.0 0.0 -1.3639049591240386 0.0337522775091621
131.5143195886282 239.27008674339072 0.0 0.0 2.64853397846192 0.03158143675523206
130.52686437948904 237.45352776907478 0.0 0.0 -1.3398270854515104 0.02954906584257344
129.53930923995773 235.63823451610125 0.0 0.0 2.6710628207281353 0.0276463118793302
128.5516607528937 233.82412615421126 0.0 0.0 -1.3187485639973708 0.025864876432345696
127.56392504436238 232.0111268716125 0.0 0.0 2.690783425944872 0.024196981892592007
126.57610782134131 230.19916557972337 0.0 0.0 -1.300299382616931 0.022635339617051997
125.58821440519307 228.3881756309669 0.0 0.0 2.7080421328924267 0.021173119290780917
124.60024976178943 226.5780945509207 0.0 0.0 -1.284155396237864 0.01980392084184146
123.61221852832995 224.76886378343727 0.0 0.0 2.72314228243264 0.018521747300976443
122.62412503777541 222.9604284488896 0.0 0.0 -1.2700327640618703 0.017320979692652116
121.63597334059544 221.15273711600977 0.0 0.0 2.7363494389791683 0.016196352969608085
120.64776722541605 219.34574158610414 0.0 0.0 -1.2576830502158707 0.015142933772564149
119.65951023706381 217.53939668926466 0.0 0.0 2.747895986098637 0.014156099244074127
118.67120569343345 215.73366009229704 0.0 0.0 -1.246888915120298 0.013231517160402717
117.6828567011692 213.9284921178279 0.0 0.0 2.7579851636862713 0.012365127387361952
116.69446617007114 212.12385557441027 0.0 0.0 -1.2374603334679861 0.011553124161864048
115.70603682663459 210.31971559602843 0.0 0.0 2.7667946104988665 0.01079193990323013
114.71757122584552 208.51603949134744 0.0 0.0 -1.2292312783131187 0.010078229478343914
113.72907176334438 206.71279660236192 0.0 0.0 2.774479467503518 0.009408855873585864
112.74054068567348 204.90995817102277 0.0 0.0 -1.222056816472243 0.008780876526861547
111.75198010064642 203.1074972141861 0.0 0.0 2.7811750938186144 0.0081915302517519
110.76339198626432 201.3053884055702 0.0 0.0 -1.2158105702629598 0.007638225565212764
109.77477819998039 199.5036079658769 0.0 0.0 2.7869994398603097 0.007118529135450302
108.78614048638619 197.702133558533 0.0 0.0 -1.2103824994577828 0.006630155278056549
107.79748048537945 195.90094419181645 0.0 0.0 2.7920551180067754 0.006170955690398827
106.80879973877136 194.1000201267778 0.0 0.0 -1.20567696936304 0.00573891061742593
105.82009969764428 192.2993427911807 0.0 0.0 2.796431204867943 0.005332119191443496
104.83138172850803 190.4988946976322 0.0 0.0 -1.201611069679 0.004948791873456315
103.8426471188408 188.69865936679395 0.0 0.0 2.800204808346635 0.0045872421189230295
102.85389708355927 186.89862125556218 0.0 0.0 -1.198113156676655 0.004245879138697006
101.86513276950288 185.09876568796335 0.0 0.0 2.803442422953868 0.003923200892028689
100.87635526130704 183.29907879119384 0.0 0.0 -1.1951215936736936 0.0036177876487837324
99.8875655853135 181.4995474347426 0.0 0.0 2.806201099947799 0.003328295356656241
98.89876471456986 179.7001591722738 0.0 0.0 -1.1925836629000877 0.003053450268554414
97.90995357309401 177.90090218709378 0.0 0.0 2.8085294530306477 0.002792042749167223
96.92113303950654 176.10176524033835 0.0 0.0 -1.1904546408964372 0.00254292256332711
95.93230395162819 174.30273762116826 0.0 0.0 2.810468513150809 0.002304993453213555
94.94346710919979 172.50380909978588 0.0 0.0 -1.1886970089233984 0.002077208244003259
93.95462327822753 170.70496988243156 0.0 0.0 2.8120524512806355 0.00185856443210497
92.96577319400934 168.9062105682555 0.0 0.0 -1.1872797941685533 0.0016481001446635446
91.97691756391683 167.1075221079817 0.0 0.0 2.813309180469922 0.0014448886564188967
90.98805707114734 165.3088957638433 0.0 0.0 -1.1861780208806252 0.0012480359072171154
89.99919237753932 163.51032307157388 0.0 0.0 2.814260846964874 0.0010566755251879556
89.01032412627697 161.7117958026603 0.0 0.0 -1.1853722733662622 0.0008699651839982891
88.02145294469152 159.91330592799198 0.0 0.0 2.8149242216216273 0.0006870831677012745
87.032579447318 158.1148455830717 0.0 0.0 -1.1848483535693752 0.0005072247703736821
86.04370423817335 156.31640703278603 0.0 0.0 2.8153109933234717 0.00032959807259480556
85.05482791336551 154.5179826376703 0.0 0.0 -1.1845970283181977 0.00015342142490126776
84.0659510643147 152.7195648198615 0.0 0.0 2.8154279766720336 -2.2080647715583268e-05
83.07707427919614 150.92114602955508 0.0 0.0 -1.184613871912223 -0.00019768048417390105
82.08819814634566 149.12271871216217 0.0 0.0 2.8152772308516063 -0.00037415134690732543
81.09932325636277 147.3242752739607 0.0 0.0 -1.1848991837859728 -0.000552269624844115
80.1104502045867 145.52580804928908 0.0 0.0 2.8148560962561078 -0.0007328197394400604
79.12157959361937 143.72730926653864 0.0 0.0 -1.1854579950332962 -0.0009165961135195744
78.13271203598683 141.9287710129075 0.0 0.0 2.814157146294015 -0.0011044082875173444
77.1438481565181 140.1301851997173 0.0 0.0 -1.1863001608478498 -0.0012970824012903392
76.154988593969 138.33154352635455 0.0 0.0 2.8131680585878343 -0.0014954671250144713
75.16613400473999 136.53283744338484 0.0 0.0 -1.1874405271338446 -0.0017004356176215651
74.17728506504872 134.73405811373212 0.0 0.0 2.8118713934040116 -0.0019128903198080138
73.1884424726925 132.93519637278516 0.0 0.0 -1.1888992004080947 -0.0021337665050893406
72.19960695041324 131.13624268851515 0.0 0.0 2.8102442900853077 -0.0023640367157753417
71.21077924774532 129.3371871168865 0.0 0.0 -1.1907018978602721 -0.0026047144195580074
70.22196014307318 127.5380192564118 0.0 0.0 2.8082580629501805 -0.002856859472203155
69.23315044675998 125.73872820246648 0.0 0.0 -1.192880400480199 -0.003121581878314572
68.24435100295605 123.9393024963264 0.0 0.0 2.80587769474041 -0.0034000465223620324
67.25556269159952 122.139730072388 0.0 0.0 -1.195473114317096 -0.003693479570472391
66.26678643031411 120.33999820255416 0.0 0.0 2.8030612213173427 -0.004003172054783732
65.27802317619026 118.54009343630575 0.0 0.0 -1.198525746135573 -0.004330487072881084
64.28927392609302 116.74000153755557 0.0 0.0 2.79975899518827 -0.004676864071548437
63.30053971862215 114.93970741825825 0.0 0.0 -1.2020921007681054 -0.005043826807252572
62.31182163371868 113.13919506649643 0.0 0.0 2.7959128161704996 -0.005432988390136728
61.32312079259738 111.33844746856191 0.0 0.0 -1.2062350280149658 -0.005846059213347132
60.33443835553379 109.53744652677932 0.0 0.0 2.791454913109078 -0.006284853337376717
59.345775520236515 107.73617297155742 0.0 0.0 -1.2110275159788984 -0.006751297155926039
58.35713351679965 105.93460626471793 0.0 0.0 2.786306767463266 -0.007247435718380046
57.368513602701505 104.13272449777233 0.0 0.0 -1.2165539507742693 -0.007775443030308082
56.379917053964924 102.33050428049759 0.0 0.0 2.7803777603581636 -0.008337629489723497
55.39134515555686 100.52792062098919 0.0 0.0 -1.2229115707318314 -0.008936451388706246
54.40279918662543 98.72494679648534 0.0 0.0 2.7735636246003423 -0.009574520590515334
53.41428040355041 96.92155421280276 0.0 0.0 -1.2302121104705108 -0.010254614218617064
52.425790015439084 95.11771225148686 0.0 0.0 2.7657446909977708 -0.010979684631571729
51.43732915755164 93.31338810532579 0.0 0.0 -1.2385836646363728 -0.0117528698567817
50.448898854401975 91.50854659930548 0.0 0.0 2.756783919228205 -0.012577504009261276
49.46049997618466 89.70314999676805 0.0 0.0 -1.2481727681119068 -0.013457127874112018
48.47213318479589 87.89715778751662 0.0 0.0 2.7465247050962844 -0.014395498711063937
47.48379886660866 86.09052645899115 0.0 0.0 -1.2591466944148735 -0.015396600144160999
46.495497051176315 84.28320924906117 0.0 0.0 2.7347884835342455 -0.01646465107895878
45.507227313816 82.47515587832291 0.0 0.0 -1.2716959437893962 -0.017604115168992962
44.518988656281664 80.66631225973717 0.0 0.0 2.721372156990647 -0.018819704026896034
43.53077936237162 78.85662018722968 0.0 0.0 -1.286036878983296 -0.02011638453622311
42.5425968256706 77.04601700268901 0.0 0.0 2.7060454306046324 -0.021499377851522894
41.55443734328116 75.23443523981923 0.0 0.0 -1.3024143874983523 -0.02297415781873724
40.5662958676729 73.4218022478846 0.0 0.0 2.6885481911949825 -0.024546442253942757
39.57816571372447 71.60803979790285 0.0 0.0 -1.3211043970881349 -0.026222178310259636
38.59003821084172 69.79306367516577 0.0 0.0 2.6685881718785325 -0.028007519310996543
37.601902289989134 67.97678326500181 0.0 0.0 -1.3424159383564245 -0.02990879016110881
36.613744000119084 66.15910114213445 0.0 0.0 2.6458392953004193 -0.031932439014280334
35.62554593803938 64.33991267966144 0.0 0.0 -1.3666922344689212 -0.034084971637224015
34.63728658768744 62.519105697374044 0.0 0.0 2.619941331743483 -0.036372864800608085
33.64893954929908 60.69656017786706 0.0 0.0 -1.3943100584255461 -0.0388024508814695
32.66047265534052 58.87214809099255 0.0 0.0 2.5905018407088747 -0.041379771235149576
31.671846952422754 57.04573337661918 0.0 0.0 -1.4256761203482853 -0.04411038564560599
30.683015560298458 55.217172159603734 0.0 0.0 2.557101888760265 -0.04699913721172777
29.693922371984534 53.386313285844835 0.0 0.0 -1.4612186880712343 -0.05004984537459478
28.70450065689613 51.552999298503046 0.0 0.0 2.519307744649737 -0.053264945887523396
27.71467148041833 49.71706802448361 0.0 0.0 -1.5013717688913388 -0.05664500445931253
26.724342166870205 47.878354949169726 0.0 0.0 2.4766917067058145 -0.06018819973301248
25.733404499670694 46.03669668666345 0.0 0.0 -1.5465480949688413 -0.06388954393558777
24.74173345398945 44.19193579308485 0.0 0.0 2.4288663943321396 -0.06774023187222156
23.749185270125338 42.34392749930017 0.0 0.0 -1.5970958324822746 -0.07172632084258268
22.755597660428815 40.492548581731874 0.0 0.0 2.375537974323386 -0.07582821801931772
21.76078751457954 38.637709581685165 0.0 0.0 -1.6532326279668084 -0.080018109680978
20.764556028086663 36.77937003019997 0.0 0.0 2.316584233572101 -0.08426081861858137
19.766683608843188 34.91755969618441 0.0 0.0 -1.7149496629829102 -0.0885075924168035
18.766950301417616 33.052402767360945 0.0 0.0 2.2521612723577107 -0.09270307738699657
17.76511551052183 31.184153880410513 0.0 0.0 -1.7818779814755032 -0.09676678338265887
16.760987052802985 29.313231913942655 0.0 0.0 2.18283325573568 -0.10062367953135976
15.754333215152103 27.440281287310086 0.0 0.0 -1.8531064534610877 -0.10414112669475983
14.745114001618449 25.566205338404 0.0 0.0 2.1096912963314054 -0.10724700905670304
13.733119905748506 23.69227772635451 0.0 0.0 -1.926917051094975 -0.10970226479539136
12.718768683845196 21.82012436734636 0.0 0.0 2.034345403544812 -0.11154009951219379
11.701695453436715 19.951964391360658 0.0 0.0 -2.0002820328713895 -0.1122292623270873
10.683584087628342 18.090347449644955 0.0 0.0 1.9584163544451627 -0.1122907386063865
9.662840697965311 16.23882478511427 0.0 0.0 -2.0674707442791984 -0.1102077776913788
8.644881063429757 14.400773859884197 0.0 0.0 1.8812522460174819 -0.10837034255737166
7.6223729261164035 12.58165937499714 0.0 0.0 -2.115292206612004 -0.10168367958246094
6.613023258755303 10.784745360792154 0.0 0.0 1.791313720230015 -0.09941992962258794
5.586905422331375 9.018768839886492 0.0 0.0 -2.1060634920888432 -0.08344399680286685
4.604818329426427 7.284947401152042 0.0 0.0 1.6366948283692722 -0.08780333875615653
3.5534879882997923 5.593162398514088 0.0 0.0 -1.919713972629289 -0.048707068467908954
2.641030530419027 3.974160152833481 0.0 0.0 1.255932101855798 -0.07920483486445207
1.5235197006690915 2.395859044909821 0.0 0.0 -1.2634998975744978 0.007032125059215133
0.8093776790631855 1.246126008821052 0.0 0.0 0.546187947561279 -0.022430174675129422
0.4630846701976133 0.7544611562049844 0.0 0.0 791.1085389439487 0.6951752422374788
44.623372389567756 148.74457463189253 0.0 0.0 35.99805417907524 2.6645352591003757e-15
88.33119979939968 184.86835338768535 0.0 0.0 50.12373507544918 -16.748747653025365
121.49032187717081 235.98710720583335 0.0 0.0 47.886937048416755 -27.728501194148365
142.9971807700248 272.2226177238858 0.0 0.0 38.833993655259746 -20.47507621425924
156.64203631583965 295.47088487306354 0.0 0.0 39.00176230814148 -36.25998705167067
165.6784121824686 310.73947005779394 0.0 0.0 31.847349506435616 -19.507913102443364
171.85545986986352 321.03183801411984 0.0 0.0 33.11953374368139 -42.395182109983054
176.14346974612317 328.045986486383 0.0 0.0 26.692872168492958 -17.027126599458608
179.11928376847038 332.79180236400055 0.0 0.0 28.499011699688598 -47.47177499037813
181.14947042907227 335.9087281032879 0.0 0.0 22.49486901289726 -13.776387507905541
182.47944268678032 337.82355809454924 0.0 0.0 24.650931800923118 -51.974435372013005
183.28037474085514 338.83329194847846 0.0 0.0 18.94551538295928 -10.090398814244406
183.6754988370998 339.1514091885236 0.0 0.0 21.36203923539796 -56.14245202096943
183.75579394685226 338.9353214717287 0.0 0.0 15.887375659902581 -6.144370209382499
183.58977988861022 338.3034699772094 0.0 0.0 18.510881432253605 -60.10671829054746
183.22989755614253 337.3464272757539 0.0 0.0 13.223734401161998 -2.037709616842894
182.71680039111092 336.134354341356 0.0 0.0 16.018492647747227 -63.94378378742962
182.0823300523956 334.72216021385634 0.0 0.0 10.888774152221174 2.169966312905871
181.35162994180533 333.1531627963058 0.0 0.0 13.82902775250975 -67.70050960448162
180.54468086717685 331.4617450438322 0.0 0.0 8.8343612556762 6.441550083475647
179.67743783354535 329.67531990398805 0.0 0.0 11.900413116462268 -71.40645193263053
178.76268617154741 327.81580919088526 0.0 0.0 7.023254258953614 10.753394880129797
177.81069563558728 325.9007733969757 0.0 0.0 10.199312895554453 -75.08059212987837
176.829726631926 323.94428624547953 0.0 0.0 5.425316297646376 15.090230102687926
175.826426257849 321.95761933077375 0.0 0.0 8.698245474324107 -78.73523170056674
174.80614105863162 319.94978331088794 0.0 0.0 4.01529974360885 19.442141414677504
173.77316594570266 317.9279592186862 0.0 0.0 7.373868779660889 -82.3783584740349
172.73094360977402 315.8978445620827 0.0 0.0 2.771510541687917 23.80270017618264
171.6822251282017 313.8639326101618 0.0 0.0 6.205933573588204 -86.01513660683787
170.62919987949994 311.82973878677046 0.0 0.0 1.6749828263148885 28.167769086397605
169.57360098809616 309.7979848416525 0.0 0.0 5.176628018800024 -89.64886892816533
168.5167911327136 307.7707490782257 0.0 0.0 0.7089541138248308 32.534723540449214
167.4598325087664 305.7495891307065 0.0 0.0 4.270153240862932 -93.28162902563697
166.40354394645885 303.7356424329066 0.0 0.0 -0.14148210489300084 36.90193722187314
165.34854757887734 301.72970848530167 0.0 0.0 3.472434938168675 -96.9146806580423
164.2953069844601 299.7323162247335 0.0 0.0 -0.8896196177699807 41.26843970980473
163.24415835770304 297.7437791719 0.0 0.0 2.770914602136621 -100.54875748267037
162.19533597020856 295.76424053402917 0.0 0.0 -1.5473219503952862 45.633687877713434
161.1489929502528 293.79371004224834 0.0 0.0 2.1543871852619816 -104.18424985785492
160.10521822143602 291.8320939834184 0.0 0.0 -2.1251692409967546 49.99741331635555
159.0640502888237 289.87921962672306 0.0 0.0 1.6128661947033294 -107.82132936716069
158.02548843788583 287.93485503435244 0.0 0.0 -2.632583756181731 54.35952081733167
156.9895018108103 285.9987250728407 0.0 0.0 1.1374656860318595 -111.46003146111929
155.9560367423157 284.07052429949323 0.0 0.0 -3.0779417395932285 58.72002121446053
154.92502266931405 282.149927282008 0.0 0.0 0.7202936164005536 -115.10030991851157
153.89637687337765 280.2365968118015 0.0 0.0 -3.4686755203760242 63.07898732921801
152.870008269126 278.3301903926312 0.0 0.0 0.3543538255608638 -118.74207237860549
151.84582041362813 276.43036531973564 0.0 0.0 -3.8113677384707074 67.4365254111575
150.8237138817646 274.5367826096358 0.0 0.0 0.03345541281504438 -122.38520320318017
149.80358812470655 272.64910999538813 0.0 0.0 -4.1118384867765485 71.79275692483526
148.78534291077887 270.7670241648766 0.0 0.0 -0.24787100046401633 -126.0295779015947
147.76887942668262 268.890212387535 0.0 0.0 -4.3752256930270335 76.14780720479772
146.75410110617918 267.01837364973426 0.0 0.0 -0.4944503333010033 -129.67507197696997
145.74091423839175 265.1512193975433 0.0 0.0 -4.606058898434668 80.50179863256383
144.72922840129573 263.2884739676841 0.0 0.0 -0.7105335778618098 -133.32156611627565
143.7189567536748 261.42987477170396 0.0 0.0 -4.808326585651429 84.8548467605674
142.71001621802458 259.57517228937763 0.0 0.0 -0.8998619732093118 -136.96894901290563
141.70232757484484 257.72412991341054 0.0 0.0 -4.9855372594251435 89.20705832944263
140.69581548946923 255.87652368140584 0.0 0.0 -1.0657250630327724 -140.61711868176934
139.69040848673328 254.03214192444312 0.0 0.0 -5.140774559502944 93.55853047990084
138.68603888557436 252.19078485545023 0.0 0.0 -1.2110129471366236 -144.26598283559852
137.6826427037452 250.35226411525147 0.0 0.0 -5.276746742187157 97.90935069650973
136.6801595412893 248.5164022917179 0.0 0.0 -1.3382630908144222 -147.9154586963398
135.6785324489391 246.68303242391585 0.0 0.0 -5.395830916749901 102.2595971814059
134.67770778598663 244.85199749967154 0.0 0.0 -1.4497020915389953 -151.56547248333945
133.6776350727379 243.0231499546507 0.0 0.0 -5.5001124467013085 106.6093394637773
132.67826683952248 241.19635117792882 0.0 0.0 -1.547282817542495 -155.21595873719994
131.67955847620556 239.37147102850597 0.0 0.0 -5.591419932255377 110.95863912104308
130.68146808292323 237.54838736569585 0.0 0.0 -1.632717339014107 -158.86685957390299
129.68395632313033 235.7269855952333 0.0 0.0 -5.671356188161354 115.30755053350694
128.6869862812178 233.9071582331964 0.0 0.0 -1.7075060530209498 -162.51812393078356
127.6905233251469 232.0888044886291 0.0 0.0 -5.741325615301662 119.65612162748829
126.69453497370371 230.27182986490453 0.0 0.0 -1.7729633930990474 -166.16970684059083
125.69899076971438 228.45614578076697 0.0 0.0 -5.802558337968634 124.00439458089478
124.70386215898324 226.64166920982655 0.0 0.0 -1.8302404816888895 -169.82156875135848
123.70912237493826 224.8283223393434 0.0 0.0 -5.856131454889862 128.35240647608185
122.714746329488 223.01603224758753 0.0 0.0 -1.8803450611310382 -173.47367490169384
121.72071050855263 221.20473059815194 0.0 0.0 -5.902987726181692 132.70018989511752
120.72699287517871 219.39435335261814 0.0 0.0 -1.924159007381263 -177.12599475465578
119.73357277587027 217.58484049850097 0.0 0.0 -5.943951982261922 137.04777345671866
118.74043085333469 215.7761357935711 0.0 0.0 -1.96245370085947 -180.77850148966527
117.74754896423173 213.96818652518476 0.0 0.0 -5.979745519930361 141.39518229704993
116.75491010128432 212.1609432835687 0.0 0.0 -1.9959035051107605 -184.43117154804162
115.762498320748 210.35435974902603 0.0 0.0 -6.010998716606508 145.74243849709626
114.77029867261291 208.54839249118552 0.0 0.0 -2.0250975691101303 -188.0839842307979
113.7782971369245 206.74300078105324 0.0 0.0 -6.038262073174678 150.08956146344246
112.78648056214934 204.9381464134679 0.0 0.0 -2.050550157133273 -191.73692134047917
111.79483660882963 203.13379354125001 0.0 0.0 -6.062015870892537 154.43656826340344
110.80335369473757 201.32990851882218 0.0 0.0 -2.0727096739782382 -195.38996686562373
109.81202094544052 199.52645975513914 0.0 0.0 -6.0826786048302495 158.7834739224401
108.82082814572452 197.72341757544194 0.0 0.0 -2.091966540653374 -199.04310670129706
107.82976569608083 195.92075409198017 0.0 0.0 -6.100614337158987 163.130291686864
106.83882456968813 194.1184430814982 0.0 0.0 -2.108660059856703 -202.69632840237807
105.8479962728859 192.31645986987633 0.0 0.0 -6.116139100127953 167.47703325571183
104.85727280894952 190.5147812246205 0.0 0.0 -2.123084382337197 -206.34962096454785
103.86664664134264 188.7133852523736 0.0 0.0 -6.129526455988724 171.8237089857507
102.87611066218976 186.91225130306483 0.0 0.0 -2.1354936836775664 -210.0029746319936
101.88565815980962 185.11135987905155 0.0 0.0 -6.14101231109214 176.1703280743718
100.89528279053198 183.31069254970183 0.0 0.0 -2.146106637875164 -213.65638072565577
99.90497854935488 181.51023187002133 0.0 0.0 -6.150799069512004 180.5168987217111
98.91473974468944 179.70996130437595 0.0 0.0 -2.1551102689124377 -217.309831490124
97.9245609725907 177.90986515360981 0.0 0.0 -6.159059196234381 184.86342827314002
96.93443709342654 176.10992848569072 0.0 0.0 -2.1626632425860635 -220.96331995653128
95.94436320928205 174.31013707063335 0.0 0.0 -6.165938255845333 189.20992335029928
94.95433464177597 172.5104773172689 0.0 0.0 -2.1688986621676634 -224.61683982073353
93.96434691226355 170.7109362137576 0.0 0.0 -6.171557476047866 193.55638996708836
92.97439572227815 168.91150127068835 0.0 0.0 -2.173926412276302 -228.27038533235634
91.98447693290454 167.11216046492166 0.0 0.0 -6.176015883500895 197.90283363697188
90.9945865484864 165.31290218791042 0.0 0.0 -2.17783509683602 -231.92395119298794
90.0047206984132 163.51371519419106 0.0 0.0 -6.179392046917059 202.24925946808105
89.01487561946956 161.71458855153406 0.0 0.0 -2.1806935967420316 -235.5775324616116
88.02504763994851 159.91551159308324 0.0 0.0 -6.181745463360926 206.5956722545895
87.0352331634952 158.11647387018647 0.0 0.0 -2.182552285275591 -239.23112446969753
86.04542865246142 156.31746510652638 0.0 0.0 -6.18311760422921 210.94207656173486
85.05563061290462 154.51847515304235 0.0 0.0 -2.1834439161368664 -242.88472273626417
84.06583557969955 152.71949394280153 0.0 0.0 -6.183532647338666 215.28847680409962
83.07604009961474 150.92051144602053 0.0 0.0 -2.1833841981849957 -246.5383228901143
82.08624071740535 149.12151762670146 0.0 0.0 -6.18299790331298 219.63487732697564
81.09643396024796 147.32250239800842 0.0 0.0 -2.1823720732654124 -250.19192059275764
80.10661632178831 145.5234555771594 0.0 0.0 -6.181503941708968 223.98128248211242
79.11678424678922 143.7243668408313 0.0 0.0 -2.180389698210064 -253.84551146121458
78.12693411579181 141.92522567943408 0.0 0.0 -6.179024425415491 228.32769670345863
77.13706222927799 140.12602135051281 0.0 0.0 -2.177402126406264 -257.4990909889798
76.14716478873979 138.32674283062806 0.0 0.0 -6.175515648392434 232.6741245900501
75.15723788239676 136.52737876673348 0.0 0.0 -2.1733566976031966 -261.1526544678044
74.16727746692796 134.72791742514465 0.0 0.0 -6.170915761467086 237.0205709839923
73.17727934791937 132.9283466391165 0.0 0.0 -2.1681821051809607 -264.80619689970524
72.18723916270324 131.12865375471955 0.0 0.0 -6.165143687209081 241.36704105962116
71.19715235896129 129.32882557383508 0.0 0.0 -2.161787142048297 -268.45971290962564
70.20701417390623 127.52884829458543 0.0 0.0 -6.158097689782437 245.71354041841755
69.21681961382947 125.72870744898333 0.0 0.0 -2.154059097477841 -272.11319664522165
68.22656342989242 123.9283878382523 0.0 0.0 -6.149653586153022 250.06007519027074
67.23624009359817 122.12787346246142 0.0 0.0 -2.1448617726840666 -275.7666416697481
66.24584377118158 120.32714744810482 0.0 0.0 -6.139662566011282 254.40665214785528
65.25536829568802 118.52619197102734 0.0 0.0 -2.1340330918430936 -279.42004084208713
64.26480713760313 116.72498817345357 0.0 0.0 -6.127948578807434 258.75327883583964
63.274153373181534 114.92351607820368 0.0 0.0 -2.1213822623894316 -283.0733861785126
62.28339965072886 113.12175449499955 0.0 0.0 -6.114305255610134 263.099963713744
61.29253815520596 111.31968092123438 0.0 0.0 -2.106686438805923 -286.7266686999178
60.301560566948055 109.5172714362034 0.0 0.0 -6.098492307360232 267.446716323729
59.31045802230662 107.71450058877265 0.0 0.0 -2.0896868447744055 -290.37987825253566
58.3192210658637 105.91134127572246 0.0 0.0 -6.080231352051328 271.7935474854322
57.32783960277344 104.10776461264076 0.0 0.0 -2.0700842941507744 -294.03300329842426
56.336302843109706 102.30373979414014 0.0 0.0 -6.059201113923052 276.14046951731984
55.34459924653957 100.49923394509747 0.0 0.0 -2.047534048757086 -297.686030671191
54.35271645627691 98.69421195997275 0.0 0.0 -6.0350319281180305 280.4874965062738
53.36064123318963 96.88863633171182 0.0 0.0 -2.021639956283593 -301.3389452863797
52.368359376328925 95.08246696590858 0.0 0.0 -6.007299496699034 284.83464462169314
51.37585564493877 93.27566098378426 0.0 0.0 -1.9919478149518568 -304.99172979371633
50.38311366521072 91.46817250837658 0.0 0.0 -5.975517848922152 289.1819324973295
49.390115832686234 89.65995243670561 0.0 0.0 -1.9579379161861539 -308.64436416142814
48.39684320536253 87.85094819699027 0.0 0.0 -5.9391314648188995 293.52938168846094
47.40327538386041 86.04110348687362 0.0 0.0 -1.9190167533886893 -312.2968251706585
46.409390380382966 84.23035799445532 0.0 0.0 -5.897506579510775 297.87701723057137
45.41516447844275 82.41864710623977 0.0 0.0 -1.8745079357517511 -315.9490857999234
44.420572078922234 80.60590159615094 0.0 0.0 -5.849921723828686 302.2248683165491
43.425585525868584 78.79204729766256 0.0 0.0 -1.8236424011125791 -319.60111447573206
42.43017492476102 76.97700476504106 0.0 0.0 -5.79555768347376 306.572969129075
41.43430794183264 75.16068892513638 0.0 0.0 -1.765548200163039 -323.25287415527396
40.4379495849401 73.34300872275494 0.0 0.0 -5.733487209288967 310.92135984899653
39.441061972946486 71.52386677038706 0.0 0.0 -1.6992402859235085 -326.9043212132836
38.44360408976449 69.70315901108997 0.0 0.0 -5.662665085025878 315.2700878799513
37.44553152011359 67.88077440573322 0.0 0.0 -1.6236111046270025 -330.555404104127
36.44679618481719 66.05659467233497 0.0 0.0 -5.581919555345962 319.61920930704184
35.44734606272438 64.23049409150786 0.0 0.0 -1.537423267618351 -334.20606177785425
34.44712492670253 62.40233942379537 0.0 0.0 -5.489946748338639 323.96879059490504
33.44607208701166 60.571989975064334 0.0 0.0 -1.4393063456867026 -337.856221878125
32.44412217914367 58.739297874716414 0.0 0.0 -5.38531061495371 328.3189104758008
31.441204995846853 56.904108638383775 0.0 0.0 -1.327760919202376 -341.5057988061854
30.437245434660813 55.06626212270352 0.0 0.0 -5.266452268329203 332.66966187166844
29.432163535176787 53.225593972040706 0.0 0.0 -1.2011746468244269 -345.1546918837306
28.425874797057823 51.381937776416684 0.0 0.0 -5.131714498731355 337.0211534998414
27.418290618658336 49.53512803122763 0.0 0.0 -1.057857336045572 -348.80278411617326
26.409319410194446 47.68500435922978 0.0 0.0 -4.979389833907817 341.3735104215088
25.39886766307347 45.83141692836901 0.0 0.0 -0.8961050090630351 -352.44994252646137
24.386842802214133 43.9742341944434 0.0 0.0 -4.8078038573539175 345.726872095118
23.37315487509431 42.11335201067183 0.0 0.0 -0.7143067239312586 -356.096021813898
22.35772346718984 40.24870743494096 0.0 0.0 -4.615449293811196 350.08138516877244
21.340478487648625 38.38029260395334 0.0 0.0 -0.5111120102563973 -359.7408742766479
20.321377741977976 36.50817957941081 0.0 0.0 -4.401189603946364 354.43718571109105
19.30039864902717 34.632537502845416 0.0 0.0 -0.28568040045206544 -363.38437015829356
18.27758751523833 32.753680296516364 0.0 0.0 -4.164550687605072 358.7943602937795
17.253007965651747 30.872073846529513 0.0 0.0 -0.038036126975441675 -367.02643181642406
16.226894339221747 28.988441029477304 0.0 0.0 -3.906109051105034 363.15286279499753
15.199424463381614 27.103699972695733 0.0 0.0 0.23044848043718957 -370.66707328517316
14.171236761727162 25.219242848100603 0.0 0.0 -3.6279490481185235 367.5123288576075
13.142531374155828 23.336577948671454 0.0 0.0 0.5164019165499667 -374.3063795403625
12.114899597517283 21.45820404100271 0.0 0.0 -3.3340609901144376 371.8716170838875
11.087918930787682 19.586117190514887 0.0 0.0 0.8134851536112819 -377.94413179228235
10.065788706066348 17.724842971879106 0.0 0.0 -3.0302612898294115 376.22750480870445
9.04466705251954 15.875739570663365 0.0 0.0 1.1104438594488784 -381.57794185049534
8.037003055382929 14.047970995051472 0.0 0.0 -2.7222672900537646 380.57046839056534
7.024803287494092 12.237375856597556 0.0 0.0 1.3855521931757266 -385.1957393322565
6.049052871963681 10.466519656585808 0.0 0.0 -2.407219994917739 384.8698740397038
5.0381460958460185 8.707543811617573 0.0 0.0 1.587922356828301 -388.747823004943
4.133861180546367 7.02557761723079 0.0 0.0 -2.044095596872353 389.02151491380187
3.0734470524141058 5.312058272522322 0.0 0.0 1.5768578320283382 -392.0495946585408
2.326069883430127 3.733292738292862 0.0 0.0 -1.4950680628871282 392.68455231674386
1.0843763004412985 2.001488723176432 0.0 0.0 1.0371368377294061 -394.55733514388544
0.6177635812685938 0.6404930604171759 0.0 0.0 -0.6795789139937938 395.09240665829026
-0.19565631106005443 -0.10764819480833053 0.0 0.0 -791.0553700894081 -395.0816941182848
SCALARS Strain float 6
LOOKUP_TABLE default
1.2874900798265365e-19 0.001353575628852596 0.0 0.0 0.0009359494087853501 6.776263578034403e-21
0.00032870693777366645 0.0015836899341947134 0.0 0.0 0.0013032171119574927 0.0004354674389095981
0.0005069418970942996 0.0019954001061684586 0.0 0.0 0.0012450603632949966 0.0007209410309812616
0.0006133039544714411 0.0022932346346941227 0.0 0.0 0.0010096838351005399 0.0005323519815086312
0.0006800077084863923 0.002484782739571371 0.0 0.0 0.0010140458200938805 0.0009427596632872558
0.0007245657116030489 0.0026103594638400163 0.0 0.0 0.000828031087263457 0.0005072057406124183
0.0007554590846124015 0.0026947520003602916 0.0 0.0 0.0008611078774429062 0.0011022747348135584
0.0007772967379623017 0.0027520294554713395 0.0 0.0 0.0006940146764971278 0.0004427052915441337
0.0007928174305566746 0.002790560172195864 0.0 0.0 0.0007409743043159852 0.0012342661497123006
0.0008037685199482724 0.0028156388696206976 0.0 0.0 0.000584866594466073 0.00035818607517139117
0.00081132375255471 0.0028307972527725094 0.0 0.0 0.0006409242269606113 0.0013513353196417848
0.0008163038715364897 0.002838491795160593 0.0 0.0 0.0004925834000984727 0.0002623503691423386
0.0008193007607813368 0.002840487595282191 0.0 0.0 0.0005554130202664219 0.0014597037525203743
0.0008207519750315793 0.0028380858327938215 0.0 0.0 0.0004130717673076361 0.0001597536254209766
0.0008209873889348032 0.002832265360031272 0.0 0.0 0.0004812829173924925 0.0015627746755340758
0.0008202596937163713 0.002823774580021338 0.0 0.0 0.0003438170945872516 5.2980450018961167e-05
0.0008187649408709279 0.0028131931421789833 0.0 0.0 0.00041648080900156116 0.0016625383784568417
0.0008166568198678963 0.002800974611925939 0.0 0.0 0.00028310812812064394 -5.641912415117159e-05
0.0008140568110160064 0.0027874767380874597 0.0 0.0 0.00035955472173028756 0.0017602132497032035
0.0008110615735283779 0.002772983407791408 0.0 0.0 0.0002296933928150731 -0.0001674803021829674
0.0008077484186127387 0.0027577208854980945 0.0 0.0 0.00030941074119747187 0.0018565677502372666
0.0008041794341330411 0.0027418700333567323 0.0 0.0 0.00018260461090424915 -0.00027958826689368233
0.0008004046361559996 0.002725575647028853 0.0 0.0 0.00026518213545674595 0.0019520953953673014
0.0007964644075747443 0.002708953682528011 0.0 0.0 0.00014105822391378061 -0.00039234598267758964
0.0007923914045787329 0.0026920969145060075 0.0 0.0 0.00022615438250737788 0.0020471160242054314
0.0007882120606469019 0.002675079409907331 0.0 0.0 0.00010439779351129627 -0.0005054956767863823
0.0007839477817948237 0.0026579600943262716 0.0 0.0 0.00019172058844862223 0.0021418373203156626
0.0007796159024059594 0.0026407856147699325 0.0 0.0 7.20592742633081e-05 -0.0006188702045831925
0.0007752304534463007 0.0026235926506971894 0.0 0.0 0.00016135427309240736 0.0022363935517684705
0.0007708027824297342 0.0026064097882109133 0.0 0.0 4.3549553665757975e-05 -0.000732361996246637
0.0007663420553516713 0.002589259045435213 0.0 0.0 0.0001345923286706302 0.002330870592122779
0.000761855664088443 0.002572157117368043 0.0 0.0 1.843280714223784e-05 -0.0008459028120509581
0.0007573495576918229 0.002555116393765471 0.0 0.0 0.00011102398444537073 0.002425322354657319
0.0007528285121621784 0.0025381457924752424 0.0 0.0 -3.6785345427866223e-06 -0.0009594503677668111
0.0007482963503293472 0.002521251442102839 0.0 0.0 9.028330857739273e-05 0.0025197816970992334
0.0007437561211670995 0.0025044372412810142 0.0 0.0 -2.3130109876323593e-05 -0.0010729794324527055
0.000739210246058115 0.002487705316633497 0.0 0.0 7.204377984228974e-05 0.0026142676945403987
0.0007346606380971214 0.002471056397417675 0.0 0.0 -4.023037052328744e-05 -0.0011864758848181603
0.0007301087993729444 0.0024544901215606185 0.0 0.0 5.6014067004289876e-05 0.00270879049629544
0.0007255559002615623 0.0024380052851600857 0.0 0.0 -5.5254400078564e-05 -0.0012999327462231568
0.0007210028440056301 0.0024216000453919336 0.0 0.0 4.193452125166345e-05 0.002803354563539324
0.0007164503192736563 0.002405272085022055 0.0 0.0 -6.84471774719574e-05 -0.0014133475412498367
0.0007118988428877589 0.002389018745288961 0.0 0.0 2.9574108027295536e-05 0.0028979608179841693
0.0007073487945230406 0.0023728371327618792 0.0 0.0 -8.002648503884012e-05 -0.0015267205515752886
0.0007028004448461927 0.0023567242048072013 0.0 0.0 1.8727634217325425e-05 0.0029926080578773612
0.0006982539782977769 0.002340676837494141 0.0 0.0 -9.018556333898929e-05 -0.0016400536705578738
0.0006937095115129015 0.002324691879116276 0.0 0.0 9.213199655140397e-06 0.003087293881839758
0.0006891671081768204 0.002308766191954608 0.0 0.0 -9.909556100805576e-05 -0.0017533496606861772
0.0006846267909886838 0.0022928966844496116 0.0 0.0 8.69840925288301e-07 0.0031820152832781807
0.0006800885512608532 0.00227708033557888 0.0 0.0 -0.0001069078004652131 -0.001866611680042654
0.000675552356613013 0.0022613142129166005 0.0 0.0 -6.444645818976403e-06 0.0032767690254389597
0.0006710181571046562 0.002245595485595893 0.0 0.0 -0.0001137558678263068 -0.001979842987322493
0.0006664858901132265 0.0022299214331802553 0.0 0.0 -1.2855708473630875e-05 0.0033715518713999266
0.0006619554841920268 0.0022142894512629592 0.0 0.0 -0.00011975753116795463 -0.0020930467644448237
0.0006574268621103137 0.002198697054475675 0.0 0.0 -1.847387283145205e-05 0.0034663607190227493
0.000652899943222368 0.0021831418774593734 0.0 0.0 -0.0001250164910359448 -0.002206226015774287
0.0006483746453127368 0.002167621674244764 0.0 0.0 -2.3396411109421643e-05 0.0035611926743379136
0.0006438508860097271 0.0021521343164159143 0.0 0.0 -0.00012962396855105895 -0.0023193835165657597
0.0006393285838528607 0.002136677790353132 0.0 0.0 -2.7708851444300684e-05 0.0036560450857296895
0.0006348076590970427 0.0021212501937938645 0.0 0.0 -0.0001336601383554257 -0.00243252179247794
0.0006302880342919462 0.0021058497319099705 0.0 0.0 -3.1486336435230427e-05 0.0037509155537307536
0.0006257696346942622 0.0020904747130557934 0.0 0.0 -0.00013719541510539082 -0.0025456431181067446
0.0006212523885407472 0.0020751235443098046 0.0 0.0 -3.4794840174162114e-05 0.003845801926107446
0.0006167362272217485 0.002059794726909814 0.0 0.0 -0.0001402916036519796 -0.002658749526712658
0.0006122210853649755 0.002044486851656256 0.0 0.0 -3.7692254196683645e-05 0.003940702284573492
0.0006077069008670829 0.0020291985943457 0.0 0.0 -0.00014300292343383226 -0.00277184282605561
0.000603193614865287 0.002013928711278888 0.0 0.0 -4.0229353072875106e-05 0.0040356149271743285
0.0005986811716818844 0.0019986760348763423 0.0 0.0 -0.0001453769180552718 -0.0028849246171454
0.0005941695187379289 0.00198343946942998 0.0 0.0 -4.245065063370737e-05 0.004130538348928981
0.0005896586064507902 0.001968217987006245 0.0 0.0 -0.00014745526071184513 -0.002997996313867441
0.0005851483881181749 0.0019530106235125548 0.0 0.0 -4.439515719760977e-05 0.004225471222208712
0.0005806388197921985 0.0019378164749365464 0.0 0.0 -0.00014927446582021803 -0.003111059162311156
0.0005761298601484558 0.0019226346937559887 0.0 0.0 -4.609704804529424e-05 0.0043204123778648705
0.0005716214703620126 0.0019074644855274956 0.0 0.0 -0.00015086651661471535 -0.003224114259099052
0.0005671136139667375 0.0018923051056510534 0.0 0.0 -4.758625235227066e-05 0.004415360787546553
0.0005626062567385167 0.0018771558562997118 0.0 0.0 -0.00015225941765375129 -0.003337162568371815
0.0005580993665584285 0.0018620160835193969 0.0 0.0 -4.8888971419752984e-05 0.004510315547453696
0.0005535929132986814 0.0018468851744879748 0.0 0.0 -0.0001534776807163952 -0.003450204937268042
0.0005490868687011586 0.001831762554930996 0.0 0.0 -5.0028134027537254e-05 0.004605275863634618
0.0005445812062701102 0.0018166476866859683 0.0 0.0 -0.00015454275137918806 -0.0035632421098732645
0.000540075901157912 0.001801540065403227 0.0 0.0 -5.1023796064479394e-05 0.004700241038742549
0.0005355709300732595 0.0017864392183857894 0.0 0.0 -0.00015547338335642532 -0.0036762747397176957
0.000531066271169405 0.0017713447025583433 0.0 0.0 -5.189349097451572e-05 0.004795210460258648
0.0005265619039665179 0.0017562561025552073 0.0 0.0 -0.00015628596646922283 -0.0037893034009160243
0.0005220578092601329 0.0017411730289237167 0.0 0.0 -5.265253663774231e-05 0.004890183590007348
0.0005175539690329642 0.00172609511643071 0.0 0.0 -0.0001569948137459256 -0.0039023285980430626
0.0005130503663906136 0.001711022022479601 0.0 0.0 -5.331430392525589e-05 0.0049851599548636286
0.0005085469854748937 0.0016959534256210042 0.0 0.0 -0.00015761241248757893 -0.004015350774844476
0.0005040438114011233 0.0016808890241424182 0.0 0.0 -5.389045137207298e-05 0.00508013913851888
0.00049954083019964 0.0016658285347545651 0.0 0.0 -0.00015814964357852295 -0.004128370321974644
0.0004950380287421073 0.0016507716913592954 0.0 0.0 -5.439112992004476e-05 0.0051751207742471595
0.0004905353946960973 0.0016357182438780592 0.0 0.0 -0.000158615972622128 -0.0042413875838418465
0.00048603291646282984 0.0016206679571543012 0.0 0.0 -5.4825161427205686e-05 0.005270104538462224
0.0004815305831321578 0.0016056206099283373 0.0 0.0 -0.00015901961646563726 -0.004354402864615346
0.0004770283844298444 0.0015905759938674067 0.0 0.0 -5.520019382277601e-05 0.0053650901450678036
0.00047252631066788337 0.001575533912646275 0.0 0.0 -0.0001593676877401876 -0.0044674164335887275
0.0004680243527231297 0.001560494181087111 0.0 0.0 -5.552283565307334e-05 0.005460077340423504
0.00046352250197275455 0.0015454566243524558 0.0 0.0 -0.0001596663199713356 -0.004580428529902073
0.00045902075026718527 0.0015304210771671075 0.0 0.0 -5.5798772480248953e-05 0.005555065898853489
0.00045451908989254405 0.0015153873830937086 0.0 0.0 -0.00015992077569370764 -0.004693439366721563
0.0004500175135416795 0.0015003553938508544 0.0 0.0 -5.603286688794567e-05 0.0056500556187173544
0.0004455160142738695 0.001485324968658106 0.0 0.0 -0.00016013553898894207 -0.004806449135052877
0.00044101458548644946 0.0014702959736171098 0.0 0.0 -5.622924420066477e-05 0.00574504631883767
0.00043651322088896773 0.0014552682811188392 0.0 0.0 -0.0001603143945547805 -0.00491945800705559
0.0004320119144750668 0.0014402417692865308 0.0 0.0 -5.6391365106053934e-05 0.005840037835321594
0.0004275106604925325 0.0014252163214384054 0.0 0.0 -0.0001604604942824577 -0.005032466139109517
0.0004230094534204246 0.0014101918255741293 0.0 0.0 -5.652208661982962e-05 0.0059350300186321965
0.0004185082879430938 0.0013951681738814403 0.0 0.0 -0.00016057641288619133 -0.005145473674538094
0.00041400715892948067 0.0013801452622613166 0.0 0.0 -5.662371241469755e-05 0.006030022731022958
0.0004095060614083231 0.0013651229898699537 0.0 0.0 -0.00016066419313531095 -0.005258480746169066
0.000405004990547508 0.0013501012586754923 0.0 0.0 -5.669803341087909e-05 0.006125015844023154
0.000400503941626538 0.001335079973027134 0.0 0.0 -0.00016072538194918757 -0.005371487478634461
0.0003960029100287414 0.001320059039228111 0.0 0.0 -5.674635932343612e-05 0.006220009236232459
0.00039150189120780725 0.0013050383651260487 0.0 0.0 -0.0001607610576162266 -0.005484493990617392
0.00038700088067142346 0.0012900178597102141 0.0 0.0 -5.676954173027622e-05 0.0063150027911619624
0.000382499873971796 0.0012749974327042736 0.0 0.0 -0.00016077184874693762 -0.005597500396922742
0.00037799886665779994 0.001259976994172772 0.0 0.0 -5.676798907255508e-05 0.006409996395157079
0.0003734978542944471 0.001244956454121583 0.0 0.0 -0.00016075794540113398 -0.005710506810514248
0.0003689968324071442 0.0012299357220987546 0.0 0.0 -5.674167383380724e-05 0.00650498993541857
0.0003644957964841328 0.001214914706799632 0.0 0.0 -0.00016071910240300505 -0.0058235133445377766
0.00035999474194290293 0.0011998933156558062 0.0 0.0 -5.669013206731138e-05 0.006599983297992344
0.00035549366411726234 0.0011848714544317393 0.0 0.0 -0.0001606546349892453 -0.005936520114304611
0.00035099255823570376 0.0011698490268005441 0.0 0.0 -5.661245520010086e-05 0.006694976365727581
0.000346491419388874 0.001154825933922467 0.0 0.0 -0.00016056340676702183 -0.006049527239364415
0.0003419902425188044 0.0011398020740007082 0.0 0.0 -5.650727405494315e-05 0.006789969016171913
0.0003374890223898426 0.0011247773418277588 0.0 0.0 -0.00016044380969504205 -0.006162534845587098
0.0003329877535621488 0.0011097516283229128 0.0 0.0 -5.637273465152696e-05 0.006884961119380269
0.0003284864303577697 0.0010947248200346349 0.0 0.0 -0.00016029373577718716 -0.006275543067542333
0.000323985046860961 0.001079696798636226 0.0 0.0 -5.620646561869296e-05 0.006979952535623105
0.00031948359684500367 0.0010646674403942513 0.0 0.0 -0.0001601105398220475 -0.006388552050851354
0.00031498207378369546 0.0010496366156159966 0.0 0.0 -5.600553644072607e-05 0.007074943112719586
0.00031048047077645945 0.001034604188056696 0.0 0.0 -0.00015989099312975746 -0.006501561954900282
0.0003059787805424374 0.001019570014304967 0.0 0.0 -5.57664059832731e-05 0.007169932683343015
0.000301476995361394 0.0010045339431281296 0.0 0.0 -0.00015963122660682264 -0.00661457295579847
0.0002969751070373864 0.000989495814782584 0.0 0.0 -5.548486028148338e-05 0.007264921061822445
0.0002924731068459928 0.0009744554602847445 0.0 0.0 -0.00015932666294943732 -0.00672758524969318
0.00028797098548642995 0.0009594127006294351 0.0 0.0 -5.51559387042609e-05 0.007359908040582371
0.0002834687330148193 0.000944367345967873 0.0 0.0 -0.00015897193652845976 -0.006840599056516759
0.00027896633877951037 0.0009293191947214393 0.0 0.0 -5.4773847277064195e-05 0.007454893386151304
0.0002744637913513155 0.0009142680326393775 0.0 0.0 -0.0001585607998754266 -0.006953614624400594
0.0002699610784509436 0.0008992136318016445 0.0 0.0 -5.4331857825363605e-05 0.00754987683454437
0.0002654581868284931 0.0008841557495435004 0.0 0.0 -0.0001580860150300499 -0.007066632234613621
0.0002609551021842984 0.0008690941273066704 0.0 0.0 -5.382219151120211e-05 0.007644858085755065
0.0002564518090440127 0.0008540284894031371 0.0 0.0 -0.00015753922883778113 -0.0071796522074557044
0.00025194829062804615 0.0008389585417010236 0.0 0.0 -5.3235885134332583e-05 0.00773983679745572
0.00024744452868408825 0.0008238839702198048 0.0 0.0 -0.00015691083000100641 -0.0072926749091699414
0.00024294050333426026 0.0008088044396062817 0.0 0.0 -5.25626387549113e-05 0.007834812577440566
0.00023843619286309666 0.000793719591520277 0.0 0.0 -0.00015618978677652386 -0.007405700760153178
0.00023393157349919057 0.0007786290428959347 0.0 0.0 -5.179064306572211e-05 0.007929784974612393
0.00022942661912354184 0.0007635323840840262 0.0 0.0 -0.00015536346394393443 -0.007518730244909892
0.00022492130102068158 0.0007484291768715472 0.0 0.0 -5.090638566102425e-05 0.00802475346818741
0.0002204155874701016 0.0007333189523645312 0.0 0.0 -0.0001544174179587141 -0.0076317639239023675
0.0002159094433813714 0.0007182012087315957 0.0 0.0 -4.9894435478787125e-05 0.00811971745444049
0.00021140282981986795 0.0007030754088219709 0.0 0.0 -0.00015333517094860737 -0.007744802447989946
0.00020689570347107156 0.0006879409776490029 0.0 0.0 -4.8737206211722697e-05 0.008214676230806114
0.00020238801600409086 0.0006727972997501278 0.0 0.0 -0.00015209796470946023 -0.007857846576225994
0.00019787971337161285 0.0006576437164258462 0.0 0.0 -4.7414702316193446e-05 0.008309628976377072
0.00019337073496247174 0.0006424795229043211 0.0 0.0 -0.00015068449965360354 -0.007970897197343063
0.00018886101264970032 0.0006273039654587712 0.0 0.0 -4.590425309012637e-05 0.008404574728037807
0.00018435046968889564 0.0006121162385101076 0.0 0.0 -0.00014907066732283616 -0.008083955356057434
0.00017983901942879857 0.0005969154818309604 0.0 0.0 -4.418024731357717e-05 0.00849951235155791
0.00017532656387565817 0.0005817007778934241 0.0 0.0 -0.0001472292920791738 -0.00819702228485469
0.00017081299200139672 0.0005664711495521223 0.0 0.0 -4.2213888596045416e-05 0.008594440506715498
0.00016629817784785187 0.0005512255582281647 0.0 0.0 -0.00014512990831599178 -0.008310099441953826
0.00016178197837092779 0.0005359629027893474 0.0 0.0 -3.997300485662119e-05 0.008689357606218973
0.00015726423101443456 0.0005206820195135055 0.0 0.0 -0.00014273861536563985 -0.008423188555438294
0.00015274475095812887 0.0005053816835325626 0.0 0.0 -3.742196490398369e-05 0.008784261768827505
0.00014822332817673056 0.0004900606122507248 0.0 0.0 -0.00014001807591406843 -0.008536291672340303
0.00014369972405248456 0.00047471747143436273 0.0 0.0 -3.452178380627469e-05 0.008879150768959908
0.00013917366798648856 0.00045935088495796235 0.0 0.0 -0.00013692775888441864 -0.008649411208637702
0.0001346448534425722 0.000443959449150667 0.0 0.0 -3.1230540726579544e-05 0.008974021988971691
0.00013011293464719063 0.00042854175340527453 0.0 0.0 -0.00013342457689352648 -0.008762549990983574
0.00012557752209470501 0.00041309640848054556 0.0 0.0 -2.750429063710577e-05 0.009068872387034294
0.00012103818102968892 0.00039762208538242653 0.0 0.0 -0.00012946413559492692 -0.008875711270967816
0.00011649442584524858 0.00038211756631212953 0.0 0.0 -2.3298730167428845e-05 0.009163698505691811
0.00011194572543611533 0.00036658181354751716 0.0 0.0 -0.0001250029002222131 -0.008988898674473477
0.00010739149271337133 0.00035101405548803016 0.0 0.0 -1.8571974758365382e-05 0.00925849656716251
0.00010283111236535157 0.00033541390395036666 0.0 0.0 -0.00012000168153688271 -0.009102116014368323
9.826390706926428e-05 0.0003197814905764752 0.0 0.0 -1.3288912192492303e-05 0.009353262731165947
9.368923868489511e-05 0.00030411766257096843 0.0 0.0 -0.00011443092961523722 -0.009215366828453577
8.910637398903882e-05 0.0002884241790870178 0.0 0.0 -7.4276903359290006e-06 0.009447993624083889
8.451483426654641e-05 0.0002727040404288317 0.0 0.0 -0.00010827831782644556 -0.00932865336760346
7.991385811393716e-05 0.00025696171458229177 0.0 0.0 -9.889392235504398e-07 0.009542687227213603
7.53036203001719e-05 0.0002412037272954854 0.0 0.0 -0.00010155883527541336 -0.009441974432669309
7.068314471894741e-05 0.00022543872635829437 0.0 0.0 5.991660571369635e-06 0.009637343905433863
6.605463907348128e-05 0.00020967871822263992 0.0 0.0 -9.43266751956039e-05 -0.0095553205503079
6.141557989465818e-05 0.00019393818539572378 0.0 0.0 1.3426449916586168e-05 0.009731965868093495
5.677438385865048e-05 0.00017823734164923452 0.0 0.0 -8.668558568280344e-05 -0.009668662044219622
5.2120837746176584e-05 0.00016259741514475438 0.0 0.0 2.1150614027760656e-05 0.009826547426640343
4.748335815158751e-05 0.00014705106363438098 0.0 0.0 -7.878679347709952e-05 -0.00978191512503634
4.2819451823619e-05 0.0001316233945851113 0.0 0.0 2.8871540393056883e-05 0.009921026488138389
3.822611757748002e-05 0.00011636870082316436 0.0 0.0 -7.077894947867371e-05 -0.009894832178154418
3.3535905314298696e-05 0.000101299348741496 0.0 0.0 3.6024357042019166e-05 0.010015089222635122
2.9090969749411077e-05 8.651803798593047e-05 0.0 0.0 -6.258771982860798e-05 -0.010006616725006506
2.4258829533608305e-05 7.196099986697112e-05 0.0 0.0 4.1285981323114194e-05 0.010107443398116133
2.0261878958396123e-05 5.785419266563691e-05 0.0 0.0 -5.314648549478414e-05 -0.010114559387738024
1.47982957109989e-05 4.390024159299749e-05 0.0 0.0 4.09983036581546e-05 0.010193289461119184
1.2060820619031081e-05 3.0354717745540296e-05 0.0 0.0 -3.8871769620112216e-05 -0.010209798360226868
4.8392968306788776e-06 1.6761758334206158e-05 0.0 0.0 2.69655578109527e-05 0.010258490713738605
4.25615662607715e-06 4.55163985726379e-06 0.0 0.0 -1.7669051769315068e-05 -0.010272402573131978
-1.633618536033389e-06 -4.895130225802059e-07 0.0 0.0 -0.020567439622378253 0.01027212404709059
-1.1858461261560205e-20 0.001456024313220091 0.0 0.0 -0.0008581115599024701 5.421010862427522e-20
0.00024274091328057 0.0016973881489212672 0.0 0.0 -0.00016319839659962397 0.00013354682646612252
0.00040721587822189657 0.0020883559559721683 0.0 0.0 -0.000255234229432626 6.178826425486122e-05
0.000514321022457848 0.002335216877801717 0.0 0.0 -0.00015316907311173721 1.4874623561562906e-05
0.0005875867588521352 0.0024983029278438885 0.0 0.0 -0.0002568623002935392 -8.124706169565476e-06
0.000639744725747283 0.002609653579384515 0.0 0.0 -0.00014868261998946704 -1.9154128608168857e-05
0.0006778271288419247 0.0026868517364185027 0.0 0.0 -0.00024589781018590255 -2.437603886015084e-05
0.0007060939621678857 0.0027404081378596947 0.0 0.0 -0.0001336100171041688 -2.666875993177216e-05
0.0007272827200627049 0.0027770340984145415 0.0 0.0 -0.0002285672432101707 -2.741757230301242e-05
0.0007432324307641138 0.002801215440432057 0.0 0.0 -0.00011521960801504975 -2.73223653931545e-05
0.0007552211775088522 0.002816062793775086 0.0 0.0 -0.00020984039625535664 -2.675567819304614e-05
0.0007641629726955958 0.002823799122560979 0.0 0.0 -9.659331217036352e-05 -2.592458394666622e-05
0.000770727166594568 0.0028260533354331208 0.0 0.0 -0.00019157786710916126 -2.494852174766412e-05
0.0007754138763817786 0.0028240438914585537 0.0 0.0 -7.8853418676488e-05 -2.389837942323336e-05
0.0007786030559876936 0.002818697759472029 0.0 0.0 -0.00017445463249148965 -2.2817228923684298e-05
0.0007805874311773558 0.002810729907446256 0.0 0.0 -6.240017623471009e-05 -2.1731700135175475e-05
0.0007815951591033987 0.002800697941679021 0.0 0.0 -0.00015869842354519176 -2.065847559541394e-05
0.0007818058108364431 0.0027890406048291082 0.0 0.0 -4.73508780053539e-05 -1.960808100123629e-05
0.0007813618753916476 0.0027761055135048346 0.0 0.0 -0.00014435446763614703 -1.858716045734224e-05
0.0007803772024606764 0.0027621695386268624 0.0 0.0 -3.3703003297146626e-05 -1.7599862105961545e-05
0.0007789432989540584 0.002747454045330934 0.0 0.0 -0.00013138817737900316 -1.6648699153336863e-05
0.0007771340947432869 0.002732136465894655 0.0 0.0 -2.1400233565056867e-05 -1.5735091033997158e-05
0.0007750095943398963 0.002716359208561224 0.0 0.0 -0.00011972843840088519 -1.4859709370524684e-05
0.0007726187054843991 0.002700236597106632 0.0 0.0 -1.0361415777911955e-05 -1.4022702078606598e-05
0.000770001449934887 0.0026838603321395135 0.0 0.0 -0.00010928739077800448 -1.322384145016167e-05
0.0007671907047216694 0.0026673038267262883 0.0 0.0 -4.943730507369747e-07 -1.2462624069932372e-05
0.000764213582232234 0.002650625673864783 0.0 0.0 -9.997029519131144e-05 -1.1738340195672483e-05
0.000761092529775298 0.0026338724366839305 0.0 0.0 8.296877498581586e-06 -1.1050123505350997e-05
0.0007578462093495351 0.0026170809049419525 0.0 0.0 -9.168093762787529e-05 -1.0396988124920022e-05
0.0007544902039796478 0.0026002799272342486 0.0 0.0 1.610798964584169e-05 -9.777857234400141e-06
0.0007510375863756833 0.00258349190334109 0.0 0.0 -8.432485126453349e-05 -9.191585959022894e-06
0.0007474993777757111 0.002566734002592281 0.0 0.0 2.303174308033193e-05 -8.636980225395648e-06
0.0007438849188531982 0.0025500191601758406 0.0 0.0 -7.78113433143865e-05 -8.112812636373022e-06
0.0007402021699940568 0.0025333568926879883 0.0 0.0 2.9156425879960383e-05 -7.61783601553995e-06
0.0007364579547112368 0.0025167539660259945 0.0 0.0 -7.205477971907701e-05 -7.150795051120138e-06
0.0007326581571999687 0.0025002149423311256 0.0 0.0 3.456482698790508e-05 -6.710436299235789e-06
0.0007288078828561025 0.0024837426276545175 0.0 0.0 -6.697535769010307e-05 -6.2955167610975835e-06
0.0007249115888580926 0.0024673384380170904 0.0 0.0 3.9333665288956044e-05 -5.904811157038975e-06
0.0007209731905312135 0.0024510026983212397 0.0 0.0 -6.249950250686087e-05 -5.537118039300893e-06
0.0007169961481168323 0.0024347348859850393 0.0 0.0 4.353334345018648e-05 -5.191264838230825e-06
0.0007129835376728489 0.002418533829064512 0.0 0.0 -5.855998364689345e-05 -4.86611194622653e-06
0.0007089381091283176 0.0024023978669136348 0.0 0.0 4.7227943462513626e-05 -4.560555939572559e-06
0.0007048623339288757 0.002386324980027019 0.0 0.0 -5.5095824072201686e-05 -4.273532021604375e-06
0.0007007584442495037 0.0023703128945498407 0.0 0.0 5.0475397559052214e-05 -4.004015786246304e-06
0.0006966284653704886 0.002354359165987562 0.0 0.0 -5.205206263976417e-05 -3.751024378856327e-06
0.0006924742425051679 0.00233846124586648 0.0 0.0 5.3327780367832893e-05 -3.5136171364371326e-06
0.0006882974631282922 0.002322616534436871 0.0 0.0 -4.937941822671509e-05 -3.290895784659588e-06
0.0006840996756429241 0.00230682242197472 0.0 0.0 5.583167884312288e-05 -3.082004254041464e-06
0.0006798823050712334 0.002291076320796705 0.0 0.0 -4.7033894248404474e-05 -2.886128180579309e-06
0.0006756466663146308 0.0022753756897243393 0.0 0.0 5.8028605875934825e-05 -2.7024941500414853e-06
0.00067139397543536 0.002259718052433049 0.0 0.0 -4.497635333652552e-05 -2.5303687257929722e-06
0.0006671253593098329 0.002244101010864764 0.0 0.0 5.995543180183598e-05 -2.3690573189644388e-06
0.000662841863948067 0.0022285222546746214 0.0 0.0 -4.317208430901887e-05 -2.2179029246554498e-06
0.0006585444617147533 0.00221297956750708 0.0 0.0 6.164481508438803e-05 -2.0762847677246717e-06
0.0006542340576366103 0.002197470830753355 0.0 0.0 -4.159037711047039e-05 -1.943616882863115e-06
0.0006499114949516365 0.00218199402532117 0.0 0.0 6.312561909239413e-05 -1.8193466518554317e-06
0.0006455775600253473 0.0021665472318516924 0.0 0.0 -4.020411635273887e-05 -1.7029533217972816e-06
0.0006412329867331952 0.0021511286297379245 0.0 0.0 6.442330657940344e-05 -1.5939465229693336e-06
0.0006368784603877452 0.0021357364952287196 0.0 0.0 -3.898940009446159e-05 -1.4918647889562687e-06
0.0006325146212859804 0.0021203691988550986 0.0 0.0 6.556030678320885e-05 -1.3962741070188734e-06
0.0006281420679205143 0.002105025202357625 0.0 0.0 -3.792518749019461e-05 -1.306766496285514e-06
0.0006237613599078052 0.0020897030552685927 0.0 0.0 6.655635267264424e-05 -1.2229586238765913e-06
0.0006193730206631939 0.0020744013912722325 0.0 0.0 -3.699297677478509e-05 -1.1444904628044451e-06
0.0006149775398605703 0.0020591189244288156 0.0 0.0 6.742878769328486e-05 -1.071024003400779e-06
0.0006105753756952039 0.002043854445342272 0.0 0.0 -3.617651364783787e-05 -1.0022420051533317e-06
0.0006061669569759963 0.0020286068173276843 0.0 0.0 6.819284254457611e-05 -9.378468145162763e-07
0.0006017526850619588 0.002013374972624585 0.0 0.0 -3.5461528987861196e-05 -8.7755921548006e-07
0.0005973329356592437 0.0019981579086863427 0.0 0.0 6.88618833901189e-05 -8.211173575046527e-07
0.0005929080604912574 0.001982954684572058 0.0 0.0 -3.4835504269011735e-05 -7.682757138736105e-07
0.0005884783888548657 0.0019677644174628025 0.0 0.0 6.944763329098122e-05 -7.188041098622755e-07
0.0005840442290698642 0.0019525862793077333 0.0 0.0 -3.42874627119866e-05 -6.72486788140731e-07
0.0005796058698332437 0.0019374194936093753 0.0 0.0 6.996036902857635e-05 -6.291215307355723e-07
0.0005751635814785499 0.001922263332360354 0.0 0.0 -3.3807783995368635e-05 -5.885188316916818e-07
0.000570717617163666 0.0019071171131224978 0.0 0.0 7.040909540955754e-05 -5.50501102448205e-07
0.0005662682139689906 0.0018919801962535626 0.0 0.0 -3.3388040346645756e-05 -5.149019421074423e-07
0.0005618155939377213 0.0018768519822796982 0.0 0.0 7.080169929727883e-05 -4.81565431244941e-07
0.0005573599650359302 0.0018617319094066838 0.0 0.0 -3.302085191261237e-05 -4.503454728702386e-07
0.0005529015220634309 0.0018466194511697373 0.0 0.0 7.114508536957718e-05 -4.2110517873178736e-07
0.0005484404475013035 0.0018315141142149745 0.0 0.0 -3.269975935107667e-05 -3.937162793156532e-07
0.0005439769123082079 0.0018164154362096912 0.0 0.0 7.14452955957786e-05 -3.6805858105807545e-07
0.0005395110766617938 0.0018013229838693815 0.0 0.0 -3.241911183323582e-05 -3.440194474962888e-07
0.000535043090663083 0.0017862363511016604 0.0 0.0 7.170761421004725e-05 -3.2149331266785467e-07
0.0005305730949825387 0.001771155157260704 0.0 0.0 -3.217396871006532e-05 -3.003812292688094e-07
0.0005261012214830889 0.0017560790455077749 0.0 0.0 7.193665982902159e-05 -2.805904370333759e-07
0.000521627593789832 0.0017410076812642995 0.0 0.0 -3.196001327979961e-05 -2.620339673308522e-07
0.000517152327831825 0.0017259407507624253 0.0 0.0 7.213646611366404e-05 -2.4463025461628424e-07
0.0005126755323510389 0.0017108779596834928 0.0 0.0 -3.1773477274289774e-05 -2.2830279148260005e-07
0.0005081973093725891 0.0016958190318720969 0.0 0.0 7.231055240056032e-05 -2.1297978786198558e-07
0.0005037177546552967 0.0016807637081328655 0.0 0.0 -3.161107486324144e-05 -1.985938686467235e-07
0.0004992369581113518 0.0016657117450987362 0.0 0.0 7.246198539693138e-05 -1.8508175981185116e-07
0.000494755004197109 0.001650662914168193 0.0 0.0 -3.1469945017589904e-05 -1.7238403816053662e-07
0.0004902719722869616 0.0016356170005057287 0.0 0.0 7.259343302752641e-05 -1.6044485152944508e-07
0.0004857879370160385 0.0016205738020973364 0.0 0.0 -3.134760122969736e-05 -1.4921167874328792e-07
0.00048130296861280717 0.0016055331288654451 0.0 0.0 7.27072112841154e-05 -1.386351029730921e-07
0.0004768171332024957 0.0015904948018370967 0.0 0.0 -3.1241887842733246e-05 -1.286685913828964e-07
0.00047233049309637566 0.0015754586523569875 0.0 0.0 7.280532498682467e-05 -1.1926829675718313e-07
0.0004678431070765334 0.0015604245213476638 0.0 0.0 -3.115094211425008e-05 -1.103928585164944e-07
0.00046335503063955425 0.0015453922586110165 0.0 0.0 7.288950295958373e-05 -1.020032255209585e-07
0.00045886631624693315 0.0015303617221680175 0.0 0.0 -3.107316145636028e-05 -9.4062480937053e-08
0.00045437701355408326 0.0015153327776315252 0.0 0.0 7.296122856687807e-05 -8.653568249049771e-08
0.0004498871696341174 0.0015003052976175517 0.0 0.0 -3.100717526211569e-05 -7.938970807825057e-08
0.00044539682917437904 0.0014852791611907289 0.0 0.0 7.302176574655811e-05 -7.259311518933607e-08
0.00044090603467971046 0.0014702542533246918 0.0 0.0 -3.095182068763697e-05 -6.611599133698716e-08
0.0004364148266582171 0.0014552304643967629 0.0 0.0 7.307218131884262e-05 -5.992983000228111e-08
0.000431923243799394 0.0014402076897087296 0.0 0.0 -3.0906122271875274e-05 -5.400741516281343e-08
0.0004274313231428804 0.0014251858290252187 0.0 0.0 7.311336371166807e-05 -4.8322678927791105e-08
0.000422939100242509 0.0014101647861337026 0.0 0.0 -3.086927467964794e-05 -4.2850604173262294e-08
0.00041844660932221914 0.0013951444684188953 0.0 0.0 7.314603867361526e-05 -3.75671056861821e-08
0.000413953883426819 0.0013801247864535478 0.0 0.0 -3.084062858140261e-05 -3.244893423588486e-08
0.00040946095456723537 0.0013651056536072613 0.0 0.0 7.317078200083139e-05 -2.7473562749661187e-08
0.0004049678538611562 0.0013500869856668068 0.0 0.0 -3.081967914049749e-05 -2.2619095942446894e-08
0.0004004746116684087 0.0013350687004628403 0.0 0.0 7.318802973999981e-05 -1.786416601158667e-08
0.00039598125772826034 0.0013200507175061885 0.0 0.0 -3.08060572124805e-05 -1.3187845121661029e-08
0.0003914878212864999 0.0013050329576318642 0.0 0.0 7.319808580387725e-05 -8.569552790906737e-09
0.00038699433122305884 0.001290015342652605 0.0 0.0 -3.0799522764565334e-05 -3.988957983152783e-09
0.000382500816185892 0.0012749977950176168 0.0 0.0 7.320112736513445e-05 5.740940802714985e-10
0.0003780073047035359 0.0012599802374661986 0.0 0.0 -3.079996068905411e-05 5.139692309122715e-09
0.0003735138253269013 0.001244962592685841 0.0 0.0 7.319720797242411e-05 9.727930699149866e-09
0.0003690204067401126 0.0012299447829702877 0.0 0.0 -3.0807378800141744e-05 1.4359010677147347e-08
0.0003645270778955658 0.0012149267298747855 0.0 0.0 7.318625847281925e-05 1.9053311963541583e-08
0.00036003386813394293 0.0011999083538737523 0.0 0.0 -3.0821907903548235e-05 2.3831503102086232e-08
0.00035554080731854627 0.0011848895740058465 0.0 0.0 7.316808578870728e-05 2.8714614291359963e-08
0.00035104792596066177 0.0011698703075106406 0.0 0.0 -3.0843804204943866e-05 3.372414558689644e-08
0.00034655525535416735 0.0011548504694632333 0.0 0.0 7.314236949593103e-05 3.8882144377512615e-08
0.00034206282771213377 0.0011398299723997824 0.0 0.0 -3.087345372428259e-05 4.421132498435513e-08
0.0003375706763057069 0.001124808725921766 0.0 0.0 7.310865618253269e-05 4.9735149193052414e-08
0.0003330788356073894 0.0011097866362892565 0.0 0.0 -3.091137923212921e-05 5.547793061879899e-08
0.0003285873414359469 0.001094763606009969 0.0 0.0 7.306635151687084e-05 6.14649550467793e-08
0.00032409623112322853 0.0010797395333981632 0.0 0.0 -3.0958249358458345e-05 6.772257695104346e-08
0.000319605543655911 0.0010647143121059834 0.0 0.0 7.301470959528654e-05 7.427835021123382e-08
0.0003151153198563269 0.0010496878306529703 0.0 0.0 -3.101489043356976e-05 8.116112933825338e-08
0.0003106256025363432 0.0010346599719210734 0.0 0.0 7.295282002146549e-05 8.840121369565199e-08
0.0003061364366953987 0.0010196306126151735 0.0 0.0 -3.1082301005169125e-05 9.603047076154128e-08
0.00030164786969330744 0.0010045996226985335 0.0 0.0 7.287959172950055e-05 1.0408247605063134e-07
0.00029715995144869996 0.0009895668647951724 0.0 0.0 -3.116166942343827e-05 1.1259266388815529e-07
0.00029267273464159816 0.0009745321935574417 0.0 0.0 7.279373386124654e-05 1.2159846656635076e-07
0.0002881862749231908 0.0009594954549928692 0.0 0.0 -3.12543946489255e-05 1.311394972669305e-07
0.0002837006311304849 0.0009444564857356678 0.0 0.0 7.269373319849191e-05 1.412577003305276e-07
0.00027921586551312116 0.0009294151122824636 0.0 0.0 -3.13621107657135e-05 1.5199753737257533e-07
0.00027473204396714966 0.0009143711501807758 0.0 0.0 7.257782772058944e-05 1.6340619041882963e-07
0.0002702492362822883 0.0008993244031382239 0.0 0.0 -3.1486715454413436e-05 1.7553372383394533e-07
0.00026576751636974344 0.0008842746620824336 0.0 0.0 7.244397593020703e-05 1.8843332782265878e-07
0.00026128696252943393 0.0008692217041563624 0.0 0.0 -3.163040275856494e-05 2.0216151706646795e-07
0.0002568076576950042 0.0008541652916314272 0.0 0.0 7.228982173686639e-05 2.1677836568585566e-07
0.0002523296896913735 0.0008391051707333192 0.0 0.0 -3.179570088458739e-05 2.3234773413225406e-07
0.00024785315147802904 0.0008240410703965112 0.0 0.0 7.211265419507945e-05 2.489375385349808e-07
0.00024337814139653675 0.0008089727009095766 0.0 0.0 -3.1985514892390226e-05 2.6661996881843005e-07
0.00023890476339889072 0.0007938997524590068 0.0 0.0 7.190936192079758e-05 2.854717998045618e-07
0.0002344331272611411 0.0007788218935710358 0.0 0.0 -3.220317531007176e-05 3.0557461463108244e-07
0.00022996334874631708 0.0007637387694233643 0.0 0.0 7.167638186904887e-05 3.270151038309993e-07
0.00022549554977611331 0.0007486500000392234 0.0 0.0 -3.245249202050949e-05 3.4988532705544726e-07
0.00022102985849157273 0.00073355517832812 0.0 0.0 7.140964231627843e-05 3.7428296197181306e-07
0.00021656640929174474 0.0007184538680035398 0.0 0.0 -3.273781407374171e-05 4.003115981500698e-07
0.00021210534276436616 0.0007033456013562679 0.0 0.0 7.11045005436161e-05 4.2808092735413614e-07
0.00020764680550448787 0.0006882298768646527 0.0 0.0 -3.3064094569487624e-05 4.577069912452096e-07
0.00020319094978574293 0.0006731061566541376 0.0 0.0 7.075567605431044e-05 4.89312305133687e-07
0.00019873793306621304 0.0006579738638134218 0.0 0.0 -3.343695888331929e-05 5.23025994003494e-07
0.0001942879172552207 0.00064283237957794 0.0 0.0 7.03571811669463e-05 5.589838249211651e-07
0.00018984106771880179 0.0006276810403988592 0.0 0.0 -3.3862774093183605e-05 5.973281002143909e-07
0.00018539755193818576 0.0006125191349141738 0.0 0.0 6.990225294911754e-05 6.382074994779573e-07
0.00018095753775164457 0.0005973459008823281 0.0 0.0 -3.434871435263587e-05 6.817766365067217e-07
0.00017652119109253463 0.0005821605221700876 0.0 0.0 6.938329242377043e-05 7.281955030420022e-07
0.00017208867312011394 0.0005669621258356245 0.0 0.0 -3.490281443489741e-05 7.776285438136589e-07
0.00016766013659120347 0.0005517497794781378 0.0 0.0 6.87918216424352e-05 8.302434110990606e-07
0.00016323572135829993 0.000536522489039955 0.0 0.0 -3.553399812951776e-05 8.86209253182996e-07
0.00015881554880157222 0.0005212791972651955 0.0 0.0 6.811847459141699e-05 9.456944826496906e-07
0.00015439971497377015 0.0005060187831788438 0.0 0.0 -3.625206154156922e-05 1.0088637264957494e-06
0.0001499882822907334 0.000490740062983129 0.0 0.0 6.7353047837914e-05 1.075874052188278e-06
0.0001455812694033896 0.0004754417929465276 0.0 0.0 -3.706757914742425e-05 1.1468700327947699e-06
0.00014117863913193457 0.0004601226749538843 0.0 0.0 6.648464909035146e-05 1.2219775673844979e-06
0.00013678028387018905 0.00044478136577680576 0.0 0.0 -3.79916859193064e-05 1.3012959787819496e-06
0.00013238600867950177 0.0004294164910438218 0.0 0.0 6.55020013457944e-05 1.3848885902769878e-06
0.00012799551073495752 0.0004140266658276133 0.0 0.0 -3.903566602424268e-05 1.4727701180055827e-06
0.00012360835682741566 0.0003986105230103628 0.0 0.0 6.439398434967712e-05 1.5648931870619782e-06
0.00011922395493949931 0.0003831667533826424 0.0 0.0 -4.0210250482893267e-05 1.6611281432356295e-06
0.00011484152716094522 0.0003676941575786411 0.0 0.0 6.315052622902443e-05 1.7612460267230545e-06
0.00011046007020011532 0.00035219171918865683 0.0 0.0 -4.152449166177296e-05 1.8648843474226243e-06
0.00010607833085915553 0.0003366586928373021 0.0 0.0 6.176398728709805e-05 1.9715336724970616e-06
0.0001016947464054352 0.00032109473327174683 0.0 0.0 -4.298404835263291e-05 2.0804708517842187e-06
9.730745019357327e-05 0.00030550003221820917 0.0 0.0 6.023119004716052e-05 2.1907812851602697e-06
9.291415700520379e-05 0.0002898755461415518 0.0 0.0 -4.458869125090431e-05 2.301197400068531e-06
8.851229471119427e-05 0.00027422317677976583 0.0 0.0 5.85561930918012e-05 2.410280015937194e-06
8.409869345954914e-05 0.0002585461922846091 0.0 0.0 -4.632882753792555e-05 2.515936363334118e-06
7.967017478061132e-05 0.00024284935799782106 0.0 0.0 5.675366464783448e-05 2.616215670173008e-06
7.522248828654327e-05 0.00022713981324974295 0.0 0.0 -4.818076781216833e-05 2.707669295504123e-06
7.075252399638421e-05 0.0002114267114043024 0.0 0.0 5.485197370809708e-05 2.7884222370867535e-06
6.625436587582206e-05 0.000195723417573578 0.0 0.0 -5.009984336351754e-05 2.852258883127628e-06
6.172731374097302e-05 0.00018004493765160954 0.0 0.0 5.289298046595031e-05 2.9000425878336665e-06
5.7161061366765934e-05 0.00016441455758693142 0.0 0.0 -5.200733285828257e-05 2.9179608196685776e-06
5.256479853237252e-05 0.00014885272226816107 0.0 0.0 5.0918825200922625e-05 2.9195592142148554e-06
4.791193262897286e-05 0.00013339972579149342 0.0 0.0 -5.375423934900875e-05 2.8654022175045356e-06
4.324648906002553e-05 0.0001180730954456632 0.0 0.0 4.891255836976158e-05 2.8176288989096307e-06
3.847875114060501e-05 0.00010294947500788698 0.0 0.0 -5.4997597364239877e-05 2.643775666496509e-06
3.377599650381314e-05 8.800838386785817e-05 0.0 0.0 4.657415671214366e-05 2.5849181669673977e-06
2.881274770597781e-05 7.342697216649349e-05 0.0 0.0 -5.475765080020854e-05 2.1695439150261906e-06
2.41933410887441e-05 5.903501905401647e-05 0.0 0.0 4.255406553500124e-05 2.2828868032830855e-06
1.875539268686176e-05 4.52711600439397e-05 0.0 0.0 -4.9912563308429896e-05 1.2663837840344843e-06
1.4487824840929732e-05 3.1818509950823945e-05 0.0 0.0 3.265423464331521e-05 2.059325707913333e-06
8.047619864086945e-06 1.9388031353308958e-05 0.0 0.0 -3.2850997356538136e-05 -1.8283525034029288e-07
4.355398753957859e-06 1.0033127049655051e-05 0.0 0.0 1.4200886651369966e-05 5.831845343136832e-07
2.367463221539166e-06 6.155357546594958e-06 0.0 0.0 0.020568822012588934 -1.8074556320269016e-05
-4.235164736271502e-21 0.0023862591148265094 0.0 0.0 -0.0012301994761748625 -8.470329472543003e-22
0.00012525553829054433 0.0023624251133958973 0.0 0.0 -9.236573299342267e-05 0.00019723367510583322
0.00022673325629490252 0.002362062108649845 0.0 0.0 5.442325311981588e-05 0.00010845091481912397
0.000319363452456228 0.002424994050478683 0.0 0.0 -1.793521822963064e-05 4.8579284163691354e-05
0.0003972970146703632 0.0025027180468437404 0.0 0.0 9.777894393332396e-05 1.4344971305049205e-05
0.0004604144111148219 0.0025729009859702333 0.0 0.0 -4.0470467306084545e-06 -5.131673880656086e-06
0.0005109451644653994 0.0026297823651981965 0.0 0.0 9.816618382898503e-05 -1.627978471348939e-05
0.0005513923112114188 0.0026735048909750357 0.0 0.0 -9.128853727082882e-06 -2.2627789256580093e-05
0.0005839064976363423 0.0027058624870476573 0.0 0.0 9.111964120159394e-05 -2.6129177239074708e-05
0.0006101903419530076 0.002728861084523621 0.0 0.0 -1.664777942970984e-05 -2.7899577043707534e-05
0.0006315560146674846 0.002744289555606775 0.0 0.0 8.375159056434925e-05 -2.8593620414096046e-05
0.0006490086763814923 0.0027536327573647124 0.0 0.0 -2.361480802751143e-05 -2.8606981416964627e-05
0.0006633204731779551 0.002758090829102592 0.0 0.0 7.727039952359388e-05 -2.8185110712518582e-05
0.0006750883498848559 0.002758624894837479 0.0 0.0 -2.9598109017506817e-05 -2.7484227894478147e-05
0.000684777354567616 0.002756003214864467 0.0 0.0 7.176513471071258e-05 -2.6606015974993466e-05
0.0006927526320190181 0.0027508406526503904 0.0 0.0 -3.4657783189056716e-05 -2.561808889960275e-05
0.0006993030657131566 0.002743630497339525 0.0 0.0 6.711480364755492e-05 -2.456624812439265e-05
0.0007046588453105691 0.0027347695684885927 0.0 0.0 -3.8934648134584594e-05 -2.3482048133201272e-05
0.0007090046331061867 0.002724577883977899 0.0 0.0 6.317766153136867e-05 -2.238753191773302e-05
0.0007124895224810791 0.0027133140747819602 0.0 0.0 -4.256298973818722e-05 -2.129826914278412e-05
0.0007152346399325723 0.0027011875091931354 0.0 0.0 5.983013870572692e-05 -2.0225332033732225e-05
0.0007173389976630874 0.002688367877434948 0.0 0.0 -4.5654852752683456e-05 -1.917660795416361e-05
0.0007188840341183644 0.0026749928096093485 0.0 0.0 5.697136966885692e-05 -1.815768432594044e-05
0.0007199371600614302 0.0026611739626453625 0.0 0.0 -4.8300758779803836e-05 -1.7172457482426268e-05
0.0007205545437723335 0.0026470019073886897 0.0 0.0 5.452017306204924e-05 -1.622355888831779e-05
0.0007207833089704858 0.00263255006903149 0.0 0.0 -5.057356039373339e-05 -1.531265989785388e-05
0.0007206632760566437 0.002617877915678056 0.0 0.0 5.241107650249524e-05 -1.4440694026093313e-05
0.0007202283459305576 0.0026030335461624905 0.0 0.0 -5.253220680913304e-05 -1.3608022618283219e-05
0.0007195076025993935 0.0025880557952606582 0.0 0.0 5.059089431926533e-05 -1.2814560849171646e-05
0.0007185261935965218 0.0025729759494078873 0.0 0.0 -5.4224786366077426e-05 -1.2059875466488936e-05
0.0007173060342729811 0.002557819146837333 0.0 0.0 4.901605406607939e-05 -1.1343261928588326e-05
0.000715866372130704 0.002542605521212624 0.0 0.0 -5.5690862101003856e-05 -1.066380620080783e-05
0.0007142242397472967 0.002527351136235997 0.0 0.0 4.765056086848251e-05 -1.0020434836524226e-05
0.0007123948189153365 0.0025120687495930657 0.0 0.0 -5.696324561709745e-05 -9.411955928066219e-06
0.0007103917339761547 0.0024967684373516114 0.0 0.0 4.646444998993092e-05 -8.837092766121455e-06
0.0007082272886664065 0.0024814581041417852 0.0 0.0 -5.806934948613974e-05 -8.29451159166058e-06
0.0007059126578935431 0.0024661438997917074 0.0 0.0 4.543260221542692e-05 -7.78284446265478e-06
0.0007034580435500864 0.0024508305593244676 0.0 0.0 -5.9032227425050675e-05 -7.300708058606878e-06
0.0007008728016329467 0.0024355216801633527 0.0 0.0 4.453382820535052e-05 -6.846719054594128e-06
0.0006981655464658125 0.002420219947899809 0.0 0.0 -5.987138234847189e-05 -6.419506600626758e-06
0.0006953442366439984 0.0024049273199414174 0.0 0.0 4.375015365105055e-05 -6.017722341314862e-06
0.0006924162463818583 0.0023896451746867288 0.0 0.0 -6.060340026206389e-05 -5.640048345237759e-06
0.0006893884251892945 0.002374374432504019 0.0 0.0 4.3066255844281115e-05 -5.285203266674869e-06
0.0006862671482022566 0.002359115653665221 0.0 0.0 -6.124245218013644e-05 -4.95194700311861e-06
0.0006830583590132496 0.002343869117464992 0.0 0.0 4.246901558265751e-05 -4.639084092934162e-06
0.0006797676064641535 0.002328634885990814 0.0 0.0 -6.18006950709796e-05 -4.345466052630136e-06
0.000676400076558395 0.002313412855385981 0.0 0.0 4.194715764793878e-05 -4.0699928289649465e-06
0.0006729606204119641 0.0022982027969354136 0.0 0.0 -6.228859488999891e-05 -3.8116135210698797e-06
0.0006694537789622796 0.0022830043898806156 0.0 0.0 4.1490959936859586e-05 -3.569326505137169e-06
0.0006658838050131725 0.0022678172475219423 0.0 0.0 -6.271518904147662e-05 -3.3421790681504e-06
0.0006622546830643979 0.002252640937880165 0.0 0.0 4.1092016146939314e-05 -3.1292666573329503e-06
0.0006585701472872369 0.0022374749999609484 0.0 0.0 -6.308830137265512e-05 -2.929731813418443e-06
0.0006548336979282158 0.0022223189564688772 0.0 0.0 4.0743040613070835e-05 -2.742762879360752e-06
0.0006510486163680924 0.002207172323661488 0.0 0.0 -6.341471972036992e-05 -2.5675925146983612e-06
0.00064721797901577 0.0021920346189071484 0.0 0.0 4.043770650261687e-05 -2.403496095658528e-06
0.000643344670182223 0.002176905366403885 0.0 0.0 -6.370034360934327e-05 -2.249790010309461e-06
0.0006394313940517231 0.002161784101427626 0.0 0.0 4.017051071616203e-05 -2.1058299179601138e-06
0.0006354806858436586 0.0021466703734120294 0.0 0.0 -6.395030804203996e-05 -1.971008960073757e-06
0.0006314949222467456 0.002131563748104768 0.0 0.0 3.9936660286640703e-05 -1.8447559956372172e-06
0.0006274763311869472 0.0021164638089954417 0.0 0.0 -6.416908793147004e-05 -1.7265338178663924e-06
0.0006234270009857602 0.002101370158172559 0.0 0.0 3.973197625331494e-05 -1.6158374270166783e-06
0.0006193488889561898 0.00208628241673664 0.0 0.0 -6.436058669738725e-05 -1.512192328608343e-06
0.0006152438294761946 0.002071200224875492 0.0 0.0 3.955281188260627e-05 -1.415152885226559e-06
0.0006111135415749002 0.0020561232416805753 0.0 0.0 -6.452821185740033e-05 -1.32430071951952e-06
0.0006069596360646167 0.002041051144767984 0.0 0.0 3.939598270466722e-05 -1.2392431859953952e-06
0.0006027836222437476 0.0020259836297588183 0.0 0.0 -6.467493979687912e-05 -1.159611885867258e-06
0.0005985869142028679 0.0020109204096622106 0.0 0.0 3.92587065107424e-05 -1.0850612737822794e-06
0.0005943708367495398 0.0019958612141880777 0.0 0.0 -6.480337149122612e-05 -1.0152673041926045e-06
0.0005901366309815208 0.0019808057890148235 0.0 0.0 3.913855155409523e-05 -9.499261528132211e-07
0.0005858854595244819 0.0019657538950379047 0.0 0.0 -6.491578060382553e-05 -8.887530086804703e-07
0.0005816184114535658 0.001950705307611105 0.0 0.0 3.903339186316719e-05 -8.314809150606966e-07
0.0005773365069203117 0.0019356598157883628 0.0 0.0 -6.501415509672156e-05 -7.778596854399514e-07
0.00057304070149854 0.0019206172215776394 0.0 0.0 3.8941368459008007e-05 -7.276548658393528e-07
0.0005687318902659356 0.0019055773392174583 0.0 0.0 -6.510023334605722e-05 -6.806467669758865e-07
0.0005644109116385505 0.0018905399944744378 0.0 0.0 3.8860855745082045e-05 -6.366295438849437e-07
0.0005600785509711552 0.0018755050239675046 0.0 0.0 -6.517553549500912e-05 -5.954103231988026e-07
0.0005557355439357885 0.0018604722745193371 0.0 0.0 3.879043223873821e-05 -5.56808400267218e-07
0.0005513825796956893 0.0018454416025404197 0.0 0.0 -6.524139072999703e-05 -5.20654455479449e-07
0.0005470203038830531 0.0018304128734392975 0.0 0.0 3.872885510156554e-05 -4.867898448179765e-07
0.0005426493213939003 0.0018153859610633058 0.0 0.0 -6.529896105635715e-05 -4.5506591446925785e-07
0.0005382701990102716 0.0018003607471730825 0.0 0.0 3.867503798115344e-05 -4.2534335910202536e-07
0.0005338834678629474 0.0017853371209410806 0.0 0.0 -6.534926199914073e-05 -3.9749162557880515e-07
0.0005294896257386868 0.0017703149784809229 0.0 0.0 3.862803166698075e-05 -3.713883481833505e-07
0.0005250891392499918 0.0017552942224006436 0.0 0.0 -6.539318067509908e-05 -3.469188178009501e-07
0.0005206824458656545 0.0017402747613846693 0.0 0.0 3.858700723731977e-05 -3.2397547898956654e-07
0.0005162699558228349 0.001725256509800259 0.0 0.0 -6.543149149459591e-05 -3.0245747485241814e-07
0.0005118520539167001 0.0017102393873250096 0.0 0.0 3.8551241366060985e-05 -2.8227019769537596e-07
0.0005074291011822687 0.001695223318596487 0.0 0.0 -6.546486988911809e-05 -2.6332487421489893e-07
0.0005030014364742275 0.0016802082328833867 0.0 0.0 3.85201034934161e-05 -2.455381903038547e-07
0.000498569377949956 0.0016651940637791582 0.0 0.0 -6.549390429355889e-05 -2.2883191792073994e-07
0.0004941332244634521 0.0016501807489084312 0.0 0.0 3.849304472594171e-05 -2.1313256549974858e-07
0.00048969325687391 0.0016351682296531023 0.0 0.0 -6.55191065242097e-05 -1.9837108036719958e-07
0.0004852497392771785 0.0016201564508991045 0.0 0.0 3.8469588097731714e-05 -1.8448251717717102e-07
0.0004808029201655383 0.0016051453607924834 0.0 0.0 -6.554092078872554e-05 -1.714057800263698e-07
0.0004763530335150662 0.0015901349105090297 0.0 0.0 3.8449320165630414e-05 -1.5908332772824512e-07
0.00047190029981579023 0.0015751250540420082 0.0 0.0 -6.555973160858174e-05 -1.4746094978022786e-07
0.00046744492703854214 0.0015601157479999477 0.0 0.0 3.8431883686906214e-05 -1.3648750369965384e-07
0.0004629871115485117 0.0015451069514156729 0.0 0.0 -6.55758705055612e-05 -1.2611470155671602e-07
0.00045852703896726325 0.0015300986255646358 0.0 0.0 3.841697133655209e-05 -1.1629690720420943e-07
0.0004540648849882347 0.0015150907337948029 0.0 0.0 -6.558962193153634e-05 -1.0699091405571345e-07
0.00044960081615220434 0.001500083241364874 0.0 0.0 3.840432030065744e-05 -9.815576707905647e-08
0.0004451349905737038 0.0014850761152917543 0.0 0.0 -6.560122825997135e-05 -8.975258949613964e-08
0.00044066755864327563 0.0014700693242077332 0.0 0.0 3.839370761148054e-05 -8.174440283399914e-08
0.0004361986636793832 0.0014550628382176522 0.0 0.0 -6.561089403449045e-05 -7.409596558468094e-08
0.00043172844256741835 0.0014400566287684395 0.0 0.0 3.8384946224135534e-05 -6.677361045028581e-08
0.000427257026356802 0.001425050668527623 0.0 0.0 -6.561878960243913e-05 -5.97451218441159e-08
0.0004227845408401588 0.0014100449312588934 0.0 0.0 3.837788173231154e-05 -5.297956149908625e-08
0.00041831110710483166 0.0013950393917023351 0.0 0.0 -6.562505413210107e-05 -4.644716012291387e-08
0.00041383684206467797 0.0013800340254724601 0.0 0.0 3.837238962311486e-05 -4.0119163365406624e-08
0.00040936185897878227 0.0013650288089470854 0.0 0.0 -6.562979802104659e-05 -3.396772142792541e-08
0.0004048862679436585 0.0013500237191567126 0.0 0.0 3.8368373091427e-05 -2.7965761323659952e-08
0.00040041017638427673 0.001335018733691015 0.0 0.0 -6.563310486801255e-05 -2.2086868581088718e-08
0.00039593368951836103 0.0013200138305958064 0.0 0.0 3.836576136625558e-05 -1.6305169646261327e-08
0.0003914569108274087 0.0013050089882788878 0.0 0.0 -6.563503297389952e-05 -1.0595211448699658e-08
0.0003869799425071724 0.0012900041854141142 0.0 0.0 3.8364508396291144e-05 -4.931866005538667e-09
0.00038250288591789325 0.001274999400836566 0.0 0.0 -6.563561631311218e-05 7.097986622832224e-10
0.0003780258420320399 0.001259994613460867 0.0 0.0 3.836459208637704e-05 6.35460937808887e-09
0.0003735489118753208 0.0012449898021893247 0.0 0.0 -6.563486518438482e-05 1.2027417588299835e-08
0.0003690721969735994 0.0012299849458058327 0.0 0.0 3.8366013924050245e-05 1.7753192182773294e-08
0.0003645957997974153 0.0012149800228873292 0.0 0.0 -6.563276638711668e-05 2.3557143571549186e-08
0.0003601198242122559 0.0011999750117090175 0.0 0.0 3.836879892869891e-05 2.9464818113167368e-08
0.00035564437593466877 0.0011849698901403656 0.0 0.0 -6.562928292730527e-05 3.550222340859433e-08
0.00035116956299643373 0.0011699646355485182 0.0 0.0 3.83729961750918e-05 4.169594023588179e-08
0.00034669549621877354 0.0011549592246971516 0.0 0.0 -6.562435346109071e-05 4.807324241186102e-08
0.0003422222896959549 0.0011399536336368266 0.0 0.0 3.837867957166472e-05 5.466220045471839e-08
0.000337750061297213 0.0011249478375952105 0.0 0.0 -6.561789112176624e-05 6.149183355824012e-08
0.00033327893317969335 0.0011099418108616807 0.0 0.0 3.83859492432433e-05 6.859221896851272e-08
0.00032880903232404817 0.0010949355266614517 0.0 0.0 -6.560978212627184e-05 7.599461562064671e-08
0.00032434049108324644 0.0010799289570304932 0.0 0.0 3.8394933274364445e-05 8.373162452697232e-08
0.000319873447765331 0.0010649220726869787 0.0 0.0 -6.559988357992749e-05 9.183731988868672e-08
0.00031540804722573015 0.0010499148428827032 0.0 0.0 3.840578988097989e-05 1.003474016135009e-07
0.0003109444414981017 0.0010349072352484848 0.0 0.0 -6.55880211675587e-05 1.0929934520593956e-07
0.0003064827904470602 0.0010198992156343618 0.0 0.0 3.8418710313431904e-05 1.1873258135252892e-07
0.0003020232624522403 0.0010048907479299376 0.0 0.0 -6.557398591910697e-05 1.2868864905266845e-07
0.0002975660351301649 0.0009898817938809497 0.0 0.0 3.843392214471523e-05 1.392113987971422e-07
0.0002931112960883868 0.0009748723128785387 0.0 0.0 -6.555753063633625e-05 1.5034716729326204e-07
0.00028865924371310463 0.0009598622617319344 0.0 0.0 3.845169329441526e-05 1.621449865160142e-07
0.0002842100879998281 0.0009448515944365137 0.0 0.0 -6.553836545042011e-05 1.7465679600855988e-07
0.00027976405142472445 0.0009298402619008033 0.0 0.0 3.847233680341383e-05 1.879376738796396e-07
0.00027532136985509206 0.0009148282116499963 0.0 0.0 -6.551615279353526e-05 2.020460533692708e-07
0.0002708822934995265 0.0008998153875054398 0.0 0.0 3.8496216349220716e-05 2.1704398899858885e-07
0.0002664470879128942 0.0008848017292211879 0.0 0.0 -6.549050133062098e-05 2.329974312690556e-07
0.00026201603502813334 0.000869787172092215 0.0 0.0 3.852375263693666e-05 2.499764807710426e-07
0.00025758943423727365 0.0008547716465059434 0.0 0.0 -6.546095902706462e-05 2.680556810123096e-07
0.0002531676035114497 0.0008397550774329125 0.0 0.0 3.85554310189792e-05 2.8731434739974644e-07
0.0002487508805548039 0.0008247373838778172 0.0 0.0 -6.542700509233764e-05 3.078368548605371e-07
0.0002443396239825774 0.000809718478243996 0.0 0.0 3.859181009730492e-05 3.2971300075032225e-07
0.00023993421452446132 0.0007946982656174574 0.0 0.0 -6.538804052094293e-05 3.5303834971254014e-07
0.00023553505623511705 0.0007796766429627616 0.0 0.0 3.8633531970989335e-05 3.7791455653345043e-07
0.00023114257769826733 0.0007646534982018547 0.0 0.0 -6.534337727461567e-05 4.0444980325558735e-07
0.00022675723320221745 0.0007496287091687193 0.0 0.0 3.868133394976741e-05 4.3275908339897393e-07
0.0002223795038761754 0.0007346021424014834 0.0 0.0 -6.529222532287494e-05 4.629646695548592e-07
0.00021800989873065039 0.000719573651795092 0.0 0.0 3.873606229770426e-05 4.951964331834004e-07
0.00021364895558315146 0.0007045430770402217 0.0 0.0 -6.523367789507714e-05 5.295922303244407e-07
0.00020929724180767504 0.0006895102418124087 0.0 0.0 3.87986888004089e-05 5.662982391308954e-07
0.00020495535484497563 0.000674474951729081 0.0 0.0 -6.516669361107327e-05 6.054692840422749e-07
0.00020062392239856867 0.0006594369919829086 0.0 0.0 3.8870329756646345e-05 6.472690880342941e-07
0.00019630360221155365 0.0006443961246390471 0.0 0.0 -6.509007533307058e-05 6.918704902451368e-07
0.00019199508131286858 0.0006293520855153398 0.0 0.0 3.8952269466061744e-05 7.394555281761955e-07
0.00018769907457147608 0.0006143045806031884 0.0 0.0 -6.500244460083443e-05 7.902154109450197e-07
0.0001834163223907812 0.0005992532819813468 0.0 0.0 3.904598839987532e-05 8.443503753090146e-07
0.0001791475872983045 0.0005841978231159775 0.0 0.0 -6.49022101605794e-05 9.020692150830999e-07
0.00017489364918758308 0.0005691377935101956 0.0 0.0 3.915319841829145e-05 9.63588610699011e-07
0.000170655298862301 0.0005540727326035962 0.0 0.0 -6.478752859708837e-05 1.029132073417354e-06
0.00016643332949251843 0.0005390021228431635 0.0 0.0 3.927588691551116e-05 1.0989284021522975e-06
0.00016222852551679953 0.0005239253818480374 0.0 0.0 -6.465625436228965e-05 1.1732095678897722e-06
0.00015804164839538888 0.0005088418536255404 0.0 0.0 3.941637362006047e-05 1.252207836289175e-06
0.00015387341856831324 0.0004937507988012386 0.0 0.0 -6.450587506468767e-05 1.3361519330834125e-06
0.00014972449280820584 0.00047865138379340675 0.0 0.0 3.9577384745866084e-05 1.4252621505032306e-06
0.00014559543600989411 0.0004635426690645988 0.0 0.0 -6.433342622672185e-05 1.5197436928914053e-06
0.00014148668640833088 0.0004484235965124324 0.0 0.0 3.97621508732922e-05 1.6197788451002967e-06
0.00013739851286431975 0.0004332929763892378 0.0 0.0 -6.413537815039565e-05 1.7255156132993995e-06
0.00013333096305142325 0.00041814947393711583 0.0 0.0 3.9974537287197284e-05 1.8370561706035175e-06
0.00012928380063624586 0.00040299159702201473 0.0 0.0 -6.390748494730235e-05 1.9544371525957813e-06
0.00012525643065192888 0.0003878176847922182 0.0 0.0 4.021921629754582e-05 2.077615020124198e-06
0.00012124780984531876 0.0003726259011168731 0.0 0.0 -6.364458467395819e-05 2.206429212433321e-06
0.00011725634371027331 0.00035741423118462046 0.0 0.0 4.050189002859149e-05 2.340593079435695e-06
0.00011327976295246008 0.0003421804923158621 0.0 0.0 -6.334033917016336e-05 2.4796137772422483e-06
0.00010931499073507624 0.00032692234907159644 0.0 0.0 4.082956114704185e-05 2.6228284111063987e-06
0.00010535797876080022 0.00031163736731731586 0.0 0.0 -6.29869068450408e-05 2.7691943775477084e-06
0.00010140355818834456 0.0002963230620047436 0.0 0.0 4.121081380853713e-05 2.9175272321471137e-06
9.7445227071991e-05 0.00028097705391456955 0.0 0.0 -6.257454169347775e-05 3.0658547655883998e-06
9.34750434965518e-05 0.0002655971509226095 0.0 0.0 4.1655959175555856e-05 3.2124459021202903e-06
8.948333059801088e-05 0.00025018175417662147 0.0 0.0 -6.209107159547912e-05 3.3536095308528673e-06
8.545880396130846e-05 0.00023472987552229386 0.0 0.0 4.217658771975036e-05 3.4876944437349814e-06
8.138801393394605e-05 0.00021924219659656804 0.0 0.0 -6.152092406675586e-05 3.6072102123567255e-06
7.725631112091388e-05 0.00020372048029242433 0.0 0.0 4.2783115444849874e-05 3.7138199682959765e-06
7.304618874613627e-05 0.00018817053209007343 0.0 0.0 -6.084201537681958e-05 3.789550602590133e-06
6.874104630334917e-05 0.0001725987149464037 0.0 0.0 4.3475853597492236e-05 3.8522599645793125e-06
6.431896743907188e-05 0.00015702108912990094 0.0 0.0 -6.001319034070352e-05 3.849647080423095e-06
5.9766007925214125e-05 0.00014144830001120676 0.0 0.0 4.421472196964259e-05 3.863560871841267e-06
5.505209269713694e-05 0.00012591652229007507 0.0 0.0 -5.892320622365491e-05 3.7190618416496493e-06
5.017814330470458e-05 0.000110429025406827 0.0 0.0 4.481505135293918e-05 3.735910800444441e-06
4.508534502529369e-05 9.506718957309384e-05 0.0 0.0 -5.719460037895466e-05 3.288897132664435e-06
3.9826411398347844e-05 7.97762329025055e-05 0.0 0.0 4.457205848163782e-05 3.564919316052166e-06
3.423602555230163e-05 6.476144461946046e-05 0.0 0.0 -5.348490415980488e-05 2.3083880738207106e-06
2.8547257938067433e-05 4.973918454173495e-05 0.0 0.0 4.090279935565306e-05 3.7682024489195214e-06
2.2254377455401893e-05 3.513503166460943e-05 0.0 0.0 -4.3161426989428084e-05 3.049668562622775e-07
1.5977879002039043e-05 2.0642167254834084e-05 0.0 0.0 2.6575034185448128e-05 4.539636154867409e-06
9.434631081272189e-06 8.074244150846363e-06 0.0 0.0 -1.9819946538081985e-05 -4.462093581661733e-06
1.0397026469879662e-05 3.0735884533537367e-06 0.0 0.0 -0.020581447639018785 -2.9451354012173362e-05
-3.3881317890172014e-21 0.002669161588506924 0.0 0.0 -0.0015153139400040482 9.317362419797304e-21
6.301441283803225e-05 0.002638312399983031 0.0 0.0 -5.5042713711119954e-05 0.0001051998719034144
0.00010848398568710579 0.0025891191464987146 0.0 0.0 -0.00014720476533468496 9.655075301692658e-05
0.00017177670331544067 0.0025722645689253126 0.0 0.0 -2.9814107744429314e-05 6.584976830915334e-05
0.00023831365563718976 0.0025847190945126257 0.0 0.0 -0.00011919629601506099 3.875571190204988e-05
0.0003002404748314469 0.002609407089488708 0.0 0.0 -3.7722610291893426e-06 1.8642271035648e-05
0.00035493694558933966 0.0026362968399490333 0.0 0.0 -9.95540156294868e-05 4.577021895930436e-06
0.00040214064716242965 0.002660678107390075 0.0 0.0 1.0289442076537834e-05 -4.990950289903948e-06
0.00044249377827481826 0.0026807230867571183 0.0 0.0 -8.946991174955704e-05 -1.1388400548494092e-05
0.0004769014062454782 0.002696017605538249 0.0 0.0 1.7716423659023286e-05 -1.5585336324973623e-05
0.0005062681666708739 0.0027067855777883057 0.0 0.0 -8.379283638503419e-05 -1.825769125399767e-05
0.0005314023975412971 0.0027135026956191465 0.0 0.0 2.2232736915997963e-05 -1.986848353256467e-05
0.0005529917631670421 0.002716711700244152 0.0 0.0 -8.005971382961062e-05 -2.0735260130255156e-05
0.000571607589013617 0.0027169386088767154 0.0 0.0 2.5424844258561925e-05 -2.107732159123204e-05
0.0005877191635700088 0.002714658480898203 0.0 0.0 -7.725176086994751e-05 -2.10479251852939e-05
0.0006017100968528868 0.002710284946320925 0.0 0.0 2.795125830273344e-05 -2.0755518241016277e-05
0.0006138936167397873 0.0027041707201031114 0.0 0.0 -7.49389492122482e-05 -2.0277878691880538e-05
0.0006245257881426307 0.0026966127949705123 0.0 0.0 3.0095910217262892e-05 -1.967148577182046e-05
0.0006338165139768865 0.0026878592482293944 0.0 0.0 -7.2931718379861e-05 -1.897783257724783e-05
0.0006419385150228605 0.0026781162095090684 0.0 0.0 3.1986739705259544e-05 -1.8227700871908016e-05
0.0006490345850547085 0.002667554344976612 0.0 0.0 -7.114272509903342e-05 -1.7444105898358934e-05
0.0006552234212432598 0.0026563146117937224 0.0 0.0 3.368415372612417e-05 -1.6644345771788336e-05
0.0006606042967760749 0.0026445132308817666 0.0 0.0 -6.952950665613391e-05 -1.584145211957374e-05
0.0006652608008004189 0.0026322459152600037 0.0 0.0 3.521864929657603e-05 -1.5045230414694522e-05
0.0006692638302233347 0.002619591428404873 0.0 0.0 -6.806952105196223e-05 -1.4263018616027782e-05
0.0006726739826722226 0.0026066145579596942 0.0 0.0 3.66075182042411e-05 -1.3500248404115422e-05
0.0006755434705595296 0.0025933685886816724 0.0 0.0 -6.674889768619208e-05 -1.2760866981781919e-05
0.0006779176523524868 0.002579897351502805 0.0 0.0 3.786244433102672e-05 -1.2047658514055143e-05
0.0006798362579545844 0.002566236916622484 0.0 0.0 -6.555731161848691e-05 -1.1362492470000249e-05
0.0006813343697501469 0.002552416989329651 0.0 0.0 3.8992941305458556e-05 -1.0706517739734015e-05
0.0006824432085755635 0.0025384620585992782 0.0 0.0 -6.448570634397981e-05 -1.0080315976872717e-05
0.0006831907640563096 0.00252439234074072 0.0 0.0 4.000782914180106e-05 -9.484023753849872e-06
0.0006836023008766017 0.002510224553589071 0.0 0.0 -6.352536942812246e-05 -8.917430544918236e-06
0.0006837007662375808 0.0024959725508900948 0.0 0.0 4.091577928180411e-05 -8.380057701436088e-06
0.0006835071186962333 0.002481647841562146 0.0 0.0 -6.266764538465276e-05 -7.871222322268756e-06
0.0006830405945071053 0.0024672600143222 0.0 0.0 4.1725429415606587e-05 -7.3900889788983685e-06
0.0006823189243254422 0.0024528170846363053 0.0 0.0 -6.190393267552994e-05 -6.935711619331808e-06
0.0006813585105075754 0.0024383257780053783 0.0 0.0 4.244531731494212e-05 -6.507067450706245e-06
0.0006801745731440126 0.0024237917611368686 0.0 0.0 -6.122578913723736e-05 -6.10308426734994e-06
0.0006787812712764603 0.002409219830507944 0.0 0.0 4.3083756862273884e-05 -5.722662378364069e-06
0.0006771918044065285 0.0023946140661313237 0.0 0.0 -6.062506044663172e-05 -5.364692100912223e-06
0.0006754184983288198 0.002379977956931302 0.0 0.0 4.364871436639441e-05 -5.02806759093073e-06
0.0006734728784686121 0.002365314502976692 0.0 0.0 -6.00939931557054e-05 -4.711697661124119e-06
0.000671365733225009 0.002350626298864801 0.0 0.0 4.4147709522243716e-05 -4.414514120864698e-06
0.0006691071692830077 0.002335915601765627 0.0 0.0 -5.962531815303598e-05 -4.1354780771384785e-06
0.0006667066604343396 0.0023211843869876286 0.0 0.0 4.4587747954836804e-05 -3.87358457345069e-06
0.0006641730911128025 0.002306434393399828 0.0 0.0 -5.9212302527389155e-05 -3.627865866836751e-06
0.0006615147955856724 0.0022916671606099037 0.0 0.0 4.4975284011693445e-05 -3.3973936052924104e-06
0.0006587395935395874 0.0022768840594462316 0.0 0.0 -5.884877337037286e-05 -3.181280116206159e-06
0.0006558548226375077 0.002262086316999069 0.0 0.0 4.5316208908829036e-05 -2.9786789811904425e-06
0.0006528673684984655 0.0022472750372412313 0.0 0.0 -5.852911914355671e-05 -2.7887850494161953e-06
0.0006497836924565179 0.00223245121805837 0.0 0.0 4.5615858405896755e-05 -2.610834007290994e-06
0.0006466098573792312 0.0022176157653575022 0.0 0.0 -5.8248274385316336e-05 -2.4441015991765467e-06
0.0006433515517667067 0.0022027695048034727 0.0 0.0 4.587903442170683e-05 -2.287902601995031e-06
0.0006400141123148659 0.0021879131916221115 0.0 0.0 -5.800169297880668e-05 -2.1415895877014606e-06
0.0006366025450808652 0.002173047518825059 0.0 0.0 4.611003581194697e-05 -2.0045515688381593e-06
0.0006331215453758762 0.0021581731241488125 0.0 0.0 -5.7785314214707994e-05 -1.8762125339383045e-06
0.000629575516479718 0.002143290595939881 0.0 0.0 4.63126945945974e-05 -1.7560299369329525e-06
0.000625968587263811 0.00212840047817723 0.0 0.0 -5.759552505987337e-05 -1.6434931499173977e-06
0.0006223046287933841 0.0021135032747854393 0.0 0.0 4.6490414646524687e-05 -1.5381219258708324e-06
0.0006185872699720651 0.0020985994533624266 0.0 0.0 -5.742912096840696e-05 -1.4394648443897032e-06
0.0006148199122866529 0.002083689448421428 0.0 0.0 4.664621091039474e-05 -1.347097824960493e-06
0.0006110057437024591 0.0020687736642295835 0.0 0.0 -5.728326704992762e-05 -1.2606226339058574e-06
0.0006071477517558967 0.002053852477311046 0.0 0.0 4.67827475792396e-05 -1.1796654755248345e-06
0.0006032487358871441 0.0020389262386653196 0.0 0.0 -5.715546071511507e-05 -1.1038756003701696e-06
0.0005993113190574562 0.0020239952757482266 0.0 0.0 4.690237442978235e-05 -1.032923992296019e-06
0.000595337958683204 0.0020090598942516646 0.0 0.0 -5.704349652900617e-05 -9.665020970038704e-07
0.0005913309569284289 0.0019941203797033138 0.0 0.0 4.7007160698508597e-05 -9.04320618336815e-07
0.0005872924703893074 0.0019791769989212374 0.0 0.0 -5.694543366996786e-05 -8.46108360812441e-07
0.0005832245192012658 0.001964230001340008 0.0 0.0 4.7098926219313136e-05 -7.916111452541e-07
0.0005791289956029955 0.001949279620219165 0.0 0.0 -5.6859566184384565e-05 -7.405907699311806e-07
0.0005750076719842467 0.0019343260737548973 0.0 0.0 4.717926979939545e-05 -6.928240277230633e-07
0.0005708622084524388 0.00191936956610225 0.0 0.0 -5.6784396040107654e-05 -6.48101783741657e-07
0.0005666941599354583 0.0019044102883186836 0.0 0.0 4.7249594748320005e-05 -6.062280970034711e-07
0.0005625049828552957 0.0018894484192399203 0.0 0.0 -5.671860889946485e-05 -5.670194001733452e-07
0.0005582960413947594 0.0018744841262880664 0.0 0.0 4.7311131853976815e-05 -5.303037157188039e-07
0.0005540686133805197 0.0018595175662253893 0.0 0.0 -5.6661052458177185e-05 -4.959199292633954e-07
0.0005498238958033537 0.0018445488858556919 0.0 0.0 4.736495975048182e-05 -4.6371710329869706e-07
0.0005455630100015147 0.0018295782226721005 0.0 0.0 -5.661071719715617e-05 -4.3355381973457984e-07
0.0005412870065222038 0.001814605705469203 0.0 0.0 4.741202309902035e-05 -4.0529758284728714e-07
0.0005369968696853346 0.0017996314549134172 0.0 0.0 -5.6566719290335004e-05 -3.788242356950384e-07
0.0005326935218642525 0.0017846555840701052 0.0 0.0 4.745314863683844e-05 -3.5401743564352243e-07
0.0005283778275031185 0.0017696781989003166 0.0 0.0 -5.652828556043817e-05 -3.3076813934107985e-07
0.0005240505968845599 0.0017546993987279354 0.0 0.0 4.748905933172785e-05 -3.089741312569121e-07
0.0005197125896670801 0.0017397192766749003 0.0 0.0 -5.649474015160497e-05 -2.8853958287293827e-07
0.000515364518201944 0.0017247379200673338 0.0 0.0 4.752038684085319e-05 -2.6937462860185607e-07
0.0005110070506499568 0.0017097554108191468 0.0 0.0 -5.6465492878474154e-05 -2.513949781931591e-07
0.000506640813902592 0.0016947718257894094 0.0 0.0 4.754768243959073e-05 -2.34521551130244e-07
0.0005022663963278914 0.0016797872371167916 0.0 0.0 -5.6440028968677766e-05 -2.1868011879073003e-07
0.0004978843503474542 0.0016648017125362416 0.0 0.0 4.7571426605252584e-05 -2.038009942890149e-07
0.0004934951948574638 0.0016498153156795459 0.0 0.0 -5.6417900106996654e-05 -1.898187160857519e-07
0.0004890994175039239 0.0016348281063518608 0.0 0.0 4.7592037462488137e-05 -1.7667176328606303e-07
0.00048469747682333095 0.001619840140788446 0.0 0.0 -5.6398716610867256e-05 -1.6430229505951573e-07
0.0004802898042537744 0.001604851471905225 0.0 0.0 4.760987797237492e-05 -1.5265587766745197e-07
0.0004758768060291589 0.0015898621495317059 0.0 0.0 -5.638214059689025e-05 -1.4168127755216512e-07
0.00047145886496428906 0.0015748722206254126 0.0 0.0 4.762526240601893e-05 -1.3133018321649127e-07
0.0004670363421334874 0.0015598817294798389 0.0 0.0 -5.636788006770771e-05 -1.215570620703623e-07
0.00046260957846050357 0.0015448907179199584 0.0 0.0 4.7638461777171426e-05 -1.1231889791250014e-07
0.000458178896215809 0.001529899225483053 0.0 0.0 -5.635568379524125e-05 -1.0357503802343277e-07
0.000453744600431197 0.001514907289593823 0.0 0.0 4.764970862341752e-05 -9.528700720221614e-08
0.00044930698024188664 0.0014999149457293754 0.0 0.0 -5.634533688459473e-05 -8.741832604330793e-08
0.0004448663101593342 0.0014849222275729846 0.0 0.0 4.7659201114404345e-05 -7.99343687751114e-08
0.0004404228512783344 0.001469929167157388 0.0 0.0 -5.633665704895315e-05 -7.280219961272203e-08
0.00043597685242073895 0.001454935795015078 0.0 0.0 4.766710651282161e-05 -6.599042896756604e-08
0.00043152855123451494 0.0014399421403106514 0.0 0.0 -5.632949132118852e-05 -5.9469078305556845e-08
0.00042707817523848177 0.001424948230960687 0.0 0.0 4.767356411017657e-05 -5.320944634397027e-08
0.0004226259428214816 0.0014099540937644178 0.0 0.0 -5.63237134504046e-05 -4.7183990630112783e-08
0.00041817206420416186 0.0013949597545174263 0.0 0.0 4.76786876936311e-05 -4.1366182951089753e-08
0.00041371674236473496 0.0013799652381267969 0.0 0.0 -5.6319221627165175e-05 -3.573042459603312e-08
0.0004092601739304084 0.0013649705687207034 0.0 0.0 4.768256754208555e-05 -3.025190925678512e-08
0.0004048025500433548 0.0013499757697509403 0.0 0.0 -5.631593669410697e-05 -2.490652390140782e-08
0.0004003440572008524 0.001334980864098912 0.0 0.0 4.7685272019477366e-05 -1.9670745807123368e-08
0.00039588487807621145 0.0013199858741791185 0.0 0.0 -5.6313800775962576e-05 -1.45215238424529e-08
0.00039142519232464914 0.0013049908220316997 0.0 0.0 4.76868487815133e-05 -9.436196639171779e-09
0.00038696517737026753 0.0012899957294192671 0.0 0.0 -5.631277623589087e-05 -4.392385682873857e-09
0.00038250500918942624 0.0012750006179226205 0.0 0.0 4.768732558504312e-05 6.321204909336131e-10
0.000378044863084005 0.0012600055090362108 0.0 0.0 -5.631284504703114e-05 5.659434604873663e-09
0.0003735849144524953 0.0012450104242636626 0.0 0.0 4.768671081647124e-05 1.071168510461502e-08
0.00036912533956086043 0.0012300153852084909 0.0 0.0 -5.631400846075013e-05 1.5811113155935266e-08
0.0003646663163189053 0.0012150204136689036 0.0 0.0 4.768499362981264e-05 2.0980170608296024e-08
0.00036020802506160626 0.0012000255317292704 0.0 0.0 -5.6316286989416546e-05 2.6241616901700494e-08
0.00035575064933971524 0.0011850307618602872 0.0 0.0 4.768214371936492e-05 3.161862015656561e-08
0.0003512943767319029 0.0011700361270121586 0.0 0.0 -5.6319720847109204e-05 3.713485052596853e-08
0.00034683939966264097 0.0011550416507084423 0.0 0.0 4.76781108235849e-05 4.28146056157745e-08
0.00034238591624821365 0.0011400473571551945 0.0 0.0 -5.632437057032265e-05 4.8682896820685835e-08
0.000337934131169594 0.0011250532713385278 0.0 0.0 4.767282378484656e-05 5.476557888618467e-08
0.00033348425656419897 0.001110059419125095 0.0 0.0 -5.6330318170291814e-05 6.108943684300736e-08
0.0003290365129553322 0.001095065827370533 0.0 0.0 4.766618942738917e-05 6.768233777999875e-08
0.00032459113022134363 0.0010800725240296 0.0 0.0 -5.63376685251396e-05 7.45733329958519e-08
0.00032014834859371826 0.0010650795382709714 0.0 0.0 4.765809074462916e-05 8.179278793580538e-08
0.0003157084197039433 0.0010500869005929292 0.0 0.0 -5.634655120975566e-05 8.937252292341626e-08
0.0003112716076847545 0.0010350946429367575 0.0 0.0 4.764838496934868e-05 9.734596732500177e-08
0.0003068381903072969 0.0010201027988082658 0.0 0.0 -5.635712280653918e-05 1.0574826385834502e-07
0.0003024084601872591 0.0010051114034052267 0.0 0.0 4.7636901069703216e-05 1.1461648362207826e-07
0.00029798272604793273 0.000990120493737128 0.0 0.0 -5.636956958103795e-05 1.239897372269476e-07
0.00029356131404071245 0.000975130108755633 0.0 0.0 4.7623436724673245e-05 1.3390939293528433e-07
0.0002891445691428801 0.0009601402894808095 0.0 0.0 -5.6384110701708794e-05 1.4441922323857933e-07
0.0002847328566213032 0.0009451510791341519 0.0 0.0 4.7607754936147524e-05 1.5556563790646884e-07
0.00028032656357489645 0.0009301625232592244 0.0 0.0 -5.640100202172998e-05 1.6739785088388387e-07
0.0002759261005566168 0.0009151746698381797 0.0 0.0 4.758957993683706e-05 1.7996813303142439e-07
0.00027153190327325463 0.0009001875694105369 0.0 0.0 -5.6420540410944894e-05 1.9333202167827468e-07
0.00026714443438134 0.0008852012751879028 0.0 0.0 4.756859262363398e-05 2.0754858528224205e-07
0.0002627641853548552 0.0008702158431400295 0.0 0.0 -5.644306850704464e-05 2.226806697138697e-07
0.00025839167845504807 0.0008552313320577792 0.0 0.0 4.754442530571323e-05 2.3879519076117246e-07
0.00025402746877187937 0.000840247803615841 0.0 0.0 -5.646898044523005e-05 2.5596341896884627e-07
0.0002496721463648868 0.0008252653223899426 0.0 0.0 4.7516656009687595e-05 2.7426129637752455e-07
0.00024532633847127155 0.000810283955831951 0.0 0.0 -5.649872767397174e-05 2.9376979244425793e-07
0.0002409907117881614 0.0007953037741973419 0.0 0.0 4.748480206945597e-05 3.145752059459817e-07
0.00023666597481652524 0.0007803248504016247 0.0 0.0 -5.653282570419597e-05 3.367695817112692e-07
0.00023235288024775694 0.0007653472597988001 0.0 0.0 4.7448313540173056e-05 3.604510961083057e-07
0.0002280522273635582 0.0007503710798631156 0.0 0.0 -5.657186076739101e-05 3.857244518920208e-07
0.0002237648644385228 0.0007353963897327867 0.0 0.0 4.7406566184147146e-05 4.1270132604203594e-07
0.00021949169108201298 0.0007204232695996433 0.0 0.0 -5.6616496545330896e-05 4.4150083893879435e-07
0.00021523366049197468 0.0007054517999288297 0.0 0.0 4.73588552306046e-05 4.7224996606461643e-07
0.0002109917815382273 0.0006904820604189386 0.0 0.0 -5.6667480276889485e-05 5.05084104674325e-07
0.000206767120605462 0.0006755141286829408 0.0 0.0 4.7304389977251846e-05 5.401474989510328e-07
0.00020256080308866828 0.0006605480785995536 0.0 0.0 -5.6725646928574604e-05 5.775937720005125e-07
0.00019837401441207507 0.0006455839782386687 0.0 0.0 4.724229095939467e-05 6.17586416879097e-07
0.00019420800040526037 0.0006306218872732061 0.0 0.0 -5.6791920045120214e-05 6.602992569130703e-07
0.00019006406685320178 0.0006156618537953163 0.0 0.0 4.7171591774071734e-05 7.059169156052245e-07
0.00018594357795293152 0.0006007039104049858 0.0 0.0 -5.68673065351453e-05 7.546351814494839e-07
0.00018184795338876549 0.0005857480694216394 0.0 0.0 4.7091248739683554e-05 8.066613618460446e-07
0.00017777866363332848 0.0005707943170577864 0.0 0.0 -5.6952881338213435e-05 8.622144369108478e-07
0.00017373722304114827 0.0005558426063365787 0.0 0.0 4.700016356440871e-05 9.215251438936213e-07
0.000169725180150468 0.0005408928485558617 0.0 0.0 -5.7049755446894916e-05 9.848357413300797e-07
0.0001657441045246291 0.0005259449029978197 0.0 0.0 4.689722663107671e-05 1.0523995956355277e-06
0.00016179556929909192 0.000510998564574663 0.0 0.0 -5.71590183151107e-05 1.1244802162218475e-06
0.0001578811284520589 0.0004960535490748072 0.0 0.0 4.678139290297239e-05 1.2013499273681597e-06
0.00015400228756910363 0.0004811094756053281 0.0 0.0 -5.728163969233985e-05 1.2832876023021432e-06
0.00015016046670194064 0.000466165845750561 0.0 0.0 4.665180715725833e-05 1.3705759052985971e-06
0.00014635695356650993 0.00045122201901928944 0.0 0.0 -5.7418310482613196e-05 1.4634964622127532e-06
0.0001425928451142872 0.0004362771839711431 0.0 0.0 4.6508004272699174e-05 1.5623251791240618e-06
0.0001388689750371618 0.0004213303247321912 0.0 0.0 -5.756919237709206e-05 1.6673221676146441e-06
0.00013518582460250072 0.0004063801820057158 0.0 0.0 4.635021967684563e-05 1.7787255612138888e-06
0.00013154341338333057 0.00039142520895665 0.0 0.0 -5.773353362681388e-05 1.8967292989583925e-06
0.00012794116703991875 0.00037646352050074597 0.0 0.0 4.6179858686808e-05 2.021480907995663e-06
0.0001243777570372096 0.0003614928388956424 0.0 0.0 -5.790909357004069e-05 2.1530268460198372e-06
0.00012085091080179703 0.00034651043153806 0.0 0.0 4.600018612891852e-05 2.291340836794737e-06
0.00011735718366501318 0.00033151305262930176 0.0 0.0 -5.809130136117421e-05 2.4361702040879944e-06
0.00011389169836327503 0.0003164968740338243 0.0 0.0 4.581730281505848e-05 2.5872036595738727e-06
0.00011044783237687855 0.0003014574469913778 0.0 0.0 -5.82720575610352e-05 2.743587015331672e-06
0.00010701688724537997 0.0002863896367422104 0.0 0.0 4.564144796769735e-05 2.9046488482656688e-06
0.00010358767917326263 0.0002712876763920711 0.0 0.0 -5.843806913082049e-05 3.068254561209736e-06
0.00010014618668530507 0.00025614511246876856 0.0 0.0 4.548853146893765e-05 3.2336590621147255e-06
9.667503662614536e-05 0.00024095515777554908 0.0 0.0 -5.8568553249696e-05 3.395669079863891e-06
9.315332399262843e-05 0.00022571057383283022 0.0 0.0 4.538132717290199e-05 3.5554455777408577e-06
8.955593801589752e-05 0.00021040492010131792 0.0 0.0 -5.863185028646967e-05 3.6993482079006844e-06
8.585417037083908e-05 0.00019503183606488174 0.0 0.0 4.534822511291655e-05 3.839186003362074e-06
8.201445827363496e-05 0.0001795889757347289 0.0 0.0 -5.8578987829260116e-05 3.934759855261645e-06
7.800163693100523e-05 0.00016407408092406907 0.0 0.0 4.541256354708453e-05 4.042757546711992e-06
7.377481618507676e-05 0.0001484972886356794 0.0 0.0 -5.832525018658577e-05 4.031813156575971e-06
6.929893793344445e-05 0.0001328631579544577 0.0 0.0 4.555020595872284e-05 4.13138546849468e-06
6.452755482711462e-05 0.00011721110993901868 0.0 0.0 -5.768004713715882e-05 3.881705290685947e-06
5.944122918077641e-05 0.00010154261918604408 0.0 0.0 4.5543166114683526e-05 4.1521063458340455e-06
5.3976923996253614e-05 8.596702465555508e-05 0.0 0.0 -5.605812872226689e-05 3.2776389540009176e-06
4.816406901939795e-05 7.042777857114127e-05 0.0 0.0 4.445060121601677e-05 4.4388007903440295e-06
4.185925728392365e-05 5.5293705662839035e-05 0.0 0.0 -5.1321388884507284e-05 1.6396811752503225e-06
3.5314885778717364e-05 4.024315985027181e-05 0.0 0.0 3.798567370961927e-05 5.935372568951808e-06
2.8203461351402672e-05 2.61875487191625e-05 0.0 0.0 -3.528914467646198e-05 -1.8151351179108467e-06
2.1339614923132887e-05 1.559116984666735e-05 0.0 0.0 1.7146056929888756e-05 4.294730112417203e-06
2.2336083327619115e-05 1.132010867382162e-05 0.0 0.0 0.020603244994978027 -5.6309675815864905e-05
0.0 0.002889742180328993 0.0 0.0 -0.001505647566737195 -2.793885236959106e-20
2.6513538197027792e-05 0.002843048036970358 0.0 0.0 -0.00013375797053241545 7.270198730785916e-05
5.5613313185292435e-05 0.0027637235507891006 0.0 0.0 -2.093085636274491e-05 6.977030548640011e-05
9.53922303522859e-05 0.0027111173031543903 0.0 0.0 -0.00011600988709271346 5.802465213293052e-05
0.0001429359335386244 0.002681545861998341 0.0 0.0 -3.9345906371968185e-06 4.2577886087025594e-05
0.00019298232740785754 0.0026689935399443446 0.0 0.0 -0.0001002112223866825 2.782608599167934e-05
0.00024182594610455867 0.0026666262409479756 0.0 0.0 1.0415737200580963e-05 1.5461541889959584e-05
0.0002874770327623749 0.0026692967423512215 0.0 0.0 -8.821900015437891e-05 5.758246346304651e-06
0.00032910886005857595 0.0026737280304310273 0.0 0.0 2.000572083414584e-05 -1.5665272600578968e-06
0.0003665637307899403 0.0026780338648339243 0.0 0.0 -8.069143321161066e-05 -6.949309012942632e-06
0.00040002643227882536 0.002681229291433604 0.0 0.0 2.590296106418357e-05 -1.081170299785296e-05
0.0004298331097717016 0.002682871826703211 0.0 0.0 -7.60349792321973e-05 -1.3508780256095797e-05
0.00045636711548995544 0.002682828778816471 0.0 0.0 2.9630484688622136e-05 -1.5321763678374313e-05
0.0004800060103752383 0.0026811348153854544 0.0 0.0 -7.299959871565015e-05 -1.646753762667761e-05
0.0005010971542224725 0.0026779077924794607 0.0 0.0 3.214897728028764e-05 -1.7111292166240375e-05
0.0005199486555093936 0.0026733004092533473 0.0 0.0 -7.086968863939544e-05 -1.7378459971107246e-05
0.0005368282111221694 0.0026674733349403216 0.0 0.0 3.3983819298022156e-05 -1.736435264757728e-05
0.0005519657184142443 0.002660580999227313 0.0 0.0 -6.92617615807349e-05 -1.714164541531809e-05
0.000565557444520479 0.0026527647391902075 0.0 0.0 3.541458705951878e-05 -1.6765974462731572e-05
0.0005777705963282384 0.0026441501398483916 0.0 0.0 -6.79717065749782e-05 -1.628010871054046e-05
0.0005887477181345418 0.0026348466930147165 0.0 0.0 3.6590738231741986e-05 -1.5717033351199137e-05
0.0005986106603549235 0.0026249486706591044 0.0 0.0 -6.688963432273491e-05 -1.5102243591433881e-05
0.000607464031124133 0.00261453656932879 0.0 0.0 3.75934866684594e-05 -1.4455456118455854e-05
0.0006153981288712388 0.0026036787575233894 0.0 0.0 -6.595513818863687e-05 -1.3791898598564784e-05
0.0006224913952482005 0.0025924331220668786 0.0 0.0 3.846812321166271e-05 -1.312328871837541e-05
0.0006288124446059121 0.0025808486071444738 0.0 0.0 -6.513391678730853e-05 -1.2458585235625418e-05
0.0006344217301367962 0.0025689665970518114 0.0 0.0 3.9240957184036144e-05 -1.1804569168133635e-05
0.0006393729041888327 0.002556822126831192 0.0 0.0 -6.440547213614088e-05 -1.1166297706310783e-05
0.000643713924662981 0.002544444923406551 0.0 0.0 3.9928262729314434e-05 -1.0547461445791279e-05
0.0006474879527472375 0.0025318602894426868 0.0 0.0 -6.37565986683365e-05 -9.950667542287775e-06
0.0006507340805357772 0.002519089846507133 0.0 0.0 4.0541016213136414e-05 -9.37766540675372e-06
0.0006534879208379334 0.0025061521554068903 0.0 0.0 -6.317794110920727e-05 -8.82952744266522e-06
0.0006557820859185625 0.002493063231143007 0.0 0.0 4.1087390477442625e-05 -8.306794248924467e-06
0.0006576465770952754 0.0024798369686023893 0.0 0.0 -6.266219449117721e-05 -7.809591547389095e-06
0.0006591091030265604 0.0024664854933790594 0.0 0.0 4.157404642986815e-05 -7.337724430772871e-06
0.0006601953411048489 0.002453019450270856 0.0 0.0 -6.220318427913144e-05 -6.890753348701736e-06
0.0006609291535344916 0.0024394482402098727 0.0 0.0 4.2006781973131244e-05 -6.468055301427601e-06
0.0006613327673543063 0.0024257802147338824 0.0 0.0 -6.179541397946699e-05 -6.068873037277722e-06
0.0006614269257747291 0.0024120228356317433 0.0 0.0 4.2390842788035546e-05 -5.692354479482645e-06
0.0006612310166722663 0.0023981828061127603 0.0 0.0 -6.143385548010313e-05 -5.33758420661606e-06
0.0006607631828570013 0.002384266178744841 0.0 0.0 4.273106065092076e-05 -5.003608442067704e-06
0.0006600404177465542 0.002370278444478059 0.0 0.0 -6.11138602488999e-05 -4.689454773012104e-06
0.0006590786493010502 0.0023562246062853185 0.0 0.0 4.3031908605698345e-05 -4.394147568561251e-06
0.0006578928144538574 0.0023421092402991788 0.0 0.0 -6.0831126303834105e-05 -4.116719904974771e-06
0.0006564969257862828 0.0023279365467911354 0.0 0.0 4.3297520047724314e-05 -3.856222660510403e-06
0.0006549041318108133 0.0023137103928940425 0.0 0.0 -6.058168732946481e-05 -3.6117313205702266e-06
0.00065312677192901 0.002299434348606272 0.0 0.0 4.3531695417023094e-05 -3.3823509400724555e-06
0.0006511764268953165 0.0022851117173242723 0.0 0.0 -6.0361907466081703e-05 -3.1672196215789985e-06
0.0006490639654398003 0.002270745561907231 0.0 0.0 4.373790763702903e-05 -2.9655108167292302e-06
0.000646799587559565 0.002256338727082736 0.0 0.0 -6.016847460450772e-05 -2.7764346829508635e-06
0.0006443928648828123 0.0022418938588496477 0.0 0.0 4.391931066424304e-05 -2.5992387116100153e-06
0.0006418527784266571 0.002227413421402583 0.0 0.0 -5.999838972661715e-05 -2.4332077665228534e-06
0.0006391877540061518 0.0022128997120050876 0.0 0.0 4.407875228224016e-05 -2.2776637005326756e-06
0.0006364056955030351 0.0021983548741501785 0.0 0.0 -5.984895215261764e-05 -2.1319646012664807e-06
0.0006335140161668261 0.002183780909288229 0.0 0.0 4.421879059168251e-05 -1.9955038248901165e-06
0.0006305196680940107 0.0021691796873463294 0.0 0.0 -5.9717741531329326e-05 -1.867708815007842e-06
0.0006274291700057076 0.0021545529562160457 0.0 0.0 4.434171324350206e-05 -1.7480398219701682e-06
0.0006242486334345095 0.0021399023503604364 0.0 0.0 -5.960259767965405e-05 -1.6359885151820842e-06
0.0006209837874111609 0.002125229398662335 0.0 0.0 4.444955826260878e-05 -1.5310765769121386e-06
0.0006176400017390017 0.0021105355316104794 0.0 0.0 -5.9501599368371664e-05 -1.432854246163494e-06
0.0006142223089348769 0.002095822087902811 0.0 0.0 4.454413546611932e-05 -1.340898898539029e-06
0.0006107354249038534 0.002081090320536514 0.0 0.0 -5.941304287479499e-05 -1.2548136063851296e-06
0.0006071837684191624 0.0020663414024415707 0.0 0.0 4.462704771929617e-05 -1.1742257683701983e-06
0.0006035714794690234 0.00205157643170372 0.0 0.0 -5.933542106624344e-05 -1.0987857448616946e-06
0.0005999024365293888 0.0020367964364164347 0.0 0.0 4.469971142141086e-05 -1.028165566450284e-06
0.0005961802728211843 0.0020220023791996814 0.0 0.0 -5.926740341677194e-05 -9.620576743962599e-07
0.0005924083916044243 0.002007195161406895 0.0 0.0 4.4763375908878317e-05 -9.001737263638829e-07
0.0005885899805632257 0.0019923756270541514 0.0 0.0 -5.9207817294133335e-05 -8.422434503370683e-07
0.0005847280253283527 0.0019775445664911954 0.0 0.0 4.481914143229565e-05 -7.880135557140531e-07
0.0005808253221883489 0.0019627027198288456 0.0 0.0 -5.9155630673233064e-05 -7.372467037118787e-07
0.0005768844900306204 0.0019478507801495236 0.0 0.0 4.486797572804586e-05 -6.897205248199362e-07
0.0005729079815593015 0.0019329893965098948 0.0 0.0 -5.9109936356847425e-05 -6.452267013576287e-07
0.0005688980938268465 0.0019181191767510442 0.0 0.0 4.491072903265987e-05 -6.035700804589482e-07
0.0005648569781244984 0.0019032406901361202 0.0 0.0 -5.906993766859254e-05 -5.645678640595303e-07
0.0005607866492640628 0.0018883544698159067 0.0 0.0 4.4948147661535726e-05 -5.28048820492644e-07
0.0005566889942884943 0.0018734610151379394 0.0 0.0 -5.9034935619863016e-05 -4.938525625292653e-07
0.0005525657806441724 0.001858560793817883 0.0 0.0 4.4980886176326134e-05 -4.6182885272716976e-07
0.0005484186638510396 0.00184365424396769 0.0 0.0 -5.9004317399277684e-05 -4.3183696145024245e-07
0.0005442491946953282 0.0018287417759970666 0.0 0.0 4.500951817395832e-05 -4.037450555444979e-07
0.0005400588259766841 0.0018138237744028587 0.0 0.0 -5.897754617785803e-05 -3.7742962548359925e-07
0.0005358489188367998 0.0017989005994412748 0.0 0.0 4.503454597282002e-05 -3.5277495953806894e-07
0.0005316207486956665 0.001783972588694695 0.0 0.0 -5.8954152030041176e-05 -3.2967262631231715e-07
0.0005273755108209021 0.0017690400585452528 0.0 0.0 4.5056409094626254e-05 -3.0802101207919996e-07
0.0005231143255482058 0.0017541033055565166 0.0 0.0 -5.893372396282399e-05 -2.8772487244203794e-07
0.0005188382431818082 0.0017391626077663245 0.0 0.0 4.507549179029815e-05 -2.68694918466783e-07
0.0005145482485908132 0.0017242182258996686 0.0 0.0 -5.8915902824912473e-05 -2.508474283292026e-07
0.0005102452655192456 0.0017092704045106074 0.0 0.0 4.509212966928209e-05 -2.341038744486999e-07
0.0005059301606385911 0.0016943193730534177 0.0 0.0 -5.890037512152246e-05 -2.1839058282288343e-07
0.0005016037473412901 0.001679365346883086 0.0 0.0 4.510661543443209e-05 -2.0363841137508625e-07
0.0004972667893117321 0.0016644085282000543 0.0 0.0 -5.88868675976945e-05 -1.8978244151852605e-07
0.0004929200038749478 0.0016494491069386657 0.0 0.0 4.511920407858903e-05 -1.7676170066337855e-07
0.0004885640651471393 0.0016344872615964604 0.0 0.0 -5.887514247814073e-05 -1.645188909536223e-07
0.00048419960699318406 0.001619523160017724 0.0 0.0 4.513011723364076e-05 -1.5300012904382633e-07
0.000479827225810117 0.001604556960129896 0.0 0.0 -5.8864993286179704e-05 -1.42154728347498e-07
0.0004754474831498868 0.001589588810634764 0.0 0.0 4.513954708610778e-05 -1.3193495343401165e-07
0.00047106090818531204 0.0015746188516627924 0.0 0.0 -5.885624129453083e-05 -1.2229583682630543e-07
0.0004666680000341543 0.0015596472153896802 0.0 0.0 4.514765971970372e-05 -1.1319494583843367e-07
0.00046226922995491163 0.0015446740266170313 0.0 0.0 -5.884873233158374e-05 -1.0459223517573363e-07
0.0004578650434176998 0.001529699403316034 0.0 0.0 4.515459804668026e-05 -9.644984203910053e-08
0.0004534558620636475 0.0015147234571471326 0.0 0.0 -5.884233412167274e-05 -8.873192775319099e-08
0.00044904208555814144 0.00149974629395676 0.0 0.0 4.5160484295266685e-05 -8.140453139571452e-08
0.00044462409334970374 0.001484768014238477 0.0 0.0 -5.8836933934331716e-05 -7.443539964285296e-08
0.0004402022463356125 0.0014697887135740166 0.0 0.0 4.516542219004584e-05 -6.779386021933979e-08
0.0004357768884562404 0.0014548084830511205 0.0 0.0 -5.883243663227155e-05 -6.14506859965367e-08
0.00043134834820116735 0.001439827409664057 0.0 0.0 4.516949871000901e-05 -5.5377955902413765e-08
0.00042691694005737244 0.0014248455767049168 0.0 0.0 -5.882876296260588e-05 -4.9548949544741833e-08
0.0004224829658923654 0.0014098630641230575 0.0 0.0 4.517278570202602e-05 -4.39380032463371e-08
0.00041804671628269135 0.0013948799488732455 0.0 0.0 -5.882584820500231e-05 -3.8520433873570105e-08
0.000413608471793425 0.0013798963052650674 0.0 0.0 4.517534106745461e-05 -3.3272384086183854e-08
0.00040916850420956045 0.001364912205279582 0.0 0.0 -5.882364100199449e-05 -2.817076647269271e-08
0.0004047270777355727 0.0013499277188862117 0.0 0.0 4.5177209833273456e-05 -2.3193121522283033e-08
0.0004002844501541372 0.001334942914360067 0.0 0.0 -5.882210244697542e-05 -1.831753646637166e-08
0.0003958408739659585 0.0013199578585732996 0.0 0.0 4.5178424945575574e-05 -1.3522562835764293e-08
0.0003913965974939239 0.0013049726172904021 0.0 0.0 -5.882120545237031e-05 -8.787084856075843e-09
0.0003869518659825812 0.0012899872554595951 0.0 0.0 4.5179007779763496e-05 -4.090265381278581e-09
0.00038250692267282563 0.001275001837496064 0.0 0.0 -5.8820934194422675e-05 5.885775864085396e-10
0.00037806200987430073 0.0012600164275654018 0.0 0.0 4.5178968607050246e-05 5.270032311043525e-09
0.0003736173700307551 0.001245031089868293 0.0 0.0 -5.8821283935139856e-05 9.97471624058794e-09
0.0003691732467873546 0.0012300458889173821 0.0 0.0 4.5178306737799325e-05 1.472333673995527e-08
0.0003647298860604084 0.0012150608898279078 0.0 0.0 -5.882226084762631e-05 1.953680653479827e-08
0.0003602875371220795 0.0012000761586000322 0.0 0.0 4.5177010491078144e-05 2.4436312670778667e-08
0.0003558464536956137 0.001185091762397007 0.0 0.0 -5.882388214675555e-05 2.9443438741261728e-08
0.00035140689506784034 0.00117010776985246 0.0 0.0 4.517505700521885e-05 3.458023285025837e-08
0.0003469691272343786 0.0011551242513670678 0.0 0.0 -5.8826176445614733e-05 3.986932579767193e-08
0.0003425334240637148 0.001140141279414585 0.0 0.0 4.517241182293828e-05 4.5334013192596494e-08
0.00033810006850193067 0.0011251589288583594 0.0 0.0 -5.8829184151981684e-05 5.099837634353968e-08
0.00033366935381469486 0.0011101772772750254 0.0 0.0 4.516902831255571e-05 5.688737903062225e-08
0.0003292415848725764 0.0010951964052935963 0.0 0.0 -5.8832958334869775e-05 6.302697659469388e-08
0.0003248170794898897 0.001080216396939033 0.0 0.0 4.5164846867496366e-05 6.944424505047047e-08
0.0003203961698129219 0.0010652373399956127 0.0 0.0 -5.883756548352606e-05 7.616748271520053e-08
0.0003159792037741109 0.0010502593263890668 0.0 0.0 4.515979379515907e-05 8.322635668085504e-08
0.00031156654661074814 0.001035282452579685 0.0 0.0 -5.884308671930041e-05 9.065201851373231e-08
0.00030715858245952633 0.001020306819963364 0.0 0.0 4.515378012397587e-05 9.847726073638173e-08
0.0003027557160282225 0.0010053325352968418 0.0 0.0 -5.884961929150613e-05 1.0673664313216955e-07
0.0002983583743505891 0.000990359711152366 0.0 0.0 4.514669999886533e-05 1.154666828583951e-07
0.0002939670086371314 0.0009753884663838764 0.0 0.0 -5.885727809349544e-05 1.247059742532329e-07
0.00028958209622070093 0.0009604189266140368 0.0 0.0 4.513842893319768e-05 1.3449541681591088e-07
0.0002852041426096369 0.0009454512247440508 0.0 0.0 -5.8866197682877746e-05 1.448783557818703e-07
0.00028083368365233404 0.0009304855014841021 0.0 0.0 4.512882174128067e-05 1.5590081777849905e-07
0.0002764712878153331 0.0009155219059044282 0.0 0.0 -5.887653451632977e-05 1.676116936245994e-07
0.00027211755859585734 0.0009005605960127525 0.0 0.0 4.51177101072188e-05 1.800630033371546e-07
0.00026777313704732885 0.0008856017393549648 0.0 0.0 -5.888846945205665e-05 1.9331009102078935e-07
0.00026343870445558713 0.0008706455136251324 0.0 0.0 4.510489992638582e-05 2.0741193475541046e-07
0.00025911498514640235 0.0008556921072910823 0.0 0.0 -5.890221055886418e-05 2.2243137811316094e-07
0.00025480274943564477 0.0008407417202499307 0.0 0.0 4.509016835063228e-05 2.3843549694173814e-07
0.0002505028167253217 0.0008257945644894427 0.0 0.0 -5.8917996228053954e-05 2.5549584265188025e-07
0.00024621605873990075 0.0008108508647247233 0.0 0.0 4.5073260677183907e-05 2.736888505959923e-07
0.0002419434029094917 0.0007959108590535928 0.0 0.0 -5.893609836862693e-05 2.930961969559512e-07
0.00023768583587805662 0.0007809747996052536 0.0 0.0 4.505388692630755e-05 3.138052028268815e-07
0.00023344440714399904 0.000766042953133804 0.0 0.0 -5.895682581461676e-05 3.359092541370054e-07
0.00022922023279854143 0.0007511156015677946 0.0 0.0 4.503171870833575e-05 3.595083002334073e-07
0.00022501449935313713 0.0007361930425042507 0.0 0.0 -5.898052728987727e-05 3.847093647744689e-07
0.00022082846761742146 0.0007212755895956186 0.0 0.0 4.50063861968913e-05 4.1162708350000153e-07
0.00021666347657863747 0.0007063635727994943 0.0 0.0 -5.9007594058329465e-05 4.403842879922588e-07
0.00021252094723847186 0.0006914573384605911 0.0 0.0 4.497747641320606e-05 4.711126821462094e-07
0.0002084023863236965 0.0006765572491734309 0.0 0.0 -5.903846107051551e-05 5.039535287313475e-07
0.00020430938977815331 0.000661663683344441 0.0 0.0 4.494453267914677e-05 5.390583992265652e-07
0.0002002436459112384 0.0006467770343692102 0.0 0.0 -5.907360595200665e-05 5.76589982511375e-07
0.00019620693805732378 0.000631897709359501 0.0 0.0 4.490705766473004e-05 6.167229884045458e-07
0.00019220114654233314 0.0006170261272738345 0.0 0.0 -5.911354390820251e-05 6.596450502104794e-07
0.00018822824972429642 0.0006021627163074846 0.0 0.0 4.486452108468401e-05 7.05557768405831e-07
0.00018429032379428418 0.0005873079103739057 0.0 0.0 -5.915881624887461e-05 7.546777441945875e-07
0.00018038954097704296 0.0005724621444540545 0.0 0.0 4.481637604055659e-05 8.072377494330093e-07
0.00017652816564547608 0.0005576258485391104 0.0 0.0 -5.9209968351680046e-05 8.634878636584698e-07
0.00017270854778084655 0.0005427994398701417 0.0 0.0 4.476208815243875e-05 9.236967254957693e-07
0.0001689331130734596 0.0005279833130654688 0.0 0.0 -5.926751128168192e-05 9.88152710867116e-07
0.00016520434877632928 0.0005131778276326098 0.0 0.0 4.470118531630361e-05 1.0571651735062203e-06
0.00016152478423099248 0.0004983832923669704 0.0 0.0 -5.933185808963378e-05 1.1310654579160242e-06
0.0001578969647522118 0.00048359994590296915 0.0 0.0 4.4633339019265654e-05 1.2102080079147903e-06
0.00015432341724816106 0.0004688279325582937 0.0 0.0 -5.940322077010508e-05 1.2949706277096e-06
0.00015080660560210874 0.0004540672725155009 0.0 0.0 4.455849384399639e-05 1.3857553559552078e-06
0.0001473488733819115 0.00043931782518183546 0.0 0.0 -5.948144767428773e-05 1.4829865703218804e-06
0.00014395237101553192 0.00042457924415407203 0.0 0.0 4.44770706115997e-05 1.5871120343328169e-06
0.00014061896375367833 0.00040985092240823813 0.0 0.0 -5.956577030551851e-05 1.6985947047793012e-06
0.00013735011633832852 0.0003951319253901485 0.0 0.0 4.439028060549029e-05 1.817917322027244e-06
0.0001341467489156345 0.00038042091045896047 0.0 0.0 -5.965441276183439e-05 1.9455552009381167e-06
0.00013100905865321506 0.0003657160290354278 0.0 0.0 4.430060692118946e-05 2.081999926486903e-06
0.00012793629873812694 0.0003510148114062257 0.0 0.0 -5.9743993384159776e-05 2.2276711516062324e-06
0.00012492650851768825 0.00033631402694221353 0.0 0.0 4.421253551001574e-05 2.383023608033721e-06
0.00012197618123061664 0.00032160952714421027 0.0 0.0 -5.982861165260839e-05 2.5482520886308977e-06
0.0001190798667141036 0.0003068960532270931 0.0 0.0 4.413365166130003e-05 2.72373119075697e-06
0.00011622968351942665 0.00029216704445350877 0.0 0.0 -5.9898457054868414e-05 2.9089941082819466e-06
0.00011341475928451954 0.0002774143887302723 0.0 0.0 4.407624330671407e-05 3.1044483368324787e-06
0.00011062053799604742 0.000262628256700273 0.0 0.0 -5.9937689210651365e-05 3.307747585851433e-06
0.00010782806045908708 0.00024779680739662145 0.0 0.0 4.4059501145361476e-05 3.520306522871125e-06
0.0001050130310587175 0.00023290628125458192 0.0 0.0 -5.992119935002119e-05 3.73419827351504e-06
0.00010214510082570725 0.00021794067780860337 0.0 0.0 4.411199188125302e-05 3.956540891830946e-06
9.918670696879753e-05 0.00020288286522649252 0.0 0.0 -5.980960173057885e-05 4.161730979474138e-06
9.609305869895725e-05 0.00018771404810459722 0.0 0.0 4.427229019588548e-05 4.382047561928286e-06
9.281078554589179e-05 0.00017241818014582204 0.0 0.0 -5.9541061249315276e-05 4.532607548153513e-06
8.928094505491198e-05 0.0001569795423115403 0.0 0.0 4.457901076091353e-05 4.746629321481779e-06
8.543680986422604e-05 0.0001413970433781032 0.0 0.0 -5.901505962700054e-05 4.73212693469509e-06
8.121664671273195e-05 0.0001256699985804591 0.0 0.0 4.50190154460961e-05 5.009283359926173e-06
7.655396313371366e-05 0.00010984148631819297 0.0 0.0 -5.804012939969439e-05 4.542802189343013e-06
7.141806696305001e-05 9.392187041887196e-05 0.0 0.0 4.533170972680794e-05 5.2949207968866355e-06
6.575251871240319e-05 7.804149267052254e-05 0.0 0.0 -5.6030460889952604e-05 3.5197137783533764e-06
5.960860469902454e-05 6.205028151329326e-05 0.0 0.0 4.4230646468457245e-05 6.375604451987356e-06
5.276669637556422e-05 4.6570490622550355e-05 0.0 0.0 -4.9577317407321e-05 3.219968079289093e-07
4.577631539427854e-05 3.087221327064262e-05 0.0 0.0 3.2444097530943137e-05 9.259913476056258e-06
3.882831512913967e-05 1.714181798750133e-05 0.0 0.0 -2.4684033672257117e-05 -9.32398658345815e-06
3.922849920710886e-05 1.1733922391401976e-05 0.0 0.0 -0.020627607490138304 -5.990171465130174e-05
5.293955920339377e-22 0.003012498146908198 0.0 0.0 -0.0016624124658890056 1.1011428314305904e-20
1.6138771386148537e-05 0.0029671037507218085 0.0 0.0 -2.6177080876775793e-05 4.63974821821486e-05
3.253449641127313e-05 0.0028838298872579144 0.0 0.0 -0.00012538866652902345 4.869361626302216e-05
5.784100807489888e-05 0.0028176373030975896 0.0 0.0 -1.5900350967307957e-05 4.394781635512906e-05
9.018374189449229e-05 0.0027689402881312893 0.0 0.0 -0.00011441105035094568 3.668978910303178e-05
0.00012720897185021998 0.0027345149740613333 0.0 0.0 -5.154321329168892e-06 2.811244246920856e-05
0.0001664318701993024 0.002711078850637261 0.0 0.0 -0.00010405925657584252 1.9548292512572964e-05
0.0002058565043285233 0.0026954264651500408 0.0 0.0 4.664461287183616e-06 1.1820827463961034e-05
0.00024413200009872635 0.002684874144536974 0.0 0.0 -9.510823192137829e-05 5.278199583046683e-06
0.0002804592568285012 0.002677408255507551 0.0 0.0 1.2588488045542492e-05 -2.627252535949035e-08
0.00031443737216329143 0.0026716227375845813 0.0 0.0 -8.821469931432122e-05 -4.189027283047739e-06
0.0003459253853450875 0.002666586288854012 0.0 0.0 1.8541559443133486e-05 -7.364561108399096e-06
0.0003749394138109871 0.002661709228580388 0.0 0.0 -8.307622963058228e-05 -9.71799143654422e-06
0.000401582976292182 0.0026566355016961547 0.0 0.0 2.2994533252558352e-05 -1.1402561051389914e-05
0.00042600258246354374 0.0026511631711059907 0.0 0.0 -7.91917774833603e-05 -1.255149381607219e-05
0.0004483607958486068 0.002645188997143197 0.0 0.0 2.6410068383810238e-05 -1.327646435967191e-05
0.00046882073403423075 0.0026386711147595447 0.0 0.0 -7.616320135784391e-05 -1.3669207525235475e-05
0.00048753777058442344 0.002631604513721495 0.0 0.0 2.9117839606908357e-05 -1.3804143465714466e-05
0.0005046556215377257 0.0026240052606242297 0.0 0.0 -7.372338580915504e-05 -1.374119840112954e-05
0.0005203050048823451 0.00261590055343286 0.0 0.0 3.133172843984382e-05 -1.3528381899613445e-05
0.0005346037372133886 0.002607322601180792 0.0 0.0 -7.170201626775846e-05 -1.3204015240757364e-05
0.0005476575719619154 0.002598304975138218 0.0 0.0 3.3187201609508255e-05 -1.2798583814515047e-05
0.0005595613643529441 0.0025888805325477507 0.0 0.0 -6.999111559374379e-05 -1.2336255401061382e-05
0.0005704003243844526 0.002579080323103214 0.0 0.0 3.477073233658807e-05 -1.183611043980235e-05
0.0005802512278214804 0.0025689330953470434 0.0 0.0 -6.852095159716905e-05 -1.1313136192606555e-05
0.0005891835209994907 0.002558465157394369 0.0 0.0 3.613904934073194e-05 -1.0779028224409063e-05
0.0005972602940189788 0.002547700436629657 0.0 0.0 -6.724489263947973e-05 -1.024283701023452e-05
0.0006045391188837628 0.002536660641886821 0.0 0.0 3.733093349295928e-05 -9.711489810246652e-06
0.0006110727607858957 0.002525365469674053 0.0 0.0 -6.613027967303735e-05 -9.190212404559231e-06
0.0006169097761757074 0.002513832820331449 0.0 0.0 3.837424898995884e-05 -8.682870146060724e-06
0.0006220950130632709 0.00250207900533747 0.0 0.0 -6.515302676302493e-05 -8.19224396164279e-06
0.0006266700287822867 0.002490118936441182 0.0 0.0 3.929008152358648e-05 -7.720253726670466e-06
0.0006306734391918775 0.0024779662929816674 0.0 0.0 -6.429445319905159e-05 -7.268139021300411e-06
0.0006341412115881601 0.0024656336670261987 0.0 0.0 4.009516247553371e-05 -6.836605274428628e-06
0.0006371069117818681 0.0024531326877122715 0.0 0.0 -6.353942765424043e-05 -6.425941798017076e-06
0.0006396019140662581 0.002440474127009013 0.0 0.0 4.08032914953062e-05 -6.036116939794593e-06
0.0006416555812337249 0.00242766798938546 0.0 0.0 -6.28752751935858e-05 -5.666854637857889e-06
0.000643295420442251 0.0024147235878388567 0.0 0.0 4.142617921891353e-05 -5.31769582538981e-06
0.0006445472195856334 0.0024016496085321752 0.0 0.0 -6.229112427450821e-05 -4.9880475318171734e-06
0.0006454351678709086 0.002388454166023821 0.0 0.0 4.197395668399277e-05 -4.677221974062432e-06
0.0006459819635313324 0.0023751448507775955 0.0 0.0 -6.177750588788185e-05 -4.384467537322921e-06
0.0006462089109769976 0.0023617287703621326 0.0 0.0 4.245549418420311e-05 -4.108993164068464e-06
0.0006461360091898348 0.002348212585505084 0.0 0.0 -6.132609660833803e-05 -3.849987435620625e-06
0.0006457820327733151 0.0023346025419438967 0.0 0.0 4.287861144675238e-05 -3.606633348638894e-06
0.0006451646067596754 0.002320904498830689 0.0 0.0 -6.092954378697632e-05 -3.378119634452905e-06
0.0006443002760386417 0.002307123954295305 0.0 0.0 4.3250225644721435e-05 -3.1636493061879825e-06
0.0006432045700825745 0.0022932660686485304 0.0 0.0 -6.058133797234592e-05 -2.962445980777905e-06
0.0006418920635037057 0.0022793356856036667 0.0 0.0 4.357646331608442e-05 -2.773758433032952e-06
0.0006403764328673232 0.0022653373518170886 0.0 0.0 -6.027571307742587e-05 -2.5968637445821787e-06
0.000638670510103179 0.002251275334982848 0.0 0.0 4.3862750693632454e-05 -2.4310693518715264e-06
0.0006367863327927512 0.0022371536406671083 0.0 0.0 -6.000756362825767e-05 -2.2757142159299563e-06
0.0006347351915646204 0.002222976028030671 0.0 0.0 4.411389032362909e-05 -2.130169330639254e-06
0.0006325276747923349 0.002208746024554747 0.0 0.0 -5.977237324327725e-05 -1.993837704122208e-06
0.0006301737107633179 0.0021944669398718144 0.0 0.0 4.433412825769411e-05 -1.8661539564844684e-06
0.0006276826074656221 0.002180141878772851 0.0 0.0 -5.9566151222707905e-05 -1.7465836101856298e-06
0.000625063090128356 0.002165773753452152 0.0 0.0 4.452721406360456e-05 -1.634622184715429e-06
0.0006223233366313018 0.002151365295050986 0.0 0.0 -5.938537559311289e-05 -1.5297941221758464e-06
0.0006194710108997204 0.002136919064541623 0.0 0.0 4.4696454962711324e-05 -1.4316516332816295e-06
0.0006165132943859302 0.002122437462991423 0.0 0.0 -5.922694166982399e-05 -1.3397734539628728e-06
0.0006134569157356803 0.002107922741246942 0.0 0.0 4.484476472982731e-05 -1.2537636034630907e-06
0.0006103081787356307 0.0020933770090647494 0.0 0.0 -5.9088115544344275e-05 -1.1732501011769481e-06
0.0006070729886264592 0.0020788022437198384 0.0 0.0 4.4974707898438144e-05 -1.0978837272498053e-06
0.0006037568768703773 0.002064200298126167 0.0 0.0 -5.896649211825427e-05 -1.0273367659489104e-06
0.0006003650244520408 0.002049572908481205 0.0 0.0 4.508853955789325e-05 -9.613018268391361e-07
0.000596902283792806 0.002034921701470633 0.0 0.0 -5.885995737255192e-05 -8.994906672063615e-07
0.0005933731993528858 0.0020202482010564207 0.0 0.0 4.518824111461985e-05 -8.416330851551148e-07
0.0005897820269897369 0.0020055538348603117 0.0 0.0 -5.876665452045533e-05 -7.874758474024743e-07
0.0005861327521498621 0.00199083994017282 0.0 0.0 4.5275552291111285e-05 -7.367816655708809e-07
0.0005824291069489836 0.0019761077696057675 0.0 0.0 -5.8684953782568695e-05 -6.893282393357833e-07
0.0005786745862122733 0.001961358496404346 0.0 0.0 4.53519996490479e-05 -6.449073205956385e-07
0.0005748724625291624 0.001946593219441308 0.0 0.0 -5.861342545459479e-05 -6.033238604805416e-07
0.0005710258003830119 0.0019318129679124977 0.0 0.0 4.541892198590058e-05 -5.643951697541141e-07
0.0005671374694072041 0.0019170187057443075 0.0 0.0 -5.855081603774561e-05 -5.279501584567461e-07
0.0005632101568212185 0.0019022113357325516 0.0 0.0 4.5477492816006684e-05 -4.938285963048067e-07
0.0005592463790965995 0.0018873917034309172 0.0 0.0 -5.8496027025115114e-05 -4.618804269207618e-07
0.0005552484928950538 0.0018725606007982845 0.0 0.0 4.5528740297018215e-05 -4.319651196946488e-07
0.0005512187053270395 0.0018577187696223727 0.0 0.0 -5.844809622956149e-05 -4.039510652382311e-07
0.0005471590835720531 0.0018428669047361548 0.0 0.0 4.5573564777040706e-05 -3.777149983718426e-07
0.0005430715638948324 0.001828005657029748 0.0 0.0 -5.840618127265693e-05 -3.531414640388624e-07
0.0005389579601029849 0.0018131356362790108 0.0 0.0 4.561275428892743e-05 -3.3012231811970893e-07
0.0005348199714740153 0.0017982574137994614 0.0 0.0 -5.8369545059461984e-05 -3.085562406135987e-07
0.000530659190187631 0.001783371524936352 0.0 0.0 4.564699815849378e-05 -2.8834831344431164e-07
0.0005264771082954909 0.001768478471400665 0.0 0.0 -5.833754303175877e-05 -2.694095854977952e-07
0.0005222751242560029 0.0017535787234556695 0.0 0.0 4.5676898995948676e-05 -2.516566921944327e-07
0.0005180545490631759 0.0017386727219734287 0.0 0.0 -5.830961194183031e-05 -2.350114920202399e-07
0.0005138166119936068 0.0017237608803634123 0.0 0.0 4.5702983133561544e-05 -2.1940070623683357e-07
0.0005095624659996462 0.0017088435863834624 0.0 0.0 -5.82852600636446e-05 -2.047556268342291e-07
0.0005052931927677413 0.0016939212038349792 0.0 0.0 4.5725709847886024e-05 -1.910117810459454e-07
0.000501009807467125 0.0016789940741557326 0.0 0.0 -5.826405856579765e-05 -1.7810867163666876e-07
0.0004967132632078047 0.0016640625179209295 0.0 0.0 4.574547936670337e-05 -1.6598950119479016e-07
0.0004924044552246031 0.0016491268362489357 0.0 0.0 -5.824563404534678e-05 -1.5460092172133117e-07
0.0004880842248134016 0.0016341873121209641 0.0 0.0 4.5762639927341016e-05 -1.4389280328125798e-07
0.00048375336302514983 0.0016192442116203488 0.0 0.0 -5.8229661949734854e-05 -1.3381801033539222e-07
0.000479412614144091 0.0016042977851062025 0.0 0.0 4.577749381836076e-05 -1.2433219787749694e-07
0.00047506267895936746 0.0015893482683091537 0.0 0.0 -5.8215860906489026e-05 -1.1539361381896927e-07
0.0004707042178449886 0.0015743958833661024 0.0 0.0 4.57903027358637e-05 -1.0696290797285483e-07
0.00046633785366535064 0.001559440839801545 0.0 0.0 -5.8203987757289425e-05 -9.900297947310023e-08
0.0004619641745127332 0.0015444833354436777 0.0 0.0 4.580129235439909e-05 -9.147878644437954e-08
0.0004575837362932206 0.0015295235572958393 0.0 0.0 -5.819383331122927e-05 -8.435721461023515e-08
0.00045319706517359397 0.0015145616823600667 0.0 0.0 4.581065631278458e-05 -7.760692079483668e-08
0.0004488046598956245 0.001499597878410177 0.0 0.0 -5.818521865036885e-05 -7.119818550710161e-08
0.0004444069939688369 0.0014846323047362816 0.0 0.0 4.581855960449424e-05 -6.510280823452102e-08
0.00044000451775193797 0.0014696651128443174 0.0 0.0 -5.817799195424907e-05 -5.929395837289599e-08
0.00043559766044018423 0.0014546964471150632 0.0 0.0 4.582514151124238e-05 -5.3746071036894164e-08
0.00043118683194866644 0.0014397264454439564 0.0 0.0 -5.817202589029761e-05 -4.843472730807659e-08
0.00042677242471663807 0.0014247552398506304 0.0 0.0 4.583051800306976e-05 -4.333654824388968e-08
0.00042235481543641934 0.0014097829570568969 0.0 0.0 -5.816721533003454e-05 -3.8429101031835656e-08
0.0004179343667085501 0.0013948097190447017 0.0 0.0 4.5834783817977234e-05 -3.369077757032178e-08
0.0004135114286389245 0.0013798356435952123 0.0 0.0 -5.8163475492456246e-05 -2.9100732853884568e-08
0.00040908634037888737 0.0013648608448027922 0.0 0.0 4.583801413767766e-05 -2.463875468645786e-08
0.0004046594316174568 0.001349885433577187 0.0 0.0 -5.816074047751516e-05 -2.0285205688265993e-08
0.0004002310240334586 0.0013349095181351607 0.0 0.0 4.584026588112409e-05 -1.6020931171002555e-08
0.0003958014327104422 0.0013199332044756477 0.0 0.0 -5.815896210495993e-05 -1.1827151813524703e-08
0.00039137096752155467 0.0013049565968441966 0.0 0.0 4.5841578736699105e-05 -7.685416679090434e-09
0.00038693993449613297 0.0012899797981929747 0.0 0.0 -5.815810900667803e-05 -3.5774831349264305e-09
0.00038250863716507194 0.001275002910631792 0.0 0.0 4.584197581140772e-05 5.147187819736811e-10
0.0003780773778963623 0.0012600260358805945 0.0 0.0 -5.815816617434891e-05 4.6092148619971546e-09
0.00037364645922681374 0.001245049275715074 0.0 0.0 4.584146411668445e-05 8.724025390332082e-09
0.00036921618519236774 0.0012300727324209549 0.0 0.0 -5.8159134629940995e-05 1.2877271335896574e-08
0.00036478686266732313 0.0012150965092327178 0.0 0.0 4.584003463798986e-05 1.7087243303019056e-08
0.0003603588027109766 0.0012001207107892836 0.0 0.0 -5.816103142686777e-05 2.137247226354118e-08
0.0003559323219440181 0.0011851454436046208 0.0 0.0 4.5837662169628444e-05 2.575184167242974e-08
0.00035150774393193996 0.0011701708165257848 0.0 0.0 -5.8163890019725635e-05 3.024463629590574e-08
0.0003470854006147593 0.0011551969412139222 0.0 0.0 4.583430489993345e-05 3.487065883321736e-08
0.00034266563376561884 0.001140223932636646 0.0 0.0 -5.816776076812821e-05 3.9650289510137667e-08
0.00033824879649182023 0.0011252519095686071 0.0 0.0 4.582990363785947e-05 4.460459676679067e-08
0.00033383525478794627 0.001110280995119631 0.0 0.0 -5.817271188499106e-05 4.975542995178713e-08
0.0003294253891459112 0.0010953113172668017 0.0 0.0 4.582438086816868e-05 5.512550722353623e-08
0.0003250195962228146 0.0010803430094212185 0.0 0.0 -5.817883061222731e-05 6.07385167184513e-08
0.00032061829058302986 0.0010653762110107968 0.0 0.0 4.5817639296116017e-05 6.661925284237287e-08
0.0003162219065223113 0.0010504110680833792 0.0 0.0 -5.818622471928485e-05 7.279367425776662e-08
0.00031183089996521403 0.0010354477339558556 0.0 0.0 4.5809560161930466e-05 7.928907734089212e-08
0.0003074457504652907 0.0010204863698684754 0.0 0.0 -5.819502441437572e-05 8.61341762336534e-08
0.0003030669633030772 0.0010055271456915012 0.0 0.0 4.580000125051285e-05 9.335927661681268e-08
0.0002986950716941699 0.0009905702406640886 0.0 0.0 -5.820538459551741e-05 1.0099637656009117e-07
0.000294330639119228 0.0009756158441622752 0.0 0.0 4.5788794317390673e-05 1.0907934680433632e-07
0.0002899742617717478 0.0009606641565191591 0.0 0.0 -5.8217487499526155e-05 1.1764405824011594e-07
0.00028562657115409866 0.0009457153898832708 0.0 0.0 4.577574233216239e-05 1.2672858476807033e-07
0.0002812882368162142 0.0009307697691196084 0.0 0.0 -5.823154582796286e-05 1.3637336144861015e-07
0.00027695996924656394 0.0009158275327665931 0.0 0.0 4.576061602310118e-05 1.4662139203854094e-07
0.0002726425229380978 0.0009008889340382045 0.0 0.0 -5.82478063832167e-05 1.5751844937303763e-07
0.00026833669961785685 0.000885954241884038 0.0 0.0 4.574315009682841e-05 1.691133183225578e-07
0.00026404335167943833 0.000871023742097875 0.0 0.0 -5.8266554064450964e-05 1.8145801973978772e-07
0.00025976338579451026 0.0008560977384806925 0.0 0.0 4.572303881410374e-05 1.9460809357301889e-07
0.00025549776674401673 0.00084117655407494 0.0 0.0 -5.82881166219264e-05 2.0862288323774108e-07
0.00025124752144952686 0.0008262605324426211 0.0 0.0 4.569993117048833e-05 2.2356584560099396e-07
0.00024701374323661356 0.0008113500390023888 0.0 0.0 -5.8312869706847155e-05 2.3950489010343516e-07
0.00024279759631579562 0.0007964454624285372 0.0 0.0 4.567342542474966e-05 2.565127821210376e-07
0.00023860032050428517 0.0007815472160794011 0.0 0.0 -5.83412425941988e-05 2.746675212848609e-07
0.0002344232361667806 0.0007666557394829729 0.0 0.0 4.564306327991185e-05 2.9405281478126974e-07
0.00023026774939958068 0.0007517714998659289 0.0 0.0 -5.8373724256162874e-05 3.1475857485013543e-07
0.00022613535742167575 0.0007368949936894673 0.0 0.0 4.560832357498163e-05 3.368814790055425e-07
0.00022202765418528466 0.000722026748197855 0.0 0.0 -5.8410869502642905e-05 3.6052557547293015e-07
0.00021794633617026998 0.0007071673229360338 0.0 0.0 4.556861606215242e-05 3.858029941429574e-07
0.00021389320833096142 0.0006923173112437833 0.0 0.0 -5.845330548984195e-05 4.128346641510362e-07
0.00020987019015707587 0.0006774773416569691 0.0 0.0 4.552327548794344e-05 4.417512269365648e-07
0.00020587932178860633 0.0006626480791680823 0.0 0.0 -5.850173691594068e-05 4.726939443828104e-07
0.00020192277009972552 0.0006478302263100469 0.0 0.0 4.5471556602701265e-05 5.058158187167634e-07
0.0001980028346583293 0.000633024523952532 0.0 0.0 -5.85569502493707e-05 5.412827620276126e-07
0.00019412195341163938 0.0006182317517383911 0.0 0.0 4.5412631472614966e-05 5.792750200145835e-07
0.00019028270793275425 0.0006034527280201264 0.0 0.0 -5.86198145933576e-05 6.199886595804069e-07
0.00018648782800797503 0.0005886883091570301 0.0 0.0 4.5345590797620915e-05 6.636373624380318e-07
0.0001827401952671629 0.0005739393879615872 0.0 0.0 -5.8691277479975016e-05 7.104543851211209e-07
0.00017904284551940964 0.0005592068910408788 0.0 0.0 4.526945215853665e-05 7.606947966694571e-07
0.00017539896931933907 0.0005444917747582511 0.0 0.0 -5.877235148548038e-05 8.146380268615099e-07
0.00017181191021487565 0.0005297950193866788 0.0 0.0 4.5183179436180396e-05 8.725907063863265e-07
0.00016828515993493694 0.0005151176209909796 0.0 0.0 -5.886408688308498e-05 9.348899315134249e-07
0.0001648223496419731 0.0005004605804570996 0.0 0.0 4.5085720751590836e-05 1.0019069208855444e-06
0.000161427236088199 0.0004858248888488673 0.0 0.0 -5.896752081472321e-05 1.0740509159014831e-06
0.00015810368127662112 0.00047121150815426045 0.0 0.0 4.497607526613486e-05 1.1517741138505119e-06
0.0001548556238125719 0.0004566213462467104 0.0 0.0 -5.9083589882499106e-05 1.235575872747855e-06
0.00015168703972379596 0.0004420552245130721 0.0 0.0 4.485340639719289e-05 1.3260095888174318e-06
0.00014860188986067638 0.0004275138362586401 0.0 0.0 -5.92129845832577e-05 1.4236857180264855e-06
0.00014560405036378348 0.0004129976934983986 0.0 0.0 4.471722861762884e-05 1.529283141851333e-06
0.00014269722159986116 0.0003985070591310684 0.0 0.0 -5.935591036185868e-05 1.6435448438973863e-06
0.00013988480990313385 0.000384041860764019 0.0 0.0 4.456771262917694e-05 1.767303286234409e-06
0.0001371697748398555 0.0003696015814958505 0.0 0.0 -5.951169787925302e-05 1.9014467176430277e-06
0.00013455443285996358 0.00035518512194150685 0.0 0.0 4.4406183655164517e-05 2.0469944453759947e-06
0.00013204020568961206 0.00034079062640386324 0.0 0.0 -5.967816508225697e-05 2.204954805174928e-06
0.00012962729892282635 0.0003264152648798792 0.0 0.0 4.423594058797285e-05 2.3765865314239127e-06
0.0001273142923618364 0.00031205496086026866 0.0 0.0 -5.985056335736983e-05 2.562862809670722e-06
0.00012509761946884432 0.0002977040543516982 0.0 0.0 4.4063617996686595e-05 2.765430239612225e-06
0.00012297090772424638 0.00028335488838264445 0.0 0.0 -6.0019816287207014e-05 2.984641798173238e-06
0.00012092414715721005 0.00026899731086201407 0.0 0.0 4.390147679886325e-05 3.2231207415218217e-06
0.00011894264789097155 0.00025461808628277614 0.0 0.0 -6.01695508890103e-05 3.4785750616729864e-06
0.00011700574890379096 0.00024020023265049168 0.0 0.0 4.377127700928656e-05 3.7570505311879153e-06
0.00011508523898578898 0.00022572231548875755 0.0 0.0 -6.0271119441139684e-05 4.0466511809744395e-06
0.00011314348431949605 0.00021115781257455347 0.0 0.0 4.371071844785847e-05 4.366722506693476e-06
0.00011113128623985715 0.00019647472285539295 0.0 0.0 -6.027561183401904e-05 4.671547565831581e-06
0.00010898565619186716 0.0001816358646663256 0.0 0.0 4.378333811054817e-05 5.032515260373297e-06
0.00010662783079182883 0.000166600482188213 0.0 0.0 -6.0103055275790825e-05 5.284651935895065e-06
0.00010396249277115575 0.00015132843338534153 0.0 0.0 4.408924354321183e-05 5.700471075837277e-06
0.00010087941924215481 0.00013578885319650807 0.0 0.0 -5.96374726842062e-05 5.691327213921266e-06
9.726132126610916e-05 0.00011997350698386361 0.0 0.0 4.4751476007686385e-05 6.298182586835801e-06
9.299820877284335e-05 0.00010392444312483 0.0 0.0 -5.876272735761876e-05 5.416674463569254e-06
8.802535394237816e-05 8.772047629834555e-05 0.0 0.0 4.5726425493747714e-05 6.998833009093592e-06
8.231965417116916e-05 7.1598820683902e-05 0.0 0.0 -5.721407619573796e-05 3.462155835351e-06
7.604732989553583e-05 5.517116010590342e-05 0.0 0.0 4.542745602194439e-05 9.604995040285382e-06
6.858201457051742e-05 4.028971227552976e-05 0.0 0.0 -4.558240833274106e-05 -3.015287910487752e-06
6.137796782598531e-05 2.914569863970395e-05 0.0 0.0 2.4547179533548165e-05 7.993503402522984e-06
6.300157147632389e-05 2.444647576537511e-05 0.0 0.0 0.020680955469698108 -9.80423718203736e-05
-9.529120656610879e-22 0.0030963933394049688 0.0 0.0 -0.0015920886050321459 -4.362219678359647e-20
9.74884674765487e-06 0.003051624028999886 0.0 0.0 -0.00012278988252338653 3.120706850433822e-05
2.084056455645591e-05 0.0029677878929225644 0.0 0.0 -1.554841615862703e-05 3.360013335114114e-05
3.810255786862594e-05 0.002896341827496311 0.0 0.0 -0.00011594727165745282 3.191589009591013e-05
6.112894841880691e-05 0.0028378890528644434 0.0 0.0 -8.074421745394173e-06 2.8240092078434603e-05
8.867215325996086e-05 0.0027911792547580714 0.0 0.0 -0.000108176265699055 2.3466417034551507e-05
0.00011938705302511535 0.0027544176054335972 0.0 0.0 -3.988520292875152e-07 1.815597366611437e-05
0.00015194853437728087 0.002725749168184895 0.0 0.0 -0.0001007555534631554 1.2838454902810368e-05
0.00018520964821170635 0.0027033932192208334 0.0 0.0 6.696107615487612e-06 7.895948890343946e-06
0.00021827947335416824 0.002685776113574556 0.0 0.0 -9.409146828321624e-05 3.545182008089075e-06
0.00025052275382857507 0.002671600165102361 0.0 0.0 1.28541683645999e-05 -1.279785850611668e-07
0.0002815204425434179 0.002659847454896959 0.0 0.0 -8.847128634898496e-05 -3.124545857164278e-06
0.00031101944482017326 0.002649747175070263 0.0 0.0 1.7943656321201923e-05 -5.494483495194163e-06
0.0003388861446926726 0.00264072978122166 0.0 0.0 -8.388037116955144e-05 -7.31095219117657e-06
0.0003650689044867968 0.0026323816212413215 0.0 0.0 2.2080863590503177e-05 -8.65401292334475e-06
0.0003895700468830331 0.0026244059661880755 0.0 0.0 -8.01480749704277e-05 -9.601579956800688e-06
0.00041242593667693606 0.002616591995205533 0.0 0.0 2.545581168474854e-05 -1.0224789071048687e-05
0.00043369332260911225 0.00260879120318999 0.0 0.0 -7.708685216568359e-05 -1.0586146791747631e-05
0.0004534402393350733 0.0026008999584886602 0.0 0.0 2.824193232779548e-05 -1.0739184562418256e-05
0.0004717401038979561 0.0025928468362156052 0.0 0.0 -7.454236370820772e-05 -1.0728933717456824e-05
0.0004886679858410658 0.0025845835195072923 0.0 0.0 3.0573441638641964e-05 -1.0592764724681013e-05
0.0005042983220879047 0.0025760783010651263 0.0 0.0 -7.23994566843374e-05 -1.0361359103303345e-05
0.0005187035721222236 0.002567311450024462 0.0 0.0 3.25484478948689e-05 -1.0059675648217882e-05
0.0005319534727876526 0.0025582719035308473 0.0 0.0 -7.057474807262975e-05 -9.707848770310675e-06
0.00054411466722276 0.002548954893940492 0.0 0.0 3.423788196836114e-05 -9.321988984633365e-06
0.0005552505614909683 0.0025393602355398477 0.0 0.0 -6.900769946246009e-05 -8.914879004507314e-06
0.0005654213155369354 0.002529491076756125 0.0 0.0 3.5693674462032284e-05 -8.49656829655262e-06
0.0005746839101159986 0.0025193529822853194 0.0 0.0 -6.765348489126634e-05 -8.074874912006536e-06
0.0005830922540349306 0.0025089532506874586 0.0 0.0 3.6954789841967775e-05 -7.65580507697757e-06
0.0005906973104934457 0.002498300401639672 0.0 0.0 -6.647798564427977e-05 -7.243901573316774e-06
0.00059754723034107 0.0024874037868693626 0.0 0.0 3.805132473280574e-05 -6.842531281186769e-06
0.0006036874855737135 0.002476273292463939 0.0 0.0 -6.545446220924181e-05 -6.454121366287086e-06
0.0006091609996678818 0.002464919109669506 0.0 0.0 3.900719745034755e-05 -6.080352419453113e-06
0.0006140082732244512 0.0024533515577781296 0.0 0.0 -6.456138543169674e-05 -5.722315799179908e-06
0.000618267504416121 0.0024415809471924834 0.0 0.0 3.984189700880484e-05 -5.380641302749612e-06
0.0006219747042464797 0.0024296174738792013 0.0 0.0 -6.378102345413075e-05 -5.055600418793851e-06
0.0006251638068524078 0.002417471138611989 0.0 0.0 4.057162869593032e-05 -4.747189486378967e-06
0.0006278667751500958 0.0024051516859668973 0.0 0.0 -6.3098508495631e-05 -4.455196452286727e-06
0.0006301137021122869 0.0023926685591593344 0.0 0.0 4.1210078916128264e-05 -4.1792542132958286e-06
0.0006319329079240111 0.0023800308676327586 0.0 0.0 -6.250120557099335e-05 -3.918883069096768e-06
0.0006333510332105712 0.002367247364933839 0.0 0.0 4.176894034912075e-05 -3.6735243241613354e-06
0.0006343931284882907 0.002354326434879324 0.0 0.0 -6.1978271861483e-05 -3.4425667481418373e-06
0.000635082739948177 0.0023412760843855556 0.0 0.0 4.225828499482005e-05 -3.225367247161701e-06
0.0006354419916606014 0.0023281039416287713 0.0 0.0 -6.152033797506912e-05 -3.0212669109656843e-06
0.0006354916642699078 0.0023148172584330708 0.0 0.0 4.268683902769997e-05 -2.8296033222568415e-06
0.0006352512702401837 0.002301422915979057 0.0 0.0 -6.111926879207163e-05 -2.6497198931877265e-06
0.0006347391257131385 0.002287927433081706 0.0 0.0 4.306219270536584e-05 -2.4809728323986664e-06
0.0006339724190384377 0.0022743369764163953 0.0 0.0 -6.0767977707153285e-05 -2.322736221690351e-06
0.0006329672760432151 0.002260657372183865 0.0 0.0 4.339096600509317e-05 -2.174405617405437e-06
0.0006317388221143823 0.002246894118792292 0.0 0.0 -6.046027792172589e-05 -2.0354004728434755e-06
0.0006303012411727582 0.0022330524002174795 0.0 0.0 4.367894295143678e-05 -1.9051656578764303e-06
0.0006286678316263412 0.002219137099759291 0.0 0.0 -6.0190760395865094e-05 -1.7831722660732795e-06
0.0006268510593939891 0.002205152813970054 0.0 0.0 4.393118306736588e-05 -1.6689178816423002e-06
0.0006248626080994783 0.0021911038665761973 0.0 0.0 -5.995469170313783e-05 -1.56192643763507e-06
0.0006227134265370123 0.0021769943222506552 0.0 0.0 4.4152115327322447e-05 -1.4617477637058457e-06
0.0006204137735139402 0.002162828000128009 0.0 0.0 -5.9747927279519034e-05 -1.3679569103638295e-06
0.0006179732601780359 0.0021486084869719695 0.0 0.0 4.4345618453604785e-05 -1.2801533152433282e-06
0.0006154008899384053 0.002134339149935919 0.0 0.0 -5.956683697631057e-05 -1.197959854231669e-06
0.0006127050960886866 0.0021200231488703336 0.0 0.0 4.451509008653775e-05 -1.121021837356906e-06
0.0006098937772412553 0.002105663448147893 0.0 0.0 -5.9408240691086796e-05 -1.0490059426370444e-06
0.0006069743306764396 0.002091262827982516 0.0 0.0 4.466350676747273e-05 -9.815991656215463e-07
0.000603953683716493 0.002076823895234971 0.0 0.0 -5.926935239820993e-05 -9.185077412495238e-07
0.0006008383232218712 0.002062349093701834 0.0 0.0 4.4793476196953183e-05 -8.594561068562764e-07
0.0005976343233117917 0.0020478407138921663 0.0 0.0 -5.9147731344752074e-05 -8.041858709549946e-07
0.0005943473714049492 0.0020333009022989565 0.0 0.0 4.490728281930645e-05 -7.524548327298786e-07
0.0005909827926731949 0.002018731670177824 0.0 0.0 -5.904123941656439e-05 -7.040360260301124e-07
0.0005875455729942225 0.0020041349018495493 0.0 0.0 4.5006927755850547e-05 -6.587168076121065e-07
0.0005840403804962262 0.001989512362534976 0.0 0.0 -5.894800378031408e-05 -6.162979962253475e-07
0.0005804715857668008 0.001974865705751621 0.0 0.0 4.509416370684124e-05 -5.765930358759023e-07
0.0005768432808110952 0.0019601964802832762 0.0 0.0 -5.886638419871839e-05 -5.39427228870475e-07
0.0005731592968309211 0.0019455061367413653 0.0 0.0 4.517052560477897e-05 -5.046369806277972e-07
0.000569423220893879 0.0019307960337399586 0.0 0.0 -5.879494436001958e-05 -4.7206911375731117e-07
0.0005656384115619662 0.0019160674437051603 0.0 0.0 4.523735740865752e-05 -4.4158020217553414e-07
0.0005618080135409077 0.0019013215583342119 0.0 0.0 -5.873242678036076e-05 -4.130359569368613e-07
0.0005579349714115592 0.0018865594937237892 0.0 0.0 4.5295835632749404e-05 -3.8631063992405467e-07
0.0005540220424985027 0.0018717822951891268 0.0 0.0 -5.867773077094943e-05 -3.6128651904253307e-07
0.000550071808931541 0.0018569909417847788 0.0 0.0 4.534698994792402e-05 -3.378533489048247e-07
0.0005460866889477048 0.0018421863505505374 0.0 0.0 -5.862989318940149e-05 -3.1590789968969973e-07
0.000542068947482391 0.0018273693804961226 0.0 0.0 4.539172119665425e-05 -2.953534872859203e-07
0.000538020706096366 0.0018125408363377266 0.0 0.0 -5.858807152052902e-05 -2.7609956347731746e-07
0.0005339439522787915 0.0017977014720075056 0.0 0.0 4.543081724844888e-05 -2.5806131292348483e-07
0.0005298405481646361 0.0017828519939407567 0.0 0.0 -5.85515291030873e-05 -2.411592701672587e-07
0.0005257122387063273 0.0017679930641613332 0.0 0.0 4.5464966778681576e-05 -2.2531899077690015e-07
0.0005215606593358756 0.001753125303180275 0.0 0.0 -5.851962221958536e-05 -2.1047070212571383e-07
0.0005173873431448527 0.0017382492927068734 0.0 0.0 4.549477138772614e-05 -1.9654900629728807e-07
0.0005131937276190746 0.001723365578198721 0.0 0.0 -5.8491788746587716e-05 -1.8349259010001133e-07
0.0005089811609555357 0.0017084746712493293 0.0 0.0 4.552075618752857e-05 -1.7124395297829715e-07
0.0005047509079837839 0.0016935770518335352 0.0 0.0 -5.846753829164583e-05 -1.5974915690752586e-07
0.0005005041557300421 0.0016786731704145936 0.0 0.0 4.554337899078211e-05 -1.4895758583750082e-07
0.0004962420186312909 0.0016637634499178074 0.0 0.0 -5.8446443582498616e-05 -1.388217193013853e-07
0.000491965543437775 0.0016488482875919213 0.0 0.0 4.556303842495656e-05 -1.2929692623232488e-07
0.00048767571381263657 0.0016339280567510533 0.0 0.0 -5.8428132904212934e-05 -1.2034127475334935e-07
0.0004833734546621952 0.0016190031084135554 0.0 0.0 4.558008091327286e-05 -1.1191532919266247e-07
0.0004790596362014652 0.0016040737728435965 0.0 0.0 -5.8412283612965126e-05 -1.0398200143480786e-07
0.0004747350777813454 0.00158914036100787 0.0 0.0 4.559480675014947e-05 -9.650635721537414e-08
0.0004704005514932812 0.0015742031659389342 0.0 0.0 -5.839861641728265e-05 -8.94554928835287e-08
0.0004660567855667132 0.0015592624640214975 0.0 0.0 4.560747544470425e-05 -8.279836482118306e-08
0.00046170446757146485 0.0015443185162162542 0.0 0.0 -5.838689047224163e-05 -7.650567066279021e-08
0.00045734424744487106 0.0015293715691974841 0.0 0.0 4.561831023467918e-05 -7.054970881310071e-08
0.0004529767403492483 0.0015144218564427689 0.0 0.0 -5.837689915575122e-05 -6.490426491883531e-08
0.0004486025293787163 0.0014994695992631805 0.0 0.0 4.562750207225065e-05 -5.954448527886562e-08
0.00044422216812616824 0.0014845150077720133 0.0 0.0 -5.836846636326609e-05 -5.444678108281614e-08
0.00043983618312060487 0.0014695582818111225 0.0 0.0 4.5635212932018405e-05 -4.958870832293431e-08
0.0004354450761400337 0.0014545996118277148 0.0 0.0 -5.8361443517249124e-05 -4.4948893567061873e-08
0.00043104932642256283 0.0014396391797139693 0.0 0.0 4.564157869465092e-05 -4.0506906387992054e-08
0.0004266493927756625 0.0014246771596082596 0.0 0.0 -5.835570683838736e-05 -3.6243197791302906e-08
0.0004222457155934593 0.0014097137186617169 0.0 0.0 4.5646711546358174e-05 -3.2139002043452686e-08
0.00041783871879484864 0.0013947490177724537 0.0 0.0 -5.835115523898909e-05 -2.817625323570062e-08
0.000413428811691052 0.0013797832122969722 0.0 0.0 4.565070193845652e-05 -2.4337509608204737e-08
0.00040901639078403285 0.0013648164527312104 0.0 0.0 -5.834770849063903e-05 -2.0605878125220904e-08
0.0004046018415141915 0.0013498488853701137 0.0 0.0 4.565362020513019e-05 -1.6964928565470563e-08
0.0004001855399567798 0.001334880652956464 0.0 0.0 -5.8345305861466374e-05 -1.3398635581346637e-08
0.0003957678544736532 0.0013199118953062204 0.0 0.0 4.565551778162695e-05 -9.89130895202514e-09
0.00039134914734073313 0.0013049427499259355 0.0 0.0 -5.834390501374296e-05 -6.4274979875164964e-09
0.0003869297763346957 0.0012899733526167544 0.0 0.0 4.56564280846807e-05 -2.991965443140728e-09
0.000382510096314577 0.0012750038380702536 0.0 0.0 -5.834348123964577e-05 4.304188239005226e-10
0.0003780904607793561 0.001260034340466561 0.0 0.0 4.5656367159674555e-05 3.854720681756643e-09
0.0003736712234249399 0.00124506499406457 0.0 0.0 -5.834402708543274e-05 7.296017248909284e-09
0.0003692527397014026 0.0012300959337913767 0.0 0.0 4.56553339691424e-05 1.0769459872928683e-08
0.0003648353683787295 0.0012151272958357904 0.0 0.0 -5.834555217371724e-05 1.4290342715097323e-08
0.00036041947312426026 0.001200159218250097 0.0 0.0 4.565331028806032e-05 1.7874184264144496e-08
0.0003560054241034721 0.0011851918415561073 0.0 0.0 -5.834808335427493e-05 2.1536756116284552e-08
0.0003515935996115846 0.001170225309364987 0.0 0.0 4.565026046410986e-05 2.529421047007402e-08
0.000347184387736837 0.0011552597690125755 0.0 0.0 -5.835166524828701e-05 2.9163099836827626e-08
0.0003427781880676048 0.0011402953722050356 0.0 0.0 4.5646130756798716e-05 3.316047488959332e-08
0.00033837541345569424 0.0011253322756939986 0.0 0.0 -5.8356360948674454e-05 3.7303976655410874e-08
0.00033397649182778004 0.0011103706419647672 0.0 0.0 4.5640848404358164e-05 4.161186996603887e-08
0.0003295818680735056 0.0010954106399496532 0.0 0.0 -5.83622531836204e-05 4.610317700694255e-08
0.00032519200600210243 0.0010804524457775253 0.0 0.0 4.5634320377063546e-05 5.079772848355906e-08
0.00032080739038356303 0.001065496243551947 0.0 0.0 -5.8369445740555424e-05 5.571625942167244e-08
0.0003164285290824344 0.0010505422261631624 0.0 0.0 4.562643167874223e-05 6.088053198588994e-08
0.00031205595529124074 0.0010355905961374914 0.0 0.0 -5.837806529061145e-05 6.631338070751513e-08
0.00030769022987836114 0.0010206415665334832 0.0 0.0 4.561704339338716e-05 7.203887915537e-08
0.0003033319438519348 0.0010056953618840135 0.0 0.0 -5.838826362053028e-05 7.80824110183662e-08
0.00029898172095965377 0.0009907522191889616 0.0 0.0 4.560599024353647e-05 8.447080556187557e-08
0.0002946402204312232 0.0009758123889579129 0.0 0.0 -5.840022021481655e-05 9.123245247916363e-08
0.00029030813987676585 0.0009608761363181409 0.0 0.0 4.5593077666800314e-05 9.839747996931957e-08
0.0002859862183448633 0.0009459437421906495 0.0 0.0 -5.841414547880057e-05 1.0599781936719826e-07
0.0002816752395698715 0.0009310155045306326 0.0 0.0 4.5578078555772675e-05 1.1406746616520174e-07
0.00027737603540694525 0.0009160917396346115 0.0 0.0 -5.843028429831291e-05 1.226425563393774e-07
0.00027308948947294293 0.0009011727835407106 0.0 0.0 4.556072922785566e-05 1.3176162880386422e-07
0.0002688165410199933 0.0008862589935155971 0.0 0.0 -5.844892025309953e-05 1.4146576504724204e-07
0.0002645581890312681 0.0008713507496157017 0.0 0.0 4.554072496082222e-05 1.517988472502776e-07
0.0002603154965837642 0.0008564484563630826 0.0 0.0 -5.847038050353203e-05 1.6280779016445996e-07
0.000256089595470422 0.0008415525445162374 0.0 0.0 4.551771478896404e-05 1.7454278434148214e-07
0.0002518816911197529 0.00082666347295588 0.0 0.0 -5.849504126199533e-05 1.8705760691339716e-07
0.00024769306780979966 0.0008117817306873395 0.0 0.0 4.549129568405595e-05 2.0040993909992318e-07
0.0002435250942149704 0.0007969078389443013 0.0 0.0 -5.8523334053725e-05 2.1466171112546374e-07
0.00023937922928322182 0.0007820423534513654 0.0 0.0 4.546100583839672e-05 2.2987950095961027e-07
0.00023525702847535088 0.0007671858668000928 0.0 0.0 -5.855575283979079e-05 2.4613496912113605e-07
0.00023116015038206016 0.0007523390109547588 0.0 0.0 4.54263172866749e-05 2.6350537012922916e-07
0.00022709036372320254 0.0007375024599091565 0.0 0.0 -5.8592861709686785e-05 2.8207407202704426e-07
0.00022304955475610435 0.0007226769324870567 0.0 0.0 4.538662752507283e-05 3.01931220481012e-07
0.0002190397351094078 0.0007078631952621812 0.0 0.0 -5.863530367153781e-05 3.2317441790697364e-07
0.00021506305002454474 0.0006930620656156413 0.0 0.0 4.5341250672364984e-05 3.4590954902280653e-07
0.00021112178703902145 0.0006782744149330004 0.0 0.0 -5.868381003689186e-05 3.7025168068114973e-07
0.00020721838509172707 0.0006635011718898974 0.0 0.0 4.5289407569904915e-05 3.9632612644946875e-07
0.00020335544404778748 0.0006487433258272042 0.0 0.0 -5.873921034056824e-05 4.242696329992586e-07
0.00019953573460658886 0.0006340019301837108 0.0 0.0 4.523021568528002e-05 4.542318004256349e-07
0.00019576220857995828 0.0006192781059218939 0.0 0.0 -5.8802442657742e-05 4.863766461859825e-07
0.0001920380094621316 0.0006045730448947246 0.0 0.0 4.516267890496161e-05 5.208844881298205e-07
0.00018836648322419713 0.0005898880130846807 0.0 0.0 -5.887456356986481e-05 5.579540659219565e-07
0.0001847511892143283 0.0005752243535578859 0.0 0.0 4.508567800204323e-05 5.978050618067913e-07
0.00018119591101383077 0.0005605834890141911 0.0 0.0 -5.8956756886753775e-05 6.406809877962036e-07
0.0001777046670498216 0.0005459669237088332 0.0 0.0 4.499796303438831e-05 6.868525977704468e-07
0.00017428172065335633 0.0005313762444948713 0.0 0.0 -5.905033962879053e-05 7.366218149098798e-07
0.00017093158925052918 0.0005168131206517028 0.0 0.0 4.489814976765881e-05 7.903264402791838e-07
0.00016765905214229728 0.0005022793019791931 0.0 0.0 -5.915676233893903e-05 8.483454562296109e-07
0.00016446915627554894 0.00048777661462182304 0.0 0.0 4.478472368799123e-05 9.111055901090629e-07
0.00016136721913929597 0.00047330695382827087 0.0 0.0 -5.927759933179095e-05 9.790884009035867e-07
0.00015835882767798774 0.0004588722725868764 0.0 0.0 4.465605766723504e-05 1.0528397463982616e-06
0.00015544983176641117 0.00044447456477874324 0.0 0.0 -5.941452048781521e-05 1.132978660883712e-06
0.0001526463302859436 0.00043011584119972014 0.0 0.0 4.451045423606043e-05 1.2202120197216766e-06
0.00014995464728477848 0.00041579809588845814 0.0 0.0 -5.9569230312029415e-05 1.3153434873142177e-06
0.00014738129470822059 0.0004015232601229067 0.0 0.0 4.434623297472698e-05 1.419299739773591e-06
0.00014493291739146538 0.0003872931393616189 0.0 0.0 -5.9743346623619036e-05 1.5331306812505028e-06
0.00014261621375050626 0.00037310932909599795 0.0 0.0 4.416190115417908e-05 1.6580676283379104e-06
0.00014043782497653997 0.0003589731002087734 0.0 0.0 -5.9938167748673724e-05 1.7954791044948659e-06
0.00013840417983002206 0.00034488524931392347 0.0 0.0 4.3956484066131956e-05 1.9470325388396513e-06
0.00013652128377007592 0.00033084589264027584 0.0 0.0 -6.01542280294434e-05 2.1144697170025987e-06
0.00013479442516987065 0.00031685420493647104 0.0 0.0 4.3730171925997164e-05 2.3001313680620465e-06
0.00013322778439435045 0.0003029080480710375 0.0 0.0 -6.039044751604203e-05 2.506046841907082e-06
0.0001318238821626154 0.0002890035261194504 0.0 0.0 4.348561704224196e-05 2.735773280408151e-06
0.00013058286489638985 0.0002751343050197106 0.0 0.0 -6.064249933582905e-05 2.9909342000108844e-06
0.00012950146088181404 0.00026129088874490434 0.0 0.0 4.3230630427332304e-05 3.277881054602203e-06
0.0001285716926381219 0.00024745933136827847 0.0 0.0 -6.0899698151710814e-05 3.594812620917381e-06
0.0001277788629569812 0.00023362019665494426 0.0 0.0 4.298405441149119e-05 3.956205253661561e-06
0.00012709931121049293 0.0002197459914924318 0.0 0.0 -6.113925339857555e-05 4.345237750468076e-06
0.00012649642030418076 0.0002058002705805616 0.0 0.0 4.278929980811312e-05 4.803781294261114e-06
0.00012591707854069727 0.00019173218571067553 0.0 0.0 -6.131665830974944e-05 5.257113555863545e-06
0.00012528356119036638 0.00017747871666870456 0.0 0.0 4.274748097946187e-05 5.845900925103274e-06
0.00012448980743163176 0.00016295247724448542 0.0 0.0 -6.135478851607254e-05 6.280852406110649e-06
0.0001233850602021076 0.00014806107342776753 0.0 0.0 4.3101343584839e-05 7.0685209761537585e-06
0.00012178003013969867 0.00013268012488235108 0.0 0.0 -6.116232092557845e-05 7.135337741782152e-06
0.00011941918816905034 0.00011674457508505808 0.0 0.0 4.4423557833352676e-05 8.363964829826765e-06
0.00011604929874777164 0.00010020229357917459 0.0 0.0 -6.0877554814276966e-05 6.828656610541285e-06
0.00011142679915068718 8.327156012200986e-05 0.0 0.0 4.7568441376687805e-05 9.742409844620999e-06
0.00010560231089572049 6.655630252058706e-05 0.0 0.0 -6.206913127655505e-05 2.666362986857929e-06
9.956654287256549e-05 4.824149699329356e-05 0.0 0.0 4.564246440913922e-05 1.5174921470899653e-05
9.231795442590219e-05 3.224162658105641e-05 0.0 0.0 -3.808961541967252e-05 -1.4644318200069447e-05
9.207521702272764e-05 2.6330656405486457e-05 0.0 0.0 -0.020718247751788085 -9.141057395619333e-05
-2.117582368135751e-22 0.0031504944859545416 0.0 0.0 -0.0017172703248096717 0.0
6.845411074383959e-06 0.0031072832891995226 0.0 0.0 -1.4716040377693633e-05 2.0365935655282093e-05
1.4650447613304632e-05 0.0030249214222447347 0.0 0.0 -0.00011640598520249034 2.2428663466769672e-05
2.722934085151452e-05 0.0029517480855012234 0.0 0.0 -9.706504970781964e-06 2.1928944385746136e-05
4.4477539728019826e-05 0.0028886864982924647 0.0 0.0 -0.00011093143638388974 2.0193662851926344e-05
6.580481708207134e-05 0.002835229429535341 0.0 0.0 -4.015501435848364e-06 1.7566924774439468e-05
9.041776758727827e-05 0.00279049556874873 0.0 0.0 -0.00010503886892515722 1.4418752878875965e-05
0.00011747133577280787 0.002753395995518915 0.0 0.0 1.917425473544162e-06 1.1044374568825776e-05
0.00014614027649862362 0.002722785390446837 0.0 0.0 -9.918800820315441e-05 7.696093608301e-06
0.00017567905403566614 0.0026975459434919902 0.0 0.0 7.607218765216334e-06 4.5624086373962645e-06
0.00020545830677043373 0.0026766479685311133 0.0 0.0 -9.372601236367096e-05 1.7628809114477785e-06
0.00023497566764201958 0.0026591863628581446 0.0 0.0 1.2791162284957858e-05 -6.42863784592825e-07
0.0002638487207616268 0.002644393569934336 0.0 0.0 -8.885231925167747e-05 -2.640767377472237e-06
0.0002917988193934873 0.002631635691141736 0.0 0.0 1.734053121430344e-05 -4.247064679755531e-06
0.00031863214534392684 0.002620399070330241 0.0 0.0 -8.462705870544873e-05 -5.495906095075666e-06
0.0003442216185349264 0.002610273068583801 0.0 0.0 2.125203935828587e-05 -6.430101227029212e-06
0.00036849127540451493 0.002600932561838344 0.0 0.0 -8.101278737939458e-05 -7.094960969895032e-06
0.0003914035397464672 0.0025921219946075185 0.0 0.0 2.458880617758007e-05 -7.534438039674672e-06
0.00041294921617890336 0.0025836417024638907 0.0 0.0 -7.793267082709498e-05 -7.788977663295035e-06
0.0004331397972583138 0.0025753365963469867 0.0 0.0 2.7432943427131723e-05 -7.894487305241816e-06
0.0004520016291108276 0.0025670869998995834 0.0 0.0 -7.530479854018188e-05 -7.882034407334014e-06
0.00046957152016909335 0.0025588013214812837 0.0 0.0 2.9862918720969926e-05 -7.777971621503357e-06
0.0004858934484410604 0.002550410229873146 0.0 0.0 -7.30558552041446e-05 -7.604300678216378e-06
0.0005010160958595217 0.0025418620354385347 0.0 0.0 3.1946181395164225e-05 -7.379146242173426e-06
0.0005149910025651441 0.0025331190258578375 0.0 0.0 -7.112436816544388e-05 -7.117263382420996e-06
0.0005278711858329884 0.0025241545536913157 0.0 0.0 3.373845921309345e-05 -6.830532034482633e-06
0.0005397101083526697 0.002514950715444271 0.0 0.0 -6.945994941658594e-05 -6.528413999812787e-06
0.0005505609105080841 0.0025054964968867378 0.0 0.0 3.528527639834049e-05 -6.2183606875248104e-06
0.0005604758433631457 0.002495786287229645 0.0 0.0 -6.80214518351726e-05 -5.906168295383455e-06
0.0005695058551635501 0.0024858186864366136 0.0 0.0 3.662386802885106e-05 -5.596281678658932e-06
0.0005777002959022117 0.002475595546609183 0.0 0.0 -6.677512470040825e-05 -5.292050845433362e-06
0.0005851067130650979 0.0024651212011474423 0.0 0.0 3.778488503058594e-05 -4.9959451188158396e-06
0.0005917707179779565 0.002454401845165707 0.0 0.0 -6.569307575386338e-05 -4.7097304229201035e-06
0.0005977359068459571 0.0024434450381634067 0.0 0.0 3.879376125764337e-05 -4.434614940963688e-06
0.0006030438240876403 0.0024322593057779264 0.0 0.0 -6.475206630792233e-05 -4.1713680650490314e-06
0.0006077339582251039 0.0024208538219922743 0.0 0.0 3.9671770666364404e-05 -3.920416959078148e-06
0.0006118437626406799 0.0024092381567467473 0.0 0.0 -6.393258537283745e-05 -3.6819245768710722e-06
0.0006154086950993501 0.0023974220767372704 0.0 0.0 4.0436838167371694e-05 -3.45585235413134e-06
0.0006184622711890503 0.0023854153894558743 0.0 0.0 -6.321813872659524e-05 -3.2420103695047955e-06
0.0006210361278195968 0.0023732278223526086 0.0 0.0 4.11041641582286e-05 -3.040097259097719e-06
0.0006231600937132761 0.0023608689304742453 0.0 0.0 -6.259469892906677e-05 -2.8497318227639547e-06
0.0006248622644561087 0.002348348027140122 0.0 0.0 4.1686710161662204e-05 -2.6704779006038286e-06
0.0006261690801882782 0.0023356741331987257 0.0 0.0 -6.205027528139877e-05 -2.50186382597689e-06
0.0006271054044280893 0.002322855941211685 0.0 0.0 4.219558077878132e-05 -2.343397524756874e-06
0.0006276946028572221 0.002309901791574271 0.0 0.0 -6.157457358402417e-05 -2.194578121004668e-06
0.0006279586211661375 0.0022968196581266203 0.0 0.0 4.264032762765963e-05 -2.0549047658838e-06
0.0006279180612757245 0.0022836171412534763 0.0 0.0 -6.115872385538775e-05 -1.9238832495124575e-06
0.00062759225542906 0.0022703014668437782 0.0 0.0 4.3029193966699836e-05 -1.8010308702523503e-06
0.0006269993377875378 0.0022568794897835746 0.0 0.0 -6.079505998079517e-05 -1.6858799153740382e-06
0.0006261563132794704 0.002243357700904511 0.0 0.0 4.336931366558572e-05 -1.5779800718420712e-06
0.0006250791235392677 0.0022297422365147286 0.0 0.0 -6.047693957634916e-05 -1.476899982563257e-06
0.0006237827098457988 0.0022160388898138585 0.0 0.0 4.366687468816357e-05 -1.3822281655361554e-06
0.0006222810730279074 0.002202253123626159 0.0 0.0 -6.019859530069423e-05 -1.293573422783082e-06
0.0006205873303415809 0.002188390084000294 0.0 0.0 4.392725463120444e-05 -1.2105648750879996e-06
0.0006187137693666783 0.002174454614322552 0.0 0.0 -5.995501105850778e-05 -1.132851712249707e-06
0.0006166718989842002 0.0021604512696602306 0.0 0.0 4.4155133996920046e-05 -1.0601027413800128e-06
0.0006144724975256021 0.002146384331117089 0.0 0.0 -5.9741818121442157e-05 -9.92005777174427e-07
0.0006121256581902053 0.0021322578200307462 0.0 0.0 4.4354591626691786e-05 -9.282669385747078e-07
0.000609640831837796 0.0021180755118869006 0.0 0.0 -5.955520736269834e-05 -8.686098705640495e-07
0.0006070268672737163 0.0021038409498511782 0.0 0.0 4.4529185554070556e-05 -8.127749403864023e-07
0.0006042920491395512 0.0020895574578531587 0.0 0.0 -5.9391854642250905e-05 -7.60518393468166e-07
0.0006014441335278626 0.0020752281531759764 0.0 0.0 4.468202195011348e-05 -7.116115403788838e-07
0.0005984903814387906 0.002060855958514958 0.0 0.0 -5.924885702259479e-05 -6.658399158171349e-07
0.0005954375901926214 0.002046443613492728 0.0 0.0 4.4815814172254054e-05 -6.230024921224453e-07
0.0005922921229095508 0.0020319936856233426 0.0 0.0 -5.912367804805131e-05 -5.829108900837405e-07
0.0005890599361647498 0.002017508580726825 0.0 0.0 4.493293355024852e-05 -5.453886357644822e-07
0.0005857466059294836 0.002002990552797528 0.0 0.0 -5.901410057479429e-05 -5.102704440213511e-07
0.0005823573518863429 0.00198844171334162 0.0 0.0 4.5035453222739305e-05 -4.774015317983459e-07
0.0005788970602271506 0.001973864040200542 0.0 0.0 -5.891818600501194e-05 -4.4663697356875495e-07
0.0005753703050167002 0.001959259385875902 0.0 0.0 4.512518605479421e-05 -4.1784108265331926e-07
0.0005717813682128959 0.0019446294853755473 0.0 0.0 -5.883423897168859e-05 -3.908868374657287e-07
0.0005681342584233199 0.0019299759636004863 0.0 0.0 4.52037175724464e-05 -3.656553193271241e-07
0.0005644327284785721 0.001915300342295985 0.0 0.0 -5.8760776664425033e-05 -3.4203521581037486e-07
0.0005606802918938345 0.0019006040465921474 0.0 0.0 4.527243453040337e-05 -3.1992231576199407e-07
0.000556880238288451 0.0018858884111454012 0.0 0.0 -5.869650217405978e-05 -2.992190694748459e-07
0.0005530356478307973 0.0018711546859032581 0.0 0.0 4.5332549806217514e-05 -2.798341461061394e-07
0.0005491494047670243 0.0018564040415278184 0.0 0.0 -5.864028124083568e-05 -2.616820445977639e-07
0.0005452242100942267 0.0018416375744807387 0.0 0.0 4.53851240677397e-05 -2.446827062907984e-07
0.0005412625934324086 0.001826856311793001 0.0 0.0 -5.859112206550417e-05 -2.2876116656381836e-07
0.0005372669241437195 0.001812061215543801 0.0 0.0 4.5431084674794594e-05 -2.1384722184697837e-07
0.000533239421751443 0.0017972531870590214 0.0 0.0 -5.8548157618868216e-05 -1.9987511918511443e-07
0.0005291821657008341 0.0017824330708530924 0.0 0.0 4.54712421520051e-05 -1.867832704490987e-07
0.0005250971045050158 0.00176760165832252 0.0 0.0 -5.851063028155948e-05 -1.7451396667350367e-07
0.0005209860643165267 0.0017527596912112037 0.0 0.0 4.5506304577775064e-05 -1.6301313677537753e-07
0.0005168507569597655 0.0017379078648617182 0.0 0.0 -5.847787839690754e-05 -1.5223009951659695e-07
0.0005126927874648335 0.0017230468312639745 0.0 0.0 4.553689010616162e-05 -1.421173413916621e-07
0.0005085136611265049 0.0017081772019184622 0.0 0.0 -5.844932457231924e-05 -1.3263031257287894e-07
0.0005043147901314002 0.0016932995505177172 0.0 0.0 4.556353791872181e-05 -1.2372721444104838e-07
0.000500097499768267 0.0016784144154652523 0.0 0.0 -5.8424465466864984e-05 -1.1536883496053368e-07
0.0004958630342619676 0.0016635223022456289 0.0 0.0 4.5586717741211646e-05 -1.0751835407917356e-07
0.0004916125622508496 0.0016486236856431587 0.0 0.0 -5.840286288596422e-05 -1.0014119849414277e-07
0.00048734718192533434 0.0016337190118298089 0.0 0.0 4.560683815265851e-05 -9.320487889970773e-08
0.0004830679258647501 0.0016188087003255705 0.0 0.0 -5.8384136077752015e-05 -8.667885221781907e-08
0.00047877576557932896 0.0016038931458406845 0.0 0.0 4.5624253784961114e-05 -8.05343801845923e-08
0.00047447161578632684 0.001588972720016041 0.0 0.0 -5.8367954964496076e-05 -7.474441011734228e-08
0.0004701563384365799 0.0015740477730565832 0.0 0.0 4.563927159467003e-05 -6.928344599221132e-08
0.0004658307465073272 0.0015591186352720626 0.0 0.0 -5.835403435403008e-05 -6.412744972604349e-08
0.00046149560757952985 0.001544185618528211 0.0 0.0 4.565215626545086e-05 -5.9253712790746996e-08
0.0004571516472178022 0.0015292490176208053 0.0 0.0 -5.834212891560504e-05 -5.4640791770322814e-08
0.00045279955216226127 0.0015143091115722397 0.0 0.0 4.5663134878134635e-05 -5.026836826194049e-08
0.0004484399733512063 0.0014993661648605063 0.0 0.0 -5.833202881715138e-05 -4.611720204854156e-08
0.00044407352878652153 0.0014844204285848828 0.0 0.0 4.5672400928351356e-05 -4.216901508075034e-08
0.0004397008062543261 0.0014694721415641706 0.0 0.0 -5.832355604781358e-05 -3.840643454438783e-08
0.00043532236590944833 0.0014545215313898604 0.0 0.0 4.5680117718109115e-05 -3.4812891008947563e-08
0.0004309387427434434 0.0014395688154322918 0.0 0.0 -5.831656128636872e-05 -3.137257201702055e-08
0.00042655044893686196 0.0014246142017938879 0.0 0.0 4.5686421249581735e-05 -2.8070328039568864e-08
0.0004221579761161891 0.0014096578902236304 0.0 0.0 -5.83109212657011e-05 -2.489163388564664e-08
0.000417761797515122 0.0013947000730026374 0.0 0.0 4.569142260310479e-05 -2.1822486239982206e-08
0.0004133623700571292 0.0013797409357845154 0.0 0.0 -5.830653656907958e-05 -1.884938709506784e-08
0.0004089601363693102 0.0013647806584153757 0.0 0.0 4.569520993769874e-05 -1.5959241551552483e-08
0.0004045555267279753 0.0013498194157276068 0.0 0.0 -5.8303329924146814e-05 -1.313933295705224e-08
0.00040014896095355834 0.0013348573782971916 0.0 0.0 4.5697849996636586e-05 -1.0377249969213947e-08
0.0003957408502583841 0.0013198947132093011 0.0 0.0 -5.830124483509325e-05 -7.66082947783759e-09
0.0003913315990565527 0.0013049315847945804 0.0 0.0 4.569938932761188e-05 -4.978121310463511e-09
0.00038692160674402566 0.001289968155338846 0.0 0.0 -5.8300244520438356e-05 -2.3173053293953916e-09
0.00038251126945769724 0.0012750045858077063 0.0 0.0 4.5699855021005776e-05 3.3332329848730427e-10
0.00037810098181570125 0.0012600410365571331 0.0 0.0 -5.8300311355435636e-05 2.9854403293038886e-09
0.0003736911386593041 0.0012450776680363114 0.0 0.0 4.5699255323999963e-05 5.650721787459501e-09
0.0003692821367884274 0.0012301146414965985 0.0 0.0 -5.830144652861353e-05 8.340900535302922e-09
0.00036487437670682855 0.0012151521197009741 0.0 0.0 4.569757968857723e-05 1.106783032789934e-08
0.00036046826439227925 0.0012001902676442384 0.0 0.0 -5.8303670007834154e-05 1.3843519594710068e-08
0.00035606421307599984 0.0011852292532774237 0.0 0.0 4.5694798582609207e-05 1.668020210843224e-08
0.0003516626450695666 0.001170269248249811 0.0 0.0 -5.830702097433843e-05 1.9590374946006853e-08
0.0003472639936204137 0.001155310428668847 0.0 0.0 4.569086302252121e-05 2.2586866029643618e-08
0.00034286870482252795 0.001140352975879977 0.0 0.0 -5.831155845819453e-05 2.5682893587124396e-08
0.0003384772395801418 0.001125397077266508 0.0 0.0 4.568570366260936e-05 2.8892109582340144e-08
0.0003340900756427802 0.0011104429270764379 0.0 0.0 -5.831736239279568e-05 3.222868178549224e-08
0.000329707709707404 0.0010954907272891195 0.0 0.0 4.5679229628512895e-05 3.570734605982647e-08
0.0003253306596086226 0.0010805406885089118 0.0 0.0 -5.832453502059077e-05 3.9343462614649556e-08
0.000320959466606303 0.0010655930308965606 0.0 0.0 4.5671326870555745e-05 4.315312954623332e-08
0.0003165946977696512 0.0010506479851530815 0.0 0.0 -5.833320267881702e-05 4.7153185533574914e-08
0.00031223694848087313 0.001035705793544122 0.0 0.0 4.566185619039268e-05 5.136137014657852e-08
0.0003078868450657682 0.0010207667109811316 0.0 0.0 -5.8343518058022676e-05 5.5796335993131205e-08
0.0003035450475598324 0.001005831006160895 0.0 0.0 4.5650650786570194e-05 6.047778847054035e-08
0.00029921225262595334 0.000990898962765697 0.0 0.0 -5.8355662835725386e-05 6.542653344337838e-08
0.0002948891966346825 0.0009759708807392698 0.0 0.0 4.563751326142735e-05 7.066464476551204e-08
0.0002905766589274325 0.000961047077632453 0.0 0.0 -5.836985088975705e-05 7.621548596728998e-08
0.0002862754652661292 0.0009461278900416033 0.0 0.0 4.562221226635851e-05 8.210391834895941e-08
0.0002819864914936717 0.0009312136751206007 0.0 0.0 -5.838633211026258e-05 8.835633943514876e-08
0.0002777106674254643 0.0009163048122030704 0.0 0.0 4.5604478331183126e-05 9.500090292842607e-08
0.0002734489809743754 0.0009014017045432016 0.0 0.0 -5.840539676990673e-05 1.0206760596551036e-07
0.00026920248255680025 0.0008865047811440396 0.0 0.0 4.558399912958275e-05 1.0958848804679469e-07
0.00026497228976138766 0.000871614498725417 0.0 0.0 -5.8427380613601185e-05 1.1759778269422073e-07
0.0002607595923427856 0.0008567313438352949 0.0 0.0 4.556041396265977e-05 1.2613216452187197e-07
0.00025656565753722486 0.0008418558350983453 0.0 0.0 -5.8452670862759945e-05 1.352308899538147e-07
0.00025239183574124826 0.000826988525632216 0.0 0.0 4.553330738636262e-05 1.449361267347139e-07
0.00024823956657019064 0.0008121300056337125 0.0 0.0 -5.8481713048053096e-05 1.552931549253034e-07
0.00024411038533812094 0.0007972809051520776 0.0 0.0 4.5502201772544635e-05 1.6635070351127355e-07
0.00024000592997841757 0.0007824418970733447 0.0 0.0 -5.851501902355105e-05 1.7816128733839486e-07
0.00023592794846121216 0.0007676137003235365 0.0 0.0 4.54665487922576e-05 1.9078157609297205e-07
0.00023187830671792518 0.000752797083317208 0.0 0.0 -5.8553176167456525e-05 2.0427283163701633e-07
0.00022785899714564394 0.0007379928676609965 0.0 0.0 4.542571935143929e-05 2.187014135373493e-07
0.00022387214771096942 0.0007232019321388662 0.0 0.0 -5.859685804875396e-05 2.3413934031098899e-07
0.00021992003171726583 0.0007084252170168432 0.0 0.0 4.537899216393976e-05 2.506648976272237e-07
0.00021600507828556877 0.0006936637286623884 0.0 0.0 -5.8646837021007715e-05 2.683634328301543e-07
0.0002121298836096516 0.0006789185445225881 0.0 0.0 4.532554021643054e-05 2.873281651377159e-07
0.00020829722304414942 0.0006641908184851459 0.0 0.0 -5.8703998846502915e-05 3.076611997764175e-07
0.00020451006409444227 0.000649481786648462 0.0 0.0 4.5264414712486946e-05 3.294746619212892e-07
0.00020077158039778504 0.0006347927735203406 0.0 0.0 -5.876936000607266e-05 3.5289204636300506e-07
0.00019708516674831936 0.0006201251986601012 0.0 0.0 4.5194526287945435e-05 3.780497948110582e-07
0.00019345445529023533 0.0006054805838180778 0.0 0.0 -5.8844088424395364e-05 4.050990851056603e-07
0.0001898833329358032 0.0005908605605418535 0.0 0.0 4.511462219315438e-05 4.342080473462807e-07
0.00018637596013456952 0.0005762668782801722 0.0 0.0 -5.892952861563682e-05 4.6556426663727033e-07
0.00018293679107833486 0.000561701412956219 0.0 0.0 4.5023258600210194e-05 4.993778093489607e-07
0.00017957059545813394 0.000547166175986458 0.0 0.0 -5.9027232266637905e-05 5.3588474959094e-07
0.0001762824818739835 0.0005326633237067941 0.0 0.0 4.491876631810567e-05 5.75351457679312e-07
0.00017307792298210285 0.0005181951670449395 0.0 0.0 -5.913899665264586e-05 6.180795283987047e-07
0.00016996278248960448 0.0005037641813322709 0.0 0.0 4.479920808753927e-05 6.64411927740337e-07
0.0001669433440260046 0.000489373015978296 0.0 0.0 -5.9266912724483325e-05 7.14739983665889e-07
0.00016402634190247495 0.000475024503682213 0.0 0.0 4.46623241926649e-05 7.695123263343163e-07
0.00016121899371829843 0.00046072166863161555 0.0 0.0 -5.941342624550994e-05 8.292446520480118e-07
0.00015852903458649973 0.0004464677330898385 0.0 0.0 4.450546381724375e-05 8.945334484897899e-07
0.0001559647527155876 0.0004322661211469084 0.0 0.0 -5.958141537619954e-05 9.660689089196171e-07
0.00015353502557796642 0.0004181204586127845 0.0 0.0 4.4325498788189794e-05 1.0446576956110384e-06
0.00015124935597524128 0.0004040345665043714 0.0 0.0 -5.9774287242247634e-05 1.1312371626456688e-06
0.0001491179058826081 0.0003900124466441815 0.0 0.0 4.411871990914716e-05 1.2269188629556718e-06
0.0001471515267015599 0.0003760582532631501 0.0 0.0 -5.999609221377599e-05 1.3329917695901116e-06
0.00014536178037002489 0.00036217625007435773 0.0 0.0 4.388072560853533e-05 1.4510230261692656e-06
0.0001437609495017894 0.0003483707365608633 0.0 0.0 -6.025164410851402e-05 1.582796454911435e-06
0.00014236202142010922 0.00033464595064337593 0.0 0.0 4.3606342174485214e-05 1.730594234537904e-06
0.00014117864710180082 0.00032100589988118397 0.0 0.0 -6.054660790538822e-05 1.896859373108086e-06
0.0001402250311825743 0.0003074541644277208 0.0 0.0 4.3289698699368936e-05 2.0850967044354525e-06
0.0001395157741835509 0.0002939935190556988 0.0 0.0 -6.088746258090189e-05 2.298457951053676e-06
0.00013906553114080442 0.00028062556590552427 0.0 0.0 4.2924818246730745e-05 2.542848723612566e-06
0.00013888860276633374 0.0002673498606450809 0.0 0.0 -6.128115418610708e-05 2.8214456177852584e-06
0.00013899801453397652 0.00025416330275199926 0.0 0.0 4.250780257789651e-05 3.1458079406741866e-06
0.00013940459464416007 0.00024105797499715526 0.0 0.0 -6.173417295350517e-05 3.5152397787325098e-06
0.00014011453497717274 0.00022802040519932348 0.0 0.0 4.2043924136276906e-05 3.957192241225505e-06
0.00014112750157317243 0.0002150257583457894 0.0 0.0 -6.225108267944655e-05 4.4504847097079445e-06
0.0001424299849626033 0.00020203821788335467 0.0 0.0 4.1570317129456915e-05 5.073275586970857e-06
0.0001439919306417996 0.00018899413051402981 0.0 0.0 -6.28348101550083e-05 5.7187677309857065e-06
0.00014574776352763033 0.00017581026306432554 0.0 0.0 4.123060260291587e-05 6.6388618584237126e-06
0.00014759253978437154 0.0001623327465862091 0.0 0.0 -6.35006229658282e-05 7.3928488081817815e-06
0.00014932584571576368 0.00014838627393637144 0.0 0.0 4.153169709108584e-05 8.848962073746509e-06
0.00015066038902419025 0.0001336253262284913 0.0 0.0 -6.434246455862204e-05 9.288100002396537e-06
0.0001510602505810476 0.00011779219085012355 0.0 0.0 4.425824706470261e-05 1.1816799646992824e-05
0.00014985628660864984 0.00010041508307223458 0.0 0.0 -6.572229008985431e-05 9.729675745108837e-06
0.00014592870781561382 8.217282187905636e-05 0.0 0.0 5.517573284178918e-05 1.4814656796977087e-05
0.0001387325978037974 6.699642048629264e-05 0.0 0.0 -6.927482200043454e-05 -1.578466994225534e-06
0.00013264331873683732 5.4846133873218185e-05 0.0 0.0 4.4777318209378737e-05 1.4831049256571784e-05
0.00013630063122347828 4.882950245356698e-05 0.0 0.0 0.020823466447104828 -0.00014438012123911895
-2.117582368135751e-22 0.0031850286751182177 0.0 0.0 -0.001626674281472086 -3.3457801416544863e-20
5.18588459895949e-06 0.0031429235477164292 0.0 0.0 -0.00011564300701794237 1.2372951690879426e-05
1.1270102723425142e-05 0.0030619794509412946 0.0 0.0 -9.863884497743558e-06 1.3790716437445246e-05
2.118188574285043e-05 0.0029884371473530525 0.0 0.0 -0.000111801323825292 1.371491102032399e-05
3.502478479142008e-05 0.0029232005192924597 0.0 0.0 -5.522136770036749e-06 1.2902984575716772e-05
5.2505050236790855e-05 0.0028661373267825 0.0 0.0 -0.00010716813939451809 1.154816075731914e-05
7.316210845335867e-05 0.0028168054358382526 0.0 0.0 -7.309038962546399e-07 9.802174172770579e-06
9.64342089489442e-05 0.0027745721197598703 0.0 0.0 -0.00010224838659158332 7.83973261454405e-06
0.00012172208657365575 0.0027386828707173794 0.0 0.0 4.2386846354008575e-06 5.809362483428369e-06
0.00014843313543380036 0.0027083328738945686 0.0 0.0 -9.73016132982317e-05 3.832000938298328e-06
0.00017601457455244983 0.002682718901443387 0.0 0.0 9.102594967565919e-06 1.9971620624697077e-06
0.0002039752618873535 0.002661076882840627 0.0 0.0 -9.257069167613682e-05 3.625803376115246e-07
0.00023189655576089365 0.002642706544922236 0.0 0.0 1.3661076209753396e-05 -1.0419367751352384e-06
0.00025943436666433345 0.0026269846888911674 0.0 0.0 -8.821404964249027e-05 -2.2088364741459064e-06
0.0002863152533797834 0.002613369510904994 0.0 0.0 1.779661757850341e-05 -3.146371812813387e-06
0.0003123291909240759 0.002601398657581801 0.0 0.0 -8.431007498402044e-05 -3.872889132051493e-06
0.00033732094972275064 0.002590683476037523 0.0 0.0 2.146588001778355e-05 -4.412179843944856e-06
0.00036118133927899425 0.002580901333573386 0.0 0.0 -8.087312085918979e-05 -4.790101599254522e-06
0.0003838390194906151 0.002571787296862239 0.0 0.0 2.4676944635846954e-05 -5.032280440541817e-06
0.00040525321370045924 0.0025631259625950313 0.0 0.0 -7.787883819081161e-05 -5.162701377094223e-06
0.00042540742873369025 0.00255474387862795 0.0 0.0 2.7465224179230472e-05 -5.202942359995398e-06
0.00044430416078066723 0.0025465027584914627 0.0 0.0 -7.528488535030048e-05 -5.171859765198538e-06
0.0004619605027214584 0.0025382935491678614 0.0 0.0 2.9876871185899215e-05 -5.085563654243054e-06
0.0004784045435706697 0.002530031329900537 0.0 0.0 -7.304356841455513e-05 -4.957568719855701e-06
0.0004936724464611838 0.0025216509778691297 0.0 0.0 3.195952751792878e-05 -4.7990385319369246e-06
0.0005078060980687833 0.002513103518306782 0.0 0.0 -7.11083785503555e-05 -4.61906959632865e-06
0.000520851233487462 0.002504353072390224 0.0 0.0 3.3757868530725566e-05 -4.424980830417669e-06
0.0005328559531489985 0.002495374319409589 0.0 0.0 -6.943689893249294e-05 -4.222588553656509e-06
0.000543869560710167 0.0024861503966584595 0.0 0.0 3.531182392874191e-05 -4.016456290776095e-06
0.0005539416621491481 0.0024766711688950682 0.0 0.0 -6.799177824389203e-05 -3.8101149624215327e-06
0.0005631214762967568 0.002466931807907918 0.0 0.0 3.6656169557518345e-05 -3.606252721481538e-06
0.000571457315641191 0.002456931630991625 0.0 0.0 -6.674075046481752e-05 -3.4068759527448964e-06
0.0005789962035563195 0.002446673154698919 0.0 0.0 3.782076740387313e-05 -3.2134440345876883e-06
0.0005857836002456277 0.0024361613269587553 0.0 0.0 -6.565622784563202e-05 -3.0269809898132477e-06
0.0005918632148132758 0.002425402906511156 0.0 0.0 3.8831073391799766e-05 -2.8481671725902346e-06
0.0005972768851151276 0.002414405963660908 0.0 0.0 -6.471473920066245e-05 -2.67741403137608e-06
0.0006020645105412475 0.0024031794806717945 0.0 0.0 3.970872030840706e-05 -2.514924658531407e-06
0.0006062640257531763 0.0023917330337792668 0.0 0.0 -6.389634813304342e-05 -2.360742555603646e-06
0.0006099114057524591 0.0023800765418773707 0.0 0.0 4.0472083562073495e-05 -2.214790681741695e-06
0.0006130406945739165 0.0023682200695246463 0.0 0.0 -6.318411279302756e-05 -2.0769025568161484e-06
0.0006156840514606729 0.0023561736740793315 0.0 0.0 4.113679024012832e-05 -1.9468468910636635e-06
0.0006178718096435196 0.0023439472885691775 0.0 0.0 -6.256361089186489e-05 -1.8243469830925014e-06
0.0006196325438757541 0.0023315506334002445 0.0 0.0 4.1716159042454464e-05 -1.7090958890416275e-06
0.000620993143697743 0.002318993151256021 0.0 0.0 -6.202253454533807e-05 -1.6007682053239094e-06
0.000621978890077371 0.0023062839605576275 0.0 0.0 4.222157183158019e-05 -1.4990291339791583e-06
0.000622613533604337 0.0022934318237102205 0.0 0.0 -6.155035058784045e-05 -1.4035413886321398e-06
0.0006229193728460822 0.002280445127056119 0.0 0.0 4.266278347226076e-05 -1.3139703881967643e-06
0.0006229173318141736 0.0022673318700289625 0.0 0.0 -6.11380184292067e-05 -1.2299880867214902e-06
0.0006226270357623915 0.0022540996614842756 0.0 0.0 4.304817850263711e-05 -1.1512757441172535e-06
0.0006220668847507715 0.002240755721561303 0.0 0.0 -6.077775666405138e-05 -1.0775258592927593e-06
0.0006212541245828429 0.0022273068877529893 0.0 0.0 4.338498331036384e-05 -1.0084434512802143e-06
0.0006202049148521695 0.0022137596241159838 0.0 0.0 -6.046285013340584e-05 -9.437468412273648e-07
0.0006189343939392663 0.0022001200327734596 0.0 0.0 4.367944167710865e-05 -8.831680524055399e-07
0.000617456740881635 0.002186393867028246 0.0 0.0 -6.018749013247574e-05 -8.264529095460167e-07
0.0006157852340943804 0.0021725865455462776 0.0 0.0 4.3936960361999513e-05 -7.733609313122366e-07
0.0006139323069732114 0.0021587031671894863 0.0 0.0 -5.994664159576134e-05 -7.236650529968852e-07
0.0006119096004390635 0.0021447485261613312 0.0 0.0 4.416223038064402e-05 -6.77151243155973e-07
0.0006097280125110553 0.0021307271272126113 0.0 0.0 -5.973593223441764e-05 -6.336180300842956e-07
0.0006073977450113502 0.00211664320070503 0.0 0.0 4.4359328491233455e-05 -5.928759863483158e-07
0.0006049283475188802 0.0021025007173907733 0.0 0.0 -5.9551559532961765e-05 -5.547471707108222e-07
0.0006023287586913159 0.0020883034027918503 0.0 0.0 4.453180255012802e-05 -5.190645675645785e-07
0.0005996073450851991 0.002074054751101961 0.0 0.0 -5.9390212284691384e-05 -4.856715078325677e-07
0.000596771937598663 0.0020597580385609895 0.0 0.0 4.4682743699974966e-05 -4.544211106652927e-07
0.0005938298656643018 0.002045416336263055 0.0 0.0 -5.924900411752467e-05 -4.251757254405703e-07
0.0005907879893173061 0.0020310325223787703 0.0 0.0 4.481484767308245e-05 -3.9780639662570635e-07
0.000587652729257619 0.0020166092937855757 0.0 0.0 -5.912541686913051e-05 -3.721923434391928e-07
0.000584430095025027 0.002002149177106641 0.0 0.0 4.493046714880238e-05 -3.482204721898523e-07
0.0005811257113954607 0.0019876545391638877 0.0 0.0 -5.901725215030451e-05 -3.257848965452408e-07
0.0005777448431114561 0.001973127596866902 0.0 0.0 4.503165659896732e-05 -3.047864957496198e-07
0.0005742924180416145 0.0019585704265459676 0.0 0.0 -5.8922589775204466e-05 -2.851324845293572e-07
0.000570773048871364 0.0019439849727526065 0.0 0.0 4.512021087601755e-05 -2.667360200085992e-07
0.0005671910534131998 0.001929373056549708 0.0 0.0 -5.883975191770235e-05 -2.495158154573133e-07
0.0005635504736245454 0.0019147363833142438 0.0 0.0 4.519769848581928e-05 -2.3339579039471686e-07
0.0005598550934154622 0.0019000765500733173 0.0 0.0 -5.87672721944633e-05 -2.1830473718006038e-07
0.0005561084553192837 0.0018853950523980176 0.0 0.0 4.526549040053318e-05 -2.041760011927459e-07
0.0005523138761031014 0.0018706932908844351 0.0 0.0 -5.870386883398101e-05 -1.9094719148584531e-07
0.0005484744613855446 0.0018559725772310702 0.0 0.0 4.5324784985649306e-05 -1.7855989982678948e-07
0.0005445931193206427 0.001841234139945689 0.0 0.0 -5.864842145817089e-05 -1.6695944940139538e-07
0.0005406725734145906 0.0018264791297062629 0.0 0.0 4.537662967802865e-05 -1.5609464338391284e-07
0.0005367153745266169 0.001811708624378509 0.0 0.0 -5.859995086117463e-05 -1.4591753966290656e-07
0.0005327239121095716 0.0017969236337336244 0.0 0.0 4.542193983623187e-05 -1.363832427488153e-07
0.0005287004247393666 0.0017821251038677372 0.0 0.0 -5.855760145885526e-05 -1.2744969926805185e-07
0.0005246470099768837 0.0017673139213434958 0.0 0.0 4.546151509135564e-05 -1.1907751269009045e-07
0.000520565633609845 0.0017524909170818824 0.0 0.0 -5.8520625986080736e-05 -1.1122976960033183e-07
0.0005164581383125831 0.0017376568700044012 0.0 0.0 4.549605365906917e-05 -1.0387187165738576e-07
0.0005123262517636062 0.0017228125104539688 0.0 0.0 -5.848837219167742e-05 -9.697138984680886e-08
0.0005081715942566748 0.0017079585234018597 0.0 0.0 4.5526164728344407e-05 -9.04979092006394e-08
0.000503995685835657 0.0016930955514608574 0.0 0.0 -5.8460271244873655e-05 -8.442290742671039e-08
0.0004997999529904526 0.0016782241977075603 0.0 0.0 4.5552379285342744e-05 -7.871961322473021e-08
0.0004955857349391253 0.0016633450283324925 0.0 0.0 -5.843582763152605e-05 -7.336290352863645e-08
0.00049135428952471 0.0016484585751340773 0.0 0.0 4.557515956810001e-05 -6.832918067207344e-08
0.00048710679875558474 0.00163356533785681 0.0 0.0 -5.841461038683874e-05 -6.359627111138678e-08
0.00048284437400916236 0.0016186657863855286 0.0 0.0 4.5594907183365034e-05 -5.9143332107746034e-08
0.00047856806092500226 0.0016037603628150064 0.0 0.0 -5.8396245466305324e-05 -5.495075039495343e-08
0.00047427884401028187 0.001588849483399094 0.0 0.0 4.561197024808834e-05 -5.1000065770620984e-08
0.0004699776509717223 0.0015739335403759346 0.0 0.0 -5.838040913575904e-05 -4.727388160493057e-08
0.00046566535680260524 0.0015590129036973702 0.0 0.0 4.562664954661528e-05 -4.375578650003386e-08
0.00046134278763413695 0.001544087922659908 0.0 0.0 -5.836682224947241e-05 -4.043029881592658e-08
0.00045701072437012914 0.0015291589274361288 0.0 0.0 4.563920382172869e-05 -3.72827707208331e-08
0.0004526699061274435 0.0015142262305317586 0.0 0.0 -5.835524533090669e-05 -3.429934845834096e-08
0.0004483210334886196 0.00149929012816142 0.0 0.0 4.564985434937362e-05 -3.14668925886644e-08
0.0004439647715853428 0.0014843509015507025 0.0 0.0 -5.834547432741937e-05 -2.877294427212516e-08
0.00043960175302584445 0.0014694088181745632 0.0 0.0 4.565878885286071e-05 -2.6205636744966714e-08
0.00043523258068039425 0.0014544641329345726 0.0 0.0 -5.8337337018723036e-05 -2.3753674276453737e-08
0.00043085783033511917 0.0014395170892812434 0.0 0.0 4.566616479790425e-05 -2.140625835064195e-08
0.0004264780532256891 0.0014245679202831091 0.0 0.0 -5.8330689988254024e-05 -1.9153060721297833e-08
0.00042209377846335943 0.0014096168496577652 0.0 0.0 4.567211218538584e-05 -1.6984153968153167e-08
0.00041770551536496185 0.0013946640927526965 0.0 0.0 -5.832541608306158e-05 -1.4890008413217214e-08
0.00041331375569382485 0.001379709857496981 0.0 0.0 4.5676735824993304e-05 -1.286138905603031e-08
0.0004089189758246781 0.0013647543453156848 0.0 0.0 -5.832142235094194e-05 -1.0889373614408546e-08
0.0004045216388409364 0.0013497977520076534 0.0 0.0 4.568011722081789e-05 -8.96528782337808e-09
0.0004001221965705699 0.001334840268620664 0.0 0.0 -5.831863840594174e-05 -7.0806531116325046e-09
0.00039572109157909926 0.0013198820822891437 0.0 0.0 4.56823159817847e-05 -5.227177651877593e-09
0.00039131875911311957 0.0013049233770537783 0.0 0.0 -5.8317015180822315e-05 -3.3967043695424214e-09
0.00038691562902054696 0.001289964334676897 0.0 0.0 4.568337084623472e-05 -1.5811701913059917e-09
0.0003825121276395418 0.0012750051354379474 0.0 0.0 -5.8316524026515745e-05 2.2741685292738956e-10
0.0003781086796769306 0.001260045958934766 0.0 0.0 4.5683300411006756e-05 2.0370178082295895e-09
0.000373705710077826 0.0012450869848721039 0.0 0.0 -5.83171563150321e-05 3.855601661399179e-09
0.0003693036458965659 0.0012301283938526066 0.0 0.0 4.568210347238801e-05 5.69117808880016e-09
0.0003649029181791813 0.0012151703681778047 0.0 0.0 -5.8318923168904514e-05 7.551828951025616e-09
0.0003605039638568782 0.0012002130926482555 0.0 0.0 4.56797589543994e-05 9.445760064852489e-09
0.0003561072276772511 0.0011852567553825666 0.0 0.0 -5.832185567521402e-05 1.1381300386999974e-08
0.00035171316415803257 0.0011703015486477994 0.0 0.0 4.5676225541697e-05 1.3366999478592236e-08
0.00034732223959289815 0.001155347669709626 0.0 0.0 -5.832600552422001e-05 1.5411597850602688e-08
0.00034293493410819187 0.0011403953217018375 0.0 0.0 4.567144101402668e-05 1.7524122999121403e-08
0.0003385517437760404 0.0011254447145328018 0.0 0.0 -5.833144580594371e-05 1.9713893811444325e-08
0.00033417318280746594 0.0011104960658197074 0.0 0.0 4.566532105792489e-05 2.1990578167241023e-08
0.000329799785816104 0.0010955496018448872 0.0 0.0 -5.8338272356792944e-05 2.436423033908442e-08
0.000325432110183389 0.0010806055585686383 0.0 0.0 4.565775789089311e-05 2.6845353453012685e-08
0.0003210707385183772 0.0010656641826853083 0.0 0.0 -5.834660543079049e-05 2.9444917472570137e-08
0.00031671628123467464 0.0010507257327162314 0.0 0.0 4.5648618256855346e-05 3.2174440200418916e-08
0.00031236937925164973 0.0010357904801778462 0.0 0.0 -5.8356591845799876e-05 3.504602075926101e-08
0.0003080307068308471 0.0010208587107940245 0.0 0.0 4.563774114633122e-05 3.807241731016049e-08
0.0003037009745666608 0.0010059307257735263 0.0 0.0 -5.836840756949643e-05 4.1267077997299804e-08
0.0002993809325416427 0.0009910068431902602 0.0 0.0 4.562493486355568e-05 4.464424554296914e-08
0.00029507137365778423 0.0009760873994135728 0.0 0.0 -5.838226079663174e-05 4.821898312730964e-08
0.00029077313716851806 0.0009611727506430659 0.0 0.0 4.560997371638579e-05 5.20072966311326e-08
0.0002864871124229497 0.0009462632745309354 0.0 0.0 -5.8398395723806675e-05 5.6026172492356155e-08
0.00028221424283911625 0.0009313593719209796 0.0 0.0 4.5592593944891865e-05 6.029370159968492e-08
0.0002779555301325732 0.0009164614687068387 0.0 0.0 -5.8417096907968256e-05 6.482914855431791e-08
0.00027371203881868303 0.0009015700178021499 0.0 0.0 4.5572488970300465e-05 6.965309028953304e-08
0.0002694849010029335 0.0008866855012732186 0.0 0.0 -5.843869430807421e-05 7.47874812366588e-08
0.00026527532151018874 0.0008718084326068977 0.0 0.0 4.554930390305244e-05 8.025583744927442e-08
0.0002610845833492768 0.0008569393591471348 0.0 0.0 -5.8463569389906886e-05 8.608334248758672e-08
0.0002569140535723923 0.0008420788647319712 0.0 0.0 4.5522628967323633e-05 9.229701239345158e-08
0.0002527651895345196 0.0008272275725289119 0.0 0.0 -5.8492162097470045e-05 9.892588066252872e-08
0.00024863954562499054 0.0008123861480789196 0.0 0.0 4.5491991972345996e-05 1.0600117221449493e-07
0.0002445387804721238 0.0007975553026012445 0.0 0.0 -5.8524979132112314e-05 1.1355655451107238e-07
0.00024046466470874832 0.0007827357965719357 0.0 0.0 4.545684928529111e-05 1.2162836843612225e-07
0.00023641908931645265 0.0007679284436004129 0.0 0.0 -5.8562603725774084e-05 1.302558973677358e-07
0.0002324040746272831 0.0007531341146255724 0.0 0.0 4.541657522826037e-05 1.39481732543416e-07
0.00022842178004151725 0.000738353742505793 0.0 0.0 -5.8605707185483335e-05 1.4935211077810387e-07
0.00022447451453507005 0.0007235883270167586 0.0 0.0 4.5370449300255944e-05 1.5991733970648504e-07
0.0002205647480300534 0.0007088389402790028 0.0 0.0 -5.865506292158733e-05 1.7123231721167392e-07
0.00021669512375559904 0.0006941067327182499 0.0 0.0 4.531764097011142e-05 1.8335705063868366e-07
0.00021286847167170477 0.0006793929395887648 0.0 0.0 -5.8711563384132885e-05 1.9635736722603114e-07
0.00020908782309653025 0.0006646988881200956 0.0 0.0 4.525719065758861e-05 2.1030565584693236e-07
0.00020535642668911863 0.0006500260053731607 0.0 0.0 -5.877624107354087e-05 2.2528177272328285e-07
0.0002016777659392319 0.0006353758268948866 0.0 0.0 4.518798632839279e-05 2.413741080866316e-07
0.0001980555783620955 0.0006207500062353856 0.0 0.0 -5.885029502259863e-05 2.5868082459521054e-07
0.00019449387662406052 0.0006061503254441522 0.0 0.0 4.510873352950415e-05 2.773113256737073e-07
0.00019099697184849903 0.0005915787066974487 0.0 0.0 -5.893512478481375e-05 2.973880027652394e-07
0.0001875694994121881 0.0005770372251170013 0.0 0.0 4.5017916577823466e-05 3.190483120512266e-07
0.0001842164475803881 0.0005625281229500632 0.0 0.0 -5.903237496680575e-05 3.424472273825868e-07
0.00018094318938194446 0.0005480538252785093 0.0 0.0 4.4913747060701436e-05 3.677602034491594e-07
0.00017775551823522227 0.0005336169573968905 0.0 0.0 -5.914399507591468e-05 3.951866790096381e-07
0.00017465968784121383 0.000519220364062247 0.0 0.0 4.479409414365871e-05 4.249543827611422e-07
0.00017166245705570665 0.0005048671307521127 0.0 0.0 -5.927232111553192e-05 4.5732434470055136e-07
0.000168771140486058 0.0004905606071730741 0.0 0.0 4.4656388560530445e-05 4.92597285172325e-07
0.00016599366574427085 0.0004763044331634065 0.0 0.0 -5.9420189251586973e-05 5.311208501086869e-07
0.0001633386384083124 0.0004621025672513061 0.0 0.0 4.4497487757650354e-05 5.732993190831056e-07
0.00016081541600338335 0.00044795931787727794 0.0 0.0 -5.959109643467221e-05 6.196040240385656e-07
0.00015843419239372052 0.0004338793776426763 0.0 0.0 4.4313484355402175e-05 6.705888751314159e-07
0.00015620609449232799 0.00041986786018509143 0.0 0.0 -5.978943070383022e-05 7.26904529231619e-07
0.00015414329297995562 0.0004059303404837265 0.0 0.0 4.4099430826401165e-05 7.893258862159708e-07
0.00015225913006008674 0.0003920728966240034 0.0 0.0 -6.0020805452452386e-05 8.587675643759477e-07
0.00015056826563360678 0.00037830215581852774 0.0 0.0 4.384894138900384e-05 9.363402806057686e-07
0.00014908684754758072 0.00036462533727546546 0.0 0.0 -6.029254972243531e-05 1.0233516054995511e-06
0.0001478327044198558 0.00035105030261758534 0.0 0.0 4.355361704508711e-05 1.121443990530842e-06
0.00014682557418706942 0.0003375855873515287 0.0 0.0 -6.061443944032144e-05 1.2325093116175023e-06
0.0001460873538992293 0.0003242404546253879 0.0 0.0 4.32022289650212e-05 1.3590864993988285e-06
0.00014564240897319122 0.0003110248763675619 0.0 0.0 -6.0999814482811656e-05 1.5039046182550083e-06
0.00014551787663106774 0.0002979495985005491 0.0 0.0 4.277962145770643e-05 1.6711664279003965e-06
0.0001457440910456891 0.0002850259479986675 0.0 0.0 -6.146737253228231e-05 1.8646289578399871e-06
0.0001463548750143749 0.0002722659704733319 0.0 0.0 4.226549344578563e-05 2.092027114370624e-06
0.00014738815251022822 0.0002596816540310226 0.0 0.0 -6.204434514562327e-05 2.357595991741559e-06
0.00014888592572395536 0.0002472854343300534 0.0 0.0 4.163408821314884e-05 2.6778386631694847e-06
0.0001508952762721345 0.0002350874307854251 0.0 0.0 -6.277311241396043e-05 3.0532480634749663e-06
0.00015346685204467884 0.00022309755139926794 0.0 0.0 4.0859253341866226e-05 3.5254488854164585e-06
0.00015665694355922915 0.0002113157484022989 0.0 0.0 -6.372801750916392e-05 4.071629710412092e-06
0.0001605200807272841 0.00019974045441721158 0.0 0.0 3.9942381582250665e-05 4.813298735166483e-06
0.00016511457476612267 0.0001883334577406252 0.0 0.0 -6.50658334536557e-05 5.62434258584855e-06
0.00017047252501271122 0.00017705155064340577 0.0 0.0 3.90306624200741e-05 6.896890097099809e-06
0.00017661623854909144 0.00016571503890005815 0.0 0.0 -6.719099584780674e-05 8.087108894532001e-06
0.00018343898399702708 0.00015411802743598213 0.0 0.0 3.889691161075288e-05 1.0536889247651652e-05
0.00019074787600822438 0.00014150818174193768 0.0 0.0 -7.128939178431093e-05 1.2031178142411325e-05
0.00019776211621830268 0.00012696630416996843 0.0 0.0 4.309688073656686e-05 1.7354676096981484e-05
0.00020318024115959985 0.00010726668083484874 0.0 0.0 -8.057528212308406e-05 1.689635793296969e-05
0.0002029267549269034 7.995747213020835e-05 0.0 0.0 7.225403756962092e-05 2.8703038713836647e-05
0.0001922409743453274 5.82306022272752e-05 0.0 0.0 -7.975245057508288e-05 -1.7682768043536415e-05
0.00019511779484314258 5.191552031809992e-05 0.0 0.0 -0.020887262369006312 -0.00012251044325586722
-7.940933880509066e-23 0.0032041481250251742 0.0 0.0 -0.0017379380737940278 1.2281977735187355e-20
4.384972231780788e-06 0.0031627715387631742 0.0 0.0 -1.0012952775276723e-05 5.856297660985871e-06
9.56649803773448e-06 0.003082832321466903 0.0 0.0 -0.00011246816801128455 6.564947358088851e-06
1.810029729926224e-05 0.0030093255580458203 0.0 0.0 -6.655274739590449e-06 6.592976377030579e-06
3.014759097287159e-05 0.0029431523990694044 0.0 0.0 -0.0001087317645218652 6.279484463274429e-06
4.555008126500501e-05 0.0028843437204216496 0.0 0.0 -2.652832923192238e-06 5.699542409783054e-06
6.40029596761325e-05 0.0028326632730097385 0.0 0.0 -0.00010449679049224197 4.927661820475046e-06
8.510021765581328e-05 0.0027876961649044105 0.0 0.0 1.7222691491067916e-06 4.0312490269744185e-06
0.00010837198222289995 0.002748900074374174 0.0 0.0 -0.00010002320463348494 3.079242426677781e-06
0.00013332272986316023 0.0027156500238260904 0.0 0.0 6.237903828793819e-06 2.1305416301531137e-06
0.00015946159839112112 0.0026872828801543557 0.0 0.0 -9.55192660220996e-05 1.2309854394047326e-06
0.00018632559707283124 0.002663133104688436 0.0 0.0 1.0682508615375813e-05 4.128870989960323e-07
0.0002134956351993833 0.002642560008453426 0.0 0.0 -9.117534415322977e-05 -3.0419791792440215e-07
0.00024060587208977143 0.0026249668241273495 0.0 0.0 1.489192835957799e-05 -9.115378235752008e-07
0.0002673474412329058 0.002609812462992604 0.0 0.0 -8.71270378372762e-05 -1.408887190262252e-06
0.00029346789066799785 0.002596617221180263 0.0 0.0 1.8759787671092848e-05 -1.8019899937894528e-06
0.0003187677082855956 0.00258496383737126 0.0 0.0 -8.345237391809442e-05 -2.100359517805456e-06
0.00034309510836699097 0.00257449528110232 0.0 0.0 2.223434626162974e-05 -2.3154588404740664e-06
0.0003663399971070613 0.0025649104515228912 0.0 0.0 -8.017998918183108e-05 -2.4593588717284883e-06
0.00038842776733752983 0.0025559587247999576 0.0 0.0 2.5306370322963976e-05 -2.5438213265059715e-06
0.0004093133470097844 0.0025474340364775197 0.0 0.0 -7.730356018042153e-05 -2.579736954433801e-06
0.00042897574917824755 0.0025391689703891836 0.0 0.0 2.799411741872328e-05 -2.5768276858142045e-06
0.0004474132447369444 0.002531029152366492 0.0 0.0 -7.47961193864545e-05 -2.543535351294063e-06
0.00046463919342104934 0.0025229081189050966 0.0 0.0 3.0330538385099675e-05 -2.4870311330254773e-06
0.00048067851490413827 0.002514722740067281 0.0 0.0 -7.26209554879012e-05 -2.4132976159841224e-06
0.0004955647509417586 0.002506409215527703 0.0 0.0 3.235435483171144e-05 -2.327248648914548e-06
0.0005093376544392304 0.0024979196246557303 0.0 0.0 -7.073867307121923e-05 -2.232864105459727e-06
0.0005220412364421757 0.0024892189897292786 0.0 0.0 3.410464824022964e-05 -2.133324930191465e-06
0.0005337222034580931 0.002480282800552211 0.0 0.0 -6.911120874172376e-05 -2.0311400616841962e-06
0.0005444287224462902 0.00247109494517058 0.0 0.0 3.5617984673823213e-05 -1.9282608324700288e-06
0.0005542094574641197 0.0024616459922870777 0.0 0.0 -6.770379905631085e-05 -1.8261811848772067e-06
0.0005631128291691207 0.0024519317744786467 0.0 0.0 3.69271513528522e-05 -1.7260235956627129e-06
0.0005711864554588935 0.0024419522261453904 0.0 0.0 -6.648570925581478e-05 -1.6286115971361e-06
0.0005784767381059263 0.002431710435452991 0.0 0.0 3.8060824558052884e-05 -1.5345301922863714e-06
0.0005850285661196954 0.002421211874853212 0.0 0.0 -6.543027845320951e-05 -1.4441756953729589e-06
0.0005908851116940298 0.0024104637797972474 0.0 0.0 3.904372582702522e-05 -1.3577964712680016e-06
0.0005960876989794379 0.0023994746498336296 0.0 0.0 -6.451462757779455e-05 -1.2755260188524625e-06
0.0006006757296197545 0.0023882538503406116 0.0 0.0 3.9897000530565664e-05 -1.197409634916491e-06
0.0006046866520759246 0.002376811296688933 0.0 0.0 -6.371923081272283e-05 -1.1234258020126906e-06
0.0006081559643121325 0.0023651572056788057 0.0 0.0 4.063866986917181e-05 -1.0535032181250523e-06
0.000611117241515547 0.0023533019016809954 0.0 0.0 -6.302745900567774e-05 -9.875343018099178e-07
0.0006136021822284221 0.0023412556671067787 0.0 0.0 4.1284079048730445e-05 -9.253858206306477e-07
0.0006156406676625114 0.0023290286286672254 0.0 0.0 -6.242514855336147e-05 -8.669072134760019e-07
0.0006172608300865373 0.0023166306724133725 0.0 0.0 4.184630593205682e-05 -8.119370471961602e-07
0.0006184891270813917 0.0023040713818238893 0.0 0.0 -6.190021826517214e-05 -7.603079980506337e-07
0.0006193504191808092 0.0022913599942578685 0.0 0.0 4.233651729273092e-05 -7.118506438396829e-07
0.0006198680489961057 0.002278505371964054 0.0 0.0 -6.144234016236533e-05 -6.663963202277446e-07
0.0006200639203821047 0.002265515984552018 0.0 0.0 4.2764271602608065e-05 -6.237792347848494e-07
0.000619958576566486 0.002252399900416513 0.0 0.0 -6.104266197557741e-05 -5.838380001044663e-07
0.0006195712764528083 0.0022391647850926867 0.0 0.0 4.313777268340397e-05 -5.46416710960583e-07
0.0006189200685346121 0.002225817904912116 0.0 0.0 -6.0693575690623654e-05 -5.113656672269895e-07
0.0006180218620331788 0.0022123661346485743 0.0 0.0 4.346408067191132e-05 -4.785418229256012e-07
0.0006168924950079114 0.002198815968105672 0.0 0.0 -6.0388525400205146e-05 -4.4780902338286354e-07
0.0006155467992989342 0.0021851735308149995 0.0 0.0 4.3749287003883215e-05 -4.190380912246297e-07
0.0006139986622334245 0.0021714445941841787 0.0 0.0 -6.01218479375154e-05 -3.9210678297432787e-07
0.0006122610850973544 0.0021576345905683107 0.0 0.0 4.39986595864265e-05 -3.668996689021103e-07
0.0006103462384138161 0.0021437486288635684 0.0 0.0 -5.988864051014272e-05 -3.4330793694220107e-07
0.0006082655141028852 0.002129791510302818 0.0 0.0 4.421676361249412e-05 -3.2122917028275244e-07
0.0006060295746238471 0.0021157677442108533 0.0 0.0 -5.968465036990236e-05 -3.0056707761235996e-07
0.0006036483992133412 0.0021016815635368975 0.0 0.0 4.440756240942507e-05 -2.812312177858365e-07
0.0006011313273468011 0.0020875369400246585 0.0 0.0 -5.950618249829883e-05 -2.6313671226240853e-07
0.0005984870995525819 0.002073337598922563 0.0 0.0 4.457450207965728e-05 -2.462039527592467e-07
0.0005957238957133475 0.002059087033162496 0.0 0.0 -5.935002191733639e-05 -2.3035831571774357e-07
0.0005928493709883831 0.0020447885169632978 0.0 0.0 4.4720582839711544e-05 -2.1552987469790818e-07
0.0005898706894893517 0.0020304451188303345 0.0 0.0 -5.921336808778022e-05 -2.0165313538471818e-07
0.0005867945558354447 0.00201605971393451 0.0 0.0 4.484841946012874e-05 -1.8866675852854888e-07
0.0005836272447148015 0.0020016349958719517 0.0 0.0 -5.9093779163281175e-05 -1.7651331970640902e-07
0.0005803746285696779 0.0019871734878092267 0.0 0.0 4.496029273444446e-05 -1.651390640154801e-07
0.0005770422035218939 0.0019726775530246906 0.0 0.0 -5.8989124438759875e-05 -1.5449367407133425e-07
0.0005736351136428407 0.001958149404865693 0.0 0.0 4.505819343663753e-05 -1.445300562911945e-07
0.0005701581736765227 0.001943591116137147 0.0 0.0 -5.8897543633803584e-05 -1.3520413713320701e-07
0.0005666158903069931 0.0019290046279473194 0.0 0.0 4.5143860089073406e-05 -1.264746693770244e-07
0.0005630124820684233 0.0019143917580332552 0.0 0.0 -5.8817411874425966e-05 -1.1830305049129186e-07
0.0005593518979792908 0.0018997542085899357 0.0 0.0 4.521881145250835e-05 -1.1065315551702813e-07
0.0005556378349850236 0.0018850935736310988 0.0 0.0 -5.8747309521429265e-05 -1.0349116835029057e-07
0.0005518737542859235 0.0018704113458966288 0.0 0.0 4.528437458228862e-05 -9.67854416068217e-08
0.000548062896620426 0.0018557089233433854 0.0 0.0 -5.868599603641269e-05 -9.050635231137904e-08
0.000544208296572089 0.0018409876152361841 0.0 0.0 4.534170910695074e-05 -8.462616759490147e-08
0.0005403127959663894 0.001826248647860892 0.0 0.0 -5.863238743082676e-05 -7.911892275239358e-08
0.000536379056411435 0.0018114931698871772 0.0 0.0 4.5391828308248474e-05 -7.396030677269761e-08
0.0005324095710423872 0.0017967222573890811 0.0 0.0 -5.8585536584604436e-05 -6.91275534733739e-08
0.0005284066755206396 0.0017819369185649333 0.0 0.0 4.543561737750776e-05 -6.459933867892413e-08
0.0005243725583355916 0.001767138098160832 0.0 0.0 -5.854461625006042e-05 -6.035568662915306e-08
0.0005203092704562348 0.0017523266816118791 0.0 0.0 4.5473849329574745e-05 -5.6377880915917285e-08
0.0005162187343758118 0.0017375034989288614 0.0 0.0 -5.8508904205744326e-05 -5.264838270744752e-08
0.0005121027525853033 0.0017226693283474389 0.0 0.0 4.550719881217622e-05 -4.915074719414551e-08
0.000507963015519886 0.0017078248997505542 0.0 0.0 -5.8477770360740506e-05 -4.586955911433342e-08
0.0005038011090091832 0.0016929708978746197 0.0 0.0 4.5536254152603686e-05 -4.2790351689487444e-08
0.0004996185212654406 0.0016781079653204625 0.0 0.0 -5.845066555131603e-05 -3.989956232959167e-08
0.0004954166494413488 0.0016632367053844423 0.0 0.0 4.5561527786185585e-05 -3.718444660202099e-08
0.000491196805784077 0.0016483576847111277 0.0 0.0 -5.842711177837475e-05 -3.463304951107976e-08
0.00048696022341753663 0.0016334714357822305 0.0 0.0 4.558346540430296e-05 -3.2234125979524464e-08
0.0004827080617737236 0.0016185784592644557 0.0 0.0 -5.8406693727584055e-05 -2.997711145188552e-08
0.00047844141169888556 0.0016036792262114938 0.0 0.0 4.5602453787985434e-05 -2.7852068261804714e-08
0.0004741613002590817 0.0015887741801371498 0.0 0.0 -5.838905141548423e-05 -2.5849630247464558e-08
0.0004698686952613416 0.0015738637389686122 0.0 0.0 4.561882770023678e-05 -2.3960987311682017e-08
0.0004655645095161089 0.0015589482968841372 0.0 0.0 -5.837387382060964e-05 -2.217781903929945e-08
0.00046124960485721163 0.001544028226051439 0.0 0.0 4.563287577258291e-05 -2.0492272202374782e-08
0.00045692479593576016 0.0015291038782640522 0.0 0.0 -5.836089342072209e-05 -1.889693210444703e-08
0.00045259085380716223 0.0015141755864870924 0.0 0.0 4.5644845644843605e-05 -1.7384763459371306e-08
0.0004482485093248095 0.0014992436663278277 0.0 0.0 -5.834988139997988e-05 -1.59491237578511e-08
0.00044389845635891444 0.0014843084174230698 0.0 0.0 4.5654948295567295e-05 -1.458368057219439e-08
0.0004395413548510818 0.0014693701247573123 0.0 0.0 -5.834064366281829e-05 -1.328242937994684e-08
0.0004351778337171954 0.0014544290599209577 0.0 0.0 4.5663361797511695e-05 -1.2039639525141324e-08
0.0004308084936186087 0.0014394854823004102 0.0 0.0 -5.833301738271239e-05 -1.084984644614045e-08
0.00042643390960546814 0.0014245396402219992 0.0 0.0 4.567023444324936e-05 -9.707798370836747e-09
0.00042205463364643284 0.0014095917720469153 0.0 0.0 -5.832686814410634e-05 -8.608485380806087e-09
0.0004176711970594957 0.0013946421072189232 0.0 0.0 4.567568734411371e-05 -7.547056108205864e-09
0.0004132841128527696 0.0013796908672804155 0.0 0.0 -5.8322087563743774e-05 -6.5188440204677275e-09
0.0004088938779774874 0.001364738266836551 0.0 0.0 4.567981663250258e-05 -5.519323720390608e-09
0.0004045009755222137 0.0013497845145054425 0.0 0.0 -5.8318591395864266e-05 -4.544092201748829e-09
0.00040010587683306 0.0013348298138410378 0.0 0.0 4.568269508508445e-05 -3.5888581674612535e-09
0.0003957090435916445 0.0013198743642242675 0.0 0.0 -5.831631800639193e-05 -2.649419692695495e-09
0.00039131092984605613 0.0013049183617441667 0.0 0.0 4.568437344436825e-05 -1.7216349829053332e-09
0.00038691198401167757 0.0012899620000625315 0.0 0.0 -5.831522731026856e-05 -8.014288180573786e-10
0.00038251265084202513 0.00127500547126602 0.0 0.0 4.568488127147305e-05 1.1526038543735462e-10
0.00037811337339105946 0.0012600489667063505 0.0 0.0 -5.831530007743455e-05 1.0324633804154049e-09
0.0003737145949605957 0.0012450926778517352 0.0 0.0 4.568422756694103e-05 1.9542214630915468e-09
0.0003693167610529461 0.0012301367971344788 0.0 0.0 -5.831653757995699e-05 2.8845882656786635e-09
0.00036492032133547187 0.0012151815187950482 0.0 0.0 4.568240082134824e-05 3.827670378732644e-09
0.00036052573161840653 0.0012002270397387948 0.0 0.0 -5.831896160398754e-05 4.787615892978565e-09
0.0003561334558634818 0.0011852735604062344 0.0 0.0 4.567936885479585e-05 5.768658206824727e-09
0.0003517439682299302 0.001170321285664333 0.0 0.0 -5.832261483956942e-05 6.775118695939459e-09
0.0003473577551629316 0.0011553704257070939 0.0 0.0 4.567507828235674e-05 7.811442939589883e-09
0.00034297531754116196 0.0011404211969906286 0.0 0.0 -5.8327561638628345e-05 8.882193421196581e-09
0.0003385971728851805 0.0011254738231959757 0.0 0.0 4.566945350120645e-05 9.992101153107925e-09
0.0003342238576398304 0.0011105285362114875 0.0 0.0 -5.833388915501051e-05 1.1146066959048621e-08
0.00032985592954570657 0.0010955855771779101 0.0 0.0 4.566239543516901e-05 1.2349189789414693e-08
0.00032549397010518433 0.0010806451975651564 0.0 0.0 -5.8341708843251405e-05 1.3606787054401027e-08
0.0003211385871486145 0.001065707660285065 0.0 0.0 4.565377972638924e-05 1.4924436323230077e-08
0.0003167904175304664 0.0010507732408737598 0.0 0.0 -5.835115848312582e-05 1.6307961829900575e-08
0.0003124501299501056 0.0010358422287324355 0.0 0.0 4.5643454572403966e-05 1.7763515773551106e-08
0.0003081184279168697 0.0010209149284315755 0.0 0.0 -5.836240462154499e-05 1.9297553303693378e-08
0.0003037960528811152 0.0010059916610808087 0.0 0.0 4.563123800877195e-05 2.091691517029908e-08
0.0002994837875247226 0.000991072765790936 0.0 0.0 -5.8375645456157105e-05 2.2628808792925226e-08
0.0002951824592610648 0.0009761586012296817 0.0 0.0 4.5616914628209384e-05 2.4440899776918476e-08
0.00029089294392542817 0.0009612495472577606 0.0 0.0 -5.839111445462121e-05 2.636128951835192e-08
0.0002866161697021222 0.000946346006679311 0.0 0.0 4.5600231839425936e-05 2.839862041782281e-08
0.0002823531212947953 0.0009314484071099487 0.0 0.0 -5.8409084562161895e-05 3.0562073214616264e-08
0.0002781048443599895 0.0009165572029812925 0.0 0.0 4.558089518595892e-05 3.286143929811126e-08
0.0002738724502446308 0.0009016728776777771 0.0 0.0 -5.842987309029454e-05 3.530717638091166e-08
0.00026965712103200454 0.0008867959458291679 0.0 0.0 4.5558563020088464e-05 3.791045301607902e-08
0.0002654601149371536 0.0008719269557842368 0.0 0.0 -5.845384758370502e-05 4.0683225802301895e-08
0.00026128277208803006 0.0008570664922678446 0.0 0.0 4.553284017063124e-05 4.363831595057856e-08
0.0002571265207112264 0.0008422151792491909 0.0 0.0 -5.8481432702192204e-05 4.678950849836515e-08
0.0002529928837799799 0.0008273736830356683 0.0 0.0 4.5503270503050204e-05 5.015157124863608e-08
0.0002488834861551958 0.0008125427156335102 0.0 0.0 -5.851311827577139e-05 5.374046797488024e-08
0.0002448000622798614 0.0007977230383917621 0.0 0.0 4.546932802166194e-05 5.757338365081077e-08
0.0002407444644658638 0.000782915465959099 0.0 0.0 -5.854946907030557e-05 6.166890922801403e-08
0.0002367186718568342 0.0007681208705977726 0.0 0.0 4.5430406355436445e-05 6.604715573369987e-08
0.00023272480012450549 0.0007533401868958443 0.0 0.0 -5.859113628155547e-05 7.072997141785702e-08
0.00022876511198014905 0.0007385744169255544 0.0 0.0 4.538580599237267e-05 7.574109602990955e-08
0.0002248420286044647 0.0007238246358917773 0.0 0.0 -5.8638871609987707e-05 8.110641859190339e-08
0.0002209581420967531 0.0007090919983453487 0.0 0.0 4.5334718649028046e-05 8.685423195388918e-08
0.00021711622906683242 0.000694377745041324 0.0 0.0 -5.8693544663199594e-05 9.301554865811905e-08
0.00021331926551686127 0.0006796832104836284 0.0 0.0 4.527620801827526e-05 9.962444004040644e-08
0.00020957044318358948 0.0006650098312962751 0.0 0.0 -5.875616462306852e-05 1.0671849695576777e-07
0.00020587318753375645 0.0006503591555118679 0.0 0.0 4.5209185138058794e-05 1.1433928730686035e-07
0.00020223117763792396 0.0006357328528920677 0.0 0.0 -5.882790803777584e-05 1.2253294826133822e-07
0.00019864836821274203 0.0006211327264371029 0.0 0.0 4.5132376848068404e-05 1.313508943338827e-07
0.00019512901411446073 0.000606560725237578 0.0 0.0 -5.8910155108580836e-05 1.4085062456084194e-07
0.00019167769770191348 0.0005920189588691266 0.0 0.0 4.5044283954565533e-05 1.5109667644765557e-07
0.00018829935948955787 0.0005775097135425531 0.0 0.0 -5.900453799318091e-05 1.6216181546603158e-07
0.0001849993326230829 0.0005630354702514615 0.0 0.0 4.4943125011534524e-05 1.7412841681280298e-07
0.00018178338182697897 0.0005485989252309041 0.0 0.0 -5.9113006653519927e-05 1.8709010408848696e-07
0.0001786577475535216 0.0005342030130759928 0.0 0.0 4.482675876505359e-05 2.011538156849275e-07
0.00017562919629394614 0.000519850932846567 0.0 0.0 -5.9237920574900776e-05 2.1644216092293282e-07
0.00017270507807171545 0.0005055461777063719 0.0 0.0 4.4692575484764916e-05 2.330964230699232e-07
0.00016989339252597741 0.0004912925685913009 0.0 0.0 -5.9382178345446885e-05 2.512800731693495e-07
0.00016720286510872123 0.00047709429255691463 0.0 0.0 4.4537341582240016e-05 2.711833194383355e-07
0.000164643035445987 0.0004629559465173617 0.0 0.0 -5.954940473728112e-05 2.930281846498777e-07
0.0001622243601434266 0.00044888258739698853 0.0 0.0 4.435697394072967e-05 3.1707575789269304e-07
0.00015995833312902808 0.0004348797895309507 0.0 0.0 -5.9744224864866123e-05 3.4363351307672117e-07
0.0001578576269626014 0.0004209537111882645 0.0 0.0 4.414620677821251e-05 3.730674653076643e-07
0.00015593626003973434 0.00040711117078431327 0.0 0.0 -5.997267304947416e-05 4.0581207020609026e-07
0.00015420979459834864 0.00039335973690145845 0.0 0.0 4.389809298725885e-05 4.4239303002662194e-07
0.0001526955742303654 0.00037970783076250465 0.0 0.0 -6.024281371501796e-05 4.834369460395872e-07
0.00015141300700977596 0.0003661648520705063 0.0 0.0 4.3603245998793515e-05 5.297215067838782e-07
0.00015038391170822432 0.0003527413179793084 0.0 0.0 -6.056570711464489e-05 5.82168428919414e-07
0.00014963293102557819 0.00033944904880276323 0.0 0.0 4.324867288121501e-05 6.419741331366866e-07
0.00014918805294961986 0.00032630135444184955 0.0 0.0 -6.0956959776331575e-05 7.105143622737056e-07
0.00014908122508712018 0.00031331333466505794 0.0 0.0 4.281596412839504e-05 7.897362601076317e-07
0.0001493491753451569 0.00030050210964360454 0.0 0.0 -6.14393366977909e-05 8.816900983457578e-07
0.0001500343342464954 0.00028788737938267086 0.0 0.0 4.227850605158603e-05 9.898215339970403e-07
0.00015118621277994648 0.00027549161108181253 0.0 0.0 -6.204749770191459e-05 1.1170433510044502e-06
0.00015286276612248249 0.000263341290857056 0.0 0.0 4.159740189460916e-05 1.270228065771502e-06
0.00015513293660106975 0.0002514666114971743 0.0 0.0 -6.283755761996045e-05 1.4527381462102647e-06
0.0001580784964293916 0.00023990482817525546 0.0 0.0 4.071657160428419e-05 1.680493081798154e-06
0.00016179938819617124 0.0002286975048118402 0.0 0.0 -6.390922984700884e-05 1.9537719049307753e-06
0.00016641536018601293 0.00021790080343423346 0.0 0.0 3.95617290959026e-05 2.315536377092719e-06
0.0001720789907528464 0.00020757253975420102 0.0 0.0 -6.546521167326833e-05 2.74630117225855e-06
0.00017897298493310058 0.00019780626702105224 0.0 0.0 3.806583920228654e-05 3.3777037758468903e-06
0.00018734665291859654 0.00018867740334784037 0.0 0.0 -6.799302845466779e-05 4.103123345834182e-06
0.00019748987452324385 0.00018035981222983672 0.0 0.0 3.6312411214241194e-05 5.365891532877593e-06
0.00020984639653227717 0.00017290160379121783 0.0 0.0 -7.289439406310636e-05 6.720282304464409e-06
0.00022487791492407867 0.0001666272926614953 0.0 0.0 3.515531042650659e-05 9.786747237215698e-06
0.00024344511280720814 0.00016107659029906688 0.0 0.0 -8.50500567240349e-05 1.2857683041291078e-05
0.0002660519880560285 0.00015648430560980016 0.0 0.0 3.937606832787096e-05 2.2544200758452932e-05
0.00029417894081667037 0.00014559616602134677 0.0 0.0 -0.00012698975142353178 3.048056989156541e-05
0.00032074125102830983 0.00012129544305518433 0.0 0.0 0.00011169169292319704 5.954521202377488e-05
0.0003135829891663341 0.00010611182172787875 0.0 0.0 0.021100543980829913 -0.00021294191473591925
1.0587911840678754e-22 0.0032102994979090202 0.0 0.0 -0.0016363243563058587 -1.2705494208814505e-20
4.134408179753429e-06 0.0031691608122980225 0.0 0.0 -0.00011342725486490442 6.023269922650169e-15
9.04624132809991e-06 0.0030895654327142744 0.0 0.0 -7.988511984466249e-06 6.1250841299430835e-15
1.715253668637911e-05 0.0030161094930333953 0.0 0.0 -0.00011029450942305921 5.763154574877846e-15
2.863750284440504e-05 0.002949679055499898 0.0 0.0 -4.41782117772358e-06 5.357254692487691e-15
4.3384545909888404e-05 0.002890348330667055 0.0 0.0 -0.0001064567749890754 4.9493558123420156e-15
6.113371507837759e-05 0.002837946054160786 0.0 0.0 -3.857653228253946e-07 4.5390428882966655e-15
8.15244216122127e-05 0.0027921241490352195 0.0 0.0 -0.00010224886502341816 4.130078440703344e-15
0.00010412989879789342 0.002752403098710919 0.0 0.0 3.9287531016672845e-06 3.749472656184097e-15
0.00012848787246328293 0.0027182162137568073 0.0 0.0 -9.787674008908935e-05 3.3853806260045194e-15
0.00015412993979928508 0.002688947398400691 0.0 0.0 8.309990563401694e-06 3.020146795412043e-15
0.0001806051878887542 0.002663965569567902 0.0 0.0 -9.353259326534973e-05 2.740646251608858e-15
0.0002074974597874291 0.002642652375682468 0.0 0.0 1.2576125409308084e-05 2.456619163735546e-15
0.00023443654807541332 0.00262442272189585 0.0 0.0 -8.937960225006831e-05 2.2536497407826817e-15
0.00026110405494752945 0.0026087385353428644 0.0 0.0 1.6587624218883677e-05 1.9483519615379197e-15
0.0002872349217756725 0.00259511666999374 0.0 0.0 -8.553142358718874e-05 1.7313353441877899e-15
0.0003126157197936646 0.002583132086144092 0.0 0.0 2.0257002978754646e-05 1.545808023684786e-15
0.0003370807642597567 0.00257241745937892 0.0 0.0 -8.20506226096657e-05 1.4003284209279654e-15
0.0003605069644633628 0.00256266030816752 0.0 0.0 2.3544448575657458e-05 1.2320670200217931e-15
0.0003828081275792515 0.0025535985658920748 0.0 0.0 -7.895716142157929e-05 1.1132181331266477e-15
0.000403929230788721 0.0025450153344080957 0.0 0.0 2.644661581153963e-05 1.0174491999782875e-15
0.00042384099868510476 0.0025367333620422306 0.0 0.0 -7.624107306232234e-05 8.494317445609245e-16
0.0004425349809652182 0.0025286096198100243 0.0 0.0 2.8983667928911456e-05 8.603415289215599e-16
0.00046001922174273457 0.002520530211320479 0.0 0.0 -7.387478165849623e-05 7.695938070845232e-16
0.0004763145409100761 0.0025124057478911823 0.0 0.0 3.118822449094664e-05 8.311561616909657e-16
0.0004914514034168613 0.0025041672461008874 0.0 0.0 -7.182256468444027e-05 5.41071094178891e-16
0.0005054673269746146 0.002495762555386228 0.0 0.0 3.3097576924583354e-05 8.238039157087984e-16
0.0005184047667488202 0.002487153292202881 0.0 0.0 -7.004673530150829e-05 5.241846453424293e-16
0.0005303094123612014 0.0024783122397057343 0.0 0.0 3.47489404725105e-05 9.272774605453837e-16
0.0005412288346282179 0.002469221163573 0.0 0.0 -6.851116593281803e-05 3.4306867242872574e-16
0.0005512114245168352 0.002459868992356762 0.0 0.0 3.6176938795197465e-05 8.586610155542074e-16
0.0005603055732415202 0.002450250312243305 0.0 0.0 -6.718299812858969e-05 3.3775608178354677e-16
0.0005685590492451271 0.0024403641297439374 0.0 0.0 3.741252121494134e-05 5.549624345138615e-16
0.000576018534419881 0.0024302128605157205 0.0 0.0 -6.60332489000161e-05 3.5157965948273695e-16
0.0005827292879998648 0.0024198015075415024 0.0 0.0 3.848270953279282e-05 5.815660453212246e-16
0.0005887349119522878 0.002409136996847461 0.0 0.0 -6.503680910760473e-05 2.122325752640375e-16
0.0005940771963694664 0.002398227643557892 0.0 0.0 3.941077762157442e-05 7.011670974735318e-16
0.0005987960273418748 0.0023870827252667377 0.0 0.0 -6.417214476951182e-05 2.615908791664401e-16
0.0006029293431340835 0.002375712143387461 0.0 0.0 4.021662490078952e-05 1.2706849461530112e-16
0.0006065131272585313 0.0023641261563443036 0.0 0.0 -6.342088156601475e-05 1.4598782252517317e-16
0.0006095814293292471 0.002352335171209724 0.0 0.0 4.091721010538368e-05 5.577813601623238e-16
0.0006121664064434431 0.0023403495827072443 0.0 0.0 -6.276736957224092e-05 1.6233217027539215e-16
0.0006142983793600698 0.0023281796504608953 0.0 0.0 4.1526976555351024e-05 4.641876076225127e-16
0.0006160058989730046 0.0023158354070055885 0.0 0.0 -6.21982755435192e-05 4.531422979903166e-16
0.0006173158195638603 0.002303326590429205 0.0 0.0 4.2058237657855834e-05 5.32018006038637e-16
0.0006182533761136001 0.0022906625966475783 0.0 0.0 -6.170222218984856e-05 -9.896055329361442e-17
0.0006188422635850007 0.0022778524472425584 0.0 0.0 4.252151183727429e-05 6.435824095873954e-16
0.0006191047165905871 0.0022649047695595115 0.0 0.0 -6.126947899220129e-05 4.4015897697480266e-16
0.0006190615882605639 0.0022518277863883534 0.0 0.0 4.2925806672478245e-05 4.458781434346637e-16
0.0006187324274389705 0.002238629313067781 0.0 0.0 -6.0891701979147727e-05 -1.6566609195578508e-16
0.0006181355535827469 0.002225316760275051 0.0 0.0 4.327885664784332e-05 -1.0812206165111693e-16
0.0006172881289309691 0.0022118971411048977 0.0 0.0 -6.056171681402474e-05 -3.602803819169331e-16
0.0006162062276629496 0.002198377081323352 0.0 0.0 4.3587320873228474e-05 1.2685165418080402e-16
0.0006149049018746588 0.0021847628319055755 0.0 0.0 -6.027333873305675e-05 3.962758940434519e-17
0.0006133982442964295 0.0021710602831526483 0.0 0.0 4.385694702479305e-05 -8.990746515336046e-17
0.0006116994477358001 0.0021572749798374996 0.0 0.0 -6.002122318200391e-05 -9.227644690024128e-16
0.0006098208612826159 0.0021434121369410483 0.0 0.0 4.409270749266257e-05 -3.6095800827473656e-16
0.0006077740433472419 0.0021294766556421455 0.0 0.0 -5.980074167765667e-05 -4.33138767907959e-16
0.0006055698116299892 0.0021154731393031962 0.0 0.0 4.429891266374364e-05 -1.1690409924824952e-16
0.0006032182901356941 0.0021014059092543487 0.0 0.0 -5.960787829993174e-05 -3.63207727782644e-16
0.000600728953360848 0.002087279020229704 0.0 0.0 4.447930563199697e-05 3.2715800554750096e-17
0.0005981106677851837 0.0020730962753485274 0.0 0.0 -5.943914295947596e-05 -2.553296116203363e-16
0.0005953717308039844 0.0020588612405673242 0.0 0.0 4.463714169457105e-05 -8.336972605327286e-16
0.0005925199072375096 0.002044577258550596 0.0 0.0 -5.9291498422542224e-05 -7.908712747195512e-16
0.0005895624635505728 0.0020302474619318077 0.0 0.0 4.47752554222034e-05 -2.631087622079198e-16
0.0005865061999146218 0.002015874785952245 0.0 0.0 -5.916229856410885e-05 -6.423897871976614e-16
0.00058335748023969 0.002001461980457378 0.0 0.0 4.489611757515783e-05 -9.638828363939256e-16
0.0005801222602961733 0.00198701162127248 0.0 0.0 -5.904923593581248e-05 -9.108924552136966e-16
0.0005768061140427163 0.0019725261209757408 0.0 0.0 4.5001883484792945e-05 -1.0532210954067311e-15
0.0005734142582742547 0.0019580077390602886 0.0 0.0 -5.8950296941812986e-05 -4.846383711010205e-16
0.0005699515756917859 0.0019434585915205473 0.0 0.0 4.509443457687034e-05 -1.5220030097351511e-15
0.0005664226364961519 0.0019288806598870291 0.0 0.0 -5.88637234747889e-05 -2.3722343533982837e-16
0.0005628317185981361 0.0019142757997291982 0.0 0.0 4.517541386905063e-05 -1.0716796373932969e-15
0.000559182826530885 0.001899645748651986 0.0 0.0 -5.878797992548985e-05 -1.7821031109144236e-15
0.0005554797091550706 0.0018849921338094434 0.0 0.0 4.52462567015439e-05 -1.356933228974233e-15
0.0005517258762274979 0.001870316478962374 0.0 0.0 -5.8721724655245175e-05 -5.69639821423884e-16
0.0005479246139085957 0.0018556202111040154 0.0 0.0 4.5308217141841706e-05 -1.4334236922430854e-15
0.0005440789992813156 0.001840904666682431 0.0 0.0 -5.866378540818931e-05 -8.529960592029706e-16
0.0005401919139407982 0.0018261710974362415 0.0 0.0 4.536239095482349e-05 -6.332282788401589e-16
0.0005362660567194529 0.0018114206758618506 0.0 0.0 -5.8613137973125224e-05 -1.0594281528442107e-15
0.000532303955600547 0.0017966545003509707 0.0 0.0 4.5409735439583526e-05 -1.4171064495471786e-15
0.0005283079788735488 0.0017818736000064553 0.0 0.0 -5.856888764139333e-05 -6.480818486032103e-16
0.0005242803455874452 0.0017670789391529972 0.0 0.0 4.545108671854918e-05 2.242130092700023e-16
0.0005202231353377053 0.001752271421571134 0.0 0.0 -5.853025313346395e-05 -5.435105490669834e-16
0.0005161382974406617 0.0017374518944650937 0.0 0.0 4.548717471636538e-05 -1.6013123986524658e-15
0.0005120276595286602 0.0017226211521897993 0.0 0.0 -5.849655262278803e-05 -1.5289961137476826e-15
0.0005078929356066095 0.001707779939740236 0.0 0.0 4.55186362225366e-05 -1.6899459262531558e-15
0.0005037357336108946 0.001692928956026681 0.0 0.0 -5.8467191532533846e-05 -1.6618650899857812e-15
0.0004995575624940656 0.001678068856956093 0.0 0.0 4.554602621157581e-05 -1.095748925622475e-15
0.0004953598388753354 0.0016632002583077301 0.0 0.0 -5.8441651984456554e-05 -8.561402455031786e-16
0.00049114389328326 0.0016483237384471783 0.0 0.0 4.556982776918704e-05 1.3997050046787862e-16
0.00048691097601803073 0.0016334398408781728 0.0 0.0 -5.8419483600907784e-05 -1.9081958235744878e-16
0.00048266226265772074 0.0016185490766234868 0.0 0.0 4.559046059366659e-05 -1.0208305555037267e-15
0.00047839885923930427 0.001603651926480471 0.0 0.0 -5.84002954933106e-05 -1.2162579970942389e-15
0.0004741218071279523 0.001588748843136723 0.0 0.0 4.560828846690134e-05 -1.0627349694702914e-15
0.0004698320876050723 0.0015738402531615752 0.0 0.0 -5.838374938027546e-05 -5.651403824080692e-16
0.0004655306261883731 0.001558926558887253 0.0 0.0 4.562362566818594e-05 -1.0303173245129749e-15
0.0004612182967066794 0.001544008140176119 0.0 0.0 -5.8369553560734967e-05 -1.5513848886095083e-15
0.00045689592515009203 0.0015290853560960274 0.0 0.0 4.563674258021048e-05 1.4627513610088183e-15
0.0004525642933050699 0.001514158546496959 0.0 0.0 -5.835745781505484e-05 -2.7535482574614356e-15
0.0004482241421966025 0.0014992280335091458 0.0 0.0 4.564787040572981e-05 1.462480310465697e-15
0.0004438761753505293 0.0014842941229668968 0.0 0.0 -5.8347248930737394e-05 -2.134739867515334e-15
0.0004395210618921251 0.0014693571057493797 0.0 0.0 4.565720529438799e-05 1.6688039838896884e-15
0.0004351594394891817 0.0014544172590546228 0.0 0.0 -5.833874697674414e-05 -1.8703029576461194e-15
0.00043079191716015704 0.0014394748476334687 0.0 0.0 4.566491177545413e-05 1.710871028182126e-15
0.00042641907795545257 0.0014245301249504229 0.0 0.0 -5.8331802066100176e-05 -9.844013625082138e-16
0.0004220414815243192 0.0014095833342904652 0.0 0.0 4.5671125675902685e-05 -1.8637977446112064e-15
0.0004176596665789622 0.0013946347098422625 0.0 0.0 -5.8326291821036665e-05 1.2271542289277182e-15
0.0004132741532619944 0.0013796844777242494 0.0 0.0 4.5675956523309356e-05 -4.815538159202992e-15
0.00040888544544232105 0.0013647328569786773 0.0 0.0 -5.8322119111654325e-05 -7.540084008550441e-16
0.00040449403292665807 0.0013497800605372643 0.0 0.0 4.567948946735626e-05 -3.7117119273955e-15
0.000400100393619434 0.001334826296162046 0.0 0.0 -5.831921039454546e-05 -1.0960199761655964e-15
0.0003957049956257102 0.0013198717673562521 0.0 0.0 4.5681786776277265e-05 -2.5291726178655605e-15
0.00039130829931117154 0.0013049166742610616 0.0 0.0 -5.831751440323919e-05 -1.7826994221092907e-15
0.00038691075932751793 0.0012899612145421803 0.0 0.0 4.568288894615498e-05 -1.537127630041324e-15
0.000382512826617372 0.0012750055842547182 0.0 0.0 -5.831700118386898e-05 -2.2676088437534325e-15
0.00037811495039780335 0.0012600499787115698 0.0 0.0 4.5682815420718267e-05 -2.1886247154878635e-15
0.00037371758013909814 0.0012450945933411184 0.0 0.0 -5.831766175252485e-05 -2.1130016139569996e-15
0.00036932116754344275 0.0012301396245489665 0.0 0.0 4.5681564912489615e-05 1.5072578601893483e-15
0.0003649261685324699 0.0012151852705930442 0.0 0.0 -5.831950768836469e-05 -1.2500851048757866e-15
0.00036053304525997086 0.001200231732455276 0.0 0.0 4.567911543156911e-05 -6.603333331522965e-16
0.0003561422681437553 0.0011852792147228868 0.0 0.0 -5.832257149625546e-05 6.915041456112547e-16
0.00035175431794287225 0.0011703279265005008 0.0 0.0 4.567542381097309e-05 5.049671618351237e-16
0.00034736968787364714 0.0011553780823355601 0.0 0.0 -5.8326907157382236e-05 8.717527567869698e-16
0.0003429888857875617 0.0011404299031618026 0.0 0.0 4.567042504061668e-05 2.791820594150174e-16
0.0003386124364108512 0.0011254836172903044 0.0 0.0 -5.8332591037815176e-05 -1.7867651802561113e-16
0.00033424088365992456 0.0011105394614253912 0.0 0.0 4.566403105637834e-05 -3.247185506594086e-16
0.00032987479304917366 0.0010955976817086503 0.0 0.0 -5.8339723283099346e-05 1.6235927532970429e-15
0.0003255147541819429 0.0010806585348182634 0.0 0.0 4.5656129201843165e-05 7.902749635246842e-16
0.00032116138336740925 0.0010657222891278235 0.0 0.0 -5.8348429527406214e-05 -2.7907363919776884e-16
0.00031681532634562996 0.001050789225903401 0.0 0.0 4.564658025321016e-05 3.121147004042646e-15
0.0003124772611516343 0.0010358596405683458 0.0 0.0 -5.835886320117883e-05 -1.8762118594861654e-15
0.0003081479011257326 0.0010209338440327965 0.0 0.0 4.56352159561703e-05 4.0503624759713475e-15
0.00030382799808596707 0.001006012164105569 0.0 0.0 -5.8371208214774836e-05 -7.674958758807637e-15
0.00029951834567866514 0.0009910949469896044 0.0 0.0 4.562183592617336e-05 2.1754516590921646e-16
0.00029521978291535336 0.0009761825588546166 0.0 0.0 -5.838568220190466e-05 6.852157730108388e-17
0.00029093319793330457 0.0009612753875323482 0.0 0.0 4.5606204210918476e-05 2.0345595867776733e-15
0.0002866595319751762 0.000946373844301102 0.0 0.0 -5.84025405150594e-05 1.1285460413401616e-15
0.00028239978362823974 0.000931478365798038 0.0 0.0 4.558804496583883e-05 -1.6490715043504522e-16
0.0002781550133340269 0.0009165894160717695 0.0 0.0 -5.842208080346985e-05 1.0012607062903633e-15
0.00027392634819581844 0.000901707488779719 0.0 0.0 4.5567037410167025e-05 1.2269915986018454e-15
0.00026971498711604645 0.0008868331095385224 0.0 0.0 -5.8444648455768626e-05 2.088823905510573e-15
0.0002655222062870315 0.0008719668384529148 0.0 0.0 4.554280988348751e-05 1.2458567164030931e-15
0.0002613493650698399 0.0008571092728670287 0.0 0.0 -5.847064308059304e-05 3.5477263488070676e-15
0.000257197912300539 0.0008422610503015038 0.0 0.0 4.5514932973040375e-05 6.627727880403889e-16
0.00025306939307076346 0.0008274228516336852 0.0 0.0 -5.8500526073611715e-05 1.7577085620334998e-15
0.00024896545600737235 0.0008125954045818984 0.0 0.0 4.548291105074668e-05 2.085137618124122e-15
0.0002448878611327806 0.0007977794874629855 0.0 0.0 -5.8534829646531656e-05 7.844202717932625e-16
0.0002408384883401713 0.0007829759332621334 0.0 0.0 4.5446172524002014e-05 -1.7351571568458013e-15
0.00023681934656468874 0.0007681856341121624 0.0 0.0 -5.857416781418056e-05 -6.87817858224804e-16
0.0002328325837205 0.0007534095461960425 0.0 0.0 4.5404057832406806e-05 3.466085925218909e-15
0.00022888049749200014 0.0007386486950874414 0.0 0.0 -5.861924931326967e-05 1.2414114874959026e-15
0.00022496554708728746 0.0007239041816380175 0.0 0.0 4.53558049164143e-05 3.131175874138137e-15
0.00022109036605688225 0.0007091771884690328 0.0 0.0 -5.867089393263021e-05 3.7795287732844685e-16
0.0002172577763248142 0.0006944689871180311 0.0 0.0 4.5300531252957495e-05 9.183192400952223e-17
0.0002134708035844108 0.0006797809459787984 0.0 0.0 -5.873005264907401e-05 -1.0407256653688357e-15
0.00020973269423827734 0.0006651145391030684 0.0 0.0 4.523721103043255e-05 -2.084920777689625e-15
0.00020604693410666524 0.0006504713559762475 0.0 0.0 -5.879783336451062e-05 -7.057939302446137e-15
0.00020241726915477367 0.0006358531124437674 0.0 0.0 4.516464586060945e-05 1.435700516805305e-15
0.00019884772852498664 0.0006212616629312201 0.0 0.0 -5.887553446987299e-05 -2.4822808739055624e-15
0.0001953426502481825 0.000606699014134532 0.0 0.0 4.5081426414778905e-05 -3.2640990604848596e-15
0.00019190671004429307 0.0005921673404165369 0.0 0.0 -5.896468922229046e-05 -4.136339708249448e-15
0.0001885449537005214 0.0005776690011449572 0.0 0.0 4.498588049297865e-05 1.2235221516498918e-15
0.00018526283364949297 0.0005632065602689249 0.0 0.0 -5.906712628781516e-05 -3.926329747439006e-15
0.00018206625043909615 0.000548782808516561 0.0 0.0 4.487600213391621e-05 -2.912167035296065e-16
0.00017896159995970103 0.0005344007885664127 0.0 0.0 -5.918505356751957e-05 -2.5644633985799636e-15
0.00017595582747729013 0.000520063823680785 0.0 0.0 4.474935219491512e-05 1.9060274192295168e-16
0.00017305648971815624 0.000505775550387258 0.0 0.0 -5.9321176672686446e-05 -4.113246201975507e-15
0.00017027182652316132 0.0004915399559032409 0.0 0.0 4.460291649115004e-05 -5.829646661237309e-15
0.00016761084396850568 0.00047736142103039657 0.0 0.0 -5.9478869410702464e-05 -7.088839064361974e-15
0.00016508341118787648 0.00046324476960184365 0.0 0.0 4.443290017240348e-05 1.4611792678587143e-15
0.00016270037380995385 0.0004491953255483835 0.0 0.0 -5.9662423483088046e-05 -9.131150696672918e-16
0.0001604736873615488 0.00043521897930904826 0.0 0.0 4.423442406919901e-05 -4.784042086092288e-15
0.00015841657529778127 0.0004213222648977683 0.0 0.0 -5.9877420484049336e-05 -2.3790648270849424e-15
0.0001565437166662401 0.00040751245106551763 0.0 0.0 4.400106961761972e-05 3.593479680485956e-15
0.00015487147130128736 0.0003937976474028651 0.0 0.0 -6.013129674877849e-05 3.4293314715716505e-15
0.00015341814980101017 0.0003801869334202742 0.0 0.0 4.372418477659179e-05 -4.1297260749972864e-16
0.00015220434300011488 0.0003666905077815965 0.0 0.0 -6.0434220296927453e-05 2.508410146262463e-15
0.00015125331985630974 0.00035331987986791995 0.0 0.0 4.339180749568083e-05 -1.9120989513954356e-15
0.0001505915252606106 0.00034008808366755016 0.0 0.0 -6.0800493563871374e-05 -6.572433569607128e-16
0.0001502491816508767 0.0003270099832608919 0.0 0.0 4.2986968333579836e-05 2.4562600217659103e-15
0.00015026107319692398 0.00031410257986826606 0.0 0.0 -6.12508919660235e-05 1.922832552903042e-15
0.00015066747850139156 0.0003013855540751516 0.0 0.0 4.248498408984387e-05 -1.9748742571823463e-15
0.00015151547864083513 0.0002888816824671203 0.0 0.0 -6.181680779814816e-05 -2.1409740300071256e-15
0.0001528604313400724 0.000276617950383313 0.0 0.0 4.184916091177354e-05 -2.416252961601195e-15
0.00015476833573686773 0.00026462597788831334 0.0 0.0 -6.25482691372259e-05 2.73750206530865e-15
0.00015731816708739458 0.0002529447149043407 0.0 0.0 4.1024294042845376e-05 -3.4821321173716946e-15
0.00016060664941347134 0.00024162021060352318 0.0 0.0 -6.353138134981731e-05 3.129007469793166e-16
0.00016475179884236336 0.0002307132243398734 0.0 0.0 3.992856662357754e-05 -4.725495168778071e-15
0.00016990396527815006 0.00022029537208818217 0.0 0.0 -6.493166866686283e-05 -3.0430302375150653e-15
0.00017625036037518401 0.00021047337671130218 0.0 0.0 3.845171762484139e-05 2.2681509448396753e-16
0.0001840446493477647 0.00020137019055275414 0.0 0.0 -6.711608673124056e-05 -9.343654322480077e-16
0.0001936091800388983 0.0001932100102427176 0.0 0.0 3.650119475845999e-05 -2.284088716775212e-15
0.00020542641092653735 0.00018624552571314912 0.0 0.0 -7.103246340300624e-05 -1.438085761584773e-15
0.00022012520146824104 0.00018108820718402011 0.0 0.0 3.4292275088859464e-05 1.8002092871949316e-15
0.00023880854210472013 0.00017846513590042646 0.0 0.0 -7.951934625285788e-05 -4.3515538394878206e-15
0.0002629835553886573 0.00018072130013863438 0.0 0.0 3.3868439796779556e-05 2.0237717751614426e-15
0.0002959934003783811 0.00019070089942330062 0.0 0.0 -0.00010357658552773673 1.2409778066269084e-15
0.00034215498758701526 0.00021902905160339547 0.0 0.0 4.703340013072492e-05 1.9459260591769834e-15
0.00041101519594365847 0.00022212317592981386 0.0 0.0 -0.0002740917399051022 -6.790358206276714e-16
0.0004031740202772911 0.00020398337937624453 0.0 0.0 -0.021225831800928834 -2.746007631351799e-14
2.6469779601696886e-22 0.0032041481250532737 0.0 0.0 -0.0017379380738093166 3.176373552203626e-20
4.3849722316183875e-06 0.0031627715387905434 0.0 0.0 -1.001295277615734e-05 -5.856297648851383e-06
9.56649803741915e-06 0.0030828323214927554 0.0 0.0 -0.0001124681680122022 -6.564947345795362e-06
1.8100297298736644e-05 0.0030093255580700548 0.0 0.0 -6.655274740546255e-06 -6.592976365467178e-06
3.0147590972100982e-05 0.002943152399091942 0.0 0.0 -0.00010873176452280878 -6.279484452548165e-06
4.5550081263982694e-05 0.0028843437204424697 0.0 0.0 -2.652832924166041e-06 -5.699542399918107e-06
6.400295967487084e-05 0.0028326632730288517 0.0 0.0 -0.0001044967904932167 -4.92766181142456e-06
8.510021765433749e-05 0.0027876961649218593 0.0 0.0 1.7222691481858703e-06 -4.031249018746596e-06
0.00010837198222124714 0.002748900074390028 0.0 0.0 -0.00010002320463438455 -3.079242419216715e-06
0.00013332272986137076 0.002715650023840424 0.0 0.0 6.237903827875662e-06 -2.1305416234283497e-06
0.0001594615983892399 0.002687282880167273 0.0 0.0 -9.551926602296282e-05 -1.2309854333193362e-06
0.00018632559707090546 0.0026631331047000635 0.0 0.0 1.068250861456399e-05 -4.12887093575201e-07
0.00021349563519744322 0.0026425600084639036 0.0 0.0 -9.117534415395808e-05 3.041979228588705e-07
0.000240605872087865 0.002624966824136767 0.0 0.0 1.489192835878918e-05 9.11537827910583e-07
0.0002673474412310426 0.0026098124630010103 0.0 0.0 -8.71270378380679e-05 1.4088871942545149e-06
0.000293467890666219 0.002596617221187744 0.0 0.0 1.875978767041373e-05 1.8019899972410578e-06
0.0003187677082839097 0.0025849638373779435 0.0 0.0 -8.345237391869416e-05 2.1003595209690226e-06
0.0003430951083653912 0.002574495281108303 0.0 0.0 2.2234346261011282e-05 2.3154588432409233e-06
0.0003663399971055723 0.002564910451528204 0.0 0.0 -8.017998918235104e-05 2.4593588742412623e-06
0.0003884277673361167 0.002555958724804711 0.0 0.0 2.530637032258117e-05 2.543821328686038e-06
0.00040931334700847606 0.002547434036481811 0.0 0.0 -7.730356018098477e-05 2.5797369563702676e-06
0.00042897574917704967 0.002539168970393067 0.0 0.0 2.7994117418274854e-05 2.576827687652293e-06
0.00044741324473585123 0.0025310291523701093 0.0 0.0 -7.479611938670887e-05 2.543535352926248e-06
0.00046463919342007865 0.0025229081189084186 0.0 0.0 3.0330538385117212e-05 2.487031134602436e-06
0.00048067851490329346 0.0025147227400702287 0.0 0.0 -7.262095548821147e-05 2.413297617254753e-06
0.0004955647509410014 0.002506409215530396 0.0 0.0 3.235435483186664e-05 2.3272486504813896e-06
0.0005093376544385477 0.0024979196246582435 0.0 0.0 -7.073867307158326e-05 2.2328641063755256e-06
0.0005220412364416014 0.0024892189897316895 0.0 0.0 3.41046482399626e-05 2.1333249317326584e-06
0.0005337222034576663 0.0024802828005545167 0.0 0.0 -6.911120874199997e-05 2.0311400623809317e-06
0.0005444287224459478 0.002471094945172694 0.0 0.0 3.5617984673591086e-05 1.9282608338474805e-06
0.0005542094574639444 0.0024616459922888897 0.0 0.0 -6.770379905626865e-05 1.826181185538814e-06
0.0005631128291690123 0.002451931774480109 0.0 0.0 3.692715135233509e-05 1.7260235967905e-06
0.0005711864554589286 0.0024419522261469088 0.0 0.0 -6.648570925633428e-05 1.6286115975260062e-06
0.0005784767381060182 0.002431710435454604 0.0 0.0 3.8060824557960835e-05 1.5345301933819712e-06
0.000585028566119871 0.002421211874854715 0.0 0.0 -6.543027845367966e-05 1.4441756958644548e-06
0.0005908851116942927 0.0024104637797988304 0.0 0.0 3.904372582698586e-05 1.357796472395477e-06
0.0005960876989798111 0.0023994746498351253 0.0 0.0 -6.45146275776573e-05 1.2755260189249956e-06
0.0006006757296202882 0.002388253850341445 0.0 0.0 3.9897000529951355e-05 1.197409635892124e-06
0.0006046866520764724 0.002376811296689242 0.0 0.0 -6.371923081277856e-05 1.1234258020291162e-06
0.0006081559643128061 0.002365157205679324 0.0 0.0 4.063866986922163e-05 1.0535032186597808e-06
0.000611117241516205 0.0023533019016817916 0.0 0.0 -6.302745900583939e-05 9.875343020538903e-07
0.0006136021822289245 0.002341255667107601 0.0 0.0 4.128407904889508e-05 9.25385821235497e-07
0.0006156406676628871 0.0023290286286681934 0.0 0.0 -6.242514855265245e-05 8.669072137313316e-07
0.0006172608300869294 0.002316630672414612 0.0 0.0 4.1846305932288406e-05 8.119370478131796e-07
0.000618489127081785 0.002304071381824958 0.0 0.0 -6.1900218265957e-05 7.60307998206298e-07
0.0006193504191812493 0.002291359994258391 0.0 0.0 4.233651729305179e-05 7.11850644480067e-07
0.0006198680489966338 0.0022785053719646727 0.0 0.0 -6.144234016191284e-05 6.663963201654843e-07
0.0006200639203830124 0.0022655159845526174 0.0 0.0 4.276427160232791e-05 6.237792352198855e-07
0.000619958576567577 0.0022523999004165174 0.0 0.0 -6.104266197664725e-05 5.838379998588945e-07
0.000619571276454083 0.0022391647850923463 0.0 0.0 4.313777268255645e-05 5.46416711037209e-07
0.0006189200685360836 0.0022258179049117186 0.0 0.0 -6.0693575690795826e-05 5.113656672587296e-07
0.0006180218620346861 0.0022123661346479073 0.0 0.0 4.346408067262765e-05 4.7854182257516e-07
0.0006168924950096299 0.002198815968104942 0.0 0.0 -6.038852539973834e-05 4.478090227306888e-07
0.0006155467993005638 0.002185173530814809 0.0 0.0 4.374928700417817e-05 4.1903809156723757e-07
0.0006139986622348649 0.0021714445941835446 0.0 0.0 -6.0121847936657794e-05 3.921067829539991e-07
0.0006122610850988528 0.0021576345905674594 0.0 0.0 4.399865958534409e-05 3.6689966828034747e-07
0.0006103462384153843 0.0021437486288627323 0.0 0.0 -5.9888640510785e-05 3.433079372607939e-07
0.000608265514104706 0.0021297915103016545 0.0 0.0 4.421676361311179e-05 3.2122916993323277e-07
0.0006060295746254717 0.0021157677442098497 0.0 0.0 -5.9684650370037454e-05 3.005670768337944e-07
0.000603648399215018 0.002101681563536016 0.0 0.0 4.440756240928093e-05 2.8123121786495617e-07
0.0006011313273484132 0.0020875369400235716 0.0 0.0 -5.950618249674387e-05 2.63136711520489e-07
0.0005984870995541417 0.002073337598920792 0.0 0.0 4.457450208016794e-05 2.4620395239275924e-07
0.0005957238957145444 0.0020590870331604373 0.0 0.0 -5.9350021917518804e-05 2.303583146839568e-07
0.000592849370989584 0.002044788516961426 0.0 0.0 4.472058284174388e-05 2.1552987422264816e-07
0.0005898706894904928 0.0020304451188287447 0.0 0.0 -5.921336808699417e-05 2.0165313419822153e-07
0.0005867945558362778 0.002016059713932949 0.0 0.0 4.484841945974927e-05 1.886667585174087e-07
0.0005836272447152032 0.0020016349958702556 0.0 0.0 -5.9093779162690285e-05 1.765133191453344e-07
0.0005803746285700356 0.0019871734878077964 0.0 0.0 4.4960292734472e-05 1.6513906359028312e-07
0.0005770422035219386 0.0019726775530232387 0.0 0.0 -5.8989124438753966e-05 1.5449367317025382e-07
0.0005736351136432698 0.0019581494048638245 0.0 0.0 4.505819343507444e-05 1.4453005550051296e-07
0.0005701581736767492 0.0019435911161348783 0.0 0.0 -5.889754363263698e-05 1.3520413638846854e-07
0.0005666158903073077 0.0019290046279445945 0.0 0.0 4.514386008937807e-05 1.2647466735449947e-07
0.000563012482068762 0.0019143917580298616 0.0 0.0 -5.881741187569248e-05 1.1830305020777299e-07
0.0005593518979793784 0.0018997542085864671 0.0 0.0 4.521881145187626e-05 1.106531531266605e-07
0.0005556378349852108 0.0018850935736270643 0.0 0.0 -5.874730952034029e-05 1.0349116646150196e-07
0.000551873754286036 0.001870411345892092 0.0 0.0 4.528437458371814e-05 9.678543972697776e-08
0.0005480628966198643 0.0018557089233387646 0.0 0.0 -5.8685996035740266e-05 9.050635223028071e-08
0.0005442082965717655 0.0018409876152313711 0.0 0.0 4.5341709107708165e-05 8.462616513885829e-08
0.000540312795966029 0.0018262486478565088 0.0 0.0 -5.863238743016659e-05 7.911892043111672e-08
0.0005363790564107667 0.0018114931698819921 0.0 0.0 4.539182830741353e-05 7.396030448156158e-08
0.0005324095710413101 0.0017967222573837716 0.0 0.0 -5.8585536584154004e-05 6.912755184923904e-08
0.0005284066755187925 0.0017819369185613628 0.0 0.0 4.5435617380136625e-05 6.459933637981922e-08
0.0005243725583334321 0.0017671380981590726 0.0 0.0 -5.854461625058496e-05 6.035568663267672e-08
0.0005203092704541023 0.0017523266816094336 0.0 0.0 4.5473849327329146e-05 5.6377879304521806e-08
0.0005162187343737628 0.0017375034989252141 0.0 0.0 -5.8508904206881e-05 5.2648381636364195e-08
0.0005121027525832709 0.001722669328343624 0.0 0.0 4.5507198813048134e-05 4.915074555515708e-08
0.000507963015517968 0.001707824899745794 0.0 0.0 -5.847777036166468e-05 4.5869555922062755e-08
0.0005038011090075113 0.0016929708978694375 0.0 0.0 4.553625415296798e-05 4.279034951056634e-08
0.0004996185212635771 0.0016781079653149717 0.0 0.0 -5.845066554963812e-05 3.989955921218516e-08
0.0004954166494384748 0.001663236705380002 0.0 0.0 4.5561527788299996e-05 3.7184445381263555e-08
0.0004911968057798695 0.001648357684708008 0.0 0.0 -5.842711177484231e-05 3.4633047333730745e-08
0.00048696022341213985 0.0016334714357793259 0.0 0.0 4.558346540641217e-05 3.223412464514264e-08
0.00048270806176703993 0.001618578459260992 0.0 0.0 -5.840669372630795e-05 2.997710982921434e-08
0.0004784414116917184 0.0016036792262075826 0.0 0.0 4.560245378728959e-05 2.7852065711490154e-08
0.0004741613002511611 0.0015887741801343905 0.0 0.0 -5.8389051414039096e-05 2.584962851664421e-08
0.00046986869525298314 0.001573863738965911 0.0 0.0 4.5618827702909124e-05 2.3960985230826997e-08
0.0004655645095074963 0.0015589482968812718 0.0 0.0 -5.8373873823847826e-05 2.2177815010675228e-08
0.00046124960484889704 0.0015440282260489123 0.0 0.0 4.563287577605821e-05 2.049227366268669e-08
0.0004569247959275499 0.001529103878261098 0.0 0.0 -5.8360893421856275e-05 1.8896926072650873e-08
0.00045259085379874584 0.0015141755864838875 0.0 0.0 4.5644845645055566e-05 1.738476525350906e-08
0.00044824850931664186 0.0014992436663236425 0.0 0.0 -5.834988139972119e-05 1.594911748373576e-08
0.000443898456351291 0.0014843084174180478 0.0 0.0 4.5654948295286704e-05 1.4583683281236149e-08
0.00043954135484301 0.001469370124753552 0.0 0.0 -5.83406436604003e-05 1.3282423255017717e-08
0.00043517783370925574 0.001454429059917526 0.0 0.0 4.5663361799031963e-05 1.203964074600718e-08
0.0004308084936107603 0.0014394854822965368 0.0 0.0 -5.8333017380719516e-05 1.0849841653262117e-08
0.000426433909597022 0.0014245396402184033 0.0 0.0 4.567023443962834e-05 9.707799233536415e-09
0.00042205463363725084 0.0014095917720438824 0.0 0.0 -5.832686813911066e-05 8.60848293696018e-09
0.000417671197051411 0.0013946421072172283 0.0 0.0 4.567568734010802e-05 7.547053598386255e-09
0.0004132841128448091 0.0013796908672772438 0.0 0.0 -5.832208756725919e-05 6.518844772849825e-09
0.0004088938779720606 0.0013647382668311888 0.0 0.0 4.567981663171285e-05 5.519320308569001e-09
0.00040450097551790617 0.0013497845144998506 0.0 0.0 -5.8318591397233614e-05 4.5440900665210705e-09
0.0004001058768296946 0.0013348298138357167 0.0 0.0 4.5682695086626725e-05 3.588856143960529e-09
0.0003957090435881448 0.0013198743642198782 0.0 0.0 -5.831631800703877e-05 2.6494175285737484e-09
0.0003913109298428298 0.0013049183617416225 0.0 0.0 4.5684373445735644e-05 1.721634119446723e-09
0.0003869119840082761 0.001289962000061135 0.0 0.0 -5.831522730858035e-05 8.014287401574526e-10
0.0003825126508391129 0.0012750054712630696 0.0 0.0 4.568488127016279e-05 -1.152623207382325e-10
0.0003781133733888023 0.0012600489667025552 0.0 0.0 -5.831530007871836e-05 -1.0324659508961255e-09
0.0003737145949579799 0.0012450926778506447 0.0 0.0 4.568422757242471e-05 -1.9542201275713107e-09
0.00036931676105090487 0.00123013679713487 0.0 0.0 -5.8316537578945215e-05 -2.884590580558722e-09
0.0003649203213334341 0.001215181518794207 0.0 0.0 4.5682400817617934e-05 -3.8276674029771515e-09
0.00036052573161560967 0.001200227039738527 0.0 0.0 -5.831896160003822e-05 -4.787614645549755e-09
0.0003561334558598961 0.001185273560409364 0.0 0.0 4.56793688602766e-05 -5.768655580995485e-09
0.0003517439682246046 0.0011703212856687588 0.0 0.0 -5.832261483647489e-05 -6.775118972085752e-09
0.00034735775515729446 0.001155370425712272 0.0 0.0 4.5675078280442254e-05 -7.811440873534223e-09
0.0003429753175349682 0.0011404211969962337 0.0 0.0 -5.832756163822426e-05 -8.882191803133259e-09
0.00033859717287783563 0.0011254738231986912 0.0 0.0 4.5669453502207385e-05 -9.992100013665652e-09
0.0003342238576316114 0.0011105285362133595 0.0 0.0 -5.833388915527516e-05 -1.114606139860936e-08
0.0003298559295382372 0.00109558557718072 0.0 0.0 4.566239543786531e-05 -1.2349188344986349e-08
0.00032549397009628075 0.0010806451975686343 0.0 0.0 -5.8341708843620685e-05 -1.3606788167009297e-08
0.00032113858713959085 0.0010657076602878096 0.0 0.0 4.5653779729116226e-05 -1.4924432473770264e-08
0.00031679041752186475 0.0010507732408761973 0.0 0.0 -5.8351158485278826e-05 -1.6307963987679738e-08
0.0003124501299407495 0.0010358422287360142 0.0 0.0 4.564345457273226e-05 -1.77635105399988e-08
0.00030811842790909067 0.0010209149284323392 0.0 0.0 -5.8362404627623136e-05 -1.929755647921312e-08
0.00030379605287135357 0.0010059916610785811 0.0 0.0 4.563123800423543e-05 -2.0916909024173806e-08
0.00029948378751526694 0.000991072765791401 0.0 0.0 -5.83756454470175e-05 -2.262881249775247e-08
0.0002951824592500083 0.0009761586012329761 0.0 0.0 4.56169146309767e-05 -2.44408922026821e-08
0.0002908929439133304 0.0009612495472624534 0.0 0.0 -5.8391114451121625e-05 -2.6361288069966238e-08
0.00028661616968904684 0.0009463460066843595 0.0 0.0 4.560023183863035e-05 -2.839861743854366e-08
0.0002823531212792005 0.0009314484071150488 0.0 0.0 -5.840908455728212e-05 -3.056206974007356e-08
0.00027810484434408157 0.000916557202986887 0.0 0.0 4.558089518644855e-05 -3.286143939894206e-08
0.00027387245022903996 0.0009016728776818437 0.0 0.0 -5.842987309273378e-05 -3.5307172830474805e-08
0.0002696571210164627 0.0008867959458315317 0.0 0.0 4.5558563018772025e-05 -3.791045296241101e-08
0.00026546011492334945 0.0008719269557886117 0.0 0.0 -5.845384758418359e-05 -4.0683220482555515e-08
0.0002612827720745835 0.0008570664922740626 0.0 0.0 4.553284017013337e-05 -4.363831974918929e-08
0.0002571265206986157 0.0008422151792526457 0.0 0.0 -5.848143270450524e-05 -4.678950295386366e-08
0.0002529928837666679 0.000827373683035954 0.0 0.0 4.55032705066452e-05 -5.015157302033085e-08
0.00024888348614301976 0.0008125427156341298 0.0 0.0 -5.851311827826159e-05 -5.3740464270378256e-08
0.0002448000622675938 0.0007977230383947757 0.0 0.0 4.5469328013489005e-05 -5.7573383802056975e-08
0.00024074446445487802 0.0007829154659623924 0.0 0.0 -5.854946907753308e-05 -6.16689068494913e-08
0.00023671867184742247 0.0007681208706003886 0.0 0.0 4.543040636312344e-05 -6.604715389543509e-08
0.00023272480011515693 0.0007533401868989833 0.0 0.0 -5.859113626989509e-05 -7.072996979860108e-08
0.00022876511196939507 0.0007385744169269799 0.0 0.0 4.538580599430602e-05 -7.574109183740817e-08
0.0002248420285950487 0.000723824635890813 0.0 0.0 -5.863887161618002e-05 -8.110641673206298e-08
0.00022095814208744733 0.0007090919983463314 0.0 0.0 4.5334718640930574e-05 -8.685423211185744e-08
0.00021711622905705238 0.0006943777450420414 0.0 0.0 -5.869354466590034e-05 -9.301554854243468e-08
0.00021331926550672458 0.0006796832104809667 0.0 0.0 4.527620801613136e-05 -9.962444372463384e-08
0.00020957044317400432 0.0006650098312887638 0.0 0.0 -5.875616463122692e-05 -1.0671850161751185e-07
0.00020587318752453615 0.000650359155499938 0.0 0.0 4.5209185139626984e-05 -1.1433928977623922e-07
0.00020223117763083206 0.0006357328528804777 0.0 0.0 -5.882790802826956e-05 -1.2253295452097947e-07
0.00019864836820395214 0.0006211327264263202 0.0 0.0 4.513237685273134e-05 -1.3135090313109912e-07
0.00019512901410377896 0.0006065607252283133 0.0 0.0 -5.8910155107194575e-05 -1.4085062951542902e-07
0.0001916776976898942 0.0005920189588606176 0.0 0.0 4.504428396381703e-05 -1.510966764972036e-07
0.00018829935947561768 0.0005775097135332556 0.0 0.0 -5.900453798883261e-05 -1.6216182139173856e-07
0.00018499933260798215 0.0005630354702431577 0.0 0.0 4.494312501618575e-05 -1.7412841728529829e-07
0.00018178338180875896 0.0005485989252252682 0.0 0.0 -5.911300664925663e-05 -1.870901102693067e-07
0.0001786577475368337 0.0005342030130719185 0.0 0.0 4.482675875868867e-05 -2.011538184627619e-07
0.00017562919627775195 0.0005198509328413905 0.0 0.0 -5.9237920589339096e-05 -2.1644216383553353e-07
0.00017270507805845325 0.0005055461776968034 0.0 0.0 4.469257547656553e-05 -2.3309642422112906e-07
0.00016989339251025667 0.0004912925685783089 0.0 0.0 -5.93821783455655e-05 -2.512800819128979e-07
0.00016720286509239177 0.00047709429254692837 0.0 0.0 4.4537341588302224e-05 -2.711833203677136e-07
0.000164643035428439 0.0004629559465127999 0.0 0.0 -5.954940472015333e-05 -2.9302819027992276e-07
0.00016222436012135828 0.00044888258739383404 0.0 0.0 4.435697393817724e-05 -3.1707576216087174e-07
0.00015995833310576148 0.00043487978952781893 0.0 0.0 -5.9744224863268226e-05 -3.436335081381803e-07
0.0001578576269357204 0.00042095371118972544 0.0 0.0 4.4146206796017275e-05 -3.730674661401147e-07
0.00015593626001203265 0.00040711117078898087 0.0 0.0 -5.997267303612611e-05 -4.0581207288461173e-07
0.0001542097945696357 0.0003933597369047188 0.0 0.0 4.389809299342015e-05 -4.42393030458026e-07
0.00015269557420035404 0.0003797078307641431 0.0 0.0 -6.024281371693309e-05 -4.834369507442657e-07
0.00015141300698311855 0.00036616485207416983 0.0 0.0 4.360324599826811e-05 -5.29721503304565e-07
0.0001503839116786272 0.00035274131798316807 0.0 0.0 -6.0565707107897463e-05 -5.821684272962549e-07
0.00014963293099685686 0.0003394490488039288 0.0 0.0 4.324867288609999e-05 -6.41974131306987e-07
0.0001491880529215957 0.000326301354443716 0.0 0.0 -6.0956959769236556e-05 -7.105143593034253e-07
0.00014908122505889206 0.0003133133346699974 0.0 0.0 4.281596412038344e-05 -7.89736260063071e-07
0.00014934917531759888 0.00030050210964750935 0.0 0.0 -6.143933670364472e-05 -8.816900956273377e-07
0.00015003433421820173 0.00028788737938314433 0.0 0.0 4.227850604712345e-05 -9.898215346404058e-07
0.0001511862127530114 0.0002754916110814027 0.0 0.0 -6.204749770109363e-05 -1.1170433486515146e-06
0.00015286276609635435 0.0002633412908556119 0.0 0.0 4.159740189643496e-05 -1.2702280709750218e-06
0.00015513293657282696 0.00025146661149539533 0.0 0.0 -6.283755761851803e-05 -1.4527381417076815e-06
0.00015807849640160857 0.00023990482817399318 0.0 0.0 4.0716571604126114e-05 -1.6804930860783674e-06
0.00016179938816806422 0.00022869750481230088 0.0 0.0 -6.390922985014522e-05 -1.9537719033840524e-06
0.0001664153601572244 0.00021790080343383914 0.0 0.0 3.956172910327192e-05 -2.315536376204107e-06
0.00017207899072587 0.00020757253975291372 0.0 0.0 -6.546521167577046e-05 -2.746301177725856e-06
0.0001789729849064234 0.00019780626701851315 0.0 0.0 3.806583919938869e-05 -3.3777037721965985e-06
0.00018734665289244808 0.00018867740334500217 0.0 0.0 -6.799302845257615e-05 -4.103123342778141e-06
0.00019748987449717855 0.0001803598122271769 0.0 0.0 3.631241122347881e-05 -5.3658915325085306e-06
0.00020984639650841827 0.00017290160378545828 0.0 0.0 -7.28943940778539e-05 -6.720282314920238e-06
0.0002248779149015205 0.00016662729265569647 0.0 0.0 3.5155310417632176e-05 -9.786747233675995e-06
0.0002434451127886426 0.00016107659029398957 0.0 0.0 -8.505005671899987e-05 -1.2857683048775109e-05
0.0002660519880393151 0.00015648430560763192 0.0 0.0 3.9376068320801745e-05 -2.254420075742977e-05
0.0002941789408015417 0.00014559616602221592 0.0 0.0 -0.00012698975142142084 -3.04805698946723e-05
0.0003207412510141234 0.00012129544305423273 0.0 0.0 0.00011169169291751126 -5.9545212028663764e-05
0.0003135829891526842 0.00010611182172521416 0.0 0.0 0.02110054398081044 0.00021294191468161373
1.5881867761018131e-22 0.003185028675174847 0.0 0.0 -0.0016266742815029258 -1.9905274260476058e-20
5.185884598622301e-06 0.0031429235477715345 0.0 0.0 -0.0001156430070198111 -1.2372951678514026e-05
1.127010272277012e-05 0.0030619794509932482 0.0 0.0 -9.86388449966658e-06 -1.3790716424959982e-05
2.1181885741769348e-05 0.002988437147401652 0.0 0.0 -0.0001118013238272489 -1.3714911008679228e-05
3.5024784789853046e-05 0.0029232005193375733 0.0 0.0 -5.522136772073965e-06 -1.2902984564982107e-05
5.250505023472513e-05 0.0028661373268240786 0.0 0.0 -0.00010716813939651235 -1.1548160747486785e-05
7.316210845082837e-05 0.002816805435876349 0.0 0.0 -7.309038982407357e-07 -9.802174163833687e-06
9.643420894600791e-05 0.0027745721197945995 0.0 0.0 -0.00010224838659358673 -7.839732606419665e-06
0.00012172208657039961 0.0027386828707488997 0.0 0.0 4.238684633437828e-06 -5.8093624761015885e-06
0.00014843313543030212 0.0027083328739230905 0.0 0.0 -9.730161330003792e-05 -3.832000931657935e-06
0.00017601457454879775 0.0026827189014691152 0.0 0.0 9.102594965765194e-06 -1.997162056541402e-06
0.00020397526188363225 0.0026610768828637544 0.0 0.0 -9.25706916777365e-05 -3.625803321995533e-07
0.00023189655575717153 0.002642706544943022 0.0 0.0 1.3661076208152355e-05 1.0419367798958888e-06
0.0002594343666606687 0.0026269846889098543 0.0 0.0 -8.821404964405051e-05 2.2088364784507853e-06
0.00028631525337624656 0.002613369510921759 0.0 0.0 1.7796617577025154e-05 3.146371816694492e-06
0.0003123291909206935 0.002601398657596793 0.0 0.0 -8.431007498536211e-05 3.872889135603271e-06
0.0003373209497195483 0.002590683476050857 0.0 0.0 2.1465880016582553e-05 4.412179847029438e-06
0.00036118133927598054 0.0025809013335852866 0.0 0.0 -8.087312086036736e-05 4.790101602080698e-06
0.0003838390194878006 0.0025717872968729224 0.0 0.0 2.4676944634853906e-05 5.032280443017857e-06
0.00040525321369780365 0.002563125962604542 0.0 0.0 -7.787883819178806e-05 5.162701379414375e-06
0.0004254074287312325 0.0025547438786365103 0.0 0.0 2.7465224178488824e-05 5.2029423619374076e-06
0.000444304160778377 0.0025465027584992595 0.0 0.0 -7.528488535092142e-05 5.171859767045747e-06
0.000461960502719338 0.002538293549174971 0.0 0.0 2.9876871185244004e-05 5.085563655945109e-06
0.00047840454356875347 0.0025300313299070785 0.0 0.0 -7.304356841542932e-05 4.957568721386188e-06
0.0004936724464594705 0.00252165097787512 0.0 0.0 3.1959527517601836e-05 4.799038533481127e-06
0.0005078060980672481 0.0025131035183121875 0.0 0.0 -7.110837855123895e-05 4.619069597405859e-06
0.0005208512334860628 0.0025043530723952907 0.0 0.0 3.375786853079788e-05 4.42498083173553e-06
0.0005328559531476997 0.0024953743194145064 0.0 0.0 -6.943689893313385e-05 4.222588554629445e-06
0.0005438695607090806 0.0024861503966629867 0.0 0.0 3.5311823928415675e-05 4.0164562921841685e-06
0.0005539416621482684 0.002476671168899164 0.0 0.0 -6.799177824406126e-05 3.8101149630545984e-06
0.0005631214762961042 0.0024669318079117383 0.0 0.0 3.6656169556614716e-05 3.6062527225639104e-06
0.000571457315640725 0.0024569316309949636 0.0 0.0 -6.674075046518705e-05 3.4068759532134073e-06
0.0005789962035559561 0.00244667315470183 0.0 0.0 3.782076740381843e-05 3.2134440358577227e-06
0.0005857836002453443 0.002436161326961797 0.0 0.0 -6.565622784544232e-05 3.0269809901527114e-06
0.0005918632148130771 0.0024254029065143507 0.0 0.0 3.883107339183305e-05 2.8481671732478168e-06
0.0005972768851150666 0.002414405963663805 0.0 0.0 -6.471473920128553e-05 2.677414031812634e-06
0.00060206451054139 0.002403179480674249 0.0 0.0 3.970872030829614e-05 2.514924659011004e-06
0.00060626402575355 0.0023917330337814044 0.0 0.0 -6.389634813332444e-05 2.3607425556404276e-06
0.0006099114057531125 0.0023800765418789806 0.0 0.0 4.047208356138118e-05 2.214790683053146e-06
0.0006130406945746413 0.002368220069525871 0.0 0.0 -6.318411279197591e-05 2.0769025570169697e-06
0.000615684051461376 0.002356173674080865 0.0 0.0 4.1136790240659524e-05 1.9468468914034254e-06
0.0006178718096441827 0.0023439472885709452 0.0 0.0 -6.256361089172736e-05 1.8243469832648353e-06
0.0006196325438764179 0.0023315506334020426 0.0 0.0 4.1716159042174306e-05 1.7090958897262199e-06
0.0006209931436984348 0.0023189931512575695 0.0 0.0 -6.202253454533571e-05 1.6007682050930556e-06
0.0006219788900780395 0.0023062839605589324 0.0 0.0 4.222157183208765e-05 1.499029134550072e-06
0.000622613533605107 0.0022934318237116465 0.0 0.0 -6.155035058931347e-05 1.4035413885322306e-06
0.0006229193728471327 0.0022804451270570804 0.0 0.0 4.2662783470891956e-05 1.3139703887012977e-06
0.0006229173318155233 0.0022673318700291026 0.0 0.0 -6.113801843011374e-05 1.2299880861298953e-06
0.0006226270357640693 0.0022540996614839846 0.0 0.0 4.3048178501673524e-05 1.1512757441799204e-06
0.0006220668847525802 0.0022407557215610428 0.0 0.0 -6.0777756663372236e-05 1.0775258592603146e-06
0.0006212541245847996 0.0022273068877524203 0.0 0.0 4.338498330960956e-05 1.008443451393161e-06
0.0006202049148541251 0.002213759624115156 0.0 0.0 -6.0462850135618916e-05 9.437468410298773e-07
0.0006189343939416416 0.0022001200327727917 0.0 0.0 4.367944167759627e-05 8.831680528479486e-07
0.0006174567408840252 0.0021863938670274477 0.0 0.0 -6.018749013175843e-05 8.264529090424048e-07
0.0006157852340968537 0.002172586545545309 0.0 0.0 4.3936960359061597e-05 7.73360930826514e-07
0.0006139323069757991 0.002158703167188042 0.0 0.0 -5.9946641595233605e-05 7.236650529982404e-07
0.0006119096004415479 0.0021447485261596793 0.0 0.0 4.416223038218397e-05 6.771512431801507e-07
0.0006097280125130617 0.0021307271272105466 0.0 0.0 -5.9735932236211454e-05 6.33618030454117e-07
0.0006073977450134548 0.0021166432007031846 0.0 0.0 4.435932849146927e-05 5.928759857338442e-07
0.0006049283475209373 0.002102500717389088 0.0 0.0 -5.955155953340347e-05 5.547471698035618e-07
0.0006023287586936063 0.0020883034027888974 0.0 0.0 4.4531802547378486e-05 5.190645665949765e-07
0.0005996073450876913 0.0020740547510979834 0.0 0.0 -5.9390212284803436e-05 4.856715066001551e-07
0.0005967719376010518 0.0020597580385566575 0.0 0.0 4.4682743700462857e-05 4.5442111043183684e-07
0.0005938298656667262 0.0020454163362588424 0.0 0.0 -5.924900411943433e-05 4.2517572522237463e-07
0.0005907879893195315 0.002031032522375696 0.0 0.0 4.481484767055301e-05 3.978063945066874e-07
0.0005876527292598019 0.0020166092937836 0.0 0.0 -5.91254168688638e-05 3.7219234327038253e-07
0.0005844300950267276 0.0020021491771041768 0.0 0.0 4.493046714929732e-05 3.482204717772321e-07
0.0005811257113968897 0.00198765453916077 0.0 0.0 -5.9017252149380715e-05 3.257848967339462e-07
0.0005777448431125813 0.0019731275968634205 0.0 0.0 4.5031656598597714e-05 3.0478649434069905e-07
0.0005742924180425721 0.001958570426542367 0.0 0.0 -5.8922589774937264e-05 2.851324847316151e-07
0.0005707730488721226 0.0019439849727485433 0.0 0.0 4.5120210873074267e-05 2.667360186485218e-07
0.0005671910534141717 0.001929373056544538 0.0 0.0 -5.88397519180455e-05 2.495158145966194e-07
0.0005635504736256598 0.0019147363833075122 0.0 0.0 4.5197698484355066e-05 2.3339578830871188e-07
0.0005598550934168224 0.0019000765500649143 0.0 0.0 -5.8767272196927475e-05 2.1830473626949318e-07
0.0005561084553203788 0.0018853950523898232 0.0 0.0 4.5265490401308925e-05 2.0417599941145595e-07
0.0005523138761041761 0.0018706932908768934 0.0 0.0 -5.870386883367331e-05 1.9094719068765567e-07
0.0005484744613864805 0.0018559725772229097 0.0 0.0 4.532478498604916e-05 1.785598992616491e-07
0.000544593119321175 0.001841234139936945 0.0 0.0 -5.864842145801168e-05 1.6695944795506968e-07
0.0005406725734147425 0.001826479129695903 0.0 0.0 4.537662967963316e-05 1.560946397890779e-07
0.0005367153745264344 0.0018117086243683877 0.0 0.0 -5.859995086080914e-05 1.4591753751342154e-07
0.0005327239121092702 0.00179692363372522 0.0 0.0 4.542193983633888e-05 1.3638324054208442e-07
0.0005287004247386633 0.0017821251038598806 0.0 0.0 -5.8557601456275235e-05 1.274496986382388e-07
0.0005246470099755354 0.0017673139213367408 0.0 0.0 4.5461515092662754e-05 1.1907750877774691e-07
0.0005205656336083151 0.0017524909170756214 0.0 0.0 -5.8520625986769096e-05 1.1122976799126738e-07
0.0005164581383106559 0.0017376568699973812 0.0 0.0 4.549605365970972e-05 1.0387187040702961e-07
0.0005123262517610533 0.0017228125104458032 0.0 0.0 -5.848837219502847e-05 9.69713888286346e-08
0.0005081715942538085 0.001707958523393615 0.0 0.0 4.552616472459057e-05 9.049790878576944e-08
0.0005039956858324135 0.0016930955514519533 0.0 0.0 -5.84602712477598e-05 8.44229058913717e-08
0.0004997999529866809 0.0016782241976980993 0.0 0.0 4.5552379288541466e-05 7.871961237878146e-08
0.0004955857349334114 0.0016633450283238883 0.0 0.0 -5.843582762772646e-05 7.336290294229992e-08
0.0004913542895180946 0.001648458575127759 0.0 0.0 4.557515956544241e-05 6.83291789906385e-08
0.0004871067987475655 0.0016335653378513712 0.0 0.0 -5.841461038484403e-05 6.359626905769102e-08
0.00048284437400010667 0.0016186657863794102 0.0 0.0 4.5594907182388927e-05 5.914333129746754e-08
0.00047856806091478777 0.0016037603628092222 0.0 0.0 -5.839624546284336e-05 5.4950749977427174e-08
0.00047427884399861087 0.0015888494833916503 0.0 0.0 4.561197025527411e-05 5.1000065570152e-08
0.0004699776509590086 0.0015739335403678507 0.0 0.0 -5.838040913727215e-05 4.7273877130590836e-08
0.0004656653567891791 0.0015590129036915593 0.0 0.0 4.562664955468662e-05 4.375578891720839e-08
0.0004613427876195473 0.001544087922653981 0.0 0.0 -5.836682225200142e-05 4.043029555464645e-08
0.0004570107243554159 0.0015291589274294942 0.0 0.0 4.563920382203346e-05 3.728277023966418e-08
0.00045266990611289375 0.001514226230525704 0.0 0.0 -5.8355245331783486e-05 3.4299343014182384e-08
0.00044832103347416664 0.0014992901281546092 0.0 0.0 4.564985434856827e-05 3.146689414292242e-08
0.00044396477157115113 0.0014843509015421894 0.0 0.0 -5.834547432654778e-05 2.8772939037380232e-08
0.00043960175301116256 0.0014694088181655988 0.0 0.0 4.565878885471643e-05 2.6205638765377463e-08
0.00043523258066555527 0.0014544641329262613 0.0 0.0 -5.833733701575525e-05 2.3753668668418e-08
0.0004308578303203107 0.0014395170892729289 0.0 0.0 4.566616479517792e-05 2.1406257145984917e-08
0.00042647805321113926 0.001424567920275473 0.0 0.0 -5.83306899857802e-05 1.9153054916967293e-08
0.0004220937784498984 0.0014096168496500216 0.0 0.0 4.567211217471295e-05 1.6984154041499444e-08
0.00041770551535286497 0.0013946640927451756 0.0 0.0 -5.8325416083544594e-05 1.489000450911361e-08
0.0004133137556837413 0.001379709857490278 0.0 0.0 4.567673581693714e-05 1.2861386722664604e-08
0.0004089189758165117 0.0013647543453065437 0.0 0.0 -5.83214223563044e-05 1.0889376285286387e-08
0.00040452163883363554 0.0013497977519976358 0.0 0.0 4.568011722172656e-05 8.965286230956139e-09
0.00040012219656492383 0.0013348402686129508 0.0 0.0 -5.83186384069726e-05 7.080651659072644e-09
0.0003957210915736282 0.0013198820822826168 0.0 0.0 4.568231598362426e-05 5.227177852292365e-09
0.0003913187591081796 0.0013049233770482899 0.0 0.0 -5.8317015178976786e-05 3.3967028508462282e-09
0.00038691562901606357 0.0012899643346724744 0.0 0.0 4.568337084265837e-05 1.5811677219813337e-09
0.00038251212763502776 0.001275005135433185 0.0 0.0 -5.831652402962795e-05 -2.2741715764241013e-10
0.00037810867967223136 0.0012600459589297078 0.0 0.0 4.568330041874633e-05 -2.037016649759568e-09
0.0003737057100736209 0.0012450869848689803 0.0 0.0 -5.831715631713047e-05 -3.855600810300473e-09
0.0003693036458922379 0.0012301283938515092 0.0 0.0 4.568210347840251e-05 -5.691178589918404e-09
0.00036490291817313904 0.0012151703681774731 0.0 0.0 -5.831892316309167e-05 -7.55182911295121e-09
0.00036050396384968564 0.0012002130926510222 0.0 0.0 4.567975895619744e-05 -9.445752532141055e-09
0.00035610722766807513 0.0011852567553898787 0.0 0.0 -5.83218556728922e-05 -1.1381303974137072e-08
0.00035171316414706104 0.0011703015486572706 0.0 0.0 4.56762255414266e-05 -1.3366994745399232e-08
0.00034732223958075254 0.001155347669717506 0.0 0.0 -5.832600552082407e-05 -1.5411599036990915e-08
0.00034293493409499475 0.0011403953217082085 0.0 0.0 4.567144100703997e-05 -1.75241221346328e-08
0.0003385517437621386 0.0011254447145403312 0.0 0.0 -5.833144580211431e-05 -1.9713893293412527e-08
0.00033417318279209234 0.0011104960658267226 0.0 0.0 4.5665321064846764e-05 -2.1990576190740463e-08
0.00032979978579995855 0.0010955496018506211 0.0 0.0 -5.8338272361897585e-05 -2.4364230342445448e-08
0.00032543211016669994 0.0010806055585732353 0.0 0.0 4.5657757894555654e-05 -2.6845349748619123e-08
0.00032107073850155186 0.0010656641826889488 0.0 0.0 -5.834660543508404e-05 -2.9444917824935843e-08
0.0003167162812184202 0.0010507257327216383 0.0 0.0 4.5648618259460684e-05 -3.217443555526313e-08
0.00031236937923613046 0.0010357904801835368 0.0 0.0 -5.835659184450729e-05 -3.504602101903585e-08
0.0003080307068151971 0.001020858710797556 0.0 0.0 4.5637741150124844e-05 -3.807241216453698e-08
0.00030370097455166534 0.0010059307257745903 0.0 0.0 -5.8368407562391436e-05 -4.126707790069739e-08
0.00029938093252519944 0.0009910068431907327 0.0 0.0 4.562493486577547e-05 -4.464424152215117e-08
0.00029507137364018335 0.0009760873994196274 0.0 0.0 -5.838226078941019e-05 -4.821898274567048e-08
0.0002907731371490637 0.0009611727506524731 0.0 0.0 4.560997371627542e-05 -5.20072921511008e-08
0.00028648711240161073 0.0009462632745406779 0.0 0.0 -5.839839572065143e-05 -5.602617123099535e-08
0.0002822142428169231 0.0009313593719311568 0.0 0.0 4.5592593938323335e-05 -6.029369822358778e-08
0.0002779555301109504 0.0009164614687145005 0.0 0.0 -5.8417096901098534e-05 -6.482915052897532e-08
0.0002737120387943086 0.0009015700178083479 0.0 0.0 4.557248897219066e-05 -6.965309010543552e-08
0.00026948490097786904 0.0008866855012799673 0.0 0.0 -5.843869430173141e-05 -7.478747839095336e-08
0.0002652753214843784 0.0008718084326125003 0.0 0.0 4.5549303901760074e-05 -8.025583891403155e-08
0.00026108458332401786 0.0008569393591527517 0.0 0.0 -5.846356939550527e-05 -8.60833405102188e-08
0.00025691405354762197 0.0008420788647396239 0.0 0.0 4.552262896332878e-05 -9.229701551888118e-08
0.00025276518951076424 0.0008272275725350004 0.0 0.0 -5.8492162104718803e-05 -9.892587718766076e-08
0.00024863954560199917 0.0008123861480820869 0.0 0.0 4.549199197602231e-05 -1.0600117842794916e-07
0.00024453878044942826 0.0007975553026050711 0.0 0.0 -5.8524979132054634e-05 -1.1355655292607722e-07
0.00024046466468622484 0.000782735796578965 0.0 0.0 4.545684929195613e-05 -1.2162836268193606e-07
0.00023641908929506294 0.0007679284436056399 0.0 0.0 -5.856260372891849e-05 -1.3025589417465198e-07
0.00023240407460754689 0.0007531341146291211 0.0 0.0 4.5416575214853776e-05 -1.3948173260575764e-07
0.00022842178002490721 0.0007383537425115496 0.0 0.0 -5.860570718595952e-05 -1.4935210718158842e-07
0.0002244745145171978 0.0007235883270216044 0.0 0.0 4.5370449306040596e-05 -1.599173428022075e-07
0.00022056474801288508 0.0007088389402813175 0.0 0.0 -5.865506293560173e-05 -1.7123231781308087e-07
0.00021669512374122732 0.0006941067327152181 0.0 0.0 4.531764096421184e-05 -1.8335704892206636e-07
0.0002128684716572985 0.0006793929395782952 0.0 0.0 -5.871156337948491e-05 -1.9635736707229127e-07
0.0002090878230827942 0.0006646988881046135 0.0 0.0 4.525719066543997e-05 -2.103056562708554e-07
0.00020535642667538973 0.0006500260053545724 0.0 0.0 -5.877624106768553e-05 -2.2528177166998044e-07
0.00020167776592519237 0.0006353758268723018 0.0 0.0 4.518798631548558e-05 -2.413741151171406e-07
0.00019805557834875627 0.0006207500062109243 0.0 0.0 -5.885029503831479e-05 -2.586808264859507e-07
0.0001944938766103794 0.0006061503254257527 0.0 0.0 4.510873353760791e-05 -2.773113323479475e-07
0.00019099697183266347 0.0005915787066852259 0.0 0.0 -5.893512478567808e-05 -2.9738800305916663e-07
0.00018756949939526972 0.0005770372251029368 0.0 0.0 4.501791657586128e-05 -3.1904831472150813e-07
0.00018421644756189348 0.0005625281229349077 0.0 0.0 -5.9032374962467203e-05 -3.4244723225759343e-07
0.00018094318936216137 0.0005480538252633586 0.0 0.0 4.4913747064182375e-05 -3.677602032726513e-07
0.00017775551821389842 0.0005336169573823686 0.0 0.0 -5.914399507110234e-05 -3.9518668285562844e-07
0.00017465968781862781 0.0005192203640506087 0.0 0.0 4.479409415247544e-05 -4.2495438393912784e-07
0.00017166245703241088 0.0005048671307393714 0.0 0.0 -5.927232112108434e-05 -4.573243495663423e-07
0.00016877114046181353 0.000490560607155937 0.0 0.0 4.4656388556147016e-05 -4.925972813657996e-07
0.0001659936657178248 0.0004763044331467232 0.0 0.0 -5.942018923820857e-05 -5.311208480201883e-07
0.00016333863837773158 0.00046210256723663347 0.0 0.0 4.4497487761385e-05 -5.732993219630719e-07
0.0001608154159691714 0.000447959317866514 0.0 0.0 -5.959109641482307e-05 -6.19604019630308e-07
0.00015843419235482052 0.000433879377640613 0.0 0.0 4.431348436091469e-05 -6.705888747054328e-07
0.0001562060944503521 0.0004198678601855584 0.0 0.0 -5.9789430721403835e-05 -7.269045265667585e-07
0.00015414329293599068 0.0004059303404828264 0.0 0.0 4.409943082398838e-05 -7.893258896539759e-07
0.00015225913001450743 0.00039207289662475847 0.0 0.0 -6.002080545420207e-05 -8.587675662897814e-07
0.00015056826558600885 0.0003783021558239112 0.0 0.0 4.384894139129042e-05 -9.363402750396915e-07
0.00014908684749984313 0.0003646253372822355 0.0 0.0 -6.0292549718983426e-05 -1.0233516036190025e-06
0.0001478327043724159 0.0003510503026249738 0.0 0.0 4.3553617046077856e-05 -1.1214439830143936e-06
0.0001468255741378454 0.0003375855873619298 0.0 0.0 -6.061443943948205e-05 -1.2325093115374882e-06
0.00014608735385009938 0.0003242404546350931 0.0 0.0 4.320222896310932e-05 -1.3590864959659192e-06
0.0001456424089255915 0.000311024876373064 0.0 0.0 -6.0999814470529814e-05 -1.5039046213465024e-06
0.00014551787658253964 0.000297949598504965 0.0 0.0 4.277962146221736e-05 -1.671166424874063e-06
0.00014574409099758114 0.00028502594800439976 0.0 0.0 -6.146737253606444e-05 -1.8646289499035188e-06
0.00014635487496632226 0.0002722659704735728 0.0 0.0 4.226549344115804e-05 -2.0920271152408045e-06
0.00014738815246150534 0.00025968165402496775 0.0 0.0 -6.204434514258273e-05 -2.3575959875273738e-06
0.00014888592567706727 0.00024728543432375483 0.0 0.0 4.163408820713325e-05 -2.6778386621903417e-06
0.00015089527622514867 0.00023508743077942307 0.0 0.0 -6.277311241114172e-05 -3.053248060753944e-06
0.00015346685199731368 0.0002230975513969987 0.0 0.0 4.085925335286394e-05 -3.5254488944950254e-06
0.00015665694351144646 0.00021131574840064485 0.0 0.0 -6.372801752280014e-05 -4.071629700876317e-06
0.00016052008067952755 0.00019974045441208794 0.0 0.0 3.994238158717728e-05 -4.813298739006185e-06
0.00016511457471997274 0.00018833345774002517 0.0 0.0 -6.506583345652125e-05 -5.624342587918075e-06
0.00017047252496950037 0.0001770515506430033 0.0 0.0 3.903066240550134e-05 -6.89689009155585e-06
0.0001766162385081689 0.00016571503889068015 0.0 0.0 -6.719099585964861e-05 -8.087108899125007e-06
0.0001834389839581685 0.00015411802742031623 0.0 0.0 3.8896911622672385e-05 -1.0536889250323993e-05
0.0001907478759721818 0.0001415081817309742 0.0 0.0 -7.128939178633296e-05 -1.2031178146313694e-05
0.00019776211618424702 0.00012696630416696956 0.0 0.0 4.3096880726728806e-05 -1.7354676096037903e-05
0.0002031802411281627 0.00010726668083477971 0.0 0.0 -8.057528211953633e-05 -1.6896357933188157e-05
0.00020292675489849612 7.995747212745557e-05 0.0 0.0 7.22540375674252e-05 -2.870303872104865e-05
0.00019224097431979885 5.823060221985125e-05 0.0 0.0 -7.975245058208292e-05 1.7682768040163353e-05
0.00019511779481823957 5.191552031011534e-05 0.0 0.0 -0.020887262369029738 0.00012251044321083375
1.164670302474663e-21 0.0031504944860405977 0.0 0.0 -0.0017172703248568603 1.545835128739098e-20
6.84541107384031e-06 0.003107283289283132 0.0 0.0 -1.47160403806322e-05 -2.036593564249181e-05
1.4650447612272345e-05 0.003024921422323296 0.0 0.0 -0.00011640598520554839 -2.2428663454027688e-05
2.722934084983823e-05 0.0029517480855744548 0.0 0.0 -9.706504973957511e-06 -2.1928944373960336e-05
4.447753972562402e-05 0.0028886864983601974 0.0 0.0 -0.00011093143638700802 -2.0193662841192434e-05
6.580481707896849e-05 0.0028352294295975666 0.0 0.0 -4.015501439003148e-06 -1.7566924764717542e-05
9.041776758353735e-05 0.0027904955688055765 0.0 0.0 -0.00010503886892824958 -1.4418752870090384e-05
0.00011747133576853494 0.002753395995570618 0.0 0.0 1.9174254705376693e-06 -1.1044374560919395e-05
0.00014614027649394098 0.0027227853904936944 0.0 0.0 -9.918800820605392e-05 -7.696093601156769e-06
0.00017567905403070665 0.0026975459435343305 0.0 0.0 7.607218762365451e-06 -4.562408630988833e-06
0.00020545830676531418 0.0026766479685692668 0.0 0.0 -9.372601236625765e-05 -1.762880905637207e-06
0.00023497566763685027 0.002659186362892461 0.0 0.0 1.2791162282416543e-05 6.428637897624093e-07
0.0002638487207564923 0.0026443935699651975 0.0 0.0 -8.885231925411706e-05 2.6407673821901697e-06
0.0002917988193884665 0.002631635691169464 0.0 0.0 1.7340531212099963e-05 4.247064683968802e-06
0.00031863214533908333 0.002620399070355137 0.0 0.0 -8.462705870747592e-05 5.495906098931645e-06
0.0003442216185303034 0.002610273068606158 0.0 0.0 2.1252039356248816e-05 6.430101230373799e-06
0.0003684912754001401 0.0026009325618583474 0.0 0.0 -8.101278738131839e-05 7.094960973080648e-06
0.00039140353974237625 0.0025921219946253675 0.0 0.0 2.4588806175869445e-05 7.534438042432045e-06
0.0004129492161750833 0.0025836417024798003 0.0 0.0 -7.793267082857383e-05 7.788977665853955e-06
0.00043313979725475676 0.002575336596361282 0.0 0.0 2.7432943425835152e-05 7.894487307535439e-06
0.0004520016291075134 0.002567086999912485 0.0 0.0 -7.530479854154048e-05 7.882034409444901e-06
0.0004695715201660052 0.002558801321492946 0.0 0.0 2.9862918720092156e-05 7.777971623259697e-06
0.0004858934484381714 0.002550410229883852 0.0 0.0 -7.305585520509355e-05 7.604300679930719e-06
0.0005010160958568441 0.002541862035448371 0.0 0.0 3.194618139478508e-05 7.379146243741968e-06
0.0005149910025626697 0.002533119025866766 0.0 0.0 -7.112436816665671e-05 7.117263383711562e-06
0.000527871185830723 0.002524154553699549 0.0 0.0 3.373845921272406e-05 6.830532036115407e-06
0.0005397101083506059 0.002514950715451985 0.0 0.0 -6.945994941750983e-05 6.528414000738506e-06
0.000550560910506258 0.0025054964968938684 0.0 0.0 3.528527639825576e-05 6.218360689007267e-06
0.0005604758433614648 0.002495786287236343 0.0 0.0 -6.802145183586533e-05 5.906168296175628e-06
0.0005695058551620457 0.002485818686442863 0.0 0.0 3.662386802836946e-05 5.596281679870799e-06
0.0005777002959008234 0.002475595546614789 0.0 0.0 -6.677512470062963e-05 5.292050845815815e-06
0.0005851067130639146 0.0024651212011524972 0.0 0.0 3.778488503054442e-05 4.995945120107016e-06
0.0005917707179768757 0.0024544018451704407 0.0 0.0 -6.569307575420393e-05 4.709730423360913e-06
0.0005977359068451031 0.002443445038168014 0.0 0.0 3.87937612564122e-05 4.434614942021761e-06
0.0006030438240870007 0.0024322593057820993 0.0 0.0 -6.47520663086018e-05 4.171368065062882e-06
0.0006077339582247821 0.002420853821996153 0.0 0.0 3.967177066549363e-05 3.920416959876853e-06
0.0006118437626406461 0.0024092381567503525 0.0 0.0 -6.393258537419327e-05 3.681924576880017e-06
0.0006154086950996111 0.0023974220767405846 0.0 0.0 4.043683816700496e-05 3.4558523552235924e-06
0.0006184622711894984 0.0023854153894588732 0.0 0.0 -6.321813872529376e-05 3.242010369704099e-06
0.0006210361278201602 0.0023732278223552116 0.0 0.0 4.110416415715714e-05 3.040097260135409e-06
0.0006231600937139601 0.0023608689304767437 0.0 0.0 -6.259469892952571e-05 2.8497318231506083e-06
0.00062486226445694 0.0023483480271426238 0.0 0.0 4.1686710161395e-05 2.6704779012542415e-06
0.00062616908018921 0.00233567413320115 0.0 0.0 -6.205027528154402e-05 2.5018638262638783e-06
0.0006271054044290471 0.0023228559412138915 0.0 0.0 4.2195580779266556e-05 2.3433975252755835e-06
0.0006276946028582043 0.002309901791576274 0.0 0.0 -6.157457358478108e-05 2.1945781210402026e-06
0.000627958621167202 0.002296819658128218 0.0 0.0 4.264032762687836e-05 2.054904766091506e-06
0.0006279180612770842 0.0022836171412544556 0.0 0.0 -6.11587238555235e-05 1.923883249784809e-06
0.0006275922554304849 0.002270301466844215 0.0 0.0 4.302919396612548e-05 1.801030870692157e-06
0.0006269993377891853 0.0022568794897837446 0.0 0.0 -6.079505998118155e-05 1.6858799151754124e-06
0.0006261563132813496 0.002243357700904291 0.0 0.0 4.336931366474546e-05 1.57798007176203e-06
0.0006250791235412708 0.00222974223651403 0.0 0.0 -6.047693957699198e-05 1.4768999822259616e-06
0.0006237827098480996 0.0022160388898128432 0.0 0.0 4.366687468862631e-05 1.3822281664848865e-06
0.0006222810730302471 0.002202253123624961 0.0 0.0 -6.01985953016273e-05 1.293573422388812e-06
0.0006205873303443638 0.0021883900839991094 0.0 0.0 4.392725462958139e-05 1.2105648744646647e-06
0.0006187137693693616 0.0021744546143211865 0.0 0.0 -5.995501105614118e-05 1.1328517121300652e-06
0.0006166718989868108 0.002160451269658527 0.0 0.0 4.4155133995552e-05 1.060102741290024e-06
0.0006144724975285055 0.002146384331114872 0.0 0.0 -5.9741818122287075e-05 9.920057770243192e-07
0.0006121256581929003 0.0021322578200284156 0.0 0.0 4.435459162808515e-05 9.282669381133256e-07
0.0006096408318405748 0.0021180755118837694 0.0 0.0 -5.955520736453801e-05 8.686098704427814e-07
0.0006070268672766172 0.0021038409498468948 0.0 0.0 4.452918555301801e-05 8.127749389650674e-07
0.0006042920491423419 0.002089557457848807 0.0 0.0 -5.9391854640396756e-05 7.605183933380617e-07
0.0006014441335303836 0.0020752281531715203 0.0 0.0 4.4682021949099646e-05 7.116115392079183e-07
0.0005984903814415867 0.0020608559585102017 0.0 0.0 -5.924885702425747e-05 6.658399158354037e-07
0.0005954375901952824 0.00204644361348736 0.0 0.0 4.481581417304953e-05 6.23002491748775e-07
0.000592292122911306 0.0020319936856182017 0.0 0.0 -5.912367804916739e-05 5.829108888840166e-07
0.0005890599361669491 0.0020175085807225754 0.0 0.0 4.493293354988163e-05 5.453886352786512e-07
0.0005857466059314044 0.0020029905527934907 0.0 0.0 -5.9014100573706455e-05 5.102704437940481e-07
0.0005823573518881533 0.0019884417133369863 0.0 0.0 4.5035453220635736e-05 4.774015308209106e-07
0.0005788970602288686 0.001973864040195078 0.0 0.0 -5.891818600518828e-05 4.4663697256478374e-07
0.0005753703050183722 0.001959259385870065 0.0 0.0 4.51251860549692e-05 4.178410817087352e-07
0.0005717813682144526 0.001944629485368591 0.0 0.0 -5.8834238970935176e-05 3.908868352479932e-07
0.0005681342584251687 0.0019299759635914861 0.0 0.0 4.520371757030185e-05 3.656553182187984e-07
0.0005644327284807633 0.0019153003422860888 0.0 0.0 -5.876077666708691e-05 3.420352142595863e-07
0.0005606802918961795 0.0019006040465819668 0.0 0.0 4.527243453083748e-05 3.1992231448830046e-07
0.0005568802382913442 0.001885888411133655 0.0 0.0 -5.869650217266994e-05 2.992190675013269e-07
0.0005530356478338953 0.001871154685891119 0.0 0.0 4.533254980678271e-05 2.79834144791219e-07
0.0005491494047701283 0.001856404041515534 0.0 0.0 -5.864028124190389e-05 2.616820430096788e-07
0.000545224210097316 0.0018416375744670591 0.0 0.0 4.538512406569359e-05 2.446827042031129e-07
0.000541262593435049 0.001826856311778919 0.0 0.0 -5.85911220660389e-05 2.2876116471574155e-07
0.0005372669241457779 0.0018120612155300077 0.0 0.0 4.5431084673362146e-05 2.13847220124669e-07
0.000533239421753028 0.001797253187046207 0.0 0.0 -5.8548157618059456e-05 1.9987511843500916e-07
0.0005291821657024173 0.0017824330708420609 0.0 0.0 4.547124215151081e-05 1.8678326801820902e-07
0.0005250971045062004 0.0017676016583117425 0.0 0.0 -5.8510630281280516e-05 1.7451396585411788e-07
0.0005209860643169619 0.001752759691200245 0.0 0.0 4.5506304579820086e-05 1.630131336171508e-07
0.0005168507569592729 0.001737907864851305 0.0 0.0 -5.847787839537979e-05 1.5223009757359823e-07
0.000512692787463159 0.0017230468312535393 0.0 0.0 4.5536890111032725e-05 1.4211734025682769e-07
0.0005085136611242599 0.0017081772019074625 0.0 0.0 -5.844932457090587e-05 1.3263031040729352e-07
0.0005043147901271507 0.001693299550505398 0.0 0.0 4.556353792392696e-05 1.2372721394220696e-07
0.0005000974997623213 0.0016784144154530078 0.0 0.0 -5.8424465462793046e-05 1.1536883245228616e-07
0.0004958630342555044 0.0016635223022344638 0.0 0.0 4.558671773966568e-05 1.0751835261447063e-07
0.000491612562243217 0.0016486236856331033 0.0 0.0 -5.840286288723046e-05 1.001411955458718e-07
0.00048734718191725807 0.0016337190118203644 0.0 0.0 4.560683815096477e-05 9.320487788570765e-08
0.00048306792585610945 0.0016188087003141999 0.0 0.0 -5.838413607637356e-05 8.667884960104292e-08
0.0004787757655696381 0.0016038931458280956 0.0 0.0 4.562425378544911e-05 8.053437889932484e-08
0.00047447161577613214 0.0015889727200042068 0.0 0.0 -5.8367954968991504e-05 7.474440617946578e-08
0.00047015633842540684 0.001574047773045641 0.0 0.0 4.563927160297762e-05 6.928344569465204e-08
0.0004658307464945803 0.0015591186352617726 0.0 0.0 -5.835403435933031e-05 6.41274426778078e-08
0.0004614956075659258 0.001544185618518971 0.0 0.0 4.5652156264895855e-05 5.925371425463677e-08
0.00045715164720358054 0.0015292490176109705 0.0 0.0 -5.834212891726615e-05 5.464078663245135e-08
0.0004527995521475353 0.001514309111561588 0.0 0.0 4.566313487961164e-05 5.0268368130589394e-08
0.00044843997333686127 0.0014993661648508225 0.0 0.0 -5.833202881602977e-05 4.611719864051466e-08
0.00044407352877239324 0.0014844204285738203 0.0 0.0 4.5672400929108346e-05 4.216901717651314e-08
0.0004397008062404279 0.001469472141550993 0.0 0.0 -5.832355604582591e-05 3.8406430285641696e-08
0.0004353223658957466 0.0014545215313772058 0.0 0.0 4.56801177158659e-05 3.481289074814273e-08
0.0004309387427305103 0.001439568815420309 0.0 0.0 -5.831656128625466e-05 3.137256674443697e-08
0.0004265504489254041 0.0014246142017801445 0.0 0.0 4.56864212443046e-05 2.807032804211674e-08
0.00042215797610578175 0.0014096578902096108 0.0 0.0 -5.831092125694942e-05 2.4891628363533924e-08
0.00041776179750485816 0.0013947000729896094 0.0 0.0 4.5691422597853026e-05 2.182248461926259e-08
0.0004133623700472889 0.0013797409357727828 0.0 0.0 -5.830653656053856e-05 1.8849384666563395e-08
0.00040896013635982256 0.0013647806584046486 0.0 0.0 4.569520993628071e-05 1.5959240029549474e-08
0.0004045555267188082 0.0013498194157150348 0.0 0.0 -5.830332993125083e-05 1.3139335798475083e-08
0.00040014896094514607 0.0013348573782852233 0.0 0.0 4.569785000144936e-05 1.0377248527550318e-08
0.000395740850251193 0.0013198947132001728 0.0 0.0 -5.83012448334921e-05 7.660830544963578e-09
0.000391331599050202 0.0013049315847850915 0.0 0.0 4.569938932437196e-05 4.9781169039406215e-09
0.00038692160673812397 0.0012899681553290897 0.0 0.0 -5.8300244521572214e-05 2.3173047484256575e-09
0.000382511269451705 0.0012750045858008832 0.0 0.0 4.569985502394928e-05 -3.333240448520798e-10
0.00037810098180909163 0.001260041036553419 0.0 0.0 -5.8300311359291927e-05 -2.9854384468036566e-09
0.0003736911386521581 0.0012450776680346448 0.0 0.0 4.5699255333192805e-05 -5.650720559437911e-09
0.0003692821367791467 0.0012301146414969686 0.0 0.0 -5.830144652721719e-05 -8.340901969106085e-09
0.0003648743766966387 0.0012151521197052812 0.0 0.0 4.56975796955493e-05 -1.1067829796423435e-08
0.00036046826437990205 0.0012001902676507315 0.0 0.0 -5.8303670001178236e-05 -1.3843521286444928e-08
0.00035606421306182405 0.0011852292532842082 0.0 0.0 4.5694798585515844e-05 -1.6680201936152515e-08
0.0003516626450536047 0.0011702692482608832 0.0 0.0 -5.830702096920712e-05 -1.9590373044045192e-08
0.00034726399360313596 0.001155310428681999 0.0 0.0 4.569086301855086e-05 -2.258686533250162e-08
0.00034286870480320833 0.001140352975890961 0.0 0.0 -5.831155845418168e-05 -2.5682892764106527e-08
0.00033847723956049086 0.0011253970772757901 0.0 0.0 4.568570366086911e-05 -2.889210914188301e-08
0.0003340900756228359 0.0011104429270840422 0.0 0.0 -5.831736239603636e-05 -3.222868065542832e-08
0.0003297077096861316 0.0010954907272961434 0.0 0.0 4.5679229633435606e-05 -3.5707345484765635e-08
0.0003253306595873702 0.001080540688514753 0.0 0.0 -5.832453502509498e-05 -3.934346465175702e-08
0.00032095946658531997 0.0010655930309012261 0.0 0.0 4.5671326877696735e-05 -4.3153126624687933e-08
0.00031659469774832956 0.0010506479851590522 0.0 0.0 -5.833320268196695e-05 -4.715318905506357e-08
0.0003122369484605138 0.0010357057935519768 0.0 0.0 4.5661856187364505e-05 -5.136136656404928e-08
0.00030788684504534923 0.0010207667109894383 0.0 0.0 -5.8343518062632595e-05 -5.579633706291349e-08
0.0003035450475391864 0.001005831006167696 0.0 0.0 4.565065078751323e-05 -6.047778050219648e-08
0.00029921225260323226 0.0009908989627726776 0.0 0.0 -5.8355662823191684e-05 -6.542653669641858e-08
0.0002948891966113069 0.0009759708807490863 0.0 0.0 4.563751326021781e-05 -7.066464037443904e-08
0.0002905766589031418 0.0009610470776453342 0.0 0.0 -5.836985088418262e-05 -7.621548971342533e-08
0.00028627546524064094 0.0009461278900535007 0.0 0.0 4.5622212265812936e-05 -8.210391228696823e-08
0.0002819864914670518 0.0009312136751307945 0.0 0.0 -5.838633210690893e-05 -8.835634490809291e-08
0.00027771066739619096 0.000916304812213948 0.0 0.0 4.5604478325933636e-05 -9.500090450192868e-08
0.0002734489809467046 0.0009014017045516976 0.0 0.0 -5.840539676686457e-05 -1.020676073809363e-07
0.0002692024825280565 0.0008865047811516718 0.0 0.0 4.5583999125330295e-05 -1.095884864444523e-07
0.0002649722897315481 0.0008716144987356992 0.0 0.0 -5.84273806065066e-05 -1.1759778330516866e-07
0.0002607595923115313 0.0008567313438460196 0.0 0.0 4.556041396313248e-05 -1.2613216477004585e-07
0.00025656565750558654 0.0008418558351076389 0.0 0.0 -5.845267086351932e-05 -1.3523088900340308e-07
0.0002523918357102463 0.00082698852563845 0.0 0.0 4.5533307384595587e-05 -1.4493612885779859e-07
0.00024823956653997393 0.0008121300056381194 0.0 0.0 -5.848171304990838e-05 -1.5529315497040622e-07
0.00024411038530802883 0.0007972809051571692 0.0 0.0 4.550220179163982e-05 -1.6635070489536604e-07
0.00024000592994903204 0.0007824418970790444 0.0 0.0 -5.851501903255882e-05 -1.7816129011460295e-07
0.00023592794843283222 0.000767613700332088 0.0 0.0 4.546654878129501e-05 -1.9078157292417436e-07
0.0002318783066917094 0.00075279708332812 0.0 0.0 -5.855317615861204e-05 -2.0427282998068067e-07
0.00022785899712236203 0.0007379928676710115 0.0 0.0 4.542571934616703e-05 -2.1870141346796036e-07
0.000223872147689079 0.0007232019321447402 0.0 0.0 -5.859685805856556e-05 -2.3413933871797073e-07
0.0002199200316977305 0.0007084252170154651 0.0 0.0 4.537899216449531e-05 -2.506649001165519e-07
0.0002160050782685695 0.0006936637286550924 0.0 0.0 -5.864683703475887e-05 -2.6836343375118404e-07
0.00021212988359596547 0.0006789185445093952 0.0 0.0 4.5325540207849296e-05 -2.873281645564751e-07
0.00020829722303232715 0.0006641908184652097 0.0 0.0 -5.870399885573251e-05 -3.076611961710116e-07
0.00020451006408480775 0.000649481786623539 0.0 0.0 4.526441470100828e-05 -3.2947466533750185e-07
0.00020077158038645497 0.0006347927734922042 0.0 0.0 -5.876935999615633e-05 -3.5289204840358197e-07
0.00019708516673582315 0.0006201251986326992 0.0 0.0 4.5194526297672464e-05 -3.7804979791415325e-07
0.0001934544552761119 0.0006054805837936559 0.0 0.0 -5.884408843103372e-05 -4.050990901490435e-07
0.00018988333292123768 0.0005908605605193849 0.0 0.0 4.5114622203061604e-05 -4.3420804960586645e-07
0.00018637596012015343 0.000576266878256033 0.0 0.0 -5.892952861874046e-05 -4.655642672510372e-07
0.0001829367910643643 0.000561701412928185 0.0 0.0 4.502325859526168e-05 -4.993778131437768e-07
0.00017957059544476526 0.0005471661759610864 0.0 0.0 -5.902723226339332e-05 -5.358847572348906e-07
0.00017628248185787973 0.0005326633236846445 0.0 0.0 4.491876632657546e-05 -5.753514564295521e-07
0.00017307792296219774 0.000518195167024159 0.0 0.0 -5.913899665499424e-05 -6.180795362961417e-07
0.00016996278246606626 0.0005037641813134091 0.0 0.0 4.479920809609601e-05 -6.644119325732766e-07
0.00016694334399908827 0.0004893730159600788 0.0 0.0 -5.9266912711769103e-05 -7.147399873102178e-07
0.00016402634187390265 0.00047502450366272535 0.0 0.0 4.466232418106502e-05 -7.695123217782819e-07
0.00016121899368783492 0.0004607216686180036 0.0 0.0 -5.9413426233666114e-05 -8.292446522705985e-07
0.000158529034554685 0.0004464677330817612 0.0 0.0 4.450546382141836e-05 -8.945334495162041e-07
0.00015596475267969486 0.000432266121135916 0.0 0.0 -5.958141537428809e-05 -9.660689160528e-07
0.00015353502554026803 0.00041812045860352496 0.0 0.0 4.432549880201684e-05 -1.0446577020201912e-06
0.00015124935593296572 0.0004040345664976419 0.0 0.0 -5.9774287238175804e-05 -1.1312371627959393e-06
0.00014911790583736477 0.0003900124466465284 0.0 0.0 4.4118719929750905e-05 -1.2269188601654775e-06
0.00014715152665039386 0.0003760582532705492 0.0 0.0 -5.9996092199405106e-05 -1.332991773584963e-06
0.00014536178031570216 0.00036217625008079827 0.0 0.0 4.388072561036286e-05 -1.45102302410527e-06
0.00014376094944653733 0.0003483707365729148 0.0 0.0 -6.0251644106369033e-05 -1.582796452299592e-06
0.00014236202136272568 0.00033464595065509274 0.0 0.0 4.3606342170461306e-05 -1.7305942303563531e-06
0.00014117864704461902 0.0003210058998864829 0.0 0.0 -6.054660790628247e-05 -1.8968593791589099e-06
0.00014022503112508692 0.00030745416443438595 0.0 0.0 4.328969868112767e-05 -2.085096699989573e-06
0.00013951577412773595 0.0002939935190682482 0.0 0.0 -6.088746258095241e-05 -2.2984579521461183e-06
0.00013906553108529655 0.0002806255659150045 0.0 0.0 4.2924818242595815e-05 -2.5428487250022964e-06
0.00013888860271043515 0.000267349860646498 0.0 0.0 -6.128115418198581e-05 -2.8214456159704124e-06
0.0001389980144780945 0.00025416330274887226 0.0 0.0 4.250780257803832e-05 -3.1458079393062487e-06
0.00013940459458841183 0.0002410579749939207 0.0 0.0 -6.17341729552026e-05 -3.5152397795686465e-06
0.00014011453492067462 0.00022802040519260836 0.0 0.0 4.2043924129466816e-05 -3.95719224898785e-06
0.00014112750151678611 0.00021502575833743352 0.0 0.0 -6.225108268497728e-05 -4.450484716436286e-06
0.00014242998490614702 0.0002020382178750118 0.0 0.0 4.157031714020678e-05 -5.073275595351848e-06
0.00014399193058802252 0.0001889941305049542 0.0 0.0 -6.283481016621938e-05 -5.718767730132765e-06
0.00014574776347643298 0.00017581026305630085 0.0 0.0 4.123060260852315e-05 -6.638861862891601e-06
0.0001475925397352783 0.00016233274657585791 0.0 0.0 -6.35006229857476e-05 -7.392848815042179e-06
0.00014932584567008898 0.00014838627392307953 0.0 0.0 4.153169707916764e-05 -8.848962072456525e-06
0.00015066038898086417 0.00013362532620940967 0.0 0.0 -6.434246456528381e-05 -9.288100009500122e-06
0.00015106025053903915 0.00011779219083263615 0.0 0.0 4.4258247063490904e-05 -1.1816799649555336e-05
0.00014985628656654615 0.00010041508306362762 0.0 0.0 -6.572229007946765e-05 -9.729675750529522e-06
0.000145928707775139 8.217282187456127e-05 0.0 0.0 5.5175732831801725e-05 -1.4814656797744376e-05
0.00013873259776616244 6.699642048019402e-05 0.0 0.0 -6.927482200594207e-05 1.578466988755192e-06
0.00013264331870226426 5.484613386475766e-05 0.0 0.0 4.477731820676624e-05 -1.4831049256917102e-05
0.0001363006311877859 4.882950244542223e-05 0.0 0.0 0.020823466447107364 0.00014438012119578127
1.376428539288238e-21 0.0030963933395218362 0.0 0.0 -0.0015920886050965974 -8.470329472543003e-22
9.748846746885297e-06 0.0030516240291131396 0.0 0.0 -0.00012278988252786003 -3.120706849099264e-05
2.084056455500393e-05 0.0029677878930284255 0.0 0.0 -1.554841616321502e-05 -3.360013333801587e-05
3.810255786632413e-05 0.00289634182759446 0.0 0.0 -0.00011594727166203187 -3.19158900840301e-05
6.112894841562121e-05 0.002837889052954744 0.0 0.0 -8.074421750113787e-06 -2.8240092067782018e-05
8.867215325594832e-05 0.002791179254840653 0.0 0.0 -0.00010817626570363066 -2.3466417025007478e-05
0.00011938705302040147 0.0027544176055087563 0.0 0.0 -3.988520337658394e-07 -1.8155973657593713e-05
0.00015194853437203341 0.0027257491682530647 0.0 0.0 -0.0001007555534674969 -1.2838454895155908e-05
0.00018520964820608785 0.0027033932192825037 0.0 0.0 6.696107611354172e-06 -7.895948883466033e-06
0.00021827947334833594 0.0026857761136302445 0.0 0.0 -9.40914682870683e-05 -3.545182001881347e-06
0.00025052275382266226 0.002671600165152549 0.0 0.0 1.2854168360871139e-05 1.2797859063616148e-07
0.00028152044253752247 0.0026598474549421013 0.0 0.0 -8.84712863523546e-05 3.1245458622376597e-06
0.0003110194448143781 0.002649747175110911 0.0 0.0 1.7943656317987236e-05 5.494483499781629e-06
0.00033888614468704907 0.0026407297812582765 0.0 0.0 -8.388037117253221e-05 7.3109521953507075e-06
0.00036506890448138716 0.002632381621274238 0.0 0.0 2.2080863587625163e-05 8.65401292704277e-06
0.0003895700468778753 0.002624405966217623 0.0 0.0 -8.014807497297658e-05 9.601579960280096e-06
0.0004124259366720542 0.0026165919952320423 0.0 0.0 2.545581168249939e-05 1.0224789074126903e-05
0.0004336933226045036 0.0026087912032137883 0.0 0.0 -7.708685216787305e-05 1.0586146794594963e-05
0.000453440239330756 0.0026008999585100607 0.0 0.0 2.8241932325842752e-05 1.07391845649834e-05
0.0004717401038939345 0.0025928468362348446 0.0 0.0 -7.454236370999132e-05 1.0728933719824789e-05
0.0004886679858373045 0.0025845835195246088 0.0 0.0 3.057344163717141e-05 1.0592764726791782e-05
0.0005042983220844182 0.0025760783010807292 0.0 0.0 -7.239945668577453e-05 1.0361359105236017e-05
0.0005187035721189812 0.0025673114500386635 0.0 0.0 3.254844789399929e-05 1.0059675649950423e-05
0.0005319534727845833 0.0025582719035438664 0.0 0.0 -7.057474807403392e-05 9.707848771803567e-06
0.0005441146672198777 0.002548954893952523 0.0 0.0 3.423788196818973e-05 9.321988986138495e-06
0.0005552505614882238 0.002539360235550942 0.0 0.0 -6.900769946364267e-05 8.914879005838606e-06
0.0005654213155344162 0.0025294910767663516 0.0 0.0 3.5693674461701656e-05 8.496568297807164e-06
0.0005746839101136876 0.002519352982294818 0.0 0.0 -6.765348489249932e-05 8.074874912932417e-06
0.0005830922540327885 0.002508953250696298 0.0 0.0 3.695478984140914e-05 7.655805078212165e-06
0.0005906973104914505 0.0024983004016478736 0.0 0.0 -6.64779856447453e-05 7.243901573976999e-06
0.0005975472303392134 0.002487403786876939 0.0 0.0 3.8051324732278873e-05 6.8425312825282655e-06
0.0006036874855720131 0.0024762732924709977 0.0 0.0 -6.545446221008217e-05 6.4541213666894335e-06
0.000609160999666501 0.0024649191096760103 0.0 0.0 3.900719744950675e-05 6.080352420390311e-06
0.0006140082732234118 0.002453351557784067 0.0 0.0 -6.45613854324539e-05 5.722315799163645e-06
0.0006182675044154591 0.0024415809471979876 0.0 0.0 3.9841897007725734e-05 5.380641303908421e-06
0.0006219747042461275 0.002429617473884279 0.0 0.0 -6.378102345487517e-05 5.055600419014622e-06
0.0006251638068522743 0.00241747113861656 0.0 0.0 4.057162869608758e-05 4.747189487257862e-06
0.00062786677515018 0.0024051516859714102 0.0 0.0 -6.309850849585115e-05 4.455196452589951e-06
0.0006301137021124663 0.002392668559163802 0.0 0.0 4.121007891530866e-05 4.1792542143835815e-06
0.0006319329079243792 0.002380030867637028 0.0 0.0 -6.250120557000917e-05 3.918883069313093e-06
0.0006333510332110805 0.002367247364937762 0.0 0.0 4.17689403488014e-05 3.673524325547217e-06
0.0006343931284890276 0.002354326434882669 0.0 0.0 -6.197827186207069e-05 3.44256674808142e-06
0.0006350827399490855 0.0023412760843885133 0.0 0.0 4.225828499396266e-05 3.2253672475224287e-06
0.0006354419916616941 0.002328103941631285 0.0 0.0 -6.152033797620984e-05 3.0212669107358334e-06
0.0006354916642711214 0.002314817258434962 0.0 0.0 4.268683902720243e-05 2.8296033222771026e-06
0.0006352512702414661 0.00230142291598035 0.0 0.0 -6.111926879248994e-05 2.649719893509897e-06
0.0006347391257145083 0.0022879274330828486 0.0 0.0 4.30621927044595e-05 2.480972832379205e-06
0.0006339724190399218 0.0022743369764174214 0.0 0.0 -6.0767977708842146e-05 2.322736221562334e-06
0.0006329672760446764 0.0022606573721840276 0.0 0.0 4.339096600372794e-05 2.1744056175134233e-06
0.0006317388221160756 0.0022468941187917214 0.0 0.0 -6.0460277922097906e-05 2.035400472324712e-06
0.0006303012411745823 0.002233052400216581 0.0 0.0 4.3678942951022235e-05 1.90516565838774e-06
0.000628667831628343 0.0022191370997584397 0.0 0.0 -6.019076039846246e-05 1.7831722649680167e-06
0.000626851059396049 0.002205152813969207 0.0 0.0 4.3931183066365544e-05 1.6689178818868149e-06
0.0006248626081017389 0.0021911038665749544 0.0 0.0 -5.995469170088833e-05 1.5619264374649316e-06
0.0006227134265394569 0.0021769943222493147 0.0 0.0 4.415211532532871e-05 1.4617477638656843e-06
0.0006204137735165847 0.002162828000126191 0.0 0.0 -5.974792727874112e-05 1.367956910273678e-06
0.000617973260180832 0.0021486084869695036 0.0 0.0 4.4345618453316875e-05 1.2801533148545062e-06
0.0006154008899416124 0.002134339149932197 0.0 0.0 -5.956683697839934e-05 1.1979598537894772e-06
0.000612705096092176 0.0021200231488655687 0.0 0.0 4.451509008633663e-05 1.1210218357715314e-06
0.0006098937772446196 0.002105663448142445 0.0 0.0 -5.9408240691050964e-05 1.0490059423881658e-06
0.0006069743306795973 0.0020912628279764257 0.0 0.0 4.466350676655571e-05 9.81599164457818e-07
0.0006039536837192245 0.002076823895228921 0.0 0.0 -5.926935239763438e-05 9.185077407486766e-07
0.0006008383232239413 0.0020623490936959015 0.0 0.0 4.479347619891342e-05 8.594561066961397e-07
0.0005976343233133003 0.0020478407138860392 0.0 0.0 -5.914773134630812e-05 8.041858701487276e-07
0.0005943473714063128 0.0020333009022928065 0.0 0.0 4.490728282047088e-05 7.524548336452163e-07
0.0005909827926740134 0.002018731670172061 0.0 0.0 -5.9041239414533465e-05 7.040360249365319e-07
0.0005875455729954649 0.0020041349018434245 0.0 0.0 4.5006927752734224e-05 6.58716806279622e-07
0.0005840403804974392 0.0019895123625280078 0.0 0.0 -5.8948003780536504e-05 6.16297995702762e-07
0.0005804715857682692 0.001974865705743891 0.0 0.0 4.509416370662971e-05 5.765930352146474e-07
0.00057684328081263 0.00196019648027486 0.0 0.0 -5.88663842007131e-05 5.394272278622212e-07
0.0005731592968328252 0.00194550613673165 0.0 0.0 4.517052560256622e-05 5.046369793568683e-07
0.0005694232208960843 0.0019307960337286135 0.0 0.0 -5.879494435946588e-05 4.7206911267397636e-07
0.0005656384115647006 0.0019160674436922301 0.0 0.0 4.523735740632367e-05 4.415801999448424e-07
0.0005618080135440181 0.0019013215583200175 0.0 0.0 -5.873242678300144e-05 4.1303595617125195e-07
0.000557934971415155 0.0018865594937094413 0.0 0.0 4.52958356344941e-05 3.8631063826682454e-07
0.0005540220425028374 0.0018717822951740217 0.0 0.0 -5.867773077358247e-05 3.6128651634774857e-07
0.0005500718089365622 0.0018569909417682148 0.0 0.0 4.534698994582641e-05 3.378533488906216e-07
0.0005460866889526703 0.0018421863505330136 0.0 0.0 -5.862989318751119e-05 3.159078979208239e-07
0.0005420689474872318 0.0018273693804777978 0.0 0.0 4.539172119723896e-05 2.9535348542190573e-07
0.0005380207061011601 0.0018125408363200853 0.0 0.0 -5.858807151671208e-05 2.7609956338510606e-07
0.0005339439522827041 0.0017977014719905643 0.0 0.0 4.543081725058302e-05 2.580613088466678e-07
0.0005298405481675075 0.001782851993924103 0.0 0.0 -5.855152910260917e-05 2.411592685879014e-07
0.0005257122387087208 0.0017679930641473097 0.0 0.0 4.546496677773019e-05 2.2531899020612192e-07
0.0005215606593368823 0.0017531253031679182 0.0 0.0 -5.851962221913303e-05 2.10470701434806e-07
0.0005173873431449273 0.0017382492926942502 0.0 0.0 4.549477139069143e-05 1.9654900417783545e-07
0.0005131937276184256 0.0017233655781848218 0.0 0.0 -5.8491788748677516e-05 1.8349258832397975e-07
0.0005089811609531562 0.0017084746712342418 0.0 0.0 4.552075618817052e-05 1.7124395100754286e-07
0.0005047509079804075 0.00169357705181856 0.0 0.0 -5.846753829251493e-05 1.597491572118614e-07
0.0005005041557253817 0.0016786731703996574 0.0 0.0 4.554337899120094e-05 1.4895758325054022e-07
0.0004962420186262557 0.0016637634499039485 0.0 0.0 -5.844644357837832e-05 1.3882171698997468e-07
0.0004919655434308293 0.001648848287578614 0.0 0.0 4.5563038428420586e-05 1.2929692551832354e-07
0.0004876757138054972 0.00163392805673682 0.0 0.0 -5.842813290478225e-05 1.2034127128189662e-07
0.0004833734546546861 0.0016190031083983846 0.0 0.0 4.558008091187912e-05 1.119153282152e-07
0.00047905963619371776 0.0016040737728283047 0.0 0.0 -5.841228361326545e-05 1.0398199788588889e-07
0.0004747350777724612 0.0015891403609926621 0.0 0.0 4.559480675791767e-05 9.650635538063302e-08
0.0004704005514842296 0.0015742031659232933 0.0 0.0 -5.839861642271732e-05 8.945548796672606e-08
0.0004660567855575043 0.0015592624640060654 0.0 0.0 4.5607475448814785e-05 8.27983625904913e-08
0.00046170446756263624 0.0015443185162005771 0.0 0.0 -5.8386890476578115e-05 7.650566808813531e-08
0.0004573442474363263 0.0015293715691821845 0.0 0.0 4.561831023897761e-05 7.054970738840484e-08
0.00045297674034030854 0.0015144218564281686 0.0 0.0 -5.837689915178825e-05 6.490425967503729e-08
0.0004486025293699949 0.001499469599248722 0.0 0.0 4.56275020695898e-05 5.954448587729101e-08
0.00044422216811820765 0.001484515007756826 0.0 0.0 -5.836846636967199e-05 5.4446776223638846e-08
0.0004398361831131462 0.001469558281794099 0.0 0.0 4.563521293054454e-05 4.958871057796641e-08
0.0004354450761332779 0.0014545996118099647 0.0 0.0 -5.836144351393515e-05 4.494888739540364e-08
0.0004310493264167291 0.001439639179695199 0.0 0.0 4.5641578688432804e-05 4.0506903135439747e-08
0.0004266493927701078 0.001424677159587697 0.0 0.0 -5.83557068393227e-05 3.624319398976483e-08
0.0004222457155883122 0.0014097137186412784 0.0 0.0 4.56467115335892e-05 3.213900163248585e-08
0.00041783871878940253 0.0013947490177541912 0.0 0.0 -5.835115522804125e-05 2.81762503016327e-08
0.00041342881168451753 0.0013797832122801122 0.0 0.0 4.5650701935306156e-05 2.4337507604653332e-08
0.0004090163907765466 0.0013648164527156658 0.0 0.0 -5.834770848645032e-05 2.0605874992310307e-08
0.0004046018415066319 0.0013498488853569126 0.0 0.0 4.5653620211412926e-05 1.6964926369527483e-08
0.00040018553994866163 0.001334880652944206 0.0 0.0 -5.8345305861786756e-05 1.3398636761771752e-08
0.0003957678544665403 0.0013199118952948584 0.0 0.0 4.5655517780183986e-05 9.89130704523878e-09
0.0003913491473332319 0.0013049427499163433 0.0 0.0 -5.8343905014446393e-05 6.427498155350993e-09
0.00038692977632752814 0.0012899733526069814 0.0 0.0 4.565642808807436e-05 2.9919670119812718e-09
0.00038251009630648234 0.0012750038380615247 0.0 0.0 -5.834348123599656e-05 -4.3041753402519797e-10
0.00037809046077011134 0.0012600343404626112 0.0 0.0 4.56563671701834e-05 -3.854721325447473e-09
0.00037367122341276215 0.0012450649940643284 0.0 0.0 -5.8344027088126334e-05 -7.296013776047095e-09
0.000369252739687587 0.0012300959337941974 0.0 0.0 4.565533397355012e-05 -1.0769456700986807e-08
0.0003648353683641156 0.0012151272958425183 0.0 0.0 -5.8345552172305395e-05 -1.4290342318713008e-08
0.0003604194731082166 0.0012001592182600035 0.0 0.0 4.5653310291499626e-05 -1.7874181575485738e-08
0.00035600542408631766 0.0011851918415699328 0.0 0.0 -5.8348083348969495e-05 -2.1536755272992102e-08
0.00035159359959358787 0.001170225309379202 0.0 0.0 4.5650260462520745e-05 -2.5294209760246857e-08
0.00034718438771836024 0.0011552597690246517 0.0 0.0 -5.8351665243946624e-05 -2.9163097464539062e-08
0.00034277818804905085 0.0011402953722170943 0.0 0.0 4.564613075294221e-05 -3.316047532462944e-08
0.0003383754134367493 0.001125332275705139 0.0 0.0 -5.835636094920853e-05 -3.7303973581372454e-08
0.0003339764918088756 0.001110370641974109 0.0 0.0 4.564084840501053e-05 -4.161187039017876e-08
0.000329581868054505 0.0010954106399563561 0.0 0.0 -5.836225319222994e-05 -4.61031740759104e-08
0.0003251920059831139 0.0010804524457826907 0.0 0.0 4.563432037764641e-05 -5.0797732258154715e-08
0.00032080739036438117 0.0010654962435578692 0.0 0.0 -5.836944575106926e-05 -5.571625989373406e-08
0.00031642852906302375 0.0010505422261706144 0.0 0.0 4.562643168481994e-05 -6.088052766323009e-08
0.0003120559552706726 0.0010355905961470493 0.0 0.0 -5.837806528721573e-05 -6.631338280512107e-08
0.00030769022985685854 0.0010206415665464984 0.0 0.0 4.561704340272062e-05 -7.203887538917691e-08
0.0003033319438286942 0.0010056953619001004 0.0 0.0 -5.838826362027918e-05 -7.808241089281558e-08
0.00029898172093549444 0.00099075221920446 0.0 0.0 4.560599023470499e-05 -8.447079906522773e-08
0.0002946402204066471 0.0009758123889718616 0.0 0.0 -5.840022021084902e-05 -9.123245791979855e-08
0.00029030813985116724 0.0009608761363322624 0.0 0.0 4.5593077665965044e-05 -9.839747371591248e-08
0.0002859862183186106 0.000945943742206534 0.0 0.0 -5.8414145479044515e-05 -1.0599781992577922e-07
0.0002816752395426995 0.0009310155045448743 0.0 0.0 4.5578078549678375e-05 -1.1406746044050585e-07
0.00027737603537735596 0.0009160917396463801 0.0 0.0 -5.843028428828556e-05 -1.2264255568657928e-07
0.0002730894894440218 0.0009011727835531503 0.0 0.0 4.55607292213691e-05 -1.3176162645667493e-07
0.0002688165409905738 0.0008862589935253972 0.0 0.0 -5.8448920245070474e-05 -1.4146576309567813e-07
0.0002645581890012141 0.0008713507496235209 0.0 0.0 4.554072495664002e-05 -1.5179884871254108e-07
0.0002603154965528378 0.0008564484563707845 0.0 0.0 -5.8470380503594264e-05 -1.6280778996800253e-07
0.0002560895954393448 0.000841552544524399 0.0 0.0 4.5517714783735366e-05 -1.7454278201359166e-07
0.0002518816910889418 0.0008266634729642283 0.0 0.0 -5.84950412622499e-05 -1.8705760442005743e-07
0.0002476930677789673 0.00081178173069259 0.0 0.0 4.5491295687027315e-05 -2.004099391917551e-07
0.000243525094185573 0.0007969078389508895 0.0 0.0 -5.852333407317515e-05 -2.146617115574099e-07
0.00023937922925538392 0.0007820423534601992 0.0 0.0 4.546100584798432e-05 -2.2987949841216885e-07
0.0002352570284482194 0.0007671858668086614 0.0 0.0 -5.855575283559558e-05 -2.4613497255653906e-07
0.00023116015035544218 0.0007523390109647043 0.0 0.0 4.542631727539638e-05 -2.6350536557731476e-07
0.00022709036369671814 0.000737502459922347 0.0 0.0 -5.859286171094012e-05 -2.820740749317303e-07
0.00022304955473291592 0.0007226769324957605 0.0 0.0 4.538662751813892e-05 -3.0193121856349203e-07
0.00021903973508960028 0.000707863195260429 0.0 0.0 -5.863530369102981e-05 -3.231744220762731e-07
0.00021506305000703493 0.0006930620656070901 0.0 0.0 4.534125067120684e-05 -3.459095520081572e-07
0.00021112178702362372 0.0006782744149178598 0.0 0.0 -5.868381003546245e-05 -3.7025168220174327e-07
0.0002072183850795346 0.0006635011718681702 0.0 0.0 4.52894075569294e-05 -3.963261229505315e-07
0.00020335544403701878 0.0006487433258019171 0.0 0.0 -5.873921034121421e-05 -4.2426962857582216e-07
0.00019953573459645157 0.0006340019301537092 0.0 0.0 4.523021568399372e-05 -4.5423180101760927e-07
0.0001957622085697996 0.0006192781058843681 0.0 0.0 -5.8802442662683795e-05 -4.86376651114874e-07
0.00019203800945218397 0.0006045730448578862 0.0 0.0 4.5162678924186685e-05 -5.208844914939914e-07
0.00018836648321354636 0.0005898880130528748 0.0 0.0 -5.887456356771332e-05 -5.579540716709385e-07
0.00018475118920394023 0.0005752243535288956 0.0 0.0 4.508567799561673e-05 -5.978050675954551e-07
0.0001811959110031727 0.0005605834889836298 0.0 0.0 -5.895675689458909e-05 -6.406809894791022e-07
0.00017770466703766853 0.0005459669236773552 0.0 0.0 4.499796303546232e-05 -6.868525991199532e-07
0.00017428172064134473 0.0005313762444679153 0.0 0.0 -5.9050339626848724e-05 -7.366218178797264e-07
0.00017093158923588115 0.0005168131206243778 0.0 0.0 4.489814977534537e-05 -7.903264404259848e-07
0.00016765905212431427 0.0005022793019509772 0.0 0.0 -5.915676233722968e-05 -8.483454604020545e-07
0.00016446915625459586 0.0004877766145994216 0.0 0.0 4.47847236927125e-05 -9.111055875424311e-07
0.0001613672191152566 0.00047330695381115793 0.0 0.0 -5.9277599310262816e-05 -9.790884057556083e-07
0.00015835882765211662 0.0004588722725683053 0.0 0.0 4.465605765994682e-05 -1.05283974496332e-06
0.00015544983173901248 0.0004444745647629743 0.0 0.0 -5.941452048998275e-05 -1.1329786650547463e-06
0.0001526463302573264 0.0004301158411871279 0.0 0.0 4.451045423502849e-05 -1.220212018113588e-06
0.00014995464725504188 0.00041579809587668804 0.0 0.0 -5.956923030855346e-05 -1.315343491360677e-06
0.00014738129467454651 0.00040152326011800915 0.0 0.0 4.4346232992135146e-05 -1.4192997398984912e-06
0.00014493291735423816 0.0003872931393572208 0.0 0.0 -5.974334662879198e-05 -1.5331306811186638e-06
0.00014261621370818201 0.0003731093290946333 0.0 0.0 4.416190116262567e-05 -1.6580676272403725e-06
0.00014043782493178346 0.00035897310021997214 0.0 0.0 -5.993816772700139e-05 -1.795479102529641e-06
0.0001384041797819234 0.000344885249329608 0.0 0.0 4.395648406910462e-05 -1.9470325410799382e-06
0.0001365212837217324 0.0003308458926513978 0.0 0.0 -6.015422804061155e-05 -2.114469712040639e-06
0.00013479442512008495 0.0003168542049442823 0.0 0.0 4.3730171928630475e-05 -2.3001313600864385e-06
0.00013322778434250642 0.0003029080480793014 0.0 0.0 -6.0390447496609006e-05 -2.506046841852655e-06
0.0001318238821088709 0.000289003526129157 0.0 0.0 4.3485617033532566e-05 -2.735773278977221e-06
0.0001305828648427353 0.0002751343050281652 0.0 0.0 -6.064249934581477e-05 -2.9909342005968956e-06
0.00012950146082906322 0.0002612908887490861 0.0 0.0 4.323063041405798e-05 -3.277881052155809e-06
0.00012857169258471726 0.0002474593313667768 0.0 0.0 -6.089969814919785e-05 -3.5948126212425333e-06
0.00012777886290420541 0.00023362019664808906 0.0 0.0 4.29840544041828e-05 -3.956205256045939e-06
0.00012709931115805116 0.00021974599148283917 0.0 0.0 -6.113925339518308e-05 -4.345237753284399e-06
0.00012649642025310874 0.00020580027056487575 0.0 0.0 4.278929981480872e-05 -4.8037813008516535e-06
0.0001259170784912566 0.00019173218569240624 0.0 0.0 -6.131665832002204e-05 -5.257113556427981e-06
0.00012528356114300623 0.00017747871665846102 0.0 0.0 4.274748099440044e-05 -5.845900929795701e-06
0.00012448980738506563 0.00016295247723510455 0.0 0.0 -6.135478851946089e-05 -6.280852411891832e-06
0.00012338506015668584 0.00014806107341205964 0.0 0.0 4.3101343591855955e-05 -7.0685209802958445e-06
0.00012178003009631688 0.00013268012486077163 0.0 0.0 -6.116232093921208e-05 -7.135337748367162e-06
0.00011941918812603023 0.00011674457506117604 0.0 0.0 4.4423557828863645e-05 -8.363964830419173e-06
0.00011604929870525222 0.00010020229356216296 0.0 0.0 -6.0877554806633774e-05 -6.82865661526266e-06
0.00011142679910915671 8.327156011126674e-05 0.0 0.0 4.7568441377761816e-05 -9.74240984667708e-06
0.00010560231085313097 6.655630250884818e-05 0.0 0.0 -6.206913127096056e-05 -2.6663629949389214e-06
9.956654282894721e-05 4.824149698561583e-05 0.0 0.0 4.564246440249241e-05 -1.517492146873114e-05
9.2317954380772e-05 3.224162657260367e-05 0.0 0.0 -3.808961541231252e-05 1.4644318196383593e-05
9.207521697860238e-05 2.6330656390373407e-05 0.0 0.0 -0.020718247751805436 9.141057390898261e-05
3.1763735522036263e-21 0.0030124981470578986 0.0 0.0 -0.0016624124659728732 1.9693516023662483e-20
1.6138771385082316e-05 0.00296710375086634 0.0 0.0 -2.6177080883062946e-05 -4.639748216805853e-05
3.2534496409371797e-05 0.002883829887391913 0.0 0.0 -0.00012538866653541707 -4.869361624964439e-05
5.784100807206467e-05 0.002817637303220861 0.0 0.0 -1.59003509739098e-05 -4.394781634327427e-05
9.018374189073529e-05 0.0027689402882439514 0.0 0.0 -0.00011441105035725256 -3.668978909261263e-05
0.00012720897184571433 0.002734514974163782 0.0 0.0 -5.15432133532567e-06 -2.811244246004067e-05
0.00016643187019427653 0.0027110788507301174 0.0 0.0 -0.00010405925658170258 -1.954829250439045e-05
0.00020585650432317264 0.00269542646523403 0.0 0.0 4.664461281678417e-06 -1.1820827456631599e-05
0.0002441320000932142 0.0026848741446128537 0.0 0.0 -9.510823192653115e-05 -5.2781995763951975e-06
0.0002804592568229562 0.0026774082555760348 0.0 0.0 1.2588488040674587e-05 2.627253136076198e-08
0.00031443737215779437 0.00267162273764636 0.0 0.0 -8.821469931867154e-05 4.189027288502279e-06
0.00034592538533970667 0.0026665862889097306 0.0 0.0 1.8541559439051817e-05 7.364561113370829e-06
0.0003749394138057748 0.002661709228630583 0.0 0.0 -8.307622963427813e-05 9.717991441064e-06
0.0004015829762871679 0.0026566355017413608 0.0 0.0 2.2994533249194154e-05 1.140256105548602e-05
0.00042600258245873286 0.002651163171146748 0.0 0.0 -7.919177748620594e-05 1.2551493819881724e-05
0.0004483607958440163 0.0026451889971798744 0.0 0.0 2.6410068381004214e-05 1.3276464363071727e-05
0.00046882073402987714 0.00263867111479257 0.0 0.0 -7.616320136042564e-05 1.3669207528391492e-05
0.0004875377705802958 0.0026316045137512647 0.0 0.0 2.911783960469477e-05 1.380414346853473e-05
0.0005046556215338326 0.002624005260650989 0.0 0.0 -7.372338581122692e-05 1.3741198403777676e-05
0.0005203050048786594 0.0026159005534569253 0.0 0.0 3.133172843827509e-05 1.3528381902004829e-05
0.000534603737209955 0.002607322601202553 0.0 0.0 -7.170201626947322e-05 1.3204015242963295e-05
0.0005476575719587097 0.0025983049751579696 0.0 0.0 3.318720160817645e-05 1.2798583816545707e-05
0.0005595613643499843 0.0025888805325656027 0.0 0.0 -6.999111559507696e-05 1.2336255402881283e-05
0.0005704003243816611 0.0025790803231195347 0.0 0.0 3.47707323364314e-05 1.1836110441446624e-05
0.0005802512278188014 0.002568933095362211 0.0 0.0 -6.852095159852474e-05 1.1313136193980157e-05
0.0005891835209969362 0.0025584651574083665 0.0 0.0 3.6139049340521876e-05 1.0779028225959587e-05
0.0005972602940165026 0.0025477004366424995 0.0 0.0 -6.724489264040751e-05 1.024283701139871e-05
0.0006045391188813941 0.002536660641898653 0.0 0.0 3.7330933493337016e-05 9.711489811416404e-06
0.0006110727607836944 0.0025253654696849454 0.0 0.0 -6.61302796739496e-05 9.19021240534067e-06
0.0006169097761737405 0.0025138328203417274 0.0 0.0 3.837424898957498e-05 8.682870147111316e-06
0.0006220950130615587 0.002502079005347066 0.0 0.0 -6.51530267634746e-05 8.192243962013045e-06
0.0006266700287807879 0.002490118936449755 0.0 0.0 3.929008152296718e-05 7.720253727673638e-06
0.0006306734391907625 0.002477966292989434 0.0 0.0 -6.429445320036552e-05 7.268139021571516e-06
0.0006341412115873431 0.0024656336670333427 0.0 0.0 4.009516247483667e-05 6.836605275418911e-06
0.0006371069117812691 0.0024531326877189345 0.0 0.0 -6.353942765406178e-05 6.425941798385922e-06
0.0006396019140657889 0.0024404741270153962 0.0 0.0 4.0803291495034716e-05 6.036116940582537e-06
0.0006416555812333372 0.0024276679893918155 0.0 0.0 -6.287527519371394e-05 5.666854638326508e-06
0.000643295420442019 0.0024147235878449265 0.0 0.0 4.142617921943894e-05 5.317695826272093e-06
0.0006445472195855482 0.002401649608537802 0.0 0.0 -6.22911242741325e-05 4.988047532254134e-06
0.0006454351678710223 0.0023884541660293144 0.0 0.0 4.1973956683695316e-05 4.67722197539043e-06
0.0006459819635316363 0.0023751448507828643 0.0 0.0 -6.177750588799366e-05 4.384467537443484e-06
0.000646208910977495 0.0023617287703666 0.0 0.0 4.24554941826566e-05 4.108993164771569e-06
0.0006461360091905044 0.002348212585508693 0.0 0.0 -6.132609660823823e-05 3.8499874357050845e-06
0.0006457820327740426 0.0023346025419469446 0.0 0.0 4.2878611446668896e-05 3.606633349071992e-06
0.0006451646067606296 0.002320904498833049 0.0 0.0 -6.092954378854055e-05 3.37811963458328e-06
0.0006443002760398198 0.0023071239542971525 0.0 0.0 4.3250225643521386e-05 3.1636493066333185e-06
0.0006432045700837344 0.0022932660686497534 0.0 0.0 -6.058133797165336e-05 2.9624459803572346e-06
0.0006418920635048825 0.0022793356856042283 0.0 0.0 4.3576463316890744e-05 2.7737584332826438e-06
0.000640376432868619 0.002265337351817201 0.0 0.0 -6.027571307694722e-05 2.596863744872718e-06
0.0006386705101045204 0.002251275334982804 0.0 0.0 4.386275069427029e-05 2.431069352298133e-06
0.0006367863327941401 0.0022371536406666113 0.0 0.0 -6.000756362852837e-05 2.275714215767597e-06
0.0006347351915659573 0.0022229760280290138 0.0 0.0 4.411389032461387e-05 2.130169330769033e-06
0.0006325276747937209 0.002208746024552966 0.0 0.0 -5.97723732420984e-05 1.993837704011294e-06
0.0006301737107644637 0.002194466939870585 0.0 0.0 4.4334128255329574e-05 1.8661539562119e-06
0.0006276826074669311 0.0021801418787714064 0.0 0.0 -5.9566151221993795e-05 1.7465836093364284e-06
0.0006250630901298323 0.002165773753449748 0.0 0.0 4.45272140611515e-05 1.6346221842136873e-06
0.0006223233366330354 0.002151365295047284 0.0 0.0 -5.9385375595493795e-05 1.5297941216159644e-06
0.0006194710109016716 0.002136919064537099 0.0 0.0 4.469645496242439e-05 1.4316516329571278e-06
0.0006165132943878093 0.0021224374629863875 0.0 0.0 -5.9226941670524873e-05 1.3397734532727239e-06
0.0006134569157374898 0.0021079227412411656 0.0 0.0 4.4844764728802465e-05 1.2537636022777866e-06
0.0006103081787372775 0.0020933770090582225 0.0 0.0 -5.9088115543283655e-05 1.1732501019583326e-06
0.0006070729886277608 0.002078802243713724 0.0 0.0 4.497470790110929e-05 1.0978837263753692e-06
0.0006037568768711523 0.002064200298119863 0.0 0.0 -5.896649211868194e-05 1.0273367653451182e-06
0.0006003650244526173 0.0020495729084738764 0.0 0.0 4.508853955950448e-05 9.613018259007591e-07
0.0005969022837936692 0.002034921701462303 0.0 0.0 -5.885995737277451e-05 8.994906656615361e-07
0.0005933731993531921 0.0020202482010474834 0.0 0.0 4.51882411121766e-05 8.416330839537104e-07
0.0005897820269902327 0.002005553834851609 0.0 0.0 -5.8766654518560796e-05 7.874758454153486e-07
0.0005861327521506371 0.001990839940164303 0.0 0.0 4.527555228962907e-05 7.367816644639376e-07
0.0005824291069501071 0.0019761077695964165 0.0 0.0 -5.8684953783191135e-05 6.893282380369633e-07
0.0005786745862138704 0.001961358496392572 0.0 0.0 4.535199964868805e-05 6.449073197650583e-07
0.0005748724625312438 0.001946593219427431 0.0 0.0 -5.8613425455354706e-05 6.033238580724744e-07
0.0005710258003855427 0.0019318129678968883 0.0 0.0 4.541892198224552e-05 5.643951681807741e-07
0.0005671374694097452 0.0019170187057271871 0.0 0.0 -5.8550816037629546e-05 5.27950156343365e-07
0.0005632101568243339 0.0019022113357152065 0.0 0.0 4.54774928183233e-05 4.938285945501881e-07
0.0005592463790997942 0.001887391703413282 0.0 0.0 -5.849602702826765e-05 4.6188042578489737e-07
0.0005552484928984372 0.0018725606007798643 0.0 0.0 4.5528740296684606e-05 4.319651187234747e-07
0.0005512187053309021 0.0018577187696037873 0.0 0.0 -5.84480962297805e-05 4.039510652703777e-07
0.0005471590835758277 0.0018428669047167185 0.0 0.0 4.557356477354155e-05 3.777149966372275e-07
0.0005430715638987231 0.0018280056570096491 0.0 0.0 -5.8406181270428134e-05 3.531414643992512e-07
0.0005389579601069042 0.0018131356362583316 0.0 0.0 4.561275428629455e-05 3.3012231467584915e-07
0.0005348199714774595 0.001798257413778976 0.0 0.0 -5.8369545057237906e-05 3.085562397491101e-07
0.000530659190190037 0.0017833715249183013 0.0 0.0 4.564699816887968e-05 2.8834831161661783e-07
0.0005264771082965755 0.0017684784713835524 0.0 0.0 -5.83375430275242e-05 2.694095826654254e-07
0.000522275124256475 0.0017535787234388743 0.0 0.0 4.56768989971632e-05 2.5165669077618783e-07
0.0005180545490630114 0.0017386727219570858 0.0 0.0 -5.830961194480883e-05 2.3501148934865733e-07
0.0005138166119925891 0.0017237608803465326 0.0 0.0 4.57029831381797e-05 2.1940070659060874e-07
0.0005095624659976823 0.00170884358636629 0.0 0.0 -5.82852600617016e-05 2.0475562549870886e-07
0.0005052931927652112 0.0016939212038171588 0.0 0.0 4.5725709843739385e-05 1.910117797963482e-07
0.0005010098074641205 0.0016789940741371325 0.0 0.0 -5.826405856640372e-05 1.781086717832529e-07
0.0004967132632038161 0.0016640625179033133 0.0 0.0 4.574547936756217e-05 1.6598949868220584e-07
0.0004924044552203319 0.001649126836231129 0.0 0.0 -5.824563404570229e-05 1.5460092158520958e-07
0.00048808422480801423 0.0016341873121011178 0.0 0.0 4.5762639927321175e-05 1.4389280033976328e-07
0.0004837533630192794 0.0016192442116004864 0.0 0.0 -5.822966195117034e-05 1.3381800843717106e-07
0.00047941261413794126 0.001604297785086625 0.0 0.0 4.577749382202721e-05 1.2433219624512215e-07
0.00047506267895315737 0.0015893482682886198 0.0 0.0 -5.8215860912323877e-05 1.1539360981343855e-07
0.00047070421783932434 0.0015743958833453918 0.0 0.0 4.579030273794797e-05 1.0696290661792738e-07
0.00046633785366113477 0.0015594408397816297 0.0 0.0 -5.820398776332995e-05 9.900297600126803e-08
0.00046196417450949327 0.001544483335423525 0.0 0.0 4.5801292355612854e-05 9.14787860724982e-08
0.0004575837362908434 0.0015295235572751786 0.0 0.0 -5.8193833319950265e-05 8.435721130818901e-08
0.0004531970651722195 0.0015145616823394412 0.0 0.0 4.581065631474341e-05 7.760691620898675e-08
0.0004488046598941956 0.0014995978783904837 0.0 0.0 -5.818521864580327e-05 7.119818034944346e-08
0.0004444069939674425 0.0014846323047169215 0.0 0.0 4.5818559608781935e-05 6.510280616971219e-08
0.0004400045177513582 0.001469665112823083 0.0 0.0 -5.817799195547292e-05 5.929395416890207e-08
0.00043559766044041603 0.0014546964470904095 0.0 0.0 4.582514150633431e-05 5.3746069456018977e-08
0.0004311868319486243 0.001439726445418649 0.0 0.0 -5.817202588349988e-05 4.8434723138343454e-08
0.0004267724247165043 0.0014247552398278123 0.0 0.0 4.583051800061133e-05 4.3336549469905495e-08
0.0004223548154358174 0.0014097829570344936 0.0 0.0 -5.816721531880036e-05 3.842909733665781e-08
0.00041793436670751165 0.0013948097190221542 0.0 0.0 4.583478380640056e-05 3.369077716721541e-08
0.000413511428637538 0.0013798356435731462 0.0 0.0 -5.81634754864335e-05 2.9100729215789968e-08
0.00040908634037637587 0.0013648608447814035 0.0 0.0 4.583801413584102e-05 2.4638751942721634e-08
0.0004046594316144597 0.0013498854335576654 0.0 0.0 -5.8160740479031416e-05 2.0285203963950858e-08
0.0004002310240292984 0.0013349095181188222 0.0 0.0 4.5840265889068367e-05 1.602092963089337e-08
0.0003958014327039355 0.0013199332044634363 0.0 0.0 -5.8158962099739064e-05 1.182715151753751e-08
0.00039137096751332286 0.0013049565968347777 0.0 0.0 4.584157873894915e-05 7.68541582425123e-09
0.00038693993448637326 0.0012899797981854825 0.0 0.0 -5.81581090035269e-05 3.5774844394384844e-09
0.00038250863715358943 0.0012750029106259153 0.0 0.0 4.5841975814653606e-05 -5.147190341591064e-10
0.0003780773778833054 0.0012600260358771496 0.0 0.0 -5.81581661755798e-05 -4.609212689256001e-09
0.0003736464592116512 0.0012450492757189804 0.0 0.0 4.584146412910399e-05 -8.724025012270785e-09
0.000369216185175497 0.0012300727324283506 0.0 0.0 -5.815913463050955e-05 -1.287726861395281e-08
0.00036478686264860844 0.0012150965092404082 0.0 0.0 4.5840034642711885e-05 -1.7087243327413605e-08
0.00036035880269270795 0.0012001207108004403 0.0 0.0 -5.816103142715942e-05 -2.137247182433088e-08
0.00035593232192605444 0.0011851454436183307 0.0 0.0 4.5837662165313644e-05 -2.575184232099948e-08
0.000351507743914815 0.001170170816542361 0.0 0.0 -5.816389001353029e-05 -3.0244634158455366e-08
0.00034708540059892286 0.0011551969412312004 0.0 0.0 4.5834304892175765e-05 -3.4870659088546974e-08
0.00034266563375096384 0.0011402239326515856 0.0 0.0 -5.816776076497893e-05 -3.9650285687132386e-08
0.00033824879647789447 0.0011252519095820927 0.0 0.0 4.582990364265652e-05 -4.4604594454404276e-08
0.00033383525477536903 0.0011102809951298235 0.0 0.0 -5.817271188829224e-05 -4.975543114365058e-08
0.0003294253891345936 0.0010953113172736796 0.0 0.0 4.5824380866557016e-05 -5.5125504552387336e-08
0.00032501959621130777 0.001080343009423423 0.0 0.0 -5.817883061794496e-05 -6.073852055457542e-08
0.00032061829057165224 0.0010653762110145425 0.0 0.0 4.5817639311387546e-05 -6.661924887256662e-08
0.0003162219065094634 0.0010504110680952465 0.0 0.0 -5.8186224719453984e-05 -7.279367426687392e-08
0.00031183089995036155 0.0010354477339710726 0.0 0.0 4.5809560167886206e-05 -7.928906794319032e-08
0.00030744575044890223 0.0010204863698863673 0.0 0.0 -5.8195024413237526e-05 -8.613417781051704e-08
0.0003030669632850848 0.0010055271457123825 0.0 0.0 4.580000125109203e-05 -9.335927408601376e-08
0.0002986950716772713 0.0009905702406851698 0.0 0.0 -5.820538459380209e-05 -1.0099637695452392e-07
0.0002943306391011048 0.0009756158441810736 0.0 0.0 4.578879431315166e-05 -1.0907934049671913e-07
0.00028997426175349765 0.0009606641565363108 0.0 0.0 -5.821748749045485e-05 -1.1764405729729373e-07
0.0002856265711348136 0.000945715389900527 0.0 0.0 4.5775742330160735e-05 -1.267285807517518e-07
0.0002812882367956442 0.0009307697691367533 0.0 0.0 -5.823154582567736e-05 -1.3637336089534179e-07
0.00027695996922609767 0.0009158275327803107 0.0 0.0 4.5760616017870986e-05 -1.4662139043413857e-07
0.00027264252291530825 0.0009008889340498172 0.0 0.0 -5.824780636852001e-05 -1.5751844924293337e-07
0.00026833669959526463 0.0008859542418957502 0.0 0.0 4.5743150082019294e-05 -1.6911331730427512e-07
0.00026404335165701887 0.0008710237421098181 0.0 0.0 -5.826655406605016e-05 -1.8145801589260473e-07
0.00025976338577300137 0.0008560977384907393 0.0 0.0 4.572303881321144e-05 -1.9460809559028545e-07
0.0002554977667215358 0.0008411765540806418 0.0 0.0 -5.8288116625518794e-05 -2.08622880739414e-07
0.000251247521427102 0.0008262605324479724 0.0 0.0 4.569993117058894e-05 -2.235658435392751e-07
0.0002470137432133354 0.0008113500390109957 0.0 0.0 -5.831286971313466e-05 -2.395048920201962e-07
0.00024279759629250122 0.0007964454624355689 0.0 0.0 4.567342544315725e-05 -2.565127840425691e-07
0.0002386003204801746 0.0007815472160840746 0.0 0.0 -5.834124261097184e-05 -2.7466752441755466e-07
0.0002344232361434589 0.0007666557394919725 0.0 0.0 4.5643063274283325e-05 -2.9405280933066016e-07
0.000230267749375848 0.0007517714998798192 0.0 0.0 -5.8373724233442984e-05 -3.1475857663234696e-07
0.00022613535739693353 0.0007368949937029335 0.0 0.0 4.5608323565161576e-05 -3.368814763407904e-07
0.00022202765416336364 0.0007220267482038522 0.0 0.0 -5.8410869524839776e-05 -3.6052557977428543e-07
0.00021794633615014088 0.0007071673229326621 0.0 0.0 4.556861605695367e-05 -3.8580299159974435e-07
0.00021389320831242164 0.0006923173112313577 0.0 0.0 -5.845330549700506e-05 -4.128346671746592e-07
0.00020987019013952126 0.0006774773416395828 0.0 0.0 4.552327548515574e-05 -4.4175122757114833e-07
0.0002058793217705856 0.000662648079149088 0.0 0.0 -5.850173690766865e-05 -4.726939487593009e-07
0.000201922770082834 0.0006478302262858045 0.0 0.0 4.5471556586153304e-05 -5.058158196116639e-07
0.000198002834645635 0.0006330245239206254 0.0 0.0 -5.855695026181409e-05 -5.412827646215663e-07
0.00019412195340131358 0.0006182317516987251 0.0 0.0 4.541263146585215e-05 -5.792750185024467e-07
0.00019028270792515725 0.0006034527279752495 0.0 0.0 -5.861981461204469e-05 -6.199886627647087e-07
0.00018648782800162057 0.0005886883091127915 0.0 0.0 4.534559080288862e-05 -6.636373722089701e-07
0.00018274019526017142 0.0005739393879218251 0.0 0.0 -5.8691277471051165e-05 -7.104543917245626e-07
0.0001790428455093576 0.0005592068910068105 0.0 0.0 4.5269452169086804e-05 -7.606947988397046e-07
0.00017539896930728938 0.000544491774726634 0.0 0.0 -5.87723514790567e-05 -8.146380185760369e-07
0.00017181191020092108 0.0005297950193545862 0.0 0.0 4.5183179447199576e-05 -8.725907065331275e-07
0.00016828515992097529 0.0005151176209613062 0.0 0.0 -5.886408689227533e-05 -9.348899353227693e-07
0.0001648223496267778 0.000500460580430227 0.0 0.0 4.508572075760187e-05 -1.0019069186358249e-06
0.0001614272360722518 0.0004858248888224627 0.0 0.0 -5.896752079547797e-05 -1.074050921349599e-06
0.00015810368125829401 0.00047121150812794643 0.0 0.0 4.497607525776027e-05 -1.1517741207271726e-06
0.00015485562379268517 0.0004566213462219975 0.0 0.0 -5.908358986034625e-05 -1.2355758761178805e-06
0.0001516870397011684 0.00044205522449180363 0.0 0.0 4.4853406402618886e-05 -1.32600958720956e-06
0.0001486018898377332 0.00042751383624328775 0.0 0.0 -5.9212984582005445e-05 -1.423685723700007e-06
0.00014560405033886662 0.00041299769348721434 0.0 0.0 4.471722862093197e-05 -1.5292831365823273e-06
0.00014269722157424968 0.0003985070591239588 0.0 0.0 -5.935591036485802e-05 -1.6435448446724824e-06
0.000139884809875051 0.00038404186076261294 0.0 0.0 4.456771264352852e-05 -1.7673032861185078e-06
0.00013716977481273432 0.00036960158149680855 0.0 0.0 -5.9511697872409756e-05 -1.9014467095438206e-06
0.0001345544328291281 0.0003551851219438117 0.0 0.0 4.44061836508212e-05 -2.046994449460076e-06
0.0001320402056552854 0.0003407906264102773 0.0 0.0 -5.967816508181006e-05 -2.204954809348781e-06
0.00012962729888587514 0.0003264152648899652 0.0 0.0 4.423594060766326e-05 -2.3765865298467238e-06
0.00012731429232183051 0.0003120549608723441 0.0 0.0 -5.985056334823348e-05 -2.5628628103376147e-06
0.00012509761942612979 0.00029770405436385856 0.0 0.0 4.40636179881047e-05 -2.7654302420758578e-06
0.00012297090767768204 0.00028335488839448817 0.0 0.0 -6.001981627610305e-05 -2.9846417963680415e-06
0.0001209241471087929 0.000268997310873263 0.0 0.0 4.3901476803166447e-05 -3.223120739705458e-06
0.00011894264784270913 0.0002546180862892151 0.0 0.0 -6.016955088142674e-05 -3.4785750648307252e-06
0.00011700574885827476 0.00024020023264728505 0.0 0.0 4.377127699330564e-05 -3.7570505280500174e-06
0.00011508523894208639 0.0002257223154771792 0.0 0.0 -6.0271119445608114e-05 -4.046651179282e-06
0.00011314348427887114 0.00021115781255696042 0.0 0.0 4.371071844749006e-05 -4.366722507337709e-06
0.00011113128620078457 0.00019647472282961637 0.0 0.0 -6.027561184962179e-05 -4.671547577771249e-06
0.00010898565615422235 0.00018163586464153513 0.0 0.0 4.378333811355553e-05 -5.032515255147009e-06
0.00010662783075470114 0.00016660048217065923 0.0 0.0 -6.010305527431067e-05 -5.284651945815515e-06
0.00010396249273469321 0.0001513284333692161 0.0 0.0 4.4089243550034284e-05 -5.700471084830951e-06
0.00010087941920729727 0.0001357888531773993 0.0 0.0 -5.9637472704746194e-05 -5.691327216584391e-06
9.726132123084358e-05 0.00011997350696189775 0.0 0.0 4.475147601712415e-05 -6.29818258256502e-06
9.2998208738949e-05 0.00010392444310382988 0.0 0.0 -5.87627273549681e-05 -5.416674464544494e-06
8.802535390872216e-05 8.772047627812232e-05 0.0 0.0 4.572642548743419e-05 -6.998833003397085e-06
8.231965413809467e-05 7.159882066298539e-05 0.0 0.0 -5.7214076193760595e-05 -3.462155838291573e-06
7.60473298609147e-05 5.5171160087587505e-05 0.0 0.0 4.5427456029071504e-05 -9.604995033871025e-06
6.858201453283186e-05 4.0289712261486756e-05 0.0 0.0 -4.558240830847141e-05 3.0152879087648465e-06
6.137796778410313e-05 2.9145698628826983e-05 0.0 0.0 2.4547179513911095e-05 -7.993503405449571e-06
6.300157143592618e-05 2.4446475756322636e-05 0.0 0.0 0.02068095546966908 9.804237177804651e-05
4.235164736271502e-21 0.002889742180514007 0.0 0.0 -0.001505647566842371 -1.0164395367051604e-20
2.6513538195871145e-05 0.0028430480371478576 0.0 0.0 -0.00013375797054192946 -7.270198729312062e-05
5.5613313183341874e-05 0.0027637235509517665 0.0 0.0 -2.093085637251666e-05 -6.977030547272455e-05
9.53922303494747e-05 0.0027111173033025197 0.0 0.0 -0.00011600988710196753 -5.802465212136176e-05
0.00014293593353531197 0.0026815458621325234 0.0 0.0 -3.934590646440347e-06 -4.257788607704395e-05
0.0001929823274043643 0.002668993540065657 0.0 0.0 -0.0001002112223955318 -2.7826085982801155e-05
0.00024182594610107165 0.0026666262410576106 0.0 0.0 1.0415737192221846e-05 -1.5461541881978877e-05
0.0002874770327589829 0.0026692967424503146 0.0 0.0 -8.821900016215992e-05 -5.758246339048438e-06
0.0003291088600553074 0.0026737280305205754 0.0 0.0 2.000572082697162e-05 1.566527266654314e-06
0.00036656373078680345 0.0026780338649148453 0.0 0.0 -8.069143321816168e-05 6.949309018950271e-06
0.0004000264322758162 0.002681229291506704 0.0 0.0 2.5902961058046903e-05 1.081170300336937e-05
0.0004298331097688137 0.0026828718267691955 0.0 0.0 -7.603497923776803e-05 1.3508780261093725e-05
0.00045636711548717777 0.0026828287788760188 0.0 0.0 2.9630484683423956e-05 1.5321763682965974e-05
0.00048000601037257655 0.002681134815439233 0.0 0.0 -7.299959872034112e-05 1.646753763083814e-05
0.0005010971542199111 0.0026779077925280135 0.0 0.0 3.214897727576055e-05 1.711129217005851e-05
0.0005199486555069292 0.002673300409297158 0.0 0.0 -7.086968864345417e-05 1.7378459974576788e-05
0.0005368282111197941 0.002667473334979825 0.0 0.0 3.398381929427296e-05 1.7364352650740642e-05
0.0005519657184119746 0.0026605809992628995 0.0 0.0 -6.926176158426607e-05 1.7141645418213466e-05
0.0005655574445182868 0.002652764739222268 0.0 0.0 3.541458705637673e-05 1.6765974465376084e-05
0.0005777705963261491 0.0026441501398774105 0.0 0.0 -6.797170657821327e-05 1.6280108712932333e-05
0.000588747718132548 0.002634846693040982 0.0 0.0 3.659073822913803e-05 1.571703335338734e-05
0.0005986106603530018 0.002624948670682872 0.0 0.0 -6.688963432540846e-05 1.5102243593446147e-05
0.0006074640311222636 0.0026145365693504754 0.0 0.0 3.759348666624253e-05 1.445545612037029e-05
0.0006153981288694848 0.0026036787575431887 0.0 0.0 -6.595513819150674e-05 1.3791898600335666e-05
0.0006224913952465038 0.0025924331220850763 0.0 0.0 3.846812321023281e-05 1.3123288719965372e-05
0.0006288124446042975 0.0025808486071611826 0.0 0.0 -6.513391678972382e-05 1.245858523683368e-05
0.0006344217301352727 0.002568966597067145 0.0 0.0 3.9240957182662026e-05 1.1804569169517565e-05
0.0006393729041873825 0.00255682212684544 0.0 0.0 -6.440547213878925e-05 1.116629770745646e-05
0.0006437139246616452 0.002544444923419697 0.0 0.0 3.992826272802781e-05 1.054746144690859e-05
0.000647487952746073 0.002531860289454726 0.0 0.0 -6.375659867061977e-05 9.950667543035386e-06
0.0006507340805348234 0.002519089846518221 0.0 0.0 4.054101621124058e-05 9.377665407552072e-06
0.0006534879208371994 0.002506152155417136 0.0 0.0 -6.317794111111284e-05 8.829527443389548e-06
0.0006557820859180169 0.0024930632311524507 0.0 0.0 4.108739047638813e-05 8.306794249931474e-06
0.0006576465770948012 0.002479836968611089 0.0 0.0 -6.26621944921244e-05 7.809591548080247e-06
0.0006591091030261702 0.0024664854933871706 0.0 0.0 4.15740464279297e-05 7.337724431963135e-06
0.0006601953411044828 0.002453019450278551 0.0 0.0 -6.220318428075326e-05 6.89075334942639e-06
0.0006609291535341196 0.0024394482402172613 0.0 0.0 4.200678197231912e-05 6.468055302519271e-06
0.0006613327673538995 0.0024257802147412562 0.0 0.0 -6.179541398082907e-05 6.0688730375960435e-06
0.0006614269257743701 0.0024120228356391575 0.0 0.0 4.239084278648129e-05 5.692354480827638e-06
0.0006612310166720254 0.0023981828061196957 0.0 0.0 -6.14338554810082e-05 5.3375842068407065e-06
0.000660763182856893 0.002384266178750915 0.0 0.0 4.273106064859168e-05 5.003608442394103e-06
0.0006600404177466082 0.0023702784444834817 0.0 0.0 -6.11138602500275e-05 4.6894547731587966e-06
0.0006590786493011865 0.002356224606290212 0.0 0.0 4.303190860392497e-05 4.394147569400451e-06
0.0006578928144542344 0.0023421092403031946 0.0 0.0 -6.083112630497073e-05 4.116719905394059e-06
0.0006564969257868052 0.0023279365467941187 0.0 0.0 4.329752004648946e-05 3.856222660455068e-06
0.0006549041318114979 0.002313710392895593 0.0 0.0 -6.058168733116771e-05 3.6117313206189073e-06
0.0006531267719298044 0.0022994343486068733 0.0 0.0 4.3531695415607505e-05 3.382350940508142e-06
0.0006511764268962352 0.0022851117173247905 0.0 0.0 -6.0361907467414e-05 3.1672196214383233e-06
0.0006490639654407398 0.0022707455619074167 0.0 0.0 4.373790763493462e-05 2.9655108167267366e-06
0.0006467995875605222 0.00225633872708262 0.0 0.0 -6.016847460648273e-05 2.776434682957179e-06
0.0006443928648838126 0.002241893858849233 0.0 0.0 4.391931066204639e-05 2.599238711395235e-06
0.0006418527784277856 0.00222741342140174 0.0 0.0 -5.9998389729074226e-05 2.4332077673570656e-06
0.00063918775400695 0.0022128997120036756 0.0 0.0 4.407875228138738e-05 2.2776637002511083e-06
0.0006364056955036272 0.002198354874148395 0.0 0.0 -5.984895215110534e-05 2.131964600513421e-06
0.0006335140161673309 0.0021837809092861782 0.0 0.0 4.421879058898626e-05 1.9955038244119563e-06
0.0006305196680942652 0.002169179687343638 0.0 0.0 -5.9717741530854824e-05 1.8677088152305372e-06
0.000627429170005964 0.002154552956212253 0.0 0.0 4.434171324326343e-05 1.7480398220743058e-06
0.0006242486334346109 0.002139902350355692 0.0 0.0 -5.9602597681521804e-05 1.635988515176338e-06
0.0006209837874107467 0.0021252293986569392 0.0 0.0 4.4449558262023314e-05 1.531076576604442e-06
0.0006176400017385128 0.0021105355316045423 0.0 0.0 -5.9501599367464946e-05 1.432854246784254e-06
0.0006142223089344567 0.0020958220878965605 0.0 0.0 4.454413546515763e-05 1.3408988982091877e-06
0.0006107354249036028 0.0020810903205292766 0.0 0.0 -5.941304287924938e-05 1.2548136062474902e-06
0.0006071837684192971 0.0020663414024329183 0.0 0.0 4.462704771832028e-05 1.1742257670964505e-06
0.0006035714794695049 0.002051576431693635 0.0 0.0 -5.9335421069942463e-05 1.0987857433148091e-06
0.0005999024365301518 0.002036796436405618 0.0 0.0 4.4699711420629154e-05 1.028165564680595e-06
0.0005961802728222852 0.002022002379188287 0.0 0.0 -5.9267403416321616e-05 9.620576737361976e-07
0.0005924083916058209 0.002007195161395204 0.0 0.0 4.4763375905448335e-05 9.001737249928008e-07
0.0005885899805649152 0.001992375627042516 0.0 0.0 -5.920781729340638e-05 8.42243449020359e-07
0.0005847280253303023 0.0019775445664785164 0.0 0.0 4.481914142978312e-05 7.880135530021653e-07
0.0005808253221907366 0.001962702719815086 0.0 0.0 -5.915563067941177e-05 7.372467025655517e-07
0.0005768844900334683 0.0019478507801339259 0.0 0.0 4.486797572436033e-05 6.89720524009983e-07
0.0005729079815620884 0.001932989396491292 0.0 0.0 -5.9109936355623794e-05 6.452266998404504e-07
0.0005688980938295773 0.0019181191767305102 0.0 0.0 4.4910729030744954e-05 6.035700794387411e-07
0.0005648569781271235 0.0019032406901155446 0.0 0.0 -5.906993767186596e-05 5.645678617280619e-07
0.0005607866492663227 0.0018883544697951117 0.0 0.0 4.494814766486423e-05 5.280488189168104e-07
0.0005566889942901729 0.0018734610151170546 0.0 0.0 -5.9034935620211424e-05 4.938525619947536e-07
0.0005525657806456591 0.0018585607937971166 0.0 0.0 4.498088617340941e-05 4.6182885163592027e-07
0.0005484186638525756 0.001843654243945705 0.0 0.0 -5.90043173978879e-05 4.318369608220557e-07
0.000544249194696749 0.0018287417759742922 0.0 0.0 4.500951817003459e-05 4.0374505377182733e-07
0.0005400588259777831 0.0018138237743802153 0.0 0.0 -5.8977546176035376e-05 3.774296251782879e-07
0.0005358489188373775 0.0017989005994187065 0.0 0.0 4.503454597407845e-05 3.527749593593382e-07
0.0005316207486962107 0.0017839725886728422 0.0 0.0 -5.895415203495337e-05 3.2967262430020055e-07
0.0005273755108209467 0.0017690400585249773 0.0 0.0 4.505640909528523e-05 3.08021010191875e-07
0.0005231143255476729 0.0017541033055373683 0.0 0.0 -5.893372396236548e-05 2.8772487068270307e-07
0.0005188382431806829 0.001739162607747273 0.0 0.0 4.507549179526987e-05 2.6869491802681373e-07
0.0005145482485889994 0.0017242182258803975 0.0 0.0 -5.891590283055401e-05 2.508474280602663e-07
0.0005102452655174702 0.0017092704044909244 0.0 0.0 4.5092129664616224e-05 2.341038719271167e-07
0.0005059301606364765 0.0016943193730323126 0.0 0.0 -5.890037511694962e-05 2.1839058168642272e-07
0.0005016037473389575 0.001679365346860728 0.0 0.0 4.51066154341077e-05 2.0363840787853424e-07
0.0004972667893084733 0.0016644085281780532 0.0 0.0 -5.888686760015629e-05 1.8978244011497213e-07
0.0004929200038717624 0.0016494491069158766 0.0 0.0 4.511920407668647e-05 1.7676169797824345e-07
0.0004885640651436773 0.0016344872615721819 0.0 0.0 -5.8875142480496376e-05 1.6451888827629345e-07
0.00048419960698879824 0.0016195231599935031 0.0 0.0 4.513011723730558e-05 1.5300012812306764e-07
0.00047982722580623677 0.0016045569601049075 0.0 0.0 -5.886499329452351e-05 1.4215472446063322e-07
0.0004754474831472501 0.001589588810608587 0.0 0.0 4.513954708562152e-05 1.3193495394206878e-07
0.0004710609081831908 0.0015746188516364637 0.0 0.0 -5.8856241301489674e-05 1.2229583285975178e-07
0.0004666680000326844 0.001559647215364019 0.0 0.0 4.514765972332474e-05 1.1319494396189655e-07
0.00046226922995410075 0.0015446740265912316 0.0 0.0 -5.8848732335762036e-05 1.0459223188799896e-07
0.0004578650434173462 0.0015296994032891144 0.0 0.0 4.515459804782735e-05 9.644984056344716e-08
0.00045345586206359533 0.0015147234571213065 0.0 0.0 -5.884233412347013e-05 8.873192543852777e-08
0.00044904208555864364 0.0014997462939327381 0.0 0.0 4.5160484296622155e-05 8.140452982524768e-08
0.0004446240933503905 0.0014847680142141561 0.0 0.0 -5.8836933939132455e-05 7.443539514482341e-08
0.00044020224633700526 0.0014697887135478199 0.0 0.0 4.5165422187624276e-05 6.779385882998892e-08
0.0004357768884578735 0.0014548084830227543 0.0 0.0 -5.883243662846438e-05 6.145068427704627e-08
0.00043134834820315903 0.0014398274096365925 0.0 0.0 4.516949870700989e-05 5.537795831942567e-08
0.00042691694005977644 0.001424845576678259 0.0 0.0 -5.882876296166696e-05 4.9548946725057243e-08
0.00042248296589435393 0.0014098630640949753 0.0 0.0 4.5172785690851904e-05 4.3938004779182135e-08
0.0004180467162847132 0.0013948799488465858 0.0 0.0 -5.882584819391569e-05 3.852042972264788e-08
0.0004136084717945406 0.0013798963052400965 0.0 0.0 4.5175341055979194e-05 3.32723842655651e-08
0.00040916850421023667 0.0013649122052541535 0.0 0.0 -5.8823640996183706e-05 2.817076431182357e-08
0.00040472707773449534 0.0013499277188638611 0.0 0.0 4.517720983868525e-05 2.3193120006080505e-08
0.00040028445015116346 0.0013349429143432552 0.0 0.0 -5.8822102441295505e-05 1.8317537351297472e-08
0.0003958408739595593 0.001319957858560397 0.0 0.0 4.517842494856819e-05 1.352256160167117e-08
0.0003913965974851697 0.001304972617281872 0.0 0.0 -5.8821205444329434e-05 8.787087975217073e-09
0.00038695186597054556 0.001289987255453455 0.0 0.0 4.517900778689852e-05 4.090264276476567e-09
0.00038250692265916344 0.0012750018374919534 0.0 0.0 -5.882093419357732e-05 -5.88575607305894e-10
0.0003780620098590215 0.001260016427566342 0.0 0.0 4.517896861335423e-05 -5.270031843264498e-09
0.0003736173700158092 0.0012450310898713028 0.0 0.0 -5.8821283939012627e-05 -9.974712795535537e-09
0.0003691732467718078 0.0012300458889227602 0.0 0.0 4.5178306747894765e-05 -1.4723340794275085e-08
0.00036472988604449634 0.001215060889836578 0.0 0.0 -5.882226084991647e-05 -1.9536802759714724e-08
0.0003602875371067805 0.001200076158610614 0.0 0.0 4.517701048879666e-05 -2.4436314787303938e-08
0.0003558464536812138 0.0011850917624098719 0.0 0.0 -5.8823882144290506e-05 -2.9443436738740315e-08
0.0003514068950554231 0.001170107769866271 0.0 0.0 4.5175056994468986e-05 -3.458023577836318e-08
0.0003469691272226391 0.0011551242513834323 0.0 0.0 -5.882617643878166e-05 -3.9869322527555547e-08
0.00034253342405323616 0.0011401412794319842 0.0 0.0 4.5172411824710625e-05 -4.533401511369432e-08
0.0003381000684928138 0.0011251589288756689 0.0 0.0 -5.882918416993607e-05 -5.099837527039637e-08
0.00033366935380781874 0.001110177277288897 0.0 0.0 4.516902831602906e-05 -5.688737518853501e-08
0.0003292415848668542 0.0010951964053020104 0.0 0.0 -5.883295834255655e-05 -6.302697682758051e-08
0.0003248170794853386 0.0010802163969443283 0.0 0.0 4.5164846869761156e-05 -6.94442368000172e-08
0.0003203961698088672 0.0010652373400024545 0.0 0.0 -5.8837565487503346e-05 -7.616748120924371e-08
0.00031597920376779656 0.0010502593264036665 0.0 0.0 4.5159793810863416e-05 -8.322635280629594e-08
0.0003115665466030369 0.0010352824526011055 0.0 0.0 -5.884308672359211e-05 -9.065202002684486e-08
0.0003071585824513958 0.0010203068199863801 0.0 0.0 4.515378012466499e-05 -9.847725474751998e-08
0.0003027557160199997 0.0010053325353196775 0.0 0.0 -5.884961929332531e-05 -1.067366458309656e-07
0.0002983583743417936 0.0009903597111768486 0.0 0.0 4.514669999443116e-05 -1.1546667778194368e-07
0.0002939670086280186 0.0009753884664094855 0.0 0.0 -5.885727809118435e-05 -1.2470597419175864e-07
0.0002895820962105079 0.0009604189266385168 0.0 0.0 4.513842892504816e-05 -1.3449540695671842e-07
0.00028520414259915276 0.0009454512247664144 0.0 0.0 -5.8866197680259615e-05 -1.448783589056736e-07
0.0002808336836410956 0.000930485501502234 0.0 0.0 4.5128821731146634e-05 -1.559008167517596e-07
0.0002764712878046772 0.0009155219059177647 0.0 0.0 -5.8876534510171824e-05 -1.6761169697185677e-07
0.00027211755858487247 0.0009005605960249379 0.0 0.0 4.5117710094710797e-05 -1.8006300185895337e-07
0.00026777313703729125 0.0008856017393673067 0.0 0.0 -5.888846944248575e-05 -1.9331009328286877e-07
0.000263438704445104 0.0008706455136359861 0.0 0.0 4.5104899919362574e-05 -2.0741192852070586e-07
0.00025911498513604496 0.000855692107300113 0.0 0.0 -5.8902210560421745e-05 -2.2243138366189082e-07
0.0002548027494244602 0.0008407417202601663 0.0 0.0 4.509016835875165e-05 -2.384354961805198e-07
0.00025050281671316123 0.0008257945644966554 0.0 0.0 -5.8917996229849176e-05 -2.554958451442442e-07
0.00024621605872692583 0.0008108508647274115 0.0 0.0 4.507326068494181e-05 -2.7368885262757034e-07
0.00024194340289503428 0.0007959108590571195 0.0 0.0 -5.893609837832707e-05 -2.9309620411461287e-07
0.00023768583586164516 0.0007809747996130561 0.0 0.0 4.505388694588043e-05 -3.1380520152247786e-07
0.00023344440712630982 0.0007660429531447343 0.0 0.0 -5.895682580663616e-05 -3.3590925428315585e-07
0.00022922023278056704 0.0007511156015800643 0.0 0.0 4.503171869055548e-05 -3.595082993819833e-07
0.0002250144993356631 0.0007361930425162578 0.0 0.0 -5.8980527285874395e-05 -3.847093676169217e-07
0.00022082846759876134 0.0007212755895997798 0.0 0.0 4.500638620245825e-05 -4.116270840323448e-07
0.00021666347655865972 0.0007063635727941883 0.0 0.0 -5.900759406757294e-05 -4.40384286749221e-07
0.00021252094721939616 0.0006914573384493402 0.0 0.0 4.497747640463414e-05 -4.711126812571636e-07
0.00020840238630570964 0.0006765572491546799 0.0 0.0 -5.903846107128746e-05 -5.039535290189863e-07
0.00020430938976090138 0.0006616636833196427 0.0 0.0 4.494453266880392e-05 -5.390583997019879e-07
0.0002002436458960349 0.0006467770343411253 0.0 0.0 -5.9073605951702425e-05 -5.765899838979611e-07
0.00019620693804356533 0.0006318977093265633 0.0 0.0 4.490705765559369e-05 -6.167229897882046e-07
0.00019220114653098174 0.0006170261272327856 0.0 0.0 -5.911354392017926e-05 -6.596450525937726e-07
0.00018822824971377695 0.0006021627162595208 0.0 0.0 4.486452108444202e-05 -7.055577723098262e-07
0.0001842903237847799 0.0005873079103248564 0.0 0.0 -5.915881625661993e-05 -7.546777469537736e-07
0.0001803895409670537 0.0005724621444068881 0.0 0.0 4.48163760430689e-05 -8.072377533359203e-07
0.00017652816563467228 0.0005576258484990316 0.0 0.0 -5.9209968349232785e-05 -8.634878665601201e-07
0.0001727085477683318 0.000542799439838851 0.0 0.0 4.476208815637505e-05 -9.236967235083183e-07
0.00016893311305958122 0.0005279833130344029 0.0 0.0 -5.926751129118994e-05 -9.881527086540425e-07
0.0001652043487616903 0.0005131778275990905 0.0 0.0 4.470118532313625e-05 -1.0571651736054248e-06
0.00016152478421599067 0.000498383292335366 0.0 0.0 -5.933185809626931e-05 -1.131065457639119e-06
0.00015789696473744199 0.0004835999458690036 0.0 0.0 4.463333900409658e-05 -1.2102080101694971e-06
0.00015432341723352295 0.00046882793252327215 0.0 0.0 -5.9403220755435606e-05 -1.294970628386359e-06
0.00015080660558534418 0.00045406727248966847 0.0 0.0 4.455849383633564e-05 -1.3857553603281204e-06
0.00014734887336613682 0.0004393178251614645 0.0 0.0 -5.9481447679959843e-05 -1.4829865729915114e-06
0.00014395237099786246 0.0004245792441357736 0.0 0.0 4.447707061948597e-05 -1.5871120331278346e-06
0.0001406189637332096 0.0004098509223969402 0.0 0.0 -5.956577029467194e-05 -1.698594708638844e-06
0.0001373501163156742 0.00039513192538427464 0.0 0.0 4.4390280607670184e-05 -1.8179173205721362e-06
0.00013414674889295202 0.0003804209104543433 0.0 0.0 -5.965441276967209e-05 -1.9455552027479754e-06
0.00013100905863037385 0.00036571602903380285 0.0 0.0 4.430060691014664e-05 -2.0819999298504234e-06
0.00012793629871344202 0.0003510148114071657 0.0 0.0 -5.974399337176409e-05 -2.2276711552225888e-06
0.00012492650849045767 0.000336314026943802 0.0 0.0 4.421253553252226e-05 -2.3830236081002912e-06
0.00012197618119991209 0.0003216095271520704 0.0 0.0 -5.98286116596312e-05 -2.5482520858504613e-06
0.00011907986668105612 0.0003068960532388921 0.0 0.0 4.4133651659072426e-05 -2.723731194663242e-06
0.00011622968348469399 0.00029216704446387125 0.0 0.0 -5.98984570398726e-05 -2.9089941096631117e-06
0.00011341475924956095 0.0002774143887384783 0.0 0.0 4.407624329897807e-05 -3.1044483404771327e-06
0.00011062053796096662 0.00026262825670451625 0.0 0.0 -5.993768922232302e-05 -3.3077475894396e-06
0.00010782806042391287 0.0002477968073965651 0.0 0.0 4.405950112908023e-05 -3.520306528947861e-06
0.00010501303102653879 0.00023290628125036887 0.0 0.0 -5.992119934001617e-05 -3.7341982732835627e-06
0.00010214510079595235 0.00021794067779802015 0.0 0.0 4.411199186696822e-05 -3.9565408976392335e-06
9.918670694120593e-05 0.00020288286520567177 0.0 0.0 -5.980960174834524e-05 -4.161730981592886e-06
9.609305867380724e-05 0.00018771404807855203 0.0 0.0 4.427229020794441e-05 -4.382047567484605e-06
9.281078552327775e-05 0.00017241818011825332 0.0 0.0 -5.954106124734485e-05 -4.532607541027161e-06
8.9280945031881e-05 0.0001569795422833504 0.0 0.0 4.457901076841209e-05 -4.746629323212491e-06
8.543680984242405e-05 0.00014139704334959407 0.0 0.0 -5.9015059631351225e-05 -4.732126944721141e-06
8.121664669109655e-05 0.00012566999855315135 0.0 0.0 4.5019015465058146e-05 -5.009283361930537e-06
7.655396311167607e-05 0.00010984148629672687 0.0 0.0 -5.804012940883183e-05 -4.542802187152491e-06
7.14180669413671e-05 9.392187039873776e-05 0.0 0.0 4.5331709724913405e-05 -5.294920791160313e-06
6.575251869147943e-05 7.804149265234872e-05 0.0 0.0 -5.60304608764686e-05 -3.5197137763264604e-06
5.960860467694926e-05 6.205028149904942e-05 0.0 0.0 4.423064647586256e-05 -6.375604452005788e-06
5.276669635586825e-05 4.6570490608738676e-05 0.0 0.0 -4.9577317404684e-05 -3.2199679739957146e-07
4.577631537472525e-05 3.087221326111557e-05 0.0 0.0 3.244409751718873e-05 -9.259913473316913e-06
3.882831511056994e-05 1.7141817979133996e-05 0.0 0.0 -2.468403364751302e-05 9.323986583321432e-06
3.922849918642915e-05 1.1733922379785765e-05 0.0 0.0 -0.02062760749012198 5.9901714596513806e-05
1.5246593050577406e-20 0.00266916158873002 0.0 0.0 -0.0015153139401360813 2.202285662861181e-20
6.301441283705795e-05 0.002638312400195789 0.0 0.0 -5.504271372511603e-05 -0.0001051998718885086
0.00010848398568568171 0.0025891191466906795 0.0 0.0 -0.00014720476534734622 -9.655075300469523e-05
0.00017177670331483026 0.002572264569097618 0.0 0.0 -2.981410775694567e-05 -6.584976829853329e-05
0.00023831365563763417 0.002584719094667701 0.0 0.0 -0.00011919629602603377 -3.875571189235967e-05
0.00030024047483277543 0.0026094070896286485 0.0 0.0 -3.7722610384564523e-06 -1.864227102678714e-05
0.00035493694559127626 0.0026362968400755037 0.0 0.0 -9.955401563719747e-05 -4.577021887812994e-06
0.00040214064716472664 0.0026606781075044343 0.0 0.0 1.0289442070133506e-05 4.990950297292471e-06
0.0004424937782772696 0.002680723086860549 0.0 0.0 -8.946991175481583e-05 1.138840055523827e-05
0.00047690140624792794 0.002696017605631801 0.0 0.0 1.771642365471464e-05 1.5585336331083766e-05
0.0005062681666732353 0.002706785577872897 0.0 0.0 -8.379283638844699e-05 1.8257691259536182e-05
0.0005314023975435098 0.0027135026956956274 0.0 0.0 2.2232736913229724e-05 1.986848353761016e-05
0.000552991763169059 0.002716711700313277 0.0 0.0 -8.005971383161602e-05 2.0735260134864628e-05
0.000571607589015424 0.002716938608939149 0.0 0.0 2.5424844256966467e-05 2.1077321595373248e-05
0.0005877191635716228 0.0027146584809546056 0.0 0.0 -7.725176087083309e-05 2.1047925189078307e-05
0.0006017100968542778 0.002710284946371937 0.0 0.0 2.7951258302098342e-05 2.0755518244460828e-05
0.0006138936167409782 0.00270417072014924 0.0 0.0 -7.493894921242148e-05 2.0277878695023545e-05
0.0006245257881436171 0.0026966127950121253 0.0 0.0 3.0095910217544378e-05 1.9671485774715597e-05
0.0006338165139777211 0.002687859248266928 0.0 0.0 -7.29317183796021e-05 1.8977832579864052e-05
0.0006419385150235493 0.0026781162095429584 0.0 0.0 3.1986739706239554e-05 1.8227700874264445e-05
0.0006490345850552138 0.0026675543450073455 0.0 0.0 -7.114272509792927e-05 1.744410590054783e-05
0.0006552234212436285 0.0026563146118217715 0.0 0.0 3.368415372777961e-05 1.6644345773786534e-05
0.0006606042967762758 0.0026445132309074037 0.0 0.0 -6.952950665447212e-05 1.58414521213841e-05
0.0006652608008005075 0.0026322459152834936 0.0 0.0 3.521864929921826e-05 1.5045230416295008e-05
0.0006692638302233832 0.0026195914284263765 0.0 0.0 -6.80695210508501e-05 1.4263018617371109e-05
0.0006726739826722595 0.0026066145579792133 0.0 0.0 3.660751820685744e-05 1.3500248405824315e-05
0.0006755434705596173 0.0025933685886994967 0.0 0.0 -6.674889768426682e-05 1.2760866982867015e-05
0.0006779176523526184 0.002579897351519156 0.0 0.0 3.786244433422241e-05 1.2047658515159443e-05
0.0006798362579547606 0.0025662369166374885 0.0 0.0 -6.555731161665544e-05 1.1362492470922905e-05
0.0006813343697503367 0.002552416989343506 0.0 0.0 3.899294130834405e-05 1.0706517740711566e-05
0.0006824432085757728 0.002538462058612011 0.0 0.0 -6.448570634134047e-05 1.008031597768015e-05
0.0006831907640565344 0.002524392340752517 0.0 0.0 4.0007829145233536e-05 9.484023754767392e-06
0.0006836023008766886 0.0025102245536001515 0.0 0.0 -6.352536942491618e-05 8.917430545487306e-06
0.0006837007662376253 0.002495972550900618 0.0 0.0 4.0915779285246234e-05 8.38005770242648e-06
0.0006835071186961618 0.0024816478415720772 0.0 0.0 -6.266764538104265e-05 7.871222322823244e-06
0.000683040594507009 0.0024672600143315045 0.0 0.0 4.17254294185696e-05 7.390088980042405e-06
0.0006823189243253126 0.0024528170846453523 0.0 0.0 -6.190393267248306e-05 6.935711619954465e-06
0.000681358510507375 0.0024383257780143607 0.0 0.0 4.2445317319636067e-05 6.5070674517045244e-06
0.0006801745731437481 0.00242379176114548 0.0 0.0 -6.122578913301841e-05 6.103084267646767e-06
0.0006787812712761292 0.0024092198305156955 0.0 0.0 4.30837568648397e-05 5.722662379030826e-06
0.0006771918044061925 0.0023946140661382257 0.0 0.0 -6.062506044298186e-05 5.364692101068077e-06
0.000675418498328571 0.0023799779569375983 0.0 0.0 4.364871436852226e-05 5.028067591500573e-06
0.000673472878468596 0.0023653145029822018 0.0 0.0 -6.009399315271669e-05 4.711697661592603e-06
0.0006713657332253202 0.002350626298869478 0.0 0.0 4.414770952341704e-05 4.414514121222647e-06
0.0006691071692835163 0.002335915601769264 0.0 0.0 -5.962531815125531e-05 4.135478077686461e-06
0.0006667066604349579 0.0023211843869899215 0.0 0.0 4.458774795875766e-05 3.8735845742034105e-06
0.0006641730911135755 0.0023064343934008744 0.0 0.0 -5.9212302524534505e-05 3.6278658668920723e-06
0.0006615147955865397 0.002291667160610291 0.0 0.0 4.497528401509491e-05 3.3973936055171927e-06
0.0006587395935403711 0.002276884059446603 0.0 0.0 -5.884877336493447e-05 3.1812801158408372e-06
0.0006558548226381108 0.002262086316999431 0.0 0.0 4.531620891338111e-05 2.9786789814948323e-06
0.0006528673684989701 0.0022472750372412725 0.0 0.0 -5.852911913942059e-05 2.7887850493037636e-06
0.0006497836924571785 0.0022324512180578134 0.0 0.0 4.561585840975142e-05 2.6108340073497033e-06
0.0006466098573796967 0.002217615765355897 0.0 0.0 -5.824827438213144e-05 2.444101599578623e-06
0.0006433515517672328 0.0022027695048005306 0.0 0.0 4.587903442340328e-05 2.287902602155276e-06
0.0006400141123151814 0.0021879131916186737 0.0 0.0 -5.800169297280876e-05 2.1415895872372594e-06
0.0006366025450809154 0.00217304751882167 0.0 0.0 4.6110035814878546e-05 2.0045515690693383e-06
0.0006331215453754546 0.002158173124145004 0.0 0.0 -5.7785314212302475e-05 1.8762125337757826e-06
0.0006295755164789773 0.002143290595935214 0.0 0.0 4.631269459797892e-05 1.7560299366743161e-06
0.0006259685872629133 0.002128400478171657 0.0 0.0 -5.7595525055232656e-05 1.643493150936873e-06
0.0006223046287923691 0.0021135032747791435 0.0 0.0 4.649041464839098e-05 1.5381219259170736e-06
0.000618587269970981 0.002098599453355346 0.0 0.0 -5.742912096698568e-05 1.4394648442326023e-06
0.0006148199122859714 0.0020836894484130264 0.0 0.0 4.664621091394962e-05 1.3470978239566301e-06
0.0006110057437023774 0.002068773664219252 0.0 0.0 -5.728326705034206e-05 1.2606226333445117e-06
0.0006071477517562993 0.002053852477298625 0.0 0.0 4.678274758290724e-05 1.1796654743926834e-06
0.0006032487358880418 0.002038926238651754 0.0 0.0 -5.7155460712743486e-05 1.1038755995536028e-06
0.000599311319059116 0.0020239952757347334 0.0 0.0 4.69023744300019e-05 1.0329239906824552e-06
0.0005953379586851438 0.0020090598942377165 0.0 0.0 -5.704349652452679e-05 9.665020960979652e-07
0.000591330956930557 0.00199412037968875 0.0 0.0 4.700716069999829e-05 9.043206161939979e-07
0.0005872924703916591 0.0019791769989060772 0.0 0.0 -5.6945433668073977e-05 8.461083589445775e-07
0.0005832245192034778 0.0019642300013233654 0.0 0.0 4.7098926224398044e-05 7.916111437894784e-07
0.0005791289956050008 0.0019492796202002483 0.0 0.0 -5.685956618056801e-05 7.405907685536475e-07
0.000575007671986293 0.0019343260737334786 0.0 0.0 4.7179269798940516e-05 6.928240265930536e-07
0.0005708622084544015 0.0019193695660789222 0.0 0.0 -5.6784396037343155e-05 6.481017828111404e-07
0.0005666941599367155 0.0019044102882946768 0.0 0.0 4.724959475556779e-05 6.062280960132693e-07
0.0005625049828557616 0.001889448419216165 0.0 0.0 -5.671860889609504e-05 5.670193983314483e-07
0.0005582960413949481 0.0018744841262648003 0.0 0.0 4.731113185597749e-05 5.30303712817262e-07
0.0005540686133802913 0.0018595175662021132 0.0 0.0 -5.666105245361307e-05 4.959199289341775e-07
0.0005498238958027941 0.0018445488858313567 0.0 0.0 4.7364959751305166e-05 4.6371710141305264e-07
0.0005455630100006658 0.0018295782226474917 0.0 0.0 -5.6610717190586665e-05 4.3355381903629944e-07
0.0005412870065212241 0.001814605705445344 0.0 0.0 4.741202310148192e-05 4.0529758210845757e-07
0.0005369968696843201 0.0017996314548897247 0.0 0.0 -5.6566719289478375e-05 3.7882423482648404e-07
0.0005326935218633188 0.001784655584045502 0.0 0.0 4.745314864354976e-05 3.540174354046727e-07
0.0005283778275022025 0.0017696781988759667 0.0 0.0 -5.652828555703204e-05 3.3076813732885483e-07
0.0005240505968827583 0.0017546993987056564 0.0 0.0 4.748905933873234e-05 3.089741299270297e-07
0.0005197125896642411 0.0017397192766537336 0.0 0.0 -5.649474014923729e-05 2.885395806689179e-07
0.0005153645181986753 0.0017247379200458859 0.0 0.0 4.75203868453844e-05 2.693746259416576e-07
0.0005110070506462603 0.0017097554107967448 0.0 0.0 -5.6465492873468935e-05 2.513949794307759e-07
0.0005066408138990589 0.001694771825765498 0.0 0.0 4.754768243653577e-05 2.345215476830232e-07
0.0005022663963247913 0.0016797872370904105 0.0 0.0 -5.6440028965619123e-05 2.186801168063148e-07
0.0004978843503437982 0.0016648017125087417 0.0 0.0 4.757142661194211e-05 2.0380099073261495e-07
0.0004934951948535852 0.0016498153156511834 0.0 0.0 -5.641790010924301e-05 1.8981871217920885e-07
0.0004890994175005951 0.0016348281063216347 0.0 0.0 4.759203746390671e-05 1.766717607369411e-07
0.0004846974768205309 0.0016198401407575246 0.0 0.0 -5.639871661528419e-05 1.6430229119558182e-07
0.00048028980425170203 0.0016048514718738248 0.0 0.0 4.76098779816764e-05 1.5265587742860224e-07
0.0004758768060275284 0.00158986214949921 0.0 0.0 -5.638214059760127e-05 1.4168127027223542e-07
0.000471458864962802 0.0015748722205920717 0.0 0.0 4.762526241230633e-05 1.3133018271862563e-07
0.0004670363421321289 0.0015598817294473248 0.0 0.0 -5.636788006588083e-05 1.215570596259201e-07
0.00046260957845942256 0.0015448907178884472 0.0 0.0 4.763846178394856e-05 1.1231889565090861e-07
0.0004581788962142659 0.0015298992254532036 0.0 0.0 -5.635568379265825e-05 1.0357503788492595e-07
0.00045374460042937084 0.0015149072895658743 0.0 0.0 4.7649708627014466e-05 9.528700514586409e-08
0.00044930698024083724 0.0014999149457014405 0.0 0.0 -5.634533688590965e-05 8.741832357956692e-08
0.00044486631015857854 0.0014849222275410024 0.0 0.0 4.7659201121612554e-05 7.993436818118545e-08
0.00044042285127760087 0.0014699291671244204 0.0 0.0 -5.633665704435863e-05 7.280219719332489e-08
0.00043597685241966624 0.001454935794984767 0.0 0.0 4.7667106514598183e-05 6.599042742859527e-08
0.00043152855123383926 0.0014399421402802107 0.0 0.0 -5.632949131389011e-05 5.946907767780379e-08
0.00042707817523802006 0.001424948230931194 0.0 0.0 4.7673564109414375e-05 5.320944576777103e-08
0.0004226259428210271 0.0014099540937354894 0.0 0.0 -5.6323713442554216e-05 4.7183990805265644e-08
0.0004181720642041908 0.0013949597544889428 0.0 0.0 4.767868768256985e-05 4.13661819211519e-08
0.0004137167423647521 0.0013799652380992661 0.0 0.0 -5.6319221616180255e-05 3.57304233635663e-08
0.0004092601739298131 0.0013649705686933843 0.0 0.0 4.768256753892369e-05 3.0251910873059507e-08
0.00040480255004071497 0.0013499757697265251 0.0 0.0 -5.631593668454723e-05 2.4906526638042523e-08
0.00040034405719608236 0.0013349808640804209 0.0 0.0 4.768527202589758e-05 1.967074562275479e-08
0.0003958848780696408 0.0013199858741654064 0.0 0.0 -5.631380076601036e-05 1.4521524355714209e-08
0.0003914251923155905 0.0013049908220223324 0.0 0.0 4.7686848789777305e-05 9.436197900857847e-09
0.00038696517735980866 0.0012899957294127341 0.0 0.0 -5.631277622799929e-05 4.392383180372612e-09
0.00038250500917737115 0.0012750006179186642 0.0 0.0 4.768732559413762e-05 -6.321218202196867e-10
0.00037804486307215716 0.001260005509037079 0.0 0.0 -5.631284504595941e-05 -5.6594344688605004e-09
0.0003735849144414521 0.001245010424266974 0.0 0.0 4.7686710817680124e-05 -1.0711685696426776e-08
0.0003691253395518252 0.0012300153852117242 0.0 0.0 -5.631400846904525e-05 -1.5811111280048668e-08
0.000364666316311581 0.0012150204136737374 0.0 0.0 4.768499363526249e-05 -2.0980174092488126e-08
0.00036020802505526493 0.0012000255317382736 0.0 0.0 -5.6316286988649256e-05 -2.624161551679485e-08
0.0003557506493340037 0.001185030761872762 0.0 0.0 4.7682143720028996e-05 -3.16186220903486e-08
0.00035129437672577985 0.0011700361270269174 0.0 0.0 -5.631972083374023e-05 -3.7134848058920696e-08
0.00034683939965584785 0.0011550416507262603 0.0 0.0 4.7678110818298114e-05 -4.281460534889814e-08
0.0003423859162426628 0.0011400473571739345 0.0 0.0 -5.632437057655486e-05 -4.8682897913670045e-08
0.0003379341311648839 0.001125053271355286 0.0 0.0 4.767282380119427e-05 -5.476557843347605e-08
0.0003334842565592268 0.0011100594191400608 0.0 0.0 -5.6330318173354143e-05 -6.108943562284624e-08
0.00032903651295129315 0.0010950658273846713 0.0 0.0 4.7666189430461904e-05 -6.768233312503093e-08
0.00032459113021821425 0.001080072524043353 0.0 0.0 -5.6337668532312354e-05 -7.457332877917281e-08
0.00032014834858971414 0.0010650795382869261 0.0 0.0 4.765809075521271e-05 -8.179278024583042e-08
0.0003157084197016585 0.0010500869006124735 0.0 0.0 -5.634655122141062e-05 -8.937252423486721e-08
0.00031127160768234624 0.0010350946429597192 0.0 0.0 4.764838497932247e-05 -9.73459624981337e-08
0.0003068381903043234 0.0010201027988351724 0.0 0.0 -5.635712280118582e-05 -1.0574826563285872e-07
0.0003024084601853355 0.0010051114034330495 0.0 0.0 4.763690107214115e-05 -1.1461648072546952e-07
0.0002979827260438299 0.0009901204937653603 0.0 0.0 -5.636956957060565e-05 -1.2398973804411077e-07
0.00029356131403618396 0.0009751301087860349 0.0 0.0 4.762343673558921e-05 -1.3390938567758078e-07
0.00028914456913696414 0.000960140289511543 0.0 0.0 -5.638411069391869e-05 -1.444192239312761e-07
0.0002847328566159369 0.0009451510791587967 0.0 0.0 4.7607754917709365e-05 -1.5556563166656007e-07
0.00028032656357106694 0.0009301625232754512 0.0 0.0 -5.640100201867741e-05 -1.6739785087098186e-07
0.0002759261005527372 0.0009151746698497284 0.0 0.0 4.758957993054413e-05 -1.7996813226662817e-07
0.00027153190326966706 0.0009001875694229266 0.0 0.0 -5.642054039320431e-05 -1.9333202448451516e-07
0.0002671444343765881 0.0008852012752027364 0.0 0.0 4.756859262024238e-05 -2.075485859420875e-07
0.0002627641853490213 0.0008702158431542488 0.0 0.0 -5.6443068499772465e-05 -2.226806709086605e-07
0.0002583916784481347 0.0008552313320697964 0.0 0.0 4.7544425302510065e-05 -2.3879518671070157e-07
0.00025402746876584405 0.000840247803623315 0.0 0.0 -5.646898044485383e-05 -2.559634175639371e-07
0.0002496721463588285 0.0008252653223946627 0.0 0.0 4.75166560133342e-05 -2.742613000441879e-07
0.00024532633846450667 0.0008102839558367267 0.0 0.0 -5.649872768348691e-05 -2.9376979314215887e-07
0.00024099071178080997 0.0007953037742021367 0.0 0.0 4.7484802088361856e-05 -3.145752030283937e-07
0.0002366659748091458 0.0007803248504066352 0.0 0.0 -5.653282571196254e-05 -3.367695856023624e-07
0.00023235288023768134 0.0007653472598069294 0.0 0.0 4.7448313539202045e-05 -3.604510957768651e-07
0.00022805222735238016 0.0007503710798732342 0.0 0.0 -5.657186074628853e-05 -3.857244559240603e-07
0.00022376486442681438 0.0007353963897383977 0.0 0.0 4.740656617797565e-05 -4.127013303250682e-07
0.00021949169106850523 0.0007204232696009354 0.0 0.0 -5.661649654441995e-05 -4.415008372760619e-07
0.00021523366047732114 0.0007054517999258218 0.0 0.0 4.735885523925415e-05 -4.722499697208714e-07
0.00021099178152358898 0.0006904820604080283 0.0 0.0 -5.666748028670433e-05 -5.050841054564685e-07
0.0002067671205934814 0.0006755141286630916 0.0 0.0 4.7304389964868306e-05 -5.401475019361666e-07
0.00020256080307946026 0.0006605480785757904 0.0 0.0 -5.672564692091623e-05 -5.775937700669464e-07
0.00019837401440374845 0.0006455839782092798 0.0 0.0 4.724229096515092e-05 -6.175864189494895e-07
0.00019420800039534784 0.0006306218872336047 0.0 0.0 -5.679192004543138e-05 -6.60299254809176e-07
0.00019006406684272094 0.0006156618537493869 0.0 0.0 4.717159177480769e-05 -7.059169172474655e-07
0.00018594357794144228 0.0006007039103558598 0.0 0.0 -5.686730654015258e-05 -7.546351840560144e-07
0.00018184795337562227 0.0005857480693734065 0.0 0.0 4.7091248753721804e-05 -8.066613613088225e-07
0.00017777866361951022 0.0005707943170118435 0.0 0.0 -5.69528813332183e-05 -8.622144373263141e-07
0.0001737372230279088 0.0005558426062941879 0.0 0.0 4.700016357160543e-05 -9.215251425352244e-07
0.00016972518013694742 0.0005408928485188604 0.0 0.0 -5.7049755441631114e-05 -9.848357417815415e-07
0.00016574410451132093 0.0005259449029623916 0.0 0.0 4.689722664240814e-05 -1.0523996008755853e-06
0.00016179556928629476 0.0005109985645364979 0.0 0.0 -5.715901831321486e-05 -1.1244802133261603e-06
0.00015788112843836567 0.0004960535490368808 0.0 0.0 4.6781392911471884e-05 -1.2013499311265465e-06
0.0001540022875555066 0.00048110947557211334 0.0 0.0 -5.7281639673402744e-05 -1.283287602003554e-06
0.00015016046668777408 0.00046616584571665463 0.0 0.0 4.6651807146588266e-05 -1.3705759078372565e-06
0.0001463569535519315 0.00045122201898042784 0.0 0.0 -5.741831047272245e-05 -1.4634964584538243e-06
0.00014259284509808394 0.0004362771839402991 0.0 0.0 4.650800428909426e-05 -1.562325180512708e-06
0.00013886897501921817 0.00042133032471693176 0.0 0.0 -5.756919237487226e-05 -1.6673221682783927e-06
0.0001351858245834063 0.0004063801819976105 0.0 0.0 4.635021967911378e-05 -1.778725564651135e-06
0.0001315434133628945 0.00039142520894742597 0.0 0.0 -5.7733533619810365e-05 -1.8967292960828715e-06
0.00012794116701959752 0.0003764635204938366 0.0 0.0 4.617985869205619e-05 -2.021480912771465e-06
0.0001243777570137216 0.0003614928388964885 0.0 0.0 -5.7909093572249644e-05 -2.153026842736548e-06
0.00012085091078126945 0.00034651043153797643 0.0 0.0 4.600018613073868e-05 -2.2913408340997357e-06
0.00011735718364630986 0.00033151305262955433 0.0 0.0 -5.8091301366686296e-05 -2.436170209344532e-06
0.0001138916983448806 0.0003164968740402547 0.0 0.0 4.581730282067335e-05 -2.5872036496809615e-06
0.00011044783235848908 0.00030145744700093836 0.0 0.0 -5.8272057554186515e-05 -2.7435870168637582e-06
0.00010701688722650196 0.00028638963675023827 0.0 0.0 4.564144795200418e-05 -2.9046488515699917e-06
0.00010358767915641685 0.00027128767639073747 0.0 0.0 -5.84380691312867e-05 -3.0682545666094966e-06
0.00010014618667096002 0.00025614511246024435 0.0 0.0 4.548853146355632e-05 -3.2336590693541603e-06
9.667503661213446e-05 0.00024095515776750284 0.0 0.0 -5.8568553225641024e-05 -3.3956690854731195e-06
9.315332397762621e-05 0.0002257105738246948 0.0 0.0 4.5381327159236054e-05 -3.5554455826298506e-06
8.955593800330089e-05 0.00021040492008621135 0.0 0.0 -5.863185029296512e-05 -3.6993482100076145e-06
8.585417036056274e-05 0.0001950318360385118 0.0 0.0 4.534822511043112e-05 -3.839186004018775e-06
8.201445826585769e-05 0.00017958897570115954 0.0 0.0 -5.8578987851088575e-05 -3.93475984797212e-06
7.800163692585902e-05 0.00016407408089301698 0.0 0.0 4.541256355264996e-05 -4.042757558145229e-06
7.377481617846603e-05 0.00014849728860544194 0.0 0.0 -5.83252501964184e-05 -4.031813150168879e-06
6.929893792703881e-05 0.00013286315792250558 0.0 0.0 4.555020597258371e-05 -4.131385464883311e-06
6.452755481901564e-05 0.00011721110991157497 0.0 0.0 -5.7680047145172155e-05 -3.881705285130495e-06
5.9441229172812647e-05 0.00010154261916207793 0.0 0.0 4.5543166130928344e-05 -4.152106345790352e-06
5.3976923987922415e-05 8.596702463405262e-05 0.0 0.0 -5.605812871919123e-05 -3.2776389519807237e-06
4.816406901119581e-05 7.042777854982706e-05 0.0 0.0 4.445060119158753e-05 -4.438800792556236e-06
4.185925727901662e-05 5.529370564637244e-05 0.0 0.0 -5.132138887936079e-05 -1.6396811732041078e-06
3.531488577619331e-05 4.0243159843875495e-05 0.0 0.0 3.7985673717702865e-05 -5.935372575786944e-06
2.8203461351235346e-05 2.6187548716328568e-05 0.0 0.0 -3.528914466705848e-05 1.8151351303352615e-06
2.1339614927444024e-05 1.5591169844849326e-05 0.0 0.0 1.714605690861736e-05 -4.294730114383946e-06
2.2336083331157615e-05 1.132010867316478e-05 0.0 0.0 0.020603244994949997 5.6309675775909074e-05
2.879912020664621e-20 0.002386259115089933 0.0 0.0 -0.0012301994763360064 -1.3552527156068805e-20
0.0001252555382958416 0.0023624251136414873 0.0 0.0 -9.236573301560834e-05 -0.00019723367509338544
0.0002267332563047877 0.002362062108865284 0.0 0.0 5.442325309521391e-05 -0.00010845091480486888
0.0003193634524690496 0.002424994050671809 0.0 0.0 -1.7935218251436248e-05 -4.857928415023161e-05
0.00039729701468476595 0.0025027180470181425 0.0 0.0 9.777894391365533e-05 -1.4344971292936654e-05
0.0004604144111297996 0.002572900986128058 0.0 0.0 -4.0470467489318575e-06 5.131673891462153e-06
0.0005109451644802812 0.002629782365341062 0.0 0.0 9.816618381156557e-05 1.6279784723069586e-05
0.0005513923112257804 0.0026735048911043268 0.0 0.0 -9.12885374382959e-06 2.262778926509037e-05
0.0005839064976499402 0.0027058624871646167 0.0 0.0 9.111964118536334e-05 2.612917724664257e-05
0.000610190341965703 0.0027288610846294007 0.0 0.0 -1.6647779445494203e-05 2.78995770504748e-05
0.0006315560146792222 0.002744289555702421 0.0 0.0 8.375159054883453e-05 2.8593620420140314e-05
0.0006490086763922587 0.0027536327574511753 0.0 0.0 -2.3614808042653894e-05 2.8606981422381477e-05
0.000663320473187793 0.0027580908291807518 0.0 0.0 7.727039950856899e-05 2.818511071740006e-05
0.0006750883498937924 0.0027586248949081657 0.0 0.0 -2.9598109032275775e-05 2.7484227898913862e-05
0.0006847773545757118 0.002756003214928386 0.0 0.0 7.176513469598877e-05 2.6606015978994704e-05
0.0006927526320263245 0.002750840652708149 0.0 0.0 -3.465778320348737e-05 2.5618088903194767e-05
0.0006993030657197376 0.0027436304973917644 0.0 0.0 6.711480363316637e-05 2.456624812768691e-05
0.0007046588453164867 0.0027347695685358653 0.0 0.0 -3.8934648149026966e-05 2.3482048136219623e-05
0.0007090046331114966 0.002724577884020597 0.0 0.0 6.317766151733254e-05 2.238753192043395e-05
0.0007124895224858207 0.002713314074820552 0.0 0.0 -4.256298975234322e-05 2.129826914527837e-05
0.0007152346399368014 0.0027011875092281586 0.0 0.0 5.983013869191364e-05 2.0225332036082657e-05
0.0007173389976668325 0.0026883678774668376 0.0 0.0 -4.5654852766832105e-05 1.917660795619936e-05
0.0007188840341217505 0.002674992809638446 0.0 0.0 5.6971369655163176e-05 1.815768432772553e-05
0.0007199371600644613 0.0026611739626718916 0.0 0.0 -4.830075879432038e-05 1.7172457484030697e-05
0.0007205545437750723 0.002647001907412915 0.0 0.0 5.452017304913637e-05 1.622355888980562e-05
0.0007207833089730387 0.0026325500690536087 0.0 0.0 -5.0573560408082615e-05 1.5312659899220437e-05
0.0007206632760589738 0.0026178779156982375 0.0 0.0 5.241107648890661e-05 1.4440694027508082e-05
0.0007202283459327772 0.0026030335461809744 0.0 0.0 -5.253220682366875e-05 1.3608022619366038e-05
0.0007195076026014626 0.0025880557952776048 0.0 0.0 5.059089430642735e-05 1.2814560850245467e-05
0.0007185261935983922 0.0025729759494233784 0.0 0.0 -5.422478637991622e-05 1.2059875467280323e-05
0.0007173060342746971 0.0025578191468516253 0.0 0.0 4.9016054052309374e-05 1.1343261929702337e-05
0.0007158663721322428 0.002542605521226003 0.0 0.0 -5.569086211485412e-05 1.0663806201560347e-05
0.0007142242397486284 0.0025273511362486835 0.0 0.0 4.765056085543316e-05 1.0020434837582936e-05
0.0007123948189164381 0.0025120687496052747 0.0 0.0 -5.6963245630410166e-05 9.411955928626372e-06
0.0007103917339771239 0.0024967684373632605 0.0 0.0 4.6464449976037355e-05 8.83709276729791e-06
0.0007082272886672092 0.0024814581041526593 0.0 0.0 -5.8069349499980297e-05 8.294511592309313e-06
0.00070591265789432 0.002466143899801977 0.0 0.0 4.543260220176261e-05 7.782844463681153e-06
0.0007034580435507967 0.0024508305593344765 0.0 0.0 -5.903222743910207e-05 7.300708059221648e-06
0.000700872801633594 0.002435521680172862 0.0 0.0 4.4533828191324035e-05 6.846719055022822e-06
0.0006981655464664387 0.0024202199479084526 0.0 0.0 -5.987138236180961e-05 6.419506601093101e-06
0.0006953442366446014 0.0024049273199492002 0.0 0.0 4.3750153635892805e-05 6.017722341711951e-06
0.0006924162463823983 0.0023896451746937605 0.0 0.0 -6.0603400276286836e-05 5.640048345970734e-06
0.0006893884251898546 0.002374374432510158 0.0 0.0 4.3066255829076426e-05 5.285203267147866e-06
0.0006862671482027389 0.0023591156536703793 0.0 0.0 -6.124245219380598e-05 4.951947003165719e-06
0.0006830583590138546 0.0023438691174691635 0.0 0.0 4.246901556890652e-05 4.639084093615393e-06
0.0006797676064647266 0.002328634885993649 0.0 0.0 -6.180069508653115e-05 4.345466053083929e-06
0.0006764000765590005 0.002313412855387459 0.0 0.0 4.194715763384231e-05 4.069992829095295e-06
0.000672960620412436 0.002298202796936202 0.0 0.0 -6.22885949046734e-05 3.81161352114843e-06
0.0006694537789628059 0.0022830043898812795 0.0 0.0 4.1490959921478606e-05 3.5693265055624745e-06
0.0006658838050135591 0.0022678172475224497 0.0 0.0 -6.271518905420751e-05 3.3421790682960895e-06
0.0006622546830645498 0.0022526409378803044 0.0 0.0 4.109201613249682e-05 3.1292666570409476e-06
0.0006585701472871779 0.0022374749999604544 0.0 0.0 -6.30883013884272e-05 2.929731812789172e-06
0.0006548336979283715 0.00222231895646741 0.0 0.0 4.0743040597585934e-05 2.7427628790295826e-06
0.0006510486163682915 0.0022071723236589827 0.0 0.0 -6.341471973310534e-05 2.567592515036795e-06
0.0006472179790158123 0.0021920346189038984 0.0 0.0 4.0437706486522976e-05 2.403496096262212e-06
0.0006433446701822157 0.0021769053664001444 0.0 0.0 -6.370034362245138e-05 2.249790009914703e-06
0.0006394313940513111 0.0021617841014232343 0.0 0.0 4.0170510701639794e-05 2.105829917588883e-06
0.0006354806858429808 0.0021466703734065473 0.0 0.0 -6.39503080559905e-05 1.9710089598982245e-06
0.0006314949222460061 0.0021315637480985084 0.0 0.0 3.993666027224434e-05 1.8447559953491176e-06
0.0006274763311860112 0.0021164638089885566 0.0 0.0 -6.416908794496586e-05 1.726533816678649e-06
0.0006234270009845591 0.002101370158164123 0.0 0.0 3.973197623968489e-05 1.6158374261711903e-06
0.0006193488889549125 0.002086282416726039 0.0 0.0 -6.436058671453401e-05 1.5121923266341194e-06
0.0006152438294752056 0.0020712002248634643 0.0 0.0 3.955281186807558e-05 1.415152883824523e-06
0.0006111135415744273 0.002056123241667278 0.0 0.0 -6.452821187298303e-05 1.3243007193230083e-06
0.0006069596360643743 0.002041051144752453 0.0 0.0 3.939598269235285e-05 1.2392431843149631e-06
0.0006027836222439905 0.0020259836297418557 0.0 0.0 -6.467493980772808e-05 1.1596118857288597e-06
0.0005985869142032448 0.0020109204096455694 0.0 0.0 3.925870649529339e-05 1.0850612727962517e-06
0.0005943708367499672 0.001995861214171507 0.0 0.0 -6.480337150359947e-05 1.0152673030380376e-06
0.0005901366309817965 0.001980805788996982 0.0 0.0 3.9138551540823406e-05 9.499261515469814e-07
0.0005858854595242796 0.0019657538950183474 0.0 0.0 -6.491578061967298e-05 8.887530077393829e-07
0.0005816184114531345 0.0019507053075900555 0.0 0.0 3.903339184717369e-05 8.314809130980467e-07
0.000577336506919835 0.0019356598157657962 0.0 0.0 -6.501415510915074e-05 7.778596842730246e-07
0.0005730407014977415 0.001920617221553165 0.0 0.0 3.894136844486394e-05 7.276548651329951e-07
0.0005687318902650246 0.0019055773391911768 0.0 0.0 -6.510023336210976e-05 6.806467673695061e-07
0.0005644109116376742 0.0018905399944472929 0.0 0.0 3.886085573330273e-05 6.366295419145147e-07
0.0005600785509696873 0.001875505023939984 0.0 0.0 -6.517553550468888e-05 5.954103222532699e-07
0.0005557355439335936 0.0018604722744925395 0.0 0.0 3.879043222660154e-05 5.568083978941705e-07
0.0005513825796930933 0.0018454416025142167 0.0 0.0 -6.524139074053548e-05 5.206544540320391e-07
0.0005470203038803331 0.001830412873413516 0.0 0.0 3.8728855088036754e-05 4.8678984347465e-07
0.0005426493213910146 0.0018153859610380947 0.0 0.0 -6.529896106565293e-05 4.5506591287428804e-07
0.0005382701990079288 0.001800360747147782 0.0 0.0 3.867503797141557e-05 4.2534335843740943e-07
0.0005338834678606556 0.001785337120915945 0.0 0.0 -6.534926201531914e-05 3.974916242474049e-07
0.0005294896257364275 0.0017703149784548244 0.0 0.0 3.862803165680226e-05 3.713883471125924e-07
0.0005250891392470173 0.001755294222374193 0.0 0.0 -6.539318068676445e-05 3.469188152472203e-07
0.0005206824458621876 0.0017402747613594121 0.0 0.0 3.858700722845696e-05 3.239754779946484e-07
0.000516269955818573 0.0017252565097751462 0.0 0.0 -6.543149150406023e-05 3.024574749530863e-07
0.0005118520539118175 0.001710239387298488 0.0 0.0 3.855124135223242e-05 2.8227019521781136e-07
0.0005074291011761307 0.0016952233185688209 0.0 0.0 -6.546486989679511e-05 2.6332487468755687e-07
0.0005030014364676492 0.0016802082328555136 0.0 0.0 3.8520103480961976e-05 2.455381869140424e-07
0.0004985693779438003 0.001665194063748883 0.0 0.0 -6.54939043123157e-05 2.2883191408645896e-07
0.000494133224458025 0.0016501807488736723 0.0 0.0 3.849304471792133e-05 2.1313256211985673e-07
0.0004896932568689867 0.001635168229615884 0.0 0.0 -6.551910653787747e-05 1.983710760197115e-07
0.0004852497392726926 0.0016201564508619866 0.0 0.0 3.8469588094148534e-05 1.844825141734431e-07
0.00048080292016092473 0.0016051453607541853 0.0 0.0 -6.554092080725033e-05 1.71405774010403e-07
0.00047635303351099964 0.0015901349104693269 0.0 0.0 3.84493201568397e-05 1.5908332490644633e-07
0.00047190029981241543 0.0015751250540034856 0.0 0.0 -6.555973161734264e-05 1.474609444016635e-07
0.00046744492703538175 0.0015601157479639522 0.0 0.0 3.843188367692841e-05 1.364875003353745e-07
0.0004629871115455734 0.0015451069513810498 0.0 0.0 -6.55758705117315e-05 1.261147010064292e-07
0.00045852703896440985 0.001530098625530288 0.0 0.0 3.841697133238583e-05 1.1629690489659353e-07
0.0004540648849866204 0.001515090733760048 0.0 0.0 -6.558962194708011e-05 1.069909092461384e-07
0.00044960081615024486 0.0015000832413293453 0.0 0.0 3.840432029521192e-05 9.815576586924947e-08
0.0004451349905726789 0.0014850761152570766 0.0 0.0 -6.560122826960665e-05 8.975258731320698e-08
0.0004406675586412401 0.0014700693241727625 0.0 0.0 3.8393707604974245e-05 8.17444019752026e-08
0.0004361986636767619 0.0014550628381824232 0.0 0.0 -6.561089403624837e-05 7.409595999415507e-08
0.00043172844256386846 0.001440056628735626 0.0 0.0 3.8384946213405294e-05 6.677360901778369e-08
0.0004272570263533113 0.0014250506684966484 0.0 0.0 -6.561878960426536e-05 5.974512139200359e-08
0.00042278454083643894 0.0014100449312270957 0.0 0.0 3.837788172093078e-05 5.2979560079974026e-08
0.00041831110710078016 0.0013950393916711842 0.0 0.0 -6.562505413136837e-05 4.6447159102842254e-08
0.0004138368420616281 0.001380034025444686 0.0 0.0 3.837238960612119e-05 4.0119161638814665e-08
0.0004093618589744621 0.0013650288089229938 0.0 0.0 -6.562979801241113e-05 3.396772096795264e-08
0.00040488626793925387 0.0013500237191359406 0.0 0.0 3.8368373087370564e-05 2.7965762327685374e-08
0.0004004101763791654 0.0013350187336731592 0.0 0.0 -6.563310487226609e-05 2.208687178154511e-08
0.00039593368951274427 0.0013200138305819607 0.0 0.0 3.8365761361688704e-05 1.6305167368298353e-08
0.00039145691082127413 0.0013050089882675373 0.0 0.0 -6.563503297730554e-05 1.0595210602479862e-08
0.0003869799425010662 0.0012900041854029833 0.0 0.0 3.8364508392086066e-05 4.931859931621256e-09
0.0003825028859123767 0.0012749994008282785 0.0 0.0 -6.563561631816998e-05 -7.097985250232274e-10
0.0003780258420275789 0.001259994613456884 0.0 0.0 3.8364592086200314e-05 -6.354614212437937e-09
0.0003735489118719912 0.0012449898021890192 0.0 0.0 -6.563486519590447e-05 -1.2027420007317512e-08
0.00036907219697203647 0.0012299849458093845 0.0 0.0 3.8366013924066075e-05 -1.7753193759582724e-08
0.0003645957997971326 0.0012149800228934422 0.0 0.0 -6.563276639359999e-05 -2.3557143421929286e-08
0.00036011982421299587 0.0011999750117168923 0.0 0.0 3.8368798923604243e-05 -2.946482041514542e-08
0.00035564437593587847 0.0011849698901513505 0.0 0.0 -6.562928292511193e-05 -3.5502218164958944e-08
0.00035116956299752645 0.0011699646355627607 0.0 0.0 3.837299616410829e-05 -4.1695943728747506e-08
0.00034669549622026047 0.0011549592247133485 0.0 0.0 -6.562435346330747e-05 -4.80732393308295e-08
0.00034222228969710934 0.0011399536336543106 0.0 0.0 3.837867957171806e-05 -5.466220135981036e-08
0.0003377500612975636 0.0011249478376147133 0.0 0.0 -6.561789114350992e-05 -6.149183351964252e-08
0.0003332789331794158 0.0011099418108810983 0.0 0.0 3.838594925093311e-05 -6.859221732572959e-08
0.0003288090323220959 0.0010949355266797324 0.0 0.0 -6.560978212832023e-05 -7.599461337331245e-08
0.0003243404910809033 0.0010799289570513114 0.0 0.0 3.839493327689324e-05 -8.373162139389909e-08
0.0003198734477627928 0.0010649220727104594 0.0 0.0 -6.559988360006633e-05 -9.183731789874205e-08
0.00031540804722487504 0.0010499148429071155 0.0 0.0 3.840578988041632e-05 -1.0034739862088606e-07
0.00031094444149831497 0.0010349072352746685 0.0 0.0 -6.558802118257999e-05 -1.0929934383182172e-07
0.0003064827904466248 0.001019899215663914 0.0 0.0 3.8418710308211037e-05 -1.1873257501970403e-07
0.0003020232624511985 0.0010048907479641809 0.0 0.0 -6.557398592888441e-05 -1.2868865060633016e-07
0.0002975660351302689 0.0009898817939169976 0.0 0.0 3.8433922135266843e-05 -1.392113926030952e-07
0.0002931112960885934 0.0009748723129126952 0.0 0.0 -6.55575306382633e-05 -1.5034716618488216e-07
0.0002886592437141103 0.0009598622617629931 0.0 0.0 3.84516932773677e-05 -1.6214498702141504e-07
0.00028421008800189133 0.000944851594461793 0.0 0.0 -6.553836545223853e-05 -1.7465679727610064e-07
0.00027976405142701255 0.0009298402619190252 0.0 0.0 3.847233678233369e-05 -1.8793766947127356e-07
0.0002753213698568448 0.0009148282116632589 0.0 0.0 -6.551615279825815e-05 -2.0204605116595515e-07
0.00027088229350118236 0.000899815387516019 0.0 0.0 3.849621632839384e-05 -2.1704398813935863e-07
0.0002664470879130483 0.0008848017292344952 0.0 0.0 -6.549050133214948e-05 -2.329974368983417e-07
0.0002620160350269438 0.0008697871721092562 0.0 0.0 3.8523752628215335e-05 -2.499764801179192e-07
0.0002575894342349834 0.0008547716465208093 0.0 0.0 -6.546095903043041e-05 -2.680556883470457e-07
0.0002531676035089547 0.0008397550774447353 0.0 0.0 3.855543100178202e-05 -2.873143430073182e-07
0.00024875088055181544 0.0008247373838845905 0.0 0.0 -6.542700510363134e-05 -3.0783685521366174e-07
0.0002443396239796964 0.0008097184782473022 0.0 0.0 3.85918101054128e-05 -3.2971299934909937e-07
0.00023993421452150044 0.0007946982656225453 0.0 0.0 -6.538804054576422e-05 -3.53038351136206e-07
0.0002355350562318205 0.0007796766429695202 0.0 0.0 3.863353197406695e-05 -3.779145588784713e-07
0.00023114257769278834 0.0007646534982097485 0.0 0.0 -6.53433772810439e-05 -4.044498011570056e-07
0.0002267572331954479 0.000749628709173389 0.0 0.0 3.8681333915768995e-05 -4.327590844006683e-07
0.00022237950386877912 0.000734602142403228 0.0 0.0 -6.52922253277686e-05 -4.6296467198704994e-07
0.00021800989872449992 0.0007195736517927359 0.0 0.0 3.873606228609115e-05 -4.951964337520645e-07
0.00021364895557840588 0.0007045430770296451 0.0 0.0 -6.523367792081371e-05 -5.295922356561133e-07
0.00020929724180374855 0.0006895102417943186 0.0 0.0 3.879868878421547e-05 -5.662982429775363e-07
0.00020495535484122034 0.0006744749517044457 0.0 0.0 -6.516669361382433e-05 -6.054692839533703e-07
0.0002006239223944886 0.0006594369919565114 0.0 0.0 3.8870329741716664e-05 -6.472690906537265e-07
0.00019630360220749895 0.0006443961246097946 0.0 0.0 -6.509007534481097e-05 -6.918704937537235e-07
0.00019199508130741946 0.0006293520854794082 0.0 0.0 3.8952269453941665e-05 -7.394555213991729e-07
0.0001876990745655703 0.000614304580558611 0.0 0.0 -6.500244462415215e-05 -7.902154102281452e-07
0.00018341632238270912 0.000599253281930535 0.0 0.0 3.904598839179758e-05 -8.443503739850953e-07
0.0001791475872877024 0.0005841978230658135 0.0 0.0 -6.49022101751977e-05 -9.020692117163269e-07
0.00017489364917447746 0.0005691377934628306 0.0 0.0 3.915319841617617e-05 -9.635886145266783e-07
0.00017065529884684305 0.0005540727325601658 0.0 0.0 -6.478752860020393e-05 -1.0291320753136237e-06
0.0001664333294781776 0.0005390021228009808 0.0 0.0 3.927588690852955e-05 -1.0989284078521651e-06
0.0001622285255018899 0.0005239253818052818 0.0 0.0 -6.465625437077137e-05 -1.173209568572928e-06
0.0001580416483819806 0.0005088418535859141 0.0 0.0 3.941637362499988e-05 -1.2522078410142365e-06
0.00015387341855598518 0.0004937507987618949 0.0 0.0 -6.45058750749748e-05 -1.3361519310345956e-06
0.00014972449279720943 0.00047865138375324443 0.0 0.0 3.9577384731519704e-05 -1.425262155557239e-06
0.00014559543599900347 0.0004635426690254875 0.0 0.0 -6.433342621853418e-05 -1.5197436985740342e-06
0.00014148668639784012 0.0004484235964782962 0.0 0.0 3.97621508667382e-05 -1.619778839604259e-06
0.00013739851285169926 0.00043329297636430565 0.0 0.0 -6.413537814821337e-05 -1.725515615110776e-06
0.00013333096303857136 0.0004181494739189224 0.0 0.0 3.997453728371396e-05 -1.8370561807845012e-06
0.0001292838006233343 0.00040299159700900734 0.0 0.0 -6.390748494530503e-05 -1.954437148180151e-06
0.00012525643064020253 0.0003878176847826211 0.0 0.0 4.021921630064469e-05 -2.0776150237895603e-06
0.00012124780983428996 0.00037262590110887715 0.0 0.0 -6.364458467460893e-05 -2.206429214187777e-06
0.00011725634370033661 0.0003574142311784919 0.0 0.0 4.050189002911906e-05 -2.3405930770145633e-06
0.00011327976294292303 0.0003421804923132724 0.0 0.0 -6.334033919011615e-05 -2.479613777238562e-06
0.00010931499072687957 0.0003269223490748353 0.0 0.0 4.082956115543314e-05 -2.622828407584151e-06
0.00010535797875408306 0.00031163736732559325 0.0 0.0 -6.298690685021006e-05 -2.769194378765376e-06
0.00010140355818269999 0.00029632306201108304 0.0 0.0 4.1210813781619206e-05 -2.9175272320850973e-06
9.744522707045158e-05 0.00028097705391338663 0.0 0.0 -6.25745416867067e-05 -3.0658547708151216e-06
9.347504349663573e-05 0.0002655971509155178 0.0 0.0 4.1655959160904164e-05 -3.212445900161137e-06
8.948333059964526e-05 0.00025018175416294323 0.0 0.0 -6.20910716066386e-05 -3.3536095315155317e-06
8.545880396452774e-05 0.00023472987550051614 0.0 0.0 4.2176587704316525e-05 -3.4876944458845207e-06
8.138801393671661e-05 0.0002192421965740606 0.0 0.0 -6.152092404794539e-05 -3.607210219208775e-06
7.725631112050754e-05 0.0002037204802709729 0.0 0.0 4.2783115437638195e-05 -3.713819971055271e-06
7.304618874515644e-05 0.00018817053206697656 0.0 0.0 -6.08420153909643e-05 -3.789550601858622e-06
6.874104630236613e-05 0.0001725987149212025 0.0 0.0 4.347585359423681e-05 -3.852259966603843e-06
6.431896743733462e-05 0.0001570210890977379 0.0 0.0 -6.001319035436425e-05 -3.849647075499516e-06
5.976600792610691e-05 0.0001414482999758568 0.0 0.0 4.4214721985862473e-05 -3.863560873413902e-06
5.505209269716804e-05 0.00012591652225793062 0.0 0.0 -5.892320623252737e-05 -3.7190618421238794e-06
5.017814330489462e-05 0.00011042902537706758 0.0 0.0 4.48150513680703e-05 -3.7359108036630036e-06
4.508534502566476e-05 9.50671895441078e-05 0.0 0.0 -5.719460039282356e-05 -3.2888971335718036e-06
3.982641140146018e-05 7.977623287610133e-05 0.0 0.0 4.4572058473147866e-05 -3.564919327571272e-06
3.423602555651401e-05 6.476144459454224e-05 0.0 0.0 -5.348490414493266e-05 -2.3083880703273028e-06
2.854725794368978e-05 4.973918451795625e-05 0.0 0.0 4.0902799350041666e-05 -3.7682024491739836e-06
2.2254377463021008e-05 3.5135031650421604e-05 0.0 0.0 -4.3161426980664695e-05 -3.0496685781680657e-07
1.597787901245581e-05 2.064216725323936e-05 0.0 0.0 2.657503418557693e-05 -4.539636155032533e-06
9.43463109513015e-06 8.074244157929076e-06 0.0 0.0 -1.9819946529289105e-05 4.462093580634777e-06
1.0397026483893141e-05 3.0735884639358798e-06 0.0 0.0 -0.020581447638991435 2.945135397191596e-05
5.759824041329242e-20 0.0014560243135034565 0.0 0.0 -0.0008581115601074209 7.792703114739563e-20
0.00024274091331494954 0.0016973881491972498 0.0 0.0 -0.00016319839664468845 -0.00013354682645047537
0.00040721587826227383 0.002088355956227297 0.0 0.0 -0.00025523422945028924 -6.178826424054322e-05
0.0005143210224985691 0.0023352168780309142 0.0 0.0 -0.000153169073114843 -1.4874623548925534e-05
0.0005875867588911678 0.002498302928049511 0.0 0.0 -0.00025686230028789135 8.124706180503348e-06
0.0006397447257838661 0.0026096535795691643 0.0 0.0 -0.00014868261997743834 1.9154128617561486e-05
0.0006778271288757923 0.0026868517365845005 0.0 0.0 -0.0002458978101689374 2.4376038868255794e-05
0.0007060939621989972 0.002740408138009071 0.0 0.0 -0.00013361001708321965 2.6668759938816393e-05
0.000727282720091152 0.002777034098549078 0.0 0.0 -0.00022856724318587215 2.741757230917371e-05
0.0007432324307900282 0.0028012154405532997 0.0 0.0 -0.00011521960798793372 2.732236539857244e-05
0.0007552211775323953 0.002816062793884421 0.0 0.0 -0.0002098403962257235 2.6755678197830425e-05
0.000764162972716946 0.0028237991226596503 0.0 0.0 -9.659331213869181e-05 2.5924583950923882e-05
0.000770727166613932 0.002826053335522244 0.0 0.0 -0.00019157786707553346 2.4948521751509394e-05
0.000775413876399299 0.002824043891539104 0.0 0.0 -7.885341864120386e-05 2.3898379426685177e-05
0.000778603056003533 0.0028186977595448344 0.0 0.0 -0.0001744546324546257 2.2817228926795444e-05
0.0007805874311916927 0.0028107299075120686 0.0 0.0 -6.240017619669287e-05 2.1731700138009376e-05
0.000781595159116364 0.0028006979417385352 0.0 0.0 -0.00015869842350584143 2.0658475597961815e-05
0.0007818058108481279 0.002789040604882906 0.0 0.0 -4.7350877964865454e-05 1.960808100348781e-05
0.0007813618754021946 0.002776105513553508 0.0 0.0 -0.0001443544675949676 1.8587160459429655e-05
0.0007803772024702098 0.002762169538670995 0.0 0.0 -3.370300325470163e-05 1.7599862107848175e-05
0.0007789432989626661 0.002747454045370999 0.0 0.0 -0.0001313881773359628 1.664869915510338e-05
0.000777134094751051 0.002732136465931043 0.0 0.0 -2.140023352116766e-05 1.5735091035546364e-05
0.0007750095943470011 0.0027163592085943213 0.0 0.0 -0.00011972843835681969 1.485970937199348e-05
0.0007726187054908597 0.0027002365971367875 0.0 0.0 -1.0361415732304882e-05 1.4022702079933465e-05
0.0007700014499407967 0.002683860332166997 0.0 0.0 -0.00010928739073345972 1.3223841451381912e-05
0.0007671907047270452 0.0026673038267512935 0.0 0.0 -4.943730039516994e-07 1.2462624070875316e-05
0.0007642135822371568 0.002650625673887606 0.0 0.0 -9.997029514533118e-05 1.173834019653792e-05
0.0007610925297798009 0.002633872436704858 0.0 0.0 8.296877545849873e-06 1.1050123506135058e-05
0.0007578462093537267 0.0026170809049611767 0.0 0.0 -9.168093758144203e-05 1.0396988125783914e-05
0.000754490203983553 0.0026002799272520777 0.0 0.0 1.610798969404239e-05 9.77785723524031e-06
0.0007510375863791481 0.0025834919033577565 0.0 0.0 -8.432485121645194e-05 9.191585959627364e-06
0.0007474993777789173 0.002566734002607865 0.0 0.0 2.3031743128932593e-05 8.636980226066796e-06
0.0007438849188561907 0.0025500191601904097 0.0 0.0 -7.781134326602328e-05 8.112812636879127e-06
0.0007402021699968197 0.0025333568927019654 0.0 0.0 2.9156425928978573e-05 7.617836016430432e-06
0.0007364579547139386 0.002516753966039476 0.0 0.0 -7.205477966975772e-05 7.150795051334078e-06
0.000732658157202448 0.0025002149423436993 0.0 0.0 3.456482703731255e-05 6.710436299952284e-06
0.0007288078828584882 0.002483742627666337 0.0 0.0 -6.697535764011728e-05 6.29551676143122e-06
0.0007249115888602093 0.002467338438028375 0.0 0.0 3.933366533927414e-05 5.904811157631261e-06
0.00072097319053331 0.0024510026983319776 0.0 0.0 -6.249950245698817e-05 5.537118039801903e-06
0.0007169961481188084 0.0024347348859948864 0.0 0.0 4.3533343498807365e-05 5.19126483857239e-06
0.0007129835376747635 0.0024185338290732693 0.0 0.0 -5.8559983596121726e-05 4.866111946299524e-06
0.0007089381091300151 0.0024023978669215143 0.0 0.0 4.722794351236459e-05 4.56055593983743e-06
0.0007048623339302502 0.0023863249800339784 0.0 0.0 -5.509582402153532e-05 4.273532022053343e-06
0.0007007584442506303 0.0023703128945556404 0.0 0.0 5.0475397609463604e-05 4.004015786786508e-06
0.0006966284653712255 0.002354359165992382 0.0 0.0 -5.2052062589189334e-05 3.751024378742269e-06
0.0006924742425056349 0.0023384612458703055 0.0 0.0 5.332778041876904e-05 3.5136171364810563e-06
0.0006882974631286792 0.002322616534439287 0.0 0.0 -4.937941817679617e-05 3.2908957849528105e-06
0.0006840996756431567 0.0023068224219762244 0.0 0.0 5.583167889482751e-05 3.0820042542472725e-06
0.0006798823050713327 0.002291076320797835 0.0 0.0 -4.70338941962653e-05 2.886128180759856e-06
0.0006756466663148152 0.002275375689725049 0.0 0.0 5.8028605926066924e-05 2.70249415022542e-06
0.0006713939754354675 0.002259718052433071 0.0 0.0 -4.4976353284978485e-05 2.5303687255954577e-06
0.0006671253593093732 0.002244101010864109 0.0 0.0 5.995543185292331e-05 2.369057318778986e-06
0.0006628418639477462 0.0022285222546732284 0.0 0.0 -4.3172084257350675e-05 2.217902924579095e-06
0.0006585444617143224 0.002212979567504949 0.0 0.0 6.164481513483682e-05 2.076284767510867e-06
0.0006542340576364416 0.002197470830750636 0.0 0.0 -4.159037705800178e-05 1.9436168824847285e-06
0.0006499114949512292 0.0021819940253175176 0.0 0.0 6.312561914269558e-05 1.8193466522319751e-06
0.0006455775600249024 0.0021665472318469726 0.0 0.0 -4.020411630081838e-05 1.70295332112139e-06
0.0006412329867321288 0.002151128629731653 0.0 0.0 6.442330663153356e-05 1.593946522753496e-06
0.0006368784603860854 0.0021357364952212968 0.0 0.0 -3.898940004260187e-05 1.4918647878712533e-06
0.000632514621283786 0.002120369198846287 0.0 0.0 6.55603068321525e-05 1.3962741059105478e-06
0.0006281420679185531 0.002105025202346027 0.0 0.0 -3.7925187442408505e-05 1.3067664945387017e-06
0.0006237613599057095 0.002089703055254584 0.0 0.0 6.655635272401428e-05 1.2229586231715889e-06
0.0006193730206607854 0.0020744013912566504 0.0 0.0 -3.699297672482023e-05 1.1444904618062202e-06
0.0006149775398578857 0.0020591189244121406 0.0 0.0 6.742878774183489e-05 1.071024002189671e-06
0.000610575375692551 0.0020438544453244252 0.0 0.0 -3.617651359896952e-05 1.0022420059262052e-06
0.0006061669569736459 0.0020286068173093856 0.0 0.0 6.819284259179127e-05 9.378468133783248e-07
0.0006017526850596837 0.0020133749726066906 0.0 0.0 -3.546152893722462e-05 8.775592152381745e-07
0.00059733293565611 0.0019981579086680227 0.0 0.0 6.886188344000868e-05 8.211173556355966e-07
0.0005929080604876659 0.001982954684552281 0.0 0.0 -3.4835504221740195e-05 7.68275711907193e-07
0.0005884783888512742 0.0019677644174411393 0.0 0.0 6.944763333893039e-05 7.188041088628308e-07
0.0005840442290663029 0.001952586279283432 0.0 0.0 -3.428746266393156e-05 6.724867872407348e-07
0.0005796058698287861 0.0019374194935830383 0.0 0.0 6.996036907456658e-05 6.291215292071454e-07
0.000575163581474243 0.0019222633323332104 0.0 0.0 -3.380778394804023e-05 5.885188300436945e-07
0.0005707176171590301 0.0019071171130940895 0.0 0.0 7.04090954552031e-05 5.505011015600266e-07
0.0005662682139651318 0.0018919801962238398 0.0 0.0 -3.3388040302183926e-05 5.149019418882708e-07
0.0005618155939329881 0.001876851982249383 0.0 0.0 7.080169934324846e-05 4.815654298246904e-07
0.0005573599650310852 0.0018617319093755702 0.0 0.0 -3.3020851865609335e-05 4.503454720093279e-07
0.0005529015220579251 0.001846619451138312 0.0 0.0 7.114508541345907e-05 4.211051772100012e-07
0.0005484404474958481 0.001831514114184793 0.0 0.0 -3.269975930561282e-05 3.9371627808627635e-07
0.0005439769123028444 0.0018164154361814551 0.0 0.0 7.144529563856534e-05 3.6805858034651357e-07
0.0005395110766574435 0.0018013229838426707 0.0 0.0 -3.241911179312814e-05 3.440194461706348e-07
0.0005350430906582081 0.0017862363510747709 0.0 0.0 7.170761425584309e-05 3.214933120712182e-07
0.0005305730949774807 0.0017711551572338895 0.0 0.0 -3.217396867016874e-05 3.0038122820927283e-07
0.0005261012214782604 0.0017560790454803805 0.0 0.0 7.193665987297103e-05 2.8059043748364506e-07
0.000521627593784413 0.0017410076812359376 0.0 0.0 -3.196001323614182e-05 2.62033966437307e-07
0.0005171523278263582 0.0017259407507335856 0.0 0.0 7.213646615509097e-05 2.446302527138347e-07
0.0005126755323436664 0.0017108779596532073 0.0 0.0 -3.1773477228278293e-05 2.28302789698708e-07
0.000508197309363906 0.0016958190318399219 0.0 0.0 7.231055243928444e-05 2.1297978654652308e-07
0.0005037177546459324 0.0016807637080969095 0.0 0.0 -3.161107482683512e-05 1.9859386469453554e-07
0.0004992369581021732 0.001665711745058828 0.0 0.0 7.246198543636858e-05 1.850817575216909e-07
0.0004947550041882631 0.0016506629141261712 0.0 0.0 -3.1469944985902795e-05 1.7238403722882748e-07
0.0004902719722783451 0.001635617000462026 0.0 0.0 7.259343306817586e-05 1.6044484795130686e-07
0.00048578793700738054 0.001620573802051464 0.0 0.0 -3.1347601203438524e-05 1.4921167605197287e-07
0.00048130296860290087 0.001605533128818874 0.0 0.0 7.270721132656777e-05 1.3863509897807814e-07
0.0004768171331921837 0.0015904948017907978 0.0 0.0 -3.1241887811653615e-05 1.2866858871050067e-07
0.00047233049308802573 0.0015754586523114174 0.0 0.0 7.28053250170132e-05 1.1926829509228227e-07
0.00046784310706890627 0.0015604245213049442 0.0 0.0 -3.115094207359456e-05 1.103928576075535e-07
0.00046335503063113867 0.001545392258571125 0.0 0.0 7.288950299680049e-05 1.0200322319328485e-07
0.000458866316239489 0.001530361722128017 0.0 0.0 -3.107316143551595e-05 9.406247886893735e-08
0.000454377013548907 0.001515332777591486 0.0 0.0 7.29612285986428e-05 8.65356792738867e-08
0.0004498871696288771 0.0015003052975790278 0.0 0.0 -3.1007175235401815e-05 7.938970698244743e-08
0.00044539682916965874 0.0014852791611516558 0.0 0.0 7.30217657787973e-05 7.25931114795215e-08
0.0004409060346740503 0.0014702542532848636 0.0 0.0 -3.095182066330845e-05 6.611598664662014e-08
0.0004364148266527771 0.0014552304643567979 0.0 0.0 7.307218134192106e-05 5.99298297839228e-08
0.0004319232437926401 0.0014402076896702593 0.0 0.0 -3.090612223200851e-05 5.400741434380711e-08
0.00042743132313498056 0.001425185828989633 0.0 0.0 7.311336373329595e-05 4.8322675235323766e-08
0.0004229391002353269 0.0014101647861005271 0.0 0.0 -3.086927464838248e-05 4.285060376207862e-08
0.000418446609315223 0.0013951444683880667 0.0 0.0 7.314603869221735e-05 3.756710506737371e-08
0.00041395388341994315 0.0013801247864249913 0.0 0.0 -3.084062854289554e-05 3.24489335877488e-08
0.00040946095456067166 0.0013651056535831207 0.0 0.0 7.317078202108689e-05 2.7473563655403682e-08
0.0004049678538547887 0.0013500869856477723 0.0 0.0 -3.081967910752398e-05 2.2619094783976872e-08
0.00040047461166293927 0.0013350687004458454 0.0 0.0 7.318802976216308e-05 1.7864162359343232e-08
0.00039598125772396473 0.0013200507174887632 0.0 0.0 -3.080605719280364e-05 1.3187844028731029e-08
0.0003914878212833755 0.0013050329576133402 0.0 0.0 7.319808582641175e-05 8.569549886817008e-09
0.00038699433122064427 0.0012900153426366064 0.0 0.0 -3.079952273627286e-05 3.988957047052627e-09
0.0003825008161835624 0.0012749977950056713 0.0 0.0 7.320112739347246e-05 -5.74096841354961e-10
0.0003780073047032963 0.0012599802374579623 0.0 0.0 -3.07999606697179e-05 -5.139692588304774e-09
0.00037351382532697025 0.0012449625926825843 0.0 0.0 7.31972080021422e-05 -9.727935019803943e-09
0.00036902040674174555 0.0012299447829705185 0.0 0.0 -3.080737877843428e-05 -1.4359010245580672e-08
0.0003645270778979997 0.0012149267298791305 0.0 0.0 7.318625850266192e-05 -1.9053313225769752e-08
0.0003600338681365776 0.0011999083538845282 0.0 0.0 -3.0821907870865937e-05 -2.3831498951543476e-08
0.0003555408073211457 0.0011848895740211149 0.0 0.0 7.316808580364281e-05 -2.8714615475417156e-08
0.00035104792596602895 0.0011698703075276183 0.0 0.0 -3.084380418204541e-05 -3.37241424339281e-08
0.0003465552553606263 0.001154850469481638 0.0 0.0 7.314236952328447e-05 -3.8882145251000096e-08
0.0003420628277172454 0.0011398299724196283 0.0 0.0 -3.087345370547938e-05 -4.421132605901632e-08
0.00033757067630929094 0.001124808725942175 0.0 0.0 7.31086562285034e-05 -4.9735148314631814e-08
0.00033307883560856964 0.0011097866363097744 0.0 0.0 -3.0911379210611916e-05 -5.547792913149045e-08
0.0003285873414385871 0.0010947636060339122 0.0 0.0 7.306635154221775e-05 -6.146495461038792e-08
0.00032409623112679366 0.0010797395334256289 0.0 0.0 -3.095824934436632e-05 -6.772257490894867e-08
0.00031960554366149645 0.0010647143121348985 0.0 0.0 7.301470963670589e-05 -7.427834627774833e-08
0.0003151153198602001 0.0010496878306843847 0.0 0.0 -3.1014890412483544e-05 -8.116112883680988e-08
0.0003106256025405812 0.0010346599719543961 0.0 0.0 7.295282006325031e-05 -8.840120958235158e-08
0.00030613643669883116 0.001019630612649082 0.0 0.0 -3.108230097224429e-05 -9.603046883176983e-08
0.00030164786969547877 0.0010045996227345992 0.0 0.0 7.287959175425029e-05 -1.0408247342664524e-07
0.0002971599514529855 0.0009895668648344862 0.0 0.0 -3.1161669399527706e-05 -1.1259266389400998e-07
0.00029267273464826334 0.0009745321935972771 0.0 0.0 7.279373387489275e-05 -1.2159846586199882e-07
0.0002881862749314467 0.0009594954550267161 0.0 0.0 -3.125439461997221e-05 -1.311394969891579e-07
0.0002837006311376975 0.0009444564857638083 0.0 0.0 7.269373322043248e-05 -1.412576981441255e-07
0.0002792158655202881 0.0009294151123078269 0.0 0.0 -3.136211072839049e-05 -1.5199753954726804e-07
0.00027473204397500004 0.0009143711502011917 0.0 0.0 7.257782774083561e-05 -1.6340618677168194e-07
0.00027024923628769294 0.0008993244031548645 0.0 0.0 -3.148671541545003e-05 -1.7553372605460821e-07
0.00026576751637384286 0.0008842746620967802 0.0 0.0 7.244397595404474e-05 -1.8843332867787745e-07
0.0002612869625336981 0.0008692217041696188 0.0 0.0 -3.1630402720132355e-05 -2.0216151878753048e-07
0.0002568076576981566 0.000854165291643081 0.0 0.0 7.228982176931222e-05 -2.1677836673091814e-07
0.0002523296896926009 0.0008391051707432214 0.0 0.0 -3.179570083902618e-05 -2.3234773610821251e-07
0.0002478531514767983 0.0008240410704049771 0.0 0.0 7.211265423960698e-05 -2.4893753535252215e-07
0.00024337814139709587 0.0008089727009173766 0.0 0.0 -3.198551487223491e-05 -2.6661996968394865e-07
0.00023890476339993015 0.0007938997524685516 0.0 0.0 7.190936196594007e-05 -2.854718004201718e-07
0.00023443312725953888 0.0007788218935806029 0.0 0.0 -3.22031752805433e-05 -3.0557461627581713e-07
0.00022996334874610336 0.0007637387694298489 0.0 0.0 7.167638189993302e-05 -3.270151042397435e-07
0.0002254955497715425 0.0007486500000391263 0.0 0.0 -3.2452491970909846e-05 -3.4988532472593047e-07
0.0002210298584854089 0.0007335551783207786 0.0 0.0 7.140964233250265e-05 -3.7428296648664774e-07
0.00021656640928911306 0.0007184538679900853 0.0 0.0 -3.27378140547866e-05 -4.003116037480225e-07
0.00021210534276457953 0.000703345601337083 0.0 0.0 7.110450057188993e-05 -4.2808092805301286e-07
0.00020764680550319124 0.0006882298768417812 0.0 0.0 -3.306409453852411e-05 -4.577069943926485e-07
0.00020319094978360507 0.0006731061566285268 0.0 0.0 7.07556760817568e-05 -4.893123046978377e-07
0.00019873793306202713 0.0006579738637851819 0.0 0.0 -3.343695885356791e-05 -5.230259979403405e-07
0.00019428791724863877 0.0006428323795498784 0.0 0.0 7.03571811957193e-05 -5.589838241404311e-07
0.00018984106771335402 0.0006276810403683488 0.0 0.0 -3.386277407495643e-05 -5.973281032869114e-07
0.00018539755193307538 0.0006125191348758271 0.0 0.0 6.990225297107003e-05 -6.382074985999703e-07
0.0001809575377435361 0.0005973459008378554 0.0 0.0 -3.4348714324292226e-05 -6.817766360668609e-07
0.00017652119108291995 0.0005821605221191324 0.0 0.0 6.938329246884223e-05 -7.281955020840012e-07
0.00017208867310488588 0.0005669621257800509 0.0 0.0 -3.490281439726887e-05 -7.776285441884676e-07
0.00016766013657478756 0.0005517497794209873 0.0 0.0 6.879182167781077e-05 -8.302434143703154e-07
0.00016323572134140942 0.0005365224889824964 0.0 0.0 -3.5533998096192636e-05 -8.862092625663322e-07
0.00015881554878475224 0.0005212791972106783 0.0 0.0 6.811847462533018e-05 -9.456944848178781e-07
0.00015439971495938965 0.0005060187831307733 0.0 0.0 -3.625206151906292e-05 -1.0088637229186412e-06
0.00014998828228042767 0.0004907400629439038 0.0 0.0 6.735304785843079e-05 -1.0758740521160702e-06
0.00014558126939436994 0.0004754417929089236 0.0 0.0 -3.70675791290583e-05 -1.146870026785471e-06
0.0001411786391241734 0.0004601226749151419 0.0 0.0 6.648464910776852e-05 -1.221977567506579e-06
0.00013678028386231077 0.00044478136574249477 0.0 0.0 -3.7991685889853834e-05 -1.3012959797390833e-06
0.00013238600867345225 0.00042941649101434204 0.0 0.0 6.550200136089149e-05 -1.3848885930771567e-06
0.00012799551073073244 0.00041402666580358117 0.0 0.0 -3.903566599117408e-05 -1.4727701159441891e-06
0.00012360835682119283 0.00039861052299108667 0.0 0.0 6.439398437435248e-05 -1.5648931930587005e-06
0.00011922395493671662 0.0003831667533676223 0.0 0.0 -4.0210250469191336e-05 -1.6611281423256586e-06
0.00011484152716063992 0.00036769415756888015 0.0 0.0 6.315052625263445e-05 -1.7612460286785215e-06
0.00011046007020335287 0.0003521917191826257 0.0 0.0 -4.152449164454108e-05 -1.8648843419071795e-06
0.00010607833085909255 0.0003366586928360324 0.0 0.0 6.176398733240968e-05 -1.9715336685012345e-06
0.00010169474640073991 0.0003210947332731129 0.0 0.0 -4.298404832713725e-05 -2.0804708517057225e-06
9.730745019026668e-05 0.00030550003221773976 0.0 0.0 6.0231190072878226e-05 -2.1907812840838738e-06
9.29141569998786e-05 0.0002898755461353144 0.0 0.0 -4.458869123755583e-05 -2.301197402836716e-06
8.851229471209332e-05 0.0002742231767693566 0.0 0.0 5.8556193081301354e-05 -2.410280012064424e-06
8.409869346398682e-05 0.00025854619227253954 0.0 0.0 -4.6328827518364374e-05 -2.515936367948157e-06
7.967017478620187e-05 0.00024284935798101766 0.0 0.0 5.6753664649129886e-05 -2.6162156678164947e-06
7.52224882895907e-05 0.00022713981322764463 0.0 0.0 -4.818076778998815e-05 -2.7076692940656037e-06
7.075252400097247e-05 0.00021142671137918466 0.0 0.0 5.485197370461831e-05 -2.788422235476605e-06
6.625436587842152e-05 0.00019572341754629964 0.0 0.0 -5.0099843328468754e-05 -2.852258884679013e-06
6.172731373641285e-05 0.00018004493762192796 0.0 0.0 5.289298049216654e-05 -2.900042587317044e-06
5.71610613602852e-05 0.00016441455755329643 0.0 0.0 -5.200733285465526e-05 -2.917960820505907e-06
5.256479852734852e-05 0.00014885272223356453 0.0 0.0 5.09188252155715e-05 -2.9195592037661823e-06
4.7911932624310335e-05 0.00013339972575724675 0.0 0.0 -5.375423935125609e-05 -2.8654022199776008e-06
4.3246489054645006e-05 0.00011807309540855267 0.0 0.0 4.891255839645551e-05 -2.8176289064912397e-06
3.847875113617263e-05 0.00010294947497162213 0.0 0.0 -5.499759737191039e-05 -2.643775669144131e-06
3.377599650517655e-05 8.800838383165564e-05 0.0 0.0 4.657415672598025e-05 -2.584918170189755e-06
2.8812747703654276e-05 7.342697213187081e-05 0.0 0.0 -5.475765079430853e-05 -2.169543916873888e-06
2.4193341090808146e-05 5.9035019023241146e-05 0.0 0.0 4.2554065537603976e-05 -2.2828868076591423e-06
1.8755392687455658e-05 4.5271160020241504e-05 0.0 0.0 -4.9912563288359146e-05 -1.2663837801646415e-06
1.4487824845689834e-05 3.181850993707773e-05 0.0 0.0 3.265423464824855e-05 -2.0593257064750303e-06
8.047619871961451e-06 1.9388031347090937e-05 0.0 0.0 -3.2850997336936194e-05 1.8283525153833628e-07
4.355398764168698e-06 1.0033127051020963e-05 0.0 0.0 1.4200886636592507e-05 -5.831845415518169e-07
2.3674632333611784e-06 6.155357551457006e-06 0.0 0.0 0.020568822012542672 1.8074556298174494e-05
-1.0842021724855044e-19 0.001353575629150222 0.0 0.0 0.0009359494086559562 1.2197274440461925e-19
0.00032870693783094095 0.0015836899344786545 0.0 0.0 0.0013032171119616786 -0.0004354674389786595
0.0005069418971542079 0.001995400106426821 0.0 0.0 0.0012450603632588354 -0.0007209410310478575
0.0006133039545285911 0.002293234634928783 0.0 0.0 0.0010096838350367534 -0.0005323519815707403
0.0006800077085392058 0.0024847827397831163 0.0 0.0 0.0010140458200116784 -0.0009427596633434373
0.0007245657116513043 0.002610359464030533 0.0 0.0 0.000828031087167326 -0.0005072057406635274
0.0007554590846562754 0.0026947520005316077 0.0 0.0 0.0008611078773357159 -0.0011022747348595594
0.0007772967380020833 0.002752029455625461 0.0 0.0 0.0006940146763808171 -0.00044270529158592375
0.0007928174305927019 0.0027905601723345946 0.0 0.0 0.0007409743041919036 -0.0012342661497498314
0.0008037685199808587 0.002815638869745663 0.0 0.0 0.000584866594335329 -0.0003581860752055441
0.0008113237525841558 0.002830797252885151 0.0 0.0 0.000640924226824001 -0.0013513353196723382
0.0008163038715631159 0.0028384917952622196 0.0 0.0 0.000492583399956941 -0.00026235036917035445
0.0008193007608054278 0.0028404875953739364 0.0 0.0 0.0005554130201203468 -0.0014597037525452053
0.0008207519750533362 0.00283808583287673 0.0 0.0 0.0004130717671574672 -0.0001597536254439449
0.0008209873889544742 0.0028322653601062626 0.0 0.0 0.0004812829172385937 -0.0015627746755542341
0.0008202596937341633 0.002823774580089112 0.0 0.0 0.0003438170944302121 -5.298045003791533e-05
0.0008187649408870415 0.002813193142240227 0.0 0.0 0.0004164808088414279 -0.0016625383784731702
0.0008166568198823868 0.002800974611981377 0.0 0.0 0.00028310812795775053 5.641912413555263e-05
0.0008140568110291357 0.002787476738137643 0.0 0.0 0.0003595547215652534 -0.0017602132497165223
0.0008110615735402722 0.002772983407836791 0.0 0.0 0.0002296933926475809 0.00016748030217036673
0.0008077484186234898 0.0027577208855392435 0.0 0.0 0.000309410741028019 -0.0018565677502483937
0.0008041794341428183 0.002741870033394211 0.0 0.0 0.00018260461073279447 0.00027958826688337477
0.000800404636164946 0.0027255756470629944 0.0 0.0 0.0002651821352844157 -0.0019520953953768374
0.0007964644075828222 0.0027089536825590167 0.0 0.0 0.0001410582237388056 0.0003923459826698861
0.0007923914045861683 0.0026920969145341903 0.0 0.0 0.00022615438233242668 -0.0020471160242147356
0.0007882120606536526 0.002675079409932984 0.0 0.0 0.00010439779333383005 0.000505495676781615
0.0007839477818009678 0.002657960094349754 0.0 0.0 0.0001917205882711831 -0.0021418373203249074
0.0007796159024114921 0.0026407856147915047 0.0 0.0 7.205927408388511e-05 0.0006188702045807487
0.0007752304534515315 0.0026235926507170134 0.0 0.0 0.00016135427291329336 -0.0022363935517777846
0.0007708027824346879 0.002606409788229205 0.0 0.0 4.35495534841868e-05 0.0007323619962463378
0.0007663420553560044 0.002589259045452236 0.0 0.0 0.0001345923284888005 -0.0023308705921322986
0.0007618556640924587 0.0025721571173841166 0.0 0.0 1.8432806959445963e-05 0.0008459028120516797
0.0007573495576955447 0.002555116393780766 0.0 0.0 0.00011102398426243677 -0.0024253223546665615
0.0007528285121658692 0.0025381457924896892 0.0 0.0 -3.6785347272173807e-06 0.0009594503677687017
0.0007482963503328684 0.0025212514421163847 0.0 0.0 9.028330839238544e-05 -0.0025197816971090996
0.0007437561211704005 0.0025044372412939544 0.0 0.0 -2.313011006201994e-05 0.0010729794324549232
0.0007392102460613306 0.0024877053166458903 0.0 0.0 7.204377965555207e-05 -0.0026142676945494297
0.000734660638099998 0.0024710563974296657 0.0 0.0 -4.023037071027675e-05 0.0011864758848205493
0.0007301087993757836 0.0024544901215717246 0.0 0.0 5.6014066816811045e-05 -0.002708790496304228
0.000725555900264105 0.0024380052851698765 0.0 0.0 -5.525440026591527e-05 0.0012999327462252443
0.0007210028440080675 0.0024216000454007603 0.0 0.0 4.1934521062286616e-05 -0.0028033545635461777
0.0007164503192758011 0.0024052720850298664 0.0 0.0 -6.844717766072567e-05 0.0014133475412506239
0.0007118988428895804 0.002389018745295977 0.0 0.0 2.957410783682832e-05 -0.0028979608179891016
0.0007073487945246766 0.002372837132767986 0.0 0.0 -8.002648522942432e-05 0.0015267205515759736
0.0007028004448471161 0.002356724204812138 0.0 0.0 1.8727634026414336e-05 -0.0029926080578813003
0.0006982539782983721 0.002340676837497882 0.0 0.0 -9.018556352977623e-05 0.0016400536705596684
0.0006937095115133662 0.002324691879118934 0.0 0.0 9.213199464582107e-06 -0.003087293881843742
0.0006891671081770744 0.0023087661919564714 0.0 0.0 -9.909556120023819e-05 0.0017533496606900955
0.0006846267909887386 0.002292896684451064 0.0 0.0 8.698407331906612e-07 -0.0031820152832826836
0.0006800885512609013 0.0022770803355797614 0.0 0.0 -0.00010690780065619005 0.0018666116800457166
0.0006755523566131589 0.0022613142129164292 0.0 0.0 -6.444646012065437e-06 -0.003276769025441462
0.0006710181571042213 0.002245595485595302 0.0 0.0 -0.00011375586801870303 0.001979842987324741
0.000666485890112589 0.0022299214331788046 0.0 0.0 -1.2855708665826526e-05 -0.003371551871401219
0.0006619554841912876 0.0022142894512602574 0.0 0.0 -0.00011975753135930233 0.002093046764446659
0.0006574268621099056 0.0021986970544729534 0.0 0.0 -1.847387302440686e-05 -0.0034663607190231665
0.0006528999432216362 0.002183141877456015 0.0 0.0 -0.00012501649122693666 0.0022062260157747525
0.0006483746453121128 0.002167621674239702 0.0 0.0 -2.3396411303441573e-05 -0.003561192674335546
0.0006438508860082167 0.0021521343164095704 0.0 0.0 -0.00012962396874505264 0.0023193835165655086
0.0006393285838504745 0.002136677790345651 0.0 0.0 -2.7708851638851874e-05 -0.003656045085726003
0.0006348076590940032 0.0021212501937842316 0.0 0.0 -0.00013366013854707688 0.0024325217924774218
0.0006302880342893931 0.0021058497318977793 0.0 0.0 -3.148633662555236e-05 -0.0037509155537255616
0.0006257696346916967 0.00209047471304128 0.0 0.0 -0.00013719541529686602 0.0025456431181092526
0.000621252388537739 0.0020751235442933113 0.0 0.0 -3.479484036117593e-05 -0.0038458019261048354
0.0006167362272176432 0.0020597947268923417 0.0 0.0 -0.00014029160383549795 0.0026587495267165542
0.0006122210853608512 0.002044486851638756 0.0 0.0 -3.769225438001464e-05 -0.003940702284566826
0.0006077069008634268 0.0020291985943282935 0.0 0.0 -0.00014300292361423255 0.0027718428260582097
0.0006031936148614385 0.0020139287112607204 0.0 0.0 -4.022935325610462e-05 -0.004035614927167199
0.000598681171676538 0.001998676034856443 0.0 0.0 -0.00014537691823863965 0.00288492461714712
0.0005941695187321447 0.0019834394694081886 0.0 0.0 -4.245065081436711e-05 -0.004130538348921478
0.0005896586064456034 0.001968217986982942 0.0 0.0 -0.00014745526089219533 0.0029979963138711805
0.0005851483881125886 0.0019530106234883111 0.0 0.0 -4.4395157378545116e-05 -0.004225471222200372
0.0005806388197855816 0.00193781647491085 0.0 0.0 -0.00014927446599784407 0.0031110591623146953
0.0005761298601423236 0.0019226346937279341 0.0 0.0 -4.6097048220575254e-05 -0.0043204123778553625
0.000571621470354843 0.0019074644854985264 0.0 0.0 -0.0001508665167871846 0.003224114259103264
0.0005671136139603528 0.0018923051056213159 0.0 0.0 -4.758625252391157e-05 -0.00441536078753532
0.0005626062567313525 0.0018771558562686189 0.0 0.0 -0.00015225941782713668 0.003337162568378128
0.0005580993665521175 0.0018620160834874112 0.0 0.0 -4.888897158940569e-05 -0.004510315547444039
0.0005535929132910707 0.0018468851744558611 0.0 0.0 -0.00015347768088072415 0.0034502049372730553
0.0005490868686939328 0.0018317625549006452 0.0 0.0 -5.0028134191911194e-05 -0.00460527586362105
0.0005445812062632 0.0018166476866573987 0.0 0.0 -0.00015454275153881092 0.003563242109874685
0.000540075901152634 0.0018015400653757067 0.0 0.0 -5.1023796222345735e-05 -0.004700241038731297
0.0005355709300667629 0.0017864392183591525 0.0 0.0 -0.00015547338351819002 0.003676274739723299
0.0005310662711621372 0.0017713447025318341 0.0 0.0 -5.189349113287993e-05 -0.004795210460249083
0.0005265619039604018 0.0017562561025280163 0.0 0.0 -0.00015628596663176935 0.0037893034009245023
0.0005220578092525725 0.0017411730288940165 0.0 0.0 -5.265253679686416e-05 -0.0048901835900007455
0.0005175539690260852 0.0017260951163997587 0.0 0.0 -0.00015699481390254143 0.003902328598049505
0.0005130503663810895 0.0017110220224482312 0.0 0.0 -5.331430408546476e-05 -0.004985159954852459
0.0005085469854645462 0.0016959534255860107 0.0 0.0 -0.00015761241264320575 0.004015350774848488
0.0005040438113909091 0.0016808890241040095 0.0 0.0 -5.389045152343324e-05 -0.005080139138506218
0.0004995408301889878 0.0016658285347150702 0.0 0.0 -0.00015814964372558565 0.004128370321983443
0.0004950380287309195 0.001650771691317246 0.0 0.0 -5.439113005698774e-05 -0.005175120774233724
0.0004905353946848676 0.001635718243831559 0.0 0.0 -0.0001586159727661341 0.004241387583858464
0.0004860329164523868 0.0016206679571059174 0.0 0.0 -5.4825161556275835e-05 -0.005270104538461831
0.00048153058311922996 0.0016056206098801057 0.0 0.0 -0.00015901961660332638 0.004354402864648508
0.0004770283844156337 0.0015905759938193561 0.0 0.0 -5.520019394076713e-05 -0.005365090145078244
0.0004725263106563059 0.0015755339125997074 0.0 0.0 -0.0001593676878557087 0.004467416433629518
0.00046802435271270306 0.0015604941810440794 0.0 0.0 -5.552283577561507e-05 -0.005460077340431833
0.0004635225019609414 0.0015454566243110872 0.0 0.0 -0.00015966632008839604 0.004580428529933667
0.0004590207502562144 0.0015304210771254223 0.0 0.0 -5.579877258475585e-05 -0.00555506589886705
0.0004545190898834847 0.0015153873830521488 0.0 0.0 -0.00015992077580731165 0.004693439366764488
0.00045001751353376676 0.001500355393809691 0.0 0.0 -5.603286699172507e-05 -0.005650055618743224
0.0004455160142650774 0.0014853249686183267 0.0 0.0 -0.00016013553910209418 0.004806449135101641
0.000441014585477193 0.0014702959735766279 0.0 0.0 -5.6229244307238156e-05 -0.005745046318869814
0.00043651322088092046 0.0014552682810784873 0.0 0.0 -0.00016031439465197944 0.004919458007107782
0.00043201191446595326 0.0014402417692473612 0.0 0.0 -5.6391365216359145e-05 -0.005840037835339072
0.0004275106604813628 0.0014252163214007853 0.0 0.0 -0.00016046049437724343 0.005032466139144298
0.0004230094534107165 0.0014101918255400487 0.0 0.0 -5.652208671918287e-05 -0.005935030018641266
0.0004185082879342805 0.001395168173850503 0.0 0.0 -0.00016057641297102278 0.005145473674561269
0.0004140071589211327 0.001380145262233645 0.0 0.0 -5.6623712517735354e-05 -0.006030022731017688
0.0004095060614015588 0.0013651229898466709 0.0 0.0 -0.0001606641932198425 0.005258480746170108
0.0004050049905400934 0.0013501012586569327 0.0 0.0 -5.6698033515292096e-05 -0.006125015844001902
0.0004005039416202353 0.0013350799730109868 0.0 0.0 -0.00016072538204738463 0.005371487478619328
0.00039600291002439287 0.001320059039211379 0.0 0.0 -5.674635941716431e-05 -0.006220009236212135
0.000391501891205035 0.0013050383651078798 0.0 0.0 -0.0001607610577099598 0.0054844939906051075
0.0003870008806699192 0.00129001785969171 0.0 0.0 -5.676954181955702e-05 -0.006315002791142868
0.0003824998739685909 0.0012749974326889168 0.0 0.0 -0.00016077184883080565 0.005597500396906591
0.00037799886665808595 0.0012599769941613612 0.0 0.0 -5.676798915281011e-05 -0.0064099963951429716
0.00037349785429394904 0.0012449564541147985 0.0 0.0 -0.00016075794548613652 0.005710506810501366
0.00036899683240845446 0.0012299357220993405 0.0 0.0 -5.6741673904903145e-05 -0.0065049899354117
0.0003644957964864046 0.0012149147068062293 0.0 0.0 -0.0001607191024844334 0.005823513344534923
0.0003599947419453986 0.001199893315667945 0.0 0.0 -5.669013215346078e-05 -0.00659998329799158
0.00035549366411961577 0.0011848714544469658 0.0 0.0 -0.00016065463506080395 0.005936520114289924
0.0003509925582412416 0.0011698490268172938 0.0 0.0 -5.661245528656208e-05 -0.006694976365713475
0.0003464914193955134 0.0011548259339400615 0.0 0.0 -0.00016056340685820323 0.006049527239341303
0.0003419902425237671 0.0011398020740201443 0.0 0.0 -5.6507274137682084e-05 -0.006789969016162915
0.00033748902239384585 0.0011247773418506626 0.0 0.0 -0.00016044380979814404 0.0061625348455838
0.000332987753561844 0.001109751628347407 0.0 0.0 -5.637273473470261e-05 -0.0068849611193923365
0.0003284864303628739 0.0010947248200590854 0.0 0.0 -0.00016029373586743875 0.006275543067550149
0.00032398504686810764 0.001079696798661467 0.0 0.0 -5.620646569325441e-05 -0.0069799525356502665
0.0003194835968553059 0.0010646674404241358 0.0 0.0 -0.00016011053993434266 0.006388552050878856
0.00031498207379134467 0.0010496366156483449 0.0 0.0 -5.600553653442239e-05 -0.007074943112775763
0.0003104804707841673 0.0010346041880928457 0.0 0.0 -0.00015989099323997832 0.006501561954947038
0.0003059787805485974 0.0010195700143438198 0.0 0.0 -5.576640608978469e-05 -0.0071699326834134495
0.00030147699536750154 0.0010045339431675035 0.0 0.0 -0.0001596312267162928 0.006614572955844237
0.0002969751070437981 0.0009894958148232095 0.0 0.0 -5.548486038792124e-05 -0.007264921061894266
0.00029247310685567076 0.0009744554603217263 0.0 0.0 -0.00015932666304899635 0.006727585249731831
0.0002879709854972042 0.0009594127006624921 0.0 0.0 -5.515593882212365e-05 -0.007359908040641327
0.00028346873302228994 0.0009443673459978091 0.0 0.0 -0.0001589719366458641 0.006840599056557343
0.0002789663387883564 0.000929319194746726 0.0 0.0 -5.477384740895305e-05 -0.007454893386197863
0.00027446379136087046 0.0009142680326611897 0.0 0.0 -0.0001585607999913686 0.006953614624416954
0.0002699610784567484 0.0008992136318208066 0.0 0.0 -5.433185796413845e-05 -0.007549876834565926
0.00026545818683146956 0.0008841557495596337 0.0 0.0 -0.00015808601515333344 0.007066632234621237
0.00026095510218981206 0.0008690941273180873 0.0 0.0 -5.3822191647919133e-05 -0.007644858085759029
0.0002564518090486767 0.0008540284894120723 0.0 0.0 -0.00015753922896199514 0.0071796522074503155
0.0002519482906301034 0.0008389585417113558 0.0 0.0 -5.323588526768598e-05 -0.007739836797450966
0.0002474445286828508 0.0008238839702308968 0.0 0.0 -0.00015691083013106948 0.00729267490916312
0.00024294050333676078 0.0008088044396175493 0.0 0.0 -5.256263886337445e-05 -0.007834812577445872
0.00023843619286556357 0.000793719591530099 0.0 0.0 -0.00015618978691417373 0.007405700760164022
0.0002339315734980348 0.0007786290429030264 0.0 0.0 -5.1790643188748264e-05 -0.007929784974636625
0.00022942661912697752 0.0007635323840881336 0.0 0.0 -0.00015536346407197567 0.007518730244930567
0.00022492130101674552 0.0007484291768689975 0.0 0.0 -5.090638582083869e-05 -0.008024753468197133
0.0002204155874626544 0.0007333189523538153 0.0 0.0 -0.0001544174180852908 0.007631763923899984
0.00021590944337798336 0.0007182012087171549 0.0 0.0 -4.9894435588105496e-05 -0.008119717454437122
0.00021140282982046372 0.0007030754088034042 0.0 0.0 -0.00015333517106727937 0.007744802447994855
0.00020689570346570807 0.0006879409776270697 0.0 0.0 -4.873720632954555e-05 -0.00821467623079801
0.00020238801600076952 0.0006727972997247428 0.0 0.0 -0.00015209796481954578 0.007857846576230277
0.0001978797133656982 0.0006576437163990196 0.0 0.0 -4.7414702428928354e-05 -0.008309628976369034
0.0001933707349524871 0.0006424795228761274 0.0 0.0 -0.00015068449977031703 0.007970897197355949
0.00018886101264291728 0.000627303965425866 0.0 0.0 -4.590425320423995e-05 -0.008404574728037122
0.00018435046968113611 0.0006121162384727293 0.0 0.0 -0.00014907066744151466 0.00808395535607391
0.00017983901941830358 0.0005969154817850314 0.0 0.0 -4.418024743401035e-05 -0.008499512351545373
0.00017532656386437507 0.000581700777841606 0.0 0.0 -0.00014722929221067278 0.008197022284878733
0.00017081299198393632 0.0005664711494969914 0.0 0.0 -4.221388872030149e-05 -0.008594440506707303
0.00016629817783116697 0.0005512255581688983 0.0 0.0 -0.00014512990843899322 0.008310099441983089
0.00016178197835272018 0.0005359629027269057 0.0 0.0 -3.997300495807432e-05 -0.008689357606224211
0.00015726423099563918 0.0005206820194578461 0.0 0.0 -0.00014273861545680867 0.008423188555467531
0.00015274475094492345 0.0005053816834896085 0.0 0.0 -3.74219649878528e-05 -0.00878426176883125
0.00014822332816728743 0.0004900606122097333 0.0 0.0 -0.00014001807598879902 0.008536291672370824
0.00014369972404331723 0.00047471747139629726 0.0 0.0 -3.452178389926064e-05 -0.008879150768960821
0.00013917366797849763 0.0004593508849230528 0.0 0.0 -0.00013692775897656238 0.008649411208663381
0.0001346448534356458 0.0004439594491148767 0.0 0.0 -3.123054081743612e-05 -0.008974021988976996
0.0001301129346413282 0.00042854175337299333 0.0 0.0 -0.00013342457696701414 0.008762549990995877
0.00012557752209290052 0.0004130964084563012 0.0 0.0 -2.7504290737183704e-05 -0.009068872387020505
0.00012103818102425509 0.0003976220853617145 0.0 0.0 -0.00012946413568160585 0.008875711270959229
0.00011649442584562768 0.0003821175662944698 0.0 0.0 -2.3298730235637305e-05 -0.009163698505687996
0.00011194572543881114 0.00036658181353779165 0.0 0.0 -0.0001250029002912035 0.00898889867447307
0.00010739149271892766 0.0003510140554814354 0.0 0.0 -1.8571974822212747e-05 -0.009258496567161349
0.0001028311123670755 0.0003354139039478401 0.0 0.0 -0.00012000168163909218 0.009102116014388083
9.826390706462621e-05 0.0003197814905765876 0.0 0.0 -1.328891226666691e-05 -0.009353262731192843
9.36892386815473e-05 0.00030411766256817417 0.0 0.0 -0.000114430929702607 0.009215366828488367
8.910637398173547e-05 0.0002884241790813726 0.0 0.0 -7.427690411751162e-06 -0.009447993624115632
8.451483426283425e-05 0.00027270404041944863 0.0 0.0 -0.00010827831787773266 0.00932865336763827
7.991385811692895e-05 0.0002569617145683399 0.0 0.0 -9.889393013627623e-07 -0.009542687227227025
7.530362030378556e-05 0.00024120372727710781 0.0 0.0 -0.00010155883532873139 0.009441974432669935
7.068314471572896e-05 0.00022543872633681248 0.0 0.0 5.991660491368525e-06 -0.009637343905414502
6.605463907296985e-05 0.0002096787181958245 0.0 0.0 -9.432667525108122e-05 0.009555320550297796
6.141557989554388e-05 0.0001939381853642471 0.0 0.0 1.3426449830303624e-05 -0.009731965868049424
5.677438385216466e-05 0.00017823734161747528 0.0 0.0 -8.668558574297623e-05 0.009668662044181073
5.2120837736332164e-05 0.0001625974151127858 0.0 0.0 2.115061399389495e-05 -0.00982654742659934
4.7483358145026154e-05 0.00014705106360059204 0.0 0.0 -7.878679353556448e-05 0.009781915125026318
4.281945181320533e-05 0.000131623394549075 0.0 0.0 2.8871540345674213e-05 -0.00992102648811288
3.822611756867487e-05 0.00011636870078436592 0.0 0.0 -7.077894954140261e-05 0.009894832178154699
3.353590530514825e-05 0.00010129934870349328 0.0 0.0 3.6024357022570314e-05 -0.010015089222638671
2.9090969749879388e-05 8.651803794996704e-05 0.0 0.0 -6.258771986786087e-05 0.0100066167250323
2.425882952360746e-05 7.196099982863767e-05 0.0 0.0 4.128598127753694e-05 -0.010107443398128517
2.0261878953771306e-05 5.785419263066881e-05 0.0 0.0 -5.314648551868126e-05 0.010114559387758848
1.4798295706574092e-05 4.3900241567980906e-05 0.0 0.0 4.099830363273743e-05 -0.010193289461122062
1.2060820619422688e-05 3.0354717732638236e-05 0.0 0.0 -3.887176963506683e-05 0.01020979836023534
4.83929683488369e-06 1.676175833044042e-05 0.0 0.0 2.696555778096757e-05 -0.01025849071374102
4.25615663143441e-06 4.551639860365979e-06 0.0 0.0 -1.7669051763839413e-05 0.010272402573115546
-1.6336185261755526e-06 -4.895130149031422e-07 0.0 0.0 -0.020567439622324612 -0.010272124047075407