# vtk DataFile Version 3.0
Some data
ASCII
DATASET UNSTRUCTURED_GRID
POINTS 861 float
0.0 0.0 0.0
0.4 0.0 0.0
0.8 0.0 0.0
1.2000000000000002 0.0 0.0
1.6 0.0 0.0
2.0 0.0 0.0
2.4000000000000004 0.0 0.0
2.8000000000000003 0.0 0.0
3.2 0.0 0.0
3.6 0.0 0.0
4.0 0.0 0.0
4.4 0.0 0.0
4.800000000000001 0.0 0.0
5.2 0.0 0.0
5.6000000000000005 0.0 0.0
6.0 0.0 0.0
6.4 0.0 0.0
6.800000000000001 0.0 0.0
7.2 0.0 0.0
7.6000000000000005 0.0 0.0
8.0 0.0 0.0
8.4 0.0 0.0
8.8 0.0 0.0
9.200000000000001 0.0 0.0
9.600000000000001 0.0 0.0
10.0 0.0 0.0
10.4 0.0 0.0
10.8 0.0 0.0
11.200000000000001 0.0 0.0
11.600000000000001 0.0 0.0
12.0 0.0 0.0
12.4 0.0 0.0
12.8 0.0 0.0
13.200000000000001 0.0 0.0
13.600000000000001 0.0 0.0
14.0 0.0 0.0
14.4 0.0 0.0
14.8 0.0 0.0
15.200000000000001 0.0 0.0
15.600000000000001 0.0 0.0
16.0 0.0 0.0
0.0 0.1 0.0
0.4 0.1 0.0
0.8 0.1 0.0
1.2000000000000002 0.1 0.0
1.6 0.1 0.0
2.0 0.1 0.0
2.4000000000000004 0.1 0.0
2.8000000000000003 0.1 0.0
3.2 0.1 0.0
3.6 0.1 0.0
4.0 0.1 0.0
4.4 0.1 0.0
4.800000000000001 0.1 0.0
5.2 0.1 0.0
5.6000000000000005 0.1 0.0
6.0 0.1 0.0
6.4 0.1 0.0
6.800000000000001 0.1 0.0
7.2 0.1 0.0
7.6000000000000005 0.1 0.0
8.0 0.1 0.0
8.4 0.1 0.0
8.8 0.1 0.0
9.200000000000001 0.1 0.0
9.600000000000001 0.1 0.0
10.0 0.1 0.0
10.4 0.1 0.0
10.8 0.1 0.0
11.200000000000001 0.1 0.0
11.600000000000001 0.1 0.0
12.0 0.1 0.0
12.4 0.1 0.0
12.8 0.1 0.0
13.200000000000001 0.1 0.0
13.600000000000001 0.1 0.0
14.0 0.1 0.0
14.4 0.1 0.0
14.8 0.1 0.0
15.200000000000001 0.1 0.0
15.600000000000001 0.1 0.0
16.0 0.1 0.0
0.0 0.2 0.0
0.4 0.2 0.0
0.8 0.2 0.0
1.2000000000000002 0.2 0.0
1.6 0.2 0.0
2.0 0.2 0.0
2.4000000000000004 0.2 0.0
2.8000000000000003 0.2 0.0
3.2 0.2 0.0
3.6 0.2 0.0
4.0 0.2 0.0
4.4 0.2 0.0
4.800000000000001 0.2 0.0
5.2 0.2 0.0
5.6000000000000005 0.2 0.0
6.0 0.2 0.0
6.4 0.2 0.0
6.800000000000001 0.2 0.0
7.2 0.2 0.0
7.6000000000000005 0.2 0.0
8.0 0.2 0.0
8.4 0.2 0.0
8.8 0.2 0.0
9.200000000000001 0.2 0.0
9.600000000000001 0.2 0.0
10.0 0.2 0.0
10.4 0.2 0.0
10.8 0.2 0.0
11.200000000000001 0.2 0.0
11.600000000000001 0.2 0.0
12.0 0.2 0.0
12.4 0.2 0.0
12.8 0.2 0.0
13.200000000000001 0.2 0.0
13.600000000000001 0.2 0.0
14.0 0.2 0.0
14.4 0.2 0.0
14.8 0.2 0.0
15.200000000000001 0.2 0.0
15.600000000000001 0.2 0.0
16.0 0.2 0.0
0.0 0.30000000000000004 0.0
0.4 0.30000000000000004 0.0
0.8 0.30000000000000004 0.0
1.2000000000000002 0.30000000000000004 0.0
1.6 0.30000000000000004 0.0
2.0 0.30000000000000004 0.0
2.4000000000000004 0.30000000000000004 0.0
2.8000000000000003 0.30000000000000004 0.0
3.2 0.30000000000000004 0.0
3.6 0.30000000000000004 0.0
4.0 0.30000000000000004 0.0
4.4 0.30000000000000004 0.0
4.800000000000001 0.30000000000000004 0.0
5.2 0.30000000000000004 0.0
5.6000000000000005 0.30000000000000004 0.0
6.0 0.30000000000000004 0.0
6.4 0.30000000000000004 0.0
6.800000000000001 0.30000000000000004 0.0
7.2 0.30000000000000004 0.0
7.6000000000000005 0.30000000000000004 0.0
8.0 0.30000000000000004 0.0
8.4 0.30000000000000004 0.0
8.8 0.30000000000000004 0.0
9.200000000000001 0.30000000000000004 0.0
9.600000000000001 0.30000000000000004 0.0
10.0 0.30000000000000004 0.0
10.4 0.30000000000000004 0.0
10.8 0.30000000000000004 0.0
11.200000000000001 0.30000000000000004 0.0
11.600000000000001 0.30000000000000004 0.0
12.0 0.30000000000000004 0.0
12.4 0.30000000000000004 0.0
12.8 0.30000000000000004 0.0
13.200000000000001 0.30000000000000004 0.0
13.600000000000001 0.30000000000000004 0.0
14.0 0.30000000000000004 0.0
14.4 0.30000000000000004 0.0
14.8 0.30000000000000004 0.0
15.200000000000001 0.30000000000000004 0.0
15.600000000000001 0.30000000000000004 0.0
16.0 0.30000000000000004 0.0
0.0 0.4 0.0
0.4 0.4 0.0
0.8 0.4 0.0
1.2000000000000002 0.4 0.0
1.6 0.4 0.0
2.0 0.4 0.0
2.4000000000000004 0.4 0.0
2.8000000000000003 0.4 0.0
3.2 0.4 0.0
3.6 0.4 0.0
4.0 0.4 0.0
4.4 0.4 0.0
4.800000000000001 0.4 0.0
5.2 0.4 0.0
5.6000000000000005 0.4 0.0
6.0 0.4 0.0
6.4 0.4 0.0
6.800000000000001 0.4 0.0
7.2 0.4 0.0
7.6000000000000005 0.4 0.0
8.0 0.4 0.0
8.4 0.4 0.0
8.8 0.4 0.0
9.200000000000001 0.4 0.0
9.600000000000001 0.4 0.0
10.0 0.4 0.0
10.4 0.4 0.0
10.8 0.4 0.0
11.200000000000001 0.4 0.0
11.600000000000001 0.4 0.0
12.0 0.4 0.0
12.4 0.4 0.0
12.8 0.4 0.0
13.200000000000001 0.4 0.0
13.600000000000001 0.4 0.0
14.0 0.4 0.0
14.4 0.4 0.0
14.8 0.4 0.0
15.200000000000001 0.4 0.0
15.600000000000001 0.4 0.0
16.0 0.4 0.0
0.0 0.5 0.0
0.4 0.5 0.0
0.8 0.5 0.0
1.2000000000000002 0.5 0.0
1.6 0.5 0.0
2.0 0.5 0.0
2.4000000000000004 0.5 0.0
2.8000000000000003 0.5 0.0
3.2 0.5 0.0
3.6 0.5 0.0
4.0 0.5 0.0
4.4 0.5 0.0
4.800000000000001 0.5 0.0
5.2 0.5 0.0
5.6000000000000005 0.5 0.0
6.0 0.5 0.0
6.4 0.5 0.0
6.800000000000001 0.5 0.0
7.2 0.5 0.0
7.6000000000000005 0.5 0.0
8.0 0.5 0.0
8.4 0.5 0.0
8.8 0.5 0.0
9.200000000000001 0.5 0.0
9.600000000000001 0.5 0.0
10.0 0.5 0.0
10.4 0.5 0.0
10.8 0.5 0.0
11.200000000000001 0.5 0.0
11.600000000000001 0.5 0.0
12.0 0.5 0.0
12.4 0.5 0.0
12.8 0.5 0.0
13.200000000000001 0.5 0.0
13.600000000000001 0.5 0.0
14.0 0.5 0.0
14.4 0.5 0.0
14.8 0.5 0.0
15.200000000000001 0.5 0.0
15.600000000000001 0.5 0.0
16.0 0.5 0.0
0.0 0.6000000000000001 0.0
0.4 0.6000000000000001 0.0
0.8 0.6000000000000001 0.0
1.2000000000000002 0.6000000000000001 0.0
1.6 0.6000000000000001 0.0
2.0 0.6000000000000001 0.0
2.4000000000000004 0.6000000000000001 0.0
2.8000000000000003 0.6000000000000001 0.0
3.2 0.6000000000000001 0.0
3.6 0.6000000000000001 0.0
4.0 0.6000000000000001 0.0
4.4 0.6000000000000001 0.0
4.800000000000001 0.6000000000000001 0.0
5.2 0.6000000000000001 0.0
5.6000000000000005 0.6000000000000001 0.0
6.0 0.6000000000000001 0.0
6.4 0.6000000000000001 0.0
6.800000000000001 0.6000000000000001 0.0
7.2 0.6000000000000001 0.0
7.6000000000000005 0.6000000000000001 0.0
8.0 0.6000000000000001 0.0
8.4 0.6000000000000001 0.0
8.8 0.6000000000000001 0.0
9.200000000000001 0.6000000000000001 0.0
9.600000000000001 0.6000000000000001 0.0
10.0 0.6000000000000001 0.0
10.4 0.6000000000000001 0.0
10.8 0.6000000000000001 0.0
11.200000000000001 0.6000000000000001 0.0
11.600000000000001 0.6000000000000001 0.0
12.0 0.6000000000000001 0.0
12.4 0.6000000000000001 0.0
12.8 0.6000000000000001 0.0
13.200000000000001 0.6000000000000001 0.0
13.600000000000001 0.6000000000000001 0.0
14.0 0.6000000000000001 0.0
14.4 0.6000000000000001 0.0
14.8 0.6000000000000001 0.0
15.200000000000001 0.6000000000000001 0.0
15.600000000000001 0.6000000000000001 0.0
16.0 0.6000000000000001 0.0
0.0 0.7000000000000001 0.0
0.4 0.7000000000000001 0.0
0.8 0.7000000000000001 0.0
1.2000000000000002 0.7000000000000001 0.0
1.6 0.7000000000000001 0.0
2.0 0.7000000000000001 0.0
2.4000000000000004 0.7000000000000001 0.0
2.8000000000000003 0.7000000000000001 0.0
3.2 0.7000000000000001 0.0
3.6 0.7000000000000001 0.0
4.0 0.7000000000000001 0.0
4.4 0.7000000000000001 0.0
4.800000000000001 0.7000000000000001 0.0
5.2 0.7000000000000001 0.0
5.6000000000000005 0.7000000000000001 0.0
6.0 0.7000000000000001 0.0
6.4 0.7000000000000001 0.0
6.800000000000001 0.7000000000000001 0.0
7.2 0.7000000000000001 0.0
7.6000000000000005 0.7000000000000001 0.0
8.0 0.7000000000000001 0.0
8.4 0.7000000000000001 0.0
8.8 0.7000000000000001 0.0
9.200000000000001 0.7000000000000001 0.0
9.600000000000001 0.7000000000000001 0.0
10.0 0.7000000000000001 0.0
10.4 0.7000000000000001 0.0
10.8 0.7000000000000001 0.0
11.200000000000001 0.7000000000000001 0.0
11.600000000000001 0.7000000000000001 0.0
12.0 0.7000000000000001 0.0
12.4 0.7000000000000001 0.0
12.8 0.7000000000000001 0.0
13.200000000000001 0.7000000000000001 0.0
13.600000000000001 0.7000000000000001 0.0
14.0 0.7000000000000001 0.0
14.4 0.7000000000000001 0.0
14.8 0.7000000000000001 0.0
15.200000000000001 0.7000000000000001 0.0
15.600000000000001 0.7000000000000001 0.0
16.0 0.7000000000000001 0.0
0.0 0.8 0.0
0.4 0.8 0.0
0.8 0.8 0.0
1.2000000000000002 0.8 0.0
1.6 0.8 0.0
2.0 0.8 0.0
2.4000000000000004 0.8 0.0
2.8000000000000003 0.8 0.0
3.2 0.8 0.0
3.6 0.8 0.0
4.0 0.8 0.0
4.4 0.8 0.0
4.800000000000001 0.8 0.0
5.2 0.8 0.0
5.6000000000000005 0.8 0.0
6.0 0.8 0.0
6.4 0.8 0.0
6.800000000000001 0.8 0.0
7.2 0.8 0.0
7.6000000000000005 0.8 0.0
8.0 0.8 0.0
8.4 0.8 0.0
8.8 0.8 0.0
9.200000000000001 0.8 0.0
9.600000000000001 0.8 0.0
10.0 0.8 0.0
10.4 0.8 0.0
10.8 0.8 0.0
11.200000000000001 0.8 0.0
11.600000000000001 0.8 0.0
12.0 0.8 0.0
12.4 0.8 0.0
12.8 0.8 0.0
13.200000000000001 0.8 0.0
13.600000000000001 0.8 0.0
14.0 0.8 0.0
14.4 0.8 0.0
14.8 0.8 0.0
15.200000000000001 0.8 0.0
15.600000000000001 0.8 0.0
16.0 0.8 0.0
0.0 0.9 0.0
0.4 0.9 0.0
0.8 0.9 0.0
1.2000000000000002 0.9 0.0
1.6 0.9 0.0
2.0 0.9 0.0
2.4000000000000004 0.9 0.0
2.8000000000000003 0.9 0.0
3.2 0.9 0.0
3.6 0.9 0.0
4.0 0.9 0.0
4.4 0.9 0.0
4.800000000000001 0.9 0.0
5.2 0.9 0.0
5.6000000000000005 0.9 0.0
6.0 0.9 0.0
6.4 0.9 0.0
6.800000000000001 0.9 0.0
7.2 0.9 0.0
7.6000000000000005 0.9 0.0
8.0 0.9 0.0
8.4 0.9 0.0
8.8 0.9 0.0
9.200000000000001 0.9 0.0
9.600000000000001 0.9 0.0
10.0 0.9 0.0
10.4 0.9 0.0
10.8 0.9 0.0
11.200000000000001 0.9 0.0
11.600000000000001 0.9 0.0
12.0 0.9 0.0
12.4 0.9 0.0
12.8 0.9 0.0
13.200000000000001 0.9 0.0
13.600000000000001 0.9 0.0
14.0 0.9 0.0
14.4 0.9 0.0
14.8 0.9 0.0
15.200000000000001 0.9 0.0
15.600000000000001 0.9 0.0
16.0 0.9 0.0
0.0 1.0 0.0
0.4 1.0 0.0
0.8 1.0 0.0
1.2000000000000002 1.0 0.0
1.6 1.0 0.0
2.0 1.0 0.0
2.4000000000000004 1.0 0.0
2.8000000000000003 1.0 0.0
3.2 1.0 0.0
3.6 1.0 0.0
4.0 1.0 0.0
4.4 1.0 0.0
4.800000000000001 1.0 0.0
5.2 1.0 0.0
5.6000000000000005 1.0 0.0
6.0 1.0 0.0
6.4 1.0 0.0
6.800000000000001 1.0 0.0
7.2 1.0 0.0
7.6000000000000005 1.0 0.0
8.0 1.0 0.0
8.4 1.0 0.0
8.8 1.0 0.0
9.200000000000001 1.0 0.0
9.600000000000001 1.0 0.0
10.0 1.0 0.0
10.4 1.0 0.0
10.8 1.0 0.0
11.200000000000001 1.0 0.0
11.600000000000001 1.0 0.0
12.0 1.0 0.0
12.4 1.0 0.0
12.8 1.0 0.0
13.200000000000001 1.0 0.0
13.600000000000001 1.0 0.0
14.0 1.0 0.0
14.4 1.0 0.0
14.8 1.0 0.0
15.200000000000001 1.0 0.0
15.600000000000001 1.0 0.0
16.0 1.0 0.0
0.0 1.1 0.0
0.4 1.1 0.0
0.8 1.1 0.0
1.2000000000000002 1.1 0.0
1.6 1.1 0.0
2.0 1.1 0.0
2.4000000000000004 1.1 0.0
2.8000000000000003 1.1 0.0
3.2 1.1 0.0
3.6 1.1 0.0
4.0 1.1 0.0
4.4 1.1 0.0
4.800000000000001 1.1 0.0
5.2 1.1 0.0
5.6000000000000005 1.1 0.0
6.0 1.1 0.0
6.4 1.1 0.0
6.800000000000001 1.1 0.0
7.2 1.1 0.0
7.6000000000000005 1.1 0.0
8.0 1.1 0.0
8.4 1.1 0.0
8.8 1.1 0.0
9.200000000000001 1.1 0.0
9.600000000000001 1.1 0.0
10.0 1.1 0.0
10.4 1.1 0.0
10.8 1.1 0.0
11.200000000000001 1.1 0.0
11.600000000000001 1.1 0.0
12.0 1.1 0.0
12.4 1.1 0.0
12.8 1.1 0.0
13.200000000000001 1.1 0.0
13.600000000000001 1.1 0.0
14.0 1.1 0.0
14.4 1.1 0.0
14.8 1.1 0.0
15.200000000000001 1.1 0.0
15.600000000000001 1.1 0.0
16.0 1.1 0.0
0.0 1.2000000000000002 0.0
0.4 1.2000000000000002 0.0
0.8 1.2000000000000002 0.0
1.2000000000000002 1.2000000000000002 0.0
1.6 1.2000000000000002 0.0
2.0 1.2000000000000002 0.0
2.4000000000000004 1.2000000000000002 0.0
2.8000000000000003 1.2000000000000002 0.0
3.2 1.2000000000000002 0.0
3.6 1.2000000000000002 0.0
4.0 1.2000000000000002 0.0
4.4 1.2000000000000002 0.0
4.800000000000001 1.2000000000000002 0.0
5.2 1.2000000000000002 0.0
5.6000000000000005 1.2000000000000002 0.0
6.0 1.2000000000000002 0.0
6.4 1.2000000000000002 0.0
6.800000000000001 1.2000000000000002 0.0
7.2 1.2000000000000002 0.0
7.6000000000000005 1.2000000000000002 0.0
8.0 1.2000000000000002 0.0
8.4 1.2000000000000002 0.0
8.8 1.2000000000000002 0.0
9.200000000000001 1.2000000000000002 0.0
9.600000000000001 1.2000000000000002 0.0
10.0 1.2000000000000002 0.0
10.4 1.2000000000000002 0.0
10.8 1.2000000000000002 0.0
11.200000000000001 1.2000000000000002 0.0
11.600000000000001 1.2000000000000002 0.0
12.0 1.2000000000000002 0.0
12.4 1.2000000000000002 0.0
12.8 1.2000000000000002 0.0
13.200000000000001 1.2000000000000002 0.0
13.600000000000001 1.2000000000000002 0.0
14.0 1.2000000000000002 0.0
14.4 1.2000000000000002 0.0
14.8 1.2000000000000002 0.0
15.200000000000001 1.2000000000000002 0.0
15.600000000000001 1.2000000000000002 0.0
16.0 1.2000000000000002 0.0
0.0 1.3 0.0
0.4 1.3 0.0
0.8 1.3 0.0
1.2000000000000002 1.3 0.0
1.6 1.3 0.0
2.0 1.3 0.0
2.4000000000000004 1.3 0.0
2.8000000000000003 1.3 0.0
3.2 1.3 0.0
3.6 1.3 0.0
4.0 1.3 0.0
4.4 1.3 0.0
4.800000000000001 1.3 0.0
5.2 1.3 0.0
5.6000000000000005 1.3 0.0
6.0 1.3 0.0
6.4 1.3 0.0
6.800000000000001 1.3 0.0
7.2 1.3 0.0
7.6000000000000005 1.3 0.0
8.0 1.3 0.0
8.4 1.3 0.0
8.8 1.3 0.0
9.200000000000001 1.3 0.0
9.600000000000001 1.3 0.0
10.0 1.3 0.0
10.4 1.3 0.0
10.8 1.3 0.0
11.200000000000001 1.3 0.0
11.600000000000001 1.3 0.0
12.0 1.3 0.0
12.4 1.3 0.0
12.8 1.3 0.0
13.200000000000001 1.3 0.0
13.600000000000001 1.3 0.0
14.0 1.3 0.0
14.4 1.3 0.0
14.8 1.3 0.0
15.200000000000001 1.3 0.0
15.600000000000001 1.3 0.0
16.0 1.3 0.0
0.0 1.4000000000000001 0.0
0.4 1.4000000000000001 0.0
0.8 1.4000000000000001 0.0
1.2000000000000002 1.4000000000000001 0.0
1.6 1.4000000000000001 0.0
2.0 1.4000000000000001 0.0
2.4000000000000004 1.4000000000000001 0.0
2.8000000000000003 1.4000000000000001 0.0
3.2 1.4000000000000001 0.0
3.6 1.4000000000000001 0.0
4.0 1.4000000000000001 0.0
4.4 1.4000000000000001 0.0
4.800000000000001 1.4000000000000001 0.0
5.2 1.4000000000000001 0.0
5.6000000000000005 1.4000000000000001 0.0
6.0 1.4000000000000001 0.0
6.4 1.4000000000000001 0.0
6.800000000000001 1.4000000000000001 0.0
7.2 1.4000000000000001 0.0
7.6000000000000005 1.4000000000000001 0.0
8.0 1.4000000000000001 0.0
8.4 1.4000000000000001 0.0
8.8 1.4000000000000001 0.0
9.200000000000001 1.4000000000000001 0.0
9.600000000000001 1.4000000000000001 0.0
10.0 1.4000000000000001 0.0
10.4 1.4000000000000001 0.0
10.8 1.4000000000000001 0.0
11.200000000000001 1.4000000000000001 0.0
11.600000000000001 1.4000000000000001 0.0
12.0 1.4000000000000001 0.0
12.4 1.4000000000000001 0.0
12.8 1.4000000000000001 0.0
13.200000000000001 1.4000000000000001 0.0
13.600000000000001 1.4000000000000001 0.0
14.0 1.4000000000000001 0.0
14.4 1.4000000000000001 0.0
14.8 1.4000000000000001 0.0
15.200000000000001 1.4000000000000001 0.0
15.600000000000001 1.4000000000000001 0.0
16.0 1.4000000000000001 0.0
0.0 1.5 0.0
0.4 1.5 0.0
0.8 1.5 0.0
1.2000000000000002 1.5 0.0
1.6 1.5 0.0
2.0 1.5 0.0
2.4000000000000004 1.5 0.0
2.8000000000000003 1.5 0.0
3.2 1.5 0.0
3.6 1.5 0.0
4.0 1.5 0.0
4.4 1.5 0.0
4.800000000000001 1.5 0.0
5.2 1.5 0.0
5.6000000000000005 1.5 0.0
6.0 1.5 0.0
6.4 1.5 0.0
6.800000000000001 1.5 0.0
7.2 1.5 0.0
7.6000000000000005 1.5 0.0
8.0 1.5 0.0
8.4 1.5 0.0
8.8 1.5 0.0
9.200000000000001 1.5 0.0
9.600000000000001 1.5 0.0
10.0 1.5 0.0
10.4 1.5 0.0
10.8 1.5 0.0
11.200000000000001 1.5 0.0
11.600000000000001 1.5 0.0
12.0 1.5 0.0
12.4 1.5 0.0
12.8 1.5 0.0
13.200000000000001 1.5 0.0
13.600000000000001 1.5 0.0
14.0 1.5 0.0
14.4 1.5 0.0
14.8 1.5 0.0
15.200000000000001 1.5 0.0
15.600000000000001 1.5 0.0
16.0 1.5 0.0
0.0 1.6 0.0
0.4 1.6 0.0
0.8 1.6 0.0
1.2000000000000002 1.6 0.0
1.6 1.6 0.0
2.0 1.6 0.0
2.4000000000000004 1.6 0.0
2.8000000000000003 1.6 0.0
3.2 1.6 0.0
3.6 1.6 0.0
4.0 1.6 0.0
4.4 1.6 0.0
4.800000000000001 1.6 0.0
5.2 1.6 0.0
5.6000000000000005 1.6 0.0
6.0 1.6 0.0
6.4 1.6 0.0
6.800000000000001 1.6 0.0
7.2 1.6 0.0
7.6000000000000005 1.6 0.0
8.0 1.6 0.0
8.4 1.6 0.0
8.8 1.6 0.0
9.200000000000001 1.6 0.0
9.600000000000001 1.6 0.0
10.0 1.6 0.0
10.4 1.6 0.0
10.8 1.6 0.0
11.200000000000001 1.6 0.0
11.600000000000001 1.6 0.0
12.0 1.6 0.0
12.4 1.6 0.0
12.8 1.6 0.0
13.200000000000001 1.6 0.0
13.600000000000001 1.6 0.0
14.0 1.6 0.0
14.4 1.6 0.0
14.8 1.6 0.0
15.200000000000001 1.6 0.0
15.600000000000001 1.6 0.0
16.0 1.6 0.0
0.0 1.7000000000000002 0.0
0.4 1.7000000000000002 0.0
0.8 1.7000000000000002 0.0
1.2000000000000002 1.7000000000000002 0.0
1.6 1.7000000000000002 0.0
2.0 1.7000000000000002 0.0
2.4000000000000004 1.7000000000000002 0.0
2.8000000000000003 1.7000000000000002 0.0
3.2 1.7000000000000002 0.0
3.6 1.7000000000000002 0.0
4.0 1.7000000000000002 0.0
4.4 1.7000000000000002 0.0
4.800000000000001 1.7000000000000002 0.0
5.2 1.7000000000000002 0.0
5.6000000000000005 1.7000000000000002 0.0
6.0 1.7000000000000002 0.0
6.4 1.7000000000000002 0.0
6.800000000000001 1.7000000000000002 0.0
7.2 1.7000000000000002 0.0
7.6000000000000005 1.7000000000000002 0.0
8.0 1.7000000000000002 0.0
8.4 1.7000000000000002 0.0
8.8 1.7000000000000002 0.0
9.200000000000001 1.7000000000000002 0.0
9.600000000000001 1.7000000000000002 0.0
10.0 1.7000000000000002 0.0
10.4 1.7000000000000002 0.0
10.8 1.7000000000000002 0.0
11.200000000000001 1.7000000000000002 0.0
11.600000000000001 1.7000000000000002 0.0
12.0 1.7000000000000002 0.0
12.4 1.7000000000000002 0.0
12.8 1.7000000000000002 0.0
13.200000000000001 1.7000000000000002 0.0
13.600000000000001 1.7000000000000002 0.0
14.0 1.7000000000000002 0.0
14.4 1.7000000000000002 0.0
14.8 1.7000000000000002 0.0
15.200000000000001 1.7000000000000002 0.0
15.600000000000001 1.7000000000000002 0.0
16.0 1.7000000000000002 0.0
0.0 1.8 0.0
0.4 1.8 0.0
0.8 1.8 0.0
1.2000000000000002 1.8 0.0
1.6 1.8 0.0
2.0 1.8 0.0
2.4000000000000004 1.8 0.0
2.8000000000000003 1.8 0.0
3.2 1.8 0.0
3.6 1.8 0.0
4.0 1.8 0.0
4.4 1.8 0.0
4.800000000000001 1.8 0.0
5.2 1.8 0.0
5.6000000000000005 1.8 0.0
6.0 1.8 0.0
6.4 1.8 0.0
6.800000000000001 1.8 0.0
7.2 1.8 0.0
7.6000000000000005 1.8 0.0
8.0 1.8 0.0
8.4 1.8 0.0
8.8 1.8 0.0
9.200000000000001 1.8 0.0
9.600000000000001 1.8 0.0
10.0 1.8 0.0
10.4 1.8 0.0
10.8 1.8 0.0
11.200000000000001 1.8 0.0
11.600000000000001 1.8 0.0
12.0 1.8 0.0
12.4 1.8 0.0
12.8 1.8 0.0
13.200000000000001 1.8 0.0
13.600000000000001 1.8 0.0
14.0 1.8 0.0
14.4 1.8 0.0
14.8 1.8 0.0
15.200000000000001 1.8 0.0
15.600000000000001 1.8 0.0
16.0 1.8 0.0
0.0 1.9000000000000001 0.0
0.4 1.9000000000000001 0.0
0.8 1.9000000000000001 0.0
1.2000000000000002 1.9000000000000001 0.0
1.6 1.9000000000000001 0.0
2.0 1.9000000000000001 0.0
2.4000000000000004 1.9000000000000001 0.0
2.8000000000000003 1.9000000000000001 0.0
3.2 1.9000000000000001 0.0
3.6 1.9000000000000001 0.0
4.0 1.9000000000000001 0.0
4.4 1.9000000000000001 0.0
4.800000000000001 1.9000000000000001 0.0
5.2 1.9000000000000001 0.0
5.6000000000000005 1.9000000000000001 0.0
6.0 1.9000000000000001 0.0
6.4 1.9000000000000001 0.0
6.800000000000001 1.9000000000000001 0.0
7.2 1.9000000000000001 0.0
7.6000000000000005 1.9000000000000001 0.0
8.0 1.9000000000000001 0.0
8.4 1.9000000000000001 0.0
8.8 1.9000000000000001 0.0
9.200000000000001 1.9000000000000001 0.0
9.600000000000001 1.9000000000000001 0.0
10.0 1.9000000000000001 0.0
10.4 1.9000000000000001 0.0
10.8 1.9000000000000001 0.0
11.200000000000001 1.9000000000000001 0.0
11.600000000000001 1.9000000000000001 0.0
12.0 1.9000000000000001 0.0
12.4 1.9000000000000001 0.0
12.8 1.9000000000000001 0.0
13.200000000000001 1.9000000000000001 0.0
13.600000000000001 1.9000000000000001 0.0
14.0 1.9000000000000001 0.0
14.4 1.9000000000000001 0.0
14.8 1.9000000000000001 0.0
15.200000000000001 1.9000000000000001 0.0
15.600000000000001 1.9000000000000001 0.0
16.0 1.9000000000000001 0.0
0.0 2.0 0.0
0.4 2.0 0.0
0.8 2.0 0.0
1.2000000000000002 2.0 0.0
1.6 2.0 0.0
2.0 2.0 0.0
2.4000000000000004 2.0 0.0
2.8000000000000003 2.0 0.0
3.2 2.0 0.0
3.6 2.0 0.0
4.0 2.0 0.0
4.4 2.0 0.0
4.800000000000001 2.0 0.0
5.2 2.0 0.0
5.6000000000000005 2.0 0.0
6.0 2.0 0.0
6.4 2.0 0.0
6.800000000000001 2.0 0.0
7.2 2.0 0.0
7.6000000000000005 2.0 0.0
8.0 2.0 0.0
8.4 2.0 0.0
8.8 2.0 0.0
9.200000000000001 2.0 0.0
9.600000000000001 2.0 0.0
10.0 2.0 0.0
10.4 2.0 0.0
10.8 2.0 0.0
11.200000000000001 2.0 0.0
11.600000000000001 2.0 0.0
12.0 2.0 0.0
12.4 2.0 0.0
12.8 2.0 0.0
13.200000000000001 2.0 0.0
13.600000000000001 2.0 0.0
14.0 2.0 0.0
14.4 2.0 0.0
14.8 2.0 0.0
15.200000000000001 2.0 0.0
15.600000000000001 2.0 0.0
16.0 2.0 0.0
CELLS 800 4000
4 0 1 42 41
4 1 2 43 42
4 2 3 44 43
4 3 4 45 44
4 4 5 46 45
4 5 6 47 46
4 6 7 48 47
4 7 8 49 48
4 8 9 50 49
4 9 10 51 50
4 10 11 52 51
4 11 12 53 52
4 12 13 54 53
4 13 14 55 54
4 14 15 56 55
4 15 16 57 56
4 16 17 58 57
4 17 18 59 58
4 18 19 60 59
4 19 20 61 60
4 20 21 62 61
4 21 22 63 62
4 22 23 64 63
4 23 24 65 64
4 24 25 66 65
4 25 26 67 66
4 26 27 68 67
4 27 28 69 68
4 28 29 70 69
4 29 30 71 70
4 30 31 72 71
4 31 32 73 72
4 32 33 74 73
4 33 34 75 74
4 34 35 76 75
4 35 36 77 76
4 36 37 78 77
4 37 38 79 78
4 38 39 80 79
4 39 40 81 80
4 41 42 83 82
4 42 43 84 83
4 43 44 85 84
4 44 45 86 85
4 45 46 87 86
4 46 47 88 87
4 47 48 89 88
4 48 49 90 89
4 49 50 91 90
4 50 51 92 91
4 51 52 93 92
4 52 53 94 93
4 53 54 95 94
4 54 55 96 95
4 55 56 97 96
4 56 57 98 97
4 57 58 99 98
4 58 59 100 99
4 59 60 101 100
4 60 61 102 101
4 61 62 103 102
4 62 63 104 103
4 63 64 105 104
4 64 65 106 105
4 65 66 107 106
4 66 67 108 107
4 67 68 109 108
4 68 69 110 109
4 69 70 111 110
4 70 71 112 111
4 71 72 113 112
4 72 73 114 113
4 73 74 115 114
4 74 75 116 115
4 75 76 117 116
4 76 77 118 117
4 77 78 119 118
4 78 79 120 119
4 79 80 121 120
4 80 81 122 121
4 82 83 124 123
4 83 84 125 124
4 84 85 126 125
4 85 86 127 126
4 86 87 128 127
4 87 88 129 128
4 88 89 130 129
4 89 90 131 130
4 90 91 132 131
4 91 92 133 132
4 92 93 134 133
4 93 94 135 134
4 94 95 136 135
4 95 96 137 136
4 96 97 138 137
4 97 98 139 138
4 98 99 140 139
4 99 100 141 140
4 100 101 142 141
4 101 102 143 142
4 102 103 144 143
4 103 104 145 144
4 104 105 146 145
4 105 106 147 146
4 106 107 148 147
4 107 108 149 148
4 108 109 150 149
4 109 110 151 150
4 110 111 152 151
4 111 112 153 152
4 112 113 154 153
4 113 114 155 154
4 114 115 156 155
4 115 116 157 156
4 116 117 158 157
4 117 118 159 158
4 118 119 160 159
4 119 120 161 160
4 120 121 162 161
4 121 122 163 162
4 123 124 165 164
4 124 125 166 165
4 125 126 167 166
4 126 127 168 167
4 127 128 169 168
4 128 129 170 169
4 129 130 171 170
4 130 131 172 171
4 131 132 173 172
4 132 133 174 173
4 133 134 175 174
4 134 135 176 175
4 135 136 177 176
4 136 137 178 177
4 137 138 179 178
4 138 139 180 179
4 139 140 181 180
4 140 141 182 181
4 141 142 183 182
4 142 143 184 183
4 143 144 185 184
4 144 145 186 185
4 145 146 187 186
4 146 147 188 187
4 147 148 189 188
4 148 149 190 189
4 149 150 191 190
4 150 151 192 191
4 151 152 193 192
4 152 153 194 193
4 153 154 195 194
4 154 155 196 195
4 155 156 197 196
4 156 157 198 197
4 157 158 199 198
4 158 159 200 199
4 159 160 201 200
4 160 161 202 201
4 161 162 203 202
4 162 163 204 203
4 164 165 206 205
4 165 166 207 206
4 166 167 208 207
4 167 168 209 208
4 168 169 210 209
4 169 170 211 210
4 170 171 212 211
4 171 172 213 212
4 172 173 214 213
4 173 174 215 214
4 174 175 216 215
4 175 176 217 216
4 176 177 218 217
4 177 178 219 218
4 178 179 220 219
4 179 180 221 220
4 180 181 222 221
4 181 182 223 222
4 182 183 224 223
4 183 184 225 224
4 184 185 226 225
4 185 186 227 226
4 186 187 228 227
4 187 188 229 228
4 188 189 230 229
4 189 190 231 230
4 190 191 232 231
4 191 192 233 232
4 192 193 234 233
4 193 194 235 234
4 194 195 236 235
4 195 196 237 236
4 196 197 238 237
4 197 198 239 238
4 198 199 240 239
4 199 200 241 240
4 200 201 242 241
4 201 202 243 242
4 202 203 244 243
4 203 204 245 244
4 205 206 247 246
4 206 207 248 247
4 207 208 249 248
4 208 209 250 249
4 209 210 251 250
4 210 211 252 251
4 211 212 253 252
4 212 213 254 253
4 213 214 255 254
4 214 215 256 255
4 215 216 257 256
4 216 217 258 257
4 217 218 259 258
4 218 219 260 259
4 219 220 261 260
4 220 221 262 261
4 221 222 263 262
4 222 223 264 263
4 223 224 265 264
4 224 225 266 265
4 225 226 267 266
4 226 227 268 267
4 227 228 269 268
4 228 229 270 269
4 229 230 271 270
4 230 231 272 271
4 231 232 273 272
4 232 233 274 273
4 233 234 275 274
4 234 235 276 275
4 235 236 277 276
4 236 237 278 277
4 237 238 279 278
4 238 239 280 279
4 239 240 281 280
4 240 241 282 281
4 241 242 283 282
4 242 243 284 283
4 243 244 285 284
4 244 245 286 285
4 246 247 288 287
4 247 248 289 288
4 248 249 290 289
4 249 250 291 290
4 250 251 292 291
4 251 252 293 292
4 252 253 294 293
4 253 254 295 294
4 254 255 296 295
4 255 256 297 296
4 256 257 298 297
4 257 258 299 298
4 258 259 300 299
4 259 260 301 300
4 260 261 302 301
4 261 262 303 302
4 262 263 304 303
4 263 264 305 304
4 264 265 306 305
4 265 266 307 306
4 266 267 308 307
4 267 268 309 308
4 268 269 310 309
4 269 270 311 310
4 270 271 312 311
4 271 272 313 312
4 272 273 314 313
4 273 274 315 314
4 274 275 316 315
4 275 276 317 316
4 276 277 318 317
4 277 278 319 318
4 278 279 320 319
4 279 280 321 320
4 280 281 322 321
4 281 282 323 322
4 282 283 324 323
4 283 284 325 324
4 284 285 326 325
4 285 286 327 326
4 287 288 329 328
4 288 289 330 329
4 289 290 331 330
4 290 291 332 331
4 291 292 333 332
4 292 293 334 333
4 293 294 335 334
4 294 295 336 335
4 295 296 337 336
4 296 297 338 337
4 297 298 339 338
4 298 299 340 339
4 299 300 341 340
4 300 301 342 341
4 301 302 343 342
4 302 303 344 343
4 303 304 345 344
4 304 305 346 345
4 305 306 347 346
4 306 307 348 347
4 307 308 349 348
4 308 309 350 349
4 309 310 351 350
4 310 311 352 351
4 311 312 353 352
4 312 313 354 353
4 313 314 355 354
4 314 315 356 355
4 315 316 357 356
4 316 317 358 357
4 317 318 359 358
4 318 319 360 359
4 319 320 361 360
4 320 321 362 361
4 321 322 363 362
4 322 323 364 363
4 323 324 365 364
4 324 325 366 365
4 325 326 367 366
4 326 327 368 367
4 328 329 370 369
4 329 330 371 370
4 330 331 372 371
4 331 332 373 372
4 332 333 374 373
4 333 334 375 374
4 334 335 376 375
4 335 336 377 376
4 336 337 378 377
4 337 338 379 378
4 338 339 380 379
4 339 340 381 380
4 340 341 382 381
4 341 342 383 382
4 342 343 384 383
4 343 344 385 384
4 344 345 386 385
4 345 346 387 386
4 346 347 388 387
4 347 348 389 388
4 348 349 390 389
4 349 350 391 390
4 350 351 392 391
4 351 352 393 392
4 352 353 394 393
4 353 354 395 394
4 354 355 396 395
4 355 356 397 396
4 356 357 398 397
4 357 358 399 398
4 358 359 400 399
4 359 360 401 400
4 360 361 402 401
4 361 362 403 402
4 362 363 404 403
4 363 364 405 404
4 364 365 406 405
4 365 366 407 406
4 366 367 408 407
4 367 368 409 408
4 369 370 411 410
4 370 371 412 411
4 371 372 413 412
4 372 373 414 413
4 373 374 415 414
4 374 375 416 415
4 375 376 417 416
4 376 377 418 417
4 377 378 419 418
4 378 379 420 419
4 379 380 421 420
4 380 381 422 421
4 381 382 423 422
4 382 383 424 423
4 383 384 425 424
4 384 385 426 425
4 385 386 427 426
4 386 387 428 427
4 387 388 429 428
4 388 389 430 429
4 389 390 431 430
4 390 391 432 431
4 391 392 433 432
4 392 393 434 433
4 393 394 435 434
4 394 395 436 435
4 395 396 437 436
4 396 397 438 437
4 397 398 439 438
4 398 399 440 439
4 399 400 441 440
4 400 401 442 441
4 401 402 443 442
4 402 403 444 443
4 403 404 445 444
4 404 405 446 445
4 405 406 447 446
4 406 407 448 447
4 407 408 449 448
4 408 409 450 449
4 410 411 452 451
4 411 412 453 452
4 412 413 454 453
4 413 414 455 454
4 414 415 456 455
4 415 416 457 456
4 416 417 458 457
4 417 418 459 458
4 418 419 460 459
4 419 420 461 460
4 420 421 462 461
4 421 422 463 462
4 422 423 464 463
4 423 424 465 464
4 424 425 466 465
4 425 426 467 466
4 426 427 468 467
4 427 428 469 468
4 428 429 470 469
4 429 430 471 470
4 430 431 472 471
4 431 432 473 472
4 432 433 474 473
4 433 434 475 474
4 434 435 476 475
4 435 436 477 476
4 436 437 478 477
4 437 438 479 478
4 438 439 480 479
4 439 440 481 480
4 440 441 482 481
4 441 442 483 482
4 442 443 484 483
4 443 444 485 484
4 444 445 486 485
4 445 446 487 486
4 446 447 488 487
4 447 448 489 488
4 448 449 490 489
4 449 450 491 490
4 451 452 493 492
4 452 453 494 493
4 453 454 495 494
4 454 455 496 495
4 455 456 497 496
4 456 457 498 497
4 457 458 499 498
4 458 459 500 499
4 459 460 501 500
4 460 461 502 501
4 461 462 503 502
4 462 463 504 503
4 463 464 505 504
4 464 465 506 505
4 465 466 507 506
4 466 467 508 507
4 467 468 509 508
4 468 469 510 509
4 469 470 511 510
4 470 471 512 511
4 471 472 513 512
4 472 473 514 513
4 473 474 515 514
4 474 475 516 515
4 475 476 517 516
4 476 477 518 517
4 477 478 519 518
4 478 479 520 519
4 479 480 521 520
4 480 481 522 521
4 481 482 523 522
4 482 483 524 523
4 483 484 525 524
4 484 485 526 525
4 485 486 527 526
4 486 487 528 527
4 487 488 529 528
4 488 489 530 529
4 489 490 531 530
4 490 491 532 531
4 492 493 534 533
4 493 494 535 534
4 494 495 536 535
4 495 496 537 536
4 496 497 538 537
4 497 498 539 538
4 498 499 540 539
4 499 500 541 540
4 500 501 542 541
4 501 502 543 542
4 502 503 544 543
4 503 504 545 544
4 504 505 546 545
4 505 506 547 546
4 506 507 548 547
4 507 508 549 548
4 508 509 550 549
4 509 510 551 550
4 510 511 552 551
4 511 512 553 552
4 512 513 554 553
4 513 514 555 554
4 514 515 556 555
4 515 516 557 556
4 516 517 558 557
4 517 518 559 558
4 518 519 560 559
4 519 520 561 560
4 520 521 562 561
4 521 522 563 562
4 522 523 564 563
4 523 524 565 564
4 524 525 566 565
4 525 526 567 566
4 526 527 568 567
4 527 528 569 568
4 528 529 570 569
4 529 530 571 570
4 530 531 572 571
4 531 532 573 572
4 533 534 575 574
4 534 535 576 575
4 535 536 577 576
4 536 537 578 577
4 537 538 579 578
4 538 539 580 579
4 539 540 581 580
4 540 541 582 581
4 541 542 583 582
4 542 543 584 583
4 543 544 585 584
4 544 545 586 585
4 545 546 587 586
4 546 547 588 587
4 547 548 589 588
4 548 549 590 589
4 549 550 591 590
4 550 551 592 591
4 551 552 593 592
4 552 553 594 593
4 553 554 595 594
4 554 555 596 595
4 555 556 597 596
4 556 557 598 597
4 557 558 599 598
4 558 559 600 599
4 559 560 601 600
4 560 561 602 601
4 561 562 603 602
4 562 563 604 603
4 563 564 605 604
4 564 565 606 605
4 565 566 607 606
4 566 567 608 607
4 567 568 609 608
4 568 569 610 609
4 569 570 611 610
4 570 571 612 611
4 571 572 613 612
4 572 573 614 613
4 574 575 616 615
4 575 576 617 616
4 576 577 618 617
4 577 578 619 618
4 578 579 620 619
4 579 580 621 620
4 580 581 622 621
4 581 582 623 622
4 582 583 624 623
4 583 584 625 624
4 584 585 626 625
4 585 586 627 626
4 586 587 628 627
4 587 588 629 628
4 588 589 630 629
4 589 590 631 630
4 590 591 632 631
4 591 592 633 632
4 592 593 634 633
4 593 594 635 634
4 594 595 636 635
4 595 596 637 636
4 596 597 638 637
4 597 598 639 638
4 598 599 640 639
4 599 600 641 640
4 600 601 642 641
4 601 602 643 642
4 602 603 644 643
4 603 604 645 644
4 604 605 646 645
4 605 606 647 646
4 606 607 648 647
4 607 608 649 648
4 608 609 650 649
4 609 610 651 650
4 610 611 652 651
4 611 612 653 652
4 612 613 654 653
4 613 614 655 654
4 615 616 657 656
4 616 617 658 657
4 617 618 659 658
4 618 619 660 659
4 619 620 661 660
4 620 621 662 661
4 621 622 663 662
4 622 623 664 663
4 623 624 665 664
4 624 625 666 665
4 625 626 667 666
4 626 627 668 667
4 627 628 669 668
4 628 629 670 669
4 629 630 671 670
4 630 631 672 671
4 631 632 673 672
4 632 633 674 673
4 633 634 675 674
4 634 635 676 675
4 635 636 677 676
4 636 637 678 677
4 637 638 679 678
4 638 639 680 679
4 639 640 681 680
4 640 641 682 681
4 641 642 683 682
4 642 643 684 683
4 643 644 685 684
4 644 645 686 685
4 645 646 687 686
4 646 647 688 687
4 647 648 689 688
4 648 649 690 689
4 649 650 691 690
4 650 651 692 691
4 651 652 693 692
4 652 653 694 693
4 653 654 695 694
4 654 655 696 695
4 656 657 698 697
4 657 658 699 698
4 658 659 700 699
4 659 660 701 700
4 660 661 702 701
4 661 662 703 702
4 662 663 704 703
4 663 664 705 704
4 664 665 706 705
4 665 666 707 706
4 666 667 708 707
4 667 668 709 708
4 668 669 710 709
4 669 670 711 710
4 670 671 712 711
4 671 672 713 712
4 672 673 714 713
4 673 674 715 714
4 674 675 716 715
4 675 676 717 716
4 676 677 718 717
4 677 678 719 718
4 678 679 720 719
4 679 680 721 720
4 680 681 722 721
4 681 682 723 722
4 682 683 724 723
4 683 684 725 724
4 684 685 726 725
4 685 686 727 726
4 686 687 728 727
4 687 688 729 728
4 688 689 730 729
4 689 690 731 730
4 690 691 732 731
4 691 692 733 732
4 692 693 734 733
4 693 694 735 734
4 694 695 736 735
4 695 696 737 736
4 697 698 739 738
4 698 699 740 739
4 699 700 741 740
4 700 701 742 741
4 701 702 743 742
4 702 703 744 743
4 703 704 745 744
4 704 705 746 745
4 705 706 747 746
4 706 707 748 747
4 707 708 749 748
4 708 709 750 749
4 709 710 751 750
4 710 711 752 751
4 711 712 753 752
4 712 713 754 753
4 713 714 755 754
4 714 715 756 755
4 715 716 757 756
4 716 717 758 757
4 717 718 759 758
4 718 719 760 759
4 719 720 761 760
4 720 721 762 761
4 721 722 763 762
4 722 723 764 763
4 723 724 765 764
4 724 725 766 765
4 725 726 767 766
4 726 727 768 767
4 727 728 769 768
4 728 729 770 769
4 729 730 771 770
4 730 731 772 771
4 731 732 773 772
4 732 733 774 773
4 733 734 775 774
4 734 735 776 775
4 735 736 777 776
4 736 737 778 777
4 738 739 780 779
4 739 740 781 780
4 740 741 782 781
4 741 742 783 782
4 742 743 784 783
4 743 744 785 784
4 744 745 786 785
4 745 746 787 786
4 746 747 788 787
4 747 748 789 788
4 748 749 790 789
4 749 750 791 790
4 750 751 792 791
4 751 752 793 792
4 752 753 794 793
4 753 754 795 794
4 754 755 796 795
4 755 756 797 796
4 756 757 798 797
4 757 758 799 798
4 758 759 800 799
4 759 760 801 800
4 760 761 802 801
4 761 762 803 802
4 762 763 804 803
4 763 764 805 804
4 764 765 806 805
4 765 766 807 806
4 766 767 808 807
4 767 768 809 808
4 768 769 810 809
4 769 770 811 810
4 770 771 812 811
4 771 772 813 812
4 772 773 814 813
4 773 774 815 814
4 774 775 816 815
4 775 776 817 816
4 776 777 818 817
4 777 778 819 818
4 779 780 821 820
4 780 781 822 821
4 781 782 823 822
4 782 783 824 823
4 783 784 825 824
4 784 785 826 825
4 785 786 827 826
4 786 787 828 827
4 787 788 829 828
4 788 789 830 829
4 789 790 831 830
4 790 791 832 831
4 791 792 833 832
4 792 793 834 833
4 793 794 835 834
4 794 795 836 835
4 795 796 837 836
4 796 797 838 837
4 797 798 839 838
4 798 799 840 839
4 799 800 841 840
4 800 801 842 841
4 801 802 843 842
4 802 803 844 843
4 803 804 845 844
4 804 805 846 845
4 805 806 847 846
4 806 807 848 847
4 807 808 849 848
4 808 809 850 849
4 809 810 851 850
4 810 811 852 851
4 811 812 853 852
4 812 813 854 853
4 813 814 855 854
4 814 815 856 855
4 815 816 857 856
4 816 817 858 857
4 817 818 859 858
4 818 819 860 859
CELL_TYPES 800
9
9
9
9
9
9
9
9
9
9
9
9
9
9
9
9
9
9
9
9
9
9
9
9
9
9
9
9
9
9
9
9
9
9
9
9
9
9
9
9
9
9
9
9
9
9
9
9
9
9
9
9
9
9
9
9
9
9
9
9
9
9
9
9
9
9
9
9
9
9
9
9
9
9
9
9
9
9
9
9
9
9
9
9
9
9
9
9
9
9
9
9
9
9
9
9
9
9
9
9
9
9
9
9
9
9
9
9
9
9
9
9
9
9
9
9
9
9
9
9
9
9
9
9
9
9
9
9
9
9
9
9
9
9
9
9
9
9
9
9
9
9
9
9
9
9
9
9
9
9
9
9
9
9
9
9
9
9
9
9
9
9
9
9
9
9
9
9
9
9
9
9
9
9
9
9
9
9
9
9
9
9
9
9
9
9
9
9
9
9
9
9
9
9
9
9
9
9
9
9
9
9
9
9
9
9
9
9
9
9
9
9
9
9
9
9
9
9
9
9
9
9
9
9
9
9
9
9
9
9
9
9
9
9
9
9
9
9
9
9
9
9
9
9
9
9
9
9
9
9
9
9
9
9
9
9
9
9
9
9
9
9
9
9
9
9
9
9
9
9
9
9
9
9
9
9
9
9
9
9
9
9
9
9
9
9
9
9
9
9
9
9
9
9
9
9
9
9
9
9
9
9
9
9
9
9
9
9
9
9
9
9
9
9
9
9
9
9
9
9
9
9
9
9
9
9
9
9
9
9
9
9
9
9
9
9
9
9
9
9
9
9
9
9
9
9
9
9
9
9
9
9
9
9
9
9
9
9
9
9
9
9
9
9
9
9
9
9
9
9
9
9
9
9
9
9
9
9
9
9
9
9
9
9
9
9
9
9
9
9
9
9
9
9
9
9
9
9
9
9
9
9
9
9
9
9
9
9
9
9
9
9
9
9
9
9
9
9
9
9
9
9
9
9
9
9
9
9
9
9
9
9
9
9
9
9
9
9
9
9
9
9
9
9
9
9
9
9
9
9
9
9
9
9
9
9
9
9
9
9
9
9
9
9
9
9
9
9
9
9
9
9
9
9
9
9
9
9
9
9
9
9
9
9
9
9
9
9
9
9
9
9
9
9
9
9
9
9
9
9
9
9
9
9
9
9
9
9
9
9
9
9
9
9
9
9
9
9
9
9
9
9
9
9
9
9
9
9
9
9
9
9
9
9
9
9
9
9
9
9
9
9
9
9
9
9
9
9
9
9
9
9
9
9
9
9
9
9
9
9
9
9
9
9
9
9
9
9
9
9
9
9
9
9
9
9
9
9
9
9
9
9
9
9
9
9
9
9
9
9
9
9
9
9
9
9
9
9
9
9
9
9
9
9
9
9
9
9
9
9
9
9
9
9
9
9
9
9
9
9
9
9
9
9
9
9
9
9
9
9
9
9
9
9
9
9
9
9
9
9
9
9
9
9
9
9
9
9
9
9
9
9
9
9
9
9
9
9
9
9
9
9
9
9
9
9
9
9
9
9
9
9
9
9
9
9
9
9
9
9
9
9
9
9
9
9
9
9
9
9
9
9
9
9
9
9
9
9
9
9
9
9
9
9
9
9
9
9
9
9
9
9
9
9
9
9
9
9
9
9
9
9
9
9
9
9
9
9
9
9
9
9
9
9
9
9
9
9
9
9
9
9
9
9
9
9
9
9
9
9
9
9
9
9
9
9
9
9
9
9
9
9
9
9
9
9
9
9
9
9
9
9
9
9
9
9
9
9
9
9
9
9
9
9
9
9
9
9
9
9
9
9
9
9
9
9
9
9
9
9
POINT_DATA 861
SCALARS Disp float 2
LOOKUP_TABLE default
0.0 0.0
0.003062041828818757 -0.09071733233424012
0.003951212882411821 -0.17588459834028647
0.004638378455079434 -0.2605852114552686
0.005442759442088917 -0.3450008223163352
0.006476511516642407 -0.428999879590378
0.007939261589345293 -0.5124032673048468
0.009963154180048298 -0.5950326434879731
0.012688620757473745 -0.6766620377180276
0.016279939687952095 -0.756990992083254
0.020942194764620163 -0.8356136663061889
0.02697273885095619 -0.9119786296104458
0.03480667869342045 -0.9853537093260318
0.0450003935836661 -1.054828380143085
0.05821082194809711 -1.1193295864340271
0.07510591638783051 -1.1776349298030757
0.09621596402036522 -1.228381941116284
0.1217497653345305 -1.2700936576973034
0.15143653768580242 -1.3012908469797608
0.18446858847670813 -1.3207153828029947
0.21951085911015755 -1.3275535586777536
0.25455312974360633 -1.3207153828029699
0.28758518053450904 -1.301290846979709
0.3172719528857753 -1.2700936576972286
0.34280575419993337 -1.2283819411161903
0.3639158018324606 -1.17763492980297
0.38081089627218717 -1.119329586433911
0.3940213246366106 -1.0548283801429612
0.40421503952684834 -0.9853537093259043
0.41204897936930457 -0.9119786296103181
0.4180795234556331 -0.835613666306064
0.4227417785322948 -0.7569909920831351
0.42633309746276793 -0.676662037717916
0.429058564040189 -0.5950326434878711
0.43108245663088857 -0.512403267304755
0.4325452067035889 -0.428999879590299
0.43357895877814123 -0.34500082231626916
0.43438333976515026 -0.26058521145521685
0.43507050533781766 -0.17588459834024847
0.43595967639141014 -0.09071733233421701
0.4390217182202274 0.0
0.02265355861267275 -0.0014456174912213598
0.024648000470743697 -0.09075979408387634
0.02514287739111666 -0.17595864222406507
0.025772606957983918 -0.26065809278970403
0.026493976620041576 -0.34509045327103227
0.02740505367643362 -0.42914347420906734
0.028696127092952772 -0.5126415124784517
0.03049835617167313 -0.5953938534188518
0.03293813537680341 -0.6771810936894607
0.036156119361816966 -0.7577081199163885
0.04033059358289586 -0.8365840520629435
0.04571807035539951 -0.9132863024619138
0.052698739318052815 -0.9871181948018475
0.06179087934497898 -1.0571984029432053
0.07360557584405669 -1.122471680535294
0.08877152496268814 -1.1817031708320984
0.10778723416592521 -1.2334754457733201
0.1308537681588871 -1.2762138998778183
0.15774213860086522 -1.3083145832167766
0.1877243819928992 -1.3283907500471452
0.21951085911015447 -1.3354807934151673
0.2512973362274092 -1.3283907500471202
0.2812795796194404 -1.308314583216724
0.3081679500614137 -1.276213899877742
0.3312344840543695 -1.233475445773225
0.35025019325760015 -1.181703170831991
0.36541614237622533 -1.1224716805351762
0.37723083887529624 -1.0571984029430799
0.3863229789022154 -0.9871181948017183
0.39330364786486155 -0.9132863024617842
0.3986911246373584 -0.8365840520628172
0.40286559885843154 -0.7577081199162685
0.40608358284344037 -0.6771810936893481
0.4085233620485667 -0.5953938534187488
0.4103255911272839 -0.5126415124783593
0.4116166645438009 -0.429143474208988
0.412527741600192 -0.3450904532709661
0.4132491112622493 -0.26065809278965224
0.41387884082911636 -0.17595864222402705
0.41437371774948945 -0.09075979408385322
0.41636815960755785 -0.001445617491219701
0.04468303283668725 -0.0025712064721719963
0.04608460199038722 -0.09076883660247496
0.04636764929556374 -0.17600327222973747
0.04688082766445669 -0.2607265824555674
0.04752596812024017 -0.3451679893556932
0.048327499805870464 -0.4292604261496449
0.049441662639848324 -0.5128401719113739
0.051019558106241376 -0.5957017694410317
0.053170127795412706 -0.6776288629261542
0.056013860192810586 -0.7583304952993947
0.05970231506217283 -0.8374289919236538
0.064454989182745 -0.9144256826071112
0.07059956161475517 -0.9886579483703493
0.07859706925808278 -1.059277512722966
0.08901811396501606 -1.1252449833470948
0.10244206298028904 -1.1853146882192025
0.11933596610864627 -1.2380192233756098
0.1399075292827865 -1.2816966004355814
0.16398151904587202 -1.314630617656264
0.19090464987051972 -1.3353045530201475
0.21951085911015175 -1.342630842428384
0.24811706834978325 -1.335304553020122
0.2750401991744284 -1.3146306176562106
0.29911418893750963 -1.281696600435504
0.31968575211164474 -1.2380192233755132
0.3365796552399965 -1.185314688219094
0.3500036042552637 -1.1252449833469755
0.360424648962191 -1.0592775127228393
0.36842215660551236 -0.9886579483702185
0.37456672903751626 -0.9144256826069803
0.3793194031580823 -0.8374289919235263
0.38300785802743953 -0.7583304952992735
0.38585159042483314 -0.6776288629260409
0.3880021601140009 -0.5957017694409281
0.38958005558039116 -0.5128401719112811
0.39069421841436724 -0.4292604261495654
0.3914957500999969 -0.345167989355627
0.39214089055578 -0.26072658245551555
0.39265406892467286 -0.17600327222969944
0.3929371162298496 -0.09076883660245173
0.394338685383547 -0.0025712064721686925
0.06638287792790243 -0.00346790804098742
0.06741042072693008 -0.09077826466563925
0.06757855306480125 -0.17602679051192646
0.06797458607838404 -0.26078322934853365
0.06853272773697816 -0.34523846501299515
0.06923926542166146 -0.429354867273383
0.070183161241762 -0.5129985943747514
0.07153174651512723 -0.5959576300675506
0.07339077600300703 -0.6780062262950061
0.0758597142550375 -0.7588597257868284
0.07906541152014858 -0.8381506202670215
0.08319056131604134 -0.9154012705447195
0.08851348017072118 -0.9899788362892085
0.09543608761008482 -1.0610685030522344
0.10446731469852195 -1.1276498318873767
0.11614318976861454 -1.1884663272940486
0.13089893816105624 -1.2420076851504802
0.1489508538312427 -1.2865366924020156
0.1701835516142972 -1.3202347935774932
0.19404522531647736 -1.341464212437659
0.2195108591101493 -1.3490239025503423
0.2449764929038206 -1.341464212437633
0.2688381666059983 -1.3202347935774392
0.2900708643890491 -1.2865366924019372
0.30812278005923127 -1.2420076851503832
0.3228785284516681 -1.1884663272939386
0.3345544035217555 -1.127649831887256
0.34358563061018754 -1.0610685030521063
0.3505082380495456 -0.9899788362890762
0.35583115690421996 -0.9154012705445873
0.3599563067001075 -0.8381506202668928
0.36316200396521414 -0.7588597257867064
0.36563094221724085 -0.678006226294892
0.36748997170511744 -0.5959576300674465
0.36883855697848034 -0.5129985943746581
0.3697824527985795 -0.42935486727330335
0.37048899048326234 -0.34523846501292893
0.37104713214185614 -0.2607832293484818
0.37144316515543885 -0.1760267905118885
0.3716112974933101 -0.09077826466561585
0.37263884029233557 -0.003467908040982676
0.0878882070693649 -0.004185625478692693
0.08865338469862125 -0.09079607656401649
0.08875833520613963 -0.1760380917026038
0.08905255644337423 -0.26082638551916293
0.08951713168205024 -0.34530027570207383
0.09012809187073123 -0.42943508596185576
0.09092632480187746 -0.5131203990547969
0.09204091600033566 -0.5961617392381353
0.09360654624992765 -0.6783149516883443
0.09570094099088616 -0.7592977787431742
0.09842705519867093 -0.8387522482917534
0.10193376135972392 -0.9162170246041355
0.1064490752250835 -0.9910864754780059
0.11231350525692167 -1.0625773713833988
0.11997478255199714 -1.1296882761970437
0.12990574221028645 -1.191157122691073
0.14251232098746877 -1.2454373155832836
0.15802352195563266 -1.290728395394266
0.17638651947012454 -1.3251226619374428
0.19717247781325928 -1.3468734308102115
0.219510859110147 -1.3546706387925225
0.2418492404070339 -1.3468734308101848
0.2626351987501664 -1.325122661937388
0.2809981962646551 -1.2907283953941866
0.29650939723281516 -1.2454373155831855
0.30911597600999313 -1.1911571226909623
0.319046935668278 -1.1296882761969225
0.3267082129633491 -1.06257737138327
0.3325726429951826 -0.9910864754778727
0.33708795686053744 -0.9162170246040022
0.34059466302158603 -0.8387522482916238
0.34332077722936705 -0.7592977787430514
0.34541517197032223 -0.6783149516882295
0.34698080221991145 -0.5961617392380307
0.3480953934183678 -0.5131203990547033
0.34889362634951304 -0.42943508596177604
0.34950458653819366 -0.34530027570200766
0.3499691617768694 -0.2608263855191111
0.3502633830141039 -0.17603809170256582
0.35036833352162233 -0.09079607656399297
0.3511335111508769 -0.004185625478686727
0.10926376695042678 -0.004757349464938316
0.10983608836697482 -0.09082267285174433
0.10990307044712883 -0.1760431467411996
0.11011197417817241 -0.26085698152132614
0.11048174724597344 -0.3453515309836092
0.11099221488447399 -0.4295035785376158
0.11165928691045839 -0.5132150111921544
0.11256156903584465 -0.5963138118826914
0.11382502307020834 -0.6785569016226417
0.11554535742391446 -0.7596474659578498
0.11779569842416188 -0.8392370332618485
0.1206921296795732 -0.9168780285946128
0.12441562448382486 -0.991987161651885
0.1292443748837817 -1.0638102666136569
0.13555185514316573 -1.131366295752237
0.14375555183459643 -1.1933894450682465
0.15421813440906865 -1.2483062164999768
0.16716866479879353 -1.2942661750530384
0.1826292901288353 -1.3292883846759225
0.20031057332064992 -1.351531067405334
0.21951085911014465 -1.3595754195820196
0.2387111448996385 -1.3515310674053072
0.25639242809145113 -1.329288384675867
0.2718530534214902 -1.2942661750529583
0.2848035838112116 -1.248306216499878
0.2952661663856802 -1.1933894450681348
0.30346986307710705 -1.1313662957521147
0.3097773433364875 -1.0638102666135272
0.31460609373644044 -0.9919871616517509
0.3183295885406882 -0.9168780285944788
0.32122601979609594 -0.8392370332617182
0.3234763607963402 -0.7596474659577263
0.32519669515004357 -0.6785569016225264
0.32646014918440497 -0.5963138118825864
0.3273624313097898 -0.5132150111920608
0.32802950333577363 -0.42950357853753607
0.32853997097427373 -0.345351530983543
0.3289097440420745 -0.26085698152127423
0.3291186477731181 -0.17604314674116167
0.3291856298532721 -0.09082267285172071
0.32975795126981877 -0.004757349464931347
0.13054544121898173 -0.005209628959961502
0.13097466199886226 -0.09085628695406651
0.13101479600131202 -0.17604517542607753
0.1311515201773848 -0.26087664710692793
0.13142874037402044 -0.345391242142295
0.13183372959933165 -0.42956048890025705
0.13237097741633483 -0.5132905982566057
0.13308472233555743 -0.5964241544145698
0.13406184407541943 -0.6787327906381709
0.13540208350932711 -0.7599119056418924
0.13718100640210562 -0.8396093833467145
0.13947549372064616 -0.9173897835051393
0.14242269029915197 -0.9926880865783818
0.1462377505752553 -1.0647757325422205
0.15122143892283904 -1.1326903479017651
0.15771650353673933 -1.1951689681648257
0.1660462282744134 -1.2506165276266452
0.17643411518576252 -1.2971456534139105
0.18895826377958816 -1.332723879850194
0.2034855711638274 -1.3554306026217018
0.2195108591101422 -1.3637369871243956
0.23553614705645615 -1.3554306026216747
0.25006345444069367 -1.332723879850138
0.2625876030345169 -1.29714565341383
0.27297548994586324 -1.2506165276265457
0.28130521468353425 -1.195168968164713
0.28780027929743135 -1.1326903479016424
0.29278396764501236 -1.06477573254209
0.29659902792111265 -0.9926880865782471
0.2995462244996153 -0.9173897835050044
0.301840711818153 -0.8396093833465835
0.30361963471092895 -0.7599119056417682
0.3049598741448345 -0.6787327906380553
0.30593699588469486 -0.5964241544144644
0.30665074080391647 -0.513290598256512
0.3071879886209191 -0.42956048890017723
0.30759297784623 -0.3453912421422287
0.30787019804286553 -0.260876647106876
0.3080069222189383 -0.17604517542603962
0.30804705622138795 -0.09085628695404283
0.3084762770012675 -0.005209628959953751
0.1517591949863672 -0.005562031124539127
0.1520778902343789 -0.09089663090787191
0.15209807436717857 -0.17604523592322444
0.15217171449163452 -0.2608869602991892
0.15236000305920505 -0.34541934727103146
0.15265724069260134 -0.4296044248982085
0.15306205179551235 -0.513349259279618
0.1535970809822973 -0.5965041110796218
0.15431582855439704 -0.678851723225634
0.1552883181450592 -0.7600942487896283
0.15659432881381724 -0.8398744779205864
0.15829425060139293 -0.9177589868088926
0.1604805168577724 -0.9931978740980058
0.16330682064070492 -1.0654837730238569
0.16699622504417314 -1.1336714538735837
0.17181631793589483 -1.1965035262649693
0.17803322086527806 -1.2523725683194695
0.18585738109954558 -1.2993663787076182
0.19541928576432313 -1.3354201502101275
0.20672808952405167 -1.3585593939449745
0.21951085911013957 -1.3671479104457724
0.2322936286962268 -1.358559393944947
0.2436024324559539 -1.335420150210071
0.2531643371207295 -1.2993663787075371
0.26098849735499474 -1.2523725683193694
0.2672054002843757 -1.196503526264856
0.27202549317609487 -1.13367145387346
0.275714897579561 -1.0654837730237257
0.2785412013624915 -0.9931978740978704
0.28072746761886863 -0.9177589868087572
0.2824273894064422 -0.839874477920455
0.2837334000751984 -0.7600942487895037
0.284705889665859 -0.6788517232255181
0.28542463723795775 -0.5965041110795162
0.28595966642474197 -0.5133492592795242
0.28636447752765265 -0.4296044248981286
0.2866617151610487 -0.3454193472709651
0.28685000372861913 -0.26088696029913727
0.28692364385307506 -0.1760452359231865
0.2869438279858746 -0.09089663090784818
0.28726252323388574 -0.005562031124530797
0.17291961253017515 -0.005834912314397973
0.173156378109822 -0.09094181232442636
0.1731567752611104 -0.17604371827355067
0.17317478013570684 -0.2608891867329285
0.17327804726865692 -0.34543606913148656
0.17346648638041734 -0.42963456067896627
0.17373493983486463 -0.5133916233151203
0.17409224034293858 -0.5965600173586487
0.17457130227123177 -0.6789278447100554
0.1752056702352445 -0.7602057027630922
0.17605155865963248 -0.840039188067463
0.17716395468686624 -0.9179946684012001
0.17860162890217457 -0.9935277446370411
0.18046317979958848 -1.06594786700841
0.18289278274768844 -1.1343237255334662
0.18607653047806139 -1.1974060505250748
0.1902103432006127 -1.2535831752444944
0.19548587506130705 -1.3009306361623587
0.20206280152594275 -1.33736923674845
0.21007325020007986 -1.3608997958225098
0.2195108591101367 -1.369795000464132
0.22894846802019314 -1.3608997958224818
0.2369589166943292 -1.3373692367483931
0.24353584315896348 -1.300930636162277
0.2488113750196561 -1.2535831752443942
0.252945187742206 -1.197406050524961
0.25612893547257726 -1.1343237255333423
0.2585585384206759 -1.0659478670082785
0.26042008931808863 -0.9935277446369055
0.2618577635333955 -0.9179946684010645
0.26297015956062786 -0.8400391880673315
0.26381604798501473 -0.7602057027629674
0.2644504159490267 -0.6789278447099395
0.2649294778773192 -0.5965600173585431
0.2652867783853927 -0.5133916233150265
0.26555523183983976 -0.4296345606788863
0.26574367095160006 -0.3454360691314202
0.2658469380845501 -0.2608891867328766
0.26586494295914653 -0.1760437182735127
0.2658653401104349 -0.09094181232440261
0.26610210569008136 -0.0058349123143892345
0.19403288148413833 -0.006052930354272399
0.19421454119776116 -0.09098867679930862
0.19419590087944905 -0.1760407490700621
0.19416371319063636 -0.26088431904144327
0.19418581805284674 -0.3454417204297098
0.19426574455208845 -0.42965064479498677
0.19439547364151524 -0.5134165313463694
0.19457392930065717 -0.5965935125983909
0.19481075085597846 -0.6789727369295036
0.19513038692113363 -0.7602664803149312
0.1955468103807966 -0.8401225766669379
0.19609561895839844 -0.9181128051066659
0.19680104246567656 -0.9936946914512439
0.19771779187952146 -1.0661878423782438
0.1989206066440869 -1.1346692239268827
0.20050747131543228 -1.1978982542136234
0.20259562138456996 -1.2542647718426672
0.20533536117791892 -1.301850062893992
0.20893253493695507 -1.3385701922608293
0.21357560477971294 -1.3624296984190118
0.21951085911013365 -1.3716563258070036
0.22544611344055424 -1.3624296984189836
0.2300891832833116 -1.3385701922607725
0.23368635704234686 -1.3018500628939103
0.23642609683569488 -1.2542647718425668
0.23851424690483186 -1.1978982542135095
0.24010111157617653 -1.1346692239267588
0.2413039263407415 -1.066187842378112
0.24222067575458603 -0.9936946914511081
0.24292609926186354 -0.9181128051065301
0.2434749078394648 -0.8401225766668061
0.24389133129912746 -0.7602664803148064
0.24421096736428236 -0.6789727369293874
0.2444477889196033 -0.5965935125982852
0.24462624457874507 -0.5134165313462755
0.24475597366817184 -0.42965064479490683
0.2448359001674135 -0.3454417204296434
0.24485800502962393 -0.2608843190413913
0.24482581734081127 -0.17604074907002407
0.24480717702249916 -0.09098867679928488
0.2449888367361218 -0.006052930354263403
0.21511500854027685 -0.0062283928658979255
0.21525688790262842 -0.0910347283897971
0.21522031134039366 -0.17603626617390367
0.21514215739666562 -0.2608730825989014
0.2150867527455349 -0.3454367523538866
0.21505950204542607 -0.4296525837716347
0.21504946910381173 -0.5134236806408058
0.21504732228704057 -0.5966045617251363
0.21504764265320805 -0.6789873599528568
0.2150481740155884 -0.7602867218216623
0.21504852875112349 -0.8401488721944312
0.21504880973140675 -0.9181487643568614
0.2150488720030932 -0.9937420887537199
0.2150476357625355 -1.0662516155654151
0.2150449736882602 -1.1347604640799902
0.21505014038502682 -1.1980306574995634
0.21510108354080096 -1.254461487859155
0.2153154290310892 -1.3021604034049967
0.21593584794415213 -1.3390561552706348
0.21725009796870037 -1.3631452934121826
0.21951085911013046 -1.372710792295724
0.22177162025156077 -1.3631452934121546
0.2230858702761089 -1.3390561552705778
0.2237062891891716 -1.3021604034049148
0.22392063467945983 -1.2544614878590543
0.22397157783523422 -1.1980306574994493
0.223976744532001 -1.134760464079866
0.223974082457726 -1.0662516155652835
0.22397284621716876 -0.993742088753584
0.22397290848885557 -0.9181487643567255
0.2239731894691391 -0.8401488721942996
0.2239735442046745 -0.7602867218215377
0.22397407556705512 -0.6789873599527406
0.22397439593322266 -0.5966045617250304
0.22397224911645155 -0.5134236806407119
0.22396221617483736 -0.4296525837715547
0.2239349654747286 -0.3454367523538202
0.223879560823598 -0.26087308259884945
0.22380140687987002 -0.1760362661738656
0.22376483031763533 -0.09103472838977333
0.22390670967998674 -0.006228392865888749
0.23617970286133833 -0.006367883447119641
0.23628857165965345 -0.09107790157793555
0.23623499671255194 -0.17603012157005152
0.23611414064174965 -0.2608560173567658
0.23598467022672567 -0.34542168295340864
0.23585235362085766 -0.42964053607569985
0.2357035005361936 -0.5134130145340725
0.2355208710300241 -0.5965929373747885
0.2352846138074198 -0.6789729562032277
0.23496601672127296 -0.760266660129775
0.2345502711653896 -0.8401227125788632
0.23400203698792574 -0.9181128733668268
0.23329680394538643 -0.9936944707468804
0.2323779162907378 -1.0661869136032236
0.23116955813379372 -1.1346686944540223
0.22958956668307084 -1.1979046953212724
0.22759648304860286 -1.2543063124478755
0.22524996233113134 -1.3020013328517948
0.22277719243038802 -1.3389600013434269
0.22060020634009883 -1.3631482317137154
0.21951085911012755 -1.3730633385735642
0.21842151188015632 -1.3631482317136874
0.21624452578986691 -1.3389600013433696
0.21377175588912423 -1.3020013328517128
0.2114252351716538 -1.254306312447775
0.20943215153718697 -1.1979046953211585
0.20785216008646518 -1.1346686944538982
0.20664380192952217 -1.066186913603092
0.2057249142748749 -0.9936944707467447
0.20501968123233683 -0.9181128733666908
0.20447144705487416 -0.8401227125787315
0.20405570149899183 -0.7602666601296503
0.2037371044128457 -0.6789729562031116
0.20350084719024183 -0.5965929373746827
0.2033182176840727 -0.5134130145339786
0.2031693645994089 -0.42964053607561986
0.20303704799354108 -0.34542168295334225
0.2029075775785173 -0.2608560173567138
0.20278672150771512 -0.1760301215700135
0.2027331465606137 -0.09107790157791175
0.20284201535892873 -0.00636788344711032
0.25723652412470543 -0.006475965865206766
0.25731553732806856 -0.09111653778276452
0.2572448695797956 -0.17602204250805417
0.25708390647114837 -0.2608335512240369
0.2568836643175885 -0.345397069532278
0.2566490013662737 -0.4296148704523282
0.25636376567846914 -0.5133848064219704
0.2560029097320619 -0.5965589238442388
0.2555243203533461 -0.678928272998724
0.2548908808124046 -0.7602060692317861
0.25404558407248407 -0.840039435563785
0.25293362890049487 -0.9179948407132067
0.25149644882542094 -0.9935274127989029
0.24963401925565126 -1.0659459095724624
0.24719860869385243 -1.1343216956917461
0.24401454850641563 -1.1974194870229478
0.239955636898229 -1.2536707573782055
0.23502869352522976 -1.3012431537395297
0.2294604286563696 -1.338162271049229
0.2238846709310935 -1.3625084894723156
0.21951085911012463 -1.372839466626742
0.21513704728915545 -1.3625084894722874
0.20956128956387965 -1.3381622710491718
0.20399302469502073 -1.3012431537394478
0.19906608132202352 -1.253670757378105
0.19500716971383913 -1.1974194870228343
0.1918231095264041 -1.1343216956916222
0.18938769896460714 -1.0659459095723312
0.18752526939483968 -0.9935274127987676
0.1860880893197679 -0.917994840713071
0.18497613414778075 -0.8400394355636535
0.184130837407862 -0.7602060692316616
0.18349739786692174 -0.6789282729986079
0.1830188084882068 -0.596558923844133
0.18265795254180014 -0.5133848064218764
0.182372716853996 -0.4296148704522484
0.18213805390268153 -0.3453970695322116
0.18193781174912188 -0.26083355122398494
0.18177684864047486 -0.1760220425080161
0.18170618089220195 -0.09111653778274069
0.18178519409556498 -0.006475965865197328
0.2782919731861482 -0.006556782835322179
0.27834345948571537 -0.0911493764373481
0.27825498757949213 -0.17601163709473097
0.27805585855158116 -0.2608060439873417
0.2777879608488898 -0.34536346849337957
0.2774542703224108 -0.4295762403069094
0.27703658156950906 -0.51333952156745
0.27649849700980916 -0.5965025778981313
0.2757802393507805 -0.678852373593252
0.2748085195552725 -0.7600948230104563
0.2735029260379928 -0.8398748374905729
0.27180318852421664 -0.9177592738216335
0.26961780265213503 -0.9931976882770661
0.26679297578286604 -1.0654812515604153
0.263100991126843 -1.133667596122253
0.25827542421510435 -1.1965204193011236
0.25209977728947214 -1.2524961510182027
0.24452363120871637 -1.2998134032286321
0.23582719156515425 -1.3365952763915494
0.226895483989049 -1.361077812552872
0.21951085911012166 -1.3720371956158601
0.2121262342311943 -1.361077812552844
0.2031945266550896 -1.3365952763914923
0.1944980870115294 -1.2998134032285507
0.1869219409307764 -1.252496151018103
0.18074629400514733 -1.1965204193010106
0.17592072709341106 -1.1336675961221296
0.17222874243739075 -1.0654812515602845
0.1694039155681246 -0.9931976882769313
0.16721852969604603 -0.9177592738214982
0.16551879218227292 -0.8398748374904421
0.16421319866499567 -0.7600948230103319
0.16324147886948964 -0.6788523735931362
0.16252322121046237 -0.5965025778980255
0.16198513665076325 -0.5133395215673562
0.1615674478978621 -0.42957624030682956
0.16123375737138348 -0.3453634684933132
0.16096585966869245 -0.26080604398728974
0.16076673064078167 -0.17601163709469292
0.16067825873455854 -0.09114937643732424
0.16072974503412565 -0.006556782835312662
0.2993510543167475 -0.006614209772756595
0.29937734498586954 -0.0911756230973058
0.29927028304296477 -0.17599845802183814
0.2990344039047368 -0.26077376864682167
0.2987017151210538 -0.3453215394520426
0.29827305897690776 -0.42952518617373014
0.29772650287081726 -0.5132782378541259
0.2970117712403705 -0.596422382107727
0.2960348273744179 -0.6787336599694409
0.2946951049000984 -0.7599126834768377
0.2929162454019453 -0.8396097747603848
0.2906217520744512 -0.9173901553272974
0.28767566049826 -0.9926883429715111
0.28386528952732704 -1.0647738233852777
0.2788870323470308 -1.1326857666421626
0.27238721099610713 -1.195185575642912
0.2640530648244899 -1.250757166720863
0.2537839252137553 -1.2976890481995158
0.24194231228228114 -1.3342433189908134
0.2297127913853355 -1.358876723195245
0.21951085911011883 -1.370677511004666
0.2093089268349023 -1.3588767231952168
0.19707940593795778 -1.3342433189907565
0.18523779300648602 -1.2976890481994348
0.17496865339575474 -1.250757166720764
0.16663450722414133 -1.1951855756427998
0.16013468587322086 -1.1326857666420398
0.15515642869292798 -1.0647738233851476
0.1513460577219988 -0.9926883429713771
0.1483999661458115 -0.917390155327163
0.14610547281832112 -0.8396097747602546
0.14432661332017127 -0.7599126834767139
0.14298689084585442 -0.6787336599693252
0.14200994697990377 -0.5964223821076214
0.14129521534945813 -0.513278237854032
0.14074865924336832 -0.4295251861736503
0.1403200030992228 -0.3453215394519762
0.13998731431554018 -0.2607737686467697
0.13975143517731242 -0.17599845802180009
0.13964437323440776 -0.0911756230972819
0.13967066390352975 -0.00661420977274702
0.320417703233013 -0.006652018908883968
0.32042152988961126 -0.09119490417683598
0.32029552776756665 -0.1759820894059218
0.3200241592988296 -0.26073699712355014
0.31962939542304913 -0.345271823696999
0.3191099715140144 -0.429462969777036
0.3184389470702902 -0.5132008883199769
0.31753578889705186 -0.5963118250748412
0.31627250547016983 -0.6785579729282497
0.31455212989236203 -0.7596483541095742
0.3123015967584775 -0.8392374108050878
0.30940491607444165 -0.9168784232073323
0.30568273759240006 -0.9919881364901892
0.3008620613836604 -1.0638106255708
0.2945711035134557 -1.1313637487540382
0.2863698648172782 -1.1934026525724775
0.27586244417001665 -1.2484426573032108
0.2629010204594869 -1.2948617898306327
0.24792763770334206 -1.3311056146106375
0.23245844723403833 -1.3559244516341624
0.2195108591101161 -1.3687793032472186
0.20656327098619423 -1.3559244516341347
0.1910940805168921 -1.331105614610581
0.17612069776075026 -1.2948617898305523
0.1631592740502243 -1.2484426573031127
0.152651853402967 -1.1934026525723662
0.14445061470679355 -1.131363748753916
0.1381596568365932 -1.0638106255706707
0.13333898062785782 -0.9919881364900561
0.12961680214582094 -0.9168784232071988
0.12672012146178965 -0.8392374108049584
0.12446958832790894 -0.759648354109451
0.12274921275010439 -0.6785579729281345
0.12148592932322491 -0.5963118250747358
0.12058277114998828 -0.5132008883198832
0.11991174670626498 -0.4294629697769563
0.1193923227972308 -0.3452718236969327
0.11899755892145077 -0.26073699712349824
0.11872619045271395 -0.17598208940588375
0.11860018833066946 -0.09119490417681204
0.11860401498726775 -0.006652018908874364
0.3414948934564772 -0.006674004916096099
0.3414796877600077 -0.09120721472820409
0.341335352292262 -0.17596224758784496
0.3410297138906701 -0.2606959544464285
0.3405750035842461 -0.34521486288153963
0.33996941945883385 -0.4293905286711388
0.33917229158998313 -0.5131048713980436
0.3380581088710687 -0.5961596676912481
0.3364918627002194 -0.6783160866841711
0.33439678284705143 -0.7592986565317607
0.3316702022793858 -0.8387525538328443
0.3281631854456995 -0.9162174154395412
0.3236497200702411 -0.9910884519168706
0.3177963648419085 -1.0625816436799251
0.3101613254791832 -1.1296912449961483
0.3002463597344452 -1.1911665532241036
0.28757959228584007 -1.2455528012997483
0.2719631727670293 -1.2913350072614533
0.2539142720738972 -1.3271890457599214
0.2352324921209772 -1.3522242823588047
0.2195108591101135 -1.366340099753413
0.20378922609925035 -1.352224282358777
0.18510744614633232 -1.3271890457598656
0.16705854545320378 -1.2913350072613736
0.15144212593439724 -1.2455528012996513
0.13877535848579695 -1.1911665532239932
0.12886039274106376 -1.1296912449960272
0.12122535337834356 -1.0625816436797972
0.11537199815001592 -0.9910884519167388
0.11085853277456303 -0.9162174154394088
0.10735151594088203 -0.8387525538327159
0.1046249353732209 -0.7592986565316384
0.10252985552005672 -0.6783160866840565
0.10096360934921055 -0.596159667691143
0.09984942663029836 -0.5131048713979501
0.09905229876144873 -0.42939052867105915
0.09844671463603716 -0.3452148628814734
0.09799200432961362 -0.2606959544463766
0.09768636592802203 -0.17596224758780693
0.09754203046027649 -0.09120721472818016
0.09752682476380696 -0.006674004916086468
0.3625845320787953 -0.006684072582635328
0.3625547998475905 -0.09121289790719297
0.3623943444335578 -0.1759388882452853
0.36205580398339415 -0.2606507403230949
0.36154262395540154 -0.3451514149953326
0.3608547457120637 -0.42930841645420326
0.35991769538317153 -0.5129825411084544
0.3585694180867638 -0.5959554680724278
0.35670843546192504 -0.6780071593846408
0.35423816222180843 -0.7588604805329748
0.35103176074455494 -0.8381508084511127
0.3469064714313126 -0.9154017270962591
0.34158654753097834 -0.9899821943782281
0.33467736678598065 -1.061077813545098
0.3256770596997606 -1.127661097358398
0.3140320065934494 -1.1884756256526847
0.2992418960675173 -1.242097734847595
0.2810716626748361 -1.2871276475162254
0.26004092730744377 -1.3225038183492588
0.23813126266235074 -1.3477607771309823
0.21951085911011092 -1.3633353799581873
0.2008904555578717 -1.3477607771309548
0.17898079091278124 -1.3225038183492037
0.15795005554539285 -1.2871276475161464
0.1397798221527165 -1.242097734847499
0.12498971162678987 -1.1884756256525753
0.11334465852048406 -1.1276610973582781
0.10434435143426979 -1.061077813544971
0.0974351706892779 -0.9899821943780975
0.09211524678895 -0.9154017270961279
0.08798995747571367 -0.8381508084509853
0.0847835559984653 -0.7588604805328535
0.08231328275835299 -0.6780071593845269
0.08045230013351785 -0.5959554680723235
0.0791040228371129 -0.5129825411083612
0.07816697250822216 -0.42930841645412376
0.07747909426488506 -0.34515141499526647
0.07696591423689299 -0.2606507403230431
0.07662737378672968 -0.1759388882452473
0.07646691837269713 -0.09121289790716905
0.07643718614149232 -0.006684072582625689
0.38368713738605514 -0.006686273640116013
0.38364908212851356 -0.09121269381244516
0.3834772759849534 -0.17591232851415342
0.3831074669720436 -0.26060125025451125
0.38253624450715035 -0.3450824918466445
0.3817657021392527 -0.4292142035868953
0.3806631467326539 -0.5128245888333259
0.3790838028411717 -0.5956990851357352
0.3769297085687775 -0.6776293390867627
0.3740841315873982 -0.7583310216868309
0.3703947587522204 -0.8374290409526597
0.3656424164805384 -0.9144263980662642
0.3595025528022089 -0.9886631890484024
0.35152014804632986 -1.0592923268516468
0.34112953848511934 -1.1252656070113782
0.32774591465374897 -1.1853299142030753
0.3108778068736756 -1.2380981191938558
0.29030830248652345 -1.2822755360047815
0.2664527743815566 -1.3170653905238254
0.24128311987102766 -1.3424988393740591
0.21951085911010815 -1.3597120025315388
0.19773859834918955 -1.3424988393740318
0.17256894383866364 -1.3170653905237713
0.14871341573370123 -1.2822755360047038
0.12814391134655467 -1.238098119193761
0.11127580356648727 -1.185329914202967
0.09789217973512307 -1.1252656070112597
0.08750157017391899 -1.0592923268515209
0.07951916541804668 -0.9886631890482734
0.0733793017397243 -0.9144263980661346
0.06862695946804899 -0.8374290409525337
0.06493758663287691 -0.7583310216867106
0.06209200965150249 -0.6776293390866497
0.05993791537911227 -0.5956990851356315
0.05835857148763335 -0.5128245888332331
0.0572560160810365 -0.42921420358681595
0.05648547371313969 -0.3450824918465785
0.05591425124824694 -0.2606012502544595
0.055544442235337534 -0.17591232851411542
0.05537263609177748 -0.09121269381242121
0.055334580834235966 -0.006686273640106375
0.4048011615533504 -0.006684774551476024
0.40476393391608584 -0.09120791634557777
0.4045894701530866 -0.1758833890187715
0.4041903714702368 -0.26054710700904393
0.4035594608808448 -0.3450090287533894
0.4026925129166927 -0.4291004435068423
0.4014134702603102 -0.5126265395629779
0.39960676284119806 -0.5953900239250465
0.3971623063440678 -0.6771809108736278
0.393941948091233 -0.7577083179358272
0.38976643603050687 -0.8365839772443343
0.3843800548713814 -0.9132875860692264
0.3774061102117752 -0.9871258744982222
0.368330108712355 -1.057218699808292
0.356542497578749 -1.1225011398219955
0.34142138697650953 -1.1817303826518646
0.3225010128947405 -1.233571512470152
0.29966982303642903 -1.2768361945882456
0.27333741211407425 -1.310916117963174
0.2449115770141049 -1.3363790147032244
0.21951085911010523 -1.3553649619444224
0.19411014120610678 -1.3363790147031975
0.16568430610614093 -1.3109161179631206
0.13935189518379126 -1.276836194588169
0.11652070532548625 -1.2335715124700586
0.09760033124372386 -1.1817303826517576
0.08247922064149132 -1.1225011398218783
0.07069160950789237 -1.0572186998081674
0.06161560800847976 -0.9871258744980949
0.05464166334888158 -0.9132875860690982
0.049255282189763376 -0.8365839772442097
0.045079770129043545 -0.757708317935708
0.04185941187621412 -0.6771809108735157
0.03941495537908837 -0.5953900239249437
0.0376082479599798 -0.5126265395628856
0.0363292053035997 -0.4291004435067633
0.035462257339448675 -0.3450090287533234
0.03483134675005724 -0.2605471070089923
0.03443224806720778 -0.17588338901873352
0.03425778430420869 -0.09120791634555385
0.03422055666694422 -0.006684774551466381
0.4259216649880356 -0.006683686724833178
0.42589997705244304 -0.09120095186479299
0.4257376310820717 -0.17585331798493953
0.4253110466757912 -0.2604883437832961
0.4246123900652309 -0.3449275492151351
0.4236299245795861 -0.4289635004773166
0.42217426211061787 -0.5123874545482351
0.42014356818455895 -0.5950274849087854
0.41741250075635083 -0.6766609736064046
0.41381814878899736 -0.7569907697126315
0.40915492742915366 -0.8356135403170857
0.4031264548552875 -0.9119808564135194
0.3953011876219681 -0.9853643619370508
0.385124264986655 -1.0548539031006303
0.371937630900699 -1.1193668706350028
0.35509232621997405 -1.1776794528719738
0.33414651913949966 -1.2285282583988772
0.30910260195167105 -1.2708496256185322
0.2806070112109942 -1.3041966601441795
0.2497742245729562 -1.3293559432612272
0.21951085911010218 -1.35
0.1892474936472493 -1.329355943261201
0.15841470700921514 -1.3041966601441268
0.12991911626854444 -1.2708496256184567
0.10487519908072337 -1.228528258398785
0.08392939200025634 -1.1776794528718688
0.06708408731953917 -1.1193668706348872
0.053897453233591026 -1.0548539031005075
0.0437205305982864 -0.9853643619369251
0.035895263364975755 -0.9119808564133931
0.029866790791117682 -0.8356135403169628
0.02520356943128068 -0.7569907697125137
0.021609217463932934 -0.6766609736062937
0.018878150035729926 -0.5950274849086834
0.01684745610967498 -0.5123874545481436
0.0153917936407095 -0.4289635004772379
0.014409328155066037 -0.3449275492150692
0.013710671544506262 -0.2604883437832445
0.013284087138226163 -0.17585331798490156
0.01312174116785504 -0.09120095186476906
0.013100053232262506 -0.006683686724823532
SCALARS Stress float 6
LOOKUP_TABLE default
-786.8287050566967 -1541.7648781385117 -1071.9415868881617 6.774574627229574 0.0 0.0
1009.3355312885867 587.036389137306 660.827382900416 -18.395048672577396 0.0 0.0
448.1227906889761 26.055192215544366 140.81298961537482 -30.13239444175561 0.0 0.0
419.56521399893256 17.646892077857323 130.59782154382768 -4.059400536096767 0.0 0.0
507.8211121210604 28.796323592870042 164.060954277863 -2.9441996382259346 0.0 0.0
566.035683604884 55.38049719026435 220.92456779308338 -1.923921124790636 0.0 0.0
641.1171262589611 64.96360306372007 281.84506728128486 -2.937653978929176 0.0 0.0
713.815633637903 95.92222742978456 352.5619646197373 -3.3538323029870685 0.0 0.0
790.2330961402824 136.68888247895484 425.7891066547819 -3.433642607669425 0.0 0.0
876.7274534217684 190.5977151217958 505.51942025053364 -3.6809510777989223 0.0 0.0
976.7943906013701 258.8741019702205 595.4022005335149 -4.042980623503903 0.0 0.0
1089.6139039226236 341.23117559659386 696.0931186415911 -4.591296395909888 0.0 0.0
1211.6949814486807 430.5052149538486 802.6566324630744 -4.964080276280144 0.0 0.0
1339.8082421797728 524.2724334533169 913.394857940169 -5.297942111128469 0.0 0.0
1466.832941087926 616.4167858117987 1022.231519368831 -5.637674440028719 0.0 0.0
1586.2792218328707 701.850738492137 1123.8786897302634 -6.027415011391861 0.0 0.0
1693.0571228287845 777.3479271062034 1214.4772565720589 -6.235974151030028 0.0 0.0
1782.1173691098993 839.5714013958672 1289.9588678177001 -5.824364150619434 0.0 0.0
1848.8695732629092 885.3710341871249 1346.342671332014 -4.604490095812491 0.0 0.0
1885.246743755108 908.1973529248298 1376.1705727890942 -3.4285464281263747 0.0 0.0
1885.9798002913794 905.2752177052188 1375.409586745788 -2.1186608023526787e-11 0.0 0.0
1885.2467437547925 908.1973529245232 1376.1705727888927 3.428546428166232 0.0 0.0
1848.8695732624212 885.3710341866532 1346.3426713315484 4.604490095802568 0.0 0.0
1782.1173691099664 839.571401395976 1289.9588678176608 5.8243641506385355 0.0 0.0
1693.0571228277843 777.3479271052387 1214.4772565712103 6.235974151000136 0.0 0.0
1586.2792218324132 701.8507384917339 1123.8786897298398 6.027415011397363 0.0 0.0
1466.8329410879592 616.4167858119197 1022.2315193686725 5.637674440066027 0.0 0.0
1339.8082421785798 524.2724334521919 913.3948579391472 5.297942111159317 0.0 0.0
1211.6949814481438 430.50521495342645 802.6566324625627 4.964080276312615 0.0 0.0
1089.6139039221543 341.23117559626473 696.0931186411776 4.591296395908239 0.0 0.0
976.7943906007888 258.87410196978755 595.4022005329648 4.042980623478275 0.0 0.0
876.7274534209076 190.59771512107707 505.51942024986135 3.6809510777576175 0.0 0.0
790.2330961398795 136.68888247874003 425.7891066543623 3.4336426076600652 0.0 0.0
713.8156336377056 95.92222742980519 352.56196461947053 3.353832303028181 0.0 0.0
641.1171262588748 64.96360306388479 281.8450672810843 2.9376539789126177 0.0 0.0
566.0356836047634 55.380497190465704 220.9245677929368 1.9239211248212982 0.0 0.0
507.8211121206794 28.79632359276738 164.0609542776789 2.9441996382145375 0.0 0.0
419.56521399885065 17.64689207817759 130.59782154390473 4.059400536105956 0.0 0.0
448.12279068870305 26.0551922155705 140.8129896153215 30.132394441683555 0.0 0.0
1009.335531288253 587.0363891368283 660.8273828999422 18.395048672655975 0.0 0.0
-786.8287050545208 -1541.764878136324 -1071.9415868860372 -6.7745746277878 0.0 0.0
-998.5153647882331 -1716.884894635947 -1219.563598417143 10.07603793712564 0.0 0.0
674.549058126853 342.1866887933984 410.3278190200998 -40.30155054568545 0.0 0.0
309.94319798935754 2.3802914842318197 93.87084142405136 -22.77873566107889 0.0 0.0
373.25914991469074 4.4804992695434 113.26986814656789 -15.59055426743597 0.0 0.0
451.4156715713786 11.382363065827478 139.56356599903765 -15.42998099356678 0.0 0.0
528.0044267428103 14.522741030259027 182.4504796291364 -17.134931084737318 0.0 0.0
583.5229667615511 22.171156920602293 235.3584195248332 -19.202612628647326 0.0 0.0
645.3780600327595 39.449780406341766 293.6124543213863 -19.588197538336864 0.0 0.0
705.4218270609994 62.91174960780992 350.70539685421465 -19.289449903854916 0.0 0.0
768.806973223115 94.0604822005272 408.66088303262984 -18.929145335938035 0.0 0.0
837.4288938457094 131.77525325649265 468.70118022475026 -18.283948561140395 0.0 0.0
910.3976838049896 172.5024268525995 529.5584821522243 -17.71523304476642 0.0 0.0
982.7413762817685 213.87115574286526 588.2954756691349 -17.147272665102577 0.0 0.0
1052.775063696347 249.5480153994171 641.6182999550902 -16.600000832688586 0.0 0.0
1113.650831578511 275.69754483986935 685.0628519807985 -16.331936907513743 0.0 0.0
1160.4978354952864 288.7863448734958 714.8562304825749 -16.22034411919614 0.0 0.0
1190.7657958231357 287.9207593196039 729.509794167108 -15.809104382013132 0.0 0.0
1206.2281008468199 276.51653214630886 731.7137931490244 -14.416528424630888 0.0 0.0
1210.0379743492038 259.2750301358071 725.3939505147896 -11.794815870633823 0.0 0.0
1195.9934332248372 231.40940105601717 705.1219411430058 -8.540308612754618 0.0 0.0
1166.724002007532 198.3586792558999 674.8043387296959 -1.2964740392362728e-11 0.0 0.0
1195.993433224465 231.4094010556571 705.1219411427124 8.540308612793233 0.0 0.0
1210.037974348917 259.27503013553724 725.3939505145455 11.794815870664397 0.0 0.0
1206.2281008468428 276.516532146361 731.7137931490045 14.416528424629671 0.0 0.0
1190.7657958227815 287.9207593193053 729.5097941667591 15.809104381997916 0.0 0.0
1160.4978354949587 288.7863448732109 714.8562304822697 16.22034411923309 0.0 0.0
1113.6508315785495 275.69754483999554 685.0628519807101 16.331936907531265 0.0 0.0
1052.7750636954534 249.54801539859432 641.6182999543687 16.600000832745295 0.0 0.0
982.7413762815149 213.8711557427277 588.2954756688789 17.147272665121015 0.0 0.0
910.3976838046124 172.5024268523537 529.5584821518888 17.715233044772106 0.0 0.0
837.4288938452132 131.77525325613246 468.70118022432285 18.2839485610856 0.0 0.0
768.8069732225689 94.06048220014388 408.66088303217384 18.929145335922463 0.0 0.0
705.4218270606306 62.911749607612784 350.7053968538573 19.28944990387251 0.0 0.0
645.3780600325358 39.449780406343095 293.61245432113066 19.58819753836024 0.0 0.0
583.5229667612195 22.171156920481096 235.35841952452301 19.202612628626653 0.0 0.0
528.0044267425641 14.522741030287229 182.450479628949 17.134931084715827 0.0 0.0
451.41567157103805 11.382363065776266 139.56356599890088 15.429980993556505 0.0 0.0
373.25914991460655 4.480499269765144 113.26986814661166 15.590554267418518 0.0 0.0
309.9431979893681 2.380291484286828 93.8708414240681 22.77873566099013 0.0 0.0
674.5490581264521 342.18668879301975 410.32781901967746 40.30155054575786 0.0 0.0
-998.5153647865737 -1716.884894634187 -1219.563598415389 -10.076037937632242 0.0 0.0
-809.6918966094531 -1492.948247999122 -1001.1247876816341 -33.43693999639733 0.0 0.0
482.64873678589447 239.9393673310731 284.1207282736031 -99.88824451637504 0.0 0.0
228.64424346873585 23.102161638926823 75.52392153229881 -20.677226764816805 0.0 0.0
317.65062813275614 -1.4066043546071243 94.86384457053165 -34.29437101627616 0.0 0.0
403.45721139382294 7.859808805973774 122.82371327663822 -36.719630416418696 0.0 0.0
496.6978694935209 10.981044356437268 161.14750011591076 -34.28470230547825 0.0 0.0
554.3840425253171 21.93773226576181 213.50992219178042 -36.68709798380873 0.0 0.0
618.423941533029 33.22660532828773 269.19855361938824 -37.682399977808856 0.0 0.0
677.8621258705343 54.66003404932535 326.0851303224606 -37.42772433924158 0.0 0.0
739.0446850532363 82.09406365976312 382.46361691234483 -36.69643864605524 0.0 0.0
803.7739986326962 115.5697804313512 439.9413294499307 -35.62658921147678 0.0 0.0
871.8182495473967 153.30542956569096 498.23520923686385 -34.31229729096011 0.0 0.0
942.2834127169878 190.2320714153338 554.6808445512202 -33.16922229236866 0.0 0.0
1007.8807450466709 223.36986356680495 605.0943377270744 -32.20897352278759 0.0 0.0
1065.6371737789846 246.48359468893113 645.6219277045582 -31.662979115114677 0.0 0.0
1110.1335449285818 257.4315665233962 673.2013234415886 -31.309995648304692 0.0 0.0
1140.4845979267684 256.8240609723537 688.0093372614855 -30.331252639904193 0.0 0.0
1157.5735525881182 247.0369812236317 691.8787414603735 -27.70242040364672 0.0 0.0
1160.1336375236606 228.2647554748364 684.2760725437264 -23.07833833218651 0.0 0.0
1150.1349563378826 204.24167504905878 667.8049325037589 -16.43521307443548 0.0 0.0
1110.8745226586282 161.28861458757135 627.8255743567202 -4.2543746303636e-13 0.0 0.0
1150.1349563376377 204.24167504883155 667.8049325035099 16.43521307447734 0.0 0.0
1160.1336375232747 228.26475547446807 684.2760725434537 23.078338332245337 0.0 0.0
1157.5735525878004 247.03698122334785 691.8787414601386 27.702420403712114 0.0 0.0
1140.4845979260542 256.8240609716587 688.0093372608301 30.33125263991411 0.0 0.0
1110.1335449284445 257.4315665233237 673.2013234414453 31.309995648344383 0.0 0.0
1065.6371737786255 246.48359468863498 645.6219277042085 31.66297911511149 0.0 0.0
1007.8807450461105 223.36986356633116 605.0943377266342 32.20897352282421 0.0 0.0
942.2834127168649 190.23207141532004 554.6808445510487 33.169222292377626 0.0 0.0
871.8182495468778 153.30542956529393 498.23520923641644 34.312297290914714 0.0 0.0
803.7739986322308 115.56978043101876 439.9413294495425 35.62658921145051 0.0 0.0
739.0446850529446 82.09406365964787 382.46361691203265 36.69643864605726 0.0 0.0
677.8621258699155 54.6600340488639 326.0851303219615 37.427724339240626 0.0 0.0
618.4239415326037 33.22660532804648 269.19855361900443 37.68239997776934 0.0 0.0
554.3840425248757 21.9377322655488 213.5099221914295 36.687097983764644 0.0 0.0
496.69786949321434 10.981044356425736 161.1475001157281 34.28470230542885 0.0 0.0
403.45721139350707 7.859808805960313 122.82371327654836 36.719630416425986 0.0 0.0
317.6506281326378 -1.4066043545979021 94.86384457050056 34.294371016225455 0.0 0.0
228.64424346874458 23.10216163887369 75.52392153228546 20.677226764733653 0.0 0.0
482.64873678557603 239.93936733084942 284.12072827326335 99.88824451624565 0.0 0.0
-809.6918966080686 -1492.9482479976343 -1001.1247876800671 33.43693999608399 0.0 0.0
-645.3514456982581 -1294.6961131510577 -811.5714586678579 -51.32549939575718 0.0 0.0
347.03523538234293 143.67719804378254 188.48462328186244 -137.23118686232766 0.0 0.0
169.77518200874752 34.497635293511706 61.28184519067777 -42.521253902965356 0.0 0.0
263.52051768888816 3.2840943725124623 80.04689906046372 -50.45200891876355 0.0 0.0
349.77059755664135 3.970379550993226 105.96774648907214 -58.42086568357893 0.0 0.0
449.39340044534674 6.564550333089873 138.9134591841073 -54.858782310907166 0.0 0.0
527.2771499850253 16.89194559101426 188.06372928270542 -55.84080554980767 0.0 0.0
585.8938018440699 27.30774895257271 241.6331822226031 -56.24216184454147 0.0 0.0
645.9543401649248 46.0166929203483 297.7868988834504 -55.46252006191901 0.0 0.0
705.1857495529424 70.20494564280798 353.0478935688912 -54.28647848667138 0.0 0.0
765.8228213306361 99.63187070435673 408.18380084329925 -52.58735277701055 0.0 0.0
830.409691237371 132.51452641711086 463.76369639318295 -50.705010720964765 0.0 0.0
896.374055038955 167.4196674877752 518.3424421090147 -48.8429411818021 0.0 0.0
959.8070581125057 195.7350700799533 565.9578006012106 -47.596174408811024 0.0 0.0
1013.900422281337 216.15774363843008 603.6485582892408 -46.79923236242726 0.0 0.0
1056.876089136523 226.54619981461445 630.2561954564671 -46.13895052602619 0.0 0.0
1087.8109153720059 226.26371676995677 645.4848878166368 -44.76658468492511 0.0 0.0
1105.915747587038 217.20358305049174 650.2766809257957 -41.25399445102374 0.0 0.0
1110.153105676566 199.58869979254516 644.1296698557308 -34.68319219634566 0.0 0.0
1101.8588850449942 176.5553624842305 628.9584622183888 -23.99302085042642 0.0 0.0
1044.9604668203176 115.75132818452118 571.8395367389212 4.2863490534728044e-11 0.0 0.0
1101.8588850452556 176.55536248450574 628.9584622185811 23.993020850483347 0.0 0.0
1110.153105676397 199.58869979241825 644.1296698555744 34.68319219640188 0.0 0.0
1105.9157475869595 217.20358305046824 650.2766809256914 41.253994451144194 0.0 0.0
1087.8109153713071 226.2637167693089 645.4848878160268 44.76658468501164 0.0 0.0
1056.8760891363447 226.54619981449673 630.2561954563054 46.13895052609118 0.0 0.0
1013.9004222805873 216.1577436377255 603.6485582886081 46.79923236242173 0.0 0.0
959.8070581117549 195.73507007927333 565.9578006006343 47.596174408818634 0.0 0.0
896.374055038597 167.419667487521 518.3424421086867 48.84294118182673 0.0 0.0
830.4096912369827 132.51452641683557 463.7636963928238 50.705010720925664 0.0 0.0
765.8228213303381 99.6318707042158 408.18380084300713 52.58735277701902 0.0 0.0
705.185749552654 70.20494564269967 353.0478935686043 54.28647848666313 0.0 0.0
645.9543401644487 46.01669292003109 297.78689888303984 55.46252006188382 0.0 0.0
585.8938018435699 27.307748952301115 241.63318222219144 56.24216184453957 0.0 0.0
527.2771499847661 16.891945591055823 188.06372928249513 55.84080554981268 0.0 0.0
449.3934004450402 6.564550333181597 138.91345918400307 54.85878231086615 0.0 0.0
349.77059755634616 3.970379550866484 105.96774648895051 58.420865683544925 0.0 0.0
263.5205176887025 3.2840943723523184 80.04689906035938 50.45200891869033 0.0 0.0
169.77518200871748 34.49763529344148 61.28184519064768 42.52125390284846 0.0 0.0
347.03523538208543 143.6771980436757 188.48462328162412 137.2311868621465 0.0 0.0
-645.3514456970544 -1294.6961131497103 -811.571458666477 51.325499395594065 0.0 0.0
-503.4712683154079 -1116.779958995434 -646.8802959959562 -57.050523167840495 0.0 0.0
251.9400945271853 62.25341406956794 118.61611162475654 -163.68721947506816 0.0 0.0
124.90035874966998 35.554846856284186 48.136561681786226 -70.4076370996282 0.0 0.0
212.8172351999426 10.158216594739017 66.8919136683133 -68.5234701474564 0.0 0.0
296.5930826762317 3.0291794430796957 89.92245344350354 -78.02899444787255 0.0 0.0
391.1828019101615 0.8957143633227503 116.88902303651045 -79.42246672940605 0.0 0.0
486.24245862744345 9.110593572696606 159.1199852953273 -75.46966295434046 0.0 0.0
547.825679715786 24.490895075564033 212.36729238811495 -74.2493469066388 0.0 0.0
608.003162126522 37.4041164539928 265.4200214246173 -73.52288460101809 0.0 0.0
665.7114799003023 58.34035980103916 319.41582570942796 -71.6531191552949 0.0 0.0
723.6859846065145 83.27448084429788 372.5197780048851 -69.3795395669773 0.0 0.0
784.2395620731942 111.8574280235947 425.77040167786396 -66.80376374912112 0.0 0.0
847.0582050762533 141.68769160924236 477.780632371952 -64.51753495379711 0.0 0.0
906.2504521964526 168.84663122362105 524.0610923448177 -62.77619609653449 0.0 0.0
958.2438140415751 186.1008653843967 559.6437542762602 -61.70404681365481 0.0 0.0
999.6877595369423 194.07673398414198 584.4025931537149 -60.85195908968209 0.0 0.0
1031.212789049164 195.36237776159246 600.7088002901596 -59.160511059029005 0.0 0.0
1051.6157102799664 188.3496106609931 607.7021031615982 -55.033753729309325 0.0 0.0
1058.2936067102698 172.2353411022355 603.5907171309485 -46.56306437721932 0.0 0.0
1050.0498503857898 147.765387841969 587.7596175982322 -31.880988693667437 0.0 0.0
970.854825653741 64.28983108588235 509.0393851772038 5.2159165875309554e-11 0.0 0.0
1050.049850385856 147.76538784205977 587.7596175983507 31.880988693748222 0.0 0.0
1058.2936067105145 172.23534110256065 603.5907171310465 46.56306437740262 0.0 0.0
1051.6157102799516 188.34961066102113 607.7021031615427 55.033753729466795 0.0 0.0
1031.2127890488848 195.36237776133365 600.7088002899075 59.16051105904016 0.0 0.0
999.6877595367158 194.07673398398978 584.4025931534841 60.85195908971029 0.0 0.0
958.2438140412168 186.10086538409053 559.6437542759437 61.704046813666025 0.0 0.0
906.250452195657 168.84663122291417 524.0610923442287 62.77619609654184 0.0 0.0
847.0582050758576 141.6876916089437 477.7806323715947 64.51753495384644 0.0 0.0
784.2395620727743 111.85742802330589 425.7704016775098 66.80376374913405 0.0 0.0
723.6859846061686 83.2744808441031 372.5197780045365 69.3795395670026 0.0 0.0
665.7114799002187 58.34035980118435 319.4158257092777 71.65311915529989 0.0 0.0
608.0031621262057 37.404116453880505 265.42002142430647 73.52288460099099 0.0 0.0
547.8256797154623 24.490895075536923 212.36729238784412 74.2493469066462 0.0 0.0
486.2424586269588 9.110593572417017 159.11998529500386 75.469662954304 0.0 0.0
391.1828019097605 0.895714363339178 116.88902303640182 79.42246672934571 0.0 0.0
296.5930826760543 3.029179443058748 89.92245344344624 78.02899444774765 0.0 0.0
212.81723519983444 10.15821659471567 66.8919136682739 68.52347014734256 0.0 0.0
124.90035874962425 35.55484685622983 48.1365616817562 70.40763709945759 0.0 0.0
251.9400945269115 62.25341406948925 118.61611162456529 163.68721947489325 0.0 0.0
-503.4712683144359 -1116.7799589942492 -646.8802959948011 57.05052316779321 0.0 0.0
-379.70147062617724 -959.4133434559618 -505.4921184048154 -64.60582623471058 0.0 0.0
177.73070085004463 3.2902250063119096 68.01778445739134 -173.5890356146482 0.0 0.0
88.75942291816625 30.25544116958544 35.70445922632552 -96.96783547040863 0.0 0.0
165.7499297467624 15.803170149746574 54.46592996895269 -87.74320253533418 0.0 0.0
243.7222077304416 4.52710005302552 74.48503310203161 -96.13933651813619 0.0 0.0
325.01507362754404 0.1768563970617199 97.26301427516972 -100.81428583391538 0.0 0.0
420.08875900042585 4.50229856458806 130.75728251995565 -97.7667275530151 0.0 0.0
506.5913027261705 13.962758114475445 176.99309791678252 -95.13157192708782 0.0 0.0
559.2783759284425 31.627366096513242 229.36462595236063 -90.08651976580752 0.0 0.0
619.7934117862138 46.09306142831664 280.46837621053714 -89.04182906890068 0.0 0.0
675.2692763476623 66.8842466178932 331.74149941836924 -86.0254830026937 0.0 0.0
732.0037747313183 90.87710906475957 382.67565098363053 -82.80195422787438 0.0 0.0
791.0511238899478 117.05328600455269 433.0210917959551 -79.90962309539131 0.0 0.0
847.544623173815 139.41835769332613 477.2782841667065 -77.84786407195097 0.0 0.0
897.0126852733447 155.30173734004308 511.9919098419456 -76.5113333371844 0.0 0.0
937.1681746719765 163.16569337889388 536.4769887572288 -75.18865466254368 0.0 0.0
969.3553677555362 163.29721265977665 552.512913804335 -73.44744229956798 0.0 0.0
992.5000677372853 159.0296889106695 562.2975190947228 -68.97566511641672 0.0 0.0
1002.905296459582 146.00070546042983 561.7420423625722 -58.864706230860996 0.0 0.0
994.4520225237046 118.97002922043568 544.6290328480098 -40.51908152232066 0.0 0.0
887.6636241874642 7.4547275521370295 439.3680554456239 9.64952562299004e-11 0.0 0.0
994.452022523407 118.97002922019345 544.6290328478527 40.51908152250528 0.0 0.0
1002.9052964595743 146.0007054604455 561.7420423625414 58.8647062310357 0.0 0.0
992.5000677371281 159.02968891057583 562.2975190946258 68.97566511650568 0.0 0.0
969.3553677550306 163.29721265930664 552.5129138039406 73.44744229963871 0.0 0.0
937.1681746719267 163.1656933789486 536.4769887571382 75.18865466265473 0.0 0.0
897.0126852732068 155.30173733994513 511.991909841809 76.51133333719076 0.0 0.0
847.5446231736933 139.41835769335623 477.27828416657076 77.8478640720086 0.0 0.0
791.0511238894894 117.0532860041837 433.02109179559415 79.90962309546937 0.0 0.0
732.0037747311837 90.87710906477082 382.67565098346387 82.80195422786173 0.0 0.0
675.2692763473843 66.88424661775616 331.7414994180872 86.02548300266847 0.0 0.0
619.7934117862152 46.09306142854673 280.4683762104256 89.0418290688776 0.0 0.0
559.2783759281275 31.62736609642091 229.36462595206265 90.08651976577718 0.0 0.0
506.59130272591636 13.962758114588704 176.99309791659797 95.13157192713888 0.0 0.0
420.08875899990414 4.502298564407388 130.7572825197172 97.76672755296227 0.0 0.0
325.0150736272794 0.17685639714845136 97.26301427512412 100.81428583381873 0.0 0.0
243.72220773031725 4.527100053150548 74.48503310203068 96.13933651795014 0.0 0.0
165.74992974669763 15.803170149725364 54.4659299689269 87.74320253519964 0.0 0.0
88.75942291815691 30.255441169534105 35.70445922630731 96.96783547021074 0.0 0.0
177.73070084980165 3.2902250062633556 68.01778445724722 173.58903561443685 0.0 0.0
-379.70147062536944 -959.4133434549404 -505.4921184038644 64.60582623473323 0.0 0.0
-276.67217121442184 -812.1024725038341 -386.4035304331167 -71.91780080726268 0.0 0.0
121.11041326118196 -43.452584076023776 30.79376945233537 -177.7482043142327 0.0 0.0
58.31428198845873 22.696030715031082 24.30309381104694 -119.26389160215784 0.0 0.0
122.0127535866452 19.34746817114149 42.408066527336004 -106.45244830472352 0.0 0.0
190.4403549920242 7.12377679467753 59.27603837436381 -112.54759426412357 0.0 0.0
259.28335207610024 -0.15260708930794695 77.65150497795533 -119.48101635096197 0.0 0.0
347.14738164746075 -3.0336449023050913 102.13650473699788 -122.90725230181819 0.0 0.0
431.777135434839 8.663008249993513 140.6035259170802 -115.34128758426937 0.0 0.0
509.62756123977294 16.411166005890163 185.2579988796286 -112.58651306194665 0.0 0.0
561.053115867826 35.769042982528354 235.69721588241705 -105.09867504796907 0.0 0.0
618.3613468938661 50.13112164136311 283.77726669455603 -102.5194598994183 0.0 0.0
671.9994928902436 69.29384715028307 332.3635599137801 -98.94554140676411 0.0 0.0
727.448841199405 91.10921005204847 381.0713675777042 -95.49039299221064 0.0 0.0
780.5470953904664 110.29682537430872 424.60794353895625 -92.9436302239685 0.0 0.0
828.0082592195279 124.09551720177824 459.22152114004484 -91.06952921022884 0.0 0.0
867.7603989175368 129.46854404494948 483.0614099645419 -89.80054148449643 0.0 0.0
899.6135434247253 132.37079053831462 500.6433979452154 -87.47212492061139 0.0 0.0
926.3619487529354 129.90899239620376 513.2421131350284 -82.83771154437193 0.0 0.0
941.7878979413699 119.33330373399453 516.6249491026583 -71.86552185391551 0.0 0.0
934.2852807405931 90.79980794852948 499.47064380614864 -50.40778699422159 0.0 0.0
793.4726824272132 -55.04545843962036 361.95554952239473 6.933120744179178e-11 0.0 0.0
934.2852807405486 90.79980794856877 499.4706438061487 50.40778699441545 0.0 0.0
941.7878979411588 119.33330373385266 516.6249491025383 71.86552185412326 0.0 0.0
926.3619487529888 129.90899239633006 513.242113135021 82.83771154451826 0.0 0.0
899.6135434243034 132.37079053794236 500.6433979448661 87.47212492068954 0.0 0.0
867.7603989175825 129.46854404510003 483.06140996457503 89.80054148460908 0.0 0.0
828.008259219237 124.09551720153027 459.2215211397723 91.06952921020599 0.0 0.0
780.5470953906528 110.29682537464278 424.6079435390047 92.94363022403707 0.0 0.0
727.4488411990022 91.1092100517922 381.07136757740255 95.49039299229655 0.0 0.0
671.9994928901438 69.2938471503149 332.36355991365446 98.94554140676924 0.0 0.0
618.361346893678 50.13112164132007 283.7772666943397 102.51945989937732 0.0 0.0
561.0531158676914 35.76904298263915 235.69721588225346 105.09867504794144 0.0 0.0
509.6275612394289 16.411166005778846 185.2579988793567 112.58651306192962 0.0 0.0
431.77713543455644 8.663008250164228 140.6035259169667 115.34128758434073 0.0 0.0
347.1473816470832 -3.0336449021198915 102.13650473694717 122.90725230173766 0.0 0.0
259.28335207582097 -0.1526070893380953 77.65150497786672 119.48101635082742 0.0 0.0
190.44035499196045 7.12377679482093 59.276038374386985 112.54759426393622 0.0 0.0
122.01275358658397 19.347468171080422 42.408066527299326 106.4524483045679 0.0 0.0
58.31428198843312 22.696030715018914 24.303093811035613 119.26389160195669 0.0 0.0
121.11041326095291 -43.45258407605013 30.793769452224407 177.74820431397785 0.0 0.0
-276.6721712138268 -812.1024725029874 -386.4035304323954 71.91780080730746 0.0 0.0
-182.69892231785963 -697.0430234220071 -285.09738033665434 -91.7783491354844 0.0 0.0
69.61617653922313 -73.30331455372881 1.6733251220159904 -171.79624525465488 0.0 0.0
32.41613611116122 15.493896275001365 14.373009715848776 -136.77041847342556 0.0 0.0
80.9146794316445 20.897910964536628 30.543777118854333 -123.17995331912654 0.0 0.0
137.53288287080557 9.686438605919767 44.167081148562126 -126.93628561002672 0.0 0.0
193.49769774456882 1.5728633085182973 58.53045236599428 -134.48249665555272 0.0 0.0
259.75055723115577 -1.822074857340692 76.90905239953497 -140.9648518355174 0.0 0.0
341.2970282931784 -0.2715601266470522 102.92764593888194 -138.96057377232967 0.0 0.0
422.3913145436203 8.145471840868122 138.85126063046718 -131.72630077519446 0.0 0.0
492.4591356439072 16.855418200314855 180.25530529393254 -127.28948983794461 0.0 0.0
546.298931816886 32.33402239214021 225.56302912811483 -119.23287195095197 0.0 0.0
597.9113378360873 47.566664167060544 271.1772853166871 -114.58398974746231 0.0 0.0
651.3066996462685 64.5099017362185 317.89452653923973 -111.24816576098122 0.0 0.0
701.2730808819883 79.72065658009411 360.98771356452363 -108.15497009851852 0.0 0.0
747.5396528688286 90.79156290388184 396.66051446916487 -105.9103674767445 0.0 0.0
786.2048368217013 96.73093327940556 422.4807174667361 -103.95300393974277 0.0 0.0
819.5618813616545 98.40142320297056 441.08212809438936 -101.83784829529421 0.0 0.0
848.4765081842525 98.73387772238195 456.623304875979 -96.71371637997308 0.0 0.0
870.1776132205375 94.01915633777833 466.60375011761465 -85.15359717074728 0.0 0.0
866.8951788514527 65.38108151327609 451.9740787506997 -62.15160874414448 0.0 0.0
682.6381278974026 -123.54919706316409 274.33970243419554 6.279776698647765e-11 0.0 0.0
866.8951788517694 65.38108151372401 451.97407875096343 62.15160874438337 0.0 0.0
870.1776132205465 94.01915633788636 466.60375011764916 85.15359717101309 0.0 0.0
848.4765081842769 98.73387772252877 456.62330487595875 96.71371638018437 0.0 0.0
819.561881361118 98.40142320245201 441.08212809394405 101.8378482953686 0.0 0.0
786.204836821687 96.73093327949717 422.48071746674253 103.9530039398105 0.0 0.0
747.5396528684552 90.79156290353541 396.6605144688784 105.91036747677157 0.0 0.0
701.273080881911 79.72065658013281 360.98771356441193 108.15497009855585 0.0 0.0
651.3066996461408 64.5099017362364 317.8945265391208 111.24816576105854 0.0 0.0
597.9113378356574 47.56666416672197 271.17728531634003 114.58398974744811 0.0 0.0
546.298931816607 32.3340223919747 225.56302912783931 119.23287195090697 0.0 0.0
492.45913564371347 16.855418200316272 180.2553052937553 127.28948983787126 0.0 0.0
422.39131454312377 8.145471840642397 138.85126063018967 131.7263007752154 0.0 0.0
341.2970282928297 -0.2715601264886489 102.92764593880625 138.96057377231375 0.0 0.0
259.75055723086075 -1.8220748572012857 76.90905239949733 140.964851835382 0.0 0.0
193.49769774442044 1.5728633085505135 58.53045236596014 134.48249665538103 0.0 0.0
137.53288287074685 9.686438605988691 44.167081148564726 126.93628560983598 0.0 0.0
80.9146794316203 20.897910964579516 30.543777118859936 123.17995331892405 0.0 0.0
32.41613611110802 15.493896274986668 14.373009715828402 136.77041847322494 0.0 0.0
69.61617653894753 -73.3033145536957 1.673325121919242 171.79624525436344 0.0 0.0
-182.69892231739476 -697.0430234213078 -285.0973803361319 91.77834913555881 0.0 0.0
-132.58609173331803 -579.6661855415978 -219.0388224997183 -101.70137682905835 0.0 0.0
28.012850770235197 -91.56785447318796 -18.333018054303338 -160.7915603401915 0.0 0.0
8.782343666589368 8.69215915720141 5.243896260174565 -149.66650112721476 0.0 0.0
42.33649739309609 21.046694207907045 19.01495748030094 -136.95731364697423 0.0 0.0
85.26135734238808 11.956392453416928 29.16575645260957 -138.66086424972343 0.0 0.0
127.02524671739641 3.7343100034961134 39.24855521322525 -146.14277915027913 0.0 0.0
171.90226595363225 -0.4087124451680897 51.42250618861933 -153.52362404766546 0.0 0.0
232.91930347118858 -2.073591404563265 68.37701374006626 -160.78688624778567 0.0 0.0
304.79169646314705 -2.156393543928506 90.72412009790375 -156.2140940790575 0.0 0.0
378.91446358145475 -2.025064317106041 117.69203022882579 -150.34022018042592 0.0 0.0
438.9401184639849 10.965303149255163 153.77549477125933 -138.44876418408563 0.0 0.0
495.8256196251325 21.670181894482056 191.75235563649485 -131.13994197172198 0.0 0.0
549.126447128761 36.27883816487741 234.56702706199417 -126.49525180923814 0.0 0.0
597.7900427128325 47.60339735427277 276.4043274117634 -123.4409750479671 0.0 0.0
643.0580091306565 56.583108000674734 314.2779236659443 -121.07541257245595 0.0 0.0
682.1860685369433 60.9408589577115 343.52848394818693 -118.48310489140928 0.0 0.0
718.0043258523369 65.04394572102359 367.28328496115853 -116.20621713981832 0.0 0.0
747.5163441549191 65.59869875665089 385.4609444851144 -111.0151592959812 0.0 0.0
776.2342659849925 64.0064657461067 401.76360324723703 -98.94909566736574 0.0 0.0
786.8017675691675 43.38153278423956 399.0915046741458 -76.59895344831415 0.0 0.0
547.281669750453 -195.90569324003604 174.59675798295828 7.01803060110251e-11 0.0 0.0
786.8017675694455 43.38153278466035 399.09150467441145 76.59895344855494 0.0 0.0
776.2342659848762 64.00646574609604 401.76360324718206 98.94909566765243 0.0 0.0
747.5163441546781 65.59869875646447 385.46094448493386 111.01515929618148 0.0 0.0
718.0043258518224 65.04394572047806 367.283284960754 116.20621713984207 0.0 0.0
682.186068536917 60.94085895775609 343.5284839481478 118.4831048914115 0.0 0.0
643.0580091300823 56.58310800010169 314.27792366555786 121.07541257247027 0.0 0.0
597.7900427129333 47.60339735459786 276.4043274118001 123.44097504805585 0.0 0.0
549.1264471287157 36.27883816499005 234.56702706193514 126.4952518093169 0.0 0.0
495.8256196245485 21.67018189393787 191.75235563606526 131.13994197173162 0.0 0.0
438.94011846389964 10.965303149418244 153.77549477119192 138.44876418406756 0.0 0.0
378.91446358101337 -2.0250643174224816 117.69203022856786 150.34022018034273 0.0 0.0
304.79169646286607 -2.156393543689916 90.7241200978865 156.2140940790544 0.0 0.0
232.9193034708799 -2.073591404553655 68.37701373997842 160.78688624769708 0.0 0.0
171.90226595354727 -0.4087124449352588 51.42250618866554 153.52362404756815 0.0 0.0
127.02524671732886 3.734310003544019 39.248555213220044 146.14277915012195 0.0 0.0
85.26135734232658 11.95639245338863 29.165756452582333 138.66086424950856 0.0 0.0
42.336497393123 21.04669420801158 19.014957480340367 136.95731364678198 0.0 0.0
8.782343666589219 8.692159157232215 5.243896260183513 149.6665011270353 0.0 0.0
28.012850770084256 -91.56785447319936 -18.333018054360178 160.79156034002023 0.0 0.0
-132.5860917331033 -579.6661855409308 -219.03882249940392 101.7013768290488 0.0 0.0
-102.88434919410791 -479.96980226832284 -173.77258525889943 -106.4058856855646 0.0 0.0
1.0000905977763512 -101.19678061077857 -30.206351344670704 -152.2463789238746 0.0 0.0
-12.806717435658696 2.7004660570282537 -3.0310039568071128 -157.85173819154468 0.0 0.0
5.897587601363526 20.224388122591648 7.83659271718655 -147.25599190504505 0.0 0.0
33.93857609884482 13.799698814625451 14.323269994173682 -147.22840758132864 0.0 0.0
60.16310620237898 5.974975608757278 19.83892943553764 -154.14707999051132 0.0 0.0
85.29267924001195 1.2417542124909713 25.937720189220826 -162.37585340164378 0.0 0.0
114.52325607236246 -0.47126032308949695 34.13534707140102 -168.3482536140892 0.0 0.0
152.52623702450924 0.5512232234455356 45.920445546345604 -167.92003176282935 0.0 0.0
199.15869008882933 -1.457393522905484 59.78826002006713 -163.44717751304194 0.0 0.0
261.08399519099015 -7.6529783543062075 75.62868903322614 -165.90953942304708 0.0 0.0
313.85264956982707 -9.635438907842373 94.4379532354662 -156.67892504111202 0.0 0.0
371.32413175048686 -9.632177263634976 116.30582951779338 -151.54296211408965 0.0 0.0
429.15320097928077 -6.8874948911256375 143.09051290560552 -144.3681432071888 0.0 0.0
472.79539458329356 3.471873966479489 175.43601258336017 -137.55409610595206 0.0 0.0
510.4776614528582 16.960288975254166 207.92882615227415 -136.81480578868369 0.0 0.0
550.1954426106846 28.994495399542238 242.4596893929451 -138.12992796662166 0.0 0.0
585.0819575354021 29.547639634125055 271.5232664756563 -133.27944155494473 0.0 0.0
618.2741250827294 21.183551096389685 293.39826947958323 -118.51379079994747 0.0 0.0
659.7530112292333 19.376288419217992 318.57933440603125 -95.26505304953511 0.0 0.0
355.9813417317305 -274.9160854237046 48.52307773795738 3.121769509562e-11 0.0 0.0
659.7530112289365 19.376288419039795 318.57933440589983 95.26505304980847 0.0 0.0
618.2741250825671 21.183551096419666 293.3982694795022 118.51379080030188 0.0 0.0
585.0819575351769 29.54763963392993 271.52326647548654 133.27944155522385 0.0 0.0
550.1954426104502 28.99449539936819 242.45968939274675 138.1299279667425 0.0 0.0
510.47766145296436 16.960288975356974 207.92882615229263 136.81480578870813 0.0 0.0
472.7953945832211 3.4718739665282055 175.43601258331378 137.55409610593406 0.0 0.0
429.1532009790323 -6.887494891434658 143.09051290545676 144.36814320730548 0.0 0.0
371.32413175058895 -9.63217726331462 116.30582951789997 151.54296211419847 0.0 0.0
313.85264956944087 -9.63543890820436 94.4379532352225 156.67892504108545 0.0 0.0
261.0839951908417 -7.6529783542652865 75.62868903318747 165.90953942300817 0.0 0.0
199.15869008852417 -1.4573935232737427 59.78826001986314 163.4471775129731 0.0 0.0
152.5262370244933 0.551223223778798 45.92044554643958 167.9200317628477 0.0 0.0
114.52325607233607 -0.47126032280993035 34.13534707147758 168.34825361399993 0.0 0.0
85.2926792400563 1.2417542127427557 25.937720189310497 162.37585340146876 0.0 0.0
60.16310620240903 5.97497560888044 19.838929435584003 154.14707999033985 0.0 0.0
33.93857609881642 13.799698814552098 14.32326999414299 147.2284075811607 0.0 0.0
5.897587601421303 20.224388122699132 7.836592717236133 147.25599190486733 0.0 0.0
-12.806717435622561 2.700466057094043 -3.031003956776818 157.85173819136085 0.0 0.0
1.0000905977314098 -101.19678061078517 -30.206351344684144 152.24637892374847 0.0 0.0
-102.88434919401813 -479.96980226776407 -173.7725852587175 106.40588568549879 0.0 0.0
-86.27836429981076 -382.9471695544468 -140.80799532438846 -98.52442097990729 0.0 0.0
-16.027445193773264 -104.93600837454741 -36.28424292597673 -145.35930281155933 0.0 0.0
-32.480945023957396 -2.242092426776612 -10.414778749600758 -161.762808691402 0.0 0.0
-28.622599580689997 18.837630282368078 -2.934940794746126 -153.74434221257246 0.0 0.0
-16.25879306013914 15.054160388956527 -0.3612711007108407 -152.30961625206922 0.0 0.0
-6.715737972768919 8.2307196751958 0.45454043780347364 -157.7541459604977 0.0 0.0
-2.0758249064192746 2.984432990874352 0.2710736668887379 -165.84970721107777 0.0 0.0
-0.2793868206156489 0.5086737184669752 0.06724048110006908 -170.7955421400261 0.0 0.0
0.16083951549559572 -0.17287960706184657 -0.0038138767149051844 -172.70923518040354 0.0 0.0
0.18804512441485954 -0.10830226895994954 0.024531232261788105 -168.234106476714 0.0 0.0
0.11967336167941767 -0.07615428785816736 0.01402349997676211 -167.80783028007602 0.0 0.0
0.0973643481198394 -0.0564455626366005 0.0029632937072374688 -162.47706739733482 0.0 0.0
-0.3106400441894124 0.166551429350136 -0.03788102104775248 -159.84648029295397 0.0 0.0
-0.7893882001826285 0.6454348779895227 0.029444102601246414 -158.06387417769196 0.0 0.0
2.0752074323392407 0.1613538412365081 0.6525099346673713 -155.35074962585145 0.0 0.0
20.53070857898419 -4.97975493476784 3.4149350711683155 -145.87670265285666 0.0 0.0
54.72011303418101 -2.431379871240047 9.665157605471293 -136.8952750191623 0.0 0.0
131.64077292219355 -10.986818800633621 22.898903465553005 -135.2117927059118 0.0 0.0
259.81476294344986 -61.58226718324218 36.41288375289696 -131.400388817151 0.0 0.0
384.09624661184534 -58.66588187349666 112.61837723953704 -121.4219591007873 0.0 0.0
-98.38160326640553 -403.7647174256518 -189.43416892204021 -5.022116056352388e-11 0.0 0.0
384.09624661166185 -58.665881873834024 112.61837723933695 121.42195910100429 0.0 0.0
259.81476294339507 -61.58226718341589 36.412883752811325 131.40038881766432 0.0 0.0
131.6407729223112 -10.986818800472626 22.898903465655998 135.21179270631245 0.0 0.0
54.72011303418345 -2.431379871542518 9.665157605373999 136.89527501931042 0.0 0.0
20.530708578971534 -4.979754935133137 3.414935071040553 145.8767026528805 0.0 0.0
2.0752074327128867 0.16135384184365975 0.6525099349774912 155.35074962577244 0.0 0.0
-0.7893882003204098 0.6454348772493343 0.029444102318656462 158.0638741777732 0.0 0.0
-0.3106400439598147 0.16655142944095758 -0.03788102094463852 159.84648029303986 0.0 0.0
0.09736434838183428 -0.05644556240939824 0.002963293855822613 162.47706739733653 0.0 0.0
0.11967336165237796 -0.07615428828740534 0.01402349983777107 167.80783028005283 0.0 0.0
0.18804512452819466 -0.1083022690442923 0.02453123227198617 168.2341064766429 0.0 0.0
0.16083951566388777 -0.17287960686932635 -0.003813876605844868 172.70923518042403 0.0 0.0
-0.2793868205081509 0.5086737186149909 0.06724048117660342 170.79554213995488 0.0 0.0
-2.0758249063146117 2.9844329909677727 0.27107366694802026 165.84970721091383 0.0 0.0
-6.71573797263042 8.230719675395983 0.45454043790502996 157.75414596029773 0.0 0.0
-16.25879306010526 15.05416038893441 -0.3612711007072553 152.30961625188849 0.0 0.0
-28.622599580610228 18.837630282459816 -2.9349407946947847 153.74434221240963 0.0 0.0
-32.480945023932264 -2.242092426785201 -10.414778749596083 161.76280869122974 0.0 0.0
-16.027445193776177 -104.9360083745139 -36.284242925967 145.3593028114257 0.0 0.0
-86.27836429971822 -382.9471695540399 -140.8079953242421 98.52442097982834 0.0 0.0
-69.5535007352925 -301.86688417099236 -111.42611547188542 -89.8051849920691 0.0 0.0
-28.58936176220085 -102.15295653738733 -39.22250711044642 -137.27654748343798 0.0 0.0
-50.49445091846779 -6.012573247718169 -16.953197400011295 -161.50724586849148 0.0 0.0
-61.44445401852731 17.115869654259054 -13.297032115812485 -156.23220856592002 0.0 0.0
-65.20349176940874 15.658744679520758 -14.865086946220847 -153.52527386597143 0.0 0.0
-72.83960288719189 10.192387410600995 -18.800542839759636 -156.98744786467893 0.0 0.0
-89.30457400709992 4.660778054744613 -25.347276230236943 -163.69497552333647 0.0 0.0
-115.14537753966022 1.4531611329964824 -34.017286833050875 -168.6571083924713 0.0 0.0
-152.24048415670936 -0.8923579191570958 -45.9337155622082 -167.8806160492256 0.0 0.0
-198.81721875175134 1.2328375388942714 -59.7482953653299 -163.40800599426788 0.0 0.0
-260.7908567761299 7.493630527737619 -75.59853047794749 -165.80299479450386 0.0 0.0
-313.82835477665157 9.628082610445194 -94.40763119863746 -157.03251634654418 0.0 0.0
-371.8158807762656 9.832182460082533 -116.40185038390904 -151.3218313742895 0.0 0.0
-429.9042569434022 7.698789323430773 -143.05818224333092 -143.93220193352423 0.0 0.0
-471.0941294110908 -1.2463346052932849 -173.45707016414195 -138.11591310289901 0.0 0.0
-502.3366538513487 -5.96427223874754 -196.94481061453837 -139.53924002618564 0.0 0.0
-522.5948279268016 -4.251447697079236 -208.58024196449173 -144.94153909645982 0.0 0.0
-528.7878102078978 10.333598659201748 -200.4782611686635 -153.63091665964362 0.0 0.0
-518.4279603383824 21.784248942155777 -174.74322948360356 -152.98046250765898 0.0 0.0
-333.00750075302074 4.063416243228893 -120.50439098587997 -98.27047417654063 0.0 0.0
-567.1056558342594 -580.0910297073111 -536.1731794681375 -9.748646334628575e-11 0.0 0.0
-333.0075007525346 4.063416243714968 -120.50439098556566 98.270474176912 0.0 0.0
-518.4279603387027 21.78424894170739 -174.7432294838189 152.98046250807818 0.0 0.0
-528.7878102072757 10.333598659820034 -200.47826116826468 153.63091665979354 0.0 0.0
-522.5948279265198 -4.2514476968217245 -208.58024196427016 144.94153909654432 0.0 0.0
-502.3366538518436 -5.964272239489457 -196.9448106148598 139.53924002623717 0.0 0.0
-471.09412941089545 -1.2463346051914677 -173.4570701639923 138.11591310297248 0.0 0.0
-429.90425694341036 7.698789323160179 -143.0581822433704 143.93220193358005 0.0 0.0
-371.81588077591704 9.832182459981803 -116.40185038380125 151.3218313743646 0.0 0.0
-313.8283547762887 9.628082610418518 -94.40763119850604 157.0325163466252 0.0 0.0
-260.79085677555884 7.493630527807188 -75.59853047774456 165.80299479442547 0.0 0.0
-198.81721875121337 1.2328375390241524 -59.748295365130936 163.40800599417855 0.0 0.0
-152.24048415628775 -0.8923579188780044 -45.93371556199658 167.8806160492124 0.0 0.0
-115.14537753948434 1.4531611328959804 -34.01728683302952 168.65710839240816 0.0 0.0
-89.30457400692987 4.6607780547083255 -25.347276230198027 163.69497552317034 0.0 0.0
-72.83960288717384 10.192387410364987 -18.800542839825262 156.9874478644913 0.0 0.0
-65.20349176921185 15.658744679721863 -14.865086946101798 153.52527386578475 0.0 0.0
-61.44445401842183 17.115869654279674 -13.297032115775103 156.232208565726 0.0 0.0
-50.49445091838472 -6.012573247652391 -16.95319739996636 161.50724586834963 0.0 0.0
-28.58936176217896 -102.1529565373171 -39.22250711041882 137.27654748329047 0.0 0.0
-69.55350073522048 -301.8668841706713 -111.4261154717675 89.80518499198448 0.0 0.0
-55.79845246857715 -231.49536776405046 -86.18814606978825 -80.00601306501295 0.0 0.0
-38.42692919804245 -95.01248549427477 -40.031824407695154 -127.55051332689399 0.0 0.0
-67.28536014602935 -8.528012830381162 -22.74472429740353 -157.39879987413534 0.0 0.0
-92.71992593791231 15.167614414029844 -23.26755379538578 -154.61229076491702 0.0 0.0
-112.81652077722873 15.6724183981191 -29.135438094773047 -150.9000626886364 0.0 0.0
-137.9999134779102 11.670741300985886 -37.86805529655589 -152.23290540627102 0.0 0.0
-174.93679160372042 5.6796928487415625 -50.817756071109415 -154.91548882494135 0.0 0.0
-233.36323960327616 2.8886783271265433 -68.28007528325061 -161.1325628322686 0.0 0.0
-304.55335637018413 1.7649131740854571 -90.77310665046471 -156.08333912165008 0.0 0.0
-378.76707740983784 1.8307917918025147 -117.68109162405253 -150.28528172525986 0.0 0.0
-438.8718423272459 -10.986018370997511 -153.73686351987197 -138.45403812338387 0.0 0.0
-495.7761609600403 -21.69899077275453 -191.73551469826123 -131.1504449012957 0.0 0.0
-549.2856498260994 -36.33965123767152 -234.67455242777206 -126.25263036752415 0.0 0.0
-598.1618818913088 -47.36607635339234 -276.46701696458155 -122.90947580203844 0.0 0.0
-641.8275367522009 -54.76775162247699 -312.82810047430536 -121.23158991549491 0.0 0.0
-674.492168835655 -54.776312833601786 -336.8988402225315 -121.66151878969146 0.0 0.0
-694.208209256659 -48.29196154159027 -348.2556182610356 -125.51002919954905 0.0 0.0
-700.1130991771925 -40.113243939899064 -349.4547501388719 -133.51284898160193 0.0 0.0
-688.5735904175112 -27.78088015250254 -336.8472710713912 -142.40301404610375 0.0 0.0
-678.6180118579837 -35.01667278301825 -328.7983796536296 -139.11693613331184 0.0 0.0
-1186.1905261201978 -794.5279501633881 -921.1889056679584 2.8762769943568856e-11 0.0 0.0
-678.6180118577715 -35.01667278287286 -328.7983796535733 139.1169361335874 0.0 0.0
-688.5735904173855 -27.780880152571513 -336.84727107134773 142.40301404637015 0.0 0.0
-700.1130991765958 -40.11324393934472 -349.45475013846965 133.51284898181152 0.0 0.0
-694.2082092565377 -48.29196154151729 -348.25561826095503 125.51002919965907 0.0 0.0
-674.4921688358924 -54.77631283402573 -336.898840222661 121.66151878976672 0.0 0.0
-641.8275367522336 -54.76775162268576 -312.8281004742956 121.23158991553966 0.0 0.0
-598.1618818911352 -47.36607635345466 -276.467016964441 122.90947580209338 0.0 0.0
-549.2856498259623 -36.3396512377282 -234.67455242764012 126.25263036758439 0.0 0.0
-495.7761609598097 -21.698990772811918 -191.73551469807572 131.15044490131802 0.0 0.0
-438.8718423270935 -10.986018371209125 -153.73686351977503 138.45403812343648 0.0 0.0
-378.7670774091305 1.8307917920447707 -117.68109162372971 150.2852817251656 0.0 0.0
-304.55335636963434 1.764913174031947 -90.77310665030855 156.0833391216741 0.0 0.0
-233.36323960266483 2.8886783275605032 -68.28007528293976 161.13256283225766 0.0 0.0
-174.9367916035104 5.679692848547339 -50.817756071106004 154.91548882481533 0.0 0.0
-137.99991347776722 11.670741300773361 -37.86805529657792 152.23290540609443 0.0 0.0
-112.81652077700468 15.67241839828016 -29.135438094658145 150.90006268845036 0.0 0.0
-92.71992593778576 15.167614414047206 -23.2675537953431 154.61229076471267 0.0 0.0
-67.28536014589868 -8.528012830258845 -22.74472429732743 157.39879987398788 0.0 0.0
-38.4269291980384 -95.01248549421757 -40.03182440767679 127.55051332676341 0.0 0.0
-55.79845246853965 -231.49536776380955 -86.18814606970476 80.00601306491123 0.0 0.0
-45.10186041620717 -171.24575067269552 -64.90428332667081 -69.91023421954051 0.0 0.0
-46.534760629225104 -84.872385919425 -39.42214396459503 -116.11765655816305 0.0 0.0
-83.1782612551306 -9.735864749944813 -27.875242288817923 -149.51044446228707 0.0 0.0
-122.69372815701632 13.126114066114328 -32.86764949759195 -149.05197472445613 0.0 0.0
-158.90030365453407 14.921492040801153 -43.18863102903567 -144.0749953907749 0.0 0.0
-200.79224243286959 12.094880372465429 -56.703991057409254 -141.88391722038438 0.0 0.0
-262.9639749199341 7.816453776156743 -75.78937962092202 -145.24896619134603 0.0 0.0
-341.72604308897473 0.7599008615807152 -102.89340319855025 -139.36813647681416 0.0 0.0
-422.3863211297152 -8.425417719105821 -138.8915970283377 -131.61218646487592 0.0 0.0
-492.5489566357261 -17.01316325663651 -180.29431322909463 -127.22510191679388 0.0 0.0
-546.2355872360996 -32.37984113092276 -225.56445754248594 -119.18242545055269 0.0 0.0
-597.8379468933347 -47.530973987048654 -271.11973050790823 -114.59287942373291 0.0 0.0
-651.3122462136386 -64.54170480287947 -317.85444384804754 -111.07159287372258 0.0 0.0
-701.725724368556 -79.88172959303424 -361.18428138425224 -107.56997051388697 0.0 0.0
-747.337961156252 -90.08411980054248 -396.2250249355975 -105.57165300919254 0.0 0.0
-780.9553968103585 -92.0939806081037 -417.93082084823936 -106.3047085249714 0.0 0.0
-800.9154636476303 -83.92248902409095 -426.0560329643912 -110.512627143541 0.0 0.0
-801.3653494091046 -65.0978773540152 -418.63900090065175 -118.12522990750648 0.0 0.0
-782.570254543097 -40.53738998106542 -397.1042217295434 -126.69789633206727 0.0 0.0
-741.3143734612681 -13.98021383677241 -362.99750442047457 -130.57357934014837 0.0 0.0
-1588.2158839148005 -1005.8309986154038 -1231.8451609390056 7.09192704562156e-11 0.0 0.0
-741.3143734613819 -13.980213837112458 -362.99750442057245 130.57357934044265 0.0 0.0
-782.570254542772 -40.537389980856865 -397.1042217293055 126.69789633231346 0.0 0.0
-801.3653494086881 -65.09787735372944 -418.63900090034275 118.12522990770984 0.0 0.0
-800.9154636478871 -83.92248902451394 -426.05603296454774 110.51262714370321 0.0 0.0
-780.955396810488 -92.0939806083367 -417.9308208483081 106.30470852506062 0.0 0.0
-747.3379611562178 -90.08411980063315 -396.2250249355186 105.57165300925112 0.0 0.0
-701.7257243680012 -79.88172959249923 -361.18428138385264 107.5699705138544 0.0 0.0
-651.3122462135718 -64.54170480300073 -317.85444384794874 111.0715928737514 0.0 0.0
-597.8379468929168 -47.53097398678946 -271.1197305075411 114.59287942370827 0.0 0.0
-546.235587235852 -32.3798411309856 -225.56445754225825 119.18242545050845 0.0 0.0
-492.54895663533085 -17.01316325655471 -180.2943132288023 127.22510191681481 0.0 0.0
-422.38632112913876 -8.425417718950484 -138.8915970280284 131.6121864649319 0.0 0.0
-341.7260430883293 0.7599008617666538 -102.89340319829891 139.36813647679696 0.0 0.0
-262.9639749194924 7.8164537762127235 -75.78937962078157 145.24896619121398 0.0 0.0
-200.79224243255624 12.094880372593245 -56.70399105727712 141.88391722025057 0.0 0.0
-158.90030365431505 14.921492040857308 -43.18863102895384 144.07499539062454 0.0 0.0
-122.69372815685412 13.126114066172645 -32.86764949752629 149.05197472431288 0.0 0.0
-83.1782612550185 -9.735864749868732 -27.875242288761243 149.5104444621593 0.0 0.0
-46.53476062918376 -84.87238591934633 -39.42214396455903 116.11765655803292 0.0 0.0
-45.101860416200736 -171.24575067253488 -64.90428332662067 69.91023421947348 0.0 0.0
-37.24824591505977 -120.61855985567675 -47.360041731220946 -59.60639054219502 0.0 0.0
-53.448643766026244 -72.93704456770676 -37.9157065001199 -103.07371475941724 0.0 0.0
-98.36472914515304 -9.688008806366678 -32.41621573358703 -138.07259366430242 0.0 0.0
-151.4825174698429 10.920111139795342 -42.175385385431014 -139.37260478269974 0.0 0.0
-203.39424554676197 13.595431673495701 -56.92977506843543 -133.32554483908726 0.0 0.0
-264.1101725028525 12.822472725089721 -75.04363193666194 -129.4935545507802 0.0 0.0
-346.47574449798964 6.2150391770391735 -101.46101133229453 -124.411690017282 0.0 0.0
-431.4641205653206 -8.45990778191361 -140.49109867685488 -115.62678846649433 0.0 0.0
-509.83643438453976 -16.703330804008203 -185.37503497541942 -112.42130793897863 0.0 0.0
-561.2034504278527 -35.93581616893445 -235.80221399330605 -104.99943116317787 0.0 0.0
-618.3825494173445 -50.11199069280955 -283.784262206957 -102.51584914941003 0.0 0.0
-671.8468154863378 -69.16226564904856 -332.22994791484325 -98.9579168311812 0.0 0.0
-727.183552546906 -90.93960033453503 -380.78647187899514 -95.39059498876885 0.0 0.0
-780.8952364219252 -110.6194397107507 -424.8129443471688 -92.41730803916529 0.0 0.0
-829.1377383848394 -124.8730822315048 -460.1698408590723 -90.38921063369452 0.0 0.0
-866.5028043907837 -128.2266395117071 -482.0834360702337 -91.29331713082007 0.0 0.0
-885.1492063586796 -119.85477996432664 -488.31534016695167 -94.6556316175421 0.0 0.0
-878.5848506685443 -90.01855092990422 -471.5834422830787 -100.95477084349919 0.0 0.0
-843.0520542989894 -44.96744701626936 -432.28468916746095 -109.7516735208038 0.0 0.0
-774.6768920407817 9.89148919613747 -371.47053298288336 -118.23640479059272 0.0 0.0
-1894.1979350599233 -1217.3242388426245 -1496.162248514332 5.647393663821276e-11 0.0 0.0
-774.6768920408638 9.891489195941901 -371.4705329829653 118.23640479078024 0.0 0.0
-843.0520542986786 -44.967447016073855 -432.2846891672559 109.75167352102316 0.0 0.0
-878.5848506683128 -90.01855092973216 -471.5834422829265 100.95477084365203 0.0 0.0
-885.1492063586703 -119.85477996437294 -488.3153401669542 94.65563161758823 0.0 0.0
-866.5028043908253 -128.22663951180851 -482.0834360701918 91.2933171307939 0.0 0.0
-829.1377383844821 -124.87308223127616 -460.16984085875396 90.38921063373914 0.0 0.0
-780.8952364215991 -110.6194397105428 -424.8129443468958 92.41730803925435 0.0 0.0
-727.1835525466928 -90.93960033449439 -380.786471878795 95.39059498882065 0.0 0.0
-671.8468154862209 -69.16226564911823 -332.2299479146636 98.95791683120906 0.0 0.0
-618.3825494166879 -50.111990692263944 -283.78426220643655 102.51584914931348 0.0 0.0
-561.2034504275218 -35.9358161689036 -235.80221399299927 104.99943116315818 0.0 0.0
-509.83643438395194 -16.703330803678522 -185.37503497499824 112.42130793897955 0.0 0.0
-431.46412056486724 -8.459907781888088 -140.4910986766149 115.62678846646784 0.0 0.0
-346.475744497268 6.215039177343069 -101.46101133200033 124.41169001716702 0.0 0.0
-264.1101725024523 12.822472725165131 -75.04363193652574 129.49355455066208 0.0 0.0
-203.39424554653496 13.595431673468305 -56.92977506837641 133.32554483897576 0.0 0.0
-151.48251746967236 10.92011113982591 -42.17538538537063 139.37260478255763 0.0 0.0
-98.36472914503618 -9.688008806279765 -32.41621573352577 138.07259366418168 0.0 0.0
-53.448643765981835 -72.93704456762735 -37.915706500082734 103.07371475930258 0.0 0.0
-37.248245915026466 -120.61855985556122 -47.36004173117629 59.6063905421607 0.0 0.0
-31.921563831663413 -79.38961893830054 -33.39335483098918 -49.07826701783487 0.0 0.0
-59.34268408190286 -60.148656802428626 -35.847402265299436 -88.52878850816585 0.0 0.0
-112.8398522861905 -8.568250987280283 -36.42243098204123 -123.25153360820272 0.0 0.0
-179.26708799537073 8.657800176635593 -51.18792652189018 -125.79429350177439 0.0 0.0
-245.93694961043133 11.608661912248147 -70.3476515540752 -118.40875611771938 0.0 0.0
-325.9744548956607 11.941220085015782 -93.35322918502192 -111.83793347460387 0.0 0.0
-418.9365268997002 -1.7322752328810394 -129.77919326354277 -100.500460157265 0.0 0.0
-506.3560724767283 -13.936117960578615 -176.94776844074931 -95.329129390654 0.0 0.0
-559.5251165240207 -31.83785860185331 -229.49068963063934 -89.9127746227842 0.0 0.0
-619.9529046466291 -46.21060404075439 -280.5870734272824 -88.96137842716496 0.0 0.0
-675.2975688800564 -66.88544229377322 -331.7733061754034 -86.01352538934587 0.0 0.0
-731.7894147522713 -90.67094577595691 -382.47689887911815 -82.80903814367007 0.0 0.0
-790.4809838138019 -116.61167136193512 -432.46388996145413 -79.8570271565282 0.0 0.0
-847.5050025627843 -139.5830189821346 -477.2340144141283 -77.47278080072462 0.0 0.0
-899.384162392736 -157.6082914824537 -514.3262850782028 -75.77608443742476 0.0 0.0
-940.1205908044338 -165.77397190632928 -539.4614799179028 -75.82942774544236 0.0 0.0
-959.6444565108998 -153.81271272771136 -543.6570015939716 -78.54509625257073 0.0 0.0
-943.4986044636923 -113.78942036956035 -516.8636716822534 -83.12636992354427 0.0 0.0
-887.0314019368507 -46.889964814651705 -457.00382192349434 -91.56035834313835 0.0 0.0
-792.9220216778756 34.53810704099463 -371.00061502854265 -105.71371606736464 0.0 0.0
-2167.3946588580693 -1430.3267716179034 -1743.2355962944346 3.328537445668189e-11 0.0 0.0
-792.9220216777798 34.53810704095574 -371.00061502852213 105.7137160675614 0.0 0.0
-887.0314019369804 -46.8899648148716 -457.0038219236183 91.56035834338824 0.0 0.0
-943.4986044631622 -113.7894203691132 -516.8636716818284 83.12636992369673 0.0 0.0
-959.6444565112325 -153.81271272809823 -543.6570015941677 78.54509625265473 0.0 0.0
-940.1205908041286 -165.77397190609003 -539.4614799175998 75.82942774541878 0.0 0.0
-899.3841623924152 -157.60829148222396 -514.3262850779428 75.77608443747842 0.0 0.0
-847.5050025625847 -139.5830189820593 -477.2340144139083 77.47278080080457 0.0 0.0
-790.4809838137634 -116.6116713620256 -432.46388996139893 79.8570271565465 0.0 0.0
-731.7894147522449 -90.67094577611955 -382.4768988789919 82.80903814366484 0.0 0.0
-675.2975688796878 -66.88544229358887 -331.773306175052 86.01352538932568 0.0 0.0
-619.952904646469 -46.21060404085305 -280.5870734270871 88.96137842715605 0.0 0.0
-559.5251165236546 -31.837858601754938 -229.49068963029504 89.9127746227636 0.0 0.0
-506.35607247601865 -13.936117960091996 -176.9477684402398 95.32912939059767 0.0 0.0
-418.93652689914245 -1.7322752327114155 -129.77919326327589 100.5004601572561 0.0 0.0
-325.97445489529116 11.941220084863907 -93.35322918496459 111.83793347450401 0.0 0.0
-245.93694961016618 11.608661912165593 -70.34765155402519 118.40875611756971 0.0 0.0
-179.2670879951483 8.657800176772756 -51.187926521781826 125.79429350166372 0.0 0.0
-112.8398522861145 -8.568250987278129 -36.42243098201779 123.251533608092 0.0 0.0
-59.34268408185221 -60.148656802405924 -35.84740226527744 88.52878850812262 0.0 0.0
-31.921563831599535 -79.38961893820868 -33.39335483094246 49.07826701777996 0.0 0.0
-28.72710748027183 -47.535434800725795 -22.878762684299286 -38.37540779682165 0.0 0.0
-64.07273623992185 -47.23307416543642 -33.39174312160748 -72.61181152230756 0.0 0.0
-126.50976719833784 -6.744668759193065 -39.976330787259265 -105.14163983270795 0.0 0.0
-206.1006199110773 6.431344350427469 -59.906665811120455 -108.25387327783255 0.0 0.0
-287.72513762075255 9.443521319902217 -83.38064943103754 -100.37281505892123 0.0 0.0
-381.4783116742078 4.7634085759329805 -113.59678623378315 -87.6530659156159 0.0 0.0
-484.4496943537593 -6.531588481135506 -157.71980571219564 -78.06011083534794 0.0 0.0
-547.6136301385463 -24.471733272267432 -212.29018665840363 -74.22647362924607 0.0 0.0
-608.2320288025638 -37.50856558454853 -265.5543116014985 -73.36610007596832 0.0 0.0
-665.8723599332103 -58.43697547711234 -319.5444861121532 -71.59513461201878 0.0 0.0
-723.6972513918148 -83.26028699305444 -372.53495252252253 -69.37541231795653 0.0 0.0
-783.9653934643472 -111.58887937030315 -425.50683019764995 -66.79901020179489 0.0 0.0
-846.2935447201249 -141.060370342186 -477.05368240447604 -64.47509598292748 0.0 0.0
-905.7822855861217 -168.7284539524478 -523.7058156179212 -62.59617106304351 0.0 0.0
-960.8283732687852 -188.92653115188415 -562.3697986437351 -61.204731690834976 0.0 0.0
-1005.764452615047 -199.78077122331152 -590.4707225192697 -60.75264070707388 0.0 0.0
-1027.270224990037 -190.63427286504734 -596.7812177400101 -61.87305753119441 0.0 0.0
-1003.3261982116678 -141.07883945338534 -561.0643087812972 -64.73708824043705 0.0 0.0
-924.5415454128727 -49.42658503363499 -478.21661988895687 -73.212548988707 0.0 0.0
-797.1581291129556 64.74385706440584 -360.53257236623017 -94.15286275692645 0.0 0.0
-2421.2510504999605 -1641.7545105885488 -1979.2274799125082 6.411227104763384e-11 0.0 0.0
-797.1581291126475 64.74385706467055 -360.53257236602644 94.1528627570502 0.0 0.0
-924.5415454132594 -49.42658503411576 -478.2166198892372 73.21254898891418 0.0 0.0
-1003.3261982109085 -141.07883945265428 -561.0643087806748 64.73708824052814 0.0 0.0
-1027.2702249901704 -190.63427286524816 -596.7812177400333 61.873057531245834 0.0 0.0
-1005.7644526144884 -199.7807712228144 -590.4707225188097 60.75264070710616 0.0 0.0
-960.8283732685308 -188.92653115170793 -562.3697986434884 61.20473169086106 0.0 0.0
-905.7822855855721 -168.72845395199778 -523.7058156174372 62.59617106304005 0.0 0.0
-846.2935447200622 -141.0603703422548 -477.05368240440725 64.47509598298082 0.0 0.0
-783.9653934639912 -111.58887937010134 -425.5068301973273 66.79901020178808 0.0 0.0
-723.6972513914677 -83.2602869928931 -372.5349525221941 69.37541231795686 0.0 0.0
-665.8723599329628 -58.436975477122864 -319.54448611186973 71.59513461204416 0.0 0.0
-608.2320288020924 -37.50856558433293 -265.55431160108606 73.36610007597548 0.0 0.0
-547.6136301380569 -24.471733272026494 -212.290186658006 74.22647362922059 0.0 0.0
-484.44969435320485 -6.531588480880913 -157.71980571183445 78.06011083532941 0.0 0.0
-381.478311673817 4.763408575512266 -113.59678623381079 87.65306591550504 0.0 0.0
-287.7251376204093 9.443521319943923 -83.38064943092368 100.3728150588033 0.0 0.0
-206.10061991084913 6.4313443504269365 -59.906665811051404 108.25387327774772 0.0 0.0
-126.50976719819299 -6.744668759153235 -39.97633078720387 105.1416398326067 0.0 0.0
-64.07273623989141 -47.23307416546719 -33.39174312160757 72.61181152227186 0.0 0.0
-28.727107480251668 -47.53543480068288 -22.878762684280364 38.37540779678427 0.0 0.0
-27.090188707063433 -25.09219518204423 -15.654715166732293 -27.757204884956323 0.0 0.0
-67.16646767094186 -34.806600695310784 -30.591920509875788 -55.503671983316686 0.0 0.0
-139.13183485941587 -4.771804289744062 -43.171091744747976 -83.66804280159764 0.0 0.0
-231.9916484723871 4.635748308063944 -68.20891889011139 -86.67978971995399 0.0 0.0
-328.3310984848556 5.330534061591139 -96.73326792060294 -78.2386339887294 0.0 0.0
-440.35152189322514 -0.26565541667151393 -134.15046972488693 -63.39453577937929 0.0 0.0
-524.9585410318301 -15.742872040728278 -186.92194094567725 -57.23771463051149 0.0 0.0
-585.7290035908726 -27.076145437254343 -241.52591296858282 -56.15016463775851 0.0 0.0
-646.1671110140849 -46.06049719397639 -297.9383138681826 -55.34388953330897 0.0 0.0
-705.3489022203007 -70.30156163991653 -353.184122171683 -54.24820392466931 0.0 0.0
-765.7918363882818 -99.57830618482174 -408.1544010254621 -52.587812148062476 0.0 0.0
-830.076810976621 -132.19863330442945 -463.43938101168186 -50.68545842199876 0.0 0.0
-895.6030791121918 -166.79875970223765 -517.6313933479937 -48.7968783026727 0.0 0.0
-959.1632306644664 -195.47630516432022 -565.498287986537 -47.57683676672168 0.0 0.0
-1015.5104284126553 -218.20160495312388 -605.5431250416693 -46.65750713193417 0.0 0.0
-1062.4394137706786 -231.99104113896584 -635.9492626724394 -45.683762652865006 0.0 0.0
-1089.512614008126 -227.074431110332 -646.9226392830503 -45.26820612167181 0.0 0.0
-1065.3933039527185 -176.38378659162692 -610.1502428220372 -46.269633926984405 0.0 0.0
-964.1099497647674 -60.319941485515955 -504.1820263126895 -54.4623104077117 0.0 0.0
-786.4306294983987 105.73269375278076 -336.9872257239117 -82.26097912948988 0.0 0.0
-2658.9129512192176 -1843.9889891825292 -2202.359445212168 3.630873379734112e-12 0.0 0.0
-786.4306294981087 105.73269375302385 -336.9872257236882 82.26097912957258 0.0 0.0
-964.1099497650105 -60.31994148583298 -504.1820263128767 54.46231040791161 0.0 0.0
-1065.393303952492 -176.38378659141324 -610.1502428218444 46.26963392702374 0.0 0.0
-1089.5126140080276 -227.0744311102884 -646.9226392829435 45.26820612168197 0.0 0.0
-1062.4394137697334 -231.99104113806095 -635.949262671668 45.68376265286286 0.0 0.0
-1015.5104284120722 -218.20160495260248 -605.5431250412091 46.6575071319359 0.0 0.0
-959.1632306632555 -195.47630516316434 -565.4982879855885 47.57683676666989 0.0 0.0
-895.6030791118438 -166.79875970202224 -517.6313933477152 48.796878302703675 0.0 0.0
-830.0768109763253 -132.19863330427543 -463.43938101139554 50.685458422012374 0.0 0.0
-765.7918363879563 -99.57830618467217 -408.1544010251623 52.587812148051356 0.0 0.0
-705.3489022198871 -70.30156163971172 -353.1841221712931 54.24820392467316 0.0 0.0
-646.1671110135802 -46.06049719366966 -297.9383138677324 55.343889533334675 0.0 0.0
-585.7290035906661 -27.076145437340315 -241.52591296833293 56.15016463772186 0.0 0.0
-524.9585410313191 -15.742872040480698 -186.92194094529137 57.237714630453965 0.0 0.0
-440.3515218927961 -0.26565541679829696 -134.1504697247628 63.39453577935638 0.0 0.0
-328.3310984845136 5.330534061532484 -96.73326792052363 78.23863398866197 0.0 0.0
-231.9916484722124 4.635748307958472 -68.20891889009006 86.67978971987601 0.0 0.0
-139.131834859257 -4.771804289645142 -43.17109174467062 83.66804280150244 0.0 0.0
-67.16646767086917 -34.806600695260705 -30.591920509838967 55.50367198326632 0.0 0.0
-27.090188707030343 -25.092195182036097 -15.65471516671993 27.75720488494928 0.0 0.0
-26.019097676470754 -11.922436191764792 -11.382460160470664 -17.91561984980016 0.0 0.0
-67.75245520817975 -23.562522984614592 -27.394493457838294 -37.45371154383385 0.0 0.0
-150.25554697710598 -3.4070734145942887 -46.09878611751006 -58.466688841441055 0.0 0.0
-256.9009049263443 3.777507907115978 -75.93799148045115 -60.756360549986624 0.0 0.0
-370.40568271560716 -1.069300310559547 -111.1624326101323 -52.60391431805091 0.0 0.0
-487.2874710078062 -7.115711497634866 -156.3505581524259 -39.64326882918451 0.0 0.0
-552.5063560695567 -21.185760684069805 -212.4910808558875 -37.281144565534014 0.0 0.0
-618.2243754435765 -32.59497214072059 -268.96913638462473 -37.63105782386272 0.0 0.0
-678.1143280624809 -54.75732480293404 -326.30160321048044 -37.34178443593781 0.0 0.0
-739.1865060658745 -82.16827597331252 -382.58236043994845 -36.67522845394382 0.0 0.0
-803.6838682643543 -115.46152209989057 -439.84853447699993 -35.627798628747335 0.0 0.0
-871.4405718541725 -152.96704303056038 -497.8685362907554 -34.28157630736229 0.0 0.0
-941.6771208209349 -189.78937469230118 -554.1515758526491 -33.127808270467774 0.0 0.0
-1007.3575369603468 -223.20049820380672 -604.7915710015544 -32.27930011416805 0.0 0.0
-1065.785811324519 -247.08955509702636 -646.1266629349569 -31.778655447369868 0.0 0.0
-1111.084911179036 -258.63233309941535 -674.5075108246867 -30.923561531776524 0.0 0.0
-1139.7256238134792 -255.92086366417743 -687.3051734304171 -29.46887677852584 0.0 0.0
-1137.7407753704758 -227.30370669359547 -671.9685055602511 -28.628666154082428 0.0 0.0
-1023.605728431096 -95.94075102741019 -551.9416900144199 -34.357363953687475 0.0 0.0
-755.2524755455065 164.7208230961877 -293.7593228118099 -68.00717450910375 0.0 0.0
-2868.2889839784775 -2021.3133396948192 -2399.6785930628416 2.972910806420259e-11 0.0 0.0
-755.2524755447787 164.72082309689654 -293.759322811266 68.00717450917008 0.0 0.0
-1023.6057284309919 -95.94075102734911 -551.9416900143596 34.35736395379052 0.0 0.0
-1137.7407753705565 -227.30370669371038 -671.9685055602034 28.628666154126513 0.0 0.0
-1139.7256238131483 -255.92086366388924 -687.3051734301346 29.468876778550666 0.0 0.0
-1111.0849111780444 -258.6323330984665 -674.5075108238369 30.923561531771693 0.0 0.0
-1065.7858113240004 -247.0895550965726 -646.1266629344996 31.778655447389983 0.0 0.0
-1007.3575369593973 -223.20049820292073 -604.7915710007703 32.27930011410503 0.0 0.0
-941.6771208204902 -189.78937469198914 -554.1515758522933 33.127808270503955 0.0 0.0
-871.4405718537753 -152.9670430303226 -497.8685362903999 34.28157630741566 0.0 0.0
-803.683868263982 -115.46152209969001 -439.8485344766634 35.62779862875596 0.0 0.0
-739.1865060653895 -82.16827597301301 -382.5823604395206 36.675228453954574 0.0 0.0
-678.1143280620893 -54.75732480274277 -326.30160321009544 37.34178443596567 0.0 0.0
-618.2243754433051 -32.59497214072112 -268.96913638433216 37.63105782386348 0.0 0.0
-552.5063560690677 -21.18576068386048 -212.49108085548795 37.28114456549184 0.0 0.0
-487.28747100744596 -7.1157114976470455 -156.3505581522251 39.643268829189196 0.0 0.0
-370.40568271520243 -1.0693003106524688 -111.16243261005599 52.60391431803 0.0 0.0
-256.900904926117 3.777507907118514 -75.93799148038146 60.756360549961904 0.0 0.0
-150.25554697695185 -3.4070734145143367 -46.09878611743985 58.46668884136377 0.0 0.0
-67.75245520808826 -23.562522984535317 -27.39449345778708 37.45371154380474 0.0 0.0
-26.019097676421808 -11.922436191764762 -11.382460160455969 17.91561984979813 0.0 0.0
-23.564612418725044 -7.256355560945428 -9.246290393901141 -10.401267334747226 0.0 0.0
-64.4680975971376 -14.72594550630391 -23.758212931032453 -18.753343420892676 0.0 0.0
-158.98128703730697 -3.2881019017838655 -48.68081668172724 -28.631757210850246 0.0 0.0
-281.4512962520748 3.393995506913929 -83.43231636821979 -29.922741811230026 0.0 0.0
-416.3109248708765 -6.100189267033681 -126.39390305337196 -24.490814131151186 0.0 0.0
-520.0155579100269 -15.25527141006896 -179.2155345673041 -18.746230652816745 0.0 0.0
-581.2667177120805 -20.495815835892543 -233.995550909242 -19.652377064410825 0.0 0.0
-645.1931122585449 -39.13218127251235 -293.65158674607756 -19.59677194148506 0.0 0.0
-705.7392454795092 -62.94933489764463 -350.90693745561435 -19.229251192340584 0.0 0.0
-768.9241441161087 -94.10918388323987 -408.7556824780016 -18.921167552572598 0.0 0.0
-837.2762869641801 -131.61274203386492 -468.54264447406024 -18.281553625511844 0.0 0.0
-910.000937862472 -172.1709049747992 -529.1776620083776 -17.684181441356262 0.0 0.0
-982.3954283296866 -213.70833882703835 -588.0448038558355 -17.121793732436323 0.0 0.0
-1052.516934928502 -249.58617125315817 -641.5954119186796 -16.688582158523076 0.0 0.0
-1112.2951903222277 -274.7272694922962 -684.087684149456 -16.504080866547582 0.0 0.0
-1155.3519147153036 -284.173619735245 -710.2490653019048 -16.036627744636164 0.0 0.0
-1177.4785850832302 -275.638345647101 -716.9585443734786 -14.756483466902685 0.0 0.0
-1187.9606722351193 -260.4125913001752 -714.1012587575326 -13.275771138874257 0.0 0.0
-1160.034965560646 -213.8509162225563 -678.1919330540023 -14.869957848287944 0.0 0.0
-735.3159140611181 211.7682457085843 -260.80767704849563 -43.53083264201255 0.0 0.0
-2943.356489571389 -2062.6548788232385 -2464.879682756882 4.846256729251763e-11 0.0 0.0
-735.3159140607168 211.7682457089766 -260.8076770481907 43.530832642072745 0.0 0.0
-1160.0349655604632 -213.85091622239352 -678.1919330538551 14.869957848254488 0.0 0.0
-1187.9606722346043 -260.4125912997079 -714.101258757033 13.275771138876493 0.0 0.0
-1177.4785850827302 -275.6383456466455 -716.9585443730832 14.756483466979729 0.0 0.0
-1155.3519147148481 -284.1736197348427 -710.2490653014463 16.036627744676036 0.0 0.0
-1112.2951903220207 -274.72726949216667 -684.0876841492073 16.50408086658091 0.0 0.0
-1052.5169349279886 -249.58617125272417 -641.5954119181723 16.688582158487407 0.0 0.0
-982.395428329076 -213.70833882655828 -588.0448038553595 17.121793732468785 0.0 0.0
-910.0009378619475 -172.1709049744057 -529.1776620079396 17.684181441381455 0.0 0.0
-837.2762869637861 -131.6127420336444 -468.54264447372435 18.281553625503967 0.0 0.0
-768.9241441155291 -94.10918388282575 -408.75568247750056 18.9211675525487 0.0 0.0
-705.7392454792523 -62.94933489759007 -350.9069374553264 19.229251192300826 0.0 0.0
-645.1931122580575 -39.13218127225387 -293.6515867456236 19.596771941504574 0.0 0.0
-581.2667177117199 -20.495815835771122 -233.99555090889422 19.652377064365613 0.0 0.0
-520.0155579097895 -15.255271410219391 -179.21553456713 18.746230652786657 0.0 0.0
-416.31092487051257 -6.100189267092295 -126.39390305326006 24.49081413116307 0.0 0.0
-281.4512962517729 3.3939955070358057 -83.43231636809281 29.922741811223265 0.0 0.0
-158.9812870371864 -3.288101901802051 -48.68081668169653 28.63175721078927 0.0 0.0
-64.46809759705785 -14.725945506239151 -23.758212930989107 18.75334342090576 0.0 0.0
-23.56461241867623 -7.25635556092904 -9.246290393881582 10.401267334756023 0.0 0.0
-13.342464368605588 -3.327371228639861 -5.000950679173633 -6.779115618974255 0.0 0.0
-53.89854821694862 -7.792826631954592 -18.507412454670963 -7.815977812318911 0.0 0.0
-163.50037618240538 -3.9814055462601345 -50.24453451859965 -9.817739098277919 0.0 0.0
-310.89385618347507 -4.086054741145489 -94.47959586191443 -10.43829459067635 0.0 0.0
-466.49495342403253 -26.619617430960545 -150.1890480013964 -6.350586859528608 0.0 0.0
-573.0418562498908 -49.685334521916296 -216.3876332328356 -2.7870317703670935 0.0 0.0
-639.294000182684 -63.36435701196453 -280.8893159833835 -3.0856935748215903 0.0 0.0
-714.3782674283343 -95.98705629217815 -353.0404413918128 -3.3913367406735055 0.0 0.0
-790.6403560102875 -136.90464390216633 -426.1557861974975 -3.41712536243851 0.0 0.0
-876.8905822772144 -190.69146499879548 -505.66016624411265 -3.6896334829797777 0.0 0.0
-976.4794847551045 -258.55934973986075 -595.0852378308024 -4.042253534780203 0.0 0.0
-1088.9114157733277 -340.61803071650013 -695.409654466488 -4.554976427583881 0.0 0.0
-1211.2528868528793 -430.25326000711016 -802.2997151784216 -4.925578560576655 0.0 0.0
-1339.9043901467621 -524.6183963045746 -913.7166260340186 -5.370020747338414 0.0 0.0
-1464.2819814972304 -614.1980722906911 -1020.1357404233283 -5.8506595503877605 0.0 0.0
-1570.0151229562452 -686.2856435948937 -1108.4951847456084 -6.115558191595241 0.0 0.0
-1639.3709773320916 -725.4360218109051 -1162.5003121725067 -5.76059655156331 0.0 0.0
-1652.365184194759 -713.9181504856454 -1163.0642720687417 -4.852660844255102 0.0 0.0
-1645.4743206825271 -689.1019787608011 -1148.3704672792192 -4.778477563696558 0.0 0.0
-1511.0740092201836 -546.4349301473244 -1012.2289137038061 -28.82780284747933 0.0 0.0
-4140.277182202897 -3231.865723204336 -3632.254201048123 -1.3173462320992257e-11 0.0 0.0
-1511.0740092202368 -546.434930147403 -1012.2289137038373 28.82780284752963 0.0 0.0
-1645.4743206825087 -689.1019787608091 -1148.370467279135 4.778477563686735 0.0 0.0
-1652.3651841933192 -713.9181504842314 -1163.064272067576 4.852660844243726 0.0 0.0
-1639.370977331565 -725.4360218104111 -1162.50031217207 5.760596551557935 0.0 0.0
-1570.0151229558942 -686.2856435946177 -1108.495184745173 6.115558191583414 0.0 0.0
-1464.2819814971144 -614.1980722906467 -1020.1357404231676 5.850659550402941 0.0 0.0
-1339.9043901462162 -524.6183963041226 -913.7166260334474 5.370020747304057 0.0 0.0
-1211.2528868520385 -430.2532600063846 -802.2997151777477 4.925578560607828 0.0 0.0
-1088.9114157728975 -340.6180307162223 -695.4096544660506 4.554976427593928 0.0 0.0
-976.4794847546224 -258.5593497395482 -595.0852378303723 4.042253534799826 0.0 0.0
-876.8905822766479 -190.69146499840863 -505.6601662436127 3.6896334830028756 0.0 0.0
-790.6403560099789 -136.90464390206876 -426.15578619714665 3.4171253623900775 0.0 0.0
-714.378267427383 -95.98705629140875 -353.04044139102297 3.391336740649617 0.0 0.0
-639.2940001824057 -63.36435701195991 -280.88931598305305 3.0856935747740764 0.0 0.0
-573.0418562495215 -49.68533452185584 -216.3876332325294 2.7870317703345364 0.0 0.0
-466.49495342372916 -26.619617431105887 -150.18904800129954 6.350586859547121 0.0 0.0
-310.89385618309467 -4.086054740900039 -94.47959586173104 10.438294590689047 0.0 0.0
-163.50037618228566 -3.981405546347492 -50.244534518589916 9.817739098206854 0.0 0.0
-53.898548216850784 -7.7928266318451165 -18.507412454608765 7.815977812356071 0.0 0.0
-13.342464368612205 -3.3273712286391195 -5.000950679175398 6.77911561897378 0.0 0.0
SCALARS Strain float 6
LOOKUP_TABLE default
0.0076551045720469005 -0.01445617491221364 0.0 -0.0002577447088728059 0.0 0.0
0.004939016103014779 -0.0004246174963621627 0.0 -0.003996161506108732 0.0 0.0
0.001970420782825846 -0.0007404388377860547 0.0 -0.0004182038142371559 0.0 0.0
0.001864433199596371 -0.000728813344355136 0.0 -5.299494101608688e-05 0.0 0.0
0.0022976663269537174 -0.0008963095469701303 0.0 -6.163389360171087e-06 0.0 0.0
0.0031206276840704712 -0.0014359461868940072 0.0 3.236536227288451e-05 0.0 0.0
0.004358303329257368 -0.0023824517360494348 0.0 2.770016408101849e-05 0.0 0.0
0.00593669896016057 -0.0036120993087857206 0.0 2.855689977225078e-05 0.0 0.0
0.00789598188487975 -0.00519055971433171 0.0 4.7210449195471296e-05 0.0 0.0
0.010316967508933038 -0.007171278331344833 0.0 7.226100344697632e-05 0.0 0.0
0.013365998953755127 -0.009703857567544919 0.0 0.00014944127376727962 0.0 0.0
0.017330604911000365 -0.01307672851467874 0.0 0.0002782612696297792 0.0 0.0
0.022534568415887413 -0.017644854758156192 0.0 0.00035841808052470886 0.0 0.0
0.029255179068345877 -0.02370022800119935 0.0 0.0004350112281345677 0.0 0.0
0.03763190350520559 -0.03142094101266847 0.0 0.00043935188460713477 0.0 0.0
0.04750642759033516 -0.040682410290224666 0.0 0.000340642395755099 0.0 0.0
0.058304811183374924 -0.0509350465703608 0.0 0.00013929158781505265 0.0 0.0
0.06902571708179644 -0.06120242180514951 0.0 -9.610408577995504e-05 0.0 0.0
0.07839852892772206 -0.07023736237015789 0.0 -0.00022114723148632413 0.0 0.0
0.08509290178044408 -0.07675367244150598 0.0 -0.00027045446058038443 0.0 0.0
0.0876056765836229 -0.0792723473741381 0.0 6.938893903907228e-17 0.0 0.0
0.08509290178043935 -0.07675367244150293 0.0 0.00027045446058442156 0.0 0.0
0.0783985289277114 -0.07023736237015016 0.0 0.00022114723149004424 0.0 0.0
0.06902571708178051 -0.06120242180513333 0.0 9.610408578222514e-05 0.0 0.0
0.05830481118335662 -0.05093504657034813 0.0 -0.0001392915878151049 0.0 0.0
0.04750642759031726 -0.040682410290209275 0.0 -0.0003406423957547345 0.0 0.0
0.03763190350518744 -0.031420941012650354 0.0 -0.0004393518846070757 0.0 0.0
0.02925517906832647 -0.02370022800118663 0.0 -0.0004350112281347421 0.0 0.0
0.02253456841586746 -0.01764485475813919 0.0 -0.0003584180805249296 0.0 0.0
0.017330604910980936 -0.013076728514661722 0.0 -0.00027826126963004385 0.0 0.0
0.01336599895373784 -0.009703857567530765 0.0 -0.00014944127376823892 0.0 0.0
0.010316967508918574 -0.0071712783313348846 0.0 -7.226100344795222e-05 0.0 0.0
0.00789598188486771 -0.0051905597143217476 0.0 -4.721044919598591e-05 0.0 0.0
0.005936698960150802 -0.003612099308776837 0.0 -2.855689977183896e-05 0.0 0.0
0.0043583033292500135 -0.002382451736042324 0.0 -2.7700164081220096e-05 0.0 0.0
0.003120627684065842 -0.0014359461868895093 0.0 -3.236536227218422e-05 0.0 0.0
0.0022976663269515868 -0.0008963095469693356 0.0 6.163389360265331e-06 0.0 0.0
0.0018644331995954695 -0.0007288133443536032 0.0 5.2994941016220364e-05 0.0 0.0
0.00197042078282479 -0.0007404388377855998 0.0 0.0004182038142358645 0.0 0.0
0.004939016103012181 -0.0004246174963621331 0.0 0.003996161506104693 0.0 0.0
0.007655104572043223 -0.014456174912196992 0.0 0.00025774470884785375 0.0 0.0
0.004986104645177364 -0.012856032360860012 0.0 0.0001297227017988562 0.0 0.0
0.0031116484730548863 -0.0002575213411741822 0.0 -0.0030284801082123324 0.0 0.0
0.0014057581090502766 -0.0005933694472549951 0.0 -0.0002906913165249425 0.0 0.0
0.0016888740361561425 -0.0007068550014945385 0.0 -0.00020251776182266313 0.0 0.0
0.002040558398062128 -0.0008358351967896415 0.0 -0.00019068338344789646 0.0 0.0
0.0027526880911389953 -0.001302732796334583 0.0 -0.00018388256313386833 0.0 0.0
0.0038666281190493845 -0.00218452303263541 0.0 -0.0003009687597151613 0.0 0.0
0.0053025103548132975 -0.0033456297652923214 0.0 -0.00039245688279567885 0.0 0.0
0.007072203987679793 -0.004834126040633746 0.0 -0.00048529793222602943 0.0 0.0
0.009240572757615565 -0.006697516080703022 0.0 -0.0005840954425611136 0.0 0.0
0.01195243874197818 -0.009076628087324273 0.0 -0.0006721266941433188 0.0 0.0
0.015460182168946188 -0.01223526498332656 0.0 -0.0007564267646858729 0.0 0.0
0.020091011236974335 -0.016521195221586796 0.0 -0.0009257109949408699 0.0 0.0
0.026133545657504857 -0.022245662899403155 0.0 -0.0012084787947245449 0.0 0.0
0.0337258070221365 -0.029576984565338138 0.0 -0.0015944997765216322 0.0 0.0
0.04272707290233567 -0.03839879208063295 0.0 -0.0020739735852399657 0.0 0.0
0.05260280399524865 -0.048186411296628956 0.0 -0.0025384008657444185 0.0 0.0
0.062443630543675 -0.05801471369139065 0.0 -0.0027601020630406542 0.0 0.0
0.0710882672925151 -0.06669885338251556 0.0 -0.0024961559113111298 0.0 0.0
0.07721090063661169 -0.07294585108576397 0.0 -0.0017774557789303335 0.0 0.0
0.07946619279313762 -0.07538641875315132 0.0 2.482606134557308e-15 0.0 0.0
0.07721090063660732 -0.07294585108576165 0.0 0.0017774557789386153 0.0 0.0
0.0710882672925056 -0.06669885338250763 0.0 0.002496155911319396 0.0 0.0
0.06244363054366138 -0.05801471369137698 0.0 0.002760102063045121 0.0 0.0
0.0526028039952331 -0.04818641129661536 0.0 0.002538400865745461 0.0 0.0
0.042727072902319814 -0.038398792080618915 0.0 0.0020739735852406734 0.0 0.0
0.0337258070221201 -0.029576984565321596 0.0 0.0015944997765215275 0.0 0.0
0.02613354565748765 -0.022245662899390797 0.0 0.0012084787947251267 0.0 0.0
0.020091011236956727 -0.01652119522157049 0.0 0.0009257109949403305 0.0 0.0
0.015460182168928825 -0.012235264983311116 0.0 0.0007564267646850154 0.0 0.0
0.011952438741962512 -0.00907662808731117 0.0 0.0006721266941408846 0.0 0.0
0.009240572757602438 -0.006697516080692661 0.0 0.0005840954425597399 0.0 0.0
0.007072203987668963 -0.004834126040624759 0.0 0.00048529793222543935 0.0 0.0
0.005302510354804372 -0.0033456297652843517 0.0 0.00039245688279520793 0.0 0.0
0.0038666281190427596 -0.002184523032630311 0.0 0.000300968759714475 0.0 0.0
0.00275268809113517 -0.0013027327963315702 0.0 0.00018388256313357654 0.0 0.0
0.0020405583980603955 -0.0008358351967889646 0.0 0.00019068338344790708 0.0 0.0
0.0016888740361553712 -0.0007068550014934044 0.0 0.0002025177618224365 0.0 0.0
0.0014057581090502062 -0.0005933694472547599 0.0 0.00029069131652385746 0.0 0.0
0.0031116484730519416 -0.00025752134117364096 0.0 0.0030284801082069972 0.0 0.0
0.004986104645171151 -0.012856032360843454 0.0 -0.00012972270181775926 0.0 0.0
0.0035039228842499237 -0.010111452748830343 0.0 -0.0018474787496090823 0.0 0.0
0.002105770573595613 -9.235290881447116e-05 0.0 -0.0029779809160250456 0.0 0.0
0.000995282092586841 -0.0003407414393069178 0.0 -0.0002688039479426184 0.0 0.0
0.0014478985308455385 -0.0006256827941481767 0.0 -0.0004460008054440203 0.0 0.0
0.0018083401767672205 -0.0007400587098143498 0.0 -0.00047354903291396786 0.0 0.0
0.002394618149510195 -0.0010569653215784576 0.0 -0.0004191694684616283 0.0 0.0
0.0033650728754636384 -0.0017854094814979196 0.0 -0.0006165083701874818 0.0 0.0
0.004660581444455476 -0.002818883243494066 0.0 -0.0008189120512050327 0.0 0.0
0.006242877608211512 -0.0041256630277268745 0.0 -0.0010227041919354078 0.0 0.0
0.008165234083450164 -0.005758029352199476 0.0 -0.0012321867807717326 0.0 0.0
0.010551411237418023 -0.007832841020390063 0.0 -0.0014448944483819249 0.0 0.0
0.01362155819072792 -0.010574840414028022 0.0 -0.001673740755160115 0.0 0.0
0.017677600094172234 -0.01430320743680515 0.0 -0.001991083381477018 0.0 0.0
0.023023190437826146 -0.019350500545145036 0.0 -0.002507752395402988 0.0 0.0
0.029806242152757866 -0.025890756760412918 0.0 -0.0032377750979693015 0.0 0.0
0.03789731517953776 -0.0338157823097506 0.0 -0.004109476006011923 0.0 0.0
0.04683183287812173 -0.04266119688580055 0.0 -0.004918870294818447 0.0 0.0
0.05580694117153212 -0.05161396262098778 0.0 -0.005278814489039788 0.0 0.0
0.06374640073466649 -0.05960105180358202 0.0 -0.004802875663547723 0.0 0.0
0.06941167508034975 -0.06536731195256831 0.0 -0.003396064347259275 0.0 0.0
0.07151552309907946 -0.06771554567587366 0.0 5.504711270143403e-15 0.0 0.0
0.06941167508034575 -0.06536731195256573 0.0 0.003396064347273561 0.0 0.0
0.06374640073465802 -0.05960105180357565 0.0 0.004802875663562052 0.0 0.0
0.05580694117152048 -0.051613962620977914 0.0 0.005278814489049346 0.0 0.0
0.04683183287810857 -0.04266119688579148 0.0 0.0049188702948213345 0.0 0.0
0.03789731517952379 -0.033815782309737336 0.0 0.004109476006011547 0.0 0.0
0.029806242152743134 -0.02589075676040022 0.0 0.003237775097968806 0.0 0.0
0.023023190437810773 -0.019350500545132623 0.0 0.002507752395403095 0.0 0.0
0.017677600094156615 -0.014303207436790144 0.0 0.0019910833814752605 0.0 0.0
0.013621558190712493 -0.010574840414015312 0.0 0.0016737407551573671 0.0 0.0
0.010551411237404081 -0.007832841020378498 0.0 0.0014448944483789286 0.0 0.0
0.008165234083438465 -0.005758029352189214 0.0 0.0012321867807696713 0.0 0.0
0.006242877608201672 -0.00412566302772019 0.0 0.0010227041919340738 0.0 0.0
0.004660581444447542 -0.002818883243488232 0.0 0.0008189120512030422 0.0 0.0
0.0033650728754579646 -0.0017854094814942559 0.0 0.0006165083701861 0.0 0.0
0.002394618149507198 -0.0010569653215764612 0.0 0.00041916946846088136 0.0 0.0
0.0018083401767659993 -0.0007400587098139673 0.0 0.00047354903291417126 0.0 0.0
0.0014478985308450127 -0.0006256827941479318 0.0 0.0004460008054433622 0.0 0.0
0.0009952820925869838 -0.00034074143930717656 0.0 0.0002688039479415374 0.0 0.0
0.0021057705735925735 -9.235290881319524e-05 0.0 0.0029779809160168304 0.0 0.0
0.003503922884243336 -0.010111452748814876 0.0 0.0018474787495967137 0.0 0.0
0.0025688569975691657 -0.008072095032603517 0.0 -0.0022500203982414447 0.0 0.0
0.0014945939211235403 -0.00013619980770756323 0.0 -0.0028546895475037846 0.0 0.0
0.0007052066893174534 -0.00017409736433157935 0.0 -0.0005527763007385498 0.0 0.0
0.0011927183402211457 -0.0004990153179774169 0.0 -0.000655949231748125 0.0 0.0
0.001580849179096769 -0.0006614317319033556 0.0 -0.0007587295970113932 0.0 0.0
0.002063041880979763 -0.0008732990610546742 0.0 -0.0006972013778913118 0.0 0.0
0.002865601366832187 -0.0014011357171146977 0.0 -0.0008301426825636388 0.0 0.0
0.004009518451556307 -0.0022998489855178155 0.0 -0.0011527504298470498 0.0 0.0
0.00540995967488785 -0.0034304438109504015 0.0 -0.0014455273765224875 0.0 0.0
0.007093294396426935 -0.004836417218897651 0.0 -0.0017450884746413975 0.0 0.0
0.009163558826254798 -0.006616281840498213 0.0 -0.002053230264873345 0.0 0.0
0.011810085813215758 -0.008956709985120426 0.0 -0.0023914091428391057 0.0 0.0
0.015306907867554353 -0.012142635538282858 0.0 -0.002836472582751945 0.0 0.0
0.019942293159750983 -0.016499293302163646 0.0 -0.003506564503515933 0.0 0.0
0.025883877698162198 -0.02221646424974417 0.0 -0.004463937367362571 0.0 0.0
0.03303952932816788 -0.029212172359352695 0.0 -0.00562892042889235 0.0 0.0
0.04100958007828517 -0.037090461038367974 0.0 -0.006706181990846119 0.0 0.0
0.0491057668165512 -0.04515897479342454 0.0 -0.007203922169535438 0.0 0.0
0.056367964356543294 -0.052460221405893556 0.0 -0.00663439792329151 0.0 0.0
0.06165913436981521 -0.05784438895031997 0.0 -0.004647246502363537 0.0 0.0
0.06366408448417918 -0.06019898182069161 0.0 8.860750674855034e-15 0.0 0.0
0.06165913436981122 -0.057844388950314546 0.0 0.0046472465023819475 0.0 0.0
0.05636796435653564 -0.052460221405886846 0.0 0.006634397923309396 0.0 0.0
0.049105766816541226 -0.045158974793415005 0.0 0.007203922169547917 0.0 0.0
0.041009580078273815 -0.037090461038360514 0.0 0.006706181990850582 0.0 0.0
0.03303952932815531 -0.02921217235934099 0.0 0.005628920428892502 0.0 0.0
0.025883877698149288 -0.022216464249735435 0.0 0.004463937367361718 0.0 0.0
0.019942293159737712 -0.016499293302154376 0.0 0.0035065645035154275 0.0 0.0
0.015306907867540527 -0.012142635538270915 0.0 0.0028364725827504022 0.0 0.0
0.011810085813202352 -0.00895670998510907 0.0 0.0023914091428354975 0.0 0.0
0.009163558826242719 -0.0066162818404875935 0.0 0.0020532302648698427 0.0 0.0
0.0070932943964166495 -0.004836417218888734 0.0 0.0017450884746383058 0.0 0.0
0.005409959674879148 -0.00343044381094411 0.0 0.0014455273765199106 0.0 0.0
0.00400951845154933 -0.002299848985513204 0.0 0.0011527504298452188 0.0 0.0
0.0028656013668275234 -0.0014011357171108889 0.0 0.0008301426825626588 0.0 0.0
0.002063041880977501 -0.0008732990610530517 0.0 0.0006972013778908329 0.0 0.0
0.001580849179095766 -0.0006614317319034393 0.0 0.0007587295970110029 0.0 0.0
0.0011927183402206019 -0.000499015317977773 0.0 0.0006559492317471643 0.0 0.0
0.0007052066893174539 -0.00017409736433184045 0.0 0.0005527763007370299 0.0 0.0
0.0014945939211209259 -0.0001361998077061551 0.0 0.002854689547495908 0.0 0.0
0.002568856997563683 -0.008072095032590171 0.0 0.0022500203982330795 0.0 0.0
0.0019129440731408785 -0.006447207119754475 0.0 -0.0021216826006877606 0.0 0.0
0.0010876601709684248 -0.00022204093052540484 0.0 -0.00268724457966516 0.0 0.0
0.0004989646809412443 -8.178114636576338e-05 0.0 -0.0009152992822951663 0.0 0.0
0.0009484955948882718 -0.0003687608639622818 0.0 -0.0008907895003957629 0.0 0.0
0.0013444192841962558 -0.0005653298530706259 0.0 -0.001015778008389615 0.0 0.0
0.0017614913997840427 -0.0007435563211640527 0.0 -0.0010104068768412304 0.0 0.0
0.0023910301620055597 -0.0010820840870146248 0.0 -0.0010276882518674454 0.0 0.0
0.0033502768100627466 -0.0017809090757038154 0.0 -0.0013440781883472981 0.0 0.0
0.0045750312381881405 -0.002753376638177876 0.0 -0.0017488140452920175 0.0 0.0
0.006025636185929106 -0.003938700855107568 0.0 -0.002118404909876544 0.0 0.0
0.007791025461047195 -0.005432064974135799 0.0 -0.002497622806135145 0.0 0.0
0.010027525033015716 -0.007383790249466404 0.0 -0.0029099421651561665 0.0 0.0
0.012974679871497204 -0.01004162681338231 0.0 -0.0034397119085608817 0.0 0.0
0.01690713415864208 -0.0137088178071123 0.0 -0.0042108145303128 0.0 0.0
0.021990296191705998 -0.018582319324301527 0.0 -0.005301986911374153 0.0 0.0
0.02817192304433952 -0.024615588870989902 0.0 -0.006624488902890413 0.0 0.0
0.035147224681682646 -0.0314926567474808 0.0 -0.00786810963892906 0.0 0.0
0.04234274810331968 -0.038647413255114574 0.0 -0.008517628104944757 0.0 0.0
0.04893619482203332 -0.04526795549214641 0.0 -0.007952601697241157 0.0 0.0
0.05390542455002821 -0.05033427483837624 0.0 -0.005608231047987115 0.0 0.0
0.055845953242218326 -0.05275758515838468 0.0 9.609283854739026e-15 0.0 0.0
0.05390542455002411 -0.050334274838371565 0.0 0.005608231048007542 0.0 0.0
0.048936194822026484 -0.04526795549213827 0.0 0.007952601697262323 0.0 0.0
0.04234274810331102 -0.03864741325510595 0.0 0.00851762810495842 0.0 0.0
0.03514722468167258 -0.031492656747472314 0.0 0.007868109638931602 0.0 0.0
0.028171923044328598 -0.02461558887098022 0.0 0.006624488902889377 0.0 0.0
0.021990296191694944 -0.01858231932429244 0.0 0.005301986911372737 0.0 0.0
0.016907134158630738 -0.013708817807105138 0.0 0.004210814530311893 0.0 0.0
0.012974679871485461 -0.010041626813372664 0.0 0.0034397119085594263 0.0 0.0
0.01002752503300429 -0.007383790249457109 0.0 0.0029099421651527574 0.0 0.0
0.007791025461036952 -0.00543206497412733 0.0 0.002497622806131425 0.0 0.0
0.006025636185920187 -0.003938700855098826 0.0 0.0021184049098728936 0.0 0.0
0.004575031238180436 -0.002753376638171649 0.0 0.0017488140452888486 0.0 0.0
0.0033502768100569387 -0.0017809090756992526 0.0 0.0013440781883454606 0.0 0.0
0.002391030162001969 -0.0010820840870132086 0.0 0.0010276882518661752 0.0 0.0
0.0017614913997823446 -0.0007435563211633414 0.0 0.001010406876840711 0.0 0.0
0.0013444192841955299 -0.0005653298530704112 0.0 0.0010157780083880068 0.0 0.0
0.0009484955948878262 -0.00036876086396217826 0.0 0.0008907895003942845 0.0 0.0
0.0004989646809411422 -8.178114636592156e-05 0.0 0.0009152992822929491 0.0 0.0
0.0010876601709662022 -0.000222040930524269 0.0 0.0026872445796589043 0.0 0.0
0.0019129440731363823 -0.006447207119743356 0.0 0.00212168260068239 0.0 0.0
0.0014308035413701074 -0.005120017406344016 0.0 -0.0018771377189309236 0.0 0.0
0.0007991293708775565 -0.00030105195025006086 0.0 -0.0025008600941216364 0.0 0.0
0.000344857263996965 -3.541861736881046e-05 0.0 -0.0012605818611153123 0.0 0.0
0.0007233459985557632 -0.00025130793882483974 0.0 -0.0011406616329593443 0.0 0.0
0.0011003008828769742 -0.00045483220110597666 0.0 -0.0012502028105112791 0.0 0.0
0.0014719245806061813 -0.0006270146920066307 0.0 -0.0013011616176793808 0.0 0.0
0.0019616926892133267 -0.0008509960090433864 0.0 -0.0012895286090577388 0.0 0.0
0.0027071701996874346 -0.0013120758821725791 0.0 -0.001458331362000198 0.0 0.0
0.0037297354850872643 -0.002089194749132629 0.0 -0.0018905784664892161 0.0 0.0
0.004963344192441917 -0.0030706344935917803 0.0 -0.002344451956803939 0.0 0.0
0.006433465319573416 -0.004285675274805565 0.0 -0.0027684472787803125 0.0 0.0
0.008274907574578723 -0.005863794505019306 0.0 -0.0032289986829346 0.0 0.0
0.010690306505260663 -0.008008055501879748 0.0 -0.003797222153462807 0.0 0.0
0.013920288324176142 -0.01099180579410844 0.0 -0.004602691033772029 0.0 0.0
0.018138971188518423 -0.015010358523607745 0.0 -0.005740691214027922 0.0 0.0
0.02333284908237861 -0.0200592273687624 0.0 -0.007121094302410224 0.0 0.0
0.029266391205246295 -0.025896060216806977 0.0 -0.008426376046266339 0.0 0.0
0.035513944649708265 -0.03208629009822293 0.0 -0.009174744069282944 0.0 0.0
0.04142738565232046 -0.03800608956375529 0.0 -0.008722393893051369 0.0 0.0
0.046101961226636706 -0.04278585905745235 0.0 -0.006293326879779987 0.0 0.0
0.04800071447373579 -0.04533174165936534 0.0 9.951891741244445e-15 0.0 0.0
0.046101961226633105 -0.04278585905745016 0.0 0.006293326879802021 0.0 0.0
0.041427385652314686 -0.03800608956374957 0.0 0.008722393893072238 0.0 0.0
0.03551394464970064 -0.03208629009821599 0.0 0.009174744069294789 0.0 0.0
0.029266391205237496 -0.025896060216800954 0.0 0.008426376046269906 0.0 0.0
0.02333284908236933 -0.020059227368753305 0.0 0.007121094302410029 0.0 0.0
0.018138971188509163 -0.015010358523599235 0.0 0.005740691214026093 0.0 0.0
0.013920288324166785 -0.010991805794099533 0.0 0.00460269103377096 0.0 0.0
0.010690306505250952 -0.008008055501872419 0.0 0.0037972221534614634 0.0 0.0
0.008274907574569432 -0.0058637945050106 0.0 0.003228998682930419 0.0 0.0
0.006433465319564988 -0.004285675274798531 0.0 0.002768447278775593 0.0 0.0
0.004963344192434588 -0.0030706344935842126 0.0 0.002344451956799377 0.0 0.0
0.0037297354850810384 -0.0020891947491278166 0.0 0.0018905784664858811 0.0 0.0
0.0027071701996828016 -0.0013120758821685953 0.0 0.0014583313619990611 0.0 0.0
0.0019616926892108673 -0.0008509960090428084 0.0 0.0012895286090570145 0.0 0.0
0.0014719245806049648 -0.000627014692005861 0.0 0.0013011616176783292 0.0 0.0
0.0011003008828761433 -0.00045483220110514584 0.0 0.0012502028105088297 0.0 0.0
0.0007233459985555099 -0.00025130793882481 0.0 0.0011406616329575953 0.0 0.0
0.00034485726399702255 -3.54186173690258e-05 0.0 0.0012605818611127397 0.0 0.0
0.000799129370875878 -0.0003010519502492533 0.0 0.002500860094116321 0.0 0.0
0.0014308035413667511 -0.005120017406335102 0.0 0.0018771377189274617 0.0 0.0
0.001073051949701278 -0.004023408298004025 0.0 -0.0016395048055603358 0.0 0.0
0.0005866934779128385 -0.00036979028063785117 0.0 -0.0023354237456249365 0.0 0.0
0.0002210727231531766 -1.0445910124103058e-05 0.0 -0.001550430590828052 0.0 0.0
0.0005174304658855098 -0.00014989388931526434 0.0 -0.0013838818279614058 0.0 0.0
0.0008527617774335235 -0.0003390814371113925 0.0 -0.0014635231755036093 0.0 0.0
0.0011777963028929525 -0.0005042318029634572 0.0 -0.001549066102251423 0.0 0.0
0.0015637409202821947 -0.0006712404373178874 0.0 -0.0015657574676210333 0.0 0.0
0.002113583323855748 -0.0009514959846519217 0.0 -0.00162518074469327 0.0 0.0
0.0028967014672121334 -0.001474108014961549 0.0 -0.0019056616132099645 0.0 0.0
0.0038989529083577282 -0.0022339141588921846 0.0 -0.002380937279955957 0.0 0.0
0.005091762764148764 -0.0031872232936891944 0.0 -0.0028541953807819853 0.0 0.0
0.006552104871307922 -0.004404791071399307 0.0 -0.003337774430485803 0.0 0.0
0.008452821068261403 -0.006053562230603084 0.0 -0.003907974426613784 0.0 0.0
0.010998435779608816 -0.008367532051001351 0.0 -0.0046905978696132195 0.0 0.0
0.014348441201855095 -0.011525790606732391 0.0 -0.00576969502321984 0.0 0.0
0.018530986689467985 -0.015570405983613943 0.0 -0.007103894149608144 0.0 0.0
0.023397014561278972 -0.020331759097462453 0.0 -0.008395424280309004 0.0 0.0
0.028640044381468423 -0.02550101827290011 0.0 -0.009190608775675652 0.0 0.0
0.03381431997258106 -0.03065882767102502 0.0 -0.008906208332299671 0.0 0.0
0.0381907441631926 -0.035141632698202044 0.0 -0.006678803075743021 0.0 0.0
0.04006321986578596 -0.03786245431876598 0.0 8.158404507518924e-15 0.0 0.0
0.03819074416318929 -0.03514163269819879 0.0 0.006678803075763391 0.0 0.0
0.03381431997257594 -0.03065882767102083 0.0 0.00890620833231973 0.0 0.0
0.02864004438146201 -0.025501018272893323 0.0 0.00919060877568689 0.0 0.0
0.023397014561271773 -0.020331759097457536 0.0 0.008395424280311831 0.0 0.0
0.018530986689460207 -0.015570405983605682 0.0 0.007103894149607418 0.0 0.0
0.014348441201847606 -0.011525790606726519 0.0 0.0057696950232174775 0.0 0.0
0.010998435779601596 -0.008367532050993 0.0 0.004690597869611478 0.0 0.0
0.00845282106825371 -0.006053562230597312 0.0 0.0039079744266127085 0.0 0.0
0.006552104871300343 -0.004404791071392116 0.0 0.003337774430481614 0.0 0.0
0.005091762764141992 -0.0031872232936833145 0.0 0.0028541953807769854 0.0 0.0
0.0038989529083519065 -0.002233914158886738 0.0 0.002380937279951632 0.0 0.0
0.002896701467207434 -0.001474108014958305 0.0 0.0019056616132072397 0.0 0.0
0.0021135833238524753 -0.0009514959846491004 0.0 0.0016251807446929268 0.0 0.0
0.001563740920280248 -0.0006712404373164266 0.0 0.0015657574676203711 0.0 0.0
0.0011777963028918265 -0.0005042318029631275 0.0 0.0015490661022498373 0.0 0.0
0.0008527617774329386 -0.00033908143711060176 0.0 0.0014635231755011347 0.0 0.0
0.0005174304658853504 -0.00014989388931542283 0.0 0.0013838818279593825 0.0 0.0
0.00022107272315308386 -1.04459101241085e-05 0.0 0.0015504305908254367 0.0 0.0
0.0005866934779115333 -0.00036979028063727876 0.0 0.0023354237456201807 0.0 0.0
0.0010730519496988257 -0.004023408297997246 0.0 0.0016395048055580352 0.0 0.0
0.0007967381200293202 -0.0031264167721823614 0.0 -0.0014656429023647184 0.0 0.0
0.0004235992260142339 -0.0004276268517992134 0.0 -0.002195425443558057 0.0 0.0
0.00011728032156953095 7.285762634491844e-06 0.0 -0.0017780154401545326 0.0 0.0
0.00032741086503313614 -6.269813000306513e-05 0.0 -0.001601339393148645 0.0 0.0
0.000606907751208531 -0.00022413494595795587 0.0 -0.001650296275591719 0.0 0.0
0.0008775609203841594 -0.0003703588935459962 0.0 -0.0017486061053048152 0.0 0.0
0.0011748003621200047 -0.0005051252925733044 0.0 -0.0018047956341175567 0.0 0.0
0.0015672209486058718 -0.0006793147203950451 0.0 -0.0018404898956144089 0.0 0.0
0.002114046453452361 -0.0009752703594224491 0.0 -0.0019403811584464909 0.0 0.0
0.002848125324275242 -0.0014689856059989315 0.0 -0.0022605097391035778 0.0 0.0
0.003757415570417145 -0.0021490236037428633 0.0 -0.0027281612364460656 0.0 0.0
0.004857735054943903 -0.0030244244803042343 0.0 -0.0032119403906735273 0.0 0.0
0.006265712549139982 -0.004198290293296531 0.0 -0.003761289753592513 0.0 0.0
0.008144635233000927 -0.005860672330947711 0.0 -0.004464828597807018 0.0 0.0
0.010636871618987354 -0.008166888158503601 0.0 -0.0054179724271439 0.0 0.0
0.01379624477638113 -0.011185411801245451 0.0 -0.006576258350746996 0.0 0.0
0.017551328954563385 -0.01483323808924536 0.0 -0.007757990922314134 0.0 0.0
0.021732581123806313 -0.018924913742241083 0.0 -0.008550677985599494 0.0 0.0
0.026088385530632623 -0.023226784491280756 0.0 -0.008468580314922196 0.0 0.0
0.030114466682270594 -0.027345966004039754 0.0 -0.006721305113293516 0.0 0.0
0.031956923965219 -0.03029006669868211 0.0 6.89162268918686e-15 0.0 0.0
0.03011446668226788 -0.027345966004034963 0.0 0.006721305113311465 0.0 0.0
0.02608838553062832 -0.023226784491276138 0.0 0.008468580314939961 0.0 0.0
0.021732581123801015 -0.0189249137422355 0.0 0.008550677985609986 0.0 0.0
0.017551328954557716 -0.014833238089242678 0.0 0.007757990922315701 0.0 0.0
0.01379624477637504 -0.011185411801239182 0.0 0.006576258350745564 0.0 0.0
0.01063687161898161 -0.00816688815849987 0.0 0.00541797242714244 0.0 0.0
0.008144635232995868 -0.005860672330942957 0.0 0.004464828597805227 0.0 0.0
0.006265712549134503 -0.004198290293291506 0.0 0.003761289753590833 0.0 0.0
0.0048577350549383605 -0.003024424480300921 0.0 0.0032119403906701767 0.0 0.0
0.0037574155704122097 -0.002149023603739366 0.0 0.002728161236441584 0.0 0.0
0.002848125324271028 -0.001468985605995457 0.0 0.002260509739099353 0.0 0.0
0.002114046453449112 -0.0009752703594211999 0.0 0.001940381158445457 0.0 0.0
0.0015672209486035879 -0.0006793147203932932 0.0 0.0018404898956135883 0.0 0.0
0.0011748003621185781 -0.0005051252925722646 0.0 0.0018047956341162266 0.0 0.0
0.0008775609203834374 -0.00037035889354557504 0.0 0.00174860610530267 0.0 0.0
0.0006069077512081199 -0.00022413494595751918 0.0 0.001650296275589203 0.0 0.0
0.00032741086503294234 -6.269813000282276e-05 0.0 0.0016013393931460125 0.0 0.0
0.00011728032156931751 7.285762634528706e-06 0.0 0.001778015440151924 0.0 0.0
0.000423599226013262 -0.0004276268517989202 0.0 0.0021954254435547172 0.0 0.0
0.0007967381200277705 -0.003126416772177439 0.0 0.0014656429023632183 0.0 0.0
0.0005919139491171182 -0.0024544961486663865 0.0 -0.001398817536215548 0.0 0.0
0.0002964534136690611 -0.0004602294571835736 0.0 -0.002077752632029501 0.0 0.0
2.3002532356057302e-05 2.2434265811873403e-05 0.0 -0.0019450854492751978 0.0 0.0
0.00015159000943316847 1.3206288729439739e-05 0.0 -0.0017804450774106654 0.0 0.0
0.00036463280588813 -0.00011186579339130074 0.0 -0.0018026424643388952 0.0 0.0
0.0005711157077596144 -0.00023109948389137886 0.0 -0.0019019234321064646 0.0 0.0
0.0007821924531515371 -0.00033636033375737 0.0 -0.0019897116195884924 0.0 0.0
0.0010454530454589229 -0.0004470075938455393 0.0 -0.002036035151869521 0.0 0.0
0.0013917873653823763 -0.0006050685193481316 0.0 -0.002082495247647227 0.0 0.0
0.0018503204855009085 -0.0008611576265145594 0.0 -0.0021788353163872845 0.0 0.0
0.002447855564527228 -0.001240493731758229 0.0 -0.0024737992127381783 0.0 0.0
0.003187587803177635 -0.001769091488865415 0.0 -0.002853853926944765 0.0 0.0
0.004124031390902807 -0.002484086766191541 0.0 -0.0033388702194916864 0.0 0.0
0.0053639423068923145 -0.003520346771934576 0.0 -0.003940119926448893 0.0 0.0
0.007016688348091114 -0.004988850266496561 0.0 -0.004700821396262593 0.0 0.0
0.009146950566155308 -0.006973639743269621 0.0 -0.005618545241098002 0.0 0.0
0.01176168072905708 -0.009461017615988044 0.0 -0.006593729450145249 0.0 0.0
0.014815572906662591 -0.01241842093186922 0.0 -0.007342676488077844 0.0 0.0
0.01823421892346601 -0.015750210253509343 0.0 -0.007395203712029269 0.0 0.0
0.02181007198024247 -0.019351522370187356 0.0 -0.006294628366296068 0.0 0.0
0.02359402227514162 -0.022542076806154856 0.0 5.443562267615221e-15 0.0 0.0
0.0218100719802406 -0.01935152237018356 0.0 0.006294628366310588 0.0 0.0
0.018234218923462914 -0.015750210253506612 0.0 0.007395203712044315 0.0 0.0
0.014815572906658598 -0.012418420931866443 0.0 0.0073426764880853215 0.0 0.0
0.011761680729053122 -0.009461017615987017 0.0 0.006593729450145289 0.0 0.0
0.009146950566151469 -0.0069736397432658215 0.0 0.005618545241095323 0.0 0.0
0.007016688348087366 -0.0049888502664958805 0.0 0.004700821396261607 0.0 0.0
0.0053639423068892285 -0.003520346771930566 0.0 0.00394011992644845 0.0 0.0
0.004124031390899582 -0.0024840867661882994 0.0 0.00333887021949041 0.0 0.0
0.0031875878031740502 -0.0017690914888649457 0.0 0.0028538539269422725 0.0 0.0
0.002447855564524071 -0.0012404937317550511 0.0 0.002473799212734674 0.0 0.0
0.0018503204854985415 -0.0008611576265142238 0.0 0.002178835316384611 0.0 0.0
0.0013917873653805546 -0.0006050685193464297 0.0 0.0020824952476469366 0.0 0.0
0.001045453045457534 -0.00044700759384492465 0.0 0.002036035151868275 0.0 0.0
0.0007821924531507405 -0.0003363603337561853 0.0 0.00198971161958747 0.0 0.0
0.0005711157077592268 -0.00023109948389104108 0.0 0.0019019234321045204 0.0 0.0
0.0003646328058878993 -0.00011186579339130419 0.0 0.0018026424643360637 0.0 0.0
0.00015159000943308705 1.320628872986287e-05 0.0 0.001780445077408166 0.0 0.0
2.3002532355997722e-05 2.243426581201216e-05 0.0 0.0019450854492729557 0.0 0.0
0.00029645341366852485 -0.0004602294571834756 0.0 0.0020777526320274564 0.0 0.0
0.0005919139491161739 -0.0024544961486630506 0.0 0.0013988175362147867 0.0 0.0
0.0004541492840571018 -0.001967402757499762 0.0 -0.001362386062082122 0.0 0.0
0.00020377424413838506 -0.00046458032685373107 0.0 -0.0019822244307048827 0.0 0.0
-6.353500890600475e-05 3.726049823512962e-05 0.0 -0.002051872406251998 0.0 0.0
-1.2603533252849681e-05 8.052067013513312e-05 0.0 -0.0019143278947655854 0.0 0.0
0.0001275392018151339 -3.4161119998459896e-06 0.0 -0.0019143798075393309 0.0 0.0
0.000262069485835641 -9.011546334229316e-05 0.0 -0.002003435320780819 0.0 0.0
0.0003852309357109054 -0.00016028662842745785 0.0 -0.0021059384095197535 0.0 0.0
0.0005190965180790025 -0.00022272183243765467 0.0 -0.0021698472584076225 0.0 0.0
0.0006955720255955558 -0.000297576214006955 0.0 -0.002209507735793986 0.0 0.0
0.000920074406022664 -0.0004050952928506817 0.0 -0.0022247807700732994 0.0 0.0
0.0012065400465809692 -0.0005484206348411491 0.0 -0.002323055532213529 0.0 0.0
0.001567790106099927 -0.0007704797783050255 0.0 -0.002540868257679805 0.0 0.0
0.0020277161514037694 -0.0010717205833944785 0.0 -0.002857581084879211 0.0 0.0
0.0026494552230129187 -0.0015187427850253973 0.0 -0.003295885779813547 0.0 0.0
0.003487099294888542 -0.002183692732622276 0.0 -0.0038770600913662643 0.0 0.0
0.0045937684256038445 -0.003123034872443071 0.0 -0.00462638535990344 0.0 0.0
0.006034862328108283 -0.004391563073301939 0.0 -0.005486059149519294 0.0 0.0
0.007921141940481337 -0.006148836213190967 0.0 -0.006234005673791694 0.0 0.0
0.010300304502242492 -0.008434592610925088 0.0 -0.0063593123152280795 0.0 0.0
0.013222905216473254 -0.011227487948364282 0.0 -0.0054734280896149325 0.0 0.0
0.01483813582605165 -0.014578959157959676 0.0 3.76521730460766e-15 0.0 0.0
0.013222905216472448 -0.011227487948364697 0.0 0.005473428089627084 0.0 0.0
0.010300304502240823 -0.008434592610923847 0.0 0.006359312315240376 0.0 0.0
0.007921141940479099 -0.006148836213189909 0.0 0.006234005673797689 0.0 0.0
0.006034862328106244 -0.0043915630733011145 0.0 0.005486059149519588 0.0 0.0
0.004593768425602084 -0.0031230348724408585 0.0 0.004626385359901296 0.0 0.0
0.003487099294887049 -0.0021836927326209224 0.0 0.0038770600913656467 0.0 0.0
0.002649455223011883 -0.0015187427850257742 0.0 0.00329588577981421 0.0 0.0
0.0020277161514025577 -0.001071720583392209 0.0 0.002857581084878103 0.0 0.0
0.0015677901060984463 -0.0007704797783055281 0.0 0.0025408682576777302 0.0 0.0
0.001206540046579908 -0.0005484206348403801 0.0 0.0023230555322114026 0.0 0.0
0.0009200744060219666 -0.0004050952928517393 0.0 0.0022247807700720257 0.0 0.0
0.000695572025594782 -0.00029757621400535854 0.0 0.0022095077357938988 0.0 0.0
0.0005190965180783502 -0.00022272183243634273 0.0 0.0021698472584064958 0.0 0.0
0.0003852309357106343 -0.00016028662842641528 0.0 0.0021059384095176784 0.0 0.0
0.0002620694858355426 -9.011546334179554e-05 0.0 0.0020034353207787014 0.0 0.0
0.00012753920181514532 -3.416112000122285e-06 0.0 0.0019143798075371048 0.0 0.0
-1.2603533252796396e-05 8.052067013550954e-05 0.0 0.0019143278947632743 0.0 0.0
-6.353500890596878e-05 3.72604982353581e-05 0.0 0.002051872406249679 0.0 0.0
0.00020377424413816416 -0.00046458032685364 0.0 0.001982224430703168 0.0 0.0
0.00045414928405658396 -0.001967402757497583 0.0 0.0013623860620815215 0.0 0.0
0.0003546984058789064 -0.001574765464236199 0.0 -0.0012817319237479045 0.0 0.0
0.00013162850014601123 -0.0004461238931346061 0.0 -0.00188968932554579 0.0 0.0
-0.00014341313245346828 5.313750005279876e-05 0.0 -0.002102463595865894 0.0 0.0
-0.00016694824357342083 0.00014150842338728477 0.0 -0.0019984704694120965 0.0 0.0
-0.00010331918904941012 0.00010018738150562324 0.0 -0.001980115596521759 0.0 0.0
-4.660455215394631e-05 5.0543596434407024e-05 0.0 -0.0020506150148029384 0.0 0.0
-1.5224697981896668e-05 1.7584061484584307e-05 0.0 -0.002149837968485147 0.0 0.0
-2.283063254614225e-06 2.8761180125170026e-06 0.0 -0.002219890493229155 0.0 0.0
1.0646606847915187e-06 -1.0963686213538842e-06 0.0 -0.0022333853634506967 0.0 0.0
1.1076223943174823e-06 -8.990742188840558e-07 0.0 -0.0022737413012713374 0.0 0.0
7.946447729469542e-07 -6.795596253510289e-07 0.0 -0.0023102492460336686 0.0 0.0
4.290649621449354e-07 -3.4130080376404073e-07 0.0 -0.002459430551474183 0.0 0.0
-1.4674610890340377e-06 1.1035218172600217e-06 0.0 -0.0026497566121429506 0.0 0.0
-4.8728935412151436e-06 4.643875102031274e-06 0.0 -0.0029723471017562243 0.0 0.0
3.1307781141502126e-06 2.647364302336226e-06 0.0 -0.0034790449691513093 0.0 0.0
7.01373156759202e-05 -3.2205538245150565e-05 0.0 -0.004215802885763444 0.0 0.0
0.00033161080757795804 -0.00020770302604113323 0.0 -0.005157874061627325 0.0 0.0
0.0010434555041889816 -0.0007563497890147574 0.0 -0.0061703284982880325 0.0 0.0
0.0024183361720139765 -0.0019490454129877665 0.0 -0.0070078250418176245 0.0 0.0
0.004468763957472906 -0.0035926664735171374 0.0 -0.0069452884794315795 0.0 0.0
0.005651902853575509 -0.007035063832803703 0.0 4.393620883780258e-15 0.0 0.0
0.004468763957473034 -0.0035926664735187034 0.0 0.006945288479443227 0.0 0.0
0.0024183361720135 -0.0019490454129879185 0.0 0.007007825041826553 0.0 0.0
0.0010434555041886442 -0.0007563497890136553 0.0 0.006170328498291369 0.0 0.0
0.00033161080757825425 -0.00020770302604222472 0.0 0.005157874061626606 0.0 0.0
7.013731567646593e-05 -3.2205538246708076e-05 0.0 0.0042158028857607974 0.0 0.0
3.1307781147167082e-06 2.6473643043511616e-06 0.0 0.003479044969150408 0.0 0.0
-4.872893540340301e-06 4.643875098835521e-06 0.0 0.0029723471017564264 0.0 0.0
-1.4674610880624028e-06 1.1035218171354062e-06 0.0 0.0026497566121416283 0.0 0.0
4.2906496292333834e-07 -3.413008032669205e-07 0.0 0.0024594305514725975 0.0 0.0
7.946447736874372e-07 -6.795596272819658e-07 0.0 0.0023102492460321655 0.0 0.0
1.1076223950064792e-06 -8.99074219494675e-07 0.0 0.0022737413012701617 0.0 0.0
1.0646606851801645e-06 -1.0963686208027571e-06 0.0 0.0022333853634509925 0.0 0.0
-2.2830632544145084e-06 2.8761180129813935e-06 0.0 0.002219890493228337 0.0 0.0
-1.5224697981603947e-05 1.7584061484806338e-05 0.0 0.00214983796848317 0.0 0.0
-4.6604552153710364e-05 5.054359643505158e-05 0.0 0.0020506150148004512 0.0 0.0
-0.00010331918904921686 0.00010018738150546067 0.0 0.0019801155965194447 0.0 0.0
-0.00016694824357324053 0.00014150842338755013 0.0 0.0019984704694100248 0.0 0.0
-0.00014341313245333712 5.313750005271002e-05 0.0 0.002102463595863709 0.0 0.0
0.00013162850014592772 -0.00044612389313444193 0.0 0.0018896893255440266 0.0 0.0
0.0003546984058785728 -0.001574765464234574 0.0 0.0012817319237469363 0.0 0.0
0.00027217199578785406 -0.0012378649965441948 0.0 -0.0011674674048968983 0.0 0.0
6.911731401702794e-05 -0.00040904696483709714 0.0 -0.0017845505264644612 0.0 0.0
-0.00021803877237974988 7.111832924735532e-05 0.0 -0.0020998535265282134 0.0 0.0
-0.00031290810728286036 0.00019765687432269884 0.0 -0.0020307063567826904 0.0 0.0
-0.00032723377611499905 0.00019841410804278135 0.0 -0.001996090538399327 0.0 0.0
-0.0003514621131650734 0.0001885665965323723 0.0 -0.0020416678715916054 0.0 0.0
-0.00041435323854198034 0.00019437109417679585 0.0 -0.002119018750573926 0.0 0.0
-0.0005236084109672376 0.00022818940448780822 0.0 -0.002171989861337713 0.0 0.0
-0.0006935678859388944 0.00029543477066274506 0.0 -0.0022087649430431308 0.0 0.0
-0.0009179283025377324 0.00040326294938135846 0.0 -0.0022236614854636502 0.0 0.0
-0.0012049746666840026 0.000547183153231323 0.0 -0.0023224899395118677 0.0 0.0
-0.0015668340250039542 0.0007696182182742668 0.0 -0.0025406018645804523 0.0 0.0
-0.0020301508714849073 0.0010733797740847216 0.0 -0.002854666183857414 0.0 0.0
-0.0026590572644909147 0.0015285299647643095 0.0 -0.003285862168349306 0.0 0.0
-0.0034854370095837193 0.0021938419412226677 0.0 -0.003879052119600124 0.0 0.0
-0.004466343856488574 0.003055852383079304 0.0 -0.004724981885372643 0.0 0.0
-0.005424505439924393 0.003953652404747648 0.0 -0.005848030126012364 0.0 0.0
-0.006024113272768552 0.004586248327333828 0.0 -0.007250788648736236 0.0 0.0
-0.005812194988790634 0.004469421107030976 0.0 -0.008810720016313717 0.0 0.0
-0.004082916650325591 0.0031840196993342456 0.0 -0.009456306725706081 0.0 0.0
-0.0027233680749281473 -0.0006433716550912696 0.0 6.3352101342672995e-15 0.0 0.0
-0.0040829166503258095 0.0031840196993370394 0.0 0.009456306725716745 0.0 0.0
-0.005812194988790143 0.0044694211070285175 0.0 0.008810720016321771 0.0 0.0
-0.006024113272766406 0.004586248327334962 0.0 0.0072507886487390115 0.0 0.0
-0.0054245054399215354 0.003953652404746308 0.0 0.005848030126011459 0.0 0.0
-0.004466343856485747 0.003055852383073362 0.0 0.004724981885370563 0.0 0.0
-0.003485437009580996 0.0021938419412208345 0.0 0.0038790521195989445 0.0 0.0
-0.0026590572644878247 0.0015285299647605833 0.0 0.0032858621683475604 0.0 0.0
-0.0020301508714816474 0.0010733797740821735 0.0 0.0028546661838559297 0.0 0.0
-0.0015668340250009141 0.0007696182182721612 0.0 0.0025406018645785194 0.0 0.0
-0.0012049746666812553 0.0005471831532302628 0.0 0.0023224899395089915 0.0 0.0
-0.0009179283025355549 0.00040326294938091426 0.0 0.0022236614854623305 0.0 0.0
-0.0006935678859375062 0.00029543477066318124 0.0 0.0022087649430427834 0.0 0.0
-0.000523608410966271 0.00022818940448703502 0.0 0.002171989861337052 0.0 0.0
-0.0004143532385411612 0.00019437109417632203 0.0 0.002119018750571994 0.0 0.0
-0.00035146211316453913 0.00018856659653127082 0.0 0.002041667871589244 0.0 0.0
-0.00032723377611450666 0.00019841410804332304 0.0 0.0019960905383969926 0.0 0.0
-0.00031290810728243324 0.00019765687432259866 0.0 0.002030706356780285 0.0 0.0
-0.0002180387723794953 7.111832924748833e-05 0.0 0.0020998535265263035 0.0 0.0
6.911731401699049e-05 -0.0004090469648368203 0.0 0.0017845505264625508 0.0 0.0
0.00027217199578755564 -0.0012378649965428745 0.0 0.001167467404895798 0.0 0.0
0.00019753300840787223 -0.0009444969410127039 0.0 -0.0010400781698451684 0.0 0.0
1.043181886274259e-05 -0.00035737429706276743 0.0 -0.0016581566732496219 0.0 0.0
-0.0002895385711502798 9.242237660265172e-05 0.0 -0.0020463124668894314 0.0 0.0
-0.0004515065777588607 0.0002498668471203241 0.0 -0.0020101942311225034 0.0 0.0
-0.0005436313810932924 0.0002910723001455269 0.0 -0.0019601959245434844 0.0 0.0
-0.0006498732988992776 0.000321478843952317 0.0 -0.0019750876043496844 0.0 0.0
-0.0008076145427648234 0.00036746483311264703 0.0 -0.0020146615733106716 0.0 0.0
-0.0010493066564038437 0.0004517973832850429 0.0 -0.0020412033220167094 0.0 0.0
-0.0013900361495717494 0.0006029130498786222 0.0 -0.002080804017630523 0.0 0.0
-0.0018484203510776317 0.0008591855965934564 0.0 -0.002176439036328471 0.0 0.0
-0.002446564889887186 0.0012393754414509544 0.0 -0.002472689988759639 0.0 0.0
-0.0031864190588289073 0.0017679977259667952 0.0 -0.002854213862442898 0.0 0.0
-0.004124512056054471 0.0024839123490713842 0.0 -0.003333842540326664 0.0 0.0
-0.005372300164460611 0.0035283102140420426 0.0 -0.003917556155412878 0.0 0.0
-0.007024338436544569 0.005005491658846604 0.0 -0.004684806847860401 0.0 0.0
-0.009053714744529361 0.0069213801007457845 0.0 -0.005757039447907063 0.0 0.0
-0.011232318726482362 0.009050807148363796 0.0 -0.007263112191380689 0.0 0.0
-0.013119010302324267 0.010939648115812344 0.0 -0.009246047700853636 0.0 0.0
-0.013930028242670346 0.011823624759387526 0.0 -0.01133167399215112 0.0 0.0
-0.01243696193280622 0.010352095804216957 0.0 -0.011870106227140883 0.0 0.0
-0.010934529552422577 0.005130714788519481 0.0 5.5077470362263625e-15 0.0 0.0
-0.01243696193280622 0.010352095804217776 0.0 0.011870106227152653 0.0 0.0
-0.013930028242668369 0.01182362475938576 0.0 0.011331673992162887 0.0 0.0
-0.013119010302320148 0.01093964811581132 0.0 0.009246047700859353 0.0 0.0
-0.011232318726477019 0.009050807148359001 0.0 0.007263112191379883 0.0 0.0
-0.009053714744524306 0.006921380100739149 0.0 0.005757039447905061 0.0 0.0
-0.007024338436540009 0.005005491658841578 0.0 0.0046848068478582 0.0 0.0
-0.0053723001644555264 0.003528310214037461 0.0 0.003917556155411169 0.0 0.0
-0.004124512056049079 0.0024839123490664186 0.0 0.003333842540323923 0.0 0.0
-0.003186419058823719 0.0017679977259623244 0.0 0.0028542138624389262 0.0 0.0
-0.002446564889882395 0.0012393754414462385 0.0 0.002472689988755804 0.0 0.0
-0.0018484203510737676 0.0008591855965921363 0.0 0.002176439036325934 0.0 0.0
-0.0013900361495689643 0.0006029130498771423 0.0 0.00208080401763022 0.0 0.0
-0.0010493066564019721 0.0004517973832858839 0.0 0.002041203322016734 0.0 0.0
-0.0008076145427635217 0.00036746483311138366 0.0 0.002014661573309197 0.0 0.0
-0.0006498732988982435 0.00032147884395109975 0.0 0.001975087604347549 0.0 0.0
-0.0005436313810926064 0.0002910723001458412 0.0 0.0019601959245411785 0.0 0.0
-0.0004515065777583303 0.00024986684712016705 0.0 0.002010194231119941 0.0 0.0
-0.0002895385711499185 9.24223766029486e-05 0.0 0.0020463124668874785 0.0 0.0
1.0431818862649463e-05 -0.0003573742970625151 0.0 0.0016581566732479242 0.0 0.0
0.0001975330084075731 -0.0009444969410116812 0.0 0.0010400781698438459 0.0 0.0
0.00012871574891801363 -0.0006912195377491609 0.0 -0.0009088330448540267 0.0 0.0
-4.623200832009554e-05 -0.00029542657270639484 0.0 -0.0015095295352561195 0.0 0.0
-0.00035950116766777536 0.00011792243107998856 0.0 -0.0019437671216455243 0.0 0.0
-0.0005837834132528925 0.0002989128860759045 0.0 -0.0019373020803682708 0.0 0.0
-0.0007519852864629211 0.00037765040117738395 0.0 -0.0018724913821328575 0.0 0.0
-0.0009392240992258734 0.00044842139299024653 0.0 -0.0018497782894174035 0.0 0.0
-0.0011947166407520586 0.0005328428392226601 0.0 -0.001844236027286472 0.0 0.0
-0.0015704277734106538 0.0006827086825587651 0.0 -0.0018467574907092984 0.0 0.0
-0.0021124718181707272 0.0009730651464164089 0.0 -0.0019377712850469782 0.0 0.0
-0.0028466416409845857 0.001466928774741671 0.0 -0.00225695943318155 0.0 0.0
-0.003756663788819786 0.0021483040170007703 0.0 -0.0027272568666652968 0.0 0.0
-0.00485640423232216 0.0030234269295455747 0.0 -0.00321294761333482 0.0 0.0
-0.0062627659266882825 0.004195349136959149 0.0 -0.003756413809281947 0.0 0.0
-0.008146014406615125 0.005860430935923437 0.0 -0.004431033448105155 0.0 0.0
-0.010646939459702085 0.008179645247917299 0.0 -0.005356841409993036 0.0 0.0
-0.013751517296713475 0.011169556900180061 0.0 -0.006672381171479248 0.0 0.0
-0.017189741257984906 0.014567953286712676 0.0 -0.008629090278080618 0.0 0.0
-0.02034073215539736 0.0177705277000698 0.0 -0.011347748274055382 0.0 0.0
-0.02203518402458424 0.019594760292076834 0.0 -0.01417109352574202 0.0 0.0
-0.020395415568790768 0.018158831385353732 0.0 -0.015161796759177747 0.0 0.0
-0.018461562197318402 0.010809778110379973 0.0 6.269290642180181e-15 0.0 0.0
-0.020395415568790095 0.018158831385351976 0.0 0.015161796759193824 0.0 0.0
-0.02203518402458116 0.019594760292075318 0.0 0.014171093525757121 0.0 0.0
-0.020340732155391512 0.017770527700065993 0.0 0.011347748274063166 0.0 0.0
-0.01718974125797759 0.014567953286703687 0.0 0.008629090278081303 0.0 0.0
-0.01375151729670666 0.011169556900172392 0.0 0.006672381171477679 0.0 0.0
-0.010646939459695701 0.00817964524791096 0.0 0.005356841409991185 0.0 0.0
-0.008146014406608117 0.005860430935919413 0.0 0.004431033448102084 0.0 0.0
-0.006262765926680923 0.004195349136951879 0.0 0.0037564138092784603 0.0 0.0
-0.004856404232314587 0.0030234269295400925 0.0 0.0032129476133293984 0.0 0.0
-0.003756663788812932 0.002148304016994739 0.0 0.0027272568666599595 0.0 0.0
-0.002846641640979101 0.0014669287747377244 0.0 0.002256959433178397 0.0 0.0
-0.0021124718181666667 0.0009730651464144309 0.0 0.0019377712850461712 0.0 0.0
-0.0015704277734079851 0.0006827086825582615 0.0 0.0018467574907089358 0.0 0.0
-0.0011947166407503412 0.0005328428392222187 0.0 0.001844236027285152 0.0 0.0
-0.0009392240992247072 0.0004484213929902269 0.0 0.0018497782894157312 0.0 0.0
-0.0007519852864620529 0.00037765040117722967 0.0 0.0018724913821309861 0.0 0.0
-0.0005837834132522809 0.0002989128860758652 0.0 0.0019373020803664888 0.0 0.0
-0.0003595011676674082 0.0001179224310801111 0.0 0.001943767121643832 0.0 0.0
-4.623200832006071e-05 -0.0002954265727061176 0.0 0.0015095295352544284 0.0 0.0
0.00012871574891772965 -0.0006912195377484422 0.0 0.0009088330448531553 0.0 0.0
6.572667280504765e-05 -0.00047618036780896263 0.0 -0.0007748830770485352 0.0 0.0
-0.00010096409222839131 -0.00022763869743931458 0.0 -0.0013399582918724243 0.0 0.0
-0.0004286763514158989 0.00014773844404568527 0.0 -0.0017949809965217643 0.0 0.0
-0.0007107099023887207 0.0003452343189577634 0.0 -0.001812348051512942 0.0 0.0
-0.0009516811597863083 0.0004582239819029046 0.0 -0.001732099037838512 0.0 0.0
-0.0012190153127957344 0.0005663526493668846 0.0 -0.0016673670445858438 0.0 0.0
-0.0015766096706716607 0.0006931662373651705 0.0 -0.0016096674135901246 0.0 0.0
-0.00211459437049928 0.0009537641164511011 0.0 -0.0016328182079301745 0.0 0.0
-0.0028958329253401106 0.0014720033250121753 0.0 -0.0019015461144416034 0.0 0.0
-0.0038982274655907766 0.002232344504410591 0.0 -0.0023770918032321566 0.0 0.0
-0.00509169103205908 0.003187133427424856 0.0 -0.0028534862106509608 0.0 0.0
-0.006550731129606662 0.004404253071506203 0.0 -0.003339572512782411 0.0 0.0
-0.00844557818390518 0.006047758934384304 0.0 -0.003904910371149887 0.0 0.0
-0.010985785189036396 0.008353129948076703 0.0 -0.004651351584342504 0.0 0.0
-0.014347598164024849 0.01151923684107401 0.0 -0.0056641283889787486 0.0 0.0
-0.018542459403176156 0.015588833643230712 0.0 -0.0071170470875065615 0.0 0.0
-0.02325410722793979 0.02026746857495986 0.0 -0.00931600629303198 0.0 0.0
-0.02763844067776091 0.024758066989997853 0.0 -0.01247074408358555 0.0 0.0
-0.03008891728552468 0.027448308904559245 0.0 -0.015982363053722606 0.0 0.0
-0.028039316465202933 0.025766804593547864 0.0 -0.017727923792369055 0.0 0.0
-0.02550483068804158 0.016289461843207818 0.0 7.371707411163442e-15 0.0 0.0
-0.028039316465201317 0.025766804593545533 0.0 0.01772792379238651 0.0 0.0
-0.03008891728552035 0.02744830890455631 0.0 0.015982363053740352 0.0 0.0
-0.027638440677753784 0.02475806698999183 0.0 0.012470744083594856 0.0 0.0
-0.023254107227930854 0.020267468574950875 0.0 0.009316006293032865 0.0 0.0
-0.018542459403167347 0.015588833643221688 0.0 0.007117047087503325 0.0 0.0
-0.014347598164016682 0.011519236841067646 0.0 0.0056641283889771596 0.0 0.0
-0.010985785189027614 0.00835312994806954 0.0 0.004651351584340847 0.0 0.0
-0.008445578183895632 0.006047758934375663 0.0 0.003904910371147031 0.0 0.0
-0.006550731129597115 0.0044042530714971115 0.0 0.003339572512777709 0.0 0.0
-0.005091691032050273 0.003187133427419494 0.0 0.0028534862106448958 0.0 0.0
-0.003898227465583373 0.002232344504404522 0.0 0.002377091803227594 0.0 0.0
-0.0028958329253344016 0.0014720033250091439 0.0 0.0019015461144390104 0.0 0.0
-0.002114594370495323 0.0009537641164485814 0.0 0.0016328182079282118 0.0 0.0
-0.0015766096706692607 0.0006931662373654105 0.0 0.0016096674135891874 0.0 0.0
-0.001219015312794195 0.0005663526493665692 0.0 0.0016673670445845393 0.0 0.0
-0.000951681159785248 0.0004582239819023617 0.0 0.0017320990378371683 0.0 0.0
-0.0007107099023880021 0.00034523431895756775 0.0 0.0018123480515111036 0.0 0.0
-0.00042867635141553373 0.00014773844404585015 0.0 0.0017949809965201804 0.0 0.0
-0.00010096409222834412 -0.0002276386974390398 0.0 0.0013399582918709333 0.0 0.0
6.572667280497384e-05 -0.0004761803678085018 0.0 0.0007748830770480893 0.0 0.0
9.566641495617505e-06 -0.0002989757166975239 0.0 -0.0006380174712318533 0.0 0.0
-0.00015271933180792217 -0.00015795815449133968 0.0 -0.0011508742506061564 0.0 0.0
-0.0004967132384769703 0.00018105216996594623 0.0 -0.001602269936906635 0.0 0.0
-0.0008326654306468382 0.0003890710019655874 0.0 -0.0016356179341795653 0.0 0.0
-0.0011427347310190277 0.000533382852514511 0.0 -0.0015410235008962373 0.0 0.0
-0.0014880604409486416 0.0006732875129573076 0.0 -0.0014295283690916056 0.0 0.0
-0.001967728271203113 0.0008668322804108648 0.0 -0.0013321255264266186 0.0 0.0
-0.002708052000150453 0.0013135720823943405 0.0 -0.001464667606850194 0.0 0.0
-0.0037295737558623067 0.00208786642634928 0.0 -0.001885484664408531 0.0 0.0
-0.004963635889615396 0.003070134725386062 0.0 -0.002340907611282328 0.0 0.0
-0.006434017272400442 0.004286104637701975 0.0 -0.002767801984994477 0.0 0.0
-0.008273573957596833 0.005863699438782136 0.0 -0.0032312402501351303 0.0 0.0
-0.010678568363476663 0.007999455273202276 0.0 -0.0037949550944288814 0.0 0.0
-0.013889542598680492 0.010960898526762401 0.0 -0.004564138756904362 0.0 0.0
-0.018115245707977748 0.014972608230070954 0.0 -0.0056185680913349995 0.0 0.0
-0.02338582417929879 0.020095112094041453 0.0 -0.007052891994775593 0.0 0.0
-0.02933605544723908 0.026021827105573908 0.0 -0.009191284265942777 0.0 0.0
-0.03491850808334321 0.03177020469031217 0.0 -0.012432458867913061 0.0 0.0
-0.038053216531810666 0.03527136615446068 0.0 -0.016468528296331605 0.0 0.0
-0.035520973241532416 0.0332622041822016 0.0 -0.019493607117517856 0.0 0.0
-0.0323689703098051 0.021687056256264284 0.0 7.928553646951997e-15 0.0 0.0
-0.03552097324152994 0.03326220418219924 0.0 0.019493607117537438 0.0 0.0
-0.03805321653180499 0.035271366154454045 0.0 0.01646852829635069 0.0 0.0
-0.034918508083334805 0.0317702046903066 0.0 0.012432458867924443 0.0 0.0
-0.029336055447229073 0.026021827105562088 0.0 0.009191284265945406 0.0 0.0
-0.023385824179288434 0.02009511209403278 0.0 0.0070528919947737845 0.0 0.0
-0.018115245707967215 0.014972608230062055 0.0 0.005618568091333458 0.0 0.0
-0.013889542598669681 0.010960898526752572 0.0 0.004564138756902942 0.0 0.0
-0.010678568363465382 0.007999455273191012 0.0 0.0037949550944255455 0.0 0.0
-0.008273573957585253 0.005863699438770538 0.0 0.003231240250130178 0.0 0.0
-0.00643401727239003 0.004286104637693373 0.0 0.0027678019849893525 0.0 0.0
-0.004963635889606581 0.0030701347253777643 0.0 0.0023409076112777282 0.0 0.0
-0.0037295737558550217 0.002087866426343612 0.0 0.0018854846644051934 0.0 0.0
-0.0027080520001451307 0.00131357208239243 0.0 0.0014646676068476923 0.0 0.0
-0.001967728271199926 0.0008668322804096665 0.0 0.0013321255264259703 0.0 0.0
-0.0014880604409468414 0.0006732875129560576 0.0 0.001429528369090529 0.0 0.0
-0.0011427347310177627 0.0005333828525137109 0.0 0.0015410235008944723 0.0 0.0
-0.0008326654306460823 0.00038907100196576756 0.0 0.0016356179341780988 0.0 0.0
-0.0004967132384766287 0.0001810521699658077 0.0 0.0016022699369051955 0.0 0.0
-0.000152719331807736 -0.00015795815449133518 0.0 0.0011508742506055943 0.0 0.0
9.566641495729044e-06 -0.0002989757166972304 0.0 0.0006380174712311397 0.0 0.0
-3.801424117382156e-05 -0.00016026836875677233 0.0 -0.0004988803013586814 0.0 0.0
-0.00019942645526904344 -8.996865178488818e-05 0.0 -0.0009439535497899982 0.0 0.0
-0.0005624673366720107 0.0002160058031824303 0.0 -0.0013668413178252034 0.0 0.0
-0.0009504358850199591 0.0004312840022764184 0.0 -0.0014075456942956122 0.0 0.0
-0.0013253680397953488 0.0006020435083315731 0.0 -0.0013020751191261482 0.0 0.0
-0.0017533899928287074 0.0007727666141645911 0.0 -0.0011386396553833217 0.0 0.0
-0.00238913823470656 0.0010917360576123793 0.0 -0.0010676822107301104 0.0 0.0
-0.003350536112204667 0.0017817850120662327 0.0 -0.001345873159100436 0.0 0.0
-0.0045766575300216035 0.002754067718044381 0.0 -0.0017440860918649724 0.0 0.0
-0.006027075526042047 0.003939367882997095 0.0 -0.0021154222886094727 0.0 0.0
-0.007791996751689907 0.005433011769875123 0.0 -0.002497628704338271 0.0 0.0
-0.010025602761430814 0.0073834805553662074 0.0 -0.002912095820678461 0.0 0.0
-0.01295852575473872 0.010029710559805153 0.0 -0.003436235607588824 0.0 0.0
-0.01686049323882243 0.013664060128509438 0.0 -0.0041769643374964605 0.0 0.0
-0.021937506384329154 0.01851325697820035 0.0 -0.005201355998699284 0.0 0.0
-0.02822716649167896 0.0246351345989637 0.0 -0.006516236498644299 0.0 0.0
-0.03535398370926987 0.03172461227807966 0.0 -0.008313308059184102 0.0 0.0
-0.04208165026492861 0.038670711572035936 0.0 -0.01119209449846998 0.0 0.0
-0.04591335080756517 0.043008981306894255 0.0 -0.015545145851180636 0.0 0.0
-0.04300426620472971 0.04081837251590012 0.0 -0.0205747403503026 0.0 0.0
-0.03930408252715862 0.02721961644515656 0.0 8.675352103360012e-15 0.0 0.0
-0.04300426620472645 0.04081837251589845 0.0 0.0205747403503213 0.0 0.0
-0.04591335080755823 0.04300898130688499 0.0 0.01554514585119993 0.0 0.0
-0.04208165026491889 0.03867071157203046 0.0 0.01119209449848102 0.0 0.0
-0.035353983709258546 0.03172461227806762 0.0 0.00831330805918665 0.0 0.0
-0.028227166491666865 0.02463513459895464 0.0 0.006516236498644547 0.0 0.0
-0.02193750638431671 0.01851325697818926 0.0 0.005201355998697614 0.0 0.0
-0.016860493238809802 0.013664060128499784 0.0 0.004176964337494271 0.0 0.0
-0.012958525754725668 0.010029710559792218 0.0 0.0034362356075865437 0.0 0.0
-0.01002560276141736 0.007383480555354514 0.0 0.0029120958206744893 0.0 0.0
-0.007791996751677688 0.005433011769864574 0.0 0.002497628704333548 0.0 0.0
-0.006027075526031629 0.003939367882987717 0.0 0.002115422288605974 0.0 0.0
-0.004576657530012939 0.0027540677180379176 0.0 0.0017440860918624445 0.0 0.0
-0.003350536112197965 0.0017817850120617857 0.0 0.0013458731590977823 0.0 0.0
-0.0023891382347022813 0.001091736057610441 0.0 0.0010676822107288568 0.0 0.0
-0.0017533899928265295 0.000772766614162298 0.0 0.0011386396553825992 0.0 0.0
-0.0013253680397938986 0.0006020435083311205 0.0 0.0013020751191246565 0.0 0.0
-0.0009504358850189027 0.00043128400227595534 0.0 0.001407545694294479 0.0 0.0
-0.0005624673366714294 0.0002160058031823291 0.0 0.0013668413178238871 0.0 0.0
-0.00019942645526884487 -8.99686517850875e-05 0.0 0.0009439535497895344 0.0 0.0
-3.8014241173813524e-05 -0.0001602683687566164 0.0 0.0004988803013581955 0.0 0.0
-7.433057801215241e-05 -6.134362009952755e-05 0.0 -0.0003608436635044321 0.0 0.0
-0.00023773455654692944 -2.739542120532751e-05 0.0 -0.0007215477357831173 0.0 0.0
-0.0006237448302453415 0.00024959536845752553 0.0 -0.001087684556420769 0.0 0.0
-0.0010646505976952246 0.0004735209595863552 0.0 -0.001126893030691695 0.0 0.0
-0.0015013228391630104 0.0006618551744752752 0.0 -0.0010158905493644133 0.0 0.0
-0.0020311607152874987 0.0008816254212179317 0.0 -0.0008074942393080425 0.0 0.0
-0.002856659531624923 0.0014014128235884517 0.0 -0.0008545388094272066 0.0 0.0
-0.004011574901558148 0.0023029127775647277 0.0 -0.0011523029947185057 0.0 0.0
-0.0054140698311941704 0.003433737987041683 0.0 -0.001442036232893256 0.0 0.0
-0.007095843396712586 0.004838174224648789 0.0 -0.0017428176313561072 0.0 0.0
-0.009164613488119812 0.006617564400922676 0.0 -0.0020537758399323484 0.0 0.0
-0.011806516516970768 0.008955086866385303 0.0 -0.002393077234699971 0.0 0.0
-0.015286380806664918 0.012126314342340072 0.0 -0.002830944401209896 0.0 0.0
-0.019886859789022267 0.016446584141391617 0.0 -0.0034797127031055046 0.0 0.0
-0.02580670024066419 0.022128189923849285 0.0 -0.0044062001048030056 0.0 0.0
-0.03304395454030419 0.02918319510514001 0.0 -0.00554802226497748 0.0 0.0
-0.04120042989826662 0.03727341052946359 0.0 -0.006823954390248754 0.0 0.0
-0.04900121095009182 0.045297356283359104 0.0 -0.008781955779609394 0.0 0.0
-0.05367550001560661 0.05061827618048064 0.0 -0.013098900480148869 0.0 0.0
-0.05066258524666609 0.048627214923727013 0.0 -0.020786313260908563 0.0 0.0
-0.046551008880598925 0.0331404861093711 0.0 7.086345399365257e-15 0.0 0.0
-0.05066258524666206 0.048627214923724495 0.0 0.02078631326092531 0.0 0.0
-0.05367550001559855 0.05061827618047113 0.0 0.013098900480167729 0.0 0.0
-0.049001210950080976 0.04529735628334943 0.0 0.00878195577961823 0.0 0.0
-0.041200429898253774 0.037273410529451254 0.0 0.006823954390251269 0.0 0.0
-0.03304395454029058 0.029183195105131628 0.0 0.0055480222649777495 0.0 0.0
-0.025806700240650068 0.022128189923838318 0.0 0.0044062001048019855 0.0 0.0
-0.019886859789007724 0.0164465841413837 0.0 0.003479712703103212 0.0 0.0
-0.01528638080664975 0.012126314342326583 0.0 0.0028309444012080635 0.0 0.0
-0.011806516516955294 0.008955086866371302 0.0 0.0023930772346969203 0.0 0.0
-0.00916461348810591 0.0066175644009103226 0.0 0.002053775839928163 0.0 0.0
-0.00709584339670084 0.004838174224639055 0.0 0.0017428176313529407 0.0 0.0
-0.005414069831184293 0.0034337379870343263 0.0 0.0014420362328913363 0.0 0.0
-0.004011574901550106 0.0023029127775574267 0.0 0.0011523029947156697 0.0 0.0
-0.002856659531619609 0.0014014128235854252 0.0 0.0008545388094253533 0.0 0.0
-0.002031160715284796 0.0008816254212160818 0.0 0.0008074942393078681 0.0 0.0
-0.0015013228391614528 0.0006618551744744434 0.0 0.0010158905493636333 0.0 0.0
-0.0010646505976942108 0.0004735209595855231 0.0 0.0011268930306906645 0.0 0.0
-0.0006237448302448113 0.00024959536845766566 0.0 0.001087684556419532 0.0 0.0
-0.0002377345565466964 -2.7395421205241304e-05 0.0 0.0007215477357824621 0.0 0.0
-7.433057801201766e-05 -6.13436200995551e-05 0.0 0.00036084366350434073 0.0 0.0
-9.513814385400061e-05 -3.509844203411848e-06 0.0 -0.00023290305804740208 0.0 0.0
-0.00026232675137721935 2.4907808075954072e-05 0.0 -0.0004868982500698401 0.0 0.0
-0.0006770189455873733 0.0002774961325689526 0.0 -0.0007600669549387339 0.0 0.0
-0.0011762893472537475 0.0005181665702543885 0.0 -0.000789866731400418 0.0 0.0
-0.001677206040988624 0.0007119312097160253 0.0 -0.0006820070382638692 0.0 0.0
-0.002341372218120564 0.0010398647368048289 0.0 -0.0004887852102065693 0.0 0.0
-0.0033523741226012525 0.0017800077273822249 0.0 -0.0006272275503564542 0.0 0.0
-0.004666797704845494 0.0028272207369076496 0.0 -0.0008192140446246731 0.0 0.0
-0.006249589067216873 0.004131242555065081 0.0 -0.0010205662781557995 0.0 0.0
-0.008168687270696424 0.005760812985738155 0.0 -0.0012306979852486184 0.0 0.0
-0.010552143883574764 0.007834156033892271 0.0 -0.0014458440445319833 0.0 0.0
-0.01361525743751436 0.010570705135163392 0.0 -0.0016747679193344829 0.0 0.0
-0.01765283554276068 0.014281599400028898 0.0 -0.0019845975777435126 0.0 0.0
-0.022966267896361945 0.019295568684030522 0.0 -0.002489312821848198 0.0 0.0
-0.029717791740726196 0.02579978768201318 0.0 -0.003219794794343888 0.0 0.0
-0.03781466451430469 0.03372621500409839 0.0 -0.004093738312796591 0.0 0.0
-0.046797015209031866 0.042631111887215745 0.0 -0.0048864431160168115 0.0 0.0
-0.05553129061514871 0.05145726463990004 0.0 -0.0057182873544969655 0.0 0.0
-0.061281478269369714 0.05793850193042385 0.0 -0.008796705178444584 0.0 0.0
-0.05867739408931068 0.05690881213878843 0.0 -0.019406693250871177 0.0 0.0
-0.05443065190229764 0.039852090068825306 0.0 5.74280206722122e-15 0.0 0.0
-0.05867739408930558 0.05690881213878729 0.0 0.019406693250885038 0.0 0.0
-0.061281478269360465 0.05793850193041508 0.0 0.008796705178458937 0.0 0.0
-0.055531290615136245 0.0514572646398873 0.0 0.005718287354504657 0.0 0.0
-0.04679701520901746 0.04263111188720314 0.0 0.004886443116019706 0.0 0.0
-0.03781466451428951 0.033726215004088796 0.0 0.004093738312796585 0.0 0.0
-0.02971779174071033 0.02579978768200018 0.0 0.0032197947943437494 0.0 0.0
-0.022966267896345503 0.019295568684019326 0.0 0.0024893128218456064 0.0 0.0
-0.01765283554274339 0.014281599400013837 0.0 0.0019845975777424045 0.0 0.0
-0.01361525743749714 0.010570705135148142 0.0 0.0016747679193330955 0.0 0.0
-0.01055214388355924 0.007834156033878567 0.0 0.0014458440445289733 0.0 0.0
-0.008168687270683116 0.00576081298572727 0.0 0.0012306979852462396 0.0 0.0
-0.0062495890672057955 0.004131242555055941 0.0 0.0010205662781545598 0.0 0.0
-0.004666797704836403 0.002827220736899684 0.0 0.0008192140446230431 0.0 0.0
-0.003352374122594715 0.001780007727377882 0.0 0.0006272275503547924 0.0 0.0
-0.002341372218117086 0.0010398647368024504 0.0 0.0004887852102065629 0.0 0.0
-0.0016772060409869568 0.0007119312097151353 0.0 0.0006820070382637688 0.0 0.0
-0.0011762893472527021 0.0005181665702539417 0.0 0.0007898667314000808 0.0 0.0
-0.0006770189455868282 0.00027749613256901584 0.0 0.0007600669549377289 0.0 0.0
-0.0002623267513769579 2.4907808076136418e-05 0.0 0.0004868982500694616 0.0 0.0
-9.513814385377793e-05 -3.509844203507159e-06 0.0 0.00023290305804737568 0.0 0.0
-9.306909316135538e-05 1.2934576414212131e-05 0.0 -0.00013521647535171392 0.0 0.0
-0.0002646142503296835 5.870973826073554e-05 0.0 -0.0002437934644716047 0.0 0.0
-0.0007169530573112679 0.0002950526460696319 0.0 -0.00037221284374105323 0.0 0.0
-0.0012875115903022466 0.0005645323560754849 0.0 -0.00038915114953346473 0.0 0.0
-0.0018723231919301432 0.0007747131575475795 0.0 -0.0003109428318449782 0.0 0.0
-0.0026824882756683022 0.001253515547893502 0.0 -0.00020077631031840655 0.0 0.0
-0.0038571875943683408 0.0021856714254539097 0.0 -0.00030639863293505413 0.0 0.0
-0.005313954895302992 0.0033580011347487206 0.0 -0.00039413742137572085 0.0 0.0
-0.007081018437456276 0.00484182740179074 0.0 -0.00048390657560884475 0.0 0.0
-0.009244837891951185 0.006701259870996483 0.0 -0.0005837469553874436 0.0 0.0
-0.011952366524814547 0.009077503177870328 0.0 -0.0006732417820828123 0.0 0.0
-0.015450407273414554 0.012227708263723255 0.0 -0.0007571796936142921 0.0 0.0
-0.02006243269878302 0.016494135556757893 0.0 -0.0009207180750352439 0.0 0.0
-0.026079515791282874 0.02219211875508219 0.0 -0.001198496953091013 0.0 0.0
-0.03363590216980688 0.02949368188187891 0.0 -0.0015991414765676596 0.0 0.0
-0.04255185585501057 0.03825230665550565 0.0 -0.0021059079790700028 0.0 0.0
-0.0521894549251005 0.04784930397489289 0.0 -0.002538703591355954 0.0 0.0
-0.0614545009758327 0.05712955193124704 0.0 -0.0027092595405393246 0.0 0.0
-0.06844780752790511 0.06434365189823071 0.0 -0.0036573409965359556 0.0 0.0
-0.06728319125496134 0.06571448056415927 0.0 -0.013105531466917526 0.0 0.0
-0.06350179475999775 0.04856001265769468 0.0 4.0375688903360185e-15 0.0 0.0
-0.06728319125495533 0.06571448056415545 0.0 0.01310553146692579 0.0 0.0
-0.0684478075278944 0.06434365189822094 0.0 0.003657340996542911 0.0 0.0
-0.06145450097581834 0.05712955193123563 0.0 0.002709259540543436 0.0 0.0
-0.05218945492508424 0.0478493039748793 0.0 0.0025387035913580778 0.0 0.0
-0.04255185585499366 0.03825230665549138 0.0 0.0021059079790708415 0.0 0.0
-0.03363590216978933 0.02949368188186255 0.0 0.001599141476568138 0.0 0.0
-0.026079515791264486 0.0221921187550667 0.0 0.0011984969530895182 0.0 0.0
-0.02006243269876353 0.016494135556741542 0.0 0.0009207180750350042 0.0 0.0
-0.015450407273395512 0.012227708263706914 0.0 0.0007571796936136203 0.0 0.0
-0.011952366524797569 0.009077503177855255 0.0 0.0006732417820812218 0.0 0.0
-0.009244837891936556 0.006701259870984845 0.0 0.0005837469553858075 0.0 0.0
-0.007081018437443955 0.004841827401779616 0.0 0.00048390657560733717 0.0 0.0
-0.00531395489529289 0.0033580011347410215 0.0 0.00039413742137521404 0.0 0.0
-0.0038571875943608585 0.0021856714254480892 0.0 0.00030639863293374116 0.0 0.0
-0.002682488275663924 0.0012535155478896462 0.0 0.0002007763103180048 0.0 0.0
-0.0018723231919280715 0.000774713157546341 0.0 0.0003109428318452664 0.0 0.0
-0.0012875115903011117 0.0005645323560754518 0.0 0.00038915114953336785 0.0 0.0
-0.0007169530573106841 0.0002950526460693141 0.0 0.0003722128437402606 0.0 0.0
-0.0002646142503294469 5.8709738260874644e-05 0.0 0.00024379346447177497 0.0 0.0
-9.306909316116522e-05 1.293457641419151e-05 0.0 0.00013521647535182825 0.0 0.0
-5.42198389813077e-05 1.0878266428469523e-05 0.0 -8.812850304666533e-05 0.0 0.0
-0.00023004238245480477 6.964480784765639e-05 0.0 -0.00010160771156014585 0.0 0.0
-0.0007361629708147373 0.00030071033832020685 0.0 -0.00012763060827761293 0.0 0.0
-0.0014065512710510208 0.0005876322574779507 0.0 -0.0001360369821986085 0.0 0.0
-0.00210140262025645 0.0008147953825436709 0.0 -6.465402366428316e-05 0.0 0.0
-0.003047659943266292 0.0013694302952570057 0.0 4.92349625591693e-05 0.0 0.0
-0.004357945493783938 0.0023908501474278728 0.0 2.7937963740932504e-05 0.0 0.0
-0.00595220169283386 0.0036253901626092074 0.0 2.6154610897852508e-05 0.0 0.0
-0.007906774244452009 0.005199372672232101 0.0 4.7838118023993165e-05 0.0 0.0
-0.01032196665899642 0.0071754822319561725 0.0 7.129858929322177e-05 0.0 0.0
-0.013364617417137337 0.0097043692724858 0.0 0.00014730561035830678 0.0 0.0
-0.01731717475898195 0.013067296557069324 0.0 0.000275472814105673 0.0 0.0
-0.022502737335790567 0.01761512561171374 0.0 0.00035946574304125114 0.0 0.0
-0.029204445901586308 0.02364796707661557 0.0 0.0004384268705599835 0.0 0.0
-0.03753992345835119 0.03134269186992866 0.0 0.00041939600532099 0.0 0.0
-0.04723888970149916 0.04050929779890569 0.0 0.00025765772980333116 0.0 0.0
-0.05748715533537859 0.05043254071274755 0.0 -7.653485605619778e-06 0.0 0.0
-0.06692438491063177 0.059865689697133476 0.0 -0.00025771302920683456 0.0 0.0
-0.0741604717233935 0.06719457818994837 0.0 -0.0004369060841686945 0.0 0.0
-0.07637019012611504 0.07023071441997239 0.0 -0.008627699231262342 0.0 0.0
-0.07565841365713367 0.05364961944422293 0.0 1.824929096727601e-15 0.0 0.0
-0.07637019012610874 0.07023071441996577 0.0 0.008627699231266578 0.0 0.0
-0.07416047172338108 0.06719457818993621 0.0 0.0004369060841722715 0.0 0.0
-0.0669243849106147 0.059865689697124455 0.0 0.00025771302920856495 0.0 0.0
-0.05748715533536007 0.05043254071273197 0.0 7.653485605626717e-06 0.0 0.0
-0.04723888970148023 0.04050929779888884 0.0 -0.00025765772980350377 0.0 0.0
-0.0375399234583316 0.03134269186990972 0.0 -0.0004193960053207489 0.0 0.0
-0.029204445901565984 0.023647967076598414 0.0 -0.000438426870561193 0.0 0.0
-0.02250273733576911 0.01761512561169677 0.0 -0.0003594657430409263 0.0 0.0
-0.017317174758960902 0.01306729655705056 0.0 -0.0002754728141058623 0.0 0.0
-0.013364617417118859 0.009704369272469775 0.0 -0.0001473056103581717 0.0 0.0
-0.010321966658980926 0.007175482231943579 0.0 -7.129858929325137e-05 0.0 0.0
-0.007906774244438433 0.005199372672220045 0.0 -4.783811802505948e-05 0.0 0.0
-0.005952201692822425 0.0036253901626027932 0.0 -2.6154610898150446e-05 0.0 0.0
-0.004357945493775531 0.002390850147420694 0.0 -2.7937963741680766e-05 0.0 0.0
-0.0030476599432611865 0.0013694302952533734 0.0 -4.9234962559329385e-05 0.0 0.0
-0.002101402620254047 0.0008147953825417781 0.0 6.465402366477493e-05 0.0 0.0
-0.0014065512710498412 0.0005876322574783895 0.0 0.00013603698219877045 0.0 0.0
-0.000736162970814022 0.00030071033831957584 0.0 0.00012763060827668908 0.0 0.0
-0.0002300423824545731 6.964480784796374e-05 0.0 0.00010160771156062895 0.0 0.0
-5.421983898133927e-05 1.0878266428485807e-05 0.0 8.812850304665913e-05 0.0 0.0
SCALARS Statev float 8
LOOKUP_TABLE default
0.0 0.009964987140532683 0.007668688399790374 -0.009535505959438369 0.0018668175596479968 -0.00034581417902679047 0.0 0.0
0.0 0.0026058867796700893 0.0017641341046284286 -0.0008545550707651889 -0.0009095790338632413 -0.0037570258733652245 0.0 0.0
0.0 -4.5123902537515184e-05 -1.9890897872655993e-05 1.2688871592749845e-05 7.20202627990656e-06 -2.6482686494332905e-05 0.0 0.0
0.0 7.149623777442509e-05 -1.102579996576422e-05 8.196748569717583e-06 2.829051396046456e-06 -2.2273404682893211e-07 0.0 0.0
0.0 0.0003397098941162317 4.7846683154515083e-05 -3.246806533609531e-05 -1.5378617818419485e-05 3.2111205936766085e-05 0.0 0.0
0.0 0.000614834210441888 0.0007049068635210733 -0.0005324082957483781 -0.00017249856777269508 5.7376336895162715e-05 0.0 0.0
0.0 0.0017969217931629983 0.001672930703480069 -0.001322826461057666 -0.00035010424242240247 6.588966580709776e-05 0.0 0.0
0.0 0.003265605213664342 0.003040347080045336 -0.0024921440485481824 -0.0005482030314971554 7.215671971108254e-05 0.0 0.0
0.0 0.005186359925598521 0.004788533387878942 -0.0040499708225338864 -0.0007385625653450537 9.184780309517383e-05 0.0 0.0
0.0 0.007680505198673117 0.006977505944882686 -0.006050896596445362 -0.0009266093484373218 0.00012011336745836241 0.0 0.0
0.0 0.01092429132843297 0.009763441454503877 -0.008639933190693692 -0.0011235082638101886 0.00020200002187283054 0.0 0.0
0.0 0.014923271628545499 0.013438521832744523 -0.012104323858815384 -0.0013341979739291293 0.00033794812277660726 0.0 0.0
0.0 0.020411264312035132 0.018325836279769393 -0.0167758534120578 -0.0015499828677115787 0.000422951124116351 0.0 0.0
0.0 0.027653550640777336 0.024712638794537233 -0.022941785518286014 -0.0017708532762512094 0.000503884475579238 0.0 0.0
0.0 0.03683297923129862 0.0327557112575369 -0.030769428251042348 -0.001986283006494568 0.0005126416523275083 0.0 0.0
0.0 0.04782690140259649 0.04231362562350442 -0.04012642711534064 -0.002187198508163806 0.00041899879090319316 0.0 0.0
0.0 0.059951101634783 0.0528272633447484 -0.050460484636790544 -0.0023667787079578134 0.00022035925177844276 0.0 0.0
0.0 0.07205185524979474 0.06330942564006731 -0.06079216445673745 -0.0025172611833298524 -2.0387351821902523e-05 0.0 0.0
0.0 0.08267131479788789 0.0725017516196862 -0.06987139917420115 -0.0026303524454850177 -0.00016128886024076089 0.0 0.0
0.0 0.09008515617766356 0.07909321995023942 -0.07640253323131382 -0.0026906867189255643 -0.0002258833570147401 0.0 0.0
0.0 0.09282888297776776 0.0815968047888425 -0.07890663938210846 -0.002690165406734043 3.452099717193846e-16 0.0 0.0
0.0 0.09008515617765939 0.07909321995023552 -0.07640253323131002 -0.002690686718925493 0.00022588335701825965 0.0 0.0
0.0 0.08267131479787712 0.07250175161967659 -0.06987139917419247 -0.0026303524454841304 0.00016128886024461067 0.0 0.0
0.0 0.07205185524977628 0.06330942564005113 -0.060792164456721774 -0.002517261183329391 2.0387351823923476e-05 0.0 0.0
0.0 0.05995110163476515 0.05282726334473235 -0.05046048463677584 -0.002366778707956518 -0.00022035925177810558 0.0 0.0
0.0 0.04782690140257754 0.04231362562348755 -0.040126427115324576 -0.00218719850816298 -0.00041899879090290053 0.0 0.0
0.0 0.03683297923127797 0.03275571125751853 -0.030769428251024997 -0.0019862830064935454 -0.0005126416523279345 0.0 0.0
0.0 0.02765355064075899 0.024712638794520583 -0.022941785518271005 -0.0017708532762495798 -0.000503884475579814 0.0 0.0
0.0 0.0204112643120141 0.018325836279750728 -0.016775853412040263 -0.0015499828677104587 -0.00042295112411699356 0.0 0.0
0.0 0.014923271628525034 0.013438521832726326 -0.012104323858798047 -0.0013341979739282593 -0.00033794812277685083 0.0 0.0
0.0 0.010924291328415414 0.009763441454488025 -0.008639933190679072 -0.0011235082638089587 -0.0002020000218734566 0.0 0.0
0.0 0.007680505198659381 0.006977505944870447 -0.006050896596434116 -0.000926609348436331 -0.00012011336745880124 0.0 0.0
0.0 0.005186359925586782 0.00478853338786797 -0.004049970822524085 -0.0007385625653438832 -9.18478030955669e-05 0.0 0.0
0.0 0.003265605213654892 0.003040347080036187 -0.0024921440485401 -0.0005482030314960867 -7.215671971120524e-05 0.0 0.0
0.0 0.0017969217931565334 0.0016729307034730916 -0.0013228264610518092 -0.0003501042424212818 -6.588966580708407e-05 0.0 0.0
0.0 0.0006148342104384771 0.000704906863517128 -0.0005324082957452874 -0.00017249856777184044 -5.73763368948611e-05 0.0 0.0
0.0 0.00033970989411447413 4.784668315385945e-05 -3.2468065335635544e-05 -1.5378617818224468e-05 -3.211120593652362e-05 0.0 0.0
0.0 7.149623777388238e-05 -1.1025799965659802e-05 8.196748569641746e-06 2.8290513960185217e-06 2.2273404684293704e-07 0.0 0.0
0.0 -4.512390253763941e-05 -1.9890897872386898e-05 1.2688871592584337e-05 7.202026279802556e-06 2.6482686493978276e-05 0.0 0.0
0.0 0.002605886779664994 0.0017641341046260716 -0.0008545550707639826 -0.0009095790338620892 0.0037570258733601656 0.0 0.0
0.0 0.009964987140520624 0.007668688399782285 -0.009535505959426207 0.0018668175596439176 0.00034581417900909504 0.0 0.0
0.0 0.007853693417652234 0.005574008729538894 -0.007598726332488342 0.0020247176029494452 -1.2657913837770007e-06 0.0 0.0
0.0 0.0012310372125455369 0.0008676749441408689 -0.0003411394694207455 -0.0005265354747201224 -0.0025045599511184223 0.0 0.0
0.0 1.8040756826938342e-05 4.188184659130673e-07 4.5015444395926647e-07 -8.689729098725163e-07 5.4322470690830675e-06 0.0 0.0
0.0 7.467978065355359e-06 -7.961622931434474e-07 5.360292496322876e-07 2.6013304351136995e-07 1.594436540044148e-07 0.0 0.0
0.0 0.00010731755021515217 9.898933802533324e-06 -6.278155763154681e-06 -3.620778039379428e-06 9.906369468471674e-06 0.0 0.0
0.0 0.0005966985578095797 0.00040812578841403665 -0.0003096641419279583 -9.846164648607828e-05 3.88715409677169e-05 0.0 0.0
0.0 0.0014261715475593353 0.0013353076499097814 -0.001067056737808845 -0.0002682509121009357 -5.133479554274606e-05 0.0 0.0
0.0 0.0027900832198316907 0.002575213406741093 -0.002134392895792812 -0.00044082051094827986 -0.00013781031479729962 0.0 0.0
0.0 0.004567043676347403 0.004165520572067836 -0.003564493952799975 -0.0006010266192678597 -0.00023453508347591546 0.0 0.0
0.0 0.006796913144758115 0.006150619939349725 -0.00540161670732204 -0.0007490032320276858 -0.0003380165531939189 0.0 0.0
0.0 0.00967394179467253 0.008666008922971495 -0.007776309242501043 -0.000889699680470449 -0.00043443536284849354 0.0 0.0
0.0 0.013591322464109545 0.011961285113428475 -0.010937842868653735 -0.0010234422447747368 -0.0005261287351039101 0.0 0.0
0.0 0.018362038484269663 0.016380554302683495 -0.015233995722374768 -0.0011465585803087242 -0.0007027964502945367 0.0 0.0
0.0 0.025053349411998268 0.022206419812054887 -0.020951812930923092 -0.0012546068811318044 -0.0009926787838995931 0.0 0.0
0.0 0.033548052928641554 0.02959869345947495 -0.02825740176419851 -0.0013412916952764227 -0.0013821845967239544 0.0 0.0
0.0 0.043733035028800306 0.038430047587893354 -0.037029692706033644 -0.001400354881859701 -0.0018631091116904164 0.0 0.0
0.0 0.0550301981243322 0.04817512084636301 -0.046745601708241616 -0.0014295191381214292 -0.0023328825087782475 0.0 0.0
0.0 0.06638293996099695 0.05792483552738388 -0.05649038351112842 -0.0014344520162554294 -0.0025726871935204516 0.0 0.0
0.0 0.07638666662951137 0.06651508089174499 -0.0650920806458986 -0.001423000245846432 -0.002342823304992892 0.0 0.0
0.0 0.08355722815513353 0.07263573048378603 -0.0712512250294923 -0.0013845054542937479 -0.0016664317669645248 0.0 0.0
0.0 0.08636182586924915 0.07494231731007837 -0.07361591963832495 -0.0013263976717533318 2.651958513899544e-15 0.0 0.0
0.0 0.08355722815512978 0.07263573048378257 -0.07125122502948919 -0.0013845054542933797 0.0016664317669723028 0.0 0.0
0.0 0.07638666662950128 0.06651508089173615 -0.06509208064589013 -0.0014230002458460469 0.00234282330500076 0.0 0.0
0.0 0.06638293996098132 0.057924835527370225 -0.056490383511115023 -0.0014344520162552163 0.0025726871935249336 0.0 0.0
0.0 0.05503019812431543 0.04817512084634827 -0.04674560170822758 -0.001429519138120665 0.0023328825087794883 0.0 0.0
0.0 0.04373303502878323 0.03843004758787824 -0.03702969270601913 -0.0014003548818590935 0.0018631091116906434 0.0 0.0
0.0 0.03354805292862282 0.02959869345945841 -0.028257401764182687 -0.0013412916952757331 0.0013821845967236209 0.0 0.0
0.0 0.025053349411981375 0.022206419812039826 -0.020951812930909045 -0.0012546068811307713 0.000992678783899438 0.0 0.0
0.0 0.01836203848425044 0.016380554302666564 -0.015233995722358541 -0.0011465585803080301 0.000702796450293757 0.0 0.0
0.0 0.013591322464091412 0.011961285113412129 -0.010937842868638135 -0.001023442244773995 0.0005261287351029781 0.0 0.0
0.0 0.00967394179465634 0.008666008922957128 -0.007776309242487527 -0.0008896996804695958 0.00043443536284677167 0.0 0.0
0.0 0.006796913144745732 0.00615061993933807 -0.005401616707311268 -0.0007490032320268003 0.0003380165531927478 0.0 0.0
0.0 0.004567043676337342 0.004165520572058015 -0.003564493952791092 -0.0006010266192669218 0.00023453508347509654 0.0 0.0
0.0 0.002790083219823305 0.0025752134067329037 -0.0021343928957855683 -0.00044082051094733514 0.00013781031479652477 0.0 0.0
0.0 0.0014261715475540429 0.001335307649904167 -0.0010670567378041028 -0.00026825091210006425 5.1334795542328445e-05 0.0 0.0
0.0 0.0005966985578060167 0.00040812578841120477 -0.00030966414192573665 -9.846164648546838e-05 -3.8871540967729184e-05 0.0 0.0
0.0 0.00010731755021386061 9.898933802220769e-06 -6.278155762937561e-06 -3.620778039283075e-06 -9.90636946832745e-06 0.0 0.0
0.0 7.467978065023354e-06 -7.961622930962181e-07 5.360292495970548e-07 2.601330434990899e-07 -1.5944365400420054e-07 0.0 0.0
0.0 1.804075682687985e-05 4.1881846589749756e-07 4.5015444396034527e-07 -8.689729098580761e-07 -5.432247069014287e-06 0.0 0.0
0.0 0.0012310372125414852 0.0008676749441387255 -0.0003411394694195456 -0.0005265354747191798 0.002504559951112145 0.0 0.0
0.0 0.007853693417639569 0.005574008729529656 -0.007598726332475465 0.002024717602945804 1.2657913714598677e-06 0.0 0.0
0.0 0.005503186897348879 0.0038112728137760558 -0.005362936535271363 0.0015516637214953073 -0.001412798529655917 0.0 0.0
0.0 0.0008012263348461098 0.00047861703307315405 -0.00014189554788058997 -0.000336721485192564 -0.0016794337373121685 0.0 0.0
0.0 0.0 0.0 0.0 0.0 0.0 0.0 0.0
0.0 2.051092862846735e-06 -1.6874949435614023e-07 1.2193667979070135e-07 4.6812814565392716e-08 -1.7398223243033477e-07 0.0 0.0
0.0 1.972745645090047e-05 -1.2920597077976279e-05 1.0063633161473003e-05 2.8569639165040493e-06 3.806162499475205e-06 0.0 0.0
0.0 0.0003629771665594641 0.00016932161875111174 -0.00012510248894649634 -4.421912980461656e-05 2.6531661509588833e-05 0.0 0.0
0.0 0.000953240353474703 0.0009463241445233661 -0.0007432571957510822 -0.00020306694877228365 -0.00013957609639796847 0.0 0.0
0.0 0.0021902843869163664 0.002022099475211844 -0.0016535825274068782 -0.00036851694780496607 -0.0003290408514935176 0.0 0.0
0.0 0.0037200449778847754 0.0034246847254165206 -0.002893042313684009 -0.0005316424117325136 -0.0005361437755252674 0.0 0.0
0.0 0.00571574237497591 0.005166847179042145 -0.00448623721754992 -0.000680609961492226 -0.0007551330783730144 0.0 0.0
0.0 0.008245920834114288 0.007365807909076466 -0.00654511693042288 -0.0008206909786535829 -0.0009817487886327266 0.0 0.0
0.0 0.011455249736771275 0.010239777901194767 -0.009286287373680086 -0.0009534905275146879 -0.0012276808903776333 0.0 0.0
0.0 0.016041289098431867 0.014083552404537127 -0.013008921407979506 -0.0010746309965576184 -0.0015598834916762264 0.0 0.0
0.0 0.021680786582815387 0.019226483014533606 -0.018047887238818443 -0.0011785957757151585 -0.002089035739606748 0.0 0.0
0.0 0.02927974103400261 0.02581621456745317 -0.024556286081632253 -0.0012599284858209171 -0.00282615636947281 0.0 0.0
0.0 0.038428438550838204 0.03374259678984233 -0.03242793783981232 -0.0013146589500299764 -0.0037024460625839613 0.0 0.0
0.0 0.048615078132467036 0.042546659985838675 -0.04120257628787993 -0.001344083697958745 -0.004524564010499692 0.0 0.0
0.0 0.058901314012269335 0.051427446992617525 -0.05007496908603321 -0.0013524779065842419 -0.004918683023792383 0.0 0.0
0.0 0.06806752957024167 0.05931454378907603 -0.05797576101585512 -0.0013387827732208857 -0.0045028572652292985 0.0 0.0
0.0 0.07466919756263878 0.06496907020998956 -0.06366161049455114 -0.0013074597154383834 -0.0031824065772916156 0.0 0.0
0.0 0.07730699861769541 0.06714482176920278 -0.06591393860328848 -0.001230883165914302 5.508831238398848e-15 0.0 0.0
0.0 0.07466919756263554 0.06496907020998606 -0.06366161049454817 -0.001307459715437847 0.0031824065773053546 0.0 0.0
0.0 0.06806752957023332 0.05931454378906855 -0.05797576101584791 -0.0013387827732206548 0.004502857265242863 0.0 0.0
0.0 0.05890131401225716 0.05142744699260672 -0.05007496908602274 -0.0013524779065839715 0.004918683023801089 0.0 0.0
0.0 0.048615078132453984 0.04254665998582703 -0.041202576287869455 -0.0013440836979575817 0.0045245640105024505 0.0 0.0
0.0 0.03842843855082275 0.03374259678982872 -0.03242793783979913 -0.0013146589500295743 0.003702446062583069 0.0 0.0
0.0 0.029279741033986943 0.025816214567439273 -0.024556286081619142 -0.0012599284858201521 0.0028261563694723557 0.0 0.0
0.0 0.021680786582799646 0.01922648301451968 -0.018047887238805165 -0.0011785957757145088 0.002089035739606381 0.0 0.0
0.0 0.016041289098414728 0.014083552404521851 -0.013008921407964877 -0.001074630996556967 0.001559883491674352 0.0 0.0
0.0 0.011455249736755423 0.01023977790118067 -0.009286287373666841 -0.0009534905275138249 0.0012276808903754757 0.0 0.0
0.0 0.008245920834100834 0.007365807909063771 -0.006545116930410932 -0.000820690978652838 0.0009817487886300724 0.0 0.0
0.0 0.005715742374964576 0.005166847179031265 -0.0044862372175399874 -0.0006806099614912748 0.0007551330783709271 0.0 0.0
0.0 0.0037200449778762314 0.0034246847254083327 -0.0028930423136766933 -0.0005316424117316392 0.0005361437755239458 0.0 0.0
0.0 0.002190284386909781 0.0020220994752050987 -0.001653582527401052 -0.0003685169478040472 0.0003290408514920408 0.0 0.0
0.0 0.0009532403534703687 0.0009463241445190531 -0.000743257195747542 -0.00020306694877151107 0.00013957609639715947 0.0 0.0
0.0 0.00036297716655680465 0.00016932161874935728 -0.0001251024889451764 -4.421912980418066e-05 -2.65316615096937e-05 0.0 0.0
0.0 1.9727456450109683e-05 -1.2920597077773638e-05 1.0063633161314326e-05 2.8569639164594166e-06 -3.806162499366756e-06 0.0 0.0
0.0 2.05109286259545e-06 -1.6874949432221312e-07 1.219366797653232e-07 4.681281455693923e-08 1.7398223243123442e-07 0.0 0.0
0.0 0.0 0.0 0.0 0.0 0.0 0.0 0.0
0.0 0.000801226334842377 0.00047861703307086243 -0.00014189554787918338 -0.00033672148519167916 0.0016794337373056357 0.0 0.0
0.0 0.005503186897336429 0.003811272813767127 -0.005362936535258908 0.0015516637214917823 0.0014127985296476216 0.0 0.0
0.0 0.0039367792481217355 0.002636212868332083 -0.0037839988233974004 0.001147785955065316 -0.0015827889060966009 0.0 0.0
0.0 0.00045781134341318913 0.0002576604762002928 -5.13060099301681e-05 -0.00020635446627012414 -0.0010706841182935248 0.0 0.0
0.0 0.0 0.0 0.0 0.0 0.0 0.0 0.0
0.0 -1.039083743900109e-06 1.1224192616913517e-07 -8.466471595148298e-08 -2.7577210217650873e-08 -7.311580419893329e-08 0.0 0.0
0.0 2.3067520910718485e-05 -3.096619626339572e-06 2.3238864102485194e-06 7.72733216090986e-07 7.416568751328243e-07 0.0 0.0
0.0 0.00010344244145669004 3.429189302882447e-05 -2.3661523275942504e-05 -1.063036975288134e-05 1.5962792150481712e-05 0.0 0.0
0.0 0.0007086445853249424 0.0005366491292176398 -0.00041258412616817255 -0.00012406500304946763 -0.00010421221041613913 0.0 0.0
0.0 0.001613059529935992 0.0014834608390987215 -0.0011950972541806694 -0.0002883635849180519 -0.00042160232586801056 0.0 0.0
0.0 0.0029481877789546813 0.0026958933617689256 -0.0022449154169795807 -0.00045097794478934266 -0.0007245146157175401 0.0 0.0
0.0 0.0046601157707159 0.004202244907479771 -0.0036000914824289407 -0.0006021534250508308 -0.0010393642543146695 0.0 0.0
0.0 0.006776102161108619 0.006096168226923099 -0.005353431260759093 -0.0007427369661640073 -0.0013695946787722077 0.0 0.0
0.0 0.009644845307791973 0.008552454691244344 -0.0076780225357601485 -0.0008744321554841922 -0.0017322440034665632 0.0 0.0
0.0 0.013290170058434546 0.011853680756754763 -0.01085765912999978 -0.0009960216267549775 -0.0022015143473885167 0.0 0.0
0.0 0.018626961369046707 0.016285797175210198 -0.015189321364492836 -0.0010964758107173652 -0.0028878142362013916 0.0 0.0
0.0 0.025170577323534834 0.022044085039647013 -0.02087092949708045 -0.001173155542566554 -0.0038555473466510186 0.0 0.0
0.0 0.03307389543764044 0.029040352475391887 -0.027814204931536284 -0.0012261475438556293 -0.00502911407205401 0.0 0.0
0.0 0.04222501117911021 0.03687814840830503 -0.035621835917434785 -0.0012563124908702406 -0.006124216389942093 0.0 0.0
0.0 0.051498954836546706 0.04487740847458044 -0.04361070406590775 -0.0012667044086726847 -0.006667620241672129 0.0 0.0
0.0 0.05983362356607979 0.052082776382632874 -0.05082674074155784 -0.001256035641074988 -0.0061835164247390165 0.0 0.0
0.0 0.0659162459190602 0.05735811068164415 -0.056130939741846055 -0.0012271709397981057 -0.004335337231307991 0.0 0.0
0.0 0.06848775569654496 0.05947066844746275 -0.05835253845627536 -0.0011181299911873486 8.303904439066478e-15 0.0 0.0
0.0 0.0659162459190556 0.05735811068163959 -0.056130939741841315 -0.0012271709397982638 0.004335337231325663 0.0 0.0
0.0 0.059833623566072046 0.05208277638262565 -0.050826740741550976 -0.0012560356410746506 0.006183516424756171 0.0 0.0
0.0 0.05149895483653584 0.04487740847457067 -0.04361070406589837 -0.0012667044086723154 0.006667620241683041 0.0 0.0
0.0 0.04222501117909941 0.036878148408295286 -0.03562183591742606 -0.0012563124908692106 0.006124216389945429 0.0 0.0
0.0 0.03307389543762665 0.02904035247537979 -0.0278142049315245 -0.0012261475438552652 0.005029114072053318 0.0 0.0
0.0 0.025170577323522434 0.022044085039635845 -0.020870929497070263 -0.0011731555425655714 0.0038555473466502332 0.0 0.0
0.0 0.01862696136903417 0.0162857971751988 -0.015189321364482162 -0.0010964758107166292 0.0028878142362007836 0.0 0.0
0.0 0.013290170058419886 0.011853680756741853 -0.010857659129987594 -0.0009960216267542565 0.0022015143473866545 0.0 0.0
0.0 0.009644845307778802 0.00855245469123193 -0.007678022535748537 -0.000874432155483392 0.0017322440034634634 0.0 0.0
0.0 0.006776102161096461 0.0060961682269118625 -0.005353431260748656 -0.000742736966163205 0.0013695946787685954 0.0 0.0
0.0 0.004660115770705784 0.004202244907470335 -0.0036000914824203443 -0.0006021534250499915 0.0010393642543116853 0.0 0.0
0.0 0.0029481877789473477 0.0026958933617615114 -0.002244915416973033 -0.0004509779447884797 0.0007245146157154205 0.0 0.0
0.0 0.0016130595299302195 0.001483460839093219 -0.0011950972541760676 -0.0002883635849171507 0.00042160232586620444 0.0 0.0
0.0 0.0007086445853204855 0.0005366491292140196 -0.0004125841261652761 -0.00012406500304874306 0.0001042122104150943 0.0 0.0
0.0 0.00010344244145483116 3.4291893028077716e-05 -2.366152327539497e-05 -1.0630369752683063e-05 -1.5962792150427143e-05 0.0 0.0
0.0 2.3067520910072484e-05 -3.096619626239142e-06 2.3238864101730145e-06 7.727332160661935e-07 -7.416568750810017e-07 0.0 0.0
0.0 -1.039083743784599e-06 1.1224192615645644e-07 -8.466471594182714e-08 -2.757721021463036e-08 7.311580419012846e-08 0.0 0.0
0.0 0.0 0.0 0.0 0.0 0.0 0.0 0.0
0.0 0.0004578113434099491 0.000257660476198448 -5.130600992896908e-05 -0.0002063544662694791 0.001070684118288004 0.0 0.0
0.0 0.003936779248112047 0.002636212868324675 -0.003783998823386915 0.0011477859550622388 0.0015827889060903563 0.0 0.0
0.0 0.0026404389876694243 0.0017848100322308325 -0.0025888346712443517 0.0008040246390135184 -0.0013800257995058337 0.0 0.0
0.0 0.00040199121592127883 9.926398687398473e-05 2.2526308354668263e-05 -0.00012179029522865286 -0.0005593107264892735 0.0 0.0
0.0 0.0 0.0 0.0 0.0 0.0 0.0 0.0
0.0 1.502831278674161e-07 -1.538571686285482e-08 1.177636640696396e-08 3.6093504558909304e-09 1.561152117024035e-08 0.0 0.0
0.0 -6.568477829965191e-06 8.813201449724693e-07 -7.024461064217309e-07 -1.7887403855080943e-07 -1.401080567271437e-06 0.0 0.0
0.0 5.2113183592183476e-05 -1.7745503667014922e-05 1.4072844439341072e-05 3.672659227674041e-06 2.208519064104779e-05 0.0 0.0
0.0 0.000456288528809663 0.0002121637371703781 -0.00015959338899395166 -5.25703481764266e-05 -4.6582633461019346e-05 0.0 0.0
0.0 0.001076933702976413 0.0009664356926793352 -0.0007630740929257847 -0.00020336159975354996 -0.00037883667856099327 0.0 0.0
0.0 0.002208380948745228 0.001989251634373446 -0.0016302624451211309 -0.00035898918925231417 -0.0007930165454787824 0.0 0.0
0.0 0.0036204807686553535 0.0032637130646932955 -0.002752711695698169 -0.0005110013689951281 -0.0011869143608577099 0.0 0.0
0.0 0.005426830735428351 0.004856286926288399 -0.00420412873444019 -0.0006521581918482075 -0.00159568879176444 0.0 0.0
0.0 0.007803817015866336 0.0069127689672019285 -0.006128062443957789 -0.0007847065232441363 -0.002041493236417592 0.0 0.0
0.0 0.011081883304696966 0.009668591332087731 -0.008762807015256216 -0.0009057843168315175 -0.0026009839541615187 0.0 0.0
0.0 0.015201679982811968 0.01341524348301248 -0.012407583646418502 -0.0010076598365939787 -0.0033947239810578505 0.0 0.0
0.0 0.020992718479095698 0.018317694050989104 -0.01723599229874676 -0.0010817017522423429 -0.004499834302796641 0.0 0.0
0.0 0.028078083252989338 0.024341203237361587 -0.023209837011874627 -0.0011313662254869485 -0.0058334134347245445 0.0 0.0
0.0 0.035867273970603415 0.031185267503514455 -0.030021586252279783 -0.0011636812512346635 -0.007099022995161682 0.0 0.0
0.0 0.044067542678686636 0.03827874712265374 -0.037100184588257194 -0.0011785625343965524 -0.007802189306463735 0.0 0.0
0.0 0.051609608750407016 0.044808465875831746 -0.043636305711895765 -0.0011721601639359848 -0.00734728186033731 0.0 0.0
0.0 0.05730551150050406 0.04975846280625955 -0.04861638757561004 -0.0011420752306495231 -0.0051937781949694395 0.0 0.0
0.0 0.05987633425302657 0.05185167293834426 -0.05085919299756768 -0.000992479940776584 8.930356454328603e-15 0.0 0.0
0.0 0.05730551150050006 0.049758462806255455 -0.04861638757560555 -0.0011420752306498805 0.005193778194988813 0.0 0.0
0.0 0.05160960875039938 0.044808465875824335 -0.043636305711888757 -0.00117216016393562 0.007347281860356087 0.0 0.0
0.0 0.04406754267867721 0.0382787471226451 -0.037100184588248826 -0.0011785625343962536 0.007802189306475351 0.0 0.0
0.0 0.03586727397059258 0.031185267503505018 -0.030021586252270794 -0.00116368125123421 0.007099022995164078 0.0 0.0
0.0 0.02807808325297777 0.02434120323735122 -0.023209837011864867 -0.0011313662254863624 0.005833413434723144 0.0 0.0
0.0 0.020992718479084273 0.018317694050978908 -0.01723599229873715 -0.0010817017522417572 0.004499834302795078 0.0 0.0
0.0 0.015201679982801738 0.013415243483003166 -0.01240758364640988 -0.0010076598365932868 0.0033947239810568496 0.0 0.0
0.0 0.01108188330468545 0.009668591332076981 -0.008762807015246206 -0.0009057843168307718 0.002600983954159422 0.0 0.0
0.0 0.007803817015855144 0.0069127689671916424 -0.006128062443948213 -0.0007847065232434289 0.002041493236414015 0.0 0.0
0.0 0.005426830735417977 0.004856286926279065 -0.004204128734431789 -0.0006521581918472748 0.001595688791760392 0.0 0.0
0.0 0.0036204807686463546 0.003263713064684787 -0.002752711695690503 -0.0005110013689942842 0.0011869143608539945 0.0 0.0
0.0 0.0022083809487378507 0.0019892516343666864 -0.0016302624451152838 -0.00035898918925140316 0.0007930165454759657 0.0 0.0
0.0 0.0010769337029714946 0.0009664356926746997 -0.0007630740929219781 -0.00020336159975272198 0.00037883667855905976 0.0 0.0
0.0 0.00045628852880632285 0.00021216373716830496 -0.00015959338899234943 -5.257034817595548e-05 4.658263346022314e-05 0.0 0.0
0.0 5.211318359139121e-05 -1.7745503666845915e-05 1.4072844439205974e-05 3.6726592276401172e-06 -2.2085190640782934e-05 0.0 0.0
0.0 -6.568477830333151e-06 8.813201450159641e-07 -7.024461064543122e-07 -1.7887403856169113e-07 1.4010805672876604e-06 0.0 0.0
0.0 1.5028312785489226e-07 -1.5385716861505443e-08 1.177636640593436e-08 3.6093504555691687e-09 -1.5611521168860303e-08 0.0 0.0
0.0 0.0 0.0 0.0 0.0 0.0 0.0 0.0
0.0 0.00040199121591788777 9.926398687272586e-05 2.252630835549986e-05 -0.00012179029522822523 0.000559310726485291 0.0 0.0
0.0 0.0026404389876616883 0.0017848100322249867 -0.0025888346712359656 0.0008040246390109794 0.0013800257995010784 0.0 0.0
0.0 0.0017690755472643924 0.0011319527017098286 -0.0016507410726106966 0.0005187883709008689 -0.0010372619778796861 0.0 0.0
0.0 0.00010941198523745641 1.7437880822888002e-05 5.111965267953376e-05 -6.8557533502422e-05 -0.0002442026311312098 0.0 0.0
0.0 0.0 0.0 0.0 0.0 0.0 0.0 0.0
0.0 0.0 0.0 0.0 0.0 0.0 0.0 0.0
0.0 -2.3964272506979403e-06 2.080439573516981e-07 -1.568401223943266e-07 -5.1203834957356944e-08 -3.9143577550891687e-07 0.0 0.0
0.0 -2.8130291273304634e-06 -6.990981523191333e-06 5.5181578621312255e-06 1.4728236610600058e-06 9.424098161518337e-06 0.0 0.0
0.0 9.108509500704872e-05 6.413826583801199e-05 -4.723843958575457e-05 -1.6899826252257133e-05 -1.856115086854219e-05 0.0 0.0
0.0 0.0008313325326006585 0.0004606474701034696 -0.0003565130717805267 -0.00010413439832294383 -0.0002216209269480563 0.0 0.0
0.0 0.0013914690175948795 0.0013248315935183608 -0.0010643670767939905 -0.0002604645167243691 -0.000719453709533718 0.0 0.0
0.0 0.002666826000422457 0.002354219289969128 -0.0019507071187382372 -0.0004035121712308901 -0.0011869081789082298 0.0 0.0
0.0 0.004117289719638149 0.003655057556889496 -0.0031095803442459827 -0.000545477212643513 -0.0016501159997452943 0.0 0.0
0.0 0.0060166968512137195 0.005325217840994718 -0.004646160911770681 -0.0006790569292240358 -0.0021525732779722334 0.0 0.0
0.0 0.008600167161351447 0.007560162452511684 -0.0067572136083736585 -0.0008029488441380249 -0.002758397053222719 0.0 0.0
0.0 0.012231214208820184 0.010607610171097116 -0.009701663221564289 -0.0009059469495328215 -0.003590668800836667 0.0 0.0
0.0 0.01690172031829288 0.01465484823292468 -0.013673360317635025 -0.0009814879152896467 -0.0047460438806445245 0.0 0.0
0.0 0.02265017654334417 0.019696472232222914 -0.01866458809051307 -0.0010318841417098381 -0.006143641791797156 0.0 0.0
0.0 0.02969588213046139 0.02549332955616477 -0.024429743857766063 -0.001063585698398705 -0.007471559296371956 0.0 0.0
0.0 0.03672400637167853 0.031633435123029935 -0.03054924216252826 -0.0010841929605016824 -0.008278060422769528 0.0 0.0
0.0 0.04327038528290973 0.03747447329175704 -0.03638912208282421 -0.0010853512089328433 -0.007957152712050173 0.0 0.0
0.0 0.04866657188729535 0.04212509970712085 -0.04107208762049695 -0.0010530120866238382 -0.005766578819989818 0.0 0.0
0.0 0.05129929018171967 0.04423263052729511 -0.04337846777767639 -0.0008541627496187176 8.697469827678717e-15 0.0 0.0
0.0 0.04866657188729338 0.042125099707118155 -0.04107208762049424 -0.0010530120866238636 0.005766578820009452 0.0 0.0
0.0 0.04327038528290418 0.03747447329175131 -0.036389122082818616 -0.001085351208932677 0.00795715271206877 0.0 0.0
0.0 0.036724006371670774 0.0316334351230228 -0.030549242162521237 -0.0010841929605015727 0.008278060422780214 0.0 0.0
0.0 0.029695882130452756 0.025493329556157216 -0.02442974385775904 -0.0010635856983981964 0.007471559296374599 0.0 0.0
0.0 0.022650176543334056 0.01969647223221383 -0.018664588090504454 -0.0010318841417093778 0.006143641791795518 0.0 0.0
0.0 0.016901720318282687 0.014654848232915758 -0.013673360317626436 -0.000981487915289317 0.004746043880642613 0.0 0.0
0.0 0.012231214208810565 0.010607610171088208 -0.00970166322155592 -0.0009059469495322794 0.0035906688008348476 0.0 0.0
0.0 0.008600167161341883 0.007560162452503179 -0.006757213608365711 -0.0008029488441374613 0.0027583970532203614 0.0 0.0
0.0 0.006016696851203953 0.005325217840985868 -0.004646160911762483 -0.0006790569292233884 0.0021525732779682154 0.0 0.0
0.0 0.004117289719629621 0.003655057556881831 -0.0031095803442391045 -0.0005454772126427248 0.001650115999740903 0.0 0.0
0.0 0.0026668260004144633 0.0023542192899619705 -0.0019507071187319853 -0.00040351217122998486 0.0011869081789039682 0.0 0.0
0.0 0.0013914690175898746 0.001324831593513126 -0.0010643670767896353 -0.0002604645167234903 0.0007194537095307779 0.0 0.0
0.0 0.0008313325325957581 0.0004606474701000004 -0.00035651307177776774 -0.00010413439832223269 0.0002216209269462554 0.0 0.0
0.0 9.108509500542638e-05 6.413826583753256e-05 -4.723843958541349e-05 -1.689982625211856e-05 1.8561150868504827e-05 0.0 0.0
0.0 -2.8130291282590534e-06 -6.990981523023627e-06 5.518157862002131e-06 1.472823661021323e-06 -9.424098161314399e-06 0.0 0.0
0.0 -2.396427250475455e-06 2.0804395732853704e-07 -1.5684012237674526e-07 -5.120383495174616e-08 3.914357754775536e-07 0.0 0.0
0.0 0.0 0.0 0.0 0.0 0.0 0.0 0.0
0.0 0.0 0.0 0.0 0.0 0.0 0.0 0.0
0.0 0.00010941198523494423 1.7437880822135278e-05 5.111965268000327e-05 -6.85575335021385e-05 0.0002442026311286416 0.0 0.0
0.0 0.0017690755472590282 0.0011319527017053914 -0.0016507410726042508 0.0005187883708988582 0.0010372619778759298 0.0 0.0
0.0 0.0009656573930682275 0.0006586538013679609 -0.0009575094879561616 0.00029885568658820003 -0.0007045733950659206 0.0 0.0
0.0 1.3344746322629764e-05 -3.784681032860384e-05 7.532891381254353e-05 -3.748210348393958e-05 -2.4697089539911785e-05 0.0 0.0
0.0 0.0 0.0 0.0 0.0 0.0 0.0 0.0
0.0 0.0 0.0 0.0 0.0 0.0 0.0 0.0
0.0 -2.246165107375649e-06 1.5972522696470997e-07 -1.2573103519818578e-07 -3.399419176652718e-08 -4.0445007000256713e-07 0.0 0.0
0.0 2.8992891807689683e-06 -2.372110654577592e-06 1.933518064165742e-06 4.385925904117939e-07 4.187110311082548e-06 0.0 0.0
0.0 1.644195859536029e-05 -2.3341698203069927e-05 1.7853616770326055e-05 5.488081432743938e-06 3.203681230260295e-05 0.0 0.0
0.0 0.00023378936851938347 0.00017859744793216373 -0.0001362400338740109 -4.2357414058152465e-05 -0.00012574400609776843 0.0 0.0
0.0 0.0011172020287038115 0.0006510674083415457 -0.0005138355048118973 -0.00013723190352964818 -0.00044203694340465825 0.0 0.0
0.0 0.0016437463039964122 0.0015008867173160157 -0.001217633876179462 -0.0002832528411365537 -0.0010146545043323593 0.0 0.0
0.0 0.0028937931148184767 0.0025008186121833137 -0.0020846709815133765 -0.0004161476306699368 -0.0015214424020895466 0.0 0.0
0.0 0.004370195764371774 0.0037945935174527995 -0.0032447157279446876 -0.0005498777895081108 -0.00205148239219787 0.0 0.0
0.0 0.006351682781479808 0.005523847728709005 -0.004846327967697662 -0.0006775197610113404 -0.0026665993177150465 0.0 0.0
0.0 0.00911970076525263 0.00789805745602638 -0.007111283619478762 -0.0007867738365476186 -0.0034823306767016297 0.0 0.0
0.0 0.01281194867941727 0.01108337546327019 -0.010215423522201922 -0.0008679519410682655 -0.004585791143486865 0.0 0.0
0.0 0.017795634703625263 0.015110979625894536 -0.01419151599051557 -0.0009194636353789797 -0.00593648711030969 0.0 0.0
0.0 0.022997509485330234 0.01984846812688064 -0.01889322763809912 -0.0009552404887815168 -0.007258286656341055 0.0 0.0
0.0 0.029165802860831164 0.0249729612960006 -0.02399115714204918 -0.000981804153951433 -0.008113718525598813 0.0 0.0
0.0 0.03517884624329988 0.030059317862129203 -0.02906787491912895 -0.0009914429430002444 -0.00797195654819877 0.0 0.0
0.0 0.04009769839882922 0.03440472343712165 -0.03344499785112459 -0.0009597255859970599 -0.006023501844818136 0.0 0.0
0.0 0.042871670101820816 0.036556221590274066 -0.035854084678643476 -0.0007021369116305845 7.256348300010984e-15 0.0 0.0
0.0 0.04009769839882713 0.03440472343711862 -0.03344499785112159 -0.0009597255859970675 0.006023501844835988 0.0 0.0
0.0 0.03517884624329581 0.03005931786212474 -0.029067874919124548 -0.0009914429430001744 0.007971956548216126 0.0 0.0
0.0 0.029165802860824194 0.0249729612959941 -0.023991157142042956 -0.0009818041539511266 0.00811371852560815 0.0 0.0
0.0 0.022997509485323198 0.019848468126874467 -0.0188932276380935 -0.0009552404887809622 0.007258286656342865 0.0 0.0
0.0 0.017795634703616135 0.015110979625886803 -0.014191515990507947 -0.0009194636353788514 0.0059364871103075 0.0 0.0
0.0 0.012811948679409931 0.011083375463263375 -0.010215423522195658 -0.0008679519410677106 0.004585791143484799 0.0 0.0
0.0 0.009119700765244161 0.007898057456018804 -0.007111283619471729 -0.000786773836547081 0.0034823306766989955 0.0 0.0
0.0 0.0063516827814724 0.005523847728702491 -0.004846327967691667 -0.0006775197610108215 0.0026665993177128517 0.0 0.0
0.0 0.0043701957643634114 0.0037945935174455753 -0.0032447157279379924 -0.0005498777895075837 0.0020514823921936134 0.0 0.0
0.0 0.002893793114811177 0.002500818612177092 -0.0020846709815078896 -0.00041614763066920085 0.0015214424020850799 0.0 0.0
0.0 0.0016437463039907416 0.001500886717310787 -0.0012176338761750167 -0.0002832528411357713 0.0010146545043283935 0.0 0.0
0.0 0.0011172020286986694 0.000651067408337993 -0.0005138355048090209 -0.00013723190352897205 0.00044203694340215477 0.0 0.0
0.0 0.000233789368516631 0.00017859744793038951 -0.0001362400338726369 -4.2357414057752563e-05 0.00012574400609649685 0.0 0.0
0.0 1.644195859498196e-05 -2.334169820292746e-05 1.7853616770218567e-05 5.488081432709161e-06 -3.203681230221878e-05 0.0 0.0
0.0 2.8992891796593043e-06 -2.3721106544849937e-06 1.9335180640943566e-06 4.3859259039067085e-07 -4.1871103109195555e-06 0.0 0.0
0.0 -2.246165107184204e-06 1.5972522694812237e-07 -1.2573103518529555e-07 -3.3994191762862533e-08 4.0445006996416107e-07 0.0 0.0
0.0 0.0 0.0 0.0 0.0 0.0 0.0 0.0
0.0 0.0 0.0 0.0 0.0 0.0 0.0 0.0
0.0 1.3344746320982888e-05 -3.784681032896996e-05 7.532891381273788e-05 -3.7482103483767946e-05 2.469708953846872e-05 0.0 0.0
0.0 0.0009656573930643319 0.0006586538013648857 -0.0009575094879516424 0.0002988556865867565 0.0007045733950630389 0.0 0.0
0.0 0.0007606946888022168 0.0002370221259806264 -0.0003428961090540965 0.00010587398307347177 -0.0002725243636034212 0.0 0.0
0.0 -8.71154740822165e-05 -3.192664082945106e-05 4.582397346128927e-05 -1.3897332631838434e-05 3.792574475245655e-05 0.0 0.0
0.0 0.0 0.0 0.0 0.0 0.0 0.0 0.0
0.0 0.0 0.0 0.0 0.0 0.0 0.0 0.0
0.0 -6.002912790000251e-07 2.3616486225867755e-08 -1.719295850321522e-08 -6.42352772264967e-09 -1.2456266137164213e-07 0.0 0.0
0.0 -2.082097872564917e-06 2.2740517308381207e-07 -1.8098492274302398e-07 -4.6420250340787555e-08 -3.3364878262954697e-07 0.0 0.0
0.0 -3.4214268012585527e-06 -1.1321957722482893e-05 8.974496159435054e-06 2.347461563047769e-06 2.774743974417055e-05 0.0 0.0
0.0 1.4630054952906135e-05 1.4719935858332487e-05 -1.1619908413719569e-05 -3.1000274446127817e-06 -3.400243657412331e-05 0.0 0.0
0.0 0.0003296449938740818 0.00022258497944126177 -0.0001741338558656589 -4.8451123575603405e-05 -0.0002279392483689619 0.0 0.0
0.0 0.0011419268355397389 0.0006814957312970767 -0.0005441910355937461 -0.00013730469570332978 -0.0006057463712102975 0.0 0.0
0.0 0.0017684827101804288 0.0014127664886130974 -0.0011529007742860633 -0.0002598657143270348 -0.0011781339010836901 0.0 0.0
0.0 0.00277933536579352 0.002346294289989088 -0.001958624866410375 -0.0003876694235787142 -0.0017223485239565167 0.0 0.0
0.0 0.004240880005741351 0.003582785693321828 -0.0030670379626993602 -0.000515747730622469 -0.002315063598699757 0.0 0.0
0.0 0.006234571850239383 0.005299332383807912 -0.004665884422178413 -0.0006334479616294953 -0.0030588139865262765 0.0 0.0
0.0 0.009066996926535053 0.007630351470702781 -0.006904545722016023 -0.0007258057486867584 -0.004041137649946221 0.0 0.0
0.0 0.012599844087429233 0.010644038068391837 -0.009856038136209824 -0.0007879999321820208 -0.005224869299530339 0.0 0.0
0.0 0.017067332886559643 0.014262744874701153 -0.013434279191076148 -0.0008284656836250083 -0.006434098894475309 0.0 0.0
0.0 0.02177192521416776 0.01832323435678259 -0.01746093341126265 -0.0008623009455199431 -0.00729339967265984 0.0 0.0
0.0 0.026513580616712485 0.022578431824213024 -0.02169170822796242 -0.0008867235962506004 -0.007361583551702484 0.0 0.0
0.0 0.03118847493041206 0.026556023528409297 -0.025694567525202903 -0.0008614560032064055 -0.00591333419961964 0.0 0.0
0.0 0.03420092424331697 0.028769919083788526 -0.028236853967868895 -0.0005330651159196208 6.076519495912258e-15 0.0 0.0
0.0 0.031188474930409688 0.026556023528406074 -0.02569456752519949 -0.0008614560032065767 0.005913334199634479 0.0 0.0
0.0 0.026513580616708828 0.02257843182420889 -0.02169170822795828 -0.0008867235962505968 0.007361583551716792 0.0 0.0
0.0 0.02177192521416231 0.018323234356777365 -0.01746093341125779 -0.0008623009455195848 0.007293399672667588 0.0 0.0
0.0 0.017067332886554456 0.01426274487469672 -0.013434279191072346 -0.0008284656836243645 0.0064340988944759075 0.0 0.0
0.0 0.012599844087422268 0.010644038068385962 -0.009856038136204021 -0.0007879999321819364 0.0052248692995280266 0.0 0.0
0.0 0.009066996926529658 0.0076303514706979525 -0.0069045457220115476 -0.0007258057486864065 0.004041137649944411 0.0 0.0
0.0 0.0062345718502337 0.0052993323838031285 -0.004665884422174136 -0.000633447961628994 0.003058813986524 0.0 0.0
0.0 0.004240880005735617 0.003582785693316835 -0.003067037962694796 -0.0005157477306220388 0.002315063598697071 0.0 0.0
0.0 0.0027793353657883917 0.002346294289984667 -0.0019586248664065346 -0.0003876694235781315 0.0017223485239533506 0.0 0.0
0.0 0.001768482710175347 0.001412766488608895 -0.0011529007742825705 -0.0002598657143263239 0.0011781339010797937 0.0 0.0
0.0 0.0011419268355350848 0.0006814957312935674 -0.0005441910355908356 -0.00013730469570273187 0.0006057463712070272 0.0 0.0
0.0 0.00032964499387157204 0.0002225849794397406 -0.00017413385586444136 -4.845112357529913e-05 0.00022793924836765666 0.0 0.0
0.0 1.4630054952030038e-05 1.4719935857915733e-05 -1.1619908413395979e-05 -3.1000274445198144e-06 3.400243657350954e-05 0.0 0.0
0.0 -3.4214268022518377e-06 -1.1321957722281115e-05 8.974496159278819e-06 2.3474615630023264e-06 -2.7747439743739635e-05 0.0 0.0
0.0 -2.082097873029912e-06 2.2740517310121026e-07 -1.8098492275687514e-07 -4.642025034434766e-08 3.336487827164951e-07 0.0 0.0
0.0 -6.002912788133741e-07 2.3616486215689595e-08 -1.7192958495346648e-08 -6.423527720333701e-09 1.2456266133570848e-07 0.0 0.0
0.0 0.0 0.0 0.0 0.0 0.0 0.0 0.0
0.0 0.0 0.0 0.0 0.0 0.0 0.0 0.0
0.0 -8.71154740822285e-05 -3.1926640829140355e-05 4.582397346085866e-05 -1.389733263171841e-05 -3.7925744752006945e-05 0.0 0.0
0.0 0.000760694688797645 0.0002370221259785848 -0.0003428961090511893 0.00010587398307260544 0.0002725243636009536 0.0 0.0
0.0 0.0001706800085553718 5.6786895721734355e-05 -8.360259230795219e-05 2.681569658621792e-05 -7.669963743778923e-05 0.0 0.0
0.0 -2.2917755286999858e-05 -8.46214897335173e-06 1.2129564256264077e-05 -3.667415282912363e-06 1.2537652392987777e-05 0.0 0.0
0.0 2.6872475098897426e-06 -5.102850825596392e-09 1.2829916012259741e-08 -7.727065186663307e-09 5.790653785945233e-07 0.0 0.0
0.0 0.0 0.0 0.0 0.0 0.0 0.0 0.0
0.0 -2.8591288976220683e-07 9.24253522926734e-09 -7.084965888905891e-09 -2.157569340360503e-09 -5.122909249099934e-08 0.0 0.0
0.0 -8.00512691849985e-06 4.637719977144235e-07 -3.603310129269071e-07 -1.0344098478751364e-07 -2.0673031528361106e-06 0.0 0.0
0.0 1.494197036164252e-05 -7.981860014471853e-07 6.703866818477155e-07 1.2779931959946627e-07 6.095493031158788e-06 0.0 0.0
0.0 3.176538039817861e-05 -1.9688338393765756e-05 1.530483899415925e-05 4.383499399606571e-06 5.419436935169281e-05 0.0 0.0
0.0 5.5417712649290716e-05 6.804728976038302e-07 -1.0128267869130188e-06 3.3235388930905364e-07 -5.171202461947872e-05 0.0 0.0
0.0 0.00032901195647197187 0.00012924861646121437 -0.00010612256421360849 -2.3126052247606075e-05 -0.00022441245404174719 0.0 0.0
0.0 0.000687183267191117 0.000500266169088075 -0.0004062468276516384 -9.401934143643649e-05 -0.0006739652783450653 0.0 0.0
0.0 0.0013728419213631933 0.0010285935113484375 -0.0008460754354453845 -0.00018251807590305265 -0.0011490346813123793 0.0 0.0
0.0 0.0022809217055488854 0.001784667953099308 -0.0014899407457297951 -0.00029472720736951316 -0.001694431945971591 0.0 0.0
0.0 0.0035584915204400023 0.0028610036804772067 -0.002447072203519047 -0.00041393147695815936 -0.0023353872508253214 0.0 0.0
0.0 0.005399161769353025 0.00435768984993776 -0.003835761907305035 -0.0005219279426327245 -0.003126841032820665 0.0 0.0
0.0 0.007878966755542914 0.0063427242378294385 -0.005739772209330484 -0.0006029520284989528 -0.004078264877509678 0.0 0.0
0.0 0.010936485715646165 0.008820149945818668 -0.00815830592837292 -0.0006618440174457521 -0.0050830486273276115 0.0 0.0
0.0 0.01433414288097367 0.011754580650750645 -0.011046948492692422 -0.0007076321580582174 -0.005899479417230087 0.0 0.0
0.0 0.018152758124595773 0.015051702697031065 -0.014303245778391533 -0.0007484569186395369 -0.006108865468353512 0.0 0.0
0.0 0.022394989353712053 0.01853977269858421 -0.01778959012574359 -0.0007501825728406186 -0.005298841971467983 0.0 0.0
0.0 0.025375377848097513 0.020825650523503735 -0.02047973069835456 -0.000345919825149166 4.530664038382426e-15 0.0 0.0
0.0 0.02239498935371098 0.01853977269858198 -0.017789590125741075 -0.0007501825728408982 0.005298841971479375 0.0 0.0
0.0 0.018152758124593833 0.015051702697028452 -0.014303245778389002 -0.0007484569186394528 0.006108865468364832 0.0 0.0
0.0 0.014334142880969588 0.01175458065074731 -0.011046948492689349 -0.0007076321580579555 0.005899479417234963 0.0 0.0
0.0 0.010936485715642668 0.008820149945815859 -0.008158305928370541 -0.0006618440174453193 0.005083048627327342 0.0 0.0
0.0 0.007878966755538293 0.006342724237825738 -0.005739772209327005 -0.0006029520284987293 0.004078264877506974 0.0 0.0
0.0 0.005399161769350095 0.004357689849935443 -0.0038357619073029286 -0.000521927942632513 0.0031268410328194936 0.0 0.0
0.0 0.003558491520436721 0.0028610036804741583 -0.002447072203516455 -0.00041393147695770383 0.0023353872508237237 0.0 0.0
0.0 0.0022809217055457386 0.0017846679530963913 -0.0014899407457272737 -0.0002947272073691171 0.001694431945969291 0.0 0.0
0.0 0.00137284192136041 0.0010285935113463112 -0.0008460754354437146 -0.00018251807590259668 0.0011490346813097616 0.0 0.0
0.0 0.0006871832671874013 0.0005002661690854882 -0.0004062468276495051 -9.401934143598288e-05 0.0006739652783417954 0.0 0.0
0.0 0.00032901195647002106 0.0001292486164601924 -0.00010612256421273965 -2.312605224745306e-05 0.00022441245404015574 0.0 0.0
0.0 5.5417712648438025e-05 6.804728975196784e-07 -1.0128267868514445e-06 3.3235388933148254e-07 5.171202461922953e-05 0.0 0.0
0.0 3.176538039727868e-05 -1.9688338393728012e-05 1.5304838994130966e-05 4.383499399597096e-06 -5.419436935178676e-05 0.0 0.0
0.0 1.4941970361401574e-05 -7.981860014004313e-07 6.703866818101847e-07 1.2779931959028944e-07 -6.095493030915416e-06 0.0 0.0
0.0 -8.005126919045947e-06 4.637719977288638e-07 -3.603310129378832e-07 -1.034409847909842e-07 2.067303152934318e-06 0.0 0.0
0.0 -2.8591288957305156e-07 9.242535222802489e-09 -7.084965883942201e-09 -2.1575693388636718e-09 5.122909245254697e-08 0.0 0.0
0.0 0.0 0.0 0.0 0.0 0.0 0.0 0.0
0.0 2.6872475094896635e-06 -5.1028508247719e-09 1.2829916010191829e-08 -7.727065185422114e-09 -5.790653785028842e-07 0.0 0.0
0.0 -2.291775528737286e-05 -8.462148973235682e-06 1.21295642561075e-05 -3.66741528287178e-06 -1.253765239280668e-05 0.0 0.0
0.0 0.00017068000855343537 5.6786895721188676e-05 -8.360259230715782e-05 2.681569658596885e-05 7.669963743715207e-05 0.0 0.0
0.0 5.748000853068633e-05 -1.2042551263192147e-05 1.7460852162341114e-05 -5.4183008991488206e-06 2.089045183021783e-05 0.0 0.0
0.0 -8.908993290181107e-06 1.6690932163294151e-06 -2.4058149201795865e-06 7.367217038501526e-07 -3.0215046945124194e-06 0.0 0.0
0.0 9.70285583999249e-07 2.771422620445596e-09 1.5858612896310194e-09 -4.357283910076113e-09 2.0019023808334223e-07 0.0 0.0
0.0 0.0 0.0 0.0 0.0 0.0 0.0 0.0
0.0 -1.8527693940129905e-06 3.077453410851788e-08 -2.1836933445506085e-08 -8.937600663009364e-09 -4.1050898205858424e-07 0.0 0.0
0.0 2.5641008230703663e-06 -2.5187609811561108e-08 1.2712070795361655e-08 1.247553901618772e-08 4.767190958285863e-07 0.0 0.0
0.0 8.768657576399262e-06 -4.6324888658662045e-07 3.5019965393639785e-07 1.1304923265024046e-07 4.947684701616305e-06 0.0 0.0
0.0 4.258738096865585e-06 -3.023632160342316e-06 2.622373893437972e-06 4.0125826690430264e-07 1.8680038575536975e-05 0.0 0.0
0.0 3.652640400548557e-05 2.6483436276962506e-06 -2.662306267900334e-06 1.3962640204127729e-08 -2.654732287720482e-05 0.0 0.0
0.0 8.797446835438401e-05 1.1777255324259506e-05 -9.38790007280951e-06 -2.3893552514498985e-06 -9.996746240375327e-05 0.0 0.0
0.0 0.0002500724707414539 3.083636644398827e-06 -5.086716733293967e-06 2.0030800888951653e-06 -0.00016623151971391755 0.0 0.0
0.0 0.00034828662508374156 0.00012573062974222782 -0.00010986667955787392 -1.5863950184354098e-05 -0.0005040422321453486 0.0 0.0
0.0 0.0006888144712092065 0.0003311059710325723 -0.0002921147551738831 -3.899121585868903e-05 -0.0008875225773960459 0.0 0.0
0.0 0.0012758607773638644 0.0007079937451382347 -0.0006259397397424397 -8.205400539579505e-05 -0.0014190999181200928 0.0 0.0
0.0 0.002207850238356502 0.001391484151796834 -0.001228704991704693 -0.0001627791600921413 -0.0020888568419888875 0.0 0.0
0.0 0.0035330520623163145 0.0023787137910308447 -0.0021302265859116432 -0.00024848720511920215 -0.002847792884650553 0.0 0.0
0.0 0.005312646313966643 0.0036910663922435894 -0.0033475528522942063 -0.0003435135399493855 -0.0036903700859532143 0.0 0.0
0.0 0.0076827048076115925 0.005447338511968998 -0.005011666575345006 -0.0004356719366239917 -0.0045013729335774124 0.0 0.0
0.0 0.010417829493966493 0.007680806607692803 -0.007173001774563569 -0.0005078048331292377 -0.004818633034828764 0.0 0.0
0.0 0.013461592319640909 0.01043107359456496 -0.009856870872007475 -0.0005742027225574786 -0.004234982399970975 0.0 0.0
0.0 0.017149832758001186 0.012718639605864375 -0.012597622101636622 -0.00012101750422774853 3.35907517079459e-15 0.0 0.0
0.0 0.01346159231964305 0.010431073594565172 -0.009856870872007642 -0.0005742027225575345 0.004234982399979574 0.0 0.0
0.0 0.010417829493966276 0.007680806607691872 -0.007173001774562841 -0.0005078048331290311 0.0048186330348364515 0.0 0.0
0.0 0.007682704807609164 0.00544733851196734 -0.005011666575343564 -0.0004356719366237724 0.0045013729335797795 0.0 0.0
0.0 0.005312646313963873 0.0036910663922421656 -0.003347552852293159 -0.0003435135399490063 0.0036903700859519353 0.0 0.0
0.0 0.003533052062313628 0.002378713791028737 -0.002130226585909758 -0.00024848720511898135 0.002847792884648089 0.0 0.0
0.0 0.0022078502383552066 0.0013914841517957068 -0.0012287049917037607 -0.00016277916009194523 0.0020888568419885033 0.0 0.0
0.0 0.001275860777362909 0.0007079937451377545 -0.0006259397397418671 -8.205400539588742e-05 0.0014190999181192374 0.0 0.0
0.0 0.0006888144712074273 0.00033110597103149143 -0.00029211475517290284 -3.89912158585886e-05 0.0008875225773935226 0.0 0.0
0.0 0.0003482866250823449 0.00012573062974176926 -0.00010986667955751133 -1.5863950184257787e-05 0.0005040422321436191 0.0 0.0
0.0 0.0002500724707399131 3.0836366440823726e-06 -5.086716733009811e-06 2.003080088927273e-06 0.00016623151971229748 0.0 0.0
0.0 8.79744683542859e-05 1.1777255324230028e-05 -9.387900072789653e-06 -2.3893552514402254e-06 9.996746240337518e-05 0.0 0.0
0.0 3.6526404004944755e-05 2.6483436276428862e-06 -2.6623062678531764e-06 1.3962640210351854e-08 2.6547322876878684e-05 0.0 0.0
0.0 4.258738096603679e-06 -3.0236321603286953e-06 2.6223738934273943e-06 4.0125826690129233e-07 -1.8680038575503273e-05 0.0 0.0
0.0 8.768657575909446e-06 -4.632488865672786e-07 3.501996539211308e-07 1.1304923264608832e-07 -4.94768470141502e-06 0.0 0.0
0.0 2.5641008225903857e-06 -2.5187609805984845e-08 1.27120707918033e-08 1.247553901419601e-08 -4.7671909571658267e-07 0.0 0.0
0.0 -1.8527693938404611e-06 3.077453410586465e-08 -2.1836933443671594e-08 -8.937600662192741e-09 4.1050898201648453e-07 0.0 0.0
0.0 0.0 0.0 0.0 0.0 0.0 0.0 0.0
0.0 9.702855836726998e-07 2.7714226198560375e-09 1.5858612888147212e-09 -4.357283908669878e-09 -2.0019023801254523e-07 0.0 0.0
0.0 -8.908993289827932e-06 1.6690932163032384e-06 -2.405814920143405e-06 7.367217038401215e-07 3.0215046944383604e-06 0.0 0.0
0.0 5.7480008529517206e-05 -1.2042551263047767e-05 1.7460852162133717e-05 -5.418300899085625e-06 -2.0890451829962843e-05 0.0 0.0
0.0 -5.770224573590775e-06 4.574800597073866e-07 -6.591559002634143e-07 2.016758405559572e-07 -9.144510091093165e-07 0.0 0.0
0.0 1.2526523167751828e-07 -6.465083590863763e-08 8.861655850596377e-08 -2.3965722597317412e-08 -1.8388995518681798e-08 0.0 0.0
0.0 2.064854093868739e-06 6.285901752654254e-09 4.376526344576679e-09 -1.0662428097228783e-08 4.5291712233124875e-07 0.0 0.0
0.0 9.979078676547741e-07 1.8788561462081473e-08 -1.6038587709835963e-08 -2.7499737522443674e-09 2.0597935134464145e-07 0.0 0.0
0.0 -3.409514213561971e-07 1.4110183654137794e-08 -1.3516680434408293e-08 -5.935032197278356e-10 -9.058524485849523e-08 0.0 0.0
0.0 1.3548064262676173e-06 2.027879397198529e-09 -1.7982440201379955e-09 -2.2963537705411468e-10 1.8888268353207425e-07 0.0 0.0
0.0 1.0353607621163536e-05 3.7686536844333145e-08 -4.5230329083262853e-08 7.543792238935075e-09 6.2082252588639025e-06 0.0 0.0
0.0 7.318902730326399e-07 -2.225785218537711e-08 1.4529910908741603e-08 7.727941276644361e-09 4.5155459118482785e-07 0.0 0.0
0.0 4.346180558501458e-05 -4.577118351593986e-09 3.5678721263909558e-09 1.0092462251588258e-09 1.183469389454886e-05 0.0 0.0
0.0 6.16092399960195e-05 4.1740217195879805e-08 -3.869833906931245e-08 -3.0418781265767813e-09 -8.669791707405512e-05 0.0 0.0
0.0 0.00017573951842436895 1.0308178272786822e-07 -9.824289357590852e-08 -4.838889151954404e-09 -0.0001287474523926796 0.0 0.0
0.0 0.00020332855724873383 -1.3798018184843753e-07 9.141847215971206e-08 4.6561709688728015e-08 -0.0003472286753088311 0.0 0.0
0.0 0.0003278852652875327 2.787447443666545e-07 -2.5201692734646154e-07 -2.6727817020201995e-08 -0.0005717523683345494 0.0 0.0
0.0 0.0004962173976048915 8.636593058407454e-08 2.7678456571176206e-07 -3.6315049629583363e-07 -0.0009175167374462288 0.0 0.0
0.0 0.0007431782313132606 -6.024463383690301e-06 5.932171146663407e-06 9.22922370268023e-08 -0.00145948522401524 0.0 0.0
0.0 0.0010594186347434328 -3.4863457014400385e-05 2.8611701903917422e-05 6.251755110482902e-06 -0.002319405751276305 0.0 0.0
0.0 0.0017284469967276147 6.886090900840002e-05 -9.896822072545495e-05 3.010731171705505e-05 -0.0033782354863782153 0.0 0.0
0.0 0.0028054331341940044 0.0004031197665753931 -0.00046960618042996916 6.648641385457493e-05 -0.004412575193111179 0.0 0.0
0.0 0.004337073899185061 0.0010815082821512094 -0.0011967926070270355 0.00011528432487582666 -0.005299619987194663 0.0 0.0
0.0 0.006454350521707877 0.00262921146746274 -0.0025542651283725812 -7.494633909016218e-05 -0.0053668030111213415 0.0 0.0
0.0 0.011250379052872992 0.005254012540386 -0.005447963903958113 0.00019395136357211505 5.046310591616532e-15 0.0 0.0
0.0 0.006454350521711713 0.002629211467462979 -0.0025542651283730344 -7.494633908994292e-05 0.005366803011130171 0.0 0.0
0.0 0.004337073899185024 0.0010815082821506172 -0.0011967926070265294 0.00011528432487591225 0.005299619987196916 0.0 0.0
0.0 0.0028054331341918664 0.0004031197665748632 -0.00046960618042934097 6.648641385447776e-05 0.0044125751931093065 0.0 0.0
0.0 0.0017284469967253067 6.886090900808393e-05 -9.896822072517612e-05 3.0107311717091472e-05 0.003378235486375571 0.0 0.0
0.0 0.0010594186347411818 -3.4863457014530706e-05 2.8611701903976023e-05 6.251755110554825e-06 0.002319405751273351 0.0 0.0
0.0 0.0007431782313136379 -6.024463383615911e-06 5.932171146668449e-06 9.229223694738787e-08 0.0014594852240153668 0.0 0.0
0.0 0.0004962173976044234 8.636593061359533e-08 2.7678456558630123e-07 -3.631504961998627e-07 0.0009175167374453751 0.0 0.0
0.0 0.0003278852652864323 2.787447444810504e-07 -2.520169274259936e-07 -2.672781705505174e-08 0.0005717523683321095 0.0 0.0
0.0 0.00020332855724803945 -1.379801818161571e-07 9.141847213658806e-08 4.656170967954618e-08 0.00034722867530722316 0.0 0.0
0.0 0.00017573951842316757 1.030817827511142e-07 -9.824289360972039e-08 -4.838889141419644e-09 0.00012874745239147863 0.0 0.0
0.0 6.160923999585965e-05 4.174021720707123e-08 -3.869833907295977e-08 -3.041878134082446e-09 8.669791707380395e-05 0.0 0.0
0.0 4.346180558480747e-05 -4.577118352034443e-09 3.567872130936664e-09 1.0092462210704095e-09 -1.1834693894519648e-05 0.0 0.0
0.0 7.318902726782142e-07 -2.225785218639641e-08 1.4529910909160448e-08 7.72794127725075e-09 -4.515545910760525e-07 0.0 0.0
0.0 1.0353607620667154e-05 3.768653684275778e-08 -4.5230329082410196e-08 7.543792239653855e-09 -6.208225258709862e-06 0.0 0.0
0.0 1.354806425769798e-06 2.0278793932332602e-09 -1.7982440164227105e-09 -2.296353768149288e-10 -1.8888268341893876e-07 0.0 0.0
0.0 -3.409514215391008e-07 1.411018365014793e-08 -1.3516680430154398e-08 -5.935032199939456e-10 9.058524489440264e-08 0.0 0.0
0.0 9.979078674524573e-07 1.878856145814937e-08 -1.603858770646789e-08 -2.7499737516794493e-09 -2.0597935130014157e-07 0.0 0.0
0.0 2.0648540936528203e-06 6.285901752263818e-09 4.376526343534383e-09 -1.0662428095788475e-08 -4.529171222794224e-07 0.0 0.0
0.0 1.2526523183754334e-07 -6.465083591264989e-08 8.86165585127285e-08 -2.396572260007342e-08 1.838899549225652e-08 0.0 0.0
0.0 -5.770224574193189e-06 4.5748005974096255e-07 -6.591559003143907e-07 2.01675840573369e-07 9.144510091677869e-07 0.0 0.0
0.0 0.0 0.0 0.0 0.0 0.0 0.0 0.0
0.0 2.0609542807601947e-07 9.273562815650639e-10 1.4540868594685771e-11 -9.418971501595445e-10 4.459082023228434e-08 0.0 0.0
0.0 -1.2248514128461229e-06 -1.5173759005097848e-08 9.723008227579325e-09 5.450750777516546e-09 -2.59330237824527e-07 0.0 0.0
0.0 1.4903171002598552e-06 4.241911744608187e-08 -3.470315010608801e-08 -7.715967339986727e-09 3.123545742705125e-07 0.0 0.0
0.0 -9.046999605495438e-07 -2.5830668005375024e-08 1.7516571733125683e-08 8.314096272246535e-09 -2.6197814169887365e-07 0.0 0.0
0.0 -2.49720434533152e-06 -1.7633187285197221e-07 1.4444088894009927e-07 3.1890983911848076e-08 -8.31049350779347e-07 0.0 0.0
0.0 2.471454633601804e-05 1.139884230280675e-06 -9.105714529324965e-07 -2.2931277734817913e-07 9.015931229448413e-06 0.0 0.0
0.0 6.741091437296731e-06 3.2722881809820867e-06 -2.8203977362408762e-06 -4.5189044474124894e-07 2.0552547764414067e-05 0.0 0.0
0.0 3.713372617020405e-05 -2.6045753773954665e-06 2.6352606801542194e-06 -3.068530275864465e-08 -2.6316934403197815e-05 0.0 0.0
0.0 8.668579762258616e-05 -1.161539551862917e-05 9.250490511265131e-06 2.364905007364092e-06 -9.935740753816775e-05 0.0 0.0
0.0 0.0002465715462145157 -3.177732728668383e-06 5.130919711518884e-06 -1.9531869828507936e-06 -0.00016705100718331702 0.0 0.0
0.0 0.00035762772261594734 -0.00012486157400298483 0.00010912382625910717 1.573774774387774e-05 -0.0004991791520753781 0.0 0.0
0.0 0.0006914850949431071 -0.0003309259694893183 0.00029189226504404723 3.9033704445270756e-05 -0.0008874823759916498 0.0 0.0
0.0 0.0012864867060311791 -0.0007125750691537533 0.0006305923593670558 8.198270978669748e-05 -0.001414743543213491 0.0 0.0
0.0 0.002200196878405472 -0.0013920214696824173 0.0012332468148862844 0.0001587746547961332 -0.0020835452492624362 0.0 0.0
0.0 0.003407345914724149 -0.0022590242115117587 0.002036751547574211 0.00022227266393754758 -0.0029109717650322273 0.0 0.0
0.0 0.004692302853371975 -0.0031307788347827415 0.002878147038396105 0.0002526317963866374 -0.003963790117758388 0.0 0.0
0.0 0.005899608393047464 -0.0036653912154932557 0.003440681226972977 0.00022470998852027374 -0.005253586732160869 0.0 0.0
0.0 0.006205278046182534 -0.0034494936579108925 0.003320743077587219 0.0001287505803236775 -0.006821974003714152 0.0 0.0
0.0 0.005527827396793921 -0.002592540608674462 0.0024834347805097515 0.000109105828164712 -0.008178790561411055 0.0 0.0
0.0 0.010531385747530389 -0.0015622361095200222 0.0006021652404916899 0.0009600708690283323 7.603509835640843e-15 0.0 0.0
0.0 0.005527827396798656 -0.0025925406086759143 0.002483434780511313 0.00010910582816459893 0.008178790561416887 0.0 0.0
0.0 0.006205278046181524 -0.0034494936579097975 0.003320743077586197 0.00012875058032360133 0.006821974003716757 0.0 0.0
0.0 0.005899608393046026 -0.0036653912154926954 0.003440681226972551 0.00022470998852014047 0.005253586732161695 0.0 0.0
0.0 0.004692302853368847 -0.0031307788347805744 0.0028781470383942315 0.0002526317963863387 0.003963790117756384 0.0 0.0
0.0 0.0034073459147201312 -0.0022590242115080525 0.002036751547570754 0.00022227266393729967 0.00291097176502948 0.0 0.0
0.0 0.0022001968784027335 -0.001392021469680293 0.00123324681488446 0.00015877465479583098 0.0020835452492603017 0.0 0.0
0.0 0.0012864867060274822 -0.0007125750691510881 0.0006305923593646112 8.198270978647683e-05 0.0014147435432110196 0.0 0.0
0.0 0.0006914850949397016 -0.0003309259694877912 0.0002918922650426871 3.903370444510366e-05 0.0008874823759891899 0.0 0.0
0.0 0.00035762772261325104 -0.00012486157400160141 0.00010912382625787652 1.5737747743724867e-05 0.000499179152072392 0.0 0.0
0.0 0.0002465715462126384 -3.1777327283670086e-06 5.130919711271727e-06 -1.953186982904598e-06 0.00016705100718146038 0.0 0.0
0.0 8.668579762183832e-05 -1.1615395518647998e-05 9.250490511277086e-06 2.3649050073708963e-06 9.935740753800958e-05 0.0 0.0
0.0 3.713372616995207e-05 -2.6045753773791027e-06 2.63526068014476e-06 -3.0685302765634587e-08 2.6316934403022794e-05 0.0 0.0
0.0 6.741091436867928e-06 3.2722881809506864e-06 -2.8203977362157024e-06 -4.5189044473500567e-07 -2.0552547764253558e-05 0.0 0.0
0.0 2.4714546335358668e-05 1.139884230253588e-06 -9.105714529114802e-07 -2.2931277734211936e-07 -9.015931229219949e-06 0.0 0.0
0.0 -2.497204345732415e-06 -1.7633187286029646e-07 1.4444088894724497e-07 3.189098391306514e-08 8.310493508575193e-07 0.0 0.0
0.0 -9.04699961019965e-07 -2.5830668017235507e-08 1.7516571743234694e-08 8.314096274002637e-09 2.6197814179128124e-07 0.0 0.0
0.0 1.490317099709025e-06 4.2419117432873625e-08 -3.4703150095152404e-08 -7.7159673377218e-09 -3.123545741534368e-07 0.0 0.0
0.0 -1.2248514125423912e-06 -1.517375899988092e-08 9.72300822369931e-09 5.450750776178706e-09 2.593302377583429e-07 0.0 0.0
0.0 2.060954280464219e-07 9.273562814277173e-10 1.4540868585699457e-11 -9.418971500126806e-10 -4.459082022546827e-08 0.0 0.0
0.0 0.0 0.0 0.0 0.0 0.0 0.0 0.0
0.0 0.0 0.0 0.0 0.0 0.0 0.0 0.0
0.0 0.0 0.0 0.0 0.0 0.0 0.0 0.0
0.0 -6.184246970149612e-07 -2.0876111810172227e-08 1.7314089408234478e-08 3.562022401937719e-09 -1.2806852567251785e-07 0.0 0.0
0.0 -9.073015981519399e-07 -5.685714133296699e-08 4.755545022776246e-08 9.30169110519889e-09 -2.3445117858209914e-07 0.0 0.0
0.0 6.939413693331901e-06 2.566932478706198e-07 -2.177301530713073e-07 -3.8963094799286765e-08 1.5048904087892627e-06 0.0 0.0
0.0 1.690702464335916e-05 8.302974969186489e-07 -6.768157143116402e-07 -1.5348178260704522e-07 3.94016593183917e-06 0.0 0.0
0.0 -1.2599680400873324e-05 -6.376795797731969e-07 4.3454735669443856e-07 2.031322230788294e-07 -7.602185864340172e-07 0.0 0.0
0.0 3.803565246837752e-05 1.9422446178351293e-05 -1.5110980680379862e-05 -4.311465497971371e-06 5.351999480278242e-05 0.0 0.0
0.0 5.45189401420778e-05 -7.816579353972119e-07 1.0987894772217577e-06 -3.171315418245297e-07 -5.1720609049071795e-05 0.0 0.0
0.0 0.0003264659924746474 -0.0001283604137768181 0.0001053593840836084 2.300102969320982e-05 -0.0002227303739000928 0.0 0.0
0.0 0.0006851087796553924 -0.0004992900010872605 0.0004053924745352651 9.389752655199508e-05 -0.0006727874931556483 0.0 0.0
0.0 0.0013721956915451559 -0.0010276900122352293 0.0008452251663431153 0.00018246484589211397 -0.0011492580787260526 0.0 0.0
0.0 0.0022821068969717663 -0.001784605112422139 0.0014896703018789348 0.0002949348105432042 -0.0016925583455488498 0.0 0.0
0.0 0.0035650105904233742 -0.002867240394981027 0.0024531972475251686 0.0004140431474558561 -0.002319732969986378 0.0 0.0
0.0 0.005404987106202509 -0.004366594530928739 0.003847346961119231 0.0005192475698095097 -0.0031087961789589666 0.0 0.0
0.0 0.0077928087080946125 -0.006268766629935286 0.005678175151326513 0.0005905914786087724 -0.004175439703641074 0.0 0.0
0.0 0.010429546978873288 -0.008356099049903008 0.007728571214795206 0.0006275278351078042 -0.005631481811786552 0.0 0.0
0.0 0.012648498999257633 -0.01020279679755646 0.009565862561537743 0.000636934236018722 -0.0075103806640928125 0.0 0.0
0.0 0.014091888655394524 -0.01103410251741863 0.010424397867916685 0.0006097046495019359 -0.00948043480955177 0.0 0.0
0.0 0.013238653479326613 -0.009589594452171273 0.009016054580864623 0.0005735398713066457 -0.010061586057407826 0.0 0.0
0.0 0.013331928637881407 -0.007577152205568606 0.005942285391654188 0.0016348668139144146 5.132613084546378e-15 0.0 0.0
0.0 0.013238653479329607 -0.009589594452172032 0.00901605458086512 0.0005735398713069001 0.010061586057416017 0.0 0.0
0.0 0.014091888655394515 -0.011034102517417321 0.010424397867915521 0.0006097046495018032 0.009480434809560075 0.0 0.0
0.0 0.012648498999254736 -0.010202796797553888 0.009565862561535441 0.0006369342360184373 0.0075103806640958014 0.0 0.0
0.0 0.010429546978867018 -0.008356099049898043 0.007728571214790347 0.0006275278351076932 0.005631481811784313 0.0 0.0
0.0 0.00779280870808825 -0.006268766629929875 0.005678175151321446 0.0005905914786084283 0.0041754397036380935 0.0 0.0
0.0 0.005404987106197041 -0.004366594530924311 0.003847346961115213 0.0005192475698090995 0.003108796178956184 0.0 0.0
0.0 0.003565010590418661 -0.002867240394976692 0.00245319724752137 0.0004140431474553201 0.002319732969983955 0.0 0.0
0.0 0.0022821068969662273 -0.0017846051124173206 0.0014896703018746561 0.0002949348105426651 0.0016925583455453255 0.0 0.0
0.0 0.001372195691540001 -0.0010276900122310035 0.0008452251663395563 0.00018246484589144635 0.0011492580787217923 0.0 0.0
0.0 0.0006851087796501451 -0.0004992900010834028 0.0004053924745319813 9.389752655142124e-05 0.0006727874931511296 0.0 0.0
0.0 0.00032646599247173355 -0.0001283604137756425 0.00010535938408262242 2.300102969302011e-05 0.00022273037389878146 0.0 0.0
0.0 5.451894014111992e-05 -7.816579352077442e-07 1.09878947706846e-06 -3.1713154186057347e-07 5.172060904845649e-05 0.0 0.0
0.0 3.8035652467795325e-05 1.9422446178283178e-05 -1.5110980680325466e-05 -4.311465497957614e-06 -5.351999480261504e-05 0.0 0.0
0.0 -1.2599680401252466e-05 -6.376795798080843e-07 4.3454735672248753e-07 2.0313222308555968e-07 7.602185865980737e-07 0.0 0.0
0.0 1.6907024642783286e-05 8.302974968858689e-07 -6.768157142847567e-07 -1.534817826011506e-07 -3.940165931679167e-06 0.0 0.0
0.0 6.939413692862606e-06 2.566932478499369e-07 -2.1773015305387495e-07 -3.896309479599238e-08 -1.5048904086759496e-06 0.0 0.0
0.0 -9.073015986455803e-07 -5.685714134533184e-08 4.7555450237640396e-08 9.301691107664112e-09 2.3445117867591146e-07 0.0 0.0
0.0 -6.184246968346537e-07 -2.0876111804557736e-08 1.7314089403673093e-08 3.562022400887866e-09 1.2806852563539354e-07 0.0 0.0
0.0 0.0 0.0 0.0 0.0 0.0 0.0 0.0
0.0 0.0 0.0 0.0 0.0 0.0 0.0 0.0
0.0 0.0 0.0 0.0 0.0 0.0 0.0 0.0
0.0 0.0 0.0 0.0 0.0 0.0 0.0 0.0
0.0 -6.673786688937349e-07 -2.652195026639465e-08 2.149951378988824e-08 5.022436476505807e-09 -1.3134363579114284e-07 0.0 0.0
0.0 1.868232203522811e-06 7.292438497280417e-08 -5.97507365795015e-08 -1.3173648393301071e-08 3.735910496589369e-07 0.0 0.0
0.0 2.3140902412834673e-06 1.1552332739743595e-07 -9.046105197643214e-08 -2.5062275420996453e-08 4.835579472159823e-07 0.0 0.0
0.0 -1.4278876503998193e-05 -2.1765530889413316e-06 1.7026408925011832e-06 4.7391219644012484e-07 -5.2873655524064555e-06 0.0 0.0
0.0 3.1345449427826645e-05 1.8143845080463455e-05 -1.436946146940761e-05 -3.7743836110558053e-06 4.400053320102711e-05 0.0 0.0
0.0 2.249181106869478e-05 -1.4997811471234103e-05 1.1980008819574046e-05 3.0178026516601103e-06 -3.4971716510714165e-05 0.0 0.0
0.0 0.0003280117366497263 -0.0002215157346433156 0.0001732753577748585 4.8240376868457e-05 -0.000226812861003591 0.0 0.0
0.0 0.0011399127984039433 -0.0006798580725345525 0.0005427296862276226 0.0001371283863069296 -0.0006030331082632299 0.0 0.0
0.0 0.0017631610774904915 -0.0014124023006494022 0.001152503155487506 0.0002598991451618962 -0.001177885335808111 0.0 0.0
0.0 0.002778773267958919 -0.0023451905545979223 0.001957645283378955 0.00038754527121896633 -0.0017232401808262925 0.0 0.0
0.0 0.004238268523129391 -0.0035797989185964788 0.0030643076258810168 0.0005154912927154602 -0.002312483101923552 0.0 0.0
0.0 0.006232267996525796 -0.005298984801238273 0.004665474575259394 0.0006335102259788759 -0.003032623831424626 0.0 0.0
0.0 0.009066688253944358 -0.007639713371025031 0.0069147213677822365 0.000724992003242796 -0.003984409920873531 0.0 0.0
0.0 0.012550084645157233 -0.01061177751484619 0.009831697476732683 0.0007800800381135034 -0.00529041996065462 0.0 0.0
0.0 0.016748901243236563 -0.01395013172272948 0.013147108486915096 0.0008030232358143744 -0.007192426125214586 0.0 0.0
0.0 0.02055508355375869 -0.01705951072573383 0.016266010561375242 0.0007935001643585788 -0.009812120285257797 0.0 0.0
0.0 0.02290677922641344 -0.01877879516943467 0.0180279355275732 0.0007508596418614737 -0.012524020873425142 0.0 0.0
0.0 0.021520307135972548 -0.01725431027887029 0.016572264637714974 0.0006820456411553126 -0.013464340227755818 0.0 0.0
0.0 0.01939819915360624 -0.013876997017076013 0.011608841536176284 0.002268155480899722 5.3485861573054905e-15 0.0 0.0
0.0 0.021520307135974793 -0.017254310278869717 0.0165722646377146 0.0006820456411551212 0.01346434022776807 0.0 0.0
0.0 0.02290677922641318 -0.018778795169432545 0.018027935527571478 0.0007508596418610842 0.012524020873437045 0.0 0.0
0.0 0.020555083553753926 -0.017059510725729178 0.01626601056137109 0.0007935001643580884 0.009812120285262935 0.0 0.0
0.0 0.0167489012432274 -0.013950131722721741 0.0131471084869076 0.0008030232358141372 0.007192426125213161 0.0 0.0
0.0 0.01255008464514918 -0.010611777514839186 0.009831697476725885 0.0007800800381133043 0.005290419960651892 0.0 0.0
0.0 0.009066688253937428 -0.007639713371018839 0.0069147213677765215 0.0007249920032423168 0.00398440992087092 0.0 0.0
0.0 0.00623226799651912 -0.005298984801232639 0.004665474575254129 0.0006335102259785128 0.0030326238314219763 0.0 0.0
0.0 0.004238268523121334 -0.003579798918589488 0.0030643076258746 0.0005154912927148852 0.002312483101919692 0.0 0.0
0.0 0.0027787732679515594 -0.0023451905545914986 0.001957645283373353 0.00038754527121814613 0.00172324018082119 0.0 0.0
0.0 0.0017631610774835567 -0.0014124023006435358 0.0011525031554825008 0.00025989914516103484 0.0011778853358033494 0.0 0.0
0.0 0.0011399127983983894 -0.0006798580725304816 0.000542729686224298 0.00013712838630618336 0.0006030331082598045 0.0 0.0
0.0 0.0003280117366468081 -0.00022151573464144065 0.0001732753577734325 4.824037686800809e-05 0.00022681286100205666 0.0 0.0
0.0 2.2491811067567632e-05 -1.4997811471136924e-05 1.1980008819486024e-05 3.0178026516507086e-06 3.497171651057513e-05 0.0 0.0
0.0 3.1345449426834424e-05 1.814384508026742e-05 -1.4369461469255716e-05 -3.7743836110116397e-06 -4.4000533200629386e-05 0.0 0.0
0.0 -1.4278876504363606e-05 -2.17655308895181e-06 1.7026408925106744e-06 4.7391219644113064e-07 5.2873655524741275e-06 0.0 0.0
0.0 2.3140902408674115e-06 1.15523327377649e-07 -9.046105196029126e-08 -2.5062275417359505e-08 -4.835579471334804e-07 0.0 0.0
0.0 1.8682322031423432e-06 7.292438495931982e-08 -5.975073656857908e-08 -1.3173648390727256e-08 -3.735910495783526e-07 0.0 0.0
0.0 -6.673786687488396e-07 -2.652195026059628e-08 2.1499513785194163e-08 5.02243647539871e-09 1.3134363576112836e-07 0.0 0.0
0.0 0.0 0.0 0.0 0.0 0.0 0.0 0.0
0.0 0.0 0.0 0.0 0.0 0.0 0.0 0.0
0.0 0.0 0.0 0.0 0.0 0.0 0.0 0.0
0.0 0.0 0.0 0.0 0.0 0.0 0.0 0.0
0.0 -1.9885686317167076e-07 -9.042500064211354e-09 7.070759408586949e-09 1.9717406556243214e-09 -3.727888583186021e-08 0.0 0.0
0.0 -2.474422303131716e-06 -1.8022640795963754e-07 1.4690897587584792e-07 3.3317432083782906e-08 -5.041893378451598e-07 0.0 0.0
0.0 5.719953617343283e-06 2.885528550921863e-07 -2.3920738736991065e-07 -4.934546772224029e-08 1.133045069621961e-06 0.0 0.0
0.0 3.1017939277102336e-05 8.203810901170321e-06 -6.49042091783587e-06 -1.7133899833345327e-06 1.6049164574298384e-05 0.0 0.0
0.0 1.1729076799794103e-05 1.290009358540445e-05 -9.814092265451465e-06 -3.086001319952992e-06 7.684556634541679e-06 0.0 0.0
0.0 0.0002423553360302836 -0.0001807002773608289 0.00013813082649740581 4.256945086342315e-05 -0.00012966995786574845 0.0 0.0
0.0 0.0011152171593769953 -0.0006497683020865536 0.0005127027749922777 0.0001370655270942755 -0.0004400691112348803 0.0 0.0
0.0 0.0016412110932100795 -0.001499817258694874 0.0012165150886235244 0.00028330217007134945 -0.0010120991981108444 0.0 0.0
0.0 0.0028941612802777716 -0.0025006226643220068 0.0020844431634524513 0.0004161795008695541 -0.00152078017170863 0.0 0.0
0.0 0.004369456642798317 -0.003793585372520808 0.0032439492546496728 0.0005496361178711367 -0.0020531195939770563 0.0 0.0
0.0 0.006345523091490852 -0.005517249529490943 0.004840501899418128 0.0006767476300728147 -0.002664832636295892 0.0 0.0
0.0 0.009103479090798217 -0.007884457583013647 0.007097664875476814 0.0007867927075368304 -0.0034499265798333544 0.0 0.0
0.0 0.012794465956313325 -0.011079473856736514 0.010209640883365666 0.0008698329733708446 -0.00448906865074072 0.0 0.0
0.0 0.01778613521094027 -0.015125410494595148 0.014207087480097726 0.0009183230144974323 -0.005930233964805898 0.0 0.0
0.0 0.02290052088915112 -0.019740616376343317 0.01880654565499305 0.0009340707213502488 -0.008085483082003934 0.0 0.0
0.0 0.028382346344948427 -0.02408791941423766 0.023182907305219953 0.0009050121090177211 -0.01115833206262006 0.0 0.0
0.0 0.0318480617833807 -0.026589535218305337 0.02576014102444092 0.0008293941938644171 -0.014555591297952157 0.0 0.0
0.0 0.030064661756759634 -0.02470830057067915 0.023998126010031668 0.0007101745606474504 -0.016190850530091352 0.0 0.0
0.0 0.025872745007302286 -0.020104070743777396 0.017290542762059557 0.0028135279817178382 6.635750976480281e-15 0.0 0.0
0.0 0.030064661756760626 -0.024708300570677535 0.023998126010030093 0.0007101745606474437 0.016190850530106365 0.0 0.0
0.0 0.03184806178337887 -0.026589535218301954 0.025760141024437782 0.0008293941938641513 0.01455559129796705 0.0 0.0
0.0 0.02838234634494165 -0.02408791941423121 0.023182907305213628 0.0009050121090175657 0.011158332062627379 0.0 0.0
0.0 0.022900520889140966 -0.019740616376334497 0.018806545654984307 0.0009340707213502068 0.008085483082004217 0.0 0.0
0.0 0.01778613521093009 -0.015125410494586218 0.014207087480089206 0.0009183230144970084 0.005930233964803005 0.0 0.0
0.0 0.012794465956305453 -0.01107947385672932 0.010209640883359173 0.000869832973370133 0.00448906865073855 0.0 0.0
0.0 0.009103479090789634 -0.007884457583005778 0.00709766487546951 0.0007867927075362666 0.003449926579830539 0.0 0.0
0.0 0.006345523091480766 -0.005517249529482101 0.004840501899409902 0.0006767476300721947 0.0026648326362923623 0.0 0.0
0.0 0.0043694566427882105 -0.0037935853725116838 0.003243949254641375 0.0005496361178703099 0.0020531195939719918 0.0 0.0
0.0 0.0028941612802695677 -0.0025006226643148853 0.002084443163446128 0.000416179500868756 0.0015207801717038202 0.0 0.0
0.0 0.0016412110932035719 -0.001499817258688618 0.001216515088618258 0.00028330217007035887 0.0010120991981065377 0.0 0.0
0.0 0.0011152171593711104 -0.0006497683020826571 0.0005127027749891114 0.00013706552709354575 0.0004400691112322762 0.0 0.0
0.0 0.00024235533602675447 -0.0001807002773587404 0.0001381308264957986 4.256945086294172e-05 0.00012966995786412993 0.0 0.0
0.0 1.1729076799202068e-05 1.2900093585093371e-05 -9.814092265207521e-06 -3.0860013198855386e-06 -7.684556633983982e-06 0.0 0.0
0.0 3.101793927575186e-05 8.20381090102564e-06 -6.49042091772366e-06 -1.7133899833018901e-06 -1.6049164574068137e-05 0.0 0.0
0.0 5.719953616914112e-06 2.8855285506468617e-07 -2.392073873468006e-07 -4.934546771788691e-08 -1.1330450695166714e-06 0.0 0.0
0.0 -2.4744223032057486e-06 -1.8022640795739166e-07 1.469089758737796e-07 3.3317432083601555e-08 5.041893378541857e-07 0.0 0.0
0.0 -1.988568631022215e-07 -9.042500061013639e-09 7.070759406063047e-09 1.9717406549533067e-09 3.7278885818243454e-08 0.0 0.0
0.0 0.0 0.0 0.0 0.0 0.0 0.0 0.0
0.0 0.0 0.0 0.0 0.0 0.0 0.0 0.0
0.0 0.0 0.0 0.0 0.0 0.0 0.0 0.0
0.0 0.0 0.0 0.0 0.0 0.0 0.0 0.0
0.0 0.0 0.0 0.0 0.0 0.0 0.0 0.0
0.0 -1.649479723669036e-06 -1.2518018786631028e-07 9.947930651809292e-08 2.5700881348227217e-08 -2.9211865649805987e-07 0.0 0.0
0.0 -7.040347873749456e-06 -1.1584674296118273e-06 9.126412065105293e-07 2.4582622310123937e-07 -1.7096713658852129e-06 0.0 0.0
0.0 4.359217053782666e-05 1.969381987965325e-05 -1.5410113588795372e-05 -4.283706290857802e-06 2.436476607824494e-05 0.0 0.0
0.0 0.000119269273265053 -7.031283944924802e-05 5.242007633040588e-05 1.7892763118842102e-05 -2.561954438217406e-05 0.0 0.0
0.0 0.0008375962533576518 -0.00046259746736880276 0.000358296910821017 0.00010430055654778632 -0.00022538892477169174 0.0 0.0
0.0 0.00139105785688322 -0.001323940995590942 0.001063532010126556 0.00026040898546438604 -0.0007166185943123366 0.0 0.0
0.0 0.002665770150136089 -0.0023540678825843056 0.0019503777784789667 0.00040369010410533644 -0.0011844096917291837 0.0 0.0
0.0 0.004117434519806175 -0.0036555175507039252 0.0031099255365876527 0.0005455920141162727 -0.0016496261549329811 0.0 0.0
0.0 0.006016013828718126 -0.005324348650818088 0.004645654697214839 0.0006786939536032486 -0.002154722754267419 0.0 0.0
0.0 0.008589641840239724 -0.007549776786392736 0.006748096319349069 0.0008016804670436653 -0.0027568137413940146 0.0 0.0
0.0 0.012196307591991811 -0.010577243135960965 0.009671705096207706 0.0009055380397532632 -0.0035569926064949408 0.0 0.0
0.0 0.016857053318488406 -0.014626226760855055 0.013640084016276812 0.0009861427445782293 -0.004633478993648477 0.0 0.0
0.0 0.02267689208655247 -0.01974307440301297 0.018704608847489593 0.0010384655555233696 -0.006067109434084845 0.0 0.0
0.0 0.02980330775654844 -0.025584037736167096 0.024535938482055153 0.001048099254111941 -0.008170198014659355 0.0 0.0
0.0 0.03634836890475925 -0.031146994699102454 0.03014860837794106 0.0009983863211613878 -0.011351816058906984 0.0 0.0
0.0 0.04026430443720722 -0.03437390020223364 0.03348976314274342 0.0008841370594902186 -0.015278243637870802 0.0 0.0
0.0 0.0383008317009161 -0.03206105689512437 0.03134362969193699 0.0007174272031873919 -0.018119328808642116 0.0 0.0
0.0 0.032939972550252876 -0.026292340567383266 0.02297274473162505 0.0033195958357582107 7.493571735350812e-15 0.0 0.0
0.0 0.038300831700916624 -0.03206105689512239 0.031343629691935 0.0007174272031873751 0.01811932880865914 0.0 0.0
0.0 0.04026430443720238 -0.034373900202227824 0.03348976314273749 0.0008841370594903136 0.015278243637886647 0.0 0.0
0.0 0.03634836890475216 -0.031146994699095397 0.030148608377934673 0.0009983863211607288 0.011351816058916383 0.0 0.0
0.0 0.029803307756536054 -0.025584037736156303 0.024535938482044474 0.001048099254111843 0.008170198014660892 0.0 0.0
0.0 0.02267689208654152 -0.019743074403003325 0.018704608847480642 0.0010384655555226712 0.006067109434083339 0.0 0.0
0.0 0.016857053318477373 -0.014626226760845386 0.013640084016267633 0.0009861427445777555 0.004633478993646238 0.0 0.0
0.0 0.012196307591980735 -0.01057724313595071 0.009671705096198129 0.000905538039752576 0.0035569926064924822 0.0 0.0
0.0 0.00858964184022735 -0.007549776786381704 0.006748096319338397 0.0008016804670433116 0.0027568137413904402 0.0 0.0
0.0 0.006016013828705365 -0.005324348650806696 0.0046456546972042795 0.0006786939536024135 0.002154722754262535 0.0 0.0
0.0 0.004117434519795849 -0.003655517550694551 0.0031099255365792068 0.0005455920141153452 0.0016496261549281187 0.0 0.0
0.0 0.0026657701501269756 -0.002354067882576147 0.0019503777784716958 0.0004036901041044524 0.0011844096917246999 0.0 0.0
0.0 0.001391057856877355 -0.0013239409955848238 0.0010635320101214619 0.00026040898546336115 0.0007166185943092667 0.0 0.0
0.0 0.0008375962533527735 -0.00046259746736553606 0.0003582969108185026 0.0001043005565470333 0.00022538892476992278 0.0 0.0
0.0 0.00011926927326290117 -7.031283944819441e-05 5.2420076329596055e-05 1.7892763118598627e-05 2.561954438164081e-05 0.0 0.0
0.0 4.359217053711772e-05 1.9693819879462864e-05 -1.5410113588645136e-05 -4.283706290817557e-06 -2.4364766078022798e-05 0.0 0.0
0.0 -7.040347874867916e-06 -1.1584674297209848e-06 9.126412065958743e-07 2.4582622312510193e-07 1.7096713660653948e-06 0.0 0.0
0.0 -1.6494797235226471e-06 -1.251801878543305e-07 9.947930650851927e-08 2.5700881345804934e-08 2.921186564701545e-07 0.0 0.0
0.0 0.0 0.0 0.0 0.0 0.0 0.0 0.0
0.0 0.0 0.0 0.0 0.0 0.0 0.0 0.0
0.0 0.0 0.0 0.0 0.0 0.0 0.0 0.0
0.0 0.0 0.0 0.0 0.0 0.0 0.0 0.0
0.0 0.0 0.0 0.0 0.0 0.0 0.0 0.0
0.0 0.0 0.0 0.0 0.0 0.0 0.0 0.0
0.0 -1.6427912561948415e-06 -1.4576765561191955e-07 1.163519409844636e-07 2.9415714627468992e-08 -2.453416837895156e-07 0.0 0.0
0.0 1.6000799389549522e-05 2.3519561417108433e-06 -1.832778845622913e-06 -5.191772960879147e-07 2.7714766398278664e-06 0.0 0.0
0.0 -6.022630474776605e-06 -9.248500944442947e-06 6.336924422939581e-06 2.9115765215033617e-06 8.502015196846881e-07 0.0 0.0
0.0 0.000482206073128094 -0.0002132668542277604 0.00016113974991912488 5.2127104308636094e-05 -5.2900769870587174e-05 0.0 0.0
0.0 0.0010789276685932204 -0.0009676108414079425 0.0007642879532321447 0.0002033228881757979 -0.00038092900192023666 0.0 0.0
0.0 0.00220997256378211 -0.001990091701787855 0.0016309310353610305 0.0003591606664268242 -0.0007903267908773836 0.0 0.0
0.0 0.003621263268804525 -0.0032646859187598926 0.002753427491314611 0.0005112584274452821 -0.0011846855386532286 0.0 0.0
0.0 0.005427718461163418 -0.004857203354004198 0.004204964898968888 0.0006522384550353091 -0.0015957483442048356 0.0 0.0
0.0 0.007802718094591685 -0.006911419358461004 0.006127216616724726 0.0007842027417362741 -0.002043708688055127 0.0 0.0
0.0 0.011066486000335295 -0.00965422911025809 0.008749991570829183 0.0009042375394289138 -0.002598059359810767 0.0 0.0
0.0 0.01514996689074853 -0.013370233215247378 0.012363470246465618 0.0010067629687817519 -0.0033632141136768936 0.0 0.0
0.0 0.020919580885724747 -0.018260309012678652 0.017173092376090982 0.001087216636587671 -0.00440569448671843 0.0 0.0
0.0 0.028103751516534707 -0.024383721469217596 0.02323968569237878 0.0011440357768388106 -0.005726452169452338 0.0 0.0
0.0 0.036096391928328656 -0.03139875582022726 0.030241706478309833 0.0011570493419174241 -0.0075089583112785754 0.0 0.0
0.0 0.043980866833040255 -0.038118233996222294 0.03702952000881342 0.0010887139874089066 -0.010350512351344298 0.0 0.0
0.0 0.048900408870817744 -0.042082107887884704 0.041151976984109696 0.0009301309037750239 -0.014593382714327438 0.0 0.0
0.0 0.0465007705877126 -0.039462158632117675 0.038758117178359315 0.000704041453758327 -0.019350753134462554 0.0 0.0
0.0 0.03987443391696757 -0.0326293002604104 0.028827671202480608 0.0038016290579297803 7.844853239236116e-15 0.0 0.0
0.0 0.046500770587712424 -0.03946215863211525 0.038758117178357074 0.0007040414537581661 0.01935075313447965 0.0 0.0
0.0 0.048900408870810354 -0.042082107887876974 0.04115197698410182 0.0009301309037751237 0.014593382714344044 0.0 0.0
0.0 0.04398086683303196 -0.03811823399621436 0.037029520008806355 0.001088713987408029 0.010350512351354153 0.0 0.0
0.0 0.036096391928315506 -0.03139875582021562 0.030241706478298564 0.001157049341917039 0.0075089583112804515 0.0 0.0
0.0 0.028103751516522717 -0.024383721469206858 0.023239685692368763 0.0011440357768380943 0.005726452169452168 0.0 0.0
0.0 0.02091958088571142 -0.018260309012666853 0.017173092376079772 0.001087216636587084 0.004405694486716419 0.0 0.0
0.0 0.015149966890736104 -0.01337023321523609 0.01236347024645526 0.0010067629687808323 0.00336321411367475 0.0 0.0
0.0 0.011066486000321334 -0.00965422911024535 0.008749991570816792 0.0009042375394285606 0.0025980593598077927 0.0 0.0
0.0 0.007802718094578115 -0.006911419358448545 0.006127216616713043 0.0007842027417354982 0.002043708688051244 0.0 0.0
0.0 0.00542771846115102 -0.004857203353992978 0.004204964898958548 0.0006522384550344297 0.0015957483442001089 0.0 0.0
0.0 0.003621263268794319 -0.0032646859187503035 0.0027534274913060828 0.0005112584274442204 0.0011846855386493998 0.0 0.0
0.0 0.002209972563773971 -0.001990091701780607 0.0016309310353548143 0.00035916066642579245 0.0007903267908747629 0.0 0.0
0.0 0.0010789276685877272 -0.0009676108414027286 0.0007642879532278239 0.00020332288817490475 0.00038092900191791446 0.0 0.0
0.0 0.00048220607312397774 -0.00021326685422532975 0.0001611397499172866 5.212710430804353e-05 5.290076986957453e-05 0.0 0.0
0.0 -6.022630475819627e-06 -9.248500944891876e-06 6.336924423294945e-06 2.9115765215968974e-06 -8.502015189658212e-07 0.0 0.0
0.0 1.6000799388386258e-05 2.351956141678266e-06 -1.8327788455987666e-06 -5.191772960795523e-07 -2.771476639786042e-06 0.0 0.0
0.0 -1.642791256004414e-06 -1.4576765559379935e-07 1.1635194096994413e-07 2.941571462384305e-08 2.4534168375822876e-07 0.0 0.0
0.0 0.0 0.0 0.0 0.0 0.0 0.0 0.0
0.0 0.0 0.0 0.0 0.0 0.0 0.0 0.0
0.0 0.0 0.0 0.0 0.0 0.0 0.0 0.0
0.0 0.0 0.0 0.0 0.0 0.0 0.0 0.0
0.0 0.0 0.0 0.0 0.0 0.0 0.0 0.0
0.0 0.0 0.0 0.0 0.0 0.0 0.0 0.0
0.0 -5.301947324137244e-07 -5.2111206359757394e-08 4.136700228751207e-08 1.0744204072252427e-08 -5.5764332293221864e-08 0.0 0.0
0.0 2.5175231818039962e-05 3.2285524727501394e-06 -2.394045440868126e-06 -8.345070318819871e-07 1.2116924890686674e-06 0.0 0.0
0.0 0.00011919843959237061 -3.102729353371067e-05 2.1200710874120833e-05 9.826582659589822e-06 1.663472582388823e-05 0.0 0.0
0.0 0.0007113828507505577 -0.0005358640459453809 0.0004123064608258319 0.0001235575851195488 -0.00011044851923055745 0.0 0.0
0.0 0.0016174060451961902 -0.0014858329712125404 0.0011974111299118161 0.0002884218413007239 -0.0004223508544276446 0.0 0.0
0.0 0.0029525314733595833 -0.0026992324927169837 0.0022478823356881627 0.0004513501570288211 -0.0007225656689602395 0.0 0.0
0.0 0.004662519703070312 -0.004204327411328482 0.0036018824962603963 0.0006024449150680888 -0.001037590980335406 0.0 0.0
0.0 0.006777470388330485 -0.006097253366993826 0.005354536575726169 0.0007427167912676552 -0.001370134282007536 0.0 0.0
0.0 0.009642083100263887 -0.00854958948356183 0.007675805744924996 0.0008737837386368336 -0.0017341662752139867 0.0 0.0
0.0 0.01326931392845523 -0.01183501064067931 0.01084045643216098 0.0009945542085183238 -0.002196584983275151 0.0 0.0
0.0 0.018565398029477164 -0.016232505525426218 0.015136973389236712 0.001095532136189505 -0.0028612138251381232 0.0 0.0
0.0 0.025076305202985597 -0.0219647651935931 0.02078761761843341 0.0011771475751596785 -0.003799652512087861 0.0 0.0
0.0 0.0330567211191665 -0.029033667927167904 0.027795567296170165 0.0012381006309977309 -0.0049541333504902335 0.0 0.0
0.0 0.04241678779725011 -0.037063862433816055 0.035804129805078494 0.001259732628737565 -0.006235467710667021 0.0 0.0
0.0 0.05148591548560753 -0.04485404547444873 0.0436659598961551 0.001188085578293667 -0.008180450538558592 0.0 0.0
0.0 0.057333807183465924 -0.04970170321848007 0.048717437923792045 0.000984265294688023 -0.012390890444848616 0.0 0.0
0.0 0.05503594812105036 -0.047077313897130796 0.04641342467212964 0.0006638892250011309 -0.019716920532225197 0.0 0.0
0.0 0.047651778559333 -0.03932596677609488 0.03506852246063668 0.00425744431545822 7.037773142037906e-15 0.0 0.0
0.0 0.055035948121048776 -0.04707731389712751 0.04641342467212668 0.0006638892250008137 0.01971692053224086 0.0 0.0
0.0 0.05733380718345718 -0.04970170321847156 0.048717437923783455 0.000984265294688118 0.01239089044486488 0.0 0.0
0.0 0.05148591548559581 -0.044854045474438414 0.04366595989614499 0.0011880855782933635 0.00818045053856692 0.0 0.0
0.0 0.04241678779723587 -0.037063862433803475 0.03580412980506624 0.0012597326287372447 0.006235467710669402 0.0 0.0
0.0 0.03305672111915388 -0.029033667927156503 0.027795567296159843 0.0012381006309966484 0.004954133350490533 0.0 0.0
0.0 0.025076305202971282 -0.021964765193580434 0.020787617618421406 0.001177147575159034 0.003799652512086819 0.0 0.0
0.0 0.01856539802946453 -0.016232505525414574 0.015136973389226253 0.001095532136188313 0.0028612138251365034 0.0 0.0
0.0 0.013269313928439162 -0.011835010640665137 0.010840456432147356 0.0009945542085177774 0.002196584983272915 0.0 0.0
0.0 0.009642083100248052 -0.008549589483547174 0.007675805744911097 0.0008737837386360769 0.001734166275210759 0.0 0.0
0.0 0.006777470388316512 -0.006097253366980879 0.005354536575714005 0.0007427167912668688 0.0013701342820034953 0.0 0.0
0.0 0.004662519703058895 -0.00420432741131791 0.003601882496250843 0.0006024449150670669 0.0010375909803321895 0.0 0.0
0.0 0.002952531473351312 -0.002699232492708495 0.002247882335680706 0.00045135015702778774 0.0007225656689579855 0.0 0.0
0.0 0.0016174060451888616 -0.0014858329712052853 0.00119741112990563 0.00028842184129965523 0.00042235085442528545 0.0 0.0
0.0 0.0007113828507459575 -0.0005358640459416707 0.00041230646082291296 0.0001235575851187571 0.00011044851922945155 0.0 0.0
0.0 0.00011919843959028478 -3.102729353315792e-05 2.1200710873735277e-05 9.826582659422513e-06 -1.663472582376508e-05 0.0 0.0
0.0 2.5175231817075063e-05 3.2285524726283077e-06 -2.394045440774724e-06 -8.345070318535192e-07 -1.2116924889723733e-06 0.0 0.0
0.0 -5.301947322778795e-07 -5.211120634663761e-08 4.136700227712206e-08 1.0744204069519997e-08 5.576433227657831e-08 0.0 0.0
0.0 0.0 0.0 0.0 0.0 0.0 0.0 0.0
0.0 0.0 0.0 0.0 0.0 0.0 0.0 0.0
0.0 0.0 0.0 0.0 0.0 0.0 0.0 0.0
0.0 0.0 0.0 0.0 0.0 0.0 0.0 0.0
0.0 0.0 0.0 0.0 0.0 0.0 0.0 0.0
0.0 0.0 0.0 0.0 0.0 0.0 0.0 0.0
0.0 -3.496294827607134e-07 -2.554798202866444e-08 2.0686108615403197e-08 4.86187341325861e-09 -3.404425059177649e-08 0.0 0.0
0.0 -5.988457862280881e-06 6.474773208374545e-06 -5.074461719786059e-06 -1.4003114885885879e-06 1.8438478707927077e-06 0.0 0.0
0.0 0.0003351064316777084 -0.0001501342675566239 0.00010998625055265549 4.0148017003968074e-05 2.6577284572829395e-05 0.0 0.0
0.0 0.000945991490878136 -0.0009403576045634055 0.000738440375414408 0.00020191722914899798 -0.000142572671004512 0.0 0.0
0.0 0.0022059678102419014 -0.0020280219904156285 0.0016594053298689504 0.00036861666054667757 -0.00033001029291445766 0.0 0.0
0.0 0.0037260416994063772 -0.0034306058189245894 0.0028984052821703086 0.0005322005367542797 -0.0005351230804886077 0.0 0.0
0.0 0.005719680918092814 -0.005169880694986944 0.0044890010658459835 0.0006808796291409619 -0.0007539200153473489 0.0 0.0
0.0 0.008247335159527063 -0.007366689627118325 0.0065461650402796915 0.0008205245868386329 -0.0009826826623582678 0.0 0.0
0.0 0.011449519097742496 -0.01023430794722547 0.0092815766880988 0.0009527312591266773 -0.0012291074273387734 0.0 0.0
0.0 0.01601498036061684 -0.01406036136447343 0.012986803228480028 0.0010735581359933922 -0.001553936070227432 0.0 0.0
0.0 0.021617262187194775 -0.019171468315368253 0.017993347513106706 0.0011781208022615419 -0.0020696819203640136 0.0 0.0
0.0 0.029179360820127464 -0.025728687011151573 0.024467366746109102 0.001261320265042467 -0.00280667227352808 0.0 0.0
0.0 0.03833284390791439 -0.03365894972429566 0.03234098803658988 0.0013179616877057568 -0.003691732012883497 0.0 0.0
0.0 0.048568550091897186 -0.04251322614560636 0.04117017000967079 0.0013430561359356003 -0.004503347717895975 0.0 0.0
0.0 0.05859080873633094 -0.0511914950566771 0.049879219251971925 0.0013122758047051492 -0.005346114694493893 0.0 0.0
0.0 0.06561145958312006 -0.05713527328877698 0.05605488455789264 0.0010803887308843405 -0.008350059447046646 0.0 0.0
0.0 0.06399794530966936 -0.05509468946115656 0.05451169032577152 0.0005829991353850709 -0.01852259998225283 0.0 0.0
0.0 0.05625656447571055 -0.04672069488154174 0.042056705401737435 0.004663989479804263 5.35682609381638e-15 0.0 0.0
0.0 0.06399794530966724 -0.055094689461153236 0.05451169032576873 0.0005829991353845066 0.01852259998226583 0.0 0.0
0.0 0.06561145958311033 -0.05713527328876806 0.05605488455788378 0.001080388730884287 0.008350059447059657 0.0 0.0
0.0 0.05859080873631652 -0.051191495056664336 0.0498792192519597 0.0013122758047046164 0.005346114694501011 0.0 0.0
0.0 0.048568550091881726 -0.042513226145592754 0.04117017000965766 0.0013430561359351165 0.004503347717898548 0.0 0.0
0.0 0.038332843907900135 -0.03365894972428275 0.03234098803657831 0.0013179616877044185 0.003691732012883552 0.0 0.0
0.0 0.029179360820110994 -0.025728687011136932 0.024467366746095297 0.001261320265041638 0.0028066722735276784 0.0 0.0
0.0 0.021617262187178916 -0.01917146831535405 0.01799334751309368 0.0011781208022603746 0.0020696819203622407 0.0 0.0
0.0 0.016014980360598924 -0.01406036136445736 0.01298680322846461 0.001073558135992747 0.001553936070225853 0.0 0.0
0.0 0.011449519097724223 -0.010234307947209344 0.00928157668808349 0.000952731259125853 0.0012291074273366915 0.0 0.0
0.0 0.008247335159511615 -0.007366689627103859 0.006546165040266049 0.0008205245868378094 0.000982682662355146 0.0 0.0
0.0 0.005719680918080441 -0.005169880694974972 0.004489001065834971 0.0006808796291399995 0.0007539200153448302 0.0 0.0
0.0 0.0037260416993963167 -0.003430605818914607 0.002898405282161378 0.0005322005367532287 0.000535123080487006 0.0 0.0
0.0 0.002205967810233526 -0.0020280219904074553 0.001659405329861834 0.00036861666054562134 0.00033001029291281785 0.0 0.0
0.0 0.0009459914908730672 -0.000940357604558398 0.0007384403754103507 0.00020191722914804724 0.00014257267100339848 0.0 0.0
0.0 0.00033510643167451905 -0.00015013426755466488 0.00010998625055117909 4.0148017003486105e-05 -2.6577284572896558e-05 0.0 0.0
0.0 -5.988457863146212e-06 6.474773207992229e-06 -5.074461719489942e-06 -1.4003114885021e-06 -1.8438478706210804e-06 0.0 0.0
0.0 -3.4962948259329757e-07 -2.5547982010916308e-08 2.0686108601423818e-08 4.86187340948535e-09 3.404425057573326e-08 0.0 0.0
0.0 0.0 0.0 0.0 0.0 0.0 0.0 0.0
0.0 0.0 0.0 0.0 0.0 0.0 0.0 0.0
0.0 0.0 0.0 0.0 0.0 0.0 0.0 0.0
0.0 0.0 0.0 0.0 0.0 0.0 0.0 0.0
0.0 0.0 0.0 0.0 0.0 0.0 0.0 0.0
0.0 0.0 0.0 0.0 0.0 0.0 0.0 0.0
0.0 -2.648122376227234e-06 -3.125903338309129e-07 2.3695961047333237e-07 7.563072335754801e-08 -1.5550598747438445e-07 0.0 0.0
0.0 6.140802228717107e-05 1.049029394363077e-05 -8.843138003624998e-06 -1.6471559400054961e-06 7.437751859987173e-06 0.0 0.0
0.0 0.0005090968546518936 -0.00037411669508422696 0.0002809452662278504 9.317142885637694e-05 4.29246881682112e-05 0.0 0.0
0.0 0.0014145548813943136 -0.0013325910559256401 0.0010652571017013886 0.0002673339542242507 -5.0917731097713416e-05 0.0 0.0
0.0 0.002791397070279091 -0.002587164986038152 0.0021453949926043487 0.0004417699934338024 -0.00013937938613641518 0.0 0.0
0.0 0.004581817618524847 -0.004173106618588618 0.0035716048018762775 0.0006015018167123408 -0.00023392631010841702 0.0 0.0
0.0 0.006802082313072742 -0.006154514470912503 0.005405286050521517 0.000749228420390985 -0.00033777177720399984 0.0 0.0
0.0 0.009674742545114152 -0.008666218169755532 0.007776838490882295 0.0008893796788732341 -0.00043558158495115846 0.0 0.0
0.0 0.01358174085589692 -0.01195242543457696 0.010929794888790974 0.001022630545785982 -0.0005272853348766602 0.0 0.0
0.0 0.018330315351984275 -0.016353085271158897 0.015207016902614803 0.001146068368544091 -0.0006981347565135716 0.0 0.0
0.0 0.0249923123823503 -0.02215370349139812 0.02089888109107721 0.0012548224003209084 -0.0009815453850302138 0.0 0.0
0.0 0.033451265940205276 -0.02951264864865836 0.028172743917632873 0.0013399047310254947 -0.0013845884253025405 0.0 0.0
0.0 0.043550556125166874 -0.03826673030898977 0.03687477328415606 0.0013919570248337022 -0.0018974318183897325 0.0 0.0
0.0 0.054583334083835006 -0.04779095733471521 0.04638584000894333 0.0014051173257718969 -0.002346869306286219 0.0 0.0
0.0 0.06523819121624341 -0.056976468389743684 0.05557852199125894 0.0013979463984847224 -0.0025366745157339586 0.0 0.0
0.0 0.07334361379026144 -0.06398569697401671 0.06265556613142151 0.0013301308425952081 -0.003464031544508213 0.0 0.0
0.0 0.07357237920388814 -0.06368017083166559 0.06316145394895192 0.0005187168827136776 -0.012539630642571362 0.0 0.0
0.0 0.06653480909730183 -0.05557631415451098 0.05076093279331847 0.004815381361192471 3.415670524198333e-15 0.0 0.0
0.0 0.07357237920388304 -0.06368017083166057 0.06316145394894722 0.0005187168827133441 0.012539630642578844 0.0 0.0
0.0 0.07334361379024985 -0.06398569697400644 0.06265556613141143 0.0013301308425949909 0.003464031544515603 0.0 0.0
0.0 0.06523819121622855 -0.05697646838973042 0.05557852199124672 0.001397946398483697 0.0025366745157380413 0.0 0.0
0.0 0.05458333408381802 -0.04779095733470018 0.0463858400089288 0.0014051173257713524 0.0023468693062873415 0.0 0.0
0.0 0.04355055612514901 -0.038266730308973866 0.03687477328414117 0.0013919570248326952 0.0018974318183900534 0.0 0.0
0.0 0.033451265940185944 -0.029512648648641292 0.028172743917616535 0.0013399047310247564 0.0013845884253025865 0.0 0.0
0.0 0.02499231238233091 -0.02215370349138088 0.02089888109106108 0.0012548224003197928 0.0009815453850291816 0.0 0.0
0.0 0.018330315351964048 -0.016353085271141026 0.015207016902597681 0.001146068368543346 0.00069813475651291 0.0 0.0
0.0 0.01358174085587726 -0.011952425434559287 0.010929794888774113 0.0010226305457851678 0.0005272853348756611 0.0 0.0
0.0 0.009674742545096269 -0.008666218169739686 0.00777683849086721 0.0008893796788724753 0.00043558158494967007 0.0 0.0
0.0 0.0068020823130587275 -0.006154514470899401 0.0054052860505094304 0.0007492284203899709 0.00033777177720267434 0.0 0.0
0.0 0.004581817618512899 -0.004173106618577067 0.0035716048018656966 0.0006015018167113684 0.00023392631010742636 0.0 0.0
0.0 0.002791397070270344 -0.0025871649860294207 0.0021453949925967692 0.0004417699934326513 0.0001393793861356546 0.0 0.0
0.0 0.0014145548813882468 -0.0013325910559192579 0.0010652571016960236 0.00026733395422323496 5.0917731096988186e-05 0.0 0.0
0.0 0.0005090968546479583 -0.00037411669508100043 0.00028094526622536386 9.31714288556367e-05 -4.2924688168221746e-05 0.0 0.0
0.0 6.140802228569417e-05 1.0490293943962808e-05 -8.843138003856316e-06 -1.6471559401068248e-06 -7.437751859853551e-06 0.0 0.0
0.0 -2.6481223762910176e-06 -3.125903338328666e-07 2.36959610474324e-07 7.563072335853993e-08 1.5550598746556588e-07 0.0 0.0
0.0 0.0 0.0 0.0 0.0 0.0 0.0 0.0
0.0 0.0 0.0 0.0 0.0 0.0 0.0 0.0
0.0 0.0 0.0 0.0 0.0 0.0 0.0 0.0
0.0 0.0 0.0 0.0 0.0 0.0 0.0 0.0
0.0 0.0 0.0 0.0 0.0 0.0 0.0 0.0
0.0 0.0 0.0 0.0 0.0 0.0 0.0 0.0
0.0 1.6004297711181226e-06 6.953396176498085e-08 2.3531155938533583e-09 -7.188707735865485e-08 -3.3915251981599474e-07 0.0 0.0
0.0 0.00018581968277034576 -3.414085128482281e-05 2.286746756033036e-05 1.1273383724492435e-05 1.7903605509588773e-05 0.0 0.0
0.0 0.0007582429019554835 -0.0005815601136489649 0.0004337127336424977 0.00014784738000646737 8.54663755739415e-05 0.0 0.0
0.0 0.0017827038090992486 -0.0016778560023635392 0.0013273969582385942 0.00035045904412494503 6.80519802136131e-05 0.0 0.0
0.0 0.0032867675717852254 -0.0030538516022181736 0.002504197380839877 0.0005496542213782954 7.024198852660836e-05 0.0 0.0
0.0 0.005198717851111001 -0.004798163109550068 0.004058701678431255 0.0007394614311188074 9.226074773569366e-05 0.0 0.0
0.0 0.007686489451310799 -0.0069820411944747085 0.006055113434168159 0.000926927760306549 0.00011926382457195888 0.0 0.0
0.0 0.010924117850391294 -0.00976268687471781 0.008639818937306245 0.0011228679374115634 0.00019985490631044928 0.0 0.0
0.0 0.014910216258977772 -0.013426659207889794 0.0120939051052921 0.001332754102597699 0.00033468750766426367 0.0 0.0
0.0 0.020376262296478872 -0.018295302364304468 0.016746063008702343 0.001549239355602123 0.0004234982643287479 0.0 0.0
0.0 0.02759530996624378 -0.024662426484360383 0.022890627533867274 0.0017717989504930874 0.0005082371402753832 0.0 0.0
0.0 0.03673453024373883 -0.03267001426993608 0.030687055648501275 0.00198295862143476 0.0004954545794760307 0.0 0.0
0.0 0.047566848093767274 -0.04208098532922869 0.03992296055532739 0.002158024773901334 0.00033715998629406906 0.0 0.0
0.0 0.059169145220324716 -0.05212220494969325 0.04985691388754518 0.0022652910621480385 6.723426956470324e-05 0.0 0.0
0.0 0.070020840775344 -0.06147803262348955 0.05921213626516645 0.002265896358323102 -0.00019462843823151756 0.0 0.0
0.0 0.0783065993058695 -0.06868930878904092 0.06644932090180977 0.002239987887231103 -0.00037478587584064034 0.0 0.0
0.0 0.08075829065839096 -0.0711528158457908 0.06917793468632304 0.001974881159467769 -0.00825293779424511 0.0 0.0
0.0 0.07716199191278285 -0.06525320763249788 0.058150150985368076 0.007103056647129767 1.9914625504213745e-15 0.0 0.0
0.0 0.08075829065838362 -0.07115281584578441 0.06917793468631668 0.0019748811594677267 0.008252937794248693 0.0 0.0
0.0 0.0783065993058552 -0.06868930878902846 0.0664493209017978 0.002239987887230699 0.000374785875844344 0.0 0.0
0.0 0.07002084077532891 -0.061478032623475815 0.05921213626515427 0.002265896358321553 0.000194628438233398 0.0 0.0
0.0 0.059169145220305114 -0.052122204949675975 0.04985691388752857 0.002265291062147387 -6.723426956462691e-05 0.0 0.0
0.0 0.047566848093746894 -0.04208098532921044 0.03992296055531032 0.002158024773900097 -0.00033715998629408727 0.0 0.0
0.0 0.03673453024371683 -0.03267001426991675 0.03068705564848253 0.001982958621434196 -0.0004954545794759874 0.0 0.0
0.0 0.027595309966222337 -0.024662426484341256 0.022890627533849534 0.001771798950491728 -0.0005082371402761448 0.0 0.0
0.0 0.020376262296457105 -0.018295302364285115 0.016746063008684014 0.001549239355601105 -0.0004234982643288284 0.0 0.0
0.0 0.014910216258955333 -0.013426659207869823 0.012093905105273249 0.0013327541025965736 -0.0003346875076645837 0.0 0.0
0.0 0.01092411785037217 -0.00976268687470063 0.008639818937290024 0.0011228679374106062 -0.0001998549063105691 0.0 0.0
0.0 0.007686489451294977 -0.006982041194460718 0.006055113434155232 0.0009269277603054792 -0.00011926382457228837 0.0 0.0
0.0 0.005198717851097274 -0.004798163109537363 0.0040587016784197 0.0007394614311176624 -9.226074773613043e-05 0.0 0.0
0.0 0.0032867675717760374 -0.0030538516022091578 0.0025041973808322283 0.0005496542213769273 -7.024198852659545e-05 0.0 0.0
0.0 0.001782703809091996 -0.0016778560023560222 0.0013273969582323051 0.000350459044123717 -6.805198021374382e-05 0.0 0.0
0.0 0.000758242901951186 -0.0005815601136451577 0.0004337127336395765 0.00014784738000558141 -8.546637557367838e-05 0.0 0.0
0.0 0.00018581968276850405 -3.414085128400919e-05 2.286746755976451e-05 1.127338372424513e-05 -1.7903605509337743e-05 0.0 0.0
0.0 1.6004297705406918e-06 6.953396168526615e-08 2.3531156513319553e-09 -7.188707733667413e-08 3.391525198128718e-07 0.0 0.0
0.0 0.0 0.0 0.0 0.0 0.0 0.0 0.0
0.0 0.0 0.0 0.0 0.0 0.0 0.0 0.0
0.0 0.0 0.0 0.0 0.0 0.0 0.0 0.0
SCALARS Wm float 4
LOOKUP_TABLE default
7.179267827888111 1.8470111607845365 2.457048608762823 2.875208058340748
2.6879107320480946 1.465005922233491 0.4915520153686554 0.7313527944459495
0.393772818393807 0.404490903479161 -0.0031652747410574585 -0.007552810344296437
0.38686584321466555 0.3902524034512166 -0.0004873687015177926 -0.002899191535033343
0.5937205564606456 0.5681791570646884 0.010641631513478092 0.014899767882478925
1.0060902858035137 0.6964864408935555 0.08858073512752425 0.22102310978243445
1.7219065406139067 0.8996774297459881 0.29299327204357734 0.5292358388243414
2.7085984213984897 1.1098434110680762 0.6230629515501855 0.9756920587802287
4.018143975907916 1.3530044845680809 1.1125118532209222 1.5526276381189117
5.752405997501073 1.6551359894086501 1.8143956188808454 2.2828743892115773
8.077043753639511 2.051028047856306 2.8083355574862523 3.2176801482969517
11.192197770618598 2.571898056354788 4.164181038461273 4.45611867580254
15.506691816966981 3.2293964544519835 6.16405144981346 6.1132439127015274
21.334325974716975 4.035808623730551 9.00738299147763 8.291134359508794
28.865892685156993 4.938675444625981 12.890665528538149 11.036551711992852
37.998068519066365 5.824698308400956 17.87530892556525 14.298061285100177
48.13324194923954 6.526286262451642 23.69760622996299 17.90934945682489
58.2210391361585 6.893081946050767 29.811924312636066 21.5160328774717
66.99530997054188 6.917257247186274 35.394634702060756 24.683418021294848
73.0504153416435 6.676258469256398 39.40215107555687 26.972005796830214
75.13039940774566 6.351533705649232 40.91001761191645 27.86884809018001
73.05041534163819 6.676258469254701 39.40215107555453 26.972005796828956
66.99530997052953 6.917257247183004 35.39463470205498 24.68341802129154
58.22103913614464 6.8930819460520345 29.81192431262653 21.516032877466102
48.13324194921815 6.5262862624445175 23.69760622995416 17.909349456819484
37.998068519048275 5.824698308397384 17.875308925556386 14.298061285094512
28.865892685142427 4.938675444626645 12.890665528529137 11.036551711986625
21.334325974698594 4.035808623725201 9.007382991470125 8.291134359503276
15.506691816949889 3.2293964544491756 6.164051449805512 6.1132439126952045
11.192197770603144 2.571898056352679 4.1641810384541005 4.456118675796365
8.077043753626102 2.051028047853915 2.8083355574805653 3.2176801482916226
5.752405997490091 1.6551359894057782 1.8143956188768047 2.282874389207507
4.018143975899671 1.353004484566644 1.1125118532177507 1.5526276381152777
2.7085984213923435 1.1098434110672006 0.623062951547916 0.9756920587772268
1.7219065406097975 0.8996774297455024 0.2929932720422308 0.5292358388220649
1.006090285801135 0.6964864408930092 0.08858073512714061 0.22102310978098502
0.5937205564595188 0.5681791570638698 0.01064163151337177 0.014899767882277287
0.38686584321430273 0.39025240345081913 -0.0004873687015116937 -0.002899191535004801
0.39377281839346245 0.40449090347867744 -0.003165274741016582 -0.007552810344198415
2.687910732046074 1.4650059222339982 0.49155201536757176 0.7313527944445029
7.179267827871941 1.8470111607758604 2.457048608759001 2.8752080583370825
7.980852256403861 3.857636756995748 1.82765052418945 2.2955649752186655
0.8099799830513019 0.24315348884971738 0.19623989003519612 0.37058660416638894
0.19904663621948762 0.1981925083036405 0.0003462457282937904 0.0005078821875532634
0.3155155570216294 0.31575436586303973 -9.213948674856948e-06 -0.00022959489273551763
0.4671031190721072 0.4624408099985203 0.0012119069036033592 0.0034504021699834683
0.821894778119347 0.6390249726539668 0.05601283946725081 0.12685696599812962
1.4260856636486046 0.7833829064668546 0.21873229544800243 0.42397046173374703
2.2952691191712713 0.9552143221186267 0.5097263295477336 0.8303284675049105
3.4409829145492172 1.1366141302095234 0.9466509029002971 1.3577178814393978
4.923860601596275 1.343470988861319 1.5570189598971635 2.0233706528377917
6.886665004989572 1.5920864383365876 2.4202080413778195 2.8743705252751655
9.583837698150514 1.9009327426920728 3.688628100440733 3.994276855017708
13.185008221661016 2.274942557181319 5.403808050233067 5.506257614246633
18.18799298377543 2.7167075453443874 7.9636233934983665 7.507662044932681
24.7213835371824 3.1969108276855374 11.465117809887108 10.05935489960976
32.714421171934944 3.635816695250748 15.966585608769869 13.11201886791433
41.68633158066747 3.9254104953527906 21.29040803456846 16.4705130507462
50.74743349620542 3.990595597180173 26.916109447726903 19.840728451298354
58.72189011145473 3.829739004619025 32.071674074167134 22.820477032668567
64.3209685465723 3.500870813276207 35.87358877358425 24.946508959711828
66.35476688429227 3.1999773293518334 37.38294867872675 25.77184087621369
64.32096854656783 3.500870813274726 35.873588773582306 24.94650895971078
58.72189011144584 3.8297390046184243 32.071674074161855 22.82047703266555
50.74743349619201 3.9905955971794884 26.91610944771893 19.840728451293604
41.6863315806537 3.925410495352119 21.290408034560365 16.470513050741193
32.7144211719206 3.635816695249331 15.966585608762045 13.112018867909233
24.721383537168855 3.196910827685654 11.465117809879079 10.059354899604127
18.18799298376083 2.71670754534156 7.963623393491639 7.507662044927635
13.185008221647006 2.2749425571801853 5.403808050225977 5.50625761424085
9.583837698137122 1.900932742690483 3.688628100434499 3.9942768550121395
6.886665004977761 1.5920864383347217 2.4202080413727503 2.87437052527029
4.9238606015872195 1.343470988859754 1.557018959893563 2.023370652833901
3.440982914542116 1.1366141302083568 0.9466509028976328 1.3577178814361253
2.295269119165838 0.9552143221178294 0.5097263295457837 0.8303284675022249
1.4260856636448815 0.7833829064659543 0.21873229544706127 0.4239704617318657
0.8218947781172634 0.6390249726532218 0.056012839466754505 0.12685696599728724
0.4671031190713046 0.46244080999785436 0.0012119069035617385 0.0034504021698884136
0.3155155570213309 0.31575436586272676 -9.21394867310587e-06 -0.00022959489272272572
0.1990466362194941 0.19819250830366053 0.000346245728289151 0.0005078821875443368
0.809979983049493 0.24315348884991791 0.19623989003434075 0.3705866041652346
7.980852256387896 3.857636756987368 1.8276505241856966 2.295564975214831
5.832144966170565 3.0304395976825713 1.173830025838286 1.627875342649709
0.43412369318945115 0.08184110192837317 0.11164767643742593 0.24063491482365212
0.12268571054244087 0.12268571054244087 0.0 0.0
0.2380643530233604 0.23810938835793086 4.972657565018636e-06 -5.0007992135306064e-05
0.3737435902740791 0.378789144474573 -0.0012203498810808041 -0.003825204319413138
0.6477803089494902 0.5726708211470886 0.023043148709386414 0.052066339093015224
1.1498386677344787 0.712483301678092 0.13765276065626433 0.2997026054001225
1.9096907369523128 0.883275866196682 0.37478669657815494 0.6516281741774762
2.903474460769299 1.0543653773828532 0.7331244517985686 1.1159846315878774
4.197023008295306 1.2452278431295114 1.2526359897115529 1.6991591754542426
5.8883117851267714 1.4684827987635487 1.978704273990815 2.441124712372405
8.149242320716741 1.7371203524021497 2.993448652221086 3.4186733160935034
11.346406110376124 2.0719394309855548 4.543656739445413 4.73080993994516
15.613596679028973 2.463573087731288 6.6489654723837 6.501058118913984
21.336493166326527 2.8860416656878694 9.675680192615454 8.774771308023203
28.386615868588166 3.280320373224712 13.586851443582837 11.519444051780612
36.3598468749954 3.56357959647624 18.215172124999466 14.5810951535197
44.476641333430535 3.6622101819965547 23.161466234564458 17.652964916869514
51.67554757840645 3.5403522445630147 27.760563024648636 20.374632309194805
56.771151244456696 3.2738620153634397 31.178117085901178 22.319172143192077
58.599875254321375 2.9363701582399733 32.556319551981964 23.107185544099462
56.77115124445426 3.273862015363636 31.178117085899515 22.31917214319111
51.67554757839772 3.5403522445610727 27.760563024644355 20.374632309192297
44.476641333419714 3.662210181995433 23.161466234558567 17.652964916865713
36.35984687498047 3.5635795964713517 18.215172124993277 14.581095153515832
28.386615868576662 3.2803203732246837 13.586851443576 11.519444051775984
21.336493166313527 2.8860416656860863 9.675680192608962 8.77477130801848
15.613596679016549 2.4635730877296473 6.6489654723776495 6.501058118909247
11.34640611036392 2.07193943098472 4.543656739439284 4.730809939939915
8.149242320705175 1.7371203524005316 2.9934486522159123 3.418673316088733
5.888311785116564 1.4684827987618128 1.9787042739866771 2.4411247123680724
4.197023008287551 1.2452278431285453 1.2526359897083974 1.6991591754506088
2.9034744607629395 1.0543653773813304 0.7331244517964562 1.115984631585152
1.9096907369475338 0.8832758661955981 0.37478669657675756 0.6516281741751783
1.1498386677314048 0.7124833016771721 0.1376527606555601 0.29970260539867244
0.6477803089479097 0.5726708211463135 0.023043148709133158 0.05206633909246303
0.37374359027356924 0.37878914447398737 -0.0012203498810620847 -0.0038252043193559675
0.23806435302315526 0.238109388357715 4.972657566118465e-06 -5.000799212590402e-05
0.1226857105423627 0.1226857105423627 0.0 0.0
0.434123693187846 0.08184110192874808 0.11164767643667695 0.24063491482242103
5.83214496615695 3.0304395976762293 1.1738300258348617 1.6278753426458594
4.297240229874867 2.3589972980836635 0.7700699841095883 1.168172947681616
0.2602292578839839 0.06335440429015918 0.05266464225795219 0.14421021133587247
0.08611603714924045 0.08611603714924045 0.0 0.0
0.17532123464699975 0.17528309257710115 2.7627074005435927e-06 3.537936249807941e-05
0.30154279471112777 0.30257828190374797 -0.00011914544998573884 -0.0009163417426344401
0.49750622916186993 0.48410819810771444 0.0029680867884562248 0.010429944265699247
0.9046371251578045 0.6594770177441018 0.07464175846968392 0.17051834894401868
1.5387045190950375 0.8059564342298883 0.25364389965798284 0.4791041852071665
2.3956000496946555 0.9682769798327443 0.545570631125325 0.8817524387365855
3.497790667096555 1.1432567195853727 0.9691943534643158 1.3853395940468658
4.915084015171048 1.3400398041583175 1.551290775822453 2.0237534351902755
6.844104144361677 1.5789153593847272 2.4068640182411274 2.8583247667358234
9.463472400699626 1.8667598528296265 3.609215289054174 3.9874972588158237
13.20226806665347 2.2107660053504596 5.481867034071593 5.509635027231418
18.085225374862077 2.5831950726032655 7.999001552068169 7.503028750190642
24.14224247188954 2.935803701515625 11.272194842889126 9.934243927484793
31.150515138538072 3.2113846984749235 15.283311653546601 12.655818786516548
38.356866373656686 3.341117441768878 19.580537214921893 15.435211716965913
44.82112182900946 3.2742861212408685 23.60675659755618 17.9400791102124
49.464800505549526 3.0559167942137018 26.63889774131781 19.769985970018013
51.141536824758674 2.658473971774803 27.959166453817943 20.52389639916592
49.464800505548254 3.055916794216204 26.638897741315457 19.76998597001658
44.82112182900437 3.274286121241909 23.60675659755237 17.940079110210096
38.356866373649076 3.341117441769723 19.580537214916728 15.43521171696263
31.150515138530142 3.2113846984751495 15.283311653541702 12.655818786513295
24.1422424718782 2.935803701514295 11.272194842883227 9.934243927480669
18.085225374850395 2.5831950726002417 7.999001552063227 7.503028750186924
13.202268066641853 2.2107660053473346 5.48186703406693 5.50963502722759
9.463472400688596 1.8667598528279832 3.609215289049211 3.987497258811402
6.84410414435212 1.5789153593836036 2.4068640182369156 2.8583247667316
4.91508401516249 1.3400398041571389 1.5512907758189314 2.023753435186421
3.4977906670897934 1.1432567195844403 0.9691943534616512 1.3853395940437012
2.3956000496893854 0.9682769798316879 0.5455706311236226 0.8817524387340749
1.5387045190910378 0.8059564342288161 0.25364389965685735 0.4791041852053643
0.9046371251552476 0.6594770177433542 0.07464175846903905 0.1705183489428547
0.49750622916074944 0.48410819810692696 0.0029680867883554295 0.010429944265466793
0.3015427947107429 0.30257828190332614 -0.00011914544998114373 -0.0009163417426020165
0.17532123464678315 0.17528309257688884 2.762707400191475e-06 3.537936249407968e-05
0.08611603714911681 0.08611603714911681 0.0 0.0
0.2602292578826147 0.06335440429037797 0.05266464225738955 0.14421021133484704
4.2972402298641 2.358997298078638 0.7700699841070904 1.1681729476783722
3.1071837240466 1.8122432464357834 0.47802839885699056 0.8169120787538268
0.20456709189589062 0.11155211191331654 0.030389384341455758 0.06262559564111811
0.07739914594340624 0.07739914594340624 0.0 0.0
0.13417398855866586 0.13417953118041087 -4.2444358083469244e-07 -5.118178164171906e-06
0.24238443403393678 0.2420055351678374 6.423781793030758e-05 0.00031466104816899856
0.38865570589027865 0.3973998580780457 -0.0024146144843133262 -0.006329537703453673
0.6856247807150726 0.5852793538516007 0.032985772178763084 0.06735965468470896
1.187967322091997 0.724441690432041 0.1493438476095859 0.31418178405037017
1.9080443997415046 0.8757086048609495 0.3764919309727386 0.6558438639078169
2.824637144255577 1.0346492779126826 0.7066246742695312 1.0833631920733628
4.005280333410254 1.2108911395681146 1.174026744142048 1.6203624497000904
5.583241200978312 1.4176946890266635 1.847003877444977 2.318542634506672
7.786857824595163 1.6691396067291258 2.8561723912650887 3.261545826600952
10.778213152665348 1.962022657846273 4.2630875548194345 4.553102939999641
14.908234739461573 2.281469635503988 6.375162260117059 6.251602843840534
20.110386635869997 2.5990525612692874 9.162837738508596 8.348496336092111
26.066726797219275 2.868294980203789 12.4596913039318 10.73874051308369
32.35078183615851 3.0273162596197567 16.119461621557964 13.204003954980788
38.11927961552672 3.019533345311126 19.635029301598262 15.464716968617322
42.39089002618978 2.843509008916027 22.37601785623344 17.17136316104029
43.95512962910663 2.376460520087089 23.636245448813685 17.94242366020586
42.39089002618545 2.843509008914852 22.37601785623146 17.171363161039125
38.11927961552162 3.019533345311988 19.635029301594614 15.464716968615013
32.35078183615046 3.0273162596188237 16.11946162155364 13.204003954978003
26.066726797209768 2.868294980202243 12.45969130392707 10.738740513080447
20.110386635861367 2.599052561268911 9.162837738503846 8.348496336088612
14.908234739453523 2.2814696355037527 6.375162260112702 6.25160284383707
10.778213152656761 1.962022657844407 4.2630875548158444 4.553102939996512
7.786857824586784 1.6691396067282283 2.856172391261264 3.261545826597289
5.583241200970011 1.4176946890252662 1.8470038774416027 2.3185426345031415
4.005280333402959 1.2108911395668684 1.1740267441392132 1.620362449696876
2.8246371442501332 1.0346492779123393 0.7066246742673048 1.083363192070489
1.9080443997367307 0.8757086048600347 0.37649193097118255 0.6558438639055132
1.187967322088817 0.7244416904312578 0.14934384760872124 0.3141817840488381
0.6856247807130494 0.5852793538506011 0.032985772178402394 0.06735965468404606
0.3886557058895287 0.3973998580772091 -0.002414614484288793 -0.006329537703391686
0.2423844340335925 0.2420055351674803 6.423781793118269e-05 0.0003146610481809954
0.13417398855846427 0.13417953118020878 -4.244435807886028e-07 -5.118178163727152e-06
0.07739914594321051 0.07739914594321051 0.0 0.0
0.20456709189472289 0.11155211191329345 0.030389384340992323 0.06262559564043704
3.1071837240384266 1.8122432464320612 0.47802839885516557 0.8169120787512008
2.2046540207491163 1.3939406544149147 0.28047880465522385 0.5302345616789779
0.1605994470883881 0.14214416797129512 0.0002909431144667114 0.01816433600262638
0.08689303073197752 0.08689303073197752 0.0 0.0
0.11346488464437579 0.11346488464437579 0.0 0.0
0.19676216746532635 0.19666767772066526 8.906198487426528e-06 8.558354617364152e-05
0.30919462879884013 0.3127609990810294 -0.0007909914437721892 -0.002775378838417001
0.49848108127636076 0.47463256185803937 0.003625611569880759 0.02022290784844056
0.8876438392411015 0.6543605475034321 0.08116385736167134 0.152119434375998
1.4314059853012042 0.7670448037850007 0.22276734130464343 0.44159384021156034
2.1912331157495046 0.9210810110899028 0.4772472749566009 0.7929048297030005
3.1382913457224473 1.0758041056081835 0.830089997295404 1.2323972428188592
4.3894434634419826 1.2533281017397417 1.3358387830001806 1.8002765787020618
6.119168694161132 1.467076245777459 2.086849238487709 2.5652432098959634
8.571566443982292 1.7163407668863093 3.2363688929401975 3.618856784155785
11.873079403420192 1.9928603280783497 4.852018526271982 5.0282005490698545
16.079105517381034 2.26658606774758 7.02240110576006 6.790118343873395
21.161053808170347 2.521362800083352 9.826747394968422 8.812943613118573
26.499664474110542 2.7150726635823554 12.823606152005217 10.960985658522967
31.520139344840615 2.769117757528742 15.76074718358198 12.990274403729883
35.46950082692626 2.63638745909716 18.250062376680916 14.58305099114818
36.95729764838726 2.093755986412148 19.49249930825875 15.37104235371637
35.469500826924154 2.636387459096559 18.250062376679985 14.583050991147608
31.520139344835798 2.7691177575281363 15.76074718357943 12.990274403728232
26.499664474104954 2.7150726635824847 12.823606152001812 10.960985658520665
21.16105380816296 2.5213628000821258 9.826747394964842 8.812943613115996
16.07910551737376 2.266586067747323 7.022401105756124 6.790118343870311
11.873079403412344 1.992860328077284 4.852018526268284 5.028200549066776
8.57156644397596 1.7163407668862327 3.236368892936958 3.6188567841527703
6.119168694153753 1.4670762457759463 2.0868492384847848 2.5652432098930227
4.389443463435904 1.2533281017394786 1.3358387829974399 1.800276578698986
3.1382913457168353 1.075804105607433 0.8300899972932327 1.2323972428161687
2.191233115744806 0.9210810110894769 0.47724727495479735 0.7929048297005324
1.4314059852976564 0.767044803784245 0.22276734130362677 0.44159384020978454
0.8876438392385755 0.6543605475027653 0.08116385736096568 0.15211943437484438
0.49848108127515567 0.47463256185705677 0.003625611569811785 0.020222907848286988
0.3091946287983027 0.3127609990804197 -0.0007909914437589279 -0.0027753788383580967
0.19676216746488248 0.1966676777202306 8.906198486428142e-06 8.558354616546122e-05
0.11346488464415404 0.11346488464415404 0.0 0.0
0.08689303073174245 0.08689303073174245 0.0 0.0
0.16059944708741972 0.1421441679710366 0.0002909431142033652 0.01816433600217988
2.2046540207432304 1.3939406544122157 0.2804788046540581 0.5302345616769572
1.5081750759470887 1.0541612788793482 0.1393103137737184 0.3147034832940221
0.1500840850754165 0.17404903770696634 -0.009304383297490153 -0.01466056933405973
0.10546615253635801 0.10546615253635801 0.0 0.0
0.10895563555926435 0.10895563555926435 0.0 0.0
0.16529411745710829 0.16520797460739686 7.828390201934371e-06 7.831445950952713e-05
0.2491034250074574 0.2502838612791458 -0.00013860098485697468 -0.0010418352868314057
0.3725485988296944 0.3856089125202424 -0.003905351530764436 -0.009154962159783646
0.6029021152699536 0.5239003469591283 0.017468356671410824 0.061533411639414656
1.0368414901378367 0.6875369334903838 0.12503309080360542 0.2242714658438474
1.5762648175697183 0.7898598047449814 0.2701873976391456 0.5162176151855915
2.324717280970532 0.9338146662504259 0.5292486822069473 0.8616539325131576
3.2808828927550127 1.0849751665136225 0.8924443746299311 1.3034633516114598
4.586961310635766 1.263529529910305 1.426144300038305 1.8972874806871565
6.434545752110499 1.471084960565607 2.2432832337544832 2.720177557790408
8.97560873836368 1.7004815538083478 3.438427845572344 3.836699338982991
12.360160423334394 1.9462045224911002 5.16053410483223 5.253421796011063
16.257182549805158 2.177253684893707 7.1558015346233015 6.9241273302881465
20.712276221835527 2.3861976847465565 9.619736176260373 8.70634236082859
25.13414080361381 2.5115537772366516 12.148882638607574 10.473704387769581
28.724756919449298 2.436455694517589 14.31580671583922 11.972494509092492
30.180775623393323 1.8159007927852484 15.565511581925405 12.79936324868267
28.724756919448442 2.4364556945183238 14.315806715838283 11.972494509091831
25.134140803611025 2.511553777236811 12.148882638605805 10.473704387768404
20.71227622183085 2.3861976847468216 9.619736176257481 8.706342360826552
16.25718254979865 2.1772536848920643 7.155801534620559 6.9241273302860264
12.360160423328598 1.9462045224913114 5.160534104828908 5.253421796008378
8.975608738358249 1.7004815538077294 3.4384278455698456 3.8366993389806727
6.434545752105668 1.47108496056601 2.2432832337518493 2.720177557787809
4.586961310630738 1.263529529909627 1.426144300036215 1.8972874806848958
3.2808828927496045 1.0849751665129517 0.892444374627765 1.3034633516088887
2.3247172809659773 0.9338146662498045 0.529248682205255 0.8616539325109182
1.5762648175662695 0.7898598047445409 0.27018739763797417 0.5162176151837544
1.0368414901350171 0.6875369334895941 0.12503309080279287 0.22427146584263022
0.6029021152684046 0.5239003469584869 0.01746835667111422 0.06153341163880362
0.37254859882885155 0.3856089125193121 -0.0039053515307451853 -0.009154962159715395
0.24910342500694377 0.2502838612785857 -0.00013860098484806636 -0.0010418352867938535
0.1652941174567177 0.16520797460701483 7.82839020086291e-06 7.83144595019974e-05
0.10895563555901629 0.10895563555901629 0.0 0.0
0.10546615253604591 0.10546615253604591 0.0 0.0
0.15008408507460808 0.174049037706486 -0.009304383297591264 -0.014660569334286595
1.5081750759430586 1.0541612788775032 0.13931031377299535 0.3147034832925597
1.0300319331479142 0.854693853304169 0.05897882248217601 0.11635925736156898
0.1458315692813303 0.16984517007491065 -0.008292272757892127 -0.0157213280356882
0.12662159799931882 0.12662159799931882 0.0 0.0
0.11552793448889956 0.11552793448889956 0.0 0.0
0.14766622593668927 0.14764381382550912 1.8172994548582708e-06 2.0594811725311177e-05
0.20502622044315347 0.20494904318077165 8.84770007489136e-06 6.832956230694724e-05
0.2830944770594445 0.29062677157186473 -0.0016131207682931058 -0.005919173744127083
0.4123523173933248 0.4054739411125141 -0.0009157167092744147 0.007794092990085123
0.6481437942850115 0.5374101711440514 0.02728318204336103 0.08345044109759896
1.0574078415147934 0.6757135880515803 0.13453694952765569 0.24715730393555763
1.563855682954819 0.7796770528162376 0.2766061027469063 0.5075725273916751
2.2429099492488276 0.9024818503175573 0.5061368678088455 0.8342912311224252
3.1712221176562774 1.0510576091800772 0.8570536107435285 1.2631108977326708
4.473078132597968 1.218572218541854 1.3918962671933592 1.8626096468627544
6.317548278655519 1.4110802188443021 2.220298962701694 2.6861690971095222
8.732826578794127 1.6165020222425324 3.35775144474353 3.7585731118080656
11.777027719158466 1.8329268623447 4.904155079695008 5.039945777118758
15.174726833073919 2.047225948386307 6.64944682344549 6.47805406124212
18.71940345379048 2.2229032801640782 8.540631617710297 7.95586855591611
22.015030089699458 2.230322858052185 10.4602226675145 9.324484564132772
23.490302447308075 1.5392254733892416 11.747269701221668 10.203807272697155
22.015030089699266 2.2303228580536723 10.460222667513502 9.324484564132081
18.719403453788527 2.222903280164682 8.540631617708806 7.955868555915036
15.17472683307031 2.0472259483864255 6.649446823443402 6.478054061240483
11.777027719153597 1.8329268623432564 4.9041550796931235 5.039945777117213
8.732826578789197 1.6165020222420192 3.3577514447411865 3.7585731118059913
6.317548278650797 1.4110802188429348 2.2202989627000047 2.6861690971078573
4.47307813259408 1.218572218541244 1.39189626719176 1.8626096468610764
3.1712221176525426 1.0510576091796082 0.8570536107420519 1.2631108977308825
2.2429099492450626 0.9024818503165891 0.5061368678076509 0.8342912311208219
1.5638556829515498 0.7796770528155775 0.27660610274589736 0.5075725273900747
1.0574078415121342 0.6757135880509851 0.13453694952683237 0.24715730393431656
0.6481437942834187 0.5374101711432776 0.027283182043092165 0.083450441097049
0.41235231739233075 0.4054739411117525 -0.0009157167093255166 0.007794092989903727
0.28309447705883495 0.29062677157113553 -0.0016131207682665645 -0.005919173744034071
0.20502622044271995 0.20494904318032245 8.847700075628524e-06 6.832956232185259e-05
0.14766622593631218 0.14764381382513903 1.817299454299904e-06 2.0594811718880137e-05
0.11552793448855112 0.11552793448855112 0.0 0.0
0.12662159799896466 0.12662159799896466 0.0 0.0
0.14583156928087218 0.1698451700742269 -0.008292272757818155 -0.015721328035536615
1.0300319331451189 0.8546938533028826 0.05897882248164369 0.11635925736059241
0.681585933312648 0.6423996033600365 0.0095634259724703 0.02962290398014162
0.15176532523702232 0.15761150931243764 -0.0013857181095565721 -0.004460465965858762
0.14618997594709282 0.1462906752443836 -8.195463380971078e-06 -9.250383390982974e-05
0.12853042079481822 0.12853042079481822 0.0 0.0
0.141533115238442 0.14152408690109886 2.549862235143415e-07 8.77335111961922e-06
0.17645769164370867 0.17605666093870795 5.71716004888338e-05 0.0003438591045119141
0.2230218888423726 0.22422164858235502 -0.0002202563995557773 -0.000979503340426621
0.2893610300190493 0.303620728731113 -0.003229108881620443 -0.011030589830443352
0.3962624154037573 0.38879178775446 0.00030617657930539024 0.007164451069991877
0.5868463471691089 0.5031027071804531 0.023850910094289916 0.05989272989436577
0.8824392986181459 0.5901463185468709 0.08607231331994115 0.20622066675133355
1.3025142089314163 0.6973891542256987 0.20219650934577152 0.4029285453599457
1.881033936906076 0.8141308881815017 0.39013787203026223 0.6767651766943119
2.6940476813703675 0.9442586064779109 0.6858356455010283 1.0639534293914275
3.857640138160261 1.0964570218987346 1.1566958270562453 1.60448728920528
5.44667513764992 1.2658997110085741 1.855720224449848 2.325055202191498
7.487218920589923 1.463843124159177 2.7987148993947835 3.2246608970359643
9.891707895519668 1.6625662202679368 3.951531237412048 4.277610437839681
12.62549628170522 1.8748583221262711 5.313821610389778 5.4368163491891695
15.546079232458068 2.0075459082857545 6.893173562760117 6.6453597614121955
17.008717593529852 1.27784180837095 8.08757271426341 7.643303070895487
15.546079232457462 2.007545908285908 6.893173562759682 6.6453597614118705
12.62549628170274 1.8748583221250976 5.313821610389041 5.436816349188602
9.891707895515935 1.6625662202667264 3.95153123741065 4.277610437838557
7.487218920586449 1.4638431241579166 2.7987148993936373 3.2246608970348976
5.446675137647154 1.265899711008549 1.8557202244484772 2.325055202190127
3.857640138157537 1.0964570218975995 1.156695827055473 1.6044872892044655
2.6940476813690997 0.9442586064784964 0.6858356455002269 1.0639534293903767
1.8810339369041655 0.8141308881814522 0.39013787202953826 0.6767651766931754
1.3025142089290034 0.6973891542246963 0.20219650934522151 0.40292854535908573
0.8824392986162378 0.5901463185466113 0.0860723133193488 0.20622066675027764
0.5868463471676677 0.5031027071796838 0.023850910094065904 0.05989272989391795
0.39626241540321255 0.38879178775398837 0.0003061765792873074 0.007164451069936833
0.28936103001843927 0.30362072873051194 -0.003229108881621434 -0.011030589830451255
0.22302188884208196 0.22422164858201 -0.0002202563995439939 -0.0009795033403840565
0.17645769164332878 0.17605666093831143 5.717160048947009e-05 0.00034385910452787254
0.14153311523803172 0.1415240869006955 2.5498622295421426e-07 8.773351113255556e-06
0.1285304207944805 0.1285304207944805 0.0 0.0
0.1461899759467593 0.14629067524403408 -8.195463379370206e-06 -9.250383389538218e-05
0.15176532523680006 0.15761150931213633 -0.0013857181095349549 -0.004460465965801384
0.6815859333109657 0.6423996033587724 0.009563425972328577 0.02962290397986495
0.47048602242327886 0.4779129096493153 -0.0013021402111331785 -0.006124747014903412
0.1540421547227356 0.1530017374088481 0.0001782981402358995 0.0008621191736516315
0.16131368172065141 0.161348107116196 -2.281992438070464e-06 -3.2143403106540925e-05
0.144030522501254 0.144030522501254 0.0 0.0
0.14434119066280218 0.14426926959047925 6.634304785623763e-06 6.528676753730804e-05
0.1627249849440539 0.16280936196865092 -3.60487358258856e-06 -8.07721510144646e-05
0.18906202737526645 0.19004513855376348 -0.00015959606833798804 -0.000823515110159056
0.21677165100674115 0.2209968289008654 -0.0009582525058213329 -0.0032669253883029154
0.2545841292733245 0.2492760443771357 0.0006304302146135664 0.004677654681575398
0.3050642669292484 0.28276629489859717 0.004828353809009039 0.017469618221642228
0.40708647144975857 0.36783363704797384 0.015040451624114 0.024212382777670655
0.5552391189090088 0.4217263090593964 0.036488305406053814 0.09702450444355858
0.7962863549105641 0.5085879684414837 0.08918531054998376 0.1985130759190965
1.1739944198287466 0.6161370487895675 0.190377352312688 0.367480018726491
1.7357128996132798 0.7111128627378867 0.3757296330269916 0.6488704038484014
2.5501418079051246 0.8236818754911014 0.6760136141217694 1.050446318292255
3.687788282328375 0.9822474438150139 1.1278047664125033 1.5777360721008569
5.226323481420096 1.1770721522091652 1.7943226323235584 2.2549286968873714
7.055618787125366 1.365678109166982 2.629214733612424 3.0607259443459593
9.288862889566868 1.6418810657870817 3.6433012763523585 4.003680547427423
11.099335949889252 1.0370009825499837 4.94925967280455 5.113075294534713
9.288862889566383 1.641881065785273 3.6433012763530663 4.003680547428045
7.0556187871257245 1.3656781091674222 2.6292147336123692 3.0607259443459376
5.226323481418792 1.1770721522092524 1.7943226323228376 2.2549286968867017
3.6877882823271393 0.9822474438152304 1.1278047664117787 1.577736072100131
2.5501418079036164 0.8236818754911841 0.6760136141210887 1.050446318291343
1.7357128996130644 0.7111128627382582 0.37572963302677753 0.6488704038480286
1.1739944198271308 0.6161370487884679 0.1903773523124522 0.36748001872621067
0.7962863549096288 0.5085879684415312 0.08918531054961867 0.1985130759184789
0.5552391189081619 0.421726309059101 0.03648830540584583 0.09702450444321513
0.40708647144875626 0.367833637047408 0.015040451623971864 0.024212382777376404
0.3050642669289795 0.28276629489839716 0.004828353809002177 0.017469618221580177
0.25458412927305774 0.24927604437696282 0.0006304302145813654 0.004677654681513605
0.216771651006481 0.22099682890059488 -0.0009582525058163096 -0.0032669253882975165
0.18906202737486827 0.19004513855332617 -0.00015959606833143266 -0.000823515110126485
0.16272498494375146 0.1628093619683289 -3.604873580517767e-06 -8.07721509969055e-05
0.14434119066246254 0.14426926959014702 6.634304784765777e-06 6.528676753071895e-05
0.14403052250091455 0.14403052250091455 0.0 0.0
0.16131368172028163 0.161348107115814 -2.2819924370101156e-06 -3.214340309535219e-05
0.15404215472252275 0.15300173740865547 0.00017829814023238616 0.0008621191736349319
0.47048602242234255 0.47791290964828664 -0.001302140211112756 -0.006124747014831186
0.32336216695081393 0.3230998761109183 3.299210283869165e-05 0.00022929873705692912
0.15047578168396183 0.1504863828119457 -2.3468567167310386e-06 -8.254271267126989e-06
0.17054966103598754 0.1706284582303871 -6.824361895284084e-06 -7.197283250431845e-05
0.15894817036434505 0.15898431744902275 -2.5788110146112936e-06 -3.356827366314893e-05
0.153482182830527 0.15346710851278095 2.0553473429290935e-06 1.3018970403105077e-05
0.16266022248291695 0.16269248126217523 2.19443135302791e-06 -3.445321061137496e-05
0.1795468439867496 0.18075699191899114 -0.00019384675792123414 -0.0010163011743202766
0.1949269094375723 0.19517269731014214 -0.00018361254239485786 -6.217533017494422e-05
0.20473266773589113 0.20700670750682418 -0.0004534063298452486 -0.0018206334410878003
0.2202026169238673 0.2008752035266839 0.004237642928606226 0.015089770468577015
0.24037411426111233 0.20689798819257726 0.010721558407218588 0.02275456766131647
0.2743782504349491 0.19301494990790607 0.021960889798792165 0.05940241072825088
0.31992909814319315 0.18183207548633815 0.0398975541581545 0.09819946849870054
0.3931465959366934 0.17079352711535253 0.07158234883902406 0.15077071998231684
0.5273305855128 0.19066924437352586 0.12149349585087602 0.21516784528839836
0.7490673280028575 0.24009997972633848 0.19257491697591073 0.3163924313006082
1.1086918424362207 0.26566308810241607 0.33043736904149673 0.5125913852923079
1.6747420649067597 0.26401772633363746 0.5733357017915952 0.8373886367815276
2.6021453784828807 0.3819598878487979 0.9494770363965783 1.270708454237505
4.264877887036082 0.8963870300224623 1.4634261477631578 1.905064709250463
6.974165985366632 0.8001329375830614 2.841231887680331 3.3328011601032386
4.264877887039574 0.8963870300236302 1.4634261477643697 1.9050647092515756
2.6021453784816355 0.3819598878475824 0.9494770363965495 1.2707084542375031
1.6747420649057463 0.2640177263339295 0.5733357017910017 0.8373886367808157
1.108691842434482 0.26566308810151695 0.33043736904111 0.5125913852918553
0.7490673280012309 0.2400999797253341 0.1925749169756103 0.31639243130028694
0.5273305855128593 0.1906692443733901 0.12149349585095126 0.21516784528851768
0.39314659593723633 0.17079352711612455 0.071582348838942 0.15077071998216976
0.3199290981425173 0.18183207548629396 0.0398975541579462 0.09819946849827729
0.2743782504346437 0.19301494990797863 0.02196088979876213 0.05940241072790297
0.24037411426073632 0.20689798819253158 0.010721558407080271 0.02275456766112447
0.2202026169237508 0.20087520352662142 0.004237642928594809 0.015089770468534606
0.20473266773592322 0.20700670750685124 -0.00045340632984418815 -0.0018206334410839555
0.1949269094372723 0.19517269730982414 -0.00018361254239323654 -6.217533015863506e-05
0.179546843986394 0.18075699191860678 -0.00019384675791648962 -0.0010163011742962734
0.16266022248251216 0.16269248126175087 2.1944313549771556e-06 -3.445321059367567e-05
0.15348218283017317 0.1534671085124208 2.0553473433322507e-06 1.3018970409013375e-05
0.15894817036402822 0.15898431744869815 -2.5788110138589306e-06 -3.3568273656049957e-05
0.17054966103562674 0.17062845823001724 -6.824361894285506e-06 -7.19728324962014e-05
0.15047578168371908 0.15048638281170856 -2.3468567171188603e-06 -8.25427127238769e-06
0.32336216695019243 0.32309987611027907 3.2992102839009944e-05 0.00022929873707435794
0.21629834188347302 0.21629834188347302 0.0 0.0
0.14037187699713627 0.14037963360515693 -6.416713336762902e-07 -7.114936686946431e-06
0.17322336216574968 0.17317795614504966 3.5521755465659176e-06 4.185384515343439e-05
0.1711889657887253 0.17124478221491227 -4.477284794513158e-06 -5.133914139245427e-05
0.16673977978606608 0.166692245458778 7.508383691118098e-06 4.0025943596957376e-05
0.17510917211216198 0.17494626266532526 2.972100390691209e-05 0.00013318844292978442
0.1941706794850061 0.19592101330111322 -0.00026976986619740894 -0.001480563949909735
0.2178615763598929 0.22246270737469606 -0.0010217846483682714 -0.0035793463664348544
0.25424156557278216 0.248964033878619 0.0006377265031823851 0.004639805190980696
0.3044255174273974 0.28230982526988146 0.004765122570236499 0.01735056958727948
0.4062014768335073 0.36706899476118626 0.014634735224878969 0.02449774684744202
0.5563204632690779 0.4228771066035135 0.03778365072582036 0.09565970593974414
0.7976761988653692 0.5097159239848283 0.0893535143317722 0.19860676054876863
1.1779825291841515 0.6181572498093217 0.19138448575754244 0.36844079361728727
1.7289412005577065 0.7077650216630761 0.37463606041196507 0.6465401184826647
2.460021576300252 0.8024595247966797 0.6489769116178662 1.0085851398857069
3.270249783540687 0.8948809493956518 0.976326215933157 1.3990426182118785
3.9733072092382775 0.9557541753395299 1.3134189964246459 1.7041340374741012
4.255938920873026 0.9678967387740116 1.4664572105248346 1.8215849715741792
3.5528104425184965 0.4957515889186934 1.3921272086486045 1.6649316449511997
7.021970618532793 1.42021895603939 2.5175058252430653 3.0842458372503367
3.5528104425217446 0.4957515889191708 1.392127208649998 1.6649316449525755
4.255938920873013 0.9678967387745385 1.4664572105245932 1.821584971573881
3.973307209237268 0.9557541753392502 1.3134189964242593 1.7041340374737588
3.270249783539824 0.8948809493965975 0.9763262159323203 1.3990426182109064
2.4600215762982245 0.8024595247970978 0.6489769116168242 1.0085851398843024
1.7289412005554814 0.7077650216623388 0.3746360604113452 0.6465401184817969
1.177982529181873 0.61815724980877 0.19138448575683226 0.3684407936162708
0.7976761988636029 0.5097159239842355 0.08935351433130875 0.19860676054805865
0.5563204632673084 0.42287710660282885 0.03778365072543374 0.09565970593904555
0.4062014768322374 0.3670689947604119 0.014634735224709523 0.02449774684711592
0.30442551742681634 0.2823098252693233 0.00476512257023419 0.017350569587258828
0.2542415655724469 0.2489640338783251 0.0006377265031717954 0.004639805190950091
0.2178615763596244 0.2224627073743945 -0.0010217846483612464 -0.0035793463664088214
0.19417067948456831 0.1959210133006299 -0.00026976986618951 -0.0014805639498720689
0.17510917211171906 0.17494626266486937 2.9721003907639913e-05 0.00013318844294204826
0.16673977978569096 0.16669224545838665 7.508383692202177e-06 4.002594361213402e-05
0.17118896578831863 0.1712447822144848 -4.47728479277181e-06 -5.133914137345498e-05
0.17322336216543036 0.173177956144742 3.552175545517957e-06 4.185384514281073e-05
0.14037187699685916 0.1403796336048786 -6.416713335551483e-07 -7.114936685872767e-06
0.21629834188303426 0.21629834188303426 0.0 0.0
0.1391428786765885 0.1391428786765885 0.0 0.0
0.12474881877646103 0.12474881877646103 0.0 0.0
0.16934817102112773 0.1693249575617503 1.88827716884134e-06 2.1325182208540644e-05
0.17957495891874073 0.17952942528032143 6.741537791932319e-06 3.879210062737888e-05
0.18257328154092445 0.18285019603716685 -2.658144819851299e-05 -0.00025033304804387285
0.19892326999561455 0.19967067021406992 -8.906184876859221e-05 -0.0006583383696868605
0.23178379964329593 0.23164763809639777 -3.357671481793514e-05 0.0001697382617160888
0.29144265873246006 0.30549033742006004 -0.0031704626873502594 -0.01087721600024972
0.3956044088656386 0.388065902902046 0.0003527744322141188 0.007185731531378559
0.5856863354548736 0.5026250762344908 0.023579409206457645 0.059481850013924864
0.8815715523478032 0.5899752259130695 0.08578369907820922 0.2058126273565246
1.3021164752497947 0.6973369862187888 0.20206292510641125 0.40271656392459515
1.8816246729886994 0.8143927761509016 0.3903573312995723 0.6768745655382254
2.697447108941798 0.9449340541384216 0.6872842067594639 1.0652288480439125
3.8561577538692555 1.0937863841742756 1.1578756019188963 1.6044957677760827
5.371539023463859 1.244448265641271 1.8298608098343874 2.2972299479882023
7.101521088603912 1.3849400277043185 2.6390354749057976 3.0775455859937946
8.713494245727368 1.5119039209373168 3.3936986426983164 3.807891682091738
9.688810076127366 1.5633968741484798 3.892633892592822 4.232779309386058
9.095283164891587 1.5924538545319264 3.6323538078354423 3.870475502524216
10.747412988531106 3.1374545181982754 3.6004534278506197 4.009505042482214
9.095283164890118 1.592453854528481 3.632353807836494 3.8704755025251454
9.688810076128318 1.5633968741494004 3.8926338925928414 4.232779309386075
8.713494245723341 1.511903920935116 3.3936986426973066 3.807891682090922
7.101521088597479 1.3849400277018256 2.639035474903745 3.077545585991908
5.371539023460949 1.2444482656421625 1.8298608098325027 2.2972299479862843
3.8561577538663507 1.0937863841744666 1.15787560191742 1.6044957677744651
2.69744710893963 0.9449340541388849 0.6872842067583028 1.0652288480424423
1.881624672985158 0.8143927761504025 0.3903573312983259 0.6768745655364303
1.3021164752467906 0.6973369862184067 0.20206292510541024 0.4027165639229737
0.8815715523447253 0.58997522591236 0.08578369907733724 0.20581262735502798
0.5856863354529758 0.5026250762333118 0.023579409206204906 0.0594818500134594
0.3956044088646341 0.3880659029011988 0.0003527744321822337 0.00718573153125306
0.2914426587319847 0.3054903374195318 -0.0031704626873325335 -0.010877216000214471
0.23178379964275306 0.2316476380958237 -3.3576714812557796e-05 0.00016973826174186435
0.19892326999515492 0.19967067021357887 -8.906184876391693e-05 -0.0006583383696600243
0.1825732815404856 0.18285019603670677 -2.6581448195931356e-05 -0.00025033304802520766
0.17957495891829514 0.1795294252798594 6.741537792735469e-06 3.879210064301524e-05
0.16934817102078786 0.1693249575614172 1.8882771683331395e-06 2.1325182202372398e-05
0.12474881877621462 0.12474881877621462 0.0 0.0
0.13914287867627845 0.13914287867627845 0.0 0.0
0.08562132201969198 0.08562132201969198 0.0 0.0
0.10569908015341362 0.10569908015341362 0.0 0.0
0.1595905126186811 0.15956625004719097 1.7498561799819282e-06 2.251271531009901e-05
0.18389699887100885 0.18396652965520088 -5.218320297134724e-06 -6.431246389493908e-05
0.2002579577669974 0.20034950593581236 -8.726735944573644e-06 -8.282143287035757e-05
0.23247930401199476 0.23120778874129855 0.0002132404735316289 0.0010582747971646304
0.29528167484323886 0.3069477182397484 -0.002395147132146915 -0.009270896264362689
0.4150685686630238 0.40756326618478117 -0.0005351024297565081 0.008040404907999232
0.6472613687867854 0.5371343755913608 0.027071048037450893 0.08305594515797377
1.0563830630881073 0.6756875847068892 0.1344109613951856 0.24628451698603215
1.562677117607854 0.7793896356093452 0.27518835572346045 0.5080991262750487
2.2423361809998354 0.902330260967022 0.5059860416677642 0.8340198783650492
3.169639179346079 1.050879460651338 0.8564265067484361 1.2623332119463044
4.472328235686382 1.2192312278136788 1.391288215074613 1.861808792798089
6.315958859200606 1.4102062713683754 2.2201120839386963 2.6856405038935343
8.68131441750152 1.598131617025346 3.3406840553255956 3.742498745150577
11.502982630924691 1.7704553404502459 4.789145368182523 4.943381922291919
14.189655420820976 1.8824129436672234 6.1905584156532285 6.116684061500525
15.825962526630265 1.8692190069865828 7.116030664415875 6.840712855227812
14.795492616464093 1.7255251903474949 6.622725532428255 6.447241893688338
16.563226869521323 5.005428267889774 5.770829570139338 5.786969031492213
14.795492616467655 1.725525190349495 6.622725532429161 6.447241893688997
15.825962526629187 1.869219006985726 7.1160306644157565 6.840712855227707
14.189655420817008 1.8824129436664587 6.190558415651431 6.116684061499121
11.502982630920503 1.7704553404520735 4.789145368179226 4.9433819222891975
8.681314417495887 1.5981316170248878 3.340684055322881 3.742498745148117
6.315958859196274 1.4102062713683476 2.220112083936538 2.6856405038913875
4.47232823568082 1.2192312278119564 1.3912882150727381 1.8618087927961247
3.1696391793411838 1.050879460650982 0.8564265067463696 1.2623332119438322
2.2423361809946902 0.9023302609659495 0.5059860416660455 0.8340198783626941
1.5626771176040193 0.7793896356090059 0.275188355722149 0.508099126272864
1.0563830630848603 0.6756875847060049 0.13441096139422332 0.24628451698463194
0.6472613687849795 0.5371343755905325 0.027071048037131507 0.08305594515731567
0.4150685686618207 0.40756326618366884 -0.0005351024297939647 0.00804040490794592
0.29528167484261375 0.3069477182389998 -0.0023951471321137664 -0.009270896264272396
0.2324793040115133 0.23120778874080922 0.00021324047353062106 0.0010582747971734493
0.2002579577665828 0.20034950593538212 -8.726735943247965e-06 -8.282143285599838e-05
0.18389699887065125 0.1839665296548286 -5.218320295800297e-06 -6.431246388154042e-05
0.15959051261839968 0.15956625004691521 1.7498561794850677e-06 2.251271530505438e-05
0.10569908015317506 0.10569908015317506 0.0 0.0
0.08562132201952494 0.08562132201952494 0.0 0.0
0.04999107937493538 0.04999107937493538 0.0 0.0
0.08544566813451816 0.08544566813451816 0.0 0.0
0.1453386951894139 0.14533165182121938 4.357477442323356e-07 6.607620450248998e-06
0.18464647511434645 0.1845412747724348 1.211035058837604e-05 9.308999132327743e-05
0.21946057492727306 0.21968257402117317 -1.8858699178954403e-05 -0.00020314039472115635
0.2766698753821836 0.28103243615150897 -0.0007242151123238731 -0.0036383456570015247
0.38333802154170343 0.38979424055832995 -0.0025531134351817046 -0.0039031055814447426
0.6052823924457096 0.5245506646155136 0.018216537556235708 0.0625151902739604
1.0360780255754445 0.6876142468224704 0.12468869925596646 0.22377507949700737
1.5753943492582616 0.7899593597161851 0.2696454651407196 0.515789524401357
2.3246099067097994 0.9338452281243116 0.529401303973498 0.8613633746119892
3.280123843484286 1.0846336048422558 0.8922587983717364 1.3032314402702938
4.5822777394962175 1.2624809545657727 1.4244314808977112 1.895365304032734
6.4242931751195655 1.4708461436530764 2.238322826020301 2.715124205446188
8.966632656095848 1.7026761845021676 3.4325759479208977 3.8313805236727863
12.352233687767463 1.9439170429201287 5.157198411890859 5.251118232956472
16.146381878406356 2.134164764837654 7.117164235506365 6.895052878062336
19.969841789770342 2.200346215649355 9.297005360055854 8.472490214065132
22.25975492331638 2.0549965235157637 10.736495965171788 9.468262434628823
20.788090386037975 1.8000617897899849 10.01834733826351 8.96968125798448
22.850592018729923 6.811407709822165 8.284153548613094 7.755030760294663
20.788090386037414 1.80006178978868 10.018347338263952 8.969681257984783
22.25975492331432 2.0549965235149825 10.736495965171024 9.46826243462832
19.969841789764263 2.2003462156480897 9.29700536005305 8.472490214063127
16.146381878398834 2.134164764837176 7.117164235502406 6.89505287805926
12.352233687760997 1.9439170429204706 5.157198411887128 5.251118232953395
8.966632656090312 1.7026761845017355 3.432575947918235 3.8313805236703407
6.424293175113515 1.47084614365237 2.2383228260176224 2.7151242054435234
4.582277739489716 1.2624809545651932 1.4244314808948606 1.895365304029663
3.280123843477723 1.0846336048415426 0.8922587983691003 1.3032314402670804
2.3246099067038095 0.9338452281227426 0.5294013039715945 0.8613633746094721
1.5753943492539009 0.7899593597153424 0.2696454651393777 0.5157895243991809
1.0360780255720397 0.6876142468213001 0.12468869925505723 0.22377507949568257
0.6052823924436174 0.5245506646145139 0.018216537555873283 0.06251519027323006
0.38333802154067714 0.3897942405571362 -0.002553113435142849 -0.0039031055813161207
0.27666987538158383 0.2810324361508407 -0.000724215112310581 -0.003638345656946375
0.21946057492684637 0.21968257402072597 -1.8858699176254455e-05 -0.00020314039470336486
0.184646475113977 0.18454127477206447 1.2110350588004385e-05 9.30899913244747e-05
0.1453386951891542 0.14533165182096233 4.357477440254346e-07 6.607620447884416e-06
0.0854456681343224 0.0854456681343224 0.0 0.0
0.04999107937485758 0.04999107937485758 0.0 0.0
0.027483444293654683 0.027483444293654683 0.0 0.0
0.06583766937115332 0.06583766937115332 0.0 0.0
0.1283211619683396 0.1283211619683396 0.0 0.0
0.18296983191956764 0.18290574519102476 6.040838194752111e-06 5.804589034815593e-05
0.24087388297302792 0.24036700696574242 9.103507378967376e-05 0.00041584093349584486
0.33076891409653747 0.3399789897203069 -0.0018699892808592064 -0.007340086342910207
0.5074582039922456 0.4797299232979935 0.0049754469182831254 0.022752833775969056
0.8893966191882794 0.6546904543884772 0.08171217346602376 0.15299399133377814
1.4312557745117611 0.7673882181522745 0.22268843786227152 0.44117911849721464
2.1910363688694474 0.921284577834627 0.4770242753976831 0.7927275156371374
3.138484697430469 1.0758678917927975 0.8301350303216475 1.2324817753160244
4.3885233673304525 1.2527766672231855 1.3356563474916714 1.8000903526155951
6.110437269718727 1.4647721552507884 2.083647570261198 2.562017544206739
8.54663335913059 1.7135650087215972 3.224790776523177 3.6082775738858155
11.850363467752343 1.999202909773385 4.836198753653735 5.01496180432522
16.119433703125296 2.2881075204524777 7.0327115462099155 6.7986146364629025
21.22286000331644 2.5060754016648588 9.870941387576188 8.845843214075394
26.006367871680897 2.501854328035018 12.65729588277283 10.847217660873048
28.670786189257203 2.1684815161921875 14.405888063229582 12.09641660983543
26.858698757946467 1.8629642618182778 13.550827907129008 11.444906588999181
29.714596483705204 8.72366758767084 11.196047409015438 9.794881487018923
26.85869875794818 1.8629642618195492 13.550827907129277 11.444906588999356
28.67078618925256 2.1684815161912168 14.405888063227376 12.096416609833973
26.006367871675756 2.501854328035108 12.657295882769725 10.847217660870912
21.222860003308227 2.5060754016655027 9.870941387571044 8.845843214071689
16.119433703116854 2.2881075204515136 7.032711546205697 6.798614636459644
11.850363467743174 1.9992029097715631 4.836198753649737 5.014961804321873
8.54663335912235 1.7135650087205536 3.2247907765194377 3.608277573882359
6.110437269710727 1.4647721552504482 2.0836475702574013 2.562017544202877
4.388523367322626 1.252776667222883 1.3356563474880985 1.8000903526116452
3.138484697423532 1.0758678917917373 0.8301350303190129 1.2324817753127808
2.1910363688638372 0.9212845778338484 0.4770242753956316 0.7927275156343566
1.4312557745076386 0.7673882181514017 0.22268843786108314 0.44117911849515395
0.8893966191852973 0.6546904543872298 0.08171217346535602 0.15299399133271124
0.5074582039907024 0.47972992329696024 0.004975446918133867 0.022752833775608022
0.33076891409579035 0.3399789897194604 -0.0018699892808316909 -0.007340086342838332
0.24087388297248238 0.2403670069651501 9.103507379361352e-05 0.00041584093353868207
0.18296983191924188 0.18290574519070518 6.040838194052553e-06 5.804589034264557e-05
0.12832116196812002 0.12832116196812002 0.0 0.0
0.06583766937107864 0.06583766937107864 0.0 0.0
0.027483444293592736 0.027483444293592736 0.0 0.0
0.014201877480439527 0.014201877480439527 0.0 0.0
0.04830872942230707 0.04830872942230707 0.0 0.0
0.11044298319338716 0.11044298319338716 0.0 0.0
0.18077711299170626 0.18071428331982323 5.622717784753524e-06 5.720695409827208e-05
0.2660829988947084 0.2670418744527092 -0.00012021369001975062 -0.0008386618679810833
0.39811154437136687 0.3960136246008073 -0.0005244274436184663 0.002622347214178184
0.689960756371552 0.5877995978349336 0.03409424552678656 0.06806691300983182
1.189065261904494 0.7246207736365052 0.1495257514963445 0.3149187367716443
1.9089334587903004 0.8761199053946035 0.3768965932122206 0.6559169601834764
2.8252942765992284 1.0349184719057112 0.7068166143347747 1.0835591903587427
4.005848921949748 1.2109405894861964 1.1742731128356358 1.6206352196279161
5.58174638035793 1.4168752013343475 1.8466780744965783 2.3181931045270034
7.77365988613305 1.6656231527473302 2.851163783557491 3.2568729498282276
10.738797255432619 1.9562787362435554 4.244976603909869 4.537541915279194
14.866189893130189 2.288869364333667 6.347495181655062 6.229825347141463
20.173301042734554 2.642234934354122 9.173899905958365 8.357166202422073
26.25537942630697 2.8876207558018177 12.559415615032442 10.808343055472708
32.04279520645088 2.787749160352841 16.077512797004818 13.177533249093223
35.261906778803436 2.257812633098423 18.353038535798454 14.65105560990656
33.094858742434866 1.894331432745011 17.25869972616615 13.941827583523706
36.96201167143858 10.76384733882645 14.232290115545187 11.965874217066942
33.094858742431796 1.8943314327421032 17.25869972616606 13.941827583523635
35.26190677880013 2.2578126331007873 18.353038535794987 14.651055609904354
32.042795206441085 2.787749160349325 16.077512797001017 13.177533249090743
26.255379426298795 2.8876207558033107 12.559415615026694 10.808343055468796
20.17330104272402 2.642234934352118 9.173899905953448 8.35716620241845
14.86618989312093 2.288869364333541 6.347495181649982 6.22982534713741
10.738797255423494 1.9562787362425862 4.244976603905507 4.5375419152753995
7.773659886123886 1.6656231527471612 2.8511637835528854 3.2568729498238387
5.58174638034858 1.4168752013333763 1.8466780744924958 2.318193104522709
4.0058489219413485 1.210940589485039 1.1742731128322477 1.6206352196240625
2.8252942765927935 1.0349184719050113 0.706816614332263 1.0835591903555195
1.9089334587850493 0.8761199053934909 0.3768965932104882 0.6559169601810699
1.1890652619005746 0.7246207736353015 0.14952575149536834 0.31491873676990434
0.6899607563692574 0.5877995978338437 0.03409424552635653 0.06806691300905715
0.398111544370358 0.3960136245996097 -0.0005244274435909176 0.0026223472143390306
0.26608299889412496 0.2670418744521172 -0.00012021369002081765 -0.0008386618679713323
0.18077711299134497 0.18071428331946993 5.622717783863718e-06 5.720695409117878e-05
0.11044298319316784 0.11044298319316784 0.0 0.0
0.04830872942226527 0.04830872942226527 0.0 0.0
0.014201877480410898 0.014201877480410898 0.0 0.0
0.007016328774174687 0.007016328774174687 0.0 0.0
0.03386241973164858 0.03386241973164858 0.0 0.0
0.0936369978425809 0.0936369978425809 0.0 0.0
0.1805184748354241 0.18049949137962606 1.3006158643001404e-06 1.7682839933716896e-05
0.2967876651755912 0.2978432177063865 -0.00011370742115565586 -0.0009418451096395726
0.4931345333612325 0.4810189858139319 0.0027355919262431506 0.009379955621057461
0.9035524672077451 0.6582473649613432 0.07466723681979635 0.17063786542660536
1.5408285416298162 0.8062770798067788 0.25459113736363637 0.4799603244594021
2.3980393412443477 0.9686905692533826 0.54653977026261 0.8828090017283544
3.499316863863105 1.1435700816269005 0.9697989809752331 1.3859478012609714
4.915765133103185 1.3399728001905582 1.5516756158027258 2.0241167171099015
6.841141322774691 1.5776957519042782 2.4059883303403353 2.857457240530077
9.445882171735768 1.8625320004889283 3.6021330994324923 3.9812170718143474
13.154036499524906 2.203664536860979 5.459145654123605 5.491226308540321
18.02322876188052 2.586595450515238 7.9616658428772835 7.474967468488002
24.17372564150141 2.9791648208706563 11.265420193199567 9.929140627431186
31.344025088810856 3.2590652415691124 15.37128179383423 12.713678053407515
38.10399930998632 3.100580179321813 19.57291739259233 15.430501738072167
41.92430432076145 2.3619418198770674 22.369153400565587 17.193209100318803
39.64029290887867 1.8607705123700695 21.286215561453425 16.493306835055183
44.97828569088044 12.921590705808676 17.780579292089207 14.276115692982563
39.64029290887673 1.8607705123693163 21.28621556145272 16.4933068350547
41.92430432075554 2.3619418198780795 22.36915340056129 17.19320910031616
38.10399930997589 3.1005801793204046 19.572917392586763 15.430501738068731
31.3440250888002 3.2590652415692234 15.371281793827759 12.713678053403207
24.173725641489334 2.979164820867729 11.265420193194188 9.929140627427413
18.02322876186866 2.5865954505133932 7.9616658428715805 7.474967468483684
13.15403649951234 2.2036645368569756 5.4591456541189105 5.491226308536452
9.445882171724145 1.8625320004875952 3.6021330994270495 3.9812170718094997
6.841141322763256 1.577695751902913 2.4059883303352874 2.857457240525057
4.915765133093428 1.3399728001892763 1.5516756157986769 2.024116717105474
3.4993168638552676 1.1435700816256058 0.9697989809722322 1.3859478012574293
2.3980393412383276 0.9686905692521738 0.5465397702606798 0.8828090017254736
1.5408285416252558 0.8062770798060593 0.2545911373622619 0.4799603244569342
0.9035524672047225 0.6582473649601653 0.07466723681912256 0.17063786542543458
0.4931345333599765 0.4810189858129267 0.0027355919261630845 0.00937995562088673
0.2967876651749857 0.2978432177057354 -0.0001137074211506628 -0.0009418451095990761
0.18051847483508232 0.18049949137928936 1.3006158638795505e-06 1.768283992909949e-05
0.0936369978423938 0.0936369978423938 0.0 0.0
0.03386241973159033 0.03386241973159033 0.0 0.0
0.007016328774168967 0.007016328774168967 0.0 0.0
0.00347017519238163 0.00347017519238163 0.0 0.0
0.022974829505470994 0.022974829505470994 0.0 0.0
0.07992731833960866 0.07992731833960866 0.0 0.0
0.1854043430668363 0.1853950145213232 -1.392926486306911e-07 9.4678381617896e-06
0.33743135023399184 0.3400895947981344 -0.0006641910812518528 -0.0019940534828907313
0.6276689315069 0.5614632535397075 0.02034980563467995 0.045855872332512274
1.1458658028665942 0.7110777048114811 0.13600065325521057 0.29878744479990316
1.915137256366266 0.883674177130647 0.3780705933644273 0.6533924858711921
2.9074324956810447 1.0548174523082512 0.7346775155177029 1.1179375278550907
4.199335152777893 1.245533138694439 1.2536649738285457 1.7001370402549083
5.8887260060980084 1.4681803365544348 1.9791002039182053 2.44144546562537
8.143854845415158 1.7354023712632722 2.991557296780707 3.416895177371177
11.324845607254714 2.0677264628364544 4.534259557198327 4.722859587219928
15.5639467366438 2.4573622322359414 6.624596364889637 6.481988139518222
21.26280488242665 2.8837940600577605 9.63432929624036 8.74468152612853
28.328034216837313 3.2919876550692617 13.545310844084657 11.490735717683412
36.33861795329019 3.577216235770899 18.197995683741233 14.563406033778044
44.05704886098736 3.4883783800686627 23.00048025624207 17.568190224676624
48.686061156006964 2.5443159745297903 26.5088987822807 19.63284639919646
46.55224804510138 1.6968145373489225 25.71196934819168 19.14346415956079
53.822365691027265 15.094881960121024 21.860723590643012 16.866760140263235
46.55224804509698 1.6968145373462353 25.71196934819058 19.14346415956016
48.68606115600031 2.544315974530953 26.508898782275807 19.632846399193554
44.057048860975975 3.4883783800687156 23.00048025623499 17.56819022467227
36.33861795327777 3.5772162357703086 18.19799568373399 14.563406033773461
28.328034216822612 3.291987655065146 13.54531084407834 11.490735717679133
21.2628048824129 2.8837940600557723 9.63432929623354 8.744681526123577
15.563946736629001 2.4573622322319926 6.6245963648835495 6.481988139513463
11.324845607241311 2.0677264628349366 4.534259557191924 4.722859587214449
8.143854845402396 1.7354023712619764 2.9915572967747415 3.4168951773656775
5.888726006087046 1.4681803365531336 1.9791002039134662 2.441445465620447
4.199335152769032 1.2455331386930506 1.2536649738250838 1.7001370402508966
2.907432495674044 1.0548174523070775 0.7346775155151979 1.1179375278517687
1.9151372563608486 0.8836741771297306 0.3780705933626176 0.6533924858685003
1.145865802862927 0.7110777048103144 0.1360006532544623 0.29878744479815
0.6276689315051048 0.5614632535388042 0.020349805634396975 0.04585587233190362
0.3374313502333451 0.34008959479733947 -0.000664191081218176 -0.0019940534827762577
0.18540434306652537 0.18539501452101845 -1.392926491735977e-07 9.467838156118176e-06
0.07992731833944955 0.07992731833944955 0.0 0.0
0.02297482950542823 0.02297482950542823 0.0 0.0
0.0034701751923756317 0.0034701751923756317 0.0 0.0
0.001647484683534392 0.001647484683534392 0.0 0.0
0.015445789811625685 0.015445789811625685 0.0 0.0
0.07188881174471341 0.07188881174471341 0.0 0.0
0.1999498040883598 0.19984696643026645 9.7558651427082e-06 9.308179295064185e-05
0.40236500600122527 0.4063942602478054 -0.0010611434660539607 -0.002968110780526231
0.7884953382696211 0.6237337263190275 0.0486780990962075 0.11608351285438642
1.4212954129702793 0.7812238909532723 0.21689446057802403 0.42317706143898304
2.299888975505928 0.9549940960835136 0.5104851546216131 0.834409724800801
3.447663864817204 1.1373371878627827 0.950027164508854 1.3602995124455675
4.926830983227437 1.3437145160358341 1.5584400260676712 2.0246764411239324
6.886360120185035 1.5914566153420295 2.4204189696104272 2.874484535232578
9.575321315223977 1.8987096819364937 3.685306307148892 3.991305326138594
13.160231186403216 2.2713850348444473 5.392115080092716 5.496731071466051
18.14169733249157 2.7129900960817563 7.939363994133513 7.489343242276303
24.642782003570787 3.1886904259214286 11.424106737734327 10.02998483991503
32.54226314157643 3.60071719615708 15.883592723627567 13.057953221791786
41.2266053928014 3.810506501595854 21.073209907651393 16.34288898355415
49.61751495159514 3.772464843941753 26.33921778096492 19.505832326688473
55.518421561406804 3.1256038299170683 30.479270174836618 21.913547556653146
53.86804083173091 1.32306729971366 30.597407349969608 21.947566182047645
63.38750889320734 16.48828034917152 26.9992146433066 19.90001390072922
53.86804083172269 1.3230672997096096 30.597407349966932 21.94756618204614
55.51842156139672 3.1256038299165274 30.479270174830553 21.913547556649647
49.61751495158274 3.7724648439412243 26.339217780957448 19.505832326684057
41.22660539278458 3.8105065015923962 21.0732099076432 16.342888983549003
32.5422631415603 3.600717196154467 15.883592723619392 13.057953221786429
24.64278200355519 3.1886904259199023 11.424106737726055 10.02998483990924
18.141697332475474 2.7129900960791966 7.939363994125792 7.489343242270482
13.160231186387715 2.271385034842469 5.392115080085278 5.496731071459973
9.57532131520888 1.8987096819341809 3.6853063071421275 3.9913053261325713
6.88636012017268 1.5914566153406684 2.4204189696048184 2.8744845352271926
4.926830983217274 1.343714516034126 1.5584400260635956 2.024676441119551
3.4476638648092015 1.137337187861802 0.9500271645056936 1.3602995124417057
2.2998889754998286 0.954994096082272 0.5104851546196126 0.8344097247979436
1.4212954129660462 0.781223890952258 0.2168944605769216 0.42317706143686706
0.7884953382673644 0.6237337263182696 0.04867809909569101 0.11608351285340372
0.40236500600032127 0.40639426024704406 -0.001061143466093108 -0.0029681107806296568
0.19994980408802768 0.19984696642993416 9.755865142070194e-06 9.30817929514431e-05
0.07188881174457633 0.07188881174457633 0.0 0.0
0.015445789811604571 0.015445789811604571 0.0 0.0
0.0016474846835323837 0.0016474846835323837 0.0 0.0
0.00037480757490986484 0.00037480757490986484 0.0 0.0
0.010782767446775974 0.010782767446775974 0.0 0.0
0.07301143705392156 0.07301143705392156 0.0 0.0
0.23238335459752235 0.23238941521663672 1.2501714780865336e-05 -1.8562333895261066e-05
0.5031959268933853 0.4873826095421495 0.005092131290439403 0.010721186060796119
0.9866797869727679 0.7227428316756577 0.0835846898601493 0.1803522654369608
1.7186576037674064 0.8967638188350762 0.2905540457872478 0.531339739145082
2.7193517564128005 1.1113826864717464 0.6277547358041784 0.980214334136876
4.025477478295649 1.3538980556778255 1.1157238893925827 1.5558555332252395
5.755854343670904 1.6553664853212866 1.8160853737044946 2.284402484645121
8.075144342138985 2.049442051253718 2.808215370202865 3.2174869206823997
11.17946594117204 2.567705363908307 4.15958782556227 4.452172751701462
15.479144814879781 3.2256105880857153 6.15079718127058 6.10273704552348
21.292733210876364 4.0354069809319615 8.983676178313834 8.273650051630575
28.769455072432347 4.913953089523012 12.846702671924282 11.008799310985058
37.64024555372161 5.663373722856373 17.753867613799844 14.22300421706541
46.997010246609904 6.004869096920716 23.312394501735888 17.67974664795331
55.414418610198155 5.733894923494605 28.766240554504392 20.914283132199156
61.817368935663744 5.352352472833223 33.077268391828525 23.387748071001976
60.00323211406404 1.4361383983230094 34.36986848440199 24.19722523133903
91.38789042762691 35.976851203726326 32.45926024831346 22.951778975587146
60.00323211405982 1.4361383983248222 34.369868484398125 24.197225231336848
61.8173689356531 5.352352472834393 33.07726839182102 23.387748070997677
55.41441861017758 5.7338949234863685 28.766240554496626 20.914283132194612
46.99701024658917 6.004869096915486 23.31239450172623 17.679746647947425
37.64024555370435 5.663373722854704 17.75386761379032 14.223004217059323
28.769455072415752 4.913953089522659 12.846702671914674 11.008799310978425
21.292733210857747 4.035406980928514 8.983676178305107 8.273650051624125
15.479144814861531 3.2256105880822448 6.1507971812623445 6.102737045516945
11.179465941155446 2.5677053639063425 4.159587825554405 4.4521727516946985
8.07514434212494 2.049442051251683 2.808215370196656 3.217486920676598
5.755854343659714 1.6553664853194316 1.816085373699835 2.2844024846404487
4.025477478286671 1.353898055676776 1.1157238893888848 1.555855533221011
2.719351756405179 1.111382686469255 0.6277547358019726 0.9802143341339513
1.718657603762545 0.8967638188341411 0.2905540457857985 0.5313397391426058
0.9866797869699643 0.7227428316746578 0.08358468985955891 0.18035226543574698
0.5031959268922498 0.48738260954137524 0.005092131290324326 0.010721186060550477
0.23238335459713666 0.23238941521622664 1.250171478375796e-05 -1.8562333873742905e-05
0.07301143705377602 0.07301143705377602 0.0 0.0
0.010782767446749882 0.010782767446749882 0.0 0.0
0.00037480757491202034 0.00037480757491202034 0.0 0.0
CELL_DATA 800
SCALARS Stress float 6
LOOKUP_TABLE default
117.217182290734 -490.5714602929463 -186.54151983567039 -99.60248632117101 0.0 0.0
396.33950418013853 44.25439759228144 133.1719984192549 69.98479681457206 0.0 0.0
359.15271145932013 -8.427632475556695 105.02133769022389 -9.321275072556396 0.0 0.0
421.0820899985206 0.2518214502048335 125.97952138690627 -10.294641389252714 0.0 0.0
488.4969442315195 -8.71651292287641 152.67384206637712 -10.690782673136486 0.0 0.0
552.437859188397 6.813427111556361 207.28891372803307 -8.839420822291242 0.0 0.0
612.2876784071968 18.535486063887703 261.86511770956326 -8.868293113100297 0.0 0.0
671.2722797021673 38.758261395327345 317.58331722048683 -9.433091005005188 0.0 0.0
730.2029235151992 63.78468737978231 371.36719986845014 -9.901845162237162 0.0 0.0
789.6725037793279 91.68326128182308 422.81607130839706 -10.10941580985074 0.0 0.0
849.571782435403 120.03040625855806 471.51432752485806 -10.105970167020418 0.0 0.0
910.240333841502 149.51517390329917 518.9791772446665 -10.03921062709979 0.0 0.0
972.8537273937864 178.69165192172696 565.843254078204 -10.026616412850164 0.0 0.0
1037.8342684024824 208.85689939979508 613.7196184236988 -10.04527974055415 0.0 0.0
1105.7511241256789 242.17371000437845 664.3895641249137 -10.050966344690753 0.0 0.0
1176.155461998158 279.70327691499926 718.3750682973337 -9.819908194807448 0.0 0.0
1246.3222614967594 320.55765598532537 773.9625555949128 -9.072214056564068 0.0 0.0
1311.2351498587266 361.3641418062132 826.918910289535 -7.682964452231745 0.0 0.0
1365.5450098806698 398.1431832116722 872.4869683290995 -6.040654998613464 0.0 0.0
1412.032909501282 435.3893780962055 914.0401026822988 -5.458517554511703 0.0 0.0
1412.0329095010234 435.389378095945 914.0401026821193 5.458517554514288 0.0 0.0
1365.545009880272 398.14318321128906 872.4869683287727 6.040654998637001 0.0 0.0
1311.235149858515 361.3641418060292 826.918910289314 7.68296445224849 0.0 0.0
1246.3222614963793 320.5576559849847 773.9625555945586 9.072214056547521 0.0 0.0
1176.1554619977564 279.70327691464445 718.3750682969988 9.819908194810917 0.0 0.0
1105.751124125689 242.17371000444928 664.3895641248138 10.050966344656175 0.0 0.0
1037.834268402109 208.85689939950197 613.7196184233139 10.045279740643169 0.0 0.0
972.8537273930331 178.69165192106533 565.8432540775503 10.026616412863 0.0 0.0
910.2403338410885 149.51517390301413 518.9791772443048 10.039210627119415 0.0 0.0
849.5717824349417 120.03040625824133 471.5143275244521 10.10597016702201 0.0 0.0
789.6725037787305 91.68326128137149 422.81607130790724 10.109415809793646 0.0 0.0
730.2029235147363 63.784687379477475 371.3671998680553 9.901845162212354 0.0 0.0
671.272279701947 38.758261395303606 317.58331722023183 9.433091005039136 0.0 0.0
612.2876784071627 18.535486064106486 261.86511770942167 8.868293113120401 0.0 0.0
552.4378591882975 6.813427111734526 207.28891372788155 8.839420822288629 0.0 0.0
488.4969442313368 -8.716512922785896 152.67384206627636 10.690782673159182 0.0 0.0
421.0820899983461 0.25182145042728266 125.97952138692503 10.294641389215471 0.0 0.0
359.1527114592765 -8.427632475345286 105.02133769027773 9.32127507255858 0.0 0.0
396.33950418003957 44.25439759228962 133.1719984192138 -69.98479681447229 0.0 0.0
117.21718229131137 -490.5714602923821 -186.54151983512122 99.6024863208326 0.0 0.0
30.509799910542 -515.6112601859951 -228.97040624086623 -137.56199492095655 0.0 0.0
230.8365042112634 39.94913447404805 81.23569160559342 20.404800856841888 0.0 0.0
319.3711294178971 12.56600982111382 99.58114177170329 -8.72984113359232 0.0 0.0
376.23685586884363 0.06122175515128728 112.7063697159281 -30.17200235978764 0.0 0.0
457.5899146935273 -9.59311981613558 136.16360579042254 -30.405194596631667 0.0 0.0
524.4776017990303 3.7918718149414072 185.9747491975961 -26.8951769903367 0.0 0.0
589.5854986215901 15.310031349038045 241.24367297009044 -27.053852589469912 0.0 0.0
649.0788214323586 33.68971715201079 296.98637317036923 -27.529171309244326 0.0 0.0
706.4262630557708 56.441652527728365 350.3432741745154 -27.895482564228857 0.0 0.0
763.3900030473052 81.83425567192552 400.8183135152243 -27.818078782043614 0.0 0.0
820.4821351008659 107.96324258571306 448.3489157161848 -27.297671127774567 0.0 0.0
878.4062185209848 133.57406944210413 493.4612994537185 -26.61858941217668 0.0 0.0
936.9646977224561 159.6018833340808 537.3048421961266 -26.05426077904783 0.0 0.0
998.0279847564615 186.44797534078413 581.8308147559324 -25.75912657523171 0.0 0.0
1061.9437786134486 215.95100261323927 628.7410552015269 -25.541515725014676 0.0 0.0
1127.783754493091 249.14590521129816 678.3405740574111 -24.859668041324774 0.0 0.0
1193.1806703396294 285.27127743741215 729.163381529277 -23.084239915699207 0.0 0.0
1254.3312361807123 322.10214825123643 778.2042506064618 -19.99903273833224 0.0 0.0
1308.7705232080682 358.77758503517157 823.7172459591138 -16.04005304025513 0.0 0.0
1345.2379387333688 385.3783427775035 855.1827259969011 -10.143047246751216 0.0 0.0
1345.237938733321 385.37834277745844 855.1827259968285 10.143047246745647 0.0 0.0
1308.7705232077533 358.77758503487155 823.7172459588426 16.04005304032739 0.0 0.0
1254.331236180446 322.1021482510015 778.2042506062099 19.999032738368918 0.0 0.0
1193.1806703395375 285.2712774373633 729.1633815291237 23.08423991570883 0.0 0.0
1127.783754493006 249.14590521126345 678.3405740572484 24.859668041367716 0.0 0.0
1061.943778613093 215.95100261294533 628.7410552011827 25.541515725034543 0.0 0.0
998.0279847559568 186.44797534035655 581.8308147554978 25.759126575292957 0.0 0.0
936.9646977219493 159.60188333367176 537.304842195686 26.05426077906253 0.0 0.0
878.4062185204776 133.57406944171262 493.4612994532552 26.618589412174224 0.0 0.0
820.4821351002312 107.9632425852133 448.3489157156781 27.29767112775692 0.0 0.0
763.3900030470161 81.83425567178746 400.81831351493133 27.818078781988085 0.0 0.0
706.4262630553962 56.441652527529186 350.3432741741612 27.895482564263105 0.0 0.0
649.0788214319778 33.689717151825924 296.98637317001334 27.52917130923005 0.0 0.0
589.5854986211219 15.31003134877053 241.24367296969848 27.053852589481977 0.0 0.0
524.4776017984602 3.79187181456588 185.97474919719116 26.895176990306307 0.0 0.0
457.5899146932585 -9.593119816095056 136.16360579032192 30.405194596590718 0.0 0.0
376.23685586863917 0.061221755203022976 112.7063697158867 30.172002359752362 0.0 0.0
319.3711294178295 12.566009821127507 99.58114177168707 8.729841133551755 0.0 0.0
230.83650421142875 39.94913447422566 81.2356916056963 -20.404800856955045 0.0 0.0
30.5097999109078 -515.6112601855813 -228.97040624045087 137.5619949207259 0.0 0.0
-6.422700655095269 -509.4254200906264 -231.28098874874667 -151.46133874863924 0.0 0.0
132.83179601416433 20.723137464017054 46.06648004345441 -32.31456254119008 0.0 0.0
259.73546035901086 23.22159822503381 84.8871175752134 -25.105800940162112 0.0 0.0
331.65256217491225 2.3922007503087195 100.20018289025035 -47.56574578329362 0.0 0.0
413.16682199341255 -5.08489063897848 122.16947249116592 -51.619501466678514 0.0 0.0
495.69967370300697 -3.3092092863138483 161.73722659344924 -47.8494908540886 0.0 0.0
561.8743198486784 13.183229313022329 218.2851884462969 -45.445162212734715 0.0 0.0
621.7968968743869 28.284403796170317 272.85819655962234 -45.65138157333946 0.0 0.0
678.7833102574111 48.964584822727424 326.1866200985848 -45.687442955643164 0.0 0.0
733.7888912061463 71.82944554673657 376.07967028937685 -45.16426689973753 0.0 0.0
788.1893630406466 95.05367143107864 422.3562108792749 -44.1525933876242 0.0 0.0
842.4172251837707 117.99388094767723 465.5813068809342 -42.85965931933408 0.0 0.0
898.2238622615386 140.21167740593125 506.9407666957918 -41.87320664738095 0.0 0.0
955.5705880623057 163.98809349899335 548.5140166697948 -41.253460514115694 0.0 0.0
1015.1134493888944 189.5883952340875 591.4691709114287 -40.83593408890486 0.0 0.0
1076.2282769146898 218.10397523550847 636.4478240580823 -39.79477769004441 0.0 0.0
1136.7610285732148 249.22062595114053 682.3082699177213 -37.23294694238476 0.0 0.0
1195.0100533308828 282.7934528421671 728.206491005813 -32.71462798201987 0.0 0.0
1245.862187229716 315.2095751566626 769.8427200298381 -25.834288007844766 0.0 0.0
1278.6391361416458 337.19256266445626 797.2713483346752 -14.548288178895389 0.0 0.0
1278.639136141586 337.1925626644031 797.2713483345871 14.548288178941075 0.0 0.0
1245.8621872292263 315.2095751561892 769.8427200294459 25.834288007889935 0.0 0.0
1195.010053330324 282.79345284163037 728.2064910054074 32.71462798208092 0.0 0.0
1136.7610285722576 249.2206259502152 682.3082699169626 37.23294694245575 0.0 0.0
1076.2282769138264 218.10397523468313 636.4478240573707 39.79477769006425 0.0 0.0
1015.1134493885633 189.5883952338233 591.4691709111353 40.835934088937016 0.0 0.0
955.5705880619585 163.98809349871397 548.5140166694847 41.25346051410904 0.0 0.0
898.2238622611889 140.21167740568268 506.9407666954597 41.87320664741678 0.0 0.0
842.4172251836183 117.9938809476496 465.5813068807458 42.859659319307724 0.0 0.0
788.1893630399887 95.05367143053508 422.3562108787348 44.152593387573056 0.0 0.0
733.7888912058768 71.82944554661452 376.0796702891069 45.164266899681614 0.0 0.0
678.7833102569855 48.96458482247425 326.18662009820355 45.68744295565224 0.0 0.0
621.7968968737512 28.284403795696626 272.8581965591134 45.651381573290806 0.0 0.0
561.8743198482865 13.183229312883139 218.28518844596755 45.44516221274313 0.0 0.0
495.6996737026492 -3.3092092863829876 161.7372265932166 47.84949085407261 0.0 0.0
413.1668219931901 -5.084890638824212 122.16947249114213 51.61950146666142 0.0 0.0
331.6525621746904 2.392200750232883 100.20018289016285 47.565745783243784 0.0 0.0
259.7354603589056 23.221598224921586 84.88711757514815 25.105800940110868 0.0 0.0
132.83179601432914 20.723137464200537 46.066480043558904 32.3145625409755 0.0 0.0
-6.4227006548345 -509.42542009027636 -231.2809887483834 151.4613387484767 0.0 0.0
-16.71287560714056 -488.01095571242627 -213.64924120918454 -154.41763775917758 0.0 0.0
75.10686774384524 0.1962520500302638 22.59093593816265 -76.880435841959 0.0 0.0
200.87939519438623 26.247915186002892 68.13819311411672 -49.39640652422737 0.0 0.0
283.6434352965585 6.192179807772855 86.9452964195859 -65.35786806804273 0.0 0.0
362.0585053472664 -1.6412333987376697 107.94545502556828 -73.19114118599559 0.0 0.0
451.1738271175826 -6.124301566591429 138.72252268251066 -71.05161671885078 0.0 0.0
525.8296961265462 8.366791355392728 190.5041808323502 -64.72279596468681 0.0 0.0
589.1410312995564 23.537428450828337 245.6474663621229 -64.21450504273243 0.0 0.0
645.944210578893 41.16481368417621 298.0282221450035 -63.35928301962201 0.0 0.0
699.4501393208602 61.34368546672202 347.38589307774964 -62.27940194702815 0.0 0.0
751.5646274909952 81.90643451817184 392.98370071256284 -60.73225975889336 0.0 0.0
803.3579876212631 101.93396342307626 435.12037844724335 -58.88010752483483 0.0 0.0
855.3382326298449 121.08107728929664 474.21030967741933 -57.47306070219095 0.0 0.0
909.7991396044227 141.43388512456633 513.3006128880913 -56.643410598192325 0.0 0.0
965.4780115871516 163.05132856579453 552.6430983568853 -55.97900338925462 0.0 0.0
1021.0125913005476 186.81161287009135 592.5657022748766 -54.617073325933234 0.0 0.0
1076.9287635165965 213.02935534599254 633.6562174719302 -51.577128682582135 0.0 0.0
1131.2613733441326 241.90700281445234 675.212804307454 -45.72948784868828 0.0 0.0
1178.9959182011248 269.9220023914942 713.1352764735236 -35.777768409717424 0.0 0.0
1210.3022830305824 288.8886320604768 738.4319796777146 -19.23125331315734 0.0 0.0
1210.3022830306681 288.8886320605774 738.4319796777867 19.23125331323293 0.0 0.0
1178.995918201517 269.92200239191806 713.1352764737873 35.77776840979211 0.0 0.0
1131.2613733444077 241.9070028147982 675.2128043075514 45.72948784888207 0.0 0.0
1076.9287635169205 213.02935534639153 633.6562174720688 51.57712868271289 0.0 0.0
1021.0125913002508 186.81161286985085 592.5657022746092 54.61707332597095 0.0 0.0
965.4780115864418 163.0513285651382 552.6430983563225 55.979003389283946 0.0 0.0
909.7991396034005 141.43388512358854 513.3006128872757 56.64341059817848 0.0 0.0
855.3382326290749 121.08107728861967 474.21030967681327 57.473060702244084 0.0 0.0
803.3579876206602 101.93396342257401 435.1203784467188 58.88010752482311 0.0 0.0
751.5646274905775 81.90643451789975 392.98370071218113 60.73225975891803 0.0 0.0
699.4501393207092 61.34368546675195 347.38589307755666 62.279401947031914 0.0 0.0
645.9442105786134 41.16481368410109 298.02822214474634 63.35928301965443 0.0 0.0
589.1410312992642 23.537428450763013 245.64746636183358 64.214505042712 0.0 0.0
525.8296961261696 8.366791355320935 190.50418083206148 64.72279596475005 0.0 0.0
451.1738271173051 -6.124301566444832 138.72252268240732 71.05161671882028 0.0 0.0
362.0585053469681 -1.64123339888023 107.9454550254418 73.19114118591253 0.0 0.0
283.6434352963113 6.192179807583333 86.94529641945535 65.3578680679683 0.0 0.0
200.87939519428747 26.24791518589347 68.13819311405427 49.39640652411208 0.0 0.0
75.10686774397496 0.1962520502475023 22.590935938266732 76.88043584176151 0.0 0.0
-16.71287560696713 -488.0109557120775 -213.64924120885607 154.41763775907037 0.0 0.0
-14.915451871392925 -457.9106297549838 -187.03769967954244 -152.98363120598972 0.0 0.0
39.601547972239246 -17.809585290664934 6.537588804472294 -110.83974910303107 0.0 0.0
148.752994655709 24.574315556794183 51.998193063750946 -75.53045130154948 0.0 0.0
233.56840100749517 10.154277686047806 73.11680360806288 -83.87562022196815 0.0 0.0
308.5512829489564 0.36742119089910275 92.60404461006375 -93.60257131196644 0.0 0.0
395.31519011930834 -5.270271448277059 118.00889674178362 -94.90676294867333 0.0 0.0
481.83226266426806 1.839692468972045 160.16191748563602 -87.63448895140355 0.0 0.0
550.0620282192335 18.712399175535555 214.34680294405115 -82.55240024211548 0.0 0.0
606.5038270314158 33.278499429469164 265.33048527198423 -81.26272622382524 0.0 0.0
659.4739162043369 50.5605803663265 314.06954652223317 -79.3604790391554 0.0 0.0
709.9438133962399 68.32307688482842 359.2215935779528 -77.20563315548561 0.0 0.0
759.0763504348929 85.43932115027177 400.5143360306669 -74.76471684810443 0.0 0.0
808.6949348858417 101.8416936388281 438.74763100385485 -73.01910692286809 0.0 0.0
859.0270011242251 118.91686170048412 475.2426450842041 -71.86170807345147 0.0 0.0
910.6020969273775 136.61557764208388 511.08771308884786 -71.00332952128245 0.0 0.0
962.4996331350314 155.63161408423863 547.0363628985713 -69.46913149417952 0.0 0.0
1012.7431429218686 176.4738198798479 582.6636972152885 -66.05745996098521 0.0 0.0
1062.284087144677 199.72298964003798 619.0012079190881 -59.07393904589752 0.0 0.0
1107.3059259597978 223.0502932460041 653.2714061314933 -46.21431795364127 0.0 0.0
1138.5648470475262 239.60024495331515 677.4583754389305 -24.53266640238577 0.0 0.0
1138.564847047448 239.60024495325905 677.4583754388899 24.532666402519823 0.0 0.0
1107.305925959718 223.05029324597564 653.2714061314052 46.214317953839526 0.0 0.0
1062.28408714446 199.72298963988717 619.0012079189063 59.0739390460664 0.0 0.0
1012.743142921468 176.47381987950718 582.6636972149774 66.05745996108575 0.0 0.0
962.4996331347359 155.63161408397877 547.0363628982927 69.46913149418073 0.0 0.0
910.6020969273346 136.61557764213836 511.0877130887741 71.00332952137282 0.0 0.0
859.0270011241773 118.916861700496 475.24264508413324 71.86170807341179 0.0 0.0
808.6949348856292 101.84169363875517 438.74763100367204 73.0191069229934 0.0 0.0
759.0763504343926 85.43932114986823 400.5143360302595 74.76471684807929 0.0 0.0
709.9438133957276 68.32307688445078 359.22159357750985 77.20563315548992 0.0 0.0
659.473916204163 50.560580366308955 314.0695465219783 79.36047903908023 0.0 0.0
606.5038270312673 33.27849942955076 265.330485271786 81.26272622383081 0.0 0.0
550.0620282189088 18.712399175476335 214.3468029437639 82.55240024208629 0.0 0.0
481.83226266378335 1.839692468779953 160.16191748534152 87.63448895141528 0.0 0.0
395.3151901188125 -5.270271448481097 118.00889674156745 94.90676294857616 0.0 0.0
308.55128294873947 0.3674211909149152 92.60404461000637 93.60257131184007 0.0 0.0
233.56840100741016 10.154277686182184 73.1168036080777 83.87562022180268 0.0 0.0
148.75299465570538 24.574315556823137 51.99819306375855 75.5304513013584 0.0 0.0
39.60154797228368 -17.809585290566588 6.537588804515129 110.83974910283038 0.0 0.0
-14.915451871274165 -457.91062975461637 -187.03769967924157 152.98363120592646 0.0 0.0
-8.604566919141377 -422.31507450569677 -157.85047917071844 -149.5392598444124 0.0 0.0
15.485535183918198 -32.531240086094606 -5.113711470652922 -135.40054011383748 0.0 0.0
103.80115884894126 20.646353265248738 37.334253634256996 -100.02117763410543 0.0 0.0
183.48230382721314 13.386103522043332 59.06052220477693 -102.21038352046753 0.0 0.0
252.4867933897227 1.8588179502599609 76.26112522465013 -112.3723037789143 0.0 0.0
326.9357599872581 -3.1460266576506184 97.66660080629255 -116.62316135760811 0.0 0.0
416.10590981928397 -1.210008219041883 130.297010456247 -112.71698205912043 0.0 0.0
496.43281172272555 11.231923913302706 177.11625473606435 -103.96494007089629 0.0 0.0
559.1140153756311 25.428904317401884 227.4939486360997 -99.38733555645615 0.0 0.0
611.8110155529248 39.60186220323675 274.9026331135948 -96.7009823132559 0.0 0.0
660.7870381663579 54.117932427343824 319.1566496450883 -93.7344644348887 0.0 0.0
708.4434590679258 68.58575440898657 360.4533081881792 -90.76742759379191 0.0 0.0
755.5031067007568 82.47667201268953 398.42475617317007 -88.5471143512005 0.0 0.0
803.1121220179191 96.32532737215223 433.7477347352142 -87.14440398325632 0.0 0.0
850.9059867575029 110.12698931363514 466.7547244922365 -86.07126427282208 0.0 0.0
897.3498388778956 124.93346232598003 498.32321076886086 -84.23406582861968 0.0 0.0
943.0573980408832 139.98961923502017 528.9900770434654 -80.70104735044029 0.0 0.0
987.3272599691506 156.37273909787297 559.3498654912594 -72.84615774073494 0.0 0.0
1029.0915576919551 174.33275582252378 589.3688199211344 -57.42820211593187 0.0 0.0
1061.5029073515943 188.59857567868238 613.1252049909319 -30.82447198384363 0.0 0.0
1061.5029073514388 188.5985756785575 613.1252049908261 30.824471984011694 0.0 0.0
1029.0915576917696 174.33275582240756 589.3688199210171 57.42820211615626 0.0 0.0
987.3272599689378 156.37273909770886 559.3498654911177 72.84615774083359 0.0 0.0
943.0573980406689 139.98961923486405 528.9900770433119 80.7010473505363 0.0 0.0
897.3498388777127 124.93346232585883 498.3232107686965 84.23406582867631 0.0 0.0
850.9059867572528 110.12698931347424 466.7547244920184 86.07126427288026 0.0 0.0
803.112122017726 96.32532737201963 433.7477347349899 87.14440398325519 0.0 0.0
755.5031067003856 82.47667201247955 398.42475617289125 88.54711435134699 0.0 0.0
708.443459067787 68.58575440899668 360.45330818802677 90.76742759381308 0.0 0.0
660.7870381663272 54.117932427492725 319.156649644987 93.73446443488501 0.0 0.0
611.8110155528029 39.60186220329334 274.90263311341363 96.70098231319987 0.0 0.0
559.1140153753713 25.428904317381694 227.49394863584533 99.38733555644956 0.0 0.0
496.4328117224358 11.231923913356608 177.11625473584917 103.9649400709468 0.0 0.0
416.1059098189295 -1.2100082189141972 130.2970104561234 112.71698205919694 0.0 0.0
326.9357599870043 -3.14602665749509 97.66660080626582 116.6231613574991 0.0 0.0
252.48679338959292 1.8588179504574933 76.2611252246726 112.37230377870944 0.0 0.0
183.48230382711174 13.386103522048662 59.06052220474811 102.21038352031381 0.0 0.0
103.8011588489255 20.64635326518709 37.334253634233775 100.02117763393142 0.0 0.0
15.485535183906185 -32.53124008606925 -5.113711470648918 135.40054011361542 0.0 0.0
-8.604566919060318 -422.3150745053672 -157.85047917046933 149.53925984431487 0.0 0.0
-3.3811546152559906 -381.7086019891465 -129.3280219204946 -144.3037781428171 0.0 0.0
-3.010887725092555 -45.6908760056104 -14.610529119210884 -153.0256809452756 0.0 0.0
64.81085725014434 16.37642298832235 24.356184071540007 -121.08705157212526 0.0 0.0
134.49718737837986 15.42371657123288 44.97627118488382 -119.34173168000862 0.0 0.0
194.79881074805084 4.277997615648842 59.7121616087076 -128.43280209048407 0.0 0.0
258.2522591152175 -2.547757396472382 76.5897708183522 -136.66455943324848 0.0 0.0
334.26155351276975 -1.7518699840272562 101.42991256502674 -136.21949806985953 0.0 0.0
419.9903724822979 5.023271627461546 137.68154457886615 -128.9929167215949 0.0 0.0
493.9876578222989 16.09085532549206 182.1877892110173 -119.79762360167614 0.0 0.0
552.4141589787569 28.700270771146894 228.37474219119986 -114.57091827821705 0.0 0.0
600.6693353020562 39.4643372848519 270.6273246724637 -110.81965871062357 0.0 0.0
647.7180304478272 51.3179971061255 311.9011858063621 -107.16358595431525 0.0 0.0
693.3372970809947 62.53254363357744 350.41269303155053 -104.41623451237668 0.0 0.0
738.265651483507 73.70457352779898 385.846610759188 -102.58067728182466 0.0 0.0
782.0392702354625 83.79969448749321 416.97429638574147 -101.23559011869419 0.0 0.0
825.0742538164006 94.31569742887405 445.7553582464122 -99.2407007472281 0.0 0.0
865.1817810379114 103.96428980148903 471.46842884106997 -95.3656463715607 0.0 0.0
903.2156290304988 112.79397848448029 495.2845450084898 -86.97297051753596 0.0 0.0
941.7379365892227 123.16326999643175 520.014050378242 -69.81262931896765 0.0 0.0
976.8343654487396 134.91401970901418 544.0009609699459 -38.70216123172017 0.0 0.0
976.8343654487613 134.9140197090656 544.0009609699628 38.70216123187162 0.0 0.0
941.7379365893956 123.16326999672337 520.0140503783537 69.81262931927532 0.0 0.0
903.215629030371 112.79397848445937 495.28454500836654 86.9729705177414 0.0 0.0
865.1817810376267 103.96428980130393 471.46842884083406 95.36564637170156 0.0 0.0
825.0742538162388 94.31569742877859 445.75535824625763 99.24070074729109 0.0 0.0
782.0392702355227 83.79969448768182 416.97429638574926 101.2355901187752 0.0 0.0
738.265651483625 73.7045735279927 385.8466107592142 102.58067728183212 0.0 0.0
693.3372970809833 62.532543633707384 350.412693031495 104.41623451245736 0.0 0.0
647.718030447586 51.317997106041084 311.9011858061431 107.16358595434741 0.0 0.0
600.6693353018625 39.46433728479322 270.62732467225493 110.8196587105885 0.0 0.0
552.4141589784634 28.700270770992432 228.37474219091877 114.57091827813032 0.0 0.0
493.98765782198296 16.090855325454356 182.1877892107882 119.79762360169104 0.0 0.0
419.9903724818472 5.023271627390807 137.68154457864154 128.99291672162218 0.0 0.0
334.261553512472 -1.7518699837537444 101.42991256500582 136.21949806983818 0.0 0.0
258.25225911495124 -2.5477573965043003 76.58977081826525 136.66455943310604 0.0 0.0
194.79881074787826 4.277997615593357 59.71216160864073 128.43280209030598 0.0 0.0
134.49718737833612 15.423716571287322 44.976271184887025 119.34173167982286 0.0 0.0
64.81085725015234 16.376422988362382 24.35618407155442 121.08705157189789 0.0 0.0
-3.0108877251021635 -45.69087600550472 -14.610529119182061 153.02568094505355 0.0 0.0
-3.3811546152327665 -381.7086019887982 -129.32802192030175 144.30377814268365 0.0 0.0
-3.385729731222039 -338.4082033064039 -106.19956570899859 -138.0537551449377 0.0 0.0
-18.264241055359633 -55.80969328817915 -22.222180303061627 -163.6303737477892 0.0 0.0
30.433153104832876 12.263896313578444 12.809114825523395 -138.47371955056022 0.0 0.0
87.18799871688195 16.54398385181545 31.11959477060921 -134.11826502919553 0.0 0.0
136.43711524923663 6.955640014770675 43.01110742672219 -141.8154244653316 0.0 0.0
184.91740135965486 -0.6200325896562664 55.24343892865224 -151.58855033340092 0.0 0.0
241.79170931805115 -2.1915151176426786 72.43007876311957 -156.35971235416093 0.0 0.0
316.70503544191763 3.011539691674286 98.84495399074399 -153.07928955374075 0.0 0.0
397.90753204627845 6.403426272932892 131.03636863916057 -145.29043114474206 0.0 0.0
466.16199747239415 17.061009575290477 171.30362531728696 -134.74221486515347 0.0 0.0
521.7291554150763 24.450406109845506 210.53972477024894 -129.84118189761463 0.0 0.0
568.2868771107067 33.16896895418726 249.6266203826526 -124.6471880702414 0.0 0.0
613.8624461866711 42.32651910765789 288.80890095180735 -121.14160732414194 0.0 0.0
657.5695294572182 50.482084822999504 325.4138693610968 -118.66556734741728 0.0 0.0
699.67460904554 57.90047796534875 357.83550182854935 -116.88285360441084 0.0 0.0
738.1560951667853 63.674366161080265 384.53885830513207 -114.4832298968235 0.0 0.0
774.5145510080498 68.26758816689008 407.36447076277966 -110.38519640977255 0.0 0.0
807.3172691453362 70.01632236806272 426.0758817122195 -101.22378814277165 0.0 0.0
838.7798345380897 69.61409020330967 442.41780678003516 -83.2773944010222 0.0 0.0
876.6617280471462 76.71924319859279 465.6258491083213 -48.947590576701934 0.0 0.0
876.6617280472224 76.71924319870985 465.62584910840565 48.94759057687703 0.0 0.0
838.7798345382628 69.61409020361437 442.4178067802071 83.27739440132387 0.0 0.0
807.317269145521 70.01632236839247 426.0758817123691 101.22378814301126 0.0 0.0
774.514551007743 68.26758816669403 407.36447076255183 110.38519640990253 0.0 0.0
738.1560951664358 63.67436616074424 384.5388583048342 114.48322989680405 0.0 0.0
699.6746090451011 57.900477964965155 357.8355018282628 116.88285360445624 0.0 0.0
657.5695294568202 50.482084822633425 325.41386936077464 118.66556734742004 0.0 0.0
613.8624461862865 42.326519107361925 288.80890095150676 121.14160732419677 0.0 0.0
568.2868771103402 33.16896895396844 249.62662038236712 124.64718807027975 0.0 0.0
521.7291554147689 24.450406109701056 210.53972476998626 129.8411818975873 0.0 0.0
466.1619974719875 17.061009575004604 171.30362531697006 134.74221486505047 0.0 0.0
397.9075320458712 6.403426272783067 131.036368638937 145.29043114472273 0.0 0.0
316.7050354415241 3.011539691713234 98.84495399062321 153.07928955373805 0.0 0.0
241.79170931771682 -2.19151511771246 72.43007876299284 156.3597123540639 0.0 0.0
184.91740135955607 -0.6200325894972005 55.24343892867177 151.58855033325182 0.0 0.0
136.43711524922514 6.955640014965438 43.01110742677829 141.81542446509917 0.0 0.0
87.18799871685046 16.543983851862958 31.119594770614018 134.11826502899487 0.0 0.0
30.433153104832876 12.263896313578444 12.809114825523395 138.47371955034566 0.0 0.0
-18.26424105542849 -55.8096932882117 -22.222180303092056 163.6303737476248 0.0 0.0
-3.3857297312414882 -338.40820330606533 -106.19956570886485 138.0537551448079 0.0 0.0
-12.71708334778694 -295.2015880340914 -92.7718072163022 -129.86408990878795 0.0 0.0
-31.46330168941126 -61.722072201652324 -27.954783982968422 -169.71842797380734 0.0 0.0
-0.2517769148139908 8.504068106606615 2.475687357537787 -151.61574400828897 0.0 0.0
41.740417560954604 17.02764407781123 17.630418491629747 -145.9104259949254 0.0 0.0
77.78631203049845 9.439105078660516 26.164554157906252 -151.90639900226012 0.0 0.0
110.45833486077193 2.1695181057075907 33.75586878092181 -162.21949746189864 0.0 0.0
146.5173360067885 -1.2755218739512153 43.59761289891952 -170.63604368124007 0.0 0.0
191.8212733860961 0.75609988673355 58.88115601038087 -171.0783555578816 0.0 0.0
250.86316375473012 2.573442230338757 78.6414840270534 -168.4125885912577 0.0 0.0
319.0657105299273 5.6889767710918475 103.7748619461499 -160.1540028672416 0.0 0.0
389.1238701040439 10.559843782741508 134.75590178390368 -152.75401577105907 0.0 0.0
445.4537359428323 14.549084003110266 166.72445749930515 -146.2631842588035 0.0 0.0
495.181364127335 21.417392035039537 202.53347828211088 -140.80782124054696 0.0 0.0
540.5261527651242 26.98602783248943 239.06448169175866 -136.66316155412332 0.0 0.0
582.3444504814357 31.560179898668686 273.47291578038863 -133.57257290726514 0.0 0.0
618.6668954413021 33.543771370696405 302.01536119048967 -130.28411437012642 0.0 0.0
651.2136234753239 31.8179323768369 323.95490340966273 -125.91416530408038 0.0 0.0
685.3566561403579 28.676345065071615 343.8240285578429 -115.77529858764758 0.0 0.0
711.7814123340706 15.779233982398651 353.7431545392536 -97.30907022502738 0.0 0.0
749.0217977593917 10.09161211885997 370.85626698579154 -62.51406726120669 0.0 0.0
749.0217977594731 10.091612118999137 370.85626698585327 62.51406726142487 0.0 0.0
711.7814123338069 15.779233982290066 353.74315453911055 97.30907022539897 0.0 0.0
685.356656139839 28.676345064708627 343.8240285575091 115.77529858795671 0.0 0.0
651.2136234749588 31.817932376551767 323.95490340941103 125.91416530420004 0.0 0.0
618.66689544107 33.5437713704751 302.01536119029663 130.2841143701411 0.0 0.0
582.3444504811725 31.560179898434505 273.4729157801854 133.57257290726182 0.0 0.0
540.5261527650899 26.98602783253817 239.06448169172307 136.66316155420384 0.0 0.0
495.18136412767603 21.417392035727907 202.53347828236866 140.80782124072485 0.0 0.0
445.45373594252163 14.549084002944106 166.72445749910182 146.26318425882937 0.0 0.0
389.1238701038012 10.559843782769091 134.75590178378215 152.75401577102818 0.0 0.0
319.0657105296638 5.688976771044642 103.77486194603365 160.1540028671954 0.0 0.0
250.86316375454766 2.5734422304545603 78.64148402702288 168.41258859126492 0.0 0.0
191.82127338591383 0.7560998868990341 58.88115601036987 171.07835555785394 0.0 0.0
146.51733600671855 -1.2755218737439602 43.59761289895914 170.63604368112016 0.0 0.0
110.45833486070964 2.169518105745241 33.75586878091524 162.21949746175724 0.0 0.0
77.78631203042235 9.439105078581331 26.1645541578603 151.90639900207034 0.0 0.0
41.74041756098636 17.027644077910242 17.63041849166898 145.9104259947418 0.0 0.0
-0.2517769147768938 8.504068106689616 2.475687357573816 151.61574400810963 0.0 0.0
-31.46330168939585 -61.72207220158757 -27.954783982944505 169.7184279736573 0.0 0.0
-12.71708334783724 -295.2015880338131 -92.77180721623577 129.86408990869378 0.0 0.0
-18.83158521535534 -251.64601797478898 -81.095729610862 -119.7140612975543 0.0 0.0
-42.56465883053119 -63.922245085248335 -31.945382251123952 -171.80132086062227 0.0 0.0
-28.06535400873331 5.245989710840404 -6.845809289367871 -160.47766620031788 0.0 0.0
-1.8578991376077258 17.010920550919675 4.545906423993584 -154.18803349825393 0.0 0.0
19.477877800358275 11.673658327808262 9.343586268014947 -158.36289412280175 0.0 0.0
35.060788174040205 5.014020205631338 12.014606292300503 -168.12222747389336 0.0 0.0
48.78112776790101 0.9748411488227124 14.941004610597012 -177.29987970514813 0.0 0.0
64.60153359326968 -0.05140330904860324 19.483195399672688 -182.40353114369356 0.0 0.0
85.59611256311858 0.8302616671968828 26.51694276841113 -179.41697363939147 0.0 0.0
109.13449301822189 0.7950874932816063 34.214205926421 -177.4223386942756 0.0 0.0
139.38908151505132 2.8358219713159762 45.31912597003309 -170.6144139975184 0.0 0.0
172.5896749601493 2.8041269517251237 57.1434282623885 -167.05344267889362 0.0 0.0
215.09398483274606 5.504111706505327 73.67141264731967 -163.58761707665326 0.0 0.0
262.1823667967557 6.615999014140208 93.76371492347846 -159.34435839278834 0.0 0.0
308.04054566407683 8.787699065781297 119.08276272126545 -153.80312154283143 0.0 0.0
359.9533641941635 5.852907068221285 148.32873823782717 -148.56762605046902 0.0 0.0
408.5175417193998 -4.0217574356051955 174.16619925807572 -142.1452126894166 0.0 0.0
459.4470735244248 -16.051000623654943 201.84054513479018 -132.83906007258815 0.0 0.0
516.5594543562937 -29.142752906092028 232.0132081754167 -111.28773929565993 0.0 0.0
543.1065123026286 -75.47489402575981 229.72434690217156 -77.70553868690213 0.0 0.0
543.1065123022981 -75.47489402615888 229.72434690192972 77.70553868715982 0.0 0.0
516.5594543559282 -29.14275290640785 232.01320817516387 111.28773929604756 0.0 0.0
459.4470735245174 -16.051000623333664 201.84054513488667 132.8390600729391 0.0 0.0
408.51754171941263 -4.021757435534354 174.16619925807512 142.1452126895213 0.0 0.0
359.95336419432437 5.852907068551083 148.32873823794054 148.56762605050235 0.0 0.0
308.0405456641302 8.787699065925885 119.08276272129629 153.80312154282132 0.0 0.0
262.182366796471 6.615999013633193 93.7637149232535 159.34435839289654 0.0 0.0
215.09398483255498 5.504111706066201 73.67141264711032 163.58761707669913 0.0 0.0
172.58967496008515 2.8041269516590805 57.1434282623418 167.05344267890604 0.0 0.0
139.38908151489477 2.835821971045199 45.319125969898344 170.61441399751345 0.0 0.0
109.1344930180249 0.7950874927680811 34.214205926201736 177.4223386941805 0.0 0.0
85.59611256310554 0.8302616671563081 26.51694276839192 179.4169736394038 0.0 0.0
64.6015335933726 -0.051403308643963364 19.48319539982432 182.4035311436894 0.0 0.0
48.781127768042346 0.9748411491991931 14.94100461075228 177.29987970500488 0.0 0.0
35.060788174155434 5.0140202058281504 12.014606292394399 168.1222274736714 0.0 0.0
19.477877800413737 11.673658327942139 9.343586268071943 158.36289412261578 0.0 0.0
-1.8578991375546163 17.010920550954634 4.545906424020005 154.18803349807885 0.0 0.0
-28.06535400870502 5.245989710870828 -6.845809289350257 160.47766620012465 0.0 0.0
-42.56465883049326 -63.92224508521674 -31.94538225110328 171.801320860455 0.0 0.0
-18.831585215362047 -251.64601797456066 -81.09572961079866 119.71406129744574 0.0 0.0
-20.99654363726328 -209.7279355809915 -69.21734376547643 -108.73474445858695 0.0 0.0
-51.703159942824314 -62.84880939117383 -34.364184716991474 -170.05264652116654 0.0 0.0
-53.58712067201159 2.543142267684286 -15.312665707693409 -165.01944291404268 0.0 0.0
-43.68227030008349 16.596972264296657 -8.125011777017841 -158.64993895252752 0.0 0.0
-38.074672595757505 13.504587567324773 -7.366740175111411 -160.84316915217872 0.0 0.0
-40.412122695329046 7.696228638861035 -9.803365697189333 -169.17575123394607 0.0 0.0
-49.276934728846015 3.3171279063714603 -13.79925231257596 -177.570482923502 0.0 0.0
-63.99490484235615 0.7080110284663004 -19.103391516929797 -182.40025642994857 0.0 0.0
-85.13962378384969 -1.0465290828440033 -26.44132069626998 -179.38544046556842 0.0 0.0
-108.87227509391317 -0.9987391832864514 -34.19497980163225 -177.40735054463357 0.0 0.0
-139.1849573064058 -2.901072290206164 -45.2582046344833 -170.6291728623509 0.0 0.0
-172.40962781028122 -2.560898404423458 -56.98871338278671 -167.00398007683108 0.0 0.0
-215.76195821983555 -4.889458532927694 -73.62609517350447 -163.40558455313334 0.0 0.0
-264.25291019537883 -6.836491486143633 -94.61927243172805 -159.16582591566223 0.0 0.0
-307.64273890213815 -11.703178160808427 -120.59004351196694 -154.5858310605803 0.0 0.0
-344.64973654659747 -18.81301599801113 -147.53107271266828 -152.55263793276842 0.0 0.0
-354.83032828291607 -27.544303202732095 -164.6199743004729 -152.78937407711425 0.0 0.0
-312.4295353956543 -45.29361056789405 -161.93502031174316 -155.96476851785667 0.0 0.0
-167.2367049559154 -41.09693622696831 -97.83733571662346 -151.80502106413857 0.0 0.0
42.89561686942133 -153.40053218417978 -46.072838456208466 -104.4204519288837 0.0 0.0
42.89561686942159 -153.40053218426377 -46.07283845628473 104.42045192926625 0.0 0.0
-167.23670495616733 -41.09693622740298 -97.83733571681107 151.8050210645955 0.0 0.0
-312.4295353955787 -45.29361056788325 -161.93502031170414 155.964768518136 0.0 0.0
-354.8303282829704 -27.544303203044308 -164.6199743005331 152.78937407721054 0.0 0.0
-344.6497365467152 -18.813015998510366 -147.53107271281448 152.55263793275054 0.0 0.0
-307.6427389020399 -11.703178160902468 -120.59004351195372 154.5858310605744 0.0 0.0
-264.25291019492084 -6.8364914857099635 -94.61927243143316 159.16582591570238 0.0 0.0
-215.76195821936471 -4.889458532794887 -73.62609517330318 163.405584553215 0.0 0.0
-172.40962780988406 -2.5608984042893894 -56.988713382613675 167.00398007686414 0.0 0.0
-139.184957306001 -2.9010722900432775 -45.258204634298146 170.6291728623216 0.0 0.0
-108.87227509351503 -0.9987391830969408 -34.19497980144624 177.40735054457036 0.0 0.0
-85.1396237835651 -1.0465290827792462 -26.44132069616138 179.38544046559508 0.0 0.0
-63.99490484227398 0.7080110283827006 -19.10339151692834 182.40025642991333 0.0 0.0
-49.276934728786344 3.317127906202342 -13.799252312608768 177.57048292335256 0.0 0.0
-40.41212269522976 7.696228638828835 -9.803365697169674 169.17575123373976 0.0 0.0
-38.07467259566306 13.504587567387999 -7.366740175064387 160.84316915195555 0.0 0.0
-43.682270299944186 16.596972264403078 -8.125011776944376 158.64993895232993 0.0 0.0
-53.58712067195471 2.543142267713029 -15.312665707668003 165.01944291389788 0.0 0.0
-51.70315994275958 -62.84880939113698 -34.364184716961226 170.05264652101 0.0 0.0
-20.996543637248298 -209.72793558078928 -69.21734376541127 108.73474445846952 0.0 0.0
-21.415839579092186 -170.4074729142116 -57.546993747991124 -97.63868473508732 0.0 0.0
-59.44156642311815 -59.054234875438695 -35.548740389567044 -164.45870911258578 0.0 0.0
-77.22525751459361 0.4752904055613585 -23.02403323130353 -165.29178836608048 0.0 0.0
-83.82431912831264 15.841854707943387 -20.389006295663133 -159.12630559399355 0.0 0.0
-94.53019153262952 14.781020804277695 -23.91544125517784 -159.14297233707182 0.0 0.0
-115.10003869200978 9.990360646369584 -31.511466062984105 -165.1698034905162 0.0 0.0
-146.93734219447066 5.318906887824172 -42.505865924630285 -171.49996312429246 0.0 0.0
-191.31380792282104 -0.17517297340213833 -58.54830729564456 -171.098893190439 0.0 0.0
-250.47820628192332 -2.78018360511825 -78.57924581207128 -168.31079260932682 0.0 0.0
-318.8485832592683 -5.870875118459228 -103.76219383219873 -160.09430156612166 0.0 0.0
-388.9706435517194 -10.644746777182714 -134.72878133364898 -152.75072184433068 0.0 0.0
-445.3139289918463 -14.376712675342109 -166.59105284716645 -146.19723170906255 0.0 0.0
-495.16131210165645 -20.78096740625037 -202.22603890626795 -140.39398610282942 0.0 0.0
-541.0933594095666 -26.935036793760574 -239.32007041652577 -136.31236161860807 0.0 0.0
-584.8841612834167 -35.475552518821004 -276.6549085447153 -134.78012717463545 0.0 0.0
-623.6134716034431 -46.24841498578873 -310.7267200830752 -135.75305377848142 0.0 0.0
-656.9159817041916 -63.139776436202524 -341.52384356586936 -141.52016718827187 0.0 0.0
-680.5232113787242 -87.91126821476652 -367.4387352516429 -153.1871578843307 0.0 0.0
-708.3499608070088 -139.96792971941034 -403.4656552078196 -163.44142984317062 0.0 0.0
-670.2790446213883 -186.87203132625058 -398.2878603353331 -158.6444752043531 0.0 0.0
-670.2790446209187 -186.8720313258761 -398.28786033512586 158.64447520461715 0.0 0.0
-708.3499608067741 -139.9679297191455 -403.46565520771054 163.441429843394 0.0 0.0
-680.5232113781693 -87.91126821433497 -367.4387352513417 153.1871578845393 0.0 0.0
-656.915981703431 -63.13977643542505 -341.52384356535157 141.5201671883249 0.0 0.0
-623.6134716032539 -46.24841498559042 -310.7267200828762 135.75305377846303 0.0 0.0
-584.8841612837398 -35.47555251939097 -276.6549085449177 134.7801271747473 0.0 0.0
-541.0933594099599 -26.935036794498068 -239.3200704167723 136.3123616187193 0.0 0.0
-495.1613121017177 -20.780967406761977 -202.2260389063439 140.39398610300293 0.0 0.0
-445.3139289916064 -14.376712675511627 -166.59105284703554 146.19723170914617 0.0 0.0
-388.97064355116686 -10.644746777080247 -134.72878133339503 152.75072184432346 0.0 0.0
-318.8485832585748 -5.870875118219445 -103.76219383188646 160.0943015660241 0.0 0.0
-250.47820628132996 -2.780183604868922 -78.57924581180373 168.31079260933527 0.0 0.0
-191.31380792242194 -0.17517297322742031 -58.54830729546549 171.09889319046653 0.0 0.0
-146.93734219413813 5.318906887966447 -42.50586592448755 171.49996312418864 0.0 0.0
-115.10003869193129 9.990360646081083 -31.511466063048154 165.1698034903048 0.0 0.0
-94.53019153253041 14.781020804157812 -23.91544125518481 159.142972336908 0.0 0.0
-83.82431912817128 15.841854708013244 -20.38900629560028 159.12630559381333 0.0 0.0
-77.22525751446062 0.4752904056396632 -23.02403323124072 165.29178836589927 0.0 0.0
-59.44156642302261 -59.05423487529404 -35.54874038949499 164.45870911242136 0.0 0.0
-21.41583957908537 -170.40747291405694 -57.54699374794269 97.63868473495602 0.0 0.0
-21.65245076325117 -134.17591263370656 -46.74850901908732 -86.50775415627865 0.0 0.0
-66.49886906722233 -53.15142878747261 -35.89508935640848 -155.34661089413186 0.0 0.0
-99.3246379112062 -0.8899085838603602 -30.061413807901637 -161.34817070391253 0.0 0.0
-122.34012055636036 14.780510743117333 -32.257111359768075 -155.48806467542474 0.0 0.0
-149.66394599989292 15.312044765536726 -40.291061593484685 -153.2350492766733 0.0 0.0
-188.36803402177324 11.750814276883961 -52.92305584845081 -156.21781278341038 0.0 0.0
-242.0090811972422 5.704199448925883 -71.45593299899905 -157.49289923818986 0.0 0.0
-316.32590497953964 -2.5266558773828462 -98.56345878466821 -153.15555786976648 0.0 0.0
-397.7431805851493 -6.604079942714054 -131.01325774832105 -145.12623742887436 0.0 0.0
-466.17088666990844 -17.197470837512135 -171.32731688807377 -134.65537370688804 0.0 0.0
-521.7631713461492 -24.5487321146493 -210.58361317901603 -129.8391799361906 0.0 0.0
-568.2350940421957 -33.09373394630208 -249.5463554586005 -124.58958352682859 0.0 0.0
-613.5536607266866 -41.70852724580283 -288.31675171725317 -120.72366498660114 0.0 0.0
-657.5663192468185 -50.045717898812256 -325.1160201430873 -118.10954588823141 0.0 0.0
-701.9443557355719 -60.73378487464182 -360.4205680815244 -117.53160791758388 0.0 0.0
-744.5115235330074 -74.33967393611533 -393.56268159999547 -119.2132063982037 0.0 0.0
-784.6873748949902 -93.30631097778786 -425.5450454734346 -125.37345538006494 0.0 0.0
-829.0163880834076 -129.48618859560204 -465.07482214215213 -136.01373874253522 0.0 0.0
-875.6735870098305 -184.617377339449 -512.6959062059293 -146.52050565050652 0.0 0.0
-922.0361137957295 -273.77134460230593 -570.8456532232724 -149.6445196125823 0.0 0.0
-922.0361137960767 -273.771344602853 -570.8456532235705 149.64451961287878 0.0 0.0
-875.6735870100335 -184.6173773399579 -512.6959062061287 146.52050565086302 0.0 0.0
-829.0163880830753 -129.48618859542006 -465.07482214190406 136.01373874275652 0.0 0.0
-784.6873748951646 -93.30631097811525 -425.54504547349165 125.3734553802155 0.0 0.0
-744.5115235329912 -74.3396739362686 -393.56268159995193 119.21320639832274 0.0 0.0
-701.9443557356426 -60.73378487482805 -360.4205680815701 117.5316079176238 0.0 0.0
-657.56631924625 -50.04571789831735 -325.11602014270426 118.10954588824428 0.0 0.0
-613.5536607262411 -41.708527245440735 -288.3167517169021 120.72366498657928 0.0 0.0
-568.2350940419878 -33.093733946249586 -249.54635545840307 124.58958352677263 0.0 0.0
-521.7631713461942 -24.54873211504833 -210.58361317896384 129.83917993617973 0.0 0.0
-466.17088666964145 -17.197470837713208 -171.32731688792467 134.6553737069018 0.0 0.0
-397.743180584604 -6.604079942668707 -131.01325774807557 145.126237428924 0.0 0.0
-316.32590497898514 -2.526655877339497 -98.5634587844715 153.15555786984507 0.0 0.0
-242.00908119679775 5.704199449096125 -71.45593299881229 157.49289923810608 0.0 0.0
-188.36803402153578 11.750814276759838 -52.9230558484184 156.21781278323573 0.0 0.0
-149.663945999668 15.31204476559032 -40.291061593402375 153.23504927647457 0.0 0.0
-122.34012055615617 14.780510743236734 -32.257111359671875 155.48806467521985 0.0 0.0
-99.3246379110805 -0.8899085838094525 -30.061413807849245 161.3481707037102 0.0 0.0
-66.49886906715747 -53.15142878743872 -35.895089356378854 155.3466108939792 0.0 0.0
-21.652450763261882 -134.1759126335821 -46.74850901905319 86.50775415620285 0.0 0.0
-22.098287878885557 -101.41970292844837 -37.05539724220017 -75.20580803471091 0.0 0.0
-73.34365330165984 -45.79298005771622 -35.74099000781281 -143.11266609688036 0.0 0.0
-120.18470219837155 -1.543653368705614 -36.515714737686636 -153.32982408174732 0.0 0.0
-159.35356480485274 13.302167593361567 -43.80420212995596 -147.7624713286763 0.0 0.0
-203.04139124478178 15.315486444350244 -56.282828049616825 -143.07738245650458 0.0 0.0
-259.11268138629754 11.704152989938837 -74.39989221552659 -141.86899315842473 0.0 0.0
-333.92532154880973 4.973165508230232 -100.3592034798841 -138.02295273269934 0.0 0.0
-419.8713056113211 -4.811129104264463 -137.54498285901266 -128.94932202573352 0.0 0.0
-494.06041095890623 -16.244588741393606 -182.2135253675533 -119.61342557179029 0.0 0.0
-552.4883326555963 -28.839406698718918 -228.44973577485425 -114.46078422790396 0.0 0.0
-600.7242730527428 -39.53585388011955 -270.68108755089276 -110.83072811937289 0.0 0.0
-647.736274848278 -51.36581466752252 -311.9118159274173 -107.14955228061184 0.0 0.0
-693.0009319578255 -62.079157681929544 -349.9848587550057 -104.06018811776089 0.0 0.0
-737.7596648443821 -72.88552508383923 -385.11181970074813 -101.83453022597234 0.0 0.0
-783.2490121099381 -85.15849013028799 -418.27731616810945 -101.32651958090575 0.0 0.0
-830.0536669844552 -101.6218308470176 -452.375299070628 -103.1298307925983 0.0 0.0
-878.8420272510102 -126.19848598629925 -489.9147278038429 -108.16729055579381 0.0 0.0
-936.035107599799 -170.1380649674661 -539.328612199506 -117.68989094960335 0.0 0.0
-1001.262174983919 -238.85926233633475 -603.0294624291708 -127.9322365031223 0.0 0.0
-1068.4723580823215 -341.1640818428454 -680.026859362045 -133.8834473963871 0.0 0.0
-1068.472358082144 -341.16408184277867 -680.0268593619635 133.88344739655952 0.0 0.0
-1001.2621749836236 -238.85926233616206 -603.029462428953 127.93223650334951 0.0 0.0
-936.0351075994056 -170.13806496720537 -539.3286121992551 117.68989094982007 0.0 0.0
-878.8420272506753 -126.1984859860601 -489.9147278036075 108.16729055590571 0.0 0.0
-830.0536669844363 -101.6218308470724 -452.3752990706023 103.12983079261681 0.0 0.0
-783.2490121101658 -85.15849013061123 -418.2773161681807 101.32651958093865 0.0 0.0
-737.7596648442884 -72.88552508390433 -385.1118197006409 101.83453022606432 0.0 0.0
-693.0009319575651 -62.0791576817755 -349.98485875476814 104.06018811777156 0.0 0.0
-647.7362748478902 -51.36581466733887 -311.9118159270869 107.14955228068078 0.0 0.0
-600.7242730522 -39.53585387972957 -270.68108755045864 110.83072811929476 0.0 0.0
-552.4883326550463 -28.839406698367625 -228.44973577440254 114.46078422785529 0.0 0.0
-494.0604109583594 -16.244588741208446 -182.21352536719237 119.6134255718573 0.0 0.0
-419.8713056105644 -4.811129103893354 -137.54498285860365 128.94932202579668 0.0 0.0
-333.925321548336 4.9731655082712845 -100.35920347971197 138.02295273261777 0.0 0.0
-259.1126813858312 11.704152990158713 -74.39989221532467 141.86899315827486 0.0 0.0
-203.0413912444823 15.31548644448425 -56.28282804948824 143.07738245641718 0.0 0.0
-159.3535648046145 13.302167593457794 -43.80420212985677 147.76247132856156 0.0 0.0
-120.18470219825163 -1.5436533686756095 -36.51571473764228 153.32982408160495 0.0 0.0
-73.34365330155735 -45.792980057605206 -35.74099000774876 143.1126660967576 0.0 0.0
-22.098287878879784 -101.41970292834239 -37.05539724216665 75.20580803462124 0.0 0.0
-22.80102441580341 -72.50836832934776 -28.59281782354535 -63.554164660780586 0.0 0.0
-80.11528932747783 -37.53563346325606 -35.295276837220165 -128.1059269465165 0.0 0.0
-140.05055665868815 -1.6259097901441408 -42.50293993464968 -141.3671026762416 0.0 0.0
-194.9968667071286 11.566665199126335 -55.00951486886527 -135.95227518356182 0.0 0.0
-254.8605793939302 14.228464048876875 -72.08753854854166 -128.87602869675376 0.0 0.0
-327.425106826654 10.822807160628692 -95.4707168605939 -122.94285460804764 0.0 0.0
-415.3297624609548 3.3633069356784002 -129.4482541907981 -114.0161326741241 0.0 0.0
-496.3913256664373 -11.10654007339527 -177.03400708904792 -103.91470397143824 0.0 0.0
-559.3181893750632 -25.601542066903313 -227.6005300004953 -99.16187758866101 0.0 0.0
-611.936902409242 -39.70059414109109 -274.9995920719856 -96.62139793816661 0.0 0.0
-660.8478031831963 -54.178944391963036 -319.2168214755467 -93.74192415657612 0.0 0.0
-708.5361153641251 -68.73423160936638 -360.551936204007 -90.78868906331256 0.0 0.0
-755.3117789762421 -82.3355295883825 -398.24643923197164 -88.29273466226432 0.0 0.0
-802.1762411199834 -95.29031996263826 -432.75358897509216 -86.35504328721593 0.0 0.0
-850.2602768531501 -109.45039375306904 -466.09946243546017 -85.73006538253134 0.0 0.0
-900.7950485868087 -129.1713722820565 -502.4316207140687 -86.90882148638812 0.0 0.0
-958.3913970191302 -159.53502881232095 -546.7561836203769 -90.61383357255096 0.0 0.0
-1027.7822796151254 -212.41313493911156 -606.7700175596807 -98.53334661529374 0.0 0.0
-1107.7259492349192 -294.2027422641189 -684.8260592604693 -109.65269374537482 0.0 0.0
-1176.9938382979674 -399.52303122156343 -765.735083617658 -122.51416497919053 0.0 0.0
-1176.9938382981597 -399.5230312218346 -765.7350836178261 122.51416497935124 0.0 0.0
-1107.7259492349453 -294.202742264302 -684.8260592605557 109.65269374566456 0.0 0.0
-1027.7822796149985 -212.41313493908672 -606.7700175596076 98.53334661547802 0.0 0.0
-958.3913970191456 -159.53502881241778 -546.7561836203874 90.6138335726487 0.0 0.0
-900.7950485866256 -129.17137228192823 -502.43162071390464 86.90882148636638 0.0 0.0
-850.260276852706 -109.45039375266967 -466.09946243508386 85.73006538251443 0.0 0.0
-802.1762411194914 -95.29031996226678 -432.753588974704 86.35504328733624 0.0 0.0
-755.3117789759947 -82.3355295883022 -398.2464392317369 88.292734662355 0.0 0.0
-708.5361153639471 -68.73423160935423 -360.55193620378435 90.78868906330891 0.0 0.0
-660.847803182953 -54.1789443919112 -319.21682147527935 93.74192415654767 0.0 0.0
-611.9369024087518 -39.700594140772935 -274.9995920715655 96.62139793808794 0.0 0.0
-559.3181893747455 -25.601542066845695 -227.60053000020082 99.16187758862256 0.0 0.0
-496.3913256659778 -11.10654007328656 -177.03400708872127 103.91470397142794 0.0 0.0
-415.32976246040727 3.3633069358117926 -129.44825419053188 114.01613267409111 0.0 0.0
-327.42510682613823 10.822807160783706 -95.47071686039389 122.94285460796074 0.0 0.0
-254.86057939368766 14.228464048724687 -72.08753854851749 128.876028696643 0.0 0.0
-194.99686670691017 11.566665199114642 -55.00951486880484 135.95227518339152 0.0 0.0
-140.05055665856082 -1.6259097901139765 -42.50293993460244 141.36710267610175 0.0 0.0
-80.11528932738521 -37.53563346316452 -35.29527683716492 128.1059269463841 0.0 0.0
-22.801024415768186 -72.50836832927624 -28.592817823513325 63.554164660751766 0.0 0.0
-23.615960676043315 -47.809651916361844 -21.427683777721548 -51.413721597832925 0.0 0.0
-86.63403500128761 -28.85275488102909 -34.646036964695 -110.60466426534063 0.0 0.0
-159.05933413081635 -1.2622473764561142 -48.096474452181724 -125.6825105835005 0.0 0.0
-229.3798081653818 9.439075427652941 -65.97189968772956 -120.14355651119924 0.0 0.0
-304.1829700318857 12.11663323269232 -87.55888133866299 -110.43394824983743 0.0 0.0
-391.10191575061214 10.467459211981632 -115.81566924440173 -101.00750620001382 0.0 0.0
-480.64356428125575 -0.3482899606752028 -159.41043953799115 -88.86268873464006 0.0 0.0
-550.2194265752732 -18.740989113386 -214.38651371440648 -82.29249212011369 0.0 0.0
-606.752323631583 -33.45110750093377 -265.49665849672687 -81.06060839154783 0.0 0.0
-659.5561070928865 -50.61033620272666 -314.1432450305682 -79.30914129085919 0.0 0.0
-710.0011791260863 -68.37122099447201 -359.2766983692446 -77.21279705622334 0.0 0.0
-759.222076410341 -85.64964785850916 -400.67483389449166 -74.79298436641112 0.0 0.0
-808.7084246868976 -102.03466219331952 -438.8604008064129 -72.88474240909804 0.0 0.0
-857.8767839596317 -117.9270718210485 -474.23029288865416 -71.23721474415859 0.0 0.0
-908.2381746614933 -134.1879888619928 -508.69384638923657 -70.35046485088473 0.0 0.0
-963.8396116662574 -156.78122979976155 -548.3583388596569 -70.70299810575824 0.0 0.0
-1027.9462210280508 -192.93396324658124 -598.6754024585408 -72.63872152442279 0.0 0.0
-1107.7257890084707 -254.450614794615 -668.372202256126 -79.01412215673761 0.0 0.0
-1198.7124330346924 -346.2721731493226 -757.526592521315 -92.36113263999476 0.0 0.0
-1270.8695380841054 -455.9092442165619 -843.0525040323221 -114.7741632627704 0.0 0.0
-1270.869538083974 -455.9092442164898 -843.0525040322482 114.77416326289145 0.0 0.0
-1198.7124330344889 -346.2721731491929 -757.526592521172 92.36113264018853 0.0 0.0
-1107.7257890081996 -254.45061479443075 -668.3722022558882 79.01412215691613 0.0 0.0
-1027.9462210277743 -192.93396324636893 -598.6754024582366 72.63872152449652 0.0 0.0
-963.8396116661462 -156.78122979970803 -548.3583388594762 70.70299810576033 0.0 0.0
-908.2381746615174 -134.18798886210791 -508.6938463891843 70.35046485094738 0.0 0.0
-857.8767839597245 -117.92707182125136 -474.2302928886703 71.23721474418934 0.0 0.0
-808.708424687032 -102.03466219359464 -438.8604008064355 72.88474240917424 0.0 0.0
-759.2220764102026 -85.64964785852915 -400.6748338943492 74.7929843664225 0.0 0.0
-710.0011791258712 -68.3712209944448 -359.27669836900094 77.21279705620884 0.0 0.0
-659.5561070927056 -50.610336202761424 -314.14324503032196 79.30914129084263 0.0 0.0
-606.7523236313995 -33.45110750105482 -265.4966584965065 81.06060839161 0.0 0.0
-550.2194265746168 -18.740989112972173 -214.38651371391 82.2924921201177 0.0 0.0
-480.6435642805097 -0.34828996022488923 -159.41043953751705 88.8626887346169 0.0 0.0
-391.10191575020735 10.46745921187948 -115.81566924429148 101.00750619993818 0.0 0.0
-304.1829700315504 12.116633232600496 -87.5588813385995 110.43394824970159 0.0 0.0
-229.3798081650757 9.43907542771625 -65.97189968762021 120.14355651104955 0.0 0.0
-159.05933413064008 -1.2622473763561644 -48.09647445209886 125.68251058338629 0.0 0.0
-86.6340350012429 -28.85275488108313 -34.64603696469781 110.60466426529153 0.0 0.0
-23.6159606760226 -47.8096519163402 -21.427683777708836 51.41372159779449 0.0 0.0
-24.21036731048271 -27.684493163944012 -15.568458142328014 -38.753105486764966 0.0 0.0
-92.37606776922216 -20.16538775741258 -33.76243665799042 -90.82752713645047 0.0 0.0
-177.22934478694302 -0.5999764544943362 -53.348796372431195 -106.27211541482212 0.0 0.0
-263.07952907071166 6.705744208644525 -76.90265029657843 -100.48390801839403 0.0 0.0
-351.9637494885786 9.882120402873616 -102.43209352652929 -88.85784382417347 0.0 0.0
-446.7088431192535 10.151008300712068 -136.19727245870905 -76.69439600073619 0.0 0.0
-525.0881303270014 -7.621514944012217 -190.0030932817334 -65.23414491838358 0.0 0.0
-589.555385083542 -23.746918705624942 -245.89839763962704 -63.864270245647766 0.0 0.0
-646.1422451306025 -41.26270929683576 -298.18248308510465 -63.211568311216844 0.0 0.0
-699.5058280964679 -61.36446165156346 -347.44003703288485 -62.252315960864905 0.0 0.0
-751.6197360454516 -81.95132070246567 -393.0359725484507 -60.7330814219348 0.0 0.0
-803.5212848430135 -102.17001407171617 -435.3122936442928 -58.894967497532306 0.0 0.0
-855.4477528806477 -121.44488075091488 -474.47316602612517 -57.443906981645796 0.0 0.0
-908.8012544050971 -140.78305526961273 -512.5627894732302 -56.311017104335775 0.0 0.0
-962.4988662718104 -160.11807953543666 -549.706813175803 -55.23774232995684 0.0 0.0
-1019.7109964043395 -184.9288319773698 -590.9238467737058 -54.43973020486122 0.0 0.0
-1089.4190635731602 -225.1536183782216 -646.01989427782 -54.605879865240205 0.0 0.0
-1177.2591170610483 -292.9281184541028 -723.1174125861971 -59.49046844878726 0.0 0.0
-1279.5699592633368 -394.85058613808417 -823.4007321442995 -75.60628587476295 0.0 0.0
-1359.895250469009 -514.46749746091 -918.8475463893927 -108.9296684662591 0.0 0.0
-1359.8952504692234 -514.4674974611919 -918.847546389557 108.92966846639395 0.0 0.0
-1279.5699592633193 -394.8505861381291 -823.4007321442652 75.60628587493116 0.0 0.0
-1177.2591170607961 -292.92811845391725 -723.1174125859914 59.49046844894299 0.0 0.0
-1089.4190635729187 -225.15361837801868 -646.019894277576 54.60587986526184 0.0 0.0
-1019.7109964036463 -184.9288319767314 -590.9238467731642 54.43973020491099 0.0 0.0
-962.4988662712416 -160.1180795349298 -549.7068131753463 55.23774232998004 0.0 0.0
-908.8012544042107 -140.78305526878432 -512.5627894725263 56.311017104302444 0.0 0.0
-855.4477528798504 -121.44488075020026 -474.47316602546346 57.443906981643835 0.0 0.0
-803.5212848425185 -102.17001407135747 -435.3122936438679 58.89496749754928 0.0 0.0
-751.6197360448781 -81.95132070203995 -393.0359725479967 60.73308142191519 0.0 0.0
-699.5058280960893 -61.36446165137136 -347.44003703252184 62.25231596084494 0.0 0.0
-646.1422451301551 -41.262709296604996 -298.18248308470015 63.21156831124148 0.0 0.0
-589.5553850832223 -23.746918705575375 -245.89839763931639 63.864270245654325 0.0 0.0
-525.0881303265628 -7.621514943912246 -190.0030932813924 65.23414491839034 0.0 0.0
-446.7088431188677 10.151008300664305 -136.19727245854415 76.69439600069875 0.0 0.0
-351.96374948828026 9.882120402596858 -102.4320935265319 88.85784382409324 0.0 0.0
-263.07952907046734 6.705744208521644 -76.90265029654371 100.48390801830698 0.0 0.0
-177.22934478682518 -0.5999764545841408 -53.34879637242279 106.2721154147047 0.0 0.0
-92.37606776912969 -20.1653877573943 -33.762436657957196 90.82752713638534 0.0 0.0
-24.210367310466932 -27.684493163953455 -15.568458142326115 38.75310548672867 0.0 0.0
-23.96519105862911 -12.465260709595967 -10.929135530467521 -25.739917707206217 0.0 0.0
-96.3781246439277 -11.89411289168958 -32.48167126068518 -68.92016447364313 0.0 0.0
-194.5119540830607 0.20894244294308262 -58.290903492035284 -82.9226594218272 0.0 0.0
-296.66677936605936 3.0290475603476468 -88.08078306887181 -77.01907448602384 0.0 0.0
-397.7177504100266 10.040121445308033 -115.99521306742346 -64.82808328827464 0.0 0.0
-491.1758248082033 5.936770718820686 -159.101674501437 -51.8974450273915 0.0 0.0
-562.0850885581873 -13.410385936729622 -218.42973838331267 -45.362536148547 0.0 0.0
-622.2428672191728 -28.4704217162463 -273.2016854083647 -45.34590117667121 0.0 0.0
-678.9128077669336 -48.991394264368424 -326.30432634834375 -45.60166426861382 0.0 0.0
-733.8344412743124 -71.83693103025008 -376.12171147258255 -45.148992661681596 0.0 0.0
-788.2496030270919 -95.11163815839606 -422.4171782726463 -44.14693857834186 0.0 0.0
-842.5493549855041 -118.21750260069156 -465.764479527503 -42.86091597091917 0.0 0.0
-898.2862600877443 -140.54674487643098 -507.17787489169325 -41.9064696560242 0.0 0.0
-954.9440570809041 -163.7677796412743 -548.168466744933 -41.183909975694014 0.0 0.0
-1012.9123532529935 -187.5945836368727 -589.4116575886856 -40.25614500729139 0.0 0.0
-1073.8648145676573 -215.39893095964672 -633.8049373546431 -38.68808218141796 0.0 0.0
-1141.979443197142 -253.84616128867475 -687.192594952184 -36.93289732138273 0.0 0.0
-1234.3844775168484 -324.7742516073141 -768.4075989067264 -39.815284139803445 0.0 0.0
-1351.7338948281954 -439.24089307685927 -882.6857284674268 -58.202090467692635 0.0 0.0
-1452.8417225352948 -579.5991441631778 -999.6863700974411 -103.3484396102809 0.0 0.0
-1452.8417225349071 -579.5991441627893 -999.6863700971662 103.3484396103072 0.0 0.0
-1351.733894827793 -439.2408930764828 -882.6857284671247 58.2020904677794 0.0 0.0
-1234.3844775170228 -324.7742516075443 -768.4075989068336 39.81528413993091 0.0 0.0
-1141.97944319703 -253.84616128859895 -687.1925949520814 36.93289732136962 0.0 0.0
-1073.8648145671425 -215.39893095917859 -633.804937354184 38.688082181420704 0.0 0.0
-1012.9123532522149 -187.59458363613916 -589.4116575880403 40.256145007268614 0.0 0.0
-954.9440570798954 -163.76777964032422 -548.1684667441764 41.183909975651716 0.0 0.0
-898.286260087036 -140.5467448758052 -507.17787489112834 41.90646965599254 0.0 0.0
-842.5493549851429 -118.21750260048438 -465.7644795271618 42.86091597097065 0.0 0.0
-788.2496030267671 -95.11163815823458 -422.4171782723292 44.14693857832813 0.0 0.0
-733.8344412740693 -71.83693103019318 -376.1217114723361 45.1489926616771 0.0 0.0
-678.9128077666559 -48.99139426431686 -326.3043263480587 45.60166426867718 0.0 0.0
-622.2428672186775 -28.47042171597386 -273.2016854079216 45.34590117665397 0.0 0.0
-562.0850885577113 -13.410385936528995 -218.42973838291135 45.362536148516845 0.0 0.0
-491.17582480779805 5.936770718914785 -159.1016745011758 51.89744502736159 0.0 0.0
-397.7177504096058 10.040121445262432 -115.99521306731552 64.82808328822517 0.0 0.0
-296.66677936579606 3.029047560280735 -88.0807830688149 77.01907448595804 0.0 0.0
-194.5119540828515 0.20894244303276022 -58.290903491945606 82.92265942174393 0.0 0.0
-96.37812464382256 -11.894112891607918 -32.48167126062914 68.9201644735652 0.0 0.0
-23.965191058577435 -12.465260709551899 -10.9291355304388 25.739917707185935 0.0 0.0
-21.71449988243099 -2.408900490967799 -7.237020112019636 -12.890206438540853 0.0 0.0
-97.08104802520073 -4.554556572018264 -30.490681379165693 -44.89649539231845 0.0 0.0
-210.83466250608151 0.9420027162882576 -62.96779793693797 -55.0235639735294 0.0 0.0
-331.05758744835333 -1.5189789825398 -99.74074569131832 -49.910553603299235 0.0 0.0
-439.9532941518026 13.314936647499895 -128.73516675637168 -39.96242127954683 0.0 0.0
-521.8829667925305 -3.023945101650664 -184.0685014667065 -28.465648972832533 0.0 0.0
-590.4636180984751 -16.081086170508915 -241.9611622603077 -26.75397271389179 0.0 0.0
-649.2868029833215 -33.78840594094291 -297.2954624690454 -27.37750580499929 0.0 0.0
-706.5207568049357 -56.42592680320936 -350.4329274291071 -27.83914559103671 0.0 0.0
-763.4354193856927 -81.84092898702961 -400.85806324468695 -27.810363954994017 0.0 0.0
-820.5474141453312 -108.04217447520587 -448.4232922258832 -27.289197735316133 0.0 0.0
-878.4667476655136 -133.75005885858243 -493.5970366408742 -26.61660831853926 0.0 0.0
-936.9114960041961 -159.81064956041894 -537.4277801596135 -26.107960963588237 0.0 0.0
-997.7766350367526 -186.55677779921578 -581.8189395799521 -25.804938915625755 0.0 0.0
-1061.376949539524 -215.7120641212131 -628.37315586201 -25.196176117158227 0.0 0.0
-1126.7578287216477 -248.36636715498878 -677.3312804886046 -23.59507605269869 0.0 0.0
-1193.961923378601 -286.57055011707575 -730.031079319442 -20.837895542271326 0.0 0.0
-1266.9610663335102 -337.12466923901457 -791.8412135355652 -20.00182251499166 0.0 0.0
-1414.0280453313578 -476.9366759867019 -933.473206528073 -37.98842271061817 0.0 0.0
-1560.6279282635942 -659.9742096151721 -1095.3463828172462 -95.76927173920537 0.0 0.0
-1560.6279282634791 -659.974209615117 -1095.346382817195 95.76927173933328 0.0 0.0
-1414.0280453308442 -476.93667598620505 -933.4732065276913 37.98842271065334 0.0 0.0
-1266.9610663328895 -337.1246692384215 -791.8412135349815 20.001822515016848 0.0 0.0
-1193.9619233782464 -286.57055011676545 -730.0310793190483 20.837895542347916 0.0 0.0
-1126.757828721039 -248.36636715443063 -677.3312804880525 23.595076052748915 0.0 0.0
-1061.3769495388583 -215.71206412061105 -628.3731558613845 25.196176117200167 0.0 0.0
-997.7766350361861 -186.55677779873204 -581.8189395793984 25.804938915657576 0.0 0.0
-936.9114960036151 -159.810649559933 -537.427780159083 26.107960963567795 0.0 0.0
-878.4667476647373 -133.75005885794403 -493.5970366402536 26.61660831862355 0.0 0.0
-820.5474141448375 -108.04217447486958 -448.42329222547414 27.289197735293993 0.0 0.0
-763.4354193851158 -81.8409289866224 -400.8580632442026 27.810363954986656 0.0 0.0
-706.5207568044098 -56.425926802861056 -350.4329274286446 27.83914559102648 0.0 0.0
-649.2868029830406 -33.7884059408879 -297.29546246873593 27.377505804991646 0.0 0.0
-590.4636180981381 -16.081086170448952 -241.96116225997798 26.753972713925023 0.0 0.0
-521.8829667922615 -3.023945101717004 -184.068501466478 28.465648972801397 0.0 0.0
-439.95329415151133 13.314936647302336 -128.73516675631345 39.96242127958645 0.0 0.0
-331.0575874480416 -1.5189789825260989 -99.74074569122305 49.91055360328679 0.0 0.0
-210.83466250587642 0.9420027163273552 -62.967797936864706 55.02356397348243 0.0 0.0
-97.08104802512405 -4.5545565719915055 -30.490681379134667 44.89649539228215 0.0 0.0
-21.714499882378647 -2.4089004909497507 -7.237020111998518 12.890206438551525 0.0 0.0
-15.18179427250173 2.3422062212630865 -3.851876415371592 -1.3673701818488313 0.0 0.0
-91.9827864515535 1.2771735172170104 -27.211683880300946 -18.367551151020024 0.0 0.0
-226.6235821612535 0.49567311750399234 -67.83837271312485 -21.48069716058994 0.0 0.0
-366.8167423955442 -2.7643076191471874 -110.79153995007972 -19.91117528592184 0.0 0.0
-477.7158688983287 12.506729123598918 -144.6178468982784 -14.382734332664338 0.0 0.0
-552.8426353665047 -8.925948655776617 -207.35200865077294 -8.502730903263922 0.0 0.0
-612.837232748054 -18.947025725067483 -262.53150474932835 -8.794893006422637 0.0 0.0
-671.6720845338295 -38.870602283537885 -317.96905780882213 -9.375581820074586 0.0 0.0
-730.2848760931283 -63.74819586391596 -371.44708961371515 -9.872720215228274 0.0 0.0
-789.7113810956184 -91.68610173423937 -422.848028915713 -10.103233533279546 0.0 0.0
-849.637456883941 -120.12945240506517 -471.60021644209854 -10.101546296535025 0.0 0.0
-910.2177667230842 -149.63242591151533 -519.0516982479617 -10.044982747255114 0.0 0.0
-972.690690925422 -178.7673284102536 -565.8463927899969 -10.062633276510066 0.0 0.0
-1037.951732884432 -209.25897191032863 -614.0278207956992 -10.059809541683826 0.0 0.0
-1106.7795846677905 -243.5969691288945 -665.6355808476701 -9.800266784095628 0.0 0.0
-1177.9622149056859 -282.4067923779498 -720.5345912046765 -8.892841836357364 0.0 0.0
-1247.5016443870054 -323.9420033259704 -775.9406536543056 -6.9600931117391305 0.0 0.0
-1309.8608388831715 -364.77373156831527 -827.7994971731189 -3.648528204768846 0.0 0.0
-1375.513703845732 -418.3227626977706 -886.4789672309817 -11.114343074308733 0.0 0.0
-1743.9059633366214 -812.1613821307737 -1263.901292767464 -77.896195960109 0.0 0.0
-1743.905963336561 -812.1613821307315 -1263.9012927674157 77.8961959601601 0.0 0.0
-1375.513703845621 -418.3227626976816 -886.4789672308516 11.114343074303978 0.0 0.0
-1309.860838882605 -364.7737315677747 -827.7994971726528 3.6485282047459604 0.0 0.0
-1247.501644385976 -323.9420033249735 -775.9406536535156 6.960093111752864 0.0 0.0
-1177.9622149056427 -282.40679237796013 -720.5345912045611 8.89284183633592 0.0 0.0
-1106.7795846676706 -243.59696912884283 -665.6355808474989 9.80026678411688 0.0 0.0
-1037.9517328840684 -209.25897191004483 -614.027820795333 10.059809541675802 0.0 0.0
-972.6906909251152 -178.76732841004963 -565.8463927897095 10.062633276493438 0.0 0.0
-910.2177667225586 -149.63242591112885 -519.0516982475244 10.044982747289543 0.0 0.0
-849.6374568835535 -120.12945240483604 -471.6002164417377 10.101546296527792 0.0 0.0
-789.7113810952729 -91.68610173407362 -422.848028915402 10.103233533303277 0.0 0.0
-730.2848760927266 -63.74819586370218 -371.44708961335107 9.872720215222344 0.0 0.0
-671.6720845331859 -38.87060228308008 -317.96905780827615 9.375581820030678 0.0 0.0
-612.8372327476118 -18.947025724866627 -262.53150474890435 8.794893006388344 0.0 0.0
-552.84263536619 -8.925948655734363 -207.3520086504783 8.502730903216566 0.0 0.0
-477.71586889812124 12.50672912341969 -144.61784689819063 14.382734332676915 0.0 0.0
-366.8167423952295 -2.7643076191771194 -110.79153994999918 19.91117528588307 0.0 0.0
-226.62358216102797 0.49567311757016164 -67.83837271303733 21.48069716055792 0.0 0.0
-91.98278645145743 1.2771735172490377 -27.211683880262516 18.367551150998676 0.0 0.0
-15.181794272469954 2.3422062212898576 -3.8518764153540284 1.3673701818797892 0.0 0.0
SCALARS Strain float 6
LOOKUP_TABLE default
0.006320604608612128 -0.007440396204287894 0.0 -0.003841799885630423 0.0 0.0
0.0017300599674575368 -0.0005825281670741866 0.0 0.0009304730703550007 0.0 0.0
0.0016461189244185862 -0.0007346260910706115 0.0 -0.00012061454272961625 0.0 0.0
0.0019071883113339263 -0.0008125614456626629 0.0 -0.00013273577370791212 0.0 0.0
0.002431036413681917 -0.0011661278669318764 0.0 -0.00016630107637791158 0.0 0.0
0.0034422793615275435 -0.0019091989614715699 0.0 -0.00019974416282265983 0.0 0.0
0.0047826520867792046 -0.002997275522417908 0.0 -0.0002668089282464453 0.0 0.0
0.0064565572281946575 -0.004401329511558694 0.0 -0.0003472100710566195 0.0 0.0
0.008511628644364881 -0.006180919022838016 0.0 -0.00044150427422014193 0.0 0.0
0.011045911622183711 -0.008437567949444613 0.0 -0.0005503655011596387 0.0 0.0
0.014272526073549582 -0.011390293041111943 0.0 -0.0006653655154386789 0.0 0.0
0.018518261006396954 -0.015360791636418014 0.0 -0.0008217544240211316 0.0 0.0
0.02410731864646478 -0.020672541379677334 0.0 -0.0010308667682876888 0.0 0.0
0.03128140607938594 -0.027560584506933994 0.0 -0.0012919065674260044 0.0 0.0
0.040076304447956124 -0.03605167565144618 0.0 -0.0016192297282306284 0.0 0.0
0.05015719604471468 -0.04580872843029371 0.0 -0.001964714215949251 0.0 0.0
0.06075041913390882 -0.05606873418775482 0.0 -0.0021863485073140565 0.0 0.0
0.07071892849156257 -0.06571989208765361 0.0 -0.0020743220796728967 0.0 0.0
0.07876786772867453 -0.0734955174058316 0.0 -0.001568906160733824 0.0 0.0
0.08353593468838118 -0.07801300990782156 0.0 -0.001131306472536342 0.0 0.0
0.08353593468837928 -0.07801300990782112 0.0 0.0011313064725377298 0.0 0.0
0.07876786772866735 -0.07349551740582672 0.0 0.0015689061607419008 0.0 0.0
0.07071892849154958 -0.06571989208764184 0.0 0.0020743220796771156 0.0 0.0
0.060750419133892244 -0.05606873418774039 0.0 0.002186348507316249 0.0 0.0
0.050157196044697414 -0.04580872843027861 0.0 0.001964714215947072 0.0 0.0
0.04007630444793965 -0.03605167565142975 0.0 0.0016192297282306978 0.0 0.0
0.03128140607936786 -0.027560584506918007 0.0 0.0012919065674268926 0.0 0.0
0.024107318646446205 -0.0206725413796629 0.0 0.0010308667682876749 0.0 0.0
0.018518261006377962 -0.015360791636401139 0.0 0.000821754424020632 0.0 0.0
0.014272526073531785 -0.01139029304109651 0.0 0.0006653655154379989 0.0 0.0
0.01104591162216853 -0.008437567949432512 0.0 0.0005503655011570296 0.0 0.0
0.008511628644352454 -0.006180919022827913 0.0 0.00044150427421957295 0.0 0.0
0.006456557228184223 -0.004401329511549257 0.0 0.0003472100710562309 0.0 0.0
0.004782652086770964 -0.0029972755224095815 0.0 0.00026680892824643143 0.0 0.0
0.003442279361521791 -0.0019091989614659632 0.0 0.0001997441628221741 0.0 0.0
0.0024310364136791995 -0.001166127866929545 0.0 0.00016630107637799485 0.0 0.0
0.001907188311332783 -0.0008125614456613861 0.0 0.00013273577370744027 0.0 0.0
0.001646118924418058 -0.00073462609106964 0.0 0.00012061454272965788 0.0 0.0
0.0017300599674569261 -0.0005825281670738397 0.0 -0.0009304730703534186 0.0 0.0
0.006320604608607172 -0.007440396204279558 0.0 0.0038417998856130203 0.0 0.0
0.004245013764713647 -0.005673157497746287 0.0 -0.004559379685407275 0.0 0.0
0.0009724052819368549 -0.00026836262135504496 0.0 0.00026526241113894455 0.0 0.0
0.0014286349197002602 -0.0005655983576788315 0.0 -0.00011348793473670016 0.0 0.0
0.0017081376473014193 -0.0007301287526215727 0.0 -0.0003911481934607136 0.0 0.0
0.0021407609275279262 -0.0009724401261922977 0.0 -0.0004096340168062568 0.0 0.0
0.003006545313121259 -0.0015780568674981232 0.0 -0.000507321657229512 0.0 0.0
0.004225155681391764 -0.0025328772755103257 0.0 -0.0006837356802534 0.0 0.0
0.005737936117877009 -0.0037784262943675317 0.0 -0.0008769454287764072 0.0 0.0
0.007577145478014295 -0.005350723098498267 0.0 -0.0010871570021956378 0.0 0.0
0.009828661363051435 -0.0073365762185825245 0.0 -0.0013207244121648393 0.0 0.0
0.012675188616344764 -0.009921600029539235 0.0 -0.0015804748199221147 0.0 0.0
0.016406551743329344 -0.013395668568495722 0.0 -0.001891492008725404 0.0 0.0
0.021362059587817228 -0.0180943167413119 0.0 -0.0023396545684377656 0.0 0.0
0.027794676507513775 -0.024262062957807418 0.0 -0.002957295099955695 0.0 0.0
0.035737372667380585 -0.03192410099452414 0.0 -0.003711113268339214 0.0 0.0
0.04488701541449283 -0.04077647494696923 0.0 -0.004499662820426187 0.0 0.0
0.05454762145887753 -0.05013239080026488 0.0 -0.005007323622484849 0.0 0.0
0.06370295025632958 -0.05899367498625274 0.0 -0.004827667855020618 0.0 0.0
0.07113171777085203 -0.06614918706244732 0.0 -0.003839386129678546 0.0 0.0
0.07549085794610938 -0.07031925993109378 0.0 -0.0021190765822344804 0.0 0.0
0.07549085794610771 -0.07031925993109245 0.0 0.002119076582242918 0.0 0.0
0.07113171777084538 -0.06614918706244244 0.0 0.0038393861296944776 0.0 0.0
0.06370295025631828 -0.05899367498624297 0.0 0.004827667855030637 0.0 0.0
0.054547621458863604 -0.05013239080025156 0.0 0.005007323622490123 0.0 0.0
0.04488701541447808 -0.04077647494695502 0.0 0.004499662820424799 0.0 0.0
0.0357373726673655 -0.03192410099451104 0.0 0.0037111132683398385 0.0 0.0
0.027794676507497715 -0.024262062957794095 0.0 0.002957295099956403 0.0 0.0
0.021362059587800755 -0.018094316741298133 0.0 0.0023396545684375436 0.0 0.0
0.016406551743312625 -0.013395668568481733 0.0 0.0018914920087233777 0.0 0.0
0.012675188616328714 -0.009921600029526467 0.0 0.0015804748199199636 0.0 0.0
0.009828661363037894 -0.007336576218570423 0.0 0.0013207244121611894 0.0 0.0
0.007577145478003006 -0.00535072309848883 0.0 0.0010871570021949994 0.0 0.0
0.0057379361178676175 -0.0037784262943599822 0.0 0.000876945428774728 0.0 0.0
0.0042251556813842905 -0.0025328772755051077 0.0 0.0006837356802525396 0.0 0.0
0.003006545313116449 -0.0015780568674960138 0.0 0.0005073216572283185 0.0 0.0
0.0021407609275259365 -0.0009724401261909654 0.0 0.00040963401680550737 0.0 0.0
0.0017081376473004756 -0.0007301287526210176 0.0 0.0003911481934602834 0.0 0.0
0.0014286349196999254 -0.0005655983576786372 0.0 0.0001134879347361728 0.0 0.0
0.0009724052819372608 -0.00026836262135455924 0.0 -0.0002652624111404156 0.0 0.0
0.004245013764707248 -0.005673157497737497 0.0 0.0045593796853927865 0.0 0.0
0.003036389940909545 -0.004530648159898482 0.0 -0.004256664304903471 0.0 0.0
0.0005639745538096146 -0.00016473172676634285 0.0 -0.00042008931303547103 0.0 0.0
0.0011365142280946837 -0.00040082587577616735 0.0 -0.0003263754122221074 0.0 0.0
0.0015041026429719953 -0.0006356127513410526 0.0 -0.0006182130524075014 0.0 0.0
0.001885086712891993 -0.0008245839052007931 0.0 -0.0006684226552795963 0.0 0.0
0.0025725733175979704 -0.0012643179355776857 0.0 -0.0007630199903481683 0.0 0.0
0.0036581009246978574 -0.0020714154494818615 0.0 -0.0010073564740738922 0.0 0.0
0.005011998971313925 -0.0031661199768535653 0.0 -0.001305429058321636 0.0 0.0
0.006640838311785437 -0.00453296928142799 0.0 -0.0016114034822221623 0.0 0.0
0.008617690168091656 -0.006254294154007134 0.0 -0.001941986279552027 0.0 0.0
0.011097279895581166 -0.008486081404879164 0.0 -0.002315833245083762 0.0 0.0
0.014334364108362516 -0.011482379282337751 0.0 -0.0027648359383471294 0.0 0.0
0.018650143853364068 -0.015559391240637543 0.0 -0.0033718543547133772 0.0 0.0
0.024315339744213047 -0.020979194347750862 0.0 -0.004244903896549412 0.0 0.0
0.031374780106707 -0.027782438075638183 0.0 -0.005356112739317687 0.0 0.0
0.03956206440099863 -0.035700504248582066 0.0 -0.0064868720623712794 0.0 0.0
0.048279348555408254 -0.044142768706524116 0.0 -0.007226497385052794 0.0 0.0
0.05663335943267505 -0.052221339438317305 0.0 -0.007063362410793306 0.0 0.0
0.06348100565853473 -0.05881917669370229 0.0 -0.005666152708147437 0.0 0.0
0.06758980379163021 -0.06276359769734863 0.0 -0.002904597171373785 0.0 0.0
0.06758980379162845 -0.0627635976973473 0.0 0.002904597171388079 0.0 0.0
0.06348100565852849 -0.05881917669369874 0.0 0.0056661527081677265 0.0 0.0
0.05663335943266515 -0.05222133943831042 0.0 0.007063362410808127 0.0 0.0
0.04827934855539655 -0.04414276870651768 0.0 0.007226497385061481 0.0 0.0
0.039562064400985836 -0.03570050424857407 0.0 0.006486872062370919 0.0 0.0
0.03137478010669324 -0.027782438075626192 0.0 0.005356112739317853 0.0 0.0
0.024315339744199194 -0.020979194347738872 0.0 0.004244903896548857 0.0 0.0
0.01865014385334933 -0.015559391240624665 0.0 0.0033718543547133217 0.0 0.0
0.014334364108347791 -0.011482379282323762 0.0 0.002764835938343674 0.0 0.0
0.011097279895567025 -0.008486081404868506 0.0 0.002315833245080473 0.0 0.0
0.008617690168079783 -0.006254294153996587 0.0 0.0019419862795472809 0.0 0.0
0.006640838311775324 -0.004532969281419996 0.0 0.0016114034822203305 0.0 0.0
0.00501199897130547 -0.0031661199768483472 0.0 0.0013054290583189576 0.0 0.0
0.0036581009246913626 -0.0020714154494770876 0.0 0.0010073564740725183 0.0 0.0
0.0025725733175940985 -0.0012643179355751322 0.0 0.0007630199903469331 0.0 0.0
0.001885086712890588 -0.0008245839051995718 0.0 0.0006684226552793049 0.0 0.0
0.0015041026429711696 -0.000635612751340997 0.0 0.0006182130524068769 0.0 0.0
0.0011365142280944235 -0.00040082587577647266 0.0 0.0003263754122214413 0.0 0.0
0.0005639745538100066 -0.00016473172676582937 0.0 0.0004200893130326816 0.0 0.0
0.003036389940903536 -0.004530648159890524 0.0 0.004256664304891397 0.0 0.0
0.0022409005353550213 -0.0036776466804125246 0.0 -0.0036595440717013955 0.0 0.0
0.0003413535567369369 -0.00014556544527286053 0.0 -0.000999445665945467 0.0 0.0
0.0008628178135217518 -0.00027228680653273996 0.0 -0.0006421532848149558 0.0 0.0
0.001278396121587668 -0.0005248342985398335 0.0 -0.0008495357589041741 0.0 0.0
0.0016468723417053625 -0.0007101468877571682 0.0 -0.0009478636795030582 0.0 0.0
0.0021776609390584505 -0.0010101168425914464 0.0 -0.0010013501969605015 0.0 0.0
0.0030789705897792986 -0.00162956925315072 0.0 -0.001238804618552608 0.0 0.0
0.0042808246718397565 -0.0025641728196147406 0.0 -0.0016275621864354078 0.0 0.0
0.005704166241236239 -0.003733891748420093 0.0 -0.0020104232694686114 0.0 0.0
0.007414764341119807 -0.005198404905389142 0.0 -0.0024173529641104696 0.0 0.0
0.009539819946182186 -0.0070869104207387235 0.0 -0.002870064626575297 0.0 0.0
0.012297790900049281 -0.009616966241066116 0.0 -0.0034147952827247863 0.0 0.0
0.015983796839002275 -0.013082537599809152 0.0 -0.00416063982952751 0.0 0.0
0.020865630479390787 -0.01773656320415662 0.0 -0.005190864559423969 0.0 0.0
0.027008543410477398 -0.02364619853345773 0.0 -0.006506575900141143 0.0 0.0
0.03420290896202999 -0.030602129149138957 0.0 -0.007897262095380247 0.0 0.0
0.041953895797937825 -0.03810666712526878 0.0 -0.00884485407413474 0.0 0.0
0.04949461912193304 -0.04539785676100094 0.0 -0.008737279747231125 0.0 0.0
0.05580954005664355 -0.05148543366251124 0.0 -0.007074132903121727 0.0 0.0
0.05975501886319982 -0.055279773073662275 0.0 -0.0035598601348449666 0.0 0.0
0.05975501886319766 -0.05527977307365961 0.0 0.0035598601348637016 0.0 0.0
0.055809540056637685 -0.051485433662503244 0.0 0.007074132903145125 0.0 0.0
0.049494619121924474 -0.04539785676099095 0.0 0.008737279747249582 0.0 0.0
0.04195389579792777 -0.03810666712525701 0.0 0.008844854074143205 0.0 0.0
0.03420290896201861 -0.030602129149129187 0.0 0.007897262095379276 0.0 0.0
0.027008543410465324 -0.023646198533449514 0.0 0.006506575900140699 0.0 0.0
0.020865630479378935 -0.017736563204150402 0.0 0.005190864559422914 0.0 0.0
0.01598379683898951 -0.013082537599800492 0.0 0.004160639829527746 0.0 0.0
0.012297790900036479 -0.009616966241056568 0.0 0.0034147952827214556 0.0 0.0
0.009539819946170161 -0.0070869104207288425 0.0 0.0028700646265721885 0.0 0.0
0.00741476434110952 -0.005198404905379483 0.0 0.002417352964105751 0.0 0.0
0.005704166241227354 -0.0037338917484124323 0.0 0.0020104232694664603 0.0 0.0
0.004280824671832245 -0.0025641728196085234 0.0 0.001627562186432313 0.0 0.0
0.0030789705897740494 -0.0016295692531469452 0.0 0.0012388046185516366 0.0 0.0
0.002177660939055484 -0.0010101168425889484 0.0 0.0010013501969591276 0.0 0.0
0.0016468723417043946 -0.0007101468877573347 0.0 0.0009478636795020728 0.0 0.0
0.0012783961215869222 -0.0005248342985402221 0.0 0.0008495357589032165 0.0 0.0
0.0008628178135215159 -0.00027228680653304527 0.0 0.000642153284813457 0.0 0.0
0.00034135355673710344 -0.000145565445272125 0.0 0.0009994456659428996 0.0 0.0
0.002240900535350032 -0.003677646680405834 0.0 0.003659544071692389 0.0 0.0
0.001671873807255489 -0.0029916013698673277 0.0 -0.0030534003430849332 0.0 0.0
0.0002149157345904852 -0.00015825663161839199 0.0 -0.001440916738339404 0.0 0.0
0.0006289062103477273 -0.00017825520379521897 0.0 -0.0009818958669201433 0.0 0.0
0.00104293538309631 -0.000409256418493098 0.0 -0.001090383062885586 0.0 0.0
0.0014017847839769178 -0.0005987392864770791 0.0 -0.0012148793789057977 0.0 0.0
0.0018316311964133025 -0.0008155235655876725 0.0 -0.0012605065727312043 0.0 0.0
0.002521091654805574 -0.0012334239095678212 0.0 -0.00140710037189469 0.0 0.0
0.003536355354944603 -0.001970112894266962 0.0 -0.0017997284587508988 0.0 0.0
0.0047684113683308 -0.0029581857448650606 0.0 -0.0022772729710024975 0.0 0.0
0.006220569010040217 -0.0041723609238544235 0.0 -0.0027397477731263414 0.0 0.0
0.008003921770580388 -0.005728944802862346 0.0 -0.0032471568297315068 0.0 0.0
0.010298510837014052 -0.007808450821782387 0.0 -0.003848642020975318 0.0 0.0
0.013366475539743815 -0.010667907020686762 0.0 -0.004655406655948879 0.0 0.0
0.017460946943074394 -0.014554573927256564 0.0 -0.005793956350138657 0.0 0.0
0.022668320437150016 -0.019551709661833394 0.0 -0.00723058368515575 0.0 0.0
0.028836451689568117 -0.02550611646933243 0.0 -0.00871809017537653 0.0 0.0
0.03557716419736084 -0.03203340287732681 0.0 -0.009809016631251138 0.0 0.0
0.04227952855566713 -0.03851751198625952 0.0 -0.009831027698218059 0.0 0.0
0.04808405191868664 -0.04411679666801205 0.0 -0.008087483672217899 0.0 0.0
0.051923333857978246 -0.047812086923098684 0.0 -0.004111472661804366 0.0 0.0
0.05192333385797589 -0.047812086923096686 0.0 0.004111472661823767 0.0 0.0
0.04808405191868137 -0.04411679666800716 0.0 0.008087483672243101 0.0 0.0
0.04227952855565982 -0.038517511986253306 0.0 0.00983102769823646 0.0 0.0
0.03557716419735184 -0.03203340287731993 0.0 0.009809016631259604 0.0 0.0
0.02883645168955823 -0.025506116469324214 0.0 0.008718090175375337 0.0 0.0
0.022668320437139677 -0.01955170966182318 0.0 0.0072305836851556116 0.0 0.0
0.01746094694306441 -0.014554573927246794 0.0 0.005793956350136353 0.0 0.0
0.013366475539733108 -0.010667907020676992 0.0 0.0046554066559492124 0.0 0.0
0.010298510837003325 -0.007808450821774282 0.0 0.0038486420209712657 0.0 0.0
0.008003921770570396 -0.005728944802855018 0.0 0.0032471568297279263 0.0 0.0
0.006220569010031554 -0.004172360923846652 0.0 0.002739747773120249 0.0 0.0
0.004768411368323275 -0.002958185744858066 0.0 0.0022772729709992223 0.0 0.0
0.0035363553549382643 -0.001970112894261966 0.0 0.0017997284587475126 0.0 0.0
0.0025210916548015216 -0.0012334239095657118 0.0 0.0014071003718932051 0.0 0.0
0.0018316311964113041 -0.0008155235655875059 0.0 0.001260506572729761 0.0 0.0
0.0014017847839759567 -0.000598739286476635 0.0 0.0012148793789042295 0.0 0.0
0.0010429353830956611 -0.00040925641849232086 0.0 0.001090383062883435 0.0 0.0
0.0006289062103476545 -0.0001782552037950802 0.0 0.0009818958669176592 0.0 0.0
0.00021491573459049562 -0.00015825663161803116 0.0 0.001440916738336795 0.0 0.0
0.0016718738072515477 -0.002991601369861812 0.0 0.00305340034307873 0.0 0.0
0.0012519277455356886 -0.002429467986726802 0.0 -0.0025387372239270567 0.0 0.0
0.00013389510325471227 -0.00017821393600037094 0.0 -0.001760207021479887 0.0 0.0
0.0004320348838954477 -0.00010847135239855366 0.0 -0.0013002753092433705 0.0 0.0
0.0008087415805458353 -0.0002968837214377684 0.0 -0.001328734985766078 0.0 0.0
0.001144321079764657 -0.0004831076066353912 0.0 -0.001459078675437736 0.0 0.0
0.0015053998037344862 -0.000662487135462686 0.0 -0.0015359014099385337 0.0 0.0
0.0020200338057610526 -0.000929647981648074 0.0 -0.0016162270326802175 0.0 0.0
0.0028007197177821325 -0.001431157737037947 0.0 -0.0018897859298201425 0.0 0.0
0.003825717234517273 -0.002201643497859007 0.0 -0.0023693637205433327 0.0 0.0
0.0050365798662823855 -0.003183948844542872 0.0 -0.002898635944244471 0.0 0.0
0.006488648217439795 -0.004420524976962215 0.0 -0.0034333842689029948 0.0 0.0
0.008338364228446853 -0.006063399185116669 0.0 -0.0040571458811433925 0.0 0.0
0.010804763345075213 -0.008331954275301978 0.0 -0.004886231123009566 0.0 0.0
0.014113960758709743 -0.011447590390459172 0.0 -0.0060235082669221895 0.0 0.0
0.01837345163166377 -0.01551787623053702 0.0 -0.007474534564756691 0.0 0.0
0.023490384140182813 -0.02044917111623734 0.0 -0.009010185779499053 0.0 0.0
0.029173021626342437 -0.025948947437703707 0.0 -0.010143634163839815 0.0 0.0
0.03498096740483428 -0.03157486767571771 0.0 -0.010278424885350274 0.0 0.0
0.04026073822006727 -0.03667515195319604 0.0 -0.008666899406497008 0.0 0.0
0.04403196716976204 -0.040305513793719605 0.0 -0.004563431633348686 0.0 0.0
0.04403196716975969 -0.04030551379371805 0.0 0.004563431633367643 0.0 0.0
0.04026073822006268 -0.036675151953192264 0.0 0.008666899406521655 0.0 0.0
0.03498096740482791 -0.03157486767571238 0.0 0.010278424885367121 0.0 0.0
0.02917302162633474 -0.025948947437697045 0.0 0.010143634163847504 0.0 0.0
0.023490384140174556 -0.020449171116230014 0.0 0.009010185779498248 0.0 0.0
0.018373451631654963 -0.01551787623052947 0.0 0.007474534564755442 0.0 0.0
0.014113960758701763 -0.011447590390452289 0.0 0.0060235082669203854 0.0 0.0
0.01080476334506661 -0.008331954275295095 0.0 0.004886231123009732 0.0 0.0
0.008338364228438075 -0.0060633991851084534 0.0 0.0040571458811399785 0.0 0.0
0.006488648217431725 -0.00442052497695411 0.0 0.003433384268898415 0.0 0.0
0.0050365798662752315 -0.0031839488445362107 0.0 0.0028986359442382814 0.0 0.0
0.0038257172345112084 -0.002201643497854011 0.0 0.002369363720539752 0.0 0.0
0.0028007197177772336 -0.00143115773703395 0.0 0.0018897859298180053 0.0 0.0
0.0020200338057580203 -0.0009296479816457426 0.0 0.0016162270326799122 0.0 0.0
0.0015053998037330707 -0.0006624871354615203 0.0 0.0015359014099371876 0.0 0.0
0.001144321079763727 -0.000483107606634281 0.0 0.0014590786754351687 0.0 0.0
0.0008087415805453635 -0.0002968837214375464 0.0 0.0013287349857640796 0.0 0.0
0.00043203488389549627 -0.00010847135239880346 0.0 0.0013002753092411085 0.0 0.0
0.00013389510325460818 -0.00017821393600023216 0.0 0.0017602070214770005 0.0 0.0
0.0012519277455327743 -0.0024294679867225685 0.0 0.0025387372239219635 0.0 0.0
0.0009348950348653032 -0.001963730591915097 0.0 -0.002141662207286704 0.0 0.0
7.539766906176915e-05 -0.00020202225476159685 0.0 -0.001989333852288583 0.0 0.0
0.0002629553756609282 -5.1868447040914756e-05 0.0 -0.0015741316704376285 0.0 0.0
0.0005818859552577244 -0.00019209160498873112 0.0 -0.001551442511840112 0.0 0.0
0.00087778357338434 -0.0003602056334395254 0.0 -0.0016690365891523923 0.0 0.0
0.0011775736498927589 -0.0005129851048185641 0.0 -0.0017707523099615707 0.0 0.0
0.001560967632509437 -0.0006930884403218984 0.0 -0.0018433448178725997 0.0 0.0
0.0021198366399521953 -0.000994446262574944 0.0 -0.001988594833429558 0.0 0.0
0.0028909112807122966 -0.0015063786759946796 0.0 -0.0023259551360960973 0.0 0.0
0.0038561669519206615 -0.002237188608038454 0.0 -0.0028493483075071047 0.0 0.0
0.004993011382645247 -0.0031714893881265027 0.0 -0.003420739846121623 0.0 0.0
0.006416828543606583 -0.004394954116885952 0.0 -0.004038570756108778 0.0 0.0
0.00830170507379481 -0.0060891400063025625 0.0 -0.004832447991762051 0.0 0.0
0.010841365938814955 -0.008445732267273964 0.0 -0.005908589327671299 0.0 0.0
0.014143946882027497 -0.011578320359810101 0.0 -0.007265363215609583 0.0 0.0
0.01818328458382161 -0.015452993964838235 0.0 -0.008711716945298986 0.0 0.0
0.022765058932020743 -0.019883829932659802 0.0 -0.009852377696028397 0.0 0.0
0.027607566573253986 -0.024584978268207047 0.0 -0.010118557930900579 0.0 0.0
0.03229513892995969 -0.029125308416031892 0.0 -0.008789756408147054 0.0 0.0
0.036010071915503504 -0.032698573223248095 0.0 -0.0049060344532564915 0.0 0.0
0.03601007191550146 -0.032698573223245875 0.0 0.004906034453273089 0.0 0.0
0.03229513892995573 -0.029125308416026785 0.0 0.008789756408169813 0.0 0.0
0.02760756657324856 -0.024584978268202162 0.0 0.01011855793091665 0.0 0.0
0.022765058932014456 -0.019883829932654917 0.0 0.009852377696035142 0.0 0.0
0.018183284583815018 -0.015452993964832462 0.0 0.008711716945298043 0.0 0.0
0.014143946882020239 -0.01157832035980233 0.0 0.007265363215608278 0.0 0.0
0.010841365938808967 -0.008445732267267303 0.0 0.005908589327669134 0.0 0.0
0.008301705073788496 -0.006089140006296123 0.0 0.004832447991760802 0.0 0.0
0.00641682854359972 -0.004394954116880179 0.0 0.004038570756105503 0.0 0.0
0.0049930113826389955 -0.0031714893881211736 0.0 0.0034207398461170435 0.0 0.0
0.0038561669519152075 -0.002237188608034457 0.0 0.0028493483075014425 0.0 0.0
0.002890911280707689 -0.0015063786759912379 0.0 0.002325955136093266 0.0 0.0
0.002119836639948816 -0.0009944462625730566 0.0 0.00198859483342817 0.0 0.0
0.0015609676325072375 -0.000693088440319789 0.0 0.0018433448178717393 0.0 0.0
0.0011775736498916556 -0.000512985104818231 0.0 0.0017707523099598221 0.0 0.0
0.0008777835733836947 -0.0003602056334394699 0.0 0.0016690365891501718 0.0 0.0
0.000581885955257419 -0.00019209160498839806 0.0 0.0015514425118376973 0.0 0.0
0.00026295537566088656 -5.186844704074822e-05 0.0 0.0015741316704346725 0.0 0.0
7.539766906151935e-05 -0.00020202225476109725 0.0 0.0019893338522856963 0.0 0.0
0.0009348950348633256 -0.001963730591911991 0.0 0.0021416622072830405 0.0 0.0
0.0006943260345732075 -0.0015903130320664566 0.0 -0.0018573476454461918 0.0 0.0
2.5726605110062972e-05 -0.00021831883440326383 0.0 -0.0021271948587212597 0.0 0.0
0.00011455624881551163 -3.5439203276421694e-06 0.0 -0.001800158354157283 0.0 0.0
0.00036444462565077274 -9.474147097215946e-05 0.0 -0.0017435374453795421 0.0 0.0
0.0006070959314458738 -0.0002342882060644147 0.0 -0.0018430119819815849 0.0 0.0
0.0008415806966978953 -0.0003624990813005935 0.0 -0.0019667026361129547 0.0 0.0
0.0011154121185736263 -0.00049135157264657 0.0 -0.0020638203044474057 0.0 0.0
0.0014972618754911446 -0.0006601388172424727 0.0 -0.002141133984393806 0.0 0.0
0.0020085719433435914 -0.0009378772894268472 0.0 -0.002286350486188582 0.0 0.0
0.002689873866432581 -0.001380820601702637 0.0 -0.002644233364158588 0.0 0.0
0.0035153972685117996 -0.0020019586959214575 0.0 -0.0031653168711109902 0.0 0.0
0.004529925589609733 -0.0028277606567146396 0.0 -0.0037608737568153028 0.0 0.0
0.0058598183504330395 -0.003969822617940766 0.0 -0.004495170605096355 0.0 0.0
0.0076487591894601956 -0.005581828222177565 0.0 -0.005439839906485083 0.0 0.0
0.010004800777618297 -0.007773979599939418 0.0 -0.006609145500333452 0.0 0.0
0.012938394564918167 -0.010565655925652173 0.0 -0.007871034079893896 0.0 0.0
0.016374615118702307 -0.013874321898826869 0.0 -0.008898507647035286 0.0 0.0
0.020173538911766577 -0.017566719965315336 0.0 -0.009255416493845425 0.0 0.0
0.024149065542332045 -0.02144744207928917 0.0 -0.008393871322894347 0.0 0.0
0.027775473120181034 -0.0249374594794729 0.0 -0.00512884804789851 0.0 0.0
0.027775473120179583 -0.024937459479470903 0.0 0.005128848047912166 0.0 0.0
0.0241490655423289 -0.02144744207928473 0.0 0.008393871322913637 0.0 0.0
0.02017353891176235 -0.017566719965309785 0.0 0.009255416493859026 0.0 0.0
0.016374615118697297 -0.013874321898823316 0.0 0.008898507647039922 0.0 0.0
0.012938394564913538 -0.010565655925649509 0.0 0.007871034079891204 0.0 0.0
0.010004800777612968 -0.007773979599936309 0.0 0.006609145500331648 0.0 0.0
0.007648759189456025 -0.005581828222175567 0.0 0.00543983990648389 0.0 0.0
0.005859818350429077 -0.0039698226179387675 0.0 0.004495170605095911 0.0 0.0
0.004529925589604994 -0.002827760656711642 0.0 0.003760873756812777 0.0 0.0
0.0035153972685073726 -0.00200195869591846 0.0 0.0031653168711071045 0.0 0.0
0.0026898738664288963 -0.0013808206017009717 0.0 0.0026442333641537308 0.0 0.0
0.002008571943340698 -0.000937877289425515 0.0 0.0022863504861861395 0.0 0.0
0.0014972618754889727 -0.0006601388172412515 0.0 0.002141133984393112 0.0 0.0
0.0011154121185721205 -0.0004913515726461259 0.0 0.002063820304445768 0.0 0.0
0.0008415806966971667 -0.0003624990812997053 0.0 0.0019667026361111367 0.0 0.0
0.0006070959314454644 -0.00023428820606352652 0.0 0.0018430119819786706 0.0 0.0
0.0003644446256505368 -9.47414709718819e-05 0.0 0.0017435374453769331 0.0 0.0
0.00011455624881551163 -3.5439203276421694e-06 0.0 0.0018001583541544935 0.0 0.0
2.5726605109813172e-05 -0.0002183188344032777 0.0 0.0021271948587191225 0.0 0.0
0.0006943260345719654 -0.001590313032064309 0.0 0.0018573476454439714 0.0 0.0
0.0005230316165871149 -0.001324412573783476 0.0 -0.001696147859319208 0.0 0.0
-2.280395877964081e-05 -0.00021947635696842327 0.0 -0.0022060292434583767 0.0 0.0
-1.7728517770286556e-05 3.918447486894738e-05 0.0 -0.0019710046721077568 0.0 0.0
0.00015671499395061156 -3.918033689820355e-06 0.0 -0.0018968355379340301 0.0 0.0
0.000335457013752663 -0.00010867707121853254 0.0 -0.0019741251116413006 0.0 0.0
0.000497728179842595 -0.00020496073634779233 0.0 -0.002104726592812009 0.0 0.0
0.0006696952090198618 -0.00029201635495634815 0.0 -0.002220605297591216 0.0 0.0
0.000894854354518082 -0.00039193729595166094 0.0 -0.002328126890822929 0.0 0.0
0.0011925050364598455 -0.0005283488564356009 0.0 -0.0023936754449012665 0.0 0.0
0.0015778898550637063 -0.0007208307565693683 0.0 -0.002512135035205698 0.0 0.0
0.0020765057560444763 -0.001007626524703098 0.0 -0.002797556003349716 0.0 0.0
0.002678872153233078 -0.001425417598342582 0.0 -0.0032383140503528807 0.0 0.0
0.003472875389073503 -0.002034610920184532 0.0 -0.0038714634057860353 0.0 0.0
0.00454052214083174 -0.0029273688162529954 0.0 -0.0046593702104623935 0.0 0.0
0.005963265502147916 -0.004188510409826929 0.0 -0.005595370429090085 0.0 0.0
0.007777453489611223 -0.005869001433606247 0.0 -0.006598457828938281 0.0 0.0
0.010019089567554124 -0.008005116649030475 0.0 -0.00749211845864059 0.0 0.0
0.012717625279589813 -0.010601911220063265 0.0 -0.007852314803039884 0.0 0.0
0.015816898146118696 -0.013654290544407255 0.0 -0.007377141587075614 0.0 0.0
0.019216079050597017 -0.016956139696868933 0.0 -0.005140517138867373 0.0 0.0
0.019216079050596253 -0.0169561396968676 0.0 0.005140517138877837 0.0 0.0
0.015816898146116788 -0.013654290544406367 0.0 0.007377141587092101 0.0 0.0
0.012717625279586933 -0.01060191122006282 0.0 0.007852314803052124 0.0 0.0
0.010019089567550765 -0.00800511664902892 0.0 0.007492118458643338 0.0 0.0
0.0077774534896086 -0.0058690014336049146 0.0 0.0065984578289365325 0.0 0.0
0.00596326550214496 -0.0041885104098253745 0.0 0.005595370429087587 0.0 0.0
0.004540522140829478 -0.002927368816250775 0.0 0.004659370210462643 0.0 0.0
0.0034728753890716363 -0.002034610920180091 0.0 0.0038714634057867015 0.0 0.0
0.0026788721532304965 -0.0014254175983413608 0.0 0.0032383140503506047 0.0 0.0
0.002076505756042027 -0.0010076265247013216 0.0 0.0027975560033469404 0.0 0.0
0.0015778898550619647 -0.0007208307565684802 0.0 0.002512135035203006 0.0 0.0
0.001192505036458541 -0.0005283488564344907 0.0 0.002393675444900517 0.0 0.0
0.0008948543545168053 -0.0003919372959504397 0.0 0.0023281268908220965 0.0 0.0
0.0006696952090191055 -0.0002920163549552379 0.0 0.002220605297589495 0.0 0.0
0.000497728179842255 -0.00020496073634751477 0.0 0.002104726592810288 0.0 0.0
0.0003354570137524826 -0.00010867707121875458 0.0 0.0019741251116389413 0.0 0.0
0.00015671499395056299 -3.918033689431777e-06 0.0 0.0018968355379316432 0.0 0.0
-1.7728517770279617e-05 3.9184474869252695e-05 0.0 0.0019710046721054253 0.0 0.0
-2.280395877969632e-05 -0.0002194763569681596 0.0 0.0022060292434564754 0.0 0.0
0.0005230316165863724 -0.0013244125737821447 0.0 0.0016961478593180562 0.0 0.0
0.00040442384496802014 -0.0011075705105700329 0.0 -0.001555233656140062 0.0 0.0
-6.902110068360279e-05 -0.00020784347165020423 0.0 -0.002233226739515551 0.0 0.0
-0.00013792704067587536 7.859669350135379e-05 0.0 -0.0020862096606041325 0.0 0.0
-4.1624736150408514e-05 8.102259182501959e-05 0.0 -0.002004444435477301 0.0 0.0
6.584474891613984e-05 1.5145495876223158e-05 0.0 -0.002057483798652171 0.0 0.0
0.0001496201847655601 -4.544135542161598e-05 0.0 -0.0021824644975216023 0.0 0.0
0.00022038605296343522 -9.09921059087937e-05 0.0 -0.0023103856770403663 0.0 0.0
0.0002964274018609492 -0.00012836075049316165 0.0 -0.0024011042804763516 0.0 0.0
0.00040020928441939635 -0.00017432265042194306 0.0 -0.0024679871093694628 0.0 0.0
0.0005209727439975873 -0.00023268517112173814 0.0 -0.00255028108206104 0.0 0.0
0.0006863619473563426 -0.00031127388844354176 0.0 -0.0027131050360215403 0.0 0.0
0.0008818572237057412 -0.0004167827633572152 0.0 -0.002963911874670877 0.0 0.0
0.001144391466609003 -0.0005558524482358607 0.0 -0.0033649800712154954 0.0 0.0
0.0015001908628626826 -0.0007750667013939339 0.0 -0.003966732943080975 0.0 0.0
0.0019900392101399947 -0.0011182171952377473 0.0 -0.004788849064053496 0.0 0.0
0.002673866531139782 -0.0016455965121393579 0.0 -0.005756028856666456 0.0 0.0
0.0036926066045464626 -0.0025352826374627213 0.0 -0.0066776081994518455 0.0 0.0
0.0052719908401238635 -0.003981517604052742 0.0 -0.007102947238757845 0.0 0.0
0.007446649834132624 -0.006007790014881387 0.0 -0.006546774393740018 0.0 0.0
0.010245019339813553 -0.008850307409455471 0.0 -0.005117691894495041 0.0 0.0
0.010245019339813609 -0.00885030740945747 0.0 0.0051176918945032845 0.0 0.0
0.007446649834131867 -0.006007790014882497 0.0 0.006546774393754146 0.0 0.0
0.005271990840122441 -0.0039815176040503 0.0 0.007102947238767088 0.0 0.0
0.003692606604545297 -0.002535282637461389 0.0 0.006677608199452928 0.0 0.0
0.002673866531139213 -0.0016455965121375815 0.0 0.0057560288566646245 0.0 0.0
0.0019900392101393424 -0.001118217195236637 0.0 0.004788849064051082 0.0 0.0
0.0015001908628624258 -0.0007750667013957102 0.0 0.003966732943081669 0.0 0.0
0.0011443914666091001 -0.000555852448237637 0.0 0.003364980071215662 0.0 0.0
0.0008818572237053873 -0.0004167827633572152 0.0 0.002963911874669184 0.0 0.0
0.0006863619473559956 -0.0003112738884443189 0.0 0.0027131050360197917 0.0 0.0
0.000520972743997615 -0.00023268517112362552 0.0 0.0025502810820585975 0.0 0.0
0.00040020928441936165 -0.00017432265042205408 0.0 0.0024679871093689076 0.0 0.0
0.00029642740186060224 -0.0001283607504914963 0.0 0.002401104280476074 0.0 0.0
0.00022038605296333807 -9.099210590735041e-05 0.0 0.002310385677038451 0.0 0.0
0.00014962018476570582 -4.544135542094985e-05 0.0 0.0021824644975188545 0.0 0.0
6.58447489161329e-05 1.5145495876722759e-05 0.0 0.002057483798649881 0.0 0.0
-4.162473615023504e-05 8.10225918250751e-05 0.0 0.002004444435475025 0.0 0.0
-0.00013792704067580597 7.859669350143705e-05 0.0 0.0020862096606016206 0.0 0.0
-6.902110068349177e-05 -0.00020784347165013484 0.0 0.0022332267395134275 0.0 0.0
0.000404423844967583 -0.0011075705105690259 0.0 0.001555233656138716 0.0 0.0
0.00031343520083338544 -0.000913318846800848 0.0 -0.0014135516779616303 0.0 0.0
-0.00011268938667035461 -0.0001851429214316247 0.0 -0.002210351574361849 0.0 0.0
-0.00024876251816289413 0.0001160492299388527 0.0 -0.0021450471784283387 0.0 0.0
-0.00023109383269339506 0.0001606732130677857 0.0 -0.002062165558161036 0.0 0.0
-0.00019945913247102626 0.00013558548206393795 0.0 -0.002089510391937499 0.0 0.0
-0.0001986075328480122 0.00011356901334069747 0.0 -0.0021950541203626106 0.0 0.0
-0.00023097040367586752 0.00011145228540576646 0.0 -0.0023131040294814276 0.0 0.0
-0.0002949210705459962 0.00013014049988435694 0.0 -0.002400921834223718 0.0 0.0
-0.00039758215470812874 0.00017232720758220132 0.0 -0.002467262944709586 0.0 0.0
-0.0005192385254353116 0.00023110653727764774 0.0 -0.0025498279275681934 0.0 0.0
-0.0006849414964757647 0.000310253028013574 0.0 -0.002712717834066375 0.0 0.0
-0.0008814634635660595 0.00041754498437107657 0.0 -0.0029628562270790637 0.0 0.0
-0.0011501548690078939 0.0005615998451553583 0.0 -0.003361399732570769 0.0 0.0
-0.00151377528902423 0.0007823579407977288 0.0 -0.00396396183803846 0.0 0.0
-0.00196853094244534 0.0010886590212955127 0.0 -0.004812689140641563 0.0 0.0
-0.002427675598367339 0.001405687947852785 0.0 -0.005866430328513639 0.0 0.0
-0.0026652190339791146 0.0015712298224068721 0.0 -0.007092755897981223 0.0 0.0
-0.002315438734600467 0.001276122402049884 0.0 -0.008438636515197745 0.0 0.0
-0.001078420082176193 0.00046607812837717866 0.0 -0.009389446351623393 0.0 0.0
0.0014642673893235092 -0.0017774228968654437 0.0 -0.007600215322259907 0.0 0.0
0.0014642673893238561 -0.0017774228968661099 0.0 0.007600215322271009 0.0 0.0
-0.0010784200821766093 0.0004660781283758464 0.0 0.009389446351636077 0.0 0.0
-0.002315438734599995 0.001276122402049662 0.0 0.008438636515203157 0.0 0.0
-0.0026652190339777476 0.0015712298224046517 0.0 0.007092755897981029 0.0 0.0
-0.002427675598365535 0.0014056879478494544 0.0 0.005866430328510641 0.0 0.0
-0.001968530942443751 0.0010886590212939584 0.0 0.004812689140638843 0.0 0.0
-0.0015137752890225231 0.0007823579407983949 0.0 0.003963961838037849 0.0 0.0
-0.001150154869005618 0.0005615998451546922 0.0 0.0033613997325706024 0.0 0.0
-0.0008814634635640958 0.00041754498437052145 0.0 0.0029628562270774816 0.0 0.0
-0.0006849414964739259 0.00031025302801324095 0.0 0.0027127178340640434 0.0 0.0
-0.0005192385254336532 0.00023110653727753672 0.0 0.002549827927565723 0.0 0.0
-0.00039758215470687974 0.00017232720758186826 0.0 0.002467262944709392 0.0 0.0
-0.0002949210705454411 0.00013014049988380183 0.0 0.0024009218342229965 0.0 0.0
-0.00023097040367526384 0.00011145228540487828 0.0 0.0023131040294794847 0.0 0.0
-0.00019860753284750565 0.0001135690133403644 0.0 0.002195054120360057 0.0 0.0
-0.00019945913247072788 0.00013558548206404897 0.0 0.0020895103919347097 0.0 0.0
-0.00023109383269297873 0.00016067321306800775 0.0 0.0020621655581585796 0.0 0.0
-0.00024876251816269984 0.00011604922993888045 0.0 0.0021450471784265485 0.0 0.0
-0.00011268938667013256 -0.00018514292143158306 0.0 0.0022103515743598645 0.0 0.0
0.0003134352008330593 -0.0009133188467999572 0.0 0.0014135516779601037 0.0 0.0
0.00023485250209784314 -0.0007335931145804331 0.0 -0.0012693029015561352 0.0 0.0
-0.0001553033692180822 -0.00015278571415816566 0.0 -0.002137963218463615 0.0 0.0
-0.000352273974311923 0.0001527259736312514 0.0 -0.0021485621451592662 0.0 0.0
-0.000412140710729772 0.00023539776929770717 0.0 -0.002067680279797035 0.0 0.0
-0.00045872444647850064 0.0002513952225114413 0.0 -0.002067608371532012 0.0 0.0
-0.0005426109655858463 0.0002693686773685977 0.0 -0.002143453596560499 0.0 0.0
-0.000679356815720969 0.0003111082132584153 0.0 -0.0022310311071637168 0.0 0.0
-0.0008935582516501062 0.0003934836752663706 0.0 -0.00232798373883511 0.0 0.0
-0.0011900457838605188 0.000526370512462293 0.0 -0.002391522014222186 0.0 0.0
-0.0015763028697548392 0.0007193395653349866 0.0 -0.002510888485228624 0.0 0.0
-0.002075236686816334 0.0010065483434912315 0.0 -0.0027974333234132287 0.0 0.0
-0.0026780163970165083 0.001425453007987798 0.0 -0.003236527869168976 0.0 0.0
-0.0034766465305228755 0.002040309893694525 0.0 -0.003859935312638507 0.0 0.0
-0.004554710898428654 0.002940013965188948 0.0 -0.004646191087742557 0.0 0.0
-0.005955064547699618 0.004161035303005711 0.0 -0.005647078331047495 0.0 0.0
-0.0075649940533183 0.005603816839973685 0.0 -0.006895430987471418 0.0 0.0
-0.00909183011308843 0.0069686709096759 0.0 -0.008394845737931006 0.0 0.0
-0.010051293462004361 0.007779547032314094 0.0 -0.010037395151264034 0.0 0.0
-0.009690929769456617 0.0071873626779881405 0.0 -0.010829556906838067 0.0 0.0
-0.006828948813675198 0.004318070941109253 0.0 -0.008885282062885275 0.0 0.0
-0.006828948813675538 0.004318070941111696 0.0 0.008885282062895378 0.0 0.0
-0.009690929769456513 0.007187362677989251 0.0 0.010829556906850613 0.0 0.0
-0.010051293462002009 0.007779547032314316 0.0 0.010037395151272277 0.0 0.0
-0.009091830113084544 0.006968670909676122 0.0 0.00839484573793195 0.0 0.0
-0.007564994053314018 0.005603816839970577 0.0 0.006895430987468643 0.0 0.0
-0.005955064547696037 0.004161035302999938 0.0 0.005647078331046079 0.0 0.0
-0.00455471089842497 0.0029400139651825086 0.0 0.004646191087740753 0.0 0.0
-0.0034766465305184 0.002040309893688752 0.0 0.0038599353126378966 0.0 0.0
-0.002678016397012331 0.0014254530079840233 0.0 0.0032365278691668387 0.0 0.0
-0.0020752366868122957 0.001006548343489011 0.0 0.002797433323410009 0.0 0.0
-0.001576302869751349 0.0007193395653339874 0.0 0.0025108884852250435 0.0 0.0
-0.0011900457838579653 0.00052637051246196 0.0 0.0023915220142213256 0.0 0.0
-0.0008935582516484894 0.0003934836752662596 0.0 0.002327983738834971 0.0 0.0
-0.0006793568157197338 0.0003111082132584153 0.0 0.0022310311071623845 0.0 0.0
-0.0005426109655849512 0.0002693686773671544 0.0 0.002143453596557904 0.0 0.0
-0.0004587244464778345 0.00025139522251071966 0.0 0.0020676083715299998 0.0 0.0
-0.0004121407107292793 0.00023539776929776268 0.0 0.002067680279794787 0.0 0.0
-0.0003522739743114858 0.00015272597363136242 0.0 0.002148562145157032 0.0 0.0
-0.00015530336921792953 -0.00015278571415769382 0.0 0.0021379632184614777 0.0 0.0
0.00023485250209757252 -0.0007335931145797427 0.0 0.0012693029015544283 0.0 0.0
0.00016312437866293494 -0.0005682781234950252 0.0 -0.0011246008040316224 0.0 0.0
-0.00019892456812029002 -0.00011216620630191687 0.0 -0.0020195059416237143 0.0 0.0
-0.0004501151706977208 0.00018956325009178432 0.0 -0.0020970441100951753 0.0 0.0
-0.0005851748203140328 0.0003055413779680105 0.0 -0.002019935459178529 0.0 0.0
-0.000710441847242213 0.0003611559215865312 0.0 -0.001990388479783292 0.0 0.0
-0.0008786555508829286 0.00041957499969624834 0.0 -0.0020260973018431383 0.0 0.0
-0.0011236756326339359 0.000508154003139305 0.0 -0.0020794513472511267 0.0 0.0
-0.0014960587971805522 0.0006612267578973707 0.0 -0.002141399686098888 0.0 0.0
-0.002006449170561919 0.0009357281340095502 0.0 -0.0022825183613209843 0.0 0.0
-0.0026886128215002913 0.0013792214727093022 0.0 -0.002641822473261085 0.0 0.0
-0.0035146158572066794 0.00200082482392705 0.0 -0.003165293904450389 0.0 0.0
-0.004528207433944401 0.002826457067050203 0.0 -0.0037591659242321163 0.0 0.0
-0.005859070548798362 0.0039719126694188756 0.0 -0.004476023301491661 0.0 0.0
-0.00765924402227737 0.005593787907699932 0.0 -0.005395968550375219 0.0 0.0
-0.010012033873969275 0.007765836456585795 0.0 -0.006621977429193959 0.0 0.0
-0.012793198167273534 0.010368370409135297 0.0 -0.008258672090761532 0.0 0.0
-0.015628861817193723 0.013021784354501298 0.0 -0.0104166703410431 0.0 0.0
-0.017830880640527874 0.014983725842885542 0.0 -0.012817735129414198 0.0 0.0
-0.018134331626726674 0.014988357885616255 0.0 -0.014148063396810656 0.0 0.0
-0.014698045874870294 0.011164739651627675 0.0 -0.01155888498200558 0.0 0.0
-0.014698045874870683 0.011164739651625677 0.0 0.01155888498201793 0.0 0.0
-0.018134331626725612 0.014988357885613368 0.0 0.014148063396827976 0.0 0.0
-0.017830880640523905 0.0149837258428831 0.0 0.012817735129425412 0.0 0.0
-0.015628861817187735 0.013021784354494192 0.0 0.010416670341045597 0.0 0.0
-0.012793198167266838 0.010368370409128413 0.0 0.008258672090759367 0.0 0.0
-0.010012033873964106 0.007765836456580022 0.0 0.006621977429191822 0.0 0.0
-0.00765924402227159 0.005593787907697045 0.0 0.005395968550372776 0.0 0.0
-0.0058590705487920475 0.003971912669414879 0.0 0.004476023301489052 0.0 0.0
-0.004528207433937934 0.002826457067044652 0.0 0.0037591659242268427 0.0 0.0
-0.003514615857200358 0.0020008248239199444 0.0 0.003165293904444366 0.0 0.0
-0.002688612821494976 0.0013792214727044172 0.0 0.002641822473256644 0.0 0.0
-0.0020064491705579154 0.0009357281340072188 0.0 0.00228251836131943 0.0 0.0
-0.001496058797177742 0.0006612267578961495 0.0 0.002141399686099027 0.0 0.0
-0.001123675632632222 0.000508154003139194 0.0 0.002079451347249961 0.0 0.0
-0.0008786555508816379 0.00041957499969524914 0.0 0.0020260973018409872 0.0 0.0
-0.0007104418472413249 0.00036115592158636467 0.0 0.0019903884797808358 0.0 0.0
-0.0005851748203133597 0.00030554137796817704 0.0 0.0020199354591759755 0.0 0.0
-0.0004501151706972628 0.00018956325009178432 0.0 0.0020970441100926357 0.0 0.0
-0.00019892456812006104 -0.00011216620630188912 0.0 0.00201950594162173 0.0 0.0
0.0001631243786626435 -0.000568278123494438 0.0 0.0011246008040306371 0.0 0.0
9.7221210861545e-05 -0.0004183679869606133 0.0 -0.000977675504451242 0.0 0.0
-0.00024441731141000567 -6.533793532437215e-05 0.0 -0.0018604646592594448 0.0 0.0
-0.0005437602076736603 0.0002272720670641326 0.0 -0.001992942813850762 0.0 0.0
-0.0007507331079679574 0.00037102190928506307 0.0 -0.0019199960124745286 0.0 0.0
-0.000952933338281281 0.00046491587258118416 0.0 -0.0018578085357160296 0.0 0.0
-0.0012053060737403087 0.0005616892325165379 0.0 -0.0018518663971442695 0.0 0.0
-0.0015660202376833882 0.0007073975186424608 0.0 -0.001868023071005448 0.0 0.0
-0.0021190019062265752 0.0009945470710773785 0.0 -0.001987030675049184 0.0 0.0
-0.00288930283728428 0.0015042657871485732 0.0 -0.002320974313434393 0.0 0.0
-0.0038555662692910664 0.002236011319032727 0.0 -0.0028468586606874013 0.0 0.0
-0.004992788551587787 0.003170906122620276 0.0 -0.003421606551531009 0.0 0.0
-0.006414346810341018 0.004392318999454581 0.0 -0.004038645642760019 0.0 0.0
-0.008293997300252418 0.006083867403462895 0.0 -0.004810446668464696 0.0 0.0
-0.010837802295399074 0.008446288276141134 0.0 -0.005831084950158827 0.0 0.0
-0.014156735328327869 0.011583365691511194 0.0 -0.00720165021857172 0.0 0.0
-0.018137241371561766 0.015369139777757557 0.0 -0.00910878191368475 0.0 0.0
-0.022306607114362942 0.01931669663228064 0.0 -0.011743509411068609 0.0 0.0
-0.025672565718795337 0.02238156214926179 0.0 -0.014793106331939476 0.0 0.0
-0.02645153559131358 0.02276523379181472 0.0 -0.016732784890125335 0.0 0.0
-0.021983196442680077 0.017803869844105646 0.0 -0.014363676609093073 0.0 0.0
-0.02198319644267987 0.01780386984410609 0.0 0.014363676609107673 0.0 0.0
-0.02645153559131154 0.022765233791814055 0.0 0.016732784890145208 0.0 0.0
-0.025672565718789973 0.02238156214925824 0.0 0.014793106331953576 0.0 0.0
-0.02230660711435533 0.019316696632274644 0.0 0.011743509411072606 0.0 0.0
-0.01813724137155312 0.015369139777748897 0.0 0.009108781913682473 0.0 0.0
-0.014156735328320902 0.011583365691502978 0.0 0.007201650218569666 0.0 0.0
-0.010837802295391476 0.008446288276133807 0.0 0.005831084950156801 0.0 0.0
-0.00829399730024423 0.006083867403456011 0.0 0.0048104466684621705 0.0 0.0
-0.00641434681033233 0.0043923189994476974 0.0 0.004038645642756772 0.0 0.0
-0.004992788551579391 0.003170906122614614 0.0 0.0034216065515244865 0.0 0.0
-0.0038555662692838083 0.002236011319028175 0.0 0.0028468586606819335 0.0 0.0
-0.0028893028372786525 0.0015042657871451315 0.0 0.0023209743134320893 0.0 0.0
-0.002119001906222391 0.0009945470710762683 0.0 0.001987030675048379 0.0 0.0
-0.001566020237680904 0.0007073975186413506 0.0 0.001868023071003616 0.0 0.0
-0.001205306073738699 0.0005616892325167044 0.0 0.001851866397142507 0.0 0.0
-0.0009529333382802124 0.0004649158725812397 0.0 0.0018578085357149887 0.0 0.0
-0.0007507331079670901 0.00037102190928506307 0.0 0.0019199960124731408 0.0 0.0
-0.0005437602076731884 0.00022727206706404934 0.0 0.0019929428138489858 0.0 0.0
-0.00024441731140975587 -6.533793532406684e-05 0.0 0.0018604646592578489 0.0 0.0
9.722121086136459e-05 -0.0004183679869601423 0.0 0.0009776755044500762 0.0 0.0
3.764665715032256e-05 -0.00028545107828771565 0.0 -0.0008262041405901477 0.0 0.0
-0.0002913300811866748 -1.456231806923336e-05 0.0 -0.0016653770503047144 0.0 0.0
-0.00063405950870625 0.000265700695939286 0.0 -0.0018377723347911407 0.0 0.0
-0.0009093158243293209 0.0004324363915755858 0.0 -0.0017660682428966845 0.0 0.0
-0.0011851000664759859 0.0005596607586887958 0.0 -0.0016705268066458667 0.0 0.0
-0.0015219756872684037 0.0006978296542151652 0.0 -0.0016169290962722016 0.0 0.0
-0.0020223622546063774 0.0009395328351742283 0.0 -0.0016365419798101133 0.0 0.0
-0.002800284116043328 0.0014312203703855664 0.0 -0.0018883033817362338 0.0 0.0
-0.0038251225651591003 0.0022000820422741763 0.0 -0.00236324042082367 0.0 0.0
-0.005036740790047081 0.0031834666128024436 0.0 -0.002895803229846783 0.0 0.0
-0.006488967514412455 0.004420480376311042 0.0 -0.0034341644288324036 0.0 0.0
-0.008335337572791049 0.006059693006436051 0.0 -0.004058670688185578 0.0 0.0
-0.010788808974590794 0.0083170214789976 0.0 -0.0048657171156041845 0.0 0.0
-0.014086518813126128 0.011426078513010696 0.0 -0.005927117936362469 0.0 0.0
-0.018376325058876472 0.01552470479279311 0.0 -0.007339766086005894 0.0 0.0
-0.023551958523598454 0.020487162440432582 0.0 -0.009304328927366268 0.0 0.0
-0.029038204151580385 0.025708838932676725 0.0 -0.01205639455130153 0.0 0.0
-0.033518744609523726 0.029824813745295886 0.0 -0.015485516130165466 0.0 0.0
-0.03462338920781166 0.03044987970629265 0.0 -0.0181603951861265 0.0 0.0
-0.028936900498923702 0.024252396592649328 0.0 -0.017091270034596207 0.0 0.0
-0.02893690049892298 0.02425239659264733 0.0 0.017091270034612777 0.0 0.0
-0.03462338920780826 0.03044987970628865 0.0 0.018160395186148898 0.0 0.0
-0.033518744609517065 0.02982481374528967 0.0 0.015485516130181037 0.0 0.0
-0.029038204151571524 0.02570883893266762 0.0 0.01205639455130686 0.0 0.0
-0.023551958523588393 0.02048716244042348 0.0 0.00930432892736438 0.0 0.0
-0.018376325058867375 0.015524704792786448 0.0 0.007339766086003785 0.0 0.0
-0.014086518813116518 0.01142607851300359 0.0 0.0059271179363611926 0.0 0.0
-0.010788808974580788 0.008317021478988718 0.0 0.0048657171156030465 0.0 0.0
-0.008335337572780231 0.006059693006426059 0.0 0.004058670688181304 0.0 0.0
-0.006488967514402116 0.0044204803763018274 0.0 0.003434164428826436 0.0 0.0
-0.0050367407900381855 0.0031834666127960043 0.0 0.0028958032298404823 0.0 0.0
-0.003825122565151766 0.002200082042268181 0.0 0.0023632404208192015 0.0 0.0
-0.002800284116037652 0.0014312203703816806 0.0 0.001888303381733153 0.0 0.0
-0.0020223622546028178 0.0009395328351725629 0.0 0.0016365419798081704 0.0 0.0
-0.0015219756872663845 0.0006978296542148876 0.0 0.0016169290962711053 0.0 0.0
-0.0011851000664746467 0.0005596607586876856 0.0 0.0016705268066445483 0.0 0.0
-0.0009093158243283425 0.0004324363915751417 0.0 0.001766068242894575 0.0 0.0
-0.0006340595087057296 0.000265700695939175 0.0 0.0018377723347893227 0.0 0.0
-0.00029133008118643194 -1.4562318068997437e-05 0.0 0.0016653770503029935 0.0 0.0
3.764665715034338e-05 -0.0002854510782874589 0.0 0.000826204140589773 0.0 0.0
-1.42237998390915e-05 -0.00017148279290116197 0.0 -0.000668378380771828 0.0 0.0
-0.00033792198723785194 3.765633354382847e-05 0.0 -0.0014378606354494283 0.0 0.0
-0.000721258587911125 0.0003044224759922165 0.0 -0.0016338726375855067 0.0 0.0
-0.0010618427277556963 0.0004900174629047793 0.0 -0.0015613549955128952 0.0 0.0
-0.001406260043058702 0.0006470096067829889 0.0 -0.0014332343069631964 0.0 0.0
-0.0018351903907186662 0.0008422901391526016 0.0 -0.001351364264744942 0.0 0.0
-0.0025216761151910377 0.0012408715276311932 0.0 -0.0014288438415370752 0.0 0.0
-0.003536911997164091 0.0019702181383579598 0.0 -0.0017948225375828686 0.0 0.0
-0.004769319288719792 0.0029579191094613044 0.0 -0.002271137862447231 0.0 0.0
-0.006221392126937633 0.00417277275028527 0.0 -0.002737400117758082 0.0 0.0
-0.008004621897152703 0.0057293237001730946 0.0 -0.0032479680503454955 0.0 0.0
-0.010294554821874927 0.0078034617055482425 0.0 -0.003849677954738645 0.0 0.0
-0.013342539296340411 0.010643332320967147 0.0 -0.00463817137413608 0.0 0.0
-0.017407496541162457 0.014507428243823783 0.0 -0.005705778504449532 0.0 0.0
-0.02264525555114444 0.019543015531318986 0.0 -0.0070591806435212345 0.0 0.0
-0.028967735119833346 0.025629776759181988 0.0 -0.008814600843020659 0.0 0.0
-0.03572230403667562 0.032083192863209264 0.0 -0.011355170994579167 0.0 0.0
-0.04127785431159613 0.03721675709947769 0.0 -0.014878395707602965 0.0 0.0
-0.04268871302777964 0.03808369063036898 0.0 -0.01851419574054014 0.0 0.0
-0.03583652641848248 0.03069686384581649 0.0 -0.019843111824899645 0.0 0.0
-0.03583652641848126 0.030696863845815825 0.0 0.01984311182491766 0.0 0.0
-0.04268871302777514 0.03808369063036543 0.0 0.01851419574056254 0.0 0.0
-0.04127785431158808 0.03721675709947103 0.0 0.014878395707619813 0.0 0.0
-0.0357223040366656 0.03208319286320083 0.0 0.011355170994584968 0.0 0.0
-0.028967735119821994 0.02562977675917133 0.0 0.008814600843020437 0.0 0.0
-0.02264525555113328 0.01954301553130766 0.0 0.0070591806435209015 0.0 0.0
-0.01740749654115064 0.014507428243811349 0.0 0.00570577850444684 0.0 0.0
-0.013342539296328837 0.010643332320954713 0.0 0.004638171374134567 0.0 0.0
-0.010294554821862194 0.00780346170553603 0.0 0.003849677954735037 0.0 0.0
-0.008004621897140404 0.00572932370016177 0.0 0.0032479680503398473 0.0 0.0
-0.006221392126927301 0.004172772750275722 0.0 0.0027374001177527113 0.0 0.0
-0.0047693192887109 0.0029579191094529778 0.0 0.0022711378624443723 0.0 0.0
-0.0035369119971570724 0.001970218138354074 0.0 0.0017948225375801902 0.0 0.0
-0.0025216761151860313 0.001240871527629528 0.0 0.001428843841534938 0.0 0.0
-0.0018351903907161751 0.0008422901391509363 0.0 0.0013513642647434154 0.0 0.0
-0.0014062600430571996 0.0006470096067821007 0.0 0.0014332343069617254 0.0 0.0
-0.0010618427277544612 0.0004900174629045018 0.0 0.0015613549955110217 0.0 0.0
-0.0007212585879105178 0.0003044224759923275 0.0 0.0016338726375840218 0.0 0.0
-0.00033792198723754316 3.76563335434954e-05 0.0 0.00143786063544879 0.0 0.0
-1.4223799839039458e-05 -0.00017148279290110386 0.0 0.0006683783807713284 0.0 0.0
-5.617240959300551e-05 -7.875422764050399e-05 0.0 -0.0005037903713279446 0.0 0.0
-0.00038098860222300635 8.838081785375596e-05 0.0 -0.001180757852773856 0.0 0.0
-0.0008052235646943268 0.0003428673294665896 0.0 -0.0013815375003926877 0.0 0.0
-0.0012098629180208181 0.0005433100477035269 0.0 -0.0013059265647888396 0.0 0.0
-0.001616827960937553 0.000727800515713084 0.0 -0.0011511009386609705 0.0 0.0
-0.0021677227471786353 0.0010222125326241338 0.0 -0.0010819339943537731 0.0 0.0
-0.0030780750191528317 0.0016326495420473375 0.0 -0.0012510890270554798 0.0 0.0
-0.004284035994609997 0.002565634591752408 0.0 -0.001620727994417065 0.0 0.0
-0.005706691366605746 0.0037355164915806593 0.0 -0.002005103062591579 0.0 0.0
-0.0074162275561488605 0.005199606902587028 0.0 -0.0024155923243966704 0.0 0.0
-0.009540382683660822 0.007087168625068085 0.0 -0.0028705030608930926 0.0 0.0
-0.012291736594740726 0.00960972940962268 0.0 -0.0034138124673719072 0.0 0.0
-0.01595316996666292 0.013050438367347539 0.0 -0.004146866638359115 0.0 0.0
-0.020794183061181776 0.017669888862885896 0.0 -0.005132425588656675 0.0 0.0
-0.026950023563811557 0.02360537604584545 0.0 -0.006355390254894899 0.0 0.0
-0.03432109746817155 0.030729970117860717 0.0 -0.007770693384786975 0.0 0.0
-0.04223331613936494 0.038312130986906556 0.0 -0.009661179840499579 0.0 0.0
-0.048849545075655504 0.04446293577945282 0.0 -0.012862035957610485 0.0 0.0
-0.05073930574751628 0.045743663192424844 0.0 -0.0177381153511581 0.0 0.0
-0.042927545703879535 0.0373411251152409 0.0 -0.022619172570412016 0.0 0.0
-0.04292754570387797 0.037341125115238016 0.0 0.022619172570429336 0.0 0.0
-0.05073930574751052 0.04574366319241907 0.0 0.017738115351179418 0.0 0.0
-0.04884954507564624 0.04446293577944482 0.0 0.012862035957627194 0.0 0.0
-0.04223331613935361 0.038312130986896564 0.0 0.009661179840503797 0.0 0.0
-0.0343210974681587 0.030729970117851613 0.0 0.007770693384788752 0.0 0.0
-0.02695002356379872 0.02360537604583568 0.0 0.006355390254895024 0.0 0.0
-0.020794183061168058 0.017669888862877015 0.0 0.005132425588654399 0.0 0.0
-0.015953169966649465 0.013050438367338435 0.0 0.004146866638357005 0.0 0.0
-0.012291736594725957 0.009609729409610468 0.0 0.00341381246736934 0.0 0.0
-0.009540382683646705 0.007087168625056872 0.0 0.002870503060888527 0.0 0.0
-0.007416227556136891 0.005199606902576925 0.0 0.0024155923243918964 0.0 0.0
-0.005706691366595587 0.0037355164915726657 0.0 0.0020051030625890948 0.0 0.0
-0.004284035994601643 0.0025656345917454138 0.0 0.0016207279944144698 0.0 0.0
-0.0030780750191464097 0.0016326495420426745 0.0 0.0012510890270530928 0.0 0.0
-0.0021677227471754643 0.0010222125326219689 0.0 0.0010819339943523576 0.0 0.0
-0.0016168279609358495 0.0007278005157114187 0.0 0.0011511009386601379 0.0 0.0
-0.0012098629180195067 0.0005433100477025277 0.0 0.001305926564787771 0.0 0.0
-0.0008052235646936155 0.0003428673294659512 0.0 0.0013815375003911612 0.0 0.0
-0.00038098860222262124 8.838081785365881e-05 0.0 0.0011807578527730095 0.0 0.0
-5.617240959291531e-05 -7.875422764057772e-05 0.0 0.0005037903713274727 0.0 0.0
-8.473436093305031e-05 -9.984813664334902e-06 0.0 -0.00033461893019368083 0.0 0.0
-0.0004153269469910764 0.0001338191293984714 0.0 -0.0008959621381573607 0.0 0.0
-0.0008854368288416653 0.0003802489985773594 0.0 -0.0010779945724837536 0.0 0.0
-0.0013555031161073122 0.0005920660863581451 0.0 -0.0010009776284724686 0.0 0.0
-0.001823025764044292 0.0008156800799800079 0.0 -0.0008380066042132095 0.0 0.0
-0.0025495071693637517 0.001260825712182112 0.0 -0.0008235984924954975 0.0 0.0
-0.0036595264848624243 0.0020716760591059646 0.0 -0.00101009856352699 0.0 0.0
-0.005018846121541215 0.003171016172853647 0.0 -0.0012991422727487156 0.0 0.0
-0.006644812776869846 0.004536395720110553 0.0 -0.0016075423232912722 0.0 0.0
-0.008619717890539183 0.006256131722984892 0.0 -0.001940597113682191 0.0 0.0
-0.01109703948115541 0.00848548264223914 0.0 -0.00231562941398214 0.0 0.0
-0.014324734473329756 0.011471671799102356 0.0 -0.002761821227852068 0.0 0.0
-0.01861448187609588 0.01552246011638414 0.0 -0.003362013554743637 0.0 0.0
-0.024238645809288348 0.020904885202354118 0.0 -0.004219404737749899 0.0 0.0
-0.03128584617210202 0.027706008983144903 0.0 -0.005266610129188387 0.0 0.0
-0.039572772882506824 0.03572663551674293 0.0 -0.006238798399824053 0.0 0.0
-0.04842467222479162 0.044258635825915604 0.0 -0.007146408760216716 0.0 0.0
-0.0561078293404489 0.05145269668438712 0.0 -0.00946509726109529 0.0 0.0
-0.058849148944527446 0.053501827911782485 0.0 -0.015544488125997569 0.0 0.0
-0.05049083039144932 0.04442657591785748 0.0 -0.025225421437485518 0.0 0.0
-0.05049083039144723 0.04442657591785748 0.0 0.025225421437499757 0.0 0.0
-0.058849148944520396 0.0535018279117776 0.0 0.015544488126016054 0.0 0.0
-0.0561078293404386 0.0514526966843758 0.0 0.009465097261110167 0.0 0.0
-0.04842467222477861 0.04425863582590317 0.0 0.007146408760220102 0.0 0.0
-0.03957277288249262 0.03572663551673161 0.0 0.0062387983998253155 0.0 0.0
-0.03128584617208749 0.02770600898313469 0.0 0.0052666101291874295 0.0 0.0
-0.024238645809272923 0.020904885202344126 0.0 0.004219404737748136 0.0 0.0
-0.018614481876080308 0.015522460116372372 0.0 0.0033620135547413055 0.0 0.0
-0.014324734473312839 0.011471671799087257 0.0 0.002761821227850972 0.0 0.0
-0.011097039481139593 0.008485482642224929 0.0 0.0023156294139779487 0.0 0.0
-0.008619717890525545 0.006256131722972347 0.0 0.0019405971136781386 0.0 0.0
-0.006644812776858404 0.004536395720100339 0.0 0.0016075423232897457 0.0 0.0
-0.005018846121531688 0.0031710161728465414 0.0 0.0012991422727464397 0.0 0.0
-0.003659526484854828 0.0020716760591005245 0.0 0.0010100985635246584 0.0 0.0
-0.0025495071693595103 0.001260825712179392 0.0 0.0008235984924938322 0.0 0.0
-0.0018230257640423821 0.0008156800799790642 0.0 0.0008380066042126266 0.0 0.0
-0.0013555031161060285 0.0005920660863573679 0.0 0.0010009776284716637 0.0 0.0
-0.0008854368288408881 0.0003802489985773594 0.0 0.0010779945724826712 0.0 0.0
-0.00041532694699075723 0.00013381912939863794 0.0 0.0008959621381563476 0.0 0.0
-8.473436093290113e-05 -9.984813664235155e-06 0.0 0.00033461893019341715 0.0 0.0
-9.410361850767379e-05 3.1382777536836937e-05 0.0 -0.00016757268370103107 0.0 0.0
-0.0004328373831992277 0.0001685848112464583 0.0 -0.0005836544401001398 0.0 0.0
-0.000961134619699433 0.00041541370424597046 0.0 -0.0007153063316558822 0.0 0.0
-0.0015026663178565741 0.0006380316936121511 0.0 -0.0006483498111600899 0.0 0.0
-0.002046862915062203 0.0009361158665408542 0.0 -0.0005287723614569723 0.0 0.0
-0.0029769975787266867 0.0015590467520049112 0.0 -0.0005349301027258446 0.0 0.0
-0.004232564138242911 0.002535552405184327 0.0 -0.0006810581921839753 0.0 0.0
-0.005748188461905557 0.0037874471191189363 0.0 -0.0008736372479281607 0.0 0.0
-0.007582419042767588 0.005355659820693082 0.0 -0.00108429068220936 0.0 0.0
-0.009831106119880015 0.007338837296645195 0.0 -0.0013196293073138854 0.0 0.0
-0.012673404288509299 0.009919378526816458 0.0 -0.0015796290774737487 0.0 0.0
-0.016392260422419633 0.013380632736089693 0.0 -0.0018878702618709275 0.0 0.0
-0.021323007819124065 0.01805470796767561 0.0 -0.002334863513685226 0.0 0.0
-0.027722775868520733 0.024190471163688887 0.0 -0.0029550514185200383 0.0 0.0
-0.035630918042012336 0.03181999370296684 0.0 -0.0036747804450070753 0.0 0.0
-0.04473560232730292 0.040630691374572425 0.0 -0.004268276792207981 0.0 0.0
-0.05425086780682942 0.049829740701199166 0.0 -0.00437899080642129 0.0 0.0
-0.06273492378415195 0.05794306988593578 0.0 -0.004856430955349544 0.0 0.0
-0.0669943620131228 0.06134548615743052 0.0 -0.0110549576098809 0.0 0.0
-0.05896622333114914 0.052334326289757094 0.0 -0.027106602282975345 0.0 0.0
-0.05896622333114624 0.05233432628975465 0.0 0.027106602282986475 0.0 0.0
-0.06699436201311468 0.06134548615742519 0.0 0.011054957609894361 0.0 0.0
-0.06273492378414018 0.05794306988592757 0.0 0.004856430955360647 0.0 0.0
-0.054250867806814415 0.04982974070118629 0.0 0.00437899080642451 0.0 0.0
-0.04473560232728727 0.04063069137456021 0.0 0.004268276792210049 0.0 0.0
-0.03563091804199589 0.031819993702954186 0.0 0.003674780445007575 0.0 0.0
-0.027722775868503757 0.02419047116367512 0.0 0.002955051418520274 0.0 0.0
-0.02132300781910622 0.018054707967660955 0.0 0.0023348635136829637 0.0 0.0
-0.01639226042240069 0.013380632736074816 0.0 0.0018878702618713161 0.0 0.0
-0.012673404288491947 0.009919378526801581 0.0 0.0015796290774709315 0.0 0.0
-0.009831106119864865 0.007338837296632983 0.0 0.0013196293073110543 0.0 0.0
-0.00758241904275481 0.005355659820682979 0.0 0.0010842906822079168 0.0 0.0
-0.00574818846189494 0.0037874471191096104 0.0 0.0008736372479265231 0.0 0.0
-0.004232564138234352 0.0025355524051772216 0.0 0.0006810581921829068 0.0 0.0
-0.002976997578721217 0.0015590467520003037 0.0 0.0005349301027243597 0.0 0.0
-0.00204686291505979 0.0009361158665387448 0.0 0.0005287723614571943 0.0 0.0
-0.0015026663178552332 0.0006380316936116515 0.0 0.000648349811159965 0.0 0.0
-0.0009611346196985761 0.0004154137042457484 0.0 0.0007153063316552716 0.0 0.0
-0.00043283738319893107 0.00016858481124643054 0.0 0.0005836544400996679 0.0 0.0
-9.410361850747083e-05 3.138277753681699e-05 0.0 0.00016757268370116984 0.0 0.0
-7.364446607134589e-05 4.0261537138125414e-05 0.0 -1.7775812364034804e-05 0.0 0.0
-0.0004210121667131417 0.00018517757308386673 0.0 -0.00023877816496326032 0.0 0.0
-0.0010321038614128364 0.0004441712978990875 0.0 -0.0002792490630876693 0.0 0.0
-0.0016619589999404133 0.0007012138200108708 0.0 -0.0002583870205271066 0.0 0.0
-0.002311766812246166 0.00109211283890015 0.0 -0.00020750328314536604 0.0 0.0
-0.003418381406688417 0.001880140221342308 0.0 -0.00019654509281179233 0.0 0.0
-0.0047967516814638456 0.003008120155018945 0.0 -0.00026640743493044905 0.0 0.0
-0.006469404906672999 0.004412381417420619 0.0 -0.00034547077953014926 0.0 0.0
-0.008518387775235295 0.006187427452093774 0.0 -0.00043952841029465395 0.0 0.0
-0.011048416775712333 0.008439925752221189 0.0 -0.0005495769091455049 0.0 0.0
-0.01426856716623956 0.01138583291477735 0.0 -0.000664199238892077 0.0 0.0
-0.018499014866156918 0.015341211084391793 0.0 -0.0008198554701633609 0.0 0.0
-0.02406615516841666 0.020631546344165308 0.0 -0.001031789669596661 0.0 0.0
-0.031217806524452524 0.0274953294732716 0.0 -0.0012978114538447771 0.0 0.0
-0.039958019103705555 0.03592599483441683 0.0 -0.0015969185064771962 0.0 0.0
-0.04983272645280419 0.04547091925582758 0.0 -0.0017801917403694745 0.0 0.0
-0.05984388380767493 0.05514911520494037 0.0 -0.001591135872179017 0.0 0.0
-0.06853500207878957 0.06353013394354035 0.0 -0.0007718073149094451 0.0 0.0
-0.0740732771725091 0.0687126463049601 0.0 -0.002616491542516086 0.0 0.0
-0.0695801042085673 0.061940166932097585 0.0 -0.025224267180722543 0.0 0.0
-0.06958010420856413 0.0619401669320947 0.0 0.02522426718072729 0.0 0.0
-0.07407327717249995 0.06871264630495166 0.0 0.002616491542522109 0.0 0.0
-0.06853500207877555 0.06353013394352947 0.0 0.000771807314913886 0.0 0.0
-0.05984388380765752 0.0551491152049286 0.0 0.0015911358721785868 0.0 0.0
-0.049832726452786816 0.04547091925581048 0.0 0.0017801917403694328 0.0 0.0
-0.0399580191036871 0.035925994834399066 0.0 0.0015969185064770575 0.0 0.0
-0.03121780652443384 0.027495329473254948 0.0 0.0012978114538449853 0.0 0.0
-0.024066155168396632 0.02063154634414688 0.0 0.0010317896695951623 0.0 0.0
-0.018499014866136015 0.015341211084373585 0.0 0.0008198554701640409 0.0 0.0
-0.014268567166220398 0.011385832914760141 0.0 0.0006641992388908002 0.0 0.0
-0.011048416775696032 0.008439925752206534 0.0 0.0005495769091448388 0.0 0.0
-0.008518387775221457 0.006187427452081895 0.0 0.00043952841029415435 0.0 0.0
-0.006469404906660933 0.004412381417411848 0.0 0.00034547077952890026 0.0 0.0
-0.004796751681454384 0.0030081201550116177 0.0 0.0002664074349294915 0.0 0.0
-0.0034183814066820065 0.001880140221337201 0.0 0.00019654509281072374 0.0 0.0
-0.0023117668122431033 0.001092112838897319 0.0 0.00020750328314529665 0.0 0.0
-0.0016619589999390164 0.0007012138200102047 0.0 0.0002583870205266209 0.0 0.0
-0.001032103861411939 0.0004441712978989487 0.0 0.00027924906308725295 0.0 0.0
-0.000421012166712767 0.0001851775730838251 0.0 0.00023877816496298276 0.0 0.0
-7.364446607125352e-05 4.026153713818526e-05 0.0 1.777581236443726e-05 0.0 0.0
SCALARS Statev float 8
LOOKUP_TABLE default
0.0 0.006348426771477311 0.004718849226965534 -0.005091525409140567 0.00037267618217503364 -0.0025469675634552 0.0 0.0
0.0 9.664909275926e-05 1.4502040574148324e-05 -9.532901136503753e-06 -4.969139437644485e-06 2.0670711765563958e-05 0.0 0.0
0.0 3.342380937747103e-05 -4.754075056013673e-06 3.773145031487882e-06 9.80930024525693e-07 5.620332136169097e-07 0.0 0.0
0.0 5.964197818941148e-05 -8.875124403010095e-06 6.7718641644531875e-06 2.1032602385566872e-06 1.0945643523731552e-06 0.0 0.0
0.0 0.000410233103106001 0.00020448768623957083 -0.00016078912287064963 -4.369856336892127e-05 -2.732090162713722e-05 0.0 0.0
0.0 0.0010757066910250614 0.0010012435768449422 -0.0008036759376547066 -0.00019756763919023544 -8.48316921328737e-05 0.0 0.0
0.0 0.002319697554565173 0.0021418146004033964 -0.0017787237585622066 -0.0003630908418411895 -0.00015152111777614146 0.0 0.0
0.0 0.003976321196868729 0.003634708197607541 -0.003111837423151349 -0.0005228707744561923 -0.000224579887991552 0.0 0.0
0.0 0.006103411540110347 0.005513341857661233 -0.0048474872746614535 -0.0006658545829997787 -0.00031278028711105886 0.0 0.0
0.0 0.008814863295556651 0.007869298102172401 -0.007077251393222142 -0.000792046708950259 -0.0004189430956315791 0.0 0.0
0.0 0.01237616784337922 0.01091198426204769 -0.010008815907464342 -0.0009031683545833489 -0.0005339879032674135 0.0 0.0
0.0 0.01687858746849022 0.014969800863911392 -0.013964538239305256 -0.0010052626246061312 -0.0006912446858688345 0.0 0.0
0.0 0.022994011588374386 0.020359852368495742 -0.019257954167077984 -0.0011018982014177506 -0.0009005207549206366 0.0 0.0
0.0 0.0309996883056318 0.027326099514108766 -0.026127538173693697 -0.001198561340415078 -0.0011613179307988005 0.0 0.0
0.0 0.04087587335607696 0.03590739373852167 -0.03460733316909219 -0.0013000605694294828 -0.0014885671657496485 0.0 0.0
0.0 0.05227711968790309 0.045773536252542386 -0.04436544901942547 -0.0014080872331169326 -0.0018370554094167542 0.0 0.0
0.0 0.06428981513248826 0.05616058814379538 -0.05464109524204394 -0.0015194929017514373 -0.0020684097245787236 0.0 0.0
0.0 0.0755997905229335 0.06594517732041255 -0.06431948170646229 -0.0016256956139502664 -0.0019744435417938843 0.0 0.0
0.0 0.08472656599658793 0.07384608790658234 -0.0721291853545753 -0.0017169025520069854 -0.0014903776457518489 0.0 0.0
0.0 0.0899454808474575 0.07849991436204252 -0.07670084728002721 -0.0017990670820152636 -0.0010603457443276898 0.0 0.0
0.0 0.08994548084745617 0.07849991436204126 -0.07670084728002613 -0.0017990670820151441 0.001060345744329044 0.0 0.0
0.0 0.08472656599658096 0.07384608790657608 -0.07212918535456958 -0.0017169025520065225 0.0014903776457596198 0.0 0.0
0.0 0.07559979052291926 0.06594517732040002 -0.06431948170645024 -0.0016256956139497547 0.0019744435417978854 0.0 0.0
0.0 0.06428981513247052 0.056160588143779666 -0.05464109524202891 -0.001519492901750748 0.0020684097245811314 0.0 0.0
0.0 0.052277119687884586 0.045773536252526094 -0.0443654490194097 -0.0014080872331163933 0.0018370554094145303 0.0 0.0
0.0 0.040875873356058176 0.0359073937385051 -0.03460733316907624 -0.0013000605694288617 0.0014885671657501676 0.0 0.0
0.0 0.03099968830561236 0.027326099514091536 -0.026127538173677384 -0.0011985613404141534 0.0011613179307985314 0.0 0.0
0.0 0.02299401158835558 0.020359852368478964 -0.019257954167062354 -0.0011018982014166043 0.0009005207549204559 0.0 0.0
0.0 0.016878587468469985 0.014969800863893497 -0.01396453823928812 -0.0010052626246053705 0.0006912446858680797 0.0 0.0
0.0 0.01237616784336084 0.010911984262031115 -0.010008815907448627 -0.0009031683545824859 0.0005339879032667128 0.0 0.0
0.0 0.008814863295541405 0.007869298102158796 -0.007077251393209413 -0.0007920467089493832 0.00041894309562971223 0.0 0.0
0.0 0.006103411540098435 0.0055133418576500705 -0.004847487274651113 -0.0006658545829989563 0.0003127802871108123 0.0 0.0
0.0 0.003976321196858662 0.003634708197597791 -0.0031118374231425064 -0.0005228707744552835 0.00022457988799072217 0.0 0.0
0.0 0.0023196975545572134 0.0021418146003954414 -0.0017787237585552374 -0.00036309084184020453 0.0001515211177758662 0.0 0.0
0.0 0.0010757066910200696 0.0010012435768397272 -0.0008036759376503673 -0.00019756763918935986 8.483169213242192e-05 0.0 0.0
0.0 0.00041023310310342063 0.00020448768623775143 -0.00016078912286919593 -4.369856336855567e-05 2.7320901626925487e-05 0.0 0.0
0.0 5.964197818879073e-05 -8.875124402918782e-06 6.771864164384042e-06 2.103260238534788e-06 -1.0945643523608391e-06 0.0 0.0
0.0 3.342380937689642e-05 -4.754075055925718e-06 3.7731450314176655e-06 9.80930024508012e-07 -5.620332136036602e-07 0.0 0.0
0.0 9.664909275845473e-05 1.4502040573983376e-05 -9.532901136407894e-06 -4.969139437575243e-06 -2.067071176527891e-05 0.0 0.0
0.0 0.006348426771468036 0.004718849226959361 -0.005091525409133362 0.0003726761821739999 0.0025469675634421964 0.0 0.0
0.0 0.0042737104646312345 0.002975592265520645 -0.0033927921063117974 0.0004171998407911514 -0.0027710737514348395 0.0 0.0
0.0 0.0 0.0 0.0 0.0 0.0 0.0 0.0
0.0 0.0 0.0 0.0 0.0 0.0 0.0 0.0
0.0 2.818381018083203e-05 -3.89524483617999e-06 2.9799769798284316e-06 9.152678563517335e-07 1.0878372165257407e-06 0.0 0.0
0.0 0.00021527053573897983 4.2667083021720165e-05 -3.3844246385695154e-05 -8.82283663602512e-06 -1.4366487050045083e-05 0.0 0.0
0.0 0.0007166133110821851 0.0006688072356449144 -0.0005313377000778908 -0.0001374695355670234 -0.0001576843563551348 0.0 0.0
0.0 0.0018029234536286638 0.0016620587447625057 -0.0013631836748679953 -0.00029887506989451025 -0.0003320355965902912 0.0 0.0
0.0 0.0032709147069278736 0.0029885561461987864 -0.002527777088223494 -0.00046077905797529246 -0.000519066201756231 0.0 0.0
0.0 0.005137868741551602 0.004655191552788806 -0.0040477770552914795 -0.0006074144974973286 -0.0007245157288606627 0.0 0.0
0.0 0.007503781756284177 0.006735690201595633 -0.005999435022098358 -0.0007362551794972752 -0.0009590893879982722 0.0 0.0
0.0 0.010579261714024908 0.00940724617829328 -0.008558169666242224 -0.0008490765120510555 -0.0012256050952610454 0.0 0.0
0.0 0.014738498616141812 0.012955073704068155 -0.012005737638744188 -0.0009493360653239596 -0.001545450346367107 0.0 0.0
0.0 0.020080784541581548 0.01772259618750026 -0.01668092184810443 -0.0010416743393958283 -0.002000949178310144 0.0 0.0
0.0 0.02718673828337434 0.02395695476887654 -0.022824514635242748 -0.0011324401336337939 -0.002622426454477683 0.0 0.0
0.0 0.03609612439302778 0.03169469186103549 -0.030467828756867873 -0.0012268631041676033 -0.003379073563914023 0.0 0.0
0.0 0.0463952952708762 0.04063932636093044 -0.039313017980199975 -0.0013263083807304723 -0.004176487135888965 0.0 0.0
0.0 0.057304421877622636 0.050103370095629415 -0.04867523110964858 -0.0014281389859808226 -0.0047072285035807595 0.0 0.0
0.0 0.0676701539273897 0.05908175367371255 -0.05755538249732817 -0.0015263711763843862 -0.004567680429422299 0.0 0.0
0.0 0.0760639906077854 0.06636160740130312 -0.06474434333387241 -0.0016172640674307097 -0.0036308654401552296 0.0 0.0
0.0 0.08096923600287521 0.07062550985560415 -0.0689455206478859 -0.0016799892077181972 -0.0019872169680267143 0.0 0.0
0.0 0.0809692360028735 0.07062550985560254 -0.06894552064788452 -0.001679989207717974 0.001987216968035225 0.0 0.0
0.0 0.07606399060777902 0.06636160740129718 -0.0647443433338669 -0.0016172640674302764 0.0036308654401702215 0.0 0.0
0.0 0.06767015392737782 0.05908175367370187 -0.057555382497317994 -0.0015263711763838792 0.004567680429431842 0.0 0.0
0.0 0.0573044218776072 0.05010337009561564 -0.04867523110963538 -0.0014281389859802677 0.004707228503585908 0.0 0.0
0.0 0.046395295270859574 0.040639326360915815 -0.03931301798018596 -0.0013263083807298383 0.004176487135887018 0.0 0.0
0.0 0.03609612439301173 0.031694691861021224 -0.030467828756854352 -0.0012268631041668563 0.0033790735639143894 0.0 0.0
0.0 0.02718673828335761 0.023956954768861713 -0.022824514635228693 -0.0011324401336330198 0.002622426454477594 0.0 0.0
0.0 0.02008078454156445 0.017722596187485045 -0.01668092184809004 -0.0010416743393949985 0.002000949178309731 0.0 0.0
0.0 0.014738498616124767 0.012955073704052687 -0.012005737638729698 -0.0009493360653229908 0.0015454503463651127 0.0 0.0
0.0 0.01057926171400889 0.009407246178278894 -0.00855816966622867 -0.0008490765120502238 0.0012256050952591238 0.0 0.0
0.0 0.007503781756270284 0.006735690201582892 -0.0059994350220864395 -0.0007362551794964516 0.0009590893879953444 0.0 0.0
0.0 0.005137868741540961 0.0046551915527785585 -0.00404777705528214 -0.000607414497496418 0.000724515728859579 0.0 0.0
0.0 0.0032709147069192018 0.002988556146190487 -0.0025277770882161255 -0.0004607790579743613 0.0005190662017547374 0.0 0.0
0.0 0.001802923453622808 0.001662058744756384 -0.0013631836748627297 -0.0002988750698936538 0.0003320355965892739 0.0 0.0
0.0 0.0007166133110789668 0.0006688072356417831 -0.0005313377000753662 -0.00013746953556641688 0.00015768435635433645 0.0 0.0
0.0 0.0002152705357370825 4.2667083020984405e-05 -3.3844246385119585e-05 -8.822836635864789e-06 1.4366487049828078e-05 0.0 0.0
0.0 2.8183810180206067e-05 -3.895244836085688e-06 2.979976979756023e-06 9.152678563296789e-07 -1.0878372164973423e-06 0.0 0.0
0.0 0.0 0.0 0.0 0.0 0.0 0.0 0.0
0.0 0.0 0.0 0.0 0.0 0.0 0.0 0.0
0.0 0.004273710464620474 0.0029755922655136605 -0.0033927921063039053 0.00041719984079024433 0.0027710737514233495 0.0 0.0
0.0 0.0030055312035453903 0.0019574438309259623 -0.0023400765935511123 0.00038263276262515085 -0.002287666901171161 0.0 0.0
0.0 0.0 0.0 0.0 0.0 0.0 0.0 0.0
0.0 0.0 0.0 0.0 0.0 0.0 0.0 0.0
0.0 2.430708292137497e-06 -2.7159244172741683e-07 2.0536250514770731e-07 6.622993657971116e-08 1.4164277531575734e-07 0.0 0.0
0.0 7.51065315137043e-05 -5.120524296788639e-06 3.844989720966945e-06 1.2755345758214446e-06 2.6308637872243038e-06 0.0 0.0
0.0 0.0005325168613088953 0.00033171697504363857 -0.00026161653870143225 -7.010043634220668e-05 -0.00014097660924501648 0.0 0.0
0.0 0.0013085212180724108 0.0011959319520934441 -0.0009670923336045104 -0.0002288396184889335 -0.0004165693653083408 0.0 0.0
0.0 0.002585235629559606 0.00235472838747568 -0.0019655593556834033 -0.00038916903179227603 -0.0007119610978682232 0.0 0.0
0.0 0.004217324800142024 0.0038096485678803505 -0.003270337310007633 -0.0005393112578727162 -0.0010174667237988011 0.0 0.0
0.0 0.006265383728404387 0.005620609385815094 -0.004948638539497533 -0.0006719708463175599 -0.0013548508098554391 0.0 0.0
0.0 0.008935341535421252 0.007932447903843464 -0.0071455314011546756 -0.0007869165026887867 -0.0017418495310446475 0.0 0.0
0.0 0.012433029411142734 0.01099764076418658 -0.010110350888979078 -0.0008872898752074997 -0.0022076603671957865 0.0 0.0
0.0 0.017288053372096164 0.01512975320820896 -0.014152702684231206 -0.0009770505239777548 -0.0028275026682974247 0.0 0.0
0.0 0.02348184925711586 0.020606239969154703 -0.01954300790814768 -0.001063232061007026 -0.0037086089098659087 0.0 0.0
0.0 0.03134303466962958 0.027470799208980805 -0.026320506121358136 -0.0011502930876226714 -0.004825245596161924 0.0 0.0
0.0 0.04056304389468518 0.035462750715365574 -0.03422200997330045 -0.001240740742065115 -0.005969539952400703 0.0 0.0
0.0 0.0503826812647414 0.043992836756345466 -0.042660267888543414 -0.0013325688678020738 -0.0067424690748017916 0.0 0.0
0.0 0.05976394445763962 0.0521748090817926 -0.050750481886023095 -0.0014243271957694896 -0.006638072247027047 0.0 0.0
0.0 0.0674296342280046 0.05887927316516591 -0.05737166720859628 -0.0015076059565696225 -0.005330306964045456 0.0 0.0
0.0 0.07200382777069686 0.06289830397742067 -0.061335694783956424 -0.0015626091934642233 -0.002715469425048145 0.0 0.0
0.0 0.07200382777069529 0.062898303977419 -0.06133569478395505 -0.0015626091934639525 0.002715469425061845 0.0 0.0
0.0 0.0674296342279995 0.05887927316516081 -0.05737166720859168 -0.0015076059565691067 0.0053303069640651575 0.0 0.0
0.0 0.05976394445763049 0.05217480908178409 -0.05075048188601498 -0.001424327195769106 0.006638072247041075 0.0 0.0
0.0 0.05038268126473133 0.04399283675633602 -0.04266026788853493 -0.0013325688678011037 0.006742469074809557 0.0 0.0
0.0 0.04056304389467327 0.035462750715354784 -0.034222009973290696 -0.001240740742064089 0.0059695399524000835 0.0 0.0
0.0 0.03134303466961493 0.027470799208967864 -0.026320506121345764 -0.0011502930876220968 0.004825245596161672 0.0 0.0
0.0 0.02348184925710119 0.0206062399691417 -0.019543007908135276 -0.0010632320610064147 0.0037086089098654395 0.0 0.0
0.0 0.0172880533720808 0.0151297532081951 -0.014152702684218105 -0.0009770505239769913 0.002827502668296904 0.0 0.0
0.0 0.012433029411126591 0.010997640764172294 -0.010110350888965464 -0.0008872898752068275 0.002207660367192673 0.0 0.0
0.0 0.008935341535407901 0.007932447903830984 -0.007145531401143096 -0.0007869165026878883 0.0017418495310420235 0.0 0.0
0.0 0.0062653837283924785 0.005620609385803981 -0.004948638539487184 -0.0006719708463167977 0.0013548508098514198 0.0 0.0
0.0 0.004217324800132529 0.003809648567871413 -0.003270337309999584 -0.0005393112578718283 0.0010174667237968513 0.0 0.0
0.0 0.002585235629552691 0.0023547283874689293 -0.001965559355677534 -0.0003891690317913957 0.0007119610978661771 0.0 0.0
0.0 0.0013085212180669833 0.0011959319520882053 -0.0009670923336001222 -0.00022883961848808312 0.00041656936530685756 0.0 0.0
0.0 0.0005325168613054891 0.0003317169750411029 -0.0002616165386994187 -7.010043634168395e-05 0.0001409766092439892 0.0 0.0
0.0 7.510653151255055e-05 -5.120524296885869e-06 3.84498972104759e-06 1.2755345758381546e-06 -2.6308637872934737e-06 0.0 0.0
0.0 2.4307082917997422e-06 -2.715924416889593e-07 2.0536250511835066e-07 6.622993657062975e-08 -1.4164277529230397e-07 0.0 0.0
0.0 0.0 0.0 0.0 0.0 0.0 0.0 0.0
0.0 0.0 0.0 0.0 0.0 0.0 0.0 0.0
0.0 0.0030055312035362626 0.001957443830919719 -0.0023400765935439696 0.000382632762624251 0.0022876669011611997 0.0 0.0
0.0 0.0020711249444046267 0.001271974618008308 -0.0015831350770748808 0.0003111604590665725 -0.0016521147808320868 0.0 0.0
0.0 0.0 0.0 0.0 0.0 0.0 0.0 0.0
0.0 0.0 0.0 0.0 0.0 0.0 0.0 0.0
0.0 1.1217285374431336e-06 -1.148405540860868e-07 8.789999551867366e-08 2.6940558567413674e-08 1.1652598038154819e-07 0.0 0.0
0.0 3.091413199917303e-05 -3.963852590723633e-06 3.0652197957721597e-06 8.986327949515943e-07 3.6211559148845185e-06 0.0 0.0
0.0 0.0002770068534874827 0.00012068913514441634 -9.465081005834951e-05 -2.6038325086066638e-05 -7.767917961544146e-05 0.0 0.0
0.0 0.0008882227075513239 0.000748128567428182 -0.0005969023944893393 -0.0001512261729388427 -0.0003974082710116795 0.0 0.0
0.0 0.001932038039189437 0.0017388968575614014 -0.0014296772153763633 -0.0003092196421850376 -0.0007927736208798862 0.0 0.0
0.0 0.0033277302946417165 0.0029832347420855436 -0.0025237571677551294 -0.00045947757433041376 -0.001186752590213525 0.0 0.0
0.0 0.005064754925841621 0.004530608012332214 -0.003934869284124838 -0.0005957387282073751 -0.001607720738799104 0.0 0.0
0.0 0.007318394432779027 0.006494332011573312 -0.0057796201010242455 -0.0007147119105490638 -0.0020805452497096835 0.0 0.0
0.0 0.010323387064888865 0.009086582474748445 -0.008268918509078738 -0.0008176639656697081 -0.0026493538849019335 0.0 0.0
0.0 0.014393539732013001 0.012600042756303125 -0.011693620172794739 -0.0009064225835083847 -0.003413490040399028 0.0 0.0
0.0 0.019872504529323896 0.017298736528387662 -0.016309083001040676 -0.0009896535273469739 -0.004454500221647469 0.0 0.0
0.0 0.026804108300167932 0.02325469499292566 -0.022184273511370645 -0.0010704214815550072 -0.005778848856080833 0.0 0.0
0.0 0.03473287921789229 0.0302669119782447 -0.02911581977312628 -0.0011510922051184247 -0.007187240142143116 0.0 0.0
0.0 0.04346021978319347 0.03783928033958173 -0.036605936430515955 -0.001233343909065768 -0.008174351401261172 0.0 0.0
0.0 0.05190180417410224 0.045213991965895234 -0.04389768050859583 -0.001316311457299393 -0.008142796405198178 0.0 0.0
0.0 0.058906206386501625 0.05138914638393545 -0.04999684688245674 -0.0013922995014786898 -0.006609021913795401 0.0 0.0
0.0 0.06322874778086995 0.055244488365654196 -0.053801114839902214 -0.0014433735257519844 -0.003309853841773921 0.0 0.0
0.0 0.06322874778086757 0.055244488365651864 -0.05380111483989981 -0.0014433735257520658 0.0033098538417916734 0.0 0.0
0.0 0.05890620638649457 0.051389146383928656 -0.049996846882449875 -0.0013922995014787841 0.006609021913817828 0.0 0.0
0.0 0.05190180417409261 0.045213991965885963 -0.043897680508587 -0.0013163114572989482 0.008142796405214116 0.0 0.0
0.0 0.04346021978318164 0.03783928033957086 -0.036605936430505484 -0.0012333439090653764 0.008174351401267937 0.0 0.0
0.0 0.034732879217880236 0.03026691197823404 -0.029115819773116152 -0.0011510922051178936 0.007187240142141654 0.0 0.0
0.0 0.02680410830015641 0.023254694992915305 -0.02218427351136106 -0.0010704214815542424 0.005778848856080008 0.0 0.0
0.0 0.019872504529313675 0.01729873652837823 -0.01630908300103233 -0.000989653527345895 0.0044545002216465936 0.0 0.0
0.0 0.014393539732001212 0.012600042756292286 -0.011693620172784759 -0.0009064225835075249 0.0034134900403985724 0.0 0.0
0.0 0.010323387064876824 0.009086582474737117 -0.00826891850906837 -0.000817663965668743 0.002649353884898755 0.0 0.0
0.0 0.007318394432767344 0.0064943320115623945 -0.005779620101014203 -0.00071471191054819 0.0020805452497062544 0.0 0.0
0.0 0.0050647549258308906 0.004530608012322437 -0.003934869284115844 -0.0005957387282065918 0.0016077207387943365 0.0 0.0
0.0 0.0033277302946335607 0.0029832347420775587 -0.0025237571677478986 -0.00045947757432966013 0.0011867525902109527 0.0 0.0
0.0 0.0019320380391825048 0.0017388968575548192 -0.001429677215370692 -0.00030921964218412723 0.0007927736208770571 0.0 0.0
0.0 0.000888222707546911 0.0007481285674242755 -0.0005969023944862035 -0.00015122617293807192 0.000397408271009886 0.0 0.0
0.0 0.0002770068534846827 0.00012068913514290229 -9.465081005715565e-05 -2.6038325085746358e-05 7.767917961446389e-05 0.0 0.0
0.0 3.091413199829632e-05 -3.96385259060396e-06 3.0652197956813065e-06 8.986327949227772e-07 -3.621155914790049e-06 0.0 0.0
0.0 1.1217285373496548e-06 -1.1484055407601495e-07 8.789999551098863e-08 2.6940558565012018e-08 -1.1652598037124742e-07 0.0 0.0
0.0 0.0 0.0 0.0 0.0 0.0 0.0 0.0
0.0 0.0 0.0 0.0 0.0 0.0 0.0 0.0
0.0 0.0020711249443968543 0.0012719746180034676 -0.0015831350770691812 0.0003111604590657137 0.0016521147808244738 0.0 0.0
0.0 0.0013467433546655338 0.0007790285724606643 -0.0010049779484188116 0.0002259493759581473 -0.0010646131374070667 0.0 0.0
0.0 0.0 0.0 0.0 0.0 0.0 0.0 0.0
0.0 0.0 0.0 0.0 0.0 0.0 0.0 0.0
0.0 0.0 0.0 0.0 0.0 0.0 0.0 0.0
0.0 1.3070422527309446e-05 -1.5144320664198957e-06 1.1565989069555581e-06 3.578331594643518e-07 1.954048149766107e-06 0.0 0.0
0.0 0.00011216924634126475 2.4163183757020267e-05 -1.9186078054649264e-05 -4.977105702371155e-06 -2.6718654398450678e-05 0.0 0.0
0.0 0.0005974704263901247 0.0003549327564161457 -0.0002796311016878254 -7.530165472832013e-05 -0.0002678520155264438 0.0 0.0
0.0 0.0013555500431925826 0.0011356340170278153 -0.000917061643399713 -0.00021857237362810227 -0.0007265472556033976 0.0 0.0
0.0 0.002477287608105051 0.0021838057102259007 -0.0018168267735573062 -0.0003669789366685939 -0.0012208575300927695 0.0 0.0
0.0 0.00392148526804877 0.003470144619351372 -0.0029648486315962006 -0.0005052959877551711 -0.0017080615456173214 0.0 0.0
0.0 0.005785776512498039 0.005095519709293361 -0.0044668120768251995 -0.0006287076324681617 -0.002243483598710194 0.0 0.0
0.0 0.00825216192455934 0.007232059570610995 -0.006496261397835407 -0.0007357981727755876 -0.0028767007019499607 0.0 0.0
0.0 0.011685517528690709 0.01013388485227863 -0.009305951640046358 -0.0008279332122322698 -0.0037061582659515947 0.0 0.0
0.0 0.016182185668683433 0.014057051197630302 -0.013147753766446342 -0.0009092974311839568 -0.004859754145183789 0.0 0.0
0.0 0.022065069150041267 0.019086864888609525 -0.018102252835019476 -0.000984612053590047 -0.006307540401379079 0.0 0.0
0.0 0.029136818228615486 0.025077955489367174 -0.02401997054570322 -0.0010579849436639515 -0.007814991465952197 0.0 0.0
0.0 0.0365808494876347 0.031652154758394196 -0.030522661716520315 -0.0011294930418738675 -0.008950269651758332 0.0 0.0
0.0 0.04399486482046136 0.03819619441628243 -0.03699419899186407 -0.001201995424418368 -0.00906306649062139 0.0 0.0
0.0 0.05037889353347369 0.043862004837953904 -0.04259118213610513 -0.0012708227018487642 -0.0074866975388205624 0.0 0.0
0.0 0.05452316380946952 0.04760609755332898 -0.04628605331413558 -0.0013200442391933902 -0.003792547998573351 0.0 0.0
0.0 0.05452316380946751 0.04760609755332687 -0.04628605331413348 -0.0013200442391933893 0.0037925479985910096 0.0 0.0
0.0 0.05037889353346915 0.043862004837948845 -0.04259118213610036 -0.0012708227018484858 0.007486697538843187 0.0 0.0
0.0 0.04399486482045491 0.03819619441627571 -0.03699419899185769 -0.0012019954244180103 0.009063066490637598 0.0 0.0
0.0 0.03658084948762633 0.031652154758386224 -0.030522661716512797 -0.0011294930418734243 0.008950269651765489 0.0 0.0
0.0 0.029136818228605144 0.02507795548935796 -0.024019970545694564 -0.001057984943663392 0.007814991465950988 0.0 0.0
0.0 0.022065069150029815 0.019086864888599373 -0.01810225283500971 -0.000984612053589661 0.006307540401377765 0.0 0.0
0.0 0.016182185668672317 0.014057051197620466 -0.013147753766436808 -0.0009092974311836562 0.004859754145182 0.0 0.0
0.0 0.011685517528679842 0.010133884852268602 -0.009305951640036817 -0.0008279332122317837 0.003706158265950298 0.0 0.0
0.0 0.008252161924548971 0.007232059570601553 -0.0064962613978266455 -0.0007357981727749068 0.002876700701946235 0.0 0.0
0.0 0.005785776512488544 0.0050955197092847 -0.004466812076817416 -0.0006287076324672822 0.002243483598706557 0.0 0.0
0.0 0.003921485268039714 0.0034701446193431693 -0.002964848631588985 -0.0005052959877541835 0.0017080615456122059 0.0 0.0
0.0 0.002477287608097633 0.0021838057102189427 -0.0018168267735512399 -0.0003669789366677031 0.0012208575300894217 0.0 0.0
0.0 0.0013555500431865406 0.0011356340170225808 -0.000917061643395339 -0.00021857237362724182 0.0007265472556003909 0.0 0.0
0.0 0.0005974704263865604 0.00035493275641378656 -0.00027963110168592424 -7.530165472786271e-05 0.00026785201552480633 0.0 0.0
0.0 0.00011216924633998395 2.4163183756871087e-05 -1.9186078054530594e-05 -4.977105702340279e-06 2.6718654398270934e-05 0.0 0.0
0.0 1.307042252677285e-05 -1.5144320663590542e-06 1.1565989069092544e-06 3.5783315944974357e-07 -1.9540481496913783e-06 0.0 0.0
0.0 0.0 0.0 0.0 0.0 0.0 0.0 0.0
0.0 0.0 0.0 0.0 0.0 0.0 0.0 0.0
0.0 0.0 0.0 0.0 0.0 0.0 0.0 0.0
0.0 0.001346743354659495 0.0007790285724571316 -0.0010049779484145036 0.0002259493759573722 0.0010646131374016858 0.0 0.0
0.0 0.0007717748558221467 0.0004247022496167728 -0.000567575183333108 0.00014287293371633507 -0.0005947268459496952 0.0 0.0
0.0 0.0 0.0 0.0 0.0 0.0 0.0 0.0
0.0 0.0 0.0 0.0 0.0 0.0 0.0 0.0
0.0 0.0 0.0 0.0 0.0 0.0 0.0 0.0
0.0 1.0042081989539105e-05 -9.329724215915323e-07 7.201815348681859e-07 2.1279088672333964e-07 1.7612736881498078e-06 0.0 0.0
0.0 3.677049650767526e-05 1.2501865021158608e-05 -9.853460984107014e-06 -2.6484040370515712e-06 -1.98003122896282e-05 0.0 0.0
0.0 0.00026464710320743936 0.0001331347600204404 -0.0001039935601395683 -2.914119988087195e-05 -0.0001509062659116519 0.0 0.0
0.0 0.0008453265289455324 0.000601077927142555 -0.0004769937569162756 -0.00012408417022627947 -0.0005382417088984905 0.0 0.0
0.0 0.0017118356359875533 0.0014095314370693697 -0.0011488760734284205 -0.000260655363640949 -0.0010773283583094026 0.0 0.0
0.0 0.002844473451970003 0.0024492815314930082 -0.0020518876825592765 -0.00039739384893373137 -0.0016415231741721444 0.0 0.0
0.0 0.004311984248094687 0.003744624899716654 -0.003221199107381765 -0.0005234257923348891 -0.002214836231249442 0.0 0.0
0.0 0.006284728183894934 0.005439705527002972 -0.004802982806277445 -0.0006367227207255276 -0.0028771693224240976 0.0 0.0
0.0 0.00899320612359867 0.007748599953850219 -0.007013445841054535 -0.0007351541127956814 -0.003735118636443959 0.0 0.0
0.0 0.012701942828383755 0.010893509741781195 -0.010073927242190233 -0.0008195824995909636 -0.004890631015139858 0.0 0.0
0.0 0.017568606559420802 0.014984244268585061 -0.014092020110230585 -0.0008922241583544756 -0.006355608129210003 0.0 0.0
0.0 0.02321960751500369 0.019938519955435597 -0.018980328853397108 -0.0009581911020384909 -0.007915142923726996 0.0 0.0
0.0 0.02971256369864362 0.02546120418055575 -0.02444082432125229 -0.0010203798593034716 -0.009094520548284094 0.0 0.0
0.0 0.036204409554115365 0.031117915011872225 -0.03003671568301646 -0.0010811993288557618 -0.009331424834720718 0.0 0.0
0.0 0.04178988451047217 0.03626083279522298 -0.035119125165889026 -0.0011417076293339541 -0.007920332778989896 0.0 0.0
0.0 0.04579307629594986 0.0399270383040085 -0.03873656450359923 -0.0011904738004092446 -0.004162713497558718 0.0 0.0
0.0 0.045793076295948226 0.039927038304006575 -0.03873656450359744 -0.0011904738004091364 0.004162713497575491 0.0 0.0
0.0 0.041789884510468986 0.036260832795218974 -0.03511912516588512 -0.0011417076293338204 0.007920332779011625 0.0 0.0
0.0 0.03620440955411017 0.031117915011866462 -0.03003671568301084 -0.0010811993288556189 0.009331424834736285 0.0 0.0
0.0 0.029712563698636268 0.02546120418054866 -0.024440824321245395 -0.0010203798593032597 0.009094520548290531 0.0 0.0
0.0 0.02321960751499488 0.019938519955427822 -0.018980328853389693 -0.0009581911020381254 0.007915142923725456 0.0 0.0
0.0 0.01756860655941172 0.014984244268576937 -0.014092020110222935 -0.0008922241583540015 0.006355608129207999 0.0 0.0
0.0 0.012701942828375529 0.010893509741773647 -0.010073927242183313 -0.000819582499590331 0.004890631015138068 0.0 0.0
0.0 0.008993206123590426 0.0077485999538427375 -0.007013445841047578 -0.0007351541127951586 0.003735118636442222 0.0 0.0
0.0 0.0062847281838855715 0.005439705526994675 -0.004802982806269716 -0.0006367227207249588 0.0028771693224204087 0.0 0.0
0.0 0.00431198424808574 0.0037446248997088085 -0.0032211991073746024 -0.0005234257923342053 0.00221483623124491 0.0 0.0
0.0 0.002844473451962146 0.0024492815314862766 -0.002051887682553353 -0.0003973938489329237 0.001641523174166683 0.0 0.0
0.0 0.001711835635981622 0.001409531437064192 -0.0011488760734240948 -0.0002606553636400973 0.001077328358305908 0.0 0.0
0.0 0.0008453265289410637 0.0006010779271388627 -0.0004769937569133057 -0.00012408417022555717 0.0005382417088956968 0.0 0.0
0.0 0.0002646471032053051 0.0001331347600191865 -0.00010399356013859231 -2.9141199880594116e-05 0.00015090626591035195 0.0 0.0
0.0 3.677049650668574e-05 1.2501865021204942e-05 -9.853460984139636e-06 -2.6484040370652834e-06 1.9800312289699265e-05 0.0 0.0
0.0 1.0042081989046382e-05 -9.329724215423734e-07 7.201815348297952e-07 2.1279088671252578e-07 -1.761273688053899e-06 0.0 0.0
0.0 0.0 0.0 0.0 0.0 0.0 0.0 0.0
0.0 0.0 0.0 0.0 0.0 0.0 0.0 0.0
0.0 0.0 0.0 0.0 0.0 0.0 0.0 0.0
0.0 0.0007717748558176648 0.00042470224961432124 -0.000567575183330027 0.00014287293371570555 0.00059472684594587 0.0 0.0
0.0 0.0003890864270335491 0.00018524587207712162 -0.00025425134677299063 6.900547469586941e-05 -0.0002657130914300819 0.0 0.0
0.0 0.0 0.0 0.0 0.0 0.0 0.0 0.0
0.0 0.0 0.0 0.0 0.0 0.0 0.0 0.0
0.0 0.0 0.0 0.0 0.0 0.0 0.0 0.0
0.0 3.1613189766570845e-06 -2.2524151937945443e-07 1.7083701736800547e-07 5.44045020114313e-08 5.898380239007696e-07 0.0 0.0
0.0 2.8312268446333064e-05 -2.6246255505089736e-06 2.016727064152346e-06 6.078984863565936e-07 5.88696267065947e-06 0.0 0.0
0.0 0.00010656415236324524 3.917692881708733e-05 -3.079189128506742e-05 -8.385037532019915e-06 -7.249134296442575e-05 0.0 0.0
0.0 0.0004101053398643261 0.0002339420018501973 -0.0001830547451205057 -5.088725672969164e-05 -0.00031168691604882434 0.0 0.0
0.0 0.0010110990818587224 0.0007183909584055663 -0.0005725697820721658 -0.00014582117633340027 -0.0007685860292743075 0.0 0.0
0.0 0.0018418739601562938 0.0014797086764703974 -0.0012095066101392535 -0.00027020206633114385 -0.001359926369890283 0.0 0.0
0.0 0.0029356799619667568 0.0024548021990709397 -0.0020618660845889824 -0.00039293611448195666 -0.0019800842828835165 0.0 0.0
0.0 0.0044099532778159815 0.0037230671657361783 -0.0032121152780352955 -0.0005109518877008816 -0.00264544413870268 0.0 0.0
0.0 0.006472543017370334 0.005454436443387528 -0.004836177739301633 -0.0006182587040858944 -0.0034750369431011544 0.0 0.0
0.0 0.009277819907253175 0.0078393644578279 -0.0071280867415489165 -0.0007112777162789813 -0.004575040523007578 0.0 0.0
0.0 0.01302730528571755 0.010984911517160037 -0.010198798482315762 -0.0007861130348442741 -0.005949300544066558 0.0 0.0
0.0 0.017622718055898517 0.014868019898252535 -0.014018328033888385 -0.0008496918643641491 -0.007421587835585021 0.0 0.0
0.0 0.022738126363410334 0.019302299104795025 -0.018398676066848776 -0.00090362303794625 -0.00861262429319811 0.0 0.0
0.0 0.028098412316717034 0.024003606213340946 -0.02305119789957097 -0.0009524083137699803 -0.008987909314172612 0.0 0.0
0.0 0.03324819106083751 0.02855121522757558 -0.027548496785562853 -0.0010027184420127284 -0.007882192227000474 0.0 0.0
0.0 0.03718556830825625 0.03214427255927825 -0.03109189033216514 -0.0010523822271130997 -0.004402906357244129 0.0 0.0
0.0 0.03718556830825438 0.032144272559276196 -0.031091890332163117 -0.0010523822271130737 0.004402906357258758 0.0 0.0
0.0 0.033248191060834126 0.02855121522757137 -0.027548496785558776 -0.0010027184420125898 0.007882192227019235 0.0 0.0
0.0 0.028098412316712885 0.02400360621333594 -0.023051197899566354 -0.0009524083137695868 0.008987909314186013 0.0 0.0
0.0 0.022738126363404932 0.01930229910478953 -0.018398676066843745 -0.0009036230379457743 0.008612624293203022 0.0 0.0
0.0 0.01762271805589143 0.01486801989824638 -0.01401832803388261 -0.0008496918643637623 0.007421587835583258 0.0 0.0
0.0 0.013027305285709296 0.010984911517152772 -0.01019879848230883 -0.0007861130348439399 0.0059493005440642 0.0 0.0
0.0 0.009277819907246153 0.007839364457821652 -0.007128086741543008 -0.0007112777162786445 0.004575040523005316 0.0 0.0
0.0 0.0064725430173634075 0.005454436443381383 -0.004836177739295943 -0.0006182587040854393 0.0034750369430988563 0.0 0.0
0.0 0.004409953277809134 0.003723067165730067 -0.003212115278029791 -0.0005109518877002749 0.0026454441386989866 0.0 0.0
0.0 0.0029356799619602225 0.0024548021990652555 -0.002061866084583964 -0.00039293611448129134 0.001980084282879393 0.0 0.0
0.0 0.0018418739601506922 0.0014797086764657566 -0.0012095066101353458 -0.00027020206633041006 0.0013599263698857483 0.0 0.0
0.0 0.0010110990818544081 0.000718390958402138 -0.0005725697820693531 -0.0001458211763327851 0.0007685860292712824 0.0 0.0
0.0 0.000410105339861682 0.0002339420018486283 -0.00018305474511927752 -5.088725672935067e-05 0.00031168691604708187 0.0 0.0
0.0 0.00010656415236199431 3.917692881675555e-05 -3.0791891284803574e-05 -8.385037531951847e-06 7.2491342963843e-05 0.0 0.0
0.0 2.831226844582576e-05 -2.6246255504592418e-06 2.0167270641151787e-06 6.078984863441296e-07 -5.886962670556103e-06 0.0 0.0
0.0 3.16131897615778e-06 -2.2524151934554124e-07 1.708370173418097e-07 5.440450200374948e-08 -5.898380238059186e-07 0.0 0.0
0.0 0.0 0.0 0.0 0.0 0.0 0.0 0.0
0.0 0.0 0.0 0.0 0.0 0.0 0.0 0.0
0.0 0.0 0.0 0.0 0.0 0.0 0.0 0.0
0.0 0.0003890864270305688 0.00018524587207583955 -0.0002542513467713018 6.900547469546243e-05 0.0002657130914281529 0.0 0.0
0.0 0.00015516623091202747 4.4343029706214016e-05 -6.264995869476801e-05 1.8306928988554103e-05 -6.264882856200177e-05 0.0 0.0
0.0 0.0 0.0 0.0 0.0 0.0 0.0 0.0
0.0 0.0 0.0 0.0 0.0 0.0 0.0 0.0
0.0 0.0 0.0 0.0 0.0 0.0 0.0 0.0
0.0 2.9414467647017034e-06 -1.395236380701475e-07 1.0592787567012979e-07 3.3595762400001796e-08 5.885360677257692e-07 0.0 0.0
0.0 1.7011890293375043e-05 -1.0712005918851233e-06 8.42342080148463e-07 2.2885851173667705e-07 3.948518221257476e-06 0.0 0.0
0.0 5.371368341469703e-05 1.1811417451585799e-05 -9.061314936600597e-06 -2.750102514985195e-06 -3.1144043843313486e-05 0.0 0.0
0.0 0.00016791298983645907 6.652143880518369e-05 -5.187153155185175e-05 -1.4649907253332116e-05 -0.00015110322019517615 0.0 0.0
0.0 0.0004637347631762429 0.00022519397548033894 -0.00017647856976335318 -4.871540571698573e-05 -0.00039757488130693556 0.0 0.0
0.0 0.0009053225843020071 0.0006416108314094758 -0.0005099272153945677 -0.00013168361601490782 -0.000892584570911593 0.0 0.0
0.0 0.0017125951847790722 0.0012592366877565598 -0.0010258074061926974 -0.00023342928156386218 -0.001477381506442 0.0 0.0
0.0 0.0026782692612351755 0.0021126845880614594 -0.0017667352552455371 -0.0003459493328159222 -0.0021404603119021645 0.0 0.0
0.0 0.004064484718936419 0.003287209249588882 -0.0028274481927713377 -0.00045976105681754345 -0.0029203297098825097 0.0 0.0
0.0 0.006039560076736386 0.004924755473450249 -0.004359763548065091 -0.0005649919253851576 -0.0038971875309686587 0.0 0.0
0.0 0.00875079489440164 0.007130031702081444 -0.006477216823455028 -0.0006528148786264142 -0.005089668403476111 0.0 0.0
0.0 0.012087935752087666 0.00991993392578356 -0.009199985326249698 -0.0007199485995338623 -0.006382752091235191 0.0 0.0
0.0 0.016018117389467318 0.013215490452056562 -0.012442841307005075 -0.0007726491450514884 -0.007463500093708243 0.0 0.0
0.0 0.020141743107427713 0.016881090872160318 -0.016066711850869317 -0.0008143790212909992 -0.007939507247989395 0.0 0.0
0.0 0.02434011589715796 0.020723214215116612 -0.01987371606832853 -0.000849498146788077 -0.007311265195681059 0.0 0.0
0.0 0.028059997672063137 0.024205682118405673 -0.023307624329732664 -0.0008980577886729983 -0.004492529370401385 0.0 0.0
0.0 0.028059997672061895 0.024205682118404143 -0.023307624329731012 -0.00089805778867313 0.004492529370412764 0.0 0.0
0.0 0.02434011589715567 0.020723214215113323 -0.019873716068325095 -0.0008494981467882199 0.007311265195696427 0.0 0.0
0.0 0.02014174310742401 0.01688109087215589 -0.01606671185086491 -0.0008143790212909752 0.00793950724799988 0.0 0.0
0.0 0.016018117389463217 0.013215490452052451 -0.012442841307001344 -0.0007726491450511038 0.007463500093711189 0.0 0.0
0.0 0.012087935752083105 0.009919933925779726 -0.009199985326246324 -0.0007199485995334011 0.006382752091232751 0.0 0.0
0.0 0.008750794894396625 0.0071300317020773045 -0.0064772168234510895 -0.0006528148786262149 0.0050896684034737166 0.0 0.0
0.0 0.006039560076732906 0.004924755473447036 -0.004359763548062342 -0.0005649919253846928 0.003897187530967429 0.0 0.0
0.0 0.004064484718933287 0.0032872092495859475 -0.002827448192768887 -0.00045976105681706125 0.0029203297098813526 0.0 0.0
0.0 0.002678269261230659 0.002112684588057796 -0.0017667352552424233 -0.0003459493328153727 0.0021404603118991405 0.0 0.0
0.0 0.0017125951847745797 0.0012592366877530584 -0.0010258074061898323 -0.00023342928156322646 0.00147738150643847 0.0 0.0
0.0 0.0009053225842984634 0.0006416108314069207 -0.0005099272153925585 -0.00013168361601436222 0.0008925845709080746 0.0 0.0
0.0 0.0004637347631739308 0.0002251939754789216 -0.00017647856976221794 -4.871540571670356e-05 0.00039757488130474374 0.0 0.0
0.0 0.0001679129898354044 6.652143880485691e-05 -5.1871531551596676e-05 -1.4649907253260187e-05 0.00015110322019451728 0.0 0.0
0.0 5.371368341378965e-05 1.1811417451457e-05 -9.061314936499224e-06 -2.750102514957716e-06 3.1144043842937695e-05 0.0 0.0
0.0 1.701189029290454e-05 -1.0712005918517917e-06 8.423420801224218e-07 2.2885851172940093e-07 -3.9485182211370824e-06 0.0 0.0
0.0 2.94144676419533e-06 -1.3952363804583855e-07 1.0592787565141571e-07 3.3595762394410604e-08 -5.885360676186246e-07 0.0 0.0
0.0 0.0 0.0 0.0 0.0 0.0 0.0 0.0
0.0 0.0 0.0 0.0 0.0 0.0 0.0 0.0
0.0 0.0 0.0 0.0 0.0 0.0 0.0 0.0
0.0 0.00015516623091021975 4.4343029705777584e-05 -6.264995869414164e-05 1.830692898836406e-05 6.26488285614686e-05 0.0 0.0
0.0 3.058593674805577e-05 4.656940450459295e-06 -6.637969459152849e-06 1.9810290086935005e-06 -7.9146905049649e-06 0.0 0.0
0.0 1.4400916002750037e-06 -2.734609515630081e-09 6.875531268888254e-09 -4.14092175325815e-09 3.1032020111844965e-07 0.0 0.0
0.0 0.0 0.0 0.0 0.0 0.0 0.0 0.0
0.0 0.0 0.0 0.0 0.0 0.0 0.0 0.0
0.0 3.0628381032003893e-06 -6.905754497911045e-08 5.370267077192337e-08 1.5354874207180573e-08 6.580753880809897e-07 0.0 0.0
0.0 1.669848219011466e-05 -6.754141313205313e-07 5.129785862102976e-07 1.624355451102145e-07 4.126874192673731e-06 0.0 0.0
0.0 3.115132033018138e-05 5.916655233717695e-07 -4.6632222803005987e-07 -1.2534329534171066e-07 -2.3367297350948694e-06 0.0 0.0
0.0 7.950827609063665e-05 2.5203871433273187e-05 -1.9664151290613264e-05 -5.539720142659968e-06 -0.00010410826857046814 0.0 0.0
0.0 0.00019774144450661845 6.001160707228312e-05 -4.6959095914619504e-05 -1.3052511157663705e-05 -0.00020431179321491597 0.0 0.0
0.0 0.0003645064431073769 0.0001467570604899327 -0.00011501478171071193 -3.1742278779220854e-05 -0.00043013299793155755 0.0 0.0
0.0 0.0006337507366074881 0.00034886002387422464 -0.00027460608578488423 -7.425393808934036e-05 -0.0008117537983259481 0.0 0.0
0.0 0.001183524408801272 0.0007235137857725395 -0.0005798957281949273 -0.00014361805757761212 -0.0013368926549884351 0.0 0.0
0.0 0.0019802849387400815 0.0013328948739125537 -0.001095125616745561 -0.00023776925716699262 -0.0020409617296589253 0.0 0.0
0.0 0.0031462593103916353 0.002236967141292492 -0.0018929130037301184 -0.0003440541375623732 -0.0028827491102587904 0.0 0.0
0.0 0.004758988555890744 0.003509092893259323 -0.0030625852599275357 -0.00044650763333178655 -0.003858926981295638 0.0 0.0
0.0 0.006844608550134661 0.005187457711246492 -0.004655696905512041 -0.0005317608057344506 -0.004904764342126638 0.0 0.0
0.0 0.009447872691308399 0.007296680703857254 -0.00670145352058718 -0.0005952271832700728 -0.005855234309687545 0.0 0.0
0.0 0.012433371823546849 0.009849592559322395 -0.009201521918341322 -0.0006480706409810701 -0.006347235921400465 0.0 0.0
0.0 0.015740289362806557 0.012812274667230823 -0.012134899864009261 -0.0006773748032215648 -0.006112123674150258 0.0 0.0
0.0 0.019099111664305536 0.016042391880457033 -0.015326780660345457 -0.0007156112201115803 -0.004327834264471686 0.0 0.0
0.0 0.019099111664305102 0.016042391880456166 -0.015326780660344607 -0.0007156112201115578 0.0043278342644793135 0.0 0.0
0.0 0.015740289362806928 0.012812274667229857 -0.012134899864008439 -0.0006773748032214075 0.006112123674161914 0.0 0.0
0.0 0.012433371823546771 0.009849592559321064 -0.009201521918340342 -0.0006480706409807245 0.006347235921408687 0.0 0.0
0.0 0.00944787269130593 0.007296680703854915 -0.006701453520585125 -0.0005952271832697892 0.005855234309688737 0.0 0.0
0.0 0.006844608550131978 0.005187457711244408 -0.00465569690551024 -0.0005317608057341658 0.004904764342124698 0.0 0.0
0.0 0.0047589885558877824 0.003509092893257027 -0.00306258525992551 -0.00044650763333151664 0.003858926981293184 0.0 0.0
0.0 0.0031462593103892943 0.00223696714129042 -0.0018929130037282462 -0.0003440541375621733 0.0028827491102579933 0.0 0.0
0.0 0.0019802849387375145 0.0013328948739104011 -0.0010951256167436637 -0.00023776925716673765 0.002040961729657278 0.0 0.0
0.0 0.0011835244087990996 0.000723513785770957 -0.0005798957281936462 -0.00014361805757731047 0.001336892654985823 0.0 0.0
0.0 0.0006337507366050428 0.0003488600238728476 -0.0002746060857837921 -7.42539380890554e-05 0.0008117537983235739 0.0 0.0
0.0 0.0003645064431055216 0.00014675706048926292 -0.00011501478171015722 -3.174227877910563e-05 0.0004301329979294658 0.0 0.0
0.0 0.00019774144450600083 6.001160707201892e-05 -4.695909591440779e-05 -1.3052511157611164e-05 0.0002043117932140728 0.0 0.0
0.0 7.950827608998707e-05 2.5203871433139498e-05 -1.9664151290509377e-05 -5.539720142630147e-06 0.00010410826856999526 0.0 0.0
0.0 3.1151320329756034e-05 5.916655233353327e-07 -4.663222280015405e-07 -1.2534329533383037e-07 2.3367297349330746e-06 0.0 0.0
0.0 1.6698482189689227e-05 -6.754141313023855e-07 5.129785861963078e-07 1.6243554510606457e-07 -4.126874192556078e-06 0.0 0.0
0.0 3.0628381027185974e-06 -6.905754496673606e-08 5.3702670762731366e-08 1.535487420400285e-08 -6.580753879731063e-07 0.0 0.0
0.0 0.0 0.0 0.0 0.0 0.0 0.0 0.0
0.0 0.0 0.0 0.0 0.0 0.0 0.0 0.0
0.0 1.4400916000606018e-06 -2.7346095151882377e-09 6.875531267780064e-09 -4.140921752592997e-09 -3.1032020106934037e-07 0.0 0.0
0.0 3.058593674735184e-05 4.656940450485442e-06 -6.637969459188819e-06 1.981029008703423e-06 7.91469050503705e-06 0.0 0.0
0.0 6.935391212700624e-06 -5.308503336795636e-07 7.686070645861012e-07 -2.3775673090646271e-07 1.049140728143854e-06 0.0 0.0
0.0 9.058458586408483e-07 7.524644947399427e-10 2.6921535547623604e-09 -3.4446180495020276e-09 1.904316725388036e-07 0.0 0.0
0.0 0.0 0.0 0.0 0.0 0.0 0.0 0.0
0.0 0.0 0.0 0.0 0.0 0.0 0.0 0.0
0.0 5.455561020486616e-06 -1.877319191674498e-08 9.400339741681261e-09 9.372852175065115e-09 1.2338249442516948e-06 0.0 0.0
0.0 1.2649162497041946e-05 -1.40816357743154e-07 1.0163524973838207e-07 3.9181108004787066e-08 3.1244596390112657e-06 0.0 0.0
0.0 1.9432613934410962e-05 3.541827630596925e-07 -2.831130851602075e-07 -7.106967789948334e-08 -5.487240873440653e-06 0.0 0.0
0.0 6.7861127828652e-05 2.567422030536913e-06 -1.97664045850508e-06 -5.907815720318475e-07 -2.9858375608335228e-05 0.0 0.0
0.0 0.00011546729397059844 1.324952825721539e-05 -1.030437576063291e-05 -2.945152496582452e-06 -0.00013556645205737374 0.0 0.0
0.0 0.0002284125659230666 2.781421903603165e-05 -2.1637560171181864e-05 -6.1766588648497625e-06 -0.00024379067903545725 0.0 0.0
0.0 0.0002989225468547778 6.164896169310964e-05 -4.839068707249508e-05 -1.3258274620614563e-05 -0.0004951176540538015 0.0 0.0
0.0 0.0004775653886367783 0.00010883018172616505 -8.620374328203418e-05 -2.2626438444130875e-05 -0.0007922171198452602 0.0 0.0
0.0 0.0007531651139505902 0.0001876848289760101 -0.0001502249105482887 -3.745991842772134e-05 -0.001238341049219003 0.0 0.0
0.0 0.0011959277419020713 0.00033984859978533226 -0.0002742275738842838 -6.562102590104852e-05 -0.0018952562839747267 0.0 0.0
0.0 0.0018606268790469268 0.0006416421745001808 -0.0005214707279886405 -0.00012017144651154006 -0.0027894084839966875 0.0 0.0
0.0 0.0027636236622499977 0.001105372178128037 -0.0009124378938324783 -0.00019293428429555858 -0.0038246497180103593 0.0 0.0
0.0 0.003986314802601968 0.0019052355586831693 -0.0016411482388184817 -0.00026408731986468686 -0.00482972043448943 0.0 0.0
0.0 0.005641306843284178 0.0032534397892684426 -0.002909331172945645 -0.0003441086163227962 -0.0053760394578142 0.0 0.0
0.0 0.007706449387805871 0.0051681582452551425 -0.004739217256553361 -0.00042894098870178125 -0.005100033782896439 0.0 0.0
0.0 0.010328776915738741 0.007760860957615028 -0.007313686650519472 -0.0004471743070955543 -0.004107519891565314 0.0 0.0
0.0 0.010328776915740282 0.0077608609576157745 -0.007313686650520334 -0.00044717430709543957 0.004107519891570207 0.0 0.0
0.0 0.007706449387807949 0.00516815824525536 -0.004739217256553819 -0.0004289409887015389 0.005100033782905527 0.0 0.0
0.0 0.005641306843283842 0.003253439789267183 -0.0029093311729445253 -0.00034410861632265776 0.005376039457818879 0.0 0.0
0.0 0.003986314802600372 0.001905235558682045 -0.0016411482388174858 -0.0002640873198645582 0.004829720434489151 0.0 0.0
0.0 0.002763623662248192 0.0011053721781273283 -0.0009124378938319398 -0.00019293428429538952 0.003824649718008094 0.0 0.0
0.0 0.0018606268790451398 0.0006416421744995244 -0.0005214707279881268 -0.00012017144651139731 0.0027894084839944046 0.0 0.0
0.0 0.0011959277419017794 0.0003398485997854011 -0.00027422757388428963 -6.56210259011114e-05 0.001895256283974014 0.0 0.0
0.0 0.0007531651139504867 0.00018768482897609 -0.00015022491054847008 -3.745991842761992e-05 0.0012383410492185732 0.0 0.0
0.0 0.00047756538863570033 0.00010883018172596303 -8.620374328187027e-05 -2.262643844409274e-05 0.0007922171198434055 0.0 0.0
0.0 0.00029892254685380407 6.164896169293705e-05 -4.839068707235524e-05 -1.3258274620581811e-05 0.0004951176540521167 0.0 0.0
0.0 0.0002284125659220127 2.7814219035945236e-05 -2.163756017112601e-05 -6.176658864819218e-06 0.000243790679034251 0.0 0.0
0.0 0.0001154672939701561 1.3249528257156339e-05 -1.030437576058946e-05 -2.945152496566876e-06 0.00013556645205665816 0.0 0.0
0.0 6.786112782829974e-05 2.5674220305098353e-06 -1.976640458481154e-06 -5.907815720286836e-07 2.9858375608111743e-05 0.0 0.0
0.0 1.9432613934078705e-05 3.5418276305350747e-07 -2.8311308515442545e-07 -7.106967789909083e-08 5.487240873387597e-06 0.0 0.0
0.0 1.2649162496547092e-05 -1.4081635773750347e-07 1.0163524973413121e-07 3.9181108003369014e-08 -3.12445963887376e-06 0.0 0.0
0.0 5.45556101996866e-06 -1.8773191914669415e-08 9.400339740582529e-09 9.372852174088403e-09 -1.2338249441241808e-06 0.0 0.0
0.0 0.0 0.0 0.0 0.0 0.0 0.0 0.0
0.0 0.0 0.0 0.0 0.0 0.0 0.0 0.0
0.0 9.058458584084025e-07 7.524644945423904e-10 2.6921535540279696e-09 -3.444618048570202e-09 -1.9043167248770486e-07 0.0 0.0
0.0 6.935391212252483e-06 -5.308503336457555e-07 7.686070645365576e-07 -2.3775673089073374e-07 -1.04914072807861e-06 0.0 0.0
0.0 0.0 0.0 0.0 0.0 0.0 0.0 0.0
0.0 1.5383172175747233e-06 6.921881519037933e-09 1.0853452076309987e-10 -7.030416039799502e-09 3.328304133161107e-07 0.0 0.0
0.0 1.0066126532131434e-06 1.880003715012459e-08 -1.6160969126220894e-08 -2.6390680239026013e-09 2.0557945421627096e-07 0.0 0.0
0.0 1.383063941498802e-06 2.5459537940592414e-08 -2.257136934956544e-08 -2.888168591028672e-09 2.836482218219604e-07 0.0 0.0
0.0 6.329568722991083e-06 1.2100159608131477e-07 -9.957492898929318e-08 -2.142666709203334e-08 1.4508070408241616e-06 0.0 0.0
0.0 1.6603222805849884e-05 2.923750411405768e-07 -2.3536244238526396e-07 -5.7012598755332366e-08 4.230645678688613e-06 0.0 0.0
0.0 2.034527879772021e-05 -3.089166409441802e-07 2.5236531177620084e-07 5.655132916798011e-08 -4.6877514759014655e-06 0.0 0.0
0.0 6.788142119636641e-05 -2.5396170669107087e-06 1.9530002030965374e-06 5.866168638142228e-07 -2.9718500634386478e-05 0.0 0.0
0.0 0.00011510761557917733 -1.3115810457551184e-05 1.0188436276241826e-05 2.9273741813093584e-06 -0.00013525221865719677 0.0 0.0
0.0 0.00022810123078437225 -2.7667728443123795e-05 2.1499350850761908e-05 6.168377592361861e-06 -0.00024353237048795666 0.0 0.0
0.0 0.0002997976503498419 -6.125562533076977e-05 4.809364655327118e-05 1.3161978777498542e-05 -0.0004945385868558132 0.0 0.0
0.0 0.00047742732606232123 -0.00010873974219546853 8.625196460359195e-05 2.2487777591876553e-05 -0.0007918044860802595 0.0 0.0
0.0 0.0007534455353446439 -0.00018911840846836422 0.00015196505772998678 3.715335073837746e-05 -0.0012371271333800353 0.0 0.0
0.0 0.001199761572219187 -0.0003446943839241434 0.0002782321242877867 6.646225963635663e-05 -0.0018948061011348513 0.0 0.0
0.0 0.0018595184795961966 -0.0006287570804438124 0.0005048257384783973 0.0001239313419654149 -0.002803073336854019 0.0 0.0
0.0 0.0027018625762372087 -0.0009539430487003708 0.0007614818139539423 0.0001924612347464286 -0.003883246035387649 0.0 0.0
0.0 0.003572578036825786 -0.0011793138088193413 0.0009297758845454491 0.00024953792427389226 -0.005106494034978737 0.0 0.0
0.0 0.004331983445705726 -0.0010641340039416513 0.0007910436213282583 0.0002730903826133934 -0.006411094524465608 0.0 0.0
0.0 0.0046204885871356394 -0.00045063796531200355 0.0002739517485032119 0.00017668621680879163 -0.007415981077789591 0.0 0.0
0.0 0.004256749388069875 0.0009505792490158202 -0.0010151860683247256 6.460681930890464e-05 -0.0062427494471844185 0.0 0.0
0.0 0.004256749388072687 0.0009505792490159253 -0.0010151860683250856 6.460681930916057e-05 0.006242749447190547 0.0 0.0
0.0 0.00462048858713884 -0.0004506379653120936 0.00027395174850339374 0.0001766862168086998 0.007415981077796336 0.0 0.0
0.0 0.004331983445706092 -0.0010641340039414826 0.0007910436213281542 0.00027309038261332777 0.006411094524467389 0.0 0.0
0.0 0.003572578036823617 -0.0011793138088182615 0.000929775884544618 0.0002495379242736436 0.005106494034977292 0.0 0.0
0.0 0.002701862576234295 -0.0009539430486989461 0.0007614818139527119 0.00019246123474623406 0.003883246035384884 0.0 0.0
0.0 0.0018595184795941874 -0.0006287570804428356 0.0005048257384774803 0.0001239313419653551 0.0028030733368513755 0.0 0.0
0.0 0.0011997615722182547 -0.0003446943839236336 0.00027823212428741386 6.646225963621963e-05 0.0018948061011337181 0.0 0.0
0.0 0.0007534455353434663 -0.00018911840846794136 0.0001519650577296648 3.7153350738276504e-05 0.0012371271333788073 0.0 0.0
0.0 0.00047742732606108275 -0.0001087397421950301 8.625196460322184e-05 2.2487777591808224e-05 0.0007918044860782481 0.0 0.0
0.0 0.0002997976503488262 -6.125562533043302e-05 4.809364655300867e-05 1.316197877742435e-05 0.0004945385868538627 0.0 0.0
0.0 0.0002281012307830849 -2.7667728442892694e-05 2.1499350850579487e-05 6.168377592313258e-06 0.00024353237048630857 0.0 0.0
0.0 0.00011510761557871925 -1.3115810457465208e-05 1.0188436276174793e-05 2.9273741812904137e-06 0.00013525221865665562 0.0 0.0
0.0 6.788142119596786e-05 -2.539617066889604e-06 1.9530002030848513e-06 5.866168638047829e-07 2.9718500634123278e-05 0.0 0.0
0.0 2.0345278797307617e-05 -3.089166409417903e-07 2.523653117739239e-07 5.655132916785806e-08 4.687751475901567e-06 0.0 0.0
0.0 1.660322280540092e-05 2.923750411319481e-07 -2.353624423789323e-07 -5.7012598753028695e-08 -4.230645678559954e-06 0.0 0.0
0.0 6.329568722541222e-06 1.2100159607286122e-07 -9.95749289822081e-08 -2.1426667090650783e-08 -1.4508070407127971e-06 0.0 0.0
0.0 1.3830639409702123e-06 2.545953793022371e-08 -2.2571369340467936e-08 -2.8881685897572623e-09 -2.83648221709575e-07 0.0 0.0
0.0 1.0066126527697196e-06 1.88000371412546e-08 -1.616096911875171e-08 -2.639068022502714e-09 -2.0557945412396978e-07 0.0 0.0
0.0 1.5383172173538042e-06 6.921881518012765e-09 1.0853452069602514e-10 -7.0304160387032955e-09 -3.3283041326523493e-07 0.0 0.0
0.0 0.0 0.0 0.0 0.0 0.0 0.0 0.0
0.0 0.0 0.0 0.0 0.0 0.0 0.0 0.0
0.0 0.0 0.0 0.0 0.0 0.0 0.0 0.0
0.0 1.1358547083792243e-06 2.9199022431756486e-08 -2.4414515401068504e-08 -4.784507030685914e-09 2.3110359978051093e-07 0.0 0.0
0.0 4.433390297601944e-06 1.6015753021163607e-07 -1.3149237797341269e-07 -2.8665152238211024e-08 9.616929248813422e-07 0.0 0.0
0.0 5.593573495796702e-06 2.2488050829672393e-07 -1.783306916581879e-07 -4.6549816638530954e-08 1.2502688499216848e-06 0.0 0.0
0.0 1.5193019753149584e-05 6.075697492807933e-07 -5.003829957410301e-07 -1.0718675353973588e-07 3.7538488162118154e-06 0.0 0.0
0.0 3.4423006693885896e-05 -4.505433038247159e-07 3.4886664064303937e-07 1.0167666318167303e-07 -1.5315865479145502e-06 0.0 0.0
0.0 7.963258679638075e-05 -2.5074432439571135e-05 1.9566367305682965e-05 5.508065133888163e-06 -0.00010369812735940321 0.0 0.0
0.0 0.00019620903913774803 -5.969389657668635e-05 4.6685252346892396e-05 1.300864422979398e-05 -0.00020348171030093738 0.0 0.0
0.0 0.0003631037773230759 -0.00014650955688448461 0.00011477777529008216 3.173178159440245e-05 -0.00042966256486904247 0.0 0.0
0.0 0.0006328503865971664 -0.00034844376122398433 0.00027422294004909246 7.422082117489176e-05 -0.0008116739394369298 0.0 0.0
0.0 0.0011824511057402375 -0.0007228984003410394 0.0005794790986059895 0.00014341930173504972 -0.0013359638569511625 0.0 0.0
0.0 0.001981551359344441 -0.0013353504794833704 0.0010981337042138904 0.00023721677526947953 -0.002034813493301725 0.0 0.0
0.0 0.003157811106539952 -0.002248626762196251 0.0019040690044186124 0.00034455775777763817 -0.002874130386700652 0.0 0.0
0.0 0.004763997616052139 -0.0034988394328778387 0.0030461044608576186 0.00045273497202022006 -0.003894936677777234 0.0 0.0
0.0 0.00669637205620704 -0.00498238939790438 0.004433548627372851 0.0005488407705315284 -0.00513064128835116 0.0 0.0
0.0 0.008684572403603052 -0.006414245634570579 0.005786710053951822 0.0006275355806187559 -0.006555083564483472 0.0 0.0
0.0 0.010180134272955367 -0.007331702410310354 0.006647160453442376 0.0006845419568679786 -0.008045962098767734 0.0 0.0
0.0 0.010118881315996912 -0.0069643303428124186 0.00621947890256295 0.0007448514402494697 -0.00870481831887685 0.0 0.0
0.0 0.007309779874666982 -0.004355293428060632 0.003649580740305424 0.0007057126877552074 -0.006822903885228684 0.0 0.0
0.0 0.0073097798746710775 -0.004355293428062447 0.0036495807403070096 0.0007057126877554373 0.006822903885235355 0.0 0.0
0.0 0.010118881315999915 -0.006964330342812927 0.006219478902563251 0.0007448514402496735 0.00870481831888649 0.0 0.0
0.0 0.010180134272955799 -0.0073317024103096776 0.006647160453441724 0.0006845419568679523 0.008045962098773266 0.0 0.0
0.0 0.008684572403600817 -0.006414245634568553 0.005786710053950074 0.0006275355806184739 0.006555083564483726 0.0 0.0
0.0 0.006696372056202243 -0.004982389397900449 0.004433548627369333 0.0005488407705311148 0.005130641288348623 0.0 0.0
0.0 0.004763997616047329 -0.003498839432873801 0.003046104460853907 0.0004527349720198925 0.0038949366777743643 0.0 0.0
0.0 0.0031578111065345372 -0.0022486267621920756 0.0019040690044149005 0.00034455775777717456 0.0028741303866974023 0.0 0.0
0.0 0.0019815513593397587 -0.0013353504794794695 0.0010981337042104695 0.00023721677526899993 0.0020348134932988587 0.0 0.0
0.0 0.0011824511057359675 -0.0007228984003381197 0.0005794790986036187 0.00014341930173450082 0.0013359638569479385 0.0 0.0
0.0 0.0006328503865938582 -0.000348443761222174 0.00027422294004756943 7.422082117460447e-05 0.0008116739394338039 0.0 0.0
0.0 0.00036310377732043245 -0.00014650955688363362 0.0001147777752893927 3.173178159424099e-05 0.00042966256486673046 0.0 0.0
0.0 0.00019620903913672162 -5.9693896576324575e-05 4.668525234660413e-05 1.300864422972043e-05 0.000203481710299967 0.0 0.0
0.0 7.963258679590744e-05 -2.5074432439418974e-05 1.956636730556557e-05 5.50806513385343e-06 0.0001036981273589061 0.0 0.0
0.0 3.442300669342089e-05 -4.5054330382477454e-07 3.4886664064458166e-07 1.0167666318024726e-07 1.531586547932444e-06 0.0 0.0
0.0 1.519301975257843e-05 6.07569749254635e-07 -5.003829957201351e-07 -1.0718675353450862e-07 -3.753848816058526e-06 0.0 0.0
0.0 5.593573495293337e-06 2.2488050827704833e-07 -1.7833069164221596e-07 -4.654981663483093e-08 -1.2502688498043295e-06 0.0 0.0
0.0 4.433390297185643e-06 1.6015753019653384e-07 -1.314923779608683e-07 -2.86651522356573e-08 -9.616929247861855e-07 0.0 0.0
0.0 1.1358547077892155e-06 2.9199022415728776e-08 -2.4414515387892006e-08 -4.78450702783608e-09 -2.3110359965855258e-07 0.0 0.0
0.0 0.0 0.0 0.0 0.0 0.0 0.0 0.0
0.0 0.0 0.0 0.0 0.0 0.0 0.0 0.0
0.0 0.0 0.0 0.0 0.0 0.0 0.0 0.0
0.0 0.0 0.0 0.0 0.0 0.0 0.0 0.0
0.0 2.3595770755575334e-06 8.103527066722901e-08 -6.628456757561009e-08 -1.4750703091619284e-08 4.821090556875273e-07 0.0 0.0
0.0 6.590687281837416e-06 3.10881542792901e-07 -2.570236217687858e-07 -5.385792102411917e-08 1.409381601992583e-06 0.0 0.0
0.0 7.627299154539806e-06 4.0935751532963017e-07 -3.3681363121879136e-07 -7.254388411084961e-08 1.667160813460528e-06 0.0 0.0
0.0 2.0386492939198233e-05 1.4262568685873572e-06 -1.1157064935075056e-06 -3.1055037507982356e-07 4.73426434119655e-06 0.0 0.0
0.0 5.776275447493014e-05 -1.2257826972834668e-05 9.435484600313814e-06 2.822342372520865e-06 -3.204365715465816e-05 0.0 0.0
0.0 0.0001681843660406088 -6.606444427593063e-05 5.1525991637973266e-05 1.4538452637957393e-05 -0.00015037743379192395 0.0 0.0
0.0 0.0004607958713263593 -0.00022415927417272546 0.0001756138762229151 4.854539794981037e-05 -0.0003958772747456177 0.0 0.0
0.0 0.0009028907251859959 -0.0006405455697391274 0.0005089615215598895 0.00013158404817923785 -0.0008913026150715403 0.0 0.0
0.0 0.0017114905104716964 -0.0012584985184164316 0.0010250483077125486 0.00023345021070388276 -0.0014773845652799116 0.0 0.0
0.0 0.002676730385260548 -0.0021109920978407766 0.0017652535625305196 0.0003457385353102561 -0.0021395013383833446 0.0 0.0
0.0 0.004060541084980669 -0.0032863401636095127 0.0028276496869819798 0.00045869047662753165 -0.0029066156566658462 0.0 0.0
0.0 0.006041486688460737 -0.004934155033106127 0.004369992988109135 0.0005641620449969906 -0.0038605444538282103 0.0 0.0
0.0 0.008756283653034758 -0.007134043624725665 0.00647595799523336 0.0006580856294923017 -0.0050940665262653685 0.0 0.0
0.0 0.011993053909976664 -0.009772494082912662 0.00903295747111637 0.0007395366117962936 -0.006708900407584884 0.0 0.0
0.0 0.015465720814277904 -0.012483701977395607 0.011672967278837602 0.0008107346985580062 -0.008786815421102255 0.0 0.0
0.0 0.01812824103979572 -0.014577640216217467 0.013690019970525212 0.0008876202456922465 -0.01104955652576124 0.0 0.0
0.0 0.018736560325346437 -0.014801933616995588 0.013828890532489861 0.0009730430845057277 -0.012243296823354071 0.0 0.0
0.0 0.014483367632369421 -0.011354790802630015 0.010294273724110702 0.001060517078519309 -0.00961350622704201 0.0 0.0
0.0 0.014483367632371085 -0.011354790802629933 0.010294273724110473 0.001060517078519458 0.009613506227050508 0.0 0.0
0.0 0.018736560325348057 -0.014801933616994573 0.013828890532488914 0.0009730430845056566 0.012243296823366757 0.0 0.0
0.0 0.018128241039794248 -0.014577640216214514 0.013690019970522731 0.0008876202456917772 0.011049556525769576 0.0 0.0
0.0 0.015465720814271115 -0.012483701977389322 0.011672967278831783 0.0008107346985575389 0.008786815421102797 0.0 0.0
0.0 0.01199305390996898 -0.009772494082906213 0.009032957471110343 0.0007395366117958701 0.006708900407581171 0.0 0.0
0.0 0.008756283653028663 -0.007134043624720489 0.006475957995228343 0.0006580856294921445 0.005094066526262712 0.0 0.0
0.0 0.006041486688455722 -0.004934155033101872 0.004369992988105201 0.0005641620449966702 0.0038605444538256004 0.0 0.0
0.0 0.004060541084975061 -0.0032863401636043566 0.0028276496869773676 0.000458690476626988 0.002906615656663521 0.0 0.0
0.0 0.002676730385253832 -0.002110992097834973 0.0017652535625253137 0.0003457385353096594 0.0021395013383787988 0.0 0.0
0.0 0.0017114905104638606 -0.001258498518410405 0.001025048307707449 0.00023345021070295553 0.0014773845652740298 0.0 0.0
0.0 0.0009028907251805478 -0.0006405455697352258 0.0005089615215566341 0.00013158404817859162 0.0008913026150669209 0.0 0.0
0.0 0.00046079587132343057 -0.000224159274171012 0.0001756138762215431 4.854539794946891e-05 0.0003958772747434181 0.0 0.0
0.0 0.00016818436603951837 -6.606444427553289e-05 5.152599163766211e-05 1.4538452637870716e-05 0.00015037743379104105 0.0 0.0
0.0 5.776275447424238e-05 -1.225782697280745e-05 9.435484600298381e-06 2.822342372509001e-06 3.204365715458176e-05 0.0 0.0
0.0 2.0386492938733195e-05 1.4262568685531833e-06 -1.1157064934812938e-06 -3.1055037507188146e-07 -4.73426434107734e-06 0.0 0.0
0.0 7.627299153988424e-06 4.0935751529703973e-07 -3.3681363119245467e-07 -7.254388410461007e-08 -1.6671608133338516e-06 0.0 0.0
0.0 6.590687281367154e-06 3.108815427685181e-07 -2.5702362174870477e-07 -5.385792101978286e-08 -1.40938160188229e-06 0.0 0.0
0.0 2.359577075132882e-06 8.103527065174102e-08 -6.628456756303808e-08 -1.4750703088705987e-08 -4.821090555965945e-07 0.0 0.0
0.0 0.0 0.0 0.0 0.0 0.0 0.0 0.0
0.0 0.0 0.0 0.0 0.0 0.0 0.0 0.0
0.0 0.0 0.0 0.0 0.0 0.0 0.0 0.0
0.0 0.0 0.0 0.0 0.0 0.0 0.0 0.0
0.0 1.7628622969571817e-06 7.425115860910101e-08 -6.029149642657997e-08 -1.395966218251701e-08 3.4489921195325244e-07 0.0 0.0
0.0 4.567888438524369e-06 2.816642514147399e-07 -2.2557908395780664e-07 -5.608516745694391e-08 9.161147982631984e-07 0.0 0.0
0.0 1.0652708672248226e-05 8.226055347280341e-07 -6.478885821649108e-07 -1.7471695256313932e-07 2.1974362185297753e-06 0.0 0.0
0.0 3.204117716316177e-05 -3.786275647202542e-06 2.8996071641075947e-06 8.866684830949517e-07 -7.569486084747903e-06 0.0 0.0
0.0 0.00011990824240698903 -3.947268689682012e-05 3.110490355826896e-05 8.367783338551234e-06 -7.372468548035663e-05 0.0 0.0
0.0 0.0004103517984525671 -0.00023317954611488503 0.00018247828389320015 5.0701262221684926e-05 -0.00031068948871464856 0.0 0.0
0.0 0.0010077491724069688 -0.0007166879536531689 0.000571077826365852 0.00014561012728731685 -0.0007659997810011195 0.0 0.0
0.0 0.0018378801638188503 -0.0014790583197234444 0.0012088012498806457 0.0002702570698427985 -0.0013588684657246499 0.0 0.0
0.0 0.0029354885334063573 -0.0024544925984705916 0.0020614773511154205 0.00039301524735517034 -0.0019808070859791615 0.0 0.0
0.0 0.0044075261429744285 -0.0037205818819920377 0.0032096759366286504 0.000510905945363386 -0.0026457014631120655 0.0 0.0
0.0 0.0064617330810971515 -0.005447088665118692 0.004829784505803295 0.0006173041593153959 -0.0034576642229338047 0.0 0.0
0.0 0.009262257214790326 -0.007835999988354044 0.007126408674742635 0.000709591313611409 -0.0045072360572211865 0.0 0.0
0.0 0.013026757739118093 -0.010995643977225775 0.010206868649745562 0.0007887753274802081 -0.0058844054640199445 0.0 0.0
0.0 0.01762071012742903 -0.014817968731515958 0.01395360548291002 0.0008643632486059311 -0.007768094113380971 0.0 0.0
0.0 0.022472320234380748 -0.018836566798793104 0.017894553929629856 0.0009420128691632499 -0.010337334633843289 0.0 0.0
0.0 0.026509644271545292 -0.0220565901965468 0.021019206894400164 0.0010373833021466326 -0.013263137749594632 0.0 0.0
0.0 0.027529100541013114 -0.022708057803542243 0.02155309264737676 0.0011549651561654742 -0.015069665815584745 0.0 0.0
0.0 0.02208892885722855 -0.0181726210640758 0.016886941427153322 0.001285679636922475 -0.01262319179294004 0.0 0.0
0.0 0.022088928857231405 -0.01817262106407626 0.016886941427153822 0.0012856796369224341 0.0126231917929524 0.0 0.0
0.0 0.02752910054101503 -0.0227080578035411 0.021553092647376 0.0011549651561650871 0.015069665815601666 0.0 0.0
0.0 0.026509644271542628 -0.022056590196542634 0.021019206894396274 0.001037383302146359 0.013263137749605915 0.0 0.0
0.0 0.022472320234373826 -0.018836566798786456 0.017894553929623518 0.0009420128691629347 0.01033733463384583 0.0 0.0
0.0 0.01762071012741925 -0.01481796873150745 0.0139536054829017 0.000864363248605749 0.007768094113378454 0.0 0.0
0.0 0.013026757739109645 -0.01099564397721826 0.010206868649738514 0.0007887753274797379 0.005884405464017464 0.0 0.0
0.0 0.009262257214782162 -0.007835999988346852 0.0071264086747359345 0.0007095913136109157 0.004507236057217964 0.0 0.0
0.0 0.006461733081088784 -0.005447088665111219 0.004829784505796389 0.0006173041593148299 0.0034576642229311397 0.0 0.0
0.0 0.004407526142966151 -0.003720581881984518 0.0032096759366219267 0.000510905945362591 0.0026457014631079217 0.0 0.0
0.0 0.002935488533398406 -0.0024544925984636727 0.0020614773511092735 0.00039301524735439893 0.0019808070859736546 0.0 0.0
0.0 0.001837880163811975 -0.001479058319717732 0.0012088012498758399 0.0002702570698418921 0.0013588684657198148 0.0 0.0
0.0 0.001007749172402135 -0.0007166879536494562 0.0005710778263628461 0.00014561012728661003 0.0007659997809979442 0.0 0.0
0.0 0.0004103517984499569 -0.0002331795461133147 0.00018247828389198308 5.0701262221331686e-05 0.00031068948871302226 0.0 0.0
0.0 0.00011990824240513593 -3.9472686896385126e-05 3.110490355792234e-05 8.367783338462848e-06 7.372468547958496e-05 0.0 0.0
0.0 3.204117716236698e-05 -3.786275647291733e-06 2.899607164177109e-06 8.866684831146427e-07 7.569486084934089e-06 0.0 0.0
0.0 1.0652708671817191e-05 8.226055346933095e-07 -6.478885821374208e-07 -1.7471695255591085e-07 -2.197436218434703e-06 0.0 0.0
0.0 4.567888438027894e-06 2.8166425138388424e-07 -2.2557908393276395e-07 -5.608516745111872e-08 -9.161147981597317e-07 0.0 0.0
0.0 1.7628622965901851e-06 7.425115859282739e-08 -6.029149641341486e-08 -1.3959662179415613e-08 -3.448992118785202e-07 0.0 0.0
0.0 0.0 0.0 0.0 0.0 0.0 0.0 0.0
0.0 0.0 0.0 0.0 0.0 0.0 0.0 0.0
0.0 0.0 0.0 0.0 0.0 0.0 0.0 0.0
0.0 0.0 0.0 0.0 0.0 0.0 0.0 0.0
0.0 0.0 0.0 0.0 0.0 0.0 0.0 0.0
0.0 6.934682311029604e-06 5.04234701713622e-07 -4.0650678403662876e-07 -9.772791767698894e-08 1.3113344896194137e-06 0.0 0.0
0.0 2.4522623338747396e-05 2.41421874416821e-06 -1.9037384692963827e-06 -5.104802748717368e-07 4.861566411932286e-06 0.0 0.0
0.0 5.450790684554774e-05 -1.1822017685081489e-05 9.371882881149944e-06 2.4501348039316335e-06 -1.8671986367582374e-05 0.0 0.0
0.0 0.00027696199727633345 -0.00013484086318428317 0.00010554927551820703 2.9291587666076224e-05 -0.0001543322550465001 0.0 0.0
0.0 0.0008458712617905674 -0.000600538308454806 0.00047661507161931503 0.00012392323683549098 -0.0005374122301075365 0.0 0.0
0.0 0.0017094101970210967 -0.0014083347263848824 0.0011477116735453552 0.00026062305283952705 -0.001074136012171077 0.0 0.0
0.0 0.0028437566727634893 -0.002449106557320486 0.002051564841786058 0.00039754171553442854 -0.0016397250566506172 0.0 0.0
0.0 0.004312197968887054 -0.0037448221472977383 0.003221278161282743 0.0005235439860149947 -0.002215519414796914 0.0 0.0
0.0 0.006281505004852566 -0.005436586247690485 0.004799732087130686 0.0006368541605597982 -0.0028784177303625147 0.0 0.0
0.0 0.008973715698551377 -0.007733123032940115 0.006998361799627192 0.0007347612333129213 -0.0037179115649947484 0.0 0.0
0.0 0.012661655213229185 -0.010867703470932806 0.010050135367681274 0.0008175681032515284 -0.004804502373628663 0.0 0.0
0.0 0.01755528151909465 -0.014988348458893515 0.014097417152625538 0.0008909313062679725 -0.006225275236032986 0.0 0.0
0.0 0.0233135525232371 -0.019995387770158597 0.019028179297891547 0.0009672084722670459 -0.008174514248043222 0.0 0.0
0.0 0.029744883667211987 -0.02530568398513378 0.02424879270577907 0.0010568912793547081 -0.010878414714858368 0.0 0.0
0.0 0.03503271517050152 -0.02960860794019629 0.028435050974229235 0.0011735569659670486 -0.014204582624166648 0.0 0.0
0.0 0.03635581395771464 -0.030553302663923945 0.02923206540487016 0.0013212372590537895 -0.016734910167436626 0.0 0.0
0.0 0.029683595048779397 -0.024799818479692697 0.02333591836588371 0.0014639001138089937 -0.015498585889866731 0.0 0.0
0.0 0.029683595048780657 -0.024799818479691673 0.023335918365882523 0.0014639001138091402 0.01549858588988121 0.0 0.0
0.0 0.03635581395771381 -0.03055330266392082 0.02923206540486691 0.001321237259053908 0.016734910167455257 0.0 0.0
0.0 0.035032715170496255 -0.029608607940190115 0.028435050974223195 0.0011735569659669098 0.014204582624179823 0.0 0.0
0.0 0.02974488366720254 -0.025305683985125 0.024248792705770413 0.0010568912793545923 0.010878414714862426 0.0 0.0
0.0 0.023313552523226283 -0.019995387770149017 0.019028179297882322 0.0009672084722666925 0.008174514248041618 0.0 0.0
0.0 0.01755528151908573 -0.014988348458885473 0.014097417152618112 0.0008909313062673558 0.006225275236031098 0.0 0.0
0.0 0.012661655213220012 -0.010867703470924518 0.010050135367673631 0.0008175681032508827 0.004804502373625822 0.0 0.0
0.0 0.008973715698541386 -0.007733123032930873 0.0069983617996186315 0.0007347612333122393 0.0037179115649924313 0.0 0.0
0.0 0.006281505004841036 -0.005436586247680204 0.004799732087121233 0.00063685416055897 0.002878417730358288 0.0 0.0
0.0 0.004312197968876132 -0.0037448221472881366 0.003221278161274035 0.0005235439860141005 0.0022155194147913163 0.0 0.0
0.0 0.0028437566727549666 -0.002449106557312934 0.0020515648417793932 0.00039754171553354047 0.0016397250566453389 0.0 0.0
0.0 0.0017094101970139253 -0.001408334726378608 0.00114771167353999 0.00026062305283861757 0.001074136012167108 0.0 0.0
0.0 0.0008458712617853247 -0.0006005383084507748 0.00047661507161606497 0.0001239232368347099 0.0005374122301045898 0.0 0.0
0.0 0.0002769619972735979 -0.0001348408631828615 0.00010554927551709529 2.929158766576637e-05 0.00015433225504498592 0.0 0.0
0.0 5.450790684442732e-05 -1.1822017685108613e-05 9.371882881170986e-06 2.450134803937743e-06 1.867198636761574e-05 0.0 0.0
0.0 2.452262333810597e-05 2.414218744102643e-06 -1.903738469245527e-06 -5.104802748570536e-07 -4.8615664118109176e-06 0.0 0.0
0.0 6.934682310525032e-06 5.04234701673154e-07 -4.065067840040159e-07 -9.772791766911185e-08 -1.311334489514374e-06 0.0 0.0
0.0 0.0 0.0 0.0 0.0 0.0 0.0 0.0
0.0 0.0 0.0 0.0 0.0 0.0 0.0 0.0
0.0 0.0 0.0 0.0 0.0 0.0 0.0 0.0
0.0 0.0 0.0 0.0 0.0 0.0 0.0 0.0
0.0 0.0 0.0 0.0 0.0 0.0 0.0 0.0
0.0 0.0 0.0 0.0 0.0 0.0 0.0 0.0
0.0 3.200659700653277e-06 2.5707668109785343e-07 -2.0547601315242337e-07 -5.1600667945449464e-08 5.112391326946205e-07 0.0 0.0
0.0 2.3881890394156375e-05 1.4914349417709315e-06 -1.1863364362957217e-06 -3.0509850547515555e-07 2.4070202846902347e-06 0.0 0.0
0.0 0.00012760515493662647 -3.770312701423564e-05 2.9576465600172772e-05 8.126661414062996e-06 -3.8266684144762336e-05 0.0 0.0
0.0 0.0006077189985638599 -0.0003580963880327584 0.00028253197170569896 7.55644163270594e-05 -0.00027362888798675443 0.0 0.0
0.0 0.001355927571733352 -0.0011355061185294136 0.0009170141734903702 0.00021849194503904368 -0.0007250201400213906 0.0 0.0
0.0 0.002476819600993096 -0.0021839793195583684 0.0018168011737735089 0.0003671781457848594 -0.0012173499533571091 0.0 0.0
0.0 0.003921825874713817 -0.0034707419633231433 0.002965275403113721 0.0005054665602094216 -0.0017063812809769126 0.0 0.0
0.0 0.005786436938222409 -0.005096087880567847 0.004467262988902459 0.0006288248916653861 -0.002244201688614592 0.0 0.0
0.0 0.008247452117781344 -0.007227931162452723 0.006491864579383539 0.0007360665830691835 -0.0028773691579753007 0.0 0.0
0.0 0.011657007795791532 -0.01011033976740552 0.009282152393693779 0.0008281873737117386 -0.0036906697228178053 0.0 0.0
0.0 0.016116581717528736 -0.014006348668428852 0.013098902987656598 0.0009074456807722507 -0.004779694712775471 0.0 0.0
0.0 0.022028733511029092 -0.019068387430713818 0.018088557444052855 0.000979829986660954 -0.006144624600459733 0.0 0.0
0.0 0.029285915621220543 -0.025206246414491186 0.024145385982391927 0.001060860432099256 -0.007895461867645802 0.0 0.0
0.0 0.03684102722847021 -0.03176998698009305 0.03060793024421228 0.0011620567358807564 -0.010410867614761671 0.0 0.0
0.0 0.04316962995711519 -0.037123459592129884 0.035824863186553875 0.001298596405576002 -0.013851212119565377 0.0 0.0
0.0 0.044911537632803575 -0.03835084901111214 0.03688069295778158 0.0014701560533305533 -0.017313501016220208 0.0 0.0
0.0 0.03742925563709033 -0.03143062135043528 0.029805527003724658 0.00162509434671061 -0.01835104770248363 0.0 0.0
0.0 0.03742925563709215 -0.03143062135043449 0.029805527003723943 0.0016250943467105458 0.018351047702500067 0.0 0.0
0.0 0.04491153763280177 -0.038350849011108246 0.036880692957777905 0.0014701560533303376 0.017313501016240088 0.0 0.0
0.0 0.043169629957108616 -0.03712345959212256 0.035824863186547054 0.0012985964055754952 0.013851212119579903 0.0 0.0
0.0 0.036841027228460305 -0.03176998698008363 0.030607930244203656 0.0011620567358799684 0.010410867614766513 0.0 0.0
0.0 0.029285915621208077 -0.025206246414480042 0.02414538598238144 0.0010608604320986002 0.007895461867645552 0.0 0.0
0.0 0.02202873351101646 -0.019068387430702632 0.01808855744404215 0.0009798299866604838 0.006144624600458585 0.0 0.0
0.0 0.01611658171751513 -0.014006348668416898 0.013098902987645013 0.0009074456807718881 0.004779694712772379 0.0 0.0
0.0 0.011657007795778595 -0.010110339767393723 0.009282152393682484 0.0008281873737112379 0.003690669722815302 0.0 0.0
0.0 0.008247452117767815 -0.0072279311624404985 0.006491864579371848 0.0007360665830686488 0.002877369157971544 0.0 0.0
0.0 0.005786436938209535 -0.0050960878805562165 0.004467262988891686 0.0006288248916645309 0.0022442016886091323 0.0 0.0
0.0 0.003921825874703125 -0.0034707419633133976 0.0029652754031049876 0.0005054665602084092 0.001706381280971757 0.0 0.0
0.0 0.0024768196009844297 -0.0021839793195502443 0.001816801173766393 0.00036717814578385115 0.0012173499533534421 0.0 0.0
0.0 0.0013559275717276043 -0.001135506118524311 0.0009170141734861446 0.00021849194503816645 0.0007250201400186601 0.0 0.0
0.0 0.0006077189985597566 -0.0003580963880300959 0.00028253197170361236 7.556441632648359e-05 0.0002736288879849184 0.0 0.0
0.0 0.00012760515493487822 -3.770312701375605e-05 2.957646559979066e-05 8.126661413965626e-06 3.826668414421914e-05 0.0 0.0
0.0 2.3881890393263078e-05 1.4914349415538529e-06 -1.1863364361265357e-06 -3.050985054272586e-07 -2.4070202843953563e-06 0.0 0.0
0.0 3.200659700228882e-06 2.570766810613841e-07 -2.0547601312327432e-07 -5.1600667938105344e-08 -5.112391326224368e-07 0.0 0.0
0.0 0.0 0.0 0.0 0.0 0.0 0.0 0.0
0.0 0.0 0.0 0.0 0.0 0.0 0.0 0.0
0.0 0.0 0.0 0.0 0.0 0.0 0.0 0.0
0.0 0.0 0.0 0.0 0.0 0.0 0.0 0.0
0.0 0.0 0.0 0.0 0.0 0.0 0.0 0.0
0.0 0.0 0.0 0.0 0.0 0.0 0.0 0.0
0.0 2.618405318439777e-06 2.393682008394056e-07 -1.9194239063089624e-07 -4.742581020851728e-08 3.6423945028289323e-07 0.0 0.0
0.0 3.369080833405911e-05 4.165826819857045e-06 -3.2038508239459375e-06 -9.61975995911166e-07 4.051031053284626e-06 0.0 0.0
0.0 0.00029159801706318735 -0.00012324792781936267 9.709831775362963e-05 2.614961006573296e-05 -8.490684634420265e-05 0.0 0.0
0.0 0.0008916290818831293 -0.0007490712798564433 0.0005981202813542966 0.0001509509985021468 -0.0004030451431164933 0.0 0.0
0.0 0.0019349989166322927 -0.0017407270437101645 0.0014311885111957792 0.00030953853251438495 -0.000790492481223644 0.0 0.0
0.0 0.003329892184657328 -0.0029851479295256436 0.0025253429457412777 0.0004598049837843661 -0.0011833526745457599 0.0 0.0
0.0 0.005066169799528944 -0.004531905163693194 0.003936010413150817 0.0005958947505423772 -0.0016063122169054267 0.0 0.0
0.0 0.0073189477524181245 -0.006494764943309938 0.005779941665689561 0.0007148232776203774 -0.0020809730024079405 0.0 0.0
0.0 0.01031596273279038 -0.009080353632099672 0.008262329112250302 0.0008180245198493698 -0.002648177889903987 0.0 0.0
0.0 0.014357446330778675 -0.01256980827242524 0.011662781392741954 0.0009070268796832822 -0.0034000958475977196 0.0 0.0
0.0 0.019790226453366144 -0.017230195556270554 0.01624175807341647 0.0009884374828540861 -0.00440038236630031 0.0 0.0
0.0 0.026734892595182826 -0.023202266571519362 0.02213765792435121 0.0010646086471681447 -0.0056372996046054604 0.0 0.0
0.0 0.034860243314754666 -0.03038632150427647 0.029238662012980497 0.0011476594912959652 -0.00706297689212378 0.0 0.0
0.0 0.04379078796956189 -0.03809298109048321 0.03683474064202119 0.0012582404484620274 -0.008951303402251455 0.0 0.0
0.0 0.05129361899357655 -0.044487317786910716 0.043077011577252466 0.0014103062096582596 -0.01208865986777625 0.0 0.0
0.0 0.05357496130856661 -0.04616883292862317 0.044563460086003814 0.001605372842619366 -0.016755233634786183 0.0 0.0
0.0 0.04529707082667117 -0.03827804201730994 0.03649534840725785 0.001782693610052086 -0.02120308688035065 0.0 0.0
0.0 0.04529707082667138 -0.03827804201730797 0.0364953484072558 0.0017826936100521634 0.021203086880366213 0.0 0.0
0.0 0.05357496130856217 -0.04616883292861751 0.04456346008599834 0.0016053728426191536 0.016755233634805314 0.0 0.0
0.0 0.051293618993568005 -0.044487317786902125 0.04307701157724423 0.0014103062096578872 0.012088659867790934 0.0 0.0
0.0 0.04379078796955001 -0.038092981090472405 0.036834740642010914 0.0012582404484614742 0.008951303402255393 0.0 0.0
0.0 0.034860243314742315 -0.030386321504265314 0.029238662012970054 0.0011476594912952546 0.007062976892124909 0.0 0.0
0.0 0.026734892595170087 -0.023202266571507923 0.022137657924340446 0.0010646086471674753 0.0056372996046052835 0.0 0.0
0.0 0.019790226453353356 -0.017230195556258973 0.016241758073405832 0.0009884374828531396 0.004400382366298467 0.0 0.0
0.0 0.014357446330766145 -0.01256980827241371 0.011662781392731466 0.0009070268796822416 0.003400095847595635 0.0 0.0
0.0 0.010315962732775803 -0.009080353632086202 0.008262329112237676 0.0008180245198485258 0.0026481778899011994 0.0 0.0
0.0 0.00731894775240456 -0.006494764943297369 0.00577994166567776 0.000714823277619607 0.0020809730024036292 0.0 0.0
0.0 0.005066169799517087 -0.004531905163682284 0.0039360104131408655 0.0005958947505414184 0.0016063122169009123 0.0 0.0
0.0 0.003329892184648218 -0.002985147929516769 0.002525342945733408 0.0004598049837833606 0.0011833526745429557 0.0 0.0
0.0 0.0019349989166248449 -0.0017407270437028684 0.0014311885111894828 0.00030953853251338564 0.0007904924812209635 0.0 0.0
0.0 0.0008916290818775239 -0.000749071279851553 0.0005981202813503031 0.00015095099850124952 0.00040304514311401834 0.0 0.0
0.0 0.000291598017060154 -0.00012324792781794538 9.709831775252965e-05 2.614961006541566e-05 8.490684634327399e-05 0.0 0.0
0.0 3.369080833310087e-05 4.165826819649456e-06 -3.2038508237838544e-06 -9.6197599586567e-07 -4.051031053074306e-06 0.0 0.0
0.0 2.6184053179973456e-06 2.3936820079710257e-07 -1.9194239059710804e-07 -4.742581019997605e-08 -3.6423945021951685e-07 0.0 0.0
0.0 0.0 0.0 0.0 0.0 0.0 0.0 0.0
0.0 0.0 0.0 0.0 0.0 0.0 0.0 0.0
0.0 0.0 0.0 0.0 0.0 0.0 0.0 0.0
0.0 0.0 0.0 0.0 0.0 0.0 0.0 0.0
0.0 0.0 0.0 0.0 0.0 0.0 0.0 0.0
0.0 0.0 0.0 0.0 0.0 0.0 0.0 0.0
0.0 2.505328812516062e-06 2.531774601983128e-07 -2.0049509598987184e-07 -5.2682364208456706e-08 2.703398458413968e-07 0.0 0.0
0.0 6.691083263454408e-05 6.630350572667933e-06 -5.08997246270728e-06 -1.540378109960575e-06 4.758478534360845e-06 0.0 0.0
0.0 0.0005243721979709412 -0.00032337540099665953 0.0002557256096235483 6.764979137311117e-05 -0.000148931707139408 0.0 0.0
0.0 0.0013094480062929566 -0.0011968612285515514 0.000967955748377363 0.00022890548017418818 -0.0004203855935958789 0.0 0.0
0.0 0.002592607008655822 -0.0023601399461322674 0.001970201452493572 0.00038993849363869507 -0.0007096455574519898 0.0 0.0
0.0 0.004221596535702833 -0.003813192318954246 0.0032735269902594796 0.0005396653286947658 -0.0010147206877992928 0.0 0.0
0.0 0.006267770893977647 -0.00562248364792187 0.004950382149015801 0.000672101498906069 -0.0013536602090803301 0.0 0.0
0.0 0.008935018703527853 -0.007932084690666514 0.0071450406610815125 0.0007870440295849999 -0.0017417192124636956 0.0 0.0
0.0 0.012421479247033377 -0.010987960671594528 0.010100288560336304 0.0008876721112582218 -0.002204629320230119 0.0 0.0
0.0 0.017246765174568565 -0.015094637505309344 0.01411699763829714 0.000977639867012204 -0.002817229449215322 0.0 0.0
0.0 0.02339562675516738 -0.020531829893463138 0.019469055314821734 0.0010627745786413972 -0.0036840139080658767 0.0 0.0
0.0 0.031244075201703515 -0.027386793767675388 0.026240495885066748 0.001146297882608629 -0.0047432802440935985 0.0 0.0
0.0 0.0405653856502459 -0.03547725461213997 0.034242125543657714 0.00123512906848226 -0.005735853331465619 0.0 0.0
0.0 0.050514614520040614 -0.0441263331431672 0.04278410857513499 0.0013422245680321946 -0.00666628109503874 0.0 0.0
0.0 0.05913413836565909 -0.05157567972863572 0.05007237982778834 0.0015032999008473891 -0.008947498567277844 0.0 0.0
0.0 0.06233392957193349 -0.054073369402702895 0.05234640294222335 0.0017269664604795524 -0.014787860949917563 0.0 0.0
0.0 0.05381403164314494 -0.045595550050163774 0.04364577949972427 0.0019497705504394976 -0.023881891722551864 0.0 0.0
0.0 0.05381403164314577 -0.04559555005016263 0.043645779499723314 0.001949770550439287 0.023881891722565766 0.0 0.0
0.0 0.06233392957192809 -0.054073369402696844 0.05234640294221764 0.0017269664604792105 0.014787860949934922 0.0 0.0
0.0 0.059134138365647446 -0.05157567972862505 0.050072379827777735 0.001503299900847318 0.008947498567291066 0.0 0.0
0.0 0.05051461452002617 -0.04412633314315448 0.04278410857512249 0.001342224568031964 0.0066662810950422965 0.0 0.0
0.0 0.04056538565023139 -0.03547725461212695 0.034242125543645516 0.0012351290684814386 0.005735853331466846 0.0 0.0
0.0 0.031244075201689342 -0.02738679376766268 0.026240495885055 0.0011462978826076707 0.004743280244092938 0.0 0.0
0.0 0.0233956267551529 -0.020531829893450197 0.01946905531480964 0.0010627745786405533 0.003684013908064664 0.0 0.0
0.0 0.017246765174553178 -0.015094637505295529 0.01411699763828415 0.0009776398670113804 0.0028172294492134022 0.0 0.0
0.0 0.012421479247015576 -0.010987960671578593 0.010100288560321222 0.0008876721112573684 0.0022046293202283534 0.0 0.0
0.0 0.008935018703511707 -0.007932084690651603 0.007145040661067458 0.0007870440295841437 0.0017417192124596832 0.0 0.0
0.0 0.006267770893963853 -0.005622483647908991 0.004950382149003705 0.0006721014989052869 0.0013536602090763361 0.0 0.0
0.0 0.004221596535691688 -0.0038131923189436874 0.003273526990249852 0.0005396653286938345 0.0010147206877969424 0.0 0.0
0.0 0.0025926070086475595 -0.0023601399461241433 0.0019702014524865122 0.0003899384936376311 0.0007096455574499381 0.0 0.0
0.0 0.0013094480062865867 -0.0011968612285454317 0.0009679557483722355 0.0002289054801731965 0.00042038559359393936 0.0 0.0
0.0 0.0005243721979670694 -0.00032337540099391135 0.00025572560962135735 6.76497913725542e-05 0.0001489317071381315 0.0 0.0
0.0 6.69108326332531e-05 6.630350572567212e-06 -5.089972462629854e-06 -1.5403781099372839e-06 -4.758478534300662e-06 0.0 0.0
0.0 2.505328812069941e-06 2.5317746015063734e-07 -2.0049509595215908e-07 -5.268236419847302e-08 -2.7033984579089287e-07 0.0 0.0
0.0 0.0 0.0 0.0 0.0 0.0 0.0 0.0
0.0 0.0 0.0 0.0 0.0 0.0 0.0 0.0
0.0 0.0 0.0 0.0 0.0 0.0 0.0 0.0
0.0 0.0 0.0 0.0 0.0 0.0 0.0 0.0
0.0 0.0 0.0 0.0 0.0 0.0 0.0 0.0
0.0 0.0 0.0 0.0 0.0 0.0 0.0 0.0
0.0 6.045045006529798e-06 7.320323744054415e-07 -5.709111846573905e-07 -1.6112118974801157e-07 4.873856828000473e-07 0.0 0.0
0.0 0.00015814185291781655 -2.02267894664975e-05 1.6508491941093345e-05 3.7182975254043187e-06 -9.260884822863497e-06 0.0 0.0
0.0 0.0006971314485699538 -0.0006482214146165696 0.000515239275124309 0.0001329821394922608 -0.0001648766660790217 0.0 0.0
0.0 0.0018075004584156822 -0.001667309420396761 0.0013673206654986978 0.00029998875489806284 -0.00033325654690338205 0.0 0.0
0.0 0.0032742314434949134 -0.0029983802496039314 0.0025365157506451004 0.00046186449895883056 -0.0005177296724631699 0.0 0.0
0.0 0.005144281759902115 -0.004660103540091384 0.004052358928358065 0.0006077446117333178 -0.0007223817895258828 0.0 0.0
0.0 0.007506835248142857 -0.0067379775112991255 0.006001601717634774 0.0007363757936643511 -0.0009580945758989631 0.0 0.0
0.0 0.01057718856162276 -0.009405365417834276 0.008556133339635666 0.0008492320781986107 -0.001224869506914639 0.0 0.0
0.0 0.014721890985484033 -0.012940947327341249 0.011991287353923023 0.0009496599734182269 -0.0015418543537299172 0.0 0.0
0.0 0.02003620808183166 -0.01768430798368313 0.01664225230123199 0.0010420556824511451 -0.0019954600211585785 0.0 0.0
0.0 0.027105959365058562 -0.023886456269405717 0.02275386169075991 0.0011325945786458081 -0.0026195872126169037 0.0 0.0
0.0 0.035975108707279504 -0.03159016112428955 0.030363928865470607 0.0012262322588189449 -0.0033472301554840185 0.0 0.0
0.0 0.04621195217319431 -0.04049035965516007 0.039166389546531996 0.001323970108628069 -0.003961540803522899 0.0 0.0
0.0 0.056912603493651 -0.049805960634091186 0.04837660394773748 0.0014293566863536953 -0.004108098164371763 0.0 0.0
0.0 0.06645252868398453 -0.05809356727664627 0.056540489812327246 0.0015530774643190402 -0.004596407262654653 0.0 0.0
0.0 0.07124630618684388 -0.06203983661023817 0.06020891765957488 0.001830918950663275 -0.010561108114642864 0.0 0.0
0.0 0.06328959871874637 -0.053796064578479796 0.051650235871211696 0.0021458287072680833 -0.025861601750365674 0.0 0.0
0.0 0.06328959871874483 -0.05379606457847731 0.051650235871209225 0.0021458287072680816 0.025861601750375142 0.0 0.0
0.0 0.07124630618683686 -0.0620398366102313 0.060208917659568414 0.001830918950662883 0.010561108114655868 0.0 0.0
0.0 0.06645252868397332 -0.058093567276635845 0.056540489812317865 0.0015530774643179412 0.004596407262665428 0.0 0.0
0.0 0.05691260349363513 -0.0498059606340769 0.048376603947724174 0.001429356686352724 0.004108098164373988 0.0 0.0
0.0 0.04621195217317841 -0.0404903596551458 0.03916638954651873 0.0013239701086270584 0.0039615408035243126 0.0 0.0
0.0 0.03597510870726286 -0.03159016112427459 0.030363928865456878 0.0012262322588177182 0.003347230155483973 0.0 0.0
0.0 0.027105959365041087 -0.023886456269390025 0.022753861690745402 0.0011325945786446155 0.002619587212616726 0.0 0.0
0.0 0.02003620808181321 -0.017684307983666665 0.016642252301216576 0.0010420556824500932 0.0019954600211565827 0.0 0.0
0.0 0.014721890985465287 -0.012940947327324297 0.011991287353907051 0.0009496599734172464 0.00154185435372921 0.0 0.0
0.0 0.010577188561604837 -0.009405365417818275 0.008556133339620462 0.0008492320781978101 0.0012248695069121097 0.0 0.0
0.0 0.007506835248128082 -0.006737977511285524 0.006001601717622117 0.0007363757936634054 0.0009580945758962277 0.0 0.0
0.0 0.005144281759890417 -0.004660103540080019 0.004052358928347702 0.0006077446117323167 0.0007223817895245725 0.0 0.0
0.0 0.003274231443484807 -0.0029983802495941727 0.002536515750636385 0.0004618644989577871 0.0005177296724616317 0.0 0.0
0.0 0.0018075004584082064 -0.0016673094203893022 0.0013673206654922923 0.0002999887548970096 0.0003332565469018814 0.0 0.0
0.0 0.0006971314485654827 -0.0006482214146122019 0.0005152392751207797 0.00013298213949142237 0.0001648766660779415 0.0 0.0
0.0 0.0001581418529158417 -2.022678946575005e-05 1.650849194049601e-05 3.718297525253889e-06 9.260884822570467e-06 0.0 0.0
0.0 6.0450450061054435e-06 7.320323743512644e-07 -5.70911184615012e-07 -1.611211897362353e-07 -4.873856827632469e-07 0.0 0.0
0.0 0.0 0.0 0.0 0.0 0.0 0.0 0.0
0.0 0.0 0.0 0.0 0.0 0.0 0.0 0.0
0.0 0.0 0.0 0.0 0.0 0.0 0.0 0.0
0.0 0.0 0.0 0.0 0.0 0.0 0.0 0.0
0.0 0.0 0.0 0.0 0.0 0.0 0.0 0.0
0.0 0.0 0.0 0.0 0.0 0.0 0.0 0.0
0.0 1.3220964968997595e-05 1.7909406834675475e-06 -1.377065411829079e-06 -4.1387527163845865e-07 4.582581898773336e-07 0.0 0.0
0.0 0.0003569496340991607 -0.00012135414441654179 9.607861958724476e-05 2.5275524829297447e-05 -2.0527736820729683e-05 0.0 0.0
0.0 0.0010514931824747895 -0.000978585165815717 0.0007844779985952744 0.00019410716722044257 -8.600959106936135e-05 0.0 0.0
0.0 0.002325037132876659 -0.0021547833134351693 0.0017898021773982092 0.0003649811360369598 -0.0001520738258469548 0.0 0.0
0.0 0.003991081804452232 -0.0036463039741423914 0.0031222727153243307 0.00052403125881806 -0.00022358821586917962 0.0 0.0
0.0 0.006111884633264547 -0.0055197563229860995 0.004853570482853089 0.0006661858401330094 -0.0003111830474966864 0.0 0.0
0.0 0.008818156833168155 -0.007871661066209169 0.007079517145875389 0.0007921439203337783 -0.00041823487321287085 0.0 0.0
0.0 0.012371626639507534 -0.0109079743850906 0.010004623666813615 0.0009033507182769834 -0.0005328791370371217 0.0 0.0
0.0 0.01685649397241186 -0.014950952218780712 0.013945469016492802 0.001005483202287909 -0.0006892706944490444 0.0 0.0
0.0 0.02294745490929585 -0.020319622295589927 0.01921757736064345 0.0011020449349464713 -0.0009009754370020303 0.0 0.0
0.0 0.030927055146133902 -0.027262978049089406 0.02606365500230305 0.0011993230467863551 -0.0011670339298028875 0.0 0.0
0.0 0.04073436362696907 -0.03578797000533145 0.034485356931788114 0.0013026130735433235 -0.001469515038283953 0.0 0.0
0.0 0.05187874488067122 -0.045447327453649704 0.044035208008551784 0.0014121194450979295 -0.0016645847964968288 0.0 0.0
0.0 0.0631942780134071 -0.05525619957121031 0.05373366177450826 0.0015225377967020646 -0.0015006546617264082 0.0 0.0
0.0 0.07298252419399381 -0.06377455772748587 0.062147512097297485 0.0016270456301883647 -0.0007243764482474501 0.0 0.0
0.0 0.07925958415304198 -0.06915291124817356 0.06741127111183388 0.0017416401363396549 -0.002472005082550073 0.0 0.0
0.0 0.0746356605514026 -0.06397466840423156 0.06148926295859533 0.0024854054456362276 -0.024211616633241125 0.0 0.0
0.0 0.07463566055139967 -0.06397466840422855 0.06148926295859239 0.0024854054456361404 0.024211616633245208 0.0 0.0
0.0 0.07925958415303186 -0.06915291124816464 0.06741127111182536 0.0017416401363393038 0.0024720050825561574 0.0 0.0
0.0 0.07298252419397948 -0.06377455772747316 0.06214751209728546 0.0016270456301876954 0.0007243764482521885 0.0 0.0
0.0 0.06319427801339039 -0.05525619957119537 0.05373366177449423 0.0015225377967011539 0.0015006546617257995 0.0 0.0
0.0 0.051878744880651535 -0.04544732745363239 0.04403520800853498 0.0014121194450974024 0.001664584796497066 0.0 0.0
0.0 0.040734363626948364 -0.03578797000531326 0.03448535693177053 0.001302613073542724 0.001469515038283538 0.0 0.0
0.0 0.030927055146113748 -0.027262978049071563 0.026063655002286072 0.0011993230467854956 0.0011670339298031998 0.0 0.0
0.0 0.022947454909273943 -0.020319622295570695 0.01921757736062489 0.001102044934945801 0.0009009754370007476 0.0 0.0
0.0 0.016856493972389842 -0.0149509522187612 0.013945469016474105 0.001005483202287091 0.0006892706944492768 0.0 0.0
0.0 0.012371626639487413 -0.010907974385072492 0.010004623666796386 0.0009033507182761045 0.000532879137035939 0.0 0.0
0.0 0.008818156833150917 -0.007871661066193879 0.00707951714586089 0.0007921439203329901 0.0004182348732118962 0.0 0.0
0.0 0.006111884633250936 -0.005519756322973404 0.004853570482841289 0.0006661858401321123 0.0003111830474962639 0.0 0.0
0.0 0.0039910818044416084 -0.0036463039741320372 0.0031222727153150556 0.0005240312588169821 0.00022358821586850145 0.0 0.0
0.0 0.002325037132868476 -0.0021547833134269814 0.001789802177391177 0.00036498113603580416 0.000152073825846443 0.0 0.0
0.0 0.001051493182469718 -0.0009785851658103755 0.0007844779985908705 0.0001941071672195052 8.600959106890837e-05 0.0 0.0
0.0 0.00035694963409595626 -0.00012135414441465325 9.607861958575267e-05 2.5275524828900904e-05 2.0527736820496776e-05 0.0 0.0
0.0 1.3220964968241572e-05 1.7909406833667015e-06 -1.377065411752633e-06 -4.1387527161402535e-07 -4.582581898590264e-07 0.0 0.0
0.0 0.0 0.0 0.0 0.0 0.0 0.0 0.0
0.0 0.0 0.0 0.0 0.0 0.0 0.0 0.0
0.0 0.0 0.0 0.0 0.0 0.0 0.0 0.0