# vtk DataFile Version 3.0
Some data
ASCII
DATASET UNSTRUCTURED_GRID
POINTS 861 float
0.0 0.0 0.0
0.4 0.0 0.0
0.8 0.0 0.0
1.2000000000000002 0.0 0.0
1.6 0.0 0.0
2.0 0.0 0.0
2.4000000000000004 0.0 0.0
2.8000000000000003 0.0 0.0
3.2 0.0 0.0
3.6 0.0 0.0
4.0 0.0 0.0
4.4 0.0 0.0
4.800000000000001 0.0 0.0
5.2 0.0 0.0
5.6000000000000005 0.0 0.0
6.0 0.0 0.0
6.4 0.0 0.0
6.800000000000001 0.0 0.0
7.2 0.0 0.0
7.6000000000000005 0.0 0.0
8.0 0.0 0.0
8.4 0.0 0.0
8.8 0.0 0.0
9.200000000000001 0.0 0.0
9.600000000000001 0.0 0.0
10.0 0.0 0.0
10.4 0.0 0.0
10.8 0.0 0.0
11.200000000000001 0.0 0.0
11.600000000000001 0.0 0.0
12.0 0.0 0.0
12.4 0.0 0.0
12.8 0.0 0.0
13.200000000000001 0.0 0.0
13.600000000000001 0.0 0.0
14.0 0.0 0.0
14.4 0.0 0.0
14.8 0.0 0.0
15.200000000000001 0.0 0.0
15.600000000000001 0.0 0.0
16.0 0.0 0.0
0.0 0.1 0.0
0.4 0.1 0.0
0.8 0.1 0.0
1.2000000000000002 0.1 0.0
1.6 0.1 0.0
2.0 0.1 0.0
2.4000000000000004 0.1 0.0
2.8000000000000003 0.1 0.0
3.2 0.1 0.0
3.6 0.1 0.0
4.0 0.1 0.0
4.4 0.1 0.0
4.800000000000001 0.1 0.0
5.2 0.1 0.0
5.6000000000000005 0.1 0.0
6.0 0.1 0.0
6.4 0.1 0.0
6.800000000000001 0.1 0.0
7.2 0.1 0.0
7.6000000000000005 0.1 0.0
8.0 0.1 0.0
8.4 0.1 0.0
8.8 0.1 0.0
9.200000000000001 0.1 0.0
9.600000000000001 0.1 0.0
10.0 0.1 0.0
10.4 0.1 0.0
10.8 0.1 0.0
11.200000000000001 0.1 0.0
11.600000000000001 0.1 0.0
12.0 0.1 0.0
12.4 0.1 0.0
12.8 0.1 0.0
13.200000000000001 0.1 0.0
13.600000000000001 0.1 0.0
14.0 0.1 0.0
14.4 0.1 0.0
14.8 0.1 0.0
15.200000000000001 0.1 0.0
15.600000000000001 0.1 0.0
16.0 0.1 0.0
0.0 0.2 0.0
0.4 0.2 0.0
0.8 0.2 0.0
1.2000000000000002 0.2 0.0
1.6 0.2 0.0
2.0 0.2 0.0
2.4000000000000004 0.2 0.0
2.8000000000000003 0.2 0.0
3.2 0.2 0.0
3.6 0.2 0.0
4.0 0.2 0.0
4.4 0.2 0.0
4.800000000000001 0.2 0.0
5.2 0.2 0.0
5.6000000000000005 0.2 0.0
6.0 0.2 0.0
6.4 0.2 0.0
6.800000000000001 0.2 0.0
7.2 0.2 0.0
7.6000000000000005 0.2 0.0
8.0 0.2 0.0
8.4 0.2 0.0
8.8 0.2 0.0
9.200000000000001 0.2 0.0
9.600000000000001 0.2 0.0
10.0 0.2 0.0
10.4 0.2 0.0
10.8 0.2 0.0
11.200000000000001 0.2 0.0
11.600000000000001 0.2 0.0
12.0 0.2 0.0
12.4 0.2 0.0
12.8 0.2 0.0
13.200000000000001 0.2 0.0
13.600000000000001 0.2 0.0
14.0 0.2 0.0
14.4 0.2 0.0
14.8 0.2 0.0
15.200000000000001 0.2 0.0
15.600000000000001 0.2 0.0
16.0 0.2 0.0
0.0 0.30000000000000004 0.0
0.4 0.30000000000000004 0.0
0.8 0.30000000000000004 0.0
1.2000000000000002 0.30000000000000004 0.0
1.6 0.30000000000000004 0.0
2.0 0.30000000000000004 0.0
2.4000000000000004 0.30000000000000004 0.0
2.8000000000000003 0.30000000000000004 0.0
3.2 0.30000000000000004 0.0
3.6 0.30000000000000004 0.0
4.0 0.30000000000000004 0.0
4.4 0.30000000000000004 0.0
4.800000000000001 0.30000000000000004 0.0
5.2 0.30000000000000004 0.0
5.6000000000000005 0.30000000000000004 0.0
6.0 0.30000000000000004 0.0
6.4 0.30000000000000004 0.0
6.800000000000001 0.30000000000000004 0.0
7.2 0.30000000000000004 0.0
7.6000000000000005 0.30000000000000004 0.0
8.0 0.30000000000000004 0.0
8.4 0.30000000000000004 0.0
8.8 0.30000000000000004 0.0
9.200000000000001 0.30000000000000004 0.0
9.600000000000001 0.30000000000000004 0.0
10.0 0.30000000000000004 0.0
10.4 0.30000000000000004 0.0
10.8 0.30000000000000004 0.0
11.200000000000001 0.30000000000000004 0.0
11.600000000000001 0.30000000000000004 0.0
12.0 0.30000000000000004 0.0
12.4 0.30000000000000004 0.0
12.8 0.30000000000000004 0.0
13.200000000000001 0.30000000000000004 0.0
13.600000000000001 0.30000000000000004 0.0
14.0 0.30000000000000004 0.0
14.4 0.30000000000000004 0.0
14.8 0.30000000000000004 0.0
15.200000000000001 0.30000000000000004 0.0
15.600000000000001 0.30000000000000004 0.0
16.0 0.30000000000000004 0.0
0.0 0.4 0.0
0.4 0.4 0.0
0.8 0.4 0.0
1.2000000000000002 0.4 0.0
1.6 0.4 0.0
2.0 0.4 0.0
2.4000000000000004 0.4 0.0
2.8000000000000003 0.4 0.0
3.2 0.4 0.0
3.6 0.4 0.0
4.0 0.4 0.0
4.4 0.4 0.0
4.800000000000001 0.4 0.0
5.2 0.4 0.0
5.6000000000000005 0.4 0.0
6.0 0.4 0.0
6.4 0.4 0.0
6.800000000000001 0.4 0.0
7.2 0.4 0.0
7.6000000000000005 0.4 0.0
8.0 0.4 0.0
8.4 0.4 0.0
8.8 0.4 0.0
9.200000000000001 0.4 0.0
9.600000000000001 0.4 0.0
10.0 0.4 0.0
10.4 0.4 0.0
10.8 0.4 0.0
11.200000000000001 0.4 0.0
11.600000000000001 0.4 0.0
12.0 0.4 0.0
12.4 0.4 0.0
12.8 0.4 0.0
13.200000000000001 0.4 0.0
13.600000000000001 0.4 0.0
14.0 0.4 0.0
14.4 0.4 0.0
14.8 0.4 0.0
15.200000000000001 0.4 0.0
15.600000000000001 0.4 0.0
16.0 0.4 0.0
0.0 0.5 0.0
0.4 0.5 0.0
0.8 0.5 0.0
1.2000000000000002 0.5 0.0
1.6 0.5 0.0
2.0 0.5 0.0
2.4000000000000004 0.5 0.0
2.8000000000000003 0.5 0.0
3.2 0.5 0.0
3.6 0.5 0.0
4.0 0.5 0.0
4.4 0.5 0.0
4.800000000000001 0.5 0.0
5.2 0.5 0.0
5.6000000000000005 0.5 0.0
6.0 0.5 0.0
6.4 0.5 0.0
6.800000000000001 0.5 0.0
7.2 0.5 0.0
7.6000000000000005 0.5 0.0
8.0 0.5 0.0
8.4 0.5 0.0
8.8 0.5 0.0
9.200000000000001 0.5 0.0
9.600000000000001 0.5 0.0
10.0 0.5 0.0
10.4 0.5 0.0
10.8 0.5 0.0
11.200000000000001 0.5 0.0
11.600000000000001 0.5 0.0
12.0 0.5 0.0
12.4 0.5 0.0
12.8 0.5 0.0
13.200000000000001 0.5 0.0
13.600000000000001 0.5 0.0
14.0 0.5 0.0
14.4 0.5 0.0
14.8 0.5 0.0
15.200000000000001 0.5 0.0
15.600000000000001 0.5 0.0
16.0 0.5 0.0
0.0 0.6000000000000001 0.0
0.4 0.6000000000000001 0.0
0.8 0.6000000000000001 0.0
1.2000000000000002 0.6000000000000001 0.0
1.6 0.6000000000000001 0.0
2.0 0.6000000000000001 0.0
2.4000000000000004 0.6000000000000001 0.0
2.8000000000000003 0.6000000000000001 0.0
3.2 0.6000000000000001 0.0
3.6 0.6000000000000001 0.0
4.0 0.6000000000000001 0.0
4.4 0.6000000000000001 0.0
4.800000000000001 0.6000000000000001 0.0
5.2 0.6000000000000001 0.0
5.6000000000000005 0.6000000000000001 0.0
6.0 0.6000000000000001 0.0
6.4 0.6000000000000001 0.0
6.800000000000001 0.6000000000000001 0.0
7.2 0.6000000000000001 0.0
7.6000000000000005 0.6000000000000001 0.0
8.0 0.6000000000000001 0.0
8.4 0.6000000000000001 0.0
8.8 0.6000000000000001 0.0
9.200000000000001 0.6000000000000001 0.0
9.600000000000001 0.6000000000000001 0.0
10.0 0.6000000000000001 0.0
10.4 0.6000000000000001 0.0
10.8 0.6000000000000001 0.0
11.200000000000001 0.6000000000000001 0.0
11.600000000000001 0.6000000000000001 0.0
12.0 0.6000000000000001 0.0
12.4 0.6000000000000001 0.0
12.8 0.6000000000000001 0.0
13.200000000000001 0.6000000000000001 0.0
13.600000000000001 0.6000000000000001 0.0
14.0 0.6000000000000001 0.0
14.4 0.6000000000000001 0.0
14.8 0.6000000000000001 0.0
15.200000000000001 0.6000000000000001 0.0
15.600000000000001 0.6000000000000001 0.0
16.0 0.6000000000000001 0.0
0.0 0.7000000000000001 0.0
0.4 0.7000000000000001 0.0
0.8 0.7000000000000001 0.0
1.2000000000000002 0.7000000000000001 0.0
1.6 0.7000000000000001 0.0
2.0 0.7000000000000001 0.0
2.4000000000000004 0.7000000000000001 0.0
2.8000000000000003 0.7000000000000001 0.0
3.2 0.7000000000000001 0.0
3.6 0.7000000000000001 0.0
4.0 0.7000000000000001 0.0
4.4 0.7000000000000001 0.0
4.800000000000001 0.7000000000000001 0.0
5.2 0.7000000000000001 0.0
5.6000000000000005 0.7000000000000001 0.0
6.0 0.7000000000000001 0.0
6.4 0.7000000000000001 0.0
6.800000000000001 0.7000000000000001 0.0
7.2 0.7000000000000001 0.0
7.6000000000000005 0.7000000000000001 0.0
8.0 0.7000000000000001 0.0
8.4 0.7000000000000001 0.0
8.8 0.7000000000000001 0.0
9.200000000000001 0.7000000000000001 0.0
9.600000000000001 0.7000000000000001 0.0
10.0 0.7000000000000001 0.0
10.4 0.7000000000000001 0.0
10.8 0.7000000000000001 0.0
11.200000000000001 0.7000000000000001 0.0
11.600000000000001 0.7000000000000001 0.0
12.0 0.7000000000000001 0.0
12.4 0.7000000000000001 0.0
12.8 0.7000000000000001 0.0
13.200000000000001 0.7000000000000001 0.0
13.600000000000001 0.7000000000000001 0.0
14.0 0.7000000000000001 0.0
14.4 0.7000000000000001 0.0
14.8 0.7000000000000001 0.0
15.200000000000001 0.7000000000000001 0.0
15.600000000000001 0.7000000000000001 0.0
16.0 0.7000000000000001 0.0
0.0 0.8 0.0
0.4 0.8 0.0
0.8 0.8 0.0
1.2000000000000002 0.8 0.0
1.6 0.8 0.0
2.0 0.8 0.0
2.4000000000000004 0.8 0.0
2.8000000000000003 0.8 0.0
3.2 0.8 0.0
3.6 0.8 0.0
4.0 0.8 0.0
4.4 0.8 0.0
4.800000000000001 0.8 0.0
5.2 0.8 0.0
5.6000000000000005 0.8 0.0
6.0 0.8 0.0
6.4 0.8 0.0
6.800000000000001 0.8 0.0
7.2 0.8 0.0
7.6000000000000005 0.8 0.0
8.0 0.8 0.0
8.4 0.8 0.0
8.8 0.8 0.0
9.200000000000001 0.8 0.0
9.600000000000001 0.8 0.0
10.0 0.8 0.0
10.4 0.8 0.0
10.8 0.8 0.0
11.200000000000001 0.8 0.0
11.600000000000001 0.8 0.0
12.0 0.8 0.0
12.4 0.8 0.0
12.8 0.8 0.0
13.200000000000001 0.8 0.0
13.600000000000001 0.8 0.0
14.0 0.8 0.0
14.4 0.8 0.0
14.8 0.8 0.0
15.200000000000001 0.8 0.0
15.600000000000001 0.8 0.0
16.0 0.8 0.0
0.0 0.9 0.0
0.4 0.9 0.0
0.8 0.9 0.0
1.2000000000000002 0.9 0.0
1.6 0.9 0.0
2.0 0.9 0.0
2.4000000000000004 0.9 0.0
2.8000000000000003 0.9 0.0
3.2 0.9 0.0
3.6 0.9 0.0
4.0 0.9 0.0
4.4 0.9 0.0
4.800000000000001 0.9 0.0
5.2 0.9 0.0
5.6000000000000005 0.9 0.0
6.0 0.9 0.0
6.4 0.9 0.0
6.800000000000001 0.9 0.0
7.2 0.9 0.0
7.6000000000000005 0.9 0.0
8.0 0.9 0.0
8.4 0.9 0.0
8.8 0.9 0.0
9.200000000000001 0.9 0.0
9.600000000000001 0.9 0.0
10.0 0.9 0.0
10.4 0.9 0.0
10.8 0.9 0.0
11.200000000000001 0.9 0.0
11.600000000000001 0.9 0.0
12.0 0.9 0.0
12.4 0.9 0.0
12.8 0.9 0.0
13.200000000000001 0.9 0.0
13.600000000000001 0.9 0.0
14.0 0.9 0.0
14.4 0.9 0.0
14.8 0.9 0.0
15.200000000000001 0.9 0.0
15.600000000000001 0.9 0.0
16.0 0.9 0.0
0.0 1.0 0.0
0.4 1.0 0.0
0.8 1.0 0.0
1.2000000000000002 1.0 0.0
1.6 1.0 0.0
2.0 1.0 0.0
2.4000000000000004 1.0 0.0
2.8000000000000003 1.0 0.0
3.2 1.0 0.0
3.6 1.0 0.0
4.0 1.0 0.0
4.4 1.0 0.0
4.800000000000001 1.0 0.0
5.2 1.0 0.0
5.6000000000000005 1.0 0.0
6.0 1.0 0.0
6.4 1.0 0.0
6.800000000000001 1.0 0.0
7.2 1.0 0.0
7.6000000000000005 1.0 0.0
8.0 1.0 0.0
8.4 1.0 0.0
8.8 1.0 0.0
9.200000000000001 1.0 0.0
9.600000000000001 1.0 0.0
10.0 1.0 0.0
10.4 1.0 0.0
10.8 1.0 0.0
11.200000000000001 1.0 0.0
11.600000000000001 1.0 0.0
12.0 1.0 0.0
12.4 1.0 0.0
12.8 1.0 0.0
13.200000000000001 1.0 0.0
13.600000000000001 1.0 0.0
14.0 1.0 0.0
14.4 1.0 0.0
14.8 1.0 0.0
15.200000000000001 1.0 0.0
15.600000000000001 1.0 0.0
16.0 1.0 0.0
0.0 1.1 0.0
0.4 1.1 0.0
0.8 1.1 0.0
1.2000000000000002 1.1 0.0
1.6 1.1 0.0
2.0 1.1 0.0
2.4000000000000004 1.1 0.0
2.8000000000000003 1.1 0.0
3.2 1.1 0.0
3.6 1.1 0.0
4.0 1.1 0.0
4.4 1.1 0.0
4.800000000000001 1.1 0.0
5.2 1.1 0.0
5.6000000000000005 1.1 0.0
6.0 1.1 0.0
6.4 1.1 0.0
6.800000000000001 1.1 0.0
7.2 1.1 0.0
7.6000000000000005 1.1 0.0
8.0 1.1 0.0
8.4 1.1 0.0
8.8 1.1 0.0
9.200000000000001 1.1 0.0
9.600000000000001 1.1 0.0
10.0 1.1 0.0
10.4 1.1 0.0
10.8 1.1 0.0
11.200000000000001 1.1 0.0
11.600000000000001 1.1 0.0
12.0 1.1 0.0
12.4 1.1 0.0
12.8 1.1 0.0
13.200000000000001 1.1 0.0
13.600000000000001 1.1 0.0
14.0 1.1 0.0
14.4 1.1 0.0
14.8 1.1 0.0
15.200000000000001 1.1 0.0
15.600000000000001 1.1 0.0
16.0 1.1 0.0
0.0 1.2000000000000002 0.0
0.4 1.2000000000000002 0.0
0.8 1.2000000000000002 0.0
1.2000000000000002 1.2000000000000002 0.0
1.6 1.2000000000000002 0.0
2.0 1.2000000000000002 0.0
2.4000000000000004 1.2000000000000002 0.0
2.8000000000000003 1.2000000000000002 0.0
3.2 1.2000000000000002 0.0
3.6 1.2000000000000002 0.0
4.0 1.2000000000000002 0.0
4.4 1.2000000000000002 0.0
4.800000000000001 1.2000000000000002 0.0
5.2 1.2000000000000002 0.0
5.6000000000000005 1.2000000000000002 0.0
6.0 1.2000000000000002 0.0
6.4 1.2000000000000002 0.0
6.800000000000001 1.2000000000000002 0.0
7.2 1.2000000000000002 0.0
7.6000000000000005 1.2000000000000002 0.0
8.0 1.2000000000000002 0.0
8.4 1.2000000000000002 0.0
8.8 1.2000000000000002 0.0
9.200000000000001 1.2000000000000002 0.0
9.600000000000001 1.2000000000000002 0.0
10.0 1.2000000000000002 0.0
10.4 1.2000000000000002 0.0
10.8 1.2000000000000002 0.0
11.200000000000001 1.2000000000000002 0.0
11.600000000000001 1.2000000000000002 0.0
12.0 1.2000000000000002 0.0
12.4 1.2000000000000002 0.0
12.8 1.2000000000000002 0.0
13.200000000000001 1.2000000000000002 0.0
13.600000000000001 1.2000000000000002 0.0
14.0 1.2000000000000002 0.0
14.4 1.2000000000000002 0.0
14.8 1.2000000000000002 0.0
15.200000000000001 1.2000000000000002 0.0
15.600000000000001 1.2000000000000002 0.0
16.0 1.2000000000000002 0.0
0.0 1.3 0.0
0.4 1.3 0.0
0.8 1.3 0.0
1.2000000000000002 1.3 0.0
1.6 1.3 0.0
2.0 1.3 0.0
2.4000000000000004 1.3 0.0
2.8000000000000003 1.3 0.0
3.2 1.3 0.0
3.6 1.3 0.0
4.0 1.3 0.0
4.4 1.3 0.0
4.800000000000001 1.3 0.0
5.2 1.3 0.0
5.6000000000000005 1.3 0.0
6.0 1.3 0.0
6.4 1.3 0.0
6.800000000000001 1.3 0.0
7.2 1.3 0.0
7.6000000000000005 1.3 0.0
8.0 1.3 0.0
8.4 1.3 0.0
8.8 1.3 0.0
9.200000000000001 1.3 0.0
9.600000000000001 1.3 0.0
10.0 1.3 0.0
10.4 1.3 0.0
10.8 1.3 0.0
11.200000000000001 1.3 0.0
11.600000000000001 1.3 0.0
12.0 1.3 0.0
12.4 1.3 0.0
12.8 1.3 0.0
13.200000000000001 1.3 0.0
13.600000000000001 1.3 0.0
14.0 1.3 0.0
14.4 1.3 0.0
14.8 1.3 0.0
15.200000000000001 1.3 0.0
15.600000000000001 1.3 0.0
16.0 1.3 0.0
0.0 1.4000000000000001 0.0
0.4 1.4000000000000001 0.0
0.8 1.4000000000000001 0.0
1.2000000000000002 1.4000000000000001 0.0
1.6 1.4000000000000001 0.0
2.0 1.4000000000000001 0.0
2.4000000000000004 1.4000000000000001 0.0
2.8000000000000003 1.4000000000000001 0.0
3.2 1.4000000000000001 0.0
3.6 1.4000000000000001 0.0
4.0 1.4000000000000001 0.0
4.4 1.4000000000000001 0.0
4.800000000000001 1.4000000000000001 0.0
5.2 1.4000000000000001 0.0
5.6000000000000005 1.4000000000000001 0.0
6.0 1.4000000000000001 0.0
6.4 1.4000000000000001 0.0
6.800000000000001 1.4000000000000001 0.0
7.2 1.4000000000000001 0.0
7.6000000000000005 1.4000000000000001 0.0
8.0 1.4000000000000001 0.0
8.4 1.4000000000000001 0.0
8.8 1.4000000000000001 0.0
9.200000000000001 1.4000000000000001 0.0
9.600000000000001 1.4000000000000001 0.0
10.0 1.4000000000000001 0.0
10.4 1.4000000000000001 0.0
10.8 1.4000000000000001 0.0
11.200000000000001 1.4000000000000001 0.0
11.600000000000001 1.4000000000000001 0.0
12.0 1.4000000000000001 0.0
12.4 1.4000000000000001 0.0
12.8 1.4000000000000001 0.0
13.200000000000001 1.4000000000000001 0.0
13.600000000000001 1.4000000000000001 0.0
14.0 1.4000000000000001 0.0
14.4 1.4000000000000001 0.0
14.8 1.4000000000000001 0.0
15.200000000000001 1.4000000000000001 0.0
15.600000000000001 1.4000000000000001 0.0
16.0 1.4000000000000001 0.0
0.0 1.5 0.0
0.4 1.5 0.0
0.8 1.5 0.0
1.2000000000000002 1.5 0.0
1.6 1.5 0.0
2.0 1.5 0.0
2.4000000000000004 1.5 0.0
2.8000000000000003 1.5 0.0
3.2 1.5 0.0
3.6 1.5 0.0
4.0 1.5 0.0
4.4 1.5 0.0
4.800000000000001 1.5 0.0
5.2 1.5 0.0
5.6000000000000005 1.5 0.0
6.0 1.5 0.0
6.4 1.5 0.0
6.800000000000001 1.5 0.0
7.2 1.5 0.0
7.6000000000000005 1.5 0.0
8.0 1.5 0.0
8.4 1.5 0.0
8.8 1.5 0.0
9.200000000000001 1.5 0.0
9.600000000000001 1.5 0.0
10.0 1.5 0.0
10.4 1.5 0.0
10.8 1.5 0.0
11.200000000000001 1.5 0.0
11.600000000000001 1.5 0.0
12.0 1.5 0.0
12.4 1.5 0.0
12.8 1.5 0.0
13.200000000000001 1.5 0.0
13.600000000000001 1.5 0.0
14.0 1.5 0.0
14.4 1.5 0.0
14.8 1.5 0.0
15.200000000000001 1.5 0.0
15.600000000000001 1.5 0.0
16.0 1.5 0.0
0.0 1.6 0.0
0.4 1.6 0.0
0.8 1.6 0.0
1.2000000000000002 1.6 0.0
1.6 1.6 0.0
2.0 1.6 0.0
2.4000000000000004 1.6 0.0
2.8000000000000003 1.6 0.0
3.2 1.6 0.0
3.6 1.6 0.0
4.0 1.6 0.0
4.4 1.6 0.0
4.800000000000001 1.6 0.0
5.2 1.6 0.0
5.6000000000000005 1.6 0.0
6.0 1.6 0.0
6.4 1.6 0.0
6.800000000000001 1.6 0.0
7.2 1.6 0.0
7.6000000000000005 1.6 0.0
8.0 1.6 0.0
8.4 1.6 0.0
8.8 1.6 0.0
9.200000000000001 1.6 0.0
9.600000000000001 1.6 0.0
10.0 1.6 0.0
10.4 1.6 0.0
10.8 1.6 0.0
11.200000000000001 1.6 0.0
11.600000000000001 1.6 0.0
12.0 1.6 0.0
12.4 1.6 0.0
12.8 1.6 0.0
13.200000000000001 1.6 0.0
13.600000000000001 1.6 0.0
14.0 1.6 0.0
14.4 1.6 0.0
14.8 1.6 0.0
15.200000000000001 1.6 0.0
15.600000000000001 1.6 0.0
16.0 1.6 0.0
0.0 1.7000000000000002 0.0
0.4 1.7000000000000002 0.0
0.8 1.7000000000000002 0.0
1.2000000000000002 1.7000000000000002 0.0
1.6 1.7000000000000002 0.0
2.0 1.7000000000000002 0.0
2.4000000000000004 1.7000000000000002 0.0
2.8000000000000003 1.7000000000000002 0.0
3.2 1.7000000000000002 0.0
3.6 1.7000000000000002 0.0
4.0 1.7000000000000002 0.0
4.4 1.7000000000000002 0.0
4.800000000000001 1.7000000000000002 0.0
5.2 1.7000000000000002 0.0
5.6000000000000005 1.7000000000000002 0.0
6.0 1.7000000000000002 0.0
6.4 1.7000000000000002 0.0
6.800000000000001 1.7000000000000002 0.0
7.2 1.7000000000000002 0.0
7.6000000000000005 1.7000000000000002 0.0
8.0 1.7000000000000002 0.0
8.4 1.7000000000000002 0.0
8.8 1.7000000000000002 0.0
9.200000000000001 1.7000000000000002 0.0
9.600000000000001 1.7000000000000002 0.0
10.0 1.7000000000000002 0.0
10.4 1.7000000000000002 0.0
10.8 1.7000000000000002 0.0
11.200000000000001 1.7000000000000002 0.0
11.600000000000001 1.7000000000000002 0.0
12.0 1.7000000000000002 0.0
12.4 1.7000000000000002 0.0
12.8 1.7000000000000002 0.0
13.200000000000001 1.7000000000000002 0.0
13.600000000000001 1.7000000000000002 0.0
14.0 1.7000000000000002 0.0
14.4 1.7000000000000002 0.0
14.8 1.7000000000000002 0.0
15.200000000000001 1.7000000000000002 0.0
15.600000000000001 1.7000000000000002 0.0
16.0 1.7000000000000002 0.0
0.0 1.8 0.0
0.4 1.8 0.0
0.8 1.8 0.0
1.2000000000000002 1.8 0.0
1.6 1.8 0.0
2.0 1.8 0.0
2.4000000000000004 1.8 0.0
2.8000000000000003 1.8 0.0
3.2 1.8 0.0
3.6 1.8 0.0
4.0 1.8 0.0
4.4 1.8 0.0
4.800000000000001 1.8 0.0
5.2 1.8 0.0
5.6000000000000005 1.8 0.0
6.0 1.8 0.0
6.4 1.8 0.0
6.800000000000001 1.8 0.0
7.2 1.8 0.0
7.6000000000000005 1.8 0.0
8.0 1.8 0.0
8.4 1.8 0.0
8.8 1.8 0.0
9.200000000000001 1.8 0.0
9.600000000000001 1.8 0.0
10.0 1.8 0.0
10.4 1.8 0.0
10.8 1.8 0.0
11.200000000000001 1.8 0.0
11.600000000000001 1.8 0.0
12.0 1.8 0.0
12.4 1.8 0.0
12.8 1.8 0.0
13.200000000000001 1.8 0.0
13.600000000000001 1.8 0.0
14.0 1.8 0.0
14.4 1.8 0.0
14.8 1.8 0.0
15.200000000000001 1.8 0.0
15.600000000000001 1.8 0.0
16.0 1.8 0.0
0.0 1.9000000000000001 0.0
0.4 1.9000000000000001 0.0
0.8 1.9000000000000001 0.0
1.2000000000000002 1.9000000000000001 0.0
1.6 1.9000000000000001 0.0
2.0 1.9000000000000001 0.0
2.4000000000000004 1.9000000000000001 0.0
2.8000000000000003 1.9000000000000001 0.0
3.2 1.9000000000000001 0.0
3.6 1.9000000000000001 0.0
4.0 1.9000000000000001 0.0
4.4 1.9000000000000001 0.0
4.800000000000001 1.9000000000000001 0.0
5.2 1.9000000000000001 0.0
5.6000000000000005 1.9000000000000001 0.0
6.0 1.9000000000000001 0.0
6.4 1.9000000000000001 0.0
6.800000000000001 1.9000000000000001 0.0
7.2 1.9000000000000001 0.0
7.6000000000000005 1.9000000000000001 0.0
8.0 1.9000000000000001 0.0
8.4 1.9000000000000001 0.0
8.8 1.9000000000000001 0.0
9.200000000000001 1.9000000000000001 0.0
9.600000000000001 1.9000000000000001 0.0
10.0 1.9000000000000001 0.0
10.4 1.9000000000000001 0.0
10.8 1.9000000000000001 0.0
11.200000000000001 1.9000000000000001 0.0
11.600000000000001 1.9000000000000001 0.0
12.0 1.9000000000000001 0.0
12.4 1.9000000000000001 0.0
12.8 1.9000000000000001 0.0
13.200000000000001 1.9000000000000001 0.0
13.600000000000001 1.9000000000000001 0.0
14.0 1.9000000000000001 0.0
14.4 1.9000000000000001 0.0
14.8 1.9000000000000001 0.0
15.200000000000001 1.9000000000000001 0.0
15.600000000000001 1.9000000000000001 0.0
16.0 1.9000000000000001 0.0
0.0 2.0 0.0
0.4 2.0 0.0
0.8 2.0 0.0
1.2000000000000002 2.0 0.0
1.6 2.0 0.0
2.0 2.0 0.0
2.4000000000000004 2.0 0.0
2.8000000000000003 2.0 0.0
3.2 2.0 0.0
3.6 2.0 0.0
4.0 2.0 0.0
4.4 2.0 0.0
4.800000000000001 2.0 0.0
5.2 2.0 0.0
5.6000000000000005 2.0 0.0
6.0 2.0 0.0
6.4 2.0 0.0
6.800000000000001 2.0 0.0
7.2 2.0 0.0
7.6000000000000005 2.0 0.0
8.0 2.0 0.0
8.4 2.0 0.0
8.8 2.0 0.0
9.200000000000001 2.0 0.0
9.600000000000001 2.0 0.0
10.0 2.0 0.0
10.4 2.0 0.0
10.8 2.0 0.0
11.200000000000001 2.0 0.0
11.600000000000001 2.0 0.0
12.0 2.0 0.0
12.4 2.0 0.0
12.8 2.0 0.0
13.200000000000001 2.0 0.0
13.600000000000001 2.0 0.0
14.0 2.0 0.0
14.4 2.0 0.0
14.8 2.0 0.0
15.200000000000001 2.0 0.0
15.600000000000001 2.0 0.0
16.0 2.0 0.0
CELLS 800 4000
4 0 1 42 41
4 1 2 43 42
4 2 3 44 43
4 3 4 45 44
4 4 5 46 45
4 5 6 47 46
4 6 7 48 47
4 7 8 49 48
4 8 9 50 49
4 9 10 51 50
4 10 11 52 51
4 11 12 53 52
4 12 13 54 53
4 13 14 55 54
4 14 15 56 55
4 15 16 57 56
4 16 17 58 57
4 17 18 59 58
4 18 19 60 59
4 19 20 61 60
4 20 21 62 61
4 21 22 63 62
4 22 23 64 63
4 23 24 65 64
4 24 25 66 65
4 25 26 67 66
4 26 27 68 67
4 27 28 69 68
4 28 29 70 69
4 29 30 71 70
4 30 31 72 71
4 31 32 73 72
4 32 33 74 73
4 33 34 75 74
4 34 35 76 75
4 35 36 77 76
4 36 37 78 77
4 37 38 79 78
4 38 39 80 79
4 39 40 81 80
4 41 42 83 82
4 42 43 84 83
4 43 44 85 84
4 44 45 86 85
4 45 46 87 86
4 46 47 88 87
4 47 48 89 88
4 48 49 90 89
4 49 50 91 90
4 50 51 92 91
4 51 52 93 92
4 52 53 94 93
4 53 54 95 94
4 54 55 96 95
4 55 56 97 96
4 56 57 98 97
4 57 58 99 98
4 58 59 100 99
4 59 60 101 100
4 60 61 102 101
4 61 62 103 102
4 62 63 104 103
4 63 64 105 104
4 64 65 106 105
4 65 66 107 106
4 66 67 108 107
4 67 68 109 108
4 68 69 110 109
4 69 70 111 110
4 70 71 112 111
4 71 72 113 112
4 72 73 114 113
4 73 74 115 114
4 74 75 116 115
4 75 76 117 116
4 76 77 118 117
4 77 78 119 118
4 78 79 120 119
4 79 80 121 120
4 80 81 122 121
4 82 83 124 123
4 83 84 125 124
4 84 85 126 125
4 85 86 127 126
4 86 87 128 127
4 87 88 129 128
4 88 89 130 129
4 89 90 131 130
4 90 91 132 131
4 91 92 133 132
4 92 93 134 133
4 93 94 135 134
4 94 95 136 135
4 95 96 137 136
4 96 97 138 137
4 97 98 139 138
4 98 99 140 139
4 99 100 141 140
4 100 101 142 141
4 101 102 143 142
4 102 103 144 143
4 103 104 145 144
4 104 105 146 145
4 105 106 147 146
4 106 107 148 147
4 107 108 149 148
4 108 109 150 149
4 109 110 151 150
4 110 111 152 151
4 111 112 153 152
4 112 113 154 153
4 113 114 155 154
4 114 115 156 155
4 115 116 157 156
4 116 117 158 157
4 117 118 159 158
4 118 119 160 159
4 119 120 161 160
4 120 121 162 161
4 121 122 163 162
4 123 124 165 164
4 124 125 166 165
4 125 126 167 166
4 126 127 168 167
4 127 128 169 168
4 128 129 170 169
4 129 130 171 170
4 130 131 172 171
4 131 132 173 172
4 132 133 174 173
4 133 134 175 174
4 134 135 176 175
4 135 136 177 176
4 136 137 178 177
4 137 138 179 178
4 138 139 180 179
4 139 140 181 180
4 140 141 182 181
4 141 142 183 182
4 142 143 184 183
4 143 144 185 184
4 144 145 186 185
4 145 146 187 186
4 146 147 188 187
4 147 148 189 188
4 148 149 190 189
4 149 150 191 190
4 150 151 192 191
4 151 152 193 192
4 152 153 194 193
4 153 154 195 194
4 154 155 196 195
4 155 156 197 196
4 156 157 198 197
4 157 158 199 198
4 158 159 200 199
4 159 160 201 200
4 160 161 202 201
4 161 162 203 202
4 162 163 204 203
4 164 165 206 205
4 165 166 207 206
4 166 167 208 207
4 167 168 209 208
4 168 169 210 209
4 169 170 211 210
4 170 171 212 211
4 171 172 213 212
4 172 173 214 213
4 173 174 215 214
4 174 175 216 215
4 175 176 217 216
4 176 177 218 217
4 177 178 219 218
4 178 179 220 219
4 179 180 221 220
4 180 181 222 221
4 181 182 223 222
4 182 183 224 223
4 183 184 225 224
4 184 185 226 225
4 185 186 227 226
4 186 187 228 227
4 187 188 229 228
4 188 189 230 229
4 189 190 231 230
4 190 191 232 231
4 191 192 233 232
4 192 193 234 233
4 193 194 235 234
4 194 195 236 235
4 195 196 237 236
4 196 197 238 237
4 197 198 239 238
4 198 199 240 239
4 199 200 241 240
4 200 201 242 241
4 201 202 243 242
4 202 203 244 243
4 203 204 245 244
4 205 206 247 246
4 206 207 248 247
4 207 208 249 248
4 208 209 250 249
4 209 210 251 250
4 210 211 252 251
4 211 212 253 252
4 212 213 254 253
4 213 214 255 254
4 214 215 256 255
4 215 216 257 256
4 216 217 258 257
4 217 218 259 258
4 218 219 260 259
4 219 220 261 260
4 220 221 262 261
4 221 222 263 262
4 222 223 264 263
4 223 224 265 264
4 224 225 266 265
4 225 226 267 266
4 226 227 268 267
4 227 228 269 268
4 228 229 270 269
4 229 230 271 270
4 230 231 272 271
4 231 232 273 272
4 232 233 274 273
4 233 234 275 274
4 234 235 276 275
4 235 236 277 276
4 236 237 278 277
4 237 238 279 278
4 238 239 280 279
4 239 240 281 280
4 240 241 282 281
4 241 242 283 282
4 242 243 284 283
4 243 244 285 284
4 244 245 286 285
4 246 247 288 287
4 247 248 289 288
4 248 249 290 289
4 249 250 291 290
4 250 251 292 291
4 251 252 293 292
4 252 253 294 293
4 253 254 295 294
4 254 255 296 295
4 255 256 297 296
4 256 257 298 297
4 257 258 299 298
4 258 259 300 299
4 259 260 301 300
4 260 261 302 301
4 261 262 303 302
4 262 263 304 303
4 263 264 305 304
4 264 265 306 305
4 265 266 307 306
4 266 267 308 307
4 267 268 309 308
4 268 269 310 309
4 269 270 311 310
4 270 271 312 311
4 271 272 313 312
4 272 273 314 313
4 273 274 315 314
4 274 275 316 315
4 275 276 317 316
4 276 277 318 317
4 277 278 319 318
4 278 279 320 319
4 279 280 321 320
4 280 281 322 321
4 281 282 323 322
4 282 283 324 323
4 283 284 325 324
4 284 285 326 325
4 285 286 327 326
4 287 288 329 328
4 288 289 330 329
4 289 290 331 330
4 290 291 332 331
4 291 292 333 332
4 292 293 334 333
4 293 294 335 334
4 294 295 336 335
4 295 296 337 336
4 296 297 338 337
4 297 298 339 338
4 298 299 340 339
4 299 300 341 340
4 300 301 342 341
4 301 302 343 342
4 302 303 344 343
4 303 304 345 344
4 304 305 346 345
4 305 306 347 346
4 306 307 348 347
4 307 308 349 348
4 308 309 350 349
4 309 310 351 350
4 310 311 352 351
4 311 312 353 352
4 312 313 354 353
4 313 314 355 354
4 314 315 356 355
4 315 316 357 356
4 316 317 358 357
4 317 318 359 358
4 318 319 360 359
4 319 320 361 360
4 320 321 362 361
4 321 322 363 362
4 322 323 364 363
4 323 324 365 364
4 324 325 366 365
4 325 326 367 366
4 326 327 368 367
4 328 329 370 369
4 329 330 371 370
4 330 331 372 371
4 331 332 373 372
4 332 333 374 373
4 333 334 375 374
4 334 335 376 375
4 335 336 377 376
4 336 337 378 377
4 337 338 379 378
4 338 339 380 379
4 339 340 381 380
4 340 341 382 381
4 341 342 383 382
4 342 343 384 383
4 343 344 385 384
4 344 345 386 385
4 345 346 387 386
4 346 347 388 387
4 347 348 389 388
4 348 349 390 389
4 349 350 391 390
4 350 351 392 391
4 351 352 393 392
4 352 353 394 393
4 353 354 395 394
4 354 355 396 395
4 355 356 397 396
4 356 357 398 397
4 357 358 399 398
4 358 359 400 399
4 359 360 401 400
4 360 361 402 401
4 361 362 403 402
4 362 363 404 403
4 363 364 405 404
4 364 365 406 405
4 365 366 407 406
4 366 367 408 407
4 367 368 409 408
4 369 370 411 410
4 370 371 412 411
4 371 372 413 412
4 372 373 414 413
4 373 374 415 414
4 374 375 416 415
4 375 376 417 416
4 376 377 418 417
4 377 378 419 418
4 378 379 420 419
4 379 380 421 420
4 380 381 422 421
4 381 382 423 422
4 382 383 424 423
4 383 384 425 424
4 384 385 426 425
4 385 386 427 426
4 386 387 428 427
4 387 388 429 428
4 388 389 430 429
4 389 390 431 430
4 390 391 432 431
4 391 392 433 432
4 392 393 434 433
4 393 394 435 434
4 394 395 436 435
4 395 396 437 436
4 396 397 438 437
4 397 398 439 438
4 398 399 440 439
4 399 400 441 440
4 400 401 442 441
4 401 402 443 442
4 402 403 444 443
4 403 404 445 444
4 404 405 446 445
4 405 406 447 446
4 406 407 448 447
4 407 408 449 448
4 408 409 450 449
4 410 411 452 451
4 411 412 453 452
4 412 413 454 453
4 413 414 455 454
4 414 415 456 455
4 415 416 457 456
4 416 417 458 457
4 417 418 459 458
4 418 419 460 459
4 419 420 461 460
4 420 421 462 461
4 421 422 463 462
4 422 423 464 463
4 423 424 465 464
4 424 425 466 465
4 425 426 467 466
4 426 427 468 467
4 427 428 469 468
4 428 429 470 469
4 429 430 471 470
4 430 431 472 471
4 431 432 473 472
4 432 433 474 473
4 433 434 475 474
4 434 435 476 475
4 435 436 477 476
4 436 437 478 477
4 437 438 479 478
4 438 439 480 479
4 439 440 481 480
4 440 441 482 481
4 441 442 483 482
4 442 443 484 483
4 443 444 485 484
4 444 445 486 485
4 445 446 487 486
4 446 447 488 487
4 447 448 489 488
4 448 449 490 489
4 449 450 491 490
4 451 452 493 492
4 452 453 494 493
4 453 454 495 494
4 454 455 496 495
4 455 456 497 496
4 456 457 498 497
4 457 458 499 498
4 458 459 500 499
4 459 460 501 500
4 460 461 502 501
4 461 462 503 502
4 462 463 504 503
4 463 464 505 504
4 464 465 506 505
4 465 466 507 506
4 466 467 508 507
4 467 468 509 508
4 468 469 510 509
4 469 470 511 510
4 470 471 512 511
4 471 472 513 512
4 472 473 514 513
4 473 474 515 514
4 474 475 516 515
4 475 476 517 516
4 476 477 518 517
4 477 478 519 518
4 478 479 520 519
4 479 480 521 520
4 480 481 522 521
4 481 482 523 522
4 482 483 524 523
4 483 484 525 524
4 484 485 526 525
4 485 486 527 526
4 486 487 528 527
4 487 488 529 528
4 488 489 530 529
4 489 490 531 530
4 490 491 532 531
4 492 493 534 533
4 493 494 535 534
4 494 495 536 535
4 495 496 537 536
4 496 497 538 537
4 497 498 539 538
4 498 499 540 539
4 499 500 541 540
4 500 501 542 541
4 501 502 543 542
4 502 503 544 543
4 503 504 545 544
4 504 505 546 545
4 505 506 547 546
4 506 507 548 547
4 507 508 549 548
4 508 509 550 549
4 509 510 551 550
4 510 511 552 551
4 511 512 553 552
4 512 513 554 553
4 513 514 555 554
4 514 515 556 555
4 515 516 557 556
4 516 517 558 557
4 517 518 559 558
4 518 519 560 559
4 519 520 561 560
4 520 521 562 561
4 521 522 563 562
4 522 523 564 563
4 523 524 565 564
4 524 525 566 565
4 525 526 567 566
4 526 527 568 567
4 527 528 569 568
4 528 529 570 569
4 529 530 571 570
4 530 531 572 571
4 531 532 573 572
4 533 534 575 574
4 534 535 576 575
4 535 536 577 576
4 536 537 578 577
4 537 538 579 578
4 538 539 580 579
4 539 540 581 580
4 540 541 582 581
4 541 542 583 582
4 542 543 584 583
4 543 544 585 584
4 544 545 586 585
4 545 546 587 586
4 546 547 588 587
4 547 548 589 588
4 548 549 590 589
4 549 550 591 590
4 550 551 592 591
4 551 552 593 592
4 552 553 594 593
4 553 554 595 594
4 554 555 596 595
4 555 556 597 596
4 556 557 598 597
4 557 558 599 598
4 558 559 600 599
4 559 560 601 600
4 560 561 602 601
4 561 562 603 602
4 562 563 604 603
4 563 564 605 604
4 564 565 606 605
4 565 566 607 606
4 566 567 608 607
4 567 568 609 608
4 568 569 610 609
4 569 570 611 610
4 570 571 612 611
4 571 572 613 612
4 572 573 614 613
4 574 575 616 615
4 575 576 617 616
4 576 577 618 617
4 577 578 619 618
4 578 579 620 619
4 579 580 621 620
4 580 581 622 621
4 581 582 623 622
4 582 583 624 623
4 583 584 625 624
4 584 585 626 625
4 585 586 627 626
4 586 587 628 627
4 587 588 629 628
4 588 589 630 629
4 589 590 631 630
4 590 591 632 631
4 591 592 633 632
4 592 593 634 633
4 593 594 635 634
4 594 595 636 635
4 595 596 637 636
4 596 597 638 637
4 597 598 639 638
4 598 599 640 639
4 599 600 641 640
4 600 601 642 641
4 601 602 643 642
4 602 603 644 643
4 603 604 645 644
4 604 605 646 645
4 605 606 647 646
4 606 607 648 647
4 607 608 649 648
4 608 609 650 649
4 609 610 651 650
4 610 611 652 651
4 611 612 653 652
4 612 613 654 653
4 613 614 655 654
4 615 616 657 656
4 616 617 658 657
4 617 618 659 658
4 618 619 660 659
4 619 620 661 660
4 620 621 662 661
4 621 622 663 662
4 622 623 664 663
4 623 624 665 664
4 624 625 666 665
4 625 626 667 666
4 626 627 668 667
4 627 628 669 668
4 628 629 670 669
4 629 630 671 670
4 630 631 672 671
4 631 632 673 672
4 632 633 674 673
4 633 634 675 674
4 634 635 676 675
4 635 636 677 676
4 636 637 678 677
4 637 638 679 678
4 638 639 680 679
4 639 640 681 680
4 640 641 682 681
4 641 642 683 682
4 642 643 684 683
4 643 644 685 684
4 644 645 686 685
4 645 646 687 686
4 646 647 688 687
4 647 648 689 688
4 648 649 690 689
4 649 650 691 690
4 650 651 692 691
4 651 652 693 692
4 652 653 694 693
4 653 654 695 694
4 654 655 696 695
4 656 657 698 697
4 657 658 699 698
4 658 659 700 699
4 659 660 701 700
4 660 661 702 701
4 661 662 703 702
4 662 663 704 703
4 663 664 705 704
4 664 665 706 705
4 665 666 707 706
4 666 667 708 707
4 667 668 709 708
4 668 669 710 709
4 669 670 711 710
4 670 671 712 711
4 671 672 713 712
4 672 673 714 713
4 673 674 715 714
4 674 675 716 715
4 675 676 717 716
4 676 677 718 717
4 677 678 719 718
4 678 679 720 719
4 679 680 721 720
4 680 681 722 721
4 681 682 723 722
4 682 683 724 723
4 683 684 725 724
4 684 685 726 725
4 685 686 727 726
4 686 687 728 727
4 687 688 729 728
4 688 689 730 729
4 689 690 731 730
4 690 691 732 731
4 691 692 733 732
4 692 693 734 733
4 693 694 735 734
4 694 695 736 735
4 695 696 737 736
4 697 698 739 738
4 698 699 740 739
4 699 700 741 740
4 700 701 742 741
4 701 702 743 742
4 702 703 744 743
4 703 704 745 744
4 704 705 746 745
4 705 706 747 746
4 706 707 748 747
4 707 708 749 748
4 708 709 750 749
4 709 710 751 750
4 710 711 752 751
4 711 712 753 752
4 712 713 754 753
4 713 714 755 754
4 714 715 756 755
4 715 716 757 756
4 716 717 758 757
4 717 718 759 758
4 718 719 760 759
4 719 720 761 760
4 720 721 762 761
4 721 722 763 762
4 722 723 764 763
4 723 724 765 764
4 724 725 766 765
4 725 726 767 766
4 726 727 768 767
4 727 728 769 768
4 728 729 770 769
4 729 730 771 770
4 730 731 772 771
4 731 732 773 772
4 732 733 774 773
4 733 734 775 774
4 734 735 776 775
4 735 736 777 776
4 736 737 778 777
4 738 739 780 779
4 739 740 781 780
4 740 741 782 781
4 741 742 783 782
4 742 743 784 783
4 743 744 785 784
4 744 745 786 785
4 745 746 787 786
4 746 747 788 787
4 747 748 789 788
4 748 749 790 789
4 749 750 791 790
4 750 751 792 791
4 751 752 793 792
4 752 753 794 793
4 753 754 795 794
4 754 755 796 795
4 755 756 797 796
4 756 757 798 797
4 757 758 799 798
4 758 759 800 799
4 759 760 801 800
4 760 761 802 801
4 761 762 803 802
4 762 763 804 803
4 763 764 805 804
4 764 765 806 805
4 765 766 807 806
4 766 767 808 807
4 767 768 809 808
4 768 769 810 809
4 769 770 811 810
4 770 771 812 811
4 771 772 813 812
4 772 773 814 813
4 773 774 815 814
4 774 775 816 815
4 775 776 817 816
4 776 777 818 817
4 777 778 819 818
4 779 780 821 820
4 780 781 822 821
4 781 782 823 822
4 782 783 824 823
4 783 784 825 824
4 784 785 826 825
4 785 786 827 826
4 786 787 828 827
4 787 788 829 828
4 788 789 830 829
4 789 790 831 830
4 790 791 832 831
4 791 792 833 832
4 792 793 834 833
4 793 794 835 834
4 794 795 836 835
4 795 796 837 836
4 796 797 838 837
4 797 798 839 838
4 798 799 840 839
4 799 800 841 840
4 800 801 842 841
4 801 802 843 842
4 802 803 844 843
4 803 804 845 844
4 804 805 846 845
4 805 806 847 846
4 806 807 848 847
4 807 808 849 848
4 808 809 850 849
4 809 810 851 850
4 810 811 852 851
4 811 812 853 852
4 812 813 854 853
4 813 814 855 854
4 814 815 856 855
4 815 816 857 856
4 816 817 858 857
4 817 818 859 858
4 818 819 860 859
CELL_TYPES 800
9
9
9
9
9
9
9
9
9
9
9
9
9
9
9
9
9
9
9
9
9
9
9
9
9
9
9
9
9
9
9
9
9
9
9
9
9
9
9
9
9
9
9
9
9
9
9
9
9
9
9
9
9
9
9
9
9
9
9
9
9
9
9
9
9
9
9
9
9
9
9
9
9
9
9
9
9
9
9
9
9
9
9
9
9
9
9
9
9
9
9
9
9
9
9
9
9
9
9
9
9
9
9
9
9
9
9
9
9
9
9
9
9
9
9
9
9
9
9
9
9
9
9
9
9
9
9
9
9
9
9
9
9
9
9
9
9
9
9
9
9
9
9
9
9
9
9
9
9
9
9
9
9
9
9
9
9
9
9
9
9
9
9
9
9
9
9
9
9
9
9
9
9
9
9
9
9
9
9
9
9
9
9
9
9
9
9
9
9
9
9
9
9
9
9
9
9
9
9
9
9
9
9
9
9
9
9
9
9
9
9
9
9
9
9
9
9
9
9
9
9
9
9
9
9
9
9
9
9
9
9
9
9
9
9
9
9
9
9
9
9
9
9
9
9
9
9
9
9
9
9
9
9
9
9
9
9
9
9
9
9
9
9
9
9
9
9
9
9
9
9
9
9
9
9
9
9
9
9
9
9
9
9
9
9
9
9
9
9
9
9
9
9
9
9
9
9
9
9
9
9
9
9
9
9
9
9
9
9
9
9
9
9
9
9
9
9
9
9
9
9
9
9
9
9
9
9
9
9
9
9
9
9
9
9
9
9
9
9
9
9
9
9
9
9
9
9
9
9
9
9
9
9
9
9
9
9
9
9
9
9
9
9
9
9
9
9
9
9
9
9
9
9
9
9
9
9
9
9
9
9
9
9
9
9
9
9
9
9
9
9
9
9
9
9
9
9
9
9
9
9
9
9
9
9
9
9
9
9
9
9
9
9
9
9
9
9
9
9
9
9
9
9
9
9
9
9
9
9
9
9
9
9
9
9
9
9
9
9
9
9
9
9
9
9
9
9
9
9
9
9
9
9
9
9
9
9
9
9
9
9
9
9
9
9
9
9
9
9
9
9
9
9
9
9
9
9
9
9
9
9
9
9
9
9
9
9
9
9
9
9
9
9
9
9
9
9
9
9
9
9
9
9
9
9
9
9
9
9
9
9
9
9
9
9
9
9
9
9
9
9
9
9
9
9
9
9
9
9
9
9
9
9
9
9
9
9
9
9
9
9
9
9
9
9
9
9
9
9
9
9
9
9
9
9
9
9
9
9
9
9
9
9
9
9
9
9
9
9
9
9
9
9
9
9
9
9
9
9
9
9
9
9
9
9
9
9
9
9
9
9
9
9
9
9
9
9
9
9
9
9
9
9
9
9
9
9
9
9
9
9
9
9
9
9
9
9
9
9
9
9
9
9
9
9
9
9
9
9
9
9
9
9
9
9
9
9
9
9
9
9
9
9
9
9
9
9
9
9
9
9
9
9
9
9
9
9
9
9
9
9
9
9
9
9
9
9
9
9
9
9
9
9
9
9
9
9
9
9
9
9
9
9
9
9
9
9
9
9
9
9
9
9
9
9
9
9
9
9
9
9
9
9
9
9
9
9
9
9
9
9
9
9
9
9
9
9
9
9
9
9
9
9
9
9
9
9
9
9
9
9
9
9
9
9
9
9
9
9
9
9
9
9
9
9
9
9
9
9
9
9
9
9
9
9
9
9
9
9
9
9
9
9
9
9
9
9
9
9
9
9
9
9
9
9
9
9
9
9
9
9
9
9
9
9
9
9
9
9
9
9
9
9
9
9
9
9
9
9
9
POINT_DATA 861
SCALARS Disp float 2
LOOKUP_TABLE default
0.0 0.0
0.002704696198515131 -0.08370897562199799
0.0035770146969467224 -0.16230840900006357
0.004258648538509446 -0.2404915595800099
0.005052438401093502 -0.3183866028911623
0.006052802762649067 -0.39588754053205094
0.0074342013476072725 -0.47283779363997086
0.009293430585883814 -0.5490845223839563
0.011737532350926994 -0.6244301811656392
0.014900947489167898 -0.6986123528001578
0.01896617887312232 -0.7712765256621793
0.024217453806530995 -0.8419330277288641
0.031087612999476995 -0.9099167890525139
0.040138583016651984 -0.9743871275327973
0.05203708229471169 -1.0343430828751394
0.06746248229962479 -1.0886358386511898
0.0869569050317329 -1.1359742695704544
0.11074109513428783 -1.1749444402041056
0.13855653465746892 -1.2041188791854807
0.16961174635822776 -1.2222831889118595
0.20260282664116896 -1.2286640899088053
0.23559390692410967 -1.2222831889118395
0.2666491186248663 -1.2041188791854391
0.2944645581480429 -1.1749444402040452
0.3182487482505923 -1.1359742695703792
0.3377431709826953 -1.0886358386511052
0.3531685709876033 -1.0343430828750462
0.3650670702656573 -0.9743871275326982
0.374118040282826 -0.9099167890524114
0.3809881994757657 -0.8419330277287616
0.38623947440916856 -0.7712765256620789
0.390304705793118 -0.698612352800062
0.3934681209313548 -0.624430181165549
0.3959122226963946 -0.5490845223838738
0.3977714519346682 -0.4728377936398961
0.3991528505196241 -0.39588754053198655
0.4001532148811786 -0.3183866028911083
0.4009470047437622 -0.24049155957996746
0.4016286385853247 -0.16230840900003216
0.4025009570837558 -0.08370897562197872
0.4052056532822698 0.0
0.020905396018713194 -0.001318150045487197
0.022651690002391117 -0.08372878627828279
0.02313567817445577 -0.1623866037729902
0.023763240269368466 -0.2405629400669198
0.02447466243280683 -0.31847405506320453
0.02536048240027422 -0.3960217616214244
0.026584013631548505 -0.47305192420996484
0.028242966068958687 -0.5493977581993251
0.03043149289518356 -0.6248696432914965
0.03326323034592048 -0.6992120286192897
0.036896824335700885 -0.7720875116447153
0.04157766834918965 -0.8430377539689323
0.04768428423430317 -0.911435723471083
0.055741002967137174 -0.9764712296469208
0.06636921962729468 -1.0371617406227358
0.08020900677044719 -1.0923458423941548
0.09776898135223616 -1.1406771714044317
0.11925891649810452 -1.180644027865695
0.14445930602691706 -1.210694884376177
0.17265871932760674 -1.2294891374494672
0.20260282664116655 -1.23611247985272
0.23254693395472584 -1.229489137449447
0.2607463472554134 -1.2106948843761347
0.28594673678422217 -1.1806440278656334
0.3074366719300861 -1.1406771714043555
0.3249966465118707 -1.0923458423940693
0.3388364336550185 -1.0371617406226419
0.3494646503151709 -0.9764712296468205
0.35752136904799936 -0.9114357234709792
0.3636279849331073 -0.8430377539688284
0.3683088289465908 -0.772087511644614
0.37194242293636665 -0.6992120286191928
0.3747741603870999 -0.6248696432914056
0.3769626872133216 -0.5493977581992417
0.37862163965072915 -0.47305192420988956
0.3798451708820016 -0.3960217616213597
0.38073099084946804 -0.3184740550631504
0.38144241301290605 -0.2405629400668773
0.3820699751078185 -0.16238660377295872
0.38255396327988334 -0.08372878627826355
0.3843002572635592 -0.0013181500454857134
0.04123524400112167 -0.0023480174790204145
0.042457433684940586 -0.08372498249829137
0.04273094722744563 -0.16243294793816276
0.04324117351453241 -0.24063057800431087
0.04387717384261673 -0.31855018492890297
0.044660527563513755 -0.39613199553347184
0.04571975901977672 -0.47323101660843553
0.047176323363484374 -0.5496647440807844
0.049107369390710184 -0.6252476154912063
0.051608666902926495 -0.6997300968279876
0.05481475575471594 -0.7727900413146331
0.05893578243428152 -0.843995189600367
0.06429840024203927 -0.9127549039934064
0.07136990549727207 -0.9782936635653542
0.08073182582205016 -1.0396451529051773
0.0929745249249655 -1.0956368042606162
0.10857308334109175 -1.144871536361169
0.1277404005889233 -1.1857499740077708
0.150308404292646 -1.2166094376443155
0.17564083546925774 -1.2359827568177604
0.20260282664116447 -1.2428339957535526
0.22956481781307064 -1.2359827568177402
0.2548972489896804 -1.2166094376442727
0.27746525269339983 -1.1857499740077084
0.2966325699412278 -1.1448715363610917
0.3122311283573501 -1.0956368042605296
0.3244738274602612 -1.0396451529050823
0.3338357477850348 -0.9782936635652527
0.3409072530402627 -0.9127549039933015
0.3462698708480155 -0.8439951896002621
0.35039089752757646 -0.7727900413145307
0.3535969863793619 -0.6997300968278901
0.35609828389157483 -0.6252476154911148
0.35802932991879777 -0.5496647440807004
0.3594858942625031 -0.47323101660835987
0.36054512571876457 -0.39613199553340694
0.3613284794396609 -0.31855018492884885
0.3619644797677449 -0.24063057800426838
0.36247470605483156 -0.16243294793813134
0.36274821959733683 -0.08372498249827205
0.36397040928115365 -0.0023480174790174815
0.06125781180335299 -0.003170247234450607
0.062154242522493026 -0.08372745776337788
0.062313880064809604 -0.1624566141014291
0.06270521847142008 -0.24068646170179558
0.06325468285629873 -0.3186197366267087
0.06394727849023946 -0.39622218047490637
0.06484873286986105 -0.4733741411942338
0.06609772734111558 -0.5498870112393291
0.06777009587251866 -0.625565429415752
0.06994208645356932 -0.7001686942940356
0.0727258525112502 -0.7733867510870337
0.07629633969783975 -0.8448103918192128
0.08093141186063058 -0.9138807862255025
0.08703937461248261 -0.9798575748451812
0.09514034831149489 -1.0417939734842447
0.1057809534287177 -1.0985057098928377
0.11940220793816739 -1.1485517200456041
0.13622220288663978 -1.1902569767735323
0.15613037148749126 -1.2218580672803219
0.17859015426022495 -1.2417700095990936
0.2026028266411626 -1.248846176087875
0.2266154990220996 -1.2417700095990731
0.24907528179483152 -1.2218580672802783
0.2689834503956802 -1.1902569767734692
0.2858034453441495 -1.1485517200455264
0.29942469985359554 -1.0985057098927502
0.3100653049708147 -1.0417939734841488
0.31816627866982305 -0.9798575748450788
0.32427424142167083 -0.9138807862253968
0.32890931358445735 -0.8448103918191069
0.33247980077104283 -0.7733867510869304
0.33526356682872027 -0.7001686942939375
0.3374355574097679 -0.6255654294156598
0.3391079259411684 -0.5498870112392445
0.34035692041242105 -0.4733741411941578
0.3412583747920414 -0.39622218047484137
0.3419509704259817 -0.31861973662665455
0.34250043481085996 -0.240686461701753
0.3428917732174704 -0.16245661410139772
0.3430514107597871 -0.08372745776335844
0.3439478414789253 -0.003170247234446405
0.08109770758807804 -0.003829730337070977
0.08176874153202884 -0.08374213525169975
0.08186610312322128 -0.16246720384060875
0.08215419109031548 -0.24072881799190038
0.08261057804478415 -0.31868055147705465
0.08320943877168738 -0.3962995422826071
0.08397672296639724 -0.4734848621056624
0.08501243369211116 -0.5500648073066202
0.08642475211597096 -0.6258252018305942
0.08826891636858165 -0.7005302146877649
0.09063503799001763 -0.773881470091522
0.09366567361420218 -0.8454877747303869
0.09758901821447306 -0.9148194628485011
0.10275183519266158 -0.9811694054778358
0.10961294898583192 -1.0436104214861324
0.11865525979696442 -1.1009516873639116
0.1302886690589045 -1.1517142281855068
0.1447408047895413 -1.19415921524498
0.1619603824307092 -1.2264359083633383
0.18153081475477492 -1.2468534188561173
0.20260282664116092 -1.2541579852277869
0.22367483852754616 -1.2468534188560965
0.24324527085161013 -1.2264359083632943
0.26046484849277557 -1.1941592152449167
0.27491698422340954 -1.1517142281854285
0.2865503934853465 -1.1009516873638232
0.2955927042964758 -1.0436104214860358
0.30245381808964283 -0.9811694054777327
0.30761663506782777 -0.9148194628483948
0.31153997966809494 -0.8454877747302803
0.31457061529227603 -0.773881470091418
0.31693673691370905 -0.7005302146876661
0.3187809011663171 -0.6258252018305015
0.3201932195901747 -0.5500648073065352
0.3212289303158871 -0.47348486210558616
0.3219962145105961 -0.39629954228254205
0.3225950752374989 -0.31868055147700036
0.3230514621919673 -0.24072881799185777
0.32333955015906146 -0.1624672038405774
0.32343691175025396 -0.0837421352516802
0.3241079456942033 -0.003829730337065717
0.10081528549931623 -0.00435668676820086
0.10132295585942021 -0.08376828661123352
0.10138309486279808 -0.1624710886609497
0.1015851145216564 -0.24075859443373263
0.10194736160850015 -0.3187305970291609
0.10244635861441002 -0.3963663390328305
0.10309115151397737 -0.47357226991820284
0.10393484362011056 -0.5501972760485832
0.10507739742994887 -0.6260289431082576
0.10659493953574871 -0.7008178299915759
0.10854836984996656 -0.7742777224622966
0.11104861992945975 -0.8460329215674783
0.11427742197716007 -0.9155777160241569
0.1185190274497187 -0.9822356154532782
0.12415741810926677 -1.0451007226748898
0.13161944034282708 -1.1029771336294332
0.1412705077846204 -1.1543572157657964
0.1533355141198031 -1.1974512005323428
0.1678341511117494 -1.2303368497378782
0.18448514067157995 -1.2512310702928915
0.20260282664115917 -1.2587726267766857
0.2207205126107376 -1.25123107029287
0.23737150217056655 -1.230336849737834
0.25187013916251066 -1.1974512005322788
0.26393514549769087 -1.1543572157657176
0.27358621293948154 -1.1029771336293444
0.28104823517303906 -1.0451007226747926
0.2866866258325844 -0.9822356154531743
0.2909282313051401 -0.9155777160240498
0.2941570333528374 -0.846032921567371
0.2966572834323277 -0.7742777224621921
0.29861071374654313 -0.7008178299914766
0.30012825585234076 -0.6260289431081645
0.3012708096621773 -0.5501972760484977
0.3021145017683094 -0.47357226991812645
0.3027592946678761 -0.3963663390327653
0.3032582916737856 -0.31873059702910655
0.3036205387606291 -0.24075859443369
0.3038225584194874 -0.16247108866091836
0.3038826974228653 -0.08376828661121387
0.30439036778296813 -0.004356686768194725
0.12044452799471947 -0.004775682557000419
0.12083226141299036 -0.08380333593900002
0.12086655454201439 -0.16247177852762765
0.12099647046079742 -0.24077741062167585
0.12126699415573353 -0.3187692000929973
0.12166184378675148 -0.3964214201489642
0.12218143187241932 -0.4736439374897649
0.12285468149878363 -0.5502948077707364
0.12374263276496805 -0.6261768733506166
0.12492692889062273 -0.7010348582072325
0.12647281286520803 -0.7745802980879538
0.12845200409819083 -0.8464517802801919
0.13100296442190915 -0.9161631919838898
0.13434641205429945 -0.9830651750219969
0.13879290899280808 -1.0462714255539571
0.14469347648853567 -1.1045877543787208
0.15237337440903692 -1.1564828985925117
0.16204996715125297 -1.2001286535014957
0.17379466246390954 -1.233552790664901
0.18747735055734466 -1.2548960941058067
0.2026028266411573 -1.2626881208735106
0.21772830272496932 -1.254896094105785
0.231410990818403 -1.2335527906648567
0.24315568613105762 -1.2001286535014313
0.2528322788732716 -1.1564828985924323
0.2605121767937706 -1.1045877543786315
0.2664127442894959 -1.0462714255538594
0.27085924122800226 -0.9830651750218926
0.2742026888603904 -0.916163191983782
0.2767536491841063 -0.8464517802800839
0.27873284041708685 -0.7745802980878488
0.2802787243916701 -0.7010348582071328
0.2814630205173232 -0.6261768733505232
0.28235097178350627 -0.5502948077706507
0.2830242214098698 -0.4736439374896885
0.2835438094955372 -0.39642142014889903
0.28393865912655486 -0.3187692000929429
0.28420918282149077 -0.24077741062163321
0.2843390987402738 -0.16247177852759628
0.2843733918692978 -0.0838033359389803
0.2847611252875679 -0.004775682556993602
0.14001123532243764 -0.00510366602617925
0.14030410560425124 -0.08384659172995647
0.1403210199699813 -0.16247055080395872
0.14038862552731082 -0.24078693239795262
0.14057129856765183 -0.3187963276402657
0.14086029043563136 -0.3964637037024285
0.14125086462991152 -0.47370001578340637
0.1417582022385243 -0.5503678729452992
0.14241716780565541 -0.6262780156272976
0.14327989495847965 -0.7011841354547853
0.1444164014880683 -0.774794662643611
0.14588278648662462 -0.8467514906303532
0.14777213452626997 -0.9165850148545798
0.15024332034953808 -0.9836684909962748
0.15352806065766195 -1.04713386518323
0.15790096743366658 -1.105791376365359
0.16362955753337344 -1.1580955651153335
0.17091699078794484 -1.2021913395228372
0.17988391823658448 -1.2360750276098746
0.19053602874074752 -1.257835952702985
0.20260282664115528 -1.265896742013788
0.21466962454156263 -1.257835952702963
0.22532173504572436 -1.2360750276098298
0.23428866249436248 -1.2021913395227726
0.24157609574893213 -1.1580955651152538
0.24730468584863727 -1.1057913763652694
0.2516775926246401 -1.0471338651831321
0.25496233293276227 -0.9836684909961703
0.257433518756029 -0.9165850148544717
0.25932286679567246 -0.8467514906302449
0.2607892517942272 -0.7747946626435056
0.26192575832381443 -0.7011841354546853
0.2627884854766374 -0.6262780156272041
0.2634474510437677 -0.5503678729452136
0.26395478865238 -0.47370001578332993
0.2643453628466598 -0.3964637037023633
0.26463435471463914 -0.31879632764021126
0.2648170277549801 -0.2407869323979099
0.26488463331230955 -0.16247055080392736
0.26490154767803964 -0.08384659172993672
0.26519441795985266 -0.005103666026171923
0.15952976670317004 -0.005359462494549126
0.15975049082174983 -0.08389473480207167
0.15975020910599694 -0.1624682352070658
0.15976371720257207 -0.24078844816905312
0.15986268592755495 -0.3188122590147369
0.16004525679084744 -0.3964925793855122
0.16030362429251646 -0.4737402387291207
0.16064260750711942 -0.5504200865158175
0.16108340776213842 -0.6263455981122565
0.16165135906926478 -0.7012768997847428
0.16239083882699556 -0.7749276284712349
0.16335191140400795 -0.8469414910830576
0.1645928103293272 -0.9168549405723514
0.16621674749127202 -0.9840596764807958
0.1683749498484185 -1.0477025344971855
0.17125889059649255 -1.106601068637925
0.17506578831271596 -1.1592040566772575
0.17997910958696928 -1.2036416788254816
0.1861475308414213 -1.2378962354283731
0.1936937147883388 -1.2600337147011125
0.20260282664115306 -1.2683855294019335
0.2115119384939672 -1.2600337147010903
0.21905812244088374 -1.237896235428328
0.22522654369533457 -1.2036416788254165
0.23013986496958655 -1.1592040566771777
0.23394676268580883 -1.106601068637835
0.23683070343388163 -1.0477025344970872
0.23898890579102713 -0.984059676480691
0.24061284295297108 -0.916854940572243
0.24185374187828926 -0.846941491082949
0.24281481445530065 -0.7749276284711294
0.24355429421303057 -0.7012768997846426
0.2441222455201562 -0.6263455981121628
0.24456304577517476 -0.5504200865157318
0.2449020289897774 -0.47374023872904425
0.24516039649144622 -0.3964925793854469
0.24534296735473862 -0.31881225901468246
0.24544193607972148 -0.24078844816901038
0.2454554441762966 -0.1624682352070344
0.24545516246054372 -0.0838947348020519
0.24567588657912312 -0.005359462494541461
0.17900354389898449 -0.005566945963456485
0.1791773124310833 -0.08394374305409365
0.17915931276041056 -0.1624650544503387
0.17912462102022553 -0.2407830303988378
0.17914401130378316 -0.3188173706026468
0.17922071088109148 -0.39650784511680615
0.17934516810166337 -0.4737637838599119
0.1795142163187224 -0.5504514368804393
0.1797331688073871 -0.6263860514157894
0.18001892607991835 -0.7013299707649022
0.18038419990368107 -0.7749978167806025
0.18086237697514665 -0.8470381886741472
0.18147268395870295 -0.9169905543595142
0.1822714130098237 -0.9842593603849766
0.18333788198524287 -1.048000153144702
0.18477267724837254 -1.1070390069055993
0.1866956933917959 -1.1598250341263106
0.18924796598204852 -1.204491517966269
0.1926240665413462 -1.2390162215737972
0.19700095441739782 -1.2614686358308511
0.2026028266411507 -1.2701334855362547
0.20820469886490361 -1.2614686358308287
0.21258158674095473 -1.2390162215737521
0.21595768730025158 -1.2044915179662037
0.21850995989050354 -1.1598250341262306
0.2204329760339264 -1.107039006905509
0.22186777129705537 -1.0480001531446037
0.22293424027247427 -0.9842593603848719
0.22373296932359474 -0.9169905543594058
0.22434327630715067 -0.8470381886740386
0.22482145337861592 -0.7749978167804968
0.22518672720237834 -0.701329970764802
0.2254724844749094 -0.6263860514156957
0.2256914369635739 -0.5504514368803536
0.22586048518063281 -0.4737637838598355
0.22598494240120465 -0.3965078451167409
0.22606164197851303 -0.3188173706025924
0.22608103226207069 -0.24078303039879506
0.22604634052188566 -0.16246505445030726
0.2260283408512129 -0.08394374305407382
0.22620210938331156 -0.0055669459634486145
0.19845045485092194 -0.005734908957283451
0.19858829820646492 -0.08399139153600252
0.1985537110265399 -0.1624607348600114
0.19847488297518695 -0.24077149504351317
0.19841858974932516 -0.318812146408031
0.19839095677955934 -0.39650947914903595
0.19838078678568613 -0.4737704278684457
0.1983785855804604 -0.5504617209015796
0.19837890150148518 -0.6263993661155841
0.19837945749757463 -0.7013476632737099
0.1983798154594213 -0.77502036874155
0.19838013083793402 -0.8470689031948789
0.1983803546299055 -0.9170309137726745
0.19837947144456322 -0.9843139999503566
0.1983771678633804 -1.0480790397436652
0.19838262805363277 -1.1071572194095614
0.1984323020649821 -1.160003161315598
0.1986348179699654 -1.2047770697251767
0.19922262256359136 -1.2394685143223036
0.20046864242968201 -1.262138569284334
0.20260282664114826 -1.2711215704216652
0.20473701085261461 -1.262138569284312
0.20598303071870522 -1.2394685143222584
0.20657083531233084 -1.2047770697251112
0.20677335121731416 -1.1600031613155184
0.20682302522866372 -1.107157219409471
0.20682848541891616 -1.0480790397435669
0.20682618183773355 -0.9843139999502523
0.20682529865239166 -0.9170309137725663
0.20682552244436356 -0.8470689031947705
0.20682583782287653 -0.7750203687414442
0.20682619578472344 -0.7013476632736096
0.20682675178081314 -0.6263993661154905
0.20682706770183806 -0.550461720901494
0.2068248664966124 -0.4737704278683692
0.20681469650273926 -0.39650947914897067
0.20678706353297358 -0.3188121464079765
0.20673077030711193 -0.2407714950434704
0.20665194225575906 -0.16246073485997994
0.20661735507583404 -0.08399139153598265
0.2067551984313769 -0.005734908957275426
0.21788260766212622 -0.005868666484768754
0.21798911332165397 -0.08403568564069351
0.21793838794146 -0.1624550292096612
0.21781856969223498 -0.24075438950283218
0.2176900689037965 -0.31879712443997144
0.2175602622267591 -0.39649768046983647
0.21741641633839773 -0.4737601311035612
0.21724305352155357 -0.550450785804935
0.21702472742012452 -0.6263862678886702
0.21674004098293648 -0.7013301638950769
0.2163754511929143 -0.7749979771061488
0.21589792503157068 -0.8470383131352797
0.21528808568819402 -0.9169904395427297
0.21448793847862593 -0.9842585598994984
0.21341677240545637 -1.0479996003837184
0.21198916922441755 -1.1070455666485026
0.2101580903778225 -1.1598630665363492
0.20797889388788796 -1.2046321531782718
0.20566848819855682 -1.2393824167454894
0.20363048512540888 -1.262144226632586
0.20260282664114604 -1.271451706035521
0.20157516815688306 -1.2621442266325635
0.19953716508373495 -1.239382416745444
0.1972267593944043 -1.2046321531782063
0.1950475629044706 -1.1598630665362692
0.19321648405787642 -1.1070455666484125
0.1917888808768384 -1.0479996003836198
0.19071771480366956 -0.9842585598993939
0.1899175675941026 -0.9169904395426218
0.189307728250727 -0.8470383131351712
0.18883020208938436 -0.7749979771060433
0.188465612299363 -0.7013301638949766
0.1881809258621756 -0.6263862678885767
0.18796259976074697 -0.5504507858048493
0.18778923694390307 -0.4737601311034847
0.18764539105554204 -0.39649768046977124
0.18751558437850482 -0.318797124439917
0.18738708359006653 -0.24075438950278943
0.18726726534084165 -0.1624550292096297
0.1872165399606477 -0.08403568564067361
0.18732304562017535 -0.005868666484760596
0.23730816622514878 -0.005972410178764891
0.2373857454795192 -0.08407503229897895
0.23731838630340027 -0.16244756274654193
0.2371599086717373 -0.2407321253998706
0.23696246112353486 -0.31877286458687826
0.23673304405587556 -0.3964727935404388
0.23645760690438727 -0.4737331485165429
0.23611505248371276 -0.5504188527596119
0.2356747986556259 -0.6263460249845872
0.2351077559890248 -0.7012772859567936
0.23436886667870827 -0.7749279182826104
0.2334082959912114 -0.8469417581475885
0.23216810083910447 -0.9168548439921672
0.23054388905536619 -0.98405799792833
0.22838102710083205 -1.0477006125182255
0.22549741054484013 -1.106614310499339
0.22176284676764446 -1.1592863549239545
0.21718199851627426 -1.2039359499135258
0.2119706357005619 -1.2386453662716175
0.20672799120914595 -1.2615526276917686
0.20260282664114376 -1.271245736699319
0.19847766207314124 -1.2615526276917464
0.19323501758172545 -1.238645366271572
0.18802365476601407 -1.2039359499134608
0.18344280651464545 -1.1592863549238748
0.1797082427374514 -1.1066143104992492
0.17682462618146086 -1.0477006125181272
0.174661764226928 -0.9840579979282258
0.17303755244319152 -0.9168548439920595
0.17179735729108636 -0.8469417581474801
0.17083678660359122 -0.7749279182825053
0.17009789729327607 -0.7012772859566935
0.16953085462667605 -0.6263460249844937
0.16909060079858987 -0.5504188527595263
0.16874804637791585 -0.47373314851646653
0.168472609226428 -0.3964727935403736
0.16824319215876904 -0.31877286458682386
0.1680457446105669 -0.24073212539982788
0.16788726697890408 -0.1624475627465104
0.16781990780278516 -0.08407503229895902
0.16789748705715551 -0.005972410178756629
0.25673297737249534 -0.0060500162413813985
0.25678367081598985 -0.08410828768789218
0.25669872843647507 -0.16243785450438514
0.25650330019658796 -0.2407050296937409
0.2562398681516262 -0.3187398987566787
0.25591386028961 -0.3964354003837457
0.25551018165702394 -0.47368988031174497
0.2550000654059029 -0.5503661804188322
0.25434149576248666 -0.6262786274327434
0.2534794755956015 -0.701184720005878
0.2523434159408119 -0.7747950864464332
0.2508772899422565 -0.8467519157917293
0.24898886296518016 -0.9165851368188226
0.2465195292329898 -0.9836663946234695
0.24323357903424422 -1.0471303319953056
0.23885660491644484 -1.105808022718202
0.23316863583448308 -1.1582129976317148
0.22611882649173506 -1.2026145783237965
0.2179714951123695 -1.2371870615623668
0.20956642387533778 -1.2602175153302613
0.2026028266411415 -1.2705009559375304
0.19563922940694503 -1.2602175153302388
0.18723415816991376 -1.2371870615623213
0.17908682679054963 -1.2026145783237316
0.17203701744780373 -1.1582129976316355
0.16634904836584416 -1.1058080227181126
0.1619720742480467 -1.0471303319952077
0.15868612404930307 -0.9836663946233656
0.15621679031711508 -0.9165851368187152
0.15432836334004124 -0.8467519157916213
0.15286223734148818 -0.7747950864463283
0.15172617768670063 -0.7011847200057783
0.15086415751981705 -0.6262786274326498
0.15020558787640187 -0.5503661804187465
0.14969547162528155 -0.4736898803116686
0.14929179299269607 -0.3964354003836805
0.14896578513068034 -0.3187398987566243
0.14870235308571886 -0.24070502969369822
0.14850692484583194 -0.16243785450435366
0.1484219824663173 -0.0841082876878722
0.1484726759098117 -0.006050016241373071
0.2761616786487778 -0.00610514684694991
0.27618768827556184 -0.08413476679124429
0.2760842894939156 -0.1624254010995917
0.2758531205845643 -0.24067334299875734
0.27552639081946206 -0.3186988125743402
0.2751073733295317 -0.39638602977081955
0.27457887190518054 -0.4736311933986555
0.27390456494707344 -0.5502928439807392
0.2730166337809242 -0.6261776444663169
0.2718327802990842 -0.7010356487979673
0.2702870242431211 -0.7745807859721722
0.26830788929274746 -0.846452318223091
0.26575790353294426 -0.9161637584748418
0.2624191938674775 -0.9830638112874446
0.2579795351794004 -1.0462675234783216
0.2520767291642124 -1.1046044756063487
0.24439440275863658 -1.156617477213979
0.23483106325667252 -1.2006442639404384
0.22372970169018297 -1.2349913440652898
0.21221670309402343 -1.2581572715678402
0.2026028266411393 -1.2692361710254692
0.1929889501882552 -1.2581572715678178
0.18147595159209662 -1.2349913440652447
0.1703745900256087 -1.200644263940374
0.16081125052364723 -1.1566174772139004
0.15312892411807405 -1.1046044756062599
0.1472261181028887 -1.046267523478224
0.142786459414814 -0.9830638112873413
0.1394477497493503 -0.9161637584747351
0.13689776398955014 -0.8464523182229835
0.1349186290391795 -0.7745807859720679
0.13337287298321904 -0.7010356487978678
0.13218901950138115 -0.6261776444662235
0.1313010883352335 -0.5502928439806535
0.13062678137712738 -0.4736311933985792
0.1300982799527769 -0.39638602977075443
0.12967926246284708 -0.3186988125742859
0.12935253269774522 -0.24067334299871465
0.12912136378839414 -0.1624254010995602
0.129017965006748 -0.08413476679122428
0.129043974633532 -0.006105146846941527
0.2955979732658522 -0.006141396657584442
0.29560195974834386 -0.08415418264682703
0.2954797454204478 -0.1624097630718325
0.29521395167997955 -0.24063729111328067
0.29482644639050465 -0.31865011928058606
0.2943180810852515 -0.3963256632727252
0.29366997230151975 -0.4735578545368866
0.29282532569227915 -0.5501950100356815
0.29168268938287173 -0.6260298650383618
0.29016509174311295 -0.7008187452861285
0.2882115386336997 -0.7742782359227107
0.28571106121467926 -0.8460334885659326
0.2824833278149932 -0.9155789408176764
0.27824952129204245 -0.9822365859324292
0.27262889404876767 -1.0450993578843821
0.26517296966325377 -1.1029912932440014
0.25548113212247037 -1.1544883851644374
0.24340311439385348 -1.198016276182246
0.22935873381669347 -1.2320569248863276
0.21479443222682915 -1.255390762812122
0.20260282664113727 -1.267469926715496
0.1904112210554456 -1.2553907628121
0.1758469194655826 -1.2320569248862827
0.16180253888842464 -1.1980162761821822
0.1497245211598106 -1.1544883851643597
0.14003268361903023 -1.102991293243913
0.13257675923351944 -1.045099357884285
0.12695613199024777 -0.9822365859323265
0.1227223254673006 -0.9155789408175704
0.1194945920676183 -0.8460334885658259
0.11699411464860142 -0.7742782359226071
0.11504056153919126 -0.7008187452860296
0.11352296389943511 -0.6260298650382689
0.11238032759002986 -0.5501950100355961
0.11153568098079063 -0.4735578545368104
0.11088757219705965 -0.39632566327266017
0.11037920689180711 -0.3186501192805318
0.10999170160233264 -0.24063729111323803
0.10972590786186466 -0.162409763071801
0.1096036935339687 -0.084154182646807
0.10960768001646033 -0.006141396657576022
0.3150446752091822 -0.006162407791251128
0.31503001936453334 -0.08416659418418758
0.3148896183850418 -0.1623906475279109
0.3145903270134055 -0.2405970760545778
0.31414405389067773 -0.31859428112066684
0.3135504431249648 -0.39625519791521674
0.3127848462875246 -0.4734691300191923
0.31174928375190164 -0.5500623400048222
0.31033621764470765 -0.6258261576813184
0.30849139725458125 -0.7005311446744463
0.30612485294156233 -0.7738819385202846
0.303093866507783 -0.8454883245550627
0.29917206620283987 -0.9148215943909674
0.2940198991138825 -0.9811743051571006
0.28718602348730243 -1.043615179548747
0.2781637657016608 -1.1009632479176452
0.26647495449955183 -1.151825517910408
0.25191639416241784 -1.1947332783186713
0.23498259631707547 -1.228390333069032
0.2173957000513714 -1.2519219825405823
0.20260282664113533 -1.2652006862512921
0.18780995323089963 -1.2519219825405603
0.1702230569651971 -1.2283903330689876
0.1532892591198573 -1.194733278318608
0.1387306987827264 -1.151825517910331
0.12704188758062093 -1.1009632479175575
0.11801962979498277 -1.0436151795486506
0.11118575416840651 -0.9811743051569985
0.10603358707945315 -0.9148215943908624
0.10211178677451449 -0.8454883245549569
0.09908080034073925 -0.7738819385201816
0.09671425602772399 -0.7005311446743481
0.09486943563760068 -0.625826157681226
0.0934563695304093 -0.5500623400047372
0.09242080699478816 -0.47346913001911617
0.09165521015734904 -0.39625519791515185
0.09106159939163672 -0.31859428112061267
0.09061532626890935 -0.2405970760545352
0.09031603489727338 -0.16239064752787943
0.09017563391778198 -0.08416659418416754
0.09016097807313304 -0.0061624077912426824
0.3345035815577525 -0.0061719470515849955
0.33447473231842983 -0.08417239209449395
0.3343183990105544 -0.16236799864634663
0.3339869118977207 -0.2405528248786106
0.333483148945957 -0.31853181492563415
0.332809146286424 -0.396176006160998
0.33191470390521055 -0.47335786432584703
0.3306660188299538 -0.5498843846557137
0.32899171719266096 -0.625566191098767
0.3268184367844974 -0.7001695223733657
0.32403396005517654 -0.7733871094656376
0.32046321611297074 -0.8448109732482934
0.315830827107434 -0.9138842094522566
0.3097360069641753 -0.9798675373664486
0.3016668334615493 -1.0418076459356087
0.2910603945094863 -1.0985183315841702
0.27740804785507234 -1.148638347144725
0.2604660600845773 -1.190813353434539
0.24073366219507836 -1.2240017081185695
0.22011293795339892 -1.2477369522023647
0.20260282664113335 -1.2624059902165545
0.18509271532886834 -1.247736952202343
0.16447199108719082 -1.2240017081185257
0.1447395931976947 -1.1908133534344763
0.12779760542720311 -1.1486383471446486
0.11414525877279316 -1.0985183315840834
0.1035388198207341 -1.0418076459355134
0.09546964631811253 -0.9798675373663472
0.08937482617485831 -0.9138842094521524
0.08474243716932679 -0.8448109732481885
0.08117169322712557 -0.7733871094655356
0.07838721649780887 -0.7001695223732681
0.07621393608964878 -0.625566191098675
0.07453963445235899 -0.5498843846556292
0.07329094937710452 -0.4733578643257711
0.07239650699589244 -0.39617600616093324
0.07172250433636015 -0.31853181492557997
0.07121874138459694 -0.24055282487856802
0.07088725427176355 -0.16236799864631515
0.0707309209638882 -0.08417239209447394
0.07070207172456558 -0.006171947051576534
0.3539751411751874 -0.006173938147153607
0.3539382167590014 -0.08417234332147569
0.35377076988920403 -0.16234214841580666
0.3534086668448094 -0.2405043768411289
0.35284759695668994 -0.31846381321910766
0.3520948506213065 -0.3960859188807235
0.35104730174499765 -0.4732151713305224
0.34958953974361534 -0.549661629475019
0.3476551350728261 -0.6252479496319032
0.34515202310234583 -0.6997307073008489
0.3419449534549844 -0.7727902442212378
0.337824058276607 -0.8439959754583173
0.33246588429071783 -0.9127601615287337
0.32540958081930876 -0.9783092504304511
0.3160791008508423 -1.0396687350042768
0.3038784362676345 -1.0956561529110111
0.28830476945331757 -1.1449466835847932
0.2691286125578429 -1.1862911726210303
0.24675053395837843 -1.2189065148643652
0.22306901994106568 -1.2428025567645677
0.20260282664113133 -1.2590364915579608
0.18213663334119773 -1.2428025567645462
0.15845511932388723 -1.2189065148643219
0.13607704072442592 -1.1862911726209684
0.11690088382895514 -1.1449466835847177
0.10132721701464265 -1.095656152910925
0.08912655243143933 -1.0396687350041824
0.07979607246297785 -0.9783092504303507
0.07273976899157392 -0.9127601615286307
0.06738159500569048 -0.8439959754582135
0.06326069982731826 -0.7727902442211367
0.060053630179961445 -0.6997307073007522
0.05755051820948513 -0.6252479496318119
0.055616113538699316 -0.549661629474935
0.05415835153731966 -0.473215171330447
0.05311080266101251 -0.3960859188806588
0.05235805632562993 -0.31846381321905354
0.05179698643751093 -0.24050437684108636
0.05143488339311663 -0.1623421484157752
0.05126743652331946 -0.08417234332145569
0.051230512107133495 -0.006173938147145144
0.3734577831047532 -0.006172420086578223
0.3734217891918726 -0.08416777408787303
0.37325195315102444 -0.16231393772091465
0.37286118955971065 -0.2404512877717476
0.3722412866310179 -0.31839144630826327
0.3713991220698924 -0.39597856330499265
0.37018761675973544 -0.47303673988492223
0.3685246364400832 -0.5493935981599513
0.3663316726376072 -0.6248693599986079
0.36349757532294563 -0.6992123098479027
0.35986282534876113 -0.7720875504191171
0.3551828081115282 -0.8430390390257027
0.3490827618950056 -0.9114434397306084
0.34104277145594425 -0.9764925743738377
0.3304428720529679 -1.037194623087349
0.3166476527801007 -1.0923772449141627
0.29917613602128873 -1.140767359360417
0.27789868496632825 -1.18122242073535
0.25321161215993304 -1.2131464669527692
0.22647795096544993 -1.237061866160591
0.20260282664112908 -1.25499391797176
0.1787277023168092 -1.23706186616057
0.15199404112232867 -1.2131464669527265
0.1273069683159372 -1.1812224207352886
0.10602951726098116 -1.1407673593603427
0.08855800050217413 -1.0923772449140774
0.07476278122931203 -1.0371946230872555
0.0641628818263412 -0.9764925743737384
0.0561228913872857 -0.9114434397305066
0.050022845170769395 -0.8430390390256002
0.04534282793354218 -0.7720875504190173
0.041708077959362724 -0.6992123098478069
0.03887398064470557 -0.6248693599985173
0.03668101684223329 -0.549393598159868
0.03501803652258409 -0.47303673988484735
0.033806531212429214 -0.39597856330492814
0.03296436665130466 -0.3183914463082092
0.0323444637226125 -0.2404512877717051
0.03195370013129909 -0.1623139377208832
0.031783864090451065 -0.08416777408785305
0.03174787017757058 -0.006172420086569757
0.39294660528600633 -0.006171381552353849
0.392926011106971 -0.08416104996750469
0.3927684901228118 -0.16228467502446692
0.3923509688937974 -0.24039340694621786
0.39166537523630707 -0.318312290777433
0.3907158608367682 -0.39585069460271854
0.3893412646585348 -0.47282185454996745
0.38747578277089945 -0.5490791816941085
0.385026353303395 -0.6244290633321666
0.38185990133615827 -0.6986122032990034
0.3777935385615895 -0.7712764529769115
0.3725440405495016 -0.8419351845887826
0.3656825696711353 -0.9099275798732279
0.35664942827464696 -0.9744141260867814
0.3447760246583005 -1.0343841615248983
0.3293980700835405 -1.0886837152065243
0.3100546768582627 -1.1361105041321442
0.2867242427985489 -1.1756456589861317
0.26002887970437477 -1.206857894194002
0.2310636496178847 -1.2304710186636534
0.20260282664112672 -1.25
0.17414200366436955 -1.2304710186636325
0.14517677357788236 -1.2068578941939603
0.11848141048371282 -1.1756456589860715
0.09515097642400425 -1.136110504132071
0.07580758319873196 -1.0886837152064404
0.06042962862397767 -1.034384161524806
0.04855622500763744 -0.9744141260866832
0.03952308361115555 -0.9099275798731274
0.03266161273279614 -0.8419351845886814
0.027412114720714566 -0.7712764529768129
0.023345751946151152 -0.6986122032989086
0.020179299978919225 -0.624429063332077
0.017729870511418985 -0.5490791816940259
0.015864388623786932 -0.4728218545498931
0.014489792445555958 -0.3958506946026544
0.013540278046018255 -0.31831229077737894
0.0128546843885286 -0.2403934069461754
0.012437163159514547 -0.1622846750244355
0.012279642175355505 -0.0841610499674847
0.012259047996320199 -0.006171381552345387
SCALARS Stress float 6
LOOKUP_TABLE default
-730.8723511120816 -1476.2773365603289 -1002.7302916196286 9.424757211611835 0.0 0.0
961.5814642750237 561.5168724362331 613.4825674563568 -14.510148183816636 0.0 0.0
434.6005011571355 12.430739452109512 133.21510725418509 -28.969978269576934 0.0 0.0
415.87100014808857 19.362223560705413 130.00415683342888 -3.969409325868365 0.0 0.0
499.28231738129057 25.62693617089333 159.1762763237138 -3.716881114451494 0.0 0.0
553.7743393286297 52.152627827779504 211.56942754747467 -2.508080209961001 0.0 0.0
626.369932769256 61.0617059995911 267.307900782841 -3.723300964185806 0.0 0.0
696.7725319364961 92.55010711039421 334.0801611843351 -4.032933895692128 0.0 0.0
770.4520104827303 132.58997130365677 404.3454534793152 -3.8728039932439637 0.0 0.0
853.5836296670559 184.42126584345587 481.5200852024433 -3.875119481081562 0.0 0.0
949.7979617611142 249.3547921479308 568.7337817624833 -3.9741055486989634 0.0 0.0
1058.4300695933819 327.5040067819978 666.3310522553805 -4.334938381580438 0.0 0.0
1176.0005965752325 411.43618765791507 768.5968792471728 -4.651572729264707 0.0 0.0
1299.4383714456549 499.261794776726 874.2075726822845 -4.980082885403265 0.0 0.0
1421.5921816246687 585.1563315705184 977.3998006806521 -5.330883458610038 0.0 0.0
1536.4597753264466 664.7466213251679 1073.6640991622432 -5.74549539329584 0.0 0.0
1639.4249746773428 735.4191312436571 1159.7797458578455 -6.013465565128183 0.0 0.0
1725.6972378840196 794.130033826136 1232.0029364287093 -5.6688672696060785 0.0 0.0
1790.4805988954358 837.5113131961347 1286.1391493887495 -4.47176567654332 0.0 0.0
1825.637324463694 858.9346757078168 1314.6178016022577 -3.247680913896919 0.0 0.0
1826.6452055937802 856.198950643091 1314.0564778648654 2.2422952383749362e-11 0.0 0.0
1825.6373244635395 858.9346757076578 1314.6178016021088 3.2476809138972893 0.0 0.0
1790.4805988957667 837.5113131964949 1286.1391493889341 4.471765676443253 0.0 0.0
1725.6972378839935 794.13003382614 1232.0029364286925 5.668867269594406 0.0 0.0
1639.4249746762835 735.4191312426198 1159.7797458568862 6.013465565100246 0.0 0.0
1536.4597753259604 664.7466213247333 1073.6640991617637 5.745495393315656 0.0 0.0
1421.592181623368 585.156331569243 977.3998006795764 5.330883458632547 0.0 0.0
1299.4383714447279 499.2617947758617 874.2075726814879 4.980082885411587 0.0 0.0
1176.0005965744097 411.43618765717247 768.5968792464635 4.65157272925148 0.0 0.0
1058.430069593034 327.50400678178573 666.3310522550127 4.334938381606902 0.0 0.0
949.7979617605829 249.35479214752974 568.7337817619605 3.974105548678901 0.0 0.0
853.5836296666862 184.42126584324578 481.52008520205504 3.875119481093101 0.0 0.0
770.4520104823775 132.58997130345824 404.34545347891356 3.872803993206226 0.0 0.0
696.7725319365024 92.55010711064807 334.08016118419977 4.032933895636226 0.0 0.0
626.3699327690341 61.0617059995848 267.30790078256814 3.72330096422772 0.0 0.0
553.774339328263 52.15262782764457 211.56942754719205 2.508080210001152 0.0 0.0
499.2823173811094 25.626936171095203 159.17627632367615 3.716881114516495 0.0 0.0
415.8710001478607 19.362223560690868 130.00415683336172 3.969409325871985 0.0 0.0
434.60050115690524 12.430739452192377 133.21510725415953 28.969978269464196 0.0 0.0
961.5814642747861 561.5168724358949 613.4825674559877 14.510148183900967 0.0 0.0
-730.8723511100355 -1476.277336558277 -1002.7302916176541 -9.42475721214063 0.0 0.0
-924.8541141259134 -1631.7665440123797 -1130.5555598153167 13.164410943422896 0.0 0.0
639.6505946014973 332.30133404391086 381.9572279601798 -40.01930793824262 0.0 0.0
302.3263155790199 -7.5025109937828365 88.54776702770612 -21.30165333946093 0.0 0.0
370.5392517396141 5.900076972478576 112.87977200492553 -15.142205869770597 0.0 0.0
443.9751024277879 9.441045138324226 135.90508989816556 -15.872817742544294 0.0 0.0
518.9335449479153 12.860995293666054 175.4124554197803 -16.96135760555283 0.0 0.0
572.1858896113913 21.922231991339984 224.38675016344922 -19.07714779725846 0.0 0.0
633.2179355888607 41.044329610363036 279.85803250286693 -19.099442494580313 0.0 0.0
692.5475038137135 65.76572488930556 335.76613048012007 -18.52145340786762 0.0 0.0
755.2121886191275 97.49841505452117 393.76147707524325 -18.05636944344204 0.0 0.0
823.1767927496954 135.11121161649382 454.4466165426336 -17.35608969951306 0.0 0.0
895.7447719873915 175.09377952857292 515.9192063531909 -16.801287126426008 0.0 0.0
967.3513114602229 215.038012865515 574.407459660799 -16.329715213028486 0.0 0.0
1036.6318385138052 248.59431642711348 626.5183842865009 -15.88269558528919 0.0 0.0
1096.632168535762 272.41439095721717 668.2807424809562 -15.713587834775165 0.0 0.0
1142.6543531288673 283.37138112105197 696.4113202732651 -15.722254037997008 0.0 0.0
1172.336764876194 280.89677654397707 709.7930615796345 -15.461447530587488 0.0 0.0
1187.6449424064326 268.616987183823 711.3564829226946 -14.178979984110386 0.0 0.0
1191.9115415703493 251.3803814717223 705.1886983090573 -11.565013668375569 0.0 0.0
1179.4946656608922 224.91332747871962 686.3726260141962 -8.225301918105046 0.0 0.0
1152.7176678562344 194.22079376695274 658.4310684573426 1.3654855024469725e-11 0.0 0.0
1179.4946656604059 224.9133274782322 686.3726260138177 8.225301918130361 0.0 0.0
1191.9115415706149 251.3803814720218 705.1886983092161 11.565013668401527 0.0 0.0
1187.6449424065354 268.61698718394763 711.3564829227506 14.17897998416846 0.0 0.0
1172.3367648759083 280.89677654373565 709.7930615792974 15.461447530618873 0.0 0.0
1142.6543531285977 283.37138112082084 696.411320272979 15.722254038015388 0.0 0.0
1096.6321685350629 272.4143909565649 668.2807424803482 15.713587834771578 0.0 0.0
1036.631838513504 248.59431642689708 626.518384286174 15.882695585314597 0.0 0.0
967.3513114595055 215.03801286487047 574.407459660204 16.329715213035392 0.0 0.0
895.744771987161 175.09377952846896 515.9192063529249 16.801287126436 0.0 0.0
823.1767927493025 135.1112116162404 454.44661654224893 17.356089699506413 0.0 0.0
755.2121886187401 97.4984150542703 393.76147707488235 18.056369443454667 0.0 0.0
692.547503813309 65.76572488903597 335.7661304797292 18.52145340782056 0.0 0.0
633.2179355888023 41.04432961052682 279.85803250270993 19.09944249452056 0.0 0.0
572.1858896111021 21.92223199125217 224.38675016317802 19.077147797227383 0.0 0.0
518.9335449476112 12.860995293632548 175.41245541957528 16.961357605557275 0.0 0.0
443.9751024275397 9.441045138405803 135.90508989809695 15.872817742569794 0.0 0.0
370.53925173942525 5.900076972424317 112.87977200485507 15.142205869727325 0.0 0.0
302.32631557901675 -7.5025109938035275 88.54776702769637 21.30165333938395 0.0 0.0
639.6505946012265 332.3013340436556 381.9572279598584 40.01930793831242 0.0 0.0
-924.8541141243979 -1631.7665440107644 -1130.5555598137069 -13.164410943904885 0.0 0.0
-751.6583408484636 -1423.0253691630712 -927.8221576233323 -31.716783629369875 0.0 0.0
452.0230050653836 226.1252630667172 259.98753558260614 -97.75626952852579 0.0 0.0
223.36802239790327 18.794725600348915 72.64882439947563 -18.537302365784353 0.0 0.0
314.47905203367435 -0.9517614660004564 94.06025672475877 -33.57063042828274 0.0 0.0
395.00403678272147 7.540310666575557 120.34802440362645 -36.781100983237394 0.0 0.0
487.5153700366996 8.377345213246873 154.67588677018136 -34.37975963572267 0.0 0.0
542.1278481830204 21.645639215769776 203.05642691022712 -36.584698811019194 0.0 0.0
605.1209106242014 33.979166401062564 255.02380479808465 -37.05608953585398 0.0 0.0
663.8548476833067 56.794976797643095 310.09957703176644 -36.22750437812403 0.0 0.0
724.5058260253885 84.80012216896964 366.1463424440858 -35.184471026651266 0.0 0.0
788.7978012348276 118.24877030007626 424.30202976658165 -34.01249075226908 0.0 0.0
856.5491271485843 155.49711950739817 483.63693221981407 -32.70553187809067 0.0 0.0
926.9471051327565 191.2138476535326 540.5090755348781 -31.68108946840625 0.0 0.0
992.0815990001746 222.62020569574122 590.3261871597257 -30.921145902985277 0.0 0.0
1049.2324851402977 243.57381249000142 629.4986909055976 -30.582900181775617 0.0 0.0
1093.053188586571 252.4930462182964 655.570967889797 -30.462921486544992 0.0 0.0
1122.8557056487034 250.32061157003858 669.1243698234922 -29.745003072151775 0.0 0.0
1139.9281778897741 239.82132580579832 672.4538214333154 -27.290341975148415 0.0 0.0
1143.2313731184538 221.33852375837174 665.2446429695898 -22.677269238606062 0.0 0.0
1134.2060702738931 198.04102038148534 649.5865031032016 -15.93075274345896 0.0 0.0
1097.9036463680577 157.89779994313275 612.4469306834679 1.794742132688043e-11 0.0 0.0
1134.2060702732224 198.04102038082112 649.5865031027199 15.930752743515033 0.0 0.0
1143.231373118813 221.33852375877268 665.2446429698061 22.677269238715457 0.0 0.0
1139.928177889324 239.82132580536833 672.4538214329518 27.29034197525933 0.0 0.0
1122.855705648612 250.32061156997736 669.1243698232631 29.74500307219031 0.0 0.0
1093.0531885861485 252.49304621791887 655.5709678894212 30.462921486541333 0.0 0.0
1049.23248514017 243.57381248993846 629.4986909053977 30.582900181825252 0.0 0.0
992.081599000179 222.62020569582793 590.3261871596385 30.921145903007314 0.0 0.0
926.9471051318209 191.21384765265134 540.5090755341495 31.681089468379483 0.0 0.0
856.549127148259 155.4971195072044 483.6369322194874 32.70553187809201 0.0 0.0
788.7978012344047 118.24877029976732 424.3020297661989 34.01249075228081 0.0 0.0
724.5058260249853 84.80012216871332 366.1463424437111 35.18447102665547 0.0 0.0
663.854847683047 56.79497679755519 310.0995770314978 36.22750437811419 0.0 0.0
605.1209106241639 33.97916640126677 255.02380479794076 37.05608953581849 0.0 0.0
542.1278481827735 21.645639215789487 203.056426910018 36.584698811008565 0.0 0.0
487.51537003631717 8.3773452131698 154.67588676997855 34.37975963565461 0.0 0.0
395.0040367823637 7.540310666548531 120.34802440352433 36.78110098324662 0.0 0.0
314.4790520335723 -0.951761465947361 94.06025672474485 33.570630428202016 0.0 0.0
223.36802239785854 18.7947256001662 72.64882439940742 18.537302365728006 0.0 0.0
452.0230050651771 226.12526306660436 259.9875355823621 97.75626952843089 0.0 0.0
-751.6583408471627 -1423.0253691616927 -927.8221576218822 31.716783629045455 0.0 0.0
-598.2149897147451 -1234.7997488938959 -750.7290075927061 -51.19996514932365 0.0 0.0
320.0541335027888 128.48768570612796 168.61896068049265 -134.40438415076417 0.0 0.0
165.66157755469237 33.353970110275995 59.70466429949051 -40.22888031875765 0.0 0.0
259.94002252861503 3.446144815479502 79.01560836279815 -49.13979378193735 0.0 0.0
343.26707256060104 3.291756200609689 103.81231262180188 -57.943576284586996 0.0 0.0
438.0753431462893 5.452505841075753 133.8865366509499 -54.81938894291462 0.0 0.0
515.1352510232276 15.908322369554686 178.37321533720157 -55.73620621674256 0.0 0.0
571.2521389484759 27.072233624501564 227.36943949844635 -55.58055070711486 0.0 0.0
630.6678971162784 47.17852157928383 280.9121781186309 -53.91929295466379 0.0 0.0
689.568842533883 72.10116080366531 335.3832464263912 -52.28446024957959 0.0 0.0
749.9892818423799 101.69462680082323 391.1524268040182 -50.41019033010624 0.0 0.0
814.723330354735 134.21096595733442 448.0774720007853 -48.53992151434138 0.0 0.0
880.8525441969144 168.33865720968615 503.80848250845514 -46.79991179215594 0.0 0.0
944.508104477396 195.16746724483065 551.5549288643366 -45.82745302778107 0.0 0.0
998.25819491261 213.69728775121973 588.3598250954689 -45.332254394428475 0.0 0.0
1040.6562808390552 222.17332416992747 613.6249034233508 -44.977928464011576 0.0 0.0
1071.0858756666194 220.3509080995322 627.6145665899994 -43.92978285647303 0.0 0.0
1089.3026018350424 210.7313611633085 631.9651623064062 -40.648698757088255 0.0 0.0
1094.249099084839 193.38182052050863 626.1618913286462 -34.12206032244144 0.0 0.0
1086.5262950482945 170.67149794061834 611.4315821636345 -23.34080148750219 0.0 0.0
1033.747611337028 113.82594456902294 558.2932346794379 8.749445612465934e-12 0.0 0.0
1086.5262950480035 170.67149794034447 611.4315821634416 23.34080148757578 0.0 0.0
1094.2490990851768 193.38182052088848 626.161891328841 34.1220603225519 0.0 0.0
1089.3026018343105 210.73136116259184 631.9651623058581 40.64869875717647 0.0 0.0
1071.0858756663588 220.35090809928573 627.6145665896845 43.92978285647336 0.0 0.0
1040.6562808387266 222.17332416965803 613.6249034230465 44.97792846401152 0.0 0.0
998.2581949123553 213.69728775102374 588.359825095208 45.332254394475285 0.0 0.0
944.5081044770315 195.16746724453552 551.5549288640077 45.82745302780085 0.0 0.0
880.8525441961074 168.33865720894914 503.80848250783737 46.79991179215987 0.0 0.0
814.7233303545397 134.21096595725695 448.07747200056104 48.53992151435334 0.0 0.0
749.9892818419584 101.69462680051838 391.1524268036382 50.41019033006551 0.0 0.0
689.5688425335618 72.10116080350316 335.3832464260812 52.28446024957616 0.0 0.0
630.6678971160815 47.178521579256525 280.91217811841045 53.919292954640134 0.0 0.0
571.2521389484099 27.072233624684017 227.3694394983033 55.580550707059786 0.0 0.0
515.1352510231276 15.908322369797478 178.37321533711315 55.736206216737195 0.0 0.0
438.07534314591857 5.4525058410977225 133.8865366508236 54.819388942837406 0.0 0.0
343.26707256034155 3.29175620057532 103.81231262171703 57.94357628453809 0.0 0.0
259.940022528541 3.4461448156063135 79.01560836281386 49.13979378183255 0.0 0.0
165.6615775546979 33.35397011019548 59.704664299468014 40.228880318622494 0.0 0.0
320.0541335026144 128.48768570608493 168.6189606803191 134.4043841505923 0.0 0.0
-598.21498971366 -1234.7997488926997 -750.7290075914618 51.19996514913424 0.0 0.0
-465.5153552355367 -1064.5708120946338 -597.2202371069528 -58.28882234863573 0.0 0.0
229.2564580456052 46.330476552900464 102.58815522696023 -160.6200163263939 0.0 0.0
121.36789393073234 36.10870232128519 47.242978875605246 -68.25226425448713 0.0 0.0
208.9294071007432 10.274436079374645 65.76115295403534 -66.70802264428806 0.0 0.0
291.0181425921934 3.0863669161035037 88.27428521869378 -76.80944579158084 0.0 0.0
379.2611961623835 0.9032748721304507 113.27971016334233 -79.00831106933916 0.0 0.0
474.3134948431108 6.859747941680637 150.37677255734707 -75.56682682252344 0.0 0.0
531.9446126194235 23.75312077929349 198.65846194986628 -73.32058111495614 0.0 0.0
591.15909967546 37.35200195514385 248.00633989980292 -71.82157171861579 0.0 0.0
648.6917353127383 59.319567275480956 300.57812484044297 -69.32873646779913 0.0 0.0
706.8784190257629 84.62393547172611 354.04248585789867 -66.80964844373173 0.0 0.0
767.961605772584 113.0897051555712 408.86195869249315 -64.21294507834276 0.0 0.0
831.5499707815575 142.33910188913845 462.6374172301012 -62.06457822617769 0.0 0.0
891.2952159399202 168.5742179132434 509.98577800382895 -60.64873848445416 0.0 0.0
943.3788419439967 184.12700545019004 545.2615536827684 -59.93273197122138 0.0 0.0
984.4970030729334 190.30336079026068 568.9653403186106 -59.42119136241862 0.0 0.0
1015.5206155617211 190.12073351147947 584.0849708063888 -58.060207070322505 0.0 0.0
1036.037642437994 182.59000652400618 590.6338113889001 -54.21248146106383 0.0 0.0
1043.3343077288787 166.6757280393762 586.7900486120242 -45.852691459319054 0.0 0.0
1035.4101212734922 142.27760816449583 571.1881675999375 -31.084303282576762 0.0 0.0
961.8028085029291 64.20993317269784 497.87539428028197 2.5989876917265065e-11 0.0 0.0
1035.4101212735281 142.27760816458218 571.1881675999866 31.084303282708305 0.0 0.0
1043.3343077286584 166.67572803917443 586.7900486118223 45.85269145946106 0.0 0.0
1036.037642437652 182.5900065237174 590.6338113886541 54.21248146117431 0.0 0.0
1015.5206155614546 190.12073351125878 584.0849708061212 58.06020707043549 0.0 0.0
984.4970030725902 190.30336078994878 568.9653403183205 59.42119136247036 0.0 0.0
943.3788419438048 184.12700545007803 545.2615536825738 59.93273197125137 0.0 0.0
891.295215939517 168.5742179129036 509.9857780034665 60.64873848447947 0.0 0.0
831.5499707812974 142.33910188897892 462.63741722984395 62.06457822620954 0.0 0.0
767.9616057725589 113.08970515570203 408.86195869240555 64.21294507839902 0.0 0.0
706.8784190254373 84.62393547153 354.04248585755715 66.80964844372465 0.0 0.0
648.6917353123567 59.31956727524801 300.57812484009435 69.32873646776615 0.0 0.0
591.1590996750879 37.35200195496082 248.00633989948 71.82157171860324 0.0 0.0
531.9446126192797 23.75312077943008 198.65846194971354 73.32058111495127 0.0 0.0
474.31349484295407 6.8597479418613165 150.37677255726402 75.56682682250613 0.0 0.0
379.2611961620708 0.9032748723898707 113.27971016334078 79.00831106925695 0.0 0.0
291.0181425920215 3.086366916183576 88.27428521866695 76.80944579147815 0.0 0.0
208.9294071006898 10.274436079458287 65.76115295404442 66.70802264416315 0.0 0.0
121.36789393071729 36.10870232121391 47.24297887557935 68.25226425436425 0.0 0.0
229.2564580454185 46.33047655287611 102.58815522682599 160.62001632619518 0.0 0.0
-465.5153552346783 -1064.570812093582 -597.2202371059238 58.28882234857114 0.0 0.0
-349.35734450263396 -914.6012546555767 -466.33400053543403 -67.58373540746265 0.0 0.0
158.40274735408505 -11.748115189312882 55.22450176074087 -169.29439606155208 0.0 0.0
85.58723035705312 31.653112989413557 35.17210300394 -95.04828339680226 0.0 0.0
161.8632530100067 15.971471316890254 53.350417298069075 -85.61450829648358 0.0 0.0
238.67398905956793 4.901716386128543 73.08031266859084 -94.40368277854066 0.0 0.0
315.0335724275825 0.5776650970273564 94.5627875058625 -99.53478257867141 0.0 0.0
405.88980554897523 2.853165169896251 123.87169758760402 -97.6727827234821 0.0 0.0
490.929016612812 11.299906393840905 164.17361418520696 -94.49257590759623 0.0 0.0
540.147768464467 30.972922266056283 212.26045648760032 -88.05974143577421 0.0 0.0
601.0573071818604 45.894927418116794 260.79672924212804 -86.68293616643476 0.0 0.0
657.1059791110861 67.44268330910751 311.9315925691696 -83.26452171683209 0.0 0.0
714.7534085277158 91.54893918124367 364.34135727427093 -79.97270644441635 0.0 0.0
775.1386352105009 117.5310788588445 417.01214762089097 -77.1900607489802 0.0 0.0
832.9712985076176 139.31506442370815 463.28735923267993 -75.49420465833401 0.0 0.0
882.9012422284239 153.8306240751322 498.51602232749303 -74.53278039047949 0.0 0.0
922.9827171323271 160.1251555584208 522.4056373826228 -73.52564611514758 0.0 0.0
954.7919781704451 158.73713313991587 537.3409817869158 -72.08094461504967 0.0 0.0
978.0188489241131 153.97590164329733 546.6866875989804 -67.91203938979986 0.0 0.0
988.8983504643741 141.0837717144371 546.328718774432 -57.997408360002105 0.0 0.0
980.546444567662 113.90576093289162 529.2818761575008 -39.5640456061857 0.0 0.0
881.1125001117654 9.533830224444074 431.1220173279413 5.352873699848715e-11 0.0 0.0
980.5464445678682 113.90576093315534 529.2818761576783 39.564045606337224 0.0 0.0
988.8983504638976 141.08377171398556 546.3287187741247 57.99740836013783 0.0 0.0
978.0188489239466 153.97590164319791 546.6866875988637 67.91203938995926 0.0 0.0
954.7919781705459 158.73713314009063 537.3409817869027 72.08094461516872 0.0 0.0
922.9827171314162 160.12515555751938 522.4056373819229 73.52564611517047 0.0 0.0
882.9012422283853 153.83062407520939 498.5160223274267 74.53278039058434 0.0 0.0
832.9712985071344 139.31506442323735 463.2873592322885 75.49420465831979 0.0 0.0
775.1386352104577 117.53107885891477 417.0121476207953 77.19006074900443 0.0 0.0
714.7534085276886 91.54893918135666 364.3413572741804 79.9727064444248 0.0 0.0
657.1059791108669 67.44268330902722 311.9315925689208 83.2645217168201 0.0 0.0
601.0573071814345 45.894927417839 260.79672924174747 86.68293616636493 0.0 0.0
540.1477684640657 30.9729222658578 212.26045648727955 88.05974143579812 0.0 0.0
490.9290166126074 11.299906393928408 164.17361418505652 94.49257590761712 0.0 0.0
405.88980554857443 2.8531651699280927 123.87169758747756 97.67278272340502 0.0 0.0
315.03357242731073 0.577665097092009 94.56278750580782 99.53478257855822 0.0 0.0
238.673989059468 4.90171638628001 73.08031266860561 94.403682778438 0.0 0.0
161.8632530099732 15.971471316984074 53.35041729808717 85.61450829634711 0.0 0.0
85.58723035702948 31.653112989378332 35.17210300392234 95.04828339666506 0.0 0.0
158.40274735388985 -11.748115189286558 55.22450176064483 169.2943960613573 0.0 0.0
-349.35734450189204 -914.6012546546468 -466.33400053458183 67.58373540748781 0.0 0.0
-252.84900059173518 -773.2864354004298 -356.6459361151991 -75.48692035272302 0.0 0.0
104.95716765480009 -57.45708727048941 20.503714867654583 -173.05453518729337 0.0 0.0
55.57296242985958 24.408035536941306 23.994299390040265 -117.53598595605389 0.0 0.0
118.41450602852714 19.608453990195084 41.40688800561666 -104.17091757230807 0.0 0.0
185.97763594681493 7.503134915327066 58.0510300969959 -110.37866640631918 0.0 0.0
251.7880874708108 0.6431237163796738 75.68068774643571 -117.41194037346989 0.0 0.0
331.03488371492597 -2.4326981933255416 97.55672148948592 -120.65219906979857 0.0 0.0
413.30496340813085 5.894310066726389 130.0590425779268 -114.70015189190667 0.0 0.0
490.51486557285546 13.03607068139438 168.92238604543812 -111.66298306655509 0.0 0.0
539.5330751654076 34.84905850392784 216.21677095739307 -102.72125931620637 0.0 0.0
598.2616696451179 49.59046163404496 262.969420165022 -99.88901345239823 0.0 0.0
653.239856927601 69.17637631799319 312.5058325049136 -96.14463834413004 0.0 0.0
710.7420152755448 91.24053883826423 363.7753423970707 -92.75445504552776 0.0 0.0
765.9226298293838 110.34372957780413 410.26013991321327 -90.57702830540963 0.0 0.0
814.482640105634 123.11462795040373 446.46173249099644 -88.9858197853279 0.0 0.0
854.6932433050057 127.0803858441103 470.4104161795212 -88.00664649614217 0.0 0.0
886.168129875074 128.59969805677366 487.1654624236116 -85.85793083672904 0.0 0.0
913.0229568941902 125.57911798523826 499.35548317968835 -81.5129765420711 0.0 0.0
928.7859572461091 115.00969199547099 502.8742995746671 -70.82085241132509 0.0 0.0
921.1310461389105 86.12291900796882 485.64262039967883 -49.26256324130248 0.0 0.0
789.8100871877284 -50.49792489791296 357.24484971894964 8.043166133120394e-11 0.0 0.0
921.131046138769 86.12291900786639 485.64262039961113 49.26256324148254 0.0 0.0
928.7859572459208 115.00969199534705 502.87429957456413 70.82085241148073 0.0 0.0
913.0229568937245 125.57911798485257 499.3554831793389 81.51297654228637 0.0 0.0
886.168129875087 128.59969805680055 487.16546242356753 85.85793083680935 0.0 0.0
854.693243304394 127.08038584352646 470.41041617906893 88.00664649610579 0.0 0.0
814.4826401051662 123.11462794999949 446.46173249063474 88.98581978541256 0.0 0.0
765.9226298289351 110.34372957739913 410.2601399128456 90.57702830539696 0.0 0.0
710.7420152751262 91.2405388378961 363.7753423967462 92.75445504553369 0.0 0.0
653.2398569275899 69.17637631813346 312.50583250485545 96.14463834412523 0.0 0.0
598.2616696447636 49.590461633784685 262.96942016470075 99.88901345235135 0.0 0.0
539.5330751651387 34.849058503842706 216.2167709571506 102.72125931613652 0.0 0.0
490.5148655724264 13.036070681183068 168.9223860451459 111.66298306655561 0.0 0.0
413.30496340754235 5.894310066313297 130.05904257759565 114.70015189188524 0.0 0.0
331.0348837145546 -2.4326981932603315 97.55672148940998 120.65219906964735 0.0 0.0
251.78808747055385 0.6431237163119701 75.68068774634025 117.41194037332856 0.0 0.0
185.9776359467287 7.503134915429149 58.05103009699995 110.37866640616787 0.0 0.0
118.4145060285373 19.608453990357592 41.406888005668456 104.170917572175 0.0 0.0
55.57296242985956 24.408035536963318 23.994299390046862 117.53598595586055 0.0 0.0
104.95716765461104 -57.45708727045853 20.50371486757845 173.05453518708876 0.0 0.0
-252.84900059116677 -773.286435399638 -356.64593611454677 75.48692035277261 0.0 0.0
-163.45859262178112 -666.9384703347648 -262.9649286482178 -96.2760279898023 0.0 0.0
55.62036090222812 -83.9438598014292 -6.558254065086234 -165.92078099650467 0.0 0.0
30.48842827688265 16.960228120700407 14.234596919274917 -135.1656165448033 0.0 0.0
77.86055842142896 21.239637809932056 29.730058869408307 -120.84517973157284 0.0 0.0
133.88806368331342 10.06730450579295 43.18789516227644 -124.4139006789448 0.0 0.0
187.62459100587324 2.241457747306576 56.96464878932933 -131.71739116064526 0.0 0.0
247.55982194762555 -0.8748793658365428 73.75683583659142 -137.34792965921315 0.0 0.0
321.01029974706444 -0.9969953393517792 95.7293177292782 -136.58858223525567 0.0 0.0
399.6005338579749 4.235811275171455 125.40970073895143 -131.51576263601413 0.0 0.0
469.27713232865807 13.132624849935233 162.00735055393753 -126.8468110718455 0.0 0.0
523.2372582837482 30.33597515889864 204.90801344545153 -117.49146605450508 0.0 0.0
576.4340878274274 46.33350213176608 250.28855175238076 -112.1086994815 0.0 0.0
632.8465440465283 64.040376665956 299.0752724544083 -108.8731873676563 0.0 0.0
685.8739873577116 79.69568859700112 345.6305091679761 -106.02480848671723 0.0 0.0
734.2000342448149 90.07349103561661 383.98354422850724 -103.93313144976044 0.0 0.0
773.9891350029309 95.07260690451334 411.08815740150015 -102.13499107620336 0.0 0.0
807.3665027109245 95.32652342719493 429.4263584217334 -100.04399343755692 0.0 0.0
836.4250681832243 95.18550610842031 444.80155525003914 -95.16432498733192 0.0 0.0
858.1571794915674 90.28912611679245 454.8405062139203 -83.89294552366604 0.0 0.0
854.3835522467189 60.9540897640114 439.92862258191536 -60.75968246245673 0.0 0.0
682.2865474437295 -116.19967771307435 273.8891847206945 6.579625733138528e-11 0.0 0.0
854.3835522464519 60.95408976380904 439.92862258175523 60.759682462639134 0.0 0.0
858.157179491386 90.28912611670033 454.8405062138073 83.89294552387686 0.0 0.0
836.4250681830341 95.18550610834042 444.80155524987384 95.16432498757179 0.0 0.0
807.366502710345 95.32652342660589 429.42635842128624 100.04399343762572 0.0 0.0
773.9891350029299 95.07260690458897 411.0881574015087 102.13499107622376 0.0 0.0
734.2000342445112 90.07349103540716 383.9835442282586 103.9331314497864 0.0 0.0
685.8739873575851 79.69568859698865 345.6305091678512 106.02480848682659 0.0 0.0
632.8465440462295 64.04037666574357 299.07527245415326 108.87318736765721 0.0 0.0
576.4340878271495 46.33350213160678 250.28855175215338 112.10869948151475 0.0 0.0
523.2372582834168 30.335975158653547 204.90801344516015 117.4914660544569 0.0 0.0
469.2771323284683 13.132624849976802 162.007350553797 126.84681107183397 0.0 0.0
399.6005338576629 4.2358112752209705 125.40970073882531 131.51576263601194 0.0 0.0
321.01029974659383 -0.9969953395021518 95.72931772910033 136.5885822352327 0.0 0.0
247.5598219474295 -0.8748793657220095 73.75683583657079 137.34792965907425 0.0 0.0
187.62459100572912 2.2414577472459833 56.96464878926907 131.71739116047368 0.0 0.0
133.88806368328326 10.067304505845238 43.187895162282615 124.41390067880089 0.0 0.0
77.86055842146554 21.239637810071528 29.730058869461114 120.84517973139602 0.0 0.0
30.488428276886076 16.960228120729905 14.234596919284792 135.1656165446042 0.0 0.0
55.620360902005174 -83.94385980136404 -6.558254065155743 165.92078099622935 0.0 0.0
-163.45859262142127 -666.9384703341607 -262.96492864778486 96.27602798988148 0.0 0.0
-121.76228180914667 -555.4363612002694 -205.09605195895742 -103.89266441548648 0.0 0.0
18.5645408526026 -99.61443675707368 -24.05191267164994 -155.66347825121028 0.0 0.0
7.622944149927013 9.304614812308571 5.079813101708007 -148.17360168916576 0.0 0.0
40.103929821336756 21.475309610028102 18.473771829409454 -134.61940730887625 0.0 0.0
82.60730736737716 12.28069663681113 28.466832715124553 -135.88839314037503 0.0 0.0
122.8551688368866 4.231180363193093 38.14659295698141 -142.75423942509343 0.0 0.0
164.22146902326324 0.32931669530677155 49.37322068744297 -149.22032368944033 0.0 0.0
216.62374780402297 -1.9007205481862373 63.73180340759312 -155.77146318219508 0.0 0.0
277.8265631501664 -0.4538823565895944 83.00757431751653 -151.7714217135105 0.0 0.0
350.5903977918864 -3.239518991542779 105.20526144343856 -149.9093117837653 0.0 0.0
412.36301587505693 6.4224725670245455 136.1743782932084 -139.71246244674603 0.0 0.0
469.71841169933833 17.933117663155144 171.8355501101663 -130.69799661231582 0.0 0.0
526.9605434236998 34.490219555113484 215.22302922541277 -125.33021800780375 0.0 0.0
579.9590064332094 46.910417120625034 259.7943041236011 -122.03177619712831 0.0 0.0
628.7754903062897 55.92587021811843 300.918176558194 -119.49672016957577 0.0 0.0
670.2390961436863 59.797214817345335 332.661378623756 -116.93751524992241 0.0 0.0
706.7391844298076 62.598477414065066 357.12667976153335 -114.29099366260803 0.0 0.0
736.7828865268715 62.962522087638874 375.89756324709094 -109.37287624008445 0.0 0.0
765.3862129908097 60.893024404228676 392.3641036551012 -97.5032901285142 0.0 0.0
774.8737401196147 38.93056902820085 389.0477460192881 -74.86330240949741 0.0 0.0
550.7927180163229 -185.47106605352934 179.2093578876041 3.7282177345332457e-11 0.0 0.0
774.8737401197916 38.930569028551915 389.04774601947736 74.86330240974218 0.0 0.0
765.3862129902024 60.893024403728596 392.36410365473427 97.50329012881586 0.0 0.0
736.7828865268986 62.962522087784684 375.8975632470918 109.37287624035483 0.0 0.0
706.7391844296062 62.598477413949134 357.12667976136123 114.2909936627493 0.0 0.0
670.2390961438904 59.797214817710866 332.6613786238908 116.93751525003441 0.0 0.0
628.7754903060543 55.92587021790784 300.91817655803743 119.49672016956002 0.0 0.0
579.9590064328996 46.91041712035904 259.7943041234009 122.03177619721163 0.0 0.0
526.9605434236898 34.49021955517173 215.22302922535928 125.33021800784154 0.0 0.0
469.7184116987107 17.933117662478995 171.8355501097114 130.69799661229484 0.0 0.0
412.36301587504835 6.422472567313907 136.17437829322301 139.7124624467327 0.0 0.0
350.5903977914567 -3.239518991807669 105.20526144321558 149.90931178368848 0.0 0.0
277.8265631499312 -0.45388235633612606 83.00757431752758 151.77142171350386 0.0 0.0
216.62374780387898 -1.9007205479842217 63.73180340761558 155.77146318212166 0.0 0.0
164.2214690231274 0.3293166953186346 49.37322068740665 149.2203236893228 0.0 0.0
122.85516883667955 4.231180362905802 38.14659295683379 142.754239424924 0.0 0.0
82.60730736733652 12.28069663678539 28.466832715104335 135.8883931402185 0.0 0.0
40.103929821334106 21.47530961004021 18.47377182941229 134.61940730867428 0.0 0.0
7.622944149996416 9.304614812463969 5.079813101775201 148.17360168896263 0.0 0.0
18.564540852512906 -99.61443675700336 -24.05191267166036 155.66347825099933 0.0 0.0
-121.76228180905103 -555.4363611996963 -205.0960519587337 103.8926644154389 0.0 0.0
-98.33128150769875 -457.19841333064903 -165.87579687392312 -104.11310358412612 0.0 0.0
-3.5257458072678265 -107.38134494093934 -33.37920568760278 -148.56748377619166 0.0 0.0
-13.405989418471592 2.4966543362201215 -3.2719290678934243 -156.29228988102477 0.0 0.0
4.63112067732023 20.61457429028559 7.573708490281747 -144.96664056236463 0.0 0.0
32.398164808789396 14.01406002636592 13.925454970679194 -144.31452150979578 0.0 0.0
57.95101073215451 6.261362324563854 19.26121680921227 -150.38410362442983 0.0 0.0
81.3857631252843 1.6737836026886688 24.90850347871536 -157.39311654650822 0.0 0.0
106.82955861599658 -0.3313234678101633 31.916241523758693 -162.35395990725974 0.0 0.0
138.92121436114854 0.4388953032223095 41.66348276408353 -163.30541049419907 0.0 0.0
177.23194895139807 -0.5470019379405215 53.30076575287748 -159.91842946867527 0.0 0.0
230.87820165804717 -3.3881540133531214 67.81608608489121 -163.55757528084507 0.0 0.0
286.3608785730688 -8.758845383087252 84.17022164558554 -156.80073066977025 0.0 0.0
342.6094045756113 -7.315264006817992 105.42038029625401 -151.71620830835238 0.0 0.0
407.5375758142288 -8.177592526165466 130.58010939752361 -145.00104614669277 0.0 0.0
457.5418900031277 0.8536770909415488 163.63146579958556 -137.07411404906725 0.0 0.0
498.0998720999139 12.850913089473433 197.30441481539214 -135.3456193110446 0.0 0.0
539.0891580002461 26.93342478791164 233.27127990798678 -136.16585180900526 0.0 0.0
575.2813548468037 27.712983808852364 263.7616305747702 -131.72447489148766 0.0 0.0
609.1760284086995 19.052269877836157 286.69223898033226 -116.94770152723524 0.0 0.0
648.8399007198494 14.98130596893046 310.76739763529963 -93.06834505127402 0.0 0.0
364.5159593322271 -261.26782388218163 58.98959491126672 1.007300909350306e-10 0.0 0.0
648.8399007197638 14.981305968899804 310.76739763530884 93.06834505153269 0.0 0.0
609.1760284085422 19.052269877980613 286.6922389802812 116.94770152758636 0.0 0.0
575.2813548470422 27.7129838092241 263.76163057489276 131.72447489179845 0.0 0.0
539.0891580001763 26.93342478778301 233.27127990789987 136.16585180910778 0.0 0.0
498.09987209966715 12.850913089293273 197.3044148152795 135.34561931112194 0.0 0.0
457.54189000273595 0.8536770905742763 163.63146579933732 137.07411404903968 0.0 0.0
407.53757581370195 -8.17759252690772 130.58010939715783 145.00104614675132 0.0 0.0
342.609404575526 -7.315264006885511 105.42038029619721 151.71620830843995 0.0 0.0
286.36087857260304 -8.758845383791677 84.17022164522415 156.80073066972872 0.0 0.0
230.87820165817618 -3.3881540127597534 67.81608608510582 163.55757528080784 0.0 0.0
177.2319489511253 -0.5470019382673481 53.30076575269553 159.9184294685495 0.0 0.0
138.9212143610527 0.438895303222512 41.66348276405628 163.30541049419728 0.0 0.0
106.8295586157914 -0.33132346807608437 31.916241523617728 162.3539599071846 0.0 0.0
81.38576312530311 1.6737836028829904 24.908503478779966 157.39311654633116 0.0 0.0
57.95101073209051 6.261362324426618 19.261216809152298 150.38410362426217 0.0 0.0
32.39816480885531 14.01406002649431 13.925454970737327 144.31452150961687 0.0 0.0
4.631120677327441 20.61457429028241 7.573708490282957 144.96664056220823 0.0 0.0
-13.405989418409302 2.496654336368312 -3.2719290678305666 156.2922898808518 0.0 0.0
-3.525745807275978 -107.38134494084764 -33.37920568757607 148.56748377603768 0.0 0.0
-98.33128150762701 -457.1984133301947 -165.87579687377522 104.1131035840509 0.0 0.0
-81.36073145848935 -366.2983252213793 -134.33805217207177 -95.76716769846279 0.0 0.0
-18.284179192207397 -108.88978225624093 -38.14739529001504 -142.1738105047064 0.0 0.0
-32.385761812564866 -2.8631230648136343 -10.572532977594104 -160.01587663564985 0.0 0.0
-28.952803453468924 19.068874038195116 -2.9646288298316907 -151.51746571758972 0.0 0.0
-16.566085090224142 15.151789490620349 -0.4241699792371947 -149.3924266609044 0.0 0.0
-6.858243800531675 8.231104741127869 0.4119042092542653 -153.86799845106418 0.0 0.0
-2.0608424589777705 3.1389919547743323 0.3217419439606277 -160.5439416031366 0.0 0.0
-0.2597191125831788 0.605917604649217 0.10318764291536553 -164.71650607749487 0.0 0.0
0.17026636439077336 -0.1669020888579147 0.00040171879637451724 -168.16438225909604 0.0 0.0
0.19343051266710276 -0.12553169209104276 0.020499452783758088 -164.24254817829015 0.0 0.0
0.11910999518974563 -0.10474012591579918 0.005653989831660766 -166.18137894807106 0.0 0.0
0.14667300051088716 -0.11831314352159428 -0.0025311356224921866 -162.05707905154827 0.0 0.0
-0.19275338476263215 0.09439485882582677 -0.026720370197949705 -159.55908383936776 0.0 0.0
-0.5506406033595468 0.5316686381006672 0.02845658310431176 -156.51950778681413 0.0 0.0
2.2023352471794055 0.3765807538195691 0.7758671260958678 -153.76496567855173 0.0 0.0
19.935379052883803 -5.0834888552196915 3.2076285454943445 -143.75082995810686 0.0 0.0
59.53612486214706 -7.430278107255585 10.431825856748866 -133.9592833195355 0.0 0.0
132.5863434690103 -13.743223275840016 23.51916142971131 -132.03494298116496 0.0 0.0
255.3149307954542 -61.88676722531704 37.22419452175812 -128.6044132311633 0.0 0.0
375.59408295431683 -61.008372765267815 109.06483394701232 -116.75748198112187 0.0 0.0
-75.94579147449657 -383.0498551408858 -168.82533721761217 2.1259438653942198e-11 0.0 0.0
375.59408295439545 -61.00837276531085 109.06483394697636 116.75748198126611 0.0 0.0
255.31493079572584 -61.886767224779895 37.22419452200563 128.60441323155592 0.0 0.0
132.58634346930472 -13.743223275459194 23.51916142994661 132.0349429815775 0.0 0.0
59.53612486223249 -7.430278107086949 10.431825856829548 133.95928331960374 0.0 0.0
19.93537905277519 -5.083488855690447 3.2076285453046225 143.75082995807855 0.0 0.0
2.202335247580102 0.3765807546214024 0.7758671264738908 153.76496567854082 0.0 0.0
-0.5506406033637745 0.5316686377460655 0.028456582984826895 156.51950778684957 0.0 0.0
-0.19275338470677994 0.09439485849781981 -0.026720370274398775 159.55908383950862 0.0 0.0
0.14667300069731581 -0.11831314348232258 -0.0025311355544470615 162.05707905153503 0.0 0.0
0.1191099951586807 -0.10474012628862406 0.005653989710799223 166.18137894806256 0.0 0.0
0.19343051283301627 -0.12553169200379166 0.020499452860437195 164.24254817818405 0.0 0.0
0.17026636445150523 -0.16690208896559167 0.0004017187824318924 168.1643822590729 0.0 0.0
-0.25971911252352875 0.6059176046571285 0.10318764293558225 164.71650607745835 0.0 0.0
-2.060842458800707 3.1389919550827234 0.3217419441061544 160.54394160298176 0.0 0.0
-6.858243800464271 8.231104741128524 0.41190420927463656 153.86799845089698 0.0 0.0
-16.566085090111567 15.151789490698777 -0.4241699791798357 149.39242666073358 0.0 0.0
-28.95280345341183 19.06887403818874 -2.9646288298165895 151.51746571741 0.0 0.0
-32.385761812486436 -2.863123064683982 -10.572532977531967 160.0158766354803 0.0 0.0
-18.28417919220214 -108.88978225615678 -38.14739528998766 142.17381050456066 0.0 0.0
-81.3607314584103 -366.2983252210248 -134.33805217194518 95.76716769836214 0.0 0.0
-65.33343386484073 -288.99039636123763 -106.2971490678235 -86.8454629752338 0.0 0.0
-29.482219611573264 -104.54810441680942 -40.208908829084756 -134.2893562818642 0.0 0.0
-49.79286001300804 -6.867443497038414 -16.99918120316943 -159.59570101028493 0.0 0.0
-60.86217697643879 17.187690340450366 -13.100802797328534 -154.06176228540699 0.0 0.0
-64.26383395963325 15.620795327915815 -14.594574408769674 -150.73037381270498 0.0 0.0
-70.90271118425098 9.893131426881968 -18.309252123993065 -153.2685306580949 0.0 0.0
-85.3821441187634 4.542294088162529 -24.21721096581047 -158.77488821884006 0.0 0.0
-107.37654695037254 1.475808869997631 -31.734480921345543 -162.597076684194 0.0 0.0
-138.60445590972043 -0.7626698018991074 -41.662883431896674 -163.25713335835326 0.0 0.0
-176.88913158529476 0.3011162543098198 -53.26633438489234 -159.88113687025034 0.0 0.0
-230.5765302904712 3.178948303848975 -67.79874026807583 -163.43742089727988 0.0 0.0
-286.2731478966881 8.671690407352862 -84.13936473450411 -157.2449899110514 0.0 0.0
-342.97608248923393 7.410006543313525 -105.50106837630373 -151.55474017572035 0.0 0.0
-408.4039825905799 9.2259042894684 -130.3876683434815 -144.6250236644677 0.0 0.0
-455.52315544283175 1.4567385059113889 -161.59630334406626 -137.69885596524972 0.0 0.0
-489.81699287784164 -2.8020225866815807 -186.78497625011084 -138.2667168974387 0.0 0.0
-512.4285427600116 -1.457268201965114 -200.5202952596807 -143.01072275678678 0.0 0.0
-520.5128768877046 11.784156003725393 -194.47311202983786 -150.49039581208623 0.0 0.0
-509.8386207484074 20.382921921859854 -170.42965100779756 -148.5666565078597 0.0 0.0
-328.866469571562 -0.7156901954386612 -121.60233220091173 -96.08430395769363 0.0 0.0
-537.1044227632992 -553.5274695896859 -504.35690711035784 -8.286349384434288e-11 0.0 0.0
-328.86646957153954 -0.7156901953193398 -121.60233220085902 96.08430395808105 0.0 0.0
-509.83862074820445 20.38292192202679 -170.42965100770004 148.5666565081868 0.0 0.0
-520.5128768879334 11.784156003358433 -194.47311203001064 150.49039581239222 0.0 0.0
-512.4285427595113 -1.4572682013524734 -200.5202952593451 143.0107227568518 0.0 0.0
-489.81699287812035 -2.802022587180531 -186.78497625032244 138.26671689748696 0.0 0.0
-455.52315544222506 1.4567385066007557 -161.59630334365679 137.6988559652712 0.0 0.0
-408.40398259018514 9.225904289777349 -130.38766834323363 144.62502366449013 0.0 0.0
-342.97608248892334 7.41000654306404 -105.50106837626667 151.55474017581182 0.0 0.0
-286.27314789607885 8.67169040770279 -84.13936473420176 157.24498991108825 0.0 0.0
-230.5765302902471 3.178948303189749 -67.79874026820373 163.4374208972403 0.0 0.0
-176.88913158481796 0.30111625447983226 -53.26633438469726 159.8811368701928 0.0 0.0
-138.6044559093527 -0.7626698017189173 -41.66288343173237 163.25713335836127 0.0 0.0
-107.37654695010262 1.4758088702102086 -31.734480921201786 162.59707668410078 0.0 0.0
-85.38214411865106 4.542294088037404 -24.217210965815415 158.77488821867016 0.0 0.0
-70.90271118412137 9.893131426835595 -18.309252123968342 153.26853065791747 0.0 0.0
-64.26383395955757 15.620795327814971 -14.594574408777584 150.73037381253732 0.0 0.0
-60.86217697637824 17.187690340352937 -13.100802797340048 154.06176228523523 0.0 0.0
-49.792860012907624 -6.867443496888198 -16.999181203093983 159.5957010101053 0.0 0.0
-29.482219611573786 -104.54810441673914 -40.208908829063866 134.289356281742 0.0 0.0
-65.33343386477907 -288.99039636095114 -106.29714906771903 86.84546297510673 0.0 0.0
-52.408053757955315 -221.74604129477544 -82.24622851581921 -77.28513451458798 0.0 0.0
-38.44634704920067 -96.25947532730487 -40.41174671295166 -124.7040952339774 0.0 0.0
-66.09107632704846 -9.45548464911478 -22.664680697329352 -155.34891019335794 0.0 0.0
-91.2969522649174 15.10321814994205 -22.859980572713642 -152.5184867289672 0.0 0.0
-110.68103509193492 15.501058706814952 -28.54620029657612 -148.33414053618299 0.0 0.0
-134.09978139108557 11.127190547258763 -36.86108089662663 -148.9465202890585 0.0 0.0
-167.1563199298941 5.210992961810352 -48.672426093096014 -150.62350977160636 0.0 0.0
-217.0857947001356 2.9079804364010116 -63.56387595516806 -156.20005320124716 0.0 0.0
-277.54379080842875 0.11408309432744179 -83.02946164889369 -151.63731702099574 0.0 0.0
-350.4086209697072 3.009046625081707 -105.19818823164186 -149.84586578664755 0.0 0.0
-412.27367926844335 -6.509369418482374 -136.15280065774056 -139.71754975792987 0.0 0.0
-469.66563876249666 -18.003535777118767 -171.8161163366075 -130.75063336178906 0.0 0.0
-527.0684993015805 -34.62260249695117 -215.30642333670036 -125.1603009954112 0.0 0.0
-580.1570338189986 -46.59825257457371 -259.7526099545331 -121.56759535926153 0.0 0.0
-627.4241205016627 -54.030314175799745 -299.42366336889916 -119.7446765310883 0.0 0.0
-662.4538662891252 -53.81502058168061 -326.23399561996274 -120.31421676747419 0.0 0.0
-684.3922676974928 -47.715102094934075 -339.852886475067 -123.91834901414883 0.0 0.0
-692.7123255167746 -40.51215920099962 -342.9702960204091 -131.32261371163776 0.0 0.0
-683.7155372228791 -29.98301912692248 -331.6680527990896 -139.9860601740233 0.0 0.0
-674.9041892410386 -39.30626509465226 -323.891951989109 -136.59498493689793 0.0 0.0
-1142.9933230810816 -758.9436641393237 -877.6434778062757 2.9249491717564524e-11 0.0 0.0
-674.9041892407897 -39.306265094666074 -323.89195198903593 136.59498493720503 0.0 0.0
-683.7155372225077 -29.983019126694295 -331.6680527989099 139.9860601743639 0.0 0.0
-692.71232551689 -40.512159201316216 -342.97029602045916 131.32261371187633 0.0 0.0
-684.3922676974825 -47.7151020949348 -339.8528864750442 123.91834901426915 0.0 0.0
-662.453866289279 -53.815020582041775 -326.2339956200474 120.31421676749187 0.0 0.0
-627.424120501654 -54.03031417592322 -299.42366336885925 119.74467653115549 0.0 0.0
-580.1570338187894 -46.59825257452804 -259.7526099543885 121.56759535931596 0.0 0.0
-527.0684993011298 -34.62260249665419 -215.30642333639386 125.160300995459 0.0 0.0
-469.6656387621405 -18.00353577699546 -171.81611633635677 130.75063336186764 0.0 0.0
-412.27367926800906 -6.5093694183679975 -136.15280065749354 139.7175497579114 0.0 0.0
-350.40862096927157 3.009046624869406 -105.19818823155111 149.84586578660853 0.0 0.0
-277.5437908077761 0.11408309466546207 -83.02946164860208 151.63731702095532 0.0 0.0
-217.08579469970772 2.9079804366202096 -63.56387595497934 156.20005320115285 0.0 0.0
-167.1563199296972 5.210992961673696 -48.67242609307848 150.6235097714663 0.0 0.0
-134.09978139080908 11.127190547407283 -36.86108089650031 148.94652028889178 0.0 0.0
-110.68103509175783 15.501058706827408 -28.54620029651991 148.3341405360478 0.0 0.0
-91.2969522648362 15.103218149845972 -22.859980572718595 152.518486728813 0.0 0.0
-66.09107632701166 -9.4554846491387 -22.66468069732528 155.34891019317493 0.0 0.0
-38.44634704916862 -96.25947532719826 -40.41174671291006 124.70409523389179 0.0 0.0
-52.40805375791195 -221.74604129457464 -82.24622851574597 77.28513451448991 0.0 0.0
-42.45826006234802 -164.0608677025627 -61.955738329473185 -67.54742293319764 0.0 0.0
-45.98829131375152 -85.35156689858948 -39.40195746370229 -113.46798834934972 0.0 0.0
-81.5686411135529 -10.606084142809022 -27.652794494137584 -147.4130133912316 0.0 0.0
-120.5120171412486 12.94896494600636 -32.26862305226669 -147.04133291476447 0.0 0.0
-155.6646573575324 14.683947379721038 -42.28920053825921 -141.83064929364832 0.0 0.0
-195.2253586614101 11.33004424737097 -55.24932066446053 -139.3234533984215 0.0 0.0
-250.588086917551 6.936790507663472 -72.5827111885657 -141.37513436649917 0.0 0.0
-321.4624480313844 1.6790009073254626 -95.62328977998558 -137.0575827969337 0.0 0.0
-399.51404822230063 -4.473103073161905 -125.43018446681651 -131.37103068438358 0.0 0.0
-469.3694525498802 -13.299843920977352 -162.03769501004254 -126.78720132634751 0.0 0.0
-523.179535799145 -30.432719550858053 -204.92300189485877 -117.43781727636157 0.0 0.0
-576.3881820048446 -46.35756789596195 -250.25004862498213 -112.15177274246385 0.0 0.0
-632.7898426126158 -64.10239675452998 -298.9944106106526 -108.79000207297753 0.0 0.0
-686.1279397977777 -79.77792483479453 -345.6799899886752 -105.54251700985469 0.0 0.0
-733.8429254961496 -89.2892086856115 -383.4729638987343 -103.6786074543329 0.0 0.0
-768.6998730516259 -90.54318121433268 -406.75921310991646 -104.59419125530405 0.0 0.0
-790.2355792782029 -82.49358223674149 -416.1880789897485 -108.84521873706862 0.0 0.0
-793.2682654639036 -65.04348011714025 -410.68627302105824 -116.18408214127689 0.0 0.0
-777.0630185695377 -42.54481742667558 -390.58828343311325 -124.82011100609331 0.0 0.0
-739.0406309376377 -19.745268107967245 -358.2415856511235 -128.68137431109074 0.0 0.0
-1537.6792832681144 -963.9149078092651 -1178.9881670429163 8.43698444441543e-11 0.0 0.0
-739.0406309372574 -19.745268107699317 -358.2415856509022 128.6813743113118 0.0 0.0
-777.0630185692274 -42.544817426522684 -390.5882834329097 124.82011100639093 0.0 0.0
-793.2682654636635 -65.04348011698342 -410.6862730208826 116.18408214143035 0.0 0.0
-790.235579278478 -82.49358223708381 -416.18807898988695 108.84521873716928 0.0 0.0
-768.69987305113 -90.54318121384085 -406.75921310954936 104.59419125523152 0.0 0.0
-733.8429254960143 -89.28920868558258 -383.47296389859093 103.6786074543894 0.0 0.0
-686.1279397977131 -79.77792483488085 -345.67998998860753 105.5425170099061 0.0 0.0
-632.7898426123747 -64.10239675445627 -298.9944106104681 108.79000207302755 0.0 0.0
-576.3881820046088 -46.357567895956805 -250.25004862475146 112.15177274250522 0.0 0.0
-523.1795357990364 -30.432719551032754 -204.9230018947423 117.43781727635482 0.0 0.0
-469.3694525494851 -13.299843920933089 -162.0376950097817 126.7872013263403 0.0 0.0
-399.51404822177733 -4.473103073030457 -125.43018446656336 131.37103068442505 0.0 0.0
-321.4624480306709 1.6790009077558443 -95.62328977964987 137.0575827968602 0.0 0.0
-250.588086917155 6.936790507758294 -72.5827111884234 141.3751343663816 0.0 0.0
-195.22535866102493 11.330044247619028 -55.24932066427101 139.32345339827475 0.0 0.0
-155.6646573573397 14.68394737965592 -42.289200538221685 141.8306492934732 0.0 0.0
-120.5120171410652 12.948964946088402 -32.26862305218722 147.0413329145894 0.0 0.0
-81.56864111346535 -10.60608414282727 -27.65279449411667 147.41301339106732 0.0 0.0
-45.988291313687945 -85.35156689843342 -39.4019574636364 113.46798834923928 0.0 0.0
-42.458260062384454 -164.06086770245568 -61.95573832945205 67.54742293312847 0.0 0.0
-35.212991320164214 -115.50932177791736 -45.21669392942447 -57.62079953471932 0.0 0.0
-52.522288041029746 -72.94357282514122 -37.639758259851284 -100.68255031015251 0.0 0.0
-96.38830030532375 -10.439565457578706 -32.048359728870736 -136.01041073287638 0.0 0.0
-148.64149233291073 10.693734510332948 -41.3924625604513 -137.5279700340975 0.0 0.0
-199.22117506022255 13.33408793923845 -55.756257042750754 -131.46925505806718 0.0 0.0
-256.4913279596532 11.79017314886596 -73.15538906407112 -127.39694604134083 0.0 0.0
-331.1622435343324 6.190542855658817 -96.71910121158908 -122.82597127307 0.0 0.0
-413.0629736479633 -5.500864966323825 -129.90903116913304 -115.03574347325298 0.0 0.0
-490.6816597766831 -13.2683989040108 -169.0093603584314 -111.47781705324661 0.0 0.0
-539.7000254501518 -35.046258285846164 -216.32287801742999 -102.60385634440337 0.0 0.0
-598.3209993022944 -49.61368060222055 -262.9958897493985 -99.88894560731038 0.0 0.0
-653.1263769442968 -69.10185118548003 -312.40415123906115 -96.19402435018773 0.0 0.0
-710.420306288408 -91.07906286953278 -363.4452687705925 -92.75164243879931 0.0 0.0
-766.0692766160046 -110.59148077954798 -410.29773596887827 -90.17749803378788 0.0 0.0
-815.4529368790861 -123.83445169327645 -447.31777365973176 -88.36710367046972 0.0 0.0
-853.4130495110562 -125.88346134870854 -469.58756661597056 -89.48641485813317 0.0 0.0
-873.0989526778951 -117.513885205447 -476.39718613593004 -93.08429631864524 0.0 0.0
-869.0682920188597 -89.10841158298528 -461.5061103050426 -99.35164893858185 0.0 0.0
-837.0499581493723 -46.9469864229814 -424.63646698565896 -108.24714723625574 0.0 0.0
-773.3869984074842 2.7231463538584038 -366.7517582499614 -116.96108894753458 0.0 0.0
-1836.3653749602959 -1168.8937126996932 -1434.5134233592396 8.069278578659578e-11 0.0 0.0
-773.3869984078101 2.723146353406108 -366.7517582501932 116.96108894773266 0.0 0.0
-837.0499581488557 -46.94698642261323 -424.6364669853124 108.24714723652907 0.0 0.0
-869.0682920189179 -89.10841158312964 -461.506110305062 99.35164893879517 0.0 0.0
-873.0989526779401 -117.51388520556401 -476.39718613594255 93.0842963187077 0.0 0.0
-853.4130495108258 -125.88346134851972 -469.5875666157343 89.48641485816354 0.0 0.0
-815.4529368788573 -123.83445169311099 -447.31777365951257 88.36710367049196 0.0 0.0
-766.0692766156592 -110.59148077932372 -410.297735968605 90.17749803382239 0.0 0.0
-710.4203062881454 -91.07906286944745 -363.44526877037293 92.75164243887977 0.0 0.0
-653.126376943986 -69.10185118531986 -312.4041512387585 96.19402435020538 0.0 0.0
-598.3209993022447 -49.61368060245523 -262.99588974928224 99.88894560730003 0.0 0.0
-539.7000254496538 -35.046258285542365 -216.32287801702313 102.60385634434566 0.0 0.0
-490.68165977630736 -13.26839890397256 -169.00936035817156 111.47781705327662 0.0 0.0
-413.0629736474647 -5.500864966221005 -129.90903116889868 115.03574347328058 0.0 0.0
-331.1622435338249 6.190542855511197 -96.71910121150374 122.82597127296233 0.0 0.0
-256.49132795927375 11.790173148890277 -73.15538906395562 127.39694604120022 0.0 0.0
-199.22117506000504 13.33408793915756 -55.756257042710665 131.4692550579178 0.0 0.0
-148.6414923326746 10.69373451047258 -41.39246256033804 137.52797003398027 0.0 0.0
-96.38830030522917 -10.439565457585333 -32.048359728844346 136.01041073274052 0.0 0.0
-52.52228804098292 -72.94357282503273 -37.63975825980469 100.68255031002818 0.0 0.0
-35.21299132016173 -115.50932177782542 -45.21669392939613 57.62079953464551 0.0 0.0
-30.35195080439569 -75.93209353289177 -31.88521330118624 -47.46016700647942 0.0 0.0
-58.150174670692564 -59.896660510840476 -35.41405055445991 -86.4463517655471 0.0 0.0
-110.52950088369249 -9.179047982228692 -35.912564659776365 -121.32624057199622 0.0 0.0
-175.84083186766324 8.425914106502645 -50.22961550461781 -124.16315369840038 0.0 0.0
-241.03036761740586 11.378846685228334 -68.93896658932925 -116.97098813937615 0.0 0.0
-315.5990804454617 10.78940305973846 -90.90698922291676 -110.40066849378957 0.0 0.0
-405.25424073082024 0.25115090096117143 -122.81058211968858 -100.70658474612775 0.0 0.0
-490.5769366358413 -11.124085995520485 -164.0908617310394 -94.7181876915314 0.0 0.0
-540.3959536667589 -31.15954836864112 -212.37375369748273 -87.8657822930626 0.0 0.0
-601.246598642124 -46.03967957585547 -260.9226312123267 -86.57768091635542 0.0 0.0
-657.1750788606176 -67.48574800493093 -311.98962368640844 -83.25293288869132 0.0 0.0
-714.5782444954182 -91.39155007123982 -364.1777970546848 -80.01941411669131 0.0 0.0
-774.5329007630853 -117.09646150544202 -416.42287969380016 -77.22626711821256 0.0 0.0
-832.7528333282322 -139.41552419716626 -463.08742050553866 -75.24815706110708 0.0 0.0
-885.1231142788779 -156.10741541357044 -500.7544143645438 -73.85107150172065 0.0 0.0
-925.9647846124801 -162.79411366132655 -525.5230839032793 -74.06498944369223 0.0 0.0
-946.2132896789436 -150.38019056812794 -529.667804201157 -77.18946204055479 0.0 0.0
-932.4740534758369 -111.8822097535425 -504.678623463779 -81.90311914247147 0.0 0.0
-880.5273227887621 -48.817083378085286 -448.55445757932716 -90.27347184567456 0.0 0.0
-792.8933100166246 25.80488251932558 -367.1309890804505 -104.80432225721403 0.0 0.0
-2102.3502304770786 -1375.4454631855651 -1672.999353009367 6.38742392311542e-11 0.0 0.0
-792.8933100167628 25.804882519061877 -367.1309890805652 104.8043222574089 0.0 0.0
-880.5273227883271 -48.81708337770588 -448.55445757904465 90.27347184586158 0.0 0.0
-932.4740534756245 -111.88220975344024 -504.67862346351444 81.90311914268028 0.0 0.0
-946.2132896789001 -150.3801905681408 -529.6678042010952 77.18946204064777 0.0 0.0
-925.9647846122193 -162.79411366115892 -525.5230839029924 74.06498944378615 0.0 0.0
-885.1231142785796 -156.1074154133246 -500.75441436429605 73.85107150174743 0.0 0.0
-832.7528333277634 -139.4155241967884 -463.0874205051732 75.24815706114589 0.0 0.0
-774.532900762905 -117.09646150538863 -416.4228796936479 77.22626711824391 0.0 0.0
-714.5782444950938 -91.3915500710703 -364.1777970543601 80.01941411672105 0.0 0.0
-657.1750788601839 -67.4857480046533 -311.9896236860204 83.2529328886377 0.0 0.0
-601.2465986417075 -46.03967957565028 -260.92263121196055 86.57768091633486 0.0 0.0
-540.3959536663307 -31.159548368473562 -212.37375369712709 87.86578229307648 0.0 0.0
-490.5769366355759 -11.124085995659536 -164.0908617308626 94.7181876915878 0.0 0.0
-405.2542407303115 0.2511509010594293 -122.81058211947719 100.70658474608062 0.0 0.0
-315.5990804451045 10.789403059605542 -90.9069892228567 110.40066849370118 0.0 0.0
-241.03036761713577 11.378846685121577 -68.93896658928448 116.97098813929671 0.0 0.0
-175.8408318674212 8.425914106582445 -50.22961550452079 124.16315369825925 0.0 0.0
-110.52950088359933 -9.17904798228586 -35.91256465976555 121.32624057186881 0.0 0.0
-58.150174670642066 -59.896660510770545 -35.41405055442379 86.44635176548752 0.0 0.0
-30.35195080437932 -75.93209353282131 -31.885213301160192 47.46016700640659 0.0 0.0
-27.489738129342868 -45.35317788021661 -21.852874802867845 -37.109578679983386 0.0 0.0
-62.68803562430883 -46.87668303342289 -32.86941559731951 -70.87975541500138 0.0 0.0
-123.87852654153085 -7.1958240277889205 -39.322305170795914 -103.44879903500221 0.0 0.0
-202.15818211587234 6.153305839290465 -58.807346025900046 -106.88427388890999 0.0 0.0
-281.9903610265502 9.491749492329378 -81.66793136134345 -99.32307864311055 0.0 0.0
-371.21331288397215 5.582360188204161 -109.73101995689575 -87.85314889648654 0.0 0.0
-472.21534732382406 -4.464766664055231 -149.06896657756067 -78.31495653430393 0.0 0.0
-531.6494374200425 -23.626654918072166 -198.55335950257881 -73.34907241210033 0.0 0.0
-591.4019948769518 -37.45168166868818 -248.14053529251285 -71.63560869960698 0.0 0.0
-648.8864704972029 -59.43900191504916 -300.7201851467288 -69.24470153616811 0.0 0.0
-706.9213768935257 -84.6376921069895 -354.08150506552545 -66.80892875002269 0.0 0.0
-767.7184685914746 -112.8574638187597 -408.6274851932265 -64.24802509158597 0.0 0.0
-830.774393722668 -141.72926701071782 -461.8975469046238 -62.09554926321508 0.0 0.0
-890.7051441634579 -168.42607223825127 -509.52406585771166 -60.575431199335235 0.0 0.0
-945.8750817848993 -186.9914854382641 -547.9369434825722 -59.49864975931525 0.0 0.0
-990.6793401117634 -196.14004829034133 -575.1945793647544 -59.1856942952875 0.0 0.0
-1012.3962826864213 -186.17520349047066 -580.94067656868 -60.738849525436336 0.0 0.0
-990.6341036286561 -138.00426581116204 -546.778625341308 -63.92703437832227 0.0 0.0
-917.3841615549566 -51.036691098980626 -468.9710473543874 -72.01468109435466 0.0 0.0
-798.6929083188043 54.26795351986753 -358.40456827101605 -93.43675230522214 0.0 0.0
-2349.335654352449 -1581.0378980746 -1900.8769630134211 4.036948553221009e-11 0.0 0.0
-798.6929083183129 54.267953520313974 -358.40456827069136 93.43675230534151 0.0 0.0
-917.3841615553396 -51.03669109943297 -468.97104735464904 72.01468109453398 0.0 0.0
-990.6341036281634 -138.00426581070002 -546.7786253408775 63.92703437839744 0.0 0.0
-1012.396282686356 -186.17520349047206 -580.9406765685633 60.73884952552653 0.0 0.0
-990.6793401113766 -196.140048289998 -575.1945793644064 59.18569429532011 0.0 0.0
-945.8750817845864 -186.99148543800064 -547.9369434822829 59.49864975931894 0.0 0.0
-890.7051441629429 -168.42607223782062 -509.52406585727135 60.5754311993688 0.0 0.0
-830.7743937226126 -141.72926701079066 -461.89754690456016 62.09554926322545 0.0 0.0
-767.71846859117 -112.85746381862954 -408.62748519292177 64.24802509166373 0.0 0.0
-706.9213768932776 -84.6376921068914 -354.0815050652552 66.80892874998511 0.0 0.0
-648.8864704967746 -59.43900191480851 -300.7201851463316 69.24470153614689 0.0 0.0
-591.4019948765364 -37.451681668515356 -248.14053529216167 71.63560869959032 0.0 0.0
-531.6494374198694 -23.626654918253372 -198.5533595024072 73.34907241212365 0.0 0.0
-472.2153473233286 -4.46476666384253 -149.0689665772578 78.31495653428455 0.0 0.0
-371.21331288354014 5.582360187954866 -109.73101995685911 87.85314889644827 0.0 0.0
-281.99036102624706 9.491749492335853 -81.66793136125574 99.32307864301714 0.0 0.0
-202.15818211565238 6.153305839350223 -58.807346025815406 106.88427388879411 0.0 0.0
-123.87852654140397 -7.195824027780538 -39.32230517075536 103.44879903490578 0.0 0.0
-62.68803562429865 -46.87668303340812 -32.86941559731202 70.87975541491855 0.0 0.0
-27.489738129381017 -45.353177880191204 -21.852874802871668 37.109578679948285 0.0 0.0
-26.069885641702665 -23.84352890411222 -14.974024363744464 -26.82944440358195 0.0 0.0
-65.63785951176675 -34.44824450299558 -30.0258312044287 -54.15980931633665 0.0 0.0
-136.19007690928066 -5.071448231138834 -42.378457542125844 -82.29103533344491 0.0 0.0
-227.60543917958177 4.31227924848557 -66.9900968201433 -85.61657136597123 0.0 0.0
-321.6379879622987 6.165746947334737 -94.46151214748652 -77.89908847755385 0.0 0.0
-428.89400601128256 0.9068223639508144 -129.09338058577367 -63.57106963464737 0.0 0.0
-512.6598076081038 -14.698123166536877 -177.20000784431986 -57.41757239835787 0.0 0.0
-571.0421758209716 -26.796243609013715 -227.25195140531324 -55.53219709421182 0.0 0.0
-630.9080557324182 -47.23054566874258 -281.0800534707466 -53.772362544689905 0.0 0.0
-689.7595695746588 -72.21128146534045 -335.53392589371595 -52.222639400396034 0.0 0.0
-749.9795449215294 -101.65556930936849 -391.1420578560829 -50.41651337746425 0.0 0.0
-814.405266579555 -133.9126675398657 -447.76741635600075 -48.5561147499883 0.0 0.0
-880.0841155833388 -167.74365890792998 -503.0957879213396 -46.80873530226242 0.0 0.0
-943.8360526958967 -194.9487987543655 -551.0743606041641 -45.87890502682427 0.0 0.0
-999.9185470596135 -215.90552795252142 -590.3223479934248 -45.26363166115999 0.0 0.0
-1046.4818602935536 -227.91857249931755 -619.6030546703035 -44.41706934078293 0.0 0.0
-1073.2846711724503 -221.59803766650842 -629.4904926919942 -44.326276920433756 0.0 0.0
-1050.7839975248876 -171.8114534279595 -593.6313424410911 -45.88486232159921 0.0 0.0
-955.9632625706988 -61.32585167416666 -493.8667060740297 -53.34164884933269 0.0 0.0
-789.5937021644821 93.59855623697271 -337.2126352519204 -81.51616673200303 0.0 0.0
-2581.295977679363 -1778.806658764494 -2117.049770559814 1.9770851622524788e-11 0.0 0.0
-789.5937021640999 93.59855623729919 -337.21263525165 81.51616673212621 0.0 0.0
-955.9632625708184 -61.325851674350446 -493.8667060741118 53.341648849526905 0.0 0.0
-1050.7839975248958 -171.81145342798527 -593.631342441019 45.88486232166376 0.0 0.0
-1073.2846711721388 -221.59803766624512 -629.4904926917287 44.32627692048155 0.0 0.0
-1046.4818602931437 -227.91857249895028 -619.6030546699031 44.41706934079523 0.0 0.0
-999.9185470593102 -215.90552795228942 -590.3223479931228 45.26363166117817 0.0 0.0
-943.8360526954015 -194.9487987539463 -551.0743606037272 45.878905026883 0.0 0.0
-880.0841155831331 -167.7436589078409 -503.0957879211549 46.80873530227873 0.0 0.0
-814.4052665790039 -133.91266753943952 -447.76741635552446 48.556114750010245 0.0 0.0
-749.9795449214965 -101.65556930950457 -391.1420578559588 50.4165133774201 0.0 0.0
-689.7595695744444 -72.2112814653537 -335.53392589347123 52.222639400413414 0.0 0.0
-630.9080557321037 -47.23054566861501 -281.0800534704198 53.772362544698794 0.0 0.0
-571.0421758206644 -26.796243608975875 -227.25195140501958 55.532197094193215 0.0 0.0
-512.6598076078901 -14.69812316665426 -177.200007844141 57.4175723983224 0.0 0.0
-428.89400601087135 0.9068223638127098 -129.09338058566792 63.571069634615604 0.0 0.0
-321.6379879619208 6.165746947414588 -94.46151214735492 77.89908847746536 0.0 0.0
-227.60543917932614 4.31227924855804 -66.9900968200443 85.61657136589587 0.0 0.0
-136.1900769091522 -5.071448231137339 -42.37845754208684 82.29103533334143 0.0 0.0
-65.63785951171275 -34.44824450298894 -30.025831204410505 54.1598093162431 0.0 0.0
-26.069885641640166 -23.84352890406944 -14.97402436371288 26.82944440358874 0.0 0.0
-25.12587723668173 -11.288051775307869 -10.924178703596878 -17.3080923693507 0.0 0.0
-66.11456357849416 -23.260080411765383 -26.81239319707786 -36.53680527713526 0.0 0.0
-147.02491798846938 -3.6030687731208917 -45.188396028477065 -57.48239978586554 0.0 0.0
-252.10016787020467 3.5314422631675617 -74.57159005679377 -60.05066537891376 0.0 0.0
-361.31383085868885 -0.4253312696967968 -108.47443413373409 -52.7446509792659 0.0 0.0
-477.2296424952802 -4.527002374077192 -149.82072242494436 -39.93103423056608 0.0 0.0
-540.1088916458392 -20.9024344911604 -201.9968701079215 -37.35170188433778 0.0 0.0
-604.9575337666888 -33.35498251306474 -254.82541442109942 -37.04134992169593 0.0 0.0
-664.1311380653104 -56.90040204798126 -310.33861028206127 -36.11864911963528 0.0 0.0
-724.6692776606509 -84.88170068222236 -366.28121915061627 -35.146770570085245 0.0 0.0
-788.7176670881724 -118.14209078630762 -424.220641911191 -34.02029856436579 0.0 0.0
-856.1647362446907 -155.15384738151104 -483.2640875631995 -32.701838322166125 0.0 0.0
-926.3458779680278 -190.79861055766514 -539.9796181650314 -31.673909606558706 0.0 0.0
-991.6396015723184 -222.58761394169866 -590.1049528808057 -31.030210427950216 0.0 0.0
-1049.6337940773717 -244.51728959454147 -630.2571404758261 -30.75422419313378 0.0 0.0
-1094.5496546326176 -254.28226448053272 -657.4085293208034 -30.048608059928206 0.0 0.0
-1122.5422210389925 -249.78958946776885 -668.8385473434241 -28.713107882946495 0.0 0.0
-1120.6501691994476 -220.59705954302746 -652.8182076220833 -28.577360015413127 0.0 0.0
-1013.7310670981192 -95.69019725980152 -539.7212066270279 -33.56760782282587 0.0 0.0
-759.6386809845482 151.42656322769616 -296.3898510882953 -66.87757203714777 0.0 0.0
-2787.7199419446447 -1954.594849419705 -2310.2462215673954 2.5728752461873228e-11 0.0 0.0
-759.6386809842584 151.42656322794411 -296.3898510880624 66.87757203726463 0.0 0.0
-1013.7310670979726 -95.69019725967348 -539.721206626904 33.56760782289365 0.0 0.0
-1120.650169199217 -220.5970595428367 -652.8182076217925 28.57736001551756 0.0 0.0
-1122.5422210387824 -249.78958946759235 -668.8385473431996 28.713107882974892 0.0 0.0
-1094.5496546321365 -254.28226448009937 -657.408529320363 30.04860805995329 0.0 0.0
-1049.6337940767394 -244.51728959396323 -630.2571404752706 30.754224193173926 0.0 0.0
-991.6396015721024 -222.5876139415564 -590.1049528805507 31.03021042793587 0.0 0.0
-926.3458779677544 -190.79861055750797 -539.9796181647882 31.67390960658257 0.0 0.0
-856.1647362443541 -155.15384738130717 -483.26408756286673 32.70183832217299 0.0 0.0
-788.7176670880507 -118.14209078634933 -424.2206419110014 34.02029856435272 0.0 0.0
-724.6692776602004 -84.88170068194393 -366.28121915020654 35.1467705700599 0.0 0.0
-664.1311380651442 -56.90040204803004 -310.3386102818197 36.11864911969135 0.0 0.0
-604.9575337664609 -33.354982513083044 -254.82541442084587 37.04134992166309 0.0 0.0
-540.1088916456686 -20.90243449133457 -201.99687010773778 37.35170188429625 0.0 0.0
-477.2296424947175 -4.5270023738875 -149.82072242465807 39.93103423054844 0.0 0.0
-361.3138308582712 -0.42533126968321877 -108.4744341336143 52.744650979207265 0.0 0.0
-252.10016786999196 3.5314422631705122 -74.57159005672833 60.05066537884625 0.0 0.0
-147.0249179883214 -3.603068773081117 -45.188396028420726 57.48239978580884 0.0 0.0
-66.11456357842602 -23.26008041175106 -26.812393197053122 36.53680527710067 0.0 0.0
-25.125877236642452 -11.2880517752899 -10.924178703579704 17.30809236940349 0.0 0.0
-22.751713592857605 -6.941289562031184 -8.907900946466636 -10.081880703238589 0.0 0.0
-62.75429944467767 -14.484420673006097 -23.171616035305124 -18.301946390153557 0.0 0.0
-155.50561197385528 -3.4876893736730876 -47.697990404258505 -28.13776436955858 0.0 0.0
-276.05897173292385 3.5768859007799927 -81.75975189431466 -29.63230640448671 0.0 0.0
-407.6565424188133 -4.543420928190479 -122.78611360286904 -25.00797290049636 0.0 0.0
-510.32030096084713 -13.252727759614588 -171.90994581883382 -18.64003503037642 0.0 0.0
-569.8914097027027 -20.32204022167837 -223.0481173187384 -19.64191407083265 0.0 0.0
-633.0815353906761 -40.792486161683364 -279.97160250145475 -19.129860649911635 0.0 0.0
-692.8997327547357 -65.80437840093856 -335.99333771346534 -18.44721839725168 0.0 0.0
-755.3460701348874 -97.55034043803929 -393.8731403424864 -18.041667844121793 0.0 0.0
-823.0227121146856 -134.93876477132667 -454.2899194342168 -17.35964663081752 0.0 0.0
-895.3179800607847 -174.73490773353035 -515.509596966215 -16.784849940851288 0.0 0.0
-967.0084912846339 -214.90441886416298 -574.1558608265141 -16.31660507729341 0.0 0.0
-1036.5652967105407 -248.87342629773192 -626.6815690905896 -15.984094951693143 0.0 0.0
-1095.7573875555415 -271.9801759723949 -667.7779104287365 -15.913715672656501 0.0 0.0
-1138.3592593439434 -279.63780367157557 -692.6186955665536 -15.563682687770632 0.0 0.0
-1159.9985927663636 -269.5001826527812 -698.1574765664766 -14.312312793401398 0.0 0.0
-1168.9115522930304 -251.99811394507344 -693.1336598631245 -13.200968506883271 0.0 0.0
-1145.6849073659127 -209.6557412467567 -661.0664260277015 -15.067830933600392 0.0 0.0
-738.2188451208465 199.9701576555662 -263.3970095009477 -41.51075282555114 0.0 0.0
-2868.85019806571 -2003.2238571825278 -2380.6024552510444 1.4235723710953607e-11 0.0 0.0
-738.2188451206763 199.97015765571945 -263.39700950079623 41.510752825594395 0.0 0.0
-1145.6849073664118 -209.6557412472879 -661.0664260280387 15.067830933603052 0.0 0.0
-1168.9115522924867 -251.99811394454576 -693.1336598626357 13.20096850695164 0.0 0.0
-1159.9985927661528 -269.50018265261826 -698.1574765662156 14.312312793432177 0.0 0.0
-1138.3592593440353 -279.63780367170597 -692.6186955665215 15.56368268777801 0.0 0.0
-1095.757387554948 -271.9801759718629 -667.7779104282295 15.913715672659842 0.0 0.0
-1036.5652967102217 -248.87342629748719 -626.6815690902367 15.984094951684561 0.0 0.0
-967.0084912841052 -214.9044188637428 -574.1558608260775 16.316605077315884 0.0 0.0
-895.3179800603858 -174.73490773325778 -515.5095969658412 16.78484994085091 0.0 0.0
-823.0227121144928 -134.9387647713046 -454.2899194339976 17.359646630828863 0.0 0.0
-755.3460701343279 -97.5503404376328 -393.8731403420022 18.041667844089165 0.0 0.0
-692.8997327547506 -65.80437840117344 -335.99333771335193 18.447218397300077 0.0 0.0
-633.0815353903263 -40.792486161565556 -279.97160250109505 19.129860649891036 0.0 0.0
-569.8914097025444 -20.322040221800286 -223.04811731853093 19.641914070803253 0.0 0.0
-510.3203009604234 -13.252727759464788 -171.90994581855048 18.640035030360238 0.0 0.0
-407.65654241827247 -4.54342092796428 -122.78611360264485 25.00797290049843 0.0 0.0
-276.05897173264924 3.5768859008063187 -81.75975189422455 29.632306404451292 0.0 0.0
-155.50561197372235 -3.487689373666567 -47.69799040421667 28.13776436952344 0.0 0.0
-62.754299444609465 -14.484420672993947 -23.17161603528102 18.30194639015743 0.0 0.0
-22.75171359277318 -6.941289562006428 -8.90790094643388 10.08188070324934 0.0 0.0
-12.663157937977731 -3.144574886870761 -4.742319847454549 -6.611478872707734 0.0 0.0
-52.18400257319455 -7.586286007563078 -17.93108657422728 -7.6459760889403405 0.0 0.0
-159.75917199372572 -4.154598002223231 -49.17413099878469 -9.621269655195798 0.0 0.0
-304.46571641813694 -3.270478837438386 -92.30648116120088 -10.491322909218448 0.0 0.0
-456.9509462647861 -23.944921335491678 -145.26901389185144 -7.136195009832301 0.0 0.0
-561.1632566130755 -45.487552209051444 -206.57479091500127 -3.340853775496818 0.0 0.0
-624.5962733682096 -59.58748829627359 -266.4383547291241 -3.9509696666421803 0.0 0.0
-697.4315402805548 -92.6805068283899 -334.625220639895 -4.083249600290516 0.0 0.0
-770.8868794931246 -132.8104635820409 -404.7452214311676 -3.8472746762438277 0.0 0.0
-853.7689767725576 -184.5239368099162 -481.68355554943344 -3.8840576697664986 0.0 0.0
-949.4789333840688 -249.0280166893025 -568.4188305585892 -3.980428266090458 0.0 0.0
-1057.6621876209442 -326.8311856333487 -665.5899986798665 -4.308423870537036 0.0 0.0
-1175.4987338639587 -411.1546535460012 -768.179997471523 -4.613609583013105 0.0 0.0
-1299.7495902339006 -499.87021405836674 -874.7293934474573 -5.046960967421809 0.0 0.0
-1419.8744110316702 -583.809287246635 -976.1073589100206 -5.554722777575417 0.0 0.0
-1522.0573978979023 -651.0518715472949 -1060.0845673860558 -5.871517006379975 0.0 0.0
-1589.0471637866324 -686.7593572504858 -1111.0593907186299 -5.5235142931399 0.0 0.0
-1600.28486540819 -672.7241774413898 -1109.3054322392238 -4.743005238239338 0.0 0.0
-1596.7690669735625 -651.0718789150017 -1097.1659981897794 -5.267942999224429 0.0 0.0
-1463.5069568488775 -507.9544453737867 -965.5842776183633 -26.710705080212165 0.0 0.0
-4005.2050847640403 -3113.476321324275 -3487.7574560599214 3.154809746774845e-12 0.0 0.0
-1463.5069568488552 -507.9544453737765 -965.5842776183387 26.710705080221253 0.0 0.0
-1596.7690669741953 -651.0718789156674 -1097.1659981902123 5.267942999197789 0.0 0.0
-1600.2848654077545 -672.7241774409866 -1109.3054322387734 4.74300523825989 0.0 0.0
-1589.0471637861629 -686.7593572500471 -1111.0593907181205 5.523514293154559 0.0 0.0
-1522.0573978982798 -651.0518715477472 -1060.0845673861331 5.871517006370343 0.0 0.0
-1419.8744110311886 -583.809287246201 -976.1073589096154 5.554722777548406 0.0 0.0
-1299.7495902332025 -499.8702140577476 -874.7293934468041 5.046960967394959 0.0 0.0
-1175.498733863199 -411.1546535453361 -768.1799974708741 4.613609583009708 0.0 0.0
-1057.6621876201266 -326.8311856326461 -665.5899986791619 4.308423870501759 0.0 0.0
-949.4789333836984 -249.02801668908663 -568.4188305582295 3.980428266063541 0.0 0.0
-853.7689767721574 -184.52393680968862 -481.6835555490467 3.884057669714384 0.0 0.0
-770.8868794931191 -132.81046358226948 -404.7452214310113 3.8472746762616374 0.0 0.0
-697.4315402797965 -92.6805068278168 -334.6252206392377 4.083249600296245 0.0 0.0
-624.5962733680734 -59.5874882964108 -266.4383547288969 3.9509696665954905 0.0 0.0
-561.163256612741 -45.48755220902009 -206.57479091473422 3.3408537754584664 0.0 0.0
-456.9509462641778 -23.944921335129983 -145.26901389153772 7.13619500988073 0.0 0.0
-304.46571641779167 -3.270478837349355 -92.30648116107493 10.491322909203099 0.0 0.0
-159.7591719935849 -4.154598002278021 -49.17413099875886 9.621269655124554 0.0 0.0
-52.184002573107804 -7.5862860075402665 -17.931086574194417 7.6459760889709685 0.0 0.0
-12.663157937952315 -3.1445748868805268 -4.742319847449851 6.611478872654242 0.0 0.0
SCALARS Strain float 6
LOOKUP_TABLE default
0.006761740496287834 -0.01318150045487191 0.0 -0.0002184788678629735 0.0 0.0
0.004471268371183405 -0.00019810656284817836 0.0 -0.0034155732113195685 0.0 0.0
0.0019424404249928934 -0.0007819477292660337 0.0 -0.00039159517242434933 0.0 0.0
0.001844279630183477 -0.0007138048690990316 0.0 -5.182505528311773e-05 0.0 0.0
0.002242692780174529 -0.0008745217204227328 0.0 -2.2735872918045066e-05 0.0 0.0
0.0029772036831422115 -0.0013422108937344432 0.0 1.2807940240852598e-05 0.0 0.0
0.004050784779043433 -0.0021413056999400578 0.0 1.8955245306651806e-06 0.0 0.0
0.005379163754149658 -0.003132358153687207 0.0 4.870423663326737e-06 0.0 0.0
0.007009396129105111 -0.004394621258573706 0.0 2.9817422313848404e-05 0.0 0.0
0.009035808152744167 -0.005996758191318258 0.0 6.489794685062979e-05 0.0 0.0
0.01164563289670387 -0.00810985982536082 0.0 0.00015561096490277588 0.0 0.0
0.015151792657943343 -0.011047262400681816 0.0 0.0003018161886683216 0.0 0.0
0.019901411512651245 -0.015189344185690595 0.0 0.00039908759334515416 0.0 0.0
0.026186836619043412 -0.020841021141234074 0.0 0.000491332226569864 0.0 0.0
0.03415487410371608 -0.02818657747596441 0.0 0.0005104844278392273 0.0 0.0
0.043649778421276555 -0.03710003742964884 0.0 0.00042626133908000414 0.0 0.0
0.05409826604332875 -0.04702901833977101 0.0 0.00023501126388804643 0.0 0.0
0.06449953703217001 -0.05699587661589231 0.0 -2.5483806158899374e-06 0.0 0.0
0.07358831402992495 -0.0657600519069643 0.0 -0.00014572219021118647 0.0 0.0
0.08005786497962526 -0.07205948537607768 0.0 -0.00021178371036585176 0.0 0.0
0.08247770070735254 -0.07448389943914904 0.0 9.900934239137626e-16 0.0 0.0
0.08005786497962167 -0.07205948537607505 0.0 0.00021178371036928824 0.0 0.0
0.07358831402991664 -0.06576005190695426 0.0 0.00014572219021359318 0.0 0.0
0.0644995370321575 -0.05699587661587985 0.0 2.5483806178222025e-06 0.0 0.0
0.05409826604331547 -0.04702901833976387 0.0 -0.00023501126388751148 0.0 0.0
0.04364977842126383 -0.037100037429638924 0.0 -0.00042626133907952253 0.0 0.0
0.034154874103702514 -0.02818657747595816 0.0 -0.0005104844278392672 0.0 0.0
0.026186836619028375 -0.02084102114122421 0.0 -0.0004913322265704365 0.0 0.0
0.01990141151263546 -0.015189344185679361 0.0 -0.0003990875933458907 0.0 0.0
0.015151792657928157 -0.01104726240066848 0.0 -0.0003018161886680348 0.0 0.0
0.01164563289669036 -0.00810985982535021 0.0 -0.00015561096490358177 0.0 0.0
0.009035808152732838 -0.005996758191308861 0.0 -6.489794685067546e-05 0.0 0.0
0.007009396129095768 -0.004394621258566268 0.0 -2.9817422314696847e-05 0.0 0.0
0.005379163754141695 -0.003132358153678994 0.0 -4.870423664181996e-06 0.0 0.0
0.00405078477903696 -0.0021413056999345856 0.0 -1.895524530117252e-06 0.0 0.0
0.0029772036831380508 -0.0013422108937318506 0.0 -1.2807940240085078e-05 0.0 0.0
0.0022426927801725955 -0.0008745217204208342 0.0 2.2735872919109383e-05 0.0 0.0
0.0018442796301825649 -0.0007138048690987378 0.0 5.182505528317874e-05 0.0 0.0
0.0019424404249918955 -0.000781947729265381 0.0 0.00039159517242259997 0.0 0.0
0.00447126837118145 -0.00019810656284810924 0.0 0.003415573211316539 0.0 0.0
0.006761740496285235 -0.013181500454857173 0.0 0.0002184788678412699 0.0 0.0
0.0043657349591948134 -0.011740087395102034 0.0 0.00014962942361936417 0.0 0.0
0.0027878526946782185 -8.003438146704143e-05 0.0 -0.0025718797272514795 0.0 0.0
0.001389437833721682 -0.000622694690495796 0.0 -0.0002730295833016973 0.0 0.0
0.0016737303229388215 -0.0006950921215047844 0.0 -0.00019668923265301323 0.0 0.0
0.0019965526636321926 -0.0008179101887036381 0.0 -0.00019984973551456239 0.0 0.0
0.0026366889984270983 -0.0012222750071043751 0.0 -0.00018371242912675262 0.0 0.0
0.003603104585855588 -0.0019661148423232265 0.0 -0.000292207361528534 0.0 0.0
0.004809349079543819 -0.0029011084841396354 0.0 -0.00035768496391181624 0.0 0.0
0.006275330346202233 -0.004087171627835952 0.0 -0.0004186528260397125 0.0 0.0
0.00808166430064665 -0.0055887201391488645 0.0 -0.0004837383727306115 0.0 0.0
0.010393047504086454 -0.0075675782622688075 0.0 -0.0005392722790852012 0.0 0.0
0.013484324873252854 -0.010310809357514543 0.0 -0.0005936216442068308 0.0 0.0
0.017704168272434415 -0.014190574704461337 0.0 -0.0007379083846741767 0.0 0.0
0.023356169241239413 -0.019532680162784585 0.0 -0.0010009090364656757 0.0 0.0
0.030585004754137567 -0.026510350150189665 0.0 -0.0013695482973504426 0.0 0.0
0.039249702156176854 -0.0350048280471305 0.0 -0.0018340753504163597 0.0 0.0
0.048812387159571584 -0.04448633395357199 0.0 -0.002291840292630537 0.0 0.0
0.05836290584335106 -0.05402766901832514 0.0 -0.002525613941503945 0.0 0.0
0.06674975353687776 -0.062452792294175496 0.0 -0.002297038803829779 0.0 0.0
0.07267940076781197 -0.06849783952950438 0.0 -0.0016265487905289201 0.0 0.0
0.07486026828389898 -0.07084952922373787 0.0 2.8915671940188403e-15 0.0 0.0
0.07267940076780849 -0.06849783952950357 0.0 0.0016265487905369933 0.0 0.0
0.0667497535368704 -0.062452792294166726 0.0 0.0022970388038378287 0.0 0.0
0.05836290584334099 -0.054027669018314524 0.0 0.002525613941509151 0.0 0.0
0.048812387159560794 -0.044486333953562884 0.0 0.0022918402926321423 0.0 0.0
0.039249702156165474 -0.03500482804712066 0.0 0.0018340753504163373 0.0 0.0
0.030585004754125192 -0.026510350150181255 0.0 0.0013695482973503468 0.0 0.0
0.023356169241226146 -0.01953268016277298 0.0 0.0010009090364656932 0.0 0.0
0.01770416827242053 -0.014190574704451373 0.0 0.0007379083846737832 0.0 0.0
0.01348432487323932 -0.01031080935750221 0.0 0.0005936216442061656 0.0 0.0
0.010393047504074274 -0.007567578262258691 0.0 0.0005392722790839629 0.0 0.0
0.008081664300636332 -0.005588720139140544 0.0 0.0004837383727298872 0.0 0.0
0.0062753303461936406 -0.00408717162782949 0.0 0.00041865282603846494 0.0 0.0
0.004809349079536595 -0.0029011084841325152 0.0 0.0003576849639103704 0.0 0.0
0.003603104585849971 -0.001966114842318907 0.0 0.00029220736152772296 0.0 0.0
0.0026366889984236284 -0.0012222750071019908 0.0 0.00018371242912681394 0.0 0.0
0.001996552663630603 -0.0008179101887025177 0.0 0.0001998497355150234 0.0 0.0
0.0016737303229381114 -0.0006950921215047019 0.0 0.00019668923265245107 0.0 0.0
0.001389437833721701 -0.000622694690495882 0.0 0.0002730295833007558 0.0 0.0
0.002787852694675968 -8.00343814664855e-05 0.0 0.0025718797272471098 0.0 0.0
0.004365734959189694 -0.011740087395087438 0.0 -0.00014962942363572798 0.0 0.0
0.003055474209547289 -0.009260485944817026 0.0 -0.0016803336249784709 0.0 0.0
0.0018696290329049516 6.642574524462872e-06 0.0 -0.0025934004734184026 0.0 0.0
0.0009796747869897794 -0.00035005164219432375 0.0 -0.00024098493075519652 0.0 0.0
0.0014327832689638702 -0.0006176081743790047 0.0 -0.0004366552281671581 0.0 0.0
0.0017741925612266784 -0.0007284078175208305 0.0 -0.0004766697939917453 0.0 0.0
0.0023032314714499773 -0.0010020942674097222 0.0 -0.000417059149589531 0.0 0.0
0.0031447447499632674 -0.001611084921345231 0.0 -0.0005923394925778211 0.0 0.0
0.004234512963666837 -0.0024462652000201398 0.0 -0.0007469422426791086 0.0 0.0
0.005540429424302653 -0.0034789306212772214 0.0 -0.0008886760473285823 0.0 0.0
0.007134232955007194 -0.004783328373730304 0.0 -0.001033751741039176 0.0 0.0
0.009158894414193774 -0.006496197211590802 0.0 -0.0011862250877274112 0.0 0.0
0.011854555609154152 -0.008863189251402556 0.0 -0.0013627216052158706 0.0 0.0
0.015542653828738182 -0.012225313772095842 0.0 -0.0016374543245971092 0.0 0.0
0.020541781975013617 -0.016931725991302337 0.0 -0.0021209529129868243 0.0 0.0
0.027005774284616833 -0.023161164307545033 0.0 -0.002823282448076507 0.0 0.0
0.03480157189880201 -0.030799337493412668 0.0 -0.0036732460286368323 0.0 0.0
0.04345734457994719 -0.03937274320586273 0.0 -0.0044753292542869276 0.0 0.0
0.05216915118944277 -0.04806474453918489 0.0 -0.004855944661256839 0.0 0.0
0.059875543600417976 -0.05581591452072514 0.0 -0.004435651209616119 0.0 0.0
0.06536802793564815 -0.06140436074813095 0.0 -0.0031235229734551777 0.0 0.0
0.06740497792976623 -0.06366848117577695 0.0 5.6001210613221275e-15 0.0 0.0
0.06536802793564486 -0.06140436074813127 0.0 0.0031235229734688885 0.0 0.0
0.059875543600411474 -0.0558159145207167 0.0 0.004435651209630085 0.0 0.0
0.05216915118943419 -0.048064744539178895 0.0 0.004855944661266584 0.0 0.0
0.043457344579937864 -0.039372743205854155 0.0 0.0044753292542902175 0.0 0.0
0.03480157189879188 -0.030799337493404882 0.0 0.003673246028635957 0.0 0.0
0.027005774284605804 -0.023161164307534808 0.0 0.002823282448076934 0.0 0.0
0.020541781975001873 -0.016931725991290583 0.0 0.0021209529129869653 0.0 0.0
0.015542653828725932 -0.01222531377208868 0.0 0.0016374543245957158 0.0 0.0
0.011854555609142184 -0.00886318925139228 0.0 0.0013627216052142905 0.0 0.0
0.009158894414183022 -0.006496197211582278 0.0 0.0011862250877257663 0.0 0.0
0.007134232954997995 -0.004783328373723174 0.0 0.0010337517410376558 0.0 0.0
0.005540429424294835 -0.0034789306212706346 0.0 0.0008886760473272696 0.0 0.0
0.00423451296366032 -0.0024462652000135764 0.0 0.0007469422426772884 0.0 0.0
0.0031447447499585277 -0.0016110849213413652 0.0 0.0005923394925769194 0.0 0.0
0.0023032314714472243 -0.0010020942674082924 0.0 0.00041705914958870514 0.0 0.0
0.0017741925612253715 -0.0007284078175204981 0.0 0.0004766697939919488 0.0 0.0
0.0014327832689633173 -0.0006176081743785775 0.0 0.0004366552281661045 0.0 0.0
0.0009796747869899325 -0.00035005164219506783 0.0 0.00024098493075446406 0.0 0.0
0.001869629032902621 6.6425745256664705e-06 0.0 0.0025934004734117578 0.0 0.0
0.0030554742095419965 -0.009260485944803472 0.0 0.001680333624967297 0.0 0.0
0.0022410767978500957 -0.007408564290252792 0.0 -0.0020807083875364544 0.0 0.0
0.0013200853268207696 -8.57637670419504e-05 0.0 -0.0025514193482818726 0.0 0.0
0.0006887199361588122 -0.00017127951222989428 0.0 -0.0005229754441438493 0.0 0.0
0.0011760034893614042 -0.0004911999379476187 0.0 -0.0006388152776842596 0.0 0.0
0.0015525750235242137 -0.0006518327407581883 0.0 -0.0007526274555513928 0.0 0.0
0.0019925625169529017 -0.0008377337456762711 0.0 -0.0006984496685382065 0.0 0.0
0.0026880610635951676 -0.0012692274861352004 0.0 -0.0007962187224258148 0.0 0.0
0.0036517037533220073 -0.0020003161291791585 0.0 -0.0010585586337639957 0.0 0.0
0.004805448890567178 -0.0028879316969387904 0.0 -0.0012651901920792581 0.0 0.0
0.006194695798414429 -0.004000589298886551 0.0 -0.0014754047608263657 0.0 0.0
0.007942816555338026 -0.005457143884443585 0.0 -0.0017007107299630763 0.0 0.0
0.010256949186725487 -0.007462925650099773 0.0 -0.0019680880234827715 0.0 0.0
0.013428793643303598 -0.010322794275473477 0.0 -0.002355888920291695 0.0 0.0
0.017761170563580404 -0.014378709562407284 0.0 -0.002981835596480568 0.0 0.0
0.0234269735202939 -0.0198263429047753 0.0 -0.0039045529906620614 0.0 0.0
0.030327324533340635 -0.026574415516475994 0.0 -0.0050435088417049 0.0 0.0
0.03805156182240255 -0.03421345912169025 0.0 -0.006111155011804594 0.0 0.0
0.04591020443665483 -0.042046206186045335 0.0 -0.006630913040307381 0.0 0.0
0.052959939216981465 -0.049132353595113455 0.0 -0.006131400341636022 0.0 0.0
0.0580905689420893 -0.05435331019178419 0.0 -0.0042852395818558965 0.0 0.0
0.0600316809523434 -0.05661994737117239 0.0 7.926602083041523e-15 0.0 0.0
0.058090568942086064 -0.0543533101917825 0.0 0.004285239581873624 0.0 0.0
0.05295993921697579 -0.04913235359510595 0.0 0.006131400341653319 0.0 0.0
0.04591020443664753 -0.04204620618604202 0.0 0.006630913040318726 0.0 0.0
0.03805156182239418 -0.03421345912168352 0.0 0.006111155011807125 0.0 0.0
0.030327324533331514 -0.026574415516468622 0.0 0.005043508841704106 0.0 0.0
0.023426973520284382 -0.0198263429047672 0.0 0.0039045529906621456 0.0 0.0
0.017761170563570225 -0.014378709562399061 0.0 0.0029818355964802814 0.0 0.0
0.0134287936432929 -0.010322794275467112 0.0 0.002355888920290571 0.0 0.0
0.010256949186714936 -0.007462925650090222 0.0 0.001968088023480506 0.0 0.0
0.007942816555328608 -0.005457143884436374 0.0 0.001700710729960015 0.0 0.0
0.006194695798406299 -0.004000589298880006 0.0 0.0014754047608240774 0.0 0.0
0.004805448890560197 -0.0028879316969326993 0.0 0.001265190192077179 0.0 0.0
0.0036517037533164466 -0.0020003161291736525 0.0 0.0010585586337614702 0.0 0.0
0.002688061063591262 -0.0012692274861311843 0.0 0.0007962187224247736 0.0 0.0
0.00199256251695086 -0.0008377337456751801 0.0 0.0006984496685373651 0.0 0.0
0.001552575023523157 -0.0006518327407578892 0.0 0.0007526274555507771 0.0 0.0
0.0011760034893608174 -0.000491199937946895 0.0 0.0006388152776828946 0.0 0.0
0.0006887199361589945 -0.0001712795122302715 0.0 0.0005229754441420924 0.0 0.0
0.001320085326818735 -8.576376704069787e-05 0.0 0.0025514193482750547 0.0 0.0
0.0022410767978455386 -0.007408564290241183 0.0 0.0020807083875285536 0.0 0.0
0.0016775848598770174 -0.005932197668751265 0.0 -0.0019936438067557523 0.0 0.0
0.0009604944189290704 -0.0002041442392781384 0.0 -0.002453275194786389 0.0 0.0
0.0004818119478583261 -7.23727976030804e-05 0.0 -0.0008872794353083329 0.0 0.0
0.0009305936519536013 -0.0003606636596852946 0.0 -0.0008672042943757448 0.0 0.0
0.0013190596017148646 -0.0005543020122608832 0.0 -0.0010000116023764624 0.0 0.0
0.0017076811520163587 -0.0007207927896206459 0.0 -0.001009987664906766 0.0 0.0
0.00225374365052972 -0.0009906436198454428 0.0 -0.0009944880594346763 0.0 0.0
0.003060036436967151 -0.0015513240462699843 0.0 -0.0012398432611898723 0.0 0.0
0.004070603345588126 -0.0023175684625273106 0.0 -0.0015452514392796971 0.0 0.0
0.005262857342558333 -0.00324567848770101 0.0 -0.0018060699152628724 0.0 0.0
0.006745946557025652 -0.004454856876314877 0.0 -0.0020843633596956306 0.0 0.0
0.008692475280569283 -0.006112648741327982 0.0 -0.002411089788123756 0.0 0.0
0.011357701973074239 -0.008484648993272647 0.0 -0.002871987851663666 0.0 0.0
0.015029913464198585 -0.011890203040484597 0.0 -0.003590434110858652 0.0 0.0
0.019879280755378592 -0.01653374595322468 0.0 -0.004642503368735532 0.0 0.0
0.02584465009134072 -0.022357118682977094 0.0 -0.005937323803671229 0.0 0.0
0.03260693124072105 -0.029027478600961852 0.0 -0.007167910619070167 0.0 0.0
0.03958964171475584 -0.03597111879405403 0.0 -0.007835544056472564 0.0 0.0
0.04598751245654203 -0.04239391228778148 0.0 -0.007348856392630873 0.0 0.0
0.05080305526306475 -0.0473053034689889 0.0 -0.005177664023786122 0.0 0.0
0.05268002971596414 -0.049632253444052324 0.0 8.652800698172314e-15 0.0 0.0
0.05080305526306148 -0.047305303468985246 0.0 0.005177664023806022 0.0 0.0
0.04598751245653673 -0.042393912287777454 0.0 0.007348856392649945 0.0 0.0
0.039589641714749234 -0.035971118794049184 0.0 0.007835544056485101 0.0 0.0
0.032606931240713635 -0.029027478600955947 0.0 0.0071679106190746435 0.0 0.0
0.02584465009133281 -0.022357118682971102 0.0 0.005937323803671218 0.0 0.0
0.019879280755370404 -0.01653374595321749 0.0 0.004642503368734829 0.0 0.0
0.01502991346418996 -0.011890203040478184 0.0 0.0035904341108580025 0.0 0.0
0.011357701973065109 -0.008484648993264865 0.0 0.002871987851662461 0.0 0.0
0.008692475280560335 -0.006112648741319002 0.0 0.002411089788121472 0.0 0.0
0.006745946557017602 -0.00445485687630855 0.0 0.0020843633596924504 0.0 0.0
0.005262857342551328 -0.0032456784876959285 0.0 0.0018060699152598965 0.0 0.0
0.0040706033455821045 -0.002317568462523048 0.0 0.0015452514392775788 0.0 0.0
0.00306003643696254 -0.0015513240462656933 0.0 0.0012398432611880304 0.0 0.0
0.002253743650526821 -0.0009906436198426618 0.0 0.0009944880594336609 0.0 0.0
0.0017076811520147326 -0.0007207927896191297 0.0 0.0010099876649060126 0.0 0.0
0.0013190596017139415 -0.0005543020122601975 0.0 0.0010000116023751227 0.0 0.0
0.0009305936519531952 -0.00036066365968480987 0.0 0.0008672042943741207 0.0 0.0
0.00048181194785839655 -7.237279760337535e-05 0.0 0.0008872794353067355 0.0 0.0
0.00096049441892731 -0.00020414423927706853 0.0 0.0024532751947804084 0.0 0.0
0.0016775848598732652 -0.005932197668741632 0.0 0.0019936438067507684 0.0 0.0
0.001269175900259939 -0.004729761099647229 0.0 -0.0017948975743746205 0.0 0.0
0.0007097617043522979 -0.00030600343650127187 0.0 -0.00232540296112866 0.0 0.0
0.00032769832779523536 -2.2873435094421906e-05 0.0 -0.0012356276841584293 0.0 0.0
0.0007053334321275947 -0.00024296314887766243 0.0 -0.0011129886078542865 0.0 0.0
0.00107655511594202 -0.0004432430797134451 0.0 -0.0012276001941255432 0.0 0.0
0.0014297373818464942 -0.0006093893317855496 0.0 -0.0012900660359819504 0.0 0.0
0.001860606257125654 -0.0007953769205127016 0.0 -0.0012651267395805627 0.0 0.0
0.0024828073949643642 -0.0011500023205806445 0.0 -0.00135960245420623 0.0 0.0
0.003325119894547662 -0.0017583576001114144 0.0 -0.0016862891837554825 0.0 0.0
0.004338715525022102 -0.0025232175973378913 0.0 -0.0020209115823432828 0.0 0.0
0.005567100492138778 -0.0034941399821600515 0.0 -0.002329990093926166 0.0 0.0
0.0071613151589918645 -0.0048200277490254035 0.0 -0.0026933395323820598 0.0 0.0
0.009338009400323699 -0.006718645676943224 0.0 -0.003183636320069513 0.0 0.0
0.012349995165133394 -0.009478847720805376 0.0 -0.003930874005226956 0.0 0.0
0.016375516116385484 -0.013305020339123376 0.0 -0.005027097685313082 0.0 0.0
0.02139136209419205 -0.018180335074045303 0.0 -0.006379532905777112 0.0 0.0
0.02714509222121999 -0.02384335203502542 0.0 -0.00766905687797457 0.0 0.0
0.03320455415891122 -0.02984719128257845 0.0 -0.00842873065654362 0.0 0.0
0.038937033189721075 -0.03558441150781458 0.0 -0.008053437034684325 0.0 0.0
0.04346084441176229 -0.04021337624844615 0.0 -0.005812042285660572 0.0 0.0
0.04529421492394714 -0.04265067822861883 0.0 8.652583857737817e-15 0.0 0.0
0.04346084441175921 -0.04021337624844176 0.0 0.005812042285680202 0.0 0.0
0.03893703318971632 -0.03558441150781231 0.0 0.008053437034703077 0.0 0.0
0.0332045541589054 -0.029847191282573377 0.0 0.008428730656555665 0.0 0.0
0.027145092221213578 -0.023843352035018504 0.0 0.007669056877978711 0.0 0.0
0.021391362094185153 -0.01818033507404343 0.0 0.006379532905776876 0.0 0.0
0.016375516116378566 -0.013305020339116524 0.0 0.005027097685313034 0.0 0.0
0.012349995165126396 -0.009478847720801074 0.0 0.003930874005225466 0.0 0.0
0.009338009400316257 -0.006718645676935914 0.0 0.003183636320067594 0.0 0.0
0.00716131515898452 -0.00482002774901807 0.0 0.0026933395323790457 0.0 0.0
0.005567100492132182 -0.0034941399821545507 0.0 0.002329990093922695 0.0 0.0
0.004338715525016281 -0.0025232175973342384 0.0 0.002020911582339583 0.0 0.0
0.003325119894542642 -0.0017583576001082353 0.0 0.001686289183753667 0.0 0.0
0.0024828073949607196 -0.0011500023205775344 0.0 0.0013596024542049335 0.0 0.0
0.0018606062571234925 -0.0007953769205115319 0.0 0.001265126739579589 0.0 0.0
0.0014297373818452854 -0.000609389331784864 0.0 0.0012900660359806747 0.0 0.0
0.0010765551159412565 -0.0004432430797125488 0.0 0.001227600194124184 0.0 0.0
0.0007053334321272593 -0.0002429631488771702 0.0 0.0011129886078525123 0.0 0.0
0.0003276983277951965 -2.2873435094536066e-05 0.0 0.0012356276841566458 0.0 0.0
0.0007097617043509123 -0.0003060034365004158 0.0 0.002325402961124284 0.0 0.0
0.0012691759002572125 -0.004729761099639455 0.0 0.0017948975743714785 0.0 0.0
0.0009693335456772282 -0.0037348962898919574 0.0 -0.0015893843393920497 0.0 0.0
0.0005275331841186456 -0.000391525593614715 0.0 -0.0022143712391290457 0.0 0.0
0.00020526130975882556 2.689284954856785e-06 0.0 -0.0015279678174287005 0.0 0.0
0.0005005495171489182 -0.00014168982110024028 0.0 -0.001354221928440005 0.0 0.0
0.0008317166574425551 -0.0003286530555242791 0.0 -0.001435327113352152 0.0 0.0
0.0011430471458572298 -0.0004868233479899774 0.0 -0.0015237626398528642 0.0 0.0
0.0014910471400401805 -0.0006387293260180074 0.0 -0.0015431689475446072 0.0 0.0
0.0019515011156859192 -0.0008529844835803501 0.0 -0.0015493767339959353 0.0 0.0
0.0025903092397989 -0.0012453625951995239 0.0 -0.001726211167087694 0.0 0.0
0.0034127251252999966 -0.0018315273160465387 0.0 -0.002079503808016932 0.0 0.0
0.004406344009460135 -0.002584700906571766 0.0 -0.0024309944006905507 0.0 0.0
0.005662689445876417 -0.0035928453143753997 0.0 -0.0028077845840955907 0.0 0.0
0.007368009945135822 -0.005036494152114059 0.0 -0.0032931806817069393 0.0 0.0
0.009737430713623676 -0.007164377714982873 0.0 -0.004013827463487755 0.0 0.0
0.012933830542795259 -0.010165712541701186 0.0 -0.0050500114539293985 0.0 0.0
0.016975581770286033 -0.014071213679628766 0.0 -0.0063567058439959 0.0 0.0
0.021695613328396608 -0.018691746747685693 0.0 -0.007630875159703484 0.0 0.0
0.02677661006859078 -0.02370069495247256 0.0 -0.008429981749777892 0.0 0.0
0.03178422925761461 -0.028690889359982125 0.0 -0.008210465131213688 0.0 0.0
0.03601020522155975 -0.03302441205046663 0.0 -0.006164722414924061 0.0 0.0
0.03781369020953081 -0.0356205761855133 0.0 7.89320865612897e-15 0.0 0.0
0.03601020522155707 -0.03302441205046458 0.0 0.006164722414942739 0.0 0.0
0.03178422925761037 -0.028690889359978704 0.0 0.00821046513123095 0.0 0.0
0.026776610068585713 -0.023700694952469865 0.0 0.008429981749789565 0.0 0.0
0.021695613328391154 -0.018691746747680236 0.0 0.00763087515970602 0.0 0.0
0.016975581770280364 -0.014071213679626377 0.0 0.0063567058439944965 0.0 0.0
0.01293383054278955 -0.010165712541697944 0.0 0.005050011453929099 0.0 0.0
0.0097374307136181 -0.007164377714979742 0.0 0.004013827463486087 0.0 0.0
0.007368009945130056 -0.0050364941521105185 0.0 0.0032931806817052215 0.0 0.0
0.0056626894458706055 -0.003592845314369446 0.0 0.0028077845840923646 0.0 0.0
0.004406344009454784 -0.002584700906568285 0.0 0.002430994400686552 0.0 0.0
0.0034127251252953953 -0.0018315273160431308 0.0 0.002079503808013249 0.0 0.0
0.002590309239795213 -0.0012453625951977015 0.0 0.0017262111670859827 0.0 0.0
0.001951501115683376 -0.0008529844835804734 0.0 0.0015493767339951356 0.0 0.0
0.0014910471400386895 -0.0006387293260172803 0.0 0.0015431689475431725 0.0 0.0
0.0011430471458562343 -0.0004868233479898218 0.0 0.0015237626398511184 0.0 0.0
0.0008317166574419482 -0.00032865305552363255 0.0 0.0014353271133501467 0.0 0.0
0.0005005495171486473 -0.00014168982109952067 0.0 0.0013542219284382747 0.0 0.0
0.0002052613097587826 2.6892849549569254e-06 0.0 0.0015279678174261872 0.0 0.0
0.0005275331841176657 -0.0003915255936142037 0.0 0.002214371239125706 0.0 0.0
0.0009693335456752835 -0.0037348962898859873 0.0 0.0015893843393899188 0.0 0.0
0.0007321757045340206 -0.002918899687743547 0.0 -0.0014311207171900631 0.0 0.0
0.00038723080942959997 -0.00045699431535817464 0.0 -0.0021174589284270106 0.0 0.0
0.00010564990382445029 1.771660280926568e-05 0.0 -0.0017571530150824423 0.0 0.0
0.0003128482470881344 -5.518773688659563e-05 0.0 -0.0015709873365104467 0.0 0.0
0.000589581135400689 -0.00021529460869792322 0.0 -0.0016175052714876542 0.0 0.0
0.0008494575778245992 -0.0003557961827395809 0.0 -0.0017125451584458432 0.0 0.0
0.0011223897536161884 -0.0004815061967794273 0.0 -0.001769249453102745 0.0 0.0
0.0014578789696798747 -0.0006263937254058926 0.0 -0.0017828697631849721 0.0 0.0
0.0019021158999441628 -0.0008436238081999676 0.0 -0.0018164531510055973 0.0 0.0
0.002499042103016121 -0.0012102078875510583 0.0 -0.002023657877181563 0.0 0.0
0.003253614410181211 -0.0017366519164050136 0.0 -0.002369064160521982 0.0 0.0
0.004194666297752089 -0.00244855401432894 0.0 -0.0027384037346251115 0.0 0.0
0.005450667328641834 -0.0034587429423080483 0.0 -0.003197020920311857 0.0 0.0
0.007194907664239946 -0.004972507293994564 0.0 -0.00383438572595024 0.0 0.0
0.009572058855160605 -0.007155544716142725 0.0 -0.004743402433303293 0.0 0.0
0.012626871094639332 -0.010066571296021449 0.0 -0.0058750543753447095 0.0 0.0
0.016270029192847785 -0.01360579042372808 0.0 -0.00703788442845251 0.0 0.0
0.02031795087901376 -0.01756512661993039 0.0 -0.00782861593959481 0.0 0.0
0.024523797441003286 -0.021717223817358727 0.0 -0.007791424587625989 0.0 0.0
0.02839863550571351 -0.02568810297652822 0.0 -0.006195321849921176 0.0 0.0
0.030166994751018937 -0.02848704264211622 0.0 6.223970991370287e-15 0.0 0.0
0.028398635505711325 -0.02568810297652729 0.0 0.006195321849937135 0.0 0.0
0.024523797440999813 -0.02171722381735601 0.0 0.007791424587641531 0.0 0.0
0.020317950879009745 -0.01756512661992726 0.0 0.00782861593960485 0.0 0.0
0.01627002919284352 -0.01360579042372703 0.0 0.00703788442845407 0.0 0.0
0.012626871094634973 -0.010066571296016912 0.0 0.005875054375343498 0.0 0.0
0.009572058855156199 -0.007155544716139849 0.0 0.004743402433302115 0.0 0.0
0.007194907664236113 -0.004972507293991264 0.0 0.0038343857259502227 0.0 0.0
0.005450667328637726 -0.003458742942305471 0.0 0.003197020920310015 0.0 0.0
0.004194666297747717 -0.0024485540143258967 0.0 0.0027384037346229297 0.0 0.0
0.0032536144101775483 -0.0017366519164030872 0.0 0.0023690641605185053 0.0 0.0
0.0024990421030128213 -0.0012102078875483365 0.0 0.0020236578771790047 0.0 0.0
0.0019021158999416189 -0.0008436238081982006 0.0 0.0018164531510045925 0.0 0.0
0.0014578789696782022 -0.0006263937254058182 0.0 0.0017828697631848151 0.0 0.0
0.0011223897536151552 -0.00048150619677859866 0.0 0.0017692494531011587 0.0 0.0
0.0008494575778240859 -0.00035579618273959724 0.0 0.001712545158443712 0.0 0.0
0.0005895811354004403 -0.00021529460869761785 0.0 0.001617505271485747 0.0 0.0
0.0003128482470880288 -5.5187736886032355e-05 0.0 0.001570987336508148 0.0 0.0
0.00010564990382440829 1.7716602809393254e-05 0.0 0.0017571530150798553 0.0 0.0
0.00038723080942887366 -0.00045699431535790305 0.0 0.002117458928424112 0.0 0.0
0.0007321757045325512 -0.0029188996877392843 0.0 0.0014311207171888907 0.0 0.0
0.0005518102964494558 -0.0023163996863862033 0.0 -0.001376637886072069 0.0 0.0
0.00027555300353358553 -0.00048575662068582777 0.0 -0.002019931756485596 0.0 0.0
1.6532976027784602e-05 2.7481768100102595e-05 0.0 -0.0019256777565805601 0.0 0.0
0.00014059602694752748 1.9509995574021215e-05 0.0 -0.0017500522950153917 0.0 0.0
0.0003519244853442116 -0.00010521481190558581 0.0 -0.001766600339917366 0.0 0.0
0.0005511729562018857 -0.00022070707188776343 0.0 -0.0018578724156790506 0.0 0.0
0.0007466883953399599 -0.00031884038252793384 0.0 -0.0019378665541223373 0.0 0.0
0.0009747293370274334 -0.0004178196757005734 0.0 -0.001976628827929387 0.0 0.0
0.0012609394526816847 -0.0005401789424594979 0.0 -0.001991011577498363 0.0 0.0
0.001634288831071399 -0.0007291765505838349 0.0 -0.0020323823415295266 0.0 0.0
0.0021256904184289646 -0.001015770684958385 0.0 -0.002241747044829669 0.0 0.0
0.00275246437791457 -0.00143349021896925 0.0 -0.002511187683785355 0.0 0.0
0.0035810451090800915 -0.0020276975246716383 0.0 -0.002894984585008047 0.0 0.0
0.004727674398864152 -0.0029543469435092807 0.0 -0.0034190291046148273 0.0 0.0
0.0063026788815256805 -0.004331439807360476 0.0 -0.004127633558507245 0.0 0.0
0.008363548080371824 -0.006238152701202249 0.0 -0.005018353651560048 0.0 0.0
0.010900273738095899 -0.008647345054885085 0.0 -0.0059700834423330644 0.0 0.0
0.013852178160881658 -0.011500892217158451 0.0 -0.006710347468375967 0.0 0.0
0.0171432565017119 -0.014705969819611617 0.0 -0.006789303320729611 0.0 0.0
0.02056911974966477 -0.018163415639330556 0.0 -0.005786989083698978 0.0 0.0
0.02227277963203559 -0.021183717612334785 0.0 4.365648467730132e-15 0.0 0.0
0.02056911974966334 -0.01816341563932769 0.0 0.00578698908371207 0.0 0.0
0.017143256501709205 -0.014705969819611874 0.0 0.006789303320744056 0.0 0.0
0.01385217816087851 -0.011500892217154954 0.0 0.0067103474683836775 0.0 0.0
0.010900273738092828 -0.008647345054882998 0.0 0.005970083442334365 0.0 0.0
0.008363548080368863 -0.006238152701197877 0.0 0.005018353651559109 0.0 0.0
0.006302678881522884 -0.004331439807358883 0.0 0.004127633558505934 0.0 0.0
0.004727674398861815 -0.0029543469435084958 0.0 0.003419029104615487 0.0 0.0
0.00358104510907764 -0.0020276975246691967 0.0 0.00289498458500641 0.0 0.0
0.002752464377911942 -0.0014334902189701388 0.0 0.002511187683783342 0.0 0.0
0.002125690418426644 -0.0010157706849554737 0.0 0.002241747044826938 0.0 0.0
0.0016342888310694507 -0.0007291765505837214 0.0 0.002032382341527636 0.0 0.0
0.001260939452680228 -0.0005401789424579827 0.0 0.001991011577498272 0.0 0.0
0.0009747293370265084 -0.0004178196756994873 0.0 0.001976628827928795 0.0 0.0
0.0007466883953393362 -0.0003188403825276305 0.0 0.0019378665541209227 0.0 0.0
0.0005511729562015172 -0.00022070707188867885 0.0 0.0018578724156769464 0.0 0.0
0.0003519244853440708 -0.0001052148119056183 0.0 0.0017666003399152926 0.0 0.0
0.0001405960269474918 1.9509995574081426e-05 0.0 0.0017500522950127657 0.0 0.0
1.6532976027798558e-05 2.7481768100672628e-05 0.0 0.0019256777565780118 0.0 0.0
0.00027555300353312485 -0.0004857566206854267 0.0 0.0020199317564829886 0.0 0.0
0.0005518102964484911 -0.002316399686383454 0.0 0.0013766378860712019 0.0 0.0
0.00043442133024706715 -0.001877232313671609 0.0 -0.0013385519878332671 0.0 0.0
0.00019471107678260206 -0.0004832836696542221 0.0 -0.0019335986850274097 0.0 0.0
-6.586426357222754e-05 3.750173527193775e-05 0.0 -0.002031599578215239 0.0 0.0
-1.9126820784249834e-05 8.476562770002497e-05 0.0 -0.00188456632731074 0.0 0.0
0.00012011232608248784 5.630335291812129e-07 0.0 -0.001876499288609404 0.0 0.0
0.0002514459973502969 -8.449881761843551e-05 0.0 -0.001954516628021759 0.0 0.0
0.00036688179703868126 -0.00015094569662530452 0.0 -0.0020436772386933314 0.0 0.0
0.00048500088215466873 -0.00020817192881077856 0.0 -0.002097944078142023 0.0 0.0
0.0006308872014949096 -0.000268840016638001 0.0 -0.00212069865884492 0.0 0.0
0.0008137888703674467 -0.0003538174448347764 0.0 -0.0021242145644671606 0.0 0.0
0.001054313619035357 -0.0004637013515761862 0.0 -0.002190389224427518 0.0 0.0
0.001360605068777354 -0.0006370605591062201 0.0 -0.0023498248040091513 0.0 0.0
0.001761295043346297 -0.0008798660016162023 0.0 -0.0025887431356455314 0.0 0.0
0.0023314975331749114 -0.0012716173478037366 0.0 -0.0029483787150289334 0.0 0.0
0.0031265802981860925 -0.0018825262323987832 0.0 -0.00346346807596895 0.0 0.0
0.004197264258191307 -0.0027807538581817487 0.0 -0.004162413941309364 0.0 0.0
0.005594110917094983 -0.003995523191702694 0.0 -0.0049830700645062285 0.0 0.0
0.007410466436937908 -0.005676954498477055 0.0 -0.0057104423943777705 0.0 0.0
0.009691235544186615 -0.007861394469652882 0.0 -0.005845938719877277 0.0 0.0
0.012473450124755633 -0.010524272916107467 0.0 -0.005021941746355558 0.0 0.0
0.014004680559382273 -0.013680205098659644 0.0 4.207788631416243e-15 0.0 0.0
0.01247345012475502 -0.010524272916107075 0.0 0.00502194174636561 0.0 0.0
0.009691235544184973 -0.007861394469651369 0.0 0.0058459387198888015 0.0 0.0
0.007410466436936001 -0.0056769544984736795 0.0 0.005710442394383043 0.0 0.0
0.005594110917093524 -0.003995523191701806 0.0 0.004983070064506642 0.0 0.0
0.004197264258189801 -0.002780753858181323 0.0 0.004162413941308299 0.0 0.0
0.003126580298184838 -0.0018825262323995417 0.0 0.0034634680759688275 0.0 0.0
0.002331497533174213 -0.0012716173478063092 0.0 0.002948378715030144 0.0 0.0
0.0017612950433454851 -0.0008798660016158095 0.0 0.0025887431356447967 0.0 0.0
0.0013606050687764973 -0.0006370605591084262 0.0 0.0023498248040076204 0.0 0.0
0.0010543136190345863 -0.0004637013515735416 0.0 0.0021903892244253876 0.0 0.0
0.0008137888703668301 -0.000353817444835723 0.0 0.0021242145644653648 0.0 0.0
0.0006308872014945054 -0.0002688400166378424 0.0 0.0021206986588450973 0.0 0.0
0.000485000882154264 -0.00020817192881159783 0.0 0.002097944078141137 0.0 0.0
0.0003668817970383998 -0.00015094569662446768 0.0 0.002043677238691172 0.0 0.0
0.0002514459973502782 -8.449881761893933e-05 0.0 0.0019545166280196913 0.0 0.0
0.00012011232608253503 5.630335296389088e-07 0.0 0.0018764992886070356 0.0 0.0
-1.9126820784210857e-05 8.476562769999648e-05 0.0 0.001884566327308707 0.0 0.0
-6.586426357223331e-05 3.75017352724902e-05 0.0 0.0020315995782130615 0.0 0.0
0.00019471107678236194 -0.0004832836696537615 0.0 0.001933598685025341 0.0 0.0
0.000434421330246634 -0.0018772323136698277 0.0 0.0013385519878324928 0.0 0.0
0.00034460838885743707 -0.0015086026065613185 0.0 -0.0012458876310891256 0.0 0.0
0.00012907021952243838 -0.0004597129329993652 0.0 -0.0018482779255567022 0.0 0.0
-0.00014176903909746008 5.0126203387514866e-05 0.0 -0.0020797534791411167 0.0 0.0
-0.00016890159651842767 0.00014320448002821669 0.0 -0.001969521074977322 0.0 0.0
-0.00010490774453454134 0.00010123081337685936 0.0 -0.001942192131836616 0.0 0.0
-4.725370454883439e-05 5.0823234848535283e-05 0.0 -0.0020000950971803028 0.0 0.0
-1.5463998873698643e-05 1.8263781753213048e-05 0.0 -0.0020840610070078213 0.0 0.0
-2.3566052511723984e-06 3.255377521135235e-06 0.0 -0.002141986794767193 0.0 0.0
1.089896392786742e-06 -1.0823644041283095e-06 0.0 -0.0021496349014757483 0.0 0.0
1.1424474201344537e-06 -9.656508734148182e-07 0.0 -0.0021706787673667375 0.0 0.0
8.416754492235042e-07 -8.016277310122896e-07 0.0 -0.0021952934552950483 0.0 0.0
6.739631052693625e-07 -6.223056625357843e-07 0.0 -0.00233544100678558 0.0 0.0
-8.242417134533885e-07 5.74083921183877e-07 0.0 -0.002479362296891746 0.0 0.0
-3.983458156411185e-06 4.002427392102117e-06 0.0 -0.0027275301197273233 0.0 0.0
3.94576133690345e-06 2.7638049172859952e-06 0.0 -0.0031595722229384657 0.0 0.0
6.891775200217179e-05 -3.2798714515854584e-05 0.0 -0.0038226920846910267 0.0 0.0
0.00031523739541579733 -0.00019016205019251655 0.0 -0.004712827964386202 0.0 0.0
0.000987900623261561 -0.0007031760600157981 0.0 -0.005677051729184765 0.0 0.0
0.0022922805746457835 -0.0018309758584619926 0.0 -0.0064797661628940295 0.0 0.0
0.004225255096946115 -0.003377954008673996 0.0 -0.006418666584146794 0.0 0.0
0.005335460528665753 -0.006591102496331743 0.0 4.704570066849101e-15 0.0 0.0
0.004225255096946182 -0.0033779540086740596 0.0 0.006418666584155323 0.0 0.0
0.002292280574645228 -0.0018309758584593254 0.0 0.006479766162902146 0.0 0.0
0.0009879006232611513 -0.0007031760600135667 0.0 0.005677051729188257 0.0 0.0
0.00031523739541606285 -0.00019016205019211326 0.0 0.004712827964385477 0.0 0.0
6.891775200247526e-05 -3.279871451769613e-05 0.0 0.0038226920846891038 0.0 0.0
3.945761337272242e-06 2.76380492007829e-06 0.0 0.0031595722229381873 0.0 0.0
-3.983458155623837e-06 4.002427390357988e-06 0.0 0.0027275301197276854 0.0 0.0
-8.242417124893159e-07 5.740839195225066e-07 0.0 0.002479362296891728 0.0 0.0
6.739631060665764e-07 -6.223056627454961e-07 0.0 0.00233544100678464 0.0 0.0
8.416754498165356e-07 -8.016277326547949e-07 0.0 0.0021952934552933873 0.0 0.0
1.1424474207223488e-06 -9.656508733429864e-07 0.0 0.002170678767365489 0.0 0.0
1.089896393266149e-06 -1.0823644047295199e-06 0.0 0.0021496349014756455 0.0 0.0
-2.3566052509155916e-06 3.2553775210539605e-06 0.0 0.0021419867947668064 0.0 0.0
-1.5463998873495586e-05 1.826378175427192e-05 0.0 0.0020840610070059482 0.0 0.0
-4.7253704548532874e-05 5.0823234848410654e-05 0.0 0.002000095097178242 0.0 0.0
-0.0001049077445341861 0.00010123081337700083 0.0 0.0019421921318344315 0.0 0.0
-0.00016890159651815917 0.00014320448002807986 0.0 0.00196952107497503 0.0 0.0
-0.00014176903909735597 5.012620338795119e-05 0.0 0.002079753479138965 0.0 0.0
0.0001290702195222934 -0.0004597129329989866 0.0 0.0018482779255547814 0.0 0.0
0.00034460838885714434 -0.0015086026065599055 0.0 0.0012458876310878757 0.0 0.0
0.00026626414881938807 -0.0011875061074071921 0.0 -0.0011289910186780396 0.0 0.0
6.972534916725643e-05 -0.0004182038148821915 0.0 -0.0017457170408440026 0.0 0.0
-0.00021317953677373356 6.58605673473017e-05 0.0 -0.002075003443371528 0.0 0.0
-0.0003103987970794307 0.00019684821821279675 0.0 -0.0020024905551360205 0.0 0.0
-0.0003228843318448908 0.00019640910576391654 0.0 -0.001959756837706864 0.0 0.0
-0.0003420657067484402 0.00018342804298571603 0.0 -0.0019933219479060143 0.0 0.0
-0.0003965108815069001 0.00018639675951407744 0.0 -0.002057281075367505 0.0 0.0
-0.0004896111478415214 0.0002143407098380804 0.0 -0.0021003364651246094 0.0 0.0
-0.0006287656732713648 0.0002667056549843324 0.0 -0.00211973684197353 0.0 0.0
-0.000811595284012786 0.00035188658458103114 0.0 -0.0021231440645973 0.0 0.0
-0.0010526449392072763 0.00046225229469788016 0.0 -0.002189930453818422 0.0 0.0
-0.0013592068809003856 0.0006357252364527068 0.0 -0.0023497522793390537 0.0 0.0
-0.0017624831911809374 0.0008803489025364882 0.0 -0.0025865774092786206 0.0 0.0
-0.002339141603422054 0.0012800101101328666 0.0 -0.0029393629972211495 0.0 0.0
-0.0031234615677604603 0.0018921361271984883 0.0 -0.0034644622489970415 0.0 0.0
-0.0040733525345423485 0.0027145445511130802 0.0 -0.004255420234751773 0.0 0.0
-0.0050128441706620355 0.003584031958218722 0.0 -0.005330509648899241 0.0 0.0
-0.0056120027240821055 0.004205599058254467 0.0 -0.006663285029880861 0.0 0.0
-0.0054355109530988335 0.004115740253430143 0.0 -0.008150026133040162 0.0 0.0
-0.0038320769467634864 0.002929707962827663 0.0 -0.008789867715219822 0.0 0.0
-0.0025691462106573037 -0.0006208313882693824 0.0 5.479124098872745e-15 0.0 0.0
-0.00383207694676387 0.0029297079628284326 0.0 0.008789867715229284 0.0 0.0
-0.005435510953098455 0.004115740253430702 0.0 0.008150026133047819 0.0 0.0
-0.005612002724080415 0.004205599058251241 0.0 0.0066632850298844176 0.0 0.0
-0.005012844170659791 0.0035840319582193716 0.0 0.005330509648898895 0.0 0.0
-0.004073352534540209 0.002714544551108963 0.0 0.004255420234749933 0.0 0.0
-0.003123461567758581 0.0018921361272000187 0.0 0.0034644622489964213 0.0 0.0
-0.002339141603419763 0.0012800101101324791 0.0 0.0029393629972199365 0.0 0.0
-0.0017624831911781731 0.0008803489025339211 0.0 0.0025865774092780533 0.0 0.0
-0.0013592068808977612 0.0006357252364526054 0.0 0.0023497522793374925 0.0 0.0
-0.0010526449392049466 0.0004622522946944246 0.0 0.002189930453816836 0.0 0.0
-0.0008115952840109168 0.0003518865845808459 0.0 0.0021231440645964723 0.0 0.0
-0.0006287656732700611 0.0002667056549844528 0.0 0.002119736841973701 0.0 0.0
-0.0004896111478407292 0.0002143407098385408 0.0 0.0021003364651235672 0.0 0.0
-0.000396510881506168 0.00018639675951330972 0.0 0.0020572810753654957 0.0 0.0
-0.0003420657067477681 0.00018342804298525974 0.0 0.0019933219479037847 0.0 0.0
-0.00032288433184436124 0.00019640910576332083 0.0 0.0019597568377047766 0.0 0.0
-0.00031039879707897767 0.00019684821821224697 0.0 0.002002490555133904 0.0 0.0
-0.0002131795367735648 6.586056734778512e-05 0.0 0.002075003443369127 0.0 0.0
6.972534916711701e-05 -0.0004182038148818707 0.0 0.0017457170408424205 0.0 0.0
0.0002662641488191098 -0.0011875061074060086 0.0 0.0011289910186763877 0.0 0.0
0.0001939481359261153 -0.0009067487830632154 0.0 -0.0010047067486896439 0.0 0.0
1.2775097814381475e-05 -0.000363010235993296 0.0 -0.0016211532380417067 0.0 0.0
-0.0002822960097273863 8.587352638040104e-05 0.0 -0.0020196639010393257 0.0 0.0
-0.0004449064748317627 0.00024679904545638455 0.0 -0.001982974778655156 0.0 0.0
-0.0005335807698271621 0.0002861284164637699 0.0 -0.0019268389365615902 0.0 0.0
-0.0006310677739344574 0.00031140043045355055 0.0 -0.0019323645978259214 0.0 0.0
-0.0007724894652034828 0.0003512539590811232 0.0 -0.001963747430835537 0.0 0.0
-0.0009785103109516975 0.00042302693051389213 0.0 -0.001981036163308801 0.0 0.0
-0.0012591206183599306 0.0005382022796339403 0.0 -0.001989199784666469 0.0 0.0
-0.001632414971147076 0.0007272194459945413 0.0 -0.0020301935592039982 0.0 0.0
-0.0021243249972667856 0.0010144532985774518 0.0 -0.0022407664990056818 0.0 0.0
-0.0027509572995047566 0.0014319867177523102 0.0 -0.0025118325835167764 0.0 0.0
-0.0035805086698065232 0.0020265136195360585 0.0 -0.002891413340996249 0.0 0.0
-0.004733842172840521 0.0029608263801443103 0.0 -0.00339925688575381 0.0 0.0
-0.006308098138157618 0.004346341942064896 0.0 -0.004111357569821788 0.0 0.0
-0.00827272541648452 0.00618771965150298 0.0 -0.005144999547024723 0.0 0.0
-0.010394265035707288 0.008250344523172306 0.0 -0.006599321984430377 0.0 0.0
-0.012240263833853154 0.01008787427237679 0.0 -0.00849910116534288 0.0 0.0
-0.013067509133910388 0.010976775915612599 0.0 -0.010505812653739796 0.0 0.0
-0.011709761324272691 0.00963355651162309 0.0 -0.011070769284982067 0.0 0.0
-0.010312911420005908 0.004753750489952536 0.0 4.783066304137051e-15 0.0 0.0
-0.011709761324272882 0.009633556511623889 0.0 0.01107076928499362 0.0 0.0
-0.013067509133908958 0.010976775915612736 0.0 0.010505812653751083 0.0 0.0
-0.012240263833850016 0.01008787427237268 0.0 0.008499101165348131 0.0 0.0
-0.010394265035703369 0.008250344523168448 0.0 0.006599321984430211 0.0 0.0
-0.00827272541648076 0.006187719651498022 0.0 0.0051449995470230075 0.0 0.0
-0.006308098138154224 0.0043463419420613535 0.0 0.004111357569820462 0.0 0.0
-0.004733842172836658 0.002960826380141243 0.0 0.003399256885752832 0.0 0.0
-0.003580508669802073 0.002026513619533718 0.0 0.00289141334099467 0.0 0.0
-0.002750957299500404 0.0014319867177494182 0.0 0.0025118325835142598 0.0 0.0
-0.0021243249972628725 0.0010144532985751314 0.0 0.0022407664990025406 0.0 0.0
-0.0016324149711439376 0.0007272194459920308 0.0 0.002030193559202313 0.0 0.0
-0.0012591206183577524 0.0005382022796343265 0.0 0.001989199784665919 0.0 0.0
-0.0009785103109502793 0.0004230269305141453 0.0 0.0019810361633078896 0.0 0.0
-0.0007724894652023388 0.00035125395908013475 0.0 0.00196374743083382 0.0 0.0
-0.0006310677739335203 0.0003114004304537158 0.0 0.0019323645978239139 0.0 0.0
-0.0005335807698264005 0.0002861284164634999 0.0 0.0019268389365599456 0.0 0.0
-0.0004449064748312173 0.0002467990454557996 0.0 0.001982974778653244 0.0 0.0
-0.0002822960097271668 8.587352638021556e-05 0.0 0.0020196639010369092 0.0 0.0
1.2775097814319387e-05 -0.00036301023599287334 0.0 0.0016211532380405928 0.0 0.0
0.00019394813592592115 -0.0009067487830623865 0.0 0.0010047067486883689 0.0 0.0
0.00012673360873631374 -0.0006636833409250817 0.0 -0.0008781164981315689 0.0 0.0
-4.281117002531989e-05 -0.00029867246132676676 0.0 -0.0014750838485415468 0.0 0.0
-0.0003504632742523638 0.00011080823475136472 0.0 -0.001916411554734313 0.0 0.0
-0.0005735753560611332 0.0002939120055661152 0.0 -0.0019114957512315787 0.0 0.0
-0.0007367998837224573 0.0003702600626903162 0.0 -0.0018433148828702127 0.0 0.0
-0.0009121081182527635 0.00043381884809576396 0.0 -0.0018158305755517946 0.0 0.0
-0.0011422436046338211 0.0005097755894369143 0.0 -0.0018071500398918364 0.0 0.0
-0.0014608573681716016 0.0006300438943635124 0.0 -0.0017883715844446515 0.0 0.0
-0.001900737262876792 0.0008419025913522337 0.0 -0.001813998857315441 0.0 0.0
-0.0024975997770934435 0.0012081857941316435 0.0 -0.0020204522168153945 0.0 0.0
-0.003252732066681191 0.0017356615521914682 0.0 -0.0023682069102496993 0.0 0.0
-0.004193191219539635 0.002447199622488056 0.0 -0.002739596457806141 0.0 0.0
-0.005447200886583367 0.0034554275866277686 0.0 -0.0031940850704762847 0.0 0.0
-0.00719410491366991 0.004970933204427413 0.0 -0.003804969910047306 0.0 0.0
-0.009578655395681224 0.007165445199520235 0.0 -0.004684494725573787 0.0 0.0
-0.012581178999701436 0.010049174464949686 0.0 -0.005956738948650256 0.0 0.0
-0.01592222303088719 0.013344388549877795 0.0 -0.00785041455203261 0.0 0.0
-0.018996425902641938 0.016458429865437725 0.0 -0.010472256211323517 0.0 0.0
-0.020690503270496582 0.018270111031637934 0.0 -0.013208341309975441 0.0 0.0
-0.019210835589035052 0.016976780619641602 0.0 -0.014198808544567195 0.0 0.0
-0.017408993085490973 0.010047828369250372 0.0 5.900228222666115e-15 0.0 0.0
-0.019210835589034643 0.016976780619642935 0.0 0.014198808544580832 0.0 0.0
-0.020690503270494272 0.018270111031636966 0.0 0.013208341309989616 0.0 0.0
-0.01899642590263759 0.016458429865434526 0.0 0.010472256211330225 0.0 0.0
-0.01592222303088183 0.013344388549870936 0.0 0.007850414552032505 0.0 0.0
-0.012581178999696263 0.010049174464947224 0.0 0.0059567389486477555 0.0 0.0
-0.009578655395676344 0.007165445199515964 0.0 0.004684494725572492 0.0 0.0
-0.007194104913664547 0.004970933204422144 0.0 0.003804969910045506 0.0 0.0
-0.005447200886577315 0.003455427586622718 0.0 0.003194085070474221 0.0 0.0
-0.0041931912195336185 0.0024471996224829846 0.0 0.002739596457802774 0.0 0.0
-0.003252732066675776 0.0017356615521861517 0.0 0.0023682069102452918 0.0 0.0
-0.0024975997770889506 0.0012081857941285508 0.0 0.0020204522168128904 0.0 0.0
-0.0019007372628734626 0.0008419025913507198 0.0 0.001813998857314703 0.0 0.0
-0.0014608573681693764 0.0006300438943642463 0.0 0.001788371584444093 0.0 0.0
-0.0011422436046322933 0.0005097755894366529 0.0 0.0018071500398904963 0.0 0.0
-0.0009121081182515097 0.000433818848096156 0.0 0.0018158305755499662 0.0 0.0
-0.0007367998837214727 0.0003702600626896614 0.0 0.0018433148828680178 0.0 0.0
-0.0005735753560604616 0.00029391200556613345 0.0 0.0019114957512293314 0.0 0.0
-0.0003504632742519271 0.00011080823475110844 0.0 0.0019164115547321615 0.0 0.0
-4.281117002533502e-05 -0.00029867246132618053 0.0 0.0014750838485401102 0.0 0.0
0.0001267336087359393 -0.0006636833409245238 0.0 0.0008781164981306699 0.0 0.0
6.502406696019166e-05 -0.0004569020810152039 0.0 -0.0007490703939513513 0.0 0.0
-9.673644357766005e-05 -0.00022947479467438453 0.0 -0.0013088731540319824 0.0 0.0
-0.00041820961374694477 0.00014045716276339825 0.0 -0.0017681353395273929 0.0 0.0
-0.0006973733430670029 0.00033869290230094455 0.0 -0.0017885069264770865 0.0 0.0
-0.0009321840687907524 0.00044889738046328227 0.0 -0.0017079672706852512 0.0 0.0
-0.0011843986428519357 0.0005486855551022186 0.0 -0.001644372052186238 0.0 0.0
-0.0015035104780728586 0.0006601288742923331 0.0 -0.0015845645399202755 0.0 0.0
-0.0019527976553203787 0.0008558519157535385 0.0 -0.0015567624026953276 0.0 0.0
-0.0025897308099865754 0.001243811971908324 0.0 -0.001722537919609488 0.0 0.0
-0.0034120119222539203 0.0018298735987470646 0.0 -0.002075846144762137 0.0 0.0
-0.004406113757920936 0.0025842526186131073 0.0 -0.0024302233169652076 0.0 0.0
-0.005661400887721007 0.003592136128983332 0.0 -0.0028098592662228056 0.0 0.0
-0.007360869281587454 0.005030980005730385 0.0 -0.003292042081376518 0.0 0.0
-0.0097229604419299 0.007149043455201036 0.0 -0.003979745959086654 0.0 0.0
-0.012928080879081358 0.010154870554617163 0.0 -0.004949255326013016 0.0 0.0
-0.01698141552595476 0.014083647371003299 0.0 -0.006355618435526868 0.0 0.0
-0.02155708238442484 0.018623062336386283 0.0 -0.008487253977675243 0.0 0.0
-0.025830876335567028 0.022991510707753245 0.0 -0.011545894053545577 0.0 0.0
-0.028267950203311396 0.025650683380195362 0.0 -0.014955066012631937 0.0 0.0
-0.026408593811304615 0.02413376259069743 0.0 -0.01666599194276754 0.0 0.0
-0.024034691132210274 0.015155146110171814 0.0 6.869071283999162e-15 0.0 0.0
-0.026408593811303317 0.024133762590694115 0.0 0.016665991942783176 0.0 0.0
-0.02826795020330814 0.02565068338019455 0.0 0.014955066012648937 0.0 0.0
-0.025830876335561755 0.02299151070774753 0.0 0.011545894053555333 0.0 0.0
-0.021557082384418325 0.018623062336379455 0.0 0.008487253977677186 0.0 0.0
-0.016981415525948177 0.014083647370998004 0.0 0.006355618435525563 0.0 0.0
-0.012928080879075056 0.010154870554612087 0.0 0.004949255326011464 0.0 0.0
-0.009722960441922977 0.007149043455195797 0.0 0.003979745959084598 0.0 0.0
-0.007360869281579785 0.0050309800057238546 0.0 0.003292042081375026 0.0 0.0
-0.005661400887713517 0.003592136128977388 0.0 0.0028098592662191475 0.0 0.0
-0.0044061137579139145 0.0025842526186059477 0.0 0.002430223316960738 0.0 0.0
-0.003412011922247919 0.0018298735987434794 0.0 0.002075846144758335 0.0 0.0
-0.002589730809981936 0.0012438119719050322 0.0 0.001722537919607779 0.0 0.0
-0.0019527976553172194 0.0008558519157520506 0.0 0.0015567624026948488 0.0 0.0
-0.0015035104780707206 0.0006601288742910861 0.0 0.0015845645399195603 0.0 0.0
-0.001184398642850375 0.0005486855551016968 0.0 0.0016443720521846028 0.0 0.0
-0.0009321840687896306 0.0004488973804625143 0.0 0.0017079672706834144 0.0 0.0
-0.0006973733430661873 0.0003386929023011071 0.0 0.0017885069264755213 0.0 0.0
-0.0004182096137465013 0.00014045716276318357 0.0 0.0017681353395256265 0.0 0.0
-9.673644357765848e-05 -0.00022947479467398224 0.0 0.001308873154030366 0.0 0.0
6.502406696002358e-05 -0.0004569020810147902 0.0 0.0007490703939503914 0.0 0.0
9.966206229138527e-06 -0.0002863047215060859 0.0 -0.0006169821710842325 0.0 0.0
-0.00014778480675551226 -0.00015913696471647374 0.0 -0.0011238025729521125 0.0 0.0
-0.0004850100854554549 0.00017376785840405982 0.0 -0.001577241127435951 0.0 0.0
-0.0008166237874290097 0.00038133472089745284 0.0 -0.001614413116735703 0.0 0.0
-0.0011198382434101024 0.0005226572683670888 0.0 -0.0015221498432268627 0.0 0.0
-0.001445592611231135 0.0006541592780138549 0.0 -0.0014193200932102155 0.0 0.0
-0.001865944241215453 0.0008103168973163577 0.0 -0.0013068115419749996 0.0 0.0
-0.002484103648310096 0.0011525198795852942 0.0 -0.0013664191027029499 0.0 0.0
-0.003325292436457756 0.0017574339249919902 0.0 -0.001681749744141667 0.0 0.0
-0.004338938436465037 0.0025225206176044223 0.0 -0.002017378827950802 0.0 0.0
-0.005567538160542166 0.0034942372594382503 0.0 -0.002329285607548901 0.0 0.0
-0.0071602635233831945 0.004819968340140509 0.0 -0.002695995043528945 0.0 0.0
-0.009326924903296058 0.0067108204193714015 0.0 -0.003183058358642659 0.0 0.0
-0.012318042207781923 0.009447530651720049 0.0 -0.003896995101357257 0.0 0.0
-0.01634568953598588 0.013261719647871886 0.0 -0.0049109425999549795 0.0 0.0
-0.021434702407871684 0.01820613844351751 0.0 -0.00630110141282723 0.0 0.0
-0.02721231908675037 0.023959796517853914 0.0 -0.00837846996822905 0.0 0.0
-0.03265299788222107 0.029554928108834762 0.0 -0.011534020123635632 0.0 0.0
-0.03576085270878038 0.03300505498128803 0.0 -0.015453635152882582 0.0 0.0
-0.03344488396944529 0.031176445136289803 0.0 -0.018371267499721174 0.0 0.0
-0.030479013964229466 0.020177423870885433 0.0 7.526097800525378e-15 0.0 0.0
-0.03344488396944331 0.031176445136286764 0.0 0.01837126749973887 0.0 0.0
-0.03576085270877623 0.03300505498128606 0.0 0.015453635152899742 0.0 0.0
-0.03265299788221501 0.029554928108829842 0.0 0.01153402012364695 0.0 0.0
-0.027212319086743007 0.023959796517846754 0.0 0.00837846996823256 0.0 0.0
-0.021434702407863975 0.018206138443511224 0.0 0.00630110141282789 0.0 0.0
-0.016345689535978068 0.013261719647865669 0.0 0.004910942599953766 0.0 0.0
-0.012318042207773569 0.009447530651714114 0.0 0.003896995101356211 0.0 0.0
-0.00932692490328687 0.006710820419362985 0.0 0.0031830583586401956 0.0 0.0
-0.007160263523373974 0.0048199683401329236 0.0 0.002695995043525828 0.0 0.0
-0.005567538160533794 0.003494237259432078 0.0 0.0023292856075444344 0.0 0.0
-0.004338938436457877 0.00252252061759924 0.0 0.0020173788279474183 0.0 0.0
-0.0033252924364517455 0.0017574339249878824 0.0 0.0016817497441394286 0.0 0.0
-0.0024841036483056124 0.0011525198795814162 0.0 0.001366419102701791 0.0 0.0
-0.0018659442412127941 0.0008103168973153355 0.0 0.0013068115419741112 0.0 0.0
-0.0014455926112294081 0.0006541592780126964 0.0 0.0014193200932093022 0.0 0.0
-0.0011198382434087547 0.0005226572683661571 0.0 0.0015221498432259905 0.0 0.0
-0.0008166237874280527 0.0003813347208973337 0.0 0.00161441311673384 0.0 0.0
-0.00048501008545491964 0.00017376785840361804 0.0 0.0015772411274342945 0.0 0.0
-0.0001477848067554189 -0.00015913696471625403 0.0 0.0011238025729513378 0.0 0.0
9.966206229075662e-06 -0.00028630472150579736 0.0 0.0006169821710832855 0.0 0.0
-3.6639611622087706e-05 -0.000152751970002767 0.0 -0.000482424522839784 0.0 0.0
-0.0001938210301754305 -9.104723833467202e-05 0.0 -0.0009214368203950183 0.0 0.0
-0.000549615438909777 0.00020882212742954557 0.0 -0.0013448343874550286 0.0 0.0
-0.0009319556179550592 0.0004223311733500953 0.0 -0.001389740902239619 0.0 0.0
-0.0012998548605508574 0.0005915217747597289 0.0 -0.0012891395485374465 0.0 0.0
-0.0016990095039413886 0.0007482855586360612 0.0 -0.0011382351172940857 0.0 0.0
-0.0022514492163289166 0.0009999510551980367 0.0 -0.0010352695935529185 0.0 0.0
-0.0030607858035211623 0.001553126899839775 0.0 -0.0012428188892846784 0.0 0.0
-0.0040723581216504864 0.0023183696979741796 0.0 -0.0015408667880844715 0.0 0.0
-0.0052642058789317 0.0032461145638137375 0.0 -0.001803000841785684 0.0 0.0
-0.00674691343349775 0.004455632285365669 0.0 -0.0020843677433866415 0.0 0.0
-0.008690983423403041 0.006112576588196115 0.0 -0.0024137953468957897 0.0 0.0
-0.011342459242375681 0.00847365682709967 0.0 -0.002869979290343551 0.0 0.0
-0.014982553394421814 0.011845242829902966 0.0 -0.003559553086560341 0.0 0.0
-0.01982016676527718 0.01645855974386571 0.0 -0.0045464813867733475 0.0 0.0
-0.02588883623468824 0.022364808299154517 0.0 -0.005825798720914551 0.0 0.0
-0.03280921442405356 0.029250190098562397 0.0 -0.007577959338272237 0.0 0.0
-0.03936544772809543 0.03601461373853321 0.0 -0.010391290494661094 0.0 0.0
-0.04315086763880806 0.040276083838791436 0.0 -0.014611238385464138 0.0 0.0
-0.040474712094925216 0.038269053048785286 0.0 -0.0194204128449764 0.0 0.0
-0.03698218352558978 0.025319682494708826 0.0 7.639288507332864e-15 0.0 0.0
-0.040474712094922746 0.03826905304878536 0.0 0.019420412844993937 0.0 0.0
-0.043150867638802916 0.040276083838784074 0.0 0.014611238385481472 0.0 0.0
-0.039365447728088414 0.036014613738528954 0.0 0.010391290494671176 0.0 0.0
-0.032809214424045476 0.029250190098554674 0.0 0.0075779593382759875 0.0 0.0
-0.025888836234679535 0.022364808299147967 0.0 0.0058257987209152425 0.0 0.0
-0.019820166765268012 0.01645855974385828 0.0 0.004546481386772068 0.0 0.0
-0.014982553394412026 0.01184524282989596 0.0 0.003559553086559435 0.0 0.0
-0.01134245924236504 0.008473656827089112 0.0 0.002869979290341143 0.0 0.0
-0.008690983423392393 0.006112576588186946 0.0 0.002413795346894006 0.0 0.0
-0.0067469134334881475 0.004455632285357301 0.0 0.0020843677433824643 0.0 0.0
-0.005264205878923209 0.0032461145638073793 0.0 0.0018030008417825932 0.0 0.0
-0.004072358121643339 0.002318369697968912 0.0 0.0015408667880820398 0.0 0.0
-0.00306078580351564 0.0015531268998345796 0.0 0.0012428188892828788 0.0 0.0
-0.002251449216325326 0.0009999510551964674 0.0 0.0010352695935518946 0.0 0.0
-0.0016990095039393091 0.0007482855586344202 0.0 0.00113823511729402 0.0 0.0
-0.0012998548605495993 0.0005915217747592654 0.0 0.0012891395485363805 0.0 0.0
-0.0009319556179541578 0.0004223311733499227 0.0 0.0013897409022380822 0.0 0.0
-0.0005496154389092161 0.00020882212742933626 0.0 0.001344834387453775 0.0 0.0
-0.00019382103017541303 -9.104723833462463e-05 0.0 0.000921436820393941 0.0 0.0
-3.66396116223108e-05 -0.00015275197000257708 0.0 0.0004824245228393276 0.0 0.0
-7.212309830672828e-05 -5.765177951239045e-05 0.0 -0.0003487827772465653 0.0 0.0
-0.00023147818399769742 -2.8745686440684768e-05 0.0 -0.0007040775211123767 0.0 0.0
-0.0006097755258865062 0.0002424955605214156 0.0 -0.0010697834593347837 0.0 0.0
-0.0010440625807467822 0.000463496067244303 0.0 -0.0011130711920899188 0.0 0.0
-0.0014722070141208357 0.0006523395077959347 0.0 -0.0010112612729238526 0.0 0.0
-0.001960556300932969 0.0008463951724667584 0.0 -0.0008105242685570984 0.0 0.0
-0.0026789093205876985 0.001269793443349777 0.0 -0.0008231958310297702 0.0 0.0
-0.003653733390687014 0.002003552649016417 0.0 -0.001059128507581736 0.0 0.0
-0.004809477556820506 0.00289104024707669 0.0 -0.0012618350064728357 0.0 0.0
-0.006197196421855459 0.00400218686798803 0.0 -0.0014730187197652684 0.0 0.0
-0.0079440258394083 0.005458471495234339 0.0 -0.0017013110265497078 0.0 0.0
-0.010253916184678235 0.007461745483727394 0.0 -0.0019704161391536482 0.0 0.0
-0.013409011435994291 0.010307164311169074 0.0 -0.002351614708304232 0.0 0.0
-0.017704992057355793 0.01432527363324693 0.0 -0.002955887077058783 0.0 0.0
-0.023344515568361267 0.019732222722350146 0.0 -0.0038481059544534487 0.0 0.0
-0.030323482008096272 0.02653547503316991 0.0 -0.00496502368152699 0.0 0.0
-0.03824291803113626 0.03439417162807436 0.0 -0.0062197025441318565 0.0 0.0
-0.04584298207499246 0.042210528488204606 0.0 -0.008143109240180565 0.0 0.0
-0.05044140266397294 0.047419091023335136 0.0 -0.012314810253267054 0.0 0.0
-0.047663544442431316 0.045597128880072446 0.0 -0.01963875317401001 0.0 0.0
-0.043775278280663264 0.030820973466655924 0.0 6.742870151121849e-15 0.0 0.0
-0.0476635444424281 0.04559712888007121 0.0 0.019638753174026417 0.0 0.0
-0.050441402663967044 0.047419091023328495 0.0 0.012314810253284555 0.0 0.0
-0.04584298207498461 0.042210528488196807 0.0 0.008143109240189567 0.0 0.0
-0.038242918031126914 0.034394171628066704 0.0 0.006219702544135159 0.0 0.0
-0.03032348200808629 0.02653547503316229 0.0 0.004965023681527629 0.0 0.0
-0.023344515568350765 0.019732222722341337 0.0 0.0038481059544530254 0.0 0.0
-0.01770499205734476 0.014325273633238593 0.0 0.0029558870770583514 0.0 0.0
-0.01340901143598219 0.01030716431115793 0.0 0.002351614708302689 0.0 0.0
-0.010253916184665932 0.007461745483717997 0.0 0.001970416139151443 0.0 0.0
-0.007944025839397406 0.005458471495223481 0.0 0.0017013110265457908 0.0 0.0
-0.006197196421845969 0.004002186867979429 0.0 0.0014730187197629883 0.0 0.0
-0.0048094775568123605 0.0028910402470700806 0.0 0.0012618350064709954 0.0 0.0
-0.003653733390680331 0.002003552649011011 0.0 0.0010591285075797088 0.0 0.0
-0.0026789093205831964 0.0012697934433458246 0.0 0.0008231958310281715 0.0 0.0
-0.0019605563009304733 0.0008463951724650198 0.0 0.0008105242685568488 0.0 0.0
-0.0014722070141193857 0.0006523395077956636 0.0 0.0010112612729227958 0.0 0.0
-0.0010440625807457476 0.0004634960672441229 0.0 0.0011130711920889227 0.0 0.0
-0.0006097755258859248 0.00024249556052117186 0.0 0.001069783459333439 0.0 0.0
-0.00023147818399746467 -2.8745686440759828e-05 0.0 0.0007040775211111601 0.0 0.0
-7.212309830652735e-05 -5.765177951231765e-05 0.0 0.0003487827772466537 0.0 0.0
-9.231104046505155e-05 -2.3651749661214415e-06 0.0 -0.00022500520080155916 0.0 0.0
-0.000255464107479206 2.3090033104531107e-05 0.0 -0.0004749784686027583 0.0 0.0
-0.0006619373927399499 0.0002703046271598151 0.0 -0.0007472711972162522 0.0 0.0
-0.0011539661656426127 0.0005076855343149507 0.0 -0.0007806926941764706 0.0 0.0
-0.0016422702793786425 0.0007018430868544027 0.0 -0.0006862391241887441 0.0 0.0
-0.002250369014615391 0.0009872142800267862 0.0 -0.0004893187219263189 0.0 0.0
-0.0031316385971139815 0.00160562220462414 0.0 -0.0006050739702453088 0.0 0.0
-0.004240208340214412 0.002453932478812705 0.0 -0.0007478848260789732 0.0 0.0
-0.005546895801586826 0.003484155500796119 0.0 -0.0008865700575559152 0.0 0.0
-0.007137727022302136 0.004786062627315155 0.0 -0.0010321755444275627 0.0 0.0
-0.009159956032173566 0.006497795232602224 0.0 -0.0011872587289127826 0.0 0.0
-0.01184883645533316 0.008859671112954364 0.0 -0.0013644366415824824 0.0 0.0
-0.015518096821622765 0.012203848608241306 0.0 -0.0016319197773093936 0.0 0.0
-0.020483479299844464 0.01687481496305482 0.0 -0.002101894385584505 0.0 0.0
-0.02691393068959286 0.023065114241297383 0.0 -0.0028034351436071864 0.0 0.0
-0.034717914246905894 0.03070543335003796 0.0 -0.003661144372573032 0.0 0.0
-0.04343727963723955 0.039354938921539184 0.0 -0.004453333806441516 0.0 0.0
-0.051942794368673974 0.04795466349594487 0.0 -0.005286664690709407 0.0 0.0
-0.057574490770971536 0.054276205829001604 0.0 -0.008249480355148072 0.0 0.0
-0.05518463414655894 0.05337543020886866 0.0 -0.018337405806739204 0.0 0.0
-0.051165483249834984 0.03706036122397144 0.0 5.4903998014665945e-15 0.0 0.0
-0.055184634146555084 0.05337543020886634 0.0 0.01833740580675286 0.0 0.0
-0.057574490770964826 0.054276205828995755 0.0 0.008249480355161641 0.0 0.0
-0.05194279436866516 0.047954663495937466 0.0 0.005286664690717673 0.0 0.0
-0.04343727963722909 0.03935493892152995 0.0 0.004453333806444345 0.0 0.0
-0.03471791424689479 0.03070543335002958 0.0 0.003661144372573983 0.0 0.0
-0.02691393068958099 0.023065114241289042 0.0 0.0028034351436074167 0.0 0.0
-0.020483479299831773 0.016874814963043362 0.0 0.0021018943855831422 0.0 0.0
-0.01551809682160923 0.012203848608229128 0.0 0.0016319197773085412 0.0 0.0
-0.011848836455319589 0.008859671112942535 0.0 0.001364436641580731 0.0 0.0
-0.009159956032161302 0.006497795232590498 0.0 0.0011872587289100285 0.0 0.0
-0.007137727022291403 0.0047860626273067 0.0 0.001032175544425304 0.0 0.0
-0.005546895801577657 0.00348415550078767 0.0 0.0008865700575553222 0.0 0.0
-0.004240208340206823 0.002453932478806044 0.0 0.0007478848260771925 0.0 0.0
-0.0031316385971085184 0.0016056222046190367 0.0 0.0006050739702437381 0.0 0.0
-0.0022503690146121764 0.0009872142800256506 0.0 0.0004893187219261828 0.0 0.0
-0.0016422702793769631 0.0007018430868538252 0.0 0.000686239124188094 0.0 0.0
-0.0011539661656416343 0.0005076855343145343 0.0 0.0007806926941755769 0.0 0.0
-0.0006619373927393542 0.00027030462715970754 0.0 0.000747271197215515 0.0 0.0
-0.0002554641074789238 2.3090033104463412e-05 0.0 0.00047497846860230857 0.0 0.0
-9.231104046490788e-05 -2.3651749661162738e-06 0.0 0.00022500520080224527 0.0 0.0
-8.99847822015413e-05 1.2782973998830439e-05 0.0 -0.00013106444914210165 0.0 0.0
-0.0002572874421609215 5.646676985494368e-05 0.0 -0.00023792530307199632 0.0 0.0
-0.0007007495402023789 0.00028736695669880514 0.0 -0.0003657909368042616 0.0 0.0
-0.0012633331500081482 0.000554849474555231 0.0 -0.00038537548924580167 0.0 0.0
-0.0018275843622727527 0.0007576122083730071 0.0 -0.00032020301847003553 0.0 0.0
-0.0025670873391030694 0.001176121390024478 0.0 -0.0002015658935153085 0.0 0.0
-0.0035931070372615306 0.0019665839027752908 0.0 -0.0002989790010124146 0.0 0.0
-0.0048199301526603575 0.0029122389045527284 0.0 -0.00035956000568626524 0.0 0.0
-0.006283826396422062 0.0040944314986837834 0.0 -0.0004172984570939835 0.0 0.0
-0.008086059111057661 0.005592520009226833 0.0 -0.00048334685657472906 0.0 0.0
-0.010393459014271831 0.007568956221631366 0.0 -0.0005404859392239013 0.0 0.0
-0.013475079317194414 0.010303954347673356 0.0 -0.0005949502748907584 0.0 0.0
-0.01767504581947994 0.014162908277529314 0.0 -0.0007334922830811051 0.0 0.0
-0.023299862302547165 0.019475621718349448 0.0 -0.0009897419192349695 0.0 0.0
-0.03049389834480451 0.026422867396891165 0.0 -0.0013712191381151577 0.0 0.0
-0.03908342003959905 0.034862188522434875 0.0 -0.001867751261804574 0.0 0.0
-0.04843620976721557 0.04418089726324434 0.0 -0.0023069327517579413 0.0 0.0
-0.057455654826694624 0.05322756817449216 0.0 -0.0024957332869091514 0.0 0.0
-0.0642759175010979 0.06024310335181718 0.0 -0.0034075780515694064 0.0 0.0
-0.06326098189850501 0.06165769050457258 0.0 -0.012336165389643505 0.0 0.0
-0.05968781081080099 0.045182457789802385 0.0 3.3176586478056436e-15 0.0 0.0
-0.06326098189850046 0.06165769050456894 0.0 0.012336165389650744 0.0 0.0
-0.06427591750108996 0.060243103351806465 0.0 0.0034075780515771094 0.0 0.0
-0.057455654826684376 0.05322756817448501 0.0 0.0024957332869141877 0.0 0.0
-0.04843620976720386 0.044180897263233855 0.0 0.0023069327517592315 0.0 0.0
-0.03908342003958641 0.03486218852242191 0.0 0.0018677512618052537 0.0 0.0
-0.03049389834479115 0.026422867396881076 0.0 0.001371219138115201 0.0 0.0
-0.023299862302532958 0.019475621718337055 0.0 0.000989741919234329 0.0 0.0
-0.017675045819464788 0.014162908277516935 0.0 0.0007334922830809026 0.0 0.0
-0.013475079317179405 0.010303954347660432 0.0 0.0005949502748897784 0.0 0.0
-0.010393459014258342 0.007568956221618753 0.0 0.0005404859392231049 0.0 0.0
-0.008086059111045759 0.005592520009217834 0.0 0.0004833468565732141 0.0 0.0
-0.006283826396411795 0.0040944314986732415 0.0 0.0004172984570937952 0.0 0.0
-0.004819930152651845 0.002912238904545872 0.0 0.0003595600056853392 0.0 0.0
-0.0035931070372550995 0.001966583902769349 0.0 0.0002989790010114252 0.0 0.0
-0.002567087339099298 0.0011761213900224204 0.0 0.0002015658935151588 0.0 0.0
-0.001827584362270891 0.0007576122083731275 0.0 0.00032020301847019035 0.0 0.0
-0.001263333150006952 0.0005548494745548166 0.0 0.0003853754892453325 0.0 0.0
-0.0007007495402017869 0.0002873669566985757 0.0 0.00036579093680380484 0.0 0.0
-0.00025728744216063485 5.646676985486596e-05 0.0 0.00023792530307204657 0.0 0.0
-8.998478220120544e-05 1.2782973998778438e-05 0.0 0.00013106444914224143 0.0 0.0
-5.1485447588400716e-05 1.0385342243794614e-05 0.0 -8.594922534520052e-05 0.0 0.0
-0.00022264395399328716 6.724120368331734e-05 0.0 -9.93976891562244e-05 0.0 0.0
-0.0007188027664671169 0.0002926269644776494 0.0 -0.0001250765055175454 0.0 0.0
-0.0013788936081309613 0.0005788082552974086 0.0 -0.0001367263503396558 0.0 0.0
-0.00204388507128656 0.0007915553083023011 0.0 -8.072351773329218e-05 0.0 0.0
-0.002905138222215331 0.001278687022741074 0.0 3.043295308990452e-05 0.0 0.0
-0.004050097582335921 0.0021488533495487047 0.0 8.701237567636092e-07 0.0 0.0
-0.005393639193924731 0.0031441646584270486 0.0 2.452330414437682e-06 0.0 0.0
-0.007019851793426411 0.004402966664413744 0.0 3.0529651760808686e-05 0.0 0.0
-0.009041018427256908 0.006001065488993092 0.0 6.402307619531348e-05 0.0 0.0
-0.011644825983320827 0.008110974422056908 0.0 0.00015340551606015437 0.0 0.0
-0.015138711113067619 0.011038544369199295 0.0 0.0002984157593388173 0.0 0.0
-0.019868265343568232 0.01515859857380526 0.0 0.0003994008887996377 0.0 0.0
-0.026133181266043526 0.02078448287056406 0.0 0.00049584112243911 0.0 0.0
-0.03406419773888311 0.02810461562450642 0.0 0.0004945396536473259 0.0 0.0
-0.043401684750047166 0.03693529707638469 0.0 0.00034624477534135004 0.0 0.0
-0.053342284106239285 0.04656855228272777 0.0 8.297864523095031e-05 0.0 0.0
-0.0625322464423598 0.05576761749218217 0.0 -0.00017865925511540912 0.0 0.0
-0.06957574147583023 0.06288572758767352 0.0 -0.0003590241524844516 0.0 0.0
-0.07178256632906013 0.06590847496937809 0.0 -0.008070645733149348 0.0 0.0
-0.07115205744189398 0.049939179717597496 0.0 2.1371793224034263e-15 0.0 0.0
-0.07178256632905534 0.06590847496937342 0.0 0.008070645733152764 0.0 0.0
-0.06957574147582091 0.06288572758766074 0.0 0.0003590241524879974 0.0 0.0
-0.06253224644234764 0.05576761749217264 0.0 0.00017865925511764604 0.0 0.0
-0.05334228410622606 0.046568552282717376 0.0 -8.297864523050362e-05 0.0 0.0
-0.04340168475003323 0.03693529707636889 0.0 -0.0003462447753413162 0.0 0.0
-0.03406419773886811 0.028104615624494095 0.0 -0.000494539653647927 0.0 0.0
-0.026133181266027657 0.020784482870552158 0.0 -0.0004958411224396135 0.0 0.0
-0.019868265343551638 0.015158598573792826 0.0 -0.00039940088879971726 0.0 0.0
-0.01513871111305123 0.011038544369187355 0.0 -0.00029841575933979136 0.0 0.0
-0.011644825983306246 0.008110974422044219 0.0 -0.00015340551606050305 0.0 0.0
-0.009041018427244163 0.006001065488982374 0.0 -6.40230761966619e-05 0.0 0.0
-0.007019851793415195 0.004402966664402395 0.0 -3.0529651761000915e-05 0.0 0.0
-0.00539363919391535 0.003144164658421644 0.0 -2.452330414261174e-06 0.0 0.0
-0.004050097582328792 0.0021488533495420295 0.0 -8.701237574816221e-07 0.0 0.0
-0.0029051382222108593 0.0012786870227378695 0.0 -3.0432953090172644e-05 0.0 0.0
-0.002043885071284197 0.0007915553083025059 0.0 8.07235177340923e-05 0.0 0.0
-0.0013788936081296365 0.0005788082552972043 0.0 0.00013672635033945316 0.0 0.0
-0.000718802766466369 0.0002926269644771255 0.0 0.00012507650551661916 0.0 0.0
-0.00022264395399293702 6.724120368325198e-05 0.0 9.939768915662258e-05 0.0 0.0
-5.1485447588266e-05 1.0385342243700607e-05 0.0 8.594922534450514e-05 0.0 0.0
SCALARS Statev float 8
LOOKUP_TABLE default
0.0 0.008803242550586739 0.006697590809578304 -0.008400517736167828 0.0017029269265895282 -0.0003410007116139271 0.0 0.0
0.0 0.002154813743030035 0.001425860209647171 -0.000643094877432274 -0.0007827653322148986 -0.0032269412849299517 0.0 0.0
0.0 -3.488839623228476e-05 -1.20933107333409e-05 7.621986090399511e-06 4.471324642941803e-06 -1.4985454919849239e-05 0.0 0.0
0.0 7.149623777442509e-05 -1.102579996576422e-05 8.196748569717583e-06 2.829051396046456e-06 -2.2273404682893211e-07 0.0 0.0
0.0 0.00031461481023268195 2.3486012009986862e-05 -1.496851071969284e-05 -8.517501290293773e-06 2.5583581569824303e-05 0.0 0.0
0.0 0.0005088507181459572 0.0006039150695619433 -0.0004549583825591841 -0.00014895668700275956 4.541298297034568e-05 0.0 0.0
0.0 0.0015166361645834094 0.0014114895253708008 -0.001106097479609867 -0.0003053920457609337 5.0298437065080564e-05 0.0 0.0
0.0 0.0027135869452104807 0.002535246496909271 -0.002048829649557932 -0.0004864168473513404 5.729856430732438e-05 0.0 0.0
0.0 0.004269567249910382 0.003962539213865917 -0.0032953749191489204 -0.0006671642947169956 8.016387422602005e-05 0.0 0.0
0.0 0.006322133597768511 0.005766802030977736 -0.004916208948231289 -0.0008505930827464496 0.00011527450010469023 0.0 0.0
0.0 0.009071739493928367 0.008123775948763923 -0.007078836170815078 -0.001044939777948851 0.00020727433703586213 0.0 0.0
0.0 0.012554000495304585 0.0113503948985325 -0.010097640751818664 -0.0012527541467138323 0.0003581703876288673 0.0 0.0
0.0 0.017529783924940937 0.01579145813013272 -0.014329628910246563 -0.001461829219886142 0.0004595580388255956 0.0 0.0
0.0 0.024282022499091734 0.021749848813003646 -0.020076861198925797 -0.0016729876140778503 0.0005560733040801061 0.0 0.0
0.0 0.03300257415681728 0.029390747393969484 -0.027513871160359017 -0.0018768762336104812 0.0005797859128011578 0.0 0.0
0.0 0.04357039223488889 0.038575095625375436 -0.036508584724541646 -0.0020665109008337927 0.0005009527791928501 0.0 0.0
0.0 0.05530073331872492 0.04874393948559428 -0.046507306915186536 -0.0022366325704077264 0.0003131863162347129 0.0 0.0
0.0 0.06703985481966986 0.058910250298132204 -0.0565299765235539 -0.0023802737745783134 7.114689388898888e-05 0.0 0.0
0.0 0.07733688727580051 0.0678213867293251 -0.06533267885051869 -0.002488707878806392 -8.758923641612269e-05 0.0 0.0
0.0 0.0844951568701792 0.07419000707327189 -0.07164377606551783 -0.0025462310077540213 -0.00016956385848519067 0.0 0.0
0.0 0.08712390092300257 0.07659985782214558 -0.07405384166717652 -0.0025460161549690206 6.973588373426765e-16 0.0 0.0
0.0 0.08449515687017585 0.07419000707326864 -0.07164377606551488 -0.002546231007753749 0.00016956385848862412 0.0 0.0
0.0 0.07733688727578984 0.06782138672931594 -0.0653326788505097 -0.002488707878806277 8.758923641983239e-05 0.0 0.0
0.0 0.0670398548196555 0.058910250298119776 -0.056529976523541546 -0.0023802737745782622 -7.11468938869057e-05 0.0 0.0
0.0 0.055300733318713075 0.04874393948558332 -0.0465073069151772 -0.002236632570406078 -0.0003131863162338152 0.0 0.0
0.0 0.0435703922348761 0.038575095625363764 -0.03650858472453101 -0.0020665109008327783 -0.0005009527791926267 0.0 0.0
0.0 0.03300257415680589 0.029390747393958905 -0.027513871160349954 -0.0018768762336089661 -0.0005797859128014902 0.0 0.0
0.0 0.024282022499077557 0.021749848812990757 -0.020076861198914196 -0.0016729876140765558 -0.000556073304080787 0.0 0.0
0.0 0.017529783924925522 0.01579145813011886 -0.014329628910233911 -0.0014618292198849447 -0.00045955803882616005 0.0 0.0
0.0 0.012554000495288674 0.011350394898518183 -0.01009764075180534 -0.0012527541467128342 -0.00035817038762892445 0.0 0.0
0.0 0.009071739493914979 0.008123775948751678 -0.007078836170804044 -0.0010449397779476338 -0.0002072743370364074 0.0 0.0
0.0 0.00632213359775695 0.005766802030967354 -0.0049162089482219775 -0.0008505930827453766 -0.00011527450010488587 0.0 0.0
0.0 0.004269567249901527 0.003962539213857439 -0.003295374919141624 -0.0006671642947158139 -8.016387422637782e-05 0.0 0.0
0.0 0.0027135869452025673 0.002535246496901455 -0.002048829649551181 -0.0004864168473502738 -5.72985643074529e-05 0.0 0.0
0.0 0.001516636164578273 0.0014114895253650203 -0.0011060974796051073 -0.0003053920457599125 -5.029843706507772e-05 0.0 0.0
0.0 0.0005088507181435968 0.0006039150695589897 -0.00045495838255689067 -0.0001489566870020988 -4.5412982970100015e-05 0.0 0.0
0.0 0.00031461481023079127 2.3486012009205938e-05 -1.4968510719132161e-05 -8.517501290074328e-06 -2.5583581569604946e-05 0.0 0.0
0.0 7.149623777388238e-05 -1.1025799965659802e-05 8.196748569641746e-06 2.8290513960185217e-06 2.2273404684293704e-07 0.0 0.0
0.0 -3.4888396232456014e-05 -1.2093310733102575e-05 7.621986090254075e-06 4.4713246428485e-06 1.4985454919565351e-05 0.0 0.0
0.0 0.0021548137430259283 0.0014258602096453416 -0.0006430948774314223 -0.0007827653322139173 0.0032269412849258257 0.0 0.0
0.0 0.00880324255057644 0.006697590809571517 -0.00840051773615732 0.0017029269265858005 0.00034100071159909816 0.0 0.0
0.0 0.006914537245053611 0.004846522374082836 -0.006664369185951984 0.0018178468118691443 -2.1507918645133036e-05 0.0 0.0
0.0 0.0009406896236643693 0.0006609875646768675 -0.00020912931784408017 -0.00045185824683278676 -0.0020516287240543263 0.0 0.0
0.0 1.6669459002633264e-05 -6.258601225323253e-07 1.1289883832071332e-06 -5.031282606749912e-07 3.8919101112948165e-06 0.0 0.0
0.0 7.467978065355359e-06 -7.961622931434474e-07 5.360292496322876e-07 2.6013304351136995e-07 1.594436540044148e-07 0.0 0.0
0.0 9.179785323488657e-05 -5.303645952011862e-06 4.704874093670867e-06 5.987718583402139e-07 6.496895138513372e-06 0.0 0.0
0.0 0.0005088556317612023 0.0003244314497576922 -0.00024506098302116226 -7.937046673652979e-05 3.678521974543421e-05 0.0 0.0
0.0 0.001185915512193209 0.0011116386110308157 -0.0008808670426176661 -0.00023077156841314923 -4.4204440164173894e-05 0.0 0.0
0.0 0.0022959559169067247 0.00212461294476936 -0.0017367161800538595 -0.00038789676471549973 -0.00010939221148227229 0.0 0.0
0.0 0.003730011545037528 0.003414890610187802 -0.0028735298008417294 -0.0005413608093460715 -0.00017787393173743324 0.0 0.0
0.0 0.0055462914937203355 0.005042493195745659 -0.004352751715879916 -0.0006897414798657435 -0.00024900556996586477 0.0 0.0
0.0 0.007962238860826195 0.00716150028257667 -0.0063266992064127826 -0.000834801076163884 -0.0003136431129915315 0.0 0.0
0.0 0.011397012096680209 0.010042120492138545 -0.009068782287646536 -0.0009733382044920078 -0.00037520491156329286 0.0 0.0
0.0 0.01569232737083435 0.014051579923922768 -0.012953126612107376 -0.0010984533118153887 -0.0005256220869048067 0.0 0.0
0.0 0.02193119556391464 0.019485679099740808 -0.018280926410719687 -0.0012047526890211278 -0.0007944339938569162 0.0 0.0
0.0 0.030005248592472254 0.02651288661161601 -0.025225052738450673 -0.001287833873165312 -0.001165271655498366 0.0 0.0
0.0 0.03980068554222091 0.03500610444262399 -0.03366308644263256 -0.0013430179999914468 -0.0016296860479223993 0.0 0.0
0.0 0.0507353131137322 0.04443673809237603 -0.043067623096608124 -0.001369114995767917 -0.0020908414747328992 0.0 0.0
0.0 0.06175136949797298 0.05389464133647868 -0.05252225181625056 -0.0013723895202280897 -0.0023412872017105116 0.0 0.0
0.0 0.07145493095164696 0.062225049448697174 -0.060864043841714996 -0.0013610056069821802 -0.002146693626140898 0.0 0.0
0.0 0.07839633254193809 0.06814885636974688 -0.06682360522938535 -0.0013252511403615624 -0.0015196198655935537 0.0 0.0
0.0 0.08109857445470654 0.07037565773795426 -0.06910391008810224 -0.001271747649851933 2.7150590803382002e-15 0.0 0.0
0.0 0.07839633254193569 0.06814885636974456 -0.06682360522938338 -0.0013252511403611317 0.0015196198656012977 0.0 0.0
0.0 0.07145493095163771 0.0622250494486892 -0.06086404384170707 -0.0013610056069821256 0.0021466936261486103 0.0 0.0
0.0 0.0617513694979611 0.053894641336468374 -0.052522251816240324 -0.0013723895202280294 0.0023412872017149625 0.0 0.0
0.0 0.05073531311372075 0.04443673809236577 -0.04306762309659876 -0.0013691149957670208 0.002090841474734096 0.0 0.0
0.0 0.039800685542208857 0.035006104442613185 -0.0336630864426224 -0.0013430179999907672 0.0016296860479221372 0.0 0.0
0.0 0.03000524859246038 0.026512886611605255 -0.02522505273844096 -0.0012878338731642997 0.0011652716554983158 0.0 0.0
0.0 0.02193119556390054 0.01948567909972823 -0.01828092641070795 -0.0012047526890202691 0.000794433993856603 0.0 0.0
0.0 0.01569232737082077 0.014051579923910616 -0.012953126612096157 -0.001098453311814456 0.0005256220869043228 0.0 0.0
0.0 0.011397012096666074 0.010042120492125606 -0.00906878228763443 -0.0009733382044911797 0.0003752049115624976 0.0 0.0
0.0 0.00796223886081378 0.007161500282565498 -0.006326699206402565 -0.0008348010761629307 0.0003136431129903796 0.0 0.0
0.0 0.0055462914937106445 0.005042493195736361 -0.004352751715871462 -0.0006897414798648969 0.00024900556996497664 0.0 0.0
0.0 0.00373001154503008 0.003414890610180243 -0.0028735298008351136 -0.0005413608093451284 0.00017787393173679763 0.0 0.0
0.0 0.002295955916899795 0.0021246129447624377 -0.0017367161800478806 -0.00038789676471455615 0.00010939221148160301 0.0 0.0
0.0 0.0011859155121889207 0.0011116386110261067 -0.0008808670426137474 -0.0002307715684123588 4.420444016376697e-05 0.0 0.0
0.0 0.0005088556317582011 0.00032443144975538465 -0.00024506098301937414 -7.937046673601071e-05 -3.6785219745430776e-05 0.0 0.0
0.0 9.179785323357326e-05 -5.30364595234167e-06 4.704874093908203e-06 5.987718584336071e-07 -6.496895138383806e-06 0.0 0.0
0.0 7.467978065023354e-06 -7.961622930962181e-07 5.360292495970548e-07 2.601330434990899e-07 -1.5944365400420054e-07 0.0 0.0
0.0 1.6669459002581067e-05 -6.258601225437742e-07 1.1289883832055245e-06 -5.031282606619839e-07 -3.8919101112355115e-06 0.0 0.0
0.0 0.000940689623660997 0.0006609875646751049 -0.00020912931784313596 -0.00045185824683196846 0.002051628724049049 0.0 0.0
0.0 0.006914537245042689 0.0048465223740749765 -0.006664369185940772 0.001817846811865792 2.1507918635035265e-05 0.0 0.0
0.0 0.004805686608226339 0.0032874946236100024 -0.004664579846709362 0.0013770852230993592 -0.001268015437796663 0.0 0.0
0.0 0.0005797075490303023 0.00033868320555201806 -5.5967929837138304e-05 -0.00028271527571487943 -0.001322568969547566 0.0 0.0
0.0 0.0 0.0 0.0 0.0 0.0 0.0 0.0
0.0 1.6196987412902269e-07 5.07516836358892e-08 -4.040391135278601e-08 -1.0347772283147763e-08 -2.370325994826249e-07 0.0 0.0
0.0 2.465033335353857e-05 -8.995120081626167e-06 6.918720925813558e-06 2.0763991558133805e-06 1.4845187903407687e-06 0.0 0.0
0.0 0.000301452563394825 0.00011023446924162107 -8.06941082656351e-05 -2.954036097598712e-05 2.9877725674863653e-05 0.0 0.0
0.0 0.0007660721160995051 0.0007711586082371595 -0.0006015367047842086 -0.0001696219034529504 -0.0001167384080345714 0.0 0.0
0.0 0.0017754483506887153 0.0016424128673445501 -0.0013259439588920229 -0.00031646890845252754 -0.0002652130787130069 0.0 0.0
0.0 0.002993363183157708 0.0027714970166302345 -0.0023019738681928277 -0.0004695231484374077 -0.00041771849041296976 0.0 0.0
0.0 0.004612343444727578 0.004188123521799832 -0.0035713507318709406 -0.0006167727899288914 -0.0005763536176927091 0.0 0.0
0.0 0.00672451361430772 0.006028731608119623 -0.005267791316589069 -0.0007609402915305524 -0.0007440627079479133 0.0 0.0
0.0 0.00949862721063825 0.008530511051002049 -0.007630395759886951 -0.000900115291115097 -0.0009375496908006917 0.0 0.0
0.0 0.013654986759935329 0.012005502687857016 -0.01098019873936205 -0.0010253039484949575 -0.0012256001615078278 0.0 0.0
0.0 0.018891560059244028 0.016800793569295945 -0.015671215340541195 -0.001129578228754755 -0.001718978016248015 0.0 0.0
0.0 0.026119587149660426 0.023069220614008745 -0.021860936605926196 -0.0012082840080825399 -0.002425704745713424 0.0 0.0
0.0 0.0349255541131986 0.030698401977031307 -0.029438866489789595 -0.001259535487241685 -0.0032772280493117453 0.0 0.0
0.0 0.044789165952997076 0.03922223352379397 -0.03793637615050463 -0.001285857373289348 -0.004088644214348955 0.0 0.0
0.0 0.054770063991958835 0.04783792302085255 -0.046545278169229244 -0.0012926448516232185 -0.00450117021557991 0.0 0.0
0.0 0.06366458540583775 0.055489261484917646 -0.05420989311538493 -0.0012793683695327108 -0.004140846709514246 0.0 0.0
0.0 0.07006313294823807 0.06096843886950572 -0.05971887698997272 -0.0012495618795329406 -0.0029164231877902105 0.0 0.0
0.0 0.07260514553867664 0.06307097679386583 -0.06189244430991533 -0.0011785324839505551 5.3657165516307614e-15 0.0 0.0
0.0 0.07006313294823681 0.060968438869504066 -0.05971887698997146 -0.0012495618795325355 0.0029164231878031927 0.0 0.0
0.0 0.06366458540582941 0.05548926148491027 -0.05420989311537764 -0.001279368369532651 0.004140846709526781 0.0 0.0
0.0 0.05477006399195061 0.047837923020845045 -0.04654527816922232 -0.0012926448516227217 0.004501170215588212 0.0 0.0
0.0 0.04478916595298665 0.03922223352378468 -0.03793637615049624 -0.0012858573732884315 0.004088644214351745 0.0 0.0
0.0 0.03492555411318841 0.03069840197702215 -0.02943886648978113 -0.0012595354872410053 0.0032772280493109204 0.0 0.0
0.0 0.02611958714964835 0.02306922061399796 -0.021860936605916148 -0.0012082840080818267 0.0024257047457132063 0.0 0.0
0.0 0.018891560059230726 0.016800793569284177 -0.015671215340529995 -0.001129578228754183 0.0017189780162478701 0.0 0.0
0.0 0.013654986759924501 0.012005502687847027 -0.01098019873935298 -0.0010253039484940396 0.0012256001615067822 0.0 0.0
0.0 0.009498627210625858 0.008530511050990928 -0.007630395759876683 -0.0009001152911142416 0.0009375496907990946 0.0 0.0
0.0 0.006724513614297832 0.006028731608109947 -0.00526779131658021 -0.0007609402915297369 0.0007440627079461159 0.0 0.0
0.0 0.0046123434447193894 0.0041881235217917055 -0.0035713507318636956 -0.0006167727899280079 0.0005763536176911346 0.0 0.0
0.0 0.0029933631831504546 0.0027714970166231798 -0.002301973868186595 -0.0004695231484365856 0.0004177184904117849 0.0 0.0
0.0 0.0017754483506827326 0.001642412867338311 -0.0013259439588867532 -0.00031646890845155805 0.00026521307871164786 0.0 0.0
0.0 0.0007660721160957475 0.0007711586082333713 -0.000601536704781126 -0.00016962190345224523 0.00011673840803380799 0.0 0.0
0.0 0.00030145256339269416 0.00011023446924036032 -8.069410826469796e-05 -2.954036097566216e-05 -2.9877725674804778e-05 0.0 0.0
0.0 2.4650333352789406e-05 -8.995120081338122e-06 6.91872092559136e-06 2.0763991557468786e-06 -1.4845187902572197e-06 0.0 0.0
0.0 1.6196987402351605e-07 5.0751683652012e-08 -4.040391136506354e-08 -1.0347772286923351e-08 2.370325994783513e-07 0.0 0.0
0.0 0.0 0.0 0.0 0.0 0.0 0.0 0.0
0.0 0.0005797075490273499 0.0003386832055501851 -5.5967929836047095e-05 -0.00028271527571413854 0.0013225689695421556 0.0 0.0
0.0 0.0048056866082156645 0.0032874946236024485 -0.004664579846698574 0.001377085223096128 0.0012680154377897061 0.0 0.0
0.0 0.0034096851686218808 0.0022538586116939183 -0.003257981541744488 0.0010041229300505688 -0.0014151088405952466 0.0 0.0
0.0 0.00029917241948870663 0.00016547462888675645 4.807445702332039e-06 -0.00017028207458908822 -0.0008041623543219384 0.0 0.0
0.0 0.0 0.0 0.0 0.0 0.0 0.0 0.0
0.0 2.7969504051437723e-08 -3.993514254552682e-09 2.784312103542317e-09 1.2092021510114187e-09 2.0414809259877924e-09 0.0 0.0
0.0 2.0582009981205472e-05 -3.104236045174635e-06 2.3275560123677335e-06 7.766800328068346e-07 6.390361482379574e-07 0.0 0.0
0.0 8.044181565694375e-05 1.1194364959494176e-05 -7.05345518579137e-06 -4.140909773702198e-06 1.420238771968366e-05 0.0 0.0
0.0 0.0005667508617962791 0.000403807115039164 -0.00030850639844233013 -9.530071659683452e-05 -7.164804160816163e-05 0.0 0.0
0.0 0.0012784173598970583 0.0011771055682640499 -0.0009377449296312835 -0.00023936063863276566 -0.00033601147457150215 0.0 0.0
0.0 0.0023343581506110244 0.002144245454532659 -0.001756454191982846 -0.0003877912625498117 -0.0005642393836686288 0.0 0.0
0.0 0.003707380065742459 0.0033580781965901006 -0.0028236669694644665 -0.0005344112271256339 -0.0007957067775818309 0.0 0.0
0.0 0.005448839753641269 0.004932140726533388 -0.0042539044554781025 -0.0006782362710552866 -0.001045378255671695 0.0 0.0
0.0 0.007927765426734092 0.007056765191888989 -0.006239779276353163 -0.0008169859155358218 -0.0013370690437963324 0.0 0.0
0.0 0.011191580887090697 0.010032751631896238 -0.009087496021463857 -0.000945255610432375 -0.0017474900669936684 0.0 0.0
0.0 0.016171660751661033 0.014158713635357173 -0.013110452348618839 -0.0010482612867383436 -0.0023860787071194136 0.0 0.0
0.0 0.022392978411877713 0.019638768215000883 -0.01851490231351927 -0.0011238659014815998 -0.003315233683534492 0.0 0.0
0.0 0.029999218977474318 0.02637774047053527 -0.025203860360932022 -0.0011738801096032796 -0.004458795771672747 0.0 0.0
0.0 0.038865275133541516 0.03396808065610375 -0.03276716299880299 -0.0012009176573007695 -0.005540067834670444 0.0 0.0
0.0 0.04786385040420592 0.0417277362126842 -0.040517961345649695 -0.0012097748670345063 -0.006102479956465234 0.0 0.0
0.0 0.05595198504290701 0.048718009289331 -0.04751864621209577 -0.0011993630772352101 -0.005687813557444285 0.0 0.0
0.0 0.06184886742889602 0.05383109208700419 -0.05265973086566937 -0.0011713612213348026 -0.0039818091625183705 0.0 0.0
0.0 0.06432400515817416 0.05587112166453095 -0.054801015824992805 -0.001070105839538113 7.81232717406155e-15 0.0 0.0
0.0 0.06184886742889392 0.05383109208700173 -0.052659730865667054 -0.0011713612213346868 0.0039818091625351375 0.0 0.0
0.0 0.05595198504289986 0.0487180092893245 -0.04751864621208937 -0.001199363077235107 0.005687813557460144 0.0 0.0
0.0 0.04786385040420005 0.04172773621267867 -0.040517961345644726 -0.0012097748670339382 0.006102479956475432 0.0 0.0
0.0 0.038865275133532676 0.033968080656095835 -0.032767162998795875 -0.0012009176572999546 0.005540067834672969 0.0 0.0
0.0 0.029999218977465027 0.026377740470526937 -0.025203860360924254 -0.001173880109602657 0.004458795771671957 0.0 0.0
0.0 0.022392978411867735 0.019638768214991956 -0.018514902313510977 -0.001123865901480972 0.0033152336835339667 0.0 0.0
0.0 0.016171660751650857 0.014158713635347882 -0.013110452348610182 -0.0010482612867376883 0.0023860787071188706 0.0 0.0
0.0 0.01119158088708099 0.010032751631887542 -0.009087496021455942 -0.0009452556104316026 0.0017474900669924923 0.0 0.0
0.0 0.00792776542672368 0.007056765191878965 -0.006239779276343855 -0.0008169859155351103 0.0013370690437939118 0.0 0.0
0.0 0.005448839753632539 0.00493214072652505 -0.004253904455470571 -0.000678236271054476 0.0010453782556691632 0.0 0.0
0.0 0.0037073800657348977 0.003358078196582865 -0.0028236669694580575 -0.0005344112271248083 0.0007957067775795873 0.0 0.0
0.0 0.0023343581506048657 0.0021442454545262902 -0.001756454191977245 -0.00038779126254904583 0.0005642393836668572 0.0 0.0
0.0 0.00127841735989165 0.0011771055682588789 -0.0009377449296270029 -0.00023936063863187577 0.0003360114745696932 0.0 0.0
0.0 0.0005667508617923083 0.0004038071150359891 -0.0003085063984398108 -9.530071659617798e-05 7.164804160719003e-05 0.0 0.0
0.0 8.04418156555119e-05 1.119436495914908e-05 -7.05345518555569e-06 -4.1409097735936475e-06 -1.4202387719521526e-05 0.0 0.0
0.0 2.0582009980724127e-05 -3.104236045112055e-06 2.3275560123219874e-06 7.766800327901583e-07 -6.390361482181891e-07 0.0 0.0
0.0 2.7969504081147853e-08 -3.993514257424873e-09 2.7843121058454295e-09 1.209202151577698e-09 -2.0414809282561615e-09 0.0 0.0
0.0 0.0 0.0 0.0 0.0 0.0 0.0 0.0
0.0 0.0002991724194860884 0.00016547462888526925 4.807445703277586e-06 -0.0001702820745885468 0.0008041623543173545 0.0 0.0
0.0 0.0034096851686136174 0.0022538586116875956 -0.0032579815417353667 0.00100412293004777 0.001415108840589809 0.0 0.0
0.0 0.0022533055310116415 0.001512475062252321 -0.002203446996791829 0.0006909719345395085 -0.0012358891162234879 0.0 0.0
0.0 0.00028889834881697297 3.759007637083525e-05 6.197029786620755e-05 -9.956037423704264e-05 -0.0003652149825432676 0.0 0.0
0.0 0.0 0.0 0.0 0.0 0.0 0.0 0.0
0.0 0.0 0.0 0.0 0.0 0.0 0.0 0.0
0.0 -7.737691250357112e-06 1.0098669560937012e-06 -7.952051250701086e-07 -2.1466183102365516e-07 -1.4888070859109598e-06 0.0 0.0
0.0 5.410174277878089e-05 -1.735035124234915e-05 1.3502195507290379e-05 3.848155735058972e-06 1.7120378994642617e-05 0.0 0.0
0.0 0.00035535823168571045 0.00011803095706270732 -8.79069584531592e-05 -3.012399860954831e-05 -1.2119310741871637e-05 0.0 0.0
0.0 0.0008218467783525438 0.0007339307479637738 -0.0005741850383125174 -0.00015974570965125636 -0.00028667570669544225 0.0 0.0
0.0 0.001709807143209794 0.001542845359993246 -0.001245580312940136 -0.00029726504705310925 -0.0006115710069376918 0.0 0.0
0.0 0.002822351240110012 0.0025592452041685284 -0.0021183715338486428 -0.0004408736703198859 -0.0009047963411814837 0.0 0.0
0.0 0.004296971480801706 0.0038695540938912757 -0.003286595196348015 -0.0005829588975432597 -0.0012158379299271184 0.0 0.0
0.0 0.006330400507741493 0.005635594747478459 -0.004912861920408222 -0.0007227328270702331 -0.0015763215021052997 0.0 0.0
0.0 0.009272756186438887 0.008107416897845313 -0.007255063420700852 -0.0008523534771444628 -0.0020651483347233564 0.0 0.0
0.0 0.013083526348791242 0.011591277378374589 -0.010631152639135189 -0.0009601247392393994 -0.002802000510560748 0.0 0.0
0.0 0.018598217001796744 0.016256469384358048 -0.01522142038703548 -0.0010350489973225626 -0.003863377853109653 0.0 0.0
0.0 0.02543035575995952 0.022061068127639357 -0.02097844197184108 -0.0010826261557982627 -0.005164848315959786 0.0 0.0
0.0 0.03297255509619958 0.028690636719389234 -0.027578673888967082 -0.0011119628304221438 -0.006413127927155974 0.0 0.0
0.0 0.040926423702808266 0.03556928922943523 -0.03444406164593372 -0.0011252275835015 -0.0071307817974787325 0.0 0.0
0.0 0.0482432091951143 0.041901039582874736 -0.04078210439346701 -0.0011189351894077386 -0.006752771403659725 0.0 0.0
0.0 0.053764746560661075 0.046696203320343944 -0.045606794076501235 -0.0010894092438427066 -0.004773568081112626 0.0 0.0
0.0 0.05623408075645354 0.048714143664628964 -0.047763785805741005 -0.0009503578588879693 8.315613822529322e-15 0.0 0.0
0.0 0.05376474656065814 0.04669620332034068 -0.04560679407649789 -0.0010894092438427673 0.004773568081130814 0.0 0.0
0.0 0.04824320919510964 0.04190103958286994 -0.040782104393462595 -0.0011189351894073628 0.006752771403676951 0.0 0.0
0.0 0.04092642370280226 0.03556928922942954 -0.03444406164592831 -0.0011252275835012167 0.007130781797489835 0.0 0.0
0.0 0.03297255509619195 0.02869063671938243 -0.027578673888960875 -0.0011119628304215366 0.006413127927158983 0.0 0.0
0.0 0.02543035575995166 0.02206106812763227 -0.02097844197183448 -0.0010826261557977945 0.005164848315959102 0.0 0.0
0.0 0.0185982170017882 0.016256469384350356 -0.015221420387028313 -0.0010350489973220453 0.003863377853108561 0.0 0.0
0.0 0.013083526348782848 0.011591277378366929 -0.010631152639128227 -0.0009601247392387021 0.002802000510559769 0.0 0.0
0.0 0.009272756186430038 0.008107416897836858 -0.007255063420693047 -0.0008523534771438064 0.002065148334721737 0.0 0.0
0.0 0.0063304005077320395 0.0056355947474697006 -0.004912861920400064 -0.0007227328270696364 0.0015763215021022854 0.0 0.0
0.0 0.004296971480793849 0.003869554093884045 -0.003286595196341708 -0.0005829588975423348 0.00121583792992403 0.0 0.0
0.0 0.0028223512401039878 0.0025592452041625566 -0.002118371533843492 -0.0004408736703190646 0.0009047963411789366 0.0 0.0
0.0 0.001709807143204549 0.001542845359988327 -0.0012455803129359996 -0.00029726504705232705 0.0006115710069357367 0.0 0.0
0.0 0.0008218467783484082 0.0007339307479598572 -0.0005741850383093544 -0.000159745709650503 0.0002866757066936637 0.0 0.0
0.0 0.0003553582316824837 0.00011803095706073853 -8.79069584516412e-05 -3.0123998609097184e-05 1.2119310741080957e-05 0.0 0.0
0.0 5.410174277806529e-05 -1.7350351242025033e-05 1.3502195507038338e-05 3.848155734986859e-06 -1.712037899432752e-05 0.0 0.0
0.0 -7.737691250485663e-06 1.009866956110036e-06 -7.952051250828789e-07 -2.1466183102719435e-07 1.4888070859070433e-06 0.0 0.0
0.0 0.0 0.0 0.0 0.0 0.0 0.0 0.0
0.0 0.0 0.0 0.0 0.0 0.0 0.0 0.0
0.0 0.00028889834881393514 3.759007636977061e-05 6.197029786691781e-05 -9.956037423668812e-05 0.0003652149825398708 0.0 0.0
0.0 0.002253305531005144 0.0015124750622473983 -0.002203446996784626 0.0006909719345372294 0.0012358891162193443 0.0 0.0
0.0 0.0014933720545784214 0.000944559739986593 -0.001380291843926448 0.00043573210393985524 -0.0009163090140776065 0.0 0.0
0.0 4.2451082372803176e-05 -1.7037452560985573e-05 7.317801311753142e-05 -5.6140560556546094e-05 -0.0001245758123284821 0.0 0.0
0.0 0.0 0.0 0.0 0.0 0.0 0.0 0.0
0.0 0.0 0.0 0.0 0.0 0.0 0.0 0.0
0.0 -1.932854331056878e-06 1.5821422625931317e-07 -1.202090518498264e-07 -3.8005174409474386e-08 -3.5231800451442257e-07 0.0 0.0
0.0 2.582785249946087e-06 -2.71980138708322e-06 2.116882629480949e-06 6.029187576021701e-07 3.886137540778139e-06 0.0 0.0
0.0 4.414654847288535e-05 2.1244523517027182e-05 -1.5000491657314013e-05 -6.2440318597128395e-06 4.6194358247042136e-06 0.0 0.0
0.0 0.0006434331273987647 0.0002913725927688753 -0.00022384790635282087 -6.752468641605534e-05 -0.00013119896740747863 0.0 0.0
0.0 0.0010131513017267223 0.0009892311203558125 -0.0007846098740135951 -0.0002046212463422169 -0.000541512545090418 0.0 0.0
0.0 0.0020265206358173853 0.001793466474103167 -0.0014599111797924925 -0.0003335552943106745 -0.0008940334121796305 0.0 0.0
0.0 0.00318941054168146 0.0028506320104007645 -0.0023777970411852064 -0.0004728349692155585 -0.0012475513116073493 0.0 0.0
0.0 0.004791809518889178 0.004271383561036558 -0.003659130296228642 -0.0006122532648079158 -0.001653694348604647 0.0 0.0
0.0 0.00708614584128802 0.006264131063990798 -0.005518074896990358 -0.0007460561670004374 -0.0021801655303327703 0.0 0.0
0.0 0.010452363835571766 0.00908904230807989 -0.008231035056313472 -0.0008580072517664114 -0.002949449344668614 0.0 0.0
0.0 0.014891377479202434 0.012939529874847297 -0.012002047562665161 -0.0009374823121821308 -0.004058171540236849 0.0 0.0
0.0 0.02042968486661924 0.017800244697941975 -0.016812878320064985 -0.0009873663778769924 -0.005423699506280193 0.0 0.0
0.0 0.027265981876296908 0.023415249502758015 -0.022398838260788964 -0.0010164112419690386 -0.006732004597978925 0.0 0.0
0.0 0.034076436660259314 0.029365453798154074 -0.028330012486010303 -0.0010354413121437865 -0.007545874144476222 0.0 0.0
0.0 0.0404160811341467 0.035023660173132506 -0.03398698976252856 -0.0010366704106039427 -0.007299470726004297 0.0 0.0
0.0 0.04564470910054023 0.03952289364455959 -0.03851816257202286 -0.001004731072536675 -0.00529770969278016 0.0 0.0
0.0 0.04816644301109649 0.04154963619471689 -0.040729995603581495 -0.0008196405911353918 7.956092382133129e-15 0.0 0.0
0.0 0.0456447091005371 0.039522893644556106 -0.03851816257201921 -0.0010047310725368563 0.005297709692797816 0.0 0.0
0.0 0.04041608113414368 0.03502366017312901 -0.033986989762525205 -0.001036670410603798 0.007299470726021283 0.0 0.0
0.0 0.03407643666025361 0.029365453798148762 -0.028330012486005154 -0.001035441312143602 0.007545874144486193 0.0 0.0
0.0 0.02726598187628935 0.023415249502751326 -0.022398838260782785 -0.0010164112419685587 0.006732004597981517 0.0 0.0
0.0 0.02042968486661431 0.017800244697937232 -0.01681287832006102 -0.0009873663778762105 0.0054236995062796585 0.0 0.0
0.0 0.014891377479194903 0.012939529874840592 -0.012002047562658855 -0.0009374823121817413 0.004058171540235436 0.0 0.0
0.0 0.01045236383556559 0.009089042308074013 -0.008231035056308126 -0.0008580072517658839 0.0029494493446673075 0.0 0.0
0.0 0.007086145841279913 0.006264131063983531 -0.005518074896983609 -0.0007460561669999186 0.002180165530330536 0.0 0.0
0.0 0.00479180951888139 0.004271383561029382 -0.003659130296222049 -0.0006122532648073337 0.0016536943486015242 0.0 0.0
0.0 0.0031894105416749854 0.002850632010394769 -0.002377797041180005 -0.000472834969214763 0.0012475513116040335 0.0 0.0
0.0 0.002026520635812342 0.0017934664740984875 -0.0014599111797886609 -0.000333555294309827 0.0008940334121768388 0.0 0.0
0.0 0.0010131513017233766 0.0009892311203520197 -0.0007846098740105067 -0.0002046212463415126 0.000541512545088291 0.0 0.0
0.0 0.0006434331273946781 0.00029137259276615975 -0.0002238479063506809 -6.752468641547905e-05 0.00013119896740591133 0.0 0.0
0.0 4.4146548471452073e-05 2.1244523516729447e-05 -1.5000491657094688e-05 -6.2440318596342484e-06 -4.6194358246764716e-06 0.0 0.0
0.0 2.5827852490346032e-06 -2.7198013869195817e-06 2.1168826293541885e-06 6.029187575652228e-07 -3.886137540582584e-06 0.0 0.0
0.0 -1.9328543309110656e-06 1.5821422624477898e-07 -1.20209051838583e-07 -3.8005174406152786e-08 3.5231800448983585e-07 0.0 0.0
0.0 0.0 0.0 0.0 0.0 0.0 0.0 0.0
0.0 0.0 0.0 0.0 0.0 0.0 0.0 0.0
0.0 4.245108237074401e-05 -1.7037452561499695e-05 7.317801311781891e-05 -5.6140560556319144e-05 0.0001245758123266397 0.0 0.0
0.0 0.0014933720545739623 0.0009445597399828295 -0.0013802918439209321 0.000435732103938101 0.0009163090140741371 0.0 0.0
0.0 0.000782716719821776 0.0005386799913624609 -0.00078270651795021 0.00024402652658774834 -0.0006080543748066498 0.0 0.0
0.0 -1.781917658140876e-05 -5.2682712759607095e-05 8.395116652141409e-05 -3.1268453761806876e-05 3.5337718305767694e-05 0.0 0.0
0.0 0.0 0.0 0.0 0.0 0.0 0.0 0.0
0.0 0.0 0.0 0.0 0.0 0.0 0.0 0.0
0.0 -2.246165107375649e-06 1.5972522696470997e-07 -1.2573103519818578e-07 -3.399419176652718e-08 -4.0445007000256713e-07 0.0 0.0
0.0 6.390941160049515e-07 -1.4075743026012761e-06 1.1641962539939492e-06 2.4337804860728224e-07 2.592585002244588e-06 0.0 0.0
0.0 2.119957589245137e-05 -2.1441243590208456e-05 1.6321572755237774e-05 5.119670834970744e-06 2.5309640362774936e-05 0.0 0.0
0.0 0.00013048859779660278 8.890632761224391e-05 -6.741002493489556e-05 -2.1496302677348082e-05 -5.827475940114864e-05 0.0 0.0
0.0 0.0008400203379395206 0.00041067259702487165 -0.0003213870711790554 -8.928552584581612e-05 -0.00027459238722247814 0.0 0.0
0.0 0.0011690155954569895 0.0010916584936649398 -0.0008721478393819768 -0.00021951065428296254 -0.0007441274369062496 0.0 0.0
0.0 0.0021731851029019554 0.001883875483933147 -0.001540806580026781 -0.0003430689039063661 -0.0011324372258093738 0.0 0.0
0.0 0.0033992688722919388 0.002969013474472773 -0.0024901086618165937 -0.00047890481265617715 -0.0015579042856218995 0.0 0.0
0.0 0.005137662376209444 0.0044968236906111 -0.0038809208097964577 -0.00061590288081464 -0.0020873727661150773 0.0 0.0
0.0 0.007685095703730498 0.006688723368713282 -0.005951822208257995 -0.0007369011604552846 -0.00283632609551743 0.0 0.0
0.0 0.01118803536725895 0.009715781882929188 -0.008889869122558259 -0.0008259127603709258 -0.003893195796720135 0.0 0.0
0.0 0.016001683307636353 0.013598351756796452 -0.01271896011962253 -0.0008793916371739314 -0.0052126194395460505 0.0 0.0
0.0 0.021033337055930038 0.018188420419741818 -0.017274744849521535 -0.0009136755702202872 -0.006514722058826008 0.0 0.0
0.0 0.027013380490494364 0.023148897185867216 -0.022210022882287933 -0.000938874303579299 -0.0073703130547309705 0.0 0.0
0.0 0.032836726140968664 0.028067125458739278 -0.027118447434728313 -0.000948678024010965 -0.007289794049866461 0.0 0.0
0.0 0.037591317775060064 0.032262198299976674 -0.03134486614569858 -0.000917332154278076 -0.005524309092787131 0.0 0.0
0.0 0.04023953686022269 0.03432476016082373 -0.03364750415566371 -0.0006772560051600255 6.846303038376966e-15 0.0 0.0
0.0 0.03759131777505865 0.03226219829997443 -0.03134486614569634 -0.0009173321542781024 0.005524309092803466 0.0 0.0
0.0 0.03283672614096537 0.028067125458735628 -0.027118447434724705 -0.0009486780240109201 0.0072897940498817 0.0 0.0
0.0 0.02701338049049053 0.023148897185863368 -0.022210022882284536 -0.0009388743035788294 0.007370313054739839 0.0 0.0
0.0 0.021033337055923574 0.01818842041973627 -0.01727474484951626 -0.0009136755702200062 0.0065147220588275 0.0 0.0
0.0 0.016001683307631673 0.013598351756792281 -0.012718960119618813 -0.000879391637173464 0.005212619439545122 0.0 0.0
0.0 0.011188035367254242 0.009715781882924672 -0.00888986912255424 -0.0008259127603704262 0.0038931957967187343 0.0 0.0
0.0 0.00768509570372568 0.006688723368708795 -0.00595182220825407 -0.0007369011604547269 0.0028363260955159256 0.0 0.0
0.0 0.005137662376204098 0.0044968236906063885 -0.003880920809792192 -0.0006159028808141986 0.0020873727661132836 0.0 0.0
0.0 0.0033992688722855454 0.0029690134744671383 -0.0024901086618114455 -0.0004789048126556921 0.001557904285618737 0.0 0.0
0.0 0.0021731851028967968 0.0018838754839286935 -0.0015408065800230116 -0.0003430689039056813 0.0011324372258059842 0.0 0.0
0.0 0.0011690155954531122 0.00109165849366119 -0.0008721478393789101 -0.0002195106542822805 0.000744127436903475 0.0 0.0
0.0 0.0008400203379358315 0.00041067259702257385 -0.0003213870711772581 -8.928552584531543e-05 0.00027459238722075946 0.0 0.0
0.0 0.00013048859779506063 8.890632761152771e-05 -6.7410024934333e-05 -2.149630267719475e-05 5.8274759400627815e-05 0.0 0.0
0.0 2.1199575892216017e-05 -2.144124358985916e-05 1.6321572754968e-05 5.1196708348914295e-06 -2.530964036224304e-05 0.0 0.0
0.0 6.390941151709256e-07 -1.4075743025569848e-06 1.1641962539594868e-06 2.433780485975361e-07 -2.5925850021531567e-06 0.0 0.0
0.0 -2.246165107184204e-06 1.5972522694812237e-07 -1.2573103518529555e-07 -3.3994191762862533e-08 4.0445006996416107e-07 0.0 0.0
0.0 0.0 0.0 0.0 0.0 0.0 0.0 0.0
0.0 0.0 0.0 0.0 0.0 0.0 0.0 0.0
0.0 -1.781917658255296e-05 -5.268271275970962e-05 8.395116652137317e-05 -3.126845376166353e-05 -3.5337718306448214e-05 0.0 0.0
0.0 0.0007827167198184955 0.0005386799913598404 -0.0007827065179463672 0.00024402652658652666 0.0006080543748038749 0.0 0.0
0.0 0.0006277055522142254 0.00015461356916845207 -0.0002238426179747206 6.922904880627021e-05 -0.0001795323533226329 0.0 0.0
0.0 -8.005033649102947e-05 -2.662416588131369e-05 3.6318143904683824e-05 -9.693978023370358e-06 3.9511224527549265e-05 0.0 0.0
0.0 0.0 0.0 0.0 0.0 0.0 0.0 0.0
0.0 0.0 0.0 0.0 0.0 0.0 0.0 0.0
0.0 -6.002912790000251e-07 2.3616486225867755e-08 -1.719295850321522e-08 -6.42352772264967e-09 -1.2456266137164213e-07 0.0 0.0
0.0 -1.2171783037190896e-06 1.4378260018682216e-07 -1.1961178330990175e-07 -2.417081687692274e-08 -2.1907335745530865e-07 0.0 0.0
0.0 -3.1824754821371857e-06 -6.086421415807286e-06 4.8431867260808366e-06 1.2432346897264173e-06 1.6273632467026974e-05 0.0 0.0
0.0 -9.957452768325317e-06 -5.074045470557884e-06 3.70067750538002e-06 1.3733679651779627e-06 -7.2181941266479e-06 0.0 0.0
0.0 0.00017785077378409977 9.858149867547248e-05 -7.72875126804354e-05 -2.129398599503755e-05 -0.00010674823673741361 0.0 0.0
0.0 0.0008210140169033119 0.00041536640447863924 -0.00032894428747684107 -8.642211700179774e-05 -0.0003746493332475717 0.0 0.0
0.0 0.0012619934046673774 0.000990294101668995 -0.0007961138846057072 -0.00019418021706328766 -0.0008416751018134159 0.0 0.0
0.0 0.0020716369178877866 0.0017574289394411712 -0.0014401375656180584 -0.0003172913738231137 -0.0012809906413656115 0.0 0.0
0.0 0.0033344649822506017 0.0028311080820897392 -0.002381062100886424 -0.0004500459812033151 -0.0017816694845323262 0.0 0.0
0.0 0.005150253918074571 0.004403527024098854 -0.0038237289921910383 -0.0005797980319078121 -0.002456063215622916 0.0 0.0
0.0 0.007832634009790911 0.006612144236832715 -0.005928636803610825 -0.0006835074332218895 -0.003392271724456408 0.0 0.0
0.0 0.01123413770607167 0.009516166566083699 -0.008764318391937368 -0.0007518481741463347 -0.0045472994913540645 0.0 0.0
0.0 0.015568014860082486 0.01302032600206655 -0.012227233749165064 -0.0007930922529014883 -0.005737312513764269 0.0 0.0
0.0 0.020116763347373803 0.016945806130135327 -0.01611921421532259 -0.000826591914812729 -0.006591479714759494 0.0 0.0
0.0 0.02468814087696947 0.021050705992041518 -0.020199172919384455 -0.0008515330726570618 -0.006700816295818331 0.0 0.0
0.0 0.029199107829836292 0.024878041812998797 -0.024051405163105326 -0.0008266366498934818 -0.005405445977909238 0.0 0.0
0.0 0.032063464362413883 0.026992096274311712 -0.026471780655304217 -0.00052031561900749 5.3681017964102296e-15 0.0 0.0
0.0 0.02919910782983604 0.02487804181299741 -0.02405140516310403 -0.0008266366498933847 0.005405445977922826 0.0 0.0
0.0 0.024688140876967163 0.02105070599203864 -0.020199172919381718 -0.0008515330726569075 0.006700816295831128 0.0 0.0
0.0 0.020116763347370368 0.016945806130131896 -0.016119214215319602 -0.0008265919148123079 0.006591479714766418 0.0 0.0
0.0 0.015568014860079018 0.013020326002063633 -0.012227233749162616 -0.0007930922529010048 0.005737312513764934 0.0 0.0
0.0 0.011234137706066696 0.009516166566079471 -0.0087643183919332 -0.0007518481741462656 0.004547299491352588 0.0 0.0
0.0 0.007832634009787055 0.00661214423682914 -0.00592863680360773 -0.0006835074332214149 0.003392271724454891 0.0 0.0
0.0 0.005150253918070551 0.00440352702409545 -0.0038237289921880524 -0.0005797980319073957 0.002456063215621477 0.0 0.0
0.0 0.003334464982246944 0.0028311080820864224 -0.0023810621008836155 -0.0004500459812028065 0.0017816694845304711 0.0 0.0
0.0 0.0020716369178837234 0.0017574289394376094 -0.001440137565614976 -0.00031729137382263304 0.0012809906413632378 0.0 0.0
0.0 0.0012619934046640172 0.0009902941016661847 -0.0007961138846034895 -0.00019418021706269525 0.0008416751018105655 0.0 0.0
0.0 0.0008210140168998748 0.0004153664044761401 -0.00032894428747482277 -8.64221170013176e-05 0.00037464933324516335 0.0 0.0
0.0 0.0001778507737820975 9.858149867437366e-05 -7.728751267957298e-05 -2.129398599480056e-05 0.00010674823673643764 0.0 0.0
0.0 -9.957452768565897e-06 -5.074045470369681e-06 3.7006775052337045e-06 1.3733679651359287e-06 7.218194126790129e-06 0.0 0.0
0.0 -3.182475482711688e-06 -6.086421415719333e-06 4.843186726011811e-06 1.2432346897074503e-06 -1.627363246680656e-05 0.0 0.0
0.0 -1.2171783042646017e-06 1.4378260021254756e-07 -1.1961178332985465e-07 -2.417081688270689e-08 2.1907335755365172e-07 0.0 0.0
0.0 -6.002912788133741e-07 2.3616486215689595e-08 -1.7192958495346648e-08 -6.423527720333701e-09 1.2456266133570848e-07 0.0 0.0
0.0 0.0 0.0 0.0 0.0 0.0 0.0 0.0
0.0 0.0 0.0 0.0 0.0 0.0 0.0 0.0
0.0 -8.005033649090145e-05 -2.6624165880931862e-05 3.631814390419132e-05 -9.69397802325958e-06 -3.951122452686985e-05 0.0 0.0
0.0 0.0006277055522101523 0.00015461356916673932 -0.00022384261797228983 6.92290488055515e-05 0.00017953235332043122 0.0 0.0
0.0 0.00010788399870212946 1.982308575634916e-05 -2.950538103701232e-05 9.682295280663254e-06 -2.603324867074488e-05 0.0 0.0
0.0 -1.3021064383339625e-05 -2.769224872512818e-06 4.084505370969767e-06 -1.3152804984569668e-06 3.6934607801370744e-06 0.0 0.0
0.0 2.6872475098897426e-06 -5.102850825596392e-09 1.2829916012259741e-08 -7.727065186663307e-09 5.790653785945233e-07 0.0 0.0
0.0 0.0 0.0 0.0 0.0 0.0 0.0 0.0
0.0 -2.8591288976220683e-07 9.24253522926734e-09 -7.084965888905891e-09 -2.157569340360503e-09 -5.122909249099934e-08 0.0 0.0
0.0 -8.00512691849985e-06 4.637719977144235e-07 -3.603310129269071e-07 -1.0344098478751364e-07 -2.0673031528361106e-06 0.0 0.0
0.0 1.9658205326050562e-05 1.3485629776823508e-07 -9.49314384083596e-08 -3.9924859359889456e-08 1.9976538403881285e-06 0.0 0.0
0.0 3.637040595872171e-05 -1.5642777703571332e-05 1.2217253857781989e-05 3.425523845789417e-06 4.840019343914928e-05 0.0 0.0
0.0 3.7205210213910725e-05 -4.362825127757239e-06 3.3416755249745426e-06 1.0211496027825771e-06 -1.7983095222726433e-05 0.0 0.0
0.0 0.00019893752542946632 3.428545578981085e-05 -2.9285466773133696e-05 -4.999989016677354e-06 -8.356128834057774e-05 0.0 0.0
0.0 0.00039803025495019264 0.00027777061534402995 -0.0002250769565411098 -5.269365880292e-05 -0.000425485033021971 0.0 0.0
0.0 0.0009408162998342989 0.0006885253210778605 -0.000560824864570769 -0.00012770045650709156 -0.0008121137278252492 0.0 0.0
0.0 0.0016947037238753053 0.0013208122651323809 -0.0010868732634735367 -0.00023393900165884397 -0.0012656917509065977 0.0 0.0
0.0 0.0028341101059227037 0.0022879364485644447 -0.0019292690632771903 -0.00035866738528725415 -0.0018326160140521583 0.0 0.0
0.0 0.004559584532121881 0.003694067500158701 -0.0032165286581543424 -0.00047753884200435795 -0.00257417619630276 0.0 0.0
0.0 0.006942353131216836 0.005601040489815045 -0.0050327880631378125 -0.0005682524266772327 -0.003498165953311055 0.0 0.0
0.0 0.009901210790439563 0.007996165551710259 -0.0073645386456684 -0.000631626906041858 -0.004484300524719161 0.0 0.0
0.0 0.013175854438600088 0.010826553856249393 -0.010146684152935702 -0.0006798697033136896 -0.00528850007725487 0.0 0.0
0.0 0.01684907661968892 0.013996211128846844 -0.013273809466663894 -0.0007224016621829489 -0.005521760549058928 0.0 0.0
0.0 0.020928576533232605 0.01733671852163793 -0.016612186255263207 -0.000724532266374717 -0.004813766152375512 0.0 0.0
0.0 0.0237267155340225 0.019509423479705093 -0.019161359168211253 -0.00034806431149383055 3.8805764157601175e-15 0.0 0.0
0.0 0.020928576533232223 0.017336718521636423 -0.016612186255261552 -0.0007245322663748724 0.004813766152385422 0.0 0.0
0.0 0.0168490766196889 0.013996211128845889 -0.013273809466663114 -0.000722401662182776 0.00552176054906945 0.0 0.0
0.0 0.01317585443859635 0.010826553856246333 -0.010146684152932895 -0.0006798697033134339 0.0052885000772590635 0.0 0.0
0.0 0.009901210790436444 0.007996165551707766 -0.007364538645666293 -0.0006316269060414738 0.0044843005247186245 0.0 0.0
0.0 0.006942353131212765 0.005601040489811815 -0.005032788063134758 -0.000568252426677053 0.0034981659533086613 0.0 0.0
0.0 0.004559584532119095 0.0036940675001565287 -0.0032165286581522855 -0.0004775388420042437 0.002574176196301653 0.0 0.0
0.0 0.002834110105921247 0.0022879364485629576 -0.001929269063275841 -0.0003586673852871163 0.001832616014051735 0.0 0.0
0.0 0.0016947037238728075 0.0013208122651299859 -0.0010868732634714815 -0.0002339390016585042 0.00126569175090447 0.0 0.0
0.0 0.0009408162998327042 0.0006885253210766729 -0.0005608248645699006 -0.00012770045650677237 0.0008121137278235084 0.0 0.0
0.0 0.000398030254947471 0.00027777061534220833 -0.0002250769565396362 -5.269365880257189e-05 0.0004254850330194126 0.0 0.0
0.0 0.00019893752542813942 3.4285455789279035e-05 -2.928546677267474e-05 -4.999989016604503e-06 8.356128833968676e-05 0.0 0.0
0.0 3.7205210213316095e-05 -4.36282512764078e-06 3.3416755248859154e-06 1.0211496027545706e-06 1.798309522272188e-05 0.0 0.0
0.0 3.637040595813568e-05 -1.5642777703439618e-05 1.2217253857675514e-05 3.4255238457641445e-06 -4.840019343878641e-05 0.0 0.0
0.0 1.9658205325579825e-05 1.3485629778683574e-07 -9.493143842256105e-08 -3.992485936420339e-08 -1.9976538402733805e-06 0.0 0.0
0.0 -8.005126919045947e-06 4.637719977288638e-07 -3.603310129378832e-07 -1.034409847909842e-07 2.067303152934318e-06 0.0 0.0
0.0 -2.8591288957305156e-07 9.242535222802489e-09 -7.084965883942201e-09 -2.1575693388636718e-09 5.122909245254697e-08 0.0 0.0
0.0 0.0 0.0 0.0 0.0 0.0 0.0 0.0
0.0 2.6872475094896635e-06 -5.1028508247719e-09 1.2829916010191829e-08 -7.727065185422114e-09 -5.790653785028842e-07 0.0 0.0
0.0 -1.3021064383775634e-05 -2.769224872435114e-06 4.084505370868979e-06 -1.3152804984338311e-06 -3.693460780003109e-06 0.0 0.0
0.0 0.0001078839987006894 1.9823085756101503e-05 -2.9505381036649315e-05 9.682295280547519e-06 2.6033248670495636e-05 0.0 0.0
0.0 6.367257150325125e-05 -8.533577521297157e-06 1.2449135409203409e-05 -3.9155578879061114e-06 1.4918358760372572e-05 0.0 0.0
0.0 -9.73863941396993e-06 1.198979876128027e-06 -1.7343721918311984e-06 5.353923157031539e-07 -2.2213959369181495e-06 0.0 0.0
0.0 9.70285583999249e-07 2.771422620445596e-09 1.5858612896310194e-09 -4.357283910076113e-09 2.0019023808334223e-07 0.0 0.0
0.0 0.0 0.0 0.0 0.0 0.0 0.0 0.0
0.0 -1.8527693940129905e-06 3.077453410851788e-08 -2.1836933445506085e-08 -8.937600663009364e-09 -4.1050898205858424e-07 0.0 0.0
0.0 2.5641008230703663e-06 -2.5187609811561108e-08 1.2712070795361655e-08 1.247553901618772e-08 4.767190958285863e-07 0.0 0.0
0.0 1.0245710281972232e-05 -1.7358796563429243e-07 1.267852672516477e-07 4.6802698382662727e-08 2.433276411275923e-06 0.0 0.0
0.0 7.951610741806023e-06 -1.7695338413912557e-06 1.6033887379051217e-06 1.6614510348609269e-07 1.2657400652353709e-05 0.0 0.0
0.0 1.966623014664645e-05 -5.653032098740761e-07 -1.574474662644475e-07 7.227506761385683e-07 2.2716775796676922e-06 0.0 0.0
0.0 3.985963444076012e-05 6.759771332861784e-06 -5.283363088660524e-06 -1.4764082442011708e-06 -4.527498137438164e-05 0.0 0.0
0.0 0.00020432385912768933 -3.4354911475720883e-06 1.2808501049870407e-06 2.1546410425850695e-06 -6.414074577653129e-05 0.0 0.0
0.0 0.00019629989842555903 4.191774030575767e-05 -3.746968186280254e-05 -4.448058442955383e-06 -0.00031141530530213877 0.0 0.0
0.0 0.00045753351325642443 0.0001954056949023947 -0.0001712450042743144 -2.4160690628080175e-05 -0.0006164324276369498 0.0 0.0
0.0 0.0009209104093689685 0.00047741342941080367 -0.0004235528573552806 -5.386057205552291e-05 -0.0010633651151219273 0.0 0.0
0.0 0.0017539172146116937 0.001085598562506245 -0.000955034584149421 -0.00013056397835682426 -0.0016815045933310754 0.0 0.0
0.0 0.0030077221790877247 0.0020219978895490353 -0.0018019019932561569 -0.0002200958962928793 -0.002402920890265786 0.0 0.0
0.0 0.004726119112514321 0.0032889721841376 -0.0029716496587799033 -0.00031732252535769786 -0.00321291399098916 0.0 0.0
0.0 0.007001833978941831 0.004971271584279321 -0.004556954939388956 -0.0004143166448903666 -0.003998024220788433 0.0 0.0
0.0 0.009621567584474341 0.007103972165430371 -0.006612853417958514 -0.0004911187474718585 -0.004325618600023222 0.0 0.0
0.0 0.012519597609411449 0.009717873676562728 -0.009159768498419398 -0.0005581051781433286 -0.003812053260688998 0.0 0.0
0.0 0.01597332475823316 0.011878683419264763 -0.011738607647883495 -0.0001400757713812652 2.8978555666192563e-15 0.0 0.0
0.0 0.012519597609412701 0.009717873676562514 -0.009159768498418966 -0.0005581051781435485 0.0038120532606956852 0.0 0.0
0.0 0.00962156758447435 0.007103972165429656 -0.006612853417958036 -0.0004911187474716215 0.004325618600030178 0.0 0.0
0.0 0.007001833978938539 0.004971271584276966 -0.004556954939386899 -0.00041431664489006493 0.0039980242207896645 0.0 0.0
0.0 0.004726119112511734 0.003288972184136167 -0.002971649658778607 -0.0003173225253575602 0.0032129139909882402 0.0 0.0
0.0 0.003007722179086657 0.0020219978895483245 -0.00180190199325537 -0.00022009589629295708 0.002402920890263713 0.0 0.0
0.0 0.0017539172146115263 0.0010855985625060252 -0.0009550345841493032 -0.00013056397835672126 0.0016815045933313113 0.0 0.0
0.0 0.0009209104093692922 0.0004774134294110786 -0.00042355285735548115 -5.386057205559774e-05 0.0010633651151223766 0.0 0.0
0.0 0.0004575335132554155 0.00019540569490182207 -0.00017124500427379688 -2.4160690628025193e-05 0.0006164324276350772 0.0 0.0
0.0 0.00019629989842475282 4.1917740305630924e-05 -3.7469681862727125e-05 -4.44805844290372e-06 0.0003114153053011469 0.0 0.0
0.0 0.00020432385912617403 -3.435491147775897e-06 1.280850105180222e-06 2.1546410425955676e-06 6.414074577488559e-05 0.0 0.0
0.0 3.985963444097854e-05 6.759771332845786e-06 -5.283363088655047e-06 -1.4764082441907537e-06 4.5274981374221566e-05 0.0 0.0
0.0 1.9666230146424553e-05 -5.653032098398094e-07 -1.574474662915054e-07 7.22750676131373e-07 -2.2716775794664707e-06 0.0 0.0
0.0 7.951610741575061e-06 -1.769533841380495e-06 1.6033887378962264e-06 1.6614510348426254e-07 -1.2657400652262558e-05 0.0 0.0
0.0 1.0245710281448204e-05 -1.7358796562138627e-07 1.2678526724200202e-07 4.680269837932477e-08 -2.4332764111328903e-06 0.0 0.0
0.0 2.5641008225903857e-06 -2.5187609805984845e-08 1.27120707918033e-08 1.247553901419601e-08 -4.7671909571658267e-07 0.0 0.0
0.0 -1.8527693938404611e-06 3.077453410586465e-08 -2.1836933443671594e-08 -8.937600662192741e-09 4.1050898201648453e-07 0.0 0.0
0.0 0.0 0.0 0.0 0.0 0.0 0.0 0.0
0.0 9.702855836726998e-07 2.7714226198560375e-09 1.5858612888147212e-09 -4.357283908669878e-09 -2.0019023801254523e-07 0.0 0.0
0.0 -9.738639413609248e-06 1.198979876106263e-06 -1.7343721918012312e-06 5.353923156949229e-07 2.2213959368509375e-06 0.0 0.0
0.0 6.36725715020261e-05 -8.533577521185721e-06 1.2449135409042398e-05 -3.915557887856353e-06 -1.4918358760168702e-05 0.0 0.0
0.0 -5.770224573590775e-06 4.574800597073866e-07 -6.591559002634143e-07 2.016758405559572e-07 -9.144510091093165e-07 0.0 0.0
0.0 1.2526523167751828e-07 -6.465083590863763e-08 8.861655850596377e-08 -2.3965722597317412e-08 -1.8388995518681798e-08 0.0 0.0
0.0 2.064854093868739e-06 6.285901752654254e-09 4.376526344576679e-09 -1.0662428097228783e-08 4.5291712233124875e-07 0.0 0.0
0.0 9.979078676547741e-07 1.8788561462081473e-08 -1.6038587709835963e-08 -2.7499737522443674e-09 2.0597935134464145e-07 0.0 0.0
0.0 -3.409514213561971e-07 1.4110183654137794e-08 -1.3516680434408293e-08 -5.935032197278356e-10 -9.058524485849523e-08 0.0 0.0
0.0 1.3548064262676173e-06 2.027879397198529e-09 -1.7982440201379955e-09 -2.2963537705411468e-10 1.8888268353207425e-07 0.0 0.0
0.0 1.2196517218122843e-05 3.131426929266121e-08 -3.982879318435302e-08 8.514523891697174e-09 3.0102338329546878e-06 0.0 0.0
0.0 1.364381397914434e-06 5.6481830903214136e-09 -9.00770661255222e-09 3.3595235222395815e-09 -6.722157597587392e-07 0.0 0.0
0.0 2.9259870261977108e-05 -1.1185984259441189e-08 8.148164941985328e-09 3.0378193174119475e-09 3.650206789250027e-05 0.0 0.0
0.0 3.217739114736148e-05 1.774649783802545e-08 -1.709746478332752e-08 -6.490330547061344e-10 -3.552564104896453e-05 0.0 0.0
0.0 0.00012186839368349338 9.749626914861472e-08 -9.078112390118659e-08 -6.7151452474274965e-09 -3.493552897012431e-05 0.0 0.0
0.0 0.00013543259935911328 -2.4066831600125014e-07 1.8547285240485247e-07 5.519546359640106e-08 -0.0002286989791154525 0.0 0.0
0.0 0.00023260037913902252 2.410369433015885e-07 -2.2710100538607778e-07 -1.3935937915506197e-08 -0.000405094206979965 0.0 0.0
0.0 0.0003887899763581255 -3.900673078060268e-07 5.608081712159454e-07 -1.7074086340994535e-07 -0.0006927765184987392 0.0 0.0
0.0 0.00061098113547483 -5.337243079120295e-06 5.3482047081011785e-06 -1.0961628980863004e-08 -0.0011606276691172924 0.0 0.0
0.0 0.0008913709438989319 -3.35729337268352e-05 2.7333241157811023e-05 6.239692569024369e-06 -0.0019539312952356366 0.0 0.0
0.0 0.001468027527724949 2.205909272930194e-05 -4.805873357789468e-05 2.5999640848592793e-05 -0.0029713572812322397 0.0 0.0
0.0 0.002507753301436073 0.0003396328131473167 -0.00040030168628851597 6.0668873141198824e-05 -0.0039605974704296195 0.0 0.0
0.0 0.0039641290822924 0.000978712061613174 -0.0010827333343595893 0.00010402127274641507 -0.004807908790888908 0.0 0.0
0.0 0.005930270523329975 0.0024193693739471478 -0.0023459237694956627 -7.344560445148814e-05 -0.004900819318392209 0.0 0.0
0.0 0.010403921974127258 0.0048873766975004885 -0.005043009913665476 0.00015563321616498727 4.427664831996303e-15 0.0 0.0
0.0 0.005930270523332263 0.002419369373946703 -0.002345923769495447 -7.344560445125498e-05 0.0049008193183988635 0.0 0.0
0.0 0.00396412908229239 0.0009787120616124374 -0.0010827333343588286 0.00010402127274639072 0.004807908790891919 0.0 0.0
0.0 0.0025077533014335406 0.00033963281314635887 -0.0004003016862873939 6.066887314103534e-05 0.0039605974704277494 0.0 0.0
0.0 0.001468027527723902 2.2059092729514415e-05 -4.805873357808545e-05 2.5999640848570424e-05 0.002971357281230628 0.0 0.0
0.0 0.0008913709438978712 -3.3572933726979493e-05 2.7333241157875737e-05 6.239692569104041e-06 0.0019539312952340836 0.0 0.0
0.0 0.0006109811354746771 -5.337243078985197e-06 5.348204708052271e-06 -1.0961629067209543e-08 0.0011606276691171567 0.0 0.0
0.0 0.000388789976358074 -3.90067307708521e-07 5.608081710592642e-07 -1.707408633507195e-07 0.0006927765184986403 0.0 0.0
0.0 0.00023260037913825954 2.410369433798229e-07 -2.2710100543832352e-07 -1.39359379414892e-08 0.00040509420697811606 0.0 0.0
0.0 0.00013543259935890384 -2.406683159751361e-07 1.8547285238042404e-07 5.519546359469513e-08 0.00022869897911468456 0.0 0.0
0.0 0.00012186839368208755 9.74962691563278e-08 -9.07811239074631e-08 -6.715145248884393e-09 3.4935528968574106e-05 0.0 0.0
0.0 3.217739114742184e-05 1.7746497842199203e-08 -1.709746478382875e-08 -6.490330583465232e-10 3.552564104909609e-05 0.0 0.0
0.0 2.9259870261866956e-05 -1.1185984266067236e-08 8.148164949339612e-09 3.0378193167013266e-09 -3.6502067892302095e-05 0.0 0.0
0.0 1.3643813975488437e-06 5.64818309111376e-09 -9.007706613594044e-09 3.35952352249477e-09 6.72215759848127e-07 0.0 0.0
0.0 1.2196517217618462e-05 3.13142692912894e-08 -3.982879318352939e-08 8.514523892241475e-09 -3.010233832814609e-06 0.0 0.0
0.0 1.354806425769798e-06 2.0278793932332602e-09 -1.7982440164227105e-09 -2.296353768149288e-10 -1.8888268341893876e-07 0.0 0.0
0.0 -3.409514215391008e-07 1.411018365014793e-08 -1.3516680430154398e-08 -5.935032199939456e-10 9.058524489440264e-08 0.0 0.0
0.0 9.979078674524573e-07 1.878856145814937e-08 -1.603858770646789e-08 -2.7499737516794493e-09 -2.0597935130014157e-07 0.0 0.0
0.0 2.0648540936528203e-06 6.285901752263818e-09 4.376526343534383e-09 -1.0662428095788475e-08 -4.529171222794224e-07 0.0 0.0
0.0 1.2526523183754334e-07 -6.465083591264989e-08 8.86165585127285e-08 -2.396572260007342e-08 1.838899549225652e-08 0.0 0.0
0.0 -5.770224574193189e-06 4.5748005974096255e-07 -6.591559003143907e-07 2.01675840573369e-07 9.144510091677869e-07 0.0 0.0
0.0 0.0 0.0 0.0 0.0 0.0 0.0 0.0
0.0 2.0609542807601947e-07 9.273562815650639e-10 1.4540868594685771e-11 -9.418971501595445e-10 4.459082023228434e-08 0.0 0.0
0.0 -1.2248514128461229e-06 -1.5173759005097848e-08 9.723008227579325e-09 5.450750777516546e-09 -2.59330237824527e-07 0.0 0.0
0.0 1.4903171002598552e-06 4.241911744608187e-08 -3.470315010608801e-08 -7.715967339986727e-09 3.123545742705125e-07 0.0 0.0
0.0 -9.046999605495438e-07 -2.5830668005375024e-08 1.7516571733125683e-08 8.314096272246535e-09 -2.6197814169887365e-07 0.0 0.0
0.0 -2.49720434533152e-06 -1.7633187285197221e-07 1.4444088894009927e-07 3.1890983911848076e-08 -8.31049350779347e-07 0.0 0.0
0.0 2.6018566111253775e-05 8.874637704448903e-07 -7.137435535959846e-07 -1.7372021684890654e-07 6.792471477416699e-06 0.0 0.0
0.0 1.1088989939271312e-05 1.8835788333196065e-06 -1.7048763194849744e-06 -1.7870251383467097e-07 1.3425531769913127e-05 0.0 0.0
0.0 2.0210832857981204e-05 6.182764265439035e-07 1.1799498140218966e-07 -7.362714079459826e-07 2.6058916850619695e-06 0.0 0.0
0.0 3.9283501689530546e-05 -6.59745328218585e-06 5.1478043542015206e-06 1.4496489279842849e-06 -4.468928528404639e-05 0.0 0.0
0.0 0.00020077051952039298 3.3080242987389204e-06 -1.2053526591851528e-06 -2.102671639553993e-06 -6.524398215378354e-05 0.0 0.0
0.0 0.0002051424910555858 -4.1042652907671624e-05 3.6748015469153974e-05 4.294637438517868e-06 -0.00030556741049538494 0.0 0.0
0.0 0.0004596328093529671 -0.0001947393714842525 0.00017058314352161422 2.4156227962637994e-05 -0.0006163657869942568 0.0 0.0
0.0 0.0009285831681557996 -0.0004788643365501726 0.0004256931122844324 5.3171224265740205e-05 -0.0010592376895830684 0.0 0.0
0.0 0.001746341926758323 -0.0010860551378035353 0.0009591732464885848 0.00012688189131495085 -0.001674377121448796 0.0 0.0
0.0 0.002890267555748894 -0.0019086480684083282 0.0017136517103545589 0.00019499635805376965 -0.00245795291508507 0.0 0.0
0.0 0.004133572490475295 -0.002753667802054446 0.0025218950421990083 0.00023177275985543824 -0.0034713702530610106 0.0 0.0
0.0 0.005311871441762418 -0.0032834717736827507 0.0030741992948595262 0.00020927247882322067 -0.004706909884323741 0.0 0.0
0.0 0.005632327203727338 -0.0031113879429857036 0.0029934232361865385 0.00011796470679916637 -0.0062186595984379854 0.0 0.0
0.0 0.0050830689567624735 -0.002371221632500202 0.0022575832111461453 0.00011363842135405803 -0.007540771763769806 0.0 0.0
0.0 0.009710727087204487 -0.0014704506618908723 0.0005846139648685606 0.0008858366970223117 6.555303175281857e-15 0.0 0.0
0.0 0.005083068956765365 -0.002371221632500439 0.002257583211146431 0.00011363842135400675 0.007540771763774231 0.0 0.0
0.0 0.005632327203728214 -0.003111387942985943 0.002993423236186712 0.00011796470679923407 0.00621865959844139 0.0 0.0
0.0 0.005311871441759169 -0.0032834717736807254 0.003074199294857533 0.0002092724788231908 0.004706909884323321 0.0 0.0
0.0 0.004133572490473334 -0.0027536678020532797 0.00252189504219785 0.0002317727598554295 0.0034713702530598228 0.0 0.0
0.0 0.0028902675557459824 -0.0019086480684058617 0.0017136517103522018 0.00019499635805366068 0.0024579529150826 0.0 0.0
0.0 0.0017463419267576873 -0.0010860551378030412 0.0009591732464881921 0.0001268818913148476 0.0016743771214478955 0.0 0.0
0.0 0.0009285831681539356 -0.00047886433654902076 0.0004256931122834643 5.3171224265556256e-05 0.0010592376895815648 0.0 0.0
0.0 0.00045963280935044503 -0.00019473937148336022 0.00017058314352081565 2.4156227962544424e-05 0.0006163657869925 0.0 0.0
0.0 0.0002051424910539914 -4.104265290711556e-05 3.674801546867061e-05 4.294637438444805e-06 0.0003055674104933443 0.0 0.0
0.0 0.00020077051951885447 3.3080242987678483e-06 -1.2053526592003375e-06 -2.102671639567342e-06 6.52439821527122e-05 0.0 0.0
0.0 3.928350168957967e-05 -6.5974532821527265e-06 5.1478043541737176e-06 1.4496489279789877e-06 4.468928528396599e-05 0.0 0.0
0.0 2.021083285787146e-05 6.182764265259002e-07 1.1799498141973773e-07 -7.362714079456218e-07 -2.605891684995704e-06 0.0 0.0
0.0 1.1088989938845788e-05 1.883578833296555e-06 -1.7048763194668966e-06 -1.7870251382968133e-07 -1.3425531769742692e-05 0.0 0.0
0.0 2.601856611057787e-05 8.87463770420462e-07 -7.137435535770495e-07 -1.7372021684342375e-07 -6.792471477216642e-06 0.0 0.0
0.0 -2.497204345732415e-06 -1.7633187286029646e-07 1.4444088894724497e-07 3.189098391306514e-08 8.310493508575193e-07 0.0 0.0
0.0 -9.04699961019965e-07 -2.5830668017235507e-08 1.7516571743234694e-08 8.314096274002637e-09 2.6197814179128124e-07 0.0 0.0
0.0 1.490317099709025e-06 4.2419117432873625e-08 -3.4703150095152404e-08 -7.7159673377218e-09 -3.123545741534368e-07 0.0 0.0
0.0 -1.2248514125423912e-06 -1.517375899988092e-08 9.72300822369931e-09 5.450750776178706e-09 2.593302377583429e-07 0.0 0.0
0.0 2.060954280464219e-07 9.273562814277173e-10 1.4540868585699457e-11 -9.418971500126806e-10 -4.459082022546827e-08 0.0 0.0
0.0 0.0 0.0 0.0 0.0 0.0 0.0 0.0
0.0 0.0 0.0 0.0 0.0 0.0 0.0 0.0
0.0 0.0 0.0 0.0 0.0 0.0 0.0 0.0
0.0 -6.184246970149612e-07 -2.0876111810172227e-08 1.7314089408234478e-08 3.562022401937719e-09 -1.2806852567251785e-07 0.0 0.0
0.0 -9.073015981519399e-07 -5.685714133296699e-08 4.755545022776246e-08 9.30169110519889e-09 -2.3445117858209914e-07 0.0 0.0
0.0 6.939413693331901e-06 2.566932478706198e-07 -2.177301530713073e-07 -3.8963094799286765e-08 1.5048904087892627e-06 0.0 0.0
0.0 1.690702464335916e-05 8.302974969186489e-07 -6.768157143116402e-07 -1.5348178260704522e-07 3.94016593183917e-06 0.0 0.0
0.0 -9.484815151817824e-06 -1.9000152509409203e-06 1.4558752375864544e-06 4.4414001335453723e-07 -5.641803804654118e-06 0.0 0.0
0.0 4.200512882470235e-05 1.593481927083029e-05 -1.2487477651068552e-05 -3.4473416197616862e-06 4.956452830741215e-05 0.0 0.0
0.0 3.6299151596780125e-05 4.225267850364162e-06 -3.2280145236805568e-06 -9.972533266835893e-07 -1.7914663393524557e-05 0.0 0.0
0.0 0.00019653225987902755 -3.365557870838035e-05 2.876399906710932e-05 4.89157964127128e-06 -8.21973039775801e-05 0.0 0.0
0.0 0.00039619421289054536 -0.0002769498560389012 0.0002243604257805875 5.258943025831408e-05 -0.00042443835215259324 0.0 0.0
0.0 0.0009398159215006789 -0.0006873585838628625 0.0005597817639892478 0.00012757681987361433 -0.0008120743498135179 0.0 0.0
0.0 0.0016951841061490158 -0.0013200597120490982 0.0010860642480633933 0.00023399546398570454 -0.001264329428055904 0.0 0.0
0.0 0.002839422654566862 -0.0022925832975391894 0.0019339531773568824 0.00035863012018230733 -0.0018188781460834096 0.0 0.0
0.0 0.004563789944441298 -0.0037011585019663526 0.0032262218371380495 0.0004749366648283023 -0.0025546767749176397 0.0 0.0
0.0 0.0068588314273819815 -0.005530529609341358 0.004973762961547752 0.0005567666477936053 -0.003580914729047558 0.0 0.0
0.0 0.009413030184279894 -0.007553655680074825 0.006952552302388134 0.000601103377686695 -0.004988383447246441 0.0 0.0
0.0 0.011562268354522209 -0.009351925889101392 0.008736911136076012 0.0006150147530253848 -0.006791907187091586 0.0 0.0
0.0 0.012993710802911897 -0.010191408055685013 0.009603615626214259 0.000587792429470746 -0.008685993871477489 0.0 0.0
0.0 0.012279891067374555 -0.00888003770369314 0.00833189362525113 0.0005481440784420096 -0.009295034480802393 0.0 0.0
0.0 0.012348597386626763 -0.007052825517518893 0.005517513609318118 0.0015353119082007706 4.401427139422154e-15 0.0 0.0
0.0 0.012279891067378167 -0.008880037703694487 0.008331893625252482 0.0005481440784419964 0.009295034480809955 0.0 0.0
0.0 0.012993710802912785 -0.010191408055684826 0.00960361562621408 0.0005877924294707466 0.008685993871484351 0.0 0.0
0.0 0.011562268354518655 -0.00935192588909823 0.008736911136073233 0.0006150147530249863 0.0067919071870937405 0.0 0.0
0.0 0.009413030184274975 -0.007553655680070929 0.006952552302384329 0.0006011033776865962 0.004988383447244712 0.0 0.0
0.0 0.006858831427377578 -0.005530529609337498 0.0049737629615442406 0.0005567666477932565 0.003580914729045614 0.0 0.0
0.0 0.004563789944437237 -0.0037011585019631273 0.0032262218371351976 0.0004749366648279308 0.0025546767749154405 0.0 0.0
0.0 0.00283942265456353 -0.002292583297536084 0.001933953177354117 0.000358630120181966 0.001818878146081724 0.0 0.0
0.0 0.0016951841061456398 -0.0013200597120459965 0.0010860642480607036 0.0002339954639852933 0.0012643294280537023 0.0 0.0
0.0 0.0009398159214968348 -0.0006873585838597296 0.0005597817639866494 0.00012757681987308003 0.0008120743498099811 0.0 0.0
0.0 0.0003961942128873763 -0.0002769498560366197 0.0002243604257787172 5.2589430257902156e-05 0.00042443835214969186 0.0 0.0
0.0 0.0001965322598762893 -3.36555787076023e-05 2.8763999066449865e-05 4.891579641152502e-06 8.219730397640253e-05 0.0 0.0
0.0 3.629915159631972e-05 4.225267850223549e-06 -3.228014523568093e-06 -9.972533266553266e-07 1.7914663393499827e-05 0.0 0.0
0.0 4.200512882421848e-05 1.593481927072094e-05 -1.2487477650986322e-05 -3.4473416197345227e-06 -4.9564528307097615e-05 0.0 0.0
0.0 -9.484815152235384e-06 -1.900015250960092e-06 1.4558752376029102e-06 4.441400133571453e-07 5.641803804757613e-06 0.0 0.0
0.0 1.6907024642783286e-05 8.302974968858689e-07 -6.768157142847567e-07 -1.534817826011506e-07 -3.940165931679167e-06 0.0 0.0
0.0 6.939413692862606e-06 2.566932478499369e-07 -2.1773015305387495e-07 -3.896309479599238e-08 -1.5048904086759496e-06 0.0 0.0
0.0 -9.073015986455803e-07 -5.685714134533184e-08 4.7555450237640396e-08 9.301691107664112e-09 2.3445117867591146e-07 0.0 0.0
0.0 -6.184246968346537e-07 -2.0876111804557736e-08 1.7314089403673093e-08 3.562022400887866e-09 1.2806852563539354e-07 0.0 0.0
0.0 0.0 0.0 0.0 0.0 0.0 0.0 0.0
0.0 0.0 0.0 0.0 0.0 0.0 0.0 0.0
0.0 0.0 0.0 0.0 0.0 0.0 0.0 0.0
0.0 0.0 0.0 0.0 0.0 0.0 0.0 0.0
0.0 -2.2098314800529048e-07 -8.38664001924742e-09 6.502053874168221e-09 1.884586145079983e-09 -4.238064830287919e-08 0.0 0.0
0.0 2.0226143929595992e-07 5.242485719426157e-09 -3.779454189556672e-09 -1.4630315298730378e-09 4.157666035962229e-08 0.0 0.0
0.0 2.3140902412834673e-06 1.1552332739743595e-07 -9.046105197643214e-08 -2.5062275420996453e-08 4.835579472159823e-07 0.0 0.0
0.0 -1.4785130582586273e-05 -1.860239571347144e-06 1.4566078701031893e-06 4.0363170124393135e-07 -4.625681372315462e-06 0.0 0.0
0.0 4.1235126732133564e-05 1.222794893258097e-05 -9.66456026057817e-06 -2.5633886720027608e-06 3.0726706872652734e-05 0.0 0.0
0.0 -5.4927169246119745e-06 5.538438676330114e-06 -3.979716890169792e-06 -1.5587217861602765e-06 -6.6230080845131335e-06 0.0 0.0
0.0 0.0001768320111325288 -9.802195307525677e-05 7.685175768436773e-05 2.1170195390888923e-05 -0.00010617545841845342 0.0 0.0
0.0 0.0008191168651312941 -0.00041375882274057225 0.0003275742923966458 8.618453034392644e-05 -0.00037221859957287643 0.0 0.0
0.0 0.0012566443016319676 -0.000989867969854042 0.0007956713434047528 0.00019419662644928957 -0.0008415152856569992 0.0 0.0
0.0 0.0020708401534943973 -0.0017561617342968271 0.001439030116023126 0.0003171316182737007 -0.00128162341215411 0.0 0.0
0.0 0.003331690344490774 -0.0028278968845680628 0.0023782631905655163 0.00044963369400254555 -0.0017798150435275766 0.0 0.0
0.0 0.005146881699304215 -0.004401652086916226 0.0038221109339217066 0.0005795411529945178 -0.0024329171889191942 0.0 0.0
0.0 0.00782978039515338 -0.006618584027076994 0.005935917408855966 0.0006826666182210298 -0.0033366728286674577 0.0 0.0
0.0 0.011182930994355493 -0.009483633225929683 0.008738701741779032 0.0007449314841506449 -0.004597014462331305 0.0 0.0
0.0 0.015255611283035767 -0.012719067626335909 0.011947220973659575 0.000771846652676326 -0.0064354267084507175 0.0 0.0
0.0 0.01895154555091898 -0.015743679205029715 0.01497771545829598 0.0007659637467337251 -0.008961863143486916 0.0 0.0
0.0 0.02127661803325926 -0.017454887828938576 0.016731358165767332 0.0007235296631712459 -0.011585679866896232 0.0 0.0
0.0 0.020051779246639756 -0.016082612714985494 0.015429583635298293 0.0006530290796872099 -0.012525950678523018 0.0 0.0
0.0 0.018050913869679656 -0.012934951281428676 0.010792401732830153 0.002142549548598514 4.803882985848773e-15 0.0 0.0
0.0 0.020051779246643104 -0.01608261271498626 0.015429583635299185 0.000653029079687076 0.01252595067853378 0.0 0.0
0.0 0.02127661803325967 -0.017454887828937282 0.016731358165766368 0.0007235296631709228 0.011585679866906536 0.0 0.0
0.0 0.018951545550915223 -0.015743679205026076 0.014977715458292625 0.0007659637467334428 0.008961863143491632 0.0 0.0
0.0 0.01525561128302857 -0.0127190676263299 0.011947220973653807 0.0007718466526760916 0.0064354267084493 0.0 0.0
0.0 0.011182930994351154 -0.0094836332259257 0.00873870174177541 0.0007449314841502904 0.004597014462329746 0.0 0.0
0.0 0.007829780395148464 -0.006618584027072532 0.0059359174088519685 0.0006826666182205597 0.003336672828665428 0.0 0.0
0.0 0.005146881699298277 -0.0044016520869112116 0.003822110933917067 0.0005795411529941467 0.002432917188916726 0.0 0.0
0.0 0.003331690344484827 -0.002827896884562829 0.002378263190560735 0.00044963369400209376 0.0017798150435248627 0.0 0.0
0.0 0.0020708401534886467 -0.0017561617342916364 0.0014390301160187276 0.0003171316182729087 0.001281623412150206 0.0 0.0
0.0 0.0012566443016261966 -0.0009898679698492562 0.0007956713434006478 0.00019419662644860783 0.000841515285652679 0.0 0.0
0.0 0.0008191168651270997 -0.0004137588227375972 0.0003275742923943162 8.618453034328104e-05 0.00037221859957046696 0.0 0.0
0.0 0.00017683201113021906 -9.80219530739661e-05 7.685175768336112e-05 2.117019539060495e-05 0.00010617545841717753 0.0 0.0
0.0 -5.492716925286509e-06 5.538438676136742e-06 -3.97971689001383e-06 -1.5587217861230792e-06 6.62300808491006e-06 0.0 0.0
0.0 4.123512673098114e-05 1.2227948932484099e-05 -9.664560260506123e-06 -2.5633886719779143e-06 -3.072670687246439e-05 0.0 0.0
0.0 -1.4785130582942974e-05 -1.8602395713630678e-06 1.4566078701168814e-06 4.0363170124618155e-07 4.625681372394511e-06 0.0 0.0
0.0 2.3140902408674115e-06 1.15523327377649e-07 -9.046105196029126e-08 -2.5062275417359505e-08 -4.835579471334804e-07 0.0 0.0
0.0 2.0226143915763118e-07 5.242485716237932e-09 -3.77945418719882e-09 -1.463031529031556e-09 -4.157666033030567e-08 0.0 0.0
0.0 -2.2098314792527552e-07 -8.386640016207881e-09 6.502053871768999e-09 1.8845861444370603e-09 4.238064828660179e-08 0.0 0.0
0.0 0.0 0.0 0.0 0.0 0.0 0.0 0.0
0.0 0.0 0.0 0.0 0.0 0.0 0.0 0.0
0.0 0.0 0.0 0.0 0.0 0.0 0.0 0.0
0.0 0.0 0.0 0.0 0.0 0.0 0.0 0.0
0.0 0.0 0.0 0.0 0.0 0.0 0.0 0.0
0.0 -3.216566219922162e-06 -2.1397347762671908e-07 1.7329740923679004e-07 4.067606838992204e-08 -6.433160338192215e-07 0.0 0.0
0.0 5.719953617343283e-06 2.885528550921863e-07 -2.3920738736991065e-07 -4.934546772224029e-08 1.133045069621961e-06 0.0 0.0
0.0 3.440254547638218e-05 6.0101730735226665e-06 -4.7353861776975195e-06 -1.2747868958252295e-06 1.1788246351192856e-05 0.0 0.0
0.0 6.818819262987852e-06 1.6507902064908003e-05 -1.2645857104843044e-05 -3.862044960064962e-06 1.2173086629634706e-05 0.0 0.0
0.0 0.00013834695760592795 -9.059763128374778e-05 6.889823335951332e-05 2.169939792423455e-05 -6.129773754303845e-05 0.0 0.0
0.0 0.0008385442116120977 -0.00040973914999682226 0.0003206174362257062 8.912171377111586e-05 -0.0002733262979172816 0.0 0.0
0.0 0.0011665707163262496 -0.001090565499458076 0.0008710705349749233 0.0002194949644831532 -0.0007419960122848936 0.0 0.0
0.0 0.002173281742923726 -0.001883423116936892 0.001540345688046671 0.00034307742889022033 -0.001131667024070173 0.0 0.0
0.0 0.0033985150148653376 -0.002968028006636334 0.0024893495926356954 0.0004786784140006406 -0.0015593369496703648 0.0 0.0
0.0 0.005131942547531112 -0.0044905542476056 0.003875576957489548 0.0006149772901160516 -0.002086270729672126 0.0 0.0
0.0 0.007668123955931395 -0.006673947883972516 0.005937450340221452 0.0007364975437510626 -0.0028074384846474114 0.0 0.0
0.0 0.011166609180207312 -0.009707544532715438 0.008879886747275318 0.000827657785440115 -0.003800482978296908 0.0 0.0
0.0 0.015985623725925973 -0.013607556820346495 0.012728563753556299 0.0008789930667902059 -0.005192295042371138 0.0 0.0
0.0 0.020932422568674433 -0.018082454228047426 0.017186387554192786 0.0008960666738546371 -0.007277158125532854 0.0 0.0
0.0 0.026268103382657945 -0.02231145665830477 0.02144119116218232 0.0008702654961224464 -0.010254322617344016 0.0 0.0
0.0 0.029691599553030315 -0.0247900755926775 0.023992888674607724 0.0007971869180697648 -0.013547853098560613 0.0 0.0
0.0 0.028099371789224434 -0.023087701737111353 0.022409938723941966 0.0006777630131693683 -0.015145497786449583 0.0 0.0
0.0 0.024117389030506413 -0.018757974961497198 0.016093296476190976 0.002664678485306214 5.82433407059213e-15 0.0 0.0
0.0 0.028099371789224704 -0.023087701737109445 0.022409938723940082 0.0006777630131693603 0.015145497786462651 0.0 0.0
0.0 0.029691599553030246 -0.024790075592675754 0.02399288867460637 0.0007971869180693591 0.013547853098574054 0.0 0.0
0.0 0.026268103382652553 -0.02231145665829945 0.021441191162177204 0.0008702654961222398 0.010254322617350991 0.0 0.0
0.0 0.02093242256866703 -0.01808245422804089 0.01718638755418645 0.0008960666738544557 0.007277158125533983 0.0 0.0
0.0 0.01598562372591924 -0.013607556820340424 0.012728563753550765 0.0008789930667896537 0.005192295042369437 0.0 0.0
0.0 0.011166609180201018 -0.009707544532709708 0.008879886747270091 0.0008276577854396113 0.0038004829782950686 0.0 0.0
0.0 0.00766812395592498 -0.006673947883966575 0.005937450340216023 0.0007364975437505509 0.0028074384846449064 0.0 0.0
0.0 0.005131942547523463 -0.004490554247598791 0.003875576957483313 0.0006149772901154755 0.002086270729669589 0.0 0.0
0.0 0.0033985150148582166 -0.0029680280066297056 0.002489349592629871 0.0004786784139998346 0.0015593369496664775 0.0 0.0
0.0 0.002173281742916206 -0.0018834231169302974 0.0015403456880409344 0.00034307742888936186 0.001131667024065838 0.0 0.0
0.0 0.0011665707163217355 -0.0010905654994534991 0.0008710705349711763 0.00021949496448232176 0.0007419960122818415 0.0 0.0
0.0 0.0008385442116070489 -0.0004097391499936153 0.0003206174362231771 8.91217137704382e-05 0.00027332629791518276 0.0 0.0
0.0 0.0001383469576034868 -9.059763128257561e-05 6.88982333586107e-05 2.1699397923964995e-05 6.129773754220172e-05 0.0 0.0
0.0 6.818819262603043e-06 1.650790206441475e-05 -1.2645857104462684e-05 -3.8620449599517616e-06 -1.2173086628949846e-05 0.0 0.0
0.0 3.440254547500314e-05 6.010173073396014e-06 -4.735386177598739e-06 -1.2747868957971845e-06 -1.178824635099982e-05 0.0 0.0
0.0 5.719953616914112e-06 2.8855285506468617e-07 -2.392073873468006e-07 -4.934546771788691e-08 -1.1330450695166714e-06 0.0 0.0
0.0 -3.2165662197370074e-06 -2.139734776125392e-07 1.732974092253024e-07 4.0676068387236426e-08 6.43316033777429e-07 0.0 0.0
0.0 0.0 0.0 0.0 0.0 0.0 0.0 0.0
0.0 0.0 0.0 0.0 0.0 0.0 0.0 0.0
0.0 0.0 0.0 0.0 0.0 0.0 0.0 0.0
0.0 0.0 0.0 0.0 0.0 0.0 0.0 0.0
0.0 0.0 0.0 0.0 0.0 0.0 0.0 0.0
0.0 0.0 0.0 0.0 0.0 0.0 0.0 0.0
0.0 -1.649479723669036e-06 -1.2518018786631028e-07 9.947930651809292e-08 2.5700881348227217e-08 -2.9211865649805987e-07 0.0 0.0
0.0 -7.214726574090464e-06 -1.0265851792243373e-06 8.090336308442254e-07 2.175515483800532e-07 -1.5269974149727768e-06 0.0 0.0
0.0 5.2932935519405664e-05 1.222641175140637e-05 -9.546841787405196e-06 -2.6795699640011008e-06 1.588859720904861e-05 0.0 0.0
0.0 6.731530368941119e-05 -2.3512184389442572e-05 1.6963908535788482e-05 6.548275853654071e-06 2.374059724661159e-06 0.0 0.0
0.0 0.0006503271932971863 -0.00029404138672072997 0.00022613861201257595 6.79027747081545e-05 -0.0001350826627130417 0.0 0.0
0.0 0.0010131598838597294 -0.0009886126212231472 0.0007840771057888334 0.00020453551543431366 -0.0005394945743318532 0.0 0.0
0.0 0.002025373515408184 -0.0017931489094366899 0.0014594651707020244 0.00033368373873466403 -0.0008918689760381812 0.0 0.0
0.0 0.0031893227097668144 -0.002850875823776086 0.0023779189456423658 0.0004729568781337197 -0.0012469974799959136 0.0 0.0
0.0 0.004791342101433222 -0.004270726321594992 0.003658792028171554 0.0006119342934234368 -0.0016557426600119578 0.0 0.0
0.0 0.007076571226369383 -0.006254539411279495 0.005509869056213283 0.0007446703550662097 -0.0021791168861058966 0.0 0.0
0.0 0.010417108605985367 -0.00905803245819482 0.008200847891955222 0.0008571845662395958 -0.0029187690595628645 0.0 0.0
0.0 0.01484123044402872 -0.012905366709258664 0.0119634404319746 0.0009419262772840466 -0.00395087867043261 0.0 0.0
0.0 0.020445523971548835 -0.017837354281156195 0.01684287720905051 0.0009944770721056866 -0.005338256550059233 0.0 0.0
0.0 0.027364338206642472 -0.023501324630509583 0.022497875829874402 0.0010034488006351783 -0.007375006961701837 0.0 0.0
0.0 0.033731162255412755 -0.02891546886466787 0.027958610142193047 0.0009568587224748257 -0.010469279574783504 0.0 0.0
0.0 0.03758920227983692 -0.032104273406272685 0.03125551772762632 0.0008487556786463639 -0.014280080018888813 0.0 0.0
0.0 0.03583731856295458 -0.029992406579203854 0.029307384275047563 0.0006850223041563041 -0.017008811310377393 0.0 0.0
0.0 0.030749220952837768 -0.024539930036136477 0.021391626811583592 0.003148303224552871 6.699068383353435e-15 0.0 0.0
0.0 0.03583731856295464 -0.02999240657920175 0.029307384275045457 0.0006850223041562748 0.01700881131039255 0.0 0.0
0.0 0.037589202279835365 -0.03210427340626972 0.03125551772762354 0.000848755678646174 0.014280080018903536 0.0 0.0
0.0 0.03373116225540739 -0.028915468864662314 0.027958610142188336 0.0009568587224739754 0.010469279574792103 0.0 0.0
0.0 0.027364338206634378 -0.02350132463050236 0.02249787582986746 0.0010034488006349152 0.00737500696170414 0.0 0.0
0.0 0.020445523971540952 -0.017837354281149107 0.016842877209044198 0.0009944770721048955 0.005338256550058668 0.0 0.0
0.0 0.014841230444020713 -0.0129053667092516 0.011963440431967981 0.0009419262772836245 0.00395087867043105 0.0 0.0
0.0 0.010417108605977896 -0.009058032458187693 0.008200847891948655 0.000857184566239038 0.002918769059561315 0.0 0.0
0.0 0.007076571226359886 -0.006254539411270898 0.005509869056205101 0.0007446703550657995 0.0021791168861030248 0.0 0.0
0.0 0.004791342101424128 -0.004270726321586648 0.003658792028164093 0.0006119342934225539 0.0016557426600084537 0.0 0.0
0.0 0.0031893227097590637 -0.0028508758237688857 0.0023779189456360392 0.00047295687813284646 0.0012469974799921447 0.0 0.0
0.0 0.002025373515401752 -0.0017931489094307556 0.0014594651706969896 0.0003336837387337658 0.0008918689760350654 0.0 0.0
0.0 0.001013159883855524 -0.0009886126212184931 0.0007840771057850635 0.00020453551543342922 0.0005394945743294344 0.0 0.0
0.0 0.0006503271932923264 -0.00029404138671751634 0.00022613861201005645 6.790277470745972e-05 0.00013508266271114995 0.0 0.0
0.0 6.731530368778401e-05 -2.3512184388863405e-05 1.6963908535355753e-05 6.548275853507933e-06 -2.37405972493698e-06 0.0 0.0
0.0 5.2932935518680034e-05 1.2226411751238261e-05 -9.546841787273033e-06 -2.679569963965068e-06 -1.5888597208812792e-05 0.0 0.0
0.0 -7.214726575227105e-06 -1.0265851793197862e-06 8.090336309188374e-07 2.175515484009401e-07 1.526997415133781e-06 0.0 0.0
0.0 -1.6494797235226471e-06 -1.251801878543305e-07 9.947930650851927e-08 2.5700881345804934e-08 2.921186564701545e-07 0.0 0.0
0.0 0.0 0.0 0.0 0.0 0.0 0.0 0.0
0.0 0.0 0.0 0.0 0.0 0.0 0.0 0.0
0.0 0.0 0.0 0.0 0.0 0.0 0.0 0.0
0.0 0.0 0.0 0.0 0.0 0.0 0.0 0.0
0.0 0.0 0.0 0.0 0.0 0.0 0.0 0.0
0.0 0.0 0.0 0.0 0.0 0.0 0.0 0.0
0.0 -1.6427912561948415e-06 -1.4576765561191955e-07 1.163519409844636e-07 2.9415714627468992e-08 -2.453416837895156e-07 0.0 0.0
0.0 1.6684875012151977e-05 1.8326717783723114e-06 -1.4244112837583095e-06 -4.082604946139857e-07 2.0604738229905975e-06 0.0 0.0
0.0 -1.646095275454528e-05 8.340708254347817e-07 -1.0427415662613736e-06 2.0867074082658447e-07 3.85581836023926e-06 0.0 0.0
0.0 0.00038241406478173204 -0.00012067307957221954 9.034841766623563e-05 3.032466190598458e-05 -1.7175158606967608e-05 0.0 0.0
0.0 0.0008245226877295997 -0.0007358086380519261 0.000575955979046204 0.00015985265900572175 -0.0002892809479273744 0.0 0.0
0.0 0.0017115491598635013 -0.0015437364727075283 0.0012463143110634238 0.0002974221616441045 -0.0006096038749895805 0.0 0.0
0.0 0.002822964279544657 -0.0025600123070383513 0.0021188995899230857 0.00044111271711526606 -0.0009028197218154983 0.0 0.0
0.0 0.0042977595319880066 -0.003870385344788893 0.0032873164229620384 0.0005830689218268541 -0.0012158516696363464 0.0 0.0
0.0 0.006329722117707999 -0.005634618503963648 0.004912344976612861 0.000722273527350782 -0.0015785710207051717 0.0 0.0
0.0 0.009258519558233836 -0.008094027494635357 0.007243295251212318 0.0008507322434230401 -0.0020627371499217545 0.0 0.0
0.0 0.013031595493834886 -0.011545952880748469 0.010587029376062467 0.0009589235046859943 -0.002772072480968983 0.0 0.0
0.0 0.01851869516852099 -0.01619318399973394 0.015152799133155825 0.0010403848665781167 -0.0037729989399022464 0.0 0.0
0.0 0.025443583849114312 -0.022092441475612068 0.02099669766139145 0.0010957438142206158 -0.005056384695075814 0.0 0.0
0.0 0.033193381854585716 -0.028897906830710172 0.027791060677132093 0.0011068461535780622 -0.006788354294441565 0.0 0.0
0.0 0.040869359899145356 -0.03543945154668085 0.03439851597413407 0.0010409355725468144 -0.009560239047742903 0.0 0.0
0.0 0.04570840187946243 -0.039343958438713335 0.03845173448092232 0.0008922239577910322 -0.01367504753123753 0.0 0.0
0.0 0.043526951507214987 -0.03693745247545792 0.03626206706630121 0.0006753854091566751 -0.01820573506500851 0.0 0.0
0.0 0.037220931269872526 -0.030458377545459575 0.026849553059033023 0.0036088244864265354 7.11757042193284e-15 0.0 0.0
0.0 0.043526951507216124 -0.03693745247545676 0.03626206706630029 0.0006753854091564581 0.018205735065024493 0.0 0.0
0.0 0.04570840187945689 -0.039343958438707353 0.03845173448091625 0.000892223957791086 0.013675047531252529 0.0 0.0
0.0 0.04086935989913937 -0.03543945154667497 0.0343985159741289 0.0010409355725460936 0.009560239047752009 0.0 0.0
0.0 0.03319338185457696 -0.02889790683070225 0.027791060677124668 0.0011068461535775748 0.0067883542944441435 0.0 0.0
0.0 0.02544358384910565 -0.022092441475604258 0.020996697661384293 0.0010957438142199696 0.005056384695076081 0.0 0.0
0.0 0.018518695168511592 -0.016193183999725507 0.01515279913314798 0.001040384866577534 0.0037729989399009223 0.0 0.0
0.0 0.013031595493825605 -0.011545952880739946 0.010587029376054742 0.0009589235046852116 0.0027720724809676385 0.0 0.0
0.0 0.009258519558222638 -0.008094027494625003 0.007243295251202304 0.0008507322434226956 0.0020627371499192114 0.0 0.0
0.0 0.006329722117697658 -0.005634618503953869 0.004912344976603955 0.0007222735273499103 0.0015785710207023768 0.0 0.0
0.0 0.004297759531978334 -0.0038703853447799802 0.0032873164229539585 0.0005830689218260232 0.001215851669632657 0.0 0.0
0.0 0.002822964279537086 -0.0025600123070310473 0.002118899589916762 0.0004411127171142838 0.000902819721812684 0.0 0.0
0.0 0.0017115491598569065 -0.0015437364727016718 0.001246314311058441 0.00029742216164323036 0.0006096038749873659 0.0 0.0
0.0 0.0008245226877247745 -0.0007358086380472833 0.0005759559790424317 0.0001598526590048518 0.00028928094792527115 0.0 0.0
0.0 0.0003824140647782061 -0.00012067307957033281 9.034841766480072e-05 3.0324661905532442e-05 1.7175158606195076e-05 0.0 0.0
0.0 -1.6460952755710973e-05 8.340708250354156e-07 -1.0427415659530053e-06 2.086707409175549e-07 -3.855818359807517e-06 0.0 0.0
0.0 1.6684875011096455e-05 1.832671778256117e-06 -1.4244112836681288e-06 -4.082604945880409e-07 -2.060473822842135e-06 0.0 0.0
0.0 -1.642791256004414e-06 -1.4576765559379935e-07 1.1635194096994413e-07 2.941571462384305e-08 2.4534168375822876e-07 0.0 0.0
0.0 0.0 0.0 0.0 0.0 0.0 0.0 0.0
0.0 0.0 0.0 0.0 0.0 0.0 0.0 0.0
0.0 0.0 0.0 0.0 0.0 0.0 0.0 0.0
0.0 0.0 0.0 0.0 0.0 0.0 0.0 0.0
0.0 0.0 0.0 0.0 0.0 0.0 0.0 0.0
0.0 0.0 0.0 0.0 0.0 0.0 0.0 0.0
0.0 -5.301947324137244e-07 -5.2111206359757394e-08 4.136700228751207e-08 1.0744204072252427e-08 -5.5764332293221864e-08 0.0 0.0
0.0 2.4825010272405424e-05 3.53927789043017e-06 -2.6384771054167123e-06 -9.008007850134323e-07 1.426877284346955e-06 0.0 0.0
0.0 9.66320966532305e-05 -8.366108209291097e-06 4.879980751420189e-06 3.4861274578708968e-06 1.5899636693317333e-05 0.0 0.0
0.0 0.0005696289151788937 -0.00040345747906346476 0.00030849433600382587 9.496314305963851e-05 -7.676738985111768e-05 0.0 0.0
0.0 0.0012828165284290982 -0.0011795948041036463 0.0009400926762220577 0.0002395021278815883 -0.0003372099453569822 0.0 0.0
0.0 0.002338541978263005 -0.0021474031768676477 0.0017592108116156562 0.0003881923652519917 -0.000562794293391867 0.0 0.0
0.0 0.003709649542940281 -0.00336001638502075 0.002825303032112169 0.0005347133529085815 -0.0007941244075601198 0.0 0.0
0.0 0.0054503092016750625 -0.004933324555548832 0.004255066937614762 0.000678257617934068 -0.0010458963526426722 0.0 0.0
0.0 0.007925604534576254 -0.00705440997762426 0.006238049797023386 0.0008163601806008731 -0.0013391866474038003 0.0 0.0
0.0 0.011171661299466461 -0.010014850028321498 0.009071112750451705 0.000943737277869795 -0.0017431011493748195 0.0 0.0
0.0 0.016109384475679563 -0.014104846532914102 0.013057652007068665 0.0010471945258454273 -0.0023594613117100677 0.0 0.0
0.0 0.02229260584786858 -0.019554264646982122 0.018426389019533192 0.0011278756274489222 -0.0032596787428583675 0.0 0.0
0.0 0.02997221386829289 -0.026362355147382936 0.02517594052322072 0.0011864146241622108 -0.004387601780096811 0.0 0.0
0.0 0.03905691104720437 -0.03415312747081175 0.032947999070610225 0.0012051284002015336 -0.005643460944166218 0.0 0.0
0.0 0.04788839317495332 -0.0417372262811716 0.040602962745395425 0.0011342635357761855 -0.007546606029999776 0.0 0.0
0.0 0.0536225664102252 -0.04649437518774174 0.04555097532873888 0.0009433998590028512 -0.011621368818225734 0.0 0.0
0.0 0.05153297941945587 -0.04408099705013132 0.043438926592762966 0.000642070457368337 -0.018579043006493972 0.0 0.0
0.0 0.044499806195733786 -0.03671258303625292 0.032667488138119635 0.004045094898133286 6.4835289914633165e-15 0.0 0.0
0.0 0.05153297941945542 -0.04408099705012914 0.04343892659276108 0.0006420704573680486 0.018579043006508776 0.0 0.0
0.0 0.053622566410219216 -0.04649437518773565 0.045550975328732854 0.0009433998590028057 0.011621368818240704 0.0 0.0
0.0 0.04788839317494452 -0.04173722628116365 0.040602962745387834 0.0011342635357757733 0.007546606030007938 0.0 0.0
0.0 0.0390569110471948 -0.034153127470803187 0.03294799907060211 0.0012051284002010678 0.005643460944168899 0.0 0.0
0.0 0.029972213868282863 -0.026362355147373853 0.025175940523212467 0.0011864146241613762 0.004387601780097292 0.0 0.0
0.0 0.02229260584785765 -0.01955426464697234 0.018426389019524134 0.0011278756274482153 0.0032596787428577087 0.0 0.0
0.0 0.016109384475668828 -0.01410484653290426 0.013057652007059635 0.001047194525844615 0.0023594613117088716 0.0 0.0
0.0 0.011171661299453487 -0.010014850028310021 0.009071112750440702 0.0009437372778693131 0.0017431011493730655 0.0 0.0
0.0 0.007925604534564878 -0.007054409977613359 0.006238049797013401 0.0008163601805999578 0.00133918664740131 0.0 0.0
0.0 0.00545030920166371 -0.004933324555538117 0.004255066937604819 0.0006782576179332922 0.0010458963526393293 0.0 0.0
0.0 0.003709649542930925 -0.003360016385011985 0.0028253030321043256 0.0005347133529076592 0.000794124407557614 0.0 0.0
0.0 0.0023385419782561406 -0.0021474031768603935 0.001759210811609371 0.00038819236525102093 0.000562794293389911 0.0 0.0
0.0 0.0012828165284235991 -0.0011795948040980025 0.0009400926762173644 0.00023950212788063758 0.0003372099453551972 0.0 0.0
0.0 0.000569628915174482 -0.0004034574790599384 0.0003084943360010494 9.496314305888854e-05 7.676738984998021e-05 0.0 0.0
0.0 9.663209665131218e-05 -8.366108208899536e-06 4.879980751147628e-06 3.4861274577517993e-06 -1.5899636693154028e-05 0.0 0.0
0.0 2.4825010271440088e-05 3.5392778903079047e-06 -2.638477105323103e-06 -9.008007849847367e-07 -1.4268772842538581e-06 0.0 0.0
0.0 -5.301947322778795e-07 -5.211120634663761e-08 4.136700227712206e-08 1.0744204069519997e-08 5.576433227657831e-08 0.0 0.0
0.0 0.0 0.0 0.0 0.0 0.0 0.0 0.0
0.0 0.0 0.0 0.0 0.0 0.0 0.0 0.0
0.0 0.0 0.0 0.0 0.0 0.0 0.0 0.0
0.0 0.0 0.0 0.0 0.0 0.0 0.0 0.0
0.0 0.0 0.0 0.0 0.0 0.0 0.0 0.0
0.0 0.0 0.0 0.0 0.0 0.0 0.0 0.0
0.0 -3.496294827607134e-07 -2.554798202866444e-08 2.0686108615403197e-08 4.86187341325861e-09 -3.404425059177649e-08 0.0 0.0
0.0 3.886994674676097e-08 9.492268096559752e-07 -7.126542857479772e-07 -2.365725239081009e-07 -5.586614582873648e-07 0.0 0.0
0.0 0.0002785675979068667 -9.574238933752155e-05 6.927374451683547e-05 2.6468644820685794e-05 2.9784723071039802e-05 0.0 0.0
0.0 0.0007589417093889661 -0.0007654430957834082 0.000596975734449301 0.00016846736133410803 -0.00011950184574891762 0.0 0.0
0.0 0.001790326639250841 -0.0016476912667822135 0.001331032969096346 0.0003166582976858668 -0.00026634727709692603 0.0 0.0
0.0 0.0029989952107722256 -0.0027770986297553364 0.002306952888514968 0.00047014574124036856 -0.00041702761900065644 0.0 0.0
0.0 0.004616244594272472 -0.004191125013748139 0.0035740453855093676 0.0006170796282387717 -0.0005752675270164545 0.0 0.0
0.0 0.006726258235765244 -0.006029911795778951 0.005269098223034716 0.0007608135727442354 -0.0007449948475760268 0.0 0.0
0.0 0.009493621036129095 -0.008525639676526774 0.0076262971141500815 0.0008993425623766956 -0.0009393127433943225 0.0 0.0
0.0 0.013628985010038258 -0.011982534774866672 0.010958353416830043 0.0010241813580366176 -0.0012201589524241298 0.0 0.0
0.0 0.01882618689404759 -0.01674432014221663 0.015615136201083627 0.0011291839411330029 -0.0016985016500211522 0.0 0.0
0.0 0.026014383083945637 -0.022977923364311557 0.021767864287440285 0.0012100590768712614 -0.002403630229096447 0.0 0.0
0.0 0.03482723692764358 -0.030612702164444814 0.029348907396510495 0.0012637947679342923 -0.0032705124677939656 0.0 0.0
0.0 0.04475916319075484 -0.03920251073726137 0.037916815716304404 0.001285695020956979 -0.004080063403963213 0.0 0.0
0.0 0.05451774775038009 -0.04764966642342441 0.046397446228427716 0.0012522201949967033 -0.004915159010509037 0.0 0.0
0.0 0.06137864773288882 -0.05345895254131119 0.05242447840471288 0.0010344741365982588 -0.007813101453451337 0.0 0.0
0.0 0.05994161769537352 -0.05160388567342711 0.05103425459462091 0.0005696310788061981 -0.017467997370256283 0.0 0.0
0.0 0.05255418551395396 -0.04362414514659241 0.0391863862258019 0.0044377589207904525 5.1573328940790475e-15 0.0 0.0
0.0 0.0599416176953714 -0.05160388567342398 0.05103425459461814 0.0005696310788058414 0.017467997370268416 0.0 0.0
0.0 0.061378647732882145 -0.053458952541304824 0.0524244784047068 0.0010344741365980504 0.007813101453464023 0.0 0.0
0.0 0.054517747750370854 -0.04764966642341602 0.04639744622842013 0.0012522201949958815 0.004915159010515943 0.0 0.0
0.0 0.04475916319074363 -0.03920251073725137 0.037916815716294947 0.0012856950209564357 0.004080063403965672 0.0 0.0
0.0 0.03482723692763239 -0.030612702164434798 0.029348907396501325 0.0012637947679334611 0.0032705124677945897 0.0 0.0
0.0 0.026014383083934136 -0.02297792336430114 0.02176786428743084 0.0012100590768702993 0.002403630229096156 0.0 0.0
0.0 0.01882618689403381 -0.016744320142204425 0.015615136201072159 0.0011291839411322648 0.001698501650019976 0.0 0.0
0.0 0.013628985010024111 -0.011982534774853906 0.010958353416817852 0.0010241813580360484 0.0012201589524229676 0.0 0.0
0.0 0.009493621036114811 -0.008525639676514079 0.007626297114138238 0.0008993425623758423 0.0009393127433924818 0.0 0.0
0.0 0.00672625823575281 -0.006029911795767074 0.005269098223023668 0.0007608135727434078 0.000744994847573443 0.0 0.0
0.0 0.004616244594262958 -0.004191125013738627 0.0035740453855008097 0.0006170796282378163 0.0005752675270145253 0.0 0.0
0.0 0.002998995210763728 -0.002777098629746712 0.002306952888507375 0.0004701457412393374 0.0004170276189993347 0.0 0.0
0.0 0.001790326639244001 -0.0016476912667754123 0.0013310329690904984 0.0003166582976849135 0.0002663472770955723 0.0 0.0
0.0 0.0007589417093843301 -0.0007654430957787836 0.0005969757344455993 0.000168467361333184 0.00011950184574788708 0.0 0.0
0.0 0.00027856759790457976 -9.574238933640759e-05 6.927374451602478e-05 2.6468644820383098e-05 -2.9784723070947018e-05 0.0 0.0
0.0 3.886994569453895e-08 9.492268094471026e-07 -7.126542855868725e-07 -2.3657252386004501e-07 5.58661458399796e-07 0.0 0.0
0.0 -3.4962948259329757e-07 -2.5547982010916308e-08 2.0686108601423818e-08 4.86187340948535e-09 3.404425057573326e-08 0.0 0.0
0.0 0.0 0.0 0.0 0.0 0.0 0.0 0.0
0.0 0.0 0.0 0.0 0.0 0.0 0.0 0.0
0.0 0.0 0.0 0.0 0.0 0.0 0.0 0.0
0.0 0.0 0.0 0.0 0.0 0.0 0.0 0.0
0.0 0.0 0.0 0.0 0.0 0.0 0.0 0.0
0.0 0.0 0.0 0.0 0.0 0.0 0.0 0.0
0.0 -2.648122376227234e-06 -3.125903338309129e-07 2.3695961047333237e-07 7.563072335754801e-08 -1.5550598747438445e-07 0.0 0.0
0.0 5.213722542108397e-05 1.9704048024725052e-05 -1.5334671018564257e-05 -4.36937700616052e-06 4.900629236417206e-06 0.0 0.0
0.0 0.0004243289370762626 -0.0002932298446665061 0.00021903965865302966 7.419018601347672e-05 4.0754561879584956e-05 0.0 0.0
0.0 0.0011739319980121356 -0.0011087052250586425 0.000878784813351521 0.00022992041170712076 -4.363411809159005e-05 0.0 0.0
0.0 0.002296139157295718 -0.002135668608701685 0.001746621628522949 0.0003890469801787352 -0.00011087181723741402 0.0 0.0
0.0 0.0037442341160804594 -0.0034220243068199905 0.0028801137849861743 0.0005419105218338151 -0.00017748461792971176 0.0 0.0
0.0 0.005551527315909893 -0.005046463981554013 0.004356442895700969 0.0006900210858530421 -0.00024880517460114593 0.0 0.0
0.0 0.007963584475948046 -0.007162188480006717 0.0063276810981646465 0.000834507381842066 -0.0003148105330232735 0.0 0.0
0.0 0.011388166399550828 -0.010033856173940108 0.009061387520800507 0.000972468653139603 -0.00037674722565969176 0.0 0.0
0.0 0.015660041040503454 -0.014023593782592787 0.012925683843683412 0.0010979099389093754 -0.0005213764170762906 0.0 0.0
0.0 0.02186692420785433 -0.019430368312076944 0.018225118551136406 0.0012052497609405396 -0.0007819486848629586 0.0 0.0
0.0 0.029905403002710374 -0.0264247485366285 0.02513746532977672 0.0012872832068517776 -0.0011643408343706236 0.0 0.0
0.0 0.039625728700654846 -0.03485000849173651 0.03351391060842701 0.0013360978833094886 -0.0016654233868635567 0.0 0.0
0.0 0.05032862688099597 -0.04408770329221264 0.04274116407250899 0.0013465392197036655 -0.002120872685443723 0.0 0.0
0.0 0.06070476977313831 -0.05302879472594175 0.05169449092598328 0.0013343037999584673 -0.002324120696319668 0.0 0.0
0.0 0.0685998359473446 -0.05985357621518003 0.05858125505796054 0.001272321157219504 -0.003211696249432602 0.0 0.0
0.0 0.06893786214853537 -0.05966502795066887 0.05915541593436207 0.0005096120163068187 -0.01179652560291134 0.0 0.0
0.0 0.06219024122089377 -0.0519192992891228 0.047324398095739885 0.004594901193382869 3.12944115066216e-15 0.0 0.0
0.0 0.06893786214853115 -0.059665027950664695 0.059155415934358135 0.0005096120163065453 0.01179652560291802 0.0 0.0
0.0 0.06859983594733411 -0.059853576215170894 0.05858125505795124 0.001272321157219644 0.0032116962494402697 0.0 0.0
0.0 0.060704769773128206 -0.05302879472593271 0.051694490925975084 0.0013343037999576307 0.002324120696323816 0.0 0.0
0.0 0.05032862688098341 -0.044087703292201345 0.042741164072498394 0.001346539219702921 0.0021208726854446127 0.0 0.0
0.0 0.039625728700640156 -0.03485000849172358 0.033513910608414584 0.0013360978833089965 0.0016654233868641395 0.0 0.0
0.0 0.02990540300269702 -0.02642474853661655 0.025137465329765626 0.0012872832068509315 0.0011643408343706223 0.0 0.0
0.0 0.021866924207839165 -0.01943036831206343 0.018225118551123812 0.001205249760939621 0.0007819486848624298 0.0 0.0
0.0 0.015660041040487942 -0.014023593782578994 0.012925683843670375 0.0010979099389086169 0.0005213764170757958 0.0 0.0
0.0 0.01138816639953547 -0.010033856173926126 0.00906138752078738 0.0009724686531387402 0.00037674722565871673 0.0 0.0
0.0 0.007963584475933606 -0.007162188479993835 0.006327681098152541 0.0008345073818412923 0.00031481053302232973 0.0 0.0
0.0 0.005551527315898929 -0.005046463981543572 0.004356442895691504 0.0006900210858520698 0.000248805174600055 0.0 0.0
0.0 0.0037442341160701053 -0.0034220243068098307 0.0028801137849769564 0.0005419105218328734 0.0001774846179288942 0.0 0.0
0.0 0.0022961391572883945 -0.002135668608694205 0.001746621628516568 0.0003890469801776379 0.00011087181723675569 0.0 0.0
0.0 0.0011739319980067604 -0.0011087052250528758 0.0008787848133467374 0.00022992041170613841 4.3634118090982816e-05 0.0 0.0
0.0 0.00042432893707331073 -0.00029322984466420375 0.0002190396586512834 7.419018601292039e-05 -4.075456187952432e-05 0.0 0.0
0.0 5.2137225420123844e-05 1.9704048024557434e-05 -1.533467101842711e-05 -4.3693770061306615e-06 -4.9006292362892625e-06 0.0 0.0
0.0 -2.6481223762910176e-06 -3.125903338328666e-07 2.36959610474324e-07 7.563072335853993e-08 1.5550598746556588e-07 0.0 0.0
0.0 0.0 0.0 0.0 0.0 0.0 0.0 0.0
0.0 0.0 0.0 0.0 0.0 0.0 0.0 0.0
0.0 0.0 0.0 0.0 0.0 0.0 0.0 0.0
0.0 0.0 0.0 0.0 0.0 0.0 0.0 0.0
0.0 0.0 0.0 0.0 0.0 0.0 0.0 0.0
0.0 0.0 0.0 0.0 0.0 0.0 0.0 0.0
0.0 1.6004297711181226e-06 6.953396176498085e-08 2.3531155938533583e-09 -7.188707735865485e-08 -3.3915251981599474e-07 0.0 0.0
0.0 0.00016414728239810703 -1.2951242803643929e-05 7.949974744803412e-06 5.001268058840536e-06 1.2047017394527767e-05 0.0 0.0
0.0 0.0006490454879215562 -0.000477415453836032 0.000354517712494216 0.00012289774134181613 7.386405217136304e-05 0.0 0.0
0.0 0.0015020738592064606 -0.001416154980032968 0.0011102388488840723 0.0003059161311488956 5.223272942311185e-05 0.0 0.0
0.0 0.002733197498608566 -0.002547440083724383 0.002059482051188323 0.0004879580325360581 5.55345752182143e-05 0.0 0.0
0.0 0.004281383637315034 -0.003971750923480601 0.0033035708309375107 0.0006681800925430894 8.05442225519783e-05 0.0 0.0
0.0 0.006328254927772438 -0.005771484781933145 0.004920506374559687 0.0008509784073734569 0.00011451582590227781 0.0 0.0
0.0 0.009072220244039714 -0.008123601587272319 0.007079267859589434 0.001044333727682889 0.0002051510835193301 0.0 0.0
0.0 0.012541575699431394 -0.011339031951432722 0.010087822017914822 0.0012512099335178944 0.0003544252696557988 0.0 0.0
0.0 0.017493532487625973 -0.015759773650774727 0.014298853744532044 0.0014609199062426764 0.00045937781337880785 0.0 0.0
0.0 0.02421978309866572 -0.021696332726132757 0.020022115465333855 0.0016742172607988853 0.0005614516150155933 0.0 0.0
0.0 0.03290288375385158 -0.029304700652959745 0.027429689405827063 0.001875011247132646 0.0005667510497558074 0.0 0.0
0.0 0.0433265888214337 -0.03835810241895768 0.036317343486195225 0.0020407589327624846 0.0004225744964242908 0.0 0.0
0.0 0.0545789994499626 -0.048093776409259784 0.0459521892372223 0.002141587172037473 0.00015478433104176934 0.0 0.0
0.0 0.06514953821674754 -0.05720386652983976 0.055066852932918 0.0021370135969217504 -0.0001170001870182966 0.0 0.0
0.0 0.07320679508599316 -0.06421425295661957 0.06210018438450351 0.002114068572116051 -0.0002905408934945346 0.0 0.0
0.0 0.07566264400373332 -0.06667533962930397 0.06480461034454617 0.0018707292847578209 -0.007723406567106588 0.0 0.0
0.0 0.07223070884160496 -0.06102788268415008 0.054267117512982944 0.006760765171167135 2.095545958979983e-15 0.0 0.0
0.0 0.07566264400372796 -0.06667533962929924 0.06480461034454152 0.001870729284757747 0.0077234065671098915 0.0 0.0
0.0 0.07320679508598035 -0.06421425295660874 0.06210018438449247 0.0021140685721162686 0.00029054089349842514 0.0 0.0
0.0 0.06514953821673503 -0.057203866529828507 0.05506685293290777 0.002137013596920756 0.00011700018702026811 0.0 0.0
0.0 0.05457899944994906 -0.048093776409247495 0.04595218923721119 0.0021415871720362896 -0.0001547843310415126 0.0 0.0
0.0 0.04332658882141682 -0.038358102418942656 0.03631734348618101 0.0020407589327616255 -0.0004225744964241303 0.0 0.0
0.0 0.032902883753835994 -0.029304700652945895 0.027429689405813897 0.001875011247131994 -0.0005667510497560559 0.0 0.0
0.0 0.024219783098649868 -0.021696332726118473 0.02002211546532089 0.0016742172607975953 -0.0005614516150157481 0.0 0.0
0.0 0.017493532487609532 -0.015759773650759958 0.014298853744518399 0.0014609199062415687 -0.0004593778133788443 0.0 0.0
0.0 0.012541575699415443 -0.011339031951418308 0.010087822017901656 0.0012512099335166512 -0.0003544252696563138 0.0 0.0
0.0 0.009072220244024726 -0.00812360158725873 0.007079267859576761 0.00104433372768197 -0.00020515108351932903 0.0 0.0
0.0 0.006328254927759246 -0.00577148478192148 0.0049205063745490114 0.0008509784073724653 -0.00011451582590294882 0.0 0.0
0.0 0.00428138363730317 -0.003971750923469521 0.0033035708309275477 0.0006681800925419741 -8.054422255240228e-05 0.0 0.0
0.0 0.00273319749860116 -0.002547440083716948 0.002059482051182177 0.00048795803253476886 -5.553457521811233e-05 0.0 0.0
0.0 0.001502073859200238 -0.0014161549800263862 0.0011102388488786284 0.0003059161311477584 -5.223272942322309e-05 0.0 0.0
0.0 0.00064904548791786 -0.00047741545383278713 0.0003545177124917575 0.00012289774134103005 -7.386405217113277e-05 0.0 0.0
0.0 0.00016414728239675823 -1.2951242803308938e-05 7.949974744582512e-06 5.001268058726895e-06 -1.2047017394357222e-05 0.0 0.0
0.0 1.6004297705406918e-06 6.953396168526615e-08 2.3531156513319553e-09 -7.188707733667413e-08 3.391525198128718e-07 0.0 0.0
0.0 0.0 0.0 0.0 0.0 0.0 0.0 0.0
0.0 0.0 0.0 0.0 0.0 0.0 0.0 0.0
0.0 0.0 0.0 0.0 0.0 0.0 0.0 0.0
SCALARS Wm float 4
LOOKUP_TABLE default
6.437168203039459 1.8141922462242233 2.096286629239889 2.5266893275753444
2.279142237716689 1.3016889949250152 0.3814144930462723 0.5960387497454019
0.37506707607230005 0.38139699830705465 -0.0018473756037774432 -0.004482546630977153
0.37875821927564246 0.3821447795121937 -0.0004873687015177926 -0.002899191535033343
0.5650695948027644 0.5508942793043968 0.006804062281246954 0.0073712532171208225
0.9268735146373234 0.6657716139485157 0.07187381259738143 0.18922808809142605
1.535823453307274 0.8544601978769076 0.23621213976591507 0.4451511156644513
2.3505559099972575 1.0466891449197684 0.49377529531407244 0.8100914697634175
3.4188014636474575 1.2692069100111707 0.8719939704193411 1.2776005832169455
4.844093273992863 1.5472974079074062 1.4214178640054282 1.8753780020800301
6.798636549284498 1.9141061554942156 2.2225995523864492 2.661930841403832
9.498036758731972 2.399487159474192 3.35319711415859 3.745352485099188
13.358802380074197 3.0150395056895523 5.094948542560036 5.24881433182461
18.707337991362227 3.773326725622275 7.654320326553037 7.279690939186915
25.747641454381835 4.624915751260847 11.235279124263982 9.887446578856995
34.39274715466972 5.46390593065523 15.90771455860122 13.021126665413274
44.0639235146987 6.130112252611487 21.41955239294749 16.514258869139717
53.7279408532749 6.477014496248703 27.238472190525485 20.01245416650073
62.13787343687391 6.49682581771846 32.557935276701485 23.083112342453962
67.93064020035226 6.271573178554359 36.36403734344277 25.295029678355135
69.9216185632438 5.978396852976481 37.78584465582396 26.15737705444336
67.9306402003478 6.271573178552792 36.36403734344091 25.295029678354073
62.137873436869256 6.496825817722651 32.55793527669586 23.083112342450725
53.727940853264805 6.477014496250188 27.238472190518202 20.012454166496426
44.06392351468243 6.13011225260459 21.419552392941732 16.514258869136118
34.39274715465819 5.4639059306534135 15.90771455859536 13.021126665409412
25.74764145436662 4.6249157512539245 11.235279124259154 9.887446578853531
18.707337991347053 3.773326725616972 7.65432032654743 7.279690939182659
13.35880238006015 3.0150395056857624 5.094948542554423 5.248814331819966
9.49803675872004 2.3994871594724216 3.353197114153245 3.7453524850943736
6.798636549274111 1.914106155492045 2.2225995523823063 2.6619308413997596
4.844093273984753 1.547297407905943 1.4214178640021922 1.8753780020766153
3.4188014636412083 1.269206910009981 0.8719939704170541 1.277600583214174
2.3505559099926656 1.0466891449195386 0.4937752953122518 0.8100914697608751
1.5358234533036934 0.8544601978762308 0.23621213976488947 0.4451511156625736
0.9268735146351295 0.6657716139476517 0.07187381259718528 0.18922808809029215
0.5650695948018076 0.5508942793038014 0.006804062281127106 0.00737125321687913
0.37875821927524933 0.3821447795117658 -0.0004873687015116937 -0.002899191535004801
0.3750670760719949 0.3813969983066336 -0.0018473756037454562 -0.004482546630893255
2.279142237715441 1.301688994925722 0.38141449304546426 0.5960387497442532
6.437168203025084 1.8141922462161562 2.0962866292367206 2.526689327572208
7.064664601543379 3.4980732652878346 1.552760520303678 2.0138308159518656
0.643830732508699 0.22708289998958664 0.1332657341699004 0.28348209834921234
0.19300568585712605 0.19273946028731614 0.00016968072352386396 9.654484628602244e-05
0.3096589065439159 0.30989771538532623 -9.213948674856948e-06 -0.00022959489273551763
0.4470773034250236 0.44876562074719456 -0.00048278281821336594 -0.0012055345039576014
0.7596324751601562 0.6165918934673349 0.04253650804090463 0.10050407365191683
1.2725758839542747 0.747768752575424 0.17291263735736906 0.3518944940214818
1.9876820831445081 0.9069287017377635 0.39865835705113567 0.6820950243556085
2.9166771685750597 1.0758764733723056 0.7341815516714341 1.10661914353132
4.125414866864722 1.2706557834480716 1.2065595192607792 1.6481995641558715
5.764016758947312 1.5073143963637632 1.8958265274357788 2.3608758351477688
8.095045685570312 1.8038064096634798 2.9552407031225 3.3359985727843324
11.307462413280906 2.162403881339808 4.439700686102014 4.705357845839086
15.90030880149265 2.5876663642652638 6.741612743493258 6.571029693734131
22.01698148371817 3.050824647969811 9.969628258280114 8.996528577468252
29.596122613567974 3.47463304685193 14.189158957102432 11.932330609613606
38.167230250775816 3.7541199547950517 19.231044455976605 15.182065840004144
46.85451796852426 3.817142539500423 24.58609823185229 18.45127719717153
54.50665507595437 3.665430442139585 29.50024711533241 21.340977518482376
59.87645414009585 3.357598984098268 33.12059261456278 23.39826254143482
61.82578590363445 3.0811353161800166 34.55176312845106 24.192887459003376
59.87645414009102 3.357598984095294 33.120592614561545 23.398262541434164
54.506655075948245 3.6654304421409956 29.50024711532765 21.340977518479598
46.85451796851438 3.817142539500099 24.586098231846336 18.451277197167947
38.1672302507672 3.7541199547953013 19.23104445597119 15.182065840000703
29.596122613558904 3.474633046851839 14.189158957097046 11.932330609610025
22.016981483707802 3.050824647967966 9.969628258275167 8.996528577464673
15.900308801481913 2.5876663642641637 6.741612743487839 6.571029693729916
11.30746241326947 2.1624038813372732 4.439700686097201 4.705357845835
8.09504568556015 1.803806409662346 2.9552407031178354 3.335998572779965
5.764016758938485 1.5073143963623832 1.8958265274320751 2.3608758351440247
4.125414866857693 1.2706557834468177 1.206559519258087 1.6481995641527882
2.9166771685695188 1.075876473371144 0.7341815516695431 1.1066191435288317
1.9876820831402968 0.9069287017373439 0.39865835704959296 0.6820950243533596
1.2725758839512273 0.7477687525746599 0.17291263735666554 0.351894494019902
0.7596324751583573 0.616591893466598 0.042536508040516605 0.10050407365124278
0.44707730342427754 0.4487656207465916 -0.0004827828182549701 -0.0012055345040591096
0.3096589065436457 0.3098977153850415 -9.21394867310587e-06 -0.00022959489272272572
0.19300568585711012 0.19273946028731068 0.00016968072352041512 9.65448462789874e-05
0.6438307325074519 0.2270828999899461 0.13326573416924414 0.283482098348262
7.064664601529501 3.498073265280403 1.5527605203005441 2.013830815948553
5.174450438809551 2.7686665591434707 0.9871489561443931 1.4186349235216877
0.3213104256229625 0.07828685807963105 0.0688443612561272 0.17417920628720418
0.11849431081164338 0.11849431081164338 0.0 0.0
0.23250380923712102 0.23247954429042098 1.0145746364015119e-05 1.4119200336005697e-05
0.35999730886036174 0.36317389543033507 -0.0006584090733595711 -0.002518177496613769
0.6009818657594841 0.5525756848195829 0.014794060001164127 0.033612120938737236
1.0265012986535964 0.6775258842016834 0.10542281255057384 0.24355260190133887
1.6504221029906736 0.8360251704323313 0.2872158337383487 0.527181098819994
2.4509681478121683 0.9946991351972385 0.5582785967263237 0.8979904158886057
3.49959557096402 1.174417267572768 0.9570227538816323 1.3681555495096194
4.903399576948455 1.387219247026739 1.5314602423345671 1.9847200875871474
6.844968784541433 1.6454613035960035 2.3678053182937053 2.831702162651728
9.695316273010882 1.9693053516346 3.7110781244409212 4.014932796935357
13.608531272722871 2.347507435865043 5.5967209765589745 5.664302860298852
18.969606713627257 2.7560007097858996 8.386867686172053 7.826738317669308
25.6592870627363 3.136408657839531 12.05428536825109 10.46859303664568
33.27850007140698 3.4082532821559797 16.436909435315407 13.433337353935595
41.061671524263645 3.503519751572494 21.14454430255239 16.41360747013875
47.97439793238672 3.39045672963155 25.53017314257798 19.053768060177198
52.86638518509794 3.139812094554488 28.789200483993213 20.937372606550234
54.62340190261805 2.83059229605902 30.09616071311114 21.696648893447893
52.866385185094906 3.1398120945524775 28.78920048399258 20.937372606549843
47.974397932382814 3.3904567296343453 25.53017314257378 19.053768060174697
41.061671524253924 3.5035197515692578 21.144544302548518 16.41360747013615
33.278500071397666 3.4082532821546 16.43690943531056 13.433337353932506
25.659287062726847 3.1364086578375496 12.054285368246676 10.46859303664262
18.96960671361793 2.756000709785071 8.386867686167195 7.826738317665665
13.608531272713828 2.347507435864925 5.596720976554038 5.664302860294857
9.69531627300081 1.9693053516316157 3.7110781244371895 4.014932796932004
6.8449687845324805 1.6454613035946435 2.3678053182898404 2.831702162647996
4.903399576940881 1.3872192470253488 1.5314602423316472 1.9847200875838849
3.4995955709580526 1.1744172675716693 0.957022753879454 1.3681555495069293
2.450968147807413 0.994699135196521 0.5582785967246258 0.8979904158862666
1.6504221029869934 0.8360251704319634 0.28721583373715376 0.5271810988178768
1.0265012986510829 0.6775258842010059 0.10542281255001584 0.24355260190006117
0.6009818657580681 0.5525756848187279 0.014794060000996308 0.03361212093834391
0.35999730885982767 0.36317389542969386 -0.0006584090733348683 -0.0025181774965313533
0.23250380923692315 0.23247954429021833 1.0145746364596143e-05 1.4119200340271062e-05
0.11849431081156345 0.11849431081156345 0.0 0.0
0.32131042562187884 0.07828685808009064 0.068844361255581 0.17417920628620714
5.1744504387976 2.768666559137677 0.9871489561415512 1.4186349235183715
3.8135587694535693 2.1630634275705374 0.6404444558076408 1.0100508860753916
0.1848369418333101 0.06215590236124876 0.026062526166554256 0.09661851330550715
0.08289929593410872 0.08289929593410872 0.0 0.0
0.16960636838195808 0.16960748061242054 -2.0746257414353945e-07 -9.047678883628789e-07
0.29113569255558774 0.2921982875896106 -0.00014481743657183328 -0.0009177775974510144
0.4651562384253116 0.4610634437503262 0.0005618607802768971 0.0035309338947084427
0.8082758184144396 0.6280028541224248 0.05232251356411599 0.12795045072789918
1.3272309156546145 0.7600426784304857 0.1884741482031125 0.3787140890210169
2.0143204732895614 0.9101111999481983 0.40659675853777755 0.6976125148035858
2.90121251399661 1.0745080398404716 0.7271696985349575 1.0995347756211808
4.0681182014781 1.261986228833289 1.1805388446829261 1.6255931279618854
5.7177326976305185 1.4929179945321345 1.8815972862482997 2.3432174168500843
8.041874553729851 1.7722823297399177 2.9116583029807805 3.3579339210091517
11.471287578113607 2.1075715612823145 4.590659557806877 4.773056459024419
16.04722123329502 2.4686575338391963 6.908803383543563 6.669760315912253
21.797101314158496 2.8082749692009763 9.976973446699542 9.011852898257978
28.495590761287446 3.071608275707777 13.776071281294062 11.647911204285604
35.405931100493866 3.1966059796007027 17.86462982495246 14.344695295940701
41.61475849637565 3.1362349374249376 21.70291970147176 16.775603857478952
46.07420359481865 2.9302822249830824 24.59413199950127 18.549789370334302
47.68720320171563 2.5668801304708193 25.845535655674446 19.27478741557037
46.07420359481669 2.930282224982832 24.594131999500217 18.549789370333624
41.61475849637119 3.1362349374260496 21.70291970146829 16.775603857476835
35.40593110048722 3.1966059795985697 17.86462982494972 14.34469529593893
28.495590761280194 3.0716082757070975 13.776071281290138 11.647911204282956
21.79710131415085 2.80827496919997 9.97697344669567 9.011852898255203
16.047221233286667 2.468657533837705 6.9088033835396985 6.6697603159092615
11.471287578105729 2.1075715612812145 4.590659557803219 4.773056459021298
8.041874553721723 1.772282329737866 2.9116583029776444 3.357933921006214
5.717732697623084 1.49291799453128 1.8815972862451111 2.343217416846693
4.068118201471636 1.2619862288320616 1.1805388446805185 1.6255931279590567
2.9012125139914398 1.0745080398395916 0.7271696985330657 1.0995347756187819
2.014320473285331 0.9101111999474806 0.4065967585364224 0.6976125148014286
1.3272309156514273 0.7600426784299804 0.1884741482021228 0.37871408901932374
0.8082758184123702 0.6280028541218975 0.0523225135635915 0.12795045072688108
0.46515623842432036 0.46106344374948105 0.0005618607802352619 0.003530933894603995
0.2911356925551868 0.2921982875891873 -0.00014481743656939486 -0.0009177775974311826
0.16960636838171148 0.16960748061217498 -2.0746257418463764e-07 -9.047678893264398e-07
0.08289929593401446 0.08289929593401446 0.0 0.0
0.18483694183226204 0.0621559023614515 0.02606252616614195 0.09661851330466836
3.813558769444309 2.1630634275661613 0.6404444558055731 1.010050886072575
2.758177832047829 1.6652155369413215 0.39218678144314656 0.7007755136633618
0.1536627590890436 0.11270780817539851 0.01225704959995803 0.028697901313686866
0.07430667723819097 0.07430667723819097 0.0 0.0
0.12852053591709756 0.12852053591709756 0.0 0.0
0.23344056950262318 0.23301930949549562 6.726871533102752e-05 0.0003539912917965725
0.367122878198482 0.3748451451926461 -0.0018345414303385028 -0.005887725563825648
0.6144701137827537 0.5585806699373822 0.018808733937367993 0.037080709908003495
1.0226089733268555 0.6801186027863738 0.10483321198555208 0.2376571585549296
1.5975700883106012 0.8194129916328072 0.27187853963108083 0.5062785570467133
2.32877025105646 0.9679777458268283 0.5168537093651304 0.843938795864501
3.293675460233782 1.1361157933202273 0.8761363517044044 1.2814233152091496
4.6336129863766535 1.3367659547323263 1.4203119185558366 1.8765351130884909
6.583903676591689 1.582957937382693 2.282124424542274 2.7188213146667213
9.320693224436216 1.8698496655895072 3.5331762879180943 3.917667270928611
13.192212807759262 2.1814210885776277 5.477530049110558 5.533261670071082
18.134444245886918 2.4877834494689965 8.092473259129266 7.554187537288658
23.82748864468468 2.7438937539800863 11.213259565719918 9.870335324984678
29.851380180909384 2.896077024513693 14.693622923361287 12.2616802330344
35.39077360534996 2.8919988079407855 18.043964502518016 14.45481029489116
39.49211522138969 2.7257180881611607 20.657249783832654 16.10914734939586
40.99732145545983 2.2991340568743626 21.848427054677526 16.849760343907942
39.492115221388154 2.7257180881619263 20.657249783831226 16.109147349395005
35.39077360534534 2.891998807939786 18.04396450251582 14.45481029488974
29.851380180904844 2.896077024513651 14.693622923358578 12.261680233032616
23.827488644677747 2.7438937539787007 11.213259565716656 9.870335324982388
18.134444245879 2.4877834494666273 8.092473259126109 7.554187537286263
13.192212807753265 2.181421088577385 5.477530049107395 5.533261670068486
9.320693224429798 1.8698496655884997 3.533176287915256 3.9176672709260374
6.583903676585415 1.582957937382109 2.282124424539444 2.7188213146638596
4.6336129863705064 1.3367659547318913 1.4203119185531299 1.8765351130854842
3.2936754602283647 1.136115793319296 0.8761363517023775 1.2814233152066914
2.3287702510520862 0.9679777458258496 0.5168537093637189 0.843938795862518
1.5975700883070578 0.8194129916319547 0.2718785396300532 0.5062785570450498
1.0226089733243602 0.6801186027858535 0.1048332119848741 0.2376571585536325
0.6144701137812235 0.5585806699367949 0.018808733937054095 0.03708070990737472
0.3671228781977751 0.3748451451917898 -0.0018345414302997655 -0.005887725563714962
0.2334405695022551 0.23301930949512384 6.726871533108478e-05 0.0003539912918002479
0.12852053591689477 0.12852053591689477 0.0 0.0
0.07430667723806456 0.07430667723806456 0.0 0.0
0.1536627590880167 0.11270780817531557 0.012257049599589474 0.02869790131311161
2.758177832040892 1.66521553693813 0.3921867814416554 0.7007755136611072
1.9604217046367096 1.2876650070410107 0.22523131756354764 0.4475253800321515
0.13105085105760925 0.1404075117198559 -0.007432929882941029 -0.0019237307793055995
0.08370728507863283 0.08370728507863283 0.0 0.0
0.10807725215100937 0.10807725215100937 0.0 0.0
0.18859983071048997 0.18852223422110292 7.669628395727339e-06 6.992686099134184e-05
0.2942167769397396 0.2955947833360886 -0.00026282168699301694 -0.0011151847093559132
0.45271971223883606 0.44684856309463616 -0.00026734567786775975 0.006138494822067661
0.7629620687157749 0.6168198975709441 0.05039099573072692 0.0957511754141037
1.192038194398914 0.7113564245910945 0.15257896175581553 0.32810280805200387
1.7947744430929937 0.8571520590611997 0.33679752338896796 0.6008248606428256
2.560879584139713 1.0043226445149962 0.6025059337684492 0.9540510058562669
3.6139195257708465 1.1767891209704 1.0043023029575548 1.4328281018428926
5.13546421489592 1.3875214376544662 1.6368922011179405 2.111050576123514
7.376334971834124 1.6346259337542444 2.656497811965033 3.0852112261148488
10.469709084461137 1.905767364764532 4.138836623639618 4.425105096056986
14.466650534949498 2.1703861927228214 6.172286458405025 6.123977883821654
19.32554937979364 2.4125545260958257 8.829013601332154 8.083981252365664
24.4393218197741 2.5969724207937817 11.675625773875838 10.166723625104483
29.25526063892482 2.6511987064223854 14.470068949259232 12.133992983243198
33.04414885855757 2.525661312544826 16.841985214897207 13.676502331115543
34.474520630182205 2.030241471727376 18.01308188618625 14.431197272268578
33.04414885855625 2.525661312545861 16.841985214895757 13.676502331114634
29.255260638921364 2.6511987064212037 14.470068949257865 12.133992983242301
24.43932181976904 2.5969724207928695 11.675625773873373 10.16672362510281
19.325549379790186 2.4125545260976753 8.829013601329095 8.083981252363412
14.466650534943195 2.1703861927199175 6.172286458403154 6.123977883820123
10.469709084455586 1.905767364763908 4.138836623636969 4.425105096054704
7.376334971828336 1.6346259337524593 2.656497811963012 3.0852112261128632
5.135464214890793 1.3875214376542042 1.6368922011155778 2.1110505761210105
3.6139195257660517 1.176789120970159 1.0043023029554823 1.4328281018404114
2.5608795841354697 1.0043226445143778 0.6025059337669003 0.9540510058541911
1.7947744430894161 0.8571520590602595 0.3367975233879148 0.6008248606412424
1.1920381943961469 0.7113564245902579 0.1525789617551636 0.32810280805072556
0.7629620687136879 0.6168198975702915 0.05039099573020228 0.09575117541319397
0.4527197122377666 0.4468485630936964 -0.000267345677900502 0.006138494821970759
0.2942167769392001 0.29559478333548117 -0.0002628216869823207 -0.001115184709298753
0.18859983071016947 0.1885222342207886 7.669628394994188e-06 6.992686098583603e-05
0.10807725215079271 0.10807725215079271 0.0 0.0
0.08370728507844552 0.08370728507844552 0.0 0.0
0.1310508510568527 0.14040751171957944 -0.007432929883110747 -0.0019237307796159861
1.960421704631652 1.2876650070386466 0.22523131756260462 0.447525380030401
1.3448160819408883 0.9769396262249888 0.10805417379638875 0.25982228191951084
0.13568914838858806 0.17114781864368594 -0.011449053250355135 -0.0240096170047427
0.10216595644646259 0.10216595644646259 0.0 0.0
0.1039269159012362 0.1039269159012362 0.0 0.0
0.1580606399512569 0.15797449710154543 7.828390201934371e-06 7.831445950952713e-05
0.2368989306837571 0.237610109335702 -7.147370896927708e-05 -0.0006397049429756268
0.3440734277097542 0.35488205897194974 -0.0028024307127712195 -0.008006200549424239
0.523270291217324 0.48648392974448135 0.006245714055431801 0.03054064741741086
0.8591366221888725 0.6415304733695735 0.076486805259958 0.14111934355934116
1.2800596301804752 0.7275148406351801 0.17873875704424355 0.37380603250105204
1.879831243006302 0.866164321734102 0.3681810177351707 0.6454859035370292
2.67571622671277 1.0128693285193664 0.6506446537958003 1.0122022443976029
3.8155911675096594 1.190003758607539 1.092491963185312 1.5330954457168091
5.497155011395358 1.397885310389662 1.8094645475911246 2.2898051534145694
7.8758578099533985 1.624882836096142 2.901443720169362 3.3495312536878945
11.093818385241107 1.8643749043024327 4.5142021734530005 4.715241307485671
14.817936123452515 2.083371204665936 6.3996841885583144 6.33488073022826
19.08127853170687 2.2816841835072723 8.738972815233936 8.060621532965662
23.317615649606708 2.403155939343206 11.143384881464986 9.771074828798525
26.755696286296395 2.331858804369681 13.203250410821319 11.2205870711054
28.152237858341024 1.7653398833479828 14.377169254969186 12.00972872002385
26.75569628629376 2.331858804368122 13.20325041082068 11.220587071104955
23.317615649605067 2.4031559393439026 11.143384881463588 9.771074828797571
19.081278531702353 2.2816841835054356 8.73897281523236 8.060621532964559
14.817936123447014 2.0833712046648656 6.399684188555831 6.334880730226314
11.09381838523748 1.8643749043018074 4.514202173451354 4.715241307484317
7.875857809948402 1.6248828360942307 2.9014437201678005 3.3495312536863686
5.497155011391447 1.3978853103886895 1.809464547589689 2.289805153413067
3.81559116750535 1.1900037586063164 1.0924919631838683 1.5330954457151662
2.675716226709013 1.0128693285191455 0.6506446537942451 1.0122022443956225
1.8798312430026825 0.8661643217331934 0.3681810177340585 0.6454859035354309
1.280059630177824 0.727514840634572 0.17873875704349876 0.37380603249975314
0.8591366221868103 0.6415304733687855 0.07648680525946443 0.1411193435585602
0.5232702912159889 0.48648392974351595 0.006245714055310048 0.03054064741716284
0.34407342770903904 0.35488205897106584 -0.0028024307127406224 -0.008006200549286135
0.2368989306833046 0.23761010933522494 -7.147370896382411e-05 -0.0006397049429565018
0.15806063995091332 0.15797449710121048 7.82839020086291e-06 7.83144595019974e-05
0.10392691590103695 0.10392691590103695 0.0 0.0
0.10216595644615764 0.10216595644615764 0.0 0.0
0.13568914838806317 0.17114781864326284 -0.011449053250380823 -0.024009617004818788
1.344816081937371 0.9769396262233283 0.10805417379580916 0.25982228191823337
0.9209270344467705 0.806185886466653 0.03828038879703536 0.0764607591830821
0.14225183311504355 0.16189958536831342 -0.006050502059221042 -0.01359725019404891
0.12325393252425132 0.12325393252425132 0.0 0.0
0.11088477322964804 0.11088477322964804 0.0 0.0
0.14120501268307098 0.14118260057189086 1.8172994548582708e-06 2.0594811725311177e-05
0.19471611463846655 0.19467169254489683 6.052758745100029e-06 3.836933482461185e-05
0.264431613947211 0.26863419164062746 -0.0008456708246724438 -0.0033569068687440812
0.366503939412535 0.36849277391663215 -0.001758696971306405 -0.0002301375327906571
0.5405435711630918 0.4931260612144761 0.009511810085677455 0.037905699862938014
0.8527328341472101 0.6234152263083848 0.07842718940168436 0.1508904184371412
1.2501593068395356 0.7172196673865159 0.17730429156846955 0.35563534788455
1.8065435184834173 0.8349010879911902 0.34964709012762696 0.6219953403646007
2.607150234410779 0.9832651868144708 0.6326848587673712 0.9912001888289371
3.784397333022272 1.1526081639957344 1.0944654376836698 1.5373237313428678
5.507706920177914 1.3453937216721057 1.8464477038263927 2.3158654946794153
7.803009725802546 1.547250835707028 2.906894312637206 3.3488645774583112
10.712771747432537 1.7539653748294457 4.368652945696207 4.590153426906886
13.959049124405523 1.9572866636610993 6.020253636476443 5.981508824267976
17.34327560697899 2.1242523470908647 7.810783081617471 7.408240178270661
20.489401667173723 2.1305892724871183 9.63113414532917 8.727678249357439
21.898027967616564 1.500012442699165 10.835443939528973 9.56257158538842
20.48940166717415 2.1305892724877005 9.631134145329069 8.727678249357375
17.343275606976057 2.124252347089519 7.810783081616534 7.4082401782700025
13.959049124403808 1.957286663661689 6.02025363647517 5.981508824266948
10.71277174742873 1.753965374827898 4.368652945694972 4.590153426905858
7.803009725799843 1.547250835707423 2.9068943126355826 3.348864577456837
5.507706920175388 1.3453937216719394 1.8464477038252385 2.315865494678209
3.784397333019598 1.1526081639953087 1.0944654376826024 1.5373237313416874
2.607150234408454 0.9832651868141945 0.6326848587664876 0.9912001888277715
1.8065435184804548 0.834901087990398 0.34964709012673983 0.6219953403633167
1.2501593068372434 0.7172196673859048 0.17730429156787264 0.35563534788346607
0.8527328341453393 0.6234152263079392 0.07842718940113484 0.15089041843626505
0.5405435711619259 0.4931260612138651 0.009511810085520845 0.03790569986254005
0.36650393941195886 0.36849277391598423 -0.0017586969712887763 -0.00023013753273656834
0.26443161394667664 0.26863419164003693 -0.0008456708246604577 -0.003356906868699794
0.19471611463807487 0.19467169254448627 6.052758746180462e-06 3.836933484245664e-05
0.14120501268278654 0.14118260057161336 1.817299454299904e-06 2.0594811718880137e-05
0.11088477322935912 0.11088477322935912 0.0 0.0
0.12325393252390582 0.12325393252390582 0.0 0.0
0.14225183311464726 0.16189958536764315 -0.006050502059140534 -0.013597250193855336
0.9209270344444573 0.8061858864655842 0.038280388796618055 0.07646075918225517
0.6188829190851287 0.6048436777921065 0.00325421236023467 0.010785028932787773
0.15049744939589815 0.15242891145780477 -0.0004387304087570095 -0.0014927316531496112
0.14293787208385808 0.1430385713811489 -8.195463380971078e-06 -9.250383390982974e-05
0.12417163830094496 0.12417163830094496 0.0 0.0
0.13563254425877658 0.13562351592143343 2.549862235143415e-07 8.77335111961922e-06
0.16771257377508353 0.16731154307008278 5.71716004888338e-05 0.0003438591045119141
0.20913709651693735 0.2093113480423049 3.863951029039041e-05 -0.00021289103565794073
0.26324345103044483 0.2752510703192036 -0.002538354261166233 -0.009469265027592527
0.34156419306759034 0.3403672042852138 -0.0005337383613798164 0.0017307271437564642
0.4783495698952308 0.4512663255455719 0.007649715728950717 0.01943352862070824
0.7016741043338677 0.5379390047305782 0.043873712073666055 0.11986138752962351
1.0337461511705783 0.6374867019488809 0.12292758676720449 0.2733318624544924
1.5211021294962617 0.7535731917680072 0.26661801417621345 0.5009109235520409
2.245990966499278 0.8856988210159251 0.5136435215935443 0.846648623889808
3.3259648220914286 1.0397054572355222 0.9336395010616378 1.352619863794269
4.833324896652359 1.2082926250018327 1.5809582024377664 2.0440740692127592
6.780755183726425 1.398466933731876 2.4682079669292207 2.9140802830653283
9.07352675115881 1.5882117242072746 3.5551895014003994 3.930125525551138
11.674490274219707 1.7888216002696158 4.8399552826503465 5.045713391299746
14.448259435428968 1.911920904313291 6.3309007569646285 6.205437774151051
15.830692629369938 1.2468123718409867 7.435175713112636 7.148704544416314
14.448259435430005 1.911920904314587 6.330900756964479 6.205437774150937
11.674490274218147 1.7888216002680744 4.8399552826503225 5.0457133912997545
9.073526751156233 1.5882117242069655 3.5551895013991492 3.930125525550116
6.780755183724676 1.3984669337320699 2.468207966928233 2.9140802830643735
4.833324896650207 1.2082926250020545 1.5809582024365985 2.044074069211554
3.325964822088831 1.0397054572344075 0.9336395010609257 1.352619863793498
2.2459909664977955 0.885698821015294 0.5136435215931985 0.8466486238893038
1.5211021294945182 0.7535731917677585 0.26661801417566056 0.5009109235510992
1.0337461511688357 0.6374867019479336 0.1229275867669135 0.2733318624539887
0.7016741043324952 0.5379390047303492 0.04387371207328459 0.11986138752886166
0.47834956989419075 0.45126632554487955 0.007649715728846161 0.019433528620464983
0.3415641930670951 0.3403672042846913 -0.0005337383613759594 0.0017307271437797963
0.26324345103007923 0.27525107031873863 -0.0025383542611407068 -0.009469265027518778
0.20913709651659226 0.20931134804193885 3.8639510292814074e-05 -0.0002128910356394034
0.1677125737747121 0.16731154306969473 5.717160048947009e-05 0.00034385910452787254
0.13563254425846782 0.13562351592113162 2.5498622295421426e-07 8.773351113255556e-06
0.12417163830058286 0.12417163830058286 0.0 0.0
0.14293787208348524 0.14303857138075998 -8.195463379370206e-06 -9.250383389538218e-05
0.15049744939552584 0.152428911457383 -0.0004387304087460874 -0.0014927316531111031
0.618882919083769 0.6048436777909425 0.003254212360166994 0.010785028932659809
0.4344426959845963 0.4394914961807547 -0.0007818064068377241 -0.004266993789320803
0.15216464376910105 0.15144282970480688 0.00010858662890810907 0.0006132274353860449
0.15791240821740848 0.15794683361295309 -2.281992438070464e-06 -3.2143403106540925e-05
0.13980532279683644 0.13980532279683644 0.0 0.0
0.13873906079123913 0.1386671397189162 6.634304785623763e-06 6.528676753730804e-05
0.15491361067735265 0.15499798770194972 -3.60487358258856e-06 -8.07721510144646e-05
0.17776780238719597 0.17819536995458832 -4.630670229204104e-05 -0.00038126086510026667
0.20110923918728443 0.20372421544776106 -0.00045946208895350965 -0.0021555141715231376
0.22866588951019387 0.229714968812227 -0.0006673343602764929 -0.00038174494175657024
0.26486978252000387 0.2548072586434981 0.0016696967227631829 0.008392827153742477
0.33912123049979137 0.3226105940419714 0.007438817535320768 0.009071818922499185
0.44871029893147096 0.38025902917212173 0.017024839809384674 0.051426429949964526
0.6375908096536893 0.4571714066446414 0.05128570070090263 0.12913370230814508
0.95695388007454 0.5700172819055613 0.12593393851705426 0.2610026596519245
1.4654729330925633 0.67245835281783 0.28031908892055424 0.5126954913541788
2.2275097101750543 0.7839190412299372 0.5507409632784501 0.8928497056666668
3.30687836880207 0.9343584675178779 0.9707405441967489 1.4017793570874428
4.766369618923029 1.1209310923198135 1.5947699286667416 2.050668597936475
6.500178607810549 1.3008117267849706 2.3775189063332065 2.8218479746923726
8.602923363736533 1.556079960307251 3.3257603212561375 3.7210830821731413
10.29600947511131 1.0080268659834997 4.527860064319713 4.760122544808096
8.602923363735675 1.5560799603056505 3.3257603212565265 3.721083082173498
6.500178607812346 1.3008117267867034 2.377518906333232 2.8218479746924143
4.766369618922173 1.1209310923208353 1.5947699286657904 2.0506685979355463
3.3068783687998167 0.9343584675169384 0.9707405441961067 1.4017793570867727
2.2275097101732095 0.7839190412288458 0.5507409632781224 0.8928497056662412
1.4654729330922915 0.6724583528175878 0.28031908892055923 0.5126954913541445
0.956953880074117 0.5700172819049861 0.1259339385171032 0.26100265965202757
0.6375908096530232 0.4571714066445823 0.05128570070068267 0.12913370230775834
0.44871029893093023 0.3802590291718535 0.017024839809277558 0.05142642994979905
0.3391212304990453 0.3226105940416393 0.0074388175351800655 0.009071818922225985
0.26486978251974236 0.25480725864325793 0.0016696967227703358 0.008392827153714132
0.22866588951010589 0.22971496881210104 -0.0006673343602723351 -0.0003817449417228198
0.2011092391870059 0.20372421544746316 -0.0004594620889486698 -0.0021555141715085937
0.17776780238682469 0.17819536995419114 -4.630670228850972e-05 -0.00038126086507791286
0.1549136106770473 0.15499798770162468 -3.604873580517767e-06 -8.07721509969055e-05
0.13873906079090986 0.1386671397185944 6.634304784765777e-06 6.528676753071895e-05
0.1398053227965409 0.1398053227965409 0.0 0.0
0.15791240821707456 0.1579468336126069 -2.2819924370101156e-06 -3.214340309535219e-05
0.15216464376878294 0.15144282970450582 0.00010858662890556217 0.0006132274353715988
0.43444269598382196 0.4394914961799119 -0.0007818064068245155 -0.004266993789265401
0.2996439923750206 0.299381701535125 3.299210283869165e-05 0.00022929873705692912
0.1480000883081955 0.1480106894361794 -2.3468567167310386e-06 -8.254271267126989e-06
0.16671835885621833 0.16679715605061796 -6.824361895284084e-06 -7.197283250431845e-05
0.15466591771602162 0.1547020648006994 -2.5788110146112936e-06 -3.356827366314893e-05
0.14794355899812858 0.14792848468038258 2.0553473429290935e-06 1.3018970403105077e-05
0.15509015510768717 0.15512241388694556 2.19443135302791e-06 -3.445321061137496e-05
0.16911198292291865 0.16963714760902704 -6.0640637655165915e-05 -0.0004645240484532017
0.1819508793889365 0.1817627124058252 5.9146406827098396e-05 0.00012902057628422865
0.18912373759419446 0.19686283219987494 -0.0016677401412057914 -0.006071354464474722
0.19933411450421518 0.1916131933288935 0.001460710484822443 0.006260210690499174
0.21322307133712837 0.2029111296246521 0.003718732420617493 0.006593209291858875
0.24406888261258766 0.19213421121363708 0.012901076458409742 0.039033594940540844
0.28004168056478407 0.1850154336947467 0.025412340866816503 0.06961390600322093
0.33769225258652635 0.1680697604761926 0.051081295775213496 0.11854119633512022
0.4470182996837797 0.17806119139965423 0.09344841292077082 0.175508695363355
0.6411427679216417 0.21804857691143364 0.15522769860748442 0.2678664924027232
0.9722849254370892 0.2594396721483122 0.27451848345271057 0.43832676983606617
1.505981368774055 0.2625344139021081 0.4965316359614589 0.7469153189104887
2.378894739434683 0.37444944837877125 0.8456199006757552 1.1588253903801564
3.9175634705925835 0.8529409819260297 1.3167795772914932 1.7478429113750615
6.422601240945259 0.7693402283328881 2.5743973819543573 3.078863630658013
3.9175634705956837 0.8529409819277307 1.3167795772922437 1.7478429113757095
2.3788947394340236 0.3744494483780906 0.8456199006757685 1.1588253903801637
1.505981368771932 0.26253441390135246 0.4965316359608547 0.7469153189097246
0.9722849254374704 0.25943967214915065 0.2745184834524922 0.4383267698358276
0.6411427679218435 0.2180485769121197 0.15522769860727448 0.26786649240244964
0.44701829968449114 0.17806119140042373 0.09344841292075153 0.17550869536331576
0.3376922525869801 0.16806976047667005 0.05108129577521181 0.11854119633509826
0.2800416805643081 0.1850154336947356 0.025412340866673728 0.06961390600289871
0.24406888261259055 0.19213421121379853 0.012901076458453726 0.03903359494033832
0.21322307133639756 0.2029111296243265 0.0037187324204656295 0.00659320929160551
0.19933411450413785 0.19161319332877802 0.001460710484837001 0.00626021069052283
0.1891237375941453 0.1968628321997814 -0.0016677401411946847 -0.006071354464441444
0.18195087938888777 0.18176271240576197 5.914640682878253e-05 0.00012902057629703774
0.16911198292256055 0.16963714760864387 -6.064063765172492e-05 -0.00046452404843158086
0.15509015510735938 0.15512241388659812 2.1944313549771556e-06 -3.445321059367567e-05
0.14794355899777972 0.14792848468002737 2.0553473433322507e-06 1.3018970409013375e-05
0.15466591771566557 0.15470206480033544 -2.5788110138589306e-06 -3.3568273656049957e-05
0.16671835885587138 0.1667971560502619 -6.824361894285506e-06 -7.19728324962014e-05
0.14800008830789702 0.14801068943588652 -2.3468567171188603e-06 -8.25427127238769e-06
0.2996439923744512 0.29938170153453786 3.2992102839009944e-05 0.00022929873707435794
0.20040384014556414 0.20040384014556414 0.0 0.0
0.13709572843247114 0.13710348504049175 -6.416713336762902e-07 -7.114936686946431e-06
0.16898065478586285 0.1689352487651629 3.5521755465659176e-06 4.185384515343439e-05
0.16666460763548613 0.16672042406167314 -4.477284794513158e-06 -5.133914139245427e-05
0.16101488510046444 0.1609673507731764 7.508383691118098e-06 4.0025943596957376e-05
0.16713197183277437 0.16696906238593767 2.972100390691209e-05 0.00013318844292978442
0.18278900882952082 0.18404711884758523 -0.00016797845079625826 -0.0010901315672681702
0.20220129557893976 0.20495203781572213 -0.0004790039965823389 -0.0022717382402000575
0.228305797339862 0.22941508705001945 -0.0006708118649448421 -0.0004384778452126773
0.26427614367315133 0.2543804187444587 0.00162015873110999 0.008275566197582624
0.3383214728003844 0.3218271557456843 0.007095528823524257 0.009398788231175764
0.44951915022675726 0.3814708474995364 0.018136323904458348 0.04991197882276239
0.6383726634966276 0.45798036897328187 0.051336160586129054 0.12905613393721657
0.9599735208758873 0.5724910323558803 0.12640478035838582 0.2610777081616212
1.4580397357158645 0.668391908076275 0.2792592550938958 0.5103885725456933
2.142320972832708 0.7631753147361076 0.5261872169177484 0.8529584411788529
2.9128135405531603 0.8511309139361757 0.8312918908045241 1.2303907358124595
3.5850294431249194 0.9056127310034833 1.1512887281900053 1.5281279839314317
3.8615598313440893 0.9098404453712053 1.302017207190537 1.6497021787823463
3.260269745703148 0.4752735562236595 1.2534890267013112 1.5315071627781787
6.4539217147787395 1.344468675327136 2.271403953785679 2.838049085665925
3.26026974570326 0.47527355622207224 1.2534890267021834 1.5315071627790025
3.8615598313442887 0.9098404453708698 1.3020172071908043 1.649702178782615
3.585029443122363 0.9056127310027084 1.1512887281891255 1.5281279839305284
2.912813540550837 0.8511309139349577 0.8312918908039991 1.2303907358118802
2.1423209728305377 0.763175314735655 0.5261872169170194 0.8529584411778641
1.4580397357141082 0.6683919080749431 0.2792592550937091 0.5103885725454557
0.9599735208746266 0.572491032355419 0.1264047803580524 0.2610777081611546
0.6383726634955518 0.45798036897293115 0.051336160585849146 0.12905613393677157
0.4495191502255011 0.38147084749885113 0.018136323904255115 0.04991197882239471
0.3383214727996058 0.3218271557451565 0.0070955288234352655 0.009398788231013942
0.2642761436727 0.25438041874402484 0.0016201587311120602 0.008275566197563058
0.22830579733971254 0.22941508704985358 -0.0006708118649404156 -0.000438477845200581
0.2022012955785744 0.20495203781532337 -0.0004790039965759257 -0.0022717382401730006
0.18278900882907806 0.1840471188471036 -0.0001679784507901299 -0.0010901315672354752
0.16713197183238035 0.16696906238553066 2.9721003907639913e-05 0.00013318844294204826
0.1610148851001003 0.160967350772796 7.508383692202177e-06 4.002594361213402e-05
0.16666460763512442 0.16672042406129065 -4.47728479277181e-06 -5.133914137345498e-05
0.1689806547854657 0.16893524876477733 3.552175545517957e-06 4.185384514281073e-05
0.13709572843223003 0.13710348504024947 -6.416713335551483e-07 -7.114936685872767e-06
0.2004038401451197 0.2004038401451197 0.0 0.0
0.1289855918078885 0.1289855918078885 0.0 0.0
0.12101676959171995 0.12101676959171995 0.0 0.0
0.16476195130401577 0.1647387378446384 1.88827716884134e-06 2.1325182208540644e-05
0.17472888673479656 0.17468335309637725 6.741537791932319e-06 3.879210062737888e-05
0.17642724181533742 0.17670415631157982 -2.658144819851299e-05 -0.00025033304804387285
0.18990960390237938 0.19065700412083486 -8.906184876859221e-05 -0.0006583383696868605
0.21784488406166835 0.21647234398294102 0.0002705180118275619 0.0011020220668998143
0.26511494627393645 0.27740904013904494 -0.002615641713570688 -0.009678452151537767
0.34094070567699547 0.3396928036708542 -0.0005014557306263351 0.0017493577367676393
0.4773020830737334 0.4507095043016509 0.007473055459596776 0.019119523312485752
0.7008320838399051 0.5376704341369369 0.04365149091212943 0.11951015879083869
1.033184197705411 0.637424910213405 0.12274551585817062 0.2730137716338357
1.5212637753120224 0.7537759836581723 0.26667869704405167 0.5008090946097981
2.24840239045242 0.8860991318035962 0.514741018671882 0.8475622399769411
3.323414894450205 1.0369324240460567 0.9343401622930836 1.3521423081110644
4.761080003607208 1.1874410238096673 1.5565991977403604 2.0170397820571813
6.415769664561211 1.3250191951189318 2.3181580849878176 2.7725923844544624
7.961032855951224 1.4462120079104537 3.0327968398406493 3.482024008200119
8.9175807239114 1.4981582542384546 3.5160944268372765 3.9033280428356676
8.413112736258949 1.525069197605423 3.305191188470582 3.582852350182946
9.925800085119523 2.940434725689126 3.2708573971603276 3.7145079622700665
8.413112736262264 1.5250691976063513 3.3051911884718512 3.582852350184062
8.917580723911694 1.4981582542381555 3.5160944268375816 3.903328042835954
7.961032855950936 1.4462120079123402 3.0327968398394862 3.4820240081991107
6.4157696645572155 1.3250191951179768 2.318158084986259 2.77259238445298
4.761080003605783 1.1874410238108266 1.5565991977391056 2.01703978205585
3.3234148944476005 1.0369324240456994 0.934340162292031 1.3521423081098691
2.2484023904501353 0.8860991318031618 0.5147410186710883 0.8475622399758859
1.5212637753094074 0.7537759836574177 0.2666786970433381 0.5008090946086514
1.0331841977028184 0.6374249102127286 0.12274551585748242 0.2730137716326071
0.7008320838377825 0.5376704341361676 0.04365149091166538 0.11951015878994939
0.47730208307225336 0.4507095043006848 0.007473055459433369 0.019119523312135192
0.3409407056762418 0.3396928036700592 -0.0005014557306086418 0.0017493577367911992
0.2651149462734656 0.2774090401384873 -0.002615641713548484 -0.009678452151473175
0.21784488406119873 0.2164723439824559 0.0002705180118285388 0.0011020220669142673
0.18990960390197106 0.19065700412039505 -8.906184876391693e-05 -0.0006583383696600243
0.17642724181499755 0.1767041563112187 -2.6581448195931356e-05 -0.00025033304802520766
0.1747288867344465 0.1746833530960108 6.741537792735469e-06 3.879210064301524e-05
0.16476195130362808 0.16473873784425735 1.8882771683331395e-06 2.1325182202372398e-05
0.12101676959154281 0.12101676959154281 0.0 0.0
0.12898559180761793 0.12898559180761793 0.0 0.0
0.0794199485071168 0.0794199485071168 0.0 0.0
0.10200289581643145 0.10200289581643145 0.0 0.0
0.15486810903193998 0.15486035231290346 4.7276083499528125e-07 7.283958201470016e-06
0.1787174000499564 0.17872533015416936 -4.521355835348512e-07 -7.477968629409893e-06
0.1935292088061514 0.1936207569749663 -8.726735944573644e-06 -8.282143287035757e-05
0.2220591703786314 0.22098003216074041 0.00017273909735412448 0.0009063991205368782
0.27588400985209677 0.2836367552236436 -0.0014492318474528853 -0.006303513524094017
0.3689299516003438 0.3708865577399929 -0.001600175750926224 -0.0003564303887228703
0.5397918093337971 0.492686167099058 0.009410093512782344 0.0376955487219568
0.8517813637959968 0.6233763887542669 0.0783522981570871 0.15005267688464274
1.2490111333652536 0.7168890924903808 0.1759683029944151 0.3561537378804576
1.8059083138953218 0.8348015937891682 0.34945308323294355 0.6216536368732095
2.6054404748610667 0.9830111979364301 0.6320555819211404 0.9903736950034969
3.782613545662448 1.1528021898895746 1.0936088344899144 1.536202521282958
5.504370181933298 1.3442733319983655 1.8455234830386407 2.3145733668962922
7.751814076753045 1.5296287984100705 2.889829440162682 3.332355838180295
10.450621403564995 1.696925815305504 4.258297938916813 4.49539764934268
13.03249208817501 1.807429573229824 5.589437089605053 5.635625425340126
14.63646757504423 1.7981153267458412 6.486684195993937 6.351668052304459
13.731952905556374 1.6630970231034956 6.062163717295803 6.0066921651570775
15.362075840931233 4.70641726115584 5.272868379087533 5.382790200687859
13.731952905557355 1.6630970231022284 6.062163717297062 6.006692165158066
14.636467575043284 1.7981153267446697 6.486684195994062 6.351668052304548
13.032492088171692 1.807429573229013 5.589437089603662 5.63562542533902
10.450621403560874 1.6969258153060482 4.258297938914281 4.495397649340544
7.751814076749368 1.5296287984091588 2.8898294401612623 3.332355838178946
5.5043701819300495 1.344273331998146 1.8455234830371567 2.314573366894748
3.7826135456588985 1.1528021898893552 1.093608834488329 1.5362025212812147
2.605440474857047 0.9830111979356936 0.6320555819196956 0.9903736950016583
1.8059083138915355 0.8348015937885124 0.34945308323168545 0.6216536368713377
1.2490111333618132 0.7168890924897648 0.17596830299342608 0.35615373787862215
0.8517813637937192 0.6233763887536223 0.07835229815644651 0.15005267688365012
0.5397918093322069 0.49268616709814983 0.009410093512575244 0.03769554872148187
0.3689299515994534 0.3708865577389951 -0.0016001757508993105 -0.00035643038864251143
0.275884009851494 0.2836367552229848 -0.0014492318474389981 -0.00630351352405183
0.22205917037811862 0.22098003216021628 0.0001727390973540413 0.0009063991205483075
0.1935292088056641 0.1936207569744633 -8.726735943247965e-06 -8.282143285599838e-05
0.17871740004954087 0.1787253301537486 -4.521355831248496e-07 -7.477968624652542e-06
0.1548681090315975 0.15486035231256398 4.727608347461193e-07 7.2839581987408026e-06
0.10200289581620955 0.10200289581620955 0.0 0.0
0.07941994850698085 0.07941994850698085 0.0 0.0
0.04639117116397634 0.04639117116397634 0.0 0.0
0.08213903239757876 0.08213903239757876 0.0 0.0
0.1407007921969725 0.1407007921969725 0.0 0.0
0.17917695566617678 0.17904546911630692 1.3736583309134642e-05 0.00011774996656073778
0.21202738876109103 0.21224938785499117 -1.8858699178954403e-05 -0.00020314039472115635
0.2641768560902408 0.2672599070485458 -0.000460082902755147 -0.002622968055549838
0.35421090281162526 0.36177340445979694 -0.0021990216899159766 -0.005363479958255811
0.5256302581973977 0.48752000419277924 0.006800603041186541 0.031309650963431995
0.8585623498139768 0.6415304876878736 0.07625631366951549 0.14077554845658777
1.2792409837202816 0.727581001852143 0.17825491527504433 0.3734050665930941
1.8796290366390374 0.866246465525242 0.3682686439829206 0.6451139271308737
2.6750707888087257 1.0126398408410722 0.65046503615773 1.0119659118099242
3.8112031330743976 1.188914337277768 1.0909835420588125 1.5313052537378162
5.4860966032227285 1.3970755464380915 1.804494149442056 2.2845269073425776
7.864121227568807 1.626568932331427 2.89452287396964 3.3430294212677407
11.081805224090138 1.8621884811612932 4.508647212693164 4.710969530235677
14.710540676752101 2.045549138113849 6.3603633541029545 6.3046281845353
18.38980961954935 2.113979547147431 8.437607682376159 7.838222390025766
20.636307579988 1.982172356985438 9.832805546974233 8.821329676028327
19.32155998083302 1.7368327773761578 9.204619637617245 8.380107565839614
21.22587760066497 6.41102596130694 7.586413954247119 7.228437685110905
19.321559980832046 1.7368327773749663 9.204619637617382 8.380107565839694
20.636307579987683 1.9821723569851257 9.832805546974216 8.821329676028348
18.38980961954556 2.113979547147412 8.437607682373974 7.838222390024169
14.710540676747462 2.045549138114267 6.360363354100137 6.30462818453306
11.081805224084405 1.8621884811600238 4.508647212690746 4.710969530233635
7.8641212275636185 1.6265689323302785 2.894522873967574 3.343029421265765
5.486096603218292 1.3970755464375817 1.8044941494401407 2.2845269073405667
3.8112031330694363 1.188914337277193 1.0909835420567702 1.5313052537354734
2.6750707888038425 1.012639840840259 0.6504650361559778 1.0119659118076063
1.8796290366347814 0.8662464655249178 0.36826864398130066 0.6451139271285627
1.2792409837167913 0.7275810018510982 0.17825491527417767 0.3734050665915157
0.8585623498114361 0.641530487687094 0.07625631366882786 0.14077554845551402
0.5256302581958706 0.48752000419184444 0.006800603040998006 0.031309650963028166
0.35421090281075995 0.3617734044586869 -0.002199021689861986 -0.00536347995806495
0.26417685608960295 0.26725990704785196 -0.00046008290274576074 -0.0026229680555032446
0.21202738876061106 0.21224938785449063 -1.8858699176254455e-05 -0.00020314039470336486
0.17917695566583824 0.17904546911597718 1.3736583307990824e-05 0.00011774996655311035
0.1407007921966829 0.1407007921966829 0.0 0.0
0.0821390323973749 0.0821390323973749 0.0 0.0
0.04639117116387946 0.04639117116387946 0.0 0.0
0.025512065279474822 0.025512065279474822 0.0 0.0
0.0631081896199331 0.0631081896199331 0.0 0.0
0.12396263540641443 0.12396263540641443 0.0 0.0
0.17725983363596282 0.17719574690741988 6.040838194752111e-06 5.804589034815593e-05
0.23265621347077348 0.23221310657397873 7.95610244486456e-05 0.00036354587234617333
0.3153386677341529 0.3208568049650505 -0.0009801906713091278 -0.0045379465595885415
0.4610706553938732 0.4535937170648551 0.0003135930267195008 0.00716334530229883
0.7648949854145094 0.61711175155825 0.05096830431461512 0.09681492954164413
1.1920699143588471 0.7116740265088521 0.15258188818157883 0.32781399966841646
1.7945547417184684 0.857363650238376 0.33657088531844115 0.6006202061616515
2.561011212599384 1.004452575507701 0.6024928648592341 0.9540657722324486
3.6132764562542805 1.1763840879518077 1.0041858577034692 1.4327065105990036
5.12750853149153 1.3852835630679774 1.6341148978435367 2.1081100705800178
7.351104023966253 1.6313250744139083 2.645251446513631 3.0745275030387136
10.442918952511402 1.9110808915591102 4.121615594778307 4.410222466173984
14.498826289516826 2.191366285713094 6.17824880136755 6.12921120243618
19.384616389843664 2.401865046197237 8.868591432937128 8.1141599107093
23.99138342001959 2.4040318272648635 11.52528783774698 10.062063755007749
26.60711746906304 2.0958050563741333 13.217418000585907 11.293894412102999
24.971350525912396 1.797205599288664 12.468275088394346 10.705869838229392
27.62251355923989 8.214047988803422 10.270785585466413 9.137679984970049
24.97135052591475 1.7972055992909128 12.468275088394414 10.70586983822943
26.607117469059364 2.095805056371643 13.217418000585198 11.29389441210253
23.99138342001631 2.4040318272654795 11.525287837744678 10.062063755006143
19.38461638983762 2.40186504619691 8.868591432933833 8.114159910706876
14.49882628951155 2.191366285713114 6.178248801364596 6.129211202433838
10.442918952505279 1.9110808915582318 4.1216155947754975 4.410222466171549
7.351104023960059 1.6313250744125285 2.645251446511195 3.0745275030363364
5.127508531484818 1.3852835630670446 1.6341148978407543 2.1081100705770197
3.613276456247982 1.1763840879507739 1.004185857701056 1.4327065105961525
2.5610112125940225 1.0044525755066698 0.6024928648573751 0.9540657722299778
1.7945547417142091 0.8573636502374378 0.33657088531709595 0.6006202061596748
1.1920699143555953 0.7116740265079717 0.1525818881807694 0.32781399966685376
0.7648949854120781 0.617111751557494 0.050968304314001275 0.09681492954058289
0.4610706553926329 0.4535937170638841 0.0003135930266534976 0.007163345302095331
0.3153386677334828 0.3208568049642934 -0.0009801906712890494 -0.004537946559521588
0.23265621347031235 0.2322131065734772 7.956102445154825e-05 0.0003635458723835252
0.1772598336355589 0.1771957469070222 6.040838194052553e-06 5.804589034264557e-05
0.12396263540614923 0.12396263540614923 0.0 0.0
0.06310818961983752 0.06310818961983752 0.0 0.0
0.02551206527940847 0.02551206527940847 0.0 0.0
0.013190028816988449 0.013190028816988449 0.0 0.0
0.04620847471588913 0.04620847471588913 0.0 0.0
0.10648098902782502 0.10648098902782502 0.0 0.0
0.1748276871739348 0.17476485750205176 5.622717784753524e-06 5.720695409827208e-05
0.2571018001224943 0.2578104663238874 -7.51025984871783e-05 -0.0006335636029059292
0.3766133932271323 0.3779954141713217 -0.0008733429312116119 -0.0005086780129779373
0.6185473966378284 0.5606400017427625 0.019777925814845346 0.03812946908022076
1.0239478101456418 0.6802384279780607 0.10511071237700742 0.23859866979057373
1.59851511431769 0.8198253874304093 0.2722929444874088 0.5063967823998713
2.32936705281936 0.9682883126146169 0.51699474492201 0.8440839952827331
3.2942440810994453 1.136234851314713 0.8763430545353204 1.2816661752494116
4.632535489158982 1.3361029582323865 1.4201208593465307 1.8763116715800647
6.571825038993867 1.5796368430570396 2.2776916321209617 2.714496563815867
9.281469828457087 1.8637715301441706 3.515657348444628 3.9020409498682884
13.145405692560853 2.18749872702109 5.448337861065818 5.509569104473948
18.187456805888637 2.5300044056211153 8.09832693178298 7.559125468484543
24.012117503352627 2.7672759723663596 11.307390975877427 9.937450555108844
29.587677312021498 2.67790845531938 14.665676182395954 12.244092674306167
32.74299872886356 2.185207991534309 16.864326074238125 13.693464663091124
30.764157340075432 1.8267921277610186 15.887665275997845 13.049699936316568
34.36476511522942 10.138157623342703 13.05674461644146 11.169862875445252
30.76415734007395 1.8267921277586898 15.887665275998362 13.049699936316893
32.74299872885946 2.1852079915344236 16.864326074235553 13.69346466308949
29.587677312015064 2.6779084553174326 14.665676182393259 12.244092674304373
24.012117503346055 2.767275972366143 11.307390975873679 9.937450555106237
18.187456805880245 2.53000440561879 8.098326931779518 7.559125468481932
13.145405692553682 2.187498727020279 5.448337861062332 5.509569104471076
9.281469828449842 1.8637715301429227 3.51565734844148 3.9020409498654383
6.571825038986542 1.5796368430568208 2.277691632117412 2.7144965638123084
4.632535489151699 1.3361029582314008 1.4201208593435621 1.876311671576738
3.294244081092944 1.1362348513137523 0.8763430545328175 1.2816661752463738
2.329367052814037 0.9682883126134834 0.5169947449202529 0.8440839952803016
1.5985151143134007 0.8198253874293759 0.2722929444860974 0.5063967823979274
1.0239478101426474 0.6802384279774009 0.10511071237621193 0.2385986697890342
0.6185473966359321 0.5606400017417739 0.019777925814535507 0.03812946907962255
0.3766133932262813 0.3779954141703147 -0.0008733429311795539 -0.0005086780128540592
0.25710180012202366 0.257810466323369 -7.510259848165842e-05 -0.0006335636028637988
0.17482768717358044 0.1747648575017054 5.622717783863718e-06 5.720695409117878e-05
0.1064809890276134 0.1064809890276134 0.0 0.0
0.046208474715798024 0.046208474715798024 0.0 0.0
0.01319002881696791 0.01319002881696791 0.0 0.0
0.006527046277221099 0.006527046277221099 0.0 0.0
0.03234135621908815 0.03234135621908815 0.0 0.0
0.09009478112727419 0.09009478112727419 0.0 0.0
0.17429181324342802 0.17427282978762998 1.3006158643001404e-06 1.7682839933716896e-05
0.286539932651683 0.2877362314045285 -0.00014944336320277387 -0.0010468553896426475
0.46108370508969 0.4581265646666665 0.0003472806395750285 0.0026098597834484554
0.8071976578410328 0.6267328746529787 0.0523528509632669 0.1281119322247871
1.3292848891691345 0.7603168023182734 0.18938207222221196 0.37958601462864966
2.0166725394531846 0.9105783152418093 0.4074730914223105 0.6986211327890642
2.9026836605119635 1.0748750709122084 0.7277059219551734 1.1001026676445813
4.068904790293559 1.261987987667582 1.1809300610448057 1.6259867415811713
5.715315309715825 1.4918428190474602 1.8809422803657232 2.342530210302643
8.02541313642102 1.7683004050092237 2.9051780926172053 3.3519346387945887
11.423339601862676 2.100435015848346 4.5684706837338265 4.754433902280502
15.981260444178975 2.4712058707267994 6.87018543173596 6.639869141716217
21.821292184263946 2.8512029803471504 9.966288618668965 9.003800585247829
28.691342063800107 3.1233996674859665 13.862214065175593 11.705728331138555
35.20270096321179 2.9767477745361974 17.874693072273246 14.351260116402335
38.935697743239686 2.2878057411414896 20.56804069424591 16.079851307852284
36.83821074533735 1.7935257321844253 19.602254306200983 15.442430706951944
41.83054854213397 12.17945815117428 16.32050285393612 13.330587537023577
36.838210745334756 1.7935257321821547 19.60225430620083 15.442430706951786
38.9356977432382 2.2878057411446804 20.568040694243034 16.079851307850472
35.20270096320424 2.976747774535352 17.87469307226912 14.351260116399754
28.691342063791772 3.1233996674847693 13.862214065171337 11.705728331135665
21.82129218425542 2.851202980345802 9.966288618664795 9.003800585244825
15.981260444170864 2.471205870726228 6.870185431731724 6.639869141712918
11.423339601853577 2.1004350158464193 4.568470683729965 4.754433902277193
8.025413136412432 1.7683004050087598 2.9051780926130006 3.3519346387906706
5.715315309706751 1.4918428190455468 1.8809422803622455 2.3425302102989596
4.068904790286396 1.261987987667184 1.1809300610416777 1.625986741577532
2.902683660505899 1.074875070911396 0.7277059219528466 1.1001026676416565
2.0166725394483773 0.9105783152409694 0.4074730914208022 0.6986211327866059
1.3292848891654803 0.7603168023174864 0.1893820722212635 0.37958601462673014
0.8071976578385606 0.6267328746522265 0.0523528509626604 0.12811193222367376
0.4610837050885628 0.45812656466571194 0.000347280639523106 0.0026098597833277702
0.286539932651096 0.28773623140389554 -0.0001494433631973383 -0.0010468553896022502
0.17429181324310183 0.17427282978730885 1.3006158638795505e-06 1.768283992909949e-05
0.09009478112706809 0.09009478112706809 0.0 0.0
0.03234135621900095 0.03234135621900095 0.0 0.0
0.0065270462772172326 0.0065270462772172326 0.0 0.0
0.0032385967594774122 0.0032385967594774122 0.0 0.0
0.021914109650541594 0.021914109650541594 0.0 0.0
0.07672863903409521 0.07672863903409521 0.0 0.0
0.17884294914674412 0.17883362060123095 -1.392926486306911e-07 9.4678381617896e-06
0.3244462548530752 0.3246581574808476 -2.5111697607637114e-05 -0.00018679093016467547
0.5815454475774905 0.5397851855640926 0.012865253467052648 0.02889500854634503
1.0223564418357174 0.6758270307899844 0.103856409815019 0.24267300123071409
1.6553889708162748 0.8365272344366894 0.2901578626218822 0.5287038737577033
2.454732632279143 0.9952329272878949 0.5596657953376734 0.8998339096535757
3.501890202916969 1.1747827791033139 0.9579852305420642 1.3691221932715907
4.904054335216533 1.3869850283930156 1.5319294259939296 1.9851398808295884
6.84022027584181 1.6438531575331077 2.3662258178499873 2.830141300458715
9.674514083895682 1.9652850834908004 3.7021544736047267 4.007074526800155
13.558726225109123 2.341556832030585 5.572491050882668 5.644678342195867
18.89415831151704 2.7542130262973523 8.344743657840096 7.79520162737959
25.60184310306351 3.1502128791244335 12.01256198413774 10.43906823980134
33.2767522292563 3.4283659786381926 16.427780625264422 13.420605625353677
40.70666608967218 3.345942405769984 21.014433376943973 16.346290306958235
45.21269006208015 2.4654399310243718 24.384228704803 18.36302142625277
43.247694550690085 1.6336837764667689 23.687437979043757 17.926572795179574
50.07995415638189 14.250935143102172 20.072871869090175 15.756147144189544
43.24769455068708 1.63368377646542 23.687437979042706 17.92657279517896
45.2126900620735 2.4654399310230555 24.384228704799686 18.363021426250754
40.706666089665255 3.3459424057702942 21.014433376939515 16.34629030695545
33.27675222924685 3.42836597863725 16.42778062525926 13.420605625350339
25.601843103053323 3.1502128791224417 12.012561984132898 10.439068239797995
18.894158311507212 2.754213026295614 8.344743657835462 7.79520162737613
13.558726225098592 2.3415568320293074 5.572491050877555 5.64467834219173
9.67451408388587 1.9652850834901985 3.7021544735998657 4.007074526795807
6.840220275831419 1.6438531575314725 2.366225817845533 2.830141300454413
4.904054335208222 1.3869850283923648 1.5319294259902871 1.9851398808255714
3.5018902029100376 1.174782779102075 0.9579852305395278 1.369122193268435
2.4547326322736014 0.9952329272872132 0.5596657953356647 0.8998339096507233
1.6553889708118248 0.8365272344358766 0.29015786262047616 0.5287038737554722
1.0223564418328184 0.6758270307893384 0.10385640981438918 0.24267300122909077
0.5815454475759017 0.5397851855629923 0.01286525346690199 0.028895008546007375
0.3244462548523907 0.32465815748009247 -2.5111697595680647e-05 -0.00018679093010609245
0.17884294914642682 0.17883362060091987 -1.392926491735977e-07 9.467838156118176e-06
0.07672863903395194 0.07672863903395194 0.0 0.0
0.021914109650494906 0.021914109650494906 0.0 0.0
0.003238596759484513 0.003238596759484513 0.0 0.0
0.0015369609841460355 0.0015369609841460355 0.0 0.0
0.014691481976470662 0.014691481976470662 0.0 0.0
0.06884585248806263 0.06884585248806263 0.0 0.0
0.19279975752402015 0.19269691986592682 9.7558651427082e-06 9.308179295064185e-05
0.38333764965835515 0.390974334720553 -0.001890223589989994 -0.005746461472207892
0.7271218632328905 0.6002716427012762 0.0361978812126306 0.09065233931898378
1.267476913424574 0.7453713404081417 0.17111453343082716 0.35099103958560496
1.9918317158275793 0.9068205414439552 0.39917407638546176 0.6858370979981627
2.923013681401948 1.076739694190855 0.7372386332677625 1.1090353539433309
4.128417646795999 1.2709671765591026 1.2079251452000241 1.6495253250368713
5.764093443161731 1.5067518470249346 1.8961883402413227 2.3611532558954753
8.087182092717486 1.8016348881002775 2.9522994280466652 3.333247776570544
11.282833100770528 2.1589129664749045 4.428257755507254 4.69566237878837
15.853162672000007 2.584517851493669 6.716904074888216 6.551740745618124
21.9395855063782 3.0448589238786887 9.928485415650593 8.966241166848924
29.437866525323585 3.445879966461157 14.111464696473703 11.880521862388719
37.756847380963286 3.6531130357016313 19.037239503101862 15.066494842159788
45.8285027200357 3.6142825044385285 24.068394250429858 18.145825965167308
51.54461519269114 3.023250559366879 28.03092693287144 20.49043770045282
50.03618965953667 1.276412262410572 28.202566016727125 20.55721138039897
59.02131047068399 15.613469411554432 24.811045385271076 18.596795673858495
50.03618965953193 1.2764122624091883 28.202566016724962 20.55721138039775
51.54461519268428 3.0232505593685444 28.030926932866073 20.49043770044966
45.82850272002489 3.614282504435692 24.068394250424866 18.14582596516432
37.7568473809533 3.6531130357013994 19.03723950309593 15.066494842155976
29.43786652531191 3.4458799664604594 14.111464696467142 11.880521862384306
21.939585506366498 3.0448589238765416 9.928485415645026 8.966241166844936
15.853162671988489 2.584517851492552 6.716904074882366 6.5517407456135714
11.282833100758829 2.1589129664733613 4.428257755501764 4.695662378783708
8.087182092706165 1.8016348880987456 2.9522994280416035 3.3332477765658153
5.764093443152291 1.5067518470241552 1.8961883402370132 2.361153255891122
4.128417646787757 1.2709671765573671 1.2079251451969844 1.6495253250334057
2.9230136813955547 1.0767396941904608 0.737238633265149 1.1090353539399447
1.9918317158226504 0.906820541443052 0.3991740763838656 0.6858370979957323
1.2674769134211266 0.7453713404075211 0.17111453342990907 0.35099103958369693
0.7271218632309027 0.6002716427003186 0.03619788121228733 0.09065233931829657
0.3833376496575692 0.390974334719699 -0.0018902235899723567 -0.005746461472157359
0.19279975752365172 0.19269691986555817 9.755865142070194e-06 9.30817929514431e-05
0.06884585248794081 0.06884585248794081 0.0 0.0
0.01469148197645142 0.01469148197645142 0.0 0.0
0.0015369609841435375 0.0015369609841435375 0.0 0.0
0.00033468518942109734 0.00033468518942109734 0.0 0.0
0.010187320451588985 0.010187320451588985 0.0 0.0
0.06978949197369777 0.06978949197369777 0.0 0.0
0.22352181320649347 0.2235278738256079 1.2501714780865336e-05 -1.8562333895261066e-05
0.4756190504153689 0.469084098930364 0.0023154698697777755 0.004219481615227026
0.9064287163684509 0.6931423764896596 0.06569328854870499 0.14759305133008652
1.5324891586324132 0.8515094946707823 0.23382793364689797 0.44715173031473265
2.360529553513014 1.0484884500684655 0.49789287034787394 0.8141482330966744
3.4258179937590794 1.270240495902697 0.8749115142984494 1.2806659835579333
4.847656965332931 1.5476474996651466 1.4230622697362039 1.876947195931578
6.797249317975697 1.912631668681064 2.2226838207785575 2.661933828516073
9.485825252579792 2.3952218776637895 3.3490076869476177 3.741595687968385
13.330618410060643 3.010953654546329 5.081732053213872 5.237932702300437
18.664905964954915 3.7741004630754245 7.629798264693674 7.261007237185822
25.65889750324298 4.607610331121288 11.191965138445713 9.859322033675983
34.07159157491263 5.324147653494845 15.796499086018025 12.950944835399772
43.02973122201033 5.655799921101693 21.071208735851815 16.302722565056833
51.13068976271974 5.394951702405651 26.282824595441824 19.45291346487226
57.31138046589719 5.051517184214386 30.402033181802405 21.857830099880395
55.76216807600091 1.418158783852431 31.67547432013603 22.668534972012438
84.93761283925684 33.583079896455345 29.88192452724815 21.472608415553367
55.76216807599708 1.418158783852987 31.675474320133247 22.66853497201082
57.311380465890835 5.051517184218419 30.402033181795787 21.857830099876622
51.130689762707576 5.394951702403659 26.282824595435493 19.452913464868452
43.0297312219971 5.655799921099003 21.071208735845275 16.3027225650528
34.071591574901625 5.324147653496594 15.796499086010332 12.950944835394713
25.65889750322987 4.6076103311195125 11.191965138439095 9.859322033671258
18.66490596494036 3.7741004630719077 7.629798264687411 7.261007237181045
13.330618410046682 3.010953654543308 5.081732053207881 5.237932702295497
9.485825252566238 2.395221877660422 3.3490076869422545 3.741595687963561
6.797249317964956 1.912631668679541 2.222683820773904 2.6619338285115104
4.847656965323885 1.5476474996636764 1.4230622697325164 1.876947195927693
3.425817993751974 1.270240495902304 0.8749115142954045 1.2806659835542664
2.360529553507067 1.048488450066611 0.49789287034617136 0.8141482330942844
1.532489158628429 0.851509494670148 0.2338279336457162 0.44715173031256483
0.9064287163660594 0.6931423764887652 0.06569328854824091 0.14759305132905284
0.47561905041425595 0.4690840989293913 0.0023154698697351083 0.004219481615129608
0.2235218132060473 0.22352787382513728 1.250171478375796e-05 -1.8562333873742905e-05
0.06978949197355244 0.06978949197355244 0.0 0.0
0.010187320451566267 0.010187320451566267 0.0 0.0
0.00033468518941758067 0.00033468518941758067 0.0 0.0
CELL_DATA 800
SCALARS Stress float 6
LOOKUP_TABLE default
108.28360538622931 -485.7279989252384 -185.58849702033987 -97.49700498509897 0.0 0.0
398.9418670482316 64.33098461249473 139.40524437085392 72.8845572256175 0.0 0.0
355.03276333985167 -13.105458177744769 102.3820055437269 -10.280352593699908 0.0 0.0
416.2929169625197 2.2428683692299516 125.14008355181353 -9.593356599001115 0.0 0.0
483.33064717505005 -7.898895496446887 149.25030042154918 -10.709717232139628 0.0 0.0
546.0325107518975 9.950442991045044 201.21903298370577 -8.907634203003461 0.0 0.0
604.5786762212192 23.031362070914984 252.8375456053639 -9.003101758253727 0.0 0.0
662.4145720284964 44.445973248701506 306.7874712000862 -9.34047055978925 0.0 0.0
719.8040023043357 69.62133424724519 359.70016908644624 -9.530810849191884 0.0 0.0
777.5541923070705 96.80235446876804 410.7548076385946 -9.605365612263451 0.0 0.0
835.7504291800291 123.63280709604823 458.910549024192 -9.547898649397341 0.0 0.0
894.8390766226737 151.139199819939 505.35450075149134 -9.483938027609973 0.0 0.0
956.1613019053882 177.93432267072905 550.6185124482648 -9.511191237412019 0.0 0.0
1020.0489576720698 205.61401897906654 596.6348304350967 -9.593682055783612 0.0 0.0
1087.0031974214248 236.60538611263834 645.4796576039287 -9.704452208825277 0.0 0.0
1156.628238318777 272.19452953080935 697.9116109810432 -9.60869310931309 0.0 0.0
1226.2101569865576 311.5838589038195 752.3105254580869 -8.947530751892323 0.0 0.0
1290.4982535367515 351.1745255957459 804.238247649603 -7.569800443735722 0.0 0.0
1343.8885232419261 386.7079970944966 848.6597848082595 -5.898139679104812 0.0 0.0
1388.4659055781253 421.9326983145948 888.2474401140995 -5.163018623286142 0.0 0.0
1388.465905577873 421.9326983143439 888.2474401139128 5.163018623308393 0.0 0.0
1343.8885232422886 386.7079970948784 848.6597848084988 5.898139679058891 0.0 0.0
1290.4982535367853 351.174525595803 804.238247649605 7.569800443756739 0.0 0.0
1226.2101569861798 311.5838589034695 752.3105254577432 8.947530751869323 0.0 0.0
1156.6282383183266 272.1945295303926 697.9116109806096 9.608693109319345 0.0 0.0
1087.0031974204426 236.60538611169093 645.4796576031197 9.704452208867943 0.0 0.0
1020.0489576709839 205.6140189780255 596.6348304342105 9.593682055778787 0.0 0.0
956.161301904752 177.93432267017243 550.6185124477144 9.51119123745324 0.0 0.0
894.8390766221644 151.13919981953407 505.3545007510349 9.483938027577318 0.0 0.0
835.7504291796463 123.63280709579627 458.9105490238197 9.547898649421928 0.0 0.0
777.5541923067449 96.80235446858894 410.7548076382527 9.605365612260696 0.0 0.0
719.8040023041369 69.6213342472056 359.7001690861965 9.530810849185341 0.0 0.0
662.4145720284746 44.445973248875404 306.78747119994 9.340470559707864 0.0 0.0
604.5786762210703 23.031362070984535 252.83754560515274 9.003101758277786 0.0 0.0
546.0325107516089 9.950442990981267 201.2190329834498 8.907634203024116 0.0 0.0
483.3306471748638 -7.898895496352803 149.2503004214536 10.709717232182737 0.0 0.0
416.2929169623617 2.242868369410731 125.14008355182477 9.593356599017248 0.0 0.0
355.03276333973946 -13.105458177635958 102.38200554372943 10.280352593669 0.0 0.0
398.9418670482034 64.33098461255295 139.40524437085196 -72.8845572255498 0.0 0.0
108.2836053868222 -485.72799892464747 -185.58849701978482 97.49700498478768 0.0 0.0
23.466928513899262 -509.13254310659784 -224.1912270762682 -135.30355036813222 0.0 0.0
230.38593172182385 51.989151857527546 84.7125250738054 22.91038534408775 0.0 0.0
317.1506463092639 10.666647798874934 98.34518823244164 -7.8035737944592 0.0 0.0
371.11579745483954 0.3477433522539197 111.25600867085768 -29.789766418716848 0.0 0.0
452.1189182327861 -8.415760799891244 133.62095343019516 -30.23594218558956 0.0 0.0
516.9998594180237 6.262081376053486 180.14896262150262 -26.990328763019455 0.0 0.0
580.9034614953395 19.163708772209155 231.93511810661158 -27.232976786403416 0.0 0.0
638.9124964067867 38.395130399773194 285.0302036775611 -27.1459632242003 0.0 0.0
694.7245761795552 61.26826508550074 337.05298956119555 -26.92298458305582 0.0 0.0
750.1485265434859 86.04946800190943 387.109084896612 -26.560480050678155 0.0 0.0
805.8362207585894 110.9224111408855 434.49729787855154 -25.976073260606498 0.0 0.0
862.7104354855534 134.802631004407 479.21760715962466 -25.324042267462907 0.0 0.0
920.3069790096404 158.7685777229368 522.0283339174495 -24.8655077584541 0.0 0.0
980.6424958219217 183.43878479490908 565.1388327806028 -24.746822190229484 0.0 0.0
1044.0121664839828 210.96571859616546 610.640646455432 -24.76496838251556 0.0 0.0
1109.3418154706656 242.47373566686906 658.9505145632917 -24.36889738154646 0.0 0.0
1174.204042175466 277.1873910401567 708.6135658135479 -22.787541228766464 0.0 0.0
1234.694537889126 312.76181487855257 756.5408920308028 -19.733020060096287 0.0 0.0
1288.1193865485711 348.0745256524355 800.7772950329671 -15.694691672995646 0.0 0.0
1323.6468811800262 373.5954463779979 831.2310530440861 -9.704064833326294 0.0 0.0
1323.646881179856 373.59544637783245 831.2310530439378 9.704064833371632 0.0 0.0
1288.1193865482148 348.0745256520907 800.7772950326541 15.694691673041298 0.0 0.0
1234.6945378888074 312.7618148782641 756.5408920305017 19.733020060215836 0.0 0.0
1174.2040421757085 277.18739104044136 708.6135658136134 22.78754122881287 0.0 0.0
1109.3418154706826 242.47373566693216 658.950514563196 24.368897381563546 0.0 0.0
1044.0121664838368 210.96571859607252 610.6406464552391 24.764968382541305 0.0 0.0
980.6424958217582 183.4387847948139 565.1388327803697 24.746822190240472 0.0 0.0
920.30697900935 158.76857772273334 522.0283339171408 24.865507758490978 0.0 0.0
862.7104354849951 134.80263100393998 479.2176071591068 25.324042267402604 0.0 0.0
805.8362207582309 110.92241114066164 434.4972978781911 25.976073260631065 0.0 0.0
750.1485265430599 86.04946800161926 387.10908489622557 26.560480050684504 0.0 0.0
694.7245761790856 61.26826508516828 337.05298956078 26.922984583041334 0.0 0.0
638.9124964064563 38.39513039961485 285.0302036772361 27.145963224147856 0.0 0.0
580.9034614949632 19.1637087720229 231.93511810628172 27.232976786399796 0.0 0.0
516.9998594176752 6.2620813759314835 180.14896262124455 26.990328762969384 0.0 0.0
452.1189182324455 -8.415760799897727 133.6209534300669 30.235942185563978 0.0 0.0
371.1157974546096 0.3477433521849598 111.25600867077245 29.789766418653812 0.0 0.0
317.1506463091013 10.666647798725945 98.34518823234816 7.803573794455996 0.0 0.0
230.38593172202124 51.98915185766705 84.71252507390648 -22.910385344162478 0.0 0.0
23.466928514282372 -509.1325431061775 -224.19122707585132 135.30355036790306 0.0 0.0
-11.766078104290159 -501.715476431493 -224.14324490664143 -149.26442161000065 0.0 0.0
130.69040641911477 27.28332983586668 47.392120876494424 -30.591834447792596 0.0 0.0
257.5170445609633 22.94701827221469 84.1392188499534 -23.035239375768448 0.0 0.0
326.61158298189355 2.106937717980034 98.6084366758801 -46.803101016828904 0.0 0.0
406.08459567098953 -3.321186889159283 120.36333989105437 -51.112958497440246 0.0 0.0
487.80658332290943 -1.9161547071386078 156.26440072981342 -48.2933865715313 0.0 0.0
552.0645937640844 16.426907191338536 209.00339753793656 -45.573457761151744 0.0 0.0
610.1167520279273 31.840323258651942 259.97431613040595 -45.03635115069491 0.0 0.0
665.7048928658784 52.692543827124666 311.37914511454454 -44.247276050015486 0.0 0.0
719.4842522343774 75.14883718595166 360.75813287711634 -43.279728966811355 0.0 0.0
772.8523860172268 97.36088841053598 407.20291380353126 -42.17765693047729 0.0 0.0
826.3240532875852 118.88398458154151 450.6370663696579 -40.93512866172216 0.0 0.0
881.7087874890757 139.32036118483325 491.65457594661433 -40.104337595056776 0.0 0.0
938.7608567595929 161.31702936432714 532.4012315085109 -39.755315170809034 0.0 0.0
998.1229757897654 185.27430866297647 574.3523249119695 -39.68923201370542 0.0 0.0
1058.9929966196391 212.3541683739541 618.3126218499423 -39.03950294189815 0.0 0.0
1119.0031810675914 242.08402312178873 663.0167930094801 -36.749930935326454 0.0 0.0
1176.5125834932546 274.32415877907414 707.6899436674757 -32.28771466225968 0.0 0.0
1226.5819770268076 305.59342460509004 748.2522733601933 -25.329809557082996 0.0 0.0
1258.7448528340508 326.8223632095609 775.0147153447066 -13.998499648614242 0.0 0.0
1258.744852833924 326.82236320943673 775.0147153446126 13.998499648639662 0.0 0.0
1226.58197702692 305.5934246052246 748.2522733602586 25.329809557177327 0.0 0.0
1176.5125834929386 274.32415877879214 707.6899436672139 32.2877146624037 0.0 0.0
1119.003181066903 242.08402312112977 663.0167930088738 36.749930935384526 0.0 0.0
1058.992996619098 212.35416837343652 618.3126218494302 39.03950294185641 0.0 0.0
998.1229757893107 185.27430866256978 574.3523249115399 39.68923201374116 0.0 0.0
938.7608567596384 161.3170293644568 532.4012315084583 39.75531517087371 0.0 0.0
881.7087874883772 139.3203611842098 491.6545759460483 40.10433759509871 0.0 0.0
826.3240532868233 118.88398458086316 450.6370663690493 40.93512866168895 0.0 0.0
772.8523860167229 97.3608884101445 407.20291380310874 42.177656930475464 0.0 0.0
719.4842522340721 75.14883718577909 360.75813287682115 43.2797289667749 0.0 0.0
665.7048928657003 52.69254382713404 311.3791451143191 44.24727605003034 0.0 0.0
610.1167520279158 31.84032325887126 259.9743161302935 45.03635115065474 0.0 0.0
552.0645937640669 16.426907191620174 209.00339753785278 45.57345776116938 0.0 0.0
487.8065833226956 -1.9161547070288893 156.26440072968825 48.293386571515555 0.0 0.0
406.0845956706362 -3.321186889177615 120.36333989094896 51.11295849738607 0.0 0.0
326.61158298172575 2.106937718072055 98.60843667585868 46.803101016796354 0.0 0.0
257.51704456092796 22.947018272230046 84.13921884994738 23.035239375700126 0.0 0.0
130.69040641930212 27.283329836026276 47.39212087659852 30.591834447595105 0.0 0.0
-11.766078104010475 -501.71547643111444 -224.14324490626606 149.26442160984018 0.0 0.0
-20.474839594731968 -479.7058844362506 -205.5553388928381 -152.23656784309125 0.0 0.0
71.9128463723449 3.0536072348122936 22.489936082147153 -75.70544761252467 0.0 0.0
198.1073204095706 26.72068755523025 67.44840238944025 -46.79606177209024 0.0 0.0
278.9858504818566 6.190484876048808 85.55290060737158 -63.99395966771111 0.0 0.0
355.51725757872896 -0.21086760202538857 106.41219043402074 -72.31824026429291 0.0 0.0
442.77948552123974 -4.443517861963578 134.41884347472032 -71.23601750510963 0.0 0.0
514.5980070411695 10.568949083167837 181.48134518180117 -64.73827398524733 0.0 0.0
575.8109066857266 25.94456092133928 232.25267409926687 -63.50157572542986 0.0 0.0
631.2718905940286 43.6764356948336 281.9164233212215 -61.62347878765577 0.0 0.0
683.9176494187782 63.699435950794154 330.46421853480274 -59.95040414213049 0.0 0.0
735.4430938242491 83.56727573724505 376.43659801604826 -58.24850825871521 0.0 0.0
786.9893353156883 102.48860009325412 419.38370607277557 -56.42804930609191 0.0 0.0
838.9198406577761 120.1877577489682 458.86159373556734 -55.230991853614576 0.0 0.0
893.6349326743027 139.13245450316248 497.84070908126284 -54.760026427637335 0.0 0.0
949.5876352479811 159.4760963619084 536.695041208403 -54.513140023110296 0.0 0.0
1005.0652851869149 182.03684781467715 575.8486966753825 -53.604227945074555 0.0 0.0
1060.4860727461353 206.9084505397875 615.8206227808633 -50.889271044147726 0.0 0.0
1114.067126609903 234.44781754288294 656.127570948906 -45.141185559790905 0.0 0.0
1161.177696429609 261.46315671087797 693.1177322588062 -35.13504600701787 0.0 0.0
1192.054122212621 279.8673679986093 717.9601845272168 -18.567527101686167 0.0 0.0
1192.0541222125746 279.8673679985692 717.9601845271767 18.567527101747746 0.0 0.0
1161.1776964296582 261.46315671096716 693.1177322587811 35.13504600717965 0.0 0.0
1114.0671266094928 234.44781754250698 656.1275709485523 45.14118555989279 0.0 0.0
1060.4860727457578 206.90845053944696 615.820622780553 50.88927104422157 0.0 0.0
1005.0652851866802 182.0368478144767 575.8486966751751 53.604227945074555 0.0 0.0
949.5876352479479 159.4760963619347 536.6950412083123 54.513140023135755 0.0 0.0
893.6349326739046 139.1324545028283 497.840709080902 54.760026427669416 0.0 0.0
838.919840657262 120.18775774853134 458.8615937351446 55.23099185364569 0.0 0.0
786.9893353151474 102.48860009280612 419.3837060723248 56.428049306104114 0.0 0.0
735.4430938241437 83.56727573728456 376.4365980158766 58.24850825871569 0.0 0.0
683.9176494185042 63.699435950650034 330.46421853451307 59.9504041420725 0.0 0.0
631.2718905936335 43.67643569458453 281.9164233208872 61.62347878763349 0.0 0.0
575.8109066854418 25.944560921263623 232.25267409899433 63.50157572541052 0.0 0.0
514.5980070409537 10.56894908323277 181.4813451816172 64.73827398523356 0.0 0.0
442.779485520932 -4.443517861872122 134.4188434746087 71.23601750505182 0.0 0.0
355.5172575785418 -0.21086760185196418 106.41219043402238 72.31824026416929 0.0 0.0
278.9858504816806 6.1904848760953906 85.55290060733277 63.99395966759049 0.0 0.0
198.10732040956717 26.720687555289764 67.44840238945706 46.796061771949326 0.0 0.0
71.91284637249167 3.0536072349697565 22.489936082238426 75.70544761229088 0.0 0.0
-20.474839594554496 -479.70588443591464 -205.555338892522 152.2365678429677 0.0 0.0
-17.50149365204439 -449.4247509033526 -179.15304206948537 -150.73356497072382 0.0 0.0
35.676442475750456 -17.716887152930596 5.3878665968459565 -109.90830488005648 0.0 0.0
145.52010748025074 25.37536235613776 51.26864095091654 -72.83261926957816 0.0 0.0
229.45069047714074 10.619533348957429 72.02106714782944 -82.01039426489092 0.0 0.0
302.2799891379521 0.8904834403086648 90.88485460580449 -92.44421476477936 0.0 0.0
385.23234872880187 -3.0973271006520746 114.90175538547655 -94.19111922217073 0.0 0.0
469.72224916220966 3.1730460464817085 152.04008843720487 -87.70103559346047 0.0 0.0
535.202186593332 20.06130652287099 201.0066038793819 -81.58880798388752 0.0 0.0
589.8904321832165 34.466602873093365 248.31798526429583 -79.50397908580817 0.0 0.0
642.4477209501667 51.89387962463747 295.7091727446358 -76.84308239516136 0.0 0.0
692.8491731331698 69.27961225686656 341.1767597432048 -74.40892137186849 0.0 0.0
742.2435948632442 85.61737197162988 383.73065627878935 -71.93385222098135 0.0 0.0
792.4248546989882 100.96379823383563 423.2175010387847 -70.41650177248891 0.0 0.0
843.4614250904704 117.03427357524575 460.41667378364855 -69.68739364911461 0.0 0.0
895.7250398427678 133.7744496777369 496.34002771527696 -69.2874925975602 0.0 0.0
947.9513857141859 151.85007634396132 531.9118632476232 -68.21175478058403 0.0 0.0
997.7631463576326 171.46518402033834 566.5532916278072 -65.14032828664556 0.0 0.0
1046.5279703700867 193.38677867608516 601.6527418930795 -58.31339032843055 0.0 0.0
1091.0220373368584 215.80285170566972 635.0817601077422 -45.437391333038555 0.0 0.0
1121.9631422579573 231.91188873153945 658.9536648068138 -23.738174922042106 0.0 0.0
1121.9631422580057 231.91188873160593 658.953664806859 23.738174922136967 0.0 0.0
1091.0220373367576 215.80285170561407 635.0817601076702 45.43739133322242 0.0 0.0
1046.5279703697788 193.38677867581617 601.6527418928573 58.31339032853792 0.0 0.0
997.7631463573133 171.4651840200836 566.5532916275345 65.14032828679805 0.0 0.0
947.9513857136042 151.85007634342497 531.9118632471437 68.21175478065538 0.0 0.0
895.7250398423942 133.77444967740456 496.34002771495705 69.28749259756832 0.0 0.0
843.4614250903794 117.0342735752583 460.41667378352713 69.68739364922101 0.0 0.0
792.4248546988899 100.96379823382333 423.21750103861956 70.41650177250207 0.0 0.0
742.2435948631783 85.61737197169836 383.73065627866026 71.93385222101121 0.0 0.0
692.8491731329862 69.27961225684027 341.1767597429923 74.40892137189955 0.0 0.0
642.4477209497988 51.89387962440643 295.7091727442721 76.84308239511851 0.0 0.0
589.8904321828719 34.46660287294843 248.3179852639841 79.50397908583784 0.0 0.0
535.2021865930514 20.06130652287822 201.00660387915215 81.58880798393024 0.0 0.0
469.7222491620469 3.1730460467015043 152.0400884371306 87.70103559346498 0.0 0.0
385.23234872855573 -3.0973271003989833 114.90175538546936 94.19111922209818 0.0 0.0
302.27998913782824 0.8904834405564479 90.88485460584369 92.44421476469353 0.0 0.0
229.45069047702987 10.619533349056306 72.02106714782585 82.01039426479697 0.0 0.0
145.5201074802394 25.375362356145096 51.268640950915334 72.8326192694746 0.0 0.0
35.67644247582892 -17.71688715281157 5.387866596905203 109.9083048798878 0.0 0.0
-17.501493651894044 -449.42475090297717 -179.15304206918555 150.73356497063776 0.0 0.0
-10.475920873126618 -413.9360655720503 -151.0734434856783 -147.04100543266622 0.0 0.0
11.161278532691755 -34.49043496339543 -6.9987469292111015 -134.63304876905335 0.0 0.0
100.45559557861935 21.617173246674426 36.62183064758813 -97.48801859633414 0.0 0.0
179.8252139953152 13.969869976343777 58.13852519149769 -99.98443473580139 0.0 0.0
246.90874089434482 2.6960716686767574 74.83888559156179 -110.47117310459498 0.0 0.0
317.8437423174603 -1.9773207946407527 94.99997500955607 -115.1655612067753 0.0 0.0
401.69477632862515 -0.2795121073301474 123.67508430154616 -112.1948632289982 0.0 0.0
479.44822354381097 11.355389834396554 164.60714785570372 -103.14745022260851 0.0 0.0
540.4918026287578 25.420309115492174 210.34063787603037 -97.70694466535612 0.0 0.0
592.7817637687361 39.7863404432092 255.49372300547626 -94.3622145136429 0.0 0.0
642.1950440070135 54.24936445851953 299.6205659047956 -90.9119243084749 0.0 0.0
690.8373061977682 68.31920016245348 342.35829466025814 -87.77975019794461 0.0 0.0
739.1174288832847 81.59182154853711 382.36011903218974 -85.74701020947653 0.0 0.0
788.1287311282674 94.85851928887314 419.41137890352076 -84.79744893708325 0.0 0.0
837.0800795328852 107.99407198613869 453.2353583988229 -84.16636093612276 0.0 0.0
884.1057212775962 122.12729833291843 484.8613918162928 -82.76055543573452 0.0 0.0
929.6480926172502 136.1470155026173 514.8648255835581 -79.5414367738718 0.0 0.0
973.1964509977174 151.27741020542462 544.1240887339854 -71.88425902373959 0.0 0.0
1014.4345033224798 168.36201501010555 573.3401651132863 -56.50135724832062 0.0 0.0
1046.5781251670735 182.25053485485338 596.8528489975083 -29.868366367676497 0.0 0.0
1046.5781251669446 182.2505348547445 596.8528489974386 29.868366367824585 0.0 0.0
1014.434503322313 168.3620150100001 573.3401651131987 56.501357248517806 0.0 0.0
973.1964509974293 151.27741020519858 544.1240887337963 71.88425902391792 0.0 0.0
929.6480926174002 136.14701550285844 514.8648255836353 79.54143677402331 0.0 0.0
884.1057212772815 122.12729833265594 484.8613918160136 82.76055543577637 0.0 0.0
837.0800795322739 107.99407198557886 453.2353583983467 84.1663609361895 0.0 0.0
788.1287311277508 94.85851928843917 419.41137890313826 84.79744893714857 0.0 0.0
739.1174288831348 81.59182154844234 382.36011903202916 85.74701020945858 0.0 0.0
690.8373061975917 68.31920016238085 342.35829466007374 87.77975019792262 0.0 0.0
642.1950440068272 54.249364458478624 299.62056590458866 90.91192430846432 0.0 0.0
592.7817637684441 39.78634044303148 255.49372300518993 94.36221451352937 0.0 0.0
540.4918026282712 25.420309115153294 210.3406378756485 97.7069446653322 0.0 0.0
479.44822354339726 11.355389834276458 164.60714785543954 103.14745022266264 0.0 0.0
401.69477632821054 -0.27951210745871435 123.67508430135398 112.19486322895108 0.0 0.0
317.84374231711183 -1.9773207946788984 94.99997500944653 115.16556120662747 0.0 0.0
246.90874089411952 2.696071668601536 74.8388855914738 110.47117310445415 0.0 0.0
179.8252139952445 13.969869976459869 58.13852519151129 99.98443473564552 0.0 0.0
100.45559557865299 21.617173246774236 36.62183064762816 97.48801859618042 0.0 0.0
11.161278532741662 -34.490434963261194 -6.998746929155857 134.63304876886014 0.0 0.0
-10.47592087303478 -413.93606557168613 -151.07344348543083 147.04100543258505 0.0 0.0
-5.410942109734613 -373.24895622854615 -124.06093944711063 -141.13220423983108 0.0 0.0
-7.0136703928602335 -49.19054806673566 -16.861265537878765 -152.6118447806505 0.0 0.0
61.68854334100645 17.32360362098803 23.703644088598338 -118.80112597315028 0.0 0.0
131.37429155756286 16.02928589256809 44.221073235039285 -116.86026922189332 0.0 0.0
190.12875274288268 5.166682597179111 58.577749701616256 -125.87151397654085 0.0 0.0
249.93545248371436 -1.4281546938290575 74.43950941307982 -133.83058132177416 0.0 0.0
319.6687423139589 -1.1116997980651533 96.45130883356063 -134.25643897162297 0.0 0.0
399.5934281257003 4.531023889181305 127.17994069778251 -127.96443152799715 0.0 0.0
472.23889498760315 14.983964030429036 166.11787944703661 -118.6252338837208 0.0 0.0
530.7596990948705 27.757287840069296 208.87257014934522 -112.71587803657468 0.0 0.0
579.703304137273 38.596809850145014 249.99776617822386 -108.46661462630342 0.0 0.0
628.5631455565887 50.4551848019767 292.34134461529715 -104.3988013434856 0.0 0.0
676.401298554987 61.55243140316844 333.3450674085284 -101.68533219730018 0.0 0.0
723.5313390237635 72.582011614638 371.5209196296802 -100.21542168480336 0.0 0.0
769.027358422324 82.30107603958979 404.43894559336513 -99.22544212498597 0.0 0.0
813.1598284604424 92.42194415695684 434.0019663627909 -97.59644985308606 0.0 0.0
853.354526825591 101.26985785749505 459.5105029005019 -93.95464552841344 0.0 0.0
890.8295907215614 109.04976166222798 482.5774576385296 -85.77527368329089 0.0 0.0
928.8658543947738 118.55248920824079 506.5919245165885 -68.70011209326506 0.0 0.0
963.6912144400969 129.9384226626872 530.3422593955161 -37.53596987125513 0.0 0.0
963.6912144399809 129.93842266260373 530.342259395428 37.53596987142758 0.0 0.0
928.8658543945737 118.55248920809818 506.5919245164407 68.70011209344509 0.0 0.0
890.8295907211877 109.04976166194233 482.5774576382655 85.77527368351397 0.0 0.0
853.3545268252084 101.2698578571989 459.5105029002263 93.9546455285647 0.0 0.0
813.1598284599962 92.42194415649686 434.0019663624485 97.59644985301937 0.0 0.0
769.0273584215914 82.30107603886243 404.43894559282364 99.22544212498019 0.0 0.0
723.5313390233584 72.58201161429429 371.5209196293717 100.21542168484926 0.0 0.0
676.401298554609 61.55243140286468 333.34506740822553 101.68533219733268 0.0 0.0
628.5631455562045 50.455184801675145 292.3413446149733 104.39880134346146 0.0 0.0
579.7033041370258 38.596809850027896 249.99776617800873 108.46661462628488 0.0 0.0
530.7596990945297 27.757287839833786 208.87257014905072 112.71587803648549 0.0 0.0
472.238894987253 14.983964030348659 166.11787944681507 118.62523388374447 0.0 0.0
399.5934281250064 4.5310238886351195 127.17994069738491 127.96443152798238 0.0 0.0
319.6687423135818 -1.1116997981684476 96.45130883341298 134.25643897151474 0.0 0.0
249.93545248354945 -1.4281546937107183 74.43950941306744 133.83058132159397 0.0 0.0
190.12875274278565 5.166682597253592 58.57774970161102 125.87151397637234 0.0 0.0
131.37429155754018 16.029285892668167 44.2210732350625 116.86026922172678 0.0 0.0
61.68854334105369 17.32360362113028 23.70364408865519 118.80112597297949 0.0 0.0
-7.013670392854629 -49.190548066711905 -16.861265537869958 152.61184478046152 0.0 0.0
-5.410942109744326 -373.24895622820577 -124.06093944694416 141.13220423970395 0.0 0.0
-5.774735922490326 -330.4157393789901 -102.66187566534461 -134.15867711280177 0.0 0.0
-20.84140157821946 -59.29189212940644 -24.03998811228777 -162.99635239802708 0.0 0.0
27.75930225200046 12.775773264516909 12.16052265495521 -136.4876260455373 0.0 0.0
84.71762550034666 17.13486634446769 30.555747553444306 -131.4701872441742 0.0 0.0
132.87023576382666 7.680366013352998 42.15846138067389 -138.7261924341703 0.0 0.0
178.69404653664262 0.4503839830257169 53.69755745355316 -147.71405460375252 0.0 0.0
230.69109011297434 -1.7718349428429434 68.93996875824885 -152.78653267585898 0.0 0.0
295.51130527249234 1.6246842964561972 90.72751058151638 -150.57537470900235 0.0 0.0
370.0993408950923 5.218986220738202 117.98867306209483 -144.06225511195538 0.0 0.0
439.3742949683633 15.19930264288389 153.5924380098804 -134.00029798220643 0.0 0.0
497.14755823124875 22.386425773274873 190.21129990509883 -128.78039895974962 0.0 0.0
546.0049754535075 31.440232445311104 229.1437190141515 -122.79819049078947 0.0 0.0
595.0815632217016 41.109603747384575 270.48269305727626 -119.02084754944026 0.0 0.0
642.2859160066673 49.531350241328255 310.3849033547011 -116.58743315822154 0.0 0.0
687.087082839558 56.87453282710687 345.66412057844394 -114.92799070914084 0.0 0.0
727.3976342534261 62.604369805886925 374.2182946716938 -112.73629196143725 0.0 0.0
764.230224917577 66.59528941321341 397.5689047639628 -108.73774946088841 0.0 0.0
796.8488749367245 67.65858415633816 416.2176774825159 -99.74424287282453 0.0 0.0
827.8816395819857 66.4990108556189 432.12883992322026 -81.9074387216879 0.0 0.0
865.3708581199152 73.17473476237765 455.02453719853196 -47.49536084586704 0.0 0.0
865.3708581200056 73.17473476249445 455.02453719859915 47.49536084602363 0.0 0.0
827.8816395817285 66.49901085548876 432.1288399230785 81.90743872200059 0.0 0.0
796.8488749365357 67.65858415629742 416.2176774823966 99.74424287311294 0.0 0.0
764.2302249172196 66.59528941298792 397.56890476372814 108.7377494610725 0.0 0.0
727.3976342534238 62.60436980595364 374.21829467164446 112.7362919614896 0.0 0.0
687.0870828397062 56.87453282738416 345.6641205785466 114.92799070919303 0.0 0.0
642.2859160066872 49.531350241498856 310.3849033547014 116.58743315834485 0.0 0.0
595.081563221766 41.109603747600694 270.48269305727706 119.02084754951085 0.0 0.0
546.0049754532197 31.440232445163378 229.1437190139174 122.79819049081917 0.0 0.0
497.14755823093645 22.386425773105646 190.211299904852 128.78039895974138 0.0 0.0
439.3742949680659 15.19930264277254 153.59243800967522 134.00029798215547 0.0 0.0
370.09934089483625 5.2189862209649025 117.98867306204791 144.06225511198753 0.0 0.0
295.51130527235597 1.6246842968184119 90.72751058157482 150.57537470904074 0.0 0.0
230.69109011273952 -1.7718349428523368 68.9399687581739 152.78653267578554 0.0 0.0
178.69404653649983 0.450383983007308 53.69755745350625 147.71405460360018 0.0 0.0
132.87023576375432 7.680366013363079 42.158461380656334 138.7261924340158 0.0 0.0
84.71762550033813 17.13486634447623 30.555747553444302 131.47018724397458 0.0 0.0
27.759302252008197 12.775773264581229 12.160522654976829 136.48762604532806 0.0 0.0
-20.841401578176228 -59.29189212932691 -24.03998811225094 162.99635239784985 0.0 0.0
-5.77473592256065 -330.41573937870925 -102.66187566525414 134.15867711265213 0.0 0.0
-15.39065335909042 -288.1291454483733 -91.15159684172929 -125.7807788096146 0.0 0.0
-32.59090854654078 -64.3286552516576 -29.075040955108854 -168.39990407805453 0.0 0.0
-2.1684222096478942 8.519606901780268 1.905355407639711 -149.82298290559058 0.0 0.0
40.00900228116941 17.48317933521257 17.24765448491459 -143.19560326599787 0.0 0.0
75.50895374536822 9.955506516748233 25.636267103793493 -148.48110378425702 0.0 0.0
106.54827095599902 2.8907931183989 32.799232113297336 -157.5873065869769 0.0 0.0
139.49803090509232 -0.7749741906711738 41.557849541678166 -165.39616960813316 0.0 0.0
178.52389583945026 0.11858123536822207 54.19381734080895 -166.2752792516337 0.0 0.0
228.26122551868653 1.1925440006753467 70.30338353617975 -164.8440942892023 0.0 0.0
286.75393729159737 4.271911553963461 91.296915770387 -158.69401199003778 0.0 0.0
354.3721619755965 9.378509463237627 118.56560771659369 -152.51108366485602 0.0 0.0
416.3317432758764 11.81619744155549 148.07730669925894 -146.89972620252377 0.0 0.0
471.8618922332615 19.6538085839621 184.40645399020931 -140.68946608523518 0.0 0.0
522.8207842063372 25.940355875835664 223.40206352788206 -135.71774975108497 0.0 0.0
568.8231468166339 30.705736485981557 260.7888357219803 -132.11722011150857 0.0 0.0
608.4998207403429 33.13328336381807 292.27376635695714 -128.6347984733173 0.0 0.0
642.1664149646127 31.03105643967563 315.75721931089447 -124.05303300197853 0.0 0.0
676.7591822381634 27.49419862818136 336.50953719875423 -114.0059676614655 0.0 0.0
703.3449087387601 14.295220750035305 347.01157196029976 -95.57194311699499 0.0 0.0
740.0309469612162 8.193756745747436 363.9471839980199 -60.63595197163487 0.0 0.0
740.0309469613616 8.193756745943887 363.9471839981184 60.6359519718614 0.0 0.0
703.3449087385557 14.295220749974675 347.01157196021677 95.57194311732167 0.0 0.0
676.7591822378305 27.49419862800694 336.50953719856284 114.0059676617631 0.0 0.0
642.1664149645269 31.03105643968196 315.7572193108277 124.05303300210912 0.0 0.0
608.4998207404141 33.133283364021565 292.2737663570041 128.63479847340835 0.0 0.0
568.8231468164503 30.70573648593367 260.7888357218719 132.11722011156095 0.0 0.0
522.8207842059996 25.940355875503467 223.40206352765665 135.717749751148 0.0 0.0
471.8618922328819 19.65380858355056 184.4064539899526 140.68946608527864 0.0 0.0
416.33174327537085 11.816197440950534 148.0773066988948 146.89972620246897 0.0 0.0
354.372161975402 9.378509463287838 118.5656077165126 152.51108366479434 0.0 0.0
286.75393729135703 4.2719115538789545 91.29691577027117 158.69401198992813 0.0 0.0
228.26122551837972 1.1925440004365813 70.3033835360071 164.84409428919855 0.0 0.0
178.52389583928155 0.11858123534091547 54.193817340748225 166.27527925158972 0.0 0.0
139.49803090494942 -0.7749741906809096 41.55784954163305 165.39616960799276 0.0 0.0
106.5482709558748 2.8907931182636126 32.79923211322031 157.58730658680238 0.0 0.0
75.50895374526249 9.95550651654655 25.636267103701904 148.4811037840726 0.0 0.0
40.009002281151 17.483179335180274 17.24765448489938 143.19560326581532 0.0 0.0
-2.168422209590248 8.519606901914775 1.905355407697357 149.8229829053813 0.0 0.0
-32.590908546476264 -64.32865525149249 -29.075040955040105 168.3999040778586 0.0 0.0
-15.39065335914243 -288.1291454480943 -91.15159684166582 125.7807788094706 0.0 0.0
-19.440181455270118 -245.4204423213779 -79.4106357868131 -115.62808390984524 0.0 0.0
-42.69505101198613 -65.91241014269019 -32.58154942279299 -170.12220187962077 0.0 0.0
-29.05669196837235 4.9701492135360015 -7.225962826450903 -158.663004580538 0.0 0.0
-2.750288309783182 17.23839285676376 4.346431364094173 -151.5028813762593 0.0 0.0
18.586936329014097 11.908379247491052 9.14672010251653 -154.759321065392 0.0 0.0
33.707918753479674 5.324582015222868 11.701914009009807 -163.07006733308458 0.0 0.0
46.418860207981794 1.2507191931837385 14.289728809076824 -171.3297167276484 0.0 0.0
60.28144564876892 -0.22497243984472526 17.989480509650924 -176.92685492803983 0.0 0.0
77.49669861564502 0.30402788397297176 23.627044882403915 -174.52796764154363 0.0 0.0
97.54253697558806 0.325749384855742 30.040405257492193 -174.06881168870436 0.0 0.0
123.87532123268406 2.32809324846364 39.688162557048635 -168.83678077420248 0.0 0.0
152.4555088210868 1.8448497441861864 49.59654140875134 -167.20701554487027 0.0 0.0
191.6778968340804 4.737872787260589 64.74045013916238 -164.43974742639702 0.0 0.0
241.5018715588451 5.807723300163197 83.97836568072228 -160.4648026111243 0.0 0.0
290.5601815806691 7.881173434563166 108.97054603555357 -154.06280037834279 0.0 0.0
345.42233141695186 7.134540781700821 139.52524141061986 -147.72705434001293 0.0 0.0
399.2917163019175 -3.9285265032401497 167.18224923456387 -140.32266685028247 0.0 0.0
452.6292102147264 -16.12250483626501 196.32274666285716 -130.7570104080083 0.0 0.0
510.7063103900167 -29.57819297856399 227.62371645366323 -109.05068433129534 0.0 0.0
537.740017586425 -74.86388596358829 227.11329315505483 -75.15707839286469 0.0 0.0
537.7400175864597 -74.86388596347362 227.11329315509545 75.15707839315563 0.0 0.0
510.706310390009 -29.578192978553048 227.62371645363498 109.05068433159832 0.0 0.0
452.62921021496066 -16.122504835673 196.322746663072 130.75701040839851 0.0 0.0
399.29171630204087 -3.9285265028949397 167.1822492346953 140.32266685041836 0.0 0.0
345.4223314164481 7.134540780775517 139.5252414102001 147.72705433999351 0.0 0.0
290.56018158032816 7.881173434085433 108.97054603529662 154.06280037834796 0.0 0.0
241.50187155866882 5.807723299801179 83.97836568056664 160.46480261122946 0.0 0.0
191.67789683385473 4.7378727867336 64.74045013892625 164.43974742649166 0.0 0.0
152.45550882101003 1.844849743931059 49.596541408649585 167.2070155448808 0.0 0.0
123.87532123270198 2.3280932485078267 39.68816255706283 168.836780774212 0.0 0.0
97.54253697568505 0.3257493850660502 30.04040525758042 174.06881168858445 0.0 0.0
77.49669861558986 0.304027883797076 23.627044882333124 174.52796764154945 0.0 0.0
60.28144564857135 -0.22497244029573693 17.989480509456445 176.92685492802127 0.0 0.0
46.41886020799871 1.2507191932895 14.289728809113733 171.32971672754886 0.0 0.0
33.707918753574354 5.324582015410874 11.701914009094896 163.07006733289037 0.0 0.0
18.586936329171504 11.908379247741822 9.146720102639181 154.75932106519537 0.0 0.0
-2.7502883096841693 17.238392856891597 4.346431364162227 151.50288137607782 0.0 0.0
-29.05669196831764 4.97014921359605 -7.225962826416475 158.66300458037466 0.0 0.0
-42.69505101196235 -65.9124101426311 -32.58154942276832 170.12220187948557 0.0 0.0
-19.44018145526505 -245.4204423211577 -79.41063578674867 115.62808390974843 0.0 0.0
-20.489253875986854 -204.4422430636663 -67.47944908189595 -104.9644258721838 0.0 0.0
-50.97459244920432 -64.25070909664497 -34.56618438054683 -167.97933046835243 0.0 0.0
-53.69471018226736 2.0589501076462913 -15.490200208781538 -163.15677041958628 0.0 0.0
-43.65910892964573 16.599059145054333 -8.117437301659216 -156.05285905358267 0.0 0.0
-37.52966180872861 13.412395318087531 -7.230894613773918 -157.29913555946294 0.0 0.0
-39.12987724834858 7.566247474229766 -9.457686412484573 -164.13883365693604 0.0 0.0
-46.87661849034815 3.2919471202731825 -13.063188601043594 -171.6016774223266 0.0 0.0
-59.60870066322755 0.9929803893935052 -17.55733358282002 -176.94162289849024 0.0 0.0
-77.01037989253896 -0.5303509968850655 -23.546780929981963 -174.48890731122623 0.0 0.0
-97.28983821568127 -0.5859003307936597 -30.041618977637746 -174.05532243757142 0.0 0.0
-123.67054748577584 -2.481688699338619 -39.6502655826895 -168.86067705058787 0.0 0.0
-152.17037880326842 -1.726762597910568 -49.451854366947664 -167.17719654449985 0.0 0.0
-192.04581893327793 -4.18867477495764 -64.62380110318196 -164.29461100626122 0.0 0.0
-243.3428201612819 -5.778857349950293 -84.59832944616673 -160.30585125899555 0.0 0.0
-289.6830092167322 -11.021604093649955 -110.40445341739355 -154.95239848376582 0.0 0.0
-328.3013640489454 -18.226769500362302 -137.48103771012646 -151.76823480001525 0.0 0.0
-340.61237534753184 -27.157427670211852 -155.12724719197567 -151.20695861341574 0.0 0.0
-300.84587483606845 -45.104577225197346 -153.13992345684807 -153.3645220364808 0.0 0.0
-160.81078390398645 -41.58050097488564 -91.4976481260537 -148.08694861170184 0.0 0.0
45.44748872278872 -150.3295237187361 -43.021790770914826 -100.84555324152777 0.0 0.0
45.447488722815706 -150.32952371863024 -43.02179077094044 100.84555324185874 0.0 0.0
-160.8107839038718 -41.580500974606935 -91.4976481259267 148.08694861206988 0.0 0.0
-300.84587483592736 -45.104577224958476 -153.13992345672108 153.36452203678562 0.0 0.0
-340.6123753471247 -27.157427669688992 -155.1272471916742 151.20695861347951 0.0 0.0
-328.30136404842347 -18.226769499602298 -137.48103770972222 151.76823479994687 0.0 0.0
-289.6830092162174 -11.02160409289607 -110.40445341701431 154.9523984837797 0.0 0.0
-243.34282016076236 -5.778857349267625 -84.59832944578693 160.30585125900308 0.0 0.0
-192.04581893293874 -4.188674775001424 -64.62380110307829 164.2946110063565 0.0 0.0
-152.17037880293844 -1.726762597926415 -49.45185436684545 167.17719654451864 0.0 0.0
-123.67054748565783 -2.481688699786053 -39.6502655827764 168.8606770505749 0.0 0.0
-97.2898382155577 -0.5859003310953144 -30.0416189776852 174.0553224374974 0.0 0.0
-77.01037989222425 -0.5303509967184183 -23.546780929835357 174.48890731121634 0.0 0.0
-59.60870066295986 0.9929803896778342 -17.557333582653868 176.9416228984632 0.0 0.0
-46.87661849014176 3.291947120555348 -13.063188600897242 171.6016774222036 0.0 0.0
-39.12987724822261 7.566247474245605 -9.457686412442495 164.1388336567372 0.0 0.0
-37.52966180866193 13.41239531802906 -7.23089461377173 157.29913555930386 0.0 0.0
-43.6591089295905 16.59905914495392 -8.117437301673021 156.05285905337442 0.0 0.0
-53.694710182161906 2.0589501077385512 -15.490200208722506 163.15677041937954 0.0 0.0
-50.97459244914812 -64.2507090965142 -34.56618438049095 167.97933046816595 0.0 0.0
-20.489253875962707 -204.44224306346763 -67.47944908182909 104.96442587204822 0.0 0.0
-20.60047260055312 -166.07091933603942 -56.00141758097776 -94.3152300565035 0.0 0.0
-58.13241520115629 -59.94707373033149 -35.42384667944633 -162.0530708950405 0.0 0.0
-76.50951010179853 -0.11315701685034663 -22.98584323418852 -163.3421599623935 0.0 0.0
-82.87804749645989 15.636852654785077 -20.1666254220548 -156.66525783884163 0.0 0.0
-92.57329041406986 14.375448743666944 -23.450042537793166 -155.84509645056707 0.0 0.0
-111.2736204400633 9.4278156579307 -30.532304083931827 -160.56914504399037 0.0 0.0
-139.86330179674724 5.074972157230398 -40.37086295601057 -166.30060180251897 0.0 0.0
-177.93486305125603 0.5672398181265219 -53.80495919923143 -166.28704717017948 0.0 0.0
-227.8655216333454 -1.4181454592060607 -70.2449168604077 -164.7190643805938 0.0 0.0
-286.5490608767804 -4.487356929564266 -91.2961153514223 -158.6417274937466 0.0 0.0
-354.1931001859605 -9.530630413576535 -118.55227185160315 -152.52929082280443 0.0 0.0
-416.1481611564217 -11.77884424359122 -147.9682086431137 -146.89698103939043 0.0 0.0
-471.74222412010647 -19.03456144319675 -184.05378092595595 -140.34975840795883 0.0 0.0
-523.1699233875308 -25.715654852657753 -223.50734742139002 -135.4003002484603 0.0 0.0
-570.8158944558078 -34.37705075535991 -263.70935379122545 -133.5252816056852 0.0 0.0
-612.5795259296002 -45.434256361673874 -300.59345368152947 -134.31737092551793 0.0 0.0
-647.6398018433558 -62.14730300953002 -332.95366561093493 -139.58845855490446 0.0 0.0
-671.960357809832 -86.86226077349929 -359.1483505242778 -150.85787065931672 0.0 0.0
-697.8585334917996 -137.8080074398924 -393.11465019724517 -161.17833346279846 0.0 0.0
-658.6631187418631 -182.43018696405525 -385.5004094114021 -154.71814361158096 0.0 0.0
-658.6631187420037 -182.43018696437144 -385.5004094115734 154.71814361188638 0.0 0.0
-697.8585334918043 -137.8080074401826 -393.11465019738284 161.1783334631715 0.0 0.0
-671.9603578100349 -86.86226077389415 -359.14835052446756 150.8578706595656 0.0 0.0
-647.6398018433246 -62.14730300970102 -332.953665610946 139.58845855507118 0.0 0.0
-612.5795259296839 -45.434256361809 -300.5934536815294 134.31737092549662 0.0 0.0
-570.8158944560064 -34.37705075584231 -263.7093537913735 133.525281605823 0.0 0.0
-523.1699233875233 -25.71565485286762 -223.50734742137854 135.40030024853007 0.0 0.0
-471.7422241196475 -19.034561442952782 -184.05378092567005 140.34975840805052 0.0 0.0
-416.148161155823 -11.778844243297456 -147.96820864278504 146.89698103945807 0.0 0.0
-354.19310018556916 -9.530630413764985 -118.55227185149715 152.529290822804 0.0 0.0
-286.54906087626966 -4.48735692956671 -91.29611535124714 158.64172749371434 0.0 0.0
-227.8655216327433 -1.4181454588096782 -70.24491686009819 164.71906438061154 0.0 0.0
-177.93486305089908 0.5672398183138743 -53.8049591990645 166.2870471701508 0.0 0.0
-139.86330179668377 5.0749721568874255 -40.37086295609539 166.3006018023844 0.0 0.0
-111.27362043993972 9.427815657722531 -30.53230408395825 160.56914504378855 0.0 0.0
-92.57329041398276 14.375448743529716 -23.45004253780894 155.84509645039793 0.0 0.0
-82.87804749631772 15.636852654782082 -20.166625422013556 156.66525783867098 0.0 0.0
-76.50951010172133 -0.11315701686304891 -22.985843234169742 163.34215996223463 0.0 0.0
-58.132415201124545 -59.94707373027518 -35.42384667941991 162.05307089489426 0.0 0.0
-20.600472600539142 -166.07091933588228 -56.001417580926415 94.31523005640528 0.0 0.0
-20.789833331827367 -130.7356994825727 -45.457659844320006 -83.64881071692656 0.0 0.0
-64.84022358235165 -53.66465269618209 -35.55146288356011 -152.79109479561302 0.0 0.0
-97.88235741724534 -1.4901419236647442 -29.808799661654696 -159.3450863679882 0.0 0.0
-120.50065082385666 14.418591986291899 -31.8138460670646 -153.22514840951152 0.0 0.0
-146.39310620508905 14.656473441684133 -39.5064810521993 -150.37223672838303 0.0 0.0
-182.23260445233868 10.804857226058562 -51.366214092868056 -152.40945866268572 0.0 0.0
-230.87480144336155 5.6230260733483375 -67.81603055830489 -154.08211710927057 0.0 0.0
-295.10940893933474 -1.0648465799664102 -90.41568261123004 -150.60727954197645 0.0 0.0
-369.87879036813655 -5.417385267126835 -117.95933839465738 -143.87787060979696 0.0 0.0
-439.35427422900216 -15.375841239237076 -153.6185199910307 -133.9147018056553 0.0 0.0
-497.1877062797074 -22.546442800413168 -190.2657996117016 -128.7970781869768 0.0 0.0
-545.95643234267 -31.472394678253586 -229.08618070880317 -122.81409306695251 0.0 0.0
-594.6939773867831 -40.53498730676888 -269.9607872486998 -118.70391225834196 0.0 0.0
-641.9955717076085 -48.90383065569347 -309.89862398502765 -116.10385703837304 0.0 0.0
-688.9351457221264 -59.46179759323293 -348.0514676621335 -115.74374236826725 0.0 0.0
-733.5280486219333 -73.1097727397035 -383.3325321704881 -117.48276560360368 0.0 0.0
-774.6874392333449 -91.5892579881139 -416.062094179983 -123.38742542127599 0.0 0.0
-818.5712387191393 -126.88543666376559 -454.53644909052883 -134.15235690225538 0.0 0.0
-864.4172233560381 -181.46898711468236 -500.39344291435833 -145.1127884963847 0.0 0.0
-908.4546173928547 -267.43041151680643 -554.8582892249215 -147.04318024664255 0.0 0.0
-908.4546173925021 -267.43041151659986 -554.8582892247757 147.04318024687663 0.0 0.0
-864.4172233557126 -181.46898711455327 -500.39344291419513 145.11278849668633 0.0 0.0
-818.5712387189396 -126.88543666372563 -454.5364490903908 134.15235690248048 0.0 0.0
-774.687439233086 -91.58925798797476 -416.0620941797746 123.38742542142683 0.0 0.0
-733.5280486218755 -73.10977273969236 -383.33253217040806 117.48276560357328 0.0 0.0
-688.9351457219955 -59.46179759315096 -348.05146766203546 115.74374236826398 0.0 0.0
-641.9955717076413 -48.90383065584402 -309.8986239850286 116.10385703841428 0.0 0.0
-594.6939773864437 -40.53498730659774 -269.96078724845734 118.70391225839944 0.0 0.0
-545.9564323423282 -31.47239467811717 -229.0861807085496 122.81409306700426 0.0 0.0
-497.18770627927995 -22.546442800244844 -190.2657996113918 128.79707818695078 0.0 0.0
-439.3542742286062 -15.375841239213438 -153.61851999080153 133.91470180561103 0.0 0.0
-369.87879036773074 -5.417385267355615 -117.95933839456032 143.8778706098679 0.0 0.0
-295.10940893878603 -1.0648465796478606 -90.41568261095586 150.60727954195696 0.0 0.0
-230.8748014428342 5.6230260738096485 -67.81603055800983 154.08211710915046 0.0 0.0
-182.2326044519424 10.804857226344097 -51.36621409266512 152.40945866250684 0.0 0.0
-146.3931062047875 14.656473441855958 -39.50648105205855 150.37223672823666 0.0 0.0
-120.5006508236426 14.418591986366737 -31.8138460669788 153.22514840934073 0.0 0.0
-97.8823574171957 -1.4901419237806333 -29.80879966167516 159.3450863677794 0.0 0.0
-64.84022358230706 -53.664652696181285 -35.5514628835465 152.7910947954593 0.0 0.0
-20.789833331833538 -130.73569948244474 -45.457659844283484 83.64881071685824 0.0 0.0
-21.268991110453342 -98.79628071836183 -36.019581548644545 -72.79004301801002 0.0 0.0
-71.47579378996464 -46.045338611841444 -35.25633972054182 -140.566063152889 0.0 0.0
-118.1009061223734 -2.1090699018947654 -36.06299280728045 -151.3068564282345 0.0 0.0
-156.67112827826745 12.87870134108127 -43.12651104766446 -145.74031799138467 0.0 0.0
-198.66962779622173 14.412858415015766 -55.24208742384914 -140.80134052795654 0.0 0.0
-251.15428808958274 10.849439626634753 -72.16387208396205 -139.3005689441982 0.0 0.0
-319.32917916744395 4.452607527443783 -95.3295561712646 -135.99990020880705 0.0 0.0
-399.4903574973638 -4.244114577506924 -127.03002260440195 -127.90242182582435 0.0 0.0
-472.2817309664472 -15.123632882995329 -166.1302307606167 -118.4190787190945 0.0 0.0
-530.8303285455745 -27.928106162250003 -208.94717908306183 -112.59641838474994 0.0 0.0
-579.7727095547796 -38.71032341162561 -250.0599528654895 -108.49335962750467 0.0 0.0
-628.5997951225395 -50.59320324982818 -292.37518062938153 -104.46167555164816 0.0 0.0
-676.0284418699666 -61.18017671150952 -332.91430493974826 -101.45815685786961 0.0 0.0
-722.7770615512791 -71.62369975918224 -370.625160431381 -99.5614587483949 0.0 0.0
-769.9328134697303 -83.45889909405585 -405.5817984607372 -99.39861931249548 0.0 0.0
-818.1709000365588 -99.73130705393841 -440.86364864758195 -101.38305115149399 0.0 0.0
-867.1437498458245 -123.28120349543508 -478.20607186881244 -106.32155697031817 0.0 0.0
-923.4765803672765 -165.92137396893344 -525.9554357352206 -116.18826191896149 0.0 0.0
-987.6132047408083 -233.91225738510832 -587.3650348733136 -127.22547260365151 0.0 0.0
-1053.3267568847562 -333.85072519833017 -661.1718861358438 -131.93747016695698 0.0 0.0
-1053.326756884744 -333.8507251984454 -661.1718861358752 131.9374701671456 0.0 0.0
-987.6132047406411 -233.9122573850803 -587.3650348731862 127.22547260391045 0.0 0.0
-923.4765803673287 -165.92137396915564 -525.9554357352683 116.18826191920411 0.0 0.0
-867.1437498456752 -123.2812034953543 -478.20607186868983 106.32155697039344 0.0 0.0
-818.1709000364231 -99.73130705386036 -440.86364864744894 101.38305115150314 0.0 0.0
-769.9328134691727 -83.45889909352518 -405.58179846029043 99.39861931250854 0.0 0.0
-722.7770615511635 -71.62369975915378 -370.62516043124026 99.56145874841225 0.0 0.0
-676.0284418698666 -61.18017671158202 -332.9143049396263 101.45815685795131 0.0 0.0
-628.5997951223426 -50.593203249841864 -292.3751806291833 104.4616755517032 0.0 0.0
-579.7727095547633 -38.71032341186571 -250.05995286539775 108.49335962749348 0.0 0.0
-530.8303285454346 -27.92810616244467 -208.9471790829135 112.59641838473479 0.0 0.0
-472.2817309659325 -15.123632882828998 -166.13023076029498 118.41907871914128 0.0 0.0
-399.49035749676045 -4.244114577304757 -127.03002260411452 127.90242182586451 0.0 0.0
-319.32917916694066 4.452607527573033 -95.3295561710714 135.99990020872428 0.0 0.0
-251.15428808913947 10.849439626788431 -72.16387208378877 139.30056894406738 0.0 0.0
-198.6696277959452 14.412858415017944 -55.242087423766996 140.8013405277955 0.0 0.0
-156.67112827809882 12.878701341025629 -43.12651104763174 145.74031799120593 0.0 0.0
-118.10090612216125 -2.1090699017306287 -36.06299280716756 151.3068564280872 0.0 0.0
-71.47579378983254 -46.04533861167197 -35.256339720451344 140.56606315275022 0.0 0.0
-21.268991110463787 -98.79628071826164 -36.01958154861763 72.79004301790862 0.0 0.0
-22.019962965245185 -70.60818876233033 -27.788445518272646 -61.55207443374867 0.0 0.0
-78.10700484029357 -37.625889792565474 -34.71986838985771 -125.70241693228674 0.0 0.0
-137.42594182245472 -2.09472975263013 -41.85620147252545 -139.45402430995935 0.0 0.0
-191.55369145749768 11.12791713653739 -54.108186712752676 -134.2115523699974 0.0 0.0
-249.55228673481344 13.347007178309207 -70.7594878119769 -127.26895525945196 0.0 0.0
-318.3074138308216 9.862406421987387 -92.6729729846885 -121.69607355056759 0.0 0.0
-401.0803512056565 2.506886691161599 -122.84049801118061 -113.55282064908506 0.0 0.0
-479.4047324016311 -11.150199686877794 -164.51630760271635 -103.0785698822826 0.0 0.0
-540.6866432667879 -25.58059187645267 -210.43236637135993 -97.4619884312423 0.0 0.0
-592.9282667826292 -39.91049608959005 -255.5955622372552 -94.26619363974987 0.0 0.0
-642.2735458482282 -54.34325330982726 -299.6916651638595 -90.93217861862685 0.0 0.0
-690.9486868508407 -68.53367458799164 -342.47382743326716 -87.87550245234851 0.0 0.0
-738.9365506143278 -81.56521781707633 -382.21331887799056 -85.63466289645747 0.0 0.0
-787.0528187751934 -93.79629254593996 -418.35222338706944 -84.11006959090169 0.0 0.0
-836.2179905575977 -107.17315423459142 -452.4454649295724 -83.83423292182268 0.0 0.0
-887.6252850128706 -126.40425287334739 -489.13689886594403 -85.29177686597009 0.0 0.0
-944.9915804820105 -155.38428611128546 -532.7728831849569 -89.0030400581455 0.0 0.0
-1013.029581904352 -206.38158794129316 -590.6603270486694 -97.27030700278844 0.0 0.0
-1092.011730767509 -287.5897392401198 -666.3913095563238 -109.4276602502526 0.0 0.0
-1160.5009184370297 -391.4752710271784 -744.5674204176058 -121.02806765130941 0.0 0.0
-1160.500918437586 -391.47527102786864 -744.5674204180125 121.02806765151861 0.0 0.0
-1092.0117307672833 -287.5897392400433 -666.3913095562136 109.42766025052671 0.0 0.0
-1013.0295819041739 -206.3815879412171 -590.6603270485275 97.27030700300318 0.0 0.0
-944.991580482005 -155.3842861113887 -532.7728831849247 89.0030400582903 0.0 0.0
-887.6252850129101 -126.40425287345509 -489.13689886591374 85.29177686602881 0.0 0.0
-836.2179905573992 -107.17315423447961 -452.44546492938525 83.83423292188385 0.0 0.0
-787.0528187749802 -93.79629254579571 -418.35222338685935 84.11006959091759 0.0 0.0
-738.936550613797 -81.56521781665788 -382.213318877597 85.63466289650908 0.0 0.0
-690.9486868503242 -68.53367458762123 -342.4738274328425 87.87550245238891 0.0 0.0
-642.2735458478705 -54.34325330962966 -299.6916651635247 90.93217861858045 0.0 0.0
-592.9282667823583 -39.91049608954204 -255.595562236991 94.26619363972323 0.0 0.0
-540.686643266421 -25.580591876359883 -210.43236637105267 97.46198843124992 0.0 0.0
-479.40473240119945 -11.150199686846413 -164.51630760245075 103.07856988235164 0.0 0.0
-401.0803512052745 2.506886690989098 -122.8404980110761 113.55282064907588 0.0 0.0
-318.30741383049747 9.862406421825687 -92.6729729846393 121.69607355044411 0.0 0.0
-249.55228673449426 13.347007178275243 -70.75948781189429 127.26895525931346 0.0 0.0
-191.55369145725524 11.12791713656039 -54.10818671267462 134.21155236988153 0.0 0.0
-137.42594182229607 -2.0947297526353386 -41.85620147247941 139.4540243098259 0.0 0.0
-78.10700484026273 -37.62588979259496 -34.719868389857304 125.70241693215544 0.0 0.0
-22.01996296524909 -70.60818876227005 -27.788445518255738 61.55207443367287 0.0 0.0
-22.87296093398639 -46.530907463161526 -20.82116051914437 -49.80059077892946 0.0 0.0
-84.51245543175719 -28.852583579503776 -34.00951170337828 -108.4522543841156 0.0 0.0
-155.94368044420176 -1.6345414822317195 -47.27346657793004 -123.93878615723412 0.0 0.0
-225.2227359294436 9.077519617968873 -64.83324475985333 -118.70297022157982 0.0 0.0
-298.3708126683895 11.386597672405646 -85.99203578864933 -109.57683085741485 0.0 0.0
-381.68432382715935 8.645505061785107 -112.5525064601602 -100.54512718766108 0.0 0.0
-468.6349736462204 -1.6663479573772886 -151.34302255200652 -89.01111171956465 0.0 0.0
-535.3276798820166 -20.01496169576024 -201.027899041265 -81.34586026228713 0.0 0.0
-590.1409105351629 -34.62790598260952 -248.47253034690692 -79.27023829811691 0.0 0.0
-642.5543717263446 -51.96594478899471 -295.79553723418115 -76.773710206322 0.0 0.0
-692.9203907645535 -69.34879662272462 -341.2421873725914 -74.43065452037602 0.0 0.0
-742.4056920099829 -85.87397640519441 -383.90280303041936 -72.02825100466009 0.0 0.0
-792.4870426272271 -101.28841068524522 -423.3900490363087 -70.41591956835579 0.0 0.0
-842.3048829371166 -116.150623470109 -459.4610098429872 -69.172138928834 0.0 0.0
-893.2090610035332 -131.25852611734723 -493.83711487335603 -68.60247417500297 0.0 0.0
-949.3383161378285 -153.02429534634246 -533.2614018601898 -69.29902678146696 0.0 0.0
-1012.9263122708934 -187.6365370021801 -582.6356478115184 -71.33435105040023 0.0 0.0
-1090.8569236923904 -246.65024704472518 -649.8801411519885 -77.86778098241409 0.0 0.0
-1181.1284166990504 -338.0610491001915 -736.8789718432192 -92.35824906120867 0.0 0.0
-1253.0580284132132 -447.1954664152502 -819.9940382671565 -113.83116381019008 0.0 0.0
-1253.058028413062 -447.1954664151498 -819.9940382670634 113.8311638102966 0.0 0.0
-1181.1284166986577 -338.06104909986766 -736.878971842936 92.35824906138976 0.0 0.0
-1090.8569236920664 -246.6502470444646 -649.8801411516878 77.86778098256066 0.0 0.0
-1012.9263122706082 -187.6365370019648 -582.6356478112236 71.33435105051672 0.0 0.0
-949.3383161374504 -153.02429534603144 -533.2614018598208 69.29902678154885 0.0 0.0
-893.20906100311 -131.25852611698912 -493.837114872988 68.60247417505767 0.0 0.0
-842.3048829367821 -116.15062346983204 -459.4610098427057 69.172138928821 0.0 0.0
-792.4870426269554 -101.28841068508059 -423.3900490360619 70.41591956838414 0.0 0.0
-742.4056920099765 -85.87397640536514 -383.9028030303484 72.02825100472323 0.0 0.0
-692.9203907641847 -69.34879662252064 -341.2421873722425 74.430654520368 0.0 0.0
-642.5543717257867 -51.965944788583506 -295.79553723368963 76.7737102062728 0.0 0.0
-590.140910534625 -34.62790598226553 -248.4725303464548 79.2702382981108 0.0 0.0
-535.3276798815957 -20.014961695641407 -201.02789904094047 81.34586026231798 0.0 0.0
-468.634973645798 -1.6663479573519968 -151.34302255177772 89.01111171959121 0.0 0.0
-381.68432382672086 8.64550506174392 -112.55250646003537 100.54512718762071 0.0 0.0
-298.37081266807104 11.38659767226464 -85.99203578860123 109.57683085735727 0.0 0.0
-225.2227359292641 9.077519617855902 -64.83324475983483 118.70297022145576 0.0 0.0
-155.94368044398254 -1.6345414821560613 -47.27346657784157 123.93878615710386 0.0 0.0
-84.512455431681 -28.852583579455867 -34.009511703341055 108.45225438402487 0.0 0.0
-22.872960934014582 -46.53090746314901 -20.821160519149075 49.800590778891035 0.0 0.0
-23.489501705951287 -26.920962973155525 -15.123139403732042 -37.51482942103423 0.0 0.0
-90.14078636893127 -20.114214753805566 -33.07650033682105 -89.00822864810092 0.0 0.0
-173.68503369772336 -0.9198962754169777 -52.38147899194209 -104.78776150192924 0.0 0.0
-258.19279075403585 6.663095200618484 -75.44942350398348 -99.40064868226239 0.0 0.0
-345.524164778616 8.364110501050554 -100.9534633725486 -88.19257641962764 0.0 0.0
-438.1913512832287 8.628532495181434 -131.8180739602309 -77.12408190763342 0.0 0.0
-513.8206370296341 -9.78809520505405 -180.9934184303948 -65.43057579472075 0.0 0.0
-576.2102079039405 -26.106496138022514 -232.48330711203477 -63.155725677252526 0.0 0.0
-631.489111132537 -43.77518345916283 -282.07649525920755 -61.43974743305001 0.0 0.0
-683.9932713870369 -63.73345755211272 -330.53303320405115 -59.90690974485023 0.0 0.0
-735.5083564240219 -83.62433568402528 -376.4978893415937 -58.26469028828948 0.0 0.0
-787.1727714311058 -102.76411410436548 -419.5908198141868 -56.49719266192782 0.0 0.0
-839.0996435296447 -120.68447458451445 -459.2010786139771 -55.310158891308824 0.0 0.0
-892.7318595367801 -138.6794702411577 -497.2408665007541 -54.537829678539055 0.0 0.0
-946.5476326251869 -156.54436737382846 -533.7185945333803 -53.73228785400339 0.0 0.0
-1003.7606533796574 -180.13792880424205 -574.1073302477564 -53.28991026568262 0.0 0.0
-1072.9872093078861 -218.87852381928232 -628.2377096028433 -53.67071718983175 0.0 0.0
-1158.6067552920213 -283.6368098316799 -702.7541826653119 -58.38935773933973 0.0 0.0
-1260.0368902896194 -384.8279809348454 -800.7597241896062 -75.55266066862589 0.0 0.0
-1340.7040635001676 -505.15308710941196 -894.192368565942 -108.76091438428114 0.0 0.0
-1340.704063500256 -505.15308710954923 -894.1923685660302 108.76091438438974 0.0 0.0
-1260.0368902897462 -384.8279809350356 -800.7597241896785 75.55266066880692 0.0 0.0
-1158.6067552920406 -283.63680983175834 -702.7541826653123 58.38935773947023 0.0 0.0
-1072.9872093073682 -218.87852381878082 -628.2377096024389 53.670717189833624 0.0 0.0
-1003.7606533794176 -180.13792880405762 -574.1073302475334 53.289910265730484 0.0 0.0
-946.5476326253813 -156.5443673740925 -533.7185945334345 53.73228785403873 0.0 0.0
-892.7318595362858 -138.67947024073365 -497.2408665003112 54.537829678584096 0.0 0.0
-839.0996435291694 -120.68447458413158 -459.2010786135566 55.3101588913316 0.0 0.0
-787.172771430428 -102.76411410380732 -419.59081981365637 56.49719266195598 0.0 0.0
-735.508356423988 -83.62433568416967 -376.497889341476 58.26469028829579 0.0 0.0
-683.9932713868908 -63.73345755215594 -330.5330332038499 59.906909744819046 0.0 0.0
-631.4891111322538 -43.77518345910445 -282.07649525893316 61.439747433088044 0.0 0.0
-576.2102079036644 -26.106496138000427 -232.48330711175876 63.155725677235594 0.0 0.0
-513.8206370293884 -9.788095205178658 -180.99341843020028 65.43057579474521 0.0 0.0
-438.19135128288417 8.628532495060513 -131.81807396011277 77.12408190758161 0.0 0.0
-345.5241647782244 8.364110501045603 -100.9534633724391 88.1925764195592 0.0 0.0
-258.19279075374993 6.6630952007208375 -75.44942350386872 99.40064868217 0.0 0.0
-173.6850336974888 -0.9198962753286453 -52.38147899184522 104.78776150184063 0.0 0.0
-90.14078636888136 -20.114214753820782 -33.07650033681064 89.00822864796748 0.0 0.0
-23.489501705950218 -26.920962973156595 -15.123139403732042 37.51482942097659 0.0 0.0
-23.25593553678833 -12.10124990077202 -10.607155631268103 -24.872498577435245 0.0 0.0
-94.0227500486148 -11.835020835987944 -31.757331265380817 -67.49907397104481 0.0 0.0
-190.555379054734 -0.02014264799984833 -57.17265651082015 -81.78378409927676 0.0 0.0
-291.2136114882875 3.208456581114411 -86.39100999931021 -76.32989092234433 0.0 0.0
-390.3192578971858 8.088075287567142 -114.26447221046789 -64.49350185830673 0.0 0.0
-482.9488525072131 4.702967176263867 -153.54796162238986 -52.65156540598752 0.0 0.0
-552.1990007675246 -16.606487899082765 -209.1034941846033 -45.6065759769092 0.0 0.0
-610.5920406774572 -32.029696837566185 -260.32808613988453 -44.72802227984918 0.0 0.0
-665.8601285614409 -52.72668257931945 -311.5170770594377 -44.13052105756385 0.0 0.0
-719.5427289586497 -75.1599715658511 -360.812992609975 -43.25109194217388 0.0 0.0
-772.9202656552075 -97.42475108065413 -407.2718476886096 -42.18527884780741 0.0 0.0
-826.4868573365607 -119.15279625428425 -450.84793230296845 -40.97687864570986 0.0 0.0
-881.8517735350897 -139.78480170242537 -491.9785351286963 -40.21476624302224 0.0 0.0
-938.266941226173 -161.3149671072059 -532.2068427758226 -39.78079307105251 0.0 0.0
-995.9749075935811 -183.39263668049074 -572.3481540428957 -39.08952307324505 0.0 0.0
-1056.5734432357822 -209.5797945280952 -615.4995974656822 -37.80173443899024 0.0 0.0
-1124.4069509925598 -246.8084448321904 -668.014086805009 -36.395086388796884 0.0 0.0
-1214.3982164169379 -314.48173073568154 -746.7326891671917 -38.815011606677885 0.0 0.0
-1329.9230510817624 -426.9993034631127 -858.0048273220775 -57.789622281925205 0.0 0.0
-1432.1894792731546 -569.6742459848837 -973.5914163904623 -104.23186306549981 0.0 0.0
-1432.1894792729545 -569.6742459847236 -973.5914163903371 104.23186306559995 0.0 0.0
-1329.9230510813672 -426.999303462762 -858.0048273217774 57.78962228208292 0.0 0.0
-1214.3982164165798 -314.4817307353584 -746.732689166852 38.815011606791764 0.0 0.0
-1124.406950992547 -246.80844483221887 -668.0140868049123 36.39508638884 0.0 0.0
-1056.573443235377 -209.5797945277326 -615.4995974652986 37.8017344390118 0.0 0.0
-995.9749075930016 -183.3926366799587 -572.3481540423631 39.08952307325663 0.0 0.0
-938.2669412257665 -161.3149671068704 -532.2068427754652 39.78079307108446 0.0 0.0
-881.8517735349719 -139.78480170240417 -491.9785351285212 40.21476624303735 0.0 0.0
-826.4868573359502 -119.15279625379672 -450.8479323024525 40.97687864572194 0.0 0.0
-772.9202656548274 -97.42475108041008 -407.271847688248 42.1852788477658 0.0 0.0
-719.5427289584131 -75.15997156578172 -360.81299260971593 43.25109194213451 0.0 0.0
-665.8601285613431 -52.726682579455534 -311.51707705925924 44.13052105763491 0.0 0.0
-610.5920406770476 -32.0296968373723 -260.3280861395007 44.728022279821815 0.0 0.0
-552.1990007671907 -16.60648789904072 -209.103494184309 45.60657597690745 0.0 0.0
-482.94885250692676 4.702967176192045 -153.54796162222115 52.65156540595852 0.0 0.0
-390.31925789677683 8.08807528745492 -114.26447221038643 64.4935018582505 0.0 0.0
-291.21361148805954 3.208456581020155 -86.3910099992721 76.32989092224545 0.0 0.0
-190.55537905454412 -0.020142647985569972 -57.1726565107589 81.78378409917855 0.0 0.0
-94.02275004853325 -11.835020835977403 -31.757331265353194 67.49907397096047 0.0 0.0
-23.255935536746694 -12.101249900760278 -10.607155631252091 24.872498577428843 0.0 0.0
-21.027921794708252 -2.322632221864717 -7.005166204971891 -12.39439671815723 0.0 0.0
-94.59717464338222 -4.5197468310556905 -29.73507644233137 -43.93711044291046 0.0 0.0
-206.4648691672496 0.8554563715345278 -61.68282383871451 -54.30332396816126 0.0 0.0
-325.17694512382934 -1.3617350157410164 -97.92937980392149 -49.53223712729718 0.0 0.0
-433.1590497759611 11.907153350544911 -126.26119745465363 -40.081255313248285 0.0 0.0
-514.0462223043924 -5.292025130391686 -178.10306577896947 -28.753475805223182 0.0 0.0
-581.7577718281672 -19.935227513972936 -232.61404963428583 -26.96802290504632 0.0 0.0
-639.1503177326792 -38.523094484114644 -285.3795126660416 -26.996139122988936 0.0 0.0
-694.8498205992531 -61.26589624500364 -337.1723707657982 -26.845098923551145 0.0 0.0
-750.1995023849372 -86.05116105758967 -387.15846235706044 -26.543666800122786 0.0 0.0
-805.9091131298487 -111.0052561049012 -434.58030368338973 -25.975502296015275 0.0 0.0
-862.8125388747899 -135.0336864176269 -479.395824364761 -25.347003288106745 0.0 0.0
-920.3388978442142 -159.10586790651044 -522.2442914466027 -24.96825451566533 0.0 0.0
-980.5197445450314 -183.7417540367788 -565.255674717291 -24.855800852392708 0.0 0.0
-1043.5831710366615 -210.91397315532083 -610.3804814142431 -24.429646074146994 0.0 0.0
-1108.2518516340713 -241.60902029020156 -657.7983082199787 -22.98028250240022 0.0 0.0
-1175.1804843556122 -278.64005355922797 -709.4941559662279 -20.65087787833457 0.0 0.0
-1246.7663435827121 -327.01628146916914 -769.9375104198352 -19.347116289966554 0.0 0.0
-1389.330979204558 -461.8522971861354 -906.4549420500089 -36.89530809046989 0.0 0.0
-1538.2788244668043 -649.1829122075426 -1067.701303041646 -97.87686018307943 0.0 0.0
-1538.278824466608 -649.1829122073672 -1067.7013030415046 97.87686018314474 0.0 0.0
-1389.3309792043983 -461.85229718599635 -906.4549420498474 36.895308090513026 0.0 0.0
-1246.766343582252 -327.0162814687276 -769.9375104194119 19.34711629003315 0.0 0.0
-1175.1804843552748 -278.64005355892544 -709.4941559658681 20.650877878364774 0.0 0.0
-1108.2518516337718 -241.6090202899461 -657.7983082196824 22.98028250244741 0.0 0.0
-1043.5831710362304 -210.913973154938 -610.3804814138375 24.42964607417092 0.0 0.0
-980.5197445444564 -183.7417540362752 -565.2556747167608 24.855800852424757 0.0 0.0
-920.3388978439318 -159.1058679063147 -522.2442914462976 24.968254515649733 0.0 0.0
-862.812538874323 -135.0336864172886 -479.39582436434137 25.347003288152152 0.0 0.0
-805.90911312982 -111.00525610503387 -434.5803036832751 25.975502296024132 0.0 0.0
-750.1995023845082 -86.05116105732145 -387.15846235667163 26.543666800110284 0.0 0.0
-694.8498205989474 -61.26589624488619 -337.17237076547787 26.845098923601164 0.0 0.0
-639.1503177325524 -38.5230944842285 -285.37951266583883 26.99613912296153 0.0 0.0
-581.7577718280959 -19.935227514194242 -232.61404963412656 26.96802290503294 0.0 0.0
-514.0462223039411 -5.2920251302022985 -178.1030657786472 28.753475805249117 0.0 0.0
-433.1590497754866 11.907153350636541 -126.26119745447454 40.08125531322057 0.0 0.0
-325.17694512349084 -1.3617350156426462 -97.92937980379278 49.53223712723777 0.0 0.0
-206.4648691670647 0.8554563715344585 -61.68282383865906 54.30332396812497 0.0 0.0
-94.59717464329462 -4.5197468310212 -29.73507644229474 43.937110442878435 0.0 0.0
-21.02792179465261 -2.3226322218523063 -7.005166204951475 12.394396718206336 0.0 0.0
-14.565614822077366 2.287983310009662 -3.683289453620311 -1.2351952922087581 0.0 0.0
-89.4066044835852 1.2288363379108098 -26.45333044370231 -17.957032928873375 0.0 0.0
-221.7438210849769 0.7290458839057337 -66.30443256032135 -21.23237971988938 0.0 0.0
-360.5659056321753 -3.6089024592638226 -109.16966737310403 -19.60934776717858 0.0 0.0
-472.3980637649525 11.446327349809863 -141.2870312392052 -14.522390230905037 0.0 0.0
-546.2511861788497 -12.008096811196289 -201.16905418157717 -8.544929947649797 0.0 0.0
-605.1024729601945 -23.43628486070324 -253.49561973997004 -8.939499510045675 0.0 0.0
-662.8822599426246 -44.60305306550049 -307.2276500194013 -9.283735808267899 0.0 0.0
-719.9186128135739 -69.60025211802586 -359.81639790311306 -9.493317417209628 0.0 0.0
-777.5949537977533 -96.79637044270123 -410.794165967885 -9.594403364948729 0.0 0.0
-835.8241419224998 -123.7365908117235 -459.0066002771614 -9.544004164465047 0.0 0.0
-894.8632506477386 -151.3193588961557 -505.4798390106057 -9.498359053727517 0.0 0.0
-956.0836476894772 -178.13724874829705 -550.7161396886277 -9.56940672187119 0.0 0.0
-1020.2910461947715 -206.19141696503607 -597.0573001491882 -9.637904575654028 0.0 0.0
-1088.193700576453 -238.2214037937214 -646.8403751738907 -9.469050994584403 0.0 0.0
-1158.4471726843083 -274.89405874193903 -700.0151688519932 -8.63851141202836 0.0 0.0
-1227.198077228774 -314.71713104833196 -753.9705446665591 -6.877039649086315 0.0 0.0
-1289.7870678975426 -355.2005523416984 -805.6985476520679 -3.8249712332499515 0.0 0.0
-1350.318662619602 -402.96308522639504 -859.9746634998633 -9.054108499960169 0.0 0.0
-1717.639697571893 -797.9769419264045 -1232.436751932242 -81.16829328256765 0.0 0.0
-1717.6396975717958 -797.9769419263192 -1232.4367519321813 81.16829328259708 0.0 0.0
-1350.3186626196898 -402.96308522650156 -859.9746634999012 9.054108499949944 0.0 0.0
-1289.7870678979277 -355.2005523421143 -805.6985476522896 3.8249712332739385 0.0 0.0
-1227.1980772286006 -314.71713104819185 -753.9705446663177 6.877039649093897 0.0 0.0
-1158.4471726841964 -274.8940587418746 -700.0151688517828 8.638511412029718 0.0 0.0
-1088.193700576546 -238.22140379387253 -646.8403751738571 9.469050994583277 0.0 0.0
-1020.2910461943081 -206.19141696463709 -597.0573001487697 9.637904575635421 0.0 0.0
-956.0836476889704 -178.1372487478748 -550.7161396881712 9.56940672186505 0.0 0.0
-894.8632506469694 -151.31935889549737 -505.4798390099719 9.498359053722162 0.0 0.0
-835.8241419219914 -123.7365908113492 -459.0066002767107 9.544004164419142 0.0 0.0
-777.5949537973987 -96.79637044250843 -410.7941659675614 9.594403364932495 0.0 0.0
-719.9186128134194 -69.6002521180614 -359.81639790290757 9.493317417202437 0.0 0.0
-662.8822599423388 -44.603053065422074 -307.2276500190803 9.283735808249078 0.0 0.0
-605.1024729598046 -23.43628486054895 -253.49561973958888 8.939499510051617 0.0 0.0
-546.2511861785763 -12.008096811189416 -201.1690541813212 8.544929947616918 0.0 0.0
-472.3980637646224 11.446327349823537 -141.28703123904856 14.522390230925268 0.0 0.0
-360.56590563172506 -3.608902459077063 -109.16966737291781 19.60934776714621 0.0 0.0
-221.7438210847724 0.7290458839018807 -66.30443256026115 21.232379719866962 0.0 0.0
-89.406604483514 1.2288363378711633 -26.45333044369285 17.957032928832806 0.0 0.0
-14.565614822024008 2.287983310013849 -3.683289453603047 1.235195292195948 0.0 0.0
SCALARS Strain float 6
LOOKUP_TABLE default
0.0055637377277413195 -0.006689803508860018 0.0 -0.0033875657055460473 0.0 0.0
0.0016953833381203034 -0.0004900271460571426 0.0 0.0009567228159589186 0.0 0.0
0.0016364949205942714 -0.0007478762991826038 0.0 -0.00013308255050448192 0.0 0.0
0.001881515032528023 -0.0007941632947608968 0.0 -0.00012361907143464135 0.0 0.0
0.002357730411278695 -0.00110836630707839 0.0 -0.00016128690219323338 0.0 0.0
0.003256162270290612 -0.0017417582968373146 0.0 -0.00018806001274333795 0.0 0.0
0.004397727094608407 -0.00263683192681341 0.0 -0.00024396458160165502 0.0 0.0
0.0057907857390850645 -0.003763489706130496 0.0 -0.00030444970566068097 0.0 0.0
0.007493940736222273 -0.0051956897249462175 0.0 -0.00037447919784389105 0.0 0.0
0.009623531717168538 -0.00705330900833967 0.0 -0.00045992826265339737 0.0 0.0
0.012415148683621783 -0.009578561113021244 0.0 -0.0005541304624409465 0.0 0.0
0.01622096884757441 -0.013118303293186195 0.0 -0.0006927346448264982 0.0 0.0
0.021384610937511244 -0.01801518266346247 0.0 -0.000886849893594735 0.0 0.0
0.028158394922771553 -0.024513799308599094 0.0 -0.0011352964823556494 0.0 0.0
0.036581483935082065 -0.03264330745280608 0.0 -0.001452762917310016 0.0 0.0
0.0463179966423713 -0.042064527884710046 0.0 -0.001794195955298436 0.0 0.0
0.056592656560529 -0.05201244747783207 0.0 -0.002021795447042979 0.0 0.0
0.06626978631499204 -0.06137796426142783 0.0 -0.0019286556984971504 0.0 0.0
0.0740682812518106 -0.06890976864152121 0.0 -0.001449481805450653 0.0 0.0
0.07866898449562656 -0.07327169240761289 0.0 -0.0010204394033654085 0.0 0.0
0.07866898449562491 -0.07327169240761267 0.0 0.0010204394033674347 0.0 0.0
0.07406828125180519 -0.06890976864151388 0.0 0.0014494818054572312 0.0 0.0
0.06626978631498182 -0.061377964261417395 0.0 0.0019286556985012027 0.0 0.0
0.05659265656051665 -0.052012447477821855 0.0 0.0020217954470449495 0.0 0.0
0.046317996642359596 -0.04206452788470094 0.0 0.0017941959552964515 0.0 0.0
0.0365814839350697 -0.0326433074527992 0.0 0.0014527629173112788 0.0 0.0
0.028158394922757984 -0.024513799308591544 0.0 0.0011352964823552192 0.0 0.0
0.021384610937496537 -0.018015182663451257 0.0 0.0008868498935952207 0.0 0.0
0.016220968847559455 -0.013118303293173983 0.0 0.0006927346448253324 0.0 0.0
0.012415148683608004 -0.009578561113009476 0.0 0.0005541304624407384 0.0 0.0
0.00962353171715663 -0.007053309008329456 0.0 0.0004599282626520651 0.0 0.0
0.007493940736212526 -0.005195689724937447 0.0 0.00037447919784364125 0.0 0.0
0.005790785739076862 -0.0037634897061222805 0.0 0.0003044497056588491 0.0 0.0
0.004397727094601442 -0.002636831926807026 0.0 0.00024396458160175216 0.0 0.0
0.003256162270285509 -0.0017417582968334289 0.0 0.00018806001274325468 0.0 0.0
0.0023577304112761543 -0.001108366307076225 0.0 0.00016128690219364972 0.0 0.0
0.0018815150325270369 -0.000794163294759842 0.0 0.0001236190714348634 0.0 0.0
0.0016364949205936313 -0.0007478762991819654 0.0 0.00013308255050409334 0.0 0.0
0.0016953833381199573 -0.0004900271460567401 0.0 -0.0009567228159578223 0.0 0.0
0.005563737727737453 -0.006689803508852675 0.0 0.0033875657055313646 0.0 0.0
0.0037106045843710543 -0.005130318267708989 0.0 -0.00405654324029342 0.0 0.0
0.0009468771432121197 -0.00021270192590580606 0.0 0.0002978350094731408 0.0 0.0
0.0014222354774993447 -0.0005699105128181836 0.0 -0.00010144645932796958 0.0 0.0
0.0016842781144033505 -0.0007188390154474478 0.0 -0.0003861791262267933 0.0 0.0
0.0020864671104555213 -0.000931818888729341 0.0 -0.00039911358823870036 0.0 0.0
0.002853453359421554 -0.0014466315525903939 0.0 -0.0004825268220411405 0.0 0.0
0.0038943959763973 -0.002230391399648979 0.0 -0.0006289384133668502 0.0 0.0
0.005149466066813355 -0.0032247904058451127 0.0 -0.0007722766779801743 0.0 0.0
0.006666293703691531 -0.004480202042039028 0.0 -0.0009245180680546583 0.0 0.0
0.00854960355196231 -0.006102989393078295 0.0 -0.0011024445099836189 0.0 0.0
0.011002338366317919 -0.008299826506761865 0.0 -0.0013140107419035985 0.0 0.0
0.014336542116089087 -0.01138308076878991 0.0 -0.0015859544048477253 0.0 0.0
0.018910279985083506 -0.015708072203783452 0.0 -0.002002739495377076 0.0 0.0
0.02498767123116952 -0.02152923100437465 0.0 -0.0025949567700961212 0.0 0.0
0.032603107807584866 -0.028871870744513695 0.0 -0.0033290696622032823 0.0 0.0
0.04144816624739399 -0.03742663411599234 0.0 -0.0041094756716675285 0.0 0.0
0.05082156549212478 -0.04650155549406643 0.0 -0.004628687236459178 0.0 0.0
0.059710491540669035 -0.055102497051072064 0.0 -0.004484988401044776 0.0 0.0
0.06691480559662669 -0.062040863182158734 0.0 -0.003553393271519295 0.0 0.0
0.07113262310683344 -0.06607567634562916 0.0 -0.0019326459655616135 0.0 0.0
0.07113262310683177 -0.0660756763456285 0.0 0.0019326459655707173 0.0 0.0
0.06691480559662157 -0.062040863182155626 0.0 0.0035533932715339223 0.0 0.0
0.059710491540660326 -0.05510249705106518 0.0 0.004484988401055656 0.0 0.0
0.05082156549211485 -0.046501555494055324 0.0 0.004628687236464535 0.0 0.0
0.04144816624738376 -0.03742663411598213 0.0 0.00410947567166603 0.0 0.0
0.03260310780757357 -0.02887187074450326 0.0 0.003329069662203865 0.0 0.0
0.02498767123115743 -0.021529231004363547 0.0 0.002594956770096357 0.0 0.0
0.018910279985070583 -0.015708072203772128 0.0 0.0020027394953773536 0.0 0.0
0.014336542116075893 -0.011383080768779807 0.0 0.001585954404845491 0.0 0.0
0.011002338366305597 -0.008299826506751429 0.0 0.0013140107419025715 0.0 0.0
0.008549603551951668 -0.0061029893930698575 0.0 0.0011024445099815927 0.0 0.0
0.0066662937036826575 -0.004480202042032588 0.0 0.0009245180680536869 0.0 0.0
0.005149466066805844 -0.0032247904058392285 0.0 0.0007722766779783563 0.0 0.0
0.003894395976391074 -0.002230391399644538 0.0 0.0006289384133658926 0.0 0.0
0.002853453359417432 -0.0014466315525877294 0.0 0.0004825268220397527 0.0 0.0
0.0020864671104534604 -0.0009318188887282308 0.0 0.000399113588238173 0.0 0.0
0.0016842781144025265 -0.0007188390154473923 0.0 0.00038617912622600226 0.0 0.0
0.0014222354774988955 -0.0005699105128185444 0.0 0.00010144645932792795 0.0 0.0
0.000946877143212746 -0.00021270192590555626 0.0 -0.00029783500947411223 0.0 0.0
0.0037106045843658536 -0.005130318267701347 0.0 0.004056543240280833 0.0 0.0
0.0026482755036986924 -0.004123525102583542 0.0 -0.003820836236329103 0.0 0.0
0.0005414388560270322 -0.00013070714176408038 0.0 -0.0003976938478213038 0.0 0.0
0.0011269558671215645 -0.0003977493037553015 0.0 -0.00029945811188498983 0.0 0.0
0.0014818308912037115 -0.0006271769764522039 0.0 -0.0006083324590333283 0.0 0.0
0.00184493669354718 -0.0007986831962014107 0.0 -0.0006590183639197389 0.0 0.0
0.002450857294855696 -0.0011665476361645277 0.0 -0.0007351033588136879 0.0 0.0
0.0033819485187027293 -0.00182695872171601 0.0 -0.0009313577582276411 0.0 0.0
0.004504268198286105 -0.002700405415452134 0.0 -0.001155959686357913 0.0 0.0
0.005841610116583722 -0.0037820569529686265 0.0 -0.0013764526065746796 0.0 0.0
0.007487318636837902 -0.005176536192243009 0.0 -0.001624920063669183 0.0 0.0
0.0096143923326939 -0.007059559956231309 0.0 -0.0019277161719286062 0.0 0.0
0.012497112463185734 -0.009705422254708163 0.0 -0.0023197915884138887 0.0 0.0
0.016474335008856048 -0.013448967559615 0.0 -0.0028820315705239685 0.0 0.0
0.02182861752973798 -0.018563659294473123 0.0 -0.0037199019503325326 0.0 0.0
0.028604130275172744 -0.025088631056443322 0.0 -0.004804479739055151 0.0 0.0
0.036524766156969896 -0.03274544658328282 0.0 -0.005923162312510083 0.0 0.0
0.04498414024537984 -0.04093593225098213 0.0 -0.006674983494201814 0.0 0.0
0.053095215380717736 -0.04877816200883811 0.0 -0.0065568452163596025 0.0 0.0
0.05974026743668172 -0.05517941208669752 0.0 -0.005250146936208594 0.0 0.0
0.06371832944105572 -0.058997165578279054 0.0 -0.0026626628258904217 0.0 0.0
0.06371832944105388 -0.058997165578277944 0.0 0.002662662825903661 0.0 0.0
0.05974026743667702 -0.05517941208669219 0.0 0.005250146936228051 0.0 0.0
0.05309521538071024 -0.04877816200883234 0.0 0.006556845216374174 0.0 0.0
0.04498414024537151 -0.04093593225097769 0.0 0.006674983494209585 0.0 0.0
0.03652476615696054 -0.032745446583276605 0.0 0.005923162312508723 0.0 0.0
0.028604130275162842 -0.025088631056435995 0.0 0.004804479739055512 0.0 0.0
0.021828617529727354 -0.018563659294462242 0.0 0.0037199019503332265 0.0 0.0
0.016474335008844723 -0.01344896755960745 0.0 0.002882031570524163 0.0 0.0
0.012497112463174087 -0.009705422254700613 0.0 0.002319791588411446 0.0 0.0
0.009614392332683047 -0.007059559956223094 0.0 0.0019277161719268576 0.0 0.0
0.007487318636828583 -0.005176536192235237 0.0 0.001624920063665769 0.0 0.0
0.005841610116575718 -0.00378205695296141 0.0 0.001376452606573375 0.0 0.0
0.0045042681982793015 -0.0027004054154451396 0.0 0.0011559596863554567 0.0 0.0
0.003381948518697428 -0.0018269587217103478 0.0 0.0009313577582263366 0.0 0.0
0.0024508572948523516 -0.0011665476361616411 0.0 0.0007351033588124806 0.0 0.0
0.0018449366935457262 -0.0007986831962009111 0.0 0.0006590183639191005 0.0 0.0
0.0014818308912027955 -0.0006271769764514823 0.0 0.0006083324590329259 0.0 0.0
0.0011269558671213736 -0.0003977493037551627 0.0 0.00029945811188410165 0.0 0.0
0.0005414388560275735 -0.00013070714176371956 0.0 0.0003976938478187364 0.0 0.0
0.002648275503693759 -0.00412352510257654 0.0 0.003820836236318695 0.0 0.0
0.0019593308288635494 -0.003370802954711191 0.0 -0.0033150453331407537 0.0 0.0
0.0003212489168862853 -0.00012633613750767658 0.0 -0.0009841708189628207 0.0 0.0
0.0008492829671308474 -0.00026473014642236503 0.0 -0.0006083488030371731 0.0 0.0
0.0012573141741841522 -0.0005158557022535981 0.0 -0.0008319214756802445 0.0 0.0
0.0016143204510549285 -0.0006908832902334794 0.0 -0.0009365159675209234 0.0 0.0
0.0020859232179143324 -0.0009404135956463389 0.0 -0.0009708487880576433 0.0 0.0
0.002855881496210553 -0.0014425848935982755 0.0 -0.0011525368199076375 0.0 0.0
0.0038558586940786073 -0.002187842410665941 0.0 -0.0014517029032566076 0.0 0.0
0.005020193542076695 -0.003106464042856527 0.0 -0.0017279163769945982 0.0 0.0
0.006437359598896061 -0.0042811969910873104 0.0 -0.0020315632770452063 0.0 0.0
0.00825140351346761 -0.005860509578312523 0.0 -0.0023948347381557156 0.0 0.0
0.010698020953827148 -0.008080297670863712 0.0 -0.0028679018044802523 0.0 0.0
0.014088474662550681 -0.011252536278266057 0.0 -0.003558079391159513 0.0 0.0
0.01870260936522831 -0.01564139317271085 0.0 -0.0045464620366203745 0.0 0.0
0.024603644910444176 -0.021312127364807587 0.0 -0.0058317176450466135 0.0 0.0
0.03156832971423717 -0.028042428054883217 0.0 -0.007206851273032833 0.0 0.0
0.03909016334888642 -0.03532373305675285 0.0 -0.008162489616058283 0.0 0.0
0.04640968280252425 -0.04240039777232085 0.0 -0.008104165300837823 0.0 0.0
0.05253776887099925 -0.04830625170020064 0.0 -0.006558458825598967 0.0 0.0
0.05635585533415478 -0.0519760919846779 0.0 -0.0032726136028225494 0.0 0.0
0.056355855334152744 -0.05197609198467612 0.0 0.003272613602839952 0.0 0.0
0.05253776887099479 -0.04830625170019598 0.0 0.0065584588256221155 0.0 0.0
0.04640968280251774 -0.042400397772316634 0.0 0.008104165300853616 0.0 0.0
0.039090163348879034 -0.03532373305674752 0.0 0.008162489616066138 0.0 0.0
0.03156832971422878 -0.028042428054876112 0.0 0.0072068512730319445 0.0 0.0
0.02460364491043554 -0.02131212736479915 0.0 0.005831717645046142 0.0 0.0
0.01870260936521924 -0.015641393172703966 0.0 0.004546462036620125 0.0 0.0
0.014088474662540942 -0.011252536278259062 0.0 0.0035580793911592634 0.0 0.0
0.010698020953817056 -0.008080297670856496 0.0 0.002867901804478129 0.0 0.0
0.008251403513458253 -0.005860509578303641 0.0 0.00239483473815294 0.0 0.0
0.0064373595988879845 -0.004281196991080649 0.0 0.0020315632770408487 0.0 0.0
0.005020193542069631 -0.00310646404285142 0.0 0.0017279163769924055 0.0 0.0
0.003855858694072678 -0.002187842410661278 0.0 0.0014517029032542206 0.0 0.0
0.0028558814962063306 -0.0014425848935947228 0.0 0.0011525368199058472 0.0 0.0
0.0020859232179117337 -0.000940413595644396 0.0 0.0009708487880561445 0.0 0.0
0.0016143204510538495 -0.0006908832902324247 0.0 0.0009365159675194107 0.0 0.0
0.0012573141741832605 -0.000515855702253043 0.0 0.0008319214756786764 0.0 0.0
0.0008492829671307156 -0.0002647301464220875 0.0 0.0006083488030353412 0.0 0.0
0.00032124891688664614 -0.00012633613750724637 0.0 0.0009841708189597814 0.0 0.0
0.001959330828859393 -0.0033708029547053755 0.0 0.0033150453331326213 0.0 0.0
0.0014733803800684765 -0.0027655389533182417 0.0 -0.002796044753929014 0.0 0.0
0.00019687574321287926 -0.00015018089937354762 0.0 -0.0014288079634407341 0.0 0.0
0.0006126345324406722 -0.00016830631086606207 0.0 -0.0009468240505045161 0.0 0.0
0.0010232925516405235 -0.0003991099696926681 0.0 -0.001066135125443582 0.0 0.0
0.0013723221660163556 -0.0005842115116482249 0.0 -0.0011998989793343545 0.0 0.0
0.001765096367846497 -0.0007710228138192443 0.0 -0.0012323214340205918 0.0 0.0
0.0023492535398088807 -0.001099382772517088 0.0 -0.001321996786275162 0.0 0.0
0.0031935902921226347 -0.0016810500981314647 0.0 -0.0016148007696739075 0.0 0.0
0.004202132948013158 -0.002456782907371946 0.0 -0.001974032269886239 0.0 0.0
0.005399439919567286 -0.0034193383729284044 0.0 -0.002317159707517377 0.0 0.0
0.006913607129597151 -0.004706996039330669 0.0 -0.0027204888040256447 0.0 0.0
0.008940183309964007 -0.006517000063736678 0.0 -0.003238852828768138 0.0 0.0
0.011755528063433936 -0.009122315755490717 0.0 -0.003981822474349445 0.0 0.0
0.01562438056589803 -0.012782555820999297 0.0 -0.005074347134925411 0.0 0.0
0.02063041630586604 -0.017578737271394473 0.0 -0.0064788476939161566 0.0 0.0
0.02660559587966673 -0.023342169229055187 0.0 -0.007948182339554882 0.0 0.0
0.03314642758227429 -0.02967486433826272 0.0 -0.009040974502635468 0.0 0.0
0.03964776829139277 -0.03596463330951427 0.0 -0.009110537848357192 0.0 0.0
0.04527677735487033 -0.04139296405656978 0.0 -0.00749919082051434 0.0 0.0
0.0489871223199567 -0.04496146492836406 0.0 -0.0037860239853134414 0.0 0.0
0.048987122319954564 -0.044961464928361616 0.0 0.003786023985330983 0.0 0.0
0.0452767773548661 -0.041392964056566006 0.0 0.007499190820536794 0.0 0.0
0.03964776829138697 -0.03596463330951005 0.0 0.009110537848373512 0.0 0.0
0.0331464275822677 -0.029674864338257834 0.0 0.009040974502644294 0.0 0.0
0.026605595879659535 -0.02334216922905119 0.0 0.007948182339555743 0.0 0.0
0.020630416305858434 -0.017578737271388922 0.0 0.006478847693915546 0.0 0.0
0.015624380565890522 -0.012782555820992192 0.0 0.005074347134925994 0.0 0.0
0.011755528063425835 -0.009122315755483168 0.0 0.003981822474348057 0.0 0.0
0.008940183309955538 -0.006517000063728462 0.0 0.003238852828765487 0.0 0.0
0.006913607129589314 -0.004706996039323674 0.0 0.0027204888040229525 0.0 0.0
0.005399439919560475 -0.0034193383729235194 0.0 0.0023171597075130612 0.0 0.0
0.0042021329480071146 -0.002456782907367505 0.0 0.001974032269884407 0.0 0.0
0.003193590292117632 -0.0016810500981274679 0.0 0.0016148007696723254 0.0 0.0
0.0023492535398056263 -0.0010993827725138683 0.0 0.0013219967862736492 0.0 0.0
0.0017650963678446652 -0.0007710228138174124 0.0 0.0012323214340193844 0.0 0.0
0.0013723221660153495 -0.0005842115116468927 0.0 0.0011998989793332998 0.0 0.0
0.0010232925516398261 -0.00039910996969200196 0.0 0.0010661351254423607 0.0 0.0
0.0006126345324406063 -0.00016830631086600656 0.0 0.00094682405050317 0.0 0.0
0.00019687574321300416 -0.00015018089937315904 0.0 0.0014288079634385414 0.0 0.0
0.0014733803800652673 -0.002765538953313381 0.0 0.00279604475392331 0.0 0.0
0.0011192547229685879 -0.0022702255828302986 0.0 -0.0023563262864236545 0.0 0.0
0.00011804016550236857 -0.00017869597222219813 0.0 -0.0017502296339976936 0.0 0.0
0.000414919472051703 -9.753027310593909e-05 0.0 -0.001267344241752344 0.0 0.0
0.0007909634772248139 -0.00028709625889850043 0.0 -0.001299797651565418 0.0 0.0
0.0011173082961597747 -0.00046842089985060786 0.0 -0.0014343639766715849 0.0 0.0
0.0014554762315439687 -0.0006337434384792173 0.0 -0.0015067326287993982 0.0 0.0
0.0018961771656218762 -0.0008459964685761934 0.0 -0.001544254328614797 0.0 0.0
0.0025381313450284076 -0.001227309822560585 0.0 -0.0017167997309823213 0.0 0.0
0.003377297789318154 -0.0018247922900775926 0.0 -0.0020724662254518467 0.0 0.0
0.004374142861003946 -0.002598019206569102 0.0 -0.0024745035887253075 0.0 0.0
0.005599301640594974 -0.003607171691854316 0.0 -0.0028942157019118953 0.0 0.0
0.00722470296427332 -0.0050216733622323595 0.0 -0.003425624633070029 0.0 0.0
0.009481316381186204 -0.007075177642258179 0.0 -0.004185217837386429 0.0 0.0
0.01260610949757085 -0.010001312238929527 0.0 -0.005274819751354964 0.0 0.0
0.01670323716160988 -0.013906618141774185 0.0 -0.006693289577884565 0.0 0.0
0.021663706702868213 -0.018681517880014598 0.0 -0.008209519087067185 0.0 0.0
0.02717699884674838 -0.024015678979341537 0.0 -0.009338076315080712 0.0 0.0
0.0328041653807536 -0.029466969480879346 0.0 -0.009512411043126112 0.0 0.0
0.037917097066582084 -0.034404823699690334 0.0 -0.00803329880527448 0.0 0.0
0.04155395256673996 -0.03790258954870107 0.0 -0.004205929635558381 0.0 0.0
0.041553952566737995 -0.03790258954869974 0.0 0.004205929635575922 0.0 0.0
0.03791709706657826 -0.034404823699687226 0.0 0.008033298805296213 0.0 0.0
0.03280416538074842 -0.02946696948087557 0.0 0.00951241104314271 0.0 0.0
0.02717699884674267 -0.024015678979334876 0.0 0.009338076315088484 0.0 0.0
0.021663706702862065 -0.018681517880010157 0.0 0.008209519087066519 0.0 0.0
0.016703237161603476 -0.013906618141771077 0.0 0.006693289577884565 0.0 0.0
0.012606109497564633 -0.010001312238925975 0.0 0.005274819751354742 0.0 0.0
0.009481316381179841 -0.007075177642252628 0.0 0.004185217837384708 0.0 0.0
0.007224702964266458 -0.005021673362226364 0.0 0.003425624633066837 0.0 0.0
0.005599301640588666 -0.003607171691848876 0.0 0.0028942157019085923 0.0 0.0
0.004374142860998326 -0.0025980192065649943 0.0 0.002474503588719784 0.0 0.0
0.0033772977893134076 -0.0018247922900752611 0.0 0.0020724662254491266 0.0 0.0
0.0025381313450244802 -0.0012273098225582535 0.0 0.0017167997309810445 0.0 0.0
0.001896177165619628 -0.0008459964685754162 0.0 0.0015442543286133814 0.0 0.0
0.0014554762315425879 -0.0006337434384788287 0.0 0.0015067326287976912 0.0 0.0
0.001117308296158942 -0.00046842089985055235 0.0 0.0014343639766698502 0.0 0.0
0.0007909634772242657 -0.0002870962588978343 0.0 0.0012997976515633919 0.0 0.0
0.00041491947205166135 -9.753027310555051e-05 0.0 0.0012673442417503455 0.0 0.0
0.00011804016550233387 -0.00017869597222168465 0.0 0.0017502296339951817 0.0 0.0
0.0011192547229662425 -0.0022702255828265464 0.0 0.0023563262864196854 0.0 0.0
0.0008507546251056222 -0.0018561963006764048 0.0 -0.0020204662623258124 0.0 0.0
6.400936844262045e-05 -0.0002101403364375698 0.0 -0.0019839539821484564 0.0 0.0
0.00024690184514065266 -4.147026303946699e-05 0.0 -0.0015444146376509538 0.0 0.0
0.0005664959190964033 -0.00018324661772606277 0.0 -0.0015191834998846132 0.0 0.0
0.000854801873746841 -0.0003470555036634848 0.0 -0.0016357398436711301 0.0 0.0
0.0011377028499349809 -0.0004918092355290504 0.0 -0.0017341397453627533 0.0 0.0
0.001475734043721387 -0.0006457173410224781 0.0 -0.001783641817416165 0.0 0.0
0.0019336460416443935 -0.0008710372562190649 0.0 -0.0018499814252080082 0.0 0.0
0.0025587790980986513 -0.001252097621168513 0.0 -0.0020676253124081723 0.0 0.0
0.00335298813021747 -0.0018182090160488995 0.0 -0.0024621853833478313 0.0 0.0
0.004306970289423874 -0.0025703745290925895 0.0 -0.0029135326672546646 0.0 0.0
0.005550385454204616 -0.0036076661042568903 0.0 -0.003431407445932594 0.0 0.0
0.007268291819573031 -0.005125694224839661 0.0 -0.004151431976755576 0.0 0.0
0.00966404655829061 -0.007328778017754445 0.0 -0.0051792310981823575 0.0 0.0
0.012841842839665267 -0.010330308079554706 0.0 -0.006504086958691896 0.0 0.0
0.016760610025260088 -0.014081442547299705 0.0 -0.007930795857369638 0.0 0.0
0.021205032495984294 -0.01837676272081712 0.0 -0.009060877840467468 0.0 0.0
0.025889528451620236 -0.022924614831575596 0.0 -0.00935338451621967 0.0 0.0
0.03041849824699766 -0.027310477710758452 0.0 -0.00814061588713108 0.0 0.0
0.03399034248027562 -0.030742398687279016 0.0 -0.004522629181129584 0.0 0.0
0.03399034248027416 -0.030742398687278127 0.0 0.004522629181145099 0.0 0.0
0.030418498246994233 -0.02731047771075601 0.0 0.00814061588715026 0.0 0.0
0.025889528451615948 -0.022924614831573153 0.0 0.00935338451623452 0.0 0.0
0.021205032495979506 -0.018376762720814233 0.0 0.009060877840474157 0.0 0.0
0.016760610025255154 -0.014081442547297263 0.0 0.007930795857367612 0.0 0.0
0.012841842839660153 -0.010330308079553596 0.0 0.006504086958691091 0.0 0.0
0.009664046558285608 -0.007328778017751558 0.0 0.005179231098181747 0.0 0.0
0.0072682918195686175 -0.005125694224837218 0.0 0.004151431976754771 0.0 0.0
0.005550385454199155 -0.0036076661042534486 0.0 0.0034314074459297073 0.0 0.0
0.0043069702894191625 -0.0025703745290890367 0.0 0.002913532667251334 0.0 0.0
0.0033529881302131748 -0.001818209016046346 0.0 0.002462185383343224 0.0 0.0
0.0025587790980950154 -0.0012520976211661816 0.0 0.0020676253124063404 0.0 0.0
0.0019336460416417844 -0.000871037256219731 0.0 0.0018499814252070368 0.0 0.0
0.001475734043719798 -0.0006457173410221451 0.0 0.0017836418174146107 0.0 0.0
0.0011377028499340303 -0.0004918092355282178 0.0 0.0017341397453604912 0.0 0.0
0.0008548018737462859 -0.0003470555036629852 0.0 0.0016357398436690346 0.0 0.0
0.000566495919096105 -0.00018324661772556317 0.0 0.0015191834998824483 0.0 0.0
0.0002469018451405902 -4.147026303891188e-05 0.0 0.0015444146376487333 0.0 0.0
6.400936844259963e-05 -0.00021014033643747265 0.0 0.001983953982146 0.0 0.0
0.0008507546251039222 -0.0018561963006737108 0.0 0.002020466262322926 0.0 0.0
0.0006419930004917321 -0.0015196977024253822 0.0 -0.001773164522969689 0.0 0.0
2.0790812471443987e-05 -0.00022913737611127138 0.0 -0.002118952581174352 0.0 0.0
0.00010139206738079415 3.999128962151044e-06 0.0 -0.0017743391385919849 0.0 0.0
0.00035205220665486536 -8.723572785834799e-05 0.0 -0.0017091124341742647 0.0 0.0
0.0005894534140900229 -0.0002240352877743157 0.0 -0.001802851965576488 0.0 0.0
0.0008111771199364598 -0.0003454931439900166 0.0 -0.001916334191627525 0.0 0.0
0.0010579010290196894 -0.00046218258116292876 0.0 -0.001998806529736802 0.0 0.0
0.0013747072776876257 -0.0005989802773866959 0.0 -0.0020413417226560204 0.0 0.0
0.0017883480749382452 -0.0008017340745823942 0.0 -0.0021082565386267293 0.0 0.0
0.002344982859149282 -0.0011286507879070262 0.0 -0.0023470625955851476 0.0 0.0
0.003034321969460893 -0.0016148314016416476 0.0 -0.002745551966652965 0.0 0.0
0.003912808706205771 -0.0022996308523798303 0.0 -0.0032347135396975923 0.0 0.0
0.005118903731516154 -0.0033055560114634286 0.0 -0.003889750338718606 0.0 0.0
0.006803678331587952 -0.004799273992382558 0.0 -0.0047837085917289135 0.0 0.0
0.00907105940509835 -0.006891807932608129 0.0 -0.00592099488567302 0.0 0.0
0.011919359769912818 -0.009590919172450807 0.0 -0.00716320127579087 0.0 0.0
0.015250943161030872 -0.012794154322841367 0.0 -0.00817499780282463 0.0 0.0
0.01891918587886457 -0.016357735605713408 0.0 -0.008544148843104865 0.0 0.0
0.02274786806385063 -0.020094849083128974 0.0 -0.007766512195171382 0.0 0.0
0.026219887191527652 -0.02343274693136599 0.0 -0.0047273247765852455 0.0 0.0
0.02621988719152686 -0.023432746931364656 0.0 0.004727324776597069 0.0 0.0
0.022747868063847793 -0.020094849083127198 0.0 0.007766512195189118 0.0 0.0
0.018919185878861204 -0.016357735605710744 0.0 0.008544148843118327 0.0 0.0
0.015250943161027021 -0.012794154322839146 0.0 0.008174997802829737 0.0 0.0
0.0119193597699093 -0.009590919172447254 0.0 0.007163201275789399 0.0 0.0
0.00907105940509452 -0.006891807932603244 0.0 0.005920994885671604 0.0 0.0
0.006803678331584559 -0.004799273992378783 0.0 0.004783708591728997 0.0 0.0
0.005118903731513386 -0.003305556011460098 0.0 0.0038897503387183285 0.0 0.0
0.0039128087062019895 -0.002299630852377388 0.0 0.003234713539695483 0.0 0.0
0.0030343219694576595 -0.0016148314016398713 0.0 0.0027455519666504946 0.0 0.0
0.0023449828591464994 -0.001128650787905472 0.0 0.0023470625955819835 0.0 0.0
0.001788348074935761 -0.0008017340745800627 0.0 0.002108256538625619 0.0 0.0
0.0013747072776860852 -0.0005989802773845865 0.0 0.002041341722655965 0.0 0.0
0.001057901029018607 -0.0004621825811624847 0.0 0.001998806529735775 0.0 0.0
0.0008111771199358769 -0.0003454931439898501 0.0 0.0019163341916256654 0.0 0.0
0.0005894534140896968 -0.00022403528777414916 0.0 0.0018028519655745867 0.0 0.0
0.00035205220665480985 -8.723572785829248e-05 0.0 0.0017091124341716696 0.0 0.0
0.00010139206738070394 3.9991289624286e-06 0.0 0.0017743391385892648 0.0 0.0
2.079081247148562e-05 -0.00022913737611099383 0.0 0.0021189525811720483 0.0 0.0
0.0006419930004905178 -0.001519697702423566 0.0 0.0017731645229673715 0.0 0.0
0.000493115813348266 -0.0012824586046466524 0.0 -0.0016370927219601095 0.0 0.0
-2.2851733032069887e-05 -0.00022913747647454463 0.0 -0.0021888884328135905 0.0 0.0
-2.647955451236944e-05 4.299263471191361e-05 0.0 -0.0019476987777726773 0.0 0.0
0.00014794876067565632 1.5309115269368512e-06 0.0 -0.0018615428424579722 0.0 0.0
0.00032408805075104935 -0.00010188659601922945 0.0 -0.0019295962738072603 0.0 0.0
0.0004785309028011303 -0.00019405431042573973 0.0 -0.002044508111438026 0.0 0.0
0.0006350392895775256 -0.0002744774770653269 0.0 -0.002143612905281117 0.0 0.0
0.0008246909296045976 -0.0003590183407733427 0.0 -0.002218308380478401 0.0 0.0
0.0010671357245719895 -0.0004676214184609062 0.0 -0.002257385997487732 0.0 0.0
0.001380941976866841 -0.0006162964476349453 0.0 -0.002343577941045366 0.0 0.0
0.0017990620605974825 -0.0008344295022866266 0.0 -0.0025486598925881787 0.0 0.0
0.002314007386094455 -0.001161556891261073 0.0 -0.00288057296575403 0.0 0.0
0.003028332766331951 -0.0016764884567170846 0.0 -0.0034192316777468257 0.0 0.0
0.004030839165707102 -0.0024865127584869917 0.0 -0.004141575193263858 0.0 0.0
0.0053984200140046595 -0.0036777845759554673 0.0 -0.005038140933524393 0.0 0.0
0.007162392324558481 -0.005294578583636245 0.0 -0.006017810420254843 0.0 0.0
0.0093319923306324 -0.007354082949202034 0.0 -0.006886325114432129 0.0 0.0
0.011930652267187154 -0.009849126431056954 0.0 -0.007247114788004078 0.0 0.0
0.014903839778711347 -0.012774536375813161 0.0 -0.0068184902673218695 0.0 0.0
0.01813873009570903 -0.015914386320299068 0.0 -0.00473463236249777 0.0 0.0
0.018138730095708808 -0.015914386320297957 0.0 0.004734632362507152 0.0 0.0
0.01490383977870955 -0.012774536375812051 0.0 0.006818490267335525 0.0 0.0
0.011930652267184642 -0.009849126431055844 0.0 0.007247114788015069 0.0 0.0
0.009331992330629889 -0.007354082949199814 0.0 0.006886325114434794 0.0 0.0
0.007162392324556462 -0.00529457858363358 0.0 0.0060178104202537885 0.0 0.0
0.005398420014002203 -0.003677784575953691 0.0 0.0050381409335227 0.0 0.0
0.004030839165705534 -0.0024865127584872138 0.0 0.0041415751932644684 0.0 0.0
0.0030283327663305215 -0.0016764884567177507 0.0 0.0034192316777474085 0.0 0.0
0.002314007386092616 -0.0011615568912621832 0.0 0.0028805729657516432 0.0 0.0
0.0017990620605958102 -0.0008344295022854054 0.0 0.0025486598925857917 0.0 0.0
0.0013809419768654047 -0.0006162964476343902 0.0 0.002343577941042174 0.0 0.0
0.0010671357245708862 -0.0004676214184612393 0.0 0.0022573859974870103 0.0 0.0
0.0008246909296038621 -0.00035901834077312067 0.0 0.0022183083804777626 0.0 0.0
0.000635039289576908 -0.00027447747706510484 0.0 0.0021436129052793684 0.0 0.0
0.0004785309028008458 -0.0001940543104261283 0.0 0.002044508111435875 0.0 0.0
0.000324088050750973 -0.00010188659601995109 0.0 0.0019295962738049705 0.0 0.0
0.0001479487606756355 1.5309115268258289e-06 0.0 0.001861542842455599 0.0 0.0
-2.647955451236944e-05 4.2992634712413214e-05 0.0 0.0019476987777699573 0.0 0.0
-2.2851733032097643e-05 -0.00022913747647392013 0.0 0.0021888884328110925 0.0 0.0
0.0004931158133475513 -0.0012824586046453566 0.0 0.0016370927219583609 0.0 0.0
0.0003895148595522563 -0.0010780573786791786 0.0 -0.0015021159500998443 0.0 0.0
-6.573356324721114e-05 -0.00021664445790772757 0.0 -0.0022113981927625315 0.0 0.0
-0.0001418997394224894 7.927472825991488e-05 0.0 -0.002062619059546994 0.0 0.0
-4.6128677880202806e-05 8.379774970235232e-05 0.0 -0.001969537457891371 0.0 0.0
6.133325942814238e-05 1.7950811929901e-05 0.0 -0.0020106373489058443 0.0 0.0
0.00014285903337330624 -4.13902038178815e-05 0.0 -0.002116786415691088 0.0 0.0
0.00020855876479165814 -8.46401483711734e-05 0.0 -0.0022237428382727575 0.0 0.0
0.0002740855121118324 -0.00011799360467468212 0.0 -0.002289814907512955 0.0 0.0
0.00035789158577585745 -0.00015503604301181362 0.0 -0.0023339500752761755 0.0 0.0
0.0004570397320117145 -0.00020122234877584244 0.0 -0.0023949544874429796 0.0 0.0
0.0005981155624728562 -0.00026633240839646355 0.0 -0.002544285840953675 0.0 0.0
0.0007631634694097514 -0.00035536966946170256 0.0 -0.0027658476590035896 0.0 0.0
0.0009973073322230921 -0.0004749948927020853 0.0 -0.00311121972422021 0.0 0.0
0.001330206742795409 -0.0006676308217159477 0.0 -0.0036455691269072776 0.0 0.0
0.0018003193167275833 -0.0009854955146260114 0.0 -0.004400108366502953 0.0 0.0
0.002465862693465895 -0.0014816984662473498 0.0 -0.005307164016202542 0.0 0.0
0.003443485619044874 -0.002318394740978391 0.0 -0.006183187006405466 0.0 0.0
0.0049548814411545725 -0.0036892225370719345 0.0 -0.0065931452050090045 0.0 0.0
0.0070286346776778225 -0.00561113100994759 0.0 -0.006071866351208571 0.0 0.0
0.009670070544023933 -0.008290091694468149 0.0 -0.004721373492009545 0.0 0.0
0.009670070544024092 -0.008290091694467927 0.0 0.004721373492016984 0.0 0.0
0.007028634677677108 -0.005611131009946924 0.0 0.006071866351219729 0.0 0.0
0.004954881441153101 -0.0036892225370683818 0.0 0.006593145205018219 0.0 0.0
0.003443485619044076 -0.0023183947409763928 0.0 0.006183187006406465 0.0 0.0
0.0024658626934655273 -0.0014816984662506805 0.0 0.005307164016201099 0.0 0.0
0.0018003193167267645 -0.0009854955146273436 0.0 0.004400108366501815 0.0 0.0
0.0013302067427953534 -0.0006676308217172799 0.0 0.0036455691269083323 0.0 0.0
0.000997307332223224 -0.0004749948927041947 0.0 0.0031112197242215978 0.0 0.0
0.0007631634694097722 -0.00035536966946259074 0.0 0.002765847659002507 0.0 0.0
0.0005981155624727869 -0.0002663324083962415 0.0 0.0025442858409529256 0.0 0.0
0.00045703973201161735 -0.00020122234877495426 0.0 0.0023949544874400652 0.0 0.0
0.0003578915857759199 -0.00015503604301247975 0.0 0.00233395007527587 0.0 0.0
0.0002740855121118116 -0.00011799360467634745 0.0 0.0022898149075127328 0.0 0.0
0.00020855876479153324 -8.46401483707293e-05 0.0 0.0022237428382715363 0.0 0.0
0.00014285903337337563 -4.1390203817215365e-05 0.0 0.002116786415688701 0.0 0.0
6.133325942837137e-05 1.7950811930733668e-05 0.0 0.0020106373489034157 0.0 0.0
-4.612867788000158e-05 8.37977497027409e-05 0.0 0.001969537457889012 0.0 0.0
-0.00014189973942235756 7.927472826008142e-05 0.0 0.0020626190595448707 0.0 0.0
-6.573356324721807e-05 -0.00021664445790750553 0.0 0.0022113981927608245 0.0 0.0
0.0003895148595518885 -0.0010780573786782315 0.0 0.0015021159500986508 0.0 0.0
0.0003054362688384091 -0.0008902581608815074 0.0 -0.0013645375363383894 0.0 0.0
-0.0001066407001487149 -0.0001929422717040774 0.0 -0.0021833984656752653 0.0 0.0
-0.0002483078757224838 0.00011405595515567857 0.0 -0.0021208324360004055 0.0 0.0
-0.00023099251787538078 0.00016063754370287953 0.0 -0.002028403519474753 0.0 0.0
-0.0001967995585040322 0.00013410323629520216 0.0 -0.002043437955232194 0.0 0.0
-0.0001925198527932201 0.00011047722042001329 0.0 -0.0021295741918614802 0.0 0.0
-0.0002194550275873633 0.00010615930764512616 0.0 -0.002226947199110957 0.0 0.0
-0.000272512725505325 0.00012016661779201687 0.0 -0.0022899398235122215 0.0 0.0
-0.00035516305137325843 0.00015298802773444642 0.0 -0.002333194435659658 0.0 0.0
-0.0004552897852193871 0.0001994550701711617 0.0 -0.002394552254366078 0.0 0.0
-0.000596513478538653 0.00026490847500304504 0.0 -0.0025439384674263432 0.0 0.0
-0.0007620194392564672 0.0003553214477202138 0.0 -0.0027650449719313075 0.0 0.0
-0.0010012879936379462 0.0004795714040151111 0.0 -0.0031080177063075864 0.0 0.0
-0.0013418370679405198 0.0006743970540257216 0.0 -0.003642242466217527 0.0 0.0
-0.0017776787384830434 0.0009554606050274916 0.0 -0.004424453849046772 0.0 0.0
-0.00222675604405715 0.0012587377015382817 0.0 -0.005417654824228152 0.0 0.0
-0.002470850731189078 0.0014250566307696388 0.0 -0.00657942266056169 0.0 0.0
-0.0021532513696314384 0.0011550706185952109 0.0 -0.007852427440990795 0.0 0.0
-0.0009899790088216051 0.00040220114281175334 0.0 -0.008751289407947255 0.0 0.0
0.0013831571590042502 -0.001678964810537975 0.0 -0.007053887196709491 0.0 0.0
0.0013831571590042432 -0.001678964810537753 0.0 0.007053887196719566 0.0 0.0
-0.0009899790088218965 0.0004022011428130856 0.0 0.008751289407957358 0.0 0.0
-0.0021532513696313135 0.001155070618596099 0.0 0.00785242744099729 0.0 0.0
-0.002470850731187947 0.0014250566307709711 0.0 0.006579422660561635 0.0 0.0
-0.0022267560440557763 0.00125873770154028 0.0 0.005417654824225793 0.0 0.0
-0.0017776787384819678 0.0009554606050297121 0.0 0.004424453849045412 0.0 0.0
-0.001341837067939354 0.00067439705402772 0.0 0.0036422424662170827 0.0 0.0
-0.001001287993636038 0.0004795714040140009 0.0 0.0031080177063079473 0.0 0.0
-0.0007620194392546353 0.0003553214477192146 0.0 0.0027650449719300862 0.0 0.0
-0.0005965134785370432 0.00026490847500060255 0.0 0.0025439384674248167 0.0 0.0
-0.0004552897852180618 0.00019945507016938535 0.0 0.0023945522543636633 0.0 0.0
-0.0003551630513721135 0.00015298802773455744 0.0 0.0023331944356592416 0.0 0.0
-0.0002725127255046658 0.00012016661779279403 0.0 0.0022899398235118884 0.0 0.0
-0.00021945502758698165 0.00010615930764601433 0.0 0.002226947199109458 0.0 0.0
-0.0001925198527926858 0.00011047722041984676 0.0 0.002129574191859024 0.0 0.0
-0.0001967995585036228 0.00013410323629481358 0.0 0.0020434379552302373 0.0 0.0
-0.00023099251787494363 0.00016063754370232441 0.0 0.002028403519472158 0.0 0.0
-0.00024830787572219237 0.00011405595515590061 0.0 0.0021208324359978104 0.0 0.0
-0.0001066407001487149 -0.00019294227170359168 0.0 0.002183398465672892 0.0 0.0
0.0003054362688381315 -0.0008902581608806505 0.0 0.0013645375363366269 0.0 0.0
0.00023010614237276017 -0.0007154517614079009 0.0 -0.0012260979907345454 0.0 0.0
-0.0001476056953911148 -0.00015940097583075352 0.0 -0.0021066899216355267 0.0 0.0
-0.00034786985111000257 0.00014865283040432775 0.0 -0.002123216975911335 0.0 0.0
-0.0004074354208011832 0.00023261978027372399 0.0 -0.00203568665898006 0.0 0.0
-0.00044902968087086326 0.00024573391245447107 0.0 -0.0020247359850074503 0.0 0.0
-0.000524103799812034 0.00025934758207990516 0.0 -0.002083645036755663 0.0 0.0
-0.0006448965468983589 0.000294578161707304 0.0 -0.0021545010398098807 0.0 0.0
-0.0008232249118948626 0.0003608797470301406 0.0 -0.002217966897585244 0.0 0.0
-0.0010646613797364243 0.00046560421183050593 0.0 -0.0022550150153174964 0.0 0.0
-0.0013793488754234307 0.0006146838091078966 0.0 -0.0023424044616992823 0.0 0.0
-0.0017976210610506083 0.0008330690561483278 0.0 -0.00254878764046243 0.0 0.0
-0.0023125431193545057 0.001160752691268252 0.0 -0.002879584762279952 0.0 0.0
-0.0030304487416329406 0.0016807876086544216 0.0 -0.0034092642279107965 0.0 0.0
-0.004042535034629632 0.0024977491833064747 0.0 -0.004128542482064873 0.0 0.0
-0.005389024671288455 0.0036512200732836675 0.0 -0.005087100228380825 0.0 0.0
-0.006957053279738404 0.005039838807792796 0.0 -0.006296941839354919 0.0 0.0
-0.008450055926630902 0.006364574385703259 0.0 -0.007734046948325662 0.0 0.0
-0.009402210631304336 0.007166268693089117 0.0 -0.009298339254679738 0.0 0.0
-0.009100809455704864 0.0066432470734469895 0.0 -0.010088071205348187 0.0 0.0
-0.006441028815331311 0.003987841385096669 0.0 -0.008263205094433096 0.0 0.0
-0.006441028815331901 0.003987841385096003 0.0 0.008263205094442089 0.0 0.0
-0.009100809455704843 0.006643247073446101 0.0 0.010088071205360982 0.0 0.0
-0.00940221063130258 0.007166268693085787 0.0 0.009298339254687454 0.0 0.0
-0.008450055926627877 0.006364574385699928 0.0 0.0077340469483270224 0.0 0.0
-0.006957053279735288 0.005039838807789243 0.0 0.006296941839352088 0.0 0.0
-0.005389024671285672 0.0036512200732792266 0.0 0.0050871002283802425 0.0 0.0
-0.004042535034627127 0.002497749183303588 0.0 0.0041285424820635686 0.0 0.0
-0.0030304487416292977 0.0016807876086527562 0.0 0.003409264227910408 0.0 0.0
-0.002312543119350953 0.0011607526912671418 0.0 0.0028795847622787862 0.0 0.0
-0.0017976210610472151 0.0008330690561455523 0.0 0.002548787640459904 0.0 0.0
-0.0013793488754206204 0.0006146838091064533 0.0 0.0023424044616973394 0.0 0.0
-0.0010646613797342525 0.00046560421183095 0.0 0.00225501501531708 0.0 0.0
-0.0008232249118935511 0.0003608797470302516 0.0 0.002217966897584689 0.0 0.0
-0.0006448965468974222 0.00029457816170563866 0.0 0.002154501039808243 0.0 0.0
-0.0005241037998110903 0.0002593475820787394 0.0 0.002083645036753193 0.0 0.0
-0.00044902968087021794 0.0002457339124536939 0.0 0.0020247359850053687 0.0 0.0
-0.00040743542080054485 0.00023261978027344643 0.0 0.0020356866589779365 0.0 0.0
-0.00034786985110964175 0.00014865283040413346 0.0 0.002123216975909392 0.0 0.0
-0.0001476056953910801 -0.00015940097583055923 0.0 0.0021066899216336255 0.0 0.0
0.0002301061423725173 -0.0007154517614072131 0.0 0.0012260979907332686 0.0 0.0
0.0001603408723312022 -0.0005543072576486424 0.0 -0.0010874345393200452 0.0 0.0
-0.00019037694454214493 -0.00011773573378204283 0.0 -0.001986284232342969 0.0 0.0
-0.0004423823394375803 0.0001840197414324507 0.0 -0.002071004013728159 0.0 0.0
-0.0005760994914553313 0.0003003076816460726 0.0 -0.001990517547721657 0.0 0.0
-0.0006942811620943429 0.00035179493446313437 0.0 -0.001953171916655519 0.0 0.0
-0.0008488947300928917 0.00040330680745459535 0.0 -0.001976588698273718 0.0 0.0
-0.0010658383397444127 0.00047970272788777635 0.0 -0.002014567063561429 0.0 0.0
-0.0013735293393788844 0.0006003494631178219 0.0 -0.002040973903353921 0.0 0.0
-0.0017863285418578262 0.0007998175137979846 0.0 -0.002104608364488808 0.0 0.0
-0.0023436862063826863 0.001126988935464146 0.0 -0.0023449041145637284 0.0 0.0
-0.003033370857565304 0.0016133709601816593 0.0 -0.0027456204470988066 0.0 0.0
-0.003910777661479098 0.0022977476460196433 0.0 -0.0032341032039860385 0.0 0.0
-0.0051169318949107895 0.003306552391026285 0.0 -0.00387350315751564 0.0 0.0
-0.0068110151915996425 0.004809419138902982 0.0 -0.004742229396985598 0.0 0.0
-0.009075738342239167 0.0068828415202841775 0.0 -0.005930504354927979 0.0 0.0
-0.011778166073946758 0.009398225366882507 0.0 -0.0075213569804438996 0.0 0.0
-0.014538321992647714 0.01197364440984483 0.0 -0.009600884390568581 0.0 0.0
-0.0166983677438474 0.013898381494900525 0.0 -0.011913937559485416 0.0 0.0
-0.017059644660559592 0.013967085353789432 0.0 -0.013225683595059823 0.0 0.0
-0.013860952252748145 0.010399465616478976 0.0 -0.01077852368757698 0.0 0.0
-0.013860952252748734 0.010399465616480974 0.0 0.010778523687587832 0.0 0.0
-0.0170596446605588 0.013967085353789876 0.0 0.013225683595075172 0.0 0.0
-0.016698367743844422 0.013898381494898304 0.0 0.011913937559495463 0.0 0.0
-0.014538321992643169 0.0119736444098415 0.0 0.009600884390571857 0.0 0.0
-0.011778166073942019 0.009398225366878066 0.0 0.007521356980440652 0.0 0.0
-0.00907573834223499 0.006882841520280625 0.0 0.005930504354926286 0.0 0.0
-0.006811015191595569 0.004809419138898541 0.0 0.004742229396983821 0.0 0.0
-0.00511693189490562 0.0033065523910226213 0.0 0.003873503157514474 0.0 0.0
-0.003910777661473748 0.0022977476460157575 0.0 0.0032341032039837347 0.0 0.0
-0.0030333708575602733 0.0016133709601784396 0.0 0.0027456204470946433 0.0 0.0
-0.002343686206378391 0.0011269889354611484 0.0 0.0023449041145598426 0.0 0.0
-0.0017863285418545025 0.000799817513795209 0.0 0.0021046083644879754 0.0 0.0
-0.0013735293393767126 0.0006003494631179329 0.0 0.0020409739033529495 0.0 0.0
-0.0010658383397429555 0.00047970272788888657 0.0 0.0020145670635599855 0.0 0.0
-0.0008488947300916774 0.00040330680745515046 0.0 0.0019765886982715114 0.0 0.0
-0.0006942811620933367 0.0003517949344633564 0.0 0.0019531719166537426 0.0 0.0
-0.0005760994914545264 0.00030030768164601707 0.0 0.0019905175477195475 0.0 0.0
-0.00044238233943714317 0.00018401974143184008 0.0 0.002071004013725536 0.0 0.0
-0.0001903769445419437 -0.0001177357337821261 0.0 0.0019862842323409707 0.0 0.0
0.00016034087233092464 -0.0005543072576480483 0.0 0.001087434539319157 0.0 0.0
9.58788378482428e-05 -0.0004080485446031623 0.0 -0.0009462705592341303 0.0 0.0
-0.0002354264514512483 -7.012849279344757e-05 0.0 -0.0018273588209875569 0.0 0.0
-0.0005332464365481043 0.00022070049888500698 0.0 -0.0019669891335670486 0.0 0.0
-0.0007377022625800478 0.00036386438661034637 0.0 -0.0018937080190897376 0.0 0.0
-0.0009312816899331305 0.0004522839763230202 0.0 -0.0018282199906449054 0.0 0.0
-0.0011652250711715606 0.0005402876300777404 0.0 -0.001813538004401996 0.0 0.0
-0.0014805290115351283 0.0006601167559125987 0.0 -0.001806489414827861 0.0 0.0
-0.0019331260119568594 0.0008715970225983138 0.0 -0.0018483715763204234 0.0 0.0
-0.002557342060906506 0.0012502708716863875 0.0 -0.0020629075213798864 0.0 0.0
-0.0033522696384408746 0.0018168584108591013 0.0 -0.0024598144894906193 0.0 0.0
-0.004306576186161273 0.002569490214497483 0.0 -0.002914413731266996 0.0 0.0
-0.005548015921099353 0.003604879563095853 0.0 -0.003432627007279865 0.0 0.0
-0.007260054247071462 0.005119808400029013 0.0 -0.0041331122603031345 0.0 0.0
-0.00965701110852836 0.007326959265044675 0.0 -0.0051064580551721805 0.0 0.0
-0.012849725166234227 0.010331778144185177 0.0 -0.006437901599035789 0.0 0.0
-0.01671286935942197 0.013995337647945805 0.0 -0.00829301479182315 0.0 0.0
-0.02076643605589005 0.017829174005469905 0.0 -0.010845440827721264 0.0 0.0
-0.024060866182318896 0.02083015940217603 0.0 -0.01379723749052203 0.0 0.0
-0.024897587291489068 0.0212798062974906 0.0 -0.015703047605560377 0.0 0.0
-0.020721842108850586 0.01662514337241272 0.0 -0.013451528987705352 0.0 0.0
-0.020721842108850634 0.0166251433724125 0.0 0.01345152898771862 0.0 0.0
-0.024897587291487312 0.02127980629748949 0.0 0.01570304760557817 0.0 0.0
-0.024060866182315094 0.02083015940217159 0.0 0.013797237490534853 0.0 0.0
-0.02076643605588424 0.0178291740054648 0.0 0.01084544082772479 0.0 0.0
-0.01671286935941594 0.013995337647940476 0.0 0.008293014791821374 0.0 0.0
-0.012849725166228496 0.010331778144182513 0.0 0.006437901599034901 0.0 0.0
-0.009657011108522906 0.00732695926503979 0.0 0.00510645805516996 0.0 0.0
-0.007260054247064614 0.005119808400022463 0.0 0.004133112260301719 0.0 0.0
-0.005548015921092483 0.0036048795630897468 0.0 0.003432627007277117 0.0 0.0
-0.004306576186154654 0.0025694902144905996 0.0 0.0029144137312621665 0.0 0.0
-0.003352269638435025 0.0018168584108534391 0.0 0.0024598144894858176 0.0 0.0
-0.0025573420609018363 0.001250270871683723 0.0 0.002062907521378138 0.0 0.0
-0.0019331260119535634 0.0008715970225972036 0.0 0.0018483715763197295 0.0 0.0
-0.0014805290115330327 0.0006601167559121546 0.0 0.0018064894148266675 0.0 0.0
-0.0011652250711699647 0.0005402876300776849 0.0 0.0018135380044005667 0.0 0.0
-0.0009312816899319093 0.0004522839763225206 0.0 0.001828219990642907 0.0 0.0
-0.0007377022625792012 0.00036386438660979126 0.0 0.0018937080190875172 0.0 0.0
-0.000533246436547459 0.00022070049888534005 0.0 0.0019669891335651335 0.0 0.0
-0.00023542645145097768 -7.01284927929341e-05 0.0 0.0018273588209857528 0.0 0.0
9.587883784799994e-05 -0.00040804854460268613 0.0 0.0009462705592328119 0.0 0.0
3.749513659467851e-05 -0.0002783283310863749 0.0 -0.0008001769676387327 0.0 0.0
-0.00028201638692783304 -1.8889139117600484e-05 0.0 -0.0016341314201197277 0.0 0.0
-0.0006212033122745403 0.0002584495661793196 0.0 -0.0018129023160294716 0.0 0.0
-0.0008927938182214518 0.0004237258961540258 0.0 -0.001743438846320347 0.0 0.0
-0.0011592284939793973 0.0005452989592424351 0.0 -0.0016496348519609433 0.0 0.0
-0.001470762760103661 0.0006685267993166155 0.0 -0.0015876528547015545 0.0 0.0
-0.0018986919591846424 0.0008558640341332913 0.0 -0.0015642018933736401 0.0 0.0
-0.0025382093444458326 0.001228066865063382 0.0 -0.0017154876245560613 0.0 0.0
-0.003376813901998496 0.0018234146989692945 0.0 -0.00206677049438983 0.0 0.0
-0.00437413645672044 0.002597267806501491 0.0 -0.0024716555904470416 0.0 0.0
-0.0055995154617426435 0.0036068985330988124 0.0 -0.002895049555123541 0.0 0.0
-0.007222148949361573 0.005018236571617374 0.0 -0.0034281346094642007 0.0 0.0
-0.009465645235521944 0.007060215060903152 0.0 -0.004168363876124764 0.0 0.0
-0.012575357414189858 0.009976954744773447 0.0 -0.0051846737088764305 0.0 0.0
-0.01669841300087739 0.013906739781433863 0.0 -0.006558112517514703 0.0 0.0
-0.021717704932949056 0.01871137205944473 0.0 -0.008472767595706865 0.0 0.0
-0.027051696538226117 0.023785399038669608 0.0 -0.011149444675260523 0.0 0.0
-0.03143217767956195 0.027812034685773313 0.0 -0.014479244717708561 0.0 0.0
-0.03259662523252979 0.028504639673401888 0.0 -0.017090900488849897 0.0 0.0
-0.027256852548220113 0.022663765328456487 0.0 -0.016058933537235615 0.0 0.0
-0.027256852548219655 0.022663765328452712 0.0 0.01605893353725102 0.0 0.0
-0.032596625232526974 0.02850463967339989 0.0 0.017090900488869826 0.0 0.0
-0.03143217767955739 0.027812034685769538 0.0 0.014479244717723688 0.0 0.0
-0.027051696538219358 0.023785399038662725 0.0 0.011149444675266657 0.0 0.0
-0.021717704932941957 0.018711372059437403 0.0 0.008472767595707031 0.0 0.0
-0.01669841300087018 0.013906739781427646 0.0 0.006558112517514231 0.0 0.0
-0.012575357414182947 0.009976954744767674 0.0 0.0051846737088740436 0.0 0.0
-0.009465645235513596 0.00706021506089749 0.0 0.004168363876123765 0.0 0.0
-0.007222148949353066 0.00501823657161149 0.0 0.003428134609461758 0.0 0.0
-0.005599515461734424 0.003606898533092373 0.0 0.002895049555118809 0.0 0.0
-0.004374136456713279 0.0025972678064954957 0.0 0.0024716555904424203 0.0 0.0
-0.0033768139019925217 0.0018234146989648536 0.0 0.0020667704943869714 0.0 0.0
-0.0025382093444411558 0.0012280668650601623 0.0 0.001715487624554743 0.0 0.0
-0.001898691959181683 0.0008558640341309598 0.0 0.0015642018933724328 0.0 0.0
-0.00147076276010185 0.0006685267993152277 0.0 0.001587652854699903 0.0 0.0
-0.0011592284939779401 0.0005452989592417135 0.0 0.001649634851959264 0.0 0.0
-0.0008927938182204317 0.0004237258961536927 0.0 0.0017434388463189454 0.0 0.0
-0.0006212033122738082 0.0002584495661789865 0.0 0.0018129023160277369 0.0 0.0
-0.0002820163869276353 -1.8889139117794773e-05 0.0 0.0016341314201180207 0.0 0.0
3.7495136594543205e-05 -0.000278328331086093 0.0 0.0008001769676377474 0.0 0.0
-1.3336702696473135e-05 -0.00016711335513611147 0.0 -0.0006474076801260831 0.0 0.0
-0.0003282691342344629 3.352003280518434e-05 0.0 -0.0014098793069935028 0.0 0.0
-0.0007063563901307662 0.00029665301312203907 0.0 -0.0016112042200440435 0.0 0.0
-0.0010422230152532935 0.0004802660931106373 0.0 -0.001542627373747843 0.0 0.0
-0.0013774700887076857 0.0006315175871384193 0.0 -0.0014207282839296537 0.0 0.0
-0.0017671320264648627 0.0007959493760137937 0.0 -0.0013214740815801207 0.0 0.0
-0.002350261431079484 0.0011069727427682752 0.0 -0.0013437966273942836 0.0 0.0
-0.0031946280207517386 0.0016818869395136549 0.0 -0.001610909241678976 0.0 0.0
-0.004203022537356507 0.002456539843627148 0.0 -0.001968165184597609 0.0 0.0
-0.005400121778040251 0.003419490070541209 0.0 -0.0023147565063711406 0.0 0.0
-0.0069143298159996675 0.004707307066479927 0.0 -0.002721450342667686 0.0 0.0
-0.008936917130786565 0.006512552187895371 0.0 -0.003240684204808414 0.0 0.0
-0.011732467014885173 0.009098136010187607 0.0 -0.003967363802673984 0.0 0.0
-0.01556812858731857 0.01273229555481814 0.0 -0.00499202162762552 0.0 0.0
-0.02059772771394447 0.017561118309955992 0.0 -0.006310377275938528 0.0 0.0
-0.026725810928615437 0.023454562901926712 0.0 -0.00802611031405609 0.0 0.0
-0.03329572258218852 0.02972932558801933 0.0 -0.010509053554360215 0.0 0.0
-0.038722723028128014 0.034747948404349804 0.0 -0.013936417973321041 0.0 0.0
-0.04018899731946043 0.03567686044417551 0.0 -0.0174562076220596 0.0 0.0
-0.03373059874491007 0.028690103678718826 0.0 -0.01869099539490396 0.0 0.0
-0.03373059874490916 0.028690103678718604 0.0 0.018690995394920196 0.0 0.0
-0.04018899731945689 0.03567686044417395 0.0 0.017456207622080028 0.0 0.0
-0.038722723028122255 0.03474794840434581 0.0 0.013936417973336113 0.0 0.0
-0.03329572258218116 0.029729325588013555 0.0 0.010509053554366737 0.0 0.0
-0.026725810928607326 0.023454562901920717 0.0 0.008026110314058116 0.0 0.0
-0.020597727713936174 0.017561118309949997 0.0 0.00631037727593893 0.0 0.0
-0.015568128587309896 0.012732295554811257 0.0 0.004992021627623577 0.0 0.0
-0.011732467014875698 0.009098136010179503 0.0 0.00396736380267268 0.0 0.0
-0.008936917130776205 0.006512552187884824 0.0 0.003240684204806138 0.0 0.0
-0.006914329815990161 0.004707307066472266 0.0 0.002721450342663634 0.0 0.0
-0.005400121778031779 0.003419490070535658 0.0 0.0023147565063667275 0.0 0.0
-0.004203022537349287 0.002456539843622596 0.0 0.0019681651845949583 0.0 0.0
-0.003194628020745792 0.001681886939509436 0.0 0.0016109092416770193 0.0 0.0
-0.0023502614310754663 0.0011069727427656106 0.0 0.001343796627392882 0.0 0.0
-0.0017671320264626526 0.0007959493760126279 0.0 0.0013214740815793852 0.0 0.0
-0.001377470088706069 0.0006315175871372536 0.0 0.001420728283929057 0.0 0.0
-0.0010422230152522909 0.0004802660931098046 0.0 0.0015426273737463025 0.0 0.0
-0.0007063563901299162 0.0002966530131219558 0.0 0.0016112042200423504 0.0 0.0
-0.00032826913423420964 3.352003280525373e-05 0.0 0.0014098793069923232 0.0 0.0
-1.333670269662579e-05 -0.00016711335513599958 0.0 0.0006474076801255835 0.0 0.0
-5.438135496442509e-05 -7.668585320125265e-05 0.0 -0.00048769278247344505 0.0 0.0
-0.00037091785920871645 8.425485628960061e-05 0.0 -0.001157106972425312 0.0 0.0
-0.0007884731055875782 0.00033450028765741324 0.0 -0.00136224089952508 0.0 0.0
-0.0011875450931142922 0.0005335868549994904 0.0 -0.0012918441934191283 0.0 0.0
-0.001584516781557424 0.0007082897462571958 0.0 -0.0011423939537002492 0.0 0.0
-0.002075049023316927 0.0009522872378203706 0.0 -0.0010519339403049915 0.0 0.0
-0.002855309513599677 0.0014461052122695106 0.0 -0.0011666994156807609 0.0 0.0
-0.0038592096806085024 0.0021896096583005065 0.0 -0.0014458570194099685 0.0 0.0
-0.005022625997862462 0.0031079444181606464 0.0 -0.0017227024453109197 0.0 0.0
-0.006438776302924651 0.004282256778638249 0.0 -0.00202974295498623 0.0 0.0
-0.00825216296998138 0.005860901807082097 0.0 -0.0023955286777829488 0.0 0.0
-0.010692736638099914 0.008073681227400598 0.0 -0.0028675800009259067 0.0 0.0
-0.014058734040270068 0.011220763646813792 0.0 -0.003545704575971892 0.0 0.0
-0.018628811411507545 0.01557150701895016 0.0 -0.004491639578310225 0.0 0.0
-0.024535870922130915 0.02126224973306612 0.0 -0.005686248611463662 0.0 0.0
-0.0316764473206536 0.02816043549579028 0.0 -0.007079246124916949 0.0 0.0
-0.03937568513453622 0.03553547824907621 0.0 -0.008939661984197045 0.0 0.0
-0.04583274466855165 0.041542749172973625 0.0 -0.012053102792177472 0.0 0.0
-0.047759525634229326 0.04286827644340119 0.0 -0.016742098044029458 0.0 0.0
-0.0403787309031272 0.03489863186477615 0.0 -0.0213484876459972 0.0 0.0
-0.04037873090312583 0.034898631864774154 0.0 0.02134848764601277 0.0 0.0
-0.04775952563422502 0.04286827644339608 0.0 0.016742098044049636 0.0 0.0
-0.04583274466854497 0.04154274917296674 0.0 0.01205310279219235 0.0 0.0
-0.03937568513452808 0.035535478249070884 0.0 0.008939661984201513 0.0 0.0
-0.03167644732064431 0.028160435495782288 0.0 0.007079246124918642 0.0 0.0
-0.024535870922121502 0.021262249733055683 0.0 0.005686248611463926 0.0 0.0
-0.01862881141149727 0.01557150701894261 0.0 0.004491639578309628 0.0 0.0
-0.014058734040259514 0.011220763646805798 0.0 0.003545704575970518 0.0 0.0
-0.010692736638087723 0.008073681227391938 0.0 0.0028675800009242552 0.0 0.0
-0.008252162969970597 0.005860901807071328 0.0 0.0023955286777794654 0.0 0.0
-0.00643877630291494 0.0042822567786291454 0.0 0.002029742954982261 0.0 0.0
-0.005022625997854236 0.003107944418153652 0.0 0.0017227024453091572 0.0 0.0
-0.00385920968060147 0.0021896096582946223 0.0 0.0014458570194074288 0.0 0.0
-0.0028553095135944936 0.0014461052122649587 0.0 0.0011666994156790261 0.0 0.0
-0.0020750490233140233 0.0009522872378181502 0.0 0.0010519339403034927 0.0 0.0
-0.0015845167815557656 0.0007082897462565296 0.0 0.0011423939536994998 0.0 0.0
-0.0011875450931132306 0.0005335868549994349 0.0 0.0012918441934179903 0.0 0.0
-0.0007884731055866831 0.00033450028765735773 0.0 0.0013622408995239282 0.0 0.0
-0.0003709178592084597 8.425485628943408e-05 0.0 0.0011571069724235772 0.0 0.0
-5.438135496441815e-05 -7.668585320125959e-05 0.0 0.00048769278247269565 0.0 0.0
-8.221706938588147e-05 -9.711612751775456e-06 0.0 -0.00032334248150665823 0.0 0.0
-0.0004047252220910208 0.00012949501779105366 0.0 -0.0008774879616235826 0.0 0.0
-0.0008669876965354401 0.00037149134010833196 0.0 -0.001063189193290598 0.0 0.0
-0.0013310410498539454 0.0005822487200409787 0.0 -0.000992018242144635 0.0 0.0
-0.001783436243645492 0.0007904449340053188 0.0 -0.0008321093931472623 0.0 0.0
-0.002427489071902836 0.0011639013779961571 0.0 -0.0007973773949616209 0.0 0.0
-0.0033830588457988697 0.001827240880096448 0.0 -0.0009356293257109516 0.0 0.0
-0.004510882885102596 0.0027049832377927796 0.0 -0.0011504642807884935 0.0 0.0
-0.005845490473304765 0.0037852826969043685 0.0 -0.0013725901893623937 0.0 0.0
-0.007489432970852888 0.005178401584583936 0.0 -0.0016235064275446909 0.0 0.0
-0.00961454890072902 0.007059315171880076 0.0 -0.0019278159574483422 0.0 0.0
-0.012488203739282347 0.009695228567494718 0.0 -0.0023172811083740363 0.0 0.0
-0.016438904518334685 0.01341167429760226 0.0 -0.0028723658277999276 0.0 0.0
-0.021749566838865544 0.018485989336647135 0.0 -0.003695285206600285 0.0 0.0
-0.028508879419088584 0.025005448022454635 0.0 -0.004721083706914042 0.0 0.0
-0.03653251683591362 0.032769211165454504 0.0 -0.005689366010953212 0.0 0.0
-0.045147680832462164 0.04106922186720263 0.0 -0.00660299880000953 0.0 0.0
-0.05263809561120425 0.048086870338564625 0.0 -0.008857499976377914 0.0 0.0
-0.055377797823740194 0.05014794346000628 0.0 -0.014674338725162633 0.0 0.0
-0.04747038076525004 0.041519470481953036 0.0 -0.023848306071155095 0.0 0.0
-0.0474703807652482 0.04151947048195215 0.0 0.023848306071169167 0.0 0.0
-0.05537779782373499 0.050147943460003175 0.0 0.014674338725181174 0.0 0.0
-0.052638095611196874 0.048086870338559295 0.0 0.008857499976391986 0.0 0.0
-0.045147680832452894 0.04106922186719353 0.0 0.006602998800013887 0.0 0.0
-0.03653251683590311 0.03276921116544629 0.0 0.0056893660109550576 0.0 0.0
-0.028508879419077964 0.025005448022447307 0.0 0.004721083706914042 0.0 0.0
-0.021749566838853793 0.018485989336637587 0.0 0.0036952852065999797 0.0 0.0
-0.01643890451832273 0.013411674297590936 0.0 0.0028723658277985953 0.0 0.0
-0.012488203739268684 0.009695228567484282 0.0 0.002317281108372704 0.0 0.0
-0.009614548900716835 0.007059315171869862 0.0 0.0019278159574446646 0.0 0.0
-0.007489432970841876 0.005178401584574055 0.0 0.001623506427541041 0.0 0.0
-0.005845490473295493 0.0037852826968953757 0.0 0.0013725901893613807 0.0 0.0
-0.004510882885094516 0.0027049832377866734 0.0 0.001150464280786398 0.0 0.0
-0.003383058845792644 0.001827240880091563 0.0 0.0009356293257093556 0.0 0.0
-0.0024274890718990715 0.0011639013779931595 0.0 0.0007973773949600804 0.0 0.0
-0.00178343624364357 0.0007904449340041531 0.0 0.0008321093931466378 0.0 0.0
-0.0013310410498527693 0.000582248720040146 0.0 0.0009920182421433998 0.0 0.0
-0.0008669876965346039 0.00037149134010802665 0.0 0.0010631891932893212 0.0 0.0
-0.0004047252220906704 0.00012949501779094263 0.0 0.0008774879616224862 0.0 0.0
-8.221706938571494e-05 -9.711612751803211e-06 0.0 0.00032334248150657496 0.0 0.0
-9.114791133328637e-05 3.0436470890196632e-05 0.0 -0.000161127157336044 0.0 0.0
-0.00042160363830683056 0.00016389964247329192 0.0 -0.000571182435757836 0.0 0.0
-0.000941083294635478 0.00040649882136661875 0.0 -0.0007059432115860964 0.0 0.0
-0.0014762160210152475 0.0006272799011282637 0.0 -0.0006434316969720633 0.0 0.0
-0.001993638620636118 0.0008986124328759781 0.0 -0.0005217227083624265 0.0 0.0
-0.0028238177330823233 0.0014289351066548162 0.0 -0.0005113539705422776 0.0 0.0
-0.0039009279012931775 0.0022323138033403245 0.0 -0.0006270869683790009 0.0 0.0
-0.0051592105915816006 0.0032331047418159287 0.0 -0.0007694311881814853 0.0 0.0
-0.006671511606427316 0.004484935431207204 0.0 -0.0009216854708962718 0.0 0.0
-0.008552274526932496 0.006105456275333321 0.0 -0.0011013512926220104 0.0 0.0
-0.011001140519512884 0.008298151173676604 0.0 -0.0013134161610914297 0.0 0.0
-0.01432277525301466 0.011368291153700305 0.0 -0.001582596273108 0.0 0.0
-0.01887036738808802 0.015666989273693366 0.0 -0.0019974382265675883 0.0 0.0
-0.024912974214303593 0.021453939867705385 0.0 -0.0025921074153659185 0.0 0.0
-0.032494854820093746 0.02876509956888129 0.0 -0.0032976110939760273 0.0 0.0
-0.04130647946641115 0.03729116110612263 0.0 -0.0038978909978581444 0.0 0.0
-0.05056700993804393 0.04624038055028179 0.0 -0.004042243131679668 0.0 0.0
-0.05883143925732465 0.054143998986381225 0.0 -0.004518482525742107 0.0 0.0
-0.0630189690147448 0.05750369257786336 0.0 -0.010414255255336041 0.0 0.0
-0.05542664703031917 0.04891632095088716 0.0 -0.025662828133792837 0.0 0.0
-0.05542664703031679 0.04891632095088583 0.0 0.025662828133801968 0.0 0.0
-0.06301896901473875 0.057503692577858256 0.0 0.010414255255349086 0.0 0.0
-0.058831439257316036 0.05414399898637523 0.0 0.004518482525753403 0.0 0.0
-0.050567009938033494 0.04624038055027335 0.0 0.004042243131682027 0.0 0.0
-0.041306479466399454 0.037291161106112636 0.0 0.003897890997860337 0.0 0.0
-0.032494854820081756 0.028765099568871744 0.0 0.003297611093976388 0.0 0.0
-0.02491297421429038 0.021453939867695393 0.0 0.002592107415366446 0.0 0.0
-0.018870367388074356 0.015666989273681264 0.0 0.001997438226566034 0.0 0.0
-0.01432277525299967 0.01136829115368776 0.0 0.001582596273108014 0.0 0.0
-0.01100114051949932 0.00829815117366306 0.0 0.0013134161610895145 0.0 0.0
-0.008552274526920332 0.006105456275323329 0.0 0.0011013512926197067 0.0 0.0
-0.006671511606416835 0.0044849354311982115 0.0 0.0009216854708960776 0.0 0.0
-0.00515921059157262 0.00323310474180738 0.0 0.0007694311881798199 0.0 0.0
-0.003900927901286053 0.002232313803333219 0.0 0.0006270869683774744 0.0 0.0
-0.0028238177330775667 0.001428935106651985 0.0 0.000511353970541667 0.0 0.0
-0.001993638620633906 0.0008986124328752565 0.0 0.0005217227083619408 0.0 0.0
-0.00147621602101395 0.0006272799011280972 0.0 0.0006434316969713277 0.0 0.0
-0.0009410832946346367 0.0004064988213662579 0.0 0.0007059432115856246 0.0 0.0
-0.00042160363830649923 0.00016389964247327804 0.0 0.0005711824357574197 0.0 0.0
-9.114791133305739e-05 3.043647089014459e-05 0.0 0.00016112715733668237 0.0 0.0
-7.073511489497086e-05 3.8813272963594825e-05 0.0 -1.6057538798713855e-05 0.0 0.0
-0.0004091962812592387 0.00017993408408048528 0.0 -0.00023344142807535384 0.0 0.0
-0.0010103560254102611 0.000435717609887476 0.0 -0.00027602093635856195 0.0 0.0
-0.0016318707327288573 0.0006851817817997707 0.0 -0.0002544632627834442 0.0 0.0
-0.0022395987008304863 0.0010351211655217907 0.0 -0.00020276416669333386 0.0 0.0
-0.003232626860487961 0.001713770186144714 0.0 -0.00018473733059697073 0.0 0.0
-0.00441057775910951 0.0026465090039877737 0.0 -0.00024376062588357672 0.0 0.0
-0.005802991587475562 0.003773565661420508 0.0 -0.0003029193628723281 0.0 0.0
-0.00750068660237288 0.005202016076703453 0.0 -0.0003725788751616499 0.0 0.0
-0.009626390935941642 0.007056019955524961 0.0 -0.00045916668119774795 0.0 0.0
-0.01241189406165101 0.00957475939562824 0.0 -0.000553047019061309 0.0 0.0
-0.016201896368611066 0.013098571471502063 0.0 -0.0006907939161726051 0.0 0.0
-0.02134141479443713 0.01797154072218432 0.0 -0.0008872780968158245 0.0 0.0
-0.028091628774153582 0.024444549247535585 0.0 -0.0011410580693586025 0.0 0.0
-0.036466467309534054 0.03251995635044591 0.0 -0.0014348698416873362 0.0 0.0
-0.04601863748011216 0.041751924679555685 0.0 -0.0016263385127734398 0.0 0.0
-0.055759856393342716 0.05116808488745539 0.0 -0.0014672769401767316 0.0 0.0
-0.0642280448757117 0.05932667253992907 0.0 -0.0007062248982993014 0.0 0.0
-0.06962361410121645 0.06439710127852472 0.0 -0.0023958236124585475 0.0 0.0
-0.06541993412634875 0.057923827343487666 0.0 -0.023897798172232698 0.0 0.0
-0.06541993412634625 0.05792382734348567 0.0 0.023897798172236723 0.0 0.0
-0.06962361410120957 0.06439710127851739 0.0 0.0023958236124642374 0.0 0.0
-0.06422804487570133 0.059326672539916636 0.0 0.0007062248983046859 0.0 0.0
-0.05575985639333072 0.05116808488744451 0.0 0.00146727694017601 0.0 0.0
-0.04601863748009919 0.04175192467954347 0.0 0.0016263385127740643 0.0 0.0
-0.03646646730952047 0.03251995635043192 0.0 0.0014348698416868227 0.0 0.0
-0.028091628774138802 0.024444549247523373 0.0 0.001141058069358658 0.0 0.0
-0.021341414794421813 0.017971540722171775 0.0 0.0008872780968150473 0.0 0.0
-0.01620189636859462 0.01309857147148974 0.0 0.000690793916172619 0.0 0.0
-0.01241189406163602 0.009574759395615917 0.0 0.0005530470190597547 0.0 0.0
-0.009626390935928575 0.007056019955513637 0.0 0.0004591666811967765 0.0 0.0
-0.00750068660236135 0.005202016076692573 0.0 0.00037257887516105315 0.0 0.0
-0.0058029915874656425 0.0037735656614119595 0.0 0.0003029193628714816 0.0 0.0
-0.004410577759101553 0.0026465090039816674 0.0 0.0002437606258832853 0.0 0.0
-0.0032326268604823366 0.0017137701861401622 0.0 0.00018473733059613806 0.0 0.0
-0.00223959870082782 0.0010351211655201253 0.0 0.00020276416669338937 0.0 0.0
-0.0016318707327272661 0.0006851817817998263 0.0 0.00025446326278304177 0.0 0.0
-0.001010356025409323 0.00043571760988705965 0.0 0.0002760209363582705 0.0 0.0
-0.0004091962812588375 0.0001799340840801661 0.0 0.00023344142807482648 0.0 0.0
-7.073511489473624e-05 3.881327296350982e-05 0.0 1.605753879854732e-05 0.0 0.0
SCALARS Statev float 8
LOOKUP_TABLE default
0.0 0.005453251167838522 0.004015344956891805 -0.004377120851684992 0.00036177589479318605 -0.0021201046407397606 0.0 0.0
0.0 8.597360769158387e-05 6.278346354168314e-06 -4.161401990988108e-06 -2.1169443631801212e-06 9.223572025891103e-06 0.0 0.0
0.0 3.342380937747103e-05 -4.754075056013673e-06 3.773145031487882e-06 9.80930024525693e-07 5.620332136169097e-07 0.0 0.0
0.0 5.964197818941148e-05 -8.875124403010095e-06 6.7718641644531875e-06 2.1032602385566872e-06 1.0945643523731552e-06 0.0 0.0
0.0 0.0003556150941412186 0.00015310428279109812 -0.00012000040820125686 -3.3103874589841336e-05 -2.206057817541821e-05 0.0 0.0
0.0 0.0009044548252775027 0.0008427539304932505 -0.0006706331961891349 -0.00017212073430411518 -7.226076810429291e-05 0.0 0.0
0.0 0.0019312549577607762 0.0017886370750167285 -0.00146586440442811 -0.00032277267058861836 -0.00012692425874435655 0.0 0.0
0.0 0.00327396484610505 0.003005563045615763 -0.0025319165075311295 -0.000473646538084634 -0.00018302358838342072 0.0 0.0
0.0 0.005003360990730436 0.004538902979701132 -0.003924540139096271 -0.0006143628406048602 -0.00025057865680439657 0.0 0.0
0.0 0.007254109711314901 0.006497096498794229 -0.005754857280765012 -0.0007422392180292155 -0.00033505850969397247 0.0 0.0
0.0 0.010317553880969027 0.009110211571901998 -0.008254733681195154 -0.0008554778907068444 -0.0004300077799987811 0.0 0.0
0.0 0.014315103882136533 0.012731514015318184 -0.011773708926224643 -0.0009578050890935378 -0.0005694434504675685 0.0 0.0
0.0 0.01994050097640398 0.017696633680662793 -0.016644684555285637 -0.0010519491253771487 -0.0007632044075083788 0.0 0.0
0.0 0.0274840652629525 0.02426152340853245 -0.02311684372133368 -0.001144679687198779 -0.0010105786156304624 0.0 0.0
0.0 0.036930681179525034 0.03246959551354979 -0.031227610100831242 -0.001241985412718549 -0.0013266050385952874 0.0 0.0
0.0 0.04793394160894708 0.04199001466154519 -0.04064369075841436 -0.0013463239031308361 -0.0016692829448773658 0.0 0.0
0.0 0.05957869059171882 0.05205744735213907 -0.050602585748684197 -0.001454861603454869 -0.0019054775472683787 0.0 0.0
0.0 0.07055311734669698 0.06155041420717631 -0.05999173213762703 -0.0015586820695492687 -0.001830248292728586 0.0 0.0
0.0 0.07939300379163627 0.06920189030845511 -0.06755448616491841 -0.0016474041435366638 -0.0013728059896222905 0.0 0.0
0.0 0.0844239493803746 0.07369192517537898 -0.07196628588064753 -0.0017256392947314183 -0.0009533201612626887 0.0 0.0
0.0 0.08442394938037358 0.07369192517537793 -0.07196628588064671 -0.0017256392947312391 0.0009533201612644255 0.0 0.0
0.0 0.07939300379162895 0.06920189030844881 -0.0675544861649121 -0.001647404143536744 0.0013728059896294656 0.0 0.0
0.0 0.0705531173466851 0.061550414207166004 -0.05999173213761683 -0.0015586820695491423 0.001830248292732365 0.0 0.0
0.0 0.059578690591705924 0.05205744735212758 -0.050602585748673316 -0.001454861603454242 0.0019054775472706483 0.0 0.0
0.0 0.0479339416089352 0.041990014661534465 -0.0406436907584045 -0.0013463239031299694 0.0016692829448753 0.0 0.0
0.0 0.036930681179514036 0.0324695955135397 -0.031227610100822308 -0.0012419854127173984 0.0013266050385959956 0.0 0.0
0.0 0.027484065262940408 0.024261523408521418 -0.023116843721323884 -0.0011446796871975385 0.001010578615630095 0.0 0.0
0.0 0.01994050097638924 0.017696633680649606 -0.016644684555273417 -0.0010519491253761853 0.0007632044075083286 0.0 0.0
0.0 0.014315103882121231 0.012731514015304486 -0.011773708926211856 -0.000957805089092627 0.0005694434504668272 0.0 0.0
0.0 0.010317553880955038 0.009110211571889196 -0.00825473368118326 -0.0008554778907059353 0.0004300077799982533 0.0 0.0
0.0 0.007254109711302642 0.006497096498783169 -0.005754857280754904 -0.0007422392180282634 0.00033505850969267603 0.0 0.0
0.0 0.005003360990720843 0.004538902979691944 -0.0039245401390879744 -0.0006143628406039688 0.00025057865680423177 0.0 0.0
0.0 0.0032739648460969693 0.0030055630456077118 -0.0025319165075240358 -0.00047364653808367515 0.0001830235883826469 0.0 0.0
0.0 0.0019312549577545485 0.0017886370750102964 -0.0014658644044226144 -0.0003227726705876818 0.00012692425874414093 0.0 0.0
0.0 0.0009044548252736944 0.0008427539304891112 -0.0006706331961857472 -0.00017212073430336388 7.226076810394114e-05 0.0 0.0
0.0 0.00035561509413886737 0.0001531042827894865 -0.00012000040819998511 -3.310387458950164e-05 2.206057817527414e-05 0.0 0.0
0.0 5.964197818879073e-05 -8.875124402918782e-06 6.771864164384042e-06 2.103260238534788e-06 -1.0945643523608391e-06 0.0 0.0
0.0 3.342380937689642e-05 -4.754075055925718e-06 3.7731450314176655e-06 9.80930024508012e-07 -5.620332136036602e-07 0.0 0.0
0.0 8.597360769083953e-05 6.27834635404752e-06 -4.161401990921905e-06 -2.1169443631253762e-06 -9.223572025675015e-06 0.0 0.0
0.0 0.005453251167830815 0.004015344956886694 -0.004377120851678881 0.00036177589479218625 0.0021201046407291245 0.0 0.0
0.0 0.003611753715645867 0.0024932842865272586 -0.0028857420000195527 0.0003924577134922935 -0.002297597085507701 0.0 0.0
0.0 0.0 0.0 0.0 0.0 0.0 0.0 0.0
0.0 0.0 0.0 0.0 0.0 0.0 0.0 0.0
0.0 2.818381018083203e-05 -3.89524483617999e-06 2.9799769798284316e-06 9.152678563517335e-07 1.0878372165257407e-06 0.0 0.0
0.0 0.00018425806307012423 1.3680308237046487e-05 -1.1130277235412897e-05 -2.550031001633702e-06 -6.046339826036056e-06 0.0 0.0
0.0 0.0005861491279503783 0.0005480706283277698 -0.00043221872641137203 -0.00011585190191639758 -0.0001316525481218876 0.0 0.0
0.0 0.001478664399500442 0.0013665269092388338 -0.001106952074107098 -0.00025957483513173524 -0.0002749097151436058 0.0 0.0
0.0 0.0026600461012799507 0.0024400415858954233 -0.002030852007717457 -0.00040918957817796586 -0.0004193791560655704 0.0 0.0
0.0 0.004162842417153936 0.0037901527047637983 -0.0032388770188554053 -0.0005512756859083939 -0.0005745192684749326 0.0 0.0
0.0 0.006108785978037913 0.005508598748592663 -0.004827350315927696 -0.000681248432664967 -0.0007571582693248028 0.0 0.0
0.0 0.008732158814231505 0.007791286826054127 -0.006993938284510582 -0.0007973485415435455 -0.0009763217895157139 0.0 0.0
0.0 0.012432851735719255 0.010944020295907367 -0.010044201859844178 -0.0008998184360631833 -0.0012567418553707074 0.0 0.0
0.0 0.017333838896024578 0.015329940457495885 -0.014338412123007502 -0.0009915283344883816 -0.0016794878945171727 0.0 0.0
0.0 0.02402802655535384 0.021207325178423178 -0.02012775293544541 -0.0010795722429777681 -0.002273248081623138 0.0 0.0
0.0 0.03255753750193055 0.028615456522742343 -0.0274447201180854 -0.001170736404656938 -0.0030071250732305803 0.0 0.0
0.0 0.04250384812678628 0.037253593545385905 -0.035986564299275756 -0.0012670292461101568 -0.0037926800057074246 0.0 0.0
0.0 0.05308174996539502 0.04642924671652801 -0.04506326603728369 -0.001365980679244306 -0.004332449200485214 0.0 0.0
0.0 0.06314200345413283 0.05514097291158744 -0.053679452980584935 -0.0014615199310024965 -0.004228459140263524 0.0 0.0
0.0 0.0712804540057983 0.06219748639491193 -0.0606478907880486 -0.0015495956068633256 -0.0033493622797703512 0.0 0.0
0.0 0.07602677982358004 0.06632162845006642 -0.06471133667618299 -0.001610291773883395 -0.0018064931227283715 0.0 0.0
0.0 0.07602677982357871 0.06632162845006516 -0.06471133667618197 -0.0016102917738831561 0.0018064931227368861 0.0 0.0
0.0 0.07128045400579378 0.06219748639490761 -0.06064789078804478 -0.0015495956068628134 0.0033493622797843856 0.0 0.0
0.0 0.0631420034541241 0.05514097291157944 -0.05367945298057754 -0.0014615199310019018 0.00422845914027285 0.0 0.0
0.0 0.05308174996538318 0.04642924671651739 -0.04506326603727355 -0.001365980679243843 0.004332449200489967 0.0 0.0
0.0 0.042503848126774574 0.03725359354537554 -0.03598656429926597 -0.0012670292461095581 0.003792680005705704 0.0 0.0
0.0 0.032557537501918185 0.028615456522731356 -0.02744472011807501 -0.001170736404656332 0.003007125073230828 0.0 0.0
0.0 0.024028026555340656 0.021207325178411417 -0.020127752935434423 -0.0010795722429769914 0.002273248081623231 0.0 0.0
0.0 0.0173338388960109 0.015329940457483643 -0.014338412122996058 -0.0009915283344875791 0.0016794878945169708 0.0 0.0
0.0 0.012432851735706421 0.010944020295895487 -0.010044201859833355 -0.0008998184360621321 0.0012567418553692572 0.0 0.0
0.0 0.008732158814218993 0.007791286826042722 -0.006993938284500104 -0.0007973485415426167 0.0009763217895143677 0.0 0.0
0.0 0.006108785978027789 0.005508598748583136 -0.004827350315919026 -0.0006812484326641095 0.0007571582693226941 0.0 0.0
0.0 0.004162842417146281 0.003790152704756151 -0.0032388770188486312 -0.0005512756859075195 0.0005745192684741495 0.0 0.0
0.0 0.0026600461012732447 0.0024400415858888383 -0.002030852007711764 -0.00040918957817707383 0.0004193791560644342 0.0 0.0
0.0 0.0014786643994957184 0.0013665269092337146 -0.0011069520741027851 -0.00025957483513092935 0.0002749097151426952 0.0 0.0
0.0 0.0005861491279473623 0.00054807062832482 -0.0004322187264090073 -0.00011585190191581274 0.00013165254812115074 0.0 0.0
0.0 0.00018425806306841285 1.3680308236486686e-05 -1.1130277234973768e-05 -2.5500310015128974e-06 6.046339825841264e-06 0.0 0.0
0.0 2.8183810180206067e-05 -3.895244836085688e-06 2.979976979756023e-06 9.152678563296789e-07 -1.0878372164973423e-06 0.0 0.0
0.0 0.0 0.0 0.0 0.0 0.0 0.0 0.0
0.0 0.0 0.0 0.0 0.0 0.0 0.0 0.0
0.0 0.003611753715636766 0.0024932842865213983 -0.002885742000012813 0.0003924577134914142 0.0022975970854980927 0.0 0.0
0.0 0.0025110614469347737 0.0016183178122129416 -0.0019688117049424738 0.0003504938927295323 -0.0018803987553990945 0.0 0.0
0.0 0.0 0.0 0.0 0.0 0.0 0.0 0.0
0.0 0.0 0.0 0.0 0.0 0.0 0.0 0.0
0.0 1.4183303336775373e-06 -1.539621149661279e-07 1.1836444455633038e-07 3.5597670409800244e-08 1.0785418544746333e-07 0.0 0.0
0.0 6.980170519968023e-05 -9.923055304925273e-06 7.594641587451511e-06 2.328413717473512e-06 5.450096546984325e-06 0.0 0.0
0.0 0.0004362936494695963 0.00024334674727516115 -0.00019086038654975049 -5.248636072541103e-05 -0.00010728933338378097 0.0 0.0
0.0 0.0010487224576832196 0.0009597710069762203 -0.0007674912707196714 -0.00019227973625654855 -0.0003389028073326684 0.0 0.0
0.0 0.0020686048830084996 0.0018914063972300553 -0.001554470429507894 -0.00033693596772216094 -0.0005704871213988791 0.0 0.0
0.0 0.00337054316276928 0.0030591931856668343 -0.0025798936151336157 -0.0004792995705332182 -0.0008012380179244783 0.0 0.0
0.0 0.005039134063083622 0.004543757830760616 -0.003931916800505526 -0.0006118410302550882 -0.0010622835871006353 0.0 0.0
0.0 0.007302098006043846 0.006506976105928866 -0.005776281448552852 -0.0007306946573760125 -0.0013794066318324016 0.0 0.0
0.0 0.010388781473258862 0.009219773773174606 -0.008384400498130006 -0.0008353732750445992 -0.0017876349158115006 0.0 0.0
0.0 0.014849357146571054 0.013012253477107839 -0.012085524320385631 -0.0009267291567222084 -0.0023606751817882303 0.0 0.0
0.0 0.02068055546510692 0.018175390637249274 -0.017163501308892604 -0.001011889328356675 -0.0032030828531120154 0.0 0.0
0.0 0.02821037137701776 0.024752955346586336 -0.023656289648705604 -0.001096665697880735 -0.00428851972287698 0.0 0.0
0.0 0.037120561637330074 0.03247580135920755 -0.031291258997448224 -0.0011845423617593217 -0.005415648774265407 0.0 0.0
0.0 0.04664360740321915 0.04074677556423879 -0.039473322405475464 -0.0012734531587633305 -0.00619723439204257 0.0 0.0
0.0 0.0557483345298961 0.048685673616921284 -0.04732347901199239 -0.0013621946049288856 -0.0061371049257502265 0.0 0.0
0.0 0.06318567768526884 0.055188126098495605 -0.053745127834142474 -0.00144299826435312 -0.004920859411966515 0.0 0.0
0.0 0.06761523081275847 0.05907736079471687 -0.05758063804205872 -0.001496722752658116 -0.0024806823304584368 0.0 0.0
0.0 0.06761523081275699 0.059077360794715345 -0.05758063804205732 -0.0014967227526580225 0.0024806823304713453 0.0 0.0
0.0 0.06318567768526358 0.05518812609849064 -0.05374512783413755 -0.0014429982643530768 0.0049208594119847454 0.0 0.0
0.0 0.055748334529889 0.04868567361691456 -0.04732347901198607 -0.001362194604928474 0.0061371049257629255 0.0 0.0
0.0 0.04664360740321215 0.04074677556423199 -0.03947332240546967 -0.0012734531587623203 0.006197234392049587 0.0 0.0
0.0 0.037120561637321116 0.03247580135919935 -0.03129125899744099 -0.0011845423617583496 0.00541564877426459 0.0 0.0
0.0 0.02821037137700794 0.024752955346577454 -0.02365628964869757 -0.001096665697879879 0.004288519722876877 0.0 0.0
0.0 0.020680555465094837 0.018175390637238536 -0.017163501308882383 -0.0010118893283561489 0.0032030828531118684 0.0 0.0
0.0 0.014849357146560637 0.013012253477098223 -0.01208552432037686 -0.0009267291567213612 0.0023606751817878795 0.0 0.0
0.0 0.010388781473248104 0.009219773773164838 -0.008384400498121121 -0.0008353732750437173 0.0017876349158094898 0.0 0.0
0.0 0.007302098006033852 0.006506976105919313 -0.0057762814485440685 -0.0007306946573752427 0.0013794066318306764 0.0 0.0
0.0 0.0050391340630747995 0.004543757830752122 -0.003931916800497794 -0.0006118410302543291 0.0010622835870976953 0.0 0.0
0.0 0.0033705431627615284 0.0030591931856593963 -0.0025798936151270515 -0.0004792995705323441 0.0008012380179229807 0.0 0.0
0.0 0.002068604883001773 0.0018914063972234692 -0.001554470429502182 -0.0003369359677212869 0.000570487121396945 0.0 0.0
0.0 0.0010487224576781363 0.0009597710069713024 -0.0007674912707155692 -0.00019227973625573328 0.0003389028073311346 0.0 0.0
0.0 0.00043629364946644024 0.0002433467472728626 -0.00019086038654792103 -5.2486360724941364e-05 0.00010728933338277844 0.0 0.0
0.0 6.980170519877595e-05 -9.923055304797832e-06 7.5946415873546394e-06 2.3284137174430674e-06 -5.450096546918415e-06 0.0 0.0
0.0 1.418330333417905e-06 -1.539621149372118e-07 1.1836444453399425e-07 3.5597670403225686e-08 -1.078541854267823e-07 0.0 0.0
0.0 0.0 0.0 0.0 0.0 0.0 0.0 0.0
0.0 0.0 0.0 0.0 0.0 0.0 0.0 0.0
0.0 0.0025110614469272025 0.0016183178122077405 -0.001968811704936383 0.000350493892728643 0.0018803987553907726 0.0 0.0
0.0 0.0017081807804851467 0.0010338131918435761 -0.0013113188002612933 0.00027750560841771686 -0.0013359699511805677 0.0 0.0
0.0 0.0 0.0 0.0 0.0 0.0 0.0 0.0
0.0 0.0 0.0 0.0 0.0 0.0 0.0 0.0
0.0 0.0 0.0 0.0 0.0 0.0 0.0 0.0
0.0 3.091413199917303e-05 -3.963852590723633e-06 3.0652197957721597e-06 8.986327949515943e-07 3.6211559148845185e-06 0.0 0.0
0.0 0.0002169762152233748 6.698877872726848e-05 -5.2398512842580863e-05 -1.4590265884687434e-05 -4.478056049121803e-05 0.0 0.0
0.0 0.0006911117880123035 0.0005709669024021586 -0.0004513106106796586 -0.00011965629172249999 -0.00031093925809942203 0.0 0.0
0.0 0.001511357208366927 0.001364100013180883 -0.0011054698440951473 -0.0002586301690857356 -0.0006261824188260193 0.0 0.0
0.0 0.0026124277221225203 0.0023522233776306347 -0.00195506375045782 -0.00039715962717281434 -0.0009268111527550732 0.0 0.0
0.0 0.004010831139069869 0.0036090168335305662 -0.00307812136891091 -0.0005308954646196556 -0.0012522080231975102 0.0 0.0
0.0 0.005902530233339218 0.005264193854976304 -0.004610526419238302 -0.0006536674357380004 -0.0016376041307924179 0.0 0.0
0.0 0.008543043757743429 0.00754588273649775 -0.006783181109247287 -0.0007627016272504644 -0.002134337163501058 0.0 0.0
0.0 0.012266148535675703 0.010762449486488603 -0.009906802915420882 -0.0008556465710677205 -0.0028400764970625235 0.0 0.0
0.0 0.017429654802623075 0.015189894447233437 -0.014249841982593311 -0.0009400524646401168 -0.0038345816930610895 0.0 0.0
0.0 0.02407654543100789 0.02089996344055974 -0.019880083831932554 -0.001019879608627181 -0.005123046824746179 0.0 0.0
0.0 0.03173774151217994 0.027679831605037685 -0.02658124132116316 -0.0010985902838745248 -0.006509996309746863 0.0 0.0
0.0 0.04020224133162086 0.03502182659513672 -0.03384381526616129 -0.0011780113289754327 -0.007500929092484362 0.0 0.0
0.0 0.04839430699176385 0.042175210252212415 -0.040917344813697056 -0.0012578654385153518 -0.007517329888560542 0.0 0.0
0.0 0.05519146898288702 0.048163751722305734 -0.04683212434072241 -0.001331627381583301 -0.006101703227507735 0.0 0.0
0.0 0.059376588534871474 0.05189232605188041 -0.05051040736456119 -0.0013819186873192386 -0.0030312357505006297 0.0 0.0
0.0 0.0593765885348696 0.05189232605187849 -0.05051040736455934 -0.001381918687319168 0.0030312357505172314 0.0 0.0
0.0 0.05519146898288266 0.04816375172230112 -0.04683212434071815 -0.0013316273815829676 0.0061017032275287805 0.0 0.0
0.0 0.04839430699175851 0.042175210252206864 -0.0409173448136921 -0.0012578654385147613 0.00751732988857501 0.0 0.0
0.0 0.040202241331614125 0.03502182659513024 -0.03384381526615529 -0.001178011328974958 0.007500929092491257 0.0 0.0
0.0 0.03173774151217108 0.027679831605029855 -0.02658124132115571 -0.0010985902838741408 0.006509996309745975 0.0 0.0
0.0 0.024076545430998256 0.020899963440551172 -0.019880083831924432 -0.0010198796086267378 0.005123046824745377 0.0 0.0
0.0 0.017429654802614172 0.01518989444722531 -0.014249841982585897 -0.0009400524646394105 0.003834581693060422 0.0 0.0
0.0 0.012266148535666524 0.010762449486480146 -0.00990680291541311 -0.0008556465710670335 0.0028400764970618695 0.0 0.0
0.0 0.008543043757734332 0.007545882736489014 -0.006783181109239318 -0.0007627016272496937 0.0021343371634987753 0.0 0.0
0.0 0.005902530233329701 0.005264193854967275 -0.004610526419230033 -0.000653667435737241 0.001637604130789636 0.0 0.0
0.0 0.004010831139062031 0.003609016833523208 -0.0030781213689043737 -0.000530895464618834 0.0012522080231939063 0.0 0.0
0.0 0.002612427722116703 0.0023522233776246716 -0.0019550637504525616 -0.0003971596271721091 0.0009268111527531702 0.0 0.0
0.0 0.0015113572083617953 0.0013641000131758558 -0.001105469844090942 -0.0002586301690849137 0.0006261824188238838 0.0 0.0
0.0 0.0006911117880085353 0.0005709669023988364 -0.0004513106106770302 -0.00011965629172180629 0.00031093925809781085 0.0 0.0
0.0 0.00021697621522104624 6.698877872617858e-05 -5.2398512841724445e-05 -1.4590265884453856e-05 4.47805604904709e-05 0.0 0.0
0.0 3.091413199829632e-05 -3.96385259060396e-06 3.0652197956813065e-06 8.986327949227772e-07 -3.621155914790049e-06 0.0 0.0
0.0 0.0 0.0 0.0 0.0 0.0 0.0 0.0
0.0 0.0 0.0 0.0 0.0 0.0 0.0 0.0
0.0 0.0 0.0 0.0 0.0 0.0 0.0 0.0
0.0 0.0017081807804785207 0.0010338131918395106 -0.0013113188002564172 0.00027750560841690653 0.0013359699511740414 0.0 0.0
0.0 0.0010924226618267425 0.0006180211588694415 -0.0008133970023837731 0.00019537584351433137 -0.0008365084093096042 0.0 0.0
0.0 0.0 0.0 0.0 0.0 0.0 0.0 0.0
0.0 0.0 0.0 0.0 0.0 0.0 0.0 0.0
0.0 0.0 0.0 0.0 0.0 0.0 0.0 0.0
0.0 1.2143276688027321e-05 -1.414772604235126e-06 1.0833367658665578e-06 3.314358383685867e-07 1.8758126077771184e-06 0.0 0.0
0.0 9.070626025721723e-05 6.641266629724372e-06 -5.335022144566461e-06 -1.3062444851580726e-06 -7.836884132372328e-06 0.0 0.0
0.0 0.00045850836421113813 0.0002334619957233621 -0.00018260449635037478 -5.085749937298727e-05 -0.00018188332356017576 0.0 0.0
0.0 0.0010293651489617288 0.0008491812247593542 -0.0006770434450367489 -0.00017213777972260532 -0.0005541462658833697 0.0 0.0
0.0 0.0018966882235002683 0.0016768576693031592 -0.0013718032955661445 -0.00030505437373701467 -0.0009404805417707327 0.0 0.0
0.0 0.003043617068663154 0.0027086058933703614 -0.002271572430509388 -0.00043703346286097267 -0.0013181996363802796 0.0 0.0
0.0 0.004590989597182804 0.00406504582193141 -0.00350235520130044 -0.0005626906206309697 -0.0017531728261913544 0.0 0.0
0.0 0.006739914930906092 0.005932987378023415 -0.005256125546881778 -0.000676861831141636 -0.0023037127498953805 0.0 0.0
0.0 0.009872294532443931 0.008579675738847926 -0.007803671213053237 -0.0007760045257946882 -0.003066407951307089 0.0 0.0
0.0 0.014099772696361888 0.01227324986148402 -0.011411910040564348 -0.0008613398209196686 -0.004168411017486921 0.0 0.0
0.0 0.019742936877084206 0.017096962822741722 -0.01615951191844609 -0.0009374509042956277 -0.0055781102901478734 0.0 0.0
0.0 0.02658796769090145 0.02289148186048318 -0.02188162473733228 -0.0010098571231508954 -0.007061429527407291 0.0 0.0
0.0 0.0338031377939865 0.029264639563958347 -0.02818571560138625 -0.0010789239625720794 -0.008194150234909076 0.0 0.0
0.0 0.04099278911980357 0.03560768772039608 -0.034459296134499946 -0.0011483915858961397 -0.008352463774087594 0.0 0.0
0.0 0.04718614182879706 0.041097994085906156 -0.03988282261893123 -0.0012151714669749192 -0.006908504733184839 0.0 0.0
0.0 0.05119545971791754 0.044713604938974444 -0.043449649161424596 -0.0012639557775498246 -0.003477427711326894 0.0 0.0
0.0 0.05119545971791534 0.04471360493897223 -0.04344964916142235 -0.0012639557775498773 0.003477427711343202 0.0 0.0
0.0 0.04718614182879359 0.041097994085902236 -0.039882822618927435 -0.0012151714669747934 0.006908504733204902 0.0 0.0
0.0 0.040992789119798936 0.03560768772039109 -0.03445929613449518 -0.0011483915858958944 0.00835246377410252 0.0 0.0
0.0 0.033803137793980635 0.029264639563952557 -0.02818571560138098 -0.0010789239625715779 0.008194150234915919 0.0 0.0
0.0 0.026587967690895213 0.022891481860477368 -0.021881624737327195 -0.001009857123150175 0.007061429527407223 0.0 0.0
0.0 0.019742936877076823 0.017096962822735005 -0.016159511918439916 -0.0009374509042950872 0.005578110290147158 0.0 0.0
0.0 0.014099772696353957 0.012273249861476803 -0.011411910040557624 -0.0008613398209191793 0.0041684110174861205 0.0 0.0
0.0 0.009872294532435566 0.00857967573884005 -0.007803671213046021 -0.0007760045257940281 0.0030664079513055297 0.0 0.0
0.0 0.0067399149308971715 0.005932987378015183 -0.0052561255468741965 -0.0006768618311409866 0.0023037127498923412 0.0 0.0
0.0 0.004590989597174878 0.004065045821924131 -0.0035023552012939077 -0.000562690620630222 0.0017531728261882583 0.0 0.0
0.0 0.003043617068656881 0.0027086058933644985 -0.002271572430504445 -0.00043703346286005256 0.0013181996363765204 0.0 0.0
0.0 0.0018966882234951656 0.001676857669298154 -0.0013718032955619634 -0.00030505437373619013 0.0009404805417685151 0.0 0.0
0.0 0.001029365148957215 0.0008491812247554201 -0.0006770434450335536 -0.00017213777972186641 0.0005541462658812323 0.0 0.0
0.0 0.0004585083642077349 0.00023346199572113984 -0.00018260449634860962 -5.0857499372530514e-05 0.00018188332355860458 0.0 0.0
0.0 9.070626025583534e-05 6.6412666294918375e-06 -5.335022144379897e-06 -1.3062444851117277e-06 7.836884132108211e-06 0.0 0.0
0.0 1.2143276687644073e-05 -1.414772604191538e-06 1.08333676583293e-06 3.314358383585568e-07 -1.875812607715943e-06 0.0 0.0
0.0 0.0 0.0 0.0 0.0 0.0 0.0 0.0
0.0 0.0 0.0 0.0 0.0 0.0 0.0 0.0
0.0 0.0 0.0 0.0 0.0 0.0 0.0 0.0
0.0 0.0010924226618215845 0.0006180211588664935 -0.0008133970023801148 0.00019537584351362114 0.0008365084093050195 0.0 0.0
0.0 0.0006079636889664374 0.00032412006374762817 -0.0004428693015082544 0.00011874923776062614 -0.0004447932157989936 0.0 0.0
0.0 0.0 0.0 0.0 0.0 0.0 0.0 0.0
0.0 0.0 0.0 0.0 0.0 0.0 0.0 0.0
0.0 0.0 0.0 0.0 0.0 0.0 0.0 0.0
0.0 1.0042081989539105e-05 -9.329724215915323e-07 7.201815348681859e-07 2.1279088672333964e-07 1.7612736881498078e-06 0.0 0.0
0.0 2.7564149872654488e-05 5.791501279040246e-06 -4.591258515489106e-06 -1.2002427635511228e-06 -9.580333111319381e-06 0.0 0.0
0.0 0.00019022486611403193 7.279664227007428e-05 -5.654411709428576e-05 -1.6252525175788392e-05 -8.572110663782024e-05 0.0 0.0
0.0 0.0006141461458747475 0.0004048340338445031 -0.0003180037146332958 -8.683031921120736e-05 -0.0003758828780884106 0.0 0.0
0.0 0.0012666553213489108 0.0010284801966616488 -0.0008256451748978713 -0.00020283502176377723 -0.0008022759448022172 0.0 0.0
0.0 0.0021471944101886806 0.0018531541373332933 -0.0015245376786238295 -0.0003286164587094632 -0.00124779480004795 0.0 0.0
0.0 0.0033434278164284205 0.0029191313161048794 -0.0024656950992792003 -0.0004534362168256787 -0.001712360685901722 0.0 0.0
0.0 0.005045241834949773 0.004386532675518547 -0.003813475961757588 -0.0005730567137609585 -0.0022844878804967493 0.0 0.0
0.0 0.0074986930387914204 0.00648165714764087 -0.005800920428127653 -0.0006807367195132161 -0.0030705067046632338 0.0 0.0
0.0 0.010982229875359056 0.009436870689218103 -0.00866429467032621 -0.0007725760188918931 -0.004172452915172882 0.0 0.0
0.0 0.01565185814759293 0.013359680909522897 -0.012511115344807318 -0.0008485655647155787 -0.005599126885714969 0.0 0.0
0.0 0.021117324366086588 0.01815366113170405 -0.017238703702038356 -0.0009149574296656922 -0.007133631866402636 0.0 0.0
0.0 0.02741548744151118 0.023505276145291392 -0.02252964467955341 -0.000975631465737989 -0.00830403763702038 0.0 0.0
0.0 0.03370725898729008 0.028981285374174128 -0.027947375722308914 -0.0010339096518652148 -0.008577915675817498 0.0 0.0
0.0 0.03911570001834923 0.03395747782015477 -0.03286497177208721 -0.0010925060480675534 -0.0072987811610463115 0.0 0.0
0.0 0.04298255098333702 0.03748971701668313 -0.036348695761728465 -0.0011410212549546517 -0.003817640872778586 0.0 0.0
0.0 0.042982550983335664 0.037489717016681544 -0.03634869576172689 -0.0011410212549546603 0.003817640872794203 0.0 0.0
0.0 0.03911570001834665 0.03395747782015149 -0.03286497177208396 -0.0010925060480675237 0.007298781161065481 0.0 0.0
0.0 0.033707258987286395 0.028981285374169767 -0.027947375722304726 -0.0010339096518650396 0.008577915675831778 0.0 0.0
0.0 0.02741548744150501 0.023505276145285407 -0.022529644679547618 -0.0009756314657377892 0.008304037637026182 0.0 0.0
0.0 0.021117324366080634 0.018153661131698664 -0.017238703702033495 -0.0009149574296651625 0.007133631866401426 0.0 0.0
0.0 0.015651858147587704 0.013359680909517994 -0.01251111534480304 -0.0008485655647149544 0.0055991268857141 0.0 0.0
0.0 0.010982229875353897 0.009436870689213244 -0.008664294670321836 -0.0007725760188914064 0.004172452915171811 0.0 0.0
0.0 0.007498693038784845 0.006481657147634875 -0.0058009204281220935 -0.0006807367195127802 0.0030705067046617467 0.0 0.0
0.0 0.005045241834942676 0.004386532675512181 -0.003813475961751771 -0.0005730567137604101 0.002284487880493843 0.0 0.0
0.0 0.003343427816422035 0.002919131316099131 -0.0024656950992741457 -0.0004534362168249847 0.0017123606858985558 0.0 0.0
0.0 0.002147194410183107 0.0018531541373284373 -0.0015245376786197009 -0.0003286164587087364 0.0012477948000439022 0.0 0.0
0.0 0.0012666553213450601 0.001028480196658254 -0.0008256451748951481 -0.00020283502176310584 0.0008022759447998081 0.0 0.0
0.0 0.0006141461458717219 0.00040483403384206757 -0.00031800371463138057 -8.683031921068707e-05 0.0003758828780864303 0.0 0.0
0.0 0.00019022486611259366 7.27966422694183e-05 -5.654411709377598e-05 -1.6252525175642272e-05 8.572110663701743e-05 0.0 0.0
0.0 2.756414987179418e-05 5.791501279180168e-06 -4.591258515596791e-06 -1.2002427635833566e-06 9.580333111534016e-06 0.0 0.0
0.0 1.0042081989046382e-05 -9.329724215423734e-07 7.201815348297952e-07 2.1279088671252578e-07 -1.761273688053899e-06 0.0 0.0
0.0 0.0 0.0 0.0 0.0 0.0 0.0 0.0
0.0 0.0 0.0 0.0 0.0 0.0 0.0 0.0
0.0 0.0 0.0 0.0 0.0 0.0 0.0 0.0
0.0 0.0006079636889628669 0.000324120063745741 -0.00044286930150581405 0.00011874923776007284 0.0004447932157960795 0.0 0.0
0.0 0.0003001595222768121 0.00013184449214081017 -0.00018415934186894183 5.231484972813204e-05 -0.00018574760720800826 0.0 0.0
0.0 0.0 0.0 0.0 0.0 0.0 0.0 0.0
0.0 0.0 0.0 0.0 0.0 0.0 0.0 0.0
0.0 0.0 0.0 0.0 0.0 0.0 0.0 0.0
0.0 3.1613189766570845e-06 -2.2524151937945443e-07 1.7083701736800547e-07 5.44045020114313e-08 5.898380239007696e-07 0.0 0.0
0.0 2.658242930864141e-05 -2.457380404714994e-06 1.8939807852861015e-06 5.63399619428864e-07 5.6578118203109945e-06 0.0 0.0
0.0 7.859428967004579e-05 2.039974570483577e-05 -1.597876531087318e-05 -4.420980393962607e-06 -3.830811078506629e-05 0.0 0.0
0.0 0.000280149491298625 0.00013324534789633751 -0.00010353232242974725 -2.9713025466590315e-05 -0.00018644381534404508 0.0 0.0
0.0 0.0007064589325052082 0.00046923738837683385 -0.0003694822796686987 -9.975510870813491e-05 -0.0005254972719198017 0.0 0.0
0.0 0.0013296806967282402 0.0010541344217272386 -0.0008475470513829225 -0.0002065873703443164 -0.0009968789688723607 0.0 0.0
0.0 0.002200050043360324 0.0018413456327800624 -0.0015188069728700694 -0.0003225386599099926 -0.0015034666771127202 0.0 0.0
0.0 0.003449758428686526 0.002921764520547583 -0.002478585293008945 -0.0004431792275386378 -0.002074223028467281 0.0 0.0
0.0 0.0053019538280896505 0.00447863157501564 -0.0039188368329102306 -0.0005597947421054089 -0.0028295226581906735 0.0 0.0
0.0 0.007924881782791323 0.0067125442600382695 -0.006049109687847469 -0.0006634345721907987 -0.0038764306162799144 0.0 0.0
0.0 0.011517766062909093 0.00972681608000308 -0.008981614003729122 -0.0007452020762739551 -0.005214156211067078 0.0 0.0
0.0 0.015966505869299402 0.013484446748737496 -0.012672809575849639 -0.0008116371728878555 -0.00666204200927952 0.0 0.0
0.0 0.020922684003532636 0.017779430402993335 -0.01691381446551546 -0.0008656159374778804 -0.007839467448598094 0.0 0.0
0.0 0.0261086308144513 0.022322821326963567 -0.021409753067346597 -0.000913068259616964 -0.008238305958336889 0.0 0.0
0.0 0.031093112530747483 0.026711885595611037 -0.025750053488432612 -0.000961832107178421 -0.007247514429918635 0.0 0.0
0.0 0.03488926117626712 0.03016230743116244 -0.02915104058983903 -0.0010112668413234044 -0.004034661572803268 0.0 0.0
0.0 0.034889261176266284 0.030162307431161304 -0.029151040589838036 -0.001011266841323263 0.004034661572816541 0.0 0.0
0.0 0.03109311253074552 0.02671188559560817 -0.02575005348842998 -0.0009618321071781958 0.007247514429935474 0.0 0.0
0.0 0.026108630814448947 0.02232282132696032 -0.02140975306734369 -0.0009130682596166326 0.008238305958348839 0.0 0.0
0.0 0.02092268400352915 0.017779430402989602 -0.016913814465512076 -0.0008656159374775207 0.007839467448602816 0.0 0.0
0.0 0.01596650586929494 0.013484446748733591 -0.012672809575846081 -0.0008116371728875032 0.00666204200927836 0.0 0.0
0.0 0.011517766062905567 0.009726816079999725 -0.008981614003726286 -0.0007452020762734376 0.005214156211066349 0.0 0.0
0.0 0.007924881782787083 0.006712544260034314 -0.006049109687843934 -0.0006634345721903794 0.003876430616278706 0.0 0.0
0.0 0.005301953828085958 0.004478631575012207 -0.00391883683290729 -0.0005597947421049172 0.0028295226581894466 0.0 0.0
0.0 0.003449758428681674 0.002921764520543106 -0.002478585293005058 -0.00044317922753804714 0.002074223028464708 0.0 0.0
0.0 0.0022000500433558136 0.0018413456327760881 -0.0015188069728666244 -0.00032253865990946326 0.0015034666771096303 0.0 0.0
0.0 0.0013296806967241755 0.0010541344217238533 -0.0008475470513801445 -0.00020658737034370846 0.0009968789688689123 0.0 0.0
0.0 0.0007064589325021977 0.00046923738837449566 -0.0003694822796668229 -9.975510870767286e-05 0.0005254972719176622 0.0 0.0
0.0 0.00028014949129719985 0.00013324534789578202 -0.00010353232242931962 -2.9713025466462254e-05 0.00018644381534326578 0.0 0.0
0.0 7.859428966916116e-05 2.0399745704755783e-05 -1.5978765310810688e-05 -4.420980393944974e-06 3.830811078491894e-05 0.0 0.0
0.0 2.6582429308295138e-05 -2.4573804046819166e-06 1.8939807852611378e-06 5.633996194208481e-07 -5.657811820230416e-06 0.0 0.0
0.0 3.16131897615778e-06 -2.2524151934554124e-07 1.708370173418097e-07 5.440450200374948e-08 -5.898380238059186e-07 0.0 0.0
0.0 0.0 0.0 0.0 0.0 0.0 0.0 0.0
0.0 0.0 0.0 0.0 0.0 0.0 0.0 0.0
0.0 0.0 0.0 0.0 0.0 0.0 0.0 0.0
0.0 0.0003001595222744949 0.00013184449213991903 -0.00018415934186771462 5.23148497277958e-05 0.00018574760720677425 0.0 0.0
0.0 0.00011626192331621414 2.1250257537681734e-05 -3.02739229121842e-05 9.023665374502584e-06 -2.9101720503266307e-05 0.0 0.0
0.0 0.0 0.0 0.0 0.0 0.0 0.0 0.0
0.0 0.0 0.0 0.0 0.0 0.0 0.0 0.0
0.0 0.0 0.0 0.0 0.0 0.0 0.0 0.0
0.0 2.9414467647017034e-06 -1.395236380701475e-07 1.0592787567012979e-07 3.3595762400001796e-08 5.885360677257692e-07 0.0 0.0
0.0 1.7011890293375043e-05 -1.0712005918851233e-06 8.42342080148463e-07 2.2885851173667705e-07 3.948518221257476e-06 0.0 0.0
0.0 3.658227684445522e-05 5.197779177926653e-06 -3.87681814187934e-06 -1.3209610360472844e-06 -1.2581604950635322e-05 0.0 0.0
0.0 0.00011708219714572973 3.567904364212292e-05 -2.7745475087963883e-05 -7.933568554159217e-06 -8.386185143898998e-05 0.0 0.0
0.0 0.00031841395993242573 0.000122662859387033 -9.569698475030459e-05 -2.6965874636728444e-05 -0.00023544722217130906 0.0 0.0
0.0 0.0005938052443706127 0.0004012989952866117 -0.0003151972016540802 -8.610179363253131e-05 -0.000605058721816464 0.0 0.0
0.0 0.0012189950338876738 0.0008674807668222098 -0.0006957252433035007 -0.0001717555235187088 -0.0010714067801762199 0.0 0.0
0.0 0.0020071621765636784 0.0015736597561274272 -0.0012941089729048975 -0.0002795507832225295 -0.0016383370633173294 0.0 0.0
0.0 0.0032267207021416952 0.0026108843606146375 -0.002212757645781885 -0.00039812671483275224 -0.002342479320575882 0.0 0.0
0.0 0.00505924751544307 0.00413212313194866 -0.003617924514547147 -0.0005141986174015126 -0.0032680719606720332 0.0 0.0
0.0 0.007650688320016525 0.006239431971008886 -0.005627053791616661 -0.0006123781793922226 -0.004426931006454189 0.0 0.0
0.0 0.010878008017553968 0.00893760559536206 -0.00825151712809256 -0.0006860884672694996 -0.005697629480292186 0.0 0.0
0.0 0.014684075627597607 0.012126038327708751 -0.011384432075385125 -0.0007416062523236285 -0.00676140705983308 0.0 0.0
0.0 0.018662656157881857 0.015660755896639227 -0.014876428697866238 -0.0007843271987729855 -0.007247473685758146 0.0 0.0
0.0 0.022709253340290437 0.01935640164210896 -0.01853732841814926 -0.0008190732239596945 -0.00670171549178944 0.0 0.0
0.0 0.026279939292101734 0.02268533180886944 -0.021818027512200206 -0.0008673042966692206 -0.004109885085588974 0.0 0.0
0.0 0.0262799392921011 0.022685331808868472 -0.021818027512199224 -0.0008673042966692462 0.004109885085598762 0.0 0.0
0.0 0.022709253340289635 0.019356401642107002 -0.018537328418147432 -0.0008190732239595673 0.006701715491803111 0.0 0.0
0.0 0.01866265615788016 0.015660755896636566 -0.014876428697863832 -0.0007843271987727339 0.007247473685767858 0.0 0.0
0.0 0.014684075627594953 0.012126038327705996 -0.011384432075382665 -0.0007416062523233301 0.006761407059835794 0.0 0.0
0.0 0.010878008017549798 0.008937605595358578 -0.008251517128089421 -0.0006860884672691563 0.005697629480290034 0.0 0.0
0.0 0.007650688320011707 0.006239431971004884 -0.005627053791612786 -0.0006123781793920975 0.004426931006452095 0.0 0.0
0.0 0.005059247515439432 0.004132123131945423 -0.003617924514544195 -0.0005141986174012278 0.0032680719606705136 0.0 0.0
0.0 0.003226720702138727 0.0026108843606118715 -0.0022127576457795367 -0.0003981267148323352 0.0023424793205746876 0.0 0.0
0.0 0.002007162176560083 0.0015736597561245122 -0.0012941089729024992 -0.0002795507832220127 0.0016383370633148335 0.0 0.0
0.0 0.0012189950338847004 0.0008674807668199133 -0.0006957252433017168 -0.00017175552351819684 0.001071406780173857 0.0 0.0
0.0 0.0005938052443681145 0.0004012989952848415 -0.00031519720165272303 -8.610179363211858e-05 0.0006050587218139622 0.0 0.0
0.0 0.0003184139599307678 0.0001226628593860991 -9.569698474956114e-05 -2.696587463653789e-05 0.00023544722216978125 0.0 0.0
0.0 0.00011708219714479215 3.567904364189496e-05 -2.7745475087782353e-05 -7.933568554112568e-06 8.386185143843517e-05 0.0 0.0
0.0 3.658227684405027e-05 5.197779177891713e-06 -3.876818141852905e-06 -1.3209610360388064e-06 1.2581604950562856e-05 0.0 0.0
0.0 1.701189029290454e-05 -1.0712005918517917e-06 8.423420801224218e-07 2.2885851172940093e-07 -3.9485182211370824e-06 0.0 0.0
0.0 2.94144676419533e-06 -1.3952363804583855e-07 1.0592787565141571e-07 3.3595762394410604e-08 -5.885360676186246e-07 0.0 0.0
0.0 0.0 0.0 0.0 0.0 0.0 0.0 0.0
0.0 0.0 0.0 0.0 0.0 0.0 0.0 0.0
0.0 0.0 0.0 0.0 0.0 0.0 0.0 0.0
0.0 0.00011626192331461681 2.1250257537376033e-05 -3.027392291174199e-05 9.023665374365964e-06 2.910172050289358e-05 0.0 0.0
0.0 2.439337377549085e-05 1.1479667085643067e-06 -1.6262527060151477e-06 4.782859974507918e-07 -1.9425974351196455e-06 0.0 0.0
0.0 1.4400916002750037e-06 -2.734609515630081e-09 6.875531268888254e-09 -4.14092175325815e-09 3.1032020111844965e-07 0.0 0.0
0.0 0.0 0.0 0.0 0.0 0.0 0.0 0.0
0.0 0.0 0.0 0.0 0.0 0.0 0.0 0.0
0.0 3.0628381032003893e-06 -6.905754497911045e-08 5.370267077192337e-08 1.5354874207180573e-08 6.580753880809897e-07 0.0 0.0
0.0 1.669848219011466e-05 -6.754141313205313e-07 5.129785862102976e-07 1.624355451102145e-07 4.126874192673731e-06 0.0 0.0
0.0 2.565979989433878e-05 -1.2765519214255931e-06 9.81214558184713e-07 2.953373632408789e-07 6.537299624614174e-06 0.0 0.0
0.0 4.948052898378598e-05 1.35400482716121e-05 -1.0534677179795048e-05 -3.0053710918170924e-06 -5.672975020716286e-05 0.0 0.0
0.0 0.0001384632603408225 3.307348828383951e-05 -2.5737224881983587e-05 -7.336263401856013e-06 -0.0001144127717281016 0.0 0.0
0.0 0.0002489531207962537 9.052553139537983e-05 -7.057972581178611e-05 -1.9945805583593837e-05 -0.000280555785174875 0.0 0.0
0.0 0.0004300762177215346 0.00021911742648924695 -0.0001719153950645295 -4.7202031424717374e-05 -0.0005660158049450506 0.0 0.0
0.0 0.0008265009532464991 0.00047218892592629436 -0.0003740243035061475 -9.816462242014691e-05 -0.0009708765251212215 0.0 0.0
0.0 0.001490652960436923 0.0009751136990269003 -0.0007903549803016888 -0.00018475871872521122 -0.0015902686186387684 0.0 0.0
0.0 0.0025466440202026918 0.0017907488737809926 -0.0014968802662648413 -0.00029386860751615107 -0.002377244446499753 0.0 0.0
0.0 0.004070591721412083 0.002991546138233433 -0.0025868952845774537 -0.00040465085365597864 -0.0033206170720747816 0.0 0.0
0.0 0.006078998177836743 0.0046080037954379285 -0.004109084619809385 -0.0004989191756285443 -0.004345558040101718 0.0 0.0
0.0 0.008590647048321522 0.006641342669435192 -0.006072352779987152 -0.0005689898894480398 -0.005273635685406408 0.0 0.0
0.0 0.011463733773835343 0.00909286195973674 -0.008466694345042484 -0.0006261676146942541 -0.005765037208405026 0.0 0.0
0.0 0.01463873167332947 0.011929075424083047 -0.011270477758514749 -0.0006585976655683059 -0.005576055006800935 0.0 0.0
0.0 0.017840347880063136 0.0149967867720186 -0.01429938790758895 -0.0006973988644296543 -0.003946364986866517 0.0 0.0
0.0 0.017840347880063015 0.014996786772018093 -0.014299387907588458 -0.0006973988644296342 0.003946364986872954 0.0 0.0
0.0 0.014638731673329448 0.011929075424082062 -0.011270477758513767 -0.0006585976655682889 0.005576055006810344 0.0 0.0
0.0 0.011463733773834953 0.009092861959735344 -0.008466694345041288 -0.0006261676146940582 0.005765037208412148 0.0 0.0
0.0 0.008590647048319163 0.006641342669433018 -0.0060723527799851915 -0.0005689898894478252 0.005273635685407375 0.0 0.0
0.0 0.006078998177834072 0.004608003795435929 -0.004109084619807561 -0.000498919175628367 0.0043455580400994795 0.0 0.0
0.0 0.004070591721409698 0.00299154613823166 -0.0025868952845758764 -0.00040465085365578364 0.0033206170720724076 0.0 0.0
0.0 0.0025466440202019476 0.0017907488737802756 -0.0014968802662642467 -0.0002938686075160286 0.002377244446499544 0.0 0.0
0.0 0.0014906529604365036 0.0009751136990263663 -0.0007903549803012517 -0.0001847587187251144 0.0015902686186387862 0.0 0.0
0.0 0.0008265009532454033 0.0004721889259255298 -0.0003740243035055375 -9.816462241999206e-05 0.0009708765251195466 0.0 0.0
0.0 0.00043007621771993967 0.00021911742648850118 -0.0001719153950639728 -4.72020314245284e-05 0.0005660158049434652 0.0 0.0
0.0 0.0002489531207947493 9.052553139484443e-05 -7.057972581134269e-05 -1.994580558350183e-05 0.00028055578517310886 0.0 0.0
0.0 0.00013846326034033248 3.3073488283653e-05 -2.5737224881841956e-05 -7.336263401811084e-06 0.0001144127717274291 0.0 0.0
0.0 4.948052898339869e-05 1.3540048271588121e-05 -1.0534677179780659e-05 -3.0053710918074836e-06 5.6729750207096035e-05 0.0 0.0
0.0 2.5659799894061404e-05 -1.2765519214109056e-06 9.812145581733674e-07 2.953373632375001e-07 -6.5372996245374225e-06 0.0 0.0
0.0 1.6698482189689227e-05 -6.754141313023855e-07 5.129785861963078e-07 1.6243554510606457e-07 -4.126874192556078e-06 0.0 0.0
0.0 3.0628381027185974e-06 -6.905754496673606e-08 5.3702670762731366e-08 1.535487420400285e-08 -6.580753879731063e-07 0.0 0.0
0.0 0.0 0.0 0.0 0.0 0.0 0.0 0.0
0.0 0.0 0.0 0.0 0.0 0.0 0.0 0.0
0.0 1.4400916000606018e-06 -2.7346095151882377e-09 6.875531267780064e-09 -4.140921752592997e-09 -3.1032020106934037e-07 0.0 0.0
0.0 2.439337377484294e-05 1.147966708623394e-06 -1.6262527060974987e-06 4.782859974741509e-07 1.9425974352429053e-06 0.0 0.0
0.0 6.935391212700624e-06 -5.308503336795636e-07 7.686070645861012e-07 -2.3775673090646271e-07 1.049140728143854e-06 0.0 0.0
0.0 9.058458586408483e-07 7.524644947399427e-10 2.6921535547623604e-09 -3.4446180495020276e-09 1.904316725388036e-07 0.0 0.0
0.0 0.0 0.0 0.0 0.0 0.0 0.0 0.0
0.0 0.0 0.0 0.0 0.0 0.0 0.0 0.0
0.0 5.455561020486616e-06 -1.877319191674498e-08 9.400339741681261e-09 9.372852175065115e-09 1.2338249442516948e-06 0.0 0.0
0.0 1.2649162497041946e-05 -1.40816357743154e-07 1.0163524973838207e-07 3.9181108004787066e-08 3.1244596390112657e-06 0.0 0.0
0.0 1.4176057102563801e-05 -2.2486424485998372e-07 1.691391884958289e-07 5.572505636415627e-08 3.543479186671418e-06 0.0 0.0
0.0 4.441962645128875e-05 -6.749540273029675e-07 5.376467621712848e-07 1.3730726513166736e-07 1.023420655156283e-05 0.0 0.0
0.0 7.400650891798208e-05 6.304701847197787e-06 -4.8705671846051245e-06 -1.4341346625926369e-06 -6.508649593610835e-05 0.0 0.0
0.0 0.0001622243037697788 1.4876279097296114e-05 -1.1476682350500796e-05 -3.3995967467952897e-06 -0.00013205993548982289 0.0 0.0
0.0 0.00021176141065587897 4.176334001770444e-05 -3.2627648954182775e-05 -9.135691063521665e-06 -0.0003494076908890429 0.0 0.0
0.0 0.0003567776954842617 7.804801203372354e-05 -6.15158428378763e-05 -1.6532169195847227e-05 -0.0005921564569202756 0.0 0.0
0.0 0.0005919047262677585 0.0001431353324423245 -0.00011405673617852411 -2.9078596263800397e-05 -0.0009735030076770486 0.0 0.0
0.0 0.0009698062496861938 0.00025737651847251153 -0.0002084490823574126 -4.892743611509901e-05 -0.0015595266929626617 0.0 0.0
0.0 0.0015740934172386047 0.0005227959880294129 -0.00042560529037449335 -9.719069765491956e-05 -0.002397291961584497 0.0 0.0
0.0 0.002429907591998231 0.0009587407096696164 -0.0007899498109144963 -0.0001687908987551203 -0.0033867123097823747 0.0 0.0
0.0 0.003568101977646836 0.0016919076216322718 -0.0014490411601574685 -0.00024286646147480322 -0.004358992337351795 0.0 0.0
0.0 0.005142103087069543 0.002962035752820828 -0.0026351820775742337 -0.0003268536752465936 -0.004893304069704897 0.0 0.0
0.0 0.007112766794062026 0.004772171410940387 -0.00435574500478925 -0.00041642640615113737 -0.004654207454901732 0.0 0.0
0.0 0.009587119997116051 0.007209744566879009 -0.006768492298537988 -0.0004412522683410195 -0.0037443314729023046 0.0 0.0
0.0 0.009587119997116795 0.007209744566879227 -0.006768492298538226 -0.0004412522683409983 0.0037443314729059605 0.0 0.0
0.0 0.007112766794062559 0.0047721714109396855 -0.004355745004788692 -0.00041642640615099116 0.004654207454908951 0.0 0.0
0.0 0.0051421030870688915 0.0029620357528193962 -0.002635182077572968 -0.0003268536752464285 0.004893304069709038 0.0 0.0
0.0 0.003568101977645592 0.001691907621631572 -0.0014490411601568141 -0.00024286646147475763 0.004358992337351026 0.0 0.0
0.0 0.0024299075919977727 0.0009587407096697503 -0.000789949810914586 -0.00016879089875516525 0.003386712309781183 0.0 0.0
0.0 0.0015740934172377508 0.0005227959880291967 -0.00042560529037433364 -9.719069765486287e-05 0.0023972919615832915 0.0 0.0
0.0 0.0009698062496860607 0.00025737651847256097 -0.00020844908235743273 -4.8927436115128204e-05 0.0015595266929623497 0.0 0.0
0.0 0.000591904726267989 0.00014313533244244005 -0.00011405673617869127 -2.9078596263748772e-05 0.0009735030076772062 0.0 0.0
0.0 0.0003567776954835595 7.804801203359294e-05 -6.151584283775661e-05 -1.6532169195836304e-05 0.0005921564569190566 0.0 0.0
0.0 0.00021176141065538977 4.1763340017632885e-05 -3.262764895413343e-05 -9.135691063499465e-06 0.0003494076908881698 0.0 0.0
0.0 0.00016222430376862853 1.4876279097161829e-05 -1.1476682350386338e-05 -3.3995967467754793e-06 0.00013205993548846742 0.0 0.0
0.0 7.400650891773537e-05 6.304701847165909e-06 -4.8705671845806716e-06 -1.4341346625852342e-06 6.508649593572703e-05 0.0 0.0
0.0 4.441962645107936e-05 -6.749540273040843e-07 5.376467621729238e-07 1.3730726513115755e-07 -1.0234206551543915e-05 0.0 0.0
0.0 1.417605710230505e-05 -2.248642448555074e-07 1.6913918849185627e-07 5.57250563636424e-08 -3.5434791865988037e-06 0.0 0.0
0.0 1.2649162496547092e-05 -1.4081635773750347e-07 1.0163524973413121e-07 3.9181108003369014e-08 -3.12445963887376e-06 0.0 0.0
0.0 5.45556101996866e-06 -1.8773191914669415e-08 9.400339740582529e-09 9.372852174088403e-09 -1.2338249441241808e-06 0.0 0.0
0.0 0.0 0.0 0.0 0.0 0.0 0.0 0.0
0.0 0.0 0.0 0.0 0.0 0.0 0.0 0.0
0.0 9.058458584084025e-07 7.524644945423904e-10 2.6921535540279696e-09 -3.444618048570202e-09 -1.9043167248770486e-07 0.0 0.0
0.0 6.935391212252483e-06 -5.308503336457555e-07 7.686070645365576e-07 -2.3775673089073374e-07 -1.04914072807861e-06 0.0 0.0
0.0 0.0 0.0 0.0 0.0 0.0 0.0 0.0
0.0 1.5383172175747233e-06 6.921881519037933e-09 1.0853452076309987e-10 -7.030416039799502e-09 3.328304133161107e-07 0.0 0.0
0.0 1.0066126532131434e-06 1.880003715012459e-08 -1.6160969126220894e-08 -2.6390680239026013e-09 2.0557945421627096e-07 0.0 0.0
0.0 1.383063941498802e-06 2.5459537940592414e-08 -2.257136934956544e-08 -2.888168591028672e-09 2.836482218219604e-07 0.0 0.0
0.0 6.329568722991083e-06 1.2100159608131477e-07 -9.957492898929318e-08 -2.142666709203334e-08 1.4508070408241616e-06 0.0 0.0
0.0 1.6603222805849884e-05 2.923750411405768e-07 -2.3536244238526396e-07 -5.7012598755332366e-08 4.230645678688613e-06 0.0 0.0
0.0 1.535707491913172e-05 2.712026432218339e-07 -2.1013859332736445e-07 -6.106404989446863e-08 3.874607379288849e-06 0.0 0.0
0.0 4.448441633989375e-05 6.842480206730196e-07 -5.473355240220141e-07 -1.3691249665095366e-07 1.0301274168151513e-05 0.0 0.0
0.0 7.369522680758369e-05 -6.2268498008641825e-06 4.804041485090369e-06 1.4228083157738158e-06 -6.483864061371689e-05 0.0 0.0
0.0 0.00016194249266512537 -1.4781873103627938e-05 1.1387386035151529e-05 3.394487068476392e-06 -0.0001318330626776496 0.0 0.0
0.0 0.0002125924056936865 -4.135867253281607e-05 3.233569889704017e-05 9.02297363577587e-06 -0.0003487496657687009 0.0 0.0
0.0 0.0003566291297981227 -7.793547068741242e-05 6.152191095444252e-05 1.6413559732969884e-05 -0.0005917414168528094 0.0 0.0
0.0 0.0005920318703637674 -0.00014427761278876602 0.00011551034783520954 2.876726495355648e-05 -0.0009721877632261909 0.0 0.0
0.0 0.0009719996942646411 -0.00026068874732828554 0.0002113796163643001 4.9309130963985355e-05 -0.0015582663998505845 0.0 0.0
0.0 0.0015734164937711368 -0.0005114027786659477 0.0004104374315445529 0.00010096534712139462 -0.002410072668757816 0.0 0.0
0.0 0.002371813615772194 -0.0008188109346281563 0.0006511979464014855 0.00016761298822667086 -0.0034446677718279538 0.0 0.0
0.0 0.003204098191620643 -0.0010412158667447002 0.0008172343353114369 0.0002239815314332629 -0.004613732198587285 0.0 0.0
0.0 0.0039460488205902405 -0.0009463887464741642 0.0006996148072818229 0.00024677393919234167 -0.005858688654516544 0.0 0.0
0.0 0.004234242838168974 -0.0003855423129530818 0.00023164099964112142 0.00015390131331196046 -0.0068261590759951295 0.0 0.0
0.0 0.003912763703380619 0.0008658927436558301 -0.0009236786450164836 5.7785901360652976e-05 -0.00574289500456963 0.0 0.0
0.0 0.003912763703383112 0.0008658927436558089 -0.000923678645016789 5.778590136098035e-05 0.005742895004575402 0.0 0.0
0.0 0.004234242838171693 -0.00038554231295333805 0.00023164099964142267 0.00015390131331191544 0.006826159076000449 0.0 0.0
0.0 0.00394604882059118 -0.0009463887464741961 0.0006996148072819189 0.0002467739391922769 0.005858688654519077 0.0 0.0
0.0 0.003204098191619913 -0.0010412158667443684 0.0008172343353112177 0.00022398153143315057 0.004613732198586401 0.0 0.0
0.0 0.0023718136157712395 -0.0008188109346276456 0.0006511979464010731 0.00016761298822657239 0.0034446677718264836 0.0 0.0
0.0 0.001573416493770324 -0.0005114027786657464 0.0004104374315443449 0.00010096534712140141 0.002410072668756276 0.0 0.0
0.0 0.0009719996942642394 -0.0002606887473281241 0.0002113796163642343 4.930913096388972e-05 0.0015582663998500428 0.0 0.0
0.0 0.0005920318703628229 -0.0001442776127884638 0.00011551034783498248 2.8767264953481258e-05 0.0009721877632253128 0.0 0.0
0.0 0.00035662912979722637 -7.793547068710082e-05 6.152191095417083e-05 1.641355973292997e-05 0.000591741416851344 0.0 0.0
0.0 0.00021259240569303564 -4.135867253259763e-05 3.233569889688147e-05 9.022973635716163e-06 0.0003487496657673425 0.0 0.0
0.0 0.00016194249266395845 -1.4781873103444015e-05 1.1387386034997586e-05 3.3944870684464803e-06 0.00013183306267619676 0.0 0.0
0.0 7.369522680727886e-05 -6.226849800822959e-06 4.804041485060144e-06 1.4228083157628139e-06 6.483864061342906e-05 0.0 0.0
0.0 4.448441633966004e-05 6.842480206694322e-07 -5.473355240157111e-07 -1.369124966536903e-07 -1.0301274168133485e-05 0.0 0.0
0.0 1.5357074918777994e-05 2.712026432142856e-07 -2.1013859332089264e-07 -6.106404989340121e-08 -3.874607379188645e-06 0.0 0.0
0.0 1.660322280540092e-05 2.923750411319481e-07 -2.353624423789323e-07 -5.7012598753028695e-08 -4.230645678559954e-06 0.0 0.0
0.0 6.329568722541222e-06 1.2100159607286122e-07 -9.95749289822081e-08 -2.1426667090650783e-08 -1.4508070407127971e-06 0.0 0.0
0.0 1.3830639409702123e-06 2.545953793022371e-08 -2.2571369340467936e-08 -2.8881685897572623e-09 -2.83648221709575e-07 0.0 0.0
0.0 1.0066126527697196e-06 1.88000371412546e-08 -1.616096911875171e-08 -2.639068022502714e-09 -2.0557945412396978e-07 0.0 0.0
0.0 1.5383172173538042e-06 6.921881518012765e-09 1.0853452069602514e-10 -7.0304160387032955e-09 -3.3283041326523493e-07 0.0 0.0
0.0 0.0 0.0 0.0 0.0 0.0 0.0 0.0
0.0 0.0 0.0 0.0 0.0 0.0 0.0 0.0
0.0 0.0 0.0 0.0 0.0 0.0 0.0 0.0
0.0 1.1358547083792243e-06 2.9199022431756486e-08 -2.4414515401068504e-08 -4.784507030685914e-09 2.3110359978051093e-07 0.0 0.0
0.0 4.433390297601944e-06 1.6015753021163607e-07 -1.3149237797341269e-07 -2.8665152238211024e-08 9.616929248813422e-07 0.0 0.0
0.0 5.593573495796702e-06 2.2488050829672393e-07 -1.783306916581879e-07 -4.6549816638530954e-08 1.2502688499216848e-06 0.0 0.0
0.0 1.5193019753149584e-05 6.075697492807933e-07 -5.003829957410301e-07 -1.0718675353973588e-07 3.7538488162118154e-06 0.0 0.0
0.0 2.8874588975334116e-05 1.4761258872071086e-06 -1.1479462079847123e-06 -3.281796792223996e-07 7.406783622865839e-06 0.0 0.0
0.0 4.9558834237394e-05 -1.3407175710239758e-05 1.04338145637768e-05 2.973361146462955e-06 -5.623528437291091e-05 0.0 0.0
0.0 0.0001370116316997206 -3.2828365049117946e-05 2.5529281385906636e-05 7.299083663211332e-06 -0.00011366717836977696 0.0 0.0
0.0 0.00024791909550165745 -9.027877946100847e-05 7.03528294134139e-05 1.992595004759455e-05 -0.00028006200428057647 0.0 0.0
0.0 0.00042922446336372984 -0.00021877991351857556 0.0001716041501598651 4.7175763358710364e-05 -0.0005659068597659724 0.0 0.0
0.0 0.0008252877824708027 -0.00047142289290245444 0.000373472357786905 9.795053511554933e-05 -0.0009699240087678766 0.0 0.0
0.0 0.0014909575396052346 -0.0009763701345861369 0.0007922664083013116 0.00018410372628482484 -0.0015847173686073315 0.0 0.0
0.0 0.0025560991353034772 -0.0018005199211030497 0.0015063115513563822 0.00029420836974666743 -0.0023683385788348895 0.0 0.0
0.0 0.004074630751431486 -0.0029820748058292934 0.0025713174546899173 0.0004107573511393759 -0.0033512715675069176 0.0 0.0
0.0 0.005935553792787216 -0.0044131972151552085 0.0038972506201844707 0.0005159465949707366 -0.004550816017323186 0.0 0.0
0.0 0.007859735534450388 -0.005804508370344821 0.005204420699569473 0.0006000876707753462 -0.005919396987111905 0.0 0.0
0.0 0.00931708368616584 -0.006711424759201842 0.006053916934455449 0.0006575078247463922 -0.007337186936108621 0.0 0.0
0.0 0.009312083265767426 -0.006407900774701572 0.005695827335112884 0.0007120734395886877 -0.007992752870331807 0.0 0.0
0.0 0.006719107991194115 -0.003999609116185181 0.0033337470276870473 0.000665862088498133 -0.006251869227482543 0.0 0.0
0.0 0.006719107991196341 -0.003999609116185798 0.0033337470276874944 0.0006658620884983045 0.006251869227487566 0.0 0.0
0.0 0.00931208326577012 -0.00640790077470217 0.005695827335113234 0.0007120734395889343 0.007992752870339752 0.0 0.0
0.0 0.009317083686164662 -0.006711424759199948 0.006053916934453504 0.0006575078247464445 0.007337186936113102 0.0 0.0
0.0 0.007859735534447215 -0.005804508370342224 0.005204420699567027 0.0006000876707751919 0.005919396987111097 0.0 0.0
0.0 0.0059355537927830455 -0.004413197215151876 0.0038972506201814684 0.0005159465949704079 0.004550816017320632 0.0 0.0
0.0 0.004074630751428098 -0.002982074805826463 0.0025713174546873685 0.00041075735113909456 0.003351271567504543 0.0 0.0
0.0 0.002556099135300449 -0.0018005199211008805 0.0015063115513545737 0.00029420836974630645 0.0023683385788326777 0.0 0.0
0.0 0.001490957539602698 -0.000976370134583994 0.0007922664082995438 0.00018410372628444987 0.0015847173686057512 0.0 0.0
0.0 0.0008252877824682645 -0.00047142289290096187 0.0003734723577857171 9.795053511524456e-05 0.0009699240087658315 0.0 0.0
0.0 0.0004292244633610707 -0.00021877991351726243 0.00017160415015877778 4.717576335848459e-05 0.0005659068597634523 0.0 0.0
0.0 0.0002479190955000285 -9.02787794604928e-05 7.035282941301167e-05 1.9925950047481193e-05 0.00028006200427905284 0.0 0.0
0.0 0.00013701163169893132 -3.282836504889778e-05 2.5529281385736264e-05 7.299083663161526e-06 0.0001136671783691302 0.0 0.0
0.0 4.955883423712768e-05 -1.3407175710181614e-05 1.0433814563736888e-05 2.973361146444755e-06 5.623528437272847e-05 0.0 0.0
0.0 2.887458897492783e-05 1.4761258871847999e-06 -1.147946207967182e-06 -3.281796792175629e-07 -7.406783622754122e-06 0.0 0.0
0.0 1.519301975257843e-05 6.07569749254635e-07 -5.003829957201351e-07 -1.0718675353450862e-07 -3.753848816058526e-06 0.0 0.0
0.0 5.593573495293337e-06 2.2488050827704833e-07 -1.7833069164221596e-07 -4.654981663483093e-08 -1.2502688498043295e-06 0.0 0.0
0.0 4.433390297185643e-06 1.6015753019653384e-07 -1.314923779608683e-07 -2.86651522356573e-08 -9.616929247861855e-07 0.0 0.0
0.0 1.1358547077892155e-06 2.9199022415728776e-08 -2.4414515387892006e-08 -4.78450702783608e-09 -2.3110359965855258e-07 0.0 0.0
0.0 0.0 0.0 0.0 0.0 0.0 0.0 0.0
0.0 0.0 0.0 0.0 0.0 0.0 0.0 0.0
0.0 0.0 0.0 0.0 0.0 0.0 0.0 0.0
0.0 0.0 0.0 0.0 0.0 0.0 0.0 0.0
0.0 2.3595770755575334e-06 8.103527066722901e-08 -6.628456757561009e-08 -1.4750703091619284e-08 4.821090556875273e-07 0.0 0.0
0.0 6.590687281837416e-06 3.10881542792901e-07 -2.570236217687858e-07 -5.385792102411917e-08 1.409381601992583e-06 0.0 0.0
0.0 7.627299154539806e-06 4.0935751532963017e-07 -3.3681363121879136e-07 -7.254388411084961e-08 1.667160813460528e-06 0.0 0.0
0.0 2.0386492939198233e-05 1.4262568685873572e-06 -1.1157064935075056e-06 -3.1055037507982356e-07 4.73426434119655e-06 0.0 0.0
0.0 4.350127420112284e-05 -4.753839255039671e-06 3.551349518535011e-06 1.2024897365046732e-06 -1.1499541140911606e-05 0.0 0.0
0.0 0.00011731277244744953 -3.520308846900528e-05 2.738605869180682e-05 7.817029777198483e-06 -8.30792693082271e-05 0.0 0.0
0.0 0.0003159502325037869 -0.00012199967550981987 9.514724698942803e-05 2.685242852039189e-05 -0.0002341960465614474 0.0 0.0
0.0 0.0005916049202330472 -0.00040040637708307675 0.00031440895033028204 8.599742675279458e-05 -0.0006040129910902093 0.0 0.0
0.0 0.0012177602676393946 -0.0008666506897849391 0.0006949229153466117 0.00017172777443832718 -0.0010712584306681084 0.0 0.0
0.0 0.0020055492368587285 -0.0015718333628463323 0.0012925456998337014 0.00027928766301263055 -0.001637519994115656 0.0 0.0
0.0 0.0032223583475509696 -0.002609205669810077 0.002212245180606905 0.00039696048920317116 -0.002330352298157194 0.0 0.0
0.0 0.0050590577391234764 -0.004139241015022681 0.003626096998642495 0.0005131440163801853 -0.0032328792554867486 0.0 0.0
0.0 0.007653536908012424 -0.006242332511511585 0.005624670588173952 0.0006176619233376288 -0.004425835704140504 0.0 0.0
0.0 0.010781826711361742 -0.008795189288202379 0.008088483359392391 0.0007067059288099855 -0.0059940810275970514 0.0 0.0
0.0 0.014148097485106747 -0.011426361824733135 0.010645466399665408 0.0007808954250677269 -0.007996847860091994 0.0 0.0
0.0 0.016744168251069506 -0.013477644378883144 0.012623147146504851 0.0008544972323782873 -0.010169956919756097 0.0 0.0
0.0 0.017408023441380996 -0.013760352188822962 0.01282721428995725 0.0009331378988657114 -0.011339217344606821 0.0 0.0
0.0 0.01344170828366291 -0.010552112216896462 0.009541648314136345 0.001010463902760116 -0.008866962344370627 0.0 0.0
0.0 0.01344170828366657 -0.010552112216898286 0.009541648314138056 0.0010104639027602254 0.008866962344378435 0.0 0.0
0.0 0.017408023441383928 -0.01376035218882336 0.012827214289957782 0.0009331378988655767 0.01133921734461825 0.0 0.0
0.0 0.016744168251068517 -0.0134776443788809 0.012623147146502936 0.0008544972323779566 0.010169956919763218 0.0 0.0
0.0 0.014148097485102889 -0.01142636182472936 0.010645466399662084 0.0007808954250672817 0.007996847860093309 0.0 0.0
0.0 0.010781826711356253 -0.00879518928819779 0.008088483359388103 0.0007067059288096885 0.0059940810275941996 0.0 0.0
0.0 0.007653536908008055 -0.0062423325115077925 0.005624670588170334 0.0006176619233374577 0.004425835704138854 0.0 0.0
0.0 0.005059057739118758 -0.004139241015018672 0.003626096998638756 0.0005131440163799155 0.003232879255484436 0.0 0.0
0.0 0.0032223583475465677 -0.0026092056698059835 0.0022122451806032583 0.0003969604892027246 0.002330352298155281 0.0 0.0
0.0 0.002005549236854044 -0.001571833362842107 0.0012925456998300268 0.0002792876630120801 0.0016375199941126794 0.0 0.0
0.0 0.0012177602676345185 -0.0008666506897813285 0.0006949229153436564 0.00017172777443767191 0.001071258430664283 0.0 0.0
0.0 0.0005916049202291436 -0.0004004063770803824 0.00031440895032810404 8.599742675227825e-05 0.0006040129910868992 0.0 0.0
0.0 0.0003159502325015449 -0.00012199967550872252 9.514724698855056e-05 2.6852428520172054e-05 0.00023419604655969283 0.0 0.0
0.0 0.00011731277244648353 -3.5203088468688174e-05 2.738605869155949e-05 7.817029777128629e-06 8.307926930750889e-05 0.0 0.0
0.0 4.350127420056986e-05 -4.753839255084742e-06 3.551349518572335e-06 1.2024897365123427e-06 1.1499541141029454e-05 0.0 0.0
0.0 2.0386492938733195e-05 1.4262568685531833e-06 -1.1157064934812938e-06 -3.1055037507188146e-07 -4.73426434107734e-06 0.0 0.0
0.0 7.627299153988424e-06 4.0935751529703973e-07 -3.3681363119245467e-07 -7.254388410461007e-08 -1.6671608133338516e-06 0.0 0.0
0.0 6.590687281367154e-06 3.108815427685181e-07 -2.5702362174870477e-07 -5.385792101978286e-08 -1.40938160188229e-06 0.0 0.0
0.0 2.359577075132882e-06 8.103527065174102e-08 -6.628456756303808e-08 -1.4750703088705987e-08 -4.821090555965945e-07 0.0 0.0
0.0 0.0 0.0 0.0 0.0 0.0 0.0 0.0
0.0 0.0 0.0 0.0 0.0 0.0 0.0 0.0
0.0 0.0 0.0 0.0 0.0 0.0 0.0 0.0
0.0 0.0 0.0 0.0 0.0 0.0 0.0 0.0
0.0 0.0 0.0 0.0 0.0 0.0 0.0 0.0
0.0 4.567888438524369e-06 2.816642514147399e-07 -2.2557908395780664e-07 -5.608516745694391e-08 9.161147982631984e-07 0.0 0.0
0.0 1.0652708672248226e-05 8.226055347280341e-07 -6.478885821649108e-07 -1.7471695256313932e-07 2.1974362185297753e-06 0.0 0.0
0.0 2.8262445277502416e-05 -1.4252794096378678e-06 1.0631916842495102e-06 3.620877253883638e-07 -2.630608127419634e-06 0.0 0.0
0.0 9.113049556137194e-05 -2.019853866363964e-05 1.5865615267316965e-05 4.332923396322752e-06 -3.8490712113369566e-05 0.0 0.0
0.0 0.0002805420648048106 -0.0001325854302429037 0.0001030370253331999 2.95484049097038e-05 -0.00018564009258470677 0.0 0.0
0.0 0.0007035258879596054 -0.00046781420153968825 0.0003682710935107684 9.954310802891985e-05 -0.000523459498031658 0.0 0.0
0.0 0.0013256915807105135 -0.00105343092358097 0.0008468326802273969 0.0002065982433535726 -0.00099606105048887 0.0 0.0
0.0 0.0021996508657924786 -0.0018408680528030482 0.0015182928379252076 0.0003225752148778398 -0.001504000056109435 0.0 0.0
0.0 0.003447594702104685 -0.0029194695213054693 0.0024763831157171125 0.0004430864055883562 -0.002074625225108439 0.0 0.0
0.0 0.005291341947229919 -0.004471053760198515 0.003912295163371988 0.0005587585968265269 -0.0028141562211508294 0.0 0.0
0.0 0.007907075757027315 -0.006706499091057809 0.006044974430866596 0.0006615246601912137 -0.003812159091443047 0.0 0.0
0.0 0.011512050421231696 -0.009733622145217764 0.008985800721759757 0.0007478214234580068 -0.005145719547973348 0.0 0.0
0.0 0.015956531446823907 -0.013432907292791455 0.012605442360189286 0.0008274649326021639 -0.006975035126853728 0.0 0.0
0.0 0.020661553603704277 -0.017332948219707295 0.016427555290375127 0.000905392929332173 -0.00946326058710713 0.0 0.0
0.0 0.024602919726291316 -0.020481298495038745 0.019485618247866952 0.0009956802471717888 -0.012286790085575532 0.0 0.0
0.0 0.025680768558209985 -0.02119143720617266 0.020086900224994958 0.0011045369811776928 -0.014049116461712906 0.0 0.0
0.0 0.02058596769314114 -0.016947742241428067 0.015722649033873472 0.00122509320755459 -0.011736341875534911 0.0 0.0
0.0 0.02058596769314356 -0.016947742241428393 0.015722649033873798 0.0012250932075545925 0.011736341875545727 0.0 0.0
0.0 0.02568076855821144 -0.021191437206171507 0.020086900224994153 0.0011045369811773496 0.014049116461727332 0.0 0.0
0.0 0.024602919726288877 -0.020481298495035088 0.01948561824786347 0.000995680247171615 0.0122867900855852 0.0 0.0
0.0 0.020661553603698774 -0.01733294821970193 0.016427555290370023 0.0009053929293319054 0.009463260587109674 0.0 0.0
0.0 0.0159565314468175 -0.013432907292785788 0.01260544236018397 0.00082746493260182 0.006975035126851834 0.0 0.0
0.0 0.011512050421227021 -0.009733622145213356 0.008985800721755945 0.0007478214234574055 0.005145719547972289 0.0 0.0
0.0 0.007907075757021573 -0.0067064990910526805 0.006044974430861954 0.0006615246601907256 0.0038121590914406006 0.0 0.0
0.0 0.005291341947222746 -0.004471053760192094 0.0039122951633661345 0.0005587585968259589 0.002814156221148352 0.0 0.0
0.0 0.003447594702097991 -0.0029194695212993085 0.0024763831157116676 0.0004430864055876402 0.0020746252251049755 0.0 0.0
0.0 0.0021996508657853514 -0.0018408680527967321 0.0015182928379196864 0.0003225752148770454 0.0015040000561047516 0.0 0.0
0.0 0.0013256915807043287 -0.0010534309235758895 0.0008468326802231405 0.00020659824335274882 0.0009960610504842653 0.0 0.0
0.0 0.0007035258879558529 -0.00046781420153685946 0.00036827109350852675 9.954310802833276e-05 0.0005234594980293012 0.0 0.0
0.0 0.0002805420648028311 -0.0001325854302418898 0.00010303702533241498 2.9548404909474875e-05 0.0001856400925834909 0.0 0.0
0.0 9.113049556006567e-05 -2.0198538663576965e-05 1.586561526727141e-05 4.33292339630564e-06 3.84907121132516e-05 0.0 0.0
0.0 2.826244527677267e-05 -1.425279409767717e-06 1.0631916843503895e-06 3.620877254173462e-07 2.6306081276907607e-06 0.0 0.0
0.0 1.0652708671817191e-05 8.226055346933095e-07 -6.478885821374208e-07 -1.7471695255591085e-07 -2.197436218434703e-06 0.0 0.0
0.0 4.567888438027894e-06 2.8166425138388424e-07 -2.2557908393276395e-07 -5.608516745111872e-08 -9.161147981597317e-07 0.0 0.0
0.0 0.0 0.0 0.0 0.0 0.0 0.0 0.0
0.0 0.0 0.0 0.0 0.0 0.0 0.0 0.0
0.0 0.0 0.0 0.0 0.0 0.0 0.0 0.0
0.0 0.0 0.0 0.0 0.0 0.0 0.0 0.0
0.0 0.0 0.0 0.0 0.0 0.0 0.0 0.0
0.0 0.0 0.0 0.0 0.0 0.0 0.0 0.0
0.0 6.934682311029604e-06 5.04234701713622e-07 -4.0650678403662876e-07 -9.772791767698894e-08 1.3113344896194137e-06 0.0 0.0
0.0 2.4522623338747396e-05 2.41421874416821e-06 -1.9037384692963827e-06 -5.104802748717368e-07 4.861566411932286e-06 0.0 0.0
0.0 4.288172154353967e-05 -3.441540793604628e-06 2.7441869834134925e-06 6.973538101912206e-07 -5.6038985441759275e-06 0.0 0.0
0.0 0.0002015260773491767 -7.379062013638838e-05 5.7448326852227734e-05 1.6342293284160724e-05 -8.801522493553425e-05 0.0 0.0
0.0 0.0006151685152634635 -0.00040468544337206845 0.00031793630349124987 8.67491398808186e-05 -0.00037546621608638763 0.0 0.0
0.0 0.0012644918839528297 -0.0010274001230362755 0.0008246391438943363 0.00020276097914193888 -0.0007997646447836801 0.0 0.0
0.0 0.0021462812396356246 -0.001852754210297562 0.0015240345434196147 0.00032871966687794723 -0.0012461950731302936 0.0 0.0
0.0 0.003343489857997161 -0.0029192001102120325 0.002465666983129817 0.0004535331270822144 -0.001712931233081392 0.0 0.0
0.0 0.005042602872371545 -0.004383916768139258 0.00381077117313117 0.0005731455950080877 -0.00228575307758367 0.0 0.0
0.0 0.007480017680724666 -0.0064666302874929055 0.005786316345750056 0.0006803139417428468 -0.0030551132584708176 0.0 0.0
0.0 0.01093962039831149 -0.009408316094213406 0.008637828644259753 0.0007704874499536474 -0.004091242804194708 0.0 0.0
0.0 0.015630446390674242 -0.013356750976835648 0.012509610369376065 0.0008471406074595784 -0.005468267489531008 0.0 0.0
0.0 0.021198348828495354 -0.018202890235493638 0.017278250047993247 0.0009246401875003937 -0.007363974496449254 0.0 0.0
0.0 0.027445681898259522 -0.023358974389760426 0.022345673773725584 0.0010133006160348407 -0.00999240515450463 0.0 0.0
0.0 0.03260965891079845 -0.02756259264252513 0.026438407762050246 0.00112418488047488 -0.013214730726672312 0.0 0.0
0.0 0.033991853692128676 -0.02856753815188691 0.027304983809116737 0.0012625543427701757 -0.015668340905596614 0.0 0.0
0.0 0.027712721961799445 -0.023158411993202142 0.021763539175310428 0.0013948728178917176 -0.014485568657768592 0.0 0.0
0.0 0.027712721961799767 -0.023158411993200546 0.021763539175308655 0.0013948728178918809 0.014485568657781278 0.0 0.0
0.0 0.03399185369212896 -0.028567538151884946 0.02730498380911486 0.0012625543427700787 0.01566834090561298 0.0 0.0
0.0 0.03260965891079565 -0.027562592642521134 0.026438407762046572 0.0011241848804745508 0.013214730726684647 0.0 0.0
0.0 0.027445681898252645 -0.023358974389753803 0.022345673773719273 0.0010133006160345337 0.009992405154508884 0.0 0.0
0.0 0.02119834882848738 -0.01820289023548646 0.017278250047986443 0.000924640187500021 0.007363974496448657 0.0 0.0
0.0 0.015630446390666883 -0.013356750976828983 0.012509610369369869 0.0008471406074591083 0.005468267489529741 0.0 0.0
0.0 0.010939620398304449 -0.009408316094207027 0.008637828644253893 0.0007704874499531332 0.004091242804192115 0.0 0.0
0.0 0.007480017680717309 -0.006466630287485994 0.005786316345743689 0.0006803139417423033 0.003055113258469147 0.0 0.0
0.0 0.005042602872363734 -0.00438391676813214 0.0038107711731248457 0.0005731455950072945 0.002285753077580702 0.0 0.0
0.0 0.003343489857989086 -0.002919200110204803 0.002465666983123429 0.0004535331270813735 0.0017129312330772628 0.0 0.0
0.0 0.002146281239628658 -0.0018527542102912873 0.0015240345434141822 0.0003287196668771046 0.0012461950731260183 0.0 0.0
0.0 0.0012644918839474948 -0.001027400123031535 0.0008246391438904426 0.000202760979141092 0.0007997646447807223 0.0 0.0
0.0 0.0006151685152594615 -0.000404685443369104 0.0003179363034889191 8.674913988018508e-05 0.0003754662160841717 0.0 0.0
0.0 0.00020152607734700255 -7.37906201354406e-05 5.744832685148843e-05 1.634229328395236e-05 8.801522493444628e-05 0.0 0.0
0.0 4.288172154234975e-05 -3.441540793582939e-06 2.7441869833942195e-06 6.973538101888379e-07 5.60389854412962e-06 0.0 0.0
0.0 2.452262333810597e-05 2.414218744102643e-06 -1.903738469245527e-06 -5.104802748570536e-07 -4.8615664118109176e-06 0.0 0.0
0.0 6.934682310525032e-06 5.04234701673154e-07 -4.065067840040159e-07 -9.772791766911185e-08 -1.311334489514374e-06 0.0 0.0
0.0 0.0 0.0 0.0 0.0 0.0 0.0 0.0
0.0 0.0 0.0 0.0 0.0 0.0 0.0 0.0
0.0 0.0 0.0 0.0 0.0 0.0 0.0 0.0
0.0 0.0 0.0 0.0 0.0 0.0 0.0 0.0
0.0 0.0 0.0 0.0 0.0 0.0 0.0 0.0
0.0 0.0 0.0 0.0 0.0 0.0 0.0 0.0
0.0 3.200659700653277e-06 2.5707668109785343e-07 -2.0547601315242337e-07 -5.1600667945449464e-08 5.112391326946205e-07 0.0 0.0
0.0 2.2580310055295434e-05 2.4758174598961964e-06 -1.9596739091670867e-06 -5.161435507290555e-07 3.7705172167393407e-06 0.0 0.0
0.0 9.950682329412045e-05 -1.4570909426628502e-05 1.1366605273888874e-05 3.204304152739768e-06 -1.438742814052663e-05 0.0 0.0
0.0 0.0004684950027142595 -0.0002366006186124576 0.0001853374882578214 5.1263130354636096e-05 -0.00018665217503994303 0.0 0.0
0.0 0.0010303862610385175 -0.0008495539124471936 0.000677428379607534 0.00017212553283965992 -0.0005534130582692434 0.0 0.0
0.0 0.001896262975674861 -0.0016769686391749673 0.0013717592122170909 0.00030520942695787603 -0.0009376520867220892 0.0 0.0
0.0 0.00304374878476109 -0.0027089921424432914 0.002271794931045394 0.00043719721139789697 -0.0013166982736889548 0.0 0.0
0.0 0.0045916503633485605 -0.0040656143381698736 0.0035028071823878324 0.0005628071557820398 -0.0017538518339027978 0.0 0.0
0.0 0.006735998286571359 -0.005929553839890071 0.005252459327360739 0.0006770945125293309 -0.0023043169417478323 0.0 0.0
0.0 0.009844928483835592 -0.008557049491331369 0.0077807624261185294 0.0007762870652128351 -0.0030519568482853593 0.0 0.0
0.0 0.014031758202020427 -0.01222002162260263 0.01136039983299853 0.0008596217896040978 -0.004092783821550678 0.0 0.0
0.0 0.01969663057284714 -0.017069325870412856 0.016136841676727395 0.0009324841936854598 -0.005418545111663489 0.0 0.0
0.0 0.026722555402138613 -0.023008547893736093 0.021995784801661398 0.0010127630920746928 -0.007125222965897019 0.0 0.0
0.0 0.034060581889442554 -0.0293864992980546 0.02827416533290661 0.0011123339651479824 -0.009581706990705012 0.0 0.0
0.0 0.04023709800649411 -0.03461323399196113 0.03337009404230686 0.0012431399496542698 -0.012924136820549659 0.0 0.0
0.0 0.04202899260279659 -0.035895765267380295 0.034490154606863055 0.0014056106605172332 -0.01625555038426389 0.0 0.0
0.0 0.034975928321941165 -0.029366092859867615 0.02781650291077452 0.0015495899490930876 -0.01721119026537149 0.0 0.0
0.0 0.03497592832194314 -0.029366092859867174 0.027816502910774168 0.0015495899490929998 0.01721119026538634 0.0 0.0
0.0 0.04202899260279625 -0.03589576526737781 0.034490154606860904 0.0014056106605168923 0.01625555038428196 0.0 0.0
0.0 0.04023709800649013 -0.03461323399195615 0.0333700940423025 0.0012431399496536427 0.012924136820562824 0.0 0.0
0.0 0.03406058188943572 -0.0293864992980479 0.02827416533290063 0.001112333965147259 0.00958170699071002 0.0 0.0
0.0 0.02672255540213081 -0.023008547893728852 0.02199578480165497 0.0010127630920738818 0.00712522296589798 0.0 0.0
0.0 0.019696630572839175 -0.017069325870405588 0.016136841676720796 0.0009324841936847916 0.005418545111663181 0.0 0.0
0.0 0.014031758202011708 -0.012220021622594793 0.011360399832991187 0.0008596217896036074 0.0040927838215489044 0.0 0.0
0.0 0.009844928483826284 -0.008557049491322634 0.007780762426110381 0.000776287065212256 0.003051956848283686 0.0 0.0
0.0 0.006735998286560256 -0.005929553839879893 0.005252459327351162 0.0006770945125287298 0.002304316941744736 0.0 0.0
0.0 0.00459165036333944 -0.004065614338161381 0.0035028071823802287 0.0005628071557811545 0.00175385183389885 0.0 0.0
0.0 0.003043748784753626 -0.002708992142436255 0.0022717949310393608 0.0004371972113968931 0.0013166982736851811 0.0 0.0
0.0 0.0018962629756689958 -0.0016769686391692423 0.001371759212212304 0.0003052094269569383 0.000937652086719518 0.0 0.0
0.0 0.001030386261033461 -0.0008495539124426855 0.0006774283796038387 0.00017212553283884674 0.0005534130582668855 0.0 0.0
0.0 0.0004684950027105426 -0.0002366006186101708 0.00018533748825600712 5.1263130354163695e-05 0.00018665217503819627 0.0 0.0
0.0 9.950682329277805e-05 -1.4570909426485254e-05 1.1366605273774033e-05 3.204304152711459e-06 1.438742814031602e-05 0.0 0.0
0.0 2.258031005426644e-05 2.4758174597814336e-06 -1.9596739090780073e-06 -5.161435507033677e-07 -3.770517216587599e-06 0.0 0.0
0.0 3.200659700228882e-06 2.570766810613841e-07 -2.0547601312327432e-07 -5.1600667938105344e-08 -5.112391326224368e-07 0.0 0.0
0.0 0.0 0.0 0.0 0.0 0.0 0.0 0.0
0.0 0.0 0.0 0.0 0.0 0.0 0.0 0.0
0.0 0.0 0.0 0.0 0.0 0.0 0.0 0.0
0.0 0.0 0.0 0.0 0.0 0.0 0.0 0.0
0.0 0.0 0.0 0.0 0.0 0.0 0.0 0.0
0.0 0.0 0.0 0.0 0.0 0.0 0.0 0.0
0.0 2.618405318439777e-06 2.393682008394056e-07 -1.9194239063089624e-07 -4.742581020851728e-08 3.6423945028289323e-07 0.0 0.0
0.0 3.3624237427715145e-05 4.220013028408844e-06 -3.2472484748037782e-06 -9.727645536051238e-07 4.109539754910055e-06 0.0 0.0
0.0 0.0002303579164880163 -6.887657909835789e-05 5.413043747927419e-05 1.4746141619083584e-05 -4.932087550575697e-05 0.0 0.0
0.0 0.0006949068673647185 -0.0005723785989046793 0.0004528246051047374 0.00011955399379994194 -0.00031610193034939095 0.0 0.0
0.0 0.001514545685708575 -0.0013660433459638855 0.0011071018664666561 0.00025894147949722947 -0.0006248325856056857 0.0 0.0
0.0 0.0026144482446948227 -0.002353957960277332 0.001956471925868844 0.00039748603440848795 -0.0009239857286812695 0.0 0.0
0.0 0.004012134496238375 -0.0036102096821237126 0.003079134609512181 0.0005310750726115317 -0.001250953128303177 0.0 0.0
0.0 0.005903293264889335 -0.005264804525399698 0.004611014116853801 0.0006537904085458979 -0.0016380877040351857 0.0 0.0
0.0 0.008536477098682623 -0.0075404051818222136 0.0067773564110544865 0.0007630487707677273 -0.0021331164963208447 0.0 0.0
0.0 0.012230945168695344 -0.010733064152419581 0.009876734936520932 0.0008563292158986469 -0.0028266725103848773 0.0 0.0
0.0 0.017344772951887112 -0.01511903261893651 0.014179945281099646 0.0009390873378368645 -0.003782647792489217 0.0 0.0
0.0 0.023997728816172608 -0.020838527201865794 0.01982457222919741 0.0010139549726683786 -0.004987728869361619 0.0 0.0
0.0 0.03185394213825706 -0.027789011942333307 0.02669432316437037 0.0010946887779629334 -0.006386477291463075 0.0 0.0
0.0 0.04053718082711555 -0.03528142343812998 0.03407803348980653 0.0012033899483234647 -0.00824194266072923 0.0 0.0
0.0 0.047856368072083565 -0.04151929738083703 0.04016889181519602 0.0013504055656410078 -0.011294041141566055 0.0 0.0
0.0 0.0501644006492121 -0.0432377227404679 0.04170122142635657 0.0015365013141113346 -0.01575991345533732 0.0 0.0
0.0 0.04233889094304219 -0.03577422876913939 0.034072052652224044 0.0017021761169153417 -0.019934595759001545 0.0 0.0
0.0 0.04233889094304276 -0.035774228769137925 0.03407205265222247 0.0017021761169154425 0.019934595759015704 0.0 0.0
0.0 0.05016440064920877 -0.04323772274046336 0.04170122142635212 0.0015365013141112201 0.015759913455355146 0.0 0.0
0.0 0.04785636807207701 -0.04151929738083037 0.040168891815189504 0.0013504055656408643 0.011294041141579236 0.0 0.0
0.0 0.040537180827108145 -0.035281423438123065 0.034078033489800076 0.0012033899483229714 0.008241942660733676 0.0 0.0
0.0 0.0318539421382474 -0.027789011942324606 0.026694323164362148 0.0010946887779624546 0.006386477291464146 0.0 0.0
0.0 0.02399772881616149 -0.020838527201855885 0.01982457222918792 0.0010139549726679617 0.0049877288693614226 0.0 0.0
0.0 0.01734477295187715 -0.015119032618927407 0.014179945281091382 0.0009390873378360275 0.0037826477924880345 0.0 0.0
0.0 0.012230945168685187 -0.0107330641524102 0.009876734936512368 0.0008563292158978318 0.002826672510383207 0.0 0.0
0.0 0.008536477098671558 -0.007540405181811778 0.0067773564110448475 0.0007630487707669292 0.0021331164963188276 0.0 0.0
0.0 0.0059032932648781095 -0.005264804525389125 0.004611014116843981 0.0006537904085451439 0.0016380877040316202 0.0 0.0
0.0 0.0040121344962284885 -0.0036102096821144943 0.0030791346095038145 0.0005310750726106797 0.0012509531282996135 0.0 0.0
0.0 0.002614448244687478 -0.0023539579602700226 0.0019564719258623937 0.0003974860344076285 0.0009239857286790126 0.0 0.0
0.0 0.001514545685702487 -0.0013660433459577869 0.0011071018664614899 0.0002589414794962968 0.000624832585603366 0.0 0.0
0.0 0.0006949068673600572 -0.0005723785989006198 0.00045282460510146904 0.00011955399379915088 0.0003161019303473385 0.0 0.0
0.0 0.0002303579164852406 -6.887657909718078e-05 5.413043747835222e-05 1.4746141618828522e-05 4.932087550493181e-05 0.0 0.0
0.0 3.3624237426677116e-05 4.220013028266174e-06 -3.247248474693658e-06 -9.72764553572584e-07 -4.109539754769875e-06 0.0 0.0
0.0 2.6184053179973456e-06 2.3936820079710257e-07 -1.9194239059710804e-07 -4.742581019997605e-08 -3.6423945021951685e-07 0.0 0.0
0.0 0.0 0.0 0.0 0.0 0.0 0.0 0.0
0.0 0.0 0.0 0.0 0.0 0.0 0.0 0.0
0.0 0.0 0.0 0.0 0.0 0.0 0.0 0.0
0.0 0.0 0.0 0.0 0.0 0.0 0.0 0.0
0.0 0.0 0.0 0.0 0.0 0.0 0.0 0.0
0.0 0.0 0.0 0.0 0.0 0.0 0.0 0.0
0.0 2.505328812516062e-06 2.531774601983128e-07 -2.0049509598987184e-07 -5.2682364208456706e-08 2.703398458413968e-07 0.0 0.0
0.0 6.436331433646125e-05 8.895450456086003e-06 -6.871037593997346e-06 -2.02441286208858e-06 6.306131010725169e-06 0.0 0.0
0.0 0.0004289040394284318 -0.00023601230103595904 0.00018564132092043344 5.037098011552554e-05 -0.00011290704468378298 0.0 0.0
0.0 0.0010495600962961284 -0.0009606288150867758 0.00076831957716367 0.00019230923792310571 -0.00034274383801113185 0.0 0.0
0.0 0.0020756216761568975 -0.0018964593561814859 0.001558751531754598 0.0003377078244268876 -0.0005689999911504542 0.0 0.0
0.0 0.0033746141376550095 -0.003062555469955696 0.002582850301369648 0.000479705168586048 -0.0007988934156140637 0.0 0.0
0.0 0.005041568777692817 -0.004545678772323378 0.003933667860060255 0.0006120109122631238 -0.0010612422322964304 0.0 0.0
0.0 0.007302218901246687 -0.006506992470606878 0.005776150757267622 0.0007308417133392559 -0.001379407332426846 0.0 0.0
0.0 0.010377988864252959 -0.009210770545435423 0.008374990364306847 0.0008357801811285752 -0.0017845816859798083 0.0 0.0
0.0 0.014808072281339485 -0.012977290655905919 0.01204985284311871 0.0009274378127872093 -0.002349573866640639 0.0 0.0
0.0 0.020591316398572878 -0.018098514847559224 0.017086853496180172 0.0010116613513790449 -0.0031781348966766023 0.0 0.0
0.0 0.028104704408235558 -0.02466261606720576 0.023569926613402375 0.0010926894538033712 -0.004212919906961857 0.0 0.0
0.0 0.03712115265472844 -0.03248726870772537 0.031309000577042785 0.0011782681306825955 -0.005197943463246339 0.0 0.0
0.0 0.04679696526621373 -0.04089787987495516 0.03961463253466723 0.0012832473402879202 -0.0061298626769551706 0.0 0.0
0.0 0.05519731653995799 -0.04815792615897387 0.04671758263386684 0.0014403435251070297 -0.0083529048254911 0.0 0.0
0.0 0.05838246800562136 -0.05065568876450917 0.04900104815971609 0.0016546406047930754 -0.013923073635497605 0.0 0.0
0.0 0.050317783411604346 -0.04262433186244729 0.04075917036838203 0.0018651614940652548 -0.022493291851303596 0.0 0.0
0.0 0.05031778341160483 -0.04262433186244601 0.04075917036838083 0.0018651614940651691 0.02249329185131637 0.0 0.0
0.0 0.05838246800561806 -0.050655688764504964 0.04900104815971226 0.001654640604792694 0.013923073635514097 0.0 0.0
0.0 0.055197316539951385 -0.04815792615896729 0.04671758263386094 0.0014403435251063525 0.008352904825503694 0.0 0.0
0.0 0.04679696526620338 -0.04089787987494586 0.03961463253465843 0.0012832473402874126 0.006129862676958967 0.0 0.0
0.0 0.03712115265471785 -0.032487268707715775 0.03130900057703394 0.0011782681306818294 0.0051979434632479045 0.0 0.0
0.0 0.028104704408225354 -0.024662616067196434 0.023569926613394052 0.0010926894538023759 0.004212919906961706 0.0 0.0
0.0 0.02059131639856085 -0.018098514847548465 0.01708685349617009 0.0010116613513783711 0.003178134896675882 0.0 0.0
0.0 0.01480807228132652 -0.012977290655894258 0.012049852843107719 0.0009274378127865422 0.00234957386663911 0.0 0.0
0.0 0.010377988864239605 -0.009210770545423307 0.008374990364295662 0.0008357801811276423 0.0017845816859783188 0.0 0.0
0.0 0.007302218901234876 -0.0065069924705956845 0.005776150757257299 0.0007308417133383837 0.0013794073324237092 0.0 0.0
0.0 0.005041568777682043 -0.004545678772313057 0.00393366786005077 0.0006120109122622876 0.0010612422322932925 0.0 0.0
0.0 0.0033746141376458675 -0.00306255546994685 0.00258285030136175 0.0004797051685850984 0.0007988934156121269 0.0 0.0
0.0 0.0020756216761500315 -0.0018964593561745864 0.0015587515317487125 0.0003377078244258736 0.0005689999911487143 0.0 0.0
0.0 0.0010495600962909563 -0.0009606288150817146 0.000768319577159517 0.0001923092379221979 0.0003427438380095588 0.0 0.0
0.0 0.000428904039424864 -0.00023601230103348098 0.00018564132091847745 5.0370980115003704e-05 0.00011290704468261965 0.0 0.0
0.0 6.436331433524684e-05 8.895450455917108e-06 -6.8710375938664015e-06 -2.024412862050632e-06 -6.306131010618698e-06 0.0 0.0
0.0 2.505328812069941e-06 2.5317746015063734e-07 -2.0049509595215908e-07 -5.268236419847302e-08 -2.7033984579089287e-07 0.0 0.0
0.0 0.0 0.0 0.0 0.0 0.0 0.0 0.0
0.0 0.0 0.0 0.0 0.0 0.0 0.0 0.0
0.0 0.0 0.0 0.0 0.0 0.0 0.0 0.0
0.0 0.0 0.0 0.0 0.0 0.0 0.0 0.0
0.0 0.0 0.0 0.0 0.0 0.0 0.0 0.0
0.0 0.0 0.0 0.0 0.0 0.0 0.0 0.0
0.0 6.045045006529798e-06 7.320323744054415e-07 -5.709111846573905e-07 -1.6112118974801157e-07 4.873856828000473e-07 0.0 0.0
0.0 0.0001355105902750806 6.255620875247244e-07 -5.37047226685182e-08 -5.718573648560427e-07 -6.663892901988653e-07 0.0 0.0
0.0 0.0005678684129652169 -0.0005286792579244034 0.00041717130018173205 0.00011150795774267139 -0.00013755878507437628 0.0 0.0
0.0 0.0014823611077904187 -0.0013709629578747295 0.0011104322087165097 0.0002605307491582191 -0.0002765026706133987 0.0 0.0
0.0 0.002662695859212799 -0.0024493129136434386 0.0020389254686384206 0.0004103874450050174 -0.00041848137958262906 0.0 0.0
0.0 0.00416906188227374 -0.003794919903947253 0.0032432316253846456 0.0005516882785626058 -0.000572699184890107 0.0 0.0
0.0 0.006112060681448482 -0.005511091450129787 0.004829675133508272 0.0006814163166215125 -0.0007562836242204142 0.0 0.0
0.0 0.008730740120830888 -0.007789973293546076 0.006992443328981253 0.000797529964564824 -0.0009757346312432313 0.0 0.0
0.0 0.012416728710571132 -0.010930356824814292 0.010030147040929114 0.00090020978388518 -0.0012530852303626124 0.0 0.0
0.0 0.017287981418667026 -0.015290698137896616 0.014298643829289694 0.0009920543086069265 -0.001672850917863939 0.0 0.0
0.0 0.023943660294812014 -0.02113387163470954 0.020053985508995797 0.0010798861257137393 -0.002268982004284813 0.0 0.0
0.0 0.03243451072882222 -0.028508880646764788 0.027338723955981536 0.001170156690783243 -0.0029800256950121163 0.0 0.0
0.0 0.04233332332960566 -0.037114331201006066 0.03585013096779256 0.001264200233213485 -0.0035991473253269408 0.0 0.0
0.0 0.05274029793717385 -0.04617330883055405 0.044806568857595166 0.0013667399729588793 -0.0037737817192613193 0.0 0.0
0.0 0.06202985910465486 -0.05424303822724459 0.05275402461272325 0.0014890136145213548 -0.004266970013972541 0.0 0.0
0.0 0.0667411148772353 -0.05812477497757621 0.05636927518191219 0.0017554997956640047 -0.009934616250159931 0.0 0.0
0.0 0.0592046314981396 -0.05031057923085893 0.048253265320662195 0.0020573139101967095 -0.0243904289514128 0.0 0.0
0.0 0.05920463149813869 -0.050310579230857064 0.048253265320660495 0.002057313910196561 0.024390428951421086 0.0 0.0
0.0 0.06674111487722958 -0.05812477497757051 0.05636927518190687 0.0017554997956636459 0.009934616250172418 0.0 0.0
0.0 0.06202985910464673 -0.05424303822723699 0.052754024612716374 0.0014890136145205904 0.004266970013982973 0.0 0.0
0.0 0.05274029793716316 -0.04617330883054431 0.04480656885758627 0.0013667399729580404 0.003773781719263285 0.0 0.0
0.0 0.042333323329593296 -0.037114331200995034 0.03585013096778218 0.0012642002332128354 0.0035991473253285207 0.0 0.0
0.0 0.0324345107288099 -0.028508880646753765 0.027338723955971332 0.0011701566907824353 0.002980025695012166 0.0 0.0
0.0 0.023943660294798847 -0.021133871634697654 0.02005398550898494 0.0010798861257127071 0.002268982004284924 0.0 0.0
0.0 0.017287981418652468 -0.015290698137883613 0.014298643829277494 0.0009920543086061181 0.0016728509178625876 0.0 0.0
0.0 0.012416728710555982 -0.0109303568248005 0.010030147040916208 0.0009002097838842898 0.001253085230362036 0.0 0.0
0.0 0.008730740120815947 -0.007789973293532683 0.006992443328968587 0.0007975299645640946 0.0009757346312412008 0.0 0.0
0.0 0.006112060681436697 -0.005511091450118781 0.004829675133498167 0.0006814163166206139 0.000756283624218273 0.0 0.0
0.0 0.004169061882264068 -0.003794919903937643 0.0032432316253760045 0.0005516882785616389 0.0005726991848892624 0.0 0.0
0.0 0.002662695859204154 -0.002449312913634959 0.0020389254686309357 0.00041038744500402306 0.00041848137958132 0.0 0.0
0.0 0.0014823611077838346 -0.0013709629578680547 0.0011104322087108567 0.0002605307491571976 0.0002765026706120462 0.0 0.0
0.0 0.0005678684129619318 -0.0005286792579211349 0.00041717130017911413 0.00011150795774202076 0.00013755878507342839 0.0 0.0
0.0 0.00013551059027364716 6.255620877697554e-07 -5.370472286774543e-08 -5.718573649021542e-07 6.663892900733543e-07 0.0 0.0
0.0 6.0450450061054435e-06 7.320323743512644e-07 -5.70911184615012e-07 -1.611211897362353e-07 -4.873856827632469e-07 0.0 0.0
0.0 0.0 0.0 0.0 0.0 0.0 0.0 0.0
0.0 0.0 0.0 0.0 0.0 0.0 0.0 0.0
0.0 0.0 0.0 0.0 0.0 0.0 0.0 0.0
0.0 0.0 0.0 0.0 0.0 0.0 0.0 0.0
0.0 0.0 0.0 0.0 0.0 0.0 0.0 0.0
0.0 0.0 0.0 0.0 0.0 0.0 0.0 0.0
0.0 1.3220964968997595e-05 1.7909406834675475e-06 -1.377065411829079e-06 -4.1387527163845865e-07 4.582581898773336e-07 0.0 0.0
0.0 0.0003048943512400908 -7.236943783981651e-05 5.7361886266504896e-05 1.5007551573312073e-05 -1.3973093691568379e-05 0.0 0.0
0.0 0.0008814427858259788 -0.0008211366560828725 0.0006526803096600554 0.00016845634642281704 -7.365324127752335e-05 0.0 0.0
0.0 0.0019352645088398014 -0.0018004632512095473 0.001475793289241043 0.00032466996196850375 -0.00012754713225298294 0.0 0.0
0.0 0.0032877200439644363 -0.0030163263423897907 0.002541416061804972 0.000474910280584819 -0.00018223079736484545 0.0 0.0
0.0 0.005011667042511816 -0.004545218513336719 0.0039304148212185525 0.0006148036921181654 -0.0002491657487379247 0.0 0.0
0.0 0.007257779501893405 -0.006499801971568755 0.00575741812809001 0.0007423838434787433 -0.00033443943745341454 0.0 0.0
0.0 0.010313794144504047 -0.009106888138671838 0.008251196236387367 0.000855691902284472 -0.00042897496492326335 0.0 0.0
0.0 0.01429306929733851 -0.012712778912232514 0.011754653631495325 0.0009581252807371872 -0.0005673152484741474 0.0 0.0
0.0 0.01989134496470292 -0.017654276638645133 0.01660202728485865 0.0010522493537864772 -0.000762875809431499 0.0 0.0
0.0 0.027407466920142107 -0.02419504661885106 0.023049483812844825 0.0011455628060062298 -0.0010157653098751 0.0 0.0
0.0 0.036792767145094725 -0.03235309147510321 0.031108512255789006 0.0012445792193141918 -0.0013117721787577392 0.0 0.0
0.0 0.04756537052529242 -0.04168876545808151 0.04033870146096093 0.0013500639971205956 -0.0015140378644170709 0.0 0.0
0.0 0.058570526536477055 -0.051226897520771184 0.04976991760985405 0.001456979910917137 -0.0013778754247386095 0.0 0.0
0.0 0.06810065092220002 -0.05952045818621463 0.05795944687831315 0.0015610113079014788 -0.000656500272267052 0.0 0.0
0.0 0.074226192443763 -0.06476642741120783 0.0630964767154775 0.001669950695730321 -0.002278120201959065 0.0 0.0
0.0 0.06986676079246959 -0.05987735617927725 0.057488597378863485 0.0023887588004137647 -0.02284261035955932 0.0 0.0
0.0 0.06986676079246754 -0.05987735617927503 0.0574885973788613 0.0023887588004137344 0.022842610359562962 0.0 0.0
0.0 0.07422619244375481 -0.06476642741120071 0.06309647671547051 0.00166995069573022 0.002278120201964888 0.0 0.0
0.0 0.06810065092218695 -0.059520458186203294 0.05795944687830188 0.0015610113079013851 0.0006565002722721247 0.0 0.0
0.0 0.05857052653646401 -0.051226897520759485 0.04976991760984309 0.0014569799109164 0.0013778754247377892 0.0 0.0
0.0 0.04756537052527808 -0.0416887654580687 0.040338701460948874 0.001350063997119809 0.001514037864417678 0.0 0.0
0.0 0.036792767145078994 -0.03235309147508933 0.031108512255775683 0.0012445792193136584 0.00131177217875724 0.0 0.0
0.0 0.027407466920126716 -0.024195046618837368 0.023049483812831943 0.0011455628060054316 0.0010157653098753975 0.0 0.0
0.0 0.01989134496468708 -0.017654276638631027 0.016602027284845437 0.0010522493537855886 0.0007628758094308017 0.0 0.0
0.0 0.01429306929732235 -0.012712778912217977 0.011754653631481815 0.0009581252807361595 0.0005673152484742309 0.0 0.0
0.0 0.010313794144489068 -0.009106888138658153 0.00825119623637461 0.0008556919022835425 0.0004289749649223059 0.0 0.0
0.0 0.007257779501879898 -0.006499801971556685 0.005757418128078739 0.0007423838434779466 0.0003344394374526541 0.0 0.0
0.0 0.00501166704250012 -0.004545218513325707 0.00393041482120839 0.0006148036921173169 0.00024916574873742143 0.0 0.0
0.0 0.003287720043955263 -0.003016326342380701 0.002541416061796941 0.00047491028058376016 0.00018223079736424356 0.0 0.0
0.0 0.0019352645088331747 -0.0018004632512027365 0.001475793289235322 0.0003246699619674141 0.00012754713225261426 0.0 0.0
0.0 0.0008814427858216665 -0.0008211366560782205 0.0006526803096562631 0.00016845634642195738 7.365324127711813e-05 0.0 0.0
0.0 0.0003048943512375413 -7.236943783854574e-05 5.736188626550135e-05 1.5007551573044732e-05 1.3973093691360886e-05 0.0 0.0
0.0 1.3220964968241572e-05 1.7909406833667015e-06 -1.377065411752633e-06 -4.1387527161402535e-07 -4.582581898590264e-07 0.0 0.0
0.0 0.0 0.0 0.0 0.0 0.0 0.0 0.0
0.0 0.0 0.0 0.0 0.0 0.0 0.0 0.0
0.0 0.0 0.0 0.0 0.0 0.0 0.0 0.0