# vtk DataFile Version 3.0
Some data
ASCII
DATASET UNSTRUCTURED_GRID
POINTS 861 float
0.0 0.0 0.0
0.4 0.0 0.0
0.8 0.0 0.0
1.2000000000000002 0.0 0.0
1.6 0.0 0.0
2.0 0.0 0.0
2.4000000000000004 0.0 0.0
2.8000000000000003 0.0 0.0
3.2 0.0 0.0
3.6 0.0 0.0
4.0 0.0 0.0
4.4 0.0 0.0
4.800000000000001 0.0 0.0
5.2 0.0 0.0
5.6000000000000005 0.0 0.0
6.0 0.0 0.0
6.4 0.0 0.0
6.800000000000001 0.0 0.0
7.2 0.0 0.0
7.6000000000000005 0.0 0.0
8.0 0.0 0.0
8.4 0.0 0.0
8.8 0.0 0.0
9.200000000000001 0.0 0.0
9.600000000000001 0.0 0.0
10.0 0.0 0.0
10.4 0.0 0.0
10.8 0.0 0.0
11.200000000000001 0.0 0.0
11.600000000000001 0.0 0.0
12.0 0.0 0.0
12.4 0.0 0.0
12.8 0.0 0.0
13.200000000000001 0.0 0.0
13.600000000000001 0.0 0.0
14.0 0.0 0.0
14.4 0.0 0.0
14.8 0.0 0.0
15.200000000000001 0.0 0.0
15.600000000000001 0.0 0.0
16.0 0.0 0.0
0.0 0.1 0.0
0.4 0.1 0.0
0.8 0.1 0.0
1.2000000000000002 0.1 0.0
1.6 0.1 0.0
2.0 0.1 0.0
2.4000000000000004 0.1 0.0
2.8000000000000003 0.1 0.0
3.2 0.1 0.0
3.6 0.1 0.0
4.0 0.1 0.0
4.4 0.1 0.0
4.800000000000001 0.1 0.0
5.2 0.1 0.0
5.6000000000000005 0.1 0.0
6.0 0.1 0.0
6.4 0.1 0.0
6.800000000000001 0.1 0.0
7.2 0.1 0.0
7.6000000000000005 0.1 0.0
8.0 0.1 0.0
8.4 0.1 0.0
8.8 0.1 0.0
9.200000000000001 0.1 0.0
9.600000000000001 0.1 0.0
10.0 0.1 0.0
10.4 0.1 0.0
10.8 0.1 0.0
11.200000000000001 0.1 0.0
11.600000000000001 0.1 0.0
12.0 0.1 0.0
12.4 0.1 0.0
12.8 0.1 0.0
13.200000000000001 0.1 0.0
13.600000000000001 0.1 0.0
14.0 0.1 0.0
14.4 0.1 0.0
14.8 0.1 0.0
15.200000000000001 0.1 0.0
15.600000000000001 0.1 0.0
16.0 0.1 0.0
0.0 0.2 0.0
0.4 0.2 0.0
0.8 0.2 0.0
1.2000000000000002 0.2 0.0
1.6 0.2 0.0
2.0 0.2 0.0
2.4000000000000004 0.2 0.0
2.8000000000000003 0.2 0.0
3.2 0.2 0.0
3.6 0.2 0.0
4.0 0.2 0.0
4.4 0.2 0.0
4.800000000000001 0.2 0.0
5.2 0.2 0.0
5.6000000000000005 0.2 0.0
6.0 0.2 0.0
6.4 0.2 0.0
6.800000000000001 0.2 0.0
7.2 0.2 0.0
7.6000000000000005 0.2 0.0
8.0 0.2 0.0
8.4 0.2 0.0
8.8 0.2 0.0
9.200000000000001 0.2 0.0
9.600000000000001 0.2 0.0
10.0 0.2 0.0
10.4 0.2 0.0
10.8 0.2 0.0
11.200000000000001 0.2 0.0
11.600000000000001 0.2 0.0
12.0 0.2 0.0
12.4 0.2 0.0
12.8 0.2 0.0
13.200000000000001 0.2 0.0
13.600000000000001 0.2 0.0
14.0 0.2 0.0
14.4 0.2 0.0
14.8 0.2 0.0
15.200000000000001 0.2 0.0
15.600000000000001 0.2 0.0
16.0 0.2 0.0
0.0 0.30000000000000004 0.0
0.4 0.30000000000000004 0.0
0.8 0.30000000000000004 0.0
1.2000000000000002 0.30000000000000004 0.0
1.6 0.30000000000000004 0.0
2.0 0.30000000000000004 0.0
2.4000000000000004 0.30000000000000004 0.0
2.8000000000000003 0.30000000000000004 0.0
3.2 0.30000000000000004 0.0
3.6 0.30000000000000004 0.0
4.0 0.30000000000000004 0.0
4.4 0.30000000000000004 0.0
4.800000000000001 0.30000000000000004 0.0
5.2 0.30000000000000004 0.0
5.6000000000000005 0.30000000000000004 0.0
6.0 0.30000000000000004 0.0
6.4 0.30000000000000004 0.0
6.800000000000001 0.30000000000000004 0.0
7.2 0.30000000000000004 0.0
7.6000000000000005 0.30000000000000004 0.0
8.0 0.30000000000000004 0.0
8.4 0.30000000000000004 0.0
8.8 0.30000000000000004 0.0
9.200000000000001 0.30000000000000004 0.0
9.600000000000001 0.30000000000000004 0.0
10.0 0.30000000000000004 0.0
10.4 0.30000000000000004 0.0
10.8 0.30000000000000004 0.0
11.200000000000001 0.30000000000000004 0.0
11.600000000000001 0.30000000000000004 0.0
12.0 0.30000000000000004 0.0
12.4 0.30000000000000004 0.0
12.8 0.30000000000000004 0.0
13.200000000000001 0.30000000000000004 0.0
13.600000000000001 0.30000000000000004 0.0
14.0 0.30000000000000004 0.0
14.4 0.30000000000000004 0.0
14.8 0.30000000000000004 0.0
15.200000000000001 0.30000000000000004 0.0
15.600000000000001 0.30000000000000004 0.0
16.0 0.30000000000000004 0.0
0.0 0.4 0.0
0.4 0.4 0.0
0.8 0.4 0.0
1.2000000000000002 0.4 0.0
1.6 0.4 0.0
2.0 0.4 0.0
2.4000000000000004 0.4 0.0
2.8000000000000003 0.4 0.0
3.2 0.4 0.0
3.6 0.4 0.0
4.0 0.4 0.0
4.4 0.4 0.0
4.800000000000001 0.4 0.0
5.2 0.4 0.0
5.6000000000000005 0.4 0.0
6.0 0.4 0.0
6.4 0.4 0.0
6.800000000000001 0.4 0.0
7.2 0.4 0.0
7.6000000000000005 0.4 0.0
8.0 0.4 0.0
8.4 0.4 0.0
8.8 0.4 0.0
9.200000000000001 0.4 0.0
9.600000000000001 0.4 0.0
10.0 0.4 0.0
10.4 0.4 0.0
10.8 0.4 0.0
11.200000000000001 0.4 0.0
11.600000000000001 0.4 0.0
12.0 0.4 0.0
12.4 0.4 0.0
12.8 0.4 0.0
13.200000000000001 0.4 0.0
13.600000000000001 0.4 0.0
14.0 0.4 0.0
14.4 0.4 0.0
14.8 0.4 0.0
15.200000000000001 0.4 0.0
15.600000000000001 0.4 0.0
16.0 0.4 0.0
0.0 0.5 0.0
0.4 0.5 0.0
0.8 0.5 0.0
1.2000000000000002 0.5 0.0
1.6 0.5 0.0
2.0 0.5 0.0
2.4000000000000004 0.5 0.0
2.8000000000000003 0.5 0.0
3.2 0.5 0.0
3.6 0.5 0.0
4.0 0.5 0.0
4.4 0.5 0.0
4.800000000000001 0.5 0.0
5.2 0.5 0.0
5.6000000000000005 0.5 0.0
6.0 0.5 0.0
6.4 0.5 0.0
6.800000000000001 0.5 0.0
7.2 0.5 0.0
7.6000000000000005 0.5 0.0
8.0 0.5 0.0
8.4 0.5 0.0
8.8 0.5 0.0
9.200000000000001 0.5 0.0
9.600000000000001 0.5 0.0
10.0 0.5 0.0
10.4 0.5 0.0
10.8 0.5 0.0
11.200000000000001 0.5 0.0
11.600000000000001 0.5 0.0
12.0 0.5 0.0
12.4 0.5 0.0
12.8 0.5 0.0
13.200000000000001 0.5 0.0
13.600000000000001 0.5 0.0
14.0 0.5 0.0
14.4 0.5 0.0
14.8 0.5 0.0
15.200000000000001 0.5 0.0
15.600000000000001 0.5 0.0
16.0 0.5 0.0
0.0 0.6000000000000001 0.0
0.4 0.6000000000000001 0.0
0.8 0.6000000000000001 0.0
1.2000000000000002 0.6000000000000001 0.0
1.6 0.6000000000000001 0.0
2.0 0.6000000000000001 0.0
2.4000000000000004 0.6000000000000001 0.0
2.8000000000000003 0.6000000000000001 0.0
3.2 0.6000000000000001 0.0
3.6 0.6000000000000001 0.0
4.0 0.6000000000000001 0.0
4.4 0.6000000000000001 0.0
4.800000000000001 0.6000000000000001 0.0
5.2 0.6000000000000001 0.0
5.6000000000000005 0.6000000000000001 0.0
6.0 0.6000000000000001 0.0
6.4 0.6000000000000001 0.0
6.800000000000001 0.6000000000000001 0.0
7.2 0.6000000000000001 0.0
7.6000000000000005 0.6000000000000001 0.0
8.0 0.6000000000000001 0.0
8.4 0.6000000000000001 0.0
8.8 0.6000000000000001 0.0
9.200000000000001 0.6000000000000001 0.0
9.600000000000001 0.6000000000000001 0.0
10.0 0.6000000000000001 0.0
10.4 0.6000000000000001 0.0
10.8 0.6000000000000001 0.0
11.200000000000001 0.6000000000000001 0.0
11.600000000000001 0.6000000000000001 0.0
12.0 0.6000000000000001 0.0
12.4 0.6000000000000001 0.0
12.8 0.6000000000000001 0.0
13.200000000000001 0.6000000000000001 0.0
13.600000000000001 0.6000000000000001 0.0
14.0 0.6000000000000001 0.0
14.4 0.6000000000000001 0.0
14.8 0.6000000000000001 0.0
15.200000000000001 0.6000000000000001 0.0
15.600000000000001 0.6000000000000001 0.0
16.0 0.6000000000000001 0.0
0.0 0.7000000000000001 0.0
0.4 0.7000000000000001 0.0
0.8 0.7000000000000001 0.0
1.2000000000000002 0.7000000000000001 0.0
1.6 0.7000000000000001 0.0
2.0 0.7000000000000001 0.0
2.4000000000000004 0.7000000000000001 0.0
2.8000000000000003 0.7000000000000001 0.0
3.2 0.7000000000000001 0.0
3.6 0.7000000000000001 0.0
4.0 0.7000000000000001 0.0
4.4 0.7000000000000001 0.0
4.800000000000001 0.7000000000000001 0.0
5.2 0.7000000000000001 0.0
5.6000000000000005 0.7000000000000001 0.0
6.0 0.7000000000000001 0.0
6.4 0.7000000000000001 0.0
6.800000000000001 0.7000000000000001 0.0
7.2 0.7000000000000001 0.0
7.6000000000000005 0.7000000000000001 0.0
8.0 0.7000000000000001 0.0
8.4 0.7000000000000001 0.0
8.8 0.7000000000000001 0.0
9.200000000000001 0.7000000000000001 0.0
9.600000000000001 0.7000000000000001 0.0
10.0 0.7000000000000001 0.0
10.4 0.7000000000000001 0.0
10.8 0.7000000000000001 0.0
11.200000000000001 0.7000000000000001 0.0
11.600000000000001 0.7000000000000001 0.0
12.0 0.7000000000000001 0.0
12.4 0.7000000000000001 0.0
12.8 0.7000000000000001 0.0
13.200000000000001 0.7000000000000001 0.0
13.600000000000001 0.7000000000000001 0.0
14.0 0.7000000000000001 0.0
14.4 0.7000000000000001 0.0
14.8 0.7000000000000001 0.0
15.200000000000001 0.7000000000000001 0.0
15.600000000000001 0.7000000000000001 0.0
16.0 0.7000000000000001 0.0
0.0 0.8 0.0
0.4 0.8 0.0
0.8 0.8 0.0
1.2000000000000002 0.8 0.0
1.6 0.8 0.0
2.0 0.8 0.0
2.4000000000000004 0.8 0.0
2.8000000000000003 0.8 0.0
3.2 0.8 0.0
3.6 0.8 0.0
4.0 0.8 0.0
4.4 0.8 0.0
4.800000000000001 0.8 0.0
5.2 0.8 0.0
5.6000000000000005 0.8 0.0
6.0 0.8 0.0
6.4 0.8 0.0
6.800000000000001 0.8 0.0
7.2 0.8 0.0
7.6000000000000005 0.8 0.0
8.0 0.8 0.0
8.4 0.8 0.0
8.8 0.8 0.0
9.200000000000001 0.8 0.0
9.600000000000001 0.8 0.0
10.0 0.8 0.0
10.4 0.8 0.0
10.8 0.8 0.0
11.200000000000001 0.8 0.0
11.600000000000001 0.8 0.0
12.0 0.8 0.0
12.4 0.8 0.0
12.8 0.8 0.0
13.200000000000001 0.8 0.0
13.600000000000001 0.8 0.0
14.0 0.8 0.0
14.4 0.8 0.0
14.8 0.8 0.0
15.200000000000001 0.8 0.0
15.600000000000001 0.8 0.0
16.0 0.8 0.0
0.0 0.9 0.0
0.4 0.9 0.0
0.8 0.9 0.0
1.2000000000000002 0.9 0.0
1.6 0.9 0.0
2.0 0.9 0.0
2.4000000000000004 0.9 0.0
2.8000000000000003 0.9 0.0
3.2 0.9 0.0
3.6 0.9 0.0
4.0 0.9 0.0
4.4 0.9 0.0
4.800000000000001 0.9 0.0
5.2 0.9 0.0
5.6000000000000005 0.9 0.0
6.0 0.9 0.0
6.4 0.9 0.0
6.800000000000001 0.9 0.0
7.2 0.9 0.0
7.6000000000000005 0.9 0.0
8.0 0.9 0.0
8.4 0.9 0.0
8.8 0.9 0.0
9.200000000000001 0.9 0.0
9.600000000000001 0.9 0.0
10.0 0.9 0.0
10.4 0.9 0.0
10.8 0.9 0.0
11.200000000000001 0.9 0.0
11.600000000000001 0.9 0.0
12.0 0.9 0.0
12.4 0.9 0.0
12.8 0.9 0.0
13.200000000000001 0.9 0.0
13.600000000000001 0.9 0.0
14.0 0.9 0.0
14.4 0.9 0.0
14.8 0.9 0.0
15.200000000000001 0.9 0.0
15.600000000000001 0.9 0.0
16.0 0.9 0.0
0.0 1.0 0.0
0.4 1.0 0.0
0.8 1.0 0.0
1.2000000000000002 1.0 0.0
1.6 1.0 0.0
2.0 1.0 0.0
2.4000000000000004 1.0 0.0
2.8000000000000003 1.0 0.0
3.2 1.0 0.0
3.6 1.0 0.0
4.0 1.0 0.0
4.4 1.0 0.0
4.800000000000001 1.0 0.0
5.2 1.0 0.0
5.6000000000000005 1.0 0.0
6.0 1.0 0.0
6.4 1.0 0.0
6.800000000000001 1.0 0.0
7.2 1.0 0.0
7.6000000000000005 1.0 0.0
8.0 1.0 0.0
8.4 1.0 0.0
8.8 1.0 0.0
9.200000000000001 1.0 0.0
9.600000000000001 1.0 0.0
10.0 1.0 0.0
10.4 1.0 0.0
10.8 1.0 0.0
11.200000000000001 1.0 0.0
11.600000000000001 1.0 0.0
12.0 1.0 0.0
12.4 1.0 0.0
12.8 1.0 0.0
13.200000000000001 1.0 0.0
13.600000000000001 1.0 0.0
14.0 1.0 0.0
14.4 1.0 0.0
14.8 1.0 0.0
15.200000000000001 1.0 0.0
15.600000000000001 1.0 0.0
16.0 1.0 0.0
0.0 1.1 0.0
0.4 1.1 0.0
0.8 1.1 0.0
1.2000000000000002 1.1 0.0
1.6 1.1 0.0
2.0 1.1 0.0
2.4000000000000004 1.1 0.0
2.8000000000000003 1.1 0.0
3.2 1.1 0.0
3.6 1.1 0.0
4.0 1.1 0.0
4.4 1.1 0.0
4.800000000000001 1.1 0.0
5.2 1.1 0.0
5.6000000000000005 1.1 0.0
6.0 1.1 0.0
6.4 1.1 0.0
6.800000000000001 1.1 0.0
7.2 1.1 0.0
7.6000000000000005 1.1 0.0
8.0 1.1 0.0
8.4 1.1 0.0
8.8 1.1 0.0
9.200000000000001 1.1 0.0
9.600000000000001 1.1 0.0
10.0 1.1 0.0
10.4 1.1 0.0
10.8 1.1 0.0
11.200000000000001 1.1 0.0
11.600000000000001 1.1 0.0
12.0 1.1 0.0
12.4 1.1 0.0
12.8 1.1 0.0
13.200000000000001 1.1 0.0
13.600000000000001 1.1 0.0
14.0 1.1 0.0
14.4 1.1 0.0
14.8 1.1 0.0
15.200000000000001 1.1 0.0
15.600000000000001 1.1 0.0
16.0 1.1 0.0
0.0 1.2000000000000002 0.0
0.4 1.2000000000000002 0.0
0.8 1.2000000000000002 0.0
1.2000000000000002 1.2000000000000002 0.0
1.6 1.2000000000000002 0.0
2.0 1.2000000000000002 0.0
2.4000000000000004 1.2000000000000002 0.0
2.8000000000000003 1.2000000000000002 0.0
3.2 1.2000000000000002 0.0
3.6 1.2000000000000002 0.0
4.0 1.2000000000000002 0.0
4.4 1.2000000000000002 0.0
4.800000000000001 1.2000000000000002 0.0
5.2 1.2000000000000002 0.0
5.6000000000000005 1.2000000000000002 0.0
6.0 1.2000000000000002 0.0
6.4 1.2000000000000002 0.0
6.800000000000001 1.2000000000000002 0.0
7.2 1.2000000000000002 0.0
7.6000000000000005 1.2000000000000002 0.0
8.0 1.2000000000000002 0.0
8.4 1.2000000000000002 0.0
8.8 1.2000000000000002 0.0
9.200000000000001 1.2000000000000002 0.0
9.600000000000001 1.2000000000000002 0.0
10.0 1.2000000000000002 0.0
10.4 1.2000000000000002 0.0
10.8 1.2000000000000002 0.0
11.200000000000001 1.2000000000000002 0.0
11.600000000000001 1.2000000000000002 0.0
12.0 1.2000000000000002 0.0
12.4 1.2000000000000002 0.0
12.8 1.2000000000000002 0.0
13.200000000000001 1.2000000000000002 0.0
13.600000000000001 1.2000000000000002 0.0
14.0 1.2000000000000002 0.0
14.4 1.2000000000000002 0.0
14.8 1.2000000000000002 0.0
15.200000000000001 1.2000000000000002 0.0
15.600000000000001 1.2000000000000002 0.0
16.0 1.2000000000000002 0.0
0.0 1.3 0.0
0.4 1.3 0.0
0.8 1.3 0.0
1.2000000000000002 1.3 0.0
1.6 1.3 0.0
2.0 1.3 0.0
2.4000000000000004 1.3 0.0
2.8000000000000003 1.3 0.0
3.2 1.3 0.0
3.6 1.3 0.0
4.0 1.3 0.0
4.4 1.3 0.0
4.800000000000001 1.3 0.0
5.2 1.3 0.0
5.6000000000000005 1.3 0.0
6.0 1.3 0.0
6.4 1.3 0.0
6.800000000000001 1.3 0.0
7.2 1.3 0.0
7.6000000000000005 1.3 0.0
8.0 1.3 0.0
8.4 1.3 0.0
8.8 1.3 0.0
9.200000000000001 1.3 0.0
9.600000000000001 1.3 0.0
10.0 1.3 0.0
10.4 1.3 0.0
10.8 1.3 0.0
11.200000000000001 1.3 0.0
11.600000000000001 1.3 0.0
12.0 1.3 0.0
12.4 1.3 0.0
12.8 1.3 0.0
13.200000000000001 1.3 0.0
13.600000000000001 1.3 0.0
14.0 1.3 0.0
14.4 1.3 0.0
14.8 1.3 0.0
15.200000000000001 1.3 0.0
15.600000000000001 1.3 0.0
16.0 1.3 0.0
0.0 1.4000000000000001 0.0
0.4 1.4000000000000001 0.0
0.8 1.4000000000000001 0.0
1.2000000000000002 1.4000000000000001 0.0
1.6 1.4000000000000001 0.0
2.0 1.4000000000000001 0.0
2.4000000000000004 1.4000000000000001 0.0
2.8000000000000003 1.4000000000000001 0.0
3.2 1.4000000000000001 0.0
3.6 1.4000000000000001 0.0
4.0 1.4000000000000001 0.0
4.4 1.4000000000000001 0.0
4.800000000000001 1.4000000000000001 0.0
5.2 1.4000000000000001 0.0
5.6000000000000005 1.4000000000000001 0.0
6.0 1.4000000000000001 0.0
6.4 1.4000000000000001 0.0
6.800000000000001 1.4000000000000001 0.0
7.2 1.4000000000000001 0.0
7.6000000000000005 1.4000000000000001 0.0
8.0 1.4000000000000001 0.0
8.4 1.4000000000000001 0.0
8.8 1.4000000000000001 0.0
9.200000000000001 1.4000000000000001 0.0
9.600000000000001 1.4000000000000001 0.0
10.0 1.4000000000000001 0.0
10.4 1.4000000000000001 0.0
10.8 1.4000000000000001 0.0
11.200000000000001 1.4000000000000001 0.0
11.600000000000001 1.4000000000000001 0.0
12.0 1.4000000000000001 0.0
12.4 1.4000000000000001 0.0
12.8 1.4000000000000001 0.0
13.200000000000001 1.4000000000000001 0.0
13.600000000000001 1.4000000000000001 0.0
14.0 1.4000000000000001 0.0
14.4 1.4000000000000001 0.0
14.8 1.4000000000000001 0.0
15.200000000000001 1.4000000000000001 0.0
15.600000000000001 1.4000000000000001 0.0
16.0 1.4000000000000001 0.0
0.0 1.5 0.0
0.4 1.5 0.0
0.8 1.5 0.0
1.2000000000000002 1.5 0.0
1.6 1.5 0.0
2.0 1.5 0.0
2.4000000000000004 1.5 0.0
2.8000000000000003 1.5 0.0
3.2 1.5 0.0
3.6 1.5 0.0
4.0 1.5 0.0
4.4 1.5 0.0
4.800000000000001 1.5 0.0
5.2 1.5 0.0
5.6000000000000005 1.5 0.0
6.0 1.5 0.0
6.4 1.5 0.0
6.800000000000001 1.5 0.0
7.2 1.5 0.0
7.6000000000000005 1.5 0.0
8.0 1.5 0.0
8.4 1.5 0.0
8.8 1.5 0.0
9.200000000000001 1.5 0.0
9.600000000000001 1.5 0.0
10.0 1.5 0.0
10.4 1.5 0.0
10.8 1.5 0.0
11.200000000000001 1.5 0.0
11.600000000000001 1.5 0.0
12.0 1.5 0.0
12.4 1.5 0.0
12.8 1.5 0.0
13.200000000000001 1.5 0.0
13.600000000000001 1.5 0.0
14.0 1.5 0.0
14.4 1.5 0.0
14.8 1.5 0.0
15.200000000000001 1.5 0.0
15.600000000000001 1.5 0.0
16.0 1.5 0.0
0.0 1.6 0.0
0.4 1.6 0.0
0.8 1.6 0.0
1.2000000000000002 1.6 0.0
1.6 1.6 0.0
2.0 1.6 0.0
2.4000000000000004 1.6 0.0
2.8000000000000003 1.6 0.0
3.2 1.6 0.0
3.6 1.6 0.0
4.0 1.6 0.0
4.4 1.6 0.0
4.800000000000001 1.6 0.0
5.2 1.6 0.0
5.6000000000000005 1.6 0.0
6.0 1.6 0.0
6.4 1.6 0.0
6.800000000000001 1.6 0.0
7.2 1.6 0.0
7.6000000000000005 1.6 0.0
8.0 1.6 0.0
8.4 1.6 0.0
8.8 1.6 0.0
9.200000000000001 1.6 0.0
9.600000000000001 1.6 0.0
10.0 1.6 0.0
10.4 1.6 0.0
10.8 1.6 0.0
11.200000000000001 1.6 0.0
11.600000000000001 1.6 0.0
12.0 1.6 0.0
12.4 1.6 0.0
12.8 1.6 0.0
13.200000000000001 1.6 0.0
13.600000000000001 1.6 0.0
14.0 1.6 0.0
14.4 1.6 0.0
14.8 1.6 0.0
15.200000000000001 1.6 0.0
15.600000000000001 1.6 0.0
16.0 1.6 0.0
0.0 1.7000000000000002 0.0
0.4 1.7000000000000002 0.0
0.8 1.7000000000000002 0.0
1.2000000000000002 1.7000000000000002 0.0
1.6 1.7000000000000002 0.0
2.0 1.7000000000000002 0.0
2.4000000000000004 1.7000000000000002 0.0
2.8000000000000003 1.7000000000000002 0.0
3.2 1.7000000000000002 0.0
3.6 1.7000000000000002 0.0
4.0 1.7000000000000002 0.0
4.4 1.7000000000000002 0.0
4.800000000000001 1.7000000000000002 0.0
5.2 1.7000000000000002 0.0
5.6000000000000005 1.7000000000000002 0.0
6.0 1.7000000000000002 0.0
6.4 1.7000000000000002 0.0
6.800000000000001 1.7000000000000002 0.0
7.2 1.7000000000000002 0.0
7.6000000000000005 1.7000000000000002 0.0
8.0 1.7000000000000002 0.0
8.4 1.7000000000000002 0.0
8.8 1.7000000000000002 0.0
9.200000000000001 1.7000000000000002 0.0
9.600000000000001 1.7000000000000002 0.0
10.0 1.7000000000000002 0.0
10.4 1.7000000000000002 0.0
10.8 1.7000000000000002 0.0
11.200000000000001 1.7000000000000002 0.0
11.600000000000001 1.7000000000000002 0.0
12.0 1.7000000000000002 0.0
12.4 1.7000000000000002 0.0
12.8 1.7000000000000002 0.0
13.200000000000001 1.7000000000000002 0.0
13.600000000000001 1.7000000000000002 0.0
14.0 1.7000000000000002 0.0
14.4 1.7000000000000002 0.0
14.8 1.7000000000000002 0.0
15.200000000000001 1.7000000000000002 0.0
15.600000000000001 1.7000000000000002 0.0
16.0 1.7000000000000002 0.0
0.0 1.8 0.0
0.4 1.8 0.0
0.8 1.8 0.0
1.2000000000000002 1.8 0.0
1.6 1.8 0.0
2.0 1.8 0.0
2.4000000000000004 1.8 0.0
2.8000000000000003 1.8 0.0
3.2 1.8 0.0
3.6 1.8 0.0
4.0 1.8 0.0
4.4 1.8 0.0
4.800000000000001 1.8 0.0
5.2 1.8 0.0
5.6000000000000005 1.8 0.0
6.0 1.8 0.0
6.4 1.8 0.0
6.800000000000001 1.8 0.0
7.2 1.8 0.0
7.6000000000000005 1.8 0.0
8.0 1.8 0.0
8.4 1.8 0.0
8.8 1.8 0.0
9.200000000000001 1.8 0.0
9.600000000000001 1.8 0.0
10.0 1.8 0.0
10.4 1.8 0.0
10.8 1.8 0.0
11.200000000000001 1.8 0.0
11.600000000000001 1.8 0.0
12.0 1.8 0.0
12.4 1.8 0.0
12.8 1.8 0.0
13.200000000000001 1.8 0.0
13.600000000000001 1.8 0.0
14.0 1.8 0.0
14.4 1.8 0.0
14.8 1.8 0.0
15.200000000000001 1.8 0.0
15.600000000000001 1.8 0.0
16.0 1.8 0.0
0.0 1.9000000000000001 0.0
0.4 1.9000000000000001 0.0
0.8 1.9000000000000001 0.0
1.2000000000000002 1.9000000000000001 0.0
1.6 1.9000000000000001 0.0
2.0 1.9000000000000001 0.0
2.4000000000000004 1.9000000000000001 0.0
2.8000000000000003 1.9000000000000001 0.0
3.2 1.9000000000000001 0.0
3.6 1.9000000000000001 0.0
4.0 1.9000000000000001 0.0
4.4 1.9000000000000001 0.0
4.800000000000001 1.9000000000000001 0.0
5.2 1.9000000000000001 0.0
5.6000000000000005 1.9000000000000001 0.0
6.0 1.9000000000000001 0.0
6.4 1.9000000000000001 0.0
6.800000000000001 1.9000000000000001 0.0
7.2 1.9000000000000001 0.0
7.6000000000000005 1.9000000000000001 0.0
8.0 1.9000000000000001 0.0
8.4 1.9000000000000001 0.0
8.8 1.9000000000000001 0.0
9.200000000000001 1.9000000000000001 0.0
9.600000000000001 1.9000000000000001 0.0
10.0 1.9000000000000001 0.0
10.4 1.9000000000000001 0.0
10.8 1.9000000000000001 0.0
11.200000000000001 1.9000000000000001 0.0
11.600000000000001 1.9000000000000001 0.0
12.0 1.9000000000000001 0.0
12.4 1.9000000000000001 0.0
12.8 1.9000000000000001 0.0
13.200000000000001 1.9000000000000001 0.0
13.600000000000001 1.9000000000000001 0.0
14.0 1.9000000000000001 0.0
14.4 1.9000000000000001 0.0
14.8 1.9000000000000001 0.0
15.200000000000001 1.9000000000000001 0.0
15.600000000000001 1.9000000000000001 0.0
16.0 1.9000000000000001 0.0
0.0 2.0 0.0
0.4 2.0 0.0
0.8 2.0 0.0
1.2000000000000002 2.0 0.0
1.6 2.0 0.0
2.0 2.0 0.0
2.4000000000000004 2.0 0.0
2.8000000000000003 2.0 0.0
3.2 2.0 0.0
3.6 2.0 0.0
4.0 2.0 0.0
4.4 2.0 0.0
4.800000000000001 2.0 0.0
5.2 2.0 0.0
5.6000000000000005 2.0 0.0
6.0 2.0 0.0
6.4 2.0 0.0
6.800000000000001 2.0 0.0
7.2 2.0 0.0
7.6000000000000005 2.0 0.0
8.0 2.0 0.0
8.4 2.0 0.0
8.8 2.0 0.0
9.200000000000001 2.0 0.0
9.600000000000001 2.0 0.0
10.0 2.0 0.0
10.4 2.0 0.0
10.8 2.0 0.0
11.200000000000001 2.0 0.0
11.600000000000001 2.0 0.0
12.0 2.0 0.0
12.4 2.0 0.0
12.8 2.0 0.0
13.200000000000001 2.0 0.0
13.600000000000001 2.0 0.0
14.0 2.0 0.0
14.4 2.0 0.0
14.8 2.0 0.0
15.200000000000001 2.0 0.0
15.600000000000001 2.0 0.0
16.0 2.0 0.0
CELLS 800 4000
4 0 1 42 41
4 1 2 43 42
4 2 3 44 43
4 3 4 45 44
4 4 5 46 45
4 5 6 47 46
4 6 7 48 47
4 7 8 49 48
4 8 9 50 49
4 9 10 51 50
4 10 11 52 51
4 11 12 53 52
4 12 13 54 53
4 13 14 55 54
4 14 15 56 55
4 15 16 57 56
4 16 17 58 57
4 17 18 59 58
4 18 19 60 59
4 19 20 61 60
4 20 21 62 61
4 21 22 63 62
4 22 23 64 63
4 23 24 65 64
4 24 25 66 65
4 25 26 67 66
4 26 27 68 67
4 27 28 69 68
4 28 29 70 69
4 29 30 71 70
4 30 31 72 71
4 31 32 73 72
4 32 33 74 73
4 33 34 75 74
4 34 35 76 75
4 35 36 77 76
4 36 37 78 77
4 37 38 79 78
4 38 39 80 79
4 39 40 81 80
4 41 42 83 82
4 42 43 84 83
4 43 44 85 84
4 44 45 86 85
4 45 46 87 86
4 46 47 88 87
4 47 48 89 88
4 48 49 90 89
4 49 50 91 90
4 50 51 92 91
4 51 52 93 92
4 52 53 94 93
4 53 54 95 94
4 54 55 96 95
4 55 56 97 96
4 56 57 98 97
4 57 58 99 98
4 58 59 100 99
4 59 60 101 100
4 60 61 102 101
4 61 62 103 102
4 62 63 104 103
4 63 64 105 104
4 64 65 106 105
4 65 66 107 106
4 66 67 108 107
4 67 68 109 108
4 68 69 110 109
4 69 70 111 110
4 70 71 112 111
4 71 72 113 112
4 72 73 114 113
4 73 74 115 114
4 74 75 116 115
4 75 76 117 116
4 76 77 118 117
4 77 78 119 118
4 78 79 120 119
4 79 80 121 120
4 80 81 122 121
4 82 83 124 123
4 83 84 125 124
4 84 85 126 125
4 85 86 127 126
4 86 87 128 127
4 87 88 129 128
4 88 89 130 129
4 89 90 131 130
4 90 91 132 131
4 91 92 133 132
4 92 93 134 133
4 93 94 135 134
4 94 95 136 135
4 95 96 137 136
4 96 97 138 137
4 97 98 139 138
4 98 99 140 139
4 99 100 141 140
4 100 101 142 141
4 101 102 143 142
4 102 103 144 143
4 103 104 145 144
4 104 105 146 145
4 105 106 147 146
4 106 107 148 147
4 107 108 149 148
4 108 109 150 149
4 109 110 151 150
4 110 111 152 151
4 111 112 153 152
4 112 113 154 153
4 113 114 155 154
4 114 115 156 155
4 115 116 157 156
4 116 117 158 157
4 117 118 159 158
4 118 119 160 159
4 119 120 161 160
4 120 121 162 161
4 121 122 163 162
4 123 124 165 164
4 124 125 166 165
4 125 126 167 166
4 126 127 168 167
4 127 128 169 168
4 128 129 170 169
4 129 130 171 170
4 130 131 172 171
4 131 132 173 172
4 132 133 174 173
4 133 134 175 174
4 134 135 176 175
4 135 136 177 176
4 136 137 178 177
4 137 138 179 178
4 138 139 180 179
4 139 140 181 180
4 140 141 182 181
4 141 142 183 182
4 142 143 184 183
4 143 144 185 184
4 144 145 186 185
4 145 146 187 186
4 146 147 188 187
4 147 148 189 188
4 148 149 190 189
4 149 150 191 190
4 150 151 192 191
4 151 152 193 192
4 152 153 194 193
4 153 154 195 194
4 154 155 196 195
4 155 156 197 196
4 156 157 198 197
4 157 158 199 198
4 158 159 200 199
4 159 160 201 200
4 160 161 202 201
4 161 162 203 202
4 162 163 204 203
4 164 165 206 205
4 165 166 207 206
4 166 167 208 207
4 167 168 209 208
4 168 169 210 209
4 169 170 211 210
4 170 171 212 211
4 171 172 213 212
4 172 173 214 213
4 173 174 215 214
4 174 175 216 215
4 175 176 217 216
4 176 177 218 217
4 177 178 219 218
4 178 179 220 219
4 179 180 221 220
4 180 181 222 221
4 181 182 223 222
4 182 183 224 223
4 183 184 225 224
4 184 185 226 225
4 185 186 227 226
4 186 187 228 227
4 187 188 229 228
4 188 189 230 229
4 189 190 231 230
4 190 191 232 231
4 191 192 233 232
4 192 193 234 233
4 193 194 235 234
4 194 195 236 235
4 195 196 237 236
4 196 197 238 237
4 197 198 239 238
4 198 199 240 239
4 199 200 241 240
4 200 201 242 241
4 201 202 243 242
4 202 203 244 243
4 203 204 245 244
4 205 206 247 246
4 206 207 248 247
4 207 208 249 248
4 208 209 250 249
4 209 210 251 250
4 210 211 252 251
4 211 212 253 252
4 212 213 254 253
4 213 214 255 254
4 214 215 256 255
4 215 216 257 256
4 216 217 258 257
4 217 218 259 258
4 218 219 260 259
4 219 220 261 260
4 220 221 262 261
4 221 222 263 262
4 222 223 264 263
4 223 224 265 264
4 224 225 266 265
4 225 226 267 266
4 226 227 268 267
4 227 228 269 268
4 228 229 270 269
4 229 230 271 270
4 230 231 272 271
4 231 232 273 272
4 232 233 274 273
4 233 234 275 274
4 234 235 276 275
4 235 236 277 276
4 236 237 278 277
4 237 238 279 278
4 238 239 280 279
4 239 240 281 280
4 240 241 282 281
4 241 242 283 282
4 242 243 284 283
4 243 244 285 284
4 244 245 286 285
4 246 247 288 287
4 247 248 289 288
4 248 249 290 289
4 249 250 291 290
4 250 251 292 291
4 251 252 293 292
4 252 253 294 293
4 253 254 295 294
4 254 255 296 295
4 255 256 297 296
4 256 257 298 297
4 257 258 299 298
4 258 259 300 299
4 259 260 301 300
4 260 261 302 301
4 261 262 303 302
4 262 263 304 303
4 263 264 305 304
4 264 265 306 305
4 265 266 307 306
4 266 267 308 307
4 267 268 309 308
4 268 269 310 309
4 269 270 311 310
4 270 271 312 311
4 271 272 313 312
4 272 273 314 313
4 273 274 315 314
4 274 275 316 315
4 275 276 317 316
4 276 277 318 317
4 277 278 319 318
4 278 279 320 319
4 279 280 321 320
4 280 281 322 321
4 281 282 323 322
4 282 283 324 323
4 283 284 325 324
4 284 285 326 325
4 285 286 327 326
4 287 288 329 328
4 288 289 330 329
4 289 290 331 330
4 290 291 332 331
4 291 292 333 332
4 292 293 334 333
4 293 294 335 334
4 294 295 336 335
4 295 296 337 336
4 296 297 338 337
4 297 298 339 338
4 298 299 340 339
4 299 300 341 340
4 300 301 342 341
4 301 302 343 342
4 302 303 344 343
4 303 304 345 344
4 304 305 346 345
4 305 306 347 346
4 306 307 348 347
4 307 308 349 348
4 308 309 350 349
4 309 310 351 350
4 310 311 352 351
4 311 312 353 352
4 312 313 354 353
4 313 314 355 354
4 314 315 356 355
4 315 316 357 356
4 316 317 358 357
4 317 318 359 358
4 318 319 360 359
4 319 320 361 360
4 320 321 362 361
4 321 322 363 362
4 322 323 364 363
4 323 324 365 364
4 324 325 366 365
4 325 326 367 366
4 326 327 368 367
4 328 329 370 369
4 329 330 371 370
4 330 331 372 371
4 331 332 373 372
4 332 333 374 373
4 333 334 375 374
4 334 335 376 375
4 335 336 377 376
4 336 337 378 377
4 337 338 379 378
4 338 339 380 379
4 339 340 381 380
4 340 341 382 381
4 341 342 383 382
4 342 343 384 383
4 343 344 385 384
4 344 345 386 385
4 345 346 387 386
4 346 347 388 387
4 347 348 389 388
4 348 349 390 389
4 349 350 391 390
4 350 351 392 391
4 351 352 393 392
4 352 353 394 393
4 353 354 395 394
4 354 355 396 395
4 355 356 397 396
4 356 357 398 397
4 357 358 399 398
4 358 359 400 399
4 359 360 401 400
4 360 361 402 401
4 361 362 403 402
4 362 363 404 403
4 363 364 405 404
4 364 365 406 405
4 365 366 407 406
4 366 367 408 407
4 367 368 409 408
4 369 370 411 410
4 370 371 412 411
4 371 372 413 412
4 372 373 414 413
4 373 374 415 414
4 374 375 416 415
4 375 376 417 416
4 376 377 418 417
4 377 378 419 418
4 378 379 420 419
4 379 380 421 420
4 380 381 422 421
4 381 382 423 422
4 382 383 424 423
4 383 384 425 424
4 384 385 426 425
4 385 386 427 426
4 386 387 428 427
4 387 388 429 428
4 388 389 430 429
4 389 390 431 430
4 390 391 432 431
4 391 392 433 432
4 392 393 434 433
4 393 394 435 434
4 394 395 436 435
4 395 396 437 436
4 396 397 438 437
4 397 398 439 438
4 398 399 440 439
4 399 400 441 440
4 400 401 442 441
4 401 402 443 442
4 402 403 444 443
4 403 404 445 444
4 404 405 446 445
4 405 406 447 446
4 406 407 448 447
4 407 408 449 448
4 408 409 450 449
4 410 411 452 451
4 411 412 453 452
4 412 413 454 453
4 413 414 455 454
4 414 415 456 455
4 415 416 457 456
4 416 417 458 457
4 417 418 459 458
4 418 419 460 459
4 419 420 461 460
4 420 421 462 461
4 421 422 463 462
4 422 423 464 463
4 423 424 465 464
4 424 425 466 465
4 425 426 467 466
4 426 427 468 467
4 427 428 469 468
4 428 429 470 469
4 429 430 471 470
4 430 431 472 471
4 431 432 473 472
4 432 433 474 473
4 433 434 475 474
4 434 435 476 475
4 435 436 477 476
4 436 437 478 477
4 437 438 479 478
4 438 439 480 479
4 439 440 481 480
4 440 441 482 481
4 441 442 483 482
4 442 443 484 483
4 443 444 485 484
4 444 445 486 485
4 445 446 487 486
4 446 447 488 487
4 447 448 489 488
4 448 449 490 489
4 449 450 491 490
4 451 452 493 492
4 452 453 494 493
4 453 454 495 494
4 454 455 496 495
4 455 456 497 496
4 456 457 498 497
4 457 458 499 498
4 458 459 500 499
4 459 460 501 500
4 460 461 502 501
4 461 462 503 502
4 462 463 504 503
4 463 464 505 504
4 464 465 506 505
4 465 466 507 506
4 466 467 508 507
4 467 468 509 508
4 468 469 510 509
4 469 470 511 510
4 470 471 512 511
4 471 472 513 512
4 472 473 514 513
4 473 474 515 514
4 474 475 516 515
4 475 476 517 516
4 476 477 518 517
4 477 478 519 518
4 478 479 520 519
4 479 480 521 520
4 480 481 522 521
4 481 482 523 522
4 482 483 524 523
4 483 484 525 524
4 484 485 526 525
4 485 486 527 526
4 486 487 528 527
4 487 488 529 528
4 488 489 530 529
4 489 490 531 530
4 490 491 532 531
4 492 493 534 533
4 493 494 535 534
4 494 495 536 535
4 495 496 537 536
4 496 497 538 537
4 497 498 539 538
4 498 499 540 539
4 499 500 541 540
4 500 501 542 541
4 501 502 543 542
4 502 503 544 543
4 503 504 545 544
4 504 505 546 545
4 505 506 547 546
4 506 507 548 547
4 507 508 549 548
4 508 509 550 549
4 509 510 551 550
4 510 511 552 551
4 511 512 553 552
4 512 513 554 553
4 513 514 555 554
4 514 515 556 555
4 515 516 557 556
4 516 517 558 557
4 517 518 559 558
4 518 519 560 559
4 519 520 561 560
4 520 521 562 561
4 521 522 563 562
4 522 523 564 563
4 523 524 565 564
4 524 525 566 565
4 525 526 567 566
4 526 527 568 567
4 527 528 569 568
4 528 529 570 569
4 529 530 571 570
4 530 531 572 571
4 531 532 573 572
4 533 534 575 574
4 534 535 576 575
4 535 536 577 576
4 536 537 578 577
4 537 538 579 578
4 538 539 580 579
4 539 540 581 580
4 540 541 582 581
4 541 542 583 582
4 542 543 584 583
4 543 544 585 584
4 544 545 586 585
4 545 546 587 586
4 546 547 588 587
4 547 548 589 588
4 548 549 590 589
4 549 550 591 590
4 550 551 592 591
4 551 552 593 592
4 552 553 594 593
4 553 554 595 594
4 554 555 596 595
4 555 556 597 596
4 556 557 598 597
4 557 558 599 598
4 558 559 600 599
4 559 560 601 600
4 560 561 602 601
4 561 562 603 602
4 562 563 604 603
4 563 564 605 604
4 564 565 606 605
4 565 566 607 606
4 566 567 608 607
4 567 568 609 608
4 568 569 610 609
4 569 570 611 610
4 570 571 612 611
4 571 572 613 612
4 572 573 614 613
4 574 575 616 615
4 575 576 617 616
4 576 577 618 617
4 577 578 619 618
4 578 579 620 619
4 579 580 621 620
4 580 581 622 621
4 581 582 623 622
4 582 583 624 623
4 583 584 625 624
4 584 585 626 625
4 585 586 627 626
4 586 587 628 627
4 587 588 629 628
4 588 589 630 629
4 589 590 631 630
4 590 591 632 631
4 591 592 633 632
4 592 593 634 633
4 593 594 635 634
4 594 595 636 635
4 595 596 637 636
4 596 597 638 637
4 597 598 639 638
4 598 599 640 639
4 599 600 641 640
4 600 601 642 641
4 601 602 643 642
4 602 603 644 643
4 603 604 645 644
4 604 605 646 645
4 605 606 647 646
4 606 607 648 647
4 607 608 649 648
4 608 609 650 649
4 609 610 651 650
4 610 611 652 651
4 611 612 653 652
4 612 613 654 653
4 613 614 655 654
4 615 616 657 656
4 616 617 658 657
4 617 618 659 658
4 618 619 660 659
4 619 620 661 660
4 620 621 662 661
4 621 622 663 662
4 622 623 664 663
4 623 624 665 664
4 624 625 666 665
4 625 626 667 666
4 626 627 668 667
4 627 628 669 668
4 628 629 670 669
4 629 630 671 670
4 630 631 672 671
4 631 632 673 672
4 632 633 674 673
4 633 634 675 674
4 634 635 676 675
4 635 636 677 676
4 636 637 678 677
4 637 638 679 678
4 638 639 680 679
4 639 640 681 680
4 640 641 682 681
4 641 642 683 682
4 642 643 684 683
4 643 644 685 684
4 644 645 686 685
4 645 646 687 686
4 646 647 688 687
4 647 648 689 688
4 648 649 690 689
4 649 650 691 690
4 650 651 692 691
4 651 652 693 692
4 652 653 694 693
4 653 654 695 694
4 654 655 696 695
4 656 657 698 697
4 657 658 699 698
4 658 659 700 699
4 659 660 701 700
4 660 661 702 701
4 661 662 703 702
4 662 663 704 703
4 663 664 705 704
4 664 665 706 705
4 665 666 707 706
4 666 667 708 707
4 667 668 709 708
4 668 669 710 709
4 669 670 711 710
4 670 671 712 711
4 671 672 713 712
4 672 673 714 713
4 673 674 715 714
4 674 675 716 715
4 675 676 717 716
4 676 677 718 717
4 677 678 719 718
4 678 679 720 719
4 679 680 721 720
4 680 681 722 721
4 681 682 723 722
4 682 683 724 723
4 683 684 725 724
4 684 685 726 725
4 685 686 727 726
4 686 687 728 727
4 687 688 729 728
4 688 689 730 729
4 689 690 731 730
4 690 691 732 731
4 691 692 733 732
4 692 693 734 733
4 693 694 735 734
4 694 695 736 735
4 695 696 737 736
4 697 698 739 738
4 698 699 740 739
4 699 700 741 740
4 700 701 742 741
4 701 702 743 742
4 702 703 744 743
4 703 704 745 744
4 704 705 746 745
4 705 706 747 746
4 706 707 748 747
4 707 708 749 748
4 708 709 750 749
4 709 710 751 750
4 710 711 752 751
4 711 712 753 752
4 712 713 754 753
4 713 714 755 754
4 714 715 756 755
4 715 716 757 756
4 716 717 758 757
4 717 718 759 758
4 718 719 760 759
4 719 720 761 760
4 720 721 762 761
4 721 722 763 762
4 722 723 764 763
4 723 724 765 764
4 724 725 766 765
4 725 726 767 766
4 726 727 768 767
4 727 728 769 768
4 728 729 770 769
4 729 730 771 770
4 730 731 772 771
4 731 732 773 772
4 732 733 774 773
4 733 734 775 774
4 734 735 776 775
4 735 736 777 776
4 736 737 778 777
4 738 739 780 779
4 739 740 781 780
4 740 741 782 781
4 741 742 783 782
4 742 743 784 783
4 743 744 785 784
4 744 745 786 785
4 745 746 787 786
4 746 747 788 787
4 747 748 789 788
4 748 749 790 789
4 749 750 791 790
4 750 751 792 791
4 751 752 793 792
4 752 753 794 793
4 753 754 795 794
4 754 755 796 795
4 755 756 797 796
4 756 757 798 797
4 757 758 799 798
4 758 759 800 799
4 759 760 801 800
4 760 761 802 801
4 761 762 803 802
4 762 763 804 803
4 763 764 805 804
4 764 765 806 805
4 765 766 807 806
4 766 767 808 807
4 767 768 809 808
4 768 769 810 809
4 769 770 811 810
4 770 771 812 811
4 771 772 813 812
4 772 773 814 813
4 773 774 815 814
4 774 775 816 815
4 775 776 817 816
4 776 777 818 817
4 777 778 819 818
4 779 780 821 820
4 780 781 822 821
4 781 782 823 822
4 782 783 824 823
4 783 784 825 824
4 784 785 826 825
4 785 786 827 826
4 786 787 828 827
4 787 788 829 828
4 788 789 830 829
4 789 790 831 830
4 790 791 832 831
4 791 792 833 832
4 792 793 834 833
4 793 794 835 834
4 794 795 836 835
4 795 796 837 836
4 796 797 838 837
4 797 798 839 838
4 798 799 840 839
4 799 800 841 840
4 800 801 842 841
4 801 802 843 842
4 802 803 844 843
4 803 804 845 844
4 804 805 846 845
4 805 806 847 846
4 806 807 848 847
4 807 808 849 848
4 808 809 850 849
4 809 810 851 850
4 810 811 852 851
4 811 812 853 852
4 812 813 854 853
4 813 814 855 854
4 814 815 856 855
4 815 816 857 856
4 816 817 858 857
4 817 818 859 858
4 818 819 860 859
CELL_TYPES 800
9
9
9
9
9
9
9
9
9
9
9
9
9
9
9
9
9
9
9
9
9
9
9
9
9
9
9
9
9
9
9
9
9
9
9
9
9
9
9
9
9
9
9
9
9
9
9
9
9
9
9
9
9
9
9
9
9
9
9
9
9
9
9
9
9
9
9
9
9
9
9
9
9
9
9
9
9
9
9
9
9
9
9
9
9
9
9
9
9
9
9
9
9
9
9
9
9
9
9
9
9
9
9
9
9
9
9
9
9
9
9
9
9
9
9
9
9
9
9
9
9
9
9
9
9
9
9
9
9
9
9
9
9
9
9
9
9
9
9
9
9
9
9
9
9
9
9
9
9
9
9
9
9
9
9
9
9
9
9
9
9
9
9
9
9
9
9
9
9
9
9
9
9
9
9
9
9
9
9
9
9
9
9
9
9
9
9
9
9
9
9
9
9
9
9
9
9
9
9
9
9
9
9
9
9
9
9
9
9
9
9
9
9
9
9
9
9
9
9
9
9
9
9
9
9
9
9
9
9
9
9
9
9
9
9
9
9
9
9
9
9
9
9
9
9
9
9
9
9
9
9
9
9
9
9
9
9
9
9
9
9
9
9
9
9
9
9
9
9
9
9
9
9
9
9
9
9
9
9
9
9
9
9
9
9
9
9
9
9
9
9
9
9
9
9
9
9
9
9
9
9
9
9
9
9
9
9
9
9
9
9
9
9
9
9
9
9
9
9
9
9
9
9
9
9
9
9
9
9
9
9
9
9
9
9
9
9
9
9
9
9
9
9
9
9
9
9
9
9
9
9
9
9
9
9
9
9
9
9
9
9
9
9
9
9
9
9
9
9
9
9
9
9
9
9
9
9
9
9
9
9
9
9
9
9
9
9
9
9
9
9
9
9
9
9
9
9
9
9
9
9
9
9
9
9
9
9
9
9
9
9
9
9
9
9
9
9
9
9
9
9
9
9
9
9
9
9
9
9
9
9
9
9
9
9
9
9
9
9
9
9
9
9
9
9
9
9
9
9
9
9
9
9
9
9
9
9
9
9
9
9
9
9
9
9
9
9
9
9
9
9
9
9
9
9
9
9
9
9
9
9
9
9
9
9
9
9
9
9
9
9
9
9
9
9
9
9
9
9
9
9
9
9
9
9
9
9
9
9
9
9
9
9
9
9
9
9
9
9
9
9
9
9
9
9
9
9
9
9
9
9
9
9
9
9
9
9
9
9
9
9
9
9
9
9
9
9
9
9
9
9
9
9
9
9
9
9
9
9
9
9
9
9
9
9
9
9
9
9
9
9
9
9
9
9
9
9
9
9
9
9
9
9
9
9
9
9
9
9
9
9
9
9
9
9
9
9
9
9
9
9
9
9
9
9
9
9
9
9
9
9
9
9
9
9
9
9
9
9
9
9
9
9
9
9
9
9
9
9
9
9
9
9
9
9
9
9
9
9
9
9
9
9
9
9
9
9
9
9
9
9
9
9
9
9
9
9
9
9
9
9
9
9
9
9
9
9
9
9
9
9
9
9
9
9
9
9
9
9
9
9
9
9
9
9
9
9
9
9
9
9
9
9
9
9
9
9
9
9
9
9
9
9
9
9
9
9
9
9
9
9
9
9
9
9
9
9
9
9
9
9
9
9
9
9
9
9
9
9
9
9
9
9
9
9
9
9
9
9
9
9
9
9
9
9
9
9
9
9
9
9
9
9
9
9
9
9
9
9
9
9
9
9
9
9
9
9
9
9
9
9
9
9
9
9
9
9
9
9
9
9
9
9
9
9
9
9
9
9
9
9
9
9
9
9
9
9
9
9
9
POINT_DATA 861
SCALARS Disp float 2
LOOKUP_TABLE default
0.0 0.0
0.006317552189278525 -0.30468363426431094
0.007780803477776958 -0.5994342705751748
0.008595046914914002 -0.892992525482725
0.009687513318341738 -1.1861368658682887
0.011560787819470824 -1.4783715027140554
0.014980614395207035 -1.769028284823602
0.020902058598471218 -2.057263159151963
0.030453647790390375 -2.3420129719630087
0.04486241768229882 -2.621875599939295
0.06534078219092077 -2.8949494046109816
0.09300734596601787 -3.1587569277969565
0.1288510126866615 -3.4103002437113483
0.17371964930838052 -3.6462015754923165
0.22830951919890144 -3.8627991739268075
0.29309294570199323 -4.056231573877043
0.36819621607367453 -4.222551713027968
0.45326105357803675 -4.357904903703931
0.5473341766960397 -4.458796118751524
0.6488317581348714 -4.522345787767601
0.75525656187153 -4.546639420600247
0.8616813656081825 -4.522345787767456
0.9631789470469908 -4.458796118751233
1.0572520701649573 -4.357904903703509
1.1423169076692734 -4.22255171302744
1.217420178040903 -4.05623157387644
1.2822036045439418 -3.8627991739261454
1.3367934744344103 -3.6462015754916157
1.3816621110560776 -3.4103002437106302
1.417505777776671 -3.158756927796244
1.445172341551724 -2.894949404610295
1.465650706060309 -2.6218755999386487
1.480059475952189 -2.3420129719624128
1.489611065144088 -2.0572631591514257
1.4955325093473375 -1.7690282848231296
1.4989523359230652 -1.4783715027136555
1.5008256104241902 -1.186136865867962
1.5019180768276168 -0.8929925254824755
1.5027323202647536 -0.5994342705750009
1.5041955715532505 -0.30468363426421596
1.5105131237425256 0.0
0.07599618705026337 -0.002595284286299578
0.08046716010390871 -0.30499970023513817
0.08121940758471444 -0.5994987210567163
0.0819363273476516 -0.8930869865512582
0.08288568519294626 -1.1863057284522642
0.08446710844133609 -1.4787653571294561
0.08740070030482139 -1.7698616531126272
0.09258782349356352 -2.0587931628488567
0.10108632775242916 -2.3445270473422446
0.11401442590350903 -2.6256660112089945
0.132453297183615 -2.90029128988905
0.15738670223793633 -3.1658975740100623
0.18969066846568716 -3.419457100508727
0.2301345027381253 -3.657560380283915
0.27935255690081984 -3.8765048771585766
0.33778578665246045 -4.072365026460579
0.40557529036291917 -4.2410973814453925
0.48243916348871707 -4.378719461315795
0.5675575289516935 -4.481583037604756
0.6593986618671956 -4.546624572184015
0.7552565618715124 -4.571539085122033
0.8511144618758227 -4.546624572183868
0.9429555947913039 -4.481583037604458
1.028073960254248 -4.378719461315363
1.1049378333800057 -4.241097381444853
1.1727273370904183 -4.072365026459963
1.2311605668420114 -3.876504877157902
1.2803786210046584 -3.657560380283202
1.3208224552770498 -3.4194571005079966
1.3531264215047558 -3.1658975740093394
1.3780598265590371 -2.9002912898883535
1.39649869783911 -2.6256660112083408
1.4094267959901638 -2.3445270473416424
1.4179253002490109 -2.0587931628483163
1.4231124234377401 -1.7698616531121518
1.426046015301218 -1.4787653571290549
1.4276274385496046 -1.1863057284519372
1.4285767963948983 -0.8930869865510085
1.4292937161578354 -0.5994987210565423
1.430045963638641 -0.30499970023504275
1.4345169366922803 -0.0025952842862970314
0.15094518110319396 -0.004669573716288713
0.15425048091915403 -0.3051590147891216
0.15467755555098545 -0.5995294859086433
0.15526039449895948 -0.893169524883038
0.1560782579634929 -1.1864382065945553
0.15739720745837957 -1.4790771011452521
0.15985784328919384 -1.770554226885305
0.1643135947060653 -2.0601100335553113
0.17173944782908146 -2.3467341334018568
0.183148018438449 -2.6290263375774345
0.19949598984473957 -2.9050474362308645
0.2216428230217141 -3.1722660401137164
0.25035329946310264 -3.4276307574019587
0.28630736755038155 -3.6677075398354075
0.3300821758329936 -3.888758606606073
0.38209124912786335 -4.086804249226524
0.4425034672387326 -4.257719494117526
0.5111282847294644 -4.3974085471293485
0.5872582890990063 -4.502072331698737
0.6694216875264674 -4.56841876790182
0.7552565618714953 -4.5938861894826095
0.8410914362165166 -4.568418767901669
0.9232548346439594 -4.5020723316984315
0.9993848390134724 -4.397408547128908
1.0680096565041692 -4.2577194941169765
1.1284218746149977 -4.086804249225897
1.1804309479098252 -3.888758606605388
1.2242057561923945 -3.6677075398346832
1.260159824279632 -3.427630757401218
1.2888703007209812 -3.1722660401129836
1.3110171338979202 -2.9050474362301597
1.327365105304181 -2.6290263375767746
1.3387736759135254 -2.3467341334012497
1.3461995290365245 -2.060110033554767
1.3506552804533847 -1.7705542268848278
1.3531159162841928 -1.47907710114485
1.354434865779077 -1.1864382065942278
1.3552527292436096 -0.8931695248827884
1.355835568191584 -0.5995294859084693
1.3562626428234152 -0.3051590147890258
1.3595679426393694 -0.004669573716283364
0.22533812178361498 -0.006343243246184788
0.22785385842059577 -0.3052676067139085
0.22811288837803462 -0.5995459941620094
0.2285679044970266 -0.8932350653979928
0.22926071497424605 -1.186543553408338
0.23034809675031864 -1.4793159547392027
0.23236313616008114 -1.7711107464807359
0.23609684164543274 -2.061214482735017
0.2424431533298665 -2.348629677805744
0.2523099327561687 -2.6319484703193288
0.26653468911705014 -2.909207832546148
0.2858570238814867 -3.177852208022264
0.310934593101057 -3.4348104093759915
0.3423571034807134 -3.676629688747308
0.38063528744102204 -3.8995453468545196
0.4261623654716827 -4.09953437326163
0.47913918884857915 -4.272405433738148
0.5394636172507763 -4.413962362835093
0.606552943955769 -4.520253895900151
0.6791478456582634 -4.587786966597808
0.7552565618714785 -4.613812505902938
0.8313652780846877 -4.587786966597655
0.9039601797871657 -4.520253895899841
0.9710495064921332 -4.413962362834645
1.0313739348942994 -4.272405433737589
1.0843507582711605 -4.099534373260993
1.1298778363017838 -3.8995453468538246
1.168156020262055 -3.676629688746574
1.1995785306416755 -3.434810409375241
1.2246560998612113 -3.1778522080215224
1.2439784346256166 -2.909207832545435
1.2582031909864722 -2.6319484703186626
1.268069970412754 -2.348629677805132
1.2744162820971727 -2.061214482734469
1.2781499875825144 -1.7711107464802567
1.280165026992272 -1.4793159547388
1.2812524087683428 -1.18654355340801
1.2819452192455618 -0.8932350653977432
1.2824002353645538 -0.5995459941618354
1.2826592653219926 -0.30526760671381226
1.2851750019589683 -0.00634324324617683
0.29941529655974636 -0.007700427284877514
0.30133648703673654 -0.30535127765766434
0.3015048764519064 -0.5995553794668875
0.30185310994990044 -0.8932854888560389
0.3024290162070525 -1.1866272452921456
0.3033124085378656 -1.4794950052094047
0.3049243755979682 -1.7715402136262943
0.30795375713012224 -2.0621096496766094
0.31322787262917134 -2.3502133620827714
0.32154662578784166 -2.634428789762103
0.3336332106577997 -2.9127672927137676
0.3501115891011971 -3.1826497467302426
0.37153179283720983 -3.4409891720545067
0.39839542471844436 -3.6843192591707594
0.43115072939733284 -3.908855498984403
0.47015760060255446 -4.110543732886559
0.5156428922959942 -4.285141196430681
0.5675963569230732 -4.428365131180833
0.6256073944086987 -4.536130522552605
0.6886970802472562 -4.6047735713097575
0.755256561871462 -4.631388676681969
0.8218160434956626 -4.6047735713096
0.8849057293342054 -4.5361305225522885
0.9429167668198088 -4.428365131180377
0.9948702314468614 -4.285141196430114
1.0403555231402704 -4.1105437328859145
1.07936239434546 -3.908855498983699
1.1121176990243162 -3.6843192591700173
1.1389813309055197 -3.440989172053749
1.160401534641503 -3.1826497467294934
1.1768799130848744 -2.9127672927130486
1.18896649795481 -2.6344287897614316
1.1972852511134626 -2.3502133620821555
1.2025593666124985 -2.0621096496760587
1.2055887481446448 -1.7715402136258136
1.2072007152047435 -1.479495005209001
1.2080841075355553 -1.1866272452918176
1.208660013792707 -0.8932854888557892
1.209008247290701 -0.5995553794667137
1.209176636705871 -0.3053512776575678
1.2110978271828567 -0.007700427284867208
0.3732846923102533 -0.008794601693380087
0.3747353661382474 -0.30541866232601944
0.3748514843050548 -0.5995623261778998
0.3751124089601045 -0.8933229051428195
0.3755774102237077 -1.1866937535854334
0.37628405633625583 -1.4796266983662836
0.3775353062799307 -1.7718571464537765
0.3799068353422517 -2.062802458484667
0.38412399469438624 -2.3514884657195965
0.3909042678390338 -2.636468277749815
0.4008548221249729 -2.915725021026117
0.41448649040476626 -3.1866570555771996
0.4322444946274982 -3.4461645942424295
0.4545412937670255 -3.690773146024506
0.4817602483523203 -3.9166855518015176
0.5142316940670869 -4.119825328007992
0.5521877496233049 -4.29591313013399
0.5957029951824466 -4.440601543643248
0.6445777339568565 -4.549700198717049
0.6981648605005539 -4.619401626902587
0.7552565618714454 -4.64665668648947
0.8123482632423324 -4.619401626902428
0.8659353897860173 -4.549700198716729
0.9148101285604081 -4.440601543642787
0.9583253741195277 -4.2959131301334175
0.9962814296757194 -4.11982532800734
1.0287528753904591 -3.916685551800807
1.055971829975727 -3.6907731460237567
1.0782686291152286 -3.4461645942416648
1.0960266333379363 -3.186657055576444
1.1096583016177075 -2.915725021025393
1.1196088559036284 -2.636468277749139
1.126389129048261 -2.351488465718978
1.1306062884003851 -2.0628024584841143
1.1329778174626999 -1.7718571464532948
1.1342290674063717 -1.4796266983658797
1.1349357135189193 -1.1866937535851054
1.135400714782522 -0.8933229051425698
1.1356616394375718 -0.599562326177726
1.1357777576043793 -0.3054186623259227
1.1372284314323697 -0.008794601693367755
0.44700214549550193 -0.009666607632189343
0.44807555017267553 -0.3054732759439726
0.44815834310630026 -0.5995691764808022
0.4483455798956364 -0.8933488997443727
0.4487030778020198 -1.1867459779395542
0.4492544232645339 -1.4797222377659087
0.450187423864572 -1.7720793567045632
0.4519565508483309 -2.0633085428347036
0.4551648955579007 -2.352462599380437
0.4604296216755693 -2.63807222003477
0.4682632868686163 -2.918085068783712
0.4790635415374574 -3.1898772904309354
0.4931719462116011 -3.4503393364615635
0.5109128774614592 -3.6959934750047934
0.5326048795425103 -3.923036402649652
0.5585397044507817 -4.127377579536882
0.5889491706160183 -4.304712724386815
0.6239762251095972 -4.450655920469875
0.6636312999676822 -4.560950070585189
0.7076449095026011 -4.631673126931005
0.7552565618714288 -4.6596351601674195
0.8028682142402526 -4.631673126930845
0.8468818237751605 -4.560950070584865
0.8865368986332303 -4.4506559204694085
0.9215639531267904 -4.304712724386237
0.9519734192920062 -4.1273775795362235
0.9779082442002555 -3.923036402648935
0.9996002462812849 -3.6959934750040375
1.0173411775311234 -3.4503393364607935
1.0314495822052474 -3.189877290430175
1.0422498368740714 -2.9180850687829833
1.0500835020671035 -2.6380722200340903
1.0553482281847604 -2.3524625993798156
1.0585565728943223 -2.063308542834149
1.0603256998780766 -1.7720793567040805
1.0612587004781124 -1.4797222377655048
1.0618100459406261 -1.1867459779392264
1.0621675438470095 -0.893348899744123
1.0623547806363456 -0.5995691764806284
1.06243757356997 -0.3054732759438757
1.0635109782471412 -0.009666607632175429
0.5206044405783881 -0.010349501440102556
0.5213756410026686 -0.30551774447716207
0.5214335951032671 -0.5995764153855523
0.5215547474431245 -0.8933647176882953
0.5218063598325006 -1.186784782450609
0.5222139255854542 -1.4797906929880504
0.5228748383424966 -1.7722251733933991
0.5241008271998594 -2.063649449448842
0.52636841024658 -2.353152494576685
0.5301721620437065 -2.6392512791618925
0.5359243801176289 -2.919856292817796
0.5439244113619238 -3.192318770246394
0.5544158364384051 -3.4535216906053954
0.567632426995976 -3.6999879120219754
0.5838224860778706 -3.927914602454192
0.6032409657086142 -4.133204639500233
0.6261128259630013 -4.311538100526844
0.6526183742881416 -4.458514263023482
0.6829511038521426 -4.569855471707385
0.7172423624358726 -4.641567117268103
0.7552565618714114 -4.6703193428985035
0.7932707613069477 -4.641567117267941
0.8275620198906691 -4.569855471707058
0.8578947494546584 -4.458514263023013
0.884400297779784 -4.311538100526262
0.9072721580341548 -4.1332046394995725
0.9266906376648818 -3.92791460245347
0.9428806967467602 -3.699987912021216
0.9560972873043171 -3.4535216906046213
0.9665887123807837 -3.1923187702456297
0.9745887436250658 -2.919856292817064
0.9803409616989774 -2.6392512791612095
0.9841447134960956 -2.3531524945760616
0.9864122965428103 -2.063649449448286
0.9876382854001698 -1.7722251733929162
0.988299198157211 -1.479790692987646
0.9887067639101644 -1.186784782450281
0.9889583762995403 -0.8933647176880456
0.9890795286393976 -0.5995764153853784
0.9891374827399961 -0.305517744477065
0.9899086831642746 -0.010349501440087372
0.5941145810891888 -0.010874038217286275
0.594652619604308 -0.3055544742395673
0.5946847479333698 -0.5995832006454493
0.5947434221464679 -0.8933713245956415
0.5948910802020565 -1.1868096792510072
0.5951563165185335 -1.4798376227825925
0.5955812457260451 -1.7723142261091882
0.5963353926036976 -2.0638520810659644
0.5977437134802261 -2.353584290476747
0.6001681628366969 -2.6400258620897574
0.6039044161919539 -2.921054249557974
0.6091572837101262 -3.1939960574870265
0.6160805777629436 -3.455726381633293
0.6248236187213435 -3.70277096905285
0.6355594296351204 -3.9313326833844404
0.6484950069903703 -4.137316942952001
0.6638557096546024 -4.316397017318084
0.6818530135264853 -4.464168922014058
0.7027620091678712 -4.57638152246681
0.7270903651009304 -4.649036249156375
0.7552565618713936 -4.67867804681521
0.7834227586418554 -4.649036249156212
0.8077511145749091 -4.57638152246648
0.8286601102162863 -4.464168922013586
0.8466574140881583 -4.316397017317498
0.8620181167523798 -4.137316942951336
0.8749536941076185 -3.931332683383715
0.8856895050213851 -3.702770969052088
0.8944325459797765 -3.4557263816325157
0.9013558400325846 -3.193996057486259
0.9066087075507485 -2.92105424955724
0.9103449609059986 -2.640025862089072
0.9127694102624639 -2.3535842904761224
0.9141777311389888 -2.063852081065408
0.9149318780166396 -1.7723142261087048
0.9153568072241507 -1.4798376227821883
0.9156220435406275 -1.1868096792506793
0.9157697015962161 -0.8933713245953916
0.9158283758093141 -0.5995832006452755
0.9158605041383758 -0.3055544742394702
0.9163985426534936 -0.01087403821727004
0.6675496039013246 -0.011270561360405641
0.667917510695646 -0.3055864232644712
0.6679188994398062 -0.5995876604067311
0.6679157002481446 -0.893369453096226
0.6679621910669319 -1.1868202149810494
0.6680812831234397 -1.4798643687194575
0.668289165603336 -1.7723626187012966
0.6686436173807034 -2.0639499155723997
0.6692920579343508 -2.3537964968843674
0.6704429148791847 -2.6404302666053687
0.6722579779945731 -2.921707477186616
0.6748441276401008 -3.194934168816875
0.6782675260988063 -3.456977320284929
0.6826022013307925 -3.7043668944953656
0.6879482353412194 -3.933313280124655
0.6944511043592154 -4.139732494023612
0.7023238448746669 -4.319305659019393
0.7118414264656424 -4.467631515046929
0.7233231238338508 -4.58049768364462
0.7373923725921845 -4.654001181622332
0.7552565618713756 -4.684642740770663
0.7731207511505656 -4.654001181622167
0.7871899999088972 -4.580497683644291
0.7986716972770999 -4.467631515046453
0.808189278868069 -4.319305659018806
0.8160620193835159 -4.139732494022944
0.8225648884015061 -3.9333132801239286
0.8279109224119291 -3.7043668944946013
0.8322455976439123 -3.4569773202841505
0.8356689961026134 -3.1949341688161064
0.8382551457481378 -2.92170747718588
0.8400702088635227 -2.640430266604683
0.8412210658083547 -2.353796496883742
0.8418695063620005 -2.0639499155718433
0.8422239581393672 -1.7723626187008132
0.8424318406192634 -1.4798643687190534
0.8425509326757712 -1.1868202149807214
0.8425974234945586 -0.893369453095976
0.842594224302897 -0.5995876604065571
0.8425956130470569 -0.3055864232643741
0.8429635198413776 -0.011270561360388653
0.7409277895727034 -0.011565621167110653
0.7411750741239498 -0.30561697522438475
0.7411412778180092 -0.5995876802926233
0.741076324834404 -0.8933595326405112
0.7410241048949354 -1.1868164090494568
0.7409970631900249 -1.4798701904281435
0.7409862386689019 -1.772377683187271
0.7409819696868771 -2.063977955463707
0.740980154604478 -2.3538504826021174
0.7409798522513823 -2.640531720819451
0.7409798607496226 -2.9218767724317667
0.740977452401392 -3.1951878310302564
0.7409658849230533 -3.457326953925705
0.7409442356487012 -3.70482628595325
0.7409365466048902 -3.93390451940558
0.7410287061737152 -4.140493452572935
0.7414152398462779 -4.3202987882886825
0.7424460196641286 -4.468943959459354
0.7445909071368713 -4.582232366542273
0.748376657950233 -4.656380729208839
0.7552565618713567 -4.688094309930351
0.7621364657924805 -4.656380729208674
0.7659222166058418 -4.582232366541943
0.7680671040785828 -4.468943959458878
0.7690978838964332 -4.320298788288095
0.769484417568997 -4.140493452572266
0.7695765771378227 -3.933904519404853
0.7695688880940131 -3.704826285952486
0.7695472388196634 -3.4573269539249263
0.7695356713413264 -3.195187831029487
0.7695332629930973 -2.9218767724310304
0.7695332714913385 -2.6405317208187653
0.7695329691382433 -2.353850482601492
0.7695311540558445 -2.06397795546315
0.7695268850738199 -1.7723776831867875
0.7695160605526972 -1.4798701904277392
0.7694890188477868 -1.1868164090491289
0.7694367989083183 -0.8933595326402614
0.7693718459247131 -0.5995876802924494
0.7693380496187723 -0.3056169752242876
0.7695853341700182 -0.01156562116709319
0.8142607050988787 -0.011785544886005287
0.8144240743003173 -0.30564765816771305
0.8143565652466069 -0.5995821785516166
0.8142306584906215 -0.8933417332426383
0.8140823593360035 -1.1867986103626789
0.8139113818124163 -1.4798547867590723
0.8136822539505937 -1.7723600744316297
0.8133188889279958 -2.0639489855809354
0.8126674546072619 -2.3537961895730075
0.8115166592647899 -2.640430240238385
0.8097017104405859 -2.9217071208668703
0.8071090583018126 -3.194930919468968
0.8036619257545552 -3.4569690645906728
0.7992860114555043 -3.7043574191591446
0.7939306104833694 -3.933325320535539
0.7876195986933272 -4.139827402243154
0.780511465274252 -4.319605216999589
0.7729590634194005 -4.468327758639179
0.765488288943108 -4.5818009321782895
0.7588586220739384 -4.6562898249008295
0.7552565618713373 -4.689116777842162
0.7516545016687353 -4.656289824900665
0.7450248347995662 -4.581800932177959
0.7375540603232783 -4.468327758638704
0.7300016584684336 -4.319605216999002
0.7228935250493655 -4.139827402242485
0.7165825132593304 -3.9333253205348124
0.7112271122872026 -3.7043574191583812
0.7068511979881592 -3.456969064589895
0.7034040654409096 -3.1949309194682
0.7008114133021429 -2.921707120866135
0.6989964644779441 -2.6404302402376993
0.6978456691354755 -2.3537961895723822
0.6971942348147436 -2.0639489855803785
0.6968308697921467 -1.772360074431146
0.6966017419303248 -1.479854786758668
0.6964307644067378 -1.186798610362351
0.6962824652521199 -0.8933417332423885
0.6961565584961344 -0.5995821785514425
0.6960890494424241 -0.30564765816761597
0.6962524186438624 -0.011785544885987547
0.8875587621052854 -0.011952122942381668
0.8876660952656107 -0.30567718168931
0.8875686062544349 -0.5995714115518984
0.8873843085549167 -0.8933161766214137
0.8871433454681966 -1.1867674211979564
0.8868320673587169 -1.4798185763178546
0.8863858023747775 -1.7723087795351664
0.885623832817112 -2.0638499654280276
0.884214641737508 -2.3535838218751213
0.8817914697145209 -2.640025947183906
0.8780545100055744 -2.9210530811251303
0.8727944342023903 -3.193989181162547
0.865850661023144 -3.4557099858048024
0.8570750930216697 -3.7027531786768564
0.8463415789359297 -3.9313597046470536
0.8336031065000431 -4.13751151884837
0.8189765788703217 -4.316995446346736
0.8028018844180891 -4.4655345669206525
0.7857092818995601 -4.578995179100294
0.7689812685917449 -4.653849532240323
0.7552565618713188 -4.687889966300282
0.7415318551508927 -4.653849532240158
0.7248038418430793 -4.578995179099963
0.7077112393245588 -4.46553456692018
0.6915365448723384 -4.3169954463461515
0.6769100172426302 -4.137511518847704
0.6641715448067568 -3.9313597046463293
0.6534380307210294 -3.7027531786760957
0.644662462719568 -3.455709985804027
0.6377186895403344 -3.1939891811617813
0.6324586137371621 -2.9210530811243967
0.628721654028225 -2.6400259471832217
0.6262984820052446 -2.3535838218744964
0.6248892909256448 -2.0638499654274716
0.6241273213679814 -1.7723087795346828
0.6236810563840431 -1.4798185763174507
0.6233697782745637 -1.1867674211976285
0.6231288151878438 -0.893316176621164
0.6229445174883259 -0.5995714115517242
0.62284702847715 -0.30567718168921293
0.6229543616374751 -0.011952122942363686
0.9608394899368192 -0.012076377132043481
0.9609057413008816 -0.30570385863158744
0.9607820566675126 -0.5995559967186932
0.9605428585533938 -0.8932831990775754
0.9602130559012713 -1.1867236654378956
0.959766330160108 -1.479762245387797
0.9590857818302589 -1.7722161686811135
0.9578552569220196 -2.06364662145144
0.9555899778223703 -2.353152388928263
0.951787483508517 -2.6392513705098217
0.9460332373650685 -2.9198540262614783
0.9380268609690291 -3.19230884916803
0.92752391707524 -3.453499647234713
0.9142947023354414 -3.6999658185571516
0.898126681743149 -3.92795892543149
0.8788883391682474 -4.13349132854771
0.8566300482237885 -4.312403485352695
0.8317059554438275 -4.460494458780171
0.8049916431107769 -4.573768742538591
0.7782711854086235 -4.648956239084041
0.7552565618713007 -4.68448895958751
0.7322419383339792 -4.648956239083876
0.7055214806318303 -4.573768742538263
0.6788071682987911 -4.460494458779702
0.6538830755188463 -4.312403485352115
0.6316247845744063 -4.133491328547048
0.6123864419995235 -3.9279589254307696
0.5962184214072495 -3.699965818556395
0.5829892066674693 -3.4534996472339423
0.572486262773698 -3.1923088491672678
0.5644798863776749 -2.919854026260748
0.5587256402342403 -2.63925137050914
0.5549231459203967 -2.35315238892764
0.5526578668207539 -2.0636466214508844
0.5514273419125183 -1.7722161686806301
0.550746793582671 -1.4797622453873929
0.5503000678415081 -1.1867236654375677
0.5499702651893859 -0.8932831990773256
0.5497310670752672 -0.599555996718519
0.5496073824418983 -0.3057038586314904
0.5496736338059605 -0.012076377132025326
1.0341170422321253 -0.012165075463901392
1.0341491476370464 -0.30572619796702255
1.0340014542647396 -0.5995363712508452
1.0337110401794054 -0.8932433536697444
1.0332968104103653 -1.1866684055403085
1.0327154502978986 -1.479684433004497
1.031766909765885 -1.7720670288219895
1.0299989651155546 -2.063306205242248
1.0267942036169029 -2.3524630822668127
1.0215296901003195 -2.638071989986254
1.0136927221183583 -2.918081558996082
1.0028887461740494 -3.1898657245161144
0.9887829644095776 -3.4503162941098755
0.9710598837019085 -3.6959741903334
0.9494177071764202 -3.923099871105536
0.9236272397184215 -4.127736747330767
0.8936652145839362 -4.305791740121412
0.8599440829448327 -4.453183974280981
0.8236354504624611 -4.566121996665232
0.7872064771090963 -4.641703294475075
0.7552565618712829 -4.679022173478808
0.723306646633472 -4.641703294474911
0.686877673280115 -4.566121996664907
0.650569040797758 -4.453183974280515
0.6168479091586745 -4.305791740120837
0.5868858840242126 -4.127736747330109
0.5610954165662384 -3.9230998711048204
0.5394532400407737 -3.6959741903326475
0.521730159333129 -3.4503162941091103
0.5076243775686798 -3.1898657245153568
0.49682040162439206 -2.918081558995356
0.4889834336424484 -2.638071989985576
0.48371892012587847 -2.352463082266192
0.4805141586272352 -2.0633062052416933
0.4787462139769102 -1.7720670288215066
0.4777976734448993 -1.479684433004093
0.4772163133324334 -1.1866684055399805
0.4768020835633935 -0.8932433536694946
0.4765116694780594 -0.5995363712506712
0.47636397610575265 -0.3057261979669256
0.4763960815106739 -0.012165075463883096
1.10740006334539 -0.01222428805792463
1.1074027948570888 -0.30574292791646324
1.1072320306748087 -0.5995127552207103
1.1068939967449372 -0.8931973514469642
1.1064003872617618 -1.1866027511136883
1.1056760109212467 -1.479580699389536
1.1044175773050482 -1.771843052279416
1.1020497270642535 -2.062801400932285
1.0978359018860078 -2.3514893677710647
1.0910543508453514 -2.6364673620301065
1.0810999665478578 -2.9157203789946076
1.0674689117027267 -3.1866458984128503
1.0497306858260205 -3.4461466920253567
1.0274873680028926 -3.6907660646858402
1.0003523476862475 -3.916770496226136
0.9679964653154338 -4.120233876654654
0.9303347888685369 -4.297148701837337
0.8878506926960498 -4.443601748326983
0.8420605509046104 -4.556087028294536
0.7960862728885076 -4.632145723553371
0.7552565618712656 -4.671509315207322
0.7144268508540265 -4.63214572355321
0.6684525728379345 -4.556087028294214
0.6226624310465134 -4.443601748326522
0.5801783348740499 -4.297148701836767
0.5425166584271814 -4.120233876654004
0.510160776056397 -3.9167704962254266
0.4830257557397813 -3.6907660646850955
0.46078243791668294 -3.446146692024598
0.44304421204000455 -3.1866458984120984
0.429413157194899 -2.9157203789938873
0.4194587728974266 -2.6364673620294328
0.4126772218567868 -2.351489367770446
0.4084633966785525 -2.062801400931732
0.40609554643776485 -1.7718430522789341
0.4048371128215698 -1.479580699389132
0.4041127364810558 -1.1866027511133606
0.4036191269978809 -0.8931973514467144
0.40328109306800947 -0.5995127552205362
0.4031103288857297 -0.30574292791636626
0.40311306039742845 -0.012224288057906263
1.1806943940466164 -0.012259801221644733
1.1806723548289912 -0.30575325172639717
1.180479384396894 -0.5994851844640572
1.1800966017082513 -0.8931459958320028
1.179525784847141 -1.1865265513827508
1.1786410572921306 -1.479443229203767
1.1770301742354041 -1.771526030747912
1.174005159428757 -2.0621098267816134
1.1687324621378596 -2.350214317743342
1.1604110239232899 -2.634426920036893
1.148321189166504 -2.912761981765854
1.131849560541774 -3.182641494479048
1.1104663234019512 -3.440982778427994
1.0836889284107802 -3.6843343261851125
1.0510579287198616 -3.908967506692291
1.0121757193735312 -4.110986797405676
0.9668964022699744 -4.2864856582221496
0.9157659359255973 -4.431768599587132
0.8606112594250733 -4.543690030717699
0.8051114686538579 -4.6202872968095505
0.7552565618712485 -4.661915855772121
0.7054016550886427 -4.6202872968093915
0.6499018643174408 -4.543690030717382
0.5947471878169388 -4.431768599586676
0.5436167214725893 -4.286485658221587
0.49833740436906515 -4.110986797405034
0.4594551950227692 -3.908967506691589
0.4268241953318854 -3.6843343261843757
0.4000468003407492 -3.440982778427242
0.3786635632009591 -3.1826414944783035
0.36219193457625914 -2.9127619817651396
0.3501020998194981 -2.6344269200362236
0.34178066160494824 -2.3502143177427275
0.3365079643140648 -2.0621098267810627
0.3334829495074265 -1.771526030747431
0.3318720664507048 -1.4794432292033637
0.3309873388956958 -1.186526551382423
0.3304165220345858 -0.8931459958317531
0.3300337393459436 -0.5994851844638831
0.32984076891384645 -0.3057532517263003
0.3298187296962212 -0.012259801221626307
1.2540038023263482 -0.012277331979696193
1.2539625301827877 -0.3057569116230559
1.2537492291553733 -0.5994536730927877
1.2533238964620688 -0.8930899648498611
1.2526744992486685 -1.1864385954269459
1.2516045159483797 -1.4792622252125962
1.2495961703691756 -1.7710974642725126
1.2458647774833271 -2.0612152786513223
1.2395172327198443 -2.348630206563227
1.2296466320364263 -2.631945566368775
1.215420605172485 -2.9092027275768704
1.1961124618916752 -3.177849542132757
1.1710866402318456 -3.434820884382442
1.1397748682196414 -3.6766756510529897
1.1016639682658265 -3.8996952920965002
1.0563255893289643 -4.100015561634707
1.0035925289579637 -4.273837808362103
0.9440179062838207 -4.417720425214077
0.8796058789483279 -4.528939889337902
0.8144657347160095 -4.60608750815429
0.7552565618712312 -4.650163299730512
0.6960473890264578 -4.606087508154133
0.630907244794155 -4.528939889337589
0.5664952174586879 -4.417720425213628
0.5069205947845772 -4.27383780836155
0.45418753441361415 -4.100015561634073
0.408849155476791 -3.899695292095808
0.37073825552301604 -3.6766756510522614
0.3394264835108516 -3.434820884381699
0.31440066185105986 -3.1778495421320203
0.2950925185702845 -2.9092027275761634
0.2808664917063718 -2.6319455663681115
0.2709958910229766 -2.348630206562617
0.26464834625950995 -2.0612152786507743
0.2609169533736725 -1.7710974642720334
0.258908607794474 -1.4792622252121934
0.25783862449418743 -1.1864385954266181
0.25718922728078775 -0.8930899648496112
0.2567638945874832 -0.5994536730926138
0.25655059356006915 -0.305756911622959
0.2565093214165086 -0.012277331979677774
1.3273299667912206 -0.012282648872645636
1.3272769579425425 -0.3057542660747255
1.3270477244684338 -0.5994183795819428
1.3265813672788023 -0.8930297967387281
1.3258455312357882 -1.1863354438395322
1.3245593747656368 -1.4790253291671798
1.3221075246007266 -1.770541696581404
1.3176507016817147 -2.060110573595793
1.3102205524333355 -2.346733726501521
1.2988076529774486 -2.6290225554543776
1.2824615817380514 -2.9050437594741236
1.2603367870317308 -3.1722715336872866
1.231689595683871 -3.427661975689538
1.1958625684365192 -3.667791003099611
1.152294924254839 -3.8889614210762744
1.10058464290251 -4.087351023385048
1.0406181346239798 -4.259265497849826
0.9729141406541687 -4.401511038212401
0.899380272459228 -4.511832359582947
0.8243830021103485 -4.589462554369232
0.7552565618712138 -4.636119830290641
0.6861301216320844 -4.589462554369077
0.6111328512832231 -4.511832359582639
0.5375989830883126 -4.401511038211961
0.4698949891185384 -4.259265497849283
0.40992848084005074 -4.087351023384425
0.3582181994877657 -3.8889614210755923
0.3146505553061302 -3.667791003098893
0.2788235280588236 -3.4276619756888054
0.2501763367110064 -3.1722715336865592
0.2280515420047245 -2.9050437594734255
0.21170547076535962 -2.6290225554537208
0.20029257130949804 -2.3467337265009167
0.19286242206113774 -2.0601105735952485
0.1884055991421386 -1.7705416965809266
0.18595374897723532 -1.4790253291667779
0.18466759250708653 -1.1863354438392046
0.18393175646407353 -0.8930297967384783
0.18346539927444233 -0.5994183795817687
0.18323616580033358 -0.30575426607462863
0.18318315695165543 -0.012282648872627202
1.4006718589182747 -0.012281591375570925
1.400618124822613 -0.3057464907702864
1.400382100405009 -0.5993799174416647
1.3998744793714775 -0.8929650116798525
1.3990351670472074 -1.1862116529914963
1.3974966651543896 -1.478717925501478
1.394571295364994 -1.7698491680755142
1.3893784942668288 -2.058792423585977
1.380873086244884 -2.344525294307613
1.3679408619314277 -2.625661718795896
1.3495076128876171 -2.900290424205291
1.3246036173922684 -3.165913495000878
1.2923718805753859 -3.419511748447671
1.2520671789968962 -3.6576862693878165
1.203093978045964 -3.876777006642725
1.1450894852638789 -4.073023397680396
1.078071698215475 -4.242839401949591
1.0026452156358414 -4.383238435561135
0.9204261289298984 -4.492378066355469
0.835237944434468 -4.5702687292288635
0.7552565618711963 -4.619571290053286
0.6752751793079307 -4.5702687292287125
0.5900869948125206 -4.492378066355167
0.5078679081066121 -4.3832384355607035
0.43244142552702053 -4.242839401949057
0.36542363847866444 -4.073023397679785
0.30741914569662865 -3.8767770066420546
0.2584459447457461 -3.65768626938711
0.21814124316730632 -3.41951174844695
0.18590950635047165 -3.1659134950001606
0.16100551085516568 -2.900290424204602
0.14257226181139077 -2.625661718795247
0.12964003749796282 -2.344525294307014
0.12113462947603874 -2.0587924235854365
0.11594182837788813 -1.7698491680750392
0.11301645858850068 -1.4787179255010774
0.11147795669568633 -1.1862116529911693
0.11063864437141753 -0.8929650116796027
0.11013102333788616 -0.5993799174414907
0.10989499892028233 -0.30574649077018956
0.10984126482462085 -0.012281591375552478
1.4740244077392115 -0.01227988272798373
1.47398721906356 -0.30573614485724876
1.4737620316286915 -0.5993396065331784
1.4732077018161576 -0.8928929993767059
1.4722371849397018 -1.186057850581593
1.470413375689038 -1.4783295575604252
1.466996917532768 -1.7690145196697311
1.4610654912759515 -2.057260305055584
1.4515053697987652 -2.3420096381746656
1.4370931412129575 -2.621871270589005
1.4166239706245025 -2.8949526743184824
1.3889931038882517 -3.1587851959713173
1.3532295554265767 -3.4103805176128255
1.3085132647579376 -3.6463746575258362
1.254210722072227 -3.8631580638492826
1.1899932354533025 -4.057054877103499
1.1160208708582298 -4.224610820767857
1.0331443991938163 -4.363025823982808
0.94303762744309 -4.4707400044723276
0.8483774426742972 -4.5483268793636205
0.7552565618711785 -4.599999999999992
0.6621356810680655 -4.548326879363474
0.5674754962992953 -4.470740004472033
0.47736872454860907 -4.363025823982387
0.39449225288424333 -4.224610820767335
0.3205198882892237 -4.057054877102901
0.25630240167035345 -3.8631580638486254
0.20199985898469783 -3.6463746575251426
0.15728356831611373 -3.4103805176121167
0.12152001985449139 -3.158785195970612
0.09388915311828788 -2.8949526743178033
0.0734199825298714 -2.6218712705883642
0.05900775394409484 -2.3420096381740727
0.04944763246693141 -2.0572603050550486
0.043516206210130866 -1.769014519669259
0.040099748053870364 -1.4783295575600257
0.03827593880321067 -1.1860578505812664
0.037305421926756344 -0.8928929993764562
0.036751092114223304 -0.5993396065330043
0.03652590467935509 -0.30573614485715195
0.03648871600370351 -0.012279882727965284
SCALARS Stress float 6
LOOKUP_TABLE default
-1314.9842755342574 -2121.7297988118253 -1642.7671205535894 -30.796019379661374 0.0 0.0
1399.2358149855115 826.6198375826568 1056.8166669064299 -19.311962008771594 0.0 0.0
644.5649261269489 183.59858131800488 273.01828836926643 -42.73834268544811 0.0 0.0
509.9644949243339 37.018846199606855 172.4049665632959 -0.4520672887936983 0.0 0.0
642.4756276436123 92.1040138885011 274.6955039381812 3.453784820062604 0.0 0.0
774.4607292255564 150.9433720144885 413.5119947982813 1.688370704597653 0.0 0.0
914.1057602869801 214.6893967044271 542.6576347584273 0.21257806512222577 0.0 0.0
1059.2959256889576 296.57445970331645 664.757002128779 -1.3185564434595696 0.0 0.0
1215.6868713295319 395.1815235810816 793.9791363021186 -3.1572002211543455 0.0 0.0
1391.3129856305757 517.8358830494745 943.2537831553951 -5.167447347749256 0.0 0.0
1591.9103175835849 669.9623112450219 1119.2811581540718 -7.02132509299665 0.0 0.0
1817.084134945056 851.4183863330389 1322.1604730292602 -8.39085683539409 0.0 0.0
2060.7463776231257 1054.8815337571525 1545.2776907033174 -9.226658617261425 0.0 0.0
2314.873354688368 1272.1243987839225 1780.5448586848129 -9.85694004992866 0.0 0.0
2569.2982435791932 1492.7971807959143 2017.698662788012 -10.239246784997473 0.0 0.0
2812.0887185642664 1704.990359577253 2244.84355091337 -10.262339597103557 0.0 0.0
3030.664512176442 1896.4586148194055 2449.602208408478 -9.760932924786974 0.0 0.0
3212.8791026400945 2055.5004508065913 2620.0577762111175 -8.73333981200866 0.0 0.0
3358.5520238236745 2182.4174999300976 2756.126558101731 -7.731436319022645 0.0 0.0
3452.2469949596675 2262.569132451167 2842.752525200347 -10.677287269288904 0.0 0.0
3444.1664797513135 2253.963963531998 2834.551618604399 -2.306066448909405e-11 0.0 0.0
3452.2469949572637 2262.569132448759 2842.752525198618 10.677287269007612 0.0 0.0
3358.5520238256527 2182.4174999321945 2756.1265581027933 7.73143631923131 0.0 0.0
3212.879102638149 2055.500450804747 2620.057776209232 8.733339812034858 0.0 0.0
3030.6645121758443 1896.45861481894 2449.602208407557 9.760932924802042 0.0 0.0
2812.0887185640795 1704.990359577225 2244.8435509130404 10.262339597188184 0.0 0.0
2569.298243576049 1492.7971807928984 2017.6986627852268 10.239246785081459 0.0 0.0
2314.8733546885182 1272.1243987842868 1780.5448586846796 9.856940049814186 0.0 0.0
2060.746377621009 1054.88153375526 1545.2776907014436 9.226658617302583 0.0 0.0
1817.0841349430618 851.4183863312753 1322.1604730277347 8.39085683557564 0.0 0.0
1591.9103175826078 669.9623112443196 1119.2811581531143 7.021325092869345 0.0 0.0
1391.3129856286928 517.8358830478255 943.2537831539703 5.167447347760415 0.0 0.0
1215.6868713294073 395.1815235812429 793.9791363017994 3.157200221174948 0.0 0.0
1059.2959256867082 296.57445970132255 664.7570021272182 1.3185564431806736 0.0 0.0
914.1057602867734 214.6893967045408 542.6576347580825 -0.21257806513466626 0.0 0.0
774.4607292246452 150.94337201382731 413.5119947974698 -1.6883707046324652 0.0 0.0
642.4756276433809 92.10401388863491 274.6955039378955 -3.4537848201207986 0.0 0.0
509.96449492418157 37.01884619967104 172.404966563223 0.45206728865872137 0.0 0.0
644.5649261266683 183.59858131805657 273.0182883691191 42.73834268561393 0.0 0.0
1399.2358149852696 826.6198375824576 1056.816666906055 19.311962008767665 0.0 0.0
-1314.9842755313412 -2121.729798808993 -1642.7671205507615 30.796019379056947 0.0 0.0
-1674.37410009696 -2452.866179218012 -1957.9776943501222 -33.679325622317855 0.0 0.0
955.0421522519727 455.57808139705617 665.4412883563373 -26.91246945857393 0.0 0.0
451.92610752134107 71.70852231579713 156.55656383045826 -37.62194248354073 0.0 0.0
448.5618777682589 9.337411688466307 141.0257149058249 -15.519611335649119 0.0 0.0
567.4301543157834 41.78540475301446 219.17080881698354 -17.296392105978082 0.0 0.0
674.1023370098446 60.5693793859585 323.2166505346761 -23.417332590632004 0.0 0.0
766.3511177659161 82.1995221120542 412.04111350661947 -24.640584680434724 0.0 0.0
854.2270966971249 105.13902952144394 476.96502016634133 -24.93320325158057 0.0 0.0
933.6336136555472 126.23062203609713 528.8586734045898 -25.72334066572691 0.0 0.0
1006.096066254429 146.0530756471661 575.3626572417269 -26.689822114411474 0.0 0.0
1074.980059849368 167.16766115443883 620.4459383055977 -27.24112198620135 0.0 0.0
1142.83207848902 191.29086416203853 666.4533167443149 -27.27806381069766 0.0 0.0
1209.2649023391066 218.5222913932658 713.3038923605061 -26.901659959430795 0.0 0.0
1271.6902852773228 244.53961515575796 757.5395137964074 -26.321776403092663 0.0 0.0
1324.8877871947332 264.46383644801756 794.1191246527285 -25.524343548044904 0.0 0.0
1364.6560581450847 274.047194697154 818.8167872675261 -24.258685881621922 0.0 0.0
1388.5552520994302 271.0629800176652 829.2895666455913 -22.293987032826944 0.0 0.0
1397.088874171292 256.44865555570055 826.2530247134082 -19.767846411392807 0.0 0.0
1382.8466426739328 223.52039430431154 802.7870815360827 -17.646344629960048 0.0 0.0
1295.8513416309058 123.56233996914531 710.0315577402846 -19.020101677112805 0.0 0.0
1153.9634760376575 -17.929883735302056 569.4192071832667 1.1400658195270807e-11 0.0 0.0
1295.851341630517 123.56233996879007 710.0315577400494 19.020101676926092 0.0 0.0
1382.8466426761713 223.52039430665246 802.7870815376812 17.64634463024398 0.0 0.0
1397.0888741712565 256.4486555557234 826.2530247134639 19.76784641132795 0.0 0.0
1388.5552521010356 271.0629800194202 829.289566646833 22.293987032868774 0.0 0.0
1364.656058145789 274.0471946980066 818.8167872680301 24.25868588165683 0.0 0.0
1324.8877871938296 264.4638364472629 794.1191246520593 25.52434354809752 0.0 0.0
1271.6902852782512 244.539615156893 757.5395137970584 26.321776403102866 0.0 0.0
1209.2649023377885 218.52229139210974 713.3038923596163 26.90165995932115 0.0 0.0
1142.8320784881746 191.29086416145734 666.4533167438939 27.278063810799907 0.0 0.0
1074.9800598490538 167.1676611543914 620.445938305396 27.24112198622405 0.0 0.0
1006.096066252889 146.05307564586644 575.3626572407687 26.689822114427297 0.0 0.0
933.6336136547789 126.23062203556391 528.8586734040517 25.723340665777208 0.0 0.0
854.2270966961266 105.13902952071732 476.9650201656814 24.933203251378618 0.0 0.0
766.3511177657721 82.19952211221508 412.0411135064285 24.640584680481734 0.0 0.0
674.1023370091498 60.56937938552889 323.21665053406315 23.417332590516985 0.0 0.0
567.430154315762 41.78540475346501 219.1708088168919 17.296392105996567 0.0 0.0
448.56187776774243 9.337411688057763 141.02571490554178 15.519611335550717 0.0 0.0
451.9261075212929 71.70852231612906 156.55656383055094 37.62194248364195 0.0 0.0
955.0421522513491 455.5780813965158 665.4412883556502 26.91246945853704 0.0 0.0
-1674.3741000951113 -2452.8661792161092 -1957.9776943481152 33.679325621826926 0.0 0.0
-1412.847144900062 -2156.2344448856284 -1669.1910399772146 -72.16000567979304 0.0 0.0
776.9294948532277 363.17160279040723 522.8667353001703 -94.8637272585679 0.0 0.0
312.42464993717397 82.15392432376305 118.43464988474807 -42.007063590034356 0.0 0.0
385.3328742252541 3.0114214188655577 116.89759533687719 -37.42993087008569 0.0 0.0
522.12017875437 31.521360488508783 187.30417021008563 -39.84781612677982 0.0 0.0
640.0552104448242 54.4643526891798 291.227241062285 -43.77657711386005 0.0 0.0
735.6901667403445 76.20941892653723 388.109023864253 -45.4780294623733 0.0 0.0
822.7923690227697 95.09054058457536 454.8202124234051 -46.33277157732931 0.0 0.0
898.7048678200625 112.2184990086883 504.01530716216314 -47.89766867078908 0.0 0.0
967.1066337105947 128.02367312427774 546.5606771156032 -49.2291648920782 0.0 0.0
1032.7689519076243 146.44734103874353 588.6799288486782 -49.592690196994624 0.0 0.0
1097.8263236616547 168.92818461872878 632.4789726936812 -49.104505282181705 0.0 0.0
1161.7517768060814 193.53222813984715 676.7841573115537 -48.19956175864965 0.0 0.0
1221.1174411987774 217.62046909131112 718.5386624089634 -46.99457009317523 0.0 0.0
1272.9826609309307 236.73153199470676 754.0375531423142 -45.42703312501632 0.0 0.0
1313.2831371947238 247.21781506192787 779.4391737029953 -43.18098903060099 0.0 0.0
1339.3418586605524 246.52701272865158 792.1476477203269 -39.95794415863865 0.0 0.0
1346.4009179465622 230.39990451520035 787.7090419645789 -36.1080753373516 0.0 0.0
1319.5223129510885 184.90073575309964 751.8079609344859 -32.80035468862722 0.0 0.0
1271.2872657438559 124.032344295512 697.6148382863742 -31.214441611534205 0.0 0.0
1109.329325958323 -36.74262985002345 537.4542829114479 7.905498478066875e-11 0.0 0.0
1271.2872657435523 124.03234429525871 697.6148382860882 31.214441611646315 0.0 0.0
1319.5223129506196 184.9007357526762 751.8079609342371 32.80035468888035 0.0 0.0
1346.4009179475975 230.39990451632758 787.7090419655709 36.108075337322134 0.0 0.0
1339.3418586622308 246.527012730524 792.1476477215494 39.957944158860336 0.0 0.0
1313.2831371945597 247.21781506188802 779.4391737028787 43.180989030698136 0.0 0.0
1272.9826609308075 236.7315319947462 754.0375531423108 45.42703312501821 0.0 0.0
1221.1174411986528 217.620469091377 718.5386624088698 46.99457009320426 0.0 0.0
1161.751776805257 193.5322281392405 676.784157311032 48.19956175870552 0.0 0.0
1097.8263236611344 168.92818461845562 632.4789726934247 49.10450528228789 0.0 0.0
1032.7689519078926 146.4473410392384 588.6799288488442 49.592690196848835 0.0 0.0
967.1066337097049 128.02367312368207 546.5606771150588 49.22916489211511 0.0 0.0
898.7048678196593 112.21849900862584 504.0153071618772 47.89766867105468 0.0 0.0
822.7923690222652 95.09054058435862 454.8202124230592 46.33277157732067 0.0 0.0
735.6901667403638 76.20941892688289 388.1090238641246 45.478029462386104 0.0 0.0
640.0552104444914 54.464352689131644 291.2272410618871 43.77657711362403 0.0 0.0
522.1201787542782 31.521360488942634 187.30417021002486 39.84781612683335 0.0 0.0
385.3328742247358 3.011421418244243 116.89759533654654 37.429930870044366 0.0 0.0
312.4246499372758 82.15392432390885 118.43464988481826 42.00706358996282 0.0 0.0
776.9294948525339 363.17160279009175 522.8667352995103 94.86372725838652 0.0 0.0
-1412.8471448981027 -2156.2344448836084 -1669.1910399751032 72.16000567950937 0.0 0.0
-1161.4222773720846 -1874.0876358685969 -1396.9532120052625 -85.97101255221014 0.0 0.0
596.4098727074697 267.95400598130885 389.20807146663395 -145.9250876853216 0.0 0.0
225.36537673483662 68.13070184870935 88.04882357506379 -63.286065423138545 0.0 0.0
320.3932027393137 8.645985664836152 98.44250172623171 -60.67062391137921 0.0 0.0
466.1496549321366 19.02289911520333 154.850860284512 -64.98118830840943 0.0 0.0
593.9486885829286 46.81868608994226 253.48570609306606 -65.3238494487198 0.0 0.0
701.2847531763721 68.38198778421514 358.33196601168567 -67.61451190823375 0.0 0.0
786.4955777971638 85.22880852095345 429.24604155359214 -67.88937489959075 0.0 0.0
859.6417628408892 98.4934051939654 476.97507388758027 -69.63758493654046 0.0 0.0
924.3551775366705 110.63163821976772 516.0925895609103 -70.95000448690126 0.0 0.0
986.4085293470364 125.99713588142103 554.8850808367692 -70.98423828764479 0.0 0.0
1048.7008862335163 145.93527125954128 596.0372911958659 -70.08940644114561 0.0 0.0
1109.6551705573625 168.82498142817178 638.0329661631131 -68.65687670924981 0.0 0.0
1166.4472919508703 190.09063120536044 677.0977009412017 -66.91533405264718 0.0 0.0
1216.6258552851743 208.1934704219549 711.238472823179 -64.64471562919505 0.0 0.0
1257.9983756612917 220.2646137556925 737.9662402188837 -61.57454854257689 0.0 0.0
1285.6721934519037 221.0870112737796 752.2673743175269 -57.5535596481481 0.0 0.0
1291.6712578383513 203.71539421655353 746.7501612280615 -52.84685461450405 0.0 0.0
1272.7046821074846 165.87128256633642 718.5896553363526 -47.76347448295486 0.0 0.0
1244.478880197397 124.3543470598244 683.9194502177876 -41.71037184861063 0.0 0.0
1018.6237190740552 -99.74632760283117 460.79987664428677 -2.1600499167107046e-11 0.0 0.0
1244.4788801983916 124.35434706087332 683.9194502185105 41.71037184869822 0.0 0.0
1272.7046821066551 165.87128256561675 718.5896553356924 47.76347448308525 0.0 0.0
1291.6712578398287 203.7153942181746 746.7501612292313 52.84685461469407 0.0 0.0
1285.6721934528368 221.08701127481194 752.2673743180916 57.55355964823467 0.0 0.0
1257.9983756604302 220.26461375493875 737.966240218418 61.57454854246983 0.0 0.0
1216.625855284936 208.1934704218624 711.2384728230727 64.64471562917863 0.0 0.0
1166.4472919510918 190.0906312058442 677.0977009413003 66.91533405273198 0.0 0.0
1109.6551705562108 168.82498142715863 638.0329661623758 68.65687670927905 0.0 0.0
1048.7008862331793 145.93527125946386 596.0372911956467 70.0894064411462 0.0 0.0
986.408529347294 125.99713588186793 554.885080836867 70.9842382875338 0.0 0.0
924.355177537129 110.63163822059406 516.0925895612377 70.95000448703301 0.0 0.0
859.6417628412169 98.4934051946074 476.97507388780963 69.63758493669494 0.0 0.0
786.4955777966272 85.22880852063759 429.2460415532042 67.8893748994116 0.0 0.0
701.2847531764426 68.38198778462649 358.33196601154896 67.61451190811839 0.0 0.0
593.94868858277 46.81868609012955 253.485706092791 65.32384944858516 0.0 0.0
466.1496549320109 19.022899115600545 154.8508602845183 64.98118830835237 0.0 0.0
320.39320273918867 8.64598566477908 98.44250172618145 60.670623911355854 0.0 0.0
225.36537673476525 68.13070184860491 88.04882357501104 63.28606542287369 0.0 0.0
596.4098727068364 267.9540059808981 389.2080714660089 145.9250876850829 0.0 0.0
-1161.4222773701745 -1874.087635866609 -1396.9532120032486 85.97101255195676 0.0 0.0
-941.4132101625727 -1628.5282920380237 -1156.966519549948 -84.36340204544838 0.0 0.0
462.6201306524213 182.27320675878525 283.45506491156243 -179.22732366433985 0.0 0.0
164.44116353172686 52.527514161279036 65.09060330790177 -94.21418175901415 0.0 0.0
260.4404706630489 14.95668878121342 82.59082545527141 -86.024489401097 0.0 0.0
400.081266439814 10.854169346914894 125.62573895301776 -91.70374004816144 0.0 0.0
538.1107056765962 33.87566428022304 210.75418166372805 -90.49478752009469 0.0 0.0
655.7557932525717 59.25938772479965 319.8277565813381 -90.02553793152579 0.0 0.0
744.3907596115484 75.9177787537227 399.43773201142153 -89.83564229553446 0.0 0.0
815.8456349902522 85.39204184397308 447.335449608833 -90.86147585072851 0.0 0.0
876.9305671212036 93.60816268653926 483.2789618688135 -91.81795596860154 0.0 0.0
935.6613261108304 105.66365827456174 518.8058865390568 -91.43835278650242 0.0 0.0
994.6698288686866 122.8611091951033 556.9640367290971 -90.13259554264374 0.0 0.0
1052.7715590943262 142.9870100547534 596.1765255354838 -88.3403106224389 0.0 0.0
1106.9084078764718 162.97761845187532 633.3061307524933 -86.03921146406513 0.0 0.0
1155.4845490131756 179.50067557233712 665.86233548822 -83.10967881449419 0.0 0.0
1196.6699849760298 191.2335459471705 692.3114148353995 -79.47679142569712 0.0 0.0
1226.495636583716 194.54038530499798 708.9456888263978 -75.03236023742328 0.0 0.0
1238.2143927227823 182.6207505440118 709.0266567861164 -69.65336516677868 0.0 0.0
1228.7640910836324 153.4751330205761 689.9558112684726 -62.537287786133646 0.0 0.0
1210.078563710567 119.98306543600022 664.0172731310336 -52.44102893574281 0.0 0.0
906.1734676864379 -181.40502254943084 364.13211878737275 1.1330847371482378e-10 0.0 0.0
1210.0785637132603 119.98306543875051 664.0172731333324 52.44102893596742 0.0 0.0
1228.7640910831383 153.47513302015568 689.95581126798 62.537287786313996 0.0 0.0
1238.2143927235463 182.62075054487303 709.0266567866029 69.65336516690047 0.0 0.0
1226.4956365833311 194.5403853046722 708.9456888260977 75.0323602373459 0.0 0.0
1196.6699849763586 191.23354594763916 692.3114148357575 79.47679142560827 0.0 0.0
1155.4845490125142 179.5006755718289 665.8623354877712 83.1096788145111 0.0 0.0
1106.9084078769768 162.9776184525798 633.3061307527872 86.03921146413855 0.0 0.0
1052.7715590934783 142.98701005408248 596.1765255350341 88.34031062234413 0.0 0.0
994.6698288684825 122.86110919507405 556.9640367288868 90.13259554266921 0.0 0.0
935.6613261101817 105.663658274053 518.8058865385575 91.43835278624033 0.0 0.0
876.9305671213399 93.6081626869354 483.2789618689607 91.81795596855169 0.0 0.0
815.8456349890561 85.39204184289423 447.33544960806574 90.86147585046943 0.0 0.0
744.3907596114351 75.91777875387345 399.4377320112495 89.83564229545723 0.0 0.0
655.7557932521431 59.25938772458737 319.8277565808628 90.02553793127794 0.0 0.0
538.1107056761102 33.87566428002848 210.7541816633127 90.49478752003287 0.0 0.0
400.08126643952056 10.854169347144978 125.62573895297818 91.7037400480081 0.0 0.0
260.44047066295934 14.956688781271712 82.59082545526063 86.02448940091853 0.0 0.0
164.44116353167672 52.5275141612843 65.09060330788829 94.21418175881152 0.0 0.0
462.6201306518054 182.27320675827409 283.45506491097507 179.22732366412583 0.0 0.0
-941.4132101607304 -1628.5282920360125 -1156.96651954804 84.3634020453224 0.0 0.0
-747.4181640125728 -1411.6656125712366 -943.0248067030474 -79.40476400617328 0.0 0.0
357.46988716798813 115.34044142775855 201.43895238447166 -199.10218242478163 0.0 0.0
118.92959548188071 35.80827288265031 46.421360509359296 -124.0746345408423 0.0 0.0
207.70156535202742 19.353023462446288 68.12188950911808 -111.67384230833751 0.0 0.0
328.55163018267694 6.770552140161574 100.1258092508566 -118.7150820208655 0.0 0.0
467.32792799984963 20.900207488090647 167.3755083910459 -117.15444828725586 0.0 0.0
594.5270970132383 49.34917422211399 272.50291184027026 -113.62122415724816 0.0 0.0
694.7912786046647 64.37404250420579 361.53204268997655 -112.69728433675034 0.0 0.0
764.5473629009809 72.60349123004247 413.151212193521 -111.57822340079824 0.0 0.0
824.0066683706025 76.75898582341401 447.4258082550502 -111.8231087767061 0.0 0.0
879.3168780387049 85.40743449744598 479.724616184805 -110.9183577123042 0.0 0.0
935.0309465035137 99.79650464461172 514.8586111995625 -109.17350390448418 0.0 0.0
989.9697924676036 117.54562066102878 551.3256706411789 -107.02789974474294 0.0 0.0
1041.326042136966 134.76853178444108 585.7119190084052 -104.38613201401381 0.0 0.0
1087.8139972303347 149.88124800451226 616.5457791796597 -100.90023062613383 0.0 0.0
1128.3765665261617 161.54165889352328 642.6534431405894 -96.68371899654487 0.0 0.0
1161.3181400673875 167.3643855016154 662.0607811934427 -92.09811725004364 0.0 0.0
1181.887832865045 164.03502440784948 670.8441285937286 -86.38776242364077 0.0 0.0
1183.1599321187796 144.60898746510878 662.0268227745696 -77.6976276404596 0.0 0.0
1170.2236116620904 114.49158407165997 640.6631977616576 -64.19908887048557 0.0 0.0
774.6385396499738 -277.2428404965656 251.02230083207286 4.1039172060663986e-11 0.0 0.0
1170.223611663139 114.49158407279552 640.6631977626558 64.19908887057022 0.0 0.0
1183.1599321184153 144.60898746476622 662.0268227743536 77.69762764050536 0.0 0.0
1181.8878328642313 164.0350244070847 670.8441285930951 86.38776242368984 0.0 0.0
1161.318140067271 167.36438550159937 662.0607811933602 92.0981172499448 0.0 0.0
1128.376566527105 161.54165889465418 642.6534431414491 96.68371899668873 0.0 0.0
1087.8139972310119 149.88124800538156 616.545779180052 100.9002306261866 0.0 0.0
1041.3260421376199 134.7685317852992 585.711919008797 104.38613201401691 0.0 0.0
989.9697924673331 117.54562066091421 551.3256706410073 107.0278997447555 0.0 0.0
935.0309465027112 99.79650464389579 514.8586111990179 109.17350390429577 0.0 0.0
879.3168780387018 85.40743449756432 479.7246161847815 110.91835771209048 0.0 0.0
824.0066683706139 76.75898582363538 447.42580825498686 111.82310877653411 0.0 0.0
764.5473629000865 72.60349122933467 413.15121219292007 111.57822340063743 0.0 0.0
694.7912786047049 64.37404250472319 361.53204268995137 112.69728433691044 0.0 0.0
594.5270970125633 49.34917422170434 272.5029118396363 113.62122415712317 0.0 0.0
467.32792799910266 20.900207487476173 167.37550839050434 117.15444828709336 0.0 0.0
328.5516301821381 6.770552139870661 100.12580925062939 118.71508202067378 0.0 0.0
207.70156535192967 19.353023462257042 68.12188950903018 111.67384230825482 0.0 0.0
118.92959548204573 35.80827288279125 46.421360509451084 124.07463454072776 0.0 0.0
357.4698871674592 115.3404414274447 201.43895238401456 199.10218242458424 0.0 0.0
-747.4181640113003 -1411.6656125697396 -943.0248067015236 79.40476400612606 0.0 0.0
-578.9436166389199 -1214.4831566918247 -752.0667470084331 -74.51523660763328 0.0 0.0
274.0766765935328 62.70820803641322 138.13324426222366 -211.80130294997463 0.0 0.0
82.74688852960765 19.980364866721228 30.81830432323274 -148.7698663973226 0.0 0.0
159.20058411240956 22.28228784729246 54.444949175945645 -135.33442124377515 0.0 0.0
255.63466773333246 6.701454786285 78.11882010262228 -142.52720433326147 0.0 0.0
384.87492043023104 7.504026279296724 125.3507879679603 -147.0377078138979 0.0 0.0
517.9601647981236 34.41072595654361 216.39150006161952 -140.1899071044976 0.0 0.0
627.8119469432862 53.57389840325542 312.05655254514215 -135.3856734763422 0.0 0.0
706.3416626109295 57.44285753294922 371.8126041584273 -133.3052442080345 0.0 0.0
762.4898135737105 59.997705164078454 406.5035202660865 -130.84620687854314 0.0 0.0
815.9757734775076 65.32292873633511 436.72173226624795 -129.31409693939597 0.0 0.0
868.2644092403813 76.65479374074837 468.70621340051247 -127.13656407739147 0.0 0.0
919.5686435383573 91.55399089066582 501.9714106578749 -124.67580403164598 0.0 0.0
967.9804681868259 106.77283854997292 533.9150314077491 -121.79597679101255 0.0 0.0
1011.8509084608517 119.8199671388541 562.4693610389795 -117.9964712375085 0.0 0.0
1050.8066435930348 129.3690817383669 586.7274650083128 -113.3849168395633 0.0 0.0
1086.6850725262764 139.18155845543401 609.5327986405135 -108.34886207738805 0.0 0.0
1118.7482232058073 146.4707222603096 629.3134487397941 -102.82490645561685 0.0 0.0
1133.3637304654878 138.45883106672682 632.9227082571565 -93.69652872717502 0.0 0.0
1125.7765367748725 110.74361253984756 615.5426267355225 -77.8417427403303 0.0 0.0
622.5167274526756 -385.99252686345915 121.40023785783369 4.526867769527598e-11 0.0 0.0
1125.7765367739662 110.74361253899681 615.5426267350665 77.8417427405048 0.0 0.0
1133.3637304648648 138.45883106611126 632.9227082567127 93.69652872724642 0.0 0.0
1118.748223204009 146.47072225851917 629.3134487386751 102.82490645566762 0.0 0.0
1086.685072527663 139.1815584569651 609.5327986413578 108.34886207737726 0.0 0.0
1050.8066435913067 129.36908173669588 586.727465007393 113.38491683950264 0.0 0.0
1011.8509084614728 119.81996713974269 562.4693610393799 117.99647123775517 0.0 0.0
967.9804681870422 106.77283855029714 533.9150314077785 121.79597679099273 0.0 0.0
919.5686435375231 91.55399089000362 501.9714106573174 124.67580403162764 0.0 0.0
868.2644092391001 76.6547937395805 468.7062133996734 127.13656407730882 0.0 0.0
815.9757734781715 65.32292873738326 436.7217322667114 129.31409693956954 0.0 0.0
762.4898135739747 59.99770516460454 406.5035202662489 130.84620687854039 0.0 0.0
706.3416626107643 57.44285753325175 371.81260415832173 133.30524420815465 0.0 0.0
627.8119469438815 53.57389840432847 312.0565525454203 135.3856734763949 0.0 0.0
517.9601647979355 34.41072595673367 216.39150006135185 140.1899071044364 0.0 0.0
384.8749204299999 7.504026279484528 125.3507879678484 147.03770781377827 0.0 0.0
255.63466773318845 6.701454786597373 78.11882010268874 142.52720433290864 0.0 0.0
159.20058411202186 22.28228784671977 54.44494917565777 135.33442124355884 0.0 0.0
82.74688852949232 19.980364866649808 30.818304323176687 148.76986639715096 0.0 0.0
274.0766765932546 62.70820803641112 138.13324426199935 211.80130294981146 0.0 0.0
-578.943616637603 -1214.483156690454 -752.0667470070474 74.51523660741603 0.0 0.0
-430.28040996701895 -1041.92105078849 -582.3744716362436 -76.979550034293 0.0 0.0
203.62682211791764 22.883637773351047 88.71537917158382 -216.66847999740654 0.0 0.0
52.17072562857291 6.969006794030828 17.741381244701465 -167.29103677887963 0.0 0.0
112.5125290677486 23.576763882769114 40.826534648217425 -155.4611501634416 0.0 0.0
186.17295894071557 8.452542314885648 58.107559067890776 -162.710747428831 0.0 0.0
290.84541771585975 -0.0348144196092921 88.52592374201933 -175.09626151644068 0.0 0.0
419.4855590678105 17.113488538583663 155.54094983473036 -169.19008934969634 0.0 0.0
540.2045383315691 37.71524022191057 246.7170833454935 -159.37708428696976 0.0 0.0
629.2219544791594 43.766205588914055 317.3683765604491 -153.80292892930635 0.0 0.0
690.4917852789522 41.0779396269849 356.8063070323325 -150.03809410982626 0.0 0.0
741.2912927492156 44.53141632354395 386.3811791576564 -146.46069198828815 0.0 0.0
790.5922157655539 53.54511745773438 416.10522703518336 -143.74610721429224 0.0 0.0
838.241433652261 65.49544717278928 446.1599611347142 -140.99447458172384 0.0 0.0
882.7147114006236 77.93100183744151 474.7751912859073 -138.023950415592 0.0 0.0
924.165011779601 89.19781698326096 501.2720296652854 -134.31547374301886 0.0 0.0
961.1438227871298 97.75641678887627 524.1536508317737 -129.4353986782882 0.0 0.0
997.1506989901167 106.50276877158576 546.4945662681814 -123.86137508133183 0.0 0.0
1040.0723343021846 124.48861049072283 576.8588754623718 -118.47601194680415 0.0 0.0
1075.0416020791565 135.90793953388993 600.413346666931 -110.5085493511557 0.0 0.0
1077.5866512005168 114.14037269715203 591.378674720617 -94.44455566987001 0.0 0.0
444.27303121787054 -506.79299254560544 -26.947363725663337 -9.118039656641486e-11 0.0 0.0
1077.5866512003363 114.14037269725118 591.3786747206377 94.44455567013404 0.0 0.0
1075.041602078799 135.90793953355137 600.4133466665235 110.50854935141152 0.0 0.0
1040.07233430066 124.48861048940789 576.8588754615133 118.4760119468809 0.0 0.0
997.1506989913674 106.50276877295008 546.4945662687219 123.86137508165001 0.0 0.0
961.1438227861714 97.75641678823953 524.1536508311451 129.43539867825285 0.0 0.0
924.1650117791852 89.19781698294642 501.2720296649439 134.31547374316537 0.0 0.0
882.7147113993964 77.93100183618947 474.7751912850415 138.02395041547618 0.0 0.0
838.2414336522974 65.49544717310835 446.1599611347993 140.99447458180882 0.0 0.0
790.5922157653324 53.54511745781937 416.1052270350427 143.7461072144396 0.0 0.0
741.2912927484965 44.531416322828335 386.3811791571146 146.4606919881041 0.0 0.0
690.4917852791523 41.077939627547806 356.8063070325372 150.0380941098771 0.0 0.0
629.2219544789039 43.766205589158204 317.36837656025284 153.8029289294394 0.0 0.0
540.2045383312696 37.71524022184641 246.71708334521117 159.37708428690968 0.0 0.0
419.4855590673848 17.11348853848152 155.5409498344019 169.19008934962122 0.0 0.0
290.84541771555746 -0.03481441951207165 88.52592374193937 175.09626151626813 0.0 0.0
186.1729589407089 8.452542315243038 58.1075590680067 162.7107474285157 0.0 0.0
112.51252906768688 23.57676388286674 40.826534648233405 155.46115016310617 0.0 0.0
52.170725628448814 6.969006793963475 17.741381244642366 167.29103677866888 0.0 0.0
203.62682211743734 22.883637773108322 88.71537917126581 216.66847999734358 0.0 0.0
-430.2804099660641 -1041.9210507873563 -582.3744716351085 76.97955003410209 0.0 0.0
-312.4108014240113 -877.1698962350267 -440.52095919961664 -80.95257126531656 0.0 0.0
143.2999958420469 -9.365641446258056 50.72295494451255 -215.26116573138896 0.0 0.0
24.065346470557483 -2.034460137667033 6.608149570141221 -180.2991717724861 0.0 0.0
66.73744533522299 23.360976123408843 27.020726643492132 -171.485208730041 0.0 0.0
119.03161400456219 11.437823179717027 39.00821925533308 -178.4099001832239 0.0 0.0
190.87761074565674 -0.675179832267466 56.96169306251077 -196.34970758051477 0.0 0.0
296.3597543409836 1.0456255121765965 95.90390363106819 -201.3180074688049 0.0 0.0
420.69924451925874 15.10711145091311 164.5706814990849 -187.63755257985005 0.0 0.0
523.4400395181948 24.08584699865516 237.94973990128068 -173.92485293918097 0.0 0.0
593.3540882062093 22.152171479668304 287.4643264537735 -166.857889600454 0.0 0.0
645.8766070200288 23.392040696065177 320.97097612832175 -161.70764719634823 0.0 0.0
692.6606522682716 29.4990846757979 349.44481872113215 -158.47642240756102 0.0 0.0
736.3279332242272 39.1313731318872 376.9258768202102 -155.50820502342222 0.0 0.0
776.1949460762249 48.67332616637789 401.95796439300295 -152.59698997067477 0.0 0.0
814.0406451075036 58.067266618523 425.8155802582462 -149.36434784243826 0.0 0.0
850.3639343924123 66.62579102006043 448.54897831787895 -145.005618472645 0.0 0.0
885.463694014686 74.1752272419222 470.21893244372603 -139.01255880472183 0.0 0.0
929.9010450692372 92.09145678453885 501.3146353226663 -132.7332736965853 0.0 0.0
991.0150793862888 127.26122938721626 549.5385821647131 -127.40004136416174 0.0 0.0
1023.9241897060874 130.91652841696384 569.0938360030196 -115.86080340825016 0.0 0.0
230.35203712732448 -634.9816512090049 -196.1191032347324 -1.1826983836726868e-11 0.0 0.0
1023.9241897085033 130.91652841975898 569.0938360047903 115.8608034085933 0.0 0.0
991.0150793858639 127.26122938661985 549.5385821645401 127.40004136439526 0.0 0.0
929.9010450709136 92.0914567866449 501.31463532388807 132.73327369666106 0.0 0.0
885.4636940132777 74.17522724012291 470.2189324426916 139.01255880461912 0.0 0.0
850.3639343940396 66.62579102231908 448.5489783190731 145.00561847294838 0.0 0.0
814.0406451075305 58.067266618505236 425.8155802582903 149.36434784243556 0.0 0.0
776.1949460760338 48.67332616644073 401.9579643928408 152.5969899706494 0.0 0.0
736.3279332247362 39.13137313278645 376.925876820554 155.50820502366832 0.0 0.0
692.6606522680661 29.49908467581315 349.44481872107895 158.47642240770244 0.0 0.0
645.876607019141 23.392040695271028 320.9709761277065 161.70764719624998 0.0 0.0
593.3540882057965 22.152171479238646 287.46432645345214 166.8578896002973 0.0 0.0
523.4400395177106 24.085846998446343 237.94973990090685 173.92485293909914 0.0 0.0
420.6992445178616 15.10711144927469 164.57068149806753 187.63755257966795 0.0 0.0
296.3597543407897 1.0456255124244782 95.90390363101432 201.31800746867708 0.0 0.0
190.87761074503692 -0.6751798331414793 56.96169306207399 196.34970758015822 0.0 0.0
119.03161400446905 11.437823179759576 39.00821925532835 178.40990018305087 0.0 0.0
66.73744533541654 23.36097612385784 27.0207266436832 171.4852087299867 0.0 0.0
24.065346470520847 -2.0344601377429496 6.608149570107136 180.29917177221876 0.0 0.0
143.2999958416991 -9.36564144642983 50.72295494429101 215.26116573122223 0.0 0.0
-312.41080142332487 -877.1698962339723 -440.5209591987193 80.95257126534628 0.0 0.0
-216.14244433804103 -729.9369687375988 -322.99446858359914 -93.06121444703767 0.0 0.0
89.18765375561061 -35.32847545053251 20.698071202226238 -207.81234093985466 0.0 0.0
-3.20687158943894 -6.263568749407829 -2.860207284383436 -187.76349581334355 0.0 0.0
21.40397852755067 22.08894137328203 13.044234878133803 -182.47873601364 0.0 0.0
52.06982551313143 14.628908260501534 19.966067161478453 -189.46809580835526 0.0 0.0
91.86151362097206 2.7692542787170566 28.309203475211696 -209.6848128282926 0.0 0.0
150.5402922700801 -2.7559861271902526 45.031909439359524 -224.73206658497753 0.0 0.0
243.76613359039973 -6.975917352753589 75.33149628991579 -221.88670899697334 0.0 0.0
355.0612493783673 -13.288936021888475 117.30830976791272 -200.56381977114572 0.0 0.0
439.14451816079713 -11.836506283054625 161.74520152738876 -178.11144275016164 0.0 0.0
496.380112119805 -3.040645571151174 201.11132454353574 -170.76924899549888 0.0 0.0
539.5169302675349 4.654160197809027 232.3626166051036 -169.0207879415294 0.0 0.0
576.3203998732183 12.398136670999335 258.64678910542983 -168.2444377061796 0.0 0.0
610.0091687860071 20.18956665448684 281.95229006794 -167.3575655882175 0.0 0.0
642.8564488707887 28.33027930237739 304.7876117402798 -165.96285981776163 0.0 0.0
677.5006976693809 36.94744055907779 329.0337678438094 -163.41064256519422 0.0 0.0
714.8710371460966 44.90378317178346 354.7490697052967 -158.23081679121108 0.0 0.0
754.5157693296819 51.562664170879515 380.87730274815306 -150.57004696889385 0.0 0.0
823.7302162608551 85.72265367485545 432.7782704950616 -144.99184949076627 0.0 0.0
927.2621328119237 150.21026800121814 519.7262414817175 -144.8812577291845 0.0 0.0
-52.64394087258117 -761.5986979334091 -396.17855005554986 6.536993168992922e-11 0.0 0.0
927.2621328113778 150.21026800035236 519.7262414814466 144.88125772932477 0.0 0.0
823.7302162595373 85.72265367368752 432.77827049428146 144.99184949090454 0.0 0.0
754.5157693317652 51.562664173045135 380.87730274956584 150.57004696937673 0.0 0.0
714.8710371432887 44.903783168537956 354.7490697033788 158.230816790961 0.0 0.0
677.5006976695227 36.947440559369284 329.0337678439795 163.41064256527045 0.0 0.0
642.856448871631 28.330279303588803 304.7876117409303 165.96285981780318 0.0 0.0
610.0091687860229 20.189566654442913 281.95229006809234 167.35756558843786 0.0 0.0
576.3203998735733 12.398136671569588 258.64678910566465 168.244437706273 0.0 0.0
539.5169302673995 4.654160198052956 232.3626166050292 169.02078794156475 0.0 0.0
496.38011211999117 -3.0406455706993967 201.11132454367927 170.76924899564423 0.0 0.0
439.14451815984626 -11.83650628437521 161.74520152667802 178.11144274979605 0.0 0.0
355.06124937789843 -13.288936022075543 117.30830976766438 200.5638197712137 0.0 0.0
243.76613359018646 -6.975917352284688 75.33149628995206 221.8867089969263 0.0 0.0
150.54029227016616 -2.755986126564522 45.03190943956572 224.7320665848565 0.0 0.0
91.86151362085582 2.7692542786373933 28.309203475162835 209.68481282786738 0.0 0.0
52.06982551338435 14.628908261109787 19.966067161740664 189.46809580824424 0.0 0.0
21.403978527565453 22.08894137335976 13.044234878161232 182.47873601341223 0.0 0.0
-3.206871589589563 -6.263568749416818 -2.8602072844335895 187.76349581316902 0.0 0.0
89.1876537553477 -35.328475450571005 20.698071202108174 207.81234093967902 0.0 0.0
-216.14244433741044 -729.9369687366808 -322.9944685829143 93.06121444702802 0.0 0.0
-149.5406263375604 -593.8365447848063 -234.97595381883696 -106.32642783482842 0.0 0.0
38.93185299605961 -55.207431999350796 -3.381525785118428 -193.66571594821193 0.0 0.0
-30.098926665940215 -6.83278353424266 -11.081957979970909 -191.64111435745357 0.0 0.0
-23.368532382907002 20.354760982458576 -0.9196715521818972 -188.81644541793196 0.0 0.0
-14.105058727992928 17.54781183106548 1.0302650861587157 -195.1701570903579 0.0 0.0
-6.952679402099951 7.166028700078634 0.0751603936994556 -214.75596294686343 0.0 0.0
-3.252310745354176 0.8900779944660071 -0.7105325489761043 -231.8388409062916 0.0 0.0
-1.263245809411714 0.12907124307680284 -0.343387037792537 -234.58276163138882 0.0 0.0
-0.3978454887121785 -0.023486238697945083 -0.13378705736345964 -228.4675203592435 0.0 0.0
-0.0865223241721651 -0.005506147431841413 -0.02571335411764153 -224.23981241048193 0.0 0.0
-0.5033731839109095 0.001657866835998334 -0.10739156252440551 -213.93696137705564 0.0 0.0
-1.1007085685383515 0.20591971176374102 0.2832670171581384 -200.82827460808272 0.0 0.0
-1.7752515833516895 1.085350600307379 0.5686661913948967 -192.03009786020397 0.0 0.0
0.9050084677519408 3.2516161671410657 1.1952670648483803 -185.33161193193396 0.0 0.0
11.936242428736847 7.93868453661392 2.8181239570778445 -180.50844165270632 0.0 0.0
38.288625135393175 16.3355273365744 7.2885745431138105 -176.2553302765974 0.0 0.0
89.52197479939085 30.323970949211088 17.080035269491475 -170.69152436644146 0.0 0.0
179.36619719224367 41.11675368232292 23.70012511952922 -161.50388489961995 0.0 0.0
403.733339173202 1.715746598631469 43.0785088720788 -157.44523088464535 0.0 0.0
642.1827907919245 40.525038884250506 261.7181831340344 -205.82621392475613 0.0 0.0
-756.6628277381831 -1019.2236476554323 -809.3263019494943 -1.9895196601282805e-13 0.0 0.0
642.1827907911107 40.52503888362665 261.7181831333804 205.82621392450153 0.0 0.0
403.73333917352625 1.7157465988523484 43.078508872213945 157.44523088536033 0.0 0.0
179.36619719176352 41.116753681652256 23.700125118900132 161.50388490018685 0.0 0.0
89.52197479975986 30.323970950224208 17.080035270040128 170.69152436660505 0.0 0.0
38.28862513538871 16.335527336249655 7.288574543012743 176.25533027667933 0.0 0.0
11.936242430272102 7.938684538450914 2.818123958355187 180.50844165262012 0.0 0.0
0.905008468108818 3.251616167508658 1.1952670650590562 185.33161193204336 0.0 0.0
-1.7752515830680267 1.0853505998241033 0.5686661913160549 192.0300978604227 0.0 0.0
-1.1007085680363105 0.2059197123216734 0.2832670174289973 200.82827460837575 0.0 0.0
-0.5033731831385424 0.001657867776820865 -0.10739156201874067 213.93696137702673 0.0 0.0
-0.08652232379575509 -0.0055061477105500245 -0.025713354102478547 224.23981241001644 0.0 0.0
-0.3978454884958218 -0.023486238773594792 -0.13378705731627427 228.46752035925138 0.0 0.0
-1.2632458089973682 0.12907124369429424 -0.3433870374706469 234.58276163154724 0.0 0.0
-3.2523107450509823 0.8900779948675374 -0.7105325487659853 231.83884090605696 0.0 0.0
-6.9526794018434686 7.166028700449694 0.07516039388760376 214.75596294650654 0.0 0.0
-14.10505872766986 17.5478118316337 1.0302650864254301 195.17015709019222 0.0 0.0
-23.368532382750793 20.354760982597465 -0.9196715520943528 188.81644541767477 0.0 0.0
-30.09892666575323 -6.832783533763864 -11.081957979772586 191.64111435726156 0.0 0.0
38.931852995729294 -55.207431999570346 -3.381525785304633 193.66571594799936 0.0 0.0
-149.54062633720216 -593.8365447841257 -234.97595381843306 106.32642783474725 0.0 0.0
-113.73365131746792 -471.9885073042429 -176.3207777576766 -114.8542254464293 0.0 0.0
-2.3191640213471256 -67.44823917178358 -20.836166789825867 -176.55205485914593 0.0 0.0
-55.73673577625568 -5.952835744266231 -18.523457727254026 -190.6483028339669 0.0 0.0
-67.17624675362833 18.742483508640078 -14.554883138514057 -190.23183004608353 0.0 0.0
-79.03950906725365 19.757538007371945 -17.796324067508646 -195.11774066139947 0.0 0.0
-104.41379047072141 11.332722104704022 -27.949521793025646 -211.09278182235454 0.0 0.0
-156.2396077282549 4.538044175713864 -46.347358948349104 -225.73257648751303 0.0 0.0
-245.27892649231487 6.989013146573798 -75.98458703739851 -222.29495676968136 0.0 0.0
-355.3490314310709 13.140582938352487 -117.53327352048221 -200.65129284495833 0.0 0.0
-439.17175628431244 11.792025214604614 -161.77628424078202 -178.0706593336585 0.0 0.0
-496.9232095957161 2.8911189277417293 -201.49024460230143 -170.78333344163732 0.0 0.0
-540.4040982709221 -4.504897724340381 -233.33176350232662 -168.80957570366303 0.0 0.0
-577.2064444941076 -10.65636562067425 -259.12116657109334 -167.5237476829341 0.0 0.0
-607.1539911360192 -14.200169072332713 -277.9496933005097 -166.6377675787703 0.0 0.0
-627.4719584167245 -13.906252624645106 -288.09286900410655 -166.8455052910902 0.0 0.0
-636.179942053582 -8.547186702189776 -287.4043155294845 -168.81468906025842 0.0 0.0
-632.0473160170866 1.610712520945242 -274.0430878424652 -173.304560178088 0.0 0.0
-623.9818789893322 9.212391748395362 -251.23437297073045 -182.56970369472148 0.0 0.0
-598.4944504860501 63.84752706283683 -185.16031254165168 -196.20621449299813 0.0 0.0
-321.1525347886553 194.48751257400997 59.82802364690659 -168.5524669009379 0.0 0.0
-1336.8304422729402 -1299.797624390346 -1355.0881114173828 -2.070237314910628e-10 0.0 0.0
-321.15253478839287 194.4875125751982 59.82802364726635 168.5524669015393 0.0 0.0
-598.4944504835701 63.847527065457285 -185.16031253992833 196.20621449282683 0.0 0.0
-623.9818789898493 9.212391747345293 -251.2343729710018 182.56970369507155 0.0 0.0
-632.0473160162537 1.6107125223576446 -274.0430878421083 173.30456017814947 0.0 0.0
-636.1799420526529 -8.547186701127032 -287.4043155288912 168.81468906015257 0.0 0.0
-627.4719584158294 -13.906252623716384 -288.0928690034867 166.84550529101972 0.0 0.0
-607.1539911346395 -14.200169070619623 -277.94969329963226 166.6377675787275 0.0 0.0
-577.2064444934811 -10.656365620621926 -259.1211665708482 167.52374768296193 0.0 0.0
-540.4040982710011 -4.504897724810402 -233.33176350224687 168.8095757037099 0.0 0.0
-496.92320959456094 2.8911189290051595 -201.4902446014429 170.78333344154439 0.0 0.0
-439.1717562839942 11.792025214722628 -161.77628424055627 178.07065933365806 0.0 0.0
-355.34903143026526 13.140582938600573 -117.53327352008223 200.65129284509584 0.0 0.0
-245.27892649256634 6.989013144727394 -75.98458703796837 222.29495676992494 0.0 0.0
-156.23960772750797 4.538044176326244 -46.347358947934154 225.73257648736032 0.0 0.0
-104.41379047060487 11.332722104304018 -27.94952179311831 211.09278182203622 0.0 0.0
-79.03950906704773 19.757538007601912 -17.796324067380166 195.11774066124943 0.0 0.0
-67.17624675365289 18.742483508497237 -14.554883138567911 190.23183004590936 0.0 0.0
-55.73673577601854 -5.9528357437060535 -18.523457727017306 190.64830283389387 0.0 0.0
-2.31916402151373 -67.44823917206568 -20.836166789960007 176.5520548590913 0.0 0.0
-113.73365131735258 -471.98850730350824 -176.32077775744668 114.8542254462431 0.0 0.0
-95.5255776425494 -360.57264971409177 -136.81593733226708 -109.15502569482918 0.0 0.0
-29.12136736186809 -74.22820707129742 -30.99899203435472 -162.81484973794028 0.0 0.0
-79.81765758957673 -5.318130326374914 -25.526323959347238 -186.4879720694076 0.0 0.0
-109.22159590966037 17.363286693473665 -27.594269525488105 -186.59909254611512 0.0 0.0
-142.79494015053191 21.373956476266358 -36.367451992622684 -190.3616051631211 0.0 0.0
-200.1206383995264 14.168263747994938 -56.15863054724883 -200.59585907048742 0.0 0.0
-298.23717436834056 -0.16363378154541408 -96.9814040622746 -201.22536265019437 0.0 0.0
-420.8569607690911 -15.310265727611117 -164.8978480588326 -188.31771221444922 0.0 0.0
-523.4093509418249 -24.276511245078545 -238.0394650705586 -174.05771550854791 0.0 0.0
-593.2734902484297 -22.172976439637004 -287.4615443621985 -166.86714715290094 0.0 0.0
-645.9735655270985 -23.37693082429081 -321.06018524937673 -161.60398811230704 0.0 0.0
-693.1843616161581 -29.318868451655334 -349.72663160724096 -157.88101147043645 0.0 0.0
-736.5903609851159 -37.83473558385198 -376.61975148239196 -154.27083464071458 0.0 0.0
-772.6866183900826 -43.53385065788366 -397.95433047845006 -151.54421081135146 0.0 0.0
-798.829251959694 -43.78550358513763 -411.38906035000514 -150.69047797325894 0.0 0.0
-812.1185051861748 -36.45538196353834 -414.36691524596 -152.07453667699804 0.0 0.0
-813.8522057427747 -24.00135421554154 -408.58112402691665 -155.91255203983874 0.0 0.0
-804.5018400517235 -8.654509943975597 -395.65460920903286 -162.04070052813788 0.0 0.0
-752.925040810864 40.45354335574898 -344.939294764563 -169.09835099085748 0.0 0.0
-624.1949573676209 151.8445757567571 -226.63509406530798 -176.8131326628973 0.0 0.0
-2144.3537551707177 -1599.9370798857185 -1842.046928847324 -8.591172218075371e-11 0.0 0.0
-624.1949573681521 151.8445757557331 -226.63509406576802 176.81313266339953 0.0 0.0
-752.9250408096174 40.45354335720998 -344.93929476392987 169.09835099117137 0.0 0.0
-804.5018400525481 -8.654509945162218 -395.6546092096995 162.04070052839484 0.0 0.0
-813.8522057439579 -24.001354216776164 -408.58112402781586 155.9125520397765 0.0 0.0
-812.1185051851039 -36.455381962392906 -414.3669152450812 152.07453667687915 0.0 0.0
-798.8292519595086 -43.785503585279976 -411.3890603498527 150.6904779732836 0.0 0.0
-772.6866183899003 -43.53385065798037 -397.9543304783992 151.54421081155152 0.0 0.0
-736.5903609850917 -37.83473558398251 -376.6197514824582 154.270834640784 0.0 0.0
-693.1843616159699 -29.318868451698528 -349.7266316070875 157.88101147036429 0.0 0.0
-645.9735655271874 -23.37693082455982 -321.0601852494912 161.6039881122065 0.0 0.0
-593.2734902481361 -22.17297643971973 -287.4615443619829 166.86714715281548 0.0 0.0
-523.4093509415422 -24.276511245113394 -238.03946507027965 174.05771550853694 0.0 0.0
-420.85696076831607 -15.31026572708193 -164.897848058186 188.31771221428858 0.0 0.0
-298.23717436789974 -0.1636337816491631 -96.98140406211444 201.22536265021225 0.0 0.0
-200.1206383989842 14.168263748275967 -56.15863054700339 200.59585907025283 0.0 0.0
-142.79494015036522 21.373956476246512 -36.36745199259486 190.36160516285406 0.0 0.0
-109.22159590951166 17.363286693552865 -27.594269525424057 186.5990925458913 0.0 0.0
-79.81765758943853 -5.318130326222206 -25.526323959265778 186.48797206930956 0.0 0.0
-29.121367362012293 -74.22820707142012 -30.998992034432867 162.81484973784694 0.0 0.0
-95.52557764245022 -360.5726497135882 -136.81593733208538 109.15502569464103 0.0 0.0
-78.26495968100046 -267.55588548931433 -103.74625355109443 -98.25408574300373 0.0 0.0
-47.60650934221326 -74.26813485328836 -36.56184340274458 -148.78722062861692 0.0 0.0
-102.01746904692874 -5.081976427257654 -32.10151907244121 -177.98626506288724 0.0 0.0
-149.65468776309967 16.114654530667586 -40.028066495377274 -178.98907936360052 0.0 0.0
-204.12277478898696 21.21963249115587 -54.88795938621135 -178.62873951969536 0.0 0.0
-292.2647534546986 10.598969889400328 -87.52222742304326 -178.53516285958867 0.0 0.0
-419.40986495190606 -15.300784331497674 -155.33334157906123 -171.89480528001982 0.0 0.0
-540.2940249921841 -38.257047396412936 -246.92596809431308 -160.02156250476557 0.0 0.0
-629.1350346633209 -43.942110554427046 -317.4322174488539 -153.8900354689749 0.0 0.0
-690.3479164547468 -40.98819489363029 -356.73368033529204 -150.0812811249139 0.0 0.0
-741.1106500850688 -44.27482260622013 -386.19829186733386 -146.34105868579655 0.0 0.0
-790.6367221052571 -53.092601208635074 -415.9542417486689 -143.05752509787314 0.0 0.0
-838.2573863658629 -64.39475435821056 -445.71776795074595 -139.46848028082954 0.0 0.0
-880.0566406901256 -74.04052361182482 -471.7040596122853 -136.51778636845123 0.0 0.0
-912.0254463846477 -77.64506199877067 -489.7226173174263 -135.5168370751885 0.0 0.0
-929.9661881280385 -72.34535570953815 -496.1556117565511 -137.37669072025534 0.0 0.0
-932.7385741920905 -57.05014372979031 -489.9355465308054 -141.94901351903718 0.0 0.0
-911.0289703215497 -23.990565948274025 -462.5020601834573 -147.397559898748 0.0 0.0
-851.1587132439743 38.93892904959864 -401.55540015413646 -151.34284043509794 0.0 0.0
-680.0510325202565 199.50735909709343 -238.287688127654 -151.2275593020978 0.0 0.0
-2585.2736654416253 -1828.766215858741 -2184.757486667228 3.04822833641083e-11 0.0 0.0
-680.0510325205656 199.50735909651235 -238.28768812777594 151.2275593023641 0.0 0.0
-851.1587132455475 38.93892904772663 -401.5554001551999 151.34284043565933 0.0 0.0
-911.0289703204935 -23.99056594726835 -462.50206018249645 147.39755989870184 0.0 0.0
-932.7385741917851 -57.05014372970504 -489.935546530653 141.94901351907833 0.0 0.0
-929.9661881262996 -72.34535570772911 -496.1556117552681 137.37669072015856 0.0 0.0
-912.0254463838052 -77.6450619981162 -489.7226173168111 135.516837075128 0.0 0.0
-880.0566406894102 -74.04052361129767 -471.70405961178847 136.51778636847095 0.0 0.0
-838.2573863666846 -64.39475435938259 -445.7177679513603 139.46848028094027 0.0 0.0
-790.6367221044386 -53.0926012080701 -415.9542417481383 143.0575250978569 0.0 0.0
-741.1106500851008 -44.27482260668309 -386.19829186748746 146.34105868595827 0.0 0.0
-690.3479164540352 -40.98819489299814 -356.73368033479886 150.08128112474236 0.0 0.0
-629.1350346629825 -43.94211055450423 -317.43221744853645 153.89003546895654 0.0 0.0
-540.2940249903472 -38.2570473943661 -246.92596809292067 160.02156250443358 0.0 0.0
-419.409864951532 -15.300784331802056 -155.3333415788405 171.89480528009827 0.0 0.0
-292.2647534541262 10.598969889790412 -87.52222742271756 178.53516285937903 0.0 0.0
-204.12277478868967 21.219632491269984 -54.88795938610303 178.6287395195212 0.0 0.0
-149.65468776281125 16.11465453099374 -40.028066495197166 178.9890793635112 0.0 0.0
-102.01746904708519 -5.081976427702716 -32.101519072620015 177.98626506272032 0.0 0.0
-47.60650934221095 -74.26813485325027 -36.56184340273358 148.78722062835865 0.0 0.0
-78.26495968089623 -267.5558854889871 -103.74625355096498 98.25408574295196 0.0 0.0
-63.7238193113526 -189.8496872665372 -76.07205197336694 -84.6107088421066 0.0 0.0
-61.43933626999167 -69.264906536292 -39.21144899924044 -132.98677487744413 0.0 0.0
-122.56971786041052 -4.917442877021307 -38.22625533093253 -165.27872473663183 0.0 0.0
-187.75314368391815 14.053372575477557 -52.083561347711026 -166.14971746354587 0.0 0.0
-265.1316692486383 19.132461004827327 -73.95865717962359 -162.41208600697513 0.0 0.0
-381.2234167465138 2.0292224226152458 -123.12871282390898 -153.30035174813048 0.0 0.0
-515.8617700286229 -33.55992962099921 -215.59053507086912 -141.23854050232626 0.0 0.0
-628.0799183918272 -54.39961150381164 -312.4105153305943 -135.7235989809262 0.0 0.0
-706.2896802905931 -57.55306548307778 -371.9012457521523 -133.38413328981682 0.0 0.0
-762.2710846090666 -59.79620864270046 -406.3374440499552 -130.88982020622151 0.0 0.0
-815.4922069547855 -64.74812579067796 -436.23145399763075 -129.1877661139304 0.0 0.0
-867.610913125214 -75.68147317805564 -467.92929373581575 -126.43709399555782 0.0 0.0
-919.0951188282729 -90.37195291486026 -501.1839499544892 -123.09522912430495 0.0 0.0
-966.7736732286781 -104.73643361197767 -532.3909856053001 -120.07081484714988 0.0 0.0
-1005.0021888304071 -113.32258753641332 -556.0046999251146 -118.84141201181116 0.0 0.0
-1027.0077216834673 -109.43007812435803 -565.240337855651 -120.71960657648984 0.0 0.0
-1024.5737824126645 -87.32004532227353 -553.1203673612633 -124.93569723062475 0.0 0.0
-989.0207072448482 -37.29612967873848 -510.50960602745755 -129.54507948560047 0.0 0.0
-898.531775356135 59.41974243064067 -417.60600427487816 -131.097351526542 0.0 0.0
-711.9726790302504 237.96552662331652 -236.5093904047904 -128.25264527324634 0.0 0.0
-2935.5333366563764 -2067.957688852836 -2484.792071285395 1.1386447340555605e-10 0.0 0.0
-711.9726790313139 237.9655266221464 -236.50939040547456 128.25264527343586 0.0 0.0
-898.5317753554191 59.41974243110252 -417.6060042743022 131.09735152681685 0.0 0.0
-989.0207072431621 -37.296129677122735 -510.5096060262541 129.54507948574621 0.0 0.0
-1024.5737824125442 -87.3200453223936 -553.1203673613572 124.93569723087428 0.0 0.0
-1027.0077216836005 -109.43007812460897 -565.2403378557611 120.71960657666722 0.0 0.0
-1005.0021888303755 -113.32258753655395 -556.0046999250455 118.84141201175169 0.0 0.0
-966.7736732279525 -104.73643361135302 -532.3909856047837 120.0708148471596 0.0 0.0
-919.0951188279519 -90.37195291483289 -501.18394995436637 123.09522912429162 0.0 0.0
-867.610913124456 -75.68147317755145 -467.92929373535037 126.43709399567811 0.0 0.0
-815.492206954504 -64.7481257907273 -436.23145399749103 129.1877661140703 0.0 0.0
-762.2710846091346 -59.79620864306334 -406.337444050043 130.8898202061677 0.0 0.0
-706.2896802896062 -57.553065482326694 -371.90124575144984 133.38413328973928 0.0 0.0
-628.0799183912573 -54.399611503687034 -312.4105153301399 135.72359898096494 0.0 0.0
-515.8617700282828 -33.55992962121464 -215.59053507056078 141.23854050237287 0.0 0.0
-381.22341674566235 2.029222423239049 -123.1287128233559 153.30035174793503 0.0 0.0
-265.13166924836617 19.13246100456664 -73.95865717963977 162.41208600692303 0.0 0.0
-187.75314368372835 14.05337257564915 -52.08356134761513 166.14971746338898 0.0 0.0
-122.56971786047025 -4.917442877140794 -38.226255330985225 165.2787247365057 0.0 0.0
-61.43933626999886 -69.26490653635665 -39.21144899926199 132.98677487732164 0.0 0.0
-63.72381931123302 -189.8496872662842 -76.07205197325516 84.61070884214453 0.0 0.0
-52.810958131588194 -126.72750704905611 -53.861539554193286 -69.98773645322683 0.0 0.0
-72.15739454637398 -60.65400356888599 -39.84341943457798 -114.96523028904005 0.0 0.0
-141.72221882912194 -4.46099193828362 -43.848642357190286 -148.37421715903716 0.0 0.0
-224.27760608827012 11.568924226350449 -63.67385693860036 -149.37522959573636 0.0 0.0
-324.66838524897514 12.929267084490204 -94.86662774744794 -139.38825643298813 0.0 0.0
-460.9909484556537 -11.86645819585378 -163.38931447001988 -124.48910790759571 0.0 0.0
-593.548038551555 -48.820911950223234 -271.56327492535195 -114.69557477758292 0.0 0.0
-695.295939592164 -65.20850730490133 -362.0965384162331 -112.85895047192444 0.0 0.0
-764.4566582446294 -72.5822984136719 -413.15987147924807 -111.65312470767421 0.0 0.0
-823.6963652736213 -76.43636254350476 -447.15198512410046 -111.85709402572441 0.0 0.0
-878.510054047446 -84.52493840329271 -478.9213961204998 -110.7606327415249 0.0 0.0
-933.6150198310803 -98.21800811306204 -513.3923305387732 -108.51190868778762 0.0 0.0
-988.7248996978701 -116.01174882906605 -549.9389591663822 -105.64002605617475 0.0 0.0
-1041.483350921269 -134.59781865447098 -585.7197970657971 -102.80234832368451 0.0 0.0
-1086.541170291661 -148.82780059463178 -615.5341756620451 -101.22513907861435 0.0 0.0
-1111.6643100042365 -147.00664036946458 -627.4284979702887 -102.29050536882008 0.0 0.0
-1102.8926302675939 -115.48986665222733 -607.5206420351473 -105.95503835227765 0.0 0.0
-1046.3970823863754 -43.15370800286951 -543.4112024420649 -109.68197578156784 0.0 0.0
-929.5960010733131 80.48152591336878 -423.7330357232621 -110.66361514637727 0.0 0.0
-738.6889335962373 263.6207745123033 -237.4308229435884 -109.7955097117483 0.0 0.0
-3231.748888212894 -2291.402913516137 -2748.1927031044443 1.2709122643173032e-10 0.0 0.0
-738.6889335990343 263.6207745093626 -237.43082294564442 109.7955097120324 0.0 0.0
-929.596001074052 80.48152591248623 -423.7330357239107 110.66361514658193 0.0 0.0
-1046.3970823857185 -43.1537080022693 -543.4112024415965 109.68197578165422 0.0 0.0
-1102.892630268384 -115.48986665311709 -607.5206420358396 105.95503835227811 0.0 0.0
-1111.6643100036454 -147.00664036908876 -627.4284979698563 102.2905053688338 0.0 0.0
-1086.541170292614 -148.82780059578494 -615.5341756627298 101.2251390786439 0.0 0.0
-1041.4833509204745 -134.59781865394194 -585.7197970651243 102.80234832382858 0.0 0.0
-988.7248996969282 -116.01174882825711 -549.9389591658191 105.64002605609599 0.0 0.0
-933.6150198308578 -98.21800811304342 -513.3923305385991 108.5119086877118 0.0 0.0
-878.5100540472083 -84.5249384032757 -478.92139612034526 110.76063274145986 0.0 0.0
-823.6963652729278 -76.43636254314514 -447.1519851237284 111.85709402566921 0.0 0.0
-764.4566582439909 -72.5822984133099 -413.1598714787748 111.65312470770348 0.0 0.0
-695.2959395918366 -65.2085073050441 -362.0965384159482 112.85895047201781 0.0 0.0
-593.5480385507948 -48.82091194991618 -271.5632749246879 114.69557477755949 0.0 0.0
-460.990948454645 -11.866458194981231 -163.38931446930007 124.48910790748036 0.0 0.0
-324.6683852486618 12.929267084282015 -94.8666277474064 139.38825643291327 0.0 0.0
-224.27760608814896 11.568924226129202 -63.67385693864265 149.37522959551114 0.0 0.0
-141.72221882893828 -4.460991938085956 -43.84864235707448 148.37421715906865 0.0 0.0
-72.15739454641235 -60.6540035691356 -39.843419434664376 114.96523028899298 0.0 0.0
-52.81095813152445 -126.72750704889079 -53.861539554124555 69.98773645298891 0.0 0.0
-45.43635134654651 -77.76274593043968 -36.95972918309585 -54.99471977620835 0.0 0.0
-80.42653976770026 -49.83522758474529 -39.07853020573367 -94.850186501757 0.0 0.0
-159.6753128776009 -3.5092049356844317 -48.95586284245914 -127.3004342450024 0.0 0.0
-259.5294052529976 7.482269822010572 -75.48609040711285 -127.5745471757155 0.0 0.0
-385.83387908127173 4.576296093974525 -118.06846023184013 -113.2822342220232 0.0 0.0
-527.3594087277058 -29.44853574126942 -206.76324551711446 -94.28336334407352 0.0 0.0
-655.303393886121 -59.0511631916568 -319.1115902724525 -90.58763610186264 0.0 0.0
-744.6658943320242 -76.32540885434267 -399.7730553716441 -89.87584447492804 0.0 0.0
-815.7767850089716 -85.33299503921621 -447.3218912747686 -90.92221429910609 0.0 0.0
-876.5117553784203 -93.1587097285511 -482.8859886636641 -91.83646854224425 0.0 0.0
-934.5593796775623 -104.50922104724056 -517.7174683785314 -91.24800352617447 0.0 0.0
-992.6407953251087 -120.80958177301025 -554.9500255152209 -89.5516696048322 0.0 0.0
-1050.7203675798794 -141.00622696353352 -594.1493800416592 -87.31960692728754 0.0 0.0
-1107.1770667305263 -163.40336942479811 -633.6321580238288 -84.87972778015308 0.0 0.0
-1157.6193378666737 -181.90135495936278 -668.2246313654996 -82.9121676389568 0.0 0.0
-1187.686949881681 -183.27987623079213 -684.1996552034718 -82.77016471263464 0.0 0.0
-1174.0310332831773 -145.85344862443202 -658.9964849645667 -85.17589966204847 0.0 0.0
-1097.9068273111836 -52.440113684595445 -574.559554805019 -88.6625489325133 0.0 0.0
-956.9456817921808 95.97271354062326 -430.2216849988674 -91.35984873806035 0.0 0.0
-755.9948676388751 288.5873774848517 -233.7399832831417 -94.37842972042327 0.0 0.0
-3485.199398119629 -2491.0654110866444 -2977.3299770288354 6.011191544530448e-11 0.0 0.0
-755.9948676393137 288.5873774842672 -233.73998328335665 94.37842972065701 0.0 0.0
-956.9456817931639 95.97271353942318 -430.22168499968535 91.35984873836577 0.0 0.0
-1097.90682731103 -52.44011368456994 -574.5595548047944 88.66254893271723 0.0 0.0
-1174.0310332841784 -145.85344862558574 -658.9964849653547 85.17589966223426 0.0 0.0
-1187.6869498795174 -183.2798762286849 -684.1996552019266 82.77016471256374 0.0 0.0
-1157.61933786686 -181.90135495966547 -668.2246313656467 82.9121676388636 0.0 0.0
-1107.1770667290407 -163.40336942344234 -633.6321580226587 84.87972777993397 0.0 0.0
-1050.7203675791434 -141.00622696293402 -594.1493800412339 87.31960692715614 0.0 0.0
-992.6407953245201 -120.80958177261594 -554.9500255148932 89.55166960462999 0.0 0.0
-934.559379676968 -104.50922104685569 -517.7174683781523 91.24800352613205 0.0 0.0
-876.5117553766141 -93.15870972696845 -482.88598866258724 91.83646854211723 0.0 0.0
-815.7767850084115 -85.3329950389687 -447.3218912743993 90.92221429914045 0.0 0.0
-744.6658943315356 -76.32540885418021 -399.77305537125045 89.87584447484622 0.0 0.0
-655.3033938851996 -59.05116319107212 -319.1115902717202 90.58763610191161 0.0 0.0
-527.3594087270953 -29.448535740920207 -206.76324551658058 94.28336334389482 0.0 0.0
-385.83387908086274 4.576296094090681 -118.06846023166199 113.28223422193044 0.0 0.0
-259.5294052526909 7.482269822232361 -75.4860904069626 127.57454717560945 0.0 0.0
-159.6753128775686 -3.5092049359657604 -48.955862842533776 127.30043424489955 0.0 0.0
-80.4265397677587 -49.83522758480122 -39.07853020576797 94.85018650157022 0.0 0.0
-45.43635134669386 -77.76274593046648 -36.959729183148106 54.99471977609002 0.0 0.0
-40.96066451250256 -42.661879297553334 -25.08676314301676 -40.08349118281823 0.0 0.0
-86.25886426760883 -38.08275317886647 -37.30248523394259 -72.87775566230252 0.0 0.0
-176.3827129121362 -2.1816329999147404 -53.56952425131956 -101.89273006727221 0.0 0.0
-295.4740678444071 2.101902887499601 -87.83629354700432 -101.10497629522156 0.0 0.0
-444.0329671471968 -7.961026367310687 -144.84996949427006 -82.88433956988541 0.0 0.0
-587.4957567380688 -42.57038074348035 -249.13932073409728 -68.79252813338495 0.0 0.0
-700.6143123438204 -68.14062633948839 -357.74618570467834 -67.74275367989429 0.0 0.0
-786.5809710667422 -85.294806164914 -429.32728904939427 -67.86610140798334 0.0 0.0
-859.5614335585874 -98.37970229601021 -476.92166390558157 -69.68311319938098 0.0 0.0
-923.827597501778 -110.06874194244693 -515.5844213684479 -70.9491417024895 0.0 0.0
-985.0729944382257 -124.65041840925696 -553.5771982940768 -70.77976744377287 0.0 0.0
-1046.3618854623264 -143.695857822375 -593.7683652128248 -69.63160152775623 0.0 0.0
-1106.993316685021 -166.47412654996955 -635.5217556453523 -68.03653830967441 0.0 0.0
-1165.2759727265948 -189.4203674239531 -676.1659248567934 -66.26504947258555 0.0 0.0
-1217.8579558327594 -209.94244124005144 -712.7848695589165 -64.21022155460261 0.0 0.0
-1253.9264507242115 -216.82073305186614 -734.4673320692939 -62.59173387874736 0.0 0.0
-1245.404706395861 -182.8881768344234 -713.608089176477 -63.19696756465016 0.0 0.0
-1156.4958376489433 -75.45203290454086 -615.804948640302 -66.874717095511 0.0 0.0
-986.5027741539682 102.60374007444348 -442.0303589197255 -72.53544784350494 0.0 0.0
-759.321190569202 321.7659920008817 -218.91187381932556 -80.50979392708989 0.0 0.0
-3695.9804697425175 -2657.4911023065456 -3167.9307802198646 -1.1853629189317871e-11 0.0 0.0
-759.3211905688706 321.765992001161 -218.91187381902915 80.5097939271913 0.0 0.0
-986.5027741534859 102.60374007484816 -442.03035891956665 72.5354478435944 0.0 0.0
-1156.4958376507825 -75.45203290651993 -615.8049486416505 66.87471709575487 0.0 0.0
-1245.4047063976027 -182.88817683630492 -713.6080891777482 63.19696756472521 0.0 0.0
-1253.9264507238238 -216.82073305166685 -734.4673320690044 62.59173387887737 0.0 0.0
-1217.8579558321753 -209.94244123958967 -712.7848695584238 64.21022155453848 0.0 0.0
-1165.2759727253947 -189.42036742290628 -676.1659248559869 66.2650494724257 0.0 0.0
-1106.99331668503 -166.47412655018306 -635.5217556455292 68.03653830968175 0.0 0.0
-1046.3618854609224 -143.6958578211061 -593.76836521196 69.63160152749116 0.0 0.0
-985.072994439197 -124.65041841051885 -553.5771982946974 70.77976744368807 0.0 0.0
-923.8275975007718 -110.06874194169967 -515.5844213678145 70.94914170249098 0.0 0.0
-859.5614335586937 -98.3797022963978 -476.92166390567235 69.6831131992831 0.0 0.0
-786.5809710662564 -85.29480616473103 -429.3272890490215 67.86610140792818 0.0 0.0
-700.6143123429832 -68.14062633902007 -357.7461857039834 67.74275367991577 0.0 0.0
-587.495756737276 -42.5703807429674 -249.1393207334181 68.79252813327317 0.0 0.0
-444.03296714682705 -7.961026367340972 -144.8499694940714 82.88433956967489 0.0 0.0
-295.4740678439826 2.101902887877463 -87.8362935467913 101.10497629521906 0.0 0.0
-176.38271291202423 -2.1816329998913844 -53.56952425127865 101.89273006727264 0.0 0.0
-86.25886426741798 -38.0827531787049 -37.30248523383685 72.87775566211104 0.0 0.0
-40.96066451244258 -42.66187929753511 -25.086763142993306 40.083491182864385 0.0 0.0
-38.13637653801485 -21.02481618083273 -17.748357815654273 -26.058465043557398 0.0 0.0
-88.97336664778057 -26.67995628921989 -34.69599688110013 -49.360783653447996 0.0 0.0
-191.54167464925462 -1.0391230661698798 -57.774239314627344 -71.54285244807822 0.0 0.0
-333.6631685256366 -4.161325989702859 -101.16335086660996 -69.35573448119503 0.0 0.0
-497.5552032514175 -23.41253300550639 -175.4214958472075 -51.92238070538787 0.0 0.0
-635.11062732238 -52.33170627633768 -288.06253551954745 -45.59357664415043 0.0 0.0
-734.6511615935892 -75.34764431130236 -387.18137904964755 -45.4237619210534 0.0 0.0
-822.7049621378203 -94.86198227121886 -454.6529968475377 -46.28352180078155 0.0 0.0
-898.6152797944271 -112.07216932545727 -503.9373520100869 -47.933979504605404 0.0 0.0
-966.4593487037603 -127.34833532048034 -545.9300683323127 -49.2106605004008 0.0 0.0
-1031.2854040528698 -145.00576791998682 -587.2416151510067 -49.41041014530079 0.0 0.0
-1095.436916185135 -166.7335459627228 -630.2029920174705 -48.79744638355636 0.0 0.0
-1158.6932045825251 -190.90334368715233 -673.9502368083774 -47.8992820946385 0.0 0.0
-1217.752097242629 -214.93033646989164 -715.5330464976691 -46.73934472182477 0.0 0.0
-1268.9573347297048 -233.53660951603547 -750.4958800738166 -45.04961990971206 0.0 0.0
-1305.2990492362187 -240.1882288799174 -772.0963553949712 -42.72989211370694 0.0 0.0
-1311.7011191763677 -220.60758333500553 -765.7391714233465 -41.20339187243782 0.0 0.0
-1245.0596847873521 -134.05791774856505 -689.5721180767254 -43.816502613144806 0.0 0.0
-1036.0227584817703 84.66608857338758 -476.0474638974593 -52.775886810342726 0.0 0.0
-733.6863257686011 380.29924833118207 -176.9847265046273 -67.01236406733419 0.0 0.0
-3850.381063777167 -2773.0755304897084 -3304.5695115861704 1.0544631834363827e-10 0.0 0.0
-733.6863257691992 380.2992483305714 -176.98472650499508 67.01236406736518 0.0 0.0
-1036.0227584812194 84.6660885738773 -476.04746389746106 52.77588681022728 0.0 0.0
-1245.0596847885502 -134.05791774990183 -689.5721180775038 43.81650261334512 0.0 0.0
-1311.7011191763509 -220.60758333515366 -765.739171423457 41.203391872467506 0.0 0.0
-1305.2990492358422 -240.18822887970157 -772.0963553947765 42.72989211395312 0.0 0.0
-1268.9573347282849 -233.53660951477343 -750.4958800728537 45.04961990967914 0.0 0.0
-1217.752097243027 -214.93033647047952 -715.5330464979098 46.739344721905255 0.0 0.0
-1158.6932045829053 -190.90334368773688 -673.9502368086747 47.89928209450464 0.0 0.0
-1095.4369161837126 -166.73354596149377 -630.2029920165362 48.797446383436316 0.0 0.0
-1031.2854040537093 -145.00576792112383 -587.2416151515774 49.41041014521858 0.0 0.0
-966.4593487031518 -127.34833532012311 -545.9300683318121 49.210660500389466 0.0 0.0
-898.6152797945056 -112.07216932589503 -503.93735201012333 47.93397950457001 0.0 0.0
-822.7049621375194 -94.86198227124213 -454.65299684727887 46.283521800858644 0.0 0.0
-734.6511615931537 -75.34764431118903 -387.18137904923816 45.423761921011625 0.0 0.0
-635.1106273219964 -52.33170627633917 -288.0625355190979 45.59357664412705 0.0 0.0
-497.5552032511799 -23.412533005840654 -175.4214958470661 51.92238070533303 0.0 0.0
-333.6631685252197 -4.161325989787774 -101.16335086652104 69.3557344811838 0.0 0.0
-191.54167464915957 -1.0391230660175403 -57.774239314553114 71.54285244804989 0.0 0.0
-88.97336664780673 -26.679956289183636 -34.695996881097095 49.360783653395295 0.0 0.0
-38.13637653800532 -21.024816180810067 -17.748357815644614 26.0584650436753 0.0 0.0
-34.5713270827041 -11.776563626759184 -13.904367212838984 -14.618749756455962 0.0 0.0
-87.06033572785108 -17.398146656188306 -31.337544715211816 -24.73861365610479 0.0 0.0
-204.81930638347131 -1.2159128848092058 -61.810565780484154 -34.73964120531639 0.0 0.0
-373.365116042226 -10.498754427035525 -115.97607310107759 -32.15031699070721 0.0 0.0
-548.1084363522142 -36.383419368687086 -207.65888511153446 -23.72274657071121 0.0 0.0
-669.9962434316 -59.397885332216454 -321.096655733036 -24.009043779601576 0.0 0.0
-764.7426192998248 -80.66102818350646 -410.5108780592414 -24.55873781920611 0.0 0.0
-854.0544942109283 -104.89621261979008 -476.75864271669514 -24.915214754808996 0.0 0.0
-933.5388740899346 -126.02396572020591 -528.7365526751422 -25.745142579984606 0.0 0.0
-1005.3261660404328 -145.27096952690033 -574.6115492945055 -26.663207465678912 0.0 0.0
-1073.4186561720428 -165.6991818795084 -618.9471098191167 -27.122056883220246 0.0 0.0
-1140.5034366942245 -189.2177659104206 -664.267202615928 -27.121586680312454 0.0 0.0
-1205.8646379788763 -215.59678420858907 -710.1673831384186 -26.799153141480367 0.0 0.0
-1265.9879214323369 -239.57551943125767 -752.2617055876071 -26.248771271617045 0.0 0.0
-1314.044223038457 -254.7003238006933 -783.9209688181243 -25.236052552790273 0.0 0.0
-1344.140707892606 -255.15003094763762 -799.2684513435208 -23.346184200394227 0.0 0.0
-1354.5299433336932 -239.68832208682136 -796.7575471794146 -20.86906177245453 0.0 0.0
-1339.6946655725142 -204.07875810447513 -771.6718058248689 -20.66348273382579 0.0 0.0
-1206.828253694252 -58.68056203002777 -633.1479085871531 -29.206215150199505 0.0 0.0
-702.9073696765709 442.16591501788434 -131.05044300201644 -51.0090188196919 0.0 0.0
-3784.4698260215578 -2670.626710316749 -3222.055941127688 1.2021139639273315e-10 0.0 0.0
-702.9073696782395 442.1659150161951 -131.0504430030818 51.00901881977052 0.0 0.0
-1206.8282536928477 -58.68056202865954 -633.1479085863507 29.206215150088227 0.0 0.0
-1339.6946655726597 -204.07875810476565 -771.671805824899 20.663482734074957 0.0 0.0
-1354.5299433328257 -239.68832208603746 -796.7575471788969 20.869061772418014 0.0 0.0
-1344.1407078930351 -255.150030948234 -799.268451343749 23.346184200471527 0.0 0.0
-1314.0442230376225 -254.70032379999216 -783.9209688175542 25.236052552717155 0.0 0.0
-1265.987921432595 -239.57551943174693 -752.2617055877466 26.248771271646305 0.0 0.0
-1205.8646379780535 -215.5967842079913 -710.1673831378787 26.79915314139419 0.0 0.0
-1140.503436693916 -189.21776591033816 -664.2672026158027 27.121586680308003 0.0 0.0
-1073.4186561713802 -165.6991818791481 -618.9471098187072 27.12205688325791 0.0 0.0
-1005.3261660398706 -145.2709695266132 -574.6115492940994 26.663207465694885 0.0 0.0
-933.5388740893787 -126.02396571999253 -528.7365526748077 25.74514258018861 0.0 0.0
-854.0544942111655 -104.8962126203524 -476.7586427167889 24.915214754910405 0.0 0.0
-764.7426192999709 -80.66102818398412 -410.5108780592028 24.55873781902018 0.0 0.0
-669.9962434311084 -59.39788533211677 -321.0966557325337 24.009043779621596 0.0 0.0
-548.1084363517909 -36.383419368712 -207.65888511119297 23.722746570749067 0.0 0.0
-373.36511604178884 -10.498754426892678 -115.97607310089741 32.150316990669545 0.0 0.0
-204.81930638335905 -1.2159128847667442 -61.810565780437734 34.739641205245675 0.0 0.0
-87.06033572770292 -17.398146656104117 -31.337544715142105 24.738613656174792 0.0 0.0
-34.571327082589555 -11.776563626705986 -13.90436721278866 14.618749756509072 0.0 0.0
-23.05932293397364 -6.127297549302524 -8.755986144982847 -8.85900875333322 0.0 0.0
-76.36206061232787 -9.988326992862556 -25.90511628155711 -10.285565155556293 0.0 0.0
-215.82494846857776 -3.901003219868425 -65.91778550653385 -11.288916345701638 0.0 0.0
-421.4291242137979 -31.712144081523554 -139.82639659020697 -6.716184607777936 0.0 0.0
-624.2923219844027 -89.40306519931427 -263.746392749928 1.0274142252188199 0.0 0.0
-775.386051038685 -146.78852916389891 -411.15284386663285 1.4356625087045565 0.0 0.0
-913.3140709963047 -213.9877867248045 -541.8838715426887 0.26489370950186597 0.0 0.0
-1059.7371198653254 -296.80959897873163 -665.0779629448341 -1.3345688795049995 0.0 0.0
-1215.58102177631 -394.98582611225635 -793.8712767441202 -3.184700115871113 0.0 0.0
-1390.040969724999 -516.5652420435865 -942.027237690932 -5.171019662020475 0.0 0.0
-1589.3805721260865 -667.5543889619573 -1116.838932809059 -6.9817887449883695 0.0 0.0
-1813.3871303226083 -848.0033175927522 -1318.6239029865023 -8.352666928992498 0.0 0.0
-2054.766547142855 -1049.3849304299063 -1539.5938046460628 -9.260401217316511 0.0 0.0
-2301.4927658067986 -1259.507239832873 -1767.711530929539 -9.937301031506834 0.0 0.0
-2535.3927265437956 -1460.128616229668 -1984.7830054088452 -10.160221860238323 0.0 0.0
-2732.1911283106406 -1627.2065747763725 -2166.6564211758364 -9.625433891806697 0.0 0.0
-2865.499286439549 -1734.9700896103468 -2287.1473774566307 -8.079673630755472 0.0 0.0
-2930.598467004111 -1779.4343973758557 -2341.4363784456036 -7.1080038754769 0.0 0.0
-3017.417175519529 -1851.976664752063 -2419.6445687201367 -14.855885047505184 0.0 0.0
-3140.428645310508 -1973.6632938511152 -2539.8247170653567 -41.09673943995093 0.0 0.0
-6760.300940151077 -5618.452524886974 -6165.897272385724 1.98525640371372e-11 0.0 0.0
-3140.4286453141012 -1973.6632938548503 -2539.8247170676013 41.09673944010568 0.0 0.0
-3017.4171755177263 -1851.9766647502943 -2419.644568718485 14.855885047503754 0.0 0.0
-2930.5984670034877 -1779.4343973753744 -2341.4363784450084 7.108003875697911 0.0 0.0
-2865.4992864389033 -1734.9700896097852 -2287.147377455891 8.079673630605871 0.0 0.0
-2732.1911283108884 -1627.2065747768124 -2166.656421175523 9.625433891729312 0.0 0.0
-2535.39272654309 -1460.1286162291317 -1984.7830054079006 10.160221860181068 0.0 0.0
-2301.4927658044294 -1259.5072398307177 -1767.7115309276196 9.937301031568637 0.0 0.0
-2054.766547139982 -1049.384930427228 -1539.5938046438998 9.260401217278599 0.0 0.0
-1813.387130321788 -848.0033175921919 -1318.6239029857818 8.352666928982114 0.0 0.0
-1589.3805721242957 -667.5543889604376 -1116.8389328076314 6.981788745144364 0.0 0.0
-1390.0409697240248 -516.5652420429044 -942.0272376901003 5.171019661904886 0.0 0.0
-1215.5810217755916 -394.98582611182775 -793.8712767434907 3.184700116043846 0.0 0.0
-1059.7371198656763 -296.8095989794197 -665.0779629448748 1.3345688795686996 0.0 0.0
-913.3140709959308 -213.98778672477346 -541.8838715422334 -0.26489370983614435 0.0 0.0
-775.3860510379423 -146.78852916349547 -411.15284386591804 -1.4356625086370798 0.0 0.0
-624.292321983817 -89.4030651990291 -263.74639274940614 -1.0274142253056837 0.0 0.0
-421.4291242129876 -31.712144080970333 -139.82639658976393 6.7161846077595655 0.0 0.0
-215.82494846807668 -3.901003219580474 -65.91778550629714 11.288916345913922 0.0 0.0
-76.36206061231073 -9.988326992957038 -25.90511628158032 10.285565155759501 0.0 0.0
-23.059322934109275 -6.1272975493581985 -8.75598614504024 8.859008753325906 0.0 0.0
SCALARS Strain float 6
LOOKUP_TABLE default
0.015793880473196326 -0.02595284286299568 0.0 -0.0017472151581436881 0.0 0.0
0.009726004347221208 -0.0031606597082720063 0.0 -0.007796759072666808 0.0 0.0
0.002846868407044354 -0.0006445048154159133 0.0 -0.0010000729536427215 0.0 0.0
0.002383387300705973 -0.0009446106853314988 0.0 3.456021098413407e-05 0.0 0.0
0.0037071761306960273 -0.0016886258397554375 0.0 0.00025799720688212665 0.0 0.0
0.006616376346081618 -0.003938544154004967 0.0 0.000448932524511437 0.0 0.0
0.011676588473750481 -0.008333682890250806 0.0 0.0005862885487593354 0.0 0.0
0.019341291743979187 -0.015300036968937076 0.0 0.0006267900266642 0.0 0.0
0.029950448854784525 -0.025140753792359062 0.0 0.0005612486362229663 0.0 0.0
0.04360891800066302 -0.03790411269699217 0.0 0.0003495414021357962 0.0 0.0
0.06018116035464882 -0.05341885278068344 0.0 2.349010486568247e-05 0.0 0.0
0.07938778811967595 -0.07140646213106114 0.0 -0.000394986156272688 0.0 0.0
0.10089037917795338 -0.09156856797378615 0.0 -0.000909251828942897 0.0 0.0
0.12432313314030013 -0.11358804791598573 0.0 -0.0014751284718770778 0.0 0.0
0.1492166204920162 -0.13705703231768973 0.0 -0.002107120961725112 0.0 0.0
0.17485837109346658 -0.16133452583535657 0.0 -0.0027622643717784747 0.0 0.0
0.20021013484505423 -0.18545668417424582 0.0 -0.0033009193911619204 0.0 0.0
0.22392245077795625 -0.2081455761186407 0.0 -0.003524408047640132 0.0 0.0
0.24446338069604334 -0.22786918853233168 0.0 -0.003317582523048851 0.0 0.0
0.2599029814693636 -0.2427878441641414 0.0 -0.004135089987662734 0.0 0.0
0.2660620093416395 -0.2489966452178638 0.0 3.675879045594854e-15 0.0 0.0
0.259902981469326 -0.24278784416411692 0.0 0.0041350899876685405 0.0 0.0
0.2444633806959685 -0.2278691885322468 0.0 0.0033175825230647438 0.0 0.0
0.2239224507778531 -0.20814557611854878 0.0 0.0035244080476467734 0.0 0.0
0.20021013484493227 -0.18545668417412783 0.0 0.0033009193911610474 0.0 0.0
0.17485837109333582 -0.16133452583522698 0.0 0.002762264371772195 0.0 0.0
0.14921662049188386 -0.13705703231757554 0.0 0.0021071209617264074 0.0 0.0
0.12432313314016963 -0.1135880479158547 0.0 0.0014751284718734527 0.0 0.0
0.10089037917782608 -0.09156856797367048 0.0 0.0009092518289394056 0.0 0.0
0.07938778811955823 -0.07140646213095393 0.0 0.0003949861562709007 0.0 0.0
0.060181160354547625 -0.05341885278058753 0.0 -2.3490104874537582e-05 0.0 0.0
0.04360891800058136 -0.0379041126969205 0.0 -0.0003495414021387794 0.0 0.0
0.029950448854723463 -0.025140753792298527 0.0 -0.0005612486362220708 0.0 0.0
0.019341291743935382 -0.015300036968904852 0.0 -0.000626790026668153 0.0 0.0
0.011676588473721489 -0.008333682890222696 0.0 -0.0005862885487590947 0.0 0.0
0.006616376346065791 -0.0039385441539939135 0.0 -0.0004489325245107471 0.0 0.0
0.003707176130689792 -0.001688625839749967 0.0 -0.00025799720688177814 0.0 0.0
0.0023833873007045136 -0.0009446106853303617 0.0 -3.4560210985652094e-05 0.0 0.0
0.0028468684070420704 -0.0006445048154143812 0.0 0.0010000729536432129 0.0 0.0
0.00972600434721516 -0.0031606597082675923 0.0 0.0077967590726575045 0.0 0.0
0.015793880473188072 -0.02595284286297028 0.0 0.001747215158090693 0.0 0.0
0.011177432634113353 -0.023347868581443547 0.0 -0.001285134356126565 0.0 0.0
0.0065290256680638325 -0.0023769026240530954 0.0 -0.006464652313643407 0.0 0.0
0.0018364590546786062 -0.00047607666734341314 0.0 -0.0006253475291074005 0.0 0.0
0.0020828470102897726 -0.0008849970015646718 0.0 -0.000182021324207035 0.0 0.0
0.0031634763671056277 -0.0015067036313340632 0.0 -0.0001442399969913389 0.0 0.0
0.005643768889843942 -0.0035279921559829867 0.0 -0.000262807630909318 0.0 0.0
0.010150893815284319 -0.007629710308515137 0.0 -0.0006486126793164296 0.0 0.0
0.017107034309509727 -0.014234372016739903 0.0 -0.0012740622490510591 0.0 0.0
0.02678325301243188 -0.023605807194239395 0.0 -0.0021620602567166847 0.0 0.0
0.03920871178898233 -0.03575368819069569 0.0 -0.003277299402756359 0.0 0.0
0.05421534541803412 -0.05049015809941537 0.0 -0.004513415232240456 0.0 0.0
0.07154671410259016 -0.06754556158379935 0.0 -0.005779877996114363 0.0 0.0
0.09093475062523618 -0.08665256845305046 0.0 -0.007067073960109886 0.0 0.0
0.11207736054391597 -0.10752982171545697 0.0 -0.00837112960230718 0.0 0.0
0.13456410489291915 -0.12979716339632794 0.0 -0.009642524550369597 0.0 0.0
0.15777841682762414 -0.1528633767474047 0.0 -0.01074911322916971 0.0 0.0
0.18081672104532046 -0.175838905447795 0.0 -0.011406787743729777 0.0 0.0
0.20247779823596776 -0.19751821712708695 0.0 -0.011270914442067381 0.0 0.0
0.22119937297309808 -0.21638106473606927 0.0 -0.010260826570443861 0.0 0.0
0.2346237911497738 -0.23036490067109305 0.0 -0.009495412438617653 0.0 0.0
0.2396447500107843 -0.23623384441181305 0.0 9.922618282587337e-15 0.0 0.0
0.2346237911497394 -0.2303649006710604 0.0 0.00949541243863888 0.0 0.0
0.22119937297303183 -0.21638106473599059 0.0 0.010260826570473627 0.0 0.0
0.2024777982358776 -0.1975182171269967 0.0 0.011270914442080678 0.0 0.0
0.18081672104521318 -0.17583890544767872 0.0 0.01140678774373105 0.0 0.0
0.15777841682750735 -0.15286337674728334 0.0 0.010749113229162 0.0 0.0
0.1345641048928002 -0.12979716339621397 0.0 0.009642524550367643 0.0 0.0
0.11207736054379835 -0.10752982171533387 0.0 0.008371129602302185 0.0 0.0
0.09093475062512206 -0.08665256845294309 0.0 0.0070670739601006415 0.0 0.0
0.07154671410248443 -0.06754556158369737 0.0 0.005779877996107437 0.0 0.0
0.05421534541794306 -0.050490158099325395 0.0 0.0045134152322287655 0.0 0.0
0.039208711788908356 -0.03575368819062923 0.0 0.0032772994027484665 0.0 0.0
0.02678325301237606 -0.023605807194187277 0.0 0.0021620602567132092 0.0 0.0
0.01710703430947059 -0.01423437201670556 0.0 0.00127406224904408 0.0 0.0
0.010150893815258948 -0.007629710308490101 0.0 0.0006486126793144565 0.0 0.0
0.0056437688898303175 -0.003527992155972829 0.0 0.00026280763090716217 0.0 0.0
0.0031634763671001213 -0.0015067036313278835 0.0 0.0001442399969918418 0.0 0.0
0.0020828470102882664 -0.000884997001565582 0.0 0.00018202132420600247 0.0 0.0
0.0018364590546780702 -0.00047607666734212424 0.0 0.0006253475291083141 0.0 0.0
0.006529025668055935 -0.002376902624048904 0.0 0.006464652313631204 0.0 0.0
0.011177432634098204 -0.02334786858141688 0.0 0.0012851343560859982 0.0 0.0
0.00826324953990019 -0.018739794799425995 0.0 -0.004513929015324197 0.0 0.0
0.0046654680597393965 -0.0013395323938517891 0.0 -0.006641398657008087 0.0 0.0
0.0012623919747568552 -0.0002363655264654848 0.0 -0.0005457336507945787 0.0 0.0
0.0017508780156343133 -0.0007403942336723194 0.0 -0.0004780151105151871 0.0 0.0
0.0026710161992751116 -0.0011891247803691822 0.0 -0.0005093214212690381 0.0 0.0
0.004724481657126191 -0.002752988048733611 0.0 -0.0007400838185243133 0.0 0.0
0.008645484059607154 -0.006245466840544885 0.0 -0.001478986236275455 0.0 0.0
0.014852005674859545 -0.01210659943079804 0.0 -0.0026797923863437776 0.0 0.0
0.023543029665479633 -0.020513152317497774 0.0 -0.0043612521404669796 0.0 0.0
0.034695677519572615 -0.03141229555167167 0.0 -0.00641409427296128 0.0 0.0
0.048118505729081364 -0.04458271328549126 0.0 -0.008642668503176855 0.0 0.0
0.06357163702295382 -0.059773170061005715 0.0 -0.010877543246115697 0.0 0.0
0.08083068066083436 -0.07676654433631926 0.0 -0.013082251475265354 0.0 0.0
0.0996610954623638 -0.09534654231696575 0.0 -0.015296807792203253 0.0 0.0
0.11972985197185244 -0.1152023484797168 0.0 -0.01745723403788495 0.0 0.0
0.1405266142571737 -0.13584673400525432 0.0 -0.019318215293204887 0.0 0.0
0.16129629450200092 -0.15654026146378205 0.0 -0.020435879950229545 0.0 0.0
0.180943527325342 -0.17621450759648954 0.0 -0.020318778166217025 0.0 0.0
0.1978667534962536 -0.19335429147697605 0.0 -0.018785700945212126 0.0 0.0
0.2099978409656114 -0.2058119720689594 0.0 -0.016021403274500683 0.0 0.0
0.21458718586256165 -0.2113671039045223 0.0 1.9277981988530257e-14 0.0 0.0
0.2099978409655798 -0.20581197206892987 0.0 0.016021403274547943 0.0 0.0
0.1978667534961948 -0.19335429147691988 0.0 0.01878570094526122 0.0 0.0
0.18094352732526242 -0.17621450759640328 0.0 0.020318778166245242 0.0 0.0
0.16129629450190636 -0.1565402614636778 0.0 0.020435879950234784 0.0 0.0
0.14052661425706975 -0.135846734005151 0.0 0.01931821529319729 0.0 0.0
0.1197298519717459 -0.11520234847961014 0.0 0.017457234037879056 0.0 0.0
0.09966109546225844 -0.09534654231686064 0.0 0.01529680779219637 0.0 0.0
0.08083068066073328 -0.07676654433622221 0.0 0.013082251475254547 0.0 0.0
0.06357163702286027 -0.05977317006091416 0.0 0.010877543246101889 0.0 0.0
0.048118505729000165 -0.04458271328540822 0.0 0.008642668503157524 0.0 0.0
0.0346956775195067 -0.03141229555160979 0.0 0.006414094272948831 0.0 0.0
0.023543029665429222 -0.0205131523174489 0.0 0.004361252140461432 0.0 0.0
0.014852005674824018 -0.012106599430764626 0.0 0.002679792386335796 0.0 0.0
0.008645484059585661 -0.006245466840522921 0.0 0.0014789862362709614 0.0 0.0
0.004724481657115582 -0.0027529880487245605 0.0 0.0007400838185194943 0.0 0.0
0.0026710161992707566 -0.0011891247803642645 0.0 0.0005093214212694327 0.0 0.0
0.0017508780156334594 -0.0007403942336744063 0.0 0.00047801511051484384 0.0 0.0
0.0012623919747569668 -0.00023636552646496092 0.0 0.0005457336507936131 0.0 0.0
0.00466546805973183 -0.00133953239384755 0.0 0.006641398656991392 0.0 0.0
0.008263249539885446 -0.0187397947993991 0.0 0.00451392901529804 0.0 0.0
0.006289341592452017 -0.015154267842943943 0.0 -0.004960331386547665 0.0 0.0
0.0034684582430245334 -0.0009613143427137007 0.0 -0.006073408056868323 0.0 0.0
0.0008925575955385236 -0.00012946779122130383 0.0 -0.0008227188505008009 0.0 0.0
0.0014347832452642983 -0.000579819865003535 0.0 -0.0007833718032057528 0.0 0.0
0.0022252403166150023 -0.0009451934879512978 0.0 -0.0008473204587143149 0.0 0.0
0.0038780264822937966 -0.0020895203207619193 0.0 -0.001132985943066799 0.0 0.0
0.007185931118892609 -0.004929933704948062 0.0 -0.002040498450896015 0.0 0.0
0.012600021462231686 -0.00999808060648826 0.0 -0.0036978520359755096 0.0 0.0
0.020266363888419923 -0.01739614340457505 0.0 -0.005975360479939563 0.0 0.0
0.030114419733979506 -0.02701226092334479 0.0 -0.008729656678541258 0.0 0.0
0.04193386390664741 -0.03859928241451691 0.0 -0.011693568063368211 0.0 0.0
0.05549987998000859 -0.05191853308263073 0.0 -0.014659390639888775 0.0 0.0
0.07062509949903344 -0.06679207326273613 0.0 -0.017579384035769058 0.0 0.0
0.0871258679249563 -0.08305859667676142 0.0 -0.020478386007847033 0.0 0.0
0.10475657748871173 -0.10048446189165103 0.0 -0.023288087821207986 0.0 0.0
0.12312987675944648 -0.11869741830017477 0.0 -0.025743351231081155 0.0 0.0
0.14162656472386684 -0.13710851156578036 0.0 -0.027337861680521287 0.0 0.0
0.15926719388398708 -0.15478292025742102 0.0 -0.027470216734459874 0.0 0.0
0.1746052855093589 -0.1702909542693385 0.0 -0.02553522815493093 0.0 0.0
0.18587952239463734 -0.1817740170396877 0.0 -0.020571298899540406 0.0 0.0
0.19027179053303075 -0.18751243599679973 0.0 2.4640879614512556e-14 0.0 0.0
0.1858795223946089 -0.18177401703965343 0.0 0.02057129889960007 0.0 0.0
0.17460528550930682 -0.17029095426929072 0.0 0.025535228154991665 0.0 0.0
0.15926719388391722 -0.15478292025734264 0.0 0.0274702167344959 0.0 0.0
0.1416265647237843 -0.13710851156569287 0.0 0.02733786168052485 0.0 0.0
0.12312987675935563 -0.11869741830008795 0.0 0.025743351231068794 0.0 0.0
0.104756577488618 -0.10048446189155835 0.0 0.023288087821197873 0.0 0.0
0.08712586792486472 -0.08305859667666832 0.0 0.020478386007839088 0.0 0.0
0.07062509949894528 -0.06679207326265373 0.0 0.01757938403575477 0.0 0.0
0.05549987997992631 -0.05191853308254979 0.0 0.014659390639867403 0.0 0.0
0.04193386390657618 -0.03859928241444409 0.0 0.011693568063343884 0.0 0.0
0.03011441973392162 -0.027012260923283682 0.0 0.00872965667852359 0.0 0.0
0.020266363888375678 -0.017396143404528396 0.0 0.005975360479928163 0.0 0.0
0.012600021462200559 -0.009998080606459613 0.0 0.0036978520359631202 0.0 0.0
0.007185931118874028 -0.004929933704928792 0.0 0.002040498450887812 0.0 0.0
0.0038780264822853927 -0.0020895203207540103 0.0 0.001132985943062868 0.0 0.0
0.002225240316612525 -0.0009451934879482647 0.0 0.0008473204587134975 0.0 0.0
0.0014347832452639422 -0.0005798198650036436 0.0 0.0007833718032055251 0.0 0.0
0.0008925575955384024 -0.00012946779122163988 0.0 0.0008227188504973581 0.0 0.0
0.0034684582430180126 -0.0009613143427105291 0.0 0.006073408056852659 0.0 0.0
0.006289341592439118 -0.015154267842919195 0.0 0.0049603313865282505 0.0 0.0
0.004802976192475381 -0.012256792235976458 0.0 -0.004394273298775434 0.0 0.0
0.002611974865199951 -0.0007552780605544126 0.0 -0.0054111516392543356 0.0 0.0
0.0006457786414548631 -8.166007945304773e-05 0.0 -0.0012247843628671838 0.0 0.0
0.0011551746939326831 -0.0004391987241336152 0.0 -0.0011173099661826642 0.0 0.0
0.00182412323495651 -0.0007510008854770163 0.0 -0.00117841919439877 0.0 0.0
0.003119199238644626 -0.001553718135403531 0.0 -0.0014614124879993207 0.0 0.0
0.005801685740320733 -0.0037319998652033063 0.0 -0.00240745498475798 0.0 0.0
0.010379371289003882 -0.00793987874825051 0.0 -0.004291467086501623 0.0 0.0
0.01699108582214927 -0.014293939569263163 0.0 -0.006994718284267762 0.0 0.0
0.025506672535785528 -0.022599037152432402 0.0 -0.010220737874419955 0.0 0.0
0.03570620414169433 -0.03258594239984543 0.0 -0.013675531170560426 0.0 0.0
0.047373227724262626 -0.04402423777467686 0.0 -0.01713001655952566 0.0 0.0
0.06035479452155906 -0.0567709243321899 0.0 -0.020537382918439956 0.0 0.0
0.07452367070015385 -0.07071728638599219 0.0 -0.02391195723081054 0.0 0.0
0.08970271985513775 -0.08570102473499028 0.0 -0.027155787588259452 0.0 0.0
0.10561520362332678 -0.10145477373180958 0.0 -0.03001047883082634 0.0 0.0
0.12179844540064816 -0.11753848197921798 0.0 -0.03203394399421367 0.0 0.0
0.13745562764088037 -0.13319590404077442 0.0 -0.032539767994052206 0.0 0.0
0.15137590415522872 -0.14723151408448312 0.0 -0.030386600155718466 0.0 0.0
0.1620614593284542 -0.15807330152389898 0.0 -0.02398761845025443 0.0 0.0
0.1663987040605082 -0.16422090293265937 0.0 3.1807022293772746e-14 0.0 0.0
0.16206145932842922 -0.15807330152385846 0.0 0.0239876184503251 0.0 0.0
0.15137590415518273 -0.14723151408444005 0.0 0.030386600155787584 0.0 0.0
0.13745562764081998 -0.13319590404071 0.0 0.032539767994092424 0.0 0.0
0.121798445400577 -0.11753848197914876 0.0 0.03203394399421898 0.0 0.0
0.10561520362324837 -0.10145477373172884 0.0 0.03001047883081194 0.0 0.0
0.0897027198550573 -0.08570102473491312 0.0 0.027155787588247188 0.0 0.0
0.07452367070007446 -0.07071728638590967 0.0 0.02391195723079878 0.0 0.0
0.06035479452148358 -0.056770924332118264 0.0 0.02053738291842172 0.0 0.0
0.047373227724193646 -0.04402423777460872 0.0 0.01713001655950224 0.0 0.0
0.03570620414163388 -0.03258594239978831 0.0 0.013675531170529814 0.0 0.0
0.025506672535735162 -0.02259903715238067 0.0 0.01022073787439602 0.0 0.0
0.016991085822110303 -0.014293939569230273 0.0 0.006994718284249026 0.0 0.0
0.01037937128897767 -0.007939878748224554 0.0 0.004291467086488619 0.0 0.0
0.0058016857403062165 -0.003731999865191026 0.0 0.0024074549847486826 0.0 0.0
0.0031191992386379727 -0.001553718135399071 0.0 0.0014614124879960308 0.0 0.0
0.0018241232349544916 -0.0007510008854752047 0.0 0.0011784191943970828 0.0 0.0
0.0011551746939321354 -0.0004391987241331522 0.0 0.0011173099661802967 0.0 0.0
0.0006457786414546248 -8.166007945292601e-05 0.0 0.00122478436286455 0.0 0.0
0.002611974865194757 -0.0007552780605526456 0.0 0.005411151639241441 0.0 0.0
0.004802976192464949 -0.012256792235954524 0.0 0.004394273298762559 0.0 0.0
0.0036266845699852958 -0.009830901736559016 0.0 -0.003625906902820694 0.0 0.0
0.0019584899935019343 -0.0006099914315414946 0.0 -0.004764339925955086 0.0 0.0
0.0004713035273213891 -6.898506957360841e-05 0.0 -0.00161297024903095 0.0 0.0
0.0009074073983160946 -0.00031705444166891074 0.0 -0.0014519345307370873 0.0 0.0
0.0014645592201890574 -0.000593663237041667 0.0 -0.0015094335544939474 0.0 0.0
0.0024473700702786956 -0.0011361627825207238 0.0 -0.0017441674520873845 0.0 0.0
0.004528473757494942 -0.0026957153913436953 0.0 -0.002654458814960382 0.0 0.0
0.008235860518069477 -0.005994465790471774 0.0 -0.004525180491232418 0.0 0.0
0.013746790620977594 -0.011246186488328513 0.0 -0.007397159437788474 0.0 0.0
0.02091353428823328 -0.018217151363335155 0.0 -0.010880714694512997 0.0 0.0
0.029477778207165503 -0.026588880349723603 0.0 -0.01458559123014841 0.0 0.0
0.0392370906281566 -0.03613771850346113 0.0 -0.01828970433908989 0.0 0.0
0.05006850420282402 -0.046750822035284426 0.0 -0.021944346187176722 0.0 0.0
0.06189469215602761 -0.05837107917016797 0.0 -0.025563933233785554 0.0 0.0
0.07461300037507682 -0.07090451832624786 0.0 -0.02904447675347122 0.0 0.0
0.08803437658873058 -0.08416923325160992 0.0 -0.032123953674454156 0.0 0.0
0.10183912639419927 -0.09785763978067433 0.0 -0.0344388779439479 0.0 0.0
0.11548748041693935 -0.11145394644520616 0.0 -0.035334494796202626 0.0 0.0
0.12807733164763405 -0.12409774016291716 0.0 -0.03338057627925662 0.0 0.0
0.1383485348932362 -0.1344977781062453 0.0 -0.0264564634388012 0.0 0.0
0.14272925342722326 -0.1412324174272522 0.0 3.144012827860365e-14 0.0 0.0
0.13834853489321455 -0.1344977781062173 0.0 0.026456463438873895 0.0 0.0
0.12807733164759444 -0.12409774016287939 0.0 0.03338057627932641 0.0 0.0
0.11548748041688808 -0.11145394644515914 0.0 0.035334494796246264 0.0 0.0
0.10183912639413924 -0.09785763978061475 0.0 0.034438877943952444 0.0 0.0
0.08803437658866431 -0.08416923325153801 0.0 0.032123953674441826 0.0 0.0
0.0746130003750096 -0.07090451832617667 0.0 0.02904447675345717 0.0 0.0
0.061894692155962286 -0.058371079170098886 0.0 0.025563933233770632 0.0 0.0
0.05006850420276165 -0.04675082203522317 0.0 0.021944346187159115 0.0 0.0
0.03923709062809866 -0.03613771850340739 0.0 0.018289704339062764 0.0 0.0
0.029477778207115307 -0.02658888034967321 0.0 0.014585591230116414 0.0 0.0
0.020913534288192058 -0.018217151363293587 0.0 0.010880714694485693 0.0 0.0
0.013746790620945878 -0.011246186488301207 0.0 0.007397159437769606 0.0 0.0
0.008235860518048263 -0.0059944657904495045 0.0 0.004525180491222188 0.0 0.0
0.004528473757483121 -0.002695715391335312 0.0 0.002654458814952889 0.0 0.0
0.002447370070274024 -0.0011361627825198573 0.0 0.0017441674520834523 0.0 0.0
0.0014645592201877017 -0.0005936632370424255 0.0 0.00150943355449225 0.0 0.0
0.0009074073983159771 -0.00031705444166954316 0.0 0.0014519345307359324 0.0 0.0
0.00047130352732186517 -6.898506957328893e-05 0.0 0.0016129702490294603 0.0 0.0
0.001958489993497299 -0.0006099914315394605 0.0 0.004764339925943683 0.0 0.0
0.003626684569975909 -0.009830901736541041 0.0 0.003625906902812362 0.0 0.0
0.0026835116929339337 -0.007774498733612295 0.0 -0.0029179294387847144 0.0 0.0
0.0014452470134978367 -0.0004954107557134972 0.0 -0.004176836738660163 0.0 0.0
0.0003375371537010242 -7.044603826190082e-05 0.0 -0.0019339757594381986 0.0 0.0
0.0006809183696494417 -0.00020906272737814628 0.0 -0.0017593094083403352 0.0 0.0
0.0011360542111219615 -0.000455144325877482 0.0 -0.001821924482956172 0.0 0.0
0.0018554325781902433 -0.0008199731088352664 0.0 -0.002017377210268975 0.0 0.0
0.0033776594797462855 -0.0018401346981137112 0.0 -0.002785221023163665 0.0 0.0
0.006221839616660851 -0.004234954820877478 0.0 -0.0045090940568049504 0.0 0.0
0.010591338534047867 -0.008320144285443256 0.0 -0.007232518739114947 0.0 0.0
0.016372989138394474 -0.013915007060386729 0.0 -0.010688615730730487 0.0 0.0
0.023292399827360193 -0.020656358958400012 0.0 -0.014408548031926403 0.0 0.0
0.03113582417873112 -0.028308573345967855 0.0 -0.018128229811525117 0.0 0.0
0.03981166990500231 -0.036785481814828457 0.0 -0.02178852166278747 0.0 0.0
0.04929116666363666 -0.04607382998734763 0.0 -0.025415666590358335 0.0 0.0
0.05953353373665338 -0.056145253263375904 0.0 -0.028918942037360153 0.0 0.0
0.07043036384188509 -0.06689655746120572 0.0 -0.03204904396381867 0.0 0.0
0.08179565082351935 -0.07812485196427492 0.0 -0.03447254446775931 0.0 0.0
0.09335266168957985 -0.0895635969011679 0.0 -0.035719787219493065 0.0 0.0
0.10458585549125476 -0.10077636495167622 0.0 -0.03440465859998385 0.0 0.0
0.1145315773796835 -0.11082745182758307 0.0 -0.027968852301195134 0.0 0.0
0.11902913092206474 -0.11831328204517066 0.0 3.075491250559281e-14 0.0 0.0
0.11453157737966468 -0.11082745182756867 0.0 0.02796885230126999 0.0 0.0
0.10458585549122217 -0.10077636495164682 0.0 0.034404658600055156 0.0 0.0
0.09335266168953733 -0.08956359690113497 0.0 0.03571978721953741 0.0 0.0
0.08179565082346983 -0.07812485196421785 0.0 0.03447254446776245 0.0 0.0
0.0704303638418312 -0.06689655746116048 0.0 0.03204904396380532 0.0 0.0
0.05953353373659809 -0.05614525326331686 0.0 0.028918942037346483 0.0 0.0
0.04929116666358499 -0.046073829987294736 0.0 0.025415666590342886 0.0 0.0
0.039811669904953224 -0.03678548181478354 0.0 0.02178852166277118 0.0 0.0
0.031135824178684553 -0.028308573345927866 0.0 0.018128229811500664 0.0 0.0
0.023292399827319905 -0.02065635895835537 0.0 0.014408548031898526 0.0 0.0
0.016372989138361386 -0.013915007060351724 0.0 0.010688615730704447 0.0 0.0
0.010591338534023189 -0.008320144285418513 0.0 0.00723251873910041 0.0 0.0
0.00622183961664521 -0.004234954820857943 0.0 0.004509094056793106 0.0 0.0
0.0033776594797382395 -0.0018401346981061972 0.0 0.0027852210231565414 0.0 0.0
0.0018554325781872183 -0.0008199731088325533 0.0 0.002017377210265757 0.0 0.0
0.0011360542111210417 -0.0004551443258760927 0.0 0.0018219244829522194 0.0 0.0
0.0006809183696487962 -0.00020906272737999742 0.0 0.001759309408337567 0.0 0.0
0.00033753715370064006 -7.044603826200237e-05 0.0 0.0019339757594360216 0.0 0.0
0.0014452470134946867 -0.0004954107557113559 0.0 0.004176836738651616 0.0 0.0
0.0026835116929278787 -0.00777449873359809 0.0 0.0029179294387762693 0.0 0.0
0.0019280010607013085 -0.006037152925484814 0.0 -0.002358429624214396 0.0 0.0
0.001036443156098921 -0.0004059914779732159 0.0 -0.0036482952736492224 0.0 0.0
0.00022388305057003885 -7.012082323542845e-05 0.0 -0.0021766923785683976 0.0 0.0
0.0004659559115418857 -0.00011212425634441535 0.0 -0.0020212475771629597 0.0 0.0
0.0008239726779120895 -0.00031850655726510535 0.0 -0.0020924571245107084 0.0 0.0
0.0013355981374949717 -0.000576925083418432 0.0 -0.0022910224084894608 0.0 0.0
0.0023586270180064404 -0.0011743470231241906 0.0 -0.002854336268623387 0.0 0.0
0.004366964880104197 -0.002717691156306251 0.0 -0.004264942702274081 0.0 0.0
0.007589168554809029 -0.005608455481551981 0.0 -0.006608197529684604 0.0 0.0
0.011944962338811347 -0.009768210274934802 0.0 -0.009687041995750514 0.0 0.0
0.017190311647771697 -0.01484590387131086 0.0 -0.013128717238939564 0.0 0.0
0.023114320400970265 -0.020593835280453342 0.0 -0.016613036371155066 0.0 0.0
0.029635019542565345 -0.02693522585864581 0.0 -0.020043269462764877 0.0 0.0
0.036758312049331894 -0.033887470240283886 0.0 -0.02343743351157522 0.0 0.0
0.04451067339079781 -0.04148140367394153 0.0 -0.026748158884772912 0.0 0.0
0.05286292485641351 -0.0496968170755979 0.0 -0.029752859892872487 0.0 0.0
0.0617217607244092 -0.05842146465634944 0.0 -0.03210433421113916 0.0 0.0
0.07104784736142651 -0.06756500772091578 0.0 -0.033512771891233015 0.0 0.0
0.08077998518466366 -0.0771572594081036 0.0 -0.033162521804830994 0.0 0.0
0.09038182252408619 -0.0868156111268496 0.0 -0.028352560997251253 0.0 0.0
0.09503549858884404 -0.09521443323895085 0.0 2.5325228025785407e-14 0.0 0.0
0.09038182252407208 -0.08681561112683558 0.0 0.028352560997320954 0.0 0.0
0.08077998518463836 -0.0771572594080806 0.0 0.033162521804901486 0.0 0.0
0.07104784736139358 -0.06756500772089033 0.0 0.03351277189127682 0.0 0.0
0.061721760724370536 -0.05842146465630445 0.0 0.03210433421114149 0.0 0.0
0.05286292485637233 -0.049696817075561284 0.0 0.029752859892858516 0.0 0.0
0.044510673390756865 -0.041481403673902684 0.0 0.02674815888475912 0.0 0.0
0.03675831204929428 -0.033887470240253036 0.0 0.02343743351156282 0.0 0.0
0.029635019542529548 -0.026935225858609125 0.0 0.020043269462750018 0.0 0.0
0.023114320400936004 -0.020593835280419602 0.0 0.016613036371134683 0.0 0.0
0.01719031164774211 -0.014845903871285208 0.0 0.013128717238911472 0.0 0.0
0.01194496233878707 -0.009768210274908594 0.0 0.009687041995728262 0.0 0.0
0.007589168554790901 -0.005608455481534278 0.0 0.006608197529672567 0.0 0.0
0.004366964880092762 -0.0027176911562961075 0.0 0.004264942702262402 0.0 0.0
0.0023586270180008966 -0.0011743470231203594 0.0 0.0028543362686172863 0.0 0.0
0.0013355981374930615 -0.0005769250834170918 0.0 0.0022910224084868036 0.0 0.0
0.0008239726779115683 -0.0003185065572636512 0.0 0.002092457124507402 0.0 0.0
0.0004659559115414804 -0.0001121242563439063 0.0 0.0020212475771596806 0.0 0.0
0.00022388305056960693 -7.012082323549757e-05 0.0 0.0021766923785658857 0.0 0.0
0.0010364431560960657 -0.00040599147797244306 0.0 0.003648295273643596 0.0 0.0
0.001928001060695991 -0.0060371529254730485 0.0 0.0023584296242073906 0.0 0.0
0.0013450962877982564 -0.004605299601515567 0.0 -0.001975273441020464 0.0 0.0
0.0007127085552263019 -0.00034339393654569863 0.0 -0.0031771045703167236 0.0 0.0
0.00011350317769970295 -5.62251058936396e-05 0.0 -0.002344541262398201 0.0 0.0
0.0002579153358582222 -2.3677039653974207e-05 0.0 -0.002228334231846146 0.0 0.0
0.0005161179650819071 -0.0001771626522026825 0.0 -0.002303716561531852 0.0 0.0
0.0008627069049856873 -0.000368378657033887 0.0 -0.0025438958827986684 0.0 0.0
0.0014738451064550766 -0.0006872265394866202 0.0 -0.002946436550018274 0.0 0.0
0.0027030846927262805 -0.0015023306177877663 0.0 -0.003873629555229111 0.0 0.0
0.004790962791249172 -0.003220011538412909 0.0 -0.005598987840886441 0.0 0.0
0.007700878389659632 -0.005894937217380334 0.0 -0.007983684674143196 0.0 0.0
0.011236401091786422 -0.009255921844097582 0.0 -0.01079475486186536 0.0 0.0
0.015220201963736975 -0.01307699285240657 0.0 -0.01374158370326217 0.0 0.0
0.01958291876402159 -0.017278148397668933 0.0 -0.01671019115527323 0.0 0.0
0.024348564840221076 -0.02189491236694988 0.0 -0.019659005514853476 0.0 0.0
0.029589235336283604 -0.026993388352315056 0.0 -0.02255372105719538 0.0 0.0
0.035370350024352355 -0.032639272616891625 0.0 -0.025279724164048185 0.0 0.0
0.04169750817014348 -0.038837792462742805 0.0 -0.02750987926924421 0.0 0.0
0.04863287439158594 -0.04558626011723312 0.0 -0.0288653705484042 0.0 0.0
0.05654668946805624 -0.053211059686179736 0.0 -0.029224059019355843 0.0 0.0
0.06561819087940285 -0.06217032177115077 0.0 -0.02712060465394033 0.0 0.0
0.07041549192615625 -0.07161698936078917 0.0 2.3898417966794483e-14 0.0 0.0
0.06561819087939436 -0.062170321771128204 0.0 0.027120604654001006 0.0 0.0
0.05654668946803867 -0.05321105968616458 0.0 0.029224059019421184 0.0 0.0
0.04863287439156161 -0.0455862601171987 0.0 0.028865370548435777 0.0 0.0
0.04169750817011698 -0.03883779246272483 0.0 0.027509879269238355 0.0 0.0
0.0353703500243251 -0.03263927261685422 0.0 0.025279724164034366 0.0 0.0
0.029589235336256486 -0.026993388352287845 0.0 0.02255372105718075 0.0 0.0
0.02434856484019746 -0.02189491236692685 0.0 0.019659005514844795 0.0 0.0
0.019582918763999316 -0.01727814839764315 0.0 0.016710191155263353 0.0 0.0
0.015220201963715069 -0.013076992852385148 0.0 0.013741583703244731 0.0 0.0
0.011236401091767483 -0.00925592184408324 0.0 0.010794754861844964 0.0 0.0
0.00770087838964432 -0.005894937217367353 0.0 0.007983684674122936 0.0 0.0
0.004790962791237928 -0.0032200115384037995 0.0 0.005598987840875151 0.0 0.0
0.002703084692719648 -0.00150233061778924 0.0 0.0038736295552214686 0.0 0.0
0.0014738451064523776 -0.0006872265394839199 0.0 0.0029464365500132214 0.0 0.0
0.0008627069049848107 -0.0003683786570368715 0.0 0.002543895882794845 0.0 0.0
0.000516117965081588 -0.0001771626522024739 0.0 0.0023037165615310998 0.0 0.0
0.000257915335858186 -2.3677039652270773e-05 0.0 0.00222833423184531 0.0 0.0
0.0001135031776997226 -5.6225105893952527e-05 0.0 0.002344541262395954 0.0 0.0
0.0007127085552244226 -0.0003433939365453015 0.0 0.0031771045703115524 0.0 0.0
0.0013450962877944075 -0.004605299601506443 0.0 0.001975273441017697 0.0 0.0
0.0009197669858033975 -0.003457914749121875 0.0 -0.0017236123425914715 0.0 0.0
0.00046161942310205537 -0.0003125049240874469 0.0 -0.002784101209697153 0.0 0.0
-2.2630593765252134e-06 -2.2398235869935208e-05 0.0 -0.002446137866496741 0.0 0.0
5.411453390726939e-05 5.895977565066363e-05 0.0 -0.00237617977821765 0.0 0.0
0.00020697859411903055 -3.3648992248807635e-05 0.0 -0.0024535210646438425 0.0 0.0
0.0004087181705051742 -0.00016283822775537248 0.0 -0.0027242712928527077 0.0 0.0
0.0007029178215796285 -0.00031728539041512975 0.0 -0.003081968851894256 0.0 0.0
0.0012536154137684163 -0.0006293719887132924 0.0 -0.0035594623129416598 0.0 0.0
0.002249121873101431 -0.0013309606268526472 0.0 -0.0044182331699520305 0.0 0.0
0.003707400075277835 -0.0025292936484675728 0.0 -0.005830278304384423 0.0 0.0
0.005501515951145227 -0.0041126143689608425 0.0 -0.007752654976040246 0.0 0.0
0.007511935130291576 -0.005958867716150687 0.0 -0.009986460416562004 0.0 0.0
0.009697592113364621 -0.008002861462065327 0.0 -0.012364371297564921 0.0 0.0
0.01210088655301637 -0.010276584501999501 0.0 -0.014816865162869439 0.0 0.0
0.014811128785528708 -0.012859180105701824 0.0 -0.017321414561459504 0.0 0.0
0.017969511916809584 -0.015882548104665054 0.0 -0.019821977701697295 0.0 0.0
0.02173790263303372 -0.019508854852987367 0.0 -0.022076125320766627 0.0 0.0
0.026249098698979664 -0.023875187226482224 0.0 -0.023525000093317962 0.0 0.0
0.03193868265817745 -0.029254220377315898 0.0 -0.02381759337425409 0.0 0.0
0.03991679754690587 -0.0367224002623161 0.0 -0.023749857161040427 0.0 0.0
0.0446604731979763 -0.04708131557569935 0.0 2.1613787148933028e-14 0.0 0.0
0.03991679754690184 -0.03672240026231554 0.0 0.02374985716108976 0.0 0.0
0.031938682658167704 -0.029254220377312685 0.0 0.023817593374306473 0.0 0.0
0.026249098698964825 -0.023875187226456065 0.0 0.02352500009333843 0.0 0.0
0.02173790263302017 -0.019508854852989786 0.0 0.0220761253207594 0.0 0.0
0.017969511916796504 -0.015882548104650757 0.0 0.019821977701681693 0.0 0.0
0.014811128785516627 -0.01285918010568433 0.0 0.017321414561448884 0.0 0.0
0.012100886553007843 -0.010276584501990732 0.0 0.014816865162863922 0.0 0.0
0.00969759211335541 -0.0080028614620538 0.0 0.01236437129755435 0.0 0.0
0.0075119351302818625 -0.005958867716140895 0.0 0.009986460416548543 0.0 0.0
0.005501515951136789 -0.004112614368950844 0.0 0.007752654976024648 0.0 0.0
0.0037074000752712554 -0.0025292936484669565 0.0 0.005830278304371332 0.0 0.0
0.00224912187309718 -0.001330960626850205 0.0 0.004418233169946031 0.0 0.0
0.0012536154137655774 -0.0006293719887098696 0.0 0.0035594623129375034 0.0 0.0
0.0007029178215785155 -0.00031728539041218066 0.0 0.003081968851890294 0.0 0.0
0.00040871817050501264 -0.0001628382277557005 0.0 0.0027242712928483024 0.0 0.0
0.00020697859411904302 -3.364899224657339e-05 0.0 0.0024535210646435923 0.0 0.0
5.411453390716677e-05 5.895977565100613e-05 0.0 0.002376179778215312 0.0 0.0
-2.2630593771883673e-06 -2.239823586969158e-05 0.0 0.0024461378664950607 0.0 0.0
0.0004616194231007319 -0.000312504924086962 0.0 0.0027841012096932044 0.0 0.0
0.0009197669858017734 -0.003457914749115785 0.0 0.0017236123425890951 0.0 0.0
0.0006182113781157419 -0.00257491762799815 0.0 -0.0015728791554149415 0.0 0.0
0.0002668603066322231 -0.00030617451620904235 0.0 -0.002494755883533778 0.0 0.0
-0.00012343661193221152 2.7409275571903914e-05 0.0 -0.0024898677361543864 0.0 0.0
-0.00014646615384231792 0.0001385992679370573 0.0 -0.00246111973365792 0.0 0.0
-9.907705547388583e-05 0.00010802309185234838 0.0 -0.0025374808891819576 0.0 0.0
-4.733278254187059e-05 4.790980192522686e-05 0.0 -0.00280109922738513 0.0 0.0
-1.8866878934677297e-05 1.2721348334948738e-05 0.0 -0.0031692645581662617 0.0 0.0
-7.605080529776497e-06 4.649957321521598e-06 0.0 -0.0034646415320966056 0.0 0.0
-2.6467943684046883e-06 1.5365567988574345e-06 0.0 -0.0038152233301245713 0.0 0.0
-3.673185692535828e-07 1.3183491781037387e-07 0.0 -0.004664140359035843 0.0 0.0
-2.999812487920967e-06 1.7815987287231913e-06 0.0 -0.00610147553344258 0.0 0.0
-1.746978321170837e-05 1.6246739532475602e-05 0.0 -0.007988073558863702 0.0 0.0
-4.152094086356823e-05 4.1278471280270404e-05 0.0 -0.01007607037499828 0.0 0.0
-3.6672897703805786e-05 4.737668110328869e-05 0.0 -0.012302906226283968 0.0 0.0
0.0001055881562675037 -6.020205442264432e-05 0.0 -0.014672082563856381 0.0 0.0
0.0005983665517344482 -0.00047454109770428713 0.0 -0.017150364433318993 0.0 0.0
0.0017716418630165714 -0.0014977899009803817 0.0 -0.019625031610095968 0.0 0.0
0.003969584113241624 -0.003481217961253428 0.0 -0.02182878804819777 0.0 0.0
0.007413297857630498 -0.006516242668342665 0.0 -0.023470136640567664 0.0 0.0
0.013332068418106925 -0.011443216392486516 0.0 -0.024996181826327735 0.0 0.0
0.017199759802809533 -0.022370185357495753 0.0 1.4510094514808003e-14 0.0 0.0
0.013332068418106444 -0.011443216392490197 0.0 0.024996181826358738 0.0 0.0
0.007413297857627881 -0.0065162426683387 0.0 0.02347013664059036 0.0 0.0
0.003969584113239161 -0.003481217961254524 0.0 0.021828788048200556 0.0 0.0
0.0017716418630175576 -0.0014977899009775107 0.0 0.019625031610088516 0.0 0.0
0.0005983665517367111 -0.00047454109770740844 0.0 0.0171503644333013 0.0 0.0
0.0001055881562701845 -6.02020544160257e-05 0.0 0.014672082563845754 0.0 0.0
-3.667289769904462e-05 4.737668110039669e-05 0.0 0.012302906226277315 0.0 0.0
-4.152094085842803e-05 4.127847127457314e-05 0.0 0.010076070374984529 0.0 0.0
-1.746978320747727e-05 1.62467395309047e-05 0.0 0.007988073558851961 0.0 0.0
-2.99981248485918e-06 1.7815987300990438e-06 0.0 0.0061014755334281474 0.0 0.0
-3.6731856765205356e-07 1.318349164343858e-07 0.0 0.004664140359028876 0.0 0.0
-2.6467943674818425e-06 1.536556798310319e-06 0.0 0.003815223330123474 0.0 0.0
-7.605080529100186e-06 4.649957323552715e-06 0.0 0.003464641532095137 0.0 0.0
-1.8866878934057905e-05 1.2721348336159124e-05 0.0 0.0031692645581624427 0.0 0.0
-4.733278254140893e-05 4.790980192639659e-05 0.0 0.002801099227381362 0.0 0.0
-9.90770554735602e-05 0.00010802309185433878 0.0 0.002537480889180728 0.0 0.0
-0.00014646615384192492 0.0001385992679374295 0.0 0.0024611197336552107 0.0 0.0
-0.00012343661193230318 2.7409275573723825e-05 0.0 0.0024898677361525103 0.0 0.0
0.00026686030663147884 -0.00030617451620977034 0.0 0.0024947558835322274 0.0 0.0
0.0006182113781148591 -0.002574917627994381 0.0 0.0015728791554123686 0.0 0.0
0.0004084230035963685 -0.0019325088763551437 0.0 -0.0015004205413598282 0.0 0.0
0.0001198251846602557 -0.00030103232462616884 0.0 -0.0022906863737095742 0.0 0.0
-0.00024176976211971447 8.134370362416251e-05 0.0 -0.002480951661527937 0.0 0.0
-0.00034275738825427873 0.0002167800954872741 0.0 -0.0024806211612646363 0.0 0.0
-0.00039909584775650153 0.00024493925750172085 0.0 -0.0025451140292365587 0.0 0.0
-0.0005001317317623167 0.0002580705514442306 0.0 -0.002776809242728518 0.0 0.0
-0.0007406161055257966 0.00034451826052401657 0.0 -0.0031199299979512395 0.0 0.0
-0.0012684991791648732 0.0006399501783985937 0.0 -0.0035858282755478355 0.0 0.0
-0.0022527870790074104 0.0013333036349810082 0.0 -0.004429132656661186 0.0 0.0
-0.003707180208345013 0.0025288681777240326 0.0 -0.005830576801635708 0.0 0.0
-0.005509501203721677 0.004118456533181126 0.0 -0.007752602758470105 0.0 0.0
-0.0075497308575383885 0.005993249338543209 0.0 -0.009992520649760485 0.0 0.0
-0.00977880855788534 0.008084840604513583 0.0 -0.012359244112267753 0.0 0.0
-0.01216414408898226 0.01036553638196455 0.0 -0.014791033066240229 0.0 0.0
-0.014583015952721348 0.012724073792630401 0.0 -0.017312317199815155 0.0 0.0
-0.016773931511396716 0.014909668622826177 0.0 -0.019977868948424828 0.0 0.0
-0.01832566909240838 0.01651670970973117 0.0 -0.022818750374811927 0.0 0.0
-0.01877897041392996 0.017046962693506616 0.0 -0.02596532020357202 0.0 0.0
-0.017625551681827688 0.016185937209897968 0.0 -0.029360709013618428 0.0 0.0
-0.012789658839713624 0.012655984842578146 0.0 -0.03112175387228272 0.0 0.0
-0.009005150506504092 0.001021718150342734 0.0 1.5730472480157687e-14 0.0 0.0
-0.012789658839713964 0.0126559848425821 0.0 0.031121753872313862 0.0 0.0
-0.01762555168182115 0.016185937209905056 0.0 0.029360709013639893 0.0 0.0
-0.018778970413915727 0.017046962693488713 0.0 0.025965320203576836 0.0 0.0
-0.018325669092391042 0.016516709709719062 0.0 0.022818750374801265 0.0 0.0
-0.01677393151137897 0.014909668622813621 0.0 0.0199778689484037 0.0 0.0
-0.014583015952703764 0.012724073792617682 0.0 0.017312317199800722 0.0 0.0
-0.012164144088964159 0.01036553638195438 0.0 0.014791033066227664 0.0 0.0
-0.009778808557866264 0.008084840604496359 0.0 0.012359244112250173 0.0 0.0
-0.007549730857520512 0.005993249338524388 0.0 0.00999252064974212 0.0 0.0
-0.005509501203707013 0.004118456533173017 0.0 0.007752602758450739 0.0 0.0
-0.003707180208334236 0.0025288681777145814 0.0 0.00583057680162289 0.0 0.0
-0.002252787079000592 0.0013333036349770981 0.0 0.004429132656656976 0.0 0.0
-0.0012684991791608604 0.0006399501783892453 0.0 0.0035858282755453575 0.0 0.0
-0.0007406161055234489 0.0003445182605252168 0.0 0.003119929997947854 0.0 0.0
-0.0005001317317611787 0.0002580705514423403 0.0 0.0027768092427254633 0.0 0.0
-0.0003990958477560825 0.00024493925750243046 0.0 0.002545114029235309 0.0 0.0
-0.00034275738825421476 0.0002167800954867676 0.0 0.0024806211612633223 0.0 0.0
-0.00024176976211973995 8.134370362625597e-05 0.0 0.0024809516615275844 0.0 0.0
0.00011982518466001143 -0.00030103232462709036 0.0 0.002290686373708839 0.0 0.0
0.0004084230035957578 -0.0019325088763523738 0.0 0.0015004205413579903 0.0 0.0
0.0002683329008131871 -0.0014541612301910037 0.0 -0.0014187226776177452 0.0 0.0
1.2305186436853516e-05 -0.0002810023193718941 0.0 -0.0021157757590741814 0.0 0.0
-0.0003522333883674744 0.00013090916461687662 0.0 -0.0024212865606005702 0.0 0.0
-0.0005315759827977402 0.0002926708253143904 0.0 -0.002434011743711088 0.0 0.0
-0.0006903014952495941 0.0003747246239158175 0.0 -0.0024745167942117805 0.0 0.0
-0.0009469288667738917 0.00046270685637633097 0.0 -0.0026519561830537454 0.0 0.0
-0.0015102931770061116 0.0007195287525817905 0.0 -0.0030215969893889814 0.0 0.0
-0.002713950796586874 0.001511820647475803 0.0 -0.003911962954824871 0.0 0.0
-0.004790453878238814 0.0032190032237238877 0.0 -0.005607361119305785 0.0 0.0
-0.007700164664916822 0.00589434864281629 0.0 -0.007982452843876369 0.0 0.0
-0.011246294390163137 0.009265473026961605 0.0 -0.010796407850887682 0.0 0.0
-0.015254811228038026 0.013110351504687928 0.0 -0.013732117513507412 0.0 0.0
-0.019649176475900816 0.017347086779798092 0.0 -0.016645040289463682 0.0 0.0
-0.024386352609017916 0.021958003009965053 0.0 -0.019518694153127868 0.0 0.0
-0.029339983152033275 0.026831975520243585 0.0 -0.022467568915494406 0.0 0.0
-0.03420625008200994 0.0316803684772186 0.0 -0.025700974750002586 0.0 0.0
-0.03850152760244234 0.03600865823447188 0.0 -0.029435895342670514 0.0 0.0
-0.041584121213451807 0.039166499295042394 0.0 -0.0337652058198112 0.0 0.0
-0.04227576978293031 0.040160948198490906 0.0 -0.03787693581124296 0.0 0.0
-0.03806590003530163 0.03666792908394926 0.0 -0.039055667326558505 0.0 0.0
-0.03431176680106524 0.023139091273257695 0.0 2.331815296408024e-14 0.0 0.0
-0.038065900035299416 0.036667929083943035 0.0 0.03905566732661746 0.0 0.0
-0.042275769782917465 0.04016094819848479 0.0 0.03787693581129418 0.0 0.0
-0.04158412121342629 0.03916649929501146 0.0 0.03376520581982836 0.0 0.0
-0.038501527602410796 0.036008658234433666 0.0 0.029435895342658988 0.0 0.0
-0.034206250081977016 0.031680368477191835 0.0 0.025700974749981398 0.0 0.0
-0.029339983152001092 0.026831975520211847 0.0 0.022467568915476133 0.0 0.0
-0.02438635260898611 0.021958003009933506 0.0 0.01951869415311373 0.0 0.0
-0.01964917647586869 0.01734708677976563 0.0 0.01664504028944478 0.0 0.0
-0.015254811228007304 0.01311035150465779 0.0 0.013732117513480083 0.0 0.0
-0.011246294390136654 0.00926547302693417 0.0 0.010796407850858883 0.0 0.0
-0.007700164664896668 0.0058943486427969925 0.0 0.007982452843856642 0.0 0.0
-0.004790453878225243 0.0032190032237113713 0.0 0.005607361119292602 0.0 0.0
-0.0027139507965792046 0.0015118206474720344 0.0 0.003911962954816398 0.0 0.0
-0.0015102931770021978 0.0007195287525788712 0.0 0.0030215969893850267 0.0 0.0
-0.0009469288667720498 0.0004627068563766261 0.0 0.0026519561830511463 0.0 0.0
-0.0006903014952492094 0.0003747246239157823 0.0 0.002474516794209875 0.0 0.0
-0.0005315759827973377 0.0002926708253145718 0.0 0.002434011743708987 0.0 0.0
-0.00035223338836719406 0.00013090916461734102 0.0 0.0024212865606002927 0.0 0.0
1.2305186436450782e-05 -0.00028100231937218135 0.0 0.0021157757590726193 0.0 0.0
0.0002683329008126466 -0.001454161230188895 0.0 0.0014187226776152821 0.0 0.0
0.00016562841015561078 -0.0010647626075984294 0.0 -0.0012773031146590481 0.0 0.0
-7.179158663336935e-05 -0.0002450813885631232 0.0 -0.001934262626133771 0.0 0.0
-0.00045360343435958206 0.0001752015052663267 0.0 -0.002309935505960914 0.0 0.0
-0.0007112509578015897 0.00036411475834597105 0.0 -0.0023259277765585984 0.0 0.0
-0.0009706604916071616 0.0004950782882390766 0.0 -0.002331483176932882 0.0 0.0
-0.0014090925887652766 0.0006707165667885935 0.0 -0.002448714358114011 0.0 0.0
-0.0023888415476106613 0.0012087535658857305 0.0 -0.0029499331240147838 0.0 0.0
-0.004369755009860881 0.002718800928895058 0.0 -0.004294613816724111 0.0 0.0
-0.0075847167668780715 0.005603698041544858 0.0 -0.006608126926001505 0.0 0.0
-0.011945925571627302 0.009769785988259973 0.0 -0.009685944737526781 0.0 0.0
-0.017200778174359943 0.01485761064524269 0.0 -0.013130787758838117 0.0 0.0
-0.023136650362285675 0.02061728323216055 0.0 -0.016585466358247657 0.0 0.0
-0.029665198291984565 0.026968458474634936 0.0 -0.019909694804234303 0.0 0.0
-0.03674654416511362 0.033894941717285125 0.0 -0.023150144344776694 0.0 0.0
-0.044257953958992555 0.041299167707590914 0.0 -0.026526246285746256 0.0 0.0
-0.05187079189920056 0.04887385758801226 0.0 -0.0304350338096133 0.0 0.0
-0.05897797965552473 0.05601853112661928 0.0 -0.03531073422250269 0.0 0.0
-0.06454800639126446 0.06175296319835791 0.0 -0.0409955788486522 0.0 0.0
-0.06679346254400487 0.06436591217530777 0.0 -0.04594638256533113 0.0 0.0
-0.06216885154934508 0.06073118882624347 0.0 -0.04727422872439122 0.0 0.0
-0.05753655884330529 0.04433896410737012 0.0 2.562706991060537e-14 0.0 0.0
-0.06216885154933788 0.060731188826234225 0.0 0.04727422872445447 0.0 0.0
-0.0667934625439851 0.064365912175279 0.0 0.04594638256539512 0.0 0.0
-0.06454800639122993 0.06175296319832946 0.0 0.040995578848679805 0.0 0.0
-0.058977979655480864 0.05601853112657662 0.0 0.03531073422249849 0.0 0.0
-0.0518707918991534 0.048873857587974745 0.0 0.030435033809593587 0.0 0.0
-0.04425795395894598 0.041299167707548524 0.0 0.026526246285722685 0.0 0.0
-0.03674654416506776 0.03389494171724275 0.0 0.02315014434475679 0.0 0.0
-0.029665198291939428 0.026968458474584563 0.0 0.019909694804213503 0.0 0.0
-0.023136650362243178 0.02061728323212187 0.0 0.016585466358220616 0.0 0.0
-0.01720077817432204 0.014857610645203499 0.0 0.013130787758809362 0.0 0.0
-0.011945925571597705 0.009769785988234036 0.0 0.009685944737501893 0.0 0.0
-0.007584716766858086 0.005603698041526036 0.0 0.006608126925986316 0.0 0.0
-0.0043697550098480194 0.0027188009288927517 0.0 0.00429461381671229 0.0 0.0
-0.0023888415476036426 0.001208753565879293 0.0 0.002949933124009238 0.0 0.0
-0.0014090925887627252 0.000670716566788618 0.0 0.0024487143581103724 0.0 0.0
-0.00097066049160642 0.0004950782882393744 0.0 0.002331483176931785 0.0 0.0
-0.0007112509578010267 0.0003641147583469975 0.0 0.0023259277765581643 0.0 0.0
-0.00045360343435938777 0.0001752015052645717 0.0 0.0023099355059584483 0.0 0.0
-7.179158663343731e-05 -0.0002450813885629524 0.0 0.0019342626261305111 0.0 0.0
0.00016562841015544687 -0.0010647626075971437 0.0 0.0012773031146583755 0.0 0.0
8.026351230309315e-05 -0.0007395546294056067 0.0 -0.0010999392149473857 0.0 0.0
-0.00014448495923188046 -0.00019534642437916795 0.0 -0.0017288519526435873 0.0 0.0
-0.0005476343220509439 0.00021620748991421515 0.0 -0.0021465745919210404 0.0 0.0
-0.0008808048179677252 0.00042923815305542193 0.0 -0.0021593519041111877 0.0 0.0
-0.0012444873518835718 0.0006045716210367021 0.0 -0.002114692365985803 0.0 0.0
-0.0019123758056003594 0.0009077299913047444 0.0 -0.002199875296406324 0.0 0.0
-0.0033956064779297806 0.001865582008488798 0.0 -0.0028682379232413267 0.0 0.0
-0.006215882686227386 0.004226102595774917 0.0 -0.004522716094857762 0.0 0.0
-0.010586593769043957 0.008315105785992306 0.0 -0.0072276106118191515 0.0 0.0
-0.01637685187318074 0.013920042398577304 0.0 -0.010688759227413119 0.0 0.0
-0.02330117990783758 0.02066823633435139 0.0 -0.014408522248376805 0.0 0.0
-0.03113719713597602 0.028314753775897823 0.0 -0.018083165223753136 0.0 0.0
-0.03978607809017601 0.03676477604678077 0.0 -0.02160173851770414 0.0 0.0
-0.049206571541446614 0.04599876935655469 0.0 -0.025016142907319277 0.0 0.0
-0.059290804979358847 0.05594214602677501 0.0 -0.028574866531217824 0.0 0.0
-0.0696906157406051 0.06628725946527812 0.0 -0.03282420553391284 0.0 0.0
-0.07960394596698601 0.07627391757679351 0.0 -0.03828533046402427 0.0 0.0
-0.0875372051518438 0.08446355226594163 0.0 -0.044689134418663 0.0 0.0
-0.0909220072946705 0.0884085712202697 0.0 -0.05030461127344987 0.0 0.0
-0.085473610738973 0.08405257765334957 0.0 -0.05204978361754968 0.0 0.0
-0.07987478809453048 0.06489822190094113 0.0 2.899590290095233e-14 0.0 0.0
-0.08547361073895987 0.0840525776533306 0.0 0.052049783617611915 0.0 0.0
-0.09092200729464259 0.08840857122024523 0.0 0.050304611273516715 0.0 0.0
-0.08753720515180069 0.08446355226590742 0.0 0.04468913441870059 0.0 0.0
-0.07960394596693175 0.0762739175767392 0.0 0.038285330464025845 0.0 0.0
-0.06969061574054503 0.06628725946521702 0.0 0.03282420553389581 0.0 0.0
-0.059290804979298645 0.055942146026714726 0.0 0.028574866531193448 0.0 0.0
-0.04920657154138689 0.04599876935649872 0.0 0.025016142907297523 0.0 0.0
-0.03978607809011745 0.03676477604672313 0.0 0.021601738517681827 0.0 0.0
-0.03113719713592132 0.028314753775846607 0.0 0.018083165223726876 0.0 0.0
-0.023301179907789366 0.02066823633430391 0.0 0.014408522248346378 0.0 0.0
-0.016376851873141925 0.01392004239853745 0.0 0.010688759227385587 0.0 0.0
-0.010586593769016482 0.008315105785969721 0.0 0.007227610611801369 0.0 0.0
-0.006215882686210301 0.004226102595760133 0.0 0.00452271609484713 0.0 0.0
-0.00339560647791975 0.0018655820084796312 0.0 0.0028682379232338826 0.0 0.0
-0.0019123758055959676 0.0009077299913044087 0.0 0.0021998752964021433 0.0 0.0
-0.0012444873518822677 0.0006045716210353888 0.0 0.0021146923659861373 0.0 0.0
-0.0008808048179674741 0.0004292381530560854 0.0 0.002159351904110162 0.0 0.0
-0.0005476343220509501 0.0002162074899137575 0.0 0.0021465745919192606 0.0 0.0
-0.00014448495923178692 -0.0001953464243794482 0.0 0.001728851952641994 0.0 0.0
8.026351230314392e-05 -0.000739554629404689 0.0 0.0010999392149478786 0.0 0.0
6.828779246933142e-06 -0.00047362878871660844 0.0 -0.0009098405738919488 0.0 0.0
-0.00021004083822667393 -0.0001352687968730021 0.0 -0.0014945479937575209 0.0 0.0
-0.0006359976401895887 0.00025593393394039704 0.0 -0.0019283787523536487 0.0 0.0
-0.0010395542663086145 0.00048678918870757436 0.0 -0.0019346872219929774 0.0 0.0
-0.0015224822796130676 0.0007092707877892018 0.0 -0.001834312744335574 0.0 0.0
-0.0024785124458923135 0.0012060190036492597 0.0 -0.0019223414859994054 0.0 0.0
-0.004532854821241576 0.0027049903703873154 0.0 -0.0027095545808406086 0.0 0.0
-0.00822709427380045 0.005981892303173856 0.0 -0.004526922798547929 0.0 0.0
-0.013744220273627636 0.01124382261735253 0.0 -0.007391158767492375 0.0 0.0
-0.02091991917268733 0.018225349746804894 0.0 -0.010882094914575643 0.0 0.0
-0.02948179892828065 0.026597886151138155 0.0 -0.014580835237700984 0.0 0.0
-0.03921160090229637 0.036121150185330554 0.0 -0.018228819449814537 0.0 0.0
-0.04997692962479267 0.04666757840940589 0.0 -0.021733412879369817 0.0 0.0
-0.06172292267471648 0.05819932074143351 0.0 -0.025134531706614973 0.0 0.0
-0.0743636283593235 0.07066182206622679 0.0 -0.028633657243810482 0.0 0.0
-0.08752194852213802 0.08374974962544998 0.0 -0.03273035873845282 0.0 0.0
-0.10018221577422992 0.09653040949632001 0.0 -0.038053901160221254 0.0 0.0
-0.11034279745490813 0.10707687346924531 0.0 -0.044563643167675755 0.0 0.0
-0.11470552475942766 0.11215982973766125 0.0 -0.05080092421992549 0.0 0.0
-0.10850498629168127 0.10707998832762627 0.0 -0.05475290091717528 0.0 0.0
-0.10207427754310168 0.08553158853343469 0.0 2.946427823946607e-14 0.0 0.0
-0.1085049862916638 0.10707998832759325 0.0 0.05475290091723879 0.0 0.0
-0.1147055247593913 0.1121598297376204 0.0 0.05080092421999002 0.0 0.0
-0.1103427974548557 0.10707687346919649 0.0 0.04456364316771188 0.0 0.0
-0.10018221577416501 0.09653040949625022 0.0 0.03805390116022022 0.0 0.0
-0.08752194852206634 0.08374974962538109 0.0 0.03273035873843945 0.0 0.0
-0.07436362835925012 0.07066182206614784 0.0 0.028633657243789967 0.0 0.0
-0.06172292267464244 0.05819932074136337 0.0 0.02513453170659535 0.0 0.0
-0.04997692962472092 0.046667578409338856 0.0 0.021733412879348178 0.0 0.0
-0.03921160090223001 0.03612115018526495 0.0 0.018228819449785313 0.0 0.0
-0.029481798928222454 0.026597886151080795 0.0 0.014580835237668028 0.0 0.0
-0.020919919172640206 0.01822534974676059 0.0 0.01088209491454929 0.0 0.0
-0.013744220273592579 0.011243822617320433 0.0 0.007391158767474683 0.0 0.0
-0.008227094273777338 0.005981892303151678 0.0 0.004526922798536749 0.0 0.0
-0.004532854821228306 0.002704990370377507 0.0 0.002709554580833226 0.0 0.0
-0.002478512445886292 0.0012060190036484394 0.0 0.0019223414859956467 0.0 0.0
-0.0015224822796111278 0.000709270787787555 0.0 0.0018343127443346124 0.0 0.0
-0.0010395542663078894 0.0004867891887065641 0.0 0.0019346872219907492 0.0 0.0
-0.0006359976401891065 0.000255933933940909 0.0 0.001928378752353948 0.0 0.0
-0.00021004083822636174 -0.000135268796874063 0.0 0.001494547993756909 0.0 0.0
6.8287792469006654e-06 -0.0004736287887159803 0.0 0.0009098405738888559 0.0 0.0
-5.509804406242927e-05 -0.000265219608857735 0.0 -0.0007149313570907084 0.0 0.0
-0.00026876206215278306 -6.991853296357553e-05 0.0 -0.0012330524245228408 0.0 0.0
-0.0007196914009249089 0.0002954106396134199 0.0 -0.001654937729184871 0.0 0.0
-0.001191999437191117 0.0005369329855149173 0.0 -0.0016522100627104567 0.0 0.0
-0.0018194305201505215 0.0008207784337122471 0.0 -0.0015009817801736234 0.0 0.0
-0.0031195132646707805 0.0015923708846985998 0.0 -0.0016068240707875871 0.0 0.0
-0.005794872329216904 0.0037279400345164417 0.0 -0.0024402816516713127 0.0 0.0
-0.010372140121930539 0.007930611404814518 0.0 -0.004285106648920635 0.0 0.0
-0.016992669381833837 0.014295806039187915 0.0 -0.006989712399917306 0.0 0.0
-0.025514091214194724 0.02260897830665348 0.0 -0.010223174072766461 0.0 0.0
-0.03570182922689508 0.03258825708868842 0.0 -0.013665024929559864 0.0 0.0
-0.04731858220569093 0.04398178140046422 0.0 -0.017058244882936575 0.0 0.0
-0.060200790163741955 0.05662903821457174 0.0 -0.020336267603456137 0.0 0.0
-0.07426049335261194 0.07045206816425365 0.0 -0.023543409246629975 0.0 0.0
-0.08939151129656149 0.0853760206481785 0.0 -0.02675748612781125 0.0 0.0
-0.10520190806235921 0.10109157509972726 0.0 -0.03025206934467052 0.0 0.0
-0.12051222930991748 0.11655446737617303 0.0 -0.03468855227968578 0.0 0.0
-0.13285642855612637 0.12940661556452485 0.0 -0.04066939768058227 0.0 0.0
-0.1383180840896743 0.1357356947831733 0.0 -0.04792173130943682 0.0 0.0
-0.13169337194228117 0.13029107699540676 0.0 -0.05588497218051765 0.0 0.0
-0.124637266956519 0.10673007738404881 0.0 2.6737292935230528e-14 0.0 0.0
-0.13169337194225944 0.1302910769953825 0.0 0.05588497218058053 0.0 0.0
-0.1383180840896301 0.13573569478312308 0.0 0.04792173130949846 0.0 0.0
-0.13285642855606458 0.1294066155644638 0.0 0.04066939768061654 0.0 0.0
-0.12051222930984215 0.11655446737609179 0.0 0.03468855227968971 0.0 0.0
-0.10520190806227513 0.1010915750996548 0.0 0.03025206934465991 0.0 0.0
-0.08939151129647462 0.08537602064809031 0.0 0.026757486127792995 0.0 0.0
-0.07426049335252521 0.07045206816417485 0.0 0.0235434092466086 0.0 0.0
-0.060200790163657994 0.05662903821449135 0.0 0.020336267603434453 0.0 0.0
-0.047318582205612615 0.04398178140038858 0.0 0.017058244882907275 0.0 0.0
-0.035701829226826375 0.03258825708862246 0.0 0.01366502492952995 0.0 0.0
-0.025514091214138675 0.02260897830660631 0.0 0.01022317407274218 0.0 0.0
-0.016992669381791597 0.01429580603914804 0.0 0.006989712399900703 0.0 0.0
-0.010372140121902152 0.007930611404788214 0.0 0.004285106648907587 0.0 0.0
-0.005794872329200157 0.003727940034504172 0.0 0.0024402816516650412 0.0 0.0
-0.003119513264663407 0.0015923708846942136 0.0 0.0016068240707827965 0.0 0.0
-0.0018194305201486931 0.0008207784337118247 0.0 0.0015009817801725984 0.0 0.0
-0.0011919994371903165 0.0005369329855154739 0.0 0.001652210062709301 0.0 0.0
-0.0007196914009242115 0.00029541063961207524 0.0 0.0016549377291835295 0.0 0.0
-0.0002687620621529397 -6.991853296371608e-05 0.0 0.0012330524245204126 0.0 0.0
-5.509804406304742e-05 -0.0002652196088575695 0.0 0.0007149313570891702 0.0 0.0
-0.00010318035890165766 -0.0001142382550044877 0.0 -0.0005210853853766371 0.0 0.0
-0.00031821646371883077 -5.071741642005206e-06 0.0 -0.000947410823609933 0.0 0.0
-0.0007982921508986792 0.00033402441057193825 0.0 -0.001324616175807311 0.0 0.0
-0.0013434123833808945 0.0005809954663730708 0.0 -0.0013073250649434406 0.0 0.0
-0.002149225642111193 0.0009555377160936375 0.0 -0.0011165935101854914 0.0 0.0
-0.0038479110993663423 0.002089500182935048 0.0 -0.0012319986894279208 0.0 0.0
-0.0071746730813159534 0.004921670832539977 0.0 -0.0020545649717956006 0.0 0.0
-0.012598672061664262 0.009996265929102155 0.0 -0.0036882165986056544 0.0 0.0
-0.02027268180862604 0.017402956209105674 0.0 -0.005972408169437941 0.0 0.0
-0.030120784434198807 0.027021822912573455 0.0 -0.008732505996261465 0.0 0.0
-0.0419177126809387 0.03859111145865554 0.0 -0.011678006847240732 0.0 0.0
-0.05541745617579927 0.051849803958804244 0.0 -0.014586563557183865 0.0 0.0
-0.07042199209004227 0.06660401369228156 0.0 -0.017416274740692746 0.0 0.0
-0.08677833995752389 0.08271661542750912 0.0 -0.02022480951387883 0.0 0.0
-0.10431159861334655 0.10003042808008307 0.0 -0.022989910552260857 0.0 0.0
-0.12258929913482838 0.11817887010313763 0.0 -0.02563352768711106 0.0 0.0
-0.1403846038064291 0.1361008018616156 0.0 -0.0285224177041862 0.0 0.0
-0.15498331251204456 0.15128780687365695 0.0 -0.03313657757689094 0.0 0.0
-0.16194021445976386 0.1592883556737653 0.0 -0.041613788504492266 0.0 0.0
-0.1554366463463709 0.1541237122015958 0.0 -0.05517159570830735 0.0 0.0
-0.1480229321119396 0.12898012740740158 0.0 2.3696322681843185e-14 0.0 0.0
-0.15543664634634502 0.15412371220157167 0.0 0.05517159570836275 0.0 0.0
-0.1619402144597124 0.15928835567371588 0.0 0.041613788504542545 0.0 0.0
-0.1549833125119724 0.15128780687357443 0.0 0.03313657757691733 0.0 0.0
-0.14038460380634227 0.1361008018615188 0.0 0.02852241770418889 0.0 0.0
-0.1225892991347328 0.11817887010304384 0.0 0.02563352768710564 0.0 0.0
-0.10431159861324751 0.10003042807998698 0.0 0.022989910552247594 0.0 0.0
-0.08677833995742437 0.08271661542741583 0.0 0.020224809513861568 0.0 0.0
-0.07042199208994537 0.06660401369218404 0.0 0.017416274740675284 0.0 0.0
-0.05541745617570889 0.05184980395872092 0.0 0.014586563557157931 0.0 0.0
-0.041917712680860135 0.03859111145857131 0.0 0.011678006847213658 0.0 0.0
-0.03012078443413481 0.02702182291251424 0.0 0.008732505996241527 0.0 0.0
-0.020272681808577244 0.017402956209055718 0.0 0.005972408169421009 0.0 0.0
-0.012598672061630149 0.00999626592907013 0.0 0.0036882165985940903 0.0 0.0
-0.0071746730812949615 0.004921670832522982 0.0 0.002054564971789514 0.0 0.0
-0.003847911099356299 0.002089500182928977 0.0 0.0012319986894241534 0.0 0.0
-0.0021492256421077913 0.0009555377160913115 0.0 0.0011165935101823043 0.0 0.0
-0.001343412383380245 0.000580995466374452 0.0 0.0013073250649439491 0.0 0.0
-0.000798292150898209 0.00033402441057182034 0.0 0.0013246161758073026 0.0 0.0
-0.00031821646371827734 -5.071741641642228e-06 0.0 0.0009474108236074434 0.0 0.0
-0.0001031803589014203 -0.00011423825500452177 0.0 0.0005210853853772371 0.0 0.0
-0.00013252212169534373 -2.1296979373659998e-05 0.0 -0.0003387600455662461 0.0 0.0
-0.00035280290348342294 5.210426384722158e-05 0.0 -0.0006416901874948241 0.0 0.0
-0.0008694883296750772 0.00036877825561497347 0.0 -0.000930057081825017 0.0 0.0
-0.001502741540807062 0.000624765850043163 0.0 -0.0008934157749432394 0.0 0.0
-0.002527490641457109 0.0011347121772488464 0.0 -0.0006910765428703885 0.0 0.0
-0.004672508293827032 0.0027214985555905017 0.0 -0.0007970698972897101 0.0 0.0
-0.008635841354902746 0.006241480984993662 0.0 -0.0014809305566740893 0.0 0.0
-0.0148587152092391 0.012114275326725965 0.0 -0.0026714534826376953 0.0 0.0
-0.023553810880332458 0.020524561278072503 0.0 -0.004360709698032272 0.0 0.0
-0.0346987133691051 0.031419237864392005 0.0 -0.006416391740746984 0.0 0.0
-0.04808858243214722 0.04456151685789946 0.0 -0.00862618421547648 0.0 0.0
-0.06346498256772529 0.05968023565939458 0.0 -0.010816992766302849 0.0 0.0
-0.08059277324401434 0.0765456796738583 0.0 -0.012973135047704917 0.0 0.0
-0.09924333928628985 0.09494690832586941 0.0 -0.015162752847145787 0.0 0.0
-0.11909740691751158 0.11459142726887236 0.0 -0.017299976456110297 0.0 0.0
-0.13959598703857398 0.13496081977155183 0.0 -0.019060616292366044 0.0 0.0
-0.15958812781042642 0.154992032062557 0.0 -0.02030417224663431 0.0 0.0
-0.17654732770593975 0.17240994826471454 0.0 -0.022572030406296646 0.0 0.0
-0.18566392317977526 0.18280911491216342 0.0 -0.030838145288184737 0.0 0.0
-0.18015463823501804 0.17909389462713385 0.0 -0.05149828979232405 0.0 0.0
-0.17281610059783029 0.1529600483861242 0.0 1.9975340825872934e-14 0.0 0.0
-0.180154638234988 0.17909389462710054 0.0 0.05149828979236572 0.0 0.0
-0.18566392317971483 0.18280911491210547 0.0 0.030838145288222825 0.0 0.0
-0.17654732770585602 0.17240994826462394 0.0 0.022572030406317355 0.0 0.0
-0.15958812781032736 0.1549920320624578 0.0 0.02030417224663618 0.0 0.0
-0.13959598703846607 0.1349608197714455 0.0 0.0190606162923657 0.0 0.0
-0.11909740691740067 0.11459142726876892 0.0 0.017299976456103764 0.0 0.0
-0.09924333928617773 0.09494690832575493 0.0 0.015162752847135537 0.0 0.0
-0.08059277324390486 0.0765456796737461 0.0 0.012973135047691282 0.0 0.0
-0.06346498256762398 0.059680235659300446 0.0 0.0108169927662858 0.0 0.0
-0.04808858243205856 0.04456151685780568 0.0 0.008626184215455536 0.0 0.0
-0.03469871336903303 0.031419237864322824 0.0 0.006416391740730405 0.0 0.0
-0.02355381088027734 0.020524561278016305 0.0 0.00436070969802077 0.0 0.0
-0.014858715209199288 0.0121142753266872 0.0 0.002671453482630464 0.0 0.0
-0.008635841354878033 0.006241480984970884 0.0 0.0014809305566679256 0.0 0.0
-0.004672508293815121 0.0027214985555802525 0.0 0.0007970698972876386 0.0 0.0
-0.0025274906414522623 0.0011347121772440887 0.0 0.0006910765428692191 0.0 0.0
-0.0015027415408052727 0.0006247658500422153 0.0 0.0008934157749432839 0.0 0.0
-0.0008694883296749416 0.0003687782556154813 0.0 0.0009300570818246488 0.0 0.0
-0.0003528029034836125 5.210426384743755e-05 0.0 0.0006416901874941389 0.0 0.0
-0.00013252212169534455 -2.1296979373575457e-05 0.0 0.00033876004556777895 0.0 0.0
-0.00013433523915412326 1.3830723309518701e-05 0.0 -0.00019004374683392753 0.0 0.0
-0.00036219814158215533 9.060608738365285e-05 0.0 -0.0003216019775293623 0.0 0.0
-0.0009295568139194165 0.0003938652438218872 0.0 -0.00045161533566911316 0.0 0.0
-0.0016836666972518842 0.0006839868101112058 0.0 -0.0004079967505111256 0.0 0.0
-0.002972267771360048 0.0013879662896951763 0.0 -0.00023287375746228715 0.0 0.0
-0.005579839602766932 0.0034788580337732234 0.0 -0.00027688923801359397 0.0 0.0
-0.010147713609451102 0.007635884558365962 0.0 -0.0006461579454167714 0.0 0.0
-0.017122761400137763 0.014251342701042918 0.0 -0.0012712098189379935 0.0 0.0
-0.02679704041925138 0.023620441634280814 0.0 -0.002162532185248322 0.0 0.0
-0.039206841696583526 0.03575642432685982 0.0 -0.0032789711945522674 0.0 0.0
-0.05417155567394902 0.050455425778207705 0.0 -0.004502775823969073 0.0 0.0
-0.07141966539028909 0.06743168857984796 0.0 -0.005745071020368099 0.0 0.0
-0.09067054799421516 0.08640729038356335 0.0 -0.007016169270144884 0.0 0.0
-0.1115973781617772 0.1070817278688747 0.0 -0.0083280911367233 0.0 0.0
-0.13372211716627197 0.1290167861349575 0.0 -0.009592421278785061 0.0 0.0
-0.15627784978811143 0.15148073140774368 0.0 -0.010535031379618158 0.0 0.0
-0.17805533703504656 0.17327338540984696 0.0 -0.010755116179673209 0.0 0.0
-0.19705696160697048 0.19242607114796678 0.0 -0.010772037809108565 0.0 0.0
-0.2092590890017168 0.20546177555309375 0.0 -0.015501092165350325 0.0 0.0
-0.20646195882337792 0.2056783750280562 0.0 -0.039019326802528044 0.0 0.0
-0.19995345640817186 0.18059915145323982 0.0 1.2516029879172663e-14 0.0 0.0
-0.20646195882334453 0.20567837502801423 0.0 0.03901932680255356 0.0 0.0
-0.20925908900164825 0.20546177555303258 0.0 0.015501092165371252 0.0 0.0
-0.19705696160687508 0.19242607114787044 0.0 0.010772037809120994 0.0 0.0
-0.17805533703493456 0.17327338540973897 0.0 0.010755116179672307 0.0 0.0
-0.15627784978798978 0.15148073140761956 0.0 0.010535031379616405 0.0 0.0
-0.13372211716614776 0.12901678613483755 0.0 0.00959242127878096 0.0 0.0
-0.11159737816165304 0.10708172786874876 0.0 0.00832809113671913 0.0 0.0
-0.09067054799409324 0.08640729038344547 0.0 0.007016169270137037 0.0 0.0
-0.07141966539017588 0.06743168857973579 0.0 0.005745071020359241 0.0 0.0
-0.05417155567385118 0.05045542577811274 0.0 0.004502775823958575 0.0 0.0
-0.03920684169650355 0.035756424326782416 0.0 0.0032789711945427043 0.0 0.0
-0.02679704041919001 0.02362044163422165 0.0 0.0021625321852456088 0.0 0.0
-0.017122761400093316 0.014251342700996698 0.0 0.001271209818934696 0.0 0.0
-0.010147713609422604 0.0076358845583362756 0.0 0.0006461579454110093 0.0 0.0
-0.005579839602752304 0.003478858033760787 0.0 0.000276889238013332 0.0 0.0
-0.002972267771353939 0.0013879662896905463 0.0 0.0002328737574631506 0.0 0.0
-0.0016836666972501945 0.0006839868101110366 0.0 0.0004079967505107556 0.0 0.0
-0.0009295568139189884 0.00039386524382186143 0.0 0.00045161533566819386 0.0 0.0
-0.00036219814158164527 9.060608738374695e-05 0.0 0.00032160197753027225 0.0 0.0
-0.0001343352391537058 1.3830723309537375e-05 0.0 0.00019004374683461795 0.0 0.0
-9.297168912844012e-05 1.70864758719221e-05 0.0 -0.00011516711379333186 0.0 0.0
-0.0003279701381500098 0.00010345913037651464 0.0 -0.00013371234702223183 0.0 0.0
-0.0009743965592532854 0.00040310908486332526 0.0 -0.00014675591249412132 0.0 0.0
-0.001906058361237218 0.0007201230314661609 0.0 -6.558061371265671e-05 0.0 0.0
-0.0034929076588992736 0.0015380240990319819 0.0 0.00022448119529695006 0.0 0.0
-0.0065503342586670215 0.003883679410528586 0.0 0.0004712689863157776 0.0 0.0
-0.011684855516357716 0.00834648405783013 0.0 0.0005927873087914304 0.0 0.0
-0.019364434667503157 0.015321185303925377 0.0 0.0006260719600623486 0.0 0.0
-0.0299654375787423 0.02515656132947691 0.0 0.0005591286220396246 0.0 0.0
-0.04360174896782808 0.03790448206890897 0.0 0.0003439976355278716 0.0 0.0
-0.06012504665588219 0.05337749886808797 0.0 2.117064096770517e-05 0.0 0.0
-0.07924301899740725 0.0712829902956035 0.0 -0.0003899391580922205 0.0 0.0
-0.10059979891289288 0.09131230834845516 0.0 -0.0009100784312398294 0.0 0.0
-0.12377354169293722 0.1131161186197989 0.0 -0.0015110751851546336 0.0 0.0
-0.1481500366307937 0.13618942793442892 0.0 -0.002182834209448056 0.0 0.0
-0.1727373140174962 0.1596852057689706 0.0 -0.0027784442539802133 0.0 0.0
-0.19606104532435734 0.18228581181734405 0.0 -0.00297195717158835 0.0 0.0
-0.21622905426892464 0.20212611578327327 0.0 -0.002669644050837215 0.0 0.0
-0.23095869564939894 0.2163806188314155 0.0 -0.005511334094099728 0.0 0.0
-0.23472633196488987 0.21941849865243604 0.0 -0.03018001201128586 0.0 0.0
-0.23280220200778984 0.19571290053294182 0.0 4.315992008230296e-15 0.0 0.0
-0.23472633196485376 0.2194184986523805 0.0 0.030180012011295585 0.0 0.0
-0.23095869564932067 0.21638061883134735 0.0 0.005511334094106153 0.0 0.0
-0.21622905426881495 0.20212611578316747 0.0 0.002669644050841455 0.0 0.0
-0.19606104532423171 0.1822858118172224 0.0 0.002971957171582513 0.0 0.0
-0.1727373140173624 0.15968520576883538 0.0 0.002778444253977639 0.0 0.0
-0.1481500366306572 0.13618942793429678 0.0 0.0021828342094439603 0.0 0.0
-0.12377354169279975 0.11311611861967416 0.0 0.0015110751851522136 0.0 0.0
-0.10059979891275814 0.09131230834833594 0.0 0.0009100784312357172 0.0 0.0
-0.07924301899728238 0.07128299029548273 0.0 0.00038993915808803285 0.0 0.0
-0.06012504665577509 0.05337749886799036 0.0 -2.117064096907994e-05 0.0 0.0
-0.04360174896774124 0.03790448206882709 0.0 -0.00034399763553268504 0.0 0.0
-0.029965437578674953 0.025156561329413126 0.0 -0.0005591286220389207 0.0 0.0
-0.019364434667454942 0.015321185303874992 0.0 -0.0006260719600613383 0.0 0.0
-0.011684855516326323 0.008346484057800443 0.0 -0.0005927873087950676 0.0 0.0
-0.006550334258650285 0.003883679410515573 0.0 -0.0004712689863133119 0.0 0.0
-0.003492907658892532 0.0015380240990280286 0.0 -0.0002244811952969468 0.0 0.0
-0.0019060583612342035 0.0007201230314667596 0.0 6.558061371262849e-05 0.0 0.0
-0.0009743965592515671 0.00040310908486365833 0.0 0.000146755912496881 0.0 0.0
-0.0003279701381497477 0.00010345913037605139 0.0 0.00013371234702487346 0.0 0.0
-9.297168912894872e-05 1.7086475871933274e-05 0.0 0.00011516711379323676 0.0 0.0
SCALARS Statev float 8
LOOKUP_TABLE default
0.0 0.02076719003881854 0.016722056471819492 -0.019780820963068328 0.0030587644912488236 -0.0013468669062080894 0.0 0.0
0.0 0.007453412211039121 0.005554980029027281 -0.0036096801733473804 -0.001945299855679897 -0.007545703566552778 0.0 0.0
0.0 0.00025100480568949 0.00030896908094051745 -0.00018612290026161546 -0.00012284618067890196 -0.00044447449873189594 0.0 0.0
0.0 0.0002345581993836885 0.00014770054522865504 -0.00010615072409808778 -4.154982113056784e-05 4.0437085738452145e-05 0.0 0.0
0.0 0.0013786482499824953 0.001044997269217989 -0.0007733892118252528 -0.0002716080573927362 0.00021309800422131302 0.0 0.0
0.0 0.0037097554744587613 0.00359075575017299 -0.002911301928041653 -0.0006794538221313401 0.0004269837053516676 0.0 0.0
0.0 0.009050610016673928 0.008242080219509866 -0.007221984781204832 -0.0010200954383050261 0.0005835250339127462 0.0 0.0
0.0 0.017261747097923174 0.015486809308282537 -0.014196829875727061 -0.0012899794325554846 0.0006439312604291747 0.0 0.0
0.0 0.02886768676204489 0.025655755487961673 -0.024102162398816986 -0.0015535930891446743 0.0006022922390979728 0.0 0.0
0.0 0.04401126225197614 0.03884398757181745 -0.03699144195906057 -0.0018525456127568994 0.0004167182176565367 0.0 0.0
0.0 0.06251638789983284 0.05490547397082954 -0.052701877123302085 -0.0022035968475274505 0.00011476733107463829 0.0 0.0
0.0 0.08373136080041974 0.0735627357339941 -0.07095468715076485 -0.0026080485832291594 -0.0002859050174125659 0.0 0.0
0.0 0.10763602207404085 0.09448688612652847 -0.09143393954008228 -0.0030529465864461724 -0.0007893052669184987 0.0 0.0
0.0 0.13376824246352115 0.11732777025306142 -0.11380554258984565 -0.0035222276632156293 -0.0013469882512280075 0.0 0.0
0.0 0.16161686901172453 0.1416358730394961 -0.13764052286211848 -0.0039953501773773974 -0.001974010753520146 0.0 0.0
0.0 0.19043487183121244 0.1667226783663811 -0.16227407922902645 -0.0044485991373545706 -0.002628853957016125 0.0 0.0
0.0 0.21902110930527408 0.19157590351901388 -0.18671857716746548 -0.0048573263515486196 -0.0031740272631396917 0.0 0.0
0.0 0.24583511245477396 0.21487139260528235 -0.20967367305439677 -0.005197719550885563 -0.0034108746300840153 0.0 0.0
0.0 0.26908925452133114 0.23507843666397266 -0.22960925815909422 -0.005469178504878001 -0.003217073850901554 0.0 0.0
0.0 0.2863585427444878 0.2502997289810426 -0.2446581905461573 -0.005641538434885484 -0.003996285253161982 0.0 0.0
0.0 0.2939003163367709 0.25647395031608755 -0.25084838788799024 -0.005625562428097029 3.974251483462865e-15 0.0 0.0
0.0 0.2863585427444519 0.2502997289810107 -0.24465819054612692 -0.005641538434884055 0.003996285253171446 0.0 0.0
0.0 0.2690892545212402 0.23507843666389278 -0.2296092581590151 -0.005469178504877195 0.003217073850914737 0.0 0.0
0.0 0.24583511245466155 0.21487139260518334 -0.20967367305430143 -0.005197719550881819 0.003410874630090323 0.0 0.0
0.0 0.21902110930513494 0.19157590351889278 -0.18671857716734747 -0.004857326351545606 0.0031740272631386223 0.0 0.0
0.0 0.19043487183106356 0.16672267836625082 -0.1622740792288974 -0.0044485991373532435 0.0026288539570087513 0.0 0.0
0.0 0.16161686901158212 0.14163587303937086 -0.1376405228619981 -0.003995350177372715 0.001974010753520346 0.0 0.0
0.0 0.1337682424633707 0.11732777025293042 -0.11380554258971634 -0.003522227663214189 0.0013469882512258695 0.0 0.0
0.0 0.10763602207390083 0.09448688612640609 -0.09143393953996308 -0.003052946586442815 0.0007893052669144737 0.0 0.0
0.0 0.08373136080029062 0.07356273573388142 -0.07095468715065412 -0.0026080485832271666 0.000285905017408421 0.0 0.0
0.0 0.06251638789971975 0.054905473970730735 -0.05270187712320552 -0.002203596847525182 -0.00011476733108184032 0.0 0.0
0.0 0.04401126225188832 0.038843987571740596 -0.036991441958985634 -0.001852545612755075 -0.00041671821765966563 0.0 0.0
0.0 0.02886768676197592 0.025655755487900996 -0.024102162398757933 -0.001553593089143022 -0.0006022922390973453 0.0 0.0
0.0 0.017261747097880878 0.015486809308244651 -0.01419682987569058 -0.0012899794325540452 -0.0006439312604295019 0.0 0.0
0.0 0.009050610016642997 0.008242080219481559 -0.0072219847811781195 -0.0010200954383034412 -0.0005835250339123441 0.0 0.0
0.0 0.003709755474444963 0.00359075575015951 -0.002911301928029878 -0.0006794538221296408 -0.00042698370535052503 0.0 0.0
0.0 0.0013786482499757496 0.0010449972692126836 -0.0007733892118212271 -0.0002716080573914541 -0.0002130980042202079 0.0 0.0
0.0 0.00023455819938211206 0.00014770054522794725 -0.00010615072409760998 -4.1549821130336575e-05 -4.0437085738215524e-05 0.0 0.0
0.0 0.00025100480568827715 0.00030896908093949304 -0.00018612290026098335 -0.00012284618067850864 0.0004444744987302315 0.0 0.0
0.0 0.0074534122110278805 0.005554980029021578 -0.003609680173342894 -0.001945299855678683 0.0075457035665435265 0.0 0.0
0.0 0.020767190038796707 0.016722056471805143 -0.019780820963048465 0.0030587644912433063 0.0013468669061629532 0.0 0.0
0.0 0.01710755581236242 0.012933037324245954 -0.01653206537702411 0.0035990280527781536 -0.0008473031230364339 0.0 0.0
0.0 0.004768644716920806 0.0034353439614340582 -0.002224067870125911 -0.0012112760913081432 -0.006114790210681946 0.0 0.0
0.0 -9.975027674845774e-05 -8.077385370871579e-05 7.810472810530018e-05 2.6691256034156135e-06 -0.00013626227682137114 0.0 0.0
0.0 7.456400271121293e-05 6.558231133991425e-05 -4.7302670995877603e-05 -1.8279640344036567e-05 1.973362315640367e-05 0.0 0.0
0.0 0.000840236251657849 0.0007177599158817066 -0.0005357292103999848 -0.0001820307054817211 8.061310038637611e-05 0.0 0.0
0.0 0.0032150653914470584 0.00284893624967567 -0.0023348605715959973 -0.000514075678079676 4.1617692768898174e-05 0.0 0.0
0.0 0.007783536630420385 0.007060499179882749 -0.0062731195721666055 -0.0007873796077161416 -0.0003282850784707781 0.0 0.0
0.0 0.015411162832453201 0.013709054900555776 -0.012763278989051925 -0.0009457759115038538 -0.0009499306067805115 0.0 0.0
0.0 0.02624227365561644 0.02309771888731517 -0.022043221873829674 -0.0010544970134854826 -0.001827656828062235 0.0 0.0
0.0 0.04028717490240388 0.03526035505704354 -0.03411176548368729 -0.0011485895733562425 -0.0029303317152690094 0.0 0.0
0.0 0.057376276915858615 0.05002186551797735 -0.04878285740795512 -0.00123900811002228 -0.00415928064641984 0.0 0.0
0.0 0.07730278258613772 0.06711916998150458 -0.06578808781175956 -0.0013310821697449869 -0.005425263166575293 0.0 0.0
0.0 0.09916664826457589 0.08628616538917132 -0.08486132671796735 -0.0014248386712039723 -0.006717352380637283 0.0 0.0
0.0 0.12336310209637036 0.10722202781095758 -0.10570867509262517 -0.0015133527183324152 -0.008028946509066975 0.0 0.0
0.0 0.1491323966190603 0.12952754039859654 -0.1279409722107968 -0.0015865681877995186 -0.009310708084245013 0.0 0.0
0.0 0.1758050063545629 0.15259443250984575 -0.1509584034527716 -0.0016360290570742752 -0.01043375031270863 0.0 0.0
0.0 0.2023666098539398 0.17552447360481815 -0.17386745311976587 -0.0016570204850523136 -0.011116965912303026 0.0 0.0
0.0 0.22741692220335177 0.19711640638551498 -0.1954654475565384 -0.0016509588289765533 -0.011013932438719273 0.0 0.0
0.0 0.24911936729457929 0.215824600973489 -0.21422021612127579 -0.0016043848522130488 -0.010031424090254383 0.0 0.0
0.0 0.26496265481769665 0.2293949252881834 -0.227973888021882 -0.0014210372663013466 -0.009248151116815182 0.0 0.0
0.0 0.27197256576839723 0.23470216661576787 -0.23355912096830517 -0.0011430456474627998 9.772564701915343e-15 0.0 0.0
0.0 0.26496265481765885 0.22939492528815006 -0.22797388802184856 -0.0014210372663012868 0.00924815111683884 0.0 0.0
0.0 0.24911936729449632 0.21582460097341752 -0.21422021612120315 -0.0016043848522141707 0.010031424090280459 0.0 0.0
0.0 0.22741692220324733 0.19711640638542507 -0.19546544755644824 -0.0016509588289768476 0.011013932438733418 0.0 0.0
0.0 0.20236660985381044 0.17552447360470735 -0.17386745311965401 -0.001657020485053482 0.011116965912303758 0.0 0.0
0.0 0.17580500635442547 0.15259443250972746 -0.15095840345265268 -0.0016360290570744578 0.010433750312700465 0.0 0.0
0.0 0.14913239661892677 0.12952754039848005 -0.12794097221068146 -0.0015865681877986586 0.009310708084242381 0.0 0.0
0.0 0.12336310209623177 0.10722202781083803 -0.10570867509250537 -0.0015133527183325765 0.008028946509061843 0.0 0.0
0.0 0.09916664826444803 0.08628616538906073 -0.08486132671785752 -0.0014248386712032335 0.006717352380629468 0.0 0.0
0.0 0.07730278258601893 0.06711916998140162 -0.06578808781165656 -0.0013310821697450216 0.0054252631665670376 0.0 0.0
0.0 0.057376276915754636 0.05002186551788747 -0.04878285740786568 -0.0012390081100218141 0.004159280646407852 0.0 0.0
0.0 0.040287174902324176 0.03526035505697385 -0.03411176548361808 -0.0011485895733557106 0.0029303317152609126 0.0 0.0
0.0 0.026242273655555776 0.023097718887261587 -0.02204322187377685 -0.0010544970134847445 0.0018276568280581062 0.0 0.0
0.0 0.015411162832412407 0.013709054900519558 -0.012763278989016438 -0.0009457759115031412 0.0009499306067761585 0.0 0.0
0.0 0.007783536630392888 0.007060499179858052 -0.006273119572142877 -0.0007873796077151623 0.0003282850784681938 0.0 0.0
0.0 0.0032150653914337192 0.002848936249663955 -0.0023348605715856545 -0.0005140756780782977 -4.1617692769558724e-05 0.0 0.0
0.0 0.000840236251651808 0.0007177599158768472 -0.0005357292103962282 -0.0001820307054806191 -8.061310038611357e-05 0.0 0.0
0.0 7.456400271064588e-05 6.558231133995353e-05 -4.730267099594477e-05 -1.8279640344008574e-05 -1.9733623156156917e-05 0.0 0.0
0.0 -9.975027674878959e-05 -8.077385370837448e-05 7.81047281049961e-05 2.6691256033781026e-06 0.00013626227682096869 0.0 0.0
0.0 0.004768644716908828 0.003435343961427438 -0.0022240678701209845 -0.001211276091306454 0.006114790210670222 0.0 0.0
0.0 0.01710755581233811 0.012933037324227422 -0.016532065377001175 0.0035990280527737465 0.0008473031230022481 0.0 0.0
0.0 0.01295621375935782 0.009589347037106233 -0.01258167985231377 0.002992332815207539 -0.0035758489414868862 0.0 0.0
0.0 0.003287253336671595 0.0021098780926091234 -0.0012056960625737283 -0.0009041820300353992 -0.005408170202646703 0.0 0.0
0.0 5.025750814742713e-08 1.1515863837516604e-06 -8.461983514170484e-07 -3.053880323346068e-07 3.5817587586777854e-07 0.0 0.0
0.0 5.491974737824611e-06 4.0771696416567944e-06 -2.105636423450289e-06 -1.9715332182066588e-06 8.573990795926847e-06 0.0 0.0
0.0 0.00042984146190154054 0.0003886536015511525 -0.00028259505936504246 -0.0001060585421861099 8.700188379099544e-06 0.0 0.0
0.0 0.0023560031445336704 0.0020427429955292673 -0.0016283861349188462 -0.00041435686061041876 -0.00017098831604413271 0.0 0.0
0.0 0.006167973617827406 0.005663510890091617 -0.004940815149270675 -0.0007226957408209424 -0.0008877718532646024 0.0 0.0
0.0 0.013002415499082251 0.011562909959257666 -0.010665633261551656 -0.0008972766977060079 -0.002077466355838496 0.0 0.0
0.0 0.02271010865533971 0.019973856035635593 -0.018970164550067874 -0.00100369148556769 -0.0037385824477467206 0.0 0.0
0.0 0.03538756654578231 0.030872020876379455 -0.029781912951053775 -0.0010901079253257072 -0.005774115129364263 0.0 0.0
0.0 0.05072084308478925 0.04405735187437439 -0.04288277666955052 -0.0011745752048238397 -0.007997963530615923 0.0 0.0
0.0 0.06830573603342191 0.05928461614061417 -0.058022353039566335 -0.0012622631010478316 -0.010239184677447334 0.0 0.0
0.0 0.08822889687623935 0.07632739635498104 -0.07497640157584204 -0.0013509947791388774 -0.012455657172402906 0.0 0.0
0.0 0.10952659189288619 0.09495974695362035 -0.0935251605070107 -0.0014345864466096848 -0.014685878380991977 0.0 0.0
0.0 0.1325546850340312 0.11485109229490331 -0.11334547581858044 -0.0015056164763231142 -0.01686668260725974 0.0 0.0
0.0 0.156448539231531 0.1355001840543475 -0.13394373961421738 -0.001556444440129997 -0.018756862435807074 0.0 0.0
0.0 0.18035244928507363 0.15615759719937172 -0.15457566226785396 -0.00158193493151783 -0.019916426676167245 0.0 0.0
0.0 0.2029986573936893 0.1757386861553289 -0.17416534217919882 -0.0015733439761302494 -0.019849373186831453 0.0 0.0
0.0 0.22262186155627783 0.19267420497652954 -0.1911717997449132 -0.0015024052316161478 -0.018359296334259975 0.0 0.0
0.0 0.23681589700071068 0.2048738754107649 -0.20347878063439168 -0.001395094776372819 -0.015615615533550745 0.0 0.0
0.0 0.24341307417550784 0.2097916067123622 -0.20871321534196746 -0.0010783913703947912 1.8251025690751987e-14 0.0 0.0
0.0 0.23681589700067754 0.2048738754107341 -0.20347878063436173 -0.0013950947763722269 0.015615615533596536 0.0 0.0
0.0 0.222621861556212 0.19267420497647209 -0.19117179974485599 -0.0015024052316162419 0.018359296334305775 0.0 0.0
0.0 0.20299865739359427 0.17573868615524726 -0.17416534217911517 -0.001573343976131966 0.019849373186860052 0.0 0.0
0.0 0.1803524492849585 0.15615759719927325 -0.15457566226775482 -0.0015819349315186158 0.019916426676169597 0.0 0.0
0.0 0.15644853923141172 0.13550018405424413 -0.13394373961411427 -0.001556444440129722 0.01875686243579821 0.0 0.0
0.0 0.1325546850339086 0.11485109229479745 -0.11334547581847422 -0.0015056164763232235 0.01686668260725382 0.0 0.0
0.0 0.10952659189276504 0.09495974695351556 -0.09352516050690626 -0.0014345864466093047 0.014685878380984708 0.0 0.0
0.0 0.08822889687612523 0.07632739635488239 -0.07497640157574398 -0.001350994779138414 0.012455657172391374 0.0 0.0
0.0 0.06830573603331525 0.059284616140522425 -0.05802235303947461 -0.0012622631010477399 0.01023918467743215 0.0 0.0
0.0 0.05072084308469513 0.04405735187429281 -0.04288277666946932 -0.0011745752048235238 0.007997963530598489 0.0 0.0
0.0 0.03538756654571025 0.03087202087631628 -0.02978191295099106 -0.0010901079253252128 0.005774115129351333 0.0 0.0
0.0 0.022710108655283865 0.019973856035586674 -0.01897016455001972 -0.001003691485566959 0.003738582447737721 0.0 0.0
0.0 0.013002415499043402 0.011562909959223816 -0.010665633261518431 -0.0008972766977053607 0.002077466355830627 0.0 0.0
0.0 0.006167973617803874 0.005663510890070354 -0.0049408151492506035 -0.0007226957408197529 0.0008877718532599418 0.0 0.0
0.0 0.0023560031445224545 0.0020427429955196534 -0.001628386134910652 -0.00041435686060900117 0.0001709883160423815 0.0 0.0
0.0 0.0004298414618971929 0.00038865360154781615 -0.0002825950593625231 -0.00010605854218529326 -8.700188379400713e-06 0.0 0.0
0.0 5.491974737979397e-06 4.077169641966779e-06 -2.1056364237040516e-06 -1.9715332182627125e-06 -8.57399079573281e-06 0.0 0.0
0.0 5.025750824834952e-08 1.1515863836785146e-06 -8.461983513641346e-07 -3.0538803231437995e-07 -3.5817587590363345e-07 0.0 0.0
0.0 0.0032872533366620454 0.0021098780926035636 -0.001205696062569943 -0.0009041820300336137 0.005408170202632368 0.0 0.0
0.0 0.012956213759333018 0.009589347037087893 -0.012581679852290865 0.0029923328152029506 0.00357584894146442 0.0 0.0
0.0 0.009957792197943039 0.0071898917075016505 -0.009621392897666975 0.00243150119016529 -0.003842708223368933 0.0 0.0
0.0 0.002438305023455879 0.0014721519956591008 -0.0008226574563590892 -0.0006494945393000026 -0.004176381916959144 0.0 0.0
0.0 0.0 0.0 0.0 0.0 0.0 0.0 0.0
0.0 -7.268915519490363e-06 -6.550037345668654e-06 5.203763370602333e-06 1.3462739750663192e-06 5.346307642177122e-06 0.0 0.0
0.0 0.00017929082885138946 0.0001553026810538923 -0.00010880721070234147 -4.649547035155019e-05 -2.5650107049924667e-06 0.0 0.0
0.0 0.001507814514407863 0.001358739627653665 -0.0010524621591976391 -0.0003062774684560241 -0.000283775900233441 0.0 0.0
0.0 0.004883743748894562 0.0043195782837046 -0.0036824185650870503 -0.0006371597186175476 -0.0011615097960889762 0.0 0.0
0.0 0.010650154988652983 0.009439255848357683 -0.008600612220066892 -0.000838643628290785 -0.0028152901622808305 0.0 0.0
0.0 0.019250663416961047 0.016831357792837794 -0.015883685175452168 -0.0009476726173856192 -0.005070071875764536 0.0 0.0
0.0 0.030478903880128496 0.02643273018796717 -0.025404747463797256 -0.0010279827241698944 -0.00780730662021154 0.0 0.0
0.0 0.04396758067631111 0.03802314458498951 -0.036917327678648304 -0.00110581690634116 -0.010770772965628825 0.0 0.0
0.0 0.05957270690806179 0.05136933439252413 -0.05018110217278436 -0.0011882322197397444 -0.013748228356153878 0.0 0.0
0.0 0.07677091862973862 0.06628711056763355 -0.06501466596479627 -0.0012724446028372638 -0.01668684463854881 0.0 0.0
0.0 0.09593552744946027 0.08259441396342183 -0.08124373234345011 -0.001350681619971663 -0.01960848666516261 0.0 0.0
0.0 0.11607947870546736 0.10005259612715353 -0.09863363275159827 -0.0014189633755552014 -0.022447706518028444 0.0 0.0
0.0 0.13700804761963567 0.11827723116210186 -0.11680479444513293 -0.0014724367169689425 -0.024942882100027656 0.0 0.0
0.0 0.15835480153886378 0.13665823533499427 -0.13515703727049508 -0.0015011980644991105 -0.026589665405095362 0.0 0.0
0.0 0.17867526877415416 0.15423453592796227 -0.15274386509990423 -0.0014906708280579498 -0.026783207624471315 0.0 0.0
0.0 0.19637068729431545 0.1695684535056755 -0.16813336917600447 -0.0014350843296710332 -0.024914302986652516 0.0 0.0
0.0 0.20936766121629158 0.1808695386895668 -0.17950319127936404 -0.0013663474102031047 -0.02002906406550847 0.0 0.0
0.0 0.21598310061276493 0.18572025226122268 -0.18479456896520802 -0.0009256832960145978 2.4920170094144822e-14 0.0 0.0
0.0 0.2093676612162585 0.18086953868953598 -0.17950319127933245 -0.0013663474102036553 0.02002906406556699 0.0 0.0
0.0 0.19637068729426044 0.1695684535056255 -0.16813336917595528 -0.0014350843296700537 0.024914302986711552 0.0 0.0
0.0 0.17867526877406972 0.1542345359278892 -0.15274386509982993 -0.0014906708280591511 0.026783207624504875 0.0 0.0
0.0 0.15835480153876522 0.13665823533490953 -0.1351570372704105 -0.0015011980644989858 0.02658966540509779 0.0 0.0
0.0 0.13700804761953309 0.11827723116201354 -0.11680479444504437 -0.0014724367169690375 0.024942882100016675 0.0 0.0
0.0 0.1160794787053603 0.10005259612706074 -0.09863363275150565 -0.0014189633755551652 0.02244770651801855 0.0 0.0
0.0 0.0959355274493548 0.08259441396332999 -0.08124373234335894 -0.0013506816199710969 0.019608486665153572 0.0 0.0
0.0 0.07677091862963947 0.06628711056754852 -0.06501466596471166 -0.0012724446028368258 0.01668684463853414 0.0 0.0
0.0 0.059572706907968065 0.051369334392443074 -0.05018110217270388 -0.0011882322197392698 0.01374822835613251 0.0 0.0
0.0 0.04396758067622782 0.03802314458491781 -0.03691732767857719 -0.0011058169063405923 0.010770772965605947 0.0 0.0
0.0 0.030478903880060738 0.026432730187908725 -0.025404747463739105 -0.0010279827241696034 0.007807306620192158 0.0 0.0
0.0 0.01925066341690933 0.01683135779279322 -0.01588368517540789 -0.0009476726173853129 0.0050700718757511285 0.0 0.0
0.0 0.010650154988619712 0.009439255848328186 -0.008600612220038049 -0.0008386436282901238 0.0028152901622707695 0.0 0.0
0.0 0.0048837437488725745 0.004319578283686081 -0.003682418565069937 -0.0006371597186161414 0.0011615097960822717 0.0 0.0
0.0 0.0015078145143984486 0.0013587396276459236 -0.0010524621591913167 -0.0003062774684546056 0.00028377590023126085 0.0 0.0
0.0 0.0001792908288493391 0.0001553026810526487 -0.00010880721070147393 -4.649547035117437e-05 2.5650107049169605e-06 0.0 0.0
0.0 -7.268915519653718e-06 -6.550037345560913e-06 5.203763370516451e-06 1.3462739750444915e-06 -5.346307642100982e-06 0.0 0.0
0.0 0.0 0.0 0.0 0.0 0.0 0.0 0.0
0.0 0.0024383050234474788 0.0014721519956541911 -0.0008226574563557512 -0.0006494945392984428 0.00417638191694658 0.0 0.0
0.0 0.009957792197921814 0.0071898917074852044 -0.009621392897646287 0.0024315011901610687 0.003842708223352813 0.0 0.0
0.0 0.0074290493452977245 0.005331800025906288 -0.007261720370355122 0.0019299203444488474 -0.0032975490721846054 0.0 0.0
0.0 0.001954806707354835 0.000997466619443365 -0.0005475313010023631 -0.0004499353184410025 -0.003081196431617918 0.0 0.0
0.0 0.0 0.0 0.0 0.0 0.0 0.0 0.0
0.0 -6.662443563293932e-07 -7.063880278343299e-07 5.64776137798061e-07 1.41611890036272e-07 1.0083960315969548e-06 0.0 0.0
0.0 1.5446866032080576e-05 2.8436765207338496e-05 -1.671122412234311e-05 -1.17255410849954e-05 1.3729426227328612e-05 0.0 0.0
0.0 0.0009191237919531041 0.000795590479177571 -0.0005997991257941598 -0.00019579135338341146 -0.0002849802502380901 0.0 0.0
0.0 0.003645640617177554 0.0030915374905170797 -0.0025649214790764404 -0.0005266160114406334 -0.0012371229916481451 0.0 0.0
0.0 0.008395052928497583 0.0073704507570938604 -0.006603724904584667 -0.0007667258525092018 -0.0031236037366596746 0.0 0.0
0.0 0.015838413740188323 0.013710948884377218 -0.012826128151584404 -0.0008848207327928271 -0.005813519098208289 0.0 0.0
0.0 0.025568006336214727 0.021987350387012536 -0.021026763672380072 -0.0009605867146324535 -0.009027104446828135 0.0 0.0
0.0 0.037296042522887415 0.031964601828360605 -0.030932559872243394 -0.0010320419561171957 -0.012486832584335897 0.0 0.0
0.0 0.050744864947749976 0.043419616298805495 -0.042311092522255685 -0.0011085237765498003 -0.015958292817471288 0.0 0.0
0.0 0.06578677291674775 0.05619968202947277 -0.05501243725551897 -0.0011872447739537985 -0.019388958880348247 0.0 0.0
0.0 0.08188529184774565 0.07018355428457805 -0.06892185267030812 -0.0012617016142699453 -0.02279344748177769 0.0 0.0
0.0 0.09946480636988485 0.08519334162666274 -0.08386650778609986 -0.0013268338405628302 -0.02607536176367103 0.0 0.0
0.0 0.11786714787619257 0.10095717113962052 -0.09957746936182832 -0.0013797017777921982 -0.02897728054229229 0.0 0.0
0.0 0.13632363527032298 0.11702119632892671 -0.11560802191762781 -0.0014131744112989202 -0.031058523311127163 0.0 0.0
0.0 0.15429936218159282 0.13260202678826172 -0.1311881462192311 -0.00141388056903039 -0.031634274246884087 0.0 0.0
0.0 0.17027605140689586 0.1464972301162442 -0.14512080989605783 -0.0013764202201860501 -0.029573615414498728 0.0 0.0
0.0 0.18246253750625804 0.15718706701775195 -0.15586207309581662 -0.0013249939219353165 -0.02330588507408977 0.0 0.0
0.0 0.18934722622522554 0.1621419273664329 -0.1614084194402015 -0.0007335079262313533 3.033424206266844e-14 0.0 0.0
0.0 0.18246253750622426 0.157187067017721 -0.15586207309578232 -0.0013249939219386476 0.02330588507415752 0.0 0.0
0.0 0.17027605140684846 0.14649723011619925 -0.1451208098960141 -0.0013764202201849598 0.02957361541456549 0.0 0.0
0.0 0.15429936218152263 0.1326020267881995 -0.1311881462191692 -0.0014138805690303848 0.03163427424692272 0.0 0.0
0.0 0.1363236352702413 0.11702119632885648 -0.11560802191755801 -0.0014131744112984854 0.031058523311133478 0.0 0.0
0.0 0.11786714787610102 0.10095717113954168 -0.09957746936174884 -0.001379701777792792 0.02897728054227902 0.0 0.0
0.0 0.09946480636979407 0.08519334162658412 -0.08386650778602184 -0.0013268338405623414 0.026075361763658537 0.0 0.0
0.0 0.08188529184765259 0.07018355428449762 -0.0689218526702279 -0.0012617016142696 0.022793447481764973 0.0 0.0
0.0 0.06578677291666282 0.05619968202939985 -0.055012437255445926 -0.001187244773953831 0.019388958880331247 0.0 0.0
0.0 0.05074486494767045 0.04341961629873718 -0.04231109252218804 -0.001108523776549099 0.015958292817447546 0.0 0.0
0.0 0.037296042522818255 0.031964601828301895 -0.030932559872185465 -0.0010320419561164354 0.012486832584308693 0.0 0.0
0.0 0.02556800633615561 0.021987350386962312 -0.021026763672329904 -0.0009605867146323916 0.009027104446804846 0.0 0.0
0.0 0.015838413740146638 0.013710948884341458 -0.01282612815154906 -0.0008848207327924032 0.005813519098192921 0.0 0.0
0.0 0.0083950529284678 0.007370450757068178 -0.006603724904559896 -0.0007667258525082858 0.0031236037366476747 0.0 0.0
0.0 0.003645640617161065 0.0030915374905036764 -0.0025649214790644543 -0.0005266160114392188 0.001237122991642069 0.0 0.0
0.0 0.0009191237919463582 0.0007955904791724338 -0.000599799125790079 -0.00019579135338235534 0.0002849802502356034 0.0 0.0
0.0 1.544686603131803e-05 2.8436765207074286e-05 -1.6711224122181574e-05 -1.1725541084892839e-05 -1.3729426227022998e-05 0.0 0.0
0.0 -6.662443564233703e-07 -7.06388027862346e-07 5.647761378190113e-07 1.4161189004331733e-07 -1.008396031644234e-06 0.0 0.0
0.0 0.0 0.0 0.0 0.0 0.0 0.0 0.0
0.0 0.0019548067073472896 0.0009974666194396027 -0.0005475313009998458 -0.00044993531843975595 0.0030811964316078064 0.0 0.0
0.0 0.007429049345280208 0.005331800025892523 -0.0072617203703376175 0.001929920344445087 0.0032975490721733674 0.0 0.0
0.0 0.005500325753053946 0.003831739761136734 -0.005308238129776265 0.0014764983686395231 -0.002593644970740441 0.0 0.0
0.0 0.0012588130329157603 0.0006463096483803385 -0.0003483303793515978 -0.0002979792690287386 -0.002176011554432925 0.0 0.0
0.0 0.0 0.0 0.0 0.0 0.0 0.0 0.0
0.0 -3.2482280421995537e-07 1.119410133038341e-07 -8.437668942399204e-08 -2.7564323879841963e-08 -1.7458072869972686e-07 0.0 0.0
0.0 -2.617889620897716e-05 -1.7854388637799787e-05 1.550016140782517e-05 2.354227229974612e-06 3.386251177730463e-05 0.0 0.0
0.0 0.0004312811695018716 0.00039314400409815265 -0.00028860866537483394 -0.00010453533872331929 -0.00022115962435305774 0.0 0.0
0.0 0.0023150305894253554 0.0020386164015223254 -0.0016419162491740026 -0.0003967001523483229 -0.0011773829009161564 0.0 0.0
0.0 0.006541582513527722 0.005400763252837426 -0.004731851021050842 -0.0006689122317865767 -0.0030601157948546617 0.0 0.0
0.0 0.012374525350202552 0.010652685861608037 -0.009842656081836973 -0.0008100297797710707 -0.005946642533578097 0.0 0.0
0.0 0.020745775553031948 0.017579778137497965 -0.01669379757751374 -0.0008859805599842266 -0.009427014280415818 0.0 0.0
0.0 0.03063661673737099 0.025928891892995364 -0.024977355280875566 -0.0009515366121197981 -0.013143652579888454 0.0 0.0
0.0 0.041917570147675096 0.035483918569405276 -0.034461866690129586 -0.0010220518792756247 -0.016870448788331587 0.0 0.0
0.0 0.05444689637766033 0.04612196217743932 -0.04502660694392639 -0.001095355233512947 -0.020552983490495065 0.0 0.0
0.0 0.06821363445779807 0.057768782621532046 -0.05660436488737211 -0.0011644177341599148 -0.02420691351760337 0.0 0.0
0.0 0.08286165932072907 0.0703235709297014 -0.06909738490165544 -0.0012261860280460286 -0.027732773755331477 0.0 0.0
0.0 0.09820644530878443 0.08359878640915094 -0.0823203965315774 -0.0012783898775734187 -0.030867065327499076 0.0 0.0
0.0 0.11438008966192782 0.09727667344390495 -0.09595939332629115 -0.001317280117613708 -0.033241602419697334 0.0 0.0
0.0 0.12994087491087908 0.11083035998211649 -0.10949502362505725 -0.001335336357059301 -0.03421145388469529 0.0 0.0
0.0 0.1441199182456097 0.12337148570239967 -0.12205300496790264 -0.0013184807344970152 -0.03237050711993066 0.0 0.0
0.0 0.155765579678242 0.13363014900767572 -0.132353905812468 -0.0012762431952076615 -0.025621875283484884 0.0 0.0
0.0 0.16315681424555686 0.13881672991947666 -0.13830771196404634 -0.0005090179554302523 3.0906700809740784e-14 0.0 0.0
0.0 0.1557655796782192 0.13363014900765202 -0.13235390581244252 -0.0012762431952093776 0.025621875283556483 0.0 0.0
0.0 0.14411991824557005 0.12337148570236106 -0.12205300496786411 -0.001318480734496996 0.03237050711999985 0.0 0.0
0.0 0.12994087491082515 0.11083035998206725 -0.10949502362500858 -0.0013353363570585003 0.03421145388473828 0.0 0.0
0.0 0.11438008966185831 0.09727667344384534 -0.09595939332623182 -0.0013172801176134965 0.03324160241970316 0.0 0.0
0.0 0.09820644530870479 0.08359878640908294 -0.08232039653150845 -0.0012783898775746057 0.030867065327484875 0.0 0.0
0.0 0.08286165932064951 0.07032357092963269 -0.069097384901587 -0.0012261860280456715 0.027732773755316742 0.0 0.0
0.0 0.06821363445772108 0.05776878262146535 -0.056604364887305754 -0.001164417734159606 0.024206913517588406 0.0 0.0
0.0 0.054446896377588115 0.04612196217737788 -0.04502660694386522 -0.0010953552335126653 0.020552983490477295 0.0 0.0
0.0 0.041917570147609134 0.03548391856934947 -0.03446186669007428 -0.0010220518792751789 0.016870448788306916 0.0 0.0
0.0 0.03063661673731053 0.02592889189294531 -0.02497735528082581 -0.0009515366121195086 0.013143652579859236 0.0 0.0
0.0 0.02074577555298339 0.017579778137456925 -0.01669379757747336 -0.0008859805599835612 0.009427014280390746 0.0 0.0
0.0 0.01237452535016851 0.010652685861578824 -0.009842656081808373 -0.000810029779770468 0.005946642533561318 0.0 0.0
0.0 0.00654158251350208 0.005400763252816753 -0.004731851021031139 -0.0006689122317856149 0.0030601157948423547 0.0 0.0
0.0 0.002315030589413044 0.0020386164015123143 -0.0016419162491655341 -0.00039670015234678 0.0011773829009102885 0.0 0.0
0.0 0.00043128116949803577 0.0003931440040954817 -0.0002886086653728278 -0.00010453533872265374 0.00022115962435123867 0.0 0.0
0.0 -2.617889620923981e-05 -1.7854388637238777e-05 1.550016140737249e-05 2.354227229866276e-06 -3.386251177650971e-05 0.0 0.0
0.0 -3.248228041215421e-07 1.1194101325944624e-07 -8.437668938858992e-08 -2.756432387085307e-08 1.7458072861954712e-07 0.0 0.0
0.0 0.0 0.0 0.0 0.0 0.0 0.0 0.0
0.0 0.0012588130329091842 0.0006463096483771914 -0.00034833037934947316 -0.00029797926902771696 0.0021760115544240868 0.0 0.0
0.0 0.005500325753039725 0.003831739761125517 -0.00530823812976158 0.0014764983686360597 0.0025936449707327234 0.0 0.0
0.0 0.0037627891071189143 0.0026284049205781467 -0.0036985984956241997 0.0010701935750460486 -0.001949231362885482 0.0 0.0
0.0 0.0008195223985152668 0.00037612580897812835 -0.00019063691461192856 -0.0001854888943661996 -0.0014234198003104921 0.0 0.0
0.0 1.5734592941222573e-07 7.148379167026532e-10 -7.331624633568543e-11 -6.415216703671971e-10 3.250372699491736e-08 0.0 0.0
0.0 1.5712585741700463e-07 6.304622250958064e-09 -5.866682075806125e-09 -4.379401751547683e-10 3.806782874179354e-08 0.0 0.0
0.0 -2.3037194411349944e-05 -1.48887152113399e-05 1.1978631945025163e-05 2.9100832663147917e-06 3.0929173376228116e-05 0.0 0.0
0.0 0.00015101181751220484 0.00013034019740997257 -9.215467763446285e-05 -3.8185519775509744e-05 -0.00010588700868830233 0.0 0.0
0.0 0.0014104729370813503 0.0011640619947829115 -0.0009106608306068145 -0.0002534011641760968 -0.0009627522308051967 0.0 0.0
0.0 0.004327144480224504 0.0036312255583670155 -0.0030930215636611126 -0.0005382039947058982 -0.0027490803016125024 0.0 0.0
0.0 0.009586063232916072 0.007703513413530285 -0.006990127172953967 -0.0007133862405763183 -0.005499550564410496 0.0 0.0
0.0 0.01586486277110446 0.013260291908671168 -0.012461505585447426 -0.0007987863232237487 -0.008987615041309424 0.0 0.0
0.0 0.02405067582169566 0.019965587951476526 -0.019103927343466054 -0.0008616606080104759 -0.012727464771714258 0.0 0.0
0.0 0.033193620070589284 0.027612543643241103 -0.02668639138071026 -0.0009261522625308679 -0.016475454478519034 0.0 0.0
0.0 0.04328033987158559 0.03610411478963334 -0.03511094168798743 -0.0009931731016458397 -0.020167736210376076 0.0 0.0
0.0 0.054313414592494474 0.04541229612763912 -0.04435485093070563 -0.0010574451969335484 -0.02383231889207518 0.0 0.0
0.0 0.0661763153773761 0.05549771318661585 -0.05438287269482043 -0.0011148404917953388 -0.02738498791127253 0.0 0.0
0.0 0.07904865002172717 0.06625047544403993 -0.06508710170699553 -0.0011633737370444625 -0.030575040044904342 0.0 0.0
0.0 0.0917949481597427 0.07748529699653188 -0.07627643294980191 -0.001208864046730003 -0.03306400926075326 0.0 0.0
0.0 0.10523215246753362 0.08892259683005095 -0.08767385800455103 -0.0012487388254997958 -0.034383063435570044 0.0 0.0
0.0 0.11814566220130779 0.10007610914791318 -0.09881922944892588 -0.001256879698987461 -0.033186603726530574 0.0 0.0
0.0 0.12921559805269536 0.1099921240547222 -0.1087691911450167 -0.0012229329097055337 -0.02695690964557083 0.0 0.0
0.0 0.13740107177265048 0.11551965885129294 -0.11526744396288761 -0.0002522148884053448 3.0167708608974664e-14 0.0 0.0
0.0 0.12921559805268332 0.10999212405470594 -0.10876919114500011 -0.001222932909705889 0.026956909645643425 0.0 0.0
0.0 0.11814566220127773 0.10007610914788206 -0.098819229448895 -0.0012568796989871002 0.033186603726600955 0.0 0.0
0.0 0.10523215246749346 0.08892259683001308 -0.08767385800451354 -0.001248738825499584 0.03438306343561373 0.0 0.0
0.0 0.09179494815968076 0.077485296996479 -0.07627643294974912 -0.0012088640467298457 0.03306400926075654 0.0 0.0
0.0 0.07904865002166932 0.06625047544399079 -0.06508710170694591 -0.0011633737370449625 0.03057504004489178 0.0 0.0
0.0 0.06617631537731083 0.05549771318655942 -0.05438287269476428 -0.0011148404917950751 0.02738498791125566 0.0 0.0
0.0 0.054313414592433745 0.04541229612758689 -0.044354850930653986 -0.001057445196932884 0.023832318892059976 0.0 0.0
0.0 0.043280339871530474 0.03610411478958659 -0.0351109416879413 -0.000993173101645297 0.02016773621036002 0.0 0.0
0.0 0.03319362007053725 0.027612543643197936 -0.026686391380667612 -0.0009261522625303474 0.016475454478495646 0.0 0.0
0.0 0.024050675821644454 0.019965587951435194 -0.01910392734342497 -0.0008616606080102261 0.012727464771684125 0.0 0.0
0.0 0.015864862771063647 0.013260291908637789 -0.012461505585414414 -0.000798786323223375 0.00898761504128342 0.0 0.0
0.0 0.009586063232886141 0.007703513413506722 -0.006990127172931141 -0.0007133862405755845 0.0054995505643944 0.0 0.0
0.0 0.004327144480203767 0.0036312255583504263 -0.0030930215636456324 -0.0005382039947047865 0.0027490803015999725 0.0 0.0
0.0 0.0014104729370714784 0.0011640619947756907 -0.0009106608306009348 -0.0002534011641747559 0.000962752230798868 0.0 0.0
0.0 0.00015101181750924963 0.0001303401974082191 -9.21546776332035e-05 -3.818551977501559e-05 0.00010588700868663896 0.0 0.0
0.0 -2.3037194411486357e-05 -1.4888715210971058e-05 1.1978631944736076e-05 2.9100832662349847e-06 -3.092917337559306e-05 0.0 0.0
0.0 1.5712585721141057e-07 6.304622253475461e-09 -5.866682076920911e-09 -4.379401765531699e-10 -3.806782869747957e-08 0.0 0.0
0.0 1.5734592914948445e-07 7.148379181953433e-10 -7.331624793983198e-11 -6.415216702555217e-10 -3.250372694055046e-08 0.0 0.0
0.0 0.0008195223985103404 0.00037612580897602895 -0.00019063691461053048 -0.00018548889436549817 0.0014234198003040658 0.0 0.0
0.0 0.003762789107108036 0.0026284049205696413 -0.003698598495612795 0.0010701935750431523 0.001949231362879861 0.0 0.0
0.0 0.0028411582097030803 0.0016429598268993032 -0.0023465299939472582 0.0007035701670479545 -0.0013576954737685868 0.0 0.0
0.0 0.000382572300131186 0.00018570757092673497 -8.189636490571894e-05 -0.00010381120602101614 -0.0008316050336829366 0.0 0.0
0.0 1.3129491048378011e-06 9.500448527278837e-08 -9.769689567104361e-08 2.6924103982556307e-09 -1.9089004429612746e-06 0.0 0.0
0.0 -7.314341921425315e-07 -1.7860003774710548e-09 5.198156881133946e-10 1.266184689357494e-09 -2.5262503821782713e-07 0.0 0.0
0.0 -1.1823114620434809e-05 -7.051964717323905e-06 5.651508173375977e-06 1.4004565439479281e-06 2.2782592064095145e-05 0.0 0.0
0.0 1.70402740463399e-05 1.4107712899287833e-05 -7.693999133566849e-06 -6.4137137657209936e-06 -1.47710087757319e-05 0.0 0.0
0.0 0.000689437858921986 0.0005201808802273583 -0.0003973747024632976 -0.0001228061777640605 -0.0006548651070773339 0.0 0.0
0.0 0.0026188525446540637 0.002092590673797458 -0.0017258849249002098 -0.00036670574889724846 -0.002193040606543473 0.0 0.0
0.0 0.006259469277973855 0.004984760655637274 -0.004407401012937139 -0.0005773596427001356 -0.004608759453603622 0.0 0.0
0.0 0.011608623131736452 0.00908932978240556 -0.008402652834602797 -0.0006866769478027572 -0.007736546772322772 0.0 0.0
0.0 0.01757287456242293 0.014130224077247419 -0.013377052245068268 -0.0007531718321791432 -0.011224728243091817 0.0 0.0
0.0 0.02449917939712925 0.01986583483888188 -0.019051514703540908 -0.0008143201353409853 -0.014744336977369269 0.0 0.0
0.0 0.03220650177635691 0.026211295486765297 -0.025336101002329293 -0.000875194484435996 -0.018210341293202474 0.0 0.0
0.0 0.040573795430454085 0.0331737977820138 -0.032240890395441306 -0.0009329073865724397 -0.021643122156172524 0.0 0.0
0.0 0.04975611011067395 0.04077555310187262 -0.039789237196690495 -0.0009863159051821337 -0.025002057726113667 0.0 0.0
0.0 0.05947944642206067 0.04899007084390883 -0.04795765294911394 -0.00103241789479486 -0.02807019971005474 0.0 0.0
0.0 0.06992033356384646 0.05771550323201827 -0.05663851060231992 -0.0010769926296983535 -0.030494136335081846 0.0 0.0
0.0 0.08052721675641929 0.06689950691884522 -0.06576205395872259 -0.0011374529601224966 -0.031972583735924556 0.0 0.0
0.0 0.09138272565079057 0.07650925910356908 -0.07532361668265394 -0.0011856424209150853 -0.03172591066326597 0.0 0.0
0.0 0.10222181415922828 0.08605216783921026 -0.08488286500145364 -0.001169302837756584 -0.027124781773542953 0.0 0.0
0.0 0.11160355102513797 0.09201352289834777 -0.09205447977498453 4.0956876636714614e-05 2.6506574712925612e-14 0.0 0.0
0.0 0.10222181415922135 0.08605216783919721 -0.08488286500144035 -0.0011693028377568065 0.027124781773609212 0.0 0.0
0.0 0.09138272565077005 0.07650925910354447 -0.07532361668263036 -0.0011856424209140915 0.031725910663333134 0.0 0.0
0.0 0.08052721675639013 0.06689950691881666 -0.06576205395869411 -0.001137452960122463 0.03197258373596737 0.0 0.0
0.0 0.06992033356379641 0.0577155032319762 -0.05663851060227906 -0.0010769926296971344 0.03049413633508004 0.0 0.0
0.0 0.059479446422015685 0.04899007084387055 -0.04795765294907651 -0.0010324178947941098 0.028070199710041235 0.0 0.0
0.0 0.04975611011062704 0.04077555310183278 -0.03978923719665122 -0.0009863159051815217 0.025002057726097968 0.0 0.0
0.0 0.04057379543041376 0.03317379778197914 -0.032240890395407326 -0.0009329073865718291 0.02164312215616163 0.0 0.0
0.0 0.03220650177631383 0.02621129548672993 -0.02533610100229402 -0.0008751944844358885 0.018210341293186504 0.0 0.0
0.0 0.024499179397088625 0.01986583483884864 -0.019051514703508146 -0.0008143201353404856 0.014744336977346966 0.0 0.0
0.0 0.017572874562386962 0.014130224077219542 -0.013377052245040936 -0.0007531718321785852 0.011224728243066117 0.0 0.0
0.0 0.011608623131705105 0.009089329782381434 -0.008402652834578798 -0.0006866769478026359 0.007736546772299862 0.0 0.0
0.0 0.006259469277952454 0.004984760655620499 -0.004407401012921333 -0.000577359642699172 0.004608759453589854 0.0 0.0
0.0 0.00261885254464004 0.002092590673786998 -0.0017258849248906179 -0.00036670574889638153 0.0021930406065325753 0.0 0.0
0.0 0.0006894378589161857 0.0005201808802232981 -0.000397374702460087 -0.0001228061777632105 0.0006548651070722105 0.0 0.0
0.0 1.7040274044818962e-05 1.4107712898914915e-05 -7.693999133286e-06 -6.413713765628896e-06 1.4771008775318667e-05 0.0 0.0
0.0 -1.1823114621390938e-05 -7.051964717101509e-06 5.6515081732071e-06 1.4004565438943857e-06 -2.27825920633021e-05 0.0 0.0
0.0 -7.314341921852889e-07 -1.786000303858683e-09 5.198156404296049e-10 1.2661846634285902e-09 2.526250393006924e-07 0.0 0.0
0.0 1.3129491045622583e-06 9.50044852715856e-08 -9.769689567819143e-08 2.692410406606242e-09 1.9089004431896465e-06 0.0 0.0
0.0 0.0003825723001279101 0.0001857075709254402 -8.189636490492995e-05 -0.00010381120602051053 0.0008316050336781305 0.0 0.0
0.0 0.0028411582096924764 0.0016429598268926148 -0.0023465299939380265 0.0007035701670454125 0.0013576954737640626 0.0 0.0
0.0 0.0015266936865432753 0.0009306140117663483 -0.0013488477612758748 0.0004182337495095267 -0.0009228900145713485 0.0 0.0
0.0 0.00015629509487775627 5.824454626344916e-05 -5.531303134569287e-06 -5.271324312887947e-05 -0.0003787094158086668 0.0 0.0
0.0 3.5110885413773646e-06 3.6979495626798517e-08 -4.256114425635649e-08 5.581648629559035e-09 -6.520293558820237e-07 0.0 0.0
0.0 1.1461037388820778e-06 -1.9933666754124706e-07 1.5533769705419904e-07 4.399897048704787e-08 9.734816443867463e-07 0.0 0.0
0.0 -7.971043137826831e-06 -3.3710412883286118e-06 2.707981788575193e-06 6.630594997534209e-07 1.5612140850059445e-05 0.0 0.0
0.0 -1.5082121714813872e-05 -7.251378897231455e-06 6.756197839701486e-06 4.951810575299944e-07 8.650315748023319e-06 0.0 0.0
0.0 0.00026450475757432287 0.00013747062846502562 -0.00010405918008942544 -3.341144837560065e-05 -0.00032930245292381045 0.0 0.0
0.0 0.0013467082346444084 0.0008691051595549837 -0.0006999612860148165 -0.00016914387354016706 -0.0014343413716910586 0.0 0.0
0.0 0.00354194313438847 0.002566815974008102 -0.002198356104276972 -0.000368459869731129 -0.0033379647526770883 0.0 0.0
0.0 0.007026672116384606 0.005198532695528747 -0.004684470452788701 -0.0005140622427400511 -0.005814532109337295 0.0 0.0
0.0 0.011147808073159012 0.008523562581922856 -0.00792261067285538 -0.0006009519090674681 -0.008692555448312834 0.0 0.0
0.0 0.016003965020602588 0.01232531455749101 -0.011661330069301451 -0.0006639844881895573 -0.011681390211963875 0.0 0.0
0.0 0.021285323951434884 0.016525364972828596 -0.015803924548261714 -0.0007214404245668797 -0.014688584489968744 0.0 0.0
0.0 0.027035710774216883 0.021143537045679024 -0.020371049632077923 -0.0007724874136011107 -0.017675244645234706 0.0 0.0
0.0 0.03338550526209201 0.026244856381061235 -0.025423940347359043 -0.0008209160337021909 -0.02061198453524369 0.0 0.0
0.0 0.040372952095854245 0.03189129250639722 -0.03102403220292648 -0.0008672603034706858 -0.0233946511239038 0.0 0.0
0.0 0.047890891638320436 0.03808678093959851 -0.0371751446592648 -0.0009116362803337178 -0.025702716004782824 0.0 0.0
0.0 0.05574604418519494 0.04487347830440055 -0.04389989388056797 -0.000973584423832667 -0.027139837990348588 0.0 0.0
0.0 0.06463347863783939 0.05260681378845268 -0.05153653534078932 -0.0010702784476633077 -0.02756785848162174 0.0 0.0
0.0 0.07503401098744913 0.061548585477502415 -0.06043537737467192 -0.0011132081028305224 -0.025614414209633094 0.0 0.0
0.0 0.08586790427625349 0.06801708060885402 -0.06839073170390528 0.00037365109505114075 2.4053675717894407e-14 0.0 0.0
0.0 0.07503401098744242 0.06154858547748867 -0.06043537737465706 -0.0011132081028315589 0.02561441420968929 0.0 0.0
0.0 0.06463347863782737 0.052606813788436076 -0.05153653534077208 -0.0010702784476639738 0.027567858481684047 0.0 0.0
0.0 0.05574604418516463 0.04487347830437284 -0.04389989388053972 -0.0009735844238331023 0.02713983799037919 0.0 0.0
0.0 0.04789089163828946 0.03808678093957481 -0.03717514465924148 -0.0009116362803333572 0.025702716004778307 0.0 0.0
0.0 0.04037295209581686 0.03189129250636699 -0.031024032202896144 -0.0008672603034708271 0.023394651123886036 0.0 0.0
0.0 0.03338550526205856 0.02624485638103403 -0.02542394034733165 -0.0008209160337023991 0.02061198453522909 0.0 0.0
0.0 0.02703571077418989 0.021143537045656215 -0.020371049632055747 -0.000772487413600493 0.01767524464522635 0.0 0.0
0.0 0.021285323951406077 0.016525364972805642 -0.015803924548239145 -0.0007214404245664862 0.014688584489955666 0.0 0.0
0.0 0.016003965020574253 0.01232531455747008 -0.011661330069280499 -0.0006639844881895761 0.011681390211944599 0.0 0.0
0.0 0.011147808073136591 0.008523562581906244 -0.007922610672839323 -0.0006009519090669143 0.008692555448293714 0.0 0.0
0.0 0.007026672116364083 0.005198532695514372 -0.004684470452774673 -0.0005140622427397077 0.005814532109319069 0.0 0.0
0.0 0.0035419431343752398 0.0025668159739984067 -0.002198356104268105 -0.00036845986973029924 0.003337964752666861 0.0 0.0
0.0 0.001346708234638647 0.0008691051595513529 -0.00069996128601172 -0.00016914387353963298 0.0014343413716857863 0.0 0.0
0.0 0.0002645047575701446 0.0001374706284635868 -0.00010405918008833628 -3.341144837525021e-05 0.0003293024529204204 0.0 0.0
0.0 -1.5082121715224419e-05 -7.251378896975393e-06 6.756197839502177e-06 4.951810574731595e-07 -8.650315747212291e-06 0.0 0.0
0.0 -7.97104313869945e-06 -3.371041288125397e-06 2.7079817884242904e-06 6.63059499701117e-07 -1.561214084856151e-05 0.0 0.0
0.0 1.1461037386500217e-06 -1.9933666758513424e-07 1.5533769708960756e-07 4.3998970495527456e-08 -9.73481644517092e-07 0.0 0.0
0.0 3.5110885406307957e-06 3.697949566461133e-08 -4.256114429578618e-08 5.581648631175594e-09 6.520293571091863e-07 0.0 0.0
0.0 0.0001562950948748475 5.824454626271897e-05 -5.531303134167231e-06 -5.271324312855119e-05 0.00037870941580566217 0.0 0.0
0.0 0.0015266936865358709 0.0009306140117619948 -0.0013488477612696474 0.0004182337495076512 0.0009228900145681955 0.0 0.0
0.0 0.0007655819445582888 0.0004210820515118062 -0.000616935274816342 0.0001958532233045365 -0.0005138165547799817 0.0 0.0
0.0 9.065479767179405e-06 -6.26445204845717e-06 2.8966040601971187e-05 -2.2701588553514137e-05 -8.254077747904296e-05 0.0 0.0
0.0 3.962979984143221e-06 8.563451998258968e-08 -1.810104336296123e-07 9.537591364702301e-08 -5.212420923275315e-06 0.0 0.0
0.0 2.5980140329534567e-06 -2.0559435336024382e-07 1.8738889278021125e-07 1.8205460580030614e-08 -3.956210040329604e-06 0.0 0.0
0.0 -3.6208999992398594e-06 -1.47807031365668e-06 1.2603054605995155e-06 2.1776485305717156e-07 9.564180864775793e-06 0.0 0.0
0.0 5.602705762743222e-07 -3.971710968793161e-06 3.571576495317874e-06 4.0013447347526706e-07 1.63127391509616e-06 0.0 0.0
0.0 0.00010661518078900416 1.363024519748193e-05 -1.0147157215019016e-05 -3.483087982462885e-06 -0.00016045198628954793 0.0 0.0
0.0 0.0004460328950715476 0.00013731811422216093 -0.00011584595712905125 -2.147215709310975e-05 -0.0006749350959810072 0.0 0.0
0.0 0.0013377386950558176 0.0006298446868286311 -0.0005559616080237847 -7.388307880484535e-05 -0.0018109035129271348 0.0 0.0
0.0 0.003020587492597211 0.001736540527340351 -0.0015687765375200211 -0.0001677639898203302 -0.0035148295486323216 0.0 0.0
0.0 0.005443272316149161 0.003316721409004778 -0.003051173986110075 -0.00026554742289469814 -0.005532654739098761 0.0 0.0
0.0 0.007995131964907568 0.005169875644158269 -0.004824319196830774 -0.00034555644732750176 -0.00778919017332212 0.0 0.0
0.0 0.010968410099099275 0.007222557502663174 -0.006812401361952353 -0.0004101561407108227 -0.010177193607384583 0.0 0.0
0.0 0.014274919258188426 0.00950405349416998 -0.009039590146991017 -0.00046446334717895906 -0.012641216810222613 0.0 0.0
0.0 0.017936358845774315 0.012096523377738751 -0.011579365411297109 -0.0005171579664416503 -0.015163897383828605 0.0 0.0
0.0 0.022098287258349992 0.01513098024106701 -0.014557483609190658 -0.0005734966318763589 -0.017697639348349774 0.0 0.0
0.0 0.026916598882587503 0.018763026726618857 -0.018128943608569197 -0.0006340831180496632 -0.020019124702480885 0.0 0.0
0.0 0.03241077091452965 0.023125179802709804 -0.022429910939219866 -0.000695268863489924 -0.021567589482722336 0.0 0.0
0.0 0.03874246015337618 0.028597782963128048 -0.027798070915556302 -0.0007997120475717432 -0.021932699330874123 0.0 0.0
0.0 0.04734855364657496 0.036285391647070654 -0.03530296904088173 -0.000982422606188874 -0.02186640081056103 0.0 0.0
0.0 0.061359446939653284 0.04318702703035576 -0.0439465558224245 0.0007595287920687652 2.07707115396083e-14 0.0 0.0
0.0 0.0473485536465821 0.03628539164706765 -0.03530296904087807 -0.0009824226061896381 0.02186640081060854 0.0 0.0
0.0 0.038742460153376033 0.02859778296312198 -0.027798070915550394 -0.0007997120475715685 0.02193269933092471 0.0 0.0
0.0 0.032410770914503555 0.023125179802689914 -0.022429910939199296 -0.0006952688634906124 0.02156758948273654 0.0 0.0
0.0 0.026916598882573122 0.0187630267266116 -0.018128943608562473 -0.0006340831180491545 0.02001912470247691 0.0 0.0
0.0 0.022098287258330383 0.015130980241053913 -0.014557483609177349 -0.0005734966318765597 0.017697639348333176 0.0 0.0
0.0 0.017936358845756062 0.01209652337772525 -0.011579365411283429 -0.0005171579664418229 0.015163897383817442 0.0 0.0
0.0 0.014274919258174699 0.00950405349416153 -0.00903959014698177 -0.00046446334717976343 0.012641216810214231 0.0 0.0
0.0 0.010968410099083286 0.007222557502653394 -0.006812401361942789 -0.00041015614071060897 0.010177193607372799 0.0 0.0
0.0 0.007995131964892857 0.005169875644149487 -0.004824319196822518 -0.00034555644732696704 0.007789190173308199 0.0 0.0
0.0 0.005443272316133726 0.003316721408996304 -0.0030511739861018416 -0.00026554742289445875 0.005532654739081271 0.0 0.0
0.0 0.00302058749258861 0.001736540527335478 -0.001568776537515294 -0.00016776398982018377 0.003514829548623984 0.0 0.0
0.0 0.0013377386950505588 0.0006298446868260708 -0.000555961608021483 -7.38830788045876e-05 0.0018109035129202538 0.0 0.0
0.0 0.00044603289506872813 0.00013731811422114636 -0.00011584595712823848 -2.147215709290781e-05 0.0006749350959774612 0.0 0.0
0.0 0.00010661518078660214 1.3630245197186397e-05 -1.0147157214760263e-05 -3.483087982426169e-06 0.00016045198628715892 0.0 0.0
0.0 5.60270575931411e-07 -3.971710968566085e-06 3.5715764951404747e-06 4.0013447342561717e-07 -1.631273913972296e-06 0.0 0.0
0.0 -3.6209000000526866e-06 -1.4780703136031108e-06 1.2603054605652e-06 2.1776485303790384e-07 -9.564180863582522e-06 0.0 0.0
0.0 2.5980140327788748e-06 -2.055943533790241e-07 1.8738889279736904e-07 1.8205460581655686e-08 3.956210040952565e-06 0.0 0.0
0.0 3.962979984225162e-06 8.563451998383285e-08 -1.8101043364222545e-07 9.5375913658389e-08 5.212420923863566e-06 0.0 0.0
0.0 9.065479765566744e-06 -6.264452048700915e-06 2.896604060207685e-05 -2.2701588553375888e-05 8.254077747737685e-05 0.0 0.0
0.0 0.0007655819445535699 0.0004210820515094333 -0.0006169352748128687 0.00019585322330343484 0.0005138165547777313 0.0 0.0
0.0 0.00021323588727775492 0.0001226957618980795 -0.00018250977430871437 5.981401241063457e-05 -0.00019063559356217191 0.0 0.0
0.0 -2.629119780754459e-05 -1.568239502477878e-05 2.3188134604123433e-05 -7.5057395793446e-06 2.2898423792977582e-05 0.0 0.0
0.0 4.2729932274885115e-06 1.8590912616921173e-07 -1.9813372574945515e-07 1.222459958023933e-08 1.4667504925098588e-06 0.0 0.0
0.0 4.769335506052725e-06 -4.708577823678736e-07 3.9315712213102853e-07 7.770066023684827e-08 -6.505943224805324e-06 0.0 0.0
0.0 6.989047398310685e-07 -6.846464580848939e-07 6.71842234269644e-07 1.2804223815247836e-08 -2.688470073038982e-07 0.0 0.0
0.0 9.864432195837708e-06 -1.7076018907036733e-06 1.7633799122329403e-06 -5.577802152926946e-08 -9.271709075904533e-06 0.0 0.0
0.0 0.00010317050765139578 -2.3360070396715844e-06 2.3266934211233075e-06 9.313618548275444e-09 -0.00015535962638447043 0.0 0.0
0.0 0.00023917913364199765 -1.6103251747915605e-06 1.5946518353312522e-06 1.5673339460330507e-08 -0.00041506563088855076 0.0 0.0
0.0 0.0005124337047567226 -8.934768689362013e-07 8.565391732339495e-07 3.6937695702145065e-08 -0.0008451455654544056 0.0 0.0
0.0 0.0008809922632627345 1.8463799282859438e-08 -8.987862465146081e-09 -9.475936817733685e-09 -0.0017490227976995774 0.0 0.0
0.0 0.0017714598053175992 -6.415471118993601e-07 8.571622748902437e-07 -2.1561516299034144e-07 -0.0033202950355408576 0.0 0.0
0.0 0.00293392072592055 -1.1232460275634518e-05 1.3990978646586803e-05 -2.7585183709525566e-06 -0.005377305988958623 0.0 0.0
0.0 0.004418625079963967 -3.016365775925726e-05 3.404184019079894e-05 -3.878182431541003e-06 -0.007579679102815629 0.0 0.0
0.0 0.006091150563923837 -3.4527615194581925e-05 3.426901356648471e-05 2.586016280976247e-07 -0.009893595271168823 0.0 0.0
0.0 0.007922709507954642 6.204215686435668e-05 -7.776392752699228e-05 1.5721770662636985e-05 -0.012325472822371203 0.0 0.0
0.0 0.009865545685738148 0.00044235957887701384 -0.00048785293486939917 4.5493355992382294e-05 -0.014859045139723224 0.0 0.0
0.0 0.011953403420731793 0.0013951379983476713 -0.0014895067406231139 9.436874227544624e-05 -0.017406041793332223 0.0 0.0
0.0 0.014108070812817933 0.003169978445483184 -0.003382202246197384 0.00021222380071420424 -0.019729237544502714 0.0 0.0
0.0 0.017029714234689065 0.005461822544970554 -0.0058546036292679016 0.00039278108429735575 -0.021423348639067277 0.0 0.0
0.0 0.024433936305855983 0.010574519297174729 -0.010289990126018828 -0.0002845291711559097 -0.022320441045305908 0.0 0.0
0.0 0.043791442893863615 0.01824024901709306 -0.019623050813750105 0.0013828017966570493 1.4510094514808003e-14 0.0 0.0
0.0 0.024433936305869562 0.0105745192971764 -0.010289990126021593 -0.0002845291711547956 0.022320441045340214 0.0 0.0
0.0 0.017029714234682518 0.005461822544966851 -0.0058546036292643515 0.0003927810842974989 0.021423348639080672 0.0 0.0
0.0 0.014108070812800218 0.0031699784454811697 -0.0033822022461967903 0.00021222380071562373 0.01972923754449813 0.0 0.0
0.0 0.011953403420726316 0.0013951379983491543 -0.0014895067406239314 9.436874227477572e-05 0.017406041793322648 0.0 0.0
0.0 0.009865545685728736 0.0004423595788786616 -0.00048785293487105334 4.549335599239341e-05 0.01485904513970447 0.0 0.0
0.0 0.007922709507945653 6.204215686403305e-05 -7.776392752533974e-05 1.5721770661309217e-05 0.012325472822361693 0.0 0.0
0.0 0.006091150563920549 -3.452761519073648e-05 3.426901356260576e-05 2.586016281303405e-07 0.009893595271160752 0.0 0.0
0.0 0.004418625079952378 -3.0163657756378378e-05 3.404184018782584e-05 -3.878182431446203e-06 0.0075796791027990355 0.0 0.0
0.0 0.002933920725907795 -1.1232460272669659e-05 1.3990978643385534e-05 -2.7585183707169866e-06 0.005377305988943077 0.0 0.0
0.0 0.0017714598053079774 -6.415471105296875e-07 8.571622734786667e-07 -2.1561516294886393e-07 0.0033202950355268 0.0 0.0
0.0 0.0008809922632613469 1.846379860706267e-08 -8.987861859957981e-09 -9.475936747043703e-09 0.0017490227976986604 0.0 0.0
0.0 0.0005124337047560395 -8.93476869137602e-07 8.56539173460192e-07 3.693769567724738e-08 0.0008451455654532054 0.0 0.0
0.0 0.0002391791336400227 -1.6103251747777936e-06 1.5946518353791625e-06 1.5673339398613357e-08 0.00041506563088502315 0.0 0.0
0.0 0.00010317050764997984 -2.3360070396507195e-06 2.3266934210959907e-06 9.313618554774516e-09 0.00015535962638370216 0.0 0.0
0.0 9.864432195266469e-06 -1.7076018906856192e-06 1.7633799122142929e-06 -5.577802152868584e-08 9.271709076777542e-06 0.0 0.0
0.0 6.989047390373776e-07 -6.846464581222328e-07 6.718422343036203e-07 1.2804223818618117e-08 2.688470082295359e-07 0.0 0.0
0.0 4.769335505983077e-06 -4.7085778241621624e-07 3.9315712217445697e-07 7.770066024175938e-08 6.505943225439226e-06 0.0 0.0
0.0 4.272993226679499e-06 1.859091261582896e-07 -1.981337257455594e-07 1.2224599587278439e-08 -1.4667504918895351e-06 0.0 0.0
0.0 -2.6291197807490547e-05 -1.5682395024479988e-05 2.3188134603718385e-05 -7.505739579238441e-06 -2.2898423791764688e-05 0.0 0.0
0.0 0.00021323588727499877 0.00012269576189703199 -0.00018250977430720535 5.9814012410173583e-05 0.0001906355935606542 0.0 0.0
0.0 1.0905063765183481e-05 4.627332590828742e-06 -7.647983446645759e-06 3.02065085581699e-06 -7.31561055624659e-06 0.0 0.0
0.0 -2.072818405296889e-06 -1.005604175422832e-06 1.4758750159895052e-06 -4.702708405666756e-07 4.4903394593232355e-06 0.0 0.0
0.0 1.3890904931192539e-06 1.994765542836327e-07 -2.824079097708813e-07 8.293135548724868e-08 -2.523724686367908e-06 0.0 0.0
0.0 7.009333373973704e-06 -5.947539309480647e-07 4.7098310586013225e-07 1.237708250879316e-07 -7.607370665549971e-06 0.0 0.0
0.0 5.0690084250721965e-06 -9.56481510438324e-07 8.978177627176492e-07 5.8663747720672755e-08 -8.583400638365501e-06 0.0 0.0
0.0 1.6166105905979628e-05 -2.9879789411920467e-06 2.8619725250899393e-06 1.2600641610215754e-07 -3.260307903790957e-05 0.0 0.0
0.0 0.00014231172205620923 -2.2132039043475427e-05 1.7947589630541237e-05 4.184449412934095e-06 -0.0001854065036135693 0.0 0.0
0.0 0.000465738127686708 -0.00014559790753953584 0.0001231098423711548 2.2488065168380866e-05 -0.0006959938375419777 0.0 0.0
0.0 0.0013436648635822255 -0.0006326309577252496 0.0005582772628619154 7.43536948633336e-05 -0.0018206658496767282 0.0 0.0
0.0 0.0030197812889842532 -0.0017362978154627162 0.001568485990863368 0.00016781182459934827 -0.0035156582302981474 0.0 0.0
0.0 0.005461622903948238 -0.0033227838442549387 0.0030563807572453897 0.00026640308700954564 -0.005532419423728821 0.0 0.0
0.0 0.008044949499902714 -0.005204465358023777 0.004855170034505038 0.0003492953235187397 -0.007797996165612862 0.0 0.0
0.0 0.011048867355759395 -0.00729744263370245 0.006883631016019152 0.0004138116176832937 -0.01018143539238961 0.0 0.0
0.0 0.01432679995334226 -0.00956659892686143 0.009108881700671423 0.00045771722619002066 -0.01262474208771622 0.0 0.0
0.0 0.017669508363409032 -0.011898654843080853 0.011420257814622376 0.00047839702845847807 -0.015143325631030984 0.0 0.0
0.0 0.02087185834396075 -0.014036959054476307 0.013567028169962522 0.00046993088451376434 -0.01778327799064146 0.0 0.0
0.0 0.0234863192254202 -0.015574081075305226 0.01514952054133712 0.0004245605339681136 -0.020565791092496784 0.0 0.0
0.0 0.025283671246185732 -0.016022093990816798 0.015688076356824544 0.0003340176339922471 -0.023591914055540644 0.0 0.0
0.0 0.025301230118634797 -0.014815048607615663 0.014691217430042236 0.00012383117757343846 -0.026810028225209448 0.0 0.0
0.0 0.020655905074382468 -0.010802422861438971 0.011291560512995477 -0.0004891376515565016 -0.028930571802570526 0.0 0.0
0.0 0.042393314399060626 -0.006303326898850983 0.00348282844175898 0.0028204984570919843 1.8419293867921738e-14 0.0 0.0
0.0 0.020655905074390704 -0.010802422861438298 0.011291560512994422 -0.0004891376515561241 0.028930571802593858 0.0 0.0
0.0 0.02530123011863825 -0.014815048607615008 0.014691217430042517 0.00012383117757247346 0.026810028225233137 0.0 0.0
0.0 0.025283671246165547 -0.016022093990801962 0.015688076356810708 0.0003340176339912538 0.023591914055540907 0.0 0.0
0.0 0.023486319225396967 -0.0155740810752894 0.01514952054131973 0.0004245605339696972 0.020565791092485325 0.0 0.0
0.0 0.020871858343938617 -0.01403695905446073 0.013567028169946937 0.0004699308845137859 0.01778327799062171 0.0 0.0
0.0 0.017669508363389524 -0.011898654843065418 0.011420257814607288 0.00047839702845811546 0.015143325631017467 0.0 0.0
0.0 0.014326799953322878 -0.009566598926846345 0.009108881700656065 0.0004577172261902724 0.012624742087704206 0.0 0.0
0.0 0.011048867355735945 -0.007297442633686061 0.006883631016002975 0.00041381161768308614 0.010181435392371667 0.0 0.0
0.0 0.00804494949987824 -0.005204465358006094 0.004855170034488568 0.00034929532351751693 0.007797996165593893 0.0 0.0
0.0 0.005461622903928771 -0.003322783844242864 0.0030563807572339874 0.00026640308700888064 0.005532419423710664 0.0 0.0
0.0 0.0030197812889694543 -0.0017362978154530158 0.0015684859908541432 0.00016781182459887407 0.0035156582302853356 0.0 0.0
0.0 0.0013436648635760985 -0.0006326309577214875 0.0005582772628585744 7.435369486291413e-05 0.0018206658496707304 0.0 0.0
0.0 0.0004657381276822391 -0.00014559790753788964 0.00012310984236980625 2.2488065168083266e-05 0.000695993837536335 0.0 0.0
0.0 0.0001423117220540866 -2.2132039043320403e-05 1.7947589630422236e-05 4.184449412898197e-06 0.0001854065036121697 0.0 0.0
0.0 1.6166105905323974e-05 -2.9879789413757156e-06 2.8619725252354252e-06 1.2600641614029377e-07 3.260307903899151e-05 0.0 0.0
0.0 5.06900842450257e-06 -9.564815105112116e-07 8.978177627790799e-07 5.8663747732119545e-08 8.583400639066843e-06 0.0 0.0
0.0 7.009333373481135e-06 -5.947539310562327e-07 4.7098310595019223e-07 1.237708251060387e-07 7.607370666500494e-06 0.0 0.0
0.0 1.3890904927024366e-06 1.9947655426787613e-07 -2.824079097675306e-07 8.293135549964995e-08 2.5237246869637635e-06 0.0 0.0
0.0 -2.072818405931846e-06 -1.005604175458499e-06 1.4758750160275304e-06 -4.7027084056903474e-07 -4.490339459347768e-06 0.0 0.0
0.0 1.0905063763801573e-05 4.627332591088181e-06 -7.647983447030608e-06 3.0206508559424477e-06 7.31561055682994e-06 0.0 0.0
0.0 2.137443724680375e-06 -1.220915436041711e-07 1.897459172304093e-07 -6.765437362616072e-08 2.9265641503399196e-07 0.0 0.0
0.0 2.170955245011662e-07 7.122458771579627e-08 -4.1823109741101526e-08 -2.940147797470939e-08 8.172875190416719e-07 0.0 0.0
0.0 -1.166632092026364e-06 5.882181518259911e-07 -5.161560746347522e-07 -7.206207719124867e-08 3.0570763017281237e-06 0.0 0.0
0.0 4.166272921234392e-06 -8.144774974598128e-07 6.305936942993565e-07 1.838838031604464e-07 -8.22354061159183e-06 0.0 0.0
0.0 8.665266629753431e-06 1.1829622285311086e-06 -8.887466802461977e-07 -2.9421554828484696e-07 1.840729087943322e-07 0.0 0.0
0.0 4.874390185136551e-05 -9.311224975140274e-06 7.446634216193249e-06 1.8645907589469719e-06 -4.421001513740797e-05 0.0 0.0
0.0 0.0002930741452498502 -0.00016482486193013856 0.0001275190538435948 3.73058080865441e-05 -0.00040566727493645453 0.0 0.0
0.0 0.0013710368739927841 -0.0008799781634210839 0.0007097397628719733 0.00017023840054910974 -0.0014638326960370312 0.0 0.0
0.0 0.0035436366073990076 -0.0025668810880031443 0.002198212555930705 0.0003686685320724377 -0.0033446108176946646 0.0 0.0
0.0 0.007025321740182513 -0.005198248994877425 0.004684110973098532 0.0005141380217788921 -0.005813179930888653 0.0 0.0
0.0 0.01115892896402821 -0.008533082236638147 0.007931807054918347 0.0006012751817198001 -0.008695556005427688 0.0 0.0
0.0 0.01604059435067558 -0.01235745767004558 0.011692579357111103 0.000664878312934485 -0.01167966436439174 0.0 0.0
0.0 0.021345283700977054 -0.016587906401574603 0.015866445289016096 0.0007214611125585082 -0.01463951943913439 0.0 0.0
0.0 0.02704849057071973 -0.02118515178877201 0.02041971083995168 0.0007654409488203007 -0.017548619412580298 0.0 0.0
0.0 0.03309510530303638 -0.02602859873813752 0.025235575569704717 0.0007930231684327789 -0.020508592701842042 0.0 0.0
0.0 0.039173469533862824 -0.03082189100189331 0.030022917256388074 0.0007989737455052308 -0.023724005773201606 0.0 0.0
0.0 0.044716487113623 -0.03508114029109216 0.03429501501089503 0.0007861252801971095 -0.027409032166152602 0.0 0.0
0.0 0.04887239633812321 -0.03816807569192271 0.037409537170871136 0.0007585385210516159 -0.03165867671294542 0.0 0.0
0.0 0.0508615396474316 -0.03896787320598922 0.03831188397834902 0.0006559892276401427 -0.03567865724836183 0.0 0.0
0.0 0.04754881051765374 -0.035057111025926346 0.03463246112801609 0.00042464989791024397 -0.036757096601940834 0.0 0.0
0.0 0.052012073352755483 -0.02875297403831121 0.025159175646659235 0.0035937983916519683 2.4433580159133328e-14 0.0 0.0
0.0 0.04754881051766481 -0.0350571110259237 0.034632461128013485 0.0004246498979102124 0.03675709660199325 0.0 0.0
0.0 0.050861539647428726 -0.038967873205979456 0.038311883978338415 0.000655989227641038 0.03567865724840895 0.0 0.0
0.0 0.04887239633809286 -0.03816807569189585 0.03740953717084389 0.0007585385210519328 0.03165867671295923 0.0 0.0
0.0 0.0447164871135802 -0.03508114029105789 0.03429501501085989 0.0007861252801979789 0.0274090321661419 0.0 0.0
0.0 0.03917346953382542 -0.0308218910018627 0.030022917256358514 0.0007989737455041609 0.023724005773181962 0.0 0.0
0.0 0.03309510530299818 -0.026028598738106257 0.025235575569674203 0.0007930231684320813 0.020508592701823442 0.0 0.0
0.0 0.02704849057068331 -0.021185151788741183 0.02041971083992095 0.0007654409488201757 0.01754861941256356 0.0 0.0
0.0 0.021345283700937228 -0.016587906401542892 0.015866445288984222 0.0007214611125586803 0.014639519439114587 0.0 0.0
0.0 0.01604059435063654 -0.01235745767001563 0.011692579357081696 0.0006648783129339351 0.011679664364365345 0.0 0.0
0.0 0.011158928963993182 -0.00853308223661179 0.007931807054891951 0.0006012751817198356 0.0086955560054002 0.0 0.0
0.0 0.007025321740157441 -0.00519824899485854 0.004684110973080413 0.00051413802177813 0.005813179930870039 0.0 0.0
0.0 0.0035436366073819574 -0.002566881087990621 0.002198212555919205 0.00036866853207141525 0.0033446108176816195 0.0 0.0
0.0 0.0013710368739851104 -0.0008799781634155255 0.0007097397628676909 0.00017023840054783326 0.0014638326960306472 0.0 0.0
0.0 0.00029307414524522594 -0.0001648248619283446 0.00012751905384209594 3.730580808624891e-05 0.00040566727493226913 0.0 0.0
0.0 4.8743901850431144e-05 -9.311224975219748e-06 7.446634216264973e-06 1.8645907589546803e-06 4.421001513785897e-05 0.0 0.0
0.0 8.665266629388758e-06 1.1829622280941788e-06 -8.887466798904477e-07 -2.9421554820373233e-07 -1.8407290722779653e-07 0.0 0.0
0.0 4.166272920952455e-06 -8.144774975860003e-07 6.305936944039072e-07 1.838838031820986e-07 8.22354061240026e-06 0.0 0.0
0.0 -1.1666320923338038e-06 5.882181517666257e-07 -5.161560746044335e-07 -7.206207716218716e-08 -3.0570763007319287e-06 0.0 0.0
0.0 2.1709552421224676e-07 7.12245877327589e-08 -4.1823109748485205e-08 -2.9401477984270922e-08 -8.172875193914266e-07 0.0 0.0
0.0 2.1374437248040467e-06 -1.2209154361244184e-07 1.8974591724285808e-07 -6.765437363045714e-08 -2.926564150508065e-07 0.0 0.0
0.0 0.0 0.0 0.0 0.0 0.0 0.0 0.0
0.0 1.5912157953382274e-07 -4.007306352445174e-09 6.756585881943195e-09 -2.749279529502242e-09 -2.875796175094078e-08 0.0 0.0
0.0 -8.738015684848549e-07 7.086676255134587e-07 -5.670947764399159e-07 -1.415728490735358e-07 3.885939856620413e-06 0.0 0.0
0.0 2.0656817037912196e-06 1.1523630668440118e-06 -9.826456950822587e-07 -1.6971737176175148e-07 9.302551682086687e-07 0.0 0.0
0.0 9.362218476540586e-06 -5.491080048099441e-07 4.640245204997572e-07 8.508348431013874e-08 -9.3095631768427e-06 0.0 0.0
0.0 8.523214239009256e-05 -6.315370779224784e-05 4.804124602497906e-05 1.5112461767268967e-05 -0.00012775724093935767 0.0 0.0
0.0 0.0007806503414260611 -0.000547743411716969 0.00042314267774676783 0.00012460073397020077 -0.0007153006553745263 0.0 0.0
0.0 0.0026366026678534826 -0.0020960594081360488 0.001729256176247377 0.0003668032318886703 -0.002214333504162158 0.0 0.0
0.0 0.006255758370031535 -0.004981103085566388 0.004403557716148733 0.0005775453694176479 -0.004607556464904832 0.0 0.0
0.0 0.011610482160005611 -0.009090768802196952 0.008404104567543065 0.0006866642346538942 -0.007734888082902896 0.0 0.0
0.0 0.017581533903026414 -0.014140934595644927 0.013388021345345192 0.0007529132502997363 -0.011228353995922764 0.0 0.0
0.0 0.024522253735865706 -0.01988703701619534 0.019072859792422833 0.0008141772237725063 -0.014725718531975303 0.0 0.0
0.0 0.032220775485999484 -0.026239080143618688 0.025364469514951075 0.0008746106286676195 -0.018096604560583516 0.0 0.0
0.0 0.04051457943202101 -0.03316487783649917 0.03223750328489064 0.0009273745516085004 -0.02137541312198683 0.0 0.0
0.0 0.04943283577852442 -0.040548878246043626 0.03958477092203166 0.0009641073240120043 -0.0247645274037688 0.0 0.0
0.0 0.058457894357835466 -0.04807371240975951 0.04709640166673306 0.0009773107430263907 -0.02864913683024997 0.0 0.0
0.0 0.06732540062140657 -0.05513476531995516 0.05416977066418388 0.0009649946557712057 -0.033465397046755205 0.0 0.0
0.0 0.07446717973990531 -0.06072260047885431 0.059812619482341754 0.000909980996512551 -0.03907941056996848 0.0 0.0
0.0 0.07803169563885226 -0.0630815936844418 0.06229214635996258 0.0007894473244791186 -0.04397892563967485 0.0 0.0
0.0 0.07383275164042691 -0.058826766880289656 0.058356143949786124 0.00047062293050352576 -0.045308270453463945 0.0 0.0
0.0 0.07185825925437901 -0.050630476069886104 0.046327748458500545 0.0043027276113855924 2.5240226575462543e-14 0.0 0.0
0.0 0.07383275164043167 -0.058826766880281926 0.05835614394977914 0.00047062293050279956 0.04530827045352373 0.0 0.0
0.0 0.07803169563883527 -0.06308159368441855 0.062292146359939266 0.0007894473244792677 0.04397892563973155 0.0 0.0
0.0 0.07446717973987255 -0.060722600478822095 0.05981261948231131 0.0009099809965108398 0.039079410569996684 0.0 0.0
0.0 0.06732540062135643 -0.05513476531991248 0.054169770664141484 0.000964994655771029 0.03346539704675046 0.0 0.0
0.0 0.05845789435778445 -0.04807371240971639 0.047096401666691046 0.000977310743025298 0.028649136830231525 0.0 0.0
0.0 0.04943283577847125 -0.04054887824599934 0.03958477092198817 0.0009641073240111734 0.024764527403746014 0.0 0.0
0.0 0.04051457943196924 -0.03316487783645534 0.032237503284847445 0.0009273745516078805 0.021375413121966665 0.0 0.0
0.0 0.03222077548594324 -0.02623908014357213 0.0253644695149044 0.0008746106286677009 0.01809660456056128 0.0 0.0
0.0 0.02452225373581604 -0.0198870370161553 0.01907285979238336 0.000814177223771929 0.014725718531948475 0.0 0.0
0.0 0.017581533902979337 -0.014140934595607786 0.013388021345308032 0.0007529132502997621 0.011228353995891904 0.0 0.0
0.0 0.011610482159970629 -0.009090768802169222 0.008404104567515775 0.0006866642346534448 0.007734888082880242 0.0 0.0
0.0 0.006255758370007658 -0.0049811030855477344 0.00440355771613128 0.0005775453694164519 0.00460755646488988 0.0 0.0
0.0 0.0026366026678421176 -0.002096059408127213 0.0017292561762396802 0.0003668032318875335 0.002214333504154653 0.0 0.0
0.0 0.0007806503414183306 -0.0005477434117119463 0.0004231426777427447 0.00012460073396920138 0.0007153006553679612 0.0 0.0
0.0 8.52321423878947e-05 -6.315370779148469e-05 4.80412460244004e-05 1.5112461767084267e-05 0.00012775724093844442 0.0 0.0
0.0 9.362218476451763e-06 -5.491080052210206e-07 4.640245208353529e-07 8.508348438567417e-08 9.309563178009868e-06 0.0 0.0
0.0 2.0656817030530994e-06 1.1523630667242232e-06 -9.826456949838445e-07 -1.697173717403757e-07 -9.302551674819407e-07 0.0 0.0
0.0 -8.738015690636895e-07 7.086676255542099e-07 -5.670947764724855e-07 -1.4157284908173132e-07 -3.885939856916099e-06 0.0 0.0
0.0 1.5912157927901694e-07 -4.007306358210049e-09 6.756585882126788e-09 -2.7492795239138487e-09 2.875796184897229e-08 0.0 0.0
0.0 0.0 0.0 0.0 0.0 0.0 0.0 0.0
0.0 0.0 0.0 0.0 0.0 0.0 0.0 0.0
0.0 -1.2025212151614905e-07 -2.8111852206668733e-09 1.9303984439410896e-09 8.807867767261456e-10 -2.3879236813071873e-08 0.0 0.0
0.0 -6.802941550081622e-07 4.987199391778884e-07 -3.992554876928135e-07 -9.94644514850773e-08 2.0488296551738233e-06 0.0 0.0
0.0 -2.657991954051418e-06 9.156172935153003e-07 -7.837673694096027e-07 -1.3184992410568853e-07 5.944229149084199e-07 0.0 0.0
0.0 1.2289807720236372e-05 -1.0682999025744902e-06 2.7382637017288236e-07 7.94473532401621e-07 -3.3352478951256925e-06 0.0 0.0
0.0 0.0002734666901058588 -0.00018790795746973096 0.0001410556848360337 4.685227263369712e-05 -0.00020697072368062812 0.0 0.0
0.0 0.0014347496635397441 -0.0011900233248244693 0.0009362031989445564 0.0002538201258799125 -0.001032136896711086 0.0 0.0
0.0 0.0043300455609063745 -0.0036256982845198574 0.0030873650027103423 0.0005383332818095133 -0.00275830930810572 0.0 0.0
0.0 0.009580548246748987 -0.007699326834443835 0.006985584724343578 0.000713742110100255 -0.005493616879051532 0.0 0.0
0.0 0.015869009935044143 -0.013264696929174386 0.012466110648802273 0.0007985862803721255 -0.008987191564732237 0.0 0.0
0.0 0.024063614547076534 -0.019975188242746123 0.019114391471876154 0.0008607967708699591 -0.012729081288895707 0.0 0.0
0.0 0.033193527779461385 -0.027614558720720758 0.026689850831496557 0.0009247078892241738 -0.01643948300181088 0.0 0.0
0.0 0.04323123408695588 -0.036077936350338666 0.035086217208180934 0.000991719142157746 -0.020001500539088175 0.0 0.0
0.0 0.054164337924771114 -0.04532839430412913 0.04427370453636361 0.0010546897677655167 -0.02345522231430633 0.0 0.0
0.0 0.06584260678882065 -0.05526978496639911 0.0541672486313238 0.0011025363350753432 -0.027029928175064277 0.0 0.0
0.0 0.07828228097311865 -0.06556758275615777 0.06444603776659123 0.0011215449895665168 -0.03125485064841847 0.0 0.0
0.0 0.08979552961659938 -0.07544173767394799 0.074343976578744 0.0010977610952039101 -0.03666116640002615 0.0 0.0
0.0 0.09988016521056596 -0.08341381021917885 0.08240073744442689 0.0010130727747519077 -0.043005048385350186 0.0 0.0
0.0 0.10496255196461192 -0.08696662781065619 0.08613726583867 0.0008293619719861497 -0.04860034570360482 0.0 0.0
0.0 0.09972838235340842 -0.08191156313949396 0.08144002691608043 0.0004715362234135503 -0.05038249922899747 0.0 0.0
0.0 0.09371463146843731 -0.07202624605145594 0.06710752223329265 0.004918723818163157 2.751791849942009e-14 0.0 0.0
0.0 0.09972838235340152 -0.08191156313947828 0.0814400269160647 0.0004715362234136223 0.05038249922905724 0.0 0.0
0.0 0.10496255196459196 -0.0869666278106303 0.0861372658386451 0.0008293619719850367 0.0486003457036681 0.0 0.0
0.0 0.09988016521052547 -0.08341381021913993 0.08240073744438889 0.0010130727747508432 0.043005048385385894 0.0 0.0
0.0 0.08979552961653738 -0.0754417376738947 0.07434397657869034 0.0010977610952043796 0.036661166400024474 0.0 0.0
0.0 0.07828228097304768 -0.06556758275609759 0.06444603776653102 0.001121544989566491 0.031254850648399134 0.0 0.0
0.0 0.06584260678875016 -0.05526978496633916 0.05416724863126438 0.001102536335074834 0.02702992817504067 0.0 0.0
0.0 0.054164337924703515 -0.04532839430407134 0.04427370453630637 0.0010546897677649611 0.023455222314284443 0.0 0.0
0.0 0.043231234086888164 -0.03607793635028149 0.03508621720812381 0.0009917191421576546 0.020001500539066033 0.0 0.0
0.0 0.03319352777939869 -0.027614558720668387 0.026689850831444657 0.0009247078892237405 0.01643948300178306 0.0 0.0
0.0 0.024063614547019493 -0.019975188242699168 0.019114391471829556 0.0008607967708696081 0.012729081288863459 0.0 0.0
0.0 0.015869009934997645 -0.01326469692913591 0.012466110648764 0.0007985862803719184 0.008987191564705408 0.0 0.0
0.0 0.009580548246717679 -0.0076993268344191165 0.006985584724319773 0.0007137421100993503 0.005493616879034758 0.0 0.0
0.0 0.004330045560887235 -0.0036256982845047545 0.0030873650026964727 0.0005383332818082827 0.002758309308094585 0.0 0.0
0.0 0.001434749663528076 -0.0011900233248159984 0.0009362031989374395 0.0002538201258785579 0.001032136896703035 0.0 0.0
0.0 0.0002734666901025707 -0.0001879079574678304 0.0001410556848346861 4.685227263314442e-05 0.0002069707236789872 0.0 0.0
0.0 1.2289807719718191e-05 -1.0682999030463231e-06 2.7382637054677626e-07 7.944735324995505e-07 3.3352478961383e-06 0.0 0.0
0.0 -2.6579919540578935e-06 9.156172932185341e-07 -7.837673691754482e-07 -1.3184992404306701e-07 -5.944229138940986e-07 0.0 0.0
0.0 -6.802941552367745e-07 4.987199392120513e-07 -3.992554877216858e-07 -9.946445149036577e-08 -2.048829655313407e-06 0.0 0.0
0.0 -1.2025212151506954e-07 -2.8111852205958148e-09 1.930398443898689e-09 8.807867766964716e-10 2.387923681280424e-08 0.0 0.0
0.0 0.0 0.0 0.0 0.0 0.0 0.0 0.0
0.0 0.0 0.0 0.0 0.0 0.0 0.0 0.0
0.0 0.0 0.0 0.0 0.0 0.0 0.0 0.0
0.0 -5.122812387958597e-07 1.4900251280999792e-07 -1.1739814765310904e-07 -3.16043651568903e-08 4.86070713834976e-07 0.0 0.0
0.0 -4.776569265026919e-06 3.6763650643613976e-06 -2.982626964483641e-06 -6.937380998777311e-07 7.19076275159574e-06 0.0 0.0
0.0 1.6920640383738175e-05 -2.204639436262861e-05 1.5321932872116138e-05 6.724461490512374e-06 -2.226541070672786e-05 0.0 0.0
0.0 0.0005594288493144124 -0.0004364413626128563 0.00032878090024001804 0.0001076604623728384 -0.0003039830832006613 0.0 0.0
0.0 0.002354350003422599 -0.0020456909087971636 0.0016514279599230705 0.00039426294887409273 -0.0012185121087320298 0.0 0.0
0.0 0.006535931552768705 -0.0053915721444213315 0.004721846122685767 0.0006697260217355676 -0.00305975644241291 0.0 0.0
0.0 0.012372187011138614 -0.010650550237243869 0.009840309314835073 0.000810240922408789 -0.005939668146292611 0.0 0.0
0.0 0.02075364514089956 -0.01758681986782063 0.016701259033925837 0.0008855608338948129 -0.009427952692241223 0.0 0.0
0.0 0.030643712723112813 -0.025934418159829116 0.024984363667902694 0.0009500544919263914 -0.013140947012061156 0.0 0.0
0.0 0.04188820387127532 -0.03546094131111872 0.034441729200341095 0.001019212110777652 -0.0168181646368733 0.0 0.0
0.0 0.05432670492091566 -0.0460322311882965 0.04493964136525485 0.0010925898230415066 -0.02036009254063954 0.0 0.0
0.0 0.06796956053930618 -0.05759598234369054 0.05643150511272528 0.0011644772309653765 -0.023798101178407072 0.0 0.0
0.0 0.08251238352666143 -0.07007746547225022 0.06885284805026937 0.0012246174219807855 -0.027317730435788497 0.0 0.0
0.0 0.09765812928003481 -0.08312527967962645 0.08187614361533554 0.0012491360642908917 -0.03140058216865817 0.0 0.0
0.0 0.11287499630405344 -0.09575226838592299 0.09454223892112701 0.0012100294647960051 -0.036676485661641646 0.0 0.0
0.0 0.1251644418956179 -0.10599065940864365 0.104907929582017 0.0010827298266264575 -0.04313777748251536 0.0 0.0
0.0 0.13098090536486964 -0.11057242201877597 0.10972742855289949 0.0008449934658763928 -0.04936229722302257 0.0 0.0
0.0 0.12523416037762264 -0.10477225669634699 0.10429770482025501 0.00047455187609204166 -0.05332555929092253 0.0 0.0
0.0 0.11712784821765368 -0.09347492652696808 0.0880186907140394 0.005456235812928679 2.7821495107716032e-14 0.0 0.0
0.0 0.12523416037760388 -0.10477225669632306 0.10429770482022946 0.00047455187609371464 0.05332555929098238 0.0 0.0
0.0 0.1309809053648332 -0.11057242201873817 0.10972742855286102 0.0008449934658772056 0.04936229722308444 0.0 0.0
0.0 0.12516444189556292 -0.10599065940859292 0.10490792958196685 0.0010827298266260009 0.04313777748255036 0.0 0.0
0.0 0.11287499630397604 -0.09575226838585654 0.0945422389210595 0.0012100294647969466 0.036676485661640605 0.0 0.0
0.0 0.0976581292799539 -0.08312527967955653 0.0818761436152663 0.0012491360642901807 0.0314005821686446 0.0 0.0
0.0 0.08251238352657289 -0.07007746547217482 0.06885284805019373 0.0012246174219810503 0.027317730435767597 0.0 0.0
0.0 0.06796956053922343 -0.05759598234361865 0.05643150511265468 0.0011644772309639976 0.023798101178385576 0.0 0.0
0.0 0.0543267049208351 -0.0460322311882274 0.04493964136518603 0.001092589823041318 0.020360092540618935 0.0 0.0
0.0 0.041888203871197745 -0.035460941311053165 0.034441729200275974 0.0010192121107771444 0.016818164636845056 0.0 0.0
0.0 0.0306437127230443 -0.02593441815977185 0.024984363667845844 0.0009500544919260007 0.013140947012029048 0.0 0.0
0.0 0.02075364514084616 -0.01758681986777588 0.016701259033881328 0.0008855608338945335 0.009427952692215594 0.0 0.0
0.0 0.012372187011100615 -0.01065055023721075 0.009840309314802839 0.0008102409224079227 0.005939668146274538 0.0 0.0
0.0 0.006535931552741766 -0.005391572144399641 0.004721846122665221 0.0006697260217344203 0.0030597564424005184 0.0 0.0
0.0 0.0023543500034091127 -0.0020456909087862387 0.0016514279599138648 0.0003942629488723728 0.0012185121087249526 0.0 0.0
0.0 0.0005594288493092441 -0.0004364413626094893 0.0003287809002374282 0.00010766046237206113 0.00030398308319840267 0.0 0.0
0.0 1.6920640382635202e-05 -2.2046394362505175e-05 1.532193287204287e-05 6.7244614904622805e-06 2.2265410706740438e-05 0.0 0.0
0.0 -4.776569265302676e-06 3.6763650640856257e-06 -2.9826269642692565e-06 -6.937380998163649e-07 -7.190762750895719e-06 0.0 0.0
0.0 -5.122812386291637e-07 1.490025128442268e-07 -1.173981476803244e-07 -3.160436516390104e-08 -4.860707139447211e-07 0.0 0.0
0.0 0.0 0.0 0.0 0.0 0.0 0.0 0.0
0.0 0.0 0.0 0.0 0.0 0.0 0.0 0.0
0.0 0.0 0.0 0.0 0.0 0.0 0.0 0.0
0.0 0.0 0.0 0.0 0.0 0.0 0.0 0.0
0.0 -1.9259891853480113e-07 -1.2438204119640457e-08 9.900711751953166e-09 2.537492367688598e-09 -3.208399983975565e-08 0.0 0.0
0.0 -6.354444833434515e-06 3.641858196217215e-06 -3.001607085301114e-06 -6.402511109161292e-07 6.259050573844831e-06 0.0 0.0
0.0 8.20558614760029e-05 -6.049937095096174e-05 4.204344427270685e-05 1.8455926678254966e-05 -2.831273528732204e-05 0.0 0.0
0.0 0.0008929484805178622 -0.0008370338929198261 0.0006384295820377166 0.00019860431088210945 -0.0003811403473146316 0.0 0.0
0.0 0.0036702896930789993 -0.003085599489982461 0.0025615733742368656 0.0005240261157455955 -0.0012626423823470982 0.0 0.0
0.0 0.0083868410584638 -0.007362958346609397 0.00659558002453073 0.0007673783220786702 -0.003116720670746568 0.0 0.0
0.0 0.01584063792336196 -0.013712767786259957 0.012827822999958383 0.0008849447863015618 -0.005807723614028925 0.0 0.0
0.0 0.02557809752342636 -0.02199559948489094 0.021035675239233106 0.0009599242456578639 -0.009029299981717283 0.0 0.0
0.0 0.037294195483953296 -0.03196237236264593 0.030932387921840464 0.0010299844408054525 -0.012478800883719594 0.0 0.0
0.0 0.05068396565758074 -0.04336901763999773 0.04226444307806878 0.0011045745619289258 -0.015894073178073752 0.0 0.0
0.0 0.06560209951364959 -0.056049921736350344 0.054866764727957096 0.0011831570083931774 -0.019201112713401396 0.0 0.0
0.0 0.0815522262820715 -0.06992016131013226 0.06865787117424609 0.001262290135886158 -0.022439972785487972 0.0 0.0
0.0 0.09905465118563767 -0.08487860358671542 0.08354676146912707 0.0013318421175884448 -0.025679627948504806 0.0 0.0
0.0 0.11738532928952622 -0.10056469261010219 0.09920014457325349 0.0013645480368486501 -0.029176057203406276 0.0 0.0
0.0 0.13509300296880816 -0.11584934904388505 0.11453419334192358 0.0013151557019614184 -0.03358126558407914 0.0 0.0
0.0 0.149865044312251 -0.1283073939223049 0.12716011655977355 0.0011472773625314271 -0.039516784544459595 0.0 0.0
0.0 0.1571336127254489 -0.13403472913790077 0.13317508016528357 0.0008596489726170006 -0.04673405327584205 0.0 0.0
0.0 0.15094746040098828 -0.12783112651278425 0.12736353783159948 0.00046758868118467405 -0.05465805259415212 0.0 0.0
0.0 0.14123091141312805 -0.11541386304809405 0.10949161037675932 0.005922252671334764 2.595319792408901e-14 0.0 0.0
0.0 0.15094746040097057 -0.12783112651276154 0.12736353783157722 0.0004675886811842141 0.054658052594212 0.0 0.0
0.0 0.1571336127254012 -0.13403472913785464 0.13317508016523671 0.0008596489726178157 0.0467340532758997 0.0 0.0
0.0 0.14986504431218242 -0.1283073939222435 0.12716011655971293 0.0011472773625305732 0.03951678454449121 0.0 0.0
0.0 0.13509300296871865 -0.11584934904380764 0.11453419334184543 0.0013151557019621264 0.03358126558408067 0.0 0.0
0.0 0.1173853292894359 -0.10056469261002345 0.09920014457317605 0.0013645480368473287 0.029176057203396583 0.0 0.0
0.0 0.0990546511855361 -0.08487860358662831 0.0835467614690399 0.0013318421175884463 0.025679627948487768 0.0 0.0
0.0 0.08155222628197568 -0.06992016131004915 0.06865787117416448 0.001262290135884568 0.022439972785469452 0.0 0.0
0.0 0.06560209951355489 -0.05604992173626852 0.05486676472787545 0.0011831570083930534 0.019201112713381423 0.0 0.0
0.0 0.050683965657491045 -0.043369017639921285 0.042264443077992535 0.0011045745619287616 0.015894073178047082 0.0 0.0
0.0 0.03729419548387485 -0.031962372362579046 0.030932387921774055 0.0010299844408050256 0.012478800883690234 0.0 0.0
0.0 0.02557809752336682 -0.021995599484839937 0.021035675239182348 0.000959924245657563 0.009029299981694657 0.0 0.0
0.0 0.015840637923315234 -0.013712767786219592 0.012827822999918666 0.0008849447863009271 0.005807723614011875 0.0 0.0
0.0 0.008386841058432648 -0.007362958346582616 0.006595580024504937 0.0007673783220776783 0.0031167206707345854 0.0 0.0
0.0 0.0036702896930613065 -0.003085599489968346 0.0025615733742241527 0.0005240261157441934 0.0012626423823401901 0.0 0.0
0.0 0.0008929484805106278 -0.0008370338929141811 0.0006384295820333006 0.00019860431088087986 0.00038114034731216424 0.0 0.0
0.0 8.205586147467496e-05 -6.0499370950736346e-05 4.204344427258433e-05 1.845592667815201e-05 2.8312735287502413e-05 0.0 0.0
0.0 -6.35444483348852e-06 3.6418581960429105e-06 -3.0016070851681097e-06 -6.402511108747991e-07 -6.259050573621396e-06 0.0 0.0
0.0 -1.9259891850927365e-07 -1.243820411784055e-08 9.900711750511593e-09 2.5374923673294314e-09 3.208399983580417e-08 0.0 0.0
0.0 0.0 0.0 0.0 0.0 0.0 0.0 0.0
0.0 0.0 0.0 0.0 0.0 0.0 0.0 0.0
0.0 0.0 0.0 0.0 0.0 0.0 0.0 0.0
0.0 0.0 0.0 0.0 0.0 0.0 0.0 0.0
0.0 -7.18462332870173e-08 -5.322214849680892e-09 4.219826328331633e-09 1.102388521349622e-09 -1.0684932772376604e-08 0.0 0.0
0.0 -7.527336151457142e-06 5.3563698518837926e-06 -4.479590151544298e-06 -8.76779700339487e-07 7.0396268944398674e-06 0.0 0.0
0.0 0.00019063392097596818 -0.00015827730016758002 0.00011201844296799087 4.6258857199589336e-05 -3.909709577698083e-05 0.0 0.0
0.0 0.001525557248077632 -0.0013479968678923634 0.001047399470444201 0.0003005973974481628 -0.00033769582369391646 0.0 0.0
0.0 0.004881176646578244 -0.0043104317376631 0.0036748332171646705 0.0006355985204984283 -0.0011739091739569748 0.0 0.0
0.0 0.010649432696586657 -0.00943770034915201 0.008598877569752519 0.000838822779399488 -0.0028059572803018724 0.0 0.0
0.0 0.019258388762043152 -0.01683782669013549 0.01589013007438948 0.0009476966157460116 -0.0050665276978459906 0.0 0.0
0.0 0.030488488039831223 -0.026440126191656265 0.02541304859398035 0.0010270775976759024 -0.007810167154129101 0.0 0.0
0.0 0.043952964601236946 -0.038009689133802566 0.03690638826160336 0.0011033008721991599 -0.010757869870471682 0.0 0.0
0.0 0.059481770627848 -0.05129184308304044 0.0501080878719034 0.0011837552111370728 -0.013681352737323037 0.0 0.0
0.0 0.0765371568120654 -0.06609001932991014 0.06482261171653586 0.0012674076133742762 -0.01653179974266698 0.0 0.0
0.0 0.09552539426356815 -0.08225033953231203 0.08090155441825381 0.001348785114058146 -0.01936336387073522 0.0 0.0
0.0 0.11554131194339581 -0.09960639980038119 0.09818417604819579 0.0014222237521853674 -0.022155177672051028 0.0 0.0
0.0 0.13636483157930482 -0.11774659897888906 0.11628038309420671 0.001466215884682353 -0.024819835146687338 0.0 0.0
0.0 0.15703054492852364 -0.13550232467346615 0.1340767235524292 0.0014256011210369592 -0.027700857125845756 0.0 0.0
0.0 0.17428888777695073 -0.15023771879611708 0.1490066158587458 0.0012311029373712832 -0.032267206254649294 0.0 0.0
0.0 0.18324268136659252 -0.15751684051726206 0.15663253727378254 0.0008843032434793408 -0.0406708276825267 0.0 0.0
0.0 0.1774709993623848 -0.15148575921625257 0.1510475326450086 0.00043822657124414736 -0.05412496838725516 0.0 0.0
0.0 0.1670669306965833 -0.13828116258701662 0.13197171604399077 0.006309446543025731 2.385591724163305e-14 0.0 0.0
0.0 0.17747099936236252 -0.15148575921622748 0.15104753264498405 0.00043822657124358065 0.054124968387309264 0.0 0.0
0.0 0.18324268136653804 -0.15751684051721201 0.15663253727373208 0.0008843032434798758 0.040670827682575815 0.0 0.0
0.0 0.17428888777686272 -0.15023771879604073 0.14900661585866842 0.0012311029373722993 0.03226720625467251 0.0 0.0
0.0 0.1570305449284181 -0.13550232467337534 0.13407672355233727 0.0014256011210378797 0.02770085712584746 0.0 0.0
0.0 0.136364831579196 -0.11774659897879466 0.11628038309411297 0.0014662158846817867 0.024819835146680236 0.0 0.0
0.0 0.11554131194328297 -0.09960639980028364 0.09818417604809904 0.0014222237521844725 0.022155177672038597 0.0 0.0
0.0 0.09552539426345708 -0.08225033953221572 0.08090155441815829 0.0013487851140574828 0.019363363870720032 0.0 0.0
0.0 0.07653715681195307 -0.06609001932981381 0.0648226117164391 0.0012674076133748268 0.01653179974264942 0.0 0.0
0.0 0.05948177062774783 -0.05129184308295387 0.05010808787181713 0.001183755211136759 0.01368135273730054 0.0 0.0
0.0 0.043952964601143216 -0.03800968913372197 0.03690638826152306 0.0011033008721989138 0.010757869870445708 0.0 0.0
0.0 0.03048848803976052 -0.026440126191595234 0.025413048593919855 0.0010270775976753644 0.0078101671541091445 0.0 0.0
0.0 0.01925838876198702 -0.01683782669008688 0.015890130074341157 0.0009476966157457258 0.0050665276978303295 0.0 0.0
0.0 0.010649432696549832 -0.009437700349119496 0.00859887756972087 0.0008388227793986267 0.002805957280291023 0.0 0.0
0.0 0.00488117664655649 -0.0043104317376445505 0.003674833217147633 0.0006355985204969121 0.0011739091739506088 0.0 0.0
0.0 0.0015255572480678907 -0.0013479968678844975 0.0010473994704377732 0.00030059739744672554 0.0003376958236916024 0.0 0.0
0.0 0.00019063392097316077 -0.00015827730016577368 0.00011201844296666884 4.6258857199104914e-05 3.909709577653051e-05 0.0 0.0
0.0 -7.527336151639384e-06 5.356369851297609e-06 -4.479590151096184e-06 -8.767797002014158e-07 -7.039626893898398e-06 0.0 0.0
0.0 -7.184623319621463e-08 -5.322214842869262e-09 4.219826322927047e-09 1.1023885199412321e-09 1.0684932758656047e-08 0.0 0.0
0.0 0.0 0.0 0.0 0.0 0.0 0.0 0.0
0.0 0.0 0.0 0.0 0.0 0.0 0.0 0.0
0.0 0.0 0.0 0.0 0.0 0.0 0.0 0.0
0.0 0.0 0.0 0.0 0.0 0.0 0.0 0.0
0.0 0.0 0.0 0.0 0.0 0.0 0.0 0.0
0.0 -8.611366007137273e-06 7.5872865366519516e-06 -6.667299096692555e-06 -9.199874399594193e-07 8.208773312296231e-06 0.0 0.0
0.0 0.0003446655270228162 -0.00033796566847909225 0.0002423097936284406 9.565587485065168e-05 -1.608559370034606e-05 0.0 0.0
0.0 0.0023153581679323408 -0.0020075465199089594 0.001598397342709299 0.0004091491771996609 -0.00020435340091575434 0.0 0.0
0.0 0.0061617175906893635 -0.005656379081976224 0.004935470395585319 0.0007209086863909006 -0.0008904216517003951 0.0 0.0
0.0 0.013018649438411868 -0.011569462867228132 0.01067254829960402 0.0008969145676241289 -0.002069767699227535 0.0 0.0
0.0 0.022721920255282788 -0.019984748763363636 0.01898109317699302 0.0010036555863706083 -0.0037375679644724015 0.0 0.0
0.0 0.03539399475697039 -0.03087633423106549 0.029787395415440295 0.001088938815625203 -0.0057766531542417735 0.0 0.0
0.0 0.05069119715328359 -0.04403052648648936 0.042858755168693585 0.0011717713177957485 -0.007983848883587571 0.0 0.0
0.0 0.06818870950730922 -0.059183202793769894 0.057925443526904284 0.0012577592668655646 -0.010182625963316618 0.0 0.0
0.0 0.08796126918468672 -0.07609658759184502 0.07475123123020772 0.0013453563616373724 -0.01235044438047462 0.0 0.0
0.0 0.1090527098660208 -0.09455027387452805 0.09312163229260845 0.0014286415819195642 -0.014555141365762065 0.0 0.0
0.0 0.13183450769687213 -0.11422866897824782 0.11272993049424727 0.0014987384840004728 -0.01671433139728404 0.0 0.0
0.0 0.15538351080496315 -0.13458791866880526 0.13304566780900465 0.0015422508598006517 -0.018505127694887855 0.0 0.0
0.0 0.17841713699876446 -0.15450914234668212 0.15297890954333243 0.0015302328033496735 -0.019768528152292613 0.0 0.0
0.0 0.1981688662724027 -0.17155747433574092 0.1701782901491612 0.001379184186579751 -0.022002415872325758 0.0 0.0
0.0 0.20954113224896817 -0.1810708814503525 0.18011767913572765 0.0009532023146247217 -0.030152058759650283 0.0 0.0
0.0 0.2051583928605188 -0.1761812348234352 0.17582639180706813 0.0003548430163670085 -0.050627129059448696 0.0 0.0
0.0 0.19481747702339877 -0.1626806628420583 0.15609300017552774 0.00658766266653054 1.8601439832899302e-14 0.0 0.0
0.0 0.20515839286048598 -0.17618123482340364 0.17582639180703646 0.00035484301636703206 0.05062712905948996 0.0 0.0
0.0 0.20954113224890222 -0.18107088145029415 0.18011767913566806 0.0009532023146262929 0.03015205875968987 0.0 0.0
0.0 0.19816886627230224 -0.1715574743356544 0.17017829014907437 0.0013791841865798422 0.022002415872343868 0.0 0.0
0.0 0.17841713699865033 -0.15450914234658353 0.15297890954323387 0.0015302328033500268 0.0197685281522941 0.0 0.0
0.0 0.15538351080483984 -0.1345879186686986 0.13304566780889807 0.0015422508598005673 0.018505127694884313 0.0 0.0
0.0 0.13183450769674865 -0.11422866897814071 0.11272993049414107 0.0014987384839996803 0.01671433139727793 0.0 0.0
0.0 0.10905270986589016 -0.09455027387441517 0.09312163229249591 0.0014286415819192886 0.014555141365750772 0.0 0.0
0.0 0.08796126918455928 -0.07609658759173492 0.07475123123009739 0.0013453563616374104 0.01235044438046272 0.0 0.0
0.0 0.06818870950719631 -0.05918320279367244 0.057925443526807535 0.0012577592668648727 0.010182625963301129 0.0 0.0
0.0 0.050691197153179546 -0.04403052648639906 0.04285875516860337 0.0011717713177956366 0.007983848883567691 0.0 0.0
0.0 0.03539399475689017 -0.030876334230995162 0.029787395415370992 0.0010889388156241487 0.005776653154225342 0.0 0.0
0.0 0.022721920255220355 -0.019984748763308836 0.01898109317693884 0.0010036555863700155 0.003737567964461359 0.0 0.0
0.0 0.013018649438368156 -0.01156946286718947 0.010672548299566214 0.0008969145676232525 0.0020697676992193015 0.0 0.0
0.0 0.006161717590663272 -0.005656379081952907 0.004935470395563242 0.0007209086863896778 0.0008904216516947743 0.0 0.0
0.0 0.002315358167919963 -0.002007546519898296 0.001598397342700307 0.00040914917719798657 0.00020435340091398663 0.0 0.0
0.0 0.00034466552701821083 -0.00033796566847572347 0.00024230979362592319 9.565587484979992e-05 1.6085593699889438e-05 0.0 0.0
0.0 -8.611366007165464e-06 7.587286536363037e-06 -6.667299096456958e-06 -9.199874399061189e-07 -8.208773312105303e-06 0.0 0.0
0.0 0.0 0.0 0.0 0.0 0.0 0.0 0.0
0.0 0.0 0.0 0.0 0.0 0.0 0.0 0.0
0.0 0.0 0.0 0.0 0.0 0.0 0.0 0.0
0.0 0.0 0.0 0.0 0.0 0.0 0.0 0.0
0.0 0.0 0.0 0.0 0.0 0.0 0.0 0.0
0.0 0.0 0.0 0.0 0.0 0.0 0.0 0.0
0.0 4.2213491888216625e-06 -6.553358332923568e-06 2.468798531427953e-06 4.0845598014956125e-06 9.957370368067901e-06 0.0 0.0
0.0 0.000685432812231392 -0.0005977890463193093 0.0004362324043429895 0.00016155664197632066 7.55219479569585e-05 0.0 0.0
0.0 0.003112416101211449 -0.0028006001972068102 0.002289208111687352 0.0005113920855194554 3.5228331121226584e-05 0.0 0.0
0.0 0.007777194343518447 -0.0070607583723160975 0.006276309453244894 0.0007844489190712103 -0.000326894353767092 0.0 0.0
0.0 0.015417731298887231 -0.013724971212087848 0.012779604058750432 0.0009453671533373986 -0.0009473120271254768 0.0 0.0
0.0 0.02626440523157823 -0.023111486826394727 0.022057148322734234 0.0010543385036605002 -0.0018278453317085222 0.0 0.0
0.0 0.04028838525045068 -0.03526003464461347 0.034112872601491914 0.0011471620431215278 -0.002932349497498441 0.0 0.0
0.0 0.057331310011219 -0.04998143183063673 0.0487453730386185 0.0012360587920182558 -0.004150189084487208 0.0 0.0
0.0 0.07716374458387279 -0.06699737565960748 0.06567062145043481 0.0013267542091726734 -0.005392490393524036 0.0 0.0
0.0 0.0988727809115535 -0.08602987105534127 0.08461122627293034 0.0014186447824108962 -0.006667780279305639 0.0 0.0
0.0 0.12282941417715933 -0.10675519439214382 0.10525223102550108 0.0015029633666426433 -0.007986857110192279 0.0 0.0
0.0 0.14819969779662856 -0.12870982799000794 0.12714333996617616 0.001566488023831897 -0.009264352595598784 0.0 0.0
0.0 0.17413664765225206 -0.15113877397208514 0.14954136782362767 0.0015974061484572383 -0.010231530985013032 0.0 0.0
0.0 0.19924617440888232 -0.1728373561222775 0.17124489578451144 0.0015924603377663034 -0.010483818376631298 0.0 0.0
0.0 0.2212030304418549 -0.19182211412500194 0.19027941523139308 0.0015426988936088604 -0.010503412533568832 0.0 0.0
0.0 0.23564428254347536 -0.20426269043917128 0.20299521411982177 0.0012674763193493473 -0.01512141136839773 0.0 0.0
0.0 0.23454600738702872 -0.20248074876697125 0.2022166087339489 0.00026414003302205195 -0.03835620955787204 0.0 0.0
0.0 0.22583804355285828 -0.18987013125523072 0.18344249635409968 0.006427634901130983 1.0970391262077328e-14 0.0 0.0
0.0 0.23454600738698744 -0.2024807487669337 0.2022166087339112 0.00026414003302234273 0.03835620955789654 0.0 0.0
0.0 0.23564428254340092 -0.20426269043910655 0.20299521411975704 0.0012674763193494937 0.015121411368420106 0.0 0.0
0.0 0.22120303044174439 -0.19182211412490627 0.1902794152312979 0.0015426988936083589 0.01050341253357802 0.0 0.0
0.0 0.1992461744087552 -0.17283735612216786 0.17124489578440158 0.001592460337766189 0.010483818376630871 0.0 0.0
0.0 0.17413664765211123 -0.1511387739719626 0.14954136782350558 0.0015974061484568414 0.010231530985010274 0.0 0.0
0.0 0.14819969779648762 -0.12870982798988598 0.12714333996605473 0.001566488023831348 0.009264352595595635 0.0 0.0
0.0 0.12282941417701554 -0.10675519439201929 0.10525223102537697 0.001502963366642222 0.00798685711018773 0.0 0.0
0.0 0.09887278091141569 -0.08602987105522181 0.08461122627281151 0.0014186447824103274 0.006667780279298911 0.0 0.0
0.0 0.07716374458374309 -0.0669973756594955 0.0656706214503229 0.0013267542091726337 0.005392490393515236 0.0 0.0
0.0 0.057331310011108576 -0.04998143183054108 0.04874537303852337 0.0012360587920177432 0.0041501890844762215 0.0 0.0
0.0 0.0402883852503613 -0.03526003464453526 0.034112872601414525 0.0011471620431207717 0.0029323494974886704 0.0 0.0
0.0 0.026264405231510732 -0.023111486826335324 0.022057148322675333 0.0010543385036599824 0.0018278453317031567 0.0 0.0
0.0 0.015417731298836824 -0.013724971212043203 0.012779604058706526 0.0009453671533366679 0.0009473120271208605 0.0 0.0
0.0 0.007777194343486678 -0.0070607583722875275 0.006276309453217436 0.000784448919070082 0.00032689435376374713 0.0 0.0
0.0 0.00311241610119659 -0.002800600197193738 0.0022892081116759073 0.0005113920855178306 -3.522833112174873e-05 0.0 0.0
0.0 0.0006854328122256695 -0.0005977890463148418 0.00043623240433963056 0.00016155664197521093 -7.552194795658718e-05 0.0 0.0
0.0 4.221349188351866e-06 -6.553358332935591e-06 2.4687985314707316e-06 4.084559801464971e-06 -9.957370367948507e-06 0.0 0.0
0.0 0.0 0.0 0.0 0.0 0.0 0.0 0.0
0.0 0.0 0.0 0.0 0.0 0.0 0.0 0.0
0.0 0.0 0.0 0.0 0.0 0.0 0.0 0.0
0.0 0.0 0.0 0.0 0.0 0.0 0.0 0.0
0.0 0.0 0.0 0.0 0.0 0.0 0.0 0.0
0.0 0.0 0.0 0.0 0.0 0.0 0.0 0.0
0.0 5.75556137289241e-05 -5.622055117582407e-05 3.680047066777137e-05 1.942008050805277e-05 2.1729786188456454e-05 0.0 0.0
0.0 0.0010839720520875672 -0.0009011702359011231 0.0006529813529270571 0.00024818888297406506 0.00021112481036910524 0.0 0.0
0.0 0.003896203160339072 -0.0035103160630193934 0.0028378137139901042 0.0006725023490292883 0.00045260537370261813 0.0 0.0
0.0 0.009043138831736937 -0.008252092648777432 0.007233626077645663 0.0010184665711317794 0.0005893436905679062 0.0 0.0
0.0 0.017292935620293718 -0.01550858041106188 0.0142180106746038 0.0012905697364580856 0.0006434213554959137 0.0 0.0
0.0 0.028886730349392823 -0.025670818124145317 0.024117312012257548 0.0015535061118877517 0.0006005297235459489 0.0 0.0
0.0 0.04400803822193035 -0.03883943283880485 0.03698920596800301 0.0018502268708017826 0.0004112208911341386 0.0 0.0
0.0 0.062460617009413584 -0.05485473377790828 0.05265594155549504 0.0021987922224132317 0.00011193389465255499 0.0 0.0
0.0 0.08357692097692679 -0.0734260241766631 0.07082499033360361 0.0026010338430594725 -0.0002813544880153193 0.0 0.0
0.0 0.10732139923482024 -0.09420943427979254 0.09116769247292131 0.003041741806871172 -0.0007896932154147166 0.0 0.0
0.0 0.13318081935646306 -0.11680690602004686 0.11330984837385875 0.0034970576461881902 -0.001381890271745045 0.0 0.0
0.0 0.16050089785499833 -0.14064044043053248 0.13670980741764832 0.003930633012884032 -0.0020507513252649608 0.0 0.0
0.0 0.188249563562217 -0.16476715286987131 0.16047296731862273 0.004294185551248661 -0.0026533136133867295 0.0 0.0
0.0 0.21476075195201727 -0.18776672509276007 0.1832316922695515 0.004535032823208312 -0.0028669214143885336 0.0 0.0
0.0 0.23780979532368235 -0.20775736809763629 0.20311523550197794 0.00464213259565807 -0.0025772400004560186 0.0 0.0
0.0 0.25427751710385227 -0.22227904162200962 0.21748490953881633 0.004794132083193297 -0.005318207588482159 0.0 0.0
0.0 0.257718970184424 -0.225794420754712 0.22076643507812777 0.005027985676584348 -0.029645754398566496 0.0 0.0
0.0 0.253842068510127 -0.21667722200294354 0.20441586583857146 0.012261356164371547 4.066191827689636e-15 0.0 0.0
0.0 0.25771897018437195 -0.22579442075466696 0.22076643507808222 0.0050279856765845805 0.029645754398574205 0.0 0.0
0.0 0.2542775171037676 -0.22227904162193524 0.2174849095387445 0.004794132083190396 0.0053182075884886035 0.0 0.0
0.0 0.23780979532355778 -0.20775736809752807 0.20311523550187155 0.00464213259565675 0.0025772400004573856 0.0 0.0
0.0 0.21476075195187488 -0.1877667250926357 0.18323169226942912 0.004535032823206424 0.0028669214143846357 0.0 0.0
0.0 0.18824956356206213 -0.16476715286973648 0.16047296731848984 0.004294185551246065 0.0026533136133851595 0.0 0.0
0.0 0.1605008978548439 -0.1406404404303973 0.13670980741751598 0.00393063301288117 0.0020507513252616093 0.0 0.0
0.0 0.13318081935631226 -0.11680690601991511 0.11330984837372968 0.003497057646185378 0.0013818902717418237 0.0 0.0
0.0 0.10732139923467413 -0.09420943427966494 0.09116769247279626 0.003041741806868687 0.0007896932154110945 0.0 0.0
0.0 0.08357692097678551 -0.0734260241765404 0.07082499033348234 0.00260103384305794 0.00028135448801126783 0.0 0.0
0.0 0.062460617009296296 -0.054854733777805705 0.052655941555394645 0.0021987922224110576 -0.00011193389465595678 0.0 0.0
0.0 0.04400803822183367 -0.03883943283872062 0.03698920596792043 0.0018502268708001078 -0.0004112208911374489 0.0 0.0
0.0 0.028886730349318376 -0.025670818124079973 0.02411731201219364 0.0015535061118863254 -0.0006005297235474908 0.0 0.0
0.0 0.01729293562023877 -0.015508580411013002 0.014218010674556261 0.0012905697364567303 -0.0006434213554957313 0.0 0.0
0.0 0.009043138831703627 -0.00825209264874718 0.007233626077617064 0.0010184665711301106 -0.0005893436905671976 0.0 0.0
0.0 0.003896203160323336 -0.0035103160630046946 0.002837813713977261 0.0006725023490274336 -0.0004526053737010299 0.0 0.0
0.0 0.0010839720520813233 -0.0009011702358960991 0.0006529813529233394 0.0002481888829727619 -0.0002111248103679729 0.0 0.0
0.0 5.755561372825184e-05 -5.622055117536666e-05 3.6800470667484e-05 1.9420080507882662e-05 -2.1729786188245895e-05 0.0 0.0
0.0 0.0 0.0 0.0 0.0 0.0 0.0 0.0
0.0 0.0 0.0 0.0 0.0 0.0 0.0 0.0
0.0 0.0 0.0 0.0 0.0 0.0 0.0 0.0
SCALARS Wm float 4
LOOKUP_TABLE default
14.444367681276226 2.0929506467643852 6.2355503359123645 6.115866698599467
7.600676146724702 3.576084908523291 1.83918407314533 2.1854071650560827
0.8821753644299494 0.7767667557880098 0.023408406952547048 0.08200020168939276
0.6272834073684701 0.5631651738353498 0.018099339722015863 0.04601889381110419
1.4120977875727252 0.8946689010239562 0.19084856101605474 0.3265803255327132
3.268467281666049 1.3692697687393742 0.7496987244028868 1.1494987885237873
6.98342659837409 2.042040407684149 2.236046786075722 2.705339404614217
13.13130266307503 2.945802161542972 5.0109722372458325 5.174528264286225
22.333885039117035 4.151020816655488 9.525847516957704 8.657016705503828
34.98721656743075 5.674920633715143 16.130203872978825 13.182092060736808
51.19568610816516 7.501850881026714 24.99853436596951 18.695300861168967
70.72653483392527 9.597994566038423 36.030001431597235 25.098538836289595
93.5117023607494 11.91349406664078 49.317542889218366 32.28066540489025
119.21983307546748 14.387800853232104 64.7064962078548 40.12553601438061
147.2516103718648 16.820657325533837 81.95924085390507 48.47171219242581
176.60201010622427 18.901812178785576 100.61975261150312 57.080445315935506
205.75854312048762 20.301500878339958 119.82669799154598 65.63034425060167
232.89260399059066 20.817598379957303 138.42400316242558 73.65100244820742
256.1835286032756 20.605316895553155 154.96941944262556 80.60879226509712
272.5169931937776 19.1704982460918 167.49248260007118 85.85401234761437
277.5831092468068 16.367715610935793 173.02512725256614 88.19026638330482
272.516993193717 19.170498246067623 167.49248260004487 85.85401234760454
256.1835286032215 20.605316895592733 154.9694194425595 80.60879226506924
232.89260399046304 20.81759837994313 138.42400316234637 73.65100244817344
205.75854312035048 20.30150087833932 119.82669799145103 65.6303442505601
176.6020101060813 18.9018121787862 100.6197526114046 57.08044531589057
147.25161037170045 16.82065732550287 81.959240853815 48.47171219238256
119.2198330753373 14.387800853238254 64.70649620776376 40.12553601433528
93.51170236061205 11.91349406662553 49.31754288913827 32.280665404848236
70.72653483380016 9.597994566021502 36.03000143152772 25.09853883625094
51.19568610806383 7.501850881015743 24.99853436591293 18.695300861135124
34.987216567347105 5.674920633698009 16.130203872938637 13.182092060710469
22.333885039064203 4.151020816651906 9.525847516929241 8.657016705483061
13.131302663038165 2.945802161534357 5.010972237230472 5.174528264273337
6.983426598350684 2.0420404076798864 2.236046786066141 2.7053394046046573
3.268467281655218 1.3692697687364335 0.7496987243996422 1.1494987885191403
1.412097787568706 0.8946689010227761 0.19084856101488315 0.3265803255310469
0.627283407367722 0.5631651738349451 0.01809933972189378 0.04601889381088318
0.8821753644287244 0.7767667557871838 0.023408406952414813 0.08200020168912456
7.600676146719911 3.576084908525286 1.8391840731419633 2.185407165052663
14.444367681244437 2.092950646747484 6.235550335904051 6.115866698592908
17.47011877715172 7.500317458181821 4.898088963389514 5.07171235558039
3.2308637181682456 0.711493932068845 1.0869484800470892 1.4324213060523106
0.30580090478883315 0.3632092427074758 -0.021021809396317672 -0.03638652852232501
0.4778698811495187 0.45244431410399416 0.005515214096778953 0.019910352948745536
1.0539723533088967 0.7219768374901949 0.10866963295330628 0.2233258828653957
2.59991942205202 1.0926731844575708 0.5948798286171884 0.9123664089772604
5.7295972378100055 1.549142722459187 1.849277372363387 2.3311771429874315
11.104551057833216 2.1440249763232817 4.343880688478668 4.616645393031264
19.186195803426052 2.875865458907028 8.450053828740266 7.860276515778759
30.232527281030695 3.7239446676353385 14.438144402470055 12.070438210925305
44.30500136369738 4.65919586168132 22.460743745178867 17.185061756837186
61.375701574569234 5.6808078153528125 32.58718622190426 23.107707537312173
81.04712840612967 6.782686121807394 44.51680798521052 29.747634299111787
103.39126510204129 7.911835877971047 58.47884759871279 37.000581625357455
127.8383273645128 8.984299441172434 74.11937653032875 44.73465139301168
153.615674440147 9.844248019376938 91.03782316213065 52.73360325863935
179.53911775008737 10.316384242627437 108.55130421858982 60.67142928887008
204.0351560675954 10.286348833827645 125.59789155696006 68.15091567680768
225.0088328820908 9.622789672140524 140.7457637835936 74.64027942635663
239.836930027722 8.452620786958516 152.01618261744542 79.36812662331815
245.63373055835365 7.120690852969584 157.0579890141283 81.45505069125583
239.8369300277063 8.45262078698104 152.0161826174184 79.36812662330678
225.00883288201186 9.622789672145503 140.74576378353484 74.64027942633159
204.03515606750653 10.286348833842222 125.5978915568878 68.15091567677662
179.53911774998022 10.316384242645626 108.55130421850306 60.671429288831426
153.6156744400135 9.84424801937319 91.03782316204166 52.73360325859858
127.83832736439088 8.984299441174013 74.11937653024559 44.73465139297131
103.39126510191593 7.9118358779693745 58.47884759863065 37.00058162531592
81.04712840601167 6.782686121799558 44.51680798513877 29.747634299073297
61.37570157446247 5.680807815344588 32.587186221841556 23.107707537276315
44.305001363609406 4.659195861675545 22.460743745127942 17.185061756805922
30.232527280961186 3.7239446676255437 14.438144402434311 12.07043821090133
19.186195803375593 2.8758654588996264 8.45005382871574 7.860276515760214
11.104551057802507 2.14402497631942 4.343880688464278 4.616645393018807
5.729597237791196 1.549142722456957 1.8492773723552456 2.3311771429789916
2.59991942204292 1.092673184455415 0.5948798286140639 0.9123664089734422
1.0539723533057639 0.721976837489542 0.10866963295235343 0.22332588286386848
0.47786988114874973 0.4524443141032336 0.0055152140967529295 0.019910352948763255
0.30580090478885325 0.36320924270726096 -0.02102180939623926 -0.03638652852216823
3.230863718159153 0.711493932066646 1.086948480043696 1.4324213060488136
17.47011877712513 7.500317458171346 4.8980889633807285 5.071712355573037
13.360734512255386 6.031242480503431 3.4657178166485796 3.8637742151033705
2.0379939390011548 0.3234928415184022 0.7288892451114176 0.9856118523713362
0.18728675750006676 0.18681388095373822 0.00013641767142880248 0.0003364588748997632
0.3488203680003657 0.3484447976390551 -0.000468176151699272 0.0008437465130098403
0.7878763012089958 0.6212555829528462 0.047428462547305206 0.11919225570884424
2.0250737698246803 0.9761228024678 0.39897690834923516 0.6499740590076456
4.660515352739347 1.4082683845316428 1.3881266927120366 1.8641202754956676
9.350552459016223 1.9464214234222055 3.5088702670864174 3.895260768507596
16.450421663969223 2.586598339618084 7.050831041580503 6.812992282770639
26.184137794550622 3.31066139545702 12.272783124787795 10.600693274305806
38.53635147742144 4.107985341593024 19.244776249134418 15.183589886694008
53.38457159053308 4.982910310831865 27.927850871735586 20.473810407965622
70.77230854151716 5.944479010922656 38.44074438540421 26.387085145190312
90.2154107733836 6.9653239440777135 50.39529369497776 32.85479313432809
111.68857388947666 7.964563914692644 63.96676212514167 39.75724784964232
134.44407924720107 8.83377078262518 78.68484101016624 46.92546745440964
157.48881400626 9.412655246355678 93.97385933599337 54.1022994239109
179.34000851736016 9.505072133019821 108.95277591197971 60.88216047236072
197.99165823077936 8.970145208312733 122.28058933465113 66.74092368781545
211.1637875737087 8.085963723907188 132.11465345143813 70.96317039836333
216.0211419056112 6.355186523963053 136.72695957570085 72.93899580594727
211.1637875736589 8.0859637238911 132.11465345141485 70.96317039835284
197.99165823068708 8.970145208285834 122.28058933460599 66.74092368779529
179.34000851728453 9.50507213303636 108.95277591191592 60.882160472332224
157.48881400615542 9.412655246361076 93.97385933591825 54.102299423876076
134.44407924707969 8.833770782614625 78.68484101009126 46.92546745437387
111.68857388936328 7.964563914689704 63.966762125067675 39.75724784960588
90.21541077326785 6.965323944067915 50.39529369490809 32.85479313429178
70.7723085414183 5.94447901092048 38.440744385341986 26.387085145155865
53.38457159044013 4.982910310825391 27.927850871681127 20.473810407933648
38.53635147734894 4.107985341593805 19.244776249089682 15.183589886665455
26.18413779449305 3.310661395452666 12.272783124756476 10.600693274283902
16.450421663929294 2.5865983396168195 7.050831041558808 6.812992282753666
9.350552458987533 1.9464214234183412 3.508870267073324 3.8952607684958673
4.660515352724405 1.4082683845305721 1.3881266927055051 1.8641202754883266
2.025073769817769 0.9761228024664039 0.3989769083468619 0.6499740590045024
0.7878763012065613 0.6212555829520169 0.047428462546750955 0.11919225570779336
0.34882036799999866 0.3484447976385511 -0.0004681761516660594 0.0008437465131135967
0.187286757500055 0.18681388095375304 0.00013641767142572915 0.00033645887487629314
2.037993938994452 0.32349284151730695 0.7288892451087394 0.9856118523684041
13.360734512228401 6.031242480492422 3.4657178166401574 3.8637742150958228
10.181389768229078 4.71356152443154 2.4933582835344787 2.9744699602630638
1.3866786829281195 0.14590584443488003 0.5024145744318214 0.7383582640614174
0.13026231829333065 0.13026231829333065 0.0 0.0
0.25696835248243927 0.25978226920763603 -0.0005292794230542729 -0.002284637302142463
0.5821868041532137 0.5216624958176049 0.014352004471430164 0.046172303864178546
1.509355413888435 0.845831839188563 0.23178228378702972 0.4317412909128422
3.7029037337202895 1.2673249464103864 1.0125324888258325 1.4230462984840675
7.66723522802925 1.7470912124455795 2.729917326832579 3.1902266887510957
13.80360281676549 2.3023309131055925 5.728788915142569 5.77248298851733
22.224469402323123 2.915883803448082 10.177624891647715 9.13096070722732
32.863498043264094 3.5869041550749636 16.09541082035392 13.181183067835223
45.698273831172806 4.336273646137018 23.525327583582126 17.836672601453675
60.51914766077237 5.168954493486736 32.31847930073749 23.031713866548124
77.45547595123529 6.073131048706543 42.68014690961895 28.70219799290981
95.9604575225315 7.012435773344277 54.1723290870758 34.77569266211142
115.66945299452567 7.891382545387126 66.66358729547937 41.114483153659165
135.9312726519893 8.55841581830043 79.87810768744006 47.494749146248836
155.27172731389518 8.801611177552875 92.88201755971261 53.588098576629655
171.8942114118797 8.485849244350696 104.50717224385247 58.90118992367653
183.79430450044347 7.769682285464224 113.21922368151405 62.80539853346526
188.2044672738736 5.707947681948173 117.72403220100323 64.77248739092217
183.79430450045362 7.769682285506228 113.21922368149166 62.805398533455644
171.89421141184448 8.48584924436885 104.50717224381569 58.90118992365993
155.2717273138203 8.801611177558094 92.88201755965763 53.58809857660464
135.93127265190216 8.55841581830526 79.87810768737798 47.49474914621896
115.6694529944235 7.891382545377856 66.663587295417 41.11448315362863
95.96045752243485 7.012435773342592 54.172329087013274 34.77569266207892
77.45547595114616 6.073131048708091 42.6801469095601 28.702197992877974
60.519147660680005 5.168954493476161 32.318479300685354 23.031713866518473
45.698273831093694 4.336273646132766 23.52532758353573 17.836672601425203
32.863498043196664 3.586904155070972 16.09541082031571 13.181183067810007
22.224469402272682 2.9158838034464276 10.177624891619402 9.130960707206848
13.803602816729189 2.3023309131042025 5.728788915123301 5.772482988501686
7.667235228005934 1.747091212443218 2.7299173268219645 3.190226688740749
3.7029037337065547 1.2673249464087013 1.0125324888201035 1.423046298477752
1.5093554138832233 0.8458318391876359 0.231782283785263 0.43174129091032476
0.5821868041518699 0.521662495816819 0.014352004471243351 0.04617230386380714
0.25696835248235006 0.2597822692074978 -0.000529279423041574 -0.002284637302106168
0.13026231829303986 0.13026231829303986 0.0 0.0
1.3866786829228357 0.1459058444343368 0.5024145744295895 0.7383582640589095
10.181389768205767 4.713561524421808 2.4933582835277104 2.9744699602562585
7.650278334423605 3.6567717708655314 1.7400158085221682 2.2534907550359113
1.0166145667636335 0.12368385499543452 0.3644606794490347 0.5284700323191636
0.11837102652835574 0.11837102652835574 0.0 0.0
0.20486541921432283 0.2051801328144099 -3.109618450096893e-05 -0.00028361741558613436
0.428582329610477 0.4233750403700687 -0.0014602499078098176 0.006667539148218245
1.0974940867575378 0.7246387916204382 0.11911633042899272 0.2537389647081062
2.825071199346436 1.1067709345225873 0.6941355606552506 1.024164704168599
6.080273944341059 1.5494583667024941 2.021203271930711 2.509612305707854
11.250961490939874 2.024463740063467 4.481656120968459 4.744841629907948
18.37291675102328 2.539198782595469 8.166114180759362 7.667603787668455
27.378353155870276 3.101030136686689 13.096213719215289 11.181109299968291
38.17946318854929 3.7325214178134556 19.246097662671932 15.200844108063894
50.74719198044247 4.45414084897423 26.620047584103123 19.673003547365138
64.838256723408 5.258783498711921 35.02129365503532 24.558179569660727
80.56408414431795 6.115792951038735 44.65506813441176 29.793223058867476
97.47964915206882 6.989354705920115 55.20508462755186 35.28520981859686
114.855469200035 7.749854014251519 66.2299725306942 40.87564265508929
131.77903896934203 8.181370280395743 77.32412583133431 46.27354285761195
146.6142434518713 8.09302161689299 87.45658009534453 51.064641739633814
157.59416790968442 7.528179185883135 95.34752994017687 54.71845878362435
161.76451069975448 5.115571599670565 99.86526014096282 56.78367895912109
157.59416790964968 7.528179185880815 95.3475299401549 54.71845878361392
146.6142434518091 8.09302161687608 87.45658009531377 51.0646417396193
131.77903896927018 8.181370280389515 77.32412583129032 46.273542857590336
114.85546919994968 7.749854014240042 66.22997253064453 40.875642655065114
97.47964915199154 6.9893547059242085 55.20508462749814 35.285209818569186
80.564084144238 6.115792951037129 44.65506813436072 29.7932230588402
64.83825672332658 5.258783498708184 35.02129365498555 24.558179569632845
50.747191980373564 4.4541408489739975 26.62004758406006 19.67300354733951
38.179463188484185 3.7325214178102017 19.24609766263413 15.200844108039846
27.378353155813784 3.1010301366815805 13.096213719184881 11.181109299947328
18.372916750978696 2.5391987825923605 8.166114180735729 7.667603787650613
11.250961490907061 2.0244637400580885 4.481656120953742 4.74484162989523
6.080273944320811 1.5494583667002744 2.0212032719217063 2.5096123056988326
2.8250711993362025 1.1067709345208783 0.6941355606513245 1.024164704164
1.0974940867532448 0.7246387916189184 0.11911633042792283 0.25373896470640317
0.42858232960939635 0.4233750403690683 -0.0014602499078391579 0.006667539148167296
0.20486541921398088 0.20518013281407976 -3.109618450091292e-05 -0.00028361741559798935
0.11837102652809905 0.11837102652809905 0.0 0.0
1.0166145667598014 0.12368385499532263 0.36446067944726607 0.5284700323172139
7.650278334404179 3.6567717708569516 1.7400158085169422 2.2534907550302825
5.647045277450646 2.8115939369456235 1.1858442808043013 1.6496070597007217
0.7232671084720039 0.14621890619724395 0.2140638267665658 0.36298437550819423
0.134177288183797 0.134177288183797 0.0 0.0
0.18241401445225142 0.18236309319552604 5.517593763904932e-06 4.5403662961455047e-05
0.3307467272793214 0.34251767199338823 -0.0036274909926425737 -0.008143453721424044
0.7717045218296174 0.5994994358557493 0.04460318341128971 0.12760190256257803
2.019158519927576 0.9342502095495321 0.3975019551898963 0.687406355188147
4.65812284605299 1.3423496154915109 1.4505829086068427 1.865190321954635
8.79135066377583 1.7540932933428388 3.30075749544849 3.736499874984502
14.677106056523085 2.1821856671581004 6.27834872581909 6.216571663545887
22.069276213253538 2.6464729234894837 10.234627448720955 9.188175841043098
30.89899265687859 3.176339603236066 15.152130289033487 12.570522764609048
41.128533006771754 3.7947263992508673 21.014555393685363 16.31925121383553
52.77284587499962 4.5056965121659704 27.85357372716115 20.4135756356725
65.63826487770456 5.297172444636087 35.524915842589905 24.816176590478545
79.54535018812919 6.129887181050676 43.95846923752825 29.45699376955028
94.34001464405847 6.955857930939925 53.165956415488886 34.21820029762965
108.89281160843643 7.602305561729205 62.36446614124829 38.92603990545894
122.02249935892848 7.77180298832915 71.00556950169735 43.24512686890199
132.32029148073795 7.359948719574049 78.24760157913691 46.71274118202698
136.42707956763562 4.581134023921137 82.91765770458247 48.928287839132096
132.32029148072087 7.359948719578355 78.24760157912245 46.71274118202
122.02249935891297 7.771802988349941 71.00556950167295 43.24512686889013
108.89281160837524 7.602305561716365 62.36446614121574 38.92603990544305
94.3400146440089 6.9558579309513435 53.16595641544848 34.218200297609
79.54535018805245 6.129887181042622 43.95846923748374 29.45699376952611
65.6382648776509 5.2971724446487976 35.52491584254723 24.81617659045488
52.77284587493783 4.505696512166835 27.853573727121752 20.413575635649213
41.12853300670677 3.7947263992425055 21.014555393650497 16.319251213813786
30.89899265682449 3.1763396032317384 15.152130289003631 12.570522764589116
22.069276213208394 2.6464729234878748 10.23462744869569 9.188175841024828
14.677106056489563 2.182185667157717 6.2783487258007185 6.216571663531131
8.791350663751212 1.7540932933401092 3.300757495437104 3.7364998749739997
4.658122846036826 1.3423496154898875 1.4505829085996857 1.8651903219472523
2.0191585199201327 0.934250209548165 0.39750195518727643 0.6874063551846907
0.77170452182654 0.599499435854054 0.04460318341080642 0.12760190256167966
0.3307467272786588 0.3425176719924457 -0.003627490992588158 -0.008143453721198861
0.18241401445201688 0.18236309319531305 5.517593761701003e-06 4.5403662942102065e-05
0.13417728818369495 0.13417728818369495 0.0 0.0
0.7232671084685106 0.14621890619685304 0.21406382676515479 0.3629843755065029
5.647045277436637 2.8115939369401133 1.185844280800385 1.6496070596961399
4.030223611337963 2.1297117751924235 0.7466702463003076 1.153841589845233
0.5371666948001234 0.189009147234025 0.12099348566632927 0.22716406189976895
0.16178580666858444 0.16179130483578733 -2.8514702602354354e-07 -5.213020176798422e-06
0.1794091505849877 0.1794144771108686 -1.9737344837264589e-07 -5.12915243257676e-06
0.27452312452839417 0.28381648259186076 -0.0021204238438872376 -0.007172934219579476
0.5431761313799778 0.4915513198083452 0.007833521688692611 0.04379128988294023
1.38540525995914 0.7703647571047736 0.20606090753557582 0.4089795953187904
3.2777360894086964 1.116162664774083 0.8720349105065444 1.2895385141280697
6.602884527255954 1.4887410502740166 2.3492226774530858 2.764920799528851
11.118811049583574 1.841416459141265 4.4948590599671 4.78253553047521
16.98337088458098 2.2233171080985743 7.551356734502098 7.208697041980312
23.923033678473665 2.6635479009769982 11.309014733433607 9.950471044063057
31.930094782987823 3.1897074670181054 15.764516350271794 12.97587096569793
41.04044679741466 3.8165471810426834 20.945616041121927 16.27828357525006
51.20354770054497 4.533963609756427 26.823580096292346 19.846003994496208
62.430501835466025 5.324794857832734 33.47638507591108 23.629321901722175
74.13720963737764 6.174785318004791 40.39907010667946 27.563354212693415
86.4477511192818 7.006804416550089 47.914704919088436 31.526241783643265
98.2166717184377 7.48656448869895 55.36636461665753 35.3637426130812
107.92032637378863 7.276906431265551 61.93556760435448 38.70785233816859
112.15843203160235 4.119302426784467 66.8809565482447 41.158173056573126
107.92032637375857 7.276906431246364 61.935567604347185 38.707852338165
98.2166717183848 7.486564488672704 55.366364616639835 35.36374261307231
86.44775111923737 7.006804416540752 47.914704919065464 31.52624178363116
74.13720963732972 6.174785318009815 40.399070106645276 27.563354212674618
62.43050183539379 5.324794857808407 33.47638507588034 23.62932190170503
51.203547700478936 4.533963609743356 26.823580096259114 19.846003994476472
41.04044679736173 3.81654718103737 20.94561604109259 16.278283575231768
31.930094782946828 3.1897074670188745 15.764516350246653 12.975870965681308
23.923033678429 2.663547900970251 11.309014733411367 9.950471044047372
16.98337088454371 2.223317108096942 7.551356734481964 7.208697041964805
11.118811049555815 1.8414164591402886 4.494859059952619 4.782535530462903
6.602884527236818 1.4887410502727105 2.3492226774438687 2.764920799520238
3.277736089397401 1.116162664774092 0.8720349105012822 1.2895385141220266
1.3854052599538593 0.7703647571039276 0.20606090753377004 0.4089795953161611
0.5431761313783638 0.4915513198075995 0.007833521688442011 0.043791289882323135
0.2745231245277072 0.2838164825909713 -0.002120423843845779 -0.007172934219418482
0.17940915058445528 0.17941447711032882 -1.9737344783652903e-07 -5.129152425718009e-06
0.16178580666824047 0.16179130483543397 -2.851470254176852e-07 -5.213020168041371e-06
0.5371666947979733 0.1890091472339569 0.12099348566541873 0.2271640618985975
4.030223611326669 2.1297117751874 0.7466702462975868 1.1538415898416858
2.8419092674239237 1.6203714826367943 0.48104057313377535 0.7404972116533537
0.39144640017147125 0.21932768093213928 0.04719789891522554 0.12492082032410667
0.190401146592583 0.19002657883473106 4.201053674380317e-05 0.0003325572211080807
0.18798679910329438 0.18794698511428956 -7.426192838273048e-07 4.055660828861847e-05
0.24643467162736274 0.25214544620910273 -0.0011814265786509613 -0.00452934800308887
0.40201595662408374 0.4014177379420373 -0.004289648206039682 0.00488786688808599
0.8907829248824539 0.6102257209038808 0.0782960687535866 0.20226113522498634
2.1398760431067005 0.8909743350652051 0.45985456689695503 0.7890471411445412
4.449356201701511 1.2031484086834545 1.3838161655017704 1.8623916275162875
7.894793132598742 1.5105640493400088 2.9970772336408578 3.3871518496178767
12.157209016392475 1.8225302931685192 5.085809986740563 5.248868736483399
17.267674172384424 2.1873616615356894 7.730091056671158 7.3502214541775865
23.17021985292505 2.630720333293072 10.886720373897239 9.652779145734739
29.87840698727876 3.173920377886578 14.540120760799052 12.164365848593127
37.487309989098655 3.8294178759078887 18.764995077056888 14.892897036133883
45.85715875023757 4.5699008985112 23.464808080059246 17.822449771667117
55.00302942034216 5.385953670142283 28.721233729446414 20.895842020753435
64.71330736686677 6.343416237177025 34.2652541369318 24.104636992757936
74.76702127149449 7.182442928983336 40.16797187283834 27.4166064696728
84.1329993894808 7.288679470977728 46.20984573689071 30.634474181612333
88.75409562667124 3.7489860451871984 51.58052334244695 33.42458623903708
84.13299938950266 7.288679471005427 46.209845736886855 30.634474181610376
74.7670212714995 7.182442929005858 40.167971872826975 27.41660646966668
64.71330736684027 6.343416237175078 34.26525413691619 24.104636992749015
55.00302942029812 5.385953670139095 28.72123372942063 20.8958420207384
45.85715875021844 4.569900898527659 23.464808080037113 17.822449771653627
37.487309989059014 3.82941787590448 18.764995077034722 14.892897036119834
29.878406987238495 3.1739203778765637 14.540120760780946 12.164365848580989
23.17021985289475 2.63072033329398 10.88672037387897 9.652779145721777
17.2676741723569 2.1873616615365488 7.730091056655108 7.35022145416524
12.157209016361328 1.8225302931613714 5.085809986727458 5.248868736472495
7.894793132578596 1.5105640493392982 2.997077233630647 3.387151849608654
4.449356201688297 1.203148408682426 1.3838161654958272 1.8623916275100432
2.1398760430969954 0.8909743350627207 0.45985456689380505 0.7890471411404697
0.8907829248788555 0.6102257209027753 0.07829606875270541 0.20226113522337494
0.4020159566228094 0.4014177379409724 -0.004289648206113518 0.004887866887950189
0.24643467162668398 0.25214544620823276 -0.0011814265786116223 -0.004529348002937123
0.18798679910284322 0.18794698511363822 -7.42619271490518e-07 4.055660847645987e-05
0.1904011465921526 0.19002657883425944 4.201053674639677e-05 0.00033255722114672326
0.39144640017001286 0.21932768093201466 0.04719789891471155 0.12492082032328623
2.841909267415587 1.620371482633544 0.4810405731315121 0.7404972116505318
1.8685934976304248 1.2000300657263199 0.23235597890700674 0.4362074529970981
0.2997723085696171 0.23762402805734442 0.01252398637785323 0.04962429413441941
0.21398804860442813 0.21384042701963835 2.619050325795223e-05 0.00012143108153189404
0.20291768078382882 0.20311158937262275 -2.174386486436606e-05 -0.00017216472392955756
0.2349561584084295 0.23872298892600857 -0.0008803360997261768 -0.002886494417852891
0.32924743126411116 0.3358194156808201 -0.004233514990492774 -0.0023384694262162573
0.5669651774292477 0.47726787151995104 0.016581348723368538 0.07311595718592807
1.241908130453585 0.6716160719852156 0.18626945556479454 0.3840226029035751
2.630865409222953 0.9088008129922722 0.668433544688094 1.0536310515425864
4.820471869447305 1.157318160152309 1.5941302317015362 2.069023477593461
7.637313455896098 1.4159635701638333 2.876961086848721 3.3443887988835437
11.039530627033683 1.7195693501539735 4.527717958188085 4.792243318691621
14.951098189893244 2.09219679821409 6.480837758937823 6.378063632741331
19.40967547038846 2.5536692851212472 8.748902974702304 8.107103210564913
24.52747391317428 3.1337480703441862 11.39334473720033 10.000381105629753
30.359042234637144 3.837018537644929 14.448777860284665 12.073245836707562
36.80931956487572 4.611946382608656 17.886394430064268 14.310978752202788
43.850546776186036 5.501257225182889 21.648112902492105 16.701176648511044
52.11391172945933 6.68557689121207 26.047307220969113 19.381027617278168
61.22233343100237 7.415752427832497 31.369527870412924 22.437053132756922
66.48391767101542 3.5350738000714435 37.157789721146315 25.79105414979767
61.22233343100552 7.415752427841255 31.369527870409392 22.43705313275489
52.113911729421524 6.685576891184175 26.047307220962846 19.38102761727448
43.85054677619385 5.501257225214351 21.648112902477425 16.70117664850206
36.809319564820065 4.611946382576977 17.886394430049613 14.310978752193474
30.359042234610936 3.8370185376467174 14.448777860267867 12.073245836696374
24.52747391314878 3.133748070342948 11.39334473718607 10.000381105619754
19.40967547037622 2.5536692851279685 8.748902974691417 8.107103210556842
14.951098189872985 2.092196798213744 6.480837758926755 6.37806363273249
11.03953062700898 1.7195693501477618 4.5277179581780045 4.792243318683216
7.637313455882596 1.415963570164506 2.8769610868414386 3.3443887988766496
4.820471869432162 1.1573181601489537 1.5941302316956618 2.0690234775875496
2.630865409214321 0.9088008129905836 0.6684335446849546 1.0536310515387828
1.2419081304487742 0.6716160719829943 0.18626945556377072 0.3840226029020095
0.5669651774272643 0.47726787151916156 0.016581348722942247 0.07311595718516067
0.32924743126317024 0.33581941567969886 -0.004233514990471551 -0.002338469426056963
0.2349561584083183 0.23872298892559593 -0.0008803360996898064 -0.002886494417587826
0.20291768078368114 0.20311158937249732 -2.174386486172434e-05 -0.00017216472395449923
0.21398804860402776 0.2138404270190071 2.619050327945671e-05 0.00012143108174117952
0.29977230856853354 0.23762402805704658 0.012523986377550657 0.04962429413393617
1.8685934976247756 1.2000300657239527 0.23235597890563633 0.4362074529951869
1.1954904033177856 0.8938750184881763 0.09430308189475836 0.2073123029348511
0.23760276093355132 0.23682186545859613 -0.003228847278203171 0.004009742753158311
0.23033263249488845 0.22928538925350653 0.00014160494955651746 0.0009056382918253891
0.22025062178433472 0.21947397095503346 9.109329924308134e-05 0.0006855575300581369
0.23616475376879278 0.23856099770566394 -0.0007075298406512893 -0.0016887140962199036
0.29978612479326405 0.30240039126874974 -0.002107084118978894 -0.0005071823565067912
0.4100064209271318 0.37810288689139265 0.003955810025721262 0.02794772401001778
0.6331585269814104 0.4631390427652322 0.04287247669495806 0.1271470075212201
1.1759856874623567 0.5916051030068088 0.19093037414507316 0.39345021031047417
2.1915628532733074 0.7479247937583271 0.5477075653292665 0.8959304941857136
3.6751352604028535 0.9364584552060414 1.1557229020418818 1.5829539031549302
5.450115329189472 1.1610253583387864 1.8996825842235412 2.3894073866271466
7.56340206061348 1.4472127982237422 2.8328534447157496 3.28333581767399
10.030276925678075 1.8177244477632986 3.9441072145867997 4.268445263327977
12.91985075392325 2.2998399160397804 5.252521676582471 5.367489161300994
16.367428586342015 2.928044285093763 6.819492560954912 6.619891740293336
20.46545724097411 3.6865414883315757 8.72000175619992 8.058913996442612
25.10752823996615 4.44407683826382 10.990110368196774 9.67334103350556
30.756326799223245 5.482811296595892 13.715406245762091 11.558109256865235
39.08178209556557 7.284065008353659 17.627963235841598 14.169753851370332
46.44007426067619 3.691351815805188 24.37276723112563 18.37595521374537
39.08178209552864 7.284065008311487 17.627963235844764 14.16975385137238
30.756326799237684 5.48281129661037 13.715406245762052 11.55810925686525
25.10752823992309 4.444076838239892 10.990110368185483 9.67334103349772
20.46545724096387 3.686541488331355 8.720001756194101 8.058913996438415
16.367428586314933 2.928044285080365 6.8194925609471895 6.619891740287375
12.919850753914005 2.299839916042764 5.252521676575824 5.367489161295424
10.030276925657335 1.817724447751294 3.9441072145820235 4.268445263324017
7.563402060602609 1.447212798222969 2.8328534447104703 3.283335817669164
5.450115329183358 1.1610253583414702 1.8996825842191496 2.389407386622739
3.675135260392939 0.9364584552050265 1.155722902037602 1.5829539031503113
2.1915628532676132 0.7479247937567861 0.54770756532741 0.895930494183417
1.175985687459394 0.5916051030064085 0.19093037414405978 0.39345021030892546
0.6331585269804718 0.46313904276534806 0.04287247669461974 0.12714700752050434
0.4100064209259108 0.37810288689080346 0.003955810025519019 0.027947724009588053
0.2997861247924201 0.3024003912676806 -0.00210708411895803 -0.0005071823563024438
0.23616475376879972 0.23856099770543196 -0.0007075298406156933 -0.0016887140960165563
0.2202506217838952 0.2194739709544805 9.10932992497418e-05 0.000685557530164949
0.2303326324945727 0.2292853892530799 0.0001416049495661836 0.0009056382919265567
0.2376027609328861 0.2368218654582743 -0.0032288472782926545 0.0040097427529045115
1.1954904033140603 0.8938750184862366 0.09430308189407431 0.20731230293374897
0.7379832596929724 0.6534965253597709 0.019524210136007695 0.06496252419719366
0.2044202549218359 0.2154948623839805 -0.0029361193453505837 -0.008138488116794103
0.2396253186591598 0.23989661466092416 -2.5839784823582785e-05 -0.00024545621694082936
0.23699074730961983 0.2356784889709 0.00017377065925346783 0.0011384876794663555
0.24809114130066434 0.2484221280302011 -0.0003939764820047724 6.298975246795598e-05
0.29642307138280904 0.29602024633999047 -0.0012218567674893988 0.00162468181030809
0.3740359906423919 0.34094877469004425 0.006208586955082793 0.026878628997265015
0.4317899489866453 0.33571291896910777 0.02499209986422042 0.07108493015331709
0.498371979234202 0.290880691334143 0.06919220639883289 0.13829908150122616
0.6939971966831728 0.28647914480734515 0.14734668655831495 0.26017136531751367
1.1411485250803057 0.3102448617764154 0.3304052454910159 0.5004984178128731
1.796708287824213 0.3121244946392249 0.606747404724879 0.8778363884601088
2.6541156027805166 0.33634491142950346 0.9945295685022201 1.3232411228487924
3.6994809015090144 0.40859891740950544 1.4694294776077654 1.821452506491748
4.954616757829699 0.5539120819205643 2.031375911910501 2.3693287639986305
6.417288089072718 0.7949178560160535 2.6636419701856457 2.95872826287102
8.132913839288783 1.1561760130112702 3.3966703942862346 3.5800674319912784
10.051836329462514 1.5965225170390254 4.2288622335797585 4.2264515788437365
12.656072345577094 2.2424982863694725 5.335251467061153 5.078322592146473
19.659367056520043 4.675759733713083 7.684314029215404 7.299293293591559
32.85300372839994 4.115500393852457 15.642491365580822 13.095011968966645
19.659367056562065 4.675759733745647 7.68431402922102 7.299293293595403
12.656072345571252 2.242498286367427 5.3352514670590345 5.078322592144789
10.051836329447303 1.5965225170346558 4.228862233573874 4.226451578838775
8.132913839302153 1.15617601302848 3.3966703942838743 3.5800674319897943
6.4172880890711905 0.7949178560211239 2.663641970182065 2.9587282628679996
4.954616757823534 0.5539120819194221 2.031375911907908 2.3693287639962026
3.699480901515691 0.40859891741833726 1.4694294776065306 1.821452506490822
2.654115602771333 0.33634491142706446 0.9945295684988348 1.3232411228454342
1.7967082878151295 0.3121244946361595 0.6067474047221011 0.8778363884568698
1.1411485250767759 0.3102448617772071 0.3304052454890123 0.5004984178105562
0.6939971966831383 0.2864791448071433 0.14734668655828742 0.26017136531770824
0.49837197923404 0.29088069133423183 0.06919220639870918 0.13829908150109863
0.4317899489855991 0.335712918969004 0.024992099863875905 0.07108493015271944
0.37403599064151616 0.34094877468939966 0.006208586954986663 0.026878628997129783
0.2964230713819779 0.29602024633900476 -0.001221856767481353 0.0016246818104545023
0.2480911413004428 0.24842212802980185 -0.0003939764819850598 6.29897526260657e-05
0.23699074730909428 0.23567848897025345 0.00017377065926457483 0.0011384876795760403
0.23962531865878345 0.2398966146604237 -2.5839784803213188e-05 -0.0002454562168369891
0.20442025492171184 0.21549486238354418 -0.0029361193452992537 -0.008138488116533166
0.7379832596908401 0.6534965253584735 0.019524210135717073 0.06496252419664977
0.46520173408287124 0.46233343629718576 0.00023600585608487407 0.0026322919296006353
0.18814925713262132 0.18927802367888966 -0.00012731839020105364 -0.0010014481560673741
0.24219799107217527 0.2417641183022503 1.0367004996154294e-05 0.0004235057649288318
0.25095345285196247 0.24942148208681056 0.0001974405448495287 0.0013345302203024861
0.2664899990627538 0.2650974976448756 -0.00012668342107430305 0.0015191848389525123
0.3195476243726808 0.3145554861379851 -0.0007039806237890431 0.005696118858484718
0.4254788782509032 0.3854557105860575 0.00711851965642033 0.032904648008425776
0.6428830260502916 0.46551866420975585 0.04579418237746594 0.1315701794630696
1.1792696440727821 0.5916496236478984 0.19228857106554614 0.3953314493593377
2.191299609623519 0.7476190165301018 0.5476344240634786 0.8960461690299375
3.6830708379077803 0.9388735854195741 1.1588625735503684 1.585334678937839
5.480870818687142 1.1660001169586507 1.9140665024577896 2.400804199270703
7.617854668085383 1.4533165694693642 2.8580460207194047 3.306492077896611
10.054416056391972 1.8109047642002292 3.9621677898509517 4.281343502340794
12.689544307683363 2.239542367642322 5.162838355217641 5.287163584823397
15.357765275241778 2.7374493205136825 6.372400291383276 6.247915663344823
17.729074311035333 3.2807569495944717 7.411071128228796 7.037246233212053
19.61573972676297 3.925806755221537 8.170120839884907 7.519812131656534
20.256556434172182 4.372837090701372 8.333305728280376 7.5504136151904255
16.674550369327385 3.3260571708110724 7.145960885334283 6.20253231318202
33.28713064917608 6.090228971044359 14.553681225284985 12.64322045284673
16.674550369317856 3.326057170794523 7.1459608853383285 6.202532313185002
20.256556434190294 4.372837090717317 8.333305728281541 7.550413615191445
19.615739726741705 3.925806755214727 8.170120839876526 7.519812131650436
17.729074310991884 3.28075694956751 7.4110711282194135 7.037246233204977
15.357765275221343 2.737449320508447 6.372400291374746 6.247915663338143
12.689544307660357 2.2395423676327404 5.162838355210384 5.287163584817241
10.054416056369625 1.8109047641904286 3.9621677898441594 4.281343502335039
7.617854668071182 1.4533165694700019 2.8580460207116545 3.3064920778895246
5.480870818672485 1.1660001169586716 1.9140665024504442 2.4008041992633693
3.683070837893522 0.9388735854160893 1.1588625735450908 1.5853346789323408
2.191299609614047 0.7476190165279657 0.5476344240602076 0.8960461690258743
1.1792696440691999 0.5916496236471032 0.19228857106445135 0.39533144935764497
0.6428830260483388 0.46551866420956933 0.045794182376845474 0.1315701794619237
0.4254788782497589 0.38545571058530337 0.007118519656281024 0.03290464800817439
0.31954762437181033 0.31455548613691864 -0.0007039806237860223 0.005696118858677738
0.26648999906244975 0.26509749764443785 -0.00012668342106118548 0.0015191848390731005
0.25095345285169135 0.24942148208635684 0.0001974405448661854 0.001334530220468436
0.24219799107207188 0.24176411830204003 1.0367005001002041e-05 0.00042350576503071154
0.18814925713264394 0.18927802367892752 -0.00012731839020341774 -0.0010014481560800656
0.4652017340816298 0.46233343629578877 0.00023600585609049007 0.0026322919297505896
0.298852702085333 0.29892995497816754 -5.288107123057896e-06 -7.196478571146139e-05
0.1736538118106857 0.17380500646162522 -1.3855437978463625e-05 -0.00013733921296108003
0.2384053038952271 0.23908834541330465 -0.00012616863220255977 -0.0005568728858749461
0.2606053665140431 0.2590330762407632 0.00013909106301354492 0.0014331992102662608
0.28958321843350393 0.2901687544418933 -0.0004501290817513548 -0.0001354069266380525
0.3694162952241163 0.3610852797014735 -1.785303268487604e-06 0.008332800825910668
0.5907675465294919 0.47910614683313846 0.022606496359771626 0.08905490333658174
1.253416414155828 0.672393496461694 0.19090888396057398 0.39011403373356046
2.6316888354451446 0.908364778705993 0.6689518798173042 1.0543721769218475
4.820219028174682 1.1574486311777121 1.5937818256875356 2.068988571309432
7.646168178202339 1.417671858997536 2.8805569413128747 3.347939377891928
11.067231737271879 1.7233530926253557 4.540664813348099 4.803213831298427
14.993279428252766 2.093748861871829 6.503725672111213 6.39580489426973
19.399462631956425 2.534559436894995 8.754646944950961 8.11025625011046
24.23281234027519 3.049435863043567 11.271854981022353 9.911521496209271
29.258780480287214 3.626580798676443 13.920776622124169 11.711423059486593
34.074994894926185 4.276301185736031 16.435068711670276 13.363624997519889
38.103834201003544 5.012487050432421 18.41628833535715 14.675058815213944
40.06143675946063 5.400594595286402 19.397169686313756 15.263672477860478
37.40385728514115 5.293140542507997 17.94720888060736 14.163507862025794
46.19864236925616 10.801821908631975 19.78328863469475 15.613531825929442
37.40385728515056 5.293140542508739 17.94720888061276 14.163507862029054
40.06143675941787 5.400594595246096 19.397169686312136 15.263672477859624
38.10383420098137 5.012487050433773 18.416288335342696 14.675058815204896
34.074994894895596 4.276301185737965 16.435068711650526 13.36362499750709
29.258780480254607 3.6265807986717484 13.920776622107498 11.711423059475361
24.232812340244408 3.049435863040596 11.271854981006019 9.911521496197786
19.399462631926397 2.534559436890905 8.754646944936109 8.110256250099388
14.993279428218031 2.093748861864356 6.503725672095901 6.395804894257765
11.067231737244047 1.7233530926230625 4.540664813334216 4.803213831286769
7.64616817817582 1.4176718589930573 2.880556941301427 3.347939377881339
4.820219028160299 1.157448631177665 1.5937818256804246 2.068988571302211
2.631688835434233 0.9083647787040998 0.6689518798131955 1.0543721769169367
1.2534164141519017 0.6723934964612664 0.1909088839592184 0.39011403373141706
0.590767546526985 0.4791061468321352 0.022606496359223807 0.08905490333562627
0.3694162952233483 0.3610852797005984 -1.7853032381945615e-06 0.00833280082598798
0.2895832184330397 0.29016875444109286 -0.0004501290817165061 -0.00013540692633664067
0.2606053665136187 0.259033076240183 0.00013909106302532957 0.0014331992104102743
0.23840530389512316 0.23908834541301113 -0.00012616863218434615 -0.0005568728857035476
0.17365381181052228 0.17380500646152863 -1.38554379836656e-05 -0.00013733921302268306
0.2988527020844422 0.2989299549772812 -5.288107123425113e-06 -7.196478571559829e-05
0.18596024170632303 0.18596024170632303 0.0 0.0
0.15463512737205554 0.1546289238904432 1.007978457370748e-06 5.195503154994493e-06
0.2279695584602445 0.2288003392469603 -0.0001225169195664464 -0.0007082638671492989
0.2665066966163733 0.2669547716570629 -0.00015929340352416219 -0.00028878163716556797
0.3166836717231345 0.31557961917005206 -0.0004188459642889594 0.0015228985173713812
0.4508569545447058 0.4177188659941563 0.0030032768997634296 0.030134811650786637
0.9233409213681424 0.6165542660316967 0.09049920131905848 0.21628745401738703
2.1465737473660145 0.89099789071061 0.4634409506194465 0.7921349060359576
4.447329233037879 1.203228288088914 1.3827270697743326 1.861373875174629
7.896562313449009 1.5112026733561659 2.997918695904962 3.38744094418788
12.165942916086852 1.8237028816074075 5.088650412942172 5.253589621537271
17.28498866925183 2.1886344984437125 7.7393132007530445 7.357040970055086
23.17701470697905 2.6268492616771018 10.893098710165953 9.657066735135981
29.805430995942984 3.1447962654022596 14.514143753293045 12.146490977247694
37.14364110742045 3.7346907770124504 18.61347184718847 14.795478483219533
44.85979560175206 4.381102235582212 22.963855952132423 17.514837414037427
52.59065075723881 5.0734657574873 27.400856569209218 20.116328430542303
59.017396972515556 5.634547118770948 31.092539980101876 22.29030987364274
62.20944019418593 5.818675958408743 33.01257929547459 23.378184940302596
58.26801692867225 5.2269091374383745 30.900145882328133 22.14096190890572
65.13356111664855 13.881843978401154 29.726757043807783 21.524960094439628
58.2680169286785 5.226909137440566 30.900145882330712 22.140961908907194
62.2094401941774 5.818675958414419 33.012579295465585 23.37818494029744
59.017396972504855 5.634547118787158 31.092539980084766 22.290309873632932
52.59065075720475 5.073465757493813 27.400856569183684 20.11632843052723
44.859795601708846 4.3811022355793945 22.963855952107327 17.514837414022118
37.14364110737644 3.734690777009467 18.613471847163414 14.79547848320356
29.80543099590462 3.144796265402615 14.51414375326982 12.146490977232181
23.177014706940284 2.626849261679066 10.893098710142128 9.6570667351191
17.28498866921643 2.18863449844277 7.739313200733431 7.357040970040219
12.16594291605697 1.8237028816087313 5.088650412925084 5.253589621523162
7.896562313423864 1.5112026733526942 2.9979186958935706 3.3874409441775977
4.447329233023448 1.2032282880879657 1.3827270697677485 1.8613738751677342
2.1465737473564186 0.8909978907067987 0.46344095061692336 0.7921349060326963
0.9233409213639947 0.6165542660307578 0.09049920131785982 0.21628745401537725
0.4508569545430712 0.41771886599295965 0.0030032768996093714 0.03013481165050219
0.31668367172279493 0.3155796191694385 -0.00041884596425454426 0.001522898517610953
0.26650669661618265 0.2669547716567269 -0.00015929340350630603 -0.0002887816370379819
0.22796955845977532 0.2288003392465517 -0.00012251691957315604 -0.0007082638672032064
0.15463512737160245 0.15462892388997218 1.007978458860101e-06 5.195503171416637e-06
0.18596024170596984 0.18596024170596984 0.0 0.0
0.10925144606336729 0.10925144606336729 0.0 0.0
0.13080452521593447 0.13080029914220706 2.3276924337965782e-07 3.99330448403657e-06
0.2117061913412648 0.21215463558403014 -6.0384768139423376e-05 -0.00038805947462592245
0.26884575529398697 0.26932111893999916 -0.00023321308004885905 -0.00024215056596338906
0.3491053586957084 0.34958451175866045 -0.0012044594923786268 0.0007253064294265666
0.5965108352857793 0.5057000094530014 0.021170091482579492 0.06964073435019819
1.4034043529717104 0.7668847282064126 0.21358671724283976 0.4229329075224584
3.278002258761595 1.1168453866934476 0.8723361806373536 1.2888206914307936
6.600408911994734 1.4895738904425406 2.347469653175434 2.763365368376757
11.122665600542232 1.8422670216427206 4.496286467700003 4.784112111199509
16.99171077980547 2.2229724193474514 7.556560714385135 7.212177646072885
23.918737181213316 2.6591294035465736 11.309174578647372 9.95043319901937
31.879362751243963 3.1757453530700026 15.742552510363984 12.961064887810007
40.889519138299505 3.781924323063038 20.874221214126106 16.233373601110326
50.86336482669151 4.462684386692259 26.65486316715588 19.745817272843375
61.65502158247322 5.183696265883356 33.07136833476361 23.399956981826264
72.08124272919359 5.813893012987027 39.30379918406618 26.96355053214043
80.95940225711044 6.140846349539286 44.896724858732846 29.921831048838282
85.02258228336028 5.832563353359305 47.78741325199026 31.402605678010715
80.0550431021276 5.294592683916002 44.891667667486495 29.868782750725103
86.5523077443465 16.984400434276598 41.460351830913886 28.107555479156012
80.05504310211 5.294592683904572 44.89166766748263 29.868782750722833
85.022582283359 5.832563353375227 47.787413251978876 31.402605678004864
80.95940225705444 6.140846349518379 44.896724858709966 29.921831048826096
72.08124272912478 5.813893012970808 39.30379918403212 26.963550532121857
61.655021582393374 5.183696265862506 33.07136833472595 23.399956981804916
50.86336482661905 4.4626843866768295 26.654863167120137 19.745817272822066
40.889519138239265 3.78192432305583 20.874221214093453 16.233373601089973
31.87936275119285 3.1757453530700546 15.742552510333095 12.961064887789698
23.91873718116123 2.659129403540306 11.309174578620578 9.950433199000354
16.991710779760332 2.222972419342094 7.556560714362675 7.212177646055561
11.12266560050999 1.8422670216411214 4.496286467683459 4.78411211118541
6.600408911971737 1.4895738904381248 2.3474696531658266 2.7633653683677903
3.278002258748806 1.1168453866909738 0.8723361806325205 1.2888206914253106
1.4034043529647728 0.7668847282047887 0.2135867172406678 0.4229329075193159
0.5965108352835523 0.5057000094517217 0.021170091482282712 0.06964073434954828
0.3491053586953048 0.3495845117579831 -0.001204459492332741 0.0007253064296543947
0.2688457552937556 0.269321118939554 -0.00023321308003369296 -0.0002421505657647769
0.2117061913409836 0.21215463558377856 -6.0384768142419365e-05 -0.0003880594746525076
0.1308045252157524 0.13080029914202504 2.3276924336996675e-07 3.9933044839934034e-06
0.10925144606325848 0.10925144606325848 0.0 0.0
0.0603206626046202 0.0603206626046202 0.0 0.0
0.10446506370491865 0.10446506370491865 0.0 0.0
0.1907650290176498 0.19087592000771464 -1.3985596021747232e-05 -9.690539404306594e-05
0.26886560349427346 0.27099695580836736 -0.0004263247020850575 -0.0017050276120089251
0.39357809422938433 0.38666170823572127 -0.0009268674214298871 0.007843253415092823
0.8141853019653402 0.607622723210331 0.05918520479858487 0.14737737395642436
2.031210908723407 0.9336094282602727 0.4043244059802772 0.6932770744828578
4.654889120055654 1.343991921753957 1.4484066816083143 1.8624905166933814
8.790903037943835 1.7554399589575673 3.2999561103670123 3.7355069686192586
14.68324183351727 2.182812702382142 6.2813571836313 6.219071947503823
22.071512232073324 2.6434985746983726 10.23766791702809 9.190345740346867
30.86386249996593 3.163080223917465 15.139050648074834 12.56173162797364
41.006606078323685 3.7665742126638775 20.956906074308865 16.283125791350933
52.54164931008331 4.472009743784104 27.72939324456005 20.340246321739155
65.31780755209063 5.26814300271503 35.33810942383031 24.711555125545303
78.977771337505 6.03325330093965 43.65153811766244 29.292979918902972
92.61299131959397 6.553186927319377 52.292461206498984 33.767343185775594
103.50199736904565 6.496458016200813 59.51350660705234 37.49203274579253
108.10409677794553 5.766953376644456 63.02575135769453 39.31139204360651
102.6987761231787 5.540396998552211 59.63348895742585 37.52489016720061
109.93590256634354 20.09706981701961 54.78764935258146 35.05118339674248
102.69877612315969 5.54039699855007 59.63348895741471 37.524890167194904
108.10409677787518 5.766953376607098 63.025751357672476 39.3113920435956
103.5019973689984 6.49645801620282 59.51350660701955 37.492032745776015
92.61299131953169 6.553186927325355 52.29246120645405 33.76734318575229
78.97777133745892 6.033253300962815 43.65153811761728 29.292979918878853
65.31780755201754 5.268143002716081 35.338109423782846 24.7115551255186
52.54164931001729 4.472009743785399 27.729393244517738 20.34024632171415
41.00660607825584 3.7665742126592647 20.956906074269956 16.28312579132663
30.863862499905665 3.1630802239157085 15.139050648039692 12.561731627950252
22.07151223202201 2.6434985746963804 10.237667916999465 9.19034574032617
14.683241833479604 2.182812702380715 6.281357183611125 6.219071947487764
8.790903037915589 1.755439958953899 3.299956110354264 3.735506968607427
4.654889120038461 1.3439919217519594 1.4484066816008074 1.8624905166856918
2.0312109087148893 0.9336094282584203 0.4043244059774213 0.6932770744790491
0.8141853019615459 0.6076227232083472 0.059185204797913976 0.1473773739552847
0.3935780942285192 0.38666170823492574 -0.0009268674214671847 0.007843253415060775
0.2688656034937652 0.27099695580768784 -0.0004263247020620803 -0.0017050276118606561
0.19076502901761466 0.19087592000770295 -1.3985596023878734e-05 -9.690539406441795e-05
0.10446506370486268 0.10446506370486268 0.0 0.0
0.06032066260434467 0.06032066260434467 0.0 0.0
0.031201039047734656 0.031201039047734656 0.0 0.0
0.07878184482005 0.07878184482005 0.0 0.0
0.16758632942387514 0.1675795126602072 3.960330448053176e-07 6.420730623111643e-06
0.2694029963784495 0.2714439006081461 -0.00044315025121678263 -0.0015977539784798804
0.46617979403438947 0.4437142283518113 0.0034873611146676742 0.018978204567910863
1.1054499969137048 0.7116767528980024 0.1214587792581196 0.2723144647575829
2.828897826474127 1.1072236395203845 0.6971834529921241 1.0244907339616178
6.077153931734841 1.5513627419170959 2.018503669341825 2.50728752047592
11.253575502761503 2.0259735542262605 4.482497467739928 4.745104480795315
18.379817989971414 2.539061253988994 8.170164365727084 7.67059237025534
27.37019020222061 3.094158181943865 13.095470355840183 11.180561664436553
38.10926362550628 3.709353996471335 19.21735507523703 15.182554553797909
50.556322817221535 4.41194546376684 26.52682936372836 19.61754798972634
64.52476752335805 5.2228874245215655 34.84366711404631 24.45821298479021
80.21196495935285 6.116290038284549 44.42533463403398 29.67034028703431
97.00067034072245 6.935663803815645 54.923373484783106 35.14163305212369
113.27708131777521 7.286828700890284 65.48293387937856 40.50731873750631
126.2923995535806 6.794306915881231 74.55531474231041 44.94277789538901
131.97325254300046 5.743338207759209 79.10890395860322 47.121010376638054
126.41827574334997 5.860884976420492 75.2815700383723 45.27582072855719
134.80216943101715 23.1856332432942 69.24380655158758 42.37272963613538
126.41827574335863 5.860884976445146 75.28157003836135 45.27582072855208
131.97325254299093 5.743338207794184 79.10890395857318 47.121010376623644
126.29239955350569 6.794306915869732 74.5553147422676 44.942777895368295
113.27708131769609 7.28682870089234 65.4829338793242 40.5073187374796
97.00067034062235 6.935663803795786 54.923373484730064 35.14163305209653
80.21196495926444 6.116290038283506 44.42533463397702 29.67034028700388
64.52476752327257 5.2228874245158545 34.843667113995124 24.45821298476159
50.556322817138906 4.411945463760869 26.52682936368033 19.617547989697705
38.109263625431616 3.7093539964663678 19.21735507519447 15.182554553770773
27.370190202156078 3.0941581819376136 13.095470355805675 11.180561664412782
18.37981798992202 2.539061253981436 8.170164365703275 7.67059237023732
11.253575502726656 2.0259735542222765 4.482497467723412 4.7451044807809595
6.077153931713718 1.55136274191476 2.018503669332377 2.5072875204665794
2.8288978264616182 1.1072236395169088 0.6971834529879569 1.0244907339567495
1.1054499969090765 0.7116767528964156 0.1214587792569313 0.2723144647557296
0.4661797940334729 0.44371422835098634 0.003487361114621378 0.01897820456786517
0.2694029963781341 0.2714439006077589 -0.00044315025121173643 -0.0015977539784129671
0.1675863294235773 0.1675795126599103 3.960330447626668e-07 6.4207306222634735e-06
0.07878184481983322 0.07878184481983322 0.0 0.0
0.031201039047650675 0.031201039047650675 0.0 0.0
0.015275068240152241 0.015275068240152241 0.0 0.0
0.0564120533509868 0.0564120533509868 0.0 0.0
0.14521282761220294 0.14521032528753122 1.22441077168008e-07 2.379883594554421e-06
0.2750231185349539 0.2777443704180866 -0.000611752577335625 -0.002109499305797256
0.5752236883427323 0.5113039154405126 0.015240188493376192 0.04867958440884399
1.5057132904649775 0.8414083701988939 0.23301897586150716 0.43128594440457585
3.700850695351093 1.2679200357920442 1.0113564474798107 1.4215742120792392
7.6679950328873385 1.7486763596189216 2.729756472189982 3.1895622010784357
13.809835355172991 2.303648581168481 5.731632718863631 5.774554055140876
22.22943629311626 2.9140897962520516 10.181623528077765 9.133722968786445
32.84083178256445 3.575324559645743 16.08875613006251 13.176751092856216
45.59471162264502 4.304866734531741 23.480491952959863 17.809352935153417
60.273652120234075 5.116443405258797 32.195646614006435 22.961562100968884
77.05466608269782 6.023118754460245 42.45232883893587 28.579218489301635
95.47151977046909 6.998055911253232 53.85900079197488 34.61446306724098
115.0312788199393 7.836462753921394 66.27324900361276 40.92156706240518
134.17983577450374 8.037743001684698 79.04429545744307 47.09779731537601
149.45526722685057 7.145827634045228 90.03805602939637 52.27138356340894
156.58415219785766 5.777580444256904 95.84070948041862 54.96586227318211
151.5454704528513 6.189777630077745 92.13188188239731 53.22381094037628
161.7337719887715 26.21128330323788 85.42195176924531 50.10053691628826
151.5454704527995 6.189777630047086 92.1318818823827 53.22381094036973
156.58415219778558 5.777580444237137 95.84070948038288 54.96586227316553
149.4552672267587 7.145827634036849 90.03805602933923 52.27138356338267
134.1798357744148 8.037743001693563 79.04429545737672 47.09779731534449
115.03127881983819 7.836462753918857 66.27324900354671 40.921567062372525
95.47151977037204 6.998055911255632 53.85900079190913 34.614463067207254
77.05466608259397 6.023118754451679 42.45232883887408 28.579218489268253
60.27365212013443 5.11644340525202 32.195646613947375 22.96156210093502
45.59471162255866 4.304866734525314 23.480491952910295 17.809352935123048
32.840831782487726 3.575324559640364 16.088756130019554 13.176751092827809
22.229436293060434 2.914089796247091 10.18162352804822 9.133722968765124
13.809835355130094 2.303648581163612 5.731632718842686 5.7745540551238
7.667995032862168 1.7486763596168842 2.729756472178338 3.1895622010669467
3.700850695336156 1.2679200357890403 1.0113564474741656 1.42157421207295
1.5057132904583186 0.8414083701966224 0.23301897585968823 0.4312859444020081
0.5752236883407591 0.5113039154393704 0.015240188493104117 0.04867958440828462
0.2750231185347935 0.2777443704176981 -0.0006117525773136093 -0.002109499305590941
0.14521282761210844 0.14521032528743993 1.2244107697319608e-07 2.3798835915387224e-06
0.05641205335072048 0.05641205335072048 0.0 0.0
0.015275068240172362 0.015275068240172362 0.0 0.0
0.007361277454532808 0.007361277454532808 0.0 0.0
0.03907834131921074 0.03907834131921074 0.0 0.0
0.1269999531848388 0.1269999531848388 0.0 0.0
0.2935303206030096 0.2973842698697186 -0.0010334311869042954 -0.0028205180798045286
0.7319335767843994 0.5908605143538413 0.03777963317926271 0.10329342925129546
2.003113753258667 0.9722070539344442 0.390974645340689 0.639932053983534
4.658232484485335 1.4087885664342352 1.3859409689990205 1.863502949052076
9.35924871811744 1.9477705576207494 3.51428787814081 3.897190282355885
16.459215214822898 2.5870046790175287 7.055520880273105 6.816689655532259
26.184367632063267 3.3064246645216606 12.275524927706208 10.602418039835399
38.49694776958724 4.091662796443199 19.23069237757493 15.174592595569088
53.252827264241766 4.946135269821061 27.868048437135787 20.438643557284937
70.48726552278903 5.885559556286006 38.29496679645973 26.30673917004324
89.72701224978859 6.891418651800161 50.12297763007073 32.712615967917706
110.94848965858324 7.874281651433205 63.53298896351758 39.5412190436324
133.27908393805984 8.656343104830611 78.01681184494873 46.60592898828046
155.0572764286052 8.820211737952059 92.71909006751143 53.517974623141754
172.85016631206676 7.696811542071593 105.71175707604357 59.44159769395156
181.99691580170452 5.823434125253757 113.36174628830284 62.811735388147966
178.40502406911133 6.47887545086247 110.434558236863 61.491590381385755
191.00013744285513 29.073833739656134 103.49143767425001 58.43486602894899
178.40502406908826 6.478875450870718 110.43455823684114 61.49159038137639
181.9969158016524 5.823434125266645 113.36174628825779 62.81173538812807
172.8501663119899 7.696811542091618 105.71175707597686 59.44159769392138
155.05727642851696 8.820211737972283 92.71909006743721 53.51797462310751
133.2790839379408 8.656343104826133 78.01681184487131 46.605928988243406
110.94848965846757 7.874281651429113 63.53298896344306 39.54121904359537
89.7270122496658 6.891418651791806 50.12297762999565 32.712615967878385
70.48726552268225 5.885559556286744 38.294966796390355 26.30673917000513
53.25282726413863 4.9461352698096475 27.86804843707805 20.438643557250934
38.49694776950584 4.091662796442752 19.230692377525504 15.174592595537606
26.184367631998803 3.306424664516423 12.275524927671356 10.602418039811024
16.45921521477708 2.5870046790150045 7.055520880248861 6.8166896555132155
9.359248718087516 1.9477705576189854 3.5142878781260185 3.897190282342511
4.658232484466275 1.4087885664304847 1.3859409689918896 1.863502949043903
2.003113753251012 0.972207053932872 0.39097464533807247 0.639932053980068
0.731933576781812 0.5908605143528941 0.037779633178686906 0.1032934292502313
0.2935303206023823 0.2973842698689661 -0.0010334311868774814 -0.002820518079706447
0.126999953184791 0.126999953184791 0.0 0.0
0.03907834131920526 0.03907834131920526 0.0 0.0
0.007361277454569588 0.007361277454569588 0.0 0.0
0.0034965078588216213 0.0034965078588216213 0.0 0.0
0.02722066610637059 0.02722066610637059 0.0 0.0
0.11765318442336084 0.11765318442336084 0.0 0.0
0.33756571207496183 0.3367936120019304 -0.0006947763612879113 0.0014668764343190874
0.9628551319496788 0.6921742843127328 0.086257014153082 0.1844238334838641
2.5635601221713693 1.089467602684573 0.5770140210114294 0.8970784984753672
5.729144781696399 1.5494676988118052 1.847710977475345 2.3319661054092493
11.113047886847685 2.1442401891613483 4.346504605036887 4.622303092649447
19.198505956269535 2.8750075633517578 8.458432935353937 7.86506545756385
30.226102350481 3.716931494180846 14.438614492455677 12.070556363844469
44.24872357083251 4.6386016520533015 22.43867642823276 17.171445490546425
61.220531800558554 5.640820089612848 32.51381260710296 23.065899103842725
80.72981211026422 6.718422876228706 44.35192474435134 29.659464489684176
102.8097359974796 7.8065169196679225 58.162751479075226 36.840467598736424
126.77344510185956 8.778250727878357 73.54068646252506 44.45450791145618
151.59683618065992 9.403671672844322 89.95939068013921 52.2337738276763
175.6342240731341 9.430843887772928 106.46164622690833 59.74173395845284
196.13349132874376 8.51437820205988 121.3238374027107 66.29527572397323
207.89609131200078 6.00312983410897 131.28922545614714 70.60373602174467
207.29431555241206 6.521543701117379 130.5331249748279 70.23964687646662
223.2131949532462 31.00268914655897 124.51972172513213 67.69078408155512
207.2943155523379 6.52154370108531 130.53312497479905 70.23964687645363
207.89609131191668 6.003129834099536 131.28922545609532 70.60373602172182
196.13349132862976 8.514378202055088 121.32383740263474 66.29527572393997
175.63422407299834 9.43084388776011 106.46164622682338 59.74173395841478
151.5968361805202 9.40367167283847 89.95939068004803 52.2337738276338
126.77344510171883 8.778250727867295 73.54068646243765 44.45450791141385
102.80973599735498 7.806516919671417 58.16275147899012 36.84046759869345
80.72981211014837 6.718422876231665 44.351924744274 29.65946448964267
61.22053180044081 5.640820089602334 32.513812607034666 23.065899103803787
44.24872357073664 4.638601652044662 22.438676428178752 17.17144549051322
30.22610235040775 3.716931494174764 14.438614492415574 12.070556363817424
19.198505956214355 2.8750075633443783 8.458432935326705 7.865065457543265
11.113047886812446 2.1442401891592895 4.346504605019125 4.622303092634037
5.7291447816752195 1.5494676988097547 1.8477109774659917 2.3319661053994722
2.5635601221620568 1.0894676026829446 0.5770140210079915 0.8970784984711216
0.9628551319462693 0.692174284311572 0.08625701415222885 0.18442383348246844
0.3375657120742065 0.33679361200117663 -0.0006947763612988882 0.001466876434328857
0.11765318442320098 0.11765318442320098 0.0 0.0
0.027220666106320145 0.027220666106320145 0.0 0.0
0.0034965078588278828 0.0034965078588278828 0.0 0.0
0.0011454845128527052 0.0011454845128527052 0.0 0.0
0.02016614232385662 0.02016614232385662 0.0 0.0
0.1250581729470189 0.1250581729470189 0.0 0.0
0.4289612064503959 0.4081609629613485 0.004032279602579654 0.016767963886467854
1.2906374345582123 0.8601345144746797 0.15033633799280405 0.2801665820907289
3.2728451532526983 1.3857909987052217 0.7653146272129583 1.1217395273345174
6.986272560113546 2.0426328378127607 2.2341723391572472 2.7094673831435343
13.149659764987263 2.9457638537724353 5.021837499511304 5.182058411703535
22.343389745613695 4.1475641393508 9.533575261468558 8.662250344794353
34.96965123675575 5.660185479450774 16.128608076721573 13.18085768058338
51.115850762061356 7.466897921427412 24.9705244213079 18.678428419326085
70.53492493303573 9.535908990613198 35.946838378578256 25.05217756384422
93.12332202533794 11.799799944367514 49.13724984181682 32.18627223915363
118.42626945382517 14.125722816574164 64.35124968821201 39.94929694903905
145.55838675867702 16.16855011254575 81.25113342543996 48.1387032206912
173.02866298336158 17.422685707767222 99.1781653383246 56.42781193726982
198.70951475157926 17.431584872024196 116.92070842483228 64.35722145472272
220.3376991738051 16.286873488959927 132.79986435941237 71.25096132543288
235.1121081938296 14.55099881108913 144.38209255403376 76.17901682870672
230.8085054255175 6.70337433630587 146.81971180896267 77.2854192802491
314.0620777570047 94.05270982902206 144.053797825253 75.95557010272965
230.80850542552525 6.703374336365423 146.81971180892566 77.28541928023412
235.1121081937293 14.550998811073768 144.38209255397365 76.17901682868182
220.33769917368318 16.28687348896278 132.7998643593256 71.25096132539488
198.70951475144008 17.431584872025297 116.92070842473524 64.35722145467965
173.0286629832242 17.42268570777692 99.17816533822261 56.42781193722451
145.55838675853238 16.16855011254576 81.25113342534205 48.13870322064463
118.42626945366739 14.125722816552802 64.35124968812094 39.949296948993684
93.12332202518886 11.799799944345706 49.13724984173322 32.18627223910999
70.534924932906 9.535908990601916 35.946838378502385 25.05217756380167
51.11585076194766 7.466897921407528 24.970524421249255 18.678428419290878
34.96965123667403 5.660185479442165 16.128608076677335 13.180857680554531
22.34338974555095 4.147564139341202 9.53357526143786 8.6622503447719
13.149659764947483 2.945763853769254 5.021837499491394 5.182058411686838
6.9862725600903435 2.0426328378099687 2.2341723391470483 2.7094673831333274
3.2728451532409433 1.385790998702157 0.7653146272091544 1.1217395273296316
1.2906374345539853 0.860134514473063 0.15033633799176682 0.28016658208915546
0.428961206449085 0.408160962960223 0.004032279602530213 0.01676796388633147
0.1250581729466246 0.1250581729466246 0.0 0.0
0.020166142323802407 0.020166142323802407 0.0 0.0
0.0011454845128758802 0.0011454845128758802 0.0 0.0
CELL_DATA 800
SCALARS Stress float 6
LOOKUP_TABLE default
172.17450980685442 -525.7075457591336 -182.01433003724566 -111.01641166330819 0.0 0.0
404.84677708373954 -87.07542258304402 115.62424539250509 54.20204657523303 0.0 0.0
422.95008846801426 7.406347997549648 129.34168839389122 -2.572382111140535 0.0 0.0
482.00948523449705 -17.55102687304059 153.37256581818528 -15.897662060617087 0.0 0.0
560.7480233994104 -24.49456402991017 216.14013563994263 -11.681759566393547 0.0 0.0
636.8461215932131 -21.277458483561183 287.26110033976386 -10.521035103688055 0.0 0.0
710.3925986450748 -15.921768855198614 339.9538254173933 -11.594109781360867 0.0 0.0
785.345271393285 -2.03755840458426 387.8030034280614 -13.664755891230172 0.0 0.0
863.8446721819724 20.965001942633435 439.51623040465876 -15.592986430208132 0.0 0.0
945.0275092334676 51.578106704149604 495.92538259892467 -16.78805008398391 0.0 0.0
1026.686236490182 87.08334021906808 554.8822137411756 -17.255193050889453 0.0 0.0
1107.3956893651425 126.09630347957358 615.0210736900701 -17.241812316775636 0.0 0.0
1187.364130754001 167.7486742537225 676.0275313970795 -17.064483831336304 0.0 0.0
1267.4375786350931 212.61231308402947 738.632583121559 -16.727447430503005 0.0 0.0
1348.0673050929943 261.14120895829933 803.3121068945021 -16.075255270447883 0.0 0.0
1428.3609575061273 312.567441265727 869.2529001655158 -14.909700918811222 0.0 0.0
1505.8412440201992 364.83971183622765 934.1981147720938 -13.145190466448632 0.0 0.0
1578.3480765166391 416.37865266741744 996.2624711849526 -11.2054242180693 0.0 0.0
1646.788848615948 468.93514169061444 1056.7143070347358 -11.087928092075916 0.0 0.0
1754.0111797671157 567.4555166295172 1159.1007962115032 -18.637658655272382 0.0 0.0
1754.0111797664645 567.455516628871 1159.100796211009 18.637658655120596 0.0 0.0
1646.788848614912 468.93514168960513 1056.7143070340078 11.087928091915387 0.0 0.0
1578.3480765171432 416.37865266802316 996.2624711850101 11.205424218238104 0.0 0.0
1505.8412440200846 364.8397118362261 934.1981147716344 13.14519046646798 0.0 0.0
1428.3609575061237 312.5674412658589 869.2529001653998 14.909700918898224 0.0 0.0
1348.067305092873 261.1412089583284 803.3121068943509 16.07525527055417 0.0 0.0
1267.4375786348241 212.61231308393934 738.6325831212733 16.72744743040601 0.0 0.0
1187.3641307537052 167.74867425362396 676.0275313967836 17.064483831362022 0.0 0.0
1107.3956893640482 126.09630347869893 615.0210736892687 17.241812316778166 0.0 0.0
1026.686236489238 87.08334021838289 554.8822137405459 17.25519305083448 0.0 0.0
945.0275092325392 51.57810670347553 495.9253825983247 16.78805008403524 0.0 0.0
863.8446721818306 20.965001942768026 439.51623040454643 15.592986430200728 0.0 0.0
785.3452713927365 -2.0375584048775295 387.8030034276785 13.664755891011543 0.0 0.0
710.3925986439118 -15.921768856091504 339.9538254166281 11.594109781250232 0.0 0.0
636.8461215932249 -21.277458483244573 287.2611003397061 10.521035103673103 0.0 0.0
560.748023399065 -24.494564029959335 216.14013563964883 11.681759566258869 0.0 0.0
482.00948523451046 -17.55102687268009 153.3725658182293 15.897662060606946 0.0 0.0
422.9500884680073 7.406347997873823 129.34168839398845 2.5723821111745346 0.0 0.0
404.84677708377075 -87.0754225828556 115.62424539252876 -54.20204657518644 0.0 0.0
172.17450980737115 -525.7075457586296 -182.014330036735 111.01641166295713 0.0 0.0
71.39201581728284 -551.6138760611036 -243.61755618421017 -162.0642114964534 0.0 0.0
283.20567672369384 -82.11052274258843 60.78265164094343 7.95477031180889 0.0 0.0
371.98744009490997 34.99025020998411 122.11354474718672 -9.550773143353528 0.0 0.0
447.36520148380134 -16.135800844962457 135.74273282635718 -36.46133138240953 0.0 0.0
533.4882119137562 -24.43990560149711 193.12926301713534 -33.77668951329479 0.0 0.0
613.7929517837665 -21.793064237292807 268.59795020601916 -31.120735388672855 0.0 0.0
690.9430383985398 -15.68065178168029 327.92304406084804 -32.64146976966644 0.0 0.0
766.8209620089643 -1.8344435750358628 377.84493007641345 -35.776696205542315 0.0 0.0
843.7364929193861 19.695669753660425 428.45474247658865 -38.60659271258064 0.0 0.0
921.4222950793315 47.368501701191136 481.8041065811658 -39.96521393870038 0.0 0.0
998.2935240856361 78.88520139260177 536.4390554099136 -40.014812040340416 0.0 0.0
1073.9154273610684 113.12860155450062 591.6751470829216 -39.42570128269676 0.0 0.0
1148.5439007556793 150.30630298787906 647.7976592697512 -38.586589840433504 0.0 0.0
1222.9445107006184 190.2423802919055 705.1296398505422 -37.5137566699498 0.0 0.0
1297.28791322018 232.97887632768058 763.7920809156215 -35.9283152400288 0.0 0.0
1371.0909566563778 278.2332720384243 823.4133144363557 -33.45079059769476 0.0 0.0
1443.5265143684314 325.55855560493706 883.3503511399683 -30.091411010739986 0.0 0.0
1514.607550446844 375.7133054217044 943.9605206174816 -26.936480563793047 0.0 0.0
1592.364308314595 437.9344530346909 1013.8087985407975 -25.84128204245303 0.0 0.0
1650.3288352671395 487.1214926508779 1067.2834444708774 -27.007161831591763 0.0 0.0
1650.3288352675477 487.12149265132007 1067.2834444712585 27.007161831626256 0.0 0.0
1592.364308315528 437.93445303568126 1013.8087985415609 25.841282042671875 0.0 0.0
1514.6075504490227 375.7133054239889 943.9605206192215 26.93648056389746 0.0 0.0
1443.5265143690967 325.5585556056981 883.3503511404986 30.09141101068695 0.0 0.0
1371.0909566566093 278.2332720388167 823.4133144365535 33.450790597843934 0.0 0.0
1297.2879132205298 232.97887632819499 763.7920809158388 35.928315240122465 0.0 0.0
1222.944510700448 190.24238029191054 705.1296398504769 37.51375666996987 0.0 0.0
1148.5439007552663 150.3063029876718 647.7976592695034 38.58658984052684 0.0 0.0
1073.9154273596555 113.12860155326774 591.6751470819778 39.42570128258788 0.0 0.0
998.2935240850736 78.88520139230565 536.4390554095669 40.01481204048244 0.0 0.0
921.422295078011 47.36850170012474 481.80410658035066 39.965213938755284 0.0 0.0
843.7364929176235 19.695669752150877 428.454742475505 38.60659271267191 0.0 0.0
766.8209620079559 -1.8344435757736903 377.84493007578203 35.77669620546139 0.0 0.0
690.9430383985459 -15.680651781354143 327.9230440608157 32.64146976971289 0.0 0.0
613.7929517832227 -21.793064237538744 268.5979502056194 31.120735388639382 0.0 0.0
533.4882119137003 -24.439905601205943 193.1292630170319 33.77668951327136 0.0 0.0
447.3652014836078 -16.13580084483458 135.74273282629787 36.461331382355944 0.0 0.0
371.9874400948938 34.99025020994552 122.11354474717544 9.550773143480084 0.0 0.0
283.2056767237643 -82.11052274216459 60.7826516411013 -7.954770311904705 0.0 0.0
71.39201581742978 -551.6138760609292 -243.61755618398917 162.06421149624472 0.0 0.0
15.606314153389349 -562.0050044666082 -271.10716330622165 -177.99419653962258 0.0 0.0
158.7274032238798 -69.44669329188223 26.784212979599275 -47.50165900570151 0.0 0.0
301.9423196592942 39.24036961141003 102.35480678121127 -34.39797210701252 0.0 0.0
403.00659959197867 -6.816009676740463 120.76230183695571 -57.20319490058801 0.0 0.0
497.7208657725703 -23.181796963112028 168.9169562073014 -57.905163042007985 0.0 0.0
587.0352950068201 -23.38260391940462 245.21136081908034 -53.27892145485876 0.0 0.0
667.4635229370488 -14.582252580708342 313.10735569225506 -54.062979956963645 0.0 0.0
743.8247736855199 -1.547289533888545 365.3415615225692 -57.70616422536221 0.0 0.0
819.3408280442763 18.405549991362818 415.15452980315104 -61.01461572792482 0.0 0.0
893.4671475793285 42.8520290997031 465.31303485886764 -62.304064945300084 0.0 0.0
965.7900686676016 70.31039087790084 515.7189442581683 -61.94056769301117 0.0 0.0
1036.3295557599658 100.31606063791622 566.3332152514976 -60.80452093934284 0.0 0.0
1105.80977171209 132.59014429040116 617.4594110001283 -59.41966518921908 0.0 0.0
1174.3298441722616 167.29803632701507 669.2693704597639 -57.64639934430875 0.0 0.0
1242.2000111649247 204.0187501561319 721.71510825379 -55.19812181695298 0.0 0.0
1309.7342913086395 243.12371402066566 775.1337852055631 -51.727453539282536 0.0 0.0
1377.6130166085245 285.8209623186927 830.4563882378129 -47.3643792310461 0.0 0.0
1448.0604343384657 335.22679578444075 890.3449235630321 -43.07225665953984 0.0 0.0
1514.649265131627 385.93907370006684 948.9419988860969 -38.941899979154876 0.0 0.0
1562.490265118892 424.09366340123574 991.8723795926144 -33.996093114556146 0.0 0.0
1562.4902651178802 424.09366340024087 991.8723795917673 33.99609311465519 0.0 0.0
1514.6492651287897 385.93907369726446 948.941998883882 38.94189997922264 0.0 0.0
1448.060434337917 335.22679578398 890.3449235626274 43.072256659648374 0.0 0.0
1377.6130166089927 285.82096231928546 830.4563882379981 47.364379231166254 0.0 0.0
1309.7342913081336 243.123714020305 775.1337852050701 51.72745353937155 0.0 0.0
1242.2000111645468 204.01875015589496 721.7151082534845 55.19812181691127 0.0 0.0
1174.3298441715435 167.29803632644484 669.2693704592195 57.6463993442143 0.0 0.0
1105.8097717118496 132.5901442903933 617.4594109999243 59.419665189427455 0.0 0.0
1036.329555759836 100.31606063804844 566.3332152514066 60.80452093945367 0.0 0.0
965.7900686680292 70.31039087858713 515.7189442583941 61.94056769295044 0.0 0.0
893.4671475795085 42.85202910008357 465.3130348589549 62.30406494514473 0.0 0.0
819.3408280449885 18.40554999246052 415.1545298035999 61.01461572824394 0.0 0.0
743.8247736855951 -1.5472895334591783 365.3415615226051 57.706164225498014 0.0 0.0
667.4635229368669 -14.582252580575926 313.10735569208924 54.06297995689814 0.0 0.0
587.0352950069507 -23.382603918930833 245.21136081906215 53.27892145473541 0.0 0.0
497.7208657724096 -23.18179696296298 168.91695620716757 57.90516304199759 0.0 0.0
403.0065995918157 -6.816009676532404 120.76230183695921 57.20319490050743 0.0 0.0
301.94231965934546 39.240369611358794 102.35480678121127 34.39797210698263 0.0 0.0
158.72740322409038 -69.44669329131618 26.78421297983226 47.50165900534709 0.0 0.0
15.60631415363261 -562.0050044663313 -271.1071633059555 177.9941965394177 0.0 0.0
-6.09033358555223 -552.374124350165 -270.59355195374025 -180.00003479368905 0.0 0.0
90.15676080054585 -63.6210021119568 7.960727606576714 -94.61754781480404 0.0 0.0
235.8193347986507 35.34151389808288 81.34825460902005 -68.30831905307438 0.0 0.0
348.6041504284599 3.2261579484458904 105.82929597092208 -79.8931680970381 0.0 0.0
452.2600401354185 -21.326480814128004 143.94437245876662 -84.6305334131164 0.0 0.0
551.1157989150099 -23.17850946880951 217.64771481829126 -77.17785279326769 0.0 0.0
637.4141446467574 -14.600264992502268 292.53028841009666 -76.129484469936 0.0 0.0
716.1756035430402 -0.7015490932433224 350.164888677587 -79.52442685307015 0.0 0.0
789.9492654790113 16.918408441325482 399.08089218194084 -82.78912899654831 0.0 0.0
860.7509275592608 38.125888235984064 446.26242749415746 -83.81851245332771 0.0 0.0
928.7064819548802 61.62661063360191 492.6154733111588 -83.0396319173908 0.0 0.0
994.4340233349752 87.24173048673387 538.6788771832581 -81.44184825308169 0.0 0.0
1058.472254153005 114.78185126199097 584.7520527248282 -79.48989422612614 0.0 0.0
1121.3883573670855 144.12235151323154 631.1133072798364 -77.09261182184028 0.0 0.0
1182.9115924735288 174.6874847690453 677.3398081499846 -73.9403003615128 0.0 0.0
1243.9457830020144 207.63217767622794 724.4381646245646 -69.79327057891612 0.0 0.0
1307.068408816941 245.3854248483202 774.9017139469267 -64.78121234019015 0.0 0.0
1371.8362857605848 288.55419131130884 828.8496465822043 -59.054993830984664 0.0 0.0
1432.1704088793417 331.94183531289184 880.6765579570495 -51.64829672133458 0.0 0.0
1476.4941628103857 364.92084224876226 919.269915875928 -41.34503646657875 0.0 0.0
1476.4941628112806 364.92084224968255 919.2699158766954 41.345036466679794 0.0 0.0
1432.1704088818901 331.94183531555007 880.6765579589212 51.648296721594896 0.0 0.0
1371.8362857614916 288.55419131234464 828.8496465827242 59.054993831187794 0.0 0.0
1307.0684088180165 245.38542484952575 774.9017139477003 64.78121234028924 0.0 0.0
1243.9457830013264 207.6321776756443 724.4381646241841 69.79327057884804 0.0 0.0
1182.911592473822 174.68748476947792 677.3398081502243 73.94030036153096 0.0 0.0
1121.3883573668813 144.1223515132139 631.113307279667 77.09261182188351 0.0 0.0
1058.4722541523329 114.7818512615491 584.7520527243415 79.48989422622574 0.0 0.0
994.4340233337712 87.24173048565069 538.6788771824026 81.44184825288154 0.0 0.0
928.7064819543425 61.62661063330938 492.61547331070676 83.03963191744438 0.0 0.0
860.7509275590875 38.12588823609704 446.2624274939951 83.81851245336946 0.0 0.0
789.9492654793382 16.91840844199453 399.08089218217935 82.789128996657 0.0 0.0
716.1756035426413 -0.7015490934521154 350.1648886773363 79.52442685279178 0.0 0.0
637.414144646498 -14.600264992549 292.5302884098482 76.12948446968713 0.0 0.0
551.1157989151772 -23.178509468232058 217.64771481830226 77.17785279327856 0.0 0.0
452.2600401352608 -21.326480813903895 143.94437245868644 84.6305334129825 0.0 0.0
348.60415042844977 3.22615794881194 105.82929597103097 79.89316809679856 0.0 0.0
235.81933479859944 35.34151389813412 81.34825460902005 68.30831905289504 0.0 0.0
90.15676080059923 -63.62100211177532 7.960727606647168 94.61754781447097 0.0 0.0
-6.090333585430528 -552.3741243500132 -270.5935519535352 180.00003479350656 0.0 0.0
-11.52084118699149 -530.5851964079686 -254.376463934068 -177.09259282309398 0.0 0.0
52.864255838041686 -59.02672482485447 -1.848740696043838 -131.32863869868262 0.0 0.0
179.41111047064706 28.139928890641947 62.265311808386706 -102.6020096789187 0.0 0.0
290.19519439201224 10.350649624411805 90.20990628443164 -103.90794082859007 0.0 0.0
395.43965046140346 -17.098706556597318 119.92945777931234 -112.53138729883834 0.0 0.0
504.5197776497277 -22.56056184905536 185.98645065846836 -104.10883754843775 0.0 0.0
600.2048944705214 -14.844799603546345 265.854937829518 -99.55670131388126 0.0 0.0
682.1967779784368 -0.32782194740961046 330.39671375147054 -101.2928921060942 0.0 0.0
755.0051199576267 15.495945184314841 379.9113130897896 -103.94868395264949 0.0 0.0
822.6306946317526 33.23671458174543 424.303813068438 -104.56217367920871 0.0 0.0
886.4966467941713 52.85475930296572 466.83489763237935 -103.31664655414289 0.0 0.0
947.2483975767145 74.03264394153018 508.27134549731954 -101.2769051484842 0.0 0.0
1005.9828964442867 96.70391628168495 549.3099710765614 -98.89406797759771 0.0 0.0
1063.0721656222518 120.81564612234419 590.1750512185213 -95.85825415126455 0.0 0.0
1118.5907117601364 145.66115948302937 630.5763573803565 -92.08640868705298 0.0 0.0
1173.459427856426 172.1594897246476 671.401051600119 -87.57979621483851 0.0 0.0
1229.506071182695 202.78888889621658 714.7834919976842 -82.10115954816463 0.0 0.0
1287.833649383935 238.6773197504035 761.8776262408041 -75.09598353533188 0.0 0.0
1343.980734853639 276.07997563415904 808.6176352379849 -64.76250933081462 0.0 0.0
1388.646661008539 306.8957592685861 846.2834508359002 -49.68623283034498 0.0 0.0
1388.64666100848 306.8957592685743 846.2834508359381 49.686232830511074 0.0 0.0
1343.9807348526767 276.0799756332577 808.6176352373442 64.762509330975 0.0 0.0
1287.8336493823872 238.6773197489054 761.8776262395576 75.09598353534683 0.0 0.0
1229.5060711820902 202.78888889569635 714.7834919970566 82.10115954814918 0.0 0.0
1173.4594278559632 172.1594897242906 671.4010515996989 87.57979621481005 0.0 0.0
1118.5907117610675 145.6611594841521 630.5763573809683 92.08640868713925 0.0 0.0
1063.0721656211401 120.81564612136066 590.1750512176844 95.85825415121981 0.0 0.0
1005.9828964441537 96.70391628173985 549.3099710765451 98.89406797763209 0.0 0.0
947.2483975773695 74.0326439424143 508.2713454977529 101.27690514851747 0.0 0.0
886.4966467932655 52.854759302105975 466.8348976317013 103.31664655371983 0.0 0.0
822.6306946313342 33.23671458135868 424.3038130680568 104.56217367880129 0.0 0.0
755.0051199562574 15.495945183058325 379.91131308892295 103.94868395240319 0.0 0.0
682.1967779776937 -0.3278219479338702 330.39671375092814 101.29289210600248 0.0 0.0
600.2048944705193 -14.844799603200933 265.854937829432 99.55670131381706 0.0 0.0
504.5197776484903 -22.560561850204913 185.98645065760792 104.1088375482673 0.0 0.0
395.4396504610104 -17.098706556790614 119.92945777910069 112.53138729868667 0.0 0.0
290.19519439182295 10.350649624562365 90.2099062844287 103.90794082849794 0.0 0.0
179.41111047081307 28.139928890908287 62.2653118085164 102.60200967874363 0.0 0.0
52.864255838195405 -59.02672482449579 -1.8487406958901134 131.32863869853742 0.0 0.0
-11.520841186875785 -530.5851964076959 -254.37646393381704 177.0925928230038 0.0 0.0
-9.597402841993329 -500.58403852515335 -228.81838480915093 -172.95880895118677 0.0 0.0
31.481281382592844 -54.05079243556528 -6.7708533158917295 -158.78779288616482 0.0 0.0
131.87457967478122 20.42437540407819 45.68968652365782 -132.70993090203075 0.0 0.0
231.6896865114224 13.324596962209778 73.50030858350608 -128.14769610963145 0.0 0.0
328.85885821236064 -10.045351429978668 98.0218432669173 -138.69401646445297 0.0 0.0
441.65887725480036 -21.612535146402074 150.7361216825296 -134.4782311806986 0.0 0.0
549.9450155617743 -14.123622438315213 231.35213361838152 -125.22657970047813 0.0 0.0
638.5256184030105 -1.1133818029449216 302.98277477278367 -123.63127649238538 0.0 0.0
712.9437447688749 13.749972818717993 356.24095687051437 -124.75485593164461 0.0 0.0
777.9951143840563 28.34068480490133 398.82626880132574 -124.5392402762408 0.0 0.0
837.7141902298699 43.949637627685135 437.58148671168715 -122.78756433893567 0.0 0.0
893.6811165363092 60.78748560498127 474.5942762325016 -120.32158923160993 0.0 0.0
946.837998730211 78.58276022339957 510.48273585959197 -117.53140774978738 0.0 0.0
998.2364957958745 97.3143205031206 545.8475291117954 -114.09071524700471 0.0 0.0
1048.3346850233354 116.89066761385996 580.9378441998471 -109.76244291766348 0.0 0.0
1096.4137347655255 137.12461138202366 615.2982754759179 -104.78079380694817 0.0 0.0
1144.4273944284032 159.1637426413912 650.4186972530373 -99.14070190182845 0.0 0.0
1195.123907335646 186.14124877276004 689.2466272848206 -91.45510221128364 0.0 0.0
1247.833183100165 217.81866740507445 731.3784572312201 -78.89723487022935 0.0 0.0
1295.7957410897104 248.35810111053817 770.5079791996432 -59.718225313581634 0.0 0.0
1295.795741090132 248.35810111101904 770.5079791999409 59.7182253137509 0.0 0.0
1247.8331831012076 217.81866740623678 731.3784572320718 78.89723487044654 0.0 0.0
1195.1239073357367 186.141248772903 689.246627285024 91.45510221132932 0.0 0.0
1144.4273944280844 159.16374264112545 650.418697252908 99.14070190173695 0.0 0.0
1096.413734765463 137.1246113820398 615.2982754759931 104.78079380690713 0.0 0.0
1048.334685024639 116.8906676153905 580.9378442007448 109.76244291781012 0.0 0.0
998.236495797384 97.3143205048707 545.8475291127991 114.09071524706906 0.0 0.0
946.8379987304401 78.58276022380764 510.4827358596466 117.53140774979234 0.0 0.0
893.6811165349068 60.78748560376147 474.5942762315112 120.32158923159176 0.0 0.0
837.7141902293964 43.94963762739178 437.58148671138656 122.78756433892221 0.0 0.0
777.9951143846223 28.340684805773208 398.8262688016706 124.53924027625334 0.0 0.0
712.9437447690522 13.749972819171688 356.2409568705479 124.75485593160367 0.0 0.0
638.5256184028221 -1.113381802723552 302.9827747726479 123.63127649247551 0.0 0.0
549.9450155618986 -14.123622437732266 231.35213361838166 125.22657970052782 0.0 0.0
441.6588772542692 -21.612535146594954 150.736121682185 134.4782311806186 0.0 0.0
328.8588582118035 -10.045351430576144 98.02184326657311 138.69401646410202 0.0 0.0
231.68968651105834 13.324596961766765 73.5003085832654 128.14769610946348 0.0 0.0
131.8745796746969 20.424375403895645 45.689686523577755 132.70993090199232 0.0 0.0
31.48128138273109 -54.050792435249825 -6.770853315755621 158.78779288591716 0.0 0.0
-9.597402841871869 -500.5840385249073 -228.81838480890463 172.95880895105455 0.0 0.0
-4.1945843979639506 -464.0211631715887 -197.31191677838365 -169.18689269737726 0.0 0.0
17.537171741785183 -49.3078645531041 -9.531005647854053 -178.20270188324244 0.0 0.0
90.48444470943433 13.439941468843593 31.17669788630924 -156.76987690786143 0.0 0.0
173.48646466377954 14.31424378522717 56.33708895701483 -150.7254991716656 0.0 0.0
256.74755902967604 -2.828289258393504 77.25090690435549 -161.19584544114008 0.0 0.0
362.9954133673058 -17.875728068914306 115.3963854321768 -166.24738203554753 0.0 0.0
481.35614651296896 -13.977732674807637 187.76072942516967 -154.79335248884544 0.0 0.0
581.4612862939262 -1.671152272760244 265.66018769306856 -147.38107266672174 0.0 0.0
659.6873314164487 11.108268206384338 324.61728869806797 -145.60462188729167 0.0 0.0
724.17369082346 23.278112335621863 368.0173356800311 -143.95669376001393 0.0 0.0
779.9892383626022 34.90561488862557 403.5242186026696 -141.47072721704612 0.0 0.0
831.2778865904253 47.62206336122857 436.4087459644474 -138.55657890455413 0.0 0.0
878.8000617415116 60.507195382430425 467.16596998383625 -135.44065771253167 0.0 0.0
924.0269314749146 73.84357871408224 496.8256623449731 -131.7536364503272 0.0 0.0
968.3241508081755 88.01227197324272 526.3294943727886 -127.0398026805925 0.0 0.0
1011.3333422455443 102.86882615989302 555.5365854062514 -121.48690387993108 0.0 0.0
1050.5187123113653 116.10177913952654 581.9595361551492 -115.56743379669153 0.0 0.0
1091.0530261024044 131.85193733369712 610.1136108615096 -108.0492024524101 0.0 0.0
1139.7325112866388 155.95289067151356 646.3785239657032 -94.67140636076978 0.0 0.0
1193.9843294088982 187.62360084900536 689.1167770193139 -72.47514196856197 0.0 0.0
1193.9843294070947 187.6236008471788 689.1167770181817 72.47514196856872 0.0 0.0
1139.7325112836156 155.95289066856208 646.3785239635839 94.67140636100368 0.0 0.0
1091.0530261001516 131.8519373314353 610.1136108598345 108.04920245237857 0.0 0.0
1050.5187123113153 116.10177913966709 581.9595361550431 115.56743379696564 0.0 0.0
1011.3333422440296 102.86882615847435 555.5365854051454 121.48690387986409 0.0 0.0
968.3241508058735 88.01227197099087 526.3294943712067 127.03980268060347 0.0 0.0
924.0269314747003 73.84357871407371 496.82566234478645 131.75363645044825 0.0 0.0
878.8000617410556 60.50719538209711 467.16596998346944 135.4406577125317 0.0 0.0
831.2778865890273 47.622063359980956 436.4087459635358 138.55657890453497 0.0 0.0
779.9892383621236 34.90561488828581 403.5242186022415 141.47072721696156 0.0 0.0
724.1736908238347 23.27811233629167 368.01733568026276 143.95669376004005 0.0 0.0
659.6873314165422 11.108268206888283 324.617288698183 145.60462188741582 0.0 0.0
581.4612862941689 -1.6711522718949965 265.66018769321045 147.38107266691065 0.0 0.0
481.3561465133968 -13.97773267383987 187.76072942539676 154.79335248885747 0.0 0.0
362.99541336738196 -17.87572806825053 115.39638543228325 166.24738203543467 0.0 0.0
256.7475590300638 -2.8282892571525355 77.25090690483613 161.195845440933 0.0 0.0
173.4864646638051 14.314243785510433 56.337088957108456 150.7254991713222 0.0 0.0
90.48444470925105 13.439941468620741 31.176697886188038 156.76987690755598 0.0 0.0
17.537171741762144 -49.307864552952836 -9.531005647815741 178.20270188309445 0.0 0.0
-4.194584397795843 -464.02116317123824 -197.31191677807314 169.18689269719638 0.0 0.0
1.3263328307930138 -422.2616240256101 -163.9567206525426 -166.69751156441495 0.0 0.0
5.198527820221855 -45.57233598316373 -12.11222905494403 -189.74674550093656 0.0 0.0
52.79093653381797 7.909454127783118 18.210786827062506 -174.71767111819452 0.0 0.0
116.13449258800814 15.224685942934379 39.42558021091172 -169.49981177925298 0.0 0.0
182.69367565315522 2.1658186113441413 56.07531177964687 -180.5112978436841 0.0 0.0
267.1609120110164 -10.40446371875936 81.93850372690129 -193.32643298966084 0.0 0.0
384.3881060126778 -12.49279548411976 136.47869157769338 -188.82085550201325 0.0 0.0
500.874981596372 -2.7031965437731285 213.199374017563 -174.95220934240172 0.0 0.0
588.8915672655241 8.088595244394343 279.69848867120794 -167.38410621109577 0.0 0.0
654.4696146002439 17.643696050066715 326.8321624805997 -163.08968489727732 0.0 0.0
707.9336838891328 25.655148906814727 361.36294171945804 -159.60687809345262 0.0 0.0
754.3014791003006 34.391425584471406 390.56087980216614 -156.05979983291948 0.0 0.0
796.0853180942973 42.76868484465456 416.5455476141033 -152.5399085998225 0.0 0.0
834.7880052775089 50.641330593404476 440.39450861769586 -148.78937458560472 0.0 0.0
872.6323774351392 58.901006631870814 463.7912771398173 -144.10165790339389 0.0 0.0
910.7638138292152 68.57212552690285 487.9652772593822 -137.9170905429732 0.0 0.0
945.0631473697911 76.0474843860242 509.2325368451273 -131.16734131574697 0.0 0.0
972.47249121179 77.81646607404306 524.014921077047 -124.30341274533312 0.0 0.0
1011.5610752101567 88.90140067476673 548.8399778643062 -112.37193911556943 0.0 0.0
1074.5931315037546 122.08068642924835 596.4842983704602 -89.49902723865664 0.0 0.0
1074.593131504958 122.0806864304343 596.4842983712308 89.49902723866877 0.0 0.0
1011.5610752116983 88.90140067665044 548.8399778654884 112.37193911617875 0.0 0.0
972.4724912123277 77.8164660746856 524.014921077373 124.30341274536426 0.0 0.0
945.0631473687215 76.04748438501264 509.2325368442495 131.1673413157914 0.0 0.0
910.763813831167 68.5721255289501 487.9652772605033 137.91709054291283 0.0 0.0
872.6323774356601 58.90100663296579 463.79127714020797 144.10165790388095 0.0 0.0
834.7880052763891 50.641330592292206 440.39450861697446 148.78937458546972 0.0 0.0
796.0853180940932 42.768684844501394 416.5455476139467 152.53990859980425 0.0 0.0
754.3014791003626 34.39142558493137 390.5608798022538 156.05979983316996 0.0 0.0
707.9336838890113 25.655148907081127 361.36294171942 159.60687809354025 0.0 0.0
654.469614599463 17.64369604932226 326.8321624799852 163.08968489714425 0.0 0.0
588.8915672654689 8.088595244561148 279.69848867109897 167.38410621100232 0.0 0.0
500.8749815951215 -2.703196544948881 213.1993740166866 174.95220934226157 0.0 0.0
384.38810601189164 -12.49279548484559 136.4786915771236 188.82085550183785 0.0 0.0
267.1609120106106 -10.404463718976995 81.93850372669208 193.32643298948773 0.0 0.0
182.69367565265534 2.165818610497701 56.0753117792446 180.51129784342405 0.0 0.0
116.13449258803239 15.224685943236382 39.425580211015706 169.49981177904493 0.0 0.0
52.7909365339056 7.909454128098315 18.210786827187025 174.71767111801736 0.0 0.0
5.198527820173197 -45.57233598319944 -12.112229054970687 189.7467455007605 0.0 0.0
1.3263328307016948 -422.2616240254575 -163.95672065239162 166.6975115643337 0.0 0.0
3.7763577238490598 -376.04471612331935 -132.69624325840266 -164.10700541448855 0.0 0.0
-9.735014881387855 -44.16429959418893 -16.17448022481586 -195.35282612096745 0.0 0.0
17.170393271454685 4.519407569131137 6.511432891675416 -186.7414569905083 0.0 0.0
60.258118189354875 16.39667291366824 23.02767881519602 -183.60267180935298 0.0 0.0
106.45790320643758 6.320499307333694 34.22266333321707 -195.4930286750903 0.0 0.0
161.56820517768796 -3.3892837901802335 49.482060808537334 -212.77177941362694 0.0 0.0
251.02887728212195 -6.19829156333937 82.47582730903692 -220.3441952676506 0.0 0.0
372.3722143579425 -2.8528790757414626 140.85427343871413 -209.23665833300663 0.0 0.0
479.34644782319225 5.020558897272537 208.67212351595975 -193.13180864363778 0.0 0.0
552.2633329683772 11.14983610713097 262.079264444459 -183.05535526411637 0.0 0.0
604.5283864133717 16.68274062454517 299.8272040492247 -177.3331523258089 0.0 0.0
645.9453933656529 20.970395291779624 327.14207733158656 -172.99023850477485 0.0 0.0
681.6802340056875 25.202568343837186 349.52958126150213 -168.92922542315134 0.0 0.0
713.4738210592307 28.159852173933103 368.21394756760026 -165.00466764541855 0.0 0.0
743.5876400574535 30.124762360103972 384.947051298649 -160.57004267937867 0.0 0.0
775.1409450492865 32.858545252750474 402.42056470239805 -154.6417815252599 0.0 0.0
809.3828145768605 37.29144089829268 422.04232336294945 -146.45190911231103 0.0 0.0
833.0078901750458 32.29017287385042 431.9995412442963 -138.63846928578508 0.0 0.0
848.6818749063939 15.717572874063933 431.3693749198455 -131.04382657476987 0.0 0.0
919.338500170028 45.32985206809175 480.2568752744109 -113.57450216596033 0.0 0.0
919.3385001702401 45.3298520683835 480.2568752745486 113.57450216612156 0.0 0.0
848.6818749064585 15.71757287440397 431.3693749200395 131.04382657522171 0.0 0.0
833.0078901753191 32.29017287412893 431.9995412445411 138.63846928587506 0.0 0.0
809.3828145770686 37.2914408989559 422.04232336339976 146.45190911262938 0.0 0.0
775.1409450494215 32.85854525252279 402.42056470239186 154.64178152504294 0.0 0.0
743.5876400574033 30.12476236036474 384.9470512987841 160.57004267954474 0.0 0.0
713.4738210602798 28.159852175152423 368.2139475683196 165.00466764551607 0.0 0.0
681.6802340067956 25.20256834537207 349.5295812622603 168.929225423422 0.0 0.0
645.9453933648126 20.97039529115777 327.1420773310531 172.99023850481058 0.0 0.0
604.5283864128816 16.682740624066653 299.82720404886254 177.33315232575467 0.0 0.0
552.2633329678468 11.149836106707994 262.07926444410634 183.05535526390196 0.0 0.0
479.3464478222722 5.020558896117777 208.67212351523156 193.1318086433995 0.0 0.0
372.37221435700854 -2.8528790765098933 140.85427343809928 209.23665833294825 0.0 0.0
251.0288772815011 -6.198291563862908 82.47582730864094 220.34419526750554 0.0 0.0
161.56820517761824 -3.389283790114977 49.48206080852792 212.7717794133278 0.0 0.0
106.45790320638082 6.320499307348818 34.22266333320318 195.493028674855 0.0 0.0
60.25811818932862 16.396672913617206 23.027678815176174 183.60267180922432 0.0 0.0
17.170393271457048 4.519407569255726 6.511432891714997 186.74145699032357 0.0 0.0
-9.735014881437616 -44.16429959401947 -16.1744802247829 195.35282612077043 0.0 0.0
3.776357723932172 -376.044716122941 -132.69624325817088 164.1070054143909 0.0 0.0
1.9273312356854362 -326.1064614049235 -105.35569539734453 -159.23841873531103 0.0 0.0
-28.5425922757564 -45.823243750660936 -22.318504600941957 -197.01698607861118 0.0 0.0
-17.1803264260113 3.4561482440773803 -4.119506803957031 -193.72714293283872 0.0 0.0
6.018761692204306 17.611056715234902 7.105449434813121 -192.5984312827109 0.0 0.0
29.492019890170155 10.786114872358041 12.21389225194699 -204.3364540747858 0.0 0.0
51.9481881463306 2.150564432952506 16.84698500286782 -223.8324390626234 0.0 0.0
84.83690884130363 -0.9157219812520756 27.18211702414531 -238.73699659028176 0.0 0.0
147.80069146812366 1.1801442722078548 50.09606114615649 -240.1522542170131 0.0 0.0
237.98659596390257 5.315299434832202 87.19489485650084 -225.49997230179162 0.0 0.0
320.8342999336691 7.135175968992215 129.57663453326597 -208.61005084886216 0.0 0.0
380.6425064711262 8.48555083615696 168.31660717428747 -196.41265492942233 0.0 0.0
418.5703997434965 8.705677062071231 196.87865052934785 -189.09150356590905 0.0 0.0
445.97064880932254 8.682436066757333 218.42539199115313 -183.82621889874304 0.0 0.0
468.9812616995552 6.436493803141843 234.47100160940363 -179.35650234075928 0.0 0.0
492.0737693325545 2.1369662634402005 247.18755554767168 -175.07032152874763 0.0 0.0
520.3300889406604 -3.271816879408931 259.7685489176526 -170.2456431985248 0.0 0.0
558.2107136322178 -6.337283659496222 276.91824625768874 -162.94539019444107 0.0 0.0
604.5685154713788 -5.848030366769677 300.0767652948306 -151.860103731208 0.0 0.0
620.4729847053678 -38.984153264439215 292.30969047187114 -143.93226729711594 0.0 0.0
659.9496609298427 -67.16148581443952 294.4782095952291 -145.10237832918577 0.0 0.0
659.9496609280302 -67.16148581618592 294.4782095941395 145.1023783294823 0.0 0.0
620.4729847047089 -38.98415326562292 292.30969047123483 143.93226729721164 0.0 0.0
604.5685154705748 -5.848030367712795 300.0767652942474 151.86010373157308 0.0 0.0
558.2107136305235 -6.337283661515812 276.9182462564085 162.94539019448962 0.0 0.0
520.3300889402135 -3.2718168798737395 259.76854891727294 170.24564319852817 0.0 0.0
492.0737693324572 2.1369662631440463 247.18755554749848 175.07032152870534 0.0 0.0
468.981261698969 6.4364938027574965 234.4710016091114 179.3565023409985 0.0 0.0
445.97064880952695 8.6824360667094 218.42539199119102 183.8262188987966 0.0 0.0
418.5703997436923 8.705677062394045 196.87865052943988 189.09150356604619 0.0 0.0
380.6425064718097 8.485550837565711 168.31660717483257 196.41265492953335 0.0 0.0
320.83429993335767 7.135175968825386 129.5766345330226 208.6100508487145 0.0 0.0
237.98659596351638 5.315299434526718 87.19489485624898 225.49997230185497 0.0 0.0
147.80069146835604 1.180144273146734 50.09606114647011 240.15225421703332 0.0 0.0
84.83690884182545 -0.9157219798604679 27.182117024715993 238.73699659012436 0.0 0.0
51.94818814672088 2.150564433747075 16.84698500322341 223.8324390623546 0.0 0.0
29.49201989046408 10.786114872971417 12.213892252219301 204.33645407464456 0.0 0.0
6.018761692456823 17.611056715633215 7.105449435008833 192.5984312825484 0.0 0.0
-17.180326425930396 3.456148244253205 -4.119506803880689 193.72714293257997 0.0 0.0
-28.542592275893497 -45.82324375059659 -22.318504600966342 197.01698607846868 0.0 0.0
1.9273312357365207 -326.1064614046095 -105.35569539718045 159.238418735105 0.0 0.0
-8.764890842111411 -274.71950988526316 -86.37365940195807 -150.04082675510762 0.0 0.0
-48.60035144309148 -48.516327755940715 -29.15217638672163 -196.60226054445155 0.0 0.0
-50.62072510932255 3.6952768762949106 -14.109041812436354 -196.3467045190428 0.0 0.0
-46.59257539457471 18.68770605702405 -8.424352839685891 -196.24487446083492 0.0 0.0
-46.52446459297132 15.305871155473337 -9.537534750603939 -206.4989825993263 0.0 0.0
-58.68512983357765 7.338678186291639 -16.092725912391735 -224.7641820573415 0.0 0.0
-88.1455658645078 2.5923977237695714 -27.771488715190483 -238.89988932101764 0.0 0.0
-148.9877034712457 -0.7343397372774039 -50.401554045705566 -240.36343092954147 0.0 0.0
-237.87276470942965 -5.039233438190141 -87.09003614348757 -225.61595654258846 0.0 0.0
-320.55436858730354 -6.641435425666195 -129.31153480949524 -208.58462114580695 0.0 0.0
-380.9085555014391 -6.867104139779528 -167.72932927617214 -196.21424943964806 0.0 0.0
-420.54532179077177 -7.131057823821848 -197.00889558041078 -188.60752221231522 0.0 0.0
-450.67379204301926 -9.967482893021582 -220.9456355985891 -183.54178109167188 0.0 0.0
-474.3192828216925 -15.909104019123447 -241.538712758852 -180.3786994418958 0.0 0.0
-489.62579343089317 -25.044811335987504 -258.9890339376482 -178.9587285642383 0.0 0.0
-493.2439410992667 -36.34149287015626 -272.36036041339565 -178.7546997076508 0.0 0.0
-476.3501221521118 -46.99964521870251 -278.23373258628317 -178.62667277209198 0.0 0.0
-409.71832206715993 -39.60637739921478 -260.266717354931 -178.29407983309213 0.0 0.0
-228.39095957712016 -41.25877703266639 -201.95111828907437 -181.35372600008802 0.0 0.0
-31.294777510905703 -175.6468160171461 -73.31509190022248 -177.9885467254472 0.0 0.0
-31.294777510585845 -175.64681601643542 -73.31509189999389 177.98854672569968 0.0 0.0
-228.39095957637693 -41.25877703121017 -201.9511182884848 181.35372600052648 0.0 0.0
-409.71832206726845 -39.606377399363794 -260.26671735502117 178.2940798334812 0.0 0.0
-476.3501221499994 -46.99964521657017 -278.23373258475414 178.6266727722704 0.0 0.0
-493.24394109733214 -36.3414928675123 -272.3603604119085 178.75469970746144 0.0 0.0
-489.6257934299597 -25.044811334878148 -258.9890339370244 178.95872856414087 0.0 0.0
-474.31928282013627 -15.909104017394185 -241.53871275778178 180.37869944195498 0.0 0.0
-450.67379204146675 -9.967482891101298 -220.94563559745464 183.54178109159122 0.0 0.0
-420.5453217914011 -7.131057825563744 -197.00889558100937 188.60752221252542 0.0 0.0
-380.90855550049247 -6.867104139472048 -167.72932927564992 196.21424943968057 0.0 0.0
-320.55436858610824 -6.6414354247400595 -129.31153480871563 208.58462114553345 0.0 0.0
-237.87276470854982 -5.039233437615479 -87.09003614298528 225.6159565426756 0.0 0.0
-148.98770347085096 -0.7343397375751373 -50.40155404564989 240.36343092966092 0.0 0.0
-88.1455658644081 2.5923977232788387 -27.771488715285166 238.8998893208431 0.0 0.0
-58.685129833236786 7.3386781865021735 -16.09272591222151 224.76418205704763 0.0 0.0
-46.5244645927682 15.305871155760597 -9.537534750455935 206.49898259910034 0.0 0.0
-46.59257539445835 18.687706057164718 -8.424352839609845 196.2448744606314 0.0 0.0
-50.620725109213176 3.6952768764971005 -14.109041812345467 196.34670451885498 0.0 0.0
-48.600351443071446 -48.51632775578482 -29.152176386675507 196.60226054434887 0.0 0.0
-8.764890842184027 -274.7195098850282 -86.37365940191224 150.04082675493834 0.0 0.0
-22.02011650440195 -224.95914815698785 -74.08570416955206 -137.217293428342 0.0 0.0
-66.31696974424827 -49.064171505288904 -34.633954001439896 -193.201552885907 0.0 0.0
-83.14440087580746 3.9102719439343074 -23.834603400833018 -195.12775432338253 0.0 0.0
-97.54019286986295 19.629091381306893 -23.513334479833038 -194.66973738204857 0.0 0.0
-120.78536481096428 18.983737114444164 -31.109128119667233 -201.78235564293132 0.0 0.0
-166.97801679194995 12.369621007675853 -48.74878861447337 -215.02484767020457 0.0 0.0
-252.48560054419622 7.749409193922709 -82.81029788632017 -221.32168062624348 0.0 0.0
-371.891622939398 3.2262201120822844 -140.75584539821728 -209.83314250771093 0.0 0.0
-478.88406603002943 -4.774077463699243 -208.41957900491414 -193.3349839230493 0.0 0.0
-551.8286183405946 -10.60719580658774 -261.6750285238357 -183.0127152916595 0.0 0.0
-604.0362340181774 -15.423731146549471 -299.049878156738 -176.9803820730053 0.0 0.0
-646.1712313621156 -19.560331578383185 -326.541785397015 -172.12543134663787 0.0 0.0
-684.1580535974128 -26.189613532328337 -351.0306003039167 -168.0512349346617 0.0 0.0
-719.7656617776378 -36.15873131265485 -375.00659114874736 -165.82859948459125 0.0 0.0
-753.0998775400828 -49.73542315782973 -399.3441323353277 -165.82427499184752 0.0 0.0
-781.9196359697684 -65.56569298321898 -422.54270745344746 -167.94227639049555 0.0 0.0
-801.2006122991565 -80.28428982617629 -440.54436135203343 -172.67975433327354 0.0 0.0
-809.4060957277451 -93.34889024302157 -451.99364448696065 -180.08368159393302 0.0 0.0
-841.1814808734882 -146.43979512772643 -495.8144883601461 -189.62224495268563 0.0 0.0
-863.2021619872224 -242.01450951343315 -556.2521494258415 -208.35912665040271 0.0 0.0
-863.2021619866956 -242.01450951278002 -556.2521494254727 208.35912665068238 0.0 0.0
-841.1814808714323 -146.4397951258286 -495.8144883589644 189.6222449529178 0.0 0.0
-809.4060957265267 -93.348890241341 -451.9936444861806 180.08368159381428 0.0 0.0
-801.2006123003553 -80.28428982774705 -440.54436135304394 172.67975433349898 0.0 0.0
-781.9196359697726 -65.56569298339329 -422.5427074534796 167.9422763905659 0.0 0.0
-753.0998775400517 -49.73542315775444 -399.3441323352183 165.82427499171274 0.0 0.0
-719.7656617769509 -36.15873131220468 -375.00659114831296 165.82859948470627 0.0 0.0
-684.1580535961779 -26.18961353118158 -351.03060030310155 168.05123493462412 0.0 0.0
-646.1712313616792 -19.56033157809135 -326.54178539667316 172.12543134655618 0.0 0.0
-604.0362340171002 -15.423731145607924 -299.04987815598054 176.9803820728691 0.0 0.0
-551.8286183405396 -10.607195806755705 -261.67502852368233 183.01271529154158 0.0 0.0
-478.88406602962505 -4.774077463760424 -208.4195790046481 193.3349839230795 0.0 0.0
-371.8916229393993 3.2262201111528928 -140.75584539829998 209.8331425078841 0.0 0.0
-252.4856005438503 7.749409193404858 -82.81029788631467 221.32168062631726 0.0 0.0
-166.97801679161358 12.369621007446144 -48.74878861442738 215.02484767001482 0.0 0.0
-120.7853648110647 18.9837371138526 -31.109128119877294 201.7823556428763 0.0 0.0
-97.54019286989435 19.62909138113673 -23.513334479895157 194.6697373818773 0.0 0.0
-83.14440087566123 3.910271944004139 -23.834603400771538 195.12775432329144 0.0 0.0
-66.31696974419506 -49.064171505123596 -34.63395400138086 193.20155288592173 0.0 0.0
-22.020116504421058 -224.95914815675656 -74.08570416949101 137.21729342821823 0.0 0.0
-28.657784257605726 -178.14029428539914 -62.03942356290146 -122.21584415895884 0.0 0.0
-80.92933242935257 -47.06261627509106 -38.39685181647319 -185.95322407724592 0.0 0.0
-114.31723015478315 3.826547139851016 -33.2132578995203 -189.9356737160756 0.0 0.0
-146.74586084216153 20.08322665842005 -38.232692845632535 -187.90557331172488 0.0 0.0
-192.5857151533429 21.489766050491166 -52.439732253255585 -190.73904562983728 0.0 0.0
-268.96194595418115 18.140293227083955 -81.08220811440641 -196.60242457120086 0.0 0.0
-383.2165986485379 13.906115496693324 -136.11148143829126 -190.3809178775234 0.0 0.0
-499.96087944884323 3.100225239928271 -212.74089920981666 -175.58933012649337 0.0 0.0
-588.5864965448036 -7.93243249780997 -279.4984791257807 -167.47513298936502 0.0 0.0
-654.14915122905 -17.251216801012106 -326.52444537580436 -163.06535516313662 0.0 0.0
-707.5577737954275 -24.744536244993895 -360.76316905074344 -159.23168266946044 0.0 0.0
-754.3393430094632 -33.210908338997456 -389.97150778360174 -154.96482534898294 0.0 0.0
-797.8931503394082 -43.290380464959526 -417.55895800557823 -151.08129829006216 0.0 0.0
-840.2783132868315 -56.84738839595579 -445.9851339157756 -148.82782834496115 0.0 0.0
-882.1294841023778 -74.71433753667554 -476.24176954433807 -149.08577242105918 0.0 0.0
-920.9703207448888 -95.27309205629143 -506.3899593063466 -152.17207723024106 0.0 0.0
-955.0071330836104 -116.9352429505899 -534.6268077791209 -157.606676541706 0.0 0.0
-992.8237471550043 -149.80570755474122 -570.3305720656751 -163.58305751893755 0.0 0.0
-1037.630278532591 -200.2566551755266 -618.08315255894 -168.57175008321656 0.0 0.0
-1144.7986035997083 -340.26579096443584 -741.2673438923016 -172.2840025675143 0.0 0.0
-1144.7986035996873 -340.2657909644597 -741.2673438923916 172.2840025677039 0.0 0.0
-1037.6302785342386 -200.25665517759364 -618.0831525601371 168.57175008379494 0.0 0.0
-992.8237471560756 -149.80570755614275 -570.3305720664225 163.58305751919528 0.0 0.0
-955.0071330839364 -116.9352429510889 -534.6268077792276 157.6066765416776 0.0 0.0
-920.9703207451739 -95.27309205674553 -506.3899593064913 152.17207723031413 0.0 0.0
-882.1294841014017 -74.71433753566288 -476.24176954364145 149.08577242085306 0.0 0.0
-840.2783132869608 -56.847388396344755 -445.9851339159007 148.82782834510402 0.0 0.0
-797.8931503401025 -43.29038046603003 -417.55895800606703 151.08129829023275 0.0 0.0
-754.3393430094978 -33.21090833935171 -389.9715077836418 154.96482534903495 0.0 0.0
-707.5577737960208 -24.7445362459927 -360.76316905119864 159.2316826695518 0.0 0.0
-654.149151228961 -17.251216801226594 -326.52444537581914 163.06535516307298 0.0 0.0
-588.5864965446572 -7.932432497934518 -279.4984791256344 167.4751329892852 0.0 0.0
-499.9608794479114 3.1002252408650626 -212.74089920907636 175.5893301262126 0.0 0.0
-383.2165986474347 13.90611549768103 -136.11148143749546 190.38091787738205 0.0 0.0
-268.9619459534724 18.140293227544138 -81.08220811400712 196.6024245709721 0.0 0.0
-192.58571515285374 21.4897660511497 -52.43973225291833 190.7390456295389 0.0 0.0
-146.7458608419666 20.083226658611416 -38.2326928455192 187.90557331153835 0.0 0.0
-114.31723015447811 3.826547140200848 -33.21325789932865 189.93567371587278 0.0 0.0
-80.92933242939594 -47.06261627516309 -38.396851816510456 185.95322407700448 0.0 0.0
-28.657784257613066 -178.14029428521698 -62.039423562849024 122.21584415870264 0.0 0.0
-30.959356953487326 -135.28771044498802 -49.874120219542604 -106.22783430581393 0.0 0.0
-92.8961408057903 -42.793435768506356 -40.70634594101331 -174.14967742294715 0.0 0.0
-143.70268584756798 3.4893669943229595 -42.11711660737528 -180.64812186061926 0.0 0.0
-194.03096199922336 19.482394999711858 -52.70843268200167 -176.21604333657754 0.0 0.0
-260.66127669667094 23.87348748735336 -73.08516709062704 -174.3351464886509 0.0 0.0
-360.3761225141759 23.769495669806272 -114.19330575926526 -170.3085226426072 0.0 0.0
-479.2238424764339 15.614814945657223 -186.54427578552622 -156.50995933254046 0.0 0.0
-580.9696396191846 1.8304322292925832 -265.3289899419399 -147.67417204498824 0.0 0.0
-659.5600564499397 -11.057818771802147 -324.54405625659217 -145.6487306435748 0.0 0.0
-724.0026629308027 -23.048592804337034 -367.8381002352046 -143.94111894195098 0.0 0.0
-779.8707588686557 -34.3961761968265 -403.22348437395544 -141.08882370494294 0.0 0.0
-831.3805216825044 -46.824714370792435 -436.05385847730884 -137.3555488198766 0.0 0.0
-879.7652534385122 -60.430800906521284 -467.5352288481241 -133.61563580147802 0.0 0.0
-927.2292180800043 -77.39277313345264 -500.04483313280025 -131.2315860755332 0.0 0.0
-974.9686822806354 -98.99168487122341 -534.9570461698768 -131.58055967172902 0.0 0.0
-1023.2146602075054 -125.8891434593377 -572.7776251098544 -134.9200267491695 0.0 0.0
-1073.0509240549438 -159.7728849775522 -614.8671267028379 -139.99587044858592 0.0 0.0
-1127.40365008877 -204.38992601501354 -664.4710021634155 -144.17595448543779 0.0 0.0
-1201.9506730304552 -278.54677885900156 -738.67075199784 -144.00278667765818 0.0 0.0
-1301.4191147604952 -401.93401689800476 -850.156808631418 -141.86731128171792 0.0 0.0
-1301.4191147608478 -401.93401689846195 -850.1568086316124 141.86731128188694 0.0 0.0
-1201.9506730312378 -278.54677885999394 -738.6707519982394 144.00278667805767 0.0 0.0
-1127.4036500876387 -204.38992601417044 -664.4710021625181 144.175954485779 0.0 0.0
-1073.0509240523418 -159.77288497502047 -614.8671267009099 139.99587044866686 0.0 0.0
-1023.2146602057257 -125.88914345774086 -572.7776251085887 134.9200267492738 0.0 0.0
-974.9686822781691 -98.99168486870214 -534.9570461681576 131.58055967147834 0.0 0.0
-927.2292180791121 -77.39277313271411 -500.04483313218145 131.23158607552818 0.0 0.0
-879.7652534376912 -60.43080090576889 -467.53522884749293 133.61563580133668 0.0 0.0
-831.3805216821166 -46.82471437076404 -436.0538584770977 137.35554882006804 0.0 0.0
-779.8707588672196 -34.39617619563323 -403.2234843730383 141.08882370498876 0.0 0.0
-724.0026629302133 -23.048592804039274 -367.838100234801 143.94111894190323 0.0 0.0
-659.5600564485483 -11.057818770553926 -324.54405625565414 145.6487306434413 0.0 0.0
-580.9696396185129 1.8304322296142796 -265.32898994143403 147.6741720449684 0.0 0.0
-479.2238424754044 15.614814946370089 -186.54427578481216 156.50995933251087 0.0 0.0
-360.3761225139168 23.769495669429972 -114.19330575917584 170.30852264249017 0.0 0.0
-260.6612766965977 23.87348748686375 -73.08516709075192 174.33514648864394 0.0 0.0
-194.0309619988945 19.48239499993707 -52.70843268184802 176.21604333657416 0.0 0.0
-143.7026858476354 3.4893669940212337 -42.117116607491866 180.6481218604388 0.0 0.0
-92.8961408058934 -42.793435768819435 -40.70634594113835 174.14967742270593 0.0 0.0
-30.959356953413668 -135.28771044477347 -49.87412021945614 106.22783430576698 0.0 0.0
-32.08904352049713 -97.20579168888517 -38.788450562814674 -89.72009888758015 0.0 0.0
-103.20047662389408 -36.66165405396248 -41.95863920335696 -157.99096804068708 0.0 0.0
-171.21799203780535 2.9821003731421136 -50.49848555148213 -166.86179951014364 0.0 0.0
-239.67839036553247 18.205934558510357 -66.78545332659354 -160.2301141969018 0.0 0.0
-325.5653558966839 26.568298819938505 -93.618122084481 -153.06292905599344 0.0 0.0
-437.6337186740867 26.361703686466036 -148.81143380864611 -139.09998931198496 0.0 0.0
-548.2995156379686 15.426864261576704 -230.04702423503653 -126.08542331355345 0.0 0.0
-638.4306199360825 1.0339809055812879 -302.92301975288103 -123.703941839902 0.0 0.0
-712.9243126768006 -13.760365928549675 -356.24953992990095 -124.79736818427938 0.0 0.0
-778.0058930707205 -28.27110592572538 -398.7982816087324 -124.51205594315196 0.0 0.0
-837.8946188590762 -43.861956403408385 -437.6224062913879 -122.40565852506035 0.0 0.0
-893.9145676645414 -60.46620689114181 -474.55353172364653 -119.16766646968529 0.0 0.0
-946.747116071703 -77.8630777635407 -510.0695577184573 -115.69014334897656 0.0 0.0
-998.3420980473121 -97.6609402905546 -545.9936705960242 -113.24229915915572 0.0 0.0
-1051.9341353250315 -123.21617366056242 -585.7044452382569 -113.28629428296958 0.0 0.0
-1109.9498427207504 -157.905426868456 -632.1858183018772 -116.20199924776837 0.0 0.0
-1174.265425458133 -203.55912894720475 -687.282232652714 -120.61580901878867 0.0 0.0
-1248.221231043723 -265.3537900924002 -755.1730882607759 -123.17446138099557 0.0 0.0
-1332.7886818015093 -348.7480309567907 -839.1471621607197 -121.87205857360293 0.0 0.0
-1418.5764866962145 -456.5463033784745 -936.070636359793 -120.72878180480261 0.0 0.0
-1418.576486696762 -456.54630337911993 -936.070636360263 120.7287818049879 0.0 0.0
-1332.7886818014126 -348.748030956803 -839.1471621607046 121.87205857371742 0.0 0.0
-1248.2212310427878 -265.35379009157157 -755.1730882601705 123.17446138113283 0.0 0.0
-1174.2654254581817 -203.55912894736247 -687.2822326527605 120.61580901882422 0.0 0.0
-1109.9498427223436 -157.9054268703021 -632.1858183029522 116.20199924802748 0.0 0.0
-1051.9341353264713 -123.2161736623107 -585.7044452392422 113.28629428316455 0.0 0.0
-998.3420980485387 -97.66094029207568 -545.9936705968626 113.24229915939387 0.0 0.0
-946.7471160713311 -77.86307776340321 -510.0695577182563 115.6901433490145 0.0 0.0
-893.9145676636992 -60.46620689051445 -474.55353172306945 119.16766646970271 0.0 0.0
-837.894618858928 -43.86195640358175 -437.6224062912316 122.40565852514631 0.0 0.0
-778.0058930712838 -28.27110592659845 -398.7982816090641 124.5120559431339 0.0 0.0
-712.9243126766003 -13.760365928726348 -356.24953992983217 124.7973681843334 0.0 0.0
-638.430619935589 1.0339809058415348 -302.9230197524903 123.70394183980758 0.0 0.0
-548.2995156379612 15.426864260957569 -230.04702423497332 126.08542331371585 0.0 0.0
-437.63371867343494 26.361703686719984 -148.81143380821248 139.09998931189932 0.0 0.0
-325.5653558960622 26.568298820441136 -93.61812208412725 153.0629290558019 0.0 0.0
-239.67839036553664 18.205934558005893 -66.78545332675097 160.23011419672616 0.0 0.0
-171.21799203757473 2.982100373582456 -50.498485551285754 166.86179951007034 0.0 0.0
-103.2004766237873 -36.66165405385573 -41.9586392032929 157.99096804064865 0.0 0.0
-32.089043520495856 -97.20579168885374 -38.78845056280487 89.72009888750328 0.0 0.0
-32.942193525562566 -64.48838365820919 -29.22917315513152 -72.743045266926 0.0 0.0
-112.46052596200482 -29.24467956685882 -42.51156165865909 -137.89473711122412 0.0 0.0
-197.05673261270735 2.29008288904644 -58.42780781127778 -148.62483694642907 0.0 0.0
-282.6700033199063 16.60385699682608 -80.31195410784156 -139.93576150284613 0.0 0.0
-385.3947885713508 28.804395775866777 -114.92475014146159 -127.07985921261528 0.0 0.0
-499.938905271438 26.26820542716332 -183.4229275514416 -107.86044475544765 0.0 0.0
-599.4448577077147 15.44908158974598 -265.05567309446667 -99.73571049017322 0.0 0.0
-682.2458083732381 0.19883253743371654 -330.4691213935775 -101.28013089970925 0.0 0.0
-755.0834146918917 -15.565511275733712 -379.989306208638 -103.98683815089305 0.0 0.0
-822.7986666860608 -33.32130752713948 -424.4188797942729 -104.50517042386609 0.0 0.0
-886.9079092153287 -53.11154969633927 -467.15480336322685 -102.94512801794411 0.0 0.0
-947.5385418385711 -74.11426386246416 -508.4677517184562 -100.32038780086413 0.0 0.0
-1004.9898020623939 -95.55399877366642 -548.2714628752692 -97.37802160037526 0.0 0.0
-1060.5811753851226 -118.57951873014909 -587.7817241801664 -94.82598022976335 0.0 0.0
-1119.162500209738 -147.75057059733183 -631.7222953544056 -94.13691096564283 0.0 0.0
-1186.6496222543233 -189.6970182911162 -686.4671680763743 -96.17056732853864 0.0 0.0
-1265.2762262392548 -248.252965763524 -755.0914934423761 -99.69834755191809 0.0 0.0
-1353.8564235814702 -323.99830992522556 -837.2909072498462 -102.19290914045858 0.0 0.0
-1443.4580212054725 -412.74807256563037 -926.5260966567466 -102.73520257314732 0.0 0.0
-1521.3870937318668 -511.6738758520135 -1015.1097077698901 -105.10757588166183 0.0 0.0
-1521.3870937336164 -511.673875853913 -1015.1097077711348 105.10757588199306 0.0 0.0
-1443.4580212087872 -412.74807256915926 -926.5260966591056 102.73520257351582 0.0 0.0
-1353.856423583083 -323.99830992713294 -837.2909072510528 102.19290914094103 0.0 0.0
-1265.2762262387234 -248.2529657631396 -755.091493441915 99.69834755208757 0.0 0.0
-1186.6496222526953 -189.69701828956767 -686.4671680752531 96.17056732842491 0.0 0.0
-1119.1625002073063 -147.7505705949053 -631.7222953527039 94.13691096534487 0.0 0.0
-1060.581175384556 -118.57951872970634 -587.7817241797175 94.8259802296316 0.0 0.0
-1004.9898020612243 -95.5539987726961 -548.2714628744143 97.37802160036051 0.0 0.0
-947.538541837813 -74.1142638618615 -508.4677517178412 100.32038780070363 0.0 0.0
-886.9079092140356 -53.111549695235595 -467.1548033623981 102.94512801786205 0.0 0.0
-822.798666684589 -33.321307525779005 -424.4188797933061 104.50517042359354 0.0 0.0
-755.0834146909268 -15.565511275108307 -379.9893062079758 103.98683815100225 0.0 0.0
-682.2458083728807 0.19883253745521046 -330.469121393314 101.28013089969545 0.0 0.0
-599.4448577065361 15.449081590581095 -265.0556730936698 99.73571049022783 0.0 0.0
-499.93890527071545 26.268205427450035 -183.42292755093067 107.86044475547041 0.0 0.0
-385.39478857106855 28.804395775773333 -114.92475014135192 127.07985921250308 0.0 0.0
-282.67000331977886 16.60385699669947 -80.31195410784936 139.93576150266142 0.0 0.0
-197.05673261271673 2.290082888672175 -58.42780781139372 148.6248369463858 0.0 0.0
-112.4605259620283 -29.244679567198286 -42.511561658767974 137.8947371111729 0.0 0.0
-32.942193525692474 -64.4883836583842 -29.229173155223002 72.74304526676374 0.0 0.0
-33.53208580878166 -37.657327665559976 -21.356824042302488 -55.259193653874796 0.0 0.0
-120.6578135218252 -21.104475453704595 -42.52868669265893 -114.2897844510066 0.0 0.0
-221.45963193165494 1.2927160289060913 -66.04931428673552 -125.82468763882437 0.0 0.0
-324.8661495898152 15.65928996233987 -93.45959207525132 -115.9789599287388 0.0 0.0
-440.40878139369966 29.23065646522373 -138.11629219469907 -97.57279547271261 0.0 0.0
-548.3010677684799 25.563596472722686 -215.35425973561408 -79.25838079768594 0.0 0.0
-637.2940047872049 14.656783803690374 -292.33107259982626 -75.94319072257443 0.0 0.0
-716.29565933976 0.5789657529189043 -350.286314384767 -79.49052085464452 0.0 0.0
-790.1091037263177 -17.037498034376597 -399.21558890014273 -82.81006362599932 0.0 0.0
-861.0425827567135 -38.34816954998789 -446.503117894037 -83.73182244918856 0.0 0.0
-929.196734433438 -62.07370495427466 -493.07066338722376 -82.70360359117868 0.0 0.0
-994.6242190010656 -87.50391393679178 -538.9176372385629 -80.76464353827039 0.0 0.0
-1057.109882651505 -113.65230826035696 -583.5442420102927 -78.47595184784805 0.0 0.0
-1117.8053449437296 -140.929712619346 -627.7279006110946 -76.09065197186625 0.0 0.0
-1180.6415065491544 -173.25136313278227 -675.3488904147563 -74.43075953316244 0.0 0.0
-1254.190418277108 -220.26265190124002 -735.568773880969 -74.89971414571812 0.0 0.0
-1345.1281534137033 -289.73415127010264 -815.7577491365578 -77.81791114809145 0.0 0.0
-1446.065996089703 -377.27672773741125 -910.0577915536635 -81.59148022692828 0.0 0.0
-1543.6176113337297 -474.155320333586 -1007.361357897749 -85.55879798674312 0.0 0.0
-1619.751605518963 -570.6162597926444 -1093.8201596320841 -92.62130343996527 0.0 0.0
-1619.7516055182773 -570.6162597919636 -1093.820159631539 92.62130344000508 0.0 0.0
-1543.6176113314723 -474.15532033137174 -1007.3613578960345 85.55879798680998 0.0 0.0
-1446.065996088264 -377.27672773607475 -910.0577915525071 81.59148022706422 0.0 0.0
-1345.1281534151253 -289.7341512716745 -815.7577491374651 77.81791114822677 0.0 0.0
-1254.1904182773728 -220.2626519016777 -735.568773880972 74.89971414584267 0.0 0.0
-1180.641506548995 -173.251363132832 -675.3488904145266 74.43075953333546 0.0 0.0
-1117.805344942876 -140.92971261862073 -627.7279006104878 76.09065197169112 0.0 0.0
-1057.109882649992 -113.65230825898452 -583.5442420092799 78.47595184772346 0.0 0.0
-994.6242189999305 -87.5039139358221 -538.9176372378582 80.76464353808821 0.0 0.0
-929.1967344329242 -62.0737049539783 -493.0706633869021 82.7036035910674 0.0 0.0
-861.0425827561603 -38.34816954970065 -446.5031178936687 83.73182244917602 0.0 0.0
-790.109103725045 -17.037498033331367 -399.2155888994073 82.81006362584702 0.0 0.0
-716.2956593392316 0.578965753185166 -350.286314384414 79.49052085450184 0.0 0.0
-637.2940047866188 14.65678380399062 -292.3310725993719 75.94319072248213 0.0 0.0
-548.3010677680473 25.563596472759002 -215.35425973527012 79.25838079766697 0.0 0.0
-440.4087813931402 29.230656465546204 -138.11629219435275 97.57279547256044 0.0 0.0
-324.866149589374 15.659289962711775 -93.45959207502364 115.97895992865651 0.0 0.0
-221.4596319313296 1.2927160293341053 -66.04931428651042 125.82468763870551 0.0 0.0
-120.6578135217003 -21.104475453712062 -42.52868669262371 114.2897844507248 0.0 0.0
-33.53208580876698 -37.65732766547591 -21.356824042272862 55.25919365373389 0.0 0.0
-33.270340437489935 -17.194260867787058 -15.139380391583096 -37.38730258942344 0.0 0.0
-127.04196156522995 -12.755281137483978 -41.93917281081417 -87.42141208528248 0.0 0.0
-245.0139286931428 -0.10308814551140344 -73.53510505159625 -98.44657641175583 0.0 0.0
-367.09953729808626 16.15833126574419 -106.53033285935399 -88.12433607803489 0.0 0.0
-487.6492127714555 28.00850885810301 -162.82757053620855 -67.01505253236446 0.0 0.0
-585.8766787112534 23.952146699732538 -244.03846674793675 -54.0356152984608 0.0 0.0
-667.625310010922 14.430966824298494 -313.25866825656044 -53.810956939202136 0.0 0.0
-744.0147760406899 1.4169030845638986 -365.4980913693844 -57.65617043938668 0.0 0.0
-819.559047653112 -18.567586836657455 -415.33351231779994 -61.01798054466813 0.0 0.0
-893.8174667100346 -43.16587997952615 -465.6304250355865 -62.2047455758452 0.0 0.0
-966.2048532651153 -70.78461627637887 -516.155401872722 -61.675973599271174 0.0 0.0
-1036.3216168710474 -100.55891295410902 -566.4597540441295 -60.40014902842515 0.0 0.0
-1104.5693385978777 -131.81540810664313 -616.4731748110634 -58.876507028933815 0.0 0.0
-1171.3290338054403 -164.89151912528763 -666.57209774281 -56.897392215235364 0.0 0.0
-1239.019317934962 -201.55489938436972 -718.8152887121407 -54.56329915417906 0.0 0.0
-1314.780375370372 -249.65565426351986 -780.6724714847908 -53.21593236988565 0.0 0.0
-1409.2856269239567 -321.74036659679234 -863.865624067271 -55.11201908022832 0.0 0.0
-1526.0587540399774 -424.27012456865305 -973.563936332373 -60.694229397214436 0.0 0.0
-1636.943214957539 -533.8290857328507 -1083.902962521282 -69.11811897266928 0.0 0.0
-1722.0443539818382 -637.9697700653919 -1178.6859910732824 -81.83830840527762 0.0 0.0
-1722.0443539822945 -637.9697700658804 -1178.6859910735984 81.83830840533713 0.0 0.0
-1636.9432149593208 -533.8290857346876 -1083.9029625226585 69.11811897265267 0.0 0.0
-1526.0587540412903 -424.27012457006964 -973.5639363334972 60.694229397358825 0.0 0.0
-1409.2856269261408 -321.7403665991377 -863.8656240688989 55.11201908040256 0.0 0.0
-1314.7803753704814 -249.65565426378936 -780.6724714848765 53.21593237005784 0.0 0.0
-1239.0193179345813 -201.55489938415766 -718.8152887118076 54.56329915419015 0.0 0.0
-1171.3290338042693 -164.8915191242673 -666.5720977420091 56.897392215146155 0.0 0.0
-1104.569338597275 -131.81540810624162 -616.4731748107208 58.876507028917786 0.0 0.0
-1036.3216168705153 -100.5589129537864 -566.4597540437632 60.40014902832785 0.0 0.0
-966.2048532649723 -70.78461627641647 -516.1554018725694 61.675973598928024 0.0 0.0
-893.8174667106362 -43.16587998043815 -465.63042503591737 62.20474557592514 0.0 0.0
-819.5590476532143 -18.567586837024564 -415.33351231776555 61.017980544480324 0.0 0.0
-744.0147760413288 1.4169030835667655 -365.4980913698013 57.656170439519116 0.0 0.0
-667.6253100099256 14.430966824986108 -313.2586682559049 53.81095693915523 0.0 0.0
-585.876678710525 23.95214670014522 -244.0384667473534 54.035615298389125 0.0 0.0
-487.6492127713496 28.00850885780821 -162.82757053610305 67.01505253220802 0.0 0.0
-367.0995372978829 16.158331265290954 -106.53033285941983 88.12433607783649 0.0 0.0
-245.01392869295947 -0.1030881452864203 -73.53510505147375 98.44657641185404 0.0 0.0
-127.04196156511999 -12.75528113732706 -41.939172810734114 87.42141208542338 0.0 0.0
-33.270340437484066 -17.19426086777692 -15.139380391578293 37.38730258939782 0.0 0.0
-30.827259240996554 -3.505307241962439 -10.299769944887696 -19.642362336271297 0.0 0.0
-129.90172622036653 -4.861789570107172 -40.4290547371421 -57.24701077055497 0.0 0.0
-268.215440975821 -1.4910140955717388 -80.91193652141784 -66.01531518960564 0.0 0.0
-410.07325860633694 17.66763381061648 -120.62233747812263 -56.53715705067112 0.0 0.0
-526.0978786365924 26.36617317148575 -187.69348704683534 -38.463718169691305 0.0 0.0
-613.8000902035836 21.33285434302097 -268.4648066003417 -31.263777620425916 0.0 0.0
-691.3455120976125 15.358511544584147 -328.331720917861 -32.42582349352585 0.0 0.0
-766.9932584462888 1.7111067330224614 -377.9856329275666 -35.717316780148515 0.0 0.0
-843.9847257804356 -19.88549228154531 -428.6600068035662 -38.6000045843154 0.0 0.0
-921.7723394245236 -47.72522629742977 -482.14779299783675 -39.880555779872715 0.0 0.0
-998.5384171817456 -79.26967658394534 -536.7508941727624 -39.849220012684555 0.0 0.0
-1073.727274920586 -113.27944941724681 -591.6585579356879 -39.23473475834281 0.0 0.0
-1147.6905161519508 -150.01340949694668 -647.2242063463797 -38.345666404655205 0.0 0.0
-1221.512862735237 -189.57683840689617 -704.0681433812125 -37.03188993982235 0.0 0.0
-1295.989536553636 -232.69148307510682 -762.9524688799714 -34.922814300646884 0.0 0.0
-1373.0325706907727 -281.81550155059483 -826.0324948754709 -32.33241097278482 0.0 0.0
-1460.9378955354732 -346.6063245654899 -902.2572445494907 -31.982656544785648 0.0 0.0
-1574.9869110252107 -445.00536025794236 -1008.364844911086 -38.10564617808758 0.0 0.0
-1732.4057612399272 -598.9935143960419 -1164.2140824463877 -51.788609170134116 0.0 0.0
-1837.5088688900005 -721.0009110349429 -1277.9660272756955 -71.7303728861614 0.0 0.0
-1837.5088688897713 -721.0009110347715 -1277.9660272756585 71.73037288632207 0.0 0.0
-1732.4057612380525 -598.9935143941896 -1164.2140824451835 51.7886091700821 0.0 0.0
-1574.9869110232771 -445.00536025607266 -1008.3648449096651 38.10564617809064 0.0 0.0
-1460.937895534175 -346.60632456431756 -902.2572445483657 31.982656544886126 0.0 0.0
-1373.0325706892959 -281.8155015492527 -826.0324948743886 32.33241097284707 0.0 0.0
-1295.9895365526152 -232.69148307426104 -762.9524688793202 34.922814300797725 0.0 0.0
-1221.5128627349575 -189.5768384067948 -704.0681433809231 37.031889939778154 0.0 0.0
-1147.6905161526483 -150.01340949787675 -647.2242063467143 38.34566640466137 0.0 0.0
-1073.7272749195358 -113.27944941641174 -591.6585579348865 39.23473475828439 0.0 0.0
-998.5384171808282 -79.26967658326811 -536.7508941721037 39.84922001255988 0.0 0.0
-921.7723394242088 -47.72522629740372 -482.1477929976275 39.88055577996742 0.0 0.0
-843.9847257797003 -19.885492281092425 -428.66000680306246 38.60000458428932 0.0 0.0
-766.9932584462524 1.7111067326864742 -377.985632927486 35.7173167803153 0.0 0.0
-691.3455120973346 15.358511544524362 -328.33172091763845 32.4258234934586 0.0 0.0
-613.8000902041006 21.33285434210024 -268.4648066005694 31.263777620429202 0.0 0.0
-526.0978786365886 26.366173171027743 -187.69348704677355 38.46371816986323 0.0 0.0
-410.0732586059829 17.66763381022393 -120.6223374781118 56.53715705077776 0.0 0.0
-268.21544097571524 -1.4910140955507973 -80.91193652137981 66.0153151894562 0.0 0.0
-129.90172622029115 -4.861789570050458 -40.429054737102476 57.2470107703372 0.0 0.0
-30.827259240938773 -3.5053072419094633 -10.29976994485447 19.64236233631827 0.0 0.0
-23.64445536985935 3.1134319017783327 -6.159307040424306 -3.3258919657988337 0.0 0.0
-125.99043793370743 1.6709348679080858 -37.29585091973979 -23.15254699892543 0.0 0.0
-292.5854510992254 -1.9616640613860952 -88.36413454818344 -27.48773156369122 0.0 0.0
-449.7626837203499 19.70564326099842 -136.54942736956022 -22.526009116058432 0.0 0.0
-557.8155895103573 24.13234074745295 -212.33533852291305 -12.97618414273387 0.0 0.0
-637.8385298702486 19.98214661035098 -288.2452156909834 -10.50332861240701 0.0 0.0
-710.8569375279944 15.540682579657798 -340.40850147596103 -11.460959661823885 0.0 0.0
-785.5446911333488 1.961732338165831 -387.93631981148945 -13.619022576321722 0.0 0.0
-864.1065637658822 -21.176425080672544 -439.7392235975326 -15.577043622135236 0.0 0.0
-945.3350378248409 -51.93138303962775 -496.2506150518659 -16.74746999363938 0.0 0.0
-1026.7635576656808 -87.34932748719694 -555.0537186737033 -17.198842205981748 0.0 0.0
-1107.1174100988196 -126.18906275421313 -614.922165230878 -17.18406848697039 0.0 0.0
-1187.0350960677918 -168.00618923057402 -675.9721270934363 -16.93554443019925 0.0 0.0
-1267.7623165707685 -213.82469397697668 -739.3661237971635 -16.33142760839389 0.0 0.0
-1349.8917034741953 -264.38975829228804 -805.7972380150079 -15.1081887937245 0.0 0.0
-1432.458048137506 -319.1292508896915 -874.5030815666006 -13.037301638681445 0.0 0.0
-1514.146373762213 -377.6323781785459 -944.5857504347432 -10.836299076005558 0.0 0.0
-1602.833418508996 -449.4549851059649 -1024.6894781295139 -13.253628696175577 0.0 0.0
-1732.5518016847373 -572.1972763958274 -1150.7023410973602 -29.268342065951316 0.0 0.0
-2043.5074100365775 -894.7248765854674 -1467.8325210263229 -59.72896822647463 0.0 0.0
-2043.5074100391969 -894.724876588135 -1467.8325210281214 59.72896822653581 0.0 0.0
-1732.5518016855149 -572.1972763966979 -1150.702341097722 29.268342066172657 0.0 0.0
-1602.8334185088684 -449.45498510591614 -1024.6894781294052 13.2536286961194 0.0 0.0
-1514.1463737626555 -377.6323781791249 -944.5857504350233 10.836299076232407 0.0 0.0
-1432.4580481380717 -319.1292508903926 -874.5030815668827 13.037301638510908 0.0 0.0
-1349.8917034746487 -264.389758292911 -805.7972380151002 15.108188793760162 0.0 0.0
-1267.7623165699217 -213.8246939763046 -739.3661237964752 16.331427608342437 0.0 0.0
-1187.0350960666806 -168.00618922967624 -675.9721270927322 16.93554443026213 0.0 0.0
-1107.1174100973597 -126.18906275299113 -614.9221652299208 17.184068486979243 0.0 0.0
-1026.7635576648622 -87.34932748663034 -555.0537186731709 17.198842205945326 0.0 0.0
-945.3350378244711 -51.931383039562064 -496.2506150516372 16.747469993742286 0.0 0.0
-864.106563765293 -21.17642508036313 -439.7392235971663 15.577043622114317 0.0 0.0
-785.5446911336221 1.9617323375471187 -387.9363198116616 13.619022576524134 0.0 0.0
-710.856937528383 15.54068257890674 -340.40850147620097 11.46095966175384 0.0 0.0
-637.8385298701711 19.982146610127103 -288.24521569086687 10.503328612259546 0.0 0.0
-557.8155895100895 24.132340747383413 -212.3353385226676 12.97618414276973 0.0 0.0
-449.7626837198675 19.705643261144818 -136.54942736932068 22.526009115946493 0.0 0.0
-292.5854510988295 -1.9616640611188103 -88.36413454798448 27.487731563716842 0.0 0.0
-125.99043793348704 1.6709348680513347 -37.2958509196307 23.152546999087694 0.0 0.0
-23.644455369901387 3.1134319016775858 -6.15930704046714 3.325891965909856 0.0 0.0
SCALARS Strain float 6
LOOKUP_TABLE default
0.013485656553654832 -0.014556751285633884 0.0 -0.008131087941969206 0.0 0.0
0.002769373461630212 -0.0019025822618438104 0.0 0.0013789886922856986 0.0 0.0
0.001913954000092758 -0.0007945577503738477 0.0 -3.372780423926969e-05 0.0 0.0
0.0025522803109029844 -0.0013166182625437006 0.0 -0.0002565913215014648 0.0 0.0
0.0043183721868986676 -0.002813584996879781 0.0 -0.00034536942134916204 0.0 0.0
0.007941773049026893 -0.006136113522128062 0.0 -0.0005593149584982582 0.0 0.0
0.013885709240007905 -0.01181685992959336 0.0 -0.0009287260572050093 0.0 0.0
0.02256261681348099 -0.02022039538064746 0.0 -0.0015123973448864514 0.0 0.0
0.034171085053735395 -0.03152243324467685 0.0 -0.0023285488875501303 0.0 0.0
0.04864654473590993 -0.045661482738836856 0.0 -0.003301238120156369 0.0 0.0
0.06574996103677297 -0.0624126574558721 0.0 -0.004307902810669284 0.0 0.0
0.08518454118549307 -0.08148751505242346 0.0 -0.005283492761599395 0.0 0.0
0.10664058861769646 -0.10257830794488676 0.0 -0.006233218401343055 0.0 0.0
0.12975990506651955 -0.12532254011683808 0.0 -0.007138163478125903 0.0 0.0
0.15402082031841563 -0.14919577907652393 0.0 -0.007936293303369424 0.0 0.0
0.17861596760267487 -0.17339560500480022 0.0 -0.008456041471113895 0.0 0.0
0.20241088828769968 -0.19680113014644274 0.0 -0.008433167183330537 0.0 0.0
0.2239893607262242 -0.218007382325486 0.0 -0.007686178339022742 0.0 0.0
0.24167339294291704 -0.23532851634823437 0.0 -0.006787724554280672 0.0 0.0
0.2528533796762201 -0.2458922446910039 0.0 -0.008675663551798829 0.0 0.0
0.25285337967620336 -0.24589224469099058 0.0 0.00867566355180771 0.0 0.0
0.24167339294286178 -0.23532851634818464 0.0 0.006787724554305319 0.0 0.0
0.2239893607261385 -0.21800738232539807 0.0 0.007686178339042948 0.0 0.0
0.20241088828759202 -0.19680113014633616 0.0 0.00843316718333842 0.0 0.0
0.17861596760255322 -0.17339560500467854 0.0 0.008456041471103681 0.0 0.0
0.15402082031828984 -0.1491957790763987 0.0 0.007936293303368425 0.0 0.0
0.1297599050663943 -0.12532254011671418 0.0 0.0071381634781239045 0.0 0.0
0.10664058861757375 -0.10257830794476552 0.0 0.0062332184013418335 0.0 0.0
0.08518454118537433 -0.08148751505231022 0.0 0.005283492761590458 0.0 0.0
0.06574996103666808 -0.062412657455771736 0.0 0.004307902810660513 0.0 0.0
0.04864654473582247 -0.04566148273875381 0.0 0.0033012381201441565 0.0 0.0
0.03417108505366717 -0.031522433244608905 0.0 0.002328548887546855 0.0 0.0
0.022562616813432357 -0.020220395380601275 0.0 0.0015123973448794015 0.0 0.0
0.01388570923997362 -0.011816859929564716 0.0 0.0009287260572018452 0.0 0.0
0.007941773049006784 -0.0061361135221074115 0.0 0.0005593149584960377 0.0 0.0
0.004318372186889297 -0.0028135849968717874 0.0 0.00034536942134660853 0.0 0.0
0.00255228031090049 -0.00131661826254037 0.0 0.0002565913215009652 0.0 0.0
0.001913954000092144 -0.0007945577503724044 0.0 3.372780423971378e-05 0.0 0.0
0.002769373461627922 -0.0019025822618410348 0.0 -0.0013789886922827566 0.0 0.0
0.013485656553643033 -0.014556751285619023 0.0 0.008131087941931792 0.0 0.0
0.009720341087006763 -0.011168019919862826 0.0 -0.009955746936209597 0.0 0.0
0.00147415264079645 -0.0009503970295523523 0.0 0.00012047898120687295 0.0 0.0
0.0016246983886390107 -0.000566515918534849 0.0 -0.00012430499827575936 0.0 0.0
0.0022090266372850886 -0.0010750823703546963 0.0 -0.000526079906381649 0.0 0.0
0.003625465929095642 -0.0022211107904368532 0.0 -0.0007597950969099876 0.0 0.0
0.0067427846178744685 -0.0050215889423694815 0.0 -0.0012805671469497404 0.0 0.0
0.012053593257017 -0.010047222395661581 0.0 -0.00219457452342392 0.0 0.0
0.019905446727352262 -0.01761978383033158 0.0 -0.003553023979145753 0.0 0.0
0.03042083595055923 -0.02783706214025994 0.0 -0.005355396994947914 0.0 0.0
0.043483553357995704 -0.040582363551272316 0.0 -0.007426545686534447 0.0 0.0
0.05885029778911978 -0.05562306222734348 0.0 -0.009537042780317972 0.0 0.0
0.07626805333642422 -0.07271061498442721 0.0 -0.011561545827667385 0.0 0.0
0.09549737794964631 -0.09160408222361971 0.0 -0.013547598712437603 0.0 0.0
0.11624107805663345 -0.11200444499494733 0.0 -0.015482035834509855 0.0 0.0
0.13805287880813807 -0.13346476106721106 0.0 -0.017206832865183097 0.0 0.0
0.1602521522766598 -0.15530667719039748 0.0 -0.018391303088688138 0.0 0.0
0.1818608632706617 -0.176555992428435 0.0 -0.018552425519976268 0.0 0.0
0.20156046229064808 -0.19589189953767594 0.0 -0.01745979413263854 0.0 0.0
0.21750566417870362 -0.21141744905892335 0.0 -0.015616034445003923 0.0 0.0
0.2271159679366815 -0.22070650039190376 0.0 -0.012862289852237141 0.0 0.0
0.22711596793666436 -0.22070650039188422 0.0 0.012862289852266007 0.0 0.0
0.21750566417865475 -0.21141744905886917 0.0 0.015616034445056215 0.0 0.0
0.20156046229057176 -0.19589189953758712 0.0 0.017459794132673512 0.0 0.0
0.1818608632705681 -0.1765559924283373 0.0 0.018552425519991367 0.0 0.0
0.16025215227655137 -0.15530667719028735 0.0 0.018391303088678423 0.0 0.0
0.13805287880802564 -0.13346476106709648 0.0 0.017206832865177102 0.0 0.0
0.11624107805652023 -0.11200444499483453 0.0 0.015482035834505359 0.0 0.0
0.09549737794953622 -0.09160408222351135 0.0 0.013547598712431386 0.0 0.0
0.07626805333631892 -0.07271061498432907 0.0 0.01156154582765101 0.0 0.0
0.058850297789025896 -0.055623062227251996 0.0 0.009537042780306648 0.0 0.0
0.04348355335791737 -0.04058236355120037 0.0 0.0074265456865169055 0.0 0.0
0.03042083595049766 -0.02783706214020709 0.0 0.005355396994941586 0.0 0.0
0.01990544672730754 -0.017619783830291613 0.0 0.0035530239791364826 0.0 0.0
0.01205359325698696 -0.01004722239563094 0.0 0.0021945745234187575 0.0 0.0
0.006742784617857656 -0.005021588942355049 0.0 0.0012805671469458546 0.0 0.0
0.003625465929088356 -0.0022211107904293037 0.0 0.0007597950969081002 0.0 0.0
0.0022090266372828404 -0.001075082370352698 0.0 0.0005260799063804278 0.0 0.0
0.0016246983886391009 -0.000566515918535071 0.0 0.0001243049982774247 0.0 0.0
0.0014741526407959227 -0.0009503970295505204 0.0 -0.00012047898120798317 0.0 0.0
0.009720341086991935 -0.011168019919846922 0.0 0.009955746936178955 0.0 0.0
0.007276295566176108 -0.008911307273414992 0.0 -0.009285664766382262 0.0 0.0
0.0008576307365878236 -0.0006255008907646298 0.0 -0.0006175215670741196 0.0 0.0
0.0012973188337075392 -0.00041024384160370797 0.0 -0.0004471736373911628 0.0 0.0
0.0018883424271910615 -0.0008544366436866735 0.0 -0.0007716271082270354 0.0 0.0
0.0030079140886990624 -0.0017210020386655422 0.0 -0.001097388338491212 0.0 0.0
0.005594594050720929 -0.003976865946907937 0.0 -0.0018089860378503464 0.0 0.0
0.010236821127778836 -0.008304843875681645 0.0 -0.0031317296040864195 0.0 0.0
0.017215206009312395 -0.014999967917963986 0.0 -0.005114356445827917 0.0 0.0
0.026594187544587172 -0.02408838572890959 0.0 -0.007685646768929022 0.0 0.0
0.038215909708964976 -0.035412645285889166 0.0 -0.010597508150160417 0.0 0.0
0.05183645992676379 -0.048732821119156444 0.0 -0.013564223538293674 0.0 0.0
0.0672350570761986 -0.06382909941289983 0.0 -0.016426175813827437 0.0 0.0
0.08422072308366918 -0.08050900442966391 0.0 -0.019214929414526183 0.0 0.0
0.10256624030365095 -0.09854444580173283 0.0 -0.021944168405546693 0.0 0.0
0.12192018915691315 -0.11758432141776343 0.0 -0.024422196525213657 0.0 0.0
0.141736301859707 -0.13708031827863731 0.0 -0.02619869194107094 0.0 0.0
0.16118655736616075 -0.15619877663183068 0.0 -0.02670220698016701 0.0 0.0
0.17902416384316833 -0.17367689953579646 0.0 -0.025544210152684488 0.0 0.0
0.1934478751624442 -0.18774881448700853 0.0 -0.022245318683132287 0.0 0.0
0.2024294881978045 -0.19647257558157882 0.0 -0.015735410448502685 0.0 0.0
0.20242948819778797 -0.19647257558156817 0.0 0.015735410448551312 0.0 0.0
0.1934478751624008 -0.187748814486981 0.0 0.022245318683200344 0.0 0.0
0.17902416384310085 -0.17367689953573162 0.0 0.02554421015273589 0.0 0.0
0.16118655736607868 -0.1561987766317463 0.0 0.02670220698018877 0.0 0.0
0.141736301859612 -0.13708031827854494 0.0 0.026198691941060392 0.0 0.0
0.12192018915681357 -0.11758432141766573 0.0 0.024422196525204498 0.0 0.0
0.10256624030355044 -0.09854444580163602 0.0 0.021944168405539477 0.0 0.0
0.08422072308357281 -0.08050900442956843 0.0 0.01921492941452163 0.0 0.0
0.067235057076106 -0.06382909941280746 0.0 0.01642617581380912 0.0 0.0
0.05183645992668079 -0.048732821119070735 0.0 0.013564223538273024 0.0 0.0
0.03821590970889566 -0.035412645285818556 0.0 0.01059750815013405 0.0 0.0
0.026594187544532633 -0.024088385728850525 0.0 0.007685646768919363 0.0 0.0
0.017215206009272177 -0.014999967917922685 0.0 0.0051143564458170365 0.0 0.0
0.010236821127752427 -0.008304843875655665 0.0 0.0031317296040775933 0.0 0.0
0.0055945940507072245 -0.00397686594689306 0.0 0.00180898603784313 0.0 0.0
0.003007914088693664 -0.0017210020386604352 0.0 0.0010973883384887695 0.0 0.0
0.0018883424271896043 -0.0008544366436851192 0.0 0.0007716271082257031 0.0 0.0
0.0012973188337078723 -0.00041024384160404104 0.0 0.0004471736373907742 0.0 0.0
0.0008576307365876779 -0.0006255008907624648 0.0 0.0006175215670695122 0.0 0.0
0.007276295566162327 -0.00891130727339964 0.0 0.009285664766356172 0.0 0.0
0.0055461588924637095 -0.007204274912242625 0.0 -0.007920000339277589 0.0 0.0
0.0005342742157607994 -0.0004652812431704678 0.0 -0.0012300281215924525 0.0 0.0
0.001004062021232599 -0.00029904381462109164 0.0 -0.000888008147689967 0.0 0.0
0.0015858959179643889 -0.0006705767092687331 0.0 -0.0010452721296633771 0.0 0.0
0.002463467633607136 -0.0013137117700470213 0.0 -0.0013871364583876722 0.0 0.0
0.004533758087331294 -0.0030425880788023107 0.0 -0.0021722440708573654 0.0 0.0
0.008453858771882039 -0.006623170435753334 0.0 -0.003750690767862719 0.0 0.0
0.014525533979353508 -0.012394256093098743 0.0 -0.006190460426139077 0.0 0.0
0.022731915731215663 -0.020320018599011114 0.0 -0.009310713586255959 0.0 0.0
0.03288917653854935 -0.030198898051970513 0.0 -0.012821258610992203 0.0 0.0
0.04475089150979239 -0.0417849943779931 0.0 -0.016393103063438497 0.0 0.0
0.0581222161944788 -0.05488150693246885 0.0 -0.019863208568173085 0.0 0.0
0.07285767782611366 -0.069341665509834 0.0 -0.023259103240041934 0.0 0.0
0.0887918607989965 -0.0849986127666762 0.0 -0.02654605643086211 0.0 0.0
0.10566743654485299 -0.10159755877406784 0.0 -0.029543189950670623 0.0 0.0
0.1230776438379202 -0.11872561158731454 0.0 -0.03184096213436571 0.0 0.0
0.14034736628659467 -0.1356926551913702 0.0 -0.03279386421031194 0.0 0.0
0.15637545523827276 -0.1513969749909645 0.0 -0.03163520491990268 0.0 0.0
0.1696057344263148 -0.16431615682201617 0.0 -0.027201724108900538 0.0 0.0
0.17833524729677666 -0.17281387745490662 0.0 -0.018054632901796097 0.0 0.0
0.17833524729676226 -0.17281387745488708 0.0 0.01805463290185716 0.0 0.0
0.16960573442627572 -0.16431615682196288 0.0 0.027201724108979475 0.0 0.0
0.15637545523821375 -0.15139697499090055 0.0 0.03163520491996141 0.0 0.0
0.14034736628652347 -0.13569265519129292 0.0 0.0327938642103347 0.0 0.0
0.12307764383783781 -0.11872561158723549 0.0 0.031840962134353834 0.0 0.0
0.10566743654476612 -0.10159755877397902 0.0 0.02954318995065841 0.0 0.0
0.0887918607989091 -0.0849986127665896 0.0 0.026546056430852172 0.0 0.0
0.07285767782603009 -0.06934166550975362 0.0 0.02325910324003111 0.0 0.0
0.05812221619439878 -0.05488150693239513 0.0 0.019863208568147495 0.0 0.0
0.044750891509721 -0.04178499437792427 0.0 0.016393103063414127 0.0 0.0
0.03288917653848894 -0.03019889805191056 0.0 0.012821258610963504 0.0 0.0
0.02273191573116795 -0.02032001859896093 0.0 0.009310713586239139 0.0 0.0
0.01452553397931805 -0.012394256093064993 0.0 0.006190460426120259 0.0 0.0
0.008453858771860057 -0.006623170435732462 0.0 0.0037506907678499513 0.0 0.0
0.00453375808732015 -0.003042588078789654 0.0 0.002172244070851148 0.0 0.0
0.0024634676336031114 -0.0013137117700430245 0.0 0.0013871364583837864 0.0 0.0
0.0015858959179636534 -0.0006705767092670678 0.0 0.0010452721296602685 0.0 0.0
0.001004062021232266 -0.0002990438146207586 0.0 0.0008880081476876356 0.0 0.0
0.0005342742157606883 -0.00046528124316974617 0.0 0.0012300281215881226 0.0 0.0
0.005546158892451913 -0.007204274912229873 0.0 0.00792000033925716 0.0 0.0
0.004214830381230328 -0.005807795384288383 0.0 -0.006502264496693666 0.0 0.0
0.00035563447747155585 -0.0003716568968372691 0.0 -0.001707272303082874 0.0 0.0
0.0007614476913046925 -0.0002218149889653409 0.0 -0.0013338261258259432 0.0 0.0
0.001301134400944065 -0.0005196229003423536 0.0 -0.0013522909641038305 0.0 0.0
0.0019875480542014684 -0.0009910072508332313 0.0 -0.0016506717974095197 0.0 0.0
0.0035790212547218148 -0.0022431299218035328 0.0 -0.0024316782287138183 0.0 0.0
0.006751138243093854 -0.005048708177700867 0.0 -0.004073390631047391 0.0 0.0
0.011864093563979508 -0.009839562224414511 0.0 -0.0067411481646424964 0.0 0.0
0.018873782879147344 -0.01657295812268389 0.0 -0.01022522905490203 0.0 0.0
0.027546423944871445 -0.024986081500307566 0.0 -0.014097790193131898 0.0 0.0
0.037637558403988386 -0.03482518579652938 0.0 -0.01803554685573533 0.0 0.0
0.04897275994843088 -0.045913655174399715 0.0 -0.021870689517579867 0.0 0.0
0.06145053877595223 -0.05814654520834717 0.0 -0.025630444428563715 0.0 0.0
0.07496782408022917 -0.07141969835430295 0.0 -0.029283866970476913 0.0 0.0
0.0893478961499854 -0.08555823969273835 0.0 -0.032616950538188694 0.0 0.0
0.10430168406207205 -0.10026764412370959 0.0 -0.0352618281284347 0.0 0.0
0.11933588773277548 -0.11504173082862224 0.0 -0.03663295739084016 0.0 0.0
0.13360722032504427 -0.1290304431342939 0.0 -0.035695169019310136 0.0 0.0
0.1458460154778185 -0.1409886587863669 0.0 -0.030739997171085998 0.0 0.0
0.15456397874387198 -0.14948032700164582 0.0 -0.019998804932462533 0.0 0.0
0.15456397874385952 -0.14948032700163338 0.0 0.019998804932529257 0.0 0.0
0.1458460154777842 -0.1409886587863376 0.0 0.03073999717117093 0.0 0.0
0.13360722032499298 -0.12903044313425127 0.0 0.035695169019372974 0.0 0.0
0.11933588773271511 -0.11504173082856539 0.0 0.03663295739086703 0.0 0.0
0.10430168406200108 -0.1002676441236412 0.0 0.035261828128423156 0.0 0.0
0.08934789614991162 -0.0855582396926593 0.0 0.03261695053817548 0.0 0.0
0.07496782408015534 -0.071419698354235 0.0 0.02928386697046481 0.0 0.0
0.06145053877588147 -0.05814654520827656 0.0 0.02563044442855078 0.0 0.0
0.04897275994836375 -0.04591365517432866 0.0 0.021870689517554442 0.0 0.0
0.03763755840392846 -0.03482518579647431 0.0 0.018035546855702522 0.0 0.0
0.027546423944820653 -0.02498608150025916 0.0 0.014097790193093984 0.0 0.0
0.018873782879106626 -0.01657295812265014 0.0 0.010225229054879326 0.0 0.0
0.011864093563949685 -0.00983956222438831 0.0 0.0067411481646251215 0.0 0.0
0.006751138243076382 -0.005048708177682881 0.0 0.004073390631036067 0.0 0.0
0.0035790212547130995 -0.0022431299218013123 0.0 0.002431678228706935 0.0 0.0
0.0019875480541989843 -0.000991007250832343 0.0 0.0016506717974061336 0.0 0.0
0.0013011344009430936 -0.0005196229003414654 0.0 0.0013522909641029424 0.0 0.0
0.0007614476913049284 -0.00022181498896445273 0.0 0.0013338261258236672 0.0 0.0
0.00035563447747155585 -0.00037165689683593683 0.0 0.0017072723030809867 0.0 0.0
0.004214830381220447 -0.005807795384277226 0.0 0.006502264496678345 0.0 0.0
0.003155098131459616 -0.004633097783812212 0.0 -0.005250225082145232 0.0 0.0
0.00024863887554014974 -0.0003073196042778781 0.0 -0.0020642413075201427 0.0 0.0
0.0005602018054823021 -0.00016422452227726758 0.0 -0.0017252291017263999 0.0 0.0
0.0010281239624832378 -0.0003910947783689611 0.0 -0.0016657157280250967 0.0 0.0
0.0015724894688277646 -0.0007388187687291659 0.0 -0.001906333226055934 0.0 0.0
0.002730313179641203 -0.0015887482520593466 0.0 -0.0026220362180874313 0.0 0.0
0.005175820057600006 -0.0036414730041163246 0.0 -0.004208957247686995 0.0 0.0
0.009281880077130308 -0.007401090054384607 0.0 -0.0068469978778614715 0.0 0.0
0.015056249077895212 -0.012890379728978996 0.0 -0.010405517355440319 0.0 0.0
0.022230274348732634 -0.01981995021275207 0.0 -0.014417897130662105 0.0 0.0
0.030539903685793096 -0.02790141305665461 0.0 -0.01847774086620957 0.0 0.0
0.03983301112109458 -0.03697488536434701 0.0 -0.022439467285852 0.0 0.0
0.05004716298673176 -0.04697535599710534 0.0 -0.026333186513950002 0.0 0.0
0.06113869583293255 -0.05785589914211098 0.0 -0.03011309235422044 0.0 0.0
0.07300783827879767 -0.06951551188512362 0.0 -0.033587983497706975 0.0 0.0
0.08545690215181806 -0.08175922890857112 0.0 -0.036431526837874206 0.0 0.0
0.09817787506590064 -0.09426985539725496 0.0 -0.03811625739107605 0.0 0.0
0.11066226704061854 -0.10652124347383207 0.0 -0.03760702679651362 0.0 0.0
0.12200092009827027 -0.11760685948279725 0.0 -0.0328625305998288 0.0 0.0
0.13087919217464947 -0.1262498685318496 0.0 -0.021621121018969736 0.0 0.0
0.1308791921746385 -0.12624986853183628 0.0 0.02162112101903857 0.0 0.0
0.12200092009824076 -0.11760685948276173 0.0 0.032862530599915174 0.0 0.0
0.11066226704057586 -0.10652124347378855 0.0 0.037607026796575904 0.0 0.0
0.09817787506584952 -0.09426985539720523 0.0 0.03811625739110125 0.0 0.0
0.08545690215175952 -0.0817592289085125 0.0 0.03643152683786144 0.0 0.0
0.07300783827873591 -0.06951551188505434 0.0 0.03358798349769265 0.0 0.0
0.06113869583287179 -0.0578558991420417 0.0 0.030113092354205007 0.0 0.0
0.050047162986675386 -0.04697535599704761 0.0 0.026333186513934903 0.0 0.0
0.03983301112103943 -0.03697488536429905 0.0 0.022439467285828574 0.0 0.0
0.030539903685743885 -0.027901413056607538 0.0 0.01847774086618148 0.0 0.0
0.022230274348691348 -0.019819950212707216 0.0 0.014417897130628687 0.0 0.0
0.015056249077861905 -0.012890379728944357 0.0 0.010405517355416949 0.0 0.0
0.009281880077107008 -0.007401090054361514 0.0 0.0068469978778462615 0.0 0.0
0.005175820057586544 -0.0036414730041014476 0.0 0.004208957247676726 0.0 0.0
0.0027303131796348468 -0.0015887482520551277 0.0 0.0026220362180809365 0.0 0.0
0.0015724894688263213 -0.0007388187687307202 0.0 0.0019063332260511046 0.0 0.0
0.0010281239624824745 -0.0003910947783702934 0.0 0.0016657157280229873 0.0 0.0
0.0005602018054822744 -0.00016422452227793372 0.0 0.0017252291017259003 0.0 0.0
0.0002486388755401636 -0.00030731960427671234 0.0 0.002064241307516923 0.0 0.0
0.0031550981314519277 -0.004633097783803296 0.0 0.005250225082132354 0.0 0.0
0.002305756376817625 -0.0036368117055134985 0.0 -0.004206709621657256 0.0 0.0
0.00017593379277913712 -0.00025853718969748307 0.0 -0.002316500171724467 0.0 0.0
0.00038548641149188656 -0.00011528424336271215 0.0 -0.0020379342356162677 0.0 0.0
0.0007613878696993981 -0.0002731122748873549 0.0 -0.001959180807024785 0.0 0.0
0.0011986390193346463 -0.0005362986659833702 0.0 -0.002163791197739351 0.0 0.0
0.0019923916963505983 -0.0010713595548894617 0.0 -0.0027549151857786947 0.0 0.0
0.0037438948014021645 -0.002433616514875503 0.0 -0.004158373584713826 0.0 0.0
0.0068449096953628885 -0.005154009051934416 0.0 -0.006582421890931722 0.0 0.0
0.011335597393494018 -0.00934477161685221 0.0 -0.009905231265342485 0.0 0.0
0.016982354083711793 -0.014751415806033563 0.0 -0.013754159920307818 0.0 0.0
0.023500357391420007 -0.021063519247712215 0.0 -0.01770855847738062 0.0 0.0
0.030749787188281336 -0.02811916979644913 0.0 -0.02155740773068482 0.0 0.0
0.03869690225928632 -0.035883955805070755 0.0 -0.02533325114315843 0.0 0.0
0.04735257645368224 -0.044363184108614284 0.0 -0.029026242246959155 0.0 0.0
0.056691630673768895 -0.05352629883946047 0.0 -0.032444678450625375 0.0 0.0
0.06660165802452958 -0.06326218051690624 0.0 -0.035261174321602695 0.0 0.0
0.07691575352339891 -0.0734185934681868 0.0 -0.03712017559698344 0.0 0.0
0.08748475552760746 -0.08381871837901222 0.0 -0.03723443318399655 0.0 0.0
0.09788108514831095 -0.09399695729646318 0.0 -0.033457093294508855 0.0 0.0
0.10703231475545866 -0.10289086534090419 0.0 -0.02290555891724788 0.0 0.0
0.10703231475545005 -0.10289086534090508 0.0 0.022905558917309943 0.0 0.0
0.09788108514828661 -0.09399695729645519 0.0 0.03345709329459712 0.0 0.0
0.08748475552757384 -0.08381871837899091 0.0 0.037234433184059834 0.0 0.0
0.07691575352335708 -0.07341859346814505 0.0 0.03712017559701386 0.0 0.0
0.06660165802448334 -0.06326218051686805 0.0 0.03526117432159004 0.0 0.0
0.05669163067372021 -0.05352629883942406 0.0 0.03244467845061305 0.0 0.0
0.047352576453634776 -0.044363184108567655 0.0 0.02902624224694672 0.0 0.0
0.03869690225924449 -0.03588395580503123 0.0 0.025333251143146107 0.0 0.0
0.03074978718823823 -0.028119169796413157 0.0 0.021557407730661837 0.0 0.0
0.023500357391382454 -0.02106351924767713 0.0 0.017708558477352865 0.0 0.0
0.016982354083679707 -0.014751415805998924 0.0 0.013754159920275177 0.0 0.0
0.011335597393468788 -0.009344771616825565 0.0 0.00990523126532361 0.0 0.0
0.0068449096953454025 -0.005154009051914432 0.0 0.006582421890918622 0.0 0.0
0.0037438948013925333 -0.0024336165148626243 0.0 0.004158373584702335 0.0 0.0
0.0019923916963465182 -0.0010713595548836885 0.0 0.0027549151857715337 0.0 0.0
0.0011986390193337582 -0.0005362986659782631 0.0 0.0021637911977360202 0.0 0.0
0.0007613878696989818 -0.00027311227488613365 0.0 0.0019591808070203998 0.0 0.0
0.000385486411491498 -0.00011528424336337828 0.0 0.002037934235612382 0.0 0.0
0.00017593379277874854 -0.0002585371896967614 0.0 0.0023165001717226907 0.0 0.0
0.002305756376811907 -0.0036368117055061225 0.0 0.004206709621646709 0.0 0.0
0.0016365486742497826 -0.0028063326979445025 0.0 -0.00337525326197452 0.0 0.0
0.00011260303707544272 -0.00021757511151121456 0.0 -0.002468589484129702 0.0 0.0
0.00022478319119426104 -6.696083621693383e-05 0.0 -0.0022713951489379824 0.0 0.0
0.0004990880562058542 -0.0001575185387221456 0.0 -0.0022060489076025647 0.0 0.0
0.0008410025867882087 -0.0003591329746999161 0.0 -0.0024067610731069444 0.0 0.0
0.001357302455692433 -0.000679912551654116 0.0 -0.002894863081790766 0.0 0.0
0.002475169668769067 -0.001458421664556564 0.0 -0.003997799828339921 0.0 0.0
0.0045948799040613775 -0.003172137585921053 0.0 -0.005994724985859512 0.0 0.0
0.00778525144199671 -0.006031894139634453 0.0 -0.00881892511458826 0.0 0.0
0.011860589286474182 -0.009862698340212361 0.0 -0.012161567068573964 0.0 0.0
0.016566123453083947 -0.014376219904053134 0.0 -0.015690814584425117 0.0 0.0
0.021768398911623354 -0.019409891342649477 0.0 -0.01917848726787974 0.0 0.0
0.027449539394963557 -0.024938740293857453 0.0 -0.022608845795642485 0.0 0.0
0.03365733749458935 -0.031005689805612136 0.0 -0.02596982954167304 0.0 0.0
0.040442571232492064 -0.03765192191007838 0.0 -0.029137946571973106 0.0 0.0
0.04779070364827381 -0.0448561012150428 0.0 -0.03178229437408131 0.0 0.0
0.055628565246278794 -0.05256787890907688 0.0 -0.03354746934104047 0.0 0.0
0.0640521565067336 -0.06090354875000781 0.0 -0.03421453865045654 0.0 0.0
0.07327451814598632 -0.06997591323848784 0.0 -0.03216342540892225 0.0 0.0
0.08272549525750272 -0.07913917902489587 0.0 -0.023752515786344852 0.0 0.0
0.08272549525749756 -0.07913917902488432 0.0 0.023752515786399253 0.0 0.0
0.07327451814596889 -0.0699759132384612 0.0 0.032163425409006074 0.0 0.0
0.06405215650670817 -0.060903548749979386 0.0 0.03421453865051216 0.0 0.0
0.05562856524624707 -0.052567878909051124 0.0 0.03354746934106212 0.0 0.0
0.047790703648240535 -0.04485610121499928 0.0 0.031782294374061215 0.0 0.0
0.04044257123245695 -0.0376519219100393 0.0 0.029137946571961115 0.0 0.0
0.03365733749455635 -0.031005689805585046 0.0 0.02596982954165805 0.0 0.0
0.02744953939493544 -0.024938740293830364 0.0 0.02260884579563338 0.0 0.0
0.02176839891159349 -0.01940989134261839 0.0 0.01917848726786142 0.0 0.0
0.016566123453057524 -0.014376219904026488 0.0 0.015690814584402246 0.0 0.0
0.011860589286452144 -0.009862698340194598 0.0 0.01216156706854754 0.0 0.0
0.0077852514419793906 -0.006031894139617133 0.0 0.00881892511456872 0.0 0.0
0.004594879904049443 -0.003172137585915724 0.0 0.005994724985846522 0.0 0.0
0.0024751696687629055 -0.0014584216645545656 0.0 0.003997799828330206 0.0 0.0
0.0013573024556903235 -0.0006799125516536719 0.0 0.0028948630817862697 0.0 0.0
0.0008410025867875981 -0.0003591329747028027 0.0 0.0024067610731036138 0.0 0.0
0.0004990880562054933 -0.00015751853872092436 0.0 0.0022060489076006773 0.0 0.0
0.0002247831911940945 -6.696083621571258e-05 0.0 0.0022713951489363726 0.0 0.0
0.0001126030370753317 -0.00021757511151132558 0.0 0.0024685894841283695 0.0 0.0
0.001636548674245203 -0.002806332697939498 0.0 0.0033752532619676923 0.0 0.0
0.0011324316368007958 -0.0021423608401165417 0.0 -0.0027458028905650855 0.0 0.0
4.1896341527569714e-05 -0.00018204393092835502 0.0 -0.0025422414463064924 0.0 0.0
6.934377679568282e-05 -1.2941309331160333e-05 0.0 -0.0024302477590432137 0.0 0.0
0.00024268609296987376 -4.332115313343543e-05 0.0 -0.0023944508424761923 0.0 0.0
0.0004804104662310682 -0.0001864083345370915 0.0 -0.0026097342385844047 0.0 0.0
0.0007910146092597881 -0.0003756926448676978 0.0 -0.003054134224559024 0.0 0.0
0.001385748318774943 -0.0007311354927193037 0.0 -0.0038257165133671056 0.0 0.0
0.002570951787719822 -0.001550204570277991 0.0 -0.005190642247786537 0.0 0.0
0.004469132876630838 -0.0030830546161579875 0.0 -0.007228694184452489 0.0 0.0
0.006939145588306633 -0.005288160721266699 0.0 -0.009740428336296292 0.0 0.0
0.009798771454625044 -0.007956694792450758 0.0 -0.012508595786169807 0.0 0.0
0.012933365639403449 -0.010945249907425403 0.0 -0.015347883188714273 0.0 0.0
0.016347145237982724 -0.014234320470760675 0.0 -0.01821504731093493 0.0 0.0
0.020102306155254712 -0.017882610913653174 0.0 -0.021048183373360563 0.0 0.0
0.02429805796655754 -0.02198073905912512 0.0 -0.023779826458427133 0.0 0.0
0.02904180397460443 -0.02662096386459556 0.0 -0.026195386257781283 0.0 0.0
0.03439360682857284 -0.03185617367089666 0.0 -0.027839460108278757 0.0 0.0
0.040488366261992786 -0.03789377105340641 0.0 -0.028600823287371346 0.0 0.0
0.04799700586424091 -0.045405468218840284 0.0 -0.028382170047927202 0.0 0.0
0.057537982562067935 -0.05464813210704289 0.0 -0.02384415855277744 0.0 0.0
0.05753798256206477 -0.05464813210703845 0.0 0.023844158552827843 0.0 0.0
0.04799700586423147 -0.045405468218829625 0.0 0.028382170048000255 0.0 0.0
0.040488366261974856 -0.03789377105338687 0.0 0.02860082328742286 0.0 0.0
0.034393606828551526 -0.03185617367087268 0.0 0.027839460108290526 0.0 0.0
0.029041803974585584 -0.026620963864576908 0.0 0.026195386257763742 0.0 0.0
0.02429805796653603 -0.021980739059102916 0.0 0.023779826458414144 0.0 0.0
0.020102306155237143 -0.017882610913629637 0.0 0.021048183373351237 0.0 0.0
0.016347145237968208 -0.014234320470739359 0.0 0.01821504731093071 0.0 0.0
0.012933365639386574 -0.010945249907412524 0.0 0.015347883188698508 0.0 0.0
0.009798771454610389 -0.007956694792438768 0.0 0.012508595786150267 0.0 0.0
0.00693914558829381 -0.005288160721256485 0.0 0.009740428336272755 0.0 0.0
0.004469132876621679 -0.0030830546161544348 0.0 0.007228694184437279 0.0 0.0
0.0025709517877134103 -0.0015502045702762146 0.0 0.005190642247777766 0.0 0.0
0.0013857483187718622 -0.0007311354927193037 0.0 0.0038257165133609994 0.0 0.0
0.0007910146092590942 -0.0003756926448670317 0.0 0.003054134224553362 0.0 0.0
0.00048041046623073513 -0.00018640833453686945 0.0 0.002609734238580963 0.0 0.0
0.0002426860929699015 -4.3321153133657475e-05 0.0 0.002394450842475304 0.0 0.0
6.934377679546078e-05 -1.2941309330605222e-05 0.0 0.0024302477590416594 0.0 0.0
4.189634152704236e-05 -0.00018204393092752236 0.0 0.0025422414463048826 0.0 0.0
0.001132431636798159 -0.002142360840112519 0.0 0.002745802890560034 0.0 0.0
0.000768989181959584 -0.0016280588330927492 0.0 -0.0022802744532604002 0.0 0.0
-4.0509452225306886e-05 -0.00015285922902941174 0.0 -0.00256521873058857 0.0 0.0
-8.519021908343083e-05 4.950284911164893e-05 0.0 -0.0025270414744158476 0.0 0.0
-7.161400851662947e-06 6.863193653616761e-05 0.0 -0.002521855795896144 0.0 0.0
0.00011506293949672952 -1.007888546777913e-05 0.0 -0.0027339494234243644 0.0 0.0
0.0002463224484665627 -0.00010443097330226081 0.0 -0.0031929127654521383 0.0 0.0
0.0004377284941783355 -0.00021552188640994174 0.0 -0.0038073345757258514 0.0 0.0
0.0008082818390602597 -0.0004101280452872835 0.0 -0.004516640681467732 0.0 0.0
0.0014381932396728137 -0.000777199659162342 0.0 -0.00551858971129382 0.0 0.0
0.0022688395170358533 -0.0013537472961639985 0.0 -0.00698372710571904 0.0 0.0
0.003229676621621491 -0.002114787292658349 0.0 -0.008896150204231068 0.0 0.0
0.004264788725458352 -0.003016479270788519 0.0 -0.011069425026687063 0.0 0.0
0.005391282447042733 -0.004045125493308266 0.0 -0.013409167086697926 0.0 0.0
0.006672931208269867 -0.005253153694045665 0.0 -0.015879045944126702 0.0 0.0
0.008243785733526354 -0.006760989151239016 0.0 -0.018430618442037194 0.0 0.0
0.010324092735017665 -0.008770439093059856 0.0 -0.020878141958854513 0.0 0.0
0.013185451761032613 -0.011527868408571784 0.0 -0.022733843147272115 0.0 0.0
0.01703323105118873 -0.015235636550389842 0.0 -0.023331337093230098 0.0 0.0
0.02231874946461926 -0.02057115242079366 0.0 -0.023304482500001056 0.0 0.0
0.03093011650039354 -0.029155583730972268 0.0 -0.023022498047155948 0.0 0.0
0.030930116500392235 -0.02915558373098026 0.0 0.023022498047196027 0.0 0.0
0.022318749464616067 -0.020571152420795435 0.0 0.023304482500057122 0.0 0.0
0.017033231051179626 -0.0152356365503854 0.0 0.02333133709326607 0.0 0.0
0.013185451761024397 -0.01152786840857356 0.0 0.022733843147272226 0.0 0.0
0.010324092735013307 -0.00877043909305808 0.0 0.020878141958840857 0.0 0.0
0.008243785733519887 -0.006760989151233687 0.0 0.018430618442022206 0.0 0.0
0.006672931208266897 -0.005253153694045221 0.0 0.01587904594412015 0.0 0.0
0.00539128244704179 -0.004045125493306934 0.0 0.013409167086690932 0.0 0.0
0.004264788725455132 -0.003016479270784078 0.0 0.011069425026674629 0.0 0.0
0.003229676621619215 -0.0021147872926507993 0.0 0.008896150204218412 0.0 0.0
0.0022688395170326336 -0.0013537472961622221 0.0 0.0069837271057029415 0.0 0.0
0.0014381932396709263 -0.000777199659162342 0.0 0.005518589711289379 0.0 0.0
0.0008082818390587887 -0.00041012804528284263 0.0 0.004516640681462736 0.0 0.0
0.0004377284941777526 -0.00021552188640439063 0.0 0.0038073345757206334 0.0 0.0
0.000246322448466757 -0.00010443097329937423 0.0 0.0031929127654476974 0.0 0.0
0.0001150629394968683 -1.0078885465558685e-05 0.0 0.0027339494234223105 0.0 0.0
-7.161400851302124e-06 6.863193653749988e-05 0.0 0.0025218557958947008 0.0 0.0
-8.519021908343083e-05 4.950284911231506e-05 0.0 0.002527041474413072 0.0 0.0
-4.0509452226056286e-05 -0.00015285922902885662 0.0 0.002565218730587404 0.0 0.0
0.0007689891819582517 -0.0016280588330903588 0.0 0.0022802744532561814 0.0 0.0
0.0005133171908560386 -0.001253033311114704 0.0 -0.001982255661013843 0.0 0.0
-0.00012663169956361742 -0.00012590601160789028 0.0 -0.002560093790351825 0.0 0.0
-0.00023857467448828995 0.00011650569439736191 0.0 -0.00256615337456112 0.0 0.0
-0.0002506488676081997 0.0001779904232537266 0.0 -0.0025792514248061393 0.0 0.0
-0.00024752403562211533 0.00016601177924591148 0.0 -0.0027745819015536077 0.0 0.0
-0.00029994047868206475 0.00016506212356270922 0.0 -0.00321430601919076 0.0 0.0
-0.0004595425057783986 0.00023289319206654113 0.0 -0.0038218066681265928 0.0 0.0
-0.0008165617539162839 0.0004163145594078266 0.0 -0.004528567693590557 0.0 0.0
-0.001438872119459561 0.000778868050877346 0.0 -0.005523576022431809 0.0 0.0
-0.002268675407454679 0.001355660729809749 0.0 -0.006984131779148139 0.0 0.0
-0.003243825608754941 0.0021328156309201596 0.0 -0.008901293543814637 0.0 0.0
-0.004323375031995119 0.003074004481605108 0.0 -0.011083351361830585 0.0 0.0
-0.005496954466753745 0.004133780645684482 0.0 -0.013420525053496446 0.0 0.0
-0.0067038625199322965 0.0052403283207329565 0.0 -0.015878470109494502 0.0 0.0
-0.007773565276521538 0.0062262459991124786 0.0 -0.01843898660325749 0.0 0.0
-0.008401999683140732 0.006798108094375088 0.0 -0.021043348352298152 0.0 0.0
-0.00815202754625105 0.006548860546336854 0.0 -0.02366329509659615 0.0 0.0
-0.0066573587544372925 0.005238175920794674 0.0 -0.02639984796999284 0.0 0.0
-0.003554895069759978 0.0026116933599622527 0.0 -0.02889983958667075 0.0 0.0
0.004097304648153222 -0.004657818019009774 0.0 -0.028265846460126864 0.0 0.0
0.004097304648152195 -0.004657818019006221 0.0 0.02826584646014363 0.0 0.0
-0.003554895069759728 0.002611693359967582 0.0 0.028899839586692178 0.0 0.0
-0.0066573587544335455 0.005238175920790233 0.0 0.026399847969999723 0.0 0.0
-0.008152027546243057 0.006548860546340407 0.0 0.02366329509658527 0.0 0.0
-0.008401999683130379 0.006798108094376865 0.0 0.02104334835227928 0.0 0.0
-0.007773565276511768 0.006226245999108038 0.0 0.01843898660323884 0.0 0.0
-0.006703862519921805 0.00524032832073118 0.0 0.01587847010948351 0.0 0.0
-0.005496954466741422 0.004133780645681373 0.0 0.013420525053485899 0.0 0.0
-0.004323375031983295 0.0030740044815873446 0.0 0.01108335136181382 0.0 0.0
-0.003243825608744727 0.0021328156309134982 0.0 0.00890129354379876 0.0 0.0
-0.0022686754074471016 0.0013556607298079726 0.0 0.006984131779131375 0.0 0.0
-0.0014388721194547593 0.0007788680508764578 0.0 0.005523576022426813 0.0 0.0
-0.0008165617539133141 0.00041631455940516204 0.0 0.004528567693589447 0.0 0.0
-0.0004595425057767055 0.0002328931920638766 0.0 0.003821806668120986 0.0 0.0
-0.0002999404786808435 0.00016506212356293126 0.0 0.003214306019185653 0.0 0.0
-0.00024752403562172676 0.00016601177924679966 0.0 0.0027745819015503326 0.0 0.0
-0.00025064886760797767 0.0001779904232541707 0.0 0.0025792514248038634 0.0 0.0
-0.0002385746744882622 0.00011650569439813907 0.0 0.0025661533745595655 0.0 0.0
-0.00012663169956383946 -0.00012590601160722414 0.0 0.0025600937903515475 0.0 0.0
0.0005133171908553169 -0.001253033311113566 0.0 0.0019822556610119557 0.0 0.0
0.0003383779522047603 -0.0009805078898666442 0.0 -0.0017835751772941055 0.0 0.0
-0.00020624758110765473 -9.37826093942995e-05 0.0 -0.002515627942507259 0.0 0.0
-0.00038775556937958866 0.00018161810471417628 0.0 -0.0025519443400553454 0.0 0.0
-0.0004865778016724942 0.00028372892973571595 0.0 -0.0025619711382873778 0.0 0.0
-0.0006028195413335935 0.0003369980297012187 0.0 -0.002725806002894904 0.0 0.0
-0.0008442410572026271 0.0004375266884051321 0.0 -0.0031231937599138226 0.0 0.0
-0.0014066682253292828 0.0007515752468560954 0.0 -0.0038701597362077456 0.0 0.0
-0.0025757817504224456 0.0015569392539713789 0.0 -0.005215670452145105 0.0 0.0
-0.004467459206823815 0.003083303761826528 0.0 -0.007235232067816955 0.0 0.0
-0.006939885666438078 0.00529166398109604 0.0 -0.009741968138539225 0.0 0.0
-0.009815909927446714 0.007978890240803782 0.0 -0.012508995971560743 0.0 0.0
-0.01298863215812962 0.011004085461454594 0.0 -0.015328131359116481 0.0 0.0
-0.01643935287565651 0.01431659634078919 0.0 -0.018150350126886372 0.0 0.0
-0.020111143822343663 0.017849281853865584 0.0 -0.020967784089610753 0.0 0.0
-0.02381185528241092 0.02140749641634443 0.0 -0.023844988589784455 0.0 0.0
-0.027168326310995694 0.024628270238182814 0.0 -0.026834070804573007 0.0 0.0
-0.02965887038385498 0.027014811856900245 0.0 -0.030037404793090583 0.0 0.0
-0.030704221243526703 0.02799472398261127 0.0 -0.03334816237273408 0.0 0.0
-0.029197100221231204 0.02623022869250846 0.0 -0.03496085995691911 0.0 0.0
-0.021658458653783935 0.018335521011930922 0.0 -0.0329710011626736 0.0 0.0
-0.021658458653785267 0.018335521011935363 0.0 0.032971001162720115 0.0 0.0
-0.02919710022122804 0.026230228692515567 0.0 0.03496085995698006 0.0 0.0
-0.030704221243510493 0.027994723982602387 0.0 0.033348162372767165 0.0 0.0
-0.029658870383831443 0.02701481185686916 0.0 0.03003740479309036 0.0 0.0
-0.027168326310970353 0.024628270238157057 0.0 0.026834070804553578 0.0 0.0
-0.023811855282385608 0.02140749641631956 0.0 0.023844988589763583 0.0 0.0
-0.02011114382231921 0.017849281853844268 0.0 0.02096778408959621 0.0 0.0
-0.01643935287563103 0.014316596340770094 0.0 0.01815035012687294 0.0 0.0
-0.012988632158103947 0.011004085461431057 0.0 0.015328131359093056 0.0 0.0
-0.009815909927423844 0.007978890240786463 0.0 0.01250899597153432 0.0 0.0
-0.006939885666419787 0.005291663981077832 0.0 0.009741968138512358 0.0 0.0
-0.0044674592068110475 0.0030833037618149817 0.0 0.007235232067802189 0.0 0.0
-0.002575781750414702 0.001556939253961609 0.0 0.005215670452136445 0.0 0.0
-0.001406668225325397 0.0007515752468518766 0.0 0.003870159736204082 0.0 0.0
-0.0008442410572003234 0.0004375266884031337 0.0 0.0031231937599096593 0.0 0.0
-0.0006028195413329551 0.00033699802969877624 0.0 0.0027258060028944597 0.0 0.0
-0.0004865778016723554 0.0002837289297350498 0.0 0.0025619711382854904 0.0 0.0
-0.00038775556937914457 0.0001816181047142873 0.0 0.002551944340054846 0.0 0.0
-0.00020624758110776575 -9.378260939363336e-05 0.0 0.0025156279425083694 0.0 0.0
0.0003383779522042607 -0.0009805078898655981 0.0 0.0017835751772926067 0.0 0.0
0.00021698065548442225 -0.000754655659696235 0.0 -0.001588805974066465 0.0 0.0
-0.0002764670556809068 -5.6310545360926945e-05 0.0 -0.0024174776953744814 0.0 0.0
-0.0005293697670460951 0.0002419618852171901 0.0 -0.002479957227722318 0.0 0.0
-0.0007134571735532558 0.0003836665194945077 0.0 -0.0024733365133197127 0.0 0.0
-0.000947504813303579 0.0005004334505913643 0.0 -0.002592302664920665 0.0 0.0
-0.0014085166422355688 0.0007447089205525614 0.0 -0.003008946853921668 0.0 0.0
-0.0024906180823811574 0.0014797741532008857 0.0 -0.004057530527039832 0.0 0.0
-0.00459308772406658 0.003173884617229117 0.0 -0.006015728956047073 0.0 0.0
-0.007782082921050315 0.006030048104713526 0.0 -0.008819634218636851 0.0 0.0
-0.011864007315493835 0.0098681576886821 0.0 -0.012163531348650225 0.0 0.0
-0.016583065249029305 0.014396934290846986 0.0 -0.015682883049295215 0.0 0.0
-0.021808396341294417 0.01945335282303029 0.0 -0.01911108929250016 0.0 0.0
-0.027505978426590916 0.024988493448971028 0.0 -0.0224223784137777 0.0 0.0
-0.03362691834754061 0.03094069667634347 0.0 -0.025725980450714947 0.0 0.0
-0.039971018763485244 0.03710484758111843 0.0 -0.029253594269803007 0.0 0.0
-0.04610602321772525 0.04306075647351015 0.0 -0.03330159527083221 0.0 0.0
-0.051373484040241835 0.04816034567261518 0.0 -0.037999915605715695 0.0 0.0
-0.054758643564474435 0.05133272351092355 0.0 -0.04248645873780044 0.0 0.0
-0.0543105887624607 0.050598648589926576 0.0 -0.04469092196637181 0.0 0.0
-0.04592416282218606 0.041471499345273166 0.0 -0.04051685911998226 0.0 0.0
-0.04592416282218448 0.04147149934527139 0.0 0.04051685912003744 0.0 0.0
-0.05431058876245276 0.05059864858990881 0.0 0.044690921966447195 0.0 0.0
-0.05475864356444979 0.051332723510892464 0.0 0.04248645873784562 0.0 0.0
-0.05137348404020636 0.048160345672577876 0.0 0.03799991560571947 0.0 0.0
-0.04610602321768523 0.04306075647346841 0.0 0.03330159527081389 0.0 0.0
-0.03997101876344519 0.03710484758108379 0.0 0.029253594269779915 0.0 0.0
-0.03362691834750192 0.030940696676303503 0.0 0.02572598045069474 0.0 0.0
-0.02750597842655192 0.024988493448927507 0.0 0.022422378413761823 0.0 0.0
-0.021808396341256198 0.01945335282299121 0.0 0.019111089292474404 0.0 0.0
-0.016583065248994333 0.014396934290807906 0.0 0.015682883049263796 0.0 0.0
-0.011864007315464359 0.009868157688652346 0.0 0.012163531348618584 0.0 0.0
-0.007782082921029998 0.006030048104693542 0.0 0.008819634218617756 0.0 0.0
-0.0045930877240533685 0.0031738846172211232 0.0 0.0060157289560303084 0.0 0.0
-0.00249061808237383 0.0014797741531993314 0.0 0.004057530527030895 0.0 0.0
-0.0014085166422319884 0.0007447089205521173 0.0 0.0030089468539151176 0.0 0.0
-0.0009475048133028297 0.0005004334505935848 0.0 0.0025923026649173897 0.0 0.0
-0.0007134571735528117 0.0003836665194950628 0.0 0.0024733365133176033 0.0 0.0
-0.0005293697670455122 0.0002419618852183003 0.0 0.0024799572277204307 0.0 0.0
-0.00027646705568099006 -5.631054536114899e-05 0.0 0.0024174776953717614 0.0 0.0
0.00021698065548403367 -0.000754655659695392 0.0 0.0015888059740631344 0.0 0.0
0.0001229459612293593 -0.0005551883364653953 0.0 -0.0013809618459755812 0.0 0.0
-0.00033922250709467194 -1.3569337935948056e-05 0.0 -0.0022638695467018244 0.0 0.0
-0.0006620152493159726 0.0002973543783947319 0.0 -0.002354834856033161 0.0 0.0
-0.0009300405264534017 0.00047552652709037524 0.0 -0.002322217113076286 0.0 0.0
-0.0012851073170372929 0.0006653614044374034 0.0 -0.002403886033187752 0.0 0.0
-0.0020363610773283525 0.0011347612121210826 0.0 -0.002894408521427305 0.0 0.0
-0.0037480869482120482 0.002447780341579442 0.0 -0.004212855842423924 0.0 0.0
-0.00683755074787612 0.005148614353212455 0.0 -0.00658863568639545 0.0 0.0
-0.011333759788045905 0.009343435925089238 0.0 -0.009902699694573913 0.0 0.0
-0.01698901765676214 0.014759238944821451 0.0 -0.013756824226393904 0.0 0.0
-0.023512940425435336 0.02107795958655645 0.0 -0.01769188574167746 0.0 0.0
-0.03076090707282625 0.028132388883765014 0.0 -0.021447046878765752 0.0 0.0
-0.03869036930933434 0.03587490674294802 0.0 -0.025033940928429033 0.0 0.0
-0.04726274639722594 0.04425341274853345 0.0 -0.02861745055940257 0.0 0.0
-0.056286012541125446 0.05306817771448191 0.0 -0.03256196925958743 0.0 0.0
-0.06527539509868019 0.061831632241126755 0.0 -0.03733860244292764 0.0 0.0
-0.07330653052383057 0.06961114865235984 0.0 -0.04298754017804074 0.0 0.0
-0.07877868101927776 0.07478615186274329 0.0 -0.04835570841489112 0.0 0.0
-0.07893678881939764 0.074498452411623 0.0 -0.05056549768332985 0.0 0.0
-0.06870567346892043 0.0635986535883406 0.0 -0.046388040881727544 0.0 0.0
-0.06870567346891537 0.0635986535883335 0.0 0.04638804088178716 0.0 0.0
-0.0789367888193824 0.07449845241160347 0.0 0.0505654976834089 0.0 0.0
-0.07877868101924534 0.07478615186271664 0.0 0.04835570841494974 0.0 0.0
-0.07330653052378533 0.06961114865232876 0.0 0.042987540178057615 0.0 0.0
-0.06527539509862734 0.061831632241083234 0.0 0.03733860244291576 0.0 0.0
-0.056286012541071156 0.053068177714441056 0.0 0.03256196925956456 0.0 0.0
-0.04726274639717348 0.04425341274848549 0.0 0.028617450559379032 0.0 0.0
-0.038690369309281075 0.03587490674289917 0.0 0.025033940928407272 0.0 0.0
-0.030760907072775706 0.02813238888371572 0.0 0.021447046878742104 0.0 0.0
-0.023512940425388706 0.021077959586516926 0.0 0.01769188574164704 0.0 0.0
-0.0169890176567227 0.014759238944784592 0.0 0.01375682422636082 0.0 0.0
-0.011333759788016984 0.009343435925067478 0.0 0.009902699694552042 0.0 0.0
-0.006837550747857579 0.005148614353196912 0.0 0.006588635686380684 0.0 0.0
-0.003748086948200696 0.0024477803415730026 0.0 0.004212855842413932 0.0 0.0
-0.002036361077322635 0.0011347612121153094 0.0 0.002894408521419256 0.0 0.0
-0.0012851073170359328 0.0006653614044349609 0.0 0.002403886033187419 0.0 0.0
-0.0009300405264526523 0.0004755265270910414 0.0 0.0023222171130772296 0.0 0.0
-0.0006620152493158338 0.00029735437839362167 0.0 0.0023548348560314958 0.0 0.0
-0.00033922250709453317 -1.3569337937169301e-05 0.0 0.0022638695466987158 0.0 0.0
0.00012294596122927604 -0.0005551883364645627 0.0 0.0013809618459749706 0.0 0.0
4.3546145775064105e-05 -0.0003797127173194581 0.0 -0.001166361285538542 0.0 0.0
-0.00039807194323349115 3.4430403471064075e-05 0.0 -0.002053882584528932 0.0 0.0
-0.0007855600190069811 0.0003480912645746903 0.0 -0.002171808428434896 0.0 0.0
-0.0011347990652693651 0.0005582832470021337 0.0 -0.0021053973369673518 0.0 0.0
-0.0016321705662272201 0.0008469402079047672 0.0 -0.0021717823013197024 0.0 0.0
-0.002758717685265366 0.0016385507876728322 0.0 -0.002750045071657936 0.0 0.0
-0.005169743613906097 0.0036439042626832396 0.0 -0.004239758902097435 0.0 0.0
-0.009273233346121845 0.007392594028555077 0.0 -0.00684375374016033 0.0 0.0
-0.015057580696549666 0.01289171225947916 0.0 -0.010401832402417321 0.0 0.0
-0.022239190349318372 0.019829039788108016 0.0 -0.014418706595253128 0.0 0.0
-0.03054378848679984 0.027905030523692087 0.0 -0.018450056381957847 0.0 0.0
-0.03980500955147259 0.036947140938913936 0.0 -0.022299769282233095 0.0 0.0
-0.049957998163496053 0.046888638660388615 0.0 -0.02597055751787436 0.0 0.0
-0.06097149605266694 0.05768750263479916 0.0 -0.029602016336482295 0.0 0.0
-0.07268293728601544 0.06916122777756772 0.0 -0.033605990282987275 0.0 0.0
-0.0845296269767277 0.08072954480094552 0.0 -0.038518273058594676 0.0 0.0
-0.09525653476448828 0.09112632119037212 0.0 -0.044425680632428466 0.0 0.0
-0.10262346784226367 0.09808597162346988 0.0 -0.050120576972923825 0.0 0.0
-0.1030040642118345 0.0979626964619964 0.0 -0.05302551022804547 0.0 0.0
-0.0909745328188197 0.08535214596595075 0.0 -0.05145410942513462 0.0 0.0
-0.0909745328188124 0.0853521459659401 0.0 0.051454109425196126 0.0 0.0
-0.10300406421181121 0.09796269646197331 0.0 0.053025510228119965 0.0 0.0
-0.10262346784222262 0.09808597162343347 0.0 0.05012057697298111 0.0 0.0
-0.09525653476443374 0.09112632119031705 0.0 0.04442568063244334 0.0 0.0
-0.08452962697666302 0.0807295448008718 0.0 0.038518273058584684 0.0 0.0
-0.07268293728594827 0.06916122777749223 0.0 0.03360599028296962 0.0 0.0
-0.06097149605260038 0.05768750263472544 0.0 0.02960201633645998 0.0 0.0
-0.0499579981634289 0.04688863866032289 0.0 0.025970557517853377 0.0 0.0
-0.03980500955140945 0.03694714093885487 0.0 0.022299769282208115 0.0 0.0
-0.030543788486741857 0.027905030523634355 0.0 0.01845005638192454 0.0 0.0
-0.022239190349269952 0.019829039788056058 0.0 0.014418706595217545 0.0 0.0
-0.015057580696512168 0.012891712259441857 0.0 0.010401832402394562 0.0 0.0
-0.009273233346096907 0.007392594028532429 0.0 0.006843753740142733 0.0 0.0
-0.005169743613890762 0.0036439042626668083 0.0 0.004239758902087554 0.0 0.0
-0.0027587176852573586 0.0016385507876675032 0.0 0.0027500450716498315 0.0 0.0
-0.0016321705662249303 0.0008469402079054333 0.0 0.0021717823013164828 0.0 0.0
-0.001134799065268477 0.0005582832469999133 0.0 0.0021053973369652423 0.0 0.0
-0.0007855600190069117 0.00034809126457635564 0.0 0.0021718084284343964 0.0 0.0
-0.0003980719432332136 3.443040347134163e-05 0.0 0.0020538825845284325 0.0 0.0
4.3546145775008593e-05 -0.0003797127173193176 0.0 0.0011663612855375427 0.0 0.0
-2.413463240780178e-05 -0.00022918486827000484 0.0 -0.0009456595884700381 0.0 0.0
-0.0004546682679717473 8.623473359670175e-05 0.0 -0.0017926315824459138 0.0 0.0
-0.0009010207731427466 0.00039463185807286916 0.0 -0.0019319660657529658 0.0 0.0
-0.001330532930356787 0.0006377767294949432 0.0 -0.001842431278375245 0.0 0.0
-0.0020113798694067486 0.0010683495835328571 0.0 -0.0019160628397664747 0.0 0.0
-0.003586645841156366 0.002272458586364934 0.0 -0.0025432265363318773 0.0 0.0
-0.006741081309302066 0.005042978410877197 0.0 -0.004087534383915459 0.0 0.0
-0.011858153086428957 0.009833120891970193 0.0 -0.0067306091688593694 0.0 0.0
-0.018878736569032495 0.016577460104679975 0.0 -0.01022207904178829 0.0 0.0
-0.0275552738178495 0.024994196109834554 0.0 -0.01409561988390673 0.0 0.0
-0.0376283543373262 0.03481400581277638 0.0 -0.01799693287583015 0.0 0.0
-0.04890182877066107 0.045841587655822025 0.0 -0.021721164876927324 0.0 0.0
-0.06127589101787351 0.05797826049045085 0.0 -0.025277660602912366 0.0 0.0
-0.07470752500945482 0.07117364017286398 0.0 -0.028761307851835616 0.0 0.0
-0.08904761464643018 0.08525034391410724 0.0 -0.03242916346882252 0.0 0.0
-0.10367624193806696 0.09955061432082335 0.0 -0.036812770201271494 0.0 0.0
-0.11701820314608022 0.11248096177518985 0.0 -0.04228570166335954 0.0 0.0
-0.1261810228649541 0.12115073158344103 0.0 -0.0481786301225986 0.0 0.0
-0.12684258598414772 0.12127712160329196 0.0 -0.052940430259292404 0.0 0.0
-0.11335577224981469 0.10725943089510714 0.0 -0.056114209443985597 0.0 0.0
-0.11335577224980589 0.10725943089508849 0.0 0.05611420944404788 0.0 0.0
-0.12684258598411727 0.12127712160324311 0.0 0.052940430259369564 0.0 0.0
-0.12618102286490407 0.12115073158338152 0.0 0.048178630122658106 0.0 0.0
-0.11701820314601619 0.11248096177512856 0.0 0.04228570166337775 0.0 0.0
-0.10367624193799091 0.09955061432075585 0.0 0.03681277020126139 0.0 0.0
-0.08904761464635048 0.08525034391404063 0.0 0.03242916346880703 0.0 0.0
-0.07470752500937426 0.07117364017278627 0.0 0.028761307851812246 0.0 0.0
-0.06127589101779342 0.05797826049037669 0.0 0.025277660602893215 0.0 0.0
-0.04890182877058556 0.045841587655750526 0.0 0.021721164876901566 0.0 0.0
-0.0376283543372571 0.034814005812713766 0.0 0.017996932875796512 0.0 0.0
-0.02755527381779173 0.024994196109784372 0.0 0.01409561988387148 0.0 0.0
-0.018878736568987142 0.01657746010463912 0.0 0.010222079041768695 0.0 0.0
-0.011858153086397039 0.00983312089193955 0.0 0.0067306091688421055 0.0 0.0
-0.006741081309282457 0.005042978410863208 0.0 0.004087534383905966 0.0 0.0
-0.0035866458411459995 0.0022724585863576063 0.0 0.002543226536325882 0.0 0.0
-0.0020113798694037094 0.0010683495835304146 0.0 0.0019160628397630886 0.0 0.0
-0.0013305329303561347 0.0006377767294942771 0.0 0.001842431278373191 0.0 0.0
-0.0009010207731420805 0.0003946318580712038 0.0 0.0019319660657524662 0.0 0.0
-0.0004546682679711922 8.623473359520295e-05 0.0 0.0017926315824452477 0.0 0.0
-2.4134632408051582e-05 -0.0002291848682705478 0.0 0.0009456595884679286 0.0 0.0
-7.913920148211462e-05 -0.00010595327355117368 0.0 -0.0007183695175003724 0.0 0.0
-0.0005078393243895807 0.00013925737305320318 0.0 -0.001485767197863086 0.0 0.0
-0.0010101442274340622 0.0004377117670550934 0.0 -0.0016356813447911955 0.0 0.0
-0.001525267593138091 0.0007199346897326375 0.0 -0.0015314368830682823 0.0 0.0
-0.0024433885691237944 0.0013447997348774443 0.0 -0.0016145192194523816 0.0 0.0
-0.004524035794913506 0.0030478523328507645 0.0 -0.0022502768049742494 0.0 0.0
-0.008445509615619406 0.006615573028452726 0.0 -0.0037489420739327817 0.0 0.0
-0.014525302567975351 0.01239329655203214 0.0 -0.006177330409269932 0.0 0.0
-0.022740048622484466 0.020327324241162792 0.0 -0.009308059148270154 0.0 0.0
-0.03289482702590896 0.030203039285507494 0.0 -0.012815158075735189 0.0 0.0
-0.044724714881924754 0.041756032676374844 0.0 -0.016346322306942773 0.0 0.0
-0.05801132349956545 0.05476923195921257 0.0 -0.019724691849313025 0.0 0.0
-0.07261145875421882 0.06910284588837445 0.0 -0.02297660984080696 0.0 0.0
-0.08842737455591698 0.08465444863956861 0.0 -0.026106130164233465 0.0 0.0
-0.10527573535399087 0.10121725183379748 0.0 -0.02914490280750126 0.0 0.0
-0.12251547184319656 0.1180954281550779 0.0 -0.03242140121272663 0.0 0.0
-0.13838136127315 0.13348012116550922 0.0 -0.03671646254013272 0.0 0.0
-0.14945837979502094 0.1439915787642594 0.0 -0.04269316966060144 0.0 0.0
-0.1507999187544172 0.14474965017528696 0.0 -0.05043667820826858 0.0 0.0
-0.13633009953423483 0.12976172348434734 0.0 -0.060359107862818284 0.0 0.0
-0.13633009953422373 0.12976172348434023 0.0 0.06035910786287524 0.0 0.0
-0.15079991875438073 0.14474965017526298 0.0 0.05043667820833897 0.0 0.0
-0.14945837979496165 0.14399157876420787 0.0 0.04269316966065084 0.0 0.0
-0.13838136127307518 0.13348012116542662 0.0 0.03671646254014416 0.0 0.0
-0.12251547184310921 0.11809542815498908 0.0 0.032421401212721856 0.0 0.0
-0.10527573535389875 0.101217251833706 0.0 0.029144902807492434 0.0 0.0
-0.08842737455582338 0.08465444863947935 0.0 0.026106130164213037 0.0 0.0
-0.07261145875412617 0.06910284588828963 0.0 0.022976609840788143 0.0 0.0
-0.05801132349947717 0.05476923195912997 0.0 0.019724691849288267 0.0 0.0
-0.04472471488184429 0.041756032676296684 0.0 0.016346322306910688 0.0 0.0
-0.03289482702584216 0.0302030392854431 0.0 0.012815158075706212 0.0 0.0
-0.022740048622431286 0.02032732424111572 0.0 0.009308059148249948 0.0 0.0
-0.014525302567937534 0.012393296551996613 0.0 0.006177330409252502 0.0 0.0
-0.008445509615594746 0.0066155730284307435 0.0 0.0037489420739211243 0.0 0.0
-0.004524035794900336 0.003047852332839218 0.0 0.002250276804967366 0.0 0.0
-0.0024433885691193397 0.001344799734875446 0.0 0.0016145192194483293 0.0 0.0
-0.0015252675931371196 0.0007199346897337477 0.0 0.0015314368830676162 0.0 0.0
-0.0010101442274334377 0.00043771176705642567 0.0 0.0016356813447896967 0.0 0.0
-0.0005078393243889978 0.00013925737305292563 0.0 0.0014857671978594222 0.0 0.0
-7.913920148221176e-05 -0.00010595327355081979 0.0 0.0007183695174985405 0.0 0.0
-0.00011785124029839444 -1.3356723095325762e-05 0.0 -0.0004860349336625047 0.0 0.0
-0.0005531681269037025 0.00018969529587664624 0.0 -0.0011364783571086723 0.0 0.0
-0.0011146123536700525 0.0004773081098895515 0.0 -0.0012798054933528258 0.0 0.0
-0.0017315415705180248 0.0008165984927346326 0.0 -0.0011753330780962523 0.0 0.0
-0.002945174713050225 0.0017002381641511022 0.0 -0.0012624398697398398 0.0 0.0
-0.005575244680142921 0.003963318682624006 0.0 -0.0018584428486347337 0.0 0.0
-0.010235269756075749 0.008302363733189377 0.0 -0.003121972091805314 0.0 0.0
-0.01722211751482755 0.015005925586176527 0.0 -0.005101381462646826 0.0 0.0
-0.02660437517413089 0.024097454880515734 0.0 -0.007683532675438198 0.0 0.0
-0.038215122629173204 0.0354098950857229 0.0 -0.010587969001857989 0.0 0.0
-0.05179117248391285 0.0486848827410844 0.0 -0.01351672743320309 0.0 0.0
-0.06709126625961165 0.06368458569187307 0.0 -0.016315827354516976 0.0 0.0
-0.08392349907444491 0.08021778323141371 0.0 -0.019026464256259756 0.0 0.0
-0.10209818016936889 0.0980925948680218 0.0 -0.021644292745765403 0.0 0.0
-0.12131082536148924 0.11699204634942628 0.0 -0.023937291995935084 0.0 0.0
-0.14087446081191313 0.13618424380967564 0.0 -0.025747605292408826 0.0 0.0
-0.15909827080494232 0.15390848756976627 0.0 -0.028050996336364653 0.0 0.0
-0.17243236941304194 0.16658458378315988 0.0 -0.0335728424617211 0.0 0.0
-0.17517176822649722 0.16866241770007395 0.0 -0.045013962477144065 0.0 0.0
-0.16041951635489168 0.15334211612465065 0.0 -0.06382999740042883 0.0 0.0
-0.16041951635487822 0.15334211612463466 0.0 0.06382999740047357 0.0 0.0
-0.17517176822645486 0.16866241770002155 0.0 0.04501396247719991 0.0 0.0
-0.17243236941297238 0.1665845837830826 0.0 0.033572842461763064 0.0 0.0
-0.159098270804856 0.15390848756966768 0.0 0.028050996336374368 0.0 0.0
-0.1408744608118136 0.13618424380957528 0.0 0.025747605292407272 0.0 0.0
-0.1213108253613852 0.11699204634932414 0.0 0.023937291995928645 0.0 0.0
-0.10209818016926298 0.09809259486792188 0.0 0.021644292745751192 0.0 0.0
-0.08392349907433912 0.08021778323131068 0.0 0.01902646425624499 0.0 0.0
-0.06709126625951109 0.06368458569177493 0.0 0.016315827354498713 0.0 0.0
-0.05179117248382175 0.04868488274099381 0.0 0.013516727433173281 0.0 0.0
-0.038215122629096945 0.03540989508564296 0.0 0.010587969001834119 0.0 0.0
-0.026604375174070896 0.024097454880454894 0.0 0.007683532675418991 0.0 0.0
-0.01722211751478369 0.015005925586128566 0.0 0.005101381462634391 0.0 0.0
-0.010235269756045752 0.008302363733164064 0.0 0.003121972091795766 0.0 0.0
-0.00557524468012726 0.003963318682611794 0.0 0.001858442848628572 0.0 0.0
-0.002945174713044174 0.001700238164144885 0.0 0.0012624398697352324 0.0 0.0
-0.0017315415705158807 0.000816598492731857 0.0 0.0011753330780933102 0.0 0.0
-0.001114612353669657 0.00047730810989021766 0.0 0.0012798054933541025 0.0 0.0
-0.0005531681269035083 0.00018969529587714584 0.0 0.0011364783571105042 0.0 0.0
-0.0001178512402983875 -1.3356723095291068e-05 0.0 0.00048603493366217165 0.0 0.0
-0.00013342868042470757 4.4164007569014174e-05 0.0 -0.0002553507103715269 0.0 0.0
-0.0005815723646409587 0.00023118722358572708 0.0 -0.0007442111400172147 0.0 0.0
-0.001217472778953621 0.0005162359957679996 0.0 -0.0008581990974648734 0.0 0.0
-0.0019689354591053143 0.000942879534557628 0.0 -0.0007766209950873515 0.0 0.0
-0.0035308229537118208 0.002155972568687936 0.0 -0.0008605662961754801 0.0 0.0
-0.00672152494288214 0.004999660857960331 0.0 -0.001304206720223744 0.0 0.0
-0.012062030021471548 0.010053392578529774 0.0 -0.002182348909157583 0.0 0.0
-0.019919446587905176 0.01763291101862352 0.0 -0.003543397550892502 0.0 0.0
-0.030431404711678767 0.027846344261947653 0.0 -0.005352852973786515 0.0 0.0
-0.043474150354009755 0.040570859636570145 0.0 -0.007416186268703329 0.0 0.0
-0.05878598775208638 0.05555686977620944 0.0 -0.00949924871042096 0.0 0.0
-0.07609866020592809 0.07254132964138105 0.0 -0.011490293051043543 0.0 0.0
-0.09516466103230148 0.09127480476831096 0.0 -0.013444958178313815 0.0 0.0
-0.11567605641576562 0.11144574072671887 0.0 -0.015308122281955994 0.0 0.0
-0.13714346766801794 0.1325602006910005 0.0 -0.016775510920586933 0.0 0.0
-0.1587303691586675 0.15376860802443382 0.0 -0.01737106865314475 0.0 0.0
-0.17891309568680547 0.1734934927575047 0.0 -0.01738252460180867 0.0 0.0
-0.19469119362610474 0.18863447939371625 0.0 -0.020441532944383445 0.0 0.0
-0.20023181855538733 0.19324059183922238 0.0 -0.034897078100650236 0.0 0.0
-0.18638477850300866 0.1787118268886072 0.0 -0.06567508431177926 0.0 0.0
-0.18638477850299354 0.178711826888593 0.0 0.06567508431181557 0.0 0.0
-0.20023181855533906 0.19324059183918418 0.0 0.03489707810069653 0.0 0.0
-0.19469119362602405 0.18863447939364608 0.0 0.0204415329444132 0.0 0.0
-0.178913095686707 0.17349349275741321 0.0 0.017382524601813998 0.0 0.0
-0.15873036915855487 0.153768608024329 0.0 0.017371068653141808 0.0 0.0
-0.13714346766790098 0.13256020069088859 0.0 0.016775510920587433 0.0 0.0
-0.11567605641564743 0.11144574072660207 0.0 0.015308122281950165 0.0 0.0
-0.0951646610321833 0.09127480476818883 0.0 0.0134449581783051 0.0 0.0
-0.07609866020581478 0.07254132964127313 0.0 0.011490293051033995 0.0 0.0
-0.058785987751985055 0.05555686977611263 0.0 0.009499248710400754 0.0 0.0
-0.0434741503539247 0.04057085963648621 0.0 0.007416186268686786 0.0 0.0
-0.030431404711611862 0.02784634426188415 0.0 0.005352852973775968 0.0 0.0
-0.019919446587855452 0.01763291101857334 0.0 0.0035433975508861737 0.0 0.0
-0.012062030021437142 0.010053392578496245 0.0 0.002182348909149756 0.0 0.0
-0.006721524942863488 0.004999660857938348 0.0 0.00130420672021897 0.0 0.0
-0.003530822953703945 0.0021559725686792763 0.0 0.0008605662961758132 0.0 0.0
-0.001968935459102261 0.0009428795345545193 0.0 0.0007766209950883507 0.0 0.0
-0.0012174727789531804 0.0005162359957678886 0.0 0.0008581990974629305 0.0 0.0
-0.0005815723646407263 0.0002311872235858381 0.0 0.0007442111400143836 0.0 0.0
-0.00013342868042454797 4.4164007569142544e-05 0.0 0.0002553507103721375 0.0 0.0
-0.00011365346414132782 6.0272803124317154e-05 0.0 -4.323659555538484e-05 0.0 0.0
-0.0005765148155907895 0.0002532841076197112 0.0 -0.0003009831109860306 0.0 0.0
-0.0013274385575817726 0.0005616160581641827 0.0 -0.00035734051032798586 0.0 0.0
-0.002262286500907207 0.0011290735652493833 0.0 -0.0003381639597886954 0.0 0.0
-0.004202888929352111 0.0027108517547804745 0.0 -0.0003788322252996079 0.0 0.0
-0.007927284932081946 0.006115081734180183 0.0 -0.0005585923420629024 0.0 0.0
-0.013905284193726997 0.011833834680878397 0.0 -0.0009232052359097187 0.0 0.0
-0.022581911873914062 0.020238873316700712 0.0 -0.0015063519858732333 0.0 0.0
-0.03418056612407966 0.03153052169919146 0.0 -0.0023247569512209187 0.0 0.0
-0.04862802454033199 0.04564099046849934 0.0 -0.0032944513315116275 0.0 0.0
-0.06566857778949925 0.062330244581846106 0.0 -0.004290269396179047 0.0 0.0
-0.08499410659819706 0.08129764932202921 0.0 -0.005256162124503638 0.0 0.0
-0.10627624030891092 0.10221421348412729 0.0 -0.00619202300528221 0.0 0.0
-0.1290946795458035 0.12465277327711366 0.0 -0.00702853053641983 0.0 0.0
-0.15277747425126226 0.1479373168516993 0.0 -0.0075765342864249074 0.0 0.0
-0.17623768955434543 0.17098550879315777 0.0 -0.007450320756048345 0.0 0.0
-0.1978786928050585 0.19220596380030752 0.0 -0.006275765029467806 0.0 0.0
-0.2154073230708367 0.20925336730734756 0.0 -0.005513853748984943 0.0 0.0
-0.224810461580279 0.21789955874192302 0.0 -0.015591938440753461 0.0 0.0
-0.2163778292079888 0.207565699592692 0.0 -0.060522110626935244 0.0 0.0
-0.21637782920797297 0.2075656995926618 0.0 0.06052211062694923 0.0 0.0
-0.22481046158022536 0.21789955874186528 0.0 0.015591938440779662 0.0 0.0
-0.21540732307074367 0.2092533673072552 0.0 0.005513853748996378 0.0 0.0
-0.1978786928049465 0.19220596380019295 0.0 0.006275765029470304 0.0 0.0
-0.17623768955421987 0.17098550879302898 0.0 0.007450320756041073 0.0 0.0
-0.15277747425113242 0.14793731685156697 0.0 0.007576534286425574 0.0 0.0
-0.12909467954567258 0.1246527732769871 0.0 0.007028530536414612 0.0 0.0
-0.10627624030878027 0.10221421348400206 0.0 0.006192023005277769 0.0 0.0
-0.0849941065980712 0.08129764932191064 0.0 0.005256162124500419 0.0 0.0
-0.06566857778938709 0.06233024458173775 0.0 0.0042902693961685 0.0 0.0
-0.0486280245402392 0.04564099046840786 0.0 0.0032944513315041335 0.0 0.0
-0.03418056612400562 0.03153052169911996 0.0 0.0023247569512160893 0.0 0.0
-0.022581911873859363 0.02023887331664387 0.0 0.001506351985871679 0.0 0.0
-0.013905284193688893 0.01183383468083754 0.0 0.0009232052359058884 0.0 0.0
-0.007927284932060024 0.006115081734158201 0.0 0.0005585923420590722 0.0 0.0
-0.004202888929342561 0.0027108517547718147 0.0 0.00037883222529933036 0.0 0.0
-0.002262286500903916 0.001129073565247829 0.0 0.00033816395978686353 0.0 0.0
-0.0013274385575804924 0.0005616160581646268 0.0 0.00035734051032831893 0.0 0.0
-0.0005765148155900662 0.00025328410761993325 0.0 0.00030098311098814 0.0 0.0
-0.00011365346414132262 6.027280312394072e-05 0.0 4.323659555682813e-05 0.0 0.0
SCALARS Statev float 8
LOOKUP_TABLE default
0.0 0.014869302973922287 0.011563201190925992 -0.011942973287183804 0.00037977209625780946 -0.0066878745903462 0.0 0.0
0.0 0.0010766812173808847 0.000787962810425706 -0.0006864986152142235 -0.00010146419521148245 0.0006743620868076693 0.0 0.0
0.0 4.2964675200928145e-05 4.325612339848048e-06 -3.151825068737801e-06 -1.1737872711102765e-06 -2.8683679444271745e-07 0.0 0.0
0.0 0.0004376828450727092 0.00034596519314821563 -0.00027579005159947414 -7.017514154874157e-05 -4.992171471344267e-05 0.0 0.0
0.0 0.00215391384735357 0.001802100427316664 -0.0015257799381712008 -0.0002763204891454628 -0.00019350654698604595 0.0 0.0
0.0 0.00574191212591812 0.005156517903845131 -0.0046435653968107905 -0.0005129525070343416 -0.00042254150215031343 0.0 0.0
0.0 0.012232224907382792 0.010819794331625823 -0.010161731449223664 -0.0006580628824021523 -0.000778002630047318 0.0 0.0
0.0 0.02190318322362077 0.01921453862404978 -0.01845048517639252 -0.000764053447657256 -0.0013347555183004592 0.0 0.0
0.0 0.03498295777052658 0.03054258354134647 -0.02967221690051007 -0.0008703666408363852 -0.002125840063957425 0.0 0.0
0.0 0.0514047445489786 0.0447426624236972 -0.04375794393460902 -0.000984718489088198 -0.003082993469064578 0.0 0.0
0.0 0.07092098314790062 0.06157947818526243 -0.060475721481620406 -0.0011037567036420036 -0.004083585301007721 0.0 0.0
0.0 0.09290590075583144 0.08075923880442182 -0.0795343714252385 -0.0012248673791832774 -0.005059349201481312 0.0 0.0
0.0 0.11730713639862853 0.10196943227240265 -0.10062196382292875 -0.0013474684494738129 -0.006011380111535683 0.0 0.0
0.0 0.1437054159915248 0.12484958451765248 -0.12337649643962324 -0.0014730880780291123 -0.006920706661529365 0.0 0.0
0.0 0.17143299688193708 0.14887716376672988 -0.14727441600333419 -0.001602747763395571 -0.0077273149848536005 0.0 0.0
0.0 0.19959351693022548 0.1732468933272911 -0.1715120214246214 -0.0017348719026697987 -0.008262215359169349 0.0 0.0
0.0 0.22684930794846167 0.19683023880751116 -0.19496526966743544 -0.0018649691400758291 -0.008262279707266704 0.0 0.0
0.0 0.2515532923613221 0.21821658202941954 -0.2162273597672707 -0.0019892222621486783 -0.007540507824187841 0.0 0.0
0.0 0.2717790203121938 0.23572792287292532 -0.23361793732321143 -0.0021099855497138356 -0.006643581489083686 0.0 0.0
0.0 0.28427610313925417 0.24667315824664612 -0.24435985431018353 -0.002313303936462567 -0.008433373989280287 0.0 0.0
0.0 0.2842761031392371 0.24667315824663089 -0.2443598543101687 -0.002313303936462043 0.008433373989291143 0.0 0.0
0.0 0.2717790203121335 0.23572792287287261 -0.23361793732315927 -0.0021099855497132636 0.006643581489110419 0.0 0.0
0.0 0.25155329236122215 0.21821658202933236 -0.21622735976718493 -0.001989222262147301 0.007540507824205853 0.0 0.0
0.0 0.22684930794833832 0.19683023880740338 -0.19496526966732972 -0.0018649691400737067 0.008262279707274335 0.0 0.0
0.0 0.19959351693008526 0.17324689332716947 -0.17151202142450056 -0.0017348719026690246 0.008262215359158005 0.0 0.0
0.0 0.17143299688179264 0.1488771637666045 -0.1472744160032095 -0.001602747763394952 0.00772731498485122 0.0 0.0
0.0 0.1437054159913814 0.12484958451752799 -0.12337649643949972 -0.001473088078028222 0.006920706661528627 0.0 0.0
0.0 0.11730713639848818 0.10196943227228084 -0.1006219638228079 -0.001347468449472925 0.006011380111534128 0.0 0.0
0.0 0.09290590075569805 0.08075923880430605 -0.07953437142512375 -0.001224867379182223 0.005059349201472342 0.0 0.0
0.0 0.07092098314778317 0.06157947818516028 -0.060475721481518974 -0.0011037567036412984 0.004083585300999665 0.0 0.0
0.0 0.05140474454888067 0.04474266242361248 -0.043757943934524896 -0.000984718489087602 0.0030829934690516985 0.0 0.0
0.0 0.03498295777044941 0.03054258354127899 -0.02967221690044318 -0.0008703666408358345 0.002125840063954246 0.0 0.0
0.0 0.02190318322356772 0.019214538624002877 -0.018450485176346267 -0.0007640534476566043 0.0013347555182962514 0.0 0.0
0.0 0.012232224907348117 0.010819794331594867 -0.01016173144919345 -0.0006580628824014099 0.0007780026300455922 0.0 0.0
0.0 0.005741912125896254 0.005156517903825352 -0.004643565396791792 -0.0005129525070335603 0.0004225415021482874 0.0 0.0
0.0 0.002153913847343842 0.001802100427308506 -0.0015257799381639201 -0.00027632048914458593 0.00019350654698524326 0.0 0.0
0.0 0.00043768284506954657 0.0003459651931462611 -0.0002757900515978599 -7.017514154840098e-05 4.9921714713074875e-05 0.0 0.0
0.0 4.296467520038744e-05 4.3256123399005e-06 -3.151825068779882e-06 -1.1737872711205715e-06 2.868367944448234e-07 0.0 0.0
0.0 0.0010766812173773387 0.0007879628104235779 -0.0006864986152123077 -0.00010146419521127121 -0.0006743620868053331 0.0 0.0
0.0 0.014869302973902791 0.01156320119091313 -0.011942973287169919 0.00037977209625678743 0.0066878745903133485 0.0 0.0
0.0 0.01121555026425138 0.00817053385955238 -0.0086682888501077 0.0004977549905553199 -0.007848912186755702 0.0 0.0
0.0 3.25716852340571e-05 2.6132450525513397e-05 -2.3861923292454316e-05 -2.270527233059075e-06 1.706696715335739e-05 0.0 0.0
0.0 1.0153953289598925e-06 4.168806002173407e-07 -3.1569232162460283e-07 -1.011882785927401e-07 -1.449474121635174e-07 0.0 0.0
0.0 0.00019576421682731182 0.000151611027838174 -0.00011974146466464643 -3.186956317352772e-05 -5.2082598410325036e-05 0.0 0.0
0.0 0.001490693646894186 0.0012110589056503179 -0.0010089850500330302 -0.0002020738556172881 -0.0003206981332371553 0.0 0.0
0.0 0.004500114647762944 0.004044027187908725 -0.0035890372681983388 -0.0004549899197103855 -0.0008759975868969932 0.0 0.0
0.0 0.010263485338923944 0.009067241653443052 -0.008440520013064098 -0.0006267216403789513 -0.0017702354164182562 0.0 0.0
0.0 0.019005086426779214 0.016635357647059507 -0.015893612774328335 -0.0007417448727311747 -0.003087926928473703 0.0 0.0
0.0 0.030849056913246492 0.026874379104307674 -0.02602725363593428 -0.000847125468373374 -0.0048535112896843655 0.0 0.0
0.0 0.045663856976678324 0.039670200795022585 -0.03871436645728753 -0.0009558343377350458 -0.006906997905331343 0.0 0.0
0.0 0.06316925910846924 0.05478181655389537 -0.05371538936506316 -0.0010664271888322116 -0.009016850223793546 0.0 0.0
0.0 0.08311416078244792 0.07195568182257502 -0.07077787213053373 -0.0011778096920412547 -0.011049011710992328 0.0 0.0
0.0 0.10492675116438419 0.09095181438925436 -0.08966110139852096 -0.0012907129907334196 -0.013045973044511966 0.0 0.0
0.0 0.12855874467544307 0.11146941353334403 -0.1100635456705801 -0.0014058678627639257 -0.01499435699780051 0.0 0.0
0.0 0.15348873108984956 0.13306159567790213 -0.13153803545764575 -0.0015235602202563164 -0.016739764767062723 0.0 0.0
0.0 0.17885307493745467 0.15504916737309007 -0.15340608714395051 -0.0016430802291395761 -0.017956442810918107 0.0 0.0
0.0 0.20353443911939267 0.1764565940589369 -0.17469346990819706 -0.0017631241507397885 -0.018161237176836646 0.0 0.0
0.0 0.22602890100506418 0.19596693527747264 -0.19408261395818796 -0.001884321319284586 -0.01710961988530923 0.0 0.0
0.0 0.24417815490510383 0.21172145751449387 -0.2096978616638137 -0.002023595850680059 -0.015280097778452031 0.0 0.0
0.0 0.25506259749195137 0.22119593116602845 -0.2190656894355511 -0.0021302417304773606 -0.012511196748426448 0.0 0.0
0.0 0.2550625974919307 0.2211959311660105 -0.21906568943553262 -0.002130241730477992 0.012511196748454866 0.0 0.0
0.0 0.24417815490504557 0.211721457514443 -0.20969786166376195 -0.0020235958506809914 0.015280097778501481 0.0 0.0
0.0 0.22602890100497 0.19596693527739148 -0.1940826139581047 -0.0018843213192865909 0.017109619885342844 0.0 0.0
0.0 0.20353443911928276 0.17645659405884193 -0.17469346990810142 -0.0017631241507403005 0.018161237176852436 0.0 0.0
0.0 0.17885307493732855 0.15504916737298138 -0.15340608714384169 -0.0016430802291396301 0.01795644281090645 0.0 0.0
0.0 0.15348873108971886 0.13306159567778902 -0.1315380354575329 -0.0015235602202561067 0.01673976476705551 0.0 0.0
0.0 0.12855874467531303 0.11146941353323156 -0.1100635456704677 -0.0014058678627638464 0.01499435699779575 0.0 0.0
0.0 0.10492675116425855 0.09095181438914565 -0.08966110139841255 -0.0012907129907331095 0.013045973044504538 0.0 0.0
0.0 0.08311416078233082 0.07195568182247351 -0.07077787213043296 -0.0011778096920405043 0.011049011710977368 0.0 0.0
0.0 0.06316925910836295 0.05478181655380334 -0.05371538936497156 -0.0010664271888317658 0.009016850223780376 0.0 0.0
0.0 0.04566385697659227 0.03967020079494803 -0.038714366457213455 -0.00095583433773455 0.0069069979053130864 0.0 0.0
0.0 0.030849056913182002 0.02687437910425103 -0.026027253635878156 -0.0008471254683728633 0.0048535112896768515 0.0 0.0
0.0 0.019005086426731616 0.016635357647017776 -0.015893612774287136 -0.0007417448727306373 0.0030879269284654846 0.0 0.0
0.0 0.010263485338890526 0.009067241653413424 -0.008440520013035127 -0.0006267216403782908 0.0017702354164124898 0.0 0.0
0.0 0.004500114647745772 0.004044027187893663 -0.003589037268184092 -0.000454989919709571 0.0008759975868935427 0.0 0.0
0.0 0.0014906936468857377 0.001211058905643594 -0.001008985050027176 -0.00020207385561641823 0.00032069813323557254 0.0 0.0
0.0 0.00019576421682531046 0.00015161102783699625 -0.00011974146466366665 -3.186956317332952e-05 5.2082598409800445e-05 0.0 0.0
0.0 1.0153953288388375e-06 4.168806003127878e-07 -3.1569232169471074e-07 -1.0118827861807946e-07 1.449474121835866e-07 0.0 0.0
0.0 3.257168523365771e-05 2.6132450525505926e-05 -2.3861923292399015e-05 -2.2705272331069084e-06 -1.7066967153222054e-05 0.0 0.0
0.0 0.01121555026422849 0.008170533859537409 -0.008668288850092113 0.0004977549905546966 0.007848912186727775 0.0 0.0
0.0 0.008610358399310776 0.005948595743749918 -0.0064845335248112 0.0005359377810612799 -0.006971740211367169 0.0 0.0
0.0 0.0 0.0 0.0 0.0 0.0 0.0 0.0
0.0 0.0 0.0 0.0 0.0 0.0 0.0 0.0
0.0 5.256838516189867e-05 4.422886747149105e-05 -3.470324315956974e-05 -9.52562431192131e-06 -2.7985574519391293e-05 0.0 0.0
0.0 0.0008982003165720133 0.0007379124987024945 -0.0006051363208801745 -0.00013277617782231967 -0.0003446212189451081 0.0 0.0
0.0 0.003524545627818859 0.0029921607110363416 -0.0026115829435720637 -0.00038057776746427854 -0.0011163600589371824 0.0 0.0
0.0 0.008362814248676275 0.007347291167760912 -0.006761076294834147 -0.0005862148729267645 -0.0024289108646458916 0.0 0.0
0.0 0.01613139760476657 0.014041773548867816 -0.01332848196748241 -0.000713291581385399 -0.004364176310898208 0.0 0.0
0.0 0.02673097733028109 0.02314782352405756 -0.02232867044209526 -0.0008191530819622964 -0.006892456764465999 0.0 0.0
0.0 0.03994531329557019 0.03451082156700619 -0.033588735157730386 -0.0009220864092757907 -0.009787555305871517 0.0 0.0
0.0 0.055510520719079054 0.047886553586129886 -0.04686210955415729 -0.0010244440319725884 -0.012758996158284528 0.0 0.0
0.0 0.07307730760065616 0.0630533832112329 -0.06192668555957222 -0.001126697651660665 -0.015635717041615982 0.0 0.0
0.0 0.09259258148349683 0.07981674855804452 -0.07858705137704758 -0.001229697180996905 -0.018442473767066335 0.0 0.0
0.0 0.11345677824783179 0.09794944219296982 -0.09661553716141986 -0.0013339050315499046 -0.021194765214070682 0.0 0.0
0.0 0.13553438546739166 0.11709778988870341 -0.11565854248941601 -0.001439247399287366 -0.023704620941593268 0.0 0.0
0.0 0.1581742470228849 0.13671501665200314 -0.13516863473396934 -0.001546381918033858 -0.025526235045060266 0.0 0.0
0.0 0.1803355291583532 0.15597290830895288 -0.15431577733615465 -0.0016571309727982392 -0.02608647005016341 0.0 0.0
0.0 0.20057461500490112 0.1736222192504972 -0.1718454254778664 -0.0017767937726308014 -0.024984270816110467 0.0 0.0
0.0 0.21685813780283453 0.18787695044566532 -0.18598312295948227 -0.0018938274861829434 -0.021739073983403273 0.0 0.0
0.0 0.22688078319354607 0.1967409859367008 -0.19476149993151776 -0.001979486005182881 -0.015293461238013454 0.0 0.0
0.0 0.22688078319353136 0.1967409859366866 -0.1947614999315049 -0.0019794860051816554 0.015293461238060795 0.0 0.0
0.0 0.216858137802796 0.18787695044562858 -0.1859831229594483 -0.001893827486180328 0.02173907398347045 0.0 0.0
0.0 0.2005746150048271 0.17362221925043117 -0.1718454254778007 -0.0017767937726302914 0.02498427081616046 0.0 0.0
0.0 0.1803355291582586 0.15597290830886965 -0.15431577733607227 -0.001657130972797574 0.026086470050183608 0.0 0.0
0.0 0.15817424702277683 0.1367150166519094 -0.13516863473387666 -0.001546381918032693 0.025526235045048563 0.0 0.0
0.0 0.13553438546727808 0.11709778988860492 -0.11565854248931817 -0.0014392473992867604 0.023704620941584653 0.0 0.0
0.0 0.11345677824771846 0.09794944219287122 -0.0966155371613221 -0.0013339050315491153 0.021194765214064694 0.0 0.0
0.0 0.09259258148338696 0.07981674855794904 -0.07858705137695274 -0.0012296971809962571 0.018442473767059073 0.0 0.0
0.0 0.07307730760054948 0.063053383211141 -0.06192668555948083 -0.001126697651660207 0.01563571704159622 0.0 0.0
0.0 0.05551052071898239 0.04788655358604611 -0.046862109554074036 -0.0010244440319720461 0.012758996158264667 0.0 0.0
0.0 0.039945313295489566 0.034510821566936675 -0.03358873515766128 -0.0009220864092753864 0.009787555305847167 0.0 0.0
0.0 0.026730977330216912 0.023147823524001777 -0.022328670442039945 -0.0008191530819618267 0.0068924567644521924 0.0 0.0
0.0 0.016131397604720744 0.014041773548827921 -0.013328481967443089 -0.0007132915813848217 0.004364176310885562 0.0 0.0
0.0 0.008362814248647172 0.007347291167735363 -0.006761076294809352 -0.0005862148729260098 0.0024289108646379175 0.0 0.0
0.0 0.0035245456278024593 0.0029921607110226676 -0.0026115829435593868 -0.00038057776746328124 0.0011163600589315695 0.0 0.0
0.0 0.0008982003165660531 0.0007379124986979228 -0.0006051363208762548 -0.00013277617782166807 0.00034462121894280077 0.0 0.0
0.0 5.2568385160925705e-05 4.422886747116612e-05 -3.470324315929494e-05 -9.525624311871215e-06 2.7985574519106528e-05 0.0 0.0
0.0 0.0 0.0 0.0 0.0 0.0 0.0 0.0
0.0 0.0 0.0 0.0 0.0 0.0 0.0 0.0
0.0 0.008610358399290035 0.005948595743735734 -0.006484533524796469 0.0005359377810607298 0.006971740211343742 0.0 0.0
0.0 0.006538840749070316 0.004342159045935613 -0.0048574301188007395 0.0005152710728651256 -0.005579999886959631 0.0 0.0
0.0 0.0 0.0 0.0 0.0 0.0 0.0 0.0
0.0 0.0 0.0 0.0 0.0 0.0 0.0 0.0
0.0 1.0649629871440827e-05 6.458346701141633e-06 -5.05732941188978e-06 -1.4010172892518383e-06 -6.66094440188193e-06 0.0 0.0
0.0 0.00048076885422879226 0.0003860942703970012 -0.00031277274708510375 -7.332152331189738e-05 -0.000286939524017159 0.0 0.0
0.0 0.0025026797633429594 0.002069882900780467 -0.0017735502608583118 -0.0002963326399221559 -0.0011689319845448853 0.0 0.0
0.0 0.006599755357899063 0.005683683083774643 -0.0051552524612055416 -0.0005284306225691004 -0.0027610074697535505 0.0 0.0
0.0 0.013315839774753818 0.011468850971014822 -0.010791237609301587 -0.0006776133617132395 -0.005156642877049165 0.0 0.0
0.0 0.02263355625255932 0.019406168354755504 -0.018621065404726314 -0.0007851029500291994 -0.00823445490930083 0.0 0.0
0.0 0.03422782743824468 0.029312004374348256 -0.028429007460570303 -0.0008829969137779197 -0.011731617949098943 0.0 0.0
0.0 0.04782327700274392 0.04093872222593513 -0.039961144498262054 -0.0009775777276730708 -0.015313587848512417 0.0 0.0
0.0 0.06316918440360596 0.05408892698930891 -0.05301804623412517 -0.0010708807551837274 -0.018804464540883022 0.0 0.0
0.0 0.08007268274284603 0.06861461741132886 -0.06745073830582721 -0.0011638791055016474 -0.022225734615102296 0.0 0.0
0.0 0.09837983214513041 0.08434777250035067 -0.08309047202727196 -0.0012573004730787062 -0.02554385247717818 0.0 0.0
0.0 0.11774436080447506 0.10103091952186388 -0.09968061909697781 -0.0013503004248860617 -0.028581966045970957 0.0 0.0
0.0 0.13745934317256453 0.11825602043636131 -0.1168111965542558 -0.0014448238821054597 -0.030933649616839802 0.0 0.0
0.0 0.1571075987363189 0.13534245495070282 -0.133796627131466 -0.0015458278192367423 -0.03195170844988947 0.0 0.0
0.0 0.17521120885870037 0.1511923795663101 -0.14953871704900684 -0.0016536625173031812 -0.03086749000009988 0.0 0.0
0.0 0.1899771266263335 0.164263809971823 -0.16250659554832605 -0.0017572144234968981 -0.02653029625152319 0.0 0.0
0.0 0.19951326175136014 0.1728790626199118 -0.17104483554812094 -0.001834227071790919 -0.01751714742773057 0.0 0.0
0.0 0.1995132617513422 0.17287906261989539 -0.1710448355481035 -0.0018342270717920319 0.01751714742779032 0.0 0.0
0.0 0.18997712662628433 0.16426380997177797 -0.16250659554827943 -0.0017572144234984468 0.026530296251598744 0.0 0.0
0.0 0.17521120885863337 0.1511923795662489 -0.14953871704894595 -0.0016536625173028667 0.030867490000155973 0.0 0.0
0.0 0.15710759873623534 0.13534245495062924 -0.13379662713139198 -0.001545827819237189 0.03195170844991094 0.0 0.0
0.0 0.13745934317247138 0.11825602043628093 -0.11681119655417545 -0.0014448238821054649 0.03093364961682881 0.0 0.0
0.0 0.11774436080437369 0.10103091952177656 -0.09968061909689034 -0.0013503004248861714 0.028581966045958508 0.0 0.0
0.0 0.0983798321450306 0.08434777250026401 -0.08309047202718584 -0.0012573004730781917 0.025543852477167686 0.0 0.0
0.0 0.0800726827427522 0.06861461741124726 -0.06745073830574635 -0.0011638791055008852 0.022225734615090177 0.0 0.0
0.0 0.06316918440351695 0.054088926989232 -0.05301804623404912 -0.00107088075518288 0.018804464540860034 0.0 0.0
0.0 0.047823277002663034 0.04093872222586531 -0.03996114449819324 -0.0009775777276720566 0.01531358784848735 0.0 0.0
0.0 0.03422782743817461 0.02931200437428864 -0.028429007460511423 -0.0008829969137771991 0.011731617949069701 0.0 0.0
0.0 0.022633556252503434 0.01940616835470752 -0.01862106540467863 -0.0007851029500288977 0.008234454909282598 0.0 0.0
0.0 0.013315839774713956 0.01146885097098067 -0.010791237609267763 -0.0006776133617128978 0.005156642877033966 0.0 0.0
0.0 0.006599755357874213 0.005683683083753515 -0.005155252461185198 -0.000528430622568318 0.0027610074697440186 0.0 0.0
0.0 0.002502679763328806 0.0020698829007693696 -0.001773550260848275 -0.0002963326399210937 0.0011689319845385269 0.0 0.0
0.0 0.0004807688542242695 0.0003860942703939811 -0.0003127727470825842 -7.33215233113969e-05 0.00028693952401501383 0.0 0.0
0.0 1.0649629870705836e-05 6.458346701168983e-06 -5.057329411906478e-06 -1.4010172892625012e-06 6.6609444018872014e-06 0.0 0.0
0.0 0.0 0.0 0.0 0.0 0.0 0.0 0.0
0.0 0.0 0.0 0.0 0.0 0.0 0.0 0.0
0.0 0.006538840749052492 0.004342159045923744 -0.004857430118788256 0.0005152710728645108 0.005579999886941575 0.0 0.0
0.0 0.004824517213868807 0.0030949920966522305 -0.0035537153599301294 0.0004587232632778999 -0.004200060789993444 0.0 0.0
0.0 0.0 0.0 0.0 0.0 0.0 0.0 0.0
0.0 0.0 0.0 0.0 0.0 0.0 0.0 0.0
0.0 1.7025993651024454e-06 9.9926284726903e-07 -7.684974497468682e-07 -2.307653975221609e-07 -1.4877333321596004e-06 0.0 0.0
0.0 0.0002221792462947014 0.00016459592872852366 -0.00013246005568917112 -3.2135873039352586e-05 -0.00018776376252462108 0.0 0.0
0.0 0.0016279889779715982 0.0013015611996872957 -0.0010945677700959621 -0.00020699342959133328 -0.0010782633405841276 0.0 0.0
0.0 0.0050437470850095145 0.004126628978080205 -0.0036753944312330755 -0.00045123454684712776 -0.002779153513966935 0.0 0.0
0.0 0.010632359023657877 0.008948213011793415 -0.008319032877082603 -0.000629180134710812 -0.005424340567263271 0.0 0.0
0.0 0.018583244644153972 0.015691868166770366 -0.014948063199034339 -0.0007438049677360357 -0.008873896163517586 0.0 0.0
0.0 0.028548470354233253 0.024119581263187955 -0.023281863311666005 -0.0008377179515219435 -0.012738481935302184 0.0 0.0
0.0 0.04017776410012063 0.03398460965542055 -0.03305946227640438 -0.0009251473790161914 -0.01669243045053147 0.0 0.0
0.0 0.053232353118508983 0.04510997394470558 -0.04410053877949631 -0.001009435165209231 -0.02055408975064957 0.0 0.0
0.0 0.06766391517294851 0.05738964512476817 -0.05629712548847432 -0.0010925196362938491 -0.024344821544854945 0.0 0.0
0.0 0.08314421859131045 0.07071894929812922 -0.06954390575965351 -0.0011750435384757126 -0.028037709666510476 0.0 0.0
0.0 0.09968215158460082 0.0849192988664798 -0.08366279488644275 -0.0012565039800370341 -0.031419827225257005 0.0 0.0
0.0 0.11690535056500442 0.09969972773477706 -0.09836115085314802 -0.001338576881628985 -0.0341232907776418 0.0 0.0
0.0 0.13384991656070863 0.11456471594820286 -0.11313924092833275 -0.0014254750198700547 -0.035565642316714025 0.0 0.0
0.0 0.14982337986225616 0.1286688844971114 -0.1271492628196088 -0.0015196216775025127 -0.03471892123335082 0.0 0.0
0.0 0.16330704373477406 0.1407531582198585 -0.13914016110940025 -0.001612997110458228 -0.029898084549785407 0.0 0.0
0.0 0.1726180039822632 0.14935051425398602 -0.1476624106302221 -0.0016881036237638136 -0.01935288390566805 0.0 0.0
0.0 0.17261800398225155 0.1493505142539739 -0.14766241063020963 -0.0016881036237641088 0.01935288390573261 0.0 0.0
0.0 0.16330704373474278 0.1407531582198267 -0.13914016110936886 -0.0016129971104578192 0.029898084549868253 0.0 0.0
0.0 0.14982337986220712 0.12866888449706373 -0.12714926281956287 -0.00151962167750085 0.03471892123341347 0.0 0.0
0.0 0.133849916560644 0.1145647159481438 -0.11313924092827515 -0.0014254750198686033 0.035565642316741086 0.0 0.0
0.0 0.11690535056492411 0.09969972773470724 -0.09836115085307916 -0.0013385768816281147 0.03412329077763063 0.0 0.0
0.0 0.09968215158451295 0.08491929886640397 -0.083662794886367 -0.001256503980037012 0.03141982722524267 0.0 0.0
0.0 0.08314421859122897 0.0707189492980582 -0.06954390575958358 -0.0011750435384746713 0.028037709666498954 0.0 0.0
0.0 0.06766391517286771 0.05738964512469813 -0.05629712548840421 -0.0010925196362938858 0.024344821544841563 0.0 0.0
0.0 0.053232353118428846 0.04510997394463716 -0.044100538779428045 -0.0010094351652090894 0.020554089750623714 0.0 0.0
0.0 0.04017776410005284 0.033984609655362846 -0.03305946227634739 -0.0009251473790154493 0.016692430450504163 0.0 0.0
0.0 0.028548470354173197 0.024119581263138103 -0.023281863311616868 -0.000837717951521245 0.012738481935269568 0.0 0.0
0.0 0.018583244644110174 0.015691868166733312 -0.01494806319899766 -0.0007438049677356417 0.008873896163498084 0.0 0.0
0.0 0.010632359023624707 0.008948213011765706 -0.008319032877055708 -0.0006291801347100012 0.005424340567247089 0.0 0.0
0.0 0.0050437470849884775 0.004126628978063132 -0.0036753944312169495 -0.0004512345468461825 0.002779153513956445 0.0 0.0
0.0 0.0016279889779639435 0.0013015611996817526 -0.0010945677700911404 -0.00020699342959061163 0.00107826334057946 0.0 0.0
0.0 0.0002221792462924138 0.0001645959287273973 -0.0001324600556882234 -3.213587303917385e-05 0.00018776376252320674 0.0 0.0
0.0 1.7025993650386962e-06 9.992628474653994e-07 -7.684974498998039e-07 -2.3076539756559286e-07 1.4877333324690917e-06 0.0 0.0
0.0 0.0 0.0 0.0 0.0 0.0 0.0 0.0
0.0 0.0 0.0 0.0 0.0 0.0 0.0 0.0
0.0 0.004824517213853946 0.0030949920966425563 -0.003553715359919786 0.0004587232632772281 0.004200060789979296 0.0 0.0
0.0 0.0033849849450282255 0.002108981510668126 -0.0024878012726631616 0.00037881976199503474 -0.003001760565779804 0.0 0.0
0.0 0.0 0.0 0.0 0.0 0.0 0.0 0.0
0.0 0.0 0.0 0.0 0.0 0.0 0.0 0.0
0.0 1.2459832782016668e-06 -8.711175530045244e-08 6.722946238267231e-08 1.9882292917777628e-08 2.0432140011233723e-07 0.0 0.0
0.0 9.979484557100864e-05 6.0159915521369264e-05 -4.827095936035567e-05 -1.1888956161013588e-05 -0.00010331101201804526 0.0 0.0
0.0 0.0009436193796093117 0.0007157041731713921 -0.0005920930779213413 -0.00012361109525005072 -0.0008738192127383496 0.0 0.0
0.0 0.003482439649200721 0.0027519377465612337 -0.002398909168154515 -0.00035302857840671914 -0.0025810117115807794 0.0 0.0
0.0 0.00807805064560558 0.006542056074570014 -0.005983260555606192 -0.00055879551896382 -0.005239791283460462 0.0 0.0
0.0 0.014658116834125195 0.012046516748584686 -0.011355352540613501 -0.0006911642079711826 -0.008783704228328939 0.0 0.0
0.0 0.02293082159023151 0.01898104920722169 -0.018196421561998504 -0.0007846276452231923 -0.012798887007070974 0.0 0.0
0.0 0.03255988736398262 0.027073629421152802 -0.0262082177293807 -0.0008654116917721035 -0.016881502529803406 0.0 0.0
0.0 0.04334573364202642 0.036167678181169255 -0.0352264097032187 -0.0009412684779505723 -0.020875286625841073 0.0 0.0
0.0 0.05519376962925394 0.04619657123720519 -0.04518228869633763 -0.0010142825408675444 -0.024805278213202768 0.0 0.0
0.0 0.06804481456083958 0.05711225612837555 -0.05602634470726507 -0.0010859114211104852 -0.028629913056009374 0.0 0.0
0.0 0.08179273954084974 0.06881290762140156 -0.06765605642935815 -0.0011568511920434428 -0.03216107173977735 0.0 0.0
0.0 0.09593228415498056 0.08110346780827735 -0.07987728395011909 -0.0012261838581582652 -0.035069376518383884 0.0 0.0
0.0 0.11049631280878314 0.09367011175360027 -0.09237340497293976 -0.0012967067806604951 -0.036827428266352276 0.0 0.0
0.0 0.12450124396780084 0.10599972931802668 -0.10462539391576517 -0.001374335402261495 -0.03641811046776693 0.0 0.0
0.0 0.13665735072230753 0.11718554986972388 -0.11572713535932555 -0.001458414510398242 -0.03183686654651582 0.0 0.0
0.0 0.14592328237631655 0.1259285125896662 -0.12439220345696828 -0.0015363091326978436 -0.020844784089893174 0.0 0.0
0.0 0.14592328237630597 0.1259285125896543 -0.12439220345695627 -0.001536309132697978 0.02084478408995981 0.0 0.0
0.0 0.13665735072227708 0.1171855498696922 -0.115727135359293 -0.0014584145103991924 0.03183686654659937 0.0 0.0
0.0 0.12450124396775769 0.10599972931798406 -0.10462539391572191 -0.0013743354022621602 0.03641811046782863 0.0 0.0
0.0 0.11049631280872863 0.09367011175355014 -0.09237340497288937 -0.0012967067806607263 0.03682742826637867 0.0 0.0
0.0 0.09593228415491267 0.08110346780821925 -0.07987728395006052 -0.0012261838581587112 0.035069376518371644 0.0 0.0
0.0 0.08179273954077439 0.06881290762133693 -0.0676560564292932 -0.00115685119204368 0.03216107173976112 0.0 0.0
0.0 0.06804481456076522 0.057112256128311376 -0.056026344707200776 -0.0010859114211106138 0.028629913055993106 0.0 0.0
0.0 0.055193769629188205 0.04619657123714836 -0.04518228869628151 -0.0010142825408668615 0.024805278213187603 0.0 0.0
0.0 0.04334573364196589 0.0361676781811178 -0.03522640970316823 -0.000941268477949554 0.02087528662581788 0.0 0.0
0.0 0.03255988736392525 0.02707362942110507 -0.026208217729333322 -0.0008654116917717511 0.01688150252977549 0.0 0.0
0.0 0.02293082159017945 0.018981049207179405 -0.018196421561956642 -0.00078462764522276 0.012798887007037393 0.0 0.0
0.0 0.01465811683408485 0.012046516748551221 -0.011355352540580815 -0.0006911642079704038 0.008783704228306101 0.0 0.0
0.0 0.008078050645578077 0.006542056074547782 -0.005983260555584691 -0.0005587955189630915 0.0052397912834440796 0.0 0.0
0.0 0.003482439649183839 0.0027519377465480255 -0.0023989091681423658 -0.0003530285784056586 0.002581011711569864 0.0 0.0
0.0 0.0009436193796025021 0.0007157041731668855 -0.0005920930779174715 -0.00012361109524941383 0.0008738192127328945 0.0 0.0
0.0 9.979484556994368e-05 6.015991552129904e-05 -4.8270959360274514e-05 -1.1888956161024538e-05 0.00010331101201777814 0.0 0.0
0.0 1.245983277765114e-06 -8.711175526903953e-08 6.722946235833695e-08 1.9882292910690027e-08 -2.0432140003799813e-07 0.0 0.0
0.0 0.0 0.0 0.0 0.0 0.0 0.0 0.0
0.0 0.0 0.0 0.0 0.0 0.0 0.0 0.0
0.0 0.0033849849450161766 0.002108981510660569 -0.002487801272654924 0.00037881976199435446 0.0030017605657686446 0.0 0.0
0.0 0.002237977308273481 0.0013347296788824862 -0.0016189656414200763 0.0002842359625375894 -0.0020072800165913517 0.0 0.0
0.0 6.808126749334917e-07 -1.0371231226033877e-08 1.1382208934150606e-08 -1.010977708115995e-09 1.3495275768488005e-07 0.0 0.0
0.0 3.7869285625906513e-07 -1.0853022555903305e-08 7.76318668522007e-09 3.0898358706842675e-09 7.416418593090768e-08 0.0 0.0
0.0 1.343535810957597e-06 -6.745450613659108e-08 5.1836617700734505e-08 1.5617888435866596e-08 2.5068220686766373e-07 0.0 0.0
0.0 5.311661226767936e-05 2.653515065520912e-05 -2.115952079035542e-05 -5.375629864853721e-06 -6.82452070045301e-05 0.0 0.0
0.0 0.0005234470110390348 0.000323695615558963 -0.00026439321634566634 -5.9302399213296815e-05 -0.0005936992193165769 0.0 0.0
0.0 0.0021968317320459085 0.0015977885639628627 -0.001360052537594257 -0.00023773602636860652 -0.0021460600023588353 0.0 0.0
0.0 0.005649251823857435 0.00433358681702372 -0.003874971079590123 -0.000458615737433594 -0.00466646794626434 0.0 0.0
0.0 0.010849435789450872 0.008540749071768453 -0.007923856027712357 -0.0006168930440560906 -0.008012371180807693 0.0 0.0
0.0 0.017408446259300752 0.013948428801617972 -0.013229519827956435 -0.000718908973661533 -0.011882722901427636 0.0 0.0
0.0 0.025023992623698473 0.02025805594984394 -0.019462777136707438 -0.0007952788131365064 -0.015869439023559022 0.0 0.0
0.0 0.03351274021411033 0.027319443969317722 -0.02645575016442296 -0.0008636938048947565 -0.019756172204925614 0.0 0.0
0.0 0.04283745800718693 0.03509441169862816 -0.03416754273439489 -0.0009268689642332682 -0.023572522592895516 0.0 0.0
0.0 0.052923520432348575 0.04358844565789625 -0.042601123111454864 -0.0009873225464413708 -0.027313444973104898 0.0 0.0
0.0 0.06378432807181617 0.05277152256924707 -0.05172437973155524 -0.0010471428376918163 -0.030793161015777674 0.0 0.0
0.0 0.07520824361797943 0.06253259943065108 -0.061426219756228015 -0.0011063796744231022 -0.03368184457116359 0.0 0.0
0.0 0.08691267591497696 0.0727102519347841 -0.07155038499118466 -0.0011598669435994083 -0.03561779895762645 0.0 0.0
0.0 0.09872031926603547 0.08314243871938824 -0.08192622811023484 -0.0012162106091533967 -0.03582979355211522 0.0 0.0
0.0 0.109994411492609 0.09338591971383359 -0.09209755519694224 -0.001288364516891288 -0.032226365011818844 0.0 0.0
0.0 0.11941295328633261 0.10237750367521664 -0.1010043316855069 -0.0013731719897097142 -0.021963382071656577 0.0 0.0
0.0 0.11941295328633167 0.10237750367521262 -0.10100433168550306 -0.0013731719897094982 0.02196338207171855 0.0 0.0
0.0 0.10999441149259893 0.09338591971381675 -0.0920975551969272 -0.0012883645168896532 0.03222636501190407 0.0 0.0
0.0 0.09872031926601155 0.08314243871935999 -0.0819262281102081 -0.0012162106091517923 0.03582979355217891 0.0 0.0
0.0 0.08691267591493405 0.07271025193474258 -0.07155038499114386 -0.0011598669435987424 0.0356177989576533 0.0 0.0
0.0 0.0752082436179304 0.06253259943060863 -0.06142621975618666 -0.0011063796744219712 0.03368184457115181 0.0 0.0
0.0 0.06378432807176669 0.05277152256920414 -0.05172437973151339 -0.0010471428376907367 0.030793161015765208 0.0 0.0
0.0 0.05292352043229441 0.04358844565784957 -0.0426011231114088 -0.0009873225464407719 0.027313444973090892 0.0 0.0
0.0 0.04283745800713995 0.03509441169858757 -0.03416754273435493 -0.0009268689642326179 0.023572522592883196 0.0 0.0
0.0 0.03351274021406315 0.027319443969278368 -0.026455750164384218 -0.0008636938048941672 0.019756172204902882 0.0 0.0
0.0 0.02502399262365399 0.020258055949807625 -0.019462777136672015 -0.0007952788131355933 0.015869439023532363 0.0 0.0
0.0 0.01740844625925857 0.013948428801585365 -0.013229519827924236 -0.0007189089736611244 0.011882722901394657 0.0 0.0
0.0 0.010849435789419309 0.008540749071743684 -0.007923856027687918 -0.0006168930440557699 0.008012371180787205 0.0 0.0
0.0 0.005649251823835242 0.004333586817006531 -0.003874971079573888 -0.00045861573743264153 0.004666467946248783 0.0 0.0
0.0 0.0021968317320321777 0.0015977885639528843 -0.0013600525375852346 -0.00023773602636764857 0.0021460600023471884 0.0 0.0
0.0 0.0005234470110332172 0.00032369561555565743 -0.00026439321634293806 -5.930239921271918e-05 0.0005936992193108828 0.0 0.0
0.0 5.3116612266038295e-05 2.653515065496432e-05 -2.1159520790150552e-05 -5.375629864813776e-06 6.8245207003891e-05 0.0 0.0
0.0 1.343535810551308e-06 -6.74545061154224e-08 5.1836617684484416e-08 1.561788843093987e-08 -2.5068220678900275e-07 0.0 0.0
0.0 3.786928558295237e-07 -1.0853022544114866e-08 7.763186676628835e-09 3.0898358674860974e-09 -7.416418584570931e-08 0.0 0.0
0.0 6.808126741997652e-07 -1.0371231215047161e-08 1.1382208922371451e-08 -1.0109777073237724e-09 -1.34952757536912e-07 0.0 0.0
0.0 0.002237977308263972 0.001334729678876919 -0.0016189656414137346 0.0002842359625368147 0.0020072800165831565 0.0 0.0
0.0 0.0013372084131043794 0.0007505894930785884 -0.0009389701595490763 0.0001883806664704874 -0.0012081856116371256 0.0 0.0
0.0 1.9202735450357314e-06 8.355041717181273e-08 -8.398344747916871e-08 4.33030307354657e-10 -1.8817926175264955e-06 0.0 0.0
0.0 7.437858452361434e-07 8.869957439617492e-09 -5.521814528704097e-09 -3.3481429109128644e-09 -6.5424401453682e-08 0.0 0.0
0.0 2.504089064640059e-06 3.9099249658257114e-07 -3.0185923843771314e-07 -8.913325814485578e-08 -2.551354472276236e-06 0.0 0.0
0.0 4.219511279228753e-05 1.4895904108919013e-05 -1.1808586607433692e-05 -3.0873175014853392e-06 -6.011420113905077e-05 0.0 0.0
0.0 0.0002812387536815495 0.00012879895564956356 -0.00010424110945344267 -2.455784619612089e-05 -0.0003816194529251755 0.0 0.0
0.0 0.001236420889127358 0.0007392079828460387 -0.0006146574907504086 -0.00012455049209562997 -0.0015431287068137485 0.0 0.0
0.0 0.0034972216806032426 0.002406249262290202 -0.0020875100697812852 -0.00031873919250891697 -0.0037203462644082893 0.0 0.0
0.0 0.007235806970423211 0.005272474231542493 -0.0047694520319513265 -0.0005030221995911623 -0.006642931733844016 0.0 0.0
0.0 0.011978629867489186 0.009104955001268964 -0.00847896415484143 -0.0006259908464275327 -0.010041401164909359 0.0 0.0
0.0 0.01765587668235921 0.013606982169577692 -0.01290055071017432 -0.0007064314594033688 -0.013615925169210232 0.0 0.0
0.0 0.02381035707187167 0.018634319974201806 -0.017864554932218134 -0.000769765041983673 -0.017149709870051787 0.0 0.0
0.0 0.03056099378267997 0.024158084153180208 -0.023333637419518122 -0.0008244467336620894 -0.020625826983844794 0.0 0.0
0.0 0.03793981451734677 0.03021995122701846 -0.029346122687736353 -0.0008738285392821094 -0.02403556767206018 0.0 0.0
0.0 0.045990151827307015 0.036863447770973896 -0.0359417914613753 -0.0009216563095985718 -0.027264625019228984 0.0 0.0
0.0 0.0545176928875701 0.044071690683307164 -0.04310086820604442 -0.0009708224772627344 -0.02998937219702266 0.0 0.0
0.0 0.06351945649038673 0.05178116954127657 -0.05076667280468462 -0.0010144967365919146 -0.03184229390393576 0.0 0.0
0.0 0.07290014765067099 0.06009254113140128 -0.05904789996194476 -0.0010446411694564855 -0.032598594284767204 0.0 0.0
0.0 0.08274672794607764 0.06917332483774415 -0.06807981866224998 -0.0010935061754941459 -0.03070259020041985 0.0 0.0
0.0 0.092271680111819 0.0784303770771835 -0.07724296631223079 -0.0011874107649527967 -0.022589028432242315 0.0 0.0
0.0 0.09227168011181355 0.07843037707717526 -0.07724296631222222 -0.001187410764953066 0.022589028432296557 0.0 0.0
0.0 0.08274672794606278 0.06917332483772361 -0.06807981866222867 -0.00109350617549492 0.03070259020049575 0.0 0.0
0.0 0.07290014765064876 0.060092541131374626 -0.05904789996191826 -0.0010446411694563446 0.032598594284822424 0.0 0.0
0.0 0.06351945649035794 0.051781169541247354 -0.05076667280465673 -0.0010144967365906467 0.031842293903956834 0.0 0.0
0.0 0.054517692887523735 0.044071690683268876 -0.043100868206006525 -0.0009708224772623411 0.02998937219700335 0.0 0.0
0.0 0.045990151827264174 0.03686344777093841 -0.03594179146134033 -0.0009216563095981008 0.027264625019210665 0.0 0.0
0.0 0.0379398145173107 0.030219951226988305 -0.02934612268770646 -0.0008738285392818508 0.024035567672046947 0.0 0.0
0.0 0.030560993782647865 0.024158084153152647 -0.02333363741949081 -0.0008244467336618423 0.020625826983835926 0.0 0.0
0.0 0.023810357071835053 0.018634319974172454 -0.017864554932189122 -0.000769765041983328 0.01714970987003021 0.0 0.0
0.0 0.017655876682326353 0.013606982169552218 -0.012900550710149247 -0.0007064314594029617 0.013615925169186222 0.0 0.0
0.0 0.011978629867461501 0.00910495500124879 -0.008478964154822037 -0.0006259908464267482 0.010041401164884665 0.0 0.0
0.0 0.007235806970400431 0.005272474231525537 -0.004769452031935088 -0.0005030221995904502 0.006642931733825691 0.0 0.0
0.0 0.0034972216805909677 0.0024062492622814414 -0.0020875100697732678 -0.00031873919250817413 0.0037203462643971216 0.0 0.0
0.0 0.0012364208891202473 0.0007392079828418643 -0.0006146574907468148 -0.00012455049209504897 0.0015431287068063144 0.0 0.0
0.0 0.00028123875367905635 0.00012879895564884295 -0.00010424110945283293 -2.455784619600999e-05 0.0003816194529229291 0.0 0.0
0.0 4.219511279093276e-05 1.4895904108934798e-05 -1.1808586607441317e-05 -3.087317501493468e-06 6.011420113910117e-05 0.0 0.0
0.0 2.5040890645354095e-06 3.9099249670960824e-07 -3.0185923853420056e-07 -8.913325817541072e-08 2.5513544730927994e-06 0.0 0.0
0.0 7.437858449785835e-07 8.869957494485184e-09 -5.5218145652183955e-09 -3.3481429292658243e-09 6.542440214678067e-08 0.0 0.0
0.0 1.9202735444753615e-06 8.355041721052994e-08 -8.398344752461093e-08 4.330303140809076e-10 1.8817926184828114e-06 0.0 0.0
0.0 0.0013372084130972757 0.0007505894930749207 -0.0009389701595447449 0.00018838066646982446 0.001208185611631354 0.0 0.0
0.0 0.0006367093690834992 0.0003504384091089676 -0.00045551708780177535 0.00010507867869280798 -0.0006124118201767344 0.0 0.0
0.0 3.860188428203101e-06 6.324620600180512e-08 -8.667561671593793e-08 2.3429410714132984e-08 -2.6547067339150937e-06 0.0 0.0
0.0 2.872758800425405e-06 3.8071129619224934e-08 -1.5607932120871997e-08 -2.2463197498353165e-08 -2.6088181666054337e-06 0.0 0.0
0.0 5.994857231584049e-06 5.320296163957278e-07 -3.7582219495030226e-07 -1.562074214454223e-07 -7.616108954603297e-06 0.0 0.0
0.0 4.5083934462140624e-05 8.935694159706458e-06 -6.989981264278021e-06 -1.9457128954284396e-06 -6.832486580823109e-05 0.0 0.0
0.0 0.00019502946687698251 5.2312748898883896e-05 -4.217082693745874e-05 -1.0141921961425156e-05 -0.0002881010921818736 0.0 0.0
0.0 0.0006476523196324072 0.0002450202359828795 -0.0001998869780158685 -4.513325796701076e-05 -0.0009612419748876481 0.0 0.0
0.0 0.0017782260294735923 0.0009160928074745681 -0.0007661004432042988 -0.00014999236427026925 -0.0024705656894574504 0.0 0.0
0.0 0.003942865751694039 0.0023929396611347253 -0.0020761295536356225 -0.0003168101074991016 -0.0047179806720851975 0.0 0.0
0.0 0.006917272834590599 0.004587672574292132 -0.004122396005683099 -0.0004652765686090329 -0.007360708717862778 0.0 0.0
0.0 0.01042921763944985 0.0072508944395688404 -0.0066835751098795896 -0.0005673193296892481 -0.010203264805934292 0.0 0.0
0.0 0.014401357954762072 0.010225807381510233 -0.009590470677838442 -0.0006353367036717844 -0.0130990100881522 0.0 0.0
0.0 0.018689428845620523 0.013500842292362297 -0.012813518589579076 -0.0006873237027832242 -0.01601896738043396 0.0 0.0
0.0 0.02338861083202294 0.017129497749570857 -0.016400878521582594 -0.000728619227988256 -0.018903122693970122 0.0 0.0
0.0 0.028561320499640244 0.021202727486758402 -0.020438560833891485 -0.000764166652866909 -0.02169241590359521 0.0 0.0
0.0 0.03424354281164993 0.02581901791429072 -0.025018914326231784 -0.0008001035880589349 -0.024185043097952906 0.0 0.0
0.0 0.04044214470945423 0.031035693402080403 -0.030195493168478405 -0.0008402002336020174 -0.025935585289818715 0.0 0.0
0.0 0.047303101103477914 0.03701976138229478 -0.036157710770646646 -0.0008620506116481376 -0.026798523186656143 0.0 0.0
0.0 0.05552786293758251 0.0444242269113998 -0.04356397920847124 -0.0008602477029285413 -0.026678600302455197 0.0 0.0
0.0 0.0650402113672561 0.053729670152231554 -0.05277538830421669 -0.0009542818480148748 -0.022367690024619954 0.0 0.0
0.0 0.06504021136725749 0.05372967015222797 -0.05277538830421318 -0.0009542818480148085 0.022367690024668263 0.0 0.0
0.0 0.05552786293758173 0.04442422691139085 -0.0435639792084619 -0.000860247702928904 0.026678600302522372 0.0 0.0
0.0 0.04730310110346562 0.037019761382276264 -0.036157710770627724 -0.0008620506116485337 0.026798523186706485 0.0 0.0
0.0 0.04044214470943197 0.03103569340205972 -0.030195493168456756 -0.0008402002336029622 0.025935585289826344 0.0 0.0
0.0 0.03424354281162374 0.02581901791427085 -0.0250189143262118 -0.0008001035880590434 0.02418504309793818 0.0 0.0
0.0 0.028561320499613158 0.021202727486737738 -0.02043856083387046 -0.000764166652867268 0.021692415903580065 0.0 0.0
0.0 0.023388610831997912 0.017129497749550953 -0.0164008785215625 -0.0007286192279884502 0.01890312269395953 0.0 0.0
0.0 0.018689428845600167 0.013500842292345678 -0.012813518589562634 -0.0006873237027830506 0.016018967380426224 0.0 0.0
0.0 0.014401357954741888 0.010225807381495826 -0.009590470677824516 -0.0006353367036713098 0.013099010088135968 0.0 0.0
0.0 0.010429217639429916 0.0072508944395553755 -0.006683575109866485 -0.0005673193296888905 0.010203264805915456 0.0 0.0
0.0 0.0069172728345719674 0.0045876725742807975 -0.004122396005672095 -0.0004652765686086994 0.007360708717842029 0.0 0.0
0.0 0.003942865751682581 0.002392939661127342 -0.002076129553628768 -0.0003168101074985731 0.004717980672073085 0.0 0.0
0.0 0.0017782260294667471 0.0009160928074707518 -0.0007661004432010035 -0.0001499923642697485 0.0024705656894494386 0.0 0.0
0.0 0.000647652319628839 0.0002450202359815235 -0.00019988697801477602 -4.5133257966747474e-05 0.0009612419748834275 0.0 0.0
0.0 0.00019502946687473412 5.231274889862234e-05 -4.2170826937237596e-05 -1.0141921961384724e-05 0.00028810109218010044 0.0 0.0
0.0 4.508393446091441e-05 8.935694159659104e-06 -6.989981264237583e-06 -1.9457128954215223e-06 6.832486580784766e-05 0.0 0.0
0.0 5.994857231487745e-06 5.320296164484637e-07 -3.758221949863286e-07 -1.5620742146213245e-07 7.616108955388047e-06 0.0 0.0
0.0 2.8727587998574963e-06 3.8071129631620645e-08 -1.5607932125791726e-08 -2.2463197505828238e-08 2.608818167452789e-06 0.0 0.0
0.0 3.860188427963996e-06 6.3246206026891e-08 -8.667561675578177e-08 2.34294107288904e-08 2.6547067348671744e-06 0.0 0.0
0.0 0.0006367093690787299 0.0003504384091068304 -0.0004555170877991718 0.00010507867869234111 0.0006124118201729522 0.0 0.0
0.0 0.00021310987568730995 0.00011215929057775489 -0.00015266907231062057 4.050978173286567e-05 -0.0002101750097013568 0.0 0.0
0.0 4.9313031448103675e-06 -9.113373929194849e-09 -3.465559115460441e-08 4.376896508380047e-08 -3.9979115666248385e-06 0.0 0.0
0.0 6.795849018398177e-06 -2.8362479319381725e-07 2.723580463095366e-07 1.1266746884281313e-08 -8.588616288944194e-06 0.0 0.0
0.0 1.1601500583916894e-05 -1.8045008761245247e-07 2.6296965051925346e-07 -8.251956290680015e-08 -1.8076189220902525e-05 0.0 0.0
0.0 5.1868338276313975e-05 2.102850732336291e-06 -1.4505916163936393e-06 -6.52259115942658e-07 -7.757552045214934e-05 0.0 0.0
0.0 0.0001797095136734477 1.5077831888640186e-05 -1.1991035743225707e-05 -3.086796145414457e-06 -0.0002830910576380341 0.0 0.0
0.0 0.0004299507201488806 5.294354253615723e-05 -4.291473770550799e-05 -1.0028804830649249e-05 -0.0007037536200521881 0.0 0.0
0.0 0.0008774171595571105 0.00014619268984718799 -0.00011918363772690262 -2.70090521202852e-05 -0.0013946613766465615 0.0 0.0
0.0 0.0016094101859299612 0.0003870255512903003 -0.00031600392010589797 -7.102163118440204e-05 -0.002587090071370529 0.0 0.0
0.0 0.0028273365424523393 0.0008697357331208949 -0.0007138067743085568 -0.00015592895881233788 -0.004271796444683831 0.0 0.0
0.0 0.0043173509797988195 0.0015916673262815263 -0.0013337763763710132 -0.0002578909499105125 -0.006342785690148577 0.0 0.0
0.0 0.0061778570249808075 0.002480313218127997 -0.0021368340806896084 -0.0003434791374383876 -0.008611235480330244 0.0 0.0
0.0 0.008262290808685008 0.0035020909450829856 -0.0030919436124413396 -0.0004101473326416456 -0.011019426241014266 0.0 0.0
0.0 0.010611554067822979 0.0046893861428909086 -0.004230157768097936 -0.00045922837479297265 -0.01354741141369683 0.0 0.0
0.0 0.013242674264448992 0.006157403669580249 -0.0056627819952358785 -0.0004946216743443661 -0.016154704262163474 0.0 0.0
0.0 0.0162920895699476 0.008107187388371729 -0.007583932051875342 -0.0005232553364963857 -0.01866494859727369 0.0 0.0
0.0 0.01978667846568441 0.010800269636768813 -0.010243488550439443 -0.0005567810863293615 -0.02061555307474438 0.0 0.0
0.0 0.023814374458769563 0.014451731576223927 -0.013849428477406679 -0.0006023030988172395 -0.021357155744724392 0.0 0.0
0.0 0.029355025778942286 0.01959637284690357 -0.019007057641705606 -0.0005893152051979621 -0.021433363025138548 0.0 0.0
0.0 0.03795647045422229 0.027971343281415508 -0.02738813449611246 -0.00058320878530304 -0.021136167128876535 0.0 0.0
0.0 0.03795647045423159 0.027971343281419016 -0.02738813449611608 -0.0005832087853029312 0.02113616712891276 0.0 0.0
0.0 0.02935502577894924 0.01959637284690094 -0.019007057641703407 -0.0005893152051975453 0.021433363025193372 0.0 0.0
0.0 0.023814374458767416 0.014451731576216554 -0.013849428477399603 -0.0006023030988169439 0.02135715574475562 0.0 0.0
0.0 0.019786678465677388 0.010800269636764118 -0.010243488550435585 -0.0005567810863285308 0.02061555307474386 0.0 0.0
0.0 0.01629208956993787 0.00810718738836834 -0.007583932051872482 -0.0005232553364958549 0.018664948597259992 0.0 0.0
0.0 0.01324267426443479 0.0061574036695735655 -0.005662781995229474 -0.000494621674344091 0.016154704262149037 0.0 0.0
0.0 0.010611554067816793 0.004689386142889856 -0.004230157768096888 -0.0004592283747929671 0.01354741141368717 0.0 0.0
0.0 0.008262290808678149 0.0035020909450810054 -0.0030919436124394037 -0.0004101473326416005 0.011019426241006575 0.0 0.0
0.0 0.006177857024969834 0.0024803132181244214 -0.00213683408068635 -0.00034347913743807 0.008611235480316028 0.0 0.0
0.0 0.004317350979789074 0.001591667326278764 -0.0013337763763686646 -0.00025789094991009973 0.006342785690134477 0.0 0.0
0.0 0.002827336542442699 0.0008697357331186172 -0.0007138067743067786 -0.00015592895881183836 0.004271796444669653 0.0 0.0
0.0 0.0016094101859267236 0.000387025551289508 -0.0003160039201053276 -7.10216311841803e-05 0.0025870900713652646 0.0 0.0
0.0 0.0008774171595538843 0.00014619268984643368 -0.00011918363772633707 -2.7009052120096445e-05 0.0013946613766413025 0.0 0.0
0.0 0.00042995072014608547 5.29435425359087e-05 -4.291473770527615e-05 -1.0028804830632521e-05 0.000703753620049017 0.0 0.0
0.0 0.00017970951367186314 1.5077831888608304e-05 -1.1991035743193172e-05 -3.0867961454151314e-06 0.00028309105763708723 0.0 0.0
0.0 5.1868338275004036e-05 2.1028507323339853e-06 -1.4505916163907098e-06 -6.52259115943278e-07 7.757552045193101e-05 0.0 0.0
0.0 1.160150058372118e-05 -1.804500876231682e-07 2.629696505322793e-07 -8.251956290911107e-08 1.8076189221571325e-05 0.0 0.0
0.0 6.795849017614568e-06 -2.8362479322007707e-07 2.7235804633241855e-07 1.1266746887657841e-08 8.58861628953255e-06 0.0 0.0
0.0 4.93130314444887e-06 -9.113373933174684e-09 -3.465559116341443e-08 4.376896509659163e-08 3.997911567310999e-06 0.0 0.0
0.0 0.0002131098756848538 0.00011215929057688424 -0.00015266907230947706 4.050978173259282e-05 0.00021017500969981633 0.0 0.0
0.0 3.213458565983529e-05 1.5501891135763786e-05 -2.214358705449226e-05 6.641695918728463e-06 -3.172491319744403e-05 0.0 0.0
0.0 4.603467431592388e-06 -1.3269856215350766e-07 4.683542709361992e-08 8.586313505989261e-08 -4.2644032739550946e-06 0.0 0.0
0.0 9.838247010432544e-06 -1.0916963458892976e-06 9.346596332489974e-07 1.5703671264030084e-07 -1.3646215813563398e-05 0.0 0.0
0.0 1.84628922022974e-05 -2.2909608093189e-06 2.026500617215428e-06 2.644601921034743e-07 -2.806805681528505e-05 0.0 0.0
0.0 6.081760860416027e-05 -6.249208049954646e-06 5.389424453181922e-06 8.597835967727332e-07 -9.009512776236595e-05 0.0 0.0
0.0 0.00019035389773379397 -1.9645901103326616e-05 1.6201949012296945e-05 3.4439520910296592e-06 -0.00029237165244532084 0.0 0.0
0.0 0.0004374243764696719 -5.6583312942990996e-05 4.605562157814588e-05 1.0527691364845108e-05 -0.0007161081069533634 0.0 0.0
0.0 0.000882489303195449 -0.00014832707723452977 0.00012090237181878669 2.7424705415743143e-05 -0.001403843091506518 0.0 0.0
0.0 0.0016102699408594566 -0.0003877022002849293 0.00031662001678892094 7.108218349600819e-05 -0.002590568587378159 0.0 0.0
0.0 0.0028273752275763406 -0.0008698330198709032 0.0007140690518428818 0.00015576396802802173 -0.004272531704252649 0.0 0.0
0.0 0.004337376112962578 -0.001601177481371673 0.0013441943244526405 0.0002569831569190329 -0.006350508301099212 0.0 0.0
0.0 0.0062172643855900244 -0.002526858353147609 0.002183328444667444 0.0003435299084801634 -0.008631453573070488 0.0 0.0
0.0 0.00833095049421994 -0.0035899551842760646 0.003176188918687177 0.00041376626558888425 -0.011034481899304711 0.0 0.0
0.0 0.010620604237432068 -0.004718437830990797 0.004246086847457757 0.0004723509835330361 -0.013533547016749858 0.0 0.0
0.0 0.012895175172217055 -0.005751487077277526 0.005228547814739605 0.0005229392625379198 -0.016112523131922393 0.0 0.0
0.0 0.014967536035359073 -0.006398832757569726 0.005831409106456876 0.0005674236511128436 -0.018719537256098692 0.0 0.0
0.0 0.016480672712263868 -0.00625812700219797 0.005651982990322775 0.0006061440118751946 -0.02134114835055895 0.0 0.0
0.0 0.017331092617965966 -0.005058576786232711 0.004431230248657611 0.0006273465375750934 -0.024082024932162643 0.0 0.0
0.0 0.017527321051756018 -0.0027777551148569883 0.002172474128326293 0.000605280986530692 -0.026542241148669606 0.0 0.0
0.0 0.017543119343876645 0.0038803356738316974 -0.003936498743040735 5.616306920903429e-05 -0.02595199535269605 0.0 0.0
0.0 0.01754311934388026 0.0038803356738304805 -0.0039364987430399135 5.6163069209437034e-05 0.025951995352709534 0.0 0.0
0.0 0.017527321051759633 -0.0027777551148573856 0.0021724741283263406 0.0006052809865310432 0.026542241148685333 0.0 0.0
0.0 0.0173310926179581 -0.00505857678622878 0.004431230248653618 0.0006273465375751581 0.024082024932164468 0.0 0.0
0.0 0.016480672712254278 -0.006258127002195047 0.005651982990321128 0.0006061440118739169 0.021341148350545753 0.0 0.0
0.0 0.014967536035346271 -0.006398832757562849 0.0058314091064505654 0.0005674236511122759 0.018719537256082282 0.0 0.0
0.0 0.012895175172202055 -0.005751487077269824 0.005228547814731952 0.0005229392625378655 0.016112523131905008 0.0 0.0
0.0 0.010620604237419938 -0.004718437830983887 0.0042460868474512746 0.0004723509835326135 0.013533547016738097 0.0 0.0
0.0 0.00833095049420643 -0.0035899551842669217 0.0031761889186784974 0.00041376626558842114 0.011034481899295213 0.0 0.0
0.0 0.00621726438556975 -0.0025268583531361495 0.0021833284446565477 0.0003435299084795998 0.00863145357305099 0.0 0.0
0.0 0.004337376112948905 -0.0016011774813649475 0.0013441943244466448 0.0002569831569183029 0.006350508301082913 0.0 0.0
0.0 0.002827375227564881 -0.0008698330198667436 0.0007140690518394369 0.0001557639680273058 0.004272531704239441 0.0 0.0
0.0 0.0016102699408548503 -0.0003877022002829111 0.00031662001678723256 7.108218349567847e-05 0.00259056858737203 0.0 0.0
0.0 0.0008824893031934326 -0.00014832707723389676 0.0001209023718182865 2.742470541561029e-05 0.0014038430915038554 0.0 0.0
0.0 0.00043742437646686924 -5.6583312942674456e-05 4.60556215779425e-05 1.0527691364731946e-05 0.0007161081069500259 0.0 0.0
0.0 0.00019035389773192394 -1.9645901103238582e-05 1.6201949012232964e-05 3.4439520910056386e-06 0.00029237165244403417 0.0 0.0
0.0 6.0817608602614415e-05 -6.24920804992875e-06 5.389424453160465e-06 8.597835967682743e-07 9.009512776202784e-05 0.0 0.0
0.0 1.8462892201894437e-05 -2.2909608093536123e-06 2.0265006172448323e-06 2.64460192108779e-07 2.806805681565511e-05 0.0 0.0
0.0 9.838247009926235e-06 -1.0916963459688348e-06 9.346596333156069e-07 1.5703671265322892e-07 1.3646215814450413e-05 0.0 0.0
0.0 4.603467431322822e-06 -1.326985621727188e-07 4.683542707956804e-08 8.586313509315556e-08 4.264403275012346e-06 0.0 0.0
0.0 3.2134585659068796e-05 1.550189113582649e-05 -2.2143587054569434e-05 6.641695918742938e-06 3.17249131977571e-05 0.0 0.0
0.0 1.6632462327964354e-06 -8.87437630398127e-08 1.291199073641736e-07 -4.037614432434241e-08 2.496372743401371e-07 0.0 0.0
0.0 3.2028479926299288e-06 -2.0992064650650517e-07 1.1186251361278873e-07 9.805813289371483e-08 -4.0077549904683435e-06 0.0 0.0
0.0 1.1202025152006837e-05 -1.9200621858994596e-06 1.5982385795440587e-06 3.2182360635539757e-07 -1.52835338513728e-05 0.0 0.0
0.0 2.4245325557675096e-05 -4.70320197096866e-06 4.003181804637544e-06 7.000201663311261e-07 -3.1264552320746414e-05 0.0 0.0
0.0 6.942470327542015e-05 -1.708080378660662e-05 1.423760473305065e-05 2.843199053555973e-06 -0.00010263537953679654 0.0 0.0
0.0 0.00022058674848228696 -6.391972465307365e-05 5.208837525711792e-05 1.1831349395955745e-05 -0.00032787074020116335 0.0 0.0
0.0 0.0006755285974174578 -0.00025683155564689797 0.00020988435324070735 4.6947202406190654e-05 -0.0009929778880665803 0.0 0.0
0.0 0.0017912619790978197 -0.000922618073654658 0.0007718369509045446 0.00015078112275011287 -0.002487839599544862 0.0 0.0
0.0 0.003942829143862658 -0.002392829361376588 0.002076218681592609 0.00031661067978397774 -0.004721877276817314 0.0 0.0
0.0 0.0069187729510274115 -0.004589165911230739 0.004124444489832333 0.00046472142139840497 -0.007362802839747652 0.0 0.0
0.0 0.010446677662378402 -0.007267439171310758 0.006701379728274157 0.0005660594430365996 -0.010208251004611674 0.0 0.0
0.0 0.014447713056048684 -0.01027692917678214 0.009642817594207813 0.0006341115825743272 -0.013090500751610189 0.0 0.0
0.0 0.018754385813631102 -0.013584392928423814 0.012894761427598836 0.0006896315008249721 -0.01596568407273577 0.0 0.0
0.0 0.023359152941525102 -0.01712906349714758 0.01638791713103928 0.0007411463661082983 -0.018812012296311065 0.0 0.0
0.0 0.028072269677778452 -0.020719975227950244 0.01992750751732046 0.0007924677106297698 -0.021689273014890438 0.0 0.0
0.0 0.03251409567251185 -0.023990890731801853 0.023149405187964087 0.0008414855438377564 -0.024650821211496563 0.0 0.0
0.0 0.036222928366712134 -0.026434110299126512 0.025553615845554344 0.0008804944535721679 -0.027792567986758027 0.0 0.0
0.0 0.0385321351433518 -0.02747520456698295 0.02656936882350432 0.0009058357434786529 -0.031007074512012952 0.0 0.0
0.0 0.03770752655620662 -0.025954574242095574 0.024956933714296643 0.0009976405277989085 -0.0324957707725342 0.0 0.0
0.0 0.03074704610932997 -0.018539847832256734 0.017416412092378493 0.0011234357398782243 -0.03026233251621836 0.0 0.0
0.0 0.030747046109344214 -0.01853984783225917 0.01741641209238101 0.00112343573987815 0.030262332516261245 0.0 0.0
0.0 0.03770752655622366 -0.02595457424209807 0.024956933714299117 0.000997640527798931 0.03249577077259213 0.0 0.0
0.0 0.03853213514334459 -0.02747520456696914 0.02656936882349003 0.0009058357434791017 0.03100707451204758 0.0 0.0
0.0 0.03622292836668247 -0.026434110299100852 0.025553615845527795 0.0008804944535730666 0.027792567986754876 0.0 0.0
0.0 0.032514095672479947 -0.0239908907317768 0.023149405187939145 0.0008414855438376494 0.024650821211476222 0.0 0.0
0.0 0.02807226967774601 -0.02071997522792481 0.019927507517295426 0.0007924677106293826 0.021689273014871318 0.0 0.0
0.0 0.023359152941496774 -0.017129063497125233 0.016387917131017393 0.0007411463661078318 0.018812012296295026 0.0 0.0
0.0 0.018754385813604255 -0.013584392928401565 0.012894761427577082 0.0006896315008244687 0.015965684072722825 0.0 0.0
0.0 0.014447713056016664 -0.010276929176757698 0.009642817594183985 0.0006341115825737101 0.013090500751587825 0.0 0.0
0.0 0.010446677662350164 -0.007267439171290725 0.00670137972825488 0.0005660594430358406 0.010208251004587022 0.0 0.0
0.0 0.006918772951001068 -0.004589165911212746 0.004124444489815278 0.0004647214213974689 0.007362802839722318 0.0 0.0
0.0 0.003942829143846893 -0.002392829361365535 0.002076218681582374 0.00031661067978316253 0.004721877276802155 0.0 0.0
0.0 0.001791261979088128 -0.0009226180736484262 0.0007718369508992956 0.0001507811227491305 0.0024878395995339515 0.0 0.0
0.0 0.0006755285974134387 -0.0002568315556455101 0.0002098843532396049 4.694720240590523e-05 0.0009929778880619577 0.0 0.0
0.0 0.0002205867484800159 -6.391972465272728e-05 5.208837525684153e-05 1.1831349395885775e-05 0.0003278707401994667 0.0 0.0
0.0 6.942470327460406e-05 -1.708080378666858e-05 1.4237604733100234e-05 2.8431990535683413e-06 0.00010263537953706776 0.0 0.0
0.0 2.4245325556921484e-05 -4.703201971021283e-06 4.003181804681924e-06 7.000201663393594e-07 3.1264552321085315e-05 0.0 0.0
0.0 1.120202515135105e-05 -1.9200621859895513e-06 1.5982385796174719e-06 3.218236063720781e-07 1.5283533852057127e-05 0.0 0.0
0.0 3.2028479924341943e-06 -2.0992064654710073e-07 1.118625136207714e-07 9.805813292632962e-08 4.007754991386724e-06 0.0 0.0
0.0 1.663246232129405e-06 -8.874376300538105e-08 1.291199073166848e-07 -4.0376144311303564e-08 -2.496372742301845e-07 0.0 0.0
0.0 0.0 0.0 0.0 0.0 0.0 0.0 0.0
0.0 1.7791174619878422e-06 -9.595671490252929e-09 1.3259645789763793e-08 -3.663974299513519e-09 -8.578237028466801e-08 0.0 0.0
0.0 1.0047515825732036e-05 -1.863682411683154e-06 1.5334174364798318e-06 3.302649752033179e-07 -1.0793469413335024e-05 0.0 0.0
0.0 2.7286101197685773e-05 -6.952068623266915e-06 5.782555670716406e-06 1.1695129525505186e-06 -3.05640602672893e-05 0.0 0.0
0.0 8.330198954177863e-05 -3.100118684101121e-05 2.5446449229010826e-05 5.554737612000393e-06 -0.00011269507173278011 0.0 0.0
0.0 0.0003361902657700763 -0.00015811978479564673 0.00012894122331426035 2.917856148138631e-05 -0.0004531153344960565 0.0 0.0
0.0 0.001273485751265201 -0.0007578431380508647 0.0006312514555871754 0.0001265916824636894 -0.0015825785946320281 0.0 0.0
0.0 0.003503668906934273 -0.0024077443377771967 0.0020893308230414856 0.000318413514735711 -0.0037330676644026597 0.0 0.0
0.0 0.0072322363551120625 -0.005270296805761682 0.004767582803696699 0.0005027140020649832 -0.006642457489775106 0.0 0.0
0.0 0.01198272088138718 -0.00910892505261381 0.008483403377779879 0.0006255216748339287 -0.010043681731529449 0.0 0.0
0.0 0.01767215384647404 -0.013623537937995773 0.0129181755578027 0.0007053623801930853 -0.01361287117459223 0.0 0.0
0.0 0.023835722933781466 -0.018671473250431 0.01790294108853568 0.0007685321618953178 -0.01709654656296338 0.0 0.0
0.0 0.030571338707133817 -0.02420778668259968 0.02338176718877835 0.0008260194938213397 -0.02045832153600689 0.0 0.0
0.0 0.03783774720667723 -0.030179775564574053 0.029295538447519344 0.0008842371170546971 -0.023791218682230452 0.0 0.0
0.0 0.04548921449736594 -0.036386805503594875 0.03544086238833173 0.0009459431152631108 -0.027315479228329238 0.0 0.0
0.0 0.053006936916021714 -0.04240366619104476 0.04139608151371476 0.0010075846773299627 -0.031323358266839074 0.0 0.0
0.0 0.059794827465204606 -0.04757579145091835 0.046510570976074035 0.0010652204748443045 -0.03595102881067352 0.0 0.0
0.0 0.0643084798562315 -0.05087472924813004 0.04973702056986624 0.001137708678263758 -0.04035987899005424 0.0 0.0
0.0 0.06441156950795235 -0.05034994708139944 0.04911636171916691 0.001233585362232524 -0.042499489215289996 0.0 0.0
0.0 0.054490054714042155 -0.04182246950647262 0.04034372937885733 0.0014787401276152917 -0.03827716708660458 0.0 0.0
0.0 0.054490054714052126 -0.04182246950647132 0.04034372937885557 0.001478740127615738 0.03827716708665729 0.0 0.0
0.0 0.06441156950795357 -0.05034994708138816 0.04911636171915521 0.001233585362232937 0.04249948921535786 0.0 0.0
0.0 0.06430847985621028 -0.050874729248103254 0.04973702056983943 0.0011377086782637846 0.04035987899009608 0.0 0.0
0.0 0.05979482746516557 -0.04757579145088216 0.04651057097603857 0.0010652204748436006 0.03595102881067766 0.0 0.0
0.0 0.05300693691597344 -0.04240366619100421 0.04139608151367464 0.0010075846773295774 0.031323358266819805 0.0 0.0
0.0 0.045489214497320456 -0.03638680550355714 0.03544086238829454 0.0009459431152626108 0.027315479228308827 0.0 0.0
0.0 0.03783774720663034 -0.030179775564535487 0.029295538447480937 0.0008842371170545455 0.02379121868220839 0.0 0.0
0.0 0.030571338707086303 -0.024207786682559553 0.0233817671887384 0.0008260194938211364 0.020458321535988797 0.0 0.0
0.0 0.02383572293373486 -0.0186714732503932 0.017902941088498263 0.0007685321618949347 0.01709654656293695 0.0 0.0
0.0 0.017672153846428083 -0.013623537937960017 0.012918175557767041 0.0007053623801929732 0.013612871174559622 0.0 0.0
0.0 0.011982720881348762 -0.009108925052585122 0.008483403377751308 0.0006255216748338142 0.010043681731498635 0.0 0.0
0.0 0.007232236355086912 -0.005270296805742066 0.0047675828036777765 0.0005027140020642846 0.006642457489757048 0.0 0.0
0.0 0.0035036689069190565 -0.0024077443377661283 0.002089330823031316 0.0003184135147348125 0.0037330676643895448 0.0 0.0
0.0 0.00127348575125772 -0.0007578431380463782 0.0006312514555835312 0.00012659168246284688 0.0015825785946249277 0.0 0.0
0.0 0.0003361902657663345 -0.00015811978479432075 0.00012894122331317742 2.9178561481143248e-05 0.00045311533449248045 0.0 0.0
0.0 8.330198954103351e-05 -3.100118684121391e-05 2.544644922917823e-05 5.554737612035637e-06 0.00011269507173338353 0.0 0.0
0.0 2.728610119684038e-05 -6.95206862334033e-06 5.7825556707770475e-06 1.1695129525632692e-06 3.0564060267604845e-05 0.0 0.0
0.0 1.0047515825267188e-05 -1.8636824118133626e-06 1.5334174365859458e-06 3.3026497522742336e-07 1.0793469414084773e-05 0.0 0.0
0.0 1.7791174616109964e-06 -9.595671520654298e-09 1.3259645806892486e-08 -3.663974286241896e-09 8.578237070305491e-08 0.0 0.0
0.0 0.0 0.0 0.0 0.0 0.0 0.0 0.0
0.0 0.0 0.0 0.0 0.0 0.0 0.0 0.0
0.0 3.8538157917848767e-07 8.524370000021943e-09 -5.889213621647465e-09 -2.6351563783748637e-09 7.625979648851619e-08 0.0 0.0
0.0 6.357696893959208e-06 -1.4434444977111405e-06 1.1778397407022339e-06 2.656047570089018e-07 -6.409271845110903e-06 0.0 0.0
0.0 2.661875249279703e-05 -9.724772980719541e-06 8.005460069978418e-06 1.7193129107411117e-06 -3.1408549700778096e-05 0.0 0.0
0.0 0.00011332263588538123 -5.561845295884852e-05 4.5374301319689695e-05 1.0244151639158855e-05 -0.00013752912883529018 0.0 0.0
0.0 0.0005879620453736064 -0.0003701161798916614 0.00030405959136188955 6.605658852977182e-05 -0.0006803977270734116 0.0 0.0
0.0 0.0022295302618395027 -0.001608361927089682 0.0013710540894582156 0.0002373078376314661 -0.0021782263711008975 0.0 0.0
0.0 0.005645493435681712 -0.0043279503863491685 0.0038700142477243057 0.0004579361386248616 -0.004668871449810603 0.0 0.0
0.0 0.010846463727654415 -0.008539362318338798 0.007922568849888451 0.0006167934684503484 -0.00800926619620744 0.0 0.0
0.0 0.017413720651982975 -0.013955334381667439 0.013236720764094125 0.0007186136175733139 -0.01188558968014854 0.0 0.0
0.0 0.02503427684151643 -0.02027001612194823 0.019475299102676667 0.0007947170192715541 -0.015857731033513203 0.0 0.0
0.0 0.033502134207457825 -0.02732832232368588 0.026465360885379256 0.0008629614383065992 -0.019661424744107356 0.0 0.0
0.0 0.04277009851766363 -0.03508349208677375 0.03415611002405067 0.0009273820627230707 -0.023296937663009817 0.0 0.0
0.0 0.052742585866575785 -0.043492756716225295 0.04249946553738151 0.000993291178843816 -0.02691143994042064 0.0 0.0
0.0 0.06334505936609522 -0.05236209222628392 0.05129824754616226 0.0010638446801215957 -0.030851421983854953 0.0 0.0
0.0 0.07406631221304885 -0.061207321950496454 0.0600670895304474 0.0011402324200490077 -0.03558464209518843 0.0 0.0
0.0 0.08379095417948287 -0.06910323592107644 0.06787813600111094 0.0012250999199654457 -0.041167593862209126 0.0 0.0
0.0 0.09063898292244418 -0.07444495416110156 0.07312028951444008 0.001324664646661402 -0.046481421006580426 0.0 0.0
0.0 0.09103315123559744 -0.07445286175053062 0.07298025416837557 0.0014726075821550142 -0.048693461456520294 0.0 0.0
0.0 0.07893059896183435 -0.0640767141334121 0.06238095978774276 0.0016957543456693402 -0.04454376583506521 0.0 0.0
0.0 0.07893059896183849 -0.06407671413340624 0.062380959787737125 0.0016957543456690978 0.04454376583512264 0.0 0.0
0.0 0.0910331512355912 -0.07445286175051356 0.07298025416835921 0.0014726075821543498 0.04869346145659415 0.0 0.0
0.0 0.09063898292242112 -0.07444495416107218 0.07312028951441225 0.0013246646466598773 0.04648142100663461 0.0 0.0
0.0 0.08379095417944282 -0.06910323592103752 0.06787813600107398 0.0012250999199635067 0.04116759386222495 0.0 0.0
0.0 0.07406631221299359 -0.061207321950448215 0.060067089530400464 0.0011402324200477441 0.0355846420951752 0.0 0.0
0.0 0.06334505936603861 -0.0523620922262356 0.051298247546115075 0.0010638446801204812 0.030851421983835343 0.0 0.0
0.0 0.05274258586651643 -0.043492756716175265 0.042499465537332116 0.0009932911788431682 0.026911439940397165 0.0 0.0
0.0 0.04277009851760362 -0.03508349208672251 0.034156110024000236 0.0009273820627222747 0.023296937662989896 0.0 0.0
0.0 0.03350213420739952 -0.027328322323636915 0.02646536088533072 0.0008629614383061678 0.019661424744081217 0.0 0.0
0.0 0.025034276841464198 -0.020270016121905616 0.019475299102634704 0.0007947170192709127 0.01585773103348219 0.0 0.0
0.0 0.01741372065193581 -0.013955334381629892 0.013236720764057268 0.0007186136175726262 0.011885589680116078 0.0 0.0
0.0 0.010846463727622574 -0.008539362318313554 0.007922568849863944 0.0006167934684496177 0.008009266196187304 0.0 0.0
0.0 0.00564549343566074 -0.004327950386332744 0.003870014247708921 0.0004579361386238222 0.004668871449796094 0.0 0.0
0.0 0.002229530261827786 -0.001608361927081337 0.0013710540894508274 0.00023730783763050936 0.00217822637109129 0.0 0.0
0.0 0.0005879620453666122 -0.0003701161798876696 0.0003040595913585207 6.605658852914903e-05 0.0006803977270668838 0.0 0.0
0.0 0.00011332263588418939 -5.561845295877648e-05 4.537430131961775e-05 1.0244151639158684e-05 0.00013752912883504794 0.0 0.0
0.0 2.6618752492442315e-05 -9.724772981046174e-06 8.005460070242205e-06 1.7193129108039633e-06 3.140854970176568e-05 0.0 0.0
0.0 6.357696893506742e-06 -1.4434444978628047e-06 1.1778397408246507e-06 2.65604757038153e-07 6.4092718457912076e-06 0.0 0.0
0.0 3.8538157904294466e-07 8.52436999717895e-09 -5.889213619678072e-09 -2.6351563774992616e-09 -7.62597964614563e-08 0.0 0.0
0.0 0.0 0.0 0.0 0.0 0.0 0.0 0.0
0.0 0.0 0.0 0.0 0.0 0.0 0.0 0.0
0.0 0.0 0.0 0.0 0.0 0.0 0.0 0.0
0.0 2.867208716450004e-06 -7.446365854643847e-07 6.060463250485484e-07 1.3859026041584001e-07 -2.605034803028563e-06 0.0 0.0
0.0 2.5295350336396155e-05 -9.276391593827456e-06 7.557808671392941e-06 1.7185829224345262e-06 -2.240585240762813e-05 0.0 0.0
0.0 0.00018268120999774692 -0.00010491852164061418 8.532349683332734e-05 1.9595024807286875e-05 -0.0001819642235917876 0.0 0.0
0.0 0.0010189679912804036 -0.0007542236870782024 0.0006270745405164028 0.00012714914656179966 -0.0009417452106021316 0.0 0.0
0.0 0.0034956155787841236 -0.002750176275676443 0.0023992501315658484 0.00035092614411059465 -0.0026006483990212398 0.0 0.0
0.0 0.008069851653112838 -0.006533913804712382 0.0059753936644937255 0.0005585201402186534 -0.005235602496241604 0.0 0.0
0.0 0.014658577289178132 -0.012047973991953339 0.011356753310211855 0.0006912206817414794 -0.00877946661602169 0.0 0.0
0.0 0.022940528973411603 -0.018989764965266456 0.018205189055717465 0.0007845759095489932 -0.012800049867992153 0.0 0.0
0.0 0.03255848841357768 -0.027076541936546652 0.026211064767983433 0.0008654771685632126 -0.016858782821132064 0.0 0.0
0.0 0.0432906313304086 -0.036137966321072065 0.03519676982428736 0.0009411964967847077 -0.020750589618127188 0.0 0.0
0.0 0.055038193470671584 -0.04610616153636053 0.04509272903852107 0.0010134324978394213 -0.024466585654337663 0.0 0.0
0.0 0.06778431367172252 -0.05694526747876025 0.05585930368328693 0.0010859637954733214 -0.02812986644741327 0.0 0.0
0.0 0.08142592174555115 -0.0684866475377385 0.06732085077502561 0.0011657967627128937 -0.03213326845730867 0.0 0.0
0.0 0.09513709120163114 -0.08016501463087944 0.07890586844375386 0.0012591461871255768 -0.03700764706837369 0.0 0.0
0.0 0.10793878239578317 -0.09072146967959749 0.08935179534794187 0.0013696743316555637 -0.042857675115184214 0.0 0.0
0.0 0.11681728039783157 -0.09791315200457482 0.09640764909497514 0.0015055029095996948 -0.048519308974970886 0.0 0.0
0.0 0.11738151583812567 -0.09812196359250322 0.09644853285083702 0.0016734307416661491 -0.05144117346658863 0.0 0.0
0.0 0.10358370042182577 -0.08597057579494605 0.0841029067982591 0.0018676689966869325 -0.04988463526167219 0.0 0.0
0.0 0.10358370042182546 -0.08597057579493766 0.08410290679825015 0.0018676689966874932 0.049884635261731286 0.0 0.0
0.0 0.11738151583811032 -0.0981219635924804 0.09644853285081414 0.0016734307416661996 0.05144117346666163 0.0 0.0
0.0 0.11681728039779553 -0.09791315200453629 0.09640764909493689 0.0015055029095993138 0.04851930897502639 0.0 0.0
0.0 0.10793878239572355 -0.09072146967954302 0.08935179534788745 0.0013696743316554865 0.042857675115198626 0.0 0.0
0.0 0.09513709120155212 -0.08016501463081119 0.07890586844368537 0.0012591461871257928 0.03700764706836033 0.0 0.0
0.0 0.0814259217454691 -0.06848664753766824 0.06732085077495521 0.0011657967627130385 0.032133268457288484 0.0 0.0
0.0 0.06778431367164127 -0.056945267478691095 0.05585930368321772 0.0010859637954733913 0.02812986644738786 0.0 0.0
0.0 0.055038193470594854 -0.04610616153629473 0.04509272903845553 0.0010134324978391803 0.024466585654316187 0.0 0.0
0.0 0.04329063133033747 -0.03613796632101133 0.03519676982422729 0.0009411964967840269 0.02075058961810198 0.0 0.0
0.0 0.032558488413509126 -0.027076541936489437 0.026211064767927027 0.0008654771685623936 0.016858782821097637 0.0 0.0
0.0 0.02294052897335169 -0.018989764965217024 0.01820518905566853 0.0007845759095484969 0.012800049867956804 0.0 0.0
0.0 0.014658577289134066 -0.012047973991917003 0.01135675331017584 0.0006912206817411709 0.008779466615998228 0.0 0.0
0.0 0.008069851653084019 -0.006533913804688934 0.005975393664471102 0.0005585201402178303 0.005235602496225234 0.0 0.0
0.0 0.0034956155787655304 -0.0027501762756619794 0.002399250131552619 0.00035092614410936105 0.002600648399009248 0.0 0.0
0.0 0.001018967991271719 -0.0007542236870724227 0.0006270745405114323 0.00012714914656099008 0.0009417452105951402 0.0 0.0
0.0 0.0001826812099959571 -0.00010491852164014833 8.532349683294352e-05 1.959502480720472e-05 0.00018196422359105792 0.0 0.0
0.0 2.529535033566504e-05 -9.276391593911142e-06 7.557808671452428e-06 1.7185829224587277e-06 2.2405852407802485e-05 0.0 0.0
0.0 2.8672087163728276e-06 -7.446365855931154e-07 6.060463251526684e-07 1.3859026044044473e-07 2.605034803481736e-06 0.0 0.0
0.0 0.0 0.0 0.0 0.0 0.0 0.0 0.0
0.0 0.0 0.0 0.0 0.0 0.0 0.0 0.0
0.0 0.0 0.0 0.0 0.0 0.0 0.0 0.0
0.0 0.0 0.0 0.0 0.0 0.0 0.0 0.0
0.0 9.159772724021529e-07 5.630253744311479e-08 -4.536700834069255e-08 -1.0935529102421052e-08 1.5681455061216043e-07 0.0 0.0
0.0 2.3097471243611356e-05 -1.2745059423778595e-05 1.028450836919109e-05 2.460551054587544e-06 -2.3266378838245364e-05 0.0 0.0
0.0 0.00030052013508765805 -0.00021358645809838682 0.0001738482965843048 3.973816151408201e-05 -0.00026402467000247604 0.0 0.0
0.0 0.0016636673221500932 -0.0013226833979855935 0.0011160748099947981 0.00020660858799079613 -0.0011410407545110579 0.0 0.0
0.0 0.005043210829518343 -0.0041182669080205726 0.0036689822067251946 0.00044928470129538005 -0.002790970147543207 0.0 0.0
0.0 0.010625171133841663 -0.008942329477846981 0.008313054334632801 0.0006292751432141811 -0.005413967467163149 0.0 0.0
0.0 0.018588077519705554 -0.015696651721799595 0.01495267857970785 0.0007439731420917526 -0.00887025014582668 0.0 0.0
0.0 0.028557326542979492 -0.024127890765401318 0.02328997632774975 0.0008379144376515644 -0.01273705266839647 0.0 0.0
0.0 0.04016034234081984 -0.0339742143208389 0.033048469492390244 0.0009257448284486323 -0.016658646211596878 0.0 0.0
0.0 0.053131492158694435 -0.0450380090848396 0.044028149534798805 0.0010098595500407281 -0.020416999835516092 0.0 0.0
0.0 0.06742608669595462 -0.057216680200034946 0.056126138586912684 0.001090541613122256 -0.02401174632210749 0.0 0.0
0.0 0.08279707407997948 -0.07046416099689468 0.0692939934171668 0.0011701675797279247 -0.027528570108848693 0.0 0.0
0.0 0.09932142166597717 -0.0846210114443091 0.08336276957374768 0.0012582418705614229 -0.031205383626269165 0.0 0.0
0.0 0.11631880293923316 -0.09905724010634659 0.0976894242267829 0.0013678158795637128 -0.035562552826000494 0.0 0.0
0.0 0.13168041733969013 -0.1121968387036928 0.11069167502448503 0.0015051636792077128 -0.04098962314518461 0.0 0.0
0.0 0.14237869382996024 -0.12115367457280937 0.11948400213682017 0.001669672435989188 -0.04685012230377263 0.0 0.0
0.0 0.1434434653524865 -0.12163420713195391 0.1197858857893268 0.0018483213426270797 -0.051604872625841486 0.0 0.0
0.0 0.1287715571343896 -0.10803901215658822 0.10601305507211457 0.0020259570844736305 -0.054747810957524 0.0 0.0
0.0 0.1287715571343826 -0.10803901215657538 0.10601305507210093 0.0020259570844743803 0.054747810957581966 0.0 0.0
0.0 0.14344346535245067 -0.12163420713191572 0.11978588578928706 0.001848321342628609 0.05160487262591386 0.0 0.0
0.0 0.1423786938299047 -0.12115367457275593 0.119484002136766 0.0016696724359899404 0.046850122303825875 0.0 0.0
0.0 0.13168041733962094 -0.11219683870363015 0.1106916750244233 0.0015051636792067808 0.04098962314520061 0.0 0.0
0.0 0.1163188029391507 -0.09905724010627466 0.09768942422671176 0.0013678158795628714 0.03556255282599187 0.0 0.0
0.0 0.09932142166589264 -0.08462101144423537 0.08336276957367514 0.0012582418705602031 0.03120538362625755 0.0 0.0
0.0 0.08279707407988775 -0.07046416099681563 0.06929399341708839 0.001170167579727194 0.027528570108827033 0.0 0.0
0.0 0.06742608669586607 -0.057216680199957966 0.05612613858683671 0.001090541613121191 0.02401174632208853 0.0 0.0
0.0 0.05313149215860944 -0.04503800908476605 0.04402814953472635 0.0010098595500396945 0.020416999835492416 0.0 0.0
0.0 0.040160342340742394 -0.03397421432077337 0.033048469492325296 0.0009257448284480842 0.016658646211564303 0.0 0.0
0.0 0.02855732654291524 -0.02412789076534741 0.023289976327696426 0.0008379144376509787 0.012737052668364765 0.0 0.0
0.0 0.018588077519655834 -0.015696651721757136 0.014952678579666307 0.0007439731420908267 0.008870250145805666 0.0 0.0
0.0 0.010625171133805384 -0.008942329477816424 0.008313054334602983 0.0006292751432134319 0.0054139674671460645 0.0 0.0
0.0 0.005043210829498348 -0.004118266908004408 0.003668982206709994 0.0004492847012944162 0.0027909701475330043 0.0 0.0
0.0 0.0016636673221395422 -0.001322683397977643 0.001116074809987887 0.0002066085879897553 0.0011410407545047667 0.0 0.0
0.0 0.0003005201350844281 -0.0002135864580967344 0.0001738482965829174 3.97381615138168e-05 0.0002640246700005485 0.0 0.0
0.0 2.3097471243283405e-05 -1.2745059423965239e-05 1.0284508369337466e-05 2.4605510546277534e-06 2.3266378838592438e-05 0.0 0.0
0.0 9.159772720464821e-07 5.630253742091469e-08 -4.5367008322703315e-08 -1.0935529098212496e-08 -1.5681455054918204e-07 0.0 0.0
0.0 0.0 0.0 0.0 0.0 0.0 0.0 0.0
0.0 0.0 0.0 0.0 0.0 0.0 0.0 0.0
0.0 0.0 0.0 0.0 0.0 0.0 0.0 0.0
0.0 0.0 0.0 0.0 0.0 0.0 0.0 0.0
0.0 2.633745482838499e-07 1.9034837468267232e-08 -1.5232417022672714e-08 -3.80242044559584e-09 3.959451352121644e-08 0.0 0.0
0.0 2.6268385786084166e-05 -1.7637298358382204e-05 1.4149627423338481e-05 3.4876709350437406e-06 -2.3710403994677902e-05 0.0 0.0
0.0 0.0005160474583796402 -0.0004046731157495095 0.00033085884216872783 7.381427358078176e-05 -0.00034607287830711763 0.0 0.0
0.0 0.002519254004918525 -0.0020672164509654436 0.0017745513592310105 0.0002926650917344348 -0.0012199178546043322 0.0 0.0
0.0 0.006592758659117949 -0.005675551024877585 0.005147851493353727 0.0005276995315238594 -0.0027616805945393143 0.0 0.0
0.0 0.013315321254473125 -0.011468385294224321 0.010790528762680756 0.0006778565315435736 -0.005143953638159553 0.0 0.0
0.0 0.02264247000097685 -0.019413882734254657 0.018628524692394986 0.0007853580418596728 -0.008231528321132163 0.0 0.0
0.0 0.03423246997731489 -0.029316891043291427 0.028433461582281307 0.000883429461010133 -0.011726644383895736 0.0 0.0
0.0 0.047786554215949954 -0.04091144776226981 0.03993300010441522 0.0009784476578545498 -0.01527117546025745 0.0 0.0
0.0 0.06302819276610445 -0.05397783473132315 0.052906438744537085 0.0010713959867860285 -0.018674751483315512 0.0 0.0
0.0 0.07976991155026295 -0.06837170416636726 0.06721012624268355 0.0011615779236836708 -0.021956422466784937 0.0 0.0
0.0 0.09793546384213375 -0.08399133425104399 0.08274079733433311 0.00125053691671086 -0.025116951688599204 0.0 0.0
0.0 0.11726658145503904 -0.10064542820156641 0.09929952305401551 0.0013459051475508764 -0.028177302933570153 0.0 0.0
0.0 0.13682586444828093 -0.11767826689048433 0.11621210262634699 0.0014661642641373234 -0.031447704928832296 0.0 0.0
0.0 0.1550338220062344 -0.13331395835669146 0.13168746306803433 0.0016264952886570804 -0.03570482969520753 0.0 0.0
0.0 0.16787300655203913 -0.14415905159350903 0.1423437767214814 0.0018152748720276467 -0.04163248041765137 0.0 0.0
0.0 0.16984587140114804 -0.14530410571509556 0.14329395832310768 0.002010147391987773 -0.049324413834440924 0.0 0.0
0.0 0.1546327511337332 -0.13072799613577712 0.128544447135584 0.0021835490001930096 -0.05915503091809873 0.0 0.0
0.0 0.15463275113373018 -0.1307279961357676 0.12854444713557533 0.0021835490001923335 0.059155030918155174 0.0 0.0
0.0 0.16984587140112029 -0.14530410571506447 0.14329395832307856 0.0020101473919859063 0.049324413834510444 0.0 0.0
0.0 0.1678730065519798 -0.1441590515934532 0.1423437767214271 0.0018152748720260277 0.04163248041769901 0.0 0.0
0.0 0.15503382200614532 -0.13331395835661325 0.13168746306795612 0.0016264952886571255 0.03570482969521721 0.0 0.0
0.0 0.13682586444817998 -0.11767826689039633 0.11621210262625994 0.0014661642641362847 0.0314477049288259 0.0 0.0
0.0 0.11726658145493361 -0.10064542820147482 0.09929952305392489 0.0013459051475498923 0.02817730293355907 0.0 0.0
0.0 0.09793546384202792 -0.08399133425095266 0.08274079733424242 0.0012505369167101943 0.025116951688581052 0.0 0.0
0.0 0.07976991155016064 -0.0683717041662786 0.06721012624259565 0.0011615779236829353 0.02195642246676774 0.0 0.0
0.0 0.06302819276600591 -0.05397783473123804 0.0529064387444524 0.0010713959867856627 0.01867475148329312 0.0 0.0
0.0 0.04778655421585802 -0.04091144776219099 0.03993300010433684 0.000978447657854157 0.015271175460226811 0.0 0.0
0.0 0.034232469977238916 -0.02931689104322642 0.02843346158221686 0.0008834294610095523 0.011726644383866922 0.0 0.0
0.0 0.0226424700009195 -0.01941388273420517 0.018628524692345695 0.0007853580418594719 0.008231528321113936 0.0 0.0
0.0 0.013315321254431245 -0.01146838529418822 0.010790528762645218 0.0006778565315430003 0.0051439536381439775 0.0 0.0
0.0 0.0065927586590911365 -0.005675551024854723 0.005147851493331804 0.0005276995315229174 0.0027616805945288566 0.0 0.0
0.0 0.0025192540049036975 -0.0020672164509538656 0.001774551359220447 0.0002926650917334181 0.0012199178545976954 0.0 0.0
0.0 0.0005160474583753092 -0.0004046731157468486 0.00033085884216647556 7.381427358037284e-05 0.0003460728783050435 0.0 0.0
0.0 2.6268385785744062e-05 -1.7637298358717402e-05 1.4149627423592508e-05 3.4876709351249003e-06 2.371040399508146e-05 0.0 0.0
0.0 2.633745479801639e-07 1.90348374459991e-08 -1.5232417004860948e-08 -3.802420441135515e-09 -3.959451347502403e-08 0.0 0.0
0.0 0.0 0.0 0.0 0.0 0.0 0.0 0.0
0.0 0.0 0.0 0.0 0.0 0.0 0.0 0.0
0.0 0.0 0.0 0.0 0.0 0.0 0.0 0.0
0.0 0.0 0.0 0.0 0.0 0.0 0.0 0.0
0.0 0.0 0.0 0.0 0.0 0.0 0.0 0.0
0.0 4.119932057256752e-05 -3.160188641800829e-05 2.5362031169751393e-05 6.239855248256898e-06 -2.9716709081798664e-05 0.0 0.0
0.0 0.0008695103135165764 -0.0007091572417101056 0.0005844804448990912 0.00012467679681101425 -0.0003912441868191017 0.0 0.0
0.0 0.0035108975139264346 -0.002975990766658961 0.002598685230936559 0.00037730553572240294 -0.0011559798497547433 0.0 0.0
0.0 0.008359872951442077 -0.0073453847581695314 0.006758882931666661 0.0005865018265028671 -0.0024224296515956865 0.0 0.0
0.0 0.016139571813062154 -0.014048165417051332 0.013334571769638596 0.0007135936474127327 -0.0043518512469347985 0.0 0.0
0.0 0.026742249264681703 -0.023157431584597016 0.022337953974742655 0.0008194776098543457 -0.006890298928357513 0.0 0.0
0.0 0.03994251326262266 -0.0345092297531457 0.033586552648002095 0.0009226771051435915 -0.009779307309372001 0.0 0.0
0.0 0.055453396051297975 -0.04784055824481093 0.04681526543975954 0.0010252928050513688 -0.012714939776412566 0.0 0.0
0.0 0.07290464636872375 -0.06291018617575377 0.06178320820027086 0.0011269779754829131 -0.015530625417147451 0.0 0.0
0.0 0.09224369716846365 -0.07952308525583207 0.0782952965018335 0.0012277887539985362 -0.018261069664883618 0.0 0.0
0.0 0.11290959567958582 -0.09748873042564385 0.09616020076632587 0.0013285296593179585 -0.020904626646967343 0.0 0.0
0.0 0.13480829774009068 -0.1164962840539592 0.11506306893637748 0.0014332151175817064 -0.023227969106930754 0.0 0.0
0.0 0.15712435681967102 -0.13584605112368373 0.1342893428107105 0.0015567083129731168 -0.02505579817160031 0.0 0.0
0.0 0.17788711717987216 -0.15383025165631864 0.1521074625262634 0.0017227891300552322 -0.027334540088321684 0.0 0.0
0.0 0.19316557726080044 -0.1668988267341936 0.16495650037044463 0.0019423263637489202 -0.03278381747955731 0.0 0.0
0.0 0.19679520943276785 -0.16941365022409072 0.16725029386251997 0.002163356361570826 -0.044115426930499364 0.0 0.0
0.0 0.18191765905319018 -0.1545342782266905 0.15218086945739492 0.002353408769295567 -0.06276609939116022 0.0 0.0
0.0 0.18191765905317858 -0.15453427822667598 0.15218086945738024 0.00235340876929573 0.06276609939120419 0.0 0.0
0.0 0.19679520943271778 -0.16941365022404428 0.167250293862472 0.002163356361572281 0.044115426930555424 0.0 0.0
0.0 0.19316557726071865 -0.16689882673412126 0.1649565003703708 0.0019423263637504454 0.032783817479597396 0.0 0.0
0.0 0.1778871171797664 -0.15383025165622732 0.1521074625261708 0.0017227891300565768 0.027334540088329133 0.0 0.0
0.0 0.15712435681955605 -0.1358460511235842 0.13428934281061117 0.0015567083129729771 0.02505579817159652 0.0 0.0
0.0 0.13480829773997222 -0.11649628405385624 0.11506306893627535 0.0014332151175809299 0.023227969106924172 0.0 0.0
0.0 0.11290959567946715 -0.09748873042554104 0.0961602007662238 0.0013285296593172407 0.02090462664695429 0.0 0.0
0.0 0.0922436971683436 -0.07952308525572818 0.0782952965017299 0.0012277887539983302 0.01826106966486906 0.0 0.0
0.0 0.07290464636860927 -0.06291018617565483 0.06178320820017244 0.0011269779754823636 0.015530625417130451 0.0 0.0
0.0 0.055453396051193364 -0.04784055824472037 0.04681526543966958 0.0010252928050507645 0.012714939776387216 0.0 0.0
0.0 0.03994251326253319 -0.0345092297530683 0.03358655264792532 0.0009226771051429757 0.00977930730934709 0.0 0.0
0.0 0.02674224926461288 -0.023157431584537008 0.022337953974683546 0.0008194776098534695 0.006890298928340748 0.0 0.0
0.0 0.016139571813010463 -0.014048165417006398 0.013334571769594038 0.0007135936474123632 0.004351851246920642 0.0 0.0
0.0 0.008359872951411178 -0.007345384758142502 0.006758882931640389 0.0005865018265021158 0.002422429651586748 0.0 0.0
0.0 0.00351089751391031 -0.002975990766645448 0.00259868523092425 0.00037730553572119774 0.0011559798497495135 0.0 0.0
0.0 0.0008695103135095853 -0.0007091572417048684 0.000584480444894665 0.00012467679681020337 0.0003912441868165281 0.0 0.0
0.0 4.119932057130239e-05 -3.1601886417659656e-05 2.53620311694483e-05 6.239855248211381e-06 2.9716709081436e-05 0.0 0.0
0.0 0.0 0.0 0.0 0.0 0.0 0.0 0.0
0.0 0.0 0.0 0.0 0.0 0.0 0.0 0.0
0.0 0.0 0.0 0.0 0.0 0.0 0.0 0.0
0.0 0.0 0.0 0.0 0.0 0.0 0.0 0.0
0.0 0.0 0.0 0.0 0.0 0.0 0.0 0.0
0.0 0.0 0.0 0.0 0.0 0.0 0.0 0.0
0.0 8.963424311117457e-05 -7.300122157488878e-05 5.849797137785628e-05 1.4503250197032524e-05 -4.163795342862696e-05 0.0 0.0
0.0 0.0013876905901602501 -0.0011423245313418827 0.0009534546543053655 0.00018886987703651685 -0.0003605379599694931 0.0 0.0
0.0 0.004480067954374393 -0.004023222420250203 0.003569599241039338 0.0004536231792108647 -0.000897777611158207 0.0 0.0
0.0 0.01027061569684929 -0.0090747622750434 0.008447084171283642 0.0006276781037597626 -0.0017608132037417474 0.0 0.0
0.0 0.019012894993400142 -0.016648892084965547 0.015906887147897626 0.0007420049370679333 -0.003079072432750571 0.0 0.0
0.0 0.030861104935814655 -0.026884299331404255 0.026036804624479378 0.00084749470692486 -0.004851052914190414 0.0 0.0
0.0 0.045651515494210995 -0.03966009818583004 0.03870360556942375 0.0009564926164062539 -0.006897739043564983 0.0 0.0
0.0 0.06309254553568017 -0.05471732652231271 0.05365028419209741 0.001067042330215276 -0.008981208850256061 0.0 0.0
0.0 0.08291689082976408 -0.07178743084235456 0.07060964813918287 0.0011777827031716902 -0.010980241499185087 0.0 0.0
0.0 0.10454285972388211 -0.09062206487530672 0.0893324997320482 0.001289565143258553 -0.012946464515053298 0.0 0.0
0.0 0.12790507027939643 -0.11090895957477159 0.10950525340957867 0.001403706165192863 -0.014826707712738302 0.0 0.0
0.0 0.15242050615047126 -0.1321569859131824 0.1306352450982256 0.0015217408149567433 -0.016321514334678527 0.0 0.0
0.0 0.17703164030685226 -0.15352697829985273 0.15187908793383742 0.0016478903660153037 -0.016950747310498546 0.0 0.0
0.0 0.19999216779327705 -0.1734817015628006 0.1716817316702047 0.001799969892596009 -0.016966750066726453 0.0 0.0
0.0 0.21795841200329785 -0.1889963143787322 0.1869844785611015 0.002011835817630701 -0.019946159544068306 0.0 0.0
0.0 0.22463741934975934 -0.19421460114445133 0.1918906296456731 0.002323971498777986 -0.034223826181438495 0.0 0.0
0.0 0.2112744078933486 -0.1801956845660246 0.17764361909953336 0.0025520654664910633 -0.06474258946425918 0.0 0.0
0.0 0.21127440789333513 -0.18019568456601032 0.1776436190995187 0.0025520654664914788 0.06474258946429338 0.0 0.0
0.0 0.22463741934971204 -0.19421460114440786 0.1918906296456303 0.002323971498777554 0.034223826181485464 0.0 0.0
0.0 0.21795841200321173 -0.18899631437865627 0.18698447856102704 0.002011835817629301 0.01994615954409802 0.0 0.0
0.0 0.19999216779316797 -0.17348170156270515 0.17168173167011097 0.0017999698925940907 0.016966750066730478 0.0 0.0
0.0 0.17703164030672708 -0.15352697829974388 0.15187908793372976 0.0016478903660141204 0.016950747310494795 0.0 0.0
0.0 0.15242050615033984 -0.13215698591306826 0.130635245098112 0.001521740814956287 0.016321514334677063 0.0 0.0
0.0 0.12790507027926126 -0.11090895957465423 0.10950525340946224 0.0014037061651919875 0.014826707712733048 0.0 0.0
0.0 0.10454285972374408 -0.09062206487518695 0.08933249973192918 0.0012895651432577834 0.012946464515044501 0.0 0.0
0.0 0.08291689082963735 -0.07178743084224405 0.07060964813907356 0.0011777827031705117 0.0109802414991763 0.0 0.0
0.0 0.06309254553556629 -0.05471732652221397 0.05365028419199957 0.0010670423302143743 0.008981208850237475 0.0 0.0
0.0 0.04565151549411439 -0.0396600981857462 0.03870360556934047 0.0009564926164057192 0.006897739043547209 0.0 0.0
0.0 0.030861104935740985 -0.02688429933133959 0.026036804624415467 0.0008474947069241235 0.004851052914180207 0.0 0.0
0.0 0.019012894993344305 -0.01664889208491639 0.015906887147849297 0.0007420049370670811 0.003079072432742075 0.0 0.0
0.0 0.010270615696811756 -0.00907476227501014 0.008447084171251163 0.0006276781037589772 0.0017608132037347942 0.0 0.0
0.0 0.004480067954352322 -0.004023222420230689 0.0035695992410208427 0.0004536231792098465 0.0008977776111533904 0.0 0.0
0.0 0.0013876905901510977 -0.0011423245313346212 0.0009534546542990946 0.00018886987703552676 0.00036053795996759117 0.0 0.0
0.0 8.963424310940388e-05 -7.300122157417828e-05 5.849797137725766e-05 1.4503250196920565e-05 4.163795342823985e-05 0.0 0.0
0.0 0.0 0.0 0.0 0.0 0.0 0.0 0.0
0.0 0.0 0.0 0.0 0.0 0.0 0.0 0.0
0.0 0.0 0.0 0.0 0.0 0.0 0.0 0.0
0.0 0.0 0.0 0.0 0.0 0.0 0.0 0.0
0.0 0.0 0.0 0.0 0.0 0.0 0.0 0.0
0.0 0.0 0.0 0.0 0.0 0.0 0.0 0.0
0.0 0.00021760997859634682 -0.00018873875846829997 0.00015107718230952615 3.7661576158773934e-05 -4.532584127993577e-05 0.0 0.0
0.0 0.002073947221014305 -0.0016961154784635142 0.0014349636589933042 0.00026115181947020886 -0.00021014183144406763 0.0 0.0
0.0 0.0057237989561704445 -0.0051404868863516515 0.004626045382786581 0.0005144415035650705 -0.00042204907010161133 0.0 0.0
0.0 0.012244601097914622 -0.01083830123443148 0.010179233109474174 0.0006590681249573004 -0.0007742127603060084 0.0 0.0
0.0 0.021926495989468407 -0.019233150299457304 0.018468843138592626 0.000764307160864673 -0.0013293046923810508 0.0 0.0
0.0 0.03499397318089069 -0.030551406778267558 0.0296806351435497 0.000870771634717831 -0.0021222553841331606 0.0 0.0
0.0 0.05138254516620273 -0.04472362234834503 0.04373826890438242 0.0009853534439626269 -0.0030767342215943156 0.0 0.0
0.0 0.07082656499073547 -0.061498364570412196 0.060394265304773015 0.0011040992656392006 -0.004066684447501285 0.0 0.0
0.0 0.09268676420109784 -0.08057018638968061 0.07934553527280573 0.001224651116874841 -0.005032769234173023 0.0 0.0
0.0 0.11688743720092065 -0.10160703230305798 0.10025973359553833 0.0013472987075196325 -0.00597186092768962 0.0 0.0
0.0 0.14293358566725492 -0.12418565418961086 0.12271120408644665 0.0014744501031642003 -0.0068162219775107094 0.0 0.0
0.0 0.16997612001789147 -0.14763329622835222 0.14602573223092694 0.0016075639974253144 -0.007380127832106489 0.0 0.0
0.0 0.19678379455247724 -0.17086584781234232 0.16912071335305007 0.001745134459292207 -0.007280835834745487 0.0 0.0
0.0 0.2214887468487618 -0.19229128812916735 0.19040602750490482 0.001885260624262578 -0.006134893141479734 0.0 0.0
0.0 0.2414277225660412 -0.20960437267314497 0.2075593578879196 0.0020450147852251284 -0.00534155657593466 0.0 0.0
0.0 0.2522228780649475 -0.2187320519980951 0.216435663909729 0.002296388088365954 -0.015211449993896094 0.0 0.0
0.0 0.24450427522798243 -0.20970412825422358 0.206772314079025 0.002931814175198547 -0.05974563403999107 0.0 0.0
0.0 0.24450427522795726 -0.20970412825420137 0.20677231407900148 0.0029318141751996105 0.05974563404000427 0.0 0.0
0.0 0.25222287806488397 -0.2187320519980394 0.21643566390967392 0.0022963880883652907 0.015211449993919417 0.0 0.0
0.0 0.24142772256593442 -0.20960437267305232 0.20755935788782737 0.002045014785224849 0.005341556575946826 0.0 0.0
0.0 0.2214887468486313 -0.19229128812905444 0.19040602750479205 0.001885260624262447 0.006134893141479282 0.0 0.0
0.0 0.19678379455233075 -0.17086584781221542 0.1691207133529235 0.0017451344592917177 0.0072808358347404315 0.0 0.0
0.0 0.16997612001774068 -0.1476332962282212 0.1460257322307969 0.0016075639974241615 0.007380127832106691 0.0 0.0
0.0 0.1429335856671067 -0.12418565418948214 0.12271120408631903 0.0014744501031630371 0.006816221977506161 0.0 0.0
0.0 0.11688743720077352 -0.10160703230293049 0.10025973359541132 0.0013472987075191264 0.0059718609276843615 0.0 0.0
0.0 0.09268676420095735 -0.08057018638955878 0.07934553527268468 0.0012246511168740783 0.005032769234169688 0.0 0.0
0.0 0.07082656499060899 -0.06149836457030248 0.06039426530466385 0.0011040992656386162 0.004066684447491211 0.0 0.0
0.0 0.05138254516609719 -0.04472362234825364 0.04373826890429151 0.0009853534439621364 0.0030767342215854837 0.0 0.0
0.0 0.034993973180808144 -0.03055140677819545 0.02968063514347809 0.0008707716347173475 0.002122255384128603 0.0 0.0
0.0 0.02192649598940609 -0.019233150299402424 0.018468843138538207 0.0007643071608641956 0.0013293046923768652 0.0 0.0
0.0 0.01224460109787096 -0.01083830123439292 0.01017923310943613 0.000659068124956791 0.0007742127603030885 0.0 0.0
0.0 0.005723798956146758 -0.005140486886330278 0.004626045382766009 0.0005144415035642684 0.00042204907009969804 0.0 0.0
0.0 0.0020739472210037305 -0.0016961154784550403 0.001434963658985762 0.00026115181946927905 0.00021014183144332386 0.0 0.0
0.0 0.0002176099785940035 -0.00018873875846684237 0.0001510771823083228 3.7661576158519546e-05 4.532584127955907e-05 0.0 0.0
0.0 0.0 0.0 0.0 0.0 0.0 0.0 0.0
0.0 0.0 0.0 0.0 0.0 0.0 0.0 0.0
0.0 0.0 0.0 0.0 0.0 0.0 0.0 0.0