# vtk DataFile Version 3.0
Some data
ASCII
DATASET UNSTRUCTURED_GRID
POINTS 861 float
0.0 0.0 0.0
0.4 0.0 0.0
0.8 0.0 0.0
1.2000000000000002 0.0 0.0
1.6 0.0 0.0
2.0 0.0 0.0
2.4000000000000004 0.0 0.0
2.8000000000000003 0.0 0.0
3.2 0.0 0.0
3.6 0.0 0.0
4.0 0.0 0.0
4.4 0.0 0.0
4.800000000000001 0.0 0.0
5.2 0.0 0.0
5.6000000000000005 0.0 0.0
6.0 0.0 0.0
6.4 0.0 0.0
6.800000000000001 0.0 0.0
7.2 0.0 0.0
7.6000000000000005 0.0 0.0
8.0 0.0 0.0
8.4 0.0 0.0
8.8 0.0 0.0
9.200000000000001 0.0 0.0
9.600000000000001 0.0 0.0
10.0 0.0 0.0
10.4 0.0 0.0
10.8 0.0 0.0
11.200000000000001 0.0 0.0
11.600000000000001 0.0 0.0
12.0 0.0 0.0
12.4 0.0 0.0
12.8 0.0 0.0
13.200000000000001 0.0 0.0
13.600000000000001 0.0 0.0
14.0 0.0 0.0
14.4 0.0 0.0
14.8 0.0 0.0
15.200000000000001 0.0 0.0
15.600000000000001 0.0 0.0
16.0 0.0 0.0
0.0 0.1 0.0
0.4 0.1 0.0
0.8 0.1 0.0
1.2000000000000002 0.1 0.0
1.6 0.1 0.0
2.0 0.1 0.0
2.4000000000000004 0.1 0.0
2.8000000000000003 0.1 0.0
3.2 0.1 0.0
3.6 0.1 0.0
4.0 0.1 0.0
4.4 0.1 0.0
4.800000000000001 0.1 0.0
5.2 0.1 0.0
5.6000000000000005 0.1 0.0
6.0 0.1 0.0
6.4 0.1 0.0
6.800000000000001 0.1 0.0
7.2 0.1 0.0
7.6000000000000005 0.1 0.0
8.0 0.1 0.0
8.4 0.1 0.0
8.8 0.1 0.0
9.200000000000001 0.1 0.0
9.600000000000001 0.1 0.0
10.0 0.1 0.0
10.4 0.1 0.0
10.8 0.1 0.0
11.200000000000001 0.1 0.0
11.600000000000001 0.1 0.0
12.0 0.1 0.0
12.4 0.1 0.0
12.8 0.1 0.0
13.200000000000001 0.1 0.0
13.600000000000001 0.1 0.0
14.0 0.1 0.0
14.4 0.1 0.0
14.8 0.1 0.0
15.200000000000001 0.1 0.0
15.600000000000001 0.1 0.0
16.0 0.1 0.0
0.0 0.2 0.0
0.4 0.2 0.0
0.8 0.2 0.0
1.2000000000000002 0.2 0.0
1.6 0.2 0.0
2.0 0.2 0.0
2.4000000000000004 0.2 0.0
2.8000000000000003 0.2 0.0
3.2 0.2 0.0
3.6 0.2 0.0
4.0 0.2 0.0
4.4 0.2 0.0
4.800000000000001 0.2 0.0
5.2 0.2 0.0
5.6000000000000005 0.2 0.0
6.0 0.2 0.0
6.4 0.2 0.0
6.800000000000001 0.2 0.0
7.2 0.2 0.0
7.6000000000000005 0.2 0.0
8.0 0.2 0.0
8.4 0.2 0.0
8.8 0.2 0.0
9.200000000000001 0.2 0.0
9.600000000000001 0.2 0.0
10.0 0.2 0.0
10.4 0.2 0.0
10.8 0.2 0.0
11.200000000000001 0.2 0.0
11.600000000000001 0.2 0.0
12.0 0.2 0.0
12.4 0.2 0.0
12.8 0.2 0.0
13.200000000000001 0.2 0.0
13.600000000000001 0.2 0.0
14.0 0.2 0.0
14.4 0.2 0.0
14.8 0.2 0.0
15.200000000000001 0.2 0.0
15.600000000000001 0.2 0.0
16.0 0.2 0.0
0.0 0.30000000000000004 0.0
0.4 0.30000000000000004 0.0
0.8 0.30000000000000004 0.0
1.2000000000000002 0.30000000000000004 0.0
1.6 0.30000000000000004 0.0
2.0 0.30000000000000004 0.0
2.4000000000000004 0.30000000000000004 0.0
2.8000000000000003 0.30000000000000004 0.0
3.2 0.30000000000000004 0.0
3.6 0.30000000000000004 0.0
4.0 0.30000000000000004 0.0
4.4 0.30000000000000004 0.0
4.800000000000001 0.30000000000000004 0.0
5.2 0.30000000000000004 0.0
5.6000000000000005 0.30000000000000004 0.0
6.0 0.30000000000000004 0.0
6.4 0.30000000000000004 0.0
6.800000000000001 0.30000000000000004 0.0
7.2 0.30000000000000004 0.0
7.6000000000000005 0.30000000000000004 0.0
8.0 0.30000000000000004 0.0
8.4 0.30000000000000004 0.0
8.8 0.30000000000000004 0.0
9.200000000000001 0.30000000000000004 0.0
9.600000000000001 0.30000000000000004 0.0
10.0 0.30000000000000004 0.0
10.4 0.30000000000000004 0.0
10.8 0.30000000000000004 0.0
11.200000000000001 0.30000000000000004 0.0
11.600000000000001 0.30000000000000004 0.0
12.0 0.30000000000000004 0.0
12.4 0.30000000000000004 0.0
12.8 0.30000000000000004 0.0
13.200000000000001 0.30000000000000004 0.0
13.600000000000001 0.30000000000000004 0.0
14.0 0.30000000000000004 0.0
14.4 0.30000000000000004 0.0
14.8 0.30000000000000004 0.0
15.200000000000001 0.30000000000000004 0.0
15.600000000000001 0.30000000000000004 0.0
16.0 0.30000000000000004 0.0
0.0 0.4 0.0
0.4 0.4 0.0
0.8 0.4 0.0
1.2000000000000002 0.4 0.0
1.6 0.4 0.0
2.0 0.4 0.0
2.4000000000000004 0.4 0.0
2.8000000000000003 0.4 0.0
3.2 0.4 0.0
3.6 0.4 0.0
4.0 0.4 0.0
4.4 0.4 0.0
4.800000000000001 0.4 0.0
5.2 0.4 0.0
5.6000000000000005 0.4 0.0
6.0 0.4 0.0
6.4 0.4 0.0
6.800000000000001 0.4 0.0
7.2 0.4 0.0
7.6000000000000005 0.4 0.0
8.0 0.4 0.0
8.4 0.4 0.0
8.8 0.4 0.0
9.200000000000001 0.4 0.0
9.600000000000001 0.4 0.0
10.0 0.4 0.0
10.4 0.4 0.0
10.8 0.4 0.0
11.200000000000001 0.4 0.0
11.600000000000001 0.4 0.0
12.0 0.4 0.0
12.4 0.4 0.0
12.8 0.4 0.0
13.200000000000001 0.4 0.0
13.600000000000001 0.4 0.0
14.0 0.4 0.0
14.4 0.4 0.0
14.8 0.4 0.0
15.200000000000001 0.4 0.0
15.600000000000001 0.4 0.0
16.0 0.4 0.0
0.0 0.5 0.0
0.4 0.5 0.0
0.8 0.5 0.0
1.2000000000000002 0.5 0.0
1.6 0.5 0.0
2.0 0.5 0.0
2.4000000000000004 0.5 0.0
2.8000000000000003 0.5 0.0
3.2 0.5 0.0
3.6 0.5 0.0
4.0 0.5 0.0
4.4 0.5 0.0
4.800000000000001 0.5 0.0
5.2 0.5 0.0
5.6000000000000005 0.5 0.0
6.0 0.5 0.0
6.4 0.5 0.0
6.800000000000001 0.5 0.0
7.2 0.5 0.0
7.6000000000000005 0.5 0.0
8.0 0.5 0.0
8.4 0.5 0.0
8.8 0.5 0.0
9.200000000000001 0.5 0.0
9.600000000000001 0.5 0.0
10.0 0.5 0.0
10.4 0.5 0.0
10.8 0.5 0.0
11.200000000000001 0.5 0.0
11.600000000000001 0.5 0.0
12.0 0.5 0.0
12.4 0.5 0.0
12.8 0.5 0.0
13.200000000000001 0.5 0.0
13.600000000000001 0.5 0.0
14.0 0.5 0.0
14.4 0.5 0.0
14.8 0.5 0.0
15.200000000000001 0.5 0.0
15.600000000000001 0.5 0.0
16.0 0.5 0.0
0.0 0.6000000000000001 0.0
0.4 0.6000000000000001 0.0
0.8 0.6000000000000001 0.0
1.2000000000000002 0.6000000000000001 0.0
1.6 0.6000000000000001 0.0
2.0 0.6000000000000001 0.0
2.4000000000000004 0.6000000000000001 0.0
2.8000000000000003 0.6000000000000001 0.0
3.2 0.6000000000000001 0.0
3.6 0.6000000000000001 0.0
4.0 0.6000000000000001 0.0
4.4 0.6000000000000001 0.0
4.800000000000001 0.6000000000000001 0.0
5.2 0.6000000000000001 0.0
5.6000000000000005 0.6000000000000001 0.0
6.0 0.6000000000000001 0.0
6.4 0.6000000000000001 0.0
6.800000000000001 0.6000000000000001 0.0
7.2 0.6000000000000001 0.0
7.6000000000000005 0.6000000000000001 0.0
8.0 0.6000000000000001 0.0
8.4 0.6000000000000001 0.0
8.8 0.6000000000000001 0.0
9.200000000000001 0.6000000000000001 0.0
9.600000000000001 0.6000000000000001 0.0
10.0 0.6000000000000001 0.0
10.4 0.6000000000000001 0.0
10.8 0.6000000000000001 0.0
11.200000000000001 0.6000000000000001 0.0
11.600000000000001 0.6000000000000001 0.0
12.0 0.6000000000000001 0.0
12.4 0.6000000000000001 0.0
12.8 0.6000000000000001 0.0
13.200000000000001 0.6000000000000001 0.0
13.600000000000001 0.6000000000000001 0.0
14.0 0.6000000000000001 0.0
14.4 0.6000000000000001 0.0
14.8 0.6000000000000001 0.0
15.200000000000001 0.6000000000000001 0.0
15.600000000000001 0.6000000000000001 0.0
16.0 0.6000000000000001 0.0
0.0 0.7000000000000001 0.0
0.4 0.7000000000000001 0.0
0.8 0.7000000000000001 0.0
1.2000000000000002 0.7000000000000001 0.0
1.6 0.7000000000000001 0.0
2.0 0.7000000000000001 0.0
2.4000000000000004 0.7000000000000001 0.0
2.8000000000000003 0.7000000000000001 0.0
3.2 0.7000000000000001 0.0
3.6 0.7000000000000001 0.0
4.0 0.7000000000000001 0.0
4.4 0.7000000000000001 0.0
4.800000000000001 0.7000000000000001 0.0
5.2 0.7000000000000001 0.0
5.6000000000000005 0.7000000000000001 0.0
6.0 0.7000000000000001 0.0
6.4 0.7000000000000001 0.0
6.800000000000001 0.7000000000000001 0.0
7.2 0.7000000000000001 0.0
7.6000000000000005 0.7000000000000001 0.0
8.0 0.7000000000000001 0.0
8.4 0.7000000000000001 0.0
8.8 0.7000000000000001 0.0
9.200000000000001 0.7000000000000001 0.0
9.600000000000001 0.7000000000000001 0.0
10.0 0.7000000000000001 0.0
10.4 0.7000000000000001 0.0
10.8 0.7000000000000001 0.0
11.200000000000001 0.7000000000000001 0.0
11.600000000000001 0.7000000000000001 0.0
12.0 0.7000000000000001 0.0
12.4 0.7000000000000001 0.0
12.8 0.7000000000000001 0.0
13.200000000000001 0.7000000000000001 0.0
13.600000000000001 0.7000000000000001 0.0
14.0 0.7000000000000001 0.0
14.4 0.7000000000000001 0.0
14.8 0.7000000000000001 0.0
15.200000000000001 0.7000000000000001 0.0
15.600000000000001 0.7000000000000001 0.0
16.0 0.7000000000000001 0.0
0.0 0.8 0.0
0.4 0.8 0.0
0.8 0.8 0.0
1.2000000000000002 0.8 0.0
1.6 0.8 0.0
2.0 0.8 0.0
2.4000000000000004 0.8 0.0
2.8000000000000003 0.8 0.0
3.2 0.8 0.0
3.6 0.8 0.0
4.0 0.8 0.0
4.4 0.8 0.0
4.800000000000001 0.8 0.0
5.2 0.8 0.0
5.6000000000000005 0.8 0.0
6.0 0.8 0.0
6.4 0.8 0.0
6.800000000000001 0.8 0.0
7.2 0.8 0.0
7.6000000000000005 0.8 0.0
8.0 0.8 0.0
8.4 0.8 0.0
8.8 0.8 0.0
9.200000000000001 0.8 0.0
9.600000000000001 0.8 0.0
10.0 0.8 0.0
10.4 0.8 0.0
10.8 0.8 0.0
11.200000000000001 0.8 0.0
11.600000000000001 0.8 0.0
12.0 0.8 0.0
12.4 0.8 0.0
12.8 0.8 0.0
13.200000000000001 0.8 0.0
13.600000000000001 0.8 0.0
14.0 0.8 0.0
14.4 0.8 0.0
14.8 0.8 0.0
15.200000000000001 0.8 0.0
15.600000000000001 0.8 0.0
16.0 0.8 0.0
0.0 0.9 0.0
0.4 0.9 0.0
0.8 0.9 0.0
1.2000000000000002 0.9 0.0
1.6 0.9 0.0
2.0 0.9 0.0
2.4000000000000004 0.9 0.0
2.8000000000000003 0.9 0.0
3.2 0.9 0.0
3.6 0.9 0.0
4.0 0.9 0.0
4.4 0.9 0.0
4.800000000000001 0.9 0.0
5.2 0.9 0.0
5.6000000000000005 0.9 0.0
6.0 0.9 0.0
6.4 0.9 0.0
6.800000000000001 0.9 0.0
7.2 0.9 0.0
7.6000000000000005 0.9 0.0
8.0 0.9 0.0
8.4 0.9 0.0
8.8 0.9 0.0
9.200000000000001 0.9 0.0
9.600000000000001 0.9 0.0
10.0 0.9 0.0
10.4 0.9 0.0
10.8 0.9 0.0
11.200000000000001 0.9 0.0
11.600000000000001 0.9 0.0
12.0 0.9 0.0
12.4 0.9 0.0
12.8 0.9 0.0
13.200000000000001 0.9 0.0
13.600000000000001 0.9 0.0
14.0 0.9 0.0
14.4 0.9 0.0
14.8 0.9 0.0
15.200000000000001 0.9 0.0
15.600000000000001 0.9 0.0
16.0 0.9 0.0
0.0 1.0 0.0
0.4 1.0 0.0
0.8 1.0 0.0
1.2000000000000002 1.0 0.0
1.6 1.0 0.0
2.0 1.0 0.0
2.4000000000000004 1.0 0.0
2.8000000000000003 1.0 0.0
3.2 1.0 0.0
3.6 1.0 0.0
4.0 1.0 0.0
4.4 1.0 0.0
4.800000000000001 1.0 0.0
5.2 1.0 0.0
5.6000000000000005 1.0 0.0
6.0 1.0 0.0
6.4 1.0 0.0
6.800000000000001 1.0 0.0
7.2 1.0 0.0
7.6000000000000005 1.0 0.0
8.0 1.0 0.0
8.4 1.0 0.0
8.8 1.0 0.0
9.200000000000001 1.0 0.0
9.600000000000001 1.0 0.0
10.0 1.0 0.0
10.4 1.0 0.0
10.8 1.0 0.0
11.200000000000001 1.0 0.0
11.600000000000001 1.0 0.0
12.0 1.0 0.0
12.4 1.0 0.0
12.8 1.0 0.0
13.200000000000001 1.0 0.0
13.600000000000001 1.0 0.0
14.0 1.0 0.0
14.4 1.0 0.0
14.8 1.0 0.0
15.200000000000001 1.0 0.0
15.600000000000001 1.0 0.0
16.0 1.0 0.0
0.0 1.1 0.0
0.4 1.1 0.0
0.8 1.1 0.0
1.2000000000000002 1.1 0.0
1.6 1.1 0.0
2.0 1.1 0.0
2.4000000000000004 1.1 0.0
2.8000000000000003 1.1 0.0
3.2 1.1 0.0
3.6 1.1 0.0
4.0 1.1 0.0
4.4 1.1 0.0
4.800000000000001 1.1 0.0
5.2 1.1 0.0
5.6000000000000005 1.1 0.0
6.0 1.1 0.0
6.4 1.1 0.0
6.800000000000001 1.1 0.0
7.2 1.1 0.0
7.6000000000000005 1.1 0.0
8.0 1.1 0.0
8.4 1.1 0.0
8.8 1.1 0.0
9.200000000000001 1.1 0.0
9.600000000000001 1.1 0.0
10.0 1.1 0.0
10.4 1.1 0.0
10.8 1.1 0.0
11.200000000000001 1.1 0.0
11.600000000000001 1.1 0.0
12.0 1.1 0.0
12.4 1.1 0.0
12.8 1.1 0.0
13.200000000000001 1.1 0.0
13.600000000000001 1.1 0.0
14.0 1.1 0.0
14.4 1.1 0.0
14.8 1.1 0.0
15.200000000000001 1.1 0.0
15.600000000000001 1.1 0.0
16.0 1.1 0.0
0.0 1.2000000000000002 0.0
0.4 1.2000000000000002 0.0
0.8 1.2000000000000002 0.0
1.2000000000000002 1.2000000000000002 0.0
1.6 1.2000000000000002 0.0
2.0 1.2000000000000002 0.0
2.4000000000000004 1.2000000000000002 0.0
2.8000000000000003 1.2000000000000002 0.0
3.2 1.2000000000000002 0.0
3.6 1.2000000000000002 0.0
4.0 1.2000000000000002 0.0
4.4 1.2000000000000002 0.0
4.800000000000001 1.2000000000000002 0.0
5.2 1.2000000000000002 0.0
5.6000000000000005 1.2000000000000002 0.0
6.0 1.2000000000000002 0.0
6.4 1.2000000000000002 0.0
6.800000000000001 1.2000000000000002 0.0
7.2 1.2000000000000002 0.0
7.6000000000000005 1.2000000000000002 0.0
8.0 1.2000000000000002 0.0
8.4 1.2000000000000002 0.0
8.8 1.2000000000000002 0.0
9.200000000000001 1.2000000000000002 0.0
9.600000000000001 1.2000000000000002 0.0
10.0 1.2000000000000002 0.0
10.4 1.2000000000000002 0.0
10.8 1.2000000000000002 0.0
11.200000000000001 1.2000000000000002 0.0
11.600000000000001 1.2000000000000002 0.0
12.0 1.2000000000000002 0.0
12.4 1.2000000000000002 0.0
12.8 1.2000000000000002 0.0
13.200000000000001 1.2000000000000002 0.0
13.600000000000001 1.2000000000000002 0.0
14.0 1.2000000000000002 0.0
14.4 1.2000000000000002 0.0
14.8 1.2000000000000002 0.0
15.200000000000001 1.2000000000000002 0.0
15.600000000000001 1.2000000000000002 0.0
16.0 1.2000000000000002 0.0
0.0 1.3 0.0
0.4 1.3 0.0
0.8 1.3 0.0
1.2000000000000002 1.3 0.0
1.6 1.3 0.0
2.0 1.3 0.0
2.4000000000000004 1.3 0.0
2.8000000000000003 1.3 0.0
3.2 1.3 0.0
3.6 1.3 0.0
4.0 1.3 0.0
4.4 1.3 0.0
4.800000000000001 1.3 0.0
5.2 1.3 0.0
5.6000000000000005 1.3 0.0
6.0 1.3 0.0
6.4 1.3 0.0
6.800000000000001 1.3 0.0
7.2 1.3 0.0
7.6000000000000005 1.3 0.0
8.0 1.3 0.0
8.4 1.3 0.0
8.8 1.3 0.0
9.200000000000001 1.3 0.0
9.600000000000001 1.3 0.0
10.0 1.3 0.0
10.4 1.3 0.0
10.8 1.3 0.0
11.200000000000001 1.3 0.0
11.600000000000001 1.3 0.0
12.0 1.3 0.0
12.4 1.3 0.0
12.8 1.3 0.0
13.200000000000001 1.3 0.0
13.600000000000001 1.3 0.0
14.0 1.3 0.0
14.4 1.3 0.0
14.8 1.3 0.0
15.200000000000001 1.3 0.0
15.600000000000001 1.3 0.0
16.0 1.3 0.0
0.0 1.4000000000000001 0.0
0.4 1.4000000000000001 0.0
0.8 1.4000000000000001 0.0
1.2000000000000002 1.4000000000000001 0.0
1.6 1.4000000000000001 0.0
2.0 1.4000000000000001 0.0
2.4000000000000004 1.4000000000000001 0.0
2.8000000000000003 1.4000000000000001 0.0
3.2 1.4000000000000001 0.0
3.6 1.4000000000000001 0.0
4.0 1.4000000000000001 0.0
4.4 1.4000000000000001 0.0
4.800000000000001 1.4000000000000001 0.0
5.2 1.4000000000000001 0.0
5.6000000000000005 1.4000000000000001 0.0
6.0 1.4000000000000001 0.0
6.4 1.4000000000000001 0.0
6.800000000000001 1.4000000000000001 0.0
7.2 1.4000000000000001 0.0
7.6000000000000005 1.4000000000000001 0.0
8.0 1.4000000000000001 0.0
8.4 1.4000000000000001 0.0
8.8 1.4000000000000001 0.0
9.200000000000001 1.4000000000000001 0.0
9.600000000000001 1.4000000000000001 0.0
10.0 1.4000000000000001 0.0
10.4 1.4000000000000001 0.0
10.8 1.4000000000000001 0.0
11.200000000000001 1.4000000000000001 0.0
11.600000000000001 1.4000000000000001 0.0
12.0 1.4000000000000001 0.0
12.4 1.4000000000000001 0.0
12.8 1.4000000000000001 0.0
13.200000000000001 1.4000000000000001 0.0
13.600000000000001 1.4000000000000001 0.0
14.0 1.4000000000000001 0.0
14.4 1.4000000000000001 0.0
14.8 1.4000000000000001 0.0
15.200000000000001 1.4000000000000001 0.0
15.600000000000001 1.4000000000000001 0.0
16.0 1.4000000000000001 0.0
0.0 1.5 0.0
0.4 1.5 0.0
0.8 1.5 0.0
1.2000000000000002 1.5 0.0
1.6 1.5 0.0
2.0 1.5 0.0
2.4000000000000004 1.5 0.0
2.8000000000000003 1.5 0.0
3.2 1.5 0.0
3.6 1.5 0.0
4.0 1.5 0.0
4.4 1.5 0.0
4.800000000000001 1.5 0.0
5.2 1.5 0.0
5.6000000000000005 1.5 0.0
6.0 1.5 0.0
6.4 1.5 0.0
6.800000000000001 1.5 0.0
7.2 1.5 0.0
7.6000000000000005 1.5 0.0
8.0 1.5 0.0
8.4 1.5 0.0
8.8 1.5 0.0
9.200000000000001 1.5 0.0
9.600000000000001 1.5 0.0
10.0 1.5 0.0
10.4 1.5 0.0
10.8 1.5 0.0
11.200000000000001 1.5 0.0
11.600000000000001 1.5 0.0
12.0 1.5 0.0
12.4 1.5 0.0
12.8 1.5 0.0
13.200000000000001 1.5 0.0
13.600000000000001 1.5 0.0
14.0 1.5 0.0
14.4 1.5 0.0
14.8 1.5 0.0
15.200000000000001 1.5 0.0
15.600000000000001 1.5 0.0
16.0 1.5 0.0
0.0 1.6 0.0
0.4 1.6 0.0
0.8 1.6 0.0
1.2000000000000002 1.6 0.0
1.6 1.6 0.0
2.0 1.6 0.0
2.4000000000000004 1.6 0.0
2.8000000000000003 1.6 0.0
3.2 1.6 0.0
3.6 1.6 0.0
4.0 1.6 0.0
4.4 1.6 0.0
4.800000000000001 1.6 0.0
5.2 1.6 0.0
5.6000000000000005 1.6 0.0
6.0 1.6 0.0
6.4 1.6 0.0
6.800000000000001 1.6 0.0
7.2 1.6 0.0
7.6000000000000005 1.6 0.0
8.0 1.6 0.0
8.4 1.6 0.0
8.8 1.6 0.0
9.200000000000001 1.6 0.0
9.600000000000001 1.6 0.0
10.0 1.6 0.0
10.4 1.6 0.0
10.8 1.6 0.0
11.200000000000001 1.6 0.0
11.600000000000001 1.6 0.0
12.0 1.6 0.0
12.4 1.6 0.0
12.8 1.6 0.0
13.200000000000001 1.6 0.0
13.600000000000001 1.6 0.0
14.0 1.6 0.0
14.4 1.6 0.0
14.8 1.6 0.0
15.200000000000001 1.6 0.0
15.600000000000001 1.6 0.0
16.0 1.6 0.0
0.0 1.7000000000000002 0.0
0.4 1.7000000000000002 0.0
0.8 1.7000000000000002 0.0
1.2000000000000002 1.7000000000000002 0.0
1.6 1.7000000000000002 0.0
2.0 1.7000000000000002 0.0
2.4000000000000004 1.7000000000000002 0.0
2.8000000000000003 1.7000000000000002 0.0
3.2 1.7000000000000002 0.0
3.6 1.7000000000000002 0.0
4.0 1.7000000000000002 0.0
4.4 1.7000000000000002 0.0
4.800000000000001 1.7000000000000002 0.0
5.2 1.7000000000000002 0.0
5.6000000000000005 1.7000000000000002 0.0
6.0 1.7000000000000002 0.0
6.4 1.7000000000000002 0.0
6.800000000000001 1.7000000000000002 0.0
7.2 1.7000000000000002 0.0
7.6000000000000005 1.7000000000000002 0.0
8.0 1.7000000000000002 0.0
8.4 1.7000000000000002 0.0
8.8 1.7000000000000002 0.0
9.200000000000001 1.7000000000000002 0.0
9.600000000000001 1.7000000000000002 0.0
10.0 1.7000000000000002 0.0
10.4 1.7000000000000002 0.0
10.8 1.7000000000000002 0.0
11.200000000000001 1.7000000000000002 0.0
11.600000000000001 1.7000000000000002 0.0
12.0 1.7000000000000002 0.0
12.4 1.7000000000000002 0.0
12.8 1.7000000000000002 0.0
13.200000000000001 1.7000000000000002 0.0
13.600000000000001 1.7000000000000002 0.0
14.0 1.7000000000000002 0.0
14.4 1.7000000000000002 0.0
14.8 1.7000000000000002 0.0
15.200000000000001 1.7000000000000002 0.0
15.600000000000001 1.7000000000000002 0.0
16.0 1.7000000000000002 0.0
0.0 1.8 0.0
0.4 1.8 0.0
0.8 1.8 0.0
1.2000000000000002 1.8 0.0
1.6 1.8 0.0
2.0 1.8 0.0
2.4000000000000004 1.8 0.0
2.8000000000000003 1.8 0.0
3.2 1.8 0.0
3.6 1.8 0.0
4.0 1.8 0.0
4.4 1.8 0.0
4.800000000000001 1.8 0.0
5.2 1.8 0.0
5.6000000000000005 1.8 0.0
6.0 1.8 0.0
6.4 1.8 0.0
6.800000000000001 1.8 0.0
7.2 1.8 0.0
7.6000000000000005 1.8 0.0
8.0 1.8 0.0
8.4 1.8 0.0
8.8 1.8 0.0
9.200000000000001 1.8 0.0
9.600000000000001 1.8 0.0
10.0 1.8 0.0
10.4 1.8 0.0
10.8 1.8 0.0
11.200000000000001 1.8 0.0
11.600000000000001 1.8 0.0
12.0 1.8 0.0
12.4 1.8 0.0
12.8 1.8 0.0
13.200000000000001 1.8 0.0
13.600000000000001 1.8 0.0
14.0 1.8 0.0
14.4 1.8 0.0
14.8 1.8 0.0
15.200000000000001 1.8 0.0
15.600000000000001 1.8 0.0
16.0 1.8 0.0
0.0 1.9000000000000001 0.0
0.4 1.9000000000000001 0.0
0.8 1.9000000000000001 0.0
1.2000000000000002 1.9000000000000001 0.0
1.6 1.9000000000000001 0.0
2.0 1.9000000000000001 0.0
2.4000000000000004 1.9000000000000001 0.0
2.8000000000000003 1.9000000000000001 0.0
3.2 1.9000000000000001 0.0
3.6 1.9000000000000001 0.0
4.0 1.9000000000000001 0.0
4.4 1.9000000000000001 0.0
4.800000000000001 1.9000000000000001 0.0
5.2 1.9000000000000001 0.0
5.6000000000000005 1.9000000000000001 0.0
6.0 1.9000000000000001 0.0
6.4 1.9000000000000001 0.0
6.800000000000001 1.9000000000000001 0.0
7.2 1.9000000000000001 0.0
7.6000000000000005 1.9000000000000001 0.0
8.0 1.9000000000000001 0.0
8.4 1.9000000000000001 0.0
8.8 1.9000000000000001 0.0
9.200000000000001 1.9000000000000001 0.0
9.600000000000001 1.9000000000000001 0.0
10.0 1.9000000000000001 0.0
10.4 1.9000000000000001 0.0
10.8 1.9000000000000001 0.0
11.200000000000001 1.9000000000000001 0.0
11.600000000000001 1.9000000000000001 0.0
12.0 1.9000000000000001 0.0
12.4 1.9000000000000001 0.0
12.8 1.9000000000000001 0.0
13.200000000000001 1.9000000000000001 0.0
13.600000000000001 1.9000000000000001 0.0
14.0 1.9000000000000001 0.0
14.4 1.9000000000000001 0.0
14.8 1.9000000000000001 0.0
15.200000000000001 1.9000000000000001 0.0
15.600000000000001 1.9000000000000001 0.0
16.0 1.9000000000000001 0.0
0.0 2.0 0.0
0.4 2.0 0.0
0.8 2.0 0.0
1.2000000000000002 2.0 0.0
1.6 2.0 0.0
2.0 2.0 0.0
2.4000000000000004 2.0 0.0
2.8000000000000003 2.0 0.0
3.2 2.0 0.0
3.6 2.0 0.0
4.0 2.0 0.0
4.4 2.0 0.0
4.800000000000001 2.0 0.0
5.2 2.0 0.0
5.6000000000000005 2.0 0.0
6.0 2.0 0.0
6.4 2.0 0.0
6.800000000000001 2.0 0.0
7.2 2.0 0.0
7.6000000000000005 2.0 0.0
8.0 2.0 0.0
8.4 2.0 0.0
8.8 2.0 0.0
9.200000000000001 2.0 0.0
9.600000000000001 2.0 0.0
10.0 2.0 0.0
10.4 2.0 0.0
10.8 2.0 0.0
11.200000000000001 2.0 0.0
11.600000000000001 2.0 0.0
12.0 2.0 0.0
12.4 2.0 0.0
12.8 2.0 0.0
13.200000000000001 2.0 0.0
13.600000000000001 2.0 0.0
14.0 2.0 0.0
14.4 2.0 0.0
14.8 2.0 0.0
15.200000000000001 2.0 0.0
15.600000000000001 2.0 0.0
16.0 2.0 0.0
CELLS 800 4000
4 0 1 42 41
4 1 2 43 42
4 2 3 44 43
4 3 4 45 44
4 4 5 46 45
4 5 6 47 46
4 6 7 48 47
4 7 8 49 48
4 8 9 50 49
4 9 10 51 50
4 10 11 52 51
4 11 12 53 52
4 12 13 54 53
4 13 14 55 54
4 14 15 56 55
4 15 16 57 56
4 16 17 58 57
4 17 18 59 58
4 18 19 60 59
4 19 20 61 60
4 20 21 62 61
4 21 22 63 62
4 22 23 64 63
4 23 24 65 64
4 24 25 66 65
4 25 26 67 66
4 26 27 68 67
4 27 28 69 68
4 28 29 70 69
4 29 30 71 70
4 30 31 72 71
4 31 32 73 72
4 32 33 74 73
4 33 34 75 74
4 34 35 76 75
4 35 36 77 76
4 36 37 78 77
4 37 38 79 78
4 38 39 80 79
4 39 40 81 80
4 41 42 83 82
4 42 43 84 83
4 43 44 85 84
4 44 45 86 85
4 45 46 87 86
4 46 47 88 87
4 47 48 89 88
4 48 49 90 89
4 49 50 91 90
4 50 51 92 91
4 51 52 93 92
4 52 53 94 93
4 53 54 95 94
4 54 55 96 95
4 55 56 97 96
4 56 57 98 97
4 57 58 99 98
4 58 59 100 99
4 59 60 101 100
4 60 61 102 101
4 61 62 103 102
4 62 63 104 103
4 63 64 105 104
4 64 65 106 105
4 65 66 107 106
4 66 67 108 107
4 67 68 109 108
4 68 69 110 109
4 69 70 111 110
4 70 71 112 111
4 71 72 113 112
4 72 73 114 113
4 73 74 115 114
4 74 75 116 115
4 75 76 117 116
4 76 77 118 117
4 77 78 119 118
4 78 79 120 119
4 79 80 121 120
4 80 81 122 121
4 82 83 124 123
4 83 84 125 124
4 84 85 126 125
4 85 86 127 126
4 86 87 128 127
4 87 88 129 128
4 88 89 130 129
4 89 90 131 130
4 90 91 132 131
4 91 92 133 132
4 92 93 134 133
4 93 94 135 134
4 94 95 136 135
4 95 96 137 136
4 96 97 138 137
4 97 98 139 138
4 98 99 140 139
4 99 100 141 140
4 100 101 142 141
4 101 102 143 142
4 102 103 144 143
4 103 104 145 144
4 104 105 146 145
4 105 106 147 146
4 106 107 148 147
4 107 108 149 148
4 108 109 150 149
4 109 110 151 150
4 110 111 152 151
4 111 112 153 152
4 112 113 154 153
4 113 114 155 154
4 114 115 156 155
4 115 116 157 156
4 116 117 158 157
4 117 118 159 158
4 118 119 160 159
4 119 120 161 160
4 120 121 162 161
4 121 122 163 162
4 123 124 165 164
4 124 125 166 165
4 125 126 167 166
4 126 127 168 167
4 127 128 169 168
4 128 129 170 169
4 129 130 171 170
4 130 131 172 171
4 131 132 173 172
4 132 133 174 173
4 133 134 175 174
4 134 135 176 175
4 135 136 177 176
4 136 137 178 177
4 137 138 179 178
4 138 139 180 179
4 139 140 181 180
4 140 141 182 181
4 141 142 183 182
4 142 143 184 183
4 143 144 185 184
4 144 145 186 185
4 145 146 187 186
4 146 147 188 187
4 147 148 189 188
4 148 149 190 189
4 149 150 191 190
4 150 151 192 191
4 151 152 193 192
4 152 153 194 193
4 153 154 195 194
4 154 155 196 195
4 155 156 197 196
4 156 157 198 197
4 157 158 199 198
4 158 159 200 199
4 159 160 201 200
4 160 161 202 201
4 161 162 203 202
4 162 163 204 203
4 164 165 206 205
4 165 166 207 206
4 166 167 208 207
4 167 168 209 208
4 168 169 210 209
4 169 170 211 210
4 170 171 212 211
4 171 172 213 212
4 172 173 214 213
4 173 174 215 214
4 174 175 216 215
4 175 176 217 216
4 176 177 218 217
4 177 178 219 218
4 178 179 220 219
4 179 180 221 220
4 180 181 222 221
4 181 182 223 222
4 182 183 224 223
4 183 184 225 224
4 184 185 226 225
4 185 186 227 226
4 186 187 228 227
4 187 188 229 228
4 188 189 230 229
4 189 190 231 230
4 190 191 232 231
4 191 192 233 232
4 192 193 234 233
4 193 194 235 234
4 194 195 236 235
4 195 196 237 236
4 196 197 238 237
4 197 198 239 238
4 198 199 240 239
4 199 200 241 240
4 200 201 242 241
4 201 202 243 242
4 202 203 244 243
4 203 204 245 244
4 205 206 247 246
4 206 207 248 247
4 207 208 249 248
4 208 209 250 249
4 209 210 251 250
4 210 211 252 251
4 211 212 253 252
4 212 213 254 253
4 213 214 255 254
4 214 215 256 255
4 215 216 257 256
4 216 217 258 257
4 217 218 259 258
4 218 219 260 259
4 219 220 261 260
4 220 221 262 261
4 221 222 263 262
4 222 223 264 263
4 223 224 265 264
4 224 225 266 265
4 225 226 267 266
4 226 227 268 267
4 227 228 269 268
4 228 229 270 269
4 229 230 271 270
4 230 231 272 271
4 231 232 273 272
4 232 233 274 273
4 233 234 275 274
4 234 235 276 275
4 235 236 277 276
4 236 237 278 277
4 237 238 279 278
4 238 239 280 279
4 239 240 281 280
4 240 241 282 281
4 241 242 283 282
4 242 243 284 283
4 243 244 285 284
4 244 245 286 285
4 246 247 288 287
4 247 248 289 288
4 248 249 290 289
4 249 250 291 290
4 250 251 292 291
4 251 252 293 292
4 252 253 294 293
4 253 254 295 294
4 254 255 296 295
4 255 256 297 296
4 256 257 298 297
4 257 258 299 298
4 258 259 300 299
4 259 260 301 300
4 260 261 302 301
4 261 262 303 302
4 262 263 304 303
4 263 264 305 304
4 264 265 306 305
4 265 266 307 306
4 266 267 308 307
4 267 268 309 308
4 268 269 310 309
4 269 270 311 310
4 270 271 312 311
4 271 272 313 312
4 272 273 314 313
4 273 274 315 314
4 274 275 316 315
4 275 276 317 316
4 276 277 318 317
4 277 278 319 318
4 278 279 320 319
4 279 280 321 320
4 280 281 322 321
4 281 282 323 322
4 282 283 324 323
4 283 284 325 324
4 284 285 326 325
4 285 286 327 326
4 287 288 329 328
4 288 289 330 329
4 289 290 331 330
4 290 291 332 331
4 291 292 333 332
4 292 293 334 333
4 293 294 335 334
4 294 295 336 335
4 295 296 337 336
4 296 297 338 337
4 297 298 339 338
4 298 299 340 339
4 299 300 341 340
4 300 301 342 341
4 301 302 343 342
4 302 303 344 343
4 303 304 345 344
4 304 305 346 345
4 305 306 347 346
4 306 307 348 347
4 307 308 349 348
4 308 309 350 349
4 309 310 351 350
4 310 311 352 351
4 311 312 353 352
4 312 313 354 353
4 313 314 355 354
4 314 315 356 355
4 315 316 357 356
4 316 317 358 357
4 317 318 359 358
4 318 319 360 359
4 319 320 361 360
4 320 321 362 361
4 321 322 363 362
4 322 323 364 363
4 323 324 365 364
4 324 325 366 365
4 325 326 367 366
4 326 327 368 367
4 328 329 370 369
4 329 330 371 370
4 330 331 372 371
4 331 332 373 372
4 332 333 374 373
4 333 334 375 374
4 334 335 376 375
4 335 336 377 376
4 336 337 378 377
4 337 338 379 378
4 338 339 380 379
4 339 340 381 380
4 340 341 382 381
4 341 342 383 382
4 342 343 384 383
4 343 344 385 384
4 344 345 386 385
4 345 346 387 386
4 346 347 388 387
4 347 348 389 388
4 348 349 390 389
4 349 350 391 390
4 350 351 392 391
4 351 352 393 392
4 352 353 394 393
4 353 354 395 394
4 354 355 396 395
4 355 356 397 396
4 356 357 398 397
4 357 358 399 398
4 358 359 400 399
4 359 360 401 400
4 360 361 402 401
4 361 362 403 402
4 362 363 404 403
4 363 364 405 404
4 364 365 406 405
4 365 366 407 406
4 366 367 408 407
4 367 368 409 408
4 369 370 411 410
4 370 371 412 411
4 371 372 413 412
4 372 373 414 413
4 373 374 415 414
4 374 375 416 415
4 375 376 417 416
4 376 377 418 417
4 377 378 419 418
4 378 379 420 419
4 379 380 421 420
4 380 381 422 421
4 381 382 423 422
4 382 383 424 423
4 383 384 425 424
4 384 385 426 425
4 385 386 427 426
4 386 387 428 427
4 387 388 429 428
4 388 389 430 429
4 389 390 431 430
4 390 391 432 431
4 391 392 433 432
4 392 393 434 433
4 393 394 435 434
4 394 395 436 435
4 395 396 437 436
4 396 397 438 437
4 397 398 439 438
4 398 399 440 439
4 399 400 441 440
4 400 401 442 441
4 401 402 443 442
4 402 403 444 443
4 403 404 445 444
4 404 405 446 445
4 405 406 447 446
4 406 407 448 447
4 407 408 449 448
4 408 409 450 449
4 410 411 452 451
4 411 412 453 452
4 412 413 454 453
4 413 414 455 454
4 414 415 456 455
4 415 416 457 456
4 416 417 458 457
4 417 418 459 458
4 418 419 460 459
4 419 420 461 460
4 420 421 462 461
4 421 422 463 462
4 422 423 464 463
4 423 424 465 464
4 424 425 466 465
4 425 426 467 466
4 426 427 468 467
4 427 428 469 468
4 428 429 470 469
4 429 430 471 470
4 430 431 472 471
4 431 432 473 472
4 432 433 474 473
4 433 434 475 474
4 434 435 476 475
4 435 436 477 476
4 436 437 478 477
4 437 438 479 478
4 438 439 480 479
4 439 440 481 480
4 440 441 482 481
4 441 442 483 482
4 442 443 484 483
4 443 444 485 484
4 444 445 486 485
4 445 446 487 486
4 446 447 488 487
4 447 448 489 488
4 448 449 490 489
4 449 450 491 490
4 451 452 493 492
4 452 453 494 493
4 453 454 495 494
4 454 455 496 495
4 455 456 497 496
4 456 457 498 497
4 457 458 499 498
4 458 459 500 499
4 459 460 501 500
4 460 461 502 501
4 461 462 503 502
4 462 463 504 503
4 463 464 505 504
4 464 465 506 505
4 465 466 507 506
4 466 467 508 507
4 467 468 509 508
4 468 469 510 509
4 469 470 511 510
4 470 471 512 511
4 471 472 513 512
4 472 473 514 513
4 473 474 515 514
4 474 475 516 515
4 475 476 517 516
4 476 477 518 517
4 477 478 519 518
4 478 479 520 519
4 479 480 521 520
4 480 481 522 521
4 481 482 523 522
4 482 483 524 523
4 483 484 525 524
4 484 485 526 525
4 485 486 527 526
4 486 487 528 527
4 487 488 529 528
4 488 489 530 529
4 489 490 531 530
4 490 491 532 531
4 492 493 534 533
4 493 494 535 534
4 494 495 536 535
4 495 496 537 536
4 496 497 538 537
4 497 498 539 538
4 498 499 540 539
4 499 500 541 540
4 500 501 542 541
4 501 502 543 542
4 502 503 544 543
4 503 504 545 544
4 504 505 546 545
4 505 506 547 546
4 506 507 548 547
4 507 508 549 548
4 508 509 550 549
4 509 510 551 550
4 510 511 552 551
4 511 512 553 552
4 512 513 554 553
4 513 514 555 554
4 514 515 556 555
4 515 516 557 556
4 516 517 558 557
4 517 518 559 558
4 518 519 560 559
4 519 520 561 560
4 520 521 562 561
4 521 522 563 562
4 522 523 564 563
4 523 524 565 564
4 524 525 566 565
4 525 526 567 566
4 526 527 568 567
4 527 528 569 568
4 528 529 570 569
4 529 530 571 570
4 530 531 572 571
4 531 532 573 572
4 533 534 575 574
4 534 535 576 575
4 535 536 577 576
4 536 537 578 577
4 537 538 579 578
4 538 539 580 579
4 539 540 581 580
4 540 541 582 581
4 541 542 583 582
4 542 543 584 583
4 543 544 585 584
4 544 545 586 585
4 545 546 587 586
4 546 547 588 587
4 547 548 589 588
4 548 549 590 589
4 549 550 591 590
4 550 551 592 591
4 551 552 593 592
4 552 553 594 593
4 553 554 595 594
4 554 555 596 595
4 555 556 597 596
4 556 557 598 597
4 557 558 599 598
4 558 559 600 599
4 559 560 601 600
4 560 561 602 601
4 561 562 603 602
4 562 563 604 603
4 563 564 605 604
4 564 565 606 605
4 565 566 607 606
4 566 567 608 607
4 567 568 609 608
4 568 569 610 609
4 569 570 611 610
4 570 571 612 611
4 571 572 613 612
4 572 573 614 613
4 574 575 616 615
4 575 576 617 616
4 576 577 618 617
4 577 578 619 618
4 578 579 620 619
4 579 580 621 620
4 580 581 622 621
4 581 582 623 622
4 582 583 624 623
4 583 584 625 624
4 584 585 626 625
4 585 586 627 626
4 586 587 628 627
4 587 588 629 628
4 588 589 630 629
4 589 590 631 630
4 590 591 632 631
4 591 592 633 632
4 592 593 634 633
4 593 594 635 634
4 594 595 636 635
4 595 596 637 636
4 596 597 638 637
4 597 598 639 638
4 598 599 640 639
4 599 600 641 640
4 600 601 642 641
4 601 602 643 642
4 602 603 644 643
4 603 604 645 644
4 604 605 646 645
4 605 606 647 646
4 606 607 648 647
4 607 608 649 648
4 608 609 650 649
4 609 610 651 650
4 610 611 652 651
4 611 612 653 652
4 612 613 654 653
4 613 614 655 654
4 615 616 657 656
4 616 617 658 657
4 617 618 659 658
4 618 619 660 659
4 619 620 661 660
4 620 621 662 661
4 621 622 663 662
4 622 623 664 663
4 623 624 665 664
4 624 625 666 665
4 625 626 667 666
4 626 627 668 667
4 627 628 669 668
4 628 629 670 669
4 629 630 671 670
4 630 631 672 671
4 631 632 673 672
4 632 633 674 673
4 633 634 675 674
4 634 635 676 675
4 635 636 677 676
4 636 637 678 677
4 637 638 679 678
4 638 639 680 679
4 639 640 681 680
4 640 641 682 681
4 641 642 683 682
4 642 643 684 683
4 643 644 685 684
4 644 645 686 685
4 645 646 687 686
4 646 647 688 687
4 647 648 689 688
4 648 649 690 689
4 649 650 691 690
4 650 651 692 691
4 651 652 693 692
4 652 653 694 693
4 653 654 695 694
4 654 655 696 695
4 656 657 698 697
4 657 658 699 698
4 658 659 700 699
4 659 660 701 700
4 660 661 702 701
4 661 662 703 702
4 662 663 704 703
4 663 664 705 704
4 664 665 706 705
4 665 666 707 706
4 666 667 708 707
4 667 668 709 708
4 668 669 710 709
4 669 670 711 710
4 670 671 712 711
4 671 672 713 712
4 672 673 714 713
4 673 674 715 714
4 674 675 716 715
4 675 676 717 716
4 676 677 718 717
4 677 678 719 718
4 678 679 720 719
4 679 680 721 720
4 680 681 722 721
4 681 682 723 722
4 682 683 724 723
4 683 684 725 724
4 684 685 726 725
4 685 686 727 726
4 686 687 728 727
4 687 688 729 728
4 688 689 730 729
4 689 690 731 730
4 690 691 732 731
4 691 692 733 732
4 692 693 734 733
4 693 694 735 734
4 694 695 736 735
4 695 696 737 736
4 697 698 739 738
4 698 699 740 739
4 699 700 741 740
4 700 701 742 741
4 701 702 743 742
4 702 703 744 743
4 703 704 745 744
4 704 705 746 745
4 705 706 747 746
4 706 707 748 747
4 707 708 749 748
4 708 709 750 749
4 709 710 751 750
4 710 711 752 751
4 711 712 753 752
4 712 713 754 753
4 713 714 755 754
4 714 715 756 755
4 715 716 757 756
4 716 717 758 757
4 717 718 759 758
4 718 719 760 759
4 719 720 761 760
4 720 721 762 761
4 721 722 763 762
4 722 723 764 763
4 723 724 765 764
4 724 725 766 765
4 725 726 767 766
4 726 727 768 767
4 727 728 769 768
4 728 729 770 769
4 729 730 771 770
4 730 731 772 771
4 731 732 773 772
4 732 733 774 773
4 733 734 775 774
4 734 735 776 775
4 735 736 777 776
4 736 737 778 777
4 738 739 780 779
4 739 740 781 780
4 740 741 782 781
4 741 742 783 782
4 742 743 784 783
4 743 744 785 784
4 744 745 786 785
4 745 746 787 786
4 746 747 788 787
4 747 748 789 788
4 748 749 790 789
4 749 750 791 790
4 750 751 792 791
4 751 752 793 792
4 752 753 794 793
4 753 754 795 794
4 754 755 796 795
4 755 756 797 796
4 756 757 798 797
4 757 758 799 798
4 758 759 800 799
4 759 760 801 800
4 760 761 802 801
4 761 762 803 802
4 762 763 804 803
4 763 764 805 804
4 764 765 806 805
4 765 766 807 806
4 766 767 808 807
4 767 768 809 808
4 768 769 810 809
4 769 770 811 810
4 770 771 812 811
4 771 772 813 812
4 772 773 814 813
4 773 774 815 814
4 774 775 816 815
4 775 776 817 816
4 776 777 818 817
4 777 778 819 818
4 779 780 821 820
4 780 781 822 821
4 781 782 823 822
4 782 783 824 823
4 783 784 825 824
4 784 785 826 825
4 785 786 827 826
4 786 787 828 827
4 787 788 829 828
4 788 789 830 829
4 789 790 831 830
4 790 791 832 831
4 791 792 833 832
4 792 793 834 833
4 793 794 835 834
4 794 795 836 835
4 795 796 837 836
4 796 797 838 837
4 797 798 839 838
4 798 799 840 839
4 799 800 841 840
4 800 801 842 841
4 801 802 843 842
4 802 803 844 843
4 803 804 845 844
4 804 805 846 845
4 805 806 847 846
4 806 807 848 847
4 807 808 849 848
4 808 809 850 849
4 809 810 851 850
4 810 811 852 851
4 811 812 853 852
4 812 813 854 853
4 813 814 855 854
4 814 815 856 855
4 815 816 857 856
4 816 817 858 857
4 817 818 859 858
4 818 819 860 859
CELL_TYPES 800
9
9
9
9
9
9
9
9
9
9
9
9
9
9
9
9
9
9
9
9
9
9
9
9
9
9
9
9
9
9
9
9
9
9
9
9
9
9
9
9
9
9
9
9
9
9
9
9
9
9
9
9
9
9
9
9
9
9
9
9
9
9
9
9
9
9
9
9
9
9
9
9
9
9
9
9
9
9
9
9
9
9
9
9
9
9
9
9
9
9
9
9
9
9
9
9
9
9
9
9
9
9
9
9
9
9
9
9
9
9
9
9
9
9
9
9
9
9
9
9
9
9
9
9
9
9
9
9
9
9
9
9
9
9
9
9
9
9
9
9
9
9
9
9
9
9
9
9
9
9
9
9
9
9
9
9
9
9
9
9
9
9
9
9
9
9
9
9
9
9
9
9
9
9
9
9
9
9
9
9
9
9
9
9
9
9
9
9
9
9
9
9
9
9
9
9
9
9
9
9
9
9
9
9
9
9
9
9
9
9
9
9
9
9
9
9
9
9
9
9
9
9
9
9
9
9
9
9
9
9
9
9
9
9
9
9
9
9
9
9
9
9
9
9
9
9
9
9
9
9
9
9
9
9
9
9
9
9
9
9
9
9
9
9
9
9
9
9
9
9
9
9
9
9
9
9
9
9
9
9
9
9
9
9
9
9
9
9
9
9
9
9
9
9
9
9
9
9
9
9
9
9
9
9
9
9
9
9
9
9
9
9
9
9
9
9
9
9
9
9
9
9
9
9
9
9
9
9
9
9
9
9
9
9
9
9
9
9
9
9
9
9
9
9
9
9
9
9
9
9
9
9
9
9
9
9
9
9
9
9
9
9
9
9
9
9
9
9
9
9
9
9
9
9
9
9
9
9
9
9
9
9
9
9
9
9
9
9
9
9
9
9
9
9
9
9
9
9
9
9
9
9
9
9
9
9
9
9
9
9
9
9
9
9
9
9
9
9
9
9
9
9
9
9
9
9
9
9
9
9
9
9
9
9
9
9
9
9
9
9
9
9
9
9
9
9
9
9
9
9
9
9
9
9
9
9
9
9
9
9
9
9
9
9
9
9
9
9
9
9
9
9
9
9
9
9
9
9
9
9
9
9
9
9
9
9
9
9
9
9
9
9
9
9
9
9
9
9
9
9
9
9
9
9
9
9
9
9
9
9
9
9
9
9
9
9
9
9
9
9
9
9
9
9
9
9
9
9
9
9
9
9
9
9
9
9
9
9
9
9
9
9
9
9
9
9
9
9
9
9
9
9
9
9
9
9
9
9
9
9
9
9
9
9
9
9
9
9
9
9
9
9
9
9
9
9
9
9
9
9
9
9
9
9
9
9
9
9
9
9
9
9
9
9
9
9
9
9
9
9
9
9
9
9
9
9
9
9
9
9
9
9
9
9
9
9
9
9
9
9
9
9
9
9
9
9
9
9
9
9
9
9
9
9
9
9
9
9
9
9
9
9
9
9
9
9
9
9
9
9
9
9
9
9
9
9
9
9
9
9
9
9
9
9
9
9
9
9
9
9
9
9
9
9
9
9
9
9
9
9
9
9
9
9
9
9
9
9
9
9
9
9
9
9
9
9
9
9
9
9
9
9
9
9
9
9
9
9
9
9
9
9
9
9
9
9
9
9
9
9
9
9
9
9
9
9
9
9
9
9
9
9
9
9
9
9
9
9
9
9
9
9
9
9
9
9
9
9
9
9
9
9
9
9
9
9
9
9
9
9
9
9
9
9
9
9
9
9
9
9
9
9
9
9
9
9
9
9
9
9
9
9
9
9
9
9
9
9
9
9
9
9
9
9
9
9
9
9
9
9
POINT_DATA 861
SCALARS Disp float 2
LOOKUP_TABLE default
0.0 0.0
0.005107297504584754 -0.18708933841130274
0.0062710839407568685 -0.3659491454800996
0.007022285221445 -0.5439400797885828
0.007952758596962473 -0.7216108661686573
0.00934971249119783 -0.8986483318210177
0.011667019004831594 -1.0746469427607475
0.015428283928130487 -1.2491069478540424
0.021239858847368003 -1.4214093839918016
0.0297581782819693 -1.5907589072485944
0.04164793385055358 -1.7560893462621106
0.05756833900961256 -1.9159935572606202
0.07817066071683222 -2.068722662282146
0.10409052507341829 -2.2122575006274787
0.13594815968273824 -2.3443701590977626
0.17428192678216758 -2.462670134062437
0.21942233143494727 -2.5646567535825935
0.2713326056371528 -2.647806766388458
0.3294638650570875 -2.709742183796206
0.3926833500943828 -2.7484668251072457
0.4591555652835928 -2.7626049176795395
0.525627780472799 -2.748466825107163
0.5888472655100824 -2.709742183796037
0.6469785249299955 -2.6478067663882143
0.6988887991321737 -2.5646567535822875
0.7440292037849247 -2.462670134062089
0.7823629708843252 -2.34437015909738
0.814220605493616 -2.2122575006270733
0.8401404698501712 -2.068722662281729
0.860742791557362 -1.915993557260207
0.8766631967163956 -1.7560893462617109
0.8885529522849588 -1.5907589072482176
0.8970712717195435 -1.4214093839914528
0.9028828466387686 -1.2491069478537273
0.9066441115620587 -1.0746469427604683
0.908961418075687 -0.8986483318207805
0.9103583719699201 -0.7216108661684626
0.9112888453454369 -0.5439400797884326
0.9120400466261249 -0.36594914547999324
0.9132038330622958 -0.18708933841124284
0.9183111305668773 0.0
0.046672997517242486 -0.0021691931793934075
0.050184933645370994 -0.18728886527053104
0.050806882761022513 -0.366010209202222
0.05147769210000643 -0.5440242898594939
0.05230251607908994 -0.7217320440895512
0.05350191189509358 -0.8988958443839585
0.055504643634889404 -1.0751403197391014
0.058806826902091394 -1.2499856509448535
0.06397849165403009 -1.422828278582281
0.07161859317725712 -1.5928746527307052
0.08231925019541973 -1.7590555985869514
0.09665398069820293 -1.9199619397448884
0.1151925529797421 -2.0738448798261215
0.13851549343459602 -2.218684877159298
0.16719190979204906 -2.352246922036784
0.20172544458215086 -2.472109750849285
0.24243600419865136 -2.575705953353819
0.28931621956108106 -2.6604076503636036
0.3419006111816935 -2.7237021476886274
0.3991402505543039 -2.76343897717284
0.45915556528358265 -2.777988173342148
0.5191708800128575 -2.7634389771727554
0.5764105193854567 -2.7237021476884546
0.6289949110060504 -2.6604076503633545
0.6758751263684566 -2.5757059533535065
0.7165856859849314 -2.47210975084893
0.7511192207750071 -2.3522469220363944
0.7797956371324337 -2.218684877158885
0.8031185775872601 -2.073844879825698
0.8216571498687736 -1.9199619397444687
0.8359918803715337 -1.7590555985865461
0.8466925373896772 -1.592874652730324
0.854332638912889 -1.422828278581929
0.8595043036648166 -1.2499856509445362
0.8628064869320106 -1.075140319738821
0.8648092186718018 -0.8988958443837207
0.8660086144878035 -0.7217320440893562
0.8668334384668865 -0.5440242898593437
0.8675042478058704 -0.3660102092021157
0.8681261969215219 -0.18728886527047084
0.8716381330496453 -0.002169193179390998
0.09245484749658656 -0.003876410746425476
0.09500331360343953 -0.18738546893795618
0.09536323026392325 -0.36604585325460665
0.09591173056521385 -0.5440991169674723
0.09663877042255685 -0.7218312803998308
0.0976609935984141 -0.8990921321822521
0.09935402642864025 -1.0755477763354984
0.10219855997091216 -1.2507362847423475
0.10671979831077223 -1.4240663471012398
0.11346227792572834 -1.5947418801129982
0.12294861092009284 -1.761686999972215
0.1356749618256532 -1.9234884733066782
0.15213241464828145 -2.0784001042861995
0.17283173468130159 -2.2244070118669454
0.19829515193382788 -2.3592688980345304
0.2289882448031517 -2.4805387650366484
0.26522664762392617 -2.585591817960281
0.30704904148864304 -2.671707827922048
0.35407611851852017 -2.736248985481948
0.40533436305730475 -2.776891390323263
0.4591555652835729 -2.7918173793345513
0.5129767675098373 -2.7768913903231764
0.5642350120486116 -2.7362489854817715
0.6112620890784721 -2.6717078279217934
0.6530844829431688 -2.5855918179599633
0.6893228857639203 -2.480538765036287
0.720015978633221 -2.3592688980341348
0.7454793958857235 -2.2244070118665262
0.7661787159187193 -2.07840010428577
0.7826361687413251 -1.923488473306253
0.7953625196468644 -1.7616869999718048
0.8048488526412122 -1.5947418801126132
0.8115913322561545 -1.4240663471008848
0.8161125705960046 -1.250736284742028
0.8189571041382695 -1.0755477763352166
0.8206501369684918 -0.8990921321820139
0.8216723601443475 -0.7218312803996357
0.8223994000016903 -0.5440991169673223
0.822947900302981 -0.36604585325450045
0.8233078169634647 -0.18738546893789562
0.8258562830703127 -0.003876410746420528
0.1377703067962832 -0.005242534603631425
0.13967802513295097 -0.18745072997687728
0.13989860299470236 -0.36606591257672105
0.14032813660236523 -0.5441607759529027
0.14095593473606044 -0.7219151133095022
0.1418232425668117 -0.899243853203914
0.1432238864883499 -1.0758719430425467
0.145614180611338 -1.2513601323732397
0.14948117901940894 -1.4251217722357408
0.15531418235469738 -1.596357032534733
0.16357034297676348 -1.7639793313121546
0.17467195774257818 -1.9265702280731454
0.18903583167936197 -2.082386004752543
0.20710141864891016 -2.2294192774724313
0.22932888986662722 -2.365429483880779
0.25615254247826397 -2.4879491442530077
0.2878867321562058 -2.5943065866813826
0.32461683999207896 -2.681702256066839
0.366055307039981 -2.7473785642739634
0.41137741712956233 -2.788853394551753
0.45915556528356344 -2.8041583939785704
0.5069337134375609 -2.7888533945516656
0.552255823527133 -2.747378564273784
0.5936942905750204 -2.6817022560665804
0.6304243984108759 -2.59430658668106
0.6621585880887978 -2.487949144252641
0.6889822407004141 -2.3654294838803778
0.7112097119181101 -2.2294192774720067
0.7292752988876373 -2.082386004752108
0.7436391728244015 -1.9265702280727148
0.7547407875901979 -1.7639793313117402
0.7629969482122491 -1.5963570325343444
0.7688299515475254 -1.4251217722353828
0.7726969499555876 -1.2513601323729182
0.7750872440785697 -1.0758719430422639
0.7764878880001048 -0.8992438532036754
0.7773551958308551 -0.7219151133093069
0.77798299396455 -0.5441607759527528
0.7784125275722129 -0.3660659125766149
0.7786331054339644 -0.1874507299768164
0.7805408237706277 -0.005242534603624176
0.18281753190742295 -0.006341627382776506
0.1842520405968029 -0.18750301321365584
0.18439622907304518 -0.36607742351477596
0.18472445132010745 -0.544208738407601
0.18525138046324044 -0.7219858719313853
0.18598005664388642 -0.8993613600982451
0.18712000342863702 -1.076119354240973
0.18906414591729 -1.2518594736697966
0.19228025280777694 -1.425995193772168
0.19719975269789003 -1.5977187546920228
0.20421776241358797 -1.7659309697712056
0.2136876078208862 -1.929205694257271
0.22595146053731344 -2.0858018373463567
0.2413774479557171 -2.233720944433384
0.26036665299962525 -2.3707255854482896
0.28330649193165636 -2.4943357285126146
0.31050919547247335 -2.6018433982912867
0.34210909453595884 -2.6903822957639942
0.3779284746386624 -2.7570900500401985
0.4173342319399237 -2.799346273587198
0.4591555652835541 -2.8150484978315222
0.5009768986271813 -2.799346273587109
0.540382655928434 -2.7570900500400164
0.576202036031125 -2.690382295763731
0.607801935094595 -2.60184339829096
0.635004638635395 -2.4943357285122434
0.6579444775674085 -2.370725585447884
0.6769336826112984 -2.2337209444329544
0.6923596700296842 -2.0858018373459175
0.7046235227460945 -1.9292056942568363
0.7140933681533773 -1.7659309697707875
0.7211113778690623 -1.5977187546916314
0.726030877759165 -1.4259951937718078
0.7292469846496443 -1.2518594736694733
0.7311911271382926 -1.0761193542406897
0.7323310739230408 -0.8993613600980063
0.7330597501036861 -0.72198587193119
0.7335866792468188 -0.544208738407451
0.7339149014938811 -0.3660774235146698
0.7340590899701235 -0.18750301321359472
0.7354935986594998 -0.006341627382767212
0.22768691574738587 -0.0072205514809378715
0.22875509948115336 -0.18754832208154035
0.22885430184098812 -0.3660852025476932
0.2290981285633753 -0.5442440404870256
0.229523446038139 -0.722044803310409
0.2301254386547008 -0.8994526942528075
0.23103400175772493 -1.0763017193562001
0.23256572230219866 -1.2522386478361505
0.2351350406421147 -1.4266891486466997
0.23914492850256885 -1.5988282649899275
0.2449250781237177 -1.7675422567079264
0.25276285394121184 -1.9313957894796503
0.26292986167876164 -2.08864897485296
0.2757219465617271 -2.2373133898427606
0.29147370866075606 -2.3751586348300773
0.3105334836511168 -2.499697469081552
0.3331946747005136 -2.608196487223572
0.35962740883140476 -2.6977389706941146
0.38978527718442435 -2.7653793946761165
0.4232595617115903 -2.808379603124099
0.4591555652835446 -2.824509376368255
0.4950515688554963 -2.808379603124008
0.5285258533826547 -2.765379394675932
0.5586837217356636 -2.697738970693848
0.5851164558665417 -2.6081964872232413
0.6077776469159241 -2.4996974690811764
0.6268374219062697 -2.3751586348296674
0.6425891840052838 -2.237313389842327
0.6553812688882343 -2.0886489748525174
0.6655482766257701 -1.9313957894792122
0.6733860524432513 -1.7675422567075052
0.6791662020643896 -1.5988282649895331
0.6831760899248348 -1.4266891486463378
0.6857454082647447 -1.2522386478358258
0.6872771288092148 -1.0763017193559161
0.6881856919122372 -0.8994526942525685
0.6887876845287986 -0.7220448033102136
0.689213002003562 -0.5442440404868755
0.6894568287259492 -0.3660852025475872
0.689556031085784 -0.18754832208147904
0.6906242148195485 -0.0072205514809268985
0.27242684482144286 -0.007915330333188404
0.2732079953955273 -0.18758863801697387
0.27327724552214805 -0.3660917088603813
0.27344871319961644 -0.5442681145386128
0.27377326701317867 -0.7220919150261363
0.274254029540693 -0.8995236790241294
0.2749559665271916 -1.0764323669907694
0.2761143216907407 -1.2525105379655685
0.27806886005018466 -1.4272084340535225
0.28117681050067383 -1.5996891272467126
0.28572791039266293 -1.7688162322654262
0.2919414755081484 -1.933143589913227
0.30002170663463923 -2.0909313870144635
0.3101940262200009 -2.2402012922376793
0.32272715458488693 -2.378732446139074
0.3379160404349956 -2.504037249023173
0.35603672883955234 -2.613364355090986
0.37728328507805087 -2.70376381809173
0.40172598280573124 -2.772236532606143
0.4292097098501518 -2.815950654257458
0.4591555652835351 -2.8325494747684368
0.48910142071691615 -2.8159506542573656
0.5165851477613302 -2.7722365326059566
0.5410278454890017 -2.703763818091461
0.5622744017274897 -2.6133643550906527
0.5803950901320345 -2.5040372490227942
0.5955839759821308 -2.3787324461386614
0.6081171043470052 -2.240201292237243
0.6182894239323551 -2.090931387014018
0.6263696550588348 -1.933143589912786
0.6325832201743099 -1.7688162322650025
0.6371343200662906 -1.5996891272463163
0.6402422705167725 -1.427208434053159
0.6421968088762119 -1.252510537965243
0.6433551640397583 -1.0764323669904852
0.6440571010262559 -0.8995236790238904
0.6445378635537699 -0.722091915025941
0.6448624173673319 -0.5442681145384625
0.6450338850448002 -0.3660917088602753
0.6451031351714208 -0.18758863801691242
0.6458842857455032 -0.007915330333176039
0.31707016813028416 -0.008454648217088743
0.31762623767443177 -0.18762561587729354
0.3176715364952589 -0.3660974800504914
0.3177776591843522 -0.5442823533733252
0.31800348580831006 -0.7221264411675121
0.3183614577987047 -0.8995783052039827
0.3188810954107748 -1.0765220390392547
0.3197028910121986 -1.2526919636938119
0.32108932276034885 -1.4275661437322549
0.3233278299690001 -1.6003082123554924
0.32666440229593935 -1.7697586052484007
0.33126812857228344 -1.9344548637739676
0.3372803668666099 -2.092655891184549
0.3448571267202163 -2.2423925888415503
0.35419782366179325 -2.3814553213589726
0.3655420738647488 -2.507361225956233
0.3791369202843591 -2.6173494792338925
0.39518610806244203 -2.7084514046978776
0.41385764895340554 -2.777645878086791
0.4352492293136294 -2.8220430545397637
0.4591555652835252 -2.8391634592192214
0.48306190125341936 -2.82204305453967
0.5044534816136382 -2.7776458780866027
0.5231250225045948 -2.7084514046976067
0.5391742102826697 -2.6173494792335563
0.5527690567022706 -2.507361225955851
0.5641133069052164 -2.381455321358557
0.573454003846785 -2.2423925888411116
0.5810307637003829 -2.092655891184101
0.5870430019947012 -1.934454863773524
0.5916467282710375 -1.769758605247975
0.5949833005979702 -1.6003082123550947
0.5972218078066166 -1.4275661437318903
0.5986082395547634 -1.252691963693486
0.5994300351561856 -1.0765220390389703
0.5999496727682551 -0.8995783052037436
0.6003076447586493 -0.7221264411673165
0.6005334713826072 -0.5442823533731749
0.6006395940717003 -0.36609748005038545
0.6006848928925274 -0.18762561587723206
0.6012409624366735 -0.00845464821707526
0.36163604659369947 -0.00886609584316739
0.3620244090419714 -0.18766060767934925
0.36204297875751607 -0.36610178288591144
0.3620877752788233 -0.5442878391781476
0.362217987145798 -0.7221479128335471
0.3624488037130748 -0.8996171645508695
0.3627959956760057 -1.0765819034449162
0.3633240654232176 -1.2528011158834378
0.36419468638716224 -1.427783047161534
0.3656171830891256 -1.6007011917029346
0.36777554349756947 -1.7703798230237149
0.3707949607445089 -1.9353393634938552
0.37476313922479604 -2.093833049011927
0.3797758475977826 -2.2438994494007436
0.38596278859453487 -2.383339864947521
0.39349826839435714 -2.5096804630481366
0.4025919724963631 -2.6201600642340757
0.41345811397994947 -2.7118009908251133
0.42630831322728974 -2.781588422855086
0.44145769484890024 -2.8266256926450626
0.4591555652835149 -2.8443309262677707
0.47685343571812866 -2.8266256926449684
0.4920028173397359 -2.781588422854896
0.5048530165870713 -2.7118009908248406
0.5157191580706516 -2.620160064233738
0.5248128621726511 -2.509680463047753
0.532348341972467 -2.383339864947104
0.5385352829692139 -2.2438994494003035
0.5435479913421952 -2.0938330490114776
0.5475161698224771 -1.93533936349341
0.5505355870694115 -1.770379823023288
0.5526939474778512 -1.6007011917025356
0.5541164441798117 -1.427783047161169
0.5549870651437543 -1.2528011158831114
0.5555151348909653 -1.0765819034446316
0.5558623268538958 -0.8996171645506302
0.5560931434211724 -0.7221479128333516
0.5562233552881469 -0.5442878391779973
0.5562681518094541 -0.36610178288580536
0.5562867215249987 -0.18766060767928777
0.5566750839732695 -0.008866095843153064
0.40613720522302793 -0.009178220549940743
0.4064087261199431 -0.18769544787754416
0.4063970904650921 -0.3661030879241465
0.406382911053349 -0.5442853729931926
0.40642047491107197 -0.7221564633432388
0.406522491891663 -0.8996388523817175
0.40669322623137755 -1.0766176200539261
0.40695698633800487 -1.2528586764023788
0.4073732194445813 -1.427888028170698
0.40805026569940045 -1.6008962699211347
0.4090911905885425 -1.7707028105120797
0.4105719128530844 -1.935816050207247
0.4125304087688425 -2.0944807720837284
0.41501388231152503 -2.244741248056414
0.41809031657500806 -2.384406559539326
0.42186078217554623 -2.5110135949253345
0.4264825263060435 -2.6218106003991357
0.4321761588111793 -2.7138240926028394
0.4392112912075258 -2.7840520998105465
0.4479579229242405 -2.8296512825837556
0.4591555652835044 -2.8480096338303795
0.4703532076427679 -2.8296512825836606
0.47909983935948114 -2.7840520998103564
0.4861349717558244 -2.713824092602566
0.49182860426095704 -2.621810600398797
0.49645034839145097 -2.5110135949249495
0.5002208139919864 -2.384406559538907
0.5032972482554671 -2.244741248055973
0.5057807217981476 -2.094480772083278
0.5077392177139033 -1.9358160502068011
0.5092199399784431 -1.770702810511652
0.5102608648675834 -1.600896269920735
0.5109379111224013 -1.4278880281703326
0.5113541442289772 -1.252858676402052
0.511617904335604 -1.076617620053641
0.5117886386753183 -0.8996388523814782
0.5118906556559093 -0.7221564633430432
0.5119282195136322 -0.5442853729930421
0.5119140401018891 -0.3661030879240404
0.5119024044470379 -0.18769544787748266
0.5121739253439526 -0.009178220549925842
0.45058961922100416 -0.009414841606561655
0.4507788954184546 -0.18773166359333576
0.4507386512681276 -0.3661002309239448
0.4506674695260182 -0.5442754767211261
0.4506152688946442 -0.7221523485175594
0.4505890894444296 -0.8996428237492774
0.4505793608213666 -1.0766288435632603
0.4505767440636646 -1.2528773869686023
0.450576270476416 -1.427918730338374
0.4505764862074721 -1.6009475034082503
0.4505767082470482 -1.7707854356850796
0.45057655382702366 -1.9359390654933126
0.4505730615929261 -2.0946497525915113
0.4505624665888873 -2.244966241885589
0.45054796001675174 -2.384702348879145
0.45056344484555516 -2.5114040818937338
0.4507148854329237 -2.6223384143240027
0.4512334918831837 -2.7145553494339425
0.45247732647158323 -2.7850695518220734
0.45485253701167233 -2.831083837960106
0.45915556528349344 -2.8501352630729833
0.46345859355531493 -2.8310838379600116
0.46583380409540365 -2.785069551821883
0.46707763868380214 -2.714555349433668
0.4675962451340621 -2.6223384143236634
0.4677476857214313 -2.5114040818933483
0.4677631705502352 -2.3847023488787262
0.4677486639781004 -2.2449662418851477
0.4677380689740628 -2.0946497525910606
0.4677345767399661 -1.9359390654928663
0.4677344223199425 -1.7707854356846517
0.4677346443595192 -1.6009475034078506
0.46773486009057563 -1.4279187303380085
0.4677343865033274 -1.2528773869682754
0.46773176974562547 -1.0766288435629752
0.46772204112256255 -0.8996428237490381
0.46769586167234795 -0.722152348517364
0.46764366104097405 -0.5442754767209758
0.46757247929886453 -0.3661002309238387
0.4675322351485376 -0.18773166359327428
0.46772151134598766 -0.009414841606546391
0.4950043671032857 -0.009597462597223076
0.4951375037802214 -0.1877675300361372
0.49507146208808167 -0.36609335942754434
0.49494613033804535 -0.5442583626600181
0.49480694563327454 -0.7221360247111922
0.4946546990631808 -0.8996290930858791
0.49446546044962686 -1.0766149766738962
0.49419618741408516 -1.2528581521902338
0.49377916574218944 -1.4278880517330161
0.49310266657502194 -1.6008963215507621
0.49206264035596053 -1.770702957369759
0.4905813104510868 -1.9358153356892287
0.48861497354489036 -2.0944777021945415
0.4861101239960187 -2.244735025752399
0.48300625681932957 -2.3844038441175446
0.47926934636129154 -2.5110428172356394
0.4749440034712063 -2.6219433835062786
0.4702235214267981 -2.714193212493255
0.46547846090801487 -2.7848211923248725
0.4612693645778483 -2.831036368663067
0.4591555652834826 -2.8508207152619787
0.45704176598911633 -2.831036368662972
0.45283266965894986 -2.784821192324682
0.448087609140169 -2.714193212492981
0.4433671270957648 -2.6219433835059407
0.43904178420568435 -2.511042817235255
0.43530487374764987 -2.3844038441171262
0.43220100657096433 -2.2447350257519583
0.42969615702209724 -2.0944777021940917
0.4277298201159049 -1.9358153356887828
0.42624849021103517 -1.7707029573693314
0.42520846399197687 -1.6008963215503629
0.42453196482481137 -1.4278880517326509
0.42411494315291676 -1.252858152189907
0.42384567011737573 -1.0766149766736108
0.42365643150382215 -0.8996290930856398
0.42350418493372854 -0.7221360247109967
0.42336500022895784 -0.5442583626598678
0.42323966847892164 -0.36609335942743815
0.42317362678678183 -0.18776753003607577
0.4233067634637175 -0.009597462597207581
0.5393964997131031 -0.009738102299940021
0.5394891092444266 -0.1878010594020026
0.5393998182403611 -0.3660828027307198
0.5392235860617351 -0.5442343351882767
0.5390008151613374 -0.7221080919895346
0.5387254997832465 -0.8995979823238468
0.5383612298699986 -1.076576655735832
0.537828412713834 -1.2528000485663333
0.5369573392417226 -1.4277831256045512
0.5355360773889232 -1.6007014670702202
0.5333784628335435 -1.7703799714106174
0.5303577367124374 -1.9353376228756125
0.5263824885338448 -2.093826473522686
0.5213513247091602 -2.2438866708823193
0.5151405238494676 -2.38333442192837
0.5076362382126113 -2.509739807929235
0.49881396163702 -2.620424803495826
0.4888244358344715 -2.7125240006920794
0.4780728831723396 -2.7831222324124436
0.46752693375767124 -2.8296076433186714
0.459155565283472 -2.8502285719088176
0.45078419680927234 -2.8296076433185764
0.44023824739460554 -2.783122232412254
0.42948669473247797 -2.7125240006918063
0.4194971689299364 -2.6204248034954896
0.4106748923543533 -2.5097398079288515
0.40317060671750393 -2.3833344219279526
0.39695980585781826 -2.2438866708818805
0.39192864203314104 -2.0938264735222374
0.38795339385455585 -1.935337622875168
0.38493266773345663 -1.7703799714101913
0.38277505317808247 -1.6007014670698216
0.38135379132528713 -1.4277831256041864
0.38048271785317794 -1.252800048566007
0.3799499006970146 -1.0765766557355472
0.3795856307837673 -0.8995979823236074
0.3793103154056767 -0.7221080919893393
0.3790875445052792 -0.5442343351881264
0.3789113123266533 -0.3660828027306135
0.37882202132258785 -0.18780105940194117
0.3789146308539112 -0.009738102299924318
0.5837804663202633 -0.009843098867211186
0.5838392807047745 -0.18783067651592886
0.583728537110157 -0.3660687677195276
0.5835046772466372 -0.5442038184798735
0.5832019849330706 -0.7220691960811719
0.5828084467240883 -0.8995506106597723
0.5822742543921086 -1.076513976377696
0.5814481544074219 -1.25269040211701
0.5800629673002909 -1.4275665243376006
0.5778259444466539 -1.6003087600925383
0.5744894529419664 -1.7697585712541806
0.5698839078665962 -1.9344521235290661
0.5638670060594454 -2.0926466322564514
0.5562800112431484 -2.2423749207777064
0.5469264415559982 -2.381448024503057
0.5356074180005891 -2.5074456391010203
0.5222127106289292 -2.6177246291579612
0.5068536976014543 -2.709481133560206
0.49008727725080886 -2.7799239037631542
0.4732520692461908 -2.826654845252805
0.4591555652834615 -2.84838202814454
0.4450590613207327 -2.82665484525271
0.42822385331611734 -2.7799239037629655
0.41145743296547826 -2.7094811335599345
0.39609841993801315 -2.6177246291576273
0.3827037125663643 -2.5074456391006392
0.3713846890109654 -2.381448024502642
0.36203111932382503 -2.2423749207772694
0.3544441245075386 -2.092646632256005
0.3484272227003982 -1.9344521235286238
0.34382167762503746 -1.7697585712537562
0.34048518612035805 -1.6003087600921408
0.33824816326672696 -1.4275665243372362
0.33686297615959976 -1.2526904021166838
0.3360368761749152 -1.0765139763774112
0.33550268384293636 -0.899550610659533
0.33510914563395444 -0.7220691960809765
0.334806453320388 -0.5442038184797233
0.3345825934568684 -0.3660687677194214
0.334471849862251 -0.18783067651586743
0.3345306642467622 -0.00984309886719533
0.6281651321909208 -0.009917890378719018
0.6281942467275471 -0.18785500345635997
0.6280626018239331 -0.3660513112921894
0.62779395709885 -0.5441672758398638
0.6274149818137328 -0.7220202292431515
0.6269105144925271 -0.8994882711728398
0.6261959755032724 -1.0764213077505
0.6250365773271607 -1.2525089774150395
0.6230842357146389 -1.4272093515109585
0.6199773864481474 -1.5996898140937936
0.6154254362884598 -1.768815799373537
0.6092099042444143 -1.9331400508324528
0.6011287329372884 -2.0909210546869055
0.590959258300827 -2.2401823546718687
0.578432886320459 -2.3787257833922664
0.5632620090707724 -2.5041371407669137
0.5452405470945915 -2.6138124582133373
0.5244685542337638 -2.7050427779646538
0.5016814317726088 -2.775214668547068
0.4787046757123455 -2.8222333984030588
0.45915556528345125 -2.845341710080509
0.43960645485455824 -2.8222333984029646
0.4166296987942995 -2.77521466854688
0.3938425763331527 -2.705042777964384
0.373070583472337 -2.613812458213006
0.3550491214961696 -2.5041371407665354
0.33987824424649643 -2.3787257833918534
0.32735187226614154 -2.2401823546714343
0.3171823976296936 -2.0909210546864623
0.3091012263225809 -1.9331400508320131
0.3028856942785476 -1.7688157993731155
0.2983337441188707 -1.5996898140933984
0.29522689485238696 -1.4272093515105952
0.2932745532398704 -1.2525089774147138
0.29211515506376173 -1.0764213077502154
0.29140061607450835 -0.8994882711726008
0.29089614875330316 -0.7220202292429561
0.29051717346818634 -0.5441672758397137
0.29024852874310325 -0.3660513112920832
0.2901168838394896 -0.18785500345629855
0.29014599837611565 -0.009917890378703052
0.6725566428300084 -0.009967543928390023
0.6725596256592001 -0.1878730896965313
0.6724072417191566 -0.36603036455295745
0.672096287790809 -0.5441251364400223
0.6716458290080752 -0.7219624655340056
0.6710332819845808 -0.8994107310331311
0.6701170419767409 -1.0762883454621388
0.668586072314164 -1.2522376350622584
0.66601915892272 -1.426690590909236
0.6620094427939729 -1.5988288663973693
0.6562277097794439 -1.76754127539026
0.6483882306876247 -1.9313917983179327
0.6382248906775672 -2.0886396665602547
0.6254509828651728 -2.237298206010181
0.6097307597326433 -2.3751567786964563
0.5906883736102164 -2.4998021895557003
0.5680368709412628 -2.608677759850001
0.5418675667042165 -2.699202669438758
0.5131100833117276 -2.7690062799466
0.4840979250213379 -2.816379139548876
0.4591555652834412 -2.8411253263700904
0.43421320554554643 -2.8163791395487827
0.4052010472551628 -2.769006279946414
0.37644356386268446 -2.6992026694384914
0.35027425962565206 -2.608677759849673
0.3276227569567144 -2.499802189555326
0.308580370834304 -2.3751567786960472
0.2928601477017909 -2.23729820600975
0.28008623988941284 -2.088639666559815
0.2699228998793712 -1.9313917983174966
0.262083420787567 -1.7675412753898416
0.25630168777305073 -1.5988288663969765
0.25229197164431344 -1.4266905909088745
0.24972505825287622 -1.2522376350619338
0.24819408859030342 -1.0762883454618548
0.2472778485824655 -0.8994107310328919
0.24666530155897173 -0.7219624655338103
0.24621484277623829 -0.544125136439872
0.24590388884789105 -0.36603036455285115
0.24575150490784753 -0.18787308969646987
0.24575448773703937 -0.00996754392837399
0.7169593863188873 -0.009996979152940061
0.7169402069774697 -0.18788446717958893
0.7167676834365453 -0.366005800732166
0.7164166084999151 -0.5440779185117803
0.7158984197101326 -0.7218968007089679
0.7151727249389787 -0.8993142598642901
0.71403187916822 -1.076104695446022
0.7120898818484118 -1.2518592110624802
0.7088748873244539 -1.425996911329904
0.7039545034513254 -1.5977190491441613
0.6969344556704534 -1.7659293952326978
0.6874639748187168 -1.9292017803556358
0.6752089163675153 -2.085795751134403
0.6598147909099412 -2.2337146218042734
0.6408810988252288 -2.370734119843055
0.617976465879189 -2.494440160743509
0.590742096099801 -2.602326369241717
0.559250912624572 -2.69197149253814
0.5246070487948167 -2.761313851480762
0.4895834586607093 -2.809095989711853
0.45915556528343127 -2.835710945661188
0.4287276719061558 -2.80909598971176
0.39370408177205607 -2.761313851480578
0.3590602179423135 -2.6919714925378773
0.3275690344671007 -2.602326369241393
0.3003346646877313 -2.4944401607431392
0.2774300317417106 -2.3707341198426506
0.2584963396570175 -2.233714621803847
0.24310221419946285 -2.0857957511339684
0.23084715574827994 -1.929201780355204
0.22137667489656096 -1.765929395232283
0.2143566271157037 -1.5977190491437716
0.20943624324258683 -1.4259969113295445
0.20622124871863745 -1.251859211062157
0.2042792513988345 -1.0761046954457385
0.20313840562807833 -0.8993142598640512
0.2024127108569254 -0.7218968007087725
0.20189452206714328 -0.54407791851163
0.20154344713051336 -0.3660058007320597
0.20137092358958922 -0.1878844671795275
0.20135174424817154 -0.00999697915292398
0.7613762089041953 -0.010011126232560646
0.761339915434331 -0.18788913772109703
0.7611491615919472 -0.3659775982992424
0.7607600524735249 -0.5440260885569743
0.7601758826652799 -0.7218236164065368
0.7593265686276347 -0.8991942254215526
0.7579317755353733 -1.0758573271640524
0.7555425534407011 -1.2513602368730699
0.7516746269559058 -1.4251233916491926
0.745839675050873 -1.596356847231608
0.7375814925782979 -1.76397727455602
0.7264811664366001 -1.9265671356371268
0.7121313012288902 -2.082385087923503
0.6941069834324857 -2.229425636164056
0.671952808532301 -2.36545468901486
0.6452017862354462 -2.488058704609038
0.6134791746425745 -2.5947810004972514
0.5768233698329114 -2.683377065633886
0.5363993347545003 -2.752147256525991
0.49530229873180887 -2.8003569193796833
0.4591555652834216 -2.829042717219659
0.423008831835037 -2.800356919379592
0.38191179581235474 -2.7521472565258094
0.3414877607339586 -2.6833770656336267
0.304831955924314 -2.594781000496932
0.2731093443314636 -2.488058704608673
0.24635832203463084 -2.3654546890144608
0.2242041471344684 -2.2294256361636346
0.20617982933808612 -2.0823850879230736
0.19182996413039768 -1.9265671356366998
0.18072963798872002 -1.7639772745556095
0.1724714555161617 -1.5963568472312217
0.16663650361114227 -1.425123391648836
0.1627685771263569 -1.2513602368727483
0.16037935503169118 -1.07585732716377
0.15898456193943306 -0.899194225421314
0.15813524790178904 -0.7218236164063416
0.15755107809354457 -0.5440260885568241
0.15716196897512252 -0.3659775982991362
0.15697121513273898 -0.18788913772103555
0.1569349216628747 -0.010011126232544555
0.8058082088088193 -0.010015002698194053
0.8057617420099479 -0.18788764207381098
0.8055572340975264 -0.3659459317775056
0.8051319312099526 -0.543970173296268
0.804480021767258 -0.721741546397514
0.8034902132618744 -0.8990436907598877
0.8018068874011901 -1.075533687271692
0.7989609145639066 -1.2507360310745026
0.7944362962546702 -1.4240674598098824
0.7876910529540598 -1.594741118192793
0.778203157100112 -1.7616847330113168
0.7654806751632246 -1.9234871026947395
0.749042003972964 -2.078405860782674
0.7283891565411333 -2.2244281380637108
0.7030091971541047 -2.359316279914207
0.6724346181996409 -2.480669430336446
0.6363408953213308 -2.586081799423112
0.5947669562132389 -2.6734674432206424
0.5487270212995927 -2.7415140462922043
0.5014376780585895 -2.7901037027035325
0.4591555652834115 -2.821022722200325
0.4168734525082368 -2.7901037027034423
0.36958410926724455 -2.741514046292026
0.32354417435361554 -2.673467443220387
0.28197023524554493 -2.586081799422798
0.2458765123672587 -2.4806694303360866
0.2153019334128198 -2.3593162799138128
0.18992197402581618 -2.224428138063295
0.16926912659401075 -2.0784058607822504
0.15283045540377443 -1.923487102694318
0.1401079734669093 -1.7616847330109107
0.13062007761298045 -1.5947411181924105
0.12387483431238515 -1.4240674598095286
0.11935021600315997 -1.2507360310741829
0.11650424316588409 -1.0755336872714107
0.11482091730520394 -0.8990436907596494
0.11383110879982214 -0.7217415463973188
0.11317919935712784 -0.5439701732961177
0.11275389646955453 -0.3659459317773994
0.11254938855713321 -0.18788764207374953
0.11250292175826192 -0.010015002698177964
0.8502540810228397 -0.010013707935223068
0.8502076626311824 -0.1878812475093008
0.8499983073306513 -0.3659114147643064
0.8495379555578602 -0.5439101996988653
0.8488105797414838 -0.721648295093628
0.8476545040477074 -0.8988516777579365
0.8456621644242399 -1.0751264623737424
0.8423547907891622 -1.2499841845989135
0.8371777233460472 -1.4228285254897293
0.8295342590122761 -1.5928732880172574
0.8188327939901298 -1.7590535062785382
0.8045047292376607 -1.9199632282312467
0.785988978292162 -2.0738583741812064
0.7627152049697529 -2.2187216226131143
0.7341286277618091 -2.352320725067874
0.6997594080354518 -2.4722829049830204
0.6593713519846873 -2.576268843986708
0.613143379581036 -2.66232640460704
0.5619315262525939 -2.729447073264011
0.5082954170771357 -2.778235305887344
0.45915556528340107 -2.8114843383106787
0.4100157134896709 -2.778235305887256
0.35637960431422505 -2.729447073263836
0.30516775098580246 -2.66232640460679
0.25893977858217554 -2.5762688439863997
0.2185517225314377 -2.472282904982668
0.18418250280510798 -2.3523207250674862
0.15559592559719243 -2.2187216226127053
0.13232215227481164 -2.073858374180789
0.11380640132933977 -1.9199632282308312
0.09947833657689538 -1.7590535062781374
0.08877687155477007 -1.592873288016879
0.08113340722101535 -1.422828525489379
0.07595633977791304 -1.2499841845985964
0.07264896614284382 -1.0751264623734624
0.07065662651938141 -0.898851677757699
0.06950055082560723 -0.7216482950934329
0.06877317500923148 -0.5439101996987151
0.06831282323644074 -0.3659114147642002
0.0681034679359098 -0.18788124750923932
0.06805704954425261 -0.010013707935206987
0.8947087738520993 -0.010012247059637281
0.8946785857050916 -0.18787246981063438
0.8944806976169614 -0.365875252755642
0.8939841286112371 -0.5438453072796197
0.8931635285169273 -0.7215380797431067
0.8918155659708612 -0.8986105668165808
0.8895045586346212 -1.0746321062648798
0.8857349864626777 -1.2491037055609375
0.8799165246863366 -1.421408466819135
0.8713943568770574 -1.5907569569600692
0.8595046917788812 -1.7560878458799225
0.8435934207556066 -1.9159983471779616
0.8230172302109876 -2.0687446873989983
0.7971491779881534 -2.2123104102227242
0.7653897280750297 -2.3444745444006463
0.7272688456650807 -2.4629081725881665
0.6826311506802075 -2.565364556918288
0.6318629127720643 -2.650034722796686
0.5760571423017548 -2.7161159777960955
0.5169814269651606 -2.7646461746705464
0.4591555652833905 -2.799999999999998
0.4013297036016253 -2.7646461746704607
0.34225398826504483 -2.7161159777959245
0.28644821779475815 -2.650034722796441
0.23567997988664266 -2.5653645569179875
0.1910422849017989 -2.4629081725878206
0.15292140249188013 -2.344474544400266
0.12116195257878809 -2.2123104102223223
0.09529390035598508 -2.068744687398588
0.07471770981139533 -1.9159983471775528
0.05880643878814806 -1.7560878458795273
0.04691677368999472 -1.5907569569596958
0.038394605880733366 -1.4214084668187883
0.03257614410440612 -1.2491037055606231
0.028806571932471953 -1.0746321062646016
0.026495564596237926 -0.8986105668163441
0.025147602050174703 -0.7215380797429117
0.02432700195586568 -0.5438453072794693
0.02383043295014182 -0.3658752527555358
0.023632544862011804 -0.1878724698105729
0.02360235671500412 -0.010012247059621202
SCALARS Stress float 6
LOOKUP_TABLE default
-1117.2020758753608 -1908.6159026131727 -1436.026037747552 -17.560057386303015 0.0 0.0
1265.5487676574733 736.0904147831125 920.1539843908797 -23.710490788436008 0.0 0.0
558.7704388261005 121.43024641906908 211.34802718063705 -37.958150326255044 0.0 0.0
463.1829604986972 19.83578364793042 146.97756142647737 -2.8158182730003984 0.0 0.0
575.1092073986558 59.09486125573662 214.54837047155652 0.9870069068081344 0.0 0.0
672.3842409761194 97.35425035173589 314.11144888627274 1.3896712971891398 0.0 0.0
780.9064707890877 133.18777084347718 418.1280146816171 0.6948158321791653 0.0 0.0
888.420928494223 184.49290595829476 516.5956130767428 -0.3954455124981393 0.0 0.0
1001.9415380102125 247.86717053917243 611.902310202563 -1.7234071605308974 0.0 0.0
1129.0886841336226 329.23229235054583 717.998489952738 -3.1592186269741056 0.0 0.0
1274.64981971393 432.65337123940975 842.7856396187271 -4.582804696825448 0.0 0.0
1438.6887560482548 558.5734854608169 987.5296285745276 -5.818577500745121 0.0 0.0
1616.9619906594512 700.9339548973658 1147.382624445464 -6.602916397155979 0.0 0.0
1803.6435343747055 853.7655805340105 1316.6450796861989 -7.242456057325056 0.0 0.0
1990.3412338146072 1008.5779088168741 1486.8922302292212 -7.686087659168269 0.0 0.0
2167.8464845685403 1156.3734139393407 1649.0535123839504 -7.902744455744201 0.0 0.0
2327.2143233654865 1288.8800379868048 1794.581066884263 -7.752284284659968 0.0 0.0
2459.1859797828106 1397.6668268100766 1914.6858315175077 -7.0993716375878595 0.0 0.0
2559.5182147579 1479.3699396733318 2005.5076692300333 -5.969357996631082 0.0 0.0
2616.7622734016004 1523.6166701277593 2056.17337006833 -6.274234421686874 0.0 0.0
2610.2455560363596 1514.882862405856 2048.862255024823 1.234568003383174e-12 0.0 0.0
2616.7622734007014 1523.6166701268671 2056.173370067628 6.274234421678091 0.0 0.0
2559.5182147568967 1479.3699396723773 2005.5076692291707 5.969357996505021 0.0 0.0
2459.1859797809384 1397.6668268082854 1914.6858315160794 7.0993716375741975 0.0 0.0
2327.2143233650095 1288.8800379864217 1794.5810668837037 7.752284284714223 0.0 0.0
2167.846484569114 1156.3734139400706 1649.053512384075 7.902744455728278 0.0 0.0
1990.3412338136004 1008.5779088159983 1486.8922302283001 7.6860876592043486 0.0 0.0
1803.643534374816 853.765580534312 1316.6450796860715 7.242456057229594 0.0 0.0
1616.9619906572282 700.9339548953133 1147.3826244437298 6.602916397189933 0.0 0.0
1438.6887560477053 558.573485460489 987.5296285740017 5.818577500787857 0.0 0.0
1274.6498197140754 432.65337123980134 842.7856396186013 4.582804696708049 0.0 0.0
1129.0886841333395 329.23229235052213 717.9984899523898 3.1592186270202944 0.0 0.0
1001.9415380089563 247.8671705381497 611.9023102016245 1.7234071604279393 0.0 0.0
888.4209284934244 184.49290595776634 516.595613076089 0.3954455125621852 0.0 0.0
780.9064707882677 133.18777084290616 418.1280146809126 -0.694815832291555 0.0 0.0
672.3842409752739 97.35425035110521 314.11144888555975 -1.3896712970975695 0.0 0.0
575.1092073983754 59.09486125575719 214.54837047134143 -0.9870069068684 0.0 0.0
463.1829604983828 19.835783647751402 146.9775614263332 2.8158182730741075 0.0 0.0
558.7704388256441 121.4302464186502 211.34802718033484 37.95815032607863 0.0 0.0
1265.5487676570795 736.0904147827467 920.1539843903533 23.71049078847787 0.0 0.0
-1117.2020758726883 -1908.615902610547 -1436.0260377449158 17.560057385676235 0.0 0.0
-1423.448856761587 -2184.878434150458 -1692.779414990985 -17.512253644241483 0.0 0.0
859.552626588252 409.51212396414417 574.2872101764564 -33.52033568074784 0.0 0.0
388.10082222590006 48.66217269370388 129.4416029600054 -31.539962594563704 0.0 0.0
410.2901314368432 2.557507911988566 124.33023721965644 -16.276559973951066 0.0 0.0
512.4781868564914 25.6944530563773 175.92915408256493 -15.405523148296188 0.0 0.0
604.6646100093359 35.37638873578989 251.78782054340508 -19.735017464949372 0.0 0.0
681.839156616548 48.70326541956618 332.9455204604665 -21.946106658348707 0.0 0.0
756.9397743018478 65.81352799089537 400.0594889071874 -22.656674745783224 0.0 0.0
827.2123762454866 85.21844799493633 452.5153241421134 -22.996775592161846 0.0 0.0
896.1795673081856 108.56523892175431 500.79712112923 -23.38448699348622 0.0 0.0
965.8896779009684 136.7725583828822 550.3206890451094 -23.520571613376617 0.0 0.0
1036.96142436594 169.29639871073235 602.2663019804012 -23.36272112779207 0.0 0.0
1108.1048677918018 205.69776145643908 656.0378208655166 -22.87101453914636 0.0 0.0
1176.8543071159988 240.97143364889666 707.9941682600986 -22.263095624891452 0.0 0.0
1237.1252823807285 269.7738696485973 752.472973271688 -21.59884476209679 0.0 0.0
1284.003759147356 287.3358042619909 784.6420051904498 -20.677026374827125 0.0 0.0
1314.1968939773792 290.8942842840468 801.4822393492218 -19.249495755667663 0.0 0.0
1327.8300813675187 281.3696071082871 803.5258419510363 -17.174831487509596 0.0 0.0
1323.8869571054495 258.77065818543895 790.3575411172732 -14.657089476941476 0.0 0.0
1280.0481424421737 202.12608213559488 740.7590490612026 -13.235928841970054 0.0 0.0
1202.2498723783278 122.54467628156121 663.1947254060449 -8.919087690628658e-12 0.0 0.0
1280.0481424421982 202.12608213565073 740.7590490612115 13.235928841990503 0.0 0.0
1323.8869571055902 258.77065818562573 790.357541117375 14.657089476860293 0.0 0.0
1327.8300813673245 281.3696071081976 803.5258419508609 17.174831487538036 0.0 0.0
1314.1968939771668 290.894284283894 801.4822393491228 19.24949575567542 0.0 0.0
1284.003759147721 287.33580426247994 784.64200519062 20.677026374741782 0.0 0.0
1237.1252823804914 269.7738696484838 752.4729732714493 21.598844762045132 0.0 0.0
1176.8543071163876 240.97143364946405 707.9941682603592 22.263095624777975 0.0 0.0
1108.104867789903 205.69776145469396 656.0378208642302 22.871014539114007 0.0 0.0
1036.9614243655933 169.2963987106184 602.2663019802059 23.362721127881716 0.0 0.0
965.8896779015139 136.7725583836475 550.3206890454217 23.520571613283856 0.0 0.0
896.1795673077916 108.565238921596 500.79712112895805 23.384486993480525 0.0 0.0
827.2123762453655 85.21844799506673 452.51532414195543 22.99677559207276 0.0 0.0
756.9397743010747 65.81352799040083 400.0594889066447 22.65667474581761 0.0 0.0
681.8391566161167 48.70326541940886 332.9455204600485 21.946106658350658 0.0 0.0
604.6646100088777 35.3763887356217 251.78782054298864 19.735017464990165 0.0 0.0
512.4781868561753 25.69445305638873 175.9291540823864 15.40552314827109 0.0 0.0
410.2901314364736 2.5575079116369537 124.33023721945855 16.276559974029247 0.0 0.0
388.1008222257586 48.6621726934672 129.44160295989983 31.53996259450059 0.0 0.0
859.552626587775 409.51212396374984 574.2872101758678 33.52033568068644 0.0 0.0
-1423.4488567596504 -2184.8784341484784 -1692.7794149889262 17.512253643658447 0.0 0.0
-1176.1571644378655 -1903.2602503430849 -1418.3535122478588 -56.040675694092734 0.0 0.0
663.8571865161065 318.36931153621964 430.85096566748075 -100.45222751935628 0.0 0.0
273.58109665995005 56.03604146345345 98.88502673787927 -33.34295246276627 0.0 0.0
351.14311228666554 -0.23800272549714263 105.0922560628157 -37.00379667890054 0.0 0.0
467.143395535468 17.1383719308986 151.3345784061113 -37.655164955323656 0.0 0.0
572.3449303637519 31.1744114522501 223.4936120975062 -38.5816588333932 0.0 0.0
653.1663922624616 45.565170841948316 308.1891610928213 -41.27402803143158 0.0 0.0
729.7739659263603 59.13709832598121 378.4927911142472 -42.55925778420879 0.0 0.0
798.3877912966362 75.90249168313639 431.7993051306745 -43.42148224474786 0.0 0.0
864.0475412636313 95.47580681445295 477.5350226780716 -44.11413133223995 0.0 0.0
929.9037653444608 120.10016745818525 523.591691641319 -44.180242839359494 0.0 0.0
996.990067677099 149.9204834029029 572.245958396043 -43.50210835781265 0.0 0.0
1065.0234671988114 182.5474461549093 622.5998053741282 -42.47754524413849 0.0 0.0
1129.6268818255896 214.98955083536208 671.0935879735496 -41.290340407175016 0.0 0.0
1187.0574216416996 241.39362809954227 712.9631664262744 -39.96960279915139 0.0 0.0
1232.3186431236502 257.6930473975565 743.6896064843993 -38.223954811617475 0.0 0.0
1263.1371104320883 262.04149639782787 761.2360026915475 -35.650583652146885 0.0 0.0
1277.3889399059021 253.0956080396081 763.9205030867225 -32.134431651930186 0.0 0.0
1267.6510279611518 224.58402797078077 745.0494611409756 -28.010095774155616 0.0 0.0
1241.005846954751 185.20411123496234 712.4008226860343 -23.636645036433833 0.0 0.0
1145.3268958028555 88.14604507250637 617.4782509005919 2.2963853041346738e-11 0.0 0.0
1241.005846954454 185.20411123467858 712.4008226857359 23.63664503647282 0.0 0.0
1267.6510279610998 224.5840279707918 745.0494611409649 28.010095774233555 0.0 0.0
1277.3889399062991 253.0956080400797 763.9205030869331 32.13443165198187 0.0 0.0
1263.1371104317068 262.0414963975701 761.2360026912819 35.65058365227912 0.0 0.0
1232.3186431232657 257.69304739724805 743.6896064841208 38.22395481155348 0.0 0.0
1187.0574216420769 241.3936281000885 712.9631664264517 39.969602799168065 0.0 0.0
1129.6268818248357 214.9895508347313 671.0935879729805 41.29034040705006 0.0 0.0
1065.023467197411 182.54744615368992 622.5998053731964 42.4775452441589 0.0 0.0
996.990067676519 149.92048340257836 572.2459583956769 43.502108357945495 0.0 0.0
929.9037653444733 120.1001674583876 523.5916916413121 44.18024283934618 0.0 0.0
864.0475412633854 95.47580681444487 477.5350226779015 44.1141313321499 0.0 0.0
798.3877912969297 75.90249168369134 431.7993051308048 43.42148224477443 0.0 0.0
729.7739659262277 59.137098326186276 378.4927911140803 42.559257784182776 0.0 0.0
653.1663922622384 45.56517084204527 308.189161092514 41.274028031445425 0.0 0.0
572.344930363363 31.174411452200694 223.49361209716008 38.58165883339551 0.0 0.0
467.14339553510825 17.13837193095135 151.33457840597987 37.65516495532182 0.0 0.0
351.1431122863682 -0.2380027260946631 105.09225606254623 37.003796678951865 0.0 0.0
273.5810966598501 56.03604146318268 98.8850267377682 33.34295246265519 0.0 0.0
663.857186515518 318.36931153591905 430.8509656669062 100.4522275192054 0.0 0.0
-1176.1571644359533 -1903.2602503411379 -1418.3535122458065 56.04067569368068 0.0 0.0
-954.3180713764856 -1650.7893111470219 -1173.2862875193073 -69.51169690097969 0.0 0.0
502.28075269219335 223.27929438381926 310.7643876868516 -144.48705083589405 0.0 0.0
200.57390210908372 51.267650168457415 75.55246568326233 -55.58180187862762 0.0 0.0
292.6157281376802 4.910093994315875 89.25291589463762 -57.54145720729257 0.0 0.0
412.2213261325907 8.512941855419424 127.22813090513289 -61.82874356943755 0.0 0.0
526.433290057059 25.747751852519183 192.2190132889417 -59.12103708338446 0.0 0.0
622.2645637583361 40.06338296441891 278.0635674191724 -62.01906670095027 0.0 0.0
697.5947956720192 52.66898500724164 352.5717326096267 -62.78177830113965 0.0 0.0
765.5430620961388 66.72395808970172 408.1173920934425 -63.64145067968333 0.0 0.0
828.2801012539287 82.92489868773768 452.3360258425553 -64.26289196401821 0.0 0.0
890.0037851338864 103.77955007188274 494.90178474351234 -64.01254294857287 0.0 0.0
953.3424258962314 129.69368679763508 539.8419499473966 -62.89724186736429 0.0 0.0
1017.3372749458817 159.78474054434406 586.9584005740865 -61.30766480587595 0.0 0.0
1078.5453174275663 188.0819060039744 631.7027275148328 -59.71575139228575 0.0 0.0
1132.6433969188056 211.9407929440355 670.6496690838945 -57.833838990762196 0.0 0.0
1177.1514066401996 228.1330343896342 700.9583000415992 -55.30874613119802 0.0 0.0
1208.8086979387917 233.15769457122346 719.2687261102205 -51.8626354993309 0.0 0.0
1223.1636984074307 224.05416635914474 721.9718327259262 -47.34412089805268 0.0 0.0
1217.1586553802313 198.91009882818432 706.6305610918062 -41.53661603630985 0.0 0.0
1199.7102324247637 168.0453271035014 682.6976828747306 -33.03762472783984 0.0 0.0
1064.407061727758 31.46910614474605 549.0127821977374 -1.716493613912462e-11 0.0 0.0
1199.710232424096 168.04532710288126 682.6976828741907 33.037624727902326 0.0 0.0
1217.1586553802717 198.91009882827828 706.630561091872 41.53661603641699 0.0 0.0
1223.163698408831 224.05416636064822 721.9718327269647 47.344120898105984 0.0 0.0
1208.8086979383224 233.15769457083996 719.2687261098665 51.86263549938116 0.0 0.0
1177.1514066396567 228.13303438920002 700.958300041227 55.30874613112616 0.0 0.0
1132.6433969186946 211.94079294407027 670.6496690837743 57.833838990867044 0.0 0.0
1078.545317427117 188.0819060036817 631.7027275144804 59.71575139223227 0.0 0.0
1017.3372749455251 159.78474054418146 586.9584005738699 61.30766480602709 0.0 0.0
953.342425895944 129.69368679753603 539.8419499471808 62.8972418672861 0.0 0.0
890.0037851333965 103.779550071594 494.901784743204 64.01254294853294 0.0 0.0
828.2801012540104 82.92489868806788 452.3360258425691 64.26289196399469 0.0 0.0
765.5430620957932 66.72395808958156 408.1173920931815 63.64145067964195 0.0 0.0
697.5947956723504 52.66898500791247 352.57173260971916 62.78177830105621 0.0 0.0
622.2645637576588 40.06338296400817 278.06356741859645 62.01906670094205 0.0 0.0
526.4332900565922 25.74775185240322 192.21901328861412 59.12103708336443 0.0 0.0
412.2213261322232 8.512941855371777 127.22813090500833 61.828743569368385 0.0 0.0
292.615728137646 4.9100939942786885 89.25291589461403 57.541457207213085 0.0 0.0
200.57390210911618 51.26765016840406 75.55246568325607 55.58180187832244 0.0 0.0
502.28075269160684 223.2792943835077 310.764387686325 144.48705083578096 0.0 0.0
-954.3180713748123 -1650.789311145259 -1173.286287517456 69.51169690071873 0.0 0.0
-762.5699550285049 -1430.928451889975 -958.407924622707 -69.28003194983646 0.0 0.0
383.2325157390856 141.11585774334623 218.35709337381743 -174.76807637892944 0.0 0.0
147.85554862821613 42.1688933987906 57.00733260810202 -84.89709700019802 0.0 0.0
239.7515511876823 11.254324522652249 75.30240785412603 -79.66005713995196 0.0 0.0
349.17608411719186 5.316602655128277 106.03563832268759 -85.74426126838299 0.0 0.0
473.30756031448965 13.947942363476955 158.53122846104432 -85.02515648068432 0.0 0.0
578.8821706911397 33.02617968324249 241.20666136962078 -82.93490517185238 0.0 0.0
659.5585777180645 47.31456050590003 321.99406646166614 -83.33296457641549 0.0 0.0
727.7336648506966 58.03840947618842 380.54113615062545 -83.65813459112671 0.0 0.0
787.8770542031075 70.71317830188855 424.272133139391 -83.7956483063103 0.0 0.0
846.1021109663707 87.5698929476034 463.92395853048555 -83.07599874247934 0.0 0.0
905.1570463787598 109.50664928853001 504.99411539741374 -81.45514106149689 0.0 0.0
965.2572361906034 135.35529561063112 548.112301424361 -79.49748779803289 0.0 0.0
1022.6129331522891 161.6313832196 589.970046750329 -77.47205143267587 0.0 0.0
1073.986171204925 182.6262953476652 626.1626451623086 -75.11771101544754 0.0 0.0
1116.82720053272 196.80920930419288 654.6405643334476 -72.01919819099922 0.0 0.0
1149.468214416933 203.24677279069144 674.160285009209 -67.91755357211086 0.0 0.0
1167.4607017428777 197.46945784175728 680.3327510936729 -62.664808566495076 0.0 0.0
1166.827082626489 176.88248285342416 669.9253066151169 -55.11642930501392 0.0 0.0
1153.4752161848717 148.63088517710065 649.3041208319596 -42.76098771154072 0.0 0.0
968.8696894282724 -37.15913433615165 467.50015023090225 -3.824318639544799e-11 0.0 0.0
1153.4752161851732 148.63088517745888 649.3041208322719 42.760987711615385 0.0 0.0
1166.8270826267028 176.8824828537301 669.9253066152485 55.11642930514195 0.0 0.0
1167.4607017439807 197.46945784294675 680.3327510945353 62.6648085666707 0.0 0.0
1149.468214416208 203.2467727900732 674.1602850086608 67.91755357212895 0.0 0.0
1116.8272005329452 196.80920930453817 654.6405643335095 72.01919819106132 0.0 0.0
1073.9861712048023 182.62629534773134 626.1626451622415 75.11771101548872 0.0 0.0
1022.61293315217 161.6313832196786 589.9700467502471 77.47205143284796 0.0 0.0
965.2572361898289 135.35529561000615 548.1123014238013 79.49748779807223 0.0 0.0
905.1570463785066 109.5066492884569 504.99411539721063 81.45514106142696 0.0 0.0
846.1021109657092 87.56989294713581 463.9239585300111 83.07599874244212 0.0 0.0
787.8770542031917 70.7131783022891 424.2721331394306 83.79564830640498 0.0 0.0
727.7336648500828 58.03840947573546 380.5411361501468 83.65813459097735 0.0 0.0
659.5585777178209 47.31456050592506 321.99406646136816 83.3329645763099 0.0 0.0
578.8821706904158 33.026179682853936 241.20666136903512 82.93490517182374 0.0 0.0
473.30756031395396 13.947942363254803 158.5312284607073 85.0251564806419 0.0 0.0
349.1760841168326 5.3166026551504935 106.03563832260062 85.7442612683451 0.0 0.0
239.75155118777806 11.254324523112095 75.30240785429227 79.66005713980643 0.0 0.0
147.85554862814544 42.16889339857813 57.007332608017066 84.89709700000475 0.0 0.0
383.232515738627 141.1158577430818 218.35709337339858 174.76807637874427 0.0 0.0
-762.5699550270191 -1430.9284518883258 -958.407924621039 69.28003194968662 0.0 0.0
-594.5817865228962 -1236.200884251831 -768.2450380456595 -67.75241339181315 0.0 0.0
289.61186773599 77.76809970886538 148.1743327615108 -191.5729730487703 0.0 0.0
107.20093405240237 30.24507546719499 41.233802855879205 -112.65890471865282 0.0 0.0
190.93228327232725 16.585606949300452 62.25690546814616 -102.1634802137009 0.0 0.0
285.5466568611628 4.625924061312576 86.78848927797783 -108.49357438767568 0.0 0.0
404.7004217868106 6.340085274593625 127.25950296913926 -110.51849468308244 0.0 0.0
517.550164351995 25.458496301044008 199.63674454241553 -105.57739782627043 0.0 0.0
614.2318653849997 38.6676648473419 282.5890330811629 -105.17748041780008 0.0 0.0
681.6730009391727 50.15798742020677 347.072183485997 -103.23983217745614 0.0 0.0
742.0275765142512 58.641224676379814 392.17323808616214 -102.77329380117041 0.0 0.0
796.855616625759 71.49105414158997 429.7004928334332 -101.37023517900207 0.0 0.0
851.7326426457431 89.35602489806055 467.16191446803 -99.17399209310817 0.0 0.0
907.5330937332301 111.5562853686014 506.46933845202517 -96.80631252207431 0.0 0.0
961.0262677447101 133.63908816172267 544.369497102392 -94.56094648140973 0.0 0.0
1009.3991887497621 152.570346934445 578.0894182244771 -91.8788112231706 0.0 0.0
1050.5959441353093 165.850008051851 605.3565462653044 -88.18980530477211 0.0 0.0
1084.0707515445883 172.07321820054474 625.1672686874365 -83.67850911820045 0.0 0.0
1107.418511483428 171.39943359122768 636.5027880311651 -77.96729039440409 0.0 0.0
1113.9197510084302 157.15042472054014 632.8189595262702 -69.07061012981532 0.0 0.0
1102.9833829539705 129.00900897816095 613.4859943693909 -53.44697533301468 0.0 0.0
859.1199850021566 -115.73303283164245 374.175170483885 4.140865428325924e-11 0.0 0.0
1102.9833829541994 129.00900897848788 613.4859943696035 53.44697533319658 0.0 0.0
1113.9197510085064 157.1504247207049 632.8189595263207 69.07061012999114 0.0 0.0
1107.4185114821726 171.3994335900016 636.5027880303369 77.96729039451807 0.0 0.0
1084.070751543834 172.07321819987467 625.1672686868519 83.67850911821252 0.0 0.0
1050.59594413552 165.85000805216495 605.3565462654383 88.18980530483769 0.0 0.0
1009.3991887489623 152.57034693376005 578.0894182239355 91.87881122309707 0.0 0.0
961.0262677431841 133.63908816031113 544.3694971013249 94.56094648151156 0.0 0.0
907.5330937327483 111.55628536829711 506.46933845164955 96.8063125220346 0.0 0.0
851.7326426454136 89.3560248979294 467.161914467798 99.17399209313203 0.0 0.0
796.8556166253996 71.49105414145525 429.70049283311926 101.37023517900013 0.0 0.0
742.0275765138878 58.64122467625589 392.1732380859306 102.77329380117594 0.0 0.0
681.6730009387384 50.15798741998043 347.0721834856089 103.23983217734857 0.0 0.0
614.2318653847641 38.6676648474305 282.5890330808731 105.17748041776822 0.0 0.0
517.5501643515241 25.458496300921638 199.6367445420315 105.57739782621488 0.0 0.0
404.7004217861186 6.340085274140582 127.25950296876934 110.51849468301123 0.0 0.0
285.5466568611072 4.625924061655967 86.78848927806523 108.4935743876166 0.0 0.0
190.93228327248264 16.585606949838688 62.256905468353686 102.1634802135772 0.0 0.0
107.20093405230807 30.24507546688357 41.23380285575748 112.65890471844983 0.0 0.0
289.61186773557705 77.76809970860504 148.17433276115435 191.57297304854703 0.0 0.0
-594.5817865217487 -1236.200884250456 -768.2450380442581 67.75241339172545 0.0 0.0
-450.4917023714943 -1057.4807995884094 -600.8311208116596 -67.11278600835287 0.0 0.0
215.906156709099 27.376131208106997 94.98366064059296 -201.28413319473995 0.0 0.0
73.92853082333411 18.190675316778727 27.63566442010812 -135.63558931099837 0.0 0.0
144.82318109878497 19.969239662273463 49.438795384280446 -123.27180421765738 0.0 0.0
224.13193422966333 6.087688187634768 69.00844799753372 -128.64003509994666 0.0 0.0
327.5031939747811 -0.27676955772397893 97.93339390255795 -136.85466843043392 0.0 0.0
444.4216989571599 12.912310275910738 154.54937691042966 -132.43118876883835 0.0 0.0
547.111849733001 31.25165695987775 233.9053010237792 -126.58839637574326 0.0 0.0
629.1180553954707 38.644689627445274 303.80504729807245 -124.9527996095099 0.0 0.0
686.8300323891423 46.97725112175594 353.2307666252408 -120.96742625604067 0.0 0.0
740.7861581436096 55.577181219416815 390.6809391228631 -118.8388651241348 0.0 0.0
791.6747582723449 69.13386775010666 425.12828941921504 -116.07446764796363 0.0 0.0
842.8740446809994 87.19330199966949 460.48601925498383 -113.31264039923559 0.0 0.0
892.1359432947995 105.98394470866853 494.7875839268129 -110.8297919760813 0.0 0.0
937.010365681643 122.07245710872137 525.4597393452161 -107.97596256041516 0.0 0.0
976.165684779537 132.5533060804512 550.3727316033381 -104.17809504962256 0.0 0.0
1010.0433272297549 140.65757037842155 571.3469785016451 -98.93275163959049 0.0 0.0
1040.2851115544963 145.59421615367344 588.8193917452825 -92.9861230236751 0.0 0.0
1055.9836253775309 138.5475727915677 593.2757577073319 -83.70740317388305 0.0 0.0
1048.1612557501196 110.8520735002214 575.8471802165751 -65.78816253849506 0.0 0.0
733.066455315553 -204.11051269174664 268.15622168816196 1.1688605638937588e-10 0.0 0.0
1048.1612557504475 110.85207350066086 575.847180216841 65.78816253874649 0.0 0.0
1055.9836253776864 138.54757279178355 593.2757577075705 83.70740317404088 0.0 0.0
1040.28511155407 145.59421615338897 588.819391744942 92.98612302383492 0.0 0.0
1010.0433272291394 140.6575703779265 571.3469785011628 98.93275163970584 0.0 0.0
976.165684779832 132.55330608090364 550.3727316035651 104.17809504972699 0.0 0.0
937.0103656809017 122.07245710810183 525.4597393446116 107.97596256035095 0.0 0.0
892.135943294025 105.98394470813619 494.7875839262362 110.8297919762502 0.0 0.0
842.8740446811298 87.19330200000795 460.4860192550644 113.31264039930053 0.0 0.0
791.6747582725335 69.13386775056905 425.1282894193502 116.07446764803217 0.0 0.0
740.7861581435725 55.5771812195974 390.68093912277214 118.83886512417713 0.0 0.0
686.8300323885203 46.97725112125811 353.23076662479093 120.96742625584187 0.0 0.0
629.1180553951405 38.64468962742918 303.8050472977601 124.95279960953822 0.0 0.0
547.111849732563 31.25165695971496 233.905301023391 126.58839637567827 0.0 0.0
444.42169895660265 12.912310275737969 154.54937691008232 132.4311887688492 0.0 0.0
327.5031939743021 -0.2767695577336311 97.93339390241951 136.85466843032393 0.0 0.0
224.13193422968152 6.087688188033985 69.00844799766003 128.64003509977294 0.0 0.0
144.8231810988132 19.969239662391953 49.438795384324074 123.27180421759824 0.0 0.0
73.92853082322783 18.19067531665665 27.635664420039717 135.63558931072322 0.0 0.0
215.90615670867533 27.37613120787998 94.98366064029833 201.28413319456186 0.0 0.0
-450.49170237043154 -1057.480799587109 -600.8311208104236 67.11278600829081 0.0 0.0
-323.643675967232 -903.6221669583463 -454.56100183740006 -76.05800947533557 0.0 0.0
152.8022934116621 -10.555281738678826 53.68406049772409 -202.2452415925369 0.0 0.0
45.146524461115035 8.27927165817258 16.027583755426928 -153.24677130575466 0.0 0.0
100.33078090315037 21.327480439529786 36.49846047742208 -141.5998976540747 0.0 0.0
164.33515404435144 8.685138420527297 51.859322978714744 -146.16505485870655 0.0 0.0
243.76841255871997 -1.1580925158661246 72.18186464689478 -158.1008197026172 0.0 0.0
351.9490617700405 1.9295166313961052 110.67604466579168 -160.4723175332369 0.0 0.0
460.18766223752823 18.02151204974913 175.48812452335966 -150.42368047947582 0.0 0.0
552.5279495471418 29.41513992136992 247.11098850391895 -144.7471484936756 0.0 0.0
620.5381693558802 32.05004199716092 301.67535783552546 -140.49436047805108 0.0 0.0
672.9272660107131 38.84784070356185 341.9346246166661 -135.43014980235597 0.0 0.0
720.9043242254625 49.02267592567565 375.6169049470326 -131.9072980367242 0.0 0.0
768.0855063871826 62.93718470668781 407.94615770601365 -128.79531957759562 0.0 0.0
812.2893274759164 77.58447055279207 438.1437912992851 -126.14228729475269 0.0 0.0
853.4921712207513 90.45262541650521 465.6001475794502 -123.34773667236017 0.0 0.0
890.0859103722023 99.91135216458962 488.9030641584698 -119.56403870434113 0.0 0.0
923.479622418957 105.98829924230546 508.7805941739359 -114.06880565977954 0.0 0.0
959.4562441884055 116.39846883515096 531.6688716711491 -107.49151825560278 0.0 0.0
988.5874829543785 122.07380218632272 549.063874494541 -98.70721531038609 0.0 0.0
988.2555381270233 97.90570607921646 537.4404931071565 -80.6277130794767 0.0 0.0
584.9350661209073 -302.3701911948346 146.7263391078843 6.325251433736412e-11 0.0 0.0
988.2555381270373 97.90570607933154 537.440493107175 80.62771307965333 0.0 0.0
988.5874829543194 122.0738021864019 549.0638744945879 98.70721531065249 0.0 0.0
959.4562441886648 116.39846883558418 531.6688716712804 107.49151825586243 0.0 0.0
923.4796224185627 105.98829924200069 508.7805941735619 114.06880565996103 0.0 0.0
890.0859103725259 99.9113521650958 488.90306415875705 119.56403870441237 0.0 0.0
853.4921712200694 90.45262541581049 465.60014757899836 123.3477366723142 0.0 0.0
812.289327475921 77.58447055294718 438.14379129928705 126.14228729479274 0.0 0.0
768.0855063868 62.93718470650458 407.9461577057637 128.79531957767068 0.0 0.0
720.904324225661 49.022675926106615 375.6169049471852 131.9072980368133 0.0 0.0
672.9272660102976 38.84784070318579 341.9346246162815 135.43014980219604 0.0 0.0
620.5381693558334 32.05004199729705 301.6753578354356 140.49436047786074 0.0 0.0
552.5279495466775 29.415139921298383 247.1109885035579 144.74714849374192 0.0 0.0
460.1876622369379 18.021512049463617 175.4881245229296 150.42368047945328 0.0 0.0
351.94906176952026 1.9295166310429819 110.67604466546987 160.47231753317865 0.0 0.0
243.76841255853594 -1.1580925152160924 72.18186464707334 158.10081970239065 0.0 0.0
164.33515404425842 8.685138420595772 51.859322978705976 146.1650548585819 0.0 0.0
100.33078090305406 21.327480439425255 36.498460477362194 141.599897653922 0.0 0.0
45.146524461147095 8.27927165840144 16.027583755505027 153.2467713054957 0.0 0.0
152.80229341127264 -10.555281738889544 53.68406049748017 202.24524159237868 0.0 0.0
-323.6436759663456 -903.6221669572022 -454.5610018363837 76.05800947528753 0.0 0.0
-230.01057511721683 -754.2530640489492 -339.214132623918 -84.89002708587398 0.0 0.0
98.4872968385936 -41.08730122834178 22.352606148503874 -196.9184928610025 0.0 0.0
18.09062179710812 1.5882970520944937 5.905295045623234 -165.90660770071204 0.0 0.0
57.15511216974753 21.17682226256976 23.499258575326696 -156.27362105637582 0.0 0.0
104.27992774333089 11.579666103784312 34.72773824339145 -160.0546845089487 0.0 0.0
160.27801361795665 1.2995025240970022 48.30987090097666 -173.24773216453644 0.0 0.0
240.64387565845894 -3.4928627352217676 70.9350192376702 -186.76976917721277 0.0 0.0
345.06903927726853 0.5011903577568075 111.82969342093442 -181.58537349729488 0.0 0.0
445.13718261609864 12.283121362541406 171.06714110602854 -166.52992459533488 0.0 0.0
523.3033034899257 16.98437369471909 227.6041027137841 -157.40102346744254 0.0 0.0
581.4246557566804 21.333525007236837 272.83969465308417 -150.35747258349244 0.0 0.0
629.0178350839873 27.344328925203808 307.9190823089786 -146.106259611178 0.0 0.0
672.8858839645861 38.19701857602071 339.76913280698443 -142.82030268601122 0.0 0.0
712.2284151520685 48.791795363289296 367.1126084122128 -140.1126243398452 0.0 0.0
748.6650357763638 58.31788557322948 391.4346256265491 -137.56760256462053 0.0 0.0
782.9390283465841 66.12738797647684 413.2510995662391 -134.39519822384807 0.0 0.0
816.1338175195898 72.32499266006488 433.64176770665614 -129.11238761807334 0.0 0.0
852.5741736015311 81.79402254163844 456.6249982826027 -121.54283758675325 0.0 0.0
897.07857655678 99.7382199912563 487.36693715775255 -113.38496781430202 0.0 0.0
919.2673296212936 93.28995346996629 496.4051420696515 -99.27458919131321 0.0 0.0
406.1769020330258 -407.0580457326091 7.782659072374599 5.5987214864217094e-11 0.0 0.0
919.2673296212064 93.28995346996791 496.40514206962683 99.27458919152502 0.0 0.0
897.0785765564716 99.73821999104842 487.3669371576243 113.38496781456914 0.0 0.0
852.574173600359 81.79402254046397 456.6249982817642 121.54283758683123 0.0 0.0
816.1338175194604 72.32499266005455 433.6417677064628 129.1123876182412 0.0 0.0
782.9390283464643 66.12738797643594 413.25109956617 134.39519822371065 0.0 0.0
748.6650357765133 58.31788557369258 391.4346256266675 137.56760256472495 0.0 0.0
712.2284151513542 48.791795362628854 367.112608411711 140.1126243398137 0.0 0.0
672.885883964329 38.19701857592257 339.7691328067988 142.82030268608602 0.0 0.0
629.0178350834817 27.34432892481938 307.9190823086327 146.10625961114803 0.0 0.0
581.4246557562556 21.33352500688054 272.839694652738 150.3574725833537 0.0 0.0
523.3033034900116 16.984373695181645 227.60410271379737 157.40102346742458 0.0 0.0
445.137182615776 12.283121362623959 171.06714110581302 166.52992459534414 0.0 0.0
345.0690392770067 0.5011903580664967 111.82969342086865 181.58537349741337 0.0 0.0
240.6438756582055 -3.492862734885053 70.9350192377045 186.76976917692883 0.0 0.0
160.27801361779913 1.299502524160899 48.30987090095805 173.24773216427977 0.0 0.0
104.27992774319684 11.579666103707638 34.7277382433269 160.05468450883836 0.0 0.0
57.155112169810565 21.176822262876044 23.499258575437295 156.2736210562231 0.0 0.0
18.09062179716527 1.5882970522665134 5.905295045691683 165.90660770053498 0.0 0.0
98.4872968382453 -41.087301228491555 22.352606148319563 196.91849286072915 0.0 0.0
-230.01057511677527 -754.2530640480338 -339.2141326232471 84.89002708599025 0.0 0.0
-157.3996983263574 -625.7827976129685 -249.28079140237858 -100.97961822940525 0.0 0.0
49.64615275071227 -62.76848301991077 -2.089178406965268 -185.58302252581197 0.0 0.0
-7.792567529699734 -1.6340447548664794 -2.82789941995704 -173.778432552335 0.0 0.0
15.000696244429927 20.01558560706746 10.505139439587682 -166.78990566339905 0.0 0.0
44.43473173005957 14.147309575530745 17.56677260968051 -169.87218383384374 0.0 0.0
77.42389075984222 4.447879725337918 24.44980868590997 -184.3922880307236 0.0 0.0
119.59845317547358 -0.910499446474986 35.5207793747745 -200.18095398812432 0.0 0.0
184.11675619407112 -3.9847939020648533 54.186083048936176 -206.28076003155763 0.0 0.0
272.18195673561576 -9.677336738109684 81.58703877526786 -198.6049065542042 0.0 0.0
361.54322435281154 -17.421370682383717 113.83084801615999 -182.7823525431952 0.0 0.0
428.4062545319064 -15.578676212052805 149.1702393206612 -168.4756489088714 0.0 0.0
474.74948382484985 -6.348748615502373 181.85562883511622 -158.9731510191982 0.0 0.0
514.5911302028246 7.103602059740545 212.7772303014219 -155.07524357770035 0.0 0.0
550.3910848215479 17.145222642699608 240.4248592758228 -153.42665657116353 0.0 0.0
582.3063230444988 25.265538044874944 265.5307248630045 -152.63860003857152 0.0 0.0
613.7711733201696 32.575760122121245 289.73703446202614 -152.32701836223637 0.0 0.0
647.8393957617008 38.67925103820275 314.71652565223917 -148.89680841526575 0.0 0.0
685.7109519844693 43.547228621319704 340.32336074815714 -140.65107424533386 0.0 0.0
733.8494573334159 55.49302591538499 371.437669945216 -130.202313322806 0.0 0.0
805.4060116129983 88.37321551741064 426.02878274708 -123.57668444448068 0.0 0.0
163.77793814083583 -515.7714635267594 -161.795538564257 3.7054803669889225e-11 0.0 0.0
805.4060116127448 88.37321551713524 426.02878274703875 123.57668444480132 0.0 0.0
733.8494573331252 55.4930259152252 371.43766994508337 130.20231332304886 0.0 0.0
685.7109519838505 43.54722862072008 340.32336074773684 140.65107424551115 0.0 0.0
647.8393957621525 38.67925103890353 314.71652565248155 148.89680841553047 0.0 0.0
613.7711733205085 32.5757601227502 289.7370344622139 152.32701836220144 0.0 0.0
582.3063230453912 25.265538045974033 265.53072486374106 152.63860003878625 0.0 0.0
550.3910848216417 17.145222643119126 240.4248592758588 153.42665657117703 0.0 0.0
514.5911302034906 7.103602060947978 212.77723030191882 155.07524357790933 0.0 0.0
474.74948382436924 -6.348748615897183 181.8556288347549 158.97315101918667 0.0 0.0
428.40625453169463 -15.57867621213031 149.17023932053579 168.47564890890595 0.0 0.0
361.5432243523719 -17.421370682526543 113.83084801596387 182.78235254316797 0.0 0.0
272.1819567351937 -9.677336738345858 81.58703877504811 198.60490655425698 0.0 0.0
184.1167561939623 -3.984793901601793 54.1860830490466 206.28076003157346 0.0 0.0
119.5984531754794 -0.910499445928282 35.52077937494171 200.18095398800773 0.0 0.0
77.42389075972889 4.447879725340886 24.44980868587947 184.39228803045506 0.0 0.0
44.43473172999501 14.14730957541795 17.566772609627172 169.87218383364143 0.0 0.0
15.000696244483136 20.01558560726461 10.505139439662655 166.78990566328395 0.0 0.0
-7.792567529838925 -1.6340447549897328 -2.8278994200359215 173.77843255214205 0.0 0.0
49.64615275041406 -62.768483019954466 -2.089178407085015 185.58302252547816 0.0 0.0
-157.3996983260057 -625.7827976121525 -249.28079140191815 100.97961822959141 0.0 0.0
-117.27362205378262 -505.47231951760995 -188.7639298213216 -109.81991167428717 0.0 0.0
9.02986796621254 -76.20699539200561 -19.883239604575486 -170.64278324667964 0.0 0.0
-31.887178662583327 -2.9768972990564686 -10.455865305754141 -177.58935878443535 0.0 0.0
-25.9508106331258 18.57417083667788 -2.211510694671955 -173.0843672100001 0.0 0.0
-14.60213953208902 16.22337512349326 0.4877935319481732 -175.3730466628944 0.0 0.0
-6.414240921188064 7.915660595482626 0.45427412284205504 -188.45188969141506 0.0 0.0
-2.5214252198450424 1.6719967888684226 -0.25798447114473344 -205.348812222948 0.0 0.0
-0.63789141228213 0.16120754409580318 -0.1442513640661378 -210.85788450353635 0.0 0.0
-0.09258963729632086 -0.07672479876321692 -0.050751479254953935 -204.0056874748728 0.0 0.0
0.09820665192877698 0.00475321304648979 0.041572712071950235 -193.24686117223223 0.0 0.0
0.013143204226082617 -0.20198383329973524 -0.1360413498649713 -191.2125591980317 0.0 0.0
-1.0697925273691737 0.5782623703640937 -0.0013336229162561608 -188.5334610160603 0.0 0.0
-1.8571230752490777 0.6115720110787066 0.11575019509517404 -182.78562293010515 0.0 0.0
-1.7783411305164805 1.1694601597962162 0.4761559006504399 -174.57411225679996 0.0 0.0
2.6306733005006606 3.4568042861199757 1.312487283923744 -168.53928770986005 0.0 0.0
18.867961285419582 8.534038751254336 3.870609308821585 -163.194198762572 0.0 0.0
58.03987944728908 18.487547822627704 10.29420338971623 -157.9160341384948 0.0 0.0
140.34031728333804 24.1961210879809 14.189484752709674 -149.88758088950874 0.0 0.0
341.54111918279705 -31.4772551740146 29.10805548131799 -143.5098365702578 0.0 0.0
523.4163901309323 -3.5732444365107696 191.34091347154708 -175.87964757157903 0.0 0.0
-428.7137654695406 -720.4037973937473 -499.8006763567132 -2.9395152978395345e-11 0.0 0.0
523.416390130787 -3.5732444365055755 191.34091347139122 175.87964757151798 0.0 0.0
341.5411191828478 -31.4772551739062 29.10805548150242 143.50983657092505 0.0 0.0
140.3403172832202 24.196121087648734 14.189484752599355 149.88758089009585 0.0 0.0
58.039879447610524 18.487547822881808 10.294203389911715 157.91603413860577 0.0 0.0
18.867961285258446 8.53403875077035 3.8706093085567232 163.19419876264158 0.0 0.0
2.6306733004130507 3.4568042858004233 1.3124872838068526 168.53928770976572 0.0 0.0
-1.7783411305431684 1.1694601595484997 0.4761559005351472 174.574112256977 0.0 0.0
-1.8571230743563376 0.6115720122345074 0.11575019573678702 182.78562293041904 0.0 0.0
-1.0697925269604127 0.5782623693644346 -0.0013336230816136663 188.5334610159619 0.0 0.0
0.013143204679309406 -0.20198383315656976 -0.13604134969751414 191.21255919797633 0.0 0.0
0.09820665176126653 0.004753211996165518 0.041572711693451225 193.2468611720721 0.0 0.0
-0.09258963725225655 -0.07672479910149654 -0.050751479339188776 204.0056874749411 0.0 0.0
-0.6378914119206414 0.16120754463307518 -0.14425136379191805 210.85788450350185 0.0 0.0
-2.521425219864012 1.6719967887132428 -0.2579844711979282 205.3488122227222 0.0 0.0
-6.414240920975054 7.915660595908411 0.4542741230337648 188.45188969108534 0.0 0.0
-14.602139532027007 16.223375123543022 0.48779353198144015 175.3730466626039 0.0 0.0
-25.95081063314907 18.574170836624578 -2.2115106946943475 173.0843672099299 0.0 0.0
-31.88717866251807 -2.976897298894027 -10.455865305685444 177.5893587842802 0.0 0.0
9.029867966052716 -76.20699539218796 -19.88323960467603 170.64278324650616 0.0 0.0
-117.2736220537419 -505.4723195168255 -188.76392982110252 109.81991167423278 0.0 0.0
-96.7996645774895 -396.87912880482094 -148.0520938940669 -107.07186041945349 0.0 0.0
-17.468693778134455 -83.72236956887858 -30.36409282256719 -159.13273190479305 0.0 0.0
-54.350051634327535 -4.139749979868407 -17.548116683324636 -177.50099021215 0.0 0.0
-65.31341125577119 17.256157540323375 -14.411698415548628 -174.91436691125662 0.0 0.0
-72.5530236028203 17.5511559657851 -16.50135909137016 -175.8473452811868 0.0 0.0
-89.15318836677278 11.172188333410151 -23.343676170131467 -186.42822192226524 0.0 0.0
-124.59223647681857 4.412187426197327 -35.92016306325823 -201.74223118582015 0.0 0.0
-185.3007660687054 4.218434197982016 -54.505854605656495 -206.51932631057107 0.0 0.0
-272.18146154703277 9.434131716087226 -81.69136002687688 -198.59935100080284 0.0 0.0
-361.3782776709404 17.410279136550933 -113.76952278343786 -182.74433060802252 0.0 0.0
-428.9794134278475 15.849506345280364 -149.05698422104498 -168.57392389430376 0.0 0.0
-474.95344036339424 6.096654064718528 -182.32842636933776 -158.75344321732777 0.0 0.0
-515.6420544258822 -6.848287479721421 -213.80352044885933 -154.63407200445067 0.0 0.0
-551.1529714783903 -14.827157636566973 -240.54031618568752 -152.7181713948714 0.0 0.0
-577.9466247744515 -18.104014812382403 -259.61800518048443 -152.32329107027198 0.0 0.0
-594.1595038617079 -16.319929306203804 -267.743998161222 -154.7029547098051 0.0 0.0
-597.5911745514693 -9.524150664532257 -262.4981884007899 -159.7795336337853 0.0 0.0
-592.6829673509161 -2.359835964893705 -242.549444022374 -170.2046536574287 0.0 0.0
-576.510918619252 40.29390482796818 -191.8324927280855 -182.4537640808577 0.0 0.0
-327.40522526783514 103.46489637602316 -37.382832853060165 -131.37926054160107 0.0 0.0
-965.2397900521479 -950.5952142443034 -959.6862032472801 -1.2492762380134081e-10 0.0 0.0
-327.4052252677586 103.46489637639388 -37.38283285290845 131.37926054221185 0.0 0.0
-576.5109186192592 40.29390482753192 -191.83249272823718 182.45376408116596 0.0 0.0
-592.6829673500929 -2.359835964142306 -242.54944402177085 170.20465365754956 0.0 0.0
-597.5911745516455 -9.52415066502266 -262.4981884009568 159.77953363392356 0.0 0.0
-594.1595038622952 -16.31992930716995 -267.7439981615837 154.70295470983228 0.0 0.0
-577.9466247739499 -18.10401481199085 -259.6180051800795 152.32329107029508 0.0 0.0
-551.1529714793288 -14.827157638269078 -240.5403161863675 152.71817139518055 0.0 0.0
-515.6420544252873 -6.848287479200444 -213.80352044841987 154.6340720044533 0.0 0.0
-474.95344036339543 6.096654064453309 -182.32842636921959 158.7534432174567 0.0 0.0
-428.97941342807337 15.84950634449775 -149.0569842212491 168.57392389454446 0.0 0.0
-361.37827767038624 17.41027913634066 -113.76952278325241 182.74433060786572 0.0 0.0
-272.1814615463732 9.434131716039149 -81.69136002667423 198.59935100088413 0.0 0.0
-185.3007660682961 4.218434197843455 -54.50585460557115 206.51932631062795 0.0 0.0
-124.59223647680554 4.412187425583532 -35.920163063437336 201.7422311856869 0.0 0.0
-89.15318836637371 11.172188333960838 -23.343676169851975 186.4282219219439 0.0 0.0
-72.55302360275755 17.55115596571749 -16.50135909137549 175.84734528097542 0.0 0.0
-65.31341125563321 17.25615754044185 -14.411698415475406 174.9143669110598 0.0 0.0
-54.35005163416955 -4.139749979524433 -17.548116683178414 177.5009902119581 0.0 0.0
-17.468693778227856 -83.72236956902162 -30.364092822637822 159.13273190471708 0.0 0.0
-96.7996645772265 -396.87912880419805 -148.0520938937976 107.07186041940977 0.0 0.0
-79.37989429462722 -303.9499217176074 -114.99894480367037 -98.22282078988434 0.0 0.0
-35.31420868976815 -84.52753796580456 -35.950373287353905 -147.85601857763479 0.0 0.0
-75.1860855547965 -5.180737614288811 -24.105895971233615 -173.61138537375422 0.0 0.0
-102.74120440891443 15.818697973937748 -26.09396759357483 -171.9950077361189 0.0 0.0
-129.3549839648269 18.359208336837188 -33.236573376602905 -172.2222740523855 0.0 0.0
-171.0727847557003 14.281525955041706 -46.74348301910237 -180.15287921574966 0.0 0.0
-243.06644546815582 6.14488089559564 -71.25711331025458 -186.19340645767687 0.0 0.0
-345.2848095104755 -0.6648603603665748 -112.10678974218683 -181.83537151805047 0.0 0.0
-445.18859541738937 -12.537596761368029 -171.16489735135832 -166.58251350339629 0.0 0.0
-523.2579115720282 -17.04000590496615 -227.5961920761094 -157.35013727353956 0.0 0.0
-581.3907291264336 -21.288971909774624 -272.8179328202929 -150.2917661103261 0.0 0.0
-629.1848453762179 -27.235880384194978 -308.03281114451204 -145.8396739152676 0.0 0.0
-673.4567250472513 -37.847897355631126 -340.0280344197662 -142.03169129520091 0.0 0.0
-712.2875279045214 -47.11023918095985 -366.567723919628 -138.8604397034716 0.0 0.0
-743.8939644273152 -52.13464828361715 -386.35141141399413 -137.13438032520438 0.0 0.0
-764.4878032031504 -50.26367455180548 -396.40456847743474 -137.97793291463447 0.0 0.0
-772.4143283677605 -41.90793130258746 -396.1683558730199 -142.0214165386976 0.0 0.0
-766.8089816099483 -29.444941248459045 -386.72278494509 -149.37169330526788 0.0 0.0
-726.9447382892455 8.372599948314644 -349.1452553631709 -158.18799073171607 0.0 0.0
-652.4883284793975 68.6296112277276 -285.6564376362626 -164.15623133161722 0.0 0.0
-1705.8605153702247 -1234.0607183129616 -1427.5715654692053 4.11404244005098e-11 0.0 0.0
-652.4883284790633 68.6296112278263 -285.65643763607875 164.15623133181774 0.0 0.0
-726.9447382895083 8.37259994764635 -349.14525536343297 158.1879907322047 0.0 0.0
-766.8089816097033 -29.44494124813353 -386.722784944907 149.37169330545063 0.0 0.0
-772.4143283681217 -41.907931303215136 -396.16835587334015 142.02141653876498 0.0 0.0
-764.4878032031204 -50.26367455185946 -396.4045684773977 137.97793291463856 0.0 0.0
-743.8939644269747 -52.13464828343185 -386.3514114137546 137.13438032523493 0.0 0.0
-712.2875279044852 -47.11023918119945 -366.56772391962755 138.86043970352455 0.0 0.0
-673.4567250469538 -37.84789735553029 -340.0280344195941 142.03169129526287 0.0 0.0
-629.1848453761387 -27.23588038445389 -308.0328111444519 145.83967391538175 0.0 0.0
-581.3907291269188 -21.28897191071648 -272.81793282054144 150.29176611031534 0.0 0.0
-523.2579115709622 -17.040005904079642 -227.59619207533552 157.35013727340998 0.0 0.0
-445.18859541668274 -12.53759676112853 -171.1648973508803 166.5825135034409 0.0 0.0
-345.28480950997573 -0.664860360423053 -112.10678974195332 181.83537151816267 0.0 0.0
-243.06644546783716 6.144880895096304 -71.25711331031594 186.19340645749313 0.0 0.0
-171.07278475534454 14.28152595523407 -46.74348301894127 180.15287921555583 0.0 0.0
-129.35498396472718 18.359208336732618 -33.23657337660466 172.22227405226667 0.0 0.0
-102.74120440880637 15.81869797395895 -26.093967593539727 171.99500773597393 0.0 0.0
-75.1860855546791 -5.18073761414399 -24.10589597115461 173.61138537367836 0.0 0.0
-35.31420868980168 -84.52753796584962 -35.95037328737839 147.85601857750615 0.0 0.0
-79.37989429454312 -303.9499217171515 -114.99894480350837 98.22282078975479 0.0 0.0
-64.13728664374617 -225.05672590114926 -86.75820376346863 -86.59859482348742 0.0 0.0
-48.59704712467957 -80.10721643384908 -38.611628651222865 -135.10347820995253 0.0 0.0
-94.44071051703106 -5.8671143517632025 -30.09074014102734 -165.5914025665006 0.0 0.0
-138.62795887487758 14.418685036208805 -37.237465808207695 -165.4928958753348 0.0 0.0
-183.95402331071287 18.12674339466784 -49.65993071948761 -162.96112633712693 0.0 0.0
-249.03784469524223 13.98681152834019 -70.50267741657645 -163.4192886806528 0.0 0.0
-352.88308314137146 1.3788100254447446 -110.30846147056783 -163.309668633029 0.0 0.0
-460.4146163776825 -18.306664570204322 -175.65527320383282 -151.00904559673532 0.0 0.0
-552.5586973620091 -29.684940157954195 -247.20235397789577 -144.7552929315791 0.0 0.0
-620.5298440233975 -32.08084910066892 -301.70333976241795 -140.46350435923682 0.0 0.0
-672.7946445760894 -38.71979651382391 -341.8283287449192 -135.37731221652692 0.0 0.0
-720.8374756094436 -48.762010688963386 -375.4997073781036 -131.62119993951777 0.0 0.0
-768.353824438363 -62.57624550217943 -407.95823026142557 -127.87278092105694 0.0 0.0
-812.5510761954971 -76.59767245001636 -437.91353988288586 -124.53760451965529 0.0 0.0
-850.3724757028746 -86.2108850770765 -462.1910755610189 -122.4923471605836 0.0 0.0
-876.0017242530308 -87.46968298306012 -475.9425163786118 -123.31741223923342 0.0 0.0
-886.1406823658858 -77.7808360522221 -476.29052481916744 -127.97645935317466 0.0 0.0
-870.6156658603954 -49.87845430719344 -454.8449225930698 -134.89713920866996 0.0 0.0
-824.1590016658242 -0.10394111451002175 -407.84511582010595 -141.0391959605168 0.0 0.0
-704.4986404593365 107.44006841270003 -299.6491185142744 -145.84244660882587 0.0 0.0
-2149.6285754771416 -1474.2876931901553 -1779.5591139721578 5.482192477757053e-11 0.0 0.0
-704.498640459396 107.44006841250516 -299.64911851435 145.8424466090683 0.0 0.0
-824.1590016652514 -0.10394111412600182 -407.8451158196792 141.03919596077282 0.0 0.0
-870.6156658604436 -49.878454307401555 -454.8449225930308 134.89713920888934 0.0 0.0
-886.1406823656919 -77.78083605220195 -476.2905248190657 127.97645935320595 0.0 0.0
-876.0017242534338 -87.46968298359768 -475.94251637890665 123.31741223933966 0.0 0.0
-850.3724757017064 -86.21088507600135 -462.19107556012585 122.49234716045484 0.0 0.0
-812.5510761943688 -76.59767244893109 -437.91353988216434 124.53760451958124 0.0 0.0
-768.3538244388229 -62.57624550291957 -407.95823026178175 127.87278092116631 0.0 0.0
-720.837475609422 -48.762010689221626 -375.49970737806075 131.62119993953135 0.0 0.0
-672.7946445762324 -38.71979651419393 -341.82832874500104 135.37731221641985 0.0 0.0
-620.529844023263 -32.080849100957494 -301.70333976230216 140.46350435937345 0.0 0.0
-552.5586973613276 -29.68494015750979 -247.20235397730485 144.75529293147068 0.0 0.0
-460.41461637657335 -18.30666456924187 -175.65527320303258 151.00904559660273 0.0 0.0
-352.8830831408368 1.3788100256080114 -110.30846147029118 163.3096686330415 0.0 0.0
-249.03784469501622 13.98681152777682 -70.50267741670831 163.4192886804681 0.0 0.0
-183.95402331033034 18.126743395004283 -49.65993071928087 162.9611263368867 0.0 0.0
-138.627958874855 14.418685035936164 -37.23746580828301 165.49289587512914 0.0 0.0
-94.44071051701654 -5.867114351837919 -30.090740141045487 165.59140256638744 0.0 0.0
-48.597047124730004 -80.10721643386515 -38.61162865124279 135.1034782098536 0.0 0.0
-64.13728664363472 -225.05672590081372 -86.75820376333452 86.59859482334792 0.0 0.0
-52.19890487399296 -159.12377371394297 -63.39680357638077 -73.99231887512563 0.0 0.0
-58.97455462230975 -71.88269989578328 -39.25717635542791 -120.38856690073251 0.0 0.0
-112.55509163525541 -6.039177976108628 -35.578831898867506 -153.59710881463906 0.0 0.0
-172.5288172531644 12.489005397398447 -48.01759489115439 -154.04297073283712 0.0 0.0
-236.69030472605536 17.025685804279494 -65.66064211422508 -149.68867933791964 0.0 0.0
-328.9315680851074 12.19629361625801 -95.44460296573122 -144.94140785676993 0.0 0.0
-441.7151353111474 -11.399537232250658 -154.0187669171833 -133.14389453994107 0.0 0.0
-547.1779405910067 -31.743727702728545 -233.99806272310488 -126.90729263310735 0.0 0.0
-629.2470099836273 -38.931548427151306 -303.98217006131375 -124.93880102330031 0.0 0.0
-686.807228617491 -46.961711745141784 -353.24646307712703 -120.94503708497058 0.0 0.0
-740.5968179277324 -55.3448383672778 -390.49506123664844 -118.80902992275644 0.0 0.0
-791.289183760781 -68.61843889408804 -424.7189439941395 -115.79406134951365 0.0 0.0
-842.6196665671725 -86.54882249197178 -460.07098519022395 -112.38906925733372 0.0 0.0
-892.593585089356 -105.63189559537965 -494.89173602086834 -109.13849956665175 0.0 0.0
-936.7668605820479 -120.98200207181758 -524.9173896281129 -106.84701703194641 0.0 0.0
-968.1684904332865 -125.38006274542346 -543.0395996887944 -107.42915020522803 0.0 0.0
-975.9168530810692 -112.22381357865964 -540.5953365699693 -111.4371744516371 0.0 0.0
-950.2366130824254 -70.67317224657273 -507.37698729042086 -117.60211852040919 0.0 0.0
-879.6637068620865 6.21696538330599 -434.91779302122757 -122.60566434973683 0.0 0.0
-733.729375908597 142.04184662051094 -297.714766613463 -125.88293138795483 0.0 0.0
-2496.978751275993 -1716.4769173992515 -2081.177931317321 6.703970711896545e-12 0.0 0.0
-733.7293759089417 142.0418466199871 -297.71476661375937 125.8829313881906 0.0 0.0
-879.6637068617827 6.216965383452617 -434.9177930209852 122.60566434997774 0.0 0.0
-950.2366130823543 -70.6731722465943 -507.3769872903388 117.60211852062633 0.0 0.0
-975.9168530806891 -112.22381357836434 -540.5953365698356 111.4371744516217 0.0 0.0
-968.1684904327763 -125.38006274502399 -543.0395996884032 107.42915020517036 0.0 0.0
-936.7668605813153 -120.98200207118987 -524.9173896276101 106.84701703198314 0.0 0.0
-892.59358508882 -105.63189559502146 -494.8917360204888 109.1384995666906 0.0 0.0
-842.6196665673335 -86.54882249241334 -460.0709851903414 112.38906925744216 0.0 0.0
-791.2891837607751 -68.6184388942566 -424.7189439941226 115.79406134946252 0.0 0.0
-740.5968179278206 -55.34483836767123 -390.49506123672467 118.80902992272841 0.0 0.0
-686.8072286173885 -46.96171174546026 -353.24646307701494 120.94503708506414 0.0 0.0
-629.2470099832358 -38.93154842710278 -303.98217006095905 124.93880102331931 0.0 0.0
-547.1779405904535 -31.743727702496546 -233.99806272261702 126.90729263308103 0.0 0.0
-441.71513531095025 -11.399537232532667 -154.0187669170317 133.14389453990196 0.0 0.0
-328.93156808470695 12.19629361614286 -95.44460296563692 144.9414078566061 0.0 0.0
-236.6903047257311 17.025685804411015 -65.66064211409248 149.6886793377601 0.0 0.0
-172.52881725300307 12.489005397464389 -48.017594891087285 154.0429707326976 0.0 0.0
-112.55509163511249 -6.039177976061203 -35.578831898810144 153.5971088145407 0.0 0.0
-58.974554622234905 -71.88269989570946 -39.2571763553833 120.38856690061712 0.0 0.0
-52.19890487401053 -159.12377371376292 -63.39680357633204 73.99231887503127 0.0 0.0
-43.620465479250285 -105.60522610764193 -44.76770747606766 -60.968752347749586 0.0 0.0
-67.27752186106368 -61.21094148877967 -38.54653900495299 -103.74804085354242 0.0 0.0
-129.6723219899648 -5.565464471072312 -40.57198122459837 -137.66132933475228 0.0 0.0
-204.7091410345187 10.482741418751905 -58.26322460123072 -138.62579147588337 0.0 0.0
-287.05789050658433 13.288920356541881 -82.03832328352536 -130.51945965166786 0.0 0.0
-401.3273600519163 4.458537068005642 -123.5948002260919 -119.89847927944048 0.0 0.0
-515.9133348601928 -23.566032415663106 -198.49591553893296 -107.25618824652463 0.0 0.0
-614.5673462183455 -39.33570054410965 -282.857980601431 -105.28057584636936 0.0 0.0
-681.7727348248768 -50.30994702209854 -347.2103156366623 -103.22173108148598 0.0 0.0
-741.9898134661182 -58.59019141276992 -392.163335589176 -102.7687956891378 0.0 0.0
-796.5987572402055 -71.19637375818965 -429.45208337064855 -101.3338391599628 0.0 0.0
-851.0389020133457 -88.57859010176989 -466.4682545149288 -98.89388036614709 0.0 0.0
-906.5993290614583 -110.44604003191327 -505.4756386845789 -95.97456742781847 0.0 0.0
-961.3569095606588 -133.6226019702161 -544.5201600582095 -93.08281262879248 0.0 0.0
-1012.0978827463427 -154.80157620131257 -580.5724523718837 -90.73287942640765 0.0 0.0
-1048.6011706253882 -163.9810727037734 -603.6481927731877 -90.34132062249232 0.0 0.0
-1054.5957303801292 -145.46353177709767 -597.7226250413817 -93.46694212298294 0.0 0.0
-1014.0720107471976 -87.79340926784951 -549.1632821599167 -98.80819222145206 0.0 0.0
-918.1782268920376 15.087349095614982 -450.89250823523366 -103.36258919515765 0.0 0.0
-753.9252855018563 169.6136456653855 -293.740399828418 -108.74280506333379 0.0 0.0
-2798.5797760615715 -1949.2642348031677 -2353.194613203531 -2.865974124688364e-11 0.0 0.0
-753.9252855010834 169.61364566604678 -293.74039982795205 108.74280506343197 0.0 0.0
-918.1782268927841 15.087349094767674 -450.89250823577225 103.36258919532168 0.0 0.0
-1014.0720107479356 -87.79340926876252 -549.1632821604053 98.808192221681 0.0 0.0
-1054.5957303803636 -145.46353177745564 -597.7226250416071 93.46694212310365 0.0 0.0
-1048.6011706247325 -163.98107270322006 -603.6481927726647 90.34132062250139 0.0 0.0
-1012.097882746684 -154.80157620189794 -580.5724523721415 90.73287942654086 0.0 0.0
-961.3569095614089 -133.6226019712246 -544.520160058645 93.08281262903826 0.0 0.0
-906.5993290613148 -110.44604003194758 -505.47563868451516 95.9745674278535 0.0 0.0
-851.0389020136313 -88.5785901022036 -466.46825451506646 98.89388036599011 0.0 0.0
-796.5987572396548 -71.19637375791885 -429.4520833703425 101.33383915993548 0.0 0.0
-741.9898134653333 -58.59019141218535 -392.1633355886422 102.76879568905706 0.0 0.0
-681.7727348245168 -50.309947021977784 -347.21031563631624 103.22173108140092 0.0 0.0
-614.5673462183291 -39.33570054456519 -282.8579806012579 105.28057584639693 0.0 0.0
-515.9133348598773 -23.56603241585854 -198.49591553863638 107.25618824656522 0.0 0.0
-401.3273600511795 4.458537068497644 -123.59480022566656 119.89847927929259 0.0 0.0
-287.0578905060987 13.288920356582507 -82.03832328340204 130.519459651494 0.0 0.0
-204.70914103416692 10.482741419214697 -58.263224600984785 138.6257914757865 0.0 0.0
-129.67232198988464 -5.565464471028962 -40.57198122456089 137.6613293346762 0.0 0.0
-67.2775218610157 -61.210941488737596 -38.54653900492598 103.74804085344972 0.0 0.0
-43.620465479094676 -105.60522610744499 -44.7677074759619 60.9687523477642 0.0 0.0
-38.0528091294472 -64.20098871550202 -30.67613935348476 -47.76074582216987 0.0 0.0
-73.77386880684514 -49.252564176263775 -36.907929894932664 -85.35216141375125 0.0 0.0
-145.76729615915613 -4.488830428769922 -45.07728759605982 -117.86050191939522 0.0 0.0
-235.40065644263478 7.961456929053241 -68.23092187466628 -118.85282822757642 0.0 0.0
-340.28595073781867 9.031865572948545 -99.05032174827741 -108.7012955216423 0.0 0.0
-460.0337176009173 -10.010047111007909 -155.28004503742045 -90.09639852648134 0.0 0.0
-577.622545281472 -31.62764008185237 -239.9810010241721 -84.03296132600533 0.0 0.0
-659.7729402574613 -47.6912918938849 -322.1601972306222 -83.26704937810447 0.0 0.0
-727.8340628649049 -58.12194397363713 -380.6573412318253 -83.64019906170168 0.0 0.0
-787.8316248331466 -70.6446390008632 -424.2456055144567 -83.81073034089533 0.0 0.0
-845.770884836538 -87.2040690907866 -463.6033558528215 -83.0280804566414 0.0 0.0
-904.213014221282 -108.52188823341581 -504.0704598667031 -81.1747613454917 0.0 0.0
-963.773527675809 -133.8676827321637 -546.6521406971963 -78.82158151338184 0.0 0.0
-1022.3457894208727 -161.41284305446476 -589.7027161411286 -76.42329078953387 0.0 0.0
-1077.6731968543827 -186.2652651538105 -629.7904782220967 -74.18990385368014 0.0 0.0
-1120.1651320850312 -199.9600933629191 -658.0391112877189 -72.85722810259654 0.0 0.0
-1127.0499980526477 -181.72682795585806 -652.7955762528891 -74.19555837974934 0.0 0.0
-1072.5876905147127 -108.30781605528853 -589.4995468659299 -78.75279590963382 0.0 0.0
-951.1142049628639 21.32722109961962 -464.81319202755765 -84.68544343091799 0.0 0.0
-764.4882297684086 197.48278501954658 -284.6213268856848 -94.1228110350773 0.0 0.0
-3065.0124192963553 -2165.2010377535685 -2598.130388467982 1.481446076923021e-10 0.0 0.0
-764.4882297675317 197.48278502042803 -284.62132688502925 94.12281103515934 0.0 0.0
-951.1142049622753 21.32722110014784 -464.81319202720624 84.68544343095854 0.0 0.0
-1072.5876905144837 -108.30781605515739 -589.4995468657837 78.75279590972123 0.0 0.0
-1127.049998052919 -181.7268279562709 -652.795576253096 74.19555837981507 0.0 0.0
-1120.1651320847304 -199.96009336277228 -658.0391112874627 72.8572281027067 0.0 0.0
-1077.6731968543136 -186.26526515385495 -629.7904782220031 74.18990385368127 0.0 0.0
-1022.3457894214423 -161.4128430552954 -589.7027161413846 76.42329078966775 0.0 0.0
-963.7735276765054 -133.8676827330933 -546.6521406976566 78.82158151349334 0.0 0.0
-904.2130142212955 -108.52188823368841 -504.07045986667464 81.17476134554715 0.0 0.0
-845.7708848359458 -87.20406909039289 -463.6033558524616 83.02808045656677 0.0 0.0
-787.831624832508 -70.64463900050444 -424.24560551400685 83.81073034087136 0.0 0.0
-727.834062864547 -58.12194397358326 -380.657341231536 83.64019906173118 0.0 0.0
-659.77294025716 -47.691291893941454 -322.16019723029086 83.26704937810449 0.0 0.0
-577.6225452811943 -31.62764008202133 -239.98100102385033 84.03296132606555 0.0 0.0
-460.03371760031143 -10.010047110786468 -155.28004503705682 90.09639852647076 0.0 0.0
-340.28595073744236 9.031865572735207 -99.05032174824338 108.70129552153493 0.0 0.0
-235.40065644232484 7.9614569293064115 -68.23092187449681 118.85282822748336 0.0 0.0
-145.76729615898094 -4.4888304288047225 -45.07728759601768 117.86050191923866 0.0 0.0
-73.77386880679454 -49.25256417623235 -36.907929894908065 85.35216141370093 0.0 0.0
-38.052809129514536 -64.20098871545845 -30.676139353491884 47.76074582215376 0.0 0.0
-34.82649620905697 -34.73173491815723 -20.867469338164263 -34.685867052476425 0.0 0.0
-78.24182290390426 -37.021104565458806 -34.57887824080892 -65.41653238171249 0.0 0.0
-160.60640719799488 -3.041257304250073 -49.09429935067348 -94.11040307244264 0.0 0.0
-265.46733183555074 4.730375970833209 -78.19933452152654 -94.74665157021592 0.0 0.0
-391.26834682857094 1.391745718002693 -117.91502393578558 -81.54484434189092 0.0 0.0
-518.5780926206093 -20.04184377341709 -187.52425879167214 -65.10645448607411 0.0 0.0
-620.9188459323397 -39.41479212434549 -277.1554179516984 -62.381887725901954 0.0 0.0
-697.608835504303 -52.63101966695715 -352.5280370520956 -62.649108159232426 0.0 0.0
-765.6585374233892 -66.78555417969437 -408.22610198532163 -63.63052143952052 0.0 0.0
-828.2325812473931 -82.84846934750598 -452.30055698941845 -64.29086388139389 0.0 0.0
-889.5821373291253 -103.33492579634029 -494.4952673428535 -63.952123394257974 0.0 0.0
-952.2588457991569 -128.61871830136187 -538.797877039376 -62.634793297634964 0.0 0.0
-1015.6208336403595 -158.19123691333988 -585.3264276937945 -60.82275127345295 0.0 0.0
-1077.4094278755915 -187.23619181280444 -630.702964273403 -59.12365513701887 0.0 0.0
-1134.4673769041246 -214.07830966905314 -672.6027394568869 -57.28311127641191 0.0 0.0
-1181.4470806242998 -232.42326046815865 -705.3248223276139 -55.19341145088185 0.0 0.0
-1196.57232310935 -220.96110736540953 -707.5522745963863 -54.365527557301384 0.0 0.0
-1136.4637420354843 -140.36770106239615 -637.9451932053134 -57.72478352558339 0.0 0.0
-986.2868875077736 19.023161114590877 -483.89274040172245 -66.11276385387214 0.0 0.0
-762.9360598569237 232.3212281554271 -266.0235669217396 -80.69147348987235 0.0 0.0
-3296.4472277269733 -2354.734630437895 -2811.6763001582335 1.070716848516895e-10 0.0 0.0
-762.9360598567005 232.32122815560228 -266.0235669214226 80.69147348993576 0.0 0.0
-986.2868875076242 19.02316111470725 -483.89274040169903 66.11276385398563 0.0 0.0
-1136.4637420342888 -140.36770106129967 -637.9451932044199 57.72478352562642 0.0 0.0
-1196.5723231098257 -220.96110736598467 -707.5522745967746 54.36552755740293 0.0 0.0
-1181.4470806240984 -232.4232604680781 -705.3248223274129 55.19341145088735 0.0 0.0
-1134.4673769030694 -214.0783096681521 -672.6027394560824 57.28311127647973 0.0 0.0
-1077.4094278751254 -187.23619181250618 -630.7029642729087 59.12365513705841 0.0 0.0
-1015.6208336408754 -158.19123691407574 -585.3264276941608 60.822751273422526 0.0 0.0
-952.2588457986795 -128.61871830112167 -538.7978770390172 62.63479329770948 0.0 0.0
-889.5821373285188 -103.33492579594252 -494.4952673424952 63.95212339413532 0.0 0.0
-828.2325812468652 -82.84846934725537 -452.30055698907415 64.2908638814493 0.0 0.0
-765.6585374229867 -66.78555417959497 -408.2261019850183 63.63052143951341 0.0 0.0
-697.6088355035083 -52.63101966639653 -352.52803705144765 62.64910815912292 0.0 0.0
-620.918845932104 -39.41479212452603 -277.15541795137517 62.38188772593981 0.0 0.0
-518.5780926198997 -20.041843773015813 -187.52425879117627 65.10645448601761 0.0 0.0
-391.268346828151 1.3917457177927002 -117.91502393571629 81.54484434190815 0.0 0.0
-265.46733183528863 4.73037597091691 -78.19933452142155 94.74665157013276 0.0 0.0
-160.6064071978689 -3.041257304287277 -49.09429935064684 94.11040307234535 0.0 0.0
-78.24182290379092 -37.021104565384846 -34.57887824075271 65.41653238158455 0.0 0.0
-34.826496209023325 -34.73173491814325 -20.867469338149974 34.68586705242201 0.0 0.0
-32.76517385333823 -16.879253258484788 -14.893328133546902 -22.4798342938904 0.0 0.0
-79.91059795654319 -25.57683671079878 -31.646230400202587 -44.22502806789666 0.0 0.0
-173.7727490738157 -1.744876047030163 -52.655287536253766 -65.95656419625873 0.0 0.0
-295.9298827522872 0.8483124081344733 -88.45399080110191 -65.87879976458964 0.0 0.0
-438.00450048575317 -10.095196353611495 -139.6707384377113 -51.71296884989133 0.0 0.0
-565.8789259962635 -28.71146891295006 -219.74942484331675 -41.995905039277346 0.0 0.0
-651.8109229156831 -44.6234732713054 -307.21531426787834 -41.30255670142215 0.0 0.0
-729.5778974565708 -58.721371541703846 -378.18951218605775 -42.429339177575294 0.0 0.0
-798.5521868193478 -75.99916387170342 -431.946756805704 -43.42266088886273 0.0 0.0
-863.9760055193778 -95.369704929714 -477.4682252724556 -44.14106445632976 0.0 0.0
-929.3876374079462 -119.58029481204694 -523.0974933474483 -44.11813124396066 0.0 0.0
-995.8821809041247 -148.8737030755333 -571.1963057880312 -43.29195955602424 0.0 0.0
-1063.331106454315 -181.05405551441544 -621.0296210969386 -42.183560930849644 0.0 0.0
-1127.6802924454964 -213.43214039828595 -669.3579515888275 -41.04350826390964 0.0 0.0
-1185.2048875739122 -240.07125923220158 -711.4004491609003 -39.764721498742986 0.0 0.0
-1230.2106667290354 -256.08132571661247 -741.8975879939642 -37.7943178318177 0.0 0.0
-1254.6447682178825 -253.99788186917186 -753.2548150543996 -35.3287028329819 0.0 0.0
-1221.9572042859975 -199.6420919973888 -710.4194001880426 -35.958773510116764 0.0 0.0
-1043.4742401507337 -9.752519266059466 -527.1139322887491 -45.897902518312655 0.0 0.0
-738.5480110418565 286.8148490071769 -226.39311722939405 -67.2839920237955 0.0 0.0
-3478.6468959358426 -2500.0384289606327 -2978.0083716228446 2.8848035071860068e-11 0.0 0.0
-738.5480110417361 286.8148490072588 -226.39311722927576 67.28399202384622 0.0 0.0
-1043.4742401505287 -9.752519265958853 -527.1139322887033 45.89790251845041 0.0 0.0
-1221.9572042853795 -199.64209199683316 -710.4194001876948 35.95877351020035 0.0 0.0
-1254.644768218675 -253.99788187007584 -753.2548150549272 35.32870283301881 0.0 0.0
-1230.2106667293885 -256.081325717091 -741.8975879941004 37.79431783179155 0.0 0.0
-1185.2048875731166 -240.07125923151267 -711.4004491603592 39.76472149866703 0.0 0.0
-1127.6802924452563 -213.43214039824213 -669.3579515885613 41.04350826397491 0.0 0.0
-1063.3311064537384 -181.05405551402805 -621.0296210966208 42.1835609308402 0.0 0.0
-995.882180903501 -148.8737030751334 -571.1963057875992 43.29195955604593 0.0 0.0
-929.3876374077037 -119.58029481202432 -523.0974933473012 44.11813124390129 0.0 0.0
-863.9760055187793 -95.36970492939537 -477.4682252720272 44.14106445635583 0.0 0.0
-798.5521868187441 -75.99916387136967 -431.94675680527854 43.422660888840326 0.0 0.0
-729.5778974559669 -58.72137154135713 -378.18951218555503 42.429339177533855 0.0 0.0
-651.8109229151769 -44.62347327116612 -307.215314267405 41.30255670144909 0.0 0.0
-565.8789259955653 -28.711468912512878 -219.7494248427572 41.995905039188365 0.0 0.0
-438.0045004850811 -10.095196353292618 -139.67073843739246 51.71296884988958 0.0 0.0
-295.9298827520642 0.8483124081578453 -88.45399080102584 65.87879976451264 0.0 0.0
-173.77274907359396 -1.744876046956717 -52.655287536165204 65.9565641961556 0.0 0.0
-79.91059795639902 -25.5768367106929 -31.64623040012758 44.225028067814485 0.0 0.0
-32.76517385324616 -16.87925325847384 -14.893328133515995 22.47983429385686 0.0 0.0
-29.653356755757684 -9.680407228536525 -11.800129195288262 -12.771055291832898 0.0 0.0
-77.3244561153451 -16.466235943285856 -28.137207617589283 -22.1473123565467 0.0 0.0
-184.60582936980933 -1.4475292204580938 -55.81600757708022 -32.22097229078463 0.0 0.0
-328.1111261628153 -2.8539009093362466 -99.19967453655092 -31.694568310979502 0.0 0.0
-486.72566397036803 -18.865403509277677 -162.89949034797485 -23.109098407036672 0.0 0.0
-599.8907567222757 -35.48011277376844 -249.57884551433932 -20.995644749855643 0.0 0.0
-679.9426718231971 -46.990381490849636 -331.43521624557326 -21.943047780078953 0.0 0.0
-756.6824482946065 -65.47692161600153 -399.80252004669563 -22.595944513508798 0.0 0.0
-827.4170571508629 -85.2801825740481 -452.65264396078686 -23.003489852384906 0.0 0.0
-896.0704023857477 -108.41899039548318 -500.68837285793603 -23.397200416681333 0.0 0.0
-965.2924753977709 -136.1929986770569 -549.7528065737241 -23.476451865988665 0.0 0.0
-1035.8927885832964 -168.33215657659764 -601.271074124912 -23.23983052902279 0.0 0.0
-1106.5370729577571 -204.3680232132904 -654.6141120824808 -22.74066846575818 0.0 0.0
-1174.1640118982943 -238.68748229755647 -705.5479848078552 -22.207458041049907 0.0 0.0
-1231.339675697285 -264.61598250207857 -747.0786418359746 -21.5506756882741 0.0 0.0
-1271.5171677531355 -275.8442689147694 -772.7915533354058 -20.286305836480878 0.0 0.0
-1291.7340117432304 -270.10843566211224 -780.0690745441211 -17.961646429863375 0.0 0.0
-1294.5864196145537 -251.25072420239243 -772.2528788496363 -15.926068818366813 0.0 0.0
-1206.9693360345655 -149.43489433101576 -678.4010943005626 -22.154279731404056 0.0 0.0
-723.9424451182772 330.26110120455957 -197.47417936699455 -49.208121999874486 0.0 0.0
-3465.885828222859 -2451.8093177648125 -2950.3140953600127 -1.4495071809506044e-11 0.0 0.0
-723.9424451181006 330.26110120465967 -197.4741793668886 49.20812200000272 0.0 0.0
-1206.9693360336087 -149.434894330087 -678.4010942999697 22.154279731429753 0.0 0.0
-1294.5864196137454 -251.25072420166387 -772.2528788491317 15.926068818416221 0.0 0.0
-1291.7340117443566 -270.10843566335217 -780.0690745449276 17.96164642991704 0.0 0.0
-1271.517167752824 -275.8442689145905 -772.7915533350846 20.28630583649111 0.0 0.0
-1231.3396756978332 -264.61598250277166 -747.0786418363365 21.550675688285025 0.0 0.0
-1174.1640118982189 -238.68748229768093 -705.547984807834 22.207458041133187 0.0 0.0
-1106.5370729570243 -204.3680232127358 -654.6141120819619 22.740668465809463 0.0 0.0
-1035.8927885831602 -168.3321565766936 -601.2710741248111 23.23983052901774 0.0 0.0
-965.2924753974019 -136.19299867695375 -549.7528065734821 23.476451866042062 0.0 0.0
-896.0704023850275 -108.41899039500936 -500.6883728573982 23.397200416692662 0.0 0.0
-827.4170571505365 -85.2801825740165 -452.65264396054573 23.003489852372155 0.0 0.0
-756.6824482945997 -65.47692161629611 -399.80252004660383 22.5959445135777 0.0 0.0
-679.9426718229022 -46.9903814908568 -331.43521624523095 21.94304777998576 0.0 0.0
-599.8907567218565 -35.48011277370678 -249.57884551392968 20.995644749758874 0.0 0.0
-486.7256639696977 -18.865403508950642 -162.89949034759348 23.10909840701394 0.0 0.0
-328.11112616242235 -2.8539009092031424 -99.19967453640803 31.694568310913816 0.0 0.0
-184.60582936962223 -1.4475292203471413 -55.81600757699082 32.22097229070353 0.0 0.0
-77.32445611527044 -16.466235943247835 -28.137207617555475 22.147312356499214 0.0 0.0
-29.653356755743236 -9.680407228548196 -11.800129195287425 12.771055291753635 0.0 0.0
-18.633319425460286 -4.774992752042168 -7.0224936532507325 -7.971429607392508 0.0 0.0
-66.62831144093235 -9.263345196801952 -22.76749699132029 -9.194336993271028 0.0 0.0
-191.98612735751973 -2.8028267480405233 -58.43668623166806 -10.934151779080855 0.0 0.0
-367.9592688516998 -15.49027250967227 -115.31904993085753 -9.246402409704467 0.0 0.0
-549.0197994164616 -53.986648780725545 -201.26844943125667 -1.810889846091964 0.0 0.0
-676.0048014990272 -93.78172359561222 -311.5149445681591 0.6875308729738165 0.0 0.0
-779.5423278028458 -131.95243770740205 -417.0868827912506 0.7498496131517243 0.0 0.0
-888.7553848407098 -184.5586987535208 -516.8119442031801 -0.375553719445179 0.0 0.0
-1002.2904713483313 -248.10759572377827 -612.2020709689118 -1.7365175354475753 0.0 0.0
-1128.904514479484 -329.0108844672596 -717.8248822726628 -3.1752064692227897 0.0 0.0
-1273.688939269376 -431.7233006759651 -841.8708428821101 -4.575382024964258 0.0 0.0
-1437.1059223428947 -557.1171960636377 -986.0350951014586 -5.777044602961318 0.0 0.0
-1614.8082359318962 -699.0266466036824 -1145.3829360825275 -6.58690627802444 0.0 0.0
-1799.1056879091266 -849.627720980121 -1312.3934741327191 -7.31618515656373 0.0 0.0
-1976.0858851387961 -995.0034555656276 -1473.2150250778511 -7.791905477647166 0.0 0.0
-2126.074586743027 -1115.9106037983952 -1608.4637069531896 -7.776921321657142 0.0 0.0
-2224.4343812646275 -1188.7247858335488 -1694.1135489364106 -6.830033769322139 0.0 0.0
-2249.222324446062 -1192.5954538021901 -1708.5284065138453 -4.757748185289625 0.0 0.0
-2255.5031479224535 -1183.6823959013116 -1706.265745913972 -8.505483877601629 0.0 0.0
-2248.407724844122 -1174.4666070056605 -1694.9552206415467 -37.882549077175725 0.0 0.0
-5483.210007869939 -4441.179446491387 -4936.2460944443255 4.496314431889914e-11 0.0 0.0
-2248.4077248435115 -1174.4666070050976 -1694.955220641009 37.882549077308475 0.0 0.0
-2255.503147921918 -1183.6823959008277 -1706.265745913422 8.505483877581383 0.0 0.0
-2249.22232444359 -1192.5954537997834 -1708.5284065117405 4.757748185365166 0.0 0.0
-2224.434381266058 -1188.7247858351232 -1694.1135489372923 6.830033769396309 0.0 0.0
-2126.074586741845 -1115.9106037973306 -1608.4637069520413 7.77692132161561 0.0 0.0
-1976.0858851384996 -995.0034555654959 -1473.2150250774062 7.791905477689994 0.0 0.0
-1799.1056879083255 -849.6277209794868 -1312.3934741320697 7.316185156586659 0.0 0.0
-1614.808235930961 -699.0266466029475 -1145.382936081675 6.586906278086225 0.0 0.0
-1437.1059223423404 -557.1171960633334 -986.0350951008625 5.777044603067555 0.0 0.0
-1273.6889392681671 -431.7233006749874 -841.8708428812005 4.575382025071576 0.0 0.0
-1128.9045144787733 -329.0108844668166 -717.8248822720191 3.175206469213375 0.0 0.0
-1002.2904713477174 -248.1075957234422 -612.2020709683997 1.7365175354435074 0.0 0.0
-888.7553848403429 -184.55869875343149 -516.8119442028244 0.3755537194254295 0.0 0.0
-779.542327802382 -131.95243770726734 -417.08688279076296 -0.7498496133527084 0.0 0.0
-676.0048014984324 -93.78172359534484 -311.5149445675826 -0.6875308730982965 0.0 0.0
-549.0197994158812 -53.98664878047039 -201.26844943086076 1.8108898461559235 0.0 0.0
-367.95926885124504 -15.490272509290758 -115.31904993061026 9.24640240968477 0.0 0.0
-191.9861273572915 -2.802826747865005 -58.436686231546915 10.934151779096485 0.0 0.0
-66.62831144088742 -9.263345196873429 -22.76749699132825 9.194336993259475 0.0 0.0
-18.633319425422357 -4.774992752026451 -7.022493653234641 7.971429607258461 0.0 0.0
SCALARS Strain float 6
LOOKUP_TABLE default
0.012768243761461896 -0.021691931793934062 0.0 -0.0009933708558319653 0.0 0.0
0.007838854925946092 -0.0019952685922831567 0.0 -0.006660070442262127 0.0 0.0
0.0023937346460753024 -0.0006106372212236901 0.0 -0.0007054385189435156 0.0 0.0
0.002102093320257002 -0.0008421007091107915 0.0 -2.308207508278376e-05 0.0 0.0
0.00290928408719104 -0.0012117792089391425 0.0 0.00011225978073097971 0.0 0.0
0.004642825509836398 -0.0024751256294081392 0.0 0.00022689829884479563 0.0 0.0
0.007598214296165822 -0.004933769783537453 0.0 0.0003029762592969338 0.0 0.0
0.011966049803170523 -0.008787030908112005 0.0 0.0003323782007911405 0.0 0.0
0.01791236794229853 -0.014188945904794623 0.0 0.00032137882343111977 0.0 0.0
0.02551009375398198 -0.02115745482110821 0.0 0.0002541961149918126 0.0 0.0
0.0347627009095541 -0.02966252324840992 0.0 0.0001698509336291611 0.0 0.0
0.04565340858284833 -0.03968382484268115 0.0 6.477186085955793e-05 0.0 0.0
0.05815273257975721 -0.05122217543975266 0.0 -0.0001110065794742342 0.0 0.0
0.0722218737073826 -0.06427376531819272 0.0 -0.00030968740774366154 0.0 0.0
0.0877392521359368 -0.07876762939021523 0.0 -0.0005782907005899072 0.0 0.0
0.1043427146902614 -0.09439616786847768 0.0 -0.0009230651062061377 0.0 0.0
0.12131334856873136 -0.11049199771225829 0.0 -0.0012840627704854479 0.0 0.0
0.13755191702767533 -0.12600883975145438 0.0 -0.0015206485277329484 0.0 0.0
0.1516884305715376 -0.13959963892421512 0.0 -0.0014576121524242 0.0 0.0
0.16211462528313186 -0.14972152065593672 0.0 -0.0015094127549562329 0.0 0.0
0.16618053797302057 -0.15383255662608644 0.0 1.3548190347378863e-15 0.0 0.0
0.162114625283112 -0.14972152065592154 0.0 0.0015094127549625247 0.0 0.0
0.1516884305714957 -0.1395996389241788 0.0 0.0014576121524283838 0.0 0.0
0.13755191702761424 -0.12600883975140365 0.0 0.0015206485277368615 0.0 0.0
0.12131334856866155 -0.11049199771219131 0.0 0.0012840627704853412 0.0 0.0
0.10434271469018949 -0.09439616786840309 0.0 0.0009230651062029594 0.0 0.0
0.08773925213586402 -0.07876762939014813 0.0 0.0005782907005894514 0.0 0.0
0.07222187370730748 -0.06427376531811711 0.0 0.0003096874077409546 0.0 0.0
0.05815273257968265 -0.05122217543969006 0.0 0.00011100657947307616 0.0 0.0
0.04565340858278054 -0.03968382484261615 0.0 -6.477186086081051e-05 0.0 0.0
0.03476270090949598 -0.02966252324835101 0.0 -0.0001698509336322139 0.0 0.0
0.025510093753934877 -0.0211574548210624 0.0 -0.0002541961149925507 0.0 0.0
0.017912367942262204 -0.014188945904764726 0.0 -0.0003213788234328642 0.0 0.0
0.011966049803143908 -0.008787030908089355 0.0 -0.00033237820079002163 0.0 0.0
0.007598214296147869 -0.004933769783523696 0.0 -0.00030297625929826997 0.0 0.0
0.004642825509826593 -0.002475125629402713 0.0 -0.0002268982988427382 0.0 0.0
0.0029092840871873765 -0.0012117792089364264 0.0 -0.00011225978073129779 0.0 0.0
0.0021020933202560523 -0.0008421007091111165 0.0 2.3082075083819825e-05 0.0 0.0
0.0023937346460734922 -0.000610637221224233 0.0 0.0007054385189401395 0.0 0.0
0.007838854925940336 -0.0019952685922799696 0.0 0.006660070442253653 0.0 0.0
0.012768243761453682 -0.021691931793909994 0.0 0.0009933708557888683 0.0 0.0
0.008779840320321277 -0.019382053732127334 0.0 -0.0005249427449113423 0.0 0.0
0.005167356554725034 -0.0014806526332673264 0.0 -0.005321189534261986 0.0 0.0
0.001615948068294304 -0.00048353887253508535 0.0 -0.000458549120371668 0.0 0.0
0.0018695416475842876 -0.0007951858944473116 0.0 -0.00020506689031721877 0.0 0.0
0.002530274743858931 -0.0011020711558680629 0.0 -0.0001593840276087235 0.0 0.0
0.004002659444749327 -0.0022190018061722674 0.0 -0.0002039390258561508 0.0 0.0
0.006631143758747265 -0.004504167873754097 0.0 -0.0004272210820751618 0.0 0.0
0.010592310023925851 -0.008146684441525992 0.0 -0.0007585683400660421 0.0 0.0
0.016014707843957143 -0.013284815547192057 0.0 -0.0012115549152932625 0.0 0.0
0.022925948176737068 -0.019914864322018715 0.0 -0.0017636517870425524 0.0 0.0
0.03129423440118226 -0.027988268550524352 0.0 -0.0023557234200326047 0.0 0.0
0.04109162848040293 -0.037474580230288754 0.0 -0.0029534874687595723 0.0 0.0
0.05232689092049135 -0.048387210020263784 0.0 -0.003594902110766256 0.0 0.0
0.06499919601538377 -0.06074755619733377 0.0 -0.004296504723911723 0.0 0.0
0.07901243893444368 -0.07449369468384161 0.0 -0.005046130857036038 0.0 0.0
0.09405511800825285 -0.08934315487105335 0.0 -0.005792199041373338 0.0 0.0
0.10948846872366258 -0.10467532188844111 0.0 -0.0063507934480040405 0.0 0.0
0.12433075872880262 -0.119505307667949 0.0 -0.006413063661058951 0.0 0.0
0.13728003874152844 -0.13253400842871202 0.0 -0.005727891204381948 0.0 0.0
0.1465686926273616 -0.1421228260800836 0.0 -0.00460246725229108 0.0 0.0
0.15003828682319217 -0.14606230827506042 0.0 5.845584433172846e-15 0.0 0.0
0.14656869262734246 -0.14212282608006432 0.0 0.004602467252307437 0.0 0.0
0.1372800387414913 -0.13253400842867402 0.0 0.005727891204396045 0.0 0.0
0.12433075872874993 -0.11950530766789708 0.0 0.006413063661068199 0.0 0.0
0.10948846872360134 -0.10467532188838091 0.0 0.006350793448004973 0.0 0.0
0.0940551180081882 -0.0893431548709864 0.0 0.005792199041367428 0.0 0.0
0.07901243893437784 -0.07449369468377713 0.0 0.00504613085703344 0.0 0.0
0.06499919601531655 -0.060747556197264074 0.0 0.0042965047239077615 0.0 0.0
0.0523268909204249 -0.048387210020207266 0.0 0.0035949021107620272 0.0 0.0
0.04109162848034192 -0.037474580230229065 0.0 0.0029534874687562043 0.0 0.0
0.03129423440112963 -0.027988268550468477 0.0 0.002355723420025233 0.0 0.0
0.022925948176694202 -0.019914864321977515 0.0 0.0017636517870382557 0.0 0.0
0.016014707843924215 -0.013284815547159445 0.0 0.001211554915289033 0.0 0.0
0.010592310023901992 -0.008146684441505752 0.0 0.0007585683400642943 0.0 0.0
0.006631143758731665 -0.004504167873740511 0.0 0.00042722108207381805 0.0 0.0
0.004002659444741331 -0.002219001806166355 0.0 0.00020393902585663233 0.0 0.0
0.002530274743855966 -0.0011020711558660647 0.0 0.00015938402760868884 0.0 0.0
0.0018695416475836692 -0.0007951858944485302 0.0 0.00020506689031828042 0.0 0.0
0.0016159480682944184 -0.0004835388725361673 0.0 0.0004585491203706319 0.0 0.0
0.005167356554718743 -0.0014806526332639559 0.0 0.005321189534250385 0.0 0.0
0.008779840320308504 -0.01938205373210262 0.0 0.0005249427448779824 0.0 0.0
0.006371165267132406 -0.015366707121190034 0.0 -0.003286099083623476 0.0 0.0
0.003635478459170863 -0.0008093235317312483 0.0 -0.005246345697326662 0.0 0.0
0.0011355212022179078 -0.000278516872495342 0.0 -0.0004334588684958858 0.0 0.0
0.0015944251982920102 -0.000682430467044042 0.0 -0.00047956141973624705 0.0 0.0
0.002186578791500315 -0.000915346099755359 0.0 -0.00047417573362249887 0.0 0.0
0.0033940700076042435 -0.001740044099777226 0.0 -0.0005389665609937822 0.0 0.0
0.005671957965622593 -0.003658116517228133 0.0 -0.000958976432816558 0.0 0.0
0.00920721485266499 -0.006872407141931811 0.0 -0.00161144491094393 0.0 0.0
0.014079647443520232 -0.011467468267299335 0.0 -0.0024935573864190343 0.0 0.0
0.02028601576165077 -0.017411899020138462 0.0 -0.003547870201517648 0.0 0.0
0.027765854874906078 -0.02461866362601813 0.0 -0.004677777585381246 0.0 0.0
0.03647975466023578 -0.03304144164128368 0.0 -0.005801495170603945 0.0 0.0
0.04644596606956052 -0.042705624632104845 0.0 -0.006931779702234656 0.0 0.0
0.057703421606933106 -0.05367200156566407 0.0 -0.008156366113843157 0.0 0.0
0.07019563765231276 -0.06591280921997773 0.0 -0.00947979108923864 0.0 0.0
0.08366436961262294 -0.07919696701861163 0.0 -0.010768160426622264 0.0 0.0
0.09757599585686408 -0.09300316663782121 0.0 -0.011707688818976594 0.0 0.0
0.11106183861824241 -0.1064730285161779 0.0 -0.011818357247094088 0.0 0.0
0.1228566519608272 -0.11838208292668131 0.0 -0.010705973710081435 0.0 0.0
0.1313493084563161 -0.1270720868945645 0.0 -0.008274659439462498 0.0 0.0
0.13455300556566602 -0.13085110318211407 0.0 1.180869638184312e-14 0.0 0.0
0.13134930845629836 -0.1270720868945487 0.0 0.00827465943949143 0.0 0.0
0.12285665196079362 -0.11838208292664801 0.0 0.010705973710110984 0.0 0.0
0.11106183861819663 -0.1064730285161299 0.0 0.011818357247110896 0.0 0.0
0.09757599585681034 -0.09300316663776922 0.0 0.011707688818980117 0.0 0.0
0.08366436961256536 -0.07919696701855611 0.0 0.010768160426616484 0.0 0.0
0.0701956376522539 -0.06591280921991666 0.0 0.009479791089235214 0.0 0.0
0.057703421606872904 -0.05367200156560781 0.0 0.008156366113837627 0.0 0.0
0.04644596606950214 -0.04270562463205352 0.0 0.006931779702228295 0.0 0.0
0.0364797546601815 -0.03304144164123192 0.0 0.0058014951705974635 0.0 0.0
0.02776585487485887 -0.02461866362597052 0.0 0.004677777585371558 0.0 0.0
0.020286015761612694 -0.017411899020101214 0.0 0.0035478702015083238 0.0 0.0
0.014079647443490625 -0.011467468267267782 0.0 0.0024935573864134225 0.0 0.0
0.00920721485264377 -0.006872407141910777 0.0 0.0016114449109390335 0.0 0.0
0.005671957965609037 -0.003658116517215442 0.0 0.0009589764328140256 0.0 0.0
0.0033940700075975453 -0.0017400440997720962 0.0 0.0005389665609931607 0.0 0.0
0.002186578791498041 -0.0009153460997539619 0.0 0.000474175733622735 0.0 0.0
0.001594425198291802 -0.0006824304670461626 0.0 0.0004795614197369096 0.0 0.0
0.001135521202217984 -0.00027851687249638127 0.0 0.0004334588684944409 0.0 0.0
0.003635478459164603 -0.0008093235317279149 0.0 0.005246345697312703 0.0 0.0
0.00637116526712004 -0.015366707121165836 0.0 0.0032860990836008496 0.0 0.0
0.00476929584166949 -0.012326083181755132 0.0 -0.003707066378932925 0.0 0.0
0.002660370248024007 -0.0005877213784982775 0.0 -0.004785587499545251 0.0 0.0
0.0008126393367678389 -0.00015785130084623188 0.0 -0.0007225634244221588 0.0 0.0
0.0013216646766975881 -0.0005481072006443209 0.0 -0.0007478971415083603 0.0 0.0
0.0018688824555580523 -0.0007729576577717657 0.0 -0.0007907963603463073 0.0 0.0
0.002834939690361798 -0.0013461395799647569 0.0 -0.0008507219389440346 0.0 0.0
0.00473867255565786 -0.002857889527374004 0.0 -0.0013154639616734653 0.0 0.0
0.007821615663823783 -0.005615944637246009 0.0 -0.002234356759603811 0.0 0.0
0.012125002179199216 -0.009644233354640642 0.0 -0.0034438527168428536 0.0 0.0
0.017611454946693157 -0.014884372895124707 0.0 -0.00488457498470891 0.0 0.0
0.02419721923485096 -0.021219848994952387 0.0 -0.006420736955540084 0.0 0.0
0.03183186087824804 -0.028586104752965517 0.0 -0.007945111824321022 0.0 0.0
0.04053682613291493 -0.03700866530078636 0.0 -0.009466082303947868 0.0 0.0
0.0503663227340816 -0.04656966283218881 0.0 -0.011075782538217845 0.0 0.0
0.06131390478669235 -0.057283437068798834 0.0 -0.012804828146734119 0.0 0.0
0.07319730286197323 -0.06898481737983034 0.0 -0.014505142858231691 0.0 0.0
0.08558037189226862 -0.08125790165502812 0.0 -0.0157786505245529 0.0 0.0
0.09771071860471901 -0.09337233920973391 0.0 -0.016039706754147506 0.0 0.0
0.1084507214218542 -0.10420532279125373 0.0 -0.01467714250543155 0.0 0.0
0.11637532280447815 -0.11227441631967233 0.0 -0.010975442717664171 0.0 0.0
0.1194453703849983 -0.11615559248485788 0.0 1.5357940613691667e-14 0.0 0.0
0.11637532280446183 -0.1122744163196594 0.0 0.010975442717702722 0.0 0.0
0.10845072142182441 -0.10420532279122358 0.0 0.014677142505468876 0.0 0.0
0.09771071860467863 -0.09337233920968577 0.0 0.01603970675416905 0.0 0.0
0.08558037189222163 -0.08125790165498356 0.0 0.01577865052455643 0.0 0.0
0.07319730286192268 -0.06898481737978246 0.0 0.01450514285822559 0.0 0.0
0.061313904786640255 -0.05728343706874721 0.0 0.012804828146730226 0.0 0.0
0.050366322734029044 -0.04656966283213846 0.0 0.01107578253821145 0.0 0.0
0.04053682613286439 -0.03700866530073724 0.0 0.009466082303941213 0.0 0.0
0.03183186087820076 -0.028586104752919464 0.0 0.007945111824307762 0.0 0.0
0.024197219234809438 -0.021219848994913033 0.0 0.006420736955527902 0.0 0.0
0.017611454946659416 -0.014884372895090116 0.0 0.004884574984697053 0.0 0.0
0.01212500217917317 -0.00964423335461605 0.0 0.0034438527168345412 0.0 0.0
0.007821615663805306 -0.005615944637225341 0.0 0.002234356759596074 0.0 0.0
0.004738672555646607 -0.0028578895273660815 0.0 0.0013154639616703725 0.0 0.0
0.002834939690356875 -0.0013461395799616558 0.0 0.0008507219389431453 0.0 0.0
0.0018688824555565756 -0.000772957657771369 0.0 0.0007907963603456779 0.0 0.0
0.001321664676697459 -0.0005481072006443817 0.0 0.0007478971415072904 0.0 0.0
0.0008126393367680906 -0.000157851300846538 0.0 0.0007225634244181918 0.0 0.0
0.002660370248018491 -0.0005877213784956142 0.0 0.004785587499533471 0.0 0.0
0.004769295841658356 -0.012326083181733408 0.0 0.0037070663789168564 0.0 0.0
0.0035862717234498454 -0.00989008438653222 0.0 -0.003320419821684863 0.0 0.0
0.001973371457027797 -0.0004879605233152975 0.0 -0.004284373423987452 0.0 0.0
0.0005905134041307419 -9.64498548605242e-05 0.0 -0.0011036622610025744 0.0 0.0
0.001068939237744083 -0.00041632267061516144 0.0 -0.0010356007157111768 0.0 0.0
0.001569506654723704 -0.0006484500045336889 0.0 -0.0011032206029120278 0.0 0.0
0.0023357787067457354 -0.0010442052444677129 0.0 -0.0011558724475388606 0.0 0.0
0.0038551115917544584 -0.0021488815682664513 0.0 -0.0015720656175640456 0.0 0.0
0.0064503117239248986 -0.00439257731455364 0.0 -0.0025870909596904927 0.0 0.0
0.010169508475750025 -0.007836882054795002 0.0 -0.004054793164254331 0.0 0.0
0.014921887007263785 -0.012356162275975004 0.0 -0.005765989259439597 0.0 0.0
0.020609818903745244 -0.017814626978856326 0.0 -0.0075849987217888465 0.0 0.0
0.027167122654656848 -0.024127807032527437 0.0 -0.00938410347577032 0.0 0.0
0.03461230016853864 -0.031314850502087405 0.0 -0.011173912723142635 0.0 0.0
0.04301899057788982 -0.039470561851645374 0.0 -0.01305204556333125 0.0 0.0
0.052411304969924105 -0.04864575474649433 0.0 -0.015044386128394788 0.0 0.0
0.0626781780910601 -0.058741624142719356 0.0 -0.01699256018948214 0.0 0.0
0.07350325325537808 -0.06944950271094444 0.0 -0.01851849634268405 0.0 0.0
0.08427409895773631 -0.08018357313637976 0.0 -0.01900547048951034 0.0 0.0
0.09403142175495603 -0.09000415201076598 0.0 -0.017555121556788487 0.0 0.0
0.10153386330611475 -0.09763104286172679 0.0 -0.013037336829015835 0.0 0.0
0.10455333335907215 -0.10175491194842606 0.0 1.707141372708776e-14 0.0 0.0
0.10153386330609981 -0.0976310428617099 0.0 0.013037336829059134 0.0 0.0
0.09403142175492946 -0.09000415201073808 0.0 0.017555121556830644 0.0 0.0
0.08427409895770104 -0.08018357313633813 0.0 0.01900547048953597 0.0 0.0
0.07350325325533755 -0.06944950271090765 0.0 0.01851849634268849 0.0 0.0
0.062678178091017 -0.058741624142674975 0.0 0.016992560189475613 0.0 0.0
0.05241130496987924 -0.04864575474644968 0.0 0.015044386128388262 0.0 0.0
0.04301899057784466 -0.03947056185160047 0.0 0.01305204556332671 0.0 0.0
0.03461230016849516 -0.03131485050204786 0.0 0.011173912723133665 0.0 0.0
0.027167122654616422 -0.02412780703248806 0.0 0.009384103475755596 0.0 0.0
0.02060981890370972 -0.01781462697882402 0.0 0.007584998721773421 0.0 0.0
0.014921887007234527 -0.012356162275944691 0.0 0.00576598925942712 0.0 0.0
0.010169508475727602 -0.007836882054775668 0.0 0.004054793164243333 0.0 0.0
0.006450311723909442 -0.004392577314539216 0.0 0.0025870909596822323 0.0 0.0
0.003855111591745417 -0.0021488815682608083 0.0 0.0015720656175608957 0.0 0.0
0.002335778706741721 -0.0010442052444658884 0.0 0.0011558724475375735 0.0 0.0
0.0015695066547223233 -0.0006484500045331555 0.0 0.0011032206029118416 0.0 0.0
0.001068939237743613 -0.000416322670613248 0.0 0.001035600715709273 0.0 0.0
0.0005905134041308343 -9.64498548613531e-05 0.0 0.0011036622610000619 0.0 0.0
0.001973371457023474 -0.00048796052331325743 0.0 0.004284373423976507 0.0 0.0
0.0035862717234408877 -0.009890084386513665 0.0 0.003320419821674252 0.0 0.0
0.002670459334418701 -0.007868514752059474 0.0 -0.0027728619314067162 0.0 0.0
0.0014592326170027809 -0.0004281240165900484 0.0 -0.003801039839822412 0.0 0.0
0.00042878635277740056 -7.142672802644739e-05 0.0 -0.0014645657613424868 0.0 0.0
0.0008364302464386066 -0.0002968806550590587 0.0 -0.0013281915558497632 0.0 0.0
0.0012841376141568906 -0.0005302154737559841 0.0 -0.001401384457536439 0.0 0.0
0.001888194649482428 -0.0008115946294213409 0.0 -0.0014512805732055508 0.0 0.0
0.003050354559372361 -0.0015650637489814517 0.0 -0.001802626486405823 0.0 0.0
0.005126298605487227 -0.003255321478860218 0.0 -0.002733407745871211 0.0 0.0
0.008224007750462715 -0.0060662014067719575 0.0 -0.00429398523018253 0.0 0.0
0.012237546852003728 -0.009851862773450145 0.0 -0.00618109606261432 0.0 0.0
0.0170224067983037 -0.01442631247110213 0.0 -0.008158665716779041 0.0 0.0
0.022505979443804894 -0.019689478279781226 0.0 -0.010114059244981068 0.0 0.0
0.02869886577564406 -0.02564774834053637 0.0 -0.012045769967259513 0.0 0.0
0.035679808727493004 -0.032401739021475376 0.0 -0.014054183649977639 0.0 0.0
0.043514421361737214 -0.040034303453919846 0.0 -0.016177591122181388 0.0 0.0
0.05215120754969698 -0.04850760255279204 0.0 -0.018249572975173278 0.0 0.0
0.06136740647535974 -0.0576047839984946 0.0 -0.019914210180308672 0.0 0.0
0.07073825310488828 -0.06690761163867669 0.0 -0.020607681605220696 0.0 0.0
0.07954019110023189 -0.07573241282972143 0.0 -0.019313249702136322 0.0 0.0
0.0867128601239004 -0.0830219033512973 0.0 -0.014535087564033197 0.0 0.0
0.08974000892988263 -0.08750488468457379 0.0 1.8994788381077043e-14 0.0 0.0
0.08671286012388754 -0.08302190335128307 0.0 0.014535087564077932 0.0 0.0
0.07954019110020914 -0.07573241282969809 0.0 0.019313249702180478 0.0 0.0
0.07073825310485889 -0.06690761163865383 0.0 0.020607681605247875 0.0 0.0
0.06136740647532564 -0.057604783998464484 0.0 0.019914210180313 0.0 0.0
0.052151207549659885 -0.04850760255275361 0.0 0.018249572975165836 0.0 0.0
0.04351442136169946 -0.040034303453886144 0.0 0.0161775911221726 0.0 0.0
0.03567980872745588 -0.032401739021446246 0.0 0.014054183649972445 0.0 0.0
0.028698865775607978 -0.025647748340502576 0.0 0.012045769967248886 0.0 0.0
0.022505979443771192 -0.019689478279748908 0.0 0.01011405924496734 0.0 0.0
0.01702240679827443 -0.014426312471074482 0.0 0.008158665716762421 0.0 0.0
0.01223754685197933 -0.009851862773427174 0.0 0.006181096062599885 0.0 0.0
0.008224007750443857 -0.006066201406755202 0.0 0.004293985230171208 0.0 0.0
0.005126298605475008 -0.0032553214788488714 0.0 0.002733407745864243 0.0 0.0
0.0030503545593656843 -0.0015650637489767292 0.0 0.001802626486402148 0.0 0.0
0.001888194649479807 -0.00081159462942175 0.0 0.0014512805732048138 0.0 0.0
0.001284137614155994 -0.0005302154737543375 0.0 0.0014013844575357383 0.0 0.0
0.000836430246438253 -0.00029688065505690305 0.0 0.0013281915558481321 0.0 0.0
0.00042878635277757875 -7.142672802768045e-05 0.0 0.0014645657613398474 0.0 0.0
0.0014592326169992067 -0.00042812401658853355 0.0 0.0038010398398123897 0.0 0.0
0.00267045933441124 -0.007868514752044172 0.0 0.0027728619313994716 0.0 0.0
0.0019528764352112066 -0.006170483680754337 0.0 -0.0022670072949724372 0.0 0.0
0.0010630008758815118 -0.0003864689787659133 0.0 -0.0033647821925990905 0.0 0.0
0.00030089725511137403 -6.138751399093201e-05 0.0 -0.0017631723806945387 0.0 0.0
0.0006200268637882173 -0.00019156443149753936 0.0 -0.0016026046023092815 0.0 0.0
0.0010066454263456905 -0.00040818928551602667 0.0 -0.0016692567560407066 0.0 0.0
0.001478374392516163 -0.0006280547558769327 0.0 -0.001745469235771706 0.0 0.0
0.002325365187559532 -0.001101598415272531 0.0 -0.0019981054115494096 0.0 0.0
0.00389111690374131 -0.002266579288307994 0.0 -0.0027842402784415414 0.0 0.0
0.0063281110124164975 -0.004384975427774522 0.0 -0.0042018260102597476 0.0 0.0
0.009573812928097843 -0.007399736827825569 0.0 -0.006095240432723564 0.0 0.0
0.01345583125934319 -0.011081742702371413 0.0 -0.008121457472034835 0.0 0.0
0.017867245302470358 -0.015295371471587018 0.0 -0.010117570280938508 0.0 0.0
0.022815688389815663 -0.02003458165794435 0.0 -0.012069601966324192 0.0 0.0
0.028381809937809706 -0.025395994993949147 0.0 -0.014075423113317128 0.0 0.0
0.03465251776874343 -0.031483432644472245 0.0 -0.016174370976681604 0.0 0.0
0.04163696781833173 -0.0383187843734051 0.0 -0.018246935121730545 0.0 0.0
0.049209055803819006 -0.04576496005159941 0.0 -0.019946983416468906 0.0 0.0
0.057111567457723625 -0.053562170018816635 0.0 -0.020796725738759805 0.0 0.0
0.06490803096512612 -0.061332417053373264 0.0 -0.019871686362253768 0.0 0.0
0.07178697809725501 -0.06831725707832122 0.0 -0.015442839692671214 0.0 0.0
0.07486463858345563 -0.07327041425483168 0.0 1.8654348898916595e-14 0.0 0.0
0.07178697809724376 -0.06831725707830778 0.0 0.01544283969271569 0.0 0.0
0.06490803096510689 -0.061332417053352795 0.0 0.01987168636229826 0.0 0.0
0.057111567457699214 -0.05356217001879444 0.0 0.02079672573878636 0.0 0.0
0.0492090558037909 -0.04576496005157442 0.0 0.019946983416473975 0.0 0.0
0.04163696781830143 -0.03831878437337287 0.0 0.018246935121722083 0.0 0.0
0.03465251776871334 -0.03148343264444608 0.0 0.016174370976672518 0.0 0.0
0.02838180993778031 -0.025395994993923497 0.0 0.01407542311331205 0.0 0.0
0.02281568838978696 -0.020034581657914555 0.0 0.01206960196631397 0.0 0.0
0.0178672453024437 -0.015295371471558801 0.0 0.010117570280925022 0.0 0.0
0.013455831259319833 -0.011081742702347946 0.0 0.008121457472018385 0.0 0.0
0.009573812928078287 -0.007399736827809148 0.0 0.006095240432706969 0.0 0.0
0.006328111012401663 -0.004384975427761002 0.0 0.0042018260102507365 0.0 0.0
0.0038911169037322297 -0.0022665792883008887 0.0 0.002784240278435189 0.0 0.0
0.0023253651875549623 -0.0011015984152701157 0.0 0.001998105411547507 0.0 0.0
0.0014783743925142554 -0.0006280547558762788 0.0 0.001745469235770846 0.0 0.0
0.0010066454263450149 -0.0004081892855142637 0.0 0.0016692567560385079 0.0 0.0
0.0006200268637881067 -0.00019156443149704794 0.0 0.001602604602308486 0.0 0.0
0.00030089725511113534 -6.138751399128686e-05 0.0 0.001763172380691068 0.0 0.0
0.0010630008758786692 -0.0003864689787649613 0.0 0.0033647821925918554 0.0 0.0
0.0019528764352059432 -0.00617048368074187 0.0 0.0022670072949670583 0.0 0.0
0.0013901738603689564 -0.004753827549894915 0.0 -0.0018814102892292135 0.0 0.0
0.0007517104562183974 -0.00035984831187698275 0.0 -0.0029714715595326514 0.0 0.0
0.0001892768874004813 -5.037012765105214e-05 0.0 -0.001992255693199355 0.0 0.0
0.0004149366413139007 -9.862319767369606e-05 0.0 -0.0018408910002416967 0.0 0.0
0.000729748267940598 -0.00027998903705341103 0.0 -0.0018963391252252567 0.0 0.0
0.0010970120030809219 -0.00046742763370142464 0.0 -0.0020206264777687696 0.0 0.0
0.0016767915168674475 -0.0007476822707329906 0.0 -0.002191927368216048 0.0 0.0
0.002760284186967612 -0.0014528895893463375 0.0 -0.002756412203865394 0.0 0.0
0.00453117369600194 -0.0028730655400570765 0.0 -0.003891179142212664 0.0 0.0
0.006968849419488181 -0.005060322281111045 0.0 -0.00553871395292379 0.0 0.0
0.009925373254104176 -0.00781795379144229 0.0 -0.007445148748561337 0.0 0.0
0.013269955713338182 -0.010978867903141851 0.0 -0.009354181238382572 0.0 0.0
0.016986247684916078 -0.014508309987316288 0.0 -0.011214993383694315 0.0 0.0
0.021146820993979222 -0.01849078581532322 0.0 -0.013090180829121379 0.0 0.0
0.025856183930665688 -0.02303709404223227 0.0 -0.01503262634511399 0.0 0.0
0.031173870778207304 -0.028216070124816733 0.0 -0.016956557546841472 0.0 0.0
0.03705504274711647 -0.03397854571544606 0.0 -0.01858650514300135 0.0 0.0
0.043400910836307996 -0.040185863666918585 0.0 -0.019496354056629757 0.0 0.0
0.05007890156398419 -0.04675945124471373 0.0 -0.019077910194564708 0.0 0.0
0.05662239541264963 -0.053375191938022856 0.0 -0.015657051421796395 0.0 0.0
0.05976583992473744 -0.05890725749666954 0.0 1.5592128282948536e-14 0.0 0.0
0.05662239541264132 -0.053375191938014176 0.0 0.01565705142183629 0.0 0.0
0.05007890156396944 -0.04675945124469886 0.0 0.019077910194607896 0.0 0.0
0.04340091083628943 -0.04018586366689839 0.0 0.01949635405665509 0.0 0.0
0.03705504274709478 -0.033978545715426516 0.0 0.018586505143004937 0.0 0.0
0.031173870778183455 -0.02821607012479071 0.0 0.016956557546831424 0.0 0.0
0.025856183930642936 -0.02303709404221317 0.0 0.015032626345105049 0.0 0.0
0.021146820993958072 -0.018490785815301784 0.0 0.01309018082911479 0.0 0.0
0.0169862476848953 -0.01450830998729715 0.0 0.011214993383686013 0.0 0.0
0.013269955713318153 -0.010978867903120235 0.0 0.009354181238369374 0.0 0.0
0.009925373254086276 -0.00781795379142674 0.0 0.0074451487485435956 0.0 0.0
0.0069688494194739235 -0.005060322281096791 0.0 0.005538713952908314 0.0 0.0
0.004531173695991436 -0.002873065540048366 0.0 0.0038911791422061902 0.0 0.0
0.002760284186961359 -0.001452889589342696 0.0 0.0027564122038609253 0.0 0.0
0.0016767915168646372 -0.0007476822707325712 0.0 0.0021919273682135727 0.0 0.0
0.0010970120030795883 -0.00046742763369880184 0.0 0.002020626477767699 0.0 0.0
0.0007297482679400074 -0.00027998903705288714 0.0 0.0018963391252235697 0.0 0.0
0.00041493664131366897 -9.862319767398595e-05 0.0 0.0018408910002398094 0.0 0.0
0.00018927688740017761 -5.037012765007045e-05 0.0 0.0019922556931959746 0.0 0.0
0.0007517104562163674 -0.0003598483118766406 0.0 0.0029714715595275474 0.0 0.0
0.0013901738603653208 -0.004753827549885185 0.0 0.0018814102892249782 0.0 0.0
0.0009709061206798378 -0.0036178616642600064 0.0 -0.0016510941267357557 0.0 0.0
0.0005086652047706858 -0.0003491600012531746 0.0 -0.002632166575873379 0.0 0.0
7.920779606477823e-05 -2.803936827512652e-05 0.0 -0.0021562695243321755 0.0 0.0
0.00021876048535240443 -1.5098099337116361e-05 0.0 -0.0020314030895603333 0.0 0.0
0.0004512855428143892 -0.00015011087863337584 0.0 -0.002076711202092936 0.0 0.0
0.0007225106627595469 -0.0003027358886734863 0.0 -0.0022373177994200267 0.0 0.0
0.001094077137678468 -0.00047790507335665315 0.0 -0.0024192850626968726 0.0 0.0
0.001748363388945648 -0.0008335635428337287 0.0 -0.002730953016741294 0.0 0.0
0.002866397082384912 -0.0016094221922155739 0.0 -0.0034556113532088002 0.0 0.0
0.004476071388009024 -0.002940287828212167 0.0 -0.004633791175724375 0.0 0.0
0.0064722220692291456 -0.004721026318395139 0.0 -0.0061637732756350426 0.0 0.0
0.008734494659033216 -0.006805932166396872 0.0 -0.00779761108126055 0.0 0.0
0.011226108566592154 -0.009124404495896965 0.0 -0.009449897872447138 0.0 0.0
0.013999561712173609 -0.011743296074318456 0.0 -0.011099741962948877 0.0 0.0
0.01715302599571823 -0.014756190901765952 0.0 -0.012763802493168457 0.0 0.0
0.02078647987728529 -0.018261844845506685 0.0 -0.014431707554206486 0.0 0.0
0.024949806981990383 -0.022305605826217736 0.0 -0.015922629612798687 0.0 0.0
0.029645425913658346 -0.02686343952480684 0.0 -0.016835194532576366 0.0 0.0
0.03499947608618853 -0.03203110861877689 0.0 -0.016762666004334667 0.0 0.0
0.04105906507028158 -0.038041140219959746 0.0 -0.01488466121280003 0.0 0.0
0.04424467608653563 -0.04423087305579008 0.0 1.3203847737397467e-14 0.0 0.0
0.04105906507027615 -0.038041140219954535 0.0 0.014884661212835694 0.0 0.0
0.03499947608617821 -0.032031108618767894 0.0 0.016762666004373733 0.0 0.0
0.02964542591364467 -0.026863439524799464 0.0 0.016835194532595608 0.0 0.0
0.024949806981974885 -0.022305605826202928 0.0 0.015922629612797827 0.0 0.0
0.02078647987726927 -0.018261844845491124 0.0 0.014431707554194893 0.0 0.0
0.017153025995703414 -0.01475619090174966 0.0 0.012763802493162299 0.0 0.0
0.013999561712160187 -0.011743296074308797 0.0 0.011099741962943551 0.0 0.0
0.011226108566578947 -0.00912440449588485 0.0 0.009449897872441139 0.0 0.0
0.008734494659020518 -0.006805932166386646 0.0 0.007797611081248719 0.0 0.0
0.006472222069217706 -0.004721026318385956 0.0 0.006163773275620757 0.0 0.0
0.0044760713880002126 -0.002940287828202232 0.0 0.004633791175714149 0.0 0.0
0.0028663970823788855 -0.0016094221922104586 0.0 0.0034556113532036754 0.0 0.0
0.0017483633889419604 -0.0008335635428300759 0.0 0.002730953016739253 0.0 0.0
0.0010940771376768672 -0.00047790507335481727 0.0 0.0024192850626933307 0.0 0.0
0.000722510662758919 -0.00030273588867308287 0.0 0.0022373177994180053 0.0 0.0
0.00045128554281389567 -0.00015011087863343284 0.0 0.0020767112020913733 0.0 0.0
0.00021876048535208873 -1.5098099335840867e-05 0.0 0.0020314030895583375 0.0 0.0
7.920779606470598e-05 -2.8039368274459018e-05 0.0 0.0021562695243300223 0.0 0.0
0.0005086652047691321 -0.0003491600012529853 0.0 0.0026321665758682073 0.0 0.0
0.0009709061206768028 -0.003617861664252916 0.0 0.0016510941267348686 0.0 0.0
0.0006788022422879161 -0.002743728816971325 0.0 -0.0015252051824846307 0.0 0.0
0.00032485655258019145 -0.0003552795699325189 0.0 -0.0023836523353411307 0.0 0.0
-3.226883324261264e-05 7.759809833566141e-06 0.0 -0.002259043841502647 0.0 0.0
2.9230557474879122e-05 6.181228510729104e-05 0.0 -0.0021682480378904033 0.0 0.0
0.00017447604789253804 -2.2178420061996346e-05 0.0 -0.002205440491425073 0.0 0.0
0.0003409391503820231 -0.00012829599203984288 0.0 -0.002375017231585067 0.0 0.0
0.0005431180579273073 -0.00023470059171976093 0.0 -0.0026079542990211668 0.0 0.0
0.0008499915165047099 -0.00038135542582282475 0.0 -0.0028246169437297487 0.0 0.0
0.0013665992017446 -0.0006784158841990515 0.0 -0.003139071452175819 0.0 0.0
0.0021474639299514844 -0.0012315585265783094 0.0 -0.003721962334994085 0.0 0.0
0.0031520589421049424 -0.0020280633068239114 0.0 -0.004643901610246316 0.0 0.0
0.004299022725375077 -0.002998509997286151 0.0 -0.005814486551987122 0.0 0.0
0.005552461823050756 -0.004083517897922778 0.0 -0.007106885470808321 0.0 0.0
0.006949884757706931 -0.005333962424226789 0.0 -0.00847413936397329 0.0 0.0
0.008558624830026524 -0.006812419658121764 0.0 -0.009914576475067157 0.0 0.0
0.010490262163794305 -0.008618094227985668 0.0 -0.011429168818772007 0.0 0.0
0.012894220794541396 -0.010891750449637104 0.0 -0.01289855741407775 0.0 0.0
0.01591095612685287 -0.013771793044144972 0.0 -0.013924984748090938 0.0 0.0
0.019727205141326493 -0.017405644834938495 0.0 -0.013938921254677177 0.0 0.0
0.024930342594973356 -0.022290726575218352 0.0 -0.01297270671093004 0.0 0.0
0.027994105898159254 -0.029021684026059626 0.0 1.096952390033934e-14 0.0 0.0
0.024930342594970942 -0.022290726575217117 0.0 0.012972706710961207 0.0 0.0
0.019727205141320668 -0.017405644834933804 0.0 0.013938921254707286 0.0 0.0
0.01591095612684491 -0.013771793044140297 0.0 0.013924984748103626 0.0 0.0
0.012894220794533293 -0.010891750449626217 0.0 0.012898557414073634 0.0 0.0
0.010490262163786705 -0.00861809422797576 0.0 0.01142916881876329 0.0 0.0
0.008558624830020121 -0.006812419658109908 0.0 0.009914576475061297 0.0 0.0
0.006949884757701507 -0.005333962424220274 0.0 0.008474139363968625 0.0 0.0
0.005552461823045313 -0.004083517897912597 0.0 0.007106885470803931 0.0 0.0
0.004299022725369504 -0.0029985099972830486 0.0 0.005814486551978453 0.0 0.0
0.0031520589421002274 -0.0020280633068200256 0.0 0.004643901610238028 0.0 0.0
0.0021474639299477183 -0.0012315585265760998 0.0 0.0037219623349891593 0.0 0.0
0.0013665992017422104 -0.000678415884198418 0.0 0.0031390714521739036 0.0 0.0
0.0008499915165033372 -0.00038135542582052304 0.0 0.002824616943729129 0.0 0.0
0.0005431180579262879 -0.00023470059171730212 0.0 0.0026079542990194832 0.0 0.0
0.00034093915038156545 -0.0001282959920396669 0.0 0.002375017231582457 0.0 0.0
0.00017447604789246117 -2.217842006238094e-05 0.0 0.0022054404914221663 0.0 0.0
2.923055747473085e-05 6.181228510808997e-05 0.0 0.002168248037889062 0.0 0.0
-3.226883324300549e-05 7.759809833276344e-06 0.0 0.0022590438415001947 0.0 0.0
0.0003248565525792314 -0.0003552795699324822 0.0 0.002383652335337439 0.0 0.0
0.0006788022422864771 -0.002743728816966631 0.0 0.0015252051824852998 0.0 0.0
0.00047319049362626103 -0.00209621023641169 0.0 -0.0014562455656461372 0.0 0.0
0.0001862900589043953 -0.0003604107929651325 0.0 -0.0022128483453375163 0.0 0.0
-0.00013928236554545202 4.864248301066407e-05 0.0 -0.002307908294790209 0.0 0.0
-0.00015422796685423163 0.00013505166587199181 0.0 -0.002249050568536171 0.0 0.0
-9.797510198575842e-05 0.00010219316023246325 0.0 -0.002276830174176152 0.0 0.0
-4.488509159698308e-05 4.879647919125635e-05 0.0 -0.002434582949537191 0.0 0.0
-1.543172595624635e-05 1.3216900152003609e-05 0.0 -0.0026820329329097295 0.0 0.0
-3.862931188266562e-06 2.6210607237616793e-06 0.0 -0.0029163530884911493 0.0 0.0
-3.2232024067970584e-07 -1.1781158994923633e-07 0.0 -0.003057914061519276 0.0 0.0
5.472132901860162e-07 -2.5814813609153825e-07 0.0 -0.0033213773052746427 0.0 0.0
8.452443943894605e-08 -7.342883973161026e-07 0.0 -0.0038822037692370984 0.0 0.0
-4.558317652626851e-06 3.5725900927841513e-06 0.0 -0.004783408143027719 0.0 0.0
-1.7609047670428504e-05 1.534944593227863e-05 0.0 -0.005861146610106215 0.0 0.0
-3.1376970217933614e-05 3.111152007779448e-05 0.0 -0.007084536937073952 0.0 0.0
1.2228208347688039e-06 1.3577108906320128e-05 0.0 -0.008467598788574997 0.0 0.0
0.00020865677021490595 -0.00014611155152391392 0.0 -0.010002260877344992 0.0 0.0
0.0008375587970356089 -0.0006639155357163446 0.0 -0.011631698599446759 0.0 0.0
0.0022030512983243983 -0.0018455994520763437 0.0 -0.01317710879449443 0.0 0.0
0.004523806410610854 -0.0038454625716306517 0.0 -0.014324762155259484 0.0 0.0
0.008347798514887782 -0.00692543039655584 0.0 -0.014774930795598518 0.0 0.0
0.010757570679553272 -0.014055407157993274 0.0 8.38305119765792e-15 0.0 0.0
0.008347798514887757 -0.006925430396556408 0.0 0.014774930795618191 0.0 0.0
0.004523806410608994 -0.0038454625716281064 0.0 0.014324762155272858 0.0 0.0
0.002203051298323079 -0.0018455994520761433 0.0 0.013177108794496798 0.0 0.0
0.0008375587970365047 -0.000663915535715695 0.0 0.011631698599438314 0.0 0.0
0.00020865677021637873 -0.0001461115515272073 0.0 0.010002260877337937 0.0 0.0
1.2228208363032752e-06 1.3577108903736258e-05 0.0 0.0084675987885682 0.0 0.0
-3.137697021556019e-05 3.111152007464227e-05 0.0 0.007084536937069008 0.0 0.0
-1.760904766786545e-05 1.5349445935095143e-05 0.0 0.0058611466101002735 0.0 0.0
-4.558317650397027e-06 3.5725900890414854e-06 0.0 0.0047834081430191255 0.0 0.0
8.45244413263794e-08 -7.342883976759764e-07 0.0 0.003882203769230065 0.0 0.0
5.472132914291895e-07 -2.581481405273346e-07 0.0 0.0033213773052709217 0.0 0.0
-3.223202397603837e-07 -1.1781159162550775e-07 0.0 0.003057914061519254 0.0 0.0
-3.862931187680998e-06 2.6210607255220475e-06 0.0 0.0029163530884883425 0.0 0.0
-1.5431725956021095e-05 1.3216900151323671e-05 0.0 0.0026820329329064994 0.0 0.0
-4.4885091596864406e-05 4.879647919279872e-05 0.0 0.002434582949533909 0.0 0.0
-9.797510198561457e-05 0.00010219316023260945 0.0 0.0022768301741734847 0.0 0.0
-0.00015422796685421144 0.00013505166587177378 0.0 0.0022490505685348354 0.0 0.0
-0.00013928236554547127 4.864248301127617e-05 0.0 0.002307908294788147 0.0 0.0
0.00018629005890399562 -0.0003604107929656181 0.0 0.0022128483453353136 0.0 0.0
0.00047319049362528915 -0.002096210236408629 0.0 0.0014562455656462407 0.0 0.0
0.0003328416923391753 -0.00161630346689193 0.0 -0.001390766136790456 0.0 0.0
8.386873099490034e-05 -0.000346979043334061 0.0 -0.002068801908041812 0.0 0.0
-0.00023921680272008034 8.714096612503914e-05 0.0 -0.0023077059186843935 0.0 0.0
-0.0003306455685088887 0.00020570766424689567 0.0 -0.0022727489259754216 0.0 0.0
-0.0003642890935806673 0.0002212826401238567 0.0 -0.0022856816988606698 0.0 0.0
-0.0004268564795596052 0.00022420712715261708 0.0 -0.002416638259295883 0.0 0.0
-0.0005731395613695926 0.00026093913714183355 0.0 -0.0026269786372835704 0.0 0.0
-0.000857868384296769 0.0003866920113440093 0.0 -0.0028330005730531306 0.0 0.0
-0.0013669010488290118 0.0006780236691133665 0.0 -0.0031423678741277256 0.0 0.0
-0.0021456567327861596 0.0012301816901505052 0.0 -0.0037206761386738346 0.0 0.0
-0.0031516951549189244 0.0020273213723117 0.0 -0.004639994740606258 0.0 0.0
-0.0043095835138377715 0.003007213088501742 0.0 -0.005812516603910169 0.0 0.0
-0.005588983068835169 0.004116395344126238 0.0 -0.007102477874369092 0.0 0.0
-0.007010895906950991 0.0053978550163497 0.0 -0.008463386802388735 0.0 0.0
-0.008550972043408989 0.006839634753874354 0.0 -0.009921920190472033 0.0 0.0
-0.01007781668515407 0.008321369822495806 0.0 -0.011560457400637367 0.0 0.0
-0.011307281168116759 0.009568054140883173 0.0 -0.01344261305153709 0.0 0.0
-0.011831928203989272 0.010156743709312896 0.0 -0.015642541266803155 0.0 0.0
-0.011192696061187215 0.009736597048148487 0.0 -0.01807616170848343 0.0 0.0
-0.007903619530665283 0.00738097320717554 0.0 -0.019127419941387856 0.0 0.0
-0.005284498235914878 -0.0004665441791725884 0.0 1.155065626479157e-14 0.0 0.0
-0.007903619530665927 0.007380973207177384 0.0 0.01912741994140803 0.0 0.0
-0.011192696061184192 0.009736597048144262 0.0 0.018076161708498743 0.0 0.0
-0.011831928203981327 0.01015674370930931 0.0 0.01564254126680643 0.0 0.0
-0.011307281168105872 0.009568054140870615 0.0 0.01344261305153023 0.0 0.0
-0.010077816685143669 0.008321369822481566 0.0 0.011560457400628086 0.0 0.0
-0.008550972043400046 0.006839634753868007 0.0 0.009921920190465044 0.0 0.0
-0.007010895906940866 0.005397855016332933 0.0 0.00846338680238284 0.0 0.0
-0.005588983068824274 0.004116395344118458 0.0 0.007102477874360467 0.0 0.0
-0.004309583513827537 0.003007213088491213 0.0 0.005812516603900027 0.0 0.0
-0.0031516951549100387 0.002027321372300388 0.0 0.004639994740596128 0.0 0.0
-0.0021456567327797636 0.0012301816901451677 0.0 0.003720676138666343 0.0 0.0
-0.0013669010488251247 0.0006780236691111082 0.0 0.0031423678741271366 0.0 0.0
-0.0008578683842945542 0.0003866920113425065 0.0 0.0028330005730525477 0.0 0.0
-0.0005731395613682652 0.00026093913713894665 0.0 0.0026269786372811466 0.0 0.0
-0.00042685647955899395 0.00022420712715446423 0.0 0.002416638259292765 0.0 0.0
-0.0003642890935803736 0.0002212826401235425 0.0 0.0022856816988589875 0.0 0.0
-0.0003306455685086002 0.0002057076642472667 0.0 0.002272748925974021 0.0 0.0
-0.00023921680272004267 8.714096612629776e-05 0.0 0.002307705918682748 0.0 0.0
8.386873099476878e-05 -0.0003469790433345434 0.0 0.002068801908040564 0.0 0.0
0.0003328416923391056 -0.0016163034668895502 0.0 0.0013907661367897881 0.0 0.0
0.00023152382830878048 -0.001228181349940591 0.0 -0.0012768966702684965 0.0 0.0
4.148159072394093e-06 -0.0003157323989582475 0.0 -0.0019219909157097408 0.0 0.0
-0.00033190397836439816 0.0001229585400837603 0.0 -0.002256219622464979 0.0 0.0
-0.000498753848779668 0.00027272090072256474 0.0 -0.0022388770305592372 0.0 0.0
-0.0006226078481108079 0.00033414315010162266 0.0 -0.0022293624204824084 0.0 0.0
-0.0007994816141735315 0.00039241213053400946 0.0 -0.0023169663783339394 0.0 0.0
-0.0011213588367656436 0.0005050014810000141 0.0 -0.002458613090699722 0.0 0.0
-0.0017548632853449735 0.0008387503661189157 0.0 -0.002748252369215162 0.0 0.0
-0.002865419156138706 0.001607636977078474 0.0 -0.003457765339350692 0.0 0.0
-0.0044735955102240795 0.00293780729111787 0.0 -0.004629667899422724 0.0 0.0
-0.006472925845607451 0.004721930577894451 0.0 -0.006161131826711441 0.0 0.0
-0.008744967874623349 0.006816060800813494 0.0 -0.0077951405625387386 0.0 0.0
-0.011258015004096403 0.009155349690451106 0.0 -0.00942614743560854 0.0 0.0
-0.01405245585547157 0.011800524873461357 0.0 -0.011035499271456785 0.0 0.0
-0.017143858120686268 0.014779098072436405 0.0 -0.012715497625301504 0.0 0.0
-0.02040820276555959 0.0179858906730948 0.0 -0.014672618762831824 0.0 0.0
-0.02351475297267475 0.021093771741588024 0.0 -0.017136705164940747 0.0 0.0
-0.02592634808085064 0.02356039466524365 0.0 -0.020220905272490777 0.0 0.0
-0.026621877596000404 0.024486442808592194 0.0 -0.023310471569269464 0.0 0.0
-0.02364664736108455 0.021907617051308673 0.0 -0.02396940102875453 0.0 0.0
-0.02092842118549866 0.012193435587193869 0.0 1.2520366687862605e-14 0.0 0.0
-0.023646647361083045 0.021907617051308392 0.0 0.0239694010287858 0.0 0.0
-0.02662187759599295 0.02448644280858236 0.0 0.02331047156930066 0.0 0.0
-0.02592634808083646 0.02356039466523097 0.0 0.020220905272501196 0.0 0.0
-0.023514752972655963 0.021093771741566597 0.0 0.017136705164934995 0.0 0.0
-0.020408202765540666 0.01798589067307593 0.0 0.01467261876282051 0.0 0.0
-0.017143858120668726 0.0147790980724204 0.0 0.012715497625291259 0.0 0.0
-0.014052455855453599 0.011800524873442964 0.0 0.01103549927144816 0.0 0.0
-0.01125801500407805 0.00915534969043389 0.0 0.009426147435598062 0.0 0.0
-0.008744967874605448 0.006816060800795358 0.0 0.007795140562524654 0.0 0.0
-0.006472925845591738 0.004721930577875385 0.0 0.006161131826695064 0.0 0.0
-0.004473595510211918 0.0029378072911111653 0.0 0.004629667899411779 0.0 0.0
-0.00286541915613061 0.0016076369770732257 0.0 0.0034577653393457622 0.0 0.0
-0.0017548632853406037 0.0008387503661158991 0.0 0.002748252369212978 0.0 0.0
-0.0011213588367633605 0.0005050014809972465 0.0 0.0024586130906973226 0.0 0.0
-0.0007994816141723882 0.0003924121305342844 0.0 0.002316966378331914 0.0 0.0
-0.0006226078481101536 0.0003341431501009551 0.0 0.0022293624204808263 0.0 0.0
-0.0004987538487793066 0.00027272090072253215 0.0 0.002238877030557999 0.0 0.0
-0.0003319039783641369 0.00012295854008418142 0.0 0.0022562196224638897 0.0 0.0
4.148159072329349e-06 -0.00031573239895838883 0.0 0.0019219909157081392 0.0 0.0
0.00023152382830827405 -0.0012281813499386799 0.0 0.0012768966702668126 0.0 0.0
0.00014703596127819588 -0.0008989403938949243 0.0 -0.0011257817327053365 0.0 0.0
-6.491151263260066e-05 -0.0002697202717869026 0.0 -0.001756398649793281 0.0 0.0
-0.00041825432267152043 0.00015745719265187715 0.0 -0.0021525095370694683 0.0 0.0
-0.0006581902213581133 0.0003352967420643603 0.0 -0.0021486802664815803 0.0 0.0
-0.0008702881531862687 0.00043931373191520313 0.0 -0.002112656962896153 0.0 0.0
-0.001159663176202469 0.0005485557550355116 0.0 -0.0021309018242505165 0.0 0.0
-0.0017003653958328362 0.0007767399266598467 0.0 -0.0022510111551766235 0.0 0.0
-0.002764108864771945 0.0014553557564685048 0.0 -0.0027748618832477232 0.0 0.0
-0.00452776245095989 0.0028688704679641704 0.0 -0.003888465104828492 0.0 0.0
-0.006966892947905598 0.0050582648821326315 0.0 -0.0055335133496026275 0.0 0.0
-0.009927545725072059 0.007820860185402395 0.0 -0.007444337021078799 0.0 0.0
-0.013278058603151201 0.010987860215798173 0.0 -0.009349238592953014 0.0 0.0
-0.017004870779309737 0.014527094178905808 0.0 -0.0111722745435828 0.0 0.0
-0.02117570562930899 0.01852158105225217 0.0 -0.01296207234992348 0.0 0.0
-0.025840741553199136 0.02304319268051721 0.0 -0.014876585549185712 0.0 0.0
-0.03089216365883638 0.028013335811606956 0.0 -0.017216901527824527 0.0 0.0
-0.03594215049891854 0.03306172641244399 0.0 -0.02041144078612437 0.0 0.0
-0.04015679172265029 0.037406113637128945 0.0 -0.024528501260029117 0.0 0.0
-0.042002035444079294 0.039537819326878415 0.0 -0.028424396614402294 0.0 0.0
-0.03866463995918426 0.036871224578062405 0.0 -0.02968394570336133 0.0 0.0
-0.035241259906822704 0.024434309141543795 0.0 1.548500910830697e-14 0.0 0.0
-0.03866463995918019 0.03687122457805773 0.0 0.02968394570339781 0.0 0.0
-0.04200203544406804 0.0395378193268699 0.0 0.02842439661443892 0.0 0.0
-0.040156791722630224 0.03740611363710846 0.0 0.02452850126004606 0.0 0.0
-0.0359421504988924 0.033061726412418495 0.0 0.020411440786121393 0.0 0.0
-0.03089216365880979 0.02801333581157789 0.0 0.01721690152781258 0.0 0.0
-0.025840741553174142 0.02304319268049849 0.0 0.014876585549173767 0.0 0.0
-0.021175705629283496 0.018521581052232557 0.0 0.012962072349912647 0.0 0.0
-0.017004870779283466 0.014527094178876397 0.0 0.011172274543569689 0.0 0.0
-0.013278058603126421 0.010987860215773014 0.0 0.00934923859293629 0.0 0.0
-0.009927545725050287 0.007820860185379433 0.0 0.0074443370210590006 0.0 0.0
-0.006966892947888187 0.005058264882115139 0.0 0.005533513349590692 0.0 0.0
-0.004527762450947922 0.0028688704679556325 0.0 0.0038884651048191506 0.0 0.0
-0.0027641088647647224 0.0014553557564670266 0.0 0.0027748618832421383 0.0 0.0
-0.0017003653958292777 0.000776739926658238 0.0 0.0022510111551745475 0.0 0.0
-0.001159663176200991 0.0005485557550330959 0.0 0.0021309018242496557 0.0 0.0
-0.0008702881531854247 0.0004393137319162108 0.0 0.0021126569628939825 0.0 0.0
-0.0006581902213574777 0.000335296742063074 0.0 0.00214868026647891 0.0 0.0
-0.00041825432267130695 0.00015745719265150687 0.0 0.002152509537067993 0.0 0.0
-6.491151263279853e-05 -0.0002697202717868775 0.0 0.0017563986497919925 0.0 0.0
0.00014703596127804862 -0.0008989403938936148 0.0 0.001125781732703523 0.0 0.0
7.278634156552076e-05 -0.0006222253058941542 0.0 -0.0009619001453766334 0.0 0.0
-0.00012816295873473193 -0.00021206590301231002 0.0 -0.001565051369709523 0.0 0.0
-0.0005003620358715117 0.00019201583285104846 0.0 -0.0019968174343814645 0.0 0.0
-0.0008095250127504735 0.00039341019925663264 0.0 -0.002003094717843186 0.0 0.0
-0.0011043032579036514 0.0005336527358316495 0.0 -0.0019320237911965763 0.0 0.0
-0.0015237578880754 0.0006993981332062383 0.0 -0.0018771718317225072 0.0 0.0
-0.0023424214567077926 0.0011281545777866297 0.0 -0.00206194487958672 0.0 0.0
-0.003889674735791931 0.0022638352737582483 0.0 -0.0027954651668625633 0.0 0.0
-0.0063239885987667254 0.00437966714182254 0.0 -0.004195087736296914 0.0 0.0
-0.009573499282723878 0.00739946847584436 0.0 -0.006090568091627265 0.0 0.0
-0.013459352754666282 0.011086479319602955 0.0 -0.008121511735936296 0.0 0.0
-0.017870879188964173 0.015301626055666154 0.0 -0.010109955036566807 0.0 0.0
-0.02281330742948421 0.020034828480985485 0.0 -0.012013456708660195 0.0 0.0
-0.028369808271036745 0.025383573837625524 0.0 -0.013901052771578763 0.0 0.0
-0.03462156153756824 0.03145622903300426 0.0 -0.015921891735580212 0.0 0.0
-0.04149042403233447 0.03821724772659949 0.0 -0.01845356547820156 0.0 0.0
-0.0484918185462607 0.045234346539801205 0.0 -0.02201124493550585 0.0 0.0
-0.05444889415247825 0.05139232060723945 0.0 -0.026683417403351267 0.0 0.0
-0.05720484815177286 0.054588119082772814 0.0 -0.031374245243412306 0.0 0.0
-0.05315733311144704 0.051378528519643925 0.0 -0.03342952304106496 0.0 0.0
-0.04887277607223417 0.03628350887224898 0.0 1.5927363594681054e-14 0.0 0.0
-0.05315733311143967 0.05137852851963424 0.0 0.03342952304110352 0.0 0.0
-0.057204848151756915 0.05458811908275829 0.0 0.03137424524345151 0.0 0.0
-0.054448894152453166 0.051392320607214534 0.0 0.026683417403372746 0.0 0.0
-0.04849181854622895 0.04523434653977119 0.0 0.02201124493550483 0.0 0.0
-0.041490424032300605 0.03821724772656819 0.0 0.018453565478190777 0.0 0.0
-0.03462156153753495 0.031456229032974715 0.0 0.01592189173556905 0.0 0.0
-0.028369808271003577 0.0253835738375949 0.0 0.0139010527715679 0.0 0.0
-0.022813307429450844 0.02003482848095067 0.0 0.012013456708647636 0.0 0.0
-0.017870879188932487 0.01530162605563418 0.0 0.01010995503654826 0.0 0.0
-0.013459352754637745 0.01108647931957332 0.0 0.008121511735916315 0.0 0.0
-0.009573499282700747 0.0073994684758210225 0.0 0.006090568091612981 0.0 0.0
-0.006323988598750306 0.004379667141807714 0.0 0.004195087736287245 0.0 0.0
-0.0038896747357815044 0.0022638352737503692 0.0 0.0027954651668557666 0.0 0.0
-0.0023424214567025767 0.001128154577781547 0.0 0.002061944879582756 0.0 0.0
-0.0015237578880732843 0.0006993981332048819 0.0 0.0018771718317205262 0.0 0.0
-0.0011043032579025316 0.0005336527358317064 0.0 0.001932023791194826 0.0 0.0
-0.0008095250127498903 0.000393410199256638 0.0 0.0020030947178414503 0.0 0.0
-0.0005003620358709478 0.00019201583285098005 0.0 0.00199681743438016 0.0 0.0
-0.00012816295873453536 -0.00021206590301212002 0.0 0.0015650513697080227 0.0 0.0
7.278634156508977e-05 -0.0006222253058933009 0.0 0.0009619001453754065 0.0 0.0
7.457072979312953e-06 -0.00039544387110523286 0.0 -0.0007925937805207447 0.0 0.0
-0.00018675138856471938 -0.00014731861614487342 0.0 -0.0013487245310960512 0.0 0.0
-0.0005791723354887192 0.00022755280011744816 0.0 -0.0017896503663028382 0.0 0.0
-0.0009517658888515625 0.0004467866404175673 0.0 -0.001801869220984252 0.0 0.0
-0.0013287572577853248 0.0006171426709181888 0.0 -0.0016898037593866583 0.0 0.0
-0.0019109837891680354 0.00087005654274803 0.0 -0.001596297677908786 0.0 0.0
-0.003059012088021109 0.001583061522391531 0.0 -0.0018541117116701875 0.0 0.0
-0.005122353817526145 0.0032488317627983733 0.0 -0.0027362842026153866 0.0 0.0
-0.008220786900238938 0.006062200905271662 0.0 -0.004285781119813738 0.0 0.0
-0.012239311429095246 0.009853824748159126 0.0 -0.006177770585389985 0.0 0.0
-0.017026515132935124 0.014432020704197034 0.0 -0.008158567990736092 0.0 0.0
-0.022503523877345673 0.019691352384085578 0.0 -0.010102636090981046 0.0 0.0
-0.028671559778064883 0.02562651776250896 0.0 -0.011982092464175618 0.0 0.0
-0.03561766368115478 0.032338664337976636 0.0 -0.013868727124679927 0.0 0.0
-0.04345326156869549 0.03995831774605638 0.0 -0.015888916908050388 0.0 0.0
-0.052117360989225835 0.04848490011702115 0.0 -0.01832894239984833 0.0 0.0
-0.061026008632499615 0.05743044485810239 0.0 -0.021742854827773626 0.0 0.0
-0.06865848453691886 0.06535642713256887 0.0 -0.026498858166707058 0.0 0.0
-0.07221205210359838 0.06950408533153507 0.0 -0.03184250252660939 0.0 0.0
-0.06744314753535799 0.0656870434560282 0.0 -0.03575489328754426 0.0 0.0
-0.062355899344739424 0.04815382209660288 0.0 1.5225667948648436e-14 0.0 0.0
-0.06744314753534793 0.06568704345602196 0.0 0.03575489328758332 0.0 0.0
-0.07221205210357741 0.06950408533150985 0.0 0.03184250252664695 0.0 0.0
-0.06865848453688848 0.06535642713253421 0.0 0.026498858166729783 0.0 0.0
-0.06102600863246259 0.057430444858063645 0.0 0.02174285482777566 0.0 0.0
-0.052117360989185124 0.048484900116983955 0.0 0.01832894239984097 0.0 0.0
-0.04345326156865431 0.039958317746012904 0.0 0.01588891690804111 0.0 0.0
-0.03561766368111398 0.0323386643379314 0.0 0.013868727124670608 0.0 0.0
-0.0286715597780247 0.025626517762469117 0.0 0.011982092464163142 0.0 0.0
-0.022503523877307287 0.019691352384045468 0.0 0.01010263609096148 0.0 0.0
-0.017026515132900558 0.014432020704164716 0.0 0.008158567990717805 0.0 0.0
-0.012239311429066927 0.00985382474813461 0.0 0.0061777705853736774 0.0 0.0
-0.008220786900218139 0.006062200905252516 0.0 0.004285781119801927 0.0 0.0
-0.005122353817512517 0.0032488317627842097 0.0 0.0027362842026085795 0.0 0.0
-0.0030590120880134614 0.001583061522384718 0.0 0.001854111711667035 0.0 0.0
-0.0019109837891646358 0.0008700565427479383 0.0 0.001596297677906333 0.0 0.0
-0.0013287572577839744 0.0006171426709181376 0.0 0.0016898037593857664 0.0 0.0
-0.0009517658888508213 0.00044678664041894705 0.0 0.0018018692209829275 0.0 0.0
-0.000579172335488429 0.00022755280011747982 0.0 0.0017896503663018173 0.0 0.0
-0.00018675138856458307 -0.00014731861614477554 0.0 0.0013487245310948464 0.0 0.0
7.457072979636952e-06 -0.0003954438711046402 0.0 0.0007925937805209347 0.0 0.0
-4.794835354375582e-05 -0.0002179115208531122 0.0 -0.0006208896956882081 0.0 0.0
-0.00023962860292743105 -8.024012282865226e-05 0.0 -0.0011095780983787667 0.0 0.0
-0.0006544980969434349 0.00026383126857546315 0.0 -0.00153221480128695 0.0 0.0
-0.0010865796580159638 0.0004952394152394678 0.0 -0.0015449265574239883 0.0 0.0
-0.001554854451170603 0.0006942456373443074 0.0 -0.0013951584046145566 0.0 0.0
-0.002333175677390848 0.0010825280578921567 0.0 -0.0012934352060480685 0.0 0.0
-0.0038535538632085134 0.002155091490433519 0.0 -0.0016075212045753749 0.0 0.0
-0.006446239804707526 0.0043869909459435886 0.0 -0.0025828642221676686 0.0 0.0
-0.010169222996357979 0.007835996300217246 0.0 -0.004047457436172344 0.0 0.0
-0.014925539567500628 0.012360095828803703 0.0 -0.005764443593992086 0.0 0.0
-0.020613160790760646 0.01782000417120034 0.0 -0.0075845000200738585 0.0 0.0
-0.02715692412867257 0.024123313404029754 0.0 -0.0093682661322553 0.0 0.0
-0.034561479885969616 0.03127289318375929 0.0 -0.01110899905418223 0.0 0.0
-0.04290977192785827 0.03936284923062535 0.0 -0.012892958049250726 0.0 0.0
-0.05229790628844037 0.0485104484079798 0.0 -0.014796679675758284 0.0 0.0
-0.06267375340678477 0.05871742473331336 0.0 -0.01692324862217813 0.0 0.0
-0.07340694156827111 0.06948379676374832 0.0 -0.019702646236729654 0.0 0.0
-0.08266880913123043 0.07912801902435858 0.0 -0.023955337155331335 0.0 0.0
-0.08708431745482842 0.08429511710304669 0.0 -0.029959364253277346 0.0 0.0
-0.0818143543892318 0.0801111008459627 0.0 -0.03697449917317826 0.0 0.0
-0.07606973344319194 0.06041304575215618 0.0 1.8843433757798067e-14 0.0 0.0
-0.08181435438921891 0.08011110084595463 0.0 0.036974499173215956 0.0 0.0
-0.08708431745480288 0.0842951171030241 0.0 0.029959364253313282 0.0 0.0
-0.08266880913119427 0.07912801902432348 0.0 0.02395533715535167 0.0 0.0
-0.07340694156822782 0.06948379676370328 0.0 0.019702646236732704 0.0 0.0
-0.06267375340673761 0.05871742473326762 0.0 0.01692324862217463 0.0 0.0
-0.0522979062883922 0.048510448407931846 0.0 0.014796679675749526 0.0 0.0
-0.042909771927809724 0.03936284923057349 0.0 0.012892958049240835 0.0 0.0
-0.03456147988592203 0.031272893183707566 0.0 0.01110899905417126 0.0 0.0
-0.027156924128627403 0.024123313403984076 0.0 0.009368266132240533 0.0 0.0
-0.020613160790720356 0.017820004171162755 0.0 0.007584500020056551 0.0 0.0
-0.014925539567467672 0.012360095828773626 0.0 0.0057644435939777664 0.0 0.0
-0.010169222996332782 0.007835996300193446 0.0 0.004047457436162721 0.0 0.0
-0.006446239804690398 0.004386990945927612 0.0 0.002582864222160663 0.0 0.0
-0.0038535538631988943 0.0021550914904247586 0.0 0.0016075212045724976 0.0 0.0
-0.0023331756773863712 0.0010825280578900612 0.0 0.001293435206047169 0.0 0.0
-0.0015548544511688137 0.0006942456373429126 0.0 0.001395158404613681 0.0 0.0
-0.001086579658015031 0.00049523941524 0.0 0.0015449265574227335 0.0 0.0
-0.0006544980969425697 0.00026383126857496285 0.0 0.001532214801284914 0.0 0.0
-0.00023962860292726202 -8.024012282860788e-05 0.0 0.001109578098378112 0.0 0.0
-4.794835354414717e-05 -0.0002179115208527826 0.0 0.000620889695687999 0.0 0.0
-9.073367466080263e-05 -9.011772626995432e-05 0.0 -0.00045091627168219355 0.0 0.0
-0.0002838091403101198 -1.5874471110224278e-05 0.0 -0.0008504149209622626 0.0 0.0
-0.0007248287010075892 0.00029934477330175217 0.0 -0.0012234352399417541 0.0 0.0
-0.0012165986583341825 0.0005387260775616938 0.0 -0.0012309090839307368 0.0 0.0
-0.0017918548073628604 0.0007762715572701528 0.0 -0.0010521607950961377 0.0 0.0
-0.00280513391238321 0.0013528455220118134 0.0 -0.0009546968324161817 0.0 0.0
-0.004730018983666829 0.0028550408716500595 0.0 -0.0013324731495452872 0.0 0.0
-0.007821435724334226 0.0056158999398875165 0.0 -0.00222741702895231 0.0 0.0
-0.012128597987285002 0.00964725760010818 0.0 -0.0034387182970920267 0.0 0.0
-0.017616417972009912 0.014889654756841283 0.0 -0.004884606119862268 0.0 0.0
-0.024198135767841276 0.021223311106904612 0.0 -0.006419353358605989 0.0 0.0
-0.03181273918675961 0.028573388304479808 0.0 -0.007926264986814341 0.0 0.0
-0.04046772875514315 0.03694945175864817 0.0 -0.009407687631418766 0.0 0.0
-0.05022311587073669 0.04643241870281304 0.0 -0.010965173208236043 0.0 0.0
-0.061131496496299495 0.05708919964423938 0.0 -0.012650843911848463 0.0 0.0
-0.07309204236215819 0.06885365203531811 0.0 -0.014367127750728754 0.0 0.0
-0.08547302050316832 0.08122284909302603 0.0 -0.016153955173411016 0.0 0.0
-0.09634979986009276 0.09252024658748631 0.0 -0.019127602092590134 0.0 0.0
-0.1019013388763782 0.09899902594278841 0.0 -0.02562495465836695 0.0 0.0
-0.09655471183884845 0.09496143504160214 0.0 -0.03684822887768478 0.0 0.0
-0.0903668336209649 0.07344111730431865 0.0 1.596812959636651e-14 0.0 0.0
-0.09655471183883352 0.09496143504158848 0.0 0.03684822887771736 0.0 0.0
-0.10190133887634804 0.09899902594275882 0.0 0.0256249546583996 0.0 0.0
-0.09634979986005093 0.09252024658745084 0.0 0.019127602092607807 0.0 0.0
-0.0854730205031187 0.08122284909297355 0.0 0.016153955173414496 0.0 0.0
-0.07309204236210394 0.06885365203526478 0.0 0.014367127750726402 0.0 0.0
-0.06113149649624395 0.057089199644189376 0.0 0.012650843911843766 0.0 0.0
-0.05022311587068096 0.046432418702759826 0.0 0.010965173208227595 0.0 0.0
-0.04046772875508847 0.036949451758590254 0.0 0.009407687631408685 0.0 0.0
-0.031812739186707635 0.02857338830443002 0.0 0.00792626498680344 0.0 0.0
-0.02419813576779503 0.021223311106861112 0.0 0.006419353358590017 0.0 0.0
-0.017616417971972203 0.014889654756805794 0.0 0.004884606119850637 0.0 0.0
-0.012128597987255978 0.009647257600080771 0.0 0.003438718297083581 0.0 0.0
-0.007821435724313841 0.00561589993987114 0.0 0.0022274170289448758 0.0 0.0
-0.004730018983654817 0.0028550408716388085 0.0 0.0013324731495422133 0.0 0.0
-0.0028051339123776717 0.0013528455220094876 0.0 0.0009546968324147709 0.0 0.0
-0.0017918548073605801 0.0007762715572684307 0.0 0.001052160795096776 0.0 0.0
-0.00121659865833311 0.0005387260775615234 0.0 0.0012309090839295802 0.0 0.0
-0.0007248287010069433 0.0002993447733013372 0.0 0.0012234352399404895 0.0 0.0
-0.00028380914030974824 -1.587447111010878e-05 0.0 0.0008504149209605991 0.0 0.0
-9.073367466067685e-05 -9.011772626995633e-05 0.0 0.0004509162716814861 0.0 0.0
-0.00011616699717864365 -1.2908513312096222e-05 0.0 -0.00029223784582057524 0.0 0.0
-0.000313718389116214 3.945105898112475e-05 0.0 -0.0005749253648826566 0.0 0.0
-0.0007872634999941528 0.0003309176746799534 0.0 -0.0008574353345513632 0.0 0.0
-0.0013465154128355632 0.0005794442905450538 0.0 -0.0008550028533345175 0.0 0.0
-0.002052147435097717 0.0008766065645435647 0.0 -0.0006684114485051884 0.0 0.0
-0.0033414179575848354 0.0017127383180797727 0.0 -0.0006004989923597846 0.0 0.0
-0.005661623372459923 0.0036543239515501903 0.0 -0.0009634809489336032 0.0 0.0
-0.009213238933150042 0.00688026137078138 0.0 -0.001606028930432901 0.0 0.0
-0.014087327012308443 0.01147433079731494 0.0 -0.002490876947156616 0.0 0.0
-0.020291423943197686 0.017417796071754588 0.0 -0.0035486716947778106 0.0 0.0
-0.02776297223854394 0.02461884138740904 0.0 -0.004675973568273835 0.0 0.0
-0.03645144140893498 0.03301953702939959 0.0 -0.005783595708893264 0.0 0.0
-0.04636439827761414 0.042633568711482786 0.0 -0.006887908894856233 0.0 0.0
-0.05754100852357413 0.05352006775470887 0.0 -0.008096916228080396 0.0 0.0
-0.0699431729268656 0.0656698197349316 0.0 -0.009422519193379155 0.0 0.0
-0.08333537729096734 0.07887899813008802 0.0 -0.010668790386103055 0.0 0.0
-0.09708457748300221 0.09256078255271939 0.0 -0.011536629394681738 0.0 0.0
-0.10951734252717249 0.10525330513422962 0.0 -0.012690259845741785 0.0 0.0
-0.11666159769331177 0.11350091630990061 0.0 -0.018134366863143903 0.0 0.0
-0.11196432002022663 0.11060806746169827 0.0 -0.03442025315851656 0.0 0.0
-0.10570528193794106 0.08779189454490238 0.0 1.0096090630185017e-14 0.0 0.0
-0.11196432002020856 0.11060806746168109 0.0 0.03442025315854255 0.0 0.0
-0.11666159769327665 0.1135009163098663 0.0 0.018134366863171027 0.0 0.0
-0.10951734252712456 0.10525330513418475 0.0 0.012690259845755053 0.0 0.0
-0.09708457748294609 0.09256078255265877 0.0 0.01153662939468301 0.0 0.0
-0.08333537729090643 0.07887899813002533 0.0 0.010668790386101846 0.0 0.0
-0.06994317292680306 0.06566981973487306 0.0 0.00942251919337445 0.0 0.0
-0.057541008523511454 0.05352006775464738 0.0 0.008096916228073953 0.0 0.0
-0.0463643982775523 0.0426335687114235 0.0 0.006887908894849627 0.0 0.0
-0.036451441408876836 0.03301953702934429 0.0 0.005783595708885786 0.0 0.0
-0.027762972238492514 0.02461884138735846 0.0 0.00467597356826178 0.0 0.0
-0.020291423943155175 0.017417796071714783 0.0 0.003548671694769052 0.0 0.0
-0.0140873270122756 0.01147433079728482 0.0 0.002490876947149973 0.0 0.0
-0.00921323893312631 0.006880261370760549 0.0 0.0016060289304274695 0.0 0.0
-0.005661623372445016 0.0036543239515375225 0.0 0.0009634809489311219 0.0 0.0
-0.0033414179575774468 0.001712738318075775 0.0 0.0006004989923578875 0.0 0.0
-0.0020521474350951416 0.0008766065645436083 0.0 0.0006684114485056853 0.0 0.0
-0.0013465154128345363 0.0005794442905446718 0.0 0.0008550028533334477 0.0 0.0
-0.0007872634999932872 0.0003309176746798552 0.0 0.0008574353345500227 0.0 0.0
-0.0003137183891157645 3.9451058981325424e-05 0.0 0.0005749253648815885 0.0 0.0
-0.00011616699717824605 -1.290851331222598e-05 0.0 0.00029223784582013923 0.0 0.0
-0.00011604597914305126 1.3778192783886281e-05 0.0 -0.0001660237187938277 0.0 0.0
-0.00031971711523541286 7.586131588297227e-05 0.0 -0.00028791506063510715 0.0 0.0
-0.0008371338416527391 0.0003533951093180438 0.0 -0.0004188726397802002 0.0 0.0
-0.0014846594864593792 0.0006243300832419742 0.0 -0.00041011340522989574 0.0 0.0
-0.0023543143876910287 0.0010173332720357882 0.0 -0.0002593138254921403 0.0 0.0
-0.003935519146554872 0.0021656197165341035 0.0 -0.0002209455552091005 0.0 0.0
-0.0066246415731813614 0.004507905034062121 0.0 -0.00042727738406450654 0.0 0.0
-0.01060555134774075 0.00816162756782614 0.0 -0.0007572194011271063 0.0 0.0
-0.016025664721107863 0.013294964953736464 0.0 -0.0012102371145975462 0.0 0.0
-0.022931161694896986 0.019920806163618642 0.0 -0.0017647063710230111 0.0 0.0
-0.03128691221826915 0.027984435656972062 0.0 -0.0023547518736396753 0.0 0.0
-0.04105476962245956 0.037443777583889934 0.0 -0.0029423569164243584 0.0 0.0
-0.052236905334884676 0.0483058669183776 0.0 -0.0035718617872163828 0.0 0.0
-0.06482543816294123 0.060588639204933806 0.0 -0.0042778313732329066 0.0 0.0
-0.07869474616787643 0.07420867756780584 0.0 -0.005048948357756952 0.0 0.0
-0.09344659472140213 0.08880628874139548 0.0 -0.005764011321343403 0.0 0.0
-0.10827003556801953 0.10358621252412063 0.0 -0.006103097735639823 0.0 0.0
-0.12179978216511667 0.11716360211978358 0.0 -0.005993003802500979 0.0 0.0
-0.13105995312987545 0.12699034248054303 0.0 -0.008235521589568987 0.0 0.0
-0.12846995121149107 0.12728764016492974 0.0 -0.024827836775479114 0.0 0.0
-0.12284962948433094 0.10511361100163553 0.0 4.6889575555653096e-15 0.0 0.0
-0.12846995121146987 0.1272876401649092 0.0 0.024827836775495535 0.0 0.0
-0.13105995312983562 0.1269903424805082 0.0 0.008235521589583803 0.0 0.0
-0.12179978216506195 0.11716360211973281 0.0 0.005993003802508057 0.0 0.0
-0.10827003556795602 0.10358621252405077 0.0 0.006103097735641053 0.0 0.0
-0.09344659472133451 0.0888062887413294 0.0 0.005764011321342816 0.0 0.0
-0.07869474616780651 0.07420867756773268 0.0 0.005048948357753949 0.0 0.0
-0.06482543816287047 0.06058863920486293 0.0 0.004277831373231401 0.0 0.0
-0.052236905334815925 0.04830586691831246 0.0 0.003571861787214332 0.0 0.0
-0.0410547696223954 0.037443777583826075 0.0 0.002942356916419063 0.0 0.0
-0.031286912218212164 0.027984435656916475 0.0 0.0023547518736341897 0.0 0.0
-0.022931161694850006 0.01992080616357514 0.0 0.001764706371018453 0.0 0.0
-0.016025664721071288 0.013294964953701072 0.0 0.0012102371145936903 0.0 0.0
-0.010605551347714393 0.008161627567799387 0.0 0.0007572194011255156 0.0 0.0
-0.006624641573164545 0.004507905034046564 0.0 0.00042727738406164836 0.0 0.0
-0.0039355191465457575 0.0021656197165267716 0.0 0.00022094555520757531 0.0 0.0
-0.0023543143876874084 0.0010173332720349246 0.0 0.00025931382549232267 0.0 0.0
-0.001484659486458128 0.000624330083242061 0.0 0.0004101134052290608 0.0 0.0
-0.0008371338416521042 0.00035339510931818395 0.0 0.0004188726397791459 0.0 0.0
-0.0003197171152351473 7.586131588299969e-05 0.0 0.00028791506063448975 0.0 0.0
-0.00011604597914296273 1.3778192783805012e-05 0.0 0.00016602371879279726 0.0 0.0
-7.547036751936205e-05 1.4608755857855669e-05 0.0 -0.00010362858489610261 0.0 0.0
-0.00028509529392247844 8.77769866643692e-05 0.0 -0.00011952638091252335 0.0 0.0
-0.0008680713673180359 0.0003616200866435791 0.0 -0.00014214397312805113 0.0 0.0
-0.0016464613750423378 0.0006489241924578787 0.0 -0.00011680320056028272 0.0 0.0
-0.002710703300469655 0.0011021535052127666 0.0 7.29133332347174e-05 0.0 0.0
-0.004573712352882468 0.0024111094135568704 0.0 0.00024308607932228544 0.0 0.0
-0.0076007243852294374 0.004943561088626445 0.0 0.0003075186733678411 0.0 0.0
-0.01198504243535569 0.00880479037976086 0.0 0.000331506042338068 0.0 0.0
-0.017925786982025124 0.014200586705943078 0.0 0.00032144915397986 0.0 0.0
-0.02551479113431907 0.02116331057188027 0.0 0.00025175482183016065 0.0 0.0
-0.034751170151813345 0.02965660398615842 0.0 0.00016724011515209481 0.0 0.0
-0.04560932695986703 0.039648810532851055 0.0 6.586328061708316e-05 0.0 0.0
-0.05805530345931653 0.05113686782208025 0.0 -0.00010755961769505409 0.0 0.0
-0.0720343776699476 0.0641121239039037 0.0 -0.00032259106805406553 0.0 0.0
-0.0873504154038413 0.07846180667227658 0.0 -0.0006361998245956691 0.0 0.0
-0.10344822174352775 0.09374732394853848 0.0 -0.0010181393507626719 0.0 0.0
-0.11925741611627018 0.1090428706842009 0.0 -0.0013102008054450553 0.0 0.0
-0.1332175104730658 0.12291681810354144 0.0 -0.0012439441869745958 0.0 0.0
-0.14360185725862956 0.13331095467915424 0.0 -0.0020081543507170117 0.0 0.0
-0.14612697127295549 0.13589131216797268 0.0 -0.01799492887462823 0.0 0.0
-0.14456465420441933 0.11484338310680789 0.0 1.915134717478395e-15 0.0 0.0
-0.14612697127293195 0.13589131216795264 0.0 0.01799492887463546 0.0 0.0
-0.14360185725858393 0.13331095467911158 0.0 0.002008154350722267 0.0 0.0
-0.1332175104730028 0.12291681810349266 0.0 0.0012439441869771962 0.0 0.0
-0.1192574161161991 0.10904287068412191 0.0 0.0013102008054460147 0.0 0.0
-0.1034482217434532 0.09374732394847071 0.0 0.001018139350762665 0.0 0.0
-0.08735041540376337 0.0784618066722005 0.0 0.0006361998245927106 0.0 0.0
-0.07203437766986884 0.06411212390382905 0.0 0.0003225910680540057 0.0 0.0
-0.058055303459240995 0.05113686782200985 0.0 0.00010755961769575752 0.0 0.0
-0.045609326959796304 0.039648810532783185 0.0 -6.586328061890679e-05 0.0 0.0
-0.03475117015175081 0.029656603986102106 0.0 -0.0001672401151527102 0.0 0.0
-0.025514791134268345 0.021163310571833134 0.0 -0.00025175482183144 0.0 0.0
-0.01792578698198573 0.014200586705906623 0.0 -0.00032144915398071416 0.0 0.0
-0.011985042435326733 0.00880479037973353 0.0 -0.00033150604233807756 0.0 0.0
-0.00760072438521024 0.0049435610886094175 0.0 -0.00030751867337023837 0.0 0.0
-0.004573712352871578 0.002411109413548858 0.0 -0.00024308607932312782 0.0 0.0
-0.0027107033004653064 0.0011021535052108825 0.0 -7.291333323316727e-05 0.0 0.0
-0.0016464613750410975 0.0006489241924588049 0.0 0.00011680320056005875 0.0 0.0
-0.0008680713673173393 0.0003616200866439326 0.0 0.0001421439731282543 0.0 0.0
-0.00028509529392213464 8.777698666395637e-05 0.0 0.00011952638091237313 0.0 0.0
-7.547036751922014e-05 1.4608755857853236e-05 0.0 0.00010362858489435997 0.0 0.0
SCALARS Statev float 8
LOOKUP_TABLE default
0.0 0.016709427934491317 0.013337291230297615 -0.015978694451302566 0.0026414032210049596 -0.0007650901098100275 0.0 0.0
0.0 0.005487500491710652 0.003995477686419712 -0.002397166538126191 -0.001598311148293521 -0.006351834062012459 0.0 0.0
0.0 5.465543581456595e-05 9.904986234435965e-05 -6.261075430892888e-05 -3.6439108035430836e-05 -0.0002119825647021999 0.0 0.0
0.0 0.00012019283730055822 3.6398535375126575e-05 -2.6038844462681518e-05 -1.0359690912445171e-05 1.35235624662214e-05 0.0 0.0
0.0 0.0007510701921236015 0.0004442028977887007 -0.00032276714841250717 -0.00012143574937619374 9.942869094247398e-05 0.0 0.0
0.0 0.0018804374181724546 0.001898102853812813 -0.0014821533463732317 -0.00041594950743958095 0.0002088325719813368 0.0 0.0
0.0 0.004902952833451057 0.004520655620508022 -0.0038011569095487813 -0.0007194987109592387 0.00029394365347860463 0.0 0.0
0.0 0.00943971770573771 0.008575577939251964 -0.007601970625547027 -0.0009736073137049364 0.0003375189924536161 0.0 0.0
0.0 0.01581521979837371 0.01419231447336007 -0.01300751598517132 -0.0011847984881887363 0.00034378311651802164 0.0 0.0
0.0 0.024132748703761524 0.021435496506768795 -0.020032985521731394 -0.0014025109850374384 0.00029526595714247613 0.0 0.0
0.0 0.03437599547941213 0.030302610327271655 -0.028649636915607988 -0.001652973411663626 0.00022942739468789184 0.0 0.0
0.0 0.04619531337090927 0.04077911947366007 -0.03883736469305106 -0.0019417547806090303 0.00014041336836924487 0.0 0.0
0.0 0.05992170698690047 0.0528403974954742 -0.05058032829158212 -0.0022600692038920946 -2.516866631120619e-05 0.0 0.0
0.0 0.07546293546264256 0.06645927202583939 -0.0638621602997714 -0.002597111726067924 -0.0002155354789984353 0.0 0.0
0.0 0.09270327278774908 0.08153075117543288 -0.07859466873823387 -0.0029360824371988856 -0.00047837156102071925 0.0 0.0
0.0 0.11129181322517905 0.09771162265690359 -0.09445268494274567 -0.003258937714157931 -0.0008203294282814631 0.0 0.0
0.0 0.13038649919213036 0.11430246860921056 -0.11075370481681769 -0.0035487637923928748 -0.0011832830747848682 0.0 0.0
0.0 0.1487309284933635 0.1302245161162527 -0.12643636616855428 -0.0037881499476982066 -0.0014283566964443035 0.0 0.0
0.0 0.16474641000502346 0.14411815591110314 -0.1401489497965999 -0.003969206114503319 -0.001380010498467993 0.0 0.0
0.0 0.17638749767583634 0.154400498976418 -0.1503302005413706 -0.004070298435047611 -0.0014278477074743017 0.0 0.0
0.0 0.18111531118768642 0.1584749278689848 -0.15441830922152391 -0.004056618647460788 1.334869714764153e-15 0.0 0.0
0.0 0.1763874976758164 0.15440049897640024 -0.15033020054135343 -0.004070298435046785 0.0014278477074807115 0.0 0.0
0.0 0.1647464100049781 0.1441181559110635 -0.14014894979656156 -0.003969206114501947 0.0013800104984738179 0.0 0.0
0.0 0.14873092849329927 0.13022451611619607 -0.12643636616849951 -0.0037881499476965625 0.0014283566964483985 0.0 0.0
0.0 0.1303864991920511 0.1143024686091417 -0.1107537048167504 -0.0035487637923913725 0.001183283074784056 0.0 0.0
0.0 0.1112918132250953 0.09771162265683012 -0.09445268494267367 -0.003258937714156598 0.0008203294282784915 0.0 0.0
0.0 0.09270327278766854 0.08153075117536246 -0.07859466873816529 -0.0029360824371971045 0.00047837156101979616 0.0 0.0
0.0 0.07546293546255614 0.06645927202576397 -0.06386216029969735 -0.0025971117260666673 0.0002155354789969686 0.0 0.0
0.0 0.059921706986821456 0.05284039749540509 -0.050580328291515195 -0.00226006920388984 2.5168666309606774e-05 0.0 0.0
0.0 0.04619531337083353 0.04077911947359375 -0.03883736469298603 -0.001941754780607718 -0.00014041336837105288 0.0 0.0
0.0 0.03437599547934539 0.030302610327213205 -0.028649636915551013 -0.0016529734116621933 -0.00022942739468941953 0.0 0.0
0.0 0.024132748703708608 0.02143549650672255 -0.020032985521686416 -0.0014025109850361564 -0.0002952659571438146 0.0 0.0
0.0 0.015815219798336614 0.01419231447332709 -0.013007515985139606 -0.001184798488187463 -0.0003437831165184274 0.0 0.0
0.0 0.00943971770571091 0.008575577939227572 -0.007601970625523917 -0.0009736073137036594 -0.0003375189924533301 0.0 0.0
0.0 0.004902952833434563 0.004520655620492259 -0.0038011569095344564 -0.0007194987109578019 -0.00029394365347847984 0.0 0.0
0.0 0.0018804374181652223 0.0018981028538052201 -0.001482153346366989 -0.00041594950743822993 -0.0002088325719804699 0.0 0.0
0.0 0.0007510701921197712 0.0004442028977861474 -0.00032276714841063714 -0.0001214357493755089 -9.942869094200852e-05 0.0 0.0
0.0 0.00012019283729984452 3.639853537526573e-05 -2.603884446280001e-05 -1.03596909124652e-05 -1.3523562466143527e-05 0.0 0.0
0.0 5.465543581372978e-05 9.904986234374994e-05 -6.261075430851607e-05 -3.643910803523327e-05 0.0002119825647011173 0.0 0.0
0.0 0.0054875004917009145 0.003995477686414587 -0.0023971665381225553 -0.0015983111482920271 0.0063518340620034395 0.0 0.0
0.0 0.0167094279344712 0.013337291230283928 -0.01597869445128367 0.0026414032209997286 0.000765090109775077 0.0 0.0
0.0 0.013536540949779097 0.010080597830417044 -0.013132003969003905 0.0030514061385868603 -0.0002972834475362021 0.0 0.0
0.0 0.0032770402897819243 0.0023452924229946754 -0.0013774534979409847 -0.0009678389250536879 -0.0048854251704122656 0.0 0.0
0.0 -5.396046405423362e-05 -5.7400379354631895e-05 4.94639017752533e-05 7.936477579378627e-06 -4.852960664233976e-05 0.0 0.0
0.0 1.679170556247283e-05 8.422608097539455e-06 -6.042881022504947e-06 -2.3797270750345326e-06 6.5283893441451445e-06 0.0 0.0
0.0 0.00037577994804788555 0.0002703192202848872 -0.0001979324097413649 -7.238681054352188e-05 4.0887773319127e-05 0.0 0.0
0.0 0.0016589295303266172 0.0014100827086214402 -0.0011112051040221053 -0.00029887760459933643 5.261620118819109e-05 0.0 0.0
0.0 0.0041173008967371055 0.0037944211544845736 -0.003225507185236406 -0.0005689139692481615 -0.0001419216955166286 0.0 0.0
0.0 0.008324273702021403 0.0075064206777637355 -0.006740253186666918 -0.0007661674910968223 -0.0004640315683708599 0.0 0.0
0.0 0.014270762466296594 0.012685246620935285 -0.01179131623658534 -0.0008939303843499336 -0.000912596832595158 0.0 0.0
0.0 0.021953750885492816 0.019359093880272613 -0.018362225483971362 -0.0009968683963012407 -0.0014596534561272315 0.0 0.0
0.0 0.03136221025596031 0.027495425882819405 -0.026397815792019642 -0.0010976100907997717 -0.002049955989058709 0.0 0.0
0.0 0.04256124714304301 0.03706416540960993 -0.03586222063432289 -0.0012019447752869975 -0.0026497720940982738 0.0 0.0
0.0 0.054977297497514614 0.04807896995501529 -0.046769484794559994 -0.0013094851604552222 -0.0032975789217573525 0.0 0.0
0.0 0.06935091735061509 0.06053837288266727 -0.05912514065251411 -0.0014132322301531502 -0.004007084480788138 0.0 0.0
0.0 0.08528890720608374 0.07436018278692047 -0.07285816664860596 -0.0015020161383144527 -0.004765345875128779 0.0 0.0
0.0 0.1024785680844184 0.08924306592669472 -0.08767686524585658 -0.0015662006808382287 -0.005523397698500589 0.0 0.0
0.0 0.12021905394225513 0.1045560490392256 -0.10295627460987145 -0.0015997744293539703 -0.0061005500031803585 0.0 0.0
0.0 0.13737087132408263 0.11931895149555401 -0.11771512181851262 -0.001603829677041473 -0.006189790851721325 0.0 0.0
0.0 0.15237828499420492 0.13223429625495534 -0.1306564949723052 -0.0015778012826500342 -0.00553734904118171 0.0 0.0
0.0 0.16330893585571948 0.1415827796119459 -0.14010224570350652 -0.0014805339084393615 -0.004430400177345467 0.0 0.0
0.0 0.16787202651275615 0.14520564656383197 -0.14387686475979164 -0.0013287818040403918 5.958775139980332e-15 0.0 0.0
0.0 0.1633089358556979 0.14158277961192678 -0.14010224570348745 -0.0014805339084392852 0.004430400177361563 0.0 0.0
0.0 0.15237828499416164 0.13223429625491784 -0.1306564949722677 -0.0015778012826500518 0.0055373490411968615 0.0 0.0
0.0 0.1373708713240225 0.11931895149550192 -0.1177151218184608 -0.0016038296770410222 0.0061897908517302026 0.0 0.0
0.0 0.12021905394218461 0.10455604903916499 -0.10295627460981097 -0.001599774429354022 0.006100550003181192 0.0 0.0
0.0 0.10247856808434289 0.08924306592662926 -0.08767686524579131 -0.0015662006808377987 0.005523397698495785 0.0 0.0
0.0 0.08528890720600894 0.0743601827868553 -0.07285816664854163 -0.0015020161383137848 0.004765345875126854 0.0 0.0
0.0 0.0693509173505365 0.060538372882599334 -0.05912514065244627 -0.0014132322301530194 0.004007084480785647 0.0 0.0
0.0 0.05497729749744384 0.04807896995495378 -0.046769484794499536 -0.0013094851604542562 0.003297578921753545 0.0 0.0
0.0 0.04256124714297441 0.0370641654095502 -0.03586222063426347 -0.0012019447752867128 0.0026497720940937422 0.0 0.0
0.0 0.03136221025589827 0.02749542588276567 -0.02639781579196631 -0.0010976100907993667 0.0020499559890525426 0.0 0.0
0.0 0.021953750885445707 0.019359093880231083 -0.018362225483930364 -0.0009968683963007094 0.0014596534561230096 0.0 0.0
0.0 0.014270762466260462 0.012685246620902918 -0.011791316236553799 -0.0008939303843491286 0.0009125968325920874 0.0 0.0
0.0 0.008324273701997655 0.007506420677742185 -0.0067402531866461775 -0.0007661674910960109 0.0004640315683686652 0.0 0.0
0.0 0.0041173008967218105 0.0037944211544702665 -0.0032255071852233075 -0.0005689139692469545 0.0001419216955152593 0.0 0.0
0.0 0.0016589295303190853 0.0014100827086148578 -0.0011112051040166639 -0.0002988776045981941 -5.261620118823982e-05 0.0 0.0
0.0 0.0003757799480452494 0.00027031922028325153 -0.0001979324097401657 -7.238681054308624e-05 -4.0887773318835275e-05 0.0 0.0
0.0 1.6791705562192634e-05 8.4226080979443e-06 -6.042881022816867e-06 -2.3797270751272476e-06 -6.528389344099754e-06 0.0 0.0
0.0 -5.396046405396352e-05 -5.7400379354323805e-05 4.9463901774984225e-05 7.936477579339419e-06 4.8529606642124185e-05 0.0 0.0
0.0 0.0032770402897721227 0.0023452924229892935 -0.0013774534979372414 -0.000967838925052052 0.004885425170401461 0.0 0.0
0.0 0.01353654094975768 0.010080597830400651 -0.013132003968983098 0.0030514061385824407 0.0002972834475104224 0.0 0.0
0.0 0.009977725514124732 0.00726953044543532 -0.009742171884503197 0.002472641439067871 -0.0025575702996002703 0.0 0.0
0.0 0.0022784368306179156 0.0014400229423958805 -0.0007591078611369651 -0.0006809150812589152 -0.00394046673957503 0.0 0.0
0.0 2.5678426942533087e-08 -2.678779843523035e-09 2.105284134767642e-09 5.734957087552363e-10 -4.864799241920996e-10 0.0 0.0
0.0 -2.3857378920244993e-06 -4.008983135339555e-06 3.1125991076654256e-06 8.96384027674002e-07 1.48793708946013e-06 0.0 0.0
0.0 0.00013721480944184323 0.00010357123932848971 -7.332099849748323e-05 -3.025024083100688e-05 1.5341410796708513e-05 0.0 0.0
0.0 0.0011466693121682271 0.0009143473911101177 -0.0007021583433465895 -0.00021218904776352778 -3.740499615967073e-05 0.0 0.0
0.0 0.0031185034822547317 0.0029367575022124386 -0.00244390904140495 -0.0004928484608074916 -0.0004224140684079474 0.0 0.0
0.0 0.00688293860542084 0.00621478985719353 -0.005505692498000803 -0.0007090973591927235 -0.001058174559749216 0.0 0.0
0.0 0.012180612725787953 0.010849261182257762 -0.010001700081074053 -0.0008475611011837129 -0.0019290781172373117 0.0 0.0
0.0 0.019124151672804256 0.0168252942995714 -0.015876904208298178 -0.0009483900912732315 -0.0029743864941985296 0.0 0.0
0.0 0.027557531567334193 0.024081873836833034 -0.023038921277830384 -0.001042952559002626 -0.004103434428469572 0.0 0.0
0.0 0.03731628040177983 0.032578053984548695 -0.03143719001918849 -0.0011408639653602132 -0.005235967761952383 0.0 0.0
0.0 0.0487679356733707 0.042328569610860026 -0.04108692695401998 -0.0012416426568400605 -0.006379571614060856 0.0 0.0
0.0 0.06126865681929119 0.05338441190601853 -0.052045868615142175 -0.001338543290876322 -0.0076195916885498805 0.0 0.0
0.0 0.0754959555579216 0.06569188573589298 -0.0642697464783735 -0.0014221392575195085 -0.008960186252849672 0.0 0.0
0.0 0.09088429075975638 0.07900485037782763 -0.07752141988118735 -0.0014834304966401875 -0.010271249014071239 0.0 0.0
0.0 0.10683965069339893 0.09279522655333769 -0.0912768144501249 -0.001518412103212862 -0.01124423123149869 0.0 0.0
0.0 0.12235201702131926 0.1062004180854024 -0.104676542391887 -0.0015238756935153485 -0.011400609635618996 0.0 0.0
0.0 0.13600796725048553 0.11797284705468902 -0.116485952332882 -0.0014868947218069787 -0.010341842465017416 0.0 0.0
0.0 0.14593071985684802 0.12649068662242388 -0.12506799744627817 -0.0014226891761456022 -0.007967383053988857 0.0 0.0
0.0 0.1502355025925481 0.12988480753061135 -0.1286476256874214 -0.001237181843189918 1.150728817789215e-14 0.0 0.0
0.0 0.14593071985682995 0.1264906866224067 -0.12506799744626182 -0.00142268917614498 0.007967383054017285 0.0 0.0
0.0 0.13600796725044745 0.11797284705465576 -0.11648595233284886 -0.001486894721806988 0.010341842465045947 0.0 0.0
0.0 0.12235201702126544 0.10620041808535566 -0.10467654239184043 -0.0015238756935150974 0.011400609635635134 0.0 0.0
0.0 0.10683965069333763 0.09279522655328508 -0.09127681445007263 -0.0015184121032124954 0.01124423123150049 0.0 0.0
0.0 0.09088429075969129 0.07900485037777108 -0.07752141988113127 -0.001483430496639833 0.010271249014066293 0.0 0.0
0.0 0.07549595555785277 0.06569188573583332 -0.06426974647831431 -0.0014221392575190098 0.00896018625284603 0.0 0.0
0.0 0.061268656819224276 0.05338441190596029 -0.05204586861508475 -0.0013385432908755524 0.007619591688545978 0.0 0.0
0.0 0.04876793567330774 0.04232856961080541 -0.04108692695396606 -0.0012416426568393317 0.006379571614054229 0.0 0.0
0.0 0.03731628040171927 0.032578053984496286 -0.031437190019136516 -0.0011408639653597392 0.005235967761944172 0.0 0.0
0.0 0.027557531567280504 0.024081873836786057 -0.023038921277783782 -0.0010429525590022702 0.004103434428460058 0.0 0.0
0.0 0.01912415167276224 0.01682529429953428 -0.015876904208261506 -0.0009483900912727627 0.0029743864941903743 0.0 0.0
0.0 0.012180612725753973 0.01084926118222772 -0.010001700081044635 -0.0008475611011830927 0.0019290781172313556 0.0 0.0
0.0 0.006882938605397739 0.006214789857173032 -0.005505692497981248 -0.0007090973591917805 0.001058174559744657 0.0 0.0
0.0 0.0031185034822411835 0.0029367575021996824 -0.00244390904139354 -0.0004928484608061442 0.0004224140684052352 0.0 0.0
0.0 0.0011466693121617974 0.0009143473911047706 -0.0007021583433423151 -0.00021218904776245466 3.740499615901889e-05 0.0 0.0
0.0 0.0001372148094404051 0.00010357123932789672 -7.332099849708647e-05 -3.0250240830810216e-05 -1.5341410796448688e-05 0.0 0.0
0.0 -2.385737892352058e-06 -4.008983135361398e-06 3.1125991076822803e-06 8.963840276791402e-07 -1.487937089464752e-06 0.0 0.0
0.0 2.5678426919816804e-08 -2.678779841143436e-09 2.1052841328877173e-09 5.734957082559921e-10 4.864799235722653e-10 0.0 0.0
0.0 0.0022784368306102785 0.00144002294239125 -0.0007591078611338736 -0.0006809150812573753 0.003940466739563032 0.0 0.0
0.0 0.009977725514103204 0.007269530445419391 -0.009742171884482786 0.0024726414390633966 0.0025575702995830015 0.0 0.0
0.0 0.007485555273013829 0.005304772800552426 -0.007263543164363711 0.0019587703638112744 -0.0028034143192201895 0.0 0.0
0.0 0.0016038326617829305 0.0009500320076690475 -0.0004845501398488066 -0.0004654818678202393 -0.002907255838678629 0.0 0.0
0.0 0.0 0.0 0.0 0.0 0.0 0.0 0.0
0.0 -5.313757678540277e-07 -1.6944915738253939e-07 1.452954325765978e-07 2.4153724805938125e-08 1.4180218644309797e-07 0.0 0.0
0.0 3.419909270015207e-05 1.1387434035927507e-05 -6.348181492277578e-06 -5.0392525436496595e-06 1.2977306056381035e-05 0.0 0.0
0.0 0.0006227715455440694 0.0005297233877886938 -0.00039689988420835197 -0.00013282350358034126 -8.214845686003659e-05 0.0 0.0
0.0 0.0024100320573089695 0.0021045401624415674 -0.0017077142454298357 -0.0003968259170117297 -0.0005092160945611121 0.0 0.0
0.0 0.005482522670568821 0.004941502761888989 -0.004304039769859747 -0.0006374629920292422 -0.001418193641688996 0.0 0.0
0.0 0.01016264213963765 0.009009548893993238 -0.008217362463804776 -0.0007921864301884521 -0.0026165138580069697 0.0 0.0
0.0 0.016297060524950314 0.014272945827218952 -0.013378073197918674 -0.0008948726293002772 -0.004049157389176673 0.0 0.0
0.0 0.023676167321079206 0.020645222311404622 -0.019661388390495704 -0.000983833920908909 -0.005588573897208637 0.0 0.0
0.0 0.032363981598721635 0.02806945220388444 -0.02699479662318825 -0.0010746555806961842 -0.007127447680045284 0.0 0.0
0.0 0.042079225748730825 0.036570254469863166 -0.03540114549022812 -0.0011691089796350943 -0.008669082661471478 0.0 0.0
0.0 0.05347059780138658 0.04620327309722197 -0.04494470029479508 -0.0012585728024268532 -0.010299477770118127 0.0 0.0
0.0 0.06583841347437362 0.056974573495140235 -0.05563820143451496 -0.0013363720606252118 -0.012052988239854212 0.0 0.0
0.0 0.07923127412922501 0.06870518283041907 -0.06730831799175581 -0.0013968648386632448 -0.013786129158526119 0.0 0.0
0.0 0.09349554917827492 0.08096496803359685 -0.07953157399181071 -0.001433394041786079 -0.0151044362630616 0.0 0.0
0.0 0.10743869748965108 0.09301393911130947 -0.0915749067448296 -0.0014390323664797682 -0.015424233182472824 0.0 0.0
0.0 0.11980556724591712 0.10372323913483301 -0.1023141894606866 -0.001409049674146408 -0.014137166496959518 0.0 0.0
0.0 0.12893302418739339 0.11165288615732169 -0.11029103108224059 -0.0013618550750812567 -0.010545953596202253 0.0 0.0
0.0 0.13321625721185604 0.11499405790887324 -0.11389280824969338 -0.001101249659179931 1.5580418899485693e-14 0.0 0.0
0.0 0.12893302418737856 0.11165288615730698 -0.11029103108222636 -0.0013618550750804904 0.010545953596239993 0.0 0.0
0.0 0.11980556724588363 0.1037232391348033 -0.10231418946065675 -0.0014090496741465345 0.014137166496995448 0.0 0.0
0.0 0.10743869748960101 0.0930139391112659 -0.09157490674478534 -0.0014390323664806048 0.015424233182493665 0.0 0.0
0.0 0.09349554917822181 0.08096496803355112 -0.0795315739917655 -0.0014333940417855886 0.015104436263064475 0.0 0.0
0.0 0.07923127412916847 0.06870518283037003 -0.06730831799170713 -0.0013968648386628502 0.013786129158520948 0.0 0.0
0.0 0.06583841347431418 0.05697457349508853 -0.05563820143446386 -0.0013363720606247244 0.012052988239848952 0.0 0.0
0.0 0.05347059780132781 0.04620327309717071 -0.04494470029474448 -0.001258572802426205 0.01029947777011243 0.0 0.0
0.0 0.04207922574867334 0.036570254469813844 -0.03540114549017906 -0.0011691089796347894 0.008669082661462858 0.0 0.0
0.0 0.03236398159866855 0.028069452203838118 -0.02699479662314246 -0.0010746555806956841 0.007127447680033042 0.0 0.0
0.0 0.023676167321033253 0.020645222311364647 -0.019661388390456103 -0.0009838339209085347 0.005588573897196972 0.0 0.0
0.0 0.01629706052491172 0.014272945827185322 -0.013378073197885589 -0.0008948726292997287 0.004049157389165122 0.0 0.0
0.0 0.01016264213960914 0.009009548893968348 -0.008217362463780496 -0.0007921864301878445 0.002616513857999195 0.0 0.0
0.0 0.005482522670548083 0.004941502761870003 -0.0043040397698418 -0.0006374629920282015 0.001418193641682343 0.0 0.0
0.0 0.002410032057297752 0.002104540162432222 -0.0017077142454217389 -0.0003968259170104821 0.0005092160945581259 0.0 0.0
0.0 0.0006227715455396062 0.0005297233877854391 -0.000396899884205862 -0.0001328235035795773 8.214845685940754e-05 0.0 0.0
0.0 3.419909269937739e-05 1.1387434036029802e-05 -6.348181492380616e-06 -5.0392525436491894e-06 -1.297730605611108e-05 0.0 0.0
0.0 -5.313757677615313e-07 -1.694491574313877e-07 1.452954326147402e-07 2.4153724816659693e-08 -1.418021864797849e-07 0.0 0.0
0.0 0.0 0.0 0.0 0.0 0.0 0.0 0.0
0.0 0.0016038326617762565 0.0009500320076652062 -0.0004845501398462556 -0.00046548186781895316 0.002907255838668317 0.0 0.0
0.0 0.007485555272995732 0.005304772800538345 -0.007263543164345513 0.001958770363807174 0.0028034143192075126 0.0 0.0
0.0 0.005408053798235623 0.003815116933823348 -0.0053169089465591604 0.0015017920127358148 -0.0024197794063369896 0.0 0.0
0.0 0.0012783603384679387 0.0005964183050081145 -0.0002911553983626741 -0.00030526290664543965 -0.0020123884310613697 0.0 0.0
0.0 0.0 0.0 0.0 0.0 0.0 0.0 0.0
0.0 -1.7918878968638495e-07 1.6580370838373166e-08 -1.3354665710081564e-08 -3.22570512829003e-09 -1.9972891801069645e-08 0.0 0.0
0.0 -1.8742804310428712e-05 -9.345404395531115e-06 7.784565850488987e-06 1.5608385450421171e-06 1.145479357695073e-05 0.0 0.0
0.0 0.0003080132924484134 0.00022795966141006885 -0.00016618677312179689 -6.177288828827168e-05 -5.054541328996458e-05 0.0 0.0
0.0 0.0017186767858313192 0.0013720499998780545 -0.0010838792185915232 -0.00028817078128653067 -0.0004939118503299645 0.0 0.0
0.0 0.004153509024250453 0.003706481775785925 -0.0031568211508135437 -0.0005496606249723844 -0.0015037624201970912 0.0 0.0
0.0 0.008181787311127498 0.007188709469936764 -0.006464661900673962 -0.0007240475692628002 -0.0029672374145696826 0.0 0.0
0.0 0.013469651454153572 0.011724979703410167 -0.010891504386470702 -0.0008334753169394618 -0.004676645831457562 0.0 0.0
0.0 0.019889048619233744 0.017206549126130514 -0.016287437339349058 -0.0009191117867814669 -0.006505010738136614 0.0 0.0
0.0 0.02734281580341115 0.02356308856979197 -0.022560113536305826 -0.0010029750334861337 -0.00832518664197086 0.0 0.0
0.0 0.03589818649210996 0.03081121538313811 -0.029721572673718118 -0.0010896427094199532 -0.01014044538176821 0.0 0.0
0.0 0.04525517757647848 0.03903332805708326 -0.037859844297889446 -0.0011734837591938108 -0.012044908894706463 0.0 0.0
0.0 0.05608170474660101 0.04825455752466444 -0.047008662998681804 -0.0012458945259826582 -0.01406785588519397 0.0 0.0
0.0 0.06792091382254542 0.058371216748852955 -0.05706846854194107 -0.001302748206911869 -0.016056310612999145 0.0 0.0
0.0 0.08016932154271325 0.06907202276999327 -0.06773029382575865 -0.001341728944234609 -0.017635568146246606 0.0 0.0
0.0 0.09249801947607585 0.07975349876242507 -0.07839923024633375 -0.0013542685160914118 -0.018190827978145908 0.0 0.0
0.0 0.10368175402150158 0.08946749802602641 -0.08813343584117066 -0.0013340621848557162 -0.01683860797582331 0.0 0.0
0.0 0.11225542180257751 0.09696338973420397 -0.09567002828208701 -0.001293361452116839 -0.012481443988765809 0.0 0.0
0.0 0.11666486677651655 0.1003544964357729 -0.09941456151725657 -0.0009399349185163308 1.7571447769038073e-14 0.0 0.0
0.0 0.11225542180256183 0.09696338973418854 -0.09567002828207105 -0.0012933614521174123 0.01248144398880813 0.0 0.0
0.0 0.10368175402147228 0.08946749802599945 -0.0881334358411438 -0.0013340621848555926 0.016838607975863798 0.0 0.0
0.0 0.09249801947603277 0.07975349876238737 -0.07839923024629508 -0.0013542685160922844 0.01819082797816925 0.0 0.0
0.0 0.08016932154266845 0.06907202276995458 -0.0677302938257207 -0.0013417289442338813 0.017635568146250814 0.0 0.0
0.0 0.06792091382249517 0.05837121674880936 -0.05706846854189797 -0.0013027482069113223 0.016056310612991814 0.0 0.0
0.0 0.05608170474654992 0.04825455752462019 -0.047008662998637776 -0.0012458945259824076 0.014067855885186904 0.0 0.0
0.0 0.04525517757642718 0.0390333280570387 -0.037859844297845245 -0.0011734837591934628 0.012044908894699686 0.0 0.0
0.0 0.03589818649206246 0.030811215383096727 -0.02972157267367745 -0.0010896427094192547 0.010140445381758725 0.0 0.0
0.0 0.02734281580336553 0.023563088569752387 -0.022560113536266774 -0.0010029750334856074 0.008325186641957048 0.0 0.0
0.0 0.019889048619194553 0.0172065491260969 -0.01628743733931612 -0.000919111786780788 0.006505010738121675 0.0 0.0
0.0 0.013469651454119776 0.011724979703381148 -0.010891504386442203 -0.000833475316938932 0.004676645831443856 0.0 0.0
0.0 0.008181787311103833 0.007188709469916012 -0.006464661900654003 -0.0007240475692620071 0.002967237414560627 0.0 0.0
0.0 0.004153509024233909 0.0037064817757712777 -0.0031568211508000567 -0.0005496606249712217 0.0015037624201902039 0.0 0.0
0.0 0.0017186767858225623 0.0013720499998711709 -0.0010838792185859018 -0.000288170781285271 0.0004939118503271867 0.0 0.0
0.0 0.000308013292445035 0.00022795966140789435 -0.00016618677312017028 -6.177288828772347e-05 5.054541328922904e-05 0.0 0.0
0.0 -1.874280431069291e-05 -9.345404395213592e-06 7.784565850242026e-06 1.5608385449715023e-06 -1.1454793576644455e-05 0.0 0.0
0.0 -1.7918878958620634e-07 1.6580370829333657e-08 -1.3354665703083526e-08 -3.225705126253981e-09 1.9972891788994082e-08 0.0 0.0
0.0 0.0 0.0 0.0 0.0 0.0 0.0 0.0
0.0 0.0012783603384615382 0.0005964183050050595 -0.00029115539836062777 -0.00030526290664443 0.0020123884310528305 0.0 0.0
0.0 0.005408053798221065 0.003815116933811936 -0.005316908946544121 0.0015017920127321776 0.0024197794063283255 0.0 0.0
0.0 0.003879115274114466 0.002636699383586947 -0.003731750567653152 0.0010950511840662066 -0.0018920805573131446 0.0 0.0
0.0 0.0007311075366984398 0.00035008692702839534 -0.0001602852143881243 -0.00018980171264027112 -0.0013105911901883979 0.0 0.0
0.0 0.0 0.0 0.0 0.0 0.0 0.0 0.0
0.0 -4.2819074672083497e-07 3.2598703140169964e-08 -2.4906694850939358e-08 -7.692008289230642e-09 -6.631307165159322e-08 0.0 0.0
0.0 -7.680584470409126e-06 -6.4740501399877735e-06 5.157625146163884e-06 1.3164249938238974e-06 9.032009503345074e-06 0.0 0.0
0.0 6.929341185430126e-05 6.509192291397444e-05 -4.535516866038445e-05 -1.973675425359009e-05 -1.4540142325479205e-05 0.0 0.0
0.0 0.000906541984194708 0.0008002465988775747 -0.0006165758671450561 -0.00018367073173251915 -0.00043012031466430723 0.0 0.0
0.0 0.0031849021511626166 0.0025370243254549864 -0.0021034284553976827 -0.0004335958700573024 -0.0013661005004398095 0.0 0.0
0.0 0.006130698479131719 0.005411488002126158 -0.004773873567235238 -0.0006376144348909161 -0.0029518674118756 0.0 0.0
0.0 0.010723233405800912 0.009203630663576285 -0.008443767674931425 -0.0007598629886448639 -0.004845043243199103 0.0 0.0
0.0 0.016118184193788215 0.013789916035637437 -0.012943933577621292 -0.0008459824580161425 -0.006840852659452015 0.0 0.0
0.0 0.022340221952204614 0.019082093139625313 -0.018157916568600867 -0.0009241765710244445 -0.008824797347770662 0.0 0.0
0.0 0.02939535577935548 0.025088238742708845 -0.02408452611910149 -0.0010037126236073788 -0.010787287904472547 0.0 0.0
0.0 0.03745619734019815 0.03189169026666563 -0.030811840815013338 -0.0010798494516523112 -0.012824891345719312 0.0 0.0
0.0 0.04637813163239207 0.0395634150657268 -0.038415922278130704 -0.0011474927875960751 -0.01498316657628017 0.0 0.0
0.0 0.056147103647786384 0.04805503766049617 -0.04685292385745037 -0.0012021138030457814 -0.017103105506211237 0.0 0.0
0.0 0.06700051227519728 0.05714291344796876 -0.05590129305914928 -0.001241620388819481 -0.018826389561772062 0.0 0.0
0.0 0.07762438573055434 0.06641301387990475 -0.06514872685736094 -0.0012642870225438425 -0.019594106830093442 0.0 0.0
0.0 0.08746888315949355 0.07515554642155997 -0.07389805688752211 -0.0012574895340378962 -0.01841533177044872 0.0 0.0
0.0 0.09565610715140271 0.08231168571415187 -0.08109224433020307 -0.0012194413839487575 -0.013840276884704013 0.0 0.0
0.0 0.10033243097426357 0.08583207221135021 -0.0850762767871865 -0.0007557954241636546 1.8459192507869204e-14 0.0 0.0
0.0 0.09565610715139049 0.08231168571413867 -0.08109224433018981 -0.0012194413839489867 0.013840276884746372 0.0 0.0
0.0 0.0874688831594701 0.07515554642153716 -0.07389805688749937 -0.0012574895340377876 0.018415331770490595 0.0 0.0
0.0 0.07762438573052556 0.06641301387987852 -0.06514872685733507 -0.0012642870225434229 0.019594106830119137 0.0 0.0
0.0 0.06700051227515988 0.05714291344793656 -0.05590129305911783 -0.0012416203888186976 0.018826389561776236 0.0 0.0
0.0 0.056147103647742794 0.04805503766045868 -0.046852923857413 -0.0012021138030456644 0.017103105506202945 0.0 0.0
0.0 0.04637813163235111 0.0395634150656912 -0.0384159222780956 -0.0011474927875955944 0.014983166576272338 0.0 0.0
0.0 0.037456197340160514 0.03189169026663241 -0.03081184081498105 -0.0010798494516513816 0.012824891345712795 0.0 0.0
0.0 0.029395355779315107 0.025088238742674164 -0.02408452611906746 -0.0010037126236066795 0.010787287904462437 0.0 0.0
0.0 0.02234022195216647 0.019082093139592717 -0.018157916568568733 -0.0009241765710239748 0.008824797347756624 0.0 0.0
0.0 0.016118184193754645 0.013789916035609293 -0.01294393357759398 -0.0008459824580153135 0.00684085265943542 0.0 0.0
0.0 0.01072323340577386 0.009203630663553168 -0.008443767674908727 -0.0007598629886444372 0.004845043243184598 0.0 0.0
0.0 0.0061306984791119085 0.005411488002108549 -0.004773873567218584 -0.000637614434889966 0.0029518674118656765 0.0 0.0
0.0 0.0031849021511484174 0.002537024325443643 -0.002103428455387568 -0.0004335958700560738 0.001366100500433256 0.0 0.0
0.0 0.0009065419841881384 0.0008002465988724941 -0.0006165758671410045 -0.00018367073173148924 0.00043012031466135473 0.0 0.0
0.0 6.929341185314899e-05 6.509192291357955e-05 -4.535516866012148e-05 -1.9736754253458067e-05 1.454014232566754e-05 0.0 0.0
0.0 -7.680584471382284e-06 -6.474050139959504e-06 5.157625146140995e-06 1.316424993818481e-06 -9.032009503277423e-06 0.0 0.0
0.0 -4.2819074657463115e-07 3.259870312858171e-08 -2.4906694842016207e-08 -7.692008286562386e-09 6.631307162822855e-08 0.0 0.0
0.0 0.0 0.0 0.0 0.0 0.0 0.0 0.0
0.0 0.000731107536693039 0.00035008692702596076 -0.00016028521438646187 -0.0001898017126394987 0.0013105911901812796 0.0 0.0
0.0 0.0038791152741029324 0.0026366993835779118 -0.0037317505676408977 0.0010950511840629835 0.0018920805573070403 0.0 0.0
0.0 0.00249887016312662 0.0017178670664685747 -0.0024600639175870187 0.0007421968511184421 -0.0013945410768638497 0.0 0.0
0.0 0.0004217387692414569 0.0001670097801090668 -5.7014908781910646e-05 -0.0001099948713271558 -0.0007480884610674709 0.0 0.0
0.0 4.5030000765742004e-07 -5.889399966331698e-09 5.402290337682763e-09 4.871096286490315e-10 9.028034844085993e-08 0.0 0.0
0.0 -3.9933846218285653e-07 2.3010864123224606e-08 -1.7665084308602554e-08 -5.345779814626124e-09 -7.114747973550936e-08 0.0 0.0
0.0 -2.294776279334768e-06 -1.3700405248735235e-06 1.0828468865950553e-06 2.87193638278507e-07 3.0637002586002443e-06 0.0 0.0
0.0 -1.7650685854251236e-05 -1.2656640840491504e-05 1.1483973727695678e-05 1.1726671127958818e-06 3.364145382393488e-05 0.0 0.0
0.0 0.00045390594361851313 0.0003544492235532429 -0.00026770335285070037 -8.674587070254244e-05 -0.0002764999575545115 0.0 0.0
0.0 0.0018332529303679915 0.0015532930920517914 -0.0012513118469722132 -0.00030198124507957815 -0.00113859112555688 0.0 0.0
0.0 0.004710193350267832 0.0036961953408274207 -0.003178814221871433 -0.000517381118955988 -0.0025774396153361197 0.0 0.0
0.0 0.00790189226741861 0.006739974792772628 -0.006074531884912772 -0.0006654429078598572 -0.0045226638913950365 0.0 0.0
0.0 0.01241587141582766 0.01042128764913856 -0.009662427962568788 -0.0007588596865697757 -0.006576552225421082 0.0 0.0
0.0 0.017448012031974207 0.014650264746862615 -0.013815836238800217 -0.0008344285080623984 -0.008608602201514978 0.0 0.0
0.0 0.023088201140441897 0.01942283714829265 -0.018515508072038722 -0.000907329076253916 -0.010596537641134132 0.0 0.0
0.0 0.029468477814649785 0.02482228751428893 -0.023845529426660076 -0.000976758087628862 -0.012634635817628076 0.0 0.0
0.0 0.036635158103183796 0.03093876423501612 -0.029900089772475553 -0.0010386744625405342 -0.014770683463396205 0.0 0.0
0.0 0.044922020833631476 0.037780528450959736 -0.03669174327923305 -0.0010887851717267087 -0.016892619886085446 0.0 0.0
0.0 0.053266492797362106 0.04522684599099034 -0.04409616244489442 -0.0011306835460959612 -0.018660857645154228 0.0 0.0
0.0 0.06248828870849533 0.05301176231179959 -0.05184648434463534 -0.0011652779671641582 -0.01958790613945203 0.0 0.0
0.0 0.07147885842969731 0.06072584783398683 -0.059551265842703816 -0.0011745819912830121 -0.018783490120993295 0.0 0.0
0.0 0.0791622008313909 0.06757622069907963 -0.06643550479187228 -0.0011407159072073633 -0.01458759357967078 0.0 0.0
0.0 0.08427643459602752 0.0712953748703725 -0.07074802767586737 -0.0005473471945051003 1.713256272961594e-14 0.0 0.0
0.0 0.07916220083138084 0.06757622069906777 -0.06643550479186017 -0.001140715907207543 0.014587593579711986 0.0 0.0
0.0 0.07147885842967808 0.06072584783396747 -0.059551265842683825 -0.0011745819912836472 0.018783490121035726 0.0 0.0
0.0 0.06248828870847055 0.053011762311776345 -0.05184648434461286 -0.0011652779671635224 0.019587906139476505 0.0 0.0
0.0 0.053266492797331276 0.045226845990963854 -0.0440961624448686 -0.001130683546095216 0.018660857645157795 0.0 0.0
0.0 0.04492202083359531 0.037780528450929 -0.03669174327920229 -0.0010887851717267217 0.016892619886075627 0.0 0.0
0.0 0.036635158103151946 0.03093876423498789 -0.02990008977244833 -0.0010386744625395527 0.014770683463387948 0.0 0.0
0.0 0.02946847781461877 0.02482228751426174 -0.023845529426633788 -0.00097675808762794 0.012634635817620797 0.0 0.0
0.0 0.023088201140407754 0.01942283714826392 -0.018515508072010304 -0.0009073290762536152 0.010596537641123059 0.0 0.0
0.0 0.017448012031942167 0.014650264746835909 -0.013815836238773822 -0.0008344285080620977 0.008608602201500606 0.0 0.0
0.0 0.012415871415799536 0.010421287649115523 -0.009662427962546415 -0.0007588596865691062 0.006576552225404084 0.0 0.0
0.0 0.007901892267397076 0.006739974792754757 -0.006074531884895474 -0.0006654429078592869 0.004522663891381025 0.0 0.0
0.0 0.004710193350250233 0.0036961953408137464 -0.003178814221858798 -0.0005173811189549459 0.00257743961532674 0.0 0.0
0.0 0.0018332529303583104 0.0015532930920440727 -0.0012513118469655328 -0.0003019812450785382 0.0011385911255513714 0.0 0.0
0.0 0.00045390594361438384 0.00035444922355067863 -0.0002677033528487784 -8.674587070190058e-05 0.000276499957552468 0.0 0.0
0.0 -1.7650685854702508e-05 -1.2656640840227339e-05 1.1483973727471892e-05 1.1726671127553458e-06 -3.364145382336424e-05 0.0 0.0
0.0 -2.294776280057353e-06 -1.3700405248517783e-06 1.0828468865787097e-06 2.871936382730675e-07 -3.0637002585403302e-06 0.0 0.0
0.0 -3.9933846203843063e-07 2.3010864114477826e-08 -1.766508430182229e-08 -5.345779812654833e-09 7.114747970917023e-08 0.0 0.0
0.0 4.503000071303827e-07 -5.889399959299267e-09 5.402290331223529e-09 4.871096280759266e-10 -9.028034833325816e-08 0.0 0.0
0.0 0.00042173876923778627 0.00016700978010755969 -5.701490878090092e-05 -0.00010999487132665866 0.0007480884610625507 0.0 0.0
0.0 0.0024988701631178524 0.0017178670664618027 -0.0024600639175776065 0.0007421968511158073 0.0013945410768592776 0.0 0.0
0.0 0.001875315797139845 0.000971117487011497 -0.0014030237318101305 0.00043190624479863353 -0.000892656166049851 0.0 0.0
0.0 0.0001062407500336551 5.239215729865477e-05 2.657627680490695e-06 -5.504978497914546e-05 -0.0003422834188296716 0.0 0.0
0.0 -2.3607289888514954e-07 4.548215305307588e-09 -5.32361710209284e-09 7.75401796785643e-10 -4.7666224544853404e-08 0.0 0.0
0.0 -4.6935384922183686e-07 2.164817357651057e-08 -1.6737800486346704e-08 -4.9103730901639445e-09 -9.233073872632927e-08 0.0 0.0
0.0 -5.072938272468937e-07 -1.1108101822960663e-06 8.769863785517321e-07 2.3382380374434046e-07 3.806587937928671e-06 0.0 0.0
0.0 -2.4767843498482855e-05 -1.5294401516134935e-05 1.2288244686328048e-05 3.006156829806864e-06 3.46841783652545e-05 0.0 0.0
0.0 0.00012560099666159095 8.59545499630266e-05 -6.33921942362231e-05 -2.2562355726803583e-05 -0.00010578724028396873 0.0 0.0
0.0 0.0009262330325262017 0.0007496103306396339 -0.0005894834694537515 -0.0001601268611858825 -0.000800904357632208 0.0 0.0
0.0 0.0027315192173854794 0.0021833231409041655 -0.0018206828325873362 -0.0003626403083168277 -0.0020094662117948804 0.0 0.0
0.0 0.005666501092461992 0.004366746672457809 -0.0038372522003097408 -0.0005294944721480658 -0.0037122872667091247 0.0 0.0
0.0 0.008804499952185314 0.007131910622030954 -0.0064899001590190296 -0.0006420104630119185 -0.005684556801130711 0.0 0.0
0.0 0.01257987986862912 0.010302393463519927 -0.009579199439011485 -0.000723194024508456 -0.007639386363905157 0.0 0.0
0.0 0.016881251545174274 0.013852145166599217 -0.013058948414709934 -0.0007931967518892629 -0.009540654229185572 0.0 0.0
0.0 0.021668070678278934 0.017858966749377755 -0.01700305848992438 -0.0008559082594533625 -0.011450331094289591 0.0 0.0
0.0 0.027197389307175013 0.02242280223405586 -0.021510718691114487 -0.0009120835429413669 -0.013429105768373306 0.0 0.0
0.0 0.03331922011323006 0.02760666285083087 -0.02664714342384368 -0.0009595194269871613 -0.015402225043685042 0.0 0.0
0.0 0.04028611564669329 0.033359797975146044 -0.03236009688676826 -0.0009997010883777862 -0.017103610669424216 0.0 0.0
0.0 0.047463840828174474 0.039575730626125405 -0.03853116833730501 -0.0010445622888204098 -0.018098964319306916 0.0 0.0
0.0 0.05482693904605585 0.046142670664233595 -0.045063343219471974 -0.0010793274447616534 -0.017794716395529684 0.0 0.0
0.0 0.06228149525760984 0.05263413702079406 -0.051576176421567664 -0.0010579605992264232 -0.014608891151763198 0.0 0.0
0.0 0.06806043489916645 0.056607698816002486 -0.05629791443285219 -0.00030978438315031124 1.4768134631859553e-14 0.0 0.0
0.0 0.06228149525760479 0.0526341370207859 -0.051576176421559504 -0.0010579605992263217 0.014608891151800795 0.0 0.0
0.0 0.05482693904604329 0.04614267066421933 -0.0450633432194575 -0.001079327444761859 0.017794716395569413 0.0 0.0
0.0 0.04746384082815435 0.03957573062610639 -0.038531168337286405 -0.0010445622888200282 0.01809896431932888 0.0 0.0
0.0 0.04028611564666895 0.033359797975125324 -0.032360096886748325 -0.0009997010883769654 0.017103610669425444 0.0 0.0
0.0 0.03331922011320059 0.027606662850806603 -0.02664714342381926 -0.0009595194269873521 0.015402225043674061 0.0 0.0
0.0 0.02719738930715044 0.022422802234034804 -0.02151071869109363 -0.0009120835429411737 0.013429105768364962 0.0 0.0
0.0 0.021668070678254346 0.017858966749356817 -0.017003058489903702 -0.0008559082594531323 0.011450331094282482 0.0 0.0
0.0 0.016881251545150678 0.013852145166579701 -0.013058948414690831 -0.0007931967518888614 0.009540654229176293 0.0 0.0
0.0 0.012579879868604475 0.010302393463499785 -0.0095791994389915 -0.000723194024508275 0.007639386363890803 0.0 0.0
0.0 0.008804499952163761 0.007131910622013987 -0.006489900159002801 -0.0006420104630111821 0.005684556801115046 0.0 0.0
0.0 0.00566650109244393 0.004366746672443855 -0.003837252200296373 -0.0005294944721474821 0.0037122872666961217 0.0 0.0
0.0 0.0027315192173740723 0.00218332314089533 -0.0018206828325795046 -0.00036264030831582557 0.002009466211787545 0.0 0.0
0.0 0.0009262330325203355 0.0007496103306352585 -0.0005894834694502126 -0.00016012686118504547 0.0008009043576280332 0.0 0.0
0.0 0.0001256009966594985 8.595454996180544e-05 -6.33921942353011e-05 -2.256235572650445e-05 0.00010578724028225005 0.0 0.0
0.0 -2.4767843498433015e-05 -1.5294401515305622e-05 1.2288244685692633e-05 3.006156829613022e-06 -3.468417836337902e-05 0.0 0.0
0.0 -5.072938277522568e-07 -1.1108101823319504e-06 8.769863785805778e-07 2.3382380375136483e-07 -3.8065879379950887e-06 0.0 0.0
0.0 -4.6935384971146325e-07 2.1648173579859094e-08 -1.6737800487853913e-08 -4.910373092004604e-09 9.233073882264467e-08 0.0 0.0
0.0 -2.360728988178214e-07 4.5482153017712844e-09 -5.3236170994539795e-09 7.754017976827665e-10 4.766622453096609e-08 0.0 0.0
0.0 0.00010624075003121692 5.239215729788987e-05 2.6576276809363392e-06 -5.504978497882621e-05 0.00034228341882662543 0.0 0.0
0.0 0.0018753157971316237 0.0009711174870066705 -0.0014030237318032681 0.0004319062447965971 0.0008926561660462399 0.0 0.0
0.0 0.0008523469026210976 0.0004807582012566213 -0.0007004334056269624 0.00021967520437034125 -0.0005475237746193934 0.0 0.0
0.0 -8.855087362197762e-06 -1.1873322042039025e-05 3.753635936918071e-05 -2.5663037327141708e-05 -7.22261686803466e-05 0.0 0.0
0.0 2.3827761454902987e-06 -4.92477418578889e-09 1.3021728498038553e-08 -8.096954312248407e-09 5.1637577708077e-07 0.0 0.0
0.0 7.416735698493798e-07 -9.542394886079667e-10 -6.545323538248171e-10 1.6087718424318491e-09 1.5398417255262044e-07 0.0 0.0
0.0 -2.065777981539807e-06 -6.52989381501568e-07 5.02289827786086e-07 1.5069955371548072e-07 3.999696523397071e-06 0.0 0.0
0.0 -1.6711532108913846e-05 -4.465345192625657e-06 3.648425484428614e-06 8.169197081970475e-07 1.4902718718947376e-05 0.0 0.0
0.0 1.2596438171212947e-05 -7.979005860154189e-06 6.927582663649359e-06 1.0514231965047604e-06 8.721936606893429e-06 0.0 0.0
0.0 0.0003717218745087496 0.0001915145182273423 -0.0001507213955752082 -4.0793122652134164e-05 -0.0003703431612764618 0.0 0.0
0.0 0.0013080559796434903 0.0009157365630072737 -0.00074653131344509 -0.00016920524956218279 -0.0012907223334694454 0.0 0.0
0.0 0.0030835166601255785 0.0022264375851721494 -0.001898848587380198 -0.0003275889977919532 -0.002587577870647621 0.0 0.0
0.0 0.005216882742977216 0.004006358619936225 -0.0035462974178166766 -0.0004600612021195451 -0.004209126132049641 0.0 0.0
0.0 0.007880191717860219 0.0060923006004645515 -0.0055372484349334415 -0.0005550521655311069 -0.005898229706315235 0.0 0.0
0.0 0.010800164735944598 0.008428628373843729 -0.007796407063619712 -0.0006322213102240125 -0.007593233937528989 0.0 0.0
0.0 0.014055238512137701 0.011062276242076516 -0.01036824351578848 -0.0006940327262880274 -0.00927827784653089 0.0 0.0
0.0 0.01781521039911851 0.014084329583636082 -0.013337630837527733 -0.0007466987461083565 -0.010975423659828388 0.0 0.0
0.0 0.022177586811104034 0.017590852466866442 -0.01679819659351984 -0.0007926558733466042 -0.012684569977296462 0.0 0.0
0.0 0.027116594124685617 0.021628088034942514 -0.020792567411678682 -0.0008355206232637989 -0.014244168573763732 0.0 0.0
0.0 0.032399671611993246 0.026190183576887054 -0.025308610879688827 -0.0008815726971982593 -0.015255137643948572 0.0 0.0
0.0 0.03837410439265638 0.03139474093912814 -0.03045313144816138 -0.0009416094909667091 -0.015288661422748736 0.0 0.0
0.0 0.04538136726879881 0.03734727106548454 -0.036384081279773155 -0.0009631897857113695 -0.01359409155331296 0.0 0.0
0.0 0.051766118538498294 0.041614878496380174 -0.04157464348546893 -4.02350109112478e-05 1.2483070133129104e-14 0.0 0.0
0.0 0.045381367268798545 0.03734727106547952 -0.03638408127976813 -0.0009631897857113724 0.013594091553345868 0.0 0.0
0.0 0.03837410439264979 0.03139474093911887 -0.030453131448151993 -0.0009416094909668418 0.01528866142278433 0.0 0.0
0.0 0.03239967161198179 0.026190183576876205 -0.025308610879678593 -0.0008815726971975866 0.0152551376439668 0.0 0.0
0.0 0.027116594124666493 0.021628088034927353 -0.02079256741166432 -0.0008355206232630414 0.014244168573760693 0.0 0.0
0.0 0.022177586811084487 0.017590852466850868 -0.01679819659350435 -0.0007926558733464997 0.012684569977286654 0.0 0.0
0.0 0.017815210399100914 0.014084329583621389 -0.013337630837513348 -0.0007466987461080293 0.010975423659820877 0.0 0.0
0.0 0.01405523851212372 0.011062276242064926 -0.010368243515777345 -0.0006940327262875809 0.009278277846525974 0.0 0.0
0.0 0.010800164735929565 0.008428628373831383 -0.00779640706360777 -0.0006322213102236168 0.00759323393752202 0.0 0.0
0.0 0.007880191717844607 0.006092300600453285 -0.005537248434922573 -0.0005550521655307119 0.005898229706303791 0.0 0.0
0.0 0.005216882742963414 0.004006358619925855 -0.0035462974178068693 -0.00046006120211898566 0.004209126132037156 0.0 0.0
0.0 0.0030835166601134527 0.002226437585163623 -0.0018988485873724262 -0.00032758899779119734 0.0025875778706376295 0.0 0.0
0.0 0.0013080559796368647 0.000915736563002661 -0.0007465313134411953 -0.00016920524956146523 0.0012907223334642016 0.0 0.0
0.0 0.0003717218745051264 0.00019151451822532872 -0.00015072139557359516 -4.0793122651733476e-05 0.0003703431612728797 0.0 0.0
0.0 1.2596438169813054e-05 -7.979005859931294e-06 6.927582663473017e-06 1.0514231964583127e-06 -8.721936606744717e-06 0.0 0.0
0.0 -1.6711532109573055e-05 -4.465345192398199e-06 3.648425484248355e-06 8.169197081498186e-07 -1.490271871763157e-05 0.0 0.0
0.0 -2.065777982193292e-06 -6.529893815368327e-07 5.022898278145956e-07 1.506995537222487e-07 -3.9996965235241425e-06 0.0 0.0
0.0 7.416735699274276e-07 -9.542394940929151e-10 -6.54532349312994e-10 1.6087718434049888e-09 -1.539841725633737e-07 0.0 0.0
0.0 2.3827761448084355e-06 -4.924774183072626e-09 1.3021728493835165e-08 -8.096954310761489e-09 -5.163757769332054e-07 0.0 0.0
0.0 -8.85508736351908e-06 -1.18733220423522e-05 3.753635936931953e-05 -2.5663037326967212e-05 7.222616867872826e-05 0.0 0.0
0.0 0.0008523469026156769 0.0004807582012537578 -0.0007004334056227811 0.00021967520436902237 0.0005475237746169957 0.0 0.0
0.0 0.00033667371952445744 0.00015320535039668254 -0.00022483556349958632 7.163021310290403e-05 -0.00021247014550236263 0.0 0.0
0.0 -3.9552821805730316e-05 -2.0660703313683987e-05 2.9898306682655366e-05 -9.237603368971388e-06 2.892695749442489e-05 0.0 0.0
0.0 3.752924145788859e-07 1.0881436507427485e-09 -6.668165866363456e-10 -4.213270641053044e-10 7.578167770759034e-08 0.0 0.0
0.0 4.4450109536140523e-07 8.163822712207058e-09 -6.889402019882613e-09 -1.2744206923265762e-09 2.073573378472331e-08 0.0 0.0
0.0 -1.5400158050763508e-06 -1.2648747994290567e-07 8.72885699600004e-08 3.919890998291361e-08 2.8978984148961755e-06 0.0 0.0
0.0 -1.0283425500353853e-05 -2.833770800316178e-06 2.275158502095825e-06 5.586122982203255e-07 2.2082512814339187e-05 0.0 0.0
0.0 1.6022393053632553e-05 -2.95878805761146e-06 2.530754337986126e-06 4.280337196253662e-07 -5.601897175550084e-06 0.0 0.0
0.0 0.00010113114876845551 4.709669254661135e-06 -3.977197447989673e-06 -7.324718066715409e-07 -0.00014296706331949911 0.0 0.0
0.0 0.00037740721108935673 0.0001135539711222579 -9.937570724217759e-05 -1.4178263880080176e-05 -0.0005572076669711641 0.0 0.0
0.0 0.0010293198189039543 0.00048436202418809083 -0.0004313905646129333 -5.297145957515822e-05 -0.0013457917519325462 0.0 0.0
0.0 0.002257343534262213 0.0012104150141083229 -0.0010838051849847961 -0.00012660982912352607 -0.0024537181744309893 0.0 0.0
0.0 0.00354875364370393 0.0021885356265802475 -0.00198185858521869 -0.0002066770413615593 -0.0037478355887375445 0.0 0.0
0.0 0.005160928853548422 0.0033093274205783763 -0.003027983367465111 -0.00028134405311326167 -0.005090907304298215 0.0 0.0
0.0 0.007006328321129519 0.004584284456476974 -0.00423346462129423 -0.0003508198351827426 -0.006479592828548164 0.0 0.0
0.0 0.009110970178774899 0.00608328760916585 -0.005666991776484884 -0.0004162958326809624 -0.007930274674565727 0.0 0.0
0.0 0.011612059911090666 0.007904875489069676 -0.0074257107169229805 -0.0004791647721466943 -0.009448917580062938 0.0 0.0
0.0 0.014685138484412653 0.010185117480768552 -0.009641312822707207 -0.0005438046580613408 -0.010962898904679295 0.0 0.0
0.0 0.018416323672690065 0.01305820725098474 -0.01245047771815263 -0.0006077295328321033 -0.012096520782901604 0.0 0.0
0.0 0.022706287137949376 0.016698353898450317 -0.016025179273597468 -0.000673174624852879 -0.0122462911814807 0.0 0.0
0.0 0.028211503052800745 0.021674915534305096 -0.020885440461265285 -0.0007894750730397871 -0.011366209813151798 0.0 0.0
0.0 0.036303027875277186 0.026158865704318544 -0.02643985310906096 0.00028098740474240063 1.0487704454886781e-14 0.0 0.0
0.0 0.028211503052804766 0.02167491553430348 -0.020885440461263116 -0.0007894750730403741 0.011366209813178792 0.0 0.0
0.0 0.022706287137947017 0.016698353898445505 -0.016025179273592614 -0.0006731746248528915 0.012246291181507652 0.0 0.0
0.0 0.01841632367268186 0.013058207250978341 -0.012450477718146516 -0.000607729532831828 0.012096520782911981 0.0 0.0
0.0 0.01468513848439788 0.010185117480759606 -0.009641312822698783 -0.0005438046580608238 0.010962898904671737 0.0 0.0
0.0 0.01161205991107941 0.007904875489061606 -0.007425710716915424 -0.00047916477214618143 0.00944891758005467 0.0 0.0
0.0 0.009110970178763424 0.006083287609157737 -0.00566699177647608 -0.0004162958326816575 0.007930274674557076 0.0 0.0
0.0 0.007006328321121363 0.004584284456471765 -0.004233464621289619 -0.0003508198351821526 0.006479592828543321 0.0 0.0
0.0 0.005160928853538673 0.0033093274205721604 -0.0030279833674592216 -0.0002813440531129365 0.005090907304291111 0.0 0.0
0.0 0.003548753643696309 0.002188535626575944 -0.001981858585214876 -0.00020667704136106645 0.0037478355887290275 0.0 0.0
0.0 0.002257343534254638 0.0012104150141043618 -0.0010838051849810283 -0.0001266098291233323 0.00245371817442225 0.0 0.0
0.0 0.001029319818899205 0.00048436202418601474 -0.00043139056461096353 -5.297145957505145e-05 0.0013457917519279767 0.0 0.0
0.0 0.00037740721108741747 0.00011355397112129495 -9.937570724132589e-05 -1.4178263879968834e-05 0.0005572076669685624 0.0 0.0
0.0 0.00010113114876760565 4.709669254693099e-06 -3.977197448000779e-06 -7.324718066924025e-07 0.00014296706331867276 0.0 0.0
0.0 1.6022393052312702e-05 -2.958788057589146e-06 2.530754337970955e-06 4.2803371961820307e-07 5.6018971753825964e-06 0.0 0.0
0.0 -1.0283425500222824e-05 -2.833770800248506e-06 2.2751585020412203e-06 5.586122982072853e-07 -2.2082512813459695e-05 0.0 0.0
0.0 -1.5400158056976825e-06 -1.2648747994609295e-07 8.728856996254543e-08 3.919890998354429e-08 -2.897898415172632e-06 0.0 0.0
0.0 4.445010949291305e-07 8.163822706063733e-09 -6.88940201442066e-09 -1.274420691642252e-09 -2.073573362886823e-08 0.0 0.0
0.0 3.752924143091098e-07 1.0881436506432341e-09 -6.668165872929771e-10 -4.213270633542405e-10 -7.578167765116563e-08 0.0 0.0
0.0 -3.955282180593732e-05 -2.0660703313398167e-05 2.989830668228368e-05 -9.23760336888549e-06 -2.8926957493777435e-05 0.0 0.0
0.0 0.0003366737195212412 0.0001532053503953997 -0.00022483556349775372 7.163021310235368e-05 0.0002124701455006114 0.0 0.0
0.0 2.9323497193307467e-05 1.8204229886776807e-05 -2.7904966636296173e-05 9.700736749519318e-06 -2.85867138804039e-05 0.0 0.0
0.0 -4.4545224704139466e-06 -2.994633421538931e-06 4.344126537351139e-06 -1.3494931158121956e-06 5.5078368693191856e-06 0.0 0.0
0.0 3.57457219611257e-06 4.383860248780316e-09 1.2403553440213779e-08 -1.678741368899872e-08 7.533694074506547e-07 0.0 0.0
0.0 7.79999379341847e-07 7.007652440634379e-08 -6.26703030942321e-08 -7.4062213121084085e-09 1.0462051938309388e-06 0.0 0.0
0.0 -1.6703205497973007e-06 1.0234865784882353e-07 -9.523438521432496e-08 -7.114272634498713e-09 3.0194324414753436e-06 0.0 0.0
0.0 -7.363516463142413e-06 -2.589849135557729e-07 2.782260163241875e-07 -1.9241102768411157e-08 1.529161645120569e-05 0.0 0.0
0.0 2.1860272173221045e-05 -7.03581380435598e-07 6.878016711768536e-07 1.5779709258730875e-08 -1.2498374011406475e-05 0.0 0.0
0.0 0.00010336643631441046 -6.480398568113615e-07 6.418088387602128e-07 6.231018051163282e-09 -0.00017520058994517648 0.0 0.0
0.0 0.00028335645412598764 -5.058647122529969e-08 5.080072903986672e-08 -2.1425781455146744e-10 -0.0004058401243459286 0.0 0.0
0.0 0.00046327843167333127 1.256689182197208e-07 -7.224515532288338e-08 -5.342376289687258e-08 -0.0008091681100356228 0.0 0.0
0.0 0.0008216117767544161 -4.882293564386869e-07 9.128355072425819e-08 3.9694580571439817e-07 -0.0013964404996626874 0.0 0.0
0.0 0.0011446978307353957 1.6560381053910746e-06 -9.254109844643245e-07 -7.306271209264249e-07 -0.0023324731498189353 0.0 0.0
0.0 0.0017269960997795398 -7.232448984922132e-06 9.679526556654331e-06 -2.4470775717315213e-06 -0.0034849335120148476 0.0 0.0
0.0 0.002570865874789393 -2.0016840474681693e-05 2.331094143401399e-05 -3.294100959332609e-06 -0.004815073477735555 0.0 0.0
0.0 0.0035900437472366187 -4.776608312668531e-06 2.207828352356273e-06 2.5687799603122714e-06 -0.006276588048346818 0.0 0.0
0.0 0.004740795936708318 0.00013292393587792189 -0.00015467388938882396 2.1749953510903045e-05 -0.007880736293431556 0.0 0.0
0.0 0.006089326756988696 0.0005905320266176796 -0.0006538521505739754 6.332012395629408e-05 -0.009578790155646326 0.0 0.0
0.0 0.007590539596859902 0.0015589281206687456 -0.001734785354462177 0.00017585723379343 -0.011228570242930816 0.0 0.0
0.0 0.009797560074806155 0.0028125470151578232 -0.0031321025337644054 0.0003195555186065842 -0.012459134279846138 0.0 0.0
0.0 0.014402766224848935 0.006012368067785674 -0.005835428218969567 -0.00017693984881610284 -0.01248849537716799 0.0 0.0
0.0 0.0251984519873698 0.011070832796275288 -0.011846159833763917 0.0007753270374886348 8.7659914049798e-15 0.0 0.0
0.0 0.014402766224856213 0.006012368067786149 -0.005835428218970613 -0.00017693984881553385 0.01248849537718846 0.0 0.0
0.0 0.009797560074802904 0.002812547015156149 -0.00313210253376205 0.0003195555186059003 0.012459134279850832 0.0 0.0
0.0 0.007590539596850944 0.0015589281206673505 -0.0017347853544606568 0.00017585723379330662 0.011228570242925548 0.0 0.0
0.0 0.006089326756978746 0.0005905320266176424 -0.0006538521505738205 6.332012395617991e-05 0.009578790155636435 0.0 0.0
0.0 0.004740795936700461 0.00013292393587907678 -0.00015467388939033577 2.174995351125972e-05 0.007880736293423595 0.0 0.0
0.0 0.00359004374723242 -4.776608311351388e-06 2.207828351064446e-06 2.5687799602857356e-06 0.006276588048341247 0.0 0.0
0.0 0.002570865874783259 -2.001684047271896e-05 2.3310941431887435e-05 -3.2941009591677288e-06 0.004815073477728307 0.0 0.0
0.0 0.0017269960997731986 -7.232448984126707e-06 9.67952655599332e-06 -2.447077571866762e-06 0.0034849335120048274 0.0 0.0
0.0 0.001144697830730972 1.6560381038291188e-06 -9.25410982843632e-07 -7.30627120985812e-07 0.0023324731498116204 0.0 0.0
0.0 0.0008216117767508187 -4.882293563510088e-07 9.128355057948332e-08 3.969458057715763e-07 0.001396440499656372 0.0 0.0
0.0 0.0004632784316729023 1.2566891815749437e-07 -7.224515532623085e-08 -5.342376283117882e-08 0.0008091681100339846 0.0 0.0
0.0 0.0002833564541251801 -5.0586471160170266e-08 5.080072899479075e-08 -2.142578346577532e-10 0.00040584012434501966 0.0 0.0
0.0 0.00010336643631305968 -6.480398568160605e-07 6.418088387878419e-07 6.231018028224101e-09 0.00017520058994281783 0.0 0.0
0.0 2.186027217186513e-05 -7.035813804280334e-07 6.87801671164576e-07 1.5779709263472142e-08 1.2498374011110495e-05 0.0 0.0
0.0 -7.363516463070751e-06 -2.5898491357590886e-07 2.78226016344687e-07 -1.9241102768784486e-08 -1.5291616450200693e-05 0.0 0.0
0.0 -1.6703205496970313e-06 1.0234865780719781e-07 -9.523438517401202e-08 -7.114272633182611e-09 -3.019432440365949e-06 0.0 0.0
0.0 7.799993785026878e-07 7.007652442925411e-08 -6.267030311425222e-08 -7.406221315002799e-09 -1.0462051942533152e-06 0.0 0.0
0.0 3.5745721957859565e-06 4.383860249904298e-09 1.2403553441020209e-08 -1.6787413690915318e-08 -7.53369407495488e-07 0.0 0.0
0.0 -4.454522471277605e-06 -2.994633421563897e-06 4.344126537386538e-06 -1.3494931158226548e-06 -5.5078368692670354e-06 0.0 0.0
0.0 2.9323497193048302e-05 1.820422988710695e-05 -2.7904966636768763e-05 9.700736749661924e-06 2.858671388121427e-05 0.0 0.0
0.0 3.8142755423893663e-07 -5.568188217089847e-07 8.145394248401226e-07 -2.5772060313115154e-07 1.1680486624395315e-06 0.0 0.0
0.0 -1.693531720231754e-07 8.250629840399273e-08 -1.163753907204475e-07 3.3869092316457054e-08 -7.639327950214352e-08 0.0 0.0
0.0 -2.7440270278027535e-07 1.6554567678525683e-09 -7.536452097089885e-09 5.8809953292369155e-09 -1.9304592644340106e-07 0.0 0.0
0.0 8.269791497043139e-07 1.8817645712945267e-07 -1.6078796170087923e-07 -2.7388495428574967e-08 1.1378438709146025e-06 0.0 0.0
0.0 -1.254242509266025e-06 5.071974505651075e-08 -5.471374635450071e-08 3.994001297992159e-09 3.3378979475915044e-07 0.0 0.0
0.0 -6.082102457859982e-06 6.522305191767286e-07 -3.9911131979008666e-07 -2.5311919938660827e-07 6.928625693565214e-06 0.0 0.0
0.0 3.464667142869036e-05 2.5596575589089716e-06 -1.8903992992683356e-06 -6.692582596406889e-07 -4.329631867908766e-06 0.0 0.0
0.0 0.00010972704215745862 -6.7956845647538605e-06 5.889909342556462e-06 9.057752221973934e-07 -0.00014824933101570712 0.0 0.0
0.0 0.0003786632346284253 -0.00011437958356003208 0.00010004377817206582 1.4335805387966107e-05 -0.0005605763111172883 0.0 0.0
0.0 0.0010271392616784433 -0.00048330420990178773 0.00043040859378618305 5.2895616115605204e-05 -0.0013449998407695416 0.0 0.0
0.0 0.0022639847044517384 -0.0012066093045933343 0.0010810192441119593 0.00012559006048137416 -0.0024485337299803085 0.0 0.0
0.0 0.003570506537846268 -0.002199163970477728 0.0019908070180790507 0.00020835695239867515 -0.0037487218420849074 0.0 0.0
0.0 0.005198673647168775 -0.0033417505085986264 0.0030564684192127337 0.00028528208938589125 -0.005092234938311232 0.0 0.0
0.0 0.00706625054212811 -0.0046381822602924215 0.004284450873036419 0.00035373138725600215 -0.006478050574255408 0.0 0.0
0.0 0.00908431994499018 -0.0060778219495260305 0.005673807883003862 0.0004040140665221711 -0.007941717406558494 0.0 0.0
0.0 0.011190709192957192 -0.007533115057046666 0.0071101142159924295 0.00042300084105424305 -0.009549318989409906 0.0 0.0
0.0 0.013083104250103346 -0.008727358803957398 0.008325540849777446 0.000401817954179948 -0.011365479114297883 0.0 0.0
0.0 0.01456953274238101 -0.009235877287215588 0.008915694272077428 0.00032018301513815503 -0.01342988076925658 0.0 0.0
0.0 0.014758267521730468 -0.008537449349941127 0.008382612406987637 0.0001548369429535021 -0.015704262775432274 0.0 0.0
0.0 0.01215192321707354 -0.006167470309041661 0.006316466638114082 -0.00014899632907241703 -0.017419489554347044 0.0 0.0
0.0 0.024112422918800693 -0.003323721411891514 0.0013990429020997882 0.0019246785097917244 1.317522480004385e-14 0.0 0.0
0.0 0.012151923217078272 -0.006167470309041906 0.0063164666381144135 -0.00014899632907250512 0.017419489554359277 0.0 0.0
0.0 0.014758267521728811 -0.008537449349938952 0.00838261240698536 0.00015483694295359476 0.015704262775443584 0.0 0.0
0.0 0.014569532742373013 -0.009235877287209728 0.008915694272072228 0.0003201830151375017 0.013429880769258284 0.0 0.0
0.0 0.013083104250088072 -0.00872735880394661 0.008325540849766826 0.00040181795417978185 0.011365479114289222 0.0 0.0
0.0 0.011190709192942419 -0.00753311505703532 0.007110114215981598 0.00042300084105372074 0.009549318989400264 0.0 0.0
0.0 0.009084319944981057 -0.0060778219495184 0.005673807882996919 0.00040401406652148663 0.007941717406551207 0.0 0.0
0.0 0.0070662505421133694 -0.004638182260281175 0.004284450873025734 0.00035373138725544107 0.006478050574245489 0.0 0.0
0.0 0.005198673647156057 -0.0033417505085892663 0.003056468419203898 0.00028528208938536763 0.005092234938302575 0.0 0.0
0.0 0.0035705065378322507 -0.0021991639704677076 0.0019908070180700236 0.00020835695239768452 0.0037487218420730896 0.0 0.0
0.0 0.002263984704437365 -0.0012066093045847996 0.0010810192441039162 0.00012559006048088237 0.0024485337299670526 0.0 0.0
0.0 0.0010271392616714222 -0.0004833042098982005 0.0004304085937830068 5.289561611519365e-05 0.0013449998407640887 0.0 0.0
0.0 0.000378663234626545 -0.00011437958355921145 0.00010004377817134139 1.4335805387870176e-05 0.0005605763111156431 0.0 0.0
0.0 0.00010972704215606957 -6.7956845646652e-06 5.889909342488408e-06 9.057752221767834e-07 0.00014824933101438459 0.0 0.0
0.0 3.464667142701089e-05 2.559657558981717e-06 -1.8903992993353698e-06 -6.692582596463395e-07 4.329631867216612e-06 0.0 0.0
0.0 -6.082102458781522e-06 6.522305190379148e-07 -3.991113196785512e-07 -2.5311919935936277e-07 -6.928625692505389e-06 0.0 0.0
0.0 -1.2542425092160884e-06 5.0719744927144825e-08 -5.471374624452964e-08 3.994001317380906e-09 -3.3378979369387723e-07 0.0 0.0
0.0 8.269791498369539e-07 1.8817645701545972e-07 -1.607879616054918e-07 -2.7388495409967284e-08 -1.137843869755989e-06 0.0 0.0
0.0 -2.744027028306709e-07 1.6554567509272773e-09 -7.53645210202283e-09 5.880995351091335e-09 1.9304592729269173e-07 0.0 0.0
0.0 -1.6935317218376455e-07 8.250629841884573e-08 -1.1637539073374224e-07 3.3869092314900076e-08 7.639327924171153e-08 0.0 0.0
0.0 3.8142755326531164e-07 -5.568188217552068e-07 8.145394249039688e-07 -2.5772060314878237e-07 -1.168048662539e-06 0.0 0.0
0.0 0.0 0.0 0.0 0.0 0.0 0.0 0.0
0.0 6.899941943312653e-07 2.335641497192957e-09 8.417905092393384e-09 -1.0753546589591328e-08 1.3732579951200305e-07 0.0 0.0
0.0 3.7371736507371464e-07 9.649903130069172e-08 -7.574413384082842e-08 -2.0754897459872253e-08 7.283873938259063e-07 0.0 0.0
0.0 2.5393151666583883e-07 -4.6073116455110363e-07 3.7465284914204075e-07 8.607831540905557e-08 -2.9419299896923376e-06 0.0 0.0
0.0 2.610299684398505e-06 1.8510241536779952e-06 -1.540227594707925e-06 -3.107965589700166e-07 9.527142198603033e-06 0.0 0.0
0.0 5.167048819596745e-06 7.1893740088788686e-06 -5.71990090340291e-06 -1.469473105475941e-06 2.502105147080606e-05 0.0 0.0
0.0 1.7431355334449022e-05 -3.6949580468528866e-06 2.791738354420225e-06 9.032196924327436e-07 -3.8098806749922644e-05 0.0 0.0
0.0 0.00038621434943868145 -0.00019759671294642626 0.00015598726904175503 4.160944390467109e-05 -0.000384392539480506 0.0 0.0
0.0 0.001307257204724811 -0.000915029920220848 0.0007457947217321926 0.00016923519848865547 -0.0012921926638065405 0.0 0.0
0.0 0.0030792859701232805 -0.0022242602493355496 0.0018967261651704937 0.00032753408416505555 -0.0025841161148667086 0.0 0.0
0.0 0.005216807784252695 -0.004007132557070383 0.0035470624445232335 0.0004600701125471526 -0.004207338867277201 0.0 0.0
0.0 0.00789183359852992 -0.006101946685035315 0.005546413717953374 0.0005555329670819414 -0.005899224801640258 0.0 0.0
0.0 0.01083132550384542 -0.008457545276523244 0.007824362038028736 0.0006331832384945077 -0.0075797354487709264 0.0 0.0
0.0 0.01409958704535063 -0.01111153516059985 0.010417793191629934 0.0006937419689699191 -0.009230313555311653 0.0 0.0
0.0 0.017790907530680897 -0.014082117388096109 0.013344403250092526 0.0007377141380035723 -0.010932750681073846 0.0 0.0
0.0 0.021790769567258537 -0.017255766114087696 0.01649587048833295 0.0007598956257547396 -0.012878905634941575 0.0 0.0
0.0 0.025708340256595297 -0.020309795761599362 0.01955043737173979 0.000759358389859577 -0.015290426749937682 0.0 0.0
0.0 0.028805517054317123 -0.022716554762091223 0.021977321721653384 0.0007392330404378394 -0.018279073259522285 0.0 0.0
0.0 0.030480270548308177 -0.023498312887676454 0.022830444818371997 0.0006678680693044585 -0.021254027689757152 0.0 0.0
0.0 0.028241939133140385 -0.020709745958300364 0.02015725184599655 0.0005524941123038077 -0.0218353700214435 0.0 0.0
0.0 0.029716177014507947 -0.016391567034320785 0.013663591057499532 0.002727975976821246 1.1982602410309795e-14 0.0 0.0
0.0 0.028241939133147882 -0.020709745958300114 0.020157251845996562 0.0005524941123035388 0.021835370021472164 0.0 0.0
0.0 0.03048027054830446 -0.023498312887669084 0.02283044481836472 0.000667868069304373 0.021254027689782 0.0 0.0
0.0 0.028805517054301493 -0.022716554762077505 0.02197732172163973 0.0007392330404377798 0.018279073259530335 0.0 0.0
0.0 0.0257083402565716 -0.02030979576158019 0.01955043737172048 0.000759358389859695 0.015290426749931045 0.0 0.0
0.0 0.02179076956723542 -0.017255766114068948 0.016495870488314447 0.0007598956257545182 0.012878905634930207 0.0 0.0
0.0 0.01779090753066062 -0.014082117388079634 0.013344403250076468 0.0007377141380031633 0.010932750681063202 0.0 0.0
0.0 0.014099587045330497 -0.011111535160582412 0.010417793191612793 0.000693741968969611 0.00923031355530234 0.0 0.0
0.0 0.01083132550382379 -0.008457545276505968 0.007824362038011722 0.000633183238494245 0.0075797354487596455 0.0 0.0
0.0 0.007891833598507376 -0.006101946685018112 0.00554641371793674 0.0005555329670813707 0.005899224801624692 0.0 0.0
0.0 0.005216807784231773 -0.004007132557054031 0.0035470624445077758 0.00046007011254625485 0.004207338867260964 0.0 0.0
0.0 0.003079285970110512 -0.0022242602493262307 0.0018967261651621173 0.000327534084164115 0.0025841161148574474 0.0 0.0
0.0 0.0013072572047170758 -0.0009150299202152089 0.0007457947217275241 0.00016923519848768468 0.0012921926638010295 0.0 0.0
0.0 0.0003862143494349646 -0.00019759671294428978 0.00015598726904012087 4.16094439041686e-05 0.0003843925394768628 0.0 0.0
0.0 1.7431355333066075e-05 -3.69495804700406e-06 2.791738354535333e-06 9.032196924686679e-07 3.8098806749911064e-05 0.0 0.0
0.0 5.167048818636027e-06 7.189374008773734e-06 -5.719900903314522e-06 -1.4694731054593098e-06 -2.5021051470311062e-05 0.0 0.0
0.0 2.610299683108461e-06 1.8510241536743149e-06 -1.5402275947057606e-06 -3.1079655896855e-07 -9.527142198639976e-06 0.0 0.0
0.0 2.539315166827844e-07 -4.607311646458568e-07 3.746528492183685e-07 8.60783154274983e-08 2.9419299903379626e-06 0.0 0.0
0.0 3.7371736412330704e-07 9.64990313107065e-08 -7.574413384916893e-08 -2.0754897461533532e-08 -7.283873939284438e-07 0.0 0.0
0.0 6.899941941823234e-07 2.335641495706193e-09 8.4179050892975e-09 -1.0753546585004145e-08 -1.3732579944140828e-07 0.0 0.0
0.0 0.0 0.0 0.0 0.0 0.0 0.0 0.0
0.0 0.0 0.0 0.0 0.0 0.0 0.0 0.0
0.0 -2.601208151042033e-07 -4.54463681070783e-09 2.796718489368658e-09 1.747918321339569e-09 -5.343306389855201e-08 0.0 0.0
0.0 8.768806017353131e-07 1.2448174449155846e-08 -4.41157639447504e-09 -8.036598054674761e-09 1.786962950399552e-07 0.0 0.0
0.0 1.6029783415051826e-06 7.214018582762308e-07 -5.948201413116295e-07 -1.2658171696460312e-07 2.7273798977722782e-06 0.0 0.0
0.0 2.1910427270502828e-07 2.182182380066006e-06 -1.7409161034365934e-06 -4.4126627662944927e-07 5.83767948649815e-06 0.0 0.0
0.0 -1.283518333542418e-05 7.522484413882478e-07 -6.89085773917317e-07 -6.316266747087671e-08 -6.451071402030436e-06 0.0 0.0
0.0 0.00019014662570224537 -9.93444572936631e-05 7.505855961471371e-05 2.4285897678949192e-05 -0.0001279854629472465 0.0 0.0
0.0 0.0009407239966320489 -0.0007529786895445872 0.0005927842449472529 0.00016019444459733392 -0.0008117442904901639 0.0 0.0
0.0 0.002727675384499229 -0.0021802999053536195 0.0018176535917440837 0.0003626463136095339 -0.002006646296717964 0.0 0.0
0.0 0.005663824564348307 -0.004364920011083243 0.003835319351957253 0.0005296006591259904 -0.003707487792932549 0.0 0.0
0.0 0.008802584837123218 -0.0071343946900797265 0.00649252470799 0.0006418699820897263 -0.005684431962263951 0.0 0.0
0.0 0.012589722073337813 -0.010310263802204584 0.009587164494761668 0.0007230993074429074 -0.007638162993739284 0.0 0.0
0.0 0.016897003877639278 -0.013868903370763332 0.01307550732436702 0.0007933960463963143 -0.009509928391609059 0.0 0.0
0.0 0.021679885597016457 -0.017884717066830855 0.017028872490384678 0.0008558445764461591 -0.011343083491167964 0.0 0.0
0.0 0.027148407445986206 -0.022411482115641895 0.021505401779006755 0.0009060803366351684 -0.01328418503609812 0.0 0.0
0.0 0.03301924592849553 -0.027357273336613735 0.026422767865574785 0.0009345054710389227 -0.015613775168714487 0.0 0.0
0.0 0.03926843903194603 -0.03234255412839619 0.031406983781927515 0.0009355703464686757 -0.018747746814533093 0.0 0.0
0.0 0.04457466806459715 -0.036560798458698716 0.03566731502598471 0.0008934834327139652 -0.022774838450316404 0.0 0.0
0.0 0.0474111267603965 -0.03849316402115209 0.037690332856222065 0.000802831164930028 -0.026590887066915574 0.0 0.0
0.0 0.04444547676707243 -0.03543046033203993 0.034827802597538496 0.000602657734501418 -0.027787993897446593 0.0 0.0
0.0 0.041688151802763314 -0.029373887240180467 0.025911966073320625 0.0034619211668598464 1.4768568312728547e-14 0.0 0.0
0.0 0.044445476767075186 -0.03543046033203597 0.03482780259753458 0.000602657734501414 0.027787993897479924 0.0 0.0
0.0 0.04741112676039167 -0.038493164021142494 0.03769033285621312 0.0008028311649293304 0.026590887066948867 0.0 0.0
0.0 0.044574668064575856 -0.03656079845867864 0.03566731502596525 0.000893483432713386 0.022774838450330494 0.0 0.0
0.0 0.03926843903191605 -0.03234255412837083 0.03140698378190237 0.000935570346468488 0.018747746814529714 0.0 0.0
0.0 0.03301924592846257 -0.02735727333658637 0.026422767865547377 0.0009345054710389858 0.01561377516870116 0.0 0.0
0.0 0.027148407445960115 -0.022411482115619802 0.021505401778985744 0.0009060803366340679 0.013284185036087859 0.0 0.0
0.0 0.02167988559699 -0.017884717066808293 0.01702887249036241 0.0008558445764458728 0.011343083491158092 0.0 0.0
0.0 0.01689700387760646 -0.013868903370736402 0.013075507324340095 0.000793396046396295 0.009509928391594528 0.0 0.0
0.0 0.012589722073307583 -0.010310263802180235 0.009587164494737895 0.000723099307442338 0.00763816299372238 0.0 0.0
0.0 0.008802584837095676 -0.007134394690057917 0.0064925247079685505 0.0006418699820893659 0.00568443196224554 0.0 0.0
0.0 0.005663824564327478 -0.004364920011066762 0.0038353193519415803 0.0005296006591251803 0.0037074877929188363 0.0 0.0
0.0 0.0027276753844861015 -0.0021802999053435047 0.0018176535917352324 0.00036264631360826826 0.0020066462967100315 0.0 0.0
0.0 0.0009407239966262951 -0.0007529786895402665 0.0005927842449438269 0.0001601944445964402 0.0008117442904863033 0.0 0.0
0.0 0.0001901466256990788 -9.934445729211897e-05 7.505855961350629e-05 2.4285897678612808e-05 0.00012798546294500864 0.0 0.0
0.0 -1.2835183335527644e-05 7.522484406925902e-07 -6.890857733749411e-07 -6.3162667317626e-08 6.451071403570264e-06 0.0 0.0
0.0 2.191042724483125e-07 2.1821823798120634e-06 -1.7409161032274012e-06 -4.412662765846624e-07 -5.837679485544817e-06 0.0 0.0
0.0 1.602978340152515e-06 7.21401858277181e-07 -5.948201413139303e-07 -1.2658171696324893e-07 -2.7273798977685996e-06 0.0 0.0
0.0 8.768806017548074e-07 1.2448174450744215e-08 -4.411576396546859e-09 -8.036598054201751e-09 -1.7869629504425285e-07 0.0 0.0
0.0 -2.601208150903466e-07 -4.544636810377973e-09 2.7967184891725414e-09 1.7479183212069819e-09 5.3433063895465725e-08 0.0 0.0
0.0 0.0 0.0 0.0 0.0 0.0 0.0 0.0
0.0 0.0 0.0 0.0 0.0 0.0 0.0 0.0
0.0 0.0 0.0 0.0 0.0 0.0 0.0 0.0
0.0 -2.95889627028445e-07 -1.3592507698731995e-08 1.083743040721265e-08 2.7550772915178707e-09 -5.501979115714737e-08 0.0 0.0
0.0 -1.4028091297923484e-06 -1.7381072528524044e-07 1.4555405316220981e-07 2.8256672123040907e-08 -5.360983163028433e-07 0.0 0.0
0.0 -4.994346908164633e-07 6.195831261707152e-06 -5.00211345016879e-06 -1.1937178115383579e-06 1.392904019637921e-05 0.0 0.0
0.0 4.2610074175416935e-05 -3.97251167407256e-06 1.8524085486903737e-06 2.1201031253821114e-06 7.066470415501493e-06 0.0 0.0
0.0 0.0004746171100022086 -0.000381973236376206 0.0002915514106053865 9.042182577081952e-05 -0.00033107425056748565 0.0 0.0
0.0 0.0018401883186359349 -0.0015523977184756458 0.0012507899073007241 0.0003016078111749216 -0.0011456703626321675 0.0 0.0
0.0 0.004704395283592275 -0.0036921241265812864 0.0031744811138908853 0.0005176430126904012 -0.0025708833229940104 0.0 0.0
0.0 0.007899918306556526 -0.006739775401869825 0.0060741964970281405 0.0006655789048416862 -0.004518282609522648 0.0 0.0
0.0 0.01242122038967142 -0.010425128514433508 0.009666565692692775 0.0007585628217407273 -0.006576994346940463 0.0 0.0
0.0 0.017453247480244873 -0.014654439344492608 0.013820706058504214 0.0008337332859883941 -0.00860463223902313 0.0 0.0
0.0 0.02308195955466082 -0.019420138808171644 0.01851353661580924 0.0009066021923624036 -0.010552398808314857 0.0 0.0
0.0 0.029433762187485037 -0.024807625793014338 0.02383050533393708 0.0009771204590772388 -0.01248225227721229 0.0 0.0
0.0 0.036556591276089775 -0.030906576322207897 0.029868612668048106 0.0010379636541597668 -0.014532880514164908 0.0 0.0
0.0 0.044746113160716805 -0.03765221107381936 0.03657733590514349 0.001074875168675908 -0.017056986525533595 0.0 0.0
0.0 0.05267062295452389 -0.04459146300607829 0.04352069732321795 0.0010707656828602523 -0.020562561667634562 0.0 0.0
0.0 0.0602186517564639 -0.05056478632637161 0.04955926606791305 0.0010055202584586076 -0.02515458986258595 0.0 0.0
0.0 0.06434466543982009 -0.05344958085891929 0.05258516200603131 0.0008644188528879671 -0.029780371606865724 0.0 0.0
0.0 0.06059927108297149 -0.049722195611893484 0.04912115307275828 0.0006010425391351857 -0.031793044933021535 0.0 0.0
0.0 0.0547572103480334 -0.04208436458892906 0.03799865843535527 0.004085706153573741 1.5846698953048133e-14 0.0 0.0
0.0 0.060599271082969086 -0.04972219561188562 0.04912115307275026 0.0006010425391353652 0.03179304493305703 0.0 0.0
0.0 0.0643446654398083 -0.05344958085890429 0.05258516200601687 0.0008644188528874304 0.0297803716069018 0.0 0.0
0.0 0.06021865175643726 -0.050564786326346804 0.049559266067888456 0.0010055202584582713 0.025154589862604604 0.0 0.0
0.0 0.05267062295448858 -0.0445914630060478 0.04352069732318723 0.0010707656828605984 0.020562561667633747 0.0 0.0
0.0 0.044746113160678884 -0.037652211073786884 0.03657733590511153 0.0010748751686753147 0.01705698652552356 0.0 0.0
0.0 0.036556591276053166 -0.030906576322176558 0.029868612668017276 0.0010379636541592925 0.01453288051415327 0.0 0.0
0.0 0.029433762187448396 -0.02480762579298274 0.023830505333906044 0.000977120459076682 0.012482252277200923 0.0 0.0
0.0 0.02308195955462135 -0.019420138808138306 0.01851353661577623 0.0009066021923620884 0.010552398808300887 0.0 0.0
0.0 0.017453247480207292 -0.014654439344461182 0.013820706058473117 0.0008337332859880656 0.008604632239005249 0.0 0.0
0.0 0.012421220389637486 -0.01042512851440524 0.00966656569266486 0.0007585628217403864 0.006576994346920846 0.0 0.0
0.0 0.00789991830653019 -0.006739775401847518 0.006074196497006718 0.0006655789048408008 0.004518282609507146 0.0 0.0
0.0 0.0047043952835729595 -0.003692124126566221 0.0031744811138769364 0.0005176430126892874 0.002570883322984093 0.0 0.0
0.0 0.0018401883186246713 -0.0015523977184669065 0.0012507899072932462 0.0003016078111736601 0.001145670362625713 0.0 0.0
0.0 0.00047461710999621834 -0.0003819732363721714 0.0002915514106022372 9.042182576993409e-05 0.0003310742505640304 0.0 0.0
0.0 4.261007417427001e-05 -3.972511673989872e-06 1.8524085486515038e-06 2.1201031253383258e-06 -7.0664704153527765e-06 0.0 0.0
0.0 -4.994346918913493e-07 6.19583126160158e-06 -5.002113450084015e-06 -1.1937178115175458e-06 -1.3929040196055208e-05 0.0 0.0
0.0 -1.4028091304882448e-06 -1.7381072530903717e-07 1.4555405318064083e-07 2.8256672128413173e-08 5.360983163818343e-07 0.0 0.0
0.0 -2.9588962689353585e-07 -1.3592507692400482e-08 1.0837430402124616e-08 2.755077290274585e-09 5.50197911312241e-08 0.0 0.0
0.0 0.0 0.0 0.0 0.0 0.0 0.0 0.0
0.0 0.0 0.0 0.0 0.0 0.0 0.0 0.0
0.0 0.0 0.0 0.0 0.0 0.0 0.0 0.0
0.0 0.0 0.0 0.0 0.0 0.0 0.0 0.0
0.0 -3.008317283811859e-07 -1.6894082401111415e-08 1.3667650964936457e-08 3.226431436173586e-09 -5.3084951058647605e-08 0.0 0.0
0.0 7.488812227702215e-07 1.0909154731297094e-07 -8.561512981630826e-08 -2.3476417496637677e-08 2.6606820223197e-07 0.0 0.0
0.0 -1.4794508608973528e-05 3.408090357121685e-06 -2.9462515496849883e-06 -4.6183880743670374e-07 6.94921608502399e-06 0.0 0.0
0.0 0.00015568097233182636 -8.305138364558332e-05 6.03806169909897e-05 2.267076665459373e-05 -3.7617447276059305e-05 0.0 0.0
0.0 0.000947305782544444 -0.0008125383356520392 0.0006292778088711577 0.000183260526780881 -0.000459781264465367 0.0 0.0
0.0 0.0031849081357542683 -0.0025328076081527285 0.002099372275289256 0.0004334353328634725 -0.001367636716612585 0.0 0.0
0.0 0.006126784556440378 -0.005408203620102694 0.004770276064689844 0.0006379275554128484 -0.002943898615754419 0.0 0.0
0.0 0.010724269333626617 -0.009205492652267572 0.008445545981640032 0.0007599466706275485 -0.004841776241431193 0.0 0.0
0.0 0.016123495905738878 -0.013794494032427348 0.012948926312071701 0.0008455677203556509 -0.006841228081656577 0.0 0.0
0.0 0.022339033309304795 -0.019080899634203993 0.018157984599802023 0.0009229150344019709 -0.008817015646221133 0.0 0.0
0.0 0.029363024363141473 -0.025062445650832335 0.02406063551104947 0.001001810139782837 -0.010734423087613978 0.0 0.0
0.0 0.03736829664455156 -0.03182809327639412 0.030747961743399405 0.0010801315329947356 -0.012658650560505622 0.0 0.0
0.0 0.046263228259510764 -0.03949583319782357 0.0383433201243856 0.0011525130734379352 -0.014709389475507088 0.0 0.0
0.0 0.05607929657107324 -0.04802579903431433 0.046826431435442156 0.0011993675988721964 -0.017154505231755927 0.0 0.0
0.0 0.06676268991484474 -0.05686780921582666 0.05567928498385561 0.0011885242319710676 -0.02052778458017485 0.0 0.0
0.0 0.07589931944821572 -0.06454355952032453 0.06345054123954744 0.0010930182807770122 -0.025214351667828185 0.0 0.0
0.0 0.0805891858521461 -0.06827486870784764 0.06737504248336605 0.0008998262244815341 -0.03049878886707234 0.0 0.0
0.0 0.07639352636309828 -0.06385971123909326 0.06326747669970585 0.0005922345393873843 -0.03434123682172092 0.0 0.0
0.0 0.06886184935417028 -0.054816688736441604 0.050172481686721074 0.004644207049720546 1.560383766641138e-14 0.0 0.0
0.0 0.07639352636309554 -0.06385971123908539 0.06326747669969818 0.0005922345393872051 0.0343412368217587 0.0 0.0
0.0 0.08058918585212423 -0.06827486870782501 0.06737504248334318 0.0008998262244818369 0.030498788867107766 0.0 0.0
0.0 0.07589931944818044 -0.06454355952029252 0.0634505412395155 0.0010930182807769796 0.025214351667847926 0.0 0.0
0.0 0.06676268991480157 -0.05686780921578938 0.05567928498381795 0.0011885242319713061 0.020527784580175304 0.0 0.0
0.0 0.056079296571028205 -0.048025799034275264 0.04682643143540396 0.0011993675988713948 0.017154505231748447 0.0 0.0
0.0 0.04626322825946223 -0.03949583319778194 0.038343320124344146 0.0011525130734378343 0.01470938947549608 0.0 0.0
0.0 0.03736829664450269 -0.031828093276351735 0.03074796174335745 0.0010801315329942757 0.01265865056049311 0.0 0.0
0.0 0.029363024363095444 -0.025062445650792825 0.024060635511010106 0.0010018101397826823 0.010734423087601044 0.0 0.0
0.0 0.02233903330925883 -0.01908089963416504 0.01815798459976344 0.0009229150344015804 0.008817015646203607 0.0 0.0
0.0 0.01612349590570014 -0.013794494032394673 0.012948926312039314 0.0008455677203553515 0.006841228081638644 0.0 0.0
0.0 0.010724269333595757 -0.009205492652241505 0.008445545981614575 0.0007599466706269332 0.004841776241415935 0.0 0.0
0.0 0.006126784556418608 -0.0054082036200829966 0.004770276064671156 0.00063792755541184 0.0029438986157437137 0.0 0.0
0.0 0.0031849081357378825 -0.0025328076081396053 0.0020993722752776557 0.0004334353328619476 0.0013676367166054195 0.0 0.0
0.0 0.0009473057825365955 -0.0008125383356458175 0.00062927780886624 0.00018326052677957843 0.0004597812644616869 0.0 0.0
0.0 0.00015568097232928607 -8.305138364449104e-05 6.038061699018101e-05 2.2670766654309943e-05 3.761744727552923e-05 0.0 0.0
0.0 -1.4794508608787244e-05 3.4080903562903737e-06 -2.9462515490262393e-06 -4.6183880726416355e-07 -6.9492160836563534e-06 0.0 0.0
0.0 7.488812219463179e-07 1.0909154735833004e-07 -8.561512985399603e-08 -2.347641750432937e-08 -2.660682022972541e-07 0.0 0.0
0.0 -3.0083172820327663e-07 -1.6894082390560128e-08 1.3667650956397697e-08 3.226431434162971e-09 5.3084951026648725e-08 0.0 0.0
0.0 0.0 0.0 0.0 0.0 0.0 0.0 0.0
0.0 0.0 0.0 0.0 0.0 0.0 0.0 0.0
0.0 0.0 0.0 0.0 0.0 0.0 0.0 0.0
0.0 0.0 0.0 0.0 0.0 0.0 0.0 0.0
0.0 -1.680433764396781e-07 -1.0793184899027673e-08 8.54508648894806e-09 2.2480984100807976e-09 -2.827633481288059e-08 0.0 0.0
0.0 -1.2233502684760524e-06 1.942677879091136e-08 -1.5236881750094756e-08 -4.189897040845546e-09 1.6020953450542655e-07 0.0 0.0
0.0 2.9910579133755136e-06 1.1547618255497756e-05 -9.918099249579523e-06 -1.6295190059181738e-06 1.7958437166792868e-05 0.0 0.0
0.0 0.00028682725503337384 -0.00028094222760890433 0.0002096076494896897 7.133457811921456e-05 -0.0001221820252038111 0.0 0.0
0.0 0.0017484400955371576 -0.0013728540984601894 0.0010868243713843151 0.00028602972707587404 -0.0005150927073373057 0.0 0.0
0.0 0.004149384960661084 -0.00370215233710698 0.0031525476991808884 0.0005496046379260918 -0.00150039258025231 0.0 0.0
0.0 0.008181182632111983 -0.007188221609841648 0.006463868913940336 0.0007243526959013142 -0.0029601348483702205 0.0 0.0
0.0 0.01347364959778807 -0.011728716810107875 0.01089520317828661 0.0008335136318212696 -0.004674904099560447 0.0 0.0
0.0 0.019893907129920875 -0.01721051750399337 0.01629196315562023 0.0009185543483731205 -0.006505134974137522 0.0 0.0
0.0 0.027333401765237568 -0.023554747579716342 0.02255349763406485 0.001001249945651468 -0.008312994234763905 0.0 0.0
0.0 0.03584115443079639 -0.030763391982734613 0.02967659309486059 0.001086798887874023 -0.010084318494508266 0.0 0.0
0.0 0.04512080937252816 -0.038924716319547296 0.03775184068755466 0.0011728756319926365 -0.01189945526898678 0.0 0.0
0.0 0.05591855641975935 -0.04813362391923231 0.046880579221134124 0.0012530446980981937 -0.013832210925660447 0.0 0.0
0.0 0.0678721816423214 -0.05835992655333558 0.05704991883506883 0.0013100077182666699 -0.015976104656844375 0.0 0.0
0.0 0.08012974630559938 -0.069023475184321 0.06772266254206932 0.001300812642251688 -0.01873810397779291 0.0 0.0
0.0 0.09113531335789113 -0.0783525817230387 0.07717642724856409 0.0011761544744746484 -0.022931550808506094 0.0 0.0
0.0 0.09701127096831885 -0.08299397538640602 0.08206458990206296 0.0009293854843429219 -0.028858453488675405 0.0 0.0
0.0 0.09226265493205472 -0.07812262105318896 0.07755002258588381 0.0005725984673051314 -0.03575090262972225 0.0 0.0
0.0 0.08324138869042697 -0.06788966848604248 0.06274433672927751 0.0051453317567650226 1.6916155975987834e-14 0.0 0.0
0.0 0.09226265493204779 -0.07812262105317816 0.07755002258587364 0.0005725984673044908 0.0357509026297589 0.0 0.0
0.0 0.09701127096829491 -0.0829939753863821 0.08206458990203919 0.0009293854843428403 0.02885845348871082 0.0 0.0
0.0 0.09113531335785134 -0.07835258172300329 0.07717642724852884 0.001176154474474457 0.022931550808525287 0.0 0.0
0.0 0.08012974630554914 -0.06902347518427727 0.06772266254202564 0.0013008126422516956 0.018738103977795108 0.0 0.0
0.0 0.06787218164226826 -0.05835992655328933 0.057049918835023194 0.0013100077182660594 0.01597610465683944 0.0 0.0
0.0 0.05591855641970392 -0.0481336239191844 0.04688057922108665 0.0012530446980977626 0.013832210925651667 0.0 0.0
0.0 0.04512080937247067 -0.03892471631949754 0.03775184068750573 0.0011728756319918166 0.011899455268975151 0.0 0.0
0.0 0.035841154430740006 -0.03076339198268563 0.029676593094811785 0.0010867988878738852 0.010084318494495849 0.0 0.0
0.0 0.02733340176518547 -0.02355474757967147 0.022553497634020564 0.001001249945650897 0.008312994234748418 0.0 0.0
0.0 0.01989390712987612 -0.0172105175039549 0.016291963155582102 0.0009185543483728003 0.006505134974121182 0.0 0.0
0.0 0.013473649597752442 -0.0117287168100769 0.010895203178256376 0.0008335136318205161 0.004674904099546438 0.0 0.0
0.0 0.008181182632084913 -0.007188221609817724 0.006463868913917239 0.0007243526959004843 0.0029601348483602177 0.0 0.0
0.0 0.004149384960642808 -0.0037021523370909452 0.0031525476991661437 0.0005496046379248023 0.0015003925802453048 0.0 0.0
0.0 0.0017484400955263318 -0.00137285409845173 0.0010868243713772993 0.00028602972707442853 0.0005150927073336454 0.0 0.0
0.0 0.00028682725502982123 -0.0002809422276065793 0.00020960764948794127 7.133457811863768e-05 0.00012218202520304874 0.0 0.0
0.0 2.991057912678442e-06 1.1547618255135806e-05 -9.918099249291893e-06 -1.6295190058437874e-06 -1.795843716627268e-05 0.0 0.0
0.0 -1.2233502686996516e-06 1.942677880825519e-08 -1.523688176463317e-08 -4.189897043620579e-09 -1.6020953455011392e-07 0.0 0.0
0.0 -1.6804337643450485e-07 -1.0793184898566844e-08 8.545086488621468e-09 2.248098409945835e-09 2.8276334812116163e-08 0.0 0.0
0.0 0.0 0.0 0.0 0.0 0.0 0.0 0.0
0.0 0.0 0.0 0.0 0.0 0.0 0.0 0.0
0.0 0.0 0.0 0.0 0.0 0.0 0.0 0.0
0.0 0.0 0.0 0.0 0.0 0.0 0.0 0.0
0.0 0.0 0.0 0.0 0.0 0.0 0.0 0.0
0.0 -1.5250193329866507e-06 5.345630175315964e-07 -4.2580182808798277e-07 -1.0876118944360507e-07 7.973864820698288e-07 0.0 0.0
0.0 3.650907642647794e-05 -1.0297990546680012e-05 5.537772533604702e-06 4.760218013075592e-06 7.922181348444018e-06 0.0 0.0
0.0 0.0006398129533865169 -0.0005235926031277977 0.0003939012137604767 0.0001296913893673212 -0.00010831292409721809 0.0 0.0
0.0 0.0024115557528371937 -0.0021002800691191964 0.0017050034364457299 0.00039527663267346447 -0.0005215086091085619 0.0 0.0
0.0 0.005483717466336862 -0.004941130131891289 0.004303849729387704 0.0006372804025035878 -0.0014129786228822883 0.0 0.0
0.0 0.010166515396659692 -0.009012822784415581 0.008220358411893584 0.0007924643725219837 -0.00261152151837826 0.0 0.0
0.0 0.016303055476317104 -0.014277978605278338 0.013383097396223596 0.0008948812090547444 -0.004048824889404146 0.0 0.0
0.0 0.023678741355570698 -0.02064697037090443 0.019663869628878346 0.0009831007420260695 -0.005587975754480635 0.0 0.0
0.0 0.03234482045947118 -0.02805256985077493 0.02697989681172882 0.0010726730390461015 -0.007112012673945083 0.0 0.0
0.0 0.04200278667209083 -0.03650490108385206 0.03533898705121365 0.0011659140326384229 -0.008616991864863878 0.0 0.0
0.0 0.05330495686979845 -0.046062977465488056 0.04480643107365357 0.0012565463918344213 -0.010196565691454799 0.0 0.0
0.0 0.0656152000036187 -0.05678918118546779 0.05544898601804312 0.0013401951674246685 -0.011906163465255108 0.0 0.0
0.0 0.0790797556185816 -0.06859142908323033 0.06718561048323105 0.0014058185999993819 -0.013649613401867289 0.0 0.0
0.0 0.09337620949417956 -0.08088292896056429 0.07947146773329447 0.0014114612272697925 -0.0154472033151661 0.0 0.0
0.0 0.10615533956392924 -0.0918349504913169 0.09056047168993712 0.0012744788013797465 -0.01837717990675755 0.0 0.0
0.0 0.11329410164166011 -0.09766720880777004 0.09669864069535124 0.0009685681124188388 -0.02476548872826661 0.0 0.0
0.0 0.10869317673864852 -0.09279058504771329 0.09225638946065703 0.000534195587056453 -0.03579923972231644 0.0 0.0
0.0 0.09892421354636437 -0.08163421387822423 0.07605260516468032 0.005581608713543867 1.4576014006895122e-14 0.0 0.0
0.0 0.10869317673863613 -0.09279058504769873 0.09225638946064328 0.0005341955870554666 0.0357992397223482 0.0 0.0
0.0 0.11329410164162791 -0.09766720880774041 0.0966986406953213 0.000968568112419121 0.024765488728297796 0.0 0.0
0.0 0.10615533956388536 -0.0918349504912781 0.09056047168989925 0.0012744788013787172 0.01837717990677467 0.0 0.0
0.0 0.09337620949412095 -0.08088292896051372 0.07947146773324355 0.0014114612272701586 0.015447203315168254 0.0 0.0
0.0 0.07907975561851995 -0.06859142908317671 0.0671856104831779 0.0014058185999988012 0.013649613401864866 0.0 0.0
0.0 0.06561520000355811 -0.05678918118541497 0.055448986017991427 0.00134019516742358 0.011906163465249529 0.0 0.0
0.0 0.053304956869735895 -0.046062977465433454 0.0448064310736003 0.001256546391833096 0.010196565691445836 0.0 0.0
0.0 0.042002786672026296 -0.03650490108379645 0.03533898705115809 0.0011659140326383778 0.008616991864854193 0.0 0.0
0.0 0.032344820459413524 -0.02805256985072445 0.02697989681167908 0.0010726730390453847 0.007112012673933215 0.0 0.0
0.0 0.02367874135551955 -0.02064697037086009 0.01966386962883431 0.0009831007420257841 0.005587975754466258 0.0 0.0
0.0 0.01630305547627567 -0.01427797860524237 0.013383097396188166 0.0008948812090541908 0.004048824889391797 0.0 0.0
0.0 0.010166515396628542 -0.00901282278438796 0.008220358411866741 0.0007924643725212189 0.0026115215183699064 0.0 0.0
0.0 0.005483717466317014 -0.004941130131873066 0.004303849729370688 0.000637280402502381 0.0014129786228762784 0.0 0.0
0.0 0.002411555752824253 -0.002100280069108149 0.0017050034364362201 0.0003952766326719309 0.0005215086091049957 0.0 0.0
0.0 0.0006398129533818085 -0.0005235926031244616 0.00039390121375795274 0.0001296913893665083 0.00010831292409654172 0.0 0.0
0.0 3.6509076425664624e-05 -1.0297990546710002e-05 5.537772533666089e-06 4.760218013043836e-06 -7.922181348030085e-06 0.0 0.0
0.0 -1.5250193335455527e-06 5.345630175763182e-07 -4.25801828126421e-07 -1.0876118944989197e-07 -7.973864821452965e-07 0.0 0.0
0.0 0.0 0.0 0.0 0.0 0.0 0.0 0.0
0.0 0.0 0.0 0.0 0.0 0.0 0.0 0.0
0.0 0.0 0.0 0.0 0.0 0.0 0.0 0.0
0.0 0.0 0.0 0.0 0.0 0.0 0.0 0.0
0.0 0.0 0.0 0.0 0.0 0.0 0.0 0.0
0.0 0.0 0.0 0.0 0.0 0.0 0.0 0.0
0.0 -1.206292069540224e-06 1.7254833364218063e-06 -1.3730818257023166e-06 -3.5240151071950465e-07 1.4215436051476878e-06 0.0 0.0
0.0 8.714037039986027e-05 -8.677383485593512e-05 6.056968792642555e-05 2.6204146929509563e-05 3.857146543398811e-06 0.0 0.0
0.0 0.001109539794866283 -0.0008847146682379172 0.0006778531363851529 0.00020686153185276308 -5.455222684917901e-05 0.0 0.0
0.0 0.003112166237093008 -0.0029303269391902833 0.0024389019621313753 0.0004914249770589095 -0.00042654771181511525 0.0 0.0
0.0 0.0068988460128964185 -0.00622071577145883 0.005512217114025957 0.0007084986574328773 -0.0010544475211244227 0.0 0.0
0.0 0.012187974856815949 -0.010856484959227818 0.01000857820123588 0.0008479067579919438 -0.001926382355601401 0.0 0.0
0.0 0.019131175550569878 -0.01683080081090405 0.01588247825021541 0.0009483225606886398 -0.002974837856845525 0.0 0.0
0.0 0.02755625317774585 -0.02408005073374346 0.023038015165336188 0.0010420355684072529 -0.004102437862102346 0.0 0.0
0.0 0.03728696269648318 -0.03255213551770969 0.03141328781473902 0.0011388477029706696 -0.005220800234664949 0.0 0.0
0.0 0.04867840432312672 -0.0422508682602596 0.041012297897727985 0.0012385703625315972 -0.006339522602755188 0.0 0.0
0.0 0.0610870758847292 -0.05322679219932734 0.05189167109064882 0.0013351211086784643 -0.0075633506206495655 0.0 0.0
0.0 0.07521210049449273 -0.06544435605158566 0.0640252680259904 0.001419088025595332 -0.008905577813895496 0.0 0.0
0.0 0.09050955416998883 -0.07868129232788804 0.07720124237658658 0.001480049951301349 -0.010177464254289427 0.0 0.0
0.0 0.10627173745897076 -0.09232223268729817 0.09081892258715686 0.001503310100141417 -0.011077356257852975 0.0 0.0
0.0 0.12065985950953627 -0.10477264874402065 0.1033529506875055 0.0014196980565151342 -0.012222795790110272 0.0 0.0
0.0 0.12955416722090812 -0.1122495261698903 0.1111937966475717 0.0010557295223185554 -0.01753769413040584 0.0 0.0
0.0 0.12590720625591667 -0.10818094736735069 0.10772658152425552 0.0004543658430949505 -0.03354556126220721 0.0 0.0
0.0 0.11600644962209769 -0.09652911765913706 0.09060710378836753 0.005922013870769512 9.730063976753911e-15 0.0 0.0
0.0 0.1259072062558989 -0.1081809473673329 0.1077265815242383 0.00045436584309466253 0.03354556126223254 0.0 0.0
0.0 0.12955416722086963 -0.11224952616985599 0.11119379664753722 0.001055729522318786 0.01753769413043117 0.0 0.0
0.0 0.12065985950948271 -0.10477264874397446 0.1033529506874593 0.001419698056515155 0.012222795790122448 0.0 0.0
0.0 0.10627173745890368 -0.09232223268724021 0.09081892258709874 0.00150331010014151 0.011077356257853768 0.0 0.0
0.0 0.09050955416991785 -0.0786812923278263 0.07720124237652556 0.0014800499513007831 0.010177464254288554 0.0 0.0
0.0 0.07521210049442285 -0.06544435605152531 0.0640252680259304 0.001419088025594853 0.008905577813891778 0.0 0.0
0.0 0.061087075884657865 -0.05322679219926536 0.051891671090587864 0.0013351211086775597 0.007563350620642277 0.0 0.0
0.0 0.04867840432305754 -0.042250868260199574 0.0410122978976681 0.001238570362531455 0.0063395226027487045 0.0 0.0
0.0 0.03728696269641812 -0.032552135517653416 0.03141328781468331 0.0011388477029700438 0.005220800234657189 0.0 0.0
0.0 0.027556253177688336 -0.024080050733692977 0.023038015165286085 0.0010420355684069148 0.004102437862091062 0.0 0.0
0.0 0.019131175550524064 -0.016830800810863415 0.01588247825017555 0.0009483225606878743 0.0029748378568364253 0.0 0.0
0.0 0.012187974856781305 -0.010856484959196855 0.010008578201205638 0.0008479067579912227 0.0019263823555950481 0.0 0.0
0.0 0.006898846012872222 -0.006220715771436844 0.005512217114005052 0.00070849865743179 0.0010544475211195293 0.0 0.0
0.0 0.0031121662370787416 -0.0029303269391769914 0.002438901962119482 0.0004914249770575111 0.0004265477118122837 0.0 0.0
0.0 0.0011095397948597246 -0.0008847146682325252 0.0006778531363808556 0.00020686153185166863 5.45522268484386e-05 0.0 0.0
0.0 8.714037039868653e-05 -8.677383485576317e-05 6.0569687926361176e-05 2.6204146929401888e-05 -3.8571465428791875e-06 0.0 0.0
0.0 -1.2062920699718637e-06 1.725483336482716e-06 -1.373081825752428e-06 -3.5240151073030824e-07 -1.4215436052163523e-06 0.0 0.0
0.0 0.0 0.0 0.0 0.0 0.0 0.0 0.0
0.0 0.0 0.0 0.0 0.0 0.0 0.0 0.0
0.0 0.0 0.0 0.0 0.0 0.0 0.0 0.0
0.0 0.0 0.0 0.0 0.0 0.0 0.0 0.0
0.0 0.0 0.0 0.0 0.0 0.0 0.0 0.0
0.0 0.0 0.0 0.0 0.0 0.0 0.0 0.0
0.0 -3.844749443829631e-06 2.815781185866337e-06 -2.366613260393786e-06 -4.49167925472546e-07 1.9159828128377324e-06 0.0 0.0
0.0 0.00026817342283413155 -0.00019333340862506858 0.00013722255810466252 5.611085052040614e-05 4.11044537993365e-05 0.0 0.0
0.0 0.0015577708679086213 -0.0013636538003756538 0.001068815877048023 0.00029483792332763055 5.199782653902286e-05 0.0 0.0
0.0 0.004107832287307137 -0.0037925666106700096 0.0032257901094132134 0.0005667765012567964 -0.00014201776292347999 0.0 0.0
0.0 0.008328216635294343 -0.0075200582687617624 0.006754284723394193 0.0007657735453675658 -0.00046347212245149186 0.0 0.0
0.0 0.014288604520877931 -0.012695478675155799 0.011801261314939224 0.0008942173602165683 -0.0009111917465165426 0.0 0.0
0.0 0.02196083792198631 -0.019364470727848374 0.018367762952730536 0.000996707775117835 -0.001460542765606154 0.0 0.0
0.0 0.03135618928880707 -0.027489368549156467 0.026392832727400103 0.0010965358217563785 -0.002049557999381823 0.0 0.0
0.0 0.042522465760000315 -0.03702971052559535 0.03582969257271061 0.0012000179528847206 -0.0026402391195470627 0.0 0.0
0.0 0.05487853747359012 -0.04799269317303954 0.04668598025688369 0.001306712916155833 -0.003276233097161527 0.0 0.0
0.0 0.06916024715324923 -0.060370971304107866 0.05896250862136235 0.0014084626827454998 -0.0039891344186992585 0.0 0.0
0.0 0.08494515907618473 -0.0740555897258971 0.07256413000401635 0.0014914597218808274 -0.004768789573809387 0.0 0.0
0.0 0.10182005425062439 -0.0886619626160117 0.08711904700433651 0.001542915611675173 -0.005500289345469151 0.0 0.0
0.0 0.11886416094134225 -0.10338663177461274 0.10182905007300015 0.001557581701612591 -0.005869596332051599 0.0 0.0
0.0 0.1344570056958679 -0.11686210547162196 0.11531959679309925 0.0015425086785227624 -0.005785964907862211 0.0 0.0
0.0 0.1453440516753275 -0.12626686043264995 0.12490946130669539 0.0013573991259544422 -0.007947515953060737 0.0 0.0
0.0 0.1442440504918903 -0.12465105860314335 0.12425420972217904 0.0003968488809643967 -0.02418813118948074 0.0 0.0
0.0 0.1356363260740524 -0.11362338546290388 0.1077483577050853 0.0058750277578185585 4.867634073590921e-15 0.0 0.0
0.0 0.14424405049186778 -0.12465105860312271 0.12425420972215838 0.0003968488809642814 0.024188131189495497 0.0 0.0
0.0 0.14534405167528489 -0.12626686043261268 0.12490946130665821 0.0013573991259543056 0.007947515953075218 0.0 0.0
0.0 0.13445700569580704 -0.1168621054715694 0.1153195967930468 0.0015425086785225463 0.005785964907868646 0.0 0.0
0.0 0.11886416094126544 -0.10338663177454664 0.10182905007293361 0.001557581701613076 0.00586959633205213 0.0 0.0
0.0 0.1018200542505477 -0.08866196261594492 0.0871190470042705 0.0015429156116743004 0.005500289345468432 0.0 0.0
0.0 0.0849451590761024 -0.074055589725826 0.07256413000394528 0.0014914597218807755 0.004768789573806243 0.0 0.0
0.0 0.06916024715316801 -0.06037097130403766 0.05896250862129225 0.00140846268274532 0.0039891344186966686 0.0 0.0
0.0 0.05487853747351337 -0.047992693172972854 0.04668598025681766 0.0013067129161551704 0.003276233097158808 0.0 0.0
0.0 0.04252246575992732 -0.037029710525531855 0.03582969257264758 0.0012000179528842748 0.002640239119541832 0.0 0.0
0.0 0.031356189288742876 -0.027489368549100807 0.02639283272734492 0.0010965358217558774 0.0020495579993756426 0.0 0.0
0.0 0.021960837921935566 -0.01936447072780348 0.01836776295268654 0.000996707775116936 0.0014605427656014481 0.0 0.0
0.0 0.01428860452083837 -0.012695478675120445 0.011801261314904535 0.0008942173602159003 0.0009111917465128526 0.0 0.0
0.0 0.008328216635265628 -0.007520058268735744 0.006754284723369065 0.0007657735453666751 0.00046347212244900535 0.0 0.0
0.0 0.0041078322872902025 -0.0037925666106541672 0.0032257901093986486 0.0005667765012555166 0.00014201776292183333 0.0 0.0
0.0 0.0015577708678997631 -0.0013636538003679295 0.0010688158770416267 0.00029483792332630387 -5.199782653929001e-05 0.0 0.0
0.0 0.00026817342283171693 -0.00019333340862373686 0.00013722255810374152 5.611085051999547e-05 -4.110445379885858e-05 0.0 0.0
0.0 -3.844749444025404e-06 2.8157811855674782e-06 -2.36661326016901e-06 -4.4916792539840823e-07 -1.915982812818758e-06 0.0 0.0
0.0 0.0 0.0 0.0 0.0 0.0 0.0 0.0
0.0 0.0 0.0 0.0 0.0 0.0 0.0 0.0
0.0 0.0 0.0 0.0 0.0 0.0 0.0 0.0
0.0 0.0 0.0 0.0 0.0 0.0 0.0 0.0
0.0 0.0 0.0 0.0 0.0 0.0 0.0 0.0
0.0 0.0 0.0 0.0 0.0 0.0 0.0 0.0
0.0 4.24551857383948e-06 -2.8790144446331937e-06 1.458076832403802e-06 1.4209376122295026e-06 3.4000307658753338e-06 0.0 0.0
0.0 0.0005092593988040672 -0.00034848695070531976 0.0002466543758448169 0.0001018325748605028 9.645490123391299e-05 0.0 0.0
0.0 0.002050986224489885 -0.0018016333476329883 0.001398738412434152 0.0004028949351988362 0.00023414817797362574 0.0 0.0
0.0 0.0048904727995261795 -0.004526571726963189 0.003808379461272311 0.0007181922656908814 0.0002977706283968687 0.0 0.0
0.0 0.009466294867238932 -0.008593321475587192 0.007619232879962631 0.000974088595624555 0.00033638824069085545 0.0 0.0
0.0 0.015831003744422874 -0.0142047991253225 0.013019385871086102 0.0011854132542363947 0.00034402388194067863 0.0 0.0
0.0 0.02413956857466403 -0.02144052221203154 0.020038270899088342 0.0014022513129431985 0.00029303250593005646 0.0 0.0
0.0 0.034366315176158034 -0.030293116670803574 0.028641880816311017 0.00165123585449254 0.0002267200814766307 0.0 0.0
0.0 0.046149840520942884 -0.0407385257849002 0.03879968498700271 0.0019388407978974947 0.00014096486045557955 0.0 0.0
0.0 0.0598167729946922 -0.05274787665368636 0.05049171429707702 0.002256162356609271 -2.192983608073542e-05 0.0 0.0
0.0 0.07526287674615673 -0.06628188102307123 0.06369301376574155 0.0025888672573297243 -0.00022748066101873667 0.0 0.0
0.0 0.09230269886606646 -0.08117231369911253 0.07826287258477975 0.0029094411143326202 -0.0005349050533862559 0.0 0.0
0.0 0.11039497058577757 -0.09690441027593999 0.09372506952698613 0.0031793407489538157 -0.0009170393735811293 0.0 0.0
0.0 0.1283396088927884 -0.11245950171210199 0.1091086727180671 0.00335082899403479 -0.0012214103664438692 0.0 0.0
0.0 0.14437481813285136 -0.12632308464130954 0.12294316927611254 0.0033799153651968505 -0.0011820934605658306 0.0 0.0
0.0 0.15617162186669603 -0.13665926373174025 0.13328671331790615 0.0033725504138342136 -0.0018975830603081903 0.0 0.0
0.0 0.158525450852287 -0.1391890653902057 0.1358486007847725 0.0033404646054330618 -0.01750245573662495 0.0 0.0
0.0 0.15429771002146747 -0.1312147424764732 0.12142009618579343 0.00979464629067964 1.3322676295501878e-15 0.0 0.0
0.0 0.15852545085226236 -0.13918906539018358 0.13584860078475136 0.003340464605432133 0.01750245573663045 0.0 0.0
0.0 0.15617162186664474 -0.13665926373169568 0.13328671331786274 0.003372550413832993 0.0018975830603137085 0.0 0.0
0.0 0.14437481813278674 -0.12632308464125208 0.12294316927605858 0.0033799153651936434 0.0011820934605674509 0.0 0.0
0.0 0.1283396088927023 -0.11245950171202743 0.10910867271799252 0.0033508289940346898 0.001221410366443864 0.0 0.0
0.0 0.11039497058569567 -0.09690441027586802 0.09372506952691653 0.0031793407489514435 0.0009170393735816636 0.0 0.0
0.0 0.09230269886597803 -0.08117231369903523 0.07826287258470413 0.0029094411143310386 0.0005349050533827397 0.0 0.0
0.0 0.07526287674606871 -0.06628188102299454 0.06369301376566588 0.002588867257328631 0.0002274806610183793 0.0 0.0
0.0 0.059816772994608525 -0.05274787665361313 0.05049171429700562 0.0022561623566075125 2.1929836080638275e-05 0.0 0.0
0.0 0.04614984052086357 -0.04073852578483089 0.03879968498693505 0.0019388407978958022 -0.00014096486045878532 0.0 0.0
0.0 0.03436631517609034 -0.03029311667074426 0.028641880816252994 0.0016512358544912712 -0.0002267200814786408 0.0 0.0
0.0 0.024139568574608174 -0.021440522211982734 0.02003827089904103 0.0014022513129417114 -0.00029303250593121395 0.0 0.0
0.0 0.01583100374438035 -0.014204799125284905 0.01301938587104966 0.0011854132542352585 -0.00034402388194147964 0.0 0.0
0.0 0.009466294867208206 -0.008593321475559402 0.007619232879935937 0.0009740885956234606 -0.00033638824069060803 0.0 0.0
0.0 0.004890472799507211 -0.0045265717269453755 0.0038083794612560366 0.0007181922656893406 -0.0002977706283966529 0.0 0.0
0.0 0.002050986224480328 -0.0018016333476238067 0.0013987384124265598 0.00040289493519724733 -0.00023414817797285002 0.0 0.0
0.0 0.0005092593988005835 -0.0003484869507028968 0.0002466543758431211 0.00010183257485977629 -9.64549012331943e-05 0.0 0.0
0.0 4.245518573718249e-06 -2.8790144447233367e-06 1.4580768324757728e-06 1.4209376122475431e-06 -3.4000307658431715e-06 0.0 0.0
0.0 0.0 0.0 0.0 0.0 0.0 0.0 0.0
0.0 0.0 0.0 0.0 0.0 0.0 0.0 0.0
0.0 0.0 0.0 0.0 0.0 0.0 0.0 0.0
SCALARS Wm float 4
LOOKUP_TABLE default
11.609489581638986 1.9723018002564623 4.738649693043806 4.898538088338707
5.578350007055906 2.717602817769586 1.2651129023673835 1.5956342869189382
0.6217604486589183 0.5982882352225848 0.000376839894872567 0.023095373541460823
0.49018194303415713 0.47412485871137566 0.00434780231702428 0.011709282005757245
0.9302233249773237 0.7164487171339962 0.07546767162906798 0.13830693621425916
1.9253263858051928 0.9971497018896505 0.3274729464345758 0.6007037374809653
3.8926309458374835 1.3939763408770829 1.0376117981954531 1.4610428067649486
7.050270380996386 1.8667718894027088 2.3555788052138023 2.8279196863798726
11.67649159855883 2.446180796872259 4.489034114202378 4.741276687484196
17.994781951516206 3.1679632555230652 7.608280647731339 7.218538048261808
26.149797738852456 4.068987983486313 11.827626534588257 10.253183220777892
36.13570415979083 5.171165694811176 17.12681375118371 13.837724713795966
48.145258123351155 6.467899342757604 23.71098778342464 17.966370997168905
62.21446456436473 7.952845964979188 31.627674556991863 22.63394404239367
78.22013630175174 9.519334654991058 40.90316818914338 27.797633457617284
95.71423534345779 10.97184605423367 51.4048614386498 33.33752785057433
113.74658959724228 12.063562070896246 62.64306622465281 39.03996130169321
130.94802266533836 12.5923321141684 73.83594321462651 44.519747336543425
145.77124907430198 12.570432889383497 83.89487709730142 49.30593908761712
156.1603502243994 11.933859662152537 91.36379060151906 52.8626999607277
159.60867086756858 10.817501921070708 94.43640125185672 54.354767694641204
156.16035022437444 11.93385966214615 91.363790601506 52.86269996072231
145.7712490742571 12.570432889381003 83.89487709727246 49.305939087603534
130.94802266526494 12.592332114154571 73.83594321458654 44.51974733652379
113.74658959716666 12.06356207089194 62.643066224605235 39.03996130166944
95.71423534339178 10.971846054241391 51.404861438601415 33.33752785054901
78.22013630167667 9.519334654984833 40.90316818909901 27.797633457592838
62.21446456429699 7.952845964982725 31.62767455694661 22.633944042367656
48.1452581232716 6.467899342740749 23.710987783385626 17.96637099714527
36.13570415972647 5.171165694804769 17.126813751148543 13.837724713773175
26.149797738803628 4.0689879834863 11.827626534559485 10.253183220757823
17.994781951476984 3.1679632555204504 7.608280647710535 7.218538048246009
11.676491598528598 2.446180796866423 4.489034114189226 4.7412766874729515
7.0502703809763485 1.8667718893992895 2.355578805205433 2.827919686371626
3.892630945825007 1.393976340874232 1.0376117981910522 1.4610428067597232
1.9253263857988152 0.9971497018872904 0.3274729464332275 0.6007037374782965
0.9302233249751668 0.7164487171331189 0.07546767162858216 0.13830693621346593
0.4901819430336462 0.47412485871082216 0.004347802317027456 0.011709282005796412
0.6217604486579177 0.598288235221777 0.0003768398948336066 0.023095373541306734
5.578350007051047 2.717602817770397 1.265112902364668 1.5956342869159803
11.609489581612664 1.9723018002434103 4.738649693036571 4.898538088332685
13.707219021024788 6.060576146875874 3.6462345952300113 4.000408278918901
2.14403735044772 0.46973968206302946 0.6896175488155769 0.9846801195691135
0.2500307027634993 0.2815869485086697 -0.009166039251546736 -0.022390206493623617
0.3865428140702945 0.3836732520473945 0.00036068297523484457 0.002508879047665075
0.7082495778674436 0.589081435261658 0.03517915019418981 0.08398899241159613
1.5443477359800295 0.8492571756789395 0.24956453225924788 0.4455260280418423
3.196466929146368 1.1324139269931008 0.83274596518433 1.2313070369689367
5.969451990292218 1.469098598015604 2.0097744649955662 2.4905789272810477
10.056407506858822 1.8431878310175076 3.9443964501625897 4.268823225678726
15.591184670289968 2.263244411527289 6.757529219969773 6.570411038792907
22.66888426011963 2.735351471235995 10.552690979897646 9.380841808985991
31.40424243144295 3.276610304613371 15.442385154192147 12.68524697263744
41.68461677025068 3.899970535497816 21.29381707337691 16.49082916137594
53.844902025579344 4.587178025377801 28.460797678464747 20.796926321736798
67.72516407620859 5.292209852959939 36.85134952094448 25.58160470230417
82.99262530667927 5.904825352241615 46.3521280599822 30.73567189445542
98.91269086186432 6.286826589413026 56.598701674831574 36.0271625976197
114.33936272222658 6.337485481384832 66.86477674193631 41.13710049890545
127.72690472825181 6.000255266407822 76.10869447087568 45.617954990968265
137.18028276225422 5.320688484504768 82.98758187137918 48.872012406370246
140.69162018980717 4.572858167830294 85.89387003958183 50.22489198239509
137.18028276224206 5.320688484512774 82.98758187136549 48.872012406363766
127.72690472821861 6.000255266414872 76.10869447084862 45.6179549909551
114.3393627221782 6.3374854813909085 66.86477674189973 41.13710049888759
98.91269086179685 6.286826589408204 56.598701674790114 36.027162597598505
82.99262530661034 5.904825352238063 46.352128059939474 30.735671894432837
67.72516407614471 5.292209852959038 36.851349520903995 25.58160470228167
53.84490202551531 4.587178025377587 28.460797678424445 20.796926321713286
41.68461677018538 3.899970535488121 21.293817073342648 16.4908291613546
31.404242431385992 3.2766103046083477 15.442385154160922 12.685246972616724
22.66888426007504 2.7353514712361893 10.552690979871517 9.380841808967338
15.591184670255041 2.2632444115248376 6.757529219951591 6.570411038778604
10.05640750683334 1.8431878310156782 3.9443964501500655 4.268823225667593
5.969451990275139 1.4690985980130438 2.009774464988395 2.490578927273701
3.1964669291360175 1.1324139269913758 0.8327459651804907 1.2313070369641506
1.544347735975174 0.8492571756776236 0.2495645322577876 0.4455260280397623
0.7082495778658253 0.589081435260827 0.035179150193907285 0.08398899241109112
0.3865428140700147 0.38367325204696257 0.00036068297526234194 0.0025088790477898527
0.2500307027636077 0.2815869485085953 -0.009166039251486513 -0.022390206493500965
2.1440373504415597 0.4697396820622345 0.6896175488130233 0.9846801195663023
13.707219021000112 6.060576146864953 3.646234595222718 4.000408278912435
10.242294987053823 4.777648181965015 2.494418621440928 2.9702281836478788
1.3160972751945934 0.17689012218723524 0.45539300924885506 0.6838141437585035
0.15758220655196148 0.15758309178166252 -3.6811495252537546e-08 -8.48418205815541e-07
0.2899978597287943 0.2916109245407299 -0.0003065194961894722 -0.001306545315746161
0.5424471175547172 0.5014209263560037 0.009621950048189396 0.03140424115052419
1.2014882057951037 0.7621408837192323 0.15217315051309652 0.2871741715627755
2.5794818913869033 1.0359224798580429 0.5942794779792664 0.949279933549595
4.997699665573135 1.3561093410166285 1.582172208974206 2.059418115582301
8.588815631535606 1.6992217793115305 3.235450247905114 3.6541436043189606
13.47664675711994 2.0706656959790246 5.684312218011014 5.7216688431299
19.688224057187043 2.481333295498084 8.972294294878825 8.234596466810126
27.238331765119103 2.9464739436549774 13.114884057417694 11.176973764046421
36.34708321182327 3.4895231633427373 18.308763197517763 14.548796850962763
46.857777643638556 4.103320453599224 24.377044486611744 18.377412703427577
59.01892503267463 4.736751788228444 31.64254414063143 22.63962910381474
72.46410596111193 5.314018159892176 39.89389481066072 27.256192990559036
86.58849799945123 5.723215280073671 48.816822816407154 32.04845990297042
100.36423282501724 5.839640460100676 57.83642390457614 36.6881684603404
112.34523206913362 5.566185005514434 66.02229129141588 40.756755772203306
120.84936864876174 5.043000019609304 72.1087495263061 43.69761910284636
123.91005641105595 4.151532925631584 74.7727958674691 44.985727617955284
120.84936864873723 5.043000019601616 72.10874952629489 43.69761910284066
112.34523206909381 5.566185005509206 66.02229129139272 40.75675577219192
100.36423282496995 5.839640460101386 57.83642390454442 36.68816846032411
86.58849799939742 5.7232152800732985 48.81682281637211 32.04845990295199
72.46410596105143 5.314018159886905 39.89389481062499 27.256192990539517
59.0189250326218 4.7367517882322625 31.64254414059536 22.63962910379416
46.85777764358096 4.103320453595079 24.37704448657845 18.377412703407437
36.34708321177016 3.489523163338151 18.308763197488172 14.548796850943834
27.23833176507114 2.946473943651818 13.114884057391071 11.176973764028267
19.6882240571461 2.4813332954955176 8.972294294856853 8.234596466793732
13.476646757090704 2.07066569597831 5.684312217995346 5.721668843117049
8.588815631512329 1.6992217793099542 3.235450247893812 3.6541436043085604
4.997699665559095 1.3561093410161946 1.5821722089676074 2.0594181155752933
2.5794818913781246 1.035922479856721 0.5942794779761523 0.9492799335452509
1.2014882057910967 0.7621408837180131 0.15217315051201388 0.28717417156107017
0.5424471175535939 0.5014209263551572 0.00962195004809034 0.03140424115034612
0.2899978597287391 0.29161092454068493 -0.00030651949619177863 -0.0013065453157541254
0.157582206551801 0.15758309178150126 -3.68114952114993e-08 -8.484182050657688e-07
1.3160972751899533 0.1768901221870019 0.45539300924686654 0.6838141437560843
10.242294987030382 4.777648181955028 2.4944186214340793 2.9702281836412765
7.686205958233895 3.7129622705985397 1.7404443696796685 2.2327993179556898
0.8712723115519355 0.0897096893834665 0.2935461080651811 0.48801651410328695
0.11103833846296172 0.11103833846296172 0.0 0.0
0.2187650484501516 0.21882701152629558 -1.1208178507114305e-06 -6.0842258293233926e-05
0.41693444725040835 0.4144659369893041 -0.00012199914019793935 0.0025905094013023346
0.8962855959797109 0.6570237554584022 0.0730333179942779 0.1662285225270308
2.033048336401095 0.9440993152714837 0.4080154795714758 0.6809335415581349
4.06516855081259 1.2375540703007026 1.187676878734549 1.639937601777338
7.174227503582981 1.5523163858402913 2.5758343408128335 3.0460767769298536
11.408274379549534 1.8807100562604777 4.651156590563194 4.876407732725863
16.75002993923856 2.2334237611216503 7.422847094113435 7.093759084003471
23.2760836380482 2.635058499879718 10.966970100433983 9.674055037734508
30.96715277882685 3.1008993320768736 15.242047396879379 12.624206049870589
40.13898982191014 3.633875841624016 20.54239481927835 15.962719161007781
50.56463931461705 4.207371309931608 26.653894851420787 19.70337315326464
62.147964141373286 4.753298267563173 33.61321471832521 23.781451155484923
74.54571413122007 5.181794654898017 41.3269459871142 28.036973489207814
86.74511073725526 5.367635473049941 49.160347952723654 32.21712731148168
97.4595875315247 5.208462553669984 56.31947064901247 35.93165432884223
105.19376995083917 4.791235873905997 61.727524758347684 38.675009318585545
107.98306961721572 3.724342528717751 64.31628922488258 39.94243786361537
105.19376995083138 4.791235873911305 61.72752475833885 38.675009318581225
97.45958753150153 5.208462553676609 56.31947064899279 35.93165432883216
86.74511073722547 5.367635473063827 49.16034795269498 32.21712731146667
74.54571413116878 5.1817946548920855 41.32694598708488 28.036973489191805
62.14796414132323 4.753298267560037 33.613214718295225 23.781451155468005
50.564639314564864 4.207371309927507 26.653894851390618 19.70337315324673
40.138989821865856 3.6338758416257235 20.542394819250077 15.962719160990062
30.967152778780946 3.1008993320742304 15.242047396853373 12.624206049853349
23.276083638007464 2.6350584998777244 10.966970100411405 9.674055037718334
16.750029939203888 2.233423761119099 7.422847094095354 7.093759083989436
11.408274379522592 1.8807100562590724 4.651156590549374 4.876407732714138
7.1742275035630625 1.552316385838083 2.575834340803797 3.046076776921182
4.065168550799943 1.2375540703002117 1.1876768787289862 1.6399376017707459
2.033048336393538 0.9440993152694004 0.4080154795690876 0.6809335415550497
0.8962855959768615 0.6570237554571944 0.07303331799366708 0.16622852252600018
0.4169344472496619 0.41446593698851564 -0.00012199914020210577 0.002590509401348261
0.2187650484500613 0.218827011526223 -1.1208178520714278e-06 -6.084225830955899e-05
0.11103833846278764 0.11103833846278764 0.0 0.0
0.871272311548154 0.08970968938327244 0.2935461080635821 0.48801651410129976
7.686205958214875 3.7129622705907734 1.7404443696742822 2.232799317949821
5.680702929021602 2.8632913422875195 1.1702191480235546 1.647192438710527
0.6376199349285603 0.10748615786263722 0.2045976747799833 0.32553610228594004
0.10106937665181205 0.10106937665181205 0.0 0.0
0.17471734191765806 0.17471105235066509 3.5059575947504334e-07 5.938971233487455e-06
0.3237136886021152 0.32898613596521886 -0.0016446357599710563 -0.0036278116031326123
0.6613073733141823 0.5658910655814419 0.02501045733931798 0.07040585039342183
1.5364933543714965 0.8315993412361421 0.2588178239209877 0.44607618921436754
3.1864625208703488 1.114713075374533 0.8345994640498791 1.2371499814459366
5.808174961676299 1.401127275269048 1.95919366947037 2.4478540169368825
9.39231653858526 1.6909235451122997 3.663295617151128 4.038097376321832
13.920647727165376 1.995450901373395 5.966185681330271 5.959011144461704
19.396404937328903 2.3351613429390596 8.881014212628289 8.180229381761563
25.915097990315658 2.7340234282213864 12.474646908902137 10.706427653192133
33.4499699782769 3.195446408528598 16.685378242719327 13.569145327028973
42.28467361357733 3.6965672018602835 21.809813809485345 16.778292602231687
52.21211704041351 4.209018574481766 27.701758832939426 20.301339632992324
62.78321522363273 4.658708451759343 34.095158181817965 24.029348590055406
73.43138298300057 4.925852930100504 40.772389874044585 27.733140178855482
82.99825080438953 4.890708854623081 47.021189014458116 31.086352935308348
90.14647754618649 4.563059849518413 51.92709175615161 33.656325940516446
92.76948640027184 3.302524706376516 54.48798686740531 34.97897482649007
90.14647754617559 4.5630598495212835 51.927091756142566 33.656325940511714
82.9982508043602 4.890708854619214 47.021189014441454 31.086352935299534
73.43138298295739 4.9258529300941065 40.77238987402075 27.733140178842525
62.78321522359341 4.65870845175727 34.09515818179412 24.029348590042005
52.21211704037654 4.20901857448554 27.70175883291376 20.30133963297722
42.28467361353948 3.696567201862568 21.80981380946053 16.778292602216393
33.44996997823427 3.19544640852511 16.685378242695624 13.569145327013521
25.915097990275992 2.734023428216927 12.474646908881383 10.706427653177677
19.396404937294534 2.3351613429372122 8.881014212609681 8.180229381747637
13.920647727135025 1.9954509013697472 5.966185681315535 5.959011144449745
9.392316538562882 1.690923545111623 3.663295617139645 4.038097376311614
5.808174961659635 1.4011272752667596 1.9591936694633239 2.4478540169295515
3.186462520859536 1.1147130753729402 0.8345994640457073 1.237149981440888
1.5364933543660937 0.8315993412346538 0.25881782391935143 0.4460761892120888
0.6613073733120014 0.5658910655803089 0.025010457338964908 0.07040585039272759
0.32371368860161814 0.3289861359645818 -0.0016446357599433047 -0.0036278116030203904
0.17471734191738536 0.17471105235039597 3.5059575927603094e-07 5.938971230153005e-06
0.10106937665159269 0.10106937665159269 0.0 0.0
0.6376199349255676 0.10748615786257658 0.20459767477865773 0.3255361022843337
5.680702929006342 2.8632913422810318 1.1702191480195252 1.6471924387057832
4.117801072926519 2.1912734239578975 0.7632834974635431 1.16324415150508
0.4509719385342997 0.14264223295073125 0.10365697875804994 0.20467272682551818
0.11353172730150933 0.11353172730150933 0.0 0.0
0.15316750135365736 0.15315208341447795 1.0256537066026557e-06 1.4392285472793056e-05
0.2621740732071735 0.2653478675266746 -0.0005798822357041287 -0.00259391208379701
0.4837765375261596 0.4629878000203406 0.001783175837998725 0.01900556166782026
1.0845537170272008 0.7000180612893765 0.11967550001545749 0.26486015572236704
2.4136067904579535 0.9842363710963837 0.5711831600607904 0.8581872593007794
4.482147667824569 1.2421558878210281 1.3766393950551616 1.8633523849483806
7.458628143974322 1.5013170821524033 2.7475019077801424 3.209809154041775
11.178642224557478 1.7621341862958 4.583861936488247 4.83264610177343
15.644122026284755 2.0488658632234293 6.8979378461725736 6.697318316888756
20.909700312297055 2.3842015267106795 9.721709728981887 8.80378905660449
27.120118216408347 2.7763049480317616 13.157468744852189 11.186344523524385
34.27994752122659 3.2216401233744354 17.18718909976545 13.871118298086696
42.373697943737525 3.683215360858553 21.851291289816608 16.83919129306237
51.36754126521379 4.133902135829945 27.229311992640877 20.004327136742965
60.46253602693272 4.495335909927338 32.73610682181295 23.23109329519242
68.87261031328875 4.5981889150316375 38.024604649529905 26.249816748727202
75.5610497773056 4.360150554818024 42.52099797277194 28.679901249715673
78.11133029708675 2.8944808677859584 45.13587264868789 30.08097678061289
75.56104977729629 4.360150554819316 42.52099797276508 28.67990124971188
68.87261031327392 4.598188915036694 38.02460464951713 26.24981674872015
60.462536026898825 4.495335909917175 32.73610682179772 23.231093295183918
51.367541265178374 4.13390213582466 27.22931199262187 20.004327136731835
42.37369794370054 3.683215360855866 21.8512912897954 16.839191293049314
34.279947521184894 3.2216401233640966 17.187189099746394 13.871118298074414
27.120118216371694 2.7763049480231756 13.157468744835576 11.18634452351294
20.90970031226764 2.384201526710149 9.72170972896517 8.80378905659232
15.644122026256642 2.0488658632216596 6.897937846157818 6.697318316877168
11.178642224533352 1.762134186293818 4.583861936476297 4.832646101763237
7.458628143955195 1.5013170821502742 2.7475019077714617 3.209809154033458
4.48214766781121 1.2421558878195067 1.376639395049557 1.8633523849421476
2.4136067904496716 0.9842363710952776 0.5711831600575563 0.8581872592968371
1.0845537170230635 0.7000180612880395 0.11967550001439188 0.26486015572063226
0.4837765375248803 0.4629878000192088 0.0017831758379449419 0.019005561667726417
0.26217407320682246 0.2653478675263078 -0.0005798822357004446 -0.0025939120837849003
0.1531675013534519 0.15315208341427794 1.0256537061492444e-06 1.4392285467779322e-05
0.11353172730119848 0.11353172730119848 0.0 0.0
0.4509719385317005 0.14264223295047174 0.10365697875705027 0.2046727268241789
4.117801072915266 2.191273423953342 0.7632834974606179 1.1632441515013083
2.8752290141347943 1.6515026581042047 0.449060314034212 0.7746660419963787
0.3406421038410796 0.18547266752253772 0.04727185040750739 0.10789758591103436
0.13596456503651094 0.13598032286846523 -8.23290305344124e-07 -1.4934541648948963e-05
0.148446232920264 0.14843194690414685 9.176681420014073e-07 1.3368347975063384e-05
0.2230677820376612 0.22390309117544482 -0.00014666363976197894 -0.0006886454980216707
0.3646084125509912 0.3758025444540488 -0.0043165781581893025 -0.006877553744868128
0.7492784215040514 0.5832789090439093 0.04398984992114425 0.12200966253899759
1.6545927074512743 0.8203780969383117 0.2928426203742786 0.541371990138684
3.3296922351211227 1.0839166779754024 0.9436146985252103 1.3021608586205096
5.582472475417273 1.3050054279608152 1.8838223151016826 2.3936447323547756
8.54999663474038 1.5315459620387586 3.3001948684646365 3.7182558042369904
12.057655343112621 1.7722342434944285 5.058632446595019 5.22678865302317
16.15275937265455 2.0509844757282534 7.183545532896881 6.918229364029422
20.953902155346114 2.380462417005677 9.7486371796229 8.824802558717531
26.549207524085308 2.760469024871148 12.805081674181736 10.983656825032421
33.07327060834093 3.1829294931385355 16.49900793988478 13.391333175317607
40.07923431181421 3.6171388280176133 20.457277820963498 16.0048176628331
47.71302156007833 4.0432803648210145 24.966658376402407 18.703082818854917
55.19529230176115 4.3069325930136095 29.52465779193847 21.36370191680904
61.43164004934508 4.187937297992726 33.551867758725486 23.691834992626866
64.01761530872479 2.5118544215702574 36.284974815177605 25.220786071976942
61.431640049341176 4.187937297997146 33.55186775872014 23.691834992623882
55.195292301744274 4.306932593012526 29.524657791928476 21.363701916803265
47.71302156006741 4.043280364829994 24.96665837639001 18.703082818847385
40.07923431178996 3.6171388280173637 20.45727782094869 16.004817662823925
33.07327060831633 3.1829294931414474 16.499007939868108 13.391333175306766
26.54920752406524 2.760469024874729 12.80508167416779 10.983656825022713
20.953902155325665 2.3804624170074415 9.748637179610075 8.824802558708148
16.15275937262918 2.050984475726512 7.183545532883552 6.918229364019121
12.057655343092138 1.7722342434952465 5.058632446583384 5.226788653013508
8.549996634721328 1.5315459620376728 3.3001948684552636 3.7182558042283915
5.582472475403306 1.305005427959799 1.883822315095253 2.3936447323482564
3.329692235110224 1.0839166779738914 0.9436146985207368 1.302160858615597
1.6545927074451012 0.8203780969368324 0.2928426203723132 0.5413719901359563
0.7492784215015734 0.5832789090428433 0.04398984992063637 0.12200966253809362
0.36460841255028326 0.3758025444531644 -0.004316578158139728 -0.006877553744741191
0.22306778203723018 0.22390309117500268 -0.00014666363976218683 -0.0006886454980103964
0.14844623292010342 0.1484319469039917 9.176681415783688e-07 1.336834797013782e-05
0.13596456503605892 0.13598032286799439 -8.232903041218908e-07 -1.4934541631370911e-05
0.3406421038394636 0.1854726675223821 0.04727185040691793 0.10789758591016342
2.875229014126121 1.6515026581004406 0.449060314032219 0.7746660419934619
1.9864690282302355 1.2668147399830216 0.2689097201640546 0.4507445680831592
0.25408691077494433 0.2059402165153723 0.006133235800731614 0.04201345845884043
0.1600030667603351 0.15999464366578284 5.424922846087172e-07 7.880602267691425e-06
0.15501672547969644 0.15499944029929422 1.3682713799755646e-06 1.591690902223427e-05
0.20015168852729256 0.2010215394336711 -0.00012581783484781224 -0.0007440330715306675
0.2928740063295117 0.3034963674125039 -0.002863125293038086 -0.007759235789954333
0.50336295845025 0.46596891027445 0.004283895004341056 0.03311015317145885
1.0615410686636584 0.6590762868044974 0.12120289142741911 0.2812618904317424
2.1716310993059253 0.8844464548057444 0.48317672848991167 0.8040079160102689
3.9099346224623273 1.1032320310471608 1.2021864511450921 1.6045161402700745
6.048513099125522 1.294370038274107 2.1357863945489703 2.618356666302444
8.627946310272101 1.4956578119316706 3.357856809916696 3.7744316884237334
11.632904147034756 1.726296355607037 4.851403676286552 5.055204115141171
15.122548101465702 1.995901635744204 6.633998016825679 6.492648448895821
19.255736573286367 2.319079226592092 8.811376527626534 8.125280819067745
24.02955142017373 2.692180779044243 11.362988705527142 9.974381935602352
29.50767551192603 3.0988462406923327 14.403252538520402 12.0055767327133
35.421091492613755 3.55840093135585 17.67706615592698 14.185624405330934
41.63105166855464 3.9791913532379533 21.201989275856207 16.449871039460476
47.555265371126204 4.03960281594236 24.863282134465557 18.652380420718284
50.31379742096102 2.162400825661486 27.789740744861476 20.36165585043807
47.55526537111735 4.039602815937455 24.86328213446299 18.65238042071691
41.631051668544806 3.9791913532380794 21.20198927585006 16.449871039456685
35.421091492592296 3.5584009313499325 17.677066155917505 14.185624405324864
29.50767551190374 3.0988462406883697 14.40325253850943 12.005576732705945
24.02955142015001 2.6921807790419225 11.362988705514564 9.97438193559352
19.255736573260076 2.319079226583269 8.811376527616487 8.125280819060327
15.122548101444785 1.995901635740143 6.633998016816214 6.492648448888428
11.632904147016628 1.7262963556045594 4.851403676278027 5.055204115134038
8.627946310254893 1.4956578119303272 3.3578568099083985 3.7744316884161666
6.048513099110391 1.2943700382721268 2.1357863945423987 2.6183566662958637
3.909934622451608 1.1032320310465644 1.2021864511402058 1.604516140264836
2.1716310992989896 0.8844464548045939 0.4831767284873724 0.804007916007023
1.061541068659825 0.659076286803258 0.12120289142644648 0.2812618904301195
0.5033629584486884 0.4659689102735638 0.004283895004165298 0.03311015317095927
0.29287400632900334 0.30349636741150565 -0.002863125292964951 -0.007759235789537559
0.20015168852690166 0.20102153943329684 -0.00012581783484780232 -0.0007440330715473878
0.15501672547938744 0.15499944029896878 1.3682713805505234e-06 1.5916909038122942e-05
0.16000306675982934 0.1599946436652796 5.424922844002693e-07 7.880602265376128e-06
0.2540869107739626 0.2059402165151522 0.006133235800470702 0.04201345845833964
1.9864690282237754 1.2668147399801917 0.2689097201625293 0.45074456808105473
1.2812357126461789 0.9395427380933593 0.10778949217230588 0.2339034823805138
0.20674504390901985 0.21211733736836008 -0.005560016129375381 0.00018772267003512865
0.1809849212150516 0.18107476818282747 -7.508557928086471e-06 -8.233840984779139e-05
0.16805768800556253 0.16808444552800092 -1.84880345490876e-06 -2.4908718983539097e-05
0.19019431211845889 0.19104385386398848 -0.00012775007019784722 -0.0007217916753317722
0.25048768641460484 0.2548728224685066 -0.0014336383121087055 -0.002951497741793048
0.3601305538017503 0.366980191677334 -0.004398167591510122 -0.002451470284073484
0.631501268108926 0.5107358132651924 0.029238356882518805 0.09152709796121496
1.2439654106078661 0.6754710827033836 0.1850282776940675 0.38346605021041474
2.299299178931157 0.855554014348096 0.5576668394283132 0.8860783251547485
3.6986039522334115 1.0228921440967669 1.1105996635954951 1.565112144541151
5.411601158199736 1.194582520632238 1.8619068693505327 2.3551117682169656
7.388272281925088 1.3847284101087662 2.7710278037491554 3.2325160680671674
9.672053191423549 1.6010446872445392 3.858046868996548 4.212961635182457
12.38309688259371 1.8638927250259265 5.189911438831887 5.329292718735898
15.625339016784807 2.188481997568992 6.82222066007256 6.614636359143256
19.419170700680777 2.5705213144862706 8.769959714883527 8.078689671310974
23.66439039414946 2.989186205098706 10.977939055495925 9.697265133554835
28.59906595080828 3.528497832031972 13.567351975838468 11.503216142937836
34.16100187072951 3.905209871964786 16.71452968514876 13.541262313615945
37.18003324584596 1.8851715000837144 19.73433858441344 15.56052316134882
34.161001870734545 3.9052098719701003 16.714529685148605 13.541262313615828
28.599065950799737 3.5284978320284175 13.567351975835493 11.503216142935822
23.664390394136035 2.9891862050934828 10.977939055491047 9.697265133551499
19.41917070066921 2.5705213144882584 8.769959714875744 8.078689671305206
15.625339016770106 2.1884819975677017 6.822220660064994 6.614636359137413
12.38309688259052 1.8638927250342954 5.189911438825564 5.329292718730652
9.67205319141293 1.601044687242917 3.8580468689917335 4.212961635178281
7.388272281915765 1.3847284101090394 2.7710278037442757 3.2325160680624476
5.411601158188058 1.1945825206297733 1.8619068693458924 2.355111768212395
3.698603952224252 1.022892144095681 1.1105996635917286 1.5651121445368432
2.2992991789244845 0.8555540143475884 0.5576668394255396 0.8860783251513564
1.2439654106041604 0.6754710827026924 0.18502827769287722 0.38346605020859126
0.6315012681070679 0.5107358132646939 0.02923835688208337 0.091527097960291
0.360130553800736 0.36698019167628354 -0.004398167591526271 -0.002451470284021244
0.2504876864141412 0.254872822467766 -0.0014336383120646828 -0.00295149774156006
0.1901943121181654 0.19104385386372275 -0.00012775007020075823 -0.0007217916753565766
0.16805768800523913 0.1680844455276796 -1.8488034546542421e-06 -2.4908718985761003e-05
0.18098492121470827 0.18107476818245838 -7.508557926161311e-06 -8.233840982397625e-05
0.20674504390807025 0.21211733736774951 -0.005560016129475737 0.0001877226697962909
1.2812357126423444 0.9395427380916809 0.10778949217146516 0.23390348237919842
0.820939281235844 0.7126531583597054 0.029646217860459425 0.07863990501567955
0.18312808621489493 0.19806974892665893 -0.004365900193684858 -0.010575762518079151
0.19646363199197842 0.1964763129132538 -6.695763111968447e-07 -1.2011344964188092e-05
0.18364545787007794 0.18364776735674035 6.968316752306406e-07 -3.006318337615655e-06
0.19141889479656657 0.19202315202278505 -9.996334124503976e-05 -0.0005042938849734542
0.228373688446914 0.23362669689392526 -0.001338364964689359 -0.0039146434823217925
0.29270509489214414 0.29325737200477986 -0.0013233301878644791 0.0007710530752286933
0.3872224468651426 0.3583393500341268 0.005206452565547603 0.023676644265468335
0.5879557934439877 0.44617149076797846 0.0366118882425579 0.10517241443345117
1.00483350705126 0.564749121549266 0.141766394598513 0.2983179909034811
1.6925188203655432 0.6875175449579843 0.3780626537043744 0.6269386217031843
2.538399547608553 0.7972807905265193 0.6855405317610644 1.0555782253209693
3.5695978657499046 0.9284283732043799 1.1000771080143683 1.5410923845311568
4.791101014547155 1.087831754748176 1.6154006156311367 2.0878686441678425
6.250151042188703 1.283135142290499 2.24714279676879 2.7198731031294163
8.06282243586987 1.544230010186057 3.044568358676674 3.474024067007137
10.356185678661625 1.8881691149965105 4.078540033804842 4.38947652986027
13.162543736598646 2.2792649366023707 5.408271242465981 5.475007557530301
16.481730326637177 2.7179225805674507 7.016549295309786 6.747258450759946
21.184710966572503 3.5395088620153623 9.216560110841604 8.42864199371554
25.26818616098559 1.7625315637058938 12.646620442611457 10.859034154668237
21.184710966568087 3.539508862008173 9.2165601108432 8.428641993716708
16.48173032663779 2.71792258056964 7.016549295308872 6.7472584507592765
13.16254373659591 2.279264936605146 5.4082712424629396 5.475007557527828
10.356185678651409 1.8881691149958306 4.078540033799639 4.389476529855936
8.062822435864248 1.5442300101875743 3.044568358672979 3.474024067003695
6.250151042175961 1.2831351422849249 2.2471427967651625 2.719873103125875
4.791101014543841 1.087831754749448 1.6154006156288374 2.0878686441655536
3.569597865746091 0.9284283732061458 1.1000771080117437 1.5410923845282012
2.5383995476037566 0.7972807905259253 0.6855405317591629 1.055578225318668
1.6925188203610184 0.6875175449573298 0.3780626537027016 0.6269386217009874
1.0048335070482761 0.564749121548158 0.1417663945977504 0.29831799090236755
0.5879557934426815 0.4461714907675019 0.03661188824230119 0.10517241443287823
0.3872224468646897 0.35833935003386763 0.005206452565479063 0.023676644265343084
0.2927050948915179 0.29325737200421637 -0.0013233301878965353 0.0007710530751980581
0.22837368844646125 0.2336266968932803 -0.001338364964649577 -0.003914643482169486
0.19141889479603258 0.1920231520223077 -9.996334125237311e-05 -0.0005042938850227818
0.18364545786985137 0.1836477673564855 6.968316775068373e-07 -3.006318311643161e-06
0.1964636319915686 0.19647631291283438 -6.695763105209002e-07 -1.2011344955200635e-05
0.18312808621439727 0.19806974892593854 -0.0043659001936303034 -0.010575762517910916
0.8209392812336336 0.7126531583584669 0.029646217860139226 0.07863990501502731
0.52494743952699 0.513494119204758 0.001623413830065141 0.009829906492166517
0.17484649458739726 0.17678597450776376 -0.0002753242619949124 -0.0016641556583715234
0.20610063329120096 0.206230496127642 -1.0178678752277726e-05 -0.00011968415768878052
0.1990760199542228 0.199276808832369 -2.1032988010825366e-05 -0.0001797558901353871
0.20114397043892374 0.20179748021194294 -0.00012811077118012553 -0.0005253990018390647
0.2260481571399499 0.2297739507855164 -0.0010860031559963399 -0.0026397904895701287
0.2731569407417581 0.27149441178638567 -0.0005726343498667918 0.0022351633052392285
0.3228725039383201 0.284336874353987 0.008194534050675849 0.030341095533657225
0.3614749581121231 0.261443187469567 0.02971764760697429 0.07031412303558193
0.4213401419676326 0.22141336621757504 0.06322302725894792 0.13670374849110964
0.5718373512418504 0.22381269114945976 0.13059959161930523 0.21742506847308557
0.8119165741101384 0.25906104161107146 0.21243368398891171 0.3404218485101553
1.1531285493634753 0.29510643960547067 0.3422695894881773 0.5157525202698274
1.5964761588908838 0.2994716348385018 0.531636644926863 0.7653678791255188
2.1631991534966577 0.30704929686966975 0.7866201439106871 1.0695297127163004
2.8547797373974317 0.33898161349776557 1.0944940179116986 1.4213041059879672
3.7239759737580416 0.4136589934628976 1.4894714437175722 1.820845536577571
4.786969696885871 0.5349918527618043 1.9807846176328978 2.2711932264911674
6.40112958980507 0.8049435591784702 2.687508501998414 2.9086775286281847
10.25957654116828 2.005350953091029 3.9642794412836384 4.289946146793616
17.080331695696124 1.7326092943496483 7.830604009319187 7.517118392027291
10.259576541179236 2.0053509530974645 3.9642794412862044 4.289946146795568
6.401129589802536 0.8049435591776184 2.687508501997442 2.9086775286274764
4.78696969687782 0.5349918527587636 1.9807846176302322 2.2711932264888257
3.723975973750626 0.4136589934611341 1.4894714437147396 1.8208455365747496
2.854779737387866 0.33898161349272526 1.0944940179097151 1.4213041059854252
2.163199153495991 0.3070492968710617 0.7866201439096198 1.0695297127153094
1.5964761588854657 0.2994716348361356 0.5316366449255923 0.7653678791237393
1.153128549359307 0.29510643960441635 0.3422695894868385 0.5157525202680522
0.8119165741068619 0.25906104160919985 0.21243368398808732 0.34042184850957524
0.5718373512403451 0.22381269114962032 0.13059959161856377 0.21742506847216042
0.4213401419671836 0.2214133662174924 0.06322302725882539 0.13670374849086608
0.36147495811221764 0.2614431874699078 0.029717647606887665 0.07031412303542214
0.3228725039376222 0.28433687435390104 0.008194534050474234 0.030341095533246792
0.27315694074107433 0.2714944117857875 -0.0005726343498973863 0.0022351633051843527
0.22604815713939339 0.2297739507847481 -0.0010860031559563786 -0.0026397904893985
0.20114397043850124 0.20179748021130545 -0.0001281107711567984 -0.0005253990016474122
0.19907601995396745 0.19927680883219787 -2.1032988019737786e-05 -0.00017975589021068742
0.2061006332908486 0.20623049612729832 -1.0178678751834899e-05 -0.00011968415769790665
0.17484649458717527 0.1767859745075368 -0.00027532426199158286 -0.0016641556583699166
0.5249474395257999 0.5134941192033795 0.0016234138300566731 0.009829906492363618
0.34577101120098697 0.3461385435473583 -4.8542175184032554e-05 -0.0003189901711873242
0.16610730913080898 0.16607282114757294 5.159628117145796e-06 2.932835511893937e-05
0.2098712673410599 0.20983746203939818 2.184682459640016e-06 3.162061920209989e-05
0.21231717923507157 0.21255310144722583 -3.4430540504546686e-05 -0.00020149167164977333
0.21657154146646285 0.21671174530278245 -7.539388811493374e-05 -6.480994820464721e-05
0.2434371332954427 0.24561796749700474 -0.0009556825441097225 -0.0012251516574524187
0.3010822836861302 0.3011684909965242 -0.000728464033799764 0.0006422567234057551
0.39056118826518077 0.3598809273604082 0.005913272319791921 0.024766988584980505
0.5886828934077164 0.44591423664359253 0.036955579389012456 0.1058130773751113
1.0037480751746568 0.5642680057670728 0.14148511423153684 0.2979949551760471
1.6929224252754955 0.6893089881937817 0.37783438982595985 0.6257790472557542
2.5476479894543065 0.7987346380546377 0.6903508098865031 1.0585625415131659
3.5932455743334724 0.9324228089266291 1.1093879683767982 1.5514347970300437
4.826320614014237 1.0916298196209988 1.6315114685695749 2.103179325823663
6.223398310390789 1.2708435122669233 2.240947418124053 2.7116073799998124
7.732852521906553 1.4746705281087755 2.914610950642503 3.3435710431552748
9.161940926649597 1.6897408303291455 3.5559181865542424 3.9162819097662087
10.325475115684526 1.9310764013116448 4.088827820472585 4.305570893900295
10.735993245065988 2.0885290699603902 4.259939205359563 4.387524969746034
8.573591637300508 1.204953882116192 3.7172991590448863 3.6513385961394293
17.293513170012073 2.9779372100757824 7.156616660397378 7.158959299538913
8.57359163730152 1.2049538821129202 3.7172991590472506 3.6513385961413434
10.73599324506163 2.08852906995721 4.259939205358895 4.387524969745524
10.325475115683272 1.9310764013157913 4.088827820469632 4.305570893897846
9.161940926635934 1.6897408303255352 3.555918186548888 3.9162819097615156
7.7328525219011475 1.4746705281126289 2.91461095063773 3.343571043150788
6.223398310383667 1.2708435122657702 2.2409474181211184 2.7116073799967797
4.826320614006106 1.0916298196215717 1.6315114685652397 2.1031793258192946
3.5932455743246123 0.9324228089251327 1.1093879683732983 1.5514347970261828
2.547647989447108 0.7987346380550174 0.6903508098831472 1.0585625415089432
1.6929224252668449 0.6893089881921107 0.37783438982289913 0.6257790472518348
1.003748075171205 0.5642680057661542 0.14148511423056656 0.29799495517448393
0.5886828934063719 0.44591423664285235 0.03695557938880944 0.10581307737470994
0.39056118826433095 0.3598809273598879 0.005913272319684209 0.024766988584758908
0.30108228368531237 0.30116849099589166 -0.0007284640338585569 0.0006422567232790468
0.24343713329483704 0.2456179674961793 -0.0009556825440746942 -0.0012251516572676726
0.21657154146610647 0.2167117453022136 -7.539388808994963e-05 -6.480994801711476e-05
0.2123171792348161 0.2125531014467433 -3.4430540480138e-05 -0.00020149167144705888
0.2098712673407458 0.20983746203892933 2.1846824683002625e-06 3.1620619348160566e-05
0.1661073091307359 0.16607282114754757 5.1596281135934604e-06 2.9328355074767363e-05
0.3457710112001434 0.34613854354654866 -4.854217518962948e-05 -0.00031899017121559737
0.223838053409587 0.223838053409587 0.0 0.0
0.15250836104848994 0.15253231036663858 -1.5165124799613632e-06 -2.2432805668692776e-05
0.20699470455887742 0.20713767685910153 -1.392412051912491e-05 -0.0001290481797050013
0.2219523860220533 0.22135552548778706 7.196314990553586e-05 0.0005248973843608611
0.23590767952990724 0.23802928407365284 -0.00039289618038466906 -0.0017287083633609878
0.279023427875346 0.2853458238370791 -0.0015033317711100544 -0.004819064190623034
0.37315528573998613 0.3691210217709536 -0.0023277780354979483 0.0063620420045305374
0.6371372931591309 0.5113753619596876 0.031094262403796858 0.09466766879564678
1.2437373935481935 0.6753013147146286 0.1849765789487851 0.38345949988477973
2.297270243124914 0.8553538297280812 0.5567370873310992 0.8851793260657338
3.6989595416349967 1.0230602457856113 1.1105953221650866 1.5653039736842964
5.419570685721401 1.1956703202847025 1.8653143030110433 2.3585860624256534
7.409525623094084 1.3869540380777325 2.7809539276225843 3.241617657393773
9.69969196992692 1.6008918567814379 3.8732148164708975 4.225585296674583
12.34596829219521 1.8443998977314227 5.181306182027995 5.320262212435786
15.28276722029549 2.1106519456979598 6.6755021234907 6.496613151106829
18.268392783909587 2.395277625668222 8.211934093049809 7.661181065191549
20.879025154717255 2.717268712668857 9.506761327117054 8.654995114931335
22.20435246915614 2.8300825700118284 10.224978005298997 9.14929189384531
20.525810143227563 2.7851900228599136 9.369174291450342 8.371445828917306
25.036139678095992 6.2897212532459985 9.821649717357522 8.92476870749246
20.525810143232633 2.785190022859571 9.369174291453536 8.371445828919528
22.204352469154937 2.8300825700132948 10.224978005297443 9.149291893844207
20.879025154694666 2.717268712657507 9.506761327110462 8.654995114926693
18.268392783895123 2.3952776256703725 8.211934093040291 7.661181065184463
15.282767220277194 2.1106519456954955 6.675502123481821 6.496613151099879
12.345968292178354 1.8443998977281322 5.181306182020553 5.320262212429671
9.699691969917037 1.6008918567846837 3.87321481646395 4.225585296668408
7.409525623078375 1.3869540380755423 2.7809539276155744 3.2416176573872613
5.4195706857066455 1.195670320283382 1.8653143030043196 2.358586062418943
3.6989595416244314 1.0230602457870375 1.1105953221594618 1.5653039736779322
2.297270243116557 0.8553538297261505 0.5567370873281982 0.8851793260622088
1.2437373935433569 0.6753013147133078 0.18497657894738612 0.3834594998826622
0.6371372931571699 0.5113753619591316 0.031094262403347284 0.09466766879469107
0.37315528573893353 0.36912102176991646 -0.002327778035530265 0.0063620420045473365
0.27902342787474216 0.2853458238363522 -0.001503331771073311 -0.004819064190536737
0.23590767952958216 0.23802928407333945 -0.0003928961803869092 -0.0017287083633703592
0.22195238602177053 0.22135552548737955 7.19631499152492e-05 0.0005248973844757395
0.20699470455866767 0.20713767685891393 -1.3924120521276806e-05 -0.00012904817972497377
0.152508361048276 0.1525323103664118 -1.516512478760001e-06 -2.243280565699857e-05
0.22383805340895244 0.22383805340895244 0.0 0.0
0.13807097706567173 0.13807097706567173 0.0 0.0
0.13361352872073667 0.13360415653032165 6.316936465528355e-07 8.74049676847986e-06
0.19742803281022878 0.19745908398130319 -1.8256901364633365e-06 -2.9225480937948953e-05
0.22772632035620788 0.22832763966833391 -8.140263868141905e-05 -0.0005199166734446985
0.25893492438706284 0.2604901122736121 -0.00034810273009113597 -0.0012070851564580443
0.3265718975070204 0.3275610289152946 -0.0017037308222034354 0.0007145994139294198
0.5242703591363201 0.47620262047911976 0.008931343046890338 0.03913639561031008
1.0667908094360754 0.6600504533856271 0.12336845933974513 0.2833718967107032
2.169622700196793 0.8843903601173355 0.48228205061968027 0.8029502894597775
3.9084951642503754 1.1033536710508183 1.2016969250416814 1.6034445681578773
6.049195145579274 1.29441938545715 2.134870544009912 2.6199052161122145
8.634436319956219 1.4960111377499912 3.361143611132869 3.7772815710733605
11.64412228548619 1.7270061333459452 4.857180853886595 5.059935298253648
15.128408639854747 1.9936329467637428 6.638692837879028 6.496082855211977
19.199348693896265 2.2975610656627734 8.791637591361052 8.110150036872438
23.74058344808715 2.6220629463609058 11.235277441830355 9.883243059895884
28.607545119771626 2.9571662453584047 13.9511387078738 11.699240166539429
32.86572925531011 3.191517097110035 16.351655693866096 13.322556464333967
35.09413459925279 3.202937815792629 17.69918239903658 14.19201438442359
32.531421910263404 2.8128776426277855 16.3937640246479 13.32478024298772
36.5560855415227 9.039466529003137 15.042684938610385 12.473934073909188
32.53142191026119 2.8128776426234268 16.39376402464921 13.324780242988547
35.09413459925244 3.202937815795953 17.699182399034303 14.19201438442219
32.865729255300934 3.191517097117067 16.35165569385631 13.322556464327569
28.607545119748533 2.9571662453576186 13.951138707860432 11.699240166530476
23.74058344806119 2.6220629463589447 11.235277441816294 9.883243059885958
19.199348693880182 2.2975610656650507 8.79163759135052 8.110150036864619
15.128408639832848 1.9936329467599467 6.638692837868851 6.496082855204046
11.644122285463032 1.7270061333445084 4.85718085387473 5.059935298243799
8.634436319936892 1.4960111377498064 3.3611436111227735 3.7772815710643117
6.049195145561022 1.2944193854555506 2.1348705440014992 2.619905216103973
3.9084951642367463 1.1033536710488812 1.2016969250360336 1.6034445681518317
2.169622700188608 0.8843903601157135 0.48228205061678187 0.8029502894561127
1.06679080943169 0.6600504533837627 0.1233684593388003 0.28337189670912666
0.5242703591344289 0.4762026204781389 0.008931343046620487 0.03913639560966945
0.32657189750645393 0.3275610289143277 -0.0017037308221473828 0.0007145994142736926
0.2589349243865548 0.26049011227289265 -0.0003481027300616542 -0.001207085156276301
0.2277263203556449 0.22832763966777633 -8.140263868401142e-05 -0.0005199166734474623
0.19742803280996266 0.19745908398103784 -1.8256901365811306e-06 -2.9225480938672146e-05
0.13361352872057763 0.1336041565301631 6.316936464977709e-07 8.740496767980233e-06
0.13807097706525043 0.13807097706525043 0.0 0.0
0.0807070479060989 0.0807070479060989 0.0 0.0
0.1109524287482356 0.1109524287482356 0.0 0.0
0.18217845431238844 0.18216801348693945 6.169848764971448e-07 9.823840572470336e-06
0.23002411026182584 0.2299106790153504 1.4670694583494003e-05 9.87605518919666e-05
0.2836078102847503 0.28749908757051384 -0.0007798582716089873 -0.0031114190141545562
0.4013338829732261 0.402643071649803 -0.001692925244220776 0.00038373656764402117
0.7647412739805364 0.5803345047836307 0.04951348185776387 0.13489328733914155
1.6565508964274684 0.8207908159069518 0.29389562570789096 0.5418644548126259
3.3268822011273063 1.0842676144237973 0.942094075889569 1.3005205108139397
5.581873210246919 1.3052928240582298 1.8831954116046474 2.393384974584043
8.552959030592248 1.5314531001581821 3.3020464460459973 3.71945948438807
12.060141679065929 1.7712127989889297 5.060579748714101 5.2283491313628945
16.145798453520104 2.0482593923341055 7.181256519421994 6.916282541764014
20.923673006406716 2.375001042973292 9.734471064878633 8.814200898554791
26.47822860624178 2.747391548916708 12.770824358129156 10.960012699195918
32.90643939456508 3.1491106796988233 16.418221790271765 13.339106924594496
39.480613450105864 3.483211757142264 20.17132278607914 15.826078906884469
45.46657724338083 3.6021405550209415 23.841059521759618 18.023377166600245
48.46694343055386 3.342369296713754 25.90733426832487 19.21723986551525
45.10344002677364 2.8901728140589444 24.083215909309196 18.1300513034055
49.271687563230095 11.679611662559857 21.171738971466972 16.42033692920326
45.10344002677253 2.890172814059681 24.083215909308066 18.130051303404787
48.46694343053518 3.3423692967046232 25.90733426831885 19.217239865511733
45.466577243353115 3.6021405550144237 23.841059521746345 18.023377166592333
39.48061345007735 3.4832117571413845 20.171322786062227 15.826078906873741
32.90643939453818 3.1491106797006814 16.418221790254343 13.339106924583161
26.478228606204077 2.747391548906197 12.770824358113071 10.960012699184803
20.923673006376976 2.375001042969809 9.734471064863413 8.814200898543753
16.145798453494727 2.0482593923359653 7.1812565194066185 6.916282541752136
12.060141679038495 1.7712127989866702 5.0605797487004 5.228349131351425
8.552959030570829 1.5314531001584877 3.3020464460346823 3.7194594843776585
5.581873210230971 1.3052928240581896 1.8831954115967813 2.3933849745760014
3.3268822011152612 1.0842676144220207 0.9420940758846714 1.3005205108085693
1.6565508964201276 0.8207908159050049 0.29389562570561667 0.5418644548095067
0.7647412739773275 0.5803345047826596 0.0495134818569646 0.1348932873377029
0.4013338829722975 0.40264307164887403 -0.0016929252442130004 0.0003837365676364467
0.2836078102841938 0.28749908756987946 -0.0007798582715915531 -0.0031114190140940734
0.23002411026146058 0.22991067901497148 1.4670694582401735e-05 9.876055190674261e-05
0.1821784543121353 0.1821680134866913 6.169848761276928e-07 9.823840567913113e-06
0.11095242874800014 0.11095242874800014 0.0 0.0
0.08070704790589737 0.08070704790589737 0.0 0.0
0.04440782555287602 0.04440782555287602 0.0 0.0
0.08725879343807472 0.08725879343807472 0.0 0.0
0.16292879032370294 0.1629181317294086 6.366593226293898e-07 1.002193497175889e-05
0.2296465858313928 0.22971135597548217 -5.733234168007318e-06 -5.9036909921355225e-05
0.31156007261478386 0.3141715707347117 -0.000940191122796957 -0.0016713069971309685
0.5147908899524175 0.4820617238944596 0.006476151157443863 0.026253014900514016
1.0972761196079301 0.7009881231766463 0.1251238324465659 0.27116416398471793
2.4127775479943288 0.9849471828140305 0.5706458174719364 0.8571845477083613
4.480241517456257 1.2428180043308914 1.3755367050556802 1.8618868080696862
7.459720855010555 1.5016109813762275 2.7478505340554538 3.2102593395788714
11.181803387919139 1.761750799595747 4.58577186839573 4.834280719927666
15.640356627889147 2.0458437490962353 6.897532411539956 6.696980467252956
20.87838439805973 2.3759143801095415 9.708448383316432 8.794021634633758
27.045187573829534 2.766308411552786 13.119011985513591 11.15986717676315
34.19679425463481 3.2257596328748037 17.134225984889355 13.836808636870646
42.329757250942706 3.692389922821847 21.818036874937572 16.819330453183298
51.058977502145794 4.017402492466564 27.10792319530295 19.933651814376265
58.492448381904204 3.951976925072781 31.827975200295718 22.712496256535722
61.91380085688508 3.3874849138480467 34.33243958101184 24.193876362025215
58.05662086757993 3.038630833635265 32.14528750321352 22.87270253073116
63.132582658070206 14.371211205204693 28.189978130783793 20.571393322081708
58.05662086757969 3.0386308336372414 32.14528750321211 22.872702530730344
61.913800856868605 3.387484913849823 34.33243958100018 24.193876362018592
58.49244838187841 3.95197692507608 31.82797520027719 22.712496256525135
51.0589775021073 4.017402492462899 27.107923195280957 19.933651814363444
42.32975725089961 3.6923899228142574 21.81803687491563 16.819330453169734
34.19679425460025 3.2257596328774816 17.134225984866802 13.836808636855958
27.045187573792273 2.7663084115518615 13.119011985492037 11.159867176748369
20.878384398024565 2.3759143801074094 9.708448383297341 8.794021634619817
15.640356627857603 2.0458437490963863 6.89753241152218 6.696980467239036
11.181803387892248 1.7617507995944324 4.58577186838192 4.834280719915895
7.459720854987778 1.5016109813726508 2.7478505340455683 3.2102593395695624
4.480241517441742 1.2428180043294934 1.3755367050495186 1.8618868080627322
2.4127775479853923 0.984947182813372 0.5706458174681822 0.857184547703838
1.097276119603569 0.7009881231757031 0.1251238324452674 0.27116416398259907
0.5147908899506426 0.482061723893193 0.006476151157286883 0.0262530149001627
0.3115600726142666 0.31417157073378305 -0.0009401911227401706 -0.0016713069967761367
0.22964658583105435 0.229711355975169 -5.733234173845115e-06 -5.903690994086382e-05
0.16292879032350802 0.16291813172922012 6.366593221431451e-07 1.0021934965748754e-05
0.08725879343791369 0.08725879343791369 0.0 0.0
0.04440782555281937 0.04440782555281937 0.0 0.0
0.02293046706479502 0.02293046706479502 0.0 0.0
0.06501387294583408 0.06501387294583408 0.0 0.0
0.14202016135279646 0.1420141872097528 3.662909033654852e-07 5.6078521402870744e-06
0.22855325411965055 0.22859007592691066 -8.913700949161184e-06 -2.7908106310960307e-05
0.3518359755962105 0.35836711860719733 -0.0017899415191235718 -0.004741201491863139
0.6703783694317085 0.5509730703282093 0.028927170711697252 0.09047812839180151
1.5420198932174576 0.8320807875130117 0.26200263791548206 0.44793646778896334
3.185041334700938 1.1156353573209419 0.833354424153248 1.236051553226747
5.808149491840151 1.4018133335319918 1.9590679480172482 2.4472682102909125
9.395097171713223 1.6911796851254295 3.6646594403965547 4.039258046191241
13.922994530600864 1.9944915586395295 5.968027798853184 5.960475173108148
19.384368217063148 2.3297565359595813 8.877226284232126 8.17738539687144
25.85910367338224 2.7199380776967246 12.449901109536773 10.689264486148748
33.332322951981894 3.179922578919429 16.623612422761518 13.52878795030095
42.17087763618316 3.7106329247638605 21.73073277078759 16.729511940631692
52.22269463823241 4.257656199904065 27.677349375157 20.287689063171353
62.656857422879526 4.564661392391678 34.073853646515346 24.0183423839725
71.61006153056168 4.265367768988757 40.02083472393061 27.32385903764233
75.77580804288648 3.4189359154046124 43.27256408330733 29.08430804417456
71.55395590373296 3.2058965216645166 40.67767737174675 27.670382010321728
77.81644806782614 17.09262587516407 35.747938167639504 24.9758840250226
71.55395590371613 3.205896521653504 40.677677371742945 27.670382010319656
75.77580804287291 3.4189359154116956 43.27256408329389 29.084308044167294
71.61006153053123 4.265367768992044 40.02083472390872 27.32385903763046
62.656857422842165 4.564661392396178 34.073853646488615 24.01834238395738
52.22269463819009 4.2576561999049005 27.677349375129836 20.287689063155373
42.17087763613698 3.710632924761305 21.730732770760635 16.729511940615033
33.332322951940725 3.179922578922037 16.62361242273503 13.528787950283657
25.859103673340755 2.719938077696987 12.449901109512156 10.689264486131606
19.38436821702542 2.329756535958887 8.87722628421092 8.177385396855616
13.922994530567868 1.99449155863701 5.968027798836352 5.9604751730944985
9.395097171687533 1.6911796851227363 3.6646594403844155 4.039258046180381
5.808149491821229 1.4018133335295988 1.959067948009167 2.4472682102824614
3.1850413346893394 1.1156353573194804 0.8333544241485897 1.2360515532212701
1.5420198932113838 0.8320807875117904 0.2620026379134371 0.4479364677861558
0.6703783694294166 0.550973070327076 0.0289271707112888 0.09047812839105197
0.35183597559540564 0.35836711860621245 -0.0017899415190871422 -0.004741201491719626
0.22855325411927863 0.2285900759265509 -8.91370095215831e-06 -2.790810632014246e-05
0.14202016135242912 0.14201418720938566 3.662909033509835e-07 5.607852140109466e-06
0.06501387294574898 0.06501387294574898 0.0 0.0
0.022930467064778432 0.022930467064778432 0.0 0.0
0.011251308064794865 0.011251308064794865 0.0 0.0
0.04610680121839848 0.04610680121839848 0.0 0.0
0.12198066059541433 0.12198066059541433 0.0 0.0
0.22999713377565345 0.2302527477767835 -3.613251149793524e-05 -0.0002194814896322349
0.4107797125272578 0.4085342957248682 -0.0001967037697309746 0.002442120572120742
0.892392421426851 0.6531710972169165 0.07365855144016692 0.16556277276976805
2.032155533829336 0.9435762139694222 0.40789063059823927 0.6806886892616746
4.066128866093785 1.238205440255762 1.1880751771445819 1.6398482486934416
7.176958970845863 1.5529413451527185 2.5770254075484322 3.046992218144713
11.412144362427423 1.8807721939249873 4.653278936625043 4.87809323187739
16.74988921896834 2.23154559090022 7.423859489108232 7.094484138959891
23.254418469102106 2.6272932112620935 10.958857350936022 9.668267906903992
30.89178114011722 3.08304870016846 15.207481338773334 12.601251101175416
39.98864273000702 3.6126698573555363 20.462885538166187 15.913087334485322
50.389479459140645 4.21162539128451 26.541224507102857 19.63662956075328
62.07337839530241 4.803853147107573 33.533480794403125 23.73604445379175
74.37428783504257 5.110970327193231 41.261820255644025 28.00149725220532
84.87482574582158 4.618162982960142 48.425342890328466 31.83131987253298
89.96062307037585 3.469408159942973 52.50992624606702 33.98128866436584
85.83044547000564 3.340322440275977 49.89965588307115 32.590467146658504
93.80271475044428 19.791028808025754 44.35395170206673 29.657734240351758
85.8304454699923 3.340322440273324 49.89965588306404 32.59046714665495
89.96062307033552 3.469408159930988 52.509926246048344 33.981288664356185
84.87482574578134 4.618162982958067 48.425342890303384 31.8313198725199
74.37428783498984 5.110970327190616 41.26182025561162 28.001497252187626
62.073378395248525 4.803853147104822 33.53348079437038 23.736044453773307
50.38947945909125 4.2116253912840165 26.541224507072176 19.636629560735045
39.988642729954606 3.612669857351978 20.462885538136113 15.913087334466528
30.891781140069625 3.0830487001694684 15.20748133874415 12.601251101156018
23.254418469059193 2.6272932112613643 10.958857350911499 9.668267906886342
16.74988921892915 2.231545590896696 7.423859489088137 7.094484138944316
11.412144362396845 1.8807721939217585 4.653278936610229 4.878093231864855
7.176958970824941 1.5529413451512704 2.5770254075385286 3.0469922181351397
4.0661288660798816 1.23820544025348 1.188075177139359 1.6398482486870432
2.0321555338215647 0.9435762139680701 0.40789063059546526 0.6806886892580292
0.8923924214238164 0.6531710972155716 0.07365855143953261 0.1655627727687121
0.41077971252636786 0.40853429572395605 -0.0001967037697487455 0.002442120572160431
0.22999713377520783 0.23025274777636143 -3.613251150171262e-05 -0.0002194814896517064
0.12198066059518499 0.12198066059518499 0.0 0.0
0.0461068012182495 0.0461068012182495 0.0 0.0
0.011251308064767162 0.011251308064767162 0.0 0.0
0.005468744759768794 0.005468744759768794 0.0 0.0
0.03164276575980657 0.03164276575980657 0.0 0.0
0.10557447565761183 0.10557447565761183 0.0 0.0
0.23896298230090696 0.2396626556262332 -0.00010069359183813658 -0.0005989797334879995
0.4966629882668161 0.46408305507180875 0.006544058792345088 0.026035874402662404
1.1796714467938358 0.7551100200942843 0.14637462787091418 0.2781867988286375
2.576664571667416 1.03565069152592 0.5923756383849251 0.9486382417565709
5.00431825986447 1.3563982884176173 1.586670298530448 2.0612496729164063
8.59409884065743 1.6996054755720444 3.237987227153501 3.6565061379318853
13.48082651567793 2.070381450832396 5.686872756780291 5.723572308065245
19.684073546071215 2.478217346703964 8.971746765531496 8.234109433835748
27.20693612711529 2.9368264206229355 13.101990151618658 11.1681195548737
36.25895787527914 3.470398903993549 18.266679191077408 14.521879780208174
46.687418959389426 4.07771331398736 24.286779778786464 18.32292586661561
58.761875439767906 4.713294364885639 31.494084110328288 22.554496964553984
72.1239824404279 5.291046650924291 39.68919371021575 27.14374207928785
85.98198961486484 5.61050786885858 48.49712670947917 31.874355036527113
98.1425186381622 5.124630614657142 56.82899138550022 36.18889663800485
104.49884263866988 3.5586823558210323 62.12451355365948 38.81564672918935
101.05183735406968 3.366400207196679 59.969200045249615 37.716237101623385
111.22467184127233 22.327171180537572 54.10592964386295 34.7915710168718
101.05183735404593 3.3664002071889296 59.969200045239006 37.71623710161796
104.4988426386464 3.558682355832321 62.124513553636326 38.81564672917778
98.14251863810814 5.124630614650754 56.82899138546864 36.18889663798872
85.9819896148124 5.610507868864577 48.49712670944085 31.874355036507012
72.12398244037048 5.291046650927038 39.68919371017687 27.143742079266527
58.761875439701086 4.713294364876345 31.494084110291656 22.554496964533083
46.68741895932894 4.077713313983803 24.286779778751004 18.322925866594158
36.25895787522394 3.4703989039916774 18.266679191044922 14.521879780187353
27.206936127063468 2.9368264206192474 13.101990151590057 11.168119554854172
19.684073546027015 2.4782173467009123 8.971746765507962 8.23410943381814
13.480826515644193 2.0703814508297835 5.686872756763201 5.723572308051207
8.594098840632096 1.6996054755689511 3.237987227141966 3.656506137921181
5.004318259847241 1.3563982884149028 1.5866702985234593 2.0612496729088794
2.5766645716576106 1.0356506915239094 0.592375638381751 0.9486382417519501
1.179671446789279 0.755110020092533 0.14637462786983133 0.2781867988269147
0.49666298826560196 0.46408305507069936 0.006544058792274369 0.026035874402628334
0.2389629823005191 0.23966265562587186 -0.00010069359184163955 -0.0005989797335111742
0.10557447565736108 0.10557447565736108 0.0 0.0
0.03164276575971377 0.03164276575971377 0.0 0.0
0.00546874475974575 0.00546874475974575 0.0 0.0
0.002595214859936273 0.002595214859936273 0.0 0.0
0.02171159823945802 0.02171159823945802 0.0 0.0
0.0964758720123855 0.0964758720123855 0.0 0.0
0.2635257021582844 0.26476797633341376 -0.0002893366139845384 -0.0009529375611448404
0.630422325355921 0.5472791715914638 0.023897142323312144 0.05924601144114498
1.5085124155957876 0.8421602817777918 0.23566681365813852 0.43068532015985717
3.1934895716954173 1.131624215440936 0.8307072627459962 1.2311580935084863
5.975280782019788 1.4685160476652546 2.0113157659561547 2.495448968398379
10.065775193934872 1.8433948481479616 3.9500550327931148 4.272325312993799
15.594950266173448 2.2624645438652573 6.760193524749607 6.572292197558585
22.659862880384072 2.7308422954406253 10.550111265099465 9.378909319843979
31.363882684564395 3.2656532639008047 15.424713897624798 12.673515523038795
41.58829902550751 3.881126003317878 21.24598146696005 16.4611915552296
53.66012375796396 4.557407254838578 28.36299889319014 20.739717609935227
67.37645138430152 5.232213756251213 36.666091231915885 25.478146396134445
82.2736513903746 5.754533860411918 45.98032166047213 30.53879586949056
97.37456830643295 5.946271247707896 55.80116709537493 35.62712996335012
111.02071323027391 5.650887327412113 65.09835714162269 40.27146876123908
119.28563584590458 4.033857239217227 71.73811025211944 43.51366835456785
117.31538157053708 3.1019789808902543 71.06434103835304 43.149061551293855
130.17171138122177 23.722456955059215 65.81897275611432 40.630281670048234
117.31538157051448 3.1019789808882146 71.06434103833917 43.14906155128711
119.28563584585797 4.033857239210042 71.73811025209308 43.51366835455488
111.02071323022062 5.650887327413925 65.09835714158584 40.271468761220895
97.37456830636357 5.946271247706704 55.80116709532984 35.627129963327015
82.27365139030742 5.754533860410985 45.980321660428814 30.53879586946766
67.37645138423503 5.23221375625383 36.66609123187142 25.478146396109754
53.66012375789594 4.557407254836553 28.362998893148514 20.739717609910866
41.58829902544223 3.8811260033127573 21.24598146692288 16.46119155520658
31.363882684506873 3.2656532638985443 15.424713897591618 12.673515523016725
22.65986288033547 2.7308422954382965 10.550111265072472 9.37890931982471
15.594950266134118 2.2624645438609554 6.760193524730001 6.572292197543161
10.065775193906935 1.8433948481459668 3.95005503277936 4.272325312981605
5.975280782000661 1.468516047663703 2.011315765947487 2.495448968389475
3.1934895716845326 1.1316242154396015 0.8307072627417736 1.2311580935031572
1.50851241559017 0.8421602817763035 0.235666813656455 0.43068532015741157
0.630422325354003 0.54727917159018 0.023897142323080992 0.05924601144074208
0.26352570215780985 0.2647679763328386 -0.00028933661397618273 -0.0009529375610525379
0.09647587201220752 0.09647587201220752 0.0 0.0
0.02171159823940867 0.02171159823940867 0.0 0.0
0.0025952148599240605 0.0025952148599240605 0.0 0.0
0.0007532323695505184 0.0007532323695505184 0.0 0.0
0.015705697686413132 0.015705697686413132 0.0 0.0
0.1000652121519378 0.1000652121519378 0.0 0.0
0.318393048655868 0.3177444113218488 -0.00012629939683179645 0.0007749367308510311
0.8249308619321776 0.6651031825223305 0.05207488312159676 0.10775279628825006
1.9183778138323173 1.0166193576388622 0.33358358792657056 0.5681748682668842
3.891088245185975 1.3926519189017303 1.0347682078610119 1.4636681184232339
7.064616934260535 1.8671039302039056 2.3634465773771116 2.8340664266795175
11.686349420934086 2.446296544842134 4.494520438992296 4.745532437099657
17.996954099007205 3.1657573379005752 7.610879923027148 7.220316838079479
26.134025874342047 4.060510034632594 11.823377887651548 10.250137952057907
36.0838435808265 5.154106858129874 17.105683188716835 13.824053533979788
48.03462263131085 6.440716079617276 23.659022059376262 17.934884492317323
61.98828966298993 7.891561751638126 31.522813617541193 22.573914293810596
77.6831251983153 9.322595847011709 40.68128572377812 27.679243627525462
94.35315659117637 10.39432808365998 50.887394404801114 33.07143410271529
110.54539542959489 10.697804721590474 61.416712165760394 38.43087854224404
124.43278289039756 10.068253867821458 71.14406088009045 43.22046814248574
134.31176578801055 9.089267513443044 78.47524824119381 46.747250033373696
130.60605307737387 3.1305902920896065 79.94809871082623 47.527364074458006
186.1462844353618 62.77175152500034 77.28225792351667 46.092274986844814
130.6060530773473 3.130590292086125 79.94809871081068 47.52736407445053
134.3117657879672 9.089267513446732 78.47524824116172 46.74725003335866
124.43278289031568 10.068253867799157 71.14406088005067 43.22046814246596
110.54539542953216 10.69780472160494 61.41671216570891 38.43087854221834
94.35315659109816 10.394328083653619 50.887394404753934 33.07143410269053
77.68312519823974 9.322595847011577 40.681285723729346 27.679243627498842
61.98828966291005 7.891561751630679 31.522813617495082 22.5739142937843
48.03462263123648 6.440716079609411 23.65902205933492 17.934884492292163
36.0838435807636 5.1541068581274825 17.105683188680082 13.824053533956029
26.1340258742845 4.060510034624579 11.823377887622389 10.250137952037536
17.99695409896272 3.165757337894738 7.610879923005178 7.220316838062809
11.686349420903328 2.4462965448393486 4.494520438977182 4.745532437086798
7.064616934239184 1.8671039302016106 2.363446577367505 2.834066426670065
3.891088245173173 1.3926519188998276 1.0347682078560374 1.4636681184173086
1.918377813825387 1.0166193576368492 0.3335835879246818 0.568174868263855
0.824930861929652 0.6651031825209773 0.052074883121169334 0.10775279628750524
0.31839304865535556 0.3177444113212964 -0.0001262993968199138 0.0007749367308791085
0.1000652121517944 0.1000652121517944 0.0 0.0
0.015705697686387663 0.015705697686387663 0.0 0.0
0.000753232369536605 0.000753232369536605 0.0 0.0
CELL_DATA 800
SCALARS Stress float 6
LOOKUP_TABLE default
158.7143543729954 -511.153175978578 -182.3402545029114 -108.01573041806643 0.0 0.0
398.39005671575427 -50.3557635676807 116.57397336490556 57.55007921124007 0.0 0.0
395.480858725072 8.956326441213541 121.13496954498092 -3.9078650978439198 0.0 0.0
455.6091557252953 -10.32754413726983 138.30925552523954 -14.039618227902572 0.0 0.0
530.2362278975875 -15.278922483405882 186.03505389849678 -11.41064590382221 0.0 0.0
601.0618567895197 -9.063638931127358 255.80183729862983 -9.838070041892367 0.0 0.0
669.6849944812135 -1.715860119577691 316.4858117887918 -9.996480531474562 0.0 0.0
738.4613760560997 13.465280536869379 368.6039346655824 -11.200855184292216 0.0 0.0
808.7338457631759 35.581028321741016 418.0980430820811 -12.620591632762803 0.0 0.0
880.80166660957 63.86998217003415 469.3417005583837 -13.64837676548115 0.0 0.0
953.7381994256458 96.51250943618139 522.6220570157686 -14.125302162273094 0.0 0.0
1026.5509270546418 132.60436354938525 577.4033817615154 -14.068201016513122 0.0 0.0
1099.2041039630662 170.60288300680168 632.9608306941795 -13.83647828017922 0.0 0.0
1172.4427478872994 211.04033625904904 689.9500929853548 -13.557151959112923 0.0 0.0
1247.0111188518058 254.85834754567708 749.2448998864012 -13.141115332883437 0.0 0.0
1322.3871220541366 301.89644618472056 810.5277048771325 -12.397755614875168 0.0 0.0
1396.2839818431494 350.6467578177062 871.9158723077918 -11.13934975595659 0.0 0.0
1465.5567292007318 398.8918304655714 930.7136717586383 -9.430823727882819 0.0 0.0
1527.3237226764286 444.81600941070803 984.5231290660623 -8.161628852455271 0.0 0.0
1601.6873581214397 510.49069758511916 1054.0088228428335 -11.174867650475184 0.0 0.0
1601.6873581211753 510.49069758486667 1054.0088228426587 11.174867650477452 0.0 0.0
1527.3237226757951 444.81600941010964 984.5231290655481 8.161628852365132 0.0 0.0
1465.5567291994757 398.891830464373 930.7136717577222 9.430823727796518 0.0 0.0
1396.2839818423902 350.64675781703795 871.9158723072003 11.139349756055601 0.0 0.0
1322.387122054704 301.89644618540444 810.5277048774147 12.397755614788817 0.0 0.0
1247.0111188520139 254.85834754601626 749.2448998864635 13.141115332909141 0.0 0.0
1172.4427478873758 211.04033625927875 689.9500929853411 13.557151958998114 0.0 0.0
1099.2041039621397 170.60288300604617 632.9608306935244 13.83647828021945 0.0 0.0
1026.5509270541027 132.60436354904854 577.4033817611036 14.068201016462575 0.0 0.0
953.7381994261411 96.51250943692233 522.6220570160299 14.12530216230276 0.0 0.0
880.8016666096191 63.86998217031703 469.341700558366 13.648376765440013 0.0 0.0
808.7338457626529 35.58102832145393 418.0980430817171 12.620591632689417 0.0 0.0
738.4613760555608 13.465280536572479 368.6039346651969 11.200855184231772 0.0 0.0
669.6849944806232 -1.7158601198963837 316.48581178835724 9.996480531525014 0.0 0.0
601.0618567889641 -9.063638931446874 255.80183729817756 9.83807004188714 0.0 0.0
530.2362278972172 -15.278922483528513 186.03505389822206 11.410645903782992 0.0 0.0
455.60915572508895 -10.327544137213232 138.30925552518096 14.03961822794718 0.0 0.0
395.48085872501343 8.95632644117888 121.13496954495609 3.907865097742843 0.0 0.0
398.3900567156885 -50.355763567655536 116.57397336485346 -57.55007921122135 0.0 0.0
158.71435437354205 -511.153175978048 -182.34025450238713 108.01573041768623 0.0 0.0
60.11811863112311 -540.6372659984386 -241.28254191228297 -152.80630777303952 0.0 0.0
254.14034171981646 -36.41174436621972 65.31821320635773 11.268020370732726 0.0 0.0
346.6127994237404 27.149596261138527 112.12822857913574 -10.173404722727202 0.0 0.0
418.4863958454547 -7.870160211773954 124.1401164875949 -33.790322463596034 0.0 0.0
501.128495218775 -16.168085355990577 164.74118861707387 -32.38149426181205 0.0 0.0
576.7207042288449 -10.284530117227849 234.0556954252857 -29.088930067991544 0.0 0.0
649.3032452833587 -2.996465029147217 300.1652409392891 -29.605320022451146 0.0 0.0
719.0885534668271 11.581702058297488 355.6383857164771 -31.43731163114828 0.0 0.0
788.2525229953849 32.322697691312506 405.29823754833615 -33.61457465358952 0.0 0.0
857.5963079989585 58.22539511956259 454.47513581915524 -34.950982397313936 0.0 0.0
926.5097827106248 87.55456012594864 504.2741697447626 -35.14314209946947 0.0 0.0
994.673976401385 118.97652778617395 554.4701312484394 -34.53089897937813 0.0 0.0
1062.2820990869152 152.78815567431178 605.4446308468084 -33.61765134988426 0.0 0.0
1130.4622221937116 188.8921919396036 657.7648286196938 -32.66274538182579 0.0 0.0
1199.587250386447 227.71344992535455 711.8661240539157 -31.480530474411438 0.0 0.0
1269.1376204885148 269.25488768186665 767.5120305631061 -29.64422446427064 0.0 0.0
1337.678460893164 312.7491178023093 823.5977760043854 -26.88640337189157 0.0 0.0
1403.428400921723 357.3940700756407 878.8070561451173 -23.557357455298003 0.0 0.0
1469.1772463149623 407.3652387234968 936.507600224397 -20.746187097722167 0.0 0.0
1517.33903194417 446.4699119060508 979.9662963008294 -17.870250840799315 0.0 0.0
1517.3390319442522 446.4699119061488 979.966296300917 17.870250840862727 0.0 0.0
1469.1772463152677 407.3652387238469 936.5076002245976 20.746187097767574 0.0 0.0
1403.4284009224662 357.39407007645735 878.8070561455445 23.557357455337822 0.0 0.0
1337.6784608928294 312.74911780207003 823.5977760040729 26.88640337199035 0.0 0.0
1269.1376204875787 269.25488768102184 767.5120305623943 29.64422446417364 0.0 0.0
1199.5872503865282 227.71344992555382 711.8661240538324 31.480530474337442 0.0 0.0
1130.4622221932996 188.89219193933843 657.7648286193339 32.66274538178611 0.0 0.0
1062.2820990858215 152.78815567337878 605.4446308460781 33.61765134985994 0.0 0.0
994.6739764000379 118.97652778500029 554.4701312474888 34.53089897931386 0.0 0.0
926.5097827102475 87.55456012583286 504.27416974449835 35.143142099591756 0.0 0.0
857.5963079989021 58.225395119718854 454.47513581908237 34.95098239721169 0.0 0.0
788.2525229948549 32.3226976910279 405.298237547942 33.61457465355082 0.0 0.0
719.0885534669276 11.581702058650805 355.63838571649086 31.437311631072685 0.0 0.0
649.3032452828259 -2.996465029374427 300.1652409388785 29.60532002257014 0.0 0.0
576.7207042285604 -10.28453011718419 234.05569542501127 29.088930068023778 0.0 0.0
501.12849521853013 -16.168085355927392 164.74118861691568 32.38149426181647 0.0 0.0
418.4863958451491 -7.8701602119338885 124.14011648746171 33.79032246362793 0.0 0.0
346.61279942357555 27.149596260654505 112.12822857894147 10.173404722880713 0.0 0.0
254.14034171993399 -36.41174436590516 65.31821320648773 -11.26802037090723 0.0 0.0
60.11811863143683 -540.6372659981423 -241.28254191195361 152.8063077727364 0.0 0.0
11.795973685716746 -545.1981939595357 -259.94474284332654 -167.0317650016817 0.0 0.0
146.13544823173427 -31.12916068693833 34.50188626343877 -41.84902647425847 0.0 0.0
282.00084962191465 31.057169019430837 93.91740559240364 -32.78961705050359 0.0 0.0
371.28197002577224 0.12740828485237543 111.63462833370117 -52.84102156470715 0.0 0.0
462.49111276716496 -14.686661350943696 144.26759938099462 -55.5205411811403 0.0 0.0
549.2015794524709 -13.557135844562673 208.1842044689006 -50.40611999126995 0.0 0.0
624.696011643542 -3.4008320616618235 280.4362663534358 -49.52276522315544 0.0 0.0
695.3220261566751 9.737806092976179 339.40622172403624 -51.629627186681944 0.0 0.0
763.8992406055073 29.158808812950554 390.1749038955129 -54.19038067408425 0.0 0.0
830.5169142097642 52.40328349341472 437.42890837966786 -55.56405507462626 0.0 0.0
895.4821221081478 78.08675046638501 483.69440601709306 -55.41517269104005 0.0 0.0
958.9024369337183 105.61302633779502 529.6756793352539 -54.23793613525307 0.0 0.0
1021.8694103569474 134.74238277917945 576.0399038970977 -52.82459649499265 0.0 0.0
1084.8418825684194 166.30925216985162 623.5255298283829 -51.27148666456996 0.0 0.0
1148.322511141495 199.9725714605395 672.2581864777934 -49.35501993709508 0.0 0.0
1212.043846113755 235.7998033365334 722.1568185936899 -46.59937279733278 0.0 0.0
1275.3711650774305 273.97408448266395 772.976148576603 -42.7295392549005 0.0 0.0
1338.919449198665 316.19485985906925 825.8333975384302 -38.11422347915286 0.0 0.0
1398.0266573173767 359.02987582549673 876.7075583221289 -32.48301631188547 0.0 0.0
1439.1771414599352 390.14567116671316 912.7239937689217 -23.76003820406399 0.0 0.0
1439.1771414591549 390.1456711659439 912.7239937682616 23.76003820405498 0.0 0.0
1398.026657315957 359.02987582410447 876.7075583209547 32.48301631193983 0.0 0.0
1338.9194491977846 316.1948598582545 825.8333975377446 38.11422347918946 0.0 0.0
1275.3711650768591 273.9740844821772 772.9761485760306 42.72953925498341 0.0 0.0
1212.0438461136755 235.79980333658796 722.1568185936272 46.59937279740552 0.0 0.0
1148.3225111419627 199.97257146113122 672.258186478093 49.355019937091214 0.0 0.0
1084.8418825682727 166.30925216986722 623.5255298281874 51.27148666459401 0.0 0.0
1021.8694103555024 134.7423827778792 576.0399038960529 52.82459649501125 0.0 0.0
958.9024369332282 105.61302633749656 529.6756793348891 54.237936135239806 0.0 0.0
895.4821221078016 78.08675046628679 483.69440601687654 55.4151726911509 0.0 0.0
830.5169142096295 52.40328349349336 437.42890837953047 55.56405507452786 0.0 0.0
763.8992406054983 29.158808813184237 390.17490389549897 54.1903806740485 0.0 0.0
695.3220261570631 9.737806093658946 339.4062217242213 51.629627186611096 0.0 0.0
624.6960116435935 -3.400832061249382 280.43626635337756 49.52276522323762 0.0 0.0
549.2015794522683 -13.557135844453825 208.18420446868214 50.40611999123484 0.0 0.0
462.49111276697636 -14.68666135073407 144.2675993809285 55.5205411812132 0.0 0.0
371.2819700255742 0.12740828485152633 111.63462833365031 52.84102156465074 0.0 0.0
282.0008496218314 31.057169019065736 93.91740559226913 32.789617050409646 0.0 0.0
146.13544823188664 -31.129160686586314 34.501886263590094 41.84902647398091 0.0 0.0
11.795973685875111 -545.1981939592896 -259.9447428430526 167.03176500149286 0.0 0.0
-6.042648064860089 -530.7248229580181 -252.78067750636268 -169.34829971642566 0.0 0.0
85.95357057475891 -33.266244295882686 15.806197883662861 -86.82949347931917 0.0 0.0
220.7024168286802 29.231373417461484 74.98013707384251 -62.53991198714 0.0 0.0
320.1446274956114 6.709158181880013 98.04807088662855 -73.51724584621341 0.0 0.0
414.2086015159101 -11.932114837651616 124.5497299096115 -80.44707828965983 0.0 0.0
510.1732673307629 -14.815042558062666 180.2157347641791 -73.82254745347109 0.0 0.0
593.0338552359998 -5.28530431960823 254.3930939015624 -70.28761334330385 0.0 0.0
666.9238855111855 8.517740460486511 319.5921031668999 -71.92088758749357 0.0 0.0
734.7748195791717 25.852044486934105 371.82841751655576 -74.32562028974418 0.0 0.0
798.9123397849214 46.34612014964267 417.69646031546876 -75.49516005132017 0.0 0.0
860.1436291107739 68.48755564398468 460.76981549931145 -74.94597142078666 0.0 0.0
919.3291563817005 91.97586230436147 502.7771947213345 -73.28677984823682 0.0 0.0
977.2160046435326 116.7636532562865 544.5054476544932 -71.37706055722681 0.0 0.0
1035.2794263143496 143.53208448981036 587.1898315529272 -69.36922127430662 0.0 0.0
1093.213453482941 171.77444425341224 630.4797492619587 -66.82878013997156 0.0 0.0
1150.758655332344 201.8626929508054 674.4472396642706 -63.30231329060539 0.0 0.0
1209.1166529832676 234.8271264099401 720.1822650575268 -58.666482712435695 0.0 0.0
1267.829750276604 271.6010944681013 767.9099659074013 -52.74655696484939 0.0 0.0
1322.1193519604712 308.470520643778 813.4152424718819 -44.11056653111798 0.0 0.0
1360.7597326729938 335.3753508784513 846.0836314766027 -30.00662140265216 0.0 0.0
1360.759732673017 335.37535087847834 846.0836314767203 30.006621402626177 0.0 0.0
1322.1193519608432 308.4705206442111 813.4152424721954 44.110566531242306 0.0 0.0
1267.8297502779462 271.60109446953965 767.9099659083928 52.746556964990816 0.0 0.0
1209.1166529840125 234.82712641078854 720.1822650581114 58.66648271246231 0.0 0.0
1150.7586553320318 201.86269295058412 674.4472396639974 63.30231329056546 0.0 0.0
1093.2134534821703 171.77444425275206 630.4797492613097 66.82878013998412 0.0 0.0
1035.27942631385 143.5320844894848 587.1898315526001 69.3692212744122 0.0 0.0
977.2160046434518 116.76365325641825 544.5054476544244 71.3770605573899 0.0 0.0
919.3291563814118 91.97586230425634 502.77719472109595 73.28677984819338 0.0 0.0
860.1436291103162 68.48755564371471 460.7698154989932 74.94597142072105 0.0 0.0
798.9123397845061 46.34612014943555 417.69646031516334 75.49516005125945 0.0 0.0
734.77481957878 25.852044486806236 371.82841751625546 74.32562028975273 0.0 0.0
666.9238855108915 8.517740460400873 319.5921031666153 71.92088758729753 0.0 0.0
593.0338552354516 -5.28530431988159 254.39309390112024 70.28761334330754 0.0 0.0
510.1732673299794 -14.81504255856636 180.21573476364816 73.8225474534216 0.0 0.0
414.208601515524 -11.932114837724317 124.54972990945642 80.44707828955308 0.0 0.0
320.1446274954598 6.709158181942538 98.04807088660317 73.51724584605938 0.0 0.0
220.70241682882994 29.231373417757453 74.98013707397621 62.539911986962785 0.0 0.0
85.9535705749257 -33.26624429560379 15.806197883796571 86.82949347905016 0.0 0.0
-6.042648064746942 -530.7248229577568 -252.78067750609057 169.34829971629176 0.0 0.0
-9.531697514039948 -505.2481119778864 -231.61984115562893 -167.3282927954478 0.0 0.0
51.28274244796313 -36.360034337474076 4.476812433146717 -121.80424597110131 0.0 0.0
167.66199221366355 24.513257825816012 57.65257501184386 -92.61084493406013 0.0 0.0
266.10609620282577 10.487434927587746 82.97695893426275 -95.66911134606448 0.0 0.0
356.93540003003454 -7.028664479393198 106.09742873902672 -104.49311968133435 0.0 0.0
459.7946623253573 -15.030120663691283 151.3059637238873 -100.3461069372791 0.0 0.0
553.6508602706168 -7.822414111033451 222.73774559194266 -93.17320660841801 0.0 0.0
632.1545853900654 6.853065355861375 294.0605160418528 -92.31978024025705 0.0 0.0
700.1325956181628 22.63689516730662 349.4349222277338 -94.08475691497333 0.0 0.0
762.1002887809284 40.07489442450103 394.681315760108 -94.79746837178986 0.0 0.0
819.9887778408545 58.72133525262639 435.09775465174414 -93.77946265499807 0.0 0.0
874.819645180648 78.1832209890784 473.20309510837876 -91.63194437179574 0.0 0.0
928.0756584786955 98.65927268738656 510.60296723813394 -89.37899876042682 0.0 0.0
980.5768848411221 120.62017654997507 548.1704250337528 -86.92051059941545 0.0 0.0
1033.0034837756334 143.63984377049135 586.1404971362017 -83.85209664450944 0.0 0.0
1085.311345620738 167.92028420674123 624.6287359997315 -79.82482183749508 0.0 0.0
1137.344603086222 194.56553463534132 664.075952750032 -74.56971443655844 0.0 0.0
1190.2837898359653 224.78644454536305 705.6611353505596 -67.5233257962968 0.0 0.0
1240.7989985376703 256.0583875895865 746.48332459364 -56.192369200957074 0.0 0.0
1279.488197968926 280.4357253638871 777.8914648230455 -37.132612253676825 0.0 0.0
1279.488197969379 280.4357253643555 777.8914648233837 37.132612253691235 0.0 0.0
1240.7989985371203 256.0583875891126 746.4833245932258 56.19236920114216 0.0 0.0
1190.2837898351606 224.78644454466087 705.6611353499233 67.52332579650502 0.0 0.0
1137.3446030859889 194.56553463520018 664.0759527497785 74.56971443662461 0.0 0.0
1085.3113456209637 167.9202842071208 624.628735999794 79.82482183765504 0.0 0.0
1033.0034837759745 143.63984377096645 586.1404971363604 83.85209664448644 0.0 0.0
980.5768848412466 120.62017655032179 548.1704250338427 86.92051059962654 0.0 0.0
928.0756584779323 98.65927268679272 510.602967237563 89.37899876045071 0.0 0.0
874.819645179839 78.18322098842212 473.2030951077468 91.63194437174329 0.0 0.0
819.9887778398983 58.72133525185052 435.09775465103235 93.77946265496539 0.0 0.0
762.1002887809645 40.074894424794294 394.68131576006346 94.79746837182168 0.0 0.0
700.1325956178918 22.636895167330138 349.43492222754554 94.08475691499712 0.0 0.0
632.1545853895409 6.853065355563629 294.06051604141817 92.31978024017381 0.0 0.0
553.6508602704328 -7.82241411087486 222.73774559170838 93.17320660836614 0.0 0.0
459.794662325054 -15.030120663553445 151.30596372370925 100.34610693727032 0.0 0.0
356.9354000298122 -7.028664479168002 106.09742873903068 104.49311968133162 0.0 0.0
266.1060962028125 10.487434927928383 82.9769589343621 95.66911134597385 0.0 0.0
167.6619922136398 24.513257825757034 57.65257501181904 92.61084493391282 0.0 0.0
51.28274244808456 -36.360034337336636 4.47681243322438 121.80424597089208 0.0 0.0
-9.53169751396075 -505.24811197763654 -231.61984115537052 167.32829279532297 0.0 0.0
-6.575810173399162 -472.449620254893 -202.8775963743417 -164.01257260091185 0.0 0.0
29.67790517930797 -38.73391769409719 -2.716803754436767 -147.7493199447485 0.0 0.0
122.12002056180239 18.732355762443998 42.25571289727391 -119.33945653457546 0.0 0.0
211.30521962132644 12.317175283177288 67.08274201276757 -117.60618489463099 0.0 0.0
295.36897055782794 -2.1081736210353297 88.21995048738191 -126.72331567668698 0.0 0.0
393.55564109803595 -13.397614220731045 122.32351434663467 -128.176769729085 0.0 0.0
498.1952369913182 -9.125632321943424 185.8833028767044 -119.16813596150322 0.0 0.0
586.2785092782063 3.67996735855516 259.51311986155196 -114.06942172861784 0.0 0.0
658.2472294249189 19.063694900749113 320.9688609941668 -113.74372278214682 0.0 0.0
718.9092242872368 33.763132982104025 367.26405272900934 -113.49780347669461 0.0 0.0
773.4404852873954 48.669359704127515 405.53826042927625 -111.93769434458135 0.0 0.0
824.3530512645748 64.29093458368223 440.3488164763297 -109.35100359423886 0.0 0.0
872.8167561036428 80.61642787040374 473.5332176749744 -106.71759581289342 0.0 0.0
920.0437299246704 97.61157841222337 506.1169718236082 -104.0346112263491 0.0 0.0
967.1160820117038 115.44097446646755 538.8778422723049 -100.5975340273495 0.0 0.0
1013.4502578436058 134.35980228616614 571.7450760038333 -95.98938638789853 0.0 0.0
1059.2406020872209 153.92570913804795 604.6020070710674 -90.33462544393088 0.0 0.0
1105.4276282113983 176.11883522873282 638.844017893865 -82.59686752670356 0.0 0.0
1152.1171705159227 201.4161174085891 674.7512858534709 -69.17159721832189 0.0 0.0
1192.8512853169696 224.14090277211324 706.2958563956837 -45.693311640730165 0.0 0.0
1192.8512853172374 224.14090277243727 706.2958563958367 45.693311640941076 0.0 0.0
1152.1171705161514 201.41611740893268 674.7512858536611 69.17159721857308 0.0 0.0
1105.4276282103672 176.11883522778538 638.8440178932133 82.59686752685707 0.0 0.0
1059.2406020857509 153.92570913663172 604.6020070700889 90.33462544393012 0.0 0.0
1013.450257842541 134.3598022851592 571.7450760030416 95.98938638786214 0.0 0.0
967.1160820101474 115.44097446495749 538.8778422711778 100.59753402723317 0.0 0.0
920.0437299224295 97.61157841007349 506.1169718220411 104.03461122638443 0.0 0.0
872.8167561026011 80.61642786948087 473.5332176742495 106.71759581284815 0.0 0.0
824.3530512644378 64.29093458375013 440.34881647619926 109.35100359427409 0.0 0.0
773.4404852870837 48.669359704052965 405.5382604290606 111.93769434462084 0.0 0.0
718.909224286934 33.763132981988164 367.26405272875405 113.49780347660699 0.0 0.0
658.2472294243175 19.063694900365924 320.96886099370033 113.74372278207444 0.0 0.0
586.2785092780432 3.6799673586681934 259.5131198613238 114.06942172853321 0.0 0.0
498.19523699078803 -9.125632322183229 185.88330287630174 119.16813596144992 0.0 0.0
393.55564109736224 -13.397614221144355 122.3235143462646 128.176769729017 0.0 0.0
295.368970557496 -2.1081736211204563 88.21995048726467 126.72331567652498 0.0 0.0
211.30521962135902 12.317175283538656 67.08274201288715 117.60618489454413 0.0 0.0
122.12002056189846 18.732355762668178 42.25571289736998 119.33945653437476 0.0 0.0
29.677905179311168 -38.733917694047015 -2.716803754420754 147.7493199444752 0.0 0.0
-6.575810173317443 -472.44962025462956 -202.87759637407476 164.01257260078512 0.0 0.0
-0.9391234278604372 -433.79799727793915 -170.23966594921228 -160.5853770834674 0.0 0.0
13.887698392369154 -41.02576124722668 -8.141471064709908 -165.8500685978857 0.0 0.0
81.87558981065965 13.10050022382002 28.4928270103439 -141.18568939216397 0.0 0.0
157.10092326932926 13.728658890137481 51.245751070152835 -137.6374719237749 0.0 0.0
230.29880981322273 1.380160376384607 69.64930043046411 -146.70705390637883 0.0 0.0
316.8547612579731 -9.259029613161509 95.14282161365486 -154.42799239218365 0.0 0.0
424.2634288296677 -9.63450185163401 145.2208593081216 -148.27563692837796 0.0 0.0
523.9586706849208 0.771197101882998 215.53793202035666 -138.54205951142342 0.0 0.0
603.4817614142491 14.227554413430067 281.83975235515413 -134.11186983036663 0.0 0.0
666.366585885582 27.21192479385521 332.5713967643112 -131.86031301810104 0.0 0.0
718.1665906354632 38.36713985645197 370.1562801140293 -129.4721576518355 0.0 0.0
765.4312433101883 50.34606626262058 402.5710013729476 -126.45127362074166 0.0 0.0
809.2570493983897 62.48669315044567 431.9289719147567 -123.50499801289833 0.0 0.0
851.0311043918935 74.8818160892659 459.79833663431486 -120.63182436416673 0.0 0.0
891.9782633222026 87.21480357740968 486.8865838695165 -117.05250411000172 0.0 0.0
933.623087391969 100.95542815412864 514.8780596431238 -112.06759504248438 0.0 0.0
972.9172543959605 113.87904096093857 541.2668423710841 -105.76787977202122 0.0 0.0
1010.7156807082932 126.64551686605913 566.7077220872259 -97.82000572855321 0.0 0.0
1052.8043409529694 143.7161020897521 596.1822774749182 -83.50861084596252 0.0 0.0
1097.6060657268288 165.08692756279038 628.9648010351019 -56.52015429051952 0.0 0.0
1097.606065727208 165.08692756322742 628.9648010354315 56.52015429070323 0.0 0.0
1052.8043409532013 143.7161020901172 596.1822774751596 83.50861084625542 0.0 0.0
1010.7156807088902 126.64551686678618 566.7077220876039 97.8200057287624 0.0 0.0
972.9172543961995 113.87904096139061 541.2668423711928 105.76787977232459 0.0 0.0
933.6230873924444 100.95542815481915 514.8780596433946 112.06759504268078 0.0 0.0
891.9782633231409 87.21480357861736 486.8865838701271 117.05250411018058 0.0 0.0
851.0311043924521 74.88181609003294 459.7983366346344 120.63182436430009 0.0 0.0
809.2570493987818 62.48669315114117 431.9289719150008 123.5049980130868 0.0 0.0
765.4312433107141 50.346066263465886 402.5710013733015 126.45127362090967 0.0 0.0
718.1665906356588 38.367139856961444 370.1562801141398 129.47215765194136 0.0 0.0
666.3665858856338 27.211924794074278 332.57139676426306 131.86031301796032 0.0 0.0
603.4817614136405 14.227554413021991 281.8397523546995 134.1118698303217 0.0 0.0
523.9586706841841 0.7711971014419703 215.5379320198204 138.54205951142495 0.0 0.0
424.2634288291925 -9.634501851760993 145.22085930782833 148.27563692836793 0.0 0.0
316.8547612578353 -9.259029612614082 95.14282161375866 154.42799239208054 0.0 0.0
230.29880981318345 1.3801603768571455 69.64930043059982 146.70705390622084 0.0 0.0
157.1009232693447 13.728658890318798 51.24575107021285 137.63747192367705 0.0 0.0
81.87558981057265 13.10050022370953 28.49282701028465 141.185689391912 0.0 0.0
13.887698392279436 -41.02576124722776 -8.141471064737084 165.85006859773182 0.0 0.0
-0.9391234277861358 -433.7979972775915 -170.23966594893858 160.58537708338525 0.0 0.0
3.469896966554373 -390.81102720602144 -138.48744483420802 -157.71242147266636 0.0 0.0
-1.1746769046704895 -43.686318684397534 -13.457762867959964 -176.4111780990662 0.0 0.0
45.143037040516525 8.590040874824435 16.119827978736247 -158.14522501902675 0.0 0.0
104.27285543382368 15.059480298502105 35.798043956950586 -154.40678022477454 0.0 0.0
163.0466743807304 3.940219040112704 50.17842281967509 -164.17425705204099 0.0 0.0
230.15612830604724 -4.2102549051463765 69.01322960458259 -175.340688339912 0.0 0.0
325.0908685020391 -7.379703310762636 103.41318948787948 -178.056931251125 0.0 0.0
435.2736179846693 -1.45243188591885 161.69771169814496 -167.4158217742013 0.0 0.0
527.2017320467073 8.726529166843234 227.49224111732727 -157.04258834407406 0.0 0.0
595.7834524912431 19.67601866999346 283.3806815621916 -150.59011861888914 0.0 0.0
648.5245444879866 27.729112579488962 323.9173069798257 -146.7916295842988 0.0 0.0
692.1735630574776 36.0460172844502 355.3970356278476 -143.0254684354007 0.0 0.0
731.5738101149674 44.544664844346144 382.2532002333143 -139.73038612320465 0.0 0.0
767.9388196431439 52.353413133941274 405.97110932505024 -136.74587276667296 0.0 0.0
802.969063005103 59.447039295584496 427.9634483064258 -133.28370805398706 0.0 0.0
838.5593114637891 67.16625696305253 450.0632773664137 -128.16707349734912 0.0 0.0
874.2323457029903 75.16990021663585 472.25072407790236 -121.0648888132363 0.0 0.0
903.5954399435603 78.26163683178893 488.9032708396323 -112.76865798030288 0.0 0.0
935.863337157074 82.28402820414466 506.99668930162176 -99.18033928925325 0.0 0.0
985.697488973298 100.9734105322498 540.6952186921401 -70.7746988672565 0.0 0.0
985.6974889729062 100.9734105318984 540.6952186918527 70.77469886739794 0.0 0.0
935.8633371565409 82.28402820369101 506.9966893012117 99.18033928945735 0.0 0.0
903.595439943172 78.26163683158273 488.9032708393034 112.76865798057857 0.0 0.0
874.2323457022442 75.16990021603354 472.2507240773166 121.06488881339595 0.0 0.0
838.5593114632243 67.1662569624564 450.06327736598126 128.16707349716955 0.0 0.0
802.9690630035559 59.44703929405364 427.9634483054112 133.28370805391032 0.0 0.0
767.9388196420147 52.35341313274914 405.97110932427313 136.74587276653364 0.0 0.0
731.5738101141455 44.54466484351549 382.25320023277595 139.73038612311822 0.0 0.0
692.1735630565731 36.0460172836126 355.3970356272105 143.02546843533565 0.0 0.0
648.5245444877277 27.72911257934456 323.9173069795971 146.79162958416177 0.0 0.0
595.7834524909302 19.676018669723156 283.3806815618586 150.59011861866816 0.0 0.0
527.2017320465748 8.726529167038215 227.49224111717558 157.04258834407892 0.0 0.0
435.27361798411846 -1.4524318860144376 161.69771169780608 167.41582177425875 0.0 0.0
325.09086850164533 -7.379703310766806 103.41318948770837 178.05693125102587 0.0 0.0
230.15612830566118 -4.2102549053951535 69.0132296043917 175.34068833969843 0.0 0.0
163.04667438053116 3.9402190400779036 50.17842281961073 164.17425705197093 0.0 0.0
104.272855433779 15.05948029858352 35.798043956962424 154.40678022462757 0.0 0.0
45.14303704062672 8.590040875140955 16.11982797886463 158.14522501874177 0.0 0.0
-1.1746769046343624 -43.686318684203925 -13.457762867891324 176.41117809887504 0.0 0.0
3.469896966526573 -390.8110272057738 -138.4874448340237 157.71242147251508 0.0 0.0
1.688498972700522 -344.2947126868189 -112.37895796459247 -153.2328010669296 0.0 0.0
-18.51849430638333 -47.65921976735616 -19.851589067551686 -182.25476342994463 0.0 0.0
10.973876977011171 5.979089268829523 5.085594031895229 -170.33508150809763 0.0 0.0
52.955443460500106 16.00619486080756 20.687377772891868 -167.39427659680376 0.0 0.0
94.38420208211244 7.4373914853464305 30.603522500750206 -176.92099399267425 0.0 0.0
138.9378384792221 -0.7858711381442449 42.04087216735971 -191.6219409506207 0.0 0.0
202.15491634137032 -2.9348067511351035 62.48072918206299 -201.12738056147774 0.0 0.0
298.7560412638586 -0.6149371759871567 99.78886972559398 -198.6271661518913 0.0 0.0
404.79574357852795 4.42081178123926 152.84972421885692 -185.69370899662079 0.0 0.0
486.5060467286314 10.723748451959707 207.15924939783213 -172.31605493669426 0.0 0.0
544.2330688177562 17.118933082599618 252.04968838424892 -164.56370091054612 0.0 0.0
586.788529357291 21.246950168442766 285.11155501966994 -159.573465718617 0.0 0.0
622.7002319729156 26.41011642795523 312.1990302120526 -155.6561028403505 0.0 0.0
653.9477460933477 30.301447929600457 334.12722493614 -152.3657757195546 0.0 0.0
682.3668308509743 32.20747489199174 352.0753969749048 -148.96192889410332 0.0 0.0
711.1334664370011 33.34654820948526 368.5050250225775 -144.37221501983132 0.0 0.0
743.6746053470512 35.614876406295835 386.47440423233735 -136.81477033493712 0.0 0.0
773.9914725816622 35.24116402424686 402.152807731062 -126.8951242175437 0.0 0.0
790.4835210784358 18.59582054512684 402.761759445816 -115.11778956056712 0.0 0.0
841.6661628361599 26.285897231948553 430.9996828518628 -90.26368365288421 0.0 0.0
841.6661628364238 26.285897232305047 430.99968285211185 90.26368365319854 0.0 0.0
790.4835210782227 18.595820545043097 402.7617594457704 115.11778956087491 0.0 0.0
773.9914725806476 35.24116402329943 402.15280773040627 126.89512421767876 0.0 0.0
743.674605346423 35.61487640566125 386.4744042318504 136.8147703350743 0.0 0.0
711.1334664371441 33.34654820984687 368.50502502267443 144.3722150198406 0.0 0.0
682.3668308521511 32.20747489341572 352.07539697569075 148.96192889425683 0.0 0.0
653.9477460940304 30.30144793081007 334.12722493670833 152.36577571981098 0.0 0.0
622.7002319732519 26.410116428591138 312.19903021230385 155.6561028405394 0.0 0.0
586.788529356691 21.24695016804236 285.11155501925634 159.57346571864747 0.0 0.0
544.2330688172783 17.118933082251566 252.04968838387458 164.56370091049212 0.0 0.0
486.5060467285717 10.723748452187472 207.1592493977476 172.3160549366632 0.0 0.0
404.7957435783477 4.420811781570048 152.8497242187895 185.69370899669516 0.0 0.0
298.7560412636462 -0.6149371755274569 99.78886972561041 198.62716615196365 0.0 0.0
202.15491634150416 -2.934806750016552 62.48072918242736 201.1273805613991 0.0 0.0
138.93783847927065 -0.7858711376913394 42.040872167503565 191.62194095039683 0.0 0.0
94.38420208203613 7.437391485350898 30.603522500731835 176.92099399246115 0.0 0.0
52.95544346056158 16.0061948611034 20.687377772999465 167.39427659663338 0.0 0.0
10.973876977014898 5.979089268916445 5.085594031922543 170.3350815078833 0.0 0.0
-18.51849430643821 -47.659219767354074 -19.851589067568288 182.25476342976873 0.0 0.0
1.6884989725935142 -344.29471268646387 -112.37895796446222 153.2328010668465 0.0 0.0
-6.121289221896035 -295.4090503125209 -92.56340751833412 -145.0551849121413 0.0 0.0
-36.70506260409969 -52.3906415890014 -26.725963017874932 -185.54583961925408 0.0 0.0
-21.37100159518828 4.857391508759465 -4.953930401021822 -178.19122564806415 0.0 0.0
3.158954816484264 16.749002300652634 5.97180371538457 -175.99643330855454 0.0 0.0
25.568777652499307 11.155078763041994 11.033245368250858 -184.66034008099524 0.0 0.0
44.72643265693615 3.30781361762073 14.607134397647357 -200.34329238523043 0.0 0.0
67.49395036581683 -0.13616708960402946 21.021620907813258 -214.5116941953107 0.0 0.0
103.09038729221976 0.13479858524542454 33.092678954230976 -220.34906907836785 0.0 0.0
160.6977109372049 3.500992625210781 54.250900631261004 -212.73082596566022 0.0 0.0
230.00972304912295 4.930310580242381 81.13014653062731 -199.55758048925378 0.0 0.0
291.6830613988686 7.690861808170844 111.87983195262468 -185.67006213535274 0.0 0.0
341.8802557938403 8.701114368536793 141.3064462536788 -177.86587366186853 0.0 0.0
382.79633601989235 9.432183174344601 168.38472506310782 -172.19491473901914 0.0 0.0
412.6971719717763 8.83963872736085 190.21007390747639 -167.27943973254807 0.0 0.0
437.1124330342211 5.808582713579668 207.60723204510072 -163.2312324395576 0.0 0.0
464.2906741325059 -0.028711269227130742 223.22625263692777 -159.35298063088106 0.0 0.0
500.16885861444246 -5.967530657513834 240.77112924021833 -153.07562330163435 0.0 0.0
546.812431900838 -8.401295382014467 264.17112237263433 -142.25979078150368 0.0 0.0
580.5551546023138 -28.55499403991476 274.1327802454193 -127.21989314234771 0.0 0.0
606.9112838037651 -76.69034926749359 262.2366625070234 -113.67159779569158 0.0 0.0
606.9112838032507 -76.69034926804781 262.2366625067198 113.67159779594176 0.0 0.0
580.5551546022083 -28.55499404003129 274.13278024533827 127.21989314267928 0.0 0.0
546.8124319006379 -8.401295382140034 264.1711223725172 142.2597907818531 0.0 0.0
500.1688586150514 -5.96753065673164 240.77112924063087 153.0756233017114 0.0 0.0
464.29067413303716 -0.02871126859545825 223.22625263724336 159.35298063087458 0.0 0.0
437.11243303411084 5.808582713657586 207.60723204504262 163.2312324395956 0.0 0.0
412.6971719719501 8.839638727490907 190.21007390750557 167.2794397325898 0.0 0.0
382.79633602044225 9.432183175301496 168.38472506347446 172.1949147392375 0.0 0.0
341.880255794232 8.70111436953323 141.30644625404628 177.86587366197006 0.0 0.0
291.6830613989684 7.690861808481806 111.87983195269949 185.67006213541924 0.0 0.0
230.00972304875896 4.930310579765539 81.13014653035798 199.55758048917727 0.0 0.0
160.69771093672114 3.500992624506493 54.250900630880814 212.7308259657031 0.0 0.0
103.09038729204323 0.13479858490469177 33.09267895406822 220.34906907833764 0.0 0.0
67.49395036576615 -0.13616708949946243 21.021620907828733 214.51169419520213 0.0 0.0
44.72643265690891 3.3078136176537365 14.607134397648542 200.34329238497867 0.0 0.0
25.568777652392946 11.15507876282745 11.033245368155432 184.66034008075167 0.0 0.0
3.1589548164599863 16.749002300517024 5.971803715336284 175.99643330839416 0.0 0.0
-21.371001595277708 4.857391508683512 -4.953930401071545 178.1912256478648 0.0 0.0
-36.705062604178224 -52.39064158907689 -26.725963017922112 185.5458396191298 0.0 0.0
-6.1212892220047745 -295.4090503122563 -92.56340751827481 145.05518491198697 0.0 0.0
-17.601563545951294 -247.53564115530327 -79.57333246454141 -133.93025315938877 0.0 0.0
-52.497279911013536 -54.36236219955519 -32.0563754336085 -185.47333631876973 0.0 0.0
-52.28910112334377 3.939069548096132 -14.507007244865626 -182.1124301403718 0.0 0.0
-45.08561217668077 17.381537949884066 -8.317092175925415 -179.93303498898194 0.0 0.0
-42.56980288347587 14.602001939566 -8.412287335226647 -186.89436798484365 0.0 0.0
-50.13048766695611 7.706586107329796 -12.936739419328436 -201.2965752760646 0.0 0.0
-69.11015762313129 2.689736603665863 -20.756530426201174 -214.6723629852047 0.0 0.0
-103.36433373716764 0.27198993577812836 -33.05873384813715 -220.47915398013927 0.0 0.0
-160.45018185991225 -3.4275464757253893 -54.148262118674765 -212.77159101905806 0.0 0.0
-229.7746802808152 -4.903117908186886 -81.04938196732004 -199.5311633168649 0.0 0.0
-291.8967027013912 -6.9730034688559925 -111.53769838039713 -185.59821200686508 0.0 0.0
-343.10644862456473 -7.27781820576844 -141.30844321885462 -177.49766261600251 0.0 0.0
-386.32838055771606 -8.224792715032024 -169.4333468955927 -171.63712404651218 0.0 0.0
-418.8606246555995 -11.710622892278082 -194.11010849068367 -167.11845993386953 0.0 0.0
-441.68115260589576 -19.002532053613393 -215.7837843746629 -165.0101961186568 0.0 0.0
-454.03803291043994 -29.92016435259555 -233.9920523889504 -165.3701916598759 0.0 0.0
-446.0251097701444 -42.75216609028871 -244.47557445292492 -166.6802868263114 0.0 0.0
-388.4773241932295 -40.65220978015256 -232.89557779562426 -167.36275161741256 0.0 0.0
-207.92039964031216 -34.11551424653206 -164.5707193104112 -169.5311686445559 0.0 0.0
11.826682525006419 -172.96336079169998 -65.55244071353654 -143.8410185428101 0.0 0.0
11.826682525270087 -172.96336079116682 -65.55244071332908 143.84101854314474 0.0 0.0
-207.92039964020643 -34.115514246137906 -164.57071931023037 169.53116864496417 0.0 0.0
-388.4773241931056 -40.652209780045894 -232.89557779549446 167.36275161774563 0.0 0.0
-446.0251097705026 -42.752166091123314 -244.47557445321573 166.68028682644922 0.0 0.0
-454.0380329107914 -29.92016435331537 -233.99205238917082 165.37019165995508 0.0 0.0
-441.68115260631555 -19.00253205471573 -215.78378437506274 165.0101961187881 0.0 0.0
-418.8606246558396 -11.710622892960231 -194.11010849082993 167.1184599339823 0.0 0.0
-386.32838055748005 -8.224792715693354 -169.43334689559077 171.63712404670082 0.0 0.0
-343.1064486242451 -7.277818206516876 -141.30844321882842 177.49766261600038 0.0 0.0
-291.89670270059435 -6.97300346865309 -111.53769837998851 185.5982120068869 0.0 0.0
-229.77468028040067 -4.903117908647314 -81.04938196727414 199.531163316734 0.0 0.0
-160.45018185957144 -3.427546476076495 -54.14826211865757 212.77159101911388 0.0 0.0
-103.3643337366687 0.27198993613827405 -33.05873384787212 220.47915398015297 0.0 0.0
-69.11015762277069 2.689736604035163 -20.75653042597349 214.67236298504744 0.0 0.0
-50.1304876667233 7.706586107634175 -12.936739419164805 201.2965752758064 0.0 0.0
-42.569802883287814 14.602001939907165 -8.41228733506891 186.89436798462754 0.0 0.0
-45.08561217648961 17.381537950147926 -8.317092175790624 179.93303498877424 0.0 0.0
-52.28910112328121 3.939069548221963 -14.507007244811152 182.1124301401353 0.0 0.0
-52.497279910988816 -54.36236219950289 -32.056375433588386 185.47333631861954 0.0 0.0
-17.601563546011853 -247.53564115509317 -79.57333246450878 133.93025315927045 0.0 0.0
-24.50987332564417 -201.89881228497381 -67.92260568318538 -120.96848508519331 0.0 0.0
-65.52955103408779 -53.328986283777475 -35.656070412606226 -181.5224153420467 0.0 0.0
-81.51695996470681 3.045750262639804 -23.545824296649375 -181.9819088475416 0.0 0.0
-91.82049474039628 17.726946562177154 -22.228221554513173 -179.36549482746548 0.0 0.0
-109.27024985008009 17.348749230636137 -27.696007771276854 -183.33240474270633 0.0 0.0
-143.2785220876082 11.263393594353143 -40.34845051739859 -193.9382178548463 0.0 0.0
-203.47166621541635 5.41101453621227 -62.18431322622202 -202.10818189205088 0.0 0.0
-298.6930194110605 0.9313970020705096 -99.72346168226075 -198.90211186432586 0.0 0.0
-404.51450793343895 -4.397205764093631 -152.73740126501804 -185.77880872029542 0.0 0.0
-486.32549299882055 -10.583744020441728 -207.01514779703587 -172.26351765131812 0.0 0.0
-543.8972194269991 -16.479010823376647 -251.66185409215737 -164.3826982400207 0.0 0.0
-586.6003571890777 -19.995001395279317 -284.5416057287322 -159.01082145409478 0.0 0.0
-623.5600635124796 -25.366461832290767 -312.122978290118 -154.60298628840047 0.0 0.0
-657.6280772181987 -32.71498029698344 -336.88181708861805 -151.6964343767454 0.0 0.0
-690.091693008064 -43.542619106012424 -361.0345082476929 -151.11471843633728 0.0 0.0
-720.0186140790538 -58.31288480253926 -384.95737502311687 -153.40121445148918 0.0 0.0
-743.106892087019 -74.9112030597473 -406.2572801315278 -158.98675776214435 0.0 0.0
-754.2414816102605 -89.81172142512159 -420.9007510263963 -167.77968684837663 0.0 0.0
-790.9022868850867 -144.54184868198718 -467.2463128945019 -176.82166883325246 0.0 0.0
-779.1605726874063 -221.47735610870456 -500.42018266560007 -193.44065900067977 0.0 0.0
-779.1605726877076 -221.4773561091584 -500.4201826658747 193.44065900093875 0.0 0.0
-790.9022868850648 -144.54184868224021 -467.24631289458836 176.8216688336833 0.0 0.0
-754.2414816097005 -89.81172142502874 -420.9007510261597 167.77968684873602 0.0 0.0
-743.1068920866016 -74.91120305918795 -406.2572801311955 158.98675776202737 0.0 0.0
-720.0186140790386 -58.3128848027265 -384.95737502315467 153.40121445146835 0.0 0.0
-690.0916930077672 -43.542619105699245 -361.03450824743675 151.11471843625102 0.0 0.0
-657.6280772184828 -32.714980297469694 -336.88181708881115 151.69643437688703 0.0 0.0
-623.560063512506 -25.366461832845033 -312.12297829024385 154.60298628863328 0.0 0.0
-586.6003571889797 -19.99500139544562 -284.54160572860707 159.01082145413648 0.0 0.0
-543.8972194271817 -16.479010824034454 -251.66185409219918 164.38269824010865 0.0 0.0
-486.32549299869873 -10.583744020920577 -207.0151477969496 172.26351765132716 0.0 0.0
-404.514507932786 -4.397205764036487 -152.7374012646457 185.77880872041573 0.0 0.0
-298.6930194107392 0.9313970014435595 -99.72346168228118 198.90211186449744 0.0 0.0
-203.47166621530576 5.41101453546306 -62.184313226395226 202.10818189196547 0.0 0.0
-143.278522087487 11.263393594125198 -40.34845051742367 193.93821785463533 0.0 0.0
-109.27024985002575 17.34874923048592 -27.696007771305865 183.33240474248953 0.0 0.0
-91.82049474034548 17.726946562042045 -22.228221554539882 179.3654948274031 0.0 0.0
-81.51695996454032 3.0457502628343245 -23.54582429654549 181.98190884736306 0.0 0.0
-65.52955103398641 -53.32898628358348 -35.65607041251997 181.52241534194664 0.0 0.0
-24.50987332563596 -201.89881228478384 -67.92260568312594 120.96848508511431 0.0 0.0
-26.70176747720006 -159.37073682808412 -55.82175129158525 -107.11370007194543 0.0 0.0
-76.3113745854865 -49.82559896896517 -37.839907457557885 -173.50296040160163 0.0 0.0
-108.96004214964597 2.281062577438785 -31.99924778082126 -177.67763457067704 0.0 0.0
-136.78277639676952 17.644730277684204 -35.74492069409478 -174.0347650230585 0.0 0.0
-174.23089721145448 18.772619075577985 -46.90628269194866 -174.44735786517307 0.0 0.0
-232.9402975849684 13.782599549210918 -67.25364970518984 -179.09370813530916 0.0 0.0
-325.0578884756725 9.545844047961783 -102.99664995571294 -179.19612166555808 0.0 0.0
-434.7378086220789 1.6780930503469271 -161.48385576909274 -167.8655130246716 0.0 0.0
-527.0408696066645 -8.71472895733011 -227.40173137712134 -157.0512388915952 0.0 0.0
-595.6788025406449 -19.571344845304424 -283.298304859485 -150.5402969214814 0.0 0.0
-648.2757113590046 -27.270275012945362 -323.62475396752905 -146.63956075161235 0.0 0.0
-691.8939126503669 -35.033631178972925 -354.8146653070571 -142.4066045474761 0.0 0.0
-731.937743564627 -43.53324211886782 -381.899737812189 -138.39638835304902 0.0 0.0
-770.5959952909304 -53.89761854134548 -407.86915313004874 -135.45894117142115 0.0 0.0
-809.6907484158514 -68.14971599952199 -435.3121469323744 -134.79121181754778 0.0 0.0
-848.2226259621864 -87.01534379659692 -464.51908207513725 -137.54324373796373 0.0 0.0
-883.2861710267299 -108.57659911249559 -493.37032427871554 -143.90011588001124 0.0 0.0
-922.9582535882034 -142.23113747694646 -530.554289013161 -150.99759180118335 0.0 0.0
-966.1026173365858 -191.7936855975639 -577.5102962301346 -157.8032027735368 0.0 0.0
-1047.9479176530542 -316.91950581760966 -679.1982742491133 -168.55776900504142 0.0 0.0
-1047.9479176531179 -316.91950581784585 -679.1982742492178 168.55776900526712 0.0 0.0
-966.1026173367419 -191.79368559789097 -577.5102962302519 157.80320277380906 0.0 0.0
-922.9582535886946 -142.23113747766706 -530.554289013521 150.99759180147728 0.0 0.0
-883.2861710270085 -108.5765991129798 -493.3703242788123 143.90011588011373 0.0 0.0
-848.2226259620846 -87.01534379675886 -464.5190820750653 137.5432437381752 0.0 0.0
-809.6907484161345 -68.14971600000726 -435.312146932574 134.7912118176149 0.0 0.0
-770.5959952906645 -53.89761854127315 -407.86915312990186 135.45894117144616 0.0 0.0
-731.9377435638148 -43.533242118110074 -381.8997378116543 138.3963883529944 0.0 0.0
-691.8939126504397 -35.03363117931441 -354.814665307102 142.4066045475256 0.0 0.0
-648.2757113586929 -27.27027501289622 -323.62475396729815 146.63956075154388 0.0 0.0
-595.6788025399676 -19.57134484477206 -283.2983048589806 150.540296921347 0.0 0.0
-527.0408696056829 -8.714728956476016 -227.40173137638965 157.05123889144377 0.0 0.0
-434.73780862127006 1.6780930508247516 -161.48385576854753 167.86551302465568 0.0 0.0
-325.057888474919 9.545844048235125 -102.99664995535194 179.19612166553088 0.0 0.0
-232.94029758467389 13.782599549084852 -67.2536497051363 179.09370813514803 0.0 0.0
-174.2308972110918 18.77261907590242 -46.90628269174758 174.4473578650409 0.0 0.0
-136.7827763966075 17.64473027773343 -35.74492069403543 174.03476502287498 0.0 0.0
-108.96004214960725 2.2810625773156343 -31.99924778084784 177.6776345704845 0.0 0.0
-76.31137458552743 -49.82559896910543 -37.83990745761259 173.50296040144113 0.0 0.0
-26.701767477179114 -159.37073682787158 -55.8217512915152 107.11370007180237 0.0 0.0
-27.592258428138276 -120.74662936914822 -44.501666339185945 -92.90030313821157 0.0 0.0
-85.53680984300284 -44.20864717766578 -38.92363710620058 -161.37270127241771 0.0 0.0
-134.60485171891264 1.6660121501047875 -39.878859938205636 -169.03009263787638 0.0 0.0
-179.9740840285291 16.70606480867424 -49.000534882160935 -164.1724431337969 0.0 0.0
-236.29375524700197 18.928566598606537 -65.62245533692638 -160.22529135948696 0.0 0.0
-316.4456956308643 17.021660879038937 -93.5127556982653 -158.76100468217075 0.0 0.0
-422.9283516554837 11.61158640501932 -144.38626233280914 -149.87391420013938 0.0 0.0
-523.5498912341915 -0.6284025688439527 -215.28333444942504 -138.78545112226115 0.0 0.0
-603.4797268237163 -14.29237248158119 -281.85091230778966 -134.06425537272327 0.0 0.0
-666.302896505161 -27.147218980472644 -332.5312262782701 -131.82554674173605 0.0 0.0
-718.0254290807325 -38.070886833701934 -369.9654405779461 -129.3428792048033 0.0 0.0
-765.2868505075983 -49.6890606896788 -402.19411982675587 -125.83220933055765 0.0 0.0
-809.3541422779892 -61.57405387050545 -431.50602336548354 -122.03743541651298 0.0 0.0
-852.2770041213452 -75.19208064280994 -460.47641586447116 -118.93971749603624 0.0 0.0
-895.8868454290572 -92.2819605506819 -491.17058495987493 -118.04841356652994 0.0 0.0
-941.7556977469906 -115.6662770555772 -526.0106707710073 -120.78309963838701 0.0 0.0
-990.9505597994211 -147.74160840129073 -566.8701615483759 -126.55980616895756 0.0 0.0
-1044.780806058613 -191.31241804806578 -615.8940041727715 -132.6449948417882 0.0 0.0
-1112.243845999688 -259.7268251110442 -683.8017048596009 -136.06999138201246 0.0 0.0
-1202.148387463636 -382.5302955941277 -789.4180272644891 -142.89202826791802 0.0 0.0
-1202.1483874636672 -382.53029559420884 -789.4180272645785 142.8920282680562 0.0 0.0
-1112.2438459990426 -259.7268251105815 -683.8017048592312 136.06999138230725 0.0 0.0
-1044.7808060575144 -191.31241804718343 -615.8940041719598 132.64499484210052 0.0 0.0
-990.950559798733 -147.74160840066617 -566.8701615479015 126.55980616893947 0.0 0.0
-941.7556977464307 -115.66627705511567 -526.0106707706403 120.78309963837212 0.0 0.0
-895.8868454287909 -92.281960550515 -491.17058495967535 118.04841356645431 0.0 0.0
-852.2770041195926 -75.1920806410711 -460.476415863227 118.93971749592185 0.0 0.0
-809.3541422777068 -61.574053870390514 -431.50602336527425 122.03743541652275 0.0 0.0
-765.2868505075392 -49.689060689907464 -402.19411982672426 125.83220933062498 0.0 0.0
-718.0254290810351 -38.07088683426993 -369.9654405780601 129.34287920476905 0.0 0.0
-666.3028965058768 -27.147218981691907 -332.5312262787006 131.82554674192733 0.0 0.0
-603.4797268236716 -14.292372482081968 -281.8509123077155 134.0642553728822 0.0 0.0
-523.5498912331738 -0.6284025680032901 -215.28333444865336 138.7854511221442 0.0 0.0
-422.92835165469796 11.611586405489327 -144.3862623322954 149.87391420007464 0.0 0.0
-316.44569563071866 17.021660878608827 -93.51275569831395 158.76100468196444 0.0 0.0
-236.29375524680856 18.92856659842381 -65.6224553369231 160.22529135933743 0.0 0.0
-179.97408402835836 16.706064808615462 -49.00053488213406 164.17244313359424 0.0 0.0
-134.60485171891438 1.6660121498562415 -39.87885993828148 169.03009263773055 0.0 0.0
-85.5368098429324 -44.20864717767219 -38.92363710618137 161.3727012722896 0.0 0.0
-27.592258428145417 -120.74662936902968 -44.50166633915252 92.90030313814965 0.0 0.0
-28.278649874152514 -86.55875087170928 -34.45122022375854 -78.37505411729416 0.0 0.0
-93.93634215743337 -37.1150267920653 -39.3154106848496 -145.52955622592538 0.0 0.0
-158.66627756761758 1.3316291319396658 -47.199162274688724 -156.05242655244024 0.0 0.0
-221.56634697051496 14.908178918432416 -61.98035188576176 -149.85229754165482 0.0 0.0
-295.3861904534559 19.038182790184884 -83.52633563752944 -142.17882406405937 0.0 0.0
-391.4789397694568 19.225239120520783 -120.72710236026855 -133.11500791327526 0.0 0.0
-496.63245739672783 10.731133011815814 -184.8169719386374 -120.24752572769233 0.0 0.0
-586.1690459533697 -3.7108982324253077 -259.397047033363 -114.08663077990899 0.0 0.0
-658.3401657260194 -19.17645594520819 -321.0660049861901 -113.68815306759217 0.0 0.0
-718.899627729905 -33.71959630758916 -367.25356059530134 -113.48115813818929 0.0 0.0
-773.4295167337398 -48.53830719239417 -405.47289149627704 -111.80944034664101 0.0 0.0
-824.4234605763556 -64.03558000111373 -440.2589297361595 -108.77035787434922 0.0 0.0
-872.723008670979 -79.90966214308979 -473.1393888756411 -105.32080725600443 0.0 0.0
-919.4990958281368 -96.47233905398924 -505.2671169338348 -102.2842754669525 0.0 0.0
-967.5298784180707 -116.41274675371727 -539.4572148417727 -101.01858030755017 0.0 0.0
-1020.6577677408259 -145.3074628348951 -580.513736259558 -102.97478686684708 0.0 0.0
-1082.2041422339594 -186.9130490452203 -632.1762718118456 -108.04468175644575 0.0 0.0
-1152.8374686102238 -244.77331960590956 -696.5250544008435 -113.01370848246825 0.0 0.0
-1233.7064497768363 -325.4669171858043 -777.279465567873 -115.6152664567676 0.0 0.0
-1316.5420948794344 -438.8439907919879 -875.1763570694368 -124.10717324256564 0.0 0.0
-1316.5420948797214 -438.843990792298 -875.176357069666 124.10717324262424 0.0 0.0
-1233.7064497773458 -325.4669171864784 -777.2794655682426 115.61526645702739 0.0 0.0
-1152.8374686110742 -244.77331960691885 -696.5250544014064 113.01370848269795 0.0 0.0
-1082.2041422336736 -186.91304904506694 -632.176271811611 108.04468175652345 0.0 0.0
-1020.6577677401467 -145.3074628343224 -580.5137362590697 102.97478686682814 0.0 0.0
-967.529878417628 -116.41274675338593 -539.4572148414416 101.0185803075814 0.0 0.0
-919.4990958288773 -96.47233905502492 -505.2671169343452 102.28427546719809 0.0 0.0
-872.7230086705807 -79.90966214293623 -473.1393888753297 105.3208072561273 0.0 0.0
-824.4234605760628 -64.03558000100996 -440.2589297359208 108.77035787429267 0.0 0.0
-773.4295167337408 -48.53830719257579 -405.4728914962881 111.80944034652826 0.0 0.0
-718.8996277288672 -33.71959630676949 -367.2535605946249 113.48115813811962 0.0 0.0
-658.3401657256784 -19.17645594513392 -321.06600498593434 113.68815306755438 0.0 0.0
-586.169045953466 -3.7108982329549445 -259.3970470333137 114.08663077995021 0.0 0.0
-496.63245739684464 10.731133011094167 -184.81697193863167 120.24752572774648 0.0 0.0
-391.47893976899036 19.22523912061357 -120.72710236002297 133.11500791312346 0.0 0.0
-295.3861904530145 19.038182790329707 -83.52633563735932 142.17882406393431 0.0 0.0
-221.56634697027488 14.908178918484913 -61.98035188567962 149.85229754156336 0.0 0.0
-158.66627756735642 1.3316291322927678 -47.19916227450503 156.05242655234647 0.0 0.0
-93.93634215731916 -37.115026791955344 -39.31541068478234 145.5295562257695 0.0 0.0
-28.27864987412136 -86.55875087160099 -34.4512202237167 78.37505411718955 0.0 0.0
-28.99654215732238 -57.2762187351788 -25.88182826775035 -63.43601598035384 0.0 0.0
-101.73636124853503 -29.1108166517344 -39.25415337008083 -126.3957948432695 0.0 0.0
-181.39429012322037 1.1513246360658531 -54.07070254032586 -138.84282810970194 0.0 0.0
-260.7855023508462 12.187168006145138 -74.59951527894546 -131.14005350480403 0.0 0.0
-349.8523752530358 19.65602384123718 -100.86478554723908 -120.21150230088517 0.0 0.0
-455.24563623369227 19.16739882686108 -149.29741182250487 -105.16168032167141 0.0 0.0
-552.5277221482917 8.907457838631139 -221.79905994302277 -93.68016755264745 0.0 0.0
-632.2796501465664 -7.018226434355661 -294.13562277001097 -92.17348291528603 0.0 0.0
-700.2558682721287 -22.75451856739234 -349.5600329835818 -94.05313736225524 0.0 0.0
-762.1235350475602 -40.056805236498334 -394.6891299164787 -94.7857164236305 0.0 0.0
-820.0950046597329 -58.73468541958677 -435.1499749943291 -93.63883770210361 0.0 0.0
-875.0563084254852 -78.25750846157165 -473.35175102896096 -91.11998396962032 0.0 0.0
-927.8229772810985 -98.1866129726115 -510.26212407819446 -88.25724699188322 0.0 0.0
-978.5678192182723 -118.41277881332158 -546.108764473409 -85.4245116564284 0.0 0.0
-1030.397470297006 -141.203361180265 -583.5669223333932 -83.59852183726511 0.0 0.0
-1090.3150867017962 -174.61829254975856 -630.1883497728393 -84.41782996126851 0.0 0.0
-1163.0775555784007 -226.07059317647867 -692.2378991619968 -88.29080754514612 0.0 0.0
-1248.4406432509395 -297.6588084148034 -770.7291460961253 -93.03177160578184 0.0 0.0
-1337.360918303805 -386.42159156784453 -859.6144982851056 -97.44126005529746 0.0 0.0
-1415.8554849661255 -494.0010151120435 -952.7253320932454 -109.8893523374985 0.0 0.0
-1415.85548496557 -494.0010151115262 -952.7253320929417 109.88935233758914 0.0 0.0
-1337.3609183032436 -386.421591567312 -859.6144982847753 97.44126005535438 0.0 0.0
-1248.4406432510564 -297.6588084150074 -770.7291460962233 93.03177160588993 0.0 0.0
-1163.0775555790408 -226.07059317726453 -692.237899162401 88.2908075452954 0.0 0.0
-1090.315086702099 -174.61829255025148 -630.1883497729259 84.41782996147 0.0 0.0
-1030.3974702973348 -141.2033611807751 -583.566922333524 83.59852183735485 0.0 0.0
-978.5678192185878 -118.41277881379183 -546.1087644736098 85.42451165646052 0.0 0.0
-927.8229772819248 -98.18661297371109 -510.2621240787675 88.25724699205608 0.0 0.0
-875.0563084256646 -78.25750846197792 -473.3517510290257 91.11998396962149 0.0 0.0
-820.0950046593954 -58.7346854194565 -435.1499749940747 93.63883770203287 0.0 0.0
-762.1235350467668 -40.05680523596217 -394.68912991593754 94.78571642359391 0.0 0.0
-700.2558682716639 -22.75451856718649 -349.56003298320616 94.05313736219092 0.0 0.0
-632.2796501461986 -7.018226434288643 -294.1356227696528 92.17348291524677 0.0 0.0
-552.5277221477811 8.907457838730908 -221.79905994260622 93.68016755272569 0.0 0.0
-455.24563623329215 19.167398826817724 -149.29741182226468 105.161680321642 0.0 0.0
-349.852375252367 19.65602384161963 -100.86478554692688 120.21150230074008 0.0 0.0
-260.7855023504339 12.18716800651041 -74.59951527872371 131.14005350469316 0.0 0.0
-181.39429012294315 1.151324636253634 -54.0707025401872 138.84282810955833 0.0 0.0
-101.7363612484443 -29.11081665170771 -39.25415337004561 126.39579484321396 0.0 0.0
-28.99654215731264 -57.27621873514183 -25.881828267736342 63.436015980428564 0.0 0.0
-29.525054447945408 -33.33229930043509 -18.85720612451415 -48.016860241300286 0.0 0.0
-108.68072048903048 -20.718230302458416 -38.81968523744666 -104.33150785295864 0.0 0.0
-202.92787176021972 0.9785909264998267 -60.584784250115966 -117.39610781735372 0.0 0.0
-298.6931553922505 9.16110580331242 -86.90643108549936 -108.809175799565 0.0 0.0
-402.48553915142185 20.02962095813887 -118.87772438445067 -94.78637626659989 0.0 0.0
-506.4827722257446 18.040504379756626 -177.82520977323213 -77.5283319541965 0.0 0.0
-592.7162180030405 5.57916473973647 -254.01890233629211 -70.18487676204495 0.0 0.0
-667.1338978179716 -8.68825769831895 -319.76879964959085 -71.74456326344995 0.0 0.0
-734.8969823926237 -25.94551596438025 -371.93837983233504 -74.31478969478232 0.0 0.0
-798.9790589375527 -46.36947881007009 -417.7388975801793 -75.48154685005987 0.0 0.0
-860.324174123284 -68.60867327094238 -460.9080355352333 -74.79221519277083 0.0 0.0
-919.585765723619 -92.20709996680453 -503.0145976050633 -72.87123734624402 0.0 0.0
-976.8078155935018 -116.43525088972393 -544.1618394593298 -70.62606850920108 0.0 0.0
-1032.8118075685306 -141.21218720273907 -584.851699758778 -68.33013183686381 0.0 0.0
-1088.864242821889 -167.52122017901223 -626.1816571431369 -66.07130243948737 0.0 0.0
-1151.9212255520945 -203.5107762746683 -675.6191584941 -65.18082716101364 0.0 0.0
-1233.9062427609203 -262.5377136760454 -745.9345998223362 -67.66286788562708 0.0 0.0
-1332.1212480777049 -346.01038035107285 -836.7505416136149 -73.07477404106184 0.0 0.0
-1430.9708520855631 -444.65922321744983 -935.5980553454131 -80.88744312376151 0.0 0.0
-1510.0830216676472 -551.8354409763848 -1028.9763691490953 -98.21893871021234 0.0 0.0
-1510.083021667666 -551.8354409765121 -1028.9763691491007 98.2189387104175 0.0 0.0
-1430.9708520849636 -444.6592232169189 -935.5980553449556 80.88744312389076 0.0 0.0
-1332.1212480761706 -346.0103803495801 -836.7505416125697 73.07477404105617 0.0 0.0
-1233.9062427599824 -262.53771367519687 -745.9345998216326 67.66286788567237 0.0 0.0
-1151.9212255513978 -203.51077627407568 -675.6191584936194 65.18082716103346 0.0 0.0
-1088.8642428211056 -167.52122017836857 -626.1816571424862 66.07130243956479 0.0 0.0
-1032.8118075683274 -141.21218720270468 -584.8516997585 68.33013183689675 0.0 0.0
-976.8078155939345 -116.43525089037749 -544.1618394594875 70.62606850927845 0.0 0.0
-919.5857657239208 -92.20709996737087 -503.01459760516735 72.8712373463938 0.0 0.0
-860.3241741229225 -68.6086732708518 -460.90803553499927 74.7922151928165 0.0 0.0
-798.9790589369186 -46.36947880965555 -417.7388975797418 75.48154685000112 0.0 0.0
-734.8969823921823 -25.945515964238055 -371.93837983203764 74.31478969481799 0.0 0.0
-667.1338978178462 -8.68825769853472 -319.7687996494473 71.74456326347236 0.0 0.0
-592.7162180030529 5.57916473932681 -254.0189023361574 70.1848767620617 0.0 0.0
-506.4827722255813 18.040504379432193 -177.82520977309161 77.52833195428693 0.0 0.0
-402.4855391511057 20.029620957865575 -118.87772438440317 94.78637626659327 0.0 0.0
-298.69315539212175 9.161105802948622 -86.90643108557653 108.80917579945911 0.0 0.0
-202.92787176013138 0.9785909263180863 -60.58478425014398 117.39610781719786 0.0 0.0
-108.68072048886742 -20.718230302437327 -38.81968523739142 104.33150785280066 0.0 0.0
-29.525054447946744 -33.33229930037771 -18.85720612449733 48.01686024117859 0.0 0.0
-29.225562563371128 -15.141524996759236 -13.310126268039106 -32.24470607599433 0.0 0.0
-113.8887622770524 -12.367525566143254 -37.876886352958685 -79.53403433230699 0.0 0.0
-223.55301214689482 0.435283193250406 -66.93531868609332 -91.62757773710612 0.0 0.0
-336.1069059633772 7.251190478901874 -98.73064202995299 -83.0238920704195 0.0 0.0
-449.82940253891553 19.86314531902324 -137.9736554540196 -66.8706207953371 0.0 0.0
-546.8977084188646 14.876201773943329 -206.36645388315947 -52.38559772346456 0.0 0.0
-624.9433398661056 3.186321603853173 -280.62558689188944 -49.22489334754744 0.0 0.0
-695.5414928231471 -9.862170434244803 -339.5927383193582 -51.47137466589981 0.0 0.0
-764.0013089131335 -29.216069262348242 -390.2524300383219 -54.1913553945071 0.0 0.0
-830.6293512001405 -52.477750628766586 -437.51539345158267 -55.54602007722071 0.0 0.0
-895.6789508836353 -78.26772609941416 -483.8721544074061 -55.267222645797005 0.0 0.0
-959.0280687898643 -105.81807300862408 -529.8388988922716 -53.94138966170412 0.0 0.0
-1021.3284116357702 -134.44671085258165 -575.6400422231283 -52.408747713012 0.0 0.0
-1082.7745387902737 -164.61263418111238 -621.6787540411881 -50.71051851515951 0.0 0.0
-1144.416019421123 -196.35715110998046 -668.5191784304748 -48.510336946642866 0.0 0.0
-1209.9781193065758 -233.96130957473548 -720.0812487768412 -46.14432881973245 0.0 0.0
-1291.170152840833 -291.2938026773092 -789.0672746204907 -46.483672019706574 0.0 0.0
-1402.939527601225 -387.2182006227239 -892.7418992353338 -52.54194861001212 0.0 0.0
-1517.6463922656817 -500.74155170574 -1007.03182099326 -64.78051467748048 0.0 0.0
-1607.6340194988807 -616.9138360817153 -1110.4517954351404 -87.8000778777086 0.0 0.0
-1607.6340194988436 -616.9138360817225 -1110.4517954350486 87.80007787780195 0.0 0.0
-1517.6463922657279 -500.7415517058498 -1007.031820993205 64.78051467761756 0.0 0.0
-1402.9395276015232 -387.2182006231211 -892.741899235437 52.5419486101424 0.0 0.0
-1291.1701528406427 -291.2938026772182 -789.0672746202321 46.48367201977263 0.0 0.0
-1209.978119307175 -233.961309575459 -720.0812487771714 46.144328819727704 0.0 0.0
-1144.4160194200767 -196.35715110905977 -668.5191784296753 48.51033694666546 0.0 0.0
-1082.7745387889129 -164.61263417989238 -621.678754040174 50.710518515157816 0.0 0.0
-1021.3284116351068 -134.44671085209782 -575.6400422226277 52.40874771300234 0.0 0.0
-959.0280687897259 -105.81807300869262 -529.8388988921711 53.941389661713146 0.0 0.0
-895.6789508825217 -78.26772609850639 -483.87215440664943 55.2672226457134 0.0 0.0
-830.6293511996492 -52.47775062851126 -437.51539345127253 55.54602007716214 0.0 0.0
-764.0013089127108 -29.21606926220403 -390.2524300380343 54.19135539450781 0.0 0.0
-695.5414928221427 -9.862170433504673 -339.59273831866096 51.471374665880745 0.0 0.0
-624.9433398649479 3.186321604799417 -280.62558689103264 49.22489334739852 0.0 0.0
-546.8977084183263 14.876201774154207 -206.3664538827355 52.38559772347511 0.0 0.0
-449.82940253824637 19.863145319381665 -137.97365545365602 66.87062079532755 0.0 0.0
-336.10690596294586 7.251190479168859 -98.73064202975797 83.02389207044273 0.0 0.0
-223.5530121466349 0.4352831933374084 -66.93531868598923 91.62757773706127 0.0 0.0
-113.88876227695832 -12.367525566206638 -37.876886352949484 79.53403433221732 0.0 0.0
-29.225562563339167 -15.141524996787858 -13.310126268038104 32.24470607591106 0.0 0.0
-26.823288650339276 -3.0458847170225267 -8.96075201020854 -16.635346987951078 0.0 0.0
-115.67805568055998 -4.618531874780356 -36.088976266602096 -51.96937896767562 0.0 0.0
-243.54304304477165 -0.5397540500736753 -73.2248391284536 -61.02270473004814 0.0 0.0
-375.08025984236065 6.765273097967945 -110.67604695383002 -53.92121716293283 0.0 0.0
-489.6260593825752 19.56844793022269 -157.95924842986346 -39.20761648153218 0.0 0.0
-576.0434266793097 10.087313155840853 -233.24006431925898 -29.728373785500025 0.0 0.0
-649.9058937206257 2.497665517050507 -300.75488317470774 -29.348101860601115 0.0 0.0
-719.2022616181 -11.646899095666484 -355.7524451508633 -31.32156614569012 0.0 0.0
-788.335908146611 -32.3472450193763 -405.3478791010217 -33.617082284048585 0.0 0.0
-857.7492771700311 -58.35250518582251 -454.6064944172201 -34.9301844541204 0.0 0.0
-926.6633579758834 -87.73854487258222 -504.43678732028786 -35.03213477258717 0.0 0.0
-994.5968825755363 -119.04629082270384 -554.4679990507085 -34.36140578000813 0.0 0.0
-1061.6647750720585 -152.47844075586175 -604.989625411807 -33.4389367177592 0.0 0.0
-1129.1598420590612 -188.0496881940781 -656.7000992800183 -32.41228774875881 0.0 0.0
-1197.8034246564548 -226.502241763071 -710.36800969648 -30.836000442940446 0.0 0.0
-1267.6143595983492 -268.47983224084555 -766.3156642589636 -28.141737734857198 0.0 0.0
-1342.6560759606648 -319.41254092370184 -829.1409529394546 -25.905948076563472 0.0 0.0
-1441.8005049860005 -401.29859893051594 -919.2394428997177 -30.33393690468925 0.0 0.0
-1602.9091895988286 -558.5774819117551 -1078.4964778228116 -47.08087794369371 0.0 0.0
-1718.392930256642 -697.2402202820604 -1206.1429404441187 -77.68198725963367 0.0 0.0
-1718.392930256619 -697.2402202820477 -1206.142940444176 77.68198725964214 0.0 0.0
-1602.9091895979811 -558.5774819109724 -1078.4964778223275 47.080877943838175 0.0 0.0
-1441.8005049848553 -401.2985989294373 -919.2394428990369 30.333936904774767 0.0 0.0
-1342.6560759603549 -319.41254092348294 -829.1409529392573 25.905948076570084 0.0 0.0
-1267.6143595982091 -268.47983224082196 -766.3156642587775 28.14173773488846 0.0 0.0
-1197.8034246569857 -226.5022417637448 -710.3680096967959 30.836000442948514 0.0 0.0
-1129.159842059092 -188.0496881942538 -656.7000992799607 32.41228774870169 0.0 0.0
-1061.6647750716281 -152.47844075563486 -604.9896254114983 33.438936717886655 0.0 0.0
-994.5968825746581 -119.0462908220313 -554.4679990500978 34.36140577998645 0.0 0.0
-926.663357975642 -87.73854487258612 -504.4367873200609 35.032134772602774 0.0 0.0
-857.7492771695654 -58.35250518561042 -454.60649441686496 34.930184454123506 0.0 0.0
-788.33590814596 -32.347245018991316 -405.34787910055024 33.61708228402027 0.0 0.0
-719.2022616179398 -11.646899095818277 -355.7524451506916 31.3215661457693 0.0 0.0
-649.9058937206669 2.4976655166719794 -300.7548831746327 29.34810186063575 0.0 0.0
-576.0434266789341 10.087313155882377 -233.2400643189087 29.72837378551165 0.0 0.0
-489.62605938225136 19.56844793019291 -157.9592484296578 39.20761648147151 0.0 0.0
-375.08025984199736 6.765273098024669 -110.67604695371574 53.92121716285185 0.0 0.0
-243.54304304457406 -0.539754050123193 -73.22483912840917 61.0227047299051 0.0 0.0
-115.67805568039705 -4.618531874619026 -36.088976266504815 51.96937896749627 0.0 0.0
-26.8232886502458 -3.045884716927184 -8.960752010151893 16.635346987934 0.0 0.0
-19.87417690521362 2.733676108983394 -5.142150238869068 -2.43256849991047 0.0 0.0
-111.12630926249471 1.7587326576292277 -32.81027298145965 -21.12468837832073 0.0 0.0
-263.7400151290929 -1.9826131760374235 -79.71678849153909 -24.479432671813235 0.0 0.0
-415.059637701556 8.612363469649939 -123.26824552914753 -21.87414756859573 0.0 0.0
-523.9105294111918 17.13004746316239 -179.9276882610752 -13.470559006750952 0.0 0.0
-601.9337321515416 7.471432970952172 -256.4619250909176 -9.742864381399063 0.0 0.0
-670.2274749126001 1.2644716188638512 -317.040258997908 -9.907545642674258 0.0 0.0
-738.6382993858522 -13.491142119032105 -368.7320492291095 -11.139933620193691 0.0 0.0
-808.8133356302425 -35.59392194533237 -418.13851237465656 -12.611583163351554 0.0 0.0
-880.9649008521471 -64.02203546664884 -469.49074937290106 -13.63335791916035 0.0 0.0
-953.8249030317211 -96.66556382593451 -522.740763230436 -14.080556534871597 0.0 0.0
-1026.2878395004523 -132.52233596692034 -577.2336671223702 -14.01860493573524 0.0 0.0
-1098.5892354254277 -170.30281807665716 -632.5009807791259 -13.78686404059874 0.0 0.0
-1171.9894309955853 -211.07137424233542 -689.7235013850252 -13.406975522518863 0.0 0.0
-1247.5875594737945 -256.24716312515295 -750.1964573883503 -12.615965061606023 0.0 0.0
-1324.5382111997833 -305.60232263074033 -813.4052052580128 -11.001289468937234 0.0 0.0
-1399.3996416443706 -356.855487639621 -876.454118652115 -8.293079194482399 0.0 0.0
-1473.8144473340246 -413.50686995518856 -941.7503612568955 -7.834801025722514 0.0 0.0
-1582.9948986794866 -514.8530509752645 -1046.475658595847 -23.001152889649653 0.0 0.0
-1916.696682954309 -864.350485547297 -1388.849934993431 -63.40967844532311 0.0 0.0
-1916.6966829541782 -864.3504855471938 -1388.8499349933732 63.40967844536891 0.0 0.0
-1582.9948986794388 -514.8530509752777 -1046.4756585957582 23.001152889781586 0.0 0.0
-1473.8144473325315 -413.50686995375565 -941.7503612556318 7.834801025726151 0.0 0.0
-1399.3996416441967 -356.8554876395484 -876.4541186518437 8.293079194487435 0.0 0.0
-1324.5382112004322 -305.6023226315186 -813.405205258399 11.001289468998234 0.0 0.0
-1247.5875594735826 -256.2471631250787 -750.1964573881065 12.615965061659766 0.0 0.0
-1171.9894309952265 -211.07137424213644 -689.7235013847943 13.406975522540948 0.0 0.0
-1098.5892354251969 -170.3028180766142 -632.5009807789534 13.786864040655086 0.0 0.0
-1026.2878395005073 -132.52233596719307 -577.2336671222861 14.018604935762514 0.0 0.0
-953.8249030309966 -96.66556382544897 -522.7407632298988 14.080556534965467 0.0 0.0
-880.9649008514839 -64.02203546624935 -469.49074937246223 13.633357919176197 0.0 0.0
-808.8133356302094 -35.59392194557526 -418.1385123746113 12.611583163357626 0.0 0.0
-738.638299385463 -13.49114211893248 -368.7320492288517 11.13993362022011 0.0 0.0
-670.2274749124362 1.2644716187193055 -317.040258997751 9.90754564253075 0.0 0.0
-601.9337321511291 7.471432971072563 -256.4619250905471 9.742864381267538 0.0 0.0
-523.9105294108515 17.130047463174776 -179.92768826081038 13.470559006731385 0.0 0.0
-415.05963770119877 8.612363469629088 -123.2682455290511 21.874147568578444 0.0 0.0
-263.7400151287948 -1.9826131757754553 -79.71678849137106 24.47943267177053 0.0 0.0
-111.12630926235065 1.758732657690981 -32.8102729813979 21.124688378320727 0.0 0.0
-19.874176905176387 2.7336761089928676 -5.142150238855056 2.432568499820798 0.0 0.0
SCALARS Strain float 6
LOOKUP_TABLE default
0.01077404204089158 -0.011843600193108567 0.0 -0.006508094837906847 0.0 0.0
0.0022321694397795435 -0.001302952906753585 0.0 0.0010907360546495437 0.0 0.0
0.0017775132745900674 -0.0007263689651675342 0.0 -5.024021305835569e-05 0.0 0.0
0.0021941216932512275 -0.0010269399590246975 0.0 -0.00019735395922024224 0.0 0.0
0.0032454371377987432 -0.0018434524191733859 0.0 -0.00024179800334356294 0.0 0.0
0.00540004781678698 -0.0037044477064729353 0.0 -0.0003547376988227158 0.0 0.0
0.008829310238126102 -0.006860400345825246 0.0 -0.0005508323537155302 0.0 0.0
0.013729049588970263 -0.011487988406453153 0.0 -0.0008454508158683427 0.0 0.0
0.020198026197285394 -0.01767320036295139 0.0 -0.0012496332467714921 0.0 0.0
0.028238015733433642 -0.025409989034757663 0.0 -0.0017305748864333004 0.0 0.0
0.037818919577302684 -0.034673174045547484 0.0 -0.0022284000282754013 0.0 0.0
0.04892611748594855 -0.04545300014121745 0.0 -0.002727386620947736 0.0 0.0
0.06155350601429997 -0.057747970378971836 0.0 -0.003234241477698435 0.0 0.0
0.07566756370846633 -0.07152069735420286 0.0 -0.0037497868322700634 0.0 0.0
0.09108412736191407 -0.08658189862934629 0.0 -0.004267165174998977 0.0 0.0
0.10731370533660009 -0.1024440827903681 0.0 -0.004692574712426512 0.0 0.0
0.12348811195579378 -0.11825041873185649 0.0 -0.004828203831399591 0.0 0.0
0.13839456380068405 -0.13280423933783414 0.0 -0.004435593173293062 0.0 0.0
0.15057390551238192 -0.14466057979007552 0.0 -0.0036086055714298904 0.0 0.0
0.15810941239811144 -0.15177703864101266 0.0 -0.003574608627447684 0.0 0.0
0.15810941239810117 -0.15177703864100378 0.0 0.0035746086274524025 0.0 0.0
0.15057390551235314 -0.1446605797900502 0.0 0.003608605571446599 0.0 0.0
0.13839456380063378 -0.13280423933779062 0.0 0.004435593173299335 0.0 0.0
0.12348811195573028 -0.11825041873179698 0.0 0.004828203831407585 0.0 0.0
0.10731370533653253 -0.10244408279029749 0.0 0.004692574712417241 0.0 0.0
0.0910841273618451 -0.08658189862927612 0.0 0.00426716517499881 0.0 0.0
0.0756675637083967 -0.07152069735413269 0.0 0.0037497868322670103 0.0 0.0
0.061553506014227294 -0.05774797037890389 0.0 0.003234241477698907 0.0 0.0
0.048926117485880244 -0.04545300014115172 0.0 0.0027273866209416298 0.0 0.0
0.03781891957724218 -0.03467317404548398 0.0 0.0022284000282728478 0.0 0.0
0.028238015733383415 -0.025409989034706815 0.0 0.001730574886426861 0.0 0.0
0.020198026197245728 -0.017673200362914088 0.0 0.0012496332467685223 0.0 0.0
0.013729049588940723 -0.011487988406426064 0.0 0.0008454508158651786 0.0 0.0
0.008829310238105209 -0.006860400345807038 0.0 0.0005508323537151139 0.0 0.0
0.005400047816774445 -0.0037044477064630543 0.0 0.00035473769882166106 0.0 0.0
0.0032454371377935443 -0.0018434524191697221 0.0 0.00024179800334267476 0.0 0.0
0.002194121693249812 -0.0010269399590236983 0.0 0.00019735395922068633 0.0 0.0
0.0017775132745899425 -0.0007263689651676453 0.0 5.0240213057051175e-05 0.0 0.0
0.0022321694397780256 -0.0013029529067522527 0.0 -0.001090736054647684 0.0 0.0
0.010774042040881088 -0.011843600193094876 0.0 0.006508094837875483 0.0 0.0
0.007575502793726846 -0.009019106172286045 0.0 -0.007784763166272413 0.0 0.0
0.0012273322201690612 -0.000661238599049152 0.0 0.00014647699441949769 0.0 0.0
0.0015241370503431481 -0.0005523558018151187 0.0 -0.0001322506221310138 0.0 0.0
0.0019398297955331469 -0.0008703170912905955 0.0 -0.00044843303464814355 0.0 0.0
0.0027770237398260927 -0.0014776205428663758 0.0 -0.0005541348620987929 0.0 0.0
0.004619705712527459 -0.003018721973453653 0.0 -0.0008328269001290911 0.0 0.0
0.007683396011842383 -0.005790451969455379 0.0 -0.0013367202028933267 0.0 0.0
0.012116128864748457 -0.009943511582265252 0.0 -0.0020506638675851785 0.0 0.0
0.01797822642272892 -0.01552647950625885 0.0 -0.002977426924160975 0.0 0.0
0.025233737515658914 -0.022493143837783558 0.0 -0.0040423547786072045 0.0 0.0
0.03382635176042941 -0.030789674735266725 0.0 -0.005133058854883049 0.0 0.0
0.043745031380209284 -0.04040879010933729 0.0 -0.006188999845995108 0.0 0.0
0.055027825609842575 -0.05138679583862649 0.0 -0.007278116566178272 0.0 0.0
0.0676747920124743 -0.06372055352696826 0.0 -0.008432496863917338 0.0 0.0
0.08153328457428213 -0.07725495092555068 0.0 -0.009585657954375881 0.0 0.0
0.09618620304659366 -0.0915743939691267 0.0 -0.010544351053829615 0.0 0.0
0.11087826153393299 -0.10593021082453324 0.0 -0.010904806950255086 0.0 0.0
0.12451433581311205 -0.11923507675882705 0.0 -0.010252922284211263 0.0 0.0
0.1356223548892436 -0.1299962547187179 0.0 -0.008625943707772421 0.0 0.0
0.14229564619443413 -0.13640809571413204 0.0 -0.005873418960789911 0.0 0.0
0.14229564619442397 -0.13640809571412138 0.0 0.0058734189608089515 0.0 0.0
0.13562235488921684 -0.12999625471868947 0.0 0.00862594370780545 0.0 0.0
0.12451433581306806 -0.11923507675877909 0.0 0.010252922284231136 0.0 0.0
0.11087826153387842 -0.1059302108244804 0.0 0.0109048069502663 0.0 0.0
0.09618620304653319 -0.09157439396907119 0.0 0.0105443510538209 0.0 0.0
0.08153328457422035 -0.07725495092548851 0.0 0.009585657954371718 0.0 0.0
0.06767479201241139 -0.06372055352690742 0.0 0.00843249686391423 0.0 0.0
0.05502782560977798 -0.05138679583856742 0.0 0.0072781165661751634 0.0 0.0
0.04374503138014907 -0.040408790109284 0.0 0.0061889998459866424 0.0 0.0
0.03382635176037438 -0.030789674735213213 0.0 0.00513305885487747 0.0 0.0
0.025233737515614113 -0.022493143837738705 0.0 0.004042354778595214 0.0 0.0
0.017978226422692756 -0.0155264795062251 0.0 0.0029774269241558127 0.0 0.0
0.012116128864722076 -0.00994351158223794 0.0 0.002050663867578739 0.0 0.0
0.007683396011823607 -0.005790451969438948 0.0 0.0013367202028918834 0.0 0.0
0.004619705712516992 -0.003018721973444216 0.0 0.000832826900127398 0.0 0.0
0.00277702373982186 -0.001477620542862823 0.0 0.0005541348620979603 0.0 0.0
0.001939829795532172 -0.0008703170912908176 0.0 0.0004484330346485599 0.0 0.0
0.0015241370503433493 -0.000552355801817006 0.0 0.0001322506221330122 0.0 0.0
0.0012273322201689918 -0.0006612385990479586 0.0 -0.00014647699442177364 0.0 0.0
0.007575502793714273 -0.009019106172271588 0.0 0.007784763166245712 0.0 0.0
0.005570230554400944 -0.007156924480635235 0.0 -0.007195712809930532 0.0 0.0
0.0007256181527939207 -0.00042660180517745117 0.0 -0.0005440373441653601 0.0 0.0
0.0012225423861918217 -0.0004085915377243232 0.0 -0.00042626502165654667 0.0 0.0
0.0016935474887977697 -0.0007274594755091179 0.0 -0.0006902742329230049 0.0 0.0
0.0023619137582605934 -0.001177769656666161 0.0 -0.000839923186535585 0.0 0.0
0.0038670959397054533 -0.0023794386435518344 0.0 -0.001194122349312321 0.0 0.0
0.006543534581574993 -0.0047400716897043615 0.0 -0.0019184686712505616 0.0 0.0
0.010485295934913777 -0.008396363826966402 0.0 -0.0029796210314294025 0.0 0.0
0.015719353687805658 -0.013352887781177714 0.0 -0.004322065950409432 0.0 0.0
0.022178117020538263 -0.019537418808372564 0.0 -0.005841090867600096 0.0 0.0
0.029784957089218786 -0.026870430532035527 0.0 -0.007396822751339183 0.0 0.0
0.03852665844926503 -0.035338276164051496 0.0 -0.008907194833621401 0.0 0.0
0.048456133753210416 -0.044990830359143974 0.0 -0.0104347203823478 0.0 0.0
0.05961361058780429 -0.055864257258670946 0.0 -0.01207300621787688 0.0 0.0
0.07189593185120081 -0.0678548253130411 0.0 -0.01374673117837566 0.0 0.0
0.08496574062339533 -0.08062573968730735 0.0 -0.015141208153049368 0.0 0.0
0.09819062712573737 -0.09354598432946393 0.0 -0.015750184005451473 0.0 0.0
0.11058193009722404 -0.1056200346840317 0.0 -0.015036897084297063 0.0 0.0
0.12072544328545727 -0.11545791510252723 0.0 -0.012535330930289468 0.0 0.0
0.126999187975337 -0.12151509436254582 0.0 -0.00757346518639096 0.0 0.0
0.12699918797532728 -0.12151509436254049 0.0 0.007573465186419326 0.0 0.0
0.12072544328543283 -0.1154579151025108 0.0 0.0125353309303331 0.0 0.0
0.11058193009718514 -0.1056200346839975 0.0 0.015036897084326761 0.0 0.0
0.09819062712569007 -0.09354598432941996 0.0 0.015750184005465684 0.0 0.0
0.08496574062334186 -0.08062573968725406 0.0 0.015141208153042873 0.0 0.0
0.07189593185114618 -0.06785482531298381 0.0 0.013746731178371996 0.0 0.0
0.059613610587748084 -0.055864257258615435 0.0 0.012073006217872662 0.0 0.0
0.048456133753153996 -0.044990830359095124 0.0 0.010434720382343277 0.0 0.0
0.03852665844921255 -0.035338276164001314 0.0 0.008907194833609355 0.0 0.0
0.029784957089169728 -0.026870430531987788 0.0 0.007396822751329912 0.0 0.0
0.022178117020498572 -0.019537418808333262 0.0 0.005841090867585441 0.0 0.0
0.01571935368777344 -0.013352887781145073 0.0 0.004322065950400522 0.0 0.0
0.01048529593489031 -0.008396363826940423 0.0 0.002979621031421076 0.0 0.0
0.006543534581558708 -0.004740071689687264 0.0 0.0019184686712465093 0.0 0.0
0.003867095939696835 -0.002379438643543841 0.0 0.0011941223493086572 0.0 0.0
0.0023619137582575056 -0.0011777696566631635 0.0 0.000839923186535585 0.0 0.0
0.001693547488797048 -0.0007274594755088959 0.0 0.0006902742329223943 0.0 0.0
0.0012225423861921547 -0.000408591537725822 0.0 0.0004262650216553254 0.0 0.0
0.0007256181527939276 -0.00042660180517614665 0.0 0.0005440373441617519 0.0 0.0
0.0055702305543892106 -0.007156924480622145 0.0 0.007195712809909244 0.0 0.0
0.004177783782559653 -0.005756880079618137 0.0 -0.006105773630198125 0.0 0.0
0.00045595792249212425 -0.00031897087416704606 0.0 -0.0011287834152311493 0.0 0.0
0.0009471948184064452 -0.00029736696376647664 0.0 -0.00081301885583282 0.0 0.0
0.001443409096035221 -0.000593605382906981 0.0 -0.0009555363758685653 0.0 0.0
0.001994980014246535 -0.0009413275810707944 0.0 -0.0011189860553156572 0.0 0.0
0.003175738382861004 -0.0018245904637872457 0.0 -0.0014679498898912957 0.0 0.0
0.005418045764551321 -0.003733762474915414 0.0 -0.002304974718200209 0.0 0.0
0.008853881623197356 -0.006863814164920212 0.0 -0.0036265044844907 0.0 0.0
0.013440629031751881 -0.01117571846858656 0.0 -0.00527530586575517 0.0 0.0
0.019092712922205067 -0.016566803081704995 0.0 -0.007128193420669893 0.0 0.0
0.02571432521639113 -0.02293552321588299 0.0 -0.009016678983157556 0.0 0.0
0.033284658316513775 -0.030256493889698977 0.0 -0.01085850502930688 0.0 0.0
0.04186446798493982 -0.03858749777383119 0.0 -0.012732183934852093 0.0 0.0
0.05152084532703158 -0.0479888426423174 0.0 -0.014699597080042148 0.0 0.0
0.06220436442958485 -0.058413429135588224 0.0 -0.016703691363741002 0.0 0.0
0.07367111652344846 -0.06961697934755362 0.0 -0.018449326410508504 0.0 0.0
0.08541250862419822 -0.08108425653529672 0.0 -0.019344619271967234 0.0 0.0
0.09657230893825708 -0.0919576273169529 0.0 -0.018652967391354414 0.0 0.0
0.10590983423855316 -0.10102182400840087 0.0 -0.015513905235773395 0.0 0.0
0.11199935187203976 -0.10691491444198364 0.0 -0.008974955537167262 0.0 0.0
0.1119993518720307 -0.10691491444197432 0.0 0.008974955537202622 0.0 0.0
0.10590983423853098 -0.10102182400837645 0.0 0.015513905235824743 0.0 0.0
0.09657230893822294 -0.09195762731691115 0.0 0.018652967391389108 0.0 0.0
0.08541250862415678 -0.08108425653525098 0.0 0.01934461927198161 0.0 0.0
0.07367111652340247 -0.06961697934750921 0.0 0.01844932641050101 0.0 0.0
0.062204364429537196 -0.0584134291355447 0.0 0.016703691363735285 0.0 0.0
0.0515208453269822 -0.047988842642270324 0.0 0.014699597080038429 0.0 0.0
0.04186446798489138 -0.038587497773782786 0.0 0.012732183934847208 0.0 0.0
0.033284658316468096 -0.030256493889654568 0.0 0.010858505029292864 0.0 0.0
0.02571432521634906 -0.022935523215843023 0.0 0.009016678983143067 0.0 0.0
0.01909271292217013 -0.01656680308167191 0.0 0.00712819342065274 0.0 0.0
0.013440629031723828 -0.011175718468560136 0.0 0.005275305865745095 0.0 0.0
0.008853881623176935 -0.006863814164901116 0.0 0.003626504484479376 0.0 0.0
0.005418045764537915 -0.003733762474904534 0.0 0.002304974718194741 0.0 0.0
0.0031757383828541486 -0.001824590463784026 0.0 0.0014679498898880206 0.0 0.0
0.0019949800142444185 -0.0009413275810699062 0.0 0.0011189860553137976 0.0 0.0
0.001443409096034437 -0.0005936053829064258 0.0 0.0009555363758665947 0.0 0.0
0.0009471948184065493 -0.00029736696376542193 0.0 0.0008130188558305163 0.0 0.0
0.00045595792249233935 -0.00031897087416610237 0.0 0.0011287834152276521 0.0 0.0
0.004177783782549627 -0.005756880079606817 0.0 0.006105773630181749 0.0 0.0
0.0031283655289342863 -0.004621164830229396 0.0 -0.004999231917785368 0.0 0.0
0.0003042385450963067 -0.00026543950400903515 0.0 -0.0015834551976243172 0.0 0.0
0.000715061211811828 -0.00021540556170918101 0.0 -0.0012039409841427817 0.0 0.0
0.001190308272370856 -0.00047116729224150333 0.0 -0.001243656343127536 0.0 0.0
0.0016633359965097377 -0.0007513276679304015 0.0 -0.0013919859580078242 0.0 0.0
0.0025606373597184193 -0.0013684963489473123 0.0 -0.001711872358138966 0.0 0.0
0.004344828791408399 -0.002807696407905347 0.0 -0.0025184363159843626 0.0 0.0
0.0072317815380037315 -0.005365645204428171 0.0 -0.00395095504491888 0.0 0.0
0.011161734688209031 -0.009017325862182624 0.0 -0.005828528383770015 0.0 0.0
0.01599769917105849 -0.013603986173127414 0.0 -0.007895300922434734 0.0 0.0
0.021634526530990433 -0.019006910795499987 0.0 -0.009997512419959331 0.0 0.0
0.028038575567471316 -0.025186163644915105 0.0 -0.012043424269125358 0.0 0.0
0.03527259037671139 -0.03219791457990295 0.0 -0.014114903858743588 0.0 0.0
0.043426208928671425 -0.040127473955821724 0.0 -0.016304586167073865 0.0 0.0
0.052499517402989915 -0.048973949753625234 0.0 -0.01851598474179411 0.0 0.0
0.06232986823776722 -0.058574147506112784 0.0 -0.02044600516336087 0.0 0.0
0.07254079149297059 -0.06854881931202739 0.0 -0.021582758561631665 0.0 0.0
0.08247156056965399 -0.07823009783019019 0.0 -0.021059638616718557 0.0 0.0
0.09110005228553394 -0.08661337086409215 0.0 -0.01765987840658506 0.0 0.0
0.09714667114448122 -0.09247104036816944 0.0 -0.010163348002314943 0.0 0.0
0.09714667114447353 -0.09247104036815923 0.0 0.010163348002352857 0.0 0.0
0.0911000522855138 -0.08661337086407483 0.0 0.017659878406638407 0.0 0.0
0.08247156056962482 -0.07823009783016532 0.0 0.021059638616758636 0.0 0.0
0.07254079149293513 -0.06854881931199319 0.0 0.02158275856164915 0.0 0.0
0.062329868237728125 -0.05857414750607237 0.0 0.020446005163356373 0.0 0.0
0.05249951740294875 -0.04897394975358216 0.0 0.018515984741785507 0.0 0.0
0.04342620892862992 -0.04012747395577909 0.0 0.016304586167070312 0.0 0.0
0.03527259037667069 -0.032197914579866094 0.0 0.014114903858736705 0.0 0.0
0.0280385755674325 -0.025186163644880466 0.0 0.01204342426911087 0.0 0.0
0.021634526530955128 -0.019006910795469567 0.0 0.009997512419943677 0.0 0.0
0.015997699171029084 -0.013603986173097438 0.0 0.007895300922415804 0.0 0.0
0.011161734688184849 -0.009017325862159309 0.0 0.0058285283837585244 0.0 0.0
0.007231781537986565 -0.005365645204413516 0.0 0.0039509550449085 0.0 0.0
0.004344828791397887 -0.002807696407895355 0.0 0.0025184363159778678 0.0 0.0
0.0025606373597132914 -0.0013684963489428714 0.0 0.001711872358135691 0.0 0.0
0.0016633359965083083 -0.0007513276679289582 0.0 0.0013919859580077687 0.0 0.0
0.0011903082723701552 -0.000471167292239949 0.0 0.001243656343126398 0.0 0.0
0.0007150612118118349 -0.00021540556170940306 0.0 0.0012039409841408666 0.0 0.0
0.0003042385450965912 -0.0002654395040086466 0.0 0.0015834551976215971 0.0 0.0
0.0031283655289260637 -0.004621164830220001 0.0 0.004999231917772157 0.0 0.0
0.002311667884814947 -0.003675473938420215 0.0 -0.004037222913330418 0.0 0.0
0.00021056560806934077 -0.00023411124060779276 0.0 -0.0019207411592817303 0.0 0.0
0.0005191179998194351 -0.0001529018213763944 0.0 -0.001551412934949481 0.0 0.0
0.0009373391104074147 -0.0003559288365728719 0.0 -0.0015286760822300904 0.0 0.0
0.0013534439300951912 -0.0005904824352468419 0.0 -0.0016575093703304344 0.0 0.0
0.0020131251119034077 -0.0010081620294555282 0.0 -0.0019443630602461737 0.0 0.0
0.0033625946350284847 -0.0020126888199363258 0.0 -0.002666053528393608 0.0 0.0
0.0056548208742000505 -0.0039558776812034235 0.0 -0.004023402140069743 0.0 0.0
0.00889729788867917 -0.006900738318039501 0.0 -0.005946254889647673 0.0 0.0
0.012914061891422399 -0.0106741890714257 0.0 -0.008127799585640194 0.0 0.0
0.017564176166224507 -0.015108879955382903 0.0 -0.01031884384499665 0.0 0.0
0.022809048580050756 -0.02015106297540159 0.0 -0.012448895479112654 0.0 0.0
0.028705505585408964 -0.02585157278211092 0.0 -0.014598277195513654 0.0 0.0
0.03535611307989377 -0.032308568519572756 0.0 -0.016842870698866252 0.0 0.0
0.04281082605058688 -0.039567956253085956 0.0 -0.019124532879419953 0.0 0.0
0.050977349317441814 -0.047538239045174624 0.0 -0.021159600647704002 0.0 0.0
0.05959911296173695 -0.05596357632514426 0.0 -0.02243778116068368 0.0 0.0
0.06825070760087498 -0.064409926638207 0.0 -0.02215851378075423 0.0 0.0
0.07619751446448302 -0.07214094531692705 0.0 -0.018938643824779722 0.0 0.0
0.08230232375667239 -0.07805574766770285 0.0 -0.011160001501158867 0.0 0.0
0.08230232375666587 -0.07805574766769485 0.0 0.011160001501200001 0.0 0.0
0.07619751446446543 -0.07214094531690796 0.0 0.01893864382483268 0.0 0.0
0.06825070760085061 -0.0644099266381879 0.0 0.022158513780793476 0.0 0.0
0.05959911296170747 -0.0559635763251225 0.0 0.02243778116069972 0.0 0.0
0.05097734931740905 -0.047538239045147535 0.0 0.021159600647697063 0.0 0.0
0.042810826050552336 -0.039567956253059755 0.0 0.01912453287940974 0.0 0.0
0.03535611307986053 -0.03230856851955144 0.0 0.016842870698861256 0.0 0.0
0.0287055055853756 -0.025851572782082943 0.0 0.014598277195505993 0.0 0.0
0.02280904858001928 -0.020151062975370504 0.0 0.012448895479098887 0.0 0.0
0.017564176166195544 -0.015108879955355148 0.0 0.010318843844981607 0.0 0.0
0.012914061891398626 -0.010674189071403273 0.0 0.008127799585620155 0.0 0.0
0.00889729788865895 -0.0069007383180221815 0.0 0.005946254889634628 0.0 0.0
0.005654820874186617 -0.003955877681190545 0.0 0.004023402140059085 0.0 0.0
0.003362594635020588 -0.0020126888199307746 0.0 0.002666053528387502 0.0 0.0
0.0020131251119000493 -0.0010081620294550842 0.0 0.001944363060243648 0.0 0.0
0.0013534439300940115 -0.0005904824352467308 0.0 0.0016575093703286303 0.0 0.0
0.0009373391104068873 -0.0003559288365713176 0.0 0.0015286760822290357 0.0 0.0
0.0005191179998194351 -0.00015290182137556174 0.0 0.001551412934946872 0.0 0.0
0.0002105656080692575 -0.00023411124060757071 0.0 0.0019207411592781776 0.0 0.0
0.0023116678848085492 -0.0036754739384125927 0.0 0.004037222913319816 0.0 0.0
0.001671525147790065 -0.002881478721100089 0.0 -0.0032475162412588243 0.0 0.0
0.00014318618430982089 -0.0002137452521489558 0.0 -0.0021560025106796 0.0 0.0
0.0003469879582020524 -0.00010005012411240521 0.0 -0.0018354139620981313 0.0 0.0
0.0006879755469000742 -0.00024382488044083495 0.0 -0.0017890364528022062 0.0 0.0
0.0010484181473862098 -0.00044576160614606675 0.0 -0.0019162997773641 0.0 0.0
0.001526968248210886 -0.0007214911416939529 0.0 -0.002152741544415082 0.0 0.0
0.002475188456216096 -0.001355488883643785 0.0 -0.0027416285114896244 0.0 0.0
0.004176212634492818 -0.0026956770348784964 0.0 -0.003919934999885577 0.0 0.0
0.006683072073925572 -0.0048839739375599045 0.0 -0.005671041378081998 0.0 0.0
0.009859590273660429 -0.007807290458772931 0.0 -0.007784315531514263 0.0 0.0
0.013521614239786928 -0.011268234218575035 0.0 -0.009963795379651419 0.0 0.0
0.01761558677602161 -0.015178890154130098 0.0 -0.012059464159243805 0.0 0.0
0.022186349298710148 -0.01957900386978295 0.0 -0.014149449939341086 0.0 0.0
0.02734228163307878 -0.02457085911884782 0.0 -0.016323510137913166 0.0 0.0
0.033166420066330346 -0.030234260764792076 0.0 -0.018529871818401267 0.0 0.0
0.0396444185302087 -0.036545505379830256 0.0 -0.020513074809041132 0.0 0.0
0.04661968002072675 -0.04336355374527079 0.0 -0.021861663434921186 0.0 0.0
0.05389279827330484 -0.0504846604339817 0.0 -0.021911539218830767 0.0 0.0
0.06109413425580551 -0.057508728814770205 0.0 -0.019283194574599316 0.0 0.0
0.06731523925409914 -0.06353192366544969 0.0 -0.011951434170707376 0.0 0.0
0.06731523925409391 -0.06353192366544214 0.0 0.011951434170745068 0.0 0.0
0.06109413425579116 -0.05750872881475422 0.0 0.019283194574651663 0.0 0.0
0.05389279827328519 -0.050484660433958606 0.0 0.021911539218870013 0.0 0.0
0.04661968002070346 -0.04336355374524592 0.0 0.021861663434939005 0.0 0.0
0.039644418530182274 -0.03654550537980095 0.0 0.020513074809035414 0.0 0.0
0.03316642006630255 -0.03023426076475877 0.0 0.018529871818391608 0.0 0.0
0.027342281633053633 -0.0245708591188194 0.0 0.016323510137907338 0.0 0.0
0.02218634929868482 -0.019579003869754974 0.0 0.014149449939334535 0.0 0.0
0.017615586775997533 -0.015178890154102564 0.0 0.012059464159230981 0.0 0.0
0.013521614239764362 -0.011268234218550832 0.0 0.009963795379635654 0.0 0.0
0.009859590273641777 -0.007807290458753835 0.0 0.0077843155314934465 0.0 0.0
0.006683072073910418 -0.004883973937547692 0.0 0.005671041378070285 0.0 0.0
0.004176212634482729 -0.002695677034871835 0.0 0.0039199349998780275 0.0 0.0
0.002475188456210975 -0.0013554888836404544 0.0 0.00274162851148535 0.0 0.0
0.0015269682482086933 -0.0007214911416907333 0.0 0.0021527415444126397 0.0 0.0
0.0010484181473852383 -0.0004457616061439573 0.0 0.0019162997773624346 0.0 0.0
0.0006879755468998106 -0.0002438248804400578 0.0 0.0017890364528010128 0.0 0.0
0.000346987958201872 -0.00010005012411273828 0.0 0.0018354139620948562 0.0 0.0
0.00014318618430941843 -0.00021374525214878926 0.0 0.002156002510677657 0.0 0.0
0.0016715251477856241 -0.002881478721094257 0.0 0.003247516241251941 0.0 0.0
0.0011805399905244207 -0.002232197140671771 0.0 -0.0026366002157086066 0.0 0.0
7.983567046469797e-05 -0.00019647318737875397 0.0 -0.0022932310757164953 0.0 0.0
0.00018864901300055803 -4.8943201212403586e-05 0.0 -0.0020558702351961278 0.0 0.0
0.00044504811366573305 -0.00013478735428718025 0.0 -0.0020071146521878636 0.0 0.0
0.0007359856970892559 -0.00030165506460821945 0.0 -0.0021421584329508747 0.0 0.0
0.0010835369687512003 -0.0004936187627402333 0.0 -0.002374360013643134 0.0 0.0
0.0016873316857946852 -0.0008450829764363732 0.0 -0.0028060479850989806 0.0 0.0
0.002821315890118553 -0.001630278094524762 0.0 -0.003687448956512296 0.0 0.0
0.004576254888268336 -0.0030494138836065776 0.0 -0.0051016827211032845 0.0 0.0
0.006868665919228911 -0.005070985613782053 0.0 -0.006908808658333321 0.0 0.0
0.009528929404104422 -0.007528587476009818 0.0 -0.008879881875355544 0.0 0.0
0.01247552096826697 -0.010308287736327415 0.0 -0.010820368508758726 0.0 0.0
0.01573683528324124 -0.013420091932855982 0.0 -0.012746406378510045 0.0 0.0
0.01940954742291158 -0.016957020738707307 0.0 -0.014710506028711046 0.0 0.0
0.023599662503472327 -0.021018903402258093 0.0 -0.016702331060594877 0.0 0.0
0.02836068815202024 -0.02564911046043372 0.0 -0.018528584371436452 0.0 0.0
0.03364416157708662 -0.030800855637091562 0.0 -0.019793274421220808 0.0 0.0
0.03940217517287975 -0.03646065447764979 0.0 -0.020114030816648976 0.0 0.0
0.045676202477292954 -0.042625914367967255 0.0 -0.018497408757911504 0.0 0.0
0.05200525800563825 -0.04875052576924288 0.0 -0.012489720201405208 0.0 0.0
0.05200525800563488 -0.04875052576924155 0.0 0.012489720201436794 0.0 0.0
0.0456762024772826 -0.042625914367959705 0.0 0.018497408757958578 0.0 0.0
0.03940217517286504 -0.03646065447763691 0.0 0.020114030816684947 0.0 0.0
0.03364416157706898 -0.030800855637077795 0.0 0.01979327442123391 0.0 0.0
0.02836068815200063 -0.02564911046041729 0.0 0.01852858437142557 0.0 0.0
0.023599662503452135 -0.021018903402246103 0.0 0.016702331060584386 0.0 0.0
0.019409547422894274 -0.016957020738696205 0.0 0.014710506028704717 0.0 0.0
0.015736835283223977 -0.013420091932843103 0.0 0.01274640637850355 0.0 0.0
0.01247552096825022 -0.010308287736315425 0.0 0.010820368508747236 0.0 0.0
0.009528929404088504 -0.007528587475995163 0.0 0.00887988187533928 0.0 0.0
0.006868665919215533 -0.005070985613770507 0.0 0.006908808658315002 0.0 0.0
0.004576254888258607 -0.0030494138835970297 0.0 0.0051016827210931814 0.0 0.0
0.0028213158901116975 -0.001630278094519877 0.0 0.0036874489565066337 0.0 0.0
0.0016873316857915488 -0.0008450829764343748 0.0 0.0028060479850946507 0.0 0.0
0.001083536968749882 -0.0004936187627405664 0.0 0.002374360013639998 0.0 0.0
0.0007359856970885481 -0.0003016550646081084 0.0 0.0021421584329505694 0.0 0.0
0.0004450481136653861 -0.00013478735428673616 0.0 0.0020071146521860594 0.0 0.0
0.000188649013000447 -4.894320121118234e-05 0.0 0.002055870235192492 0.0 0.0
7.98356704644898e-05 -0.00019647318737794905 0.0 0.002293231075714136 0.0 0.0
0.0011805399905210623 -0.0022321971406676043 0.0 0.0026366002157025004 0.0 0.0
0.0008248541814838833 -0.0017348245248413052 0.0 -0.002212295418230703 0.0 0.0
8.667575867010724e-06 -0.00018072618214959313 0.0 -0.002368875138717197 0.0 0.0
3.827138695515486e-05 5.805733600316998e-06 0.0 -0.002214189291094182 0.0 0.0
0.0002097196558721176 -3.042162368371848e-05 0.0 -0.002175837307809042 0.0 0.0
0.00041604193483481267 -0.00015119170269839444 0.0 -0.0023086712254406505 0.0 0.0
0.0006474078783067633 -0.00028702219928988804 0.0 -0.002574789538018929 0.0 0.0
0.0009897873172990262 -0.0004663856397544297 0.0 -0.0029245786329224477 0.0 0.0
0.0016085675881513661 -0.0008127076405244349 0.0 -0.0034568339469878695 0.0 0.0
0.002624428695978148 -0.0015002961368209 0.0 -0.004349904526326498 0.0 0.0
0.003999106621982329 -0.002590328532825481 0.0 -0.005612816383417707 0.0 0.0
0.005625174389351742 -0.003998371008782531 0.0 -0.007127979208891522 0.0 0.0
0.007408342995056549 -0.005622048925965739 0.0 -0.008726900980082164 0.0 0.0
0.009370227394586345 -0.007447608637360492 0.0 -0.010382074162932964 0.0 0.0
0.011579219075294162 -0.00954246623737598 0.0 -0.012054345316034165 0.0 0.0
0.014132431750450564 -0.011999132345014818 0.0 -0.01373433304996946 0.0 0.0
0.01714431029062903 -0.014918340211290904 0.0 -0.015330420370328113 0.0 0.0
0.020699717485902755 -0.018368189713931393 0.0 -0.01652503028887431 0.0 0.0
0.024856664554608443 -0.022433893665934512 0.0 -0.01691418498976993 0.0 0.0
0.02987001667290659 -0.02744633447076783 0.0 -0.01627953542610039 0.0 0.0
0.036119390992348344 -0.03352148750650841 0.0 -0.01257834071001579 0.0 0.0
0.036119390992346526 -0.033521487506504855 0.0 0.012578340710045488 0.0 0.0
0.02987001667290058 -0.0274463344707625 0.0 0.016279535426142355 0.0 0.0
0.02485666455459834 -0.022433893665929627 0.0 0.01691418498979924 0.0 0.0
0.020699717485891278 -0.0183681897139234 0.0 0.01652503028888308 0.0 0.0
0.017144310290616915 -0.014918340211277581 0.0 0.015330420370317621 0.0 0.0
0.014132431750439128 -0.01199913234499661 0.0 0.013734333049960412 0.0 0.0
0.01157921907528442 -0.009542466237361324 0.0 0.012054345316030113 0.0 0.0
0.00937022739457724 -0.007447608637348946 0.0 0.010382074162930355 0.0 0.0
0.007408342995047057 -0.005622048925959078 0.0 0.00872690098007356 0.0 0.0
0.005625174389342902 -0.0039983710087760915 0.0 0.007127979208879587 0.0 0.0
0.003999106621974946 -0.0025903285328179315 0.0 0.005612816383405439 0.0 0.0
0.0026244286959729857 -0.001500296136815571 0.0 0.004349904526320614 0.0 0.0
0.0016085675881481187 -0.0008127076405206601 0.0 0.003456833946984983 0.0 0.0
0.0009897873172971527 -0.0004663856397493227 0.0 0.0029245786329199497 0.0 0.0
0.0006474078783059445 -0.0002870221992877786 0.0 0.0025747895380150154 0.0 0.0
0.00041604193483452123 -0.00015119170269828341 0.0 0.00230867122543843 0.0 0.0
0.00020971965587182617 -3.0421623682497234e-05 0.0 0.0021758373078069326 0.0 0.0
3.827138695500221e-05 5.805733600705576e-06 0.0 0.0022141892910914895 0.0 0.0
8.667575866760924e-06 -0.0001807261821494821 0.0 0.0023688751387150597 0.0 0.0
0.0008248541814816768 -0.0017348245248383423 0.0 0.0022122954182280663 0.0 0.0
0.000575996367957049 -0.0013641838620625513 0.0 -0.001929645160532678 0.0 0.0
-6.484975647248759e-05 -0.00016679357794946448 0.0 -0.0024116087137786846 0.0 0.0
-0.00010670144231554601 6.376636134064473e-05 0.0 -0.0023163172042598434 0.0 0.0
-1.829596706380554e-05 7.005548872884848e-05 0.0 -0.0022881904018915433 0.0 0.0
9.479691297055448e-05 7.172905970298515e-07 0.0 -0.002409122656051338 0.0 0.0
0.00020125714581445409 -7.597438447004556e-05 0.0 -0.0026923236439606313 0.0 0.0
0.000326429186156621 -0.00014967037778856884 0.0 -0.003082538113998945 0.0 0.0
0.0005196993991598425 -0.0002470636694964501 0.0 -0.0034743251351413984 0.0 0.0
0.0008465774823440131 -0.00040967827395665957 0.0 -0.0038999108258587767 0.0 0.0
0.001301433660897619 -0.0006692933005776336 0.0 -0.00449690025183086 0.0 0.0
0.0018507098056467358 -0.0010282022953274073 0.0 -0.005382793717024603 0.0 0.0
0.0024437546020756595 -0.0014599789692435472 0.0 -0.006482792228235668 0.0 0.0
0.0030910981733047044 -0.0019698716847900144 0.0 -0.007765021076224399 0.0 0.0
0.0038274096141843322 -0.0026039158449711053 0.0 -0.009220634500056002 0.0 0.0
0.004732438036676931 -0.0034313815410911275 0.0 -0.010834429941983748 0.0 0.0
0.005966480897332246 -0.0045915044663318305 0.0 -0.012489063395641542 0.0 0.0
0.007765298694244763 -0.0062953537798504655 0.0 -0.013839573147630457 0.0 0.0
0.010348708730932521 -0.008743544213149601 0.0 -0.014310920314487496 0.0 0.0
0.013902302821004839 -0.012250036939389197 0.0 -0.01371358938160594 0.0 0.0
0.019375838288856292 -0.017790923094769706 0.0 -0.012289150012271821 0.0 0.0
0.019375838288856223 -0.01779092309477237 0.0 0.012289150012293582 0.0 0.0
0.013902302821002452 -0.012250036939387421 0.0 0.013713589381639357 0.0 0.0
0.010348708730927192 -0.00874354421314516 0.0 0.014310920314508313 0.0 0.0
0.007765298694240821 -0.006295353779842916 0.0 0.013839573147630457 0.0 0.0
0.005966480897328985 -0.004591504466325613 0.0 0.012489063395630828 0.0 0.0
0.004732438036674086 -0.003431381541088463 0.0 0.010834429941976031 0.0 0.0
0.003827409614182334 -0.0026039158449684408 0.0 0.009220634500050784 0.0 0.0
0.0030910981733035664 -0.0019698716847851294 0.0 0.007765021076221346 0.0 0.0
0.0024437546020738415 -0.0014599789692382181 0.0 0.0064827922282279515 0.0 0.0
0.0018507098056452648 -0.0010282022953249648 0.0 0.00538279371701722 0.0 0.0
0.0013014336608962868 -0.0006692933005785218 0.0 0.004496900251823421 0.0 0.0
0.0008465774823428751 -0.00040967827395865797 0.0 0.003899910825856112 0.0 0.0
0.0005196993991595927 -0.0002470636694975603 0.0 0.0034743251351394 0.0 0.0
0.0003264291861560936 -0.0001496703777879027 0.0 0.0030825381139960584 0.0 0.0
0.00020125714581424592 -7.597438446982352e-05 0.0 0.002692323643956801 0.0 0.0
9.479691297049897e-05 7.172905962526954e-07 0.0 0.0024091226560486456 0.0 0.0
-1.8295967063666763e-05 7.005548872829337e-05 0.0 0.0022881904018900168 0.0 0.0
-0.00010670144231580969 6.37663613404782e-05 0.0 0.0023163172042573454 0.0 0.0
-6.484975647269575e-05 -0.00016679357794965877 0.0 0.0024116087137772135 0.0 0.0
0.0005759963679558971 -0.0013641838620609692 0.0 0.0019296451605305964 0.0 0.0
0.0004030160929827109 -0.001092437167314303 0.0 -0.0017418305618687735 0.0 0.0
-0.00013285730308343346 -0.00014497473200492106 0.0 -0.0024108999939169984 0.0 0.0
-0.0002456418651821113 0.00011992778754188471 0.0 -0.0023679531271634247 0.0 0.0
-0.0002392316701810282 0.00016718933737558395 0.0 -0.002341479556222298 0.0 0.0
-0.00022303252538541374 0.0001502723488271407 0.0 -0.002442997721098905 0.0 0.0
-0.0002487090457711505 0.00013798776381324096 0.0 -0.0027063330174425526 0.0 0.0
-0.00033986224155468925 0.00016550833866335601 0.0 -0.0030869337586961754 0.0 0.0
-0.00052186907393037 0.0002495669186313165 0.0 -0.003477360559722975 0.0 0.0
-0.0008453542951392667 0.0004093023142306418 0.0 -0.003900925442911596 0.0 0.0
-0.001299755224356658 0.0006683008640440136 0.0 -0.004495147737472727 0.0 0.0
-0.0018518554061228154 0.0010310405970215264 0.0 -0.005379066494750839 0.0 0.0
-0.002462286425367527 0.001478901005269151 0.0 -0.006482974124252805 0.0 0.0
-0.0031443056911380496 0.002016332650801367 0.0 -0.007769419269440858 0.0 0.0
-0.0038979671860308873 0.002648604473953764 0.0 -0.009226385649832025 0.0 0.0
-0.004651782036543289 0.003298847098474944 0.0 -0.010854891074283723 0.0 0.0
-0.0052173778783958236 0.0037814773790918466 0.0 -0.012618525606040487 0.0 0.0
-0.005252344492685343 0.0037858387920586267 0.0 -0.014487717211659645 0.0 0.0
-0.004376532412979556 0.003052482189441541 0.0 -0.016471907874455738 0.0 0.0
-0.002292357237596812 0.0014791439712023013 0.0 -0.01819701808224633 0.0 0.0
0.0027365362218193245 -0.0031899144597797857 0.0 -0.016460576808910832 0.0 0.0
0.0027365362218191164 -0.0031899144597775653 0.0 0.016460576808925764 0.0 0.0
-0.0022923572375972284 0.0014791439712040777 0.0 0.01819701808226154 0.0 0.0
-0.004376532412977946 0.003052482189440653 0.0 0.0164719078744609 0.0 0.0
-0.005252344492680319 0.003785838792050633 0.0 0.014487717211653872 0.0 0.0
-0.005217377878389079 0.0037814773790825207 0.0 0.012618525606030662 0.0 0.0
-0.004651782036538252 0.0032988470984660623 0.0 0.010854891074276729 0.0 0.0
-0.003897967186025475 0.0026486044739462145 0.0 0.009226385649826585 0.0 0.0
-0.0031443056911309025 0.002016332650793373 0.0 0.0077694192694353625 0.0 0.0
-0.0024622864253612264 0.0014789010052620455 0.0 0.006482974124244534 0.0 0.0
-0.0018518554061166675 0.0010310405970181957 0.0 0.0053790664947418465 0.0 0.0
-0.001299755224351995 0.0006683008640393506 0.0 0.004495147737463012 0.0 0.0
-0.0008453542951363663 0.0004093023142277552 0.0 0.0039009254429089313 0.0 0.0
-0.0005218690739285659 0.0002495669186317606 0.0 0.003477360559721754 0.0 0.0
-0.0003398622415536623 0.0001655083386642442 0.0 0.0030869337586924006 0.0 0.0
-0.000248709045770637 0.00013798776381412914 0.0 0.0027063330174383893 0.0 0.0
-0.00022303252538526108 0.00015027234882836193 0.0 0.002442997721096657 0.0 0.0
-0.00023923167018073677 0.00016718933737647212 0.0 0.002341479556220355 0.0 0.0
-0.00024564186518212516 0.00011992778754238431 0.0 0.0023679531271609267 0.0 0.0
-0.00013285730308343346 -0.00014497473200472677 0.0 0.002410899993915555 0.0 0.0
0.00040301609298218355 -0.0010924371673134113 0.0 0.0017418305618675523 0.0 0.0
0.0002821827603240179 -0.0008708453429116247 0.0 -0.001572590306107513 0.0 0.0
-0.00019416587025666843 -0.00011486334520427466 0.0 -0.0023596578177324523 0.0 0.0
-0.00037695491082781474 0.0001729208428303819 0.0 -0.002366610232692301 0.0 0.0
-0.0004524445064607585 0.00025980096699529387 0.0 -0.0023326473067771802 0.0 0.0
-0.0005344524352307312 0.0002952174184492895 0.0 -0.0024053471456067232 0.0 0.0
-0.0006918856585023669 0.00034715850048105956 0.0 -0.002622845547815833 0.0 0.0
-0.0010026127396328133 0.000482122809821961 0.0 -0.0029432368329462832 0.0 0.0
-0.0016101189300089247 0.000815148761826423 0.0 -0.0034642267298401475 0.0 0.0
-0.002622201274958741 0.0014989030450336394 0.0 -0.00435034253709643 0.0 0.0
-0.0039970509680514466 0.0025892021984188496 0.0 -0.005610258741821972 0.0 0.0
-0.00562757003247491 0.004003493863789842 0.0 -0.007126293535913153 0.0 0.0
-0.007426981355986184 0.005644707427360007 0.0 -0.00871931518895841 0.0 0.0
-0.00942001671694545 0.007497917709675672 0.0 -0.010353322636382778 0.0 0.0
-0.011643335045477154 0.009588885296269556 0.0 -0.012018373047598119 0.0 0.0
-0.014051495118618085 0.011862157477894542 0.0 -0.01379965449141074 0.0 0.0
-0.01643452433209558 0.014107946584286157 0.0 -0.015797702210870512 0.0 0.0
-0.01838750980869594 0.015938959058139357 0.0 -0.01808191986160068 0.0 0.0
-0.01937076647614397 0.016840858568020423 0.0 -0.020556081079986854 0.0 0.0
-0.018443807181043645 0.015638426284120488 0.0 -0.02161577683478888 0.0 0.0
-0.013106459710706203 0.010104343487782774 0.0 -0.01921874808726104 0.0 0.0
-0.013106459710707369 0.010104343487781886 0.0 0.01921874808728624 0.0 0.0
-0.01844380718104162 0.015638426284117823 0.0 0.021615776834824296 0.0 0.0
-0.019370766476135545 0.01684085856801376 0.0 0.020556081080009447 0.0 0.0
-0.01838750980868223 0.015938959058128255 0.0 0.018081919861598406 0.0 0.0
-0.016434524332079564 0.014107946584269726 0.0 0.015797702210858133 0.0 0.0
-0.014051495118604804 0.011862157477882995 0.0 0.01379965449139875 0.0 0.0
-0.011643335045463984 0.009588885296254457 0.0 0.01201837304759007 0.0 0.0
-0.009420016716930435 0.007497917709659241 0.0 0.010353322636376727 0.0 0.0
-0.007426981355971862 0.0056447074273457964 0.0 0.00871931518894603 0.0 0.0
-0.005627570032461129 0.004003493863774299 0.0 0.0071262935358986645 0.0 0.0
-0.0039970509680406635 0.0025892021984075253 0.0 0.005610258741807539 0.0 0.0
-0.002622201274951025 0.0014989030450280882 0.0 0.004350342537090102 0.0 0.0
-0.001610118930004692 0.0008151487618215381 0.0 0.0034642267298388707 0.0 0.0
-0.0010026127396304402 0.0004821228098179642 0.0 0.0029432368329433967 0.0 0.0
-0.0006918856585011873 0.00034715850047961627 0.0 0.0026228455478120583 0.0 0.0
-0.0005344524352302038 0.00029521741844851235 0.0 0.002405347145604003 0.0 0.0
-0.0004524445064603144 0.00025980096699462774 0.0 0.002332647306776736 0.0 0.0
-0.00037695491082755106 0.00017292084283104803 0.0 0.0023666102326909133 0.0 0.0
-0.00019416587025659904 -0.00011486334520358077 0.0 0.0023596578177315364 0.0 0.0
0.00028218276032368483 -0.0008708453429107765 0.0 0.001572590306106486 0.0 0.0
0.0001892798947935037 -0.0006730684059872427 0.0 -0.0013924781009352905 0.0 0.0
-0.0002500432483537318 -7.791051367028734e-05 0.0 -0.002255341514675796 0.0 0.0
-0.0005001150526822151 0.00022275859797615816 0.0 -0.002309178748888141 0.0 0.0
-0.0006568290174555069 0.00034706308382914663 0.0 -0.0022626132200186944 0.0 0.0
-0.0008360669838415047 0.00043133786218585435 0.0 -0.002293547578264693 0.0 0.0
-0.0011230778065344504 0.0005502551110525555 0.0 -0.002447691597626339 0.0 0.0
-0.0016986464260639877 0.0008616290372971402 0.0 -0.0028359421337786905 0.0 0.0
-0.0028203257240529134 0.0016312385813712638 0.0 -0.0036971503127289362 0.0 0.0
-0.004572855883045734 0.0030465412231635014 0.0 -0.005098245944262836 0.0 0.0
-0.006867632575083993 0.005070535670593124 0.0 -0.006906108546781475 0.0 0.0
-0.009532838995595483 0.007534497514916527 0.0 -0.00887819836194198 0.0 0.0
-0.01249018748217906 0.010326703063906262 0.0 -0.010800755819277197 0.0 0.0
-0.015772698301227045 0.013457956854235675 0.0 -0.012669587053166453 0.0 0.0
-0.01945546318355343 0.016990737649628773 0.0 -0.014578047261658567 0.0 0.0
-0.023529136490331976 0.02090283126763648 0.0 -0.016718263275993017 0.0 0.0
-0.027771229934064 0.024971715830396146 0.0 -0.019355338129980137 0.0 0.0
-0.03168567353752927 0.028715207348693372 0.0 -0.022679573203661985 0.0 0.0
-0.03439746626597162 0.031205978905815 0.0 -0.02608297317688013 0.0 0.0
-0.03422644677410805 0.030755633575779484 0.0 -0.027822792659903617 0.0 0.0
-0.028084840546160728 0.023996709150721163 0.0 -0.02430946190980604 0.0 0.0
-0.028084840546160644 0.023996709150720275 0.0 0.024309461909838015 0.0 0.0
-0.03422644677410261 0.030755633575772823 0.0 0.027822792659944362 0.0 0.0
-0.034397466265958354 0.03120597890579857 0.0 0.02608297317690883 0.0 0.0
-0.03168567353750831 0.028715207348670724 0.0 0.02267957320366426 0.0 0.0
-0.02777122993403998 0.024971715830372165 0.0 0.019355338129971977 0.0 0.0
-0.02352913649031038 0.020902831267612942 0.0 0.016718263275981804 0.0 0.0
-0.019455463183532473 0.01699073764960879 0.0 0.014578047261646798 0.0 0.0
-0.015772698301204632 0.013457956854217468 0.0 0.012669587053157239 0.0 0.0
-0.012490187482156884 0.01032670306388317 0.0 0.010800755819262542 0.0 0.0
-0.009532838995574985 0.007534497514897209 0.0 0.008878198361922829 0.0 0.0
-0.00686763257506702 0.005070535670579579 0.0 0.006906108546763268 0.0 0.0
-0.00457285588303305 0.003046541223155952 0.0 0.0050982459442512895 0.0 0.0
-0.002820325724045475 0.001631238581367489 0.0 0.003697150312722497 0.0 0.0
-0.00169864642605988 0.000861629037295808 0.0 0.0028359421337757484 0.0 0.0
-0.001123077806532785 0.0005502551110513343 0.0 0.002447691597623841 0.0 0.0
-0.0008360669838406165 0.0004313378621867425 0.0 0.0022935475782634718 0.0 0.0
-0.0006568290174549657 0.00034706308382914663 0.0 0.0022626132200167515 0.0 0.0
-0.0005001150526818265 0.00022275859797554753 0.0 0.0023091787488858095 0.0 0.0
-0.00025004324835364855 -7.791051367084245e-05 0.0 0.00225534151467377 0.0 0.0
0.00018927989479318452 -0.0006730684059863164 0.0 0.0013924781009334308 0.0 0.0
0.00010991115142180985 -0.0004955922596947548 0.0 -0.0012077039407967505 0.0 0.0
-0.0003029856227892147 -3.435256546452381e-05 0.0 -0.0020978451165414302 0.0 0.0
-0.0006156307357537971 0.00026999533673977005 0.0 -0.0021970463050804134 0.0 0.0
-0.0008520844983547493 0.00042754739015071763 0.0 -0.002136530091357808 0.0 0.0
-0.0011225069127351883 0.0005565316247645447 0.0 -0.0021114973898552214 0.0 0.0
-0.001560914151542775 0.0007750405706425934 0.0 -0.0022515584714660475 0.0 0.0
-0.00248187270099795 0.001370466645831403 0.0 -0.0027793991003036145 0.0 0.0
-0.00417191089956595 0.002692987643061029 0.0 -0.003922163725203487 0.0 0.0
-0.00667984015016071 0.004880594126934534 0.0 -0.005664820843008178 0.0 0.0
-0.009860552080468876 0.007808589396941068 0.0 -0.007782618811797148 0.0 0.0
-0.013526346399269529 0.011274222886284768 0.0 -0.009962356045692955 0.0 0.0
-0.017622591392845777 0.015188251330797709 0.0 -0.012030774448991255 0.0 0.0
-0.022195586815948132 0.01959071837692017 0.0 -0.014032115955164182 0.0 0.0
-0.027349927084397596 0.02457403608314035 0.0 -0.016092206446488677 0.0 0.0
-0.03311237600636971 0.03015369722449046 0.0 -0.01845603579254318 0.0 0.0
-0.03927021168480113 0.03610334639365398 0.0 -0.02153074669997701 0.0 0.0
-0.045163757360378115 0.04175263270087992 0.0 -0.02552006470209145 0.0 0.0
-0.04944192851475043 0.04573795405819148 0.0 -0.029723270211155395 0.0 0.0
-0.049764955081101736 0.04565341032916104 0.0 -0.03195328424227806 0.0 0.0
-0.04205701798952956 0.03730882456888507 0.0 -0.028781335880758874 0.0 0.0
-0.04205701798952732 0.037308824568882404 0.0 0.028781335880793624 0.0 0.0
-0.049764955081092535 0.04565341032915482 0.0 0.031953284242324076 0.0 0.0
-0.04944192851473238 0.04573795405817904 0.0 0.02972327021119131 0.0 0.0
-0.045163757360351 0.041752632700856385 0.0 0.025520064702097223 0.0 0.0
-0.03927021168477038 0.036103346393626 0.0 0.02153074669996846 0.0 0.0
-0.03311237600634001 0.03015369722446204 0.0 0.018456035792529746 0.0 0.0
-0.027349927084369036 0.024574036083121253 0.0 0.016092206446476354 0.0 0.0
-0.022195586815918045 0.019590718376891303 0.0 0.014032115955153468 0.0 0.0
-0.0176225913928163 0.015188251330767955 0.0 0.0120307744489756 0.0 0.0
-0.013526346399242634 0.011274222886255902 0.0 0.00996235604567175 0.0 0.0
-0.009860552080445409 0.007808589396912868 0.0 0.007782618811778719 0.0 0.0
-0.006679840150143487 0.004880594126916549 0.0 0.005664820842997076 0.0 0.0
-0.0041719108995546955 0.0026929876430550337 0.0 0.00392216372519405 0.0 0.0
-0.002481872700991525 0.0013704666458285164 0.0 0.002779399100297786 0.0 0.0
-0.0015609141515403324 0.0007750405706394847 0.0 0.002251558471461468 0.0 0.0
-0.0011225069127339393 0.0005565316247633234 0.0 0.0021114973898532508 0.0 0.0
-0.0008520844983540277 0.00042754739015027354 0.0 0.002136530091355754 0.0 0.0
-0.0006156307357533392 0.00026999533673865983 0.0 0.0021970463050786093 0.0 0.0
-0.00030298562278888164 -3.435256546469034e-05 0.0 0.002097845116539765 0.0 0.0
0.00010991115142154617 -0.0004955922596942015 0.0 0.0012077039407959456 0.0 0.0
4.012170727243913e-05 -0.00033869894921167987 0.0 -0.0010188757035248242 0.0 0.0
-0.00035503605457179455 1.4302495303097906e-05 0.0 -0.0018918842309370298 0.0 0.0
-0.0007244983167883912 0.0003154306953676578 0.0 -0.002028567607510856 0.0 0.0
-0.0010367925848136783 0.0004995155449379896 0.0 -0.0019469636900801834 0.0 0.0
-0.0013962679308753 0.0006765192442736989 0.0 -0.0018773108540358352 0.0 0.0
-0.002038473746368147 0.0010525121403497373 0.0 -0.00204414393072358 0.0 0.0
-0.003362959798360793 0.0020215232057136934 0.0 -0.0026933917784639494 0.0 0.0
-0.0056490687549572705 0.003950514772518954 0.0 -0.004019571453197424 0.0 0.0
-0.00889570674404827 0.006898541490733434 0.0 -0.0059385248191765605 0.0 0.0
-0.012917103967770738 0.010677358398505143 0.0 -0.008126343656744306 0.0 0.0
-0.017568763919830643 0.01511388248898582 0.0 -0.010315468312262432 0.0 0.0
-0.022805639146479234 0.020148203205851978 0.0 -0.012413669203521827 0.0 0.0
-0.028679228061069872 0.025827683941690438 0.0 -0.014460387770487748 0.0 0.0
-0.03530824389112164 0.032265766787489714 0.0 -0.016554511875690348 0.0 0.0
-0.0427665792151421 0.039519779535114985 0.0 -0.018949770534221977 0.0 0.0
-0.05084120580641818 0.047348247872747606 0.0 -0.022075167745327695 0.0 0.0
-0.05867662137234206 0.054874034446160014 0.0 -0.02621735508947054 0.0 0.0
-0.06443075731705505 0.06024248563182111 0.0 -0.030831056314963523 0.0 0.0
-0.06498614293831617 0.060313237273255105 0.0 -0.03387998258227731 0.0 0.0
-0.05561433770848881 0.05035321282300709 0.0 -0.032851876578419426 0.0 0.0
-0.0556143377084847 0.050353212823001314 0.0 0.03285187657845473 0.0 0.0
-0.06498614293830282 0.06031323727323867 0.0 0.03387998258232383 0.0 0.0
-0.06443075731703149 0.060242485631792686 0.0 0.03083105631499783 0.0 0.0
-0.05867662137231011 0.05487403444612937 0.0 0.0262173550894787 0.0 0.0
-0.05084120580638139 0.0473482478727143 0.0 0.02207516774532159 0.0 0.0
-0.042766579215104336 0.03951977953507946 0.0 0.018949770534212873 0.0 0.0
-0.0353082438910849 0.03226576678744841 0.0 0.0165545118756793 0.0 0.0
-0.02867922806103261 0.02582768394165491 0.0 0.0144603877704777 0.0 0.0
-0.022805639146442888 0.020148203205816895 0.0 0.012413669203505784 0.0 0.0
-0.017568763919796837 0.015113882488951624 0.0 0.010315468312240172 0.0 0.0
-0.012917103967741456 0.01067735839848094 0.0 0.008126343656724155 0.0 0.0
-0.008895706744026274 0.006898541490712784 0.0 0.005938524819163238 0.0 0.0
-0.005649068754942213 0.0039505147725027445 0.0 0.004019571453187987 0.0 0.0
-0.0033629597983518 0.0020215232057030352 0.0 0.0026933917784572325 0.0 0.0
-0.0020384737463642055 0.0010525121403474058 0.0 0.002044143930718889 0.0 0.0
-0.0013962679308736764 0.0006765192442735879 0.0 0.001877310854034392 0.0 0.0
-0.0010367925848128179 0.0004995155449378785 0.0 0.001946963690079323 0.0 0.0
-0.0007244983167879054 0.000315430695368768 0.0 0.0020285676075096903 0.0 0.0
-0.00035503605457148923 1.4302495303375462e-05 0.0 0.0018918842309350037 0.0 0.0
4.0121707272369744e-05 -0.0003386989492112479 0.0 0.0010188757035234641 0.0 0.0
-2.0245640282218202e-05 -0.00020406353803828492 0.0 -0.0008246682077445999 0.0 0.0
-0.00040613435120995245 6.593168866925181e-05 0.0 -0.0016431453329625034 0.0 0.0
-0.0008275360812222687 0.00035890874516730786 0.0 -0.001804799950875513 0.0 0.0
-0.001210809465645335 0.000564413766398042 0.0 -0.0017057070581469047 0.0 0.0
-0.0016728022433106227 0.000810679969392547 0.0 -0.0016219875357838531 0.0 0.0
-0.002571357223248194 0.001400605924789522 0.0 -0.001813661784039411 0.0 0.0
-0.004341208727981299 0.0028103700794759323 0.0 -0.0025365228920873895 0.0 0.0
-0.007227384894252342 0.005360517895550476 0.0 -0.0039406304630935085 0.0 0.0
-0.011162625002344634 0.00901748416269843 0.0 -0.00582157133255673 0.0 0.0
-0.016002225994251273 0.013608487053850205 0.0 -0.007894411109973909 0.0 0.0
-0.021637449929444552 0.01900949059929724 0.0 -0.00999118495275575 0.0 0.0
-0.028022998076573796 0.02516966694074174 0.0 -0.012003449671161182 0.0 0.0
-0.03521004158746077 0.03213749815879696 0.0 -0.013982593976162527 0.0 0.0
-0.0433173940215523 0.0400312152965423 0.0 -0.016026852719552287 0.0 0.0
-0.052433773835583536 0.0489234383279622 0.0 -0.018247157891833177 0.0 0.0
-0.062357340560426966 0.058567097102378174 0.0 -0.020985636353080706 0.0 0.0
-0.07207560964034374 0.06791283754450994 0.0 -0.024769685712005995 0.0 0.0
-0.07925168402780555 0.0746180268322818 0.0 -0.029530904795857404 0.0 0.0
-0.08004468553062113 0.07487789151430757 0.0 -0.03403125167940646 0.0 0.0
-0.0692128163939686 0.06348765272962575 0.0 -0.03677376026637991 0.0 0.0
-0.06921281639396275 0.06348765272962265 0.0 0.03677376026641638 0.0 0.0
-0.08004468553060408 0.07487789151429336 0.0 0.034031251679452035 0.0 0.0
-0.0792516840277762 0.0746180268322516 0.0 0.029530904795890933 0.0 0.0
-0.07207560964030653 0.06791283754446908 0.0 0.024769685712016043 0.0 0.0
-0.06235734056038389 0.05856709710233332 0.0 0.020985636353079873 0.0 0.0
-0.05243377383553885 0.04892343832791557 0.0 0.018247157891826682 0.0 0.0
-0.04331739402150765 0.04003121529649567 0.0 0.01602685271954163 0.0 0.0
-0.035210041587416044 0.032137498158747224 0.0 0.013982593976151703 0.0 0.0
-0.028022998076530678 0.025169666940697333 0.0 0.012003449671146749 0.0 0.0
-0.021637449929404015 0.01900949059925816 0.0 0.009991184952735072 0.0 0.0
-0.016002225994216905 0.013608487053819562 0.0 0.007894411109955285 0.0 0.0
-0.011162625002317676 0.009017484162673561 0.0 0.005821571332542963 0.0 0.0
-0.007227384894233219 0.005360517895532935 0.0 0.003940630463083461 0.0 0.0
-0.004341208727969698 0.0028103700794663844 0.0 0.002536522892082227 0.0 0.0
-0.0025713572232426707 0.001400605924785192 0.0 0.001813661784035775 0.0 0.0
-0.0016728022433083398 0.0008106799693929911 0.0 0.001621987535781938 0.0 0.0
-0.0012108094656444468 0.0005644137663991522 0.0 0.0017057070581460165 0.0 0.0
-0.0008275360812213944 0.00035890874516764093 0.0 0.001804799950873709 0.0 0.0
-0.0004061343512095916 6.59316886691963e-05 0.0 0.0016431453329617818 0.0 0.0
-2.0245640282245958e-05 -0.00020406353803813573 0.0 0.0008246682077455714 0.0 0.0
-6.93410141023032e-05 -9.408810564348613e-05 0.0 -0.0006242191831369037 0.0 0.0
-0.00045409672913529486 0.00011765945707742365 0.0 -0.0013563096020884624 0.0 0.0
-0.0009252300688156745 0.00040016193864800265 0.0 -0.0015261494016255983 0.0 0.0
-0.0013779482475343718 0.0006250712861854968 0.0 -0.0014159779146533658 0.0 0.0
-0.0019687610109990206 0.0009660937258435531 0.0 -0.0013285519939061907 0.0 0.0
-0.00316954857877505 0.0018370136235366097 0.0 -0.0015482213762426922 0.0 0.0
-0.005414024268100365 0.0037317123569011734 0.0 -0.002308941859632596 0.0 0.0
-0.008853651260941398 0.006862469350609635 0.0 -0.0036140126857279187 0.0 0.0
-0.013444169722701654 0.011178607966322973 0.0 -0.005269935590844044 0.0 0.0
-0.019097787816808875 0.01657161294615328 0.0 -0.007127424229226631 0.0 0.0
-0.025713508741792984 0.022933826975934046 0.0 -0.009006665126417568 0.0 0.0
-0.03325615457363923 0.030226539647048245 0.0 -0.010817021435139296 0.0 0.0
-0.041773054067473475 0.03849824425558834 0.0 -0.012626386718432747 0.0 0.0
-0.051359833731121435 0.04784208234206133 0.0 -0.014491177463901161 0.0 0.0
-0.062069569053618434 0.058304434813330364 0.0 -0.01640242030164296 0.0 0.0
-0.07369622671532453 0.06963412439468275 0.0 -0.018448635987872275 0.0 0.0
-0.0851837353561149 0.08069897824359629 0.0 -0.021253806785757723 0.0 0.0
-0.09383487363520823 0.08880510929512342 0.0 -0.02581697145329387 0.0 0.0
-0.09515078269599841 0.08952832643470154 0.0 -0.03243412120206379 0.0 0.0
-0.08321828353208181 0.07703649386849554 0.0 -0.040531741881188854 0.0 0.0
-0.08321828353207497 0.07703649386848843 0.0 0.04053174188122677 0.0 0.0
-0.09515078269597745 0.08952832643468378 0.0 0.03243412120210554 0.0 0.0
-0.0938348736351735 0.08880510929509677 0.0 0.025816971453323956 0.0 0.0
-0.08518373535607172 0.0806989782435581 0.0 0.02125380678576605 0.0 0.0
-0.07369622671527479 0.06963412439463657 0.0 0.018448635987870665 0.0 0.0
-0.06206956905356675 0.058304434813282846 0.0 0.01640242030163902 0.0 0.0
-0.051359833731069365 0.04784208234201026 0.0 0.01449117746389239 0.0 0.0
-0.04177305406742131 0.03849824425553372 0.0 0.012626386718422478 0.0 0.0
-0.033256154573589186 0.030226539646996287 0.0 0.010817021435128499 0.0 0.0
-0.025713508741745862 0.022933826975888305 0.0 0.00900666512640036 0.0 0.0
-0.019097787816769504 0.016571612946116865 0.0 0.007127424229209478 0.0 0.0
-0.01344416972267036 0.011178607966293441 0.0 0.005269935590833802 0.0 0.0
-0.008853651260918423 0.006862469350586764 0.0 0.0036140126857190646 0.0 0.0
-0.005414024268085842 0.0037317123568860744 0.0 0.002308941859626379 0.0 0.0
-0.003169548578767875 0.0018370136235293932 0.0 0.001548221376240333 0.0 0.0
-0.0019687610109961756 0.0009660937258408886 0.0 0.001328551993905358 0.0 0.0
-0.00137794824753322 0.0006250712861837204 0.0 0.0014159779146522 0.0 0.0
-0.0009252300688149181 0.00040016193864700345 0.0 0.0015261494016235722 0.0 0.0
-0.00045409672913459403 0.0001176594570772016 0.0 0.0013563096020864085 0.0 0.0
-6.934101410242116e-05 -9.408810564322245e-05 0.0 0.0006242191831353217 0.0 0.0
-0.00010345033591965813 -1.1904091736680833e-05 0.0 -0.0004191811789879263 0.0 0.0
-0.0004940771935066091 0.00016581084511430033 0.0 -0.0010339424463199909 0.0 0.0
-0.00101801500749521 0.00043790891221573425 0.0 -0.0011911585105823796 0.0 0.0
-0.0015450990636745876 0.0006899263486457308 0.0 -0.001081036996480933 0.0 0.0
-0.0022989031787860326 0.0011630233534382084 0.0 -0.00100202304064817 0.0 0.0
-0.003847648691182093 0.0023708727701259313 0.0 -0.0012475903175967473 0.0 0.0
-0.006543993664944653 0.004739228454636368 0.0 -0.0019142019446733993 0.0 0.0
-0.010490680992539608 0.008400688189386107 0.0 -0.0029680772795288024 0.0 0.0
-0.015725244007053857 0.013358304390626241 0.0 -0.004318656446901603 0.0 0.0
-0.022182597908153717 0.019541352917592736 0.0 -0.005839840553664655 0.0 0.0
-0.029778510098231403 0.02686287243545049 0.0 -0.0073844222134683 0.0 0.0
-0.0384856704974631 0.03529630041608156 0.0 -0.008869830614396723 0.0 0.0
-0.04834645653529415 0.04488362620587116 0.0 -0.01036415263837942 0.0 0.0
-0.05941766785901667 0.05567953600499154 0.0 -0.011953684724368752 0.0 0.0
-0.07165700156414831 0.06763841686622518 0.0 -0.01350035459052834 0.0 0.0
-0.08477041808897712 0.08044237673366084 0.0 -0.014695568003844861 0.0 0.0
-0.0977871798971934 0.0930441174369161 0.0 -0.01595060087228717 0.0 0.0
-0.10807996249007179 0.10271416323515314 0.0 -0.01966462782748335 0.0 0.0
-0.11048297407961816 0.1044321345496888 0.0 -0.028683819721910142 0.0 0.0
-0.0980360577794569 0.0913660584774254 0.0 -0.04382912503710751 0.0 0.0
-0.09803605777944903 0.09136605847741786 0.0 0.04382912503713576 0.0 0.0
-0.11048297407959307 0.10443213454966349 0.0 0.028683819721946502 0.0 0.0
-0.10807996249003161 0.1027141632351114 0.0 0.019664627827511716 0.0 0.0
-0.09778717989714386 0.09304411743686769 0.0 0.015950600872294052 0.0 0.0
-0.08477041808892093 0.08044237673360133 0.0 0.014695568003843529 0.0 0.0
-0.07165700156408948 0.06763841686617189 0.0 0.013500354590527341 0.0 0.0
-0.05941766785895756 0.05567953600493958 0.0 0.01195368472436284 0.0 0.0
-0.04834645653523485 0.04488362620581521 0.0 0.010364152638370427 0.0 0.0
-0.0384856704974059 0.03529630041602472 0.0 0.008869830614389146 0.0 0.0
-0.029778510098178557 0.026862872435403196 0.0 0.007384422213453784 0.0 0.0
-0.02218259790810897 0.019541352917550103 0.0 0.005839840553649639 0.0 0.0
-0.015725244007018385 0.01335830439059249 0.0 0.0043186564468922495 0.0 0.0
-0.010490680992513185 0.008400688189364569 0.0 0.002968077279521447 0.0 0.0
-0.006543993664926962 0.0047392284546246 0.0 0.0019142019446665715 0.0 0.0
-0.003847648691172864 0.002370872770119048 0.0 0.0012475903175937497 0.0 0.0
-0.002298903178782251 0.0011630233534372092 0.0 0.0010020230406472264 0.0 0.0
-0.001545099063673467 0.0006899263486463969 0.0 0.0010810369964815714 0.0 0.0
-0.0010180150074941968 0.0004379089122156232 0.0 0.0011911585105817968 0.0 0.0
-0.0004940771935060574 0.0001658108451138285 0.0 0.0010339424463188251 0.0 0.0
-0.0001034503359194569 -1.1904091736873387e-05 0.0 0.0004191811789868438 0.0 0.0
-0.00011610648816084979 3.844663740570908e-05 0.0 -0.00021625951084336403 0.0 0.0
-0.0005173290161907262 0.00020455788854684132 0.0 -0.000675601926579783 0.0 0.0
-0.0011070683254560676 0.0004724530530094695 0.0 -0.0007932951614906258 0.0 0.0
-0.0017241065738388683 0.0007661245064424227 0.0 -0.0007039240093448806 0.0 0.0
-0.002682355248949858 0.0014263215291854259 0.0 -0.0006576649830598025 0.0 0.0
-0.004594581855189767 0.0029961894995043092 0.0 -0.000858137365098044 0.0 0.0
-0.007691683090451512 0.005795356867694945 0.0 -0.0013293162934494562 0.0 0.0
-0.012127107190439246 0.009953903978709988 0.0 -0.002043195449581703 0.0 0.0
-0.01798588454297695 0.015533822478442927 0.0 -0.0029748603900822124 0.0 0.0
-0.02523670109511772 0.02249528454157157 0.0 -0.00404057660858681 0.0 0.0
-0.03381318336169542 0.03077550598135792 0.0 -0.005121659722895078 0.0 0.0
-0.04369302766969904 0.040356805324801126 0.0 -0.006162238079198579 0.0 0.0
-0.05490827594279976 0.0512700102603203 0.0 -0.0072417934020937436 0.0 0.0
-0.06745817074371568 0.06351035148464934 0.0 -0.008381660199951124 0.0 0.0
-0.08117974835102645 0.07691040099879443 0.0 -0.00942306070415544 0.0 0.0
-0.0956022236613431 0.0909974039491468 0.0 -0.00997165261710431 0.0 0.0
-0.10975238938967866 0.1047699702500311 0.0 -0.009769605366559686 0.0 0.0
-0.12156473530261047 0.116040058208978 0.0 -0.011054448056673327 0.0 0.0
-0.12615681552057667 0.1196768492219098 0.0 -0.021411141435589642 0.0 0.0
-0.11427745571114106 0.10703390352917541 0.0 -0.04592136980748068 0.0 0.0
-0.11427745571113089 0.1070339035291652 0.0 0.0459213698075 0.0 0.0
-0.12615681552054753 0.11967684922188493 0.0 0.021411141435618286 0.0 0.0
-0.12156473530256472 0.11604005820893804 0.0 0.0110544480566942 0.0 0.0
-0.10975238938962179 0.10476997024997559 0.0 0.009769605366561906 0.0 0.0
-0.09560222366128028 0.09099740394908462 0.0 0.009971652617102478 0.0 0.0
-0.08117974835096065 0.07691040099872559 0.0 0.00942306070415494 0.0 0.0
-0.0674581707436489 0.06351035148458228 0.0 0.008381660199945379 0.0 0.0
-0.054908275942732974 0.05127001026025546 0.0 0.007241793402088914 0.0 0.0
-0.04369302766963521 0.04035680532474162 0.0 0.006162238079193694 0.0 0.0
-0.03381318336163701 0.03077550598130041 0.0 0.005121659722885308 0.0 0.0
-0.02523670109506768 0.022495284541523608 0.0 0.0040405766085765404 0.0 0.0
-0.017985884542937515 0.015533822478406512 0.0 0.002974860390076328 0.0 0.0
-0.01212710719040936 0.009953903978680456 0.0 0.0020431954495774285 0.0 0.0
-0.00769168309043133 0.005795356867674073 0.0 0.001329316293445848 0.0 0.0
-0.004594581855178238 0.0029961894994943172 0.0 0.000858137365095879 0.0 0.0
-0.002682355248944973 0.00142632152918154 0.0 0.0006576649830578873 0.0 0.0
-0.0017241065738375777 0.0007661245064422006 0.0 0.0007039240093439925 0.0 0.0
-0.0011070683254550719 0.00047245305300885887 0.0 0.0007932951614887662 0.0 0.0
-0.0005173290161902995 0.00020455788854725765 0.0 0.0006756019265774516 0.0 0.0
-0.0001161064881606104 3.844663740596062e-05 0.0 0.000216259510843142 0.0 0.0
-9.57581733312396e-05 5.1192871261040995e-05 0.0 -3.162339049883611e-05 0.0 0.0
-0.000509054235826728 0.00022469853665407769 0.0 -0.00027462094891816946 0.0 0.0
-0.0011961509731441 0.0005052721395507609 0.0 -0.00031823262473357206 0.0 0.0
-0.0019349698883576183 0.0008755388488355109 0.0 -0.00029297567870886776 0.0 0.0
-0.003130047799803082 0.001756631459384872 0.0 -0.00027478367924094194 0.0 0.0
-0.005379183699634277 0.0036773352510912627 0.0 -0.0003531244124542199 0.0 0.0
-0.008846182258776536 0.006874175734193244 0.0 -0.0005487024820510777 0.0 0.0
-0.01374441152431996 0.011502688542851969 0.0 -0.0008413926172406994 0.0 0.0
-0.020207040178813057 0.017681948638912592 0.0 -0.0012470698102227673 0.0 0.0
-0.028238912650403014 0.025409957279019624 0.0 -0.0017289057087520043 0.0 0.0
-0.037799169719679504 0.03465270725950331 0.0 -0.0022223325299450813 0.0 0.0
-0.04886492686264712 0.045392839177467614 0.0 -0.0027171405298860307 0.0 0.0
-0.06142728193155411 0.057624495862991676 0.0 -0.0032250893834100403 0.0 0.0
-0.07543253390133467 0.07128696528808875 0.0 -0.0037286791327454383 0.0 0.0
-0.09061262767038303 0.08610456531040844 0.0 -0.004142070414084542 0.0 0.0
-0.10628218879454684 0.10139509731636975 0.0 -0.0042067225415145515 0.0 0.0
-0.12124526288974291 0.11597984439387066 0.0 -0.003512998690668123 0.0 0.0
-0.1337720297484396 0.12811388639134735 0.0 -0.002276658369529283 0.0 0.0
-0.1408897806400654 0.13460113342356417 0.0 -0.007589907186300815 0.0 0.0
-0.1337071418443812 0.1253673476373911 0.0 -0.04232352275091117 0.0 0.0
-0.1337071418443691 0.12536734763737956 0.0 0.04232352275091883 0.0 0.0
-0.14088978064003277 0.13460113342353175 0.0 0.007589907186316247 0.0 0.0
-0.1337720297483868 0.12811388639130294 0.0 0.002276658369538387 0.0 0.0
-0.12124526288967792 0.11597984439380671 0.0 0.003512998690667818 0.0 0.0
-0.1062821887944772 0.10139509731629648 0.0 0.004206722541514746 0.0 0.0
-0.09061262767031053 0.08610456531033694 0.0 0.00414207041408543 0.0 0.0
-0.0754325339012594 0.07128696528801504 0.0 0.0037286791327437174 0.0 0.0
-0.06142728193147996 0.0576244958629184 0.0 0.003225089383409041 0.0 0.0
-0.048864926862577 0.045392839177397004 0.0 0.0027171405298845874 0.0 0.0
-0.037799169719614716 0.03465270725944203 0.0 0.0022223325299406127 0.0 0.0
-0.028238912650348277 0.025409957278967887 0.0 0.0017289057087472581 0.0 0.0
-0.020207040178770088 0.017681948638869294 0.0 0.001247069810220769 0.0 0.0
-0.013744411524286935 0.011502688542820438 0.0 0.0008413926172387287 0.0 0.0
-0.0088461822587542 0.006874175734171262 0.0 0.0005487024820476916 0.0 0.0
-0.0053791836996205915 0.0036773352510793833 0.0 0.00035312441245141657 0.0 0.0
-0.0031300477997967388 0.001756631459379765 0.0 0.000274783679240137 0.0 0.0
-0.0019349698883559755 0.0008755388488347338 0.0 0.0002929756787085902 0.0 0.0
-0.0011961509731432543 0.0005052721395513715 0.0 0.00031823262473301694 0.0 0.0
-0.0005090542358261929 0.00022469853665407769 0.0 0.00027462094891816946 0.0 0.0
-9.575817333108867e-05 5.1192871261011505e-05 0.0 3.162339049767038e-05 0.0 0.0
SCALARS Statev float 8
LOOKUP_TABLE default
0.0 0.011630711631679943 0.008940230123304369 -0.00932327316341055 0.00038304304010618304 -0.005103890342471984 0.0 0.0
0.0 0.0005115629031460211 0.0003395464708966093 -0.0002787280437941918 -6.081842710241752e-05 0.0003425850249034227 0.0 0.0
0.0 3.342380937738801e-05 -4.754075056001044e-06 3.773145031477424e-06 9.809300245235895e-07 5.62033213615258e-07 0.0 0.0
0.0 0.00018334435815209516 0.00010804848170670545 -8.442462146254606e-05 -2.3623860244159476e-05 -1.483892225750877e-05 0.0 0.0
0.0 0.001105517265408056 0.0008503901954334418 -0.0006926508840622301 -0.00015773931137121159 -9.345960659387418e-05 0.0 0.0
0.0 0.0030251304607916535 0.0027648458303906353 -0.0023738339706850745 -0.00039101185970556084 -0.000226842788278115 0.0 0.0
0.0 0.006625400569692767 0.005953040193223856 -0.0053725648358223495 -0.0005804753574015055 -0.0004208781068063609 0.0 0.0
0.0 0.01195522283912324 0.010609846531493442 -0.009894716843054978 -0.0007151296884384588 -0.0006998396984725438 0.0 0.0
0.0 0.019128576753296954 0.016834875575575246 -0.016010857671292213 -0.0008240179042830302 -0.0010855655555455758 0.0 0.0
0.0 0.028147728180852566 0.02463382492447842 -0.023704123894855905 -0.0009297010296225124 -0.0015531459884820455 0.0 0.0
0.0 0.039001375355365034 0.03397893042985237 -0.032941196208066265 -0.001037734221786103 -0.0020447711001658512 0.0 0.0
0.0 0.0513896004830328 0.044858374468641694 -0.043710090495740136 -0.0011482839729015375 -0.0025445000077330654 0.0 0.0
0.0 0.06561027697532862 0.05726283106503611 -0.05600273739201997 -0.0012600936730160959 -0.0030543672600561057 0.0 0.0
0.0 0.08162011018333673 0.07115683561289644 -0.06978230977418912 -0.0013745258387072522 -0.003573543856801595 0.0 0.0
0.0 0.09914170245073546 0.08635522663880316 -0.08486180633896737 -0.0014934202998357821 -0.004096330675671493 0.0 0.0
0.0 0.11764721723287637 0.10237040595292218 -0.1007541927808948 -0.0016162131720273765 -0.004531403889433135 0.0 0.0
0.0 0.13610835691904052 0.11834053599176628 -0.11660135273971861 -0.0017391832520476753 -0.0046833922845721555 0.0 0.0
0.0 0.1531154614210219 0.1330611884080167 -0.13120429288872293 -0.0018568955192937373 -0.004312992464830585 0.0 0.0
0.0 0.1669951424971082 0.14508129560671496 -0.1431168895595153 -0.001964406047199607 -0.003502504396347972 0.0 0.0
0.0 0.1753388754132719 0.15244772488814617 -0.15034594785749186 -0.0021017770306543298 -0.0034293353479915066 0.0 0.0
0.0 0.17533887541326101 0.1524477248881366 -0.15034594785748234 -0.0021017770306542304 0.0034293353479961956 0.0 0.0
0.0 0.16699514249707714 0.14508129560668764 -0.14311688955948873 -0.001964406047198884 0.0035025043963658525 0.0 0.0
0.0 0.1531154614209677 0.13306118840796954 -0.1312042928886767 -0.0018568955192928389 0.0043129924648379805 0.0 0.0
0.0 0.13610835691896978 0.11834053599170469 -0.11660135273965778 -0.0017391832520468596 0.004683392284578862 0.0 0.0
0.0 0.11764721723279692 0.10237040595285324 -0.10075419278082634 -0.0016162131720269116 0.004531403889424987 0.0 0.0
0.0 0.09914170245065554 0.08635522663873374 -0.08486180633889848 -0.0014934202998352734 0.004096330675670992 0.0 0.0
0.0 0.0816201101832564 0.07115683561282675 -0.06978230977412 -0.0013745258387067236 0.0035735438568000348 0.0 0.0
0.0 0.06561027697524792 0.05726283106496595 -0.05600273739195063 -0.0012600936730153432 0.003054367260056054 0.0 0.0
0.0 0.05138960048295602 0.04485837446857496 -0.043710090495674155 -0.0011482839729007911 0.002544500007727616 0.0 0.0
0.0 0.03900137535529458 0.0339789304297909 -0.032941196208005334 -0.001037734221785555 0.0020447711001629117 0.0 0.0
0.0 0.028147728180794904 0.02463382492442834 -0.02370412389480642 -0.0009297010296219255 0.001553145988476141 0.0 0.0
0.0 0.019128576753253877 0.016834875575537218 -0.0160108576712548 -0.0008240179042824255 0.0010855655555435599 0.0 0.0
0.0 0.011955222839092214 0.010609846531465572 -0.00989471684302779 -0.0007151296884377848 0.0006998396984701656 0.0 0.0
0.0 0.0066254005696719034 0.005953040193204784 -0.0053725648358040855 -0.0005804753574006961 0.00042087810680528864 0.0 0.0
0.0 0.0030251304607801714 0.0027648458303797204 -0.0023738339706751077 -0.0003910118597046122 0.00022684278827712824 0.0 0.0
0.0 0.0011055172654031121 0.0008503901954294982 -0.0006926508840589206 -0.00015773931137057738 9.345960659349587e-05 0.0 0.0
0.0 0.00018334435815062713 0.00010804848170631875 -8.442462146222737e-05 -2.3623860244091375e-05 1.4838922257373009e-05 0.0 0.0
0.0 3.342380937687491e-05 -4.754075055922566e-06 3.7731450314146314e-06 9.80930024507978e-07 -5.620332136057866e-07 0.0 0.0
0.0 0.0005115629031437339 0.00033954647089537974 -0.00027872804379316214 -6.081842710221786e-05 -0.0003425850249018065 0.0 0.0
0.0 0.011630711631662653 0.008940230123292724 -0.009323273163397906 0.00038304304010517657 0.005103890342445562 0.0 0.0
0.0 0.008467663350246402 0.006102032488705148 -0.006587666477215592 0.0004856339885104418 -0.0057982811652228985 0.0 0.0
0.0 9.735811856412316e-08 -9.785169814275069e-09 7.955171207828274e-09 1.8299986064463344e-09 -7.27040002772591e-09 0.0 0.0
0.0 9.430826945183483e-08 -1.020951514236367e-08 7.758883502814768e-09 2.450631639548195e-09 3.6392644398315674e-09 0.0 0.0
0.0 5.5871124297465096e-05 2.1802750719604444e-05 -1.702652173215138e-05 -4.776228987453297e-06 -9.158842621395104e-06 0.0 0.0
0.0 0.0007022521623416709 0.0004942409186238425 -0.0003979755903326497 -9.626532829119284e-05 -0.00013317543669523618 0.0 0.0
0.0 0.0022637183236696667 0.002071758939345321 -0.001751134723386318 -0.0003206242159590031 -0.0004546708092452011 0.0 0.0
0.0 0.005434751970416073 0.004882632949290802 -0.004351266914975671 -0.0005313660343151283 -0.0009518510426014617 0.0 0.0
0.0 0.010231026742676088 0.009071516229076483 -0.008389329683781784 -0.000682186545294699 -0.0016419788163802508 0.0 0.0
0.0 0.016706801861499553 0.01469339521061147 -0.013897766853899832 -0.0007956283567116346 -0.0025404374536643114 0.0 0.0
0.0 0.024820004622048912 0.021714806772072198 -0.0208161636476542 -0.0008986431244179948 -0.0035879920074421232 0.0 0.0
0.0 0.034505682997150774 0.03008154594168235 -0.02908127160721339 -0.001000274334468953 -0.0046761980075899455 0.0 0.0
0.0 0.04579307393238928 0.03978183148675428 -0.03867995658679342 -0.0011018748999608592 -0.005740098159263192 0.0 0.0
0.0 0.05843103141771828 0.05085376429418968 -0.04964914652209747 -0.001204617772092202 -0.006841087098629776 0.0 0.0
0.0 0.0727132027181247 0.06329246643234468 -0.06198267391044617 -0.0013097925218984968 -0.008007881173953603 0.0 0.0
0.0 0.08846060017842311 0.0769447176833188 -0.0755263381135169 -0.0014183795698018767 -0.009176411058208532 0.0 0.0
0.0 0.10511966368341875 0.09139566532151855 -0.0898656939309586 -0.001529971390559958 -0.010158976135794098 0.0 0.0
0.0 0.12183403079928004 0.10589438957017722 -0.10425204205819846 -0.0016423475119787187 -0.010555283706420497 0.0 0.0
0.0 0.13735402056043078 0.11935149549783457 -0.11759869392360499 -0.0017528015742295407 -0.00994667663729239 0.0 0.0
0.0 0.14995328706819433 0.13029227791609063 -0.12842455364252633 -0.0018677242735642978 -0.008356243275502032 0.0 0.0
0.0 0.15747585415830295 0.1368486053470236 -0.1348944872812948 -0.0019541180657288164 -0.0056411056998595215 0.0 0.0
0.0 0.1574758541582912 0.13684860534701332 -0.13489448728128436 -0.0019541180657289834 0.005641105699877736 0.0 0.0
0.0 0.14995328706816322 0.13029227791606318 -0.1284245536424989 -0.0018677242735643167 0.008356243275534471 0.0 0.0
0.0 0.13735402056037835 0.11935149549778873 -0.11759869392355936 -0.0017528015742293377 0.009946676637311745 0.0 0.0
0.0 0.12183403079921856 0.10589438957012348 -0.1042520420581454 -0.0016423475119780153 0.010555283706430425 0.0 0.0
0.0 0.1051196636833518 0.09139566532146043 -0.08986569393090134 -0.0015299713905590705 0.010158976135786642 0.0 0.0
0.0 0.08846060017835182 0.07694471768325678 -0.07552633811345574 -0.0014183795698010397 0.009176411058205332 0.0 0.0
0.0 0.07271320271805368 0.0632924664322829 -0.06198267391038516 -0.001309792521897713 0.008007881173951011 0.0 0.0
0.0 0.0584310314176474 0.05085376429412806 -0.04964914652203647 -0.00120461777209159 0.006841087098626984 0.0 0.0
0.0 0.045793073932324374 0.039781831486697616 -0.03867995658673771 -0.0011018748999598873 0.005740098159255563 0.0 0.0
0.0 0.034505682997089046 0.030081545941628637 -0.02908127160716026 -0.0010002743344683716 0.004676198007582778 0.0 0.0
0.0 0.02482000462199801 0.021714806772027802 -0.02081616364761032 -0.0008986431244174805 0.003587992007431462 0.0 0.0
0.0 0.01670680186146078 0.014693395210576936 -0.013897766853866044 -0.0007956283567108859 0.002540437453659652 0.0 0.0
0.0 0.010231026742646407 0.009071516229050149 -0.008389329683756067 -0.0006821865452940866 0.0016419788163747943 0.0 0.0
0.0 0.005434751970397438 0.004882632949273734 -0.004351266914959519 -0.0005313660343142158 0.0009518510425984717 0.0 0.0
0.0 0.0022637183236592223 0.00207175893933593 -0.0017511347233779377 -0.000320624215957992 0.0004546708092430889 0.0 0.0
0.0 0.0007022521623372275 0.0004942409186206921 -0.00039797559033001746 -9.626532829067454e-05 0.00013317543669434618 0.0 0.0
0.0 5.587112429687957e-05 2.1802750719717926e-05 -1.7026521732231937e-05 -4.776228987485846e-06 9.158842621396783e-06 0.0 0.0
0.0 9.430826938068039e-08 -1.0209515134588993e-08 7.758883496907494e-09 2.4506316376819497e-09 -3.6392644370560787e-09 0.0 0.0
0.0 9.735811846572097e-08 -9.78516980428818e-09 7.9551711997036e-09 1.8299986045861706e-09 7.270400020323914e-09 0.0 0.0
0.0 0.008467663350226516 0.006102032488691945 -0.006587666477201652 0.0004856339885097099 0.005798281165200138 0.0 0.0
0.0 0.006320309365788183 0.004303536280768067 -0.004803156664573972 0.0004996203838059044 -0.00502429986490867 0.0 0.0
0.0 0.0 0.0 0.0 0.0 0.0 0.0 0.0
0.0 0.0 0.0 0.0 0.0 0.0 0.0 0.0
0.0 8.498019360708175e-06 4.780693596738726e-06 -3.7216193941697157e-06 -1.0590742025690308e-06 -3.3409525818119625e-06 0.0 0.0
0.0 0.00034870116291517515 0.00024382960146984462 -0.00019419828168920324 -4.9631319780641264e-05 -0.00011815615118076104 0.0 0.0
0.0 0.0017293055724896843 0.0014130286453796054 -0.001175574288446964 -0.0002374543569326407 -0.0005388427894258116 0.0 0.0
0.0 0.004290644348494774 0.0038356076747949443 -0.003365369112400586 -0.00047023856239435905 -0.001274672723349541 0.0 0.0
0.0 0.008528498826899385 0.007532401845855919 -0.006892960485610216 -0.0006394413602457046 -0.002308435878002537 0.0 0.0
0.0 0.014312294566715894 0.012528858053840816 -0.011767570608490938 -0.0007612874453498777 -0.0036175910016463366 0.0 0.0
0.0 0.02153469806021701 0.018760280737299066 -0.01789751649195549 -0.0008627642453435712 -0.005118758151629954 0.0 0.0
0.0 0.03012903451968434 0.026150218213403263 -0.02519209949217959 -0.0009581187212236661 -0.006676425506355662 0.0 0.0
0.0 0.039987560843322216 0.034685079323106015 -0.03363347412133702 -0.0010516052017689997 -0.008202101663863112 0.0 0.0
0.0 0.05133587590071081 0.044412960131440096 -0.043267678301658806 -0.0011452818297812979 -0.009748000627912897 0.0 0.0
0.0 0.06388550347617 0.055374153347959545 -0.054133252400925 -0.0012409009470345082 -0.011406476891237471 0.0 0.0
0.0 0.0777919880963123 0.06746266543240084 -0.06612381712391487 -0.0013388483084859153 -0.013105115919193423 0.0 0.0
0.0 0.09265457506781057 0.0803424563257219 -0.07890343770692886 -0.0014390186187930175 -0.014535416306684042 0.0 0.0
0.0 0.10766303333935937 0.09338419664993912 -0.0918433337813962 -0.001540862868542874 -0.015194699995137766 0.0 0.0
0.0 0.12166441068998919 0.10560037523732696 -0.1039538797132214 -0.0016464955241055502 -0.014541412179068076 0.0 0.0
0.0 0.1330668177416668 0.11558891615009183 -0.11384096315819546 -0.001747952991896334 -0.012113051718234957 0.0 0.0
0.0 0.1400460484233904 0.12175760676544078 -0.1199379710155361 -0.0018196357499046364 -0.007264584689738127 0.0 0.0
0.0 0.14004604842338228 0.1217576067654328 -0.11993797101552908 -0.0018196357499036591 0.007264584689766611 0.0 0.0
0.0 0.13306681774164453 0.11558891615007064 -0.11384096315817595 -0.001747952991894682 0.012113051718277881 0.0 0.0
0.0 0.12166441068994843 0.10560037523729023 -0.10395387971318548 -0.0016464955241046642 0.0145414121790973 0.0 0.0
0.0 0.10766303333930759 0.09338419664989309 -0.09184333378135152 -0.0015408628685415983 0.0151946999951509 0.0 0.0
0.0 0.0926545750677491 0.0803424563256688 -0.07890343770687605 -0.0014390186187927417 0.014535416306676601 0.0 0.0
0.0 0.07779198809624813 0.0674626654323452 -0.0661238171238594 -0.0013388483084858236 0.013105115919189812 0.0 0.0
0.0 0.06388550347610605 0.055374153347903805 -0.05413325240087008 -0.0012409009470337271 0.01140647689123294 0.0 0.0
0.0 0.0513358759006506 0.04441296013138738 -0.04326767830160719 -0.001145281829780192 0.00974800062790813 0.0 0.0
0.0 0.03998756084326319 0.034685079323054986 -0.03363347412128662 -0.0010516052017683585 0.008202101663851238 0.0 0.0
0.0 0.030129034519629568 0.026150218213355465 -0.025192099492132206 -0.0009581187212232503 0.00667642550634495 0.0 0.0
0.0 0.021534698060172268 0.018760280737259962 -0.01789751649191699 -0.0008627642453429685 0.005118758151616579 0.0 0.0
0.0 0.014312294566679517 0.012528858053808972 -0.011767570608459498 -0.0007612874453494709 0.0036175910016378915 0.0 0.0
0.0 0.008528498826872143 0.0075324018458318145 -0.006892960485586791 -0.0006394413602450236 0.0023084358779951316 0.0 0.0
0.0 0.004290644348476954 0.0038356076747789324 -0.0033653691123855605 -0.0004702385623933718 0.0012746727233444203 0.0 0.0
0.0 0.0017293055724802635 0.001413028645371836 -0.001175574288440146 -0.00023745435693168924 0.0005388427894226042 0.0 0.0
0.0 0.00034870116291224867 0.0002438296014679151 -0.00019419828168763592 -4.963131978027899e-05 0.00011815615117981344 0.0 0.0
0.0 8.498019360330863e-06 4.78069359692996e-06 -3.7216193943169232e-06 -1.059074202613054e-06 3.3409525819347272e-06 0.0 0.0
0.0 0.0 0.0 0.0 0.0 0.0 0.0 0.0
0.0 0.0 0.0 0.0 0.0 0.0 0.0 0.0
0.0 0.006320309365771092 0.004303536280756322 -0.004803156664561462 0.0004996203838051414 0.005024299864889836 0.0 0.0
0.0 0.00465797484768387 0.0030327387721873827 -0.0034914909531848807 0.00045875218099749633 -0.0039042457338845913 0.0 0.0
0.0 0.0 0.0 0.0 0.0 0.0 0.0 0.0
0.0 0.0 0.0 0.0 0.0 0.0 0.0 0.0
0.0 1.7764958665315978e-06 -1.7819784007305854e-07 1.3787375697884427e-07 4.03240830942293e-08 1.8782013220909485e-07 0.0 0.0
0.0 0.00014272220043801205 9.286342927492371e-05 -7.352950974425388e-05 -1.9333919530669702e-05 -7.31740375500795e-05 0.0 0.0
0.0 0.0011249554006905194 0.0008729730845163644 -0.0007149317478545194 -0.00015804133666184525 -0.0005082567729961717 0.0 0.0
0.0 0.003255032695899446 0.0028265381727442533 -0.00243619552961103 -0.0003903426431332248 -0.0013912357447372588 0.0 0.0
0.0 0.006871126112276375 0.006011426961082507 -0.005426628884205516 -0.0005847980768769916 -0.0026915329458532837 0.0 0.0
0.0 0.011939125733348812 0.010363275626861259 -0.009645073835377639 -0.0007182017914836207 -0.004309072801988495 0.0 0.0
0.0 0.01826181708107055 0.015794215093978128 -0.014973620482302623 -0.0008205946116754978 -0.00614675634000273 0.0 0.0
0.0 0.02574551978949562 0.022207493127552207 -0.021296590827187788 -0.0009109023003644196 -0.00804238135468733 0.0 0.0
0.0 0.034341841855635824 0.029580142120143815 -0.028583213674566232 -0.0009969284455775796 -0.009905776891279803 0.0 0.0
0.0 0.044095005110195054 0.037970291613088326 -0.036888733861665586 -0.001081557751422738 -0.011804282147608144 0.0 0.0
0.0 0.0551205645836507 0.047440531069523936 -0.04627279917796554 -0.001167731891558396 -0.013797797203476162 0.0 0.0
0.0 0.06732017954477894 0.057941678452443204 -0.056686761552737934 -0.0012549168997052639 -0.015834917221921374 0.0 0.0
0.0 0.08018540049900733 0.06923178814570935 -0.06788848396981273 -0.0013433041758966287 -0.017626396337730638 0.0 0.0
0.0 0.09349543237725672 0.08079943944648307 -0.07936444379028523 -0.001434995656197822 -0.01858195499670557 0.0 0.0
0.0 0.1060527785232349 0.09179242677743732 -0.09026202321501739 -0.0015304035624199492 -0.01796726215081137 0.0 0.0
0.0 0.11643587307882944 0.10098206612342428 -0.09936087471997124 -0.001621191403453036 -0.014940467870868862 0.0 0.0
0.0 0.1230798020128834 0.10696774168220738 -0.1052815261501515 -0.0016862155320558465 -0.008584869458932783 0.0 0.0
0.0 0.12307980201287354 0.1069677416821984 -0.1052815261501421 -0.0016862155320563584 0.008584869458968483 0.0 0.0
0.0 0.1164358730788049 0.10098206612340138 -0.09936087471994795 -0.001621191403453396 0.014940467870918593 0.0 0.0
0.0 0.10605277852319339 0.0917924267774001 -0.09026202321497935 -0.0015304035624207353 0.017967262150844227 0.0 0.0
0.0 0.09349543237720787 0.08079943944644007 -0.07936444379024174 -0.001434995656198355 0.0185819549967196 0.0 0.0
0.0 0.08018540049895513 0.06923178814566418 -0.06788848396976808 -0.0013433041758960627 0.017626396337723657 0.0 0.0
0.0 0.06732017954472647 0.05794167845239744 -0.05668676155269325 -0.0012549168997041654 0.01583491722191549 0.0 0.0
0.0 0.05512056458359574 0.047440531069476086 -0.04627279917791807 -0.001167731891557999 0.01379779720347107 0.0 0.0
0.0 0.04409500511014001 0.037970291613040386 -0.03688873386161806 -0.0010815577514223175 0.011804282147601139 0.0 0.0
0.0 0.034341841855584344 0.029580142120099066 -0.028583213674522087 -0.0009969284455769774 0.00990577689126635 0.0 0.0
0.0 0.025745519789448907 0.02220749312751154 -0.021296590827147632 -0.0009109023003639197 0.008042381354673694 0.0 0.0
0.0 0.0182618170810314 0.015794215093944495 -0.014973620482269585 -0.0008205946116749042 0.006146756339986367 0.0 0.0
0.0 0.011939125733318217 0.01036327562683452 -0.009645073835351615 -0.0007182017914828978 0.004309072801978309 0.0 0.0
0.0 0.006871126112254143 0.006011426961063001 -0.00542662888418686 -0.0005847980768761381 0.002691532945844508 0.0 0.0
0.0 0.0032550326958858387 0.0028265381727325153 -0.0024361955296002685 -0.0003903426431322463 0.001391235744731743 0.0 0.0
0.0 0.0011249554006841798 0.0008729730845118739 -0.0007149317478507529 -0.00015804133666112128 0.0005082567729935397 0.0 0.0
0.0 0.00014272220043635747 9.286342927439646e-05 -7.352950974381405e-05 -1.9333919530582502e-05 7.317403754960744e-05 0.0 0.0
0.0 1.7764958662467406e-06 -1.7819784004332652e-07 1.3787375695581053e-07 4.032408308752122e-08 -1.8782013217738892e-07 0.0 0.0
0.0 0.0 0.0 0.0 0.0 0.0 0.0 0.0
0.0 0.0 0.0 0.0 0.0 0.0 0.0 0.0
0.0 0.004657974847669033 0.00303273877217759 -0.0034914909531742876 0.00045875218099669695 0.0039042457338699563 0.0 0.0
0.0 0.0033117130617227714 0.0020707220868042132 -0.002456651578344467 0.00038592949154025525 -0.0028239641114445467 0.0 0.0
0.0 0.0 0.0 0.0 0.0 0.0 0.0 0.0
0.0 0.0 0.0 0.0 0.0 0.0 0.0 0.0
0.0 3.1234164431588785e-07 -2.5617850497127908e-08 2.0115826190663957e-08 5.502024306463789e-09 4.21043713021938e-08 0.0 0.0
0.0 5.0574395529052836e-05 2.7262142749015432e-05 -2.1635102379843724e-05 -5.627040369171725e-06 -3.357540215047752e-05 0.0 0.0
0.0 0.0006342176491398248 0.0004660778126819266 -0.00037669480655498904 -8.938300612693751e-05 -0.00040737296795433786 0.0 0.0
0.0 0.00239044636649842 0.0018989474872766789 -0.0016040014285563405 -0.00029494605872033836 -0.0013071846300749285 0.0 0.0
0.0 0.005320581981379666 0.004522378983149976 -0.004010587879059601 -0.0005117911040903738 -0.0027507979017955386 0.0 0.0
0.0 0.009604282443334403 0.008219179436210778 -0.007556159061250312 -0.0006630203749604651 -0.004605426543875362 0.0 0.0
0.0 0.015028822965422833 0.012839332042430762 -0.012069188238438364 -0.0007701438039923961 -0.006662933833601465 0.0 0.0
0.0 0.021417672705278654 0.018275311276642718 -0.01741788767302422 -0.0008574236036184995 -0.008778379405444356 0.0 0.0
0.0 0.028695090643184956 0.02449155681571426 -0.02355504563942696 -0.0009365111762873044 -0.010852208992292015 0.0 0.0
0.0 0.03700061559285722 0.03154610544420619 -0.03053319300476464 -0.001012912439441547 -0.012952976874858042 0.0 0.0
0.0 0.04623647738266162 0.03952651040684141 -0.038437453873759284 -0.001089056533082118 -0.015174619529281464 0.0 0.0
0.0 0.05662008612079355 0.04842917049547179 -0.04726343300110994 -0.0011657374943618215 -0.01742590748541549 0.0 0.0
0.0 0.0679311799086244 0.05809213503997324 -0.056848838804715786 -0.001243296235257439 -0.019408282479473432 0.0 0.0
0.0 0.0793524659103635 0.06814203070861755 -0.06681951615144971 -0.0013225145571678163 -0.020613352273956404 0.0 0.0
0.0 0.09041159601254467 0.07791581299031804 -0.07651011266513723 -0.0014057003251808054 -0.0201818353813667 0.0 0.0
0.0 0.09989685082402676 0.08639986986112043 -0.08491273931734312 -0.0014871305437773148 -0.01692937760697262 0.0 0.0
0.0 0.10636376744714834 0.09233672093991699 -0.09078714950080091 -0.0015495714391160088 -0.009680624043017144 0.0 0.0
0.0 0.10636376744713921 0.09233672093990825 -0.09078714950079186 -0.0015495714391163175 0.009680624043054871 0.0 0.0
0.0 0.09989685082400837 0.08639986986110171 -0.08491273931732488 -0.001487130543776781 0.01692937760702356 0.0 0.0
0.0 0.09041159601251673 0.07791581299029089 -0.076510112665111 -0.001405700325179885 0.02018183538140407 0.0 0.0
0.0 0.07935246591032524 0.06814203070858266 -0.06681951615141554 -0.0013225145571671092 0.020613352273973033 0.0 0.0
0.0 0.06793117990857891 0.058092135039933684 -0.056848838804676845 -0.0012432962352568434 0.019408282479466858 0.0 0.0
0.0 0.056620086120745226 0.04842917049542987 -0.047263433001068486 -0.0011657374943613915 0.017425907485407184 0.0 0.0
0.0 0.0462364773826139 0.03952651040679993 -0.03843745387371807 -0.001089056533081861 0.015174619529275166 0.0 0.0
0.0 0.03700061559281338 0.03154610544416756 -0.030533193004726816 -0.0010129124394407277 0.012952976874850846 0.0 0.0
0.0 0.028695090643142712 0.024491556815677558 -0.023555045639391196 -0.0009365111762863424 0.010852208992278206 0.0 0.0
0.0 0.021417672705240743 0.01827531127660996 -0.017417887672992426 -0.000857423603617539 0.008778379405429127 0.0 0.0
0.0 0.01502882296538788 0.01283933204240155 -0.012069188238409868 -0.0007701438039916795 0.006662933833582123 0.0 0.0
0.0 0.009604282443307514 0.008219179436187704 -0.007556159061227804 -0.0006630203749598948 0.004605426543863561 0.0 0.0
0.0 0.005320581981361103 0.004522378983134333 -0.004010587879044895 -0.0005117911040894343 0.00275079790178624 0.0 0.0
0.0 0.002390446366486444 0.001898947487266973 -0.001604001428547769 -0.0002949460587192052 0.0013071846300691079 0.0 0.0
0.0 0.0006342176491344799 0.00046607781267825484 -0.00037669480655195934 -8.938300612629546e-05 0.0004073729679511766 0.0 0.0
0.0 5.057439552824631e-05 2.726214274904108e-05 -2.1635102379853956e-05 -5.627040369187052e-06 3.357540215045751e-05 0.0 0.0
0.0 3.1234164401444015e-07 -2.5617850471780222e-08 2.0115826170972936e-08 5.502024300809174e-09 -4.2104371261965705e-08 0.0 0.0
0.0 0.0 0.0 0.0 0.0 0.0 0.0 0.0
0.0 0.0 0.0 0.0 0.0 0.0 0.0 0.0
0.0 0.003311713061710438 0.002070722086796357 -0.002456651578335815 0.0003859294915394567 0.002823964111432958 0.0 0.0
0.0 0.0022003124547974066 0.0013315561107380908 -0.0016274059469673613 0.0002958498362292703 -0.0019050594695185644 0.0 0.0
0.0 0.0 0.0 0.0 0.0 0.0 0.0 0.0
0.0 0.0 0.0 0.0 0.0 0.0 0.0 0.0
0.0 1.2459832782016668e-06 -8.711175530045244e-08 6.722946238267231e-08 1.9882292917777628e-08 2.0432140011233723e-07 0.0 0.0
0.0 2.0788666256619358e-05 5.766742605571168e-06 -4.558185573850394e-06 -1.208557031720768e-06 -1.0106266533503856e-05 0.0 0.0
0.0 0.0002940828683109371 0.0002087357566020832 -0.00016735522518486712 -4.138053141721594e-05 -0.00027806505376806853 0.0 0.0
0.0 0.0014890153878925187 0.001136754955904035 -0.0009409428485245749 -0.00019581210737945994 -0.0011168677608940662 0.0 0.0
0.0 0.0038666442707169894 0.0031182179586391793 -0.002705590074286562 -0.00041262788435261777 -0.0025404996575977114 0.0 0.0
0.0 0.007372583590600509 0.006116110575396949 -0.005527232656914618 -0.0005888779184823322 -0.004467586493479765 0.0 0.0
0.0 0.011850768452462057 0.009921056548552885 -0.00921374482081185 -0.0007073117277410351 -0.006652328140443165 0.0 0.0
0.0 0.017122155310333214 0.014378285169987636 -0.013583758635328532 -0.0007945265346590968 -0.008863653818517092 0.0 0.0
0.0 0.023117157699208572 0.0194442429503179 -0.018575464846708644 -0.0008687781036092636 -0.011027332432387548 0.0 0.0
0.0 0.029878222358546216 0.025172646273208817 -0.024235129960795014 -0.0009375163124138024 -0.013210948449946037 0.0 0.0
0.0 0.037525596024976966 0.03166148725562416 -0.030657385359011455 -0.0010041018966127004 -0.015490420752923714 0.0 0.0
0.0 0.046135566046236386 0.03895672386563652 -0.03788617023899228 -0.001070553626644268 -0.017816764937064408 0.0 0.0
0.0 0.05532296686683186 0.04696925534565879 -0.045832245055834296 -0.0011370102898245092 -0.01991173862466132 0.0 0.0
0.0 0.06518637272484833 0.05544070152561452 -0.054237440957097066 -0.0012032605685174341 -0.021263431029912575 0.0 0.0
0.0 0.07487096770391467 0.06394601373950189 -0.06267411334519277 -0.0012719003943091286 -0.021084754502907085 0.0 0.0
0.0 0.08333283361110805 0.0717511797167965 -0.07040772321941591 -0.0013434564973805873 -0.018039413060941537 0.0 0.0
0.0 0.08972586449587272 0.07773372246883925 -0.07632773146899444 -0.0014059909998447953 -0.010565988449829375 0.0 0.0
0.0 0.08972586449586606 0.07773372246883209 -0.07632773146898743 -0.0014059909998446719 0.010565988449867766 0.0 0.0
0.0 0.08333283361109106 0.07175117971677857 -0.0704077232193979 -0.0013434564973806794 0.01803941306099123 0.0 0.0
0.0 0.07487096770389359 0.06394601373948028 -0.06267411334517145 -0.0012719003943088383 0.021084754502944336 0.0 0.0
0.0 0.06518637272482086 0.0554407015255888 -0.0542374409570719 -0.001203260568516871 0.02126343102992863 0.0 0.0
0.0 0.05532296686679717 0.04696925534562864 -0.04583224505580496 -0.0011370102898236587 0.019911738624654854 0.0 0.0
0.0 0.04613556604620115 0.03895672386560581 -0.037886170238962555 -0.0010705536266432327 0.01781676493705571 0.0 0.0
0.0 0.03752559602494596 0.03166148725559655 -0.0306573853589851 -0.0010041018966114512 0.015490420752918259 0.0 0.0
0.0 0.029878222358511217 0.02517264627317819 -0.024235129960765073 -0.0009375163124131247 0.013210948449938966 0.0 0.0
0.0 0.02311715769917223 0.019444242950287016 -0.0185754648466783 -0.0008687781036087143 0.011027332432373324 0.0 0.0
0.0 0.017122155310300202 0.014378285169959794 -0.013583758635301197 -0.0007945265346585981 0.008863653818501536 0.0 0.0
0.0 0.011850768452434268 0.00992105654853007 -0.009213744820789682 -0.0007073117277403871 0.006652328140424263 0.0 0.0
0.0 0.0073725835905786765 0.006116110575378461 -0.005527232656896984 -0.0005888779184814766 0.00446758649346766 0.0 0.0
0.0 0.00386664427070131 0.0031182179586263883 -0.0027055900742748353 -0.0004126278843515519 0.0025404996575881526 0.0 0.0
0.0 0.0014890153878842616 0.0011367549558978258 -0.0009409428485192239 -0.0001958121073786016 0.001116867760888653 0.0 0.0
0.0 0.00029408286830842156 0.00020873575660091857 -0.0001673552251839222 -4.138053141699636e-05 0.0002780650537664268 0.0 0.0
0.0 2.0788666255972405e-05 5.766742605747536e-06 -4.558185573987534e-06 -1.208557031759992e-06 1.0106266533805473e-05 0.0 0.0
0.0 1.245983277765114e-06 -8.711175526903953e-08 6.722946235833695e-08 1.9882292910690027e-08 -2.0432140003799813e-07 0.0 0.0
0.0 0.0 0.0 0.0 0.0 0.0 0.0 0.0
0.0 0.0 0.0 0.0 0.0 0.0 0.0 0.0
0.0 0.0022003124547875235 0.0013315561107320798 -0.001627405946960533 0.00029584983622845345 0.001905059469509609 0.0 0.0
0.0 0.0013442065467785369 0.0007701642700886401 -0.0009692569187760023 0.00019909264868736204 -0.001159906339173748 0.0 0.0
0.0 2.413150468070681e-07 -3.1561199297649185e-09 2.895078666521106e-09 2.6104126324386403e-10 4.838109291425756e-08 0.0 0.0
0.0 0.0 0.0 0.0 0.0 0.0 0.0 0.0
0.0 1.343535810957597e-06 -6.745450613659108e-08 5.1836617700734505e-08 1.5617888435866596e-08 2.5068220686766373e-07 0.0 0.0
0.0 9.984718208467855e-06 3.4682895303691203e-06 -2.7402426624595607e-06 -7.28046867909564e-07 -9.108076581175044e-06 0.0 0.0
0.0 0.0001476140107512009 7.152012992176025e-05 -5.71996193207034e-05 -1.432051060105689e-05 -0.00014517764331669464 0.0 0.0
0.0 0.0008116791093612702 0.0005572508482524883 -0.0004530899421789311 -0.00010416090607355728 -0.000814045231420711 0.0 0.0
0.0 0.002501545011244279 0.0018808829747515732 -0.0015902881163299956 -0.00029059485842157767 -0.0021188882262370722 0.0 0.0
0.0 0.005226030877698485 0.004109764227007202 -0.00362712943897295 -0.0004826347880342517 -0.0039275870702872315 0.0 0.0
0.0 0.00874881195902016 0.007067432326569768 -0.006444943108767367 -0.0006224892178024005 -0.00607013146227895 0.0 0.0
0.0 0.012902262621903377 0.010543566416565333 -0.009827585611733056 -0.0007159808048322742 -0.008280657330177557 0.0 0.0
0.0 0.017598692845587526 0.014467806160924022 -0.013678617118418496 -0.0007891890425055246 -0.010415597602174163 0.0 0.0
0.0 0.022891067217615597 0.018881687549316004 -0.01802965830356546 -0.000852029245750531 -0.012543884965173408 0.0 0.0
0.0 0.02882953668565473 0.02388914634020468 -0.022979024037754835 -0.0009101223024498358 -0.014755296421178999 0.0 0.0
0.0 0.035570394624578484 0.029567680830889724 -0.028602037511891547 -0.0009656433189981644 -0.017008189264971246 0.0 0.0
0.0 0.0430118971729783 0.03590005332494473 -0.03487753080004826 -0.0010225225248964727 -0.019056196073488834 0.0 0.0
0.0 0.05087335449030515 0.04273781257374498 -0.041661672804924915 -0.0010761397688200723 -0.02048668099788491 0.0 0.0
0.0 0.05895980481769137 0.0498792497281933 -0.04875175291411872 -0.0011274968140746007 -0.020639879144359576 0.0 0.0
0.0 0.06679018448970703 0.05693996012038767 -0.05575382939757713 -0.001186130722810509 -0.018197582633601803 0.0 0.0
0.0 0.07323929073989847 0.06301828651836183 -0.06176750200312074 -0.0012507845152410814 -0.011216672164930623 0.0 0.0
0.0 0.07323929073989294 0.06301828651835586 -0.061767502003114316 -0.001250784515241504 0.011216672164965927 0.0 0.0
0.0 0.06679018448969445 0.05693996012037307 -0.05575382939756226 -0.0011861307228108206 0.018197582633650344 0.0 0.0
0.0 0.05895980481767173 0.04987924972817233 -0.04875175291409779 -0.001127496814074505 0.020639879144396103 0.0 0.0
0.0 0.050873354490280506 0.04273781257372134 -0.04166167280490178 -0.0010761397688195794 0.020486680997898785 0.0 0.0
0.0 0.04301189717294655 0.03590005332491737 -0.03487753080002129 -0.001022522524896078 0.019056196073480563 0.0 0.0
0.0 0.03557039462454339 0.02956768083085996 -0.028602037511861952 -0.0009656433189979981 0.01700818926495926 0.0 0.0
0.0 0.028829536685624386 0.02388914634017837 -0.022979024037728935 -0.0009101223024494445 0.014755296421171436 0.0 0.0
0.0 0.022891067217585614 0.018881687549290125 -0.018029658303540006 -0.0008520292457501197 0.012543884965164407 0.0 0.0
0.0 0.017598692845557602 0.014467806160899113 -0.013678617118393872 -0.0007891890425052383 0.010415597602159155 0.0 0.0
0.0 0.012902262621875615 0.01054356641654272 -0.009827585611710942 -0.0007159808048317689 0.008280657330160415 0.0 0.0
0.0 0.008748811958996237 0.0070674323265511145 -0.006444943108749361 -0.0006224892178017535 0.006070131462259962 0.0 0.0
0.0 0.005226030877681433 0.004109764226993797 -0.0036271294389602924 -0.0004826347880335038 0.003927587070276103 0.0 0.0
0.0 0.002501545011233835 0.0018808829747437017 -0.0015902881163230383 -0.000290594858420663 0.002118888226229503 0.0 0.0
0.0 0.0008116791093561993 0.0005572508482491131 -0.0004530899421761182 -0.00010416090607299439 0.0008140452314165668 0.0 0.0
0.0 0.0001476140107494 7.152012992123351e-05 -5.7199619320271925e-05 -1.432051060096148e-05 0.00014517764331559244 0.0 0.0
0.0 9.984718208149082e-06 3.4682895305064717e-06 -2.740242662568201e-06 -7.280468679382748e-07 9.108076581563822e-06 0.0 0.0
0.0 1.343535810551308e-06 -6.74545061154224e-08 5.1836617684484416e-08 1.561788843093987e-08 -2.5068220678900275e-07 0.0 0.0
0.0 0.0 0.0 0.0 0.0 0.0 0.0 0.0
0.0 2.413150465246296e-07 -3.1561199259962506e-09 2.8950786630596134e-09 2.610412629367381e-10 -4.838109285659394e-08 0.0 0.0
0.0 0.0013442065467715119 0.0007701642700847599 -0.0009692569187713866 0.00019909264868662638 0.001159906339167933 0.0 0.0
0.0 0.0007048591933177552 0.00036924279763130474 -0.0004806683264431442 0.00011142552881183957 -0.0005863387365639436 0.0 0.0
0.0 5.68229300698234e-07 -7.067340485817422e-09 9.746384288017086e-09 -2.679043802201258e-09 1.14239571365149e-07 0.0 0.0
0.0 8.951410656191049e-08 -1.3689216835930715e-09 8.919423533883084e-10 4.76979330204864e-10 1.7690051220060478e-08 0.0 0.0
0.0 8.694762653476193e-07 -2.987712020632065e-08 2.159330647060148e-08 8.283813735721381e-09 1.7349073420562356e-07 0.0 0.0
0.0 8.304910351286088e-06 1.930287975285627e-06 -1.5185140081747848e-06 -4.1177396711085515e-07 -7.893091274341804e-06 0.0 0.0
0.0 8.450592196338071e-05 2.9960789270118508e-05 -2.3813451348556752e-05 -6.147337921561748e-06 -9.493106522427871e-05 0.0 0.0
0.0 0.0003922231520496157 0.00020592757255016508 -0.00016542837289768226 -4.049919965248284e-05 -0.0004913078788343551 0.0 0.0
0.0 0.0013613716996679478 0.0008853157199135457 -0.0007275589405709463 -0.00015775677934259916 -0.0015110432734476787 0.0 0.0
0.0 0.003237700839523997 0.0022945743834610548 -0.001961005569694742 -0.00033356881376631075 -0.0030601290726303214 0.0 0.0
0.0 0.005709298707697109 0.0043443337071209735 -0.0038506195060518684 -0.0004937142010691033 -0.004951137116287762 0.0 0.0
0.0 0.008825987619515788 0.0068137763110034605 -0.0062085702617055444 -0.0006052060492979153 -0.00697159069075966 0.0 0.0
0.0 0.012195417265798498 0.009601817732348028 -0.008917161924721678 -0.0006846558076263461 -0.008961037419098518 0.0 0.0
0.0 0.015982740223827695 0.012719163030282893 -0.01197207474155529 -0.0007470882887276016 -0.010929911358908383 0.0 0.0
0.0 0.020288301111716176 0.016257340108384345 -0.015457922910924722 -0.0007994171974596235 -0.012932809682744297 0.0 0.0
0.0 0.025241710020059593 0.02031593291984983 -0.019469739831768723 -0.0008461930880810978 -0.014969642855893044 0.0 0.0
0.0 0.030747201349260376 0.024943735896195494 -0.02405200786200368 -0.0008917280341918066 -0.016862412415970914 0.0 0.0
0.0 0.0367991571131356 0.030094130785013475 -0.029156980533503404 -0.0009371502515100726 -0.018219430866648737 0.0 0.0
0.0 0.04313078819427866 0.03573494533466908 -0.034763214595633946 -0.0009717307390351377 -0.018648038262905037 0.0 0.0
0.0 0.049785953482161485 0.04188080686776623 -0.040873044469299936 -0.0010077623984662805 -0.017208064347151213 0.0 0.0
0.0 0.0561808627298208 0.04803927350460835 -0.046965803760405975 -0.0010734697442023786 -0.011569649116130874 0.0 0.0
0.0 0.0561808627298202 0.04803927350460597 -0.04696580376040391 -0.001073469744202057 0.01156964911616062 0.0 0.0
0.0 0.04978595348215651 0.041880806867757255 -0.04087304446929153 -0.001007762398465711 0.017208064347195632 0.0 0.0
0.0 0.0431307881942682 0.03573494533465551 -0.03476321459562111 -0.0009717307390343852 0.018648038262937428 0.0 0.0
0.0 0.03679915711312006 0.030094130784997786 -0.02915698053348862 -0.0009371502515091667 0.01821943086665976 0.0 0.0
0.0 0.03074720134923842 0.024943735896177162 -0.024052007861985764 -0.0008917280341913858 0.01686241241596237 0.0 0.0
0.0 0.025241710020039866 0.02031593291983355 -0.01946973983175292 -0.000846193088080642 0.01496964285588355 0.0 0.0
0.0 0.02028830111169916 0.016257340108369735 -0.01545792291091052 -0.0007994171974592201 0.012932809682739781 0.0 0.0
0.0 0.01598274022381001 0.012719163030267686 -0.0119720747415403 -0.0007470882887273884 0.010929911358903012 0.0 0.0
0.0 0.012195417265780727 0.009601817732333588 -0.008917161924707812 -0.0006846558076257743 0.008961037419087872 0.0 0.0
0.0 0.008825987619496295 0.006813776310988278 -0.006208570261690899 -0.0006052060492973772 0.006971590690745176 0.0 0.0
0.0 0.005709298707679683 0.004344333707108254 -0.0038506195060399396 -0.0004937142010683127 0.004951137116272316 0.0 0.0
0.0 0.003237700839511746 0.0022945743834520537 -0.0019610055696865952 -0.0003335688137654585 0.0030601290726201555 0.0 0.0
0.0 0.0013613716996610894 0.0008853157199087928 -0.0007275589405669182 -0.00015775677934187456 0.0015110432734412702 0.0 0.0
0.0 0.0003922231520464651 0.0002059275725487342 -0.0001654283728965102 -4.049919965222407e-05 0.0004913078788313143 0.0 0.0
0.0 8.450592196220137e-05 2.9960789270070773e-05 -2.3813451348511317e-05 -6.147337921559442e-06 9.493106522391799e-05 0.0 0.0
0.0 8.304910351093301e-06 1.9302879754252746e-06 -1.5185140082851352e-06 -4.11773967140132e-07 7.89309127494765e-06 0.0 0.0
0.0 8.694762648168817e-07 -2.987712019000699e-08 2.1593306458356525e-08 8.283813731647456e-09 -1.7349073409897767e-07 0.0 0.0
0.0 8.951410621589535e-08 -1.3689216782533113e-09 8.919423499060667e-10 4.769793283472438e-10 -1.7690051151067024e-08 0.0 0.0
0.0 5.682293000733039e-07 -7.067340481250902e-09 9.746384282047934e-09 -2.6790438007974454e-09 -1.1423957123934295e-07 0.0 0.0
0.0 0.0007048591933123373 0.0003692427976287333 -0.00048066832643998085 0.00011142552881124772 0.0005863387365598045 0.0 0.0
0.0 0.00025443179598929255 0.0001314011806432637 -0.0001793866498950485 4.7985469251784845e-05 -0.0002202690043606182 0.0 0.0
0.0 2.0717276247831737e-06 -6.165853434397743e-09 1.47916262852059e-08 -8.625772850807937e-09 4.367858720835785e-07 0.0 0.0
0.0 8.129603515550081e-07 -9.729788138728575e-10 -5.062304710215263e-10 1.479209284894036e-09 1.6676851108718092e-07 0.0 0.0
0.0 1.3942118126280809e-06 -1.7202479833820512e-08 1.1633862331670308e-08 5.568617502153395e-09 2.882879494068393e-07 0.0 0.0
0.0 8.624097885147468e-06 1.1822954033954056e-06 -8.970732508326425e-07 -2.852221525627675e-07 -8.698303535885251e-06 0.0 0.0
0.0 7.01013236930487e-05 1.460118745447591e-05 -1.1624777629294114e-05 -2.9764098251817982e-06 -8.370430566086005e-05 0.0 0.0
0.0 0.0002244673901309412 6.833161923856644e-05 -5.475813771360426e-05 -1.357348152496214e-05 -0.00030992268562323724 0.0 0.0
0.0 0.0005989617682353553 0.0002635482806564831 -0.00021181558816032024 -5.1732692496162734e-05 -0.000874680787013283 0.0 0.0
0.0 0.001531883462388394 0.0008363557820856526 -0.000685931994031019 -0.00015042378805463398 -0.0019358863093704274 0.0 0.0
0.0 0.002995727839791314 0.0018934008851138593 -0.0016034493308955844 -0.000289951554218274 -0.0033727076692406815 0.0 0.0
0.0 0.004839011521623543 0.003307761977463233 -0.002889541538392521 -0.00041822043907071085 -0.004988651097054422 0.0 0.0
0.0 0.007017327358321531 0.004933938106052263 -0.004420433550242512 -0.000513504555809749 -0.006652445925740143 0.0 0.0
0.0 0.00940452455028222 0.0067646399546817775 -0.006177310326222816 -0.0005873296284589569 -0.008358544826008408 0.0 0.0
0.0 0.01211146329468203 0.008856123354126035 -0.00821186102047975 -0.0006442623336462778 -0.010073590231679955 0.0 0.0
0.0 0.015221815499206013 0.011297021903996035 -0.010608506377735957 -0.0006885155262600748 -0.011797827974346116 0.0 0.0
0.0 0.018814999435680515 0.01419142031829212 -0.013465615215148961 -0.0007258051031431585 -0.013453581575070307 0.0 0.0
0.0 0.02294557024824776 0.017614478380125448 -0.016851040581593788 -0.0007634377985316668 -0.014746438274520126 0.0 0.0
0.0 0.027563368242338376 0.021642798149333092 -0.02084588306558666 -0.0007969150837464467 -0.015264548374941865 0.0 0.0
0.0 0.03298085624110912 0.026549635437500826 -0.025749445652707086 -0.0008001897847937359 -0.014783004161813017 0.0 0.0
0.0 0.039166371683768804 0.03259698854829326 -0.031743918224136115 -0.0008530703241571523 -0.011404912822528295 0.0 0.0
0.0 0.039166371683768506 0.03259698854829104 -0.031743918224133576 -0.0008530703241574663 0.011404912822553907 0.0 0.0
0.0 0.03298085624110839 0.026549635437495687 -0.025749445652701725 -0.0008001897847939535 0.014783004161850981 0.0 0.0
0.0 0.02756336824233496 0.02164279814932566 -0.020845883065579544 -0.000796915083746111 0.015264548374969418 0.0 0.0
0.0 0.02294557024823799 0.01761447838011543 -0.016851040581584296 -0.0007634377985311258 0.014746438274527113 0.0 0.0
0.0 0.018814999435664254 0.014191420318279975 -0.013465615215137089 -0.000725805103142886 0.013453581575059693 0.0 0.0
0.0 0.015221815499187621 0.011297021903982032 -0.010608506377721927 -0.0006885155262601035 0.011797827974335073 0.0 0.0
0.0 0.01211146329466856 0.008856123354115545 -0.008211861020469268 -0.0006442623336462809 0.01007359023167257 0.0 0.0
0.0 0.009404524550270662 0.006764639954672324 -0.0061773103262135675 -0.0005873296284587549 0.008358544826003341 0.0 0.0
0.0 0.007017327358310716 0.0049339381060445504 -0.004420433550235369 -0.0005135045558091819 0.006652445925731143 0.0 0.0
0.0 0.004839011521612218 0.003307761977455699 -0.00288954153838562 -0.00041822043907007827 0.00498865109704319 0.0 0.0
0.0 0.0029957278397801847 0.0018934008851069902 -0.0016034493308893904 -0.0002899515542175994 0.0033727076692288173 0.0 0.0
0.0 0.001531883462382195 0.0008363557820817862 -0.0006859319940277154 -0.00015042378805407087 0.0019358863093635768 0.0 0.0
0.0 0.0005989617682320999 0.00026354828065501226 -0.00021181558815913806 -5.173269249587404e-05 0.0008746807870094555 0.0 0.0
0.0 0.0002244673901293114 6.833161923824816e-05 -5.475813771334266e-05 -1.357348152490546e-05 0.0003099226856217614 0.0 0.0
0.0 7.010132369161186e-05 1.4601187454309448e-05 -1.1624777629160589e-05 -2.9764098251488457e-06 8.37043056598567e-05 0.0 0.0
0.0 8.624097884892934e-06 1.1822954034646101e-06 -8.97073250885967e-07 -2.8522215257864493e-07 8.69830353643531e-06 0.0 0.0
0.0 1.3942118121365584e-06 -1.7202479827439693e-08 1.1633862327329383e-08 5.568617500112952e-09 -2.8828794930130727e-07 0.0 0.0
0.0 8.12960351106587e-07 -9.729788137991681e-10 -5.062304704954294e-10 1.479209284295063e-09 -1.667685109932312e-07 0.0 0.0
0.0 2.0717276240791394e-06 -6.165853431574411e-09 1.4791626278552993e-08 -8.625772846978897e-09 -4.3678587193397695e-07 0.0 0.0
0.0 0.0002544317959865917 0.00013140118064232012 -0.00017938664989382576 4.798546925150549e-05 0.000220269004359062 0.0 0.0
0.0 5.395914916878228e-05 2.4644127320246736e-05 -3.516565561029193e-05 1.0521528290045198e-05 -4.392775667484128e-05 0.0 0.0
0.0 2.3409661729961703e-06 6.496376963596438e-10 1.3091562580591183e-08 -1.3741200276949575e-08 4.872012716183131e-07 0.0 0.0
0.0 8.28283976103979e-07 8.757322001854407e-09 -7.994197467743662e-09 -7.631245341108108e-10 1.6872916499049268e-07 0.0 0.0
0.0 1.2941447652112552e-06 -9.532122171054402e-09 6.61502338855599e-09 2.9170987824990087e-09 -2.3676888033392515e-07 0.0 0.0
0.0 1.1107497147862417e-05 2.3551090499721358e-07 -1.5506868705486992e-07 -8.044221794234998e-08 -8.538234998399922e-06 0.0 0.0
0.0 6.546131015199116e-05 4.497404552675448e-06 -3.513101976273955e-06 -9.843025764014806e-07 -8.786084295263582e-05 0.0 0.0
0.0 0.00019022856833051814 2.028761505485064e-05 -1.6216185430103562e-05 -4.071429624747101e-06 -0.00029388608945990567 0.0 0.0
0.0 0.00041106636407726077 5.4088679007958314e-05 -4.346306305300113e-05 -1.0625615954957116e-05 -0.0006097872371226166 0.0 0.0
0.0 0.0007080317402926346 0.0001297167675426961 -0.00010476031973001462 -2.4956447812681484e-05 -0.0011344100883051939 0.0 0.0
0.0 0.0012388644846795293 0.0002804757313183089 -0.00022723504910922014 -5.324068220908871e-05 -0.0019026517054705609 0.0 0.0
0.0 0.0018848028016638574 0.0005716505392935861 -0.0004613122643410216 -0.0001103382749525644 -0.002969082909265017 0.0 0.0
0.0 0.0027779379759267308 0.0009593646640397809 -0.0007787044880149525 -0.00018066017602482828 -0.004170535870631377 0.0 0.0
0.0 0.003835920720038798 0.0014438418555614211 -0.0011902610090372373 -0.00025358084652418375 -0.005526487184617151 0.0 0.0
0.0 0.00513505665230648 0.0020624983232777065 -0.0017437531697890305 -0.00031874515348867614 -0.007046001783532877 0.0 0.0
0.0 0.006663372265571862 0.0028669995936438457 -0.002493344957040043 -0.0003736546366038027 -0.008712423920269498 0.0 0.0
0.0 0.008528283346597366 0.003979823838721267 -0.0035600855198315443 -0.0004197383188897209 -0.010417474647440089 0.0 0.0
0.0 0.010768726020100039 0.005616659799046606 -0.0051541061447809055 -0.0004625536542656988 -0.01184959004470921 0.0 0.0
0.0 0.01346918407809197 0.007998301311914261 -0.00748506240482932 -0.0005132389070849365 -0.01246154303432795 0.0 0.0
0.0 0.01700322710109102 0.011367893727301527 -0.010825230066918025 -0.0005426636603834983 -0.012059730770755419 0.0 0.0
0.0 0.022320456177173403 0.01661960133969676 -0.016103749428966054 -0.0005158519107307107 -0.01081141924092783 0.0 0.0
0.0 0.022320456177176977 0.016619601339697976 -0.016103749428967175 -0.0005158519107307949 0.010811419240946338 0.0 0.0
0.0 0.01700322710109376 0.01136789372729937 -0.010825230066915943 -0.000542663660383426 0.012059730770784528 0.0 0.0
0.0 0.01346918407809002 0.007998301311909569 -0.007485062404824727 -0.0005132389070848394 0.012461543034344222 0.0 0.0
0.0 0.010768726020092802 0.005616659799041414 -0.005154106144775734 -0.00046255365426567515 0.01184959004470821 0.0 0.0
0.0 0.008528283346587878 0.003979823838716772 -0.0035600855198272153 -0.00041973831888955453 0.010417474647429458 0.0 0.0
0.0 0.006663372265565881 0.002866999593641582 -0.0024933449570380206 -0.0003736546366035604 0.008712423920261288 0.0 0.0
0.0 0.005135056652300752 0.002062498323275078 -0.0017437531697867116 -0.0003187451534883665 0.007046001783527116 0.0 0.0
0.0 0.003835920720033969 0.0014438418555595188 -0.001190261009035762 -0.00025358084652375674 0.005526487184611259 0.0 0.0
0.0 0.0027779379759204394 0.0009593646640380503 -0.0007787044880134667 -0.00018066017602458363 0.00417053587062234 0.0 0.0
0.0 0.0018848028016587924 0.0005716505392921947 -0.000461312264339872 -0.00011033827495232232 0.00296908290925677 0.0 0.0
0.0 0.0012388644846751632 0.0002804757313176771 -0.00022723504910867408 -5.324068220900319e-05 0.0019026517054641168 0.0 0.0
0.0 0.0007080317402906404 0.00012971676754235036 -0.00010476031972978756 -2.4956447812562686e-05 0.0011344100883019718 0.0 0.0
0.0 0.0004110663640762769 5.4088679007835785e-05 -4.346306305291656e-05 -1.0625615954919196e-05 0.0006097872371210104 0.0 0.0
0.0 0.00019022856832872064 2.028761505475669e-05 -1.6216185430013062e-05 -4.071429624743618e-06 0.0002938860894584307 0.0 0.0
0.0 6.546131015114347e-05 4.4974045526547615e-06 -3.5131019762560198e-06 -9.843025763987453e-07 8.786084295207852e-05 0.0 0.0
0.0 1.1107497147572057e-05 2.3551090500857493e-07 -1.5506868706199469e-07 -8.044221794658362e-08 8.538234998874271e-06 0.0 0.0
0.0 1.2941447649520106e-06 -9.532122186738437e-09 6.615023402642671e-09 2.91709878409568e-09 2.367688808925791e-07 0.0 0.0
0.0 8.282839756553083e-07 8.757321996808003e-09 -7.99419746324245e-09 -7.631245335657651e-10 -1.687291648967851e-07 0.0 0.0
0.0 2.340966172321822e-06 6.496376968874008e-10 1.3091562575233056e-08 -1.3741200272117913e-08 -4.87201271473837e-07 0.0 0.0
0.0 5.395914916769177e-05 2.4644127320124377e-05 -3.516565561010697e-05 1.0521528289982537e-05 4.392775667476575e-05 0.0 0.0
0.0 2.8984952421200468e-06 3.604502827004055e-07 -5.21305553525719e-07 1.6085527082530676e-07 -7.372707967195475e-07 0.0 0.0
0.0 1.9907697755820893e-06 9.90021888706083e-10 6.595975921878257e-09 -7.585997810579485e-09 2.53378227008067e-07 0.0 0.0
0.0 1.4153552579489251e-06 -4.826611054663195e-08 3.827724908995094e-08 9.988861456682336e-09 -4.915353385911347e-07 0.0 0.0
0.0 2.924892913906952e-06 -2.0694063668637497e-07 1.7759109725434446e-07 2.9349539432030654e-08 -2.3501013655324427e-06 0.0 0.0
0.0 1.496431575939943e-05 -8.989390615253332e-07 7.892038012569175e-07 1.0973526026842508e-07 -1.3370937295937588e-05 0.0 0.0
0.0 7.123106766112613e-05 -5.901837404367887e-06 4.853992647165164e-06 1.0478447572027178e-06 -8.94775388537128e-05 0.0 0.0
0.0 0.00019152977374508215 -2.141164417283577e-05 1.7259623571028023e-05 4.152020601807732e-06 -0.00029619303988851435 0.0 0.0
0.0 0.00041119509900821037 -5.4227521113070224e-05 4.3572367574468695e-05 1.0655153538601479e-05 -0.0006111315579811647 0.0 0.0
0.0 0.0007079566091745243 -0.00012946709873130574 0.00010454238064138827 2.4924718089917414e-05 -0.001134894759663841 0.0 0.0
0.0 0.001237458949976307 -0.00027981057276584237 0.0002265803602127452 5.323021255309713e-05 -0.001901242614353483 0.0 0.0
0.0 0.001891834712732106 -0.0005701379453897393 0.000460754012743124 0.00010938393264661495 -0.002966289738661593 0.0 0.0
0.0 0.002783554093396274 -0.0009696335743816376 0.000788667758532864 0.00018096581584877347 -0.004175504510244773 0.0 0.0
0.0 0.0038644786549768585 -0.0014791509977654064 0.001223814023196564 0.00025533697456884153 -0.005538136656836199 0.0 0.0
0.0 0.0051743344176255705 -0.0021123951598273323 0.0017877014886957298 0.0003246936711316022 -0.0070538456706917205 0.0 0.0
0.0 0.00660234304319763 -0.002795555748156225 0.002407662353272173 0.00038789339488405096 -0.008709758524741184 0.0 0.0
0.0 0.008054707000989854 -0.0033430560389559423 0.0028990330729057393 0.000444022966050199 -0.010468713114462099 0.0 0.0
0.0 0.009245678596925709 -0.003453060554649441 0.0029638485961754665 0.000489211958473975 -0.012320873482917598 0.0 0.0
0.0 0.01002026600691186 -0.002844467473377073 0.002323683885359023 0.0005207835880180482 -0.014296192103429375 0.0 0.0
0.0 0.01031758669151392 -0.0015507845897306661 0.0010909848640088767 0.00045979972572178984 -0.015993112889867104 0.0 0.0
0.0 0.009930282405601976 0.0023196291069364377 -0.0024056862931040807 8.605718616764224e-05 -0.014590643567854299 0.0 0.0
0.0 0.009930282405605327 0.0023196291069360222 -0.0024056862931038196 8.605718616780042e-05 0.014590643567864882 0.0 0.0
0.0 0.010317586691517645 -0.0015507845897307483 0.001090984864009112 0.0004597997257216351 0.015993112889877006 0.0 0.0
0.0 0.010020266006908597 -0.002844467473375728 0.0023236838853579822 0.0005207835880177452 0.014296192103430208 0.0 0.0
0.0 0.009245678596916211 -0.003453060554644315 0.0029638485961706726 0.0004892119584736398 0.012320873482910033 0.0 0.0
0.0 0.008054707000977874 -0.003343056038948851 0.0028990330728991542 0.00044402296604969415 0.010468713114451245 0.0 0.0
0.0 0.006602343043188762 -0.0027955557481513416 0.0024076623532675737 0.00038789339488376696 0.008709758524732485 0.0 0.0
0.0 0.0051743344176167355 -0.002112395159821962 0.0017877014886910115 0.00032469367113094984 0.0070538456706848145 0.0 0.0
0.0 0.0038644786549680925 -0.0014791509977604288 0.0012238140231922339 0.0002553369745681939 0.0055381366568282514 0.0 0.0
0.0 0.002783554093388262 -0.0009696335743780188 0.0007886677585300197 0.00018096581584799913 0.004175504510236528 0.0 0.0
0.0 0.0018918347127252501 -0.0005701379453866584 0.0004607540127405871 0.00010938393264607154 0.0029662897386523164 0.0 0.0
0.0 0.0012374589499700613 -0.0002798105727638738 0.00022658036021107504 5.3230212552798716e-05 0.0019012426143454701 0.0 0.0
0.0 0.0007079566091721509 -0.00012946709873061014 0.0001045423806407942 2.4924718089815987e-05 0.0011348947596604502 0.0 0.0
0.0 0.0004111950990070118 -5.422752111282305e-05 4.3572367574258014e-05 1.0655153538565004e-05 0.000611131557979765 0.0 0.0
0.0 0.00019152977374323172 -2.1411644172716297e-05 1.7259623570952105e-05 4.15202060176418e-06 0.000296193039886784 0.0 0.0
0.0 7.12310676597202e-05 -5.901837404316472e-06 4.8539926471261255e-06 1.0478447571903562e-06 8.947753885290625e-05 0.0 0.0
0.0 1.4964315759020769e-05 -8.989390615646051e-07 7.892038012910224e-07 1.0973526027357916e-07 1.337093729649884e-05 0.0 0.0
0.0 2.9248929138027837e-06 -2.069406367527388e-07 1.775910973121438e-07 2.9349539440595454e-08 2.3501013662898494e-06 0.0 0.0
0.0 1.415355257605791e-06 -4.826611060282991e-08 3.827724913594349e-08 9.98886146688688e-09 4.915353391676605e-07 0.0 0.0
0.0 1.990769774994934e-06 9.90021873709714e-10 6.595975921909182e-09 -7.585997795614006e-09 -2.5337822649905877e-07 0.0 0.0
0.0 2.8984952415463425e-06 3.6045028283993634e-07 -5.213055537262995e-07 1.6085527088636645e-07 7.372707970362947e-07 0.0 0.0
0.0 0.0 0.0 0.0 0.0 0.0 0.0 0.0
0.0 8.011398138732846e-07 4.29986919501692e-09 3.1540445717078743e-09 -7.453913766726331e-09 1.3358171415495923e-07 0.0 0.0
0.0 2.644612418421578e-06 -1.2022205529495904e-07 9.791512514859445e-08 2.2306930146360378e-08 -8.454176742605665e-07 0.0 0.0
0.0 5.5412957654374235e-06 -9.394524728107365e-08 9.315974204392092e-08 7.855052371661768e-10 -8.958740201288589e-07 0.0 0.0
0.0 1.9657881480821066e-05 -3.6220737912917854e-06 3.024285864073421e-06 5.977879272183722e-07 -2.2025883951540762e-05 0.0 0.0
0.0 8.127867095341471e-05 -1.912063344889404e-05 1.540107360178364e-05 3.7195598471103735e-06 -0.00010164871570283062 0.0 0.0
0.0 0.0002341658273720246 -7.041435659074611e-05 5.6583767978442115e-05 1.383058861230402e-05 -0.0003158304683496214 0.0 0.0
0.0 0.0006023939805764393 -0.00026484192997390754 0.0002128670551760887 5.1974874797818834e-05 -0.0008784992756039113 0.0 0.0
0.0 0.0015294119386748102 -0.0008353306458352139 0.0006850112100564223 0.00015031943577879138 -0.0019352180237325895 0.0 0.0
0.0 0.0029927681261827013 -0.00189182184078356 0.0016021099573272739 0.00028971188345628605 -0.0033708330123548365 0.0 0.0
0.0 0.0048414422011206545 -0.0033102952327132163 0.0028925503076279906 0.00041774492508522354 -0.004989318458792883 0.0 0.0
0.0 0.007033317488255563 -0.004950784480726812 0.004437969489959689 0.0005128149907671252 -0.006652174510055178 0.0 0.0
0.0 0.009443656706874068 -0.006808450559566666 0.00622122545613323 0.0005872251034334346 -0.008343483814633571 0.0 0.0
0.0 0.012157913689248312 -0.008909589855464563 0.008260695356294248 0.0006488944991703173 -0.010046319400700427 0.0 0.0
0.0 0.015143194370086169 -0.011207902344608323 0.010503181271540969 0.0007047210730673499 -0.011835163151738355 0.0 0.0
0.0 0.01819970317494489 -0.013499336651438796 0.0127420470246456 0.0007572896267931948 -0.013803486423001153 0.0 0.0
0.0 0.020972720497377046 -0.015393728073047756 0.014589468815110272 0.0008042592579374895 -0.016015092010692806 0.0 0.0
0.0 0.022861770525665934 -0.016365627776769944 0.015527203826191046 0.0008384239505789088 -0.018374945150957955 0.0 0.0
0.0 0.022348969024325788 -0.015406977988982943 0.014473912627861041 0.0009330653611218988 -0.0193170951399566 0.0 0.0
0.0 0.017215636016388047 -0.01029350315543063 0.009292359135296788 0.001001144020133834 -0.016704019520252206 0.0 0.0
0.0 0.01721563601639481 -0.01029350315543138 0.009292359135297305 0.0010011440201340748 0.01670401952027404 0.0 0.0
0.0 0.02234896902433155 -0.015406977988981538 0.014473912627859544 0.0009330653611219849 0.019317095139986414 0.0 0.0
0.0 0.022861770525663214 -0.016365627776763824 0.015527203826185113 0.000838423950578705 0.018374945150975878 0.0 0.0
0.0 0.020972720497362533 -0.015393728073034794 0.014589468815097498 0.0008042592579372929 0.01601509201069205 0.0 0.0
0.0 0.018199703174925152 -0.013499336651423194 0.012742047024630068 0.0007572896267931257 0.013803486422989045 0.0 0.0
0.0 0.01514319437006989 -0.01120790234459567 0.010503181271528685 0.000704721073066984 0.011835163151727487 0.0 0.0
0.0 0.012157913689231033 -0.008909589855450992 0.008260695356280864 0.0006488944991701272 0.010046319400690538 0.0 0.0
0.0 0.009443656706856842 -0.006808450559552538 0.0062212254561193414 0.0005872251034331928 0.008343483814624495 0.0 0.0
0.0 0.0070333174882373254 -0.004950784480713043 0.004437969489946644 0.0005128149907663974 0.006652174510042256 0.0 0.0
0.0 0.004841442201101712 -0.0033102952326995714 0.0028925503076154 0.000417744925084172 0.004989318458777252 0.0 0.0
0.0 0.0029927681261681265 -0.0018918218407739749 0.0016021099573186558 0.000289711883455319 0.003370833012340286 0.0 0.0
0.0 0.0015294119386671952 -0.0008353306458301181 0.0006850112100521232 0.000150319435777995 0.0019352180237246974 0.0 0.0
0.0 0.0006023939805733559 -0.00026484192997225213 0.0002128670551747897 5.197487479746246e-05 0.0008784992756004036 0.0 0.0
0.0 0.00023416582736994154 -7.041435659030963e-05 5.6583767978097454e-05 1.3830588612212153e-05 0.00031583046834784593 0.0 0.0
0.0 8.127867095155956e-05 -1.912063344869996e-05 1.540107360162429e-05 3.719559847075648e-06 0.0001016487157017991 0.0 0.0
0.0 1.9657881480270136e-05 -3.622073791304942e-06 3.024285864085316e-06 5.977879272196093e-07 2.2025883951639465e-05 0.0 0.0
0.0 5.541295765131599e-06 -9.394524733372919e-08 9.315974208947411e-08 7.855052442589462e-10 8.958740204961728e-07 0.0 0.0
0.0 2.6446124179132282e-06 -1.2022205541616094e-07 9.791512524769279e-08 2.2306930168468223e-08 8.454176751935279e-07 0.0 0.0
0.0 8.011398133679213e-07 4.299869177854514e-09 3.1540445770920053e-09 -7.453913754946166e-09 -1.3358171376991513e-07 0.0 0.0
0.0 0.0 0.0 0.0 0.0 0.0 0.0 0.0
0.0 0.0 0.0 0.0 0.0 0.0 0.0 0.0
0.0 9.659038647247042e-07 1.536493391610939e-08 -9.441890028047111e-09 -5.923043888061976e-09 1.9697054502569396e-07 0.0 0.0
0.0 3.123797815057657e-06 1.0788026094104876e-07 -8.564980673659911e-08 -2.2230454204453356e-08 6.305005306608872e-07 0.0 0.0
0.0 7.916590144181344e-06 -6.542109627506412e-08 4.788680442915459e-08 1.7534291845920542e-08 -1.6127471893379403e-07 0.0 0.0
0.0 2.694258250708468e-05 -7.112993208788398e-06 5.7689969528597665e-06 1.3439962559286459e-06 -2.573192601744339e-05 0.0 0.0
0.0 0.00010439410567687489 -3.858289384357665e-05 3.1051192371263604e-05 7.531701472313024e-06 -0.0001194733918673198 0.0 0.0
0.0 0.00041073860155663297 -0.0002135331925472519 0.00017181800941025316 4.171518313699871e-05 -0.0005063925521264354 0.0 0.0
0.0 0.0013645299994484933 -0.0008863453250206377 0.0007285156195327718 0.0001578297054878659 -0.0015148986434082056 0.0 0.0
0.0 0.0032325810159930767 -0.0022918262255140895 0.001958450966474473 0.0003333752590396152 -0.003056579838672098 0.0 0.0
0.0 0.005707076249324743 -0.004343543036937952 0.003849926733719451 0.0004936163032185008 -0.004949084686802217 0.0 0.0
0.0 0.008830129950527975 -0.006817802982271171 0.006212998191991454 0.0006048047902797204 -0.006971884072171019 0.0 0.0
0.0 0.01220730748923983 -0.009615490363656271 0.00893180835286499 0.0006836820107912757 -0.008949469960160007 0.0 0.0
0.0 0.016001947026184675 -0.012751159053300496 0.01200486684276479 0.0007462922105357032 -0.010870434004576815 0.0 0.0
0.0 0.020300634696982824 -0.01629513336460587 0.015492528019704032 0.0008026053449018299 -0.012817081026430092 0.0 0.0
0.0 0.025152964292300732 -0.020235875542650564 0.01937607550461175 0.0008598000380388117 -0.014965977522364896 0.0 0.0
0.0 0.030260505059529184 -0.02435741844306067 0.023437679987323146 0.0009197384557375114 -0.01756727596138661 0.0 0.0
0.0 0.03522554285181522 -0.028172163067482436 0.027193105601297684 0.0009790574661847397 -0.02080887169722184 0.0 0.0
0.0 0.0387167592063672 -0.030791853137765765 0.029736865779297687 0.0010549873584680802 -0.024120004483464748 0.0 0.0
0.0 0.03896639025775368 -0.030549889660166668 0.029399182633417224 0.001150707026749449 -0.025771351023847637 0.0 0.0
0.0 0.03158763895152144 -0.02433927762799554 0.02299058739195596 0.0013486902360395712 -0.0221182109127405 0.0 0.0
0.0 0.031587638951527955 -0.02433927762799565 0.022990587391956 0.0013486902360396436 0.02211821091276954 0.0 0.0
0.0 0.038966390257755376 -0.030549889660161113 0.029399182633411788 0.001150707026749311 0.025771351023884843 0.0 0.0
0.0 0.0387167592063565 -0.030791853137751662 0.029736865779283583 0.0010549873584680632 0.024120004483489624 0.0 0.0
0.0 0.03522554285179182 -0.028172163067460957 0.02719310560127689 0.0009790574661840794 0.020808871697222783 0.0 0.0
0.0 0.03026050505950146 -0.024357418443037293 0.023437679987300234 0.0009197384557370613 0.0175672759613757 0.0 0.0
0.0 0.025152964292274108 -0.02023587554262858 0.019376075504589918 0.0008598000380386578 0.014965977522352809 0.0 0.0
0.0 0.02030063469695858 -0.016295133364585913 0.015492528019684305 0.0008026053449016028 0.012817081026417997 0.0 0.0
0.0 0.016001947026161048 -0.012751159053280205 0.012004866842744814 0.000746292210535384 0.010870434004568313 0.0 0.0
0.0 0.012207307489212824 -0.00961549036363431 0.00893180835284343 0.0006836820107908792 0.00894946996014471 0.0 0.0
0.0 0.008830129950503213 -0.006817802982251812 0.006212998191972704 0.0006048047902791071 0.006971884072152758 0.0 0.0
0.0 0.0057070762493044705 -0.004343543036922811 0.003849926733705017 0.0004936163032177936 0.004949084686785757 0.0 0.0
0.0 0.003232581015980051 -0.0022918262255039335 0.0019584509664652234 0.0003333752590387098 0.0030565798386625207 0.0 0.0
0.0 0.0013645299994414029 -0.0008863453250157088 0.000728515619528639 0.00015782970548706981 0.001514898643401973 0.0 0.0
0.0 0.0004107386015534638 -0.00021353319254596001 0.00017181800940922596 4.171518313673401e-05 0.0005063925521238469 0.0 0.0
0.0 0.00010439410567540475 -3.8582893843492756e-05 3.105119237119478e-05 7.53170147229794e-06 0.00011947339186691679 0.0 0.0
0.0 2.6942582506250613e-05 -7.112993208925405e-06 5.768996952971433e-06 1.3439962559539326e-06 2.5731926017939725e-05 0.0 0.0
0.0 7.916590143605526e-06 -6.542109638123467e-08 4.7886804515122545e-08 1.753429186610206e-08 1.6127471937659533e-07 0.0 0.0
0.0 3.1237978142420583e-06 1.0788026091149483e-07 -8.564980671326711e-08 -2.2230454198221235e-08 -6.305005304893692e-07 0.0 0.0
0.0 9.659038644330307e-07 1.5364933911636078e-08 -9.441890025310556e-09 -5.923043886328447e-09 -1.969705449648645e-07 0.0 0.0
0.0 0.0 0.0 0.0 0.0 0.0 0.0 0.0
0.0 0.0 0.0 0.0 0.0 0.0 0.0 0.0
0.0 0.0 0.0 0.0 0.0 0.0 0.0 0.0
0.0 1.762862297087584e-06 7.425115861487428e-08 -6.029149643128876e-08 -1.3959662183589334e-08 3.448992119798501e-07 0.0 0.0
0.0 7.2151057577024954e-06 -6.557833223338595e-07 5.551377413114509e-07 1.0064558102240463e-07 -2.2883306184482245e-06 0.0 0.0
0.0 3.442622624012186e-05 -1.1078969607658274e-05 9.014475895619546e-06 2.06449371203876e-06 -2.8568602181890874e-05 0.0 0.0
0.0 0.0001750038770187353 -9.342231561729279e-05 7.499458925370431e-05 1.8427726363588467e-05 -0.00018766541059782752 0.0 0.0
0.0 0.0008382167051400837 -0.0005663929566122162 0.0004614367928238671 0.00010495616378834916 -0.0008310382157018026 0.0 0.0
0.0 0.0024997516670118383 -0.0018780290489223963 0.001587879817379824 0.0002901492315425723 -0.002117952860614092 0.0 0.0
0.0 0.005220508696641809 -0.004106656443226183 0.0036240600306451814 0.000482596412581002 -0.003921985523162776 0.0 0.0
0.0 0.008746813943409159 -0.007068555265831186 0.006446074307668285 0.0006224809581629003 -0.00606888670415458 0.0 0.0
0.0 0.012907544521667168 -0.010548273744983338 0.00983259101596526 0.000715682729018079 -0.008280898616030511 0.0 0.0
0.0 0.01760132453568871 -0.014473981911082437 0.01368547517874457 0.000788506732337864 -0.010394955727694005 0.0 0.0
0.0 0.022879117266355675 -0.01888843622041217 0.01803729839780749 0.0008511378226046756 -0.012445629294749513 0.0 0.0
0.0 0.02879319201885959 -0.023892044808551793 0.022980866356375678 0.0009111784521761235 -0.014545990119040205 0.0 0.0
0.0 0.03548846320478126 -0.029508120597490257 0.028534520881660475 0.000973599715829766 -0.01692140641617829 0.0 0.0
0.0 0.04274628782271276 -0.035523948617806056 0.03448002822615487 0.0010439203916511853 -0.019960566404677978 0.0 0.0
0.0 0.04977962142705922 -0.04128092221630551 0.04015460966086468 0.0011263125554408118 -0.023874787221894997 0.0 0.0
0.0 0.05507186638212791 -0.04542883411778863 0.044203503933084726 0.0012253301847038398 -0.027998885278212145 0.0 0.0
0.0 0.05565548133246454 -0.04561902864605926 0.04425797612842733 0.0013610525176319071 -0.030184374354311896 0.0 0.0
0.0 0.046484100073565404 -0.0378041985364993 0.03623412642476352 0.0015700721117358001 -0.02692373951327594 0.0 0.0
0.0 0.04648410007356907 -0.03780419853649717 0.03623412642476108 0.001570072111736079 0.02692373951330889 0.0 0.0
0.0 0.055655481332463785 -0.04561902864605204 0.04425797612842032 0.0013610525176317202 0.03018437435435408 0.0 0.0
0.0 0.05507186638211675 -0.04542883411777352 0.044203503933070744 0.0012253301847027524 0.027998885278244005 0.0 0.0
0.0 0.04977962142703193 -0.041280922216280186 0.040154609660839766 0.0011263125554404094 0.02387478722190101 0.0 0.0
0.0 0.04274628782267896 -0.03552394861777686 0.034480028226125975 0.0010439203916508823 0.019960566404669623 0.0 0.0
0.0 0.03548846320474711 -0.029508120597461343 0.028534520881631914 0.0009735997158294182 0.016921406416165838 0.0 0.0
0.0 0.028793192018831234 -0.02389204480852752 0.02298086635635238 0.0009111784521751394 0.014545990119029368 0.0 0.0
0.0 0.022879117266321667 -0.01888843622038301 0.018037298397778786 0.0008511378226042256 0.012445629294738672 0.0 0.0
0.0 0.017601324535654304 -0.014473981911053552 0.013685475178716097 0.0007885067323374518 0.010394955727677476 0.0 0.0
0.0 0.012907544521633616 -0.010548273744955953 0.00983259101593861 0.0007156827290173434 0.008280898616009752 0.0 0.0
0.0 0.008746813943378513 -0.0070685552658066135 0.0064460743076444615 0.0006224809581621502 0.006068886704133664 0.0 0.0
0.0 0.0052205086966211995 -0.004106656443209825 0.003624060030629878 0.00048259641257994694 0.003921985523149607 0.0 0.0
0.0 0.00249975166700074 -0.0018780290489138116 0.0015878798173723095 0.00029014923154150143 0.002117952860606175 0.0 0.0
0.0 0.0008382167051339789 -0.000566392956608244 0.00046143679282057977 0.00010495616378766406 0.0008310382156968156 0.0 0.0
0.0 0.00017500387701596063 -9.342231561629662e-05 7.499458925289167e-05 1.842772636340498e-05 0.00018766541059593003 0.0 0.0
0.0 3.4426226239068345e-05 -1.1078969607645304e-05 9.014475895606863e-06 2.064493712038396e-06 2.8568602181864067e-05 0.0 0.0
0.0 7.215105757065635e-06 -6.55783322513488e-07 5.551377414575493e-07 1.0064558105593102e-07 2.288330619028487e-06 0.0 0.0
0.0 1.7628622966370727e-06 7.425115859493936e-08 -6.029149641515662e-08 -1.3959662179784548e-08 -3.4489921188806817e-07 0.0 0.0
0.0 0.0 0.0 0.0 0.0 0.0 0.0 0.0
0.0 0.0 0.0 0.0 0.0 0.0 0.0 0.0
0.0 0.0 0.0 0.0 0.0 0.0 0.0 0.0
0.0 0.0 0.0 0.0 0.0 0.0 0.0 0.0
0.0 6.301117771691601e-07 3.177133557320747e-08 -2.5610055499987776e-08 -6.161280073216576e-09 1.139376708674144e-07 0.0 0.0
0.0 8.230878742740426e-06 4.308905879025087e-07 -3.45397938587592e-07 -8.54926493149056e-08 1.1161779613293639e-06 0.0 0.0
0.0 5.2991508246912236e-05 -1.606920787903719e-05 1.2959541186296463e-05 3.1096666927407256e-06 -2.8986141203063358e-05 0.0 0.0
0.0 0.00034633123465367135 -0.00023333184238048436 0.00018807688155254542 4.525496082793884e-05 -0.0003136488278510013 0.0 0.0
0.0 0.0015065249712707452 -0.001140926269767386 0.0009456933966515667 0.00019523287311581916 -0.0011301739440039492 0.0 0.0
0.0 0.0038614911026922374 -0.0031128854430891046 0.0027007201242009813 0.0004121653188881223 -0.002536445253058607 0.0 0.0
0.0 0.007368866395319402 -0.0061143696068152705 0.005525314514391161 0.000589055092424109 -0.004460578829297862 0.0 0.0
0.0 0.011853772416046739 -0.009924065564475549 0.009216726597555281 0.0007073389669202656 -0.006651088600947845 0.0 0.0
0.0 0.017126587181797596 -0.01438263313419495 0.013588220412602766 0.0007944127215921844 -0.0088619455877561 0.0 0.0
0.0 0.02310761202400559 -0.019439963608203367 0.018571357520388774 0.0008686060878145936 -0.010999654551155286 0.0 0.0
0.0 0.029828539098041302 -0.025145186594243075 0.024208438656085955 0.0009367479381571023 -0.013091217276159691 0.0 0.0
0.0 0.03743294654190343 -0.03161335759596269 0.0306109791636167 0.0010023784323459854 -0.015224816294619966 0.0 0.0
0.0 0.0460622385847357 -0.03891273476544498 0.037841362628993805 0.001071372136451182 -0.017636528990223825 0.0 0.0
0.0 0.05526978182560888 -0.04682664876635573 0.045673027930921505 0.0011536208354342087 -0.020736495516058683 0.0 0.0
0.0 0.06455475025904994 -0.05449423464245787 0.05323702907031741 0.0012572055721404589 -0.024812774226636747 0.0 0.0
0.0 0.07146018401729538 -0.060078517535014066 0.05869230844533405 0.0013862090896800178 -0.029361878104691437 0.0 0.0
0.0 0.07223653625323669 -0.060471730263562506 0.05892409298616706 0.001547637277395404 -0.032376984118339336 0.0 0.0
0.0 0.06145707453257022 -0.05100265775588377 0.04925985509904372 0.0017428026568400503 -0.03123848332626607 0.0 0.0
0.0 0.06145707453257052 -0.05100265775587903 0.04925985509903872 0.0017428026568403012 0.031238483326300616 0.0 0.0
0.0 0.07223653625322676 -0.06047173026354817 0.058924092986152685 0.001547637277395477 0.032376984118382475 0.0 0.0
0.0 0.07146018401727064 -0.06007851753498861 0.05869230844530856 0.0013862090896800418 0.029361878104722756 0.0 0.0
0.0 0.06455475025901594 -0.05449423464242676 0.053237029070286775 0.0012572055721399443 0.024812774226643894 0.0 0.0
0.0 0.05526978182556891 -0.04682664876632074 0.04567302793088709 0.0011536208354336445 0.020736495516052823 0.0 0.0
0.0 0.04606223858469352 -0.038912734765408435 0.037841362628957785 0.0010713721364506872 0.017636528990214315 0.0 0.0
0.0 0.0374329465418588 -0.03161335759592457 0.030610979163578703 0.0010023784323458728 0.015224816294605727 0.0 0.0
0.0 0.029828539097999825 -0.025145186594207107 0.024208438656050726 0.0009367479381563733 0.013091217276148048 0.0 0.0
0.0 0.023107612023964316 -0.01943996360816797 0.01857135752035397 0.0008686060878139952 0.010999654551139978 0.0 0.0
0.0 0.017126587181757344 -0.014382633134161427 0.01358822041256946 0.0007944127215919659 0.008861945587735306 0.0 0.0
0.0 0.011853772416015252 -0.00992406556444921 0.00921672659752955 0.0007073389669196695 0.0066510886009286 0.0 0.0
0.0 0.007368866395294561 -0.006114369606794485 0.005525314514371034 0.0005890550924234534 0.004460578829285031 0.0 0.0
0.0 0.0038614911026742683 -0.0031128854430742857 0.00270072012418735 0.00041216531888693686 0.0025364452530486337 0.0 0.0
0.0 0.0015065249712595714 -0.0011409262697588828 0.0009456933966443499 0.0001952328731145327 0.0011301739439965285 0.0 0.0
0.0 0.00034633123464973385 -0.00023333184237836789 0.0001880768815508181 4.5254960827549756e-05 0.0003136488278482839 0.0 0.0
0.0 5.2991508245933405e-05 -1.6069207879148196e-05 1.2959541186378613e-05 3.1096666927694785e-06 2.8986141203245836e-05 0.0 0.0
0.0 8.230878742115693e-06 4.308905877646622e-07 -3.4539793847779153e-07 -8.54926492868601e-08 -1.116177961000882e-06 0.0 0.0
0.0 6.301117768796378e-07 3.177133555832444e-08 -2.5610055487985994e-08 -6.161280070339225e-09 -1.1393767081387647e-07 0.0 0.0
0.0 0.0 0.0 0.0 0.0 0.0 0.0 0.0
0.0 0.0 0.0 0.0 0.0 0.0 0.0 0.0
0.0 0.0 0.0 0.0 0.0 0.0 0.0 0.0
0.0 0.0 0.0 0.0 0.0 0.0 0.0 0.0
0.0 9.159772724021529e-07 5.630253744311479e-08 -4.536700834069255e-08 -1.0935529102421052e-08 1.5681455061216043e-07 0.0 0.0
0.0 4.76559116722307e-06 -5.00474800304679e-07 4.003999226289164e-07 1.0007487767580387e-07 -8.86362584452228e-07 0.0 0.0
0.0 8.502966808587382e-05 -4.5353509604446496e-05 3.632410898594896e-05 9.029400618497561e-06 -5.9238005872345766e-05 0.0 0.0
0.0 0.0006672373271686895 -0.0004903240615731985 0.000397954358570921 9.236970300227771e-05 -0.0004465599398576827 0.0 0.0
0.0 0.0023976498954882694 -0.001897907520396428 0.001604342617145805 0.00029356490325062307 -0.0013186807139029728 0.0 0.0
0.0 0.0053149731147541564 -0.004517717417326061 0.004005986118347389 0.0005117312989786721 -0.0027423751851947905 0.0 0.0
0.0 0.009603939951473468 -0.008219817488310452 0.0075565329036518265 0.0006632845846586275 -0.004598880546847412 0.0 0.0
0.0 0.015033632516243286 -0.01284372722174294 0.012073552082586638 0.000770175139156306 -0.006662196796466712 0.0 0.0
0.0 0.021419648479797503 -0.01827780189676676 0.017420296556914083 0.0008575053398526664 -0.008773880062628402 0.0 0.0
0.0 0.028671661918420438 -0.02447513042368217 0.02353834239386793 0.0009367880298142197 -0.010818889879556119 0.0 0.0
0.0 0.036915080181236286 -0.031483599806631485 0.03047130357162108 0.001012296235010408 -0.012835249765268045 0.0 0.0
0.0 0.046088518964816284 -0.03942133724039103 0.03833626431507138 0.0010850729253196543 -0.014916334068018719 0.0 0.0
0.0 0.05652525953187644 -0.04836894190936899 0.047208508544917926 0.0011604333644510598 -0.01716037710794873 0.0 0.0
0.0 0.06799840085059447 -0.05811297509040188 0.056859433410415015 0.0012535416799868647 -0.019888204563584214 0.0 0.0
0.0 0.07905454347339709 -0.06763768460095944 0.06626021732828175 0.0013774672726776654 -0.023621905213919096 0.0 0.0
0.0 0.08736347369477626 -0.07461206274331725 0.07307756619033523 0.0015344965529820124 -0.028321491764982238 0.0 0.0
0.0 0.08853152954845608 -0.07522693507388153 0.07351453634726343 0.0017123987266180534 -0.032764515298687596 0.0 0.0
0.0 0.07677046754342914 -0.0643036284899459 0.062404786579596916 0.001898841910348974 -0.035345198685992424 0.0 0.0
0.0 0.07677046754342948 -0.0643036284899416 0.0624047865795925 0.0018988419103490646 0.035345198686027715 0.0 0.0
0.0 0.08853152954844376 -0.07522693507386599 0.0735145363472479 0.001712398726618044 0.03276451529873243 0.0 0.0
0.0 0.08736347369474601 -0.07461206274328776 0.07307756619030573 0.0015344965529820215 0.028321491765014365 0.0 0.0
0.0 0.07905454347335386 -0.06763768460092082 0.06626021732824325 0.001377467272677548 0.0236219052139272 0.0 0.0
0.0 0.0679984008505446 -0.058112975090358156 0.05685943341037204 0.0012535416799861036 0.019888204563580765 0.0 0.0
0.0 0.05652525953182435 -0.04836894190932363 0.04720850854487316 0.0011604333644504557 0.01716037710794107 0.0 0.0
0.0 0.046088518964763917 -0.03942133724034581 0.03833626431502633 0.0010850729253194798 0.014916334068007641 0.0 0.0
0.0 0.036915080181182655 -0.03148359980658514 0.030471303571574744 0.0010122962350103842 0.012835249765254974 0.0 0.0
0.0 0.028671661918370495 -0.02447513042363886 0.023538342393825188 0.0009367880298136652 0.01081888987954167 0.0 0.0
0.0 0.021419648479751207 -0.018277801896727335 0.01742029655687524 0.000857505339852096 0.008773880062608645 0.0 0.0
0.0 0.015033632516205625 -0.01284372722171092 0.012073552082555316 0.0007701751391555944 0.006662196796448564 0.0 0.0
0.0 0.009603939951443938 -0.008219817488284946 0.00755653290362719 0.0006632845846577556 0.004598880546834481 0.0 0.0
0.0 0.005314973114733352 -0.004517717417308137 0.004005986118330601 0.0005117312989775335 0.002742375185185253 0.0 0.0
0.0 0.0023976498954760947 -0.0018979075203866048 0.001604342617137149 0.0002935649032494558 0.0013186807138967928 0.0 0.0
0.0 0.0006672373271630748 -0.0004903240615693803 0.0003979543585677683 9.236970300161186e-05 0.0004465599398544291 0.0 0.0
0.0 8.502966808475237e-05 -4.5353509604465734e-05 3.63241089859523e-05 9.029400618513442e-06 5.923800587231688e-05 0.0 0.0
0.0 4.765591167059032e-06 -5.004748005970892e-07 4.003999228637028e-07 1.0007487773336387e-07 8.863625850054771e-07 0.0 0.0
0.0 9.159772720464821e-07 5.630253742091469e-08 -4.5367008322703315e-08 -1.0935529098212496e-08 -1.5681455054918204e-07 0.0 0.0
0.0 0.0 0.0 0.0 0.0 0.0 0.0 0.0
0.0 0.0 0.0 0.0 0.0 0.0 0.0 0.0
0.0 0.0 0.0 0.0 0.0 0.0 0.0 0.0
0.0 0.0 0.0 0.0 0.0 0.0 0.0 0.0
0.0 0.0 0.0 0.0 0.0 0.0 0.0 0.0
0.0 4.526797221869604e-06 -1.1004584963996821e-06 8.663774523099626e-07 2.340810440897377e-07 -1.4586292590206621e-06 0.0 0.0
0.0 0.00016297011797210557 -0.000104605470381379 8.390072574905006e-05 2.0704744632329027e-05 -9.632910244039211e-05 0.0 0.0
0.0 0.0011453597773857383 -0.0008768117757365399 0.0007203491286393614 0.0001564626470971788 -0.0005403530608381375 0.0 0.0
0.0 0.0032538505959931593 -0.002823102784479996 0.0024337138526934923 0.00038938893178650484 -0.0013965384617260117 0.0 0.0
0.0 0.006870391295657189 -0.0060106673578734044 0.005425556592899885 0.0005851107649735185 -0.0026813333633030696 0.0 0.0
0.0 0.011942694841047938 -0.01036651065443361 0.009648082502807437 0.0007184281516261694 -0.0043038433248118735 0.0 0.0
0.0 0.018267340121788128 -0.015799055086706485 0.014978383405427034 0.0008206716812794623 -0.006146164120175852 0.0 0.0
0.0 0.025742904974914792 -0.022206162934385827 0.021295022027800984 0.0009111409065848271 -0.008034366328911547 0.0 0.0
0.0 0.03430450937914237 -0.029551058291378936 0.028553674601889244 0.0009973836894896812 -0.009869695349638124 0.0 0.0
0.0 0.0439827783691877 -0.037879910625029545 0.03679896602745772 0.0010809445975718105 -0.011708247827813134 0.0 0.0
0.0 0.05492712118721663 -0.04728487052372106 0.046121648017084065 0.0011632225066369856 -0.013602885750021932 0.0 0.0
0.0 0.06715354439788335 -0.057815802155492216 0.056569472064277884 0.0012463300912143333 -0.015543493369929625 0.0 0.0
0.0 0.08020539128500123 -0.06925531548971721 0.0679103676999868 0.0013449477897303566 -0.0176012852347791 0.0 0.0
0.0 0.09328727859043442 -0.08052691261255787 0.07904190554810163 0.0014850070644562324 -0.020374189503244572 0.0 0.0
0.0 0.10322001829516995 -0.08894840877776675 0.0872818535123418 0.0016665552654249085 -0.024866999390760064 0.0 0.0
0.0 0.10503707434678856 -0.0900663143534149 0.08820176918964233 0.0018645451637725463 -0.03138258444145489 0.0 0.0
0.0 0.0924874658873654 -0.07803908613893179 0.07598708198715234 0.00205200415177943 -0.03925489567795609 0.0 0.0
0.0 0.09248746588736291 -0.07803908613892507 0.07598708198714585 0.002052004151779237 0.03925489567799134 0.0 0.0
0.0 0.10503707434677058 -0.09006631435339545 0.0882017691896235 0.0018645451637719548 0.03138258444149496 0.0 0.0
0.0 0.10322001829513723 -0.08894840877773587 0.08728185351231156 0.001666555265424223 0.024866999390790227 0.0 0.0
0.0 0.09328727859038854 -0.08052691261251706 0.07904190554806166 0.0014850070644553944 0.02037418950325231 0.0 0.0
0.0 0.08020539128494639 -0.06925531548966934 0.06791036769993943 0.0013449477897298872 0.01760128523477723 0.0 0.0
0.0 0.06715354439782655 -0.057815802155442506 0.056569472064229305 0.00124633009121322 0.015543493369924678 0.0 0.0
0.0 0.05492712118715737 -0.04728487052366954 0.04612164801703354 0.0011632225066359517 0.013602885750012733 0.0 0.0
0.0 0.04398277836912659 -0.03787991062497643 0.03679896602740547 0.00108094459757097 0.011708247827801858 0.0 0.0
0.0 0.03430450937908445 -0.02955105829132839 0.02855367460183951 0.0009973836894889 0.00986969534962538 0.0 0.0
0.0 0.02574290497486184 -0.022206162934340027 0.021295022027755683 0.0009111409065843353 0.008034366328893745 0.0 0.0
0.0 0.01826734012174485 -0.015799055086669008 0.014978383405390153 0.0008206716812788478 0.006146164120159463 0.0 0.0
0.0 0.011942694841014045 -0.010366510654403862 0.009648082502778302 0.0007184281516255577 0.0043038433248011685 0.0 0.0
0.0 0.00687039129563195 -0.006010667357851164 0.005425556592878498 0.0005851107649726654 0.002681333363293924 0.0 0.0
0.0 0.00325385059597686 -0.002823102784465823 0.002433713852680625 0.0003893889317851981 0.0013965384617195768 0.0 0.0
0.0 0.0011453597773775082 -0.0008768117757304579 0.000720349128634223 0.0001564626470962347 0.0005403530608346029 0.0 0.0
0.0 0.00016297011796981715 -0.00010460547038045336 8.390072574829746e-05 2.0704744632155744e-05 9.632910243964561e-05 0.0 0.0
0.0 4.52679722131048e-06 -1.100458496553036e-06 8.663774524300168e-07 2.3408104412303198e-07 1.4586292592315191e-06 0.0 0.0
0.0 0.0 0.0 0.0 0.0 0.0 0.0 0.0
0.0 0.0 0.0 0.0 0.0 0.0 0.0 0.0
0.0 0.0 0.0 0.0 0.0 0.0 0.0 0.0
0.0 0.0 0.0 0.0 0.0 0.0 0.0 0.0
0.0 0.0 0.0 0.0 0.0 0.0 0.0 0.0
0.0 0.0 0.0 0.0 0.0 0.0 0.0 0.0
0.0 5.671219088226865e-06 -1.7837111842781373e-06 1.4140742612261295e-06 3.6963692305199774e-07 -1.726399565479409e-06 0.0 0.0
0.0 0.0003276889911014389 -0.00022692193129394907 0.00018200303985368963 4.491889144025943e-05 -0.00013270497030878773 0.0 0.0
0.0 0.0017187134084110033 -0.0014003955272515942 0.001166595517803179 0.00023380000944841573 -0.0005665775471917081 0.0 0.0
0.0 0.004290058818130393 -0.0038354358635461798 0.0033649434564801102 0.00047049240706606877 -0.0012742783311552824 0.0 0.0
0.0 0.008534854080748078 -0.007537155891554277 0.0068972976948435735 0.0006398581967107032 -0.002298949408872105 0.0 0.0
0.0 0.014318983162407288 -0.012534440211439193 0.0117730041285108 0.0007614360829283873 -0.003614168826773011 0.0 0.0
0.0 0.02153962395014875 -0.018764440868273537 0.017901524553758985 0.0008629163145145529 -0.005117742292660786 0.0 0.0
0.0 0.030120117776933686 -0.026143325164573458 0.025184884408010998 0.0009584407565624566 -0.006665948319072939 0.0 0.0
0.0 0.039937652793209974 -0.034644015611365125 0.033592090329601476 0.0010519252817636257 -0.008168592548794571 0.0 0.0
0.0 0.051207913393897575 -0.04430494460672886 0.04316040707934572 0.001144537527383114 -0.009682838918110264 0.0 0.0
0.0 0.06366100201345308 -0.05518323224739875 0.05394591923664991 0.0012373130107488613 -0.011294447983671678 0.0 0.0
0.0 0.077513899533359 -0.06723223596135337 0.06590079982499769 0.001331436136355719 -0.012869720210221983 0.0 0.0
0.0 0.09240083474519793 -0.0801515913299716 0.0787170942294094 0.0014344971005622394 -0.01409569172918834 0.0 0.0
0.0 0.10713793440644136 -0.09295187074893595 0.09138023030911066 0.0015716404398252413 -0.015346313136030984 0.0 0.0
0.0 0.11880111148704571 -0.10298520500185274 0.10120673209801193 0.0017784729038407459 -0.01898158249555319 0.0 0.0
0.0 0.12184330480724448 -0.10515640217733825 0.1031488249883291 0.0020075771890091677 -0.027841673031102895 0.0 0.0
0.0 0.10925261502018085 -0.09258893612923778 0.09037349893543295 0.002215437193804809 -0.042687724024697296 0.0 0.0
0.0 0.10925261502017572 -0.09258893612922997 0.09037349893542564 0.002215437193804394 0.04268772402472434 0.0 0.0
0.0 0.1218433048072183 -0.10515640217731301 0.10314882498830434 0.0020075771890086585 0.027841673031137475 0.0 0.0
0.0 0.11880111148700029 -0.10298520500181184 0.10120673209797157 0.001778472903840219 0.018981582495579866 0.0 0.0
0.0 0.10713793440638544 -0.09295187074888682 0.09138023030906248 0.0015716404398243694 0.015346313136037008 0.0 0.0
0.0 0.0924008347451316 -0.080151591329914 0.07871709422935211 0.0014344971005619057 0.014095691729187069 0.0 0.0
0.0 0.07751389953329482 -0.0672322359612972 0.06590079982494257 0.001331436136354672 0.01286972021022069 0.0 0.0
0.0 0.06366100201338937 -0.055183232247343096 0.053945919236595405 0.0012373130107476622 0.011294447983665789 0.0 0.0
0.0 0.051207913393831586 -0.044304944606671406 0.043160407079289094 0.0011445375273823318 0.009682838918101396 0.0 0.0
0.0 0.03993765279314478 -0.034644015611308566 0.03359209032954534 0.0010519252817632275 0.008168592548786876 0.0 0.0
0.0 0.030120117776876856 -0.02614332516452368 0.02518488440796197 0.000958440756561705 0.00666594831905951 0.0 0.0
0.0 0.02153962395009928 -0.018764440868230398 0.017901524553716276 0.0008629163145141222 0.005117742292646531 0.0 0.0
0.0 0.014318983162368674 -0.012534440211405188 0.011773004128477392 0.0007614360829277992 0.003614168826763648 0.0 0.0
0.0 0.008534854080721755 -0.007537155891530719 0.006897297694820887 0.0006398581967098338 0.002298949408864997 0.0 0.0
0.0 0.004290058818114289 -0.0038354358635315725 0.0033649434564666323 0.00047049240706494055 0.0012742783311503907 0.0 0.0
0.0 0.0017187134084018793 -0.0014003955272441047 0.0011665955177966843 0.00023380000944741954 0.0005665775471885733 0.0 0.0
0.0 0.0003276889910986266 -0.00022692193129243024 0.00018200303985244724 4.491889143998312e-05 0.000132704970307968 0.0 0.0
0.0 5.67121908780434e-06 -1.78371118462139e-06 1.4140742614968859e-06 3.696369231245123e-07 1.7263995658159186e-06 0.0 0.0
0.0 0.0 0.0 0.0 0.0 0.0 0.0 0.0
0.0 0.0 0.0 0.0 0.0 0.0 0.0 0.0
0.0 0.0 0.0 0.0 0.0 0.0 0.0 0.0
0.0 0.0 0.0 0.0 0.0 0.0 0.0 0.0
0.0 0.0 0.0 0.0 0.0 0.0 0.0 0.0
0.0 0.0 0.0 0.0 0.0 0.0 0.0 0.0
0.0 1.3604944711093412e-05 -4.571435410858101e-06 3.6636807582970287e-06 9.077546525611014e-07 -2.9481862267539256e-06 0.0 0.0
0.0 0.0006152722489949592 -0.00044181115278644307 0.0003571013278156545 8.470982497078864e-05 -0.00014796596879988418 0.0 0.0
0.0 0.002242076475759632 -0.0020490938485383447 0.0017318276972272519 0.0003172661513110917 -0.00047166850588654355 0.0 0.0
0.0 0.005441123237510181 -0.004889539448334868 0.004356877374766693 0.0005326620735681759 -0.0009477909692616417 0.0 0.0
0.0 0.01023557707444682 -0.00908219489871854 0.008399706414034876 0.0006824884846836671 -0.0016360150896877312 0.0 0.0
0.0 0.016716135628518362 -0.014700747688424491 0.013905033022668361 0.0007957146657561278 -0.0025378383203895805 0.0 0.0
0.0 0.024823218574409577 -0.02171739320867213 0.020818513410119806 0.0008988797985523204 -0.003586484210683245 0.0 0.0
0.0 0.03448961660873808 -0.03006812957010531 0.029067548487776575 0.001000581082328741 -0.004666241970851445 0.0 0.0
0.0 0.04573253479709101 -0.03973031469163148 0.038628439456475275 0.001101875235156183 -0.005715539804058473 0.0 0.0
0.0 0.05829465443257935 -0.05073615416669097 0.04953242086337381 0.0012037333033171548 -0.006807087224762874 0.0 0.0
0.0 0.07246715364539397 -0.06307949621463152 0.061771810013611116 0.0013076862010203828 -0.00796030045921726 0.0 0.0
0.0 0.08805126772757732 -0.0765960366049335 0.07518065505608039 0.0014153815488531112 -0.009022192698397213 0.0 0.0
0.0 0.10441859349612335 -0.09081634510810108 0.08928890807456505 0.0015274370335360261 -0.009605810026551165 0.0 0.0
0.0 0.1204423283704119 -0.10476193925067007 0.10310933741129943 0.0016526018393707232 -0.00943282804156436 0.0 0.0
0.0 0.1337864426287514 -0.11633653984042583 0.114504991281802 0.0018315485586238138 -0.010660106876912366 0.0 0.0
0.0 0.13913647648302807 -0.12059788051218438 0.11844762813033612 0.0021502523818481825 -0.020799090022321623 0.0 0.0
0.0 0.12755535187736272 -0.10854056580094712 0.10613330082453458 0.0024072649764125403 -0.04491150397310544 0.0 0.0
0.0 0.12755535187735328 -0.10854056580093714 0.10613330082452424 0.002407264976412881 0.044911503973124656 0.0 0.0
0.0 0.13913647648299848 -0.12059788051215757 0.11844762813030933 0.0021502523818482076 0.02079909002234839 0.0 0.0
0.0 0.13378644262870265 -0.11633653984038315 0.11450499128175938 0.001831548558623746 0.010660106876932127 0.0 0.0
0.0 0.1204423283703474 -0.10476193925061413 0.10310933741124359 0.0016526018393705302 0.009432828041566494 0.0 0.0
0.0 0.10441859349605147 -0.09081634510803864 0.08928890807450325 0.0015274370335353411 0.009605810026548929 0.0 0.0
0.0 0.08805126772750009 -0.07659603660486654 0.07518065505601364 0.001415381548852884 0.00902219269839661 0.0 0.0
0.0 0.072467153645317 -0.06307949621456477 0.06177181001354497 0.0013076862010197852 0.007960300459212257 0.0 0.0
0.0 0.05829465443250396 -0.05073615416662553 0.049532420863308946 0.001203733303316597 0.006807087224756387 0.0 0.0
0.0 0.04573253479702081 -0.039730314691570116 0.03862843945641464 0.0011018752351554546 0.00571553980405387 0.0 0.0
0.0 0.03448961660867201 -0.030068129570047765 0.029067548487719787 0.0010005810823279623 0.004666241970841472 0.0 0.0
0.0 0.024823218574354065 -0.021717393208623564 0.020818513410072015 0.0008988797985515611 0.003586484210672935 0.0 0.0
0.0 0.016716135628476337 -0.014700747688387025 0.013905033022631703 0.0007957146657553241 0.0025378383203840645 0.0 0.0
0.0 0.010235577074414227 -0.009082194898689427 0.0083997064140066 0.000682488484682821 0.0016360150896824275 0.0 0.0
0.0 0.005441123237488282 -0.004889539448314937 0.004356877374747764 0.0005326620735671715 0.0009477909692575833 0.0 0.0
0.0 0.002242076475748489 -0.002049093848528107 0.0017318276972181413 0.0003172661513099661 0.00047166850588422753 0.0 0.0
0.0 0.0006152722489899719 -0.0004418111527829135 0.00035710132781271184 8.470982497020138e-05 0.00014796596879875767 0.0 0.0
0.0 1.3604944710420857e-05 -4.571435411127584e-06 3.663680758507731e-06 9.077546526198064e-07 2.948186226918388e-06 0.0 0.0
0.0 0.0 0.0 0.0 0.0 0.0 0.0 0.0
0.0 0.0 0.0 0.0 0.0 0.0 0.0 0.0
0.0 0.0 0.0 0.0 0.0 0.0 0.0 0.0
0.0 0.0 0.0 0.0 0.0 0.0 0.0 0.0
0.0 0.0 0.0 0.0 0.0 0.0 0.0 0.0
0.0 0.0 0.0 0.0 0.0 0.0 0.0 0.0
0.0 4.896094921992058e-05 -3.165552293908435e-05 2.4985206641205868e-05 6.670316297878633e-06 -8.611760317123257e-06 0.0 0.0
0.0 0.0010382600094815068 -0.0007546916139439917 0.0006152238955606595 0.00013946771838333196 -9.966641215317952e-05 0.0 0.0
0.0 0.0030009884595136307 -0.002743000777056517 0.002352384600372813 0.00039061617668370406 -0.00022646717549603207 0.0 0.0
0.0 0.006634255226026122 -0.005968708565282101 0.005386951775233163 0.0005817567900489356 -0.00041990438869631247 0.0 0.0
0.0 0.011973998655514403 -0.010624554814412912 0.009909088730524686 0.0007154660838882211 -0.0006965734801781813 0.0 0.0
0.0 0.019139791609443874 -0.016843572152141828 0.016019490476631905 0.0008240816755099203 -0.001083119229099197 0.0 0.0
0.0 0.028148707762313863 -0.024634357323401603 0.023704383981015296 0.0009299733423863111 -0.00155167205580292 0.0 0.0
0.0 0.03897839245702265 -0.03395915469510546 0.03292118657923975 0.0010379681158656966 -0.0020392852949917507 0.0 0.0
0.0 0.05131982478820803 -0.0447981216697788 0.043650168597367985 0.0011479530724107924 -0.002534898665721472 0.0 0.0
0.0 0.06546710056647713 -0.05713854145271065 0.05587937462906813 0.0012591668236425027 -0.0030458601508822564 0.0 0.0
0.0 0.08135079042174805 -0.07092377905979778 0.06954975276072951 0.001374026299068245 -0.0035543884509526926 0.0 0.0
0.0 0.09858978129428068 -0.0858843553037843 0.084389125100741 0.0014952302030433301 -0.003978062868283664 0.0 0.0
0.0 0.11641924484950912 -0.10133800903038107 0.09971619380483676 0.0016218152255442796 -0.004063705778418367 0.0 0.0
0.0 0.13343723900651638 -0.11609822909095867 0.11435034119162403 0.001747887899334588 -0.003405188661139852 0.0 0.0
0.0 0.14761850332564427 -0.1284358433585876 0.12655807352823692 0.0018777698303506583 -0.00217480595619489 0.0 0.0
0.0 0.15567939769570877 -0.13531679921102463 0.1332311928425275 0.002085606368497109 -0.00729089219873537 0.0 0.0
0.0 0.14879966255916421 -0.12750345906042077 0.12473078013820599 0.0027726789222147466 -0.04149919693112197 0.0 0.0
0.0 0.1487996625591514 -0.12750345906040905 0.12473078013819419 0.0027726789222148086 0.04149919693112904 0.0 0.0
0.0 0.15567939769567166 -0.13531679921099216 0.13323119284249535 0.0020856063684967165 0.007290892198749087 0.0 0.0
0.0 0.14761850332558824 -0.12843584335853825 0.12655807352818949 0.0018777698303487286 0.002174805956203947 0.0 0.0
0.0 0.13343723900644222 -0.11609822909089403 0.11435034119156039 0.001747887899333601 0.0034051886611394812 0.0 0.0
0.0 0.11641924484942699 -0.10133800903030991 0.09971619380476582 0.001621815225544069 0.0040637057784177685 0.0 0.0
0.0 0.09858978129419797 -0.08588435530371238 0.08438912510066982 0.001495230203042541 0.003978062868283854 0.0 0.0
0.0 0.0813507904216624 -0.07092377905972365 0.06954975276065568 0.0013740262990679273 0.003554388450950685 0.0 0.0
0.0 0.0654671005663926 -0.05713854145263733 0.05587937462899525 0.0012591668236420505 0.003045860150880525 0.0 0.0
0.0 0.0513198247881275 -0.04479812166970868 0.04365016859729878 0.0011479530724098801 0.0025348986657196745 0.0 0.0
0.0 0.038978392456950825 -0.03395915469504275 0.03292118657917793 0.0010379681158648262 0.0020392852949860617 0.0 0.0
0.0 0.02814870776225318 -0.024634357323348927 0.023704383980963216 0.0009299733423857113 0.0015516720557979676 0.0 0.0
0.0 0.01913979160939562 -0.01684357215209932 0.01601949047658994 0.0008240816755093799 0.0010831192290971198 0.0 0.0
0.0 0.011973998655479084 -0.010624554814381296 0.009909088730493629 0.0007154660838876654 0.0006965734801758674 0.0 0.0
0.0 0.00663425522600232 -0.005968708565260565 0.005386951775212385 0.00058175679004818 0.00041990438869479176 0.0 0.0
0.0 0.0030009884595005474 -0.0027430007770441575 0.002352384600361506 0.0003906161766826507 0.0002264671754949386 0.0 0.0
0.0 0.0010382600094748402 -0.0007546916139389347 0.0006152238955563983 0.00013946771838253694 9.966641215262902e-05 0.0 0.0
0.0 4.896094921918285e-05 -3.1655522939114735e-05 2.498520664121363e-05 6.6703162979010885e-06 8.61176031707043e-06 0.0 0.0
0.0 0.0 0.0 0.0 0.0 0.0 0.0 0.0
0.0 0.0 0.0 0.0 0.0 0.0 0.0 0.0
0.0 0.0 0.0 0.0 0.0 0.0 0.0 0.0