# vtk DataFile Version 3.0
Some data
ASCII
DATASET UNSTRUCTURED_GRID
POINTS 861 float
0.0 0.0 0.0
0.4 0.0 0.0
0.8 0.0 0.0
1.2000000000000002 0.0 0.0
1.6 0.0 0.0
2.0 0.0 0.0
2.4000000000000004 0.0 0.0
2.8000000000000003 0.0 0.0
3.2 0.0 0.0
3.6 0.0 0.0
4.0 0.0 0.0
4.4 0.0 0.0
4.800000000000001 0.0 0.0
5.2 0.0 0.0
5.6000000000000005 0.0 0.0
6.0 0.0 0.0
6.4 0.0 0.0
6.800000000000001 0.0 0.0
7.2 0.0 0.0
7.6000000000000005 0.0 0.0
8.0 0.0 0.0
8.4 0.0 0.0
8.8 0.0 0.0
9.200000000000001 0.0 0.0
9.600000000000001 0.0 0.0
10.0 0.0 0.0
10.4 0.0 0.0
10.8 0.0 0.0
11.200000000000001 0.0 0.0
11.600000000000001 0.0 0.0
12.0 0.0 0.0
12.4 0.0 0.0
12.8 0.0 0.0
13.200000000000001 0.0 0.0
13.600000000000001 0.0 0.0
14.0 0.0 0.0
14.4 0.0 0.0
14.8 0.0 0.0
15.200000000000001 0.0 0.0
15.600000000000001 0.0 0.0
16.0 0.0 0.0
0.0 0.1 0.0
0.4 0.1 0.0
0.8 0.1 0.0
1.2000000000000002 0.1 0.0
1.6 0.1 0.0
2.0 0.1 0.0
2.4000000000000004 0.1 0.0
2.8000000000000003 0.1 0.0
3.2 0.1 0.0
3.6 0.1 0.0
4.0 0.1 0.0
4.4 0.1 0.0
4.800000000000001 0.1 0.0
5.2 0.1 0.0
5.6000000000000005 0.1 0.0
6.0 0.1 0.0
6.4 0.1 0.0
6.800000000000001 0.1 0.0
7.2 0.1 0.0
7.6000000000000005 0.1 0.0
8.0 0.1 0.0
8.4 0.1 0.0
8.8 0.1 0.0
9.200000000000001 0.1 0.0
9.600000000000001 0.1 0.0
10.0 0.1 0.0
10.4 0.1 0.0
10.8 0.1 0.0
11.200000000000001 0.1 0.0
11.600000000000001 0.1 0.0
12.0 0.1 0.0
12.4 0.1 0.0
12.8 0.1 0.0
13.200000000000001 0.1 0.0
13.600000000000001 0.1 0.0
14.0 0.1 0.0
14.4 0.1 0.0
14.8 0.1 0.0
15.200000000000001 0.1 0.0
15.600000000000001 0.1 0.0
16.0 0.1 0.0
0.0 0.2 0.0
0.4 0.2 0.0
0.8 0.2 0.0
1.2000000000000002 0.2 0.0
1.6 0.2 0.0
2.0 0.2 0.0
2.4000000000000004 0.2 0.0
2.8000000000000003 0.2 0.0
3.2 0.2 0.0
3.6 0.2 0.0
4.0 0.2 0.0
4.4 0.2 0.0
4.800000000000001 0.2 0.0
5.2 0.2 0.0
5.6000000000000005 0.2 0.0
6.0 0.2 0.0
6.4 0.2 0.0
6.800000000000001 0.2 0.0
7.2 0.2 0.0
7.6000000000000005 0.2 0.0
8.0 0.2 0.0
8.4 0.2 0.0
8.8 0.2 0.0
9.200000000000001 0.2 0.0
9.600000000000001 0.2 0.0
10.0 0.2 0.0
10.4 0.2 0.0
10.8 0.2 0.0
11.200000000000001 0.2 0.0
11.600000000000001 0.2 0.0
12.0 0.2 0.0
12.4 0.2 0.0
12.8 0.2 0.0
13.200000000000001 0.2 0.0
13.600000000000001 0.2 0.0
14.0 0.2 0.0
14.4 0.2 0.0
14.8 0.2 0.0
15.200000000000001 0.2 0.0
15.600000000000001 0.2 0.0
16.0 0.2 0.0
0.0 0.30000000000000004 0.0
0.4 0.30000000000000004 0.0
0.8 0.30000000000000004 0.0
1.2000000000000002 0.30000000000000004 0.0
1.6 0.30000000000000004 0.0
2.0 0.30000000000000004 0.0
2.4000000000000004 0.30000000000000004 0.0
2.8000000000000003 0.30000000000000004 0.0
3.2 0.30000000000000004 0.0
3.6 0.30000000000000004 0.0
4.0 0.30000000000000004 0.0
4.4 0.30000000000000004 0.0
4.800000000000001 0.30000000000000004 0.0
5.2 0.30000000000000004 0.0
5.6000000000000005 0.30000000000000004 0.0
6.0 0.30000000000000004 0.0
6.4 0.30000000000000004 0.0
6.800000000000001 0.30000000000000004 0.0
7.2 0.30000000000000004 0.0
7.6000000000000005 0.30000000000000004 0.0
8.0 0.30000000000000004 0.0
8.4 0.30000000000000004 0.0
8.8 0.30000000000000004 0.0
9.200000000000001 0.30000000000000004 0.0
9.600000000000001 0.30000000000000004 0.0
10.0 0.30000000000000004 0.0
10.4 0.30000000000000004 0.0
10.8 0.30000000000000004 0.0
11.200000000000001 0.30000000000000004 0.0
11.600000000000001 0.30000000000000004 0.0
12.0 0.30000000000000004 0.0
12.4 0.30000000000000004 0.0
12.8 0.30000000000000004 0.0
13.200000000000001 0.30000000000000004 0.0
13.600000000000001 0.30000000000000004 0.0
14.0 0.30000000000000004 0.0
14.4 0.30000000000000004 0.0
14.8 0.30000000000000004 0.0
15.200000000000001 0.30000000000000004 0.0
15.600000000000001 0.30000000000000004 0.0
16.0 0.30000000000000004 0.0
0.0 0.4 0.0
0.4 0.4 0.0
0.8 0.4 0.0
1.2000000000000002 0.4 0.0
1.6 0.4 0.0
2.0 0.4 0.0
2.4000000000000004 0.4 0.0
2.8000000000000003 0.4 0.0
3.2 0.4 0.0
3.6 0.4 0.0
4.0 0.4 0.0
4.4 0.4 0.0
4.800000000000001 0.4 0.0
5.2 0.4 0.0
5.6000000000000005 0.4 0.0
6.0 0.4 0.0
6.4 0.4 0.0
6.800000000000001 0.4 0.0
7.2 0.4 0.0
7.6000000000000005 0.4 0.0
8.0 0.4 0.0
8.4 0.4 0.0
8.8 0.4 0.0
9.200000000000001 0.4 0.0
9.600000000000001 0.4 0.0
10.0 0.4 0.0
10.4 0.4 0.0
10.8 0.4 0.0
11.200000000000001 0.4 0.0
11.600000000000001 0.4 0.0
12.0 0.4 0.0
12.4 0.4 0.0
12.8 0.4 0.0
13.200000000000001 0.4 0.0
13.600000000000001 0.4 0.0
14.0 0.4 0.0
14.4 0.4 0.0
14.8 0.4 0.0
15.200000000000001 0.4 0.0
15.600000000000001 0.4 0.0
16.0 0.4 0.0
0.0 0.5 0.0
0.4 0.5 0.0
0.8 0.5 0.0
1.2000000000000002 0.5 0.0
1.6 0.5 0.0
2.0 0.5 0.0
2.4000000000000004 0.5 0.0
2.8000000000000003 0.5 0.0
3.2 0.5 0.0
3.6 0.5 0.0
4.0 0.5 0.0
4.4 0.5 0.0
4.800000000000001 0.5 0.0
5.2 0.5 0.0
5.6000000000000005 0.5 0.0
6.0 0.5 0.0
6.4 0.5 0.0
6.800000000000001 0.5 0.0
7.2 0.5 0.0
7.6000000000000005 0.5 0.0
8.0 0.5 0.0
8.4 0.5 0.0
8.8 0.5 0.0
9.200000000000001 0.5 0.0
9.600000000000001 0.5 0.0
10.0 0.5 0.0
10.4 0.5 0.0
10.8 0.5 0.0
11.200000000000001 0.5 0.0
11.600000000000001 0.5 0.0
12.0 0.5 0.0
12.4 0.5 0.0
12.8 0.5 0.0
13.200000000000001 0.5 0.0
13.600000000000001 0.5 0.0
14.0 0.5 0.0
14.4 0.5 0.0
14.8 0.5 0.0
15.200000000000001 0.5 0.0
15.600000000000001 0.5 0.0
16.0 0.5 0.0
0.0 0.6000000000000001 0.0
0.4 0.6000000000000001 0.0
0.8 0.6000000000000001 0.0
1.2000000000000002 0.6000000000000001 0.0
1.6 0.6000000000000001 0.0
2.0 0.6000000000000001 0.0
2.4000000000000004 0.6000000000000001 0.0
2.8000000000000003 0.6000000000000001 0.0
3.2 0.6000000000000001 0.0
3.6 0.6000000000000001 0.0
4.0 0.6000000000000001 0.0
4.4 0.6000000000000001 0.0
4.800000000000001 0.6000000000000001 0.0
5.2 0.6000000000000001 0.0
5.6000000000000005 0.6000000000000001 0.0
6.0 0.6000000000000001 0.0
6.4 0.6000000000000001 0.0
6.800000000000001 0.6000000000000001 0.0
7.2 0.6000000000000001 0.0
7.6000000000000005 0.6000000000000001 0.0
8.0 0.6000000000000001 0.0
8.4 0.6000000000000001 0.0
8.8 0.6000000000000001 0.0
9.200000000000001 0.6000000000000001 0.0
9.600000000000001 0.6000000000000001 0.0
10.0 0.6000000000000001 0.0
10.4 0.6000000000000001 0.0
10.8 0.6000000000000001 0.0
11.200000000000001 0.6000000000000001 0.0
11.600000000000001 0.6000000000000001 0.0
12.0 0.6000000000000001 0.0
12.4 0.6000000000000001 0.0
12.8 0.6000000000000001 0.0
13.200000000000001 0.6000000000000001 0.0
13.600000000000001 0.6000000000000001 0.0
14.0 0.6000000000000001 0.0
14.4 0.6000000000000001 0.0
14.8 0.6000000000000001 0.0
15.200000000000001 0.6000000000000001 0.0
15.600000000000001 0.6000000000000001 0.0
16.0 0.6000000000000001 0.0
0.0 0.7000000000000001 0.0
0.4 0.7000000000000001 0.0
0.8 0.7000000000000001 0.0
1.2000000000000002 0.7000000000000001 0.0
1.6 0.7000000000000001 0.0
2.0 0.7000000000000001 0.0
2.4000000000000004 0.7000000000000001 0.0
2.8000000000000003 0.7000000000000001 0.0
3.2 0.7000000000000001 0.0
3.6 0.7000000000000001 0.0
4.0 0.7000000000000001 0.0
4.4 0.7000000000000001 0.0
4.800000000000001 0.7000000000000001 0.0
5.2 0.7000000000000001 0.0
5.6000000000000005 0.7000000000000001 0.0
6.0 0.7000000000000001 0.0
6.4 0.7000000000000001 0.0
6.800000000000001 0.7000000000000001 0.0
7.2 0.7000000000000001 0.0
7.6000000000000005 0.7000000000000001 0.0
8.0 0.7000000000000001 0.0
8.4 0.7000000000000001 0.0
8.8 0.7000000000000001 0.0
9.200000000000001 0.7000000000000001 0.0
9.600000000000001 0.7000000000000001 0.0
10.0 0.7000000000000001 0.0
10.4 0.7000000000000001 0.0
10.8 0.7000000000000001 0.0
11.200000000000001 0.7000000000000001 0.0
11.600000000000001 0.7000000000000001 0.0
12.0 0.7000000000000001 0.0
12.4 0.7000000000000001 0.0
12.8 0.7000000000000001 0.0
13.200000000000001 0.7000000000000001 0.0
13.600000000000001 0.7000000000000001 0.0
14.0 0.7000000000000001 0.0
14.4 0.7000000000000001 0.0
14.8 0.7000000000000001 0.0
15.200000000000001 0.7000000000000001 0.0
15.600000000000001 0.7000000000000001 0.0
16.0 0.7000000000000001 0.0
0.0 0.8 0.0
0.4 0.8 0.0
0.8 0.8 0.0
1.2000000000000002 0.8 0.0
1.6 0.8 0.0
2.0 0.8 0.0
2.4000000000000004 0.8 0.0
2.8000000000000003 0.8 0.0
3.2 0.8 0.0
3.6 0.8 0.0
4.0 0.8 0.0
4.4 0.8 0.0
4.800000000000001 0.8 0.0
5.2 0.8 0.0
5.6000000000000005 0.8 0.0
6.0 0.8 0.0
6.4 0.8 0.0
6.800000000000001 0.8 0.0
7.2 0.8 0.0
7.6000000000000005 0.8 0.0
8.0 0.8 0.0
8.4 0.8 0.0
8.8 0.8 0.0
9.200000000000001 0.8 0.0
9.600000000000001 0.8 0.0
10.0 0.8 0.0
10.4 0.8 0.0
10.8 0.8 0.0
11.200000000000001 0.8 0.0
11.600000000000001 0.8 0.0
12.0 0.8 0.0
12.4 0.8 0.0
12.8 0.8 0.0
13.200000000000001 0.8 0.0
13.600000000000001 0.8 0.0
14.0 0.8 0.0
14.4 0.8 0.0
14.8 0.8 0.0
15.200000000000001 0.8 0.0
15.600000000000001 0.8 0.0
16.0 0.8 0.0
0.0 0.9 0.0
0.4 0.9 0.0
0.8 0.9 0.0
1.2000000000000002 0.9 0.0
1.6 0.9 0.0
2.0 0.9 0.0
2.4000000000000004 0.9 0.0
2.8000000000000003 0.9 0.0
3.2 0.9 0.0
3.6 0.9 0.0
4.0 0.9 0.0
4.4 0.9 0.0
4.800000000000001 0.9 0.0
5.2 0.9 0.0
5.6000000000000005 0.9 0.0
6.0 0.9 0.0
6.4 0.9 0.0
6.800000000000001 0.9 0.0
7.2 0.9 0.0
7.6000000000000005 0.9 0.0
8.0 0.9 0.0
8.4 0.9 0.0
8.8 0.9 0.0
9.200000000000001 0.9 0.0
9.600000000000001 0.9 0.0
10.0 0.9 0.0
10.4 0.9 0.0
10.8 0.9 0.0
11.200000000000001 0.9 0.0
11.600000000000001 0.9 0.0
12.0 0.9 0.0
12.4 0.9 0.0
12.8 0.9 0.0
13.200000000000001 0.9 0.0
13.600000000000001 0.9 0.0
14.0 0.9 0.0
14.4 0.9 0.0
14.8 0.9 0.0
15.200000000000001 0.9 0.0
15.600000000000001 0.9 0.0
16.0 0.9 0.0
0.0 1.0 0.0
0.4 1.0 0.0
0.8 1.0 0.0
1.2000000000000002 1.0 0.0
1.6 1.0 0.0
2.0 1.0 0.0
2.4000000000000004 1.0 0.0
2.8000000000000003 1.0 0.0
3.2 1.0 0.0
3.6 1.0 0.0
4.0 1.0 0.0
4.4 1.0 0.0
4.800000000000001 1.0 0.0
5.2 1.0 0.0
5.6000000000000005 1.0 0.0
6.0 1.0 0.0
6.4 1.0 0.0
6.800000000000001 1.0 0.0
7.2 1.0 0.0
7.6000000000000005 1.0 0.0
8.0 1.0 0.0
8.4 1.0 0.0
8.8 1.0 0.0
9.200000000000001 1.0 0.0
9.600000000000001 1.0 0.0
10.0 1.0 0.0
10.4 1.0 0.0
10.8 1.0 0.0
11.200000000000001 1.0 0.0
11.600000000000001 1.0 0.0
12.0 1.0 0.0
12.4 1.0 0.0
12.8 1.0 0.0
13.200000000000001 1.0 0.0
13.600000000000001 1.0 0.0
14.0 1.0 0.0
14.4 1.0 0.0
14.8 1.0 0.0
15.200000000000001 1.0 0.0
15.600000000000001 1.0 0.0
16.0 1.0 0.0
0.0 1.1 0.0
0.4 1.1 0.0
0.8 1.1 0.0
1.2000000000000002 1.1 0.0
1.6 1.1 0.0
2.0 1.1 0.0
2.4000000000000004 1.1 0.0
2.8000000000000003 1.1 0.0
3.2 1.1 0.0
3.6 1.1 0.0
4.0 1.1 0.0
4.4 1.1 0.0
4.800000000000001 1.1 0.0
5.2 1.1 0.0
5.6000000000000005 1.1 0.0
6.0 1.1 0.0
6.4 1.1 0.0
6.800000000000001 1.1 0.0
7.2 1.1 0.0
7.6000000000000005 1.1 0.0
8.0 1.1 0.0
8.4 1.1 0.0
8.8 1.1 0.0
9.200000000000001 1.1 0.0
9.600000000000001 1.1 0.0
10.0 1.1 0.0
10.4 1.1 0.0
10.8 1.1 0.0
11.200000000000001 1.1 0.0
11.600000000000001 1.1 0.0
12.0 1.1 0.0
12.4 1.1 0.0
12.8 1.1 0.0
13.200000000000001 1.1 0.0
13.600000000000001 1.1 0.0
14.0 1.1 0.0
14.4 1.1 0.0
14.8 1.1 0.0
15.200000000000001 1.1 0.0
15.600000000000001 1.1 0.0
16.0 1.1 0.0
0.0 1.2000000000000002 0.0
0.4 1.2000000000000002 0.0
0.8 1.2000000000000002 0.0
1.2000000000000002 1.2000000000000002 0.0
1.6 1.2000000000000002 0.0
2.0 1.2000000000000002 0.0
2.4000000000000004 1.2000000000000002 0.0
2.8000000000000003 1.2000000000000002 0.0
3.2 1.2000000000000002 0.0
3.6 1.2000000000000002 0.0
4.0 1.2000000000000002 0.0
4.4 1.2000000000000002 0.0
4.800000000000001 1.2000000000000002 0.0
5.2 1.2000000000000002 0.0
5.6000000000000005 1.2000000000000002 0.0
6.0 1.2000000000000002 0.0
6.4 1.2000000000000002 0.0
6.800000000000001 1.2000000000000002 0.0
7.2 1.2000000000000002 0.0
7.6000000000000005 1.2000000000000002 0.0
8.0 1.2000000000000002 0.0
8.4 1.2000000000000002 0.0
8.8 1.2000000000000002 0.0
9.200000000000001 1.2000000000000002 0.0
9.600000000000001 1.2000000000000002 0.0
10.0 1.2000000000000002 0.0
10.4 1.2000000000000002 0.0
10.8 1.2000000000000002 0.0
11.200000000000001 1.2000000000000002 0.0
11.600000000000001 1.2000000000000002 0.0
12.0 1.2000000000000002 0.0
12.4 1.2000000000000002 0.0
12.8 1.2000000000000002 0.0
13.200000000000001 1.2000000000000002 0.0
13.600000000000001 1.2000000000000002 0.0
14.0 1.2000000000000002 0.0
14.4 1.2000000000000002 0.0
14.8 1.2000000000000002 0.0
15.200000000000001 1.2000000000000002 0.0
15.600000000000001 1.2000000000000002 0.0
16.0 1.2000000000000002 0.0
0.0 1.3 0.0
0.4 1.3 0.0
0.8 1.3 0.0
1.2000000000000002 1.3 0.0
1.6 1.3 0.0
2.0 1.3 0.0
2.4000000000000004 1.3 0.0
2.8000000000000003 1.3 0.0
3.2 1.3 0.0
3.6 1.3 0.0
4.0 1.3 0.0
4.4 1.3 0.0
4.800000000000001 1.3 0.0
5.2 1.3 0.0
5.6000000000000005 1.3 0.0
6.0 1.3 0.0
6.4 1.3 0.0
6.800000000000001 1.3 0.0
7.2 1.3 0.0
7.6000000000000005 1.3 0.0
8.0 1.3 0.0
8.4 1.3 0.0
8.8 1.3 0.0
9.200000000000001 1.3 0.0
9.600000000000001 1.3 0.0
10.0 1.3 0.0
10.4 1.3 0.0
10.8 1.3 0.0
11.200000000000001 1.3 0.0
11.600000000000001 1.3 0.0
12.0 1.3 0.0
12.4 1.3 0.0
12.8 1.3 0.0
13.200000000000001 1.3 0.0
13.600000000000001 1.3 0.0
14.0 1.3 0.0
14.4 1.3 0.0
14.8 1.3 0.0
15.200000000000001 1.3 0.0
15.600000000000001 1.3 0.0
16.0 1.3 0.0
0.0 1.4000000000000001 0.0
0.4 1.4000000000000001 0.0
0.8 1.4000000000000001 0.0
1.2000000000000002 1.4000000000000001 0.0
1.6 1.4000000000000001 0.0
2.0 1.4000000000000001 0.0
2.4000000000000004 1.4000000000000001 0.0
2.8000000000000003 1.4000000000000001 0.0
3.2 1.4000000000000001 0.0
3.6 1.4000000000000001 0.0
4.0 1.4000000000000001 0.0
4.4 1.4000000000000001 0.0
4.800000000000001 1.4000000000000001 0.0
5.2 1.4000000000000001 0.0
5.6000000000000005 1.4000000000000001 0.0
6.0 1.4000000000000001 0.0
6.4 1.4000000000000001 0.0
6.800000000000001 1.4000000000000001 0.0
7.2 1.4000000000000001 0.0
7.6000000000000005 1.4000000000000001 0.0
8.0 1.4000000000000001 0.0
8.4 1.4000000000000001 0.0
8.8 1.4000000000000001 0.0
9.200000000000001 1.4000000000000001 0.0
9.600000000000001 1.4000000000000001 0.0
10.0 1.4000000000000001 0.0
10.4 1.4000000000000001 0.0
10.8 1.4000000000000001 0.0
11.200000000000001 1.4000000000000001 0.0
11.600000000000001 1.4000000000000001 0.0
12.0 1.4000000000000001 0.0
12.4 1.4000000000000001 0.0
12.8 1.4000000000000001 0.0
13.200000000000001 1.4000000000000001 0.0
13.600000000000001 1.4000000000000001 0.0
14.0 1.4000000000000001 0.0
14.4 1.4000000000000001 0.0
14.8 1.4000000000000001 0.0
15.200000000000001 1.4000000000000001 0.0
15.600000000000001 1.4000000000000001 0.0
16.0 1.4000000000000001 0.0
0.0 1.5 0.0
0.4 1.5 0.0
0.8 1.5 0.0
1.2000000000000002 1.5 0.0
1.6 1.5 0.0
2.0 1.5 0.0
2.4000000000000004 1.5 0.0
2.8000000000000003 1.5 0.0
3.2 1.5 0.0
3.6 1.5 0.0
4.0 1.5 0.0
4.4 1.5 0.0
4.800000000000001 1.5 0.0
5.2 1.5 0.0
5.6000000000000005 1.5 0.0
6.0 1.5 0.0
6.4 1.5 0.0
6.800000000000001 1.5 0.0
7.2 1.5 0.0
7.6000000000000005 1.5 0.0
8.0 1.5 0.0
8.4 1.5 0.0
8.8 1.5 0.0
9.200000000000001 1.5 0.0
9.600000000000001 1.5 0.0
10.0 1.5 0.0
10.4 1.5 0.0
10.8 1.5 0.0
11.200000000000001 1.5 0.0
11.600000000000001 1.5 0.0
12.0 1.5 0.0
12.4 1.5 0.0
12.8 1.5 0.0
13.200000000000001 1.5 0.0
13.600000000000001 1.5 0.0
14.0 1.5 0.0
14.4 1.5 0.0
14.8 1.5 0.0
15.200000000000001 1.5 0.0
15.600000000000001 1.5 0.0
16.0 1.5 0.0
0.0 1.6 0.0
0.4 1.6 0.0
0.8 1.6 0.0
1.2000000000000002 1.6 0.0
1.6 1.6 0.0
2.0 1.6 0.0
2.4000000000000004 1.6 0.0
2.8000000000000003 1.6 0.0
3.2 1.6 0.0
3.6 1.6 0.0
4.0 1.6 0.0
4.4 1.6 0.0
4.800000000000001 1.6 0.0
5.2 1.6 0.0
5.6000000000000005 1.6 0.0
6.0 1.6 0.0
6.4 1.6 0.0
6.800000000000001 1.6 0.0
7.2 1.6 0.0
7.6000000000000005 1.6 0.0
8.0 1.6 0.0
8.4 1.6 0.0
8.8 1.6 0.0
9.200000000000001 1.6 0.0
9.600000000000001 1.6 0.0
10.0 1.6 0.0
10.4 1.6 0.0
10.8 1.6 0.0
11.200000000000001 1.6 0.0
11.600000000000001 1.6 0.0
12.0 1.6 0.0
12.4 1.6 0.0
12.8 1.6 0.0
13.200000000000001 1.6 0.0
13.600000000000001 1.6 0.0
14.0 1.6 0.0
14.4 1.6 0.0
14.8 1.6 0.0
15.200000000000001 1.6 0.0
15.600000000000001 1.6 0.0
16.0 1.6 0.0
0.0 1.7000000000000002 0.0
0.4 1.7000000000000002 0.0
0.8 1.7000000000000002 0.0
1.2000000000000002 1.7000000000000002 0.0
1.6 1.7000000000000002 0.0
2.0 1.7000000000000002 0.0
2.4000000000000004 1.7000000000000002 0.0
2.8000000000000003 1.7000000000000002 0.0
3.2 1.7000000000000002 0.0
3.6 1.7000000000000002 0.0
4.0 1.7000000000000002 0.0
4.4 1.7000000000000002 0.0
4.800000000000001 1.7000000000000002 0.0
5.2 1.7000000000000002 0.0
5.6000000000000005 1.7000000000000002 0.0
6.0 1.7000000000000002 0.0
6.4 1.7000000000000002 0.0
6.800000000000001 1.7000000000000002 0.0
7.2 1.7000000000000002 0.0
7.6000000000000005 1.7000000000000002 0.0
8.0 1.7000000000000002 0.0
8.4 1.7000000000000002 0.0
8.8 1.7000000000000002 0.0
9.200000000000001 1.7000000000000002 0.0
9.600000000000001 1.7000000000000002 0.0
10.0 1.7000000000000002 0.0
10.4 1.7000000000000002 0.0
10.8 1.7000000000000002 0.0
11.200000000000001 1.7000000000000002 0.0
11.600000000000001 1.7000000000000002 0.0
12.0 1.7000000000000002 0.0
12.4 1.7000000000000002 0.0
12.8 1.7000000000000002 0.0
13.200000000000001 1.7000000000000002 0.0
13.600000000000001 1.7000000000000002 0.0
14.0 1.7000000000000002 0.0
14.4 1.7000000000000002 0.0
14.8 1.7000000000000002 0.0
15.200000000000001 1.7000000000000002 0.0
15.600000000000001 1.7000000000000002 0.0
16.0 1.7000000000000002 0.0
0.0 1.8 0.0
0.4 1.8 0.0
0.8 1.8 0.0
1.2000000000000002 1.8 0.0
1.6 1.8 0.0
2.0 1.8 0.0
2.4000000000000004 1.8 0.0
2.8000000000000003 1.8 0.0
3.2 1.8 0.0
3.6 1.8 0.0
4.0 1.8 0.0
4.4 1.8 0.0
4.800000000000001 1.8 0.0
5.2 1.8 0.0
5.6000000000000005 1.8 0.0
6.0 1.8 0.0
6.4 1.8 0.0
6.800000000000001 1.8 0.0
7.2 1.8 0.0
7.6000000000000005 1.8 0.0
8.0 1.8 0.0
8.4 1.8 0.0
8.8 1.8 0.0
9.200000000000001 1.8 0.0
9.600000000000001 1.8 0.0
10.0 1.8 0.0
10.4 1.8 0.0
10.8 1.8 0.0
11.200000000000001 1.8 0.0
11.600000000000001 1.8 0.0
12.0 1.8 0.0
12.4 1.8 0.0
12.8 1.8 0.0
13.200000000000001 1.8 0.0
13.600000000000001 1.8 0.0
14.0 1.8 0.0
14.4 1.8 0.0
14.8 1.8 0.0
15.200000000000001 1.8 0.0
15.600000000000001 1.8 0.0
16.0 1.8 0.0
0.0 1.9000000000000001 0.0
0.4 1.9000000000000001 0.0
0.8 1.9000000000000001 0.0
1.2000000000000002 1.9000000000000001 0.0
1.6 1.9000000000000001 0.0
2.0 1.9000000000000001 0.0
2.4000000000000004 1.9000000000000001 0.0
2.8000000000000003 1.9000000000000001 0.0
3.2 1.9000000000000001 0.0
3.6 1.9000000000000001 0.0
4.0 1.9000000000000001 0.0
4.4 1.9000000000000001 0.0
4.800000000000001 1.9000000000000001 0.0
5.2 1.9000000000000001 0.0
5.6000000000000005 1.9000000000000001 0.0
6.0 1.9000000000000001 0.0
6.4 1.9000000000000001 0.0
6.800000000000001 1.9000000000000001 0.0
7.2 1.9000000000000001 0.0
7.6000000000000005 1.9000000000000001 0.0
8.0 1.9000000000000001 0.0
8.4 1.9000000000000001 0.0
8.8 1.9000000000000001 0.0
9.200000000000001 1.9000000000000001 0.0
9.600000000000001 1.9000000000000001 0.0
10.0 1.9000000000000001 0.0
10.4 1.9000000000000001 0.0
10.8 1.9000000000000001 0.0
11.200000000000001 1.9000000000000001 0.0
11.600000000000001 1.9000000000000001 0.0
12.0 1.9000000000000001 0.0
12.4 1.9000000000000001 0.0
12.8 1.9000000000000001 0.0
13.200000000000001 1.9000000000000001 0.0
13.600000000000001 1.9000000000000001 0.0
14.0 1.9000000000000001 0.0
14.4 1.9000000000000001 0.0
14.8 1.9000000000000001 0.0
15.200000000000001 1.9000000000000001 0.0
15.600000000000001 1.9000000000000001 0.0
16.0 1.9000000000000001 0.0
0.0 2.0 0.0
0.4 2.0 0.0
0.8 2.0 0.0
1.2000000000000002 2.0 0.0
1.6 2.0 0.0
2.0 2.0 0.0
2.4000000000000004 2.0 0.0
2.8000000000000003 2.0 0.0
3.2 2.0 0.0
3.6 2.0 0.0
4.0 2.0 0.0
4.4 2.0 0.0
4.800000000000001 2.0 0.0
5.2 2.0 0.0
5.6000000000000005 2.0 0.0
6.0 2.0 0.0
6.4 2.0 0.0
6.800000000000001 2.0 0.0
7.2 2.0 0.0
7.6000000000000005 2.0 0.0
8.0 2.0 0.0
8.4 2.0 0.0
8.8 2.0 0.0
9.200000000000001 2.0 0.0
9.600000000000001 2.0 0.0
10.0 2.0 0.0
10.4 2.0 0.0
10.8 2.0 0.0
11.200000000000001 2.0 0.0
11.600000000000001 2.0 0.0
12.0 2.0 0.0
12.4 2.0 0.0
12.8 2.0 0.0
13.200000000000001 2.0 0.0
13.600000000000001 2.0 0.0
14.0 2.0 0.0
14.4 2.0 0.0
14.8 2.0 0.0
15.200000000000001 2.0 0.0
15.600000000000001 2.0 0.0
16.0 2.0 0.0
CELLS 800 4000
4 0 1 42 41
4 1 2 43 42
4 2 3 44 43
4 3 4 45 44
4 4 5 46 45
4 5 6 47 46
4 6 7 48 47
4 7 8 49 48
4 8 9 50 49
4 9 10 51 50
4 10 11 52 51
4 11 12 53 52
4 12 13 54 53
4 13 14 55 54
4 14 15 56 55
4 15 16 57 56
4 16 17 58 57
4 17 18 59 58
4 18 19 60 59
4 19 20 61 60
4 20 21 62 61
4 21 22 63 62
4 22 23 64 63
4 23 24 65 64
4 24 25 66 65
4 25 26 67 66
4 26 27 68 67
4 27 28 69 68
4 28 29 70 69
4 29 30 71 70
4 30 31 72 71
4 31 32 73 72
4 32 33 74 73
4 33 34 75 74
4 34 35 76 75
4 35 36 77 76
4 36 37 78 77
4 37 38 79 78
4 38 39 80 79
4 39 40 81 80
4 41 42 83 82
4 42 43 84 83
4 43 44 85 84
4 44 45 86 85
4 45 46 87 86
4 46 47 88 87
4 47 48 89 88
4 48 49 90 89
4 49 50 91 90
4 50 51 92 91
4 51 52 93 92
4 52 53 94 93
4 53 54 95 94
4 54 55 96 95
4 55 56 97 96
4 56 57 98 97
4 57 58 99 98
4 58 59 100 99
4 59 60 101 100
4 60 61 102 101
4 61 62 103 102
4 62 63 104 103
4 63 64 105 104
4 64 65 106 105
4 65 66 107 106
4 66 67 108 107
4 67 68 109 108
4 68 69 110 109
4 69 70 111 110
4 70 71 112 111
4 71 72 113 112
4 72 73 114 113
4 73 74 115 114
4 74 75 116 115
4 75 76 117 116
4 76 77 118 117
4 77 78 119 118
4 78 79 120 119
4 79 80 121 120
4 80 81 122 121
4 82 83 124 123
4 83 84 125 124
4 84 85 126 125
4 85 86 127 126
4 86 87 128 127
4 87 88 129 128
4 88 89 130 129
4 89 90 131 130
4 90 91 132 131
4 91 92 133 132
4 92 93 134 133
4 93 94 135 134
4 94 95 136 135
4 95 96 137 136
4 96 97 138 137
4 97 98 139 138
4 98 99 140 139
4 99 100 141 140
4 100 101 142 141
4 101 102 143 142
4 102 103 144 143
4 103 104 145 144
4 104 105 146 145
4 105 106 147 146
4 106 107 148 147
4 107 108 149 148
4 108 109 150 149
4 109 110 151 150
4 110 111 152 151
4 111 112 153 152
4 112 113 154 153
4 113 114 155 154
4 114 115 156 155
4 115 116 157 156
4 116 117 158 157
4 117 118 159 158
4 118 119 160 159
4 119 120 161 160
4 120 121 162 161
4 121 122 163 162
4 123 124 165 164
4 124 125 166 165
4 125 126 167 166
4 126 127 168 167
4 127 128 169 168
4 128 129 170 169
4 129 130 171 170
4 130 131 172 171
4 131 132 173 172
4 132 133 174 173
4 133 134 175 174
4 134 135 176 175
4 135 136 177 176
4 136 137 178 177
4 137 138 179 178
4 138 139 180 179
4 139 140 181 180
4 140 141 182 181
4 141 142 183 182
4 142 143 184 183
4 143 144 185 184
4 144 145 186 185
4 145 146 187 186
4 146 147 188 187
4 147 148 189 188
4 148 149 190 189
4 149 150 191 190
4 150 151 192 191
4 151 152 193 192
4 152 153 194 193
4 153 154 195 194
4 154 155 196 195
4 155 156 197 196
4 156 157 198 197
4 157 158 199 198
4 158 159 200 199
4 159 160 201 200
4 160 161 202 201
4 161 162 203 202
4 162 163 204 203
4 164 165 206 205
4 165 166 207 206
4 166 167 208 207
4 167 168 209 208
4 168 169 210 209
4 169 170 211 210
4 170 171 212 211
4 171 172 213 212
4 172 173 214 213
4 173 174 215 214
4 174 175 216 215
4 175 176 217 216
4 176 177 218 217
4 177 178 219 218
4 178 179 220 219
4 179 180 221 220
4 180 181 222 221
4 181 182 223 222
4 182 183 224 223
4 183 184 225 224
4 184 185 226 225
4 185 186 227 226
4 186 187 228 227
4 187 188 229 228
4 188 189 230 229
4 189 190 231 230
4 190 191 232 231
4 191 192 233 232
4 192 193 234 233
4 193 194 235 234
4 194 195 236 235
4 195 196 237 236
4 196 197 238 237
4 197 198 239 238
4 198 199 240 239
4 199 200 241 240
4 200 201 242 241
4 201 202 243 242
4 202 203 244 243
4 203 204 245 244
4 205 206 247 246
4 206 207 248 247
4 207 208 249 248
4 208 209 250 249
4 209 210 251 250
4 210 211 252 251
4 211 212 253 252
4 212 213 254 253
4 213 214 255 254
4 214 215 256 255
4 215 216 257 256
4 216 217 258 257
4 217 218 259 258
4 218 219 260 259
4 219 220 261 260
4 220 221 262 261
4 221 222 263 262
4 222 223 264 263
4 223 224 265 264
4 224 225 266 265
4 225 226 267 266
4 226 227 268 267
4 227 228 269 268
4 228 229 270 269
4 229 230 271 270
4 230 231 272 271
4 231 232 273 272
4 232 233 274 273
4 233 234 275 274
4 234 235 276 275
4 235 236 277 276
4 236 237 278 277
4 237 238 279 278
4 238 239 280 279
4 239 240 281 280
4 240 241 282 281
4 241 242 283 282
4 242 243 284 283
4 243 244 285 284
4 244 245 286 285
4 246 247 288 287
4 247 248 289 288
4 248 249 290 289
4 249 250 291 290
4 250 251 292 291
4 251 252 293 292
4 252 253 294 293
4 253 254 295 294
4 254 255 296 295
4 255 256 297 296
4 256 257 298 297
4 257 258 299 298
4 258 259 300 299
4 259 260 301 300
4 260 261 302 301
4 261 262 303 302
4 262 263 304 303
4 263 264 305 304
4 264 265 306 305
4 265 266 307 306
4 266 267 308 307
4 267 268 309 308
4 268 269 310 309
4 269 270 311 310
4 270 271 312 311
4 271 272 313 312
4 272 273 314 313
4 273 274 315 314
4 274 275 316 315
4 275 276 317 316
4 276 277 318 317
4 277 278 319 318
4 278 279 320 319
4 279 280 321 320
4 280 281 322 321
4 281 282 323 322
4 282 283 324 323
4 283 284 325 324
4 284 285 326 325
4 285 286 327 326
4 287 288 329 328
4 288 289 330 329
4 289 290 331 330
4 290 291 332 331
4 291 292 333 332
4 292 293 334 333
4 293 294 335 334
4 294 295 336 335
4 295 296 337 336
4 296 297 338 337
4 297 298 339 338
4 298 299 340 339
4 299 300 341 340
4 300 301 342 341
4 301 302 343 342
4 302 303 344 343
4 303 304 345 344
4 304 305 346 345
4 305 306 347 346
4 306 307 348 347
4 307 308 349 348
4 308 309 350 349
4 309 310 351 350
4 310 311 352 351
4 311 312 353 352
4 312 313 354 353
4 313 314 355 354
4 314 315 356 355
4 315 316 357 356
4 316 317 358 357
4 317 318 359 358
4 318 319 360 359
4 319 320 361 360
4 320 321 362 361
4 321 322 363 362
4 322 323 364 363
4 323 324 365 364
4 324 325 366 365
4 325 326 367 366
4 326 327 368 367
4 328 329 370 369
4 329 330 371 370
4 330 331 372 371
4 331 332 373 372
4 332 333 374 373
4 333 334 375 374
4 334 335 376 375
4 335 336 377 376
4 336 337 378 377
4 337 338 379 378
4 338 339 380 379
4 339 340 381 380
4 340 341 382 381
4 341 342 383 382
4 342 343 384 383
4 343 344 385 384
4 344 345 386 385
4 345 346 387 386
4 346 347 388 387
4 347 348 389 388
4 348 349 390 389
4 349 350 391 390
4 350 351 392 391
4 351 352 393 392
4 352 353 394 393
4 353 354 395 394
4 354 355 396 395
4 355 356 397 396
4 356 357 398 397
4 357 358 399 398
4 358 359 400 399
4 359 360 401 400
4 360 361 402 401
4 361 362 403 402
4 362 363 404 403
4 363 364 405 404
4 364 365 406 405
4 365 366 407 406
4 366 367 408 407
4 367 368 409 408
4 369 370 411 410
4 370 371 412 411
4 371 372 413 412
4 372 373 414 413
4 373 374 415 414
4 374 375 416 415
4 375 376 417 416
4 376 377 418 417
4 377 378 419 418
4 378 379 420 419
4 379 380 421 420
4 380 381 422 421
4 381 382 423 422
4 382 383 424 423
4 383 384 425 424
4 384 385 426 425
4 385 386 427 426
4 386 387 428 427
4 387 388 429 428
4 388 389 430 429
4 389 390 431 430
4 390 391 432 431
4 391 392 433 432
4 392 393 434 433
4 393 394 435 434
4 394 395 436 435
4 395 396 437 436
4 396 397 438 437
4 397 398 439 438
4 398 399 440 439
4 399 400 441 440
4 400 401 442 441
4 401 402 443 442
4 402 403 444 443
4 403 404 445 444
4 404 405 446 445
4 405 406 447 446
4 406 407 448 447
4 407 408 449 448
4 408 409 450 449
4 410 411 452 451
4 411 412 453 452
4 412 413 454 453
4 413 414 455 454
4 414 415 456 455
4 415 416 457 456
4 416 417 458 457
4 417 418 459 458
4 418 419 460 459
4 419 420 461 460
4 420 421 462 461
4 421 422 463 462
4 422 423 464 463
4 423 424 465 464
4 424 425 466 465
4 425 426 467 466
4 426 427 468 467
4 427 428 469 468
4 428 429 470 469
4 429 430 471 470
4 430 431 472 471
4 431 432 473 472
4 432 433 474 473
4 433 434 475 474
4 434 435 476 475
4 435 436 477 476
4 436 437 478 477
4 437 438 479 478
4 438 439 480 479
4 439 440 481 480
4 440 441 482 481
4 441 442 483 482
4 442 443 484 483
4 443 444 485 484
4 444 445 486 485
4 445 446 487 486
4 446 447 488 487
4 447 448 489 488
4 448 449 490 489
4 449 450 491 490
4 451 452 493 492
4 452 453 494 493
4 453 454 495 494
4 454 455 496 495
4 455 456 497 496
4 456 457 498 497
4 457 458 499 498
4 458 459 500 499
4 459 460 501 500
4 460 461 502 501
4 461 462 503 502
4 462 463 504 503
4 463 464 505 504
4 464 465 506 505
4 465 466 507 506
4 466 467 508 507
4 467 468 509 508
4 468 469 510 509
4 469 470 511 510
4 470 471 512 511
4 471 472 513 512
4 472 473 514 513
4 473 474 515 514
4 474 475 516 515
4 475 476 517 516
4 476 477 518 517
4 477 478 519 518
4 478 479 520 519
4 479 480 521 520
4 480 481 522 521
4 481 482 523 522
4 482 483 524 523
4 483 484 525 524
4 484 485 526 525
4 485 486 527 526
4 486 487 528 527
4 487 488 529 528
4 488 489 530 529
4 489 490 531 530
4 490 491 532 531
4 492 493 534 533
4 493 494 535 534
4 494 495 536 535
4 495 496 537 536
4 496 497 538 537
4 497 498 539 538
4 498 499 540 539
4 499 500 541 540
4 500 501 542 541
4 501 502 543 542
4 502 503 544 543
4 503 504 545 544
4 504 505 546 545
4 505 506 547 546
4 506 507 548 547
4 507 508 549 548
4 508 509 550 549
4 509 510 551 550
4 510 511 552 551
4 511 512 553 552
4 512 513 554 553
4 513 514 555 554
4 514 515 556 555
4 515 516 557 556
4 516 517 558 557
4 517 518 559 558
4 518 519 560 559
4 519 520 561 560
4 520 521 562 561
4 521 522 563 562
4 522 523 564 563
4 523 524 565 564
4 524 525 566 565
4 525 526 567 566
4 526 527 568 567
4 527 528 569 568
4 528 529 570 569
4 529 530 571 570
4 530 531 572 571
4 531 532 573 572
4 533 534 575 574
4 534 535 576 575
4 535 536 577 576
4 536 537 578 577
4 537 538 579 578
4 538 539 580 579
4 539 540 581 580
4 540 541 582 581
4 541 542 583 582
4 542 543 584 583
4 543 544 585 584
4 544 545 586 585
4 545 546 587 586
4 546 547 588 587
4 547 548 589 588
4 548 549 590 589
4 549 550 591 590
4 550 551 592 591
4 551 552 593 592
4 552 553 594 593
4 553 554 595 594
4 554 555 596 595
4 555 556 597 596
4 556 557 598 597
4 557 558 599 598
4 558 559 600 599
4 559 560 601 600
4 560 561 602 601
4 561 562 603 602
4 562 563 604 603
4 563 564 605 604
4 564 565 606 605
4 565 566 607 606
4 566 567 608 607
4 567 568 609 608
4 568 569 610 609
4 569 570 611 610
4 570 571 612 611
4 571 572 613 612
4 572 573 614 613
4 574 575 616 615
4 575 576 617 616
4 576 577 618 617
4 577 578 619 618
4 578 579 620 619
4 579 580 621 620
4 580 581 622 621
4 581 582 623 622
4 582 583 624 623
4 583 584 625 624
4 584 585 626 625
4 585 586 627 626
4 586 587 628 627
4 587 588 629 628
4 588 589 630 629
4 589 590 631 630
4 590 591 632 631
4 591 592 633 632
4 592 593 634 633
4 593 594 635 634
4 594 595 636 635
4 595 596 637 636
4 596 597 638 637
4 597 598 639 638
4 598 599 640 639
4 599 600 641 640
4 600 601 642 641
4 601 602 643 642
4 602 603 644 643
4 603 604 645 644
4 604 605 646 645
4 605 606 647 646
4 606 607 648 647
4 607 608 649 648
4 608 609 650 649
4 609 610 651 650
4 610 611 652 651
4 611 612 653 652
4 612 613 654 653
4 613 614 655 654
4 615 616 657 656
4 616 617 658 657
4 617 618 659 658
4 618 619 660 659
4 619 620 661 660
4 620 621 662 661
4 621 622 663 662
4 622 623 664 663
4 623 624 665 664
4 624 625 666 665
4 625 626 667 666
4 626 627 668 667
4 627 628 669 668
4 628 629 670 669
4 629 630 671 670
4 630 631 672 671
4 631 632 673 672
4 632 633 674 673
4 633 634 675 674
4 634 635 676 675
4 635 636 677 676
4 636 637 678 677
4 637 638 679 678
4 638 639 680 679
4 639 640 681 680
4 640 641 682 681
4 641 642 683 682
4 642 643 684 683
4 643 644 685 684
4 644 645 686 685
4 645 646 687 686
4 646 647 688 687
4 647 648 689 688
4 648 649 690 689
4 649 650 691 690
4 650 651 692 691
4 651 652 693 692
4 652 653 694 693
4 653 654 695 694
4 654 655 696 695
4 656 657 698 697
4 657 658 699 698
4 658 659 700 699
4 659 660 701 700
4 660 661 702 701
4 661 662 703 702
4 662 663 704 703
4 663 664 705 704
4 664 665 706 705
4 665 666 707 706
4 666 667 708 707
4 667 668 709 708
4 668 669 710 709
4 669 670 711 710
4 670 671 712 711
4 671 672 713 712
4 672 673 714 713
4 673 674 715 714
4 674 675 716 715
4 675 676 717 716
4 676 677 718 717
4 677 678 719 718
4 678 679 720 719
4 679 680 721 720
4 680 681 722 721
4 681 682 723 722
4 682 683 724 723
4 683 684 725 724
4 684 685 726 725
4 685 686 727 726
4 686 687 728 727
4 687 688 729 728
4 688 689 730 729
4 689 690 731 730
4 690 691 732 731
4 691 692 733 732
4 692 693 734 733
4 693 694 735 734
4 694 695 736 735
4 695 696 737 736
4 697 698 739 738
4 698 699 740 739
4 699 700 741 740
4 700 701 742 741
4 701 702 743 742
4 702 703 744 743
4 703 704 745 744
4 704 705 746 745
4 705 706 747 746
4 706 707 748 747
4 707 708 749 748
4 708 709 750 749
4 709 710 751 750
4 710 711 752 751
4 711 712 753 752
4 712 713 754 753
4 713 714 755 754
4 714 715 756 755
4 715 716 757 756
4 716 717 758 757
4 717 718 759 758
4 718 719 760 759
4 719 720 761 760
4 720 721 762 761
4 721 722 763 762
4 722 723 764 763
4 723 724 765 764
4 724 725 766 765
4 725 726 767 766
4 726 727 768 767
4 727 728 769 768
4 728 729 770 769
4 729 730 771 770
4 730 731 772 771
4 731 732 773 772
4 732 733 774 773
4 733 734 775 774
4 734 735 776 775
4 735 736 777 776
4 736 737 778 777
4 738 739 780 779
4 739 740 781 780
4 740 741 782 781
4 741 742 783 782
4 742 743 784 783
4 743 744 785 784
4 744 745 786 785
4 745 746 787 786
4 746 747 788 787
4 747 748 789 788
4 748 749 790 789
4 749 750 791 790
4 750 751 792 791
4 751 752 793 792
4 752 753 794 793
4 753 754 795 794
4 754 755 796 795
4 755 756 797 796
4 756 757 798 797
4 757 758 799 798
4 758 759 800 799
4 759 760 801 800
4 760 761 802 801
4 761 762 803 802
4 762 763 804 803
4 763 764 805 804
4 764 765 806 805
4 765 766 807 806
4 766 767 808 807
4 767 768 809 808
4 768 769 810 809
4 769 770 811 810
4 770 771 812 811
4 771 772 813 812
4 772 773 814 813
4 773 774 815 814
4 774 775 816 815
4 775 776 817 816
4 776 777 818 817
4 777 778 819 818
4 779 780 821 820
4 780 781 822 821
4 781 782 823 822
4 782 783 824 823
4 783 784 825 824
4 784 785 826 825
4 785 786 827 826
4 786 787 828 827
4 787 788 829 828
4 788 789 830 829
4 789 790 831 830
4 790 791 832 831
4 791 792 833 832
4 792 793 834 833
4 793 794 835 834
4 794 795 836 835
4 795 796 837 836
4 796 797 838 837
4 797 798 839 838
4 798 799 840 839
4 799 800 841 840
4 800 801 842 841
4 801 802 843 842
4 802 803 844 843
4 803 804 845 844
4 804 805 846 845
4 805 806 847 846
4 806 807 848 847
4 807 808 849 848
4 808 809 850 849
4 809 810 851 850
4 810 811 852 851
4 811 812 853 852
4 812 813 854 853
4 813 814 855 854
4 814 815 856 855
4 815 816 857 856
4 816 817 858 857
4 817 818 859 858
4 818 819 860 859
CELL_TYPES 800
9
9
9
9
9
9
9
9
9
9
9
9
9
9
9
9
9
9
9
9
9
9
9
9
9
9
9
9
9
9
9
9
9
9
9
9
9
9
9
9
9
9
9
9
9
9
9
9
9
9
9
9
9
9
9
9
9
9
9
9
9
9
9
9
9
9
9
9
9
9
9
9
9
9
9
9
9
9
9
9
9
9
9
9
9
9
9
9
9
9
9
9
9
9
9
9
9
9
9
9
9
9
9
9
9
9
9
9
9
9
9
9
9
9
9
9
9
9
9
9
9
9
9
9
9
9
9
9
9
9
9
9
9
9
9
9
9
9
9
9
9
9
9
9
9
9
9
9
9
9
9
9
9
9
9
9
9
9
9
9
9
9
9
9
9
9
9
9
9
9
9
9
9
9
9
9
9
9
9
9
9
9
9
9
9
9
9
9
9
9
9
9
9
9
9
9
9
9
9
9
9
9
9
9
9
9
9
9
9
9
9
9
9
9
9
9
9
9
9
9
9
9
9
9
9
9
9
9
9
9
9
9
9
9
9
9
9
9
9
9
9
9
9
9
9
9
9
9
9
9
9
9
9
9
9
9
9
9
9
9
9
9
9
9
9
9
9
9
9
9
9
9
9
9
9
9
9
9
9
9
9
9
9
9
9
9
9
9
9
9
9
9
9
9
9
9
9
9
9
9
9
9
9
9
9
9
9
9
9
9
9
9
9
9
9
9
9
9
9
9
9
9
9
9
9
9
9
9
9
9
9
9
9
9
9
9
9
9
9
9
9
9
9
9
9
9
9
9
9
9
9
9
9
9
9
9
9
9
9
9
9
9
9
9
9
9
9
9
9
9
9
9
9
9
9
9
9
9
9
9
9
9
9
9
9
9
9
9
9
9
9
9
9
9
9
9
9
9
9
9
9
9
9
9
9
9
9
9
9
9
9
9
9
9
9
9
9
9
9
9
9
9
9
9
9
9
9
9
9
9
9
9
9
9
9
9
9
9
9
9
9
9
9
9
9
9
9
9
9
9
9
9
9
9
9
9
9
9
9
9
9
9
9
9
9
9
9
9
9
9
9
9
9
9
9
9
9
9
9
9
9
9
9
9
9
9
9
9
9
9
9
9
9
9
9
9
9
9
9
9
9
9
9
9
9
9
9
9
9
9
9
9
9
9
9
9
9
9
9
9
9
9
9
9
9
9
9
9
9
9
9
9
9
9
9
9
9
9
9
9
9
9
9
9
9
9
9
9
9
9
9
9
9
9
9
9
9
9
9
9
9
9
9
9
9
9
9
9
9
9
9
9
9
9
9
9
9
9
9
9
9
9
9
9
9
9
9
9
9
9
9
9
9
9
9
9
9
9
9
9
9
9
9
9
9
9
9
9
9
9
9
9
9
9
9
9
9
9
9
9
9
9
9
9
9
9
9
9
9
9
9
9
9
9
9
9
9
9
9
9
9
9
9
9
9
9
9
9
9
9
9
9
9
9
9
9
9
9
9
9
9
9
9
9
9
9
9
9
9
9
9
9
9
9
9
9
9
9
9
9
9
9
9
9
9
9
9
9
9
9
9
9
9
9
9
9
9
9
9
9
9
9
9
9
9
9
9
9
9
9
9
9
9
9
9
9
9
9
9
9
9
9
9
9
9
9
9
9
9
9
9
9
9
9
9
9
9
9
9
9
9
9
9
9
9
9
9
9
9
9
9
9
9
9
9
9
9
9
9
9
9
9
9
9
9
9
9
9
9
9
9
9
9
9
9
9
9
9
9
9
9
9
9
9
9
9
9
9
9
9
9
9
9
9
9
9
9
9
9
9
POINT_DATA 861
SCALARS Disp float 2
LOOKUP_TABLE default
0.0 0.0
0.003475358303966719 -0.10102209685568855
0.0043914848113030345 -0.19598050526504016
0.005086485094972453 -0.2904076134428252
0.005904523739224907 -0.38455115804918655
0.006982596532876638 -0.4782504400420169
0.008550326118865083 -0.5712970556708528
0.010788561089773104 -0.6634751732494463
0.01389072713880409 -0.7545157300157508
0.018070433879998998 -0.844063429723581
0.023572815846160774 -0.931639435131562
0.03072167066143717 -1.0166008592770244
0.03996177994170053 -1.0981123121470533
0.05184580575776366 -1.1751540409018943
0.0670181615947034 -1.2465398712474751
0.08612922088689004 -1.31093233648509
0.10968883006424082 -1.3668577221743685
0.13788451063056306 -1.412740324594588
0.1704240022944129 -1.4470184019061594
0.20647264504503765 -1.4683644903136928
0.24464695296440284 -1.4759040313674858
0.2828212608837677 -1.4683644903136628
0.3188699036343889 -1.4470184019060972
0.3514093952982317 -1.4127403245944978
0.3796050758645454 -1.366857722174256
0.40316468504188735 -1.3109323364849623
0.42227574433406534 -1.2465398712473346
0.43744810017099583 -1.1751540409017447
0.44933212598704925 -1.098112312146899
0.45857223526730284 -1.0166008592768696
0.46572109008256984 -0.9316394351314107
0.47122347204872383 -0.8440634297234371
0.4754031787899121 -0.7545157300156161
0.47850534483893775 -0.6634751732493229
0.48074357980984156 -0.5712970556707424
0.48231130939582717 -0.47825044004192196
0.48338938218947747 -0.3845511580491074
0.4842074208337296 -0.2904076134427632
0.48490242111739873 -0.19598050526499475
0.4858185476247344 -0.1010220968556612
0.48929390592869915 0.0
0.02522224274197221 -0.0015919408881433983
0.027509038556890023 -0.10109214443723843
0.02801923673300732 -0.19605012328651067
0.028652371291807137 -0.29048220852484546
0.02938626233868206 -0.38464378687925604
0.030331622285191286 -0.4784063596538046
0.03170964141277967 -0.5715661685115174
0.03369731237482756 -0.6638994134988222
0.0364719379414714 -0.7551429159032359
0.04021983483222419 -0.8449447160367731
0.04515475863877996 -0.9328377764693587
0.05155582201079905 -1.0182041946386757
0.05981134285112389 -1.1002401742156354
0.07043478241809016 -1.1779526777404863
0.0840239513102115 -1.2501717819846547
0.10119022213588236 -1.31554703966087
0.12241436108003298 -1.3725497282793633
0.1478808180810795 -1.4195066715445035
0.17734326768940434 -1.454730631103258
0.21004681010141388 -1.4767621732681036
0.24464695296439923 -1.4845683448539313
0.2792470958273841 -1.4767621732680731
0.31195063823939034 -1.4547306311031947
0.34141308784770924 -1.4195066715444118
0.3668795448487486 -1.3725497282792487
0.38810368379289145 -1.31554703966074
0.4052699546185545 -1.250171781984512
0.41885912351066756 -1.1779526777403344
0.42948256307762517 -1.1002401742154786
0.4377380839179412 -1.0182041946385187
0.44413914728995196 -0.9328377764692055
0.4490740710965006 -0.8449447160366277
0.4528219679872474 -0.7551429159030999
0.4555965935538863 -0.663899413498698
0.45758426451593043 -0.5715661685114063
0.4589622836435164 -0.4784063596537093
0.4599076435900245 -0.38464378687917683
0.4606415346368991 -0.2904822085247835
0.4612746691956987 -0.19605012328646523
0.4617848673718162 -0.10109214443721101
0.4640716631867309 -0.0015919408881415464
0.04976553261835405 -0.0028291937745431586
0.05138139469338945 -0.10111708808826507
0.05167629919578522 -0.19609270252573607
0.05219315016116145 -0.2905515960743632
0.05284921686798122 -0.3847236669570855
0.05367643778228318 -0.4785323255786489
0.05486085480100303 -0.5717898683904079
0.056595341184877516 -0.6642610543489993
0.05903738275403448 -0.7556854954294359
0.062349815945782754 -0.8457130087362128
0.06671558469734873 -0.9338865709201474
0.0723734956974293 -1.0196087962378704
0.07965785944839919 -1.102106415901461
0.08902428583874078 -1.1804166471687125
0.1010291638343554 -1.253384245840422
0.1162354114474891 -1.319647814152104
0.13509560351780198 -1.3776292544661524
0.15780586762306256 -1.4255683836712802
0.18417708668010596 -1.4616643299771985
0.21352874997535778 -1.484322789502485
0.24464695296439598 -1.4923783281038616
0.27576515595343354 -1.4843227895024542
0.3051168192486824 -1.4616643299771341
0.33148803830572066 -1.4255683836711872
0.35419830241097505 -1.3776292544660362
0.3730584944812811 -1.3196478141519727
0.38826474209440787 -1.2533842458402777
0.4002696200900151 -1.1804166471685589
0.4096360464803491 -1.1021064159013025
0.41692041023131127 -1.0196087962377114
0.42257832123138434 -0.9338865709199926
0.4269440899829439 -0.845713008736066
0.4302565231746868 -0.7556854954292987
0.4326985647438394 -0.6642610543488743
0.4344330511277106 -0.5717898683902961
0.4356174681464283 -0.47853232557855335
0.43644468906072953 -0.38472366695700616
0.437100755767549 -0.29055159607430125
0.43761760673292516 -0.1960927025256907
0.4379125112353211 -0.10111708808823747
0.4395283733103535 -0.002829193774539473
0.07395337189810895 -0.003813676322475662
0.07513974549566765 -0.10113561144955102
0.07531768433635946 -0.1961158343223014
0.07571888799492979 -0.290609067662818
0.0762873266171677 -0.38479548233196204
0.0770126489723788 -0.4786330075651857
0.07801138157236934 -0.5719678814385507
0.07948844645295879 -0.6645611872814696
0.08159476986263285 -0.7561438571815603
0.08446920192304203 -0.8463691763549032
0.08826639167115417 -0.9347871613975655
0.09318544921308636 -1.0208182822665035
0.09951001175678105 -1.1037159892845436
0.10763605159640728 -1.182548092178888
0.11805793278471469 -1.2561770162058297
0.1312961687477145 -1.3232311878981435
0.14777507383422675 -1.382090697150094
0.16770426460097512 -1.4309206543476605
0.1909579174458584 -1.4678157099298692
0.21696033828247074 -1.4910559517702031
0.24464695296439298 -1.499358308477845
0.2723335676463144 -1.4910559517701716
0.2983359884829241 -1.467815709929804
0.3215896413278029 -1.430920654347566
0.34151883209454587 -1.3820906971499762
0.35799773718105216 -1.3232311878980108
0.37123597314404577 -1.2561770162056838
0.38165785433234667 -1.1825480921787328
0.3897838941719664 -1.1037159892843835
0.3961084567156543 -1.020818282266343
0.4010275142575801 -0.9347871613974092
0.40482470400568643 -0.8463691763547552
0.40769913606609093 -0.7561438571814222
0.40980545947576114 -0.6645611872813438
0.41128252435634777 -0.5719678814384385
0.4122812569563367 -0.47863300756509003
0.4130065793115473 -0.3847954823318827
0.4135750179337848 -0.290609067662756
0.4139762215923551 -0.19611583432225613
0.4141541604330471 -0.1011356114495232
0.41534053403060306 -0.003813676322470346
0.09793274982224673 -0.004600859509815693
0.0988139468377283 -0.10115802508742494
0.09892722706674012 -0.19612770505373137
0.09922801603937469 -0.29065311563541424
0.0997024771846491 -0.3848585072438106
0.10032852189913752 -0.47871706262632396
0.10116667444467249 -0.5721041456277817
0.10238336238902579 -0.6648003174421233
0.10415214230303327 -0.7565194691819912
0.10658759470361132 -0.8469146334460181
0.10981745892494917 -0.9355421303360854
0.11400448136346204 -1.021835911250675
0.11938068799782581 -1.1050737735097673
0.12628046037627225 -1.1843522946953238
0.13513712009260176 -1.258551774759276
0.14640922381388918 -1.3262959571223547
0.16049480268203833 -1.3859304151999232
0.1776208344629306 -1.4355576660126712
0.19772888238026515 -1.4731808617944584
0.2203714248319701 -1.496967123116027
0.24464695296439007 -1.5055215563055464
0.26892248109680933 -1.4969671231159953
0.2915650235485116 -1.4731808617943927
0.3116730714658423 -1.4355576660125757
0.3287991032467299 -1.3859304151998044
0.3428846821148738 -1.3262959571222206
0.3541567858361559 -1.2585517747591286
0.3630134455524799 -1.1843522946951672
0.36991321793092063 -1.1050737735096055
0.3752894245652787 -1.021835911250513
0.37947644700378613 -0.9355421303359279
0.38270631122511906 -0.846914633445869
0.38514176362569297 -0.7565194691818522
0.3869105435396971 -0.664800317441997
0.3881272314840482 -0.5721041456276691
0.388965384029582 -0.47871706262622815
0.38959142874407 -0.3848585072437311
0.3900658898893441 -0.2906531156353522
0.3903666788619786 -0.1961277050536861
0.3904799590909905 -0.10115802508739698
0.3913611561064699 -0.00460085950980898
0.12177327651137554 -0.005226883177973425
0.12242737600570992 -0.1011860485014427
0.12250164520427657 -0.19613386411338357
0.12271798668908644 -0.29068463506351777
0.12309683931050704 -0.38491119164581455
0.12362099898964556 -0.4787876083385656
0.12431598771024009 -0.5722083007219861
0.12529474898465817 -0.6649788860868687
0.12671865627501544 -0.7568141659455816
0.12871526419467047 -0.8473518147866502
0.13138044853715725 -0.9361541507392579
0.1348420056743871 -1.0226660947285322
0.13928372111190263 -1.106185374588517
0.1449775369140191 -1.185834881024908
0.15228350912086858 -1.2605140860679394
0.1616062762548315 -1.3288443575620326
0.17330285640714432 -1.3891463403032958
0.18760456430406333 -1.4394737292549191
0.20453373858302218 -1.4777542648689237
0.2237890427831461 -1.5020562873474461
0.24464695296438715 -1.5108742156659143
0.2655048631456275 -1.502056287347414
0.28476016734574894 -1.477754264868857
0.3016893416247044 -1.4394737292548228
0.3159910495216195 -1.389146340303176
0.3276876296739278 -1.3288443575618971
0.3370103968078861 -1.2605140860677913
0.3443163690147311 -1.1858348810247499
0.3500101848168429 -1.106185374588354
0.35445190025435375 -1.022666094728369
0.357913457391579 -0.9361541507390996
0.36057864173406173 -0.8473518147865001
0.3625752496537133 -0.7568141659454419
0.3639991569440678 -0.6649788860867418
0.36497791821848424 -0.5722083007218735
0.365672906939078 -0.47878760833846973
0.3661970666182161 -0.384911191645735
0.36657591923963645 -0.2906846350634557
0.36679226072444626 -0.19613386411333833
0.36686652992301294 -0.1011860485014146
0.3675206294173456 -0.005226883177965562
0.1455132286235083 -0.00572043498761357
0.14599680367657897 -0.10121884866737545
0.1460434256227895 -0.19613724612581274
0.14618767828101092 -0.2907052523624457
0.1464728668665748 -0.3849522395120974
0.14688999476587472 -0.4788464276380704
0.14744770006933453 -0.5722893982619529
0.14821481415125395 -0.665107257559583
0.1493110214341983 -0.7570292834501499
0.15086391538473914 -0.8476837480297073
0.15296844682502905 -0.9366272506554468
0.1557120082525183 -1.0233138022032833
0.15923335744741784 -1.1070573898890557
0.16374169790907223 -1.1870037897691992
0.1695256961888371 -1.2620702238168084
0.17691719579239218 -1.330881949827909
0.18623551823265438 -1.391740431769784
0.1977097043523762 -1.4426642367574964
0.21142416813456802 -1.4815277638850746
0.22724213345795266 -1.5063173896299968
0.24464695296438413 -1.5154161186471198
0.26205177247081485 -1.5063173896299642
0.27786973779419744 -1.4815277638850073
0.2915842015763863 -1.4426642367573992
0.3030583876961049 -1.3917404317696633
0.31237671013636326 -1.3308819498277726
0.3197682097399146 -1.2620702238166595
0.325552208019676 -1.1870037897690404
0.3300605484813267 -1.1070573898888916
0.33358189767622265 -1.0233138022031192
0.3363254591037082 -0.9366272506552877
0.3384299905439948 -0.8476837480295566
0.33998288449453296 -0.7570292834500096
0.3410790917774753 -0.6651072575594557
0.34184620585939357 -0.57228939826184
0.34240391116285285 -0.47884642763797436
0.3428210390621524 -0.38495223951201785
0.3431062276477161 -0.29070525236238354
0.34325048030593747 -0.19613724612576747
0.3432971022521479 -0.10121884866734729
0.34378067730521733 -0.00572043498760479
0.1691794644753329 -0.006103447136902805
0.16953260668109557 -0.10125658441811841
0.16955725810037928 -0.19613871562631707
0.16963777410407493 -0.2907164652357244
0.16983267044482359 -0.3849814660409929
0.17013969217862396 -0.4788922685862247
0.17056139725935998 -0.5723508154322361
0.17113161931885693 -0.6651975676289242
0.1719299208426985 -0.7571741665015076
0.17305307519532317 -0.8479140939009207
0.17459659187287307 -0.9369664798570246
0.17662934133307195 -1.0237853339640364
0.17924508909298242 -1.1076978609907575
0.1825917479898233 -1.1878685061985128
0.18688252786192094 -1.2632308175998654
0.19237598341663242 -1.3324165314513408
0.19933602576893542 -1.3937170090504336
0.20798095401867986 -1.4451283671823643
0.21845197988760748 -1.4844918195336219
0.23076453848561743 -1.50973754251819
0.2446469529643809 -1.5191402492931059
0.2585293674431438 -1.5097375425181572
0.27084192604115215 -1.484491819533554
0.2813129519100773 -1.4451283671822666
0.28995788015981905 -1.3937170090503126
0.2969179225121192 -1.3324165314512033
0.3024113780668277 -1.2632308175997158
0.3067021579389229 -1.1878685061983534
0.3100488168357612 -1.107697860990593
0.312664564595669 -1.0237853339638716
0.31469731405586515 -0.9369664798568649
0.3162408307334127 -0.8479140939007694
0.3173639850860354 -0.757174166501367
0.31816228660987567 -0.6651975676287968
0.3187325086693719 -0.5723508154321233
0.3191542137501075 -0.4788922685861287
0.31946123548390765 -0.3849814660409134
0.3196561318246562 -0.2907164652356622
0.31973664782835176 -0.19613871562627178
0.31976129924763536 -0.10125658441809023
0.32011444145339724 -0.00610344713689333
0.19278685186014616 -0.006398222274663671
0.19304495123906257 -0.10129849322279157
0.1930472246512302 -0.1961382823101401
0.19307060557445865 -0.2907194771754319
0.19317886687251093 -0.3849990886276236
0.19337426613931274 -0.47892386264968995
0.19365441594880273 -0.5723955725915653
0.1940358478273215 -0.6652587142437104
0.19456288263882085 -0.7572637994129375
0.19528835845834291 -0.8480542397503961
0.19628490019595324 -0.9371790866999437
0.19761483870778693 -1.0240895713037887
0.1993374093645254 -1.1081174793346933
0.20154567010777302 -1.1884418237737149
0.2043772813333518 -1.2640095771004938
0.20801107411078903 -1.3334608323594705
0.2126424731504161 -1.395084924777089
0.21847323307064254 -1.4468682009481975
0.2256751387123508 -1.486637453670177
0.23439553291579351 -1.5122979183181084
0.24464695296437752 -1.5220329952486176
0.2548983730129609 -1.5122979183180751
0.26361876721640254 -1.4866374536701088
0.27082067285810907 -1.446868200948099
0.27665143277833354 -1.3950849247769674
0.28128283181795866 -1.3334608323593327
0.284916624595394 -1.2640095771003435
0.28774823582097125 -1.188441823773555
0.2899564965642174 -1.1081174793345283
0.2916790672209542 -1.0240895713036235
0.29300900573278615 -0.9371790866997836
0.294005547470395 -0.8480542397502446
0.29473102328991596 -0.7572637994127969
0.29525805810141453 -0.6652587142435827
0.29563948997993283 -0.5723955725914525
0.2959196397894226 -0.4789238626495939
0.2961150390562243 -0.38499908862754406
0.2962233003542765 -0.2907194771753697
0.2962466812775049 -0.19613828231009478
0.2962489546896725 -0.1012984932227634
0.2965070540685884 -0.006398222274653716
0.21634449830328017 -0.006629685804676001
0.21653698780571157 -0.10134271154399661
0.2165182467549671 -0.1961357844125912
0.21648930613037473 -0.29071522607561434
0.2165145350287154 -0.38500535534286723
0.21659822667459858 -0.4789408630459568
0.21673407831557412 -0.5724220675999027
0.21692473924448327 -0.6652953226580931
0.21718608065890066 -0.7573147281156294
0.21754929793042838 -0.848126612198809
0.21803630458980847 -0.9372837895054674
0.21868753350566578 -1.0242424893255817
0.21953296808819928 -1.1083329542826135
0.22062189350572128 -1.1887429590889498
0.2220267805765977 -1.2644279054229457
0.22384001572185533 -1.3340359651319889
0.22617963177210346 -1.3958603479266345
0.22920867418071916 -1.44789516242509
0.23314555872956913 -1.4879626101610637
0.23819612468095658 -1.5139741935379702
0.24464695296437383 -1.524070817433071
0.25109778124779086 -1.5139741935379367
0.25614834719917773 -1.4879626101609953
0.2600852317480267 -1.447895162424991
0.2631142741566411 -1.3958603479265128
0.2654538902068884 -1.3340359651318507
0.2672671253521453 -1.2644279054227952
0.2686720124230212 -1.1887429590887897
0.26976093784054284 -1.108332954282448
0.27060637242307556 -1.0242424893254163
0.27125760133893223 -0.9372837895053071
0.2717446079983118 -0.8481266121986575
0.2721078252698391 -0.7573147281154886
0.27236916668425615 -0.6652953226579654
0.27255982761316516 -0.5724220675997898
0.2726956792541406 -0.47894086304586075
0.2727793709000238 -0.3850053553427877
0.27280459979836447 -0.290715226075552
0.27277565917377217 -0.19613578441254587
0.2727569181230276 -0.10134271154396844
0.2729494076254587 -0.006629685804665751
0.23986602230595372 -0.006814399356944213
0.24001324207863087 -0.10138677096307884
0.2399747665479463 -0.1961312637655152
0.23989767467192247 -0.2907043460013057
0.23984327424492002 -0.38500067227775725
0.23981640801627563 -0.4789431380799488
0.23980656341419984 -0.5724298210498319
0.23980446476149664 -0.6653074313069645
0.23980469831410278 -0.7573313930717499
0.23980519625993885 -0.8481502523876958
0.2398055567613734 -0.9373156112050551
0.23980578802840716 -1.0242863918729888
0.23980557408379272 -1.1083910242592618
0.23980365646201848 -1.1888217285775398
0.23979997588329474 -1.2645381706627454
0.2398042069300861 -1.33419043137483
0.23985884610817013 -1.396086715328352
0.24009538361841376 -1.4482444039058822
0.24076916267413948 -1.4885000415492697
0.2421883756773928 -1.5147598309630887
0.24464695296436995 -1.525229010528223
0.24710553025134735 -1.5147598309630552
0.2485247432546005 -1.4885000415492013
0.2491985223103258 -1.4482444039057834
0.24943505982056938 -1.3960867153282306
0.24948969899865384 -1.334190431374692
0.24949393004544543 -1.2645381706625947
0.2494902494667221 -1.1888217285773797
0.24948833184494854 -1.1083910242590964
0.24948811790033454 -1.0242863918728233
0.24948834916736878 -0.9373156112048947
0.24948870966880368 -0.8481502523875444
0.24948920761463997 -0.7573313930716089
0.24948944116724628 -0.6653074313068368
0.24948734251454308 -0.5724298210497188
0.2494774979124674 -0.47894313807985295
0.24945063168382312 -0.38500067227767765
0.2493962312568208 -0.29070434600124345
0.249319139380797 -0.19613126376546985
0.2492806638501124 -0.10138677096305064
0.24942788362278948 -0.00681439935693377
0.26336643279427424 -0.006960951142942518
0.2634783267826753 -0.10142849836002882
0.2634215758771994 -0.19612470448490038
0.2632997280582694 -0.2906873425077118
0.2631690419452507 -0.38498553148113956
0.263033718237542 -0.4789308214996268
0.2628791216359976 -0.5724187297512882
0.26268428392963233 -0.6652948022512226
0.2624233783630628 -0.7573149328298195
0.26206114735081776 -0.8481267749869897
0.2615748307369005 -0.9372839037485985
0.26092409070135847 -1.0242424714691156
0.2600783188009714 -1.1083325481741482
0.25898585551784287 -1.1887416824917136
0.25757318259056133 -1.2644271154917346
0.25576567788602905 -1.3340427121371234
0.25352914922407244 -1.3959088996624136
0.2509329766103733 -1.4480644655774784
0.24821915054055546 -1.4883883632751815
0.245831885028522 -1.514758123649597
0.24464695296436642 -1.5256160207959235
0.24346202090021066 -1.5147581236495635
0.24107475538817702 -1.4883883632751131
0.2383609293183598 -1.4480644655773796
0.2357647567046619 -1.3959088996622921
0.233528228042707 -1.3340427121369856
0.23172072333817595 -1.2644271154915836
0.2303080504108958 -1.1887416824915535
0.22921558712776893 -1.1083325481739832
0.22836981522738362 -1.0242424714689504
0.22771907519184306 -0.9372839037484385
0.2272327585779271 -0.8481267749868383
0.22687052756568296 -0.7573149328296789
0.22660962199911397 -0.6652948022510948
0.22641478429274906 -0.572418729751175
0.22626018769120487 -0.4789308214995308
0.2261248639834965 -0.38498553148106
0.22599417787047793 -0.2906873425076496
0.22587233005154805 -0.19612470448485497
0.2258155791460722 -0.1014284983600006
0.22592747313447312 -0.006960951142931917
0.2868572340742288 -0.007074378772450269
0.2869380414269081 -0.10146618809008874
0.2868635197885019 -0.19611595852989192
0.28669973920848313 -0.2906646498141929
0.28649611695224403 -0.38496049115799985
0.2862551570821647 -0.47890428855437545
0.28595835944152986 -0.572389085792127
0.28557348293968426 -0.6652577253268827
0.28504672811919346 -0.7572641977245116
0.28432223727418493 -0.8480545836418851
0.28332630469430686 -0.9371793007153337
0.2819967196556251 -1.0240895780182608
0.28027420065359754 -1.1081167035990749
0.2780637428618793 -1.1884390913551999
0.2752238661364278 -1.264006846337378
0.27158874536624183 -1.3334752843565496
0.2670396111675414 -1.39518402631506
0.261590733899122 -1.4472129418375792
0.25548600263115 -1.487498510011739
0.24940496770658332 -1.5140429469175554
0.24464695296436278 -1.525362858790444
0.239888938222142 -1.5140429469175214
0.2338079032975756 -1.4874985100116707
0.227703172029605 -1.4472129418374808
0.2222542947611879 -1.3951840263149389
0.2177051605624903 -1.3334752843564122
0.21407003979230654 -1.2640068463372274
0.21123016306685735 -1.1884390913550402
0.20901970527514183 -1.1081167035989101
0.20729718627311713 -1.024089578018096
0.20596760123443797 -0.937179300715174
0.20497166865456218 -0.8480545836417338
0.2042471778095552 -0.7572641977243709
0.2037204229890654 -0.6652577253267549
0.20333554648722055 -0.5723890857920139
0.2030387488465861 -0.4789042885542795
0.20279778897650713 -0.38496049115792025
0.20259416672026825 -0.2906646498141307
0.2024303861402497 -0.19611595852984648
0.2023558645018435 -0.10146618809006054
0.20243667185452274 -0.007074378772439535
0.3103458152870615 -0.0071591541015520715
0.31039828044962353 -0.10149845162655378
0.3103056147372636 -0.19610475391873408
0.310102135758498 -0.2906366540818967
0.309828836038088 -0.38492614181819246
0.30948595344809327 -0.4788642414550494
0.3090515576109798 -0.5723415834763677
0.30847785363465724 -0.6651961102965243
0.30768011826528024 -0.7571748276770234
0.3065578403840856 -0.8479146570500178
0.3050147066092806 -0.9369667773919224
0.30298203442738497 -1.0237853772348213
0.30036693534159925 -1.1076970286563779
0.2970207514721804 -1.187864797927912
0.29272502766209757 -1.2632258024271152
0.28722468483457364 -1.332434897267432
0.2803101436148472 -1.393855204586445
0.27193694665897056 -1.4456189082668784
0.2624118112021373 -1.4857660627333238
0.2526804382337417 -1.5124637023819318
0.24464695296435915 -1.52446891254319
0.23661346769497663 -1.5124637023818979
0.22688209472658175 -1.4857660627332556
0.21735695926975052 -1.4456189082667803
0.20898376231387725 -1.3938552045863246
0.20206922109415448 -1.332434897267295
0.19656887826663372 -1.2632258024269654
0.19227315445655424 -1.187864797927753
0.1889269705871391 -1.107697028656214
0.18631187150135722 -1.0237853772346572
0.18427919931946524 -0.9369667773917632
0.18273606554466348 -0.847914657049867
0.18161378766347125 -0.757174827676883
0.18081605229409586 -0.6651961102963966
0.18024234831777433 -0.5723415834762547
0.17980795248066145 -0.4788642414549534
0.17946506989066724 -0.3849261418181129
0.17919177017025753 -0.29063665408183453
0.17898829119149207 -0.19610475391868867
0.17889562547913224 -0.10149845162652554
0.17894809064169417 -0.007159154101541255
0.33383766724183356 -0.00721941477749561
0.3338643016181809 -0.10152436331594576
0.3337528545035897 -0.19609072369160102
0.33351139652475104 -0.2906036713089967
0.33317143602361876 -0.38488321420033134
0.3327311870211192 -0.47881125527514157
0.33216359184531064 -0.5722775366514081
0.3313954515399997 -0.665105589259683
0.33029963097756726 -0.757030215727138
0.32874735891861295 -0.8476845120634241
0.32664280201343426 -0.9366275353207324
0.3238991284057465 -1.0233138745677393
0.32037889249731877 -1.107056894640022
0.3158748089280069 -1.1870003804041163
0.3100943355905434 -1.2620640038579394
0.30269574834509644 -1.3308999455200117
0.29337286364760196 -1.3918970249464657
0.2820323069313641 -1.4432600164988276
0.2690710049118331 -1.4831758211085786
0.25575401278734367 -1.5100444043711845
0.2446469529643557 -1.5229587471871302
0.23353989314136805 -1.5100444043711507
0.22022290101687986 -1.4831758211085104
0.20726159899735153 -1.4432600164987304
0.19592104228111776 -1.391897024946346
0.18659815758362766 -1.3308999455198756
0.17919957033818495 -1.26206400385779
0.1734190970007256 -1.1870003804039584
0.1689150134314184 -1.1070568946398591
0.16539477752299558 -1.023313874567576
0.1626511039153125 -0.9366275353205741
0.16054654701013796 -0.847684512063274
0.15899427495118687 -0.7570302157269981
0.15789845438875674 -0.6651055892595554
0.15713031408344727 -0.5722775366512953
0.15656271890763943 -0.4788112552750457
0.15612246990514042 -0.3848832142002518
0.15578250940400853 -0.29060367130893455
0.1555410514251701 -0.19609072369155564
0.15542960431057898 -0.1015243633159175
0.15545623868692637 -0.007219414777484722
0.35733702810545653 -0.007259150702409019
0.35734065795618924 -0.10154344308037185
0.3572101073126864 -0.19607348861329832
0.35693210452011886 -0.290566033098053
0.35652846083447337 -0.3848322266868341
0.3559957458556159 -0.4787471127678794
0.3552958157635054 -0.5721944837766237
0.35431627531833537 -0.6649771191696912
0.35289290776232485 -0.7568153531977463
0.3508962843183825 -0.8473526679949906
0.3482307893172234 -0.9361543672013474
0.3447689048640882 -1.022666162421658
0.34032871823452276 -1.1061856040809652
0.3346432205521057 -1.1858335954896053
0.32735259350341467 -1.260509383734207
0.3180289611892361 -1.3288582087855545
0.3062839292795401 -1.3892986022080724
0.2919791959642181 -1.4401283696581864
0.2755984664711013 -1.4797279005729462
0.25875723304087994 -1.5068053019504233
0.2446469529643524 -1.5208515118816397
0.2305366728878253 -1.5068053019503898
0.21369543945760572 -1.479727900572879
0.19731470996449232 -1.4401283696580898
0.18300997664917493 -1.3892986022079539
0.171264944739484 -1.3288582087854197
0.16194131242531068 -1.2605093837340589
0.15465068537662474 -1.1858335954894483
0.14896518769421344 -1.1061856040808034
0.14452500106465377 -1.0226661624214959
0.1410631166115242 -0.9361543672011902
0.13839762161037006 -0.8473526679948414
0.1364009981664317 -0.756815353197607
0.1349776306104243 -0.664977119169564
0.13399809016525624 -0.5721944837765108
0.13329816007314682 -0.4787471127677836
0.1327654450942899 -0.38483222668675465
0.13236180140864484 -0.2905660330979909
0.13208379861607758 -0.196073488613253
0.13195324797257485 -0.10154344308034359
0.13195687782330753 -0.0072591507023980865
0.380847077053118 -0.007282344633222104
0.3808311966917236 -0.10155560361228295
0.38068212813974595 -0.1960527868985981
0.38036892706353514 -0.29052398309414895
0.37990402425873915 -0.3847739045852156
0.37928327581772675 -0.47867225802523455
0.3784454094381214 -0.572088824754524
0.37722944154366095 -0.66479861951361
0.375460301611416 -0.7565207562942967
0.3730241416712216 -0.8469154400571971
0.36979369324101957 -0.935542229654805
0.3656063439876265 -1.0218359756151028
0.3602323475402812 -1.1050751029361396
0.3533443942392953 -1.1843549527130084
0.3445135793886357 -1.2585520740644973
0.33325409293007535 -1.3263048660920784
0.3191035817924878 -1.3860607423270066
0.30187672690771805 -1.4362282614733166
0.2821361293690022 -1.475429778482511
0.26179605282612783 -1.5027491641388855
0.24464695296434913 -1.5181428681456124
0.22749785310257115 -1.5027491641388522
0.20715777655969916 -1.4754297784824444
0.18741717902098726 -1.436228261473221
0.17019032413622265 -1.3860607423268891
0.156039812998641 -1.3263048660919448
0.14478032654008677 -1.25855207406435
0.13594951168943312 -1.1843549527128525
0.1290615583884539 -1.1050751029359793
0.12368756194111546 -1.021835975614942
0.11950021268772884 -0.935542229654649
0.11626976425753248 -0.8469154400570488
0.1138336043173429 -0.7565207562941583
0.11206446438510172 -0.6647986195134834
0.11084849649064388 -0.5720888247544114
0.11001063011103998 -0.47867225802513885
0.1093898816700282 -0.3847739045851362
0.10892497886523272 -0.2905239830940869
0.10861177778902217 -0.19605278689855277
0.10846270923704467 -0.10155560361225469
0.10844682887565024 -0.0072823446332111455
0.40436986031432004 -0.007293070901005938
0.4043390474364971 -0.10156112734243808
0.4041736108889026 -0.19602858608651644
0.40382669129563753 -0.29047761693746454
0.4033022792382503 -0.3847092441254368
0.4025956107916711 -0.47858617251005986
0.4016033259422537 -0.5719520499758823
0.40012658443661775 -0.6645594922937269
0.3980184402605522 -0.7561449510713637
0.3951426170811202 -0.8463698236884968
0.3913446452998292 -0.9347871173570044
0.38642552388820384 -1.0208184444597592
0.3801044087487642 -1.1037188426220825
0.3719926478749473 -1.1825559103872514
0.3616018894974905 -1.2561852027637082
0.34839256240267014 -1.3232389063430854
0.33187718619498563 -1.3821947855413286
0.3118360157784223 -1.4315798311939552
0.28883233799203256 -1.4702916210110386
0.26497239576080206 -1.4978589488547769
0.2446469529643459 -1.5148047082755849
0.22432151016789065 -1.497858948854744
0.20046156793666292 -1.4702916210109727
0.17745789015027796 -1.4315798311938606
0.15741671973372034 -1.3821947855412127
0.14090134352604253 -1.3232389063429528
0.12769201643122896 -1.2561852027635623
0.11730125805377935 -1.1825559103870968
0.10918949717996987 -1.1037188426219238
0.10286838204053808 -1.0208184444596
0.09794926062892015 -0.9347871173568498
0.09415128884763553 -0.8463698236883497
0.09127546566820903 -0.7561449510712261
0.08916732149214786 -0.664559492293601
0.08769057998651515 -0.5719520499757701
0.08669829513709965 -0.4785861725099643
0.0859916266905212 -0.3847092441253574
0.08546721463313445 -0.29047761693740254
0.0851202950398697 -0.1960285860864711
0.08495485849227531 -0.1015611273424098
0.08492404561445246 -0.007293070900994958
0.4279059827770455 -0.007295539013683135
0.427866550889221 -0.10156071971046902
0.4276894378891895 -0.19600117692004024
0.4273105008882808 -0.2904269385717303
0.42672717032931146 -0.3846389969737658
0.42593125340020294 -0.4784858908822957
0.4247580936377771 -0.5717744774289477
0.42302198525679313 -0.6642588367485414
0.42057637502303047 -0.7556861210622029
0.41726204735623634 -0.8457134009960509
0.41289534331836913 -0.9338863883630799
0.40723794853646067 -1.019609282290908
0.39995875872930187 -1.102111281296839
0.3906080305914294 -1.1804300579587856
0.3786340557938445 -1.253401574141215
0.3634689005530247 -1.3196611293803227
0.3446392445949611 -1.377723017679865
0.3219475421909717 -1.4262206305345158
0.2958425561161858 -1.4643284702942663
0.2684221151114896 -1.4920970438781647
0.24464695296434263 -1.5107779802266708
0.22087179081719666 -1.492097043878132
0.1934513498125037 -1.4643284702942014
0.16734636373772332 -1.4262206305344225
0.14465466133374047 -1.3777230176797506
0.12582500537568442 -1.3196611293801914
0.11065985013487215 -1.253401574141071
0.09868587533729538 -1.1804300579586329
0.0893351471994314 -1.102111281296682
0.08205595739228143 -1.0196092822907505
0.07639856261038117 -0.9338863883629271
0.07203185857252112 -0.8457134009959053
0.06871753090573306 -0.7556861210620665
0.06627192067197539 -0.6642588367484163
0.0645358122909952 -0.571774477428836
0.06336265252857172 -0.47848589088220034
0.0625667355994642 -0.3846389969736865
0.0619834050404953 -0.2904269385716684
0.06160446803958696 -0.196001176919995
0.061427355039555646 -0.10156071971044074
0.06138792315173117 -0.0072955390136721495
0.4514539322640704 -0.007294067755054593
0.451415200970966 -0.1015556852925702
0.45123508734421386 -0.1959713308965033
0.4508260664316389 -0.29037171996802713
0.45018156788198016 -0.3845634612870703
0.44928030712962225 -0.4783633850631888
0.4479143436179222 -0.5715513102303303
0.44592182717007905 -0.6638959768585591
0.44314234652767764 -0.7551428536242933
0.4393920432300098 -0.8449447687019234
0.4344561328813439 -0.9328374993421918
0.42805644134544435 -1.018205338403657
0.4198080287565132 -1.1002475494159192
0.4092008852835052 -1.1779715360493108
0.39563938833729084 -1.2501979631477886
0.37852192960672 -1.3155731862995765
0.3574071807883095 -1.3726644577354588
0.3322115460093768 -1.4202112362390944
0.3033696530254534 -1.4575829688219628
0.27238131510450175 -1.4854001029215549
0.24464695296433916 -1.5059482627727276
0.21691259082417774 -1.4854001029215227
0.18592425290322984 -1.4575829688218989
0.1570823599193127 -1.4202112362390025
0.1318867251403876 -1.3726644577353462
0.1107719763219855 -1.315573186299447
0.09365451759142318 -1.2501979631476465
0.08009302064521792 -1.1779715360491598
0.06948587717221934 -1.1002475494157646
0.06123746458329804 -1.0182053384035015
0.054837773047407494 -0.932837499342041
0.049901862698749445 -0.8449447687017793
0.04615155940108826 -0.7551428536241581
0.043372078758692374 -0.6638959768584349
0.04137956231085355 -0.5715513102302192
0.040013598799156294 -0.47836338506309367
0.03911233804679962 -0.38456346128699115
0.038467839497141415 -0.2903717199679653
0.03805881858456684 -0.19597133089645807
0.03787870495781487 -0.10155568529254191
0.03783997366471055 -0.007294067755043611
0.4750087378042583 -0.007292919247252699
0.4749856812465899 -0.1015484256064616
0.4748174938091251 -0.1959402736052082
0.47437988494744854 -0.2903119590213714
0.4736648040516307 -0.3844787444280478
0.4726380064806641 -0.4782143629640016
0.471077705065276 -0.5712813019457391
0.4688322022805313 -0.6634702649419372
0.4657241723482583 -0.7545147469873814
0.46154142577805435 -0.8440630656750927
0.4560381905705641 -0.9316391603336023
0.448891714387149 -1.0166030408492865
0.43966049104500426 -1.098122646315911
0.42779302760562676 -1.175177958761917
0.41264537449686256 -1.2465741600775857
0.3935915124086459 -1.3109780575493257
0.370219858827929 -1.367029860474625
0.34257077297511507 -1.4135947070964705
0.31132971735575304 -1.450201549657302
0.2776552483109546 -1.477718993999746
0.24464695296433545 -1.5000000000000002
0.2116386576177175 -1.4777189939997144
0.17796418857292318 -1.4502015496572396
0.1467231329535686 -1.4135947070963801
0.11907404710076362 -1.3670298604745144
0.0957023935200557 -1.3109780575491983
0.07664853143184885 -1.2465741600774456
0.06150087832309478 -1.1751779587617681
0.04963341488372761 -1.0981226463157587
0.04040219154159367 -1.0166030408491336
0.03325571535818851 -0.9316391603334532
0.027752480150706815 -0.8440630656749504
0.02356973358051001 -0.7545147469872476
0.020461703648243033 -0.6634702649418143
0.018216200863503226 -0.5712813019456289
0.01665589944811828 -0.4782143629639069
0.015629101877153242 -0.3844787444279687
0.014914020981336044 -0.2903119590213096
0.014476412119659863 -0.19594027360516297
0.014308224682195225 -0.10154842560643335
0.014285168124526926 -0.007292919247241717
SCALARS Stress float 6
LOOKUP_TABLE default
-851.3822833179502 -1615.9433060860815 -1148.1809713545724 2.9443757107250317 0.0 0.0
1063.4736030568015 616.3338555711999 714.6326406869829 -22.245791262668345 0.0 0.0
464.5271978942366 43.321262651242876 151.01567648052307 -31.541116357402878 0.0 0.0
424.9322896798218 16.04753991608148 131.69409025367042 -4.175668419436548 0.0 0.0
518.6064839755766 32.866406360481136 170.4526080062036 -2.110771838175225 0.0 0.0
581.1663432720427 59.888392344897845 232.9736927196843 -1.205152607091713 0.0 0.0
660.4225420794157 72.02237390723496 300.7187287498605 -2.0391895721097613 0.0 0.0
736.7999788144118 103.55984862971557 376.1895631386429 -2.505430069496869 0.0 0.0
817.1168724713432 145.64404390139575 452.48014009248175 -2.810957179547476 0.0 0.0
908.0803961253051 202.02296205583554 534.7705179567929 -3.2998519393193213 0.0 0.0
1013.2865154535419 274.21837565078044 627.8114083109341 -3.9217056174330227 0.0 0.0
1131.8988064997889 361.77658334226794 732.7503616131257 -4.671609871223968 0.0 0.0
1260.305195047042 457.7792318439467 845.1896654025409 -5.1381633388426735 0.0 0.0
1395.0200130635974 559.2006795849708 962.8336475179132 -5.529183287137722 0.0 0.0
1528.8669826045987 659.5269352976068 1079.1868519041548 -5.898013651222885 0.0 0.0
1654.7829178827678 752.8099620683707 1188.0590346102224 -6.2705812537178645 0.0 0.0
1767.129915068203 835.0633991207686 1284.832250633602 -6.413422962900485 0.0 0.0
1860.4156377232912 902.4068903497565 1364.925366205602 -5.953605570606053 0.0 0.0
1930.1690666372624 951.7715889577046 1424.4973679587854 -4.755691463555712 0.0 0.0
1968.2825132111313 976.5482473446648 1456.0986361339012 -3.6934139885817063 0.0 0.0
1968.3930600650085 973.1444416366354 1454.7799652775684 3.1381119924844825e-11 0.0 0.0
1968.282513210759 976.548247344299 1456.0986361335417 3.693413988595152 0.0 0.0
1930.1690666366408 951.7715889570926 1424.4973679582386 4.75569146354578 0.0 0.0
1860.4156377230363 902.4068903495373 1364.9253662052765 5.953605570559489 0.0 0.0
1767.1299150681007 835.0633991207305 1284.8322506333147 6.413422962868678 0.0 0.0
1654.7829178824406 752.8099620681076 1188.0590346098486 6.270581253728155 0.0 0.0
1528.8669826048183 659.5269352979151 1079.1868519041655 5.898013651205197 0.0 0.0
1395.0200130634557 559.200679584929 962.8336475176892 5.529183287141169 0.0 0.0
1260.3051950469062 457.7792318439475 845.1896654022844 5.13816333885743 0.0 0.0
1131.8988064994646 361.7765833421002 732.7503616127854 4.671609871209689 0.0 0.0
1013.2865154532576 274.21837565065783 627.8114083105572 3.921705617486552 0.0 0.0
908.0803961246108 202.02296205531607 534.7705179562233 3.2998519392466275 0.0 0.0
817.1168724712439 145.64404390152032 452.4801400922503 2.810957179533423 0.0 0.0
736.7999788133778 103.55984862883521 376.18956313786697 2.505430069419095 0.0 0.0
660.4225420792369 72.0223739073242 300.7187287495832 2.039189572084396 0.0 0.0
581.1663432716879 59.88839234480243 232.97369271937316 1.205152607052927 0.0 0.0
518.6064839752933 32.86640636047957 170.4526080060628 2.1107718382329317 0.0 0.0
424.93228967962557 16.04753991599005 131.69409025358465 4.175668419431983 0.0 0.0
464.52719789398793 43.32126265124341 151.01567648045713 31.541116357295305 0.0 0.0
1063.4736030564525 616.3338555707718 714.6326406864976 22.245791262681514 0.0 0.0
-851.3822833156672 -1615.9433060837655 -1148.1809713523105 -2.944375711246728 0.0 0.0
-1083.0703041825607 -1812.8155036317075 -1318.6038598963642 5.815488497623578 0.0 0.0
713.4287957960825 354.07123677052954 443.14313038901645 -40.537952500488124 0.0 0.0
320.4571014677692 13.430012340589498 100.20269377506062 -24.35618662194774 0.0 0.0
376.9946392164613 3.351279966637326 114.08850551849042 -16.073283250398585 0.0 0.0
461.0027120657374 13.153230332996303 144.10365871890488 -15.136286168379723 0.0 0.0
539.080267523796 16.82319465820295 191.49461754914796 -17.301681619223753 0.0 0.0
597.9477783410483 24.144548264980713 249.43218052822976 -19.478924337928067 0.0 0.0
661.1866113425665 39.902362068007804 310.6436081394332 -20.146795148184303 0.0 0.0
722.2044915086223 61.8040684033005 368.1544417479697 -20.052794131702438 0.0 0.0
786.3025355213597 91.62679122020971 424.88607749739725 -19.77734189744174 0.0 0.0
855.3976873149862 128.5297828900656 483.2250449406228 -19.233636418316635 0.0 0.0
928.5567950263815 169.18779590061698 542.7781396729187 -18.72986637237639 0.0 0.0
1001.4306411806942 211.3285559212777 601.3316714353359 -18.131320955564643 0.0 0.0
1072.058160494388 248.755117629338 655.551341760597 -17.52495377150777 0.0 0.0
1133.6825815117418 277.08999670315916 700.4407630380698 -17.161925023536053 0.0 0.0
1181.2603260023675 292.3296452527282 731.7219673480389 -16.882531723380193 0.0 0.0
1212.0670809811559 293.20104246425115 747.523612843316 -16.261482300039155 0.0 0.0
1227.5511440595044 282.7147202584755 750.1530748074117 -14.738590558052987 0.0 0.0
1230.5194613915432 265.20233443282484 743.203039286236 -12.127610676253383 0.0 0.0
1213.7906726671902 234.92605087722683 720.3386013463581 -9.01571265234773 0.0 0.0
1180.417001471014 197.97492710162632 686.0448092194023 8.759215575082635e-12 0.0 0.0
1213.7906726670203 234.92605087707759 720.3386013461355 9.015712652366746 0.0 0.0
1230.5194613916228 265.20233443293125 743.2030392863028 12.127610676291589 0.0 0.0
1227.5511440593568 282.71472025836385 750.1530748072512 14.738590558077192 0.0 0.0
1212.0670809812145 293.201042464369 747.5236128432591 16.26148230009808 0.0 0.0
1181.2603260018502 292.3296452522594 731.7219673476167 16.882531723405528 0.0 0.0
1133.6825815117043 277.08999670320134 700.440763037899 17.161925023558155 0.0 0.0
1072.05816049392 248.75511762895118 655.5513417602209 17.524953771485894 0.0 0.0
1001.4306411805145 211.32855592122365 601.3316714351325 18.13132095558548 0.0 0.0
928.5567950262651 169.1877959006536 542.7781396727944 18.729866372399496 0.0 0.0
855.3976873147415 128.5297828899805 483.22504494037304 19.233636418330597 0.0 0.0
786.3025355208708 91.62679121988766 424.8860774969825 19.77734189740479 0.0 0.0
722.2044915084293 61.80406840329934 368.1544417477247 20.05279413169053 0.0 0.0
661.1866113418085 39.902362067434225 310.64360813884366 20.146795148131496 0.0 0.0
597.9477783409862 24.144548265206012 249.43218052806458 19.478924337932256 0.0 0.0
539.080267523433 16.823194658095957 191.4946175488712 17.301681619189026 0.0 0.0
461.00271206552543 13.153230333118039 144.1036587188406 15.136286168397707 0.0 0.0
376.994639216217 3.351279966558738 114.08850551841014 16.07328325038716 0.0 0.0
320.4571014677472 13.43001234056634 100.20269377504711 24.356186621868414 0.0 0.0
713.4287957956836 354.07123677015005 443.1431303885526 40.53795250051401 0.0 0.0
-1083.070304180902 -1812.815503629941 -1318.6038598945534 -5.815488498118077 0.0 0.0
-877.6954751173903 -1572.7062188648704 -1084.1092980541557 -36.27354830812164 0.0 0.0
517.8778921805801 255.45997042241103 312.2237175099991 -101.55340330409264 0.0 0.0
235.27693374641552 28.62279205755535 79.16985207671439 -23.145957956223107 0.0 0.0
321.5691208105209 -1.6192610483568228 95.97584042889976 -35.072786285293006 0.0 0.0
412.4880285030642 9.009449053017144 126.31865388006676 -36.61897411714759 0.0 0.0
507.88453091218094 13.581150502767239 169.1882482709802 -34.50724180052236 0.0 0.0
569.4171081719528 23.71276678144895 226.9024340848134 -37.118751640252945 0.0 0.0
635.004970941262 34.19317626692245 286.6973668177777 -38.48432077152806 0.0 0.0
695.417523985773 54.010391704063665 344.7656140648078 -38.611398246987555 0.0 0.0
757.1933994016273 80.22132673738443 400.3106931076519 -38.148416858536564 0.0 0.0
822.3176557746115 112.96318892724474 456.0566795602857 -37.267290104705054 0.0 0.0
890.5636343235401 150.48037772451858 512.6586377891365 -36.07577043876236 0.0 0.0
960.9201003531656 188.01261804650645 568.2734476493634 -34.90156933236829 0.0 0.0
1026.8945561126957 222.55925691717653 619.0753321889672 -33.80234149788539 0.0 0.0
1085.226311862069 247.78990225672493 660.851738412077 -33.05968912128295 0.0 0.0
1130.3997612740839 260.8800801587913 689.8743675367238 -32.404740079989224 0.0 0.0
1161.279517066152 261.98985592923736 705.8435599112161 -31.081135966112207 0.0 0.0
1178.161283329252 252.87091873433982 709.9377664836413 -28.256182781106904 0.0 0.0
1179.42619760158 233.38834370770905 701.2898623466058 -23.66344830197702 0.0 0.0
1167.8336250887958 208.07390426865132 683.3126430743044 -17.20237318463186 0.0 0.0
1123.7198530624419 160.49452292448174 638.6303005266604 2.5873525544284348e-11 0.0 0.0
1167.833625089037 208.07390426891845 683.3126430744128 17.20237318470855 0.0 0.0
1179.426197601831 233.38834370798548 701.2898623468063 23.663448302053574 0.0 0.0
1178.1612833290394 252.87091873416054 709.9377664834674 28.25618278113474 0.0 0.0
1161.2795170661398 261.9898559292799 705.8435599111033 31.081135966146505 0.0 0.0
1130.3997612738037 260.88008015857673 689.8743675364703 32.40474007998817 0.0 0.0
1085.2263118613125 247.78990225602848 660.8517384114385 33.059689121309745 0.0 0.0
1026.8945561119792 222.55925691654252 619.0753321884011 33.80234149786405 0.0 0.0
960.9201003526551 188.01261804612548 568.2734476488915 34.90156933242301 0.0 0.0
890.5636343233208 150.48037772445537 512.658637788941 36.07577043884439 0.0 0.0
822.3176557741259 112.96318892689551 456.0566795598937 37.26729010468773 0.0 0.0
757.193399401192 80.22132673712117 400.3106931072688 38.14841685848404 0.0 0.0
695.4175239853844 54.01039170384887 344.7656140644301 38.61139824694952 0.0 0.0
635.0049709407592 34.193176266649246 286.6973668173529 38.48432077151925 0.0 0.0
569.4171081716166 23.71276678136108 226.9024340844991 37.11875164021768 0.0 0.0
507.88453091179684 13.581150502669058 169.18824827072606 34.5072418005026 0.0 0.0
412.4880285028 9.009449053159914 126.31865388003189 36.618974117173444 0.0 0.0
321.56912081041145 -1.6192610483278385 95.9758404288776 35.07278628524275 0.0 0.0
235.27693374636823 28.622792057351596 79.1698520766391 23.145957956144308 0.0 0.0
517.8778921803096 255.45997042229655 312.22371750968404 101.55340330399001 0.0 0.0
-877.6954751158116 -1572.7062188632283 -1084.10929805243 36.273548307753614 0.0 0.0
-701.2429955892537 -1363.340095696991 -881.6142499466969 -52.6208529138473 0.0 0.0
377.9293512486642 160.6063930457545 211.81703171248714 -139.72583810126605 0.0 0.0
174.70995956206747 36.411380476785816 63.336402011655984 -45.16776244687141 0.0 0.0
267.73567590777145 3.2043298118919203 81.28751715794283 -51.93519270810636 0.0 0.0
358.88956377077596 4.099987069292196 108.5103432527091 -59.03426365742396 0.0 0.0
460.9587756376286 9.099957408899417 145.6329947668457 -54.831495938685954 0.0 0.0
541.9879732215586 19.152311977078 200.54004672969336 -56.4352567731791 0.0 0.0
603.3953315640068 28.847175610957017 259.2174414295021 -57.22219065754932 0.0 0.0
664.41991247834 46.01963715182161 317.5982377836663 -57.0235034524357 0.0 0.0
724.1367883172985 68.98734170943844 372.5777257856847 -56.23759553337307 0.0 0.0
785.0806052381993 97.65260007890072 426.02281111580294 -54.81040134369508 0.0 0.0
849.5541589447832 130.32801885888975 479.5928437021348 -53.076800087017475 0.0 0.0
915.211333875354 165.4033430721834 532.6177918623681 -51.196403415514865 0.0 0.0
978.3883143956817 194.96389577998463 579.9796157546558 -49.76064712832555 0.0 0.0
1032.872533967877 217.30503163516718 618.5733568293928 -48.68836585826314 0.0 0.0
1076.5117518130137 229.78246498690615 646.5615135186519 -47.629576555163126 0.0 0.0
1107.962428631512 231.21805905284157 662.9775861764145 -45.81001598657989 0.0 0.0
1125.653950790484 222.59933860522966 667.8181143967415 -42.03458889568393 0.0 0.0
1128.6612146685566 204.3455836358333 660.7097094812818 -35.50107222558578 0.0 0.0
1119.4408841886548 180.69305724685677 644.6792237934887 -24.99869118472768 0.0 0.0
1055.796568607124 113.3913460326997 581.0099335506108 3.611422272342679e-11 0.0 0.0
1119.4408841886682 180.69305724690082 644.6792237935035 24.998691184861418 0.0 0.0
1128.6612146679554 204.34558363524798 660.7097094808057 35.50107222566513 0.0 0.0
1125.6539507903267 222.59933860513053 667.818114396653 42.03458889579013 0.0 0.0
1107.962428631352 231.21805905271734 662.97758617619 45.810015986633935 0.0 0.0
1076.5117518129869 229.78246498695657 646.5615135185552 47.6295765551927 0.0 0.0
1032.8725339675425 217.305031634917 618.5733568291015 48.68836585831223 0.0 0.0
978.3883143953083 194.9638957797139 579.9796157543151 49.76064712838744 0.0 0.0
915.2113338754606 165.403343072443 532.617791862325 51.196403415563275 0.0 0.0
849.554158944193 130.32801885842076 479.59284370166705 53.07680008704422 0.0 0.0
785.0806052376296 97.65260007847158 426.02281111535115 54.81040134369858 0.0 0.0
724.136788316938 68.9873417092554 372.5777257853379 56.23759553334272 0.0 0.0
664.419912477945 46.0196371515964 317.5982377832933 57.023503452344805 0.0 0.0
603.3953315635605 28.847175610735633 259.2174414291125 57.22219065754274 0.0 0.0
541.987973221108 19.15231197688735 200.54004672933192 56.43525677310494 0.0 0.0
460.9587756372174 9.099957408880075 145.63299476666873 54.83149593862408 0.0 0.0
358.8895637705549 4.099987069448014 108.51034325269661 59.03426365741751 0.0 0.0
267.73567590770296 3.2043298119661134 81.28751715794331 51.935192708036936 0.0 0.0
174.70995956206733 36.411380476688024 63.33640201162659 45.16776244674054 0.0 0.0
377.9293512483706 160.60639304566726 211.81703171221457 139.72583810112013 0.0 0.0
-701.2429955879792 -1363.3400956955977 -881.6142499452145 52.620852913629655 0.0 0.0
-549.2283090900211 -1177.000060810021 -705.2924994924057 -56.91202930409415 0.0 0.0
278.0680465035648 79.84672330345451 137.54087827218945 -166.6057555559848 0.0 0.0
128.94840954509738 35.4506468575421 49.319716920791834 -73.0045265693166 0.0 0.0
217.3072716952364 10.087762007881246 68.21778824084406 -70.61729833360779 0.0 0.0
303.40720848462223 3.1222595425927575 92.01340969320447 -79.27760841057487 0.0 0.0
405.19264823225393 1.6415012292634543 121.78720460359337 -80.08404736784284 0.0 0.0
500.67269200202145 12.262369809961065 170.29203577960897 -76.04568047906291 0.0 0.0
566.1764739104395 26.14238675744332 229.35153730964183 -75.62945051046478 0.0 0.0
627.6299374274207 38.21464328188925 286.028705853495 -75.36608219747599 0.0 0.0
685.772729110093 57.869287074255304 340.5847931454221 -74.00015160812704 0.0 0.0
743.7610419535308 82.03281284376929 392.286953378421 -72.03648908443185 0.0 0.0
803.9434026391813 110.29258398637688 443.2510288512984 -69.64259350947951 0.0 0.0
865.8777754875317 140.1186249431077 493.0272226420544 -67.32254224152203 0.0 0.0
924.5825947925333 168.01552556510228 538.199823827004 -65.38270769706384 0.0 0.0
976.560550527172 187.0429448774552 574.1989978313202 -63.999567412055 0.0 0.0
1018.4533328014861 197.0381569148967 600.1359689594335 -62.69033988539828 0.0 0.0
1050.538371520068 199.97887960622916 617.6315215199882 -60.49851880426334 0.0 0.0
1070.5415575154661 193.3750680032962 624.6959177261411 -56.038185545258514 0.0 0.0
1076.1571997597841 176.78634906349092 619.788084191316 -47.5882133738162 0.0 0.0
1067.3830902905222 152.1003793693456 603.4717023107413 -33.13375287246334 0.0 0.0
979.0314265959689 59.74725416897296 515.8635145861333 7.158185155731189e-11 0.0 0.0
1067.3830902903212 152.1003793691757 603.4717023106424 33.13375287265538 0.0 0.0
1076.1571997591127 176.78634906285035 619.7880841908286 47.58821337391814 0.0 0.0
1070.5415575152645 193.3750680031485 624.6959177259946 56.03818554540193 0.0 0.0
1050.5383715194064 199.97887960560934 617.6315215194619 60.49851880432817 0.0 0.0
1018.4533328012362 197.0381569147323 600.1359689591985 62.69033988545986 0.0 0.0
976.5605505268792 187.04294487721472 574.1989978310659 63.999567412089284 0.0 0.0
924.5825947926263 168.0155255653415 538.1998238270023 65.3827076971406 0.0 0.0
865.877775488041 140.1186249437425 493.0272226423238 67.32254224156858 0.0 0.0
803.9434026387003 110.29258398602208 443.2510288509205 69.64259350944607 0.0 0.0
743.7610419529854 82.03281284333647 392.2869533779579 72.03648908435768 0.0 0.0
685.7727291098965 57.869287074282816 340.5847931451864 74.00015160815066 0.0 0.0
627.6299374270286 38.21464328167825 286.0287058531334 75.36608219742467 0.0 0.0
566.176473910125 26.142386757394494 229.35153730934397 75.62945051041147 0.0 0.0
500.67269200156574 12.262369809769073 170.29203577929238 76.04568047900035 0.0 0.0
405.1926482317393 1.6415012291030233 121.78720460338442 80.08404736777507 0.0 0.0
303.40720848450655 3.1222595427972584 92.01340969323257 79.27760841050278 0.0 0.0
217.30727169510251 10.08776200780723 68.21778824078184 70.61729833349962 0.0 0.0
128.94840954508737 35.450646857528056 49.31971692078461 73.00452656916512 0.0 0.0
278.06804650325483 79.84672330334386 137.54087827195585 166.6057555558166 0.0 0.0
-549.2283090889316 -1177.0000608087537 -705.292499491124 56.91202930398735 0.0 0.0
-416.7817950889265 -1011.760198836813 -552.7723326509519 -62.54666211701729 0.0 0.0
199.96384564272333 20.054480269663372 83.1531572745219 -177.90930042457813 0.0 0.0
92.29720762783916 29.071251531293612 36.41053774773983 -99.40310941131702 0.0 0.0
170.2268278478687 15.661248163964062 55.7664228035498 -90.25755441211966 0.0 0.0
249.79005499077766 4.0882345210313105 76.17372762053417 -98.18282680045301 0.0 0.0
337.61433006037595 0.13927845467091252 100.80161195234425 -102.3905358767515 0.0 0.0
436.27485992539914 7.021109448258593 139.66619208118144 -98.44530990116063 0.0 0.0
524.4566391217293 16.993369124118665 192.8675510893743 -96.40268074570972 0.0 0.0
580.7170314555997 32.677089292865396 249.89221511266882 -92.45407637585956 0.0 0.0
641.2385768192281 46.553134464325964 303.04199333254394 -91.61651967182546 0.0 0.0
696.4892439878311 66.4213213304412 353.502061100846 -88.9604163945652 0.0 0.0
752.609271613571 90.02247181602307 402.18623426556013 -85.91422033842885 0.0 0.0
810.2516223521269 115.8203129529527 449.59414124437114 -82.99786927158624 0.0 0.0
865.5868539768039 138.7186624050991 491.82430453274577 -80.75279437333211 0.0 0.0
914.6578888065739 156.01075536117824 526.170800008968 -79.10206939020124 0.0 0.0
955.0336200725956 165.64759591209724 551.4290740518729 -77.33814147482997 0.0 0.0
987.7007750903405 167.52821091990876 568.6596201082842 -75.07728089904695 0.0 0.0
1010.5687696940308 163.70702655317592 578.5987016132141 -70.20563520762109 0.0 0.0
1020.1828219420646 150.40888468709008 577.4521162579716 -60.091316102216695 0.0 0.0
1011.4914879229557 123.47443865642727 560.1267768486084 -42.05111594666629 0.0 0.0
892.6130500496897 0.20134123050641506 443.1674813378757 4.3089087853331876e-11 0.0 0.0
1011.49148792302 123.47443865654068 560.1267768487284 42.05111594679799 0.0 0.0
1020.1828219417405 150.4088846868321 577.4521162577353 60.091316102391346 0.0 0.0
1010.5687696940817 163.70702655331695 578.598701613204 70.20563520782206 0.0 0.0
987.7007750895006 167.52821091909865 568.6596201076304 75.07728089911068 0.0 0.0
955.0336200724897 165.64759591203568 551.429074051775 77.33814147480747 0.0 0.0
914.6578888058931 156.01075536058792 526.1708000084502 79.10206939022306 0.0 0.0
865.5868539768112 138.71866240521433 491.82430453271155 80.75279437343005 0.0 0.0
810.2516223522535 115.82031295323281 449.5941412444081 82.99786927165016 0.0 0.0
752.609271613464 90.022471816064 402.18623426542547 85.9142203384553 0.0 0.0
696.4892439873523 66.42132133007892 353.50206110042154 88.96041639447866 0.0 0.0
641.2385768189458 46.55313446422949 303.04199333227893 91.61651967180332 0.0 0.0
580.7170314552328 32.67708929270617 249.8922151123338 92.45407637582818 0.0 0.0
524.4566391215068 16.993369124248208 192.86755108917328 96.40268074571227 0.0 0.0
436.274859924959 7.02110944814901 139.66619208094446 98.44530990110513 0.0 0.0
337.6143300599443 0.13927845461259647 100.8016119522134 102.39053587669 0.0 0.0
249.79005499065937 4.088234521182754 76.1737276205429 98.1828268003336 0.0 0.0
170.2268278478025 15.66124816399966 55.76642280354065 90.25755441198552 0.0 0.0
92.29720762784345 29.071251531318573 36.410537747748606 99.40310941116881 0.0 0.0
199.9638456424285 20.05448026957295 83.15315727433229 177.9093004243858 0.0 0.0
-416.7817950880656 -1011.7601988357379 -552.7723326499029 62.54666211696866 0.0 0.0
-305.9484486476285 -857.8325203253622 -423.1601120121138 -68.73675517960105 0.0 0.0
139.78189749483798 -27.67450210042202 42.92593746703795 -182.85617285686885 0.0 0.0
61.43769595297043 20.999108228745637 24.731041254514817 -121.53385679418297 0.0 0.0
126.15993461620863 19.090332190818135 43.57508004210803 -109.2157429164125 0.0 0.0
195.78901592208902 6.714842735997616 60.75795643577917 -115.14684406756851 0.0 0.0
268.27737008022467 -0.7693282548364138 80.11209075186072 -121.906431352761 0.0 0.0
365.47285535261483 -2.2167951233287075 108.4692800080202 -125.21830536693972 0.0 0.0
452.28060972598496 11.703075553463895 153.88831262169413 -116.46216479063088 0.0 0.0
530.9862486974174 19.607750914451792 205.09288150172162 -114.29184013528882 0.0 0.0
584.800297573107 36.716096907574006 258.6766891126919 -108.0070107059246 0.0 0.0
641.218438461595 50.63221978744588 307.3845896959376 -105.53979655381494 0.0 0.0
693.9509062535575 69.28884680718899 354.23129717137306 -102.08300985257712 0.0 0.0
747.3787942996521 90.38058709032558 399.5806483556753 -98.58876030179641 0.0 0.0
798.7508022865468 109.78620771770252 440.1117693697065 -95.92316658882093 0.0 0.0
845.104682254575 124.55627700894694 473.1963879964322 -93.82601925606515 0.0 0.0
884.5257203150122 131.54151892124256 497.13681487932007 -92.15021135400595 0.0 0.0
916.922267097862 136.01321860136437 515.7104964463687 -89.37968330220019 0.0 0.0
943.5242344759765 134.1938655443439 528.5932700628586 -84.29463982203286 0.0 0.0
958.4950510120108 123.72236462648142 531.6641136012526 -73.29463595717891 0.0 0.0
951.0376999895354 95.54253010471822 514.522361681026 -52.270393741443314 0.0 0.0
794.5516096334185 -65.54489143543073 361.93359686228314 3.354116984155553e-11 0.0 0.0
951.037699989239 95.54253010450903 514.5223616808381 52.27039374160467 0.0 0.0
958.4950510121479 123.72236462672544 531.6641136013625 73.29463595743317 0.0 0.0
943.5242344758593 134.19386554430486 528.5932700627646 84.29463982224566 0.0 0.0
916.9222670972669 136.01321860077158 515.7104964458564 89.37968330221375 0.0 0.0
884.5257203148944 131.5415189211716 497.1368148791989 92.1502113539569 0.0 0.0
845.1046822542878 124.55627700873356 473.196387996194 93.82601925605815 0.0 0.0
798.7508022864064 109.78620771769718 440.11176936955417 95.92316658889928 0.0 0.0
747.3787942991646 90.38058708989323 399.5806483552829 98.58876030179682 0.0 0.0
693.9509062536226 69.28884680739073 354.2312971713682 102.08300985255343 0.0 0.0
641.2184384612289 50.63221978724032 307.38458969557746 105.53979655376259 0.0 0.0
584.8002975727004 36.71609690738975 258.67668911237126 108.00701070592837 0.0 0.0
530.9862486970808 19.60775091437405 205.09288150142578 114.29184013526586 0.0 0.0
452.28060972560695 11.70307555344988 153.8883126214704 116.46216479064816 0.0 0.0
365.47285535197466 -2.2167951236576795 108.46928000773012 125.21830536683615 0.0 0.0
268.2773700799323 -0.7693282548817604 80.11209075176357 121.90643135261409 0.0 0.0
195.78901592191792 6.714842735953495 60.75795643571403 115.14684406741884 0.0 0.0
126.15993461621242 19.090332191017367 43.575080042168935 109.21574291627586 0.0 0.0
61.437695952934526 20.99910822879652 24.73104125451931 121.53385679401819 0.0 0.0
139.78189749452517 -27.674502100549994 42.92593746686207 182.85617285663372 0.0 0.0
-305.94844864694045 -857.8325203243801 -423.1601120112716 68.73675517965007 0.0 0.0
-206.36586618842782 -733.7588628870135 -312.915731346513 -87.08156781708145 0.0 0.0
85.93328160966382 -60.406534802368085 11.482880306373456 -178.21068014515183 0.0 0.0
34.795084083017166 13.773514796702665 14.570579663915945 -138.9119907541427 0.0 0.0
84.48022381132529 20.57414758266258 31.516311418196356 -126.06165777738738 0.0 0.0
141.88276744098854 9.328557999052343 45.36468233755683 -129.97150736793552 0.0 0.0
200.59224551379123 0.8499704329032688 60.42451408961122 -137.78375852638467 0.0 0.0
275.0772713428362 -1.864371133297671 81.30573840529382 -145.05445636088018 0.0 0.0
363.5776107490091 0.9301795875669205 112.17773893161225 -141.1795719671314 0.0 0.0
447.39245555126763 11.701078475783703 155.5264817951566 -132.98627151141727 0.0 0.0
517.7393907480212 20.222293747598503 202.47840764146332 -128.82096629819446 0.0 0.0
571.6691922786623 33.971703308380036 249.935329263889 -121.87713437830821 0.0 0.0
622.2284917346697 48.501593952505075 295.1579256176238 -117.57927246539582 0.0 0.0
672.8663997795582 64.4880144260497 338.92613217019465 -114.00265315491811 0.0 0.0
720.3202975403685 79.65241032899183 378.34151142737335 -110.95277949827884 0.0 0.0
764.4270345778515 91.21743413714353 411.11946382740916 -108.54536830617471 0.0 0.0
802.1233795599675 98.30348884732703 435.802994573104 -106.40512281115788 0.0 0.0
835.5568528062629 101.49176390735121 454.8254913034131 -103.95581302454963 0.0 0.0
864.5078986868806 102.48356442600917 470.569384304513 -98.34081006252421 0.0 0.0
886.436261796105 98.42775648382724 480.6518108000785 -86.80424319743142 0.0 0.0
883.5792067735181 70.58801340728971 466.3692325238234 -64.41731272066416 0.0 0.0
679.1620368902844 -137.8632137648749 269.5277715841713 6.257216966787382e-11 0.0 0.0
883.5792067735467 70.58801340744569 466.3692325238923 64.41731272088181 0.0 0.0
886.436261796083 98.42775648387318 480.6518108001133 86.80424319768443 0.0 0.0
864.5078986866336 102.48356442590556 470.569384304332 98.34081006273433 0.0 0.0
835.5568528060569 101.49176390720251 454.8254913031795 103.95581302466213 0.0 0.0
802.1233795597616 98.30348884719248 435.8029945729338 106.40512281119197 0.0 0.0
764.4270345779181 91.21743413736381 411.1194638274449 108.54536830622666 0.0 0.0
720.3202975405106 79.65241032930693 378.3415114274395 110.95277949842213 0.0 0.0
672.8663997788459 64.4880144254195 338.9261321696606 114.00265315496158 0.0 0.0
622.2284917343911 48.501593952342844 295.1579256174202 117.57927246540993 0.0 0.0
571.6691922783752 33.971703308268516 249.9353292636079 121.87713437830287 0.0 0.0
517.7393907477389 20.22229374756651 202.47840764122898 128.82096629817323 0.0 0.0
447.3924555508116 11.701078475596553 155.52648179486204 132.98627151143646 0.0 0.0
363.57761074860565 0.9301795875465562 112.177738931447 141.17957196709457 0.0 0.0
275.0772713422825 -1.8643711337088988 81.30573840501705 145.05445636074828 0.0 0.0
200.59224551360683 0.8499704328913154 60.42451408955361 137.78375852623208 0.0 0.0
141.88276744086753 9.328557998964094 45.364682337493605 129.9715073678182 0.0 0.0
84.48022381127123 20.574147582645193 31.51631141817492 126.06165777722777 0.0 0.0
34.79508408296846 13.773514796734837 14.570579663910983 138.91199075397208 0.0 0.0
85.93328160934458 -60.40653480248345 11.482880306217366 178.21068014490524 0.0 0.0
-206.36586618788277 -733.7588628861586 -312.91573134588265 87.08156781718984 0.0 0.0
-146.87619935887034 -609.0708124973173 -237.02543393130503 -98.2639333095334 0.0 0.0
40.48012008942075 -81.99119633367184 -11.073744023762652 -167.5289057335599 0.0 0.0
10.325539362158016 7.644090103082819 5.392364472018545 -151.68032294651866 0.0 0.0
45.01757068683305 20.654958986754014 19.701758902076115 -139.87290502733674 0.0 0.0
88.4097478545535 11.63961124873735 30.01523924485541 -142.00828417468819 0.0 0.0
131.91614847130475 3.2422247671016646 40.57365011375651 -150.03931390788378 0.0 0.0
182.30939229085212 -1.1095663412261894 54.15830988912216 -159.69796841499587 0.0 0.0
252.55996968129423 -3.0539769850830947 73.8981156430601 -166.12364273354905 0.0 0.0
333.14338477049864 -2.6318230288988604 100.90354734229861 -159.6322298072588 0.0 0.0
408.2678203986579 1.821076825817281 134.87633126234869 -149.985216922727 0.0 0.0
469.6615392189186 15.1414778132001 175.9730177634112 -138.72000325442943 0.0 0.0
524.4241670822154 24.618667483312215 215.8869919294583 -132.66843204062954 0.0 0.0
574.1387598457612 37.42894324916931 257.4686922561114 -128.37650642267454 0.0 0.0
619.1363900288906 48.41709178955802 296.23427260573925 -125.67015692219306 0.0 0.0
660.8431992241261 57.08681149030963 330.22793347007905 -123.14843585559622 0.0 0.0
697.86499792139 62.34239008092527 356.95329604278584 -120.72379384160557 0.0 0.0
732.9609439547519 67.60795018617571 379.93326526531007 -118.4729719073717 0.0 0.0
762.3129249028655 68.54999103394445 397.5649534577932 -112.64285691533617 0.0 0.0
791.867956845268 68.37259183609822 414.22028593373625 -100.72173847331858 0.0 0.0
803.6767837608614 49.503257875700506 412.57631642919245 -79.3742659996015 0.0 0.0
538.4706256944528 -214.4848221720886 163.8689072947543 7.148415193114488e-11 0.0 0.0
803.6767837611994 49.503257876179916 412.5763164295294 79.37426599981299 0.0 0.0
791.8679568449953 68.37259183598972 414.2202859335583 100.72173847360713 0.0 0.0
762.3129249031588 68.54999103439229 397.5649534579538 112.64285691565513 0.0 0.0
732.9609439546191 67.60795018608992 379.93326526515585 118.47297190744612 0.0 0.0
697.8649979209174 62.34239008044618 356.95329604244927 120.72379384159058 0.0 0.0
660.8431992241227 57.08681149044192 330.2279334700814 123.14843585566616 0.0 0.0
619.1363900287452 48.417091789558256 296.23427260561704 125.67015692226755 0.0 0.0
574.1387598460739 37.42894324981475 257.4686922562935 128.37650642286997 0.0 0.0
524.4241670815487 24.618667482576285 215.88699192893156 132.66843204055834 0.0 0.0
469.661539218694 15.141477813147684 175.97301776322152 138.7200032543969 0.0 0.0
408.26782039825116 1.8210768256018026 134.87633126209766 149.98521692265336 0.0 0.0
333.1433847699929 -2.631823029051575 100.90354734208766 159.6322298072804 0.0 0.0
252.5599696808934 -3.0539769852266727 73.89811564289765 166.12364273347526 0.0 0.0
182.30939229083816 -1.1095663407130196 54.15830988927825 159.6979684147958 0.0 0.0
131.91614847121056 3.2422247670719386 40.57365011371999 150.03931390768818 0.0 0.0
88.40974785450908 11.639611248706093 30.015239244832326 142.0082841745413 0.0 0.0
45.01757068683651 20.65495898683405 19.70175890210116 139.8729050271479 0.0 0.0
10.325539362149089 7.644090103116563 5.392364472025768 151.6803229463647 0.0 0.0
40.4801200891742 -81.99119633370753 -11.073744023864396 167.5289057333009 0.0 0.0
-146.8761993585843 -609.070812496648 -237.02543393092964 98.26393330956981 0.0 0.0
-109.14402256370357 -506.6851917890252 -184.0016133093846 -108.00262561143879 0.0 0.0
7.388553705634401 -93.55010885292626 -25.94001326658227 -156.88708917756554 0.0 0.0
-11.997685228677877 2.5707867349843574 -2.8277870295377303 -159.8490220246564 0.0 0.0
7.479382850465392 19.834454685211593 8.194268872596027 -150.13249378396978 0.0 0.0
35.7376789693312 13.581590497995428 14.796945338589683 -150.7542640963487 0.0 0.0
62.768194483488756 5.7152468606885725 20.54253729545002 -158.51212735197566 0.0 0.0
90.40302891001663 0.771566975117758 27.274614626092205 -169.05852879939604 0.0 0.0
124.29948679766186 -0.6499554832846015 37.0592751295496 -175.13127042246626 0.0 0.0
170.11646997871637 0.009635219416678442 51.238926487022226 -173.73536907530917 0.0 0.0
228.72364187290938 -4.886971266525113 67.5216929616846 -168.95603193015836 0.0 0.0
293.20213136268535 -9.715592713996928 86.59943309563089 -166.99351227968722 0.0 0.0
348.62090221022805 -12.523815115030336 107.2661763994274 -157.36184932014137 0.0 0.0
405.05908935609034 -11.16411530121429 131.21771455759486 -151.2216145915515 0.0 0.0
452.88785991570825 -3.865100260289932 159.84803603183144 -143.9505264126444 0.0 0.0
491.60830085840036 7.400540171471494 190.8336384246742 -138.58956094407583 0.0 0.0
527.142629515758 22.16655615896937 222.22527311787098 -138.91359413642644 0.0 0.0
565.0489619338334 31.2373115352925 254.64888516323126 -140.15021383593003 0.0 0.0
599.2759369060568 31.7973126823744 282.1237046156297 -134.42865874194413 0.0 0.0
632.5877551783684 24.82006534515072 303.2790443930987 -120.09815251168567 0.0 0.0
676.6502191614035 26.41631616864786 330.5232489714682 -98.65016514756802 0.0 0.0
340.582368531992 -297.77234640857307 30.68713313495941 3.935340942007315e-11 0.0 0.0
676.6502191614156 26.41631616890519 330.5232489715652 98.65016514780538 0.0 0.0
632.5877551779456 24.82006534480191 303.27904439285226 120.09815251204371 0.0 0.0
599.2759369061046 31.7973126823448 282.1237046156466 134.42865874228283 0.0 0.0
565.0489619332326 31.237311534440607 254.6488851627942 140.15021383594382 0.0 0.0
527.1426295154631 22.1665561586883 222.22527311765376 138.91359413637008 0.0 0.0
491.6083008585693 7.400540171842215 190.83363842479724 138.58956094409666 0.0 0.0
452.8878599154109 -3.8651002605684877 159.8480360316444 143.95052641270985 0.0 0.0
405.0590893565824 -11.164115300343582 131.2177145579704 151.2216145917739 0.0 0.0
348.6209022099798 -12.523815115211114 107.2661763992613 157.3618493200898 0.0 0.0
293.20213136260446 -9.715592713748906 86.59943309567191 166.99351227967153 0.0 0.0
228.7236418725618 -4.886971266678842 67.52169296153873 168.95603193005138 0.0 0.0
170.11646997861934 0.009635219617330826 51.23892648704946 173.73536907533799 0.0 0.0
124.29948679744918 -0.6499554834908445 37.05927512942425 175.13127042242573 0.0 0.0
90.40302891022316 0.7715669757255519 27.274614626337616 169.05852879922978 0.0 0.0
62.76819448330029 5.715246860314039 20.542537295281473 158.5121273517247 0.0 0.0
35.73767896930653 13.581590497951844 14.796945338569289 150.7542640961786 0.0 0.0
7.479382850499915 19.834454685267207 8.194268872623043 150.13249378379572 0.0 0.0
-11.997685228695943 2.5707867349960125 -2.82778702953987 159.8490220244757 0.0 0.0
7.388553705520212 -93.55010885293524 -25.940013266620706 156.88708917737762 0.0 0.0
-109.14402256360886 -506.6851917884588 -184.00161330918496 108.00262561134316 0.0 0.0
-92.09476816870695 -403.3654584864768 -148.67840316466615 -101.56477764286103 0.0 0.0
-12.885802188133104 -99.81098797841472 -33.80509866857749 -149.17189327758064 0.0 0.0
-32.50213909362606 -1.7543986612949847 -10.273272210750306 -163.93254397528105 0.0 0.0
-28.169076366192165 18.573311300398377 -2.87800456919718 -156.53117542994306 0.0 0.0
-15.915520178716323 14.96749448769873 -0.28397976897291244 -155.84224853349792 0.0 0.0
-6.561718668016878 8.22291151259016 0.49840378044736644 -162.24361792766223 0.0 0.0
-2.1018453350293687 2.780296093009398 0.201636541489842 -172.7618287784967 0.0 0.0
-0.3145673109564129 0.41892673385512014 0.0309701925164223 -178.30274455951422 0.0 0.0
0.1283097213206652 -0.1706533910743664 -0.012255279074180336 -179.11475168411383 0.0 0.0
0.1833805337416372 -0.0847698368730363 0.03094839555251383 -173.03534343741165 0.0 0.0
0.11438361114957019 -0.05031173767639885 0.020175591514426827 -169.79427239909418 0.0 0.0
0.021140961390443636 0.027099593364363628 0.007227122661948471 -163.4919367524868 0.0 0.0
-0.5644497929471299 0.3035121590893777 -0.05602019633078825 -161.77212078586965 0.0 0.0
-1.2411588516389713 0.910572565691778 0.023204065166254395 -160.49300877736513 0.0 0.0
1.6924377151462693 0.11358618863535241 0.5128466662792448 -157.51098423745697 0.0 0.0
18.5392561586402 -1.9831326934785807 3.3702542454852207 -148.31666900324987 0.0 0.0
48.48081436996184 3.982468672327883 8.142807715255366 -140.0801037895183 0.0 0.0
131.19154957845723 -7.185773508723493 21.68419668989143 -138.31749268243297 0.0 0.0
268.0713889659043 -60.10548647474417 35.77134907693649 -134.2389637576017 0.0 0.0
398.48382244911465 -53.89918673167056 119.2090166089152 -128.33471336018033 0.0 0.0
-132.1966744373663 -436.38968731005383 -221.2004366615194 -2.284394895468722e-11 0.0 0.0
398.48382244931736 -53.89918673143568 119.2090166090226 128.33471336035683 0.0 0.0
268.0713889652582 -60.105486475803744 35.771349076362014 134.23896375808744 0.0 0.0
131.19154957844847 -7.185773508665108 21.68419668994435 138.31749268281663 0.0 0.0
48.480814369640335 3.98246867169874 8.142807714944084 140.0801037896333 0.0 0.0
18.539256158857306 -1.9831326936671907 3.370254245492248 148.31666900328696 0.0 0.0
1.6924377156698043 0.1135861895198893 0.5128466667208968 157.5109842374439 0.0 0.0
-1.2411588514794332 0.9105725654374233 0.023204065127423235 160.49300877743576 0.0 0.0
-0.5644497926628915 0.30351215907121976 -0.05602019624847898 161.77212078593078 0.0 0.0
0.021140961623114407 0.027099593327216454 0.00722712272647108 163.49193675249106 0.0 0.0
0.11438361119340001 -0.05031173808066569 0.020175591404413495 169.79427239908523 0.0 0.0
0.18338053383289576 -0.08476983700591356 0.030948395539623696 173.03534343730357 0.0 0.0
0.12830972141471797 -0.1706533911012662 -0.012255279053996482 179.1147516841812 0.0 0.0
-0.3145673107598075 0.41892673419391935 0.03097019267711021 178.30274455942484 0.0 0.0
-2.1018453349482904 2.7802960931346354 0.20163654155176802 172.76182877832596 0.0 0.0
-6.561718668024296 8.222911512457738 0.4984037804053978 162.2436179274194 0.0 0.0
-15.91552017873991 14.96749448752047 -0.283979769033579 155.84224853335525 0.0 0.0
-28.169076366240674 18.573311300203812 -2.8780045692703857 156.5311754297795 0.0 0.0
-32.5021390935903 -1.754398661200418 -10.273272210711713 163.93254397509372 0.0 0.0
-12.885802188150118 -99.81098797838192 -33.80509866857204 149.1718932774721 0.0 0.0
-92.09476816857423 -403.3654584860372 -148.67840316449733 101.56477764277123 0.0 0.0
-74.67486290664617 -317.6951780655568 -117.71101229166088 -93.29301548771599 0.0 0.0
-27.259815926782423 -98.95439523437523 -37.864179535285786 -140.824458617484 0.0 0.0
-51.27355349992594 -5.157534032585966 -16.930026162908984 -163.81616405533546 0.0 0.0
-62.09226055112559 17.01935064386568 -13.520329778709963 -158.9248782361241 0.0 0.0
-66.33714662814839 15.720472980556652 -15.186664913531963 -156.91332501014162 0.0 0.0
-75.11278210209025 10.44732622122712 -19.41092346868729 -161.26226924534203 0.0 0.0
-94.55240387279987 4.799214778458751 -26.805109086955433 -170.5975333369359 0.0 0.0
-124.97725776508523 1.42773513695361 -37.02507275147302 -175.35975539138195 0.0 0.0
-169.87393969571553 -0.33912398024005164 -51.25892998754853 -173.71791020596416 0.0 0.0
-228.37917510017806 4.685961343202249 -67.4771880672378 -168.91232211324117 0.0 0.0
-292.9722421950495 9.639820651587446 -86.55176006467924 -166.91560501823588 0.0 0.0
-348.6652516039814 12.616671479598613 -107.23674301159359 -157.60922678780102 0.0 0.0
-405.66504717763826 11.446653637707088 -131.37694569050223 -150.90794557385868 0.0 0.0
-453.61713309932486 4.51096445933009 -160.01090701631836 -143.45208910175992 0.0 0.0
-490.2881111406067 -5.07960052694532 -188.93249479739848 -138.99630672610618 0.0 0.0
-518.4982583482201 -10.736461978477017 -210.4185880271241 -141.2446991966974 0.0 0.0
-535.9942579655954 -8.444236027799342 -219.27727006206047 -147.10691901502153 0.0 0.0
-539.6033015348713 7.847864893855068 -208.33856979981033 -156.94889723417685 0.0 0.0
-528.8738593226024 24.285059232185233 -179.76459473916844 -158.16692471483455 0.0 0.0
-336.9030276881269 13.012725442509627 -116.5230690395242 -101.58972989524501 0.0 0.0
-611.8746215115033 -620.3057623186385 -583.6053519171904 -1.0242473535981844e-10 0.0 0.0
-336.9030276877066 13.012725442993641 -116.52306903919792 101.58972989562682 0.0 0.0
-528.8738593228733 24.285059231636673 -179.76459473939684 158.16692471521807 0.0 0.0
-539.6033015348426 7.847864893820919 -208.33856979979913 156.94889723443657 0.0 0.0
-535.9942579648807 -8.44423602704591 -219.27727006154643 147.10691901506277 0.0 0.0
-518.4982583483934 -10.736461978812862 -210.4185880272259 141.2446991967332 0.0 0.0
-490.288111140008 -5.0796005262545485 -188.93249479694708 138.99630672610834 0.0 0.0
-453.61713309918986 4.510964459264859 -160.01090701623713 143.45208910180068 0.0 0.0
-405.6650471768743 11.446653638138372 -131.37694569007144 150.9079455738748 0.0 0.0
-348.665251603652 12.616671479235556 -107.23674301156339 157.6092267878604 0.0 0.0
-292.9722421947806 9.639820650987234 -86.55176006474974 166.91560501822352 0.0 0.0
-228.37917509973843 4.685961342783196 -67.47718806724603 168.91232211317723 0.0 0.0
-169.87393969525928 -0.33912398005722233 -51.25892998735374 173.71791020597843 0.0 0.0
-124.97725776477793 1.427735137127589 -37.025072751326675 175.35975539130055 0.0 0.0
-94.55240387261657 4.799214778480699 -26.805109086895392 170.59753333679484 0.0 0.0
-75.11278210187454 10.447326221334762 -19.410923468590923 161.26226924512162 0.0 0.0
-66.33714662804799 15.720472980457766 -15.18666491353183 156.91332501001168 0.0 0.0
-62.09226055103366 17.019350643898644 -13.520329778672988 158.92487823596522 0.0 0.0
-51.27355349983483 -5.157534032464326 -16.930026162845554 163.8161640551358 0.0 0.0
-27.259815926830598 -98.95439523443048 -37.864179535316666 140.82445861739635 0.0 0.0
-74.67486290655937 -317.69517806520014 -117.71101229152787 93.29301548763836 0.0 0.0
-59.95829643291042 -243.50186177844893 -91.03804746340779 -83.27775616613468 0.0 0.0
-38.2422965271717 -93.26125354474004 -39.451044819826585 -130.93927499256114 0.0 0.0
-68.68460608064998 -7.5166887666083415 -22.86117625260387 -159.8260818262403 0.0 0.0
-94.39311544096876 15.236309452220636 -23.74890213484543 -157.184064062559 0.0 0.0
-115.39520900270153 15.85869807956265 -29.853160657981686 -154.00637318850636 0.0 0.0
-142.76731531432367 12.228829953307491 -39.10984739202994 -156.21400961537424 0.0 0.0
-185.19769401559043 5.7817394638701405 -53.76469719715057 -160.3966772384242 0.0 0.0
-252.95322665846444 3.7501101301774065 -73.83657318588581 -166.4331771956454 0.0 0.0
-332.9466426633546 2.178614210701385 -100.99763049416059 -159.50282609476085 0.0 0.0
-408.1875470576809 -1.9380530285704651 -134.84419803774762 -149.96083837584658 0.0 0.0
-469.57580006996795 -15.129981196599601 -175.92683864293664 -138.71089560495872 0.0 0.0
-524.3759654305356 -24.58337241793621 -215.87010185860586 -132.63229767891121 0.0 0.0
-574.3404548801884 -37.37442672801619 -257.59682005780667 -128.0352811453071 0.0 0.0
-619.6712461527894 -48.17031392734241 -296.40610364663866 -125.03371422669659 0.0 0.0
-659.6961772093454 -55.1394135002787 -328.75518251567485 -123.10214383490452 0.0 0.0
-690.0967254436695 -55.6362817687856 -349.8891741126848 -123.52834361780894 0.0 0.0
-707.1726310641459 -48.806677430953314 -358.54016853340437 -127.59961094207517 0.0 0.0
-710.1888113477655 -39.600555478201926 -357.3226919188468 -136.13655522833344 0.0 0.0
-694.5000139509575 -23.81459517242051 -342.03790656895444 -145.32581569278094 0.0 0.0
-680.7149966354754 -25.835442388911808 -331.80243355425125 -142.79600105002015 0.0 0.0
-1248.9820593731763 -846.7320101268639 -984.0337264424293 3.0169644560373854e-11 0.0 0.0
-680.7149966351024 -25.835442388606978 -331.8024335540723 142.79600105025506 0.0 0.0
-694.5000139508525 -23.814595172490208 -342.0379065689011 145.32581569304097 0.0 0.0
-710.1888113475708 -39.600555478182514 -357.3226919186703 136.13655522852258 0.0 0.0
-707.1726310639527 -48.80667743081361 -358.5401685332777 127.59961094220466 0.0 0.0
-690.0967254433002 -55.63628176852356 -349.8891741124552 123.52834361779293 0.0 0.0
-659.6961772092175 -55.13941350029448 -328.7551825155432 123.10214383499446 0.0 0.0
-619.671246152749 -48.170313927511444 -296.4061036465712 125.0337142267673 0.0 0.0
-574.3404548796003 -37.37442672756742 -257.5968200574173 128.03528114538233 0.0 0.0
-524.3759654304279 -24.583372418162483 -215.87010185849223 132.6322976789467 0.0 0.0
-469.57580006946097 -15.12998119635797 -175.9268386425805 138.71089560493488 0.0 0.0
-408.18754705726036 -1.9380530286788966 -134.84419803754716 149.96083837588702 0.0 0.0
-332.94664266272997 2.1786142109118813 -100.99763049388186 159.50282609475312 0.0 0.0
-252.95322665802533 3.7501101300875272 -73.8365731857822 166.43317719560397 0.0 0.0
-185.19769401537408 5.781739463510158 -53.76469719720319 160.39667723821606 0.0 0.0
-142.76731531394861 12.228829953691566 -39.109847391802475 156.2140096151797 0.0 0.0
-115.39520900254209 15.858698079570622 -29.85316065793222 154.00637318833947 0.0 0.0
-94.39311544084457 15.236309452289317 -23.74890213478812 157.18406406241016 0.0 0.0
-68.68460608058118 -7.516688766550741 -22.86117625256564 159.8260818260624 0.0 0.0
-38.24229652717722 -93.2612535447371 -39.45104481982738 130.93927499243435 0.0 0.0
-59.95829643282579 -243.50186177817608 -91.03804746330056 83.27775616604409 0.0 0.0
-48.36152810941305 -180.10659451428864 -68.54043678711051 -72.77522880617619 0.0 0.0
-47.09166148412988 -84.11096025916144 -39.36078652298738 -119.28452423946658 0.0 0.0
-85.10143789169555 -8.746509599778932 -28.15538873473771 -151.9960115464111 0.0 0.0
-125.28568220713126 13.329483188500285 -33.58422497591041 -151.44783723332188 0.0 0.0
-162.80395939699673 15.168142253540687 -44.285732687952446 -146.79787827034045 0.0 0.0
-207.57177175894367 12.864311874581679 -58.50835897386796 -144.90790722874044 0.0 0.0
-279.17354830402485 8.14449819037031 -80.1604814865738 -150.10399675993386 0.0 0.0
-363.8523120839444 -0.714784281930557 -112.24232669710625 -141.47506266328924 0.0 0.0
-447.44125995257605 -12.022379056045207 -155.58964916458154 -132.89962753048505 0.0 0.0
-517.819276713954 -20.36096695968811 -202.52309517377918 -128.76303103159708 0.0 0.0
-571.5856347105484 -33.963966940229454 -249.9156347837465 -121.83157647956122 0.0 0.0
-622.1233649935547 -48.39862863545567 -295.07642236740844 -117.54662309732605 0.0 0.0
-672.9173632575436 -64.44526448927144 -338.9168216238819 -113.70066822075091 0.0 0.0
-720.9408922565672 -79.80552721455311 -378.6685025083263 -110.20261251230909 0.0 0.0
-764.327403689941 -90.4172654213157 -410.6907807968825 -108.00088257462407 0.0 0.0
-796.7785249106583 -93.30539331888522 -430.8715199570886 -108.53806847541381 0.0 0.0
-814.8426786643993 -85.06572807512832 -437.42453152602246 -112.77517612734326 0.0 0.0
-812.0660975265405 -64.64458851386793 -427.43372502411404 -120.68581135214657 0.0 0.0
-789.121929045163 -36.50973679996751 -402.9638420223732 -129.12405556898702 0.0 0.0
-740.7471160068661 -2.107712949715687 -363.82520372652345 -133.29249527630074 0.0 0.0
-1660.0721459156455 -1065.8272721852472 -1305.6781603426996 8.285994113066408e-11 0.0 0.0
-740.7471160070834 -2.1077129500871052 -363.8252037267535 133.29249527656478 0.0 0.0
-789.1219290444 -36.509736799299695 -402.9638420218167 129.12405556917284 0.0 0.0
-812.0660975262573 -64.6445885136749 -427.43372502390736 120.6858113523229 0.0 0.0
-814.8426786646089 -85.06572807549053 -437.42453152615354 112.77517612746541 0.0 0.0
-796.7785249100922 -93.30539331828447 -430.8715199566661 108.53806847536137 0.0 0.0
-764.327403689692 -90.41726542125065 -410.69078079663456 108.00088257466875 0.0 0.0
-720.9408922565915 -79.80552721475776 -378.6685025083181 110.2026125123987 0.0 0.0
-672.9173632576964 -64.44526448964112 -338.91682162395796 113.70066822081988 0.0 0.0
-622.1233649933084 -48.39862863541034 -295.0764223671418 117.54662309728415 0.0 0.0
-571.5856347102255 -33.963966940126696 -249.9156347834821 121.83157647951404 0.0 0.0
-517.8192767134201 -20.36096695945345 -202.52309517336656 128.76303103156226 0.0 0.0
-447.44125995231605 -12.022379056302828 -155.58964916443293 132.89962753054647 0.0 0.0
-363.8523120833379 -0.7147842817359665 -112.24232669682522 141.47506266329682 0.0 0.0
-279.17354830369084 8.144498190017499 -80.16048148659003 150.10399675978982 0.0 0.0
-207.57177175847067 12.864311874934511 -58.508358973623075 144.90790722857105 0.0 0.0
-162.8039593967726 15.16814225349789 -44.28573268789903 146.79787827015343 0.0 0.0
-125.28568220694694 13.32948318860095 -33.58422497582566 151.44783723314706 0.0 0.0
-85.10143789159788 -8.74650959975363 -28.15538873470052 151.9960115462727 0.0 0.0
-47.09166148405047 -84.11096025903963 -39.36078652292703 119.28452423936808 0.0 0.0
-48.3615281093676 -180.1065945141188 -68.54043678704592 72.77522880611315 0.0 0.0
-39.76336256828553 -126.92781566876764 -50.00735347111594 -62.02363493461608 0.0 0.0
-54.49935641940483 -72.79802507869245 -38.189214449429194 -105.94220075406578 0.0 0.0
-100.72706984518776 -8.812949736466742 -32.862400222627514 -140.5103719471981 0.0 0.0
-154.8990783253343 11.185673028223437 -43.12068507554981 -141.5588568054088 0.0 0.0
-208.4330922239372 13.930799556737615 -58.34081870661548 -135.5760785248808 0.0 0.0
-273.45795518742386 13.781051920323607 -77.40399025051124 -132.05264257724625 0.0 0.0
-363.5836161709516 4.531372882161932 -108.03318305133065 -125.85721611305465 0.0 0.0
-452.0136150497945 -11.667481953088593 -153.81662825367712 -116.74775183108432 0.0 0.0
-531.2102545566709 -19.929938745936557 -205.2314968715662 -114.15257159020493 0.0 0.0
-584.9210567967019 -36.848412110062526 -258.7759961086499 -107.93202446712691 0.0 0.0
-641.1913933099188 -50.565434656400555 -307.36176613770635 -105.53457971262748 0.0 0.0
-693.7540739365223 -69.09395945985383 -354.0583812673689 -102.0535592503069 0.0 0.0
-747.1503494144403 -90.16091829249123 -399.326967348631 -98.35554688005897 0.0 0.0
-799.2721855627358 -110.10953328420995 -440.4602521207512 -95.19024515655192 0.0 0.0
-846.3714869231173 -125.2979733870486 -474.1966717383189 -92.97171705217353 0.0 0.0
-883.2014418491931 -130.09082958338814 -495.9064882120124 -93.5813923637819 0.0 0.0
-900.4024480796135 -121.56566545984761 -501.1768241120107 -96.79876369182699 0.0 0.0
-890.5246232751342 -89.97389571703002 -481.81666913183346 -103.28015673425097 0.0 0.0
-849.7543460747152 -40.45831093446682 -438.3157820604979 -111.84420004778882 0.0 0.0
-772.4587893409253 23.998133341375087 -370.5707324021398 -119.94794635356944 0.0 0.0
-1975.130821368783 -1285.251776666298 -1579.940526823483 9.938716516444401e-11 0.0 0.0
-772.4587893410844 23.9981333410999 -370.5707324022725 119.9479463537809 0.0 0.0
-849.7543460742221 -40.45831093400941 -438.31578206010823 111.8442000479133 0.0 0.0
-890.5246232755944 -89.9738957176634 -481.8166691321219 103.28015673446005 0.0 0.0
-900.4024480794192 -121.56566545972089 -501.1768241118527 96.79876369194767 0.0 0.0
-883.2014418490264 -130.09082958334142 -495.90648821185425 93.5813923638177 0.0 0.0
-846.3714869227895 -125.29797338676923 -474.19667173802077 92.97171705223185 0.0 0.0
-799.2721855624443 -110.10953328407993 -440.4602521204999 95.19024515657637 0.0 0.0
-747.150349414119 -90.16091829234745 -399.32696734838754 98.35554688012425 0.0 0.0
-693.7540739360873 -69.0939594595821 -354.0583812669873 102.05355925030634 0.0 0.0
-641.1913933096577 -50.56543465637718 -307.36176613746795 105.53457971262844 0.0 0.0
-584.9210567963048 -36.848412109925654 -258.77599610830146 107.93202446709668 0.0 0.0
-531.2102545561912 -19.92993874583343 -205.2314968711863 114.15257159024178 0.0 0.0
-452.01361504931964 -11.66748195303291 -153.816628253394 116.74775183113677 0.0 0.0
-363.5836161701284 4.531372882658709 -108.03318305093273 125.85721611292918 0.0 0.0
-273.4579551870938 13.781051920216576 -77.40399025044806 132.05264257714867 0.0 0.0
-208.43309222372756 13.930799556605221 -58.340818706593325 135.57607852472464 0.0 0.0
-154.89907832516337 11.185673028245636 -43.1206850754919 141.55885680525995 0.0 0.0
-100.72706984512696 -8.812949736528815 -32.86240022262774 140.5103719470727 0.0 0.0
-54.49935641935144 -72.79802507865362 -38.18921444940152 105.9422007539749 0.0 0.0
-39.76336256819681 -126.92781566860342 -50.00735347104006 62.023634934558736 0.0 0.0
-33.862517233656206 -83.66619499738565 -35.25861366931256 -51.052452960406114 0.0 0.0
-60.73697622294527 -60.360128641902435 -36.32913145945431 -91.03438622292376 0.0 0.0
-115.60733348353465 -7.857216544679098 -37.039365008464124 -125.52841087081356 0.0 0.0
-183.40702849600132 8.942896505602857 -52.34437977338924 -127.72905994943075 0.0 0.0
-251.84491063418434 11.92840577655063 -72.03362266713918 -120.10717055909396 0.0 0.0
-338.7416366836066 12.559324072706499 -96.72773197641078 -113.51423274315103 0.0 0.0
-434.722113866054 -4.4500290555616395 -138.71720066887582 -100.93537820862966 0.0 0.0
-524.3540997109287 -17.159420405701397 -192.87961543842016 -96.58818559386418 0.0 0.0
-580.936432210664 -32.88798158899627 -250.02137906762582 -92.31227489501246 0.0 0.0
-641.3591271751179 -46.63815808856993 -303.14672735735144 -91.561621937839 0.0 0.0
-696.4714739105408 -66.37757234432655 -353.49894786077823 -88.94928428747657 0.0 0.0
-752.3468976329216 -89.7579746665443 -401.942172796963 -85.87870017546575 0.0 0.0
-809.6931005207193 -115.3315151050378 -449.04881965756147 -82.81929816898602 0.0 0.0
-865.7058720098308 -138.89163161013377 -491.91122555235387 -80.16270154284115 0.0 0.0
-917.1862607595953 -158.3177731161706 -528.5835843123119 -78.223486173106 0.0 0.0
-957.9010731254475 -168.09944154332547 -554.2160554200436 -78.02809783169639 0.0 0.0
-976.1526025802948 -156.29344243564577 -557.9506719724508 -80.38017410059042 0.0 0.0
-956.5693056305737 -114.13649336295178 -528.3208925025341 -85.11279319208474 0.0 0.0
-893.8661218515994 -41.87904579484008 -462.8750942709963 -93.47666408969178 0.0 0.0
-789.2247195974088 50.59097538382697 -367.9616167574851 -106.76071155421408 0.0 0.0
-2256.7034444512706 -1505.4577630868748 -1835.9912843259676 6.767209015379194e-11 0.0 0.0
-789.2247195971354 50.59097538402772 -367.9616167572827 106.76071155435865 0.0 0.0
-893.8661218517705 -41.87904579510588 -462.8750942711064 93.47666408986893 0.0 0.0
-956.5693056305802 -114.13649336305025 -528.3208925025235 85.1127931922497 0.0 0.0
-976.1526025804006 -156.29344243579382 -557.9506719724947 80.38017410062224 0.0 0.0
-957.9010731250061 -168.09944154294578 -554.2160554196906 78.0280978316626 0.0 0.0
-917.1862607592573 -158.31777311592012 -528.5835843120088 78.22348617311602 0.0 0.0
-865.7058720091569 -138.89163160956673 -491.91122555181056 80.16270154288243 0.0 0.0
-809.6931005202282 -115.33151510465515 -449.04881965724826 82.81929816897642 0.0 0.0
-752.3468976328338 -89.75797466664082 -401.9421727968193 85.87870017548872 0.0 0.0
-696.4714739100684 -66.37757234400817 -353.49894786038584 88.94928428740342 0.0 0.0
-641.3591271746338 -46.638158088296166 -303.1467273569412 91.56162193775246 0.0 0.0
-580.9364322104287 -32.887981589078834 -250.02137906736192 92.3122748950693 0.0 0.0
-524.3540997105379 -17.159420405664836 -192.8796154380906 96.58818559383695 0.0 0.0
-434.72211386509844 -4.450029054730577 -138.71720066827817 100.9353782085568 0.0 0.0
-338.74163668314503 12.559324072543289 -96.72773197634027 113.51423274303795 0.0 0.0
-251.84491063405073 11.928405776213744 -72.03362266720417 120.1071705589614 0.0 0.0
-183.407028495809 8.942896505626184 -52.34437977332404 127.72905994933765 0.0 0.0
-115.60733348345411 -7.857216544738255 -37.03936500845771 125.52841087065568 0.0 0.0
-60.73697622289238 -60.360128641869686 -36.329131459428616 91.03438622286457 0.0 0.0
-33.86251723360652 -83.66619499727959 -35.25861366926583 51.05245296029011 0.0 0.0
-30.258050129074487 -50.24267928270427 -24.150218823533628 -39.922031025786566 0.0 0.0
-65.7141124230302 -47.59644605627421 -33.99316754379131 -74.7004177062246 0.0 0.0
-129.6662055738636 -6.227794936165553 -40.768200153008735 -107.15049778861824 0.0 0.0
-210.83013382156383 6.77733304057997 -61.22172337722068 -109.86291453807874 0.0 0.0
-295.02777906086953 9.454089425173883 -85.50193550112579 -101.62089976925938 0.0 0.0
-393.46701397986516 2.9608955454795325 -118.77749990278181 -87.38268782719283 0.0 0.0
-499.0907815115678 -9.627944537201602 -168.84319338913312 -78.41137534821944 0.0 0.0
-566.0638694850268 -26.248028836029924 -229.3133034589917 -75.58064908203302 0.0 0.0
-627.8305799709993 -38.318265998246694 -286.15825834849215 -75.24861232795686 0.0 0.0
-685.8912507131084 -57.93603795888306 -340.6921765914875 -73.96760162712442 0.0 0.0
-743.7383335672114 -81.98756983113498 -392.27303799078845 -72.02967864999806 0.0 0.0
-803.6255392783362 -109.97441512265709 -442.94620381363677 -69.59523024393664 0.0 0.0
-865.0945223034222 -139.43489980801465 -492.28552338927227 -67.17331531354547 0.0 0.0
-924.214481578053 -167.8823178113086 -537.9205395036552 -65.01616032301975 0.0 0.0
-979.2294928520116 -189.813683332986 -576.9427158301125 -63.36853613013494 0.0 0.0
-1024.407200667796 -202.58132540086254 -606.0038653509723 -62.698309359897635 0.0 0.0
-1045.1390055061825 -193.85729148026397 -612.3158001268298 -63.359476480057275 0.0 0.0
-1017.6551683317042 -141.9465505240996 -573.7098852449142 -66.27419934945023 0.0 0.0
-931.6050570577324 -44.14060311695248 -483.9767360490042 -75.10392700695974 0.0 0.0
-792.1915886769409 82.42331495105918 -355.0842400670658 -94.75039507395076 0.0 0.0
-2517.569213746363 -1722.4384917486095 -2079.3581065905355 4.410338760862942e-11 0.0 0.0
-792.1915886766549 82.42331495129918 -355.08424006686244 94.75039507408364 0.0 0.0
-931.6050570579674 -44.14060311725421 -483.9767360491723 75.10392700708353 0.0 0.0
-1017.6551683313003 -141.94655052372417 -573.7098852446362 66.27419934953322 0.0 0.0
-1045.1390055063448 -193.85729148047292 -612.3158001268731 63.3594764800585 0.0 0.0
-1024.407200667068 -202.58132540020148 -606.0038653504041 62.69830935989588 0.0 0.0
-979.229492851437 -189.81368333247323 -576.9427158296535 63.368536130139724 0.0 0.0
-924.2144815776028 -167.8823178109619 -537.9205395032806 65.01616032303717 0.0 0.0
-865.0945223028516 -139.43489980753407 -492.2855233888565 67.17331531347072 0.0 0.0
-803.6255392779835 -109.97441512249105 -442.9462038133147 69.59523024395334 0.0 0.0
-743.7383335670547 -81.98756983116776 -392.27303799062054 72.02967865002577 0.0 0.0
-685.8912507124431 -57.93603795836291 -340.69217659094795 73.96760162701106 0.0 0.0
-627.8305799708978 -38.31826599847724 -286.15825834830383 75.24861232800734 0.0 0.0
-566.0638694845884 -26.24802883587698 -229.3133034585994 75.58064908199236 0.0 0.0
-499.09078151090023 -9.627944536795297 -168.84319338867786 78.4113753481958 0.0 0.0
-393.46701397940615 2.9608955453048615 -118.77749990268543 87.38268782711411 0.0 0.0
-295.02777906057224 9.454089425110954 -85.5019355010594 101.6208997692071 0.0 0.0
-210.8301338213065 6.777333040699717 -61.221723377106976 109.86291453798648 0.0 0.0
-129.6662055737614 -6.227794936189679 -40.76820015298532 107.15049778848505 0.0 0.0
-65.7141124229813 -47.5964460562284 -33.9931675437629 74.70041770615651 0.0 0.0
-30.25805012906886 -50.24267928265305 -24.150218823516568 39.9220310257325 0.0 0.0
-28.351579569832815 -26.649996146448405 -16.500472714884364 -28.89326799559553 0.0 0.0
-68.99707481512422 -35.19226083950299 -31.25680069638816 -57.124845723210356 0.0 0.0
-142.65255977515176 -4.42254918073602 -44.122532686766306 -85.31255742810745 0.0 0.0
-237.241371619334 4.957658719088599 -69.68726271088798 -87.91520466076445 0.0 0.0
-337.6068833581564 4.914426702181643 -99.46382969843255 -78.7749622767127 0.0 0.0
-452.4945870674088 -2.6001981013589432 -140.83316748216654 -63.16241829152713 0.0 0.0
-539.8214047838698 -18.031044883529972 -199.42070830022817 -57.55056911518088 0.0 0.0
-603.28849221923 -28.681677473186028 -259.12646869930285 -57.105538581495544 0.0 0.0
-664.6001255420547 -46.06068760632084 -317.7307038027938 -56.94135455740175 0.0 0.0
-724.2664410816029 -69.06365247918242 -372.6941040256637 -56.222926951983986 0.0 0.0
-785.0270155441063 -97.58088455283885 -425.97211616289553 -54.8049511973667 0.0 0.0
-849.1923392812889 -129.97964159166898 -479.2425530560918 -53.018183866309215 0.0 0.0
-914.4023099527076 -164.71768371526582 -531.8734163657346 -51.06922811454182 0.0 0.0
-977.7326979159448 -194.61502459619032 -579.4899239771884 -49.60706927156919 0.0 0.0
-1034.370518687997 -219.12522387725986 -620.3078694017686 -48.42320281636118 0.0 0.0
-1081.7822496999063 -234.9109581000183 -651.9045768763576 -47.28095632052416 0.0 0.0
-1108.756761712308 -231.18292449627953 -663.5903360916221 -46.428208306824565 0.0 0.0
-1081.3853496319252 -178.26706178845114 -624.3003684227753 -47.24022217771001 0.0 0.0
-971.58773105009 -54.87677510101574 -510.0275342498768 -56.35561140801342 0.0 0.0
-780.6615603966932 124.41786788856604 -329.32129799454646 -82.68739691330717 0.0 0.0
-2759.7033602368047 -1927.6274512635846 -2307.25288671447 6.16893203186919e-11 0.0 0.0
-780.6615603964096 124.41786788880651 -329.32129799436524 82.68739691343269 0.0 0.0
-971.5877310500742 -54.8767751010617 -510.02753424989135 56.35561140813013 0.0 0.0
-1081.3853496316815 -178.26706178823108 -624.3003684225475 47.24022217777446 0.0 0.0
-1108.7567617125594 -231.18292449659805 -663.5903360917617 46.42820830684592 0.0 0.0
-1081.7822496991105 -234.9109580992808 -651.904576875786 47.28095632055846 0.0 0.0
-1034.3705186875432 -219.12522387687997 -620.3078694013927 48.42320281635743 0.0 0.0
-977.7326979155231 -194.61502459586615 -579.4899239768504 49.60706927157035 0.0 0.0
-914.4023099522776 -164.71768371495796 -531.8734163653851 51.069228114546846 0.0 0.0
-849.1923392804927 -129.97964159101105 -479.24255305547746 53.018183866291885 0.0 0.0
-785.0270155439835 -97.58088455291276 -425.97211616274444 54.804951197376546 0.0 0.0
-724.2664410814128 -69.06365247921826 -372.6941040254523 56.22292695196763 0.0 0.0
-664.6001255416899 -46.06068760617244 -317.7307038024213 56.941354557358615 0.0 0.0
-603.2884922188853 -28.681677473105566 -259.12646869895184 57.105538581466725 0.0 0.0
-539.8214047834026 -18.031044883375465 -199.420708299843 57.55056911511092 0.0 0.0
-452.4945870668772 -2.6001981012749966 -140.83316748191535 63.162418291473564 0.0 0.0
-337.60688335775603 4.914426702240487 -99.46382969830213 78.77496227668485 0.0 0.0
-237.24137161916445 4.957658719005842 -69.68726271086135 87.91520466065738 0.0 0.0
-142.65255977505424 -4.422549180796163 -44.122532686755115 85.31255742801932 0.0 0.0
-68.99707481507656 -35.19226083950539 -31.256800696374576 57.12484572312366 0.0 0.0
-28.3515795698113 -26.6499961464163 -16.500472714868277 28.893267995596414 0.0 0.0
-27.115801833045907 -12.716501937957322 -11.949691131300968 -18.660922554828055 0.0 0.0
-69.73603925853443 -23.906599387832756 -28.092791593910157 -38.559977738631744 0.0 0.0
-154.1003714626934 -3.1252251179692383 -47.16767897419879 -59.64548461695221 0.0 0.0
-262.7312354681064 3.754113061616537 -77.69767892375076 -61.56460080860746 0.0 0.0
-380.60207029868326 -2.1960753701466387 -114.77443846359355 -52.34013807580119 0.0 0.0
-499.00840065252356 -10.091812838305458 -164.60410154056441 -39.596892485933076 0.0 0.0
-567.6475997620244 -22.89335745099816 -225.90226853808684 -37.54497885125481 0.0 0.0
-634.7767054856356 -33.57675118484897 -286.432089626566 -38.40011102986406 0.0 0.0
-695.647779193091 -54.109185095620326 -344.96060588323934 -38.55742016695242 0.0 0.0
-757.3114539738947 -80.28401467611349 -400.41188032995217 -38.14438767910938 0.0 0.0
-822.2156355861391 -112.848764110128 -455.95232563220975 -37.261410280987135 0.0 0.0
-890.178953731965 -150.13253525997047 -512.2887389194063 -36.0152302169021 0.0 0.0
-960.2652168432944 -187.49956940125088 -567.7009139913896 -34.80773030989739 0.0 0.0
-1026.2173990634897 -222.1820263318387 -618.6040644142852 -33.79199826629156 0.0 0.0
-1084.9862887175816 -247.93427742460068 -660.9366680618554 -33.08030998793425 0.0 0.0
-1130.6462260941257 -261.36216978509526 -690.4484946506028 -32.06683156055103 0.0 0.0
-1159.9079526741132 -260.55200012875684 -704.5695088058297 -30.35591554822517 0.0 0.0
-1156.477922063688 -231.37791514438288 -688.5870748740244 -28.99454007995446 0.0 0.0
-1032.1879229487893 -90.91722738553682 -558.6563016533574 -35.952827817904556 0.0 0.0
-749.315896181522 183.66620746319137 -284.487448128873 -68.74959436283092 0.0 0.0
-2969.298812450162 -2103.730043839731 -2504.8100705000084 5.3930193644191604e-11 0.0 0.0
-749.3158961813151 183.6662074633772 -284.4874481286985 68.74959436289494 0.0 0.0
-1032.187922948357 -90.91722738513425 -558.6563016530583 35.95282781796153 0.0 0.0
-1156.4779220633754 -231.37791514410145 -688.5870748736995 28.994540079974897 0.0 0.0
-1159.9079526741673 -260.5520001288834 -704.5695088058444 30.355915548269152 0.0 0.0
-1130.646226093642 -261.3621697846641 -690.4484946501768 32.066831560600576 0.0 0.0
-1084.986288717168 -247.93427742427116 -660.936668061487 33.080309987961485 0.0 0.0
-1026.2173990629428 -222.18202633139603 -618.6040644137877 33.79199826632233 0.0 0.0
-960.2652168433874 -187.4995694014923 -567.7009139914235 34.80773030994603 0.0 0.0
-890.1789537314055 -150.13253525957433 -512.2887389189453 36.01523021693546 0.0 0.0
-822.2156355858496 -112.84876411000918 -455.95232563194236 37.26141028097629 0.0 0.0
-757.3114539735221 -80.2840146759468 -400.4118803295946 38.14438767909662 0.0 0.0
-695.6477791927513 -54.109185095493 -344.9606058828944 38.557420166917666 0.0 0.0
-634.7767054851886 -33.57675118464893 -286.4320896261316 38.40011102983955 0.0 0.0
-567.6475997615707 -22.893357450846374 -225.9022685376929 37.54497885121084 0.0 0.0
-499.0084006519737 -10.091812838034617 -164.6041015402066 39.59689248590837 0.0 0.0
-380.6020702982801 -2.1960753702459472 -114.7744384635127 52.34013807574894 0.0 0.0
-262.7312354679759 3.754113061419075 -77.69767892376956 61.5646008085302 0.0 0.0
-154.10037146256755 -3.12522511801328 -47.16767897417425 59.64548461688882 0.0 0.0
-69.73603925846018 -23.906599387825867 -28.092791593885813 38.55997773859304 0.0 0.0
-27.115801833003882 -12.716501937942931 -11.94969113128404 18.660922554827067 0.0 0.0
-24.557735879622243 -7.645879739144576 -9.661084685630044 -10.789900594223036 0.0 0.0
-66.55698033203386 -15.014415738521993 -24.471418821166758 -19.302087689683503 0.0 0.0
-163.12990371659177 -2.986096282898311 -49.83479999984701 -29.212595741752928 0.0 0.0
-288.20645731363044 2.8226229826096336 -85.61695366778733 -30.24480573459528 0.0 0.0
-426.5710582932841 -7.85015639370626 -131.04698477856223 -24.021048294094637 0.0 0.0
-531.947422873725 -17.72014252559172 -188.52780390171716 -18.92489631316277 0.0 0.0
-595.7064796589494 -22.38243976730395 -248.0223472668456 -19.80929827879703 0.0 0.0
-660.9477133779758 -39.529032100245516 -310.59191941434113 -20.13018829770735 0.0 0.0
-722.4945939516288 -61.85088576387679 -368.33429577397237 -20.014495196668467 0.0 0.0
-786.4054682752381 -91.6724888592044 -424.9672694292967 -19.77711216860142 0.0 0.0
-855.2436310224233 -128.37163703958845 -483.0658360970152 -19.225355361902608 0.0 0.0
-928.1753984374377 -168.86841950909104 -542.417656019074 -18.683844255083773 0.0 0.0
-1001.0253623754475 -211.0834449307049 -601.026279085407 -18.084074358595768 0.0 0.0
-1071.4942814306855 -248.44748126137654 -655.2105071507611 -17.57723213440913 0.0 0.0
-1131.6462822583737 -275.4035857984178 -698.7622708606623 -17.278782350093458 0.0 0.0
-1174.9471911409262 -286.5554108192106 -725.9475386603482 -16.685613245917065 0.0 0.0
-1197.547336782819 -279.77167497792925 -733.7777234797104 -15.308001788181631 0.0 0.0
-1209.2364036299875 -266.6184525864304 -732.7914004551922 -13.36306540411653 0.0 0.0
-1173.6539872193564 -213.10494751335818 -689.8337884037808 -15.257294994692135 0.0 0.0
-731.8914007517042 228.29888049858602 -252.97032189630528 -45.410414665484026 0.0 0.0
-3032.6876338069574 -2132.53037689119 -2557.784097828653 3.5152325494891556e-11 0.0 0.0
-731.891400751726 228.29888049853474 -252.97032189622647 45.410414665593194 0.0 0.0
-1173.653987219261 -213.104947513281 -689.833788403637 15.257294994715275 0.0 0.0
-1209.2364036295542 -266.61845258603455 -732.7914004548225 13.363065404092412 0.0 0.0
-1197.5473367822797 -279.7716749774378 -733.777723479225 15.308001788200158 0.0 0.0
-1174.9471911407086 -286.55541081905693 -725.9475386600628 16.685613245851943 0.0 0.0
-1131.6462822579185 -275.40358579805746 -698.7622708602861 17.27878235014837 0.0 0.0
-1071.4942814297838 -248.4474812605701 -655.2105071499544 17.57723213446396 0.0 0.0
-1001.0253623753723 -211.08344493076635 -601.0262790853272 18.08407435857306 0.0 0.0
-928.1753984372075 -168.86841950901518 -542.4176560188348 18.683844255059 0.0 0.0
-855.2436310219125 -128.37163703926618 -483.0658360966202 19.22535536188897 0.0 0.0
-786.4054682745802 -91.67248885872468 -424.96726942874426 19.777112168603132 0.0 0.0
-722.494593951346 -61.850885763809906 -368.33429577367264 20.01449519668386 0.0 0.0
-660.9477133775345 -39.529032100043246 -310.5919194139264 20.13018829768 0.0 0.0
-595.7064796585827 -22.382439767218113 -248.0223472664842 19.80929827881497 0.0 0.0
-531.9474228732608 -17.720142525444626 -188.52780390137917 18.924896313135694 0.0 0.0
-426.57105829281284 -7.8501563936157295 -131.0469847783717 24.02104829404295 0.0 0.0
-288.20645731335804 2.822622982649348 -85.61695366769713 30.244805734571074 0.0 0.0
-163.12990371643917 -2.9860962828815647 -49.8347999997962 29.21259574175326 0.0 0.0
-66.55698033198216 -15.014415738544539 -24.471418821158004 19.30208768969134 0.0 0.0
-24.557735879580026 -7.645879739125868 -9.661084685611767 10.789900594234913 0.0 0.0
-14.193635582312703 -3.558793706948475 -5.3257287867783525 -6.977730472512767 0.0 0.0
-55.984399006061395 -8.037959774903515 -19.20670763428948 -8.030014708008846 0.0 0.0
-168.0384184090027 -3.758681966248062 -51.53913011257523 -10.02708611720589 0.0 0.0
-318.98019670200426 -5.358836044874707 -97.28733240859314 -10.351093687157123 0.0 0.0
-478.6215442336256 -29.889129794042844 -156.57907260022824 -5.55309109688468 0.0 0.0
-587.7378916031535 -55.14206750476447 -228.9464114277133 -2.096764880348605 0.0 0.0
-658.569811463736 -70.34136843095428 -299.6750222320466 -2.1138210814291973 0.0 0.0
-737.2563871484208 -103.56108042363556 -376.58089745483227 -2.523010789608655 0.0 0.0
-817.5103844144483 -145.87005968499108 -452.8216853890507 -2.8068715329807095 0.0 0.0
-908.2236982712582 -202.10798036296998 -534.891798271733 -3.3082197662357355 0.0 0.0
-1012.9716604099704 -273.9085790689464 -627.4943368886613 -3.9156218340976423 0.0 0.0
-1131.24707920971 -361.2072844558444 -732.1200679574874 -4.632159317831219 0.0 0.0
-1259.849972942832 -457.48790879976445 -844.8258566670296 -5.104344798040087 0.0 0.0
-1394.7089095197002 -559.1056927357442 -962.7468033648929 -5.601230258626625 0.0 0.0
-1525.0613614173474 -656.0405666356037 -1075.8297190453377 -6.085376409084962 0.0 0.0
-1635.7923148803109 -734.5450167251493 -1169.9662102238028 -6.320764790556055 0.0 0.0
-1708.567171847426 -778.3647054959448 -1228.0439644452545 -5.963566112405601 0.0 0.0
-1723.2755737958269 -769.4442825708479 -1230.9728506234533 -4.804562533880624 0.0 0.0
-1712.1025768286022 -740.7498299464515 -1212.254685021462 -4.559693457780529 0.0 0.0
-1584.452757283007 -606.4507062230492 -1080.2796720843744 -31.04568655694596 0.0 0.0
-4317.63596761385 -3388.9604955129435 -3812.458856509824 -1.9682033780554775e-11 0.0 0.0
-1584.4527572830857 -606.4507062231542 -1080.279672084295 31.04568655699539 0.0 0.0
-1712.102576828902 -740.7498299467997 -1212.2546850215065 4.559693457782416 0.0 0.0
-1723.2755737950351 -769.4442825700798 -1230.972850622848 4.8045625338735185 0.0 0.0
-1708.5671718464494 -778.3647054950286 -1228.0439644443725 5.963566112493901 0.0 0.0
-1635.7923148796579 -734.5450167245514 -1169.9662102231969 6.320764790509699 0.0 0.0
-1525.061361416385 -656.0405666347242 -1075.8297190445928 6.085376409150779 0.0 0.0
-1394.708909518369 -559.1056927344957 -962.7468033637408 5.601230258669393 0.0 0.0
-1259.849972942361 -457.48790879942504 -844.8258566665811 5.104344797988954 0.0 0.0
-1131.2470792094773 -361.2072844557852 -732.1200679572084 4.632159317812317 0.0 0.0
-1012.9716604090768 -273.9085790682144 -627.4943368879763 3.9156218340879754 0.0 0.0
-908.2236982708064 -202.10798036272243 -534.8917982712876 3.308219766241386 0.0 0.0
-817.5103844140049 -145.87005968475881 -452.8216853886044 2.806871532987394 0.0 0.0
-737.2563871480247 -103.56108042349743 -376.58089745444215 2.523010789537807 0.0 0.0
-658.569811463503 -70.34136843103448 -299.67502223173756 2.113821081482346 0.0 0.0
-587.7378916028249 -55.14206750474518 -228.94641142740002 2.0967648803685357 0.0 0.0
-478.62154423300535 -29.889129793728983 -156.57907259990841 5.553091096886735 0.0 0.0
-318.9801967015826 -5.358836044596973 -97.28733240838503 10.351093687118954 0.0 0.0
-168.0384184088167 -3.758681966202982 -51.539130112505894 10.027086117223286 0.0 0.0
-55.98439900600636 -8.037959774952014 -19.206707634287515 8.03001470804431 0.0 0.0
-14.193635582249978 -3.55879370691569 -5.3257287867497 6.9777304725255735 0.0 0.0
SCALARS Strain float 6
LOOKUP_TABLE default
0.008688395759916801 -0.015919408881433998 0.0 -0.00033281471949932185 0.0 0.0
0.005489356014128797 -0.0007004758154988282 0.0 -0.0046388290520671905 0.0 0.0
0.0020139084887571697 -0.0006961802147051649 0.0 -0.0004543765168778886 0.0 0.0
0.0018912986599023424 -0.0007459508202031946 0.0 -5.445401183606981e-05 0.0 0.0
0.002370139297380233 -0.0009262883006957098 0.0 1.3852745581851482e-05 0.0 0.0
0.0033072529745502175 -0.001559196117876967 0.0 5.788549606373007e-05 0.0 0.0
0.004757455696120583 -0.0026911284066475595 0.0 6.223642985909876e-05 0.0 0.0
0.006675501274923763 -0.004242402493758223 0.0 6.416991942200648e-05 0.0 0.0
0.009102340987782368 -0.006271858874851927 0.0 7.678743400481853e-05 0.0 0.0
0.012102610884195862 -0.008812863131919996 0.0 8.937812748791699e-05 0.0 0.0
0.015814045976797718 -0.011983413377967208 0.0 0.00014764098438767867 0.0 0.0
0.0204862051194247 -0.01603335361651433 0.0 0.0002504172242548905 0.0 0.0
0.026405168870408127 -0.021278620685821065 0.0 0.00030415206314607205 0.0 0.0
0.03382047706625365 -0.027986368385920682 0.0 0.00035531772773733585 0.0 0.0
0.042854268911408054 -0.036319107371795285 0.0 0.0003350276760861386 0.0 0.0
0.05333833558692182 -0.04614703175779915 0.0 0.00021269883130639708 0.0 0.0
0.06469411217959121 -0.05692006104994607 0.0 -4.674978951028832e-06 0.0 0.0
0.07591896528771508 -0.06766346949915769 0.0 -0.00023777515957442547 0.0 0.0
0.08573516801809326 -0.07712229197098577 0.0 -0.00033755319896691563 0.0 0.0
0.09277868833748763 -0.08397682954410833 0.0 -0.00036538626289583714 0.0 0.0
0.09543576979841278 -0.08664313486445442 0.0 1.5512764683922597e-15 0.0 0.0
0.09277868833748255 -0.08397682954410521 0.0 0.00036538626289998747 0.0 0.0
0.08573516801808004 -0.07712229197097611 0.0 0.0003375531989707292 0.0 0.0
0.07591896528769569 -0.06766346949913997 0.0 0.0002377751595769289 0.0 0.0
0.06469411217956966 -0.05692006104992536 0.0 4.674978951005847e-06 0.0 0.0
0.053338335586900015 -0.04614703175777921 0.0 -0.0002126988313070025 0.0 0.0
0.04285426891138557 -0.03631910737177177 0.0 -0.0003350276760872937 0.0 0.0
0.033820477066229884 -0.02798636838589772 0.0 -0.00035531772773809696 0.0 0.0
0.026405168870383813 -0.021278620685797524 0.0 -0.00030415206314609493 0.0 0.0
0.02048620511940088 -0.016033353616492194 0.0 -0.00025041722425561946 0.0 0.0
0.01581404597677636 -0.01198341337794742 0.0 -0.00014764098438781073 0.0 0.0
0.012102610884177842 -0.008812863131905548 0.0 -8.9378127489462e-05 0.0 0.0
0.00910234098776734 -0.006271858874837309 0.0 -7.678743400525462e-05 0.0 0.0
0.006675501274911748 -0.004242402493751587 0.0 -6.416991942318829e-05 0.0 0.0
0.0047574556961117315 -0.0026911284066394397 0.0 -6.223642985963957e-05 0.0 0.0
0.0033072529745448945 -0.001559196117873167 0.0 -5.7885496063963106e-05 0.0 0.0
0.0023701392973780547 -0.0009262883006943827 0.0 -1.385274558079578e-05 0.0 0.0
0.0018912986599016295 -0.0007459508202032283 0.0 5.445401183601843e-05 0.0 0.0
0.002013908488756078 -0.0006961802147047003 0.0 0.00045437651687612137 0.0 0.0
0.005489356014125594 -0.0007004758154981481 0.0 0.00463882905206069 0.0 0.0
0.00868839575991199 -0.015919408881415475 0.0 0.00033281471947174603 0.0 0.0
0.005716989537294528 -0.0141459688727158 0.0 7.715421903267152e-05 0.0 0.0
0.003496242488793882 -0.0004749561628826222 0.0 -0.0035425460508454495 0.0 0.0
0.0014291659186463897 -0.0005609863034795505 0.0 -0.0003135081870977741 0.0 0.0
0.0017087820070934268 -0.0007199131576902483 0.0 -0.00020875415998670145 0.0 0.0
0.0020990637417301872 -0.0008625445394949104 0.0 -0.0001817232674173951 0.0 0.0
0.002904223842622007 -0.0014094276831597135 0.0 -0.0001837707932937448 0.0 0.0
0.0042071126120453335 -0.002464063597776816 0.0 -0.0003136738955820406 0.0 0.0
0.005952870660864662 -0.003929405497764648 0.0 -0.00043703376412605017 0.0 0.0
0.008153153071745784 -0.0058488270684259975 0.0 -0.0005733500962868287 0.0 0.0
0.010853525871635702 -0.00824789506315776 0.0 -0.0007216653787346745 0.0 0.0
0.014169983973218572 -0.011235678942927225 0.0 -0.0008605039964383871 0.0 0.0
0.018320730265429918 -0.01503968480423008 0.0 -0.0009938720028848753 0.0 0.0
0.023598700509113894 -0.019970518772039286 0.0 -0.001205206343769943 0.0 0.0
0.030265760573859525 -0.02631303133409086 0.0 -0.001522109306388946 0.0 0.0
0.0384442996472403 -0.03422187296473436 0.0 -0.001937941202219785 0.0 0.0
0.04798801221227688 -0.0435773883350706 0.0 -0.0024414800653901783 0.0 0.0
0.05836324493149637 -0.05385766145891888 0.0 -0.0029156725867355853 0.0 0.0
0.06866113326171415 -0.0641402953834634 0.0 -0.003119343567370676 0.0 0.0
0.07770749002541791 -0.07322964035519666 0.0 -0.0028039552260350374 0.0 0.0
0.08412960659374373 -0.07979149594396219 0.0 -0.0020166175367412574 0.0 0.0
0.08650035715746292 -0.08237148368187881 0.0 3.3543046812356536e-15 0.0 0.0
0.0841296065937388 -0.07979149594395835 0.0 0.002016617536749775 0.0 0.0
0.07770749002540635 -0.07322964035518456 0.0 0.0028039552260443966 0.0 0.0
0.0686611332616978 -0.06414029538344782 0.0 0.0031193435673775223 0.0 0.0
0.058363244931477806 -0.053857661458900113 0.0 0.002915672586738315 0.0 0.0
0.04798801221225736 -0.043577388335053875 0.0 0.0024414800653901267 0.0 0.0
0.03844429964722015 -0.03422187296471455 0.0 0.0019379412022192085 0.0 0.0
0.030265760573838507 -0.026313031334072316 0.0 0.0015221093063877195 0.0 0.0
0.02359870050909213 -0.01997051877201839 0.0 0.0012052063437689971 0.0 0.0
0.01832073026540847 -0.01503968480420903 0.0 0.000993872002883677 0.0 0.0
0.014169983973199256 -0.011235678942909066 0.0 0.0008605039964365554 0.0 0.0
0.0108535258716193 -0.00824789506314382 0.0 0.0007216653787326084 0.0 0.0
0.008153153071732137 -0.005848827068413226 0.0 0.0005733500962854549 0.0 0.0
0.0059528706608537735 -0.003929405497757602 0.0 0.0004370337641244407 0.0 0.0
0.004207112612037616 -0.0024640635977691006 0.0 0.0003136738955813685 0.0 0.0
0.002904223842617587 -0.0014094276831567866 0.0 0.0001837707932932623 0.0 0.0
0.0020990637417283766 -0.0008625445394934091 0.0 0.00018172326741782455 0.0 0.0
0.0017087820070927843 -0.000719913157690412 0.0 0.00020875415998653987 0.0 0.0
0.0014291659186463778 -0.0005609863034796562 0.0 0.00031350818709675773 0.0 0.0
0.0034962424887901664 -0.00047495616288139203 0.0 0.003542546050838145 0.0 0.0
0.005716989537286577 -0.014145968872697381 0.0 -7.715421905366688e-05 0.0 0.0
0.004039655187588486 -0.01110867717166132 0.0 -0.002064090003621083 0.0 0.0
0.0023884582217889626 -0.00021733506156298163 0.0 -0.0034258512451030457 0.0 0.0
0.0010146943347150046 -0.0003285551789536338 0.0 -0.0003008969658619166 0.0 0.0
0.0014661470902449982 -0.0006342956898628708 0.0 -0.000456122023573456 0.0 0.0
0.0018541095264021684 -0.0007584772635298721 0.0 -0.00047059048792893164 0.0 0.0
0.002514547416277263 -0.001133239556905406 0.0 -0.00042761835571528904 0.0 0.0
0.0036486292532429227 -0.0020085646351664928 0.0 -0.0006522101649895217 0.0 0.0
0.005220659941289315 -0.0033088689132373876 0.0 -0.000913863408128815 0.0 0.0
0.007193093451131546 -0.005004706391622255 0.0 -0.0012007833782096357 0.0 0.0
0.009597752429142806 -0.007122301590649478 0.0 -0.0015045089093001466 0.0 0.0
0.01252959968955818 -0.00974692464103389 0.0 -0.0018115692152007412 0.0 0.0
0.01617784343881308 -0.013070438139138682 0.0 -0.0021266702152053013 0.0 0.0
0.020813487676639344 -0.017379075344541275 0.0 -0.002516469135266982 0.0 0.0
0.026714130482445288 -0.02297707219200758 0.0 -0.0030909415321160602 0.0 0.0
0.03401390701093545 -0.030026171105873738 0.0 -0.003869051356723778 0.0 0.0
0.04258304960430822 -0.038420741186369 0.0 -0.004776527723002108 0.0 0.0
0.05196307021946676 -0.04770484435365355 0.0 -0.0055971481280012855 0.0 0.0
0.061351853952879926 -0.05706991401578547 0.0 -0.005926611789329637 0.0 0.0
0.06965360294036899 -0.06542539413305716 0.0 -0.005369758506735846 0.0 0.0
0.07558733285536265 -0.07146889251049911 0.0 -0.0038248567530444894 0.0 0.0
0.07779550747259475 -0.07394981811956759 0.0 7.395343018523626e-15 0.0 0.0
0.07558733285535797 -0.07146889251049318 0.0 0.0038248567530605854 0.0 0.0
0.06965360294035898 -0.06542539413304577 0.0 0.005369758506752387 0.0 0.0
0.061351853952865826 -0.05706991401577241 0.0 0.005926611789340081 0.0 0.0
0.05196307021945048 -0.04770484435363742 0.0 0.0055971481280043985 0.0 0.0
0.04258304960429103 -0.03842074118635334 0.0 0.004776527723001106 0.0 0.0
0.034013907010917464 -0.030026171105859895 0.0 0.0038690513567235614 0.0 0.0
0.026714130482426584 -0.022977072191992718 0.0 0.003090941532115178 0.0 0.0
0.020813487676620283 -0.017379075344524948 0.0 0.002516469135265734 0.0 0.0
0.016177843438793978 -0.013070438139120533 0.0 0.002126670215203819 0.0 0.0
0.012529599689540788 -0.009746924641018952 0.0 0.0018115692151973064 0.0 0.0
0.009597752429128097 -0.007122301590636931 0.0 0.0015045089092966678 0.0 0.0
0.007193093451119362 -0.005004706391612036 0.0 0.0012007833782070154 0.0 0.0
0.0052206599412798 -0.003308868913230272 0.0 0.0009138634081270209 0.0 0.0
0.003648629253236213 -0.0020085646351612582 0.0 0.0006522101649878627 0.0 0.0
0.0025145474162736477 -0.0011332395569032634 0.0 0.00042761835571487753 0.0 0.0
0.0018541095264007486 -0.0007584772635287645 0.0 0.00047059048792939286 0.0 0.0
0.0014661470902444765 -0.0006342956898625539 0.0 0.00045612202357280755 0.0 0.0
0.0010146943347151872 -0.00032855517895446937 0.0 0.0003008969658608925 0.0 0.0
0.0023884582217855188 -0.00021733506156093797 0.0 0.003425851245094055 0.0 0.0
0.00403965518758106 -0.011108677171643998 0.0 0.002064090003606175 0.0 0.0
0.0029659339938967887 -0.008858328676362673 0.0 -0.002468751798225045 0.0 0.0
0.0017053905478131646 -0.0002046849957993525 0.0 -0.00321493677808793 0.0 0.0
0.0007239281240776746 -0.00017501263997665606 0.0 -0.0005871809118093284 0.0 0.0
0.0012120528510102808 -0.0005075978052550684 0.0 -0.0006752306210095868 0.0 0.0
0.0016172012218112488 -0.000674201433625694 0.0 -0.0007636232946202168 0.0 0.0
0.002155068694002033 -0.0009236852383752846 0.0 -0.0007050782989640823 0.0 0.0
0.0030947468507249772 -0.0015713861868683165 0.0 -0.0008811264270075926 0.0 0.0
0.004479235362829407 -0.002696315465620475 0.0 -0.0012798636580206746 0.0 0.0
0.006225944337604064 -0.004169868762776408 0.0 -0.0016861885967981562 0.0 0.0
0.008339527260651654 -0.006008123549026809 0.0 -0.002115236480863709 0.0 0.0
0.010895309112555398 -0.008277797079689592 0.0 -0.002552011251498241 0.0 0.0
0.014054525107033585 -0.011135575064021967 0.0 -0.0030061065285587195 0.0 0.0
0.01806325297915115 -0.014836788041531337 0.0 -0.0035481196433473643 0.0 0.0
0.02318490128491706 -0.01967823763305641 0.0 -0.004295410963950206 0.0 0.0
0.02957514643913408 -0.025837644594269182 0.0 -0.005314088357837464 0.0 0.0
0.03714642631189011 -0.03324071485125296 0.0 -0.006523039348330097 0.0 0.0
0.04551011981657574 -0.0415058036688542 0.0 -0.00761583724071443 0.0 0.0
0.053978554514539555 -0.04994641170695464 0.0 -0.008081431775378817 0.0 0.0
0.06157009210186956 -0.05758265908629813 0.0 -0.007410143277382621 0.0 0.0
0.06711129439816833 -0.0632216680677104 0.0 -0.005214873901908347 0.0 0.0
0.06921653670480464 -0.06571614100842375 0.0 9.62771529167128e-15 0.0 0.0
0.06711129439816382 -0.06322166806770567 0.0 0.0052148739019301175 0.0 0.0
0.061570092101860596 -0.057582659086292565 0.0 0.007410143277403065 0.0 0.0
0.05397855451452715 -0.04994641170694291 0.0 0.008081431775392656 0.0 0.0
0.04551011981656155 -0.04150580366884108 0.0 0.007615837240718277 0.0 0.0
0.03714642631187495 -0.033240714851237946 0.0 0.006523039348329146 0.0 0.0
0.02957514643911821 -0.025837644594255096 0.0 0.005314088357837134 0.0 0.0
0.023184901284900875 -0.019678237633042196 0.0 0.004295410963949838 0.0 0.0
0.018063252979134525 -0.014836788041514056 0.0 0.0035481196433450246 0.0 0.0
0.014054525107017083 -0.011135575064008517 0.0 0.0030061065285555285 0.0 0.0
0.010895309112540157 -0.00827779707967725 0.0 0.002552011251493994 0.0 0.0
0.008339527260638531 -0.006008123549015467 0.0 0.00211523648085932 0.0 0.0
0.0062259443375933705 -0.004169868762767699 0.0 0.001686188596794059 0.0 0.0
0.004479235362820979 -0.002696315465614162 0.0 0.0012798636580183197 0.0 0.0
0.0030947468507194383 -0.0015713861868647844 0.0 0.0008811264270053762 0.0 0.0
0.0021550686939993523 -0.0009236852383738196 0.0 0.0007050782989633259 0.0 0.0
0.001617201221810084 -0.0006742014336246846 0.0 0.0007636232946202242 0.0 0.0
0.0012120528510098012 -0.0005075978052545762 0.0 0.000675230621008668 0.0 0.0
0.0007239281240778645 -0.00017501263997710058 0.0 0.0005871809118076271 0.0 0.0
0.0017053905478099742 -0.00020468499579746956 0.0 0.00321493677807948 0.0 0.0
0.0029659339938899647 -0.00885832867634755 0.0 0.002468751798214542 0.0 0.0
0.0022029925387039126 -0.0070660342774888085 0.0 -0.002293390877690253 0.0 0.0
0.0012430965556167182 -0.0002521852594582998 0.0 -0.0029704043796831897 0.0 0.0
0.000517586502057986 -9.014895541112324e-05 0.0 -0.0009490588454011157 0.0 0.0
0.0009690626473862303 -0.00037783700349830685 0.0 -0.0009180092668157301 0.0 0.0
0.0013756323247035404 -0.0005785465692627014 0.0 -0.0010323702719403276 0.0 0.0
0.0018302465750292367 -0.0007730038668990153 0.0 -0.0010152978936299275 0.0 0.0
0.002568550612360333 -0.0012020964171771504 0.0 -0.0010810378303954726 0.0 0.0
0.0037318348229509737 -0.0020884940269959226 0.0 -0.0014876417842650152 0.0 0.0
0.00525529039323191 -0.0033515438201063012 0.0 -0.002023462942955527 0.0 0.0
0.007081645777394886 -0.0049131921587353454 0.0 -0.0025480150844754937 0.0 0.0
0.009271108324813407 -0.006834946708461964 0.0 -0.003081312925805583 0.0 0.0
0.0119540363410958 -0.009239062310142087 0.0 -0.003631771660598939 0.0 0.0
0.015344973766012758 -0.012346926519867355 0.0 -0.004276932530203308 0.0 0.0
0.019695540118469964 -0.016433944230100674 0.0 -0.005140074973827266 0.0 0.0
0.025160954297021188 -0.02168534931054929 0.0 -0.006301696353019609 0.0 0.0
0.03169710323679567 -0.02806584831944403 0.0 -0.007672763015223974 0.0 0.0
0.039014513311301666 -0.03527821576600909 0.0 -0.008938223248307679 0.0 0.0
0.046542599622783454 -0.04276537453629364 0.0 -0.00956155972772776 0.0 0.0
0.053438237961299345 -0.04969277469527017 0.0 -0.008882715693375832 0.0 0.0
0.05864758823015625 -0.05500167788621499 0.0 -0.0062823456354827775 0.0 0.0
0.060688820331049186 -0.057579535940347065 0.0 1.0627783375571909e-14 0.0 0.0
0.05864758823015187 -0.055001677886211575 0.0 0.006282345635507945 0.0 0.0
0.05343823796129113 -0.049692774695265556 0.0 0.008882715693398609 0.0 0.0
0.046542599622772844 -0.04276537453628403 0.0 0.009561559727743132 0.0 0.0
0.039014513311289335 -0.035278215766000376 0.0 0.008938223248312319 0.0 0.0
0.03169710323678249 -0.028065848319432138 0.0 0.007672763015223473 0.0 0.0
0.025160954297007574 -0.021685349310537252 0.0 0.00630169635301823 0.0 0.0
0.01969554011845584 -0.016433944230085897 0.0 0.005140074973826271 0.0 0.0
0.015344973765998533 -0.012346926519850311 0.0 0.004276932530199977 0.0 0.0
0.01195403634108187 -0.00923906231013059 0.0 0.003631771660594073 0.0 0.0
0.009271108324800437 -0.006834946708451875 0.0 0.003081312925799455 0.0 0.0
0.007081645777383603 -0.004913192158724871 0.0 0.0025480150844709934 0.0 0.0
0.00525529039322259 -0.003351543820098908 0.0 0.002023462942951519 0.0 0.0
0.003731834822944041 -0.0020884940269903143 0.0 0.0014876417842617114 0.0 0.0
0.0025685506123560436 -0.001202096417174789 0.0 0.001081037830393517 0.0 0.0
0.0018302465750271659 -0.000773003866898712 0.0 0.0010152978936292464 0.0 0.0
0.0013756323247026375 -0.0005785465692615647 0.0 0.0010323702719393967 0.0 0.0
0.0009690626473857682 -0.0003778370034983847 0.0 0.0009180092668143265 0.0 0.0
0.0005175865020579678 -9.014895541116765e-05 0.0 0.0009490588453991468 0.0 0.0
0.0012430965556140831 -0.0002521852594569732 0.0 0.002970404379676087 0.0 0.0
0.0022029925386985063 -0.007066034277476127 0.0 0.002293390877683227 0.0 0.0
0.001635248735835989 -0.005597877388989372 0.0 -0.001995519302365606 0.0 0.0
0.0009104608661263193 -0.0003041178997525021 0.0 -0.002719441975009355 0.0 0.0
0.0003632633542206457 -4.770536040690038e-05 0.0 -0.0012922404223471213 0.0 0.0
0.0007439926327880726 -0.00026068363515730744 0.0 -0.001173348207357556 0.0 0.0
0.0011287653756988922 -0.0004686613414342059 0.0 -0.0012767681841814001 0.0 0.0
0.0015239354996663063 -0.0006468250587315239 0.0 -0.0013140220115284331 0.0 0.0
0.0020921874937657736 -0.0009262631708560956 0.0 -0.001333969062068714 0.0 0.0
0.003003335705969195 -0.0015347005872987515 0.0 -0.0016000727183537 0.0 0.0
0.004275644012515362 -0.002549071340793094 0.0 -0.0021717652189018923 0.0 0.0
0.005827240327677267 -0.0038455729184450676 0.0 -0.002793377586456351 0.0 0.0
0.007658426849645798 -0.005425601596807561 0.0 -0.0033879104269532922 0.0 0.0
0.009879090718431714 -0.007389454763041403 0.0 -0.004001395366293054 0.0 0.0
0.012669414049540017 -0.009918081896441121 0.0 -0.00469763562250977 0.0 0.0
0.0162497350112075 -0.013257475369378196 0.0 -0.005604701685278078 0.0 0.0
0.02078592417601558 -0.01759224528766214 0.0 -0.006818965190229318 0.0 0.0
0.026274184107844663 -0.02292996352777152 0.0 -0.008250457901680778 0.0 0.0
0.032497860061539686 -0.02905008284930262 0.0 -0.009583136863027808 0.0 0.0
0.0390386027198473 -0.03553285372412645 0.0 -0.01031555625980667 0.0 0.0
0.04523059809885348 -0.041734510453079236 0.0 -0.00975176884414429 0.0 0.0
0.05014151797670627 -0.04675133256985027 0.0 -0.007046395366325487 0.0 0.0
0.05214477545310175 -0.049472811707865605 0.0 1.0292764904273888e-14 0.0 0.0
0.050141517976702195 -0.04675133256984565 0.0 0.007046395366349458 0.0 0.0
0.04523059809884616 -0.04173451045307353 0.0 0.009751768844167938 0.0 0.0
0.039038602719838174 -0.03553285372411695 0.0 0.010315556259821994 0.0 0.0
0.032497860061529237 -0.029050082849296797 0.0 0.009583136863032323 0.0 0.0
0.02627418410783328 -0.022929963527760673 0.0 0.00825045790167806 0.0 0.0
0.020785924176004153 -0.017592245287654282 0.0 0.006818965190227512 0.0 0.0
0.016249735011195955 -0.013257475369366476 0.0 0.005604701685277115 0.0 0.0
0.012669414049528293 -0.009918081896428501 0.0 0.0046976356225066655 0.0 0.0
0.009879090718420231 -0.007389454763030323 0.0 0.004001395366288568 0.0 0.0
0.007658426849635028 -0.005425601596799321 0.0 0.0033879104269462336 0.0 0.0
0.005827240327667869 -0.003845572918436962 0.0 0.002793377586450774 0.0 0.0
0.004275644012507649 -0.0025490713407871042 0.0 0.0021717652188977337 0.0 0.0
0.0030033357059637018 -0.0015347005872938448 0.0 0.0016000727183512415 0.0 0.0
0.002092187493762709 -0.0009262631708546038 0.0 0.0013339690620673389 0.0 0.0
0.0015239354996647858 -0.000646825058731245 0.0 0.0013140220115280099 0.0 0.0
0.0011287653756980364 -0.0004686613414332662 0.0 0.0012767681841798165 0.0 0.0
0.000743992632787702 -0.00026068363515701634 0.0 0.0011733482073558118 0.0 0.0
0.00036326335422061655 -4.770536040679518e-05 0.0 0.0012922404223451942 0.0 0.0
0.0009104608661241935 -0.00030411789975152536 0.0 0.002719441975003335 0.0 0.0
0.0016352487358316811 -0.005597877388979096 0.0 0.0019955193023607114 0.0 0.0
0.0012089376326766947 -0.004382819794646904 0.0 -0.0017150943796180335 0.0 0.0
0.0006627462491014778 -0.00035267958337857006 0.0 -0.002494860545820855 0.0 0.0
0.00023859325553996153 -2.4257564667499694e-05 0.0 -0.0015799401383243788 0.0 0.0
0.000536801554731654 -0.0001591508610333843 0.0 -0.001419804657913362 0.0 0.0
0.0008778956060797416 -0.00035137197589201 0.0 -0.0014973134229483876 0.0 0.0
0.0012185415034497082 -0.0005233012382952101 0.0 -0.0015779824924275383 0.0 0.0
0.0016560242317240868 -0.0007125735512494737 0.0 -0.001598989656291374 0.0 0.0
0.002329151706079734 -0.0010934077102774471 0.0 -0.0017405048142525767 0.0 0.0
0.003311376541856478 -0.0018000027796292958 0.0 -0.00216429024924019 0.0 0.0
0.004571781738538434 -0.00281139557135169 0.0 -0.002808404003357445 0.0 0.0
0.006060116084723963 -0.004061645588834004 0.0 -0.003456851038391104 0.0 0.0
0.007831138277986031 -0.005596196177521793 0.0 -0.004100995748586972 0.0 0.0
0.010037112070692402 -0.007562432011201095 0.0 -0.004805644551996006 0.0 0.0
0.012865423426774008 -0.010168125868026094 0.0 -0.005694987030669865 0.0 0.0
0.016469372354149952 -0.013583657659630035 0.0 -0.006852606368125695 0.0 0.0
0.02088727755477165 -0.017860869446540497 0.0 -0.008239224132215287 0.0 0.0
0.025990635699980037 -0.022853343735688852 0.0 -0.009562011853028692 0.0 0.0
0.03148581237739204 -0.028273189637225672 0.0 -0.0103522165710305 0.0 0.0
0.03691553638197058 -0.033687773323491085 0.0 -0.009975234567698906 0.0 0.0
0.04152848103727024 -0.03840627585371969 0.0 -0.007482964940199882 0.0 0.0
0.043512048766077845 -0.041330168135957294 0.0 9.11900763234108e-15 0.0 0.0
0.04152848103726658 -0.03840627585371734 0.0 0.007482964940222273 0.0 0.0
0.036915536381964376 -0.03368777332348393 0.0 0.009975234567722216 0.0 0.0
0.03148581237738441 -0.028273189637218518 0.0 0.010352216571044638 0.0 0.0
0.025990635699971135 -0.02285334373568334 0.0 0.00956201185303056 0.0 0.0
0.020887277554762107 -0.017860869446531574 0.0 0.008239224132211419 0.0 0.0
0.016469372354140876 -0.013583657659622437 0.0 0.006852606368122882 0.0 0.0
0.012865423426765171 -0.010168125868017854 0.0 0.005694987030669182 0.0 0.0
0.01003711207068342 -0.007562432011194739 0.0 0.004805644551992881 0.0 0.0
0.007831138277976907 -0.005596196177512142 0.0 0.004100995748581333 0.0 0.0
0.006060116084715205 -0.004061645588827112 0.0 0.00345685103838448 0.0 0.0
0.004571781738530958 -0.0028113955713460334 0.0 0.0028084040033529343 0.0 0.0
0.003311376541850611 -0.0018000027796248493 0.0 0.0021642902492365283 0.0 0.0
0.0023291517060756964 -0.0010934077102746406 0.0 0.0017405048142510034 0.0 0.0
0.0016560242317218688 -0.0007125735512497745 0.0 0.0015989896562903978 0.0 0.0
0.0012185415034485498 -0.0005233012382949217 0.0 0.0015779824924257704 0.0 0.0
0.0008778956060790375 -0.0003513719758918665 0.0 0.0014973134229464126 0.0 0.0
0.0005368015547312829 -0.00015915086103248524 0.0 0.001419804657911586 0.0 0.0
0.00023859325553969888 -2.4257564667198147e-05 0.0 0.0015799401383222366 0.0 0.0
0.0006627462490998106 -0.0003526795833781362 0.0 0.0024948605458157405 0.0 0.0
0.0012089376326736402 -0.004382819794638825 0.0 0.0017150943796155115 0.0 0.0
0.0008828555144066233 -0.003388936435250532 0.0 -0.0015147270198496592 0.0 0.0
0.00047224203130792337 -0.00039822277708058493 0.0 -0.0023033477993499164 0.0 0.0
0.00013145927872415793 -5.180921636886325e-06 0.0 -0.0018058558798038542 0.0 0.0
0.0003442654305553381 -7.112406493096958e-05 0.0 -0.0016388015511060365 0.0 0.0
0.0006273975931862559 -0.00023424557763106028 0.0 -0.0016897541584445358 0.0 0.0
0.0009109085181704946 -0.0003871750580978829 0.0 -0.0017903298718635308 0.0 0.0
0.0012399089252912278 -0.000530871648061563 0.0 -0.001848044406033273 0.0 0.0
0.0017106544791731697 -0.000757283420636793 0.0 -0.0019240204562517168 0.0 0.0
0.002401819845582819 -0.0011725798139384021 0.0 -0.002136351816882559 0.0 0.0
0.0033333387877182356 -0.0018524586034440681 0.0 -0.0026181763263771643 0.0 0.0
0.004470332672185974 -0.0027591802224841092 0.0 -0.0032567832242735638 0.0 0.0
0.005810621525136675 -0.0038788455025270787 0.0 -0.0039000741408227587 0.0 0.0
0.007453008320939229 -0.0053004472281876205 0.0 -0.004583705707557752 0.0 0.0
0.00954679846117318 -0.007190170022579717 0.0 -0.0053963347678810955 0.0 0.0
0.012230294283511424 -0.009696766418426614 0.0 -0.006427105843461118 0.0 0.0
0.015566872383768124 -0.012894412657807316 0.0 -0.007638347721226062 0.0 0.0
0.019506213252559274 -0.016722465036525212 0.0 -0.00885502007497068 0.0 0.0
0.02389494264834006 -0.021019820953505252 0.0 -0.009650869512653596 0.0 0.0
0.028479480583671973 -0.025548448925511946 0.0 -0.009506616280868373 0.0 0.0
0.032743716345966845 -0.029902643440557576 0.0 -0.007543539910150471 0.0 0.0
0.03470603619690799 -0.033084383007488845 0.0 8.043045396366466e-15 0.0 0.0
0.03274371634596402 -0.029902643440554266 0.0 0.007543539910170434 0.0 0.0
0.02847948058366691 -0.02554844892550675 0.0 0.009506616280888966 0.0 0.0
0.023894942648333674 -0.02101982095349995 0.0 0.00965086951266558 0.0 0.0
0.019506213252552397 -0.016722465036519512 0.0 0.008855020074972315 0.0 0.0
0.015566872383760848 -0.01289441265780108 0.0 0.007638347721223224 0.0 0.0
0.012230294283504662 -0.009696766418419201 0.0 0.006427105843459244 0.0 0.0
0.009546798461166888 -0.0071901700225723755 0.0 0.005396334767880687 0.0 0.0
0.007453008320932583 -0.005300447228184728 0.0 0.004583705707556221 0.0 0.0
0.005810621525129884 -0.003878845502521576 0.0 0.0039000741408185564 0.0 0.0
0.004470332672179599 -0.0027591802224790924 0.0 0.0032567832242679402 0.0 0.0
0.0033333387877128506 -0.0018524586034397834 0.0 0.002618176326372925 0.0 0.0
0.0024018198455787484 -0.0011725798139362075 0.0 0.002136351816880642 0.0 0.0
0.0017106544791705724 -0.000757283420635374 0.0 0.0019240204562501599 0.0 0.0
0.0012399089252897817 -0.0005308716480626004 0.0 0.0018480444060320167 0.0 0.0
0.0009109085181697074 -0.00038717505809760384 0.0 0.001790329871861669 0.0 0.0
0.000627397593185868 -0.00023424557763121733 0.0 0.001689754158442977 0.0 0.0
0.00034426543055512585 -7.11240649309432e-05 0.0 0.0016388015511039607 0.0 0.0
0.0001314592787238736 -5.180921636644968e-06 0.0 0.0018058558798016377 0.0 0.0
0.00047224203130679786 -0.000398222777080641 0.0 0.0023033477993464114 0.0 0.0
0.000882855514404736 -0.0033889364352445842 0.0 0.0015147270198485451 0.0 0.0
0.0006452484472910102 -0.0026311933388659956 0.0 -0.0014255082305834764 0.0 0.0
0.00032546598885502774 -0.00043063562939105524 0.0 -0.002153169421265631 0.0 0.0
3.206791924508742e-05 1.4656068629431345e-05 0.0 -0.0019712866678613643 0.0 0.0
0.00016455277660092012 6.195800550406301e-06 0.0 -0.0018183477653553773 0.0 0.0
0.0003795757060676097 -0.00011944650937131709 0.0 -0.00184615892336345 0.0 0.0
0.0005944363453647248 -0.00024297229866039897 0.0 -0.0019529324750537963 0.0 0.0
0.0008269771100109077 -0.00035626083833341154 0.0 -0.0020551592114548853 0.0 0.0
0.0011355833625226498 -0.0004887751458441073 0.0 -0.0021196838985838317 0.0 0.0
0.0015656382887767738 -0.0007028080706089772 0.0 -0.002213607802346502 0.0 0.0
0.002152521946415457 -0.0010625914894418088 0.0 -0.0024129954332318213 0.0 0.0
0.0029081003118050157 -0.0015865482422139554 0.0 -0.0028456008570641395 0.0 0.0
0.0038156364607152176 -0.002285776807725244 0.0 -0.003382029930468093 0.0 0.0
0.004913539249982597 -0.0031754664592805112 0.0 -0.004000920611323467 0.0 0.0
0.006299839961032986 -0.004372264452184606 0.0 -0.004714394627761293 0.0 0.0
0.008081755003770041 -0.005985439115401014 0.0 -0.005552497158811361 0.0 0.0
0.010331489771330353 -0.008097168403240148 0.0 -0.00652402306962904 0.0 0.0
0.013077698699816849 -0.010716694381004366 0.0 -0.007541180720068335 0.0 0.0
0.01629083195241836 -0.01383397621362916 0.0 -0.008302060306163482 0.0 0.0
0.01990287480643871 -0.0173539531372085 0.0 -0.008319252502580457 0.0 0.0
0.02371476781503343 -0.0211832550989019 0.0 -0.007086495996355064 0.0 0.0
0.025628550121459318 -0.024652840699825082 0.0 6.376843497690743e-15 0.0 0.0
0.023714767815031255 -0.02118325509889743 0.0 0.007086495996371067 0.0 0.0
0.019902874806435156 -0.01735395313720607 0.0 0.00831925250259802 0.0 0.0
0.016290831952413706 -0.013833976213622683 0.0 0.00830206030617335 0.0 0.0
0.01307769869981199 -0.010716694381000258 0.0 0.007541180720068286 0.0 0.0
0.010331489771325642 -0.008097168403238012 0.0 0.00652402306962604 0.0 0.0
0.008081755003765682 -0.005985439115396387 0.0 0.005552497158809999 0.0 0.0
0.006299839961029191 -0.004372264452181348 0.0 0.0047143946277606805 0.0 0.0
0.004913539249978734 -0.0031754664592743686 0.0 0.004000920611323285 0.0 0.0
0.003815636460710959 -0.0022857768077248464 0.0 0.0033820299304639437 0.0 0.0
0.002908100311800964 -0.0015865482422108383 0.0 0.002845600857059205 0.0 0.0
0.0021525219464122174 -0.0010625914894403154 0.0 0.002412995433228652 0.0 0.0
0.0015656382887744302 -0.000702808070608372 0.0 0.002213607802346037 0.0 0.0
0.001135583362521082 -0.0004887751458439531 0.0 0.002119683898582465 0.0 0.0
0.0008269771100099896 -0.00035626083833118264 0.0 0.002055159211452828 0.0 0.0
0.0005944363453643677 -0.0002429722986603625 0.0 0.001952932475051359 0.0 0.0
0.00037957570606746095 -0.00011944650937136594 0.0 0.0018461589233614937 0.0 0.0
0.00016455277660077972 6.195800550763758e-06 0.0 0.001818347765352923 0.0 0.0
3.206791924498225e-05 1.4656068629600587e-05 0.0 0.0019712866678594505 0.0 0.0
0.00032546598885435874 -0.0004306356293911543 0.0 0.0021531694212630075 0.0 0.0
0.0006452484472897901 -0.0026311933388621146 0.0 0.0014255082305824754 0.0 0.0
0.00048122375607847297 -0.0020808854114026994 0.0 -0.001386712119263833 0.0 0.0
0.00021718556460864768 -0.00044138870143639597 0.0 -0.002041169062052531 0.0 0.0
-5.960209417100539e-05 3.5092723124542866e-05 0.0 -0.002077933680941529 0.0 0.0
-4.6396578145771194e-06 7.565587063112312e-05 0.0 -0.0019516181755258035 0.0 0.0
0.00013615068027982133 -7.918250667988632e-06 0.0 -0.0019600093508825894 0.0 0.0
0.0002744291085734266 -9.637715129417184e-05 0.0 -0.0020601809364798724 0.0 0.0
0.0004081407123559072 -0.000171242291333454 0.0 -0.0021823371881848543 0.0 0.0
0.0005650029291581676 -0.00024358531627031375 0.0 -0.0022727409737824163 0.0 0.0
0.0007806983574313658 -0.00033796829406105487 0.0 -0.0023300335494851727 0.0 0.0
0.0010627799136347655 -0.0004800631864986276 0.0 -0.0023771377293178254 0.0 0.0
0.0014227944690467426 -0.0006826225255581043 0.0 -0.0025415635813649984 0.0 0.0
0.0018708293729885052 -0.000984102845999254 0.0 -0.002856709368331375 0.0 0.0
0.002417950000069397 -0.0013677246228444545 0.0 -0.0032847636078734734 0.0 0.0
0.003117265610498082 -0.0018995240191235821 0.0 -0.0038287571541878217 0.0 0.0
0.004022652770167574 -0.00264296781125848 0.0 -0.0045027848040843374 0.0 0.0
0.005191063994382195 -0.003647995076796999 0.0 -0.005324889033125751 0.0 0.0
0.00671082307357977 -0.005008952756315057 0.0 -0.006242131827606268 0.0 0.0
0.008707408696832055 -0.006881014788423931 0.0 -0.007017075054180191 0.0 0.0
0.01123431312529673 -0.009312939395463505 0.0 -0.007128669082157139 0.0 0.0
0.01437674279350588 -0.012309563224902833 0.0 -0.006171045282013059 0.0 0.0
0.016127070708542895 -0.015980076398026136 0.0 3.900959416602845e-15 0.0 0.0
0.01437674279350487 -0.012309563224901095 0.0 0.006171045282026642 0.0 0.0
0.011234313125294873 -0.009312939395463668 0.0 0.0071286690821725 0.0 0.0
0.008707408696829282 -0.006881014788421091 0.0 0.007017075054187024 0.0 0.0
0.006710823073577115 -0.005008952756316183 0.0 0.006242131827604448 0.0 0.0
0.005191063994380247 -0.0036479950767966366 0.0 0.005324889033122678 0.0 0.0
0.004022652770165986 -0.0026429678112555688 0.0 0.004502784804083469 0.0 0.0
0.0031172656104968945 -0.0018995240191239209 0.0 0.0038287571541883083 0.0 0.0
0.002417950000067972 -0.0013677246228395528 0.0 0.003284763607872488 0.0 0.0
0.0018708293729867783 -0.0009841028459987183 0.0 0.002856709368327789 0.0 0.0
0.0014227944690453007 -0.0006826225255562454 0.0 0.0025415635813623096 0.0 0.0
0.0010627799136336354 -0.00048006318649879154 0.0 0.0023771377293164355 0.0 0.0
0.0007806983574304547 -0.00033796829405988225 0.0 0.0023300335494850343 0.0 0.0
0.0005650029291576019 -0.0002435853162708366 0.0 0.002272740973781803 0.0 0.0
0.00040814071235568543 -0.00017124229133111271 0.0 0.0021823371881829466 0.0 0.0
0.0002744291085733041 -9.637715129551247e-05 0.0 0.0020601809364767156 0.0 0.0
0.0001361506802797922 -7.918250668136848e-06 0.0 0.0019600093508803916 0.0 0.0
-4.63965781453099e-06 7.565587063131135e-05 0.0 0.001951618175523591 0.0 0.0
-5.960209417111012e-05 3.5092723124630544e-05 0.0 0.0020779336809392613 0.0 0.0
0.000217185564608172 -0.0004413887014362434 0.0 0.002041169062050171 0.0 0.0
0.00048122375607779285 -0.0020808854114002986 0.0 0.0013867121192626215 0.0 0.0
0.0003680494316928861 -0.0016563266913325863 0.0 -0.0013212565603663005 0.0 0.0
0.0001359303024907121 -0.0004289340801609626 0.0 -0.0019393856258950954 0.0 0.0
-0.000144459258385509 5.539963845416629e-05 0.0 -0.0021303231866220823 0.0 0.0
-0.00016436537878280767 0.0001394178395128257 0.0 -0.002034651000828995 0.0 0.0
-0.00010158331955851621 9.911930863853519e-05 0.0 -0.002025955515627364 0.0 0.0
-4.5888538400242926e-05 5.02077316502842e-05 0.0 -0.0021089781503760585 0.0 0.0
-1.492906847376334e-05 1.6689243072703078e-05 0.0 -0.002230149931652275 0.0 0.0
-2.331375121332734e-06 2.6020343521630106e-06 0.0 -0.002329241601652136 0.0 0.0
9.143730527517063e-07 -1.0235709504074191e-06 0.0 -0.0023670378301034987 0.0 0.0
1.0730590882733991e-06 -8.139409034312115e-07 0.0 -0.0024210255646846812 0.0 0.0
7.397105853859773e-07 -5.712156554108587e-07 0.0 -0.0024775436211558546 0.0 0.0
2.1653024110784283e-08 8.92823307227641e-08 0.0 -0.002661480339294983 0.0 0.0
-2.664457985886127e-06 2.0305423255090647e-06 0.0 -0.002942417316828368 0.0 0.0
-6.9977506225042175e-06 6.382986180942214e-06 0.0 -0.003364122943746593 0.0 0.0
6.880850845074641e-07 3.9496560556141844e-06 0.0 -0.003978868426794714 0.0 0.0
7.358778109422149e-05 -3.373502567292807e-05 0.0 -0.004807370011139843 0.0 0.0
0.0003639708604095379 -0.00024275867889444748 0.0 -0.005819878403969771 0.0 0.0
0.0011378957074616946 -0.0008465157619424438 0.0 -0.0068951456278766535 0.0 0.0
0.0026162400737238492 -0.0021287655705876565 0.0 -0.0077763247665766306 0.0 0.0
0.004847237862788131 -0.003919650558135412 0.0 -0.007732409485864438 0.0 0.0
0.0061464432174432055 -0.007726016814261084 0.0 4.966946992590593e-15 0.0 0.0
0.004847237862788199 -0.003919650558134389 0.0 0.007732409485875991 0.0 0.0
0.0026162400737230604 -0.002128765570591429 0.0 0.007776324766586325 0.0 0.0
0.0011378957074610761 -0.0008465157619416204 0.0 0.006895145627879061 0.0 0.0
0.0003639708604100251 -0.00024275867889745923 0.0 0.005819878403968344 0.0 0.0
7.358778109508072e-05 -3.37350256737158e-05 0.0 0.004807370011137968 0.0 0.0
6.880850853551476e-07 3.9496560584659885e-06 0.0 0.00397886842679328 0.0 0.0
-6.997750621122293e-06 6.382986179292668e-06 0.0 0.0033641229437459284 0.0 0.0
-2.6644579844636537e-06 2.0305423247833946e-06 0.0 0.0029424173168259554 0.0 0.0
2.165302532135022e-08 8.928233003226962e-08 0.0 0.00266148033929255 0.0 0.0
7.397105864410957e-07 -5.712156574066784e-07 0.0 0.0024775436211534408 0.0 0.0
1.073059088956433e-06 -8.139409042231636e-07 0.0 0.0024210255646836196 0.0 0.0
9.143730532445169e-07 -1.0235709507256393e-06 0.0 0.0023670378301037017 0.0 0.0
-2.331375121103805e-06 2.6020343533262443e-06 0.0 0.0023292416016510364 0.0 0.0
-1.4929068473641158e-05 1.668924307311742e-05 0.0 0.0022301499316502785 0.0 0.0
-4.5888538400022914e-05 5.0207731649700585e-05 0.0 0.002108978150373033 0.0 0.0
-0.00010158331955828167 9.911930863777561e-05 0.0 0.0020259555156256067 0.0 0.0
-0.00016436537878265818 0.00013941783951204373 0.0 0.00203465100082698 0.0 0.0
-0.00014445925838552898 5.539963845452413e-05 0.0 0.0021303231866197383 0.0 0.0
0.0001359303024905663 -0.00042893408016077446 0.0 0.0019393856258936287 0.0 0.0
0.00036804943169266356 -0.0016563266913308813 0.0 0.0013212565603651794 0.0 0.0
0.00027973497100259556 -0.0012998970775303235 0.0 -0.0012128092013403077 0.0 0.0
6.892885365646022e-05 -0.000397085635049347 0.0 -0.0018306949360610888 0.0 0.0
-0.00022324840550735448 7.652617811651266e-05 0.0 -0.002129788981826293 0.0 0.0
-0.00031566741493591554 0.00019848093556397572 0.0 -0.0020657110624953444 0.0 0.0
-0.0003325122759092835 0.00020090559878703604 0.0 -0.0020401352032735284 0.0 0.0
-0.0003624003865664277 0.00019424762786732694 0.0 -0.0020977525082404207 0.0 0.0
-0.00043679288488710313 0.0002036762885245098 0.0 -0.002195995802844702 0.0 0.0
-0.0005696790911684887 0.00024852990040927914 0.0 -0.002275162957226337 0.0 0.0
-0.0007789207235181722 0.00033597673619116373 0.0 -0.002329816894255477 0.0 0.0
-0.001060684532702788 0.0004783437290543603 0.0 -0.002376008577243335 0.0 0.0
-0.0014213208118241407 0.0006815524486078585 0.0 -0.0025408809379899614 0.0 0.0
-0.0018706399199114386 0.0009840692736394854 0.0 -0.0028561473958472216 0.0 0.0
-0.0024227939793945038 0.0013716033009336368 0.0 -0.0032808809292235283 0.0 0.0
-0.003131420263012598 0.00191318611169997 0.0 -0.003817777147679344 0.0 0.0
-0.0040252220397672366 0.0026566216268373347 0.0 -0.0045068357910976005 0.0 0.0
-0.005055041708111064 0.0035757350914034213 0.0 -0.005429538032570247 0.0 0.0
-0.006040876594569708 0.004513445066458799 0.0 -0.006623366503586666 0.0 0.0
-0.006637498354396235 0.005157310341514579 0.0 -0.008122578112418549 0.0 0.0
-0.0063763644773141455 0.005007657687654978 0.0 -0.009782872805095726 0.0 0.0
-0.00446524697023633 0.003584420227666042 0.0 -0.010451611754974636 0.0 0.0
-0.0029623301603891993 -0.0006692413111054677 0.0 6.218116299638865e-15 0.0 0.0
-0.00446524697023673 0.003584420227668907 0.0 0.010451611754986063 0.0 0.0
-0.006376364477313552 0.005007657687652291 0.0 0.009782872805105246 0.0 0.0
-0.00663749835439391 0.0051573103415122655 0.0 0.008122578112422296 0.0 0.0
-0.006040876594566 0.004513445066459057 0.0 0.006623366503585382 0.0 0.0
-0.005055041708107482 0.0035757350913986187 0.0 0.005429538032567811 0.0 0.0
-0.004025222039764022 0.0026566216268376023 0.0 0.0045068357910952005 0.0 0.0
-0.0031314202630087474 0.0019131861116964228 0.0 0.0038177771476769345 0.0 0.0
-0.0024227939793902255 0.00137160330093261 0.0 0.003280880929220616 0.0 0.0
-0.0018706399199073503 0.000984069273635391 0.0 0.002856147395843724 0.0 0.0
-0.0014213208118206493 0.0006815524486035622 0.0 0.002540880937986596 0.0 0.0
-0.001060684532700128 0.00047834372905172556 0.0 0.0023760085772422104 0.0 0.0
-0.0007789207235164465 0.00033597673619110567 0.0 0.0023298168942555994 0.0 0.0
-0.0005696790911673958 0.0002485299004094417 0.0 0.0022751629572248916 0.0 0.0
-0.00043679288488634495 0.0002036762885242823 0.0 0.0021959958028431818 0.0 0.0
-0.00036240038656567235 0.00019424762786741088 0.0 0.0020977525082376976 0.0 0.0
-0.0003325122759086458 0.00020090559878640165 0.0 0.002040135203271939 0.0 0.0
-0.0003156674149355742 0.00019848093556395818 0.0 0.002065711062493398 0.0 0.0
-0.00022324840550717623 7.652617811688672e-05 0.0 0.0021297889818237656 0.0 0.0
6.892885365634979e-05 -0.00039708563504950537 0.0 0.0018306949360599196 0.0 0.0
0.0002797349710022951 -0.0012998970775288702 0.0 0.0012128092013392986 0.0 0.0
0.00020201838169823293 -0.0009910147930477676 0.0 -0.001082610830159751 0.0 0.0
7.857142841302991e-06 -0.00034976633262477977 0.0 -0.0017022063620607366 0.0 0.0
-0.00029787777303120556 9.975283083148112e-05 0.0 -0.0020778828548092734 0.0 0.0
-0.00045925354532223796 0.0002534421290750507 0.0 -0.0020436272839918362 0.0 0.0
-0.000555727657898006 0.00029694831473576496 0.0 -0.00200057796104178 0.0 0.0
-0.0006721968883927523 0.0003329002228866601 0.0 -0.0020245672399027545 0.0 0.0
-0.0008520926781006161 0.00038573137460287416 0.0 -0.002079616090723 0.0 0.0
-0.0011395391529204634 0.0004934597734921176 0.0 -0.002126041390356122 0.0 0.0
-0.0015640570818741474 0.0007005257639805195 0.0 -0.0022123733826661545 0.0 0.0
-0.0021505292811083076 0.0010605896848603085 0.0 -0.0024104135721879608 0.0 0.0
-0.002906897023199782 0.0015856317833807727 0.0 -0.0028443636085690965 0.0 0.0
-0.0038151300508866438 0.0022854711714724884 0.0 -0.003382034974543763 0.0 0.0
-0.004916220992182247 0.003177597588850222 0.0 -0.003993808968034158 0.0 0.0
-0.006312918146462182 0.00438442281900864 0.0 -0.00468819865119089 0.0 0.0
-0.008093746869546881 0.006006565323096279 0.0 -0.005536015894006165 0.0 0.0
-0.010230318711108006 0.008039074348457726 0.0 -0.006676440229379661 0.0 0.0
-0.012497514333899696 0.010268475379842676 0.0 -0.008267099897413283 0.0 0.0
-0.01444201067048917 0.01222778655299954 0.0 -0.010373254377862306 0.0 0.0
-0.015232207740673326 0.013111502709288653 0.0 -0.012574203042061248 0.0 0.0
-0.013548812083484012 0.011472106338326737 0.0 -0.013087669947283064 0.0 0.0
-0.011895036855551678 0.0057355412636667345 0.0 5.723286428116481e-15 0.0 0.0
-0.013548812083484026 0.01147210633832847 0.0 0.013087669947296654 0.0 0.0
-0.015232207740671262 0.013111502709286758 0.0 0.012574203042074367 0.0 0.0
-0.014442010670484555 0.012227786552995713 0.0 0.010373254377868088 0.0 0.0
-0.01249751433389338 0.010268475379837286 0.0 0.008267099897412603 0.0 0.0
-0.010230318711101758 0.008039074348453195 0.0 0.006676440229376789 0.0 0.0
-0.008093746869541184 0.0060065653230910706 0.0 0.005536015894003623 0.0 0.0
-0.006312918146455905 0.004384422819002239 0.0 0.004688198651188706 0.0 0.0
-0.004916220992175287 0.0031775975888461163 0.0 0.003993808968031391 0.0 0.0
-0.003815130050879823 0.002285471171465656 0.0 0.0033820349745383362 0.0 0.0
-0.0029068970231936934 0.0015856317833768943 0.0 0.002844363608563761 0.0 0.0
-0.00215052928110343 0.0010605896848564563 0.0 0.0024104135721853544 0.0 0.0
-0.0015640570818709584 0.0007005257639795585 0.0 0.0022123733826647763 0.0 0.0
-0.0011395391529183216 0.0004934597734908815 0.0 0.0021260413903552585 0.0 0.0
-0.0008520926780991383 0.00038573137460100435 0.0 0.0020796160907210616 0.0 0.0
-0.0006721968883918047 0.0003329002228876852 0.0 0.0020245672399002873 0.0 0.0
-0.0005557276578973192 0.0002969483147355117 0.0 0.002000577961039739 0.0 0.0
-0.00045925354532182065 0.00025344212907513387 0.0 0.0020436272839900126 0.0 0.0
-0.0002978777730309981 9.975283083160297e-05 0.0 0.002077882854806901 0.0 0.0
7.857142841272054e-06 -0.0003497663326247556 0.0 0.001702206362059092 0.0 0.0
0.00020201838169808605 -0.0009910147930466912 0.0 0.001082610830158573 0.0 0.0
0.00013116290640503343 -0.000725180025226658 0.0 -0.0009460779744802908 0.0 0.0
-5.025068724742617e-05 -0.00029087612928513145 0.0 -0.0015506988151130657 0.0 0.0
-0.0003701808639069709 0.00012617419145454653 0.0 -0.0019760794937391437 0.0 0.0
-0.0005959733739695626 0.0003048925259804798 0.0 -0.0019684482929834962 0.0 0.0
-0.0007702278880059643 0.000386384788343147 0.0 -0.0019078888595671904 0.0 0.0
-0.0009715980338852535 0.00046516639616879366 0.0 -0.0018891523779463802 0.0 0.0
-0.0012601247667949947 0.0005577457035945376 0.0 -0.0018886740329395598 0.0 0.0
-0.001714299182124414 0.0007606803359984515 0.0 -0.0019317122492422318 0.0 0.0
-0.0024000165632144573 0.0011699099868680515 0.0 -0.00213366914999812 0.0 0.0
-0.003331764569999533 0.001850357892304691 0.0 -0.002614328921483727 0.0 0.0
-0.004469757445875861 0.00275882697300681 0.0 -0.003255913635367668 0.0 0.0
-0.005809714084601714 0.0038785172526088754 0.0 -0.0039007703299627694 0.0 0.0
-0.007451603694005842 0.005299044795264448 0.0 -0.004575816647757001 0.0 0.0
-0.009552384599377137 0.007193554755418243 0.0 -0.005355636882783891 0.0 0.0
-0.012245083297008387 0.009714212397192109 0.0 -0.0063602769038225045 0.0 0.0
-0.015518605059063013 0.01287669418268975 0.0 -0.007751737804889011 0.0 0.0
-0.019109672719503878 0.01643500684297278 0.0 -0.009813751349004756 0.0 0.0
-0.022372915515887385 0.01976462669375835 0.0 -0.012680707522387686 0.0 0.0
-0.024070635531536082 0.02161344451580108 0.0 -0.015630981240400986 0.0 0.0
-0.022206072797222667 0.019992712731856446 0.0 -0.016633336858531033 0.0 0.0
-0.02008371317345632 0.012020558016569136 0.0 7.118437783670828e-15 0.0 0.0
-0.0222060727972217 0.01999271273185384 0.0 0.01663333685854828 0.0 0.0
-0.0240706355315326 0.02161344451580155 0.0 0.01563098124041835 0.0 0.0
-0.022372915515880623 0.01976462669375294 0.0 0.01268070752239608 0.0 0.0
-0.019109672719495048 0.016435006842962546 0.0 0.009813751349005386 0.0 0.0
-0.015518605059054422 0.012876694182684334 0.0 0.007751737804885268 0.0 0.0
-0.012245083297000317 0.009714212397185158 0.0 0.006360276903819352 0.0 0.0
-0.009552384599368293 0.007193554755408957 0.0 0.0053556368827806814 0.0 0.0
-0.0074516036939962366 0.005299044795253647 0.0 0.004575816647752802 0.0 0.0
-0.005809714084592312 0.0038785172526005903 0.0 0.0039007703299560456 0.0 0.0
-0.004469757445867186 0.0027588269729995163 0.0 0.003255913635360473 0.0 0.0
-0.00333176456999246 0.0018503578922999795 0.0 0.002614328921478767 0.0 0.0
-0.0024000165632095363 0.0011699099868634317 0.0 0.0021336691499960086 0.0 0.0
-0.001714299182121163 0.0007606803359973644 0.0 0.0019317122492413233 0.0 0.0
-0.001260124766793013 0.0005577457035924863 0.0 0.0018886740329380428 0.0 0.0
-0.000971598033883857 0.0004651663961695385 0.0 0.0018891523779443675 0.0 0.0
-0.0007702278880048854 0.0003863847883425377 0.0 0.0019078888595648663 0.0 0.0
-0.0005959733739689382 0.0003048925259805948 0.0 0.0019684482929813343 0.0 0.0
-0.0003701808639065687 0.00012617419145446456 0.0 0.0019760794937373058 0.0 0.0
-5.025068724730243e-05 -0.0002908761292847319 0.0 0.0015506988151117852 0.0 0.0
0.00013116290640490902 -0.0007251800252259736 0.0 0.0009460779744794711 0.0 0.0
6.658594086839766e-05 -0.000499983004284736 0.0 -0.0008063072541500092 0.0 0.0
-0.00010601592280484181 -0.00022495726909021124 0.0 -0.001377248609802855 0.0 0.0
-0.00044113136678736284 0.00015632652717879856 0.0 -0.0018266721141994126 0.0 0.0
-0.0007267730999636363 0.0003531049192183148 0.0 -0.001840769327808139 0.0 0.0
-0.000975261879539782 0.0004695756567921519 0.0 -0.001761355975753844 0.0 0.0
-0.0012598052228851818 0.0005856434358499586 0.0 -0.0016939410262325858 0.0 0.0
-0.0016696693513993874 0.0007354984987191468 0.0 -0.001646626718048499 0.0 0.0
-0.002329951084679268 0.001094955634166147 0.0 -0.001748740426271392 0.0 0.0
-0.0033101157767335214 0.0017973723963851736 0.0 -0.0021597060194527935 0.0 0.0
-0.004571036205166296 0.002809945275135468 0.0 -0.00280442982050842 0.0 0.0
-0.006060288141083132 0.004062050952875081 0.0 -0.003456289590679453 0.0 0.0
-0.007829886895144364 0.0055960740658168705 0.0 -0.004102346965595521 0.0 0.0
-0.010030399347174488 0.007557122877063366 0.0 -0.004799217830853306 0.0 0.0
-0.012855696133469232 0.010156012191533831 0.0 -0.005646541122769731 0.0 0.0
-0.016473825728638068 0.013582093464541097 0.0 -0.006736627188283934 0.0 0.0
-0.020901839928676835 0.01788344240938765 0.0 -0.008269894587345209 0.0 0.0
-0.02582930176716534 0.02278301189186236 0.0 -0.010581160400054615 0.0 0.0
-0.030377323419711014 0.027452693043463032 0.0 -0.013887248676402926 0.0 0.0
-0.03284786768002554 0.030190810801886167 0.0 -0.01754720849562613 0.0 0.0
-0.030530064934346776 0.0282920021575434 0.0 -0.019344683562498355 0.0 0.0
-0.027767649557469576 0.01808700330775242 0.0 8.828441450114966e-15 0.0 0.0
-0.03053006493434479 0.028292002157540304 0.0 0.01934468356251783 0.0 0.0
-0.03284786768002068 0.030190810801884023 0.0 0.017547208495644877 0.0 0.0
-0.03037732341970263 0.027452693043451853 0.0 0.013887248676414252 0.0 0.0
-0.02582930176715482 0.022783011891852833 0.0 0.010581160400056987 0.0 0.0
-0.02090183992866598 0.017883442409377538 0.0 0.008269894587342867 0.0 0.0
-0.01647382572862755 0.013582093464532388 0.0 0.006736627188280983 0.0 0.0
-0.012855696133458196 0.01015601219152414 0.0 0.005646541122765906 0.0 0.0
-0.010030399347162518 0.007557122877052807 0.0 0.0047992178308501636 0.0 0.0
-0.007829886895132346 0.005596074065807037 0.0 0.004102346965589286 0.0 0.0
-0.006060288141072013 0.004062050952865007 0.0 0.0034562895906724072 0.0 0.0
-0.004571036205157039 0.0028099452751279745 0.0 0.0028044298205025407 0.0 0.0
-0.0033101157767265288 0.0017973723963801073 0.0 0.002159706019450012 0.0 0.0
-0.0023299510846745103 0.001094955634163017 0.0 0.001748740426269956 0.0 0.0
-0.0016696693513966517 0.0007354984987198473 0.0 0.0016466267180471619 0.0 0.0
-0.001259805222883556 0.0005856434358489053 0.0 0.0016939410262315198 0.0 0.0
-0.0009752618795385961 0.0004695756567911647 0.0 0.0017613559757519185 0.0 0.0
-0.0007267730999629012 0.0003531049192180819 0.0 0.0018407693278062213 0.0 0.0
-0.0004411313667869616 0.0001563265271783944 0.0 0.001826672114197765 0.0 0.0
-0.00010601592280467455 -0.00022495726909013865 0.0 0.0013772486098016735 0.0 0.0
6.658594086848111e-05 -0.0004999830042841617 0.0 0.0008063072541492634 0.0 0.0
9.074626831766278e-06 -0.00031464927863247524 0.0 -0.0006636818884852793 0.0 0.0
-0.00015865099096269125 -0.00015620148168591288 0.0 -0.0011834470208980088 0.0 0.0
-0.0005106917950879585 0.00018968396501460268 0.0 -0.0016318693413205764 0.0 0.0
-0.000852058097766195 0.0003984410742386196 0.0 -0.0016607698979991016 0.0 0.0
-0.0011704483306286151 0.000546548075579069 0.0 -0.0015634084116809407 0.0 0.0
-0.001540806338709961 0.0006949862495353395 0.0 -0.0014423773791992919 0.0 0.0
-0.0020993381716007116 0.0009435594844197286 0.0 -0.0013784200382106358 0.0 0.0
-0.003003635001475747 0.001534848730365646 0.0 -0.0016061367580973143 0.0 0.0
-0.004274988749941102 0.002547297164206529 0.0 -0.0021660828623804333 0.0 0.0
-0.005827648056376773 0.0038453600311346954 0.0 -0.002789853741457835 0.0 0.0
-0.00765922431786787 0.005426528329636577 0.0 -0.003387411895407444 0.0 0.0
-0.009877588853375783 0.007389494763182925 0.0 -0.004002968190122048 0.0 0.0
-0.012657105389978116 0.009908958519411471 0.0 -0.004692016120122305 0.0 0.0
-0.016220155913885245 0.013227138455540612 0.0 -0.0055567980101099545 0.0 0.0
-0.020767824203587085 0.017559648967210927 0.0 -0.0066845476294755115 0.0 0.0
-0.02633583027984322 0.022975397139665593 0.0 -0.008194800167437531 0.0 0.0
-0.03256220653127256 0.029181413097295765 0.0 -0.010434110366360792 0.0 0.0
-0.03835682851054848 0.03515877512755634 0.0 -0.01381452307432182 0.0 0.0
-0.041527453654172715 0.038730213130337886 0.0 -0.018020543079450838 0.0 0.0
-0.03868939188343627 0.03647620116149413 0.0 -0.021194313941945934 0.0 0.0
-0.03527570019131836 0.024079395207590105 0.0 8.760353553682876e-15 0.0 0.0
-0.0386893918834333 0.03647620116149253 0.0 0.02119431394196629 0.0 0.0
-0.04152745365416625 0.03873021313033027 0.0 0.018020543079471544 0.0 0.0
-0.038356828510538545 0.03515877512754625 0.0 0.013814523074334811 0.0 0.0
-0.03256220653126043 0.029181413097283032 0.0 0.01043411036636208 0.0 0.0
-0.02633583027983036 0.022975397139655088 0.0 0.008194800167435451 0.0 0.0
-0.020767824203574113 0.017559648967199738 0.0 0.006684547629473014 0.0 0.0
-0.016220155913871603 0.013227138455530538 0.0 0.005556798010107315 0.0 0.0
-0.012657105389963756 0.00990895851939949 0.0 0.004692016120118251 0.0 0.0
-0.009877588853361558 0.007389494763168964 0.0 0.004002968190116125 0.0 0.0
-0.00765922431785465 0.00542652832962572 0.0 0.00338741189539986 0.0 0.0
-0.005827648056365631 0.0038453600311258874 0.0 0.0027898537414513262 0.0 0.0
-0.004274988749932174 0.0025472971641984318 0.0 0.0021660828623767366 0.0 0.0
-0.003003635001469287 0.0015348487303606985 0.0 0.0016061367580942694 0.0 0.0
-0.0020993381715968575 0.0009435594844206428 0.0 0.001378420038209133 0.0 0.0
-0.0015408063387079307 0.0006949862495340462 0.0 0.0014423773791983172 0.0 0.0
-0.0011704483306274368 0.000546548075577354 0.0 0.0015634084116793747 0.0 0.0
-0.0008520580977653532 0.0003984410742383395 0.0 0.0016607698979978615 0.0 0.0
-0.0005106917950874766 0.00018968396501417643 0.0 0.001631869341318524 0.0 0.0
-0.0001586509909625145 -0.00015620148168586697 0.0 0.0011834470208972395 0.0 0.0
9.07462683178557e-06 -0.0003146492786320895 0.0 0.0006636818884837714 0.0 0.0
-3.9700903486015646e-05 -0.0001696009929846092 0.0 -0.0005189864033352254 0.0 0.0
-0.0002061861417150527 -8.842131033113882e-05 0.0 -0.0009711054301809196 0.0 0.0
-0.0005778370352355567 0.0002245126339094808 0.0 -0.0013929564712520373 0.0 0.0
-0.0009726298512584709 0.00044208080294206166 0.0 -0.001428463230678814 0.0 0.0
-0.0013570640572604805 0.0006149128069868374 0.0 -0.001316251644972448 0.0 0.0
-0.0018232685257721856 0.0008047012890978502 0.0 -0.00114432553135982 0.0 0.0
-0.0025672928425821617 0.001212169003706357 0.0 -0.0011204009667279298 0.0 0.0
-0.0037313847833816208 0.0020881343798215225 0.0 -0.0014883688333045483 0.0 0.0
-0.005256624840549124 0.0033520106319136485 0.0 -0.0020183631883470767 0.0 0.0
-0.007083260462995514 0.004914221532468555 0.0 -0.002545177886947278 0.0 0.0
-0.00927224710449385 0.0068362492217155756 0.0 -0.0030813895343529273 0.0 0.0
-0.011951682125922874 0.009238589809493616 0.0 -0.003632996481089972 0.0 0.0
-0.015327437185413979 0.012333807294412562 0.0 -0.004270268801175442 0.0 0.0
-0.019648460189556956 0.016388425511770922 0.0 -0.005099077296239707 0.0 0.0
-0.025112876636524988 0.021620904852494773 0.0 -0.0061909117534588946 0.0 0.0
-0.03176249699518487 0.028096512212345597 0.0 -0.0075678292609669285 0.0 0.0
-0.03922170752794651 0.03551908333371995 0.0 -0.009437959649320551 0.0 0.0
-0.04620931552935698 0.04274269232115557 0.0 -0.012427196123359964 0.0 0.0
-0.05010084260198774 0.047181397809540344 0.0 -0.01698177072730577 0.0 0.0
-0.046861470505816315 0.044731765478230406 0.0 -0.022315548479265885 0.0 0.0
-0.04287274965444592 0.03023401803027488 0.0 9.054389182860945e-15 0.0 0.0
-0.04686147050581243 0.044731765478227985 0.0 0.02231554847928699 0.0 0.0
-0.05010084260197992 0.04718139780953111 0.0 0.016981770727325447 0.0 0.0
-0.046209315529345665 0.042742692321146324 0.0 0.012427196123372406 0.0 0.0
-0.03922170752793279 0.03551908333370541 0.0 0.009437959649322335 0.0 0.0
-0.03176249699516984 0.028096512212334467 0.0 0.00756782926096666 0.0 0.0
-0.02511287663650981 0.021620904852482678 0.0 0.006190911753456734 0.0 0.0
-0.019648460189541077 0.016388425511757374 0.0 0.00509907729623691 0.0 0.0
-0.01532743718539709 0.012333807294398594 0.0 0.004270268801170346 0.0 0.0
-0.011951682125906343 0.009238589809478765 0.0 0.0036329964810852683 0.0 0.0
-0.009272247104478758 0.006836249221701072 0.0 0.0030813895343471233 0.0 0.0
-0.007083260462982414 0.004914221532458905 0.0 0.0025451778869408385 0.0 0.0
-0.005256624840538429 0.0033520106319030706 0.0 0.0020183631883436874 0.0 0.0
-0.003731384783373779 0.0020881343798156496 0.0 0.0014883688333012612 0.0 0.0
-0.0025672928425771904 0.0012121690037044425 0.0 0.0011204009667264377 0.0 0.0
-0.001823268525769619 0.0008047012890960451 0.0 0.0011443255313591002 0.0 0.0
-0.0013570640572590819 0.0006149128069860401 0.0 0.0013162516449718561 0.0 0.0
-0.00097262985125752 0.0004420808029420929 0.0 0.0014284632306775906 0.0 0.0
-0.0005778370352350445 0.0002245126339091717 0.0 0.0013929564712503056 0.0 0.0
-0.00020618614171491963 -8.842131033102573e-05 0.0 0.0009711054301800345 0.0 0.0
-3.970090348608986e-05 -0.00016960099298438716 0.0 0.0005189864033345225 0.0 0.0
-7.703219455716497e-05 -6.597190230516626e-05 0.0 -0.00037561248394274183 0.0 0.0
-0.00024531178177178447 -2.5580490930246415e-05 0.0 -0.0007426229944017346 0.0 0.0
-0.0006404451760745054 0.00025804989278919695 0.0 -0.0011090632465653968 0.0 0.0
-0.0010891645633153287 0.0004852226120930618 0.0 -0.0011429534249222289 0.0 0.0
-0.0015388506299580463 0.0006745380572492316 0.0 -0.0010199641128827528 0.0 0.0
-0.0021236916199958663 0.0009318357146939976 0.0 -0.0008136194006760812 0.0 0.0
-0.003086282943816843 0.0015717366278815874 0.0 -0.0009032287313056873 0.0 0.0
-0.00448110710212684 0.002698913825343403 0.0 -0.001278407803691101 0.0 0.0
-0.006229959194371906 0.004173176160469566 0.0 -0.001682547185390473 0.0 0.0
-0.008342243700903872 0.0060101953057309756 0.0 -0.002113179431977573 0.0 0.0
-0.010896366491145532 0.008279206458625852 0.0 -0.002552525577330262 0.0 0.0
-0.01405029568883126 0.011133466620973158 0.0 -0.0030066338371768394 0.0 0.0
-0.018041095016570665 0.014819108196503252 0.0 -0.0035397764642622082 0.0 0.0
-0.02312814906409214 0.01962447377111349 0.0 -0.004264768416361721 0.0 0.0
-0.029500106840346478 0.025752499616412416 0.0 -0.005251362918748418 0.0 0.0
-0.037155879128131085 0.03321868355877855 0.0 -0.006437940357278656 0.0 0.0
-0.04569568328030969 0.04168862323570924 0.0 -0.007747842051220732 0.0 0.0
-0.053806060253691286 0.050038154694004966 0.0 -0.009766967920869521 0.0 0.0
-0.05857952502202533 0.05550654094122337 0.0 -0.014316763340108814 0.0 0.0
-0.05523173128460844 0.05326060130360311 0.0 -0.022511047653873493 0.0 0.0
-0.05081360699113937 0.03682443959470964 0.0 8.758618830206899e-15 0.0 0.0
-0.05523173128460368 0.05326060130359974 0.0 0.02251104765389279 0.0 0.0
-0.05857952502201588 0.05550654094121378 0.0 0.014316763340127301 0.0 0.0
-0.05380606025367827 0.05003815469399336 0.0 0.009766967920880724 0.0 0.0
-0.045695683280294316 0.041688623235692446 0.0 0.00774784205122399 0.0 0.0
-0.03715587912811426 0.033218683558765914 0.0 0.006437940357280092 0.0 0.0
-0.029500106840328937 0.025752499616397303 0.0 0.005251362918746481 0.0 0.0
-0.02312814906407388 0.0196244737710974 0.0 0.004264768416359707 0.0 0.0
-0.01804109501655161 0.01481910819648638 0.0 0.003539776464258842 0.0 0.0
-0.014050295688812161 0.0111334666209582 0.0 0.003006633837172756 0.0 0.0
-0.010896366491128209 0.008279206458608922 0.0 0.002552525577324961 0.0 0.0
-0.008342243700888903 0.006010195305716739 0.0 0.0021131794319728552 0.0 0.0
-0.0062299591943596015 0.004173176160459035 0.0 0.0016825471853866517 0.0 0.0
-0.00448110710211736 0.0026989138253354743 0.0 0.001278407803687976 0.0 0.0
-0.0030862829438102683 0.0015717366278770256 0.0 0.0009032287313031483 0.0 0.0
-0.0021236916199924463 0.0009318357146923103 0.0 0.0008136194006752868 0.0 0.0
-0.001538850629956502 0.0006745380572488669 0.0 0.0010199641128825357 0.0 0.0
-0.0010891645633143822 0.000485222612092342 0.0 0.0011429534249208179 0.0 0.0
-0.0006404451760739445 0.00025804989278873324 0.0 0.0011090632465642512 0.0 0.0
-0.00024531178177156286 -2.5580490930350208e-05 0.0 0.0007426229944006076 0.0 0.0
-7.703219455712965e-05 -6.597190230506216e-05 0.0 0.0003756124839427533 0.0 0.0
-9.857971956134213e-05 -4.984270243266305e-06 0.0 -0.00024259199321276475 0.0 0.0
-0.0002706811098200578 2.7210249339503094e-05 0.0 -0.0005012797106022127 0.0 0.0
-0.0006950625011752151 0.0002862759500654921 0.0 -0.0007753913000203786 0.0 0.0
-0.0012028344498475516 0.0005294848471870705 0.0 -0.0008003993871499796 0.0 0.0
-0.0017240593600973265 0.0007289141918324799 0.0 -0.0006772471695576513 0.0 0.0
-0.002461345864417851 0.0011139372343550635 0.0 -0.0004958688792213757 0.0 0.0
-0.0036365851792621697 0.0020036987277599503 0.0 -0.0006610939544646024 0.0 0.0
-0.005227148268433331 0.0033175771758392294 0.0 -0.0009133408742624451 0.0 0.0
-0.007199922375696043 0.0050104872353521415 0.0 -0.0011986739737601193 0.0 0.0
-0.009601289630826584 0.007125274932866663 0.0 -0.0015032033816485743 0.0 0.0
-0.012530123524719498 0.00974809007406254 0.0 -0.0018124137109978256 0.0 0.0
-0.016170730736334002 0.013065530280511321 0.0 -0.0021265288809960785 0.0 0.0
-0.020787397431289094 0.017356466030817214 0.0 -0.002507869546101979 0.0 0.0
-0.02665587866932182 0.022921871689702587 0.0 -0.003071679012680527 0.0 0.0
-0.03392391254800591 0.02993619807959784 0.0 -0.0038513450779195627 0.0 0.0
-0.04249351399860428 0.0383286002175446 0.0 -0.0047549684030629875 0.0 0.0
-0.05190169795256624 0.047651639029348894 0.0 -0.005549403476121644 0.0 0.0
-0.06099586059846902 0.05684297477430489 0.0 -0.006379164613229614 0.0 0.0
-0.06690678384935257 0.06354326094537718 0.0 -0.009658941512457284 0.0 0.0
-0.06399450393980399 0.06229422966610952 0.0 -0.021017290697007425 0.0 0.0
-0.05943790536786628 0.044282227514286426 0.0 6.839147304038562e-15 0.0 0.0
-0.06399450393979864 0.0622942296661054 0.0 0.021017290697021827 0.0 0.0
-0.06690678384934165 0.06354326094536862 0.0 0.009658941512471689 0.0 0.0
-0.06099586059845405 0.05684297477429166 0.0 0.0063791646132375915 0.0 0.0
-0.05190169795254865 0.0476516390293309 0.0 0.005549403476125354 0.0 0.0
-0.04249351399858541 0.038328600217528444 0.0 0.004754968403064356 0.0 0.0
-0.033923912547986254 0.029936198079580416 0.0 0.0038513450779190314 0.0 0.0
-0.026655878669300952 0.022921871689684688 0.0 0.0030716790126792525 0.0 0.0
-0.020787397431267462 0.017356466030794847 0.0 0.002507869546100668 0.0 0.0
-0.016170730736312814 0.013065530280492947 0.0 0.0021265288809940133 0.0 0.0
-0.012530123524700395 0.009748090074044797 0.0 0.0018124137109937774 0.0 0.0
-0.009601289630810137 0.007125274932852005 0.0 0.0015032033816453434 0.0 0.0
-0.007199922375682153 0.005010487235339877 0.0 0.0011986739737572466 0.0 0.0
-0.0052271482684223035 0.003317577175830363 0.0 0.000913340874260021 0.0 0.0
-0.0036365851792545985 0.0020036987277543784 0.0 0.0006610939544626956 0.0 0.0
-0.0024613458644137513 0.0011139372343533201 0.0 0.00049586887922086 0.0 0.0
-0.0017240593600955283 0.0007289141918314508 0.0 0.0006772471695571579 0.0 0.0
-0.0012028344498465468 0.0005294848471858938 0.0 0.0008003993871489564 0.0 0.0
-0.0006950625011745566 0.00028627595006504633 0.0 0.0007753913000195546 0.0 0.0
-0.0002706811098197333 2.7210249339389595e-05 0.0 0.0005012797106017093 0.0 0.0
-9.857971956117893e-05 -4.984270243282787e-06 0.0 0.00024259199321275193 0.0 0.0
-9.68282327609493e-05 1.3098832152155544e-05 0.0 -0.0001402687077248995 0.0 0.0
-0.00027355614982063625 6.147052003719094e-05 0.0 -0.0002509271399658856 0.0 0.0
-0.0007364181741588406 0.0003045165741601666 0.0 -0.000379763744642788 0.0 0.0
-0.0013168993277920867 0.00057489775179447 0.0 -0.0003932426923698683 0.0 0.0
-0.00193219912752086 0.000801262728589754 0.0 -0.00030141275735598867 0.0 0.0
-0.002834030330072523 0.0013576395914704558 0.0 -0.00020104577676852386 0.0 0.0
-0.00419809994942905 0.0024658774160428508 0.0 -0.00031768260671769514 0.0 0.0
-0.005964996362805684 0.003942859033020559 0.0 -0.000438344123762614 0.0 0.0
-0.008162229925086499 0.005856870374107539 0.0 -0.0005720031780658155 0.0 0.0
-0.010857767057917236 0.008251676604789752 0.0 -0.0007214150382830903 0.0 0.0
-0.014169502355706933 0.01123614014738888 0.0 -0.0008614758661917841 0.0 0.0
-0.01831013015603847 0.015031207208107265 0.0 -0.0009937333387174355 0.0 0.0
-0.023569445077423985 0.019943174904640867 0.0 -0.0011990854785549072 0.0 0.0
-0.030210800524027963 0.026260495984342307 0.0 -0.0015130320938495432 0.0 0.0
-0.03834869459598152 0.034137070318146626 0.0 -0.0019454692977417718 0.0 0.0
-0.04779025943622661 0.04341535915498569 0.0 -0.0024700589564818584 0.0 0.0
-0.05788797949667891 0.05346578602619799 0.0 -0.0028944912595575308 0.0 0.0
-0.06754690970357013 0.06312961719022697 0.0 -0.0030319849374131147 0.0 0.0
-0.0747877886310938 0.07063460318482077 0.0 -0.004050277155239299 0.0 0.0
-0.07340337507639287 0.071890249392094 0.0 -0.014290951441130847 0.0 0.0
-0.06933590535040511 0.05388990113335151 0.0 4.5727310826748635e-15 0.0 0.0
-0.0734033750763866 0.07189024939208778 0.0 0.014290951441140348 0.0 0.0
-0.07478778863108133 0.07063460318480884 0.0 0.004050277155247495 0.0 0.0
-0.06754690970355284 0.06312961719021204 0.0 0.0030319849374170873 0.0 0.0
-0.05788797949665904 0.05346578602618117 0.0 0.002894491259559457 0.0 0.0
-0.04779025943620556 0.04341535915496589 0.0 0.00247005895648059 0.0 0.0
-0.03834869459595944 0.034137070318126926 0.0 0.0019454692977423503 0.0 0.0
-0.03021080052400484 0.026260495984324204 0.0 0.0015130320938494253 0.0 0.0
-0.023569445077399914 0.01994317490461698 0.0 0.0011990854785538865 0.0 0.0
-0.01831013015601483 0.015031207208084717 0.0 0.0009937333387155948 0.0 0.0
-0.014169502355685763 0.011236140147370162 0.0 0.0008614758661894839 0.0 0.0
-0.010857767057899025 0.008251676604774928 0.0 0.0007214150382813683 0.0 0.0
-0.008162229925071336 0.005856870374093674 0.0 0.0005720031780646963 0.0 0.0
-0.00596499636279338 0.00394285903301037 0.0 0.00043834412376117385 0.0 0.0
-0.004198099949420105 0.0024658774160355333 0.0 0.0003176826067171364 0.0 0.0
-0.0028340303300674226 0.0013576395914672522 0.0 0.00020104577676813555 0.0 0.0
-0.0019321991275185989 0.0008012627285889984 0.0 0.00030141275735546044 0.0 0.0
-0.001316899327790983 0.0005748977517941715 0.0 0.00039324269236956356 0.0 0.0
-0.0007364181741581794 0.00030451657415994513 0.0 0.00037976374464279234 0.0 0.0
-0.0002735561498203569 6.147052003698749e-05 0.0 0.00025092713996598744 0.0 0.0
-9.682823276079369e-05 1.309883215215835e-05 0.0 0.0001402687077250539 0.0 0.0
-5.76413941709733e-05 1.1485078018894211e-05 0.0 -9.071049614266596e-05 0.0 0.0
-0.0002390549939165176 7.259686108600877e-05 0.0 -0.00010439019120411504 0.0 0.0
-0.0007572453739267786 0.0003105729129511266 0.0 -0.00013035211952367657 0.0 0.0
-0.0014408621968680754 0.0005976094665571311 0.0 -0.0001349033704528569 0.0 0.0
-0.00217734808348052 0.0008471685902247278 0.0 -4.564323178181035e-05 0.0 0.0
-0.0032338737329433284 0.0014902209918720647 0.0 7.379661330559077e-05 0.0 0.0
-0.004757255250165959 0.002700082845912486 0.0 6.373700111978684e-05 0.0 0.0
-0.006691915896272082 0.004257119166218301 0.0 6.194480247009079e-05 0.0 0.0
-0.009113470628096195 0.0062810663691192144 0.0 7.725728936325304e-05 0.0 0.0
-0.012107477222117698 0.008817030268305775 0.0 8.830879766981545e-05 0.0 0.0
-0.015812139238631638 0.011983390085896467 0.0 0.00014560792446050475 0.0 0.0
-0.020472124406949815 0.01602297554370373 0.0 0.0002483729391607851 0.0 0.0
-0.026373358476902767 0.021249031000083483 0.0 0.0003059754941234106 0.0 0.0
-0.033768895685177075 0.02793577287393642 0.0 0.0003570310191238651 0.0 0.0
-0.0427518939962261 0.03623803070202944 0.0 0.00030973811145689834 0.0 0.0
-0.05303189458616693 0.045951287502508396 0.0 0.0001262025229611238 0.0 0.0
-0.06377592429191331 0.05634597260833606 0.0 -0.00014403153773505113 0.0 0.0
-0.07361267684021977 0.06616529142623943 0.0 -0.0003723418209637336 0.0 0.0
-0.08114440583020045 0.07381419164660735 0.0 -0.0005547153260976071 0.0 0.0
-0.08335345548927198 0.07681108921809118 0.0 -0.009508730863844128 0.0 0.0
-0.08252073836654644 0.05948262772727311 0.0 2.0122792321330962e-15 0.0 0.0
-0.08335345548926527 0.07681108921808422 0.0 0.009508730863848326 0.0 0.0
-0.08114440583018621 0.07381419164659181 0.0 0.0005547153261009404 0.0 0.0
-0.07361267684019945 0.06616529142622361 0.0 0.0003723418209660174 0.0 0.0
-0.06377592429189106 0.05634597260831928 0.0 0.0001440315377372811 0.0 0.0
-0.05303189458614345 0.04595128750248869 0.0 -0.00012620252296264341 0.0 0.0
-0.04275189399620108 0.03623803070200966 0.0 -0.000309738111456132 0.0 0.0
-0.03376889568515157 0.02793577287391836 0.0 -0.0003570310191232228 0.0 0.0
-0.026373358476876413 0.021249031000059683 0.0 -0.00030597549412438897 0.0 0.0
-0.020472124406923888 0.016022975543678927 0.0 -0.00024837293916203304 0.0 0.0
-0.01581213923860858 0.01198339008587804 0.0 -0.00014560792446135368 0.0 0.0
-0.012107477222098104 0.008817030268288475 0.0 -8.830879767027103e-05 0.0 0.0
-0.009113470628079708 0.006281066369104973 0.0 -7.725728936342413e-05 0.0 0.0
-0.006691915896258461 0.004257119166206531 0.0 -6.194480247129338e-05 0.0 0.0
-0.004757255250155952 0.0027000828459034006 0.0 -6.373700111916923e-05 0.0 0.0
-0.0032338737329374936 0.0014902209918675538 0.0 -7.379661330509258e-05 0.0 0.0
-0.002177348083477794 0.0008471685902245087 0.0 4.5643231782122626e-05 0.0 0.0
-0.0014408621968667239 0.0005976094665575942 0.0 0.00013490337045235666 0.0 0.0
-0.0007572453739260201 0.0003105729129509689 0.0 0.00013035211952390274 0.0 0.0
-0.0002390549939161726 7.259686108568074e-05 0.0 0.00010439019120457608 0.0 0.0
-5.764139417075181e-05 1.1485078018921065e-05 0.0 9.07104961428325e-05 0.0 0.0
SCALARS Statev float 8
LOOKUP_TABLE default
0.0 0.011310669530898345 0.00879912076034557 -0.010839037233012376 0.0020399164726668155 -0.0003710916037387475 0.0 0.0
0.0 0.0031395702021953555 0.0021684377432320628 -0.0011149857277391517 -0.0010534520154929122 -0.004349633765652502 0.0 0.0
0.0 -4.510098407292117e-05 -1.722209201636437e-05 1.0527783600760498e-05 6.694308415603702e-06 -4.434200423165134e-05 0.0 0.0
0.0 7.07355747654652e-05 -1.175034324213971e-05 8.751050116636637e-06 2.999293125502989e-06 -1.7032238339475591e-07 0.0 0.0
0.0 0.00037498813065566823 8.20853990523755e-05 -5.7031694525444714e-05 -2.5053704526931015e-05 4.1292779478129446e-05 0.0 0.0
0.0 0.0007576907316430017 0.0008407143857868774 -0.0006374280256138658 -0.000203286360173011 7.35524799559223e-05 0.0 0.0
0.0 0.00216458489600984 0.0020144546397091474 -0.0016095283699398193 -0.0004049262697693264 8.87458942965256e-05 0.0 0.0
0.0 0.004003286896641849 0.0037111254985042388 -0.0030907174239772186 -0.0006204080745270231 9.67405103254659e-05 0.0 0.0
0.0 0.006444283350513688 0.00591394290141647 -0.0050956835755131685 -0.0008182593259033013 0.00011332987733893562 0.0 0.0
0.0 0.009589008768395559 0.008667399123588281 -0.007658701571076029 -0.001008697552512255 0.00013227620269906808 0.0 0.0
0.0 0.01357967451258911 0.01210065807547258 -0.010892858370574394 -0.0012077997048981863 0.00019862315741430776 0.0 0.0
0.0 0.018376870252684783 0.016468501504358846 -0.015045262781056293 -0.001423238723302544 0.00031114815258080235 0.0 0.0
0.0 0.024671451633120064 0.02205809624104265 -0.020409274554366426 -0.0016488216866762221 0.0003709481865510265 0.0 0.0
0.0 0.03269695162136603 0.029128428491589982 -0.027245591292973274 -0.0018828371986167134 0.00042719711047012657 0.0 0.0
0.0 0.04261595381950948 0.03781800467918771 -0.035704661296520196 -0.0021133433826674656 0.00041170185355203536 0.0 0.0
0.0 0.054295906592607364 0.04797572449252586 -0.04564681863940152 -0.0023289058531244045 0.00029421638760473035 0.0 0.0
0.0 0.06704856318542737 0.05903830607888176 -0.056517434796997224 -0.002520871281884555 7.869951956667809e-05 0.0 0.0
0.0 0.0797197713453914 0.07001788548393167 -0.06733749244501316 -0.0026803930389184393 -0.00016037828715654602 0.0 0.0
0.0 0.09084274100674877 0.07964872612028172 -0.07684915026388023 -0.002799575856401476 -0.0002757292099406926 0.0 0.0
0.0 0.09865391895515606 0.0865862460966498 -0.0837229990568141 -0.0028632470398358132 -0.0003173718810442739 0.0 0.0
0.0 0.10157751074072838 0.08923569110845904 -0.08637409753462372 -0.0028615935738353776 1.1427490897997217e-15 0.0 0.0
0.0 0.09865391895515135 0.08658624609664553 -0.08372299905681024 -0.002863247039835122 0.00031737188104825204 0.0 0.0
0.0 0.09084274100673545 0.07964872612026981 -0.07684915026386926 -0.0027995758564005936 0.00027572920994463606 0.0 0.0
0.0 0.07971977134536999 0.07001788548391273 -0.06733749244499516 -0.002680393038917523 0.00016037828715965595 0.0 0.0
0.0 0.06704856318540298 0.05903830607886021 -0.056517434796976906 -0.002520871281883327 -7.869951956628648e-05 0.0 0.0
0.0 0.05429590659258362 0.04797572449250474 -0.04564681863938132 -0.002328905853123421 -0.00029421638760546913 0.0 0.0
0.0 0.04261595381948323 0.03781800467916461 -0.03570466129649787 -0.0021133433826667296 -0.00041170185355296094 0.0 0.0
0.0 0.032696951621339336 0.029128428491566535 -0.027245591292950667 -0.001882837198615869 -0.00042719711047093235 0.0 0.0
0.0 0.024671451633092825 0.022058096241018628 -0.02040927455434348 -0.0016488216866751427 -0.0003709481865512413 0.0 0.0
0.0 0.018376870252658915 0.01646850150433589 -0.015045262781034314 -0.0014232387233015795 -0.00031114815258134504 0.0 0.0
0.0 0.013579674512565991 0.012100658075451898 -0.010892858370554993 -0.0012077997048969126 -0.00019862315741513582 0.0 0.0
0.0 0.009589008768377198 0.008667399123572098 -0.007658701571060876 -0.001008697552511226 -0.00013227620269966832 0.0 0.0
0.0 0.006444283350497709 0.005913942901401773 -0.005095683575499667 -0.0008182593259021048 -0.00011332987733918916 0.0 0.0
0.0 0.004003286896632265 0.0037111254984949146 -0.003090717423968897 -0.0006204080745260152 -9.674051032563666e-05 0.0 0.0
0.0 0.002164584896001904 0.002014454639700907 -0.001609528369932831 -0.00040492626976807426 -8.874589429673662e-05 0.0 0.0
0.0 0.0007576907316394915 0.0008407143857827184 -0.0006374280256105883 -0.0002032863601721303 -7.355247995565122e-05 0.0 0.0
0.0 0.0003749881306534898 8.208539905140253e-05 -5.703169452474687e-05 -2.505370452665518e-05 -4.12927794778239e-05 0.0 0.0
0.0 7.07355747646049e-05 -1.1750343242136483e-05 8.751050116636687e-06 2.999293125500269e-06 1.7032238340262909e-07 0.0 0.0
0.0 -4.510098407321257e-05 -1.7222092016310785e-05 1.0527783600750303e-05 6.694308415561001e-06 4.434200423128237e-05 0.0 0.0
0.0 0.0031395702021897163 0.0021684377432292365 -0.0011149857277375824 -0.0010534520154916517 0.004349633765645829 0.0 0.0
0.0 0.011310669530884394 0.008799120760336213 -0.01083903723299862 0.0020399164726624063 0.00037109160371795387 0.0 0.0
0.0 0.008952797753582337 0.006435212012915225 -0.008684402600675652 0.00224919058776042 1.5528685635644293e-06 0.0 0.0
0.0 0.0015908963308682886 0.0011249200605527874 -0.0005104544574576212 -0.0006144656030951645 -0.0030155526683391036 0.0 0.0
0.0 1.4040014507065096e-05 -2.6705295189812705e-06 2.853327681746488e-06 -1.8279816276522923e-07 3.122238987546591e-06 0.0 0.0
0.0 8.46288736575118e-06 -3.151076118876421e-08 -4.484042100727195e-08 7.635118219598686e-08 1.9852226848014256e-07 0.0 0.0
0.0 0.00012771023237069737 2.9935514979352734e-05 -2.0651134982928734e-05 -9.284379996424105e-06 1.5048452771541402e-05 0.0 0.0
0.0 0.0007157423026186901 0.0005212992233140533 -0.0003976813288413124 -0.00012361789447274158 4.1151067756163994e-05 0.0 0.0
0.0 0.0017416097625243404 0.001627738813529909 -0.0013137164007978029 -0.00031402241273210593 -6.044787918897551e-05 0.0 0.0
0.0 0.0034497096510944366 0.003172756559462991 -0.002671171978881687 -0.0005015845805813043 -0.0001751254271996544 0.0 0.0
0.0 0.005714985052066116 0.005187068379429578 -0.004522309010557611 -0.0006647593688719645 -0.00031266377257469717 0.0 0.0
0.0 0.008554673634925698 0.007696782497105315 -0.006889246099730675 -0.0008075363973746325 -0.0004645599340679319 0.0 0.0
0.0 0.012128964458799713 0.010810627778389674 -0.00987039375899414 -0.0009402340193955358 -0.0006104667230002711 0.0 0.0
0.0 0.016791066523122084 0.014745895193658308 -0.01367862138168421 -0.0010672738119740966 -0.0007503837400439827 0.0 0.0
0.0 0.022310465302278298 0.019810537644245344 -0.01862301808272163 -0.0011875195615237211 -0.0009694991713476025 0.0 0.0
0.0 0.029725329601197396 0.02626192946047248 -0.024965392668855075 -0.0012965367916173973 -0.001294284907359346 0.0 0.0
0.0 0.03889929949569169 0.03424218287929343 -0.032856137931425444 -0.001386044947867997 -0.0017148361769138173 0.0 0.0
0.0 0.04971301787198548 0.04361778800116618 -0.04216956312130861 -0.0014482248798575515 -0.0022220071529862346 0.0 0.0
0.0 0.06158927657090618 0.05386399650955193 -0.05238428063050343 -0.0014797158790484687 -0.0027042733168350756 0.0 0.0
0.0 0.07347256213226849 0.06407267923401545 -0.06258731265645542 -0.0014853665775600886 -0.002927741890115988 0.0 0.0
0.0 0.08394446300194212 0.07306750077903881 -0.07159506827634411 -0.001472432502694629 -0.0026462962872437455 0.0 0.0
0.0 0.09147112486612768 0.07949355020874319 -0.07806493228732798 -0.0014286179214151652 -0.001899413272260738 0.0 0.0
0.0 0.094436061139867 0.08192430175458937 -0.08056166560135133 -0.0013626361532380513 3.241330814862664e-15 0.0 0.0
0.0 0.09147112486612297 0.07949355020873852 -0.078064932287324 -0.0014286179214145294 0.0018994132722690061 0.0 0.0
0.0 0.0839444630019286 0.0730675007790271 -0.07159506827633236 -0.0014724325026946835 0.0026462962872526056 0.0 0.0
0.0 0.0734725621322502 0.06407267923399942 -0.06258731265643973 -0.0014853665775596745 0.002927741890122519 0.0 0.0
0.0 0.061589276570884574 0.05386399650953319 -0.052384280630485246 -0.0014797158790479214 0.0027042733168370385 0.0 0.0
0.0 0.049713017871964756 0.043617788001147906 -0.04216956312129097 -0.0014482248798569199 0.002222007152985855 0.0 0.0
0.0 0.03889929949566879 0.034242182879273275 -0.032856137931406154 -0.0013860449478671362 0.0017148361769129517 0.0 0.0
0.0 0.029725329601174817 0.026261929460452672 -0.02496539266883586 -0.0012965367916167982 0.0012942849073584025 0.0 0.0
0.0 0.022310465302253973 0.01981053764422409 -0.01862301808270104 -0.001187519561523056 0.0009694991713463856 0.0 0.0
0.0 0.01679106652309851 0.014745895193637318 -0.013678621381663713 -0.001067273811973594 0.0007503837400424838 0.0 0.0
0.0 0.012128964458778622 0.010810627778371077 -0.009870393758976297 -0.0009402340193947826 0.0006104667229982576 0.0 0.0
0.0 0.008554673634909395 0.007696782497090251 -0.006889246099716479 -0.0008075363973737751 0.000464559934066346 0.0 0.0
0.0 0.00571498505205244 0.005187068379416527 -0.004522309010545493 -0.0006647593688710315 0.0003126637725734781 0.0 0.0
0.0 0.003449709651085446 0.0031727565594541493 -0.002671171978873796 -0.0005015845805803544 0.00017512542719873105 0.0 0.0
0.0 0.0017416097625170394 0.0016277388135225905 -0.0013137164007915548 -0.00031402241273103474 6.0447879188249126e-05 0.0 0.0
0.0 0.0007157423026148441 0.0005212992233108727 -0.00039768132883881 -0.00012361789447206236 -4.115106775619501e-05 0.0 0.0
0.0 0.0001277102323690662 2.993551497868794e-05 -2.065113498245018e-05 -9.28437999623797e-06 -1.5048452771345697e-05 0.0 0.0
0.0 8.46288736540037e-06 -3.1510760847671954e-08 -4.4840421265090596e-08 7.635118211292386e-08 -1.9852226849315108e-07 0.0 0.0
0.0 1.4040014507057027e-05 -2.6705295189377915e-06 2.8533276817031756e-06 -1.8279816276553085e-07 -3.1222389875316733e-06 0.0 0.0
0.0 0.0015908963308627904 0.0011249200605498017 -0.0005104544574557881 -0.0006144656030940124 0.003015552668331462 0.0 0.0
0.0 0.008952797753567752 0.0064352120129043434 -0.008684402600660855 0.0022491905877565013 -1.5528685781322305e-06 0.0 0.0
0.0 0.006332737446695162 0.004442909287796898 -0.006187853237094288 0.0017449439492973886 -0.0015925338756155008 0.0 0.0
0.0 0.0010706562236723908 0.0006505942927846771 -0.0002494824991391679 -0.00040111179364550934 -0.0021056570021498427 0.0 0.0
0.0 1.2634912319597936e-08 -1.3678156687548327e-09 1.0394932843731892e-09 3.2832238438154863e-10 4.875689838480855e-10 0.0 0.0
0.0 2.003938728175475e-06 -1.6364473679160637e-07 1.1805723804428624e-07 4.558749874719577e-08 -1.758018646469859e-07 0.0 0.0
0.0 2.725812679905365e-05 -5.3384617135267615e-06 4.685514779738523e-06 6.52946933788039e-07 5.456175593986969e-06 0.0 0.0
0.0 0.0004464643175248116 0.00024927885987697943 -0.00018553614064450056 -6.374271923247874e-05 2.0975787691501633e-05 0.0 0.0
0.0 0.0012011248933733885 0.001177466513682552 -0.0009326491556885878 -0.0002448173579939644 -0.00016966639366623325 0.0 0.0
0.0 0.002745367551837873 0.0025269709012100544 -0.002097281287933441 -0.00042968961327661203 -0.0004135672380989506 0.0 0.0
0.0 0.004717633562895786 0.004314169839855987 -0.003714483643066703 -0.0005996861967892846 -0.0006988352009987972 0.0 0.0
0.0 0.0072680469164040215 0.006532583461902223 -0.005787152085572482 -0.0007454313763297421 -0.0010085794901391711 0.0 0.0
0.0 0.010429787796184403 0.009271541213416421 -0.008394179082667768 -0.0008773621307486451 -0.0013270944438395754 0.0 0.0
0.0 0.014310276612462836 0.01271973379046586 -0.011718006619592262 -0.0010017271708735946 -0.001657685199501391 0.0 0.0
0.0 0.019571419442415357 0.017143316273417315 -0.016025348112770014 -0.0011179681606473103 -0.0020627487339461943 0.0 0.0
0.0 0.025855584988326585 0.022842109585541018 -0.021620913644140975 -0.0012211959414000272 -0.0026515110926435513 0.0 0.0
0.0 0.03405487783205333 0.029950737912628318 -0.028646003541746148 -0.001304734370882194 -0.0034392753981471002 0.0 0.0
0.0 0.04375863124278434 0.03835718246948107 -0.03699473039394675 -0.0013624520755343063 -0.004355266101962248 0.0 0.0
0.0 0.05446192132045677 0.04760842275789667 -0.04621410901783368 -0.0013943137400629967 -0.005193093360441825 0.0 0.0
0.0 0.06522840849317296 0.05690526056406063 -0.055502120034737805 -0.0014031405293228186 -0.005559281413175249 0.0 0.0
0.0 0.07481750926301745 0.06515848926144256 -0.06377126176167344 -0.0013872274997690963 -0.005062133678810145 0.0 0.0
0.0 0.08173501813926522 0.07108524455093308 -0.06973254262959773 -0.0013527019213353513 -0.003601225901644277 0.0 0.0
0.0 0.08452372349385635 0.07337559544245925 -0.07210876550380635 -0.0012668299386529164 7.0596740259221136e-15 0.0 0.0
0.0 0.08173501813925979 0.07108524455092777 -0.06973254262959261 -0.0013527019213351308 0.003601225901659374 0.0 0.0
0.0 0.0748175092630052 0.06515848926143201 -0.06377126176166273 -0.0013872274997693077 0.005062133678825692 0.0 0.0
0.0 0.06522840849315757 0.05690526056404705 -0.05550212003472447 -0.0014031405293225378 0.005559281413185331 0.0 0.0
0.0 0.05446192132043795 0.04760842275788035 -0.04621410901781796 -0.001394313740062387 0.005193093360444493 0.0 0.0
0.0 0.043758631242765626 0.038357182469464596 -0.0369947303939308 -0.0013624520755337814 0.004355266101961261 0.0 0.0
0.0 0.034054877832035105 0.029950737912612085 -0.028646003541730906 -0.0013047343708811824 0.003439275398146534 0.0 0.0
0.0 0.025855584988307475 0.022842109585524094 -0.02162091364412486 -0.001221195941399223 0.0026515110926429446 0.0 0.0
0.0 0.01957141944239548 0.017143316273399538 -0.016025348112753246 -0.001117968160646287 0.002062748733944235 0.0 0.0
0.0 0.014310276612441794 0.012719733790447465 -0.011718006619574416 -0.0010017271708730397 0.0016576851994988418 0.0 0.0
0.0 0.010429787796166974 0.009271541213400342 -0.0083941790826524 -0.0008773621307479372 0.0013270944438363657 0.0 0.0
0.0 0.0072680469163896875 0.006532583461888722 -0.005787152085559847 -0.0007454313763288741 0.0010085794901363752 0.0 0.0
0.0 0.004717633562884004 0.00431416983984486 -0.003714483643056558 -0.0005996861967883008 0.0006988352009966714 0.0 0.0
0.0 0.002745367551829245 0.002526970901202005 -0.002097281287926351 -0.00042968961327565137 0.00041356723809727057 0.0 0.0
0.0 0.0012011248933679046 0.0011774665136769188 -0.0009326491556838898 -0.00024481735799302903 0.00016966639366503282 0.0 0.0
0.0 0.00044646431752175334 0.0002492788598747553 -0.0001855361406428238 -6.374271923193131e-05 -2.097578769165627e-05 0.0 0.0
0.0 2.725812679826838e-05 -5.338461713464007e-06 4.685514779683629e-06 6.529469337804241e-07 -5.456175593861957e-06 0.0 0.0
0.0 2.0039387278844858e-06 -1.6364473675640326e-07 1.1805723801885952e-07 4.558749873756787e-08 1.758018646516653e-07 0.0 0.0
0.0 1.2634912310065045e-08 -1.367815667713223e-09 1.0394932835817643e-09 3.283223841315191e-10 -4.875689834762404e-10 0.0 0.0
0.0 0.0010706562236678823 0.0006505942927819424 -0.00024948249913743064 -0.00040111179364451144 0.0021056570021421852 0.0 0.0
0.0 0.006332737446680937 0.004442909287786631 -0.006187853237080219 0.0017449439492935892 0.001592533875605377 0.0 0.0
0.0 0.004572426467659874 0.0031047174533775255 -0.0044159140661816434 0.0013111966128041173 -0.00178468071034503 0.0 0.0
0.0 0.0006560719816841926 0.0003743789287072058 -0.00012309738658639827 -0.00025128154212080746 -0.00139850088277147 0.0 0.0
0.0 0.0 0.0 0.0 0.0 0.0 0.0 0.0
0.0 -1.0390837439607566e-06 1.1224192617575011e-07 -8.466471595657498e-08 -2.7577210219183563e-08 -7.31158042041032e-08 0.0 0.0
0.0 1.724096874631273e-05 -8.331101559629237e-06 6.3984915630725575e-06 1.9326099965569227e-06 3.822132926294953e-06 0.0 0.0
0.0 0.00015344538822244157 8.237424407750783e-05 -5.929736981307047e-05 -2.307687426443698e-05 7.731148238835331e-06 0.0 0.0
0.0 0.000898955498292288 0.0007143455226773416 -0.0005533557168268295 -0.00016098980585051203 -0.00014746808895626422 0.0 0.0
0.0 0.002064384418110808 0.0018943556305700611 -0.0015466321841849963 -0.0003477234463850648 -0.0005359751794725334 0.0 0.0
0.0 0.0037933433252470526 0.003449271587615596 -0.0029269397231425067 -0.0005223318644730894 -0.0009448830519164929 0.0 0.0
0.0 0.0060025631957116785 0.005381190920307846 -0.004707988486419527 -0.0006732024338883186 -0.0013841477389298594 0.0 0.0
0.0 0.008683363423559317 0.0077554192031564564 -0.006949404955553092 -0.0008060142476033654 -0.001839476034030205 0.0 0.0
0.0 0.012151531640819141 0.010721635606151204 -0.009793494654346037 -0.0009281409518051653 -0.002316108127427492 0.0 0.0
0.0 0.016395727456106186 0.014534228012176211 -0.01349206106828567 -0.0010421669438905345 -0.002882566398945672 0.0 0.0
0.0 0.02230202981173119 0.019455374980240615 -0.018315505216730834 -0.0011398697635097799 -0.003648522551281974 0.0 0.0
0.0 0.02936868800081977 0.025664601351991525 -0.024447000916249115 -0.0012176004357423971 -0.004681139601680044 0.0 0.0
0.0 0.03775523930873743 0.033078383520583364 -0.03180501727819 -0.0012733662423933811 -0.005903854853112977 0.0 0.0
0.0 0.047362937608361404 0.04131160114126207 -0.04000548394190652 -0.0013061171993555432 -0.0070203070328888895 0.0 0.0
0.0 0.05706895443909311 0.04968591094009008 -0.048369200302199954 -0.001316710637890138 -0.007534982119734926 0.0 0.0
0.0 0.06578638685744062 0.05722436896820244 -0.05592033061825255 -0.001304038349949824 -0.006948629338450004 0.0 0.0
0.0 0.07215844573199516 0.06275214839878558 -0.061478953191971455 -0.0012731952068141769 -0.00488989091650689 0.0 0.0
0.0 0.07488297723371674 0.06497915578114398 -0.06382788798535066 -0.0011512677957933196 9.15868943185405e-15 0.0 0.0
0.0 0.0721584457319907 0.0627521483987811 -0.0614789531919669 -0.001273195206814164 0.004889890916526921 0.0 0.0
0.0 0.06578638685743282 0.0572243689681949 -0.05592033061824565 -0.0013040383499492245 0.006948629338469415 0.0 0.0
0.0 0.05706895443907975 0.04968591094007817 -0.04836920030218809 -0.001316710637890079 0.007534982119747386 0.0 0.0
0.0 0.04736293760834542 0.04131160114124816 -0.040005483941893356 -0.001306117199354847 0.007020307032892037 0.0 0.0
0.0 0.03775523930872032 0.03307838352056827 -0.03180501727817542 -0.0012733662423928616 0.005903854853111641 0.0 0.0
0.0 0.029368688000802733 0.02566460135197652 -0.02444700091623471 -0.0012176004357418184 0.004681139601679075 0.0 0.0
0.0 0.022302029811714176 0.019455374980225374 -0.01831550521671633 -0.0011398697635090422 0.0036485225512808014 0.0 0.0
0.0 0.016395727456086966 0.014534228012159367 -0.013492061068269591 -0.0010421669438897695 0.0028825663989427005 0.0 0.0
0.0 0.012151531640802911 0.010721635606136249 -0.009793494654331833 -0.0009281409518044148 0.002316108127423954 0.0 0.0
0.0 0.008683363423544394 0.007755419203142742 -0.0069494049555401385 -0.000806014247602604 0.0018394760340259115 0.0 0.0
0.0 0.006002563195698493 0.005381190920295733 -0.004707988486408332 -0.0006732024338874 0.0013841477389258644 0.0 0.0
0.0 0.0037933433252366417 0.003449271587605981 -0.0029269397231338227 -0.0005223318644721548 0.0009448830519135763 0.0 0.0
0.0 0.002064384418103964 0.0018943556305629481 -0.00154663218417883 -0.0003477234463841189 0.0005359751794702641 0.0 0.0
0.0 0.0008989554982870156 0.0007143455226732294 -0.0005533557168235622 -0.0001609898058496673 0.00014746808895501205 0.0 0.0
0.0 0.0001534453882204717 8.237424407658844e-05 -5.9297369812391015e-05 -2.3076874264197577e-05 -7.731148238787034e-06 0.0 0.0
0.0 1.7240968745462254e-05 -8.331101559473685e-06 6.3984915629524e-06 1.9326099965212613e-06 -3.822132926203635e-06 0.0 0.0
0.0 -1.0390837437358132e-06 1.1224192615061098e-07 -8.466471593745809e-08 -2.7577210213149207e-08 7.311580418800225e-08 0.0 0.0
0.0 0.0 0.0 0.0 0.0 0.0 0.0 0.0
0.0 0.0006560719816801508 0.00037437892870494446 -0.00012309738658492837 -0.0002512815421200163 0.0013985008827649182 0.0 0.0
0.0 0.004572426467648434 0.0031047174533686433 -0.004415914066169352 0.0013111966128007083 0.0017846807103373572 0.0 0.0
0.0 0.0031169081134123982 0.0021256952437003797 -0.003062815186312345 0.0009371199426119656 -0.0015535344967370292 0.0 0.0
0.0 0.0005462587173993627 0.00017883772546235956 -2.8005488811941214e-05 -0.00015083223665041836 -0.0008045295574553867 0.0 0.0
0.0 0.0 0.0 0.0 0.0 0.0 0.0 0.0
0.0 1.5028312787509444e-07 -1.5385716863678778e-08 1.1776366407597212e-08 3.6093504560833587e-09 1.561152117108147e-08 0.0 0.0
0.0 -6.082581561814403e-06 1.299786134125223e-06 -1.0269397089252898e-06 -2.7284642519992626e-07 -1.7613626028543243e-06 0.0 0.0
0.0 5.823366695021039e-05 -1.0573607382747818e-05 9.2584062084385e-06 1.3152011743094412e-06 2.579472215202929e-05 0.0 0.0
0.0 0.0005925211764178067 0.00033901876073458146 -0.0002569611745545103 -8.205758618007131e-05 -9.24439841676547e-05 0.0 0.0
0.0 0.0014271332636563172 0.001284193339499402 -0.0010259139439530171 -0.00025827939554638475 -0.0005044589276289731 0.0 0.0
0.0 0.0028997275028476285 0.002603505729797885 -0.0021721290715943737 -0.00043137665820351055 -0.0010437038743883389 0.0 0.0
0.0 0.004748840091846097 0.0042504632521739374 -0.0036630023107233497 -0.0005874609414505881 -0.0015860131135698422 0.0 0.0
0.0 0.007053070588705881 0.00626378276437904 -0.005541038779682884 -0.000722743984696155 -0.0021448385677079688 0.0 0.0
0.0 0.009956431966930883 0.008764634747156403 -0.007919733582838253 -0.0008449011643181548 -0.002726417944975705 0.0 0.0
0.0 0.013759406636237816 0.011965303659952839 -0.011009162147388516 -0.0009561415125643128 -0.0034017394810635206 0.0 0.0
0.0 0.018371863287210615 0.01613195016859546 -0.015079848229996883 -0.0010521019385985667 -0.004290099773765436 0.0 0.0
0.0 0.024612055877060602 0.02142001445844849 -0.020294424712398826 -0.0011255897460496597 -0.005469701976662893 0.0 0.0
0.0 0.032111337144568444 0.027800597761599738 -0.02662315515137714 -0.0011774426102225933 -0.006857788596713796 0.0 0.0
0.0 0.04029712916924286 0.03498823705539065 -0.033775855324480145 -0.0012123817309104953 -0.008151742503852252 0.0 0.0
0.0 0.04888290167889398 0.04241699831380029 -0.041189393663447725 -0.0012276046503525615 -0.008833063315639399 0.0 0.0
0.0 0.05677361757206871 0.04925231361238263 -0.04803278851466097 -0.0012195250977216669 -0.008264068919516226 0.0 0.0
0.0 0.06274218989608106 0.05444403090122378 -0.053255897594159815 -0.0011881333070639056 -0.005851606848140754 0.0 0.0
0.0 0.06547556410987523 0.056657079351202 -0.05563592979941877 -0.0010211495517832535 9.696236868972363e-15 0.0 0.0
0.0 0.06274218989607779 0.05444403090121998 -0.053255897594156006 -0.001188133307063967 0.005851606848163423 0.0 0.0
0.0 0.05677361757206227 0.0492523136123761 -0.04803278851465489 -0.0012195250977211996 0.008264068919537671 0.0 0.0
0.0 0.04888290167888302 0.04241699831379024 -0.04118939366343788 -0.0012276046503523538 0.008833063315652907 0.0 0.0
0.0 0.040297129169230624 0.034988237055379914 -0.03377585532447012 -0.001212381730909787 0.00815174250385605 0.0 0.0
0.0 0.032111337144554386 0.0278005977615872 -0.026623155151365152 -0.0011774426102220405 0.006857788596712492 0.0 0.0
0.0 0.02461205587704592 0.0214200144584356 -0.020294424712386402 -0.001125589746049189 0.00546970197666107 0.0 0.0
0.0 0.018371863287194583 0.01613195016858122 -0.015079848229983163 -0.0010521019385980595 0.0042900997737634426 0.0 0.0
0.0 0.013759406636220564 0.011965303659937424 -0.011009162147373477 -0.0009561415125639441 0.003401739481059585 0.0 0.0
0.0 0.009956431966917085 0.008764634747143785 -0.007919733582826272 -0.0008449011643175192 0.002726417944971273 0.0 0.0
0.0 0.007053070588693129 0.006263782764367452 -0.005541038779672143 -0.000722743984695307 0.002144838567702805 0.0 0.0
0.0 0.004748840091834326 0.004250463252163323 -0.003663002310713662 -0.000587460941449663 0.0015860131135650348 0.0 0.0
0.0 0.002899727502838933 0.002603505729789665 -0.0021721290715870567 -0.0004313766582026068 0.0010437038743849986 0.0 0.0
0.0 0.001427133263650079 0.0012841933394935245 -0.0010259139439480834 -0.00025827939554544095 0.000504458927626362 0.0 0.0
0.0 0.0005925211764136208 0.00033901876073180655 -0.00025696117455234734 -8.205758617945964e-05 9.244398416651232e-05 0.0 0.0
0.0 5.823366694914823e-05 -1.0573607382799326e-05 9.2584062084584e-06 1.31520117434127e-06 -2.5794722151829144e-05 0.0 0.0
0.0 -6.082581562027156e-06 1.299786134149637e-06 -1.0269397089425633e-06 -2.728464252071589e-07 1.7613626028605777e-06 0.0 0.0
0.0 1.5028312785351273e-07 -1.538571686135809e-08 1.1776366405820481e-08 3.6093504555372983e-09 -1.561152116871207e-08 0.0 0.0
0.0 0.0 0.0 0.0 0.0 0.0 0.0 0.0
0.0 0.000546258717395403 0.00017883772546075846 -2.8005488810876745e-05 -0.00015083223664988133 0.000804529557450471 0.0 0.0
0.0 0.003116908113403336 0.002125695243693348 -0.0030628151863024413 0.0009371199426090927 0.0015535344967313913 0.0 0.0
0.0 0.002116584815575305 0.001372358914048974 -0.0019934075864151244 0.0006210486723661504 -0.0011824126948443813 0.0 0.0
0.0 0.00020168334241253577 6.545309422898055e-05 2.0285203275048933e-05 -8.573829750402944e-05 -0.00040662106948983947 0.0 0.0
0.0 0.0 0.0 0.0 0.0 0.0 0.0 0.0
0.0 0.0 0.0 0.0 0.0 0.0 0.0 0.0
0.0 -2.396427250707027e-06 2.0804395735217143e-07 -1.5684012239482166e-07 -5.12038349573753e-08 -3.9143577551142567e-07 0.0 0.0
0.0 -1.0311591547945478e-05 -1.2724815025051008e-05 1.0102462014201813e-05 2.6223530108491184e-06 1.7054954869336625e-05 0.0 0.0
0.0 0.00016405786708063383 0.00013084414643293855 -9.745714008751801e-05 -3.338700634542053e-05 -5.418003335362588e-05 0.0 0.0
0.0 0.0010932646642047197 0.0006958438906807885 -0.0005436811476026898 -0.0001521627430780997 -0.0003468378686594733 0.0 0.0
0.0 0.0019260569646855396 0.0017959128118456653 -0.0014665429174050178 -0.0003293698944406467 -0.0009698622260157175 0.0 0.0
0.0 0.0035784157865383255 0.003145440135276431 -0.0026619177355390396 -0.0004835223997373884 -0.00160236283072262 0.0 0.0
0.0 0.005457459614274272 0.004805865703353574 -0.00418272124582675 -0.000623144457526822 -0.002231425013823944 0.0 0.0
0.0 0.00780911692901993 0.006854357419486234 -0.00610737386330282 -0.0007469835561834101 -0.0028845105018934776 0.0 0.0
0.0 0.010842129169414759 0.00946627761907537 -0.008607414815811136 -0.0008588628032642365 -0.003618663321979148 0.0 0.0
0.0 0.014892586631537563 0.012867615191730249 -0.011914951943639365 -0.0009526632480908739 -0.004554915358424761 0.0 0.0
0.0 0.0199399715716376 0.01723590706503793 -0.016211056031244717 -0.0010248510337932113 -0.005790638288156702 0.0 0.0
0.0 0.026034042107199125 0.02257463101242764 -0.02149850746614531 -0.0010761235462823258 -0.00724506206250799 0.0 0.0
0.0 0.03341706632294243 0.028663637932630277 -0.02755318331110423 -0.001110454621526047 -0.008607132211340197 0.0 0.0
0.0 0.04078462245992 0.035099217463626736 -0.033967637649931465 -0.001131579813695261 -0.009402883002107596 0.0 0.0
0.0 0.04764961021529432 0.04122147549056075 -0.040090102469214635 -0.0011313730213461256 -0.008970581734815472 0.0 0.0
0.0 0.05330903051783424 0.04610946236034904 -0.04501127736597506 -0.001098184994373968 -0.006499730859018828 0.0 0.0
0.0 0.056121060570574456 0.048346763436705874 -0.04747014761693679 -0.0008766158197690844 9.730280817188408e-15 0.0 0.0
0.0 0.053309030517830855 0.04610946236034501 -0.04501127736597073 -0.0010981849943743007 0.006499730859041086 0.0 0.0
0.0 0.04764961021528819 0.041221475490554306 -0.04009010246920848 -0.0011313730213458174 0.00897058173483685 0.0 0.0
0.0 0.04078462245991014 0.03509921746361755 -0.0339676376499226 -0.0011315798136949233 0.009402883002120308 0.0 0.0
0.0 0.033417066322932835 0.028663637932621833 -0.027553183311096595 -0.0011104546215252534 0.008607132211343887 0.0 0.0
0.0 0.02603404210718638 0.022574631012416548 -0.02149850746613445 -0.0010761235462820866 0.00724506206250556 0.0 0.0
0.0 0.019939971571626847 0.017235907065028245 -0.016211056031235706 -0.0010248510337925298 0.005790638288154614 0.0 0.0
0.0 0.01489258663152488 0.012867615191718787 -0.011914951943628266 -0.0009526632480905201 0.004554915358422525 0.0 0.0
0.0 0.010842129169401086 0.009466277619063487 -0.008607414815799675 -0.0008588628032638112 0.0036186633219752145 0.0 0.0
0.0 0.007809116929007439 0.006854357419475145 -0.006107373863292309 -0.0007469835561828358 0.0028845105018886477 0.0 0.0
0.0 0.005457459614263351 0.004805865703344017 -0.0041827212458180555 -0.0006231444575259604 0.0022314250138180092 0.0 0.0
0.0 0.0035784157865290625 0.0031454401352679047 -0.0026619177355312724 -0.0004835223997366318 0.0016023628307173306 0.0 0.0
0.0 0.0019260569646789372 0.0017959128118390448 -0.0014665429173992847 -0.00032936989443976036 0.0009698622260119675 0.0 0.0
0.0 0.0010932646641986143 0.0006958438906762993 -0.0005436811475990657 -0.00015216274307723398 0.00034683786865698154 0.0 0.0
0.0 0.00016405786707831017 0.0001308441464315546 -9.745714008649392e-05 -3.338700634506053e-05 5.41800333529715e-05 0.0 0.0
0.0 -1.0311591548540776e-05 -1.2724815024696865e-05 1.010246201392838e-05 2.6223530107684496e-06 -1.7054954868960258e-05 0.0 0.0
0.0 -2.3964272504754646e-06 2.080439573280844e-07 -1.5684012237658353e-07 -5.120383495149823e-08 3.914357754795417e-07 0.0 0.0
0.0 0.0 0.0 0.0 0.0 0.0 0.0 0.0
0.0 0.0 0.0 0.0 0.0 0.0 0.0 0.0
0.0 0.0002016833424095001 6.545309422790869e-05 2.0285203275750903e-05 -8.573829750365921e-05 0.0004066210694863193 0.0 0.0
0.0 0.0021165848155683385 0.0013723589140435476 -0.0019934075864073576 0.0006210486723638087 0.0011824126948401193 0.0 0.0
0.0 0.0012031984048275282 0.0008171909274086231 -0.0011873200340097067 0.00037012910660108323 -0.0008215165622832199 0.0 0.0
0.0 6.38440059390739e-05 -1.3286085322788271e-05 5.975467956635405e-05 -4.6468594243565904e-05 -0.00011773029868156006 0.0 0.0
0.0 0.0 0.0 0.0 0.0 0.0 0.0 0.0
0.0 0.0 0.0 0.0 0.0 0.0 0.0 0.0
0.0 -2.24616510734497e-06 1.5972522696188962e-07 -1.2573103519584418e-07 -3.3994191766034275e-08 -4.044500699970223e-07 0.0 0.0
0.0 7.337422508748652e-07 -3.831203205878428e-06 3.1295942270998592e-06 7.016089787786556e-07 6.801115158354841e-06 0.0 0.0
0.0 2.766903859518183e-05 -1.1961317711950735e-05 9.423627408122386e-06 2.5376903038282537e-06 2.8848313478842706e-05 0.0 0.0
0.0 0.00039185208494880953 0.0003161357397125458 -0.00024266970452324816 -7.346603518929743e-05 -0.00022649667197437542 0.0 0.0
0.0 0.001513497436956674 0.0009934962469936508 -0.0007939228389028462 -0.00019957340809080462 -0.0006784963274814347 0.0 0.0
0.0 0.002333124914201745 0.0020908694297032994 -0.001729760575860862 -0.00036110885384243893 -0.001404312864180425 0.0 0.0
0.0 0.003943140572193446 0.0033910491066410633 -0.0028919021455349352 -0.0004991469611061273 -0.0020848336831915107 0.0 0.0
0.0 0.005796360762674226 0.004996663962686085 -0.004370367106420341 -0.0006262968562657451 -0.0027739166205034693 0.0 0.0
0.0 0.008151633200967014 0.007035159952363142 -0.006293895782669733 -0.000741264169693411 -0.003523990668072652 0.0 0.0
0.0 0.011265335733441711 0.009696516380972386 -0.008858763049130225 -0.0008377533318421586 -0.004447985865015195 0.0 0.0
0.0 0.015265406995165653 0.013140477940385146 -0.012228987439298261 -0.0009114905010868786 -0.005632868117796848 0.0 0.0
0.0 0.020530015375587546 0.017407666453897432 -0.01644608323835521 -0.0009615832155422185 -0.007041271384613209 0.0 0.0
0.0 0.02600798245266627 0.022383609937062333 -0.02138446068337933 -0.000999149253683005 -0.008400075970100089 0.0 0.0
0.0 0.03246860961118517 0.027762371908422952 -0.026735982708139143 -0.0010263892002838116 -0.009256386253344073 0.0 0.0
0.0 0.03877225261252709 0.033106140844252126 -0.03207114639970359 -0.0010349944445485252 -0.009022404300255579 0.0 0.0
0.0 0.04395050646969511 0.0376883898750012 -0.03668564841173745 -0.0010027414632637506 -0.006803449821561119 0.0 0.0
0.0 0.046929188844145264 0.039983873776051046 -0.039267715869036594 -0.0007161579070144339 8.680556273787943e-15 0.0 0.0
0.0 0.04395050646969353 0.037688389874998396 -0.036685648411734766 -0.0010027414632635696 0.006803449821581413 0.0 0.0
0.0 0.03877225261252117 0.03310614084424577 -0.0320711463996973 -0.001034994444548503 0.009022404300275582 0.0 0.0
0.0 0.032468609611177486 0.02776237190841571 -0.02673598270813211 -0.0010263892002835783 0.009256386253355443 0.0 0.0
0.0 0.026007982452657535 0.022383609937054752 -0.02138446068337252 -0.0009991492536822232 0.008400075970101782 0.0 0.0
0.0 0.020530015375576804 0.017407666453888193 -0.01644608323834629 -0.0009615832155418952 0.007041271384609976 0.0 0.0
0.0 0.015265406995156654 0.013140477940376828 -0.012228987439290384 -0.0009114905010864387 0.005632868117794127 0.0 0.0
0.0 0.011265335733432637 0.009696516380964018 -0.008858763049122401 -0.000837753331841616 0.004447985865013492 0.0 0.0
0.0 0.008151633200958013 0.00703515995235536 -0.006293895782662533 -0.0007412641696928273 0.0035239906680695214 0.0 0.0
0.0 0.005796360762663432 0.004996663962676931 -0.00437036710641161 -0.0006262968562653209 0.0027739166204981394 0.0 0.0
0.0 0.0039431405721845865 0.003391049106633288 -0.002891902145528104 -0.0004991469611051833 0.0020848336831855666 0.0 0.0
0.0 0.0023331249141947293 0.002090869429697097 -0.0017297605758553741 -0.0003611088538417215 0.0014043128641758663 0.0 0.0
0.0 0.0015134974369499256 0.0009934962469889063 -0.0007939228388989598 -0.0001995734080899464 0.0006784963274780722 0.0 0.0
0.0 0.000391852084945346 0.0003161357397100414 -0.00024266970452127394 -7.346603518876673e-05 0.00022649667197257735 0.0 0.0
0.0 2.7669038594230495e-05 -1.1961317711896184e-05 9.423627408071132e-06 2.5376903038250066e-06 -2.8848313478472437e-05 0.0 0.0
0.0 7.337422499166027e-07 -3.831203205788859e-06 3.129594227030934e-06 7.016089787578449e-07 -6.801115158212839e-06 0.0 0.0
0.0 -2.246165107199524e-06 1.5972522694916917e-07 -1.257310351860552e-07 -3.3994191763110714e-08 4.0445006996736767e-07 0.0 0.0
0.0 0.0 0.0 0.0 0.0 0.0 0.0 0.0
0.0 0.0 0.0 0.0 0.0 0.0 0.0 0.0
0.0 6.38440059370233e-05 -1.328608532334735e-05 5.9754679566694825e-05 -4.646859424334767e-05 0.00011773029867950284 0.0 0.0
0.0 0.0012031984048226866 0.0008171909274048654 -0.0011873200340042423 0.0003701291065993773 0.0008215165622800609 0.0 0.0
0.0 0.0009310767769763223 0.00034467295399847307 -0.0004990645171178763 0.00015439156311940314 -0.0003826666382275998 0.0 0.0
0.0 -8.052141626006236e-05 -3.080985848438772e-05 4.993413980531141e-05 -1.9124281320923684e-05 1.3391042537057751e-05 0.0 0.0
0.0 0.0 0.0 0.0 0.0 0.0 0.0 0.0
0.0 0.0 0.0 0.0 0.0 0.0 0.0 0.0
0.0 -6.002912790152338e-07 2.361648622678751e-08 -1.719295850391252e-08 -6.423527722869078e-09 -1.2456266137436325e-07 0.0 0.0
0.0 -2.868930547391744e-06 -1.4098261469011622e-07 1.0022914270440937e-07 4.075347198568659e-08 8.589889794693872e-07 0.0 0.0
0.0 -1.133442063506513e-05 -1.6315380514958876e-05 1.3024722227120232e-05 3.290658287838545e-06 3.7663526658169856e-05 0.0 0.0
0.0 7.515995792564955e-05 6.242830320689302e-05 -4.830129405369556e-05 -1.412700915319749e-05 -8.86860206790084e-05 0.0 0.0
0.0 0.0005642112200044824 0.00041569890823289036 -0.00032670680029768425 -8.899210793520592e-05 -0.00040753028723413364 0.0 0.0
0.0 0.0016214812277956148 0.001078692886061722 -0.0008732433745978342 -0.0002054495114638871 -0.0009435037645006366 0.0 0.0
0.0 0.0025224628830592087 0.0020378472596510656 -0.001696631956712183 -0.00034121530293888174 -0.0016723804773555568 0.0 0.0
0.0 0.003830965604506684 0.003214968345818519 -0.0027452738462611643 -0.00046969449955735695 -0.002371543598772613 0.0 0.0
0.0 0.005590224809717932 0.004693797541935803 -0.004105198502393239 -0.0005885990395425616 -0.0031016712165438166 0.0 0.0
0.0 0.007857072194195961 0.006632187856105886 -0.005940439360773063 -0.0006917484953328265 -0.003953948634403471 0.0 0.0
0.0 0.010931260049410781 0.009161664457568997 -0.008389533841504438 -0.0007721306160645532 -0.005016016055480846 0.0 0.0
0.0 0.014681713393257505 0.012357415211098928 -0.011529040540844348 -0.0008283746702545779 -0.006255081124681008 0.0 0.0
0.0 0.019367703270002215 0.0161629048713441 -0.015294350339897457 -0.0008685545314466438 -0.007503594505651534 0.0 0.0
0.0 0.024313219964981807 0.020431982578001447 -0.019529622851148207 -0.00090235972685323 -0.008372438981840776 0.0 0.0
0.0 0.02931356401228288 0.024915918625617303 -0.023989955599036807 -0.000925963026580495 -0.008378161119301765 0.0 0.0
0.0 0.0342484423907099 0.029131256180995928 -0.028230660848648018 -0.0009005953323479055 -0.006706114844781839 0.0 0.0
0.0 0.037503167775246427 0.03150772284918553 -0.030972032225952795 -0.0005356906232327427 7.229460086133344e-15 0.0 0.0
0.0 0.03424844239070867 0.029131256180993298 -0.02823066084864534 -0.0009005953323479728 0.006706114844798971 0.0 0.0
0.0 0.029313564012278713 0.024915918625612477 -0.02398995559903182 -0.0009259630265806328 0.00837816111931907 0.0 0.0
0.0 0.024313219964975992 0.020431982577995854 -0.019529622851143024 -0.0009023597268528523 0.008372438981850028 0.0 0.0
0.0 0.019367703269994797 0.016162904871337685 -0.015294350339891669 -0.000868554531446009 0.007503594505651708 0.0 0.0
0.0 0.014681713393249408 0.01235741521109223 -0.011529040540838004 -0.0008283746702542382 0.006255081124677727 0.0 0.0
0.0 0.010931260049403183 0.009161664457562285 -0.008389533841497978 -0.0007721306160643025 0.0050160160554782954 0.0 0.0
0.0 0.0078570721941885 0.006632187856099456 -0.005940439360766985 -0.0006917484953324713 0.003953948634401199 0.0 0.0
0.0 0.0055902248097124616 0.004693797541930974 -0.004105198502389065 -0.0005885990395419055 0.00310167121654172 0.0 0.0
0.0 0.003830965604499888 0.0032149683458125734 -0.0027452738462555738 -0.00046969449955700014 0.002371543598768227 0.0 0.0
0.0 0.0025224628830525135 0.002037847259645536 -0.0016966319567074607 -0.00034121530293807395 0.001672380477350003 0.0 0.0
0.0 0.0016214812277898214 0.0010786928860573497 -0.0008732433745941638 -0.00020544951146318706 0.0009435037644966741 0.0 0.0
0.0 0.0005642112200008706 0.0004156989082303781 -0.0003267068002956797 -8.89921079346981e-05 0.0004075302872319686 0.0 0.0
0.0 7.515995792403812e-05 6.242830320603487e-05 -4.8301294053028065e-05 -1.412700915300693e-05 8.868602067793094e-05 0.0 0.0
0.0 -1.1334420635309357e-05 -1.6315380514668445e-05 1.302472222689331e-05 3.29065828777505e-06 -3.766352665771116e-05 0.0 0.0
0.0 -2.868930547854423e-06 -1.409826146591532e-07 1.002291426800749e-07 4.075347197911488e-08 -8.589889793479652e-07 0.0 0.0
0.0 -6.002912788349186e-07 2.3616486216782317e-08 -1.719295849616168e-08 -6.423527720625745e-09 1.2456266134057105e-07 0.0 0.0
0.0 0.0 0.0 0.0 0.0 0.0 0.0 0.0
0.0 0.0 0.0 0.0 0.0 0.0 0.0 0.0
0.0 -8.052141626061327e-05 -3.080985848432417e-05 4.993413980511922e-05 -1.912428132079518e-05 -1.3391042537357435e-05 0.0 0.0
0.0 0.0009310767769714067 0.0003446729539960885 -0.000499064517114439 0.00015439156311835122 0.00038266663822507726 0.0 0.0
0.0 0.00026171640840852044 0.00011048507444242839 -0.00016169172631467135 5.120665187224371e-05 -0.0001480770975595421 0.0 0.0
0.0 -3.816337153249608e-05 -1.653202212822772e-05 2.342991637579105e-05 -6.897894247563396e-06 2.470635327064774e-05 0.0 0.0
0.0 2.580384954333123e-06 -5.095703050616618e-09 1.2473865282089541e-08 -7.3781622314717924e-09 5.575304433789819e-07 0.0 0.0
0.0 0.0 0.0 0.0 0.0 0.0 0.0 0.0
0.0 -2.859128898207967e-07 9.242535231306326e-09 -7.084965890506323e-09 -2.157569340802201e-09 -5.122909250329696e-08 0.0 0.0
0.0 -7.767612455146725e-06 5.794153294882625e-07 -4.4872461831536903e-07 -1.3069071117288575e-07 -2.4213942513078184e-06 0.0 0.0
0.0 5.934931707059739e-06 -4.996736121508941e-06 3.9885466426808735e-06 1.0081894788280519e-06 2.091437794006136e-05 0.0 0.0
0.0 3.777850152600537e-05 -2.0950277896855702e-05 1.6181867067839582e-05 4.76841082901611e-06 3.992345695230593e-05 0.0 0.0
0.0 0.00012650862492978444 4.732895139438067e-05 -3.8578557295287076e-05 -8.75039409909354e-06 -0.00013838881485213754 0.0 0.0
0.0 0.0005809549921882593 0.00031622895655441667 -0.0002569806460793854 -5.9248310475031026e-05 -0.0004631876132363701 0.0 0.0
0.0 0.0011324419222198663 0.0008464643590753396 -0.0006938037958064612 -0.00015266056326887815 -0.0010422408147565572 0.0 0.0
0.0 0.002040652297441068 0.001554274114423296 -0.0012984034066242948 -0.00025587070779900035 -0.0016573403139399094 0.0 0.0
0.0 0.003168753775303312 0.0024851919040117104 -0.0021151999973735482 -0.0003699919066381609 -0.0023320260278287 0.0 0.0
0.0 0.004649186700003932 0.0037211350574814783 -0.00324129391718045 -0.0004798411403010241 -0.003080682587772784 0.0 0.0
0.0 0.006668665671858979 0.005358511125089992 -0.004784266473811254 -0.0005742446512787415 -0.00395156749268861 0.0 0.0
0.0 0.009306928783113868 0.007471108310908971 -0.006826652912698513 -0.0006444553982104567 -0.004954613749688167 0.0 0.0
0.0 0.012528106436632236 0.010084205803220319 -0.00938539281810515 -0.0006988129851151594 -0.006001032085272502 0.0 0.0
0.0 0.01611446219951955 0.013178439744641642 -0.012436909351257895 -0.0007415303933837509 -0.006837703166264109 0.0 0.0
0.0 0.020150787496746012 0.01666742433886712 -0.015886683732220484 -0.0007807406066466325 -0.007009869902427313 0.0 0.0
0.0 0.02465156224265996 0.020389503257686462 -0.019606391737995315 -0.0007831115196911194 -0.006054630538360247 0.0 0.0
0.0 0.02793061385286553 0.022860273120671043 -0.02252690728948083 -0.0003333658311902256 5.444429629353209e-15 0.0 0.0
0.0 0.024651562242658725 0.020389503257683822 -0.01960639173799224 -0.0007831115196915785 0.006054630538373496 0.0 0.0
0.0 0.020150787496744628 0.016667424338864506 -0.01588668373221819 -0.0007807406066463137 0.007009869902441127 0.0 0.0
0.0 0.016114462199513523 0.013178439744636438 -0.012436909351252981 -0.0007415303933834433 0.006837703166269831 0.0 0.0
0.0 0.012528106436626522 0.010084205803215762 -0.009385392818101046 -0.000698812985114716 0.006001032085271486 0.0 0.0
0.0 0.00930692878310936 0.007471108310905399 -0.006826652912695194 -0.0006444553982102015 0.0049546137496853625 0.0 0.0
0.0 0.006668665671853981 0.005358511125085853 -0.004784266473807292 -0.0005742446512785594 0.0039515674926863375 0.0 0.0
0.0 0.004649186700000006 0.0037211350574782275 -0.003241293917177597 -0.0004798411403006303 0.003080682587771202 0.0 0.0
0.0 0.0031687537752987556 0.0024851919040075276 -0.0021151999973698914 -0.00036999190663763483 0.0023320260278259747 0.0 0.0
0.0 0.0020406522974368803 0.0015542741144204775 -0.0012984034066220076 -0.00025587070779847033 0.0016573403139366844 0.0 0.0
0.0 0.0011324419222158285 0.000846464359072048 -0.0006938037958037035 -0.00015266056326834515 0.0010422408147520456 0.0 0.0
0.0 0.0005809549921849727 0.0003162289565525109 -0.00025698064607780136 -5.9248310474709296e-05 0.0004631876132341583 0.0 0.0
0.0 0.00012650862492864323 4.7328951394019676e-05 -3.857855729499331e-05 -8.750394099026558e-06 0.0001383888148513918 0.0 0.0
0.0 3.777850152502949e-05 -2.095027789687844e-05 1.618186706786671e-05 4.768410829011792e-06 -3.992345695271364e-05 0.0 0.0
0.0 5.934931706110453e-06 -4.996736121353191e-06 3.9885466425569254e-06 1.0081894787963506e-06 -2.091437793951749e-05 0.0 0.0
0.0 -7.76761245577516e-06 5.794153295023735e-07 -4.487246183262815e-07 -1.3069071117612888e-07 2.4213942514122774e-06 0.0 0.0
0.0 -2.8591288959316563e-07 9.24253522329496e-09 -7.084965884329158e-09 -2.15756933896141e-09 5.122909245679573e-08 0.0 0.0
0.0 0.0 0.0 0.0 0.0 0.0 0.0 0.0
0.0 2.5803849539560485e-06 -5.095703049694029e-09 1.2473865280058895e-08 -7.3781622303636574e-09 -5.575304432905505e-07 0.0 0.0
0.0 -3.8163371532338254e-05 -1.6532022127870137e-05 2.342991637534813e-05 -6.897894247477988e-06 -2.4706353269903985e-05 0.0 0.0
0.0 0.00026171640840563933 0.00011048507444134527 -0.00016169172631314474 5.120665187179952e-05 0.00014807709755806749 0.0 0.0
0.0 5.981013853334277e-05 -9.086338750623632e-06 1.2822093732793732e-05 -3.7357549821699778e-06 1.732201368487134e-05 0.0 0.0
0.0 -4.259806425309928e-06 1.007612901212879e-06 -1.4653465131864553e-06 4.5773361197357737e-07 -1.6369027441782756e-06 0.0 0.0
0.0 5.149974561989484e-07 8.315305539707942e-10 5.81062297663047e-10 -1.4125928516329942e-09 1.0360537900382677e-07 0.0 0.0
0.0 5.102853194010992e-07 6.51326980736861e-09 -5.92521034271967e-09 -5.880594646505873e-10 1.0424366580308873e-07 0.0 0.0
0.0 -8.593099250458052e-07 3.008918804294092e-08 -2.426669608445876e-08 -5.822491958475931e-09 -2.039176300560015e-07 0.0 0.0
0.0 2.5641008229970374e-06 -2.518760980933328e-08 1.27120707934381e-08 1.24755390158696e-08 4.767190958111e-07 0.0 0.0
0.0 2.569036139816447e-06 -1.805159792360973e-06 1.4163390951204332e-06 3.8882069724055884e-07 1.542368620729338e-05 0.0 0.0
0.0 1.2682192171386075e-05 -1.8805253607443322e-06 1.7026040369264082e-06 1.7792132381790375e-07 3.965541709644717e-06 0.0 0.0
0.0 6.988172831343052e-05 6.988850097442068e-06 -5.9833754595303944e-06 -1.0054746379116175e-06 -7.147375150615314e-05 0.0 0.0
0.0 0.0001250267235100973 1.3113786812957659e-05 -1.1260327914111186e-05 -1.8534588988465945e-06 -0.00018070931422576675 0.0 0.0
0.0 0.0003953460139063569 7.210957280576733e-05 -6.434221530064541e-05 -7.767357505121991e-06 -0.0003706479217290648 0.0 0.0
0.0 0.0006081693797627226 0.0002698384038639599 -0.0002376531525096194 -3.218525135434041e-05 -0.0008110053271695378 0.0 0.0
0.0 0.0010785432251448276 0.0005727349521735159 -0.0005074888404678553 -6.524611170566007e-05 -0.001318882618183303 0.0 0.0
0.0 0.0018438471734815434 0.0010868007145768525 -0.0009610946739008227 -0.0001257060406760299 -0.001957400310823444 0.0 0.0
0.0 0.002903063476830249 0.001861962533769791 -0.0016563076031912258 -0.0002056549305785631 -0.0027011205118113507 0.0 0.0
0.0 0.0043311416055741864 0.002921938590718666 -0.002634776003641402 -0.000287162587077264 -0.003519012309352207 0.0 0.0
0.0 0.006218989948713805 0.00431440755895839 -0.003935592543345924 -0.0003788150156124676 -0.004420179047739178 0.0 0.0
0.0 0.008730439726753875 0.006181910538248776 -0.005717901889553272 -0.00046400864869550163 -0.005269502490534917 0.0 0.0
0.0 0.011633782420702263 0.008563523014012265 -0.008033239522832058 -0.0005302834911802151 -0.005567393099505225 0.0 0.0
0.0 0.014909065029695278 0.011528901045409035 -0.010930884603546766 -0.0005980164418622645 -0.004888593135094675 0.0 0.0
0.0 0.01898145448966285 0.014023531045972515 -0.013934310413482844 -8.922063248966844e-05 3.389432831624184e-15 0.0 0.0
0.0 0.014909065029697056 0.011528901045408498 -0.010930884603546149 -0.0005980164418623455 0.004888593135105172 0.0 0.0
0.0 0.011633782420702855 0.008563523014011625 -0.00803323952283148 -0.0005302834911801393 0.0055673930995159306 0.0 0.0
0.0 0.008730439726749757 0.006181910538245747 -0.005717901889550189 -0.00046400864869555975 0.005269502490537348 0.0 0.0
0.0 0.006218989948710386 0.004314407558956805 -0.003935592543344346 -0.0003788150156124613 0.004420179047737179 0.0 0.0
0.0 0.00433114160557231 0.0029219385907174444 -0.002634776003640402 -0.00028716258707704224 0.0035190123093498667 0.0 0.0
0.0 0.0029030634768286126 0.001861962533768099 -0.0016563076031897305 -0.00020565493057836916 0.002701120511810212 0.0 0.0
0.0 0.0018438471734804392 0.001086800714576454 -0.0009610946739004957 -0.00012570604067595862 0.0019574003108230793 0.0 0.0
0.0 0.0010785432251415117 0.0005727349521715 -0.000507488840466006 -6.524611170549397e-05 0.0013188826181794258 0.0 0.0
0.0 0.0006081693797605821 0.0002698384038629548 -0.00023765315250880124 -3.218525135415368e-05 0.0008110053271666218 0.0 0.0
0.0 0.00039534601390401214 7.210957280516267e-05 -6.434221530008619e-05 -7.767357505076262e-06 0.00037064792172657917 0.0 0.0
0.0 0.00012502672350971056 1.3113786813116093e-05 -1.1260327914246735e-05 -1.8534588988693098e-06 0.00018070931422576797 0.0 0.0
0.0 6.988172831287902e-05 6.988850097358095e-06 -5.983375459465712e-06 -1.0054746378923123e-06 7.147375150564071e-05 0.0 0.0
0.0 1.268219217100733e-05 -1.880525360744063e-06 1.7026040369278185e-06 1.7792132381622488e-07 -3.9655417097317644e-06 0.0 0.0
0.0 2.569036139340535e-06 -1.8051597923355527e-06 1.416339095100664e-06 3.888206972348901e-07 -1.5423686207040153e-05 0.0 0.0
0.0 2.5641008225426575e-06 -2.5187609804060635e-08 1.2712070789955e-08 1.2475539014106878e-08 -4.7671909570504365e-07 0.0 0.0
0.0 -8.593099251298585e-07 3.0089188041248155e-08 -2.4266696082362417e-08 -5.822491958886435e-09 2.039176300699479e-07 0.0 0.0
0.0 5.10285319165181e-07 6.513269804796147e-09 -5.925210340276538e-09 -5.880594645190752e-10 -1.0424366575315331e-07 0.0 0.0
0.0 5.149974558099532e-07 8.315305537905433e-10 5.810622967492264e-10 -1.4125928505440177e-09 -1.036053789230171e-07 0.0 0.0
0.0 -4.259806425591988e-06 1.007612901237005e-06 -1.465346513217971e-06 4.577336119809811e-07 1.636902744262051e-06 0.0 0.0
0.0 5.9810138532127527e-05 -9.086338750628155e-06 1.2822093732804753e-05 -3.7357549821767252e-06 -1.732201368483907e-05 0.0 0.0
0.0 -5.770224573576598e-06 4.5748005970636533e-07 -6.591559002618483e-07 2.0167584055543904e-07 -9.144510091070884e-07 0.0 0.0
0.0 -5.128933488498502e-07 -6.481653911065706e-08 8.450844604490936e-08 -1.9691906934246475e-08 -1.5101328654696775e-07 0.0 0.0
0.0 3.709976115374427e-06 9.930774553371727e-09 8.51480407667355e-09 -1.844557863004745e-08 7.998850565718866e-07 0.0 0.0
0.0 1.2405663355666563e-06 2.296314495505155e-08 -1.9338392250235115e-08 -3.624752704813151e-09 2.542797602654144e-07 0.0 0.0
0.0 7.821947515459587e-08 1.9553413154148733e-08 -1.741372149231297e-08 -2.139691661835925e-09 -6.284691891100786e-09 0.0 0.0
0.0 1.3548064263496657e-06 2.027879397800174e-09 -1.7982440208853433e-09 -2.29635376911699e-10 1.8888268355036466e-07 0.0 0.0
0.0 4.855868565525352e-06 5.30571531323211e-08 -6.255058265316789e-08 9.493429520836091e-09 1.575384246818142e-05 0.0 0.0
0.0 7.514566674082011e-06 -8.369317699339247e-08 8.20050052274497e-08 1.688171765953888e-09 -1.1305922378450905e-05 0.0 0.0
0.0 7.249180744229593e-05 -1.538559074492855e-09 3.777668334159748e-09 -2.239109259654505e-09 -3.854605821001783e-05 0.0 0.0
0.0 0.00011043128193169072 7.54242575843557e-08 -6.859832512469408e-08 -6.82593245965781e-09 -0.0001715660999983295 0.0 0.0
0.0 0.00025697302798793187 1.2258831039529466e-07 -1.1781816303286645e-07 -4.770147362416771e-09 -0.0002702180799676301 0.0 0.0
0.0 0.00030786848106857233 -3.2561708801973094e-08 -3.6635100204590435e-09 3.622521882246124e-08 -0.0005360851615126558 0.0 0.0
0.0 0.0004719773529134681 5.29028922987466e-07 -4.177234538547605e-07 -1.1130546913269844e-07 -0.0008393797466120628 0.0 0.0
0.0 0.0006580442516133816 6.087085819779151e-07 3.1911727742423045e-09 -6.11899754752032e-07 -0.001277713829640845 0.0 0.0
0.0 0.000951881377326413 -6.834454208852207e-06 6.6896516845757725e-06 1.4480252427614303e-07 -0.0019312256317077729 0.0 0.0
0.0 0.001334959488934006 -1.7027817370969355e-05 9.044903400653401e-06 7.982913970316258e-06 -0.0028792533140975943 0.0 0.0
0.0 0.0021132209665028173 0.00013975470314110374 -0.00017773558912826136 3.798088598715774e-05 -0.003998837054706035 0.0 0.0
0.0 0.0032657042790395397 0.0005036855943411603 -0.0005812732749963037 7.758768065514333e-05 -0.005097018223005024 0.0 0.0
0.0 0.004894307582948827 0.0012393819227976164 -0.0013724740311496747 0.00013309210835205768 -0.006031218237727807 0.0 0.0
0.0 0.007249949992696935 0.0029527834953584245 -0.002873615365890015 -7.91681294684102e-05 -0.006064058212182094 0.0 0.0
0.0 0.012568899021802696 0.005821041403672677 -0.006074164044359143 0.0002531226406864666 5.2627173452446385e-15 0.0 0.0
0.0 0.007249949992699848 0.002952783495357993 -0.0028736153658897 -7.916812946829054e-05 0.006064058212191354 0.0 0.0
0.0 0.004894307582949755 0.001239381922797606 -0.0013724740311499802 0.00013309210835237166 0.006031218237731187 0.0 0.0
0.0 0.00326570427903672 0.0005036855943407521 -0.0005812732749957057 7.758768065495323e-05 0.005097018223002446 0.0 0.0
0.0 0.0021132209665014026 0.00013975470314178776 -0.00017773558912907603 3.7980885987288105e-05 0.003998837054703112 0.0 0.0
0.0 0.001334959488933161 -1.7027817371468006e-05 9.044903401144328e-06 7.982913970323895e-06 0.002879253314095237 0.0 0.0
0.0 0.0009518813773256845 -6.834454208632805e-06 6.689651684452743e-06 1.4480252418013016e-07 0.0019312256317065089 0.0 0.0
0.0 0.0006580442516128651 6.087085821223037e-07 3.191172577761154e-09 -6.118997547001191e-07 0.0012777138296392633 0.0 0.0
0.0 0.0004719773529116816 5.290289230848349e-07 -4.1772345393975986e-07 -1.1130546914507846e-07 0.0008393797466088556 0.0 0.0
0.0 0.0003078684810673415 -3.256170871382592e-08 -3.663510079327648e-09 3.622521879316204e-08 0.0005360851615101661 0.0 0.0
0.0 0.0002569730279861837 1.2258831045975217e-07 -1.178181631067057e-07 -4.770147353028681e-09 0.00027021807996533266 0.0 0.0
0.0 0.00011043128193175743 7.542425759245503e-08 -6.85983251348318e-08 -6.825932457612649e-09 0.00017156609999867265 0.0 0.0
0.0 7.249180744167442e-05 -1.5385590619715904e-09 3.777668321807043e-09 -2.239109259838629e-09 3.854605820934615e-05 0.0 0.0
0.0 7.514566673716128e-06 -8.36931769981764e-08 8.200500523259055e-08 1.68817176559914e-09 1.130592237851319e-05 0.0 0.0
0.0 4.8558685650307665e-06 5.305715312986468e-08 -6.255058265054004e-08 9.493429520683692e-09 -1.575384246795995e-05 0.0 0.0
0.0 1.3548064257701182e-06 2.027879393269517e-09 -1.7982440164533427e-09 -2.2963537682250245e-10 -1.8888268341974747e-07 0.0 0.0
0.0 7.821947466927294e-08 1.955341314824257e-08 -1.741372148698716e-08 -2.13969166125215e-09 6.284691988554587e-09 0.0 0.0
0.0 1.2405663350389034e-06 2.2963144945294832e-08 -1.9338392241929008e-08 -3.624752703366745e-09 -2.542797601527055e-07 0.0 0.0
0.0 3.709976114990924e-06 9.930774554279981e-09 8.514804073223992e-09 -1.844557862749463e-08 -7.998850564801681e-07 0.0 0.0
0.0 -5.128933485621724e-07 -6.481653911412669e-08 8.450844605188447e-08 -1.969190693777261e-08 1.5101328649136882e-07 0.0 0.0
0.0 -5.77022457406976e-06 4.574800597330516e-07 -6.591559003024465e-07 2.0167584056947556e-07 9.144510091531005e-07 0.0 0.0
0.0 0.0 0.0 0.0 0.0 0.0 0.0 0.0
0.0 9.81032028272451e-08 7.113588084771785e-11 3.4792942669783316e-10 -4.190653075455392e-10 2.3025966203362916e-08 0.0 0.0
0.0 -8.218189414007199e-07 -1.1978300967229744e-08 8.478785190135025e-09 3.499515777094716e-09 -1.7884910693170967e-07 0.0 0.0
0.0 1.490317100255079e-06 4.241911744592017e-08 -3.470315010590186e-08 -7.71596734001991e-09 3.1235457426870176e-07 0.0 0.0
0.0 -9.046999604837317e-07 -2.5830668004379132e-08 1.7516571732222505e-08 8.314096272158702e-09 -2.619781416867651e-07 0.0 0.0
0.0 -2.181659792773833e-06 -2.818719271668103e-07 2.2543840502503136e-07 5.6433522141811666e-08 -1.3430080509743681e-06 0.0 0.0
0.0 1.710797992730758e-05 2.9602930141513365e-06 -2.3560548074168887e-06 -6.042382067345222e-07 2.1772130535464617e-05 0.0 0.0
0.0 1.5930233506687725e-05 1.8111912351586605e-06 -1.6122710503262972e-06 -1.9892018483234388e-07 4.513862861628768e-06 0.0 0.0
0.0 6.976712208622753e-05 -6.948105991277453e-06 5.973051567467971e-06 9.750544238093327e-07 -7.148406157794304e-05 0.0 0.0
0.0 0.00012403788195955012 -1.2975497287950432e-05 1.112937758722516e-05 1.8461197007251787e-06 -0.0001801483897711996 0.0 0.0
0.0 0.00039133858703298746 -7.182750996853152e-05 6.406734196032817e-05 7.760168008203405e-06 -0.0003709780727528941 0.0 0.0
0.0 0.0006183860947861201 -0.00026924376918952366 0.00023713292431812966 3.2110844871394006e-05 -0.0008072274476058082 0.0 0.0
0.0 0.001083158037241235 -0.0005743641815855048 0.0005088070434428899 6.555713814261459e-05 -0.0013190776367633652 0.0 0.0
0.0 0.001859533666968922 -0.001096584511351454 0.0009701892292298551 0.00012639528212159975 -0.0019528999893564654 0.0 0.0
0.0 0.002897923653064881 -0.001864799627050718 0.0016631887205650526 0.00020161090648566427 -0.00269988380365822 0.0 0.0
0.0 0.004197272223831305 -0.002794282991378364 0.0025360421317327892 0.0002582408596455742 -0.003593356943013181 0.0 0.0
0.0 0.005544780523043115 -0.0037024875638765223 0.003422758954556314 0.0002797286093202107 -0.004710976556391386 0.0 0.0
0.0 0.006784627511097576 -0.00424021790408081 0.003996158210043281 0.00024405969403752754 -0.006082242448374251 0.0 0.0
0.0 0.007072461617682313 -0.003965214483961608 0.0038232747104013946 0.00014193977356021688 -0.007726702783802875 0.0 0.0
0.0 0.006198229209707792 -0.002935997347191216 0.002839217455362018 9.677989182919506e-05 -0.009130945266336449 0.0 0.0
0.0 0.011808922859852015 -0.0017088237241854247 0.0006390675403446841 0.0010697561838407396 7.55211865266503e-15 0.0 0.0
0.0 0.00619822920971267 -0.002935997347192503 0.0028392174553635813 9.677989182892027e-05 0.009130945266342913 0.0 0.0
0.0 0.007072461617681963 -0.003965214483960825 0.0038232747104007016 0.0001419397735601294 0.00772670278380741 0.0 0.0
0.0 0.0067846275110941415 -0.004240217904078665 0.0039961582100411985 0.00024405969403746305 0.006082242448374618 0.0 0.0
0.0 0.005544780523040521 -0.0037024875638744866 0.0034227589545546464 0.0002797286093198425 0.004710976556389566 0.0 0.0
0.0 0.004197272223826552 -0.0027942829913745744 0.002536042131729255 0.00025824085964532017 0.003593356943010277 0.0 0.0
0.0 0.0028979236530630535 -0.0018647996270487852 0.0016631887205634428 0.00020161090648534183 0.002699883803655793 0.0 0.0
0.0 0.0018595336669645266 -0.0010965845113482557 0.0009701892292269579 0.00012639528212129834 0.0019528999893535254 0.0 0.0
0.0 0.0010831580372383672 -0.000574364181583753 0.0005088070434414998 6.555713814225313e-05 0.0013190776367602432 0.0 0.0
0.0 0.000618386094782033 -0.0002692437691875823 0.00023713292431639 3.211084487119248e-05 0.0008072274476015387 0.0 0.0
0.0 0.0003913385870295131 -7.182750996738908e-05 6.406734195933038e-05 7.760168008058597e-06 0.0003709780727496903 0.0 0.0
0.0 0.00012403788195913972 -1.2975497288129936e-05 1.112937758733276e-05 1.846119700797152e-06 0.00018014838977090697 0.0 0.0
0.0 6.976712208575281e-05 -6.948105991266362e-06 5.97305156747231e-06 9.750544237940275e-07 7.148406157787947e-05 0.0 0.0
0.0 1.593023350608947e-05 1.8111912351951172e-06 -1.6122710503530997e-06 -1.9892018484201816e-07 -4.5138628620161405e-06 0.0 0.0
0.0 1.7107979926731225e-05 2.9602930141159534e-06 -2.3560548073891086e-06 -6.042382067268372e-07 -2.177213053515119e-05 0.0 0.0
0.0 -2.181659793367169e-06 -2.818719271838624e-07 2.2543840503888704e-07 5.6433522144977525e-08 1.3430080511166866e-06 0.0 0.0
0.0 -9.046999610048385e-07 -2.5830668016928637e-08 1.7516571743071845e-08 8.314096273852852e-09 2.619781417877792e-07 0.0 0.0
0.0 1.4903170996868914e-06 4.241911743258753e-08 -3.470315009501489e-08 -7.715967337572316e-09 -3.123545741501756e-07 0.0 0.0
0.0 -8.218189417629492e-07 -1.1978300966845621e-08 8.478785187802506e-09 3.499515779040467e-09 1.788491070000406e-07 0.0 0.0
0.0 9.810320297927764e-08 7.113588205546141e-11 3.479294262413223e-10 -4.190653082960448e-10 -2.3025966233100307e-08 0.0 0.0
0.0 0.0 0.0 0.0 0.0 0.0 0.0 0.0
0.0 0.0 0.0 0.0 0.0 0.0 0.0 0.0
0.0 2.1048115274896888e-08 1.779303116025321e-10 -7.692157692559785e-11 -1.0100873467691951e-10 4.212842558405787e-09 0.0 0.0
0.0 -6.96977332642471e-07 -2.1540156773917086e-08 1.7601164642050715e-08 3.938992131864946e-09 -1.437910681489006e-07 0.0 0.0
0.0 -9.073015980962664e-07 -5.68571413310864e-08 4.755545022616241e-08 9.301691104915119e-09 -2.3445117856962518e-07 0.0 0.0
0.0 6.939413693383549e-06 2.566932478728383e-07 -2.1773015307303336e-07 -3.8963094799756134e-08 1.504890408802535e-06 0.0 0.0
0.0 1.549628246842942e-05 1.31816202078226e-06 -1.0596709394077216e-06 -2.584910813745257e-07 6.2148850971104065e-06 0.0 0.0
0.0 -1.0564877974573837e-05 1.921355377415515e-06 -1.6209095355879986e-06 -3.0044584182746804e-07 5.540713376514565e-06 0.0 0.0
0.0 4.3838896253020485e-05 2.009728578829612e-05 -1.54754769252948e-05 -4.621808863001457e-06 3.758991318726815e-05 0.0 0.0
0.0 0.0001260412818232895 -4.755239298256288e-05 3.87162831907398e-05 8.83610979182313e-06 -0.00013883664343426373 0.0 0.0
0.0 0.0005776581545720982 -0.0003147649224193794 0.00025573233236001814 5.903259005936103e-05 -0.00046092267330195505 0.0 0.0
0.0 0.0011304960955878013 -0.0008456032526092461 0.0006930277312944143 0.00015257552131483191 -0.001041121965704633 0.0 0.0
0.0 0.002040696875329074 -0.001553930435148779 0.0012980189326284573 0.0002559115025203215 -0.0016578151047179173 0.0 0.0
0.0 0.003171846755358289 -0.002486975587960037 0.0021165638100833096 0.0003704117778767263 -0.0023293503131451643 0.0 0.0
0.0 0.004659399797694467 -0.0037314265420592047 0.0032511583639462096 0.00048026817811299566 -0.003062760366243833 0.0 0.0
0.0 0.006677969580377421 -0.005371107877524083 0.004799585351010143 0.0005715225265139383 -0.003935688024152408 0.0 0.0
0.0 0.009211537153335312 -0.007388123267711862 0.006757276907967121 0.0006308463597447419 -0.005070571762348143 0.0 0.0
0.0 0.011974505050488669 -0.009572671447525499 0.00891393956760112 0.0006587318799243735 -0.006608304955166306 0.0 0.0
0.0 0.014293188395195928 -0.01148645148484591 0.01082452207549063 0.0006619294093552829 -0.008603479159893969 0.0 0.0
0.0 0.01575782228553436 -0.0123084864235306 0.01167576880437089 0.0006327176191597054 -0.010684967438055096 0.0 0.0
0.0 0.014713640083406875 -0.010681693914221382 0.010082507404986708 0.0005991865092346758 -0.011231321933632804 0.0 0.0
0.0 0.014866911897376392 -0.008396275163539735 0.006619677635577645 0.0017765975279620874 5.332106284283711e-15 0.0 0.0
0.0 0.014713640083411129 -0.01068169391422253 0.01008250740498774 0.0005991865092347981 0.011231321933643337 0.0 0.0
0.0 0.01575782228553438 -0.012308486423529089 0.01167576880436958 0.0006327176191594919 0.010684967438064834 0.0 0.0
0.0 0.014293188395191558 -0.011486451484841986 0.010824522075487262 0.0006619294093547218 0.008603479159897294 0.0 0.0
0.0 0.01197450505048135 -0.009572671447519755 0.008913939567595506 0.000658731879924239 0.00660830495516394 0.0 0.0
0.0 0.009211537153329303 -0.0073881232677067196 0.006757276907962178 0.0006308463597445403 0.0050705717623454796 0.0 0.0
0.0 0.006677969580371071 -0.005371107877518853 0.004799585351005403 0.0005715225265134484 0.003935688024148694 0.0 0.0
0.0 0.00465939979768822 -0.0037314265420532846 0.0032511583639408155 0.0004802681781124657 0.0030627603662407303 0.0 0.0
0.0 0.003171846755351747 -0.0024869755879547615 0.0021165638100784276 0.0003704117778763349 0.002329350313141421 0.0 0.0
0.0 0.002040696875321116 -0.0015539304351426654 0.0012980189326230887 0.0002559115025195758 0.0016578151047120285 0.0 0.0
0.0 0.0011304960955822452 -0.0008456032526047955 0.0006930277312906216 0.00015257552131417397 0.001041121965699607 0.0 0.0
0.0 0.0005776581545673854 -0.0003147649224164666 0.00025573233235763967 5.903259005882693e-05 0.00046092267329882295 0.0 0.0
0.0 0.0001260412818214345 -4.755239298176356e-05 3.8716283190081275e-05 8.83610979168218e-06 0.0001388366434329856 0.0 0.0
0.0 4.383889625221568e-05 2.009728578826295e-05 -1.5475476925267437e-05 -4.621808862995563e-06 -3.7589913187592935e-05 0.0 0.0
0.0 -1.0564877975409682e-05 1.9213553771921767e-06 -1.6209095354123445e-06 -3.004458417798278e-07 -5.540713375746886e-06 0.0 0.0
0.0 1.549628246792128e-05 1.3181620207723094e-06 -1.059670939399187e-06 -2.5849108137320064e-07 -6.214885097049761e-06 0.0 0.0
0.0 6.93941369285266e-06 2.566932478488849e-07 -2.1773015305282098e-07 -3.896309479606582e-08 -1.5048904086734851e-06 0.0 0.0
0.0 -9.073015986570772e-07 -5.6857141346010775e-08 4.755545023829637e-08 9.301691107725905e-09 2.3445117868003778e-07 0.0 0.0
0.0 -6.969773323641747e-07 -2.1540156766816746e-08 1.7601164636488607e-08 3.938992130327122e-09 1.4379106809095408e-07 0.0 0.0
0.0 2.104811525417068e-08 1.779303114248141e-10 -7.692157684864826e-11 -1.0100873457621018e-10 -4.2128425542012475e-09 0.0 0.0
0.0 0.0 0.0 0.0 0.0 0.0 0.0 0.0
0.0 0.0 0.0 0.0 0.0 0.0 0.0 0.0
0.0 0.0 0.0 0.0 0.0 0.0 0.0 0.0
0.0 -6.673786689358188e-07 -2.6521950268112564e-08 2.1499513791296284e-08 5.022436476819881e-09 -1.3134363579990852e-07 0.0 0.0
0.0 1.8682322036662964e-06 7.292438497842065e-08 -5.975073658410082e-08 -1.3173648394326133e-08 3.735910496881116e-07 0.0 0.0
0.0 2.3140902413618293e-06 1.1552332740199962e-07 -9.046105198017637e-08 -2.5062275421858163e-08 4.835579472346787e-07 0.0 0.0
0.0 -1.1076811969359149e-05 -2.2052457394646917e-06 1.7246406966677413e-06 4.806050427970079e-07 -5.349583972754544e-06 0.0 0.0
0.0 1.38767791040342e-05 2.7718999780824743e-05 -2.1977832043212076e-05 -5.7411677376128575e-06 6.267792493958077e-05 0.0 0.0
0.0 8.599359629801837e-05 -6.447328817324725e-05 5.011229923652842e-05 1.4360988936718873e-05 -9.253643461947193e-05 0.0 0.0
0.0 0.0005621039844637554 -0.0004142283057825176 0.0003254755184725413 8.87527873099761e-05 -0.00040597399210181423 0.0 0.0
0.0 0.001619297077612115 -0.0010769942796299637 0.0008716491692715316 0.00020534511035843252 -0.0009404095180729644 0.0 0.0
0.0 0.002517300859161854 -0.0020376486749090817 0.001696394903466515 0.0003412537714425655 -0.0016721031411333714 0.0 0.0
0.0 0.003830970663307365 -0.003214309836138237 0.0027447107147447088 0.00046959912139352714 -0.00237266422969753 0.0 0.0
0.0 0.0055888221623964125 -0.004692060006887855 0.0041035198403886666 0.000588540166499187 -0.0030977079608872395 0.0 0.0
0.0 0.007857726551585127 -0.00663539118267862 0.005943168299343668 0.0006922228833349508 -0.003923002920123874 0.0 0.0
0.0 0.010934170465857904 -0.00917510834788598 0.008403771447568455 0.0007713369003175276 -0.0049562654303523905 0.0 0.0
0.0 0.014627902978710892 -0.01232097780442368 0.011501746081982555 0.0008192317224411282 -0.0063407429147086325 0.0 0.0
0.0 0.019023445927484336 -0.015819194715583604 0.014981934668062791 0.0008372600475208211 -0.008347674059349292 0.0 0.0
0.0 0.022991202218690186 -0.019050702498561663 0.018228599902501703 0.0008221025960599576 -0.011111791974809779 0.0 0.0
0.0 0.025385944603876043 -0.02078423625454378 0.02000786454319961 0.0007763717113441706 -0.013952368518004153 0.0 0.0
0.0 0.023780049054278673 -0.019051236592202692 0.01834639281700494 0.0007048437751977449 -0.014900534419939127 0.0 0.0
0.0 0.021498181547608023 -0.015340610592670006 0.012901068918107855 0.002439541674562159 6.04421027117219e-15 0.0 0.0
0.0 0.02378004905428031 -0.01905123659220154 0.01834639281700352 0.0007048437751980127 0.014900534419952937 0.0 0.0
0.0 0.025385944603877098 -0.020784236254542274 0.02000786454319872 0.0007763717113435339 0.013952368518019101 0.0 0.0
0.0 0.022991202218683962 -0.019050702498555706 0.018228599902496066 0.0008221025960596381 0.011111791974815884 0.0 0.0
0.0 0.019023445927473518 -0.01581919471557447 0.014981934668053856 0.0008372600475206182 0.008347674059348333 0.0 0.0
0.0 0.01462790297870253 -0.012320977804416393 0.011501746081975617 0.0008192317224407659 0.006340742914705568 0.0 0.0
0.0 0.010934170465849385 -0.009175108347878685 0.008403771447561919 0.000771336900316759 0.004956265430348657 0.0 0.0
0.0 0.007857726551574927 -0.006635391182669949 0.005943168299335382 0.000692222883334567 0.003923002920119498 0.0 0.0
0.0 0.005588822162384844 -0.004692060006878152 0.004103519840379372 0.0005885401664987835 0.003097707960882142 0.0 0.0
0.0 0.003830970663296867 -0.0032143098361295964 0.002744710714736966 0.0004695991213926309 0.0023726642296913497 0.0 0.0
0.0 0.002517300859152431 -0.0020376486749014715 0.0016963949034595883 0.0003412537714418823 0.0016721031411267907 0.0 0.0
0.0 0.0016192970776051357 -0.001076994279624589 0.0008716491692670665 0.00020534511035752252 0.0009404095180684574 0.0 0.0
0.0 0.0005621039844587114 -0.00041422830577905945 0.00032547551846982267 8.875278730923657e-05 0.0004059739920989047 0.0 0.0
0.0 8.599359629632861e-05 -6.447328817231554e-05 5.011229923579993e-05 1.4360988936515502e-05 9.253643461846408e-05 0.0 0.0
0.0 1.3876779103187136e-05 2.7718999780582752e-05 -2.1977832043022646e-05 -5.7411677375599755e-06 -6.267792493922464e-05 0.0 0.0
0.0 -1.1076811970124397e-05 -2.205245739536395e-06 1.7246406967251856e-06 4.806050428112229e-07 5.349583972944609e-06 0.0 0.0
0.0 2.3140902408395513e-06 1.1552332737642831e-07 -9.046105195933258e-08 -2.5062275417086502e-08 -4.835579471281663e-07 0.0 0.0
0.0 1.8682322031391885e-06 7.292438495947189e-08 -5.975073656882235e-08 -1.3173648390657147e-08 -3.73591049577993e-07 0.0 0.0
0.0 -6.673786687448563e-07 -2.6521950260483167e-08 2.1499513785132376e-08 5.022436475351499e-09 1.3134363576041204e-07 0.0 0.0
0.0 0.0 0.0 0.0 0.0 0.0 0.0 0.0
0.0 0.0 0.0 0.0 0.0 0.0 0.0 0.0
0.0 0.0 0.0 0.0 0.0 0.0 0.0 0.0
0.0 0.0 0.0 0.0 0.0 0.0 0.0 0.0
0.0 -1.9885686319327028e-07 -9.042500065212355e-09 7.070759409378278e-09 1.9717406558339976e-09 -3.727888583608044e-08 0.0 0.0
0.0 -2.4744223030299965e-06 -1.8022640795415001e-07 1.4690897587138403e-07 3.331743208276705e-08 -5.041893378248485e-07 0.0 0.0
0.0 5.7199536172791194e-06 2.885528550869788e-07 -2.392073873651783e-07 -4.934546772182811e-08 1.133045069606803e-06 0.0 0.0
0.0 2.4523625954321988e-05 1.2050145556656099e-05 -9.554741908561967e-06 -2.4954036480941964e-06 2.2743327271614935e-05 0.0 0.0
0.0 3.5783838069605785e-05 -7.003985798382792e-06 5.416435474914098e-06 1.5875503234689227e-06 -1.0482908578788204e-05 0.0 0.0
0.0 0.0004005537710806539 -0.0003181091747404439 0.00024454767897638257 7.356149576406109e-05 -0.00023101965246729585 0.0 0.0
0.0 0.0015109519129660896 -0.0009918066573764216 0.000792359462972501 0.00019944719440392013 -0.0006757225887801296 0.0 0.0
0.0 0.0023305410896358207 -0.0020898675335108557 0.0017286417563277536 0.0003612257771831035 -0.0014013135024357705 0.0 0.0
0.0 0.003943929136316641 -0.0033912219757247014 0.0028920483869856457 0.0004991735887390528 -0.0020843400544152957 0.0 0.0
0.0 0.005795890268148418 -0.004995845036552586 0.004369825180310304 0.0006260198562422804 -0.00277565069534153 0.0 0.0
0.0 0.008145664593957441 -0.007028879428563971 0.006288211493381216 0.000740667935182758 -0.0035205957214125387 0.0 0.0
0.0 0.011250663289830692 -0.009685189883762997 0.008846961201429651 0.0008382286823333377 -0.004409067935734555 0.0 0.0
0.0 0.01525137761779307 -0.013141210261710537 0.01222773109348419 0.0009134791682263465 -0.005527994866605678 0.0 0.0
0.0 0.020523776743755377 -0.017424828696123967 0.01646523466221278 0.0009595940339111901 -0.007053336486616044 0.0 0.0
0.0 0.025903412131684903 -0.022261403261125055 0.02128847131087417 0.0009729319502508614 -0.009322776472060862 0.0 0.0
0.0 0.03160221673900113 -0.026782386150608642 0.025844050583437733 0.0009383355671709216 -0.012544606638857666 0.0 0.0
0.0 0.03513099439801913 -0.029317257089144406 0.028460997164355677 0.0008562599247887163 -0.016093233895004874 0.0 0.0
0.0 0.03308411799937324 -0.0271876298862333 0.02645746720822192 0.0007301626780113731 -0.01778536025990195 0.0 0.0
0.0 0.028604926248552556 -0.022189783905860325 0.019180655168795514 0.003009128737064791 7.53867454572621e-15 0.0 0.0
0.0 0.03308411799937397 -0.027187629886231128 0.026457467208219766 0.0007301626780113861 0.017785360259918673 0.0 0.0
0.0 0.0351309943980174 -0.029317257089140757 0.028460997164352575 0.0008562599247881946 0.016093233895022 0.0 0.0
0.0 0.031602216738991266 -0.02678238615059933 0.025844050583428594 0.000938335567170724 0.012544606638866269 0.0 0.0
0.0 0.025903412131673575 -0.02226140326111508 0.021288471310864525 0.0009729319502505534 0.009322776472061665 0.0 0.0
0.0 0.020523776743743557 -0.017424828696113642 0.01646523466220292 0.0009595940339107197 0.007053336486613235 0.0 0.0
0.0 0.015251377617782103 -0.013141210261700785 0.012227731093475021 0.0009134791682257656 0.005527994866601969 0.0 0.0
0.0 0.011250663289819237 -0.009685189883752839 0.008846961201420124 0.0008382286823327138 0.004409067935730413 0.0 0.0
0.0 0.008145664593944857 -0.007028879428553026 0.006288211493370786 0.0007406679351822382 0.003520595721408547 0.0 0.0
0.0 0.005795890268136212 -0.004995845036541765 0.004369825180300336 0.0006260198562414327 0.0027756506953353025 0.0 0.0
0.0 0.003943929136305155 -0.0033912219757144917 0.002892048386976203 0.0004991735887382879 0.002084340054408237 0.0 0.0
0.0 0.00233054108962698 -0.002089867533502855 0.001728641756320693 0.0003612257771821611 0.001401313502430285 0.0 0.0
0.0 0.0015109519129586839 -0.0009918066573711016 0.0007923594629682084 0.00019944719440289445 0.0006757225887768689 0.0 0.0
0.0 0.0004005537710764176 -0.00031810917473755175 0.0002445476789741107 7.356149576344104e-05 0.00023101965246517814 0.0 0.0
0.0 3.578383806851518e-05 -7.003985798421504e-06 5.41643547496215e-06 1.5875503234592923e-06 1.0482908579082071e-05 0.0 0.0
0.0 2.4523625953092984e-05 1.2050145556566129e-05 -9.55474190849058e-06 -2.4954036480755955e-06 -2.2743327271412643e-05 0.0 0.0
0.0 5.719953616844401e-06 2.8855285505960386e-07 -2.3920738734262195e-07 -4.9345467716970975e-08 -1.1330450695020188e-06 0.0 0.0
0.0 -2.474422303145439e-06 -1.8022640795372814e-07 1.4690897587081943e-07 3.331743208291588e-08 5.041893378418852e-07 0.0 0.0
0.0 -1.988568631114358e-07 -9.042500061442109e-09 7.070759406402369e-09 1.9717406550387577e-09 3.72788858200418e-08 0.0 0.0
0.0 0.0 0.0 0.0 0.0 0.0 0.0 0.0
0.0 0.0 0.0 0.0 0.0 0.0 0.0 0.0
0.0 0.0 0.0 0.0 0.0 0.0 0.0 0.0
0.0 0.0 0.0 0.0 0.0 0.0 0.0 0.0
0.0 0.0 0.0 0.0 0.0 0.0 0.0 0.0
0.0 -1.6494797236909553e-06 -1.25180187868091e-07 9.94793065195467e-08 2.570088134854425e-08 -2.9211865650176426e-07 0.0 0.0
0.0 -6.7464564101239546e-06 -1.381602793575879e-06 1.088246744330601e-06 2.9335604924527717e-07 -2.015194412719838e-06 0.0 0.0
0.0 3.452365837231315e-05 2.6649232852515537e-05 -2.1014423818219027e-05 -5.63480903429628e-06 3.330764646167194e-05 0.0 0.0
0.0 0.00019693144474363804 -0.00014047844685709812 0.00010565065789514219 3.482778896195604e-05 -6.626012149845059e-05 0.0 0.0
0.0 0.0010987546074969897 -0.0006969230566872856 0.0005447952596701296 0.0001521277970171559 -0.0003504903453770799 0.0 0.0
0.0 0.0019251026356047543 -0.0017946706298727145 0.0014653003552340753 0.0003293702746386393 -0.000966023288745271 0.0 0.0
0.0 0.0035775380709073346 -0.0031455297486700645 0.00266179203977884 0.00048373770889122554 -0.001599552656265928 0.0 0.0
0.0 0.0054580222919304025 -0.004806681728622824 0.004183460558701229 0.0006232211699215897 -0.002231071199670248 0.0 0.0
0.0 0.007808369362467593 -0.0068534045864064325 0.006106851030870817 0.000746553555535616 -0.0028865450878409935 0.0 0.0
0.0 0.010830698483922964 -0.009455210389518416 0.008597503214669237 0.0008577071748491719 -0.003615365243925486 0.0 0.0
0.0 0.014857575439027632 -0.012837830839579817 0.011885170967248003 0.0009526598723318226 -0.004514682890053019 0.0 0.0
0.0 0.019899371339781043 -0.017212244935931844 0.016182583065183925 0.0010296618707479116 -0.005667642309225133 0.0 0.0
0.0 0.026070128484157455 -0.022629798159661034 0.021547718654563987 0.001082079505097059 -0.007180434895625474 0.0 0.0
0.0 0.03352836666786149 -0.028752809689983228 0.02766172539764488 0.0010910842923383432 -0.00938916810305312 0.0 0.0
0.0 0.040341361298148345 -0.03453766806119384 0.033502122297171436 0.0010355457640223826 -0.012708056762824714 0.0 0.0
0.0 0.04433799436052799 -0.03781525425501348 0.0369044965351282 0.0009107577198853218 -0.016805346446284845 0.0 0.0
0.0 0.04207851738234206 -0.03521932424750972 0.03448746678004264 0.0007318574674670534 -0.019806424691741153 0.0 0.0
0.0 0.03634744351935224 -0.02900435654018127 0.025467641929858627 0.0035367146103226213 7.884318198314588e-15 0.0 0.0
0.0 0.04207851738234281 -0.035219324247507504 0.03448746678004076 0.0007318574674667527 0.019806424691759625 0.0 0.0
0.0 0.04433799436052246 -0.03781525425500672 0.03690449653512147 0.000910757719885217 0.016805346446303247 0.0 0.0
0.0 0.040341361298137916 -0.034537668061184 0.03350212229716184 0.0010355457640221725 0.012708056762835563 0.0 0.0
0.0 0.03352836666784719 -0.028752809689970855 0.027661725397632654 0.001091084292338182 0.009389168103053987 0.0 0.0
0.0 0.02607012848414416 -0.02262979815964928 0.021547718654552767 0.0010820795050965257 0.007180434895623837 0.0 0.0
0.0 0.01989937133976725 -0.01721224493591971 0.016182583065172434 0.0010296618707472786 0.005667642309222506 0.0 0.0
0.0 0.014857575439014746 -0.012837830839567889 0.011885170967236923 0.0009526598723309675 0.004514682890049843 0.0 0.0
0.0 0.010830698483908283 -0.009455210389505468 0.008597503214656554 0.000857707174848917 0.0036153652439215563 0.0 0.0
0.0 0.007808369362451838 -0.006853404586392579 0.00610685103085769 0.0007465535555348844 0.002886545087834771 0.0 0.0
0.0 0.0054580222919169055 -0.004806681728610898 0.00418346055869008 0.0006232211699208149 0.002231071199663615 0.0 0.0
0.0 0.003577538070896285 -0.0031455297486603175 0.002661792039770007 0.000483737708890311 0.0015995526562605448 0.0 0.0
0.0 0.0019251026355970114 -0.0017946706298646894 0.0014653003552271403 0.0003293702746375483 0.0009660232887408358 0.0 0.0
0.0 0.0010987546074900814 -0.0006969230566822298 0.0005447952596660798 0.000152127797016149 0.0003504903453743887 0.0 0.0
0.0 0.0001969314447414814 -0.0001404784468558778 0.00010565065789423083 3.4827788961647434e-05 6.626012149789451e-05 0.0 0.0
0.0 3.452365837148544e-05 2.6649232852099038e-05 -2.1014423817897995e-05 -5.6348090342012535e-06 -3.330764646117595e-05 0.0 0.0
0.0 -6.746456411172402e-06 -1.3816027936686757e-06 1.0882467444031898e-06 2.933560492654638e-07 2.0151944128766417e-06 0.0 0.0
0.0 -1.6494797235304166e-06 -1.2518018785490416e-07 9.94793065089779e-08 2.570088134592939e-08 2.921186564721411e-07 0.0 0.0
0.0 0.0 0.0 0.0 0.0 0.0 0.0 0.0
0.0 0.0 0.0 0.0 0.0 0.0 0.0 0.0
0.0 0.0 0.0 0.0 0.0 0.0 0.0 0.0
0.0 0.0 0.0 0.0 0.0 0.0 0.0 0.0
0.0 0.0 0.0 0.0 0.0 0.0 0.0 0.0
0.0 0.0 0.0 0.0 0.0 0.0 0.0 0.0
0.0 -1.6427912562006257e-06 -1.4576765561260727e-07 1.1635194098500306e-07 2.9415714627583024e-08 -2.453416837903687e-07 0.0 0.0
0.0 1.3888823672570714e-05 4.003068929939528e-06 -3.1522119820249846e-06 -8.508569479144953e-07 4.820052027924e-06 0.0 0.0
0.0 1.590118237674635e-05 -2.9658362408812876e-05 2.1530040546481766e-05 8.128321862330754e-06 -8.350589606313018e-06 0.0 0.0
0.0 0.0006184912123240617 -0.00033954564191382506 0.0002584077640413136 8.113787787251162e-05 -0.0001010530872010772 0.0 0.0
0.0 0.0014281528861280293 -0.0012844074343990185 0.001026308764585645 0.00025809866981337356 -0.0005058203952381194 0.0 0.0
0.0 0.0029010187644140082 -0.0026041867272142347 0.0021726187044256453 0.000431568022788592 -0.0010401312280836374 0.0 0.0
0.0 0.004749921830668741 -0.004251746531255527 0.003664026581306077 0.0005877199499494504 -0.0015835990657946596 0.0 0.0
0.0 0.007054262932865588 -0.006264946348390679 0.00554217001353425 0.0007227763348564228 -0.0021450037119029523 0.0 0.0
0.0 0.009954934461283753 -0.008762935357935637 0.007918604270468943 0.0008443310874666946 -0.0027282584879187947 0.0 0.0
0.0 0.013742306372128966 -0.0119495452086928 0.010994911724913594 0.0009546334837792065 -0.0033970157020993498 0.0 0.0
0.0 0.018318807788525616 -0.016086092067639137 0.015034634569204902 0.0010514574984342327 -0.004253867212040448 0.0 0.0
0.0 0.02454293814620545 -0.021366863771009575 0.020235714956136523 0.0011311488148730664 -0.00536712078376714 0.0 0.0
0.0 0.03214797210408545 -0.027853338777973635 0.02666380224032176 0.0011895365376518733 -0.006752751239288258 0.0 0.0
0.0 0.0405321860431202 -0.03520527213782623 0.03400218758267175 0.00120308455515448 -0.008614286455079808 0.0 0.0
0.0 0.04873470759596351 -0.042194524341351985 0.04106537749341114 0.0011291468479408646 -0.011565631531817111 0.0 0.0
0.0 0.05376210925299371 -0.04623499332544801 0.04527872813546499 0.0009562651899829939 -0.016005419676215295 0.0 0.0
0.0 0.05105129324625261 -0.04330950395010561 0.04259873516035911 0.0007107687897465062 -0.021083793343304524 0.0 0.0
0.0 0.044000279605957655 -0.03598759848322281 0.03195081950851259 0.004036778974710221 8.477593627098656e-15 0.0 0.0
0.0 0.051051293246251926 -0.0433095039501025 0.042598735160356206 0.0007107687897462784 0.021083793343323894 0.0 0.0
0.0 0.053762109252985885 -0.04623499332543971 0.04527872813545668 0.0009562651899830291 0.01600541967623336 0.0 0.0
0.0 0.04873470759595231 -0.04219452434134169 0.04106537749340103 0.0011291468479406445 0.011565631531828473 0.0 0.0
0.0 0.04053218604310404 -0.03520527213781209 0.034002187582657946 0.0012030845551541398 0.008614286455081572 0.0 0.0
0.0 0.032147972104070756 -0.0278533387779604 0.02666380224030927 0.0011895365376511167 0.006752751239288014 0.0 0.0
0.0 0.024542938146189807 -0.02136686377099581 0.020235714956123405 0.0011311488148724029 0.005367120783764917 0.0 0.0
0.0 0.018318807788508973 -0.016086092067624427 0.015034634569190857 0.0010514574984335561 0.0042538672120374255 0.0 0.0
0.0 0.013742306372111948 -0.011949545208677418 0.010994911724898701 0.0009546334837787046 0.003397015702095226 0.0 0.0
0.0 0.0099549344612666 -0.008762935357920132 0.00791860427045427 0.0008443310874658625 0.0027282584879138754 0.0 0.0
0.0 0.007054262932849399 -0.006264946348376167 0.005542170013520397 0.0007227763348557689 0.0021450037118967884 0.0 0.0
0.0 0.004749921830656438 -0.004251746531244164 0.0036640265812956326 0.0005877199499485303 0.0015835990657896949 0.0 0.0
0.0 0.0029010187644034615 -0.0026041867272041134 0.002172618704416655 0.00043156802278745705 0.0010401312280795918 0.0 0.0
0.0 0.0014281528861209804 -0.0012844074343925519 0.0010263087645802534 0.0002580986698122992 0.0005058203952353604 0.0 0.0
0.0 0.0006184912123194584 -0.0003395456419108989 0.0002584077640390522 8.113787787184609e-05 0.00010105308719989212 0.0 0.0
0.0 1.5901182375566667e-05 -2.9658362408659092e-05 2.1530040546383585e-05 8.128321862275189e-06 8.3505896066167e-06 0.0 0.0
0.0 1.3888823671395827e-05 4.003068929857559e-06 -3.1522119819624274e-06 -8.508569478950087e-07 -4.820052027836226e-06 0.0 0.0
0.0 -1.642791256056295e-06 -1.457676555988268e-07 1.1635194097405649e-07 2.9415714624769247e-08 2.4534168376624963e-07 0.0 0.0
0.0 0.0 0.0 0.0 0.0 0.0 0.0 0.0
0.0 0.0 0.0 0.0 0.0 0.0 0.0 0.0
0.0 0.0 0.0 0.0 0.0 0.0 0.0 0.0
0.0 0.0 0.0 0.0 0.0 0.0 0.0 0.0
0.0 0.0 0.0 0.0 0.0 0.0 0.0 0.0
0.0 0.0 0.0 0.0 0.0 0.0 0.0 0.0
0.0 -5.301947323951955e-07 -5.211120635768816e-08 4.136700228583785e-08 1.074420407185488e-08 -5.5764332291065365e-08 0.0 0.0
0.0 2.04856530984702e-05 7.359682338359093e-06 -5.6401458465597525e-06 -1.7195364917991253e-06 4.110396714512403e-06 0.0 0.0
0.0 0.00016644100950008513 -7.636873303411049e-05 5.484507337642936e-05 2.1523659657681293e-05 7.4920371137715545e-06 0.0 0.0
0.0 0.0009018846519930503 -0.0007133535496731316 0.0005530286826730898 0.00016032486700004147 -0.0001550713328083355 0.0 0.0
0.0 0.0020684118468176638 -0.0018963768602894245 0.0015486997713315344 0.00034767708895789044 -0.0005360358021316589 0.0 0.0
0.0 0.0037976669153976777 -0.0034526456537753046 0.0029299833544838977 0.0005226622992914056 -0.0009423095761442503 0.0 0.0
0.0 0.006005260538529632 -0.005383548130253124 0.004710072750465988 0.000673475379787141 -0.001382281381601781 0.0 0.0
0.0 0.00868481830297211 -0.007756560914498601 0.006950612183829539 0.0008059487306690599 -0.0018400612117644947 0.0 0.0
0.0 0.012148050239233647 -0.010718167284396455 0.00979071249042543 0.000927454793971022 -0.00231739744691482 0.0 0.0
0.0 0.016372970121017464 -0.014513970116928628 0.013473283025601916 0.0010406870913267122 -0.002875876498773165 0.0 0.0
0.0 0.022238810837079046 -0.01940064299737248 0.018261714961254744 0.001138928036117739 -0.003619876515831322 0.0 0.0
0.0 0.029276898655056997 -0.02558740388682504 0.024366108153664065 0.0012212957331609578 -0.0046218612821357224 0.0 0.0
0.0 0.037743984782371905 -0.033077191182096115 0.03179270810941425 0.0012844830726819012 -0.005823287925111843 0.0 0.0
0.0 0.04755014416959848 -0.041494059362630016 0.040186017211484744 0.0013080421511452306 -0.007144275343232011 0.0 0.0
0.0 0.05698874954500969 -0.04960298465084849 0.04837096142586517 0.0012320232249833124 -0.009152845032559292 0.0 0.0
0.0 0.06298874435825205 -0.05456894283080122 0.053558501918778506 0.0010104409120227256 -0.01358414039180464 0.0 0.0
0.0 0.060384624277531836 -0.05163577862778393 0.05097353767657341 0.0006622409512105415 -0.0214361114940005 0.0 0.0
0.0 0.05255014628583865 -0.04336741069692242 0.03886214248060066 0.004505268216321769 7.963248116471533e-15 0.0 0.0
0.0 0.06038462427752954 -0.05163577862777997 0.05097353767656954 0.0006622409512104214 0.02143611149401816 0.0 0.0
0.0 0.0629887443582424 -0.05456894283079193 0.053558501918769146 0.001010440912022754 0.013584140391821608 0.0 0.0
0.0 0.056988749544995804 -0.04960298465083605 0.04837096142585316 0.0012320232249828696 0.009152845032569655 0.0 0.0
0.0 0.04755014416958027 -0.041494059362614064 0.04018601721146894 0.001308042151145072 0.00714427534323499 0.0 0.0
0.0 0.03774398478235512 -0.03307719118208131 0.031792708109399964 0.001284483072681344 0.005823287925112832 0.0 0.0
0.0 0.029276898655038252 -0.02558740388680863 0.024366108153648307 0.001221295733160329 0.0046218612821338325 0.0 0.0
0.0 0.022238810837059714 -0.019400642997355336 0.018261714961238164 0.0011389280361171696 0.0036198765158292918 0.0 0.0
0.0 0.016372970120997025 -0.014513970116910743 0.01347328302558468 0.001040687091326072 0.0028758764987697333 0.0 0.0
0.0 0.012148050239215225 -0.010718167284379432 0.009790712490409302 0.0009274547939701315 0.002317397446910961 0.0 0.0
0.0 0.008684818302953454 -0.007756560914481776 0.006950612183813393 0.0008059487306683779 0.0018400612117590656 0.0 0.0
0.0 0.006005260538513789 -0.005383548130238843 0.004710072750452532 0.0006734753797863153 0.0013822813815972759 0.0 0.0
0.0 0.0037976669153858542 -0.0034526456537640427 0.0029299833544737287 0.000522662299290313 0.0009423095761409893 0.0 0.0
0.0 0.0020684118468092547 -0.00189637686028102 0.0015486997713242468 0.0003476770889567736 0.0005360358021289086 0.0 0.0
0.0 0.0009018846519868686 -0.0007133535496680822 0.0005530286826690345 0.0001603248669990477 0.00015507133280670625 0.0 0.0
0.0 0.00016644100949758086 -7.636873303284479e-05 5.484507337549665e-05 2.152365965734841e-05 -7.492037113869541e-06 0.0 0.0
0.0 2.0485653097543973e-05 7.359682338185191e-06 -5.640145846422663e-06 -1.7195364917626741e-06 -4.110396714367256e-06 0.0 0.0
0.0 -5.301947322418017e-07 -5.211120634290696e-08 4.136700227412343e-08 1.0744204068790724e-08 5.5764332271987006e-08 0.0 0.0
0.0 0.0 0.0 0.0 0.0 0.0 0.0 0.0
0.0 0.0 0.0 0.0 0.0 0.0 0.0 0.0
0.0 0.0 0.0 0.0 0.0 0.0 0.0 0.0
0.0 0.0 0.0 0.0 0.0 0.0 0.0 0.0
0.0 0.0 0.0 0.0 0.0 0.0 0.0 0.0
0.0 0.0 0.0 0.0 0.0 0.0 0.0 0.0
0.0 -9.358286179290562e-07 -9.36213002212803e-08 7.091029120208625e-08 2.2711009019184512e-08 -5.957663808258335e-08 0.0 0.0
0.0 -3.076943631532033e-06 3.495220645479547e-06 -3.1701944602022837e-06 -3.250261852772818e-07 3.1746254277640357e-06 0.0 0.0
0.0 0.0004169463661552453 -0.0002283477327235374 0.0001689775452569589 5.9370187466578606e-05 1.8890723095754478e-05 0.0 0.0
0.0 0.0011941234673506229 -0.0011715406194356744 0.0009278407125647741 0.00024369990687090012 -0.00017300922939829003 0.0 0.0
0.0 0.0027615830846965147 -0.0025332780022222752 0.002103647739095173 0.0004296302631271035 -0.00041413943087421223 0.0 0.0
0.0 0.004723850907367504 -0.004320288166198878 0.0037201205832157478 0.0006001675829831296 -0.000697427511589738 0.0 0.0
0.0 0.007272171511651659 -0.006535776203466209 0.00579011000479146 0.0007456661986747481 -0.0010073263418201525 0.0 0.0
0.0 0.010431012553511518 -0.00927224698140231 0.00839508195278566 0.0008771650286166481 -0.0013280153773449926 0.0 0.0
0.0 0.014303584412818642 -0.012713467878943244 0.011712491417834115 0.0010009764611091287 -0.001658330888176351 0.0 0.0
0.0 0.019543636841056197 -0.017118872072161586 0.016002014681571437 0.0011168573905901299 -0.0020553690520733127 0.0 0.0
0.0 0.02579102460645066 -0.022785970810123558 0.021565549626145118 0.001220421183978433 -0.0026323830352187366 0.0 0.0
0.0 0.03395408905437357 -0.02986228752264769 0.028556985031551692 0.0013053024910960034 -0.003421301048076418 0.0 0.0
0.0 0.043657141954079284 -0.0382679988647872 0.036903768985352976 0.0013642298794341835 -0.004338099592775825 0.0 0.0
0.0 0.05438527558076749 -0.04754984045259756 0.04615768283777275 0.001392157614824844 -0.005154776573994718 0.0 0.0
0.0 0.06482644097265983 -0.05659341847317821 0.05523226685462022 0.0013611516185580148 -0.006002235592190206 0.0 0.0
0.0 0.07206704525018734 -0.06272020452816698 0.061611580745401656 0.0011086237827652983 -0.009191554750824527 0.0 0.0
0.0 0.07018073715189521 -0.06039915631989495 0.05982519361232798 0.0005739627075668694 -0.02012354597029062 0.0 0.0
0.0 0.06200194853377707 -0.051504221477125064 0.046589714409059825 0.004914507068065202 6.138319019743932e-15 0.0 0.0
0.0 0.07018073715189116 -0.06039915631989004 0.05982519361232346 0.0005739627075665851 0.020123545970304198 0.0 0.0
0.0 0.07206704525017682 -0.06272020452815716 0.061611580745392185 0.0011086237827650557 0.009191554750838188 0.0 0.0
0.0 0.06482644097264358 -0.05659341847316388 0.05523226685460656 0.001361151618557282 0.006002235592197918 0.0 0.0
0.0 0.05438527558074728 -0.0475498404525799 0.046157682837755315 0.0013921576148246454 0.005154776573997854 0.0 0.0
0.0 0.0436571419540592 -0.03826799886476946 0.03690376898533603 0.0013642298794334256 0.004338099592776548 0.0 0.0
0.0 0.03395408905435236 -0.029862287522629045 0.028556985031533783 0.001305302491095277 0.0034213010480755304 0.0 0.0
0.0 0.025791024606428563 -0.022785970810104014 0.02156554962612657 0.0012204211839774303 0.002632383035217062 0.0 0.0
0.0 0.019543636841031563 -0.0171188720721399 0.016002014681550093 0.0011168573905897979 0.00205536905207137 0.0 0.0
0.0 0.01430358441279629 -0.01271346787892356 0.011712491417815293 0.001000976461108258 0.0016583308881738521 0.0 0.0
0.0 0.01043101255349176 -0.009272246981384076 0.008395081952768155 0.0008771650286159234 0.001328015377341086 0.0 0.0
0.0 0.007272171511635324 -0.006535776203450836 0.0057901100047770635 0.0007456661986737694 0.0010073263418170877 0.0 0.0
0.0 0.004723850907354053 -0.0043202881661859776 0.0037201205832038727 0.0006001675829821066 0.0006974275115873172 0.0 0.0
0.0 0.0027615830846866272 -0.00253327800221253 0.002103647739086628 0.0004296302631259019 0.0004141394308721067 0.0 0.0
0.0 0.0011941234673444887 -0.0011715406194295539 0.0009278407125597149 0.00024369990686983872 0.0001730092293969547 0.0 0.0
0.0 0.0004169463661520335 -0.0002283477327212439 0.00016897754525522254 5.9370187466020764e-05 -1.8890723095948933e-05 0.0 0.0
0.0 -3.076943632519495e-06 3.495220645233919e-06 -3.170194460008504e-06 -3.250261852255154e-07 -3.1746254275785405e-06 0.0 0.0
0.0 -9.358286176765532e-07 -9.36213001927943e-08 7.09102911802755e-08 2.2711009012500863e-08 5.957663806372381e-08 0.0 0.0
0.0 0.0 0.0 0.0 0.0 0.0 0.0 0.0
0.0 0.0 0.0 0.0 0.0 0.0 0.0 0.0
0.0 0.0 0.0 0.0 0.0 0.0 0.0 0.0
0.0 0.0 0.0 0.0 0.0 0.0 0.0 0.0
0.0 0.0 0.0 0.0 0.0 0.0 0.0 0.0
0.0 0.0 0.0 0.0 0.0 0.0 0.0 0.0
0.0 -4.6039742046719905e-07 -5.853725170073649e-08 4.9520409295273314e-08 9.016842405465027e-09 -6.021782012969738e-08 0.0 0.0
0.0 7.917336163091026e-05 -7.689547812841138e-06 4.086445950515567e-06 3.6031018623253933e-06 1.086087046724168e-05 0.0 0.0
0.0 0.000624211218280784 -0.0004836651353448617 0.0003655274639352511 0.00011813767140961081 4.4977875302592193e-05 0.0 0.0
0.0 0.00173032850037264 -0.0016251747316855265 0.0013121963744906781 0.00031297835719484786 -6.016172909333366e-05 0.0 0.0
0.0 0.0034520099658405506 -0.003185439223187685 0.0026831947443333106 0.0005022444788543737 -0.0001766516758924184 0.0 0.0
0.0 0.005730227770221072 -0.005195034727635126 0.004529881468338521 0.0006651532592966035 -0.00031181474050912526 0.0 0.0
0.0 0.008559883410084198 -0.0077006993539737965 0.006892979942528972 0.0008077194114448197 -0.0004643125800912719 0.0 0.0
0.0 0.012129306805434585 -0.010810440410299722 0.009870534131907662 0.000939906278392058 -0.0006115462464870504 0.0 0.0
0.0 0.016780448256020868 -0.014736182277143529 0.013669659723967949 0.0010665225531755768 -0.0007508433634013465 0.0 0.0
0.0 0.02227809422651838 -0.019782482851570915 0.018595514667103113 0.0011869681844678063 -0.0009639925118931622 0.0 0.0
0.0 0.029664263066388787 -0.02620881609949274 0.024912676207777023 0.0012961398917157127 -0.0012845280761022244 0.0 0.0
0.0 0.03879837039781174 -0.03415171196967827 0.032768475417460155 0.0013832365522181245 -0.001720845127190557 0.0 0.0
0.0 0.04950844865398627 -0.043434277904741324 0.04199679411437982 0.0014374837903615356 -0.002253145984284936 0.0 0.0
0.0 0.061074476889169685 -0.05342056691045127 0.05196765681069385 0.0014529100997574297 -0.002695487236311171 0.0 0.0
0.0 0.07218002195762557 -0.06299984246498264 0.06154966774703136 0.0014501747179513345 -0.0028582650871595986 0.0 0.0
0.0 0.08059044060226196 -0.07027392679887272 0.06890489625895284 0.0013690305399198322 -0.003851932320308304 0.0 0.0
0.0 0.08063259841374759 -0.06978092523473094 0.06927146240562904 0.0005094628291018506 -0.013700616050479555 0.0 0.0
0.0 0.0732526333186347 -0.0612079388934501 0.056166845420354036 0.005041093473096045 4.117366170230952e-15 0.0 0.0
0.0 0.0806325984137411 -0.06978092523472451 0.0692714624056232 0.0005094628291013457 0.013700616050487637 0.0 0.0
0.0 0.08059044060224804 -0.0702739267988604 0.0689048962589409 0.0013690305399193716 0.003851932320316197 0.0 0.0
0.0 0.07218002195760703 -0.06299984246496637 0.061549667747015646 0.001450174717950729 0.002858265087163886 0.0 0.0
0.0 0.061074476889148695 -0.053420566910432635 0.05196765681067609 0.0014529100997565491 0.0026954872363128546 0.0 0.0
0.0 0.04950844865396287 -0.04343427790472071 0.041996794114360025 0.0014374837903606667 0.002253145984284515 0.0 0.0
0.0 0.03879837039778792 -0.03415171196965737 0.0327684754174399 0.0013832365522174674 0.0017208451271904209 0.0 0.0
0.0 0.029664263066365198 -0.026208816099471708 0.02491267620775745 0.0012961398917142417 0.0012845280761013941 0.0 0.0
0.0 0.022278094226491203 -0.019782482851547184 0.01859551466707976 0.0011869681844674288 0.0009639925118924363 0.0 0.0
0.0 0.016780448255995038 -0.014736182277120572 0.013669659723945732 0.00106652255317484 0.0007508433633998275 0.0 0.0
0.0 0.012129306805412243 -0.01081044041028003 0.009870534131888693 0.000939906278391333 0.0006115462464849272 0.0 0.0
0.0 0.00855988341006636 -0.007700699353957328 0.006892979942513563 0.0008077194114437642 0.00046431258008952734 0.0 0.0
0.0 0.005730227770206106 -0.005195034727620829 0.004529881468325197 0.0006651532592956299 0.000311814740507806 0.0 0.0
0.0 0.003452009965829294 -0.003185439223176661 0.002683194744323395 0.0005022444788532656 0.0001766516758913339 0.0 0.0
0.0 0.0017303285003649272 -0.0016251747316777438 0.001312196374484023 0.00031297835719371997 6.016172909254162e-05 0.0 0.0
0.0 0.000624211218276514 -0.0004836651353413535 0.0003655274639325157 0.00011813767140883769 -4.497787530262842e-05 0.0 0.0
0.0 7.917336162954022e-05 -7.689547812515818e-06 4.086445950300429e-06 3.603101862215471e-06 -1.0860870467097988e-05 0.0 0.0
0.0 -4.603974210373721e-07 -5.8537251764729536e-08 4.9520409342134194e-08 9.01684242265159e-09 6.021782013958798e-08 0.0 0.0
0.0 0.0 0.0 0.0 0.0 0.0 0.0 0.0
0.0 0.0 0.0 0.0 0.0 0.0 0.0 0.0
0.0 0.0 0.0 0.0 0.0 0.0 0.0 0.0
0.0 0.0 0.0 0.0 0.0 0.0 0.0 0.0
0.0 0.0 0.0 0.0 0.0 0.0 0.0 0.0
0.0 0.0 0.0 0.0 0.0 0.0 0.0 0.0
0.0 1.6004297709530511e-06 6.953396174423087e-08 2.3531156086074017e-09 -7.18870773527135e-08 -3.3915251981440465e-07 0.0 0.0
0.0 0.0002162994769486517 -6.394266590379926e-05 4.381331394416154e-05 2.0129351959638527e-05 2.654695247769049e-05 0.0 0.0
0.0 0.000905115804875845 -0.0007213169933262773 0.0005409048748495867 0.00018041211847668955 0.00010105455675012258 0.0 0.0
0.0 0.002150509108359135 -0.002019430778841781 0.0016144224375235828 0.00040500834131819793 9.121667517836632e-05 0.0 0.0
0.0 0.004025940392320994 -0.0037258469273476792 0.003104168641431599 0.0006216782859160768 9.474394273500329e-05 0.0 0.0
0.0 0.006457146660265526 -0.005923956323635014 0.00510491856283892 0.0008190377607960942 0.00011374661929200198 0.0 0.0
0.0 0.009594931080959032 -0.008671858398713463 0.007662896925306139 0.0010089614734073232 0.00013131565463088033 0.0 0.0
0.0 0.013578905948669057 -0.012099385310518197 0.010892233985293253 0.0012071513252249323 0.00019651100830377424 0.0 0.0
0.0 0.018362876480344122 -0.016455880039521264 0.015033961245232154 0.0014219187942891064 0.0003085910102925912 0.0 0.0
0.0 0.024636459430940123 -0.0220275792603888 0.020379456799667513 0.0016481224607212538 0.0003723319764979316 0.0 0.0
0.0 0.032639059205782806 -0.02907812988172952 0.027195117768288254 0.001883012113441298 0.0004298470124860119 0.0 0.0
0.0 0.042509782882630034 -0.03772439261766078 0.03561689691451344 0.0021074957031472622 0.0003888480047750018 0.0 0.0
0.0 0.05400017046516849 -0.0477096998521888 0.04541537479847797 0.0022943250537108247 0.00020837246523835225 0.0 0.0
0.0 0.06616688199403786 -0.05824270143758798 0.05583287943137676 0.0024098220062112163 -6.650517827377824e-05 0.0 0.0
0.0 0.07747589150794698 -0.06799692467103209 0.06558114020246475 0.0024157844685672534 -0.00030988250802328407 0.0 0.0
0.0 0.08610964192838098 -0.07551339971850932 0.07313140490356451 0.0023819948149447294 -0.0004954393111464605 0.0 0.0
0.0 0.08852392980040354 -0.07796128727031808 0.07584624410515536 0.0021150431651627893 -0.00910513693860383 0.0 0.0
0.0 0.08475057815958076 -0.07173468755651134 0.06423228796865232 0.00750239958785893 2.2690183065776637e-15 0.0 0.0
0.0 0.08852392980039585 -0.07796128727031103 0.07584624410514891 0.002115043165162115 0.009105136938607384 0.0 0.0
0.0 0.08610964192836379 -0.07551339971849415 0.07313140490355019 0.00238199481494398 0.0004954393111497694 0.0 0.0
0.0 0.07747589150792605 -0.06799692467101368 0.06558114020244718 0.0024157844685665677 0.00030988250802566324 0.0 0.0
0.0 0.06616688199401566 -0.05824270143756792 0.055832879431358194 0.0024098220062096455 6.650517827486071e-05 0.0 0.0
0.0 0.05400017046514363 -0.04770969985216678 0.04541537479845718 0.0022943250537096724 -0.00020837246523926992 0.0 0.0
0.0 0.042509782882604485 -0.037724392617638144 0.03561689691449182 0.0021074957031463008 -0.00038884800477509245 0.0 0.0
0.0 0.03263905920575781 -0.029078129881707077 0.027195117768267673 0.0018830121134394068 -0.00042984701248592475 0.0 0.0
0.0 0.024636459430911663 -0.022027579260363618 0.020379456799643397 0.0016481224607202269 -0.00037233197649824516 0.0 0.0
0.0 0.01836287648031536 -0.01645588003949599 0.015033961245207825 0.0014219187942881486 -0.0003085910102935932 0.0 0.0
0.0 0.013578905948645803 -0.01209938531049748 0.010892233985273534 0.0012071513252239442 -0.00019651100830449697 0.0 0.0
0.0 0.00959493108093815 -0.008671858398695085 0.007662896925288945 0.001008961473406146 -0.00013131565463140931 0.0 0.0
0.0 0.006457146660248856 -0.00592395632361973 0.0051049185628248535 0.0008190377607948758 -0.00011374661929226045 0.0 0.0
0.0 0.004025940392308005 -0.0037258469273352495 0.00310416864142032 0.0006216782859149283 -9.474394273528491e-05 0.0 0.0
0.0 0.0021505091083499715 -0.0020194307788325956 0.0016144224375157124 0.00040500834131688225 -9.121667517843977e-05 0.0 0.0
0.0 0.0009051158048711935 -0.0007213169933215866 0.0005409048748459418 0.00018041211847564492 -0.00010105455674988347 0.0 0.0
0.0 0.000216299476947078 -6.394266590322288e-05 4.381331394378318e-05 2.0129351959440657e-05 -2.654695247740486e-05 0.0 0.0
0.0 1.6004297707632548e-06 6.953396171649139e-08 2.353115627768134e-09 -7.188707734427424e-08 3.3915251981027997e-07 0.0 0.0
0.0 0.0 0.0 0.0 0.0 0.0 0.0 0.0
0.0 0.0 0.0 0.0 0.0 0.0 0.0 0.0
0.0 0.0 0.0 0.0 0.0 0.0 0.0 0.0
SCALARS Wm float 4
LOOKUP_TABLE default
8.037870651214707 1.8707651163056926 2.888194452078328 3.2789110828306822
3.200233209303044 1.6811722870256762 0.6276079729892163 0.8914529492881522
0.41982131674090717 0.43145924425796645 -0.004092588125719553 -0.007545339391339689
0.3977973575467342 0.4014732032769618 -0.0005488396810150755 -0.003127006049212636
0.6321191148164835 0.5905507379319461 0.016086420797696593 0.025481956086840483
1.1112705209001275 0.7352366042679048 0.11215389871808376 0.26388001791413884
1.9699699843436547 0.9595703396352874 0.37086555818995504 0.6395340865184125
3.1976948627923028 1.1962131127655762 0.8044880620043539 1.196993688022371
4.859612960818437 1.4695475676793484 1.4600662061369387 1.9299991870021516
7.058219971630318 1.8065474314607333 2.396253780730131 2.855418759439459
9.950797085521307 2.2448290496964627 3.6916792519165997 4.0142887839082455
13.71435822883814 2.817706896087833 5.404458309243664 5.492193023506646
18.741691232184507 3.5361074276798132 7.814288411538829 7.391295392965871
25.32427169910483 4.411343115121296 11.108778709685911 9.80414987429762
33.62904352933202 5.385884961249213 15.471719698571096 12.771438869511721
43.52442839673599 6.336002127164204 20.94966916074305 16.238757108828743
54.38314485317555 7.084859761459906 27.259703277871353 20.03858181384428
65.12888544823764 7.476710594125412 33.83577338191774 23.816401472194478
74.46636244191771 7.502759194364337 39.828763590713265 27.134839656840107
80.92615206340045 7.232792097210993 44.15073172961547 29.542628236573986
83.14207370859332 6.854401371362054 45.794241953665505 30.493430383565723
80.92615206339413 7.232792097208304 44.15073172961287 29.542628236572952
74.46636244190364 7.502759194361536 39.82876359070593 27.13483965683615
65.12888544821824 7.476710594123945 33.83577338190636 23.816401472187923
54.38314485315507 7.084859761459163 27.25970327785896 20.03858181383695
43.52442839671437 6.33600212716117 20.94966916073158 16.23875710882162
33.62904352931413 5.385884961251177 15.471719698559191 12.771438869503765
25.324271699083923 4.411343115119711 11.108778709674576 9.804149874289637
18.741691232164445 3.5361074276787354 7.814288411528029 7.391295392957682
13.714358228819263 2.8177068960863276 5.4044583092341245 5.4921930234988094
9.950797085504572 2.244829049694628 3.6916792519086954 4.01428878390125
7.05821997161677 1.8065474314583294 2.396253780724421 2.8554187594340203
4.859612960808176 1.4695475676785321 1.4600662061324017 1.929999186997244
3.197694862784221 1.1962131127629905 0.8044880620019352 1.1969936880192957
1.9699699843384457 0.959570339634484 0.370865558188203 0.6395340865157586
1.111270520897254 0.7352366042669901 0.11215389871767614 0.2638800179125874
0.6321191148153291 0.590550737931254 0.016086420797533217 0.025481956086542225
0.39779735754642276 0.40147320327665603 -0.0005488396810152521 -0.00312700604921806
0.41982131674048784 0.4314592442574924 -0.00409258812569629 -0.0075453393913081515
3.2002332093004946 1.6811722870262265 0.6276079729878531 0.8914529492864154
8.037870651196458 1.8707651162961618 2.8881944520737877 3.27891108282651
9.063716732706858 4.278647224379181 2.1597795574200056 2.6252899509076744
1.0248268900273316 0.2688515249349269 0.2774326306563577 0.47854273443604667
0.206254978619105 0.20684636402598658 8.488486882805133e-05 -0.0006762702757096481
0.3231823843573911 0.3231274366956335 4.4821721352289814e-05 1.0125940405443732e-05
0.49427043511309576 0.4811041611355877 0.003597863462344393 0.009568410515163902
0.9045759955004671 0.6669369218868577 0.0750689971640548 0.16257007644955482
1.62935066101518 0.8289102029473308 0.28183912747910683 0.5186013305887421
2.7127696001679946 1.0187917553985941 0.6657644140115848 1.0282134307578152
4.174180448111882 1.217994815862036 1.254091344058191 1.7020942881916534
6.069823137713642 1.4419402084419315 2.0771915681146886 2.5506913611570194
8.531691468446466 1.707579192664381 3.213241802185208 3.610870473596876
11.800352702879401 2.034570996441989 4.811587257860357 4.954194448577055
16.015631588790825 2.4304912878298186 6.894359455063624 6.690780845897385
21.66821694106995 2.895282047677857 9.863683562901937 8.909251330490152
28.86243487728378 3.3986186013624997 13.799092505594961 11.664723770326326
37.509518856561144 3.8572164107438995 18.746294235630927 14.906008210186311
47.11069735225388 4.1593815827356435 24.513085050043436 18.438230719474817
56.75513533444924 4.226038707238735 30.56148760320548 21.967609024005018
65.230884272356 4.050144462832598 36.0929300477407 25.0878097617827
71.18712822344224 3.688715067303698 40.17774161361325 27.320671542525318
73.35364495026406 3.349450806886976 41.81008865812229 28.194105485254806
71.18712822343834 3.6887150673038174 40.17774161361064 27.320671542523872
65.23088427234764 4.050144462835677 36.09293004773343 25.087809761778562
56.75513533443296 4.22603870723741 30.561487603195932 21.967609023999636
47.110697352236414 4.159381582735422 24.513085050032704 18.438230719468287
37.50951885654177 3.857216410740516 18.74629423562115 14.906008210180111
28.862434877265454 3.3986186013612354 13.79909250558477 11.66472377031944
21.6682169410509 2.8952820476749763 9.86368356289255 8.909251330483372
16.015631588772838 2.4304912878285436 6.894359455054221 6.690780845890073
11.800352702862765 2.034570996441088 4.811587257851825 4.954194448569847
8.531691468431928 1.7075791926632118 3.2132418021782048 3.6108704735905133
6.0698231377019765 1.4419402084403568 2.0771915681096815 2.550691361151939
4.174180448102742 1.2179948158611038 1.2540913440543755 1.7020942881872632
2.712769600161209 1.0187917553969108 0.6657644140094003 1.028213430754897
1.6293506610106847 0.8289102029466733 0.28183912747765616 0.518601330586355
0.9045759954980372 0.6669369218859686 0.07506899716348739 0.1625700764485809
0.494270435112228 0.48110416113501187 0.0035978634622562014 0.009568410514960015
0.3231823843571554 0.3231274366952748 4.4821721371839125e-05 1.0125940508836652e-05
0.2062549786190852 0.2068463640259502 8.48848688312072e-05 -0.0006762702756962011
1.0248268900245963 0.26885152493499526 0.27743263065511964 0.4785427344344808
9.063716732689324 4.278647224370552 2.1597795574155225 2.6252899509032463
6.621757309159575 3.341478507251044 1.403543278202463 1.8767355237060666
0.5789772738065379 0.08991948919004628 0.1675939862392537 0.32146379837723815
0.12781174165893325 0.12781217811659162 -1.80369121587346e-08 -4.1842074621861334e-07
0.24471871915539653 0.2447621256078126 5.039972237387857e-06 -4.844642465346767e-05
0.39270062636541403 0.39505406905969137 -0.0007862751808408956 -0.0015671675134363698
0.7102740751763853 0.5982321365301719 0.034929132105128276 0.0771128065410852
1.3129788411945824 0.7561556109522704 0.1827556086329337 0.3740676216093782
2.260769862003142 0.9440790746759053 0.4985401827373707 0.8181506045898653
3.5350575895838516 1.132534818785113 0.9872677354678017 1.4152550353309366
5.196801711221885 1.3389638620788273 1.6929957773319997 2.1648420718110586
7.330553324472374 1.5771137924016203 2.657162882167204 3.096276649903548
10.091140670693347 1.861215069824451 3.9547507599694525 4.275174840899443
13.834894529732477 2.2125337494207717 5.8325170903028445 5.789843690008862
18.66470737859958 2.623743439317894 8.287471180693778 7.7534927585879085
24.96286548257749 3.0662219598505596 11.689336158107348 10.207307364619579
32.58415864224916 3.4796074100160723 15.986054619329503 13.118496612903588
41.113380474808565 3.777795412263022 21.000442563200377 16.335142499345164
49.74984423289603 3.8797075368922656 26.319049386488985 19.551087309514802
57.393353616037324 3.743767746912554 31.24996583099284 22.39962003813193
62.80642222464218 3.4530916587743965 34.9144186911234 24.43891187474439
64.74804893533889 3.070710324344496 36.405141362080485 25.27219724891391
62.80642222463986 3.453091658776652 34.914418691120495 24.43891187474272
57.39335361602711 3.7437677469123147 31.249965830986444 22.399620038128326
49.749844232883106 3.8797075368917007 26.319049386481314 19.551087309510102
41.11338047479393 3.7777954122631106 21.00044256319125 16.33514249933955
32.5841586422356 3.4796074100166754 15.986054619320964 13.118496612897953
24.96286548256118 3.066221959847522 11.689336158099506 10.207307364614145
18.664707378584065 2.6237434393157955 8.2874711806861 7.753492758582164
13.834894529716994 2.2125337494188058 5.832517090295378 5.7898436900028125
10.091140670678524 1.861215069823214 3.9547507599621854 4.275174840893125
7.330553324459472 1.577113792399895 2.65716288216155 3.096276649898028
5.196801711211702 1.3389638620774398 1.6929957773277662 2.164842071806497
3.5350575895757754 1.1325348187838784 0.9872677354647014 1.415255035327196
2.2607698619973116 0.9440790746746752 0.49854018273543416 0.8181506045872032
1.3129788411906742 0.756155610951229 0.1827556086319947 0.37406762160745055
0.7102740751744603 0.598232136529288 0.03492913210478067 0.07711280654039146
0.3927006263648169 0.39505406905907337 -0.0007862751808359941 -0.0015671675134205302
0.24471871915520932 0.24476212560761462 5.039972238262872e-06 -4.844642464358052e-05
0.12781174165886022 0.12781217811651827 -1.8036912141597065e-08 -4.184207459031903e-07
0.5789772738045948 0.08991948919053741 0.16759398623828814 0.3214637983757691
6.621757309143538 3.3414785072434587 1.40354327819841 1.8767355237016696
4.885569601401506 2.5945457423658524 0.9321601898621461 1.3588636691735096
0.3579894023060879 0.06533391615658923 0.08896713602162237 0.20368835012787584
0.09004198582552286 0.09004198582552286 0.0 0.0
0.18200908823338632 0.1819709461634854 2.762707400739038e-06 3.5379362500165364e-05
0.31500504602056534 0.3182747547750281 -0.0006058138653228204 -0.002663894889139875
0.5413293669401706 0.5076379629573838 0.008261022594529781 0.025430381388256797
1.0325297689482138 0.6984827991283842 0.10643550043426403 0.22761146938556542
1.8251846149560136 0.8637023818833998 0.3469824889346581 0.6144997441379558
2.927086393913213 1.0428429220240827 0.7489502922782192 1.1352931796109111
4.352041813294928 1.2324601210818766 1.331517097172699 1.788064595040351
6.154607933691532 1.442453330588211 2.1162322010758006 2.595922402027519
8.520135418682987 1.6937471274277764 3.216065286106091 3.6103230051491186
11.606354286896984 1.994801942924443 4.692393706080269 4.919158637892277
15.83609136799868 2.3529373881092335 6.871003375094706 6.612150604794744
21.209279599756275 2.7427537099035484 9.7040686668718 8.762457222980924
27.755019934521833 3.1141795825336183 13.302198110929163 11.338642241059047
35.24998758342001 3.4064355901676837 17.64636049652435 14.197191496727978
42.916502358714006 3.541698349269609 22.26859807744268 17.106205932001714
49.77717470407105 3.464817638135284 26.5864549357165 19.725902130219268
54.70882613622403 3.2278038363465225 29.8383826380407 21.642639661836817
56.486743029322085 2.7761437558788864 31.268141791647974 22.44245748179521
54.70882613621925 3.2278038363453514 29.83838263803839 21.642639661835506
49.777174704061444 3.4648176381320526 26.586454935712524 19.72590213021687
42.91650235870249 3.5416983492686276 22.268598077436128 17.10620593199772
35.24998758340597 3.40643559016591 17.646360496516913 14.197191496723157
27.75501993450852 3.114179582532993 13.302198110921609 11.33864224105392
21.20927959974415 2.7427537099035932 9.70406866686475 8.762457222975804
15.836091367985432 2.3529373881077653 6.871003375088108 6.612150604789558
11.606354286885376 1.9948019429254613 4.692393706073415 4.9191586378864995
8.520135418670266 1.69374712742566 3.21606528610062 3.6103230051439894
6.154607933680518 1.4424533305865281 2.1162322010711976 2.5959224020227945
4.352041813285901 1.232460121080655 1.3315170971689991 1.7880645950362464
2.9270863939062455 1.0428429220229256 0.748950292275653 1.1352931796076668
1.825184614951153 0.8637023818823475 0.3469824889332756 0.6144997441355298
1.0325297689449944 0.6984827991272885 0.106435500433442 0.22761146938426327
0.5413293669387789 0.5076379629564121 0.008261022594393552 0.0254303813879734
0.3150050460201448 0.3182747547745463 -0.0006058138653120145 -0.0026638948890894895
0.1820090882331821 0.1819709461632897 2.762707400018399e-06 3.5379362492379505e-05
0.09004198582544268 0.09004198582544268 0.0 0.0
0.3579894023042729 0.06533391615676425 0.08896713602083309 0.20368835012667555
4.885569601389122 2.5945457423603613 0.9321601898591025 1.3588636691696583
3.539246282870489 1.9913531156642628 0.5880424085914508 0.9598507586147754
0.2713055483559286 0.1099667996006884 0.055433027982203786 0.10590572077303642
0.08119809068743188 0.08119809068743188 0.0 0.0
0.14088591152981866 0.14089145415156396 -4.2444358086294644e-07 -5.118178164441581e-06
0.25334498077013534 0.25278145401032015 0.00010312289340129609 0.00046040386641400723
0.4175171473325014 0.4243548371645849 -0.0023422379969152344 -0.004495451835168169
0.7806305241333089 0.6189279965734035 0.053472560413091716 0.10822996714681392
1.4130226882652528 0.7788954810862584 0.2148867987694426 0.41924040840955207
2.341092544157625 0.946339316422979 0.5315105257193125 0.8632427020153335
3.534384545793788 1.1194758996400327 0.9930470546192629 1.421861591534492
5.045966311966794 1.3073720383385212 1.6303704605476024 2.1082238130806714
6.995517286321218 1.5242295719064867 2.5069694838976226 2.9643182305171094
9.598766634164914 1.7848512969275 3.7491190527391036 4.06479628449831
12.996242969009314 2.088801669242618 5.4032882618645175 5.50415303790218
17.53982751557008 2.4217104927854027 7.780717307599972 7.337399715184705
23.156943908204752 2.7565537161642184 10.841922005593986 9.558468186446543
29.527971039439514 3.0443736042579883 14.415905021599317 12.067692413582218
36.21572610176975 3.2124414562920087 18.35467815715633 14.648606488321402
42.339417092159174 3.1993300751592435 22.12617290597692 17.013914111023
46.87816565171687 3.008988223385148 25.06681659780924 18.802360830522474
48.53708192471633 2.477192330928238 26.437701728979594 19.622187864808513
46.87816565171502 3.0089882233859395 25.06681659780763 18.802360830521465
42.33941709215379 3.1993300751589198 22.126172905973753 17.013914111021105
36.21572610176018 3.2124414562909305 18.35467815715116 14.648606488318109
29.52797103942692 3.0443736042545035 14.41590502159383 12.067692413578573
23.156943908194027 2.7565537161636917 10.841922005588017 9.558468186442317
17.539827515557448 2.421710492783024 7.780717307594143 7.337399715180279
12.996242968999454 2.0888016692435523 5.403288261858598 5.5041530378973045
9.598766634154222 1.7848512969281896 3.7491190527331133 4.064796284492918
6.99551728631139 1.5242295719054293 2.506969483893219 2.964318230512742
5.045966311957525 1.307372038337016 1.6303704605438663 2.108223813076643
3.534384545786352 1.1194758996392922 0.9930470546161818 1.4218615915308783
2.3410925441517993 0.9463393164219609 0.5315105257173457 0.8632427020124921
1.4130226882612231 0.7788954810853814 0.21488679876824718 0.41924040840759436
0.7806305241308331 0.6189279965723469 0.05347256041257847 0.10822996714590793
0.417517147331545 0.4243548371636325 -0.0023422379969126115 -0.004495451835174904
0.25334498076975953 0.25278145400993784 0.00010312289340116504 0.00046040386642036456
0.14088591152960162 0.1408914541513461 -4.244435807835282e-07 -5.118178163679836e-06
0.08119809068726572 0.08119809068726572 0.0 0.0
0.2713055483544523 0.10996679960069278 0.05543302798159564 0.10590572077216408
3.5392462828609186 1.9913531156600157 0.5880424085892264 0.9598507586116765
2.5136449075083753 1.5259301343889748 0.3532285628239512 0.6344862102954493
0.2015802994063688 0.14310180121600388 0.012632899843834151 0.04584559834653075
0.09090844203610608 0.09090844203610608 0.0 0.0
0.11996410651509366 0.11996410651509366 0.0 0.0
0.20669947571243757 0.20660498596777618 8.906198487470713e-06 8.558354617396109e-05
0.3281816956482664 0.3348784671280392 -0.001671252687597634 -0.0050255187921753154
0.5608448372419556 0.5078339799722162 0.01089597851006918 0.04211487875967003
1.0583274993011336 0.7006030644061962 0.12702605831219926 0.23069837658273779
1.7671389692443065 0.8349303049182198 0.3302422155658138 0.6019664487602728
2.7593942355767305 1.0010005969220688 0.6920205836853236 1.0663730549693384
3.9827614633714616 1.1665566749201401 1.1817678826890823 1.6344369057622397
5.542382019125043 1.3526422513198235 1.8517473440107353 2.337992423794484
7.600270402627184 1.572612410691306 2.7898335397316827 3.237824452204195
10.389494393343885 1.8286671442735782 4.1435636979595625 4.417263551110741
14.02573303717479 2.1157619488565733 5.970299034398544 5.939672053919672
18.567871551200767 2.4044846786121488 8.358112501535423 7.805274371053199
24.00158122486753 2.677942748497941 11.3943435392365 9.929294937133083
29.688697764758988 2.884974267526994 14.624557437351891 12.179166059880096
35.02606240483957 2.9396210111740353 17.782404265416957 14.304037128248567
39.228300775328904 2.7966263564176077 20.455891044322026 15.975783374589282
40.80913364672206 2.1779408147177945 21.813623189796605 16.817569642207673
39.22830077532696 2.7966263564183196 20.45589104432039 15.975783374588232
35.02606240483402 2.939621011173193 17.782404265414076 14.304037128246748
29.68869776475295 2.884974267528319 14.624557437347457 12.179166059877177
24.00158122485799 2.677942748495334 11.394343539232416 9.929294937130232
18.567871551191566 2.404484678611926 8.358112501530295 7.805274371049351
14.025733037165542 2.1157619488546326 5.970299034394489 5.9396720539164285
10.389494393334235 1.828667144272381 4.143563697955064 4.417263551106787
7.600270402618691 1.5726124106913975 2.789833539727267 3.237824452200027
5.542382019116889 1.3526422513192964 1.8517473440070065 2.337992423790587
3.9827614633638544 1.1665566749188956 1.181767882686108 1.634436905758852
2.7593942355705354 1.001000596921113 0.6920205836830734 1.0663730549663486
1.767138969239647 0.8349303049172704 0.33024221556436917 0.6019664487580081
1.0583274992978935 0.7006030644054535 0.12702605831121808 0.23069837658122172
0.5608448372404001 0.5078339799713131 0.010895978509877374 0.0421148787592098
0.3281816956476951 0.33487846712730485 -0.001671252687560819 -0.0050255187920488975
0.20669947571204592 0.20660498596739396 8.906198486462025e-06 8.558354616548087e-05
0.11996410651486945 0.11996410651486945 0.0 0.0
0.09090844203592229 0.09090844203592229 0.0 0.0
0.2015802994051185 0.1431018012157642 0.012632899843451995 0.045845598345902336
2.5136449075014102 1.525930134385959 0.35322856282240905 0.6344862102930416
1.7190559086113295 1.1508591887276385 0.18223155002305735 0.3859651698606338
0.17296352413122792 0.1769162164657845 -0.004441784056188966 0.0004890917216323377
0.10970843946674114 0.10970843946674114 0.0 0.0
0.11515111826757844 0.11515111826757844 0.0 0.0
0.17418973429801543 0.17410359144830528 7.828390201779132e-06 7.831445950834427e-05
0.2636778891579903 0.2656711081895413 -0.00030208542138061086 -0.0016911336101704266
0.4110935769769913 0.42089324901851977 -0.0040079572414804115 -0.005791714800048087
0.7149283307842461 0.5684030657981506 0.03757241670763482 0.1089528482784606
1.2874672751776877 0.7444453024949825 0.1998641895009156 0.34315778318178947
2.003916324830884 0.8658906083440008 0.41500127581554014 0.7230244406713437
2.976937012732339 1.0184561968644061 0.7820335616727432 1.1764472541951898
4.1808189653147645 1.1772480283067372 1.2722694280333013 1.7313015089747275
5.747613969218752 1.3599251135612997 1.9504248901877859 2.437263965469668
7.859505198678265 1.5715091589200854 2.9241332963762368 3.3638627433819446
10.662521844358494 1.8076792014874572 4.282109286605328 4.572733356265708
14.316064907108453 2.065230178426731 6.177101660754199 6.0737330679275185
18.48816474384469 2.314781595240359 8.346116972140123 7.827266176464205
23.240036836454227 2.5399557761999327 11.002900132149476 9.69718092810482
27.948789351023258 2.6729119081853794 13.72415488436802 11.551722558469848
31.781091722057432 2.592800443951935 16.059958685957202 13.128332592148293
33.33420882473175 1.8844716183737775 17.43312092679441 14.016616279563573
31.78109172205429 2.5928004439499253 16.059958685956477 13.12833259214788
27.948789351021006 2.672911908187544 13.724154884365388 11.55172255846807
23.240036836446937 2.5399557761981986 11.002900132146195 9.697180928102544
18.488164743837473 2.314781595239233 8.346116972136628 7.8272661764616185
14.316064907100213 2.0652301784258054 6.17710166075012 6.073733067924288
10.662521844351645 1.807679201486636 4.282109286602132 4.572733356262875
7.859505198672768 1.5715091589203873 2.924133296373265 3.363862743379119
5.747613969211177 1.3599251135592159 1.950424890185054 2.4372639654669084
4.180818965308534 1.1772480283067706 1.2722694280303166 1.7313015089714474
2.9769370127263417 1.0184561968634416 0.7820335616705321 1.1764472541923676
2.003916324826207 0.8658906083430514 0.41500127581397467 0.7230244406691809
1.2874672751740182 0.7444453024941591 0.19986418949972704 0.34315778318013196
0.7149283307820724 0.5684030657972934 0.037572416707182706 0.10895284827759671
0.4110935769758963 0.4208932490173789 -0.0040079572414755535 -0.0057917148000070145
0.2636778891574414 0.2656711081889481 -0.00030208542137120546 -0.0016911336101355235
0.17418973429762505 0.1741035914479215 7.828390200932262e-06 7.831445950258222e-05
0.1151511182673378 0.1151511182673378 0.0 0.0
0.10970843946647414 0.10970843946647414 0.0 0.0
0.17296352413033017 0.17691621646539937 -0.004441784056363252 0.0004890917212940007
1.719055908606451 1.1508591887254347 0.18223155002211897 0.38596516985889756
1.1723896113082288 0.9174754581746917 0.08744076069482343 0.16747339243871393
0.1545195833512446 0.17809143449206863 -0.00982876849716704 -0.013743082643657027
0.1310044673837216 0.1310044673837216 0.0 0.0
0.12139064110350112 0.12139064110350112 0.0 0.0
0.15561308076643776 0.15559066865525706 1.8172994548958084e-06 2.0594811725824774e-05
0.2175561546328053 0.21776967142969583 -4.597021882457786e-05 -0.0001675465780658998
0.30695033319626563 0.3178787285187976 -0.002685146181102021 -0.008243249141429893
0.4771552955906032 0.44812051129658936 0.003095355370478885 0.025939428923535124
0.8052208449537874 0.5913763259000514 0.06002547362403412 0.15381904542970198
1.357048148412369 0.7400797811234933 0.2259489989609264 0.39101936832794887
2.0285547277715312 0.8568919380931331 0.43790475135858026 0.733758038319818
2.8947055674820197 0.9875963983807702 0.7573400127870387 1.1497691563142116
4.020345955672675 1.138972228306314 1.2134695082404552 1.6679042191259055
5.519317512382907 1.3087361663660881 1.861227971327607 2.3493533746892137
7.5589167781777515 1.5043416949710677 2.809130617163579 3.245444466043104
10.17040073145518 1.7186778647471725 4.0685913030950696 4.383131563612938
13.429562237654228 1.9508173058579183 5.748690207564677 5.730054724231636
17.062067760763814 2.182766605335808 7.638861044098234 7.240440111329768
20.854853367038448 2.3743965341245805 9.684595819454376 8.795861013459495
24.388295441522796 2.384500660522332 11.761323324131084 10.242471456869373
25.972723394169503 1.5942537474835468 13.18399044399976 11.194479202686201
24.388295441524686 2.3845006605250725 11.761323324130576 10.24247145686904
20.854853367033307 2.37439653412247 9.6845958194526 8.795861013458246
17.06206776076061 2.18276660533662 7.638861044095957 7.240440111328034
13.42956223764859 1.9508173058573262 5.748690207561887 5.730054724229376
10.170400731448996 1.7186778647461873 4.068591303092267 4.383131563610545
7.558916778173343 1.504341694971448 2.809130617161109 3.2454444660407864
5.519317512378441 1.3087361663660841 1.8612279713253839 2.3493533746869733
4.02034595566845 1.1389722283052652 1.2134695082389668 1.667904219124216
2.8947055674769193 0.9875963983796303 0.7573400127853008 1.149769156311989
2.0285547277671485 0.8568919380923552 0.43790475135709905 0.7337580383176936
1.3570481484090657 0.7400797811228459 0.22594899895982548 0.39101936832639406
0.8052208449515129 0.5913763258991935 0.0600254736235266 0.15381904542879277
0.4771552955893388 0.44812051129579344 0.00309535537035678 0.025939428923188422
0.30695033319570786 0.3178787285180873 -0.0026851461810689673 -0.008243249141310416
0.21755615463237982 0.21776967142924533 -4.5970218821745455e-05 -0.00016754657804380198
0.15561308076618274 0.15559066865500867 1.8172994544034804e-06 2.0594811719682714e-05
0.12139064110319754 0.12139064110319754 0.0 0.0
0.13100446738341456 0.13100446738341456 0.0 0.0
0.15451958335078586 0.1780914344915772 -0.009828768497136023 -0.013743082643655332
1.1723896113048635 0.9174754581731097 0.087440760694154 0.16747339243760018
0.7642894284821267 0.6878382689854441 0.0197366263427617 0.05671453315392099
0.1547404657731942 0.16637169442057775 -0.002999130272905505 -0.008632098374478082
0.15052226937845642 0.15061924003989757 -8.0063316162184e-06 -8.89643298249272e-05
0.13410917858020666 0.13410917858020666 0.0 0.0
0.14883105660274185 0.1488220282653965 2.5498622371285784e-07 8.773351121642145e-06
0.18695622992680316 0.18646686364667564 7.432555252894262e-05 0.00041504072759857897
0.2409645397297925 0.24601674127447973 -0.0011844357308525323 -0.0038677658138347184
0.3258696937347053 0.33816655988572486 -0.0030112498439800934 -0.009285616307039325
0.4766608315197619 0.44111495584239613 0.006428543597209478 0.029117332080156256
0.7529463855879795 0.5595675422006328 0.05806599017528473 0.13531285321206202
1.1605525384882256 0.6584875495082827 0.16227309465478476 0.33979189432515766
1.7124434608554988 0.772058665628663 0.33712137429722966 0.6032634209296058
2.427409495832436 0.8918682445934059 0.5924362869603569 0.9431049642786727
3.3764902792197145 1.0237296124312374 0.9616063240890456 1.3911543426994315
4.672490915212241 1.176766384743736 1.5103907202453022 1.9853338102232012
6.3959114758681395 1.3521481870217618 2.2903218549373165 2.7534414339090594
8.58755436484596 1.5632554392398534 3.3221534252290916 3.7021455003770156
11.165537796968113 1.7773953542125833 4.576437718367483 4.811704724388048
14.104016481622681 2.011144076671681 6.056648724825675 6.036223680125321
17.259222630269832 2.1604732423013306 7.776420236365236 7.3223291516032605
18.8534667577676 1.3239590272835455 9.119633632165753 8.409874098318294
17.259222630268795 2.1604732423011965 7.776420236364717 7.322329151602887
14.104016481622699 2.011144076672688 6.056648724825134 6.036223680124872
11.165537796964946 1.7773953542133123 4.5764377183653355 4.8117047243863
8.587554364841585 1.563255439239137 3.322153425227172 3.7021455003752752
6.395911475863631 1.3521481870200025 2.2903218549359097 2.75344143390772
4.672490915208539 1.1767663847429288 1.510390720243877 1.9853338102217304
3.3764902792170357 1.0237296124307382 0.9616063240880166 1.3911543426982824
2.4274094958307106 0.8918682445943723 0.5924362869592422 0.9431049642770967
1.7124434608523709 0.7720586656275361 0.3371213742963721 0.6032634209284633
1.1605525384855264 0.6584875495077698 0.16227309465397802 0.3397918943237791
0.7529463855860196 0.559567542199837 0.05806599017486068 0.13531285321132208
0.47666083151883104 0.4411149558417297 0.0064285435971308666 0.02911733207997034
0.3258696937339334 0.33816655988503813 -0.0030112498440038244 -0.009285616307100933
0.24096453972933532 0.24601674127389198 -0.0011844357308240013 -0.0038677658137325796
0.18695622992635982 0.18646686364621518 7.432555252916434e-05 0.000415040727615495
0.14883105660244567 0.14882202826510874 2.549862230170516e-07 8.7733511139407e-06
0.1341091785798732 0.1341091785798732 0.0 0.0
0.15052226937816832 0.15061924003959398 -8.006331614547221e-06 -8.896432981108666e-05
0.15474046577289713 0.16637169442003374 -0.002999130272854688 -0.008632098374281902
0.7642894284801126 0.6878382689842425 0.019736626342502377 0.056714533153367615
0.5171423597866416 0.5226979973934748 -0.0009475881546653111 -0.004608049452167949
0.15630320057509983 0.1557047771005499 0.0001138239012595749 0.0004845995732903748
0.16568664423319196 0.16570417169113227 -9.038683591991786e-07 -1.6623589581121507e-05
0.14944128952150154 0.14945943526461763 -1.1251006770666433e-06 -1.7020642439032754e-05
0.15126812335070383 0.15123197619423895 4.197779080709848e-06 3.194937738412248e-05
0.17210188859288875 0.1721862656174827 -3.604873582223196e-06 -8.077215101174288e-05
0.20297795687595413 0.20635850760088995 -0.0006971506595692225 -0.0026834000653666447
0.23991036314415104 0.2412351044278433 -0.0006140724974772849 -0.0007106687862148946
0.2907971976899081 0.27531455278892913 0.003047980162458698 0.01243466473852035
0.36623932790706015 0.32770024864542585 0.009352593242957745 0.029186486018676405
0.5175582926282316 0.41566547548641625 0.03409987301870517 0.06779294412311018
0.730090400987293 0.4818650483690147 0.07538428260024309 0.17284107001803525
1.0513686197692589 0.577097552594991 0.15827102218365202 0.31600004499061585
1.512395301369445 0.6724697614546501 0.30205652664545624 0.5378690132693391
2.154726910839161 0.7658238581919301 0.5314730102312937 0.8574300424159371
3.052626644416562 0.8866235541807169 0.8761282170594141 1.2898748731764302
4.28542207203907 1.0570743813255914 1.3787111646061452 1.8496365261073322
5.945972747812667 1.2666121891818187 2.110113055153381 2.5692475034774693
7.9199023886386355 1.4714477377233686 3.022943825606701 3.4255108253085647
10.363840995042663 1.7838594364166023 4.142061016570998 4.437920542055058
12.366616016998835 1.0844054799357874 5.619647976128088 5.66256256093496
10.363840995043844 1.7838594364166585 4.1420610165716205 4.437920542055563
7.9199023886361735 1.471447737720519 3.02294382560688 3.425510825308776
5.945972747808872 1.2666121891805469 2.1101130551520852 2.5692475034762388
4.28542207203475 1.0570743813231656 1.3787111646051833 1.8496365261064018
3.052626644415674 0.8866235541809346 0.8761282170589331 1.2898748731758056
2.1547269108390616 0.7658238581928003 0.5314730102309351 0.8574300424153259
1.512395301368466 0.6724697614540625 0.3020565266452498 0.5378690132691537
1.0513686197677155 0.5770975525951936 0.15827102218297098 0.31600004498955075
0.7300904009860804 0.48186504836879623 0.07538428259988922 0.17284107001739457
0.5175582926271386 0.4156654754861057 0.03409987301840887 0.06779294412262402
0.3662393279067089 0.3277002486450167 0.009352593242984224 0.029186486018707894
0.2907971976896921 0.27531455278884975 0.0030479801624146868 0.01243466473842763
0.2399103631439241 0.24123510442763943 -0.000614072497483307 -0.0007106687862320044
0.2029779568755564 0.20635850760043956 -0.000697150659558205 -0.0026834000653250018
0.172101888592348 0.17218626561692332 -3.604873580265281e-06 -8.077215099507151e-05
0.15126812335038908 0.15123197619392195 4.197779080708162e-06 3.194937738642501e-05
0.14944128952114 0.14945943526424738 -1.125100676383091e-06 -1.702064243101171e-05
0.1656866442328361 0.16570417169076254 -9.038683582517383e-07 -1.6623589568169255e-05
0.15630320057479213 0.1557047771002228 0.00011382390126179769 0.0004845995733075747
0.517142359785507 0.5226979973923479 -0.0009475881546675646 -0.004608049452173139
0.35320897799981243 0.3529466871599175 3.299210283862855e-05 0.0002292987370563569
0.1533335324407208 0.1533210217429465 -7.492606070267292e-07 1.3259958381297367e-05
0.17528571556111447 0.17542478145911553 -1.1298045831810909e-05 -0.00012776785216922468
0.16438141365786457 0.16442601852912353 -3.0090264717618683e-06 -4.159584478721377e-05
0.16035749570986982 0.16035703941434326 1.2746668436716983e-06 -8.183713171120655e-07
0.17169754398553677 0.17172980276479832 2.194431352722773e-06 -3.445321061420714e-05
0.19222209366580578 0.19553520106051597 -0.000647484542776246 -0.0026656228519338875
0.2134004503194949 0.21144416565835467 -1.6342969545856604e-05 0.0019726276306859755
0.2297597218016051 0.22043910834355745 0.0024322476182674106 0.006888365839780227
0.25011872893500525 0.2107346256158886 0.009647720404635667 0.029736382914481035
0.2789585462574526 0.20954111424748062 0.022292802228169237 0.04712462978180269
0.32089212070673206 0.1910227066025436 0.0379493925925276 0.09192002151166077
0.38535967961104667 0.17922731318453416 0.06501186275701157 0.14112050366950096
0.4860423535003903 0.18187272208411803 0.10485060143510962 0.19931902998116252
0.6597218200947758 0.21385335826267654 0.16809000111295244 0.2777784607191468
0.9216898903971157 0.26775841842248316 0.2548912044758116 0.3990402674988207
1.3252619832468207 0.2759623914491883 0.4212728645176706 0.6280267272799614
1.939422090905676 0.2694602953883949 0.6944926563600387 0.9754691391572422
2.944591955929165 0.39785218417845425 1.1088617139739956 1.4378780577767165
4.803748534872587 0.9690570814282894 1.6909498355884323 2.143741617855864
7.849842598396744 0.8543703704857082 3.267114135192102 3.7283580927189335
4.803748534874943 0.9690570814288122 1.6909498355894217 2.1437416178567092
2.944591955929667 0.39785218417841256 1.1088617139742447 1.43787805777701
1.9394220909050908 0.26946029538935623 0.6944926563592999 0.9754691391564352
1.3252619832472452 0.2759623914501913 0.42127286451735646 0.6280267272796966
0.9216898903959478 0.26775841842195347 0.2548912044755486 0.3990402674984457
0.659721820094237 0.21385335826240215 0.16809000111280906 0.27777846071902573
0.4860423535004066 0.18187272208448327 0.10485060143498788 0.19931902998093565
0.3853596796100047 0.17922731318435414 0.06501186275667614 0.1411205036689742
0.3208921207059685 0.1910227066024242 0.03794939259234101 0.09192002151120357
0.2789585462565538 0.20954111424720717 0.022292802227938918 0.047124629781407565
0.25011872893495884 0.21073462561575101 0.009647720404666153 0.029736382914541754
0.2297597218014203 0.2204391083435408 0.0024322476182177333 0.006888365839661751
0.2134004503192809 0.2114441656581345 -1.634296954793735e-05 0.0019726276306943086
0.19222209366539988 0.1955352010600648 -0.0006474845427666857 -0.002665622851898271
0.17169754398508813 0.171729802764327 2.194431354928429e-06 -3.445321059380875e-05
0.1603574957095692 0.1603570394140257 1.2746668447383521e-06 -8.183713012188865e-07
0.1643814136575274 0.16442601852876662 -3.009026470089872e-06 -4.1595844769073125e-05
0.17528571556072947 0.1754247814587144 -1.1298045829985204e-05 -0.00012776785215497615
0.1533335324405274 0.15332102174276363 -7.492606078632508e-07 1.3259958371584908e-05
0.3532089779991064 0.35294668715919736 3.2992102838717406e-05 0.00022929873707024426
0.23643425691155837 0.23643425691155837 0.0 0.0
0.1441462533569288 0.14415027379505416 -4.763192574838608e-07 -3.544118867873812e-06
0.1783913488644105 0.17835988641958522 2.93507319707615e-06 2.8527371628245575e-05
0.17685580222924266 0.1769116186554293 -4.477284794431172e-06 -5.13391413922115e-05
0.1738433552282471 0.1737958209009611 7.5083836910334716e-06 4.002594359496312e-05
0.18465107920393634 0.1843722685117937 5.10274610354621e-05 0.000227783231107189
0.20840200277174079 0.21308130876206946 -0.0009170292006978565 -0.00376227678963081
0.2411442234934989 0.24248884688813613 -0.0005693816376875899 -0.0007752417569496417
0.29054618417204103 0.27504057520158515 0.003076107500310814 0.01242950147014506
0.3655445845678518 0.3271651109276067 0.009290185706473946 0.02908928793377122
0.5165789847726776 0.41509424973726117 0.033558373466226955 0.06792636156918985
0.731667276828105 0.48300346459778454 0.07694725437531644 0.17171655785500398
1.0541167683359505 0.5786449383943386 0.1587970548907259 0.316674775050886
1.5188254928778755 0.6743166278985929 0.30415898245771894 0.5403498825215637
2.150166969126339 0.7633970278285936 0.5309163250486675 0.8558536162490775
2.9524515555058337 0.862028579329631 0.844862485032286 1.2455604911439162
3.8225407021803695 0.9630061953533371 1.2047499552097003 1.6547845516173332
4.569666601159977 1.0343530856273184 1.5656745082948311 1.969639007237828
4.861347149191294 1.0578662177652887 1.7217426413276153 2.0817382900983867
4.0044912478486605 0.5321958102870203 1.606247560947876 1.866047876613765
7.91871068296425 1.5409753600773968 2.9102293631136353 3.467505959773217
4.0044912478516475 0.5321958102870337 1.606247560949385 1.8660478766152266
4.861347149192574 1.0578662177666522 1.7217426413275834 2.081738290098338
4.569666601155996 1.0343530856253929 1.5656745082937782 1.9696390072368248
3.8225407021788134 0.9630061953534497 1.2047499552089231 1.6547845516164421
2.9524515555029747 0.862028579329456 0.8448624850310971 1.2455604911424212
2.1501669691242515 0.7633970278278006 0.5309163250481576 0.855853616248293
1.518825492875242 0.6743166278980772 0.3041589824568211 0.540349882520344
1.0541167683340604 0.5786449383938035 0.15879705489020546 0.31667477505005154
0.7316672768257863 0.4830034645971044 0.07694725437469893 0.1717165578539831
0.5165789847709833 0.41509424973665987 0.03355837346583169 0.06792636156849183
0.36554458456707034 0.3271651109268082 0.009290185706488012 0.029089287933774046
0.29054618417181455 0.27504057520138364 0.0030761075002980276 0.012429501470132758
0.24114422349295148 0.24248884688768282 -0.000569381637711629 -0.0007752417570196777
0.20840200277139181 0.21308130876165193 -0.0009170292006818372 -0.003762276789578233
0.18465107920341323 0.18437226851124575 5.102746103766027e-05 0.00022778323112987236
0.17384335522796945 0.17379582090066573 7.508383692143861e-06 4.00259436115903e-05
0.17685580222891656 0.1769116186550822 -4.477284792821856e-06 -5.1339141372841755e-05
0.17839134886397578 0.1783598864191389 2.9350731972650346e-06 2.852737163970177e-05
0.14414625335680487 0.1441502737949354 -4.7631925769044824e-07 -3.5441188728086123e-06
0.236434256911088 0.236434256911088 0.0 0.0
0.15205727255467735 0.15205727255467735 0.0 0.0
0.12914478275274566 0.12914551287497705 -3.4333122731160884e-08 -6.957891086760974e-07
0.17486706328030346 0.17484112496766196 2.016410127340017e-06 2.39219025141398e-05
0.18557457366425434 0.18552904002583726 6.741537791692081e-06 3.8792100625377955e-05
0.19016457094433858 0.19044148544058348 -2.6581448198847284e-05 -0.00025033304804607937
0.20976397457008855 0.21102923684754626 -0.00018406520626224328 -0.0010811970711955203
0.24987332654745503 0.25167803457698495 -0.0006517620985675107 -0.0011529459309624136
0.32828010999705787 0.3398482586563509 -0.002772908704884096 -0.008795239954408826
0.4760218693134791 0.4403338467524872 0.006467535480165211 0.02922048708082674
0.7516488114300015 0.5593077485661407 0.057646738503165665 0.1346943243606949
1.1596867043576762 0.6583086990214947 0.1619555780401902 0.33942242729599137
1.7124172208524473 0.7720385296804934 0.33712008012126726 0.6032586110506865
2.4291309447882448 0.8922230324035335 0.5931214418596168 0.9437864705250951
3.382455601051517 1.0248060432495425 0.9641117948717357 1.3935377629302383
4.673038974311108 1.173990721706496 1.5126625591701637 1.9863856934344488
6.312305247172196 1.3288244801839912 2.260634838523216 2.72284592846499
8.158771060916761 1.4759570987188788 3.141782271217697 3.5410316909801853
9.870394631554554 1.614107278181157 3.9549897482855805 4.301297605087822
10.875356539842425 1.6650782141130827 4.477720239425359 4.732558086303985
10.153646760659877 1.6939058115787489 4.14677612456306 4.312964824518068
12.035764992062632 3.438614745642017 4.1271527348432056 4.46999751157741
10.153646760659962 1.6939058115760974 4.146776124564559 4.31296482451931
10.875356539842869 1.6650782141134877 4.477720239425368 4.732558086304014
9.870394631553674 1.6141072781830539 3.9549897482840635 4.301297605086552
8.158771060908665 1.4759570987154103 3.141782271215235 3.541031690978019
6.312305247168924 1.3288244801843818 2.260634838521373 2.7228459284631685
4.6730389743059035 1.1739907217050667 1.5126625591683167 1.98638569343252
3.382455601047901 1.024806043249622 0.9641117948700683 1.3935377629282106
2.4291309447828575 0.892223032401713 0.5931214418580352 0.9437864705231093
1.7124172208478967 0.7720385296799465 0.33712008011959366 0.6032586110483572
1.1596867043539996 0.6583086990206252 0.16195557803913838 0.3394224272942363
0.7516488114274911 0.5593077485653559 0.057646738502549075 0.13469432435958612
0.476021869311915 0.4403338467514269 0.006467535480017446 0.02922048708047049
0.32828010999634005 0.33984825865568047 -0.002772908704894024 -0.008795239954446322
0.24987332654675296 0.2516780345761051 -0.000651762098533944 -0.0011529459308182394
0.20976397456962254 0.21102923684706992 -0.00018406520626051224 -0.0010811970711868551
0.1901645709439223 0.19044148544014294 -2.6581448195848994e-05 -0.0002503330480247657
0.185574573663933 0.1855290400254965 6.74153779291067e-06 3.879210064361902e-05
0.17486706327990104 0.17484112496726992 2.0164101265430307e-06 2.3921902504595976e-05
0.1291447827525458 0.12914551287477646 -3.433312268844444e-08 -6.957891079894279e-07
0.15205727255434848 0.15205727255434848 0.0 0.0
0.09352134920054754 0.09352134920054754 0.0 0.0
0.11012807860271938 0.11012807860271938 0.0 0.0
0.16527755329945748 0.1652532907279658 1.7498561801295798e-06 2.2512715311568723e-05
0.1902256260175098 0.19029515680170728 -5.218320297586886e-06 -6.431246389986003e-05
0.20855830364321745 0.20864985181203585 -8.726735945047036e-06 -8.282143287338212e-05
0.2451650379349686 0.24384791791213792 0.0002377497928737916 0.0010793702299569145
0.32004443579318087 0.33777928667963536 -0.003992576271020064 -0.013742274615434456
0.4802966505536248 0.4495186499348648 0.0038261029511618538 0.02695189766759838
0.8042055563728278 0.5912184158990028 0.05970476471449487 0.15328237575933001
1.355930346690408 0.740078988912561 0.22575582150138582 0.3900955362764612
2.027384355711074 0.8566291189758516 0.4364227303790734 0.7343325063561498
2.8943725485185197 0.9873837726425727 0.7573208552397105 1.1496679206362361
4.019494401193198 1.1388786630838048 1.2131266930165794 1.6674890450928155
5.52077511665537 1.3098772841844204 1.8614580211190739 2.3494398113518744
7.559160799129522 1.5033055774178732 2.809973692087673 3.2458815296239774
10.11379674485633 1.6984741550398894 4.049480655577728 4.3658419342387145
13.12688354313577 1.8806008656925688 5.620539132894786 5.625743544548417
15.970652062527211 1.996817353487638 7.126316737019883 6.8475179720196895
17.65758935851185 1.97853914884967 8.094589703167227 7.584460506494944
16.444274792351994 1.8154268380085838 7.503691162341509 7.1251567920019
18.425712316786967 5.444486516319722 6.56426859285779 6.416957207609455
16.444274792353276 1.8154268380086998 7.5036911623421725 7.125156792002407
17.657589358512702 1.9785391488497708 8.094589703167658 7.584460506495269
15.970652062519907 1.9968173534846545 7.126316737017433 6.847517972017824
13.126883543130589 1.8806008656945787 5.620539132890795 5.625743544545216
10.113796744848386 1.698474155037411 4.049480655574803 4.365841934236172
7.55916079912462 1.5033055774182627 2.8099736920849283 3.245881529621432
5.520775116648737 1.3098772841838824 1.861458021116023 2.349439811348831
4.019494401186704 1.1388786630839685 1.2131266930134066 1.6674890450893278
2.8943725485122402 0.9873837726420177 0.7573208552371175 1.1496679206331053
2.027384355705129 0.8566291189748032 0.4364227303769802 0.7343325063533461
1.3559303466861135 0.740078988911486 0.2257558215000596 0.390095536274568
0.804205556370223 0.5912184158983352 0.059704764713797945 0.15328237575809012
0.4802966505521835 0.4495186499339086 0.00382610295103426 0.026951897667240675
0.3200444357923859 0.33777928667870294 -0.003992576270977391 -0.013742274615339688
0.24516503793433225 0.2438479179114613 0.0002377497928776739 0.0010793702299932793
0.20855830364270111 0.20864985181149928 -8.72673594317163e-06 -8.282143285506392e-05
0.19022562601709858 0.19029515680127593 -5.218320295818337e-06 -6.431246388149186e-05
0.16527755329914706 0.16525329072766265 1.749856179479478e-06 2.2512715304933934e-05
0.1101280786025248 0.1101280786025248 0.0 0.0
0.0935213492003742 0.0935213492003742 0.0 0.0
0.05458228594669182 0.05458228594669182 0.0 0.0
0.08945365025637378 0.08945365025637378 0.0 0.0
0.15093265052448732 0.15092560715629202 4.3574774429583853e-07 6.607620450981613e-06
0.19130158106946368 0.191196380727556 1.21103505880072e-05 9.30899913196835e-05
0.2286521206112987 0.2288741197051956 -1.8858699178506553e-05 -0.00020314039471843693
0.29169156521194683 0.29822596550663205 -0.0011996241420528706 -0.0053347761526323905
0.42281181223598535 0.4210041645309698 -0.0014349464903438299 0.003242594195359296
0.7173820308317003 0.5689261884730055 0.038480557744316864 0.10997528461437808
1.2864496661344889 0.7445789591868586 0.19937749432390917 0.3424932126237213
2.0030024107893363 0.8660188591959864 0.4144018071222466 0.722581744471104
2.976995418215611 1.018414212734756 0.7822984053402866 1.176282800140568
4.180068564788085 1.1767721589521765 1.2721462102969543 1.7311501955389546
5.742943717931993 1.3588817243512197 1.948662921803015 2.4353990717777574
7.850436312944025 1.5717531861176748 2.919409062932731 3.3592740638936234
10.6556401493118 1.8099936993937158 4.2771959283029855 4.568450521615101
14.309690406695708 2.0624321781359374 6.1748504408724685 6.072407787687303
18.363224320180038 2.264007937904273 8.303298939798882 7.7959174424768864
22.403275034729283 2.3281821009504076 10.636644423549065 9.438448510229811
24.75869210161612 2.1639316776336086 12.141620985960687 10.453139438021815
23.0582138117359 1.888501649353068 11.294202784626851 9.875509377755987
25.351970777212955 7.383526853392306 9.393770582465475 8.574673341355167
23.058213811738135 1.8885016493547488 11.294202784627197 9.87550937775619
24.758692101610265 2.163931677629022 12.141620985959914 10.45313943802133
22.403275034723457 2.328182100951669 10.636644423544888 9.438448510226905
18.363224320170954 2.2640079379031874 8.303298939794319 7.795917442473454
14.309690406686746 2.0624321781350003 6.174850440867986 6.072407787683762
10.655640149302208 1.8099936993914434 4.27719592829909 4.568450521611675
7.850436312936851 1.5717531861176999 2.9194090629290033 3.3592740638901457
5.742943717924097 1.3588817243509124 1.9486629217992377 2.4353990717739458
4.1800685647795115 1.176772158950858 1.2721462102935477 1.7311501955351065
2.976995418208364 1.0184142127340656 0.7822984053374028 1.1762828001368943
2.0030024107833935 0.8660188591948231 0.4144018071202578 0.7225817444683128
1.2864496661304385 0.7445789591859024 0.1993774943226112 0.3424932126219245
0.7173820308291307 0.568926188471988 0.038480557743775574 0.10997528461336731
0.42281181223476944 0.42100416452972295 -0.0014349464903443178 0.0032425941953908204
0.2916915652113342 0.29822596550596603 -0.0011996241420385886 -0.005334776152593321
0.2286521206107514 0.22887411970462793 -1.8858699175890908e-05 -0.00020314039470066753
0.19130158106906547 0.1911963807271554 1.211035058774905e-05 9.308999132227693e-05
0.15093265052421817 0.1509256071560259 4.3574774405297814e-07 6.607620448196673e-06
0.08945365025623127 0.08945365025623127 0.0 0.0
0.05458228594657749 0.05458228594657749 0.0 0.0
0.02999953514836847 0.02999953514836847 0.0 0.0
0.069171837511136 0.069171837511136 0.0 0.0
0.13359709798976774 0.13359709798976774 0.0 0.0
0.1899424265696475 0.18987833984110372 6.040838194838018e-06 5.804589034893029e-05
0.2509354047683834 0.25031943847398175 0.00011195804952523262 0.0005040082448763761
0.3506545436355398 0.36369030221431997 -0.0029730153240701083 -0.010062743254709931
0.5707347320044518 0.5115505322709626 0.013132175981978926 0.04605202375151022
1.059828392953839 0.7009799095381419 0.12750765383854426 0.23134082957715285
1.7667229969978788 0.8352925184925704 0.33004170475823136 0.6013887737470773
2.759260856275095 1.0011887579267749 0.6918229413311807 1.0662491570171393
3.983114421064782 1.1665379624156238 1.1819296603128941 1.6346467983362631
5.541221316865782 1.3518997187731099 1.8515347270804305 2.3377868710122396
7.590601404849711 1.5701196841442042 2.7861545131137078 3.2343272075918006
10.364250270616125 1.8262242547584366 4.131373055464711 4.406652960392977
14.005917433458295 2.1229431637510814 5.955320943639528 5.927653326067684
18.61581731160494 2.4267146430286703 8.372520794743009 7.816581873833259
24.060559957685577 2.6556921679883208 11.441510808816304 9.963356980880945
29.11027363072198 2.641457216039577 14.423705045172783 12.045111369509627
31.846325760261667 2.2741354346077047 16.25367026614497 13.318520059508995
29.777650654571914 1.9549593317858096 15.244487407615555 12.578203915170551
32.91594056366194 9.43299396217567 12.66584256151704 10.817104039969239
29.777650654572035 1.95495933178537 15.244487407615892 12.578203915170764
31.84632576025831 2.274135434608517 16.253670266142443 13.31852005950736
29.11027363071641 2.6414572160418213 14.423705045168099 12.0451113695065
24.060559957674368 2.6556921679875103 11.441510808810191 9.963356980876668
18.61581731159522 2.4267146430282764 8.372520794737676 7.816581873829264
14.005917433448754 2.122943163750902 5.955320943634342 5.927653326063514
10.364250270605208 1.8262242547560872 4.131373055460156 4.406652960388964
7.590601404838517 1.5701196841423255 2.7861545131089387 3.2343272075872522
5.541221316855524 1.3518997187724195 1.8515347270757234 2.3377868710073804
3.983114421055697 1.1665379624144256 1.1819296603092098 1.6346467983320627
2.759260856267906 1.001188757925614 0.6918229413285133 1.066249157013778
1.7667229969925209 0.835292518491662 0.33004170475652617 0.6013887737443329
1.059828392950065 0.7009799095371574 0.1275076538374347 0.23134082957547253
0.5707347320024667 0.5115505322695646 0.013132175981803648 0.046052023751098625
0.3506545436346793 0.36369030221326193 -0.0029730153240255784 -0.01006274325455701
0.25093540476785997 0.2503194384734189 0.00011195804952783844 0.0005040082449131986
0.18994242656932891 0.18987833984079178 6.040838194107054e-06 5.8045890342973e-05
0.13359709798945563 0.13359709798945563 0.0 0.0
0.06917183751104303 0.06917183751104303 0.0 0.0
0.02999953514825611 0.02999953514825611 0.0 0.0
0.015494086866569938 0.015494086866569938 0.0 0.0
0.05088774545983332 0.05088774545983332 0.0 0.0
0.1152591985144843 0.1152591985144843 0.0 0.0
0.18801522632925927 0.187952396657376 5.622717784786087e-06 5.720695409850619e-05
0.2772409326921054 0.27897839435337535 -0.0002651636684398909 -0.0014722979928300172
0.42704376318047393 0.41712246302745215 0.0007211222669226422 0.009200177886099049
0.7854060767685909 0.6215704551788307 0.05488337584531684 0.10895224574444351
1.413770312830003 0.7791832540569721 0.2149019804312965 0.4196850783417348
2.3418429044247304 0.9467481730081928 0.5318690436817068 0.863225687734831
3.5351723816473015 1.1196937945060068 0.9933312446695214 1.4221473424717732
5.046649213776727 1.3073392663184338 1.6307219683434002 2.1085879791148945
6.993529045677179 1.5231814554621168 2.5064984183789547 2.963849171836105
9.583775836786442 1.7809095480852175 3.7432537073988033 4.059612581302419
12.95508930643148 2.083089409581783 5.383810561658237 5.488189335191456
17.50066490100217 2.4303206263119153 7.753516105362009 7.316828169328244
23.22960688460808 2.8012118150991205 10.857967079947597 9.570427989561367
29.717766728435606 3.0574802257084626 14.521210022364501 12.139076480362647
35.82533173279963 2.9388147980301382 18.282836498231095 14.603680436538397
39.13680194862396 2.360025303258262 20.667215344660043 16.109561300705668
36.698223063399105 1.9923321523378608 19.39891254313035 15.306978367930906
40.91234778639103 11.609673353792116 16.099075336984676 13.203599095614223
36.69822306339601 1.9923321523352409 19.398912543130052 15.30697836793071
39.13680194861872 2.3600253032591834 20.667215344656245 16.109561300703287
35.82533173278892 2.938814798028016 18.282836498225826 14.60368043653508
29.71776672842437 3.0574802257093014 14.521210022357252 12.139076480357808
23.22960688459506 2.8012118150967806 10.857967079941345 9.570427989556933
17.50066490098817 2.4303206263088613 7.753516105355797 7.316828169323513
12.955089306418927 2.0830894095803876 5.383810561652123 5.488189335186422
9.583775836773981 1.780909548083959 3.743253707392902 4.059612581297116
6.993529045665649 1.523181455461427 2.50649841837348 2.9638491718307423
5.046649213766004 1.3073392663175012 1.630721968338667 2.1085879791098345
3.5351723816384384 1.1196937945042638 0.9933312446662735 1.4221473424679008
2.341842904418264 0.9467481730076022 0.5318690436793223 0.8632256877313391
1.413770312825337 0.7791832540558027 0.2149019804299095 0.4196850783396244
0.7854060767658113 0.6215704551775456 0.05488337584476363 0.10895224574350176
0.42704376317931103 0.41712246302636014 0.0007211222668901838 0.009200177886060926
0.27724093269161965 0.2789783943528593 -0.00026516366843612243 -0.0014722979928035653
0.1880152263289073 0.1879523966570301 5.6227177840943e-06 5.7206954093084954e-05
0.1152591985142272 0.1152591985142272 0.0 0.0
0.05088774545974441 0.05088774545974441 0.0 0.0
0.015494086866528395 0.015494086866528395 0.0 0.0
0.007641535961775209 0.007641535961775209 0.0 0.0
0.03573757791534798 0.03573757791534798 0.0 0.0
0.09795950668237322 0.09795950668237322 0.0 0.0
0.18803928085178867 0.18802029739599144 1.300615864217136e-06 1.768283993303967e-05
0.31014035315088684 0.31300502072972297 -0.0005165927887975403 -0.002348074790038578
0.5369030204860387 0.505473352219993 0.007878565696791101 0.023551102569254734
1.0315998229980554 0.6972969274611435 0.1065146587856352 0.22778823675127696
1.8272668947629302 0.8640898777251205 0.34791684340858264 0.6152601736292262
2.929536630277854 1.0432121624463706 0.7499807554595515 1.1363437123719333
4.35371569747924 1.2327101228161617 1.332244759332095 1.7887608153309833
6.1552841365674436 1.4423034577286906 2.1166689794746723 2.596311699364079
8.516422689597851 1.69228304779854 3.2148998777495965 3.609239764049716
11.586573310595492 1.9900139294111985 4.684251237338926 4.912308143845365
15.785270018665514 2.345423389431944 6.846601385681039 6.593245243552532
21.14806765093834 2.746632761023634 9.66629411850627 8.73514077140844
27.79126417988336 3.1581642659877063 13.297785087346737 11.33531482654892
35.4365897848008 3.4482019404151343 17.73470828517999 14.253679559205667
42.57509432822728 3.2657455526756642 22.228002678016267 17.081346097535345
46.52068782527963 2.4613249181326586 25.169678349239515 18.88968455790746
43.97321926139547 1.9662878709934721 23.909023802343572 18.09790758805842
49.735342817885886 13.892039905731487 20.097721181441962 15.745581730712427
43.973219261392806 1.9662878709925995 23.909023802342453 18.09790758805776
46.52068782527329 2.4613249181339936 25.16967834923468 18.889684557904616
42.57509432821494 3.265745552674273 22.228002678009467 17.081346097531195
35.43658978478785 3.4482019404162036 17.73470828517145 14.253679559200199
27.791264179868804 3.1581642659855187 13.297785087339353 11.335314826543932
21.14806765092352 2.746632761022188 9.666294118498516 8.735140771402813
15.785270018650458 2.3454233894302647 6.846601385673537 6.593245243546657
11.586573310580304 1.990013929409463 4.684251237331626 4.912308143839219
8.516422689583209 1.6922830477959527 3.21489987774338 3.609239764043875
6.155284136555154 1.4423034577279408 2.1166689794689426 2.5963116993582713
4.353715697469096 1.2327101228153234 1.3322447593276625 1.7887608153261108
2.9295366302700008 1.0432121624452428 0.7499807554565877 1.1363437123681697
1.8272668947572723 0.8640898777240458 0.34791684340696605 0.6152601736262608
1.0315998229942807 0.6972969274599699 0.10651465878465101 0.22778823674966023
0.5369030204843517 0.5054733522188785 0.007878565696612968 0.023551102568860102
0.3101403531503141 0.31300502072907815 -0.0005165927887846435 -0.0023480747899794208
0.18803928085141286 0.18802029739562137 1.3006158637357774e-06 1.768283992781072e-05
0.09795950668219515 0.09795950668219515 0.0 0.0
0.03573757791526307 0.03573757791526307 0.0 0.0
0.007641535961774722 0.007641535961774722 0.0 0.0
0.003765295507598959 0.003765295507598959 0.0 0.0
0.02429030784831086 0.02429030784831086 0.0 0.0
0.08383767154446808 0.08383767154446808 0.0 0.0
0.19330957220509304 0.19327856408231386 1.5386726525572254e-06 2.9469450126598963e-05
0.35552494743568497 0.35744166910281167 -0.0007407103586455971 -0.0011760113084811241
0.6897382431882875 0.5875747992109654 0.03175457078763584 0.07040887318968612
1.3092950022713044 0.7549969460780666 0.18107137912777144 0.37322667706546636
2.26659925528067 0.9443777385801897 0.5021469532570451 0.820074563443436
3.5391596563512886 1.1329132151754833 0.9889723143759109 1.4172741267998952
5.199228203264241 1.339206075421715 1.6941463750076358 2.165875752834891
7.330784156576251 1.5767194914508476 2.657524111211806 3.096540553913594
10.084792425740991 1.8592644887900076 3.9524196736114554 4.273108263339532
13.811307912832532 2.2077642651438083 5.822092444469275 5.781451203219449
18.612344352505687 2.6166406217429 8.261591725122296 7.734112005640487
24.88588383234037 3.0625700557888935 11.646218764804498 10.177095011746971
32.516243797522264 3.4877909558939306 15.940432979806516 13.08801986182181
41.059216906822435 3.7827038800415704 20.96809498573477 16.308418041046107
49.222407024512144 3.6755933236511327 26.107940286781037 19.43887341407999
54.02601324134294 2.6411547648027853 29.815343369255146 21.56951510728502
51.66736701288738 1.8095838027767448 28.859479737658322 20.99830347245229
59.442893541334875 16.159008310102188 24.693575955622034 18.59030927561065
51.66736701288222 1.8095838027749473 28.859479737656255 20.998303472451017
54.026013241333914 2.6411547648024705 29.81534336924966 21.569515107281795
49.222407024497585 3.6755933236495526 26.107940286772866 19.43887341407516
41.05921690680854 3.782703880043493 20.968094985725006 16.30841804104002
32.516243797503456 3.487790955890364 15.940432979797338 13.088019861815752
24.885883832323042 3.0625700557870426 11.646218764795384 10.177095011740613
18.61234435248813 2.6166406217408325 8.26159172511344 7.734112005633861
13.811307912815996 2.207764265143992 5.822092444460034 5.781451203211967
10.084792425724434 1.8592644887879095 3.9524196736037305 4.273108263332797
7.3307841565622 1.5767194914494664 2.6575241112053964 3.0965405539073365
5.199228203253288 1.3392060754207733 1.6941463750028098 2.1658757528297032
3.5391596563422714 1.1329132151743615 0.9889723143723641 1.417274126795547
2.2665992552739027 0.9443777385789364 0.5021469532547699 0.8200745634401975
1.3092950022670253 0.7549969460769117 0.18107137912682839 0.37322667706328516
0.6897382431861229 0.5875747992098712 0.03175457078728441 0.0704088731889673
0.3555249474349119 0.35744166910194575 -0.0007407103586261533 -0.0011760113084078947
0.19330957220474906 0.19327856408197952 1.5386726516919999e-06 2.9469450117884424e-05
0.08383767154431282 0.08383767154431282 0.0 0.0
0.024290307848269313 0.024290307848269313 0.0 0.0
0.0037652955075941916 0.0037652955075941916 0.0 0.0
0.0017878486254241039 0.0017878486254241039 0.0 0.0
0.016387856268652714 0.016387856268652714 0.0 0.0
0.07561893950118045 0.07561893950118045 0.0 0.0
0.2088163917223226 0.20879446334807075 3.493613385583662e-06 1.843476086630826e-05
0.4285633869956025 0.42519697579066673 0.0008085169038162827 0.0025578943011193393
0.8704466896205666 0.6533314056607118 0.06649761489734396 0.15061766906251095
1.624827337825771 0.8269721644870399 0.2799466185291862 0.5179085548095447
2.717768076439508 1.0184209058205513 0.6667565267208728 1.0325906438980834
4.18120818843769 1.2185820638880824 1.2578095567089407 1.7048165678406664
6.072845084279668 1.4421228004402076 2.0787129430992883 2.5520093407401725
8.531005650578926 1.706843724183359 3.213314948658164 3.6108469777374017
11.790780716413117 2.0321536565882234 4.807715129028789 4.9509119307961
15.989358119432627 2.426464646912125 6.881833562180551 6.681059910339949
21.619412294733372 2.8901376011916637 9.83835102489931 8.890923668642406
28.775248911910456 3.386456373952271 13.754681451527137 11.63411108643104
37.30772245599856 3.812242291462756 18.650164691793492 14.845315472742307
46.570619982012175 4.024474564155591 24.255919342751653 18.290226075104933
55.46318001741921 3.981847439594187 29.8929576438849 21.588374933940113
61.62246813159223 3.2389254227062496 34.295954225044085 24.087588483841895
59.812172537383525 1.4283244224473668 34.318214451137635 24.065633663798547
69.92047315326343 17.552007065876847 30.45319350491519 21.915272582471374
59.81217253737713 1.4283244224463907 34.31821445113417 24.06563366379659
61.62246813157942 3.23892542270492 34.29595422503672 24.08758848383778
55.46318001740271 3.9818474395928454 29.89295764387529 21.588374933934578
46.570619981993076 4.024474564153237 24.255919342741237 18.290226075098612
37.307722455979565 3.812242291461817 18.650164691782454 14.845315472735303
28.775248911891744 3.386456373951286 13.75468145151656 11.634111086423907
21.619412294712866 2.8901376011880227 9.838351024889517 8.890923668635326
15.989358119413861 2.4264646469120117 6.8818335621700495 6.681059910331797
11.7907807163946 2.032153656586951 4.807715129019442 4.950911930788209
8.53100565056304 1.7068437241816035 3.21331494865076 3.6108469777306764
6.072845084266301 1.44212280043786 2.078712943093814 2.552009340734627
4.181208188427587 1.2185820638869762 1.2578095567047585 1.704816567835852
2.7177680764317618 1.018420905819189 0.6667565267181564 1.032590643894418
1.6248273378205378 0.8269721644858784 0.27994661852767866 0.517908554806981
0.8704466896177624 0.6533314056595795 0.0664976148967399 0.15061766906144317
0.42856338699456026 0.4251969757897675 0.0008085169037731929 0.002557894301019647
0.20881639172199176 0.20879446334771995 3.49361338678022e-06 1.843476088501837e-05
0.07561893950105096 0.07561893950105096 0.0 0.0
0.01638785626863455 0.01638785626863455 0.0 0.0
0.0017878486254226504 0.0017878486254226504 0.0 0.0
0.00042787313764869024 0.00042787313764869024 0.0 0.0
0.011525654587440112 0.011525654587440112 0.0 0.0
0.07702312648008248 0.07702312648008248 0.0 0.0
0.24367069506989816 0.24367675568900635 1.2501714781432103e-05 -1.856233388959665e-05
0.5404830395547321 0.5114464134387758 0.009171509939481619 0.019865116176474514
1.0934071126077372 0.7603203591748595 0.10867266362029959 0.22441408981257804
1.9667345321659888 0.9567379639153515 0.3683159212693614 0.6416806469812764
3.209204653661378 1.1974323953129873 0.8098089574495817 1.2019633008988093
4.867288836266936 1.4703052759785615 1.4636048309218948 1.9333787293664804
7.061606845342311 1.8066534588678063 2.398025104677372 2.8569282817971327
9.948337903451074 2.2430684197225923 3.691352442652205 4.013917041076276
13.700657118494124 2.8134159840582607 5.399275557732182 5.487965576703681
18.713228910352367 3.532041333715659 7.800396141399709 7.380791435237
25.27889519939098 4.4079269157439676 11.084198280238143 9.786770003408865
33.5127020598684 5.348696714801531 15.422635463477352 12.741369881589518
43.10120623108639 6.141118559124679 20.807092453935425 16.152995218026305
53.08398991913382 6.492038391461191 26.812889805621708 19.779061722050923
62.00029726176943 6.198921755716717 32.65058403799428 23.150791468058422
68.73564447285288 5.752088616671715 37.2548996411648 25.728656215016382
66.59028923803413 1.5054938803890048 38.55788113775956 26.526914219885537
100.90635892930514 39.17208650938545 36.50603201970867 25.228240400211014
66.59028923802893 1.5054938803903415 38.55788113775536 26.52691421988323
68.73564447284147 5.752088616674797 37.25489964115552 25.728656215011174
62.00029726174815 6.198921755712913 32.65058403798325 23.150791468051978
53.08398991910828 6.492038391453592 26.812889805610443 19.779061722044244
43.101206231063635 6.1411185591213515 20.807092453923456 16.15299521801882
33.51270205984423 5.348696714796696 15.422635463465756 12.741369881581774
25.278895199365135 4.40792691573628 11.08419828022749 9.786770003401372
18.713228910330226 3.5320413337133747 7.800396141388418 7.38079143522843
13.70065711847355 2.813415984056913 5.399275557721584 5.487965576695055
9.948337903432495 2.243068419718977 3.691352442644266 4.013917041069257
7.061606845327516 1.8066534588656888 2.39802510467088 2.856928281790947
4.8672888362553905 1.4703052759768631 1.4636048309171588 1.9333787293613687
3.209204653652548 1.197432395311558 0.8098089574463095 1.2019633008946804
1.966734532160061 0.9567379639143281 0.3683159212674407 0.6416806469782923
1.0934071126044884 0.7603203591738315 0.10867266361963777 0.22441408981101954
0.5404830395533673 0.5114464134376684 0.009171509939395805 0.01986511617630311
0.24367069506942113 0.24367675568852099 1.250171478254335e-05 -1.8562333882412077e-05
0.07702312647993434 0.07702312647993434 0.0 0.0
0.01152565458742325 0.01152565458742325 0.0 0.0
0.0004278731376474523 0.0004278731376474523 0.0 0.0
CELL_DATA 800
SCALARS Stress float 6
LOOKUP_TABLE default
127.31613979214589 -494.7156088428784 -186.2253808796416 -101.90085332198738 0.0 0.0
393.52392580280394 21.837381839055293 126.92761196563295 66.39612664135691 0.0 0.0
364.49998536412255 -3.1555978094520567 108.20713026149642 -8.181785436029006 0.0 0.0
427.0626323278323 -2.22964738027267 127.06329178244593 -11.101682476521045 0.0 0.0
495.2306629614392 -9.306535465759604 157.35023046175385 -10.688808446770505 0.0 0.0
560.116222382061 3.6082590375963317 214.78733343474306 -8.859025755198395 0.0 0.0
621.4784201907161 14.074667027343523 272.2553957778995 -8.865720761894337 0.0 0.0
682.0884104727975 33.11237938354033 329.22862778781615 -9.580666548776023 0.0 0.0
742.8915487065892 57.63673545213696 383.04348411568594 -10.27537731313983 0.0 0.0
804.3089373100466 85.7473617310437 434.190681435291 -10.66593718618618 0.0 0.0
866.172145078167 115.20877814014588 483.1261952208073 -10.769754074492809 0.0 0.0
928.736685720557 146.46202108431547 531.5765429790861 -10.707725882585843 0.0 0.0
992.909582612228 177.96471509079285 580.0442987547834 -10.639513103987994 0.0 0.0
1059.1522214731883 210.6745671722162 629.7572275891391 -10.583141815153253 0.0 0.0
1128.1195906793937 246.4594485807535 682.2175020020422 -10.480647900157816 0.0 0.0
1199.3037074875047 286.08316057893296 737.682505935711 -10.124731999426395 0.0 0.0
1270.0305843735073 328.5560072516223 794.3667507044752 -9.303033923698138 0.0 0.0
1335.6371298186746 370.78974385232016 848.3460539024973 -7.885329324439073 0.0 0.0
1391.062157001162 409.0893173380742 895.1838735333044 -6.252774235993619 0.0 0.0
1440.3092205742926 449.2327422980561 939.4986739564617 -5.93618521867035 0.0 0.0
1440.3092205741639 449.2327422979318 939.4986739563308 5.936185218678358 0.0 0.0
1391.0621570009816 409.08931733790894 895.1838735331256 6.252774236042476 0.0 0.0
1335.6371298181705 370.7897438518475 848.3460539020365 7.885329324424093 0.0 0.0
1270.0305843734552 328.55600725161605 794.3667507043125 9.303033923672267 0.0 0.0
1199.303707487421 286.08316057890795 737.682505935526 10.124731999465077 0.0 0.0
1128.119590679664 246.45944858109976 682.2175020021558 10.480647900160609 0.0 0.0
1059.152221473164 210.67456717227975 629.7572275890437 10.583141815175935 0.0 0.0
992.9095826123861 177.96471509106624 580.0442987548017 10.639513103976086 0.0 0.0
928.7366857205589 146.4620210844612 531.5765429789891 10.707725882595541 0.0 0.0
866.1721450779016 115.20877814003859 483.12619522052915 10.769754074544757 0.0 0.0
804.3089373098392 85.74736173101103 434.1906814350519 10.665937186146603 0.0 0.0
742.8915487062751 57.636735452008594 383.0434841153837 10.2753773130997 0.0 0.0
682.0884104723905 33.112379383322086 329.2286277874564 9.580666548731214 0.0 0.0
621.4784201902528 14.074667027098151 272.2553957774904 8.86572076186349 0.0 0.0
560.116222381856 3.608259037651056 214.78733343451967 8.859025755203124 0.0 0.0
495.23066296120095 -9.306535465726396 157.35023046160518 10.688808446781248 0.0 0.0
427.06263232763183 -2.22964738021201 127.06329178241668 11.10168247649856 0.0 0.0
364.49998536399437 -3.155597809425066 108.20713026146919 8.181785436026141 0.0 0.0
393.5239258027713 21.83738183911151 126.92761196562023 -66.39612664131795 0.0 0.0
127.31613979269542 -494.7156088423502 -186.22538087911283 101.90085332164261 0.0 0.0
38.229837054486495 -521.6608029493041 -232.89919645041982 -140.18669403973936 0.0 0.0
231.9925032003464 25.224380215505263 77.16506502475548 17.700106765967632 0.0 0.0
322.4197055174591 15.137579773709831 101.26669546102276 -9.57849710043031 0.0 0.0
382.2575736140659 -0.9209726428920676 114.21792672008198 -30.729414643481054 0.0 0.0
464.1606984948891 -10.683677539549748 139.7710103673933 -30.660949995387803 0.0 0.0
533.0880683836872 1.1326600713750743 193.13735365043968 -26.911766935562618 0.0 0.0
599.5760139951736 11.384195982772685 252.03630855449384 -27.144782032820654 0.0 0.0
660.9533580164215 28.87226913279234 310.040391783603 -28.013931831277052 0.0 0.0
720.271719636205 51.27381390448139 363.9802039234395 -28.846496377112352 0.0 0.0
779.1259732937531 76.90370748392078 414.18529247771573 -29.11139062544065 0.0 0.0
837.9286598566277 103.9285334345638 461.51166431263545 -28.763113066493982 0.0 0.0
897.2442799497885 131.08519987909247 506.9901771797522 -28.110914262197667 0.0 0.0
957.0673694093393 159.13853340472542 551.9325353738834 -27.440404178655157 0.0 0.0
1019.0568289726461 188.24210229031257 597.8971635880612 -26.96049718651831 0.0 0.0
1083.6306058148257 219.89150349961196 646.2060474345753 -26.4923514700567 0.0 0.0
1149.9879905168514 254.93844593716622 697.0287525272013 -25.51876121106857 0.0 0.0
1215.8597616387717 292.60184532043684 748.8933005674253 -23.559539001944792 0.0 0.0
1277.6810635884717 330.8500722186568 798.9842782536825 -20.432270676424114 0.0 0.0
1333.4389825738922 369.28107071516325 845.995742943778 -16.549778940775063 0.0 0.0
1371.2470800671263 397.3950658940615 878.8253007739398 -10.834430399200334 0.0 0.0
1371.2470800671372 397.3950658940782 878.8253007738991 10.834430399225038 0.0 0.0
1333.4389825739217 369.28107071521663 845.9957429437802 16.549778940859582 0.0 0.0
1277.6810635885802 330.85007221880034 798.9842782537543 20.432270676467724 0.0 0.0
1215.85976163849 292.6018453201966 748.8933005671329 23.559539001963277 0.0 0.0
1149.9879905163682 254.93844593673595 697.0287525268078 25.518761211080456 0.0 0.0
1083.6306058141672 219.8915034990112 646.20604743399 26.492351470072023 0.0 0.0
1019.0568289719586 188.2421022897039 597.8971635874387 26.96049718651588 0.0 0.0
957.0673694085622 159.13853340404236 551.9325353732652 27.44040417866868 0.0 0.0
897.2442799492883 131.0851998787316 506.9901771793567 28.11091426228525 0.0 0.0
837.9286598564676 103.92853343457548 461.51166431246617 28.763113066526422 0.0 0.0
779.1259732932675 76.9037074835854 414.18529247731044 29.111390625366987 0.0 0.0
720.271719635829 51.2738139042869 363.98020392310417 28.84649637712817 0.0 0.0
660.9533580159434 28.872269132502222 310.0403917831827 28.01393183121412 0.0 0.0
599.5760139947209 11.384195982546931 252.03630855408608 27.14478203282619 0.0 0.0
533.0880683834542 1.1326600714412969 193.13735365023004 26.91176693554393 0.0 0.0
464.16069849467857 -10.683677539414536 139.77101036731682 30.660949995361612 0.0 0.0
382.2575736139072 -0.9209726427969169 114.21792672006717 30.72941464343721 0.0 0.0
322.4197055173164 15.137579773564681 101.26669546093676 9.57849710046319 0.0 0.0
231.9925032005371 25.22438021570288 77.16506502487198 -17.70010676607118 0.0 0.0
38.22983705487499 -521.6608029488964 -232.89919644999998 140.18669403947695 0.0 0.0
-0.7202482893825675 -517.1774195326682 -238.21980985278873 -153.99820386175892 0.0 0.0
135.09814939412541 12.124308145528419 44.16673726189615 -34.31668642420171 0.0 0.0
262.45873785498435 23.907167849736446 85.90977171141623 -27.27259536282654 0.0 0.0
337.54629034810534 2.539608359503476 102.0125236249664 -48.38543598724362 0.0 0.0
420.9873250090999 -6.706999578470741 124.81581448152484 -52.238321838903424 0.0 0.0
504.5186907501956 -5.151645948377649 168.36388019347396 -47.78558681930059 0.0 0.0
572.8711975846268 9.795592040768094 229.18779913179623 -45.69116953158621 0.0 0.0
634.9352631056072 24.42286131074895 287.1332758659529 -46.44204004976028 0.0 0.0
693.8498100613339 44.84889590229277 341.7686495979501 -47.1296525102469 0.0 0.0
750.5551305051923 67.90492495538686 391.49376656690583 -47.098628973935504 0.0 0.0
806.3596442436303 91.85657085850175 437.19785852795695 -46.31201361215591 0.0 0.0
861.7138607996324 116.03983858912403 480.176705487751 -45.057737007488015 0.0 0.0
918.2550258481945 140.0113583729977 521.9790263637454 -43.93090274960336 0.0 0.0
976.1032549265271 165.64794733323126 564.4348487345068 -43.04560032979753 0.0 0.0
1035.9586689421935 193.07410325431402 608.409184269623 -42.24840419813137 0.0 0.0
1097.3374219031725 223.2023497212423 654.3548764383597 -40.78001655641004 0.0 0.0
1158.3108745050602 255.8165109374741 701.2485087584671 -37.94275732439645 0.0 0.0
1217.2743584000657 290.85705425950476 748.2869534174598 -33.37267568219144 0.0 0.0
1269.1130264806343 324.7174799805558 791.1165249817745 -26.581709362256912 0.0 0.0
1302.8435946401491 347.8199575655853 819.4908878913354 -15.41175662239326 0.0 0.0
1302.8435946402274 347.81995756567284 819.4908878913868 15.411756622443132 0.0 0.0
1269.113026480779 324.71747998073187 791.1165249818387 26.58170936238149 0.0 0.0
1217.2743583997717 290.8570542592505 748.2869534172208 33.372675682268145 0.0 0.0
1158.3108745051309 255.81651093759854 701.2485087584503 37.94275732446372 0.0 0.0
1097.3374219033283 223.20234972146014 654.3548764383519 40.780016556436834 0.0 0.0
1035.958668941823 193.0741032540181 608.4091842693049 42.24840419819679 0.0 0.0
976.1032549258376 165.6479473326117 564.43484873398 43.045600329786424 0.0 0.0
918.2550258477606 140.01135837266176 521.9790263633157 43.930902749598765 0.0 0.0
861.7138607990082 116.0398385886408 480.17670548719474 45.057737007562565 0.0 0.0
806.3596442430733 91.85657085809697 437.19785852750147 46.31201361220266 0.0 0.0
750.5551305047625 67.90492495511175 391.49376656654437 47.09862897386148 0.0 0.0
693.8498100608714 44.848895901998205 341.7686495975388 47.12965251019925 0.0 0.0
634.9352631052268 24.42286131055746 287.13327586557966 46.44204004969511 0.0 0.0
572.8711975840882 9.795592040466204 229.18779913136504 45.691169531620645 0.0 0.0
504.5186907497146 -5.151645948598805 168.36388019314387 47.785586819269945 0.0 0.0
420.98732500883807 -6.706999578344743 124.81581448147323 52.23832183890993 0.0 0.0
337.54629034793095 2.5396083595730836 102.01252362493761 48.385435987215686 0.0 0.0
262.4587378549695 23.907167849760597 85.90977171141903 27.27259536274434 0.0 0.0
135.09814939432664 12.124308145748863 44.16673726202265 34.316686424017036 0.0 0.0
-0.720248289103651 -517.1774195322672 -238.2198098523982 153.99820386159098 0.0 0.0
-12.787300762569046 -496.77529356777995 -222.19783555436166 -156.91864781254267 0.0 0.0
78.22697385955098 -4.149285163372791 22.22330660885345 -78.35832204727193 0.0 0.0
203.98672933268492 25.973758696202047 68.9881464086661 -52.30392527858378 0.0 0.0
289.2207331260907 6.2681374086177115 88.64127304869874 -66.80625486725987 0.0 0.0
370.0624532603893 -3.1825080561526073 110.02454089086154 -74.30117482015386 0.0 0.0
460.8908673128644 -7.856386501579497 144.22060921913356 -71.05748444336649 0.0 0.0
538.0793504874358 5.833039413274792 201.19725097699663 -65.22234868508752 0.0 0.0
603.7095925714107 20.621188757125584 260.7533932610075 -65.20125411010636 0.0 0.0
662.41231542778 38.1702959314255 315.4224478931756 -65.1793975048555 0.0 0.0
717.38846430853 58.49132682865057 364.9638656819474 -64.71438088307595 0.0 0.0
770.5404224563104 79.56174156534716 409.70301702849525 -63.450920179523834 0.0 0.0
822.9836853567315 100.54180418203487 450.92222326019925 -61.668946159142344 0.0 0.0
875.3372576065461 121.09264057815179 489.73588396195356 -60.080270415040346 0.0 0.0
929.7390317295725 142.92790226092052 529.0184567018132 -58.92122911900428 0.0 0.0
985.2718604573187 165.9943632447815 568.8766348338917 -57.80108549899591 0.0 0.0
1040.9089065276944 191.13196526269155 609.5434147717796 -55.91037222741573 0.0 0.0
1097.2353679147982 218.8054787851553 651.6489584757545 -52.51428048804923 0.0 0.0
1152.222759818921 249.10063639612923 694.3307561718425 -46.588317873455374 0.0 0.0
1200.710776109616 278.3465913575076 733.2366616985718 -36.737451931841406 0.0 0.0
1232.7965701717662 298.23792312240585 759.2568318563078 -20.282222803017426 0.0 0.0
1232.7965701717303 298.2379231223847 759.2568318562649 20.282222803163478 0.0 0.0
1200.710776108883 278.3465913568124 733.236661698011 36.73745193200122 0.0 0.0
1152.2227598181737 249.10063639541227 694.3307561712783 46.58831787354322 0.0 0.0
1097.235367914361 218.80547878477773 651.648958475404 52.51428048815416 0.0 0.0
1040.9089065274657 191.13196526251153 609.5434147715499 55.91037222740543 0.0 0.0
985.2718604572418 165.9943632447957 568.8766348337533 57.80108549908628 0.0 0.0
929.7390317296117 142.92790226106635 529.0184567017408 58.92122911906968 0.0 0.0
875.3372576066398 121.09264057838328 489.73588396191724 60.080270415114306 0.0 0.0
822.9836853566524 100.54180418208493 450.9222232600823 61.66894615914231 0.0 0.0
770.5404224556977 79.56174156485761 409.70301702798554 63.450920179493394 0.0 0.0
717.388464307966 58.491326828230015 364.9638656814746 64.71438088302853 0.0 0.0
662.4123154275098 38.170295931361196 315.4224478929059 65.17939750485601 0.0 0.0
603.7095925709914 20.621188756899485 260.7533932606342 65.2012541100276 0.0 0.0
538.079350486981 5.833039413086251 201.19725097663928 65.22234868507178 0.0 0.0
460.89086731248767 -7.856386501591382 144.22060921893936 71.05748444328913 0.0 0.0
370.06245326018154 -3.1825080559361956 110.02454089087031 74.3011748200687 0.0 0.0
289.2207331259499 6.268137408719171 88.64127304868775 66.80625486715815 0.0 0.0
203.9867293326856 25.973758696269428 68.98814640868649 52.30392527849625 0.0 0.0
78.22697385970562 -4.149285163163155 22.22330660896274 78.35832204705842 0.0 0.0
-12.78730076241925 -496.7752935674537 -222.19783555404092 156.9186478124286 0.0 0.0
-12.36549672419693 -467.2332050708168 -195.95868500870046 -155.54490665803897 0.0 0.0
43.39693793316466 -18.96447019342672 7.329740321921381 -112.12561117066886 0.0 0.0
152.29669947319883 23.865082460260872 52.84853458003791 -78.71407527155291 0.0 0.0
238.59376949879942 9.722791205530763 74.49496821129904 -86.02087388599531 0.0 0.0
316.22670995456866 -0.169766081524374 94.74551653002034 -95.11331233848634 0.0 0.0
406.60440907659074 -7.267378950275249 122.12424508952856 -95.64883134654653 0.0 0.0
495.09765029073685 0.228974894406325 170.0197891722043 -88.05059873423104 0.0 0.0
565.96672537068 16.623823371770296 229.6754331457691 -83.8942940459708 0.0 0.0
624.6847734658202 31.460675694928764 284.19699042893467 -83.26984744268216 0.0 0.0
678.8018141268637 48.8099476001642 333.7892311516926 -82.10319119485094 0.0 0.0
729.8843624838507 66.89361468961886 378.0745550915018 -80.30590974450452 0.0 0.0
779.2007410622757 84.66317337109795 417.87598897405877 -77.98585932324238 0.0 0.0
828.5760693412998 102.05112843764658 454.89689423778816 -76.04221296753599 0.0 0.0
878.408892752082 120.19874911059657 490.79321450521775 -74.52495201648745 0.0 0.0
929.4121092991421 138.99974624889492 526.6030581301883 -73.15798772462806 0.0 0.0
981.0108817251205 159.11636109612476 562.9082873415521 -71.04584736387694 0.0 0.0
1031.6197659681238 181.29340519654448 599.4532634163068 -67.22130232046636 0.0 0.0
1081.7873835140356 205.9130775947952 636.897619791965 -60.117968279741625 0.0 0.0
1127.395602628405 230.33014778210995 672.0101422715766 -47.38211514763263 0.0 0.0
1159.3548467603803 247.69818188367626 696.7869379270123 -25.807578329077653 0.0 0.0
1159.3548467603127 247.6981818836219 696.786937926973 25.80757832920721 0.0 0.0
1127.3956026283656 230.33014778211964 672.0101422716054 47.38211514780237 0.0 0.0
1081.7873835135204 205.91307759433897 636.897619791599 60.1179682799099 0.0 0.0
1031.6197659674995 181.2934051959787 599.4532634158268 67.2213023205715 0.0 0.0
981.0108817248038 159.11636109586226 562.9082873412939 71.04584736389616 0.0 0.0
929.4121092985587 138.99974624838023 526.6030581297388 73.15798772466533 0.0 0.0
878.4088927519877 120.1987491105899 490.79321450511975 74.52495201652734 0.0 0.0
828.5760693415584 102.0511284380658 454.8968942379272 76.04221296766013 0.0 0.0
779.2007410621584 84.66317337112561 417.8759889739016 77.98585932327454 0.0 0.0
729.884362483707 66.89361468962946 378.0745550913304 80.30590974447131 0.0 0.0
678.8018141265597 48.8099476000153 333.7892311513749 82.103191194783 0.0 0.0
624.68477346548 31.460675694800702 284.19699042861544 83.26984744267801 0.0 0.0
565.9667253702988 16.623823371641333 229.67543314542212 83.89429404592903 0.0 0.0
495.0976502903064 0.22897489427109363 170.01978917190624 88.05059873422734 0.0 0.0
406.6044090760457 -7.267378950509276 122.12424508927356 95.64883134647515 0.0 0.0
316.22670995431 -0.16976608155094475 94.74551652993775 95.11331233841982 0.0 0.0
238.59376949865555 9.722791205554515 74.49496821126303 86.02087388584158 0.0 0.0
152.29669947312678 23.8650824601568 52.84853457998507 78.71407527138851 0.0 0.0
43.39693793324339 -18.964470193289273 7.329740321986234 112.12561117049701 0.0 0.0
-12.365496724100815 -467.2332050704862 -195.9586850084028 155.54490665794373 0.0 0.0
-6.93583692413889 -431.8483781622312 -166.0491317177038 -152.35409327058215 0.0 0.0
19.81018620659546 -31.270555759711662 -3.43811086593486 -136.6712223894771 0.0 0.0
107.50804158333881 19.702005341048554 38.163014077316205 -103.16241779016423 0.0 0.0
187.8993493442879 12.76437476202059 60.199117231892544 -104.8718403826694 0.0 0.0
259.30733516187354 1.2152650168691272 78.11422187627834 -114.60774120067563 0.0 0.0
337.2891050829062 -4.856426843704902 100.70898811603143 -118.46865759098576 0.0 0.0
431.56665058607405 -2.5146792003173117 138.44759462253796 -113.64774270939486 0.0 0.0
514.3456162701013 10.200201973997917 191.80334686329525 -105.25721032216362 0.0 0.0
579.0855941192963 24.65276300186463 247.07344268802967 -101.54050353914242 0.0 0.0
632.9677098753136 39.00855016900853 296.5132060764368 -99.48298250077767 0.0 0.0
682.150710742362 53.684486217989985 340.3454286391294 -96.97309896147806 0.0 0.0
729.32632062776 68.48232955033234 379.7998068569496 -94.20128971066445 0.0 0.0
775.5010006358972 82.90844405270246 415.62810809354846 -91.80618689801398 0.0 0.0
821.9176049011054 97.4092135538039 449.288502778203 -90.06017837595286 0.0 0.0
868.6309259578411 111.95292440174161 481.50782372555955 -88.48218485479148 0.0 0.0
914.5397658785189 127.5492043222471 513.0158192474406 -86.05673939306595 0.0 0.0
960.3627996346788 143.75652812478555 544.3170099776843 -82.07982795317693 0.0 0.0
1005.1650274231447 161.42541509543076 575.6670488801036 -74.07645195517867 0.0 0.0
1047.441634596124 180.39165028778913 606.4569205549386 -58.81907408321645 0.0 0.0
1080.5365881941232 195.42252468148794 630.7337825293768 -32.37997970433934 0.0 0.0
1080.536588194057 195.42252468144437 630.73378252936 32.37997970444158 0.0 0.0
1047.4416345959164 180.39165028764626 606.456920554795 58.819074083422805 0.0 0.0
1005.1650274231718 161.4254150955535 575.6670488800614 74.07645195539888 0.0 0.0
960.362799634524 143.75652812473692 544.3170099775216 82.07982795333945 0.0 0.0
914.5397658779525 127.54920432170307 513.0158192469933 86.05673939300726 0.0 0.0
868.6309259574178 111.95292440134784 481.50782372520683 88.48218485474672 0.0 0.0
821.9176049007659 97.4092135535588 449.28850277792156 90.0601783760105 0.0 0.0
775.501000635634 82.90844405254353 415.6281080933197 91.80618689804069 0.0 0.0
729.3263206277577 68.48232955048655 379.7998068568638 94.20128971070265 0.0 0.0
682.1507107419596 53.68448621771907 340.34542863876504 96.97309896143976 0.0 0.0
632.9677098747997 39.00855016864716 296.5132060760316 99.48298250074497 0.0 0.0
579.0855941189482 24.652763001733437 247.073442687732 101.54050353913539 0.0 0.0
514.345616269761 10.20020197396991 191.80334686302845 105.25721032217731 0.0 0.0
431.5666505858587 -2.514679200008434 138.4475946224791 113.64774270943047 0.0 0.0
337.28910508264516 -4.856426843524953 100.70898811600158 118.46865759089067 0.0 0.0
259.30733516168357 1.2152650169535884 78.1142218762485 114.60774120056189 0.0 0.0
187.89934934423187 12.764374762167368 60.19911723191976 104.87184038253596 0.0 0.0
107.50804158338764 19.70200534125859 38.16301407739387 103.16241779000518 0.0 0.0
19.810186206626422 -31.270555759582496 -3.438110865886821 136.6712223892668 0.0 0.0
-6.935836924075453 -431.8483781619257 -166.049131717451 152.35409327047427 0.0 0.0
-1.4803586684622232 -391.43392763117913 -136.00717701000085 -147.80546699940376 0.0 0.0
1.367814590948099 -42.49648742509258 -12.338601850243341 -154.03718636638817 0.0 0.0
68.32654557802822 15.346130760850274 25.101802901663547 -124.04256186778674 0.0 0.0
138.2366181777263 14.805361445145909 45.91259388686166 -122.3452259297153 0.0 0.0
200.43069615222737 3.366003050501761 61.12812886041631 -131.48640169536304 0.0 0.0
268.0607958562517 -3.3791862104700465 79.30458438297413 -139.6037730805069 0.0 0.0
351.3830311754472 -2.572866432636844 107.7068245816007 -138.42029359126144 0.0 0.0
441.2874151433498 4.549428938136904 150.24835841261762 -130.30071908157325 0.0 0.0
516.8633035543251 16.398893391401373 201.19568610509748 -121.7259694502991 0.0 0.0
575.959370410639 29.160892655721685 250.97212860539938 -117.1743416626668 0.0 0.0
624.228467242616 40.08623838157733 293.9771933532959 -113.80775007046981 0.0 0.0
670.0457290855477 51.97645295114899 333.65625858189446 -110.47292942752905 0.0 0.0
713.8219732269218 63.26925949015347 369.3145388038878 -107.64865392129255 0.0 0.0
756.8220571012208 74.6909890325592 401.94776785338155 -105.57303888690276 0.0 0.0
798.8631828062698 85.09720811251341 431.19806677612155 -103.78993977571652 0.0 0.0
840.8332761148511 96.0755051808218 459.17195385395297 -101.25832469382887 0.0 0.0
880.8916909721667 106.65914298584823 485.12638316457156 -96.9510345466798 0.0 0.0
919.2772224912354 116.57589963946495 509.61272628063364 -88.38988596866538 0.0 0.0
958.1561859166957 127.90319605679281 534.9967270469017 -71.45212733898194 0.0 0.0
993.943510592693 140.39002384623626 559.4788708601054 -40.618006544060805 0.0 0.0
993.9435105924016 140.390023845958 559.4788708598707 40.61800654416166 0.0 0.0
958.1561859166511 127.90319605686092 534.9967270468894 71.45212733928747 0.0 0.0
919.2772224911656 116.57589963952891 509.6127262806333 88.38988596891879 0.0 0.0
880.8916909715531 106.65914298532256 485.12638316412125 96.95103454680887 0.0 0.0
840.833276114593 96.07550518060087 459.171953853704 101.25832469381737 0.0 0.0
798.8631828062968 85.0972081126231 431.19806677609796 103.7899397757199 0.0 0.0
756.8220571012954 74.69098903275935 401.947767853409 105.57303888700594 0.0 0.0
713.8219732264293 63.26925948979309 369.3145388035233 107.64865392136751 0.0 0.0
670.0457290851198 51.97645295078278 333.6562585815117 110.4729294274744 0.0 0.0
624.2284672425117 40.08623838163544 293.97719335314787 113.8077500704334 0.0 0.0
575.9593704103963 29.160892655683394 250.97212860513895 117.17434166264042 0.0 0.0
516.8633035539854 16.398893391355188 201.19568610482762 121.72596945030773 0.0 0.0
441.28741514283195 4.549428937906239 150.24835841228753 130.30071908154042 0.0 0.0
351.3830311747978 -2.5728664330847915 107.70682458125472 138.4202935911983 0.0 0.0
268.0607958557496 -3.3791862109853623 79.30458438267311 139.6037730803555 0.0 0.0
200.43069615194452 3.3660030502283487 61.128128860250975 131.48640169519646 0.0 0.0
138.23661817766867 14.80536144518221 45.912593886855255 122.34522592958186 0.0 0.0
68.32654557803677 15.346130760969833 25.101802901701973 124.04256186759032 0.0 0.0
1.3678145908867183 -42.49648742507923 -12.338601850257755 154.03718636620243 0.0 0.0
-1.4803586684576082 -391.43392763084694 -136.00717700980204 147.80546699932052 0.0 0.0
-0.8695188201121695 -347.90698187159546 -110.90736496893513 -142.36640653543205 0.0 0.0
-14.866925086309763 -51.94899920864542 -20.044777288486554 -164.68037118033686 0.0 0.0
33.47764452416931 11.513909707608239 13.497466269533264 -141.13003747696274 0.0 0.0
90.11967093982547 15.947412448749148 31.820125016572383 -137.3558331899938 0.0 0.0
140.71123455313744 6.195087976769676 44.065177606491986 -145.47748486995377 0.0 0.0
192.1843867542629 -1.5795081679385272 57.17637081889676 -155.85871388317955 0.0 0.0
255.34409887500615 -2.3219574714670537 77.00213456775 -160.31097660354678 0.0 0.0
340.50837399801765 2.6924297906710772 108.18559025905162 -156.21617081217377 0.0 0.0
425.99899952993655 7.645574657777191 147.30238114033068 -146.62433810065403 0.0 0.0
494.3417091146971 18.462376352802185 192.85069302156535 -136.60986447500522 0.0 0.0
548.6531659462142 26.16020194278141 234.75615795336597 -131.93755101044627 0.0 0.0
593.5219707151201 34.71595726010875 273.57187321030176 -127.27241506039988 0.0 0.0
636.0179854975217 43.452588036308114 310.0144036768617 -123.87544775958203 0.0 0.0
676.6739529090646 51.56958790991005 343.0582056526698 -121.41348111505224 0.0 0.0
715.8956307200699 58.785345107211896 372.19820987014464 -119.37222795572747 0.0 0.0
752.5895258537745 64.61469281717336 396.9050643226216 -116.63027329805642 0.0 0.0
788.655383888422 69.98959496350751 419.286396158645 -112.15056578407051 0.0 0.0
821.4436354813122 72.48624650458729 437.9825561911905 -102.83446135655608 0.0 0.0
853.0580007749408 72.86775654996796 454.64490239941745 -85.20906194451781 0.0 0.0
891.7189427721617 80.72446803570321 478.3987802093009 -51.33390292599277 0.0 0.0
891.7189427722769 80.72446803586698 478.39878020944275 51.33390292615198 0.0 0.0
853.0580007749766 72.86775655013108 454.6449023995235 85.20906194481556 0.0 0.0
821.4436354809856 72.48624650436366 437.9825561909484 102.83446135677016 0.0 0.0
788.6553838884051 69.98959496364924 419.2863961585942 112.1505657842574 0.0 0.0
752.5895258536556 64.61469281715141 396.90506432249305 116.63027329811712 0.0 0.0
715.8956307200386 58.785345107259886 372.198209870092 119.37222795575687 0.0 0.0
676.6739529092144 51.569587910245154 343.05820565276764 121.41348111518016 0.0 0.0
636.0179854973454 43.452588036304576 310.01440367673734 123.87544775971963 0.0 0.0
593.521970714717 34.7159572598616 273.57187321001544 127.27241506045561 0.0 0.0
548.6531659456514 26.16020194228591 234.7561579529083 131.9375510103794 0.0 0.0
494.3417091144187 18.46237635272868 192.85069302132754 136.6098644749307 0.0 0.0
425.9989995294531 7.645574657582527 147.3023811400514 146.6243381006854 0.0 0.0
340.5083739975527 2.6924297906147583 108.18559025886846 156.21617081218832 0.0 0.0
255.344098874814 -2.3219574712590196 77.00213456774456 160.31097660342624 0.0 0.0
192.1843867540657 -1.5795081679713032 57.17637081882832 155.85871388301203 0.0 0.0
140.71123455314742 6.195087976985734 44.06517760656085 145.4774848697972 0.0 0.0
90.11967093974835 15.9474124486795 31.82012501652835 137.35583318984226 0.0 0.0
33.477644524079636 11.513909707484405 13.49746626946921 141.13003747677595 0.0 0.0
-14.866925086367145 -51.948999208654755 -20.04477728850657 164.68037118019595 0.0 0.0
-0.8695188201793371 -347.90698187128686 -110.90736496881574 142.36640653528877 0.0 0.0
-9.322023787247309 -303.3730349426951 -94.89151847113757 -134.46227369694617 0.0 0.0
-29.611046029572613 -58.53841627530799 -26.44387094593138 -171.24134485164004 0.0 0.0
2.0225989831958686 8.283308758147744 3.0917723224030826 -154.0140278560704 0.0 0.0
43.76173027109766 16.540065252462067 18.090538657067913 -149.2563337463867 0.0 0.0
80.51211705835992 8.924123423886574 26.827801169832437 -155.98975187550383 0.0 0.0
115.01089534745032 1.3697832211251542 34.8817164615504 -167.47349874484524 0.0 0.0
154.99994615971193 -1.5491165730254863 46.34861825548358 -176.38247011256496 0.0 0.0
208.24738566757384 1.0191737822097209 64.62578906192677 -176.68219645455338 0.0 0.0
279.3604299470745 3.5516050739060336 89.26826912348562 -172.40588587087566 0.0 0.0
356.8154193612586 7.2977665380552015 120.41642737802911 -162.04156041261433 0.0 0.0
425.2143032612231 13.00968512935322 155.953585624649 -153.03494022039743 0.0 0.0
476.9674111522966 17.058711507830537 189.99472760178946 -146.76624959567977 0.0 0.0
521.4003528785902 23.037928577042152 224.77741113745446 -141.93178159037922 0.0 0.0
562.1331479616995 28.3838855151765 258.6353075908072 -138.39214170726157 0.0 0.0
599.279925894715 32.28837441725448 289.171413947189 -135.49458404914432 0.0 0.0
632.3476088943207 33.81105867258538 314.3359584456608 -132.3593857249433 0.0 0.0
664.1221265518594 32.63497523735187 334.65778764171847 -127.84685329911157 0.0 0.0
697.763513579481 30.149002027304668 353.53643404380676 -117.53160918260562 0.0 0.0
723.4006320775082 17.39499320443913 362.47519461527423 -99.55593846257229 0.0 0.0
761.4469619963675 12.307604527540306 379.9071301885012 -65.54370827422088 0.0 0.0
761.4469619965068 12.307604527732991 379.90713018862857 65.54370827441018 0.0 0.0
723.4006320775763 17.3949932046811 362.47519461535035 99.55593846294789 0.0 0.0
697.7635135796182 30.149002027719263 353.5364340439136 117.53160918303718 0.0 0.0
664.1221265517701 32.63497523743409 334.6577876416587 127.8468532992575 0.0 0.0
632.3476088939029 33.81105867216573 314.33595844534574 132.3593857249104 0.0 0.0
599.2799258943406 32.28837441684977 289.17141394688923 135.49458404911894 0.0 0.0
562.1331479614346 28.383885514990915 258.6353075906019 138.39214170734633 0.0 0.0
521.4003528789855 23.03792857770433 224.77741113768423 141.93178159055347 0.0 0.0
476.9674111523535 17.058711508234577 189.9947276018349 146.76624959575912 0.0 0.0
425.21430326073903 13.0096851288743 155.95358562427975 153.0349402203006 0.0 0.0
356.81541936088206 7.297766537923181 120.41642737782983 162.04156041254168 0.0 0.0
279.36042994660625 3.5516050736280977 89.26826912324647 172.40588587089866 0.0 0.0
208.24738566723835 1.019173782028945 64.62578906176294 176.68219645452564 0.0 0.0
154.99994615964135 -1.5491165728268212 46.34861825551858 176.38247011241475 0.0 0.0
115.01089534747607 1.3697832214081567 34.88171646164409 167.47349874467272 0.0 0.0
80.51211705830424 8.924123423816301 26.827801169795325 155.98975187526977 0.0 0.0
43.76173027113102 16.540065252586164 18.090538657115154 149.2563337462084 0.0 0.0
2.02259898328394 8.283308758374591 3.091772322497559 154.01402785587078 0.0 0.0
-29.61104602965008 -58.53841627537442 -26.443870945974822 171.24134485147897 0.0 0.0
-9.322023787315354 -303.37303494241775 -94.89151847106542 134.4622736967927 0.0 0.0
-17.577500450856608 -259.0853324564122 -82.95129852599936 -124.53111112175979 0.0 0.0
-42.066592885672215 -61.479335954399815 -31.06136456869237 -173.73427464891353 0.0 0.0
-26.80033034269256 5.439821074675996 -6.408000155498146 -162.79861000360805 0.0 0.0
-0.8391429446371004 16.7436605129788 4.771125564633505 -157.51873757864195 0.0 0.0
20.516075399138504 11.43610778530207 9.583780384897118 -162.62291670286456 0.0 0.0
36.642215268653835 4.6585737550596775 12.382400485513044 -173.8193586854723 0.0 0.0
51.65970770879231 0.7252718247286101 15.811196093803774 -184.15240076948788 0.0 0.0
70.1758124510646 -0.02806815179392519 21.402597610919706 -189.56452071360073 0.0 0.0
95.37398878560133 1.1593491022140467 30.02581044629874 -186.11781508068566 0.0 0.0
124.56061783268596 1.4823893152837684 39.90674717466786 -181.84196543712974 0.0 0.0
160.9587083115054 3.5594577020998592 53.33383080602655 -173.00518175409817 0.0 0.0
200.9841861305161 4.2846661974394635 68.06273623245472 -167.6014382664291 0.0 0.0
245.02124510366187 6.133975489885575 86.12598865294243 -163.2580571166949 0.0 0.0
287.9817479633204 7.5912801768595415 107.5942084807331 -158.6650353323131 0.0 0.0
331.3100744191172 9.52810645114144 133.24948255811373 -154.12087096302955 0.0 0.0
379.00282265656125 4.748775927462603 160.5738077268895 -149.6169613501852 0.0 0.0
422.0252560501523 -4.214832984598246 184.1548199473848 -143.8485913506356 0.0 0.0
470.37019738451664 -15.510777067508243 210.12316004720762 -134.57794405143926 0.0 0.0
525.622044210321 -28.202648138780432 238.52041726765887 -113.67135693970172 0.0 0.0
551.2991335241144 -76.18759731200213 233.6906446082871 -81.56615163736387 0.0 0.0
551.2991335239967 -76.18759731211924 233.6906446081835 81.56615163757044 0.0 0.0
525.6220442098772 -28.202648139102408 238.52041726739617 113.67135694015467 0.0 0.0
470.37019738396845 -15.51077706813058 210.12316004685124 134.57794405172447 0.0 0.0
422.0252560494236 -4.214832985636036 184.15481994687536 143.84859135065798 0.0 0.0
379.0028226563893 4.748775926938507 160.57380772666284 149.61696135013904 0.0 0.0
331.31007441922225 9.528106451338559 133.24948255817253 154.1208709630335 0.0 0.0
287.98174796347485 7.591280177149475 107.5942084808717 158.6650353324231 0.0 0.0
245.0212451037217 6.133975489803515 86.12598865292995 163.25805711677765 0.0 0.0
200.9841861306503 4.28466619776793 68.06273623258889 167.6014382664569 0.0 0.0
160.95870831176165 3.559457702637671 53.3338308062525 173.005181754107 0.0 0.0
124.5606178327615 1.4823893154734282 39.90674717474266 181.84196543704348 0.0 0.0
95.37398878566721 1.1593491024759022 30.02581044639424 186.11781508073602 0.0 0.0
70.17581245112987 -0.028068151552911758 21.402597611008943 189.56452071360278 0.0 0.0
51.65970770878161 0.7252718247718164 15.81119609381291 184.15240076937036 0.0 0.0
36.64221526865516 4.658573755036787 12.382400485506858 173.81935868520642 0.0 0.0
20.51607539899409 11.436107784923236 9.583780384740349 162.62291670263852 0.0 0.0
-0.8391429446441845 16.743660512889775 4.771125564604714 157.51873757850538 0.0 0.0
-26.800330342737155 5.4398210745338575 -6.408000155554275 162.7986100034001 0.0 0.0
-42.066592885687726 -61.479335954357055 -31.061364568684926 173.73427464871395 0.0 0.0
-17.57750045084117 -259.08533245615143 -82.95129852591941 124.53111112162915 0.0 0.0
-21.420859030373613 -216.08056919792318 -71.25042846848903 -113.26327440012142 0.0 0.0
-52.337780244637244 -61.07627965241074 -34.022753541061306 -172.4421544372389 0.0 0.0
-53.3598429947526 3.0283801963672246 -15.098911025910784 -167.3494095928104 0.0 0.0
-43.7478734677913 16.5794583770964 -8.149946893490235 -161.8709443986901 0.0 0.0
-38.76097289911966 13.584393510939599 -7.548688483035541 -165.05815191570798 0.0 0.0
-41.88122495595003 7.829334480627292 -10.204164622845795 -174.85595825295945 0.0 0.0
-52.236912737756 3.2445271840814427 -14.791953150054441 -184.38102064737544 0.0 0.0
-69.69629992112388 0.5885894858734693 -21.089054111301337 -189.5790937459694 0.0 0.0
-94.95012190387604 -1.3409165015302182 -29.948021508813326 -186.09533735129295 0.0 0.0
-124.2779552140972 -1.621695140282771 -39.8607770402337 -181.82868788358186 0.0 0.0
-160.75309111609 -3.5074693117749103 -53.237769065182434 -173.0058738840105 0.0 0.0
-200.98944589744661 -3.8579449303040967 -67.90253983108659 -167.51686666479324 0.0 0.0
-246.13738917696554 -5.3510413403043025 -86.19420769736286 -163.00540606036492 0.0 0.0
-290.7359837865964 -7.907312216957852 -108.8245031575594 -158.43961515733648 0.0 0.0
-332.1189583737206 -12.73240403588349 -135.2586518846616 -154.80115420877888 0.0 0.0
-367.4989996003211 -20.174626681336093 -162.17004202572528 -153.6591996210117 0.0 0.0
-373.9202318239945 -28.452728301459487 -178.01399367855572 -154.39124852991696 0.0 0.0
-327.24153013575744 -44.96753183410458 -173.77881560738257 -158.23367334171493 0.0 0.0
-175.05131087750618 -39.95018717308038 -106.56735098715731 -155.5388645641002 0.0 0.0
39.73847697363989 -157.14608663203626 -49.82151159993828 -109.21965649910365 0.0 0.0
39.73847697359159 -157.1460866321121 -49.821511600014816 109.21965649944862 0.0 0.0
-175.0513108776261 -39.95018717318848 -106.56735098722751 155.5388645645255 0.0 0.0
-327.24153013584146 -44.967531834276556 -173.77881560747335 158.23367334201748 0.0 0.0
-373.92023182379126 -28.452728301263974 -178.01399367840315 154.39124852997486 0.0 0.0
-367.49899960009213 -20.17462668134054 -162.17004202561702 153.65919962100037 0.0 0.0
-332.118958373382 -12.732404035573744 -135.2586518844394 154.80115420878693 0.0 0.0
-290.7359837860387 -7.9073122164087835 -108.82450315719188 158.43961515736302 0.0 0.0
-246.13738917654607 -5.351041340390363 -86.19420769723138 163.00540606042262 0.0 0.0
-200.98944589722885 -3.8579449308442193 -67.9025398311667 167.51686666482072 0.0 0.0
-160.7530911159901 -3.507469312580117 -53.23776906537227 173.0058738840118 0.0 0.0
-124.27795521397385 -1.6216951408282085 -39.86077704034932 181.82868788352397 0.0 0.0
-94.95012190381948 -1.3409165020144451 -29.948021508937337 186.0953373513636 0.0 0.0
-69.69629992097055 0.5885894858282912 -21.08905411126727 189.5790937459404 0.0 0.0
-52.23691273760669 3.2445271842216785 -14.791953149965815 184.38102064724328 0.0 0.0
-41.88122495577943 7.829334480795933 -10.204164622744422 174.85595825274657 0.0 0.0
-38.76097289899697 13.584393510953305 -7.548688482994988 165.058151915535 0.0 0.0
-43.74787346780714 16.579458376880254 -8.149946893560092 161.87094439854766 0.0 0.0
-53.359842994682666 3.0283801964497137 -15.098911025865446 167.3494095926256 0.0 0.0
-52.337780244591514 -61.07627965231204 -34.022753541018396 172.44215443712093 0.0 0.0
-21.420859030354695 -216.0805691977403 -71.25042846842848 113.26327440004349 0.0 0.0
-22.331679194691823 -175.63375214680457 -59.38962940244891 -101.6627728822328 0.0 0.0
-60.87679604232103 -57.89622575990076 -35.63175575277461 -167.2468748655396 0.0 0.0
-77.99175226847377 1.128610017779402 -23.057985773802194 -167.66287922374224 0.0 0.0
-84.99398504799383 16.05866030173645 -20.67486439342953 -162.15913872559588 0.0 0.0
-96.9146846850751 15.181319221145468 -24.5106996758512 -163.0800214883419 0.0 0.0
-119.47404942762046 10.501787826434525 -32.706878729497326 -170.1870113881577 0.0 0.0
-155.4497930801511 5.293896443700717 -45.36327474241024 -177.20287367952338 0.0 0.0
-207.86226164845021 -0.5351183031939772 -64.36028784125855 -176.72114032925245 0.0 0.0
-278.9340522272746 -3.7478131470038782 -89.20316937739753 -172.32035125260097 0.0 0.0
-356.6169059089892 -7.420980903618025 -120.38191338564728 -161.99005796107133 0.0 0.0
-425.0888294016394 -12.978545499136345 -155.89458619035832 -153.00899305524288 0.0 0.0
-476.83989382849563 -16.685297028204864 -189.8115583326205 -146.6114782739853 0.0 0.0
-521.4716618898377 -22.270333442972458 -224.49439747924174 -141.40089224028355 0.0 0.0
-563.0908343257865 -28.47355703902508 -259.1284144172679 -137.92513203841122 0.0 0.0
-602.7568381821303 -36.742400220155204 -292.89934597023637 -136.44588497145892 0.0 0.0
-638.5145680707951 -47.84401937134166 -323.9278806505164 -137.8435929507816 0.0 0.0
-669.5897885702541 -64.87795953658788 -352.695710085908 -144.02267297317917 0.0 0.0
-691.740652427703 -88.77815422812638 -377.63702110824323 -155.69179661637415 0.0 0.0
-722.0184755147297 -141.82654844054662 -416.2677602094762 -165.80563608649697 0.0 0.0
-685.8319447668606 -192.3922017597347 -415.2707636559712 -164.14966806779412 0.0 0.0
-685.8319447665153 -192.39220175943382 -415.2707636557917 164.14966806804375 0.0 0.0
-722.0184755145378 -141.82654844044362 -416.26776020936825 165.80563608676206 0.0 0.0
-691.7406524278509 -88.77815422851072 -377.6370211083415 155.6917966166498 0.0 0.0
-669.5897885697724 -64.87795953630106 -352.69571008557534 144.02267297333685 0.0 0.0
-638.5145680701485 -47.844019370676094 -323.92788065001764 137.84359295073244 0.0 0.0
-602.7568381820959 -36.74240022031297 -292.8993459702074 136.4458849715447 0.0 0.0
-563.0908343256343 -28.473557039001435 -259.12841441711106 137.9251320384378 0.0 0.0
-521.4716618890616 -22.270333442319618 -224.49439747871364 141.40089224031868 0.0 0.0
-476.83989382771745 -16.685297027610112 -189.81155833207507 146.6114782739819 0.0 0.0
-425.0888294012271 -12.978545499204955 -155.89458619014 153.00899305525502 0.0 0.0
-356.61690590847354 -7.420980903801507 -120.38191338547287 161.99005796106363 0.0 0.0
-278.9340522266201 -3.747813146783681 -89.20316937711688 172.32035125265105 0.0 0.0
-207.86226164799282 -0.5351183029892663 -64.36028784104978 176.72114032920513 0.0 0.0
-155.4497930798594 5.2938964437251155 -45.363274742309954 177.20287367941015 0.0 0.0
-119.4740494274534 10.501787826375718 -32.70687872946681 170.18701138794262 0.0 0.0
-96.91468468489524 15.181319221120996 -24.51069967580535 163.08002148813594 0.0 0.0
-84.99398504781324 16.058660301932605 -20.674864393317083 162.15913872539883 0.0 0.0
-77.99175226839085 1.1286100178062628 -23.05798577376974 167.66287922359137 0.0 0.0
-60.87679604229467 -57.89622575988964 -35.63175575276351 167.24687486537172 0.0 0.0
-22.331679194691457 -175.63375214668983 -59.389629402414386 101.66277288211856 0.0 0.0
-22.671095197748986 -138.33032164173522 -48.30042505184525 -89.9832596584269 0.0 0.0
-68.41435380047562 -52.46211350483044 -36.26294019159182 -158.34008135335074 0.0 0.0
-100.99385110140415 -0.19023793395321587 -30.352276569988753 -163.75107111557992 0.0 0.0
-124.58210539606668 15.178777141432459 -32.810226892185284 -158.26865787973713 0.0 0.0
-153.6273987964555 15.992823035299889 -41.275863951524656 -156.65086103783727 0.0 0.0
-195.68471768208056 12.48588267651908 -54.92355087377422 -160.40956431921947 0.0 0.0
-255.706561616133 5.550340256851203 -76.1632122013693 -161.32456309660503 0.0 0.0
-340.152453666135 -2.2578206110470553 -107.93339977353469 -156.36697148995862 0.0 0.0
-425.89178033495443 -7.820791725585625 -147.27628342747118 -146.50023514994442 0.0 0.0
-494.36026687749745 -18.560295772363503 -192.87112083062368 -136.5285705514057 0.0 0.0
-548.6566754880621 -26.17214707389277 -234.7716731712428 -131.9129168833902 0.0 0.0
-593.4259602054108 -34.465307856760276 -273.4307214793848 -127.12000645626372 0.0 0.0
-635.7647401110155 -42.69466062903177 -309.52071250857705 -123.30229403968423 0.0 0.0
-677.079925283128 -51.306936242773524 -343.0201293068509 -120.670149394768 0.0 0.0
-718.8451810829005 -62.05778444828225 -375.18428458677226 -119.77346848718673 0.0 0.0
-759.4711081901781 -76.10305176446337 -406.20093222989726 -121.60864038605222 0.0 0.0
-798.5098811729672 -95.78573929798958 -437.3625214242509 -128.08043474734745 0.0 0.0
-842.7311247003195 -132.2141273591872 -477.5193281541908 -138.22813234857443 0.0 0.0
-889.7178998507236 -187.17312417561263 -526.6343739775582 -148.10146311791502 0.0 0.0
-939.7716316960725 -281.2912520326428 -590.6476663289421 -153.30947750901262 0.0 0.0
-939.7716316961742 -281.29125203294956 -590.6476663291094 153.30947750927982 0.0 0.0
-889.7178998507736 -187.17312417582667 -526.6343739776607 148.10146311815396 0.0 0.0
-842.7311246997149 -132.21412735868256 -477.519328153793 138.22813234872115 0.0 0.0
-798.5098811728299 -95.78573929795014 -437.3625214241323 128.08043474744798 0.0 0.0
-759.471108190126 -76.10305176456853 -406.20093222990243 121.60864038612476 0.0 0.0
-718.8451810827203 -62.05778444812686 -375.18428458661225 119.77346848715447 0.0 0.0
-677.0799252832064 -51.30693624306209 -343.0201293068727 120.6701493948768 0.0 0.0
-635.764740110993 -42.69466062924821 -309.52071250854635 123.3022940397913 0.0 0.0
-593.4259602053561 -34.465307856991686 -273.43072147931264 127.12000645630366 0.0 0.0
-548.6566754877208 -26.17214707380656 -234.77167317096254 131.91291688335957 0.0 0.0
-494.36026687693254 -18.56029577207687 -192.8711208302089 136.5285705513357 0.0 0.0
-425.8917803346222 -7.820791725817546 -147.27628342732507 146.5002351500169 0.0 0.0
-340.15245366572367 -2.2578206112388495 -107.93339977342819 156.36697149000076 0.0 0.0
-255.70656161579973 5.550340256563667 -76.16321220134911 161.32456309652045 0.0 0.0
-195.6847176817693 12.485882676605238 -54.92355087365464 160.40956431902146 0.0 0.0
-153.62739879607253 15.992823035592966 -41.27586395132295 156.6508610376443 0.0 0.0
-124.58210539592022 15.178777141404215 -32.81022689215084 158.2686578795841 0.0 0.0
-100.9938511012719 -0.19023793385800447 -30.35227656992133 163.75107111540242 0.0 0.0
-68.41435380039637 -52.462113504762925 -36.26294019154778 158.340081353197 0.0 0.0
-22.671095197708425 -138.33032164157294 -48.3004250517844 89.98325965831376 0.0 0.0
-23.094789022136823 -104.59267368586887 -38.3062388124017 -78.14938174363415 0.0 0.0
-75.54650652716214 -45.433626158771894 -36.2940398057802 -146.1172046443347 0.0 0.0
-122.62693781446471 -0.8775932259208461 -37.04856737967895 -155.68476630872033 0.0 0.0
-162.63452823398492 13.770775468910943 -44.64790879603089 -150.2231261858899 0.0 0.0
-208.34557268957656 16.262730938088634 -57.58990913493392 -145.82350253989887 0.0 0.0
-268.6420705284081 12.218453373698203 -77.23825375337077 -144.5633614714768 0.0 0.0
-351.28004883667177 5.736899112825215 -106.68987179504757 -140.37606144737842 0.0 0.0
-441.1371821506183 -4.3889890990614795 -150.11381931454292 -130.30253015997033 0.0 0.0
-516.9349868414348 -16.542875958546247 -201.22350859545145 -121.57279636633389 0.0 0.0
-576.0256930816104 -29.269105199721857 -251.04423224945836 -117.08261551666938 0.0 0.0
-624.2504778074914 -40.097336878358604 -294.0064581237871 -113.80103211633495 0.0 0.0
-670.0094388574373 -51.87668462274746 -333.60653930828977 -110.36099660798645 0.0 0.0
-713.5119813175683 -62.66587857975381 -368.8604389302461 -107.09937848070432 0.0 0.0
-756.6541762324418 -74.00224133588276 -401.4265672191022 -104.60876013349022 0.0 0.0
-800.4847860346224 -86.71704192391496 -432.75367615773416 -103.70895883364051 0.0 0.0
-845.9730435889023 -103.80410209739392 -465.78558407770004 -105.49652105860078 0.0 0.0
-894.7190297413749 -129.93248932977343 -503.76600592486585 -110.79165481614908 0.0 0.0
-952.163710878153 -174.6413501294116 -554.3848797297476 -119.71933841258621 0.0 0.0
-1018.0006032345814 -243.41658046760182 -619.961910619317 -128.8096425325794 0.0 0.0
-1087.8556093512489 -349.41844384107276 -701.9082125212379 -136.45365643831906 0.0 0.0
-1087.8556093511893 -349.4184438411661 -701.9082125212669 136.45365643856263 0.0 0.0
-1018.0006032342937 -243.4165804674411 -619.9619106191208 128.80964253277682 0.0 0.0
-952.1637108778727 -174.64135012921957 -554.3848797295001 119.71933841273949 0.0 0.0
-894.719029741226 -129.93248932976945 -503.76600592473096 110.79165481631762 0.0 0.0
-845.9730435885156 -103.8041020970881 -465.7855840773367 105.49652105862984 0.0 0.0
-800.4847860340343 -86.717041923415 -432.75367615726 103.70895883369897 0.0 0.0
-756.6541762322568 -74.00224133579681 -401.4265672189426 104.60876013349794 0.0 0.0
-713.5119813179284 -62.66587858034947 -368.8604389304371 107.0993784808139 0.0 0.0
-670.0094388571761 -51.87668462266656 -333.60653930804153 110.360996607984 0.0 0.0
-624.2504778071361 -40.09733687819275 -294.0064581234616 113.80103211629546 0.0 0.0
-576.0256930811652 -29.26910519953819 -251.0442322490772 117.08261551663597 0.0 0.0
-516.934986840996 -16.542875958481925 -201.22350859511164 121.57279636638148 0.0 0.0
-441.1371821500363 -4.388989098944721 -150.11381931421474 130.30253016006375 0.0 0.0
-351.28004883608804 5.7368991129429086 -106.6898717948052 140.37606144732314 0.0 0.0
-268.6420705280783 12.218453373605652 -77.23825375330273 144.56336147134758 0.0 0.0
-208.34557268929177 16.26273093802112 -57.589909134870155 145.82350253971757 0.0 0.0
-162.63452823375061 13.770775469005816 -44.64790879593329 150.22312618570402 0.0 0.0
-122.62693781431274 -0.8775932258107084 -37.048567379601074 155.6847663085702 0.0 0.0
-75.54650652708821 -45.43362615875241 -36.294039805752185 146.11720464422794 0.0 0.0
-23.094789022093188 -104.59267368575638 -38.30623881235487 78.1493817435861 0.0 0.0
-23.747052043916952 -74.8099336666119 -29.56709571315865 -65.99731825842635 0.0 0.0
-82.50579519898979 -37.386754121963946 -35.96776479628611 -130.95858847710406 0.0 0.0
-143.1608619657008 -1.0543372749903064 -43.26455977220733 -143.62008502808527 0.0 0.0
-199.19875794219462 12.115795467453822 -56.105343158886974 -138.0629156555214 0.0 0.0
-261.390053863789 14.944259629608194 -73.83164221527979 -130.8155603442233 0.0 0.0
-337.6561415586303 12.166228720228396 -98.72492449476522 -124.4963558600468 0.0 0.0
-430.52423352361564 4.597419253774293 -137.5662428402096 -114.89136109142612 0.0 0.0
-514.2933226964719 -10.145611443163236 -191.72209142836365 -105.24981521223934 0.0 0.0
-579.2811118210227 -24.823690247244578 -247.18839267916906 -101.34424494659974 0.0 0.0
-633.0683843267726 -39.0823485483794 -296.60123903993394 -99.42434954172509 0.0 0.0
-682.1846474089646 -53.70369783722317 -340.38477910242204 -96.9668364522767 0.0 0.0
-729.3779723979496 -68.52498795041745 -379.85436305180156 -94.12624326096925 0.0 0.0
-775.3000772117929 -82.60786525840066 -415.39165594107493 -91.34033760427413 0.0 0.0
-821.1660758557452 -96.38387488885309 -448.37519499383865 -89.0549432622474 0.0 0.0
-868.1710806267677 -111.35883225945777 -480.9651664057294 -88.04693951693739 0.0 0.0
-917.9996798216316 -131.97794101352696 -517.0715765326635 -89.06427096841271 0.0 0.0
-976.1609834558501 -164.4549488894245 -562.5163897925688 -93.0037743190948 0.0 0.0
-1046.4885907219466 -218.97726752618598 -624.3853964726718 -100.45367588143927 0.0 0.0
-1126.7415877959922 -300.5644465677344 -704.0275463468444 -110.0627462207588 0.0 0.0
-1197.807648039433 -408.22696306920244 -788.9585104591421 -124.16734968752539 0.0 0.0
-1197.8076480393684 -408.22696306925627 -788.9585104591429 124.16734968771789 0.0 0.0
-1126.7415877964393 -300.56444656829314 -704.0275463471489 110.06274622095754 0.0 0.0
-1046.488590722167 -218.9772675265072 -624.385396472796 100.4536758816094 0.0 0.0
-976.1609834557457 -164.4549488894414 -562.5163897924549 93.00377431924662 0.0 0.0
-917.9996798216869 -131.97794101364704 -517.0715765326606 89.06427096839803 0.0 0.0
-868.1710806269281 -111.35883225973075 -480.96516640581314 88.04693951701566 0.0 0.0
-821.1660758554226 -96.38387488861682 -448.3751949935695 89.05494326226227 0.0 0.0
-775.3000772108563 -82.60786525758661 -415.39165594041737 91.3403376043265 0.0 0.0
-729.3779723973441 -68.5249879499575 -379.85436305133334 94.12624326097364 0.0 0.0
-682.1846474086597 -53.70369783711737 -340.38477910213817 96.96683645225957 0.0 0.0
-633.0683843264325 -39.08234854825213 -296.6012390396037 99.42434954167106 0.0 0.0
-579.2811118206763 -24.82369024717957 -247.1883926788549 101.3442449465976 0.0 0.0
-514.2933226959755 -10.145611443038424 -191.72209142799267 105.2498152122949 0.0 0.0
-430.52423352288554 4.597419254166386 -137.56624283979474 114.89136109140213 0.0 0.0
-337.65614155792497 12.166228720658658 -98.72492449442984 124.49635585991653 0.0 0.0
-261.3900538635496 14.944259629427439 -73.83164221526552 130.81556034411017 0.0 0.0
-199.19875794206814 12.115795467232374 -56.10534315891694 138.0629156553878 0.0 0.0
-143.1608619656266 -1.0543372751232165 -43.26455977222494 143.62008502794436 0.0 0.0
-82.50579519896044 -37.386754122030666 -35.967764796297324 130.9585884769546 0.0 0.0
-23.74705204388029 -74.80993366655481 -29.56709571313053 65.99731825834309 0.0 0.0
-24.519573428947037 -49.35944655108018 -22.16370599400816 -53.38467540776104 0.0 0.0
-89.17500840837184 -28.83194559356817 -35.402086200582 -113.17217008328512 0.0 0.0
-162.7599258748565 -0.7963214142018895 -49.06687418671751 -127.72761523098531 0.0 0.0
-234.4318659710915 9.87677916104935 -67.35620590942338 -121.82501927171165 0.0 0.0
-311.32522998288835 12.892466159185386 -89.5397629364328 -111.63146420495254 0.0 0.0
-402.1906725487215 12.37568856132107 -120.02339897369845 -101.61798278808118 0.0 0.0
-493.8262701314692 1.2380138038750381 -169.20776048929295 -89.19000038478949 0.0 0.0
-566.1357091694143 -16.71509549591798 -229.7249766671832 -83.64294232852848 0.0 0.0
-624.9200801618806 -31.63754813345612 -284.3698836824433 -83.10916000467833 0.0 0.0
-678.8614532735548 -48.84047124447842 -333.849009243321 -82.0706790480251 0.0 0.0
-729.9262190214265 -66.91798355173079 -378.11598126309536 -80.29797053393314 0.0 0.0
-779.32469614871 -84.80847796015625 -418.0113705080519 -77.92566197063684 0.0 0.0
-828.5421919490202 -102.08230597220253 -454.9225631489459 -75.7075022867272 0.0 0.0
-877.2592156340047 -119.06591144865577 -489.6949442445565 -73.7038217520967 0.0 0.0
-927.0791057478543 -136.52452927510896 -524.2146899747265 -72.46620991356443 0.0 0.0
-982.2633849075341 -160.27542930056285 -564.1691539891132 -72.53823781663887 0.0 0.0
-1047.4344093198097 -198.865250997271 -616.022799901037 -74.66144766528708 0.0 0.0
-1128.9707296518145 -263.03071381520704 -688.2522631660688 -80.89890286715035 0.0 0.0
-1219.811812380737 -354.3605284384646 -778.4966374328009 -92.61062270965118 0.0 0.0
-1293.0478006030953 -464.9596047906502 -867.1511871349693 -115.38919279950683 0.0 0.0
-1293.0478006030428 -464.95960479067196 -867.1511871349489 115.38919279965855 0.0 0.0
-1219.8118123805534 -354.36052843833346 -778.4966374326425 92.61062270977628 0.0 0.0
-1128.9707296514139 -263.03071381487734 -688.2522631657871 80.89890286729721 0.0 0.0
-1047.4344093195612 -198.86525099706975 -616.02279990086 74.66144766531386 0.0 0.0
-982.2633849073125 -160.27542930038774 -564.1691539888858 72.53823781661073 0.0 0.0
-927.0791057468999 -136.52452927421692 -524.2146899739952 72.46620991357904 0.0 0.0
-877.2592156334408 -119.06591144816436 -489.6949442440858 73.70382175208258 0.0 0.0
-828.54219194882 -102.08230597213002 -454.9225631487642 75.70750228673597 0.0 0.0
-779.3246961487249 -84.80847796033125 -418.01137050801486 77.92566197064315 0.0 0.0
-729.9262190211127 -66.9179835516097 -378.1159812628168 80.29797053393007 0.0 0.0
-678.8614532727839 -48.840471243822535 -333.84900924271415 82.07067904787364 0.0 0.0
-624.920080161435 -31.63754813323231 -284.3698836820343 83.10916000465116 0.0 0.0
-566.1357091691985 -16.71509549606901 -229.72497666694898 83.64294232857023 0.0 0.0
-493.82627013086324 1.2380138041864033 -169.2077604888728 89.19000038476858 0.0 0.0
-402.1906725481704 12.375688561407067 -120.02339897346977 101.61798278799439 0.0 0.0
-311.3252299826372 12.892466158946267 -89.53976293643618 111.63146420486885 0.0 0.0
-234.4318659708511 9.876779160998357 -67.35620590936817 121.8250192716126 0.0 0.0
-162.75992587469918 -0.7963214141710591 -49.06687418666107 127.72761523087107 0.0 0.0
-89.1750084082631 -28.831945593494112 -35.40208620052715 113.17217008317836 0.0 0.0
-24.5195734289395 -49.35944655103234 -22.163705993991552 53.384675407686316 0.0 0.0
-25.089069701356898 -28.609599035687985 -16.109600621113465 -40.26724967223462 0.0 0.0
-95.06782278303075 -20.21908676796647 -34.586072865299165 -93.0103898724337 0.0 0.0
-181.4442817854973 -0.21571552779510572 -54.49799919398772 -108.00376167915638 0.0 0.0
-268.9255103830071 6.798792791837656 -78.62853011530896 -101.70800232168028 0.0 0.0
-359.61180329174954 11.340462548654955 -104.49927661801712 -89.61147042776916 0.0 0.0
-456.6183638649615 11.717428487634676 -141.79284822115017 -76.39527623519497 0.0 0.0
-537.3771012659643 -5.1284767493236565 -200.68280073269526 -65.56259165780385 0.0 0.0
-604.1067621520922 -20.857592106168774 -261.00710639544747 -64.87731681768096 0.0 0.0
-662.5928768350018 -38.27183398202175 -315.5707598663327 -65.07140179291977 0.0 0.0
-717.4306705220347 -58.50398603888364 -365.0063093697016 -64.7034892908143 0.0 0.0
-770.5899882461241 -79.59672886313233 -409.7488156667587 -63.43460328012941 0.0 0.0
-823.1336763738614 -100.73647226825709 -451.09591959725196 -61.608269845715924 0.0 0.0
-875.3712002943363 -121.30102688917421 -489.89253253309107 -59.88705471658985 0.0 0.0
-928.6000943736319 -142.02394735315835 -528.0751594803398 -58.42093213933717 0.0 0.0
-982.1938005674865 -162.90191400137655 -565.8351318382465 -57.051854273869566 0.0 0.0
-1039.437268974058 -189.12490271170554 -607.8260824312329 -55.89990230610327 0.0 0.0
-1110.257742884484 -231.78095053426134 -664.5094573153108 -56.13579658031139 0.0 0.0
-1200.6959876442693 -303.21991544728974 -744.7867980142705 -61.354522666747215 0.0 0.0
-1302.9397394075806 -404.9771220803942 -846.1629833749204 -76.00609714470937 0.0 0.0
-1383.400320222911 -523.7394441484355 -943.5115116854946 -108.29072627376142 0.0 0.0
-1383.4003202229937 -523.7394441485752 -943.5115116856001 108.29072627389544 0.0 0.0
-1302.939739407565 -404.97712208042 -846.1629833749314 76.00609714480555 0.0 0.0
-1200.69598764401 -303.2199154470984 -744.7867980140607 61.35452266691091 0.0 0.0
-1110.2577428844702 -231.7809505342944 -664.5094573152206 56.13579658032839 0.0 0.0
-1039.437268973804 -189.1249027115052 -607.8260824309734 55.899902306095726 0.0 0.0
-982.1938005670252 -162.90191400098362 -565.8351318378883 57.05185427387823 0.0 0.0
-928.6000943732716 -142.02394735287987 -528.0751594800369 58.420932139333196 0.0 0.0
-875.3712002936436 -121.3010268885858 -489.8925325325484 59.88705471657728 0.0 0.0
-823.1336763729595 -100.73647226746272 -451.09591959656245 61.6082698456549 0.0 0.0
-770.5899882456305 -79.59672886281541 -409.7488156663443 63.43460328015293 0.0 0.0
-717.430670521948 -58.50398603901468 -365.0063093695453 64.70348929079995 0.0 0.0
-662.5928768344932 -38.27183398171748 -315.57075986589473 65.07140179288578 0.0 0.0
-604.1067621516255 -20.85759210595714 -261.0071063950314 64.87731681768143 0.0 0.0
-537.3771012655734 -5.128476749275245 -200.68280073235886 65.56259165781083 0.0 0.0
-456.61836386445043 11.717428487738228 -141.79284822087305 76.39527623513038 0.0 0.0
-359.61180329135715 11.34046254861098 -104.49927661791965 89.61147042772399 0.0 0.0
-268.9255103826843 6.79879279195646 -78.6285301151781 101.70800232157227 0.0 0.0
-181.44428178534895 -0.2157155278047136 -54.497999193946086 108.0037616790315 0.0 0.0
-95.06782278292575 -20.21908676791536 -34.58607286525233 93.01038987233548 0.0 0.0
-25.089069701354568 -28.609599035673643 -16.10960062110846 40.26724967219939 0.0 0.0
-24.828804232184293 -12.905180613929813 -11.32019545383423 -26.80129580968275 0.0 0.0
-99.23294480959684 -11.960494539007453 -33.35803180458128 -70.6340520775399 0.0 0.0
-199.22816214860063 0.4269768928246176 -59.64035557673279 -84.25443566511024 0.0 0.0
-303.07222468781737 3.0446260857043255 -89.99774310779249 -77.79799298715781 0.0 0.0
-405.857284865833 11.682147775068858 -118.61877412609908 -65.10976786510003 0.0 0.0
-500.43547684348084 7.543473305566717 -165.87544211700597 -51.489880863711264 0.0 0.0
-573.1009660082345 -10.014236487941524 -229.345746340681 -45.527357208559714 0.0 0.0
-635.3331792239513 -24.59945630838633 -287.44998474447465 -46.156180338924386 0.0 0.0
-693.9631061851924 -44.87910108672491 -341.87031760238983 -47.0759114591107 0.0 0.0
-750.5972679688584 -67.91578821925373 -391.5301148596817 -47.09658875019092 0.0 0.0
-806.4215348599232 -91.915018276665 -437.2581608831051 -46.28966228939325 0.0 0.0
-861.8255494283139 -116.2238499804361 -480.33245697849554 -45.00026293696477 0.0 0.0
-918.224147728778 -140.19913216201604 -522.0979681417847 -43.847662756474215 0.0 0.0
-975.2701571036816 -165.14049482962062 -563.8449550706603 -42.84841260140769 0.0 0.0
-1033.553963045048 -190.83490776554947 -606.1486258248901 -41.66940635044764 0.0 0.0
-1094.7915065547886 -220.3431606830901 -651.6483757885355 -39.772033944535664 0.0 0.0
-1163.63426029304 -260.7129377254967 -706.2770125687963 -37.883884483190805 0.0 0.0
-1259.5230299500392 -336.2300105177919 -791.2834322381542 -41.52621945600435 0.0 0.0
-1377.9206693082135 -452.0051834868 -907.6744361980949 -59.07269831326823 0.0 0.0
-1477.5514482334243 -589.0310347274685 -1024.713042974828 -101.31350576977586 0.0 0.0
-1477.5514482331673 -589.0310347272775 -1024.713042974667 101.3135057699163 0.0 0.0
-1377.9206693080323 -452.0051834866483 -907.6744361979686 59.07269831333451 0.0 0.0
-1259.5230299497082 -336.2300105175028 -791.2834322379186 41.52621945608966 0.0 0.0
-1163.6342602931866 -260.712937725685 -706.2770125688576 37.88388448318018 0.0 0.0
-1094.7915065542386 -220.34316068260907 -651.6483757881388 39.772033944634174 0.0 0.0
-1033.5539630443477 -190.83490776491763 -606.1486258243617 41.6694063504693 0.0 0.0
-975.2701571031753 -165.14049482920288 -563.8449550702817 42.848412601411695 0.0 0.0
-918.2241477286111 -140.1991321619712 -522.0979681415992 43.84766275651321 0.0 0.0
-861.8255494277304 -116.22384998000334 -480.3324569779968 45.0002629369894 0.0 0.0
-806.421534859439 -91.91501827635385 -437.25816088270426 46.28966228939848 0.0 0.0
-750.5972679688684 -67.91578821946602 -391.5301148596057 47.096588750158105 0.0 0.0
-693.9631061849855 -44.87910108675404 -341.87031760215564 47.07591145911458 0.0 0.0
-635.3331792235446 -24.59945630820106 -287.4499847440816 46.15618033885976 0.0 0.0
-573.1009660078939 -10.014236487896355 -229.3457463403454 45.527357208521494 0.0 0.0
-500.435476843041 7.543473305670651 -165.87544211669783 51.4898808636668 0.0 0.0
-405.8572848654551 11.682147774954107 -118.61877412601365 65.10976786506873 0.0 0.0
-303.07222468756663 3.044626085657718 -89.99774310773296 77.79799298707762 0.0 0.0
-199.2281621485103 0.4269768926315267 -59.640355576763625 84.25443566501843 0.0 0.0
-99.23294480951584 -11.960494539055091 -33.35803180457128 70.63405207747266 0.0 0.0
-24.828804232163947 -12.905180613942823 -11.320195453832028 26.80129580963471 0.0 0.0
-22.55164173912491 -2.5158942317382773 -7.520260791258955 -13.499996079065534 0.0 0.0
-100.09716780078271 -4.568630776418998 -31.39973957316051 -46.048525617992965 0.0 0.0
-216.10239747617277 0.862299147666036 -64.57202949855201 -55.89333939270648 0.0 0.0
-337.9101177137928 -0.9720598154635933 -101.6252893665847 -50.42097089787638 0.0 0.0
-447.6892823799444 14.445397485862909 -132.38840151666426 -39.8455110404947 0.0 0.0
-530.853475357626 -0.532733263127799 -191.383293397317 -28.354340640214033 0.0 0.0
-600.435911931964 -12.122300473400443 -252.76458411246801 -26.827918999009125 0.0 0.0
-661.1233052726028 -28.94383164843184 -310.2963409519605 -27.863873319283357 0.0 0.0
-720.3454186554169 -51.25488604976619 -364.04471799103385 -28.812633999588357 0.0 0.0
-779.178568609095 -76.9252303540595 -414.2269050813271 -29.11273500401552 0.0 0.0
-837.997578357401 -104.01205425845319 -461.5870456663828 -28.742736923636613 0.0 0.0
-897.2696893641054 -131.21093268618498 -507.0814550784957 -28.070685668266457 0.0 0.0
-956.9077714522746 -159.20048657614296 -551.9270227849504 -27.42369126881989 0.0 0.0
-1018.593889957912 -188.08728695189916 -597.6564057121062 -26.929508952572462 0.0 0.0
-1082.798123639638 -219.36388146539701 -645.5865415824887 -26.13633958768682 0.0 0.0
-1148.8687302574717 -254.10675425414414 -696.019937903601 -24.33140704607385 0.0 0.0
-1216.3638405006407 -293.6980909058983 -749.63820835111 -21.2173808572459 0.0 0.0
-1292.1799477435009 -348.05807166055416 -814.3219729776858 -21.211288341832663 0.0 0.0
-1444.190741810029 -493.48032596654934 -961.7096884702831 -39.599429543823824 0.0 0.0
-1586.4183711254518 -669.6863823740937 -1120.7018996875693 -92.52893020502322 0.0 0.0
-1586.4183711253477 -669.6863823740368 -1120.7018996874958 92.52893020513504 0.0 0.0
-1444.1907418097028 -493.4803259662476 -961.7096884699853 39.599429543885094 0.0 0.0
-1292.179947742753 -348.05807165983816 -814.321972977023 21.211288341856708 0.0 0.0
-1216.3638405002507 -293.6980909055501 -749.6382083506805 21.217380857218053 0.0 0.0
-1148.8687302572366 -254.10675425396954 -696.0199379033213 24.331407046079185 0.0 0.0
-1082.7981236395979 -219.36388146543072 -645.5865415823106 26.13633958769706 0.0 0.0
-1018.5938899574654 -188.08728695155375 -597.6564057116437 26.929508952649766 0.0 0.0
-956.9077714521624 -159.20048657615834 -551.9270227847808 27.423691268843843 0.0 0.0
-897.2696893638105 -131.2109326860404 -507.08145507823957 28.070685668269196 0.0 0.0
-837.9975783568735 -104.0120542580938 -461.58704566590694 28.742736923620157 0.0 0.0
-779.178568608537 -76.92523035368367 -414.22690508084327 29.11273500400602 0.0 0.0
-720.3454186548988 -51.25488604944925 -364.0447179905852 28.81263399961992 0.0 0.0
-661.1233052721166 -28.94383164817161 -310.29634095152255 27.863873319288807 0.0 0.0
-600.4359119313674 -12.122300473047568 -252.76458411194943 26.827918999004975 0.0 0.0
-530.8534753570748 -0.53273326285181 -191.3832933968995 28.3543406401957 0.0 0.0
-447.68928237949774 14.445397485920749 -132.38840151647202 39.845511040463464 0.0 0.0
-337.91011771361116 -0.9720598156930587 -101.62528936660269 50.4209708977928 0.0 0.0
-216.10239747598845 0.8622991476352162 -64.57202949850597 55.893339392668054 0.0 0.0
-100.09716780068237 -4.568630776412595 -31.39973957312849 46.04852561796094 0.0 0.0
-22.55164173909842 -2.5158942317494195 -7.5202607912543495 13.499996079050588 0.0 0.0
-15.943107138631397 2.4070133257424304 -4.06082814386669 -1.5365993727615241 0.0 0.0
-95.11075580163576 1.3448160890994263 -28.129781913760894 -18.841023128676532 0.0 0.0
-232.52834443993595 0.14525672445528848 -69.7149263146442 -21.8437081541187 0.0 0.0
-374.47372405696944 -1.3919792366679218 -112.67693593376433 -20.257172156746538 0.0 0.0
-484.7651861065334 13.3566905717981 -149.2805610188257 -14.24626783952819 0.0 0.0
-560.6691096280911 -5.713703254406223 -214.95680710155176 -8.555635209078455 0.0 0.0
-622.0451991260555 -14.499471302451369 -272.91684690616756 -8.793043680568903 0.0 0.0
-682.4167078121887 -33.18279481149603 -329.54822271333023 -9.520124574860318 0.0 0.0
-742.9487307808772 -57.59234493868838 -383.0909323441465 -10.254076788872268 0.0 0.0
-804.360603709816 -85.77097557192802 -434.2293047652252 -10.66464400088505 0.0 0.0
-866.2404701430655 -115.31138479514614 -483.211562233374 -10.761970038757465 0.0 0.0
-928.6662443030801 -146.51539270500072 -531.589183967617 -10.698618823080476 0.0 0.0
-992.6294862338809 -177.888520571488 -579.9103449305292 -10.64740522600378 0.0 0.0
-1059.068141638365 -210.84299463312456 -629.8567540987153 -10.568129713002646 0.0 0.0
-1128.8907795253074 -247.62465509524705 -683.230525987507 -10.21361480102191 0.0 0.0
-1201.0528160119452 -288.7773187579924 -739.8563369734029 -9.21475919286646 0.0 0.0
-1271.3398724793224 -332.1482283577895 -796.6462853602768 -7.052461295519925 0.0 0.0
-1333.973550796226 -374.0059899725236 -848.9925680727924 -3.7658288815805525 0.0 0.0
-1407.0628984940545 -435.8416128675825 -915.0296260574642 -13.528492517312104 0.0 0.0
-1773.203819360993 -825.1876166313178 -1292.34025690556 -74.24874530701831 0.0 0.0
-1773.2038193609328 -825.18761663127 -1292.340256905502 74.24874530706188 0.0 0.0
-1407.0628984942634 -435.84161286781944 -915.0296260575061 13.52849251733087 0.0 0.0
-1333.9735507961125 -374.00598997244595 -848.9925680726144 3.765828881616881 0.0 0.0
-1271.339872478522 -332.1482283570286 -796.6462853596325 7.052461295517722 0.0 0.0
-1201.0528160114661 -288.77731875757576 -739.8563369729604 9.214759192901246 0.0 0.0
-1128.8907795247144 -247.62465509471687 -683.2305259870177 10.213614800993094 0.0 0.0
-1059.0681416373632 -210.84299463220958 -629.8567540979265 10.568129713068409 0.0 0.0
-992.6294862332742 -177.88852057099626 -579.9103449299964 10.647405225992737 0.0 0.0
-928.6662443026988 -146.51539270476897 -531.5891839672784 10.69861882305888 0.0 0.0
-866.2404701425714 -115.31138479481335 -483.2115622329729 10.761970038725844 0.0 0.0
-804.360603709255 -85.77097557155034 -434.22930476478507 10.664644000883555 0.0 0.0
-742.9487307805825 -57.592344938596185 -383.09093234385483 10.254076788872265 0.0 0.0
-682.4167078118761 -33.18279481141068 -329.5482227130148 9.520124574812996 0.0 0.0
-622.0451991258096 -14.499471302482636 -272.9168469058907 8.793043680581784 0.0 0.0
-560.6691096278732 -5.713703254490968 -214.95680710131202 8.555635209110388 0.0 0.0
-484.76518610620764 13.356690571783382 -149.28056101864945 14.246267839526489 0.0 0.0
-374.47372405655665 -1.391979236506932 -112.6769359335964 20.257172156717523 0.0 0.0
-232.5283444396881 0.14525672454321104 -69.71492631454348 21.84370815411016 0.0 0.0
-95.11075580154477 1.3448160890926761 -28.129781913735627 18.84102312870322 0.0 0.0
-15.943107138589848 2.4070133257377435 -4.060828143855631 1.5365993727743343 0.0 0.0
SCALARS Strain float 6
LOOKUP_TABLE default
0.007202692648605661 -0.00830994234846641 0.0 -0.004373260531501916 0.0 0.0
0.0017829058543170134 -0.0006983280151020288 0.0 0.0009116767998581105 0.0 0.0
0.0016601685530865454 -0.0007210655174542113 0.0 -0.00010580117745476181 0.0 0.0
0.0019399121139092226 -0.0008361195604492111 0.0 -0.00014327971950583995 0.0 0.0
0.002529290925201196 -0.0012427422092863294 0.0 -0.00017349670036460874 0.0 0.0
0.0036821858919710267 -0.0021251622622622257 0.0 -0.00021632537703943078 0.0 0.0
0.005282382416194888 -0.0034667654502029688 0.0 -0.0002988703125275938 0.0 0.0
0.00734598951959353 -0.005257130684305222 0.0 -0.0004052635247891595 0.0 0.0
0.009909504539934616 -0.007542361003385789 0.0 -0.000533816027246628 0.0 0.0
0.013046632215896942 -0.010398138254944178 0.0 -0.0006796135764864791 0.0 0.0
0.016937397734119338 -0.014008383497241095 0.0 -0.0008293321835686068 0.0 0.0
0.021869537650735262 -0.01865598715116734 0.0 -0.0010157192648094365 0.0 0.0
0.02813433172878674 -0.02463249453587113 0.0 -0.0012500925008658292 0.0 0.0
0.035951905911326396 -0.03215273787885731 0.0 -0.0015323363580140165 0.0 0.0
0.045346662647321935 -0.04123306956479755 0.0 -0.0018756988197854985 0.0 0.0
0.05597968515187671 -0.05153354640387242 0.0 -0.0022274315607921646 0.0 0.0
0.06707767195921083 -0.0622917652745516 0.0 -0.002440239775156422 0.0 0.0
0.07750242659021833 -0.07239288073507133 0.0 -0.002299681860368108 0.0 0.0
0.08594023145329278 -0.08054956075754771 0.0 -0.0017548859586358212 0.0 0.0
0.09096806347793848 -0.08530998220428088 0.0 -0.0013113155176630031 0.0 0.0
0.0909680634779371 -0.08530998220428021 0.0 0.0013113155176653346 0.0 0.0
0.08594023145328421 -0.08054956075754016 0.0 0.001754885958644481 0.0 0.0
0.07750242659020214 -0.07239288073505801 0.0 0.0022996818603729374 0.0 0.0
0.06707767195919129 -0.06229176527453251 0.0 0.002440239775159725 0.0 0.0
0.05597968515185614 -0.05153354640385244 0.0 0.0022274315607895834 0.0 0.0
0.045346662647301195 -0.04123306956477535 0.0 0.001875698819785665 0.0 0.0
0.035951905911304524 -0.03215273787883555 0.0 0.0015323363580131977 0.0 0.0
0.02813433172876388 -0.02463249453584737 0.0 0.0012500925008657737 0.0 0.0
0.021869537650712048 -0.018655987151144027 0.0 0.0010157192648079794 0.0 0.0
0.016937397734097276 -0.014008383497220334 0.0 0.0008293321835685097 0.0 0.0
0.013046632215878332 -0.010398138254926526 0.0 0.0006796135764835232 0.0 0.0
0.009909504539918804 -0.007542361003371467 0.0 0.0005338160272455317 0.0 0.0
0.007345989519580681 -0.005257130684294342 0.0 0.00040526352478750804 0.0 0.0
0.00528238241618488 -0.0034667654501951972 0.0 0.0002988703125267611 0.0 0.0
0.0036821858919645067 -0.0021251622622564525 0.0 0.0002163253770389173 0.0 0.0
0.002529290925197991 -0.0012427422092838314 0.0 0.0001734967003645116 0.0 0.0
0.0019399121139084402 -0.000836119560448767 0.0 0.00014327971950554852 0.0 0.0
0.0016601685530859833 -0.000721065517453906 0.0 0.00010580117745473405 0.0 0.0
0.0017829058543165077 -0.0006983280151015014 0.0 -0.0009116767998571945 0.0 0.0
0.007202692648599268 -0.008309942348456806 0.0 0.004373260531481529 0.0 0.0
0.004878322362441508 -0.006310982687131983 0.0 -0.005156892264114837 0.0 0.0
0.0010063783481413409 -0.00033761445126012646 0.0 0.00023010138795757917 0.0 0.0
0.0014374819052200543 -0.0005598339437156707 0.0 -0.0001245168230411542 0.0 0.0
0.0017374471921183694 -0.0007463381367358579 0.0 -0.0003983945531487315 0.0 0.0
0.0022157260760139862 -0.0010292300133685206 0.0 -0.0004251891131845792 0.0 0.0
0.0032030451828852814 -0.0017483290186742773 0.0 -0.0005415451602631682 0.0 0.0
0.004652696682402972 -0.0029267036453380912 0.0 -0.0007593276910035363 0.0 0.0
0.006520833919751005 -0.00452110188188537 0.0 -0.0010175612429977193 0.0 0.0
0.008825412603126326 -0.006554361128198072 0.0 -0.0013095121697842133 0.0 0.0
0.011625865697652182 -0.009085435751141402 0.0 -0.0016292424100136094 0.0 0.0
0.015073717965124564 -0.012266980249916903 0.0 -0.0019683056328045206 0.0 0.0
0.019424855739118417 -0.016354216425101153 0.0 -0.0023460476311598227 0.0 0.0
0.024987332446634817 -0.021651055570258926 0.0 -0.002848318400498595 0.0 0.0
0.03199255860966998 -0.028382166419967936 0.0 -0.003509798920875315 0.0 0.0
0.040465648048505776 -0.03656619173500775 0.0 -0.004296523306118266 0.0 0.0
0.05010541376807933 -0.04590150339011689 0.0 -0.005098002418798209 0.0 0.0
0.0602209013828838 -0.05570619156783052 0.0 -0.005588630689074642 0.0 0.0
0.06979208583171027 -0.06497705500358864 0.0 -0.005355539667417558 0.0 0.0
0.07756900713407665 -0.07247157554161099 0.0 -0.004283707789437374 0.0 0.0
0.08214793231502973 -0.07685299742155949 0.0 -0.0024174383643023045 0.0 0.0
0.08214793231502794 -0.07685299742155771 0.0 0.002417438364312907 0.0 0.0
0.07756900713406883 -0.072471575541603 0.0 0.004283707789455415 0.0 0.0
0.0697920858316965 -0.0649770550035742 0.0 0.005355539667429743 0.0 0.0
0.06022090138286708 -0.05570619156781542 0.0 0.0055886306890819415 0.0 0.0
0.050105413768061186 -0.04590150339010135 0.0 0.005098002418796044 0.0 0.0
0.04046564804848721 -0.03656619173499287 0.0 0.0042965233061187935 0.0 0.0
0.03199255860965039 -0.02838216641995217 0.0 0.0035097989208746627 0.0 0.0
0.024987332446614677 -0.02165105557024294 0.0 0.0028483184004984285 0.0 0.0
0.019424855739097704 -0.016354216425082946 0.0 0.002346047631158532 0.0 0.0
0.015073717965104719 -0.012266980249897697 0.0 0.0019683056328029525 0.0 0.0
0.011625865697635296 -0.009085435751126969 0.0 0.001629242410009002 0.0 0.0
0.008825412603112079 -0.006554361128185637 0.0 0.001309512169782756 0.0 0.0
0.006520833919739413 -0.004521101881876155 0.0 0.0010175612429949854 0.0 0.0
0.004652696682394139 -0.00292670364533143 0.0 0.000759327691002315 0.0 0.0
0.0032030451828796436 -0.0017483290186693923 0.0 0.0005415451602617249 0.0 0.0
0.0022157260760115732 -0.0010292300133664112 0.0 0.0004251891131838853 0.0 0.0
0.0017374471921175472 -0.0007463381367351918 0.0 0.0003983945531481903 0.0 0.0
0.0014374819052196952 -0.0005598339437160593 0.0 0.0001245168230415844 0.0 0.0
0.0010063783481418231 -0.0003376144512595991 0.0 -0.00023010138795892532 0.0 0.0
0.004878322362433865 -0.006310982687121908 0.0 0.0051568922640975595 0.0 0.0
0.0035027945907426354 -0.0050150295460923144 0.0 -0.004781336390831142 0.0 0.0
0.0005910541788594903 -0.00020827578925639023 0.0 -0.0004461169235146223 0.0 0.0
0.0011475682799331928 -0.0004030169251009186 0.0 -0.000354543739716745 0.0 0.0
0.0015306316613220884 -0.0006464348166569378 0.0 -0.000628869025058848 0.0 0.0
0.0019406790868913282 -0.00086248680706702 0.0 -0.0006861251220734305 0.0 0.0
0.0027289370233879694 -0.001393475173397385 0.0 -0.0008068310490951941 0.0 0.0
0.00401443908057993 -0.002390729903065547 0.0 -0.001112454554650158 0.0 0.0
0.005685456223538794 -0.003792473422974174 0.0 -0.001506426842261016 0.0 0.0
0.007733581565196813 -0.0055726468540736596 0.0 -0.0019321751708616247 0.0 0.0
0.010203698124597645 -0.007783790480542674 0.0 -0.002388469277922675 0.0 0.0
0.013221210677515933 -0.010550382530255753 0.0 -0.0028778802860136704 0.0 0.0
0.01701115786833072 -0.014095297058577705 0.0 -0.0034236292318437916 0.0 0.0
0.02186558278745977 -0.01870509196628989 0.0 -0.004108327371753262 0.0 0.0
0.02803344897990257 -0.02462107687791404 0.0 -0.005042979833185357 0.0 0.0
0.03555560447016694 -0.031880720557234676 0.0 -0.006199543752071601 0.0 0.0
0.04417387144603137 -0.040224082149905804 0.0 -0.007350048874247533 0.0 0.0
0.05329931859001111 -0.04906856680160909 0.0 -0.008072021531681267 0.0 0.0
0.06203108987740835 -0.05751825314525427 0.0 -0.007842613641833973 0.0 0.0
0.06919260516483017 -0.0644227111019442 0.0 -0.006311281342698594 0.0 0.0
0.07350602208870083 -0.06856571320850668 0.0 -0.003289427600723316 0.0 0.0
0.0735060220886986 -0.06856571320850402 0.0 0.0032894276007400802 0.0 0.0
0.06919260516482316 -0.06442271110193643 0.0 0.006311281342722075 0.0 0.0
0.06203108987739636 -0.057518253145243836 0.0 0.007842613641850404 0.0 0.0
0.05329931858999659 -0.049068566801594216 0.0 0.00807202153169062 0.0 0.0
0.044173871446015436 -0.04022408214988915 0.0 0.007350048874245729 0.0 0.0
0.035555604470150534 -0.03188072055722024 0.0 0.00619954375207199 0.0 0.0
0.028033448979885134 -0.024621076877900272 0.0 0.00504297983318458 0.0 0.0
0.021865582787442273 -0.01870509196627479 0.0 0.004108327371751874 0.0 0.0
0.017011157868312518 -0.014095297058562828 0.0 0.0034236292318416406 0.0 0.0
0.013221210677498554 -0.010550382530241209 0.0 0.002877880286010631 0.0 0.0
0.010203698124582411 -0.007783790480529573 0.0 0.002388469277916777 0.0 0.0
0.007733581565184264 -0.0055726468540634455 0.0 0.0019321751708582524 0.0 0.0
0.005685456223528465 -0.0037924734229657364 0.0 0.0015064268422573523 0.0 0.0
0.00401443908057228 -0.00239072990306044 0.0 0.0011124545546488673 0.0 0.0
0.0027289370233833515 -0.0013934751733948314 0.0 0.0008068310490935704 0.0 0.0
0.0019406790868896212 -0.0008624868070656877 0.0 0.0006861251220733333 0.0 0.0
0.0015306316613212106 -0.0006464348166563272 0.0 0.0006288690250585149 0.0 0.0
0.0011475682799330783 -0.0004030169251007798 0.0 0.00035454373971567643 0.0 0.0
0.000591054178859976 -0.0002082757892557796 0.0 0.00044611692351222143 0.0 0.0
0.003502794590735478 -0.005015029546083016 0.0 0.0047813363908170425 0.0 0.0
0.0025844632663003485 -0.00404798412606977 0.0 -0.004080979549863542 0.0 0.0
0.00036402383712953387 -0.00017142184651947057 0.0 -0.001018658186614535 0.0 0.0
0.0008774907890061225 -0.00027959352013101624 0.0 -0.0006799510286215893 0.0 0.0
0.0013036247093903865 -0.0005353644222235721 0.0 -0.0008683647872939904 0.0 0.0
0.0016892088371244021 -0.0007353998649342053 0.0 -0.0009649832984706397 0.0 0.0
0.0022961064319068636 -0.0011015962518460265 0.0 -0.0010466170982188494 0.0 0.0
0.003367191031178444 -0.0018769717494230287 0.0 -0.0013608030297250634 0.0 0.0
0.004843879154601934 -0.003073710805422847 0.0 -0.0018658351676111018 0.0 0.0
0.006637355576234044 -0.004605345457729282 0.0 -0.002396778191863652 0.0 0.0
0.008783817461812504 -0.0065021301481742455 0.0 -0.002959552244090488 0.0 0.0
0.011382599975556306 -0.008862989613455996 0.0 -0.00355563020855601 0.0 0.0
0.01462596147257307 -0.011877066046975138 0.0 -0.004220919639313342 0.0 0.0
0.018782265272590838 -0.01580993370829753 0.0 -0.005062854995327548 0.0 0.0
0.024098176130796185 -0.02089480534941157 0.0 -0.0061675246748574275 0.0 0.0
0.030637924605359072 -0.02719763888828708 0.0 -0.007536730698931987 0.0 0.0
0.0382056049433267 -0.03452243637020236 0.0 -0.008953539591967319 0.0 0.0
0.046319028184550706 -0.042383648574199295 0.0 -0.009890016464057738 0.0 0.0
0.054202125952772316 -0.05001081764799853 0.0 -0.009710140223183866 0.0 0.0
0.060806204110396556 -0.05638161605206515 0.0 -0.007872871532847658 0.0 0.0
0.06495267851792803 -0.06037209586762704 0.0 -0.004015554623969353 0.0 0.0
0.0649526785179258 -0.06037209586762504 0.0 0.004015554623990614 0.0 0.0
0.06080620411038991 -0.05638161605206249 0.0 0.007872871532875247 0.0 0.0
0.05420212595276183 -0.05001081764799209 0.0 0.009710140223203267 0.0 0.0
0.046319028184538175 -0.04238364857418908 0.0 0.009890016464068674 0.0 0.0
0.03820560494331275 -0.0345224363701897 0.0 0.008953539591964987 0.0 0.0
0.030637924605344674 -0.02719763888827309 0.0 0.0075367306989324034 0.0 0.0
0.02409817613078108 -0.02089480534939625 0.0 0.006167524674856983 0.0 0.0
0.01878226527257565 -0.015809933708281765 0.0 0.00506285499532666 0.0 0.0
0.014625961472557458 -0.011877066046959817 0.0 0.004220919639308762 0.0 0.0
0.01138259997554153 -0.00886298961344445 0.0 0.003555630208551236 0.0 0.0
0.008783817461799043 -0.006502130148163698 0.0 0.0029595522440843958 0.0 0.0
0.006637355576223067 -0.004605345457719512 0.0 0.0023967781918601827 0.0 0.0
0.004843879154592903 -0.0030737108054158524 0.0 0.0018658351676066331 0.0 0.0
0.003367191031172112 -0.0018769717494186988 0.0 0.0013608030297226625 0.0 0.0
0.0022961064319033664 -0.001101596251843695 0.0 0.0010466170982165734 0.0 0.0
0.00168920883712316 -0.0007353998649329285 0.0 0.0009649832984696405 0.0 0.0
0.0013036247093895642 -0.0005353644222228504 0.0 0.0008683647872926858 0.0 0.0
0.0008774907890059941 -0.0002795935201307109 0.0 0.0006799510286204513 0.0 0.0
0.0003640238371298288 -0.0001714218465188183 0.0 0.0010186581866117594 0.0 0.0
0.0025844632662942457 -0.004047984126062074 0.0 0.004080979549853009 0.0 0.0
0.0019191206372699554 -0.003270235410877384 0.0 -0.0033756343407960326 0.0 0.0
0.0002344367844730813 -0.00017091236834976264 0.0 -0.0014576329452186954 0.0 0.0
0.0006464130718055461 -0.00018839243877855072 0.0 -0.0010232829785301878 0.0 0.0
0.0010666422083687524 -0.00042101915053749384 0.0 -0.001118271360517939 0.0 0.0
0.0014377554920336766 -0.0006161505712275472 0.0 -0.0012345190122505512 0.0 0.0
0.001916426582661876 -0.0008735040322301879 0.0 -0.0013007674507194422 0.0 0.0
0.0027443115234642365 -0.001413618694749541 0.0 -0.0015299471680303711 0.0 0.0
0.003990859005455934 -0.0023663270416794946 0.0 -0.002053536660153066 0.0 0.0
0.00554007540029134 -0.0036593905211119715 0.0 -0.0026950990661627205 0.0 0.0
0.007368810704780807 -0.005246008719023365 0.0 -0.0033339955370075836 0.0 0.0
0.0095607244696784 -0.0072110194051484555 0.0 -0.004004586514164327 0.0 0.0
0.012272402589849123 -0.009708922783034257 0.0 -0.004743640523837578 0.0 0.0
0.015741985225703657 -0.012970937041670183 0.0 -0.005659486268315805 0.0 0.0
0.020203289903973805 -0.017224488191238008 0.0 -0.0068810285536616 0.0 0.0
0.025743588569062954 -0.022553558741706503 0.0 -0.008375859975419175 0.0 0.0
0.03222769877557737 -0.028821627715251763 0.0 -0.009895020193297965 0.0 0.0
0.039284674597264 -0.03565994172810205 0.0 -0.01098438187427031 0.0 0.0
0.04629652774536677 -0.04244733158356517 0.0 -0.010936734025290717 0.0 0.0
0.05237230831478604 -0.048312836529421865 0.0 -0.008997983980448432 0.0 0.0
0.05641679789207648 -0.05220911795893435 0.0 -0.0046273621291190725 0.0 0.0
0.05641679789207443 -0.05220911795893257 0.0 0.004627362129140888 0.0 0.0
0.05237230831477961 -0.048312836529415426 0.0 0.008997983980476687 0.0 0.0
0.04629652774535767 -0.042447331583558734 0.0 0.0109367340253117 0.0 0.0
0.039284674597253336 -0.035659941728094724 0.0 0.01098438187428119 0.0 0.0
0.03222769877556525 -0.028821627715241327 0.0 0.009895020193296744 0.0 0.0
0.02574358856905054 -0.022553558741697177 0.0 0.008375859975418232 0.0 0.0
0.020203289903961197 -0.017224488191225795 0.0 0.006881028553660518 0.0 0.0
0.015741985225690633 -0.012970937041655528 0.0 0.005659486268314862 0.0 0.0
0.012272402589836195 -0.009708922783021823 0.0 0.0047436405238333035 0.0 0.0
0.00956072446966591 -0.007211019405136576 0.0 0.004004586514158054 0.0 0.0
0.007368810704769607 -0.005246008719013706 0.0 0.0033339955369998953 0.0 0.0
0.0055400754002818825 -0.003659390521104089 0.0 0.0026950990661585295 0.0 0.0
0.003990859005448336 -0.0023663270416736104 0.0 0.0020535366601488747 0.0 0.0
0.0027443115234594 -0.0014136186947464324 0.0 0.0015299471680280952 0.0 0.0
0.001916426582659364 -0.0008735040322297438 0.0 0.0013007674507179712 0.0 0.0
0.001437755492032608 -0.0006161505712272142 0.0 0.0012345190122497601 0.0 0.0
0.0010666422083680516 -0.00042101915053710526 0.0 0.0011182713605159406 0.0 0.0
0.0006464130718054212 -0.00018839243877888379 0.0 0.0010232829785280506 0.0 0.0
0.0002344367844731715 -0.0001709123683492908 0.0 0.001457632945216461 0.0 0.0
0.0019191206372650843 -0.0032702354108710644 0.0 0.003375634340788067 0.0 0.0
0.0014220931842563386 -0.002631759877864487 0.0 -0.002775074839030084 0.0 0.0
0.0001511139309714471 -0.00018091089180954922 0.0 -0.0017767258910632022 0.0 0.0
0.0004507426787891469 -0.00011999655678573973 0.0 -0.001341111431272135 0.0 0.0
0.0008300515087305699 -0.0003083258260541677 0.0 -0.0013633339249747023 0.0 0.0
0.0011766094730480611 -0.000499335828938019 0.0 -0.0014881393619206457 0.0 0.0
0.0015658675300679603 -0.0006995841973574946 0.0 -0.0015760380825108333 0.0 0.0
0.0021823441954219036 -0.0010473450634053139 0.0 -0.0017266681996900013 0.0 0.0
0.003150143216627023 -0.0017174448864122338 0.0 -0.0021344805577070136 0.0 0.0
0.004436877337744824 -0.002735253738126442 0.0 -0.002785060029524916 0.0 0.0
0.0059621447284708765 -0.0040251657962293574 0.0 -0.0034990508332318204 0.0 0.0
0.007756398205898872 -0.005604036954699909 0.0 -0.004208115091373532 0.0 0.0
0.009953830790518862 -0.007598613876448779 0.0 -0.004980389863964957 0.0 0.0
0.01275269532971355 -0.010204620224149252 0.0 -0.005925896242826412 0.0 0.0
0.01636246310826795 -0.013625232465801718 0.0 -0.007150308548192985 0.0 0.0
0.020892833421897565 -0.017968650073727277 0.0 -0.008661963853846988 0.0 0.0
0.026268628240718746 -0.023158418661822333 0.0 -0.010232674038569117 0.0 0.0
0.03221986752080098 -0.028922994845326677 0.0 -0.011374983055054966 0.0 0.0
0.03830454757643835 -0.03482003259364097 0.0 -0.011452230427684867 0.0 0.0
0.04384158690438569 -0.04017300649350797 0.0 -0.009646959147543793 0.0 0.0
0.04782841210959082 -0.04401502631878085 0.0 -0.005130368295471532 0.0 0.0
0.04782841210958878 -0.04401502631877907 0.0 0.0051303682954917385 0.0 0.0
0.04384158690438002 -0.040173006493503305 0.0 0.009646959147571355 0.0 0.0
0.03830454757643055 -0.03482003259363298 0.0 0.011452230427705434 0.0 0.0
0.03221986752079205 -0.02892299484531846 0.0 0.011374983055064736 0.0 0.0
0.026268628240708317 -0.023158418661815006 0.0 0.010232674038566258 0.0 0.0
0.02089283342188701 -0.01796865007371906 0.0 0.00866196385384338 0.0 0.0
0.016362463108257994 -0.013625232465793502 0.0 0.007150308548192208 0.0 0.0
0.012752695329703148 -0.010204620224140148 0.0 0.005925896242824635 0.0 0.0
0.009953830790508558 -0.007598613876438343 0.0 0.004980389863960544 0.0 0.0
0.007756398205888582 -0.0056040369546916935 0.0 0.004208115091367565 0.0 0.0
0.005962144728461655 -0.004025165796222696 0.0 0.003499050833225048 0.0 0.0
0.004436877337737163 -0.0027352537381203357 0.0 0.0027850600295205863 0.0 0.0
0.00315014321662109 -0.0017174448864075709 0.0 0.002134480557703572 0.0 0.0
0.0021823441954183093 -0.0010473450634016501 0.0 0.0017266681996883915 0.0 0.0
0.001565867530066295 -0.0006995841973560513 0.0 0.00157603808250939 0.0 0.0
0.0011766094730470689 -0.0004993358289372973 0.0 0.001488139361919244 0.0 0.0
0.0008300515087300286 -0.00030832582605339054 0.0 0.0013633339249729676 0.0 0.0
0.00045074267878895957 -0.0001199965567848793 0.0 0.0013411114312700673 0.0 0.0
0.00015111393097133607 -0.00018091089180902187 0.0 0.0017767258910604683 0.0 0.0
0.001422093184252654 -0.0026317598778595585 0.0 0.002775074839023839 0.0 0.0
0.001045896573541663 -0.0021037395001609477 0.0 -0.002304244419515891 0.0 0.0
8.909170686774437e-05 -0.00019602625623652004 0.0 -0.002002483422763046 0.0 0.0
0.0002809608273963704 -6.341186891528627e-05 0.0 -0.001612553304281228 0.0 0.0
0.0006001061578906203 -0.00020219701087115238 0.0 -0.001590487937086299 0.0 0.0
0.0009051870413753771 -0.000375337385249086 0.0 -0.0017087333840158092 0.0 0.0
0.0012242629802448057 -0.000536290592187294 0.0 -0.001809923823493792 0.0 0.0
0.0016716701767704872 -0.0007586361981216649 0.0 -0.001928252579755707 0.0 0.0
0.002368136008482409 -0.0011759656034942 0.0 -0.002194758073421982 0.0 0.0
0.0033450603789568836 -0.001876144612855235 0.0 -0.002702693878291501 0.0 0.0
0.004560060147299774 -0.0028478753639562537 0.0 -0.0034083364351641665 0.0 0.0
0.005970388609610161 -0.004053804811655182 0.0 -0.004154366426571909 0.0 0.0
0.007671371193512556 -0.005560014312275374 0.0 -0.0049248197600257615 0.0 0.0
0.009818749198119071 -0.007525937655077142 0.0 -0.005837397728295002 0.0 0.0
0.012593472689828113 -0.010126551061853784 0.0 -0.007001523042027585 0.0 0.0
0.016106193947833275 -0.013475877032443462 0.0 -0.008418703341599498 0.0 0.0
0.02034795599070649 -0.01755579452040723 0.0 -0.009902223623603351 0.0 0.0
0.02514889296183278 -0.022203538527587607 0.0 -0.011060167886630307 0.0 0.0
0.030231862063899315 -0.027140930367076654 0.0 -0.011288417251828803 0.0 0.0
0.03516315490174324 -0.03192104268370244 0.0 -0.009793102008341797 0.0 0.0
0.039109042481493834 -0.03572141767089576 0.0 -0.005514769601740632 0.0 0.0
0.039109042481491996 -0.03572141767089554 0.0 0.005514769601758618 0.0 0.0
0.03516315490173859 -0.031921042683697776 0.0 0.00979310200836886 0.0 0.0
0.030231862063892653 -0.027140930367069993 0.0 0.011288417251847982 0.0 0.0
0.025148892961825375 -0.02220353852758339 0.0 0.01106016788663805 0.0 0.0
0.02034795599069815 -0.017555794520400347 0.0 0.009902223623600437 0.0 0.0
0.016106193947824837 -0.013475877032434802 0.0 0.008418703341595613 0.0 0.0
0.012593472689820723 -0.01012655106184579 0.0 0.007001523042027058 0.0 0.0
0.009818749198111307 -0.007525937655071813 0.0 0.005837397728294336 0.0 0.0
0.007671371193504653 -0.005560014312269823 0.0 0.004924819760021071 0.0 0.0
0.005970388609602112 -0.004053804811647521 0.0 0.004154366426565387 0.0 0.0
0.004560060147292697 -0.0028478753639502585 0.0 0.0034083364351573664 0.0 0.0
0.0033450603789511313 -0.0018761446128507941 0.0 0.0027026938782879484 0.0 0.0
0.0023681360084782527 -0.0011759656034922017 0.0 0.002194758073418901 0.0 0.0
0.0016716701767680447 -0.000758636198122109 0.0 0.0019282525797541805 0.0 0.0
0.0012242629802436122 -0.0005362905921887373 0.0 0.0018099238234920156 0.0 0.0
0.0009051870413746554 -0.00037533738524980764 0.0 0.0017087333840137414 0.0 0.0
0.0006001061578902872 -0.00020219701087087483 0.0 0.0015904879370845643 0.0 0.0
0.0002809608273961761 -6.341186891475892e-05 0.0 0.0016125533042786744 0.0 0.0
8.909170686743906e-05 -0.00019602625623633962 0.0 0.0020024834227606314 0.0 0.0
0.001045896573539179 -0.0021037395001573924 0.0 0.0023042444195122136 0.0 0.0
0.0007640519808488067 -0.0016834197121700922 0.0 -0.00196810057277802 0.0 0.0
3.365603931414912e-05 -0.00020737744248103263 0.0 -0.002140844825344379 0.0 0.0
0.00012987115865513432 -1.2893117652512665e-05 0.0 -0.001834690487200516 0.0 0.0
0.0003789470485011451 -0.000103172631690851 0.0 -0.0017856258314699197 0.0 0.0
0.000628026250752721 -0.00024608325047992263 0.0 -0.0018906187672416558 0.0 0.0
0.0008773186127825072 -0.0003817561139720649 0.0 -0.002024857734200358 0.0 0.0
0.0011895674225196398 -0.0005295188705770615 0.0 -0.002151131321505101 0.0 0.0
0.001656670419176172 -0.0007538976310806911 0.0 -0.0022911535293286545 0.0 0.0
0.002310787715183407 -0.0011488938045273178 0.0 -0.00257173437537897 0.0 0.0
0.0031750730189502863 -0.0017637634619721565 0.0 -0.0031035832015650078 0.0 0.0
0.004203359965040697 -0.0025842209133559724 0.0 -0.0037926448995952433 0.0 0.0
0.0054228980208111816 -0.0036192784184401194 0.0 -0.004536455590742172 0.0 0.0
0.006943649550110634 -0.0049646795956892475 0.0 -0.005387525111007874 0.0 0.0
0.008902988872095535 -0.006760385379152245 0.0 -0.006419202963262011 0.0 0.0
0.011409060415185926 -0.009115302043791074 0.0 -0.00764699056012777 0.0 0.0
0.014489301739912544 -0.012061083173925402 0.0 -0.008948022142702294 0.0 0.0
0.018094610212463585 -0.015538747462442437 0.0 -0.009999660711581926 0.0 0.0
0.02209116438829483 -0.019427339511940644 0.0 -0.01033869195801626 0.0 0.0
0.026291191001815824 -0.02353004968236716 0.0 -0.009361968266027698 0.0 0.0
0.030167293159184455 -0.02726560877715012 0.0 -0.005767257480917609 0.0 0.0
0.03016729315918286 -0.027265608777147676 0.0 0.005767257480932653 0.0 0.0
0.02629119100181243 -0.023530049682363163 0.0 0.009361968266049514 0.0 0.0
0.02209116438828969 -0.019427339511937092 0.0 0.010338691958032054 0.0 0.0
0.018094610212457743 -0.015538747462436442 0.0 0.009999660711587754 0.0 0.0
0.014489301739906674 -0.012061083173920073 0.0 0.008948022142700185 0.0 0.0
0.011409060415179861 -0.009115302043785078 0.0 0.0076469905601247445 0.0 0.0
0.008902988872090484 -0.006760385379146028 0.0 0.006419202963261705 0.0 0.0
0.006943649550105582 -0.004964679595684807 0.0 0.005387525111007929 0.0 0.0
0.005422898020805755 -0.0036192784184365667 0.0 0.004536455590739563 0.0 0.0
0.004203359965035111 -0.002584220913353419 0.0 0.0037926448995899975 0.0 0.0
0.003175073018945443 -0.0017637634619684928 0.0 0.0031035832015590126 0.0 0.0
0.0023107877151796047 -0.0011488938045254304 0.0 0.002571734375376583 0.0 0.0
0.001656670419173542 -0.0007538976310794698 0.0 0.0022911535293276553 0.0 0.0
0.0011895674225181063 -0.0005295188705755072 0.0 0.002151131321502797 0.0 0.0
0.0008773186127816884 -0.00038175611397184284 0.0 0.0020248577341982488 0.0 0.0
0.0006280262507523671 -0.00024608325047897894 0.0 0.0018906187672397268 0.0 0.0
0.00037894704850092997 -0.00010317263169101754 0.0 0.001785625831467949 0.0 0.0
0.0001298711586549678 -1.2893117652901243e-05 0.0 0.0018346904871980874 0.0 0.0
3.365603931390626e-05 -0.00020737744248096324 0.0 0.002140844825342547 0.0 0.0
0.0007640519808472523 -0.0016834197121678163 0.0 0.0019681005727754802 0.0 0.0
0.0005632361016847526 -0.0013784092560869127 0.0 -0.0017682058103957038 0.0 0.0
-2.058454822106981e-05 -0.0002086021182805542 0.0 -0.0022257840929997413 0.0 0.0
-6.94962670484689e-06 3.3744986832340285e-05 0.0 -0.0020021823621289153 0.0 0.0
0.00016686274549119334 -1.0078077129938023e-05 0.0 -0.001940332338703027 0.0 0.0
0.00034886364085624094 -0.00011633555755208302 0.0 -0.002027208698993463 0.0 0.0
0.0005200018130819134 -0.0002174770230216616 0.0 -0.002173028609490285 0.0 0.0
0.000715116009284901 -0.0003155171136005608 0.0 -0.002327726968253785 0.0 0.0
0.0009854702823959144 -0.0004376855853724937 0.0 -0.0024701660972464567 0.0 0.0
0.0013608663638122326 -0.0006165057555233 0.0 -0.002582218064971359 0.0 0.0
0.0018544354962380105 -0.0008853762696833245 0.0 -0.0027908109905542544 0.0 0.0
0.0024764592846137634 -0.0012881041365833124 0.0 -0.0032159845712789736 0.0 0.0
0.0032100065490899693 -0.0018419648485661355 0.0 -0.0038066986271569625 0.0 0.0
0.004121482700962027 -0.002583051315775853 0.0 -0.0045590259485869256 0.0 0.0
0.00529562287056904 -0.0035973181884336736 0.0 -0.005437261369998142 0.0 0.0
0.006808784903368566 -0.004967305474850248 0.0 -0.0064319394384642625 0.0 0.0
0.00871376886234397 -0.0067527796103188376 0.0 -0.007480092851561676 0.0 0.0
0.01107475291105265 -0.009011923132190791 0.0 -0.008409614678135391 0.0 0.0
0.013923487738197786 -0.011760589838896607 0.0 -0.008766569935966667 0.0 0.0
0.017213700193537677 -0.015007158553743238 0.0 -0.008235001119140717 0.0 0.0
0.02087781041500164 -0.01857048702157682 0.0 -0.005786667206215623 0.0 0.0
0.02087781041500056 -0.018570487021574822 0.0 0.005786667206227225 0.0 0.0
0.017213700193535575 -0.015007158553740352 0.0 0.008235001119160368 0.0 0.0
0.013923487738194448 -0.011760589838891944 0.0 0.008766569935982349 0.0 0.0
0.011074752911048522 -0.009011923132186794 0.0 0.008409614678138222 0.0 0.0
0.008713768862340557 -0.006752779610317727 0.0 0.0074800928515577625 0.0 0.0
0.0068087849033652975 -0.004967305474849137 0.0 0.006431939438461209 0.0 0.0
0.005295622870566397 -0.0035973181884323413 0.0 0.005437261369998447 0.0 0.0
0.004121482700959717 -0.002583051315770968 0.0 0.004559025948587869 0.0 0.0
0.0032100065490869856 -0.0018419648485621387 0.0 0.0038066986271543257 0.0 0.0
0.002476459284610766 -0.0012881041365829793 0.0 0.0032159845712744495 0.0 0.0
0.0018544354962354848 -0.0008853762696822143 0.0 0.00279081099055023 0.0 0.0
0.001360866363810373 -0.000616505755523411 0.0 0.0025822180649707482 0.0 0.0
0.0009854702823945544 -0.0004376855853724937 0.0 0.0024701660972453743 0.0 0.0
0.0007151160092841169 -0.00031551711359945056 0.0 0.0023277269682514534 0.0 0.0
0.0005200018130814971 -0.00021747702302044036 0.0 0.0021730286094881757 0.0 0.0
0.00034886364085613686 -0.00011633555755230507 0.0 0.0020272086989905347 0.0 0.0
0.00016686274549110314 -1.0078077129438423e-05 0.0 0.0019403323387007093 0.0 0.0
-6.949626704888523e-06 3.374498683320071e-05 0.0 0.00200218236212632 0.0 0.0
-2.0584548221291854e-05 -0.00020860211828070685 0.0 0.002225784092997743 0.0 0.0
0.000563236101683795 -0.0013784092560853922 0.0 0.0017682058103936221 0.0 0.0
0.000424636593885655 -0.0011438648567521914 0.0 -0.0016178553038547344 0.0 0.0
-7.152072678631716e-05 -0.0001976938600312117 0.0 -0.002258086759295952 0.0 0.0
-0.00013254062577022774 7.70036069231983e-05 0.0 -0.002116213200881914 0.0 0.0
-3.646441082719165e-05 7.781569709314207e-05 0.0 -0.002047530640868378 0.0 0.0
7.103177154847706e-05 1.2040155590198331e-05 0.0 -0.0021128640921929814 0.0 0.0
0.00015750879862466705 -5.0142419606213906e-05 0.0 -0.0022565272032721295 0.0 0.0
0.00023570284525745167 -9.931049400280223e-05 0.0 -0.002427528565958209 0.0 0.0
0.0003269687087794071 -0.00014386802495902629 0.0 -0.0025624931668243034 0.0 0.0
0.0004546440217047393 -0.000201525725036511 0.0 -0.0026658493253438886 0.0 0.0
0.0006092089510183057 -0.00027730944237303046 0.0 -0.002777417649645092 0.0 0.0
0.0008143252286138269 -0.00037862123497456324 0.0 -0.0029743171385281375 0.0 0.0
0.0010565257973987885 -0.0005098626202779677 0.0 -0.0032895690874568118 0.0 0.0
0.0013587597446847177 -0.0006841973261917378 0.0 -0.0037790416463144294 0.0 0.0
0.0017515081151908418 -0.0009451736419490153 0.0 -0.004476944209030609 0.0 0.0
0.00227183274006125 -0.0013236574132045043 0.0 -0.005388467951770726 0.0 0.0
0.0029928190354152062 -0.0019041682227933787 0.0 -0.006433805713722041 0.0 0.0
0.00408197489857412 -0.002878044412548242 0.0 -0.007411009976175165 0.0 0.0
0.00576332950571963 -0.0044333643449911975 0.0 -0.007852289812876945 0.0 0.0
0.008087223693300963 -0.006615344066622564 0.0 -0.0072599412833742605 0.0 0.0
0.011136756962993058 -0.009719152601352254 0.0 -0.00574599934313208 0.0 0.0
0.011136756962993044 -0.00971915260135292 0.0 0.005745999343140407 0.0 0.0
0.008087223693300019 -0.006615344066623674 0.0 0.007259941283390248 0.0 0.0
0.00576332950571791 -0.00443336434499253 0.0 0.007852289812887492 0.0 0.0
0.004081974898572455 -0.0028780444125511284 0.0 0.007411009976175109 0.0 0.0
0.0029928190354146927 -0.001904168222794711 0.0 0.0064338057137192095 0.0 0.0
0.002271832740060639 -0.001323657413203172 0.0 0.005388467951768561 0.0 0.0
0.0017515081151906753 -0.000945173641947683 0.0 0.004476944209030553 0.0 0.0
0.0013587597446850924 -0.0006841973261921819 0.0 0.0037790416463146514 0.0 0.0
0.0010565257973984277 -0.0005098626202764134 0.0 0.0032895690874544803 0.0 0.0
0.0008143252286136465 -0.0003786212349723428 0.0 0.002974317138525445 0.0 0.0
0.0006092089510180976 -0.0002773094423721423 0.0 0.0027774176496418723 0.0 0.0
0.0004546440217044756 -0.00020152572503540078 0.0 0.002665849325343972 0.0 0.0
0.0003269687087791989 -0.00014386802495802709 0.0 0.002562493166823776 0.0 0.0
0.0002357028452573129 -9.931049400258019e-05 0.0 0.0024275285659565715 0.0 0.0
0.00015750879862472256 -5.014241960632493e-05 0.0 0.002256527203268799 0.0 0.0
7.103177154856033e-05 1.2040155588755042e-05 0.0 0.0021128640921901642 0.0 0.0
-3.646441082705287e-05 7.781569709275349e-05 0.0 0.0020475306408667127 0.0 0.0
-0.00013254062577015835 7.700360692264319e-05 0.0 0.002116213200879305 0.0 0.0
-7.152072678646981e-05 -0.00019769386003098965 0.0 0.0022580867592934817 0.0 0.0
0.00042463659388525254 -0.0011438648567510768 0.0 0.0016178553038530968 0.0 0.0
0.0003238922013477502 -0.000941395914741322 0.0 -0.0014724225672015784 0.0 0.0
-0.00011903304520058389 -0.00017584058167563477 0.0 -0.0022414034926476756 0.0 0.0
-0.0002486746186922961 0.00011781387104370378 0.0 -0.0021753367452523042 0.0 0.0
-0.00023135817502642486 0.00016072145105805458 0.0 -0.0021040386289611496 0.0 0.0
-0.00020273742044137066 0.00013728688469893946 0.0 -0.0021443051678633474 0.0 0.0
-0.00020555150452528093 0.00011703939432894384 0.0 -0.002268896811609772 0.0 0.0
-0.00024617044883554207 0.00011860177142808404 0.0 -0.002430216496666915 0.0 0.0
-0.0003258400174542264 0.00014544648836112284 0.0 -0.002562619343749739 0.0 0.0
-0.00045216633301116416 0.0001996882131827249 0.0 -0.0026652211422005523 0.0 0.0
-0.0006074451406033604 0.0002759242858141331 0.0 -0.0027769841416803165 0.0 0.0
-0.000813135960635411 0.0003781393016493162 0.0 -0.0029738022431711753 0.0 0.0
-0.0010574823062518973 0.0005119824449342225 0.0 -0.003288149413482211 0.0 0.0
-0.0013679761311284483 0.0006926108546991827 0.0 -0.003775079429789552 0.0 0.0
-0.001770441882506621 0.0009555062841843931 0.0 -0.004475315041078842 0.0 0.0
-0.0022540920721760838 0.0012938720435875517 0.0 -0.0054114333807944726 0.0 0.0
-0.0027273618548407513 0.0016276745182259855 0.0 -0.0065442189892886415 0.0 0.0
-0.0029495438793194217 0.0017887699717114014 0.0 -0.007852087576434075 0.0 0.0
-0.002550058767615132 0.0014580830124606425 0.0 -0.009286514884486341 0.0 0.0
-0.0012100656359751855 0.0005669279378996972 0.0 -0.010319451147567105 0.0 0.0
0.0015920565285269944 -0.0019265147710436636 0.0 -0.008441299133697566 0.0 0.0
0.001592056528527036 -0.0019265147710441077 0.0 0.008441299133708613 0.0 0.0
-0.0012100656359755602 0.0005669279378994752 0.0 0.010319451147579484 0.0 0.0
-0.0025500587676149378 0.0014580830124597544 0.0 0.009286514884492447 0.0 0.0
-0.0029495438793178744 0.0017887699717109573 0.0 0.007852087576432826 0.0 0.0
-0.002727361854838087 0.0016276745182239871 0.0 0.006544218989285366 0.0 0.0
-0.002254092072174342 0.0012938720435875517 0.0 0.005411433380792113 0.0 0.0
-0.001770441882504338 0.0009555062841850592 0.0 0.0044753150410773435 0.0 0.0
-0.00136797613112552 0.0006926108546971843 0.0 0.0037750794297880808 0.0 0.0
-0.0010574823062491495 0.0005119824449306698 0.0 0.0032881494134794076 0.0 0.0
-0.0008131359606328714 0.0003781393016449863 0.0 0.0029738022431683997 0.0 0.0
-0.0006074451406013273 0.00027592428581102446 0.0 0.002776984141676847 0.0 0.0
-0.00045216633300982495 0.0001996882131802824 0.0 0.0026652211422007466 0.0 0.0
-0.0003258400174533868 0.00014544648836056773 0.0 0.0025626193437488787 0.0 0.0
-0.0002461704488351188 0.0001186017714284171 0.0 0.0024302164966649165 0.0 0.0
-0.00020555150452484378 0.00011703939432938792 0.0 0.002268896811607163 0.0 0.0
-0.00020273742044085025 0.00013728688469877293 0.0 0.002144305167861252 0.0 0.0
-0.00023135817502608486 0.0001607214510571109 0.0 0.002104038628959401 0.0 0.0
-0.0002486746186921504 0.00011781387104395358 0.0 0.0021753367452500283 0.0 0.0
-0.00011903304520057001 -0.00017584058167527394 0.0 0.0022414034926462323 0.0 0.0
0.0003238922013474796 -0.0009413959147405266 0.0 0.0014724225672005653 0.0 0.0
0.0002408766763504211 -0.0007555867978383118 0.0 -0.0013216160474690264 0.0 0.0
-0.0001640906798526659 -0.00014471887525732696 0.0 -0.0021741779281670703 0.0 0.0
-0.0003570354986859037 0.00015719324263691048 0.0 -0.002179386326308874 0.0 0.0
-0.00041788546157221773 0.00023866508329284386 0.0 -0.0021071071105078637 0.0 0.0
-0.00047035447223502114 0.00025786634195545943 0.0 -0.002118790010498528 0.0 0.0
-0.0005642428027241297 0.00028088452206276315 0.0 -0.0022124986109910982 0.0 0.0
-0.0007246427602635719 0.00033360441750585057 0.0 -0.0023387059654416953 0.0 0.0
-0.000984575483825384 0.0004390601482395784 0.0 -0.002470509889369338 0.0 0.0
-0.0013584023215669483 0.0006146322520635961 0.0 -0.002580586695690168 0.0 0.0
-0.001852811492244144 0.0008839718918476347 0.0 -0.0027894878899540343 0.0 0.0
-0.0024754063427797762 0.0012874824205975077 0.0 -0.0032155417209399906 0.0 0.0
-0.0032103636280183395 0.0018436901296396968 0.0 -0.0038039488228439056 0.0 0.0
-0.00412865134355847 0.002592178557934366 0.0 -0.004545556608800128 0.0 0.0
-0.005315687065916314 0.0036143014543521534 0.0 -0.005423630528234524 0.0 0.0
-0.00680328184339779 0.004938484674652743 0.0 -0.0064862882003048905 0.0 0.0
-0.008482078575821297 0.006461505639635989 0.0 -0.007801014736341927 0.0 0.0
-0.010056312352648117 0.007881985436262617 0.0 -0.009389505635891082 0.0 0.0
-0.011023196672237279 0.008706885016709132 0.0 -0.011138785443112476 0.0 0.0
-0.010585375545750161 0.008025149977420654 0.0 -0.011943072757010453 0.0 0.0
-0.0074286835079701435 0.004841693687605009 0.0 -0.009856847883730646 0.0 0.0
-0.0074286835079707125 0.004841693687607229 0.0 0.009856847883741582 0.0 0.0
-0.010585375545750023 0.00802514997742132 0.0 0.011943072757025969 0.0 0.0
-0.011023196672234767 0.008706885016705357 0.0 0.011138785443122995 0.0 0.0
-0.010056312352643697 0.007881985436260397 0.0 0.009389505635892692 0.0 0.0
-0.008482078575815677 0.006461505639633991 0.0 0.007801014736338346 0.0 0.0
-0.006803281843393537 0.004938484674648302 0.0 0.0064862882003026145 0.0 0.0
-0.005315687065911651 0.0036143014543481566 0.0 0.005423630528231832 0.0 0.0
-0.0041286513435530026 0.0025921785579328116 0.0 0.0045455566087982124 0.0 0.0
-0.003210363628012504 0.0018436901296376984 0.0 0.0038039488228402696 0.0 0.0
-0.0024754063427746553 0.001287482420593511 0.0 0.0032155417209353554 0.0 0.0
-0.0018528114922396893 0.000883971891844193 0.0 0.002789487889950204 0.0 0.0
-0.0013584023215638605 0.0006146322520628189 0.0 0.002580586695689363 0.0 0.0
-0.0009845754838235313 0.0004390601482394674 0.0 0.002470509889368172 0.0 0.0
-0.0007246427602621841 0.00033360441750529546 0.0 0.002338705965439697 0.0 0.0
-0.0005642428027232971 0.00028088452206220804 0.0 0.0022124986109885447 0.0 0.0
-0.0004703544722341746 0.00025786634195501534 0.0 0.0021187900104959745 0.0 0.0
-0.00041788546157179446 0.00023866508329339897 0.0 0.0021071071105054073 0.0 0.0
-0.0003570354986855914 0.00015719324263688272 0.0 0.0021793863263070146 0.0 0.0
-0.00016409067985256875 -0.00014471887525732696 0.0 0.0021741779281649193 0.0 0.0
0.00024087667635019905 -0.0007555867978377906 0.0 0.0013216160474675415 0.0 0.0
0.00016659064405162571 -0.0005851943278342847 0.0 -0.00116978237555955 0.0 0.0
-0.0002089841884577448 -0.00010529462653605104 0.0 -0.0020584210575935596 0.0 0.0
-0.0004590744484804371 0.0001960017172697448 0.0 -0.002128281815446831 0.0 0.0
-0.0005961524708114063 0.0003117253605177672 0.0 -0.002056083170834569 0.0 0.0
-0.0007298030750926138 0.0003719821956672531 0.0 -0.002034794032678436 0.0 0.0
-0.0009139918471854358 0.0004377470754267643 0.0 -0.002082701396944775 0.0 0.0
-0.0011982255977102119 0.0005455867305889095 0.0 -0.0021661136215255783 0.0 0.0
-0.001655612737334708 0.0007549253892332741 0.0 -0.0022926830173618518 0.0 0.0
-0.002308460907753926 0.0011464831967779032 0.0 -0.0025678028330226033 0.0 0.0
-0.0031738329433538964 0.001762249576392927 0.0 -0.0031010216448196792 0.0 0.0
-0.004202821525721712 0.0025836205342553153 0.0 -0.0037925129986144668 0.0 0.0
-0.005422022609766625 0.003619378630683512 0.0 -0.004533223954155452 0.0 0.0
-0.006945802076421467 0.004969841849924217 0.0 -0.005363979793059748 0.0 0.0
-0.008919500669417837 0.006776686687752331 0.0 -0.006370098671872659 0.0 0.0
-0.01141932949713742 0.009107154996901512 0.0 -0.007661411104352589 0.0 0.0
-0.014329594273033597 0.01184604408866452 0.0 -0.009378952018716247 0.0 0.0
-0.017277592780369957 0.014614276496579537 0.0 -0.011657047967918832 0.0 0.0
-0.019537333406006607 0.016632404245579213 0.0 -0.014180796646577343 0.0 0.0
-0.019765509866202832 0.016558459070195042 0.0 -0.015546200202302185 0.0 0.0
-0.01598937501450387 0.01236595391438855 0.0 -0.012779049906909978 0.0 0.0
-0.015989375014504134 0.012365953914387662 0.0 0.012779049906923468 0.0 0.0
-0.019765509866201576 0.016558459070193043 0.0 0.015546200202320004 0.0 0.0
-0.019537333406002264 0.01663240424557788 0.0 0.01418079664658961 0.0 0.0
-0.01727759278036292 0.014614276496573098 0.0 0.011657047967921025 0.0 0.0
-0.014329594273025499 0.011846044088656305 0.0 0.009378952018712805 0.0 0.0
-0.011419329497130662 0.009107154996895739 0.0 0.00766141110434948 0.0 0.0
-0.008919500669410843 0.00677668668774456 0.0 0.0063700986718696895 0.0 0.0
-0.006945802076413356 0.004969841849915779 0.0 0.0053639797930577215 0.0 0.0
-0.005422022609758173 0.003619378630674852 0.0 0.00453322395415004 0.0 0.0
-0.004202821525713968 0.002583620534248987 0.0 0.003792512998607639 0.0 0.0
-0.003173832943346923 0.001762249576388486 0.0 0.003101021644812907 0.0 0.0
-0.0023084609077489923 0.0011464831967734623 0.0 0.002567802833019883 0.0 0.0
-0.0016556127373315022 0.0007549253892307206 0.0 0.0022926830173605472 0.0 0.0
-0.0011982255977079706 0.0005455867305868001 0.0 0.0021661136215239962 0.0 0.0
-0.0009139918471841799 0.00043774707542654223 0.0 0.0020827013969421937 0.0 0.0
-0.0007298030750914689 0.0003719821956678637 0.0 0.002034794032676035 0.0 0.0
-0.0005961524708107124 0.00031172536051737865 0.0 0.0020560831708327093 0.0 0.0
-0.0004590744484800416 0.0001960017172699391 0.0 0.002128281815444652 0.0 0.0
-0.00020898418845751582 -0.00010529462653589838 0.0 0.0020584210575915612 0.0 0.0
0.00016659064405149387 -0.0005851943278336255 0.0 0.0011697823755580788 0.0 0.0
9.887442363672172e-05 -0.0004308618266775366 0.0 -0.001015941962667244 0.0 0.0
-0.00025514103368898255 -5.9407311294445986e-05 0.0 -0.001899523660376351 0.0 0.0
-0.000556171197005309 0.00023506500016517995 0.0 -0.0020235570628013844 0.0 0.0
-0.0007665752769278333 0.00037955195380562357 0.0 -0.0019519845256183166 0.0 0.0
-0.000978914490617891 0.00047956898884504717 0.0 -0.0018935080968001672 0.0 0.0
-0.0012524887661525264 0.0005851650243363649 0.0 -0.0018931902101965714 0.0 0.0
-0.001677305352041858 0.0007728393090040697 0.0 -0.0019550635871723454 0.0 0.0
-0.0023669449147618593 0.0011756649336334135 0.0 -0.0021936267217949335 0.0 0.0
-0.0033431874251861615 0.0018737846823952964 0.0 -0.0026975009025285435 0.0 0.0
-0.004559613349979688 0.0028469352889181065 0.0 -0.0034058598056112277 0.0 0.0
-0.005970432236979309 0.004053723691360034 0.0 -0.004155226949806162 0.0 0.0
-0.007669168742766783 0.0055581834171898326 0.0 -0.00492308369689376 0.0 0.0
-0.009812834298413523 0.007522757700758387 0.0 -0.005808995736804934 0.0 0.0
-0.012595246434432855 0.010131080464858 0.0 -0.006913958019921618 0.0 0.0
-0.016123662591213644 0.013483751582981096 0.0 -0.00835443843314293 0.0 0.0
-0.020296782396526186 0.017465656936998197 0.0 -0.010352815715445607 0.0 0.0
-0.024642192090142997 0.021585357040150965 0.0 -0.013117967515251905 0.0 0.0
-0.028108046845455356 0.024745666963980728 0.0 -0.016305928934798486 0.0 0.0
-0.028810456366106227 0.025047698177463218 0.0 -0.018293937322528542 0.0 0.0
-0.023925681365463206 0.019647316834036088 0.0 -0.015781568453511974 0.0 0.0
-0.023925681365462664 0.019647316834035422 0.0 0.0157815684535296 0.0 0.0
-0.028810456366103812 0.025047698177462108 0.0 0.018293937322550496 0.0 0.0
-0.028108046845449486 0.024745666963976287 0.0 0.016305928934814695 0.0 0.0
-0.024642192090133762 0.021585357040142306 0.0 0.013117967515257456 0.0 0.0
-0.02029678239651609 0.017465656936990204 0.0 0.010352815715443525 0.0 0.0
-0.016123662591204305 0.013483751582974879 0.0 0.008354438433140904 0.0 0.0
-0.012595246434423557 0.010131080464849562 0.0 0.006913958019917399 0.0 0.0
-0.00981283429840294 0.007522757700745508 0.0 0.005808995736801881 0.0 0.0
-0.007669168742755833 0.005558183417180063 0.0 0.004923083696887931 0.0 0.0
-0.005970432236968845 0.004053723691351263 0.0 0.004155226949798724 0.0 0.0
-0.0045596133499703415 0.002846935288910779 0.0 0.003405859805603678 0.0 0.0
-0.0033431874251791463 0.0018737846823899673 0.0 0.0026975009025248797 0.0 0.0
-0.002366944914756919 0.001175664933630527 0.0 0.002193626721793407 0.0 0.0
-0.0016773053520387493 0.0007728393090028485 0.0 0.0019550635871704303 0.0 0.0
-0.0012524887661509165 0.0005851650243353657 0.0 0.0018931902101950449 0.0 0.0
-0.0009789144906164962 0.0004795689888442145 0.0 0.001893508096797905 0.0 0.0
-0.0007665752769269799 0.00037955195380562357 0.0 0.001951984525615999 0.0 0.0
-0.0005561711970048511 0.000235065000165402 0.0 0.0020235570627995247 0.0 0.0
-0.0002551410336886842 -5.94073112945015e-05 0.0 0.0018995236603749632 0.0 0.0
9.88744236367009e-05 -0.00043086182667710984 0.0 0.0010159419626666194 0.0 0.0
3.7830283850071034e-05 -0.0002940784466974461 0.0 -0.0008579651373595426 0.0 0.0
-0.0003024971976175739 -9.223430616905892e-06 0.0 -0.0017024616502023526 0.0 0.0
-0.0006493259642577076 0.00027436644623191064 0.0 -0.0018670611053651087 0.0 0.0
-0.0009295052334721138 0.00044312862220485805 0.0 -0.0017935065690321689 0.0 0.0
-0.001216204976696264 0.0005756501037973427 0.0 -0.0016957407180629575 0.0 0.0
-0.001584406584898862 0.0007359769102325275 0.0 -0.0016581517178060057 0.0 0.0
-0.0021846009381012166 0.0010576148238811145 0.0 -0.0017481215190255084 0.0 0.0
-0.0031489851480537567 0.0017166630969177588 0.0 -0.0021330728039212488 0.0 0.0
-0.004436119378620804 0.002733532989125931 0.0 -0.0027785029942769823 0.0 0.0
-0.005962564882922225 0.004025060939092051 0.0 -0.003496339561787465 0.0 0.0
-0.007756947576028753 0.005604401327331532 0.0 -0.004208849273492077 0.0 0.0
-0.009950528172491369 0.00759501352569103 0.0 -0.004980066186758669 0.0 0.0
-0.012736976564661218 0.010190377367838677 0.0 -0.005898159659403546 0.0 0.0
-0.01633887548269325 0.013607025191216371 0.0 -0.007040916938180708 0.0 0.0
-0.020902774449531897 0.01798178429094799 0.0 -0.008523604606719859 0.0 0.0
-0.02633489575898816 0.023200797364252512 0.0 -0.010575448680825661 0.0 0.0
-0.03205661253944976 0.028650347895174066 0.0 -0.013451175429133488 0.0 0.0
-0.036677539390809755 0.03289783688136816 0.0 -0.017022416445027222 0.0 0.0
-0.03769778194338852 0.03343511478196737 0.0 -0.019779071736081344 0.0 0.0
-0.03152167487439453 0.026731688631258965 0.0 -0.018684589666287832 0.0 0.0
-0.03152167487439339 0.026731688631257855 0.0 0.018684589666306428 0.0 0.0
-0.03769778194338469 0.03343511478196093 0.0 0.019779071736104215 0.0 0.0
-0.03667753939080222 0.03289783688135928 0.0 0.017022416445044763 0.0 0.0
-0.03205661253943893 0.02865034789516363 0.0 0.013451175429139761 0.0 0.0
-0.026334895758976302 0.0232007973642403 0.0 0.01057544868082319 0.0 0.0
-0.020902774449520052 0.01798178429093511 0.0 0.00852360460671836 0.0 0.0
-0.0163388754826816 0.013607025191206379 0.0 0.00704091693817635 0.0 0.0
-0.01273697656464818 0.010190377367830461 0.0 0.005898159659401797 0.0 0.0
-0.009950528172478088 0.007595013525680816 0.0 0.004980066186754034 0.0 0.0
-0.0077569475760158185 0.0056044013273199855 0.0 0.004208849273484555 0.0 0.0
-0.005962564882910859 0.004025060939082281 0.0 0.0034963395617795268 0.0 0.0
-0.004436119378611804 0.0027335329891183813 0.0 0.002778502994272042 0.0 0.0
-0.0031489851480468872 0.0017166630969128738 0.0 0.002133072803918473 0.0 0.0
-0.0021846009380969214 0.0010576148238798933 0.0 0.001748121519023288 0.0 0.0
-0.001584406584896586 0.0007359769102331937 0.0 0.0016581517178043959 0.0 0.0
-0.001216204976694897 0.0005756501037961215 0.0 0.001695740718061639 0.0 0.0
-0.0009295052334711423 0.0004431286222036368 0.0 0.0017935065690305313 0.0 0.0
-0.0006493259642571109 0.00027436644623116124 0.0 0.0018670611053632769 0.0 0.0
-0.0003024971976173102 -9.223430617266715e-06 0.0 0.0017024616502004097 0.0 0.0
3.7830283850126545e-05 -0.0002940784466972579 0.0 0.0008579651373584601 0.0 0.0
-1.5313138327102682e-05 -0.00017677231362096812 0.0 -0.0006940007803008935 0.0 0.0
-0.00034952399435063397 4.270591394558987e-05 0.0 -0.0014712382110827066 0.0 0.0
-0.0007390048359729035 0.00031375859302135156 0.0 -0.001660458998002809 0.0 0.0
-0.001085683113051794 0.0005018605276128629 0.0 -0.0015832140113995474 0.0 0.0
-0.001441829274837353 0.0006658842213170812 0.0 -0.0014510824694470709 0.0 0.0
-0.001922245589644836 0.0009025688237226381 0.0 -0.0013943039889078301 0.0 0.0
-0.0027443854245380594 0.0014207933909042847 0.0 -0.0015517381904842642 0.0 0.0
-0.003990634360319281 0.0023654827976542503 0.0 -0.002047663138843886 0.0 0.0
-0.005540979230170953 0.0036591242062153917 0.0 -0.002688742190529392 0.0 0.0
-0.00736992928920141 0.005246827421678701 0.0 -0.003331804621779594 0.0 0.0
-0.00956154213316035 0.007211621765487841 0.0 -0.004005211239088008 0.0 0.0
-0.012267728846138304 0.009703439756904464 0.0 -0.004742869078946721 0.0 0.0
-0.01571681372925378 0.012945719607113437 0.0 -0.005635786517146135 0.0 0.0
-0.020151802374188385 0.017179762231533946 0.0 -0.006780339133060698 0.0 0.0
-0.02572889846592369 0.022553261815928316 0.0 -0.00819643321836 0.0 0.0
-0.032369428809104414 0.02895601287270999 0.0 -0.010021415802873357 0.0 0.0
-0.03941448525011461 0.03568984032967837 0.0 -0.012660690963291477 0.0 0.0
-0.04515165878979083 0.04099115137652465 0.0 -0.016325340697939117 0.0 0.0
-0.0464766374663696 0.04177129950986558 0.0 -0.020113570376570855 0.0 0.0
-0.03907422492288297 0.03382390773782551 0.0 -0.02160579349620584 0.0 0.0
-0.03907422492288131 0.033823907737823955 0.0 0.021605793496225406 0.0 0.0
-0.046476637466364434 0.04177129950986136 0.0 0.020113570376594836 0.0 0.0
-0.045151658789781716 0.04099115137651754 0.0 0.016325340697957963 0.0 0.0
-0.039414485250102466 0.03568984032966749 0.0 0.012660690963297638 0.0 0.0
-0.032369428809090744 0.028956012872697556 0.0 0.010021415802871886 0.0 0.0
-0.025728898465909436 0.022553261815919212 0.0 0.008196433218359861 0.0 0.0
-0.020151802374174452 0.017179762231523066 0.0 0.006780339133057228 0.0 0.0
-0.015716813729238215 0.012945719607098782 0.0 0.005635786517142555 0.0 0.0
-0.012267728846122622 0.009703439756888477 0.0 0.004742869078941808 0.0 0.0
-0.009561542133145265 0.007211621765474185 0.0 0.0040052112390812356 0.0 0.0
-0.007369929289188129 0.005246827421669487 0.0 0.003331804621771295 0.0 0.0
-0.005540979230159913 0.00365912420620651 0.0 0.0026887421905245346 0.0 0.0
-0.003990634360310691 0.0023654827976462567 0.0 0.0020476631388402777 0.0 0.0
-0.002744385424532387 0.001420793390901287 0.0 0.001551738190481336 0.0 0.0
-0.0019222455896416614 0.0009025688237211948 0.0 0.0013943039889058595 0.0 0.0
-0.0014418292748358923 0.000665884221315638 0.0 0.0014510824694461966 0.0 0.0
-0.0010856831130506388 0.0005018605276121968 0.0 0.00158321401139834 0.0 0.0
-0.0007390048359722477 0.00031375859302118503 0.0 0.001660458998001324 0.0 0.0
-0.00034952399435028356 4.270591394571477e-05 0.0 0.0014712382110813188 0.0 0.0
-1.5313138327161663e-05 -0.00017677231362076516 0.0 0.0006940007802999221 0.0 0.0
-5.836654902158234e-05 -8.12499896947344e-05 0.0 -0.0005234742457390501 0.0 0.0
-0.00039313137446525537 9.338540963266251e-05 0.0 -0.001209135068341638 0.0 0.0
-0.0008251508368448124 0.000352834843830252 0.0 -0.001404048901829033 0.0 0.0
-0.0012366435777289853 0.0005551330823160283 0.0 -0.0013218397907315549 0.0 0.0
-0.0016592711094895185 0.0007537298747672949 0.0 -0.0011661525135254341 0.0 0.0
-0.0022876890362784896 0.0011143014690815356 0.0 -0.0011267978535071665 0.0 0.0
-0.003365886750120506 0.0018795099926245395 0.0 -0.0013712493607181409 0.0 0.0
-0.00484660513538801 0.0030746622140805924 0.0 -0.001858086737439868 0.0 0.0
-0.006639978899533036 0.004607107958166323 0.0 -0.002391375179868288 0.0 0.0
-0.008785525264366323 0.006503643332505082 0.0 -0.0029579667391039233 0.0 0.0
-0.011383088331273064 0.008863217265721035 0.0 -0.0035556815318806834 0.0 0.0
-0.01461888948348107 0.011868957347002329 0.0 -0.0042182013088988835 0.0 0.0
-0.018749642718503573 0.015776513199070363 0.0 -0.005044572706872641 0.0 0.0
-0.02402696653514555 0.02082956813273129 0.0 -0.006100198437398674 0.0 0.0
-0.030586016941725913 0.027164155248911692 0.0 -0.007374221601450293 0.0 0.0
-0.03833235918159 0.034659582673356004 0.0 -0.00882932491600169 0.0 0.0
-0.046585031626666204 0.042571935325198096 0.0 -0.010776239632660833 0.0 0.0
-0.05343034415638204 0.048932938754170374 0.0 -0.014114146064174327 0.0 0.0
-0.055250023467630985 0.05014186377790519 0.0 -0.019245634086618002 0.0 0.0
-0.04684317832279376 0.04114187577068007 0.0 -0.024542614611063496 0.0 0.0
-0.04684317832279152 0.04114187577067718 0.0 0.02454261461108287 0.0 0.0
-0.05525002346762457 0.050141863777898754 0.0 0.019245634086640484 0.0 0.0
-0.0534303441563712 0.048932938754160826 0.0 0.014114146064192368 0.0 0.0
-0.046585031626652756 0.04257193532518477 0.0 0.010776239632666718 0.0 0.0
-0.03833235918157437 0.03465958267334179 0.0 0.008829324916001746 0.0 0.0
-0.03058601694170973 0.027164155248897925 0.0 0.007374221601450293 0.0 0.0
-0.024026966535129025 0.020829568132716636 0.0 0.0061001984373957735 0.0 0.0
-0.018749642718485934 0.015776513199056375 0.0 0.005044572706869574 0.0 0.0
-0.014618889483462755 0.011868957346988784 0.0 0.004218201308894484 0.0 0.0
-0.011383088331255741 0.008863217265706158 0.0 0.0035556815318751184 0.0 0.0
-0.008785525264351224 0.006503643332490205 0.0 0.002957966739097498 0.0 0.0
-0.0066399788995200985 0.004607107958155887 0.0 0.00239137517986375 0.0 0.0
-0.004846605135377938 0.00307466221407271 0.0 0.0018580867374365234 0.0 0.0
-0.003365886750113182 0.0018795099926187664 0.0 0.0013712493607154486 0.0 0.0
-0.002287689036274264 0.0011143014690790931 0.0 0.0011267978535049183 0.0 0.0
-0.0016592711094877942 0.0007537298747664622 0.0 0.001166152513525004 0.0 0.0
-0.0012366435777277848 0.0005551330823159728 0.0 0.0013218397907302087 0.0 0.0
-0.0008251508368441185 0.0003528348438299189 0.0 0.0014040489018274094 0.0 0.0
-0.0003931313744648772 9.338540963269026e-05 0.0 0.0012091350683403612 0.0 0.0
-5.8366549021599684e-05 -8.124998969467369e-05 0.0 0.0005234742457385921 0.0 0.0
-8.780595705927541e-05 -1.0302403540621285e-05 0.0 -0.0003484168455258757 0.0 0.0
-0.00042818693453260115 0.0001390839922262299 0.0 -0.0009182426770080188 0.0 0.0
-0.0009073207427171409 0.0003904376610521232 0.0 -0.0010953076636464332 0.0 0.0
-0.0013846782704457633 0.0006046275870259521 0.0 -0.0010111035689872178 0.0 0.0
-0.0018782317196096021 0.0008526438971758754 0.0 -0.0008521093684762254 0.0 0.0
-0.0027068057648041155 0.001389270873494275 0.0 -0.0008660284953165565 0.0 0.0
-0.004016062358274897 0.002391140460601182 0.0 -0.0011139094683040585 0.0 0.0
-0.005692193012285268 0.003797427771731643 0.0 -0.0014992509508551244 0.0 0.0
-0.0077376885577827015 0.005576263508034085 0.0 -0.0019283655007540368 0.0 0.0
-0.010205844773947731 0.007785758431852141 0.0 -0.0023872098261407126 0.0 0.0
-0.013220645241917281 0.010549455813877895 0.0 -0.0028771629542443666 0.0 0.0
-0.01700038118324798 0.014083617470473486 0.0 -0.0034191233163454182 0.0 0.0
-0.021828111264611788 0.018667068768546624 0.0 -0.0040961420487954925 0.0 0.0
-0.02795591646880219 0.024547405254794263 0.0 -0.005013265634427 0.0 0.0
-0.03546810291955019 0.03180702792627921 0.0 -0.006099051289562896 0.0 0.0
-0.04418129020718514 0.04024772412113231 0.0 -0.007080226620580887 0.0 0.0
-0.05341609102569077 0.04915484260451608 0.0 -0.007985399071472332 0.0 0.0
-0.06138582982646955 0.05661175688105757 0.0 -0.010415814287529468 0.0 0.0
-0.06410047904490833 0.058625278466922115 0.0 -0.016870189410341574 0.0 0.0
-0.05512575617950409 0.04894316512763264 0.0 -0.02728477295822146 0.0 0.0
-0.05512575617950153 0.048943165127631305 0.0 0.02728477295823828 0.0 0.0
-0.06410047904490077 0.058625278466915454 0.0 0.016870189410360975 0.0 0.0
-0.06138582982645674 0.05661175688104647 0.0 0.010415814287545067 0.0 0.0
-0.05341609102567556 0.04915484260450009 0.0 0.007985399071477078 0.0 0.0
-0.044181290207167406 0.040247724121117434 0.0 0.00708022662058394 0.0 0.0
-0.03546810291953224 0.031807027926265 0.0 0.0060990512895637145 0.0 0.0
-0.027955916468782933 0.02454740525477761 0.0 0.005013265634425168 0.0 0.0
-0.021828111264591898 0.01866706876852753 0.0 0.004096142048793355 0.0 0.0
-0.017000381183227182 0.014083617470455723 0.0 0.0034191233163432116 0.0 0.0
-0.013220645241897793 0.010549455813860797 0.0 0.0028771629542397176 0.0 0.0
-0.010205844773930814 0.007785758431834933 0.0 0.0023872098261351615 0.0 0.0
-0.00773768855776822 0.005576263508020429 0.0 0.0019283655007508865 0.0 0.0
-0.005692193012273528 0.003797427771721873 0.0 0.0014992509508514468 0.0 0.0
-0.004016062358266126 0.0023911404605938547 0.0 0.001113909468301033 0.0 0.0
-0.0027068057647987483 0.0013892708734906112 0.0 0.0008660284953142944 0.0 0.0
-0.0018782317196074615 0.0008526438971744321 0.0 0.0008521093684756564 0.0 0.0
-0.0013846782704445698 0.000604627587025286 0.0 0.0010111035689862186 0.0 0.0
-0.0009073207427163534 0.0003904376610510685 0.0 0.0010953076636452397 0.0 0.0
-0.0004281869345321397 0.0001390839922258552 0.0 0.0009182426770071445 0.0 0.0
-8.780595705915745e-05 -1.0302403540720165e-05 0.0 0.0003484168455252512 0.0 0.0
-9.770397616112869e-05 3.25283826368844e-05 0.0 -0.00017549994902785193 0.0 0.0
-0.00044653328347954435 0.00017440220717881982 0.0 -0.0005986308330339085 0.0 0.0
-0.0009849473918545348 0.0004253231362004173 0.0 -0.0007266134121051843 0.0 0.0
-0.0015347863857850946 0.0006537714519934124 0.0 -0.0006549341712146078 0.0 0.0
-0.002121472101833069 0.0009902075290115775 0.0 -0.0005412656953706907 0.0 0.0
-0.0031739040926573175 0.0017283650886211754 0.0 -0.0005691210944197278 0.0 0.0
-0.004660781036033915 0.0029301354429982496 0.0 -0.0007558229676229988 0.0 0.0
-0.006531363595205064 0.004530636639459074 0.0 -0.0010136342595794545 0.0 0.0
-0.00883078870557745 0.006559498660185015 0.0 -0.0013066568722442107 0.0 0.0
-0.011628267983166421 0.009087606575077456 0.0 -0.0016282203253812078 0.0 0.0
-0.015071357897260038 0.012264164540695566 0.0 -0.0019670043768240386 0.0 0.0
-0.019409502995112446 0.016338378840854872 0.0 -0.0023414483417668053 0.0 0.0
-0.02494733951360059 0.02161126895197385 0.0 -0.002842830522737483 0.0 0.0
-0.031919339679749095 0.028310664514505257 0.0 -0.003506492923523674 0.0 0.0
-0.04035326746423833 0.036457770370863285 0.0 -0.0042516650029117975 0.0 0.0
-0.04993050597059259 0.04573251512576215 0.0 -0.004836623434062548 0.0 0.0
-0.05985917147865252 0.055339771199137244 0.0 -0.004895789139090556 0.0 0.0
-0.06868359882338665 0.0637744788386232 0.0 -0.005393961789910806 0.0 0.0
-0.07301097365705972 0.06721221214456596 0.0 -0.012050650092964243 0.0 0.0
-0.06438690535913714 0.05763329205276291 0.0 -0.029240370284555395 0.0 0.0
-0.06438690535913423 0.057633292052760465 0.0 0.02924037028456794 0.0 0.0
-0.07301097365705098 0.06721221214455908 0.0 0.012050650092979148 0.0 0.0
-0.06868359882337201 0.06377447883861276 0.0 0.005393961789921964 0.0 0.0
-0.059859171478634884 0.05533977119912192 0.0 0.004895789139092832 0.0 0.0
-0.049930505970572775 0.04573251512574372 0.0 0.004836623434064061 0.0 0.0
-0.0403532674642182 0.03645777037084352 0.0 0.004251665002911881 0.0 0.0
-0.03191933967972749 0.02831066451448616 0.0 0.00350649292352391 0.0 0.0
-0.02494733951357829 0.02161126895195209 0.0 0.0028428305227357065 0.0 0.0
-0.019409502995089076 0.01633837884083289 0.0 0.0023414483417659726 0.0 0.0
-0.015071357897238557 0.012264164540676803 0.0 0.0019670043768205553 0.0 0.0
-0.011628267983147597 0.009087606575061469 0.0 0.0016282203253777383 0.0 0.0
-0.00883078870556156 0.006559498660171692 0.0 0.0013066568722427119 0.0 0.0
-0.006531363595191927 0.004530636639448304 0.0 0.0010136342595775394 0.0 0.0
-0.004660781036023763 0.002930135442991033 0.0 0.0007558229676212225 0.0 0.0
-0.0031739040926509424 0.0017283650886172897 0.0 0.0005691210944182984 0.0 0.0
-0.0021214721018302327 0.0009902075290101342 0.0 0.0005412656953699552 0.0 0.0
-0.0015347863857838942 0.0006537714519920801 0.0 0.000654934171213567 0.0 0.0
-0.0009849473918536363 0.0004253231361999177 0.0 0.0007266134121046847 0.0 0.0
-0.00044653328347910026 0.0001744022071786533 0.0 0.0005986308330334922 0.0 0.0
-9.770397616098644e-05 3.252838263678205e-05 0.0 0.00017549994902765764 0.0 0.0
-7.723481346597061e-05 4.2040969552459284e-05 0.0 -1.9975791845899815e-05 0.0 0.0
-0.0004353763302711866 0.0001915848870185921 0.0 -0.00024493330067279495 0.0 0.0
-0.0010582872178143965 0.00045409118975414664 0.0 -0.0002839682060035431 0.0 0.0
-0.0016994743068457496 0.0007223890283909462 0.0 -0.00026288497984783277 0.0 0.0
-0.0024100729041556523 0.0011686947910485301 0.0 -0.00021475028662777673 0.0 0.0
-0.003657831158860189 0.002095151918892091 0.0 -0.0002132761941191219 0.0 0.0
-0.005297524040734802 0.0034786010060654515 0.0 -0.0002983542415021523 0.0 0.0
-0.007359388218342991 0.005269092767668959 0.0 -0.00040319385880807634 0.0 0.0
-0.009916312334839708 0.0075490483187122814 0.0 -0.0005317503635500487 0.0 0.0
-0.013048931945195186 0.010400210177101243 0.0 -0.0006788304371480869 0.0 0.0
-0.016932709649143354 0.014003182814800175 0.0 -0.000827995816812116 0.0 0.0
-0.021849544913844915 0.01863600327189352 0.0 -0.001013593947628899 0.0 0.0
-0.028093258640481872 0.024592401937010067 0.0 -0.0012511007961827358 0.0 0.0
-0.035886437568723215 0.03208690178798279 0.0 -0.001537643109215614 0.0 0.0
-0.0452141510234844 0.04109465910226828 0.0 -0.0018460559719215008 0.0 0.0
-0.05560800299890914 0.05114863005542247 0.0 -0.00201753874374877 0.0 0.0
-0.06605590078968314 0.06125563201728834 0.0 -0.0017800063800620936 0.0 0.0
-0.0751036857541068 0.06998974153642368 0.0 -0.0008767624494351312 0.0 0.0
-0.08082850870718745 0.0753126404323492 0.0 -0.0029982353687821317 0.0 0.0
-0.07592832185847741 0.06814685847268165 0.0 -0.02716679128203825 0.0 0.0
-0.07592832185847419 0.06814685847267876 0.0 0.0271667912820438 0.0 0.0
-0.08082850870717771 0.07531264043233854 0.0 0.0029982353687883767 0.0 0.0
-0.07510368575408982 0.06998974153640747 0.0 0.0008767624494409321 0.0 0.0
-0.0660559007896625 0.06125563201727213 0.0 0.0017800063800620103 0.0 0.0
-0.0556080029988876 0.0511486300554036 0.0 0.0020175387437495335 0.0 0.0
-0.04521415102346142 0.04109465910224852 0.0 0.0018460559719201686 0.0 0.0
-0.03588643756869912 0.03208690178796414 0.0 0.0015376431092172238 0.0 0.0
-0.028093258640457298 0.02459240193698875 0.0 0.0012511007961812787 0.0 0.0
-0.02184954491381904 0.01863600327186954 0.0 0.0010135939476290934 0.0 0.0
-0.016932709649119693 0.01400318281477897 0.0 0.0008279958168094237 0.0 0.0
-0.01304893194517466 0.01040021017708348 0.0 0.0006788304371465326 0.0 0.0
-0.009916312334822474 0.007549048318696405 0.0 0.0005317503635493687 0.0 0.0
-0.007359388218328573 0.00526909276765597 0.0 0.0004031938588067302 0.0 0.0
-0.005297524040723271 0.0034786010060549044 0.0 0.00029835424150159717 0.0 0.0
-0.0036578311588527828 0.0020951519188854295 0.0 0.00021327619411884435 0.0 0.0
-0.002410072904152124 0.0011686947910459766 0.0 0.0002147502866274159 0.0 0.0
-0.0016994743068442664 0.0007223890283909462 0.0 0.00026288497984747194 0.0 0.0
-0.0010582872178134402 0.0004540911897540634 0.0 0.0002839682060034321 0.0 0.0
-0.00043537633027075943 0.00019158488701838394 0.0 0.0002449333006731419 0.0 0.0
-7.723481346577242e-05 4.2040969552356935e-05 0.0 1.997579184606635e-05 0.0 0.0
SCALARS Statev float 8
LOOKUP_TABLE default
0.0 0.007392537995995738 0.005544700465061151 -0.005924728165883261 0.0003800277008221093 -0.00304854943831608 0.0 0.0
0.0 0.00012719368401499994 3.8433716010026154e-05 -2.6837617644650096e-05 -1.1596098365376044e-05 4.8527153520470463e-05 0.0 0.0
0.0 3.342380937738801e-05 -4.754075056001044e-06 3.773145031477424e-06 9.809300245235895e-07 5.62033213615258e-07 0.0 0.0
0.0 6.040264119865415e-05 -8.150581126679599e-06 6.217562617569673e-06 1.9330185091098255e-06 1.0421526889336197e-06 0.0 0.0
0.0 0.00048558720032167494 0.00027520315288799134 -0.0002173381918227419 -5.786496106524999e-05 -3.4542190556592135e-05 0.0 0.0
0.0 0.0013016128134717675 0.0012091981687692309 -0.0009808482237250013 -0.00022834994504422943 -0.00010115804222185165 0.0 0.0
0.0 0.0028325248141230957 0.0026044854094491717 -0.002196538061386763 -0.0004079473480624081 -0.0001836159426229674 0.0 0.0
0.0 0.004927067930199935 0.004479058977986577 -0.0039057170238320036 -0.0005733419541545739 -0.0002807148596550712 0.0 0.0
0.0 0.007631277520509959 0.006856067125753403 -0.006141642131413062 -0.0007144249943403406 -0.00040023612217581026 0.0 0.0
0.0 0.011031038015223189 0.00980499459409621 -0.008969125635481391 -0.0008358689586148199 -0.0005409563930660589 0.0 0.0
0.0 0.01535334074648052 0.013504039468769932 -0.012560479877493362 -0.0009435595912765673 -0.0006893253806002003 0.0 0.0
0.0 0.020643710584819855 0.018242912068227576 -0.01719782741353945 -0.001045084654688122 -0.0008765188283358206 0.0 0.0
0.0 0.027537284584774377 0.024306797336493966 -0.023162887289274577 -0.001143910047219386 -0.0011117788305139854 0.0 0.0
0.0 0.036285798865466165 0.03191679249610249 -0.0306727465411249 -0.0012440459549775888 -0.0013947555144170243 0.0 0.0
0.0 0.04685542075151832 0.04109908011979916 -0.039749861168679165 -0.0013492189511199906 -0.0017394503970834469 0.0 0.0
0.0 0.058895470833635555 0.05151881511421115 -0.05005848288663226 -0.0014603322275788988 -0.0020958100447996215 0.0 0.0
0.0 0.07149201781236389 0.06241190317427744 -0.06083794930819274 -0.0015739538660846826 -0.002319300334148346 0.0 0.0
0.0 0.08332826291241315 0.07265294463775719 -0.07097085467875117 -0.0016820899590059943 -0.0021971725791504 0.0 0.0
0.0 0.09290154463877548 0.08094133045459405 -0.07916563829843638 -0.0017756921561576685 -0.0016735998935679041 0.0 0.0
0.0 0.09841293696206485 0.0858496144994488 -0.08398643407397503 -0.0018631804254737858 -0.0012341451098202886 0.0 0.0
0.0 0.09841293696206366 0.08584961449944767 -0.08398643407397413 -0.0018631804254735107 0.001234145109822516 0.0 0.0
0.0 0.09290154463876621 0.08094133045458585 -0.07916563829842854 -0.001775692156157293 0.0016735998935759288 0.0 0.0
0.0 0.08332826291239612 0.0726529446377421 -0.07097085467873693 -0.0016820899590051558 0.002197172579155424 0.0 0.0
0.0 0.07149201781234173 0.062411903174257904 -0.06083794930817394 -0.0015739538660839558 0.0023193003341519854 0.0 0.0
0.0 0.058895470833612365 0.05151881511419069 -0.050058482886612556 -0.0014603322275781373 0.002095810044796537 0.0 0.0
0.0 0.04685542075149379 0.04109908011977776 -0.03974986116865812 -0.0013492189511196335 0.001739450397083577 0.0 0.0
0.0 0.03628579886544121 0.03191679249608069 -0.030672746541103635 -0.0012440459549770534 0.0013947555144159106 0.0 0.0
0.0 0.0275372845847478 0.024306797336470752 -0.02316288728925192 -0.0011439100472188301 0.0011117788305140845 0.0 0.0
0.0 0.02064371058479354 0.018242912068204428 -0.01719782741351701 -0.0010450846546874156 0.0008765188283342373 0.0 0.0
0.0 0.015353340746456699 0.013504039468748619 -0.01256047987747288 -0.0009435595912757355 0.0006893253805994278 0.0 0.0
0.0 0.011031038015202825 0.00980499459407823 -0.008969125635464245 -0.0008358689586139846 0.0005409563930636173 0.0 0.0
0.0 0.007631277520493784 0.006856067125738516 -0.006141642131399022 -0.0007144249943394932 0.0004002361221752356 0.0 0.0
0.0 0.004927067930187754 0.0044790589779748965 -0.0039057170238211824 -0.0005733419541537133 0.0002807148596540023 0.0 0.0
0.0 0.002832524814114353 0.0026044854094404994 -0.0021965380613790733 -0.00040794734806142547 0.00018361594262253573 0.0 0.0
0.0 0.0013016128134662425 0.0012091981687634827 -0.0009808482237201445 -0.00022834994504333786 0.00010115804222127668 0.0 0.0
0.0 0.0004855872003186745 0.0002752031528858047 -0.00021733819182099038 -5.7864961064814333e-05 3.454219055635537e-05 0.0 0.0
0.0 6.040264119788634e-05 -8.150581126412055e-06 6.217562617365759e-06 1.933018509046285e-06 -1.0421526889327563e-06 0.0 0.0
0.0 3.342380937687491e-05 -4.754075055922566e-06 3.7731450314146314e-06 9.80930024507978e-07 -5.620332136057866e-07 0.0 0.0
0.0 0.00012719368401413385 3.843371600974854e-05 -2.6837617644471796e-05 -1.1596098365276931e-05 -4.852715352006112e-05 0.0 0.0
0.0 0.00739253799598448 0.005544700465053597 -0.005924728165874681 0.00038002770082108195 0.003048549438300175 0.0 0.0
0.0 0.0050613175303728854 0.0035553331780694905 -0.003994682711479363 0.0004393495334098729 -0.003334465241598226 0.0 0.0
0.0 0.0 0.0 0.0 0.0 0.0 0.0 0.0
0.0 9.430826945183483e-08 -1.020951514236367e-08 7.758883502814768e-09 2.450631639548195e-09 3.6392644398315674e-09 0.0 0.0
0.0 2.818381018079643e-05 -3.8952448361751605e-06 2.9799769798241583e-06 9.152678563507688e-07 1.0878372165221707e-06 0.0 0.0
0.0 0.00026435037295922676 8.855358278130588e-05 -6.991406237734833e-05 -1.8639520403957593e-05 -2.659676324453776e-05 0.0 0.0
0.0 0.0008904806679717119 0.0008290098615495676 -0.0006646541859799625 -0.0001643556755696051 -0.0001916921901008542 0.0 0.0
0.0 0.0022316791292476385 0.002049947369233004 -0.0017062061414274536 -0.0003437412278055499 -0.00040644552457686775 0.0 0.0
0.0 0.004097796081957718 0.00372443612104349 -0.003208972602849295 -0.0005154635181941944 -0.0006533801291911176 0.0 0.0
0.0 0.006492914475633037 0.005846935031687182 -0.005184352312381011 -0.0006625827193061682 -0.0009345077168817527 0.0 0.0
0.0 0.009486624330706045 0.008466869331125872 -0.007679987389903803 -0.0007868819412220681 -0.001250794331882881 0.0 0.0
0.0 0.01325286813366283 0.011732234962462226 -0.010837462430835828 -0.0008947725316263903 -0.001594385162940099 0.0 0.0
0.0 0.018126513507745242 0.015895747404957743 -0.014903290738802304 -0.0009924566661554395 -0.0019806057457512527 0.0 0.0
0.0 0.02416929055324797 0.021268602202756032 -0.020183248380107717 -0.0010853538226483204 -0.002491593146176078 0.0 0.0
0.0 0.03193799780796256 0.02807648336362431 -0.026897945942578435 -0.0011785374210458684 -0.003159312457450577 0.0 0.0
0.0 0.04146234872670571 0.036346641345832924 -0.03507089427263171 -0.00127574707320122 -0.003952122737007529 0.0 0.0
0.0 0.052329381033618 0.04578342461319162 -0.044405670505236645 -0.00137775410795498 -0.0047662585230543175 0.0 0.0
0.0 0.06376398480142598 0.05570384529352173 -0.054222071201123406 -0.0014817740923983131 -0.00528235668204936 0.0 0.0
0.0 0.07460779736298286 0.06509843203947642 -0.06351630735191868 -0.0015821246875577203 -0.005089920148624045 0.0 0.0
0.0 0.08339873097053024 0.0727247274416956 -0.0710488288069103 -0.0016758986347853075 -0.004068560663207299 0.0 0.0
0.0 0.08855154137274088 0.07720602746469611 -0.07546486417976819 -0.0017411632849279178 -0.0022765907691127004 0.0 0.0
0.0 0.08855154137273892 0.07720602746469422 -0.07546486417976654 -0.0017411632849276726 0.0022765907691229817 0.0 0.0
0.0 0.08339873097052142 0.07272472744168772 -0.07104882880690253 -0.0016758986347851937 0.004068560663224241 0.0 0.0
0.0 0.07460779736296692 0.06509843203946243 -0.0635163073519047 -0.001582124687557701 0.005089920148635662 0.0 0.0
0.0 0.06376398480140794 0.055703845293505624 -0.05422207120110797 -0.0014817740923976353 0.0052823566820564185 0.0 0.0
0.0 0.05232938103359862 0.04578342461317466 -0.04440567050522026 -0.0013777541079543834 0.004766258523051998 0.0 0.0
0.0 0.04146234872668658 0.036346641345815875 -0.035070894272615685 -0.0012757470732001831 0.003952122737007857 0.0 0.0
0.0 0.031937997807942375 0.02807648336360631 -0.026897945942561594 -0.0011785374210446999 0.0031593124574499564 0.0 0.0
0.0 0.024169290553227453 0.021268602202737828 -0.02018324838009041 -0.001085353822647419 0.002491593146175736 0.0 0.0
0.0 0.01812651350772346 0.015895747404938397 -0.014903290738783636 -0.0009924566661547538 0.0019806057457488237 0.0 0.0
0.0 0.01325286813364107 0.011732234962442944 -0.010837462430817174 -0.000894772531625766 0.001594385162938109 0.0 0.0
0.0 0.009486624330688889 0.0084668693311103 -0.007679987389889029 -0.000786881941221273 0.001250794331879231 0.0 0.0
0.0 0.006492914475619095 0.00584693503167402 -0.005184352312368672 -0.000662582719305347 0.0009345077168800899 0.0 0.0
0.0 0.004097796081946914 0.003724436121033224 -0.003208972602839977 -0.0005154635181932453 0.0006533801291892019 0.0 0.0
0.0 0.0022316791292401506 0.0020499473692254834 -0.001706206141420954 -0.00034374122780452866 0.0004064455245755745 0.0 0.0
0.0 0.0008904806679666416 0.0008290098615448794 -0.0006646541859760725 -0.000164355675568807 0.00019169219009965388 0.0 0.0
0.0 0.00026435037295686526 8.855358278003348e-05 -6.991406237634547e-05 -1.86395204036881e-05 2.6596763244184343e-05 0.0 0.0
0.0 2.8183810180192382e-05 -3.895244836083742e-06 2.9799769797543107e-06 9.152678563295707e-07 -1.0878372164934148e-06 0.0 0.0
0.0 9.430826938068039e-08 -1.0209515134588993e-08 7.758883496907494e-09 2.4506316376819497e-09 -3.6392644370560787e-09 0.0 0.0
0.0 0.0 0.0 0.0 0.0 0.0 0.0 0.0
0.0 0.005061317530360187 0.0035553331780611456 -0.003994682711470112 0.0004393495334089676 0.003334465241584359 0.0 0.0
0.0 0.00360391006589461 0.0023732999881113633 -0.0027875525356422307 0.0004142525475308676 -0.002779359740628276 0.0 0.0
0.0 0.0 0.0 0.0 0.0 0.0 0.0 0.0
0.0 0.0 0.0 0.0 0.0 0.0 0.0 0.0
0.0 2.4307082921929654e-06 -2.7159244173351415e-07 2.053625051523891e-07 6.622993658110159e-08 1.4164277531911574e-07 0.0 0.0
0.0 9.492400375514542e-05 1.2905684200409883e-05 -1.0247099938729234e-05 -2.6585842616805607e-06 -7.026938167686012e-06 0.0 0.0
0.0 0.0006629518541544643 0.0004511619210046357 -0.00035839308723999245 -9.276883376464286e-05 -0.00018561842044428632 0.0 0.0
0.0 0.001654712436934238 0.0015085581794156422 -0.0012366193681947531 -0.00027193881122088875 -0.0005184693507395372 0.0 0.0
0.0 0.0032865305822604154 0.0029781141137758104 -0.002531484921070579 -0.0004466291927052304 -0.0009026803216141325 0.0 0.0
0.0 0.005395783612272599 0.004844258833140508 -0.004243463644096198 -0.000600795189044311 -0.0013194896882284149 0.0 0.0
0.0 0.00801036912070486 0.007140020509355123 -0.006410241759711461 -0.0007297787496436606 -0.0017761871012615135 0.0 0.0
0.0 0.011301206909745568 0.009982994100377469 -0.009144329130390882 -0.0008386649699865866 -0.002275824109055644 0.0 0.0
0.0 0.015438461366441386 0.013596913380447868 -0.012662660402092251 -0.0009342529783556207 -0.0028378786507464475 0.0 0.0
0.0 0.02091850374469011 0.01826729323532391 -0.017244797679836964 -0.0010224955554869394 -0.0035372256360084184 0.0 0.0
0.0 0.027696470275342826 0.02424805689937154 -0.023138509459088644 -0.0011095474402828963 -0.004483387028897989 0.0 0.0
0.0 0.03609600217061101 0.03157803605674188 -0.030379539293688522 -0.0011984967630533539 -0.005650314497495893 0.0 0.0
0.0 0.045816115373613235 0.040003520175754904 -0.03871255545099972 -0.0012909647247551768 -0.006819908659014203 0.0 0.0
0.0 0.05610605847712788 0.04894336174702972 -0.04755831028140117 -0.0013850514656285349 -0.007578765686464113 0.0 0.0
0.0 0.06591892522747445 0.05750343409692347 -0.05602419644882551 -0.0014792376480979438 -0.007408768857965485 0.0 0.0
0.0 0.0739393630404286 0.0645207910398705 -0.06295595417465336 -0.0015648368652170883 -0.005965719120989254 0.0 0.0
0.0 0.07874001356014602 0.06874277038368545 -0.06712131127253738 -0.001621459111148076 -0.0030890747646322037 0.0 0.0
0.0 0.07874001356014355 0.06874277038368304 -0.06712131127253496 -0.0016214591111480834 0.0030890747646483193 0.0 0.0
0.0 0.07393936304042077 0.06452079103986312 -0.06295595417464617 -0.001564836865216928 0.005965719121011116 0.0 0.0
0.0 0.06591892522746219 0.05750343409691221 -0.0560241964488146 -0.0014792376480975713 0.0074087688579809186 0.0 0.0
0.0 0.05610605847711144 0.04894336174701501 -0.04755831028138684 -0.0013850514656281578 0.007578765686472592 0.0 0.0
0.0 0.045816115373594535 0.040003520175738515 -0.03871255545098393 -0.0012909647247545772 0.00681990865901205 0.0 0.0
0.0 0.036096002170593486 0.031578036056726405 -0.030379539293673645 -0.0011984967630527634 0.005650314497495432 0.0 0.0
0.0 0.027696470275325086 0.024248056899355833 -0.023138509459073607 -0.0011095474402822256 0.004483387028897357 0.0 0.0
0.0 0.02091850374467178 0.018267293235307437 -0.017244797679821483 -0.0010224955554859452 0.0035372256360070905 0.0 0.0
0.0 0.015438461366422776 0.01359691338043123 -0.012662660402076729 -0.0009342529783545008 0.0028378786507433276 0.0 0.0
0.0 0.011301206909728223 0.009982994100361586 -0.009144329130375831 -0.0008386649699857519 0.0022758241090519967 0.0 0.0
0.0 0.00801036912068959 0.007140020509341083 -0.006410241759698172 -0.0007297787496429106 0.0017761871012565778 0.0 0.0
0.0 0.005395783612260505 0.004844258833129212 -0.004243463644085821 -0.0006007951890433896 0.0013194896882256623 0.0 0.0
0.0 0.0032865305822507127 0.002978114113766536 -0.002531484921062314 -0.000446629192704222 0.0009026803216113159 0.0 0.0
0.0 0.0016547124369280662 0.001508558179409585 -0.0012366193681895912 -0.00027193881121999363 0.000518469350737799 0.0 0.0
0.0 0.000662951854150478 0.0004511619210015962 -0.0003583930872375499 -9.276883376404589e-05 0.00018561842044306114 0.0 0.0
0.0 9.49240037540351e-05 1.2905684200123196e-05 -1.024709993849704e-05 -2.6585842616260423e-06 7.026938167504192e-06 0.0 0.0
0.0 2.430708291709614e-06 -2.715924416780426e-07 2.0536250511018518e-07 6.622993656783338e-08 -1.4164277528895462e-07 0.0 0.0
0.0 0.0 0.0 0.0 0.0 0.0 0.0 0.0
0.0 0.0 0.0 0.0 0.0 0.0 0.0 0.0
0.0 0.003603910065883847 0.002373299988103998 -0.0027875525356339335 0.00041425254752993506 0.0027793597406163602 0.0 0.0
0.0 0.0025188614291007947 0.0015699400764299814 -0.0019165853627062664 0.0003466452862762848 -0.0020410371283004877 0.0 0.0
0.0 0.0 0.0 0.0 0.0 0.0 0.0 0.0
0.0 0.0 0.0 0.0 0.0 0.0 0.0 0.0
0.0 1.1217285375004458e-06 -1.148405540922369e-07 8.789999552340031e-08 2.6940558568849977e-08 1.165259803878264e-07 0.0 0.0
0.0 3.4540911121190496e-05 -8.403799254812917e-07 6.431665734340873e-07 1.9721335204730582e-07 9.319741913605288e-07 0.0 0.0
0.0 0.00036147315519036085 0.00019619842941887263 -0.00015464710454013214 -4.1551324878740605e-05 -0.000122869800455085 0.0 0.0
0.0 0.0011557142353779428 0.000987339714326672 -0.0007972220442927541 -0.00019011767003391755 -0.0005129124968189257 0.0 0.0
0.0 0.0025074645984577383 0.002247393064772081 -0.0018801222704598476 -0.0003672707943122334 -0.0010182188641797189 0.0 0.0
0.0 0.0043263978186577935 0.0038556831148320457 -0.0033294447924049763 -0.0005262383224270702 -0.0015494460243005305 0.0 0.0
0.0 0.0065672216302686106 0.005832057929035751 -0.005171058287331782 -0.0006609996417039666 -0.0021182652926105008 0.0 0.0
0.0 0.00937145528083175 0.008263795001165518 -0.007490433162055523 -0.00077336183910999 -0.0027307682462222 0.0 0.0
0.0 0.012942041879177624 0.011338239086952764 -0.010468916204959915 -0.0008693228819928471 -0.0034192233392444913 0.0 0.0
0.0 0.017561003625770122 0.015321821771368265 -0.014367787198835538 -0.0009540345725327211 -0.004281811479932024 0.0 0.0
0.0 0.02354806426685301 0.020457400510592423 -0.019421308628069095 -0.0010360918825233264 -0.005401548696310371 0.0 0.0
0.0 0.03094396543413015 0.026813871800190486 -0.02569638796157417 -0.0011174838386163082 -0.00678531658744504 0.0 0.0
0.0 0.03930642325292988 0.034202073480739933 -0.033002417714566606 -0.0011996557661733192 -0.008226704753010915 0.0 0.0
0.0 0.04845031092625986 0.042138533000868075 -0.04085434947853924 -0.0012841835223288418 -0.009207330817713098 0.0 0.0
0.0 0.057279996642487056 0.04985615924252967 -0.04848649055599303 -0.0013696686865366373 -0.009104492090828946 0.0 0.0
0.0 0.06460621869513691 0.05632002510943259 -0.05487242785214041 -0.0014475972572921736 -0.007395284657733719 0.0 0.0
0.0 0.0691454681305946 0.06037493779953727 -0.05887520538019696 -0.0014997324193402814 -0.0037518857275301264 0.0 0.0
0.0 0.06914546813059252 0.06037493779953512 -0.05887520538019497 -0.0014997324193401528 0.0037518857275494885 0.0 0.0
0.0 0.06460621869513264 0.05632002510942773 -0.05487242785213621 -0.0014475972572915124 0.007395284657759231 0.0 0.0
0.0 0.057279996642478306 0.049856159242521 -0.048486490555984973 -0.0013696686865360124 0.009104492090847205 0.0 0.0
0.0 0.04845031092624755 0.04213853300085665 -0.040854349478528326 -0.001284183522328312 0.00920733081772267 0.0 0.0
0.0 0.039306423252914564 0.034202073480726514 -0.033002417714553735 -0.0011996557661727845 0.008226704753008716 0.0 0.0
0.0 0.030943965434114075 0.026813871800176286 -0.02569638796156058 -0.0011174838386157108 0.006785316587444282 0.0 0.0
0.0 0.023548064266835915 0.02045740051057723 -0.019421308628054555 -0.0010360918825226871 0.005401548696309077 0.0 0.0
0.0 0.017561003625753014 0.0153218217713529 -0.014367787198820847 -0.0009540345725320518 0.0042818114799301745 0.0 0.0
0.0 0.012942041879160576 0.011338239086937447 -0.010468916204945139 -0.0008693228819923059 0.003419223339239912 0.0 0.0
0.0 0.009371455280817502 0.008263795001152307 -0.0074904331620432125 -0.000773361839109095 0.002730768246217822 0.0 0.0
0.0 0.006567221630255447 0.005832057929023769 -0.005171058287320687 -0.0006609996417030792 0.0021182652926050247 0.0 0.0
0.0 0.004326397818646881 0.003855683114821918 -0.003329444792395694 -0.000526238322426223 0.0015494460242970543 0.0 0.0
0.0 0.0025074645984493886 0.0022473930647642464 -0.0018801222704529115 -0.00036727079431133464 0.0010182188641762741 0.0 0.0
0.0 0.0011557142353724405 0.0009873397143217962 -0.0007972220442887 -0.00019011767003309602 0.0005129124968167294 0.0 0.0
0.0 0.00036147315518695374 0.00019619842941695002 -0.00015464710453859767 -4.1551324878352494e-05 0.00012286980045381467 0.0 0.0
0.0 3.454091112032012e-05 -8.403799253467354e-07 6.431665733302035e-07 1.9721335201643438e-07 -9.319741912526225e-07 0.0 0.0
0.0 1.1217285373393579e-06 -1.1484055407491507e-07 8.789999551013864e-08 2.6940558564774134e-08 -1.1652598037014098e-07 0.0 0.0
0.0 0.0 0.0 0.0 0.0 0.0 0.0 0.0
0.0 0.0 0.0 0.0 0.0 0.0 0.0 0.0
0.0 0.002518861429091532 0.0015699400764241 -0.001916585362699496 0.00034664528627539534 0.0020410371282914373 0.0 0.0
0.0 0.0016696680739928809 0.0009861602857716642 -0.001246555658122646 0.0002603953723509817 -0.0013535505542415257 0.0 0.0
0.0 0.0 0.0 0.0 0.0 0.0 0.0 0.0
0.0 0.0 0.0 0.0 0.0 0.0 0.0 0.0
0.0 0.0 0.0 0.0 0.0 0.0 0.0 0.0
0.0 1.307042252733348e-05 -1.5144320664227403e-06 1.1565989069580425e-06 3.5783315946465527e-07 1.954048149771195e-06 0.0 0.0
0.0 0.00014997359701702807 5.568983648780214e-05 -4.407415622963282e-05 -1.1615680258169513e-05 -5.7332643214337416e-05 0.0 0.0
0.0 0.0007915038121063776 0.000524196418110468 -0.00041708741002716105 -0.0001071090080833067 -0.0003852893844853675 0.0 0.0
0.0 0.0018081896303145059 0.0015304742633788426 -0.0012559829207636724 -0.00027449134261517015 -0.0009629108375554456 0.0 0.0
0.0 0.0032937293250469134 0.002890138032148035 -0.002453371253744483 -0.00043676677840355017 -0.0016125910494078524 0.0 0.0
0.0 0.005177299933415183 0.004548700402274273 -0.003971171889106352 -0.0005775285131679212 -0.0022666540514745216 0.0 0.0
0.0 0.007521182566181584 0.006578754911930826 -0.00588354910223352 -0.0006952058096973045 -0.002960609687485768 0.0 0.0
0.0 0.010478240547562186 0.009130207628055479 -0.008336623554835245 -0.0007935840732202332 -0.0037298243526354266 0.0 0.0
0.0 0.01438532280558556 0.01243452691301031 -0.011555983238489784 -0.0008785436745205213 -0.004670937499737837 0.0 0.0
0.0 0.01931510968308501 0.016727733385637118 -0.015771678775905042 -0.000956054609732071 -0.005912204177447263 0.0 0.0
0.0 0.025590500041862682 0.02209493222913587 -0.02106453472180698 -0.001030397507328886 -0.00742480613499901 0.0 0.0
0.0 0.03303135607684274 0.028405681339608285 -0.02730133076713238 -0.001104350572475893 -0.008971424177567565 0.0 0.0
0.0 0.04083806441189644 0.035297695770342655 -0.03411979921000813 -0.0011778965603345317 -0.010110504944104249 0.0 0.0
0.0 0.04859958654358407 0.042151806873876735 -0.040898869466580154 -0.0012529374072965793 -0.010155200437654076 0.0 0.0
0.0 0.055279621287748715 0.04808884073672455 -0.046765378650982445 -0.0013234620857421108 -0.008382016483529209 0.0 0.0
0.0 0.059638605291700314 0.05203675133799061 -0.05066339619132164 -0.0013733551466689768 -0.0042918636108410626 0.0 0.0
0.0 0.05963860529169865 0.05203675133798877 -0.05066339619131976 -0.001373355146668963 0.004291863610861195 0.0 0.0
0.0 0.05527962128774284 0.04808884073671837 -0.04676537865097607 -0.0013234620857422998 0.008382016483555257 0.0 0.0
0.0 0.04859958654357664 0.04215180687386897 -0.04089886946657275 -0.0012529374072962063 0.010155200437672872 0.0 0.0
0.0 0.040838064411887046 0.035297695770333544 -0.03411979920999963 -0.001177896560333917 0.010110504944113762 0.0 0.0
0.0 0.033031356076829915 0.028405681339596964 -0.027301330767121493 -0.0011043505724754707 0.008971424177566092 0.0 0.0
0.0 0.025590500041850484 0.022094932229124925 -0.021064534721796632 -0.0010303975073282855 0.0074248061349975825 0.0 0.0
0.0 0.019315109683071093 0.016727733385624822 -0.015771678775893083 -0.0009560546097317324 0.005912204177445661 0.0 0.0
0.0 0.014385322805570557 0.012434526912996829 -0.01155598323847663 -0.0008785436745201998 0.00467093749973528 0.0 0.0
0.0 0.010478240547548307 0.009130207628042945 -0.008336623554823362 -0.0007935840732195824 0.003729824352630734 0.0 0.0
0.0 0.007521182566168174 0.006578754911918815 -0.005883549102222168 -0.0006952058096966476 0.0029606096874799266 0.0 0.0
0.0 0.005177299933403294 0.004548700402263893 -0.003971171889096881 -0.0005775285131670121 0.0022666540514677163 0.0 0.0
0.0 0.003293729325037723 0.0028901380321396065 -0.002453371253736949 -0.00043676677840265613 0.0016125910494037155 0.0 0.0
0.0 0.0018081896303071584 0.0015304742633724365 -0.0012559829207582358 -0.0002744913426142005 0.0009629108375517973 0.0 0.0
0.0 0.0007915038121018463 0.000524196418107134 -0.000417087410024469 -0.00010710900808266512 0.0003852893844831398 0.0 0.0
0.0 0.00014997359701541524 5.5689836487281685e-05 -4.407415622921857e-05 -1.1615680258063124e-05 5.733264321379428e-05 0.0 0.0
0.0 1.3070422526793627e-05 -1.5144320663617855e-06 1.156598906912083e-06 3.57833159449782e-07 -1.9540481496976023e-06 0.0 0.0
0.0 0.0 0.0 0.0 0.0 0.0 0.0 0.0
0.0 0.0 0.0 0.0 0.0 0.0 0.0 0.0
0.0 0.0 0.0 0.0 0.0 0.0 0.0 0.0
0.0 0.0016696680739855196 0.0009861602857672552 -0.001246555658117389 0.00026039537235013354 0.0013535505542347983 0.0 0.0
0.0 0.0009898034292635653 0.0005599261040571305 -0.0007319954400160948 0.00017206933595896405 -0.0007944716265125156 0.0 0.0
0.0 0.0 0.0 0.0 0.0 0.0 0.0 0.0
0.0 0.0 0.0 0.0 0.0 0.0 0.0 0.0
0.0 0.0 0.0 0.0 0.0 0.0 0.0 0.0
0.0 1.0042081989473157e-05 -9.329724215854319e-07 7.201815348631364e-07 2.1279088672229382e-07 1.7612736881375419e-06 0.0 0.0
0.0 5.141144885622212e-05 2.3200846561918885e-05 -1.8304923340563624e-05 -4.895923221355233e-06 -3.594553382801841e-05 0.0 0.0
0.0 0.00038120127858423154 0.00022841031562486456 -0.00017975029959080952 -4.866001603405479e-05 -0.0002492475444678681 0.0 0.0
0.0 0.0011765017785523742 0.0008814204585324559 -0.0007092224515821286 -0.00017219800695032745 -0.0007661368235188864 0.0 0.0
0.0 0.002346798275052196 0.001949038675683184 -0.0016192789979247763 -0.00032975967775840734 -0.0014650334835160648 0.0 0.0
0.0 0.003849686512000754 0.003300588813462476 -0.0028259871731467746 -0.000474601640315701 -0.0022057720607217106 0.0 0.0
0.0 0.005724067761917023 0.0049366895244727415 -0.004338715176717622 -0.0005979743477551193 -0.0029474648048743173 0.0 0.0
0.0 0.008112268486025524 0.006979622391990986 -0.006277336332973377 -0.0007022860590176098 -0.003755773097726319 0.0 0.0
0.0 0.011218911330185901 0.00962299515475344 -0.008832468781318596 -0.0007905263734348428 -0.00473241581315223 0.0 0.0
0.0 0.015288471080257396 0.013072921658260434 -0.012205469372051773 -0.0008674522862086515 -0.005979526229305598 0.0 0.0
0.0 0.020478748768310993 0.017439869914299314 -0.016503206571210884 -0.0009366633430884241 -0.007511695450734699 0.0 0.0
0.0 0.026433844009684244 0.022656776946680682 -0.02165483130574463 -0.0010019456409360546 -0.00911393642645926 0.0 0.0
0.0 0.03323555885771302 0.028450163829781286 -0.02738475777153206 -0.0010654060582492252 -0.010307945291663664 0.0 0.0
0.0 0.04003565411147589 0.034384361135285924 -0.03325591155466325 -0.0011284495806226547 -0.010489236552267545 0.0 0.0
0.0 0.04589586907486872 0.03978465158766916 -0.038594116912220325 -0.0011905346754488236 -0.008882311184461979 0.0 0.0
0.0 0.05011809884717706 0.043664963629436504 -0.04242523338610303 -0.0012397302433334672 -0.004709428559315121 0.0 0.0
0.0 0.05011809884717552 0.0436649636294347 -0.042425233386101165 -0.0012397302433335485 0.004709428559333997 0.0 0.0
0.0 0.045895869074864676 0.039784651587664095 -0.03859411691221547 -0.0011905346754486317 0.008882311184486857 0.0 0.0
0.0 0.0400356541114687 0.03438436113527811 -0.0332559115546559 -0.0011284495806222197 0.010489236552285248 0.0 0.0
0.0 0.03323555885770425 0.028450163829772813 -0.027384757771524076 -0.0010654060582487165 0.010307945291671321 0.0 0.0
0.0 0.026433844009673878 0.0226567769466716 -0.021654831305736102 -0.0010019456409354833 0.009113936426457164 0.0 0.0
0.0 0.0204787487683002 0.017439869914289752 -0.016503206571201863 -0.0009366633430878862 0.007511695450731672 0.0 0.0
0.0 0.015288471080247532 0.013072921658251385 -0.012205469372043266 -0.0008674522862081209 0.005979526229304071 0.0 0.0
0.0 0.011218911330175173 0.009622995154743772 -0.008832468781309435 -0.0007905263734343326 0.0047324158131501065 0.0 0.0
0.0 0.00811226848601385 0.0069796223919807955 -0.006277336332963843 -0.0007022860590169531 0.0037557730977214095 0.0 0.0
0.0 0.005724067761906547 0.004936689524463509 -0.004338715176709202 -0.000597974347754307 0.0029474648048688477 0.0 0.0
0.0 0.003849686511991823 0.0033005888134546744 -0.002825987173139685 -0.00047460164031498816 0.0022057720607153637 0.0 0.0
0.0 0.002346798275044897 0.0019490386756766203 -0.0016192789979189827 -0.00032975967775763755 0.0014650334835118262 0.0 0.0
0.0 0.0011765017785465908 0.0008814204585277824 -0.0007092224515782362 -0.00017219800694954603 0.0007661368235152667 0.0 0.0
0.0 0.0003812012785808891 0.00022841031562272134 -0.00017975029958910128 -4.866001603362007e-05 0.0002492475444657954 0.0 0.0
0.0 5.1411448855089266e-05 2.3200846561783905e-05 -1.8304923340456366e-05 -4.895923221327583e-06 3.5945533827811425e-05 0.0 0.0
0.0 1.0042081989081814e-05 -9.329724215460563e-07 7.201815348328094e-07 2.127908867132563e-07 -1.7612736880608109e-06 0.0 0.0
0.0 0.0 0.0 0.0 0.0 0.0 0.0 0.0
0.0 0.0 0.0 0.0 0.0 0.0 0.0 0.0
0.0 0.0 0.0 0.0 0.0 0.0 0.0 0.0
0.0 0.0009898034292579346 0.0005599261040539664 -0.0007319954400122196 0.00017206933595825325 0.000794471626507673 0.0 0.0
0.0 0.0005166959292454559 0.00026213670992220435 -0.0003528011655227467 9.066445560054233e-05 -0.0003827733485236421 0.0 0.0
0.0 0.0 0.0 0.0 0.0 0.0 0.0 0.0
0.0 0.0 0.0 0.0 0.0 0.0 0.0 0.0
0.0 0.0 0.0 0.0 0.0 0.0 0.0 0.0
0.0 3.1613189767086014e-06 -2.2524151938286448e-07 1.7083701737073144e-07 5.440450201212877e-08 5.898380239102724e-07 0.0 0.0
0.0 2.905556883303919e-05 -2.152901777696704e-06 1.653409223894903e-06 4.994925538017736e-07 4.925226552797528e-06 0.0 0.0
0.0 0.00015460837703969838 7.245595811669689e-05 -5.713708232290889e-05 -1.531887579378798e-05 -0.0001287887630693082 0.0 0.0
0.0 0.0006142370441905458 0.0003938956137917922 -0.0003114090878509336 -8.248652594085816e-05 -0.0005008487253615292 0.0 0.0
0.0 0.0014625207634755733 0.0010871357304300063 -0.0008810505953231082 -0.0002060851351068979 -0.0011202562754376126 0.0 0.0
0.0 0.0025938441726572354 0.0021004628271382602 -0.0017532825787108046 -0.00034718024842745585 -0.001885069993549498 0.0 0.0
0.0 0.004018458597421744 0.00335034142099939 -0.0028769275126692005 -0.00047341390833018944 -0.002674865675655802 0.0 0.0
0.0 0.005831716958160312 0.004899591615384382 -0.004314343595529956 -0.0005852480198544274 -0.003488671677467884 0.0 0.0
0.0 0.008217356813964084 0.006898515029425524 -0.006217579184481695 -0.0006809358449438259 -0.004437965227318199 0.0 0.0
0.0 0.01131237399027453 0.00952432053965092 -0.008761851269584675 -0.0007624692700662378 -0.005629073536497849 0.0 0.0
0.0 0.015319112007454741 0.012886320946134878 -0.012056271198632442 -0.000830049747502433 -0.007069434124515183 0.0 0.0
0.0 0.0201564734763282 0.016976660798684397 -0.016086164201358135 -0.0008904965973262555 -0.008585865402583576 0.0 0.0
0.0 0.02552472345862819 0.021632112796197575 -0.020687807131311742 -0.0009443056648858355 -0.00979980443752347 0.0 0.0
0.0 0.03115186368265904 0.026574758890323284 -0.025580474942116176 -0.0009942839482071177 -0.010139348734236154 0.0 0.0
0.0 0.0365578771232731 0.031366723856815305 -0.030320829294541007 -0.0010458945622742765 -0.00886422435293503 0.0 0.0
0.0 0.040724202044478006 0.035189128270589884 -0.03409323421794774 -0.0010958940526421337 -0.004986735516667841 0.0 0.0
0.0 0.04072420204447744 0.035189128270588725 -0.034093234217946924 -0.001095894052641814 0.004986735516684516 0.0 0.0
0.0 0.036557877123269994 0.03136672385681096 -0.03032082929453677 -0.0010458945622741792 0.008864224352958121 0.0 0.0
0.0 0.031151863682653696 0.02657475889031707 -0.02558047494210994 -0.000994283948207125 0.010139348734252037 0.0 0.0
0.0 0.02552472345862275 0.021632112796191778 -0.02068780713130649 -0.000944305664885293 0.009799804437529536 0.0 0.0
0.0 0.020156473476319388 0.016976660798676643 -0.016086164201350908 -0.0008904965973257293 0.00858586540258081 0.0 0.0
0.0 0.015319112007444916 0.012886320946126436 -0.012056271198624324 -0.0008300497475021103 0.007069434124511253 0.0 0.0
0.0 0.01131237399026622 0.0095243205396435 -0.00876185126957753 -0.0007624692700659633 0.0056290735364959805 0.0 0.0
0.0 0.008217356813957138 0.006898515029419134 -0.0062175791844758495 -0.0006809358449432828 0.004437965227316558 0.0 0.0
0.0 0.0058317169581526005 0.004899591615377496 -0.00431434359552379 -0.0005852480198537049 0.003488671677463903 0.0 0.0
0.0 0.0040184585974126314 0.003350341420991728 -0.002876927512662209 -0.00047341390832951875 0.0026748656756497525 0.0 0.0
0.0 0.00259384417264947 0.002100462827131948 -0.0017532825787053726 -0.0003471802484265753 0.0018850699935430413 0.0 0.0
0.0 0.001462520763469735 0.0010871357304254783 -0.0008810505953193506 -0.0002060851351061272 0.0011202562754339478 0.0 0.0
0.0 0.0006142370441868903 0.0003938956137893837 -0.00031140908784905384 -8.248652594033039e-05 0.0005008487253588754 0.0 0.0
0.0 0.00015460837703843702 7.24559581163107e-05 -5.713708232260636e-05 -1.5318875793704205e-05 0.000128788763068603 0.0 0.0
0.0 2.9055568832462577e-05 -2.152901777604085e-06 1.6534092238234967e-06 4.994925537806461e-07 -4.925226552605789e-06 0.0 0.0
0.0 3.161318976189613e-06 -2.2524151934812776e-07 1.7083701734378719e-07 5.4404502004334224e-08 -5.898380238126453e-07 0.0 0.0
0.0 0.0 0.0 0.0 0.0 0.0 0.0 0.0
0.0 0.0 0.0 0.0 0.0 0.0 0.0 0.0
0.0 0.0 0.0 0.0 0.0 0.0 0.0 0.0
0.0 0.0005166959292418173 0.0002621367099204936 -0.000352801165520547 9.066445560005342e-05 0.00038277334852104713 0.0 0.0
0.0 0.00021590807325556108 8.017805468857159e-05 -0.00011155012849568564 3.137207380711428e-05 -0.00011733728781740335 0.0 0.0
0.0 0.0 0.0 0.0 0.0 0.0 0.0 0.0
0.0 0.0 0.0 0.0 0.0 0.0 0.0 0.0
0.0 0.0 0.0 0.0 0.0 0.0 0.0 0.0
0.0 2.941446764786285e-06 -1.3952363807393717e-07 1.0592787567314353e-07 3.3595762400780106e-08 5.885360677433528e-07 0.0 0.0
0.0 1.87847223815209e-05 -2.080270123699545e-07 1.8256322736718706e-07 2.5463785002767306e-08 1.3055462809758415e-06 0.0 0.0
0.0 7.897943566975494e-05 2.4867193789033426e-05 -1.9389733055592038e-05 -5.477460733441414e-06 -6.70886256589927e-05 0.0 0.0
0.0 0.00025348304088729706 0.0001204455792606678 -9.431883364844268e-05 -2.6126745612225136e-05 -0.00026034330877039517 0.0 0.0
0.0 0.0007207443016042074 0.00041321465123088624 -0.00032716960681080303 -8.604504442008295e-05 -0.0006656179800704678 0.0 0.0
0.0 0.0013934601722313967 0.001020334077438352 -0.0008252867405317739 -0.00019504733690657784 -0.0013276549633899398 0.0 0.0
0.0 0.0024601502126584186 0.0018514686751538467 -0.0015399079372205092 -0.0003115607379333364 -0.002077456736459442 0.0 0.0
0.0 0.003685516310852013 0.0029177199129411966 -0.0024922174388525304 -0.0004255024740886656 -0.0028819141949569735 0.0 0.0
0.0 0.005318827656504287 0.004293760110192779 -0.003762893952109213 -0.0005308661580835638 -0.003777144290133307 0.0 0.0
0.0 0.007515527921078968 0.006111560797894082 -0.005488635080859193 -0.0006229257170348873 -0.004840827708766332 0.0 0.0
0.0 0.010421044342739655 0.00847605759405161 -0.007777088008441811 -0.0006989695856098006 -0.0060951515967033135 0.0 0.0
0.0 0.013940512783914253 0.011418633746353364 -0.010659914752746675 -0.0007587189936066863 -0.0074318285898275615 0.0 0.0
0.0 0.018068225601931935 0.014885247279704705 -0.014076782767189374 -0.0008084645125153309 -0.00854170335638901 0.0 0.0
0.0 0.02241184148965534 0.018749649414931936 -0.01790063145695483 -0.0008490179579771033 -0.00900184396038103 0.0 0.0
0.0 0.026845067915025566 0.022817169986365196 -0.021932834110355463 -0.0008843358760097245 -0.008254250460748966 0.0 0.0
0.0 0.030808381265200867 0.026547383317691152 -0.02561405453285644 -0.0009333287848347075 -0.0050999167428797025 0.0 0.0
0.0 0.030808381265199494 0.026547383317689438 -0.02561405453285443 -0.0009333287848349979 0.005099916742892677 0.0 0.0
0.0 0.026845067915023682 0.02281716998636203 -0.02193283411035207 -0.0008843358760099564 0.008254250460766912 0.0 0.0
0.0 0.02241184148965244 0.018749649414927728 -0.017900631456951012 -0.0008490179579767183 0.009001843960394041 0.0 0.0
0.0 0.018068225601926252 0.014885247279699082 -0.014076782767184189 -0.0008084645125148893 0.008541703356392408 0.0 0.0
0.0 0.013940512783907729 0.011418633746347863 -0.010659914752741608 -0.0007587189936062551 0.007431828589824663 0.0 0.0
0.0 0.010421044342732538 0.008476057594045697 -0.007777088008436182 -0.0006989695856095122 0.006095151596699905 0.0 0.0
0.0 0.007515527921072948 0.00611156079788893 -0.00548863508085428 -0.0006229257170346485 0.004840827708764364 0.0 0.0
0.0 0.005318827656499417 0.004293760110188418 -0.0037628939521052057 -0.0005308661580832118 0.003777144290131574 0.0 0.0
0.0 0.0036855163108470007 0.0029177199129369856 -0.002492217438848776 -0.0004255024740882094 0.00288191419495364 0.0 0.0
0.0 0.0024601502126531853 0.0018514686751496452 -0.001539907937217009 -0.00031156073793263547 0.0020774567364550654 0.0 0.0
0.0 0.0013934601722258508 0.0010203340774344338 -0.0008252867405285169 -0.00019504733690591696 0.0013276549633849135 0.0 0.0
0.0 0.0007207443016009369 0.00041321465122878993 -0.0003271696068090864 -8.604504441970367e-05 0.0006656179800676728 0.0 0.0
0.0 0.0002534830408858621 0.00012044557926000307 -9.43188336479119e-05 -2.612674561209109e-05 0.00026034330876920694 0.0 0.0
0.0 7.897943566843773e-05 2.486719378876468e-05 -1.9389733055374276e-05 -5.477460733390439e-06 6.708862565825614e-05 0.0 0.0
0.0 1.8784722381057467e-05 -2.0802701235464423e-07 1.8256322735469104e-07 2.5463784999975433e-08 -1.3055462809075467e-06 0.0 0.0
0.0 2.9414467642801842e-06 -1.3952363805020315e-07 1.0592787565476392e-07 3.359576239544616e-08 -5.885360676368125e-07 0.0 0.0
0.0 0.0 0.0 0.0 0.0 0.0 0.0 0.0
0.0 0.0 0.0 0.0 0.0 0.0 0.0 0.0
0.0 0.0 0.0 0.0 0.0 0.0 0.0 0.0
0.0 0.00021590807325351155 8.017805468799514e-05 -0.00011155012849487422 3.137207380687929e-05 0.000117337287816726 0.0 0.0
0.0 4.685742533281515e-05 1.2449390500240166e-05 -1.786439476101455e-05 5.4150042607744384e-06 -2.019625233540333e-05 0.0 0.0
0.0 1.6538167115190833e-06 -2.748905065804631e-09 7.58763272979475e-09 -4.838727663989611e-09 3.533900715791832e-07 0.0 0.0
0.0 0.0 0.0 0.0 0.0 0.0 0.0 0.0
0.0 0.0 0.0 0.0 0.0 0.0 0.0 0.0
0.0 3.0628381032312882e-06 -6.90575449801798e-08 5.370267077264668e-08 1.5354874207528902e-08 6.580753880870616e-07 0.0 0.0
0.0 1.669848219022137e-05 -6.754141313248215e-07 5.129785862136518e-07 1.624355451111653e-07 4.126874192703304e-06 0.0 0.0
0.0 5.118636285791061e-05 7.315531010028392e-06 -5.748684112640111e-06 -1.5668468973882453e-06 -3.475485679044015e-05 0.0 0.0
0.0 0.000123776994721929 4.270079832425007e-05 -3.3471692189291486e-05 -9.229106134958592e-06 -0.00017329754333726281 0.0 0.0
0.0 0.00029327676135453825 0.0001032940253729472 -8.132073228698996e-05 -2.197329308595722e-05 -0.0003409415486499753 0.0 0.0
0.0 0.0005597452868852789 0.0002619296903058442 -0.0002060173322646691 -5.5912358041175046e-05 -0.0006842707051902683 0.0 0.0
0.0 0.0010098957994313657 0.0006038326744386512 -0.00048140072890127044 -0.00012243194553738065 -0.0012265303484138071 0.0 0.0
0.0 0.0017587512187422515 0.0011357496519929157 -0.0009268151979741591 -0.00020893445401875665 -0.0018987373824131259 0.0 0.0
0.0 0.002733786157337765 0.001886203946140821 -0.0015789743126369965 -0.00030722963350382384 -0.002713912787911996 0.0 0.0
0.0 0.004058255030153141 0.002915485920419518 -0.002508084932680796 -0.00040740098773872223 -0.0036381635278037415 0.0 0.0
0.0 0.005806357493825518 0.0042945749564416566 -0.003796070337173664 -0.0004985046192679913 -0.004670509845825386 0.0 0.0
0.0 0.008019502691961737 0.0060742513435497365 -0.005501809552671792 -0.0005724417908779453 -0.005759420837137413 0.0 0.0
0.0 0.010768387086688518 0.008305081422611958 -0.007676928137087184 -0.0006281532855247757 -0.00674760558524694 0.0 0.0
0.0 0.013921810672532656 0.011010198324407049 -0.010334384927598198 -0.0006758133968088555 -0.007238659016592794 0.0 0.0
0.0 0.01743191770502089 0.014166502314879705 -0.01346531977972626 -0.0007011825351534503 -0.006940773919127277 0.0 0.0
0.0 0.02104792996388012 0.017658897707093866 -0.016919993905937222 -0.0007389038011566445 -0.004934598998650752 0.0 0.0
0.0 0.021047929963879324 0.017658897707092565 -0.016919993905935782 -0.0007389038011567833 0.004934598998659893 0.0 0.0
0.0 0.0174319177050206 0.014166502314877741 -0.013465319779724367 -0.0007011825351533657 0.0069407739191420445 0.0 0.0
0.0 0.013921810672530791 0.011010198324403808 -0.010334384927595242 -0.0006758133968085621 0.0072386590166028655 0.0 0.0
0.0 0.010768387086684712 0.00830508142260831 -0.007676928137083821 -0.0006281532855244874 0.006747605585247875 0.0 0.0
0.0 0.008019502691958162 0.006074251343547309 -0.005501809552669683 -0.0005724417908776257 0.005759420837133928 0.0 0.0
0.0 0.005806357493822195 0.004294574956439203 -0.003796070337171541 -0.0004985046192676607 0.004670509845822663 0.0 0.0
0.0 0.0040582550301510876 0.002915485920417613 -0.0025080849326792414 -0.0004074009877383714 0.0036381635278029453 0.0 0.0
0.0 0.0027337861573346217 0.001886203946137872 -0.001578974312634485 -0.00030722963350338675 0.002713912787910674 0.0 0.0
0.0 0.0017587512187384117 0.0011357496519903223 -0.0009268151979720291 -0.0002089344540182926 0.001898737382409457 0.0 0.0
0.0 0.0010098957994283029 0.0006038326744368015 -0.0004814007288998227 -0.0001224319455369787 0.0012265303484105417 0.0 0.0
0.0 0.0005597452868825795 0.00026192969030470396 -0.00020601733226376247 -5.591235804094141e-05 0.0006842707051871881 0.0 0.0
0.0 0.0002932767613536731 0.00010329402537265334 -8.132073228677244e-05 -2.1973293085880826e-05 0.00034094154864906573 0.0 0.0
0.0 0.0001237769947211535 4.2700798324050375e-05 -3.347169218913649e-05 -9.229106134913865e-06 0.00017329754333654125 0.0 0.0
0.0 5.118636285734136e-05 7.3155310099477975e-06 -5.7486841125765775e-06 -1.5668468973711897e-06 3.475485679006207e-05 0.0 0.0
0.0 1.6698482189740015e-05 -6.75414131304937e-07 5.129785861990805e-07 1.624355451058679e-07 -4.126874192569552e-06 0.0 0.0
0.0 3.062838102718457e-06 -6.905754496692381e-08 5.3702670762761436e-08 1.535487420416051e-08 -6.580753879724068e-07 0.0 0.0
0.0 0.0 0.0 0.0 0.0 0.0 0.0 0.0
0.0 0.0 0.0 0.0 0.0 0.0 0.0 0.0
0.0 1.65381671108306e-06 -2.7489050652915605e-09 7.587632727915323e-09 -4.8387276626236715e-09 -3.5339007148384286e-07 0.0 0.0
0.0 4.6857425331586766e-05 1.2449390500147118e-05 -1.786439476087476e-05 5.415004260727641e-06 2.0196252335317156e-05 0.0 0.0
0.0 6.935391212696482e-06 -5.308503336792089e-07 7.686070645854844e-07 -2.3775673090626943e-07 1.0491407281428561e-06 0.0 0.0
0.0 2.1979396482406107e-06 1.1868574056845524e-09 1.0883559240507842e-08 -1.207041664619258e-08 4.588111399241068e-07 0.0 0.0
0.0 8.28283976103979e-07 8.757322001854407e-09 -7.994197467743662e-09 -7.631245341108108e-10 1.6872916499049268e-07 0.0 0.0
0.0 1.0341171999299922e-06 3.4830124123105497e-09 -4.631541757330647e-09 1.1485293450206947e-09 2.129476539670559e-07 0.0 0.0
0.0 5.455561020512527e-06 -1.877319191668789e-08 9.400339741409076e-09 9.372852175272426e-09 1.2338249442580408e-06 0.0 0.0
0.0 1.2649162497038722e-05 -1.4081635774303978e-07 1.0163524973800948e-07 3.918110800504046e-08 3.1244596390103373e-06 0.0 0.0
0.0 3.577289101388199e-05 2.2090085912886607e-06 -1.7304974225511596e-06 -4.785111687375027e-07 -3.35473559548668e-05 0.0 0.0
0.0 0.00010780888552411257 8.151440712772817e-06 -6.36006910708023e-06 -1.7913716056925504e-06 -9.815439754749393e-05 0.0 0.0
0.0 0.00018071086536210733 2.4551817099501795e-05 -1.9222771699731145e-05 -5.329045399770662e-06 -0.0002463177292949752 0.0 0.0
0.0 0.0003292101335785481 4.8489566589803344e-05 -3.8020341438418566e-05 -1.0469225151384759e-05 -0.00041347209896240523 0.0 0.0
0.0 0.00043716044323605086 9.487161981848951e-05 -7.497971480876467e-05 -1.989190500972484e-05 -0.0007252497757248613 0.0 0.0
0.0 0.0006744270962746736 0.00016012597039104917 -0.00012771556772070883 -3.2410402670340264e-05 -0.0011107503899932332 0.0 0.0
0.0 0.0010185489940727863 0.0002720434653806502 -0.0002181463530062592 -5.389711237439103e-05 -0.0016566869037973953 0.0 0.0
0.0 0.0015610987409929275 0.0004843776083606286 -0.0003897661081672328 -9.461150019339563e-05 -0.002414298749710538 0.0 0.0
0.0 0.0023031624102514124 0.0008294487514795461 -0.000674458609994365 -0.00015499014148518067 -0.0033848966292513417 0.0 0.0
0.0 0.0032901945420225256 0.001345788797613928 -0.0011185471568555157 -0.00022724164075841195 -0.004488785216169633 0.0 0.0
0.0 0.004633317621867425 0.002241758598767538 -0.001947700133628945 -0.00029405846513859304 -0.0055409782886169014 0.0 0.0
0.0 0.006405419282954323 0.0037033970932665965 -0.00333507042350607 -0.00036832666976052567 -0.006102776540208234 0.0 0.0
0.0 0.008615640442383521 0.005774590125942676 -0.005328117133711692 -0.00044647299223098396 -0.005782213643158138 0.0 0.0
0.0 0.011481054604935662 0.008616515866316914 -0.008160729947593641 -0.0004557859187232671 -0.00468563937184635 0.0 0.0
0.0 0.011481054604936572 0.008616515866317157 -0.008160729947594054 -0.0004557859187231013 0.00468563937185199 0.0 0.0
0.0 0.008615640442386018 0.005774590125943074 -0.005328117133712252 -0.0004464729922308188 0.005782213643168237 0.0 0.0
0.0 0.006405419282955543 0.003703397093266148 -0.0033350704235056475 -0.00036832666976049976 0.006102776540215074 0.0 0.0
0.0 0.004633317621866814 0.0022417585987671955 -0.0019477001336284999 -0.00029405846513869545 0.005540978288616555 0.0 0.0
0.0 0.0032901945420209635 0.0013457887976131484 -0.0011185471568548253 -0.00022724164075832264 0.004488785216167402 0.0 0.0
0.0 0.0023031624102496234 0.0008294487514787943 -0.0006744586099937727 -0.00015499014148502135 0.003384896629249125 0.0 0.0
0.0 0.0015610987409918368 0.0004843776083603326 -0.0003897661081669106 -9.461150019342209e-05 0.002414298749709053 0.0 0.0
0.0 0.0010185489940723216 0.00027204346538058414 -0.0002181463530062221 -5.389711237436196e-05 0.0016566869037965418 0.0 0.0
0.0 0.0006744270962730672 0.00016012597039071153 -0.00012771556772039438 -3.2410402670317185e-05 0.0011107503899905403 0.0 0.0
0.0 0.0004371604432344239 9.487161981817346e-05 -7.497971480850992e-05 -1.9891905009663537e-05 0.0007252497757220537 0.0 0.0
0.0 0.00032921013357702084 4.8489566589614204e-05 -3.8020341438253205e-05 -1.0469225151360945e-05 0.0004134720989603072 0.0 0.0
0.0 0.00018071086536161266 2.4551817099444742e-05 -1.9222771699688153e-05 -5.329045399756553e-06 0.0002463177292944037 0.0 0.0
0.0 0.00010780888552362561 8.151440712733613e-06 -6.360069107054304e-06 -1.7913716056793043e-06 9.815439754694008e-05 0.0 0.0
0.0 3.5772891013472553e-05 2.209008591281932e-06 -1.7304974225474844e-06 -4.78511168734438e-07 3.3547355954757026e-05 0.0 0.0
0.0 1.264916249658675e-05 -1.4081635773777134e-07 1.0163524973414598e-07 3.918110800362112e-08 -3.1244596388847664e-06 0.0 0.0
0.0 5.4555610200182124e-06 -1.87731919147807e-08 9.400339740515117e-09 9.372852174262189e-09 -1.2338249441362645e-06 0.0 0.0
0.0 1.0341171994111593e-06 3.4830124097744975e-09 -4.63154175459075e-09 1.1485293448161685e-09 -2.1294765385734702e-07 0.0 0.0
0.0 8.282839756553083e-07 8.757321996808003e-09 -7.99419746324245e-09 -7.631245335657651e-10 -1.687291648967851e-07 0.0 0.0
0.0 2.1979396476663126e-06 1.1868574058352821e-09 1.0883559236708018e-08 -1.2070416642541689e-08 -4.588111397997392e-07 0.0 0.0
0.0 6.935391212284314e-06 -5.308503336477984e-07 7.686070645394778e-07 -2.377567308917246e-07 -1.0491407280822435e-06 0.0 0.0
0.0 0.0 0.0 0.0 0.0 0.0 0.0 0.0
0.0 1.5971963968563867e-06 7.306232394266291e-09 1.5907871128751353e-11 -7.3221402653941854e-09 3.445150364301259e-07 0.0 0.0
0.0 1.006612653282911e-06 1.8800037151531995e-08 -1.6160969127413305e-08 -2.6390680241173787e-09 2.0557945423080885e-07 0.0 0.0
0.0 1.3830639415008088e-06 2.5459537940910303e-08 -2.257136934973081e-08 -2.8881685911793595e-09 2.8364822182210734e-07 0.0 0.0
0.0 6.329568723119171e-06 1.2100159608371412e-07 -9.95749289913299e-08 -2.1426667092374816e-08 1.450807040856032e-06 0.0 0.0
0.0 1.6603222805893222e-05 2.923750411414829e-07 -2.3536244238636934e-07 -5.701259875511966e-08 4.230645678701024e-06 0.0 0.0
0.0 3.7000693850935425e-05 -2.307024095721569e-06 1.8358366759611726e-06 4.711874197603846e-07 -3.326322825103393e-05 0.0 0.0
0.0 0.00010787078798870929 -8.109214786748801e-06 6.325509883117676e-06 1.7837049036310877e-06 -9.80911250521371e-05 0.0 0.0
0.0 0.0001803252679672881 -2.4349130507299253e-05 1.9045580571341966e-05 5.30354993595726e-06 -0.00024598175663374366 0.0 0.0
0.0 0.0003288824507606936 -4.82790728036491e-05 3.782466313405059e-05 1.045440966959859e-05 -0.00041321119919375256 0.0 0.0
0.0 0.0004380660982026116 -9.448836262039712e-05 7.469035793628215e-05 1.9798004684114884e-05 -0.0007247258826790387 0.0 0.0
0.0 0.0006744282106692192 -0.00016017580390675025 0.00012793419099294323 3.2241612913806946e-05 -0.0011104301468398987 0.0 0.0
0.0 0.0010197561369175543 -0.0002746070588001212 0.0002208686660892117 5.373839271090955e-05 -0.0016560091510048078 0.0 0.0
0.0 0.001567838208340554 -0.0004918596866354146 0.00039570211485294877 9.615757178246562e-05 -0.002415600044033468 0.0 0.0
0.0 0.00230169906125836 -0.0008154838641882982 0.000656467648379396 0.00015901621580890186 -0.0033990183760803467 0.0 0.0
0.0 0.003200497083912492 -0.0011633838598997378 0.0009340440891935965 0.00022933977070614068 -0.004546649394215488 0.0 0.0
0.0 0.004116466004210864 -0.0013896428031694716 0.0011031322749648735 0.00028651052820459765 -0.005845001345545154 0.0 0.0
0.0 0.0049054677455189185 -0.0012419706380985753 0.0009313901530164554 0.00031058048508211995 -0.007229477131044047 0.0 0.0
0.0 0.005201064081450328 -0.0005545853888280111 0.00034425088096810385 0.00021033450785990678 -0.008297445908233801 0.0 0.0
0.0 0.004792771214550188 0.0010829127463108331 -0.00115590888982293 7.299614351209677e-05 -0.007021443599209219 0.0 0.0
0.0 0.004792771214553078 0.001082912746310888 -0.0011559088898231821 7.299614351229331e-05 0.007021443599215781 0.0 0.0
0.0 0.005201064081453474 -0.0005545853888280536 0.00034425088096813714 0.00021033450785991583 0.008297445908240652 0.0 0.0
0.0 0.004905467745519537 -0.0012419706380983552 0.0009313901530161649 0.0003105804850821897 0.0072294771310462205 0.0 0.0
0.0 0.004116466004208737 -0.0013896428031684185 0.0011031322749639855 0.00028651052820443296 0.005845001345543152 0.0 0.0
0.0 0.0032004970839096913 -0.001163383859898062 0.0009340440891921261 0.00022933977070593606 0.004546649394212362 0.0 0.0
0.0 0.002301699061256747 -0.0008154838641874517 0.0006564676483786884 0.0001590162158087634 0.0033990183760778834 0.0 0.0
0.0 0.0015678382083389375 -0.0004918596866345458 0.0003957021148522573 9.615757178228831e-05 0.0024156000440316242 0.0 0.0
0.0 0.001019756136915773 -0.0002746070587992223 0.00022086866608846998 5.3738392710752236e-05 0.0016560091510025867 0.0 0.0
0.0 0.0006744282106669612 -0.0001601758039060217 0.00012793419099229762 3.224161291372403e-05 0.0011104301468367382 0.0 0.0
0.0 0.0004380660982009419 -9.448836261984948e-05 7.46903579358434e-05 1.979800468400608e-05 0.0007247258826762462 0.0 0.0
0.0 0.00032888245075879147 -4.827907280322427e-05 3.782466313368076e-05 1.0454409669543513e-05 0.00041321119919103554 0.0 0.0
0.0 0.0001803252679666795 -2.434913050715525e-05 1.904558057121942e-05 5.303549935935828e-06 0.00024598175663301963 0.0 0.0
0.0 0.00010787078798811831 -8.109214786692585e-06 6.325509883069585e-06 1.7837049036229924e-06 9.809112505165335e-05 0.0 0.0
0.0 3.700069385042391e-05 -2.30702409570155e-06 1.8358366759499689e-06 4.7118741975157454e-07 3.326322825075394e-05 0.0 0.0
0.0 1.6603222805341956e-05 2.923750411306663e-07 -2.3536244237751912e-07 -5.701259875313553e-08 -4.2306456785429164e-06 0.0 0.0
0.0 6.329568722502479e-06 1.210015960720766e-07 -9.957492898152986e-08 -2.142666709055061e-08 -1.4508070407032778e-06 0.0 0.0
0.0 1.38306394101384e-06 2.5459537931086613e-08 -2.257136934122153e-08 -2.8881685898646692e-09 -2.8364822171881803e-07 0.0 0.0
0.0 1.0066126526757192e-06 1.8800037139368483e-08 -1.616096911716342e-08 -2.639068022204588e-09 -2.0557945410441137e-07 0.0 0.0
0.0 1.5971963964369413e-06 7.30623239191162e-09 1.5907871413117332e-11 -7.32214026331919e-09 -3.4451503633983053e-07 0.0 0.0
0.0 0.0 0.0 0.0 0.0 0.0 0.0 0.0
0.0 0.0 0.0 0.0 0.0 0.0 0.0 0.0
0.0 1.5710527121896345e-07 1.3280899262144232e-09 -5.741504665692977e-10 -7.539394596450155e-10 3.144508494451769e-08 0.0 0.0
0.0 1.1358547083526696e-06 2.9199022431040485e-08 -2.4414515400477513e-08 -4.784507030563987e-09 2.311035997749412e-07 0.0 0.0
0.0 4.433390297608247e-06 1.6015753021184142e-07 -1.3149237797340506e-07 -2.8665152238422848e-08 9.6169292488308e-07 0.0 0.0
0.0 5.593573495776328e-06 2.248805082958022e-07 -1.7833069165734527e-07 -4.654981663844911e-08 1.2502688499167775e-06 0.0 0.0
0.0 1.754827635661957e-05 -1.8019194062168107e-07 1.0419069491389117e-07 7.600124570775303e-08 -6.746294504795851e-08 0.0 0.0
0.0 5.518706694683272e-05 -7.497862310880674e-06 5.915333553505002e-06 1.5825287573756478e-06 -3.506860760789146e-05 0.0 0.0
0.0 0.00012416841044977377 -4.260728479981171e-05 3.340191552098518e-05 9.205369278826506e-06 -0.00017313506508905588 0.0 0.0
0.0 0.0002915603372766698 -0.00010315853421717748 8.116548539160739e-05 2.1993048825569992e-05 -0.0003404221294063549 0.0 0.0
0.0 0.0005580759800468015 -0.0002614313041330956 0.00020557856742377001 5.5852736709325495e-05 -0.0006836171364601071 0.0 0.0
0.0 0.0010088681844315842 -0.0006032718933058213 0.000480900024705193 0.00012237186860062813 -0.0012264248112218335 0.0 0.0
0.0 0.001758455441876228 -0.001135909441917099 0.0009271394365390469 0.00020877000537805195 -0.0018979996052820966 0.0 0.0
0.0 0.0027376208890095644 -0.001891440130492603 0.001584581136095609 0.0003068589943969936 -0.0027073450096764414 0.0 0.0
0.0 0.004074725499712849 -0.0029316358514718203 0.0025233403664326973 0.0004082954850391223 -0.0036306038117351787 0.0 0.0
0.0 0.005812753577761792 -0.004283960271772726 0.0037787123995249696 0.0005052478722477536 -0.004712491695675923 0.0 0.0
0.0 0.007854695442649861 -0.005847163585500109 0.0052570620634107305 0.0005901015220893769 -0.006009048027981766 0.0 0.0
0.0 0.009933261202316853 -0.00733472391423059 0.006672946985961313 0.0006617769282692771 -0.007517210887239753 0.0 0.0
0.0 0.01148086984728661 -0.008264116173103318 0.007546709277545844 0.0007174068955574723 -0.009114792087099612 0.0 0.0
0.0 0.01134819447724111 -0.007812424631151546 0.007026853366037078 0.0007855712651144665 -0.009787599487885993 0.0 0.0
0.0 0.00823391826172296 -0.004911018232259399 0.004152000633769435 0.0007590175984899636 -0.007722902198849323 0.0 0.0
0.0 0.00823391826172707 -0.004911018232260973 0.004152000633770938 0.000759017598490035 0.0077229021988570136 0.0 0.0
0.0 0.011348194477244757 -0.007812424631152051 0.007026853366037679 0.0007855712651143691 0.009787599487898061 0.0 0.0
0.0 0.011480869847285372 -0.008264116173100789 0.007546709277543622 0.0007174068955571651 0.009114792087106548 0.0 0.0
0.0 0.00993326120231364 -0.007334723914227649 0.00667294698595888 0.000661776928268767 0.007517210887239313 0.0 0.0
0.0 0.007854695442645 -0.005847163585495975 0.005257062063407123 0.0005901015220888512 0.006009048027978825 0.0 0.0
0.0 0.005812753577756991 -0.004283960271768838 0.0037787123995214125 0.0005052478722474238 0.004712491695672533 0.0 0.0
0.0 0.004074725499707664 -0.0029316358514676474 0.0025233403664290457 0.00040829548503860176 0.0036306038117321407 0.0 0.0
0.0 0.0027376208890057593 -0.0018914401304892443 0.0015845811360927472 0.00030685899439649654 0.0027073450096740696 0.0 0.0
0.0 0.0017584554418711164 -0.0011359094419134443 0.0009271394365360602 0.00020877000537738408 0.0018979996052785047 0.0 0.0
0.0 0.00100886818442627 -0.0006032718933025374 0.0004809000247024851 0.0001223718686000521 0.0012264248112170404 0.0 0.0
0.0 0.000558075980043096 -0.0002614313041312328 0.00020557856742228086 5.5852736708951743e-05 0.0006836171364563769 0.0 0.0
0.0 0.0002915603372752853 -0.00010315853421661065 8.116548539113187e-05 2.199304882547877e-05 0.0003404221294048994 0.0 0.0
0.0 0.00012416841044911555 -4.26072847996256e-05 3.340191552084979e-05 9.205369278775807e-06 0.0001731350650885051 0.0 0.0
0.0 5.518706694605056e-05 -7.49786231076423e-06 5.915333553415849e-06 1.5825287573483342e-06 3.506860760736505e-05 0.0 0.0
0.0 1.7548276356155884e-05 -1.8019194066673708e-07 1.0419069494916676e-07 7.60012457175718e-08 6.746294529073849e-08 0.0 0.0
0.0 5.59357349524175e-06 2.2488050827509277e-07 -1.7833069164048388e-07 -4.6549816634625795e-08 -1.250268849792875e-06 0.0 0.0
0.0 4.433390297146278e-06 1.6015753019507324e-07 -1.3149237795953612e-07 -2.8665152235533242e-08 -9.61692924777465e-07 0.0 0.0
0.0 1.1358547078605477e-06 2.919902241766033e-08 -2.441451538947173e-08 -4.7845070281886985e-09 -2.3110359967327132e-07 0.0 0.0
0.0 1.5710527106426096e-07 1.3280899248879184e-09 -5.741504659949382e-10 -7.53939458893311e-10 -3.144508491313459e-08 0.0 0.0
0.0 0.0 0.0 0.0 0.0 0.0 0.0 0.0
0.0 0.0 0.0 0.0 0.0 0.0 0.0 0.0
0.0 0.0 0.0 0.0 0.0 0.0 0.0 0.0
0.0 2.3595770756542535e-06 8.103527067074457e-08 -6.628456757845172e-08 -1.4750703092293867e-08 4.821090557083344e-07 0.0 0.0
0.0 6.5906872819304125e-06 3.108815427979235e-07 -2.5702362177301864e-07 -5.385792102489637e-08 1.4093816020137892e-06 0.0 0.0
0.0 7.627299154486348e-06 4.0935751532665645e-07 -3.368136312165304e-07 -7.254388411011632e-08 1.6671608134487838e-06 0.0 0.0
0.0 2.178765974039359e-05 7.752389290843849e-07 -5.947407896132673e-07 -1.80498139471138e-07 2.6229392050781178e-06 0.0 0.0
0.0 8.67908741862332e-05 -2.561209754632396e-05 2.0030368578400042e-05 5.581728967923914e-06 -6.889430126971273e-05 0.0 0.0
0.0 0.0002539921883789065 -0.00012013729958090539 9.408571212900493e-05 2.6051587451900403e-05 -0.00025991238799238985 0.0 0.0
0.0 0.0007171287938121094 -0.00041164761880873923 0.00032583505976219315 8.581255904654605e-05 -0.0006632997760733258 0.0 0.0
0.0 0.0013908813957677641 -0.0010191787338708898 0.0008242039736925627 0.0001949747601783271 -0.0013261502276514054 0.0 0.0
0.0 0.0024593241452691298 -0.0018509538786491042 0.001539338746635822 0.0003116151320132818 -0.002077645079130394 0.0 0.0
0.0 0.003684608130806667 -0.0029167368527437884 0.00249142014744012 0.0004253167053036676 -0.0028806638702240234 0.0 0.0
0.0 0.005316788110147087 -0.004295301435572803 0.0037653869741399873 0.0005299144614328145 -0.0037610499705438526 0.0 0.0
0.0 0.007521691801925061 -0.006125591641326634 0.00550307128708123 0.0006225203542454024 -0.0048013867297406745 0.0 0.0
0.0 0.010428636276934052 -0.0084809666952755 0.007776399720638413 0.0007045669746370874 -0.006104356014019161 0.0 0.0
0.0 0.013837586574835137 -0.011255694708074247 0.010478051286856725 0.0007776434212175244 -0.007798039693697568 0.0 0.0
0.0 0.01746801190076074 -0.014084765765588482 0.013239396589173658 0.0008453691764148196 -0.009992002316203315 0.0 0.0
0.0 0.020224911663716108 -0.016238277965775073 0.015313099203093383 0.0009251787626816943 -0.012383830926045876 0.0 0.0
0.0 0.020765559541570597 -0.016387631614178968 0.015369796280330684 0.001017835333848287 -0.013620881181769288 0.0 0.0
0.0 0.016106255049552348 -0.012598425233565885 0.011476781227514242 0.0011216440060516381 -0.010786026699292814 0.0 0.0
0.0 0.016106255049554926 -0.012598425233566352 0.011476781227514485 0.001121644006051862 0.01078602669930283 0.0 0.0
0.0 0.020765559541572477 -0.016387631614177937 0.015369796280329525 0.0010178353338484035 0.013620881181784002 0.0 0.0
0.0 0.020224911663715317 -0.016238277965772402 0.015313099203091032 0.0009251787626813695 0.012383830926056237 0.0 0.0
0.0 0.017468011900753592 -0.014084765765581896 0.013239396589167406 0.0008453691764144915 0.009992002316204202 0.0 0.0
0.0 0.013837586574825832 -0.011255694708066576 0.010478051286849106 0.0007776434212174706 0.007798039693693182 0.0 0.0
0.0 0.010428636276926731 -0.00848096669526917 0.007776399720632375 0.0007045669746367907 0.006104356014016472 0.0 0.0
0.0 0.007521691801916872 -0.006125591641319713 0.005503071287074751 0.0006225203542449609 0.004801386729736291 0.0 0.0
0.0 0.005316788110138312 -0.004295301435565082 0.003765386974132711 0.0005299144614323703 0.0037610499705404343 0.0 0.0
0.0 0.003684608130797002 -0.002916736852735849 0.0024914201474328075 0.00042531670530304174 0.002880663870218092 0.0 0.0
0.0 0.002459324145260845 -0.001850953878642517 0.0015393387466299947 0.00031161513201252185 0.0020776450791239643 0.0 0.0
0.0 0.0013908813957606231 -0.0010191787338656886 0.0008242039736881582 0.0001949747601775304 0.001326150227645543 0.0 0.0
0.0 0.0007171287938077028 -0.00041164761880559505 0.0003258350597596293 8.581255904596573e-05 0.0006632997760696636 0.0 0.0
0.0 0.00025399218837675915 -0.00012013729957988452 9.40857121281872e-05 2.6051587451697332e-05 0.00025991238799053743 0.0 0.0
0.0 8.679087418477288e-05 -2.5612097546150077e-05 2.0030368578258547e-05 5.581728967891528e-06 6.889430126923038e-05 0.0 0.0
0.0 2.1787659739796383e-05 7.752389290926876e-07 -5.947407896198702e-07 -1.8049813947286383e-07 -2.622939205085141e-06 0.0 0.0
0.0 7.627299154014659e-06 4.093575152988811e-07 -3.3681363119432556e-07 -7.254388410459864e-08 -1.6671608133407274e-06 0.0 0.0
0.0 6.590687281374371e-06 3.1088154276881837e-07 -2.570236217490074e-07 -5.385792101982278e-08 -1.4093816018841068e-06 0.0 0.0
0.0 2.3595770750547986e-06 8.103527064889636e-08 -6.628456756069521e-08 -1.4750703088195763e-08 -4.821090555798598e-07 0.0 0.0
0.0 0.0 0.0 0.0 0.0 0.0 0.0 0.0
0.0 0.0 0.0 0.0 0.0 0.0 0.0 0.0
0.0 0.0 0.0 0.0 0.0 0.0 0.0 0.0
0.0 0.0 0.0 0.0 0.0 0.0 0.0 0.0
0.0 1.762862297087584e-06 7.425115861487428e-08 -6.029149643128876e-08 -1.3959662183589334e-08 3.448992119798501e-07 0.0 0.0
0.0 4.567888438468323e-06 2.816642514112822e-07 -2.2557908395482e-07 -5.6085167456466286e-08 9.161147982519621e-07 0.0 0.0
0.0 1.0652708672196913e-05 8.226055347238993e-07 -6.478885821616355e-07 -1.747169525622491e-07 2.1974362185183357e-06 0.0 0.0
0.0 3.856000506950885e-05 -6.80811407999472e-06 5.252271045205621e-06 1.5558430347890913e-06 -1.3866511067372738e-05 0.0 0.0
0.0 0.00016768569606597606 -7.233456688183271e-05 5.719993249236475e-05 1.51346343894681e-05 -0.00013017478835642592 0.0 0.0
0.0 0.0006143335506547978 -0.00039301321662917407 0.00031073337693097905 8.227983969819494e-05 -0.0004996938297153192 0.0 0.0
0.0 0.0014587425486953872 -0.0010851620678099842 0.0008792613190326984 0.00020590074877728596 -0.0011170545497662028 0.0 0.0
0.0 0.0025899471194169377 -0.0020999548907454065 0.0017526759269201127 0.00034727896382529347 -0.0018837858038945258 0.0 0.0
0.0 0.004018636744208191 -0.0033503355404450705 0.0028768249718549095 0.0004735105685901607 -0.002675813532293808 0.0 0.0
0.0 0.005829419623087622 -0.004897346384376152 0.00431214287305498 0.0005852035113211719 -0.0034883907409899357 0.0 0.0
0.0 0.008207251432520305 -0.006892563868090681 0.0062125284632854345 0.0006800354048052478 -0.004416703816555778 0.0 0.0
0.0 0.011299921834646223 -0.009525118766103124 0.008763970556360096 0.0007611482097430247 -0.005554044138186245 0.0 0.0
0.0 0.015322744908069473 -0.012900444738163005 0.012067479099312136 0.000832965638850865 -0.007006221968305604 0.0 0.0
0.0 0.020157463900258518 -0.016921301707844318 0.016017039505985264 0.000904262201859056 -0.008981360941683798 0.0 0.0
0.0 0.025231630845343255 -0.02111914468431808 0.02013729193330047 0.0009818527510176071 -0.011677676002641968 0.0 0.0
0.0 0.029406595145514632 -0.02444076763585333 0.023359050828715935 0.0010817168071373911 -0.014749577535434866 0.0 0.0
0.0 0.03035177925806516 -0.025015521086563696 0.023807837309020377 0.0012076837775433103 -0.01661941196960501 0.0 0.0
0.0 0.024423125492562085 -0.020063393303250427 0.01870976332043272 0.0013536299828177084 -0.014007670919813826 0.0 0.0
0.0 0.024423125492564694 -0.020063393303250368 0.01870976332043257 0.0013536299828178016 0.014007670919828285 0.0 0.0
0.0 0.030351779258067035 -0.025015521086562183 0.02380783730901919 0.001207683777543001 0.016619411969624395 0.0 0.0
0.0 0.02940659514551138 -0.024440767635848203 0.023359050828711328 0.0010817168071368623 0.01474957753544908 0.0 0.0
0.0 0.02523163084533416 -0.021119144684309383 0.020137291933292216 0.0009818527510171617 0.011677676002645326 0.0 0.0
0.0 0.020157463900248307 -0.01692130170783515 0.01601703950597687 0.0009042622018582778 0.008981360941681338 0.0 0.0
0.0 0.015322744908060671 -0.012900444738155145 0.012067479099305015 0.0008329656388501261 0.007006221968302818 0.0 0.0
0.0 0.011299921834636049 -0.009525118766094381 0.008763970556351747 0.0007611482097426326 0.005554044138181925 0.0 0.0
0.0 0.008207251432507334 -0.006892563868079478 0.006212528463274708 0.0006800354048047689 0.0044167038165513 0.0 0.0
0.0 0.005829419623076041 -0.004897346384366015 0.00431214287304557 0.0005852035113204438 0.0034883907409841387 0.0 0.0
0.0 0.004018636744197057 -0.0033503355404356453 0.0028768249718463305 0.00047351056858931453 0.002675813532286883 0.0 0.0
0.0 0.002589947119407251 -0.002099954890737439 0.0017526759269131066 0.0003472789638243312 0.0018837858038874109 0.0 0.0
0.0 0.001458742548688404 -0.0010851620678045569 0.0008792613190282156 0.00020590074877634146 0.0011170545497619202 0.0 0.0
0.0 0.0006143335506509559 -0.0003930132166264763 0.00031073337692887407 8.227983969760217e-05 0.0004996938297125782 0.0 0.0
0.0 0.00016768569606402276 -7.233456688110227e-05 5.719993249179406e-05 1.5134634389308271e-05 0.00013017478835522934 0.0 0.0
0.0 3.856000506838492e-05 -6.808114080070483e-06 5.252271045265845e-06 1.5558430348046887e-06 1.3866511067526453e-05 0.0 0.0
0.0 1.0652708671765672e-05 8.226055346890362e-07 -6.478885821339158e-07 -1.7471695255515656e-07 -2.1974362184231995e-06 0.0 0.0
0.0 4.567888437996252e-06 2.8166425138205025e-07 -2.255790839313278e-07 -5.6085167450732297e-08 -9.161147981532237e-07 0.0 0.0
0.0 1.7628622966370727e-06 7.425115859493936e-08 -6.029149641515662e-08 -1.3959662179784548e-08 -3.4489921188806817e-07 0.0 0.0
0.0 0.0 0.0 0.0 0.0 0.0 0.0 0.0
0.0 0.0 0.0 0.0 0.0 0.0 0.0 0.0
0.0 0.0 0.0 0.0 0.0 0.0 0.0 0.0
0.0 0.0 0.0 0.0 0.0 0.0 0.0 0.0
0.0 0.0 0.0 0.0 0.0 0.0 0.0 0.0
0.0 6.9346823109825144e-06 5.042347017098303e-07 -4.065067840334973e-07 -9.772791767633461e-08 1.3113344896096305e-06 0.0 0.0
0.0 2.452262333879433e-05 2.414218744173683e-06 -1.9037384693013965e-06 -5.104802748722838e-07 4.861566411945546e-06 0.0 0.0
0.0 7.378752258448254e-05 -2.5963920767515543e-05 2.057416755129229e-05 5.389753216223285e-06 -3.9699091625397056e-05 0.0 0.0
0.0 0.0003953081922961173 -0.00023143300586279128 0.00018249201306650523 4.8940992796286115e-05 -0.00025453382483696873 0.0 0.0
0.0 0.001176374262476996 -0.0008803200888786874 0.0007083680329463216 0.00017195205593236557 -0.0007648252061621374 0.0 0.0
0.0 0.002344091709876443 -0.0019477319439053105 0.001617947183611866 0.0003297847602934446 -0.0014610278099711856 0.0 0.0
0.0 0.00384930166651152 -0.003300748342670832 0.0028259682467838888 0.0004747800958869419 -0.0022038230177450387 0.0 0.0
0.0 0.005724600874357224 -0.004937157054393397 0.0043390656767505675 0.0005980913776428289 -0.0029482803996124796 0.0 0.0
0.0 0.0081086087028453 -0.006976207337004949 0.006273789962268491 0.0007024173747364572 -0.003756425024366069 0.0 0.0
0.0 0.01119865363150805 -0.009607475460401468 0.00881737909440138 0.0007900963660000845 -0.004710735270547982 0.0 0.0
0.0 0.01525003464915417 -0.013050183708238561 0.012184632659386262 0.0008655510488522959 -0.005883202675771491 0.0 0.0
0.0 0.020472440628781594 -0.01745040504439584 0.016514874081696534 0.0009355309626993091 -0.007378994392999673 0.0 0.0
0.0 0.02653959824034486 -0.022718471636199288 0.021708080184788706 0.0010103914514105797 -0.009417613158236296 0.0 0.0
0.0 0.0332552386463992 -0.0282662646301935 0.027164606579748563 0.0011016580504449322 -0.012242126362985255 0.0 0.0
0.0 0.03872059957056045 -0.03271014043319831 0.03148641223820716 0.0012237281949911605 -0.01571651865856851 0.0 0.0
0.0 0.039962602863077366 -0.03357096199378042 0.032191783313591786 0.001379178680188632 -0.01834825603521148 0.0 0.0
0.0 0.032738060994559774 -0.027328414844489876 0.025792674208857117 0.0015357406356327576 -0.01707041412035 0.0 0.0
0.0 0.032738060994561786 -0.027328414844489148 0.02579267420885637 0.001535740635632778 0.017070414120366095 0.0 0.0
0.0 0.039962602863075014 -0.033570961993775655 0.03219178331358701 0.0013791786801886459 0.018348256035231766 0.0 0.0
0.0 0.038720599570553474 -0.032710140433190336 0.03148641223819937 0.001223728194990969 0.01571651865858384 0.0 0.0
0.0 0.03325523864638812 -0.028266264630183044 0.027164606579738536 0.0011016580504444938 0.012242126362989556 0.0 0.0
0.0 0.026539598240331183 -0.02271847163618733 0.021708080184777014 0.0010103914514103026 0.009417613158234016 0.0 0.0
0.0 0.020472440628767814 -0.017450405044383728 0.01651487408168465 0.0009355309626990775 0.007378994392997157 0.0 0.0
0.0 0.01525003464914194 -0.013050183708227765 0.012184632659375975 0.0008655510488517882 0.005883202675766941 0.0 0.0
0.0 0.011198653631496417 -0.009607475460390903 0.008817379094391484 0.0007900963659994225 0.004710735270545553 0.0 0.0
0.0 0.008108608702832339 -0.006976207336993303 0.006273789962257587 0.0007024173747357141 0.0037564250243613765 0.0 0.0
0.0 0.005724600874343426 -0.004937157054381403 0.004339065676739376 0.0005980913776420258 0.0029482803996051807 0.0 0.0
0.0 0.00384930166649995 -0.00330074834266048 0.002825968246774488 0.00047478009588599153 0.002203823017737803 0.0 0.0
0.0 0.0023440917098674153 -0.001947731943897474 0.0016179471836049824 0.00032978476029249087 0.001461027809966273 0.0 0.0
0.0 0.001176374262470739 -0.0008803200888735564 0.0007083680329421138 0.00017195205593144265 0.0007648252061586394 0.0 0.0
0.0 0.00039530819229291014 -0.00023143300586093594 0.0001824920130650409 4.8940992795894976e-05 0.0002545338248350601 0.0 0.0
0.0 7.378752258342607e-05 -2.596392076761801e-05 2.0574167551368186e-05 5.389753216249879e-06 3.969909162548082e-05 0.0 0.0
0.0 2.4522623338024138e-05 2.4142187440938884e-06 -1.903738469238392e-06 -5.10480274855607e-07 -4.861566411793165e-06 0.0 0.0
0.0 6.934682310505462e-06 5.042347016716486e-07 -4.0650678400268413e-07 -9.772791766897146e-08 -1.3113344895102354e-06 0.0 0.0
0.0 0.0 0.0 0.0 0.0 0.0 0.0 0.0
0.0 0.0 0.0 0.0 0.0 0.0 0.0 0.0
0.0 0.0 0.0 0.0 0.0 0.0 0.0 0.0
0.0 0.0 0.0 0.0 0.0 0.0 0.0 0.0
0.0 0.0 0.0 0.0 0.0 0.0 0.0 0.0
0.0 0.0 0.0 0.0 0.0 0.0 0.0 0.0
0.0 3.2006597007079794e-06 2.5707668110242285e-07 -2.054760131561159e-07 -5.160066794626825e-08 5.112391327039601e-07 0.0 0.0
0.0 2.607552614242202e-05 -1.7407008878222018e-07 1.2440114217263224e-07 4.966894660960737e-08 1.2656521731210423e-07 0.0 0.0
0.0 0.00016995198870231745 -7.276379251979433e-05 5.736927363240294e-05 1.5394518887391603e-05 -7.32702126627749e-05 0.0 0.0
0.0 0.0008018767421242486 -0.0005272086939088406 0.00042005227595376653 0.00010715641795507368 -0.00039226818548200083 0.0 0.0
0.0 0.001807629053969021 -0.0015296159227168615 0.0012552672463789442 0.0002743486763379177 -0.0009603048885730158 0.0 0.0
0.0 0.0032932251938371433 -0.002890389977085399 0.002453377001116186 0.00043701297596921156 -0.0016083231104685734 0.0 0.0
0.0 0.005178033264608988 -0.004549656243565335 0.00397196408412578 0.0005776921594395556 -0.0022648857941552675 0.0 0.0
0.0 0.007521996954867408 -0.006579461985275456 0.005884148382819712 0.000695313602455741 -0.002961337622146877 0.0 0.0
0.0 0.010472600248843295 -0.009125335138097067 0.008331478046720103 0.0007938570913769605 -0.003729835473328442 0.0 0.0
0.0 0.014354840709259015 -0.0124096100731904 0.0115309340043275 0.0008786760688628956 -0.0046515889874186814 0.0 0.0
0.0 0.019250249162841127 -0.01667864757955818 0.015724660548959383 0.0009539870305987923 -0.00582218945028344 0.0 0.0
0.0 0.025562585011852015 -0.02208461176605917 0.02105894376871999 0.001025667997339188 -0.007254372489483662 0.0 0.0
0.0 0.03319556713095764 -0.028544778759501257 0.02743774121086784 0.0011070375486334203 -0.009078418711257051 0.0 0.0
0.0 0.041091640929896533 -0.03539964527986302 0.03418898077083345 0.0012106645090295646 -0.011690092143642744 0.0 0.0
0.0 0.0476388310558783 -0.040933729607003665 0.03958047045637386 0.0013532591506298123 -0.015273654960666162 0.0 0.0
0.0 0.04930426320463125 -0.04207686415327281 0.040545639477337594 0.0015312246759352024 -0.01890963228134539 0.0 0.0
0.0 0.041225079261299556 -0.034607152107755924 0.032908407280171664 0.0016987448275842287 -0.02010573398981225 0.0 0.0
0.0 0.04122507926130084 -0.03460715210775453 0.032908407280170325 0.001698744827584173 0.020105733989829844 0.0 0.0
0.0 0.04930426320462889 -0.042076864153268126 0.04054563947733324 0.0015312246759348822 0.018909632281367744 0.0 0.0
0.0 0.04763883105587104 -0.04093372960699564 0.03958047045636613 0.0013532591506294988 0.0152736549606831 0.0 0.0
0.0 0.04109164092988409 -0.03539964527985155 0.034188980770822205 0.001210664509029354 0.011690092143648557 0.0 0.0
0.0 0.033195567130942745 -0.02854477875948809 0.0274377412108552 0.001107037548632879 0.009078418711255946 0.0 0.0
0.0 0.025562585011838952 -0.022084611766047254 0.021058943768708954 0.0010256679973383008 0.0072543724894833335 0.0 0.0
0.0 0.019250249162827103 -0.016678647579545625 0.015724660548947597 0.0009539870305980214 0.005822189450280155 0.0 0.0
0.0 0.014354840709242436 -0.012409610073175457 0.011530934004313056 0.000878676068862396 0.004651588987414987 0.0 0.0
0.0 0.010472600248825875 -0.009125335138081517 0.008331478046705023 0.0007938570913764905 0.003729835473323447 0.0 0.0
0.0 0.007521996954851494 -0.0065794619852613395 0.005884148382806339 0.0006953136024550003 0.0029613376221401446 0.0 0.0
0.0 0.005178033264596342 -0.004549656243554014 0.003971964084115352 0.0005776921594386612 0.0022648857941489375 0.0 0.0
0.0 0.0032932251938265736 -0.0028903899770756384 0.002453377001107468 0.00043701297596817056 0.0016083231104640694 0.0 0.0
0.0 0.0018076290539605045 -0.001529615922709225 0.0012552672463723804 0.0002743486763368438 0.0009603048885688649 0.0 0.0
0.0 0.0008018767421192055 -0.0005272086939050999 0.00042005227595075093 0.0001071564179543488 0.0003922681854793445 0.0 0.0
0.0 0.000169951988700169 -7.27637925189032e-05 5.736927363169926e-05 1.53945188872038e-05 7.327021266193237e-05 0.0 0.0
0.0 2.6075526141503893e-05 -1.7407008894118285e-07 1.2440114229664337e-07 4.966894664456008e-08 -1.2656521709868242e-07 0.0 0.0
0.0 3.200659700236418e-06 2.5707668106207243e-07 -2.0547601312382118e-07 -5.1600667938269986e-08 -5.112391326237518e-07 0.0 0.0
0.0 0.0 0.0 0.0 0.0 0.0 0.0 0.0
0.0 0.0 0.0 0.0 0.0 0.0 0.0 0.0
0.0 0.0 0.0 0.0 0.0 0.0 0.0 0.0
0.0 0.0 0.0 0.0 0.0 0.0 0.0 0.0
0.0 0.0 0.0 0.0 0.0 0.0 0.0 0.0
0.0 0.0 0.0 0.0 0.0 0.0 0.0 0.0
0.0 2.6184053184797525e-06 2.3936820084323267e-07 -1.9194239063393857e-07 -4.7425810209277095e-08 3.642394502886807e-07 0.0 0.0
0.0 3.988897141232559e-05 -9.503141348136605e-07 8.609421593701047e-07 8.937197544370151e-08 -1.203397964435012e-06 0.0 0.0
0.0 0.0003777142339921049 -0.00019971034655395513 0.00015809750851419476 4.161283803976076e-05 -0.00013365926244963175 0.0 0.0
0.0 0.0011586243569371387 -0.0009877181600137133 0.0007980625233731688 0.00018965563664054456 -0.0005189356691666908 0.0 0.0
0.0 0.002509896919549447 -0.002248868372379973 0.0018812793717901265 0.00036758900058984586 -0.0010146816188100155 0.0 0.0
0.0 0.004328708705323093 -0.0038577784061305594 0.0033312216730244306 0.0005265567331061286 -0.001545446956560331 0.0 0.0
0.0 0.006568962255955636 -0.0058336373548690265 0.005172507792861897 0.0006611295620071305 -0.0021168213783233376 0.0 0.0
0.0 0.00937190395507417 -0.00826415670683728 0.007490692704167372 0.0007734640026699087 -0.0027310316892390015 0.0 0.0
0.0 0.01293336245955443 -0.011330969689410029 0.010461295314386946 0.0008696743750230828 -0.0034172938009045767 0.0 0.0
0.0 0.01752252571308158 -0.015289577056165288 0.014335122734275093 0.0009544543218901897 -0.004266040995556972 0.0 0.0
0.0 0.023465695434023312 -0.020389114723527637 0.019354674988716125 0.001034439734811514 -0.00534072631958729 0.0 0.0
0.0 0.030881361004425567 -0.026768153507647913 0.025656621420309975 0.0011115320873379382 -0.006632547495889989 0.0 0.0
0.0 0.03944380124453125 -0.03433059931443412 0.0331343121598066 0.0011962871546275192 -0.008102626186022348 0.0 0.0
0.0 0.048768539657855256 -0.042378178524018144 0.04106868927756971 0.0013094892464484364 -0.010046474277116786 0.0 0.0
0.0 0.05653875225095498 -0.04899887428835303 0.047530814152919015 0.001468060135434014 -0.013316537269506613 0.0 0.0
0.0 0.05876613454202313 -0.05061203492877605 0.04894309530413342 0.0016689396246426396 -0.018257554823736782 0.0 0.0
0.0 0.049866750594520476 -0.042127053155430104 0.04027020524355964 0.0018568479118704544 -0.023134835169504597 0.0 0.0
0.0 0.04986675059452057 -0.04212705315542782 0.040270205243557164 0.0018568479118706476 0.02313483516952223 0.0 0.0
0.0 0.058766134542018136 -0.05061203492876978 0.04894309530412711 0.0016689396246426802 0.018257554823758012 0.0 0.0
0.0 0.056538752250944714 -0.04899887428834289 0.04753081415290922 0.0014680601354336402 0.013316537269522526 0.0 0.0
0.0 0.0487685396578404 -0.042378178524004675 0.041068689277556705 0.0013094892464479567 0.010046474277122448 0.0 0.0
0.0 0.0394438012445143 -0.034330599314419064 0.03313431215979215 0.0011962871546269032 0.008102626186022501 0.0 0.0
0.0 0.03088136100440864 -0.026768153507632914 0.025656621420295476 0.0011115320873374289 0.006632547495889876 0.0 0.0
0.0 0.02346569543400549 -0.020389114723512042 0.019354674988701075 0.0010344397348109574 0.005340726319584442 0.0 0.0
0.0 0.017522525713063796 -0.015289577056149417 0.014335122734260016 0.0009544543218893978 0.004266040995554069 0.0 0.0
0.0 0.012933362459536836 -0.011330969689393995 0.010461295314371816 0.0008696743750221792 0.0034172938009009706 0.0 0.0
0.0 0.009371903955056647 -0.008264156706821327 0.007490692704152273 0.0007734640026690527 0.0027310316892331303 0.0 0.0
0.0 0.006568962255939471 -0.005833637354854324 0.005172507792848039 0.0006611295620062829 0.0021168213783170986 0.0 0.0
0.0 0.0043287087053108415 -0.003857778406119051 0.003331221673013893 0.0005265567331051577 0.0015454469565562348 0.0 0.0
0.0 0.002509896919540366 -0.0022488683723712937 0.0018812793717825102 0.00036758900058878334 0.0010146816188066647 0.0 0.0
0.0 0.0011586243569304676 -0.000987718160007766 0.0007980625233682443 0.00018965563663952143 0.0005189356691639079 0.0 0.0
0.0 0.0003777142339882745 -0.00019971034655171405 0.00015809750851241685 4.161283803929713e-05 0.00013365926244822347 0.0 0.0
0.0 3.9888971411305e-05 -9.503141349713814e-07 8.609421594922481e-07 8.937197547904613e-08 1.2033979645921171e-06 0.0 0.0
0.0 2.618405318069889e-06 2.393682008043899e-07 -1.9194239060307888e-07 -4.7425810201298124e-08 -3.6423945023065724e-07 0.0 0.0
0.0 0.0 0.0 0.0 0.0 0.0 0.0 0.0
0.0 0.0 0.0 0.0 0.0 0.0 0.0 0.0
0.0 0.0 0.0 0.0 0.0 0.0 0.0 0.0
0.0 0.0 0.0 0.0 0.0 0.0 0.0 0.0
0.0 0.0 0.0 0.0 0.0 0.0 0.0 0.0
0.0 0.0 0.0 0.0 0.0 0.0 0.0 0.0
0.0 2.5053288124497985e-06 2.531774601912513e-07 -2.004950959842307e-07 -5.268236420702641e-08 2.7033984583380355e-07 0.0 0.0
0.0 8.48395626987517e-05 -9.350234806982479e-06 7.51906981263312e-06 1.8311649943492855e-06 -5.682386229925125e-06 0.0 0.0
0.0 0.0006544500986200339 -0.0004421263338038697 0.000352087128525711 9.00392052781586e-05 -0.00019666004408831002 0.0 0.0
0.0 0.0016557539423552483 -0.001509597502476658 0.0012375415745175169 0.00027205592795914106 -0.0005220538245927823 0.0 0.0
0.0 0.0032939355771462804 -0.0029836012777448026 0.0025362503073209355 0.00044735097042386687 -0.0008992206064491075 0.0 0.0
0.0 0.005400279332950959 -0.004847997154890411 0.004246908877786336 0.0006010882771040733 -0.0013163786517855977 0.0 0.0
0.0 0.008012914321869336 -0.007142027288721841 0.006412146298705599 0.0007298809900162405 -0.0017749541723882307 0.0 0.0
0.0 0.011300470824296197 -0.00998229733635732 0.009143511361646678 0.0008387859747106437 -0.0022753973444822545 0.0 0.0
0.0 0.015425577958845433 -0.013586087896544809 0.012651499710765452 0.0009345881857793529 -0.002834119898164876 0.0 0.0
0.0 0.02087534709325477 -0.0182304361764236 0.01720758125555086 0.0010228549208727328 -0.0035261224329613274 0.0 0.0
0.0 0.02760966940646769 -0.024173043858134204 0.023064435060680857 0.001108608797453348 -0.0044562362706087 0.0 0.0
0.0 0.03599830277324752 -0.031495808404710605 0.030301648581802045 0.0011941598229085549 -0.005557349007007077 0.0 0.0
0.0 0.045813195395003864 -0.04001531997911864 0.03872978010103277 0.0012855398780858597 -0.006563190179301923 0.0 0.0
0.0 0.05620349783372747 -0.049048404649667005 0.047653540383850806 0.0013948642658161768 -0.007492908573190851 0.0 0.0
0.0 0.06515018843727219 -0.05677948484085327 0.05521669724036424 0.0015627876004890248 -0.009875973434601412 0.0 0.0
0.0 0.06834349554185626 -0.0592503951278946 0.057456911726096654 0.0017934834017979554 -0.016102244332269085 0.0 0.0
0.0 0.05920533311494705 -0.050158615054890415 0.0481349235644576 0.002023691490432802 -0.02596769738321437 0.0 0.0
0.0 0.05920533311494726 -0.05015861505488861 0.04813492356445594 0.0020236914904326686 0.025967697383229366 0.0 0.0
0.0 0.06834349554184965 -0.05925039512788754 0.057456911726089695 0.0017934834017978218 0.016102244332287626 0.0 0.0
0.0 0.06515018843725923 -0.05677948484084133 0.055216697240352546 0.0015627876004887771 0.009875973434615902 0.0 0.0
0.0 0.0562034978337098 -0.049048404649651434 0.047653540383835444 0.0013948642658159806 0.007492908573195735 0.0 0.0
0.0 0.04581319539498537 -0.040015319979102335 0.038729780101016915 0.0012855398780854223 0.006563190179303696 0.0 0.0
0.0 0.03599830277322924 -0.031495808404694424 0.030301648581786522 0.001194159822907911 0.005557349007007614 0.0 0.0
0.0 0.027609669406447254 -0.024173043858116285 0.023064435060663437 0.0011086087974528408 0.004456236270606816 0.0 0.0
0.0 0.02087534709323287 -0.0182304361764042 0.01720758125553207 0.0010228549208721226 0.0035261224329586833 0.0 0.0
0.0 0.015425577958823744 -0.013586087896525531 0.012651499710747149 0.0009345881857783841 0.0028341198981623496 0.0 0.0
0.0 0.011300470824276338 -0.009982297336339185 0.009143511361629351 0.000838785974709832 0.0022753973444775374 0.0 0.0
0.0 0.008012914321850959 -0.0071420272887050785 0.006412146298689551 0.0007298809900155268 0.001774954172383106 0.0 0.0
0.0 0.00540027933293621 -0.004847997154876656 0.004246908877773488 0.0006010882771031689 0.001316378651782397 0.0 0.0
0.0 0.0032939355771352936 -0.0029836012777342286 0.002536250307311439 0.0004473509704227896 0.0008992206064462698 0.0 0.0
0.0 0.0016557539423473137 -0.001509597502469019 0.0012375415745109774 0.00027205592795804184 0.0005220538245902536 0.0 0.0
0.0 0.000654450098615158 -0.0004421263338000841 0.0003520871285226498 9.00392052774337e-05 0.00019666004408662593 0.0 0.0
0.0 8.483956269739407e-05 -9.350234806775223e-06 7.519069812458508e-06 1.8311649943168424e-06 5.6823862297628725e-06 0.0 0.0
0.0 2.505328812068445e-06 2.5317746015048106e-07 -2.004950959519918e-07 -5.2682364198484455e-08 -2.703398457904753e-07 0.0 0.0
0.0 0.0 0.0 0.0 0.0 0.0 0.0 0.0
0.0 0.0 0.0 0.0 0.0 0.0 0.0 0.0
0.0 0.0 0.0 0.0 0.0 0.0 0.0 0.0
0.0 0.0 0.0 0.0 0.0 0.0 0.0 0.0
0.0 0.0 0.0 0.0 0.0 0.0 0.0 0.0
0.0 0.0 0.0 0.0 0.0 0.0 0.0 0.0
0.0 7.217443276911551e-06 8.68179010796905e-07 -6.71359549835835e-07 -1.9681946096104174e-07 5.384504577851146e-07 0.0 0.0
0.0 0.00020096166480352158 -5.994019597954893e-05 4.786401573735005e-05 1.2076180242199078e-05 -2.327405184425962e-05 0.0 0.0
0.0 0.0008700919027414533 -0.0008075107558598541 0.0006476736018043998 0.0001598371540554543 -0.00020051466609694534 0.0 0.0
0.0 0.00223705158950071 -0.0020559318032528978 0.001710946201298604 0.0003449856019542938 -0.0004070600206358802 0.0 0.0
0.0 0.004101565897245674 -0.0037346073277426377 0.003218226328364388 0.0005163809993782503 -0.000651403906428771 0.0 0.0
0.0 0.00649954867685306 -0.005852011018361566 0.00518918788546417 0.0006628231328973948 -0.0009320926302495621 0.0 0.0
0.0 0.009489620633361385 -0.008469103343274026 0.007682124516312121 0.0007869788269619038 -0.0012497547703290062 0.0 0.0
0.0 0.013250100962231524 -0.011729768655360287 0.010834847875952156 0.0008949207794081327 -0.0015933487968167624 0.0 0.0
0.0 0.018108767275192887 -0.01588059312993894 0.014887906787621896 0.0009926863423170432 -0.0019765294280793414 0.0 0.0
0.0 0.02412398639712588 -0.021229491920380858 0.02014401919349873 0.0010854727268821258 -0.0024863225362428245 0.0 0.0
0.0 0.03185632104933314 -0.02800498576895554 0.02682672550575973 0.0011782602631958145 -0.003156409307140232 0.0 0.0
0.0 0.04133470417761255 -0.03623670248061196 0.03496201278035708 0.0012746897002548917 -0.003911892588271869 0.0 0.0
0.0 0.05211728580130565 -0.04561135235754185 0.044235715894791264 0.001375636462750582 -0.004520315142463588 0.0 0.0
0.0 0.0632945843828675 -0.05534235672503483 0.053859258580389105 0.0014830981446457415 -0.004619963187946359 0.0 0.0
0.0 0.07322086778365533 -0.06396626915162651 0.06235501631584418 0.001611252835782347 -0.0051182150414669815 0.0 0.0
0.0 0.07809938000806244 -0.06797280496966482 0.06607076312897825 0.0019020418406865487 -0.011535857508894534 0.0 0.0
0.0 0.06957468773777344 -0.05914039592660238 0.05692104355841385 0.0022193523681885282 -0.028037494191890094 0.0 0.0
0.0 0.06957468773777202 -0.05914039592659978 0.056921043558411384 0.002219352368188403 0.028037494191901186 0.0 0.0
0.0 0.07809938000805414 -0.06797280496965681 0.06607076312897078 0.0019020418406860014 0.011535857508908641 0.0 0.0
0.0 0.0732208677836412 -0.06396626915161353 0.06235501631583228 0.0016112528357812286 0.005118215041477827 0.0 0.0
0.0 0.06329458438284867 -0.05534235672501798 0.05385925858037328 0.001483098144644702 0.004619963187948997 0.0 0.0
0.0 0.05211728580128379 -0.04561135235752253 0.04423571589477273 0.0013756364627497979 0.0045203151424650315 0.0 0.0
0.0 0.04133470417758974 -0.03623670248059182 0.034962012780337816 0.0012746897002540105 0.0039118925882718186 0.0 0.0
0.0 0.03185632104930994 -0.02800498576893496 0.026826725505740265 0.0011782602631946904 0.003156409307139463 0.0 0.0
0.0 0.02412398639710088 -0.021229491920358886 0.020144019193477466 0.0010854727268814228 0.0024863225362407367 0.0 0.0
0.0 0.018108767275167637 -0.015880593129916444 0.014887906787600016 0.0009926863423164215 0.001976529428078473 0.0 0.0
0.0 0.013250100962209105 -0.01172976865534019 0.010834847875933102 0.0008949207794070843 0.0015933487968134933 0.0 0.0
0.0 0.009489620633342351 -0.008469103343256703 0.007682124516295817 0.0007869788269608858 0.00124975477032566 0.0 0.0
0.0 0.0064995486768378435 -0.005852011018347117 0.005189187885450713 0.000662823132896404 0.0009320926302476529 0.0 0.0
0.0 0.0041015658972333845 -0.003734607327730885 0.0032182263283537034 0.0005163809993771805 0.0006514039064267849 0.0 0.0
0.0 0.00223705158949222 -0.0020559318032444215 0.0017109462012912958 0.0003449856019531249 0.00040706002063415784 0.0 0.0
0.0 0.0008700919027366633 -0.0008075107558551951 0.0006476736018005873 0.00015983715405460763 0.00020051466609575424 0.0 0.0
0.0 0.00020096166480134471 -5.994019597857054e-05 4.7864015736575835e-05 1.2076180241994542e-05 2.3274051843930165e-05 0.0 0.0
0.0 7.217443276285659e-06 8.681790107182434e-07 -6.713595497753641e-07 -1.9681946094292053e-07 -5.384504577394223e-07 0.0 0.0
0.0 0.0 0.0 0.0 0.0 0.0 0.0 0.0
0.0 0.0 0.0 0.0 0.0 0.0 0.0 0.0
0.0 0.0 0.0 0.0 0.0 0.0 0.0 0.0
0.0 0.0 0.0 0.0 0.0 0.0 0.0 0.0
0.0 0.0 0.0 0.0 0.0 0.0 0.0 0.0
0.0 0.0 0.0 0.0 0.0 0.0 0.0 0.0
0.0 1.3220964968873506e-05 1.7909406834492612e-06 -1.3770654118147467e-06 -4.138752716343679e-07 4.5825818987221563e-07 0.0 0.0
0.0 0.0004302137428299248 -0.0001901327792935268 0.0001508427175015011 3.929006179202562e-05 -2.9548804713910283e-05 0.0 0.0
0.0 0.0012761507678240888 -0.001185491376253671 0.0009602815600696579 0.00022520981618401288 -0.000102052936401102 0.0 0.0
0.0 0.0028390278183182617 -0.002618422522417453 0.002208655293529374 0.0004097672288880778 -0.00018404467365475656 0.0 0.0
0.0 0.004942765065793288 -0.004491401205569286 0.0039170593459381614 0.000574341859631124 -0.0002794322393348922 0.0 0.0
0.0 0.0076399345193006625 -0.006862593596859574 0.006147950548718188 0.0007146430481413842 -0.00039844736529470916 0.0 0.0
0.0 0.01103406981810148 -0.009807129347151836 0.008971180192248322 0.0008359491549035103 -0.0005401900651365813 0.0 0.0
0.0 0.015347948161090953 -0.013499291718970807 0.012555561690211246 0.0009437300287595532 -0.0006880902063082689 0.0 0.0
0.0 0.020620911712669655 -0.018223370557338442 0.01717819709301248 0.0010451734643259641 -0.0008745119029288529 0.0 0.0
0.0 0.027491223618633823 -0.024266809507565493 0.023123034793120896 0.0011437747144445926 -0.0011126845282446868 0.0 0.0
0.0 0.036211608085653435 -0.03185214648362915 0.030607729417542792 0.0012444170660863422 -0.0014002574229465795 0.0 0.0
0.0 0.046697927218994524 -0.040965979897482 0.039614600419475295 0.0013513794780067039 -0.001713278979508216 0.0 0.0
0.0 0.05844160925690019 -0.0511456894024465 0.04968115291973441 0.0014645364827121088 -0.0018977468742415063 0.0 0.0
0.0 0.07026050232980581 -0.061392393197863625 0.059814393922317896 0.0015779992755457165 -0.0016883243832203343 0.0 0.0
0.0 0.08045963746399208 -0.07026831583719363 0.06858532230798277 0.0016829935292108382 -0.000827806673974584 0.0 0.0
0.0 0.08693403314203922 -0.07581950107310476 0.07400870970985984 0.0018107913632448664 -0.0028223649660570737 0.0 0.0
0.0 0.08195074554179144 -0.07023859457197776 0.06767448044143841 0.0025641141305393343 -0.02620155759304701 0.0 0.0
0.0 0.08195074554178855 -0.07023859457197468 0.06767448044143545 0.002564114130539207 0.026201557593051997 0.0 0.0
0.0 0.08693403314202755 -0.07581950107309438 0.07400870970984998 0.0018107913632444063 0.0028223649660630754 0.0 0.0
0.0 0.08045963746397303 -0.07026831583717684 0.06858532230796661 0.0016829935292102356 0.0008278066739799126 0.0 0.0
0.0 0.07026050232978467 -0.0613923931978449 0.05981439392230004 0.0015779992755448374 0.0016883243832202799 0.0 0.0
0.0 0.058441609256877164 -0.05114568940242607 0.04968115291971484 0.0014645364827112395 0.0018977468742418172 0.0 0.0
0.0 0.04669792721897001 -0.04096597989746045 0.039614600419454506 0.001351379478005942 0.0017132789795072582 0.0 0.0
0.0 0.036211608085629 -0.03185214648360751 0.030607729417522253 0.0012444170660852734 0.0014002574229473345 0.0 0.0
0.0 0.027491223618607688 -0.024266809507542415 0.023123034793098823 0.0011437747144435765 0.0011126845282433732 0.0 0.0
0.0 0.020620911712641448 -0.018223370557313615 0.01717819709298842 0.0010451734643251902 0.0008745119029293279 0.0 0.0
0.0 0.015347948161065824 -0.013499291718948514 0.01255556169018972 0.0009437300287587877 0.0006880902063059877 0.0 0.0
0.0 0.011034069818079964 -0.00980712934713289 0.008971180192230171 0.0008359491549027176 0.0005401900651350463 0.0 0.0
0.0 0.007639934519282863 -0.0068625935968432365 0.00614795054870273 0.000714643048140506 0.0003984473652940292 0.0 0.0
0.0 0.0049427650657792345 -0.00449140120555583 0.003917059345925686 0.0005743418596301439 0.00027943223933416124 0.0 0.0
0.0 0.0028390278183071938 -0.0026184225224067824 0.0022086552935197674 0.00040976722888701504 0.000184044673654034 0.0 0.0
0.0 0.0012761507678177141 -0.0011854913762471208 0.0009602815600641064 0.00022520981618301392 0.0001020529364004093 0.0 0.0
0.0 0.0004302137428264575 -0.00019013277929138482 0.00015084271749977418 3.929006179161103e-05 2.9548804713571538e-05 0.0 0.0
0.0 1.3220964968205055e-05 1.790940683362012e-06 -1.377065411748653e-06 -4.1387527161337006e-07 -4.582581898558443e-07 0.0 0.0
0.0 0.0 0.0 0.0 0.0 0.0 0.0 0.0
0.0 0.0 0.0 0.0 0.0 0.0 0.0 0.0
0.0 0.0 0.0 0.0 0.0 0.0 0.0 0.0