# vtk DataFile Version 3.0
Some data
ASCII
DATASET UNSTRUCTURED_GRID
POINTS 861 float
0.0 0.0 0.0
0.4 0.0 0.0
0.8 0.0 0.0
1.2000000000000002 0.0 0.0
1.6 0.0 0.0
2.0 0.0 0.0
2.4000000000000004 0.0 0.0
2.8000000000000003 0.0 0.0
3.2 0.0 0.0
3.6 0.0 0.0
4.0 0.0 0.0
4.4 0.0 0.0
4.800000000000001 0.0 0.0
5.2 0.0 0.0
5.6000000000000005 0.0 0.0
6.0 0.0 0.0
6.4 0.0 0.0
6.800000000000001 0.0 0.0
7.2 0.0 0.0
7.6000000000000005 0.0 0.0
8.0 0.0 0.0
8.4 0.0 0.0
8.8 0.0 0.0
9.200000000000001 0.0 0.0
9.600000000000001 0.0 0.0
10.0 0.0 0.0
10.4 0.0 0.0
10.8 0.0 0.0
11.200000000000001 0.0 0.0
11.600000000000001 0.0 0.0
12.0 0.0 0.0
12.4 0.0 0.0
12.8 0.0 0.0
13.200000000000001 0.0 0.0
13.600000000000001 0.0 0.0
14.0 0.0 0.0
14.4 0.0 0.0
14.8 0.0 0.0
15.200000000000001 0.0 0.0
15.600000000000001 0.0 0.0
16.0 0.0 0.0
0.0 0.1 0.0
0.4 0.1 0.0
0.8 0.1 0.0
1.2000000000000002 0.1 0.0
1.6 0.1 0.0
2.0 0.1 0.0
2.4000000000000004 0.1 0.0
2.8000000000000003 0.1 0.0
3.2 0.1 0.0
3.6 0.1 0.0
4.0 0.1 0.0
4.4 0.1 0.0
4.800000000000001 0.1 0.0
5.2 0.1 0.0
5.6000000000000005 0.1 0.0
6.0 0.1 0.0
6.4 0.1 0.0
6.800000000000001 0.1 0.0
7.2 0.1 0.0
7.6000000000000005 0.1 0.0
8.0 0.1 0.0
8.4 0.1 0.0
8.8 0.1 0.0
9.200000000000001 0.1 0.0
9.600000000000001 0.1 0.0
10.0 0.1 0.0
10.4 0.1 0.0
10.8 0.1 0.0
11.200000000000001 0.1 0.0
11.600000000000001 0.1 0.0
12.0 0.1 0.0
12.4 0.1 0.0
12.8 0.1 0.0
13.200000000000001 0.1 0.0
13.600000000000001 0.1 0.0
14.0 0.1 0.0
14.4 0.1 0.0
14.8 0.1 0.0
15.200000000000001 0.1 0.0
15.600000000000001 0.1 0.0
16.0 0.1 0.0
0.0 0.2 0.0
0.4 0.2 0.0
0.8 0.2 0.0
1.2000000000000002 0.2 0.0
1.6 0.2 0.0
2.0 0.2 0.0
2.4000000000000004 0.2 0.0
2.8000000000000003 0.2 0.0
3.2 0.2 0.0
3.6 0.2 0.0
4.0 0.2 0.0
4.4 0.2 0.0
4.800000000000001 0.2 0.0
5.2 0.2 0.0
5.6000000000000005 0.2 0.0
6.0 0.2 0.0
6.4 0.2 0.0
6.800000000000001 0.2 0.0
7.2 0.2 0.0
7.6000000000000005 0.2 0.0
8.0 0.2 0.0
8.4 0.2 0.0
8.8 0.2 0.0
9.200000000000001 0.2 0.0
9.600000000000001 0.2 0.0
10.0 0.2 0.0
10.4 0.2 0.0
10.8 0.2 0.0
11.200000000000001 0.2 0.0
11.600000000000001 0.2 0.0
12.0 0.2 0.0
12.4 0.2 0.0
12.8 0.2 0.0
13.200000000000001 0.2 0.0
13.600000000000001 0.2 0.0
14.0 0.2 0.0
14.4 0.2 0.0
14.8 0.2 0.0
15.200000000000001 0.2 0.0
15.600000000000001 0.2 0.0
16.0 0.2 0.0
0.0 0.30000000000000004 0.0
0.4 0.30000000000000004 0.0
0.8 0.30000000000000004 0.0
1.2000000000000002 0.30000000000000004 0.0
1.6 0.30000000000000004 0.0
2.0 0.30000000000000004 0.0
2.4000000000000004 0.30000000000000004 0.0
2.8000000000000003 0.30000000000000004 0.0
3.2 0.30000000000000004 0.0
3.6 0.30000000000000004 0.0
4.0 0.30000000000000004 0.0
4.4 0.30000000000000004 0.0
4.800000000000001 0.30000000000000004 0.0
5.2 0.30000000000000004 0.0
5.6000000000000005 0.30000000000000004 0.0
6.0 0.30000000000000004 0.0
6.4 0.30000000000000004 0.0
6.800000000000001 0.30000000000000004 0.0
7.2 0.30000000000000004 0.0
7.6000000000000005 0.30000000000000004 0.0
8.0 0.30000000000000004 0.0
8.4 0.30000000000000004 0.0
8.8 0.30000000000000004 0.0
9.200000000000001 0.30000000000000004 0.0
9.600000000000001 0.30000000000000004 0.0
10.0 0.30000000000000004 0.0
10.4 0.30000000000000004 0.0
10.8 0.30000000000000004 0.0
11.200000000000001 0.30000000000000004 0.0
11.600000000000001 0.30000000000000004 0.0
12.0 0.30000000000000004 0.0
12.4 0.30000000000000004 0.0
12.8 0.30000000000000004 0.0
13.200000000000001 0.30000000000000004 0.0
13.600000000000001 0.30000000000000004 0.0
14.0 0.30000000000000004 0.0
14.4 0.30000000000000004 0.0
14.8 0.30000000000000004 0.0
15.200000000000001 0.30000000000000004 0.0
15.600000000000001 0.30000000000000004 0.0
16.0 0.30000000000000004 0.0
0.0 0.4 0.0
0.4 0.4 0.0
0.8 0.4 0.0
1.2000000000000002 0.4 0.0
1.6 0.4 0.0
2.0 0.4 0.0
2.4000000000000004 0.4 0.0
2.8000000000000003 0.4 0.0
3.2 0.4 0.0
3.6 0.4 0.0
4.0 0.4 0.0
4.4 0.4 0.0
4.800000000000001 0.4 0.0
5.2 0.4 0.0
5.6000000000000005 0.4 0.0
6.0 0.4 0.0
6.4 0.4 0.0
6.800000000000001 0.4 0.0
7.2 0.4 0.0
7.6000000000000005 0.4 0.0
8.0 0.4 0.0
8.4 0.4 0.0
8.8 0.4 0.0
9.200000000000001 0.4 0.0
9.600000000000001 0.4 0.0
10.0 0.4 0.0
10.4 0.4 0.0
10.8 0.4 0.0
11.200000000000001 0.4 0.0
11.600000000000001 0.4 0.0
12.0 0.4 0.0
12.4 0.4 0.0
12.8 0.4 0.0
13.200000000000001 0.4 0.0
13.600000000000001 0.4 0.0
14.0 0.4 0.0
14.4 0.4 0.0
14.8 0.4 0.0
15.200000000000001 0.4 0.0
15.600000000000001 0.4 0.0
16.0 0.4 0.0
0.0 0.5 0.0
0.4 0.5 0.0
0.8 0.5 0.0
1.2000000000000002 0.5 0.0
1.6 0.5 0.0
2.0 0.5 0.0
2.4000000000000004 0.5 0.0
2.8000000000000003 0.5 0.0
3.2 0.5 0.0
3.6 0.5 0.0
4.0 0.5 0.0
4.4 0.5 0.0
4.800000000000001 0.5 0.0
5.2 0.5 0.0
5.6000000000000005 0.5 0.0
6.0 0.5 0.0
6.4 0.5 0.0
6.800000000000001 0.5 0.0
7.2 0.5 0.0
7.6000000000000005 0.5 0.0
8.0 0.5 0.0
8.4 0.5 0.0
8.8 0.5 0.0
9.200000000000001 0.5 0.0
9.600000000000001 0.5 0.0
10.0 0.5 0.0
10.4 0.5 0.0
10.8 0.5 0.0
11.200000000000001 0.5 0.0
11.600000000000001 0.5 0.0
12.0 0.5 0.0
12.4 0.5 0.0
12.8 0.5 0.0
13.200000000000001 0.5 0.0
13.600000000000001 0.5 0.0
14.0 0.5 0.0
14.4 0.5 0.0
14.8 0.5 0.0
15.200000000000001 0.5 0.0
15.600000000000001 0.5 0.0
16.0 0.5 0.0
0.0 0.6000000000000001 0.0
0.4 0.6000000000000001 0.0
0.8 0.6000000000000001 0.0
1.2000000000000002 0.6000000000000001 0.0
1.6 0.6000000000000001 0.0
2.0 0.6000000000000001 0.0
2.4000000000000004 0.6000000000000001 0.0
2.8000000000000003 0.6000000000000001 0.0
3.2 0.6000000000000001 0.0
3.6 0.6000000000000001 0.0
4.0 0.6000000000000001 0.0
4.4 0.6000000000000001 0.0
4.800000000000001 0.6000000000000001 0.0
5.2 0.6000000000000001 0.0
5.6000000000000005 0.6000000000000001 0.0
6.0 0.6000000000000001 0.0
6.4 0.6000000000000001 0.0
6.800000000000001 0.6000000000000001 0.0
7.2 0.6000000000000001 0.0
7.6000000000000005 0.6000000000000001 0.0
8.0 0.6000000000000001 0.0
8.4 0.6000000000000001 0.0
8.8 0.6000000000000001 0.0
9.200000000000001 0.6000000000000001 0.0
9.600000000000001 0.6000000000000001 0.0
10.0 0.6000000000000001 0.0
10.4 0.6000000000000001 0.0
10.8 0.6000000000000001 0.0
11.200000000000001 0.6000000000000001 0.0
11.600000000000001 0.6000000000000001 0.0
12.0 0.6000000000000001 0.0
12.4 0.6000000000000001 0.0
12.8 0.6000000000000001 0.0
13.200000000000001 0.6000000000000001 0.0
13.600000000000001 0.6000000000000001 0.0
14.0 0.6000000000000001 0.0
14.4 0.6000000000000001 0.0
14.8 0.6000000000000001 0.0
15.200000000000001 0.6000000000000001 0.0
15.600000000000001 0.6000000000000001 0.0
16.0 0.6000000000000001 0.0
0.0 0.7000000000000001 0.0
0.4 0.7000000000000001 0.0
0.8 0.7000000000000001 0.0
1.2000000000000002 0.7000000000000001 0.0
1.6 0.7000000000000001 0.0
2.0 0.7000000000000001 0.0
2.4000000000000004 0.7000000000000001 0.0
2.8000000000000003 0.7000000000000001 0.0
3.2 0.7000000000000001 0.0
3.6 0.7000000000000001 0.0
4.0 0.7000000000000001 0.0
4.4 0.7000000000000001 0.0
4.800000000000001 0.7000000000000001 0.0
5.2 0.7000000000000001 0.0
5.6000000000000005 0.7000000000000001 0.0
6.0 0.7000000000000001 0.0
6.4 0.7000000000000001 0.0
6.800000000000001 0.7000000000000001 0.0
7.2 0.7000000000000001 0.0
7.6000000000000005 0.7000000000000001 0.0
8.0 0.7000000000000001 0.0
8.4 0.7000000000000001 0.0
8.8 0.7000000000000001 0.0
9.200000000000001 0.7000000000000001 0.0
9.600000000000001 0.7000000000000001 0.0
10.0 0.7000000000000001 0.0
10.4 0.7000000000000001 0.0
10.8 0.7000000000000001 0.0
11.200000000000001 0.7000000000000001 0.0
11.600000000000001 0.7000000000000001 0.0
12.0 0.7000000000000001 0.0
12.4 0.7000000000000001 0.0
12.8 0.7000000000000001 0.0
13.200000000000001 0.7000000000000001 0.0
13.600000000000001 0.7000000000000001 0.0
14.0 0.7000000000000001 0.0
14.4 0.7000000000000001 0.0
14.8 0.7000000000000001 0.0
15.200000000000001 0.7000000000000001 0.0
15.600000000000001 0.7000000000000001 0.0
16.0 0.7000000000000001 0.0
0.0 0.8 0.0
0.4 0.8 0.0
0.8 0.8 0.0
1.2000000000000002 0.8 0.0
1.6 0.8 0.0
2.0 0.8 0.0
2.4000000000000004 0.8 0.0
2.8000000000000003 0.8 0.0
3.2 0.8 0.0
3.6 0.8 0.0
4.0 0.8 0.0
4.4 0.8 0.0
4.800000000000001 0.8 0.0
5.2 0.8 0.0
5.6000000000000005 0.8 0.0
6.0 0.8 0.0
6.4 0.8 0.0
6.800000000000001 0.8 0.0
7.2 0.8 0.0
7.6000000000000005 0.8 0.0
8.0 0.8 0.0
8.4 0.8 0.0
8.8 0.8 0.0
9.200000000000001 0.8 0.0
9.600000000000001 0.8 0.0
10.0 0.8 0.0
10.4 0.8 0.0
10.8 0.8 0.0
11.200000000000001 0.8 0.0
11.600000000000001 0.8 0.0
12.0 0.8 0.0
12.4 0.8 0.0
12.8 0.8 0.0
13.200000000000001 0.8 0.0
13.600000000000001 0.8 0.0
14.0 0.8 0.0
14.4 0.8 0.0
14.8 0.8 0.0
15.200000000000001 0.8 0.0
15.600000000000001 0.8 0.0
16.0 0.8 0.0
0.0 0.9 0.0
0.4 0.9 0.0
0.8 0.9 0.0
1.2000000000000002 0.9 0.0
1.6 0.9 0.0
2.0 0.9 0.0
2.4000000000000004 0.9 0.0
2.8000000000000003 0.9 0.0
3.2 0.9 0.0
3.6 0.9 0.0
4.0 0.9 0.0
4.4 0.9 0.0
4.800000000000001 0.9 0.0
5.2 0.9 0.0
5.6000000000000005 0.9 0.0
6.0 0.9 0.0
6.4 0.9 0.0
6.800000000000001 0.9 0.0
7.2 0.9 0.0
7.6000000000000005 0.9 0.0
8.0 0.9 0.0
8.4 0.9 0.0
8.8 0.9 0.0
9.200000000000001 0.9 0.0
9.600000000000001 0.9 0.0
10.0 0.9 0.0
10.4 0.9 0.0
10.8 0.9 0.0
11.200000000000001 0.9 0.0
11.600000000000001 0.9 0.0
12.0 0.9 0.0
12.4 0.9 0.0
12.8 0.9 0.0
13.200000000000001 0.9 0.0
13.600000000000001 0.9 0.0
14.0 0.9 0.0
14.4 0.9 0.0
14.8 0.9 0.0
15.200000000000001 0.9 0.0
15.600000000000001 0.9 0.0
16.0 0.9 0.0
0.0 1.0 0.0
0.4 1.0 0.0
0.8 1.0 0.0
1.2000000000000002 1.0 0.0
1.6 1.0 0.0
2.0 1.0 0.0
2.4000000000000004 1.0 0.0
2.8000000000000003 1.0 0.0
3.2 1.0 0.0
3.6 1.0 0.0
4.0 1.0 0.0
4.4 1.0 0.0
4.800000000000001 1.0 0.0
5.2 1.0 0.0
5.6000000000000005 1.0 0.0
6.0 1.0 0.0
6.4 1.0 0.0
6.800000000000001 1.0 0.0
7.2 1.0 0.0
7.6000000000000005 1.0 0.0
8.0 1.0 0.0
8.4 1.0 0.0
8.8 1.0 0.0
9.200000000000001 1.0 0.0
9.600000000000001 1.0 0.0
10.0 1.0 0.0
10.4 1.0 0.0
10.8 1.0 0.0
11.200000000000001 1.0 0.0
11.600000000000001 1.0 0.0
12.0 1.0 0.0
12.4 1.0 0.0
12.8 1.0 0.0
13.200000000000001 1.0 0.0
13.600000000000001 1.0 0.0
14.0 1.0 0.0
14.4 1.0 0.0
14.8 1.0 0.0
15.200000000000001 1.0 0.0
15.600000000000001 1.0 0.0
16.0 1.0 0.0
0.0 1.1 0.0
0.4 1.1 0.0
0.8 1.1 0.0
1.2000000000000002 1.1 0.0
1.6 1.1 0.0
2.0 1.1 0.0
2.4000000000000004 1.1 0.0
2.8000000000000003 1.1 0.0
3.2 1.1 0.0
3.6 1.1 0.0
4.0 1.1 0.0
4.4 1.1 0.0
4.800000000000001 1.1 0.0
5.2 1.1 0.0
5.6000000000000005 1.1 0.0
6.0 1.1 0.0
6.4 1.1 0.0
6.800000000000001 1.1 0.0
7.2 1.1 0.0
7.6000000000000005 1.1 0.0
8.0 1.1 0.0
8.4 1.1 0.0
8.8 1.1 0.0
9.200000000000001 1.1 0.0
9.600000000000001 1.1 0.0
10.0 1.1 0.0
10.4 1.1 0.0
10.8 1.1 0.0
11.200000000000001 1.1 0.0
11.600000000000001 1.1 0.0
12.0 1.1 0.0
12.4 1.1 0.0
12.8 1.1 0.0
13.200000000000001 1.1 0.0
13.600000000000001 1.1 0.0
14.0 1.1 0.0
14.4 1.1 0.0
14.8 1.1 0.0
15.200000000000001 1.1 0.0
15.600000000000001 1.1 0.0
16.0 1.1 0.0
0.0 1.2000000000000002 0.0
0.4 1.2000000000000002 0.0
0.8 1.2000000000000002 0.0
1.2000000000000002 1.2000000000000002 0.0
1.6 1.2000000000000002 0.0
2.0 1.2000000000000002 0.0
2.4000000000000004 1.2000000000000002 0.0
2.8000000000000003 1.2000000000000002 0.0
3.2 1.2000000000000002 0.0
3.6 1.2000000000000002 0.0
4.0 1.2000000000000002 0.0
4.4 1.2000000000000002 0.0
4.800000000000001 1.2000000000000002 0.0
5.2 1.2000000000000002 0.0
5.6000000000000005 1.2000000000000002 0.0
6.0 1.2000000000000002 0.0
6.4 1.2000000000000002 0.0
6.800000000000001 1.2000000000000002 0.0
7.2 1.2000000000000002 0.0
7.6000000000000005 1.2000000000000002 0.0
8.0 1.2000000000000002 0.0
8.4 1.2000000000000002 0.0
8.8 1.2000000000000002 0.0
9.200000000000001 1.2000000000000002 0.0
9.600000000000001 1.2000000000000002 0.0
10.0 1.2000000000000002 0.0
10.4 1.2000000000000002 0.0
10.8 1.2000000000000002 0.0
11.200000000000001 1.2000000000000002 0.0
11.600000000000001 1.2000000000000002 0.0
12.0 1.2000000000000002 0.0
12.4 1.2000000000000002 0.0
12.8 1.2000000000000002 0.0
13.200000000000001 1.2000000000000002 0.0
13.600000000000001 1.2000000000000002 0.0
14.0 1.2000000000000002 0.0
14.4 1.2000000000000002 0.0
14.8 1.2000000000000002 0.0
15.200000000000001 1.2000000000000002 0.0
15.600000000000001 1.2000000000000002 0.0
16.0 1.2000000000000002 0.0
0.0 1.3 0.0
0.4 1.3 0.0
0.8 1.3 0.0
1.2000000000000002 1.3 0.0
1.6 1.3 0.0
2.0 1.3 0.0
2.4000000000000004 1.3 0.0
2.8000000000000003 1.3 0.0
3.2 1.3 0.0
3.6 1.3 0.0
4.0 1.3 0.0
4.4 1.3 0.0
4.800000000000001 1.3 0.0
5.2 1.3 0.0
5.6000000000000005 1.3 0.0
6.0 1.3 0.0
6.4 1.3 0.0
6.800000000000001 1.3 0.0
7.2 1.3 0.0
7.6000000000000005 1.3 0.0
8.0 1.3 0.0
8.4 1.3 0.0
8.8 1.3 0.0
9.200000000000001 1.3 0.0
9.600000000000001 1.3 0.0
10.0 1.3 0.0
10.4 1.3 0.0
10.8 1.3 0.0
11.200000000000001 1.3 0.0
11.600000000000001 1.3 0.0
12.0 1.3 0.0
12.4 1.3 0.0
12.8 1.3 0.0
13.200000000000001 1.3 0.0
13.600000000000001 1.3 0.0
14.0 1.3 0.0
14.4 1.3 0.0
14.8 1.3 0.0
15.200000000000001 1.3 0.0
15.600000000000001 1.3 0.0
16.0 1.3 0.0
0.0 1.4000000000000001 0.0
0.4 1.4000000000000001 0.0
0.8 1.4000000000000001 0.0
1.2000000000000002 1.4000000000000001 0.0
1.6 1.4000000000000001 0.0
2.0 1.4000000000000001 0.0
2.4000000000000004 1.4000000000000001 0.0
2.8000000000000003 1.4000000000000001 0.0
3.2 1.4000000000000001 0.0
3.6 1.4000000000000001 0.0
4.0 1.4000000000000001 0.0
4.4 1.4000000000000001 0.0
4.800000000000001 1.4000000000000001 0.0
5.2 1.4000000000000001 0.0
5.6000000000000005 1.4000000000000001 0.0
6.0 1.4000000000000001 0.0
6.4 1.4000000000000001 0.0
6.800000000000001 1.4000000000000001 0.0
7.2 1.4000000000000001 0.0
7.6000000000000005 1.4000000000000001 0.0
8.0 1.4000000000000001 0.0
8.4 1.4000000000000001 0.0
8.8 1.4000000000000001 0.0
9.200000000000001 1.4000000000000001 0.0
9.600000000000001 1.4000000000000001 0.0
10.0 1.4000000000000001 0.0
10.4 1.4000000000000001 0.0
10.8 1.4000000000000001 0.0
11.200000000000001 1.4000000000000001 0.0
11.600000000000001 1.4000000000000001 0.0
12.0 1.4000000000000001 0.0
12.4 1.4000000000000001 0.0
12.8 1.4000000000000001 0.0
13.200000000000001 1.4000000000000001 0.0
13.600000000000001 1.4000000000000001 0.0
14.0 1.4000000000000001 0.0
14.4 1.4000000000000001 0.0
14.8 1.4000000000000001 0.0
15.200000000000001 1.4000000000000001 0.0
15.600000000000001 1.4000000000000001 0.0
16.0 1.4000000000000001 0.0
0.0 1.5 0.0
0.4 1.5 0.0
0.8 1.5 0.0
1.2000000000000002 1.5 0.0
1.6 1.5 0.0
2.0 1.5 0.0
2.4000000000000004 1.5 0.0
2.8000000000000003 1.5 0.0
3.2 1.5 0.0
3.6 1.5 0.0
4.0 1.5 0.0
4.4 1.5 0.0
4.800000000000001 1.5 0.0
5.2 1.5 0.0
5.6000000000000005 1.5 0.0
6.0 1.5 0.0
6.4 1.5 0.0
6.800000000000001 1.5 0.0
7.2 1.5 0.0
7.6000000000000005 1.5 0.0
8.0 1.5 0.0
8.4 1.5 0.0
8.8 1.5 0.0
9.200000000000001 1.5 0.0
9.600000000000001 1.5 0.0
10.0 1.5 0.0
10.4 1.5 0.0
10.8 1.5 0.0
11.200000000000001 1.5 0.0
11.600000000000001 1.5 0.0
12.0 1.5 0.0
12.4 1.5 0.0
12.8 1.5 0.0
13.200000000000001 1.5 0.0
13.600000000000001 1.5 0.0
14.0 1.5 0.0
14.4 1.5 0.0
14.8 1.5 0.0
15.200000000000001 1.5 0.0
15.600000000000001 1.5 0.0
16.0 1.5 0.0
0.0 1.6 0.0
0.4 1.6 0.0
0.8 1.6 0.0
1.2000000000000002 1.6 0.0
1.6 1.6 0.0
2.0 1.6 0.0
2.4000000000000004 1.6 0.0
2.8000000000000003 1.6 0.0
3.2 1.6 0.0
3.6 1.6 0.0
4.0 1.6 0.0
4.4 1.6 0.0
4.800000000000001 1.6 0.0
5.2 1.6 0.0
5.6000000000000005 1.6 0.0
6.0 1.6 0.0
6.4 1.6 0.0
6.800000000000001 1.6 0.0
7.2 1.6 0.0
7.6000000000000005 1.6 0.0
8.0 1.6 0.0
8.4 1.6 0.0
8.8 1.6 0.0
9.200000000000001 1.6 0.0
9.600000000000001 1.6 0.0
10.0 1.6 0.0
10.4 1.6 0.0
10.8 1.6 0.0
11.200000000000001 1.6 0.0
11.600000000000001 1.6 0.0
12.0 1.6 0.0
12.4 1.6 0.0
12.8 1.6 0.0
13.200000000000001 1.6 0.0
13.600000000000001 1.6 0.0
14.0 1.6 0.0
14.4 1.6 0.0
14.8 1.6 0.0
15.200000000000001 1.6 0.0
15.600000000000001 1.6 0.0
16.0 1.6 0.0
0.0 1.7000000000000002 0.0
0.4 1.7000000000000002 0.0
0.8 1.7000000000000002 0.0
1.2000000000000002 1.7000000000000002 0.0
1.6 1.7000000000000002 0.0
2.0 1.7000000000000002 0.0
2.4000000000000004 1.7000000000000002 0.0
2.8000000000000003 1.7000000000000002 0.0
3.2 1.7000000000000002 0.0
3.6 1.7000000000000002 0.0
4.0 1.7000000000000002 0.0
4.4 1.7000000000000002 0.0
4.800000000000001 1.7000000000000002 0.0
5.2 1.7000000000000002 0.0
5.6000000000000005 1.7000000000000002 0.0
6.0 1.7000000000000002 0.0
6.4 1.7000000000000002 0.0
6.800000000000001 1.7000000000000002 0.0
7.2 1.7000000000000002 0.0
7.6000000000000005 1.7000000000000002 0.0
8.0 1.7000000000000002 0.0
8.4 1.7000000000000002 0.0
8.8 1.7000000000000002 0.0
9.200000000000001 1.7000000000000002 0.0
9.600000000000001 1.7000000000000002 0.0
10.0 1.7000000000000002 0.0
10.4 1.7000000000000002 0.0
10.8 1.7000000000000002 0.0
11.200000000000001 1.7000000000000002 0.0
11.600000000000001 1.7000000000000002 0.0
12.0 1.7000000000000002 0.0
12.4 1.7000000000000002 0.0
12.8 1.7000000000000002 0.0
13.200000000000001 1.7000000000000002 0.0
13.600000000000001 1.7000000000000002 0.0
14.0 1.7000000000000002 0.0
14.4 1.7000000000000002 0.0
14.8 1.7000000000000002 0.0
15.200000000000001 1.7000000000000002 0.0
15.600000000000001 1.7000000000000002 0.0
16.0 1.7000000000000002 0.0
0.0 1.8 0.0
0.4 1.8 0.0
0.8 1.8 0.0
1.2000000000000002 1.8 0.0
1.6 1.8 0.0
2.0 1.8 0.0
2.4000000000000004 1.8 0.0
2.8000000000000003 1.8 0.0
3.2 1.8 0.0
3.6 1.8 0.0
4.0 1.8 0.0
4.4 1.8 0.0
4.800000000000001 1.8 0.0
5.2 1.8 0.0
5.6000000000000005 1.8 0.0
6.0 1.8 0.0
6.4 1.8 0.0
6.800000000000001 1.8 0.0
7.2 1.8 0.0
7.6000000000000005 1.8 0.0
8.0 1.8 0.0
8.4 1.8 0.0
8.8 1.8 0.0
9.200000000000001 1.8 0.0
9.600000000000001 1.8 0.0
10.0 1.8 0.0
10.4 1.8 0.0
10.8 1.8 0.0
11.200000000000001 1.8 0.0
11.600000000000001 1.8 0.0
12.0 1.8 0.0
12.4 1.8 0.0
12.8 1.8 0.0
13.200000000000001 1.8 0.0
13.600000000000001 1.8 0.0
14.0 1.8 0.0
14.4 1.8 0.0
14.8 1.8 0.0
15.200000000000001 1.8 0.0
15.600000000000001 1.8 0.0
16.0 1.8 0.0
0.0 1.9000000000000001 0.0
0.4 1.9000000000000001 0.0
0.8 1.9000000000000001 0.0
1.2000000000000002 1.9000000000000001 0.0
1.6 1.9000000000000001 0.0
2.0 1.9000000000000001 0.0
2.4000000000000004 1.9000000000000001 0.0
2.8000000000000003 1.9000000000000001 0.0
3.2 1.9000000000000001 0.0
3.6 1.9000000000000001 0.0
4.0 1.9000000000000001 0.0
4.4 1.9000000000000001 0.0
4.800000000000001 1.9000000000000001 0.0
5.2 1.9000000000000001 0.0
5.6000000000000005 1.9000000000000001 0.0
6.0 1.9000000000000001 0.0
6.4 1.9000000000000001 0.0
6.800000000000001 1.9000000000000001 0.0
7.2 1.9000000000000001 0.0
7.6000000000000005 1.9000000000000001 0.0
8.0 1.9000000000000001 0.0
8.4 1.9000000000000001 0.0
8.8 1.9000000000000001 0.0
9.200000000000001 1.9000000000000001 0.0
9.600000000000001 1.9000000000000001 0.0
10.0 1.9000000000000001 0.0
10.4 1.9000000000000001 0.0
10.8 1.9000000000000001 0.0
11.200000000000001 1.9000000000000001 0.0
11.600000000000001 1.9000000000000001 0.0
12.0 1.9000000000000001 0.0
12.4 1.9000000000000001 0.0
12.8 1.9000000000000001 0.0
13.200000000000001 1.9000000000000001 0.0
13.600000000000001 1.9000000000000001 0.0
14.0 1.9000000000000001 0.0
14.4 1.9000000000000001 0.0
14.8 1.9000000000000001 0.0
15.200000000000001 1.9000000000000001 0.0
15.600000000000001 1.9000000000000001 0.0
16.0 1.9000000000000001 0.0
0.0 2.0 0.0
0.4 2.0 0.0
0.8 2.0 0.0
1.2000000000000002 2.0 0.0
1.6 2.0 0.0
2.0 2.0 0.0
2.4000000000000004 2.0 0.0
2.8000000000000003 2.0 0.0
3.2 2.0 0.0
3.6 2.0 0.0
4.0 2.0 0.0
4.4 2.0 0.0
4.800000000000001 2.0 0.0
5.2 2.0 0.0
5.6000000000000005 2.0 0.0
6.0 2.0 0.0
6.4 2.0 0.0
6.800000000000001 2.0 0.0
7.2 2.0 0.0
7.6000000000000005 2.0 0.0
8.0 2.0 0.0
8.4 2.0 0.0
8.8 2.0 0.0
9.200000000000001 2.0 0.0
9.600000000000001 2.0 0.0
10.0 2.0 0.0
10.4 2.0 0.0
10.8 2.0 0.0
11.200000000000001 2.0 0.0
11.600000000000001 2.0 0.0
12.0 2.0 0.0
12.4 2.0 0.0
12.8 2.0 0.0
13.200000000000001 2.0 0.0
13.600000000000001 2.0 0.0
14.0 2.0 0.0
14.4 2.0 0.0
14.8 2.0 0.0
15.200000000000001 2.0 0.0
15.600000000000001 2.0 0.0
16.0 2.0 0.0
CELLS 800 4000
4 0 1 42 41
4 1 2 43 42
4 2 3 44 43
4 3 4 45 44
4 4 5 46 45
4 5 6 47 46
4 6 7 48 47
4 7 8 49 48
4 8 9 50 49
4 9 10 51 50
4 10 11 52 51
4 11 12 53 52
4 12 13 54 53
4 13 14 55 54
4 14 15 56 55
4 15 16 57 56
4 16 17 58 57
4 17 18 59 58
4 18 19 60 59
4 19 20 61 60
4 20 21 62 61
4 21 22 63 62
4 22 23 64 63
4 23 24 65 64
4 24 25 66 65
4 25 26 67 66
4 26 27 68 67
4 27 28 69 68
4 28 29 70 69
4 29 30 71 70
4 30 31 72 71
4 31 32 73 72
4 32 33 74 73
4 33 34 75 74
4 34 35 76 75
4 35 36 77 76
4 36 37 78 77
4 37 38 79 78
4 38 39 80 79
4 39 40 81 80
4 41 42 83 82
4 42 43 84 83
4 43 44 85 84
4 44 45 86 85
4 45 46 87 86
4 46 47 88 87
4 47 48 89 88
4 48 49 90 89
4 49 50 91 90
4 50 51 92 91
4 51 52 93 92
4 52 53 94 93
4 53 54 95 94
4 54 55 96 95
4 55 56 97 96
4 56 57 98 97
4 57 58 99 98
4 58 59 100 99
4 59 60 101 100
4 60 61 102 101
4 61 62 103 102
4 62 63 104 103
4 63 64 105 104
4 64 65 106 105
4 65 66 107 106
4 66 67 108 107
4 67 68 109 108
4 68 69 110 109
4 69 70 111 110
4 70 71 112 111
4 71 72 113 112
4 72 73 114 113
4 73 74 115 114
4 74 75 116 115
4 75 76 117 116
4 76 77 118 117
4 77 78 119 118
4 78 79 120 119
4 79 80 121 120
4 80 81 122 121
4 82 83 124 123
4 83 84 125 124
4 84 85 126 125
4 85 86 127 126
4 86 87 128 127
4 87 88 129 128
4 88 89 130 129
4 89 90 131 130
4 90 91 132 131
4 91 92 133 132
4 92 93 134 133
4 93 94 135 134
4 94 95 136 135
4 95 96 137 136
4 96 97 138 137
4 97 98 139 138
4 98 99 140 139
4 99 100 141 140
4 100 101 142 141
4 101 102 143 142
4 102 103 144 143
4 103 104 145 144
4 104 105 146 145
4 105 106 147 146
4 106 107 148 147
4 107 108 149 148
4 108 109 150 149
4 109 110 151 150
4 110 111 152 151
4 111 112 153 152
4 112 113 154 153
4 113 114 155 154
4 114 115 156 155
4 115 116 157 156
4 116 117 158 157
4 117 118 159 158
4 118 119 160 159
4 119 120 161 160
4 120 121 162 161
4 121 122 163 162
4 123 124 165 164
4 124 125 166 165
4 125 126 167 166
4 126 127 168 167
4 127 128 169 168
4 128 129 170 169
4 129 130 171 170
4 130 131 172 171
4 131 132 173 172
4 132 133 174 173
4 133 134 175 174
4 134 135 176 175
4 135 136 177 176
4 136 137 178 177
4 137 138 179 178
4 138 139 180 179
4 139 140 181 180
4 140 141 182 181
4 141 142 183 182
4 142 143 184 183
4 143 144 185 184
4 144 145 186 185
4 145 146 187 186
4 146 147 188 187
4 147 148 189 188
4 148 149 190 189
4 149 150 191 190
4 150 151 192 191
4 151 152 193 192
4 152 153 194 193
4 153 154 195 194
4 154 155 196 195
4 155 156 197 196
4 156 157 198 197
4 157 158 199 198
4 158 159 200 199
4 159 160 201 200
4 160 161 202 201
4 161 162 203 202
4 162 163 204 203
4 164 165 206 205
4 165 166 207 206
4 166 167 208 207
4 167 168 209 208
4 168 169 210 209
4 169 170 211 210
4 170 171 212 211
4 171 172 213 212
4 172 173 214 213
4 173 174 215 214
4 174 175 216 215
4 175 176 217 216
4 176 177 218 217
4 177 178 219 218
4 178 179 220 219
4 179 180 221 220
4 180 181 222 221
4 181 182 223 222
4 182 183 224 223
4 183 184 225 224
4 184 185 226 225
4 185 186 227 226
4 186 187 228 227
4 187 188 229 228
4 188 189 230 229
4 189 190 231 230
4 190 191 232 231
4 191 192 233 232
4 192 193 234 233
4 193 194 235 234
4 194 195 236 235
4 195 196 237 236
4 196 197 238 237
4 197 198 239 238
4 198 199 240 239
4 199 200 241 240
4 200 201 242 241
4 201 202 243 242
4 202 203 244 243
4 203 204 245 244
4 205 206 247 246
4 206 207 248 247
4 207 208 249 248
4 208 209 250 249
4 209 210 251 250
4 210 211 252 251
4 211 212 253 252
4 212 213 254 253
4 213 214 255 254
4 214 215 256 255
4 215 216 257 256
4 216 217 258 257
4 217 218 259 258
4 218 219 260 259
4 219 220 261 260
4 220 221 262 261
4 221 222 263 262
4 222 223 264 263
4 223 224 265 264
4 224 225 266 265
4 225 226 267 266
4 226 227 268 267
4 227 228 269 268
4 228 229 270 269
4 229 230 271 270
4 230 231 272 271
4 231 232 273 272
4 232 233 274 273
4 233 234 275 274
4 234 235 276 275
4 235 236 277 276
4 236 237 278 277
4 237 238 279 278
4 238 239 280 279
4 239 240 281 280
4 240 241 282 281
4 241 242 283 282
4 242 243 284 283
4 243 244 285 284
4 244 245 286 285
4 246 247 288 287
4 247 248 289 288
4 248 249 290 289
4 249 250 291 290
4 250 251 292 291
4 251 252 293 292
4 252 253 294 293
4 253 254 295 294
4 254 255 296 295
4 255 256 297 296
4 256 257 298 297
4 257 258 299 298
4 258 259 300 299
4 259 260 301 300
4 260 261 302 301
4 261 262 303 302
4 262 263 304 303
4 263 264 305 304
4 264 265 306 305
4 265 266 307 306
4 266 267 308 307
4 267 268 309 308
4 268 269 310 309
4 269 270 311 310
4 270 271 312 311
4 271 272 313 312
4 272 273 314 313
4 273 274 315 314
4 274 275 316 315
4 275 276 317 316
4 276 277 318 317
4 277 278 319 318
4 278 279 320 319
4 279 280 321 320
4 280 281 322 321
4 281 282 323 322
4 282 283 324 323
4 283 284 325 324
4 284 285 326 325
4 285 286 327 326
4 287 288 329 328
4 288 289 330 329
4 289 290 331 330
4 290 291 332 331
4 291 292 333 332
4 292 293 334 333
4 293 294 335 334
4 294 295 336 335
4 295 296 337 336
4 296 297 338 337
4 297 298 339 338
4 298 299 340 339
4 299 300 341 340
4 300 301 342 341
4 301 302 343 342
4 302 303 344 343
4 303 304 345 344
4 304 305 346 345
4 305 306 347 346
4 306 307 348 347
4 307 308 349 348
4 308 309 350 349
4 309 310 351 350
4 310 311 352 351
4 311 312 353 352
4 312 313 354 353
4 313 314 355 354
4 314 315 356 355
4 315 316 357 356
4 316 317 358 357
4 317 318 359 358
4 318 319 360 359
4 319 320 361 360
4 320 321 362 361
4 321 322 363 362
4 322 323 364 363
4 323 324 365 364
4 324 325 366 365
4 325 326 367 366
4 326 327 368 367
4 328 329 370 369
4 329 330 371 370
4 330 331 372 371
4 331 332 373 372
4 332 333 374 373
4 333 334 375 374
4 334 335 376 375
4 335 336 377 376
4 336 337 378 377
4 337 338 379 378
4 338 339 380 379
4 339 340 381 380
4 340 341 382 381
4 341 342 383 382
4 342 343 384 383
4 343 344 385 384
4 344 345 386 385
4 345 346 387 386
4 346 347 388 387
4 347 348 389 388
4 348 349 390 389
4 349 350 391 390
4 350 351 392 391
4 351 352 393 392
4 352 353 394 393
4 353 354 395 394
4 354 355 396 395
4 355 356 397 396
4 356 357 398 397
4 357 358 399 398
4 358 359 400 399
4 359 360 401 400
4 360 361 402 401
4 361 362 403 402
4 362 363 404 403
4 363 364 405 404
4 364 365 406 405
4 365 366 407 406
4 366 367 408 407
4 367 368 409 408
4 369 370 411 410
4 370 371 412 411
4 371 372 413 412
4 372 373 414 413
4 373 374 415 414
4 374 375 416 415
4 375 376 417 416
4 376 377 418 417
4 377 378 419 418
4 378 379 420 419
4 379 380 421 420
4 380 381 422 421
4 381 382 423 422
4 382 383 424 423
4 383 384 425 424
4 384 385 426 425
4 385 386 427 426
4 386 387 428 427
4 387 388 429 428
4 388 389 430 429
4 389 390 431 430
4 390 391 432 431
4 391 392 433 432
4 392 393 434 433
4 393 394 435 434
4 394 395 436 435
4 395 396 437 436
4 396 397 438 437
4 397 398 439 438
4 398 399 440 439
4 399 400 441 440
4 400 401 442 441
4 401 402 443 442
4 402 403 444 443
4 403 404 445 444
4 404 405 446 445
4 405 406 447 446
4 406 407 448 447
4 407 408 449 448
4 408 409 450 449
4 410 411 452 451
4 411 412 453 452
4 412 413 454 453
4 413 414 455 454
4 414 415 456 455
4 415 416 457 456
4 416 417 458 457
4 417 418 459 458
4 418 419 460 459
4 419 420 461 460
4 420 421 462 461
4 421 422 463 462
4 422 423 464 463
4 423 424 465 464
4 424 425 466 465
4 425 426 467 466
4 426 427 468 467
4 427 428 469 468
4 428 429 470 469
4 429 430 471 470
4 430 431 472 471
4 431 432 473 472
4 432 433 474 473
4 433 434 475 474
4 434 435 476 475
4 435 436 477 476
4 436 437 478 477
4 437 438 479 478
4 438 439 480 479
4 439 440 481 480
4 440 441 482 481
4 441 442 483 482
4 442 443 484 483
4 443 444 485 484
4 444 445 486 485
4 445 446 487 486
4 446 447 488 487
4 447 448 489 488
4 448 449 490 489
4 449 450 491 490
4 451 452 493 492
4 452 453 494 493
4 453 454 495 494
4 454 455 496 495
4 455 456 497 496
4 456 457 498 497
4 457 458 499 498
4 458 459 500 499
4 459 460 501 500
4 460 461 502 501
4 461 462 503 502
4 462 463 504 503
4 463 464 505 504
4 464 465 506 505
4 465 466 507 506
4 466 467 508 507
4 467 468 509 508
4 468 469 510 509
4 469 470 511 510
4 470 471 512 511
4 471 472 513 512
4 472 473 514 513
4 473 474 515 514
4 474 475 516 515
4 475 476 517 516
4 476 477 518 517
4 477 478 519 518
4 478 479 520 519
4 479 480 521 520
4 480 481 522 521
4 481 482 523 522
4 482 483 524 523
4 483 484 525 524
4 484 485 526 525
4 485 486 527 526
4 486 487 528 527
4 487 488 529 528
4 488 489 530 529
4 489 490 531 530
4 490 491 532 531
4 492 493 534 533
4 493 494 535 534
4 494 495 536 535
4 495 496 537 536
4 496 497 538 537
4 497 498 539 538
4 498 499 540 539
4 499 500 541 540
4 500 501 542 541
4 501 502 543 542
4 502 503 544 543
4 503 504 545 544
4 504 505 546 545
4 505 506 547 546
4 506 507 548 547
4 507 508 549 548
4 508 509 550 549
4 509 510 551 550
4 510 511 552 551
4 511 512 553 552
4 512 513 554 553
4 513 514 555 554
4 514 515 556 555
4 515 516 557 556
4 516 517 558 557
4 517 518 559 558
4 518 519 560 559
4 519 520 561 560
4 520 521 562 561
4 521 522 563 562
4 522 523 564 563
4 523 524 565 564
4 524 525 566 565
4 525 526 567 566
4 526 527 568 567
4 527 528 569 568
4 528 529 570 569
4 529 530 571 570
4 530 531 572 571
4 531 532 573 572
4 533 534 575 574
4 534 535 576 575
4 535 536 577 576
4 536 537 578 577
4 537 538 579 578
4 538 539 580 579
4 539 540 581 580
4 540 541 582 581
4 541 542 583 582
4 542 543 584 583
4 543 544 585 584
4 544 545 586 585
4 545 546 587 586
4 546 547 588 587
4 547 548 589 588
4 548 549 590 589
4 549 550 591 590
4 550 551 592 591
4 551 552 593 592
4 552 553 594 593
4 553 554 595 594
4 554 555 596 595
4 555 556 597 596
4 556 557 598 597
4 557 558 599 598
4 558 559 600 599
4 559 560 601 600
4 560 561 602 601
4 561 562 603 602
4 562 563 604 603
4 563 564 605 604
4 564 565 606 605
4 565 566 607 606
4 566 567 608 607
4 567 568 609 608
4 568 569 610 609
4 569 570 611 610
4 570 571 612 611
4 571 572 613 612
4 572 573 614 613
4 574 575 616 615
4 575 576 617 616
4 576 577 618 617
4 577 578 619 618
4 578 579 620 619
4 579 580 621 620
4 580 581 622 621
4 581 582 623 622
4 582 583 624 623
4 583 584 625 624
4 584 585 626 625
4 585 586 627 626
4 586 587 628 627
4 587 588 629 628
4 588 589 630 629
4 589 590 631 630
4 590 591 632 631
4 591 592 633 632
4 592 593 634 633
4 593 594 635 634
4 594 595 636 635
4 595 596 637 636
4 596 597 638 637
4 597 598 639 638
4 598 599 640 639
4 599 600 641 640
4 600 601 642 641
4 601 602 643 642
4 602 603 644 643
4 603 604 645 644
4 604 605 646 645
4 605 606 647 646
4 606 607 648 647
4 607 608 649 648
4 608 609 650 649
4 609 610 651 650
4 610 611 652 651
4 611 612 653 652
4 612 613 654 653
4 613 614 655 654
4 615 616 657 656
4 616 617 658 657
4 617 618 659 658
4 618 619 660 659
4 619 620 661 660
4 620 621 662 661
4 621 622 663 662
4 622 623 664 663
4 623 624 665 664
4 624 625 666 665
4 625 626 667 666
4 626 627 668 667
4 627 628 669 668
4 628 629 670 669
4 629 630 671 670
4 630 631 672 671
4 631 632 673 672
4 632 633 674 673
4 633 634 675 674
4 634 635 676 675
4 635 636 677 676
4 636 637 678 677
4 637 638 679 678
4 638 639 680 679
4 639 640 681 680
4 640 641 682 681
4 641 642 683 682
4 642 643 684 683
4 643 644 685 684
4 644 645 686 685
4 645 646 687 686
4 646 647 688 687
4 647 648 689 688
4 648 649 690 689
4 649 650 691 690
4 650 651 692 691
4 651 652 693 692
4 652 653 694 693
4 653 654 695 694
4 654 655 696 695
4 656 657 698 697
4 657 658 699 698
4 658 659 700 699
4 659 660 701 700
4 660 661 702 701
4 661 662 703 702
4 662 663 704 703
4 663 664 705 704
4 664 665 706 705
4 665 666 707 706
4 666 667 708 707
4 667 668 709 708
4 668 669 710 709
4 669 670 711 710
4 670 671 712 711
4 671 672 713 712
4 672 673 714 713
4 673 674 715 714
4 674 675 716 715
4 675 676 717 716
4 676 677 718 717
4 677 678 719 718
4 678 679 720 719
4 679 680 721 720
4 680 681 722 721
4 681 682 723 722
4 682 683 724 723
4 683 684 725 724
4 684 685 726 725
4 685 686 727 726
4 686 687 728 727
4 687 688 729 728
4 688 689 730 729
4 689 690 731 730
4 690 691 732 731
4 691 692 733 732
4 692 693 734 733
4 693 694 735 734
4 694 695 736 735
4 695 696 737 736
4 697 698 739 738
4 698 699 740 739
4 699 700 741 740
4 700 701 742 741
4 701 702 743 742
4 702 703 744 743
4 703 704 745 744
4 704 705 746 745
4 705 706 747 746
4 706 707 748 747
4 707 708 749 748
4 708 709 750 749
4 709 710 751 750
4 710 711 752 751
4 711 712 753 752
4 712 713 754 753
4 713 714 755 754
4 714 715 756 755
4 715 716 757 756
4 716 717 758 757
4 717 718 759 758
4 718 719 760 759
4 719 720 761 760
4 720 721 762 761
4 721 722 763 762
4 722 723 764 763
4 723 724 765 764
4 724 725 766 765
4 725 726 767 766
4 726 727 768 767
4 727 728 769 768
4 728 729 770 769
4 729 730 771 770
4 730 731 772 771
4 731 732 773 772
4 732 733 774 773
4 733 734 775 774
4 734 735 776 775
4 735 736 777 776
4 736 737 778 777
4 738 739 780 779
4 739 740 781 780
4 740 741 782 781
4 741 742 783 782
4 742 743 784 783
4 743 744 785 784
4 744 745 786 785
4 745 746 787 786
4 746 747 788 787
4 747 748 789 788
4 748 749 790 789
4 749 750 791 790
4 750 751 792 791
4 751 752 793 792
4 752 753 794 793
4 753 754 795 794
4 754 755 796 795
4 755 756 797 796
4 756 757 798 797
4 757 758 799 798
4 758 759 800 799
4 759 760 801 800
4 760 761 802 801
4 761 762 803 802
4 762 763 804 803
4 763 764 805 804
4 764 765 806 805
4 765 766 807 806
4 766 767 808 807
4 767 768 809 808
4 768 769 810 809
4 769 770 811 810
4 770 771 812 811
4 771 772 813 812
4 772 773 814 813
4 773 774 815 814
4 774 775 816 815
4 775 776 817 816
4 776 777 818 817
4 777 778 819 818
4 779 780 821 820
4 780 781 822 821
4 781 782 823 822
4 782 783 824 823
4 783 784 825 824
4 784 785 826 825
4 785 786 827 826
4 786 787 828 827
4 787 788 829 828
4 788 789 830 829
4 789 790 831 830
4 790 791 832 831
4 791 792 833 832
4 792 793 834 833
4 793 794 835 834
4 794 795 836 835
4 795 796 837 836
4 796 797 838 837
4 797 798 839 838
4 798 799 840 839
4 799 800 841 840
4 800 801 842 841
4 801 802 843 842
4 802 803 844 843
4 803 804 845 844
4 804 805 846 845
4 805 806 847 846
4 806 807 848 847
4 807 808 849 848
4 808 809 850 849
4 809 810 851 850
4 810 811 852 851
4 811 812 853 852
4 812 813 854 853
4 813 814 855 854
4 814 815 856 855
4 815 816 857 856
4 816 817 858 857
4 817 818 859 858
4 818 819 860 859
CELL_TYPES 800
9
9
9
9
9
9
9
9
9
9
9
9
9
9
9
9
9
9
9
9
9
9
9
9
9
9
9
9
9
9
9
9
9
9
9
9
9
9
9
9
9
9
9
9
9
9
9
9
9
9
9
9
9
9
9
9
9
9
9
9
9
9
9
9
9
9
9
9
9
9
9
9
9
9
9
9
9
9
9
9
9
9
9
9
9
9
9
9
9
9
9
9
9
9
9
9
9
9
9
9
9
9
9
9
9
9
9
9
9
9
9
9
9
9
9
9
9
9
9
9
9
9
9
9
9
9
9
9
9
9
9
9
9
9
9
9
9
9
9
9
9
9
9
9
9
9
9
9
9
9
9
9
9
9
9
9
9
9
9
9
9
9
9
9
9
9
9
9
9
9
9
9
9
9
9
9
9
9
9
9
9
9
9
9
9
9
9
9
9
9
9
9
9
9
9
9
9
9
9
9
9
9
9
9
9
9
9
9
9
9
9
9
9
9
9
9
9
9
9
9
9
9
9
9
9
9
9
9
9
9
9
9
9
9
9
9
9
9
9
9
9
9
9
9
9
9
9
9
9
9
9
9
9
9
9
9
9
9
9
9
9
9
9
9
9
9
9
9
9
9
9
9
9
9
9
9
9
9
9
9
9
9
9
9
9
9
9
9
9
9
9
9
9
9
9
9
9
9
9
9
9
9
9
9
9
9
9
9
9
9
9
9
9
9
9
9
9
9
9
9
9
9
9
9
9
9
9
9
9
9
9
9
9
9
9
9
9
9
9
9
9
9
9
9
9
9
9
9
9
9
9
9
9
9
9
9
9
9
9
9
9
9
9
9
9
9
9
9
9
9
9
9
9
9
9
9
9
9
9
9
9
9
9
9
9
9
9
9
9
9
9
9
9
9
9
9
9
9
9
9
9
9
9
9
9
9
9
9
9
9
9
9
9
9
9
9
9
9
9
9
9
9
9
9
9
9
9
9
9
9
9
9
9
9
9
9
9
9
9
9
9
9
9
9
9
9
9
9
9
9
9
9
9
9
9
9
9
9
9
9
9
9
9
9
9
9
9
9
9
9
9
9
9
9
9
9
9
9
9
9
9
9
9
9
9
9
9
9
9
9
9
9
9
9
9
9
9
9
9
9
9
9
9
9
9
9
9
9
9
9
9
9
9
9
9
9
9
9
9
9
9
9
9
9
9
9
9
9
9
9
9
9
9
9
9
9
9
9
9
9
9
9
9
9
9
9
9
9
9
9
9
9
9
9
9
9
9
9
9
9
9
9
9
9
9
9
9
9
9
9
9
9
9
9
9
9
9
9
9
9
9
9
9
9
9
9
9
9
9
9
9
9
9
9
9
9
9
9
9
9
9
9
9
9
9
9
9
9
9
9
9
9
9
9
9
9
9
9
9
9
9
9
9
9
9
9
9
9
9
9
9
9
9
9
9
9
9
9
9
9
9
9
9
9
9
9
9
9
9
9
9
9
9
9
9
9
9
9
9
9
9
9
9
9
9
9
9
9
9
9
9
9
9
9
9
9
9
9
9
9
9
9
9
9
9
9
9
9
9
9
9
9
9
9
9
9
9
9
9
9
9
9
9
9
9
9
9
9
9
9
9
9
9
9
9
9
9
9
9
9
9
9
9
9
9
9
9
9
9
9
9
9
9
9
9
9
9
9
9
9
9
9
9
9
9
9
9
9
9
9
9
9
9
9
9
9
9
9
9
9
9
9
9
9
9
9
9
9
9
9
9
9
9
9
9
9
9
9
9
9
9
9
9
9
9
9
9
9
9
9
9
9
9
9
9
9
9
9
9
9
POINT_DATA 861
SCALARS Disp float 2
LOOKUP_TABLE default
0.0 0.0
0.019977364237029192 -0.3651012738730099
0.0355829433029838 -0.6735986083320261
0.048100724169000734 -0.9768005648749173
0.06240179273725756 -1.274170990105462
0.0796013615338725 -1.565577652885725
0.10024785808575444 -1.8496280319590068
0.12456138733776254 -2.124817613615755
0.15261400086347413 -2.3895917003819425
0.18442239812446543 -2.642414709555337
0.21998408181548043 -2.8817688408445976
0.2592932946912487 -3.106150212521118
0.302346493620219 -3.314064191230334
0.3491476007310743 -3.5040233088351873
0.3997192796481694 -3.6745423229957788
0.45412359331206287 -3.824117792870208
0.5124827933233127 -3.95116979161191
0.5749587641948127 -4.053924540774195
0.6416017869008421 -4.130262835186414
0.7119781994671132 -4.177700783152163
0.7846967712267555 -4.193872220299204
0.8574153429863992 -4.177700783152163
0.9277917555526703 -4.130262835186413
0.9944347782586989 -4.053924540774192
1.0569107491301983 -3.951169791611909
1.1152699491414486 -3.824117792870207
1.169674262805342 -3.674542322995776
1.220245941722437 -3.504023308835184
1.267047048833292 -3.3140641912303312
1.3101002477622625 -3.1061502125211162
1.3494094606380307 -2.8817688408445967
1.384971144329046 -2.642414709555336
1.416779541590037 -2.389591700381941
1.4448321551157488 -2.1248176136157526
1.4691456843677566 -1.8496280319590044
1.4897921809196388 -1.5655776528857255
1.5069917497162537 -1.2741709901054616
1.5212928182845102 -0.9768005648749177
1.533810599150527 -0.6735986083320253
1.549416178216482 -0.365101273873009
1.569393542453511 0.0
0.09044051686560814 -0.012406329949676831
0.10288046557505175 -0.3641341575346719
0.11149076016031825 -0.6753504209206408
0.12308967235461744 -0.978021925433699
0.13580856050643803 -1.275780161786709
0.15133732456295962 -1.567494395297712
0.16994484169020274 -1.8519159558823535
0.19184432745128727 -2.1274824221161053
0.2170995167712668 -2.3926384703558403
0.2457300024858548 -2.6458435581857183
0.2777364815159441 -2.8855793858134007
0.3131156278071589 -3.110341966790453
0.3518656270381639 -3.3186371050221797
0.39399113237313627 -3.508978452954141
0.4395123345446766 -3.679883396688259
0.4884796964547608 -3.829853327910819
0.540984687591353 -3.957313936710799
0.5971307282670729 -4.06049010269179
0.6568947680029036 -4.137236283165593
0.7198246301900273 -4.1849959654911135
0.7846967712267556 -4.201294983803265
0.8495689122634847 -4.184995965491114
0.9124987744506082 -4.13723628316559
0.9722628141864387 -4.060490102691788
1.0284088548621584 -3.9573139367107983
1.0809138459987504 -3.829853327910818
1.1298812079088347 -3.6798833966882567
1.175402410080375 -3.508978452954138
1.217527915415347 -3.318637105022177
1.2562779146463523 -3.1103419667904513
1.291657060937567 -2.8855793858134002
1.3236635399676566 -2.645843558185717
1.3522940256822444 -2.392638470355839
1.3775492150022237 -2.1274824221161035
1.3994487007633085 -1.8519159558823513
1.4180562178905516 -1.5674943952977125
1.4335849819470732 -1.2757801617867084
1.4463038700988937 -0.9780219254336994
1.457902782293193 -0.6753504209206402
1.4665130768784593 -0.36413415753467093
1.478953025587903 -0.012406329949676897
0.17472295444389832 -0.023063028725395274
0.18364559087771554 -0.36342487682928143
0.18827960446215067 -0.6763156449535442
0.19756645737983183 -0.9792109558184374
0.20884470865958743 -1.2771733032349886
0.2225872333519489 -1.5692158329342585
0.23914169730939833 -1.8539616213935026
0.2586162960256896 -2.1298679298947194
0.2810723734726871 -2.395364959601114
0.3065250817152208 -2.648911790130049
0.3349770020977263 -2.8889889953812125
0.3664264669390084 -3.114092661759506
0.4008727888152582 -3.3227288567558313
0.43832003900474437 -3.5134120196910295
0.4787835077927032 -3.6846613797766166
0.5222995360980444 -3.8349818220329563
0.5689312212055997 -3.962803313019127
0.6187423425453353 -4.0663500715258705
0.6716848121797029 -4.143456439207823
0.7273534435019535 -4.19150594765317
0.7846967712267557 -4.207924250545465
0.8420400989515582 -4.191505947653171
0.8977087302738086 -4.143456439207821
0.9506511999081763 -4.06635007152587
1.0004623212479118 -3.9628033130191263
1.0470940063554668 -3.8349818220329555
1.090610034660808 -3.6846613797766143
1.131073503448767 -3.513412019691027
1.168520753638253 -3.32272885675583
1.202967075514503 -3.114092661759505
1.234416540355785 -2.8889889953812116
1.2628684607382905 -2.648911790130048
1.288321168980824 -2.395364959601112
1.3107772464278218 -2.129867929894718
1.330251845144113 -1.8539616213935006
1.346806309101562 -1.569215832934259
1.3605488337939238 -1.2771733032349881
1.3718270850736793 -0.9792109558184381
1.3811139379913606 -0.6763156449535436
1.3857479515757956 -0.36342487682928043
1.3946705880096126 -0.02306302872539539
0.25536680876930695 -0.032171233130681584
0.2624543836013756 -0.36321632737263504
0.2649115636495305 -0.6767430794347618
0.27182378195515755 -0.9801933759657262
0.2814675737507839 -1.2783856096688297
0.2934230643943359 -1.5707217533165279
0.307891335400071 -1.85576597253089
0.3249361210740986 -2.1319724545345387
0.3445900199060592 -2.397771255693048
0.3668648889007752 -2.6516194344585715
0.3917625292081002 -2.8919977695187917
0.41928247605468194 -3.1174022974362576
0.4494245458784833 -3.3263392168741954
0.4821912338407204 -3.5173232409704234
0.5175913233782973 -3.688874518665542
0.5556458927440189 -3.83950038690337
0.5963931871451505 -3.9676354398831397
0.6398743755121498 -4.071508031644163
0.6860552221942402 -4.148943802578869
0.7346241073066735 -4.197276860925679
0.7846967712267557 -4.213820585641793
0.8347694351468379 -4.197276860925679
0.8833383202592711 -4.148943802578868
0.9295191669413619 -4.0715080316441625
0.9730003553083608 -3.967635439883139
1.0137476497094922 -3.839500386903369
1.051802219075214 -3.6888745186655396
1.0872023086127909 -3.5173232409704207
1.1199689965750277 -3.3263392168741936
1.1501110663988294 -3.1174022974362563
1.1776310132454109 -2.8919977695187904
1.2025286535527362 -2.6516194344585706
1.2248035225474518 -2.3977712556930464
1.2444574213794126 -2.1319724545345378
1.2615022070534403 -1.8557659725308877
1.275970478059175 -1.5707217533165283
1.2879259687027271 -1.2783856096688293
1.2975697604983536 -0.980193375965727
1.3044819788039808 -0.676743079434761
1.3069391588521355 -0.36321632737263404
1.314026733684204 -0.03217123313068171
0.3336857098730568 -0.03992892928572558
0.3396677779559009 -0.36348287248108474
0.34096576475283574 -0.6768629543162304
0.34583716434880746 -0.9809193815951649
0.3537363496940086 -1.279406433791646
0.36388441961587686 -1.572011154932511
0.3762532394017116 -1.8573252661298962
0.39086028064830686 -2.1337957992066983
0.4077101636559733 -2.3998570261524135
0.4268065489751348 -2.6539665511117314
0.4481499860718329 -2.8946057379384964
0.47174037687957493 -3.1202708529363443
0.49757762110593845 -3.3294679822691227
0.5256619596071944 -3.520711534717384
0.5559948315341579 -3.692521598986122
0.5885819366044895 -3.843407224174219
0.6234403699836033 -3.971809341003212
0.66060260690724 -4.075968400770779
0.7000781196059076 -4.153716558445325
0.7416833427255526 -4.202347183864818
0.7846967712267554 -4.219034465863749
0.8277101997279586 -4.202347183864817
0.8693154228476038 -4.153716558445324
0.9087909355462713 -4.075968400770777
0.9459531724699082 -3.9718093410032105
0.9808116058490214 -3.8434072241742183
1.0133987109193534 -3.6925215989861204
1.0437315828463167 -3.520711534717381
1.0718159213475729 -3.3294679822691213
1.0976531655739363 -3.120270852936343
1.1212435563816785 -2.8946057379384955
1.1425869934783763 -2.6539665511117305
1.1616833787975378 -2.399857026152412
1.1785332618052042 -2.133795799206697
1.1931403030517995 -1.8573252661298942
1.2055091228376342 -1.5720111549325115
1.2156571927595026 -1.2794064337916458
1.2235563781047036 -0.9809193815951658
1.2284277777006753 -0.6768629543162298
1.22972576449761 -0.36348287248108385
1.2357078325804545 -0.03992892928572572
0.41043427833013535 -0.046518170940895866
0.41563266872819876 -0.3641151484410028
0.4163183467066396 -0.676834452497214
0.4195395554385561 -0.9814014788326726
0.4256985604244932 -1.280223476154464
0.43401846150535867 -1.5730835507556473
0.4442822266078441 -1.85863777155353
0.4564460995499227 -2.1353373279897445
0.4704899871744347 -2.401622130490288
0.4864072404317307 -2.6559530921928873
0.504196280632791 -2.8968129087625845
0.5238569497172748 -3.122698288029048
0.5453888566855779 -3.3321150020169563
0.5687896785722141 -3.5235765376611217
0.5940533582853111 -3.6956019573904864
0.6211708506751605 -3.8467015030882665
0.6501413137699834 -3.975325058445326
0.6809984550407993 -4.079735397426788
0.7138169666917481 -4.1577895746410105
0.7485690836438217 -4.2067487889687465
0.7846967712267554 -4.223609300712223
0.8208244588096896 -4.206748788968746
0.8555765757617633 -4.1577895746410105
0.8883950874127118 -4.079735397426787
0.9192522286835278 -3.975325058445325
0.9482226917783505 -3.8467015030882656
0.9753401841682001 -3.695601957390485
1.000603863881297 -3.52357653766112
1.0240046857679335 -3.332115002016955
1.0455365927362363 -3.122698288029046
1.0651972618207204 -2.896812908762584
1.0829863020217803 -2.6559530921928864
1.0989035552790765 -2.4016221304902867
1.1129474429035886 -2.135337327989743
1.125111315845667 -1.858637771553528
1.1353750809481524 -1.573083550755648
1.1436949820290179 -1.2802234761544637
1.1498539870149551 -0.9814014788326734
1.1530751957468715 -0.6768344524972132
1.1537608737253122 -0.36411514844100185
1.158959264123376 -0.046518170940896046
0.4860830868974502 -0.052097257125429376
0.4906393670036275 -0.3649917594339516
0.49098609935271614 -0.6767523873236209
0.4928921799943143 -0.9816753134934161
0.4973872207334025 -1.280833775077408
0.5038755116452126 -1.573938063992971
0.5120321833372393 -1.8597030932295333
0.5217504501143807 -2.1365965453181652
0.5329866375120419 -2.403066429371389
0.5457240486898542 -2.6575789940255308
0.5599583374582772 -2.8986192525333223
0.5756890109531668 -3.124684559651779
0.5929151783228824 -3.3342801886332762
0.6116319612059425 -3.5259181170245832
0.6318262731305565 -3.698115464645698
0.6534755255845899 -3.8493832408461293
0.6765632679111083 -3.978183274820519
0.7011298364970353 -4.0828122886469735
0.7273288892300808 -4.1611737489703975
0.7553130474527054 -4.210507688959338
0.7846967712267553 -4.227583700344603
0.8140804950008057 -4.210507688959337
0.8420646532234305 -4.161173748970396
0.8682637059564758 -4.082812288646973
0.8928302745424029 -3.978183274820518
0.9159180168689213 -3.849383240846129
0.9375672693229545 -3.6981154646456966
0.9577615812475687 -3.5259181170245815
0.9764783641306287 -3.334280188633275
0.9937045315003443 -3.1246845596517776
1.009435204995234 -2.8986192525333214
1.0236694937636568 -2.6575789940255294
1.0364069049414693 -2.4030664293713877
1.0476430923391304 -2.136596545318164
1.0573613591162716 -1.8597030932295315
1.0655180308082985 -1.5739380639929714
1.0720063217201086 -1.2808337750774077
1.0765013624591968 -0.9816753134934169
1.0784074431007948 -0.6767523873236201
1.0787541754498837 -0.3649917594339507
1.0833104555560609 -0.052097257125429584
0.5609467549113548 -0.05679927444977567
0.5649223588629413 -0.36600513449544647
0.5650490683261805 -0.6766652032711047
0.5658941307021169 -0.9817796801974118
0.5688320930206113 -1.2812430672400035
0.5735055934381982 -1.5745749730264653
0.5795573688123362 -1.860521488954476
0.5868297960760912 -2.1375732877788884
0.5952571905076061 -2.404189790094278
0.6048140045530805 -2.658844181277542
0.6154930745891691 -2.900024715745191
0.6272934054050051 -3.1262296259586613
0.640213555127792 -3.335963522759829
0.6542463830925593 -3.527736361155802
0.6693727775520981 -3.7000624861195828
0.6855583045512313 -3.8514532000171906
0.702772244647617 -3.9803850642364935
0.7210621630409206 -4.085200900869663
0.7406667599297316 -4.163875511554924
0.7619425410139835 -4.213644460402099
0.7846967712267554 -4.2309933750669435
0.8074510014395275 -4.213644460402099
0.8287267825237796 -4.163875511554922
0.8483313794125904 -4.085200900869663
0.866621297805894 -3.9803850642364917
0.8838352379022798 -3.85145320001719
0.9000207649014129 -3.7000624861195814
0.915147159360952 -3.5277363611558004
0.9291799873257189 -3.335963522759828
0.942100137048506 -3.1262296259586604
0.953900467864342 -2.9000247157451904
0.9645795379004306 -2.658844181277541
0.9741363519459051 -2.404189790094277
0.98256374637742 -2.1375732877788876
0.9898361736411749 -1.8605214889544741
0.9958879490153129 -1.5745749730264658
1.0005614494328998 -1.2812430672400033
1.003499411751394 -0.9817796801974125
1.0043444741273306 -0.6766652032711038
1.0044711835905697 -0.3660051344954456
1.008446787542156 -0.056799274449775894
0.6352489001924391 -0.060734478373317476
0.6386710400449945 -0.36706866364379775
0.6386124178108655 -0.6765912908261534
0.638575465524894 -0.9817479531927058
0.6400673180834107 -1.2814623514092782
0.642958342351652 -1.574996464184309
0.6469124485073433 -1.8610937106525047
0.6517404916305071 -2.138267677917751
0.6573586164675377 -2.4049921266210657
0.6637340989659797 -2.659748565934348
0.670857396551756 -2.9010292297934965
0.6787269926835503 -3.1273334498019767
0.6873409651473048 -3.3371650485648554
0.6966904350100003 -3.529031552643835
0.70675171804384 -3.7014438218573336
0.7174807529404347 -3.852912808376976
0.7288331173400853 -3.9819317858080505
0.7408593934250869 -4.086901375667847
0.7538811435376485 -4.165896375968198
0.7684818495694153 -4.216174317390004
0.7846967712267553 -4.233872919880863
0.8009116928840957 -4.216174317390003
0.8155123989158626 -4.165896375968198
0.8285341490284243 -4.086901375667845
0.8405604251134259 -3.981931785808049
0.8519127895130766 -3.852912808376975
0.8626418244096712 -3.7014438218573322
0.872703107443511 -3.5290315526438336
0.8820525773062063 -3.337165048564855
0.890666549769961 -3.1273334498019754
0.8985361459017552 -2.901029229793496
0.9056594434875315 -2.659748565934347
0.9120349259859735 -2.4049921266210648
0.917653050823004 -2.1382676779177503
0.922481093946168 -1.8610937106525025
0.9264352001018592 -1.5749964641843097
0.9293262243701006 -1.2814623514092778
0.9308180769286171 -0.9817479531927066
0.9307811246426455 -0.6765912908261527
0.9307225024085165 -0.36706866364379687
0.934144642261072 -0.0607344783733177
0.7091574049389604 -0.06399431309744674
0.7120406963208795 -0.36811647316580115
0.7117880013942627 -0.6765310519873718
0.7109878434102371 -0.9816054699736099
0.7111345354071078 -1.281504700643799
0.7122841438342244 -1.5752064981088805
0.7141524380483403 -1.861421009502307
0.716538952474734 -2.1386800452471353
0.7193478073747211 -2.405473410374018
0.7225412796214283 -2.6602920532633902
0.7261081924962806 -2.901632715476833
0.7300466347176366 -3.1279960003378164
0.7343543666081418 -3.337884862477513
0.739021453062487 -3.5298041265282687
0.7440214288585792 -3.702260625883661
0.7493034285242306 -3.8537640965534345
0.7548096780348591 -3.9828251244671953
0.7605850781219446 -4.0879121741336295
0.767022246503432 -4.167232491380662
0.7749534470179753 -4.218106771680412
0.7846967712267554 -4.236257689727598
0.7944400954355356 -4.218106771680412
0.8023712959500792 -4.167232491380662
0.8088084643315664 -4.0879121741336295
0.8145838644186519 -3.9828251244671944
0.8200901139292806 -3.8537640965534337
0.8253721135949319 -3.7022606258836595
0.8303720893910242 -3.5298041265282674
0.8350391758453694 -3.337884862477512
0.8393469077358745 -3.1279960003378147
0.8432853499572305 -2.901632715476833
0.8468522628320829 -2.6602920532633894
0.85004573507879 -2.405473410374017
0.8528545899787772 -2.1386800452471344
0.855241104405171 -1.8614210095023047
0.8571093986192867 -1.575206498108881
0.8582590070464033 -1.2815047006437985
0.8584056990432739 -0.9816054699736105
0.8576055410592484 -0.676531051987371
0.8573528461326315 -0.3681164731658002
0.8602361375145507 -0.06399431309744698
0.7828045252629079 -0.06665577867168394
0.7851613376710519 -0.36910066171249484
0.7846858370657044 -0.6764750815399735
0.7831966583294275 -0.9813697096561753
0.7820832509477867 -1.2813830682215075
0.7815352244014131 -1.5752102278286564
0.7813328085498905 -1.8615050910188702
0.781281723213726 -2.138810863182586
0.7812816150079719 -2.405633658243177
0.7812924492121593 -2.6604745475227096
0.7813023334775202 -2.9018350865407014
0.7813091866600474 -3.1282172521116505
0.7813106761439671 -3.338123097545717
0.7812965732654661 -3.530054617704302
0.7812396149107236 -3.702514302394624
0.7810856357779162 -3.8540096367234624
0.7807645611370317 -3.9830672734121353
0.7803033276904486 -4.088230365473485
0.7801420370209788 -4.167874198643612
0.7813792436509023 -4.219444758151439
0.7846967712267555 -4.238185966446095
0.7880142988026088 -4.219444758151439
0.7892515054325323 -4.167874198643613
0.7890902147630622 -4.088230365473484
0.7886289813164791 -3.983067273412135
0.788307906675595 -3.8540096367234615
0.7881539275427876 -3.7025143023946234
0.7880969691880452 -3.5300546177043004
0.788082866309544 -3.338123097545716
0.7880843557934638 -3.128217252111649
0.7880912089759909 -2.9018350865407014
0.7881010932413518 -2.6604745475227087
0.7881119274455393 -2.405633658243176
0.7881118192397851 -2.1388108631825853
0.7880607339036206 -1.861505091018868
0.787858318052098 -1.5752102278286566
0.7873102915057243 -1.281383068221507
0.7861968841240835 -0.9813697096561759
0.7847077053878067 -0.6764750815399726
0.7842322047824591 -0.3691006617124939
0.7865890171906031 -0.06665577867168417
0.856298686817967 -0.06878552562649848
0.8581441784295868 -0.3699880056013752
0.8574105218542427 -0.6764094415019833
0.8552753675926054 -0.9810516015489041
0.8529699388332168 -1.2811090364624538
0.8507662972132195 -1.5750133103287893
0.8485096703197683 -1.861347973520302
0.8460255054494663 -2.138660691871965
0.8432168744840043 -2.405472912106671
0.8400444673079566 -2.6602959542670654
0.8364966699055072 -2.901636253090767
0.8325714914197332 -3.127997182242207
0.8282667545792195 -3.3378799052690677
0.8235727117442102 -3.5297836033640455
0.8184632912206993 -3.70220637736082
0.8128851663932539 -3.8536524514083212
0.8067589262707454 -3.982661234983509
0.8000795878503203 -4.087852272519318
0.7932967263745193 -4.167805657159925
0.7877821369686627 -4.2201830213210885
0.7846967712267556 -4.239701640720322
0.7816114054848483 -4.220183021321089
0.7760968160789917 -4.167805657159925
0.7693139546031905 -4.087852272519318
0.7626346161827657 -3.982661234983508
0.7565083760602572 -3.8536524514083204
0.7509302512328119 -3.7022063773608194
0.7458208307093008 -3.5297836033640433
0.7411267878742915 -3.337879905269067
0.7368220510337778 -3.1279971822422055
0.7328968725480041 -2.9016362530907664
0.7293490751455546 -2.6602959542670646
0.7261766679695069 -2.40547291210667
0.723368037004045 -2.1386606918719644
0.7208838721337428 -1.8613479735202998
0.7186272452402916 -1.57501331032879
0.7164236036202942 -1.281109036462453
0.7141181748609057 -0.9810516015489048
0.7119830205992683 -0.6764094415019825
0.7112493640239244 -0.36998800560137424
0.7130948556355442 -0.06878552562649871
0.9297314132818199 -0.07044344344980175
0.931086113672403 -0.3707569131694137
0.930060067135847 -0.6763189509190297
0.9273017614289923 -0.9806571470006715
0.9238567623524246 -1.2806922496468045
0.9200347648024786 -1.5746212857325166
0.915739922769638 -1.860951777423553
0.9108271710982837 -2.138230114150514
0.9052104110512745 -2.4049912171869297
0.898854152320254 -2.659756180170974
0.891748030357854 -2.90103612490047
0.8838903785256293 -3.1273357665773522
0.8752794004874196 -3.337155436070948
0.8659065660504791 -3.5289916478007664
0.8557487982673035 -3.701338349972996
0.8447580655422874 -3.8526958472631945
0.832851785256667 -3.98161118197095
0.8199809954790229 -4.086774585837808
0.806549827937297 -4.167004713186337
0.7941882776337689 -4.220305439069816
0.7846967712267556 -4.240857669910271
0.7752052648197422 -4.220305439069816
0.7628437145162139 -4.167004713186337
0.749412546974488 -4.086774585837809
0.736541757196844 -3.981611181970949
0.7246354769112238 -3.852695847263193
0.7136447441862076 -3.7013383499729944
0.703486976403032 -3.5289916478007655
0.6941141419660917 -3.3371554360709466
0.6855031639278818 -3.127335766577351
0.6776455120956573 -2.9010361249004695
0.6705393901332573 -2.659756180170973
0.6641831314022365 -2.4049912171869283
0.6585663713552274 -2.1382301141505127
0.653653619683873 -1.860951777423551
0.6493587776510326 -1.5746212857325168
0.6455367801010865 -1.280692249646804
0.6420917810245187 -0.9806571470006722
0.6393334753176642 -0.6763189509190289
0.638307428781108 -0.37075691316941267
0.6396621291716912 -0.07044344344980204
1.0031811989556232 -0.07168569957523242
1.0040726004073257 -0.37139488079708916
1.0027258979393825 -0.6761892135741737
0.9993557485089757 -0.9801889870459537
0.9948103585052451 -1.280140267744919
0.9894005982070767 -1.5740390807474538
0.9830813067738656 -1.8603184880693642
0.9757437586270915 -2.1375196627071986
0.9673190343380751 -2.4041886018298344
0.957778281459815 -2.658855132288327
0.9471132216883459 -2.9000346148505787
0.9353226678387769 -3.126232976017535
0.9224053537131013 -3.335949818382371
0.9083546260431562 -3.527679256249339
0.8931519029876539 -3.6999115418863413
0.8767585260043533 -3.8511431216345455
0.8590988835601062 -3.979922754002351
0.8400758790459351 -4.084996087289892
0.819976007001869 -4.165443367739355
0.8006307843936648 -4.219780789374857
0.7846967712267555 -4.241720604667406
0.7687627580598463 -4.219780789374856
0.7494175354516419 -4.165443367739354
0.7293176634075756 -4.084996087289891
0.7102946588934048 -3.97992275400235
0.6926350164491577 -3.8511431216345455
0.6762416394658572 -3.69991154188634
0.6610389164103552 -3.5276792562493378
0.6469881887404099 -3.33594981838237
0.6340708746147343 -3.1262329760175342
0.6222803207651654 -2.900034614850578
0.611615260993696 -2.658855132288326
0.6020745081154361 -2.4041886018298335
0.5936497838264194 -2.1375196627071973
0.5863122356796454 -1.860318488069362
0.5799929442464345 -1.574039080747454
0.574583183948266 -1.2801402677449183
0.5700377939445355 -0.9801889870459543
0.5666676445141285 -0.6761892135741729
0.5653209420461853 -0.37139488079708816
0.566212343497888 -0.07168569957523273
1.0767152714918526 -0.07256725920669224
1.0771792725407965 -0.3718964981071406
1.0754934366243605 -0.6760079188699266
1.0715182992650731 -0.9796477699374905
1.0659008649454504 -1.2794586263837582
1.0589260075110059 -1.5732706307972644
1.0505923408433069 -1.859449727447284
1.0408324432806506 -2.136529744995393
1.0295995233017097 -2.4030650601502366
1.01687358871158 -2.657592718370923
1.0026490301653634 -2.8986316427100274
0.986925176511795 -3.124688774938456
0.9697013150842929 -3.3342631359411103
0.9509731818086254 -3.5258468378252914
0.9307279556264858 -3.697926983123179
0.9089390942365372 -3.8489971084848156
0.8855511800577035 -3.977603042948687
0.8604315876403558 -4.082520105936253
0.8336658031683407 -4.163089554611629
0.8071563281025244 -4.2185562339351
0.7846967712267555 -4.242376447191907
0.7622372143509868 -4.218556233935099
0.7357277392851703 -4.163089554611628
0.7089619548131549 -4.0825201059362515
0.6838423623958075 -3.9776030429486866
0.6604544482169737 -3.848997108484815
0.6386655868270253 -3.6979269831231782
0.6184203606448858 -3.5258468378252896
0.5996922273692182 -3.334263135941109
0.5824683659417162 -3.1246887749384546
0.5667445122881478 -2.8986316427100265
0.5525199537419312 -2.657592718370922
0.5397940191518015 -2.4030650601502357
0.5285610991728606 -2.136529744995391
0.5188012016102042 -1.8594497274472823
0.5104675349425053 -1.5732706307972644
0.5034926775080608 -1.2794586263837577
0.49787524318843795 -0.979647769937491
0.4939001058291508 -0.676007918869926
0.4922142699127147 -0.3718964981071397
0.4926782709616588 -0.07256725920669253
1.1503896708210628 -0.07314392049927837
1.15047251738348 -0.3722620035094427
1.1484430899783218 -0.6757658129422518
1.1438713084250731 -0.9790332639275037
1.137201213809489 -1.2786509375240183
1.12867497782857 -1.572318591721618
1.118332149560792 -1.8583465589671604
1.1061504759105254 -2.1352605757779255
1.0921086035802505 -2.401620539406668
1.076196761588291 -2.655968849581675
1.058412224804117 -2.8968271389833222
1.038754724205777 -3.1227031236148712
1.0172239880698515 -3.332095407020206
0.9938183402400236 -3.523494661586799
0.9685319876560532 -3.6953853888922783
0.9413514123095238 -3.846259617624619
0.9122533856652643 -3.974659831549807
0.8811092133161683 -4.0793576553627595
0.8477307301316622 -4.159911613198423
0.8138375158215806 -4.216547517063498
0.7846967712267554 -4.242937852867193
0.7555560266319304 -4.216547517063497
0.7216628123218486 -4.159911613198422
0.6882843291373425 -4.079357655362759
0.6571401567882469 -3.9746598315498067
0.6280421301439869 -3.8462596176246184
0.6008615547974581 -3.6953853888922774
0.5755752022134876 -3.523494661586798
0.5521695543836594 -3.332095407020205
0.5306388182477342 -3.12270312361487
0.5109813176493941 -2.896827138983322
0.49319678086522 -2.6559688495816736
0.47728493887326057 -2.4016205394066676
0.4632430665429856 -2.1352605757779237
0.451061392892719 -1.8583465589671584
0.44071856462494113 -1.5723185917216185
0.4321923286440223 -1.2786509375240176
0.42552223402843803 -0.9790332639275042
0.42095045247518936 -0.6757658129422511
0.4189210250700311 -0.37226200350944183
0.41900387163244834 -0.07314392049927868
1.2242476821655128 -0.07347385542853493
1.2240091584594672 -0.37249644198240583
1.22165175298966 -0.6754576453981168
1.216498240645061 -0.9783451697847383
1.2087866143188986 -1.2777189019462034
1.198712705339131 -1.5711841133143325
1.1863602062133403 -1.857009340596078
1.1717550904067644 -2.1337121269073855
1.154902919219852 -2.3998549345241624
1.1358044368633544 -2.653983446672718
1.1144595652304903 -2.8946210489818736
1.0908681344707087 -3.120275982353465
1.0650301240079392 -3.329446581592139
1.036946132426772 -3.520622773312636
1.0066185506870466 -3.69228724252888
0.9740474825523003 -3.8429310516126804
0.9392440675364436 -3.9710994382273253
0.9021530194657316 -4.0755305673157
0.8623062146633189 -4.155888144502486
0.8207975301091255 -4.213624699653326
0.7846967712267554 -4.243551760483213
0.7485960123443856 -4.213624699653325
0.707087327790192 -4.155888144502484
0.6672405229877792 -4.075530567315699
0.6301494749170673 -3.971099438227325
0.5953460599012104 -3.84293105161268
0.5627749917664643 -3.6922872425288795
0.5324474100267391 -3.520622773312635
0.5043634184455718 -3.329446581592138
0.47852540798280224 -3.1202759823534643
0.4549339772230206 -2.8946210489818727
0.4335891055901569 -2.6539834466727172
0.4144906232336591 -2.399854934524161
0.3976384520467465 -2.1337121269073838
0.38303333624017094 -1.8570093405960755
0.37068083711438016 -1.571184113314333
0.36060692813461265 -1.2777189019462027
0.3528953018084502 -0.9783451697847387
0.34774178946385126 -0.675457645398116
0.345384383994044 -0.37249644198240495
0.34514586028799826 -0.07347385542853524
1.2983162530251668 -0.07361855535759053
1.2978353506507647 -0.3726096228781064
1.2951952599842715 -0.6750833321174973
1.289485459245188 -0.9775835295519822
1.2807340560342595 -1.2766621361155954
1.2691049516615223 -1.5698666649632242
1.254736015391897 -1.8554376346908064
1.237703383695336 -2.131884102150675
1.2180390021685596 -2.397768092794354
1.1957531970572473 -2.6516364489161184
1.1708478085239291 -2.89201334130467
1.1433222557144067 -3.117407305733352
1.1131764953610168 -3.3263165792433527
1.0804128417836514 -3.5172308813100512
1.0450413170680135 -3.6886327905343936
1.0070803102294328 -3.839010906110573
0.9665608634143071 -3.966922638372576
0.9235727673907395 -4.071071999770055
0.877542904485117 -4.151028454429372
0.8282623424286085 -4.209592771670435
0.7846967712267555 -4.244403589437243
0.7411312000249023 -4.209592771670435
0.6918506379683939 -4.15102845442937
0.6458207750627715 -4.071071999770054
0.6028326790392039 -3.9669226383725746
0.5623132322240781 -3.839010906110572
0.5243522253854974 -3.6886327905343936
0.48898070066985966 -3.517230881310051
0.45621704709249405 -3.326316579243352
0.42607128673910416 -3.1174073057333502
0.3985457339295819 -2.8920133413046694
0.37364034539626406 -2.6516364489161175
0.35135454028495156 -2.3977680927943523
0.3316901587581752 -2.1318841021506736
0.31465752706161426 -1.8554376346908041
0.3002885907919891 -1.5698666649632242
0.2886594864192519 -1.276662136115595
0.27990808320832306 -0.9775835295519827
0.2741982824692398 -0.6750833321174965
0.27155819180274654 -0.3726096228781055
0.27107728942834436 -0.07361855535759083
1.3725994088191622 -0.07364292478487178
1.3719848480909964 -0.37261737298583936
1.3691527065914617 -0.6746494930024737
1.3629240001049476 -0.9767484929754826
1.3531215888819093 -1.275477770644908
1.3399173583203148 -1.5683639285560884
1.3235187493442568 -1.8536301745953854
1.304052179251991 -2.129775944077714
1.2815732409840608 -2.3953598322126637
1.256099577635 -2.6489278225660393
1.2276336942167858 -2.88900402508431
1.1961740343925429 -3.114097030541677
1.1617197986169792 -3.322705311977019
1.124275238433375 -3.51331846036371
1.0838538667155186 -3.684421294753237
1.040500063674186 -3.8345000370830857
0.9942556769376807 -3.962120133587142
0.945325767347664 -4.0660161420866245
0.8935529070209554 -4.145413453416125
0.8366802050568988 -4.204170076969305
0.7846967712267554 -4.245704954295091
0.7327133373966118 -4.204170076969305
0.6758406354325553 -4.145413453416125
0.6240677751058469 -4.066016142086624
0.5751378655158302 -3.962120133587141
0.5288934787793251 -3.834500037083085
0.4855396757379923 -3.6844212947532364
0.4451183040201361 -3.5133184603637093
0.40767374383653165 -3.322705311977018
0.37321950806096804 -3.114097030541675
0.34175984823672534 -2.889004025084309
0.31329396481851146 -2.648927822566039
0.2878203014694503 -2.3953598322126624
0.26534136320152024 -2.129775944077713
0.24587479310925442 -1.8536301745953832
0.22947618413319656 -1.5683639285560884
0.2162719535716021 -1.2754777706449074
0.2064695423485636 -0.9767484929754829
0.2002408358620496 -0.6746494930024729
0.19740869436251482 -0.3726173729858386
0.19679413363434897 -0.07364292478487205
1.4470665180250875 -0.07361400150332117
1.4464770582151583 -0.37254518660130337
1.443614540998698 -0.6741713169578136
1.4369108943940783 -0.9758389618808746
1.4260272341098796 -1.2741599275908644
1.4112147914000834 -1.5666717710688076
1.3927668217577343 -1.8515848828794041
1.3708578988621296 -2.127386884462612
1.3455618571124366 -2.3926299674464486
1.316900060765035 -2.64585758449089
1.2848739961641509 -2.885593129196222
1.24948036196061 -3.1103451829816935
1.2107172640176025 -3.3186123985037144
1.1685888278153755 -3.508885584645718
1.123115100279664 -3.6796493059091477
1.0743432568773263 -3.829402226714468
1.0224076096130643 -3.9566789516452054
0.9673575336524723 -4.060353509094826
0.9101905569191358 -4.139274145261247
0.8470222642969962 -4.196983414527416
0.7846967712267554 -4.247622144352508
0.7223712781565146 -4.196983414527417
0.6592029855343746 -4.139274145261247
0.6020360088010385 -4.060353509094825
0.5469859328404464 -3.956678951645204
0.4950502855761847 -3.8294022267144676
0.4462784421738472 -3.6796493059091477
0.4008047146381351 -3.508885584645717
0.3586762784359082 -3.3186123985037135
0.3199131804929007 -3.110345182981691
0.2845195462893603 -2.8855931291962214
0.25249348168847635 -2.645857584490889
0.22383168534107475 -2.392629967446448
0.19853564359138146 -2.1273868844626107
0.17662672069577684 -1.8515848828794017
0.15817875105342813 -1.5666717710688074
0.1433663083436316 -1.2741599275908635
0.13248264805943302 -0.9758389618808752
0.12577900145481327 -0.6741713169578127
0.12291648423835312 -0.3725451866013026
0.12232702442842378 -0.07361400150332145
1.5216309390415186 -0.07359726346058902
1.5213158381833407 -0.37243669475398417
1.518698717800458 -0.6736740671828673
1.5115467010504071 -0.97484926157398
1.4995285527177846 -1.272699613176042
1.4830603685101689 -1.5647841339192714
1.4625375140080406 -1.8492990079179443
1.4381764366879781 -2.1247160211861256
1.4100608899870126 -2.3895783559171364
1.378211095540476 -2.6424258076926748
1.342625485528959 -2.881780754899188
1.303298282196572 -3.106151718018168
1.2602258455995963 -3.314037839373101
1.2134113488742426 -3.503930597414692
1.1628763473493426 -3.674318823247508
1.1086804875701983 -3.823698723158395
1.050971287513636 -3.9506509654856377
0.9900243021981365 -4.0538870114925505
0.926211675128231 -4.133127410344963
0.8616281815895204 -4.187664802093651
0.7846967712267554 -4.25
0.7077653608639904 -4.187664802093651
0.6431818673252793 -4.133127410344964
0.579369240255374 -4.05388701149255
0.5184222549398747 -3.9506509654856354
0.46071305488331293 -3.8236987231583948
0.40651719510416884 -3.674318823247508
0.35598219357926797 -3.5039305974146906
0.3091676968539142 -3.3140378393731003
0.266095260256939 -3.106151718018166
0.2267680569245524 -2.8817807548991876
0.1911824469130354 -2.642425807692674
0.15933265246649841 -2.389578355917136
0.13121710576553275 -2.124716021186124
0.10685602844547057 -1.849299007917942
0.08633317394334274 -1.5647841339192714
0.06986498973572665 -1.2726996131760413
0.05784684140310425 -0.9748492615739804
0.050694824653053375 -0.6736740671828663
0.048077704270170676 -0.3724366947539832
0.04776260341199268 -0.07359726346058933
SCALARS Stress float 6
LOOKUP_TABLE default
-868.6932439343898 -27638.9563346023 -8552.294873561006 -642.1550789571842 0.0 0.0
13090.932463509602 7735.930041148161 6248.058751397328 -997.4805411390159 0.0 0.0
7443.270067165718 -660.1646714668907 2034.9316187096483 -426.61116761843294 0.0 0.0
7616.312145632629 579.8248563006373 2458.84110057998 -63.5381046636612 0.0 0.0
8744.439480969973 210.9758627300819 2686.6246031100163 -146.43710166961858 0.0 0.0
10525.030747682296 298.1067776068559 3246.9412575867473 -150.8978481584302 0.0 0.0
12490.865695524211 324.8239280885163 3844.7068870838184 -160.00883600414673 0.0 0.0
14548.442088251351 378.3246304584534 4478.03001561294 -163.4757225709299 0.0 0.0
16630.02866025867 430.9573952811857 5118.295816661956 -164.70852665776317 0.0 0.0
18716.259593024286 485.323055514105 5760.474794561516 -165.02938187880432 0.0 0.0
20800.153688279308 539.5274734316556 6401.904348513289 -165.02936173759798 0.0 0.0
22881.479815823048 593.7017467034326 7042.554468757944 -165.06590946677753 0.0 0.0
24962.990926657563 648.0647007742434 7683.31668822954 -165.38740101064667 0.0 0.0
27052.21362215297 703.379203003968 8326.677847547078 -166.3344835529449 0.0 0.0
29165.681704202372 760.9543732742923 8977.990823242999 -168.27354451573405 0.0 0.0
31331.334363045185 822.1432091930212 9646.04327167146 -171.02341101416567 0.0 0.0
33576.28431759232 886.2205341578622 10338.751455525053 -172.26863073696106 0.0 0.0
35877.85908752057 946.418910926602 11047.28339953415 -165.12798042522093 0.0 0.0
38066.02381758766 987.7509126401208 11716.132419068335 -137.73015014213667 0.0 0.0
39739.44779550977 997.8241344498063 12221.181578987871 -80.57108937269953 0.0 0.0
40380.46541045787 992.1478043463532 12411.783964441274 5.866240826435387e-11 0.0 0.0
39739.44779550928 997.8241344480496 12221.181578987198 80.57108937251581 0.0 0.0
38066.023817588146 987.7509126417501 11716.13241906897 137.73015014171267 0.0 0.0
35877.85908751873 946.4189109231634 11047.283399532564 165.12798042524258 0.0 0.0
33576.284317591795 886.2205341566782 10338.751455524542 172.26863073712497 0.0 0.0
31331.334363045215 822.1432091928707 9646.043271671428 171.02341101416266 0.0 0.0
29165.681704201437 760.9543732722768 8977.990823242115 168.27354451568283 0.0 0.0
27052.213622151452 703.3792030007355 8326.677847545656 166.3344835527563 0.0 0.0
24962.99092665797 648.0647007751899 7683.316688229952 165.3874010105809 0.0 0.0
22881.47981582309 593.7017467033177 7042.554468757922 165.06590946679455 0.0 0.0
20800.1536882787 539.527473430171 6401.904348512662 165.02936173774185 0.0 0.0
18716.259593024566 485.323055514814 5760.474794561812 165.02938187874187 0.0 0.0
16630.02866025837 430.9573952805497 5118.295816661677 164.7085266578056 0.0 0.0
14548.442088250726 378.32463045722085 4478.030015612385 163.4757225705205 0.0 0.0
12490.865695524277 324.8239280887778 3844.7068870839184 160.00883600438016 0.0 0.0
10525.03074768233 298.1067776066942 3246.941257586708 150.89784815827608 0.0 0.0
8744.439480970454 210.9758627313058 2686.6246031105266 146.437101669724 0.0 0.0
7616.312145632519 579.824856300655 2458.8411005799526 63.53810466367004 0.0 0.0
7443.270067165289 -660.1646714677632 2034.9316187092584 426.6111676186812 0.0 0.0
13090.932463509642 7735.930041148282 6248.058751397376 997.4805411388415 0.0 0.0
-868.6932439345052 -27638.956334602488 -8552.294873561099 642.1550789573232 0.0 0.0
-4932.551094833325 -27457.93807953879 -9717.146752311635 -438.83051869199977 0.0 0.0
8051.368634024682 5292.781110987002 4003.244923503504 -795.3061930979311 0.0 0.0
5233.654230708692 -742.7598588372063 1347.268311561446 -298.18492907303045 0.0 0.0
6793.264956759605 262.618010567427 2116.7648901981097 -246.80846372535933 0.0 0.0
7774.317687696115 32.60524030235321 2342.076878399541 -355.8467475666956 0.0 0.0
9389.221524228564 25.952028479048636 2824.552065812284 -403.1064253210187 0.0 0.0
11132.01668290106 8.67810091811115 3342.208435145752 -424.29518498243107 0.0 0.0
12955.717799032362 2.652376547265253 3887.5110526738886 -432.96920401720433 0.0 0.0
14803.87570249604 0.27725802439794234 4441.2458881561315 -435.3505416116763 0.0 0.0
16658.35511135572 -0.35393547593819186 4997.400352763935 -435.5943360134158 0.0 0.0
18512.38090431513 -0.3582241006218947 5553.606804064354 -435.26225728373174 0.0 0.0
20365.126336292058 -0.054909049137624066 6109.521428172877 -435.09905939804935 0.0 0.0
22218.8723873013 0.7634126918890232 6665.890739997956 -435.70244072412936 0.0 0.0
24079.924147859747 2.7028151902005355 7224.788088914987 -438.1287087883738 0.0 0.0
25961.118615448573 6.351076030873891 7790.240907443835 -444.03484409069415 0.0 0.0
27881.64045066133 10.780893417244817 8367.726403223574 -454.4970075590053 0.0 0.0
29853.60412497954 10.312309367659129 8959.174930304162 -465.67915882912786 0.0 0.0
31839.624704844275 -8.875952511104728 9549.224625699953 -460.3877935291852 0.0 0.0
33679.52236556653 -64.38494377692473 10084.541226536881 -401.32323883461146 0.0 0.0
35045.77156513865 -150.8940556073211 10468.463252859397 -245.93504791439946 0.0 0.0
35557.000555725 -203.07695552479433 10606.17708006006 8.384404281969182e-11 0.0 0.0
35045.77156513831 -150.89405560833703 10468.463252858995 245.9350479145354 0.0 0.0
33679.522365566416 -64.38494377697859 10084.541226536832 401.32323883462266 0.0 0.0
31839.62470484219 -8.875952515738135 9549.224625697934 460.38779352905544 0.0 0.0
29853.604124979458 10.312309367681323 8959.174930304145 465.67915882922375 0.0 0.0
27881.640450661092 10.780893416761046 8367.72640322336 454.4970075589767 0.0 0.0
25961.11861544769 6.351076029054937 7790.240907443024 444.0348440906538 0.0 0.0
24079.92414785912 2.702815189019674 7224.788088914442 438.1287087884005 0.0 0.0
22218.87238730075 0.7634126906603171 6665.890739997421 435.70244072421235 0.0 0.0
20365.126336291796 -0.0549090498170699 6109.521428172593 435.09905939803974 0.0 0.0
18512.380904315065 -0.35822410095870794 5553.60680406423 435.2622572838101 0.0 0.0
16658.35511135576 -0.35393547586413376 4997.40035276397 435.59433601331114 0.0 0.0
14803.87570249608 0.2772580247618137 4441.245888156253 435.3505416116057 0.0 0.0
12955.717799032003 2.652376546408817 3887.511052673524 432.96920401715147 0.0 0.0
11132.016682901087 8.67810091795993 3342.2084351457133 424.2951849825363 0.0 0.0
9389.221524228371 25.952028478670634 2824.5520658121136 403.1064253208772 0.0 0.0
7774.317687696244 32.605240302742416 2342.0768783996955 355.8467475667321 0.0 0.0
6793.264956759306 262.6180105667074 2116.7648901978046 246.8084637252873 0.0 0.0
5233.654230708623 -742.7598588374149 1347.2683115613618 298.1849290731752 0.0 0.0
8051.368634024797 5292.781110987142 4003.2449235035815 795.3061930978996 0.0 0.0
-4932.551094833269 -27457.938079538864 -9717.14675231164 438.83051869201836 0.0 0.0
-5397.208081664252 -24032.76300313609 -8828.991325440104 -2021.0123647093405 0.0 0.0
5091.851541933129 3190.826663066842 2484.8034614999915 -1438.1677041205467 0.0 0.0
3881.450160834685 133.08466879615565 1204.3604488892524 -202.19856079874825 0.0 0.0
5668.188605660132 43.01431228599182 1713.3608753838375 -569.348065315748 0.0 0.0
6917.310443239005 101.43207773906174 2105.6227562934205 -708.5407825420684 0.0 0.0
8334.16463090814 25.237568394093003 2507.820659790671 -812.0537339431482 0.0 0.0
9904.001871814708 13.784704913396013 2975.335973018431 -852.5117424026487 0.0 0.0
11520.881928933975 3.419267968526915 3457.2903590707515 -868.8618958044478 0.0 0.0
13161.926720202884 0.4022897482548893 3948.6987029853412 -873.2545861691935 0.0 0.0
14808.74447601097 -0.5120079226185261 4442.469740426505 -873.5086654247342 0.0 0.0
16456.2063510494 -0.5090422870148004 4936.709192628718 -872.7577750800721 0.0 0.0
18103.19900351277 -0.09124663162477376 5430.932327064345 -872.3527292814236 0.0 0.0
19751.426069036366 1.0377086899934156 5925.739133317907 -873.4310163697673 0.0 0.0
21405.652723399842 3.7544459810286277 6422.822150814262 -878.0881875431756 0.0 0.0
23075.144996428604 8.994034423095965 6925.241709255511 -889.7929814850988 0.0 0.0
24772.56182594526 15.648483041139167 7436.46309269592 -911.2642389883774 0.0 0.0
26502.000339564416 15.688967130534898 7955.306792008481 -935.9856997811316 0.0 0.0
28224.037951454266 -11.597968467694749 8463.73199489597 -930.628577729706 0.0 0.0
29797.47469889453 -95.05964912950976 8910.724514929509 -818.659554033992 0.0 0.0
30947.73885166258 -232.17283782121814 9214.669804152409 -506.7214299092962 0.0 0.0
31370.16183100512 -320.042554324471 9315.035783004192 -4.973799150320701e-12 0.0 0.0
30947.73885166285 -232.17283782053593 9214.669804152694 506.7214299093006 0.0 0.0
29797.474698893915 -95.05964913092899 8910.724514928896 818.6595540340595 0.0 0.0
28224.03795145287 -11.5979684710137 8463.731994894557 930.6285777295329 0.0 0.0
26502.000339564605 15.688967131192157 7955.306792008739 935.9856997811163 0.0 0.0
24772.56182594503 15.648483040843018 7436.463092695761 911.2642389882733 0.0 0.0
23075.144996428102 8.994034421904928 6925.241709255004 889.7929814852387 0.0 0.0
21405.652723400024 3.7544459815098037 6422.822150814462 878.0881875430291 0.0 0.0
19751.42606903615 1.037708689323594 5925.739133317643 873.4310163695936 0.0 0.0
18103.199003512607 -0.09124663227224517 5430.932327064102 872.3527292814484 0.0 0.0
16456.20635104987 -0.5090422859789356 4936.709192629169 872.7577750800147 0.0 0.0
14808.744476010885 -0.5120079228010468 4442.469740426425 873.50866542476 0.0 0.0
13161.926720203202 0.40228974899193304 3948.698702985658 873.254586169254 0.0 0.0
11520.881928933695 3.419267967800849 3457.290359070448 868.8618958045182 0.0 0.0
9904.001871814831 13.784704913697695 2975.3359730185593 852.5117424026358 0.0 0.0
8334.164630907953 25.23756839348563 2507.820659790432 812.0537339430124 0.0 0.0
6917.31044323891 101.43207773867857 2105.6227562932763 708.5407825420025 0.0 0.0
5668.188605659776 43.0143122851982 1713.3608753834924 569.3480653157845 0.0 0.0
3881.4501608347573 133.0846687964503 1204.3604488893623 202.1985607987341 0.0 0.0
5091.851541933078 3190.826663066813 2484.803461499967 1438.1677041205771 0.0 0.0
-5397.208081664277 -24032.76300313613 -8828.991325440122 2021.0123647093171 0.0 0.0
-4959.844186298233 -20659.604168117145 -7685.834506324614 -2522.996804545482 0.0 0.0
3178.7180932656506 1298.5762687586107 1343.1883086072785 -1969.5286530133524 0.0 0.0
2837.4075059730326 614.5929281794151 1035.6001302457341 -599.2699452260583 0.0 0.0
4586.103912886682 88.08214208597181 1402.255816491796 -823.0483036697708 0.0 0.0
5980.644730498068 109.14383322727153 1826.9365691176022 -1054.0205012612998 0.0 0.0
7279.926325287594 48.186009461350146 2198.433700424683 -1172.2709429180861 0.0 0.0
8664.791342385011 17.169106742802693 2604.5881347383443 -1231.2050816112874 0.0 0.0
10084.440374912436 5.5631145468414145 3027.0010468377827 -1252.8216030470903 0.0 0.0
11519.066162074132 0.4057713290154723 3455.8415800209436 -1259.2133837392273 0.0 0.0
12959.15544875431 -0.7586337021270371 3887.519044515656 -1259.6773832776453 0.0 0.0
14400.10573990097 -0.7706799148977836 4319.800517995824 -1258.7429885826573 0.0 0.0
15841.145315895561 -0.15879520718576146 4752.2959562065125 -1258.2507301093744 0.0 0.0
17283.259535709993 1.478797401206716 5185.421499933357 -1259.7706126388503 0.0 0.0
18729.48375877097 5.476526995071875 5620.488085729813 -1266.1172482256263 0.0 0.0
20185.576048511077 13.357636719063283 6059.680105569039 -1281.9087468392936 0.0 0.0
21659.049070808145 23.76593005659366 6504.844500259423 -1310.7037684440074 0.0 0.0
23150.338633072268 24.83965144377599 6952.553485354814 -1343.3701566133795 0.0 0.0
24625.687230996333 -15.726620681316831 7382.988183094503 -1333.3947353952983 0.0 0.0
25967.629409213256 -145.8722724278491 7746.527141035621 -1172.653805451592 0.0 0.0
26942.11580229968 -366.8253282980313 7972.587142200493 -726.6525162044985 0.0 0.0
27293.01495489118 -512.0214130517624 8034.298062551823 -9.771383702172898e-11 0.0 0.0
26942.115802300323 -366.82532829620993 7972.587142201235 726.6525162044514 0.0 0.0
25967.629409213583 -145.87227242729028 7746.527141035888 1172.6538054516168 0.0 0.0
24625.68723099652 -15.72662068101451 7382.988183094652 1333.3947353951469 0.0 0.0
23150.3386330722 24.839651443966048 6952.55348535485 1343.3701566133577 0.0 0.0
21659.04907080857 23.765930057616877 6504.844500259856 1310.7037684439683 0.0 0.0
20185.576048510782 13.357636718251975 6059.680105568708 1281.9087468394705 0.0 0.0
18729.483758771225 5.4765269958206915 5620.488085730113 1266.1172482255645 0.0 0.0
17283.259535710215 1.4787974017140328 5185.42149993358 1259.7706126389662 0.0 0.0
15841.14531589553 -0.1587952072512877 4752.295956206484 1258.2507301093683 0.0 0.0
14400.10573990088 -0.7706799151109323 4319.800517995731 1258.7429885826434 0.0 0.0
12959.155448754325 -0.758633701916537 3887.5190445157223 1259.6773832775816 0.0 0.0
11519.066162073748 0.40577132827479545 3455.8415800206076 1259.2133837393194 0.0 0.0
10084.44037491225 5.5631145462741145 3027.0010468375576 1252.821603046864 0.0 0.0
8664.791342385353 17.16910674396182 2604.588134738795 1231.2050816112455 0.0 0.0
7279.92632528713 48.18600946041801 2198.433700424265 1172.2709429181803 0.0 0.0
5980.6447304980475 109.14383322699379 1826.9365691175126 1054.0205012612075 0.0 0.0
4586.103912886652 88.08214208576429 1402.255816491725 823.048303669764 0.0 0.0
2837.4075059729 614.5929281792501 1035.6001302456448 599.2699452258825 0.0 0.0
3178.7180932653605 1298.576268758276 1343.188308607091 1969.528653013323 0.0 0.0
-4959.844186298406 -20659.604168117294 -7685.834506324711 2522.9968045457317 0.0 0.0
-4250.687527055404 -17587.588951391044 -6551.482943533935 -2580.5777064812123 0.0 0.0
1931.4678527903807 -159.94352283463635 531.4572989867233 -2328.931204155042 0.0 0.0
2023.5205769672607 766.8131456758167 837.1001167929232 -1135.5170082349773 0.0 0.0
3600.810585810234 215.6189687028218 1144.9288663539164 -1123.1139944058673 0.0 0.0
5013.2879347056205 128.9184713198871 1542.6619218076526 -1362.2910233181494 0.0 0.0
6215.223975215851 68.28561671961988 1885.052877580641 -1493.9657590537145 0.0 0.0
7421.607642082989 24.86588766157858 2233.9420589233705 -1559.7191772206304 0.0 0.0
8645.191746027023 7.419039279888159 2595.783235592073 -1585.7544345404651 0.0 0.0
9875.643303890394 0.6880123929520163 2962.8993948850034 -1593.3541184163957 0.0 0.0
11109.368466308784 -1.1033323689718664 3332.4795401819433 -1594.1640059866086 0.0 0.0
12343.996365652281 -1.0776496575681342 3702.875614798415 -1593.2015505624254 0.0 0.0
13578.921063714231 -0.23228345242979742 4073.6066340785405 -1592.7259307937654 0.0 0.0
14814.502758663764 2.055970459385307 4444.967618736944 -1594.5613992943966 0.0 0.0
16051.966957170931 7.659805053044892 4817.888028667191 -1601.907479906341 0.0 0.0
17293.777609698718 18.829167953928994 5193.782033295792 -1619.9567143057886 0.0 0.0
18543.527640738106 33.91164284699716 5573.231785075529 -1652.683681973282 0.0 0.0
19801.40718139536 36.18707533892828 5951.278277020287 -1689.295201656544 0.0 0.0
21044.993171377275 -21.77851185323108 6306.964397857213 -1674.1249353380088 0.0 0.0
22183.45605685029 -213.43318678045364 6591.006861020952 -1474.2120292314278 0.0 0.0
23012.856962938822 -546.0591511221959 6740.0393435449905 -917.1155836376549 0.0 0.0
23304.010489023076 -769.3966810014116 6760.384142406499 -6.24140739091672e-11 0.0 0.0
23012.856962939455 -546.059151120941 6740.0393435455535 917.1155836377768 0.0 0.0
22183.456056850242 -213.43318678067928 6591.006861020868 1474.212029231651 0.0 0.0
21044.993171377093 -21.778511853803792 6306.9643978569875 1674.1249353377532 0.0 0.0
19801.407181395414 36.187075339179565 5951.278277020378 1689.2952016564714 0.0 0.0
18543.527640738528 33.91164284807548 5573.23178507598 1652.6836819734438 0.0 0.0
17293.77760969898 18.82916795452053 5193.78203329605 1619.9567143057964 0.0 0.0
16051.966957170414 7.659805051656903 4817.888028666622 1601.9074799061116 0.0 0.0
14814.502758663462 2.055970458358857 4444.967618736548 1594.5613992944943 0.0 0.0
13578.921063714763 -0.23228345130813466 4073.6066340790367 1592.7259307937156 0.0 0.0
12343.996365651697 -1.0776496588292162 3702.8756147978606 1593.2015505625832 0.0 0.0
11109.368466308642 -1.1033323691554884 3332.4795401818465 1594.164005986464 0.0 0.0
9875.643303890098 0.6880123924046302 2962.8993948847506 1593.3541184165074 0.0 0.0
8645.19174602689 7.419039279778318 2595.783235592001 1585.7544345404776 0.0 0.0
7421.607642083309 24.865887662248255 2233.942058923667 1559.7191772205651 0.0 0.0
6215.223975215488 68.28561671887417 1885.0528775803084 1493.965759053867 0.0 0.0
5013.287934705495 128.91847131980708 1542.6619218075905 1362.2910233181233 0.0 0.0
3600.810585810168 215.61896870275487 1144.9288663538769 1123.1139944059096 0.0 0.0
2023.5205769672052 766.8131456756923 837.1001167928694 1135.5170082347568 0.0 0.0
1931.4678527904655 -159.94352283453816 531.4572989867784 2328.9312041549356 0.0 0.0
-4250.687527055387 -17587.588951391193 -6551.482943533975 2580.577706481512 0.0 0.0
-3521.2725242094934 -14880.905630929077 -5520.6534465415725 -2461.9660483308007 0.0 0.0
1109.7036154387458 -1182.5302668635632 -21.847995427445298 -2541.338977443481 0.0 0.0
1378.6062924910996 712.3334578912031 627.2819251146908 -1654.3261530911832 0.0 0.0
2720.6881368251047 335.31480781391366 916.8008833917058 -1458.5539495406488 0.0 0.0
4049.2426460805596 166.88279803245945 1264.8376332339058 -1642.1719005191514 0.0 0.0
5142.440122977758 86.4204258257289 1568.6581646410466 -1774.0314693964337 0.0 0.0
6175.939476745326 33.83439153136895 1862.9321604830086 -1840.1924511525015 0.0 0.0
7204.1043571408545 9.730316283424724 2164.1504020272837 -1867.6616415829958 0.0 0.0
8231.497478122546 0.9679093320806871 2469.7396162363884 -1875.9489210450536 0.0 0.0
9259.362463601019 -1.4192890055702811 2777.3829523786353 -1876.99802052103 0.0 0.0
10287.778358697384 -1.4077306959536173 3085.9111884004296 -1876.1336817676245 0.0 0.0
11316.516912706104 -0.2913400876868266 3394.8676717855255 -1875.7266307696657 0.0 0.0
12345.318539169852 2.7119407941966998 3704.4091439892163 -1877.69430425941 0.0 0.0
13373.679014987682 10.057701808914786 4015.1210150389807 -1885.2835556285609 0.0 0.0
14401.048884890286 24.772973111580537 4327.746557400562 -1903.7691386106367 0.0 0.0
15428.052323547305 44.97113656396736 4641.907038033381 -1937.3793398498626 0.0 0.0
16457.020420759218 48.6858755927791 4951.711888905599 -1975.2214065865874 0.0 0.0
17480.909420097312 -28.937585006689773 5235.591550527187 -1957.2690227405958 0.0 0.0
18437.890092320722 -292.7619660095189 5443.538437893361 -1731.7608697370335 0.0 0.0
19145.79666398158 -762.2465885348462 5515.065022634022 -1086.625688711666 0.0 0.0
19384.462134173995 -1087.136536842682 5489.197679199394 -1.9042545318370685e-11 0.0 0.0
19145.796663981942 -762.246588534351 5515.065022634279 1086.6256887116633 0.0 0.0
18437.89009232096 -292.76196600894616 5443.538437893604 1731.7608697370993 0.0 0.0
17480.909420096596 -28.937585008339752 5235.591550526477 1957.26902274072 0.0 0.0
16457.02042075922 48.68587559280965 4951.71188890561 1975.2214065865528 0.0 0.0
15428.052323547065 44.97113656353671 4641.90703803318 1937.3793398499913 0.0 0.0
14401.048884890546 24.77297311223208 4327.746557400835 1903.7691386106244 0.0 0.0
13373.679014987016 10.057701807170218 4015.1210150382562 1885.28355562869 0.0 0.0
12345.318539169652 2.7119407936909 3704.409143989002 1877.6943042594426 0.0 0.0
11316.516912706322 -0.29134008719147886 3394.8676717857406 1875.7266307694995 0.0 0.0
10287.778358697524 -1.4077306956582163 3085.91118840056 1876.1336817675544 0.0 0.0
9259.362463601194 -1.4192890049850462 2777.382952378862 1876.9980205210807 0.0 0.0
8231.497478122486 0.9679093316889933 2469.7396162362525 1875.9489210450688 0.0 0.0
7204.104357140713 9.730316283002288 2164.1504020271145 1867.6616415828978 0.0 0.0
6175.939476745327 33.834391531422796 1862.9321604830252 1840.1924511524899 0.0 0.0
5142.440122977774 86.42042582571996 1568.658164641048 1774.0314693965227 0.0 0.0
4049.2426460806714 166.882798032589 1264.837633233978 1642.1719005190319 0.0 0.0
2720.688136825188 335.3148078140712 916.8008833917778 1458.5539495406504 0.0 0.0
1378.60629249105 712.3334578913142 627.2819251147095 1654.3261530910465 0.0 0.0
1109.7036154389164 -1182.530266863212 -21.847995427288737 2541.338977443523 0.0 0.0
-3521.272524209381 -14880.90563092915 -5520.653446541559 2461.9660483308003 0.0 0.0
-2864.6788759652068 -12525.63546209475 -4617.094301417987 -2282.6056050160364 0.0 0.0
559.6756987277047 -1837.0467383955568 -383.2113119003555 -2643.8816980020542 0.0 0.0
855.8020023134244 552.7604472654311 422.5687348736567 -2092.3718828174074 0.0 0.0
1936.0304465353836 414.1214389118253 705.0455656341628 -1794.5275672638095 0.0 0.0
3108.087910087046 211.6079114221447 995.9087464527571 -1896.9827033733688 0.0 0.0
4068.1572585116332 104.57039560609978 1251.8182962353203 -2011.6144635352875 0.0 0.0
4928.844253501182 42.342701010313654 1491.356086353449 -2072.876202617825 0.0 0.0
5762.00296893702 12.331174441129583 1732.300243013445 -2098.899042036735 0.0 0.0
6586.695902905442 1.26571224513523 1976.3884845451742 -2107.080324488446 0.0 0.0
7409.078394605507 -1.7016601737608852 2222.2130203295237 -2108.246795820562 0.0 0.0
8231.396733265123 -1.7167655304037694 2468.9039903204166 -2107.537480839955 0.0 0.0
9053.934177734576 -0.3336266995012558 2716.0801653105227 -2107.2224374070884 0.0 0.0
9875.884752642156 3.378363360145549 2963.7789348006904 -2109.111884994966 0.0 0.0
10695.18181334365 12.41473903634872 3212.278965713999 -2116.197877984685 0.0 0.0
11508.586822181502 30.571573136759827 3461.7475185954795 -2133.4083417690763 0.0 0.0
12314.355784460193 55.93607364318403 3711.0875574310144 -2165.1917952439603 0.0 0.0
13118.274369861154 61.67166272384929 3953.9838097755014 -2202.4350279143473 0.0 0.0
13931.409034534217 -35.44386747937183 4168.789550116454 -2186.1194374416536 0.0 0.0
14723.617005899858 -377.7211885862273 4303.768745194089 -1951.5603231182872 0.0 0.0
15328.226768101063 -1008.4208722991741 4295.941768740567 -1241.9347974574837 0.0 0.0
15517.463489425281 -1464.0259273028491 4216.0312686367315 9.265477274311706e-11 0.0 0.0
15328.226768100689 -1008.4208723004283 4295.941768740078 1241.9347974576317 0.0 0.0
14723.617005900824 -377.72118858405247 4303.768745195031 1951.5603231181158 0.0 0.0
13931.409034533599 -35.44386748089123 4168.789550115812 2186.1194374415063 0.0 0.0
13118.27436986143 61.67166272448534 3953.9838097757756 2202.4350279141795 0.0 0.0
12314.355784459785 55.93607364224279 3711.087557430609 2165.1917952440895 0.0 0.0
11508.586822181624 30.571573136948928 3461.7475185955714 2133.4083417691672 0.0 0.0
10695.181813343741 12.414739036521397 3212.278965714079 2116.1978779847705 0.0 0.0
9875.884752642203 3.3783633602063503 2963.7789348007227 2109.1118849948543 0.0 0.0
9053.93417773402 -0.3336267009043752 2716.080165309935 2107.222437407023 0.0 0.0
8231.396733265117 -1.7167655303983196 2468.9039903204157 2107.5374808399924 0.0 0.0
7409.078394605514 -1.7016601737836865 2222.213020329519 2108.2467958205443 0.0 0.0
6586.695902905201 1.2657122444099045 1976.388484544883 2107.080324488407 0.0 0.0
5762.002968936281 12.331174439640705 1732.3002430127765 2098.899042036531 0.0 0.0
4928.844253501117 42.34270101039133 1491.3560863534526 2072.8762026179224 0.0 0.0
4068.15725851167 104.57039560622485 1251.8182962353687 2011.6144635352805 0.0 0.0
3108.087910087131 211.60791142230534 995.9087464528311 1896.9827033732647 0.0 0.0
1936.0304465353743 414.12143891175884 705.0455656341403 1794.527567263802 0.0 0.0
855.8020023134555 552.7604472655399 422.5687348736986 2092.371882817362 0.0 0.0
559.675698727612 -1837.0467383956088 -383.2113119003992 2643.8816980021866 0.0 0.0
-2864.678875965433 -12525.635462094868 -4617.09430141809 2282.605605015915 0.0 0.0
-2307.124983290711 -10480.219770737895 -3836.203426208582 -2091.1987414794467 0.0 0.0
182.3722781550436 -2204.152770731566 -606.5341477729569 -2667.234293832757 0.0 0.0
419.9788867229628 357.02006954881085 233.09968688153202 -2429.7376797468723 0.0 0.0
1231.2257918047721 447.84435111452956 503.7210428757905 -2100.45402370961 0.0 0.0
2198.9097677942545 251.6466786473674 735.1669339324865 -2122.586868175107 0.0 0.0
2998.8523195199896 122.14528931280194 936.2992826498376 -2206.45181622259 0.0 0.0
3681.8273744998414 49.775003388767516 1119.4807133665827 -2257.428276154518 0.0 0.0
4319.478878454921 14.795783529513493 1300.2823985953303 -2279.628372624662 0.0 0.0
4941.398670326884 1.5914634618312782 1482.8970401366148 -2286.8247766029335 0.0 0.0
5558.477195439547 -1.9404424122252095 1666.9610259081974 -2287.954283308708 0.0 0.0
6174.811482758605 -1.9788812072112023 1851.849780465418 -2287.4238756926206 0.0 0.0
6791.186633076598 -0.35973988730096806 2037.2480679567886 -2287.20000895241 0.0 0.0
7406.3713766315595 3.983412426058024 2223.1064367172867 -2288.8065287934082 0.0 0.0
8016.986997073143 14.493746820611435 2409.4442231681264 -2294.718090723348 0.0 0.0
8617.459791878515 35.66165626005804 2595.9364344415717 -2309.1403084860785 0.0 0.0
9203.916312426729 65.88992417593285 2780.9418709807983 -2336.6989128395758 0.0 0.0
9785.81142199269 74.6763374129451 2958.14632782169 -2371.9522246696956 0.0 0.0
10393.873207900124 -38.98513163992433 3106.46642287806 -2362.7134236754173 0.0 0.0
11033.227011434403 -461.17413553956396 3171.6158627684517 -2137.9367598237072 0.0 0.0
11548.58355342225 -1277.6712580556464 3081.273688609982 -1388.7168312673675 0.0 0.0
11686.951372292737 -1902.5368143580274 2935.324367380412 -6.792788553866558e-11 0.0 0.0
11548.583553422488 -1277.6712580554188 3081.2736886101216 1388.7168312673944 0.0 0.0
11033.227011433351 -461.1741355420751 3171.6158627673835 2137.9367598235235 0.0 0.0
10393.873207900366 -38.98513163914507 3106.466422878366 2362.7134236754173 0.0 0.0
9785.811421992888 74.67633741334862 2958.1463278218707 2371.952224669614 0.0 0.0
9203.916312426805 65.88992417612442 2780.941870980879 2336.698912839508 0.0 0.0
8617.459791878817 35.66165626069124 2595.9364344418523 2309.1403084861972 0.0 0.0
8016.986997072439 14.493746819004805 2409.444223167434 2294.718090723429 0.0 0.0
7406.37137663098 3.9834124248851808 2223.106436716759 2288.806528793372 0.0 0.0
6791.186633076463 -0.35973988762386 2037.248067956652 2287.2000089523644 0.0 0.0
6174.811482758327 -1.978881207884676 1851.849780465133 2287.4238756927666 0.0 0.0
5558.4771954390235 -1.9404424134588822 1666.9610259076692 2287.954283308778 0.0 0.0
4941.398670326832 1.5914634616815633 1482.897040136554 2286.8247766028385 0.0 0.0
4319.478878454501 14.795783528535537 1300.282398594911 2279.6283726245615 0.0 0.0
3681.827374499871 49.775003388916275 1119.4807133666363 2257.428276154674 0.0 0.0
2998.8523195199846 122.14528931267289 936.2992826497973 2206.451816222565 0.0 0.0
2198.9097677944756 251.64667864794924 735.1669339327274 2122.5868681751867 0.0 0.0
1231.2257918046635 447.8443511143017 503.7210428756897 2100.454023709599 0.0 0.0
419.9788867231256 357.0200695489915 233.09968688163514 2429.737679746853 0.0 0.0
182.37227815504804 -2204.1527707316236 -606.5341477729726 2667.2342938327433 0.0 0.0
-2307.1249832906738 -10480.219770737867 -3836.2034262085626 2091.1987414794385 0.0 0.0
-1847.6204728979233 -8698.473222089291 -3163.828108496165 -1906.324079859453 0.0 0.0
-86.126957465022 -2357.063938204509 -732.9572687008591 -2633.025252027221 0.0 0.0
45.230469427402674 166.80348001045112 63.61018483135615 -2665.726661209529 0.0 0.0
590.1357977614985 444.3551482735032 310.3472838105005 -2355.404783715812 0.0 0.0
1324.0642760462035 279.94688336550576 481.203347823513 -2311.4174466939708 0.0 0.0
1939.308268199316 137.14850789278276 622.9370328276297 -2357.419005684792 0.0 0.0
2436.576845097032 55.763100832010906 747.7019837787127 -2393.359306675533 0.0 0.0
2877.02337030765 16.793017772708318 868.1449164241075 -2409.7875359605896 0.0 0.0
3295.7599995876567 1.896835273348625 989.2970504583013 -2415.232745013129 0.0 0.0
3707.5479211224447 -2.1190072645613185 1111.628674157365 -2416.15412490765 0.0 0.0
4117.993232850365 -2.1784294841309872 1234.7444410098701 -2415.8088691522116 0.0 0.0
4528.292673989679 -0.3738860424642496 1358.3756363841646 -2415.663607772312 0.0 0.0
4936.92402273767 4.46225404817185 1482.4158830357526 -2416.8131654287668 0.0 0.0
5339.523356064818 16.097512526142346 1606.686260577288 -2421.0089819969726 0.0 0.0
5728.584055004827 39.56924986096632 1730.4459914597378 -2431.4087026170796 0.0 0.0
6098.03060763459 73.9949458618289 1851.6076660489255 -2452.6411594922133 0.0 0.0
6460.084645391271 87.22283626402682 1964.1922444965892 -2484.503244413767 0.0 0.0
6865.428087276289 -37.09484607532377 2048.4999723602896 -2487.781715004951 0.0 0.0
7359.299764492745 -535.0032061376768 2047.2889675065205 -2293.364944938101 0.0 0.0
7796.23358096142 -1562.3958041072801 1870.151333056242 -1532.0115285287454 0.0 0.0
7876.784965140616 -2409.1961804926764 1640.2766353943816 -1.8133050616597757e-11 0.0 0.0
7796.233580961303 -1562.3958041077458 1870.1513330560676 1532.011528528546 0.0 0.0
7359.299764491679 -535.0032061402583 2047.2889675054255 2293.3649449381433 0.0 0.0
6865.428087276274 -37.09484607537219 2048.4999723602714 2487.7817150051333 0.0 0.0
6460.084645390941 87.22283626326387 1964.1922444962609 2484.50324441366 0.0 0.0
6098.030607634729 73.99494586223119 1851.6076660490878 2452.6411594922974 0.0 0.0
5728.584055004768 39.56924986091454 1730.4459914597046 2431.4087026170387 0.0 0.0
5339.523356064042 16.097512524374416 1606.6862605765252 2421.008981996797 0.0 0.0
4936.9240227377495 4.462254048367257 1482.4158830358358 2416.8131654289555 0.0 0.0
4528.2926739900795 -0.3738860416650738 1358.3756363845248 2415.663607772408 0.0 0.0
4117.993232849947 -2.178429485071092 1234.744441009463 2415.8088691521634 0.0 0.0
3707.5479211223446 -2.119007264665882 1111.628674157304 2416.1541249077823 0.0 0.0
3295.759999587614 1.8968352734021892 989.2970504583047 2415.2327450131315 0.0 0.0
2877.023370307632 16.79301777262659 868.1449164240776 2409.787535960625 0.0 0.0
2436.576845097183 55.76310083228893 747.7019837788417 2393.3593066756202 0.0 0.0
1939.3082681994135 137.1485078930312 622.9370328277332 2357.4190056848106 0.0 0.0
1324.064276046314 279.9468833658661 481.20334782365416 2311.4174466940517 0.0 0.0
590.1357977614226 444.3551482735046 310.34728381047813 2355.404783715814 0.0 0.0
45.230469427497205 166.80348001069245 63.61018483145688 2665.726661209529 0.0 0.0
-86.12695746490573 -2357.063938204286 -732.9572687007574 2633.0252520272265 0.0 0.0
-1847.6204728978832 -8698.473222089293 -3163.828108496153 1906.3240798595348 0.0 0.0
-1475.4578958427187 -7139.262503016613 -2584.4161196577993 -1732.8672937339854 0.0 0.0
-287.00969409851837 -2355.969065269859 -792.8936278105134 -2555.3411909322945 0.0 0.0
-287.28167982387083 4.581792361250155 -84.8099662387862 -2807.242287351283 0.0 0.0
-1.699013063485829 414.9240894896213 123.96752292784065 -2547.0074459897132 0.0 0.0
481.99525101738664 293.6937754589207 232.7067079428922 -2455.5092959390236 0.0 0.0
892.3151325221555 147.5156674026841 311.949239977452 -2462.382755717607 0.0 0.0
1194.5719272683755 59.89306073551471 376.3394964011671 -2480.010285390993 0.0 0.0
1435.0654858961063 18.121180949345998 435.9560000536357 -2489.1802441187833 0.0 0.0
1649.8995462271507 2.120001008048888 495.60586417056 -2492.3090244728073 0.0 0.0
1856.2940764697444 -2.227361031647952 556.220014631429 -2492.875395970816 0.0 0.0
2060.923303221285 -2.304020822297275 617.5857847196964 -2492.7114780162906 0.0 0.0
2265.2688012955455 -0.3818430420141894 679.4660874760597 -2492.631836027951 0.0 0.0
2467.6509924812744 4.763633193274103 741.7243877023644 -2493.2002119041313 0.0 0.0
2663.1084147814036 17.084858568517895 804.0579820049765 -2495.308690796641 0.0 0.0
2842.6952781116415 41.945737552996555 865.392304699391 -2500.806015156944 0.0 0.0
2997.875195967712 79.49778015554037 923.2118928369756 -2513.939157077727 0.0 0.0
3141.6199968736173 98.61999417059018 972.0719973132623 -2540.6059992700953 0.0 0.0
3343.2741159794714 -27.596593850971743 994.7032566385496 -2560.7336396172323 0.0 0.0
3694.457219578749 -590.0927030538164 931.3093549574799 -2418.3676551404587 0.0 0.0
4061.364611829287 -1853.3061129902508 662.4175496517105 -1676.5021174027845 0.0 0.0
4069.7105836612436 -2995.449931431732 322.2781956688535 5.286437954055145e-12 0.0 0.0
4061.36461182844 -1853.3061129924606 662.4175496507935 1676.502117402615 0.0 0.0
3694.457219578335 -590.092703054863 931.3093549570418 2418.3676551404824 0.0 0.0
3343.274115978916 -27.59659385219483 994.7032566380166 2560.7336396171054 0.0 0.0
3141.619996873512 98.6199941702099 972.0719973131169 2540.6059992699693 0.0 0.0
2997.8751959676333 79.49778015526405 923.2118928368695 2513.9391570776893 0.0 0.0
2842.695278110801 41.94573755102707 865.3923046985485 2500.806015156865 0.0 0.0
2663.1084147815072 17.084858568703947 804.0579820050633 2495.308690796651 0.0 0.0
2467.6509924817465 4.763633194463175 741.724387702863 2493.2002119042454 0.0 0.0
2265.268801295285 -0.38184304238752276 679.4660874758696 2492.6318360279342 0.0 0.0
2060.923303221085 -2.304020822783066 617.5857847194907 2492.7114780162447 0.0 0.0
1856.2940764699463 -2.227361031361518 556.2200146315755 2492.8753959708542 0.0 0.0
1649.899546227521 2.120001008918212 495.6058641709318 2492.309024472775 0.0 0.0
1435.065485896009 18.121180949089887 435.9560000535297 2489.180244118893 0.0 0.0
1194.5719272684896 59.893060735787856 376.33949640128316 2480.0102853910307 0.0 0.0
892.3151325223757 147.5156674032717 311.9492399776942 2462.3827557175946 0.0 0.0
481.99525101725453 293.6937754587058 232.7067079427882 2455.5092959390586 0.0 0.0
-1.6990130633119094 414.9240894901101 123.96752292803947 2547.007445989741 0.0 0.0
-287.28167982388277 4.581792361222412 -84.80996623879807 2807.242287351269 0.0 0.0
-287.00969409839826 -2355.969065269642 -792.8936278104122 2555.341190932211 0.0 0.0
-1475.4578958426614 -7139.262503016603 -2584.4161196577793 1732.8672937339345 0.0 0.0
-1177.8450305098413 -5769.859440605021 -2084.3113413344586 -1569.67678515347 0.0 0.0
-446.5964715054451 -2248.0275378693696 -808.3872028124445 -2442.824464755849 0.0 0.0
-591.0302676301994 -119.66079009582002 -213.20731731780575 -2863.3621253615456 0.0 0.0
-556.3308523536414 370.2191124040855 -55.83352198486682 -2669.0278800058186 0.0 0.0
-330.8686211518548 292.9949660395338 -11.362096533696295 -2547.9715834658514 0.0 0.0
-141.09824154699814 151.8235888878925 3.217604202268319 -2518.597046286727 0.0 0.0
-43.17675623789498 61.754996782708304 5.573472163444052 -2516.510218097858 0.0 0.0
-6.0631870858233015 18.668936491119183 3.7817248215887744 -2517.5341659016913 0.0 0.0
3.8971729423163595 2.217763510683838 1.8344809359000749 -2518.0207599029563 0.0 0.0
4.721982823745208 -2.2631103012127127 0.7376617567597634 -2518.142072251106 0.0 0.0
3.591863846845797 -2.348117618950816 0.3731238683685234 -2518.1533607725255 0.0 0.0
2.1257602135808327 -0.3877559419908465 0.5214012814769546 -2518.133095829693 0.0 0.0
-1.384964458157583 4.85392561132592 1.0406883459505423 -2518.05901041739 0.0 0.0
-12.074551059349233 17.378120120256156 1.5910707182720074 -2517.9009732706086 0.0 0.0
-39.69135282486485 42.60318158164878 0.8735486270352624 -2518.035535642452 0.0 0.0
-95.46320550352664 81.7741702941874 -4.106710562801709 -2521.732648213198 0.0 0.0
-168.72513500199045 107.78756157707909 -18.281272027473335 -2540.7438275459026 0.0 0.0
-174.9446846455109 -9.150343626213214 -55.22850848151725 -2579.7006074976075 0.0 0.0
31.41453711612337 -616.3891316353042 -175.4923783557542 -2511.199345538926 0.0 0.0
335.0069111694997 -2138.018621230654 -540.9035130183463 -1826.6353845897347 0.0 0.0
246.05644948314955 -3679.1087664024826 -1029.9156950758002 7.298694981727749e-11 0.0 0.0
335.0069111686965 -2138.018621232562 -540.9035130191596 1826.6353845896851 0.0 0.0
31.41453711593897 -616.3891316354711 -175.49237835585964 2511.1993455390166 0.0 0.0
-174.94468464576573 -9.15034362651781 -55.22850848168514 2579.7006074976457 0.0 0.0
-168.72513500156668 107.78756157770613 -18.28127202715814 2540.7438275458726 0.0 0.0
-95.46320550345803 81.7741702941548 -4.106710562790951 2521.7326482132858 0.0 0.0
-39.691352825399406 42.6031815803743 0.8735486264924219 2518.0355356424348 0.0 0.0
-12.074551058818543 17.37812012133229 1.5910707187540538 2517.9009732706386 0.0 0.0
-1.384964457881125 4.853925611893196 1.0406883462036518 2518.0590104174153 0.0 0.0
2.125760213307558 -0.38775594257924695 0.5214012812184876 2518.133095829682 0.0 0.0
3.5918638470653548 -2.3481176182745784 0.3731238686371796 2518.15336077258 0.0 0.0
4.721982823741513 -2.2631103011523166 0.7376617567767454 2518.1420722511466 0.0 0.0
3.8971729426296804 2.217763511453793 1.8344809362250984 2518.0207599028536 0.0 0.0
-6.0631870862414985 18.668936490210115 3.7817248211905863 2517.5341659016913 0.0 0.0
-43.17675623793676 61.754996782666645 5.573472163419019 2516.5102180978643 0.0 0.0
-141.09824154718672 151.82358888751648 3.2176042020989186 2518.5970462866976 0.0 0.0
-330.8686211518864 292.9949660395626 -11.362096533697141 2547.971583465867 0.0 0.0
-556.3308523535923 370.2191124042279 -55.833521984809366 2669.027880005896 0.0 0.0
-591.0302676303703 -119.66079009622867 -213.20731731797957 2863.362125361522 0.0 0.0
-446.59647150545527 -2248.0275378693923 -808.3872028124542 2442.8244647558 0.0 0.0
-1177.845030509873 -5769.859440605072 -2084.3113413344836 1569.6767851533705 0.0 0.0
-943.0334026315046 -4566.426159498997 -1652.8378686391504 -1413.2122955870946 0.0 0.0
-581.3544340911238 -2069.2084463894835 -795.168864144182 -2300.462679815435 0.0 0.0
-875.3898272857668 -203.5949579095231 -323.6954355585869 -2842.9495833614096 0.0 0.0
-1083.3331385160502 318.7502543765537 -229.37486524184894 -2719.15216944335 0.0 0.0
-1118.9264307338408 279.60139199660085 -251.7975116211719 -2583.429150128252 0.0 0.0
-1161.2776173300576 149.49870920975337 -303.5336724360914 -2523.1514859216386 0.0 0.0
-1276.239384733904 61.07718161661758 -364.5486609351858 -2501.8196792485833 0.0 0.0
-1446.1818493022251 18.39352839999944 -428.33649627066774 -2494.533370013369 0.0 0.0
-1642.2103036341532 2.1747668470241166 -492.0106610361387 -2492.3152136432127 0.0 0.0
-1847.1646071467546 -2.227302254549919 -554.8175728203912 -2491.973899203543 0.0 0.0
-2054.0044007107417 -2.3077758741568672 -616.8936529754699 -2492.157735942995 0.0 0.0
-2261.13369578999 -0.3918758896333685 -678.457671503887 -2492.200453458897 0.0 0.0
-2470.169232280449 4.720301296322226 -739.6346792952379 -2491.492668079767 0.0 0.0
-2685.9906090009663 16.959962664626673 -800.7091939009024 -2489.0866299711843 0.0 0.0
-2918.3359806330736 41.53998811022069 -863.0387977568557 -2483.8571748036175 0.0 0.0
-3181.013515695073 80.4331748871052 -930.1741022423904 -2477.417169731273 0.0 0.0
-3469.51694741891 113.16465021081709 -1006.9056891624281 -2485.6658300437766 0.0 0.0
-3690.6751752625573 18.039909147684284 -1101.7905798344618 -2541.7068290497637 0.0 0.0
-3636.9389752069324 -603.2096077536283 -1272.0445748881684 -2567.2678015862252 0.0 0.0
-3390.762358407115 -2398.9870748962503 -1736.9248299910096 -1986.5238104740545 0.0 0.0
-3618.0558633093415 -4486.533242712571 -2431.3767318065743 6.849631972727366e-11 0.0 0.0
-3390.7623584070816 -2398.9870748960875 -1736.9248299909514 1986.5238104741293 0.0 0.0
-3636.9389752068005 -603.2096077531622 -1272.0445748879883 2567.2678015862257 0.0 0.0
-3690.6751752635278 18.039909145374963 -1101.790579835446 2541.706829050048 0.0 0.0
-3469.516947418758 113.16465021102505 -1006.9056891623202 2485.6658300439976 0.0 0.0
-3181.013515694529 80.4331748883859 -930.174102241843 2477.4171697310694 0.0 0.0
-2918.335980632166 41.53998811237351 -863.0387977559379 2483.857174803519 0.0 0.0
-2685.9906090015147 16.95996266339605 -800.7091939014356 2489.0866299711724 0.0 0.0
-2470.16923227986 4.720301297627856 -739.6346792946696 2491.492668079664 0.0 0.0
-2261.1336957898784 -0.39187588960972164 -678.4576715038465 2492.200453459014 0.0 0.0
-2054.0044007106044 -2.307775874010119 -616.8936529753843 2492.157735942991 0.0 0.0
-1847.164607146502 -2.2273022538986034 -554.81757282012 2491.973899203754 0.0 0.0
-1642.2103036342094 2.1747668468929042 -492.010661036195 2492.315213643169 0.0 0.0
-1446.1818493019423 18.39352840058035 -428.3364962704086 2494.5333700132314 0.0 0.0
-1276.239384734126 61.07718161607293 -364.5486609354159 2501.8196792486506 0.0 0.0
-1161.2776173298876 149.4987092101952 -303.53367243590776 2523.151485921694 0.0 0.0
-1118.926430733984 279.6013919963948 -251.7975116212768 2583.4291501283246 0.0 0.0
-1083.3331385161505 318.7502543763847 -229.37486524192965 2719.152169443354 0.0 0.0
-875.3898272858557 -203.59495790973767 -323.6954355586781 2842.949583361442 0.0 0.0
-581.3544340910373 -2069.2084463892797 -795.168864144095 2300.4626798154177 0.0 0.0
-943.0334026315655 -4566.42615949914 -1652.8378686392118 1413.2122955870452 0.0 0.0
-761.3597075309191 -3513.301356781322 -1282.398319293672 -1259.3164315959348 0.0 0.0
-701.0541043450964 -1846.4684575918754 -764.2567685810916 -2130.9441882954393 0.0 0.0
-1146.5255081806984 -249.35936305589817 -418.7654613709789 -2753.7239894902336 0.0 0.0
-1589.988435026412 266.5044102090149 -397.04520744521903 -2697.286063681978 0.0 0.0
-1886.718835345016 255.98722170375623 -489.219484092378 -2557.928850358877 0.0 0.0
-2169.5731780520046 140.76488120343498 -608.6424890545707 -2473.3003655114453 0.0 0.0
-2504.7755056782225 57.82747661931569 -734.084408717672 -2434.8348655392692 0.0 0.0
-2885.2996178535764 17.32122395921477 -860.3935181683088 -2419.848755084247 0.0 0.0
-3288.4330828924994 2.0015104493009304 -985.9294717329592 -2415.1371734784525 0.0 0.0
-3699.365437936569 -2.1214747875664486 -1110.44607381724 -2414.3895294332606 0.0 0.0
-4111.863350005452 -2.1851278174702813 -1234.2145433468768 -2414.748007213822 0.0 0.0
-4524.5160767779835 -0.3901596394278286 -1357.4718709252234 -2414.8659129136277 0.0 0.0
-4938.732917581243 4.37477894520574 -1480.307441590811 -2413.6042969122914 0.0 0.0
-5358.752411747033 15.861180356944423 -1602.8673694170266 -2409.1592986792834 0.0 0.0
-5793.34028190386 38.937103885727836 -1726.3209534054397 -2399.0146533278667 0.0 0.0
-6258.03527832444 75.4901266253965 -1854.7635455097136 -2382.633995534211 0.0 0.0
-6758.544166776469 112.8008308962468 -1993.7230007640674 -2376.818213189453 0.0 0.0
-7203.821080888815 51.31319547098092 -2145.7523656253516 -2443.112157012337 0.0 0.0
-7317.382301439081 -540.0985461436778 -2357.244254274828 -2578.2433387125825 0.0 0.0
-7122.337193221831 -2610.417097939761 -2919.8262873484764 -2159.458367685318 0.0 0.0
-7553.300820346199 -5455.770623098377 -3902.721433033373 -1.0669509720173664e-10 0.0 0.0
-7122.337193220377 -2610.4170979362516 -2919.82628734699 2159.4583676852203 0.0 0.0
-7317.382301439112 -540.0985461437748 -2357.244254274866 2578.243338712289 0.0 0.0
-7203.821080888088 51.313195472581654 -2145.7523656246526 2443.1121570123746 0.0 0.0
-6758.544166776388 112.80083089614777 -1993.7230007640726 2376.81821318966 0.0 0.0
-6258.0352783247945 75.49012662434254 -1854.7635455101358 2382.6339955342905 0.0 0.0
-5793.340281903466 38.93710388657801 -1726.3209534050661 2399.0146533277466 0.0 0.0
-5358.752411747259 15.861180356372508 -1602.8673694172658 2409.1592986793976 0.0 0.0
-4938.732917581363 4.374778944940438 -1480.3074415909273 2413.6042969123623 0.0 0.0
-4524.516076778151 -0.3901596397583411 -1357.4718709253725 2414.865912913837 0.0 0.0
-4111.863350005189 -2.1851278168908834 -1234.2145433466242 2414.7480072137855 0.0 0.0
-3699.365437936562 -2.1214747873636775 -1110.4460738171776 2414.3895294332747 0.0 0.0
-3288.433082892858 2.001510448585993 -985.929471733282 2415.137173478507 0.0 0.0
-2885.299617852957 17.321223960651963 -860.3935181676917 2419.8487550840127 0.0 0.0
-2504.77550567851 57.827476618721875 -734.0844087179364 2434.8348655391974 0.0 0.0
-2169.5731780515357 140.76488120448465 -608.6424890541152 2473.300365511511 0.0 0.0
-1886.718835345122 255.9872217036015 -489.21948409245607 2557.9288503588286 0.0 0.0
-1589.9884350263137 266.5044102093004 -397.0452074451041 2697.2860636821247 0.0 0.0
-1146.5255081807152 -249.35936305594495 -418.76546137099797 2753.7239894902746 0.0 0.0
-701.0541043450638 -1846.468457591723 -764.2567685810362 2130.9441882953456 0.0 0.0
-761.3597075309842 -3513.3013567814523 -1282.3983192937308 1259.3164315959561 0.0 0.0
-625.2965749447281 -2601.84771551531 -968.1432871380113 -1104.1278464981349 0.0 0.0
-810.6791522311552 -1599.7250627440458 -723.1212644925603 -1935.661396669941 0.0 0.0
-1407.960514385209 -261.6181884692859 -500.8736108563485 -2601.983489885628 0.0 0.0
-2081.5505423456084 217.1124743585221 -559.331420396126 -2604.317579463594 0.0 0.0
-2638.5852383046545 224.8077144038375 -724.133257170245 -2468.6233970573867 0.0 0.0
-3168.0530238763668 126.49918235226212 -912.4661524572315 -2366.658604839977 0.0 0.0
-3729.484487724434 52.25387478728819 -1103.169183881144 -2314.510544718119 0.0 0.0
-4323.62871101369 15.55379980812819 -1292.422473361668 -2293.175483750322 0.0 0.0
-4934.829602433819 1.7291118060251662 -1479.930147188338 -2286.444286479467 0.0 0.0
-5551.88206478339 -1.9474782578557495 -1666.1488629123737 -2285.410332253763 0.0 0.0
-6169.976397209531 -1.9874774387497922 -1851.5891623944842 -2285.946586458714 0.0 0.0
-6788.037315382796 -0.3768286850901532 -2036.5242432203659 -2286.1549603008298 0.0 0.0
-7407.148606312446 3.8595311816904285 -2220.986722539227 -2284.4828696452837 0.0 0.0
-8030.5978544440895 14.150343122371822 -2404.934253396515 -2278.390429940867 0.0 0.0
-8665.206638164016 35.09479223453147 -2589.0335537788455 -2264.157302738325 0.0 0.0
-9326.263012128908 67.57824576831186 -2777.6054299081775 -2239.143974904762 0.0 0.0
-10032.733675085066 104.80537250553377 -2978.37849077386 -2216.86408184625 0.0 0.0
-10711.84505235701 84.4619023446187 -3188.2149450037164 -2280.600489583864 0.0 0.0
-11016.046137951093 -418.79057043063756 -3430.451012514519 -2530.8462654605682 0.0 0.0
-10863.66292351909 -2733.652093907711 -4079.1945052280416 -2346.6379858682444 0.0 0.0
-11601.034217132637 -6640.857831118194 -5472.56761447525 9.57243173616007e-11 0.0 0.0
-10863.662923518597 -2733.6520939065044 -4079.194505227532 2346.6379858683995 0.0 0.0
-11016.046137951034 -418.7905704302059 -3430.4510125143715 2530.8462654605814 0.0 0.0
-10711.845052354398 84.46190235066041 -3188.2149450011225 2280.6004895837814 0.0 0.0
-10032.733675085758 104.80537250374329 -2978.378490774604 2216.8640818461017 0.0 0.0
-9326.263012129637 67.57824576648946 -2777.6054299089437 2239.1439749047076 0.0 0.0
-8665.206638164618 35.09479223280379 -2589.0335537795445 2264.157302738236 0.0 0.0
-8030.597854443417 14.150343123891332 -2404.9342533958584 2278.390429940885 0.0 0.0
-7407.148606312479 3.8595311816921267 -2220.9867225392363 2284.482869645182 0.0 0.0
-6788.037315382451 -0.3768286843825912 -2036.5242432200503 2286.1549603010226 0.0 0.0
-6169.976397209277 -1.9874774381257332 -1851.589162394221 2285.946586458665 0.0 0.0
-5551.882064783506 -1.9474782581720653 -1666.1488629125033 2285.410332253778 0.0 0.0
-4934.829602434142 1.7291118052868946 -1479.9301471886565 2286.444286479556 0.0 0.0
-4323.628711013361 15.553799808965683 -1292.4224733613182 2293.17548375026 0.0 0.0
-3729.484487724804 52.25387478629394 -1103.1691838815527 2314.510544718088 0.0 0.0
-3168.053023876188 126.4991823526858 -912.4661524570506 2366.658604839992 0.0 0.0
-2638.5852383047404 224.80771440376253 -724.1332571702935 2468.6233970573503 0.0 0.0
-2081.5505423454943 217.11247435887094 -559.331420395987 2604.3175794636186 0.0 0.0
-1407.960514385295 -261.61818846946005 -500.8736108564264 2601.983489885608 0.0 0.0
-810.6791522312243 -1599.7250627442581 -723.1212644926449 1935.661396669959 0.0 0.0
-625.2965749447015 -2601.847715515313 -968.1432871380044 1104.1278464983059 0.0 0.0
-528.972904006559 -1829.1432490203379 -707.4348459080692 -944.6721479939749 0.0 0.0
-911.4575298407547 -1343.5067571335353 -676.4892860922871 -1715.4799767900251 0.0 0.0
-1660.865641682631 -246.52414102657582 -572.2169348127618 -2392.548430249245 0.0 0.0
-2561.5059774505926 172.2371288398082 -716.7806545832356 -2441.198831676963 0.0 0.0
-3378.5615205608224 188.67167899114742 -956.9669524709026 -2313.40765796136 0.0 0.0
-4159.317327162266 108.08271235444354 -1215.3703844423464 -2201.3060170722933 0.0 0.0
-4951.528864713417 44.871258204003546 -1471.9972819528239 -2139.9752933097834 0.0 0.0
-5761.571136533935 13.268336290775721 -1724.4908400729482 -2114.2753431938922 0.0 0.0
-6581.501581995168 1.4030837231447606 -1974.029549481607 -2106.220808348752 0.0 0.0
-7404.7143978170925 -1.7097895565057826 -2221.9272562120796 -2105.0636582582783 0.0 0.0
-8228.3257207414 -1.7265536626850988 -2469.015682321225 -2105.7734715816687 0.0 0.0
-9051.72003536173 -0.34990233722739816 -2715.620981309687 -2106.0834387577333 0.0 0.0
-9875.530123856355 3.2468284182751574 -2961.6849886314253 -2104.1851403686455 0.0 0.0
-10701.845204527239 11.95058546664545 -3206.968385718179 -2097.0183071728547 0.0 0.0
-11534.84505172416 30.28947680280524 -3451.366672476407 -2079.8011524930707 0.0 0.0
-12386.316387613006 58.0666140197904 -3698.474932077964 -2048.511019694784 0.0 0.0
-13288.340228016454 88.42831166757838 -3959.973574904662 -2010.0950991158193 0.0 0.0
-14208.48341826694 106.72900440456836 -4230.526324158711 -2053.1898636545443 0.0 0.0
-14737.777032386144 -237.33901285528108 -4492.534813572429 -2405.503411507083 0.0 0.0
-14614.613262249062 -2710.35918782139 -5197.491735021136 -2544.227583520662 0.0 0.0
-15819.268012414366 -8117.321675417114 -7180.976906349446 -4.632738637155853e-11 0.0 0.0
-14614.613262249553 -2710.3591878225966 -5197.4917350216465 2544.227583520635 0.0 0.0
-14737.7770323861 -237.33901285478947 -4492.534813572267 2405.5034115071508 0.0 0.0
-14208.483418266283 106.72900440609357 -4230.526324158056 2053.1898636546866 0.0 0.0
-13288.340228017272 88.42831166557175 -3959.9735749055117 2010.0950991158613 0.0 0.0
-12386.316387612887 58.06661402000604 -3698.4749320778647 2048.511019694708 0.0 0.0
-11534.845051723978 30.289476802964664 -3451.3666724763034 2079.801152493159 0.0 0.0
-10701.845204527906 11.9505854651363 -3206.9683857188306 2097.018307172976 0.0 0.0
-9875.530123856159 3.24682841864945 -2961.684988631253 2104.185140368565 0.0 0.0
-9051.720035361315 -0.34990233637078205 -2715.6209813093064 2106.0834387578852 0.0 0.0
-8228.325720741706 -1.7265536632688558 -2469.015682321492 2105.7734715815304 0.0 0.0
-7404.71439781702 -1.7097895561449796 -2221.92725621195 2105.0636582582324 0.0 0.0
-6581.501581995593 1.4030837221707717 -1974.029549482027 2106.2208083488563 0.0 0.0
-5761.571136533604 13.268336291627634 -1724.490840072593 2114.275343193899 0.0 0.0
-4951.52886471373 44.871258203490235 -1471.9972819530722 2139.975293309766 0.0 0.0
-4159.317327162313 108.08271235417675 -1215.3703844424413 2201.306017072319 0.0 0.0
-3378.5615205607196 188.67167899123604 -956.9669524708455 2313.407657961337 0.0 0.0
-2561.505977450459 172.2371288400078 -716.7806545831356 2441.19883167695 0.0 0.0
-1660.8656416826786 -246.52414102677093 -572.2169348128349 2392.5484302492514 0.0 0.0
-911.4575298408242 -1343.5067571337158 -676.489286092362 1715.479976790036 0.0 0.0
-528.9729040064813 -1829.1432490202958 -707.4348459080333 944.67214799388 0.0 0.0
-467.2741725130456 -1196.5199440909896 -499.1382349812106 -779.4733967008609 0.0 0.0
-1001.2207885754387 -1088.3736074831095 -626.8783188175646 -1471.3796892585817 0.0 0.0
-1904.0952426504518 -211.34469541074174 -634.6319814183584 -2128.6533612366798 0.0 0.0
-3031.8236225387054 132.07575819997834 -869.9243593016187 -2208.20760209748 0.0 0.0
-4110.462544464477 150.15829144368277 -1188.0912759062385 -2090.608682723204 0.0 0.0
-5146.405766619977 87.27388346155004 -1517.7395649475275 -1975.8490510231268 0.0 0.0
-6172.445731338423 36.40990767493952 -1840.8107470990456 -1910.6271707859037 0.0 0.0
-7199.682923447195 10.705217431921596 -2156.6933118045818 -1883.0184552935068 0.0 0.0
-8228.581381862914 1.0757001623001656 -2468.2517045101845 -1874.4894356904706 0.0 0.0
-9257.855339157366 -1.419652820119957 -2777.7824975932454 -1873.3852855343491 0.0 0.0
-10286.88158364213 -1.417680732836267 -3086.4897793124887 -1874.2436319894525 0.0 0.0
-11315.583948075173 -0.3133568768954973 -3394.769191485621 -1874.657327041073 0.0 0.0
-12344.04017176069 2.61393624655274 -3702.4278706542405 -1872.721372821377 0.0 0.0
-13372.847535803681 9.509861200581064 -4009.001302380931 -1865.2095576429879 0.0 0.0
-14403.442710668516 24.61311773493709 -4313.648877880074 -1846.4015188054727 0.0 0.0
-15440.265936052914 48.73973304896835 -4617.457860901184 -1811.6239802380744 0.0 0.0
-16521.73732197835 66.0738085603503 -4936.699054025402 -1762.1622906904015 0.0 0.0
-17681.929100411653 102.84205647658825 -5273.726113180521 -1765.9667641454912 0.0 0.0
-18484.853901556962 -8.442760948454548 -5547.9889987516235 -2175.78997315639 0.0 0.0
-18368.235622742985 -2452.8325396650125 -6246.320448722398 -2736.6761194582477 0.0 0.0
-20292.028068424945 -9988.136525267046 -9084.049378107597 6.423306331271306e-11 0.0 0.0
-18368.23562274327 -2452.8325396658606 -6246.320448722739 2736.6761194582846 0.0 0.0
-18484.853901556966 -8.442760948268266 -5547.98899875157 2175.78997315622 0.0 0.0
-17681.92910041235 102.84205647483267 -5273.726113181254 1765.9667641454785 0.0 0.0
-16521.737321978555 66.07380856001708 -4936.699054025562 1762.1622906903244 0.0 0.0
-15440.265936052801 48.73973304910489 -4617.4578609011105 1811.623980238033 0.0 0.0
-14403.44271066841 24.61311773480235 -4313.64887788008 1846.4015188053982 0.0 0.0
-13372.847535804709 9.509861198489052 -4009.0013023818665 1865.2095576429576 0.0 0.0
-12344.04017176096 2.6139362459136564 -3702.4278706545138 1872.721372821417 0.0 0.0
-11315.583948075206 -0.3133568771266191 -3394.769191485701 1874.65732704108 0.0 0.0
-10286.881583642193 -1.417680732904671 -3086.4897793125297 1874.2436319892802 0.0 0.0
-9257.855339157482 -1.419652820326128 -2777.7824975933427 1873.385285534238 0.0 0.0
-8228.58138186278 1.0757001627509126 -2468.2517045100094 1874.4894356903937 0.0 0.0
-7199.682923447144 10.705217431992592 -2156.693311804546 1883.01845529342 0.0 0.0
-6172.445731337666 36.40990767655433 -1840.8107470983336 1910.6271707858925 0.0 0.0
-5146.405766620294 87.27388346086782 -1517.739564947828 1975.8490510232118 0.0 0.0
-4110.462544464428 150.15829144394192 -1188.091275906146 2090.60868272325 0.0 0.0
-3031.823622538602 132.07575820024735 -869.9243593015065 2208.2076020975906 0.0 0.0
-1904.0952426504466 -211.34469541071732 -634.6319814183491 2128.6533612367643 0.0 0.0
-1001.2207885754832 -1088.3736074831559 -626.8783188175918 1471.379689258654 0.0 0.0
-467.2741725130581 -1196.519944091018 -499.138234981223 779.473396700563 0.0 0.0
-434.37260501849266 -707.7364552410866 -342.63271807787385 -609.5042587814596 0.0 0.0
-1074.179646871846 -842.3620120260159 -574.9624976693585 -1205.0439327348581 0.0 0.0
-2133.9737886436596 -164.58126683118894 -689.5665166424544 -1811.5430556282863 0.0 0.0
-3493.22875909005 96.01665876518913 -1019.1636300974584 -1904.2935834257078 0.0 0.0
-4838.131261559391 112.01122682951254 -1417.836010418964 -1798.8052529339336 0.0 0.0
-6132.775751835857 66.09254415127046 -1820.0049623053753 -1689.475319044823 0.0 0.0
-7394.048712034638 27.742064461971694 -2209.8919942718003 -1626.2067565994482 0.0 0.0
-8638.621414779154 8.144258776836516 -2589.143146800696 -1599.4194989271339 0.0 0.0
-9876.212281543347 0.7954093539184228 -2962.625061656828 -1591.3197511632284 0.0 0.0
-11111.282208598815 -1.0982371395257786 -3333.714133721503 -1590.4204405661596 0.0 0.0
-12345.603105994713 -1.0852007533039796 -3704.006492024407 -1591.3654616826975 0.0 0.0
-13579.628556712787 -0.26072043813779544 -4073.966783145277 -1591.8660168988386 0.0 0.0
-14812.888508909782 1.9794048111275515 -4443.272731229596 -1590.0732494721008 0.0 0.0
-16044.02163102261 7.265758955304676 -4811.026761620191 -1582.9475732914161 0.0 0.0
-17272.08503974431 18.115596027165267 -5176.190833115143 -1564.515447327231 0.0 0.0
-18492.155956041508 40.40735295640124 -5535.524580925533 -1528.5196171932519 0.0 0.0
-19731.48670573129 46.058639555587376 -5905.62841985271 -1477.8466064276993 0.0 0.0
-21112.360721125722 56.9614411711968 -6316.619783986358 -1436.0086516225847 0.0 0.0
-22254.35193594303 224.133531906138 -6609.065521211068 -1812.06105036606 0.0 0.0
-22106.20958361483 -1831.5124665348685 -7181.316615044908 -2881.183610828558 0.0 0.0
-25144.204961239644 -12386.78736805921 -11259.297698789655 2.6943780540023e-11 0.0 0.0
-22106.209583615022 -1831.512466535513 -7181.31661504516 2881.1836108284197 0.0 0.0
-22254.351935943778 224.1335319044747 -6609.06552121179 1812.061050366031 0.0 0.0
-21112.360721125715 56.96144117126176 -6316.619783986336 1436.0086516225838 0.0 0.0
-19731.486705730815 46.05863955689989 -5905.628419852176 1477.846606427618 0.0 0.0
-18492.15595604113 40.407352957274526 -5535.524580925157 1528.519617193407 0.0 0.0
-17272.085039744874 18.115596025577837 -5176.190833115788 1564.515447327075 0.0 0.0
-16044.021631023434 7.265758953382273 -4811.026761621016 1582.947573291383 0.0 0.0
-14812.8885089099 1.9794048108162734 -4443.2727312297275 1590.073249472186 0.0 0.0
-13579.628556712489 -0.26072043730293437 -4073.966783144937 1591.8660168986767 0.0 0.0
-12345.603105994767 -1.0852007535736696 -3704.006492024502 1591.3654616826095 0.0 0.0
-11111.282208598812 -1.0982371399327384 -3333.7141337216235 1590.4204405661735 0.0 0.0
-9876.212281542757 0.7954093555934811 -2962.625061656149 1591.3197511632382 0.0 0.0
-8638.621414779418 8.144258776319772 -2589.1431468009287 1599.4194989273299 0.0 0.0
-7394.048712034152 27.742064462874495 -2209.891994271384 1626.2067565994469 0.0 0.0
-6132.775751835379 66.09254415228679 -1820.004962304928 1689.4753190449003 0.0 0.0
-4838.1312615595325 112.01122682903994 -1417.8360104191484 1798.805252934035 0.0 0.0
-3493.228759089968 96.01665876536109 -1019.1636300973821 1904.2935834256702 0.0 0.0
-2133.9737886436246 -164.5812668311222 -689.566516642424 1811.5430556282936 0.0 0.0
-1074.1796468718621 -842.362012026019 -574.9624976693646 1205.0439327350043 0.0 0.0
-434.3726050185439 -707.7364552411152 -342.6327180778977 609.5042587814007 0.0 0.0
-421.2243037343265 -366.3152030695145 -236.26185204115234 -439.92581023409866 0.0 0.0
-1120.1020830514847 -612.934962443528 -519.9111136485039 -919.4248301721883 0.0 0.0
-2343.817840928747 -116.41380474614658 -738.069493702468 -1439.4319487181729 0.0 0.0
-3945.5916316834423 63.622058130997075 -1164.5908720657333 -1526.515976783937 0.0 0.0
-5565.864301447827 77.41123486913045 -1646.5359199736095 -1436.8497268461495 0.0 0.0
-7122.310932577547 46.685158833599075 -2122.687732123184 -1342.0083317766146 0.0 0.0
-8618.31652668229 19.805005809645863 -2579.5534562617936 -1286.852371517815 0.0 0.0
-10079.081663812674 5.869209653450518 -3021.9637362477656 -1263.6637233307479 0.0 0.0
-11524.523015799994 0.5915772927396645 -3457.1794315521756 -1256.832664289272 0.0 0.0
-12964.945491935652 -0.7743243688089052 -3889.7159448913385 -1256.2197522821657 0.0 0.0
-14404.437626400122 -0.7766777281436106 -4321.56429123848 -1257.1481607741898 0.0 0.0
-15843.835115333077 -0.158113397502035 -4753.197968619174 -1257.6575241680284 0.0 0.0
-17282.243371819677 1.3128572639091942 -5184.279154366732 -1256.238186590253 0.0 0.0
-18716.081378072606 5.539792832651358 -5613.162475571989 -1249.979544675889 0.0 0.0
-20141.170556337187 11.968416122533043 -6038.760642064394 -1234.4962198685982 0.0 0.0
-21547.644289461576 30.146435939812093 -6455.249356056529 -1199.9541683308262 0.0 0.0
-22923.13193214653 43.16833697422704 -6863.989078551692 -1155.2553898590452 0.0 0.0
-24468.875469011393 -31.248575648365403 -7350.037213397928 -1097.5792816410085 0.0 0.0
-26032.532773969917 353.8497851796917 -7703.604896637066 -1301.3463913303099 0.0 0.0
-25791.704836551995 -663.8925299280189 -7936.679209944001 -2869.6572323824876 0.0 0.0
-30565.2078157918 -15465.52182421531 -13809.218892002133 -1.1254996934439987e-11 0.0 0.0
-25791.704836552253 -663.89252992865 -7936.679209944273 2869.65723238251 0.0 0.0
-26032.532773971558 353.84978517586126 -7703.604896638707 1301.3463913302862 0.0 0.0
-24468.875469011153 -31.248575647855425 -7350.037213397704 1097.5792816410517 0.0 0.0
-22923.131932146054 43.16833697542695 -6863.989078551187 1155.2553898591368 0.0 0.0
-21547.644289461416 30.146435940284803 -6455.249356056341 1199.9541683308535 0.0 0.0
-20141.170556337245 11.968416122287563 -6038.760642064491 1234.4962198685198 0.0 0.0
-18716.08137807305 5.539792831753601 -5613.162475572387 1249.979544676051 0.0 0.0
-17282.24337181998 1.3128572633813036 -5184.279154366979 1256.2381865904745 0.0 0.0
-15843.835115332491 -0.1581133961818626 -4753.197968618602 1257.6575241679502 0.0 0.0
-14404.437626399967 -0.7766777280044366 -4321.564291238394 1257.1481607743196 0.0 0.0
-12964.945491935776 -0.7743243691767594 -3889.7159448914863 1256.2197522822617 0.0 0.0
-11524.52301580014 0.5915772925059801 -3457.1794315522893 1256.8326642893364 0.0 0.0
-10079.08166381267 5.869209653289457 -3021.9637362478156 1263.6637233310053 0.0 0.0
-8618.316526682285 19.805005809399752 -2579.5534562618664 1286.8523715178185 0.0 0.0
-7122.310932577141 46.68515883440797 -2122.6877321228194 1342.0083317766062 0.0 0.0
-5565.864301447979 77.41123486882418 -1646.5359199737468 1436.84972684618 0.0 0.0
-3945.591631683393 63.62205813111982 -1164.590872065682 1526.515976783859 0.0 0.0
-2343.817840928744 -116.41380474623632 -738.0694937024941 1439.431948718177 0.0 0.0
-1120.102083051533 -612.9349624437122 -519.9111136485736 919.4248301721191 0.0 0.0
-421.22430373423555 -366.31520306941644 -236.26185204109555 439.9258102341543 0.0 0.0
-411.01942034084476 -171.14694468528594 -174.6499095078392 -283.44580790888944 0.0 0.0
-1122.77309001281 -410.37937176043283 -459.9457385319729 -619.2055730796619 0.0 0.0
-2523.161249333411 -79.14035995203895 -780.6904827856349 -1005.1919165323285 0.0 0.0
-4388.6063419986785 36.27604145955898 -1305.6990901617362 -1069.8593314302068 0.0 0.0
-6299.037990175831 50.09198743117114 -1874.6838008233972 -1004.1080075119992 0.0 0.0
-8119.286059161852 31.178386091814865 -2426.432301921011 -933.9466342531617 0.0 0.0
-9847.270756799731 13.534303572247204 -2950.1209359682457 -893.1528902189998 0.0 0.0
-11521.728185799042 4.113951209885542 -3455.2842703767483 -876.115091356108 0.0 0.0
-13173.591689618906 0.4665812680501489 -3951.9375325052583 -871.1979531554805 0.0 0.0
-14818.771839816134 -0.5017497794753893 -4445.782076878682 -870.8401962015105 0.0 0.0
-16463.28160556853 -0.5139755209564072 -4939.138674326847 -871.5824437259117 0.0 0.0
-18108.25943167024 -0.10816120077434732 -5432.510277861305 -872.0059526823056 0.0 0.0
-19751.990521082884 0.993886170600959 -5925.298990473684 -870.9956918933862 0.0 0.0
-21390.286698953052 3.389946968933856 -6416.069025595238 -866.5421778193041 0.0 0.0
-23010.788837085365 10.194482178511507 -6900.178306472057 -854.4657569973671 0.0 0.0
-24609.768062096366 11.944892184078256 -7379.346950973689 -831.4473309932727 0.0 0.0
-26119.991997942467 62.516316673822 -7817.242704380593 -781.6461738951264 0.0 0.0
-27706.610640112434 -95.7005213359224 -8340.693348434508 -784.0629598125067 0.0 0.0
-29782.07817393551 153.0754728461361 -8888.700810326813 -727.2428025580753 0.0 0.0
-29359.647348229657 1273.7304145155003 -8425.775080114248 -2428.0589812898393 0.0 0.0
-36845.708298326426 -19327.891375398172 -16852.079902117377 -3.672084858408198e-11 0.0 0.0
-29359.647348230035 1273.730414514462 -8425.77508011467 2428.058981289797 0.0 0.0
-29782.07817393632 153.07547284407318 -8888.700810327675 727.2428025580491 0.0 0.0
-27706.610640112398 -95.7005213359149 -8340.693348434494 784.0629598126728 0.0 0.0
-26119.99199794198 62.516316674961615 -7817.242704380107 781.6461738950532 0.0 0.0
-24609.768062096624 11.94489218354262 -7379.346950973925 831.4473309933986 0.0 0.0
-23010.78883708569 10.194482177612189 -6900.178306472423 854.4657569975452 0.0 0.0
-21390.28669895273 3.3899469697480527 -6416.069025594892 866.5421778193104 0.0 0.0
-19751.990521083062 0.9938861703616748 -5925.2989904738115 870.9956918933422 0.0 0.0
-18108.25943166946 -0.10816119901950216 -5432.510277860544 872.005952682246 0.0 0.0
-16463.2816055683 -0.5139755205191863 -4939.138674326648 871.5824437260351 0.0 0.0
-14818.771839816343 -0.5017497798098811 -4445.782076878846 870.8401962014775 0.0 0.0
-13173.591689619781 0.4665812661526667 -3951.9375325060887 871.1979531556585 0.0 0.0
-11521.728185798902 4.11395121011217 -3455.2842703766364 876.1150913561006 0.0 0.0
-9847.270756799644 13.534303572438354 -2950.1209359681625 893.1528902188649 0.0 0.0
-8119.286059161819 31.178386091912362 -2426.432301920971 933.9466342532128 0.0 0.0
-6299.037990175666 50.09198743175468 -1874.6838008231732 1004.1080075120054 0.0 0.0
-4388.606341998915 36.276041459263105 -1305.6990901618956 1069.8593314301904 0.0 0.0
-2523.1612493335465 -79.14035995215309 -780.6904827857102 1005.1919165323591 0.0 0.0
-1122.773090012963 -410.3793717606022 -459.9457385320694 619.2055730796272 0.0 0.0
-411.01942034085204 -171.14694468524002 -174.64990950782766 283.44580790896526 0.0 0.0
-370.40872344303347 -108.56931632970806 -143.69341193182242 -166.947048705473 0.0 0.0
-1057.4855962723161 -254.66060515501584 -393.6438604281997 -310.8995274148007 0.0 0.0
-2656.6363900136507 -66.66194780098955 -816.989501344392 -491.32023496008134 0.0 0.0
-4823.094779023961 20.026854597024283 -1440.920377328081 -528.6352741549534 0.0 0.0
-7044.9438140178245 33.65866087816083 -2103.3855459419 -500.47633119522027 0.0 0.0
-9128.141866500528 21.77946030982303 -2731.9087218572113 -466.6263970310872 0.0 0.0
-11082.896520979988 9.711026658144242 -3321.955648296553 -446.1591094874156 0.0 0.0
-12967.099895097099 3.02629945145398 -3889.222078693693 -437.3129637592209 0.0 0.0
-14823.420727564127 0.3760568980578256 -4446.91340119982 -434.6253861989349 0.0 0.0
-16672.636930654804 -0.34453801152314156 -5001.894440599897 -434.3355892181155 0.0 0.0
-18522.05045238063 -0.36207835935336163 -5556.723759221994 -434.6570425106271 0.0 0.0
-20372.758401140854 -0.06950872068354386 -6111.84837295846 -434.8344318630359 0.0 0.0
-22222.647488924733 0.7033881721701647 -6666.5832302257695 -434.25132053426006 0.0 0.0
-24065.422633526538 2.580353783215614 -7218.852683922999 -431.9678501886264 0.0 0.0
-25888.910504692227 6.369680108668803 -7764.762247375069 -425.6461089858873 0.0 0.0
-27660.416710092137 15.111437092571464 -8293.591581899871 -414.22597615453947 0.0 0.0
-29387.98294980442 8.63159459349076 -8813.80540656328 -393.1576996669344 0.0 0.0
-30767.778929259726 142.5239688609845 -9187.576488119623 -365.485982129931 0.0 0.0
-33409.34464588464 -817.1443304769014 -10267.946692908461 -576.4262503352669 0.0 0.0
-32711.21160282704 4118.574011596249 -8577.791277369237 -822.7012462282436 0.0 0.0
-44427.762088571704 -23760.299911486756 -20456.418600017536 -3.5697667044587433e-11 0.0 0.0
-32711.211602827036 4118.574011596281 -8577.79127736923 822.7012462284214 0.0 0.0
-33409.34464588528 -817.1443304783425 -10267.946692909089 576.4262503352528 0.0 0.0
-30767.778929259992 142.5239688601808 -9187.576488119948 365.485982129911 0.0 0.0
-29387.982949802987 8.631594596776313 -8813.805406561862 393.15769966685616 0.0 0.0
-27660.416710091817 15.111437092925994 -8293.59158189967 414.225976154558 0.0 0.0
-25888.91050469263 6.369680107882971 -7764.762247375424 425.646108986144 0.0 0.0
-24065.42263352637 2.5803537840025808 -7218.852683922711 431.96785018867115 0.0 0.0
-22222.647488924744 0.7033881720769273 -6666.5832302257995 434.2513205343143 0.0 0.0
-20372.758401140483 -0.06950872011848919 -6111.84837295818 434.8344318631467 0.0 0.0
-18522.050452380474 -0.3620783593127366 -5556.723759221934 434.65704251060504 0.0 0.0
-16672.63693065491 -0.3445380117813288 -5001.894440600007 434.3355892180656 0.0 0.0
-14823.420727564753 0.3760568968855118 -4446.913401200362 434.6253861990013 0.0 0.0
-12967.099895096884 3.0262994520244977 -3889.2220786934595 437.3129637590912 0.0 0.0
-11082.896520979966 9.711026657906007 -3321.9556482966186 446.1591094873884 0.0 0.0
-9128.14186650057 21.779460309802776 -2731.9087218572304 466.62639703111995 0.0 0.0
-7044.943814017957 33.65866087804013 -2103.385545941976 500.47633119515655 0.0 0.0
-4823.094779023994 20.02685459678996 -1440.9203773281613 528.6352741549857 0.0 0.0
-2656.6363900134716 -66.66194780075055 -816.9895013442667 491.3202349601038 0.0 0.0
-1057.4855962722063 -254.6606051547013 -393.6438604280723 310.89952741488804 0.0 0.0
-370.4087234431929 -108.56931632982449 -143.69341193190522 166.94704870561702 0.0 0.0
-192.77398985190248 -45.830517118599886 -71.58135209115072 -111.87446685945073 0.0 0.0
-861.6223246040119 -130.8230900628592 -297.7336244000613 -131.40038238615256 0.0 0.0
-2713.9406409529884 -70.26076931753335 -835.2604230811567 -167.22619287626577 0.0 0.0
-5309.535971790541 -100.34990682315782 -1622.9657635841095 -186.45122524435226 0.0 0.0
-7901.768357015583 -176.98992262733316 -2423.6274838928753 -185.031104043067 0.0 0.0
-10270.864393237494 -253.1459497696111 -3157.203102902132 -176.42094819396542 0.0 0.0
-12467.621330783757 -319.3652704243657 -3836.095980362437 -169.84127542312262 0.0 0.0
-14578.636995745695 -377.9581047989467 -4486.978530163393 -166.44667234644157 0.0 0.0
-16659.55342928002 -432.970086588004 -5127.757054760408 -165.14649134016167 0.0 0.0
-18734.864810057996 -486.86118625478497 -5766.517798893833 -164.81930562702752 0.0 0.0
-20812.14953262139 -540.6480479728608 -6405.839274178275 -164.80725067570495 0.0 0.0
-22892.03463369846 -594.4654726279005 -7045.950031897911 -164.78101790541803 0.0 0.0
-24972.07279430684 -648.3408006073898 -7686.12407847427 -164.44487890127402 0.0 0.0
-27044.55741380573 -700.4427794867531 -8323.500057987745 -163.53994264115136 0.0 0.0
-29095.40602158422 -754.1132144373719 -8954.855770806476 -161.36049868001805 0.0 0.0
-31079.391033856245 -784.5663638013931 -9559.187219297293 -157.14391299561714 0.0 0.0
-32977.00143148124 -884.6793836731166 -10158.504244546304 -161.42933938290025 0.0 0.0
-34525.064627077314 -584.3736263823844 -10532.831476037913 -109.83620134725425 0.0 0.0
-36117.84645526448 -1969.7695439402708 -11426.28479976143 -539.3120123402916 0.0 0.0
-36872.9629278817 4677.768489734713 -9658.558331444097 -2.4280110426598185 0.0 0.0
-54524.43656819791 -28593.672040198988 -24935.432582519075 -1.1095835361629725e-10 0.0 0.0
-36872.96292788065 4677.768489737297 -9658.558331443008 2.4280110425672774 0.0 0.0
-36117.84645526623 -1969.7695439441713 -11426.284799763125 539.3120123402066 0.0 0.0
-34525.0646270776 -584.3736263833595 -10532.83147603829 109.83620134720013 0.0 0.0
-32977.00143147948 -884.6793836695035 -10158.5042445447 161.42933938268902 0.0 0.0
-31079.391033855347 -784.5663637997834 -9559.18721929654 157.14391299539534 0.0 0.0
-29095.40602158422 -754.1132144370127 -8954.855770806369 161.3604986803025 0.0 0.0
-27044.557413805265 -700.442779484938 -8323.500057987061 163.5399426413344 0.0 0.0
-24972.072794306823 -648.3408006075748 -7686.12407847432 164.44487890110258 0.0 0.0
-22892.034633698888 -594.4654726295723 -7045.950031898539 164.78101790564688 0.0 0.0
-20812.149532620937 -540.6480479721416 -6405.839274177924 164.80725067569585 0.0 0.0
-18734.86481005842 -486.86118625560596 -5766.517798894209 164.81930562705634 0.0 0.0
-16659.553429280168 -432.9700865879802 -5127.757054760444 165.1464913400962 0.0 0.0
-14578.636995745146 -377.95810479783864 -4486.978530162895 166.446672346269 0.0 0.0
-12467.621330783919 -319.3652704252642 -3836.0959803627547 169.84127542327565 0.0 0.0
-10270.864393237729 -253.14594977008827 -3157.2031029023456 176.42094819396834 0.0 0.0
-7901.768357016166 -176.9899226284452 -2423.627483893384 185.03110404321274 0.0 0.0
-5309.535971790402 -100.3499068229467 -1622.9657635840044 186.45122524445605 0.0 0.0
-2713.9406409528224 -70.26076931715943 -835.2604230809948 167.22619287635476 0.0 0.0
-861.6223246038617 -130.8230900624219 -297.73362439988506 131.40038238615784 0.0 0.0
-192.77398985197794 -45.83051711872375 -71.58135209121049 111.87446685952219 0.0 0.0
SCALARS Strain float 6
LOOKUP_TABLE default
0.04994341059257301 -0.1240632994967684 0.0 -0.008348016026443394 0.0 0.0
0.044478679128729756 0.00967116338338041 0.0 -0.012967247034807214 0.0 0.0
0.035154199914964455 -0.0175181258861475 0.0 -0.005545945179039629 0.0 0.0
0.03352356179284223 -0.012213605587815726 0.0 -0.0008259953606275954 0.0 0.0
0.039375796706089726 -0.016091716812469577 0.0 -0.0019036823217050405 0.0 0.0
0.0473075816856211 -0.019167424119869297 0.0 -0.0019616720260595927 0.0 0.0
0.05620003225486256 -0.02287923923346946 0.0 -0.0020801148680539066 0.0 0.0
0.06545767847214964 -0.026648085003504164 0.0 -0.0021251843934220888 0.0 0.0
0.07482626348337863 -0.03046769973897502 0.0 -0.002141210846550921 0.0 0.0
0.08421260119000798 -0.034288486303808166 0.0 -0.0021453819644244535 0.0 0.0
0.09358862070847913 -0.03810544968803064 0.0 -0.0021453817025887762 0.0 0.0
0.1029530147559232 -0.041917542693354334 0.0 -0.002145856823068107 0.0 0.0
0.11231788254978214 -0.04572913791845945 0.0 -0.002150036213138409 0.0 0.0
0.12171598253493826 -0.049551441189530226 0.0 -0.0021623482861882854 0.0 0.0
0.13121999072623594 -0.053410736924796615 0.0 -0.0021875560787045414 0.0 0.0
0.14095439209392918 -0.05735535040610987 0.0 -0.002223304343184151 0.0 0.0
0.15104396360343722 -0.06144145098888676 0.0 -0.0022394921995804898 0.0 0.0
0.16139874197191173 -0.06565561917594907 0.0 -0.0021466637455278713 0.0 0.0
0.17127429409037565 -0.06973447979178342 0.0 -0.001790491951847778 0.0 0.0
0.17886873040739232 -0.07295182338949743 0.0 -0.001047424161845092 0.0 0.0
0.181796429399108 -0.07422763504061701 0.0 7.641456911677835e-16 0.0 0.0
0.1788687304073935 -0.07295182338950448 0.0 0.0010474241618427093 0.0 0.0
0.17127429409037473 -0.06973447979177694 0.0 0.0017904919518422682 0.0 0.0
0.16139874197191006 -0.06565561917596113 0.0 0.0021466637455281523 0.0 0.0
0.15104396360343714 -0.0614414509888911 0.0 0.0022394921995826282 0.0 0.0
0.14095439209392968 -0.05735535040611062 0.0 0.002223304343184111 0.0 0.0
0.13121999072623564 -0.05341073692480397 0.0 0.0021875560787038787 0.0 0.0
0.12171598253493773 -0.049551441189541995 0.0 0.0021623482861858325 0.0 0.0
0.1123178825497822 -0.04572913791845596 0.0 0.0021500362131375494 0.0 0.0
0.10295301475592361 -0.041917542693354945 0.0 0.002145856823068327 0.0 0.0
0.09358862070847927 -0.03810544968803622 0.0 0.0021453817025906463 0.0 0.0
0.08421260119000785 -0.0342884863038055 0.0 0.002145381964423645 0.0 0.0
0.07482626348337854 -0.03046769973897733 0.0 0.002141210846551473 0.0 0.0
0.06545767847214926 -0.02664808500350857 0.0 0.002125184393416766 0.0 0.0
0.056200032254862364 -0.022879239233468414 0.0 0.0020801148680569402 0.0 0.0
0.04730758168562155 -0.01916742411987009 0.0 0.001961672026057589 0.0 0.0
0.03937579670608953 -0.01609171681246494 0.0 0.0019036823217064122 0.0 0.0
0.0335235617928417 -0.012213605587815438 0.0 0.000825995360627711 0.0 0.0
0.03515419991496422 -0.017518125886150645 0.0 0.005545945179042857 0.0 0.0
0.04447867912872971 0.009671163383380893 0.0 0.012967247034804947 0.0 0.0
0.049943410592572866 -0.12406329949676907 0.0 0.0083480160264452 0.0 0.0
0.03109987177360904 -0.11531514362697654 0.0 -0.005704796742996006 0.0 0.0
0.026312804118387642 0.008381985218642736 0.0 -0.010338980510273103 0.0 0.0
0.025261508474457108 -0.013585183107591244 0.0 -0.003876404077949397 0.0 0.0
0.030397250432649722 -0.01205195471759944 0.0 -0.00320851002842967 0.0 0.0
0.03530956526042774 -0.01501156564763172 0.0 -0.0046260077183670435 0.0 0.0
0.04267035147970584 -0.01819090024266604 0.0 -0.005240383529173245 0.0 0.0
0.05063375361040952 -0.021667947172479673 0.0 -0.005515837404771602 0.0 0.0
0.0589433438513301 -0.02525158139482305 0.0 -0.005628599652223655 0.0 0.0
0.06735709379320941 -0.02886629609585628 0.0 -0.0056595570409517905 0.0 0.0
0.07579620593084661 -0.03248540287355917 0.0 -0.005662726368174404 0.0 0.0
0.0842320316516301 -0.03610077268307235 0.0 -0.005658409344688511 0.0 0.0
0.0926614319027747 -0.0397122461919431 0.0 -0.0056562877721746405 0.0 0.0
0.10109438070747172 -0.04332332762748943 0.0 -0.005664131729413683 0.0 0.0
0.109558384383141 -0.04694355427921111 0.0 -0.00569567321424886 0.0 0.0
0.11811070510203078 -0.050595283904184246 0.0 -0.005772452973179022 0.0 0.0
0.12684044130834546 -0.05432014581374115 0.0 -0.005908461098267069 0.0 0.0
0.13581378976539005 -0.05816760703608728 0.0 -0.006053829064778663 0.0 0.0
0.14488760051443816 -0.062127653758371884 0.0 -0.005985041315879411 0.0 0.0
0.15336737740369275 -0.06596802010703975 0.0 -0.005217202104849947 0.0 0.0
0.15975250402981514 -0.06902582250503371 0.0 -0.0031971556228871894 0.0 0.0
0.16218035259182212 -0.07026015123130161 0.0 1.0863705768304754e-15 0.0 0.0
0.15975250402981558 -0.06902582250503768 0.0 0.0031971556228889654 0.0 0.0
0.1533673774036923 -0.06596802010703978 0.0 0.005217202104850094 0.0 0.0
0.1448876005144377 -0.06212765375838891 0.0 0.005985041315877721 0.0 0.0
0.1358137897653896 -0.05816760703608702 0.0 0.00605382906477991 0.0 0.0
0.12684044130834532 -0.054320145813742886 0.0 0.005908461098266698 0.0 0.0
0.11811070510203034 -0.050595283904190796 0.0 0.005772452973178501 0.0 0.0
0.10955838438314042 -0.04694355427921526 0.0 0.005695673214249207 0.0 0.0
0.10109438070747163 -0.043323327627493954 0.0 0.005664131729414766 0.0 0.0
0.09266143190277484 -0.03971224619194566 0.0 0.005656287772174515 0.0 0.0
0.08423203165163042 -0.03610077268307373 0.0 0.00565840934468953 0.0 0.0
0.07579620593084666 -0.03248540287355894 0.0 0.005662726368173044 0.0 0.0
0.06735709379320888 -0.0288662960958547 0.0 0.005659557040950874 0.0 0.0
0.05894334385133011 -0.025251581394826247 0.0 0.00562859965222297 0.0 0.0
0.05063375361040993 -0.0216679471724804 0.0 0.005515837404772973 0.0 0.0
0.04267035147970569 -0.01819090024266738 0.0 0.005240383529171404 0.0 0.0
0.03530956526042757 -0.0150115656476302 0.0 0.004626007718367518 0.0 0.0
0.03039725043264977 -0.012051954717602136 0.0 0.0032085100284287345 0.0 0.0
0.025261508474457194 -0.013585183107592052 0.0 0.003876404077951278 0.0 0.0
0.026312804118387902 0.008381985218643142 0.0 0.010338980510272686 0.0 0.0
0.03109987177360943 -0.11531514362697699 0.0 0.005704796742996239 0.0 0.0
0.022306591084543036 -0.09882451590502392 0.0 -0.026273160741221428 0.0 0.0
0.0169458125228154 0.004589150810184529 0.0 -0.01869618015356712 0.0 0.0
0.017401083127645323 -0.006963292570605133 0.0 -0.0026285812903837267 0.0 0.0
0.02570638024679592 -0.010857252660136 0.0 -0.007401524849104722 0.0 0.0
0.031275969965146304 -0.013027239410603334 0.0 -0.009211030173046891 0.0 0.0
0.037871235812263565 -0.016136790094077758 0.0 -0.010556698541260928 0.0 0.0
0.0450363283421758 -0.019250083242682733 0.0 -0.011082652651234435 0.0 0.0
0.05241334520411099 -0.022450162092164463 0.0 -0.011295204645457817 0.0 0.0
0.059885982111914024 -0.025663926686041064 0.0 -0.011352309620199516 0.0 0.0
0.06738078578129901 -0.028879381364269312 0.0 -0.011355612650521544 0.0 0.0
0.07487673152973448 -0.032091918526952264 0.0 -0.011345851076040941 0.0 0.0
0.0823697333969148 -0.0353016532290238 0.0 -0.01134058548065851 0.0 0.0
0.08986696508217 -0.03851055926008145 0.0 -0.011354603212806973 0.0 0.0
0.09738839872180628 -0.04172394008141602 0.0 -0.01141514643806128 0.0 0.0
0.10497437136662513 -0.04495560988641071 0.0 -0.011567308759306286 0.0 0.0
0.11268464176612075 -0.04823529496275609 0.0 -0.011846435106848905 0.0 0.0
0.12055350805911352 -0.051607515861706664 0.0 -0.012167814097154709 0.0 0.0
0.12844198871762896 -0.05508964476186386 0.0 -0.012098171510486179 0.0 0.0
0.13576387619577274 -0.05853759706638362 0.0 -0.010642574202441895 0.0 0.0
0.14126494880881618 -0.0614044771728286 0.0 -0.006587378588820846 0.0 0.0
0.14335831931200602 -0.06262800919263634 0.0 -6.418476861114186e-17 0.0 0.0
0.141264948808816 -0.061404477172826016 0.0 0.006587378588820906 0.0 0.0
0.13576387619577265 -0.05853759706638889 0.0 0.010642574202442773 0.0 0.0
0.12844198871762905 -0.055089644761876215 0.0 0.012098171510483927 0.0 0.0
0.12055350805911313 -0.05160751586170407 0.0 0.012167814097154506 0.0 0.0
0.11268464176612024 -0.048235294962756976 0.0 0.011846435106847554 0.0 0.0
0.10497437136662519 -0.04495560988641515 0.0 0.011567308759308104 0.0 0.0
0.09738839872180621 -0.04172394008141419 0.0 0.011415146438059378 0.0 0.0
0.08986696508217032 -0.038510559260084086 0.0 0.01135460321280472 0.0 0.0
0.08236973339691529 -0.03530165322902644 0.0 0.011340585480658829 0.0 0.0
0.07487673152973459 -0.03209191852694846 0.0 0.011345851076040189 0.0 0.0
0.06738078578129901 -0.028879381364269978 0.0 0.011355612650521877 0.0 0.0
0.059885982111914066 -0.025663926686038337 0.0 0.011352309620200304 0.0 0.0
0.05241334520411111 -0.022450162092167214 0.0 0.011295204645458738 0.0 0.0
0.045036328342175795 -0.019250083242681605 0.0 0.01108265265123427 0.0 0.0
0.03787123581226389 -0.01613679009408015 0.0 0.010556698541259162 0.0 0.0
0.0312759699651466 -0.013027239410604886 0.0 0.009211030173046033 0.0 0.0
0.025706380246795852 -0.010857252660138914 0.0 0.007401524849105199 0.0 0.0
0.017401083127645073 -0.00696329257060393 0.0 0.002628581290383542 0.0 0.0
0.016945812522815223 0.004589150810184498 0.0 0.018696180153567502 0.0 0.0
0.022306591084543005 -0.09882451590502409 0.0 0.026273160741221126 0.0 0.0
0.017718937080171485 -0.08432950280165147 0.0 -0.03279895845909127 0.0 0.0
0.011930943600279421 -0.00028997825901634107 0.0 -0.02560387248917359 0.0 0.0
0.01171174794222744 -0.0027365468134310754 0.0 -0.0077905092879387555 0.0 0.0
0.020695012626566762 -0.008542128883637859 0.0 -0.01069962794770702 0.0 0.0
0.026999103048973044 -0.011165652783287152 0.0 -0.013702266516396899 0.0 0.0
0.03302970206160892 -0.013976609991261671 0.0 -0.015239522257935123 0.0 0.0
0.03939132084970334 -0.016818223681971025 0.0 -0.016005666060946735 0.0 0.0
0.04587335563248525 -0.019639346559891125 0.0 -0.016286680839612176 0.0 0.0
0.05241095978334572 -0.022460332756497545 0.0 -0.01636977398860996 0.0 0.0
0.05896563662755126 -0.025273804908415586 0.0 -0.016375805982609386 0.0 0.0
0.06552198394238348 -0.028083712786419683 0.0 -0.016363658851574547 0.0 0.0
0.07207752083797885 -0.030890955884189046 0.0 -0.016357259491421864 0.0 0.0
0.0786359472325481 -0.033695627566459 0.0 -0.01637701796430505 0.0 0.0
0.08520847187476752 -0.03649757513177582 0.0 -0.016459524226933146 0.0 0.0
0.09181832362912323 -0.03930109604752486 0.0 -0.016664813708910816 0.0 0.0
0.09850232970856673 -0.04212701070631839 0.0 -0.017039148989772095 0.0 0.0
0.10528560346016347 -0.045030139920421756 0.0 -0.017463812035973934 0.0 0.0
0.1120775438113619 -0.04809164622454284 0.0 -0.01733413156013888 0.0 0.0
0.11843716474315463 -0.051300596187512565 0.0 -0.015244499470870695 0.0 0.0
0.1233019362906447 -0.05420618105824043 0.0 -0.00944648271065847 0.0 0.0
0.12518165980020582 -0.055551076591423325 0.0 -1.2693839035460286e-15 0.0 0.0
0.12330193629064412 -0.0542061810582334 0.0 0.009446482710657868 0.0 0.0
0.11843716474315508 -0.05130059618751067 0.0 0.015244499470871017 0.0 0.0
0.11207754381136215 -0.04809164622454183 0.0 0.017334131560136905 0.0 0.0
0.10528560346016276 -0.04503013992042074 0.0 0.017463812035973657 0.0 0.0
0.09850232970856666 -0.04212701070631456 0.0 0.017039148989771588 0.0 0.0
0.09181832362912346 -0.039301096047527975 0.0 0.016664813708913113 0.0 0.0
0.08520847187476722 -0.0364975751317729 0.0 0.01645952422693234 0.0 0.0
0.07863594723254816 -0.03369562756645714 0.0 0.01637701796430656 0.0 0.0
0.07207752083797882 -0.030890955884189296 0.0 0.016357259491421788 0.0 0.0
0.06552198394238348 -0.028083712786420474 0.0 0.016363658851574363 0.0 0.0
0.0589656366275509 -0.025273804908414656 0.0 0.01637580598260856 0.0 0.0
0.05241095978334543 -0.022460332756500164 0.0 0.016369773988611152 0.0 0.0
0.04587335563248551 -0.019639346559893345 0.0 0.016286680839609238 0.0 0.0
0.039391320849702635 -0.01681822368196642 0.0 0.016005666060946187 0.0 0.0
0.033029702061608636 -0.013976609991265005 0.0 0.015239522257936344 0.0 0.0
0.02699910304897349 -0.011165652783288375 0.0 0.013702266516395702 0.0 0.0
0.020695012626567026 -0.008542128883638747 0.0 0.010699627947706934 0.0 0.0
0.011711747942227155 -0.0027365468134315663 0.0 0.0077905092879364726 0.0 0.0
0.011930943600278755 -0.0002899782590172935 0.0 0.02560387248917321 0.0 0.0
0.01771893708017098 -0.08432950280165182 0.0 0.03279895845909451 0.0 0.0
0.014955170207110461 -0.07173468905107123 0.0 -0.03354751018425575 0.0 0.0
0.009100068599723772 -0.004494105341838841 0.0 -0.030276105654015555 0.0 0.0
0.007711732991133195 -0.00045686531226119204 0.0 -0.014761721107054707 0.0 0.0
0.015963231176466065 -0.006040514334732118 0.0 -0.014600481927276272 0.0 0.0
0.022559069083836793 -0.009189332428170476 0.0 -0.017709783303135943 0.0 0.0
0.02814611213462887 -0.011808987195596643 0.0 -0.019421554867698292 0.0 0.0
0.033719826290537526 -0.014358995113201652 0.0 -0.020276349303868194 0.0 0.0
0.03932115531782718 -0.01682436727602921 0.0 -0.02061480764902604 0.0 0.0
0.044932835408535036 -0.019254373986198337 0.0 -0.020713603539413147 0.0 0.0
0.050549778019824465 -0.02166828867158095 0.0 -0.02072413207782591 0.0 0.0
0.056167284880550145 -0.02407569621896389 0.0 -0.020711620157311532 0.0 0.0
0.061784543792631985 -0.02647995296395131 0.0 -0.020705437100318944 0.0 0.0
0.06740197840952433 -0.02887892571380414 0.0 -0.02072929819082715 0.0 0.0
0.07302151303527431 -0.03126648345349197 0.0 -0.020824797238782434 0.0 0.0
0.078649971246619 -0.03363719362472211 0.0 -0.021059437285975258 0.0 0.0
0.08430692306180673 -0.03600558092448547 0.0 -0.02148488786565267 0.0 0.0
0.09002583787843801 -0.03844809281092884 0.0 -0.021960837621535074 0.0 0.0
0.0957971870278804 -0.04113682891311789 0.0 -0.021763624159394118 0.0 0.0
0.10135091977289072 -0.044228860310709134 0.0 -0.019164756380008557 0.0 0.0
0.10577331452605995 -0.04735964021533672 0.0 -0.01192250258728951 0.0 0.0
0.10753357125300773 -0.04894357535215142 0.0 -8.109832250191573e-16 0.0 0.0
0.10577331452606036 -0.04735964021533222 0.0 0.011922502587291103 0.0 0.0
0.10135091977289094 -0.04422886031071008 0.0 0.019164756380011465 0.0 0.0
0.09579718702788073 -0.04113682891312015 0.0 0.021763624159390794 0.0 0.0
0.09002583787843772 -0.038448092810927786 0.0 0.02196083762153413 0.0 0.0
0.08430692306180655 -0.03600558092448139 0.0 0.021484887865654775 0.0 0.0
0.07864997124661904 -0.033637193624719945 0.0 0.02105943728597535 0.0 0.0
0.07302151303527467 -0.031266483453497265 0.0 0.02082479723877945 0.0 0.0
0.06740197840952497 -0.028878925713808228 0.0 0.020729298190828433 0.0 0.0
0.061784543792632235 -0.026479952963947243 0.0 0.020705437100318302 0.0 0.0
0.05616728488054994 -0.024075696218968483 0.0 0.02071162015731357 0.0 0.0
0.050549778019824194 -0.021668288671581513 0.0 0.020724132077824024 0.0 0.0
0.04493283540853476 -0.019254373986200255 0.0 0.0207136035394146 0.0 0.0
0.03932115531782678 -0.016824367276029453 0.0 0.020614807649026207 0.0 0.0
0.033719826290537665 -0.01435899511319922 0.0 0.020276349303867354 0.0 0.0
0.028146112134628677 -0.011808987195599328 0.0 0.019421554867700273 0.0 0.0
0.022559069083836373 -0.009189332428170596 0.0 0.017709783303135603 0.0 0.0
0.015963231176465892 -0.006040514334732294 0.0 0.014600481927276827 0.0 0.0
0.007711732991133185 -0.0004568653122616502 0.0 0.014761721107051838 0.0 0.0
0.009100068599723968 -0.004494105341838556 0.0 0.03027610565401416 0.0 0.0
0.014955170207110822 -0.07173468905107194 0.0 0.03354751018425965 0.0 0.0
0.012995975995158515 -0.0608416391985188 0.0 -0.0320055586283004 0.0 0.0
0.007355085470630244 -0.007544434764334768 0.0 -0.033037406706765256 0.0 0.0
0.004883608387946659 0.0005528349630473294 0.0 -0.021506239990185375 0.0 0.0
0.0117252671473171 -0.0037796594912556493 0.0 -0.018961201344028438 0.0 0.0
0.01809863258350326 -0.0071367064288094025 0.0 -0.021348234706748966 0.0 0.0
0.023229582729188635 -0.009634545302299565 0.0 -0.023062409102153646 0.0 0.0
0.028034547555705065 -0.011889135498185661 0.0 -0.023922501864982515 0.0 0.0
0.03275970070823821 -0.014003730557335087 0.0 -0.024279601340578945 0.0 0.0
0.03745142610226005 -0.016047016094878002 0.0 -0.0243873359735857 0.0 0.0
0.0421328668229455 -0.018062214568997335 0.0 -0.024400974266773387 0.0 0.0
0.04681213660693021 -0.020067572974126487 0.0 -0.02438973786297912 0.0 0.0
0.05149072006598378 -0.02206853357717588 0.0 -0.024384446200005655 0.0 0.0
0.056165911068674176 -0.024061031820767634 0.0 -0.024410025955372335 0.0 0.0
0.060830626999666584 -0.02603291153599543 0.0 -0.024508686223171292 0.0 0.0
0.06547646512868324 -0.027969328297878383 0.0 -0.024748998801938284 0.0 0.0
0.0701099443558405 -0.029880083359551196 0.0 -0.025185931418048226 0.0 0.0
0.07478450545704853 -0.03186966908653333 0.0 -0.02567787828562563 0.0 0.0
0.07959456615220584 -0.034219439380970204 0.0 -0.025444497295627744 0.0 0.0
0.08446328575377784 -0.03728595262536873 0.0 -0.022512891306581434 0.0 0.0
0.08859975566875916 -0.04080252547259764 0.0 -0.014126133953251655 0.0 0.0
0.09031921895733493 -0.042746172404273496 0.0 -2.476317761956892e-16 0.0 0.0
0.08859975566875986 -0.04080252547259609 0.0 0.014126133953251626 0.0 0.0
0.08446328575377784 -0.03728595262536659 0.0 0.022512891306582287 0.0 0.0
0.07959456615220578 -0.03421943938097631 0.0 0.025444497295629365 0.0 0.0
0.07478450545704848 -0.0318696690865332 0.0 0.02567787828562519 0.0 0.0
0.07010994435584025 -0.029880083359552695 0.0 0.025185931418049895 0.0 0.0
0.06547646512868313 -0.027969328297875906 0.0 0.024748998801938118 0.0 0.0
0.060830626999666945 -0.026032911536002058 0.0 0.024508686223172975 0.0 0.0
0.05616591106867421 -0.02406103182076953 0.0 0.02441002595537276 0.0 0.0
0.05149072006598382 -0.022068533577174063 0.0 0.024384446200003504 0.0 0.0
0.04681213660693028 -0.02006757297412542 0.0 0.02438973786297821 0.0 0.0
0.042132866822945154 -0.018062214568995014 0.0 0.02440097426677405 0.0 0.0
0.03745142610226051 -0.016047016094879664 0.0 0.024387335973585895 0.0 0.0
0.032759700708238394 -0.014003730557336731 0.0 0.02427960134057767 0.0 0.0
0.028034547555704968 -0.011889135498185419 0.0 0.023922501864982362 0.0 0.0
0.023229582729188722 -0.009634545302299636 0.0 0.023062409102154798 0.0 0.0
0.01809863258350351 -0.0071367064288090296 0.0 0.02134823470674741 0.0 0.0
0.011725267147317166 -0.003779659491255094 0.0 0.018961201344028452 0.0 0.0
0.004883608387946215 0.0005528349630479321 0.0 0.021506239990183605 0.0 0.0
0.007355085470630336 -0.007544434764333502 0.0 0.033037406706765804 0.0 0.0
0.012995975995159163 -0.06084163919851937 0.0 0.032005558628300394 0.0 0.0
0.011390700265443076 -0.05140551754439896 0.0 -0.02967387286520847 0.0 0.0
0.006128765569082394 -0.009449930272218807 0.0 -0.0343704620740267 0.0 0.0
0.002816016238358491 0.0008462461305465337 0.0 -0.0272008344766263 0.0 0.0
0.008001401725857938 -0.0018910068236951934 0.0 -0.023328858374429527 0.0 0.0
0.01372916456362288 -0.005097955427698983 0.0 -0.024660775143853807 0.0 0.0
0.01830620325479604 -0.007457111354089935 0.0 -0.026150988025958735 0.0 0.0
0.02234367308646027 -0.009418587004730382 0.0 -0.02694739063403173 0.0 0.0
0.026193067718503237 -0.011179798945720054 0.0 -0.027285687546477554 0.0 0.0
0.02996699821934176 -0.012838298019950251 0.0 -0.027392044218349794 0.0 0.0
0.03371462493279389 -0.014455445423271356 0.0 -0.027407208345667313 0.0 0.0
0.03745620282914061 -0.016059034913030335 0.0 -0.027397987250919416 0.0 0.0
0.04119605108075637 -0.017656689648065164 0.0 -0.027393891686292166 0.0 0.0
0.04492868781596953 -0.01924260371436354 0.0 -0.027418454504934565 0.0 0.0
0.04863886850959273 -0.020799117473404734 0.0 -0.027510572413800907 0.0 0.0
0.052304455473309155 -0.022302643645481676 0.0 -0.027734308442998 0.0 0.0
0.05592124347568969 -0.0237584846446209 0.0 -0.028147493338171476 0.0 0.0
0.059567888640556774 -0.025300028955835743 0.0 -0.028631655362886515 0.0 0.0
0.06345702664871547 -0.027327517214372862 0.0 -0.028419552686741494 0.0 0.0
0.06772901369458752 -0.03042968456957207 0.0 -0.025370284200537746 0.0 0.0
0.07170985249584327 -0.034478357166758324 0.0 -0.016145152366947288 0.0 0.0
0.07345930943512562 -0.036920371773607276 0.0 1.201296007113939e-15 0.0 0.0
0.07170985249584401 -0.0344783571667633 0.0 0.016145152366949207 0.0 0.0
0.06772901369458766 -0.03042968456956404 0.0 0.025370284200535505 0.0 0.0
0.06345702664871562 -0.027327517214378573 0.0 0.028419552686739583 0.0 0.0
0.05956788864055679 -0.025300028955833394 0.0 0.028631655362884326 0.0 0.0
0.05592124347568966 -0.023758484644624375 0.0 0.028147493338173166 0.0 0.0
0.05230445547330934 -0.022302643645481048 0.0 0.027734308442999185 0.0 0.0
0.0486388685095928 -0.020799117473404127 0.0 0.027510572413802017 0.0 0.0
0.04492868781596964 -0.019242603714363364 0.0 0.02741845450493311 0.0 0.0
0.04119605108075656 -0.01765668964807046 0.0 0.027393891686291298 0.0 0.0
0.037456202829140556 -0.01605903491303029 0.0 0.0273979872509199 0.0 0.0
0.03371462493279398 -0.014455445423271474 0.0 0.027407208345667074 0.0 0.0
0.029966998219342067 -0.012838298019953079 0.0 0.027392044218349294 0.0 0.0
0.026193067718502785 -0.01117979894572539 0.0 0.027285687546474896 0.0 0.0
0.022343673086459823 -0.009418587004729901 0.0 0.026947390634032987 0.0 0.0
0.018306203254795966 -0.0074571113540894355 0.0 0.026150988025958645 0.0 0.0
0.01372916456362295 -0.005097955427698419 0.0 0.024660775143852443 0.0 0.0
0.008001401725858026 -0.001891006823695478 0.0 0.023328858374429426 0.0 0.0
0.00281601623835842 0.0008462461305469684 0.0 0.027200834476625697 0.0 0.0
0.0061287655690820736 -0.00944993027221887 0.0 0.03437046207402844 0.0 0.0
0.01139070026544228 -0.05140551754439908 0.0 0.02967387286520689 0.0 0.0
0.009939009878966166 -0.04318610623944056 0.0 -0.027185583639232812 0.0 0.0
0.005127891768532005 -0.010384521049230966 0.0 -0.03467404581982584 0.0 0.0
0.0012147147989692993 0.0008054824873373122 0.0 -0.031586589836709346 0.0 0.0
0.004728780868038381 -0.0003631984964481959 0.0 -0.027305902308224935 0.0 0.0
0.00951432842010149 -0.003142881659353274 0.0 -0.027593629286276393 0.0 0.0
0.013406594739655994 -0.005292000956690734 0.0 -0.028683873610893675 0.0 0.0
0.01665525329736619 -0.006953087114855799 0.0 -0.029346567590008733 0.0 0.0
0.019624777119087347 -0.008355662997927815 0.0 -0.029635168844120603 0.0 0.0
0.022480260596236753 -0.009628486248386093 0.0 -0.029728722095838142 0.0 0.0
0.02529485510195379 -0.010847859544082747 0.0 -0.029743405683013195 0.0 0.0
0.02809925106490572 -0.01204988630087209 0.0 -0.02973651038400408 0.0 0.0
0.030900600673278766 -0.013244450750986587 0.0 -0.02973360011638132 0.0 0.0
0.033691222109442795 -0.014424299657892981 0.0 -0.029754484874314306 0.0 0.0
0.03644902803038262 -0.015567178096258849 0.0 -0.02983133517940352 0.0 0.0
0.03913990182334012 -0.01664178605817984 0.0 -0.030018824010319016 0.0 0.0
0.041749333869398546 -0.017647837654231627 0.0 -0.03037708586691449 0.0 0.0
0.0443798231121115 -0.01874255493765685 0.0 -0.030835378920706043 0.0 0.0
0.04736814410264342 -0.020445435104366895 0.0 -0.03071527450778043 0.0 0.0
0.051100472466328685 -0.0236131349890021 0.0 -0.027793177877708197 0.0 0.0
0.05503751412127976 -0.028333142153326586 0.0 -0.018053318806475774 0.0 0.0
0.05688557553193009 -0.03144609768129986 0.0 -8.81239525796218e-16 0.0 0.0
0.05503751412128039 -0.02833314215332601 0.0 0.018053318806476124 0.0 0.0
0.05110047246632881 -0.023613134989011485 0.0 0.027793177877705806 0.0 0.0
0.047368144102643 -0.02044543510436382 0.0 0.03071527450778043 0.0 0.0
0.04437982311211163 -0.018742554937655403 0.0 0.030835378920704995 0.0 0.0
0.041749333869398504 -0.0176478376542309 0.0 0.0303770858669136 0.0 0.0
0.03913990182334027 -0.01664178605817755 0.0 0.03001882401032057 0.0 0.0
0.036449028030382545 -0.015567178096264789 0.0 0.029831335179404575 0.0 0.0
0.03369122210944244 -0.014424299657897183 0.0 0.02975448487431384 0.0 0.0
0.03090060067327878 -0.013244450750987798 0.0 0.029733600116380737 0.0 0.0
0.028099251064905763 -0.012049886300874614 0.0 0.029736510384005967 0.0 0.0
0.025294855101953798 -0.010847859544087334 0.0 0.02974340568301411 0.0 0.0
0.022480260596236812 -0.009628486248386673 0.0 0.029728722095836886 0.0 0.0
0.019624777119087337 -0.00835566299793144 0.0 0.029635168844119313 0.0 0.0
0.016655253297366036 -0.006953087114855183 0.0 0.029346567590010766 0.0 0.0
0.013406594739656219 -0.005292000956691309 0.0 0.02868387361089335 0.0 0.0
0.009514328420101364 -0.003142881659351059 0.0 0.027593629286277427 0.0 0.0
0.004728780868038332 -0.0003631984964490219 0.0 0.027305902308224793 0.0 0.0
0.0012147147989696886 0.0008054824873378161 0.0 0.03158658983670909 0.0 0.0
0.005127891768532137 -0.010384521049231233 0.0 0.034674045819825666 0.0 0.0
0.009939009878966277 -0.04318610623944049 0.0 0.027185583639232687 0.0 0.0
0.008555349631388574 -0.03597519323835534 0.0 -0.024782213038172886 0.0 0.0
0.004204397023032944 -0.010556693351773725 0.0 -0.03422932827635388 0.0 0.0
-0.00011946815012569721 0.0006707564186641169 0.0 -0.0346544465957239 0.0 0.0
0.0018186253406814864 0.000871051119009518 0.0 -0.030620262188305554 0.0 0.0
0.005478596033447493 -0.0013081670189770463 0.0 -0.03004842680702162 0.0 0.0
0.008556413029915961 -0.0031576254120765047 0.0 -0.0306464470739023 0.0 0.0
0.010977686598569077 -0.004497602739153564 0.0 -0.03111367098678193 0.0 0.0
0.013057709950243029 -0.005533787341234096 0.0 -0.03132723796748768 0.0 0.0
0.01499200916934081 -0.006418101398702194 0.0 -0.03139802568517068 0.0 0.0
0.01687347510527302 -0.0072393599292425205 0.0 -0.031410003623799455 0.0 0.0
0.01874111714696322 -0.00803999865821101 0.0 -0.03140551529897875 0.0 0.0
0.020604460744435848 -0.008831871895773087 0.0 -0.031403626901040066 0.0 0.0
0.022454302908062468 -0.009606698588419277 0.0 -0.031418571150573976 0.0 0.0
0.024263441120668944 -0.010338826862332447 0.0 -0.03147311676596064 0.0 0.0
0.025987897413043082 -0.010990698820392018 0.0 -0.031608313134022036 0.0 0.0
0.027601749120306822 -0.01155448268121613 0.0 -0.03188433507339878 0.0 0.0
0.029223300605815426 -0.012200301153511658 0.0 -0.03229854217737898 0.0 0.0
0.03131003274695401 -0.013556366319831486 0.0 -0.03234116229506437 0.0 0.0
0.034528070180410465 -0.016784899128687285 0.0 -0.029813744284195316 0.0 0.0
0.03851953461138366 -0.022311556391562896 0.0 -0.019916149870873687 0.0 0.0
0.04053730414335053 -0.026321573303265882 0.0 -2.3678975447083417e-16 0.0 0.0
0.03851953461138404 -0.022311556391564787 0.0 0.0199161498708711 0.0 0.0
0.034528070180410646 -0.01678489912869695 0.0 0.029813744284195864 0.0 0.0
0.031310032746954035 -0.01355636631983168 0.0 0.03234116229506674 0.0 0.0
0.02922330060581542 -0.012200301153514484 0.0 0.03229854217737758 0.0 0.0
0.027601749120306666 -0.01155448268121457 0.0 0.031884335073399876 0.0 0.0
0.025987897413042915 -0.010990698820392136 0.0 0.03160831313402151 0.0 0.0
0.02426344112066886 -0.010338826862338979 0.0 0.03147311676595836 0.0 0.0
0.022454302908062447 -0.009606698588418547 0.0 0.03141857115057641 0.0 0.0
0.020604460744436108 -0.008831871895770234 0.0 0.0314036269010413 0.0 0.0
0.01874111714696315 -0.008039998658214472 0.0 0.03140551529897813 0.0 0.0
0.016873475105272772 -0.007239359929242803 0.0 0.031410003623801176 0.0 0.0
0.014992009169340514 -0.006418101398701869 0.0 0.0313980256851707 0.0 0.0
0.013057709950243105 -0.005533787341234431 0.0 0.031327237967488125 0.0 0.0
0.01097768659856922 -0.004497602739152593 0.0 0.03111367098678306 0.0 0.0
0.008556413029915921 -0.003157625412075565 0.0 0.03064644707390253 0.0 0.0
0.005478596033447291 -0.0013081670189756221 0.0 0.030048426807022667 0.0 0.0
0.001818625340681139 0.0008710511190096722 0.0 0.03062026218830558 0.0 0.0
-0.0001194681501257379 0.0006707564186650311 0.0 0.03465444659572389 0.0 0.0
0.004204397023033038 -0.010556693351772936 0.0 0.03422932827635394 0.0 0.0
0.008555349631388758 -0.035975193238355414 0.0 0.024782213038173958 0.0 0.0
0.007208228454798026 -0.02960650149183229 0.0 -0.022527274818541804 0.0 0.0
0.003288245569127967 -0.010159990343485747 0.0 -0.03321943548211983 0.0 0.0
-0.0013160661383030503 0.0005810464309002365 0.0 -0.036494149735566674 0.0 0.0
-0.0008168324839436221 0.0018912176826515747 0.0 -0.03311109679786627 0.0 0.0
0.0016203755299842135 0.00039641593885418537 0.0 -0.03192162084720731 0.0 0.0
0.0037723783015405753 -0.0010688182217359918 0.0 -0.03201097582432889 0.0 0.0
0.005318510800636856 -0.002056901831826741 0.0 -0.03224013371008292 0.0 0.0
0.0064942116579760605 -0.002715926324177884 0.0 -0.032359343173544185 0.0 0.0
0.007502908933367844 -0.0032076581105563227 0.0 -0.03240001731814649 0.0 0.0
0.008450481401949053 -0.00362990794181 0.0 -0.03240738014762061 0.0 0.0
0.009381693870260329 -0.004029283736022959 0.0 -0.03240524921421178 0.0 0.0
0.010307717639826663 -0.00441901154836748 0.0 -0.03240421386836337 0.0 0.0
0.011218522931062916 -0.004790244904309089 0.0 -0.032411602754753716 0.0 0.0
0.012083827813046776 -0.0051153253023369805 0.0 -0.032439012980356334 0.0 0.0
0.012852469327179625 -0.005352402686451568 0.0 -0.03251047819704026 0.0 0.0
0.013485311470349788 -0.005484141732429331 0.0 -0.03268120904201044 0.0 0.0
0.01410206199714231 -0.005677438020427369 0.0 -0.03302787799051123 0.0 0.0
0.015265710585715991 -0.006644949028181891 0.0 -0.03328953731502403 0.0 0.0
0.017960461120038254 -0.009889113377073428 0.0 -0.03143877951682597 0.0 0.0
0.022093155904154244 -0.01635220380717275 0.0 -0.021794527526236195 0.0 0.0
0.02435831052195054 -0.021565232826153805 0.0 6.245004513516506e-17 0.0 0.0
0.022093155904154702 -0.016352203807181154 0.0 0.021794527526234002 0.0 0.0
0.017960461120038407 -0.009889113377077381 0.0 0.031438779516826276 0.0 0.0
0.015265710585715854 -0.006644949028186376 0.0 0.03328953731502237 0.0 0.0
0.014102061997142576 -0.0056774380204288955 0.0 0.0330278779905096 0.0 0.0
0.013485311470349967 -0.005484141732430435 0.0 0.032681209042009954 0.0 0.0
0.012852469327179643 -0.005352402686458891 0.0 0.03251047819703925 0.0 0.0
0.012083827813046887 -0.005115325302336336 0.0 0.03243901298035645 0.0 0.0
0.011218522931062744 -0.004790244904304599 0.0 0.03241160275475518 0.0 0.0
0.010307717639826209 -0.004419011548368672 0.0 0.032404213868363146 0.0 0.0
0.009381693870260365 -0.00402928373602478 0.0 0.03240524921421117 0.0 0.0
0.008450481401949414 -0.0036299079418090907 0.0 0.0324073801476211 0.0 0.0
0.007502908933367833 -0.0032076581105530883 0.0 0.03240001731814607 0.0 0.0
0.006494211657976117 -0.002715926324178859 0.0 0.0323593431735456 0.0 0.0
0.005318510800636842 -0.00205690183182572 0.0 0.032240133710083385 0.0 0.0
0.00377237830154043 -0.0010688182217337466 0.0 0.03201097582432873 0.0 0.0
0.0016203755299840324 0.00039641593885346503 0.0 0.031921620847207746 0.0 0.0
-0.0008168324839437838 0.0018912176826534595 0.0 0.03311109679786663 0.0 0.0
-0.0013160661383030505 0.0005810464309001335 0.0 0.036494149735566514 0.0 0.0
0.0032882455691280897 -0.010159990343484996 0.0 0.033219435482118746 0.0 0.0
0.007208228454798266 -0.02960650149183236 0.0 0.022527274818541144 0.0 0.0
0.005892031020360013 -0.023956062645258652 0.0 -0.02040579820699511 0.0 0.0
0.0023516397534954956 -0.009357662177870017 0.0 -0.03175671804182604 0.0 0.0
-0.002455849177030558 0.000608052426942908 0.0 -0.037223707629700085 0.0 0.0
-0.003253232647397036 0.002769342123528191 0.0 -0.03469736244007565 0.0 0.0
-0.0020767924100180317 0.001978320906725997 0.0 -0.03312363058505605 0.0 0.0
-0.0009380529973702321 0.0009659389004565578 0.0 -0.03274176160172746 0.0 0.0
-0.0003168764846087029 0.0003651799100252182 0.0 -0.032714632835272164 0.0 0.0
-6.399192739817833e-05 9.676687585194753e-05 0.0 -0.032727944156722 0.0 0.0
1.3407498041706294e-05 2.4913367360944396e-06 0.0 -0.03273426987873843 0.0 0.0
2.5898086935405057e-05 -1.950501837682091e-05 0.0 -0.032735846939264374 0.0 0.0
2.0921809860102183e-05 -1.7688069667575173e-05 0.0 -0.032735993690042826 0.0 0.0
1.0428333058674433e-05 -5.9095219525412065e-06 0.0 -0.032735730245786014 0.0 0.0
-1.576674322670258e-05 2.478604222493991e-05 0.0 -0.03273476713542606 0.0 0.0
-8.882654155453946e-05 0.00010261582111289623 0.0 -0.03273271265251792 0.0 0.0
-0.0002636718594373501 0.0002712426142049884 0.0 -0.03273446196335188 0.0 0.0
-0.0005938172171147107 0.000558225725570429 0.0 -0.03278252442677157 0.0 0.0
-0.000977885109334361 0.0008194474184295917 0.0 -0.033029669758096736 0.0 0.0
-0.0007781551450659579 0.000299508071559475 0.0 -0.0335361078974689 0.0 0.0
0.001344894950567206 -0.002865828896317075 0.0 -0.032645591492006035 0.0 0.0
0.0056934177572209995 -0.010381248203380003 0.0 -0.023746259999666567 0.0 0.0
0.008293818939633173 -0.01721975496362344 0.0 9.471590178833367e-16 0.0 0.0
0.005693417757221067 -0.010381248203387115 0.0 0.023746259999665904 0.0 0.0
0.0013448949505666928 -0.0028658288963174755 0.0 0.03264559149200722 0.0 0.0
-0.0007781551450665243 0.0002995080715585876 0.0 0.03353610789746939 0.0 0.0
-0.000977885109333655 0.0008194474184316172 0.0 0.03302966975809634 0.0 0.0
-0.0005938172171143349 0.0005582257255701471 0.0 0.03278252442677271 0.0 0.0
-0.00026367185943729763 0.00027124261420023276 0.0 0.032734461963351655 0.0 0.0
-8.88265415542233e-05 0.00010261582111675832 0.0 0.0327327126525183 0.0 0.0
-1.5766743226550573e-05 2.4786042226981897e-05 0.0 0.0327347671354264 0.0 0.0
1.0428333058579674e-05 -5.909521954686246e-06 0.0 0.03273573024578586 0.0 0.0
2.092180985978245e-05 -1.7688069664926684e-05 0.0 0.03273599369004354 0.0 0.0
2.589808693527181e-05 -1.950501837653934e-05 0.0 0.0327358469392649 0.0 0.0
1.3407498041630834e-05 2.49133673898663e-06 0.0 0.03273426987873709 0.0 0.0
-6.39919273983092e-05 9.676687584862716e-05 0.0 0.03272794415672198 0.0 0.0
-0.00031687648460881196 0.0003651799100251099 0.0 0.03271463283527223 0.0 0.0
-0.0009380529973703568 0.0009659389004552145 0.0 0.03274176160172706 0.0 0.0
-0.00207679241001823 0.001978320906726189 0.0 0.033123630585056275 0.0 0.0
-0.003253232647397091 0.002769342123528743 0.0 0.034697362440076644 0.0 0.0
-0.0024558491770305395 0.0006080524269413821 0.0 0.03722370762969979 0.0 0.0
0.002351639753495495 -0.0093576621778701 0.0 0.0317567180418254 0.0 0.0
0.0058920310203599705 -0.023956062645258833 0.0 0.02040579820699382 0.0 0.0
0.004613729029049701 -0.01893832389058901 0.0 -0.01837175984263223 0.0 0.0
0.0013897937953448786 -0.008281257284594458 0.0 -0.029906014837600657 0.0 0.0
-0.0035860135462266705 0.0007806531047189159 0.0 -0.03695834458369833 0.0 0.0
-0.00555072877628231 0.003562813277519618 0.0 -0.03534897820276356 0.0 0.0
-0.005636337974232349 0.0034540928735155253 0.0 -0.033584578951667284 0.0 0.0
-0.005575335641810783 0.002944710480697991 0.0 -0.032800969316981295 0.0 0.0
-0.005925989704691668 0.0027665679765867235 0.0 -0.03252365583023159 0.0 0.0
-0.006615994794705126 0.0029037451603593383 0.0 -0.0324289338101738 0.0 0.0
-0.0074762976768870965 0.0032122052812405604 0.0 -0.03240009777736177 0.0 0.0
-0.008400255723121367 0.0035918367586779704 0.0 -0.03239566068964606 0.0 0.0
-0.009341219860279274 0.003994808201158534 0.0 -0.03239805056725894 0.0 0.0
-0.010287394157859672 0.00440742767149265 0.0 -0.03239860589496565 0.0 0.0
-0.01124847459440387 0.0048383073738451415 0.0 -0.03238940468503697 0.0 0.0
-0.012254329198150428 0.005314849517675939 0.0 -0.03235812618962539 0.0 0.0
-0.013359431688695415 0.005879762108135999 0.0 -0.03229014327244702 0.0 0.0
-0.014630456187442444 0.006568947301341725 0.0 -0.03220642320650655 0.0 0.0
-0.016006973178667148 0.007280457205926098 0.0 -0.032313655790569086 0.0 0.0
-0.01682774987028262 0.007278898178383952 0.0 -0.03304218877764692 0.0 0.0
-0.01537181360207197 0.00434742728637451 0.0 -0.033374481420620924 0.0 0.0
-0.01074994393470468 -0.0043034045918840715 0.0 -0.0258248095361627 0.0 0.0
-0.007713414354767993 -0.013358517320888991 0.0 8.89913143176102e-16 0.0 0.0
-0.010749943934704857 -0.00430340459188339 0.0 0.025824809536163673 0.0 0.0
-0.015371813602072279 0.004347427286376373 0.0 0.03337448142062094 0.0 0.0
-0.016827749870282543 0.0072788981783753395 0.0 0.03304218877765064 0.0 0.0
-0.01600697317866686 0.007280457205926747 0.0 0.03231365579057198 0.0 0.0
-0.014630456187442464 0.00656894730134649 0.0 0.03220642320650391 0.0 0.0
-0.013359431688695488 0.005879762108144026 0.0 0.03229014327244574 0.0 0.0
-0.012254329198150515 0.005314849517671407 0.0 0.03235812618962524 0.0 0.0
-0.01124847459440374 0.004838307373849935 0.0 0.032389404685035615 0.0 0.0
-0.010287394157859214 0.004407427671492539 0.0 0.03239860589496718 0.0 0.0
-0.009341219860278936 0.003994808201158937 0.0 0.032398050567258876 0.0 0.0
-0.008400255723121482 0.0035918367586804407 0.0 0.0323956606896488 0.0 0.0
-0.007476297676887095 0.003212205281240072 0.0 0.0324000977773612 0.0 0.0
-0.0066159947947049685 0.0029037451603614282 0.0 0.03242893381017201 0.0 0.0
-0.005925989704691617 0.0027665679765846783 0.0 0.032523655830232444 0.0 0.0
-0.005575335641810871 0.0029447104806996703 0.0 0.03280096931698203 0.0 0.0
-0.0056363379742326 0.003454092873514866 0.0 0.03358457895166821 0.0 0.0
-0.005550728776282436 0.003562813277519045 0.0 0.035348978202763615 0.0 0.0
-0.0035860135462266554 0.0007806531047181124 0.0 0.03695834458369875 0.0 0.0
0.0013897937953448766 -0.0082812572845937 0.0 0.02990601483760042 0.0 0.0
0.004613729029049699 -0.018938323890589536 0.0 0.018371759842631587 0.0 0.0
0.0033867509764578954 -0.014500869743669723 0.0 -0.01637111361074716 0.0 0.0
0.0004108173175339685 -0.0070343759785700954 0.0 -0.027702274447840715 0.0 0.0
-0.004730440304263177 0.0011011396390480255 0.0 -0.03579841186337304 0.0 0.0
-0.007754130979277752 0.004313072514752523 0.0 -0.035064718827865715 0.0 0.0
-0.00908374578314215 0.004843843587674874 0.0 -0.03325307505466541 0.0 0.0
-0.01014604947848332 0.004871147906677041 0.0 -0.03215290475164879 0.0 0.0
-0.01150949213024358 0.00514742725469042 0.0 -0.031652853252010504 0.0 0.0
-0.013161889647954247 0.0057051458238289035 0.0 -0.0314580338160952 0.0 0.0
-0.014966273472537008 0.006421551384184692 0.0 -0.031396783255219884 0.0 0.0
-0.016827975866775636 0.007204109893692884 0.0 -0.03138706388263239 0.0 0.0
-0.018704717243280742 0.008008191200941144 0.0 -0.03139172409377969 0.0 0.0
-0.020585787338042942 0.008821031123357675 0.0 -0.03139325686787717 0.0 0.0
-0.022479765593937807 0.009650434433484114 0.0 -0.03137685585985979 0.0 0.0
-0.024413252775145045 0.010521735573530816 0.0 -0.03131907088283068 0.0 0.0
-0.026435625635239737 0.011474177372392593 0.0 -0.031187190493262268 0.0 0.0
-0.028621266263295725 0.012546648868878218 0.0 -0.030974241941944744 0.0 0.0
-0.03097133757908062 0.013692404905792044 0.0 -0.030898636771462887 0.0 0.0
-0.032877446649212536 0.014280926147126165 0.0 -0.03176045804116038 0.0 0.0
-0.03224089730656765 0.011811447102852476 0.0 -0.03351716340326356 0.0 0.0
-0.027316320888176787 0.0020111597311566532 0.0 -0.02807295877990914 0.0 0.0
-0.02372876601753337 -0.01009481973542253 0.0 -1.3903808659954109e-15 0.0 0.0
-0.027316320888177037 0.0020111597311697933 0.0 0.028072958779907856 0.0 0.0
-0.03224089730656761 0.011811447102852094 0.0 0.03351716340325976 0.0 0.0
-0.032877446649212334 0.014280926147132021 0.0 0.03176045804116088 0.0 0.0
-0.030971337579080063 0.01369240490579144 0.0 0.03089863677146558 0.0 0.0
-0.02862126626329528 0.012546648868874105 0.0 0.03097424194194577 0.0 0.0
-0.026435625635239594 0.011474177372395688 0.0 0.031187190493260707 0.0 0.0
-0.024413252775144962 0.010521735573528654 0.0 0.03131907088283216 0.0 0.0
-0.022479765593937846 0.009650434433483143 0.0 0.031376855859860706 0.0 0.0
-0.02058578733804306 0.008821031123356499 0.0 0.03139325686787989 0.0 0.0
-0.01870471724328068 0.008008191200943267 0.0 0.031391724093779216 0.0 0.0
-0.016827975866776 0.007204109893693793 0.0 0.03138706388263258 0.0 0.0
-0.014966273472537255 0.006421551384182142 0.0 0.03139678325522059 0.0 0.0
-0.01316188964795423 0.005705145823834234 0.0 0.03145803381609216 0.0 0.0
-0.01150949213024373 0.005147427254688281 0.0 0.03165285325200956 0.0 0.0
-0.010146049478483236 0.004871147906680902 0.0 0.032152904751649634 0.0 0.0
-0.00908374578314233 0.004843843587674376 0.0 0.03325307505466477 0.0 0.0
-0.007754130979277865 0.004313072514753629 0.0 0.03506471882786763 0.0 0.0
-0.004730440304263162 0.001101139639047845 0.0 0.035798411863373576 0.0 0.0
0.00041081731753382097 -0.007034375978569469 0.0 0.027702274447839494 0.0 0.0
0.0033867509764578547 -0.014500869743670191 0.0 0.016371113610747428 0.0 0.0
0.0022285036292563416 -0.010619078784452441 0.0 -0.014353662004475756 0.0 0.0
-0.0005691262703008674 -0.005697924688634654 0.0 -0.02516359815670924 0.0 0.0
-0.005896064872937594 0.001555160245515907 0.0 -0.033825785368513155 0.0 0.0
-0.00989442429267164 0.005046885315905214 0.0 -0.033856128533026726 0.0 0.0
-0.012443937877373662 0.006168116315231538 0.0 -0.03209210416174603 0.0 0.0
-0.014661314664224382 0.006753274676261709 0.0 -0.030766561862919706 0.0 0.0
-0.0170710494749814 0.0075102498813448115 0.0 -0.030088637081335544 0.0 0.0
-0.01970284054473814 0.00850184577560368 0.0 -0.02981128128875419 0.0 0.0
-0.02245684645909563 0.009630785183463364 0.0 -0.029723775724233077 0.0 0.0
-0.025257265812161617 0.010817309000254372 0.0 -0.029710334319298926 0.0 0.0
-0.028069517026297813 0.012022410952212273 0.0 -0.02971730562396329 0.0 0.0
-0.030884834969055808 0.013234958194479297 0.0 -0.02972001448391079 0.0 0.0
-0.03371005224452593 0.014461500649185964 0.0 -0.02969827730538869 0.0 0.0
-0.03656681340680924 0.015724049877372772 0.0 -0.029619075589231277 0.0 0.0
-0.039495125048503624 0.017056834249086952 0.0 -0.029434044935598227 0.0 0.0
-0.04256627428443473 0.018493693891897183 0.0 -0.0291088716737619 0.0 0.0
-0.04585330869802285 0.020040695111316068 0.0 -0.028819233064001252 0.0 0.0
-0.04890359569779641 0.021272399507764186 0.0 -0.029647806364590235 0.0 0.0
-0.049306368315337745 0.01957579287354524 0.0 -0.0329010014509874 0.0 0.0
-0.044099044718891846 0.008746025673582148 0.0 -0.030506293816287174 0.0 0.0
-0.03983503291727303 -0.007593886408179143 0.0 1.2411946470614055e-15 0.0 0.0
-0.04409904471889196 0.008746025673586675 0.0 0.0305062938162892 0.0 0.0
-0.0493063683153383 0.019575792873547077 0.0 0.03290100145098756 0.0 0.0
-0.048903595697796315 0.02127239950778659 0.0 0.029647806364589156 0.0 0.0
-0.045853308698022496 0.02004069511130926 0.0 0.028819233063999333 0.0 0.0
-0.042566274284434484 0.01849369389189032 0.0 0.0291088716737612 0.0 0.0
-0.03949512504850298 0.01705683424908027 0.0 0.029434044935597065 0.0 0.0
-0.03656681340680915 0.015724049877378375 0.0 0.029619075589231506 0.0 0.0
-0.03371005224452609 0.014461500649186033 0.0 0.029698277305387363 0.0 0.0
-0.03088483496905562 0.013234958194481842 0.0 0.029720014483913294 0.0 0.0
-0.02806951702629787 0.012022410952214622 0.0 0.029717305623962638 0.0 0.0
-0.025257265812161523 0.01081730900025316 0.0 0.029710334319299113 0.0 0.0
-0.022456846459095653 0.009630785183460637 0.0 0.029723775724234222 0.0 0.0
-0.019702840544738275 0.008501845775606845 0.0 0.029811281288753377 0.0 0.0
-0.017071049474981136 0.0075102498813410055 0.0 0.030088637081335162 0.0 0.0
-0.014661314664224396 0.006753274676263289 0.0 0.030766561862919893 0.0 0.0
-0.012443937877373908 0.006168116315231364 0.0 0.032092104161745565 0.0 0.0
-0.009894424292671802 0.005046885315906579 0.0 0.03385612853302704 0.0 0.0
-0.005896064872937648 0.0015551602455152831 0.0 0.03382578536851292 0.0 0.0
-0.0005691262703007668 -0.005697924688635489 0.0 0.02516359815670946 0.0 0.0
0.0022285036292564704 -0.01061907878445251 0.0 0.01435366200447798 0.0 0.0
0.0011600026223598156 -0.007291104620229749 0.0 -0.012280737923921675 0.0 0.0
-0.0015272935843650389 -0.004335613561768116 0.0 -0.022301239698270324 0.0 0.0
-0.00707621659465415 0.00211700315961021 0.0 -0.031103129593240186 0.0 0.0
-0.011990714598637826 0.0057786155922497865 0.0 -0.03173558481180052 0.0 0.0
-0.015740364692584486 0.007446651104503328 0.0 -0.030074299553497684 0.0 0.0
-0.019135655127679476 0.00860244512917914 0.0 -0.028616978221939815 0.0 0.0
-0.02261695528794385 0.009859645511019375 0.0 -0.027819678813027177 0.0 0.0
-0.026241021926996424 0.011295434646364205 0.0 -0.027485579461520603 0.0 0.0
-0.02994856821133815 0.01284031211583089 0.0 -0.027380870508533786 0.0 0.0
-0.033688116420432596 0.014431413533261231 0.0 -0.027365827557357624 0.0 0.0
-0.037435515249731134 0.01603737933628052 0.0 -0.027375055130561692 0.0 0.0
-0.04118464385133827 0.017649262013320986 0.0 -0.02737908470385054 0.0 0.0
-0.04493999337896208 0.019272056810823054 0.0 -0.027354406824792395 0.0 0.0
-0.04871669932225892 0.020922973312701373 0.0 -0.02726123799324712 0.0 0.0
-0.05254260946511039 0.022630764970314875 0.0 -0.02703741498240992 0.0 0.0
-0.05647096946097778 0.024417520049635412 0.0 -0.0266306432560322 0.0 0.0
-0.06063438324522666 0.026314612262719566 0.0 -0.02613123628850564 0.0 0.0
-0.06485672111170349 0.028192159635661317 0.0 -0.02669146822750907 0.0 0.0
-0.06659407442228919 0.027658772704661473 0.0 -0.031271544349592076 0.0 0.0
-0.061211289926981535 0.016166361556798355 0.0 -0.033074958585768595 0.0 0.0
-0.05614889218942201 -0.006086240998939851 0.0 -6.106226635438361e-16 0.0 0.0
-0.06121128992698145 0.01616636155679383 0.0 0.03307495858576827 0.0 0.0
-0.06659407442228991 0.02765877270466361 0.0 0.031271544349592964 0.0 0.0
-0.0648567211117035 0.028192159635666986 0.0 0.02669146822751093 0.0 0.0
-0.060634383245226464 0.02631461226271204 0.0 0.0261312362885062 0.0 0.0
-0.056470969460977655 0.024417520049636158 0.0 0.026630643256031213 0.0 0.0
-0.0525426094651099 0.02263076497031525 0.0 0.027037414982411072 0.0 0.0
-0.048716699322258986 0.02092297331269579 0.0 0.027261237993248692 0.0 0.0
-0.044939993378961894 0.019272056810824376 0.0 0.027354406824791344 0.0 0.0
-0.041184643851338076 0.017649262013324084 0.0 0.02737908470385251 0.0 0.0
-0.0374355152497314 0.016037379336278457 0.0 0.02737505513055989 0.0 0.0
-0.03368811642043296 0.014431413533262737 0.0 0.027365827557357024 0.0 0.0
-0.029948568211338185 0.012840312115827287 0.0 0.02738087050853514 0.0 0.0
-0.026241021926996577 0.011295434646367435 0.0 0.027485579461520693 0.0 0.0
-0.022616955287944284 0.00985964551101766 0.0 0.02781967881302696 0.0 0.0
-0.019135655127679174 0.00860244512917802 0.0 0.02861697822194014 0.0 0.0
-0.015740364692584188 0.007446651104503529 0.0 0.03007429955349737 0.0 0.0
-0.01199071459863761 0.0057786155922504336 0.0 0.031735584811800346 0.0 0.0
-0.007076216594653987 0.002117003159609416 0.0 0.031103129593240263 0.0 0.0
-0.0015272935843650044 -0.004335613561768801 0.0 0.022301239698270466 0.0 0.0
0.0011600026223600882 -0.007291104620229713 0.0 0.01228073792392044 0.0 0.0
0.00020711640604307303 -0.0045329811092135654 0.0 -0.010133154157111194 0.0 0.0
-0.0024332260534261838 -0.0029997193763260433 0.0 -0.019127935960361563 0.0 0.0
-0.008251511198008613 0.002751367359049508 0.0 -0.027672493696076845 0.0 0.0
-0.014052345211041074 0.006513000763760379 0.0 -0.028706698827267237 0.0 0.0
-0.018995413245628562 0.008698622187774492 0.0 -0.027177912875401656 0.0 0.0
-0.023586330310870915 0.010432587414659009 0.0 -0.02568603766330065 0.0 0.0
-0.02815562739755597 0.012201934256030902 0.0 -0.02483815322021674 0.0 0.0
-0.03277943247567698 0.014088090440037275 0.0 -0.02447923991881559 0.0 0.0
-0.03744214290279275 0.01605062813037115 0.0 -0.024368362663976118 0.0 0.0
-0.04212047347016679 0.018046358491025326 0.0 -0.02435400871194654 0.0 0.0
-0.046802546728142644 0.020052968640767745 0.0 -0.02436516721586289 0.0 0.0
-0.0514852959178321 0.02206396292495672 0.0 -0.024370545251533936 0.0 0.0
-0.05617047995719192 0.024082771744855166 0.0 -0.024345377846677906 0.0 0.0
-0.0608650005172479 0.026120322563279834 0.0 -0.02424772424935884 0.0 0.0
-0.06558365991312487 0.028198702971497583 0.0 -0.024003219744471147 0.0 0.0
-0.07034825248848628 0.030330284360676002 0.0 -0.023551111743094967 0.0 0.0
-0.07530274874169421 0.032518023606807396 0.0 -0.022908109778975224 0.0 0.0
-0.08065331941700238 0.03494769310277121 0.0 -0.022957567933891386 0.0 0.0
-0.08408962186823472 0.03600705054572061 0.0 -0.02828526965103307 0.0 0.0
-0.07879244863113383 0.024657671408873025 0.0 -0.03557678955295723 0.0 0.0
-0.0728518614870628 -0.005876566456536407 0.0 8.31799906730879e-16 0.0 0.0
-0.07879244863113344 0.02465767140886972 0.0 0.0355767895529577 0.0 0.0
-0.08408962186823507 0.03600705054572148 0.0 0.02828526965103087 0.0 0.0
-0.08065331941700213 0.034947693102764577 0.0 0.022957567933891223 0.0 0.0
-0.07530274874169449 0.032518023606806265 0.0 0.02290810977897421 0.0 0.0
-0.070348252488486 0.030330284360676397 0.0 0.023551111743094433 0.0 0.0
-0.06558365991312413 0.02819870297149675 0.0 0.02400321974447017 0.0 0.0
-0.060865000517248496 0.026120322563272316 0.0 0.024247724249358445 0.0 0.0
-0.05617047995719192 0.02408277174485279 0.0 0.02434537784667843 0.0 0.0
-0.051485295917831804 0.02206396292495573 0.0 0.02437054525153404 0.0 0.0
-0.04680254672814283 0.02005296864076757 0.0 0.02436516721586064 0.0 0.0
-0.04212047347016691 0.018046358491024612 0.0 0.02435400871194509 0.0 0.0
-0.03744214290279304 0.016050628130372946 0.0 0.024368362663975116 0.0 0.0
-0.03277943247567689 0.0140880904400375 0.0 0.024479239918814462 0.0 0.0
-0.02815562739755567 0.012201934256036778 0.0 0.0248381532202166 0.0 0.0
-0.02358633031087104 0.010432587414656525 0.0 0.02568603766330176 0.0 0.0
-0.018995413245628836 0.008698622187775576 0.0 0.027177912875402242 0.0 0.0
-0.014052345211041125 0.006513000763761401 0.0 0.028706698827268673 0.0 0.0
-0.008251511198008635 0.002751367359049609 0.0 0.027672493696077934 0.0 0.0
-0.0024332260534262948 -0.0029997193763261687 0.0 0.019127935960362503 0.0 0.0
0.00020711640604307156 -0.0045329811092136695 0.0 0.010133154157107319 0.0 0.0
-0.0005963092651140227 -0.0023731742915608844 0.0 -0.007923555364158971 0.0 0.0
-0.003244911469816169 -0.0017380968433182722 0.0 -0.015665571125553154 0.0 0.0
-0.009388647268007831 0.003412404123773227 0.0 -0.02355005972316773 0.0 0.0
-0.016081423338451854 0.0072486718776072125 0.0 -0.0247558165845342 0.0 0.0
-0.022231919132412785 0.009944007042115099 0.0 -0.02338446828814114 0.0 0.0
-0.02803301013194813 0.012259633791968202 0.0 -0.0219631791475827 0.0 0.0
-0.03369701866545845 0.014544621381769523 0.0 -0.02114068783579283 0.0 0.0
-0.039321608741860005 0.016882368136253965 0.0 -0.020792453486052746 0.0 0.0
-0.044938316929262374 0.019262233061569857 0.0 -0.020687156765121964 0.0 0.0
-0.05055419248670255 0.02166200332778286 0.0 -0.020675465727360086 0.0 0.0
-0.05617037799080704 0.024068988393262172 0.0 -0.020687751001875074 0.0 0.0
-0.06178680152818883 0.026479089407596412 0.0 -0.0206942582196849 0.0 0.0
-0.0674025025549212 0.028894138884264703 0.0 -0.020670952243137315 0.0 0.0
-0.07301446665111572 0.03131890138374074 0.0 -0.020578318452788416 0.0 0.0
-0.07862331234308961 0.033762991789425024 0.0 -0.020338700815254 0.0 0.0
-0.08421810393825387 0.03624355757023258 0.0 -0.019870755023512283 0.0 0.0
-0.08986807885821078 0.03868596588615394 0.0 -0.019212005883560087 0.0 0.0
-0.09617231609140588 0.04142827796352412 0.0 -0.0186681124710936 0.0 0.0
-0.10169436169575777 0.04441579384526185 0.0 -0.02355679365475878 0.0 0.0
-0.09701180429570447 0.034773726965315284 0.0 -0.03745538694077124 0.0 0.0
-0.09025189720592491 -0.007328682850252101 0.0 3.452099717193846e-16 0.0 0.0
-0.09701180429570412 0.03477372696531272 0.0 0.037455386940769456 0.0 0.0
-0.10169436169575792 0.044415793845255735 0.0 0.023556793654758407 0.0 0.0
-0.09617231609140597 0.04142827796352439 0.0 0.01866811247109359 0.0 0.0
-0.08986807885821119 0.038685965886159 0.0 0.01921200588355904 0.0 0.0
-0.08421810393825385 0.03624355757023582 0.0 0.01987075502351429 0.0 0.0
-0.07862331234308907 0.03376299178941889 0.0 0.02033870081525197 0.0 0.0
-0.07301446665111576 0.031318901383733604 0.0 0.020578318452787975 0.0 0.0
-0.06740250255492117 0.028894138884263537 0.0 0.020670952243138425 0.0 0.0
-0.06178680152818909 0.026479089407599635 0.0 0.0206942582196828 0.0 0.0
-0.05617037799080672 0.024068988393261034 0.0 0.020687751001873925 0.0 0.0
-0.05055419248670172 0.02166200332778099 0.0 0.020675465727360256 0.0 0.0
-0.04493831692926295 0.019262233061576334 0.0 0.020687156765122096 0.0 0.0
-0.03932160874186017 0.016882368136252122 0.0 0.020792453486055292 0.0 0.0
-0.03369701866545802 0.014544621381772684 0.0 0.02114068783579281 0.0 0.0
-0.028033010131947943 0.012259633791971898 0.0 0.021963179147583698 0.0 0.0
-0.022231919132412507 0.009944007042113227 0.0 0.023384468288142456 0.0 0.0
-0.016081423338451813 0.0072486718776078336 0.0 0.024755816584533713 0.0 0.0
-0.009388647268007803 0.0034124041237734624 0.0 0.02355005972316782 0.0 0.0
-0.0032449114698162368 -0.0017380968433182557 0.0 0.015665571125555056 0.0 0.0
-0.0005963092651141996 -0.0023731742915609143 0.0 0.00792355536415821 0.0 0.0
-0.0012022559360056325 -0.0008453467816843543 0.0 -0.005719035533043285 0.0 0.0
-0.0039012413011193774 -0.000604655017167657 0.0 -0.011952522792238449 0.0 0.0
-0.010437364256970814 0.00404076197821609 0.0 -0.018712615333336242 0.0 0.0
-0.01807650493751511 0.007983384046278751 0.0 -0.019844707698191185 0.0 0.0
-0.02547563447958242 0.011205656506477807 0.0 -0.018679046448999943 0.0 0.0
-0.03249755080295336 0.014100923791219088 0.0 -0.01744610831309599 0.0 0.0
-0.039251959957733236 0.016895830003464358 0.0 -0.016729080829731593 0.0 0.0
-0.045871266529171895 0.019680914148357917 0.0 -0.016427628403299723 0.0 0.0
-0.05243773329761082 0.02247551155749196 0.0 -0.016338824635760543 0.0 0.0
-0.05898899205578806 0.025278120533396453 0.0 -0.016330856779668154 0.0 0.0
-0.06553867667855069 0.028085119487817188 0.0 -0.016342926090064474 0.0 0.0
-0.0720891414536404 0.030894759058940888 0.0 -0.016349547814184365 0.0 0.0
-0.07863676741344418 0.03370634807559918 0.0 -0.016331096425673285 0.0 0.0
-0.08516897286625406 0.036521564744630156 0.0 -0.016249734080786556 0.0 0.0
-0.09166566444277312 0.03932973887821503 0.0 -0.016048450858291773 0.0 0.0
-0.0981005670671328 0.04215507264797624 0.0 -0.015599404188300742 0.0 0.0
-0.10438442854836649 0.044896523200918484 0.0 -0.01501832006816759 0.0 0.0
-0.1112724486614875 0.04757212614537215 0.0 -0.014268530661333108 0.0 0.0
-0.11913803120266353 0.05237345543180894 0.0 -0.01691750308729403 0.0 0.0
-0.11605766657295194 0.0472731134201039 0.0 -0.03730554402097234 0.0 0.0
-0.10891392800463283 -0.010765969059385663 0.0 -1.5265566588595902e-16 0.0 0.0
-0.11605766657295194 0.047273113420101556 0.0 0.03730554402097263 0.0 0.0
-0.11913803120266353 0.05237345543179471 0.0 0.01691750308729372 0.0 0.0
-0.11127244866148747 0.04757212614537403 0.0 0.014268530661333677 0.0 0.0
-0.10438442854836667 0.044896523200923 0.0 0.015018320068168774 0.0 0.0
-0.09810056706713303 0.042155072647978076 0.0 0.015599404188301094 0.0 0.0
-0.09166566444277295 0.039329738878214046 0.0 0.016048450858290753 0.0 0.0
-0.0851689728662543 0.03652156474462692 0.0 0.016249734080788666 0.0 0.0
-0.0786367674134445 0.03370634807559736 0.0 0.016331096425676178 0.0 0.0
-0.07208914145364029 0.030894759058945738 0.0 0.01634954781418335 0.0 0.0
-0.06553867667855028 0.028085119487817528 0.0 0.01634292609006616 0.0 0.0
-0.05898899205578789 0.025278120533395017 0.0 0.016330856779669393 0.0 0.0
-0.05243773329761101 0.02247551155749117 0.0 0.016338824635761376 0.0 0.0
-0.045871266529171575 0.019680914148357178 0.0 0.01642762840330307 0.0 0.0
-0.03925195995773274 0.016895830003463237 0.0 0.01672908082973164 0.0 0.0
-0.03249755080295309 0.014100923791221985 0.0 0.01744610831309588 0.0 0.0
-0.02547563447958252 0.011205656506476714 0.0 0.018679046449000345 0.0 0.0
-0.018076504937515128 0.007983384046279216 0.0 0.01984470769819017 0.0 0.0
-0.010437364256970623 0.004040761978215676 0.0 0.0187126153333363 0.0 0.0
-0.003901241301119238 -0.0006046550171684009 0.0 0.01195252279223755 0.0 0.0
-0.0012022559360054096 -0.0008453467816840855 0.0 0.005719035533044009 0.0 0.0
-0.0015364018204145368 2.2769271346596652e-05 0.0 -0.003684795502815563 0.0 0.0
-0.004308377784625442 0.0003221813840150098 0.0 -0.008049672450035605 0.0 0.0
-0.011326059982560543 0.004560075798418374 0.0 -0.013067494914920272 0.0 0.0
-0.020038897136940133 0.00872283835553842 0.0 -0.013908171308592687 0.0 0.0
-0.028758302230790823 0.012511042623654699 0.0 -0.013053404097655989 0.0 0.0
-0.037003549422065476 0.015974469472083374 0.0 -0.012141306245291103 0.0 0.0
-0.04483147383540467 0.01926375905701321 0.0 -0.011610987572847 0.0 0.0
-0.05243188545024493 0.02248608844031312 0.0 -0.011389496187629402 0.0 0.0
-0.05994075202123873 0.025690626739526507 0.0 -0.011325573391021245 0.0 0.0
-0.06742443345909344 0.028894322126144845 0.0 -0.01132092255061964 0.0 0.0
-0.07490692905307096 0.03210106054223828 0.0 -0.011330571768436853 0.0 0.0
-0.08239236949975813 0.03531061375829347 0.0 -0.011336077384869971 0.0 0.0
-0.08987349494895978 0.038520903698187864 0.0 -0.011322943994614022 0.0 0.0
-0.09733241487682584 0.04172648332166712 0.0 -0.011265048311650951 0.0 0.0
-0.10471896844898652 0.0449174231262287 0.0 -0.01110805484096577 0.0 0.0
-0.11199773722229747 0.04804339698052548 0.0 -0.010808815302912542 0.0 0.0
-0.11896787040815221 0.0512184336368537 0.0 -0.010161400260636643 0.0 0.0
-0.12587846239590658 0.05359245337614082 0.0 -0.010192818477562588 0.0 0.0
-0.13580695286345656 0.05877154584062419 0.0 -0.009454156433254979 0.0 0.0
-0.13607016974275024 0.06304678571509338 0.0 -0.03156476675676791 0.0 0.0
-0.12995858457535878 -0.016092774576325145 0.0 -4.701100619897147e-16 0.0 0.0
-0.13607016974274988 0.06304678571508936 0.0 0.031564766756767365 0.0 0.0
-0.13580695286345626 0.05877154584061638 0.0 0.009454156433254637 0.0 0.0
-0.1258784623959064 0.05359245337614076 0.0 0.010192818477564747 0.0 0.0
-0.11896787040815222 0.05121843363685796 0.0 0.010161400260635691 0.0 0.0
-0.11199773722229758 0.04804339698052354 0.0 0.01080881530291418 0.0 0.0
-0.10471896844898626 0.044917423126225244 0.0 0.01110805484096809 0.0 0.0
-0.09733241487682591 0.04172648332167017 0.0 0.011265048311651035 0.0 0.0
-0.08987349494896016 0.03852090369818714 0.0 0.011322943994613447 0.0 0.0
-0.08239236949975795 0.03531061375829991 0.0 0.011336077384869199 0.0 0.0
-0.07490692905307078 0.03210106054223984 0.0 0.01133057176843846 0.0 0.0
-0.06742443345909374 0.02889432212614375 0.0 0.01132092255061921 0.0 0.0
-0.05994075202123901 0.02569062673951957 0.0 0.011325573391023563 0.0 0.0
-0.05243188545024473 0.022486088440313873 0.0 0.011389496187629309 0.0 0.0
-0.04483147383540464 0.019263759057013902 0.0 0.011610987572845243 0.0 0.0
-0.03700354942206552 0.01597446947208375 0.0 0.012141306245291767 0.0 0.0
-0.028758302230791205 0.012511042623657034 0.0 0.01305340409765607 0.0 0.0
-0.020038897136940632 0.008722838355537535 0.0 0.013908171308592477 0.0 0.0
-0.011326059982560947 0.004560075798418123 0.0 0.013067494914920668 0.0 0.0
-0.004308377784625807 0.0003221813840145379 0.0 0.008049672450035152 0.0 0.0
-0.0015364018204146593 2.276927134681976e-05 0.0 0.0036847955028165478 0.0 0.0
-0.0014736495248228718 0.0002283066214137437 0.0 -0.002170311633171149 0.0 0.0
-0.004314971282986759 0.000903391159275695 0.0 -0.004041693856392409 0.0 0.0
-0.011957704776350185 0.004877129098032118 0.0 -0.006387163054481056 0.0 0.0
-0.021984133611023218 0.009496157007513184 0.0 -0.0068722585640143925 0.0 0.0
-0.03212012874249352 0.013890787344330396 0.0 -0.0065061923055378616 0.0 0.0
-0.04157551544018156 0.01789897318408573 0.0 -0.0060661431614041335 0.0 0.0
-0.05044611567244234 0.02165583338720554 0.0 -0.005800068423336403 0.0 0.0
-0.05900620580662215 0.02529961445794346 0.0 -0.005685068528869871 0.0 0.0
-0.067447297621368 0.028907381477636218 0.0 -0.005650130020586155 0.0 0.0
-0.0758598261853569 0.032510074366824446 0.0 -0.0056463626598355025 0.0 0.0
-0.08427462350553114 0.03611635092560717 0.0 -0.005650541552638153 0.0 0.0
-0.09269591518318558 0.03972656261754557 0.0 -0.005652847614219467 0.0 0.0
-0.10111441768154328 0.043337363019586614 0.0 -0.005645267166945381 0.0 0.0
-0.10950270467242304 0.046939314745090395 0.0 -0.005615582052452138 0.0 0.0
-0.11780696367256158 0.05051235752864432 0.0 -0.005533399416816534 0.0 0.0
-0.12588436333324976 0.054006569623450885 0.0 -0.005384937690009013 0.0 0.0
-0.13373215403106747 0.05734584050751902 0.0 -0.0051110500956701495 0.0 0.0
-0.1402713158674107 0.06064565297037397 0.0 -0.004751317767689103 0.0 0.0
-0.15041908669434517 0.061430215355805146 0.0 -0.007493541254358468 0.0 0.0
-0.15686723211547574 0.08252637437827569 0.0 -0.010695116200967171 0.0 0.0
-0.15581373267560217 -0.021475228524549896 0.0 -4.649058915617843e-16 0.0 0.0
-0.15686723211547582 0.08252637437827583 0.0 0.010695116200969478 0.0 0.0
-0.15041908669434528 0.061430215355799844 0.0 0.0074935412543582864 0.0 0.0
-0.1402713158674104 0.06064565297037085 0.0 0.004751317767688843 0.0 0.0
-0.13373215403106734 0.057345840507531165 0.0 0.005111050095669131 0.0 0.0
-0.12588436333324896 0.05400656962345187 0.0 0.005384937690009256 0.0 0.0
-0.11780696367256188 0.05051235752864151 0.0 0.005533399416819872 0.0 0.0
-0.10950270467242382 0.04693931474509365 0.0 0.005615582052452727 0.0 0.0
-0.10111441768154314 0.043337363019586204 0.0 0.005645267166946084 0.0 0.0
-0.09269591518318496 0.039726562617547416 0.0 0.005652847614220906 0.0 0.0
-0.08427462350553049 0.036116350925607076 0.0 0.005650541552637866 0.0 0.0
-0.07585982618535685 0.03251007436682347 0.0 0.00564636265983485 0.0 0.0
-0.06744729762136858 0.02890738147763211 0.0 0.005650130020587018 0.0 0.0
-0.05900620580662228 0.025299614457945645 0.0 0.005685068528868185 0.0 0.0
-0.050446115672441776 0.02165583338720441 0.0 0.005800068423336049 0.0 0.0
-0.041575515440181704 0.017898973184085717 0.0 0.006066143161404559 0.0 0.0
-0.03212012874249389 0.013890787344330104 0.0 0.006506192305537037 0.0 0.0
-0.02198413361102292 0.009496157007512189 0.0 0.006872258564014813 0.0 0.0
-0.011957704776349836 0.004877129098032854 0.0 0.006387163054481351 0.0 0.0
-0.004314971282986872 0.0009033911592769117 0.0 0.0040416938563935445 0.0 0.0
-0.00147364952482337 0.00022830662141352486 0.0 0.0021703116331730217 0.0 0.0
-0.0007877521454448867 0.00016738042732158053 0.0 -0.0014543680691728597 0.0 0.0
-0.00366527655132568 0.001084918473191814 0.0 -0.0017082049710199828 0.0 0.0
-0.01221142141616691 0.004972497749463552 0.0 -0.0021739405073914557 0.0 0.0
-0.023962706353341807 0.009897003068946189 0.0 -0.00242386592817658 0.0 0.0
-0.03560791567529762 0.014603144148226025 0.0 -0.002405404352559872 0.0 0.0
-0.04623879838717987 0.018876371495361387 0.0 -0.0022934723265215498 0.0 0.0
-0.0561049147777386 0.02285874961459747 0.0 -0.0022079365805005953 0.0 0.0
-0.065595780026285 0.026708632764868907 0.0 -0.0021638067405037407 0.0 0.0
-0.07495667643437749 0.03051611529312062 0.0 -0.0021469043874221038 0.0 0.0
-0.08429425557256708 0.03431776798215383 0.0 -0.002142650973151356 0.0 0.0
-0.09364101667988026 0.038123742970335196 0.0 -0.0021424942587841625 0.0 0.0
-0.10299954991170363 0.04193464963525508 0.0 -0.002142153232770432 0.0 0.0
-0.11235866665291173 0.045745591306134724 0.0 -0.0021377834257165634 0.0 0.0
-0.12168687281281693 0.049549872310256454 0.0 -0.0021260192543349713 0.0 0.0
-0.13091357663005532 0.053304826616399195 0.0 -0.002097686482840236 0.0 0.0
-0.13988132479463325 0.05703503556072336 0.0 -0.002042870868943024 0.0 0.0
-0.1483202317150771 0.06027986159567575 0.0 -0.002098581411977704 0.0 0.0
-0.15594951548175617 0.06466497602276093 0.0 -0.001427870617514303 0.0 0.0
-0.1604951507607699 0.061467349162837526 0.0 -0.007011056160423794 0.0 0.0
-0.17689362987684445 0.0931861243376623 0.0 -3.156414355457576e-05 0.0 0.0
-0.19232852590691252 -0.023778556474919457 0.0 -1.4016565685892601e-15 0.0 0.0
-0.1768936298768447 0.093186124337672 0.0 3.1564143553375335e-05 0.0 0.0
-0.16049515076077026 0.061467349162823204 0.0 0.007011056160422689 0.0 0.0
-0.15594951548175556 0.06466497602275706 0.0 0.001427870617513597 0.0 0.0
-0.14832023171507616 0.06027986159568877 0.0 0.0020985814119749563 0.0 0.0
-0.13988132479463228 0.057035035560728926 0.0 0.0020428708689401408 0.0 0.0
-0.13091357663005604 0.05330482661640083 0.0 0.0020976864828439346 0.0 0.0
-0.12168687281281836 0.049549872310263816 0.0 0.002126019254337346 0.0 0.0
-0.11235866665291128 0.04574559130613384 0.0 0.002137783425714331 0.0 0.0
-0.1029995499117023 0.04193464963524829 0.0 0.002142153232773409 0.0 0.0
-0.09364101667987962 0.0381237429703376 0.0 0.002142494258784048 0.0 0.0
-0.0842942555725674 0.034317767982150915 0.0 0.0021426509731517322 0.0 0.0
-0.07495667643437823 0.030516115293121027 0.0 0.0021469043874212494 0.0 0.0
-0.06559578002628463 0.02670863276487287 0.0 0.0021638067405014977 0.0 0.0
-0.056104914777737575 0.022858749614593693 0.0 0.002207936580502584 0.0 0.0
-0.046238798387180015 0.018876371495359676 0.0 0.002293472326521589 0.0 0.0
-0.03560791567529809 0.014603144148222103 0.0 0.0024054043525617652 0.0 0.0
-0.023962706353341585 0.009897003068946877 0.0 0.0024238659281779294 0.0 0.0
-0.012211421416166887 0.004972497749464931 0.0 0.0021739405073926124 0.0 0.0
-0.003665276551325848 0.0010849184731935107 0.0 0.0017082049710200513 0.0 0.0
-0.0007877521454449884 0.0001673804273211641 0.0 0.0014543680691737886 0.0 0.0