# vtk DataFile Version 3.0
Some data
ASCII
DATASET UNSTRUCTURED_GRID
POINTS 861 float
0.0 0.0 0.0
0.4 0.0 0.0
0.8 0.0 0.0
1.2000000000000002 0.0 0.0
1.6 0.0 0.0
2.0 0.0 0.0
2.4000000000000004 0.0 0.0
2.8000000000000003 0.0 0.0
3.2 0.0 0.0
3.6 0.0 0.0
4.0 0.0 0.0
4.4 0.0 0.0
4.800000000000001 0.0 0.0
5.2 0.0 0.0
5.6000000000000005 0.0 0.0
6.0 0.0 0.0
6.4 0.0 0.0
6.800000000000001 0.0 0.0
7.2 0.0 0.0
7.6000000000000005 0.0 0.0
8.0 0.0 0.0
8.4 0.0 0.0
8.8 0.0 0.0
9.200000000000001 0.0 0.0
9.600000000000001 0.0 0.0
10.0 0.0 0.0
10.4 0.0 0.0
10.8 0.0 0.0
11.200000000000001 0.0 0.0
11.600000000000001 0.0 0.0
12.0 0.0 0.0
12.4 0.0 0.0
12.8 0.0 0.0
13.200000000000001 0.0 0.0
13.600000000000001 0.0 0.0
14.0 0.0 0.0
14.4 0.0 0.0
14.8 0.0 0.0
15.200000000000001 0.0 0.0
15.600000000000001 0.0 0.0
16.0 0.0 0.0
0.0 0.1 0.0
0.4 0.1 0.0
0.8 0.1 0.0
1.2000000000000002 0.1 0.0
1.6 0.1 0.0
2.0 0.1 0.0
2.4000000000000004 0.1 0.0
2.8000000000000003 0.1 0.0
3.2 0.1 0.0
3.6 0.1 0.0
4.0 0.1 0.0
4.4 0.1 0.0
4.800000000000001 0.1 0.0
5.2 0.1 0.0
5.6000000000000005 0.1 0.0
6.0 0.1 0.0
6.4 0.1 0.0
6.800000000000001 0.1 0.0
7.2 0.1 0.0
7.6000000000000005 0.1 0.0
8.0 0.1 0.0
8.4 0.1 0.0
8.8 0.1 0.0
9.200000000000001 0.1 0.0
9.600000000000001 0.1 0.0
10.0 0.1 0.0
10.4 0.1 0.0
10.8 0.1 0.0
11.200000000000001 0.1 0.0
11.600000000000001 0.1 0.0
12.0 0.1 0.0
12.4 0.1 0.0
12.8 0.1 0.0
13.200000000000001 0.1 0.0
13.600000000000001 0.1 0.0
14.0 0.1 0.0
14.4 0.1 0.0
14.8 0.1 0.0
15.200000000000001 0.1 0.0
15.600000000000001 0.1 0.0
16.0 0.1 0.0
0.0 0.2 0.0
0.4 0.2 0.0
0.8 0.2 0.0
1.2000000000000002 0.2 0.0
1.6 0.2 0.0
2.0 0.2 0.0
2.4000000000000004 0.2 0.0
2.8000000000000003 0.2 0.0
3.2 0.2 0.0
3.6 0.2 0.0
4.0 0.2 0.0
4.4 0.2 0.0
4.800000000000001 0.2 0.0
5.2 0.2 0.0
5.6000000000000005 0.2 0.0
6.0 0.2 0.0
6.4 0.2 0.0
6.800000000000001 0.2 0.0
7.2 0.2 0.0
7.6000000000000005 0.2 0.0
8.0 0.2 0.0
8.4 0.2 0.0
8.8 0.2 0.0
9.200000000000001 0.2 0.0
9.600000000000001 0.2 0.0
10.0 0.2 0.0
10.4 0.2 0.0
10.8 0.2 0.0
11.200000000000001 0.2 0.0
11.600000000000001 0.2 0.0
12.0 0.2 0.0
12.4 0.2 0.0
12.8 0.2 0.0
13.200000000000001 0.2 0.0
13.600000000000001 0.2 0.0
14.0 0.2 0.0
14.4 0.2 0.0
14.8 0.2 0.0
15.200000000000001 0.2 0.0
15.600000000000001 0.2 0.0
16.0 0.2 0.0
0.0 0.30000000000000004 0.0
0.4 0.30000000000000004 0.0
0.8 0.30000000000000004 0.0
1.2000000000000002 0.30000000000000004 0.0
1.6 0.30000000000000004 0.0
2.0 0.30000000000000004 0.0
2.4000000000000004 0.30000000000000004 0.0
2.8000000000000003 0.30000000000000004 0.0
3.2 0.30000000000000004 0.0
3.6 0.30000000000000004 0.0
4.0 0.30000000000000004 0.0
4.4 0.30000000000000004 0.0
4.800000000000001 0.30000000000000004 0.0
5.2 0.30000000000000004 0.0
5.6000000000000005 0.30000000000000004 0.0
6.0 0.30000000000000004 0.0
6.4 0.30000000000000004 0.0
6.800000000000001 0.30000000000000004 0.0
7.2 0.30000000000000004 0.0
7.6000000000000005 0.30000000000000004 0.0
8.0 0.30000000000000004 0.0
8.4 0.30000000000000004 0.0
8.8 0.30000000000000004 0.0
9.200000000000001 0.30000000000000004 0.0
9.600000000000001 0.30000000000000004 0.0
10.0 0.30000000000000004 0.0
10.4 0.30000000000000004 0.0
10.8 0.30000000000000004 0.0
11.200000000000001 0.30000000000000004 0.0
11.600000000000001 0.30000000000000004 0.0
12.0 0.30000000000000004 0.0
12.4 0.30000000000000004 0.0
12.8 0.30000000000000004 0.0
13.200000000000001 0.30000000000000004 0.0
13.600000000000001 0.30000000000000004 0.0
14.0 0.30000000000000004 0.0
14.4 0.30000000000000004 0.0
14.8 0.30000000000000004 0.0
15.200000000000001 0.30000000000000004 0.0
15.600000000000001 0.30000000000000004 0.0
16.0 0.30000000000000004 0.0
0.0 0.4 0.0
0.4 0.4 0.0
0.8 0.4 0.0
1.2000000000000002 0.4 0.0
1.6 0.4 0.0
2.0 0.4 0.0
2.4000000000000004 0.4 0.0
2.8000000000000003 0.4 0.0
3.2 0.4 0.0
3.6 0.4 0.0
4.0 0.4 0.0
4.4 0.4 0.0
4.800000000000001 0.4 0.0
5.2 0.4 0.0
5.6000000000000005 0.4 0.0
6.0 0.4 0.0
6.4 0.4 0.0
6.800000000000001 0.4 0.0
7.2 0.4 0.0
7.6000000000000005 0.4 0.0
8.0 0.4 0.0
8.4 0.4 0.0
8.8 0.4 0.0
9.200000000000001 0.4 0.0
9.600000000000001 0.4 0.0
10.0 0.4 0.0
10.4 0.4 0.0
10.8 0.4 0.0
11.200000000000001 0.4 0.0
11.600000000000001 0.4 0.0
12.0 0.4 0.0
12.4 0.4 0.0
12.8 0.4 0.0
13.200000000000001 0.4 0.0
13.600000000000001 0.4 0.0
14.0 0.4 0.0
14.4 0.4 0.0
14.8 0.4 0.0
15.200000000000001 0.4 0.0
15.600000000000001 0.4 0.0
16.0 0.4 0.0
0.0 0.5 0.0
0.4 0.5 0.0
0.8 0.5 0.0
1.2000000000000002 0.5 0.0
1.6 0.5 0.0
2.0 0.5 0.0
2.4000000000000004 0.5 0.0
2.8000000000000003 0.5 0.0
3.2 0.5 0.0
3.6 0.5 0.0
4.0 0.5 0.0
4.4 0.5 0.0
4.800000000000001 0.5 0.0
5.2 0.5 0.0
5.6000000000000005 0.5 0.0
6.0 0.5 0.0
6.4 0.5 0.0
6.800000000000001 0.5 0.0
7.2 0.5 0.0
7.6000000000000005 0.5 0.0
8.0 0.5 0.0
8.4 0.5 0.0
8.8 0.5 0.0
9.200000000000001 0.5 0.0
9.600000000000001 0.5 0.0
10.0 0.5 0.0
10.4 0.5 0.0
10.8 0.5 0.0
11.200000000000001 0.5 0.0
11.600000000000001 0.5 0.0
12.0 0.5 0.0
12.4 0.5 0.0
12.8 0.5 0.0
13.200000000000001 0.5 0.0
13.600000000000001 0.5 0.0
14.0 0.5 0.0
14.4 0.5 0.0
14.8 0.5 0.0
15.200000000000001 0.5 0.0
15.600000000000001 0.5 0.0
16.0 0.5 0.0
0.0 0.6000000000000001 0.0
0.4 0.6000000000000001 0.0
0.8 0.6000000000000001 0.0
1.2000000000000002 0.6000000000000001 0.0
1.6 0.6000000000000001 0.0
2.0 0.6000000000000001 0.0
2.4000000000000004 0.6000000000000001 0.0
2.8000000000000003 0.6000000000000001 0.0
3.2 0.6000000000000001 0.0
3.6 0.6000000000000001 0.0
4.0 0.6000000000000001 0.0
4.4 0.6000000000000001 0.0
4.800000000000001 0.6000000000000001 0.0
5.2 0.6000000000000001 0.0
5.6000000000000005 0.6000000000000001 0.0
6.0 0.6000000000000001 0.0
6.4 0.6000000000000001 0.0
6.800000000000001 0.6000000000000001 0.0
7.2 0.6000000000000001 0.0
7.6000000000000005 0.6000000000000001 0.0
8.0 0.6000000000000001 0.0
8.4 0.6000000000000001 0.0
8.8 0.6000000000000001 0.0
9.200000000000001 0.6000000000000001 0.0
9.600000000000001 0.6000000000000001 0.0
10.0 0.6000000000000001 0.0
10.4 0.6000000000000001 0.0
10.8 0.6000000000000001 0.0
11.200000000000001 0.6000000000000001 0.0
11.600000000000001 0.6000000000000001 0.0
12.0 0.6000000000000001 0.0
12.4 0.6000000000000001 0.0
12.8 0.6000000000000001 0.0
13.200000000000001 0.6000000000000001 0.0
13.600000000000001 0.6000000000000001 0.0
14.0 0.6000000000000001 0.0
14.4 0.6000000000000001 0.0
14.8 0.6000000000000001 0.0
15.200000000000001 0.6000000000000001 0.0
15.600000000000001 0.6000000000000001 0.0
16.0 0.6000000000000001 0.0
0.0 0.7000000000000001 0.0
0.4 0.7000000000000001 0.0
0.8 0.7000000000000001 0.0
1.2000000000000002 0.7000000000000001 0.0
1.6 0.7000000000000001 0.0
2.0 0.7000000000000001 0.0
2.4000000000000004 0.7000000000000001 0.0
2.8000000000000003 0.7000000000000001 0.0
3.2 0.7000000000000001 0.0
3.6 0.7000000000000001 0.0
4.0 0.7000000000000001 0.0
4.4 0.7000000000000001 0.0
4.800000000000001 0.7000000000000001 0.0
5.2 0.7000000000000001 0.0
5.6000000000000005 0.7000000000000001 0.0
6.0 0.7000000000000001 0.0
6.4 0.7000000000000001 0.0
6.800000000000001 0.7000000000000001 0.0
7.2 0.7000000000000001 0.0
7.6000000000000005 0.7000000000000001 0.0
8.0 0.7000000000000001 0.0
8.4 0.7000000000000001 0.0
8.8 0.7000000000000001 0.0
9.200000000000001 0.7000000000000001 0.0
9.600000000000001 0.7000000000000001 0.0
10.0 0.7000000000000001 0.0
10.4 0.7000000000000001 0.0
10.8 0.7000000000000001 0.0
11.200000000000001 0.7000000000000001 0.0
11.600000000000001 0.7000000000000001 0.0
12.0 0.7000000000000001 0.0
12.4 0.7000000000000001 0.0
12.8 0.7000000000000001 0.0
13.200000000000001 0.7000000000000001 0.0
13.600000000000001 0.7000000000000001 0.0
14.0 0.7000000000000001 0.0
14.4 0.7000000000000001 0.0
14.8 0.7000000000000001 0.0
15.200000000000001 0.7000000000000001 0.0
15.600000000000001 0.7000000000000001 0.0
16.0 0.7000000000000001 0.0
0.0 0.8 0.0
0.4 0.8 0.0
0.8 0.8 0.0
1.2000000000000002 0.8 0.0
1.6 0.8 0.0
2.0 0.8 0.0
2.4000000000000004 0.8 0.0
2.8000000000000003 0.8 0.0
3.2 0.8 0.0
3.6 0.8 0.0
4.0 0.8 0.0
4.4 0.8 0.0
4.800000000000001 0.8 0.0
5.2 0.8 0.0
5.6000000000000005 0.8 0.0
6.0 0.8 0.0
6.4 0.8 0.0
6.800000000000001 0.8 0.0
7.2 0.8 0.0
7.6000000000000005 0.8 0.0
8.0 0.8 0.0
8.4 0.8 0.0
8.8 0.8 0.0
9.200000000000001 0.8 0.0
9.600000000000001 0.8 0.0
10.0 0.8 0.0
10.4 0.8 0.0
10.8 0.8 0.0
11.200000000000001 0.8 0.0
11.600000000000001 0.8 0.0
12.0 0.8 0.0
12.4 0.8 0.0
12.8 0.8 0.0
13.200000000000001 0.8 0.0
13.600000000000001 0.8 0.0
14.0 0.8 0.0
14.4 0.8 0.0
14.8 0.8 0.0
15.200000000000001 0.8 0.0
15.600000000000001 0.8 0.0
16.0 0.8 0.0
0.0 0.9 0.0
0.4 0.9 0.0
0.8 0.9 0.0
1.2000000000000002 0.9 0.0
1.6 0.9 0.0
2.0 0.9 0.0
2.4000000000000004 0.9 0.0
2.8000000000000003 0.9 0.0
3.2 0.9 0.0
3.6 0.9 0.0
4.0 0.9 0.0
4.4 0.9 0.0
4.800000000000001 0.9 0.0
5.2 0.9 0.0
5.6000000000000005 0.9 0.0
6.0 0.9 0.0
6.4 0.9 0.0
6.800000000000001 0.9 0.0
7.2 0.9 0.0
7.6000000000000005 0.9 0.0
8.0 0.9 0.0
8.4 0.9 0.0
8.8 0.9 0.0
9.200000000000001 0.9 0.0
9.600000000000001 0.9 0.0
10.0 0.9 0.0
10.4 0.9 0.0
10.8 0.9 0.0
11.200000000000001 0.9 0.0
11.600000000000001 0.9 0.0
12.0 0.9 0.0
12.4 0.9 0.0
12.8 0.9 0.0
13.200000000000001 0.9 0.0
13.600000000000001 0.9 0.0
14.0 0.9 0.0
14.4 0.9 0.0
14.8 0.9 0.0
15.200000000000001 0.9 0.0
15.600000000000001 0.9 0.0
16.0 0.9 0.0
0.0 1.0 0.0
0.4 1.0 0.0
0.8 1.0 0.0
1.2000000000000002 1.0 0.0
1.6 1.0 0.0
2.0 1.0 0.0
2.4000000000000004 1.0 0.0
2.8000000000000003 1.0 0.0
3.2 1.0 0.0
3.6 1.0 0.0
4.0 1.0 0.0
4.4 1.0 0.0
4.800000000000001 1.0 0.0
5.2 1.0 0.0
5.6000000000000005 1.0 0.0
6.0 1.0 0.0
6.4 1.0 0.0
6.800000000000001 1.0 0.0
7.2 1.0 0.0
7.6000000000000005 1.0 0.0
8.0 1.0 0.0
8.4 1.0 0.0
8.8 1.0 0.0
9.200000000000001 1.0 0.0
9.600000000000001 1.0 0.0
10.0 1.0 0.0
10.4 1.0 0.0
10.8 1.0 0.0
11.200000000000001 1.0 0.0
11.600000000000001 1.0 0.0
12.0 1.0 0.0
12.4 1.0 0.0
12.8 1.0 0.0
13.200000000000001 1.0 0.0
13.600000000000001 1.0 0.0
14.0 1.0 0.0
14.4 1.0 0.0
14.8 1.0 0.0
15.200000000000001 1.0 0.0
15.600000000000001 1.0 0.0
16.0 1.0 0.0
0.0 1.1 0.0
0.4 1.1 0.0
0.8 1.1 0.0
1.2000000000000002 1.1 0.0
1.6 1.1 0.0
2.0 1.1 0.0
2.4000000000000004 1.1 0.0
2.8000000000000003 1.1 0.0
3.2 1.1 0.0
3.6 1.1 0.0
4.0 1.1 0.0
4.4 1.1 0.0
4.800000000000001 1.1 0.0
5.2 1.1 0.0
5.6000000000000005 1.1 0.0
6.0 1.1 0.0
6.4 1.1 0.0
6.800000000000001 1.1 0.0
7.2 1.1 0.0
7.6000000000000005 1.1 0.0
8.0 1.1 0.0
8.4 1.1 0.0
8.8 1.1 0.0
9.200000000000001 1.1 0.0
9.600000000000001 1.1 0.0
10.0 1.1 0.0
10.4 1.1 0.0
10.8 1.1 0.0
11.200000000000001 1.1 0.0
11.600000000000001 1.1 0.0
12.0 1.1 0.0
12.4 1.1 0.0
12.8 1.1 0.0
13.200000000000001 1.1 0.0
13.600000000000001 1.1 0.0
14.0 1.1 0.0
14.4 1.1 0.0
14.8 1.1 0.0
15.200000000000001 1.1 0.0
15.600000000000001 1.1 0.0
16.0 1.1 0.0
0.0 1.2000000000000002 0.0
0.4 1.2000000000000002 0.0
0.8 1.2000000000000002 0.0
1.2000000000000002 1.2000000000000002 0.0
1.6 1.2000000000000002 0.0
2.0 1.2000000000000002 0.0
2.4000000000000004 1.2000000000000002 0.0
2.8000000000000003 1.2000000000000002 0.0
3.2 1.2000000000000002 0.0
3.6 1.2000000000000002 0.0
4.0 1.2000000000000002 0.0
4.4 1.2000000000000002 0.0
4.800000000000001 1.2000000000000002 0.0
5.2 1.2000000000000002 0.0
5.6000000000000005 1.2000000000000002 0.0
6.0 1.2000000000000002 0.0
6.4 1.2000000000000002 0.0
6.800000000000001 1.2000000000000002 0.0
7.2 1.2000000000000002 0.0
7.6000000000000005 1.2000000000000002 0.0
8.0 1.2000000000000002 0.0
8.4 1.2000000000000002 0.0
8.8 1.2000000000000002 0.0
9.200000000000001 1.2000000000000002 0.0
9.600000000000001 1.2000000000000002 0.0
10.0 1.2000000000000002 0.0
10.4 1.2000000000000002 0.0
10.8 1.2000000000000002 0.0
11.200000000000001 1.2000000000000002 0.0
11.600000000000001 1.2000000000000002 0.0
12.0 1.2000000000000002 0.0
12.4 1.2000000000000002 0.0
12.8 1.2000000000000002 0.0
13.200000000000001 1.2000000000000002 0.0
13.600000000000001 1.2000000000000002 0.0
14.0 1.2000000000000002 0.0
14.4 1.2000000000000002 0.0
14.8 1.2000000000000002 0.0
15.200000000000001 1.2000000000000002 0.0
15.600000000000001 1.2000000000000002 0.0
16.0 1.2000000000000002 0.0
0.0 1.3 0.0
0.4 1.3 0.0
0.8 1.3 0.0
1.2000000000000002 1.3 0.0
1.6 1.3 0.0
2.0 1.3 0.0
2.4000000000000004 1.3 0.0
2.8000000000000003 1.3 0.0
3.2 1.3 0.0
3.6 1.3 0.0
4.0 1.3 0.0
4.4 1.3 0.0
4.800000000000001 1.3 0.0
5.2 1.3 0.0
5.6000000000000005 1.3 0.0
6.0 1.3 0.0
6.4 1.3 0.0
6.800000000000001 1.3 0.0
7.2 1.3 0.0
7.6000000000000005 1.3 0.0
8.0 1.3 0.0
8.4 1.3 0.0
8.8 1.3 0.0
9.200000000000001 1.3 0.0
9.600000000000001 1.3 0.0
10.0 1.3 0.0
10.4 1.3 0.0
10.8 1.3 0.0
11.200000000000001 1.3 0.0
11.600000000000001 1.3 0.0
12.0 1.3 0.0
12.4 1.3 0.0
12.8 1.3 0.0
13.200000000000001 1.3 0.0
13.600000000000001 1.3 0.0
14.0 1.3 0.0
14.4 1.3 0.0
14.8 1.3 0.0
15.200000000000001 1.3 0.0
15.600000000000001 1.3 0.0
16.0 1.3 0.0
0.0 1.4000000000000001 0.0
0.4 1.4000000000000001 0.0
0.8 1.4000000000000001 0.0
1.2000000000000002 1.4000000000000001 0.0
1.6 1.4000000000000001 0.0
2.0 1.4000000000000001 0.0
2.4000000000000004 1.4000000000000001 0.0
2.8000000000000003 1.4000000000000001 0.0
3.2 1.4000000000000001 0.0
3.6 1.4000000000000001 0.0
4.0 1.4000000000000001 0.0
4.4 1.4000000000000001 0.0
4.800000000000001 1.4000000000000001 0.0
5.2 1.4000000000000001 0.0
5.6000000000000005 1.4000000000000001 0.0
6.0 1.4000000000000001 0.0
6.4 1.4000000000000001 0.0
6.800000000000001 1.4000000000000001 0.0
7.2 1.4000000000000001 0.0
7.6000000000000005 1.4000000000000001 0.0
8.0 1.4000000000000001 0.0
8.4 1.4000000000000001 0.0
8.8 1.4000000000000001 0.0
9.200000000000001 1.4000000000000001 0.0
9.600000000000001 1.4000000000000001 0.0
10.0 1.4000000000000001 0.0
10.4 1.4000000000000001 0.0
10.8 1.4000000000000001 0.0
11.200000000000001 1.4000000000000001 0.0
11.600000000000001 1.4000000000000001 0.0
12.0 1.4000000000000001 0.0
12.4 1.4000000000000001 0.0
12.8 1.4000000000000001 0.0
13.200000000000001 1.4000000000000001 0.0
13.600000000000001 1.4000000000000001 0.0
14.0 1.4000000000000001 0.0
14.4 1.4000000000000001 0.0
14.8 1.4000000000000001 0.0
15.200000000000001 1.4000000000000001 0.0
15.600000000000001 1.4000000000000001 0.0
16.0 1.4000000000000001 0.0
0.0 1.5 0.0
0.4 1.5 0.0
0.8 1.5 0.0
1.2000000000000002 1.5 0.0
1.6 1.5 0.0
2.0 1.5 0.0
2.4000000000000004 1.5 0.0
2.8000000000000003 1.5 0.0
3.2 1.5 0.0
3.6 1.5 0.0
4.0 1.5 0.0
4.4 1.5 0.0
4.800000000000001 1.5 0.0
5.2 1.5 0.0
5.6000000000000005 1.5 0.0
6.0 1.5 0.0
6.4 1.5 0.0
6.800000000000001 1.5 0.0
7.2 1.5 0.0
7.6000000000000005 1.5 0.0
8.0 1.5 0.0
8.4 1.5 0.0
8.8 1.5 0.0
9.200000000000001 1.5 0.0
9.600000000000001 1.5 0.0
10.0 1.5 0.0
10.4 1.5 0.0
10.8 1.5 0.0
11.200000000000001 1.5 0.0
11.600000000000001 1.5 0.0
12.0 1.5 0.0
12.4 1.5 0.0
12.8 1.5 0.0
13.200000000000001 1.5 0.0
13.600000000000001 1.5 0.0
14.0 1.5 0.0
14.4 1.5 0.0
14.8 1.5 0.0
15.200000000000001 1.5 0.0
15.600000000000001 1.5 0.0
16.0 1.5 0.0
0.0 1.6 0.0
0.4 1.6 0.0
0.8 1.6 0.0
1.2000000000000002 1.6 0.0
1.6 1.6 0.0
2.0 1.6 0.0
2.4000000000000004 1.6 0.0
2.8000000000000003 1.6 0.0
3.2 1.6 0.0
3.6 1.6 0.0
4.0 1.6 0.0
4.4 1.6 0.0
4.800000000000001 1.6 0.0
5.2 1.6 0.0
5.6000000000000005 1.6 0.0
6.0 1.6 0.0
6.4 1.6 0.0
6.800000000000001 1.6 0.0
7.2 1.6 0.0
7.6000000000000005 1.6 0.0
8.0 1.6 0.0
8.4 1.6 0.0
8.8 1.6 0.0
9.200000000000001 1.6 0.0
9.600000000000001 1.6 0.0
10.0 1.6 0.0
10.4 1.6 0.0
10.8 1.6 0.0
11.200000000000001 1.6 0.0
11.600000000000001 1.6 0.0
12.0 1.6 0.0
12.4 1.6 0.0
12.8 1.6 0.0
13.200000000000001 1.6 0.0
13.600000000000001 1.6 0.0
14.0 1.6 0.0
14.4 1.6 0.0
14.8 1.6 0.0
15.200000000000001 1.6 0.0
15.600000000000001 1.6 0.0
16.0 1.6 0.0
0.0 1.7000000000000002 0.0
0.4 1.7000000000000002 0.0
0.8 1.7000000000000002 0.0
1.2000000000000002 1.7000000000000002 0.0
1.6 1.7000000000000002 0.0
2.0 1.7000000000000002 0.0
2.4000000000000004 1.7000000000000002 0.0
2.8000000000000003 1.7000000000000002 0.0
3.2 1.7000000000000002 0.0
3.6 1.7000000000000002 0.0
4.0 1.7000000000000002 0.0
4.4 1.7000000000000002 0.0
4.800000000000001 1.7000000000000002 0.0
5.2 1.7000000000000002 0.0
5.6000000000000005 1.7000000000000002 0.0
6.0 1.7000000000000002 0.0
6.4 1.7000000000000002 0.0
6.800000000000001 1.7000000000000002 0.0
7.2 1.7000000000000002 0.0
7.6000000000000005 1.7000000000000002 0.0
8.0 1.7000000000000002 0.0
8.4 1.7000000000000002 0.0
8.8 1.7000000000000002 0.0
9.200000000000001 1.7000000000000002 0.0
9.600000000000001 1.7000000000000002 0.0
10.0 1.7000000000000002 0.0
10.4 1.7000000000000002 0.0
10.8 1.7000000000000002 0.0
11.200000000000001 1.7000000000000002 0.0
11.600000000000001 1.7000000000000002 0.0
12.0 1.7000000000000002 0.0
12.4 1.7000000000000002 0.0
12.8 1.7000000000000002 0.0
13.200000000000001 1.7000000000000002 0.0
13.600000000000001 1.7000000000000002 0.0
14.0 1.7000000000000002 0.0
14.4 1.7000000000000002 0.0
14.8 1.7000000000000002 0.0
15.200000000000001 1.7000000000000002 0.0
15.600000000000001 1.7000000000000002 0.0
16.0 1.7000000000000002 0.0
0.0 1.8 0.0
0.4 1.8 0.0
0.8 1.8 0.0
1.2000000000000002 1.8 0.0
1.6 1.8 0.0
2.0 1.8 0.0
2.4000000000000004 1.8 0.0
2.8000000000000003 1.8 0.0
3.2 1.8 0.0
3.6 1.8 0.0
4.0 1.8 0.0
4.4 1.8 0.0
4.800000000000001 1.8 0.0
5.2 1.8 0.0
5.6000000000000005 1.8 0.0
6.0 1.8 0.0
6.4 1.8 0.0
6.800000000000001 1.8 0.0
7.2 1.8 0.0
7.6000000000000005 1.8 0.0
8.0 1.8 0.0
8.4 1.8 0.0
8.8 1.8 0.0
9.200000000000001 1.8 0.0
9.600000000000001 1.8 0.0
10.0 1.8 0.0
10.4 1.8 0.0
10.8 1.8 0.0
11.200000000000001 1.8 0.0
11.600000000000001 1.8 0.0
12.0 1.8 0.0
12.4 1.8 0.0
12.8 1.8 0.0
13.200000000000001 1.8 0.0
13.600000000000001 1.8 0.0
14.0 1.8 0.0
14.4 1.8 0.0
14.8 1.8 0.0
15.200000000000001 1.8 0.0
15.600000000000001 1.8 0.0
16.0 1.8 0.0
0.0 1.9000000000000001 0.0
0.4 1.9000000000000001 0.0
0.8 1.9000000000000001 0.0
1.2000000000000002 1.9000000000000001 0.0
1.6 1.9000000000000001 0.0
2.0 1.9000000000000001 0.0
2.4000000000000004 1.9000000000000001 0.0
2.8000000000000003 1.9000000000000001 0.0
3.2 1.9000000000000001 0.0
3.6 1.9000000000000001 0.0
4.0 1.9000000000000001 0.0
4.4 1.9000000000000001 0.0
4.800000000000001 1.9000000000000001 0.0
5.2 1.9000000000000001 0.0
5.6000000000000005 1.9000000000000001 0.0
6.0 1.9000000000000001 0.0
6.4 1.9000000000000001 0.0
6.800000000000001 1.9000000000000001 0.0
7.2 1.9000000000000001 0.0
7.6000000000000005 1.9000000000000001 0.0
8.0 1.9000000000000001 0.0
8.4 1.9000000000000001 0.0
8.8 1.9000000000000001 0.0
9.200000000000001 1.9000000000000001 0.0
9.600000000000001 1.9000000000000001 0.0
10.0 1.9000000000000001 0.0
10.4 1.9000000000000001 0.0
10.8 1.9000000000000001 0.0
11.200000000000001 1.9000000000000001 0.0
11.600000000000001 1.9000000000000001 0.0
12.0 1.9000000000000001 0.0
12.4 1.9000000000000001 0.0
12.8 1.9000000000000001 0.0
13.200000000000001 1.9000000000000001 0.0
13.600000000000001 1.9000000000000001 0.0
14.0 1.9000000000000001 0.0
14.4 1.9000000000000001 0.0
14.8 1.9000000000000001 0.0
15.200000000000001 1.9000000000000001 0.0
15.600000000000001 1.9000000000000001 0.0
16.0 1.9000000000000001 0.0
0.0 2.0 0.0
0.4 2.0 0.0
0.8 2.0 0.0
1.2000000000000002 2.0 0.0
1.6 2.0 0.0
2.0 2.0 0.0
2.4000000000000004 2.0 0.0
2.8000000000000003 2.0 0.0
3.2 2.0 0.0
3.6 2.0 0.0
4.0 2.0 0.0
4.4 2.0 0.0
4.800000000000001 2.0 0.0
5.2 2.0 0.0
5.6000000000000005 2.0 0.0
6.0 2.0 0.0
6.4 2.0 0.0
6.800000000000001 2.0 0.0
7.2 2.0 0.0
7.6000000000000005 2.0 0.0
8.0 2.0 0.0
8.4 2.0 0.0
8.8 2.0 0.0
9.200000000000001 2.0 0.0
9.600000000000001 2.0 0.0
10.0 2.0 0.0
10.4 2.0 0.0
10.8 2.0 0.0
11.200000000000001 2.0 0.0
11.600000000000001 2.0 0.0
12.0 2.0 0.0
12.4 2.0 0.0
12.8 2.0 0.0
13.200000000000001 2.0 0.0
13.600000000000001 2.0 0.0
14.0 2.0 0.0
14.4 2.0 0.0
14.8 2.0 0.0
15.200000000000001 2.0 0.0
15.600000000000001 2.0 0.0
16.0 2.0 0.0
CELLS 800 4000
4 0 1 42 41
4 1 2 43 42
4 2 3 44 43
4 3 4 45 44
4 4 5 46 45
4 5 6 47 46
4 6 7 48 47
4 7 8 49 48
4 8 9 50 49
4 9 10 51 50
4 10 11 52 51
4 11 12 53 52
4 12 13 54 53
4 13 14 55 54
4 14 15 56 55
4 15 16 57 56
4 16 17 58 57
4 17 18 59 58
4 18 19 60 59
4 19 20 61 60
4 20 21 62 61
4 21 22 63 62
4 22 23 64 63
4 23 24 65 64
4 24 25 66 65
4 25 26 67 66
4 26 27 68 67
4 27 28 69 68
4 28 29 70 69
4 29 30 71 70
4 30 31 72 71
4 31 32 73 72
4 32 33 74 73
4 33 34 75 74
4 34 35 76 75
4 35 36 77 76
4 36 37 78 77
4 37 38 79 78
4 38 39 80 79
4 39 40 81 80
4 41 42 83 82
4 42 43 84 83
4 43 44 85 84
4 44 45 86 85
4 45 46 87 86
4 46 47 88 87
4 47 48 89 88
4 48 49 90 89
4 49 50 91 90
4 50 51 92 91
4 51 52 93 92
4 52 53 94 93
4 53 54 95 94
4 54 55 96 95
4 55 56 97 96
4 56 57 98 97
4 57 58 99 98
4 58 59 100 99
4 59 60 101 100
4 60 61 102 101
4 61 62 103 102
4 62 63 104 103
4 63 64 105 104
4 64 65 106 105
4 65 66 107 106
4 66 67 108 107
4 67 68 109 108
4 68 69 110 109
4 69 70 111 110
4 70 71 112 111
4 71 72 113 112
4 72 73 114 113
4 73 74 115 114
4 74 75 116 115
4 75 76 117 116
4 76 77 118 117
4 77 78 119 118
4 78 79 120 119
4 79 80 121 120
4 80 81 122 121
4 82 83 124 123
4 83 84 125 124
4 84 85 126 125
4 85 86 127 126
4 86 87 128 127
4 87 88 129 128
4 88 89 130 129
4 89 90 131 130
4 90 91 132 131
4 91 92 133 132
4 92 93 134 133
4 93 94 135 134
4 94 95 136 135
4 95 96 137 136
4 96 97 138 137
4 97 98 139 138
4 98 99 140 139
4 99 100 141 140
4 100 101 142 141
4 101 102 143 142
4 102 103 144 143
4 103 104 145 144
4 104 105 146 145
4 105 106 147 146
4 106 107 148 147
4 107 108 149 148
4 108 109 150 149
4 109 110 151 150
4 110 111 152 151
4 111 112 153 152
4 112 113 154 153
4 113 114 155 154
4 114 115 156 155
4 115 116 157 156
4 116 117 158 157
4 117 118 159 158
4 118 119 160 159
4 119 120 161 160
4 120 121 162 161
4 121 122 163 162
4 123 124 165 164
4 124 125 166 165
4 125 126 167 166
4 126 127 168 167
4 127 128 169 168
4 128 129 170 169
4 129 130 171 170
4 130 131 172 171
4 131 132 173 172
4 132 133 174 173
4 133 134 175 174
4 134 135 176 175
4 135 136 177 176
4 136 137 178 177
4 137 138 179 178
4 138 139 180 179
4 139 140 181 180
4 140 141 182 181
4 141 142 183 182
4 142 143 184 183
4 143 144 185 184
4 144 145 186 185
4 145 146 187 186
4 146 147 188 187
4 147 148 189 188
4 148 149 190 189
4 149 150 191 190
4 150 151 192 191
4 151 152 193 192
4 152 153 194 193
4 153 154 195 194
4 154 155 196 195
4 155 156 197 196
4 156 157 198 197
4 157 158 199 198
4 158 159 200 199
4 159 160 201 200
4 160 161 202 201
4 161 162 203 202
4 162 163 204 203
4 164 165 206 205
4 165 166 207 206
4 166 167 208 207
4 167 168 209 208
4 168 169 210 209
4 169 170 211 210
4 170 171 212 211
4 171 172 213 212
4 172 173 214 213
4 173 174 215 214
4 174 175 216 215
4 175 176 217 216
4 176 177 218 217
4 177 178 219 218
4 178 179 220 219
4 179 180 221 220
4 180 181 222 221
4 181 182 223 222
4 182 183 224 223
4 183 184 225 224
4 184 185 226 225
4 185 186 227 226
4 186 187 228 227
4 187 188 229 228
4 188 189 230 229
4 189 190 231 230
4 190 191 232 231
4 191 192 233 232
4 192 193 234 233
4 193 194 235 234
4 194 195 236 235
4 195 196 237 236
4 196 197 238 237
4 197 198 239 238
4 198 199 240 239
4 199 200 241 240
4 200 201 242 241
4 201 202 243 242
4 202 203 244 243
4 203 204 245 244
4 205 206 247 246
4 206 207 248 247
4 207 208 249 248
4 208 209 250 249
4 209 210 251 250
4 210 211 252 251
4 211 212 253 252
4 212 213 254 253
4 213 214 255 254
4 214 215 256 255
4 215 216 257 256
4 216 217 258 257
4 217 218 259 258
4 218 219 260 259
4 219 220 261 260
4 220 221 262 261
4 221 222 263 262
4 222 223 264 263
4 223 224 265 264
4 224 225 266 265
4 225 226 267 266
4 226 227 268 267
4 227 228 269 268
4 228 229 270 269
4 229 230 271 270
4 230 231 272 271
4 231 232 273 272
4 232 233 274 273
4 233 234 275 274
4 234 235 276 275
4 235 236 277 276
4 236 237 278 277
4 237 238 279 278
4 238 239 280 279
4 239 240 281 280
4 240 241 282 281
4 241 242 283 282
4 242 243 284 283
4 243 244 285 284
4 244 245 286 285
4 246 247 288 287
4 247 248 289 288
4 248 249 290 289
4 249 250 291 290
4 250 251 292 291
4 251 252 293 292
4 252 253 294 293
4 253 254 295 294
4 254 255 296 295
4 255 256 297 296
4 256 257 298 297
4 257 258 299 298
4 258 259 300 299
4 259 260 301 300
4 260 261 302 301
4 261 262 303 302
4 262 263 304 303
4 263 264 305 304
4 264 265 306 305
4 265 266 307 306
4 266 267 308 307
4 267 268 309 308
4 268 269 310 309
4 269 270 311 310
4 270 271 312 311
4 271 272 313 312
4 272 273 314 313
4 273 274 315 314
4 274 275 316 315
4 275 276 317 316
4 276 277 318 317
4 277 278 319 318
4 278 279 320 319
4 279 280 321 320
4 280 281 322 321
4 281 282 323 322
4 282 283 324 323
4 283 284 325 324
4 284 285 326 325
4 285 286 327 326
4 287 288 329 328
4 288 289 330 329
4 289 290 331 330
4 290 291 332 331
4 291 292 333 332
4 292 293 334 333
4 293 294 335 334
4 294 295 336 335
4 295 296 337 336
4 296 297 338 337
4 297 298 339 338
4 298 299 340 339
4 299 300 341 340
4 300 301 342 341
4 301 302 343 342
4 302 303 344 343
4 303 304 345 344
4 304 305 346 345
4 305 306 347 346
4 306 307 348 347
4 307 308 349 348
4 308 309 350 349
4 309 310 351 350
4 310 311 352 351
4 311 312 353 352
4 312 313 354 353
4 313 314 355 354
4 314 315 356 355
4 315 316 357 356
4 316 317 358 357
4 317 318 359 358
4 318 319 360 359
4 319 320 361 360
4 320 321 362 361
4 321 322 363 362
4 322 323 364 363
4 323 324 365 364
4 324 325 366 365
4 325 326 367 366
4 326 327 368 367
4 328 329 370 369
4 329 330 371 370
4 330 331 372 371
4 331 332 373 372
4 332 333 374 373
4 333 334 375 374
4 334 335 376 375
4 335 336 377 376
4 336 337 378 377
4 337 338 379 378
4 338 339 380 379
4 339 340 381 380
4 340 341 382 381
4 341 342 383 382
4 342 343 384 383
4 343 344 385 384
4 344 345 386 385
4 345 346 387 386
4 346 347 388 387
4 347 348 389 388
4 348 349 390 389
4 349 350 391 390
4 350 351 392 391
4 351 352 393 392
4 352 353 394 393
4 353 354 395 394
4 354 355 396 395
4 355 356 397 396
4 356 357 398 397
4 357 358 399 398
4 358 359 400 399
4 359 360 401 400
4 360 361 402 401
4 361 362 403 402
4 362 363 404 403
4 363 364 405 404
4 364 365 406 405
4 365 366 407 406
4 366 367 408 407
4 367 368 409 408
4 369 370 411 410
4 370 371 412 411
4 371 372 413 412
4 372 373 414 413
4 373 374 415 414
4 374 375 416 415
4 375 376 417 416
4 376 377 418 417
4 377 378 419 418
4 378 379 420 419
4 379 380 421 420
4 380 381 422 421
4 381 382 423 422
4 382 383 424 423
4 383 384 425 424
4 384 385 426 425
4 385 386 427 426
4 386 387 428 427
4 387 388 429 428
4 388 389 430 429
4 389 390 431 430
4 390 391 432 431
4 391 392 433 432
4 392 393 434 433
4 393 394 435 434
4 394 395 436 435
4 395 396 437 436
4 396 397 438 437
4 397 398 439 438
4 398 399 440 439
4 399 400 441 440
4 400 401 442 441
4 401 402 443 442
4 402 403 444 443
4 403 404 445 444
4 404 405 446 445
4 405 406 447 446
4 406 407 448 447
4 407 408 449 448
4 408 409 450 449
4 410 411 452 451
4 411 412 453 452
4 412 413 454 453
4 413 414 455 454
4 414 415 456 455
4 415 416 457 456
4 416 417 458 457
4 417 418 459 458
4 418 419 460 459
4 419 420 461 460
4 420 421 462 461
4 421 422 463 462
4 422 423 464 463
4 423 424 465 464
4 424 425 466 465
4 425 426 467 466
4 426 427 468 467
4 427 428 469 468
4 428 429 470 469
4 429 430 471 470
4 430 431 472 471
4 431 432 473 472
4 432 433 474 473
4 433 434 475 474
4 434 435 476 475
4 435 436 477 476
4 436 437 478 477
4 437 438 479 478
4 438 439 480 479
4 439 440 481 480
4 440 441 482 481
4 441 442 483 482
4 442 443 484 483
4 443 444 485 484
4 444 445 486 485
4 445 446 487 486
4 446 447 488 487
4 447 448 489 488
4 448 449 490 489
4 449 450 491 490
4 451 452 493 492
4 452 453 494 493
4 453 454 495 494
4 454 455 496 495
4 455 456 497 496
4 456 457 498 497
4 457 458 499 498
4 458 459 500 499
4 459 460 501 500
4 460 461 502 501
4 461 462 503 502
4 462 463 504 503
4 463 464 505 504
4 464 465 506 505
4 465 466 507 506
4 466 467 508 507
4 467 468 509 508
4 468 469 510 509
4 469 470 511 510
4 470 471 512 511
4 471 472 513 512
4 472 473 514 513
4 473 474 515 514
4 474 475 516 515
4 475 476 517 516
4 476 477 518 517
4 477 478 519 518
4 478 479 520 519
4 479 480 521 520
4 480 481 522 521
4 481 482 523 522
4 482 483 524 523
4 483 484 525 524
4 484 485 526 525
4 485 486 527 526
4 486 487 528 527
4 487 488 529 528
4 488 489 530 529
4 489 490 531 530
4 490 491 532 531
4 492 493 534 533
4 493 494 535 534
4 494 495 536 535
4 495 496 537 536
4 496 497 538 537
4 497 498 539 538
4 498 499 540 539
4 499 500 541 540
4 500 501 542 541
4 501 502 543 542
4 502 503 544 543
4 503 504 545 544
4 504 505 546 545
4 505 506 547 546
4 506 507 548 547
4 507 508 549 548
4 508 509 550 549
4 509 510 551 550
4 510 511 552 551
4 511 512 553 552
4 512 513 554 553
4 513 514 555 554
4 514 515 556 555
4 515 516 557 556
4 516 517 558 557
4 517 518 559 558
4 518 519 560 559
4 519 520 561 560
4 520 521 562 561
4 521 522 563 562
4 522 523 564 563
4 523 524 565 564
4 524 525 566 565
4 525 526 567 566
4 526 527 568 567
4 527 528 569 568
4 528 529 570 569
4 529 530 571 570
4 530 531 572 571
4 531 532 573 572
4 533 534 575 574
4 534 535 576 575
4 535 536 577 576
4 536 537 578 577
4 537 538 579 578
4 538 539 580 579
4 539 540 581 580
4 540 541 582 581
4 541 542 583 582
4 542 543 584 583
4 543 544 585 584
4 544 545 586 585
4 545 546 587 586
4 546 547 588 587
4 547 548 589 588
4 548 549 590 589
4 549 550 591 590
4 550 551 592 591
4 551 552 593 592
4 552 553 594 593
4 553 554 595 594
4 554 555 596 595
4 555 556 597 596
4 556 557 598 597
4 557 558 599 598
4 558 559 600 599
4 559 560 601 600
4 560 561 602 601
4 561 562 603 602
4 562 563 604 603
4 563 564 605 604
4 564 565 606 605
4 565 566 607 606
4 566 567 608 607
4 567 568 609 608
4 568 569 610 609
4 569 570 611 610
4 570 571 612 611
4 571 572 613 612
4 572 573 614 613
4 574 575 616 615
4 575 576 617 616
4 576 577 618 617
4 577 578 619 618
4 578 579 620 619
4 579 580 621 620
4 580 581 622 621
4 581 582 623 622
4 582 583 624 623
4 583 584 625 624
4 584 585 626 625
4 585 586 627 626
4 586 587 628 627
4 587 588 629 628
4 588 589 630 629
4 589 590 631 630
4 590 591 632 631
4 591 592 633 632
4 592 593 634 633
4 593 594 635 634
4 594 595 636 635
4 595 596 637 636
4 596 597 638 637
4 597 598 639 638
4 598 599 640 639
4 599 600 641 640
4 600 601 642 641
4 601 602 643 642
4 602 603 644 643
4 603 604 645 644
4 604 605 646 645
4 605 606 647 646
4 606 607 648 647
4 607 608 649 648
4 608 609 650 649
4 609 610 651 650
4 610 611 652 651
4 611 612 653 652
4 612 613 654 653
4 613 614 655 654
4 615 616 657 656
4 616 617 658 657
4 617 618 659 658
4 618 619 660 659
4 619 620 661 660
4 620 621 662 661
4 621 622 663 662
4 622 623 664 663
4 623 624 665 664
4 624 625 666 665
4 625 626 667 666
4 626 627 668 667
4 627 628 669 668
4 628 629 670 669
4 629 630 671 670
4 630 631 672 671
4 631 632 673 672
4 632 633 674 673
4 633 634 675 674
4 634 635 676 675
4 635 636 677 676
4 636 637 678 677
4 637 638 679 678
4 638 639 680 679
4 639 640 681 680
4 640 641 682 681
4 641 642 683 682
4 642 643 684 683
4 643 644 685 684
4 644 645 686 685
4 645 646 687 686
4 646 647 688 687
4 647 648 689 688
4 648 649 690 689
4 649 650 691 690
4 650 651 692 691
4 651 652 693 692
4 652 653 694 693
4 653 654 695 694
4 654 655 696 695
4 656 657 698 697
4 657 658 699 698
4 658 659 700 699
4 659 660 701 700
4 660 661 702 701
4 661 662 703 702
4 662 663 704 703
4 663 664 705 704
4 664 665 706 705
4 665 666 707 706
4 666 667 708 707
4 667 668 709 708
4 668 669 710 709
4 669 670 711 710
4 670 671 712 711
4 671 672 713 712
4 672 673 714 713
4 673 674 715 714
4 674 675 716 715
4 675 676 717 716
4 676 677 718 717
4 677 678 719 718
4 678 679 720 719
4 679 680 721 720
4 680 681 722 721
4 681 682 723 722
4 682 683 724 723
4 683 684 725 724
4 684 685 726 725
4 685 686 727 726
4 686 687 728 727
4 687 688 729 728
4 688 689 730 729
4 689 690 731 730
4 690 691 732 731
4 691 692 733 732
4 692 693 734 733
4 693 694 735 734
4 694 695 736 735
4 695 696 737 736
4 697 698 739 738
4 698 699 740 739
4 699 700 741 740
4 700 701 742 741
4 701 702 743 742
4 702 703 744 743
4 703 704 745 744
4 704 705 746 745
4 705 706 747 746
4 706 707 748 747
4 707 708 749 748
4 708 709 750 749
4 709 710 751 750
4 710 711 752 751
4 711 712 753 752
4 712 713 754 753
4 713 714 755 754
4 714 715 756 755
4 715 716 757 756
4 716 717 758 757
4 717 718 759 758
4 718 719 760 759
4 719 720 761 760
4 720 721 762 761
4 721 722 763 762
4 722 723 764 763
4 723 724 765 764
4 724 725 766 765
4 725 726 767 766
4 726 727 768 767
4 727 728 769 768
4 728 729 770 769
4 729 730 771 770
4 730 731 772 771
4 731 732 773 772
4 732 733 774 773
4 733 734 775 774
4 734 735 776 775
4 735 736 777 776
4 736 737 778 777
4 738 739 780 779
4 739 740 781 780
4 740 741 782 781
4 741 742 783 782
4 742 743 784 783
4 743 744 785 784
4 744 745 786 785
4 745 746 787 786
4 746 747 788 787
4 747 748 789 788
4 748 749 790 789
4 749 750 791 790
4 750 751 792 791
4 751 752 793 792
4 752 753 794 793
4 753 754 795 794
4 754 755 796 795
4 755 756 797 796
4 756 757 798 797
4 757 758 799 798
4 758 759 800 799
4 759 760 801 800
4 760 761 802 801
4 761 762 803 802
4 762 763 804 803
4 763 764 805 804
4 764 765 806 805
4 765 766 807 806
4 766 767 808 807
4 767 768 809 808
4 768 769 810 809
4 769 770 811 810
4 770 771 812 811
4 771 772 813 812
4 772 773 814 813
4 773 774 815 814
4 774 775 816 815
4 775 776 817 816
4 776 777 818 817
4 777 778 819 818
4 779 780 821 820
4 780 781 822 821
4 781 782 823 822
4 782 783 824 823
4 783 784 825 824
4 784 785 826 825
4 785 786 827 826
4 786 787 828 827
4 787 788 829 828
4 788 789 830 829
4 789 790 831 830
4 790 791 832 831
4 791 792 833 832
4 792 793 834 833
4 793 794 835 834
4 794 795 836 835
4 795 796 837 836
4 796 797 838 837
4 797 798 839 838
4 798 799 840 839
4 799 800 841 840
4 800 801 842 841
4 801 802 843 842
4 802 803 844 843
4 803 804 845 844
4 804 805 846 845
4 805 806 847 846
4 806 807 848 847
4 807 808 849 848
4 808 809 850 849
4 809 810 851 850
4 810 811 852 851
4 811 812 853 852
4 812 813 854 853
4 813 814 855 854
4 814 815 856 855
4 815 816 857 856
4 816 817 858 857
4 817 818 859 858
4 818 819 860 859
CELL_TYPES 800
9
9
9
9
9
9
9
9
9
9
9
9
9
9
9
9
9
9
9
9
9
9
9
9
9
9
9
9
9
9
9
9
9
9
9
9
9
9
9
9
9
9
9
9
9
9
9
9
9
9
9
9
9
9
9
9
9
9
9
9
9
9
9
9
9
9
9
9
9
9
9
9
9
9
9
9
9
9
9
9
9
9
9
9
9
9
9
9
9
9
9
9
9
9
9
9
9
9
9
9
9
9
9
9
9
9
9
9
9
9
9
9
9
9
9
9
9
9
9
9
9
9
9
9
9
9
9
9
9
9
9
9
9
9
9
9
9
9
9
9
9
9
9
9
9
9
9
9
9
9
9
9
9
9
9
9
9
9
9
9
9
9
9
9
9
9
9
9
9
9
9
9
9
9
9
9
9
9
9
9
9
9
9
9
9
9
9
9
9
9
9
9
9
9
9
9
9
9
9
9
9
9
9
9
9
9
9
9
9
9
9
9
9
9
9
9
9
9
9
9
9
9
9
9
9
9
9
9
9
9
9
9
9
9
9
9
9
9
9
9
9
9
9
9
9
9
9
9
9
9
9
9
9
9
9
9
9
9
9
9
9
9
9
9
9
9
9
9
9
9
9
9
9
9
9
9
9
9
9
9
9
9
9
9
9
9
9
9
9
9
9
9
9
9
9
9
9
9
9
9
9
9
9
9
9
9
9
9
9
9
9
9
9
9
9
9
9
9
9
9
9
9
9
9
9
9
9
9
9
9
9
9
9
9
9
9
9
9
9
9
9
9
9
9
9
9
9
9
9
9
9
9
9
9
9
9
9
9
9
9
9
9
9
9
9
9
9
9
9
9
9
9
9
9
9
9
9
9
9
9
9
9
9
9
9
9
9
9
9
9
9
9
9
9
9
9
9
9
9
9
9
9
9
9
9
9
9
9
9
9
9
9
9
9
9
9
9
9
9
9
9
9
9
9
9
9
9
9
9
9
9
9
9
9
9
9
9
9
9
9
9
9
9
9
9
9
9
9
9
9
9
9
9
9
9
9
9
9
9
9
9
9
9
9
9
9
9
9
9
9
9
9
9
9
9
9
9
9
9
9
9
9
9
9
9
9
9
9
9
9
9
9
9
9
9
9
9
9
9
9
9
9
9
9
9
9
9
9
9
9
9
9
9
9
9
9
9
9
9
9
9
9
9
9
9
9
9
9
9
9
9
9
9
9
9
9
9
9
9
9
9
9
9
9
9
9
9
9
9
9
9
9
9
9
9
9
9
9
9
9
9
9
9
9
9
9
9
9
9
9
9
9
9
9
9
9
9
9
9
9
9
9
9
9
9
9
9
9
9
9
9
9
9
9
9
9
9
9
9
9
9
9
9
9
9
9
9
9
9
9
9
9
9
9
9
9
9
9
9
9
9
9
9
9
9
9
9
9
9
9
9
9
9
9
9
9
9
9
9
9
9
9
9
9
9
9
9
9
9
9
9
9
9
9
9
9
9
9
9
9
9
9
9
9
9
9
9
9
9
9
9
9
9
9
9
9
9
9
9
9
9
9
9
9
9
9
9
9
9
9
9
9
9
9
9
9
9
9
9
9
9
9
9
9
9
9
9
9
9
9
9
9
9
9
9
9
9
9
9
9
9
9
9
9
9
9
9
9
9
9
9
9
9
9
9
9
9
9
9
9
9
9
9
9
9
9
9
9
9
9
9
9
9
9
9
9
9
9
9
9
9
9
9
9
9
9
9
9
9
9
9
9
9
9
9
9
9
9
9
9
9
9
9
9
9
9
9
9
9
9
9
9
9
9
9
9
9
9
9
9
POINT_DATA 861
SCALARS Disp float 2
LOOKUP_TABLE default
0.0 0.0
0.006199771268663635 -0.2916215897120738
0.007630571251735122 -0.57347755472759
0.008437709775853484 -0.8541750413723463
0.00951098835512014 -1.134470915795116
0.011327003023281157 -1.4138901344761503
0.01461579723522921 -1.6917940071094872
0.020284239965641108 -1.967375849242545
0.029403525690623687 -2.2396214618110815
0.04313971476507922 -2.5071974657238174
0.06264797683852948 -2.768297514219447
0.08899888587195812 -3.0205641070228224
0.12314467034831454 -3.261136713687868
0.16590866880297955 -3.4867866187899623
0.21797683209079022 -3.6940099089604477
0.2798268012315185 -3.8791070333051594
0.35160593174935934 -4.038289389614777
0.43299069096970505 -4.167847016925839
0.5230724360137269 -4.264405199906485
0.6203180110942739 -4.325177913137707
0.7223064252683269 -4.348301282277811
0.8242948394423741 -4.325177913137568
0.9215404145229 -4.264405199906206
1.0116221595668868 -4.1678470169254345
1.0930069187871863 -4.0382893896142695
1.1647860493049769 -3.879107033304582
1.226636018445656 -3.6940099089598144
1.2787041817334162 -3.4867866187892913
1.3214681801880308 -3.261136713687181
1.3556139646643404 -3.020564107022141
1.3819648736977268 -2.7682975142187893
1.4014731357711423 -2.5071974657231992
1.4152093248455704 -2.2396214618105104
1.424328610570533 -1.9673758492420308
1.429997053300931 -1.6917940071090343
1.433285847512871 -1.413890134475767
1.4351018621810279 -1.134470915794803
1.4361751407602936 -0.8541750413721068
1.4369822792844116 -0.5734775547274229
1.4384130792674814 -0.2916215897119823
1.444612850536142 0.0
0.07273865528949512 -0.002554090417000195
0.07711502232818619 -0.29192555864615566
0.07785279950931127 -0.573541317652288
0.07856472568419237 -0.8542682650450395
0.07949942596395891 -1.1346338667086941
0.08103478827214475 -1.4142660205255941
0.08385713358716737 -1.6925866420629478
0.08882239992321832 -1.9688294800372415
0.0969352667813739 -2.2420092128750126
0.1092590535749101 -2.5107973253883835
0.12682408717316698 -2.773371975134948
0.15057093732072035 -3.027350264799448
0.18134215278086396 -3.2698446371947285
0.21988512687228068 -3.4975978361987985
0.2668251301703339 -3.707068752973796
0.32260785661233715 -3.8944974659767735
0.38739239836349726 -4.056002444717544
0.4609263573632912 -4.187748740606655
0.5424296510758432 -4.286210797030632
0.630426908835011 -4.3484224052931495
0.7223064252683101 -4.372143891587723
0.8141859417016033 -4.348422405293007
0.9021831994607517 -4.286210797030347
0.9836864931732725 -4.187748740606242
1.0572204521730262 -4.056002444717027
1.122004993924142 -3.8944974659761846
1.1777877203661005 -3.7070687529731514
1.2247277236641083 -3.4975978361981155
1.2632706977554797 -3.2698446371940304
1.2940419132155812 -3.027350264798756
1.3177887633630967 -2.7733719751342814
1.3353537969613218 -2.510797325387758
1.3476775837548334 -2.242009212874436
1.3557904506129708 -1.9688294800367232
1.3607557169490092 -1.6925866420624929
1.3635780622640246 -1.4142660205252098
1.3651134245722072 -1.1346338667083806
1.366048124851973 -0.8542682650448
1.3667600510268538 -0.5735413176521209
1.3674978282079788 -0.29192555864606384
1.3718741952466642 -0.0025540904169977113
0.14444522671062637 -0.004592482952031564
0.14767489328346303 -0.29207815412826826
0.14809464580671533 -0.5735725473174899
0.14867399252391833 -0.8543499089320342
0.14948130950978208 -1.1347621515987467
0.15076431886934138 -1.4145634668222409
0.1531326847148256 -1.693244746177049
0.1573977910185512 -1.970079567836996
0.16448590286873277 -2.244104240626844
0.1753606772863643 -2.5139876635676774
0.19093386501695347 -2.777888991570891
0.21202646888682317 -3.0334012617936956
0.2393731458696387 -3.277615799424757
0.27363418509299214 -3.5072537651448585
0.3153787817930733 -3.7187419502451915
0.36502387195096214 -3.908269423863758
0.4227526077997915 -4.071876007957522
0.48839924517708905 -4.205616137791581
0.5612943571882846 -4.305816808533938
0.6400244077220195 -4.36928958126623
0.7223064252682936 -4.393545268969367
0.8045884428145621 -4.369289581266085
0.8833184933482793 -4.305816808533646
0.9562136053594477 -4.205616137791159
1.0218602427367098 -4.071876007956995
1.0795889785855006 -3.9082694238631586
1.1292340687433486 -3.7187419502445356
1.1709786654433896 -3.507253765144165
1.2052397046667027 -3.2776157994240482
1.2325863816494813 -3.0334012617929944
1.2536789855193171 -2.777888991570216
1.269252173249878 -2.513987663567045
1.2801269476674875 -2.2441042406262626
1.2872150595176524 -1.9700795678364744
1.291480165821367 -1.6932447461765916
1.2938485316668455 -1.4145634668218556
1.2951315410264022 -1.1347621515984327
1.2959388580122653 -0.8543499089317947
1.2965182047294683 -0.5735725473173229
1.2969379572527209 -0.292078154128176
1.3001676238255515 -0.004592482952026286
0.21560454141277305 -0.0062356524974667114
0.21805895705448283 -0.29218226693289373
0.21831388497669865 -0.5735894347903597
0.21876641923947626 -0.8544150336625742
0.21945199699141793 -1.1348647317293845
0.2205125207785962 -1.414791401450197
0.2224532531361375 -1.6937728994922283
0.22602709213670474 -1.9711269373208096
0.23208409898256296 -2.245902324956976
0.24148880645193857 -2.516760867320124
0.255039574672677 -2.7818391614953324
0.27344225500686037 -3.038707729825659
0.29732777350321393 -3.2844402763341103
0.3272683353618952 -3.515741958368471
0.36376732436428 -3.729015374930188
0.40722005961308366 -3.920408784726827
0.45783796390446774 -4.0858980645821
0.5155394750920872 -4.221440132359623
0.5797766141702337 -4.323213892240443
0.6493411336141367 -4.387834663871782
0.7223064252682777 -4.4126297188978265
0.7952717169224132 -4.387834663871636
0.8648362363663004 -4.323213892240147
0.929073375444423 -4.221440132359193
0.9867748866320114 -4.085898064581564
1.0373927909233622 -3.9204087847262183
1.08084552617213 -3.729015374929523
1.1173445151744792 -3.5157419583677685
1.1472850770331253 -3.2844402763333926
1.1711705955294467 -3.038707729824949
1.1895732758636006 -2.7818391614946503
1.203124044084314 -2.516760867319486
1.21252875155367 -2.2459023249563903
1.2185857583995137 -1.9711269373202849
1.2221595974000714 -1.6937728994917691
1.224100329757608 -1.414791401449811
1.2251608535447847 -1.1348647317290703
1.2258464312967259 -0.8544150336623346
1.2262989655595036 -0.5735894347901928
1.2265538934817195 -0.292182266932801
1.2290083091234238 -0.006235652497458777
0.28645280747430385 -0.007567071703969711
0.2883244125179704 -0.29226263968384475
0.28849028840492136 -0.5735990673851937
0.28883667754106385 -0.8544652578077541
0.2894074994654263 -1.1349467294437863
0.2902719273758876 -1.4149626041637104
0.2918263631297497 -1.6941798825844263
0.2947257942008637 -1.971974690433198
0.2997587930563388 -2.247403271109591
0.30768748392923423 -2.5191135556532527
0.3192015864888123 -2.785217663581622
0.3348961490972859 -3.043263834779311
0.3552978690201145 -3.290311807804447
0.38089275329317107 -3.5230555385958335
0.41212229534381034 -3.737880120231457
0.4493471515133792 -3.9309046365586258
0.4928016237354287 -4.098055505556233
0.5424913087890396 -4.2352058098599885
0.5980334839546457 -4.338404378066895
0.6584907906955404 -4.404099457943839
0.722306425268262 -4.429464266236705
0.7861220598409782 -4.40409945794369
0.8465793665818591 -4.338404378066593
0.9021215417474437 -4.235205809859552
0.9518112268010287 -4.09805550555569
0.9952656990230492 -3.9309046365580085
1.032490555192587 -3.737880120230783
1.0637200972431957 -3.523055538595123
1.0893149815162224 -3.2903118078037217
1.1097167014390235 -3.0432638347785943
1.1254112640474718 -2.7852176635809336
1.1369253666070287 -2.5191135556526096
1.144854057479907 -2.2474032711090017
1.1498870563353698 -1.9719746904326703
1.152786487406476 -1.6941798825839658
1.1543409231603345 -1.414962604163324
1.1552053510707945 -1.134946729443472
1.1557761729951566 -0.8544652578075145
1.1561225621312992 -0.5735990673850269
1.15628843801825 -0.2922626396837517
1.1581600430619123 -0.0075670717039595
0.35709621333170827 -0.00863961710247686
0.358507468743018 -0.2923276471850716
0.35862190250581205 -0.5736061404205578
0.3588813285937239 -0.8545025245861806
0.3593424801386824 -1.1350122597794075
0.36003644353725517 -1.4150890506488207
0.36124548227411246 -1.6944799403411555
0.36351574487952093 -1.9726295405154868
0.36753891956902557 -2.248610286907445
0.3740005730169809 -2.52104671910351
0.38347988152858337 -2.7880238014340266
0.39646373787590355 -3.0470682191301193
0.4133775959634132 -3.2952283167001646
0.4346201221042719 -3.5291918320708917
0.4605680845451254 -3.7453331855804888
0.49155197061078376 -3.9397506965997264
0.5278086979273285 -4.108335644576674
0.5694228481872485 -4.246898572150796
0.6162136580389215 -4.351385976340236
0.667564323721886 -4.41810552082039
0.7223064252682462 -4.444088734190146
0.7770485268146016 -4.418105520820238
0.8283991924975539 -4.35138597633993
0.875190002349209 -4.2468985721503545
0.916804152609107 -4.108335644576125
0.9530608799256269 -3.9397506965991025
0.9840447659912591 -3.7453331855798084
1.0099927284320873 -3.5291918320701745
1.0312352545729213 -3.295228316699433
1.048149112660408 -3.0470682191293963
1.0611329690077074 -2.788023801433334
1.070612277519292 -2.5210467191028627
1.0770739309672333 -2.2486102869068527
1.0810971056567278 -1.9726295405149572
1.08336736826213 -1.6944799403406938
1.0845764069989847 -1.415089050648434
1.0852703703975566 -1.135012259779093
1.085731521942515 -0.854502524585941
1.0859909480304268 -0.5736061404203908
1.0861053817932207 -0.2923276471849783
1.0875166372045268 -0.008639617102464671
0.42758986537189925 -0.009493682471295345
0.42863273290254444 -0.2923806595945217
0.42871425879933117 -0.5736130067934428
0.42890015059310893 -0.8545283798511484
0.4292545279608242 -1.1350639096444362
0.42979771893228 -1.4151813322350089
0.4307019400338619 -1.6946904400970813
0.4323967551595751 -1.9731068704559762
0.4354566542800827 -2.2495307013085992
0.4404726048292426 -2.5225654263773265
0.4479350487562377 -2.7902614759495528
0.45822256360963703 -3.05012399524315
0.47166078266417444 -3.2991925769574304
0.4885621720657932 -3.5341531872262815
0.5092387287060539 -3.7513757477051755
0.5339814566807983 -3.9469459152523427
0.5630253729469944 -4.116730830826748
0.596517756592865 -4.256503570140525
0.6344771578563404 -4.362146109441584
0.6766514153982406 -4.429854317422917
0.7223064252682299 -4.45652069876058
0.7679614351382156 -4.429854317422764
0.8101356926801057 -4.362146109441273
0.8480950939435663 -4.2565035701400795
0.8815874775894187 -4.116730830826194
0.9106313938555944 -3.9469459152517135
0.9353741218303175 -3.75137574770449
0.9560506784705582 -3.5341531872255585
0.9729520678721579 -3.2991925769566937
0.9863902869266769 -3.0501239952424224
0.9966778017800597 -2.7902614759488555
1.0041402457070405 -2.522565426376676
1.0091561962561892 -2.249530701308004
1.0122160953766892 -1.973106870455445
1.0139109105023976 -1.6946904400966187
1.0148151316039777 -1.4151813322346218
1.015358322575433 -1.135063909644122
1.0157126999431483 -0.8545283798509087
1.015898591736926 -0.5736130067932759
1.0159801176337127 -0.29238065959442816
1.017022985164355 -0.00949368247128152
0.4979702007892466 -0.010161907169415745
0.498718511572109 -0.29242420738473374
0.4987753397510888 -0.5736201566798307
0.49889521621420935 -0.8545440767370339
0.49914434121547185 -1.1351022957486452
0.49954668909525257 -1.415247923407265
0.500189906217142 -1.6948289273496355
0.5013661027176827 -1.9734277953813062
0.5035285923211924 -2.250180876414729
0.5071510977143376 -2.5236798941486867
0.5126297775471375 -2.7919391387460193
0.5202501382789843 -3.0524391521708574
0.5302437400441297 -3.3022126973534482
0.5428346957270201 -3.5379472748266285
0.5582648900156263 -3.756014480945953
0.5767870228301981 -3.952494640262506
0.5986276985573554 -4.123239756565443
0.6239680048977082 -4.264007839876765
0.6529987599820318 -4.370661110956245
0.6858528901260417 -4.439325371418891
0.7223064252682132 -4.466755386072532
0.7587599604103825 -4.439325371418737
0.7916140905543847 -4.370661110955933
0.820644845638697 -4.264007839876315
0.8459851519790346 -4.123239756564885
0.8678258277061766 -3.9524946402618713
0.8863479605207324 -3.7560144809452622
0.9017781548093238 -3.537947274825902
0.9143691104922004 -3.3022126973527075
0.9243627122573321 -3.0524391521701264
0.9319830729891667 -2.7919391387453185
0.937461752821956 -2.523679894148033
0.9410842582150929 -2.2501808764141327
0.9432467478185973 -1.973427795380774
0.944422944319135 -1.6948289273491728
0.9450661614410234 -1.4152479234068776
0.9454685093208038 -1.1351022957483312
0.945717634322066 -0.8545440767367943
0.9458375107851866 -0.5736201566796636
0.9458943389641663 -0.2924242073846401
0.9466426497470266 -0.010161907169400622
0.5682599011539007 -0.010674724674127048
0.5687815911501174 -0.292460595635994
0.5688125175184714 -0.5736267517141717
0.5688699587799839 -0.8545505996199482
0.56901595086404 -1.1351268509738957
0.5692777384810696 -1.4152938512439925
0.5696933569010211 -1.6949140582129016
0.5704190950902798 -1.9736183841558819
0.5717625856992193 -2.250586461666924
0.5740703627650001 -2.524409973565536
0.5776275341157017 -2.7930717036824357
0.5826306624458255 -3.0540276428735957
0.5892256570739479 -3.304302904952578
0.5975548448977284 -3.540588340399734
0.6077854583945139 -3.759261887618365
0.6201204425420116 -3.95640726489049
0.634783512238888 -4.12787024439332
0.6519855359678728 -4.269404681257108
0.6719928542785611 -4.376897921601426
0.6952962126045783 -4.446473051836109
0.7223064252681963 -4.474762795533351
0.7493166379318129 -4.4464730518359525
0.7726199962578251 -4.376897921601111
0.7926273145685051 -4.269404681256656
0.8098293382974789 -4.12787024439276
0.8244924079943449 -3.9564072648898527
0.8368273921418322 -3.759261887617671
0.8470580056386082 -3.5405883403990046
0.8553871934623805 -3.3043029049518347
0.8619821880904939 -3.0540276428728617
0.8669853164206097 -2.793071703681733
0.8705424877713046 -2.5244099735648806
0.8728502648370802 -2.250586461666326
0.8741937554460165 -1.973618384155349
0.8749194936352733 -1.6949140582124387
0.8753351120552244 -1.415293851243605
0.8755968996722537 -1.1351268509735815
0.8757428917563099 -0.8545505996197085
0.8758003330178222 -0.5736267517140046
0.8758312593861761 -0.2924605956359003
0.8763529493823915 -0.01067472467411091
0.638475564739966 -0.01106230107051294
0.6388326646594694 -0.2924926760899362
0.6388327183356932 -0.5736309401638199
0.6388284909696125 -0.8545486895056386
0.6388741408790846 -1.1351371825225736
0.6389915158163104 -1.4153200231454766
0.6391953187806746 -1.694960820235179
0.6395386925038276 -1.973710759106486
0.6401584506121394 -2.2507851047174894
0.6412535356687705 -2.5247893553753227
0.6429801696325523 -2.7936870003698746
0.6454425993722617 -3.0549136964037626
0.6487034195248785 -3.305486343602359
0.6528326693777978 -3.542100042352565
0.6579259084450609 -3.7611403449731715
0.6641233146540588 -3.958701745072675
0.6716319760375299 -4.130638115644766
0.6807214136699911 -4.272705866427676
0.6917043606477209 -4.380828296643919
0.705176394371042 -4.451221466340572
0.7223064252681788 -4.480477199172092
0.7394364561653152 -4.4512214663404155
0.752908489888634 -4.380828296643603
0.7638914368663585 -4.27270586642722
0.7729808744988134 -4.130638115644203
0.7804895358822795 -3.9587017450720348
0.7866869420912728 -3.7611403449724756
0.791780181158532 -3.542100042351834
0.7959094310114484 -3.305486343601615
0.7991702511640612 -3.0549136964030277
0.8016326809037669 -2.7936870003691707
0.8033593148675459 -2.5247893553746663
0.8044543999241751 -2.2507851047168907
0.8050741580324854 -1.9737107591059528
0.8054175317556376 -1.6949608202347157
0.8056213347200017 -1.415320023145089
0.8057387096572275 -1.135137182522259
0.8057843595666996 -0.8545486895053986
0.8057801322006187 -0.5736309401636528
0.8057801858768425 -0.2924926760898425
0.806137285796345 -0.01106230107049605
0.7086351518291966 -0.011350976797566848
0.708875800524114 -0.29252372652589437
0.7088410894862383 -0.5736306654970906
0.708775489677297 -0.8545387935490283
0.7087232843062357 -1.1351333376935242
0.7086963179372687 -1.4153256420514084
0.7086856734551636 -1.6949754317654837
0.7086816242000671 -1.9737375983332612
0.7086799445671734 -2.2508360346809346
0.7086797383519295 -2.5248845948269842
0.7086797946777444 -2.793845633777485
0.7086777525880602 -3.0551516742424045
0.7086670845586903 -3.305814996931037
0.7086461667182251 -3.5425325224192594
0.7086360550734573 -3.761697699613945
0.7087164767194878 -3.9594202361820914
0.7090723960427887 -4.131578093914887
0.7100415304896454 -4.273952290885125
0.7120824753074062 -4.382481518640885
0.7157079949383556 -4.453494505884749
0.7223064252681608 -4.483785234243914
0.7289048555979666 -4.453494505884592
0.7325303752289153 -4.382481518640569
0.7345713200466747 -4.27395229088467
0.7355404544935304 -4.131578093914323
0.7358963738168328 -3.959420236181451
0.735976795462864 -3.761697699613248
0.7359666838180976 -3.5425325224185285
0.7359457659776348 -3.305814996930292
0.7359350979482664 -3.055151674241669
0.7359330558585836 -2.793845633776781
0.7359331121843994 -2.5248845948263274
0.7359329059691564 -2.2508360346803356
0.7359312263362627 -1.9737375983327277
0.7359271770811663 -1.6949754317650205
0.7359165325990614 -1.4153256420510214
0.7358895662300947 -1.1351333376932096
0.7358373608590334 -0.8545387935487884
0.7357717610500921 -0.5736306654969234
0.7357370500122161 -0.29252372652580083
0.7359776987071333 -0.011350976797549437
0.7787500678450942 -0.011566788032748557
0.7789098140022639 -0.2925549683179119
0.778842216013596 -0.5736249800214301
0.7787162351353637 -0.8545210808762025
0.7785688213053383 -1.1351156833382179
0.7783997393931495 -1.4153104239211942
0.7781750932526186 -1.6949582837888169
0.7778232687621041 -1.973709890750148
0.7772007972183939 -2.2507848473294705
0.7761058352849316 -2.5247893454366706
0.7743794851037817 -2.7936867394165077
0.771911348672583 -3.0549107606760684
0.7686285202533797 -3.3054785815498104
0.7644591553890058 -3.5420904700572335
0.7593511424773394 -3.7611496253838927
0.7533215879721638 -3.958787495983776
0.7465167113778989 -4.130916812195437
0.7392730228332407 -4.273363575214351
0.7321002645252334 -4.382069886644995
0.7257334950759251 -4.453407235417081
0.7223064252681423 -4.4847752425491105
0.718879355460359 -4.453407235416922
0.7125125860110509 -4.382069886644679
0.7053398277030479 -4.273363575213895
0.6980961391583957 -4.130916812194875
0.6912912625641386 -3.958787495983137
0.6852617080589691 -3.761149625383197
0.6801536951473098 -3.542090470056504
0.6759843302829431 -3.3054785815490666
0.6727015018637471 -3.0549107606753334
0.6702333654325547 -2.7936867394158043
0.6685070152514099 -2.524789345436014
0.6674120533179512 -2.250784847328872
0.6667895817742427 -1.973709890749615
0.6664377572837293 -1.694958283788354
0.6662131111431987 -1.415310423920807
0.6660440292310101 -1.1351156833379035
0.665896615400985 -0.8545210808759627
0.6657706345227528 -0.5736249800212628
0.6657030365340848 -0.29255496831781835
0.6658627826912544 -0.011566788032730892
0.8488311186683586 -0.01173066554123765
0.8489367674331444 -0.2925849335686103
0.8488399126095921 -0.5736141935089605
0.848656251507289 -0.854495681696466
0.8484170177195277 -1.1350848243097076
0.8481095122817869 -1.4152748094554382
0.8476731741361171 -1.6949086926424568
0.8469399130193213 -1.973616419012385
0.8455955919273208 -2.2505860661469907
0.8432891220835068 -2.5244101011429216
0.839731469389932 -2.7930707457863786
0.8347218589451518 -3.054021388458975
0.8281077188545597 -3.3042874017173927
0.8197463699676553 -3.540570130095596
0.809511662322409 -3.75928299717417
0.7973488724578622 -3.9565830849728467
0.7833598462140117 -4.128426987347387
0.7678649222035683 -4.270694093697907
0.751469866311278 -4.379385835711944
0.7354254734789799 -4.4510789391756935
0.7223064252681245 -4.483625622345569
0.7091873770572692 -4.451078939175535
0.6931429842249737 -4.379385835711629
0.6767479283326909 -4.270694093697454
0.6612530043222588 -4.128426987346828
0.6472639780784214 -3.9565830849722095
0.635101188213887 -3.759282997173477
0.6248664805686531 -3.5405701300948684
0.6165051316817606 -3.304287401716651
0.609890991591181 -3.0540213884582426
0.6048813811464118 -2.7930707457856774
0.6013237284528461 -2.5244101011422666
0.5990172586090388 -2.2505860661463926
0.5976729375170421 -1.9736164190118517
0.5969396764002483 -1.6949086926419936
0.5965033382545796 -1.4152748094550514
0.596195832816839 -1.1350848243093932
0.595956599029078 -0.8544956816962263
0.595772937926775 -0.5736141935087932
0.5956760831032227 -0.2925849335685168
0.5957817318680084 -0.011730665541219803
0.9188959691049337 -0.011852920919380968
0.9189613966293132 -0.29261195048573835
0.9188388851931135 -0.5735988838688161
0.9186010442505967 -0.8544629458947377
0.9182738689400234 -1.1350415882069587
0.9178330298195545 -1.4152196040098164
0.9171707150616911 -1.6948201011109874
0.9159899364225446 -1.9734251315636355
0.9138296565662637 -2.250180843403477
0.9102084841573224 -2.5236800711566576
0.9047280337374825 -2.7919371925359995
0.8971017582141224 -3.052430063088383
0.8870970517033357 -3.3021917268530383
0.874492524175185 -3.5379241755812028
0.8590772907334442 -3.7560496065883964
0.8407120159795213 -3.9527532755856236
0.8194297418952716 -4.124043558294361
0.795558843373175 -4.2658742157459795
0.7699415556721868 -4.374383421814054
0.7443154707324985 -4.446401232029032
0.7223064252681073 -4.480405125787157
0.700297379803717 -4.446401232028876
0.6746712948640338 -4.37438342181374
0.6490540071630562 -4.26587421574553
0.625183108640975 -4.124043558293805
0.6039008345567437 -3.9527532755849903
0.5855355598028384 -3.7560496065877067
0.5701203263611158 -3.537924175580479
0.557515798832982 -3.3021917268523007
0.5475110923222126 -3.052430063087654
0.5398848167988681 -2.7919371925353014
0.5344043663790414 -2.5236800711560052
0.5307831939701098 -2.2501808434028807
0.5286229141138348 -1.9734251315631028
0.5274421354746918 -1.6948201011105246
0.5267798207168299 -1.4152196040094291
0.5263389815963615 -1.1350415882066445
0.5260118062857886 -0.8544629458944979
0.5257739653432719 -0.5735988838686489
0.5256514539070724 -0.2926119504856448
0.5257168814314519 -0.011852920919362952
0.9889581204133983 -0.011940173383763839
0.988989892725067 -0.2926345291602871
0.9888437232392889 -0.5735794480648491
0.9885553387661823 -0.8544234294807497
0.988144567129481 -1.134987021448181
0.987572254842664 -1.415143831611146
0.9866526700282652 -1.694678304865636
0.9849587587272979 -1.973104640310938
0.9819023409818601 -2.2495312657527204
0.97688675151817 -2.5225653420511205
0.9694212335352003 -2.79025836167647
0.9591299148419045 -3.0501132809446863
0.9456933153078045 -3.299170414038385
0.9288069769291957 -3.534131988843573
0.9081729674246675 -3.7514269561935603
0.883555032968312 -3.947268841670209
0.8549094789271422 -4.117729659291229
0.8226154105549145 -4.25888067253021
0.7877983258091683 -4.367061330235566
0.7528595014844912 -4.439463360771626
0.7223064252680903 -4.475217225006279
0.6917533490516913 -4.4394633607714695
0.6568145247270222 -4.367061330235255
0.62199743998129 -4.258880672529764
0.5897033716090814 -4.117729659290679
0.5610578175679343 -3.9472688416695805
0.5364398831116018 -3.751426956192876
0.5158058736070968 -3.5341319888428546
0.4989195352285107 -3.2991704140376523
0.4854829356944327 -3.0501132809439615
0.4751916170011567 -2.7902583616757757
0.46772609901820406 -2.5225653420504717
0.46271050955452675 -2.249531265752126
0.45965409180909744 -1.9731046403104067
0.4579601805081351 -1.6946783048651737
0.4570405956937385 -1.415143831610759
0.4564682834069223 -1.1349870214478666
0.4560575117702213 -0.8544234294805099
0.45576912729711483 -0.5735794480646818
0.45562295781133705 -0.29263452916019367
0.4556547301230057 -0.011940173383745709
1.0590259207147399 -0.011998388704103137
1.059028661267818 -0.2926514254326929
1.0588596827770456 -0.5735560786509782
1.0585242201872664 -0.8543778040468908
1.0580350143991915 -1.1349223020522863
1.0573241330630754 -1.4150434997495533
1.0561077120206173 -1.694465941572054
1.0538408133467854 -1.9726285265579753
1.0498209342666869 -2.2486112970724084
1.04335819655589 -2.5210460164787283
1.0338751709050968 -2.788019565696574
1.0208911642645502 -3.047057673414663
1.0039944057110113 -3.2952106107696513
0.9828004198536093 -3.5291815575565235
0.9569288894278378 -3.7454032237684483
0.9260446550468454 -3.9401161480524087
0.890039318220137 -4.1094738840572065
0.8493536083900788 -4.249711370052495
0.8054423333981222 -4.357449349013639
0.7613484099824466 -4.430318374190701
0.7223064252680734 -4.468081124061901
0.6832644405537033 -4.430318374190547
0.6391705171380383 -4.357449349013331
0.5952592421460994 -4.2497113700520535
0.5545735323160641 -4.109473884056662
0.5185681954893828 -3.9401161480517866
0.48768396110841816 -3.7454032237677697
0.4618124306826748 -3.5291815575558108
0.44061844482530094 -3.295210610768925
0.4237216862717889 -3.0470576734139434
0.4107376796312662 -2.7880195656958846
0.4012546539804935 -2.521046016478083
0.3947919162697126 -2.248611297071817
0.39077203718962517 -1.9726285265574455
0.3885051385158001 -1.6944659415715926
0.38728871747334537 -1.4150434997491665
0.3865778361372301 -1.1349223020519719
0.3860886303491553 -0.854377804046651
0.38575316775937657 -0.5735560786508112
0.3855841892686045 -0.29265142543259953
0.3855869298216825 -0.011998388704084968
1.1291050450562137 -0.01203326424571526
1.1290832859631892 -0.29266187643686314
1.1288923219737448 -0.5735287904541635
1.1285125756743446 -0.8543268496827727
1.1279474057417878 -1.1348474104275597
1.127082066116707 -1.4149113024730025
1.1255284243891843 -1.6941656483819374
1.1226331275567407 -1.9719748768524912
1.117601576268259 -2.2474043731722833
1.1096703969359365 -2.519111957614327
1.0981529288708012 -2.7852126741369863
1.0824635860442384 -3.0432556695213027
1.0620945903790686 -3.2903044221098265
1.0365788692821705 -3.523065684991324
1.0054647979566815 -3.7379747724618544
0.968350343008614 -3.931298847429037
0.9250636653874799 -4.099286902213085
0.8760983552584999 -4.238385946414957
0.823206582654966 -4.345572555777412
0.7699780116135809 -4.418970071409015
0.7223064252680568 -4.45896321785485
0.674634838922537 -4.4189700714088636
0.6214062678811648 -4.345572555777108
0.568514495277652 -4.238385946414521
0.519549185148699 -4.099286902212547
0.4762625075275964 -3.9312988474284225
0.4391480525795616 -3.737974772461183
0.4080339812541056 -3.523065684990618
0.38251826015724083 -3.2903044221091076
0.3621492644921024 -3.04325566952059
0.34645992166556794 -2.7852126741363032
0.3349424536004566 -2.5191119576136867
0.32701127426815313 -2.247404373171695
0.3219797229796847 -1.9719748768519638
0.31908442614724997 -1.6941656483814769
0.31753078441973154 -1.414911302472616
0.3166654447946521 -1.1348474104272452
0.3161002748620956 -0.854326849682533
0.3157205285626957 -0.5735287904539964
0.3155295645732516 -0.2926618764367697
0.3155078054802271 -0.012033264245697036
1.1991991582043846 -0.01205043746283854
1.1991583873327845 -0.29266565135992695
1.19894731182928 -0.5734975932219697
1.1985255053582327 -0.854271237569159
1.1978834506707947 -1.1347613280294016
1.1968403742215397 -1.4147380599925754
1.1949062115338778 -1.6937594727077168
1.1913345594977556 -1.9711277270641785
1.1852764011079702 -2.245903046815424
1.1758680189883484 -2.5167582635723487
1.1623155274080947 -2.7818341712900208
1.1439247554132865 -3.038704366172344
1.1200855480759284 -3.2844481506680374
1.0902467532906017 -3.515780717213393
1.0539032742752872 -3.7291451168352983
1.0106226294604912 -3.9208357090561488
0.9602115805294309 -4.087202653192922
0.9031647078049025 -4.224939502680538
0.8413999677608149 -4.331440024434572
0.7789274763794691 -4.405379305595855
0.7223064252680405 -4.447787034670376
0.6656853741566168 -4.405379305595705
0.6032128827752862 -4.331440024434272
0.5414481427312227 -4.224939502680108
0.4844012700067261 -4.087202653192392
0.4339902210757018 -3.9208357090555426
0.3907095762609432 -3.7291451168346357
0.35436609724566676 -3.5157807172126962
0.32452730246037814 -3.284448150667327
0.30068809512305594 -3.0387043661716393
0.28229732312828043 -2.7818341712893444
0.26874483154805434 -2.5167582635717145
0.2593364494284542 -2.2459030468148398
0.25327829103868466 -1.971127727063654
0.249706639002573 -1.6937594727072578
0.2477724763149163 -1.41473805999219
0.24672939986566328 -1.1347613280290874
0.24608734517822597 -0.8542712375689194
0.24566553870717908 -0.5734975932218026
0.24545446320367464 -0.29266565135983363
0.24541369233207463 -0.012050437462820248
1.2693098725161636 -0.012055600175228198
1.2692575330629814 -0.29266312991035814
1.269030759077629 -0.5734626445926456
1.2685684688567056 -0.8542115212958447
1.2678424740116352 -1.1346608689253876
1.2665922796194038 -1.4145120126496122
1.2642327752767213 -1.6932320448087455
1.2599665720498843 -1.9700800993684882
1.2528742845119618 -2.244104075150644
1.241995217069714 -2.513984158796636
1.226423068331422 -2.7778850878081225
1.205349561732184 -3.033405064878442
1.1780599078356881 -3.2776425050701348
1.1439153470298686 -3.50732712930826
1.1023620677043933 -3.7189205937841696
1.0529918727055911 -3.9087554570348617
0.995666086060878 -4.073279585956337
0.9308470171786738 -4.209425485146764
0.8603484121553701 -4.3150488071635635
0.7884254263823276 -4.389464868639423
0.722306425268024 -4.434423992842199
0.6561874241537257 -4.389464868639275
0.5842644383807005 -4.315048807163269
0.513765833357425 -4.209425485146341
0.4489467644752574 -4.073279585955816
0.3916209778305849 -3.9087554570342653
0.3422507828318249 -3.7189205937835172
0.3006975035063926 -3.5073271293075727
0.2665529427006159 -3.277642505069434
0.23926328880416076 -3.0334050648777464
0.2181897822049595 -2.777885087807454
0.2026176334666987 -2.5139841587960072
0.19173856602447475 -2.2441040751500645
0.18464627848657064 -1.9700800993679672
0.180380075259746 -1.6932320448082883
0.17802057091706983 -1.4145120126492274
0.17677037652484107 -1.134660868925074
0.1760443816797714 -0.8542115212956051
0.17558209145884832 -0.5734626445924784
0.17535531747349611 -0.29266312991026483
0.17530297802031428 -0.01205560017520987
1.339436126289871 -0.012054514760339065
1.3393831531069569 -0.29265550225154874
1.3391498107873143 -0.5734245516670332
1.338646994124397 -0.8541473095919535
1.3378211480140623 -1.1345409833839175
1.3363287839690818 -1.4142189279117683
1.3335148908287728 -1.6925740005887715
1.3285440211718327 -1.968828747081014
1.3204243955769084 -2.242007740921179
1.3080963479487557 -2.5107932199384546
1.290535657464156 -2.7733704094872738
1.2668147344850034 -3.027363346194168
1.2361088698227356 -3.2698926368968584
1.197692987006019 -3.4977101100072807
1.1509774451086356 -3.707311124982791
1.0955890732472076 -3.895085918459949
1.0315182839723327 -4.057585329496645
0.9593209593286133 -4.191941006874932
0.8805288254221272 -4.296411991335344
0.7988392451369573 -4.371087292983042
0.7223064252680073 -4.418664697555866
0.6457736053990634 -4.371087292982898
0.5640840251139125 -4.296411991335056
0.4852918912074587 -4.191941006874517
0.41309456656378124 -4.057585329496133
0.3490237772889518 -3.8950859184593636
0.29363540542757083 -3.7073111249821493
0.2469198635302359 -3.4977101100066035
0.2085039807135665 -3.269892636896169
0.17779811605134424 -3.027363346193482
0.15407719307223208 -2.7733704094866143
0.13651650258766643 -2.5107932199378324
0.12418845495954088 -2.242007740920605
0.11606882936463671 -1.9688287470804968
0.11109795970771036 -1.692574000588317
0.1082840665674093 -1.4142189279113844
0.10679170252243228 -1.1345409833836042
0.10596585641209848 -0.854147309591714
0.10546303974918154 -0.573424551666866
0.1052296974295393 -0.29265550225145537
0.10517672424662503 -0.012054514760320755
1.4095728507768723 -0.012052828335996784
1.4095363972340873 -0.292645327485485
1.4093140033319278 -0.5733846224906748
1.4087657492456722 -0.8540762000808765
1.4078133943421145 -1.1343927131368554
1.4060467723017498 -1.4138486266819343
1.402761695963961 -1.6917801261640875
1.397083473690418 -1.9673730385405241
1.3879557705282013 -2.23961842679371
1.3742157886430928 -2.507193160746974
1.3547150724308306 -2.7682994952503113
1.3283959160056578 -3.0205882592441506
1.2943227504050527 -3.2612079940561456
1.2516973929063941 -3.4869419109158684
1.1998912630467855 -3.694331635501098
1.1385615545824566 -3.879847567221783
1.0678351392277468 -4.040167791897439
0.9885135700417642 -4.172605451678795
0.902207634709258 -4.275694231730703
0.8114943445035353 -4.3500749161882295
0.7223064252679899 -4.399999999999992
0.6331185060324511 -4.350074916188088
0.5424052158267495 -4.275694231730421
0.45609928049428033 -4.172605451678391
0.3767777113083458 -4.0401677918969385
0.30605129595368646 -3.8798475672212107
0.2447215874894094 -3.6943316355004683
0.19291545762985418 -3.486941910915204
0.1502901001312477 -3.2612079940554684
0.11621693453069265 -3.020588259243476
0.08989777810556464 -2.7682994952496616
0.07039706189333908 -2.5071931607463593
0.05665708000826071 -2.2396184267931414
0.047529376846065875 -1.9673730385400112
0.04185115457253837 -1.6917801261636354
0.038566078234758605 -1.4138486266815518
0.03679945619439794 -1.134392713136542
0.03584710129084175 -0.8540762000806369
0.03529884720458673 -0.5733846224905076
0.03507645330242732 -0.29264532748539174
0.035039999759642115 -0.012052828335978436
SCALARS Stress float 6
LOOKUP_TABLE default
-1296.172030870821 -2101.4953855869553 -1623.0705827136103 -29.667145234308432 0.0 0.0
1386.9294601961901 818.015308771723 1044.317592957187 -19.732793226521963 0.0 0.0
635.9656915314562 177.4491187807916 266.48213319094924 -42.38166555587341 0.0 0.0
505.1041892503148 34.70631404217008 169.33182285744783 -0.6788847372069797 0.0 0.0
635.0595136272763 88.26041105708357 267.7337870674548 3.247086454924004 0.0 0.0
763.5364241379469 144.76798459064503 402.77089411938715 1.742932773009366 0.0 0.0
899.8780168406046 205.5101519644375 529.7101528682464 0.32100447247653374 0.0 0.0
1041.083433105074 284.04914139747376 649.0437366353027 -1.186720969731228 0.0 0.0
1192.8995078732692 378.72702486937993 774.2898972512911 -2.971421784581637 0.0 0.0
1363.2030276155638 496.6486072758846 918.632009720757 -4.920494351684036 0.0 0.0
1557.6717016905852 643.1679671771521 1088.8376954278378 -6.739283493630647 0.0 0.0
1776.091132259785 818.3399463820655 1285.2134818437066 -8.103932647666984 0.0 0.0
2012.598737525922 1015.0285797987523 1501.3694802603661 -8.935672545609206 0.0 0.0
2259.372288207685 1225.2121252021825 1729.4296314567266 -9.564727113496275 0.0 0.0
2506.4766741808826 1438.7743756897548 1959.3616512267718 -9.954434177452844 0.0 0.0
2742.2977334755406 1644.1322931215016 2179.5939019380926 -10.002960416353659 0.0 0.0
2954.6143174144004 1829.4199672082705 2378.1212879074697 -9.54353986284292 0.0 0.0
3131.500095632794 1983.181988104451 2543.264677408228 -8.556637640962908 0.0 0.0
3272.1419710542314 2105.1167665617622 2674.330719502607 -7.521161175569615 0.0 0.0
3361.3733034790057 2180.8646421737044 2756.5445612624235 -10.168867144618478 0.0 0.0
3352.89698446101 2171.692382567612 2747.8818009743836 5.418776538590464e-11 0.0 0.0
3361.3733034774245 2180.864642172139 2756.5445612611893 10.168867144671433 0.0 0.0
3272.1419710536716 2105.1167665612647 2674.330719502109 7.521161175719685 0.0 0.0
3131.5000956309877 1983.18198810274 2543.2646774066125 8.556637640933122 0.0 0.0
2954.614317410971 1829.419967204919 2378.1212879046666 9.543539862671368 0.0 0.0
2742.297733474363 1644.132293120498 2179.593901936975 10.002960416492746 0.0 0.0
2506.4766741774642 1438.7743756864813 1959.3616512240226 9.95443417740752 0.0 0.0
2259.3722882065067 1225.2121252011777 1729.429631455587 9.564727113645082 0.0 0.0
2012.5987375243503 1015.0285797974082 1501.3694802589666 8.935672545578093 0.0 0.0
1776.0911322597226 818.3399463822643 1285.2134818434981 8.103932647671822 0.0 0.0
1557.6717016882644 643.1679671750628 1088.8376954260088 6.73928349371829 0.0 0.0
1363.2030276147486 496.6486072753563 918.6320097199872 4.920494351590831 0.0 0.0
1192.8995078717617 378.72702486811954 774.2898972500833 2.971421784596723 0.0 0.0
1041.0834331048352 284.04914139756966 649.0437366350154 1.1867209697670287 0.0 0.0
899.8780168391957 205.51015196325176 529.710152867169 -0.32100447221675665 0.0 0.0
763.536424137469 144.76798459046188 402.7708941188754 -1.7429327732647888 0.0 0.0
635.0595136271425 88.26041105733186 267.73378706722684 -3.2470864547601987 0.0 0.0
505.1041892497013 34.706314041574466 169.33182285708216 0.6788847371007618 0.0 0.0
635.9656915310087 177.44911878060972 266.482133190686 42.381665555898685 0.0 0.0
1386.9294601958752 818.01530877141 1044.3175929567597 19.732793226554477 0.0 0.0
-1296.1720308679794 -2101.495385584194 -1623.0705827108422 29.667145233685076 0.0 0.0
-1650.4793418760755 -2427.4602996897265 -1932.8089401492043 -32.24560952412997 0.0 0.0
946.7261968516405 451.11759725248487 657.0853027946962 -27.43586104941067 0.0 0.0
445.3363613008709 69.54274987396388 153.70401157899252 -37.13194053169941 0.0 0.0
444.5276899587467 8.397418762072515 139.0475262142018 -15.557174738865845 0.0 0.0
561.6379695657431 39.8898854430078 214.17175338494286 -17.041103004517424 0.0 0.0
666.8652326248427 57.70504023362176 315.66612641934967 -23.02836086645517 0.0 0.0
757.6300350402122 78.46212534415632 404.3174526332877 -24.39387255719053 0.0 0.0
844.3004924138002 100.82874000744127 469.4075278292393 -24.705987899689763 0.0 0.0
922.9725098147337 121.80121309700584 521.1877699909277 -25.436609712195512 0.0 0.0
995.2165009254004 141.97245588057464 567.8291784150399 -26.34716950320287 0.0 0.0
1064.2128838912286 163.7130088255007 613.3080698043339 -26.866185482086173 0.0 0.0
1132.4052272722631 188.6165075156349 659.8823428379103 -26.89238197855718 0.0 0.0
1199.3873504040089 216.7884864121665 707.4782906863172 -26.507255058472172 0.0 0.0
1262.5577918257811 243.8370214502841 752.6001679018532 -25.921483527172843 0.0 0.0
1316.6225773977535 264.8344234569078 790.1458748213818 -25.13438066189013 0.0 0.0
1357.2962422969576 275.45799956105697 815.8119823724782 -23.903931404191397 0.0 0.0
1382.010065620405 273.36992459937335 827.137122262471 -21.99194517033928 0.0 0.0
1391.2132730254 259.4748221533826 824.7926856813671 -19.501500490019275 0.0 0.0
1378.281307170284 227.89280248144692 802.6489915430334 -17.31692439236948 0.0 0.0
1296.1746587328644 132.84855458122675 714.7903356713159 -18.401852543497448 0.0 0.0
1160.923653904022 -2.220031693718525 580.7251905192636 9.827338942614006e-11 0.0 0.0
1296.174658732093 132.84855458043867 714.7903356707261 18.401852543520594 0.0 0.0
1378.281307169307 227.89280248052233 802.6489915424714 17.31692439226712 0.0 0.0
1391.213273025416 259.4748221535142 824.7926856813962 19.50150049005529 0.0 0.0
1382.010065620045 273.369924599108 827.137122262305 21.991945170238893 0.0 0.0
1357.2962422968235 275.4579995611021 815.8119823724348 23.903931404430274 0.0 0.0
1316.622577397736 264.83442345705805 790.1458748213029 25.134380661793312 0.0 0.0
1262.5577918259642 243.83702145066343 752.6001679020214 25.921483527371862 0.0 0.0
1199.3873504039634 216.7884864123326 707.4782906862926 26.50725505840908 0.0 0.0
1132.4052272731374 188.61650751674034 659.8823428385917 26.892381978514525 0.0 0.0
1064.2128838908359 163.7130088253834 613.3080698040304 26.866185482114282 0.0 0.0
995.2165009253094 141.97245588073793 567.8291784149593 26.34716950313501 0.0 0.0
922.9725098135069 121.80121309600264 521.187769990101 25.436609712123634 0.0 0.0
844.3004924138547 100.82874000778229 469.4075278292339 24.705987899484498 0.0 0.0
757.630035039643 78.46212534392325 404.31745263283426 24.393872557223123 0.0 0.0
666.8652326243459 57.70504023342285 315.6661264188566 23.028360866337792 0.0 0.0
561.6379695655611 39.88988544324853 214.1717533847682 17.041103004612218 0.0 0.0
444.5276899582917 8.397418761760257 139.0475262139802 15.557174738772655 0.0 0.0
445.3363613007571 69.54274987403622 153.70401157899266 37.13194053167182 0.0 0.0
946.7261968511552 451.11759725213346 657.085302794118 27.435861049489265 0.0 0.0
-1650.4793418741485 -2427.460299687864 -1932.8089401471948 32.24560952351063 0.0 0.0
-1389.9178209325978 -2131.8829121864674 -1645.021252001406 -70.65549446665646 0.0 0.0
766.1602813081732 358.9708496778974 513.9850872242365 -95.48992239355997 0.0 0.0
308.236814519106 79.52501827154109 116.38234731470205 -41.15246053599552 0.0 0.0
381.6920119522495 2.5279432383827025 115.52331538921891 -37.39832210212589 0.0 0.0
516.4037740608295 29.807518854183996 183.08012124837987 -39.552627506993915 0.0 0.0
632.9820479242092 51.79593363099977 283.87921008902174 -43.243236821410925 0.0 0.0
727.2331607923527 72.77226398858569 380.27109527494775 -45.092256130189355 0.0 0.0
813.3903585318739 91.20561474452654 447.52216399416284 -45.95418224769008 0.0 0.0
888.7482794086177 108.34534736079416 496.9300857064573 -47.43886711960038 0.0 0.0
956.967175533975 124.48937053147404 539.6649672217546 -48.722138191145845 0.0 0.0
1022.6491919515614 143.42401915491146 582.0806382185317 -49.06743890865136 0.0 0.0
1087.9472571472663 166.59317931041244 626.3475309432894 -48.571897940193956 0.0 0.0
1152.3634087246446 192.04050665325832 671.3208650229847 -47.663605750904324 0.0 0.0
1212.3411691457584 217.0389017238311 713.8369570949642 -46.45728671508621 0.0 0.0
1264.876354769148 237.02034613730058 750.1026943440722 -44.906359714080416 0.0 0.0
1305.829194486571 248.29517036676094 776.2200142114989 -42.706079747256794 0.0 0.0
1332.559033683117 248.36182860556497 789.6377426498536 -39.53908064446926 0.0 0.0
1340.6174417846519 233.28112765676664 786.2154159481681 -35.700813668772874 0.0 0.0
1315.7836427740206 189.84247032179775 752.362452956939 -32.29536717395373 0.0 0.0
1269.9482972087108 131.3774433383627 700.5703628777277 -30.453003694063682 0.0 0.0
1114.4197842897659 -23.217371474513513 546.7512447629365 4.638955886093754e-11 0.0 0.0
1269.9482972074854 131.3774433371218 700.5703628767995 30.453003694016218 0.0 0.0
1315.7836427749749 189.84247032285967 752.3624529576325 32.29536717391362 0.0 0.0
1340.617441784398 233.28112765664062 786.2154159480073 35.7008136689829 0.0 0.0
1332.5590336826301 248.36182860513 789.6377426496377 39.539080644482084 0.0 0.0
1305.829194486458 248.29517036683657 776.2200142113716 42.7060797473576 0.0 0.0
1264.8763547696701 237.0203461379642 750.1026943443509 44.9063597140386 0.0 0.0
1212.3411691456267 217.0389017238561 713.8369570949648 46.45728671505793 0.0 0.0
1152.3634087249693 192.0405066537868 671.3208650231644 47.66360575087372 0.0 0.0
1087.9472571475271 166.59317931092238 626.3475309435129 48.57189794022422 0.0 0.0
1022.6491919517597 143.42401915537152 582.080638218622 49.06743890869566 0.0 0.0
956.9671755333547 124.48937053106701 539.6649672213669 48.722138191033515 0.0 0.0
888.7482794078306 108.34534736025674 496.9300857059211 47.43886711944053 0.0 0.0
813.3903585317319 91.20561474467993 447.5221639940429 45.95418224764026 0.0 0.0
727.2331607920266 72.77226398853324 380.2710952746097 45.09225613013575 0.0 0.0
632.9820479238788 51.795933631035226 283.87921008865106 43.24323682132551 0.0 0.0
516.4037740605681 29.807518854362456 183.08012124821525 39.55262750709688 0.0 0.0
381.6920119521045 2.5279432385916656 115.5233153892424 37.398322102141464 0.0 0.0
308.23681451909886 79.52501827125403 116.38234731460958 41.15246053597751 0.0 0.0
766.1602813076846 358.9708496778105 513.9850872237089 95.48992239350693 0.0 0.0
-1389.9178209305699 -2131.8829121844283 -1645.0212519992567 70.65549446627564 0.0 0.0
-1141.0158910290425 -1852.2639580208943 -1375.1724786582065 -84.42775627345463 0.0 0.0
587.1291619610605 263.5880124684589 381.40866408274525 -145.83680099024804 0.0 0.0
222.7881962745021 66.33772400368464 86.737776083456 -62.51887854390372 0.0 0.0
317.3314424647172 8.192039389198568 97.42433804611453 -60.394898505301384 0.0 0.0
460.6003786002517 17.70975687619919 151.5587138743987 -64.6269808064732 0.0 0.0
586.9295379820878 44.37559100121029 246.6366077925259 -64.67907490521583 0.0 0.0
693.2031121640948 65.21190620262104 350.3510620085784 -67.0984394867292 0.0 0.0
777.6112908094331 81.76285827359163 422.0980144271185 -67.38133333339935 0.0 0.0
850.4012587600453 95.16054463119453 470.4334367627181 -69.03154673582068 0.0 0.0
914.972317219822 107.63760947120133 509.83216569209657 -70.30004284027567 0.0 0.0
976.9659715758125 123.41607949161168 548.8432689319287 -70.31649571988542 0.0 0.0
1039.4096144957175 143.9251318838123 590.3570586687721 -69.41549538731356 0.0 0.0
1100.7602017616364 167.58220337409438 632.936867536691 -67.98529968872042 0.0 0.0
1158.0478865359662 189.60637503078505 672.6313991614429 -66.25556935133011 0.0 0.0
1208.6884414728806 208.37846011882294 707.3357897372086 -64.0082740021789 0.0 0.0
1250.5041836298228 221.0391341702113 734.5746576500514 -60.97898778257202 0.0 0.0
1278.7981689656017 222.5635711807346 749.5289374535381 -56.9986261030014 0.0 0.0
1285.9387305503683 206.37219907742102 745.1653154584158 -52.28936086825244 0.0 0.0
1268.5055626375122 170.06799904376697 718.5391822044938 -47.13167120495667 0.0 0.0
1241.5263452907993 129.8001001232393 685.1137968434781 -40.859510449294895 0.0 0.0
1024.3856650888351 -85.88281383125367 470.61854806674404 3.205968823749572e-11 0.0 0.0
1241.5263452898964 129.80010012232123 685.1137968429894 40.85951044913711 0.0 0.0
1268.505562639946 170.06799904635454 718.5391822059976 47.131671205184 0.0 0.0
1285.9387305488408 206.3721990759078 745.165315457412 52.28936086821977 0.0 0.0
1278.7981689643582 222.5635711795789 749.528937452687 56.99862610298435 0.0 0.0
1250.5041836298403 221.03913417037757 734.5746576500328 60.978987782538795 0.0 0.0
1208.6884414728097 208.3784601189239 707.3357897371163 64.0082740022702 0.0 0.0
1158.047886535246 189.60637503026544 672.6313991609206 66.25556935131476 0.0 0.0
1100.7602017608717 167.58220337356715 632.9368675361628 67.98529968891825 0.0 0.0
1039.4096144955356 143.9251318839031 590.3570586686556 69.41549538748923 0.0 0.0
976.965971575262 123.4160794912592 548.8432689315648 70.31649571983793 0.0 0.0
914.9723172193254 107.63760947103047 509.8321656917962 70.30004284034385 0.0 0.0
850.4012587595067 95.16054463086161 470.43343676237527 69.031546735717 0.0 0.0
777.6112908097112 81.76285827427233 422.09801442725677 67.38133333354848 0.0 0.0
693.2031121632994 65.21190620204393 350.35106200788505 67.09843948658121 0.0 0.0
586.9295379815558 44.37559100099004 246.6366077920789 64.67907490509508 0.0 0.0
460.6003785998407 17.709756876187477 151.55871387420396 64.62698080636873 0.0 0.0
317.3314424646353 8.192039389287638 97.42433804611822 60.394898505311126 0.0 0.0
222.78819627429436 66.33772400318611 86.73777608324414 62.51887854373737 0.0 0.0
587.1291619604199 263.5880124681862 381.40866408215135 145.8368009900565 0.0 0.0
-1141.0158910272926 -1852.263958019039 -1375.1724786562552 84.4277562732497 0.0 0.0
-923.6611952101307 -1609.1861838435339 -1137.5578288885329 -82.88401061067358 0.0 0.0
454.79388679221915 178.254265014325 276.9267993848537 -178.8322300612129 0.0 0.0
162.75901919605752 51.39602998731728 64.24651475501244 -93.32192379383136 0.0 0.0
258.2641154427223 14.463035448835605 81.80245290834439 -85.43764168112135 0.0 0.0
394.81839537373423 10.106698855085604 123.2859274785306 -91.123211690368 0.0 0.0
531.3604925405656 31.568930588422596 204.73737051403378 -89.88561812786259 0.0 0.0
647.9142363362887 56.34404200295771 311.8063649530497 -89.36214974070406 0.0 0.0
736.0209611313238 72.9041027064364 392.33565358795977 -89.2113306780617 0.0 0.0
807.3117617286466 82.58834989461451 441.25109243631266 -90.13948672589638 0.0 0.0
868.3182766432423 91.15489489193666 477.64326529525925 -91.04426811170428 0.0 0.0
926.9407043926657 103.53166909681826 513.3435098074051 -90.63940868281618 0.0 0.0
986.0060458147518 121.1877600591268 551.7595150401587 -89.32423984359167 0.0 0.0
1044.395678226623 141.94551141887564 591.4355176477966 -87.54203789497326 0.0 0.0
1098.898788397822 162.59887885551345 629.0845290033378 -85.26862284392585 0.0 0.0
1147.7892233227908 179.63075497505355 662.0522835800975 -82.37273016670942 0.0 0.0
1189.2322045316357 191.75008542874158 688.8182725540356 -78.76487208361004 0.0 0.0
1219.5446013797812 195.6303381171913 705.9733713584031 -74.3335432471697 0.0 0.0
1232.1760238131794 184.66012479157448 706.9770104714752 -68.9553694368748 0.0 0.0
1223.829001859767 156.6267350428992 689.010205179966 -61.80153747266573 0.0 0.0
1205.8418900351262 123.83764553514854 663.7664139195095 -51.50583569164734 0.0 0.0
913.3356759828247 -166.51703981123205 375.186348927709 4.3799630589091976e-11 0.0 0.0
1205.8418900366612 123.83764553674345 663.7664139209462 51.505835691692894 0.0 0.0
1223.8290018598025 156.6267350429726 689.0102051798588 61.80153747278613 0.0 0.0
1232.1760238128381 184.66012479132698 706.9770104713135 68.95536943680483 0.0 0.0
1219.5446013782334 195.6303381157854 705.9733713572342 74.3335432473306 0.0 0.0
1189.232204531385 191.7500854285944 688.8182725539942 78.76487208363832 0.0 0.0
1147.7892233224902 179.63075497491832 662.0522835799534 82.37273016680062 0.0 0.0
1098.8987883979557 162.59887885584317 629.0845290033401 85.26862284398764 0.0 0.0
1044.395678225545 141.94551141802992 591.4355176471746 87.54203789510836 0.0 0.0
986.0060458150135 121.18776005964175 551.7595150403081 89.32423984369754 0.0 0.0
926.9407043913955 103.53166909568115 513.3435098065335 90.63940868267343 0.0 0.0
868.3182766432235 91.15489489221389 477.64326529529365 91.04426811174491 0.0 0.0
807.3117617278558 82.58834989411699 441.25109243581875 90.139486725883 0.0 0.0
736.0209611307887 72.90410270622036 392.33565358757136 89.21133067818432 0.0 0.0
647.9142363360078 56.344042003005015 311.80636495266873 89.36214974058232 0.0 0.0
531.3604925398545 31.568930588029954 204.73737051351256 89.88561812784727 0.0 0.0
394.81839537346013 10.106698855335125 123.28592747849106 91.12321169008428 0.0 0.0
258.26411544254654 14.463035448562175 81.8024529082064 85.43764168109408 0.0 0.0
162.7590191961366 51.39602998736097 64.24651475504928 93.32192379351842 0.0 0.0
454.79388679171745 178.25426501407821 276.92679938438005 178.83223006109426 0.0 0.0
-923.6611952083744 -1609.186183841774 -1137.557828886706 82.88401061037 0.0 0.0
-732.1363801351894 -1394.4834604904338 -925.8378135513042 -78.17993350487964 0.0 0.0
350.7730159516434 111.6832016066864 196.04973956407025 -198.44748015263008 0.0 0.0
117.77625269005728 35.157505824263744 45.8801275542963 -122.9803676413186 0.0 0.0
206.06672114311667 18.971856861657063 67.51733405358357 -110.77587035059356 0.0 0.0
323.93538246892143 6.485085040709871 98.5758705726235 -117.70079936243032 0.0 0.0
460.92148855952456 19.050600835523646 162.58406700231353 -116.5012371690904 0.0 0.0
586.7139422032857 46.68614296414058 264.7694721114721 -112.84617795526499 0.0 0.0
686.9250494080118 61.73331727019246 354.28988569732115 -111.9944523574253 0.0 0.0
756.6746223820978 70.36341344383409 407.40405256671994 -110.76392379536094 0.0 0.0
816.188958819448 74.85067138650926 442.3847843337629 -110.94800748833534 0.0 0.0
871.3561313162928 83.73434664674522 474.85663903641307 -110.00322733511874 0.0 0.0
927.0432014218234 98.47091027687655 510.1562504737301 -108.24304173923194 0.0 0.0
982.1409501800895 116.71739528384906 546.9589148073858 -106.10823784500593 0.0 0.0
1033.7405600734057 134.46065126031877 581.7325761160375 -103.51093967859035 0.0 0.0
1080.4442093446278 150.00207591411694 612.8903470141955 -100.07830077930812 0.0 0.0
1121.1127154541446 161.90340170906 639.1705124213086 -95.86934531816057 0.0 0.0
1154.2417864770778 167.96291313581256 658.7806093918819 -91.26278909407503 0.0 0.0
1175.3582544765782 165.2221352538979 668.1189786682131 -85.55278377891302 0.0 0.0
1177.4067395724128 146.6017254440422 660.0853074117739 -76.85569791146382 0.0 0.0
1164.8536854091612 116.87648765411049 639.1006475675925 -63.17399403584268 0.0 0.0
783.6846382223875 -260.91112003552337 263.77210507296036 -1.0689937823826767e-10 0.0 0.0
1164.8536854101576 116.87648765518993 639.100647568525 63.17399403596191 0.0 0.0
1177.4067395729194 146.6017254446891 660.0853074120676 76.85569791163559 0.0 0.0
1175.3582544775657 165.22213525509062 668.1189786688818 85.55278377930834 0.0 0.0
1154.2417864762187 167.962913135037 658.7806093911402 91.26278909414609 0.0 0.0
1121.1127154533613 161.90340170833645 639.1705124209092 95.86934531802424 0.0 0.0
1080.4442093432544 150.00207591287003 612.8903470132293 100.07830077930078 0.0 0.0
1033.7405600736406 134.46065126068385 581.7325761161244 103.51093967851267 0.0 0.0
982.1409501792756 116.71739528335578 546.9589148068445 106.10823784522198 0.0 0.0
927.0432014221336 98.47091027735192 510.156250473946 108.24304173918978 0.0 0.0
871.3561313152178 83.73434664586728 474.85663903571435 110.00322733508217 0.0 0.0
816.188958818954 74.8506713861978 442.384784333404 110.94800748822203 0.0 0.0
756.6746223819648 70.36341344398082 407.4040525666015 110.76392379530107 0.0 0.0
686.9250494072523 61.733317269715144 354.28988569675573 111.99445235738429 0.0 0.0
586.7139422030498 46.686142964223336 264.76947211113657 112.8461779551663 0.0 0.0
460.9214885592966 19.05060083566786 162.58406700213584 116.50123716899986 0.0 0.0
323.93538246874704 6.485085040977635 98.57587057266821 117.70079936211607 0.0 0.0
206.0667211430578 18.971856861615514 67.51733405355164 110.77587035054479 0.0 0.0
117.77625268993583 35.157505824239664 45.88012755425265 122.98036764117576 0.0 0.0
350.77301595111965 111.68320160665535 196.0497395637219 198.44748015259856 0.0 0.0
-732.1363801336411 -1394.4834604887794 -925.8378135496692 78.17993350472177 0.0 0.0
-565.9793790562584 -1199.1181773508476 -737.0431976336106 -73.63490743017668 0.0 0.0
268.32131662598294 59.29136781848231 133.732708544977 -210.90093515134438 0.0 0.0
81.90992476907829 19.70182916672786 30.48365448507592 -147.49973831739314 0.0 0.0
157.847987760541 21.988751633037918 53.95110940610872 -134.1714253187346 0.0 0.0
252.12004368780606 6.652360813112471 77.11788438676766 -141.06104464414022 0.0 0.0
379.1280995717064 6.338555601174308 121.9839943646782 -146.1758990550579 0.0 0.0
510.4349354134058 31.982193249969615 209.51299219666694 -139.404242736166 0.0 0.0
620.0624606721135 51.33274396083087 304.66403470654103 -134.5929754835043 0.0 0.0
699.1472197169087 55.66707108206123 366.11798453328413 -132.49486610486136 0.0 0.0
755.4377391241792 58.66101768470165 401.96017784680845 -129.89171879377267 0.0 0.0
808.8185219496446 64.11847747147199 432.44395834354407 -128.30174376237454 0.0 0.0
861.021035007768 75.6918507691907 464.5382048380388 -126.10435425936708 0.0 0.0
912.3539195350827 90.93914804255965 498.0105843117608 -123.6483133647611 0.0 0.0
960.8665764747414 106.54056214152136 530.2022482169881 -120.8169421130703 0.0 0.0
1004.8672073195651 119.94450339639857 559.0027600025171 -117.09405781591477 0.0 0.0
1043.8376605227033 129.61969866470645 583.3361344521045 -112.50471702650697 0.0 0.0
1079.5560309067885 139.34061729530086 606.0108249178062 -107.40218468323748 0.0 0.0
1111.670320153583 146.69574543127845 625.830187829999 -101.8451528337199 0.0 0.0
1126.7048156786761 139.1363654859855 629.8590321750273 -92.73179635696721 0.0 0.0
1119.3228183441317 111.65557774663068 612.687240085515 -76.7082633510989 0.0 0.0
633.8521385416389 -367.926446689836 136.20693966608536 -1.453486220270861e-10 0.0 0.0
1119.3228183445176 111.65557774731414 612.6872400859337 76.7082633513796 0.0 0.0
1126.704815678405 139.13636548570935 629.8590321748156 92.7317963572663 0.0 0.0
1111.6703201556313 146.69574543364234 625.8301878314526 101.84515283413639 0.0 0.0
1079.5560309065365 139.3406172949879 606.0108249175992 107.40218468317308 0.0 0.0
1043.8376605229562 129.61969866509872 583.3361344523747 112.504717026322 0.0 0.0
1004.8672073186882 119.94450339568127 559.0027600018568 117.09405781598167 0.0 0.0
960.8665764745585 106.5405621414502 530.2022482168389 120.81694211306989 0.0 0.0
912.3539195334886 90.93914804111884 498.0105843106385 123.64831336477357 0.0 0.0
861.0210350074972 75.69185076902664 464.53820483787445 126.10435425923268 0.0 0.0
808.818521949786 64.11847747185423 432.4439583436472 128.30174376237585 0.0 0.0
755.437739123928 58.66101768470837 401.96017784664843 129.89171879371196 0.0 0.0
699.1472197163797 55.667071081745064 366.11798453290953 132.49486610478283 0.0 0.0
620.0624606719882 51.332743961140125 304.6640347063907 134.5929754835372 0.0 0.0
510.43493541221113 31.9821932488301 209.51299219576202 139.4042427360434 0.0 0.0
379.1280995717171 6.338555601870171 121.98399436480852 146.17589905505525 0.0 0.0
252.12004368744257 6.652360812761065 77.11788438656865 141.06104464403006 0.0 0.0
157.84798776042996 21.988751632773116 53.951109405996206 134.17142531856885 0.0 0.0
81.90992476893723 19.701829166469228 30.48365448495599 147.49973831732598 0.0 0.0
268.32131662543213 59.29136781843988 133.73270854465974 210.90093515135055 0.0 0.0
-565.9793790552754 -1199.1181773496369 -737.0431976323505 73.63490743019189 0.0 0.0
-419.41076555381943 -1028.321845546074 -569.4844174014222 -76.64566048479544 0.0 0.0
198.5997287373023 19.647731508090132 85.12428722527065 -215.42898760572402 0.0 0.0
51.52625184670717 6.995599452511483 17.556248191537517 -165.9231901246739 0.0 0.0
111.36125974876646 23.31243300855804 40.40280048244622 -154.1076060594629 0.0 0.0
183.8930067819681 8.46787071175713 57.456349509545596 -161.01232561971227 0.0 0.0
286.06679727965053 -0.39799564619240635 86.5118019519561 -173.63834852981526 0.0 0.0
412.60135864357744 15.2203189349053 150.26654688902852 -168.3652085031631 0.0 0.0
532.5254281551736 35.783992179028196 239.58514493319282 -158.56506751898254 0.0 0.0
622.2869077696453 42.50432187231046 311.4297474546989 -152.96868180530484 0.0 0.0
684.1831074675431 40.23469609208378 352.4549921309341 -149.09730551595553 0.0 0.0
734.9443379769846 43.79239948204391 382.5942832381832 -145.3838282723874 0.0 0.0
784.1583920080209 52.96846020034823 412.4806322973138 -142.63692712993029 0.0 0.0
831.7463904129547 65.12183312981864 442.6601936110092 -139.87650030814382 0.0 0.0
876.1732785172505 77.78271510212569 471.3798049353111 -136.94914803886908 0.0 0.0
917.6112563621472 89.2624286449344 497.9809715063754 -133.3289091699826 0.0 0.0
954.544560602181 97.93265007787785 520.9040325334516 -128.50766347623835 0.0 0.0
990.2348487939306 106.39352211072654 542.9515048590321 -122.86870109427548 0.0 0.0
1032.5950028565985 123.81313653521852 572.7274595716807 -117.35716823201396 0.0 0.0
1067.3597856573338 135.08981466632395 596.0732677798723 -109.37323247827848 0.0 0.0
1069.94905124403 113.41530537206557 587.09041426768 -93.16563788410926 0.0 0.0
458.26995471193464 -486.8093747958658 -9.78358413117786 1.2654766123887384e-11 0.0 0.0
1069.9490512446996 113.41530537297893 587.0904142682299 93.1656378843355 0.0 0.0
1067.359785656688 135.08981466584135 596.0732677794518 109.37323247860068 0.0 0.0
1032.5950028580057 123.81313653668222 572.7274595727587 117.35716823230022 0.0 0.0
990.2348487927155 106.39352210954084 542.951504858017 122.86870109410481 0.0 0.0
954.5445606020481 97.93265007785263 520.9040325334105 128.50766347623542 0.0 0.0
917.6112563621275 89.26242864512997 497.98097150636147 133.3289091701415 0.0 0.0
876.1732785166208 77.78271510160886 471.3798049349001 136.9491480388204 0.0 0.0
831.7463904119065 65.1218331289757 442.66019361033347 139.87650030825066 0.0 0.0
784.1583920079313 52.96846020044382 412.4806322972524 142.63692712988052 0.0 0.0
734.9443379760869 43.79239948122884 382.5942832375641 145.3838282723218 0.0 0.0
684.1831074681087 40.23469609299912 352.4549921313352 149.09730551599486 0.0 0.0
622.2869077694179 42.50432187241036 311.42974745446554 152.96868180521966 0.0 0.0
532.5254281549003 35.78399217905018 239.58514493290306 158.5650675189542 0.0 0.0
412.601358643021 15.220318934636845 150.2665468886119 168.3652085030974 0.0 0.0
286.06679727930583 -0.3979956462395373 86.51180195183264 173.63834852963888 0.0 0.0
183.8930067817826 8.467870711862004 57.45634950953281 161.0123256194731 0.0 0.0
111.36125974855769 23.312433008291734 40.40280048230889 154.10760605934323 0.0 0.0
51.52625184675433 6.995599452647902 17.556248191590896 165.92319012443818 0.0 0.0
198.59972873688037 19.647731507872837 85.12428722498385 215.4289876056272 0.0 0.0
-419.410765552878 -1028.3218455448382 -569.4844174002916 76.64566048479458 0.0 0.0
-303.81939400061384 -865.0215925231901 -430.0312709483505 -81.08572977862863 0.0 0.0
138.88669753138768 -12.479958219897698 47.80672553930298 -213.65411242281561 0.0 0.0
23.514732816985088 -1.7680780808242222 6.524403957240908 -178.88755636366162 0.0 0.0
65.82797029439209 23.112131274861753 26.67381789924199 -169.99407088822906 0.0 0.0
117.56871250417922 11.482040793830294 38.59462505998092 -176.5023980350039 0.0 0.0
187.68463314317938 -0.5167821863410711 55.96157662829977 -194.17172807676715 0.0 0.0
290.6905147703347 0.14186573422313487 92.78328639234248 -200.2247820692331 0.0 0.0
413.3799370404735 13.627656443163042 158.85109244070577 -187.07073959400427 0.0 0.0
516.4574388769094 23.15299343034834 231.86110749265134 -173.18678475780126 0.0 0.0
587.3731266662687 21.795885190829598 282.77068185344956 -165.9086861297474 0.0 0.0
640.179585550233 23.089131559062977 317.264523769154 -160.60696382541101 0.0 0.0
687.0354403767604 29.26223750315738 346.1685887614928 -157.3233262707106 0.0 0.0
730.646389257839 38.99512724504368 373.8568936577436 -154.3251597917429 0.0 0.0
770.3844875758111 48.632861200506554 398.9396617357859 -151.44239932622108 0.0 0.0
808.0359890843976 58.059632234368664 422.74283831104066 -148.29033238285683 0.0 0.0
844.1223838410037 66.56032238532698 445.33892108411624 -144.02035626168856 0.0 0.0
878.9897634069546 73.96124484564118 466.8346846019108 -138.027731747831 0.0 0.0
922.6138293492985 91.04893899262589 497.1096291750274 -131.55737252141407 0.0 0.0
982.3940665332572 124.88367517123324 543.9309370506672 -126.02457343195837 0.0 0.0
1014.7532147467339 128.05893836059 562.9324112147252 -114.35465787967762 0.0 0.0
247.50477657222814 -612.9980247456987 -176.27367120430412 -1.2711609542748192e-11 0.0 0.0
1014.753214746335 128.05893836040843 562.9324112147383 114.35465787990898 0.0 0.0
982.3940665340069 124.88367517196556 543.930937051168 126.02457343234484 0.0 0.0
922.6138293509466 91.04893899461408 497.1096291762451 131.55737252141552 0.0 0.0
878.9897634076616 73.96124484663001 466.8346846022411 138.027731748034 0.0 0.0
844.1223838414786 66.56032238627958 445.3389210844406 144.02035626189527 0.0 0.0
808.035989084605 58.059632234658196 422.7428383112151 148.29033238301253 0.0 0.0
770.3844875758845 48.63286120080316 398.9396617358282 151.44239932622722 0.0 0.0
730.6463892579068 38.99512724565471 373.8568936579059 154.32515979210848 0.0 0.0
687.0354403760408 29.26223750242439 346.16858876105294 157.3233262707699 0.0 0.0
640.1795855490205 23.08913155769025 317.26452376826273 160.60696382509434 0.0 0.0
587.373126666088 21.795885190926636 282.7706818533626 165.90868612972108 0.0 0.0
516.4574388767049 23.152993430703365 231.86110749254112 173.18678475798055 0.0 0.0
413.3799370399495 13.627656442941191 158.85109244034803 187.07073959404624 0.0 0.0
290.6905147705149 0.14186573534572489 92.78328639265862 200.2247820692334 0.0 0.0
187.68463314253947 -0.5167821871828902 55.96157662787417 194.1717280765133 0.0 0.0
117.56871250446301 11.482040794697205 38.59462506033239 176.50239803466468 0.0 0.0
65.82797029455143 23.11213127537957 26.673817899443687 169.99407088822238 0.0 0.0
23.514732816983692 -1.7680780805966574 6.5244039573080315 178.88755636334406 0.0 0.0
138.8866975309654 -12.479958220252339 47.80672553901033 213.6541124226379 0.0 0.0
-303.81939399986277 -865.0215925220591 -430.03127094743303 81.08572977869925 0.0 0.0
-209.78572956393322 -719.4102978138424 -315.05938184257093 -93.65100597129549 0.0 0.0
85.27752901727919 -38.211823630378746 18.328067192000958 -205.84256838568575 0.0 0.0
-3.6728189367795556 -5.848015720498275 -2.872178800680925 -186.37179461935267 0.0 0.0
20.776532599126764 21.844488311863305 12.783246008111043 -180.93083184188433 0.0 0.0
51.32127417593162 14.612323507735981 19.7401324318569 -187.4529711168729 0.0 0.0
90.37886193034453 2.973467574380858 27.906840449489636 -207.188959109439 0.0 0.0
147.32064275169554 -2.662921912235954 43.89382740298858 -222.65321986091703 0.0 0.0
237.7530337010255 -6.737423854589683 72.90634137060505 -220.9630332902558 0.0 0.0
347.60184750476554 -13.255088840522953 113.49768439978752 -201.1032539172169 0.0 0.0
432.73423973499405 -12.869552291769523 157.15654669495856 -178.44490280920655 0.0 0.0
490.52497549395224 -3.836943801390575 196.65154536755404 -169.92764665315104 0.0 0.0
534.2206852338336 4.2775528099365445 228.45452263753265 -167.7567439137174 0.0 0.0
571.2245156366369 12.13461702419309 255.20467464966654 -166.9078616228865 0.0 0.0
604.8613190585503 19.974910783600528 278.7642964570548 -166.05744364987703 0.0 0.0
637.4391401600858 28.072607419471765 301.61156113400466 -164.76891764614334 0.0 0.0
671.6695496742014 36.524969076947116 325.6694975363239 -162.37529370758017 0.0 0.0
708.6885647006642 44.301879351185676 351.1976369892914 -157.28293340553358 0.0 0.0
748.1643036210024 50.80459747631248 377.2474102279322 -149.48747532884104 0.0 0.0
815.3688711512539 82.89858359158758 427.1028847669113 -143.46339120539093 0.0 0.0
916.3695766004101 144.8693033340503 511.4163862494068 -142.94877123263976 0.0 0.0
-31.77409716698753 -738.1724071781485 -373.6116506421268 -1.5631940186722204e-12 0.0 0.0
916.3695766009683 144.8693033351345 511.4163862498986 142.9487712327902 0.0 0.0
815.3688711513131 82.89858359172104 427.1028847670235 143.46339120573703 0.0 0.0
748.1643036210995 50.804597476364734 377.24741022820865 149.48747532929892 0.0 0.0
708.6885647021261 44.3018793530041 351.19763699021405 157.28293340580933 0.0 0.0
671.6695496758216 36.52496907916868 325.66949753759695 162.37529370791447 0.0 0.0
637.439140160044 28.07260741924408 301.61156113394327 164.7689176460567 0.0 0.0
604.8613190589758 19.97491078408897 278.76429645730974 166.05744364981823 0.0 0.0
571.2245156376514 12.134617025940415 255.20467465033718 166.90786162308987 0.0 0.0
534.220685233139 4.27755280931175 228.4545226370358 167.75674391366184 0.0 0.0
490.52497549334754 -3.8369438021474913 196.65154536713146 169.92764665315676 0.0 0.0
432.734239734797 -12.869552291869725 157.1565466947594 178.44490280902514 0.0 0.0
347.60184750448263 -13.255088840120624 113.4976843997594 201.10325391734605 0.0 0.0
237.75303370059925 -6.737423854537667 72.90634137047168 220.96303329029018 0.0 0.0
147.32064275196646 -2.66292191115009 43.89382740339498 222.6532198608286 0.0 0.0
90.37886192993993 2.9734675737369276 27.906840449186458 207.18895910917144 0.0 0.0
51.32127417606943 14.612323508253635 19.740132432056328 187.45297111669026 0.0 0.0
20.776532599278625 21.844488312272873 12.78324600827923 180.93083184161694 0.0 0.0
-3.672818936725662 -5.848015720287572 -2.872178800603743 186.37179461910918 0.0 0.0
85.27752901683458 -38.21182363095443 18.328067191666843 205.84256838548797 0.0 0.0
-209.78572956332064 -719.4102978128243 -315.0593818418603 93.65100597133036 0.0 0.0
-145.68085363025125 -584.9747795210616 -229.75090379088158 -106.91728552181812 0.0 0.0
35.655642484601614 -57.47677602639451 -5.1984007463911395 -191.3665233152371 0.0 0.0
-30.346668219044663 -6.418813568021628 -11.028441499207641 -190.272642763001 0.0 0.0
-23.659039465220378 20.125413261640105 -1.0730377080561846 -187.26604755873737 0.0 0.0
-14.155886622668518 17.43863564066806 0.9828743537257942 -193.1485105099547 0.0 0.0
-6.891256271191489 7.261869489742729 0.12066556724447697 -212.1061298190606 0.0 0.0
-3.150887794081463 0.9653546165184781 -0.6569366681728619 -229.40000710616232 0.0 0.0
-1.190570841644842 0.10924850563230404 -0.3283418134382696 -232.17586626598083 0.0 0.0
-0.40464940983714115 -0.0007511319157362806 -0.12978449724912267 -225.38337059840663 0.0 0.0
-0.03864919327686778 -0.01656749405704616 -0.013617574104486607 -221.5185607820843 0.0 0.0
-0.4799915785762323 0.009357651379900744 -0.11808507289526915 -213.14662085819126 0.0 0.0
-1.0511735830302058 0.1845395601866855 0.262128848607432 -199.96633742748412 0.0 0.0
-1.8501929967953572 0.9893044600290608 0.524851259987301 -190.986333345021 0.0 0.0
0.42379039219264314 2.9887713488380285 1.1247483168552321 -184.17875719450876 0.0 0.0
10.667028832841368 7.427886389560342 2.6478087637106142 -179.30297471683704 0.0 0.0
35.96995011115007 15.48187784047522 6.884000128749179 -175.0511667846729 0.0 0.0
86.03177301178962 29.062849328424647 16.322607329259853 -169.56515693267917 0.0 0.0
174.9202119870245 39.519393350587464 22.587968361128418 -160.35613789868387 0.0 0.0
397.74859331622093 -0.8605451497376748 40.67722958976583 -155.85181352883833 0.0 0.0
632.3857943643864 37.31811817705195 255.84212165685753 -203.82789543230345 0.0 0.0
-725.6552480839441 -991.5275867323076 -779.887695474264 1.446949227101868e-10 0.0 0.0
632.3857943666641 37.31811818011627 255.84212165827464 203.82789543235373 0.0 0.0
397.7485933163852 -0.8605451492188649 40.677229589964384 155.85181352932665 0.0 0.0
174.92021198519728 39.51939334823146 22.587968359728904 160.35613789922854 0.0 0.0
86.03177301251355 29.062849328902303 16.322607329777995 169.56515693289083 0.0 0.0
35.969950110645655 15.481877839663028 6.8840001282076315 175.05116678459262 0.0 0.0
10.667028833086633 7.427886389614855 2.6478087638408 179.30297471689565 0.0 0.0
0.4237903919413526 2.9887713478259883 1.1247483164146388 184.1787571944668 0.0 0.0
-1.850192995652563 0.9893044614594757 0.5248512607942786 190.98633334535762 0.0 0.0
-1.0511735815901346 0.18453956194046128 0.2621288496641796 199.96633742736793 0.0 0.0
-0.4799915789575948 0.009357650152608699 -0.11808507345597263 213.14662085831236 0.0 0.0
-0.03864919273323153 -0.016567494306357844 -0.013617574021193235 221.51856078163595 0.0 0.0
-0.40464940921346226 -0.0007511310859813491 -0.12978449680532478 225.38337059854064 0.0 0.0
-1.1905708416679737 0.10924850539294795 -0.32834181350991276 232.1758662660386 0.0 0.0
-3.150887793878791 0.9653546167852374 -0.6569366680317552 229.40000710600725 0.0 0.0
-6.891256271121868 7.261869489600824 0.12066556722197275 212.10612981878657 0.0 0.0
-14.155886622772119 17.438635640168467 0.9828743535439208 193.1485105097407 0.0 0.0
-23.659039465169457 20.125413261578 -1.0730377080605413 187.26604755853592 0.0 0.0
-30.346668218931804 -6.41881356769139 -11.028441499076205 190.27264276284694 0.0 0.0
35.65564248427356 -57.47677602667334 -5.198400746590103 191.36652331489145 0.0 0.0
-145.68085362991746 -584.9747795202775 -229.7509037904895 106.91728552195438 0.0 0.0
-111.95988925575334 -464.2998275435974 -173.27944591548373 -114.35052118636877 0.0 0.0
-4.207323501658534 -69.24536396036711 -21.972314014138306 -174.6975955043152 0.0 0.0
-55.67020537871832 -5.708727249521614 -18.427888859203307 -189.33430881259525 0.0 0.0
-67.06314991525649 18.546306905196133 -14.575218244901382 -188.72158489355178 0.0 0.0
-78.40429634429232 19.54489306528931 -17.666976063172132 -193.15725488854076 0.0 0.0
-102.86762090595096 11.327251936913914 -27.45817405521392 -208.68323601122626 0.0 0.0
-152.95858136889856 4.6219757188971435 -45.109731185684 -223.7020376838285 0.0 0.0
-239.2339094794932 6.768258620950942 -73.52106834143832 -221.36550555662555 0.0 0.0
-347.8639617548231 13.0944492668067 -113.70507588637044 -201.15085237387294 0.0 0.0
-432.75035195129163 12.837797119675937 -157.17330664254922 -178.41119745786145 0.0 0.0
-491.04740595826934 3.697284527269865 -196.98403352105146 -169.9421269004661 0.0 0.0
-535.0636189895281 -4.173406415321708 -229.40154752252408 -167.57188085769624 0.0 0.0
-572.2191724654107 -10.578153742944082 -255.83544191714554 -166.21233779309463 0.0 0.0
-602.5852902988977 -14.424138136337248 -275.37087243299504 -165.29669620112549 0.0 0.0
-623.4639256654516 -14.487136738167834 -286.2724736871142 -165.47732422383768 0.0 0.0
-632.8164891712814 -9.496570775270527 -286.3283540918628 -167.45405263392334 0.0 0.0
-629.2817563682622 0.33738797218595096 -273.6424246829778 -171.93641935728095 0.0 0.0
-621.4726534190299 7.801873000876128 -251.1155344492755 -181.25142147316888 0.0 0.0
-597.3596509732016 60.85176486112745 -186.48963985713547 -195.00761014426345 0.0 0.0
-321.3005842848586 186.51965730293188 52.548163940059425 -164.46173389580164 0.0 0.0
-1300.5825024781852 -1266.379301039199 -1317.845710347932 -1.3211831628723303e-10 0.0 0.0
-321.3005842847926 186.51965730418024 52.548163940418846 164.46173389654174 0.0 0.0
-597.3596509719137 60.85176486236627 -186.48963985629538 195.00761014437168 0.0 0.0
-621.4726534210929 7.801872998243468 -251.11553445087335 181.25142147373634 0.0 0.0
-629.2817563676324 0.33738797272440024 -273.6424246827141 171.93641935732646 0.0 0.0
-632.8164891712121 -9.496570775601057 -286.3283540917389 167.45405263371626 0.0 0.0
-623.4639256652132 -14.487136738180126 -286.2724736869091 165.47732422395651 0.0 0.0
-602.585290298147 -14.424138136057898 -275.3708724324743 165.29669620113071 0.0 0.0
-572.2191724652997 -10.578153743123039 -255.83544191709515 166.21233779315952 0.0 0.0
-535.0636189884235 -4.17340641408002 -229.40154752179308 167.57188085774484 0.0 0.0
-491.0474059585084 3.69728452635273 -196.98403352121974 169.9421269004969 0.0 0.0
-432.75035195131574 12.837797119086076 -157.17330664256076 178.41119745803186 0.0 0.0
-347.8639617538675 13.094449267440655 -113.70507588580143 201.15085237390846 0.0 0.0
-239.233909478612 6.768258621472474 -73.52106834097798 221.3655055566296 0.0 0.0
-152.95858136846883 4.621975719082242 -45.10973118549772 223.70203768363828 0.0 0.0
-102.86762090595887 11.32725193637449 -27.458174055385964 208.68323601095267 0.0 0.0
-78.40429634431435 19.544893064846097 -17.66697606331384 193.15725488822665 0.0 0.0
-67.06314991539044 18.54630690472068 -14.575218245088047 188.7215848933927 0.0 0.0
-55.67020537863059 -5.708727249249889 -18.427888859097898 189.33430881251132 0.0 0.0
-4.207323501727401 -69.24536396047822 -21.972314014189422 174.69759550414383 0.0 0.0
-111.95988925560808 -464.2998275429654 -173.27944591528882 114.35052118629122 0.0 0.0
-93.94877495372751 -354.7317348468884 -134.59075079804475 -108.18749762967629 0.0 0.0
-29.92232149730942 -75.43454980264772 -31.602334994926654 -161.31741919228287 0.0 0.0
-79.43125930969094 -5.258661460342424 -25.39215135453857 -185.24258453864505 0.0 0.0
-108.67040934750213 17.17856121436369 -27.48000449489411 -185.16138032615638 0.0 0.0
-141.4842887125089 21.068307860613796 -36.05820693900321 -188.552329009553 0.0 0.0
-197.13287478088034 14.320999403695449 -55.040585810066844 -198.70998485287834 0.0 0.0
-292.6062821099034 0.8678720299815001 -93.80443438728895 -200.01318929317588 0.0 0.0
-413.5694740873122 -13.836776734536702 -159.18466339460943 -187.71401530502274 0.0 0.0
-516.4343512154954 -23.34721448040088 -231.9529542046385 -173.31482403704084 0.0 0.0
-587.2980218524867 -21.822545952831142 -282.7703180304264 -165.91251058864898 0.0 0.0
-640.2577092669121 -23.072748917336483 -317.3418020165824 -160.51594738301768 0.0 0.0
-687.5386432555104 -29.110943617197364 -346.4505285213067 -156.7689047600256 0.0 0.0
-731.019682683734 -37.84846051013707 -373.6757258117502 -153.1144431788743 0.0 0.0
-767.419001453887 -43.945051042321595 -395.43509002277307 -150.3147010103363 0.0 0.0
-794.143494556022 -44.76065044399547 -409.4848098810661 -149.3888909746512 0.0 0.0
-808.1391036957639 -38.04080123007026 -413.1541674437891 -150.7377437735644 0.0 0.0
-810.425915141077 -26.021149297843607 -407.8870918046589 -154.58908407667764 0.0 0.0
-801.4732373539089 -11.031091396094922 -395.33443952890815 -160.8088422219143 0.0 0.0
-750.5398851849532 37.447903291417276 -345.40139362307735 -167.99400001792833 0.0 0.0
-625.8968821330087 145.02077533927675 -231.26607505634615 -175.73218750197483 0.0 0.0
-2103.5458800585293 -1566.197228457383 -1803.7752501687826 1.1540635114215547e-10 0.0 0.0
-625.8968821346605 145.02077533718634 -231.2660750574175 175.73218750238465 0.0 0.0
-750.5398851845301 37.44790329164297 -345.4013936229594 167.99400001823076 0.0 0.0
-801.4732373562317 -11.031091398928439 -395.33443953039574 160.80884222240306 0.0 0.0
-810.4259151414008 -26.021149298312622 -407.88709180496147 154.5890840767106 0.0 0.0
-808.1391036942723 -38.04080122849582 -413.15416744276746 150.73774377338205 0.0 0.0
-794.1434945555795 -44.760650443848526 -409.4848098807166 149.3888909747417 0.0 0.0
-767.4190014528403 -43.94505104130315 -395.4350900220881 150.31470101041782 0.0 0.0
-731.0196826835776 -37.84846051018613 -373.67572581167235 153.11444317883024 0.0 0.0
-687.538643255464 -29.110943617516302 -346.45052852126355 156.76890476006605 0.0 0.0
-640.2577092670477 -23.072748917831543 -317.34180201673746 160.51594738297817 0.0 0.0
-587.2980218524003 -21.82254595317929 -282.7703180303709 165.9125105886787 0.0 0.0
-516.4343512153138 -23.347214480627994 -231.95295420443156 173.31482403709182 0.0 0.0
-413.5694740860817 -13.836776733224328 -159.18466339367652 187.71401530495166 0.0 0.0
-292.60628210936983 0.8678720303411842 -93.8044343869315 200.01318929298796 0.0 0.0
-197.13287478032706 14.320999403972872 -55.04058580982644 198.70998485261103 0.0 0.0
-141.48428871234577 21.068307860460788 -36.05820693901184 188.552329009346 0.0 0.0
-108.6704093474006 17.17856121423026 -27.480004494908286 185.1613803260031 0.0 0.0
-79.43125930972606 -5.2586614604563024 -25.392151354588627 185.24258453842785 0.0 0.0
-29.92232149747941 -75.43454980279886 -31.602334995021348 161.31741919217635 0.0 0.0
-93.94877495370315 -354.73173484649755 -134.5907507979192 108.18749762955761 0.0 0.0
-76.83215235577939 -263.1564636757728 -101.99658480946567 -97.1203992841226 0.0 0.0
-47.82347663925705 -74.99737888221105 -36.845568558114024 -147.44812480720708 0.0 0.0
-101.31751161233137 -5.1288653083054285 -31.910249498373634 -176.76167767167235 0.0 0.0
-148.6435968617553 15.920962129516477 -39.7819841586485 -177.65196445164787 0.0 0.0
-202.11493837377265 20.939347079596782 -54.32627429105174 -177.10187729166924 0.0 0.0
-287.85070213992304 11.249586194275672 -85.42544728229248 -177.2034070184792 0.0 0.0
-412.5971233507559 -13.298234597527923 -150.0685731302089 -171.06369055077695 0.0 0.0
-532.6253983299556 -36.3017062833319 -239.78770141180345 -159.2066359238319 0.0 0.0
-622.2131824967151 -42.69275217551993 -311.5007454156213 -153.04765260609094 0.0 0.0
-684.0567809905281 -40.16162795586099 -352.39812953927367 -149.13500770120828 0.0 0.0
-734.7687430805182 -43.55286759214454 -382.4218290550383 -145.27950855353777 0.0 0.0
-784.2010823190282 -52.54974111482703 -412.3441621871351 -141.99868270872187 0.0 0.0
-831.8471027469215 -64.13968537123485 -442.315288698842 -138.39399747162173 0.0 0.0
-873.9738141052592 -74.29112120643327 -468.73254081270596 -135.36874369424413 0.0 0.0
-906.6305823393376 -78.61844242590956 -487.4661460012005 -134.25551340911696 0.0 0.0
-925.3642811717549 -74.06420395057071 -494.6812821408186 -136.0356325900685 0.0 0.0
-928.8584382579138 -59.4056042141508 -489.1486961000862 -140.63303871856616 0.0 0.0
-907.6117986772213 -26.770781484898492 -462.18089002554245 -146.21447853380468 0.0 0.0
-848.7276957994791 35.15524565491697 -402.2717593319485 -150.35604613066508 0.0 0.0
-681.4964819882993 191.66457929439122 -243.17858968781695 -150.7623797349139 0.0 0.0
-2545.5202510513564 -1796.6913965917388 -2148.1018346205447 2.9668711931662983e-11 0.0 0.0
-681.4964819887558 191.66457929353203 -243.17858968803006 150.76237973514867 0.0 0.0
-848.7276958002942 35.15524565387568 -402.271759332624 150.35604613109888 0.0 0.0
-907.6117986763588 -26.770781484383505 -462.1808900248101 146.21447853412866 0.0 0.0
-928.8584382581525 -59.40560421451728 -489.14869610025755 140.6330387187783 0.0 0.0
-925.3642811716934 -74.06420395055213 -494.68128214080485 136.03563258995425 0.0 0.0
-906.6305823388731 -78.61844242566934 -487.4661460008697 134.25551340918634 0.0 0.0
-873.973814105996 -74.29112120744013 -468.732540813191 135.36874369434096 0.0 0.0
-831.8471027467801 -64.13968537143367 -442.3152886988448 138.39399747177944 0.0 0.0
-784.2010823177043 -52.5497411136358 -412.34416218625927 141.99868270865545 0.0 0.0
-734.7687430805394 -43.5528675924645 -382.42182905515807 145.2795085535265 0.0 0.0
-684.0567809910393 -40.16162795691001 -352.39812953966725 149.1350077013355 0.0 0.0
-622.21318249655 -42.69275217580358 -311.50074541538396 153.04765260613723 0.0 0.0
-532.6253983291629 -36.30170628289878 -239.78770141117587 159.20663592384506 0.0 0.0
-412.5971233503256 -13.298234597631161 -150.06857312991252 171.06369055075334 0.0 0.0
-287.8507021388781 11.249586195514691 -85.425447281597 177.20340701825148 0.0 0.0
-202.11493837340385 20.93934707968381 -54.32627429092993 177.10187729145468 0.0 0.0
-148.6435968613829 15.920962129986048 -39.781984158399624 177.65196445152873 0.0 0.0
-101.31751161237385 -5.128865308534125 -31.91024949845351 176.7616776715502 0.0 0.0
-47.82347663929812 -74.99737888228469 -36.84556855814957 147.44812480705713 0.0 0.0
-76.83215235572368 -263.15646367543695 -101.99658480934818 97.12039928413955 0.0 0.0
-62.53851217810582 -186.6569279907819 -74.7586320506663 -83.54856863658193 0.0 0.0
-61.272624347508994 -69.63924107365096 -39.27373578370332 -131.74971381505608 0.0 0.0
-121.6117906595662 -5.0033195171167275 -37.96806953150994 -164.14072310885533 0.0 0.0
-186.30407826638162 13.885527896803195 -51.69939864355388 -164.95303037317973 0.0 0.0
-262.2415296023943 19.029995050889077 -73.00053096621656 -161.24921730748488 0.0 0.0
-375.8048615553139 3.39851070655053 -119.76868675398957 -152.5334891367705 0.0 0.0
-508.2674884208485 -31.040472544311918 -208.72826380418078 -140.43828276712335 0.0 0.0
-620.3157720547359 -52.13748813506178 -304.989879662186 -134.9282897228557 0.0 0.0
-699.11654778276 -55.79881067082097 -366.2233195800749 -132.56440125108827 0.0 0.0
-755.2471464236357 -58.48703927746918 -401.82127363711334 -129.9312003868817 0.0 0.0
-808.3729200331743 -63.58829813855196 -431.99460593022445 -128.1930116645477 0.0 0.0
-860.3989386702794 -74.77141992017901 -463.8043492313226 -125.45689811742953 0.0 0.0
-911.9310120506218 -89.83105395744872 -497.28392096626214 -122.1204584369489 0.0 0.0
-959.9577867128883 -104.76356198307843 -528.9510165666878 -119.03133549570263 0.0 0.0
-998.9469548931042 -114.19341713063335 -553.3675536581006 -117.66670535274223 0.0 0.0
-1021.9756930033752 -111.27663479385305 -563.609150118707 -119.43829086096949 0.0 0.0
-1020.5200405170417 -90.10101861459256 -552.4573563547901 -123.67302803185602 0.0 0.0
-985.810988398139 -40.86879658639256 -510.6766800396134 -128.45046867847097 0.0 0.0
-896.9595597016706 54.169410741404334 -419.4710190168503 -130.31047258736464 0.0 0.0
-713.3319277610158 229.5818626087812 -241.5431771965945 -127.98601995055536 0.0 0.0
-2896.0168019823186 -2036.5788223550521 -2448.745333022829 -1.1639045283118321e-10 0.0 0.0
-713.3319277595563 229.5818626102166 -241.5431771954693 127.98601995058571 0.0 0.0
-896.959559701526 54.16941074136574 -419.4710190167026 130.31047258751119 0.0 0.0
-985.8109883971056 -40.86879658552732 -510.676680038756 128.45046867869584 0.0 0.0
-1020.5200405178009 -90.10101861558029 -552.4573563554851 123.67302803208383 0.0 0.0
-1021.975693003499 -111.27663479412902 -563.609150118836 119.4382908610666 0.0 0.0
-998.9469548933378 -114.19341713106299 -553.3675536581786 117.66670535280748 0.0 0.0
-959.9577867125741 -104.7635619829299 -528.9510165664883 119.03133549553301 0.0 0.0
-911.9310120509749 -89.8310539581948 -497.2839209665967 122.12045843722315 0.0 0.0
-860.3989386692768 -74.77141991933163 -463.8043492306587 125.45689811738438 0.0 0.0
-808.3729200328206 -63.58829813845827 -431.99460592999594 128.19301166455895 0.0 0.0
-755.2471464235742 -58.48703927774783 -401.8212736371077 129.93120038682918 0.0 0.0
-699.1165477817628 -55.79881067006264 -366.2233195793605 132.56440125100693 0.0 0.0
-620.315772054606 -52.137488135378945 -304.9898796619917 134.92828972290263 0.0 0.0
-508.2674884205802 -31.04047254466799 -208.72826380393624 140.43828276718514 0.0 0.0
-375.8048615546367 3.398510706856242 -119.76868675362071 152.53348913677917 0.0 0.0
-262.2415296018684 19.029995051086235 -73.0005309660214 161.24921730739337 0.0 0.0
-186.30407826601186 13.885527897103717 -51.69939864336657 164.95303037292166 0.0 0.0
-121.61179065947677 -5.003319517200743 -37.96806953150738 164.1407231088315 0.0 0.0
-61.272624347479464 -69.63924107378094 -39.27373578373346 131.74971381489985 0.0 0.0
-62.53851217800294 -186.65692799057825 -74.75863205057436 83.54856863655806 0.0 0.0
-51.86166347712382 -124.52407770051853 -52.91572235329271 -69.07450826131706 0.0 0.0
-71.72273474869371 -60.790267173716984 -39.7539005767232 -113.85740330631454 0.0 0.0
-140.5553228947561 -4.549601065436329 -43.526724670393406 -147.33391719038423 0.0 0.0
-222.31291226590776 11.472966036054684 -63.128294986638515 -148.31226855364923 0.0 0.0
-320.7977565354754 13.120061306415517 -93.34920583644937 -138.60846863523034 0.0 0.0
-454.72278179788213 -9.85856614112712 -158.65979331116316 -124.02685776100506 0.0 0.0
-585.6417015868518 -46.010821833391375 -263.78109001430624 -113.96265354629598 0.0 0.0
-687.4266159480256 -62.56816853326621 -354.8326656065187 -112.14998020588519 0.0 0.0
-756.6066696193141 -70.36381163707756 -407.4335619608785 -110.83016455146219 0.0 0.0
-815.9199543113366 -74.569583902998 -442.1514707965622 -110.98107521902526 0.0 0.0
-870.6216245943895 -82.92743525863482 -474.1272735258032 -109.86450702699548 0.0 0.0
-925.7032239660095 -96.97492642275614 -508.7715374548908 -107.62629752343629 0.0 0.0
-980.9205418439665 -115.21387928747725 -545.6010143090243 -104.76604109815554 0.0 0.0
-1033.9986416965687 -134.36646505646883 -581.8229396095297 -101.8883200809197 0.0 0.0
-1079.864074401602 -149.52855878899808 -612.5010417720106 -100.18737447954703 0.0 0.0
-1106.2870363743746 -149.00856322423238 -625.7008022864547 -101.12035685518109 0.0 0.0
-1098.9571887794737 -118.8502115181679 -607.2040648199124 -104.79317201572067 0.0 0.0
-1043.8883188455493 -47.89750539539935 -544.5144013877989 -108.70974748732732 0.0 0.0
-928.7701695090138 74.02781495251645 -426.57050483044475 -109.98498755152707 0.0 0.0
-739.6580078835196 255.17733150654976 -242.2384983824499 -109.61560089583467 0.0 0.0
-3193.050263171484 -2261.175639882767 -2713.2371113382683 -5.473310693560052e-11 0.0 0.0
-739.658007882321 255.1773315076768 -242.23849838154456 109.61560089601944 0.0 0.0
-928.7701695078763 74.02781495362046 -426.5705048297415 109.98498755155583 0.0 0.0
-1043.888318844394 -47.897505394292324 -544.5144013870433 108.70974748729054 0.0 0.0
-1098.9571887795398 -118.85021151847752 -607.2040648201255 104.79317201590435 0.0 0.0
-1106.2870363740292 -149.00856322400352 -625.7008022862279 101.12035685531124 0.0 0.0
-1079.8640744012416 -149.52855878880456 -612.5010417716834 100.18737447949982 0.0 0.0
-1033.9986416944398 -134.36646505441962 -581.8229396080739 101.88832008078091 0.0 0.0
-980.9205418436067 -115.21387928743647 -545.6010143088743 104.76604109825553 0.0 0.0
-925.7032239656983 -96.97492642262702 -508.77153745466546 107.62629752340241 0.0 0.0
-870.6216245940152 -82.92743525849502 -474.1272735255672 109.86450702690915 0.0 0.0
-815.9199543102559 -74.56958390208513 -442.1514707959264 110.98107521885518 0.0 0.0
-756.6066696181405 -70.3638116361682 -407.43356196008324 110.83016455139598 0.0 0.0
-687.4266159485462 -62.568168534303666 -354.8326656067748 112.14998020600454 0.0 0.0
-585.6417015861358 -46.010821833187286 -263.7810900136677 113.96265354630101 0.0 0.0
-454.72278179740357 -9.858566141069076 -158.65979331084245 124.0268577610043 0.0 0.0
-320.7977565351406 13.12006130651162 -93.34920583632422 138.60846863506904 0.0 0.0
-222.3129122658359 11.472966035933478 -63.12829498665454 148.31226855348672 0.0 0.0
-140.55532289463278 -4.5496010654679795 -43.526724670364736 147.33391719028182 0.0 0.0
-71.72273474860962 -60.79026717364456 -39.75390057667625 113.85740330625289 0.0 0.0
-51.86166347710078 -124.52407770043563 -52.91572235326091 69.07450826120008 0.0 0.0
-44.673673421533664 -76.34229820857678 -36.30479148903313 -54.25715612662394 0.0 0.0
-79.79676461978784 -49.831500478849634 -38.88847952959122 -93.90595659442351 0.0 0.0
-158.32245536335745 -3.5851219506389715 -48.57278069267244 -126.3876317090394 0.0 0.0
-257.00799506262786 7.56889559744298 -74.71735117838035 -126.71470521270084 0.0 0.0
-381.115124603425 5.264144065115925 -115.78243577395077 -112.93175157829975 0.0 0.0
-520.3436605917113 -27.11570846624733 -200.80458387415496 -93.84011428197333 0.0 0.0
-647.371137945993 -56.024958272491595 -311.0183429174784 -89.95316629989824 0.0 0.0
-736.3007584796404 -73.3178429833381 -392.66273962268895 -89.24106228972094 0.0 0.0
-807.267627337936 -82.55265644940599 -441.2607117548573 -90.19370616933767 0.0 0.0
-867.9551013811348 -90.7617757261356 -477.3054803559715 -91.06607392070164 0.0 0.0
-925.9388494532269 -102.47679385180399 -512.3551476244853 -90.46822163578958 0.0 0.0
-984.0908216903572 -119.24374185401487 -549.8588879904827 -88.77457338981127 0.0 0.0
-1042.3762990350729 -139.9846964555195 -589.4367267663216 -86.54763405720637 0.0 0.0
-1099.1506245279884 -162.98933853624774 -629.3794431024996 -84.09397620543173 0.0 0.0
-1150.3546688271456 -182.4050141725266 -664.8019050996621 -82.04996206744028 0.0 0.0
-1181.9543584954238 -185.3371806278057 -682.3188259764433 -81.77698336042697 0.0 0.0
-1170.3547950640461 -149.9057115642178 -659.1546764857294 -84.14710600588577 0.0 0.0
-1096.1183474663844 -58.3027639471305 -576.5871665158902 -87.7827730028152 0.0 0.0
-956.6909104772452 88.59144178465678 -433.8038617155677 -90.7377544132088 0.0 0.0
-756.6443480132873 280.0879077319346 -238.37043942313232 -94.25815553912629 0.0 0.0
-3447.839431624591 -2462.470909746626 -2943.9491117184107 -3.240785417801817e-11 0.0 0.0
-756.6443480133589 280.08790773176133 -238.37043942325568 94.25815553930013 0.0 0.0
-956.6909104752522 88.59144178661727 -433.8038617142316 90.737754413272 0.0 0.0
-1096.1183474656877 -58.30276394646366 -576.5871665154365 87.78277300264774 0.0 0.0
-1170.354795062227 -149.9057115625124 -659.1546764844924 84.14710600594114 0.0 0.0
-1181.9543584965093 -185.33718062908147 -682.3188259771587 81.77698336058722 0.0 0.0
-1150.354668825982 -182.40501417148454 -664.801905098799 82.0499620673341 0.0 0.0
-1099.150624527083 -162.9893385355278 -629.3794431018588 84.09397620548114 0.0 0.0
-1042.3762990344503 -139.9846964551056 -589.4367267659402 86.54763405725117 0.0 0.0
-984.0908216901498 -119.24374185402263 -549.8588879903979 88.77457338972809 0.0 0.0
-925.9388494524343 -102.47679385130684 -512.3551476240168 90.46822163585252 0.0 0.0
-867.9551013811325 -90.76177572643888 -477.30548035601436 91.06607392073722 0.0 0.0
-807.2676273373916 -82.55265644914226 -441.26071175451455 90.19370616929226 0.0 0.0
-736.3007584796645 -73.31784298375979 -392.6627396226132 89.24106228976314 0.0 0.0
-647.3711379452628 -56.02495827206931 -311.0183429168232 89.95316629984853 0.0 0.0
-520.3436605916244 -27.115708466652972 -200.80458387400077 93.84011428184982 0.0 0.0
-381.11512460288895 5.2641440653751905 -115.78243577369005 112.93175157816385 0.0 0.0
-257.0079950625466 7.568895597055262 -74.71735117848185 126.71470521271621 0.0 0.0
-158.32245536306047 -3.5851219504328027 -48.57278069252146 126.38763170891049 0.0 0.0
-79.7967646196846 -49.83150047887501 -38.888479529567874 93.90595659436865 0.0 0.0
-44.673673421435744 -76.34229820839047 -36.30479148894786 54.257156126594445 0.0 0.0
-40.328045988195576 -41.82842576739545 -24.646941526677303 -39.53057253629156 0.0 0.0
-85.47914940724996 -38.01136457561766 -37.04715419486028 -72.13147691941937 0.0 0.0
-174.82723329622138 -2.2391973366405984 -53.120149667562856 -101.13742747590548 0.0 0.0
-292.2233515382691 2.4130713326457154 -86.7819765268889 -100.49115405940819 0.0 0.0
-438.5123342567321 -6.7258421798299075 -141.61502856670384 -82.79779886794753 0.0 0.0
-580.313699744539 -39.98765578219591 -242.2485465706908 -68.38128826012986 0.0 0.0
-692.4697672225665 -64.93131219076172 -349.72418997231324 -67.23560735731526 0.0 0.0
-777.6945037990738 -81.82296907264896 -422.1703333138993 -67.34660884809675 0.0 0.0
-850.3536049364378 -95.0784467635239 -470.4107125803214 -69.07300902130392 0.0 0.0
-914.5134278012 -107.14332118479898 -509.39226920888456 -70.30624593068 0.0 0.0
-975.7454950835281 -122.17970443812811 -547.648712732891 -70.12878271147102 0.0 0.0
-1037.2042762416781 -141.8045796869878 -588.2166195225067 -68.97381762469537 0.0 0.0
-1098.177051664757 -165.28715341623092 -630.4945223687367 -67.37194154577439 0.0 0.0
-1156.8952853167698 -188.9326524814461 -671.7039799426711 -65.60398506814317 0.0 0.0
-1210.1729263450054 -210.34922637730807 -709.1085468850389 -63.536778382346405 0.0 0.0
-1247.728014414211 -218.7934837834957 -732.3111075227589 -61.83514158231036 0.0 0.0
-1241.6969480749215 -187.29043254544808 -713.9230122559384 -62.33578266752639 0.0 0.0
-1155.282059979098 -82.23858249412876 -618.584167430276 -66.05367374733041 0.0 0.0
-986.8423764729624 94.30689636000312 -446.362626161371 -71.94508155045042 0.0 0.0
-759.8938495779048 313.02715522089846 -223.590439645302 -80.42681839325724 0.0 0.0
-3660.539903608116 -2631.050391210094 -3136.6610628386547 -1.971756091734278e-13 0.0 0.0
-759.8938495778901 313.02715522087533 -223.59043964533987 80.42681839330693 0.0 0.0
-986.8423764713898 94.3068963615352 -446.3626261603174 71.94508155041198 0.0 0.0
-1155.282059979067 -82.23858249419827 -618.5841674302859 66.05367374734494 0.0 0.0
-1241.6969480730986 -187.29043254373602 -713.9230122546498 62.33578266762569 0.0 0.0
-1247.7280144149865 -218.79348378446403 -732.3111075232911 61.835141582474776 0.0 0.0
-1210.172926345087 -210.34922637756134 -709.1085468850904 63.53677838230733 0.0 0.0
-1156.8952853168341 -188.9326524817238 -671.7039799426873 65.60398506823101 0.0 0.0
-1098.1770516637848 -165.28715341551407 -630.4945223681771 67.3719415458507 0.0 0.0
-1037.2042762423018 -141.80457968789912 -588.2166195229735 68.97381762482216 0.0 0.0
-975.745495082335 -122.17970443715791 -547.648712732106 70.128782711384 0.0 0.0
-914.5134278004678 -107.14332118445907 -509.39226920845954 70.30624593082574 0.0 0.0
-850.3536049368641 -95.07844676425128 -470.41071258061004 69.07300902136635 0.0 0.0
-777.69450379837 -81.8229690722656 -422.17033331337296 67.34660884801113 0.0 0.0
-692.4697672219111 -64.93131219049825 -349.7241899717239 67.23560735741302 0.0 0.0
-580.3136997441028 -39.98765578221523 -242.2485465702733 68.38128826011739 0.0 0.0
-438.5123342564626 -6.725842180111171 -141.61502856663105 82.79779886805105 0.0 0.0
-292.22335153804954 2.413071332316791 -86.7819765269469 100.49115405932098 0.0 0.0
-174.8272332959703 -2.2391973362986723 -53.12014966738467 101.13742747581752 0.0 0.0
-85.47914940735308 -38.01136457583652 -37.047154194956875 72.13147691940311 0.0 0.0
-40.32804598818406 -41.82842576726283 -24.646941526634063 39.53057253633948 0.0 0.0
-37.58076512294789 -20.586588899409 -17.450206206707065 -25.691070030215737 0.0 0.0
-88.07715236550541 -26.594484664117854 -34.40149110888698 -48.84435776217908 0.0 0.0
-189.75724926410635 -1.059090413851035 -57.244901903387216 -70.99957243744166 0.0 0.0
-329.5499795974081 -3.580367003829764 -99.72787663103915 -69.0626280592623 0.0 0.0
-491.3751651815199 -21.71648104405729 -171.16501337731563 -51.884366985477186 0.0 0.0
-627.91061740375 -49.65367626917466 -280.66721363074424 -45.2036009064982 0.0 0.0
-726.1613977155462 -71.89375787422641 -379.3317779972532 -45.03920064995802 0.0 0.0
-813.297207228763 -90.96542969298986 -447.3441331423059 -45.89578781383088 0.0 0.0
-888.7003738757935 -108.23969782276124 -496.89205529451215 -47.473443727967535 0.0 0.0
-956.3985826613515 -123.89044855637742 -539.1119968843133 -48.71202062371737 0.0 0.0
-1021.2828462149624 -142.09109916125826 -580.7561337127503 -48.897257852676084 0.0 0.0
-1085.6992340134796 -164.5212995910501 -624.204830788365 -48.269387422820586 0.0 0.0
-1149.4503065863803 -189.53027355813046 -668.6191808579011 -47.35969084478736 0.0 0.0
-1209.1501482681033 -214.49354367634638 -710.9883748327444 -46.205100434634105 0.0 0.0
-1261.1875715109968 -234.1287794787333 -746.8754704158408 -44.545314875364966 0.0 0.0
-1298.7208046100225 -242.0764695311388 -769.7147625576914 -42.22619165615571 0.0 0.0
-1307.2116700373895 -224.57148374119913 -765.442309848507 -40.58614713753586 0.0 0.0
-1243.765295917052 -141.10703281519093 -692.4343481949516 -43.06718980041827 0.0 0.0
-1037.2261762366707 75.20444822970677 -481.38977163723985 -52.16376929394992 0.0 0.0
-734.7441541192385 370.79961713219404 -182.2657355731999 -66.9496551611767 0.0 0.0
-3817.500554805004 -2749.3899837544313 -3276.0180680428134 1.7401902141500614e-10 0.0 0.0
-734.7441541188917 370.79961713250896 -182.26573557286088 66.94965516138905 0.0 0.0
-1037.2261762375124 75.20444822881045 -481.3897716380496 52.163769293903556 0.0 0.0
-1243.765295916297 -141.10703281454184 -692.4343481943876 43.067189800557486 0.0 0.0
-1307.2116700372953 -224.57148374121263 -765.4423098485937 40.58614713757957 0.0 0.0
-1298.7208046094388 -242.0764695307 -769.7147625572476 42.22619165615216 0.0 0.0
-1261.1875715111412 -234.1287794791014 -746.8754704160153 44.5453148754719 0.0 0.0
-1209.1501482672634 -214.49354367570797 -710.9883748320673 46.20510043477805 0.0 0.0
-1149.4503065852546 -189.53027355720843 -668.619180857263 47.35969084476981 0.0 0.0
-1085.6992340133932 -164.5212995912546 -624.2048307883304 48.26938742296555 0.0 0.0
-1021.2828462140026 -142.09109916059458 -580.756133712125 48.89725785269208 0.0 0.0
-956.3985826597858 -123.89044855504105 -539.1119968833184 48.712020623707225 0.0 0.0
-888.7003738758594 -108.23969782317559 -496.8920552945383 47.47344372812267 0.0 0.0
-813.2972072281352 -90.96542969269441 -447.34413314186565 45.895787813758574 0.0 0.0
-726.1613977154364 -71.89375787443532 -379.3317779969887 45.03920064993681 0.0 0.0
-627.9106174025387 -49.653676268274936 -280.66721362983526 45.20360090653285 0.0 0.0
-491.37516518149926 -21.716481044759313 -171.1650133773687 51.88436698573572 0.0 0.0
-329.54997959707066 -3.5803670039591506 -99.72787663099245 69.06262805918533 0.0 0.0
-189.75724926381463 -1.0590904134653152 -57.24490190318398 70.99957243735139 0.0 0.0
-88.07715236539018 -26.594484664074024 -34.40149110883926 48.84435776232095 0.0 0.0
-37.58076512267797 -20.58658889926483 -17.450206206582834 25.69107003014136 0.0 0.0
-34.0558889434274 -11.549403798391625 -13.681587822545703 -14.429032652261565 0.0 0.0
-86.08554901056434 -17.33070246253091 -31.02487544192857 -24.478867525869283 0.0 0.0
-202.73306030150337 -1.1470236779302971 -61.16402519383007 -34.50291569323703 0.0 0.0
-368.5234808601119 -9.56877761017073 -114.01893739209984 -32.1532643631214 0.0 0.0
-541.7235601955974 -34.314229888673964 -202.45408565678017 -23.596131487998765 0.0 0.0
-662.7265326752035 -56.6578975172842 -313.5613914187435 -23.68616608083165 0.0 0.0
-755.9940634014218 -76.90357743530305 -402.7824957993733 -24.313446155891498 0.0 0.0
-844.1254057353856 -100.58345857975866 -469.19859818944883 -24.683428777297646 0.0 0.0
-922.9254015666352 -121.63889148140301 -521.1105790396613 -25.45867775934602 0.0 0.0
-994.5326315727717 -141.27140598324942 -567.1621587588784 -26.326970201574138 0.0 0.0
-1062.7641017401452 -162.345825525846 -611.9170930514925 -26.753826023403192 0.0 0.0
-1130.2235417535321 -186.67103990328442 -657.8336085021401 -26.735341520542594 0.0 0.0
-1196.2086810814258 -214.05730399051882 -704.5486543198344 -26.4004277847944 0.0 0.0
-1257.2220554111605 -239.2035559657815 -747.668853957596 -25.855493373809978 0.0 0.0
-1306.388488817168 -255.6315974964068 -780.5303052647587 -24.879805762621327 0.0 0.0
-1337.6981191456262 -257.40652446999815 -797.1465338784975 -23.040161919035395 0.0 0.0
-1349.2082989333069 -243.10008833998427 -795.7776646005943 -20.538173978950056 0.0 0.0
-1336.3207067794715 -209.39164209494783 -772.6155750787482 -20.141084538939445 0.0 0.0
-1207.8635373979869 -68.30459957113857 -638.4646506666891 -28.54503842007543 0.0 0.0
-706.0181341825182 430.3855538800561 -138.48638803739817 -50.82476254930517 0.0 0.0
-3756.1693178371524 -2651.6532300109548 -3198.2201828166876 1.369624413882775e-10 0.0 0.0
-706.0181341830262 430.38555387951465 -138.48638803740414 50.82476254947314 0.0 0.0
-1207.863537397927 -68.30459957116226 -638.4646506666827 28.54503842004847 0.0 0.0
-1336.320706780617 -209.39164209618454 -772.615575079611 20.14108453900807 0.0 0.0
-1349.2082989334572 -243.1000883402575 -795.7776646008862 20.53817397895753 0.0 0.0
-1337.6981191459963 -257.40652447051707 -797.1465338787478 23.04016191900053 0.0 0.0
-1306.3884888164423 -255.6315974958705 -780.5303052642729 24.879805762693614 0.0 0.0
-1257.2220554099158 -239.2035559646792 -747.6688539567206 25.855493373694856 0.0 0.0
-1196.2086810816118 -214.0573039909806 -704.5486543200086 26.400427784851 0.0 0.0
-1130.2235417528195 -186.6710399028068 -657.8336085017402 26.73534152058075 0.0 0.0
-1062.7641017401286 -162.3458255261238 -611.9170930514852 26.753826023533737 0.0 0.0
-994.5326315717316 -141.27140598242715 -567.1621587581919 26.326970201267898 0.0 0.0
-922.9254015655791 -121.63889148064591 -521.1105790389933 25.458677759417135 0.0 0.0
-844.1254057353135 -100.58345857997978 -469.1985981893677 24.683428777148233 0.0 0.0
-755.9940634013291 -76.90357743558675 -402.7824957991637 24.313446155702394 0.0 0.0
-662.7265326743776 -56.6578975167551 -313.56139141803635 23.686166080866794 0.0 0.0
-541.7235601950879 -34.3142298885946 -202.4540856564169 23.596131488075585 0.0 0.0
-368.52348085958636 -9.568777609865544 -114.01893739186283 32.15326436321752 0.0 0.0
-202.73306030114452 -1.1470236775548126 -61.1640251936098 34.50291569324389 0.0 0.0
-86.08554901051887 -17.33070246267707 -31.024875441958777 24.47886752596928 0.0 0.0
-34.05588894339407 -11.54940379833701 -13.681587822519324 14.429032652095 0.0 0.0
-22.59016417182181 -5.975071804888301 -8.569570793013032 -8.76946182351932 0.0 0.0
-75.372006205793 -9.940165156832505 -25.59365140878765 -10.177032464663268 0.0 0.0
-213.28056184163057 -3.649523518202667 -65.07902560794997 -11.281946007876257 0.0 0.0
-415.64553319904826 -29.76246283332467 -136.92506721610997 -7.0293579556991945 0.0 0.0
-616.1542750873527 -85.34589608815472 -256.50918346565936 0.8030552255608008 0.0 0.0
-764.7057482469827 -140.6804324664362 -400.4191564625262 1.4482488752148193 0.0 0.0
-899.0300907543283 -204.75820501889356 -528.9012128892653 0.3760523683141024 0.0 0.0
-1041.5226762714801 -284.2781058974639 -649.3599127306393 -1.1989407483991457 0.0 0.0
-1192.8712559508126 -378.60577545258013 -774.2554858276919 -2.998464729516755 0.0 0.0
-1362.0763453568823 -495.51647439649804 -917.5475337003712 -4.927258673239862 0.0 0.0
-1555.331754456919 -640.9372394448617 -1086.580219682911 -6.702691043794326 0.0 0.0
-1772.6606619039137 -815.1723331365909 -1281.9335209839808 -8.062725605485625 0.0 0.0
-2007.1429516714707 -1010.0285516627421 -1496.1912301377192 -8.963710421511887 0.0 0.0
-2247.1823679316776 -1213.7448973051523 -1717.7568766228037 -9.649973043387881 0.0 0.0
-2475.048401738365 -1408.5219798919888 -1928.8811623648382 -9.90541501913117 0.0 0.0
-2666.8336273460486 -1570.6941614702114 -2105.793407255192 -9.426295613725536 0.0 0.0
-2795.915433262864 -1674.2825587031805 -2222.1043499381967 -7.913555801585446 0.0 0.0
-2855.4114868628285 -1713.1602595499103 -2270.8425969556265 -6.779313513919526 0.0 0.0
-2932.662344043243 -1776.0838791134179 -2339.471715035723 -14.216669098161058 0.0 0.0
-3043.4630598149906 -1885.553157602727 -2447.355709306981 -40.82741703759209 0.0 0.0
-6627.917064120649 -5495.432750865943 -6038.061450071788 7.408118563034805e-11 0.0 0.0
-3043.463059815417 -1885.5531576032317 -2447.3557093066743 40.827417037768896 0.0 0.0
-2932.66234404049 -1776.083879110694 -2339.4717150334013 14.216669098115236 0.0 0.0
-2855.411486865241 -1713.1602595524455 -2270.8425969572686 6.779313513755646 0.0 0.0
-2795.915433260793 -1674.2825587012217 -2222.1043499365524 7.913555801566492 0.0 0.0
-2666.833627346263 -1570.694161470619 -2105.793407255018 9.426295613737096 0.0 0.0
-2475.0484017367244 -1408.521979890512 -1928.8811623633762 9.905415019151437 0.0 0.0
-2247.1823679296176 -1213.7448973032424 -1717.7568766211652 9.64997304310431 0.0 0.0
-2007.1429516709725 -1010.0285516625274 -1496.19123013708 8.96371042164105 0.0 0.0
-1772.66066190254 -815.1723331354278 -1281.9335209828755 8.062725605290808 0.0 0.0
-1555.3317544566705 -640.9372394449385 -1086.5802196824975 6.702691043890066 0.0 0.0
-1362.076345355039 -495.5164743949174 -917.5475336989643 4.927258673062784 0.0 0.0
-1192.8712559490477 -378.6057754510815 -774.2554858263775 2.998464729592097 0.0 0.0
-1041.522676271281 -284.27810589761157 -649.359912730364 1.1989407483764118 0.0 0.0
-899.0300907531321 -204.75820501799296 -528.901212888285 -0.3760523683738022 0.0 0.0
-764.7057482466203 -140.68043246644223 -400.4191564620437 -1.4482488752351728 0.0 0.0
-616.1542750860183 -85.3458960870201 -256.50918346470644 -0.8030552255654229 0.0 0.0
-415.64553319817054 -29.76246283253497 -136.92506721558868 7.029357955880066 0.0 0.0
-213.28056184130412 -3.6495235178960925 -65.07902560776004 11.281946007971037 0.0 0.0
-75.37200620602178 -9.940165157246753 -25.593651408980556 10.17703246462556 0.0 0.0
-22.590164171977754 -5.975071804867255 -8.5695707930535 8.76946182340662 0.0 0.0
SCALARS Strain float 6
LOOKUP_TABLE default
0.015499428171659115 -0.025540904170001898 0.0 -0.0016674213852331688 0.0 0.0
0.009538214064668914 -0.0030396893408187143 0.0 -0.007694432814262054 0.0 0.0
0.0027974231339873115 -0.0006376292469809173 0.0 -0.0009695319995789981 0.0 0.0
0.0023505213792312752 -0.00093223672693141 0.0 2.845774898125112e-05 0.0 0.0
0.0036116165592845976 -0.0016295091357809684 0.0 0.0002405097086326566 0.0 0.0
0.006381011100136332 -0.003758860494440375 0.0 0.0004239883456721295 0.0 0.0
0.01119654617794993 -0.007926349534603349 0.0 0.0005562200613887086 0.0 0.0
0.018484660569243114 -0.014536307946967413 0.0 0.0005972811987791688 0.0 0.0
0.02856934349929765 -0.023877510639309756 0.0 0.0005403903059115957 0.0 0.0
0.041555563934882266 -0.0359985966456579 0.0 0.0003483225878517493 0.0 0.0
0.05732396388359866 -0.050744609155007434 0.0 5.28017226190025e-05 0.0 0.0
0.07562086688723137 -0.06786157776626012 0.0 -0.00032848484790263047 0.0 0.0
0.09613722866377686 -0.08707923506860676 0.0 -0.0008033153834304587 0.0 0.0
0.11854020217809477 -0.10811217408836135 0.0 -0.001326913397713377 0.0 0.0
0.14239766553567396 -0.130588440133479 0.0 -0.00191753734856074 0.0 0.0
0.1670363745732115 -0.153904326716141 0.0 -0.0025387970097254763 0.0 0.0
0.191454862172733 -0.17713055102767294 0.0 -0.0030603133844700333 0.0 0.0
0.21433313033045936 -0.1990172368081684 0.0 -0.00328809892877338 0.0 0.0
0.23415915015571104 -0.21805597124147347 0.0 -0.0030914696436721303 0.0 0.0
0.24904248656825057 -0.23244492155442054 0.0 -0.003781125556787352 0.0 0.0
0.2549710354351259 -0.2384260930991195 0.0 4.5189546549195825e-15 0.0 0.0
0.24904248656821637 -0.23244492155439495 0.0 0.003781125556797469 0.0 0.0
0.2341591501556411 -0.21805597124140658 0.0 0.003091469643682919 0.0 0.0
0.2143331303303579 -0.19901723680807715 0.0 0.0032880989287781513 0.0 0.0
0.19145486217261254 -0.1771305510275717 0.0 0.0030603133844663444 0.0 0.0
0.16703637457308726 -0.15390432671602344 0.0 0.002538797009721344 0.0 0.0
0.14239766553554906 -0.13058844013337287 0.0 0.0019175373485600137 0.0 0.0
0.11854020217796873 -0.10811217408824236 0.0 0.0013269133977158298 0.0 0.0
0.09613722866365543 -0.08707923506849385 0.0 0.0008033153834265576 0.0 0.0
0.07562086688711994 -0.06786157776614882 0.0 0.00032848484789826417 0.0 0.0
0.05732396388350257 -0.050744609154923834 0.0 -5.280172262357155e-05 0.0 0.0
0.041555563934804446 -0.03599859664558437 0.0 -0.00034832258785611045 0.0 0.0
0.028569343499238446 -0.023877510639258488 0.0 -0.0005403903059110933 0.0 0.0
0.018484660569200846 -0.01453630794692598 0.0 -0.0005972811987794947 0.0 0.0
0.011196546177922647 -0.007926349534583415 0.0 -0.0005562200613846266 0.0 0.0
0.006381011100121629 -0.003758860494428022 0.0 -0.0004239883456748374 0.0 0.0
0.0036116165592785876 -0.001629509135775184 0.0 -0.00024050970862952135 0.0 0.0
0.00235052137922983 -0.0009322367269331139 0.0 -2.8457748982408804e-05 0.0 0.0
0.0027974231339848066 -0.0006376292469801972 0.0 0.0009695319995775772 0.0 0.0
0.009538214064662771 -0.0030396893408146768 0.0 0.007694432814253638 0.0 0.0
0.015499428171651165 -0.025540904169977216 0.0 0.0016674213851810326 0.0 0.0
0.010940917596727665 -0.022962414760157687 0.0 -0.0012025370197566267 0.0 0.0
0.006392680274770188 -0.002282822080972536 0.0 -0.006358423970112618 0.0 0.0
0.0018121291950077235 -0.00047496294950006906 0.0 -0.0006080102237034264 0.0 0.0
0.0020582830683095374 -0.0008743377984394951 0.0 -0.00018427258018336172 0.0 0.0
0.003087578234940454 -0.0014561790181530654 0.0 -0.00014558857738396005 0.0 0.0
0.005447134529010579 -0.0033666617304549526 0.0 -0.00025438996251572494 0.0 0.0
0.009734514563841981 -0.007253695337806671 0.0 -0.0006198869915766563 0.0 0.0
0.016347666492758164 -0.013518592972257205 0.0 -0.0012104582505308697 0.0 0.0
0.02554581706461472 -0.02241389407880938 0.0 -0.002047920798382308 0.0 0.0
0.03736102548974136 -0.03395098921929932 0.0 -0.003098640218493443 0.0 0.0
0.0516398546822628 -0.047957386757220756 0.0 -0.004261733371710295 0.0 0.0
0.06814758200962122 -0.06418577385436958 0.0 -0.0054529125004004675 0.0 0.0
0.08664273693945046 -0.08239542868444547 0.0 -0.0066670866425677655 0.0 0.0
0.10685372173683753 -0.10233573177448164 0.0 -0.007902563273771418 0.0 0.0
0.12840341217507079 -0.1236602064237185 0.0 -0.00911478871105328 0.0 0.0
0.15070908524145432 -0.14581195279299344 0.0 -0.010181761082466113 0.0 0.0
0.17289812593869225 -0.16793309171372772 0.0 -0.010830713035191076 0.0 0.0
0.19379656589043223 -0.18884560432871197 0.0 -0.01071766935443945 0.0 0.0
0.21187568933964968 -0.20705804313726 0.0 -0.00973247498532889 0.0 0.0
0.224845967740584 -0.2205583406426132 0.0 -0.00888438505763621 0.0 0.0
0.22969879108324065 -0.22621993345778169 0.0 1.1144730971412997e-14 0.0 0.0
0.22484596774055157 -0.22055834064258495 0.0 0.00888438505766153 0.0 0.0
0.2118756893395865 -0.20705804313720172 0.0 0.009732474985351649 0.0 0.0
0.1937965658903434 -0.18884560432862274 0.0 0.010717669354455058 0.0 0.0
0.17289812593858733 -0.16793309171362455 0.0 0.010830713035190648 0.0 0.0
0.150709085241343 -0.1458119527928819 0.0 0.010181761082462559 0.0 0.0
0.12840341217495765 -0.12366020642360553 0.0 0.009114788711049874 0.0 0.0
0.10685372173672406 -0.10233573177436665 0.0 0.007902563273770934 0.0 0.0
0.086642736939341 -0.08239542868433584 0.0 0.006667086642558925 0.0 0.0
0.06814758200952165 -0.06418577385426473 0.0 0.005452912500391585 0.0 0.0
0.05163985468217632 -0.04795738675713585 0.0 0.0042617333716995845 0.0 0.0
0.03736102548967086 -0.03395098921922878 0.0 0.003098640218484559 0.0 0.0
0.02554581706456107 -0.02241389407876185 0.0 0.002047920798377223 0.0 0.0
0.016347666492719883 -0.013518592972218165 0.0 0.0012104582505235053 0.0 0.0
0.009734514563817237 -0.007253695337784426 0.0 0.0006198869915747213 0.0 0.0
0.005447134528997227 -0.0033666617304439744 0.0 0.00025438996251341537 0.0 0.0
0.0030875782349354163 -0.0014561790181482613 0.0 0.00014558857738554353 0.0 0.0
0.002058283068308419 -0.0008743377984403539 0.0 0.00018427258018235298 0.0 0.0
0.0018121291950075101 -0.000474962949499938 0.0 0.0006080102237027474 0.0 0.0
0.00639268027476292 -0.002282822080968106 0.0 0.006358423970102334 0.0 0.0
0.010940917596713107 -0.022962414760131535 0.0 0.0012025370197149042 0.0 0.0
0.008074166432091617 -0.018407810402332563 0.0 -0.004384747324202224 0.0 0.0
0.004561773870111163 -0.0012835414336905494 0.0 -0.006505406825339817 0.0 0.0
0.001248874050569092 -0.00024058569035839315 0.0 -0.0005342661677705068 0.0 0.0
0.0017333296288334376 -0.0007338430876737352 0.0 -0.000478537575151589 0.0 0.0
0.0026129079317788223 -0.0011543251034520346 0.0 -0.0005040922254634152 0.0 0.0
0.004564219006304383 -0.0026269046230159186 0.0 -0.0007145806906201361 0.0 0.0
0.008291840186512255 -0.00593128714640048 0.0 -0.0014145285235929721 0.0 0.0
0.014191522692383943 -0.011487286417842812 0.0 -0.0025509069948114124 0.0 0.0
0.022453607834766406 -0.019465560409814637 0.0 -0.004140958657405968 0.0 0.0
0.03305995268527594 -0.029817709658701542 0.0 -0.0060821742949168376 0.0 0.0
0.04583223950057356 -0.04233593180192351 0.0 -0.008189560284972728 0.0 0.0
0.06054910106585651 -0.05678732513105458 0.0 -0.010301921386632206 0.0 0.0
0.07700964525771122 -0.07297819569690936 0.0 -0.012387525577203991 0.0 0.0
0.09500704490429338 -0.09072061084836432 0.0 -0.014491646077471077 0.0 0.0
0.1142371085724627 -0.10973310978196182 0.0 -0.01655860242889527 0.0 0.0
0.13421728250839773 -0.1295565937502679 0.0 -0.01835655713668165 0.0 0.0
0.1542192165326583 -0.1494780993227813 0.0 -0.019455564704925182 0.0 0.0
0.1731771867356161 -0.16845695876483716 0.0 -0.0193604120765379 0.0 0.0
0.18953145318116302 -0.18501547604905733 0.0 -0.017856988871359832 0.0 0.0
0.2012650851000116 -0.19706129289316143 0.0 -0.015089451648659234 0.0 0.0
0.2057050438656785 -0.20242913655052214 0.0 1.8661287792820502e-14 0.0 0.0
0.20126508509998192 -0.1970612928931389 0.0 0.015089451648700828 0.0 0.0
0.1895314531811069 -0.18501547604899607 0.0 0.017856988871400838 0.0 0.0
0.17317718673553803 -0.1684569587647599 0.0 0.019360412076567406 0.0 0.0
0.15421921653256587 -0.14947809932269124 0.0 0.01945556470492824 0.0 0.0
0.13421728250829845 -0.1295565937501691 0.0 0.018356557136674636 0.0 0.0
0.11423710857236113 -0.10973310978185717 0.0 0.016558602428889076 0.0 0.0
0.0950070449041929 -0.09072061084826405 0.0 0.014491646077463977 0.0 0.0
0.07700964525761518 -0.07297819569681134 0.0 0.012387525577191364 0.0 0.0
0.060549101065768024 -0.05678732513096403 0.0 0.010301921386617953 0.0 0.0
0.045832239500495996 -0.04233593180184451 0.0 0.008189560284956899 0.0 0.0
0.03305995268521292 -0.029817709658641327 0.0 0.006082174294902747 0.0 0.0
0.022453607834717768 -0.01946556040976975 0.0 0.004140958657394897 0.0 0.0
0.01419152269234926 -0.011487286417808327 0.0 0.00255090699480277 0.0 0.0
0.008291840186491239 -0.0059312871463809 0.0 0.0014145285235878098 0.0 0.0
0.004564219006294112 -0.002626904623006981 0.0 0.0007145806906174387 0.0 0.0
0.0026129079317748372 -0.0011543251034485443 0.0 0.0005040922254647324 0.0 0.0
0.0017333296288324928 -0.0007338430876726157 0.0 0.00047853757515190377 0.0 0.0
0.0012488740505695304 -0.00024058569035960534 0.0 0.0005342661677702478 0.0 0.0
0.004561773870104327 -0.0012835414336859153 0.0 0.006505406825325009 0.0 0.0
0.008074166432076818 -0.018407810402305352 0.0 0.004384747324175004 0.0 0.0
0.006136039104274488 -0.014872943759690803 0.0 -0.004828632270180191 0.0 0.0
0.0033866794549070388 -0.0009224277778825006 0.0 -0.005944631693579728 0.0 0.0
0.0008843277312417994 -0.00013260033851851378 0.0 -0.0008127454210707483 0.0 0.0
0.0014226400183990726 -0.0005767443785990123 0.0 -0.0007806960880532655 0.0 0.0
0.002182626923899918 -0.0009228892251982182 0.0 -0.0008395099563077761 0.0 0.0
0.0037515701808994856 -0.0019956867073478357 0.0 -0.001097167170823576 0.0 0.0
0.006893214197635696 -0.0046756820368851065 0.0 -0.0019510277636453294 0.0 0.0
0.012038557308031822 -0.009475612981011534 0.0 -0.003521765919372477 0.0 0.0
0.019327142894042238 -0.016495152413734327 0.0 -0.005677961561112629 0.0 0.0
0.028694344612642537 -0.02562946042787627 0.0 -0.008287012458596105 0.0 0.0
0.03994181069365221 -0.03664336005365347 0.0 -0.011094970772625026 0.0 0.0
0.05286024853817111 -0.0493128649280745 0.0 -0.013902992496158378 0.0 0.0
0.06728260044379356 -0.06348004189844868 0.0 -0.016669169926136037 0.0 0.0
0.0830494385763327 -0.07900886725487627 0.0 -0.019426032244202647 0.0 0.0
0.0999396553139857 -0.09569084993132784 0.0 -0.022115965194260734 0.0 0.0
0.11758829942523465 -0.11317606347433445 0.0 -0.024486964252805547 0.0 0.0
0.1353992693487543 -0.13089748799355455 0.0 -0.026044104862810086 0.0 0.0
0.15242331283220745 -0.14794836034203485 0.0 -0.0261844665131763 0.0 0.0
0.16725207315256183 -0.16293784766479033 0.0 -0.024297530558392223 0.0 0.0
0.17816226387255527 -0.17404938338804068 0.0 -0.01943786845412596 0.0 0.0
0.18241322913534577 -0.17959498633669693 0.0 2.4914965923716892e-14 0.0 0.0
0.17816226387252812 -0.17404938338801784 0.0 0.01943786845417929 0.0 0.0
0.16725207315251248 -0.16293784766472771 0.0 0.024297530558452643 0.0 0.0
0.15242331283213892 -0.14794836034197445 0.0 0.026184466513209312 0.0 0.0
0.13539926934867422 -0.13089748799348103 0.0 0.026044104862814076 0.0 0.0
0.11758829942514862 -0.1131760634742481 0.0 0.024486964252795035 0.0 0.0
0.09993965531389615 -0.09569084993123848 0.0 0.022115965194254045 0.0 0.0
0.0830494385762439 -0.07900886725479109 0.0 0.019426032244193404 0.0 0.0
0.06728260044370915 -0.06348004189836785 0.0 0.016669169926124328 0.0 0.0
0.052860248538094075 -0.04931286492799797 0.0 0.013902992496140364 0.0 0.0
0.03994181069358432 -0.036643360053588106 0.0 0.011094970772603319 0.0 0.0
0.028694344612586693 -0.025629460427822374 0.0 0.008287012458579096 0.0 0.0
0.01932714289399959 -0.016495152413694095 0.0 0.005677961561098445 0.0 0.0
0.01203855730800195 -0.00947561298097946 0.0 0.003521765919363996 0.0 0.0
0.00689321419761825 -0.004675682036871792 0.0 0.0019510277636383589 0.0 0.0
0.003751570180891578 -0.001995686707342328 0.0 0.0010971671708201276 0.0 0.0
0.0021826269238969993 -0.000922889225196534 0.0 0.000839509956306414 0.0 0.0
0.001422640018398564 -0.0005767443785984814 0.0 0.0007806960880534222 0.0 0.0
0.0008843277312418266 -0.00013260033852037728 0.0 0.000812745421068586 0.0 0.0
0.0033866794549001203 -0.0009224277778786071 0.0 0.0059446316935643905 0.0 0.0
0.006136039104260861 -0.014872943759666041 0.0 0.004828632270161626 0.0 0.0
0.0046790126091664445 -0.012019823025050828 0.0 -0.004280560355011196 0.0 0.0
0.0025468511632718597 -0.000726901260889064 0.0 -0.005297436158854188 0.0 0.0
0.0006403312788667932 -8.352815099001859e-05 0.0 -0.0012131850093198074 0.0 0.0
0.0011465138256311935 -0.00043745461803138853 0.0 -0.0011100308020021436 0.0 0.0
0.0017940622935296358 -0.0007376402501149348 0.0 -0.0011692672086230712 0.0 0.0
0.003023579580404204 -0.0014882459931181606 0.0 -0.0014218276325049983 0.0 0.0
0.005567333531220144 -0.0035352042446355455 0.0 -0.0023039621469845705 0.0 0.0
0.009915537408236367 -0.007513015973384942 0.0 -0.0040859719423749045 0.0 0.0
0.01620211216046318 -0.013539809752344034 0.0 -0.006649478592755216 0.0 0.0
0.024303491790591932 -0.021429258916931048 0.0 -0.009709157764827165 0.0 0.0
0.03401083146006457 -0.030923199693470786 0.0 -0.012986314628041423 0.0 0.0
0.045120353164127755 -0.04180244652229967 0.0 -0.016260265933315463 0.0 0.0
0.05749575524485648 -0.053940201830269874 0.0 -0.019490517469657 0.0 0.0
0.07103053290461987 -0.06724936851210654 0.0 -0.022701456821878623 0.0 0.0
0.08556799777526027 -0.08158905325150433 0.0 -0.02580757154926374 0.0 0.0
0.10084916048952293 -0.09670955936449416 0.0 -0.028559676667469804 0.0 0.0
0.11643019659457535 -0.11218789997286457 0.0 -0.030522796512397955 0.0 0.0
0.13153982527402128 -0.12729219895586874 0.0 -0.031019225162520092 0.0 0.0
0.14499935238312606 -0.14086042049896058 0.0 -0.02893184076137374 0.0 0.0
0.15534117664202057 -0.151354284743041 0.0 -0.022708909673517567 0.0 0.0
0.15953908643179737 -0.15729507646159877 0.0 2.889268685413171e-14 0.0 0.0
0.15534117664199618 -0.1513542847430074 0.0 0.022708909673582092 0.0 0.0
0.14499935238308195 -0.1408604204989165 0.0 0.02893184076143923 0.0 0.0
0.131539825273962 -0.12729219895581118 0.0 0.031019225162556903 0.0 0.0
0.11643019659450676 -0.11218789997280422 0.0 0.03052279651240826 0.0 0.0
0.1008491604894476 -0.0967095593644196 0.0 0.02855967666745874 0.0 0.0
0.0855679977751833 -0.08158905325142864 0.0 0.02580757154925338 0.0 0.0
0.07103053290454484 -0.06724936851203042 0.0 0.02270145682186766 0.0 0.0
0.05749575524478501 -0.05394020183020343 0.0 0.019490517469643115 0.0 0.0
0.045120353164062064 -0.041802446522232105 0.0 0.01626026593329309 0.0 0.0
0.034010831460006795 -0.030923199693419598 0.0 0.012986314628014431 0.0 0.0
0.02430349179054404 -0.021429258916882552 0.0 0.00970915776480557 0.0 0.0
0.016202112160426222 -0.013539809752310632 0.0 0.006649478592740411 0.0 0.0
0.009915537408211326 -0.007513015973362163 0.0 0.004085971942365182 0.0 0.0
0.0055673335312060425 -0.0035352042446226773 0.0 0.0023039621469771385 0.0 0.0
0.003023579580397892 -0.0014882459931150982 0.0 0.0014218276325030372 0.0 0.0
0.001794062293527458 -0.0007376402501128847 0.0 0.001169267208619462 0.0 0.0
0.001146513825630864 -0.00043745461803223356 0.0 0.0011100308020017128 0.0 0.0
0.0006403312788670678 -8.352815098997395e-05 0.0 0.00121318500931574 0.0 0.0
0.0025468511632667367 -0.0007269012608863827 0.0 0.005297436158842664 0.0 0.0
0.0046790126091557265 -0.012019823025029446 0.0 0.004280560354995721 0.0 0.0
0.00352813852827427 -0.00963305383662813 0.0 -0.003534785718509935 0.0 0.0
0.0019071114676297693 -0.0005900995533849682 0.0 -0.0046665522247312935 0.0 0.0
0.0004673248133824462 -6.969704124521159e-05 0.0 -0.0015987447793371426 0.0 0.0
0.0009007220410879833 -0.0003156102169712688 0.0 -0.0014402839383368055 0.0 0.0
0.0014438936794140787 -0.0005859010032495689 0.0 -0.0014980151013109584 0.0 0.0
0.00237875266928748 -0.0010936403564927558 0.0 -0.0017056429202228984 0.0 0.0
0.004349126677832161 -0.002552787563274365 0.0 -0.0025477278127713997 0.0 0.0
0.00786679661864132 -0.005660900113890261 0.0 -0.004308128414305606 0.0 0.0
0.013106035171824874 -0.010637150995039582 0.0 -0.007032167116310027 0.0 0.0
0.01992620244944721 -0.017259353620367773 0.0 -0.01034128865818547 0.0 0.0
0.02807895607365332 -0.025219061839654423 0.0 -0.013859563696134869 0.0 0.0
0.037372143043537295 -0.0343008023191924 0.0 -0.01737357152091617 0.0 0.0
0.04769548028546049 -0.04440384576491786 0.0 -0.020839947955666346 0.0 0.0
0.05898811072714033 -0.0554882431522408 0.0 -0.02428399223729618 0.0 0.0
0.0711648106331399 -0.06747813736859408 0.0 -0.027616413849826455 0.0 0.0
0.08405076672775393 -0.08020639346858482 0.0 -0.030581547908135373 0.0 0.0
0.0973385969705808 -0.09337662635257116 0.0 -0.032816098381007214 0.0 0.0
0.11050620013949113 -0.10648880140269384 0.0 -0.033680675685325186 0.0 0.0
0.1226768444182968 -0.11870865687344034 0.0 -0.03179031632851928 0.0 0.0
0.13261595903665604 -0.12877429739539425 0.0 -0.025075323798885933 0.0 0.0
0.13685525386589464 -0.13528216261937487 0.0 2.7536133095917847e-14 0.0 0.0
0.13261595903663453 -0.1287742973953667 0.0 0.025075323798955343 0.0 0.0
0.12267684441825949 -0.11870865687340024 0.0 0.03179031632858756 0.0 0.0
0.1105062001394416 -0.1064888014026384 0.0 0.0336806756853705 0.0 0.0
0.09733859697052254 -0.09337662635251767 0.0 0.03281609838101503 0.0 0.0
0.08405076672769021 -0.0802063934685251 0.0 0.030581547908122605 0.0 0.0
0.07116481063307535 -0.06747813736853658 0.0 0.027616413849812872 0.0 0.0
0.05898811072707784 -0.05548824315217694 0.0 0.024283992237281504 0.0 0.0
0.04769548028540125 -0.0444038457648623 0.0 0.02083994795565381 0.0 0.0
0.0373721430434827 -0.03430080231913582 0.0 0.017373571520890942 0.0 0.0
0.02807895607360489 -0.02521906183961129 0.0 0.013859563696107736 0.0 0.0
0.019926202449407307 -0.01725935362033018 0.0 0.010341288658160306 0.0 0.0
0.013106035171794704 -0.010637150995009621 0.0 0.0070321671162924 0.0 0.0
0.007866796618620957 -0.0056609001138735095 0.0 0.004308128414294447 0.0 0.0
0.004349126677821164 -0.002552787563264344 0.0 0.002547727812763636 0.0 0.0
0.0023787526692834082 -0.001093640356489206 0.0 0.0017056429202198355 0.0 0.0
0.0014438936794131441 -0.0005859010032483587 0.0 0.001498015101307532 0.0 0.0
0.0009007220410877554 -0.0003156102169713055 0.0 0.0014402839383360925 0.0 0.0
0.00046732481338194077 -6.969704124508445e-05 0.0 0.0015987447793352847 0.0 0.0
0.0019071114676252276 -0.0005900995533822326 0.0 0.0046665522247234855 0.0 0.0
0.00352813852826587 -0.009633053836610053 0.0 0.0035347857184998476 0.0 0.0
0.0026071688266129855 -0.0076114503346944255 0.0 -0.002847505520374335 0.0 0.0
0.0014054917842899022 -0.0004828009983110168 0.0 -0.004093941257229546 0.0 0.0
0.0003342721132056026 -7.00812963638383e-05 0.0 -0.001917464094399116 0.0 0.0
0.0006753364518662363 -0.00020776075426686075 0.0 -0.0017441904613148085 0.0 0.0
0.0011219604239638145 -0.0004501798461884417 0.0 -0.0018068850958784305 0.0 0.0
0.0018092650912970914 -0.0007943637922219735 0.0 -0.0019819352758187435 0.0 0.0
0.0032487952841187924 -0.001744935042398707 0.0 -0.002684803061061169 0.0 0.0
0.0059433928077759655 -0.0039912743290969905 0.0 -0.0042985373235889515 0.0 0.0
0.010094812087084416 -0.007852947536419911 0.0 -0.006874831140853221 0.0 0.0
0.015597993095193795 -0.013165875225882416 0.0 -0.01016084481440847 0.0 0.0
0.022187448475493032 -0.019576686559963724 0.0 -0.01369873098950923 0.0 0.0
0.029657167384920982 -0.02685466520369101 0.0 -0.017231874244443474 0.0 0.0
0.037924510570195254 -0.034921903266416386 0.0 -0.020705769575333443 0.0 0.0
0.04697243255234921 -0.043777213778682766 0.0 -0.02415609532094121 0.0 0.0
0.05677410576875638 -0.05340647682731936 0.0 -0.027506882680073563 0.0 0.0
0.06723330530117547 -0.0637197183138965 0.0 -0.03051859280489442 0.0 0.0
0.078170374890083 -0.07452055994384323 0.0 -0.032852065460092846 0.0 0.0
0.08931473113668245 -0.08554633862985257 0.0 -0.03404331471624544 0.0 0.0
0.10016707350671963 -0.09637567308004041 0.0 -0.03276292438743911 0.0 0.0
0.1097865842648621 -0.10609925299250957 0.0 -0.0265254046279665 0.0 0.0
0.1141375246749688 -0.11333325941193306 0.0 2.635652113225362e-14 0.0 0.0
0.1097865842648446 -0.10609925299248908 0.0 0.02652540462803863 0.0 0.0
0.10016707350668853 -0.0963756730800107 0.0 0.03276292438750999 0.0 0.0
0.08931473113664125 -0.08554633862979982 0.0 0.03404331471629125 0.0 0.0
0.07817037489003506 -0.0745205599437968 0.0 0.0328520654600951 0.0 0.0
0.0672333053011236 -0.06371971831384281 0.0 0.030518592804877898 0.0 0.0
0.05677410576870473 -0.05340647682727225 0.0 0.0275068826800602 0.0 0.0
0.04697243255230052 -0.043777213778634784 0.0 0.024156095320928484 0.0 0.0
0.037924510570148104 -0.03492190326637763 0.0 0.0207057695753184 0.0 0.0
0.02965716738487715 -0.026854665203648372 0.0 0.017231874244418743 0.0 0.0
0.022187448475454712 -0.01957668655992413 0.0 0.013698730989480948 0.0 0.0
0.015597993095161817 -0.013165875225851246 0.0 0.010160844814383764 0.0 0.0
0.010094812087060765 -0.007852947536398697 0.0 0.0068748311408367985 0.0 0.0
0.005943392807760415 -0.003991274329081371 0.0 0.004298537323578338 0.0 0.0
0.003248795284110519 -0.001744935042396912 0.0 0.0026848030610552753 0.0 0.0
0.0018092650912943182 -0.0007943637922175267 0.0 0.0019819352758171597 0.0 0.0
0.0011219604239631864 -0.00045017984618964146 0.0 0.0018068850958776026 0.0 0.0
0.0006753364518662491 -0.00020776075426785052 0.0 0.0017441904613126977 0.0 0.0
0.00033427211320546647 -7.00812963647416e-05 0.0 0.0019174640943982963 0.0 0.0
0.0014054917842858182 -0.0004828009983087538 0.0 0.004093941257223579 0.0 0.0
0.002607168826605292 -0.0076114503346798226 0.0 0.0028475055203685297 0.0 0.0
0.0018707769571560148 -0.005905211014158646 0.0 -0.0023055716282870567 0.0 0.0
0.0010064237023027442 -0.0003996802073614179 0.0 -0.003578520650153545 0.0 0.0
0.00022088080262540913 -6.872460364389672e-05 0.0 -0.002158543094673329 0.0 0.0
0.0004612518304788598 -0.00011109884399931828 0.0 -0.002003632901643157 0.0 0.0
0.0008143411013040655 -0.00031470664729752406 0.0 -0.002072693821710107 0.0 0.0
0.001306956252087632 -0.0005625950449168032 0.0 -0.0022581917572903165 0.0 0.0
0.002274267028037621 -0.001118090579102597 0.0 -0.0027677556317554164 0.0 0.0
0.004173357630063037 -0.002557568499528248 0.0 -0.00407823667784377 0.0 0.0
0.007231243745818688 -0.005278801791625379 0.0 -0.006285466363542382 0.0 0.0
0.011376481532431294 -0.00922273594105016 0.0 -0.009209038235325064 0.0 0.0
0.016373800705808243 -0.014051138664413819 0.0 -0.012486645730392642 0.0 0.0
0.022017453121240104 -0.01951823815222875 0.0 -0.01580145407834342 0.0 0.0
0.028230696810044816 -0.02555163997573725 0.0 -0.01906078127084644 0.0 0.0
0.03502643746437092 -0.03217576586726148 0.0 -0.022288865330955067 0.0 0.0
0.0424404088789726 -0.0394306995659457 0.0 -0.025450558352548107 0.0 0.0
0.05045351067716155 -0.04730674819073448 0.0 -0.028336665218297093 0.0 0.0
0.058976227584387586 -0.05569706783286021 0.0 -0.030600803058357044 0.0 0.0
0.06796382678084543 -0.06450555558291834 0.0 -0.03193779611346326 0.0 0.0
0.07735610653541683 -0.0737590607992097 0.0 -0.031568432316554325 0.0 0.0
0.08663458160772694 -0.08309367206595936 0.0 -0.02689385786367203 0.0 0.0
0.0911338378554263 -0.09121048386385659 0.0 2.474756510828513e-14 0.0 0.0
0.0866345816077143 -0.08309367206594241 0.0 0.026893857863737054 0.0 0.0
0.07735610653539303 -0.07375906079918909 0.0 0.031568432316625115 0.0 0.0
0.06796382678081242 -0.06450555558287746 0.0 0.03193779611350354 0.0 0.0
0.05897622758434948 -0.05569706783282893 0.0 0.03060080305835671 0.0 0.0
0.05045351067712235 -0.04730674819069579 0.0 0.02833666521828125 0.0 0.0
0.04244040887893398 -0.03943069956590671 0.0 0.025450558352535374 0.0 0.0
0.03502643746433485 -0.0321757658672286 0.0 0.02228886533094377 0.0 0.0
0.028230696810010378 -0.025551639975707918 0.0 0.019060781270833417 0.0 0.0
0.022017453121207804 -0.019518238152196547 0.0 0.01580145407832194 0.0 0.0
0.016373800705779644 -0.01405113866438986 0.0 0.0124866457303676 0.0 0.0
0.011376481532407584 -0.009222735941022698 0.0 0.009209038235301885 0.0 0.0
0.007231243745801799 -0.005278801791609214 0.0 0.006285466363528289 0.0 0.0
0.004173357630052722 -0.0025575684995190148 0.0 0.004078236677834104 0.0 0.0
0.002274267028032557 -0.0011180905791000168 0.0 0.0027677556317505965 0.0 0.0
0.0013069562520860276 -0.0005625950449162293 0.0 0.0022581917572879256 0.0 0.0
0.000814341101303226 -0.00031470664729687126 0.0 0.0020726938217078238 0.0 0.0
0.00046125183047849487 -0.00011109884400017816 0.0 0.0020036329016426915 0.0 0.0
0.00022088080262535763 -6.87246036433714e-05 0.0 0.002158543094670471 0.0 0.0
0.001006423702300108 -0.0003996802073606341 0.0 0.0035785206501475625 0.0 0.0
0.001870776957151047 -0.005905211014147063 0.0 0.0023055716282830287 0.0 0.0
0.0013042249905417928 -0.004501969505486102 0.0 -0.0019378576510701187 0.0 0.0
0.0006907704557133897 -0.0003423435260118035 0.0 -0.003119268363253667 0.0 0.0
0.00011045953733307363 -5.391741994627007e-05 0.0 -0.0023256120569208343 0.0 0.0
0.00025429168196072104 -2.3063843023729342e-05 0.0 -0.0022087502976389727 0.0 0.0
0.0005097246263571313 -0.0001744338696411504 0.0 -0.002280066211991984 0.0 0.0
0.000846757546226483 -0.0003604986910562064 0.0 -0.002509875443467881 0.0 0.0
0.0014266957615128092 -0.0006594644277190089 0.0 -0.002878603322198312 0.0 0.0
0.002586535997747761 -0.0014148186258990756 0.0 -0.0037275553868037353 0.0 0.0
0.004564084593400471 -0.003021141513800651 0.0 -0.005340195307332648 0.0 0.0
0.007331185520602839 -0.005547306133181748 0.0 -0.007594362747225487 0.0 0.0
0.010700374601031652 -0.008739308119274753 0.0 -0.010270126208000357 0.0 0.0
0.014497653697807918 -0.012372721164525093 0.0 -0.013076696121291274 0.0 0.0
0.018655228064878595 -0.01636823124455733 0.0 -0.015902474503928565 0.0 0.0
0.023199751650707454 -0.020763837629683264 0.0 -0.018708860078345945 0.0 0.0
0.028206997055354007 -0.025629320136094397 0.0 -0.021468563466272454 0.0 0.0
0.033747567305467525 -0.031035524050846613 0.0 -0.02407898684939013 0.0 0.0
0.039831366782326474 -0.03699179539661746 0.0 -0.026225383057399954 0.0 0.0
0.04651167754959146 -0.0434901327545576 0.0 -0.027517552648717906 0.0 0.0
0.05413834579588193 -0.05083592843837158 0.0 -0.02780745989530553 0.0 0.0
0.06289196373704399 -0.059480474608399905 0.0 -0.02571357118990399 0.0 0.0
0.06752553165904321 -0.06860906549779885 0.0 2.254793574074654e-14 0.0 0.0
0.06289196373703587 -0.05948047460839288 0.0 0.02571357118996353 0.0 0.0
0.05413834579586516 -0.050835928438350865 0.0 0.02780745989536758 0.0 0.0
0.046511677549567275 -0.04349013275452367 0.0 0.027517552648744913 0.0 0.0
0.039831366782299864 -0.03699179539658681 0.0 0.026225383057398917 0.0 0.0
0.03374756730544172 -0.03103552405081731 0.0 0.024078986849377305 0.0 0.0
0.028206997055329204 -0.025629320136068248 0.0 0.021468563466262146 0.0 0.0
0.023199751650685312 -0.020763837629660286 0.0 0.018708860078336796 0.0 0.0
0.018655228064857043 -0.016368231244534088 0.0 0.015902474503921325 0.0 0.0
0.0144976536977867 -0.012372721164507654 0.0 0.013076696121273683 0.0 0.0
0.010700374601013515 -0.008739308119263559 0.0 0.010270126207977915 0.0 0.0
0.007331185520587998 -0.005547306133167248 0.0 0.007594362747207919 0.0 0.0
0.004564084593389872 -0.003021141513789971 0.0 0.005340195307325669 0.0 0.0
0.0025865359977414104 -0.0014148186258949329 0.0 0.0037275553867978425 0.0 0.0
0.0014266957615098217 -0.000659464427712783 0.0 0.002878603322194442 0.0 0.0
0.0008467575462255957 -0.00036049869105913435 0.0 0.002509875443466001 0.0 0.0
0.0005097246263568452 -0.00017443386963786 0.0 0.0022800662119886964 0.0 0.0
0.00025429168196039904 -2.3063843021649673e-05 0.0 0.0022087502976388174 0.0 0.0
0.00011045953733265554 -5.3917419945265417e-05 0.0 0.0023256120569177577 0.0 0.0
0.0006907704557115783 -0.00034234352601213137 0.0 0.00311926836324863 0.0 0.0
0.0013042249905383812 -0.004501969505477094 0.0 0.0019378576510679726 0.0 0.0
0.0008927497987584114 -0.003381260617199105 0.0 -0.001699684172078741 0.0 0.0
0.0004464419946590469 -0.0003156544495012441 0.0 -0.0027397519966505446 0.0 0.0
-5.217112321138079e-06 -1.9568914594779427e-05 0.0 -0.0024271569307939703 0.0 0.0
5.177817923919168e-05 5.903035459901055e-05 0.0 -0.0023551484618762266 0.0 0.0
0.0002037810583726227 -3.243359814157365e-05 0.0 -0.002427499838818861 0.0 0.0
0.0004014723769876336 -0.0001589540370792035 0.0 -0.0026866498597601742 0.0 0.0
0.0006839708593963973 -0.00030686776291150063 0.0 -0.0030268371805484947 0.0 0.0
0.0012039147893310978 -0.0005960708868970159 0.0 -0.0034677100539516866 0.0 0.0
0.002143553956178755 -0.0012478650700506943 0.0 -0.004261450996275602 0.0 0.0
0.0035271487755162358 -0.0023731063072398692 0.0 -0.005580491630835367 0.0 0.0
0.005236329629364048 -0.0038696504752438127 0.0 -0.007394123475336677 0.0 0.0
0.007154062365407851 -0.005620156844045251 0.0 -0.009513728329432505 0.0 0.0
0.009237587506920232 -0.0075604598922992365 0.0 -0.011775795012290629 0.0 0.0
0.011528111150227859 -0.009720910097629442 0.0 -0.014110892611031853 0.0 0.0
0.014113306595326267 -0.01217905997789915 0.0 -0.016499145005421205 0.0 0.0
0.01713258449058634 -0.01506485645801139 0.0 -0.018892042452111776 0.0 0.0
0.020747623769915385 -0.018539247607833105 0.0 -0.02106073267424458 0.0 0.0
0.02509048076273875 -0.02273804814008826 0.0 -0.022457753640077596 0.0 0.0
0.03056872587631347 -0.027917985197293972 0.0 -0.022696394746896855 0.0 0.0
0.03825258077557254 -0.035107270243204765 0.0 -0.022502216491329392 0.0 0.0
0.04282507724284184 -0.045112193552816336 0.0 1.656487447210253e-14 0.0 0.0
0.038252580775569124 -0.035107270243197174 0.0 0.022502216491378575 0.0 0.0
0.030568725876304208 -0.027917985197284084 0.0 0.02269639474694638 0.0 0.0
0.025090480762724278 -0.022738048140072926 0.0 0.02245775364009949 0.0 0.0
0.02074762376990131 -0.018539247607810654 0.0 0.021060732674238802 0.0 0.0
0.01713258449057422 -0.01506485645798904 0.0 0.01889204245209871 0.0 0.0
0.014113306595315565 -0.012179059977889109 0.0 0.016499145005409332 0.0 0.0
0.011528111150219393 -0.009720910097618645 0.0 0.014110892611023381 0.0 0.0
0.009237587506911431 -0.007560459892283579 0.0 0.011775795012280918 0.0 0.0
0.007154062365398256 -0.005620156844039282 0.0 0.0095137283294193 0.0 0.0
0.00523632962935594 -0.0038696504752392755 0.0 0.007394123475322272 0.0 0.0
0.003527148775510196 -0.002373106307234822 0.0 0.005580491630823401 0.0 0.0
0.0021435539561743947 -0.0012478650700461502 0.0 0.004261450996272428 0.0 0.0
0.0012039147893281282 -0.0005960708868950612 0.0 0.00346771005394861 0.0 0.0
0.0006839708593953845 -0.0003068677629069617 0.0 0.003026837180546196 0.0 0.0
0.0004014723769873001 -0.0001589540370815735 0.0 0.002686649859758323 0.0 0.0
0.0002037810583722662 -3.243359813950737e-05 0.0 0.0024274998388173637 0.0 0.0
5.1778179239065435e-05 5.903035460059606e-05 0.0 0.00235514846187341 0.0 0.0
-5.217112321296811e-06 -1.956891459393715e-05 0.0 0.0024271569307914506 0.0 0.0
0.0004464419946580343 -0.00031565444950294025 0.0 0.0027397519966465625 0.0 0.0
0.0008927497987564912 -0.003381260617192502 0.0 0.001699684172076855 0.0 0.0
0.0006016217372935717 -0.002522434811177961 0.0 -0.0015593587951774944 0.0 0.0
0.000257422071302115 -0.00031146113987848316 0.0 -0.0024638641604329075 0.0 0.0
-0.00012538855852129246 2.9800711948744566e-05 0.0 -0.0024713453894033674 0.0 0.0
-0.00014725647500332255 0.00013804314718004972 0.0 -0.0024396194167853294 0.0 0.0
-9.896467503537154e-05 0.0001074959217788222 0.0 -0.002510158496706291 0.0 0.0
-4.701356384002379e-05 4.799612141161524e-05 0.0 -0.002761499705753222 0.0 0.0
-1.8367171501991965e-05 1.2682231810520288e-05 0.0 -0.003116072992595453 0.0 0.0
-7.161109987839604e-06 4.341781688938037e-06 0.0 -0.003402872352931138 0.0 0.0
-2.3573101719684907e-06 1.286940093964291e-06 0.0 -0.0037220125858809863 0.0 0.0
-1.8736178617351912e-07 4.969326329647291e-08 0.0 -0.004500500789882564 0.0 0.0
-2.4822048366289354e-06 1.3047668364457284e-06 0.0 -0.005837271913127404 0.0 0.0
-1.5887648817579e-05 1.467863846910686e-05 0.0 -0.007617957440333525 0.0 0.0
-3.9482337293791176e-05 3.881026274023475e-05 0.0 -0.009600556578562644 0.0 0.0
-3.8786856541312776e-05 4.78614766570855e-05 0.0 -0.011720948297595212 0.0 0.0
8.788750157828198e-05 -4.6402053606057494e-05 0.0 -0.013983472042148228 0.0 0.0
0.0005454262116643522 -0.00042875455550360746 0.0 -0.016359126285652073 0.0 0.0
0.0016563172126969304 -0.0013934827533579803 0.0 -0.018741391676947716 0.0 0.0
0.0037625990807719236 -0.0032885439333744416 0.0 -0.02087123509125086 0.0 0.0
0.007083080560887998 -0.006207950005375494 0.0 -0.02244824936196795 0.0 0.0
0.012779937450943324 -0.010928845382546739 0.0 -0.023844140979370543 0.0 0.0
0.016496075824513748 -0.021490216885094785 0.0 1.38595732113167e-14 0.0 0.0
0.012779937450943045 -0.010928845382532916 0.0 0.023844140979400547 0.0 0.0
0.007083080560884979 -0.006207950005370727 0.0 0.022448249361986923 0.0 0.0
0.0037625990807687816 -0.0032885439333824595 0.0 0.020871235091254638 0.0 0.0
0.001656317212697486 -0.0013934827533550985 0.0 0.018741391676933762 0.0 0.0
0.0005454262116667592 -0.0004287545555097275 0.0 0.016359126285638566 0.0 0.0
8.788750158099682e-05 -4.640205360790953e-05 0.0 0.013983472042134602 0.0 0.0
-3.878685653633217e-05 4.786147664869508e-05 0.0 0.011720948297584959 0.0 0.0
-3.948233728899857e-05 3.881026274220144e-05 0.0 0.00960055657854938 0.0 0.0
-1.5887648814138177e-05 1.4678638474166451e-05 0.0 0.007617957440319853 0.0 0.0
-2.4822048338878555e-06 1.3047668293661322e-06 0.0 0.005837271913116383 0.0 0.0
-1.873617841672572e-07 4.969326204562886e-08 0.0 0.004500500789875614 0.0 0.0
-2.3573101708662366e-06 1.2869400966564735e-06 0.0 0.00372201258588027 0.0 0.0
-7.1611099875167696e-06 4.341781687946791e-06 0.0 0.003402872352929037 0.0 0.0
-1.83671715015807e-05 1.2682231811330143e-05 0.0 0.0031160729925933986 0.0 0.0
-4.701356383942533e-05 4.79961214108272e-05 0.0 0.002761499705750023 0.0 0.0
-9.896467503489424e-05 0.00010749592177677482 0.0 0.0025101584967041593 0.0 0.0
-0.0001472564750030206 0.0001380431471797166 0.0 0.002439619416783415 0.0 0.0
-0.00012538855852143124 2.9800711950032378e-05 0.0 0.002471345389402013 0.0 0.0
0.0002574220713014703 -0.00031146113987945006 0.0 0.002463864160429631 0.0 0.0
0.0006016217372928275 -0.0025224348111741964 0.0 0.0015593587951783815 0.0 0.0
0.00039936539292423763 -0.0018984437183539068 0.0 -0.0014906165170981522 0.0 0.0
0.0001151852106272461 -0.0003060352135795742 0.0 -0.00226790544070109 0.0 0.0
-0.00024197358362521227 8.235994065032574e-05 0.0 -0.002463525081093369 0.0 0.0
-0.0003417433853220179 0.00021555926281209429 0.0 -0.0024595699960245293 0.0 0.0
-0.0003956196777677912 0.00024256691908344086 0.0 -0.0025180117397806353 0.0 0.0
-0.0004921600658997458 0.00025416297985124387 0.0 -0.0027372788406578876 0.0 0.0
-0.0007205882888068379 0.00033369561513546715 0.0 -0.003061830131425264 0.0 0.0
-0.0012178700427810324 0.0006058966043810711 0.0 -0.003491760329546046 0.0 0.0
-0.0021467918464658387 0.0012498426697170647 0.0 -0.00427108155741656 0.0 0.0
-0.0035266401432654006 0.0023724684203170698 0.0 -0.0055804464509113345 0.0 0.0
-0.005243108265435768 0.003874439955531663 0.0 -0.007393395488308693 0.0 0.0
-0.007188706063002554 0.0056514289171478065 0.0 -0.009519270881170692 0.0 0.0
-0.009315241604471688 0.007637976068220677 0.0 -0.011771465247108827 0.0 0.0
-0.011596722220050452 0.009811961618313996 0.0 -0.01408778854545135 0.0 0.0
-0.013921959271052543 0.012073512198871069 0.0 -0.016493246163420718 0.0 0.0
-0.016043038874300804 0.014185756046223966 0.0 -0.019047004822559284 0.0 0.0
-0.017560706423653857 0.015755532837495752 0.0 -0.021782848182103583 0.0 0.0
-0.01802055856583195 0.016290985936097086 0.0 -0.024824384492331812 0.0 0.0
-0.016924409696644695 0.015478414644706284 0.0 -0.0281176202340516 0.0 0.0
-0.012242299071364045 0.01207783354528031 0.0 -0.0297943021770228 0.0 0.0
-0.0085676745194577 0.0007980594917270569 0.0 1.6057467855379315e-14 0.0 0.0
-0.012242299071364177 0.012077833545283786 0.0 0.029794302177052576 0.0 0.0
-0.016924409696638974 0.015478414644707273 0.0 0.028117620234075415 0.0 0.0
-0.018020558565819064 0.016290985936071624 0.0 0.02482438449233542 0.0 0.0
-0.017560706423636455 0.01575553283748123 0.0 0.021782848182089348 0.0 0.0
-0.016043038874283152 0.014185756046206054 0.0 0.019047004822540563 0.0 0.0
-0.013921959271035966 0.012073512198855347 0.0 0.016493246163405237 0.0 0.0
-0.011596722220032387 0.009811961618299026 0.0 0.014087788545441404 0.0 0.0
-0.009315241604453397 0.007637976068202362 0.0 0.011771465247093306 0.0 0.0
-0.0071887060629855955 0.005651428917136997 0.0 0.009519270881152097 0.0 0.0
-0.005243108265421511 0.0038744399555147614 0.0 0.007393395488290974 0.0 0.0
-0.0035266401432543703 0.0023724684203047922 0.0 0.005580446450899532 0.0 0.0
-0.0021467918464590256 0.0012498426697145684 0.0 0.004271081557410868 0.0 0.0
-0.0012178700427773715 0.0006058966043811364 0.0 0.003491760329543225 0.0 0.0
-0.000720588288804984 0.0003336956151352153 0.0 0.0030618301314211845 0.0 0.0
-0.00049216006589891 0.0002541629798489691 0.0 0.0027372788406554186 0.0 0.0
-0.0003956196777670959 0.0002425669190815317 0.0 0.0025180117397770817 0.0 0.0
-0.0003417433853218064 0.00021555926281029074 0.0 0.002459569996023448 0.0 0.0
-0.00024197358362535376 8.235994065139699e-05 0.0 0.002463525081092842 0.0 0.0
0.00011518521062707258 -0.0003060352135798627 0.0 0.0022679054406987234 0.0 0.0
0.0003993653929241096 -0.0018984437183518345 0.0 0.0014906165170979705 0.0 0.0
0.0002641219119648235 -0.001430664433162145 0.0 -0.0014061637692338077 0.0 0.0
1.0992426542221207e-05 -0.0002849108391319889 0.0 -0.0020964968244068616 0.0 0.0
-0.00035064490731916126 0.0001304807630700173 0.0 -0.0024050892622319445 0.0 0.0
-0.0005286186125806132 0.0002906749073245478 0.0 -0.0024142429247685946 0.0 0.0
-0.0006834240318776844 0.00037047565629588775 0.0 -0.002448671525289931 0.0 0.0
-0.0009298044792632376 0.00045409955688873393 0.0 -0.0026133832839107802 0.0 0.0
-0.0014619990780820144 0.000690913389147593 0.0 -0.002948902900821639 0.0 0.0
-0.002596977760995426 0.0014237959325625086 0.0 -0.003763378578464379 0.0 0.0
-0.004563488669768012 0.0030200196299669415 0.0 -0.005347805923822006 0.0 0.0
-0.007330153171735866 0.005546371400064373 0.0 -0.007592605187280735 0.0 0.0
-0.010709078922943718 0.008747734402542057 0.0 -0.01027136597656237 0.0 0.0
-0.01452968816921546 0.012403487938427438 0.0 -0.01306877220607036 0.0 0.0
-0.018719361221870658 0.01643427348385941 0.0 -0.015843269795996484 0.0 0.0
-0.023245070665188376 0.020831472380150394 0.0 -0.018577650390076726 0.0 0.0
-0.027996871887241363 0.025500093977479182 0.0 -0.021385452316040054 0.0 0.0
-0.03268977013549658 0.030171101990757343 0.0 -0.02447784767973428 0.0 0.0
-0.03685493781786741 0.03436626950538025 0.0 -0.028073608319462044 0.0 0.0
-0.03986247487841715 0.03744679734185936 0.0 -0.03226945775602575 0.0 0.0
-0.040549310905735395 0.03843232415470213 0.0 -0.036274601112466116 0.0 0.0
-0.03645430130394173 0.03503001694024152 0.0 -0.03738985500916528 0.0 0.0
-0.032797620527138346 0.02185058380976895 0.0 2.2126397936084174e-14 0.0 0.0
-0.03645430130393847 0.03503001694022868 0.0 0.03738985500921564 0.0 0.0
-0.040549310905722814 0.03843232415469114 0.0 0.036274601112516465 0.0 0.0
-0.03986247487839372 0.037446797341822595 0.0 0.0322694577560434 0.0 0.0
-0.03685493781783713 0.03436626950534779 0.0 0.028073608319452784 0.0 0.0
-0.03268977013546482 0.030171101990733716 0.0 0.02447784767971381 0.0 0.0
-0.027996871887210235 0.025500093977449945 0.0 0.021385452316022565 0.0 0.0
-0.023245070665158026 0.020831472380125535 0.0 0.01857765039006262 0.0 0.0
-0.018719361221840074 0.01643427348382921 0.0 0.015843269795977395 0.0 0.0
-0.01452968816918582 0.012403487938397338 0.0 0.013068772206044993 0.0 0.0
-0.010709078922918508 0.008747734402515275 0.0 0.010271365976536382 0.0 0.0
-0.0073301531717162305 0.00554637140004433 0.0 0.007592605187262919 0.0 0.0
-0.004563488669754906 0.00302001962995416 0.0 0.005347805923810666 0.0 0.0
-0.002596977760988173 0.0014237959325622061 0.0 0.0037633785784578645 0.0 0.0
-0.001461999078078219 0.0006909133891462988 0.0 0.0029489029008138443 0.0 0.0
-0.0009298044792615391 0.000454099556889178 0.0 0.0026133832839085424 0.0 0.0
-0.000683424031876953 0.00037047565629515927 0.0 0.0024486715252883505 0.0 0.0
-0.0005286186125800186 0.0002906749073238613 0.0 0.002414242924767468 0.0 0.0
-0.00035064490731914364 0.00013048076306960168 0.0 0.00240508926223004 0.0 0.0
1.0992426541761586e-05 -0.00028491083913236085 0.0 0.002096496824405171 0.0 0.0
0.0002641219119641594 -0.0014306644331603994 0.0 0.0014061637692322339 0.0 0.0
0.00016356881094896063 -0.0010475392126309967 0.0 -0.0012625651906935937 0.0 0.0
-7.1354889775124e-05 -0.0002479779583840404 0.0 -0.0019168272271807966 0.0 0.0
-0.00045044047339562313 0.0001737272205576022 0.0 -0.0022946911127645422 0.0 0.0
-0.0007062703163626907 0.0003612610785809158 0.0 -0.0023079441282107963 0.0 0.0
-0.0009600180388027344 0.0004890143076322792 0.0 -0.002308075594081622 0.0 0.0
-0.0013789423479152396 0.0006548892214593598 0.0 -0.002409428325649223 0.0 0.0
-0.0023038667462624007 0.0011519388841054144 0.0 -0.0028594299815328933 0.0 0.0
-0.004176323119284335 0.0025588935072341514 0.0 -0.004106699325728586 0.0 0.0
-0.007226815331527792 0.005274001971352074 0.0 -0.006284929218580664 0.0 0.0
-0.011377028535976589 0.009223795459005271 0.0 -0.009207289242336268 0.0 0.0
-0.016383407428999866 0.014061920549544457 0.0 -0.012488669188315172 0.0 0.0
-0.02203872754268339 0.019540537571441405 0.0 -0.015777888412534614 0.0 0.0
-0.0282615425486719 0.02558493839503792 0.0 -0.018939658349799764 0.0 0.0
-0.03502470121236453 0.032190706260115685 0.0 -0.02201931486149585 0.0 0.0
-0.042225635244579764 0.039280204903046886 0.0 -0.025229849494233958 0.0 0.0
-0.049559436047715746 0.0465712165131894 0.0 -0.028961637080208345 0.0 0.0
-0.05644146575793288 0.05348664028078853 0.0 -0.033653011634792125 0.0 0.0
-0.061860232778856106 0.05906710583848078 0.0 -0.03917238764288447 0.0 0.0
-0.06405421580084569 0.0616225273818926 0.0 -0.04401647286436393 0.0 0.0
-0.059543913005099564 0.05807789202033613 0.0 -0.04535698993882134 0.0 0.0
-0.055022613660977146 0.04204198669644987 0.0 2.3755303280026396e-14 0.0 0.0
-0.05954391300509196 0.05807789202032547 0.0 0.04535698993888072 0.0 0.0
-0.0640542158008259 0.061622527381867714 0.0 0.044016472864424824 0.0 0.0
-0.061860232778823326 0.059067105838452205 0.0 0.03917238764291557 0.0 0.0
-0.05644146575789044 0.053486640280744645 0.0 0.03365301163478887 0.0 0.0
-0.04955943604767068 0.04657121651314456 0.0 0.02896163708018687 0.0 0.0
-0.04222563524453478 0.039280204903003976 0.0 0.02522984949421325 0.0 0.0
-0.035024701212320535 0.03219070626006727 0.0 0.02201931486147608 0.0 0.0
-0.02826154254862913 0.025584938394995003 0.0 0.01893965834978196 0.0 0.0
-0.022038727542642484 0.019540537571407283 0.0 0.0157778884125079 0.0 0.0
-0.016383407428964037 0.014061920549507712 0.0 0.012488669188285338 0.0 0.0
-0.011377028535947842 0.009223795458972603 0.0 0.009207289242313824 0.0 0.0
-0.007226815331508313 0.005274001971332837 0.0 0.006284929218566696 0.0 0.0
-0.004176323119272484 0.002558893507226011 0.0 0.004106699325719861 0.0 0.0
-0.002303866746256003 0.0011519388841002634 0.0 0.002859429981526971 0.0 0.0
-0.0013789423479128016 0.0006548892214628804 0.0 0.0024094283256464056 0.0 0.0
-0.0009600180388015952 0.000489014307632295 0.0 0.002308075594079933 0.0 0.0
-0.0007062703163620105 0.0003612610785824176 0.0 0.002307944128209894 0.0 0.0
-0.0004504404733953368 0.00017372722055661373 0.0 0.0022946911127626796 0.0 0.0
-7.135488977517141e-05 -0.00024797795838429356 0.0 0.0019168272271789456 0.0 0.0
0.0001635688109485591 -0.0010475392126295768 0.0 0.0012625651906938145 0.0 0.0
7.943077917164313e-05 -0.0007273389236107514 0.0 -0.0010861313922755646 0.0 0.0
-0.00014299646763673413 -0.0001973747347729925 0.0 -0.001712770158832542 0.0 0.0
-0.0005431924486059093 0.00021402608918952374 0.0 -0.0021321374809157062 0.0 0.0
-0.0008739451372601291 0.0004257092392338647 0.0 -0.002143587045815252 0.0 0.0
-0.0012288549043979703 0.0005964307733625267 0.0 -0.0020947753671540273 0.0 0.0
-0.0018648713765197387 0.000880521301314232 0.0 -0.002158588054213073 0.0 0.0
-0.003266870144207675 0.0017707976946689926 0.0 -0.002766026080107657 0.0 0.0
-0.005937911308006218 0.00398302502830225 0.0 -0.004311816487651343 0.0 0.0
-0.010090009011409742 0.007847731655342426 0.0 -0.006869488673111087 0.0 0.0
-0.015601384308324761 0.01317027338964833 0.0 -0.01016030791184697 0.0 0.0
-0.022196045845331823 0.019588134197127918 0.0 -0.013699237778884536 0.0 0.0
-0.02965989778424457 0.02686194836860097 0.0 -0.017193035200254097 0.0 0.0
-0.03790367239088589 0.03490558041693723 0.0 -0.02053661483522976 0.0 0.0
-0.04690043485392135 0.043713090123396026 0.0 -0.023781199301847567 0.0 0.0
-0.056564929951104695 0.05323191409974101 0.0 -0.027163072561326287 0.0 0.0
-0.06657936062190664 0.06318563766607478 0.0 -0.031215183535464305 0.0 0.0
-0.07617452801674689 0.07284837118577395 0.0 -0.03646690695067322 0.0 0.0
-0.08388894139746746 0.08081422846741913 0.0 -0.04269076359590132 0.0 0.0
-0.08719488633802906 0.08467036400207482 0.0 -0.04822447167209269 0.0 0.0
-0.08186487567634743 0.08041428919164982 0.0 -0.050030172213651206 0.0 0.0
-0.07638269054100004 0.061620008626279504 0.0 2.49592013723543e-14 0.0 0.0
-0.08186487567633513 0.08041428919164548 0.0 0.050030172213711255 0.0 0.0
-0.08719488633800164 0.08467036400204783 0.0 0.04822447167215451 0.0 0.0
-0.08388894139742611 0.08081422846738319 0.0 0.0426907635959357 0.0 0.0
-0.07617452801669466 0.07284837118571696 0.0 0.03646690695067364 0.0 0.0
-0.06657936062184941 0.0631856376660164 0.0 0.031215183535447298 0.0 0.0
-0.05656492995104674 0.0532319140996816 0.0 0.027163072561304277 0.0 0.0
-0.046900434853864026 0.04371309012334004 0.0 0.02378119930182463 0.0 0.0
-0.03790367239083032 0.03490558041687876 0.0 0.020536614835211103 0.0 0.0
-0.029659897784192528 0.026861948368554007 0.0 0.017193035200227455 0.0 0.0
-0.022196045845285797 0.019588134197083242 0.0 0.013699237778853603 0.0 0.0
-0.015601384308287485 0.013170273389610633 0.0 0.010160307911820729 0.0 0.0
-0.010090009011383285 0.007847731655320916 0.0 0.006869488673094023 0.0 0.0
-0.005937911307989521 0.003983025028285564 0.0 0.004311816487639794 0.0 0.0
-0.0032668701441986837 0.0017707976946603138 0.0 0.0027660260801021163 0.0 0.0
-0.0018648713765159891 0.0008805213013131871 0.0 0.002158588054212054 0.0 0.0
-0.0012288549043964671 0.0005964307733628598 0.0 0.0020947753671539905 0.0 0.0
-0.0008739451372593241 0.0004257092392347746 0.0 0.002143587045812903 0.0 0.0
-0.0005431924486053102 0.00021402608918894006 0.0 0.002132137480915273 0.0 0.0
-0.00014299646763634636 -0.00019737473477364145 0.0 0.001712770158830511 0.0 0.0
7.943077917171423e-05 -0.0007273389236100255 0.0 0.0010861313922752548 0.0 0.0
6.8513826950977296e-06 -0.0004654543097569679 0.0 -0.0008979686073971218 0.0 0.0
-0.00020779742211780828 -0.00013673638288045958 0.0 -0.0014801462429820888 0.0 0.0
-0.0006305513506891375 0.0002532880534279655 0.0 -0.0019149795954682626 0.0 0.0
-0.001030835472317447 0.0004828989898844636 0.0 -0.0019215947108233993 0.0 0.0
-0.0015001089052387563 0.0006980551031077377 0.0 -0.0018179265667952146 0.0 0.0
-0.0024091279732177807 0.0011626456907174354 0.0 -0.0018804930294945362 0.0 0.0
-0.004354149645362887 0.0025632824184937866 0.0 -0.002602511705931046 0.0 0.0
-0.00785847219241328 0.005648817292237658 0.0 -0.0043098502282279336 0.0 0.0
-0.01310327098861943 0.01063446290218489 0.0 -0.007025685968945546 0.0 0.0
-0.019932204201987748 0.017266922183965965 0.0 -0.010342108691373374 0.0 0.0
-0.028083790364174542 0.025228437697416853 0.0 -0.013856094491913573 0.0 0.0
-0.03735095649260666 0.03428805711691937 0.0 -0.017320450329675878 0.0 0.0
-0.04761343051367613 0.044329959642795076 0.0 -0.02064847982100489 0.0 0.0
-0.058831895353967045 0.05533151926124201 0.0 -0.023881304483622114 0.0 0.0
-0.07094470600845496 0.0672609186585297 0.0 -0.02720908545978662 0.0 0.0
-0.08361196400962591 0.07984997120585573 0.0 -0.031111775159438047 0.0 0.0
-0.09586380832095807 0.092213785390723 0.0 -0.036223095198419 0.0 0.0
-0.10574623102751843 0.10247363057626073 0.0 -0.04255460767761391 0.0 0.0
-0.11000649800954018 0.10744387229076632 0.0 -0.04871747094376868 0.0 0.0
-0.10391988516256105 0.10246644681304226 0.0 -0.052697168164877614 0.0 0.0
-0.09760496178592919 0.08127003575714417 0.0 2.603993409788785e-14 0.0 0.0
-0.10391988516254382 0.10246644681303152 0.0 0.05269716816494121 0.0 0.0
-0.11000649800950499 0.10744387229073699 0.0 0.04871747094382994 0.0 0.0
-0.10574623102746787 0.10247363057621638 0.0 0.04255460767764594 0.0 0.0
-0.09586380832089579 0.09221378539065936 0.0 0.03622309519842181 0.0 0.0
-0.08361196400955746 0.07984997120578893 0.0 0.0311117751594261 0.0 0.0
-0.07094470600838496 0.06726091865846145 0.0 0.02720908545976762 0.0 0.0
-0.05883189535389659 0.05533151926118274 0.0 0.02388130448360062 0.0 0.0
-0.047613430513607426 0.044329959642727554 0.0 0.020648479820985412 0.0 0.0
-0.037350956492543476 0.034288057116857465 0.0 0.017320450329649194 0.0 0.0
-0.0280837903641193 0.025228437697363146 0.0 0.013856094491882423 0.0 0.0
-0.019932204201941972 0.01726692218392543 0.0 0.010342108691346306 0.0 0.0
-0.013103270988585398 0.010634462902156614 0.0 0.0070256859689280995 0.0 0.0
-0.007858472192390551 0.005648817292211302 0.0 0.004309850228215081 0.0 0.0
-0.004354149645349746 0.0025632824184837625 0.0 0.0026025117059247246 0.0 0.0
-0.002409127973212557 0.0011626456907139263 0.0 0.0018804930294923682 0.0 0.0
-0.0015001089052376067 0.0006980551031077001 0.0 0.0018179265667936611 0.0 0.0
-0.0010308354723169155 0.0004828989898838015 0.0 0.0019215947108214802 0.0 0.0
-0.0006305513506884878 0.00025328805342755665 0.0 0.0019149795954668401 0.0 0.0
-0.00020779742211756694 -0.00013673638288029405 0.0 0.0014801462429812875 0.0 0.0
6.851382695040853e-06 -0.00046545430975663556 0.0 0.0008979686073956012 0.0 0.0
-5.43977325612535e-05 -0.00026024379367703377 0.0 -0.0007053430296461112 0.0 0.0
-0.00026590385308627784 -7.112963617017961e-05 0.0 -0.0012207774357275059 0.0 0.0
-0.0007133878610559397 0.00029242714504260184 0.0 -0.0016430712962173515 0.0 0.0
-0.0011811452899463805 0.0005328323886592499 0.0 -0.001641849111914306 0.0 0.0
-0.0017881369470470606 0.000804870114422541 0.0 -0.001488384629772534 0.0 0.0
-0.003023726690754189 0.0015271987848899608 0.0 -0.0015665916506509721 0.0 0.0
-0.005561173199957634 0.0035323443216857056 0.0 -0.0023369704080590465 0.0 0.0
-0.009908560151156648 0.007503997468985318 0.0 -0.0040796752330819605 0.0 0.0
-0.01620341327600517 0.013541251284920761 0.0 -0.006644016745878213 0.0 0.0
-0.024310809246822357 0.021438764531895894 0.0 -0.009711264043588056 0.0 0.0
-0.034008513614622815 0.030926972032763796 0.0 -0.012977857368728824 0.0 0.0
-0.045072923114665625 0.04176653621159589 0.0 -0.016196729222369474 0.0 0.0
-0.05735589595258474 0.05381230050807088 0.0 -0.019306807512941317 0.0 0.0
-0.0707872405279837 0.06700420171565023 0.0 -0.022356270755073654 0.0 0.0
-0.08528565784194565 0.08129053466574707 0.0 -0.025419528809895592 0.0 0.0
-0.10050141571150215 0.09640219498130272 0.0 -0.028750290120809183 0.0 0.0
-0.11531498468764265 0.1113561543214146 0.0 -0.03299756218592986 0.0 0.0
-0.12732135341564235 0.12385933685978348 0.0 -0.038801569881290375 0.0 0.0
-0.13265042955614867 0.13004662289533223 0.0 -0.045941984429110766 0.0 0.0
-0.12612519673363679 0.12469534297422774 0.0 -0.05384299561168585 0.0 0.0
-0.11917896586380525 0.10147044695762603 0.0 2.4039797930086593e-14 0.0 0.0
-0.12612519673361486 0.12469534297420504 0.0 0.0538429956117463 0.0 0.0
-0.13265042955610626 0.1300466228953005 0.0 0.04594198442916836 0.0 0.0
-0.1273213534155824 0.12385933685972728 0.0 0.03880156988131801 0.0 0.0
-0.1153149846875695 0.11135615432135096 0.0 0.032997562185933034 0.0 0.0
-0.10050141571142181 0.0964021949812162 0.0 0.02875029012080038 0.0 0.0
-0.0852856578418634 0.08129053466567089 0.0 0.02541952880988066 0.0 0.0
-0.07078724052790092 0.06700420171557192 0.0 0.022356270755055793 0.0 0.0
-0.05735589595250409 0.053812300507993086 0.0 0.019306807512922373 0.0 0.0
-0.04507292311459114 0.041766536211522 0.0 0.01619672922234298 0.0 0.0
-0.034008513614557326 0.030926972032701852 0.0 0.012977857368701945 0.0 0.0
-0.024310809246768487 0.021438764531841285 0.0 0.009711264043564751 0.0 0.0
-0.016203413275964848 0.013541251284882753 0.0 0.006644016745862021 0.0 0.0
-0.009908560151128957 0.007503997468956879 0.0 0.0040796752330696535 0.0 0.0
-0.005561173199941428 0.0035323443216731167 0.0 0.002336970408051799 0.0 0.0
-0.0030237266907473313 0.001527198784882774 0.0 0.0015665916506465436 0.0 0.0
-0.0017881369470449248 0.0008048701144225172 0.0 0.0014883846297709398 0.0 0.0
-0.0011811452899454429 0.0005328323886574964 0.0 0.0016418491119147714 0.0 0.0
-0.0007133878610549891 0.00029242714504295947 0.0 0.0016430712962156719 0.0 0.0
-0.0002659038530857586 -7.112963617049636e-05 0.0 0.0012207774357267925 0.0 0.0
-5.4397732561171223e-05 -0.0002602437936763771 0.0 0.0007053430296457279 0.0 0.0
-0.0001019271789998688 -0.00011167964756466794 0.0 -0.0005138974429717901 0.0 0.0
-0.000314807968880533 -6.26736747492297e-06 0.0 -0.0009377091999524518 0.0 0.0
-0.0007911024681896516 0.00033072930758880164 0.0 -0.0013147972421195435 0.0 0.0
-0.0013298264481064331 0.0005766419346414082 0.0 -0.0013002025974856934 0.0 0.0
-0.0021064139208659878 0.0009327075108594559 0.0 -0.001108186680033161 0.0 0.0
-0.003721548921145991 0.0019964491169511384 0.0 -0.0011966133344093299 0.0 0.0
-0.006882268404730151 0.004668017865958864 0.0 -0.0019653294018177844 0.0 0.0
-0.012037263032384575 0.009473887420013326 0.0 -0.0035122451689180044 0.0 0.0
-0.01933317563675901 0.016501490108198437 0.0 -0.00567462941669733 0.0 0.0
-0.028701092124844195 0.025638994088454402 0.0 -0.008289804924358943 0.0 0.0
-0.039929079468827386 0.03663793164431824 0.0 -0.011081930946889312 0.0 0.0
-0.05278747416520803 0.049253023214305726 0.0 -0.01383759578279226 0.0 0.0
-0.06709750265335596 0.0633095851984565 0.0 -0.016518851518212366 0.0 0.0
-0.0827278422508016 0.07869277841531976 0.0 -0.01918881897058662 0.0 0.0
-0.09953015478763833 0.09527089338842362 0.0 -0.021832391064886675 0.0 0.0
-0.11711461718232033 0.11271695197087947 0.0 -0.0243642719621445 0.0 0.0
-0.13432240206948565 0.13003658128373305 0.0 -0.027117638663495137 0.0 0.0
-0.14851451596076987 0.1448023063409629 0.0 -0.03155340445119257 0.0 0.0
-0.15529653928179174 0.15261874306924306 0.0 -0.0398406061421277 0.0 0.0
-0.14886692811596836 0.1475260138479639 0.0 -0.05319668895102195 0.0 0.0
-0.1415526277785657 0.12269612506325184 0.0 2.273702059962801e-14 0.0 0.0
-0.14886692811594274 0.147526013847938 0.0 0.05319668895107227 0.0 0.0
-0.15529653928174272 0.15261874306920237 0.0 0.03984060614217414 0.0 0.0
-0.14851451596070006 0.14480230634089297 0.0 0.03155340445121558 0.0 0.0
-0.134322402069401 0.13003658128365786 0.0 0.027117638663498714 0.0 0.0
-0.11711461718222863 0.11271695197078319 0.0 0.02436427196213894 0.0 0.0
-0.09953015478754372 0.09527089338832817 0.0 0.021832391064874796 0.0 0.0
-0.08272784225070645 0.07869277841522397 0.0 0.01918881897057243 0.0 0.0
-0.06709750265326363 0.06330958519836877 0.0 0.016518851518197937 0.0 0.0
-0.05278747416512214 0.04925302321421579 0.0 0.013837595782771807 0.0 0.0
-0.03992907946875204 0.03663793164424886 0.0 0.011081930946864764 0.0 0.0
-0.02870109212478282 0.025638994088396053 0.0 0.00828980492434124 0.0 0.0
-0.01933317563671211 0.01650149010814865 0.0 0.005674629416683435 0.0 0.0
-0.012037263032351492 0.009473887419983475 0.0 0.0035122451689064355 0.0 0.0
-0.0068822684047104826 0.004668017865942214 0.0 0.0019653294018131804 0.0 0.0
-0.003721548921137189 0.001996449116944007 0.0 0.0011966133344072114 0.0 0.0
-0.0021064139208629307 0.0009327075108565208 0.0 0.001108186680034177 0.0 0.0
-0.0013298264481052834 0.0005766419346399244 0.0 0.0013002025974850465 0.0 0.0
-0.0007911024681891694 0.00033072930758986193 0.0 0.0013147972421183867 0.0 0.0
-0.0003148079688805752 -6.2673674757177115e-06 0.0 0.0009377091999522402 0.0 0.0
-0.00010192717900007499 -0.00011167964756408697 0.0 0.000513897442972413 0.0 0.0
-0.00013084863295556535 -2.0386487502562594e-05 0.0 -0.00033398391039280464 0.0 0.0
-0.00034889179816802006 5.074554189099935e-05 0.0 -0.0006349766509083281 0.0 0.0
-0.0008613302578446746 0.0003652077746819851 0.0 -0.0009229944416867415 0.0 0.0
-0.0014853563324923407 0.0006196398860277867 0.0 -0.0008903365851072434 0.0 0.0
-0.002470236546627305 0.001101723227421519 0.0 -0.0006871274758703939 0.0 0.0
-0.004512123418642459 0.0025956604040351205 0.0 -0.0007719211164853864 0.0 0.0
-0.008282134461899559 0.005927360594725501 0.0 -0.0014167119241186516 0.0 0.0
-0.01419811345594937 0.011494899915821272 0.0 -0.0025427295569889715 0.0 0.0
-0.02246419372521266 0.019476529471226512 0.0 -0.004140101940491329 0.0 0.0
-0.033064020225674826 0.029825218169470764 0.0 -0.00608462101981183 0.0 0.0
-0.045807069171912296 0.0423188090137343 0.0 -0.00817548232195067 0.0 0.0
-0.060453950619667296 0.05670509989088143 0.0 -0.010246876218930907 0.0 0.0
-0.07679276837789455 0.07277756885588978 0.0 -0.012285971803236548 0.0 0.0
-0.094622300164119 0.09035303603056458 0.0 -0.014366442315457821 0.0 0.0
-0.11365434290534732 0.10916995926253607 0.0 -0.01641455549150825 0.0 0.0
-0.13336997705439418 0.1287489529809965 0.0 -0.01811652128162773 0.0 0.0
-0.1526810694086465 0.14808661848139246 0.0 -0.019304017925369756 0.0 0.0
-0.16914709238188486 0.16499247902803058 0.0 -0.021430268890478277 0.0 0.0
-0.17802698849543272 0.17514016549614408 0.0 -0.029404941059261433 0.0 0.0
-0.17255248360918285 0.17146006306406233 0.0 -0.04966013831085372 0.0 0.0
-0.16529750278575275 0.14561168557254814 0.0 1.979319486089537e-14 0.0 0.0
-0.1725524836091543 0.17146006306403572 0.0 0.049660138310897 0.0 0.0
-0.17802698849537585 0.1751401654960826 0.0 0.029404941059299937 0.0 0.0
-0.1691470923818039 0.16499247902795336 0.0 0.021430268890498337 0.0 0.0
-0.1526810694085501 0.1480866184812963 0.0 0.019304017925371647 0.0 0.0
-0.13336997705429066 0.12874895298089595 0.0 0.01811652128162298 0.0 0.0
-0.11365434290524033 0.10916995926242788 0.0 0.016414555491503554 0.0 0.0
-0.09462230016401142 0.09035303603046138 0.0 0.0143664423154505 0.0 0.0
-0.07679276837778998 0.07277756885579043 0.0 0.012285971803225907 0.0 0.0
-0.060453950619570616 0.056705099890784566 0.0 0.010246876218917806 0.0 0.0
-0.04580706917182761 0.04231880901365412 0.0 0.008175482321933231 0.0 0.0
-0.03306402022560589 0.029825218169409577 0.0 0.006084621019796743 0.0 0.0
-0.022464193725160075 0.01947652947117295 0.0 0.0041401019404828775 0.0 0.0
-0.014198113455910915 0.01149489991578552 0.0 0.002542729556979772 0.0 0.0
-0.008282134461876015 0.005927360594702305 0.0 0.0014167119241133208 0.0 0.0
-0.004512123418631173 0.002595660404029873 0.0 0.0007719211164848072 0.0 0.0
-0.0024702365466230123 0.0011017232274157563 0.0 0.0006871274758734307 0.0 0.0
-0.0014853563324908944 0.0006196398860268499 0.0 0.0008903365851064312 0.0 0.0
-0.000861330257844099 0.0003652077746831714 0.0 0.000922994441685568 0.0 0.0
-0.0003488917981675811 5.074554189097409e-05 0.0 0.0006349766509101726 0.0 0.0
-0.0001308486329546183 -2.038648750243298e-05 0.0 0.0003339839103918377 0.0 0.0
-0.00013243295728573095 1.3859196157001492e-05 0.0 -0.00018757742447940036 0.0 0.0
-0.00035789437819613244 8.901212436608481e-05 0.0 -0.00031822527783630073 0.0 0.0
-0.0009201987281998764 0.0003901105098533486 0.0 -0.00044853790401208133 0.0 0.0
-0.00166082846656494 0.0006766060748401747 0.0 -0.0004091377012716785 0.0 0.0
-0.0028977626941438126 0.00134077894266171 0.0 -0.00023492124737019342 0.0 0.0
-0.0053828214816120015 0.0033169298383895368 0.0 -0.0002688080943356212 0.0 0.0
-0.009730953496561622 0.00725959322328943 0.0 -0.0006176705253580209 0.0 0.0
-0.016363119064830366 0.013535304139821158 0.0 -0.001207667212840136 0.0 0.0
-0.025559591528846036 0.022428241784670653 0.0 -0.002048160990602723 0.0 0.0
-0.03736092264094036 0.03395499024831053 0.0 -0.0031004778407252623 0.0 0.0
-0.05160201682969019 0.04792796278905526 0.0 -0.004252637322596714 0.0 0.0
-0.06803348455177527 0.06408402817145739 0.0 -0.005421012894611147 0.0 0.0
-0.08640218434873086 0.08217255506994721 0.0 -0.006619241919565963 0.0 0.0
-0.10641428089262533 0.10192609196195615 0.0 -0.007862880724788043 0.0 0.0
-0.12762989219851434 0.12294479141535772 0.0 -0.009073783853872844 0.0 0.0
-0.14932395142037863 0.1445394490653902 0.0 -0.009994346257989407 0.0 0.0
-0.17033514239824252 0.16555897029449487 0.0 -0.010223594684383608 0.0 0.0
-0.18873682318775675 0.18410016733985038 0.0 -0.010200562982920864 0.0 0.0
-0.20060214273956994 0.1967728771642981 0.0 -0.014636744865697486 0.0 0.0
-0.19777800019265016 0.19694976225597027 0.0 -0.03747129216961319 0.0 0.0
-0.19133204967236753 0.1721199642110379 0.0 1.1553258350005535e-14 0.0 0.0
-0.19777800019261826 0.19694976225593633 0.0 0.0374712921696396 0.0 0.0
-0.20060214273950608 0.19677287716423447 0.0 0.014636744865720051 0.0 0.0
-0.1887368231876642 0.18410016733975135 0.0 0.010200562982929644 0.0 0.0
-0.17033514239813363 0.16555897029438435 0.0 0.010223594684383067 0.0 0.0
-0.14932395142026306 0.1445394490652724 0.0 0.00999434625798636 0.0 0.0
-0.1276298921983947 0.12294479141524162 0.0 0.009073783853871071 0.0 0.0
-0.10641428089250556 0.10192609196184282 0.0 0.007862880724782733 0.0 0.0
-0.08640218434861474 0.08217255506982954 0.0 0.00661924191956046 0.0 0.0
-0.06803348455166813 0.0640840281713534 0.0 0.005421012894603495 0.0 0.0
-0.051602016829597405 0.04792796278896196 0.0 0.004252637322588105 0.0 0.0
-0.037360922640863964 0.03395499024823929 0.0 0.003100477840712104 0.0 0.0
-0.025559591528787104 0.022428241784616654 0.0 0.0020481609905982604 0.0 0.0
-0.016363119064788125 0.013535304139778805 0.0 0.0012076672128336575 0.0 0.0
-0.009730953496534276 0.007259593223262108 0.0 0.0006176705253527666 0.0 0.0
-0.005382821481597627 0.0033169298383792884 0.0 0.0002688080943357158 0.0 0.0
-0.0028977626941385183 0.0013407789426583192 0.0 0.0002349212473716709 0.0 0.0
-0.001660828466563427 0.0006766060748407978 0.0 0.0004091377012730299 0.0 0.0
-0.0009201987281989758 0.0003901105098543575 0.0 0.0004485379040121706 0.0 0.0
-0.00035789437819564064 8.901212436533112e-05 0.0 0.0003182252778376007 0.0 0.0
-0.0001324329572856859 1.3859196157185029e-05 0.0 0.00018757742447723501 0.0 0.0
-9.113385696225707e-05 1.6864243422810757e-05 0.0 -0.00011400300370575117 0.0 0.0
-0.0003235593061805349 0.00010174766063770844 0.0 -0.00013230142204062248 0.0 0.0
-0.0009633099855189239 0.0003992917635833575 0.0 -0.00014666529810239128 0.0 0.0
-0.0018757612372667508 0.0007110951107697848 0.0 -7.256209497026973e-05 0.0 0.0
-0.003398721179903175 0.0014827024706208416 0.0 0.00020693002920303997 0.0 0.0
-0.006314622972691788 0.0037030122983398948 0.0 0.00044561704264212566 0.0 0.0
-0.0112041232641646 0.007938744246839642 0.0 0.0005625365286459287 0.0 0.0
-0.018507406794699817 0.014557085404900652 0.0 0.0005966493988295465 0.0 0.0
-0.0285846063091567 0.0238931412746945 0.0 0.0005385967548686972 0.0 0.0
-0.04155087262171332 0.03600059191480575 0.0 0.00034307137262049687 0.0 0.0
-0.05727484079679372 0.05070914236962432 0.0 5.027654527900872e-05 0.0 0.0
-0.0754904025322225 0.06775086950017348 0.0 -0.00032380830074716944 0.0 0.0
-0.09587315387407926 0.08684642840713534 0.0 -0.0008032587664720762 0.0 0.0
-0.11803935919783347 0.10768199091411428 0.0 -0.001360492802438452 0.0 0.0
-0.14141979790492198 0.12979489481693157 0.0 -0.0019938910008944124 0.0 0.0
-0.16507015477379858 0.15238351238165582 0.0 -0.002570382142934473 0.0 0.0
-0.1875599806758651 0.17417537599205632 0.0 -0.002778803017123273 0.0 0.0
-0.20703438064811047 0.19335555196137338 0.0 -0.0024819426600717967 0.0 0.0
-0.2212740319227859 0.20717759604640118 0.0 -0.005048737765484796 0.0 0.0
-0.2248765118015854 0.21012376794813611 0.0 -0.028831216670831182 0.0 0.0
-0.2229697980888554 0.1866469755587381 0.0 4.621303340002214e-15 0.0 0.0
-0.22487651180155002 0.21012376794809928 0.0 0.02883121667084147 0.0 0.0
-0.22127403192271333 0.2071775960463438 0.0 0.005048737765491085 0.0 0.0
-0.20703438064800478 0.19335555196125512 0.0 0.002481942660069479 0.0 0.0
-0.18755998067574237 0.1741753759919449 0.0 0.002778803017120468 0.0 0.0
-0.1650701547736705 0.15238351238152625 0.0 0.002570382142933321 0.0 0.0
-0.14141979790479015 0.1297948948168088 0.0 0.001993891000891642 0.0 0.0
-0.11803935919770217 0.10768199091399402 0.0 0.0013604928024310951 0.0 0.0
-0.09587315387395202 0.08684642840701083 0.0 0.0008032587664703102 0.0 0.0
-0.07549040253210385 0.06775086950006201 0.0 0.0003238083007404066 0.0 0.0
-0.057274840796692 0.05070914236952378 0.0 -5.027654528050492e-05 0.0 0.0
-0.04155087262162986 0.03600059191473195 0.0 -0.00034307137262548724 0.0 0.0
-0.02858460630909148 0.023893141274638468 0.0 -0.0005385967548691252 0.0 0.0
-0.01850740679465288 0.01455708540485436 0.0 -0.0005966493988295647 0.0 0.0
-0.011204123264134088 0.007938744246815267 0.0 -0.0005625365286459315 0.0 0.0
-0.00631462297267555 0.0037030122983253374 0.0 -0.000445617042641002 0.0 0.0
-0.0033987211798960646 0.001482702470620577 0.0 -0.0002069300292019048 0.0 0.0
-0.0018757612372640197 0.0007110951107714312 0.0 7.256209497273164e-05 0.0 0.0
-0.0009633099855180364 0.0003992917635841157 0.0 0.00014666529810362347 0.0 0.0
-0.000323559306180768 0.0001017476606362697 0.0 0.00013230142204013229 0.0 0.0
-9.113385696300766e-05 1.6864243423210604e-05 0.0 0.00011400300370428606 0.0 0.0
SCALARS Statev float 8
LOOKUP_TABLE default
0.0 0.020372069555626024 0.01639343937356237 -0.019412291162443765 0.0030188517888813876 -0.0012817484971871583 0.0 0.0
0.0 0.007254944183988451 0.005397066116281329 -0.0034828953049472655 -0.001914170811334065 -0.007437906502317268 0.0 0.0
0.0 0.0002268859024030691 0.00028349155428764234 -0.00017120310380126737 -0.00011228845048637496 -0.00041857034735264377 0.0 0.0
0.0 0.00021742099345858253 0.0001310576383291285 -9.411427898061666e-05 -3.694335934851232e-05 3.72832505649418e-05 0.0 0.0
0.0 0.0013003509540805167 0.0009703102883350241 -0.0007166212400242897 -0.0002536890483107345 0.00019829758471864465 0.0 0.0
0.0 0.003485215570254896 0.0033846372975116475 -0.0027332394400076 -0.000651397857504049 0.00040133021962300775 0.0 0.0
0.0 0.008554821152276175 0.007799986550995936 -0.006809518039862257 -0.0009904685111336695 0.0005520470032465138 0.0 0.0
0.0 0.01634501419965819 0.014678882720766909 -0.013421362899344215 -0.0012575198214226915 0.0006127085713856749 0.0 0.0
0.0 0.027361643262860242 0.024334371343112317 -0.022820361655969817 -0.0015140096871424816 0.000579018789111157 0.0 0.0
0.0 0.041747483179957384 0.03686246972229941 -0.03505908712603283 -0.0018033825962666145 0.00041228901442364184 0.0 0.0
0.0 0.05934513175838916 0.05213361386905319 -0.049990684895215576 -0.002142928973837584 0.00014041240803620077 0.0 0.0
0.0 0.07953214676758938 0.06989574136827108 -0.06736132057701519 -0.0025344207912557587 -0.00022313372348295988 0.0 0.0
0.0 0.10232161258039292 0.08984883206623596 -0.08688342564092111 -0.002965406425314822 -0.0006871516403375398 0.0 0.0
0.0 0.12728871191988922 0.11167530337204468 -0.10825503183487567 -0.003420271537168832 -0.001202571945237924 0.0 0.0
0.0 0.15396456923315388 0.13496248620514428 -0.13108355452381631 -0.0038789316813279025 -0.0017881297042538484 0.0 0.0
0.0 0.18164647441345502 0.15906047519842315 -0.15474215072862807 -0.004318324469794903 -0.0024087585243128757 0.0 0.0
0.0 0.20917484389659266 0.1829931024683346 -0.17827854745573152 -0.004714555012603342 -0.002936247366253075 0.0 0.0
0.0 0.23504303773060337 0.20546529985056455 -0.20042099958912912 -0.005044300261435277 -0.0031768626394408596 0.0 0.0
0.0 0.25748958468848115 0.22496761152953654 -0.21966184603844696 -0.005305765491089052 -0.002993694548389726 0.0 0.0
0.0 0.27413643418654465 0.23964173385600976 -0.23417236796817698 -0.005469365887833052 -0.0036489302839073103 0.0 0.0
0.0 0.281361047948409 0.24558591178813383 -0.2401333868338045 -0.005452524954328983 3.805983306293115e-15 0.0 0.0
0.0 0.27413643418650996 0.23964173385597928 -0.2341723679681479 -0.005469365887831602 0.0036489302839167424 0.0 0.0
0.0 0.2574895846884031 0.22496761152946773 -0.21966184603837927 -0.005305765491088141 0.0029936945483985625 0.0 0.0
0.0 0.23504303773049215 0.20546529985046702 -0.20042099958903445 -0.005044300261432468 0.0031768626394460247 0.0 0.0
0.0 0.2091748438964639 0.18299310246822206 -0.1782785474556228 -0.004714555012599501 0.0029362473662516205 0.0 0.0
0.0 0.18164647441331658 0.15906047519830158 -0.1547421507285089 -0.004318324469792582 0.0024087585243069446 0.0 0.0
0.0 0.15396456923302065 0.13496248620502743 -0.13108355452370307 -0.003878931681324196 0.0017881297042537173 0.0 0.0
0.0 0.12728871191974803 0.11167530337192139 -0.10825503183475511 -0.003420271537166409 0.0012025719452384452 0.0 0.0
0.0 0.10232161258025807 0.08984883206611825 -0.08688342564080592 -0.002965406425312197 0.0006871516403340414 0.0 0.0
0.0 0.07953214676746176 0.06989574136815996 -0.0673613205769053 -0.0025344207912545084 0.00022313372347853178 0.0 0.0
0.0 0.05934513175828596 0.052133613868962835 -0.04999068489512775 -0.002142928973835052 -0.0001404124080419092 0.0 0.0
0.0 0.04174748317987094 0.03686246972222371 -0.03505908712595905 -0.0018033825962647787 -0.00041228901442679085 0.0 0.0
0.0 0.02736164326279755 0.024334371343056944 -0.022820361655916326 -0.0015140096871405942 -0.0005790187891108506 0.0 0.0
0.0 0.016345014199611773 0.014678882720725553 -0.013421362899304052 -0.00125751982142147 -0.0006127085713864659 0.0 0.0
0.0 0.008554821152250605 0.007799986550972299 -0.0068095180398401265 -0.0009904685111321746 -0.0005520470032458086 0.0 0.0
0.0 0.0034852155702411775 0.0033846372974982897 -0.0027332394399958147 -0.0006513978575024805 -0.0004013302196223953 0.0 0.0
0.0 0.001300350954073774 0.0009703102883297142 -0.0007166212400202895 -0.0002536890483094229 -0.0001982975847176387 0.0 0.0
0.0 0.00021742099345793518 0.0001310576383293087 -9.411427898081106e-05 -3.6943359348496884e-05 -3.728325056471876e-05 0.0 0.0
0.0 0.0002268859024019539 0.00028349155428670743 -0.00017120310380070385 -0.00011228845048600282 0.00041857034735089414 0.0 0.0
0.0 0.007254944183977291 0.005397066116275649 -0.003482895304942773 -0.0019141708113328694 0.0074379065023084286 0.0 0.0
0.0 0.020372069555604864 0.016393439373548504 -0.01941229116242448 0.0030188517888759536 0.001281748497143125 0.0 0.0
0.0 0.01675679195635868 0.012652910446349652 -0.016200045684746974 0.003547135238397318 -0.0007833440959429365 0.0 0.0
0.0 0.004613265216944011 0.003321353640582756 -0.0021326928177654554 -0.0011886608228172933 -0.006001757776470276 0.0 0.0
0.0 -9.607570843868351e-05 -7.96824693171959e-05 7.588386044990652e-05 3.798608867289335e-06 -0.0001252949967913339 0.0 0.0
0.0 6.56511716456218e-05 5.681203598021531e-05 -4.096206799043497e-05 -1.5849967989780264e-05 1.7970691421894276e-05 0.0 0.0
0.0 0.0007805692854744182 0.0006604808453536642 -0.0004919138609420755 -0.0001685669844115882 7.59457616747664e-05 0.0 0.0
0.0 0.0030228748622345104 0.0026728651158658217 -0.002181389893056773 -0.0004914752228090518 4.4978728748192246e-05 0.0 0.0
0.0 0.007342442650008855 0.006670533755607088 -0.005903084733017201 -0.0007674490225898863 -0.00030276664833317956 0.0 0.0
0.0 0.01457732244798459 0.01298151843244418 -0.01205217464192985 -0.0009293437905143354 -0.0008892804078349031 0.0 0.0
0.0 0.024858365247053246 0.021895437990172958 -0.02085665972458592 -0.0010387782655870278 -0.0017172448721237666 0.0 0.0
0.0 0.03819817828719896 0.033449645436557776 -0.03231628297969153 -0.0011333624568662358 -0.002756127014951805 0.0 0.0
0.0 0.05444464851017747 0.04748432188075142 -0.0462596703708049 -0.001224651509946576 -0.003912472960443175 0.0 0.0
0.0 0.07341677158244445 0.06375830414879022 -0.062440425036782474 -0.001317879112007704 -0.005103311534679222 0.0 0.0
0.0 0.09424556552164985 0.08203220035307815 -0.08061907265487082 -0.001413127698207323 -0.006322492326807626 0.0 0.0
0.0 0.1173613188386308 0.10203558856173682 -0.10053217994214161 -0.0015034086195951685 -0.007565583987918175 0.0 0.0
0.0 0.14204308419530803 0.12340276973549948 -0.12182422586267433 -0.0015785438728249158 -0.008788041762448705 0.0 0.0
0.0 0.167660985490992 0.1455595090028698 -0.14392958045379456 -0.0016299285490753695 -0.009871009974211628 0.0 0.0
0.0 0.1932374400282586 0.16763883618088304 -0.16598622055490025 -0.0016526156259826868 -0.010544817747976672 0.0 0.0
0.0 0.21740443360187175 0.18846690078705733 -0.18681896950141874 -0.0016479312856386634 -0.010464149848069206 0.0 0.0
0.0 0.23836155056738115 0.206530095494835 -0.2049261117015973 -0.0016039837932375707 -0.009507354968228089 0.0 0.0
0.0 0.25366514085064423 0.21963655278229852 -0.21820613592391308 -0.001430416858385443 -0.008645160974570739 0.0 0.0
0.0 0.2604005071154873 0.22476193055195887 -0.22359636003267813 -0.0011655705192808634 9.86623976961809e-15 0.0 0.0
0.0 0.2536651408506097 0.2196365527822678 -0.21820613592388288 -0.0014304168583848336 0.00864516097459576 0.0 0.0
0.0 0.23836155056731137 0.2065300954947744 -0.20492611170153668 -0.0016039837932376145 0.009507354968252175 0.0 0.0
0.0 0.217404433601769 0.18846690078696868 -0.18681896950133012 -0.0016479312856385855 0.010464149848084338 0.0 0.0
0.0 0.19323744002813806 0.16763883618077927 -0.16598622055479662 -0.0016526156259827956 0.010544817747977542 0.0 0.0
0.0 0.1676609854908637 0.1455595090027592 -0.14392958045368354 -0.0016299285490752845 0.009871009974204962 0.0 0.0
0.0 0.14204308419517842 0.12340276973538655 -0.12182422586256227 -0.001578543872824324 0.008788041762446559 0.0 0.0
0.0 0.11736131883849935 0.10203558856162326 -0.100532179942028 -0.0015034086195951655 0.0075655839879151 0.0 0.0
0.0 0.0942455655215236 0.08203220035296911 -0.0806190726547621 -0.0014131276982070175 0.0063224923267996055 0.0 0.0
0.0 0.07341677158232744 0.06375830414868897 -0.06244042503668084 -0.0013178791120081414 0.005103311534670896 0.0 0.0
0.0 0.05444464851007906 0.047484321880666265 -0.04625967037072047 -0.0012246515099458228 0.003912472960432098 0.0 0.0
0.0 0.03819817828711894 0.03344964543648785 -0.03231628297962207 -0.0011333624568657251 0.0027561270149438046 0.0 0.0
0.0 0.024858365246996448 0.021895437990122692 -0.02085665972453645 -0.0010387782655862403 0.0017172448721196156 0.0 0.0
0.0 0.014577322447941599 0.012981518432406133 -0.012052174641892443 -0.0009293437905137142 0.0008892804078302068 0.0 0.0
0.0 0.007342442649983466 0.006670533755584159 -0.005903084732995328 -0.0007674490225888222 0.00030276664833082045 0.0 0.0
0.0 0.0030228748622209583 0.0026728651158539176 -0.002181389893046285 -0.0004914752228076299 -4.4978728748975975e-05 0.0 0.0
0.0 0.0007805692854692784 0.0006604808453496376 -0.0004919138609390106 -0.00016856698441062716 -7.594576167441545e-05 0.0 0.0
0.0 6.565117164538413e-05 5.681203598057069e-05 -4.096206799074742e-05 -1.584996798982315e-05 -1.797069142169149e-05 0.0 0.0
0.0 -9.607570843888815e-05 -7.968246931673253e-05 7.588386044950581e-05 3.7986088672265043e-06 0.00012529499679101358 0.0 0.0
0.0 0.004613265216932591 0.0033213536405765224 -0.0021326928177608636 -0.0011886608228156572 0.00600175777645897 0.0 0.0
0.0 0.01675679195633455 0.012652910446331265 -0.016200045684724225 0.003547135238392955 0.0007833440959092656 0.0 0.0
0.0 0.012659415558716617 0.009358399290472797 -0.012300804450801232 0.0029424051603284336 -0.0034662258961356903 0.0 0.0
0.0 0.0031836592291306864 0.0020404063689234957 -0.0011581776292814224 -0.000882228739642077 -0.0052640378342235375 0.0 0.0
0.0 6.142593303295706e-07 1.5510263529262754e-06 -1.2820389653866184e-06 -2.6898738753965276e-07 7.158191974350729e-07 0.0 0.0
0.0 3.471541186202202e-06 1.946457013592079e-06 -6.598128534460641e-07 -1.2866441601461399e-06 7.640612176047479e-06 0.0 0.0
0.0 0.0003902654027336045 0.00035022052162852026 -0.00025413685475914077 -9.608366686937935e-05 1.0091932127505687e-05 0.0 0.0
0.0 0.002204668379590764 0.001902821482263368 -0.0015105924041510716 -0.00039222907811229556 -0.00015241861194179403 0.0 0.0
0.0 0.005797426727646719 0.00533523942144579 -0.004633892082242458 -0.0007013473392033314 -0.0008283291939005106 0.0 0.0
0.0 0.012278048301827302 0.010932662567832608 -0.010051945707776386 -0.0008807168600562141 -0.0019535026255914417 0.0 0.0
0.0 0.021489338158951894 0.018917779587324192 -0.017928769598946 -0.0009890099883781685 -0.003524253384851165 0.0 0.0
0.0 0.03353268652568283 0.0292713483142359 -0.028195208297225313 -0.0010761400170106006 -0.005448786498431942 0.0 0.0
0.0 0.048110263824775235 0.04180725052687592 -0.04064595715244293 -0.0011612933744329487 -0.007551683579160258 0.0 0.0
0.0 0.06483979170140648 0.05629877584550073 -0.0550488488454708 -0.001249927000029928 -0.009670486713409683 0.0 0.0
0.0 0.08383505779140307 0.07254287027160236 -0.0712028718195542 -0.0013399984520480691 -0.011767898702442235 0.0 0.0
0.0 0.10416481106860007 0.09034165284679278 -0.0889165381676224 -0.0014251146791704366 -0.013887701350174957 0.0 0.0
0.0 0.12621850499959503 0.10939341135933903 -0.1078957429389785 -0.0014976684203606876 -0.01597481975261222 0.0 0.0
0.0 0.14916442266936383 0.1292249093128323 -0.12767499578905459 -0.0015499135237774984 -0.01780137809996731 0.0 0.0
0.0 0.1721784291905908 0.14911342072112593 -0.1475366133013097 -0.0015768074198162442 -0.018941556656547086 0.0 0.0
0.0 0.19402627920240223 0.16800334434210026 -0.16643311511652176 -0.0015702292255787133 -0.018896301498843856 0.0 0.0
0.0 0.2129870255740463 0.18436584235221104 -0.18286246925706987 -0.0015033730951409692 -0.017437149098098428 0.0 0.0
0.0 0.22671426624133176 0.19616326532329215 -0.1947624021197236 -0.001400863203568028 -0.0146935626006364 0.0 0.0
0.0 0.23305562722269801 0.2009182457541623 -0.19982129314957053 -0.0010969526045918028 1.8067145002298446e-14 0.0 0.0
0.0 0.2267142662413033 0.19616326532326536 -0.19476240211969803 -0.0014008632035670875 0.014693562600678622 0.0 0.0
0.0 0.21298702557397933 0.18436584235215275 -0.18286246925701147 -0.0015033730951414103 0.01743714909813996 0.0 0.0
0.0 0.19402627920231333 0.168003344342023 -0.16643311511644449 -0.0015702292255784784 0.018896301498870623 0.0 0.0
0.0 0.17217842919048448 0.14911342072103492 -0.14753661330121842 -0.0015768074198165487 0.01894155665654997 0.0 0.0
0.0 0.1491644226692501 0.12922490931273348 -0.12767499578895655 -0.0015499135237769164 0.017801378099958985 0.0 0.0
0.0 0.12621850499947634 0.10939341135923626 -0.10789574293887597 -0.0014976684203603019 0.01597481975260657 0.0 0.0
0.0 0.10416481106848438 0.09034165284669302 -0.08891653816752244 -0.0014251146791705996 0.013887701350168225 0.0 0.0
0.0 0.08383505779129112 0.07254287027150577 -0.07120287181945807 -0.0013399984520476868 0.011767898702430004 0.0 0.0
0.0 0.06483979170130334 0.05629877584541204 -0.055048848845382074 -0.0012499270000298909 0.009670486713395033 0.0 0.0
0.0 0.04811026382468573 0.04180725052679819 -0.04064595715236579 -0.001161293374432413 0.007551683579143855 0.0 0.0
0.0 0.0335326865256131 0.0292713483141748 -0.02819520829716459 -0.0010761400170102014 0.0054487864984193125 0.0 0.0
0.0 0.02148933815889902 0.018917779587277885 -0.017928769598900406 -0.0009890099883774744 0.0035242533848421718 0.0 0.0
0.0 0.012278048301788363 0.010932662567798686 -0.010051945707743069 -0.0008807168600555974 0.001953502625583447 0.0 0.0
0.0 0.005797426727624635 0.005335239421425819 -0.004633892082223613 -0.0007013473392022091 0.0008283291938960447 0.0 0.0
0.0 0.0022046683795801277 0.0019028214822542466 -0.0015105924041433618 -0.000392229078110884 0.00015241861194020703 0.0 0.0
0.0 0.0003902654027300036 0.0003502205216258622 -0.00025413685475718167 -9.608366686868052e-05 -1.0091932127526912e-05 0.0 0.0
0.0 3.4715411861579194e-06 1.946457013721427e-06 -6.598128535535412e-07 -1.2866441601678677e-06 -7.640612175935076e-06 0.0 0.0
0.0 6.142593304038159e-07 1.551026352831921e-06 -1.2820389653130763e-06 -2.689873875188457e-07 -7.158191974598655e-07 0.0 0.0
0.0 0.0031836592291214945 0.0020404063689181823 -0.001158177629277877 -0.0008822287396403021 0.005264037834209416 0.0 0.0
0.0 0.012659415558691435 0.009358399290454142 -0.012300804450777945 0.0029424051603237854 0.00346622589611342 0.0 0.0
0.0 0.009708709702254077 0.006999963904401049 -0.009385906524117207 0.0023859426197161285 -0.003731071438625281 0.0 0.0
0.0 0.00235320345701758 0.0014185286599285424 -0.0007875611011590862 -0.000630967558769448 -0.004048753280706504 0.0 0.0
0.0 0.0 0.0 0.0 0.0 0.0 0.0 0.0
0.0 -5.935182708500492e-06 -5.592627771543484e-06 4.429095221242469e-06 1.1635325503010144e-06 4.437592515652621e-06 0.0 0.0
0.0 0.00015707844907234713 0.0001335277370245567 -9.319937086723887e-05 -4.032836615731735e-05 6.40794176375742e-07 0.0 0.0
0.0 0.0013944111170683183 0.0012534407891796506 -0.0009672154436919667 -0.00028622534548768266 -0.0002563391970557705 0.0 0.0
0.0 0.0045800221266565555 0.0040505430891320205 -0.003436410306639202 -0.0006141327824928186 -0.001078748050317849 0.0 0.0
0.0 0.010033994624160521 0.008906292163035723 -0.008084863314524663 -0.000821428848511056 -0.002645808586038286 0.0 0.0
0.0 0.018193204037014937 0.015923527572332882 -0.014989703093606147 -0.000933824478726732 -0.00478055145354696 0.0 0.0
0.0 0.028859320835805644 0.02504568768928837 -0.0240304417508644 -0.0010152459384239487 -0.007373111901672522 0.0 0.0
0.0 0.041680075790678735 0.03606536985840847 -0.034971726590349916 -0.0010936432680585075 -0.010180856328266517 0.0 0.0
0.0 0.05652964794305568 0.048764623751521394 -0.04758784057774683 -0.001176783173774567 -0.013000591056123301 0.0 0.0
0.0 0.0729082331516756 0.06297957804135156 -0.06171740731137165 -0.0012621707299798586 -0.015785361030182674 0.0 0.0
0.0 0.09121759218567227 0.0785525558049412 -0.07721088020148409 -0.0013416756034570888 -0.018564709842635363 0.0 0.0
0.0 0.11049991360590752 0.09526978448140534 -0.09385870588510685 -0.001411078596298488 -0.021283857632232398 0.0 0.0
0.0 0.13058695173486573 0.1127691991948159 -0.11130364088326568 -0.0014655583115502065 -0.02369423741163212 0.0 0.0
0.0 0.1511390352543979 0.13046341726687766 -0.12896781518982947 -0.0014956020770481868 -0.02530312272347106 0.0 0.0
0.0 0.17074532942878523 0.1474209254512594 -0.14593356526840884 -0.0014873601828503953 -0.025504704821889015 0.0 0.0
0.0 0.1878500688081548 0.16224245611124666 -0.16080762054274622 -0.0014348355685005509 -0.02368481883272778 0.0 0.0
0.0 0.20042627069052735 0.17317700299155134 -0.17180842367545548 -0.001368579316096334 -0.01890669481828512 0.0 0.0
0.0 0.20678336857387647 0.17786840441125484 -0.1769230659478073 -0.0009453384634473482 2.4494295480792516e-14 0.0 0.0
0.0 0.2004262706905013 0.17317700299152658 -0.17180842367543014 -0.0013685793160966198 0.018906694818340515 0.0 0.0
0.0 0.18785006880809269 0.1622424561111913 -0.16080762054269063 -0.0014348355685005379 0.023684818832785254 0.0 0.0
0.0 0.1707453294287117 0.14742092545119467 -0.14593356526834464 -0.001487360182849938 0.025504704821922446 0.0 0.0
0.0 0.15113903525430875 0.13046341726680083 -0.12896781518975334 -0.0014956020770475304 0.025303122723475274 0.0 0.0
0.0 0.13058695173476662 0.11276919919473005 -0.11130364088318016 -0.0014655583115498383 0.023694237411622035 0.0 0.0
0.0 0.11049991360580495 0.09526978448131615 -0.09385870588501818 -0.0014110785962979822 0.021283857632224533 0.0 0.0
0.0 0.09121759218557254 0.07855255580485446 -0.07721088020139816 -0.001341675603456337 0.018564709842626315 0.0 0.0
0.0 0.07290823315158006 0.06297957804126939 -0.061717407311290134 -0.0012621707299791548 0.015785361030168383 0.0 0.0
0.0 0.056529647942967616 0.04876462375144523 -0.0475878405776712 -0.0011767831737741214 0.013000591056103001 0.0 0.0
0.0 0.04168007579060184 0.03606536985834224 -0.03497172659028417 -0.001093643268058043 0.010180856328245426 0.0 0.0
0.0 0.028859320835743135 0.025045687689234302 -0.024030441750810854 -0.0010152459384234471 0.00737311190165463 0.0 0.0
0.0 0.018193204036967472 0.015923527572291915 -0.014989703093565579 -0.0009338244787263238 0.0047805514535341235 0.0 0.0
0.0 0.010033994624126637 0.00890629216300569 -0.00808486331449537 -0.0008214288485103084 0.002645808586027865 0.0 0.0
0.0 0.0045800221266383365 0.004050543089116648 -0.0034364103066252365 -0.0006141327824914107 0.001078748050312803 0.0 0.0
0.0 0.001394411117060486 0.0012534407891734035 -0.0009672154436868261 -0.00028622534548657645 0.0002563391970538915 0.0 0.0
0.0 0.0001570784490703941 0.00013352773702338263 -9.319937086640445e-05 -4.032836615697781e-05 -6.407941763794346e-07 0.0 0.0
0.0 -5.93518270882302e-06 -5.592627771503728e-06 4.429095221210627e-06 1.1635325502931239e-06 -4.437592515622298e-06 0.0 0.0
0.0 0.0 0.0 0.0 0.0 0.0 0.0 0.0
0.0 0.0023532034570090087 0.0014185286599235267 -0.0007875611011556817 -0.0006309675587678478 0.004048753280693655 0.0 0.0
0.0 0.009708709702232584 0.006999963904384384 -0.009385906524096169 0.00238594261971178 0.0037310714386093787 0.0 0.0
0.0 0.0072235430217920775 0.005177202566118999 -0.007065720641981157 0.0018885180758621684 -0.0032030682170724398 0.0 0.0
0.0 0.001885055659688351 0.0009556533259095328 -0.0005205915566950798 -0.0004350617692144525 -0.0029726171680584204 0.0 0.0
0.0 0.0 0.0 0.0 0.0 0.0 0.0 0.0
0.0 -1.0045273818387318e-06 -4.085190466481758e-07 3.300572510334201e-07 7.846179561475637e-08 6.585398524340113e-07 0.0 0.0
0.0 7.431414569834679e-06 2.0059256161388947e-05 -1.1017260111965644e-05 -9.041996049423236e-06 1.5334543351713258e-05 0.0 0.0
0.0 0.0008385070017554024 0.0007212365693550615 -0.0005419438514783748 -0.000179292717876687 -0.00025331459684278486 0.0 0.0
0.0 0.0034057541917143696 0.0028799879599727112 -0.0023773435527163263 -0.0005026444072563788 -0.001142254200355417 0.0 0.0
0.0 0.007884744232046704 0.006933292237021343 -0.006185001564838197 -0.000748290672183159 -0.0029262246435601026 0.0 0.0
0.0 0.014943335226238882 0.012951312515316334 -0.01207990722056967 -0.0008714052947466718 -0.005477665265318563 0.0 0.0
0.0 0.0241838308310477 0.02081509764765651 -0.019866091078482973 -0.0009490065691735283 -0.008525582279375013 0.0 0.0
0.0 0.03533278032761344 0.03030144070645757 -0.029280431717654768 -0.0010210089888027995 -0.01180800231516481 0.0 0.0
0.0 0.048127201045094214 0.04119974384770293 -0.04010173698131293 -0.0010980068663899766 -0.015099050815348765 0.0 0.0
0.0 0.0624585477198062 0.05337384839732337 -0.05219618259355263 -0.0011776658037707351 -0.018352470977022355 0.0 0.0
0.0 0.07781519707103099 0.06672356407441905 -0.06547038793028236 -0.001253176144136687 -0.021592964724907588 0.0 0.0
0.0 0.09464621435839425 0.08109157621647904 -0.0797724447660253 -0.0013191314504537213 -0.02473672605709652 0.0 0.0
0.0 0.11231456890921279 0.09622385200383893 -0.09485123407600936 -0.0013726179278296137 -0.02753573333038286 0.0 0.0
0.0 0.13007277577328205 0.11168487915188983 -0.11027777470434327 -0.0014071044475465566 -0.02955646045018474 0.0 0.0
0.0 0.14741491104264606 0.1267164008578499 -0.1253067700283996 -0.0014096308294502457 -0.030122805359840722 0.0 0.0
0.0 0.1628606241226638 0.14014866278416152 -0.1387742953636155 -0.0013743674205458308 -0.028128420774229092 0.0 0.0
0.0 0.17465679007106508 0.15049337328102694 -0.1491690605147847 -0.0013243127662421349 -0.022039333809526145 0.0 0.0
0.0 0.18126965360150168 0.15528541201555798 -0.15452970822517684 -0.0007557037903811552 2.832803436270126e-14 0.0 0.0
0.0 0.17465679007103554 0.15049337328099943 -0.1491690605147547 -0.0013243127662446238 0.022039333809590087 0.0 0.0
0.0 0.16286062412261668 0.1401486627841172 -0.13877429536357186 -0.001374367420545131 0.028128420774293013 0.0 0.0
0.0 0.14741491104258045 0.1267164008577918 -0.1253067700283416 -0.001409630829450323 0.030122805359878442 0.0 0.0
0.0 0.13007277577320744 0.11168487915182514 -0.11027777470427994 -0.0014071044475451433 0.02955646045019296 0.0 0.0
0.0 0.11231456890912651 0.09622385200376454 -0.0948512340759345 -0.0013726179278300017 0.02753573333037143 0.0 0.0
0.0 0.0946462143583065 0.08109157621640317 -0.07977244476594958 -0.001319131450453656 0.024736726057084976 0.0 0.0
0.0 0.07781519707094413 0.06672356407434382 -0.06547038793020771 -0.0012531761441360023 0.021592964724895816 0.0 0.0
0.0 0.06245854771972681 0.05337384839725509 -0.05219618259348451 -0.0011776658037705114 0.01835247097700671 0.0 0.0
0.0 0.04812720104501726 0.04119974384763693 -0.04010173698124733 -0.0010980068663895576 0.015099050815325022 0.0 0.0
0.0 0.03533278032754938 0.030301440706403143 -0.029280431717601106 -0.0010210089888020534 0.011808002315139675 0.0 0.0
0.0 0.02418383083099205 0.020815097647609186 -0.019866091078435847 -0.0009490065691733128 0.00852558227935289 0.0 0.0
0.0 0.014943335226198793 0.012951312515281843 -0.012079907220535709 -0.0008714052947461344 0.005477665265303933 0.0 0.0
0.0 0.007884744232019672 0.006933292236998068 -0.0061850015648157244 -0.0007482906721823437 0.0029262246435487853 0.0 0.0
0.0 0.0034057541916982163 0.002879987959959514 -0.002377343552704688 -0.0005026444072548244 0.0011422542003495684 0.0 0.0
0.0 0.0008385070017498475 0.0007212365693509333 -0.0005419438514751976 -0.00017929271787573637 0.0002533145968410231 0.0 0.0
0.0 7.431414568720493e-06 2.0059256160895832e-05 -1.1017260111633609e-05 -9.041996049262354e-06 -1.5334543351633556e-05 0.0 0.0
0.0 -1.0045273816725458e-06 -4.08519046715996e-07 3.300572510850351e-07 7.846179563095426e-08 -6.585398525102639e-07 0.0 0.0
0.0 0.0 0.0 0.0 0.0 0.0 0.0 0.0
0.0 0.0018850556596809224 0.0009556533259058364 -0.0005205915566926275 -0.00043506176921320706 0.002972617168048437 0.0 0.0
0.0 0.007223543021774035 0.005177202566104879 -0.007065720641963196 0.0018885180758583075 0.00320306821706091 0.0 0.0
0.0 0.005333891957877437 0.00370833851788761 -0.0051475978247057 0.0014392593068180866 -0.0025184465829465 0.0 0.0
0.0 0.0012035624936975592 0.0006148457996276878 -0.00032828142814482985 -0.00028656437148285723 -0.0020867349827471014 0.0 0.0
0.0 0.0 0.0 0.0 0.0 0.0 0.0 0.0
0.0 -3.0767008409982425e-07 1.222217452610897e-07 -9.341848450383787e-08 -2.880326075725175e-08 -1.976237790890673e-07 0.0 0.0
0.0 -2.580839711412033e-05 -1.819179951052838e-05 1.5440451109198998e-05 2.7513484013293776e-06 3.209529040063598e-05 0.0 0.0
0.0 0.00037954312535681893 0.00034659722824661174 -0.00025363502732761683 -9.296220091899518e-05 -0.00019112683702472323 0.0 0.0
0.0 0.0021357262299187664 0.001882740389429152 -0.001508993156622932 -0.00037374723280622147 -0.0010807274993529545 0.0 0.0
0.0 0.006133421945576251 0.00505620617605253 -0.004407744297583224 -0.0006484618784692997 -0.0028522005336590775 0.0 0.0
0.0 0.011639869594739706 0.010039313258930217 -0.009242850049835525 -0.0007964632090947021 -0.005592236106970336 0.0 0.0
0.0 0.019596062873367293 0.01662111083893038 -0.0157457463625705 -0.000875364476359879 -0.008898964560837113 0.0 0.0
0.0 0.028997798991071872 0.02456006189559659 -0.02361841441735909 -0.0009416474782375086 -0.012429521740778323 0.0 0.0
0.0 0.03972701088895022 0.03364986777755409 -0.032637357692733446 -0.0010125100848206014 -0.01596641197830615 0.0 0.0
0.0 0.05165642642723131 0.0437802899996969 -0.042693782943855896 -0.001086507055841021 -0.019460540863681274 0.0 0.0
0.0 0.06479500976642667 0.05489369776783783 -0.053737336704258225 -0.0011563610635796004 -0.0229383500214745 0.0 0.0
0.0 0.07880842465641757 0.06690692822080922 -0.06568814591362643 -0.001218782307182862 -0.02631539593969545 0.0 0.0
0.0 0.09352930254478627 0.07964681402167875 -0.07837548563531695 -0.0012713283863617364 -0.029335246418999275 0.0 0.0
0.0 0.10910286561071023 0.09280750332198695 -0.09149690732444679 -0.0013105959975400726 -0.03162968212278424 0.0 0.0
0.0 0.12410761835646333 0.10587942053799139 -0.10454969622924612 -0.001329724308745352 -0.03256848949619932 0.0 0.0
0.0 0.1378062758427567 0.11799984126971848 -0.11668542743018426 -0.001314413839534188 -0.030791192255670258 0.0 0.0
0.0 0.1490812414702011 0.12792565631244276 -0.12665274833419965 -0.0012729079782430543 -0.024254061876419982 0.0 0.0
0.0 0.1561768005451386 0.13294112215233883 -0.13240642190425425 -0.0005347002480845051 2.89308507706032e-14 0.0 0.0
0.0 0.1490812414701785 0.12792565631241928 -0.12665274833417464 -0.0012729079782446058 0.02425406187648783 0.0 0.0
0.0 0.1378062758427172 0.11799984126968001 -0.11668542743014619 -0.001314413839533927 0.030791192255736285 0.0 0.0
0.0 0.12410761835640606 0.10587942053793975 -0.10454969622919419 -0.001329724308745426 0.03256848949623949 0.0 0.0
0.0 0.1091028656106453 0.09280750332193073 -0.09149690732439182 -0.0013105959975388186 0.031629682122791124 0.0 0.0
0.0 0.09352930254471487 0.07964681402161727 -0.07837548563525536 -0.0012713283863619994 0.02933524641898828 0.0 0.0
0.0 0.07880842465634712 0.06690692822074822 -0.0656881459135662 -0.0012187823071819607 0.026315395939681956 0.0 0.0
0.0 0.06479500976635416 0.05489369776777485 -0.05373733670419571 -0.0011563610635791362 0.022938350021460843 0.0 0.0
0.0 0.051656426427165045 0.043780289999640176 -0.04269378294379991 -0.001086507055840274 0.01946054086366593 0.0 0.0
0.0 0.03972701088888487 0.03364986777749896 -0.032637357692678455 -0.0010125100848205014 0.01596641197828148 0.0 0.0
0.0 0.028997798991017173 0.024560061895551176 -0.023618414417314233 -0.0009416474782369433 0.012429521740751664 0.0 0.0
0.0 0.01959606287332179 0.016621110838891933 -0.015745746362532634 -0.0008753644763592923 0.008898964560813422 0.0 0.0
0.0 0.011639869594705369 0.010039313258900758 -0.009242850049806677 -0.0007964632090940893 0.005592236106953486 0.0 0.0
0.0 0.006133421945553731 0.005056206176034401 -0.004407744297566075 -0.0006484618784683277 0.002852200533648452 0.0 0.0
0.0 0.002135726229906072 0.0018827403894189547 -0.001508993156614181 -0.0003737472328047737 0.0010807274993464738 0.0 0.0
0.0 0.0003795431253526813 0.00034659722824362943 -0.0002536350273253967 -9.296220091823234e-05 0.0001911268370228375 0.0 0.0
0.0 -2.5808397114566072e-05 -1.819179951012212e-05 1.5440451108876244e-05 2.7513484012458576e-06 -3.2095290399977526e-05 0.0 0.0
0.0 -3.076700840006869e-07 1.2222174521711336e-07 -9.341848446880822e-08 -2.8803260748301966e-08 1.9762377900990678e-07 0.0 0.0
0.0 0.0 0.0 0.0 0.0 0.0 0.0 0.0
0.0 0.001203562493692067 0.0006148457996251948 -0.00032828142814324724 -0.0002865643714819466 0.0020867349827397045 0.0 0.0
0.0 0.005333891957863145 0.003708338517876404 -0.005147597824691122 0.001439259306814715 0.002518446582938465 0.0 0.0
0.0 0.0036313413920467186 0.002532823659417589 -0.003570393312974988 0.0010375696535573939 -0.001890251723782038 0.0 0.0
0.0 0.0007770649417316328 0.00035342131570517655 -0.00017617679964698876 -0.00017724451605818716 -0.0013522291002620692 0.0 0.0
0.0 1.5734592941222573e-07 7.148379167026532e-10 -7.331624633568543e-11 -6.415216703671971e-10 3.250372699491736e-08 0.0 0.0
0.0 1.5712585741700463e-07 6.304622250958064e-09 -5.866682075806125e-09 -4.379401751547683e-10 3.806782874179354e-08 0.0 0.0
0.0 -1.9945506737593374e-05 -1.2984426675395873e-05 1.0415241857856445e-05 2.5691848175394873e-06 2.6908484495392692e-05 0.0 0.0
0.0 0.00012211327200136102 0.0001061084183873386 -7.438842932326843e-05 -3.1719989064070254e-05 -8.164858810299107e-05 0.0 0.0
0.0 0.0012850891363749277 0.0010588633852217175 -0.0008249241172334455 -0.0002339392679882714 -0.000872547905491011 0.0 0.0
0.0 0.00401860632662694 0.0033770756724164548 -0.0028608483058331627 -0.0005162273665832886 -0.002548828642303396 0.0 0.0
0.0 0.009007739846068421 0.007231753571922891 -0.006533385085454926 -0.0006983684864679658 -0.005152397881490022 0.0 0.0
0.0 0.014947572817948687 0.012511736192870162 -0.011723083438849445 -0.0007886527540207212 -0.008472252470089425 0.0 0.0
0.0 0.022735406545139086 0.01888819951946733 -0.0180353852268813 -0.0008528142925860454 -0.012030808320598356 0.0 0.0
0.0 0.03143066880604182 0.026162407293292982 -0.02524478559776825 -0.0009176216955247557 -0.015592517639071704 0.0 0.0
0.0 0.04102994680889973 0.03424616557105131 -0.033261052250858916 -0.000985113320192341 -0.019098341501591554 0.0 0.0
0.0 0.05155014952360471 0.043123213885513254 -0.04207331335235279 -0.0010499005331605468 -0.022585475073471296 0.0 0.0
0.0 0.06289255314414585 0.052768190627256926 -0.051660394393318224 -0.0011077962339386407 -0.025984659928466672 0.0 0.0
0.0 0.07525244514202702 0.06308355074823717 -0.06192705611475783 -0.0011564946334794077 -0.029056031483549825 0.0 0.0
0.0 0.08750101467955805 0.07389062189886873 -0.07268891274658285 -0.0012017091522858962 -0.031455837059210755 0.0 0.0
0.0 0.10046046486330257 0.08491516843580643 -0.08367356659503361 -0.001241601840772703 -0.03271932772940708 0.0 0.0
0.0 0.11293815096270572 0.09568704252481779 -0.09443650913568977 -0.001250533389128145 -0.031557411034798526 0.0 0.0
0.0 0.12364797914386465 0.10527648439988965 -0.10405951579359823 -0.0012169686062914317 -0.02552819720440222 0.0 0.0
0.0 0.13150113691494605 0.11062068472172497 -0.11033853856117232 -0.00028214616055272204 2.824129818890242e-14 0.0 0.0
0.0 0.12364797914385044 0.10527648439987186 -0.10405951579357997 -0.0012169686062919233 0.025528197204470693 0.0 0.0
0.0 0.11293815096267608 0.09568704252478732 -0.09443650913565943 -0.001250533389127906 0.03155741103486552 0.0 0.0
0.0 0.10046046486325282 0.08491516843576075 -0.08367356659498743 -0.0012416018407733526 0.03271932772944747 0.0 0.0
0.0 0.0875010146795022 0.07389062189882127 -0.07268891274653554 -0.0012017091522857097 0.03145583705921385 0.0 0.0
0.0 0.07525244514196572 0.06308355074818503 -0.0619270561147053 -0.0011564946334797924 0.029056031483535714 0.0 0.0
0.0 0.06289255314408936 0.0527681906272076 -0.051660394393269846 -0.0011077962339377302 0.025984659928452433 0.0 0.0
0.0 0.05155014952354896 0.04312321388546517 -0.04207331335230494 -0.001049900533160182 0.022585475073458577 0.0 0.0
0.0 0.04102994680884915 0.03424616557100829 -0.03326105225081704 -0.0009851133201912814 0.019098341501576348 0.0 0.0
0.0 0.031430668805989916 0.026162407293250013 -0.025244785597725448 -0.000917621695524587 0.015592517639048717 0.0 0.0
0.0 0.02273540654509163 0.018888199519429032 -0.018035385226843254 -0.0008528142925857755 0.01203080832057006 0.0 0.0
0.0 0.014947572817910964 0.01251173619283921 -0.01172308343881893 -0.0007886527540202873 0.008472252470065509 0.0 0.0
0.0 0.009007739846040213 0.007231753571900847 -0.006533385085433488 -0.0006983684864673603 0.005152397881474619 0.0 0.0
0.0 0.004018606326608541 0.0033770756724017703 -0.002860848305819504 -0.0005162273665822611 0.0025488286422923547 0.0 0.0
0.0 0.001285089136367417 0.0010588633852163518 -0.0008249241172291028 -0.0002339392679872487 0.000872547905486711 0.0 0.0
0.0 0.00012211327199857628 0.00010610841838575097 -7.438842932208925e-05 -3.171998906366184e-05 8.164858810144142e-05 0.0 0.0
0.0 -1.9945506737746158e-05 -1.2984426675032218e-05 1.0415241857569963e-05 2.569184817462262e-06 -2.6908484494787812e-05 0.0 0.0
0.0 1.5712585721141057e-07 6.304622253475461e-09 -5.866682076920911e-09 -4.379401765531699e-10 -3.806782869747957e-08 0.0 0.0
0.0 1.5734592914948445e-07 7.148379181953433e-10 -7.331624793983198e-11 -6.415216702555217e-10 -3.250372694055046e-08 0.0 0.0
0.0 0.0007770649417270555 0.0003534213157033062 -0.000176176799645815 -0.00017724451605749062 0.0013522291002560209 0.0 0.0
0.0 0.0036313413920352404 0.002532823659408688 -0.0035703933129630737 0.001037569653554384 0.0018902517237760345 0.0 0.0
0.0 0.0027392732544796656 0.0015711213905038684 -0.0022469445608611395 0.000675823170357271 -0.001309178041984716 0.0 0.0
0.0 0.0003518526979757404 0.0001705830867162735 -7.233284095800931e-05 -9.825024575826442e-05 -0.0007779438112791322 0.0 0.0
0.0 1.0999190867885644e-06 7.731485794672985e-08 -7.885084908712033e-08 1.535991140390862e-09 -1.541623052567813e-06 0.0 0.0
0.0 -7.370217434911203e-07 1.8381971533907385e-08 -1.491869528953498e-08 -3.463276244372552e-09 -2.3402287013851862e-07 0.0 0.0
0.0 -1.0073210258365548e-05 -6.237602273820581e-06 4.978033580960787e-06 1.2595686928597913e-06 2.0466411346152673e-05 0.0 0.0
0.0 5.13499198257697e-06 5.792975148024491e-06 -1.7371678384312095e-06 -4.055807309593354e-06 -8.932264027177131e-07 0.0 0.0
0.0 0.0006106112869650905 0.00045949053355563403 -0.0003498903154782148 -0.00010960021807741864 -0.0005790079212142955 0.0 0.0
0.0 0.0024040507822083363 0.0019237841949555018 -0.0015783226007908399 -0.0003454615941646618 -0.002016890800096997 0.0 0.0
0.0 0.005835109397937065 0.0046507103109609755 -0.004090748418150415 -0.000559961892810561 -0.004296873500073419 0.0 0.0
0.0 0.010919766436163486 0.008544600527428106 -0.007868952272112862 -0.0006756482553152302 -0.007270773263617641 0.0 0.0
0.0 0.0165787717340771 0.013338659040003661 -0.012593792730001285 -0.0007448663100023739 -0.0105966559628516 0.0 0.0
0.0 0.023162764820567408 0.018794834799946494 -0.01798812191677249 -0.0008067128831740152 -0.013947174025654329 0.0 0.0
0.0 0.03049687647630748 0.024833637898091288 -0.0239656392653504 -0.0008679986327408858 -0.017242386766840576 0.0 0.0
0.0 0.03846873542954391 0.031469314851840825 -0.03054334981759327 -0.0009259650342474914 -0.02050852640644977 0.0 0.0
0.0 0.04724551085037766 0.038733217697388835 -0.037753623367367574 -0.0009795943300212554 -0.023717282533338328 0.0 0.0
0.0 0.05656719184239621 0.04660904289806764 -0.045583238551420414 -0.0010258043466471701 -0.026666065593105994 0.0 0.0
0.0 0.06661582998872934 0.054999070880872566 -0.05392925591293441 -0.0010698149679381752 -0.029003509944131454 0.0 0.0
0.0 0.07683084497155729 0.06384566266072278 -0.06271663757195202 -0.0011290250887706775 -0.030412152926447077 0.0 0.0
0.0 0.08729547325089158 0.07311605223079945 -0.07193936029238553 -0.001176691938413874 -0.0301465802943367 0.0 0.0
0.0 0.09777668262004759 0.08233559493096643 -0.08117518939455212 -0.0011604055364142559 -0.025682704571178615 0.0 0.0
0.0 0.10676974512832829 0.08809759864347605 -0.08810370743400614 6.108790529992978e-06 2.4581031654591357e-14 0.0 0.0
0.0 0.09777668262003919 0.08233559493095262 -0.08117518939453792 -0.0011604055364146317 0.025682704571240694 0.0 0.0
0.0 0.08729547325087389 0.07311605223077755 -0.0719393602923641 -0.001176691938413466 0.03014658029440331 0.0 0.0
0.0 0.0768308449715178 0.06384566266068657 -0.06271663757191473 -0.001129025088771762 0.030412152926483624 0.0 0.0
0.0 0.06661582998868783 0.05499907088083724 -0.05392925591290053 -0.0010698149679367018 0.029003509944133345 0.0 0.0
0.0 0.056567191842349776 0.046609042898029016 -0.04558323855138188 -0.001025804346647201 0.02666606559309018 0.0 0.0
0.0 0.0472455108503327 0.03873321769735058 -0.037753623367329625 -0.0009795943300209223 0.023717282533323534 0.0 0.0
0.0 0.038468735429503846 0.031469314851806506 -0.030543349817559372 -0.0009259650342471569 0.020508526406439107 0.0 0.0
0.0 0.03049687647626933 0.024833637898059802 -0.02396563926531944 -0.0008679986327403441 0.01724238676682616 0.0 0.0
0.0 0.023162764820528547 0.0187948347999147 -0.017988121916740984 -0.0008067128831736993 0.013947174025633486 0.0 0.0
0.0 0.016578771734043228 0.013338659039977399 -0.012593792729975531 -0.0007448663100018468 0.010596655962827415 0.0 0.0
0.0 0.010919766436131503 0.008544600527403544 -0.007868952272088529 -0.0006756482553150148 0.007270773263593952 0.0 0.0
0.0 0.005835109397916724 0.004650710310945024 -0.004090748418135439 -0.0005599618928095858 0.004296873500060431 0.0 0.0
0.0 0.0024040507821959873 0.0019237841949461501 -0.0015783226007825605 -0.00034546159416359 0.0020168908000876987 0.0 0.0
0.0 0.0006106112869603993 0.0004594905335523251 -0.0003498903154757516 -0.00010960021807657296 0.0005790079212103302 0.0 0.0
0.0 5.1349919814393945e-06 5.792975147887783e-06 -1.7371678383238991e-06 -4.055807309563815e-06 8.932264026202823e-07 0.0 0.0
0.0 -1.0073210259601303e-05 -6.237602273594661e-06 4.978033580791785e-06 1.259568692802854e-06 -2.0466411345325918e-05 0.0 0.0
0.0 -7.370217435292932e-07 1.83819716073575e-08 -1.4918695336988152e-08 -3.463276270369849e-09 2.3402287122962265e-07 0.0 0.0
0.0 1.0999190865002357e-06 7.731485794424029e-08 -7.885084909309373e-08 1.5359911488538796e-09 1.5416230527741616e-06 0.0 0.0
0.0 0.000351852697972485 0.0001705830867149911 -7.233284095720194e-05 -9.825024575778949e-05 0.0007779438112744082 0.0 0.0
0.0 0.0027392732544698653 0.001571121390497742 -0.0022469445608526246 0.0006758231703548833 0.0013091780419806998 0.0 0.0
0.0 0.0014532728933433021 0.0008807426653375518 -0.001277637540293599 0.00039689487495604735 -0.0008837431639479459 0.0 0.0
0.0 0.00013596866635479297 4.932711903555926e-05 9.639969372094455e-08 -4.9423518729279946e-05 -0.00034176490175706446 0.0 0.0
0.0 2.324677081327654e-06 2.0362062773192172e-08 -1.8324380809949777e-08 -2.037681963241502e-09 -7.382419323309055e-08 0.0 0.0
0.0 1.263860766738061e-06 -1.6924575008377002e-07 1.2818289241298117e-07 4.106285767078871e-08 1.1726239080062523e-06 0.0 0.0
0.0 -7.623196559588719e-06 -3.003937383048017e-06 2.4009327359383266e-06 6.03004647109695e-07 1.446496246306677e-05 0.0 0.0
0.0 -1.853247541623207e-05 -8.498427826476322e-06 7.554534532717667e-06 9.43893293758697e-07 1.4357021530091884e-05 0.0 0.0
0.0 0.00022337927278928945 0.00011263091585098442 -8.4963054646109e-05 -2.7667861204875765e-05 -0.0002756811552982806 0.0 0.0
0.0 0.0012168363567689642 0.0007783544358711962 -0.0006246103638931217 -0.00015374407197807407 -0.0012956357720816803 0.0 0.0
0.0 0.003266595455752793 0.002364318550400423 -0.002014428661398052 -0.0003498898890023703 -0.0030887671054812306 0.0 0.0
0.0 0.006563243708618774 0.004851169737837914 -0.0043510698463563174 -0.0005000998914816003 -0.005437549827538769 0.0 0.0
0.0 0.010470942308712247 0.008010007156272814 -0.007418587613090987 -0.0005914195431818264 -0.008182235678270016 0.0 0.0
0.0 0.015089995867624073 0.011625622735321094 -0.0109692263083335 -0.0006563964269875875 -0.011031492879772035 0.0 0.0
0.0 0.02011305924703544 0.015621274149943581 -0.014906451956409175 -0.0007148221935343948 -0.013896247426635906 0.0 0.0
0.0 0.02558725127198185 0.020019187997232835 -0.0192530157117184 -0.0007661722855144525 -0.01674010888710507 0.0 0.0
0.0 0.03164836609911885 0.024888020815750138 -0.024073450056173076 -0.0008145707595770544 -0.019540789145295306 0.0 0.0
0.0 0.03834296603081458 0.03029480425146667 -0.029434133705385574 -0.0008606705460810853 -0.022206722217988178 0.0 0.0
0.0 0.04557171616960972 0.03624761185946304 -0.03534286494883237 -0.0009047469106306609 -0.02443102254467815 0.0 0.0
0.0 0.053132268972914586 0.04278084625509644 -0.041815792261734236 -0.0009650539933622513 -0.025807306805939522 0.0 0.0
0.0 0.061688781684085564 0.05022959738154848 -0.049170859308851844 -0.0010587380726966005 -0.02616914044069006 0.0 0.0
0.0 0.07172966362483069 0.05885468468767331 -0.05775424086126067 -0.0011004438264126408 -0.024226960637468174 0.0 0.0
0.0 0.08208214220140296 0.06510410023225707 -0.06543722871601848 0.0003331284837613142 2.271099974748836e-14 0.0 0.0
0.0 0.07172966362483241 0.058854684687666914 -0.05775424086125332 -0.0011004438264135752 0.024226960637524712 0.0 0.0
0.0 0.06168878168407079 0.05022959738152983 -0.049170859308832915 -0.0010587380726968826 0.02616914044074709 0.0 0.0
0.0 0.053132268972883596 0.04278084625506884 -0.04181579226170596 -0.0009650539933628839 0.02580730680596651 0.0 0.0
0.0 0.04557171616957464 0.03624761185943486 -0.035342864948805106 -0.0009047469106297684 0.02443102254467447 0.0 0.0
0.0 0.03834296603078227 0.030294804251440405 -0.029434133705359827 -0.0008606705460805653 0.02220672221797266 0.0 0.0
0.0 0.031648366099088075 0.024888020815724984 -0.024073450056147815 -0.0008145707595771804 0.019540789145282986 0.0 0.0
0.0 0.025587251271955488 0.020019187997210836 -0.019253015711696735 -0.0007661722855141098 0.016740108887095848 0.0 0.0
0.0 0.020113059247009298 0.015621274149922842 -0.014906451956388645 -0.0007148221935341875 0.013896247426623914 0.0 0.0
0.0 0.015089995867597671 0.01162562273530171 -0.010969226308314135 -0.0006563964269875665 0.011031492879753673 0.0 0.0
0.0 0.010470942308691266 0.008010007156257342 -0.007418587613076084 -0.0005914195431812473 0.008182235678251689 0.0 0.0
0.0 0.006563243708598996 0.004851169737823991 -0.004351069846342706 -0.0005000998914812911 0.005437549827521544 0.0 0.0
0.0 0.0032665954557403046 0.002364318550391215 -0.0020144286613896193 -0.0003498898890015934 0.0030887671054719225 0.0 0.0
0.0 0.0012168363567619655 0.0007783544358665971 -0.000624610363889193 -0.00015374407197740433 0.001295635772075241 0.0 0.0
0.0 0.0002233792727846968 0.00011263091584925398 -8.496305464475147e-05 -2.7667861204502288e-05 0.0002756811552944083 0.0 0.0
0.0 -1.85324754165163e-05 -8.4984278260646e-06 7.554534532400531e-06 9.438932936640189e-07 -1.4357021528671188e-05 0.0 0.0
0.0 -7.623196559706489e-06 -3.003937382925455e-06 2.4009327358470736e-06 6.030046470783882e-07 -1.4464962461943574e-05 0.0 0.0
0.0 1.2638607662651332e-06 -1.692457501231803e-07 1.2818289244511588e-07 4.106285767806532e-08 -1.172623908073879e-06 0.0 0.0
0.0 2.3246770815145498e-06 2.0362062804161722e-08 -1.832438084454802e-08 -2.037681959613304e-09 7.382419428419705e-08 0.0 0.0
0.0 0.00013596866635203327 4.932711903488844e-05 9.639969409412526e-08 -4.9423518728982136e-05 0.00034176490175433704 0.0 0.0
0.0 0.0014532728933362416 0.000880742665333457 -0.0012776375402877404 0.00039689487495428243 0.0008837431639448826 0.0 0.0
0.0 0.0007170803976622619 0.0003899739270934575 -0.000571476795239648 0.00018150286814619133 -0.0004822210944518999 0.0 0.0
0.0 -4.4869277871823894e-07 -9.771285084915718e-06 3.081306296456975e-05 -2.1041777879654134e-05 -6.379860763663078e-05 0.0 0.0
0.0 3.6776090332831278e-06 6.669058099089234e-08 -1.46332598478772e-07 7.96420174878801e-08 -4.323600742385028e-06 0.0 0.0
0.0 2.012521989010183e-06 -1.6288227648060073e-07 1.4758095055070854e-07 1.5301325929890233e-08 -3.047647931730321e-06 0.0 0.0
0.0 -4.3307649781315585e-06 -1.2966285976460853e-06 1.0968942314292225e-06 1.9973436621687007e-07 9.388785700487157e-06 0.0 0.0
0.0 -2.169407154481199e-06 -4.101470628283464e-06 3.6071786186434817e-06 4.942920096399508e-07 6.806608662533567e-06 0.0 0.0
0.0 8.970882233357705e-05 9.214003874048116e-06 -6.7314481182946174e-06 -2.482555755753453e-06 -0.00013234532235657302 0.0 0.0
0.0 0.00039262559720041316 0.00011440299709999339 -9.63947050166218e-05 -1.8008292083371613e-05 -0.0005951906211783616 0.0 0.0
0.0 0.0012069504447875263 0.000555908611993824 -0.0004899403279912498 -6.596828400257375e-05 -0.0016471086953517833 0.0 0.0
0.0 0.0027766681294912336 0.0015799080684460486 -0.0014239223661360926 -0.00015598570230995583 -0.003260707894315682 0.0 0.0
0.0 0.0050758394934164635 0.0030729266542435323 -0.002819700974944601 -0.0002532256792989279 -0.005185064068845713 0.0 0.0
0.0 0.007490522433664531 0.004832057052409886 -0.004497531796287884 -0.00033452525612200827 -0.00733289065855418 0.0 0.0
0.0 0.010314146812869615 0.006782473866247837 -0.006381489191990747 -0.00040098467425708794 -0.009605992811193105 0.0 0.0
0.0 0.013458828097443773 0.00895191336579609 -0.008495346228274038 -0.0004565671375220477 -0.01195214584358345 0.0 0.0
0.0 0.016945894579124522 0.011420637147356054 -0.010910846963055373 -0.0005097901843006868 -0.014357149076021347 0.0 0.0
0.0 0.020921727912276228 0.01431752844213524 -0.013751472732580343 -0.0005660557095548976 -0.016781163633913236 0.0 0.0
0.0 0.025545753563233232 0.017797430220922776 -0.01717092770205411 -0.0006265025188686829 -0.019016054539972647 0.0 0.0
0.0 0.03084150133082493 0.021991737256190105 -0.021303953556696422 -0.0006877836994936885 -0.020514416460802657 0.0 0.0
0.0 0.036938582807839224 0.02725688372309495 -0.02646877048137466 -0.0007881132417202958 -0.02083137066122677 0.0 0.0
0.0 0.045210426476613635 0.03465516142694568 -0.03368993781560029 -0.000965223611345343 -0.02064388246530508 0.0 0.0
0.0 0.05857145992498287 0.04131627164194636 -0.04202941013863927 0.0007131384966929299 1.6589160600766206e-14 0.0 0.0
0.0 0.045210426476620276 0.034655161426941826 -0.03368993781559654 -0.00096522361134534 0.0206438824653523 0.0 0.0
0.0 0.036938582807834186 0.027256883723085764 -0.026468770481365186 -0.0007881132417205662 0.0208313706612718 0.0 0.0
0.0 0.030841501330805585 0.02199173725617564 -0.021303953556680785 -0.000687783699494848 0.020514416460818606 0.0 0.0
0.0 0.025545753563206205 0.01779743022090551 -0.017170927702037167 -0.0006265025188683746 0.019016054539963273 0.0 0.0
0.0 0.020921727912254207 0.014317528442120257 -0.013751472732564753 -0.0005660557095554992 0.016781163633895823 0.0 0.0
0.0 0.016945894579109274 0.011420637147345128 -0.010910846963044351 -0.0005097901843007849 0.014357149076010595 0.0 0.0
0.0 0.013458828097429529 0.00895191336578661 -0.00849534622826466 -0.0004565671375219516 0.011952145843575745 0.0 0.0
0.0 0.010314146812853269 0.0067824738662375875 -0.006381489191981298 -0.00040098467425629816 0.009605992811180748 0.0 0.0
0.0 0.007490522433651331 0.004832057052402083 -0.0044975317962805805 -0.000334525256121503 0.007332890658541696 0.0 0.0
0.0 0.00507583949340371 0.003072926654236679 -0.0028197009749378193 -0.00025322567929885733 0.005185064068831235 0.0 0.0
0.0 0.002776668129481591 0.0015799080684405443 -0.0014239223661311382 -0.00015598570230940625 0.0032607078943060743 0.0 0.0
0.0 0.0012069504447833888 0.0005559086119914386 -0.0004899403279891841 -6.596828400225387e-05 0.0016471086953469278 0.0 0.0
0.0 0.00039262559719761944 0.00011440299709903262 -9.639470501576639e-05 -1.800829208326614e-05 0.0005951906211748377 0.0 0.0
0.0 8.970882233191329e-05 9.214003873919452e-06 -6.731448118169094e-06 -2.482555755750372e-06 0.00013234532235542368 0.0 0.0
0.0 -2.169407154654495e-06 -4.1014706280144565e-06 3.6071786184314313e-06 4.942920095830272e-07 -6.8066086609045235e-06 0.0 0.0
0.0 -4.330764978662221e-06 -1.2966285976160177e-06 1.0968942314130884e-06 1.997343662029262e-07 -9.388785699609891e-06 0.0 0.0
0.0 2.0125219889309027e-06 -1.6288227649955206e-07 1.475809505684632e-07 1.530132593108946e-08 3.0476479323895285e-06 0.0 0.0
0.0 3.6776090331210484e-06 6.669058099453228e-08 -1.4633259849339898e-07 7.964201749886317e-08 4.323600743030984e-06 0.0 0.0
0.0 -4.486927801513077e-07 -9.771285085069882e-06 3.081306296458405e-05 -2.10417778795141e-05 6.3798607635219e-05 0.0 0.0
0.0 0.0007170803976574862 0.00038997392709106755 -0.0005714767952361526 0.00018150286814508452 0.00048222109444956077 0.0 0.0
0.0 0.00018796199973238937 0.00010793748047691331 -0.0001607085497043523 5.277106922743882e-05 -0.00016943408339385914 0.0 0.0
0.0 -2.553346242909695e-05 -1.486890628007147e-05 2.1608602860805138e-05 -6.7396965807336295e-06 2.3900642665174643e-05 0.0 0.0
0.0 3.852037051218971e-06 1.7389997308697943e-07 -1.6788478852575914e-07 -6.0151845612242955e-09 2.1989665156454084e-06 0.0 0.0
0.0 3.987176093365139e-06 -3.8271434684479276e-07 3.1796511193427933e-07 6.474923491051627e-08 -5.1607985217436e-06 0.0 0.0
0.0 8.89565336238305e-08 -5.52976930438147e-07 5.432251720678032e-07 9.751758370341465e-09 7.721399231199737e-07 0.0 0.0
0.0 6.894227256239281e-06 -1.48347989858555e-06 1.5308879069810793e-06 -4.740800839552994e-08 -4.120018105433678e-06 0.0 0.0
0.0 9.084603556328503e-05 -2.150105609066333e-06 2.1437220345464802e-06 6.383574519850619e-09 -0.00013387290021534223 0.0 0.0
0.0 0.00022218791305293658 -1.5368957413243494e-06 1.5171701781518295e-06 1.972556317255234e-08 -0.00038458609147338656 0.0 0.0
0.0 0.0004873273848193452 -5.298665665300112e-07 4.890448929136848e-07 4.0821673616283224e-08 -0.0007920287681016999 0.0 0.0
0.0 0.0008229380160482212 -3.93934220316918e-08 5.4130582509713315e-08 -1.4737160478285789e-08 -0.0016207594997154683 0.0 0.0
0.0 0.0016247797704431032 -2.453380760210713e-07 3.608636023391665e-07 -1.1552552631810878e-07 -0.0030663658419709185 0.0 0.0
0.0 0.0027018124389919106 -9.961778289236452e-06 1.2572373566539113e-05 -2.6105952773024032e-06 -0.005018395053776231 0.0 0.0
0.0 0.004103148018015801 -2.7960138729790185e-05 3.187572783487771e-05 -3.915589105085981e-06 -0.007117734245077369 0.0 0.0
0.0 0.005689101846646101 -3.473552900373604e-05 3.524042797646684e-05 -5.048989727302077e-07 -0.009326624454066595 0.0 0.0
0.0 0.007433054482287748 4.966590014397992e-05 -6.356922915902962e-05 1.3903329015049531e-05 -0.01165253337082934 0.0 0.0
0.0 0.009290046317722924 0.000399125278062439 -0.0004418830193461356 4.275774128369237e-05 -0.014083461117451325 0.0 0.0
0.0 0.011296948359702063 0.0012942365326245083 -0.0013852654294885264 9.102889686402168e-05 -0.016537044636822876 0.0 0.0
0.0 0.013377358789563325 0.0029811590634043757 -0.003189878629605151 0.0002087195662007761 -0.018786605298567967 0.0 0.0
0.0 0.016207981488374715 0.005154062620966935 -0.0055460085452678255 0.0003919459243008959 -0.020422175786093056 0.0 0.0
0.0 0.023325759654602114 0.010057748838872255 -0.009783094099400131 -0.0002746547394721304 -0.0211943783387506 0.0 0.0
0.0 0.04170804995861601 0.01746722914162361 -0.01879089336677056 0.0013236642251469432 1.1979132963357841e-14 0.0 0.0
0.0 0.023325759654605826 0.010057748838867309 -0.00978309409939609 -0.0002746547394712024 0.02119437833877995 0.0 0.0
0.0 0.016207981488368238 0.005154062620964173 -0.005546008545265109 0.00039194592430092707 0.02042217578610567 0.0 0.0
0.0 0.01337735878955421 0.0029811590634047326 -0.0031898786296062276 0.00020871956620149878 0.018786605298564667 0.0 0.0
0.0 0.011296948359686733 0.001294236532622939 -0.0013852654294861722 9.102889686323374e-05 0.016537044636806185 0.0 0.0
0.0 0.009290046317712724 0.0003991252780653359 -0.0004418830193497634 4.2757741284425184e-05 0.01408346111743886 0.0 0.0
0.0 0.007433054482276845 4.966590014574674e-05 -6.356922916059206e-05 1.3903329014848412e-05 0.011652533370814957 0.0 0.0
0.0 0.005689101846635967 -3.4735528999678194e-05 3.524042797209946e-05 -5.048989724221046e-07 0.00932662445405689 0.0 0.0
0.0 0.00410314801800196 -2.7960138727355717e-05 3.187572783261655e-05 -3.915589105260903e-06 0.007117734245059731 0.0 0.0
0.0 0.0027018124389828315 -9.961778288780383e-06 1.2572373566574946e-05 -2.610595277795268e-06 0.00501839505376407 0.0 0.0
0.0 0.0016247797704342058 -2.453380740550875e-07 3.6086359998300545e-07 -1.1552552592754528e-07 0.003066365841958322 0.0 0.0
0.0 0.0008229380160470697 -3.9393422992349135e-08 5.4130583445732156e-08 -1.4737160453352527e-08 0.0016207594997143468 0.0 0.0
0.0 0.0004873273848179379 -5.298665666358463e-07 4.89044893058192e-07 4.082167357747641e-08 0.0007920287680992419 0.0 0.0
0.0 0.00022218791305132738 -1.5368957413522566e-06 1.5171701782152316e-06 1.972556313699538e-08 0.00038458609147053483 0.0 0.0
0.0 9.084603556228744e-05 -2.1501056090565253e-06 2.1437220345381382e-06 6.383574518428397e-09 0.00013387290021530475 0.0 0.0
0.0 6.894227255371399e-06 -1.4834798985817926e-06 1.53088790697323e-06 -4.740800839144775e-08 4.1200181057971735e-06 0.0 0.0
0.0 8.895653267125306e-08 -5.529769304650896e-07 5.432251720901702e-07 9.751758374923916e-09 -7.721399224690135e-07 0.0 0.0
0.0 3.987176093336115e-06 -3.8271434689707947e-07 3.1796511198156797e-07 6.47492349155113e-08 5.160798522447624e-06 0.0 0.0
0.0 3.852037050425827e-06 1.738999730764547e-07 -1.6788478852267803e-07 -6.01518455376791e-09 -2.1989665149975023e-06 0.0 0.0
0.0 -2.5533462429072893e-05 -1.486890627979255e-05 2.1608602860441723e-05 -6.7396965806492e-06 -2.3900642663958154e-05 0.0 0.0
0.0 0.0001879619997303256 0.00010793748047626477 -0.00016070854970342015 5.277106922715558e-05 0.00016943408339297484 0.0 0.0
0.0 7.86757892122868e-06 2.7959290143827778e-06 -4.803583392775407e-06 2.007654378392595e-06 -4.059741675358004e-06 0.0 0.0
0.0 -1.8440124101006116e-06 -6.046888262193404e-07 9.221499485663298e-07 -3.1746112234699e-07 3.1633008550077284e-06 0.0 0.0
0.0 1.1958527800548129e-06 1.7251910529197252e-07 -2.4356445894861376e-07 7.104535365664123e-08 -2.1790665296308948e-06 0.0 0.0
0.0 6.180718528866549e-06 -4.710027552931475e-07 3.7017604587680673e-07 1.0082670941634178e-07 -6.18939240835563e-06 0.0 0.0
0.0 4.1159629785544926e-06 -7.813205431536805e-07 7.355451457975522e-07 4.5775397356125357e-08 -6.96742622960487e-06 0.0 0.0
0.0 1.1323281286117315e-05 -2.0183445474410566e-06 2.038027724927016e-06 -1.9683177485915232e-08 -2.4396772511945805e-05 0.0 0.0
0.0 0.00012302843761077887 -1.6527015162525528e-05 1.3483267709107631e-05 3.0437474534178365e-06 -0.00015370364153549317 0.0 0.0
0.0 0.00041076177293023885 -0.00012182970996429767 0.00010292284454491911 1.89068654193783e-05 -0.0006140087573099132 0.0 0.0
0.0 0.0012123524220061638 -0.000558387977621069 0.000492016866921241 6.637111069982781e-05 -0.0016561204765562117 0.0 0.0
0.0 0.0027754277738004643 -0.0015793916477932501 0.001423393946827929 0.000155997700965322 -0.0032611008839591336 0.0 0.0
0.0 0.005092714618946612 -0.0030778013591350934 0.002823906373676333 0.00025389498545875795 -0.005184147838602635 0.0 0.0
0.0 0.007537035301587206 -0.004863750398961683 0.004525598199456336 0.00033815219950534566 -0.007340836430020643 0.0 0.0
0.0 0.010391455784917921 -0.006853766135634764 0.006448784915361566 0.0004049812202731956 -0.009610704855798593 0.0 0.0
0.0 0.013517507401279428 -0.009018488284409962 0.008567148064897848 0.00045134021951212294 -0.011938931494836724 0.0 0.0
0.0 0.016718182045530338 -0.011255779058363204 0.01078134328353306 0.00047443577483014204 -0.014342040948510822 0.0 0.0
0.0 0.01980375237823133 -0.013322693815745095 0.012854521635205597 0.0004681721805394861 -0.01687010213831827 0.0 0.0
0.0 0.022340528827181273 -0.014824255196878727 0.014399459626057962 0.00042479557082077476 -0.019547674730458927 0.0 0.0
0.0 0.024102260864937004 -0.015278165790909397 0.014943094289290252 0.00033507150161914655 -0.02246811601318061 0.0 0.0
0.0 0.024142662010635307 -0.0141260682542727 0.013998381884155144 0.00012768637011756562 -0.025582521302176173 0.0 0.0
0.0 0.019689665431398863 -0.010277194418075265 0.010742106628248451 -0.000464912210173187 -0.027656299636377373 0.0 0.0
0.0 0.04034356940666943 -0.0059410995241474685 0.0032023136776838756 0.0027387858464635838 1.7780915628762273e-14 0.0 0.0
0.0 0.019689665431405167 -0.010277194418073309 0.010742106628246324 -0.0004649122101730125 0.027656299636397534 0.0 0.0
0.0 0.02414266201063636 -0.014126068254270291 0.013998381884153126 0.0001276863701171552 0.025582521302198586 0.0 0.0
0.0 0.024102260864912524 -0.01527816579089254 0.014943094289272454 0.00033507150162009235 0.02246811601317685 0.0 0.0
0.0 0.022340528827158233 -0.014824255196863272 0.014399459626042083 0.0004247955708212079 0.0195476747304441 0.0 0.0
0.0 0.019803752378208774 -0.013322693815728103 0.012854521635189634 0.0004681721805384753 0.016870102138302246 0.0 0.0
0.0 0.016718182045509712 -0.01125577905834753 0.010781343283518065 0.0004744357748294553 0.014342040948493801 0.0 0.0
0.0 0.013517507401260604 -0.009018488284394449 0.008567148064883385 0.0004513402195110639 0.011938931494826707 0.0 0.0
0.0 0.010391455784893821 -0.0068537661356172265 0.0064487849153443836 0.0004049812202728414 0.009610704855782233 0.0 0.0
0.0 0.007537035301565763 -0.00486375039894729 0.004525598199442073 0.00033815219950521035 0.007340836430001414 0.0 0.0
0.0 0.00509271461892546 -0.003077801359121268 0.0028239063736634046 0.0002538949854578653 0.005184147838584511 0.0 0.0
0.0 0.00277542777378473 -0.0015793916477830042 0.0014233939468185472 0.0001559977009644594 0.0032611008839451166 0.0 0.0
0.0 0.0012123524219999392 -0.0005583879776172287 0.0004920168669178618 6.637111069936701e-05 0.0016561204765500569 0.0 0.0
0.0 0.00041076177292769043 -0.00012182970996356965 0.00010292284454438901 1.8906865419180713e-05 0.0006140087573070399 0.0 0.0
0.0 0.00012302843760850473 -1.652701516226316e-05 1.3483267708854382e-05 3.0437474534087834e-06 0.000153703641533887 0.0 0.0
0.0 1.1323281285467097e-05 -2.0183445476325436e-06 2.0380277250792813e-06 -1.968317744672471e-08 2.439677251303311e-05 0.0 0.0
0.0 4.1159629778902485e-06 -7.813205432257679e-07 7.355451458589054e-07 4.5775397366849184e-08 6.967426230135642e-06 0.0 0.0
0.0 6.180718528395557e-06 -4.71002755405226e-07 3.7017604596960713e-07 1.0082670943561714e-07 6.189392409342953e-06 0.0 0.0
0.0 1.1958527796194458e-06 1.7251910527751062e-07 -2.4356445894631084e-07 7.104535366879568e-08 2.179066530194586e-06 0.0 0.0
0.0 -1.844012410246912e-06 -6.046888262919094e-07 9.221499486532216e-07 -3.17461122361316e-07 -3.1633008551467414e-06 0.0 0.0
0.0 7.867578919784548e-06 2.795929014768834e-06 -4.803583393352832e-06 2.0076543785840205e-06 4.059741676184829e-06 0.0 0.0
0.0 2.034611343575935e-06 -1.1794173393863115e-07 1.8495244463876623e-07 -6.701071070005743e-08 2.736999519842078e-07 0.0 0.0
0.0 5.387326738063918e-07 4.870683240679364e-08 -2.5074857104316116e-08 -2.3631975302492537e-08 6.296250928158352e-07 0.0 0.0
0.0 -1.1591828397465204e-06 5.351700069720187e-07 -4.6104562461486653e-07 -7.412438235716173e-08 3.064336770441496e-06 0.0 0.0
0.0 3.5413739630313696e-06 -7.18730763897756e-07 5.564804891348997e-07 1.6225027476284595e-07 -7.144980528561889e-06 0.0 0.0
0.0 7.282736373595176e-06 1.5125630672760454e-06 -1.1796264844493758e-06 -3.3293658282660363e-07 2.5087518342588215e-06 0.0 0.0
0.0 3.949032632468939e-05 -5.219484968392927e-06 4.234368983835974e-06 9.851159845569047e-07 -3.015348082336188e-05 0.0 0.0
0.0 0.00024936995594405627 -0.0001383725110684591 0.00010695795425189715 3.1414556816562227e-05 -0.0003487314400103521 0.0 0.0
0.0 0.0012399411201968005 -0.0007886625507525844 0.0006338486100123099 0.00015481394074027383 -0.0013230963794990825 0.0 0.0
0.0 0.0032679341025366442 -0.002364267166718093 0.0020141747442387454 0.0003500924224793478 -0.0030947132113404744 0.0 0.0
0.0 0.006561372158754399 -0.004850552358448316 0.004350381620004159 0.0005001707384441555 -0.005435742549628297 0.0 0.0
0.0 0.010480635905199044 -0.008018412203010038 0.007426698880203499 0.0005917133228065392 -0.008184658660583141 0.0 0.0
0.0 0.015124091881004605 -0.011655337161145663 0.010998058898848199 0.0006572782622974726 -0.011030776444190028 0.0 0.0
0.0 0.02017189319246349 -0.015681549087934815 0.014966472673666872 0.0007150764142679443 -0.013852782034671121 0.0 0.0
0.0 0.025609878448990122 -0.02006704586951659 0.019306916498147014 0.0007601293713695532 -0.016623559276942354 0.0 0.0
0.0 0.03140039842289777 -0.024707522604948837 0.023918454773043524 0.0007890678319053036 -0.019443396733369592 0.0 0.0
0.0 0.037253131277090866 -0.02932586707002855 0.028529366090198363 0.0007965009798301952 -0.022518257010677938 0.0 0.0
0.0 0.04261824717582393 -0.03345367060381578 0.03266890574145086 0.0007847648623649143 -0.026063950226465234 0.0 0.0
0.0 0.04665707778467955 -0.036464656988035096 0.0357067412835156 0.000757915704519535 -0.030178942807140872 0.0 0.0
0.0 0.04860934409432144 -0.03725854171530812 0.036601172720032986 0.0006573689952750826 -0.03409067911223304 0.0 0.0
0.0 0.04539336867727189 -0.03345418484285228 0.0330191686277611 0.0004350162150911329 -0.0351053365716396 0.0 0.0
0.0 0.04949179159109616 -0.027334849844784945 0.023820588256714896 0.0035142615880700465 2.0621525320674294e-14 0.0 0.0
0.0 0.04539336867727665 -0.033454184842845514 0.033019168627754635 0.00043501621509087695 0.03510533657168464 0.0 0.0
0.0 0.04860934409431736 -0.037258541715297154 0.03660117272002167 0.0006573689952754668 0.034090679112279455 0.0 0.0
0.0 0.046657077784647207 -0.03646465698800655 0.03570674128348728 0.000757915704519239 0.030178942807152154 0.0 0.0
0.0 0.04261824717578568 -0.033453670603785034 0.03266890574141979 0.0007847648623652375 0.02606395022645555 0.0 0.0
0.0 0.03725313127705618 -0.02932586707000034 0.028529366090170635 0.0007965009798296845 0.022518257010659844 0.0 0.0
0.0 0.031400398422861305 -0.02470752260491918 0.023918454773014755 0.0007890678319044416 0.019443396733350923 0.0 0.0
0.0 0.02560987844895761 -0.02006704586948892 0.019306916498119654 0.0007601293713692255 0.016623559276927186 0.0 0.0
0.0 0.02017189319242628 -0.015681549087904978 0.014966472673637262 0.0007150764142677166 0.0138527820346526 0.0 0.0
0.0 0.015124091880966715 -0.011655337161116672 0.010998058898819824 0.0006572782622968475 0.011030776444164128 0.0 0.0
0.0 0.010480635905166187 -0.00801841220298512 0.007426698880178752 0.0005917133228063679 0.008184658660557668 0.0 0.0
0.0 0.0065613721587294855 -0.004850552358429553 0.00435038161998607 0.0005001707384434852 0.005435742549610096 0.0 0.0
0.0 0.0032679341025203617 -0.002364267166705926 0.002014174744227682 0.0003500924224782451 0.003094713211328472 0.0 0.0
0.0 0.0012399411201902749 -0.0007886625507481154 0.0006338486100086905 0.00015481394073942365 0.001323096379493494 0.0 0.0
0.0 0.00024936995593864415 -0.00013837251106625526 0.00010695795425014074 3.1414556816114587e-05 0.00034873144000500023 0.0 0.0
0.0 3.949032632426449e-05 -5.219484968684494e-06 4.234368984083447e-06 9.851159846009337e-07 3.01534808245988e-05 0.0 0.0
0.0 7.282736372943315e-06 1.5125630669494373e-06 -1.179626484181152e-06 -3.3293658276828086e-07 -2.508751833147175e-06 0.0 0.0
0.0 3.541373962784385e-06 -7.187307640326247e-07 5.564804892466801e-07 1.6225027478594986e-07 7.144980529428527e-06 0.0 0.0
0.0 -1.1591828400981667e-06 5.351700069191119e-07 -4.6104562458878263e-07 -7.412438233032448e-08 -3.0643367695207536e-06 0.0 0.0
0.0 5.387326733905869e-07 4.8706832428337256e-08 -2.5074857117759148e-08 -2.3631975310575415e-08 -6.296250931217461e-07 0.0 0.0
0.0 2.034611343773175e-06 -1.1794173394994551e-07 1.849524446547311e-07 -6.701071070482646e-08 -2.7369995201493404e-07 0.0 0.0
0.0 0.0 0.0 0.0 0.0 0.0 0.0 0.0
0.0 1.4330218061379304e-07 -1.927739326335403e-09 5.368230958283013e-09 -3.440491631951829e-09 -1.6046871050176558e-09 0.0 0.0
0.0 -4.624917982502854e-07 5.884124560151269e-07 -4.7009456692815746e-07 -1.1831788908696234e-07 3.210696967199102e-06 0.0 0.0
0.0 1.7458420467111309e-06 1.156134902387905e-06 -9.821035972722113e-07 -1.7403130511569387e-07 1.5314096606252058e-06 0.0 0.0
0.0 7.023639092153163e-06 4.762622489462809e-07 -3.442467629413107e-07 -1.3201548600501038e-07 -5.751189289921934e-06 0.0 0.0
0.0 6.704937104703923e-05 -5.09526288476498e-05 3.872706635465834e-05 1.2225562492991617e-05 -0.00010578403440899398 0.0 0.0
0.0 0.0006994142425351376 -0.0004859313411002262 0.0003744315123716069 0.00011149982872861886 -0.0006356020043727931 0.0 0.0
0.0 0.0024215262961251216 -0.0019273302391772588 0.0015817823890381714 0.00034554785013908584 -0.0020370130587187714 0.0 0.0
0.0 0.005831238567279469 -0.004647039665430928 0.004086894840361168 0.0005601448250697541 -0.004295309734701483 0.0 0.0
0.0 0.010920956540993154 -0.00854558426726665 0.007869921232989872 0.0006756630342767856 -0.007268534142220561 0.0 0.0
0.0 0.016586338931124763 -0.01334852575856805 0.012603899029301844 0.0007446267292661973 -0.01060003557711918 0.0 0.0
0.0 0.023185185832807043 -0.018815062986041197 0.018008468410256294 0.0008065945757848925 -0.01393190553732123 0.0 0.0
0.0 0.03051388327979502 -0.02486198949604241 0.023994393234725443 0.0008675962613169761 -0.01714053638266868 0.0 0.0
0.0 0.038423479066371655 -0.031469367634866935 0.0305481023337709 0.0009212653010959906 -0.020259521193470676 0.0 0.0
0.0 0.04696428114155329 -0.03854160921552372 0.037582152022665634 0.000959457192858132 -0.023484527819915436 0.0 0.0
0.0 0.055644550046986485 -0.04578573287099405 0.044811469187973386 0.0009742636830206052 -0.027193173856537446 0.0 0.0
0.0 0.06422531589955649 -0.05262000501711468 0.05165665760032229 0.0009633474167923348 -0.031824782131450756 0.0 0.0
0.0 0.07116453547800364 -0.05805560129273567 0.05714627071285112 0.0009093305798845313 -0.037271599421945 0.0 0.0
0.0 0.07464359925862551 -0.06036125209236384 0.059570251970920876 0.0007910001214428997 -0.04206184426466529 0.0 0.0
0.0 0.07055698497549842 -0.05621370161074819 0.05573255651634999 0.0004811450943982229 -0.04339707900226747 0.0 0.0
0.0 0.06845133782698504 -0.048212202252538784 0.04398501055090073 0.004227191701638079 2.33736641153115e-14 0.0 0.0
0.0 0.070556984975502 -0.05621370161073993 0.05573255651634264 0.00048114509439731406 0.04339707900232377 0.0 0.0
0.0 0.0746435992586102 -0.06036125209234255 0.059570251970898984 0.0007910001214434926 0.04206184426472052 0.0 0.0
0.0 0.07116453547797282 -0.05805560129270532 0.05714627071282234 0.0009093305798829373 0.03727159942197189 0.0 0.0
0.0 0.06422531589950572 -0.05262000501707184 0.05165665760027962 0.0009633474167922837 0.031824782131444754 0.0 0.0
0.0 0.05564455004693283 -0.045785732870949225 0.04481146918792856 0.0009742636830206563 0.027193173856517455 0.0 0.0
0.0 0.04696428114150106 -0.038541609215480235 0.0375821520226227 0.0009594571928575345 0.02348452781989383 0.0 0.0
0.0 0.03842347906631771 -0.031469367634821485 0.03054810233372568 0.000921265301095802 0.020259521193449648 0.0 0.0
0.0 0.03051388327974465 -0.024861989496000648 0.02399439323468373 0.0008675962613169031 0.017140536382648827 0.0 0.0
0.0 0.023185185832760493 -0.018815062986003803 0.018008468410219514 0.0008065945757842863 0.013931905537295376 0.0 0.0
0.0 0.016586338931079973 -0.01334852575853278 0.012603899029266492 0.0007446267292662846 0.010600035577089493 0.0 0.0
0.0 0.010920956540956265 -0.008545584267237512 0.007869921232961093 0.0006756630342764123 0.007268534142196461 0.0 0.0
0.0 0.0058312385672558385 -0.004647039665412344 0.004086894840343954 0.0005601448250683892 0.00429530973468691 0.0 0.0
0.0 0.002421526296112743 -0.0019273302391677836 0.001581782389029997 0.00034554785013778724 0.0020370130587098745 0.0 0.0
0.0 0.000699414242528204 -0.00048593134109569037 0.0003744315123680626 0.00011149982872762782 0.0006356020043671777 0.0 0.0
0.0 6.70493710457592e-05 -5.0952628847534696e-05 3.872706635459461e-05 1.2225562492940081e-05 0.0001057840344091364 0.0 0.0
0.0 7.023639092019514e-06 4.762622485550512e-07 -3.442467626246193e-07 -1.3201548593042177e-07 5.7511892910220156e-06 0.0 0.0
0.0 1.7458420459235031e-06 1.1561349022836567e-06 -9.82103597186552e-07 -1.740313050971029e-07 -1.5314096599794272e-06 0.0 0.0
0.0 -4.62491798815442e-07 5.884124560511286e-07 -4.700945669567007e-07 -1.1831788909443492e-07 -3.2106969674727652e-06 0.0 0.0
0.0 1.4330218035934342e-07 -1.927739332148143e-09 5.368230958500235e-09 -3.4404916263492016e-09 1.6046872036609175e-09 0.0 0.0
0.0 0.0 0.0 0.0 0.0 0.0 0.0 0.0
0.0 0.0 0.0 0.0 0.0 0.0 0.0 0.0
0.0 -1.2025212151614905e-07 -2.8111852206668733e-09 1.9303984439410896e-09 8.807867767261456e-10 -2.3879236813071873e-08 0.0 0.0
0.0 -4.5349992767795943e-07 4.0942111898167863e-07 -3.271035115069475e-07 -8.231760747473356e-08 1.6919194994127098e-06 0.0 0.0
0.0 -2.729472947425746e-06 8.544479516527383e-07 -7.23615615054556e-07 -1.3083233659817122e-07 8.023490360847467e-07 0.0 0.0
0.0 8.449750197009553e-06 1.3969397410099435e-06 -1.5822927448349937e-06 1.8535300382504846e-07 1.4644578432762062e-06 0.0 0.0
0.0 0.00023915893433237926 -0.00016040233281432682 0.00012016842531752394 4.0233907496802815e-05 -0.00017565269543505624 0.0 0.0
0.0 0.0013091863775085625 -0.0010851858066261717 0.0008505064290530084 0.0002346793775731635 -0.000940328404135053 0.0 0.0
0.0 0.00402190673758497 -0.0033720234994284106 0.0028557539914021764 0.0005162695080262336 -0.002557748721254218 0.0 0.0
0.0 0.009002000816189761 -0.007227459467872284 0.006528715907652279 0.0006987435602200036 -0.005146151456846939 0.0 0.0
0.0 0.014950968215753547 -0.012515611045578448 0.011727105955944556 0.0007885050896339099 -0.008471202306817503 0.0 0.0
0.0 0.022747982096754233 -0.01889755560126912 0.018045524398875575 0.0008520312023935331 -0.01203272862724542 0.0 0.0
0.0 0.03143270538756446 -0.026165766744620417 0.02524950053634946 0.0009162662082709254 -0.015562095524727513 0.0 0.0
0.0 0.04098856857992353 -0.03422468979301835 0.03324091328719914 0.0009837765058192058 -0.018949048875549424 0.0 0.0
0.0 0.05141883393048959 -0.04305121778818156 0.04200354472839206 0.0010476730597894896 -0.02223379194040343 0.0 0.0
0.0 0.06259676309832041 -0.05257153663282227 0.05147440942256737 0.0010971272102548967 -0.025633405391740638 0.0 0.0
0.0 0.07457099895335305 -0.06248181083425861 0.06136364357536091 0.001118167258897693 -0.029662485754271706 0.0 0.0
0.0 0.08569186329140668 -0.07203576537661574 0.07093941018353915 0.0010963551930765008 -0.03485915758625908 0.0 0.0
0.0 0.09549779958159635 -0.07978720467041578 0.07877384094769443 0.0010133637227212697 -0.041020907503081204 0.0 0.0
0.0 0.10046854613294794 -0.0832580409519339 0.08242487108029 0.0008331698716438525 -0.046530435528456954 0.0 0.0
0.0 0.09536474417917132 -0.07831615800942408 0.07783406722116948 0.00048209078825461985 -0.048366353954294 0.0 0.0
0.0 0.08931874493094308 -0.06863059276415526 0.06378575953554705 0.004844833228608089 2.647534969035803e-14 0.0 0.0
0.0 0.09536474417917287 -0.07831615800941523 0.07783406722116185 0.0004820907882533371 0.04836635395435363 0.0 0.0
0.0 0.10046854613292609 -0.08325804095190703 0.08242487108026365 0.0008331698716432722 0.046530435528516864 0.0 0.0
0.0 0.09549779958155555 -0.079787204670377 0.078773840947657 0.0010133637227198319 0.041020907503112644 0.0 0.0
0.0 0.08569186329134428 -0.07203576537656226 0.07093941018348493 0.001096355193077353 0.034859157586256545 0.0 0.0
0.0 0.0745709989532856 -0.06248181083420137 0.06136364357530356 0.0011181672588977385 0.029662485754253433 0.0 0.0
0.0 0.06259676309825184 -0.052571536632763906 0.05147440942250966 0.0010971272102542934 0.02563340539171778 0.0 0.0
0.0 0.05141883393042381 -0.043051217788125276 0.042003544728336104 0.001047673059789185 0.022233791940382705 0.0 0.0
0.0 0.04098856857985734 -0.03422468979296263 0.033240913287143375 0.000983776505819229 0.018949048875527206 0.0 0.0
0.0 0.03143270538750559 -0.026165766744571134 0.02524950053630077 0.0009162662082703811 0.015562095524701454 0.0 0.0
0.0 0.022747982096699926 -0.018897555601224376 0.018045524398831315 0.0008520312023930623 0.012032728627214339 0.0 0.0
0.0 0.0149509682157095 -0.012515611045541898 0.01172710595590835 0.0007885050896335557 0.00847120230679195 0.0 0.0
0.0 0.009002000816159723 -0.007227459467848605 0.006528715907629544 0.0006987435602190642 0.005146151456830934 0.0 0.0
0.0 0.004021906737564775 -0.0033720234994125435 0.002855753991387562 0.0005162695080249808 0.0025577487212420607 0.0 0.0
0.0 0.0013091863774984075 -0.0010851858066186898 0.0008505064290468795 0.00023467937757180955 0.0009403284041287098 0.0 0.0
0.0 0.0002391589343296995 -0.00016040233281295254 0.00012016842531651979 4.0233907496432824e-05 0.0001756526954339243 0.0 0.0
0.0 8.449750196598381e-06 1.3969397404726044e-06 -1.5822927444063764e-06 1.853530039337678e-07 -1.4644578421233978e-06 0.0 0.0
0.0 -2.7294729474273773e-06 8.544479513409242e-07 -7.236156148115936e-07 -1.3083233652931257e-07 -8.023490350785298e-07 0.0 0.0
0.0 -4.5349992789650055e-07 4.09421119011712e-07 -3.2710351153243696e-07 -8.231760747927509e-08 -1.6919194995366182e-06 0.0 0.0
0.0 -1.2025212151506954e-07 -2.8111852205958148e-09 1.930398443898689e-09 8.807867766964716e-10 2.387923681280424e-08 0.0 0.0
0.0 0.0 0.0 0.0 0.0 0.0 0.0 0.0
0.0 0.0 0.0 0.0 0.0 0.0 0.0 0.0
0.0 0.0 0.0 0.0 0.0 0.0 0.0 0.0
0.0 -4.2973200351177824e-07 1.1077518089869554e-07 -8.701259257708534e-08 -2.37625883216115e-08 3.613280067324303e-07 0.0 0.0
0.0 -4.163506802075819e-06 3.2460955862161975e-06 -2.6276511746291456e-06 -6.184444115870266e-07 6.464780374040882e-06 0.0 0.0
0.0 1.0035402551804958e-05 -1.6463839356430193e-05 1.1234353017773035e-05 5.229486338657125e-06 -1.6016474537219568e-05 0.0 0.0
0.0 0.0005043999768426966 -0.00038829160340680545 0.0002918646587595033 9.642694464730221e-05 -0.0002681438786014703 0.0 0.0
0.0 0.002175578706168042 -0.001890629005200173 0.0015192023402590062 0.0003714266649411667 -0.0011209972098291975 0.0 0.0
0.0 0.006128241616383756 -0.005047440363882828 0.004398269212572172 0.0006491711513106556 -0.0028519004855514256 0.0 0.0
0.0 0.011637171126994722 -0.010036933700919798 0.00924022161299999 0.0007967120879198047 -0.005584893829776536 0.0 0.0
0.0 0.01960326258809009 -0.016627686012480405 0.015752662965819106 0.0008750230466613099 -0.008899354713526044 0.0 0.0
0.0 0.029005641778096985 -0.024566264304379255 0.023625951526529746 0.0009403127778494793 -0.012427855900562633 0.0 0.0
0.0 0.0397030368781905 -0.03363106006859308 0.0326212196069018 0.001009840461691306 -0.01592130846187121 0.0 0.0
0.0 0.05154921822319054 -0.043700050144851045 0.04261624670500299 0.0010838034398479553 -0.01928652128672887 0.0 0.0
0.0 0.06457212486831507 -0.0547361862524832 0.053579619214565215 0.001156567037918092 -0.022556756322570155 0.0 0.0
0.0 0.07849304505809036 -0.06668843003728848 0.06547001377821426 0.0012184162590741525 -0.02590664959155251 0.0 0.0
0.0 0.0930546381955725 -0.07924259287602006 0.07799703226398566 0.0012455606120343632 -0.029797210520320683 0.0 0.0
0.0 0.10777749451752415 -0.09145810379156784 0.09024879456791479 0.0012093092236530995 -0.03486078396221461 0.0 0.0
0.0 0.11972244372814589 -0.1014154072934655 0.10033051402288772 0.0010848932705775712 -0.041141380960278646 0.0 0.0
0.0 0.12540433470469853 -0.10589146119681203 0.10504072220449456 0.0008507389923174769 -0.047287666105598834 0.0 0.0
0.0 0.11978434854708829 -0.10020218687345729 0.09971771539611055 0.0004844714773467947 -0.05127216535323175 0.0 0.0
0.0 0.11168793542943325 -0.08910132959690331 0.08371648289479336 0.005384846702109966 2.6739027658706505e-14 0.0 0.0
0.0 0.11978434854708209 -0.10020218687344302 0.09971771539609735 0.0004844714773457561 0.05127216535329295 0.0 0.0
0.0 0.1254043347046686 -0.10589146119677977 0.10504072220446246 0.0008507389923173239 0.047287666105659716 0.0 0.0
0.0 0.11972244372809417 -0.10141540729341787 0.10033051402284068 0.0010848932705771871 0.04114138096031116 0.0 0.0
0.0 0.10777749451745271 -0.09145810379150598 0.09024879456785224 0.0012093092236536032 0.03486078396221505 0.0 0.0
0.0 0.09305463819549403 -0.07924259287595267 0.07799703226391859 0.0012455606120340907 0.029797210520307045 0.0 0.0
0.0 0.07849304505801014 -0.06668843003721946 0.0654700137781461 0.0012184162590733495 0.02590664959153412 0.0 0.0
0.0 0.06457212486823999 -0.05473618625241814 0.05357961921450107 0.00115656703791708 0.022556756322550466 0.0 0.0
0.0 0.051549218223112155 -0.04370005014478388 0.04261624670493601 0.0010838034398478066 0.019286521286708096 0.0 0.0
0.0 0.039703036878117 -0.033631060068530935 0.03262121960684005 0.00100984046169084 0.015921308461844964 0.0 0.0
0.0 0.029005641778032568 -0.024566264304325323 0.023625951526476247 0.0009403127778490705 0.012427855900532603 0.0 0.0
0.0 0.019603262588039027 -0.016627686012437713 0.015752662965776584 0.0008750230466611203 0.008899354713501187 0.0 0.0
0.0 0.011637171126959634 -0.010036933700889074 0.009240221612970119 0.0007967120879189531 0.005584893829759949 0.0 0.0
0.0 0.006128241616354498 -0.005047440363859436 0.00439826921254984 0.0006491711513095988 0.0028519004855370226 0.0 0.0
0.0 0.002175578706154856 -0.0018906290051893492 0.0015192023402499934 0.00037142666493935396 0.001120997209822811 0.0 0.0
0.0 0.0005043999768375391 -0.000388291603403406 0.00029186465875690284 9.642694464650329e-05 0.0002681438785993122 0.0 0.0
0.0 1.0035402551161499e-05 -1.6463839356622253e-05 1.1234353017944749e-05 5.229486338677466e-06 1.601647453776349e-05 0.0 0.0
0.0 -4.163506802740006e-06 3.2460955861823277e-06 -2.62765117460151e-06 -6.184444115808134e-07 -6.464780373847463e-06 0.0 0.0
0.0 -4.297320033328824e-07 1.107751809273055e-07 -8.701259259981834e-08 -2.376258832748576e-08 -3.613280068237002e-07 0.0 0.0
0.0 0.0 0.0 0.0 0.0 0.0 0.0 0.0
0.0 0.0 0.0 0.0 0.0 0.0 0.0 0.0
0.0 0.0 0.0 0.0 0.0 0.0 0.0 0.0
0.0 0.0 0.0 0.0 0.0 0.0 0.0 0.0
0.0 -1.9259891853480113e-07 -1.2438204119640457e-08 9.900711751953166e-09 2.537492367688598e-09 -3.208399983975565e-08 0.0 0.0
0.0 -5.662503302080833e-06 3.1720019953526804e-06 -2.6001086894772975e-06 -5.718933058754111e-07 5.442055850804507e-06 0.0 0.0
0.0 6.862334139072154e-05 -4.83387615931883e-05 3.3203053530897875e-05 1.5135708062290471e-05 -2.027185925463719e-05 0.0 0.0
0.0 0.000812765685108396 -0.0007638888263062349 0.0005810549605223976 0.00018283386578383688 -0.00034667016498531885 0.0 0.0
0.0 0.0034311596554663978 -0.0028748824620126235 0.0023748848917529565 0.0004999975702596654 -0.001167579246160369 0.0 0.0
0.0 0.00787682742645221 -0.0069260272326674855 0.006177141436748515 0.0007488857959189767 -0.002919541423315589 0.0 0.0
0.0 0.014945108996675413 -0.012952795191621885 0.012081222058528598 0.000871573133093274 -0.005471498565676821 0.0 0.0
0.0 0.024193558419929803 -0.020823134624039848 0.01987468253792091 0.0009484520861189516 -0.008527405082618934 0.0 0.0
0.0 0.035333079524881024 -0.03030106727957111 0.02928191500640624 0.001019152273164881 -0.01180177048746356 0.0 0.0
0.0 0.04807483989989958 -0.04115612295098058 0.04006183035634471 0.0010942925946358555 -0.015042659768301922 0.0 0.0
0.0 0.06229149994826654 -0.05323814659224215 0.05206450445164638 0.00117364214059572 -0.01818168827019763 0.0 0.0
0.0 0.07750746200080008 -0.0664800405778019 0.06522635330688575 0.0012536872709161461 -0.021263049064403038 0.0 0.0
0.0 0.09427028004853023 -0.08080469487671821 0.0794798248757195 0.0013248700009988023 -0.024352879303018864 0.0 0.0
0.0 0.11190139276097563 -0.0958931279289314 0.09453247110773395 0.001360656821197374 -0.027687189337123636 0.0 0.0
0.0 0.12901685424520637 -0.11067680129439735 0.10936141867191104 0.0013153826224862513 -0.03190364980785335 0.0 0.0
0.0 0.14337835767807106 -0.12279309657400493 0.1216417924085457 0.0011513041654591803 -0.03766039383225377 0.0 0.0
0.0 0.1504777467820641 -0.1283847936336588 0.12751792352811972 0.0008668701055389559 -0.04476239362173905 0.0 0.0
0.0 0.14439759972698682 -0.12227939879110712 0.12180238125441341 0.0004770175366936317 -0.0526176395896772 0.0 0.0
0.0 0.1347048935702665 -0.11004939873787983 0.10419511869134465 0.005854280046535233 2.445960101127298e-14 0.0 0.0
0.0 0.14439759972696972 -0.12227939879108529 0.12180238125439131 0.0004770175366938824 0.052617639589735386 0.0 0.0
0.0 0.15047774678202705 -0.12838479363362146 0.12751792352808317 0.000866870105538206 0.04476239362179583 0.0 0.0
0.0 0.14337835767800583 -0.12279309657394681 0.1216417924084879 0.0011513041654589553 0.0376603938322836 0.0 0.0
0.0 0.12901685424512813 -0.11067680129432884 0.10936141867184342 0.0013153826224853522 0.031903649807855795 0.0 0.0
0.0 0.11190139276087988 -0.09589312792884862 0.09453247110765112 0.0013606568211974091 0.027687189337112752 0.0 0.0
0.0 0.0942702800484385 -0.0808046948766389 0.07947982487564115 0.0013248700009977957 0.02435287930300531 0.0 0.0
0.0 0.07750746200070696 -0.06648004057772158 0.06522635330680612 0.0012536872709153783 0.021263049064384535 0.0 0.0
0.0 0.06229149994817558 -0.0532381465921634 0.05206450445156803 0.0011736421405953673 0.018181688270178107 0.0 0.0
0.0 0.04807483989981328 -0.041156122950907016 0.04006183035627129 0.0010942925946357312 0.015042659768276508 0.0 0.0
0.0 0.035333079524807215 -0.030301067279508143 0.029281915006343705 0.0010191522731644725 0.01180177048743586 0.0 0.0
0.0 0.02419355841986744 -0.0208231346239865 0.019874682537867762 0.0009484520861187155 0.008527405082595169 0.0 0.0
0.0 0.014945108996630917 -0.012952795191583379 0.012081222058490604 0.0008715731330927732 0.005471498565661221 0.0 0.0
0.0 0.007876827426420369 -0.006926027232640193 0.006177141436722261 0.0007488857959179291 0.0029195414233027326 0.0 0.0
0.0 0.0034311596554487634 -0.002874882461998452 0.0023748848917403355 0.0004999975702581176 0.001167579246153768 0.0 0.0
0.0 0.0008127656851006668 -0.0007638888263001902 0.0005810549605176012 0.00018283386578258804 0.00034667016498249586 0.0 0.0
0.0 6.862334138938122e-05 -4.8338761592952884e-05 3.320305353077285e-05 1.5135708062180028e-05 2.027185925480949e-05 0.0 0.0
0.0 -5.662503302096619e-06 3.172001995150351e-06 -2.6001086893225713e-06 -5.718933058277829e-07 -5.442055850538809e-06 0.0 0.0
0.0 -1.9259891850927365e-07 -1.243820411784055e-08 9.900711750511593e-09 2.5374923673294314e-09 3.208399983580417e-08 0.0 0.0
0.0 0.0 0.0 0.0 0.0 0.0 0.0 0.0
0.0 0.0 0.0 0.0 0.0 0.0 0.0 0.0
0.0 0.0 0.0 0.0 0.0 0.0 0.0 0.0
0.0 0.0 0.0 0.0 0.0 0.0 0.0 0.0
0.0 -7.18462332870173e-08 -5.322214849680892e-09 4.219826328331633e-09 1.102388521349622e-09 -1.0684932772376604e-08 0.0 0.0
0.0 -6.693530125710912e-06 4.736951793548271e-06 -3.931414119557541e-06 -8.055376739907252e-07 6.18240528661323e-06 0.0 0.0
0.0 0.0001676909937235504 -0.0001363635557021276 9.614567752345163e-05 4.021787817867615e-05 -3.181529474984292e-05 0.0 0.0
0.0 0.0014122481964429115 -0.001243334725952625 0.0009625440263892735 0.00028079069956335185 -0.0003076565870276414 0.0 0.0
0.0 0.004577935342427767 -0.0040419028218619275 0.0034293834911203534 0.0006125193307415737 -0.0010912665061726867 0.0 0.0
0.0 0.010033371463837579 -0.008904780466969027 0.008083205009707111 0.0008215754572619123 -0.0026367392538927453 0.0 0.0
0.0 0.01820046556531953 -0.015929641351092583 0.01499573586574092 0.0009339054853516639 -0.0047766802994203775 0.0 0.0
0.0 0.028869083314209343 -0.025053328371428717 0.024038852148863275 0.0010144762225654243 -0.007375823727260103 0.0 0.0
0.0 0.04166914053264815 -0.03605509461916626 0.03496373885478425 0.0010913557643819703 -0.01017025677164019 0.0 0.0
0.0 0.05644981606893665 -0.04869648458281388 0.047523914769094365 0.0011725698137195354 -0.012940936153671216 0.0 0.0
0.0 0.07269572632409896 -0.0628002899087096 0.061543013604487426 0.0012572763042222013 -0.015643016278117292 0.0 0.0
0.0 0.0908384194275517 -0.07823432077285394 0.07689454277983782 0.0013397779930160328 -0.01833596716470076 0.0 0.0
0.0 0.11000352770059735 -0.09485847681580684 0.0934437173104651 0.001414759505341724 -0.021006412945916163 0.0 0.0
0.0 0.1300180674161819 -0.11230263399720869 0.1108408607068915 0.0014617732903172338 -0.023560415121574464 0.0 0.0
0.0 0.14999168054771223 -0.12946573749631313 0.128039603505964 0.0014261339903491373 -0.026307273488817288 0.0 0.0
0.0 0.16676235821181354 -0.143789339785761 0.14255269991231947 0.0012366398734415401 -0.030694706692477272 0.0 0.0
0.0 0.17549647673484614 -0.150890410994129 0.14999740108349152 0.0008930099106374169 -0.03890532008197183 0.0 0.0
0.0 0.16979563943647832 -0.14493330379471542 0.1444856516380246 0.00044765215669100147 -0.05215114031190961 0.0 0.0
0.0 0.15941165348447273 -0.13190149544159824 0.1256555755696321 0.006245919871965964 2.2752633110911802e-14 0.0 0.0
0.0 0.16979563943645484 -0.14493330379468994 0.14448565163799879 0.00044765215669117825 0.052151140311959276 0.0 0.0
0.0 0.1754964767347976 -0.15089041099408398 0.14999740108344709 0.0008930099106368051 0.03890532008201879 0.0 0.0
0.0 0.166762358211734 -0.14378933978569142 0.14255269991224992 0.001236639873441531 0.03069470669250009 0.0 0.0
0.0 0.14999168054762016 -0.12946573749623302 0.1280396035058849 0.001426133990347998 0.02630727348881958 0.0 0.0
0.0 0.13001806741607402 -0.11230263399711535 0.11084086070679808 0.0014617732903172813 0.023560415121566772 0.0 0.0
0.0 0.11000352770048757 -0.09485847681571229 0.09344371731037072 0.0014147595053414794 0.021006412945904798 0.0 0.0
0.0 0.09083841942744206 -0.07823432077275891 0.0768945427797433 0.0013397779930155995 0.018335967164685423 0.0 0.0
0.0 0.07269572632399526 -0.06280028990862023 0.061543013604398414 0.0012572763042219379 0.01564301627810187 0.0 0.0
0.0 0.05644981606883582 -0.04869648458272695 0.04752391476900737 0.0011725698137195662 0.012940936153649114 0.0 0.0
0.0 0.04166914053256475 -0.03605509461909427 0.03496373885471298 0.0010913557643812898 0.010170256771616771 0.0 0.0
0.0 0.028869083314141168 -0.025053328371369865 0.024038852148804957 0.0010144762225649084 0.007375823727240506 0.0 0.0
0.0 0.018200465565264754 -0.015929641351045073 0.014995735865693693 0.0009339054853513768 0.004776680299405671 0.0 0.0
0.0 0.010033371463802681 -0.008904780466938099 0.00808320500967719 0.0008215754572609115 0.002636739253882291 0.0 0.0
0.0 0.004577935342407093 -0.00404190282184426 0.003429383491104253 0.0006125193307400051 0.0010912665061668105 0.0 0.0
0.0 0.0014122481964339536 -0.001243334725945407 0.0009625440263835185 0.0002807906995618896 0.00030765658702568545 0.0 0.0
0.0 0.00016769099372116996 -0.00013636355570073057 9.614567752243611e-05 4.021787817829457e-05 3.18152947495132e-05 0.0 0.0
0.0 -6.693530125960433e-06 4.7369517930186505e-06 -3.931414119154172e-06 -8.055376738644661e-07 -6.182405286125891e-06 0.0 0.0
0.0 -7.184623319621463e-08 -5.322214842869262e-09 4.219826322927047e-09 1.1023885199412321e-09 1.0684932758656047e-08 0.0 0.0
0.0 0.0 0.0 0.0 0.0 0.0 0.0 0.0
0.0 0.0 0.0 0.0 0.0 0.0 0.0 0.0
0.0 0.0 0.0 0.0 0.0 0.0 0.0 0.0
0.0 0.0 0.0 0.0 0.0 0.0 0.0 0.0
0.0 0.0 0.0 0.0 0.0 0.0 0.0 0.0
0.0 -8.255103695053817e-06 7.431200042396211e-06 -6.375063295735352e-06 -1.0561367466608833e-06 7.477579663166106e-06 0.0 0.0
0.0 0.00030828697800586136 -0.0003026829623517647 0.00021649536480355217 8.618759754821259e-05 -1.2630705059190587e-05 0.0 0.0
0.0 0.002164203899652939 -0.0018680516664735863 0.0014810620388292517 0.0003869896276443341 -0.00018427430470090964 0.0 0.0
0.0 0.005791178032949206 -0.005328165777129046 0.004628589620527434 0.0006995761566016073 -0.0008312023156691973 0.0 0.0
0.0 0.012294179361229176 -0.010939091764058499 0.010058765053729619 0.0008803267103289006 -0.0019460843154091702 0.0 0.0
0.0 0.021500771667476 -0.018928389485509598 0.017939339316584858 0.0009890501689247297 -0.0035229471720277503 0.0 0.0
0.0 0.03354002641312325 -0.0292765309805291 0.02820140454293415 0.001075126437594973 -0.005451364751703505 0.0 0.0
0.0 0.04808579225422368 -0.04178492579014851 0.040626206039649046 0.0011587197504994203 -0.0075398179698658785 0.0 0.0
0.0 0.06473577829898997 -0.05620854364516902 0.05496285029163392 0.0012456933535350315 -0.009619374182434241 0.0 0.0
0.0 0.083591472071346 -0.07233274102658667 0.07099811599251402 0.0013346250340727397 -0.011670295822254314 0.0 0.0
0.0 0.10372875791789647 -0.0899647723005421 0.08854529596429503 0.0014194763362470472 -0.013765776009807579 0.0 0.0
0.0 0.12555533053273152 -0.1088199114226342 0.10732850859703948 0.0014914028255946091 -0.015835466398128502 0.0 0.0
0.0 0.1481946330845506 -0.12839405987947733 0.12685668197790062 0.0015373779015767156 -0.017567580790097705 0.0 0.0
0.0 0.17043411421092142 -0.14763003174884418 0.1461004949302696 0.0015295368185746527 -0.018776398012581786 0.0 0.0
0.0 0.1896018754805248 -0.16417857797381483 0.1627937147259385 0.0013848632478763918 -0.020870395423072844 0.0 0.0
0.0 0.20068129509328497 -0.17345013559936068 0.17248621933318473 0.0009639162661757534 -0.02872681205844009 0.0 0.0
0.0 0.1963188882749783 -0.1685959620162482 0.16823055014386265 0.00036541187238543305 -0.04878979279375841 0.0 0.0
0.0 0.18598076990120374 -0.15524811208942363 0.14871835755704857 0.00652975453237492 1.753805434212552e-14 0.0 0.0
0.0 0.19631888827495014 -0.16859596201622037 0.16823055014383562 0.0003654118723847305 0.04878979279379895 0.0 0.0
0.0 0.20068129509321903 -0.17345013559930217 0.17248621933312522 0.0009639162661771949 0.028726812058479188 0.0 0.0
0.0 0.18960187548043345 -0.1641785779737358 0.16279371472586004 0.0013848632478756788 0.020870395423091083 0.0 0.0
0.0 0.17043411421081028 -0.14763003174874836 0.14610049493017352 0.0015295368185752087 0.018776398012583108 0.0 0.0
0.0 0.14819463308443304 -0.1283940598793754 0.12685668197779942 0.0015373779015760314 0.017567580790093 0.0 0.0
0.0 0.1255553305326079 -0.10881991142252732 0.10732850859693266 0.001491402825594714 0.015835466398122413 0.0 0.0
0.0 0.10372875791777518 -0.08996477230043676 0.08854529596419093 0.0014194763362458803 0.013765776009798388 0.0 0.0
0.0 0.08359147207122887 -0.07233274102648543 0.0709981159924127 0.001334625034072622 0.011670295822243897 0.0 0.0
0.0 0.06473577829887862 -0.05620854364507302 0.05496285029153826 0.0012456933535346813 0.00961937418241925 0.0 0.0
0.0 0.04808579225412987 -0.04178492579006668 0.040626206039567916 0.0011587197504987301 0.0075398179698482354 0.0 0.0
0.0 0.03354002641304944 -0.029276530980464493 0.028201404542870127 0.0010751264375943523 0.005451364751688548 0.0 0.0
0.0 0.021500771667416516 -0.018928389485457348 0.017939339316533225 0.0009890501689241396 0.003522947172017283 0.0 0.0
0.0 0.012294179361188005 -0.01093909176402208 0.010058765053693991 0.0008803267103280844 0.00194608431540091 0.0 0.0
0.0 0.005791178032923578 -0.005328165777105969 0.004628589620505843 0.0006995761566001361 0.000831202315664142 0.0 0.0
0.0 0.002164203899643595 -0.0018680516664656458 0.0014810620388226864 0.00038698962764295623 0.00018427430469988027 0.0 0.0
0.0 0.00030828697800159004 -0.0003026829623487064 0.00021649536480125076 8.618759754745552e-05 1.2630705058866484e-05 0.0 0.0
0.0 -8.255103695010001e-06 7.431200042031397e-06 -6.375063295449058e-06 -1.0561367465823835e-06 -7.477579662978265e-06 0.0 0.0
0.0 0.0 0.0 0.0 0.0 0.0 0.0 0.0
0.0 0.0 0.0 0.0 0.0 0.0 0.0 0.0
0.0 0.0 0.0 0.0 0.0 0.0 0.0 0.0
0.0 0.0 0.0 0.0 0.0 0.0 0.0 0.0
0.0 0.0 0.0 0.0 0.0 0.0 0.0 0.0
0.0 0.0 0.0 0.0 0.0 0.0 0.0 0.0
0.0 1.4178467528513278e-06 -3.592634767786171e-06 6.363355127108167e-07 2.9562992550753558e-06 8.854735448899712e-06 0.0 0.0
0.0 0.0006299780284351837 -0.0005442973664840068 0.0003960836233265132 0.00014821374315749375 7.18284619737905e-05 0.0 0.0
0.0 0.0029201049478800355 -0.0026245177516400256 0.0021357874398350374 0.0004887303118049858 3.911206471519048e-05 0.0 0.0
0.0 0.007335727744731111 -0.006670512289406527 0.005905946271664751 0.0007645660177417793 -0.0003015957253314316 0.0 0.0
0.0 0.01458358553749178 -0.012997165121307247 0.012068235426832698 0.0009289296944745282 -0.0008867826387352666 0.0 0.0
0.0 0.024880316898182514 -0.021909088726794458 0.020870382271168213 0.0010387064556262498 -0.0017171981797312248 0.0 0.0
0.0 0.03820113287386269 -0.033450909830189675 0.0323188050927293 0.0011321047374603598 -0.002758227228104798 0.0 0.0
0.0 0.05440619737296025 -0.04744959069885549 0.04622767012449704 0.0012219205743584757 -0.003904837584292473 0.0 0.0
0.0 0.07329223676598019 -0.06364912381561574 0.06233529764559031 0.0013138261700254778 -0.005073453454844095 0.0 0.0
0.0 0.09397826192822854 -0.08179904988078925 0.08039170558679791 0.0014073442939912556 -0.006276036358363635 0.0 0.0
0.0 0.1168731857714537 -0.10160847923045459 0.10011477337773193 0.0014937058527225672 -0.007526759310928515 0.0 0.0
0.0 0.1411876092383696 -0.1226521926085703 0.1210925712117169 0.0015596213968534314 -0.00875034637895877 0.0 0.0
0.0 0.16612391646028482 -0.1442172904121732 0.14262421470820394 0.0015930757039690508 -0.009694824153041947 0.0 0.0
0.0 0.1903447611543241 -0.16514741753298687 0.163556991790894 0.0015904257420930345 -0.00995659842265725 0.0 0.0
0.0 0.21160328196052539 -0.18352823047961994 0.18198372112753775 0.0015445093520821136 -0.009938728883914649 0.0 0.0
0.0 0.2256385568032716 -0.19562297892793673 0.19434490788005684 0.0012780710478797566 -0.014265659366236505 0.0 0.0
0.0 0.22448335693064578 -0.19381006077297358 0.19353107770324013 0.0002789830697332976 -0.03681057025647222 0.0 0.0
0.0 0.2157473249516416 -0.1813260132024232 0.17494664611011188 0.006379367092311277 9.766493169749424e-15 0.0 0.0
0.0 0.2244833569306099 -0.19381006077293994 0.19353107770320813 0.0002789830697317549 0.03681057025649645 0.0 0.0
0.0 0.22563855680319858 -0.1956229789278732 0.1943449078799934 0.0012780710478797791 0.014265659366259419 0.0 0.0
0.0 0.21160328196041475 -0.18352823047952477 0.18198372112744193 0.0015445093520828526 0.00993872888392254 0.0 0.0
0.0 0.19034476115419763 -0.16514741753287807 0.16355699179078417 0.0015904257420938591 0.00995659842265662 0.0 0.0
0.0 0.16612391646015096 -0.14421729041205697 0.14262421470808787 0.0015930757039689706 0.009694824153039353 0.0 0.0
0.0 0.1411876092382339 -0.12265219260845271 0.12109257121159991 0.0015596213968528958 0.008750346378956053 0.0 0.0
0.0 0.11687318577131933 -0.1016084792303381 0.10011477337761628 0.0014937058527217124 0.0075267593109247 0.0 0.0
0.0 0.09397826192809437 -0.08179904988067314 0.08039170558668199 0.0014073442939911557 0.006276036358357397 0.0 0.0
0.0 0.07329223676585887 -0.06364912381551084 0.06233529764548559 0.0013138261700252618 0.005073453454835944 0.0 0.0
0.0 0.05440619737285365 -0.047449590698763186 0.046227670124405165 0.001221920574358048 0.0039048375842821673 0.0 0.0
0.0 0.03820113287377874 -0.03345090983011624 0.03231880509265654 0.0011321047374597223 0.0027582272280956208 0.0 0.0
0.0 0.024880316898119266 -0.021909088726738662 0.020870382271113024 0.001038706455625629 0.0017171981797258372 0.0 0.0
0.0 0.014583585537444781 -0.012997165121265584 0.012068235426791687 0.0009289296944738988 0.0008867826387307304 0.0 0.0
0.0 0.007335727744701552 -0.0066705122893797545 0.005905946271639301 0.0007645660177404456 0.00030159572532863563 0.0 0.0
0.0 0.0029201049478662358 -0.0026245177516279255 0.0021357874398244426 0.000488730311803483 -3.9112064715552444e-05 0.0 0.0
0.0 0.0006299780284306074 -0.0005442973664805975 0.0003960836233240359 0.0001482137431565611 -7.182846197331148e-05 0.0 0.0
0.0 1.4178467526727157e-06 -3.592634768088304e-06 6.363355129517942e-07 2.956299255136612e-06 -8.854735448797755e-06 0.0 0.0
0.0 0.0 0.0 0.0 0.0 0.0 0.0 0.0
0.0 0.0 0.0 0.0 0.0 0.0 0.0 0.0
0.0 0.0 0.0 0.0 0.0 0.0 0.0 0.0
0.0 0.0 0.0 0.0 0.0 0.0 0.0 0.0
0.0 0.0 0.0 0.0 0.0 0.0 0.0 0.0
0.0 0.0 0.0 0.0 0.0 0.0 0.0 0.0
0.0 4.888390885749218e-05 -4.756486634566152e-05 3.10515243136709e-05 1.6513342031990644e-05 1.8819558453819816e-05 0.0 0.0
0.0 0.0010104376060144347 -0.000830732423797133 0.0006004367632320971 0.00023029566056503566 0.00019649031127074972 0.0 0.0
0.0 0.003670198783086288 -0.0033027436148503186 0.002658727103607813 0.0006440165112425028 0.00042678980726433276 0.0 0.0
0.0 0.008546714846286899 -0.007809461937255199 0.00682063831646872 0.0009888236207864938 0.0005576478478578453 0.0 0.0
0.0 0.016375746500872774 -0.01470025044128457 0.013442152050884794 0.0012580983903997805 0.000612235628558735 0.0 0.0
0.0 0.02738074974761155 -0.02434954192132304 0.022835480039289643 0.0015140618820333714 0.0005775767963524148 0.0 0.0
0.0 0.04174662605302151 -0.036860086907074215 0.035058738468202365 0.0018013484388717865 0.00040712573537261473 0.0 0.0
0.0 0.05929678015370049 -0.05208945821320078 0.049950960605638875 0.002138497607561886 0.0001374115288483354 0.0 0.0
0.0 0.07939330352948912 -0.06977275800388379 0.06724483989152459 0.0025279181123591477 -0.0002189928678758583 0.0 0.0
0.0 0.10203576937052486 -0.0895967687884226 0.08664156989273528 0.0029551988956872787 -0.0006867305309924202 0.0 0.0
0.0 0.1267534626935582 -0.11120070001906701 0.10780330653380832 0.0033973934852587727 -0.0012350431528744092 0.0 0.0
0.0 0.15294263573121897 -0.13405066060961543 0.1302316103702367 0.003819050239378661 -0.0018651206056457068 0.0 0.0
0.0 0.1796252185866745 -0.15725071799015644 0.15307804263710503 0.00417267535305157 -0.002447840299956044 0.0 0.0
0.0 0.20518727103998144 -0.17942498387251288 0.17501975911077067 0.004405224761741917 -0.0026759267917026586 0.0 0.0
0.0 0.22745672224766858 -0.1987333274985546 0.19423197213339527 0.004501355365159024 -0.0023938115843908474 0.0 0.0
0.0 0.24339742923247365 -0.21278405359379338 0.2081498143533498 0.004634239240443625 -0.004863921067208699 0.0 0.0
0.0 0.24667658042772014 -0.21615855980287502 0.21131530558246675 0.0048432542204083304 -0.028300460249342477 0.0 0.0
0.0 0.24273411032598402 -0.20713045406965874 0.19512517154177916 0.012005282527879056 3.6637359812630166e-15 0.0 0.0
0.0 0.246676580427679 -0.21615855980283782 0.21131530558243228 0.004843254220405403 0.028300460249350477 0.0 0.0
0.0 0.2433974292323985 -0.21278405359372707 0.20814981435328642 0.0046342392404402286 0.0048639210672155875 0.0 0.0
0.0 0.227456722247539 -0.1987333274984431 0.19423197213328358 0.004501355365159813 0.00239381158439066 0.0 0.0
0.0 0.2051872710398468 -0.17942498387239506 0.175019759110655 0.004405224761739741 0.0026759267917001 0.0 0.0
0.0 0.17962521858652628 -0.15725071799002766 0.15307804263697744 0.004172675353049768 0.0024478402999547413 0.0 0.0
0.0 0.15294263573107258 -0.13405066060948737 0.13023161037011122 0.0038190502393760273 0.0018651206056426728 0.0 0.0
0.0 0.1267534626934134 -0.11120070001894071 0.10780330653368406 0.0033973934852565366 0.0012350431528707455 0.0 0.0
0.0 0.10203576937038039 -0.08959676878829657 0.08664156989261139 0.002955198895685152 0.000686730530988975 0.0 0.0
0.0 0.07939330352935656 -0.0697727580037686 0.06724483989141103 0.0025279181123574264 0.0002189928678716247 0.0 0.0
0.0 0.05929678015358493 -0.05208945821309979 0.04995096060553972 0.0021384976075600735 -0.0001374115288510754 0.0 0.0
0.0 0.04174662605293134 -0.03686008690699549 0.035058738468125544 0.001801348438869889 -0.0004071257353753018 0.0 0.0
0.0 0.027380749747542753 -0.02434954192126243 0.022835480039230735 0.0015140618820316943 -0.0005775767963538221 0.0 0.0
0.0 0.01637574650082095 -0.014700250441238436 0.01344215205083995 0.0012580983903984811 -0.0006122356285584579 0.0 0.0
0.0 0.008546714846256995 -0.007809461937227846 0.0068206383164431065 0.0009888236207847379 -0.000557647847857072 0.0 0.0
0.0 0.0036701987830700415 -0.0033027436148351775 0.002658727103594553 0.000644016511240625 -0.0004267898072629447 0.0 0.0
0.0 0.0010104376060097672 -0.0008307324237935622 0.0006004367632295906 0.00023029566056397439 -0.00019649031126955439 0.0 0.0
0.0 4.8883908856962996e-05 -4.7564866345352344e-05 3.105152431346731e-05 1.651334203188504e-05 -1.8819558453709258e-05 0.0 0.0
0.0 0.0 0.0 0.0 0.0 0.0 0.0 0.0
0.0 0.0 0.0 0.0 0.0 0.0 0.0 0.0
0.0 0.0 0.0 0.0 0.0 0.0 0.0 0.0
SCALARS Wm float 4
LOOKUP_TABLE default
14.163880818232514 2.0802673617678638 6.086282903603564 5.997330552861075
7.396651692450941 3.491106958467329 1.7796779423911153 2.1258667915925
0.8525468891423427 0.7575264850388077 0.020255875503897836 0.07476452859963678
0.6106467076276406 0.5538099470194044 0.01595902914763646 0.04087773146059974
1.3521049953397108 0.8734104953282134 0.1756033583341717 0.303091141677325
3.1013701690932423 1.3248594183680287 0.6943738970378169 1.0821368536873954
6.603452632797365 1.963016927066909 2.08383292890669 2.556602776823764
12.390834142947432 2.810842764186756 4.680482972580879 4.899508406179793
21.04859088095698 3.934709142805167 8.908678076005552 8.205203662146252
32.958064973866946 5.355529681394401 15.099576946070176 12.502958346402387
48.23160334913612 7.065155555295295 23.422523764629354 17.7439240292115
66.6608481695801 9.036959934846552 33.7851135964006 23.838774638332954
88.20573786146163 11.227098354899592 46.292296936252626 30.686342570309392
112.57659776306902 13.583158369381522 60.811762527293446 38.18167686639409
139.2295954690582 15.917187800485285 77.13638539418636 46.17602227438647
167.22452327377485 17.932398153361795 94.84819901666594 54.4439261037471
195.11250395339823 19.306631847647942 113.12940746871544 62.676464637034854
221.1152158479032 19.834445632335253 130.8673901772969 70.41338003827089
243.44081855306018 19.65100508638066 146.6609221339542 77.1288913327255
259.1098741372908 18.321911097841774 158.6005831419952 82.18737989745361
264.006481562859 15.73493406363859 163.84306138953306 84.42848610968738
259.1098741372423 18.321911097827968 158.6005831419701 82.18737989744427
243.44081855298973 19.651005086390285 146.66092213389808 77.12889133270133
221.11521584778987 19.834445632332795 130.86739017721962 70.4133800382374
195.112503953241 19.306631847615886 113.12940746862861 62.67646463699648
167.224523273623 17.932398153342294 94.84819901657546 54.44392610370529
139.22959546890436 15.917187800454954 77.13638539410309 46.17602227434631
112.57659776293157 13.583158369370956 60.81176252720908 38.18167686635155
88.20573786133032 11.227098354885054 46.292296936176385 30.68634257026888
66.66084816947206 9.036959934844614 33.78511359633277 23.838774638294716
48.231603349035595 7.065155555276597 23.422523764578365 17.7439240291806
32.95806497379477 5.355529681387203 15.099576946031108 12.502958346376461
21.04859088090183 3.934709142794483 8.908678075980022 8.205203662127332
12.390834142913803 2.81084276418387 4.680482972564263 4.899508406165674
6.603452632775158 1.9630169270604643 2.0838329288988797 2.556602776815814
3.101370169083027 1.3248594183655908 0.6943738970346601 1.0821368536827736
1.352104995335788 0.8734104953270798 0.17560335833304805 0.3030911416756601
0.6106467076268094 0.5538099470185076 0.015959029147644063 0.04087773146065754
0.8525468891409262 0.7575264850377497 0.020255875503777748 0.07476452859939783
7.396651692445937 3.4911069584690027 1.7796779423878193 2.125866791589113
14.163880818202088 2.080267361751816 6.0862829035955555 5.997330552854727
17.095864402702453 7.357432274893179 4.771948908723472 4.9664832190858075
3.116571196668425 0.6860443018095532 1.0447194221118314 1.38580747274704
0.2992241078829012 0.3543367794691796 -0.01982851075992768 -0.035284160826350684
0.46696352713357825 0.4450712854590299 0.0046557388393169115 0.017236502835231423
1.0109193610871707 0.7069885785450518 0.09850498736097328 0.20542579518114581
2.4684161791513857 1.064330646583708 0.5493762432059455 0.854709289361733
5.417350951842048 1.4994531274961085 1.7190488419693912 2.1988489823765485
10.479151417279008 2.0607454852650045 4.051912644035104 4.366493287978896
18.087702604090385 2.746029709499952 7.896568896944181 7.445103997646256
28.490509638465856 3.5385565343869887 13.508213873572577 11.443739230506282
41.75371502162142 4.41306786393654 21.035073917139975 16.305573240544895
57.864396455645306 5.371448517590858 30.55104369535685 21.941904242697618
76.45483102513154 6.41099540510157 41.77252613546203 28.271309484567986
97.62691004622499 7.483112738842411 54.94375064856729 35.200046658815296
120.85717081106411 8.509001334341066 69.74031179888618 42.607857677836954
145.42419444700909 9.338590971830902 85.7952064654592 50.29039700971897
170.1965667174963 9.800748688153032 102.46313968098545 57.932678348357776
193.65163415292196 9.782489330760699 118.72197571791105 65.1471691042502
213.76141520972314 9.161587976166786 133.18689280018967 71.4129344333666
227.97959099252813 8.046523221008997 143.95419520418355 75.97887256733563
233.5030754383635 6.7738005198505755 148.74584156990412 77.98343334860883
227.9795909925037 8.04652322101915 143.9541952041592 75.97887256732531
213.76141520964205 9.16158797615563 133.18689280014098 71.4129344333456
193.6516341528346 9.782489330774409 118.72197571784072 65.14716910421957
170.19656671739466 9.800748688167383 102.46313968090553 57.932678348321645
145.42419444688565 9.338590971827621 85.79520646537703 50.290397009680945
120.85717081095659 8.509001334352321 69.74031179880647 42.607857677797845
97.62691004611055 7.483112738844302 54.943750648490315 35.200046658775925
76.45483102502197 6.410995405099888 41.77252613539204 28.271309484530015
57.864396455545766 5.371448517587619 30.55104369529589 21.94190424266225
41.75371502154262 4.413067863934847 21.03507391709246 16.305573240515326
28.49050963840277 3.5385565343833836 13.50821387353717 11.443739230482219
18.087702604043923 2.7460297094934747 7.896568896921547 7.445103997628889
10.479151417248666 2.0607454852627387 4.051912644020148 4.366493287965778
5.417350951824175 1.4994531274933927 1.7190488419620376 2.198848982368743
2.468416179142316 1.06433064658163 0.5493762432028363 0.8547092893578503
1.0109193610841392 0.7069885785440434 0.09850498736020752 0.2054257951798882
0.46696352713306283 0.4450712854583843 0.004655738839330519 0.017236502835348146
0.29922410788305887 0.3543367794690501 -0.019828510759835286 -0.035284160826155736
3.116571196660318 0.6860443018079837 1.044719422108631 1.3858074727437049
17.095864402675442 7.3574322748820995 4.771948908714813 4.966483219078518
13.046020686956233 5.90512496809554 3.3661609361897558 3.7747347826709348
1.9604878208378564 0.30583375706079685 0.7001204458822291 0.9545336178948314
0.18425804033249873 0.18360679500181284 0.00014558597295975356 0.0005056593577261218
0.34196168418994943 0.342257858982292 -0.0005337909029470207 0.00023761611060444914
0.7571197785177011 0.6080251216041416 0.04177521975141564 0.10731943716214405
1.9217741358446327 0.9513293154355761 0.365871159236976 0.6045736611720811
4.402387958775628 1.3644083221525989 1.2850233834406581 1.7529562531823715
8.818570349528162 1.8746396208797902 3.265980104637042 3.67795062401133
15.503438568699693 2.47648144905411 6.58019598169208 6.446761137953504
24.672785180035746 3.154817900011418 11.473738008528114 10.044229271496208
36.315788847395176 3.90122119019272 18.014151544832494 14.400416112369978
50.32367585711807 4.722051117712369 26.16759762689136 19.43402711251433
66.75929705116222 5.628911324491068 36.06145230173885 25.06893342493233
85.17344390404224 6.596983423964886 47.33020158618562 31.246258893891696
105.57240640893136 7.548994666189728 60.16701789581185 37.856393846929734
127.25248907928707 8.381249983895252 74.13100660359216 44.7402324917997
149.26784074601937 8.93994463401908 88.67780271141038 51.65009340058993
170.19213941559133 9.03770224494129 102.96399014575793 58.19044702489214
188.08484936917688 8.535717712625395 115.69865872767127 63.850472928880194
200.73158327778756 7.693219007448889 125.10568294991923 67.93268132041938
205.37915537712604 6.056604060141694 129.49078932958267 69.83176198740165
200.73158327774433 7.6932190074345375 125.10568294989945 67.93268132041025
188.08484936914152 8.535717712655872 115.6986587276259 63.85047292885973
170.19213941550157 9.037702244937027 102.96399014569899 58.19044702486553
149.26784074590566 8.93994463400593 88.67780271134181 51.65009340055785
127.25248907918164 8.38124998389476 74.13100660352147 44.740232491765525
105.57240640881268 7.548994666177307 60.16701789574107 37.85639384689432
85.17344390393697 6.5969834239600775 47.330201586119905 31.24625889385695
66.75929705106311 5.628911324485898 36.06145230167859 25.06893342489865
50.32367585703015 4.722051117707367 26.16759762683941 19.43402711248341
36.31578884732251 3.9012211901891747 18.014151544790494 14.400416112342844
24.672785179979527 3.1548179000063286 11.473738008498195 10.044229271475
15.50343856865986 2.47648144905062 6.580195981671812 6.446761137937424
8.818570349500744 1.8746396208770464 3.2659801046241266 3.6779506239995725
4.402387958759735 1.3644083221496204 1.2850233834346512 1.752956253175463
1.9217741358382194 0.9513293154343289 0.36587115923477737 0.6045736611691127
0.7571197785155703 0.6080251216032816 0.04177521975097125 0.10731943716131749
0.3419616841896395 0.34225785898192584 -0.000533790902934795 0.00023761611064844013
0.18425804033256418 0.18360679500191446 0.00014558597295512857 0.0005056593576946366
1.960487820831557 0.30583375705988775 0.7001204458796602 0.9545336178920066
13.04602068692877 5.905124968084249 3.36616093618126 3.7747347826632645
9.926255871701267 4.611368992663022 2.4151416393831453 2.8997452396551022
1.3312568318180575 0.1382716601338135 0.48015738086279897 0.7128277908214435
0.12833114928987663 0.12833114928987663 0.0 0.0
0.25278311906519624 0.25514484834365647 -0.0004201376339893681 -0.001941591644470822
0.5613839646232478 0.5100217832634903 0.011838299829187889 0.03952388153056953
1.4316647313904913 0.8242581073607156 0.20968633349860943 0.3977202905311665
3.4944801805626335 1.229547791483041 0.933002519867167 1.3319298692124233
7.225231902459898 1.6862588548082906 2.5335944455092863 3.0053786021423248
13.003892052822241 2.2107379468201867 5.337908927483246 5.45524517851881
20.93828986383518 2.7873401583945365 9.505863909421397 8.645085796019238
30.966520117851754 3.4162433194478816 15.055345193869396 12.494931604534486
43.07556789014421 4.119556393267734 22.032256582264267 16.923754914612218
57.07592512638331 4.904181386375389 30.298835513833684 21.87290822617422
73.11801779270915 5.759753375576706 40.07144699976331 27.286817417369143
90.6890738089497 6.651238581607082 50.93601209109967 33.101823136242956
109.45613958039334 7.487231913431372 62.78075327502026 39.188154391941694
128.80798374011906 8.125029624153653 75.35293484997081 45.33001926599464
147.32774945844326 8.363045551487474 87.7555871218712 51.20911678508452
163.2788043998832 8.067436585584597 98.86636339989317 56.34500441440541
174.7140263271963 7.38753611062012 107.20350869625409 60.12298152032217
178.93488171626913 5.4363103404521445 111.48600331565898 62.01256806015802
174.71402632718804 7.38753611063667 107.2035086962367 60.12298152031467
163.27880439982323 8.067436585584158 98.86636339985212 56.34500441438692
147.32774945836894 8.3630455514825 87.75558712182388 51.209116785062605
128.80798374003237 8.125029624149482 75.35293484991524 45.33001926596767
109.45613958030637 7.487231913433559 62.780753274960624 39.18815439191218
90.68907380886753 6.651238581615168 50.9360120910405 33.10182313621183
73.1180177926211 5.759753375573636 40.07144699970841 27.286817417339073
57.075925126295175 4.904181386365428 30.298835513784066 21.872908226145636
43.07556789007124 4.119556393264518 22.032256582221247 16.923754914585476
30.966520117787514 3.4162433194417137 15.055345193834635 12.49493160451119
20.938289863787954 2.7873401583919875 9.50586390939564 8.645085796000323
13.003892052785487 2.2107379468152186 5.337908927465831 5.455245178504447
7.225231902437452 1.6862588548069841 2.533594445498672 3.005378602131791
3.49448018055011 1.229547791480333 0.9330025198625382 1.3319298692072394
1.431664731385381 0.8242581073590749 0.2096863334971823 0.3977202905291242
0.5613839646216787 0.510021783262459 0.011838299828998712 0.039523881530220795
0.25278311906497614 0.2551448483434169 -0.0004201376339826575 -0.0019415916444579574
0.12833114928967101 0.12833114928967101 0.0 0.0
1.3312568318124953 0.1382716601330705 0.48015738086053944 0.712827790818886
9.926255871678704 4.611368992654161 2.4151416393763347 2.8997452396482135
7.447219411910371 3.5753056399917096 1.6800748899853257 2.1918388819333394
0.9756818197936253 0.12091653481105918 0.347220569037445 0.5075447159451201
0.11668749699453147 0.11668749699453147 0.0 0.0
0.20182517641934292 0.20201370689264428 -1.6431591137498857e-05 -0.00017209888216385323
0.41544937111165925 0.4131565344621437 -0.0019129919493388124 0.004205828598854566
1.0415687896328587 0.7066436958007549 0.10537115873210681 0.22955393509999658
2.6629537914520602 1.0748936697356604 0.6358612862540747 0.9521988354623263
5.723430124952543 1.498655212217528 1.8682551783571775 2.35651973437784
10.593075024648375 1.9498853011222361 4.166871642373377 4.476318081152762
17.304875331533765 2.4354723864494225 7.6170518078868374 7.252351137197506
25.795187969598512 2.9630720779646467 12.239985248870632 10.592130642763225
35.983972848029005 3.5557174254666295 18.01271048366278 14.415544938899606
47.855566040138335 4.234812939302379 24.94621711085361 18.67453598998234
61.19026532274517 4.99438709017739 32.85872709451188 23.33715113805589
76.1184947458828 5.804309875056525 41.96653941393781 28.34764545688849
92.22178809358823 6.630477715159239 51.97187424746118 33.61943613096779
108.80660488699475 7.351768305812511 62.45445176937843 39.00038481180381
125.00682212778614 7.764445508909339 73.03416908997833 44.20820752889844
139.24387425903743 7.684292734427965 82.71956793707356 48.84001358753592
149.79941349684287 7.149203658695316 90.2734751494582 52.3767346886893
153.7893318046781 4.863442739419178 94.5654815985971 54.36040746666177
149.79941349682883 7.149203658709307 90.27347514943929 52.376734688680216
139.24387425898746 7.6842927344227485 82.71956793704332 48.84001358752142
125.00682212774059 7.764445508924414 73.03416908993776 44.208207528878425
108.80660488691039 7.351768305795074 62.45445176933358 39.00038481178174
92.22178809351244 6.63047771515953 51.971874247411094 33.619436130941786
76.11849474579746 5.80430987504635 41.96653941388902 28.347645456862107
61.19026532267371 4.994387090177799 32.85872709446601 23.337151138029864
47.85556604006836 4.234812939296132 24.946217110813855 18.674535989958382
35.98397284797073 3.555717425467759 18.012710483626684 14.415544938876298
25.79518796954156 2.9630720779549047 12.239985248842869 10.592130642743788
17.30487533149154 2.4354723864458947 7.617051807864924 7.252351137180722
10.59307502461914 1.9498853011191661 4.166871642359453 4.476318081140519
5.7234301249321975 1.4986552122134138 1.8682551783491372 2.3565197343696473
2.6629537914425487 1.074893669734401 0.6358612862503183 0.9521988354578295
1.0415687896292674 0.7066436957993525 0.10537115873126403 0.22955393509865074
0.41544937111042873 0.41315653446110634 -0.0019129919493999325 0.004205828598722499
0.20182517641919268 0.20201370689252007 -1.6431591138920623e-05 -0.00017209888218853878
0.11668749699421321 0.11668749699421321 0.0 0.0
0.9756818197898491 0.12091653481091955 0.34722056903572607 0.5075447159432049
7.447219411891384 3.575305639983829 1.6800748899799924 2.191838881927558
5.48800708306629 2.747503405879593 1.140826738919072 1.5996769382676255
0.6936461036400371 0.14539384810759196 0.20184304233492267 0.34640921319752255
0.13216035674988522 0.13216035674988522 0.0 0.0
0.1795556742240396 0.17949956326840394 5.561476681643829e-06 5.0549478953974686e-05
0.3225304246183082 0.33384954634175196 -0.0032868171644784075 -0.008032304558965168
0.7341878796076203 0.5846330759063818 0.03747431297989158 0.11208049072134689
1.9000039061305407 0.9075260889210462 0.3588627250113001 0.6336150921981938
4.379853940145672 1.3012421582838891 1.3358695709179211 1.7427422109438608
8.268849648976547 1.6945373391748288 3.058209149656971 3.5161031601447483
13.818179785902151 2.1005923974788767 5.84592952799374 5.871657860429534
20.78880605149847 2.537619265030846 9.554656268716238 8.696530517751384
29.116985926415754 3.0349894476717725 14.168641490843529 11.913354987900465
38.77437366057878 3.6156948308428336 19.67656860015716 15.482110229578796
49.79123207801112 4.2845014275594515 26.118742421809824 19.387988228641838
61.99532668060505 5.030234542842165 33.36488594617868 23.600206191584185
75.22422722552638 5.8133853712880015 41.356990912241095 28.053850941997318
89.3412841662979 6.590499211377995 50.11575186624892 32.63503308867097
103.26149335418242 7.202679273038554 58.88275112818154 37.176062952962326
115.8548808107621 7.366490549288502 67.13735608294427 41.35103417852929
125.75614779407434 6.977578753242328 74.07112919588312 44.70743984494889
129.68215096267522 4.342435373933064 78.50543155015991 46.83428403858236
125.75614779404557 6.9775787532348374 74.07112919586888 44.70743984494187
115.85488081074396 7.366490549306368 67.13735608292019 41.35103417851745
103.26149335413281 7.202679273039973 58.88275112814739 37.17606295294538
89.34128416625263 6.590499211389307 50.11575186621163 32.63503308865165
75.22422722545957 5.8133853712823464 41.356990912201674 28.053850941975597
61.99532668053851 5.0302345428339965 33.36488594614132 23.6002061915632
49.7912320779512 4.284501427558077 26.118742421773177 19.387988228619918
38.77437366052357 3.615694830839168 19.676568600125574 15.482110229558852
29.116985926363334 3.0349894476683152 14.168641490814343 11.913354987880679
20.78880605145637 2.5376192650278036 9.554656268693721 8.696530517734848
13.818179785867754 2.10059239747531 5.8459295279767485 5.871657860415688
8.26884964895341 1.694537339173609 3.0582091496456414 3.5161031601341595
4.379853940131134 1.3012421582819416 1.3358695709117774 1.7427422109374144
1.9000039061225142 0.9075260889192522 0.3588627250086395 0.6336150921946225
0.7341878796053334 0.5846330759056024 0.03747431297937362 0.11208049072035756
0.32253042461750847 0.33384954634074104 -0.0032868171644376523 -0.008032304558794981
0.17955567422391336 0.17949956326829908 5.561476679424626e-06 5.054947893483922e-05
0.1321603567497005 0.1321603567497005 0.0 0.0
0.6936461036376325 0.1453938481076961 0.20184304233378075 0.3464092131961559
5.488007083051165 2.747503405872964 1.1408267389151778 1.5996769382630234
3.9087440254196464 2.079974754844061 0.7143619847739854 1.1144072858016012
0.515653218904454 0.18864746741653726 0.11257892600455152 0.21442682548336525
0.15922323989468432 0.15922873806188714 -2.8514702602354354e-07 -5.213020176798422e-06
0.17633548451139883 0.1763408110372798 -1.9737344837264589e-07 -5.12915243257676e-06
0.2688738233166954 0.2768897559687932 -0.0017705045414746646 -0.006245428110623233
0.519660925033212 0.47955982652073315 0.004979372447585446 0.035121726064893784
1.3030271290140356 0.7492236255178163 0.18243902449846774 0.37136447899775155
3.0742326531232234 1.0830295499465665 0.7942259622718856 1.1969771409047723
6.204800383854516 1.4429256578821708 2.1704509095278857 2.5914238164444603
10.459034349325764 1.7789910768436064 4.172694724822238 4.507348547659918
15.99202023247065 2.1397363576016613 7.038167615548522 6.814116259320471
22.53762080668367 2.553160245875334 10.562874895629513 9.421585665178828
30.092904267852848 3.0459554924086847 14.746195728143784 12.300753047300383
38.70388772152283 3.6330221034439365 19.621561563392778 15.449304054686124
48.33655540175516 4.305899539745511 25.169780536853768 18.860875325155902
59.01462385796836 5.0473359464020895 31.476827472031097 22.49046043953517
70.16728318293914 5.841654030337982 38.05045497762547 26.275174174975717
81.93098376089455 6.6229771055762985 45.21327113677181 30.094735518546432
93.21168559249067 7.079431530709891 52.33076478936704 33.801489272413725
102.53722509700978 6.88385045450526 58.615807860611646 37.03756678189285
106.5847117849446 3.8880335600532927 63.30848529788801 39.38819292700323
102.53722509700481 6.883850454513029 58.61580786060313 37.037566781888636
93.2116855924427 7.079431530688042 52.33076478934975 33.801489272404936
81.93098376087481 6.622977105599544 45.213271136743764 30.09473551853148
70.16728318287768 5.8416540303238556 38.05045497759503 26.275174174958796
59.014623857928825 5.047335946412825 31.47682747199902 22.490460439516976
48.33655540170348 4.305899539739279 25.169780536825403 18.860875325138792
38.703887721476846 3.633022103441302 19.621561563366196 15.449304054669344
30.092904267804634 3.045955492398535 14.746195728120982 12.300753047285122
22.537620806642934 2.553160245872082 10.562874895607639 9.421585665163207
15.992020232436921 2.139736357600706 7.038167615530134 6.814116259306077
10.459034349300296 1.7789910768426964 4.172694724809057 4.50734854764854
6.204800383834531 1.4429256578788205 2.170450909519344 2.5914238164363645
3.0742326531119244 1.0830295499451799 0.7942259622673156 1.1969771408994296
1.3030271290082636 0.7492236255152902 0.18243902449714292 0.3713644789958302
0.5196609250318495 0.47955982652017237 0.004979372447349892 0.03512172606432781
0.2688738233164686 0.27688975596837284 -0.0017705045414371852 -0.00624542811046711
0.17633548451103143 0.17634081103690502 -1.9737344783652903e-07 -5.129152425718009e-06
0.15922323989459905 0.15922873806179247 -2.851470254176852e-07 -5.213020168041371e-06
0.5156532189024151 0.1886474674163871 0.11257892600372935 0.21442682548229833
3.908744025409199 2.0799747548401815 0.7143619847711461 1.1144072857978744
2.750706162736208 1.5830952131140654 0.4576792185693066 0.7099317310528362
0.37614667035968485 0.2183063910935942 0.0421353384916995 0.11570494077439097
0.1873166171363206 0.1870155893037388 3.23796148313294e-05 0.0002686482177504308
0.18464642389706748 0.18460609400718025 1.4495470928768667e-06 3.8880342794360186e-05
0.24157110994264838 0.246634424609084 -0.0010095524811883864 -0.0040537621852470285
0.38796437852702215 0.3914103971156694 -0.004775532968354304 0.0013295143797067864
0.8393703422978509 0.5945384462864899 0.0662187218267458 0.17861317418461484
2.002566379272737 0.8654946478898486 0.41246505620793356 0.7246066751749561
4.169820989763806 1.168312906145097 1.26642435209289 1.7350837315258199
7.419019354049098 1.4647593850175227 2.7737651094510305 3.180494859580546
11.438724213117753 1.7603849285987856 4.727701394469914 4.950637890049056
16.25878502698824 2.1031568594873904 7.2063310855274825 6.949297081973364
21.825916842023414 2.5173398619357696 10.168685424023426 9.139891556064226
28.159013202886015 3.0233184247726164 13.602846929584741 11.532847848528652
35.36224053656469 3.6345229961870817 17.588000281037232 14.139717259340378
43.31161901724077 4.32630572691465 22.03653988910394 16.94877340122219
52.02406151089498 5.0866234274490605 27.032947128794063 19.904490954651855
61.28311712815945 5.979061798282492 32.308329852572 22.995725477304966
70.89416941183757 6.769791443870442 37.933947179280686 26.19043078868646
79.88693710483446 6.875522980690678 43.710479293165804 29.300934830977965
84.29485586208074 3.5180938484690607 48.80231719066079 31.97444482295091
79.88693710482423 6.875522980687602 43.71047929316109 29.30093483097553
70.89416941183809 6.769791443886077 37.93394717927093 26.190430788681077
61.283117128113936 5.979061798269878 32.30832985255107 22.995725477292996
52.02406151085712 5.086623427444821 27.03294712877296 19.904490954639346
43.31161901718531 4.326305726895817 22.0365398890812 16.948773401208268
35.3622405365335 3.634522996190361 17.58800028101628 14.139717259326874
28.15901320285297 3.0233184247693505 13.602846929567022 11.532847848516594
21.82591684199703 2.51733986193678 10.168685424007498 9.139891556052746
16.258785026960016 2.1031568594861545 7.206331085512311 6.949297081961548
11.438724213088552 1.7603849285920288 4.727701394457745 4.95063789003878
7.419019354030085 1.4647593850181757 2.7737651094407827 3.1804948595711298
4.169820989751812 1.1683129061445452 1.266424352087371 1.7350837315198941
2.0025663792655046 0.8654946478888614 0.41246505620525514 0.724606675171388
0.8393703422951292 0.5945384462857112 0.06621872182608207 0.17861317418333636
0.3879643785258691 0.3914103971146104 -0.004775532968403605 0.001329514379662174
0.24157110994223788 0.2466344246084793 -0.001009552481151126 -0.004053762185090286
0.1846464238969316 0.18460609400684275 1.449547105229446e-06 3.888034298358322e-05
0.18731661713583303 0.1870155893032142 3.2379614833535195e-05 0.0002686482177852339
0.3761466703582991 0.21830639109352595 0.0421353384911963 0.11570494077357674
2.750706162728176 1.583095213110675 0.45767921856724547 0.7099317310502554
1.8044776777991476 1.172326887399452 0.217969571215461 0.41418121918423484
0.28893791756501075 0.23555167751403208 0.009859873606075244 0.043526366444903444
0.21055883879657922 0.21053332908998632 6.016904719678807e-06 1.9492801873262847e-05
0.19931293498778477 0.19954300300988273 -2.5175291703882385e-05 -0.00020489273039405695
0.2301390995073856 0.23357557692254788 -0.0007723884081490108 -0.002664089007013295
0.3199294117232613 0.3273854831358009 -0.004050863690665568 -0.0034052077218741845
0.539156492175696 0.4663098638619677 0.012068312253002379 0.06077831606072608
1.1619291538357928 0.6543421463750061 0.16252592261142268 0.34506108484936404
2.4578368072937753 0.883918952921693 0.602891019765154 0.9710268346069276
4.516807339521957 1.1246659352132222 1.4621463878242604 1.9299950164844744
7.1724296753170975 1.3712866683362366 2.659813919065729 3.1413290879151345
10.381168714980076 1.657027144536323 4.2060889924086675 4.518052578035084
14.067940153811966 2.0043213435513634 6.037234587127146 6.026384223133453
18.270840518807006 2.4318153656133847 8.166459792135946 7.672565361057676
23.104304444410396 2.9686375712898463 10.656427514024644 9.479239359095901
28.630983395754043 3.6215768596346973 13.545156512550012 11.464250023569349
34.768020654691846 4.344273573459246 16.80852095927581 13.615226121956782
41.47220119135868 5.169210519280391 20.385946564262746 15.917044107815542
49.34238877588426 6.273264393786328 24.571505788738328 18.49761859335962
58.06438289122429 6.968402273419137 29.650231574151647 21.44574904365351
63.07127775065584 3.294983843821763 35.120967988318306 24.655325918515786
58.0643828912179 6.968402273411374 29.650231574152464 21.44574904365408
49.34238877586951 6.273264393783588 24.571505788730846 18.497618593355075
41.472201191360824 5.16921051930658 20.385946564247888 15.917044107806337
34.76802065467787 4.344273573472031 16.808520959259614 13.615226121946211
28.630983395748345 3.621576859652864 13.545156512535794 11.464250023559709
23.10430444438289 2.9686375712844706 10.656427514011689 9.479239359086721
18.2708405187893 2.431815365614114 8.1664597921254 7.672565361049789
14.067940153791591 2.0043213435489577 6.037234587117231 6.026384223125406
10.381168714957413 1.6570271445307327 4.20608899239942 4.518052578027265
7.172429675302421 1.3712866683347507 2.6598139190589962 3.1413290879086713
4.516807339507442 1.1246659352099861 1.462146387818669 1.929995016478789
2.4578368072858936 0.8839189529203257 0.6028910197622213 0.9710268346033468
1.1619291538317367 0.6543421463741426 0.16252592261016627 0.34506108484742815
0.5391564921737226 0.46630986386134843 0.012068312252540032 0.06077831605983408
0.31992941172271966 0.3273854831349304 -0.004050863690612626 -0.003405207721598178
0.23013909950684866 0.23357557692178968 -0.0007723884081247054 -0.002664089006816296
0.1993129349877996 0.19954300300990832 -2.517529170002043e-05 -0.00020489273040867623
0.21055883879600223 0.21053332908920838 6.0169047395219225e-06 1.9492802054409808e-05
0.2889379175640554 0.23555167751378986 0.00985987360580046 0.043526366444464955
1.8044776777935554 1.1723268873969497 0.21796957121417918 0.41418121918242684
1.153352335048104 0.8742627015088289 0.08632779039378553 0.19276184314548997
0.23074129135497287 0.23354681191076815 -0.003961011712481808 0.0011554911566865403
0.2267858064572728 0.2259176130855636 0.0001162214727245036 0.000751971898984633
0.21639583623492778 0.21580049922312325 6.719177098304961e-05 0.000528145240821393
0.23127353564579783 0.23356897675403027 -0.0006410441380184713 -0.0016543969702139517
0.2916883785041667 0.2951917437437774 -0.002111013382583962 -0.0013923518570266658
0.3956095413006243 0.37002576818070476 0.002707954901077836 0.022875818218841618
0.6003460548900114 0.4533105599332904 0.035910659084565526 0.11112483587215531
1.0994882811005486 0.5779640431638854 0.16731038703858414 0.3542138508980786
2.0440743590870216 0.7289203673987085 0.4923991813071579 0.8227548103811557
3.437521798208066 0.9074004231724174 1.0573972726749243 1.4727241023607245
5.105740577850741 1.117419951282912 1.7502960657290314 2.2380245608387996
7.092109951983893 1.3823250323055964 2.622728062672796 3.087056857005502
9.410320542426375 1.7229611057262937 3.6637415030301534 4.023617933669927
12.127438565164908 2.165160231889812 4.891928434151373 5.0703498991237215
15.378564465870234 2.743634590942496 6.368005914221541 6.266923960706194
19.262803162180287 3.4478288504629098 8.1673138766972 7.647660435020171
23.68641746594056 4.15633586513419 10.327521402515034 9.202560198291337
29.049543283744345 5.1128009737279605 12.91979616933866 11.016946140677707
36.965439477862354 6.800108974757011 16.637014628645762 13.528315874459599
43.953558553085074 3.4173940118890846 22.99660499916036 17.539559542035615
36.96543947788519 6.8001089747748376 16.637014628648842 13.528315874461494
29.049543283736497 5.112800973723842 12.919796169336388 11.016946140676271
23.68641746588603 4.156335865093893 10.327521402506603 9.202560198285541
19.26280316215499 3.4478288504564887 8.167313876686325 7.647660435012176
15.378564465844988 2.7436345909324245 6.368005914213054 6.266923960699505
12.127438565153946 2.1651602318890446 4.891928434145863 5.070349899119041
9.410320542414484 1.7229611057233183 3.663741503025356 4.023617933665809
7.09210995197948 1.382325032311377 2.6227280626675324 3.0870568570005683
5.105740577843372 1.1174199512833665 1.7502960657251605 2.2380245608348455
3.437521798198829 0.9074004231704882 1.057397272671431 1.4727241023569124
2.0440743590831465 0.7289203673994605 0.49239918130513977 0.8227548103785466
1.0994882810986462 0.5779640431639073 0.16731038703787238 0.3542138508968662
0.6003460548885774 0.4533105599329363 0.03591065908419387 0.11112483587144738
0.3956095412998961 0.37002576818028104 0.002707954900981558 0.022875818218633263
0.2916883785037145 0.29519174374300416 -0.002111013382555679 -0.0013923518567341116
0.2312735356454691 0.2335689767535286 -0.0006410441379946336 -0.00165439697006494
0.21639583623442107 0.2158004992224945 6.719177099186572e-05 0.0005281452409346529
0.22678580645678698 0.22591761308495667 0.00011622147273496624 0.0007519718990951699
0.23074129135446797 0.2335468119105253 -0.003961011712543891 0.0011554911564866832
1.1533523350444728 0.8742627015069958 0.08632779039310556 0.19276184314437078
0.7133817852672459 0.6393922243466461 0.01660919979986361 0.057380361120736405
0.20073299510206943 0.211284677938162 -0.002640514994044651 -0.007911167842047904
0.23611128561526953 0.23652899989461115 -4.5971211776285436e-05 -0.0003717430675653413
0.23299586982065848 0.2319589457514542 0.00013308419606507084 0.0009038398731391967
0.242957526908007 0.2434582441319565 -0.00038072251751575004 -0.00011999470643375717
0.28838743442157244 0.2889700383598812 -0.0013162727699101945 0.0007336688316013985
0.3625744279723359 0.3342665794947285 0.005126574311774731 0.02318127416583294
0.419420370768421 0.33062151285486274 0.02281129914113086 0.06598755877242739
0.480925010047294 0.28576970915427513 0.06438815127816018 0.1307671496148591
0.6572578653914796 0.2782997004777402 0.13620308158501993 0.24275508332872034
1.0653666993783026 0.3082375431271625 0.3006346885295846 0.4564944677215549
1.670508283094739 0.31047066957236796 0.5518336663842349 0.8082039471381366
2.4671951422713203 0.3277831993123821 0.910813902142832 1.228598040816107
3.439788290663461 0.38570688103646344 1.3532434898468084 1.7008379197801922
4.610056833141842 0.5078902633316574 1.8797342855599675 2.2224322842502167
5.977271773816514 0.7166232628052109 2.4745700092288807 2.7860785017824212
7.5885482312388195 1.036765079882616 3.1686521550300375 3.3831309963261673
9.402170257753587 1.4337680777804476 3.9611641247673886 4.007238055205752
11.879601457612806 2.0284485348301144 5.019350075881345 4.831802846901348
18.52498015501819 4.309835081108263 7.248304679465167 6.966840394444763
30.974515865496496 3.786569125895922 14.717952151234446 12.469994588366127
18.524980155028395 4.309835081115843 7.248304679466917 6.966840394445631
11.87960145761499 2.0284485348359524 5.0193500758793625 4.831802846899681
9.402170257761092 1.4337680777936639 3.9611641247640588 4.007238055203368
7.588548231225841 1.0367650798795398 3.1686521550245725 3.3831309963217224
5.977271773801707 0.7166232627968462 2.4745700092256913 2.7860785017791687
4.610056833134798 0.5078902633310232 1.8797342855565586 2.2224322842472133
3.4397882906541835 0.38570688103277395 1.353243489844195 1.7008379197772148
2.4671951422588094 0.32778319930758393 0.9108139021391526 1.2285980408120736
1.670508283093135 0.31047066957495517 0.5518336663821817 0.8082039471359985
1.0653666993739244 0.30823754312658225 0.30063468852788533 0.456494467719456
0.6572578653891096 0.2782997004751243 0.13620308158500144 0.2427550833289845
0.4809250100470217 0.2857697091546285 0.06438815127787825 0.13076714961451463
0.41942037076770505 0.3306215128548846 0.022811299140881224 0.06598755877193942
0.3625744279716888 0.3342665794941608 0.005126574311704813 0.023181274165823298
0.2883874344209752 0.28897003835921226 -0.0013162727698958845 0.0007336688316588137
0.24295752690749678 0.24345824413133027 -0.00038072251751004643 -0.0001199947063233581
0.23299586982027792 0.2319589457509374 0.00013308419607928118 0.0009038398732610851
0.2361112856150051 0.23652899989421686 -4.5971211754933504e-05 -0.00037174306745673216
0.20073299510171813 0.2112846779375119 -0.002640514993997834 -0.007911167841796017
0.7133817852656339 0.6393922243455769 0.016609199799656766 0.05738036112040052
0.45181416776197847 0.45017061279942955 5.041584341694505e-05 0.0015931391191321223
0.18583812728469412 0.18660703644295662 -7.478197662460054e-05 -0.0006941271816378996
0.23886703879077414 0.2384929954955125 8.508847851050884e-06 0.0003655344474106745
0.24691394468212588 0.24567416914574514 0.00015382975576107833 0.0010859457806196304
0.261071491639294 0.25998083973289815 -0.0001426165999876165 0.0012332685063834888
0.3107699588069446 0.307403169201808 -0.0008764781045720496 0.00424326770970873
0.41002456550955585 0.3774301968385106 0.005474705384665834 0.02711966328637975
0.6092048501025067 0.4556276192788175 0.038499939547548 0.11507729127614097
1.1023815059369728 0.5779404668298614 0.16850320708655042 0.35593783202056095
2.043585939762482 0.7286044842795756 0.4922412155281257 0.8227402399547803
3.4443722505418086 0.9096422099822306 1.0600677997361752 1.474662240823403
5.133946519303031 1.1220251419526437 1.7634914008350222 2.2484299765153675
7.144256437512007 1.3884915099493726 2.6464962953031486 3.109268632259485
9.44049181629197 1.7183250403961252 3.6836110282839236 4.03855574761192
11.930849330276208 2.112205208385025 4.8168784318575755 5.001765690033605
14.463015598481752 2.569290706108094 5.9662410185281916 5.9274838738454685
16.721011477966353 3.066940848524682 6.960561507569215 6.693509121872455
18.517010968495427 3.657550144159631 7.694071791659337 7.165389032676462
19.132288353678064 4.069726769437878 7.859718389629685 7.2028431946105
15.677897775140478 3.024228691831987 6.741008488508792 5.912660594799695
31.38034236648219 5.679536015204447 13.672508844347504 12.028297506930224
15.6778977751282 3.0242286918140096 6.7410084885120725 5.912660594802119
19.13228835367371 4.069726769433082 7.859718389629836 7.202843194610793
18.51701096845286 3.657550144134521 7.694071791649254 7.165389032669074
16.721011477943215 3.0669408485177927 6.960561507559987 6.6935091218654446
14.463015598474666 2.5692907061161905 5.96624101851981 5.927483873838655
11.930849330258775 2.1122052083817047 4.816878431849963 5.0017656900271135
9.440491816286176 1.7183250404022623 3.683611028277582 4.038555747606336
7.144256437494972 1.388491509947431 2.6464962952953344 3.109268632252206
5.13394651928165 1.1220251419441782 1.76349140082853 2.248429976508943
3.4443722505302112 0.9096422099822357 1.0600677997305774 1.4746622408173975
2.043585939754704 0.7286044842794885 0.4922412155247792 0.8227402399504364
1.1023815059328417 0.5779404668285186 0.16850320708548366 0.35593783201883883
0.6092048501013494 0.4556276192785403 0.03849993954723752 0.1150772912755712
0.41002456550839844 0.37743019683779766 0.005474705384517693 0.027119663286082833
0.3107699588061819 0.30740316920085586 -0.0008764781045772954 0.004243267709903388
0.2610714916385434 0.2599808397320513 -0.0001426165999836013 0.0012332685064756536
0.2469139446818641 0.2456741691452921 0.00015382975577997226 0.0010859457807920548
0.23886703879065896 0.23849299549529684 8.508847854851611e-06 0.000365534447506988
0.18583812728441276 0.1866070364427179 -7.478197663008842e-05 -0.0006941271816749472
0.4518141677610972 0.45017061279830456 5.041584343760179e-05 0.0015931391193549937
0.2908464950715133 0.2909201115986618 -5.074825948644306e-06 -6.854170119983136e-05
0.17156449972701115 0.17167873456634677 -9.432857431435552e-06 -0.00010480198190414803
0.235253161446109 0.23592202032375553 -0.00011422076637609437 -0.0005546381112704559
0.25659969906814306 0.2552376302884297 0.00011633925217617577 0.0012457295275371675
0.2837379046054771 0.2847719030621011 -0.00048384253499618793 -0.0005501559216277492
0.35846404830670464 0.3534088175599692 -0.0005014943475266338 0.005556725094261571
0.561510609695277 0.46801534429637925 0.017551615521551905 0.07594364987734609
1.1727598189412762 0.6551648376032344 0.16680963014893682 0.35078535118910503
2.4584965689909613 0.8835191992170424 0.603315857666224 0.9716615121076944
4.516206688602821 1.124744339719356 1.461658590729531 1.929803758153933
7.18013186501835 1.372781383226296 2.6628990026118102 3.1444514791802423
10.406770288329497 1.6605521800530072 4.217955011637274 4.528263096639214
14.109510318732891 2.0063727341677717 6.059349840852573 6.043787743712549
18.270719366668565 2.4160867904496293 8.175959962077453 7.678672614141467
22.851131748145487 2.893889961415911 10.55413235194595 9.403109434783623
27.635281878535523 3.4283907021419053 13.071569586105428 11.13532159028818
32.23732401504654 4.02828783500433 15.474883153279706 12.734153026762502
36.09996679812129 4.7112245437478775 17.378278998564767 14.010463255808629
37.97591788000412 5.058618463451543 18.329285598848145 14.588013817704436
35.40710104320849 4.952095048220402 16.938130709886728 13.516875285101351
43.717089615785106 10.267926336879174 18.591715515825804 14.85744776308011
35.40710104320637 4.952095048214541 16.938130709889116 13.516875285102714
37.97591787998847 5.058618463439055 18.329285598846155 14.588013817703242
36.099966798125976 4.7112245437773455 17.378278998549675 14.010463255798962
32.23732401501092 4.028287834997573 15.474883153262255 12.734153026751073
27.635281878502266 3.4283907021343647 13.071569586090147 11.13532159027776
22.8511317481172 2.8938899614139397 10.554132351930582 9.403109434772677
18.27071936663424 2.4160867904383503 8.175959962064345 7.678672614131553
14.109510318706484 2.0063727341666193 6.059349840838506 6.0437877437013565
10.40677028830441 1.6605521800524885 4.217955011624015 4.528263096627905
7.180131864996606 1.372781383225035 2.6628990026012653 3.1444514791703044
4.516206688587863 1.12474433971856 1.4616585907225421 1.9298037581467622
2.4584965689807428 0.8835191992153423 0.6033158576623858 0.9716615121030143
1.172759818936443 0.6551648376013558 0.16680963014778083 0.35078535118730636
0.5615106096922802 0.4680153442951979 0.017551615520928508 0.07594364987615422
0.35846404830616074 0.35340881755911024 -0.0005014943474412864 0.005556725094491586
0.2837379046050124 0.2847719030614001 -0.00048384253497537873 -0.0005501559214124113
0.2565996990678636 0.25523763028798147 0.0001163392521904369 0.0012457295276916513
0.23525316144573594 0.23592202032320816 -0.00011422076635992254 -0.000554638111112305
0.17156449972685292 0.17167873456624685 -9.432857435917383e-06 -0.00010480198195801025
0.29084649507088967 0.2909201115980453 -5.074825949206164e-06 -6.854170120644613e-05
0.18078330270479248 0.18078330270479248 0.0 0.0
0.1525800523179059 0.1525791966623718 4.059720298108963e-07 4.496835043011401e-07
0.2249374253136989 0.2256208850385662 -9.858878851948396e-05 -0.0005848709363478164
0.2625071512613174 0.2630528066693453 -0.0001609218731926545 -0.0003847335348353532
0.31028736224801734 0.3099295476017765 -0.00046351001505044053 0.0008213246612913988
0.4348141333648478 0.4085437243997719 0.0015904294476057714 0.02467997951747035
0.8707264755825388 0.6011846803005176 0.07762516233261597 0.1919166329494048
2.0091393867799052 0.8656157801859949 0.41591155006731984 0.7276120565265916
4.167695935608207 1.1683654936936896 1.2653124393619346 1.7340180025525813
7.420294834056607 1.4653296975756183 2.7743818594196012 3.1805832770613867
11.446557386306884 1.7614266900262594 4.730099564007158 4.955031132273467
16.27552774073148 2.1044527386632685 7.215154401656211 6.955920600412012
21.835667081832437 2.5145776897086387 10.176090318322412 9.144999073801381
28.10125049636325 2.9987499791904835 13.583339649012089 11.519160868160679
35.063107008307156 3.5503073296146503 17.4578875802651 14.054912098427403
42.41365073913671 4.153166478952339 21.589650122938743 16.670834137245624
49.81535110672523 4.79801844561851 25.831029630449287 19.18630303065744
55.990728152667735 5.314950487884637 29.376261062648442 21.299516602134666
59.06604086026707 5.474680938264727 31.229603888859813 22.361756033142502
55.255516294164394 4.899634027856104 29.19765027983035 21.158231986477958
61.81043210805598 13.332966247078321 27.974581756975937 20.50288410400174
55.25551629418443 4.899634027873001 29.197650279832345 21.158231986479052
59.06604086025099 5.474680938261418 31.229603888851763 22.361756033137855
55.990728152642326 5.314950487884444 29.37626106263246 21.299516602125436
49.81535110668727 4.7980184456213735 25.83102963042371 19.186303030642186
42.41365073908009 4.153166478937992 21.589650122912595 16.670834137229498
35.063107008263295 3.5503073296108156 17.45788758024077 14.054912098411705
28.10125049631907 2.9987499791863845 13.58333964898818 11.5191608681445
21.835667081794455 2.514577689706821 10.176090318301373 9.144999073786279
16.275527740696443 2.104452738660274 7.215154401638091 6.955920600398068
11.446557386275785 1.7614266900246331 4.730099563991107 4.955031132260052
7.420294834032754 1.4653296975744734 2.7743818594077476 3.1805832770505305
4.167695935594577 1.168365493693275 1.2653124393555415 1.7340180025457603
2.0091393867718708 0.865615780184195 0.41591155006464914 0.7276120565230266
0.8707264755786422 0.6011846802993984 0.07762516233160932 0.1919166329476341
0.4348141333634973 0.4085437243984812 0.0015904294475545633 0.02467997951746144
0.3102873622475252 0.3099295476010285 -0.0004635100150208117 0.0008213246615175671
0.26250715126101654 0.2630528066689165 -0.0001609218731772977 -0.00038473353472263
0.2249374253133572 0.22562088503828032 -9.858878852554232e-05 -0.0005848709363976215
0.15258005231769595 0.15257919666214376 4.059720313224169e-07 4.4968352083026005e-07
0.18078330270453996 0.18078330270453996 0.0 0.0
0.10614126767278233 0.10614126767278233 0.0 0.0
0.12883349044848688 0.12882926437475947 2.3276924337965782e-07 3.99330448403657e-06
0.20877249861880606 0.2091407082608803 -4.818843557273632e-05 -0.00032002120650148137
0.26487036771961797 0.2653385250578284 -0.0002045611276362166 -0.00026359621057417084
0.34155586780100594 0.3432813942224754 -0.0012988158005103286 -0.00042671062095919103
0.571138753398823 0.49468628932120096 0.01710405680553426 0.059348407272087976
1.3209146106462228 0.7458466406465886 0.18980402650860195 0.3852639434910319
3.074654893350622 1.0836557142919063 0.794620061608555 1.1963791174501592
6.202150685662169 1.4436912427837962 2.1686582704060458 2.5898011724723253
10.462324805718225 1.7797880922874718 4.1738371149206355 4.508699598510119
16.0001503367414 2.139511172997162 7.043151252322534 6.817487911421704
22.535508919456927 2.5494135095646584 10.563908927917733 9.422186481974538
30.050183445900256 3.0339489199363943 14.727969290010911 12.288265235952972
38.57228640641573 3.603046416768196 19.5595175858071 15.409722403840398
48.03752336095189 4.243334606794169 25.022124578267537 18.772064175890186
58.329924575146755 4.92229490326745 31.121057268803725 22.28657240307561
68.31618926177173 5.512752627725859 37.07098597258438 25.732450661461513
76.86515352869682 5.811363773984642 42.44666838596884 28.607121368743307
80.8018681173491 5.505349477883385 45.24211469958458 30.054403939881137
75.98241159139207 4.972469683790827 42.45025048326976 28.55969142433151
82.22840670416406 16.396795534037864 39.04282116862196 26.788790001504225
75.98241159138675 4.972469683784253 42.450250483270686 28.55969142433184
80.80186811734309 5.505349477896189 45.24211469957227 30.0544039398746
76.86515352865263 5.811363773975368 42.44666838594609 28.60712136873115
68.31618926171275 5.512752627719406 37.07098597255054 25.732450661442826
58.32992457509825 4.922294903274459 31.12105726876846 22.286572403055334
48.03752336089216 4.2433346067894915 25.02212457823321 18.772064175869453
38.57228640637028 3.6030464167738843 19.55951758577578 15.40972240382061
30.050183445847097 3.033948919932894 14.727969289981111 12.288265235933089
22.535508919406162 2.549413509556588 10.563908927892925 9.422186481956665
16.0001503367018 2.1395111729951273 7.0431512523014765 6.817487911405193
10.462324805689818 1.779788092287823 4.173837114905235 4.50869959849676
6.202150685640859 1.4436912427801434 2.1686582703969766 2.5898011724637433
3.074654893337681 1.0836557142897867 0.7946200616035352 1.196379117444359
1.3209146106404892 0.7458466406453731 0.18980402650677214 0.38526394348834364
0.5711387533971245 0.49468628932018965 0.01710405680531453 0.05934840727162041
0.34155586780056235 0.3432813942217189 -0.0012988158004571823 -0.0004267106206992798
0.26487036771905004 0.26533852505704614 -0.0002045611276220844 -0.00026359621037407575
0.20877249861867142 0.20914070826077177 -4.818843557532107e-05 -0.00032002120652504997
0.1288334904482422 0.12882926437451478 2.3276924336996675e-07 3.9933044839934034e-06
0.10614126767264988 0.10614126767264988 0.0 0.0
0.05857815429342582 0.05857815429342582 0.0 0.0
0.10272748773448712 0.10272748773448712 0.0 0.0
0.18798382979818146 0.1880661052016066 -1.0134779856917089e-05 -7.214062356819905e-05
0.2648536767514871 0.26673964566013225 -0.0003648650370637083 -0.001521103871581533
0.38366027225562277 0.37910639630707316 -0.0012238044974374426 0.005777680445986966
0.7755698177184693 0.5936371051926097 0.051063998952853316 0.13086871357300606
1.9122524151104532 0.9069629238794581 0.36564376337158977 0.6396457278594055
4.376810849314903 1.302773067405488 1.333854185467122 1.740183596442293
8.268097258597903 1.6957923334749694 3.057302709863789 3.515002215259147
13.823833427028147 2.1012330234864534 5.848643221044013 5.873957182497674
20.79206408771575 2.5351842333548604 9.557955396901363 8.698924457459537
29.08770939087488 3.023403453829673 14.15812440648354 11.906181530561668
38.666114732844676 3.5904039073414147 19.625831043182625 15.449879782320636
49.582127411495094 4.254307685638903 26.006804103891895 19.32101562196429
61.71158130677598 5.007487446069755 33.198340264004095 23.50575359670215
74.74095543581859 5.734582828961932 41.09443997847326 27.911932628383425
87.82190237942417 6.228401354655774 49.355408337685425 32.23809268708295
98.32173450040965 6.167684704882637 56.29461648861698 35.85943330691005
102.77913365427956 5.452427208959257 59.688285586844785 37.638420858475534
97.50799400933752 5.210597057377058 56.40745019205461 35.88994675990582
104.51488993420875 19.471864211270262 51.62381562711247 33.41921009582603
97.50799400931822 5.2105970573633105 56.40745019205096 35.88994675990393
102.77913365424432 5.452427208950709 59.688285586826964 37.63842085846664
98.32173450036164 6.167684704880708 56.29461648858647 35.85943330689444
87.8219023793763 6.2284013546704555 49.3554083376444 32.23809268706148
74.74095543574586 5.734582828955915 41.09443997842997 27.911932628359978
61.71158130671411 5.007487446074496 33.19834026396162 23.505753596677977
49.5821274114252 4.254307685629609 26.006804103853995 19.321015621941605
38.666114732783555 3.5904039073413285 19.62583104314527 15.449879782296971
29.0877093908186 3.023403453828379 14.15812440645069 11.90618153053952
20.792064087665768 2.535184233350889 9.557955396874807 8.698924457440075
13.823833426989179 2.10123302348191 5.848643221024971 5.873957182482301
8.26809725857054 1.6957923334701626 3.057302709852183 3.5150022152481957
4.37681084929723 1.302773067404221 1.3338541854591013 1.7401835964339083
1.9122524151024147 0.9069629238778776 0.365643763368852 0.6396457278556866
0.7755698177154933 0.5936371051914267 0.051063998952196786 0.13086871357186955
0.3836602722549939 0.37910639630634 -0.001223804497438748 0.005777680446092708
0.26485367675105076 0.26673964565966035 -0.00036486503705969757 -0.0015211038715498392
0.1879838297978958 0.18806610520134023 -1.0134779858506838e-05 -7.214062358588867e-05
0.10272748773435661 0.10272748773435661 0.0 0.0
0.05857815429328369 0.05857815429328369 0.0 0.0
0.03029267638364651 0.03029267638364651 0.0 0.0
0.07737272247262238 0.07737272247262238 0.0 0.0
0.16502214790090813 0.1650153311372402 3.960330448053176e-07 6.420730623111643e-06
0.2651257148372101 0.2668832381890835 -0.0003673518095174541 -0.0013901715423558884
0.4519527016369895 0.4346728951013805 0.002331358114126372 0.014948448421482645
1.0497107707079103 0.6935668034514639 0.10788433446275097 0.24825963279369512
2.6670126627448205 1.0752593777998227 0.6390015043195124 0.9527517806254842
5.720410617842061 1.5004432936691314 1.8656838545516228 2.3542834696213064
10.595290208761917 1.9513001563801313 4.16754424411809 4.476445808263696
17.311629562377657 2.4354985218543885 7.62090040018662 7.2552306403366575
25.789694990039433 2.957292528985821 12.240175583125772 10.592226877927828
35.92342856979755 3.5352816893168013 17.98833005296415 14.399816827516588
47.68367937232628 4.196326005921565 24.862985245219853 18.624368121184872
60.90268916551398 4.961211821079857 32.696693641653546 23.24478370278062
75.80280149961656 5.809181077030928 41.75859146665957 28.23502895592605
91.82608392448503 6.596383997420037 51.733247799793546 33.49645212727146
107.44668790091205 6.9413924985935465 61.82082123589973 38.68447416641873
120.00550065418062 6.467026948072435 70.54170177990883 42.9967719261994
125.4983641459744 5.433739263840321 74.94037427595013 45.12425060618394
120.04740990897497 5.516497011268696 71.22005022499935 43.31086267270694
128.20584523483632 22.524637540637638 65.26628283294602 40.41492486125266
120.04740990894926 5.516497011258506 71.22005022498875 43.31086267270193
125.49836414594463 5.433739263844971 74.94037427592701 45.12425060617268
120.00550065411153 6.467026948063169 70.5417017798686 42.9967719261797
107.4466879008375 6.941392498589482 61.8208212358527 38.68447416639531
91.82608392439528 6.596383997414594 51.73324779973799 33.49645212724269
75.80280149953109 5.809181077023789 41.75859146660874 28.23502895589852
60.90268916542561 4.961211821068451 32.69669364160439 23.244783702752777
47.68367937224558 4.196326005913896 24.862985245174293 18.624368121157364
35.92342856972468 3.535281689310476 17.988330052923725 14.399816827490472
25.789694989981033 2.9572925289818435 12.24017558309373 10.592226877905453
17.311629562330598 2.4354985218508065 7.620900400161989 7.255230640317805
10.595290208729306 1.9513001563767174 4.1675442441025785 4.476445808250009
5.7204106178218845 1.5004432936679808 1.865683854542143 2.35428346961176
2.6670126627329154 1.0752593777968524 0.6390015043154258 0.9527517806206344
1.0497107707036573 0.6935668034504667 0.10788433446149807 0.24825963279169241
0.4519527016359081 0.4346728951003857 0.002331358114088919 0.01494844842143333
0.2651257148370202 0.2668832381888081 -0.00036735180951037163 -0.0013901715422775006
0.16502214790055011 0.16501533113688313 3.960330447626668e-07 6.4207306222634735e-06
0.0773727224724937 0.0773727224724937 0.0 0.0
0.03029267638357611 0.03029267638357611 0.0 0.0
0.014832883256524196 0.014832883256524196 0.0 0.0
0.05534702258919716 0.05534702258919716 0.0 0.0
0.1428602616977332 0.14285775937306147 1.22441077168008e-07 2.379883594554421e-06
0.2700896641919834 0.2724565992209645 -0.0005075774713640765 -0.0018593575576173053
0.5544796571687429 0.500070830450803 0.012612120397174756 0.04179670632076529
1.428006349403278 0.819821534172295 0.21089156863897282 0.39729324659201015
3.4925691539832777 1.2300015169246035 0.9319657583599106 1.3306018786987641
7.225926988631852 1.6877146654308492 2.533468468634606 3.0047438545663967
13.009725641777218 2.2120072474280454 5.340541294136521 5.457177100212649
20.943746826352 2.7859656616775097 9.509879611543294 8.647901553131199
30.948371925027946 3.4063307150210465 15.050437335681139 12.491603874325772
42.98483880362063 4.0916626587786045 21.9934095751915 16.899766569650538
56.85398422723779 4.856248868532408 30.188602401198903 21.80913295750648
72.7501742747767 5.713584793332858 39.8634634388614 27.173126042582375
90.24556623138831 6.641872824625448 50.65056560497613 32.953127801786735
108.91121849167254 7.453967784987144 62.43971287121127 39.01753783547415
127.29473295852033 7.669667543650975 74.63892736502457 44.986138049844826
142.03239250465094 6.817199465445662 85.20176830063711 50.01342473856819
148.90875588783214 5.467309522044157 90.79944546553381 52.64200090025415
143.92250966476928 5.824835971786544 87.17647059074639 50.921203102236404
153.87413667384203 25.51440740148771 80.55577491342231 47.803954358932025
143.9225096647552 5.824835971794554 87.17647059073118 50.92120310222947
148.90875588776245 5.4673095220206065 90.79944546550237 52.64200090023941
142.03239250457935 6.817199465448601 85.20176830058608 50.013424738544686
127.29473295842462 7.669667543640021 74.63892736496742 44.986138049817185
108.91121849158253 7.453967784994102 62.43971287114654 39.017537835441786
90.24556623128468 6.6418728246178675 50.65056560491291 32.95312780175391
72.75017427468762 5.7135847933371355 39.86346343880113 27.173126042549352
56.853984227149816 4.856248868529461 30.188602401145076 21.809132957475235
42.98483880353832 4.091662658776081 21.993409575142255 16.899766569619985
30.948371924958423 3.406330715014516 15.050437335643457 12.491603874300466
20.94374682630073 2.785965661674918 9.509879611515181 8.647901553110614
13.009725641738772 2.2120072474264165 5.34054129411637 5.457177100195985
7.225926988606844 1.687714665427608 2.533468468623754 3.0047438545554845
3.4925691539694195 1.2300015169219898 0.9319657583546307 1.3306018786927987
1.4280063493979818 0.8198215341709562 0.21089156863734682 0.3972932465896786
0.5544796571672577 0.5000708304499593 0.012612120396964098 0.04179670632033421
0.2700896641915857 0.2724565992203635 -0.0005075774713466018 -0.0018593575574312085
0.14286026169751215 0.14285775937284362 1.2244107697319608e-07 2.3798835915387224e-06
0.055347022589211294 0.055347022589211294 0.0 0.0
0.014832883256544024 0.014832883256544024 0.0 0.0
0.007153583928559708 0.007153583928559708 0.0 0.0
0.03830301253103362 0.03830301253103362 0.0 0.0
0.12480041307615768 0.12480041307615768 0.0 0.0
0.2872107965426252 0.2908270170944554 -0.0009025810103575544 -0.0027136395414725433
0.7021371330222 0.5768986215452482 0.032858646652665316 0.09237986482428676
1.8997677928256576 0.9471177936838615 0.3580641945771391 0.5945858045646574
4.400041810363182 1.3648315903038444 1.2828690932643203 1.752341126795015
8.826976506706883 1.875843770066446 3.271283462340182 3.67984927430026
15.511980833276397 2.476958869434446 6.584676880423835 6.450345083418116
24.67439584943007 3.1513363413256332 11.476831968390174 10.046227539714273
36.2826866968646 3.8870416862991544 18.00267388144968 14.392971129115748
50.207137084406526 4.689242637430506 26.11513024817248 19.402764198803574
66.50174990244193 5.575502056532249 35.93044780418931 24.995800041720333
84.72824134566991 6.53006839085463 47.0827425644894 31.115430390325947
104.89985958010249 7.469946822366362 59.772446856805544 37.657465900930596
126.2101318653803 8.230871230474474 73.52999495335614 44.44926568154965
147.10255469782948 8.419134533755123 87.56035234514462 51.12306781892972
164.26225937796434 7.363543116947186 100.02721572954673 56.87150053147043
173.0662792046635 5.513217451070448 107.39927746844246 60.15378428515059
169.44009050914997 6.083118934266427 104.51723244867529 58.839739126208165
181.7741690464916 28.33635920131958 97.65395533688006 55.78385450829202
169.4400905091064 6.083118934249442 104.51723244865677 58.83973912620016
173.06627920459428 5.513217451066195 107.3992774683978 60.15378428513032
164.2622593778828 7.363543116952998 100.02721572948674 56.87150053144305
147.1025546977078 8.419134533738212 87.56035234507318 51.12306781889647
126.21013186526885 8.230871230471394 73.5299949532832 44.449265681514326
104.89985957999875 7.469946822373377 59.772446856731875 37.65746590089347
84.72824134556016 6.53006839085018 47.082742564420585 31.11543039028943
66.50174990233064 5.575502056519065 35.93044780412633 24.995800041685257
50.20713708431706 4.689242637430749 26.115130248116273 19.40276419877003
36.2826866967857 3.8870416862927124 18.002673881405677 14.392971129087304
24.674395849365613 3.1513363413152735 11.4768319683585 10.046227539691836
15.511980833233437 2.476958869432421 6.584676880401053 6.450345083399963
8.826976506676345 1.8758437700622206 3.2712834623264735 3.679849274287646
4.4000418103459475 1.3648315903015624 1.282869093257411 1.7523411267869777
1.8997677928186327 0.9471177936813094 0.358064194575223 0.5945858045621011
0.7021371330199111 0.5768986215444609 0.032858646652127316 0.09237986482332305
0.28721079654210635 0.2908270170937901 -0.0009025810103310929 -0.0027136395413528648
0.12480041307591339 0.12480041307591339 0.0 0.0
0.03830301253109882 0.03830301253109882 0.0 0.0
0.007153583928501667 0.007153583928501667 0.0 0.0
0.0033970434053942227 0.0033970434053942227 0.0 0.0
0.026638090184939296 0.026638090184939296 0.0 0.0
0.11542918758705231 0.11542918758705231 0.0 0.0
0.328590812144941 0.32874441019575573 -0.0007794233746472772 0.0006258253238324149
0.9210091443490873 0.6759486903309667 0.07727305372929176 0.16778740028882855
2.4320420413846104 1.0608046121010137 0.53185223678544 0.8393851924981566
5.416578710452999 1.4996482626134515 1.717404288986185 2.199526158853361
10.487323360765128 2.0608624205875157 4.054401565242048 4.372059374935565
18.100018974734834 2.7454213194838406 7.9047586931366975 7.449838962114294
28.4864711580033 3.532641239172598 13.509449264030982 11.444380654799737
41.70531984476944 4.394965987472945 21.016442153165503 16.293911704130966
57.72631799243663 5.3357131678456415 30.48615805948299 21.904446765107977
76.16896553595691 6.353418144603724 41.62443858773438 28.191108803618846
97.10111013175751 7.389298195379588 54.65821284924132 35.05359908713655
119.89207158270109 8.32521048779621 69.21597974268497 42.35088135222
143.5837943637752 8.94048698573551 84.81335290285517 49.829954475184486
166.61120186195822 8.991835151294577 100.5480567194341 57.07130999122953
186.34279094429735 8.15104170001461 114.77639800905888 63.4153512352238
197.68112918231097 5.723854826044466 124.35525594398213 67.60201841228444
196.873858891301 6.0851179020713 123.56788917625836 67.22085181297126
212.4521122934294 30.186092277415526 117.60245092795896 64.66356908805496
196.8738588912532 6.085117902059552 123.56788917623365 67.22085181295998
197.68112918225805 5.723854826063913 124.35525594393192 67.60201841226225
186.3427909441794 8.151041700005418 114.77639800898359 63.41535123519036
166.61120186184195 8.991835151299636 100.54805671935057 57.071309991191654
143.5837943636418 8.940486985728157 84.81335290276952 49.82995447514416
119.8920715825777 8.32521048779671 69.2159797426018 42.35088135217916
97.1011101316261 7.3892981953669805 54.65821284916275 35.05359908709636
76.16896553584115 6.353418144602618 41.62443858766 28.191108803578466
57.72631799232806 5.33571316783664 30.486158059419893 21.904446765071526
41.70531984468032 4.394965987467394 21.016442153114006 16.29391170409893
28.48647115793553 3.5326412391674182 13.509449263993806 11.444380654774314
18.100018974683646 2.7454213194771526 7.904758693111504 7.449838962094986
10.487323360730434 2.060862420583559 4.054401565225711 4.372059374921166
5.4165787104348215 1.4996482626129828 1.717404288977588 2.1995261588442494
2.4320420413747192 1.060804612098206 0.5318522367822835 0.8393851924942303
0.9210091443462226 0.6759486903298091 0.0772730537286372 0.16778740028777625
0.3285908121443525 0.3287444101950602 -0.0007794233746370915 0.0006258253239295971
0.11542918758684295 0.11542918758684295 0.0 0.0
0.026638090184930224 0.026638090184930224 0.0 0.0
0.0033970434053648734 0.0033970434053648734 0.0 0.0
0.00110111069421017 0.00110111069421017 0.0 0.0
0.019681748080453195 0.019681748080453195 0.0 0.0
0.12232348291453947 0.12232348291453947 0.0 0.0
0.4152535729672109 0.3978850337344467 0.003202086531714207 0.014166452701050124
1.2321470205775562 0.8371740664751046 0.13686670269945833 0.2581062514029937
3.104488779456015 1.341542324489164 0.7090081998537601 1.0539382551130887
6.60574834765565 1.9634077903775657 2.0818003389050403 2.5605402183730415
12.408847915548654 2.810911923300801 4.691034304564403 4.9069016876834555
21.058743071101027 3.9319579666128854 8.91632893367266 8.21045617081549
32.94437104479577 5.342862277966178 15.099074729862473 12.502434036967099
48.16197869222206 7.034159982462831 23.398541336969384 17.729277372789884
66.49004048073172 8.981649247059996 33.711298891822466 23.797092341849222
87.8582481534694 11.12711434504356 46.130550514254416 30.600583294171443
111.86526961545214 13.352126112152582 60.492053538754476 38.02108996454508
137.6974640320018 15.330588845013706 76.49565059216741 45.871224594820575
163.9443432016753 16.57340399357382 93.53043075742427 53.840508450677284
188.54739296818724 16.621681911303103 110.44053387478736 61.48517718209675
209.29094106672758 15.535682350895893 125.61021928928301 68.14503942654873
223.50735014018719 13.893941958144548 136.69841757029533 72.91499061174733
219.22233946838566 6.254343196239175 138.99529389297035 73.97270237917618
299.40072263461803 90.56378693879047 136.2137524787479 72.62318321707968
219.2223394683562 6.254343196250329 138.99529389294145 73.97270237916436
223.50735014008964 13.893941958121683 136.6984175702425 72.91499061172541
209.2909410666452 15.5356823509428 125.6102192891938 68.14503942650875
188.54739296803538 16.62168191128274 110.44053387469673 61.485177182056006
163.9443432015404 16.573403993578697 93.53043075732774 53.84050845063379
137.69746403186056 15.33058884500825 76.49565059207569 45.87122459477671
111.86526961530458 13.352126112134991 60.492053538668 38.021089964501606
87.85824815334476 11.127114345043726 46.13055051417277 30.600583294128313
66.4900404806104 8.981649247048793 33.71129889175215 23.797092341809428
48.16197869212469 7.034159982457246 23.39854133691229 17.72927737275515
32.94437104471733 5.342862277955423 15.099074729821773 12.50243403694013
21.058743071039885 3.9319579666005375 8.91632893364463 8.210456170794734
12.408847915510414 2.8109119232968807 4.69103430454585 4.906901687667687
6.605748347632435 1.9634077903726066 2.0818003388959725 2.5605402183638555
3.1044887794449476 1.341542324487013 0.7090081998498862 1.053938255108049
1.2321470205731129 0.8371740664725035 0.1368667026987166 0.2581062514018926
0.41525357296590015 0.39788503373326467 0.0032020865316785257 0.014166452700956414
0.12232348291426814 0.12232348291426814 0.0 0.0
0.019681748080435126 0.019681748080435126 0.0 0.0
0.0011011106942240077 0.0011011106942240077 0.0 0.0
CELL_DATA 800
SCALARS Stress float 6
LOOKUP_TABLE default
171.13332312368982 -524.2575846748437 -181.9376740572649 -110.74820495567272 0.0 0.0
404.3005197798466 -83.93584446545812 115.66640535850505 54.47149341097612 0.0 0.0
420.4868012180779 7.872192892299313 128.5899492861535 -2.642039074902149 0.0 0.0
479.50399498016066 -16.694261486837775 151.7405877240701 -15.718156265059537 0.0 0.0
557.8168309441322 -23.443420163260043 213.14479188086455 -11.685634325354275 0.0 0.0
633.4456573680433 -19.942077942141054 284.6561176696914 -10.449784031453976 0.0 0.0
706.5706014286307 -14.387902220727597 338.2210969391932 -11.406639906782045 0.0 0.0
780.9165133563981 -0.4775851940024154 386.2017897300892 -13.393232714105178 0.0 0.0
858.6155977209837 22.33180127388519 437.5106972573828 -15.278298846313028 0.0 0.0
938.9619408337812 52.6649647821732 493.3814390339504 -16.46836075717421 0.0 0.0
1019.8486689232227 87.8849663292217 551.819122544835 -16.935765433996792 0.0 0.0
1099.8451537757262 126.6113414928717 611.4652563280919 -16.912299219413164 0.0 0.0
1179.1288711269244 167.91665459840283 671.9600263332463 -16.729976281841758 0.0 0.0
1258.543877059403 212.3721622221878 734.0345214230975 -16.400129338254114 0.0 0.0
1338.571908756024 260.47119853993786 798.1999195057626 -15.773207731990741 0.0 0.0
1418.3702394327597 311.5070650198456 863.6984277193386 -14.65102245676035 0.0 0.0
1495.479951337846 363.46835431983413 928.3036229688505 -12.93454999744042 0.0 0.0
1567.6294312141558 414.68672092732345 990.0310583075807 -11.006388982878462 0.0 0.0
1635.3056528950415 466.5061885014323 1049.7354844525491 -10.746435876620833 0.0 0.0
1739.2040866362318 561.7079653893092 1148.7909141847 -17.868082862680268 0.0 0.0
1739.2040866359011 561.7079653890019 1148.7909141844323 17.868082862880698 0.0 0.0
1635.3056528941813 466.50618850060846 1049.7354844519073 10.746435876577731 0.0 0.0
1567.6294312133987 414.68672092665196 990.0310583069042 11.006388982906286 0.0 0.0
1495.4799513357577 363.46835431785377 928.3036229673073 12.934549997491196 0.0 0.0
1418.370239430597 311.50706501778745 863.6984277177171 14.651022456588645 0.0 0.0
1338.5719087551522 260.47119853922806 798.1999195050137 15.773207732099024 0.0 0.0
1258.543877058179 212.37216222113682 734.0345214222107 16.400129338392155 0.0 0.0
1179.1288711261934 167.9166545978797 671.9600263327267 16.72997628181891 0.0 0.0
1099.8451537756755 126.61134149305656 611.4652563280138 16.912299219420852 0.0 0.0
1019.8486689227159 87.88496632895692 551.8191225444605 16.935765434062397 0.0 0.0
938.961940833138 52.6649647818038 493.3814390334968 16.468360757191327 0.0 0.0
858.615597720228 22.33180127339091 437.51069725686426 15.27829884633319 0.0 0.0
780.9165133560489 -0.4775851940765392 386.2017897298225 13.393232714031186 0.0 0.0
706.5706014279027 -14.387902221187133 338.2210969387493 11.406639906891556 0.0 0.0
633.4456573674976 -19.94207794237972 284.6561176693011 10.449784031474682 0.0 0.0
557.8168309439385 -23.443420163178004 213.14479188065735 11.685634325298746 0.0 0.0
479.50399498015065 -16.694261486569367 151.74058772410132 15.718156265066906 0.0 0.0
420.4868012178771 7.87219289225585 128.58994928609064 2.6420390748665827 0.0 0.0
404.300519779901 -83.93584446531376 115.66640535852358 -54.471493410906376 0.0 0.0
171.13332312419973 -524.2575846743639 -181.93767405676206 110.74820495530551 0.0 0.0
70.34700308842099 -550.5673783549216 -243.47866038870677 -161.27649962738596 0.0 0.0
280.55090988693706 -77.83715876884865 61.179445831466595 8.329953502911787 0.0 0.0
369.3981092611474 34.33057652122132 121.13299127856425 -9.593615316194196 0.0 0.0
444.6566771385546 -15.193724614956666 134.4758958767346 -36.197307682122506 0.0 0.0
530.4091204261973 -23.45832924364305 190.20353440966403 -33.65959629402632 0.0 0.0
610.2763575375035 -20.545746756367205 265.58783766564744 -30.929225965530946 0.0 0.0
687.0119079353669 -14.324934380581382 325.81614166626593 -32.30858960633053 0.0 0.0
762.3004984019663 -0.494640284752478 376.01695562958247 -35.31489537270231 0.0 0.0
838.4863572758666 20.875813723403184 426.323758168107 -38.10517049574665 0.0 0.0
915.4300593539365 48.34230670305193 479.22942637842465 -39.481921676138214 0.0 0.0
991.5910227317447 79.62616724400444 533.4079954351322 -39.54469729319589 0.0 0.0
1066.5290460089268 113.58658720790416 588.1690829427547 -38.94958907855984 0.0 0.0
1140.5104904867512 150.45321424344962 643.8166767791556 -38.1061217608182 0.0 0.0
1214.3225853575254 190.04944822175423 700.6874216147773 -37.04485092517642 0.0 0.0
1288.1452701283906 232.4355637867352 758.916645066952 -35.498130290936814 0.0 0.0
1361.5000216632286 277.35007414396034 818.1455867788175 -33.080092123034355 0.0 0.0
1433.4976120256626 324.2972572789272 877.6768041180027 -29.76387869172653 0.0 0.0
1503.9536217838909 373.8511591027067 937.677075879085 -26.569208952060606 0.0 0.0
1580.473733698011 434.8378766251266 1006.2873817773874 -25.305478874475636 0.0 0.0
1637.5689508499627 483.13194240886037 1058.8744571626705 -26.09864514006274 0.0 0.0
1637.5689508500773 483.13194240899554 1058.8744571627929 26.098645140181297 0.0 0.0
1580.4737336964413 434.83787662357935 1006.2873817763119 25.305478874306868 0.0 0.0
1503.953621784066 373.85115910294246 937.6770758792196 26.569208952011234 0.0 0.0
1433.497612025861 324.2972572792608 877.6768041181258 29.763878691910296 0.0 0.0
1361.500021663515 277.35007414435995 818.1455867789934 33.080092123003084 0.0 0.0
1288.1452701289718 232.43556378750492 758.9166450673796 35.49813029100599 0.0 0.0
1214.3225853588262 190.04944822322346 700.6874216156679 37.04485092521968 0.0 0.0
1140.5104904872207 150.45321424412487 643.8166767795003 38.106121760780155 0.0 0.0
1066.5290460090828 113.58658720827196 588.1690829427976 38.94958907851733 0.0 0.0
991.5910227324974 79.62616724500666 533.4079954355901 39.54469729315707 0.0 0.0
915.4300593541334 48.34230670350013 479.22942637855385 39.4819216760677 0.0 0.0
838.486357275326 20.875813723099782 426.32375816779285 38.105170495662726 0.0 0.0
762.3004984012822 -0.49464028518181635 376.01695562914836 35.314895372447396 0.0 0.0
687.0119079351435 -14.324934380530053 325.8161416660615 32.308589606137446 0.0 0.0
610.2763575376888 -20.54574675584972 265.58783766568405 30.929225965520615 0.0 0.0
530.4091204259037 -23.458329243585 190.20353440943487 33.65959629411825 0.0 0.0
444.65667713853054 -15.193724614602832 134.47589587679676 36.197307682136156 0.0 0.0
369.39810926106725 34.330576521225986 121.13299127854603 9.593615316188739 0.0 0.0
280.5509098872491 -77.8371587683357 61.17944583172407 -8.329953503007602 0.0 0.0
70.3470030886615 -550.5673783545685 -243.4786603883921 161.27649962716927 0.0 0.0
15.208134456322114 -560.6152659917441 -270.2473595245984 -176.95951113522827 0.0 0.0
157.24806674682472 -65.57530930107768 27.501827233724114 -46.95666179572903 0.0 0.0
299.9529047570101 38.42794444546071 101.51425476074125 -34.2593215955559 0.0 0.0
399.9267085233719 -5.939542534756641 119.809892195245 -56.7757701422638 0.0 0.0
494.37894460730615 -22.22129952494444 166.26367514317175 -57.700276691591014 0.0 0.0
583.4444304628169 -22.289249631920246 241.81133822172234 -52.99598358145562 0.0 0.0
663.4107142572979 -13.412582864039194 310.53568630715534 -53.58023348137757 0.0 0.0
739.2360904565157 -0.42270757403522197 363.25126727867655 -57.07302390871691 0.0 0.0
814.1178497282616 19.418917355314676 412.9192058499186 -60.34741735892961 0.0 0.0
887.5876926984503 43.72146009257385 462.72912456995175 -61.669639922047416 0.0 0.0
959.250390943098 70.98043693031356 512.7269086485137 -61.32417988041634 0.0 0.0
1029.133647289903 100.7304415980771 562.8957323013252 -60.1858178378449 0.0 0.0
1098.0162437517727 132.72254815251165 613.5865519531885 -58.8049060137886 0.0 0.0
1166.0217144321232 167.164968685426 665.0096094000761 -57.05009614419132 0.0 0.0
1233.4521195344842 203.61928683732205 717.1056026465499 -54.646519254918424 0.0 0.0
1300.554341212905 242.40143220146572 770.1505951026609 -51.23367733160142 0.0 0.0
1367.890752870605 284.6119802821444 824.9621383698612 -46.8937707385889 0.0 0.0
1437.5823358103917 333.2764828019856 884.1024258553455 -42.55384173480057 0.0 0.0
1503.4546214274494 383.2616263736723 941.9742080757012 -38.289860718962764 0.0 0.0
1550.6865450662556 420.7746478259336 984.2757223383501 -32.99332622778286 0.0 0.0
1550.6865450652274 420.7746478249254 984.2757223374983 32.993326227843006 0.0 0.0
1503.4546214273237 383.2616263735698 941.9742080754532 38.2898607188498 0.0 0.0
1437.582335811112 333.2764828028284 884.1024258556674 42.55384173510224 0.0 0.0
1367.8907528693694 284.6119802810262 824.9621383690117 46.89377073875193 0.0 0.0
1300.5543412118334 242.40143220048674 770.1505951017248 51.233677331451716 0.0 0.0
1233.4521195333239 203.61928683633272 717.105602645601 54.646519255051274 0.0 0.0
1166.0217144311753 167.1649686846494 665.0096093993101 57.05009614418255 0.0 0.0
1098.0162437505062 132.72254815142105 613.5865519522745 58.804906013788276 0.0 0.0
1029.1336472897312 100.73044159814032 562.8957323011119 60.18581783790593 0.0 0.0
959.250390943028 70.98043693051801 512.7269086484048 61.32417988052477 0.0 0.0
887.5876926976882 43.72146009207381 462.72912456946796 61.66963992206095 0.0 0.0
814.1178497274983 19.418917354789727 412.9192058493941 60.347417358774536 0.0 0.0
739.2360904562524 -0.42270757404975257 363.25126727848203 57.073023908629445 0.0 0.0
663.4107142568942 -13.412582864132105 310.5356863068799 53.58023348139679 0.0 0.0
583.4444304625315 -22.289249631953773 241.81133822143408 52.99598358121487 0.0 0.0
494.37894460721645 -22.22129952463321 166.26367514309607 57.700276691620545 0.0 0.0
399.9267085232304 -5.939542534424131 119.80989219530035 56.7757701423111 0.0 0.0
299.95290475711823 38.42794444570224 101.51425476084614 34.25932159570962 0.0 0.0
157.24806674711297 -65.57530930066136 27.501827233935472 46.95666179551553 0.0 0.0
15.208134456466581 -560.6152659915047 -270.24735952436464 176.95951113508255 0.0 0.0
-6.08952566972053 -550.5190454733923 -269.108394131682 -178.96852356627852 0.0 0.0
89.69050551670398 -60.468185311503284 8.766696061560207 -93.86153768979719 0.0 0.0
234.3357169363196 34.65295559492141 80.6966017593723 -67.80215149360541 0.0 0.0
345.78473381473896 3.814461499911907 105.09595342171052 -79.23720962362029 0.0 0.0
448.6446082605629 -20.31494503991892 141.76407801637262 -84.29863538988437 0.0 0.0
547.2490909327322 -22.24083661559215 214.00730103167794 -76.83301424560406 0.0 0.0
633.2120213568505 -13.643369970982047 289.3846319487003 -75.51294101106829 0.0 0.0
711.5366655588623 0.21985929268909388 347.7488759731648 -78.74447599209579 0.0 0.0
784.7808595587147 17.773286210635256 396.73360379027014 -81.97528961217502 0.0 0.0
855.00754358628 38.8879785338826 443.672667031678 -83.0445348348212 0.0 0.0
922.3591714884799 62.22565519297258 489.674412627282 -82.28181358907709 0.0 0.0
987.4782197924736 87.61853090180068 535.3362013233567 -80.68718343917902 0.0 0.0
1050.9518052599594 114.91299743090782 581.0097853970854 -78.75092678903269 0.0 0.0
1113.4225188178134 144.04705833805565 627.0485094076291 -76.38408249138666 0.0 0.0
1174.5838779324265 174.41705389023133 673.0008719920424 -73.27434070679229 0.0 0.0
1235.200070170712 207.05872906660912 719.74450683063 -69.16605923986519 0.0 0.0
1297.7484982643468 244.2896302532468 769.663336006666 -64.16545291622045 0.0 0.0
1361.8699196233442 286.8235117129976 822.969653968548 -58.411995441105745 0.0 0.0
1421.6231780528803 329.6138331535175 874.2046080216207 -50.90325279068338 0.0 0.0
1465.430902375598 362.0359953557167 912.258466719617 -40.24598221878312 0.0 0.0
1465.430902375578 362.03599535572255 912.2584667198738 40.2459822188002 0.0 0.0
1421.6231780537507 329.6138331544081 874.2046080222897 50.90325279064559 0.0 0.0
1361.8699196229109 286.82351171265657 822.969653968086 58.41199544114818 0.0 0.0
1297.7484982623655 244.28963025129462 769.6633360052583 64.16545291609462 0.0 0.0
1235.2000701711127 207.05872906714018 719.744506830903 69.16605923987794 0.0 0.0
1174.5838779327948 174.41705389075355 673.0008719922489 73.27434070683638 0.0 0.0
1113.4225188172827 144.04705833769424 627.0485094071887 76.38408249142203 0.0 0.0
1050.9518052592748 114.91299743044289 581.0097853965881 78.75092678916714 0.0 0.0
987.4782197919513 87.61853090153087 535.3362013230086 80.68718343934759 0.0 0.0
922.3591714871137 62.22565519184448 489.6744126263631 82.2818135891076 0.0 0.0
855.0075435861453 38.88797853395678 443.67266703156673 83.04453483473674 0.0 0.0
784.7808595583464 17.773286210604766 396.73360379006806 81.9752896123221 0.0 0.0
711.5366655586788 0.2198592928479286 347.74887597305326 78.74447599218182 0.0 0.0
633.2120213569386 -13.643369970492898 289.38463194870565 75.51294101112907 0.0 0.0
547.2490909321613 -22.240836615904918 214.00730103124306 76.83301424552873 0.0 0.0
448.6446082600078 -20.31494504015052 141.76407801607007 84.29863538982296 0.0 0.0
345.78473381436186 3.814461499601366 105.09595342150996 79.23720962340684 0.0 0.0
234.33571693620485 34.65295559460382 80.6966017592426 67.80215149337054 0.0 0.0
89.69050551683476 -60.46818531127643 8.7666960616675 93.86153768948546 0.0 0.0
-6.089525669627761 -550.5190454732177 -269.108394131481 178.9685235661069 0.0 0.0
-11.326044471306645 -528.3624913230597 -252.40592918034565 -176.14167058289243 0.0 0.0
52.75005332332216 -56.60221515906646 -1.1556485507232868 -130.40765702712406 0.0 0.0
178.29946167763126 27.68898490526637 61.79653397486929 -101.68403595962775 0.0 0.0
287.8860118174962 10.543345119273171 89.56127626945883 -103.06368160897452 0.0 0.0
391.68399530095655 -15.977722770805544 118.3462437874296 -111.83955314017891 0.0 0.0
500.2768911312419 -21.759791981731063 182.3938529518318 -103.7477969094757 0.0 0.0
595.818333873453 -14.122949063251198 262.09356547170455 -98.86601282457046 0.0 0.0
677.5131822776228 0.39069489395000545 327.53988808469614 -100.38530464128758 0.0 0.0
749.9077140161231 16.19907436678406 377.41029187072456 -103.00899414946511 0.0 0.0
817.0438057635472 33.88450582937234 421.7003512396145 -103.66056398431917 0.0 0.0
880.3754680086619 53.377506562072895 463.9533647685978 -102.42638318054154 0.0 0.0
940.5772921239911 74.37968395372883 505.04616406933036 -100.3925691953159 0.0 0.0
998.793956382498 96.84795605007429 545.7336693236803 -98.03960243717037 0.0 0.0
1055.4579961062043 120.78322606500309 586.3020247855236 -95.04964140677367 0.0 0.0
1110.6752154215628 145.48847968345964 626.4867265803966 -91.31667670223788 0.0 0.0
1165.2161913950779 171.74962996105486 667.0362364124719 -86.82508274110884 0.0 0.0
1220.760024850686 201.9341640468962 709.9496039366327 -81.3463860241321 0.0 0.0
1278.4979387507594 237.2528400231074 756.4634466532652 -74.33571006620164 0.0 0.0
1334.0968761564764 274.089585896687 802.6434281276644 -63.92625668503265 0.0 0.0
1378.217550493906 304.3066355447368 839.7338134074174 -48.4813852418318 0.0 0.0
1378.2175504938448 304.3066355446927 839.733813407364 48.48138524184426 0.0 0.0
1334.0968761571949 274.08958589749557 802.6434281281463 63.92625668522117 0.0 0.0
1278.4979387503738 237.25284002282217 756.4634466529892 74.33571006638563 0.0 0.0
1220.760024850275 201.93416404666817 709.9496039362954 81.34638602441636 0.0 0.0
1165.2161913938498 171.74962995995884 667.0362364115088 86.82508274119701 0.0 0.0
1110.6752154200321 145.48847968205257 626.4867265794439 91.31667670226604 0.0 0.0
1055.457996105568 120.78322606452338 586.302024785071 95.04964140679118 0.0 0.0
998.7939563816424 96.84795604938458 545.7336693231523 98.03960243720371 0.0 0.0
940.5772921236587 74.37968395367335 505.0461640691044 100.39256919545869 0.0 0.0
880.3754680077813 53.37750656140494 463.9533647679792 102.42638318053898 0.0 0.0
817.0438057627381 33.884505828737275 421.70035123898333 103.66056398419487 0.0 0.0
749.9077140158333 16.19907436672949 377.41029187052595 103.00899414939914 0.0 0.0
677.5131822765042 0.3906948930767129 327.5398880839681 100.38530464124807 0.0 0.0
595.8183338728434 -14.122949063606029 262.0935654712122 98.86601282443408 0.0 0.0
500.27689113118424 -21.7597919813948 182.39385295173335 103.74779690943309 0.0 0.0
391.68399530091745 -15.977722770265169 118.346243787525 111.83955314006334 0.0 0.0
287.88601181754433 10.543345119742007 89.56127626962183 103.06368160883736 0.0 0.0
178.2994616776163 27.688984905259964 61.79653397486288 101.68403595941426 0.0 0.0
52.75005332345987 -56.602215158617035 -1.1556485505471485 130.4076570269063 0.0 0.0
-11.32604447113836 -528.3624913227533 -252.40592918005177 176.1416705827166 0.0 0.0
-9.302656146011955 -498.06935413726956 -226.49559666652712 -172.09572009829557 0.0 0.0
31.40251101173969 -52.34264070390508 -6.282038907649619 -157.7267905985942 0.0 0.0
130.98872680733987 20.18018198019637 45.35067263626087 -131.44654343383297 0.0 0.0
229.7557493449824 13.28019056925544 72.9068055156878 -127.11049591616421 0.0 0.0
325.4504444938173 -9.0203154488169 96.96272418043273 -137.53176696201658 0.0 0.0
437.05491329784604 -20.81567917726636 147.59480961873703 -133.96970626894984 0.0 0.0
545.1221818204119 -13.6215107090225 227.09866980156673 -124.55739241285428 0.0 0.0
633.7003541216392 -0.6252892701079062 299.4852122976035 -122.65527756483502 0.0 0.0
707.9212000413544 14.29709505229279 353.48001567848905 -123.71035247572793 0.0 0.0
772.5882897192163 28.871117303947315 396.1813937439414 -123.5224634980593 0.0 0.0
831.8447178349154 44.382956562556046 434.7527546603143 -121.77589995500324 0.0 0.0
887.3450922990378 61.106111272233946 471.5060844681394 -119.3194516592232 0.0 0.0
940.0427085939177 78.7571319742318 507.108841842234 -116.56446531247643 0.0 0.0
991.0219915004777 97.3210482034262 542.1881858000266 -113.18921204452572 0.0 0.0
1040.8370032641228 116.76930575556392 577.0755229758049 -108.91010950129714 0.0 0.0
1088.7149245018807 136.8899735148516 611.2850844690514 -103.91869861609517 0.0 0.0
1136.3923664090998 158.6330696751769 646.0976555251137 -98.25492117194321 0.0 0.0
1186.5510189857744 185.10013504277356 684.4030652463373 -90.57171573429261 0.0 0.0
1238.6576816722604 216.16910746757378 725.9259667131508 -77.95653084124557 0.0 0.0
1285.9611930927806 245.97605179773743 764.3544579245238 -58.38597542682996 0.0 0.0
1285.9611930925562 245.97605179743994 764.3544579244018 58.3859754265904 0.0 0.0
1238.6576816732545 216.16910746872998 725.9259667139245 77.95653084164064 0.0 0.0
1186.5510189868003 185.1001350439547 684.4030652469216 90.57171573456415 0.0 0.0
1136.392366409163 158.6330696754323 646.0976555250295 98.25492117217127 0.0 0.0
1088.7149245018509 136.88997351488047 611.2850844690136 103.91869861592679 0.0 0.0
1040.8370032623795 116.76930575387519 577.0755229745104 108.91010950116524 0.0 0.0
991.0219915006729 97.32104820376952 542.1881858000697 113.18921204451834 0.0 0.0
940.0427085936552 78.75713197415001 507.1088418419347 116.5644653125375 0.0 0.0
887.3450922980884 61.10611127152754 471.50608446744553 119.31945165925623 0.0 0.0
831.844717834674 44.382956562491074 434.7527546601713 121.77589995495998 0.0 0.0
772.5882897189388 28.871117303872722 396.1813937437773 123.52246349795993 0.0 0.0
707.9212000409831 14.29709505215844 353.4800156781951 123.71035247565106 0.0 0.0
633.7003541216557 -0.6252892697511641 299.48521229756443 122.65527756484502 0.0 0.0
545.1221818200764 -13.621510708975528 227.09866980127913 124.5573924128295 0.0 0.0
437.0549132977873 -20.81567917698114 147.5948096186632 133.9697062687922 0.0 0.0
325.45044449354816 -9.020315448771505 96.96272418036511 137.53176696183294 0.0 0.0
229.75574934486872 13.280190569090518 72.90680551560563 127.11049591600477 0.0 0.0
130.98872680737992 20.180181980311136 45.35067263630731 131.44654343372625 0.0 0.0
31.402511011644144 -52.34264070383623 -6.282038907657626 157.7267905986198 0.0 0.0
-9.30265614599007 -498.06935413681236 -226.4955966662308 172.09572009837262 0.0 0.0
-3.8644081705269855 -461.27939289798053 -194.8009738202938 -168.37988245337098 0.0 0.0
17.314403803287625 -48.29370868087442 -9.293589267734411 -177.01595874375744 0.0 0.0
89.72361830196168 13.344726194491662 30.919885381761866 -155.26597642547517 0.0 0.0
171.91041135234528 14.231610918627695 55.839483103604714 -149.46479304541973 0.0 0.0
254.13080384440863 -2.141900784731356 76.52968780040564 -159.6958854151462 0.0 0.0
358.4442680696492 -17.02602843165346 113.03458800614592 -165.2698771895525 0.0 0.0
476.00680213691965 -13.605197405291563 183.4502169665011 -154.15769276471661 0.0 0.0
576.264404527343 -1.4098472810363916 261.38831661448194 -146.45146407293302 0.0 0.0
654.6333600257476 11.461026211916053 321.3333839784874 -144.5008564546124 0.0 0.0
718.9589462454519 23.684444699811838 365.2325393596454 -142.84081564030816 0.0 0.0
774.4092764019838 35.240090870361264 400.7235630710277 -140.35047290703886 0.0 0.0
825.3277665602949 47.90465111836034 433.46228530956444 -137.4517800390662 0.0 0.0
872.4689530708608 60.7076565962696 464.01907724070514 -134.36853397937818 0.0 0.0
917.3074756060914 73.92019687884236 493.43955524605667 -130.75710420913524 0.0 0.0
961.2688360269572 87.92578836678652 522.6977415782492 -126.12136541170877 0.0 0.0
1004.1734943758956 102.73784483736328 551.8317844878255 -120.5615533781415 0.0 0.0
1043.2966170934244 115.93120561115212 578.2147313492294 -114.56889290135244 0.0 0.0
1083.403814676365 131.29483500575327 605.9709404392769 -107.02448889533981 0.0 0.0
1131.3844228155203 154.6895042470647 641.5296000396918 -93.59721940562432 0.0 0.0
1184.768191006605 185.3829915559038 683.3361802221345 -70.97628274535852 0.0 0.0
1184.7681910071917 185.38299155649372 683.3361802224201 70.97628274531374 0.0 0.0
1131.3844228156065 154.68950424741416 641.5296000396974 93.59721940621665 0.0 0.0
1083.4038146772048 131.2948350067008 605.9709404398841 107.02448889559005 0.0 0.0
1043.2966170929667 115.93120561089455 578.2147313490665 114.56889290147053 0.0 0.0
1004.1734943760702 102.73784483751655 551.8317844879618 120.56155337790302 0.0 0.0
961.2688360276492 87.92578836771747 522.6977415787744 126.12136541189423 0.0 0.0
917.3074756056905 73.92019687863163 493.43955524575296 130.75710420923167 0.0 0.0
872.4689530688622 60.70765659432843 464.01907723938155 134.36853397925762 0.0 0.0
825.3277665593952 47.9046511175238 433.46228530892 137.4517800389361 0.0 0.0
774.4092764015505 35.240090870101426 400.7235630706841 140.3504729069989 0.0 0.0
718.9589462456603 23.68444470029209 365.23253935977357 142.84081564029782 0.0 0.0
654.6333600251671 11.46102621148934 321.33338397812463 144.50085645445967 0.0 0.0
576.2644045267921 -1.4098472813914924 261.38831661404254 146.4514640728333 0.0 0.0
476.0068021360592 -13.60519740591372 183.4502169659012 154.15769276465244 0.0 0.0
358.4442680690016 -17.0260284320398 113.03458800577812 165.26987718949442 0.0 0.0
254.13080384438885 -2.1419007843154123 76.5296878005229 159.69588541506766 0.0 0.0
171.9104113520207 14.231610918150881 55.839483103365275 149.46479304535816 0.0 0.0
89.7236183018435 13.344726194150313 30.919885381624642 155.26597642529785 0.0 0.0
17.314403803227222 -48.29370868082456 -9.293589267737737 177.01595874363505 0.0 0.0
-3.86440817056301 -461.27939289774724 -194.80097382008313 168.37988245329822 0.0 0.0
1.5984039538724986 -419.37368230414404 -161.48862465424304 -165.89332459635642 0.0 0.0
4.7251571510500145 -45.19570333117436 -12.141075739399495 -188.45484845273722 0.0 0.0
52.10629152228965 7.9158227635110014 18.006670471369127 -173.0890345752867 0.0 0.0
115.00529561151454 15.181116631674431 39.06649566962011 -168.05353767794787 0.0 0.0
180.84733587919223 2.4883144078833856 55.54138027496181 -178.85050002379586 0.0 0.0
263.34515157037777 -9.666697352680849 80.44700944849635 -191.62310927764747 0.0 0.0
378.6837738085185 -12.099045749336488 132.82535845992092 -187.95761393633057 0.0 0.0
494.9961018270156 -2.5914075227489897 208.39787154918093 -174.19696688414865 0.0 0.0
583.5316402853236 8.208379522423632 275.524844408789 -166.34015746331428 0.0 0.0
649.3356089596707 17.884921935945556 323.57557562798183 -161.91663981382348 0.0 0.0
702.6899840630693 25.88237089995988 358.4692108826712 -158.39938360932229 0.0 0.0
748.798070998213 34.61781941032646 387.71110071363915 -154.8677460377295 0.0 0.0
790.2958813058317 42.9821889799421 413.62869079602916 -151.3769581511014 0.0 0.0
828.6868538524905 50.80274124235892 437.3346569815162 -147.69923162595052 0.0 0.0
866.1922766851716 58.9203509182971 460.507222700282 -143.11377385815186 0.0 0.0
904.1054448346906 68.45241511680882 484.501890416092 -136.97333379280738 0.0 0.0
938.5984197035984 76.08740369389159 505.9474493867325 -130.12052073617045 0.0 0.0
966.0141768495155 77.8817566602282 520.769874561331 -123.12272065098712 0.0 0.0
1004.2722427123839 88.15406019261854 544.7763348661115 -111.10054363388899 0.0 0.0
1066.0809884424984 119.94182351932258 591.0948715657413 -87.7597869416658 0.0 0.0
1066.080988442693 119.94182351958455 591.0948715659526 87.75978694181842 0.0 0.0
1004.2722427135743 88.15406019409369 544.7763348670298 111.10054363443696 0.0 0.0
966.0141768498654 77.88175666071606 520.7698745615586 123.1227206510903 0.0 0.0
938.5984197023311 76.0874036926723 505.94744938579163 130.1205207362058 0.0 0.0
904.1054448334215 68.45241511559067 484.50189041496697 136.9733337927733 0.0 0.0
866.1922766844065 58.920350917645436 460.50722269968213 143.11377385825003 0.0 0.0
828.6868538521122 50.802741242139746 437.33465698130374 147.6992316259481 0.0 0.0
790.2958813057763 42.982188980104524 413.62869079606145 151.37695815130112 0.0 0.0
748.7980709981965 34.61781941074403 387.71110071370424 154.86774603794203 0.0 0.0
702.6899840624089 25.882370899441554 358.46921088218005 158.39938360925007 0.0 0.0
649.3356089590999 17.884921935370414 323.57557562747365 161.91663981363212 0.0 0.0
583.5316402858501 8.20837952349953 275.5248444091175 166.3401574634581 0.0 0.0
494.99610182725013 -2.5914075217757286 208.39787154936113 174.19696688437514 0.0 0.0
378.68377380832294 -12.099045748927466 132.82535845984617 187.95761393634777 0.0 0.0
263.3451515702998 -9.666697352366008 80.44700944853703 191.62310927744542 0.0 0.0
180.84733587891324 2.4883144075646797 55.54138027478233 178.8505000234035 0.0 0.0
115.00529561143176 15.18111663178447 39.06649566963449 168.05353767785462 0.0 0.0
52.10629152244121 7.915822763975734 18.006670471557737 173.08903457513873 0.0 0.0
4.725157151040963 -45.195703331046836 -12.141075739365293 188.4548484524641 0.0 0.0
1.598403953879739 -419.37368230384465 -161.48862465402863 165.8933245963056 0.0 0.0
3.7762910145401136 -373.0940606896558 -130.58065881990015 -163.18419037515324 0.0 0.0
-10.503769115015022 -44.34780580669448 -16.458156192964793 -194.04037083313978 0.0 0.0
16.59022051904461 4.609743346508363 6.362882432667831 -185.1197227566845 0.0 0.0
59.574366838589874 16.347872931227442 22.800420264719097 -182.0418948920283 0.0 0.0
105.33719910061401 6.489226427999936 33.89154547661025 -193.65274017439265 0.0 0.0
159.18553265335782 -3.04592940103527 48.663952541772105 -210.6327260444663 0.0 0.0
246.0310788288027 -5.842376992133448 80.16381121742576 -218.68253694483002 0.0 0.0
365.63019661301354 -2.704120369595463 136.55936911624153 -208.45256929896556 0.0 0.0
473.0657817462857 4.9805360828240985 203.68035779954758 -192.3720716876492 0.0 0.0
546.7992423731957 11.14553961589069 257.73729649889174 -181.97264462010202 0.0 0.0
599.5034907514439 16.782548297355874 296.3122105820987 -176.0930740563728 0.0 0.0
640.955019081789 21.115558507587423 324.0832105013677 -171.73854004246337 0.0 0.0
676.5653985606942 25.402234141883582 346.7044087028039 -167.69905374010392 0.0 0.0
708.1558338715859 28.396580348592835 365.4571692155614 -163.83899668114168 0.0 0.0
737.9912311347193 30.305943995905096 382.1029551982276 -159.49874102600396 0.0 0.0
769.2241222592442 32.8680154668551 399.3612034117075 -153.6680689171006 0.0 0.0
803.4059270552365 37.213815289108794 418.9025535248429 -145.46266435524728 0.0 0.0
827.7254646135484 32.782719819342816 429.50708817463595 -137.3825768498039 0.0 0.0
843.1093027899059 15.906765311890865 428.63009534388993 -129.4725067587627 0.0 0.0
911.867961605255 43.3108720368142 475.4280338222982 -111.43279094530335 0.0 0.0
911.8679616048204 43.310872036246565 475.4280338220286 111.43279094520713 0.0 0.0
843.1093027896346 15.906765311688844 428.6300953438377 129.47250675908825 0.0 0.0
827.7254646152608 32.78271982122476 429.5070881758275 137.38257684995978 0.0 0.0
803.4059270580564 37.2138152924976 418.90255352695067 145.46266435566403 0.0 0.0
769.2241222616984 32.868015469863906 399.36120341353785 153.66806891747154 0.0 0.0
737.9912311363962 30.305943998359794 382.10295519953536 159.4987410264642 0.0 0.0
708.1558338714005 28.396580348388994 365.45716921544226 163.83899668107438 0.0 0.0
676.5653985610033 25.40223414255152 346.7044087030493 167.69905374033527 0.0 0.0
640.9550190807145 21.115558506856047 324.0832105007487 171.73854004265405 0.0 0.0
599.5034907506376 16.7825482965616 296.3122105815637 176.09307405623974 0.0 0.0
546.7992423726259 11.145539615261384 257.7372964984379 181.9726446198751 0.0 0.0
473.06578174527857 4.980536081818947 203.68035779881197 192.3720716875872 0.0 0.0
365.6301966122507 -2.704120369965498 136.5593691157924 208.45256929900967 0.0 0.0
246.0310788283474 -5.842376992107919 80.16381121724498 218.6825369447455 0.0 0.0
159.18553265334185 -3.0459294008062123 48.66395254183656 210.63272604434223 0.0 0.0
105.33719910066034 6.489226428412042 33.89154547674853 193.6527401742128 0.0 0.0
59.57436683906973 16.34787293236803 22.80042026520809 182.041894891818 0.0 0.0
16.5902205190615 4.609743346736097 6.362882432742395 185.11972275639022 0.0 0.0
-10.503769115066067 -44.34780580668379 -16.458156192979953 194.04037083299087 0.0 0.0
3.776291014550985 -373.0940606893681 -130.58065881971282 163.18419037505015 0.0 0.0
1.3512285170702896 -323.1821186933871 -103.891633340805 -158.01270636550151 0.0 0.0
-29.417680440980597 -46.42409018548402 -22.75850347827851 -195.8494989123968 0.0 0.0
-17.59610573975973 3.5857826026107893 -4.205102902542677 -192.19897925276678 0.0 0.0
5.745288178405091 17.517242673744697 6.99226980370471 -190.99710244965596 0.0 0.0
29.120061471792983 10.845420756235043 12.104680727663858 -202.39245885514566 0.0 0.0
51.22900713735315 2.2979145055999433 16.621039176546795 -221.47205130882188 0.0 0.0
82.86671427550829 -0.853622238706949 26.437807798303893 -236.50729981096134 0.0 0.0
142.7383801249051 1.070754567065654 48.066936893524144 -238.50686981048736 0.0 0.0
230.26373048331084 5.100761085118641 83.51124653223042 -224.522047118758 0.0 0.0
312.6768362060399 7.096173946771678 124.72627266608248 -207.80817842478925 0.0 0.0
374.1693745423845 8.480210675951596 163.5645804175329 -195.490599668551 0.0 0.0
413.37996069673784 8.741391548174576 192.64580648406346 -187.96115090119014 0.0 0.0
441.32002620872106 8.85282935644085 214.70116378699163 -182.6115175655588 0.0 0.0
464.45150243383137 6.744059121039953 231.1723088346614 -178.1567797950241 0.0 0.0
487.36398521064024 2.496495217072493 244.16755349069297 -173.92897617027032 0.0 0.0
515.3469917746411 -3.010619078723181 256.85312019375823 -169.19265960764758 0.0 0.0
552.9911354858806 -6.320604464362873 273.9301996260546 -161.97231964142583 0.0 0.0
599.5091377898252 -5.892744051323689 297.19984240524195 -150.81300026505036 0.0 0.0
617.0450966409632 -37.75160572587964 291.0235026448397 -142.15699854571 0.0 0.0
654.85559492377 -68.42815534959263 291.1742872623346 -142.19733663311675 0.0 0.0
654.8555949253052 -68.42815534771347 291.1742872633752 142.19733663340196 0.0 0.0
617.0450966416436 -37.7516057245125 291.0235026454199 142.15699854637023 0.0 0.0
599.5091377880906 -5.89274405318605 297.19984240409144 150.81300026547848 0.0 0.0
552.9911354851574 -6.320604465613513 273.93019962530906 161.97231964133215 0.0 0.0
515.3469917745992 -3.0106190789152265 256.85312019358946 169.19265960758116 0.0 0.0
487.3639852107375 2.4964952174264 244.16755349078423 173.928976170348 0.0 0.0
464.4515024346249 6.744059121896299 231.17230883513568 178.15677979497457 0.0 0.0
441.3200262096638 8.852829357126268 214.7011637874597 182.61151756560173 0.0 0.0
413.3799606976164 8.741391549822865 192.6458064847703 187.96115090131443 0.0 0.0
374.16937454235216 8.480210676153945 163.56458041750219 195.49059966862956 0.0 0.0
312.67683620589804 7.096173946696496 124.72627266591107 207.8081784246134 0.0 0.0
230.263730483677 5.1007610861170996 83.51124653258674 224.522047118899 0.0 0.0
142.7383801249819 1.07075456786818 48.06693689376895 238.50686981054653 0.0 0.0
82.86671427571085 -0.8536222378732905 26.437807798613836 236.50729981084055 0.0 0.0
51.229007137533166 2.297914505866941 16.62103917668267 221.47205130859524 0.0 0.0
29.120061471653834 10.84542075588299 12.104680727516676 202.39245885499292 0.0 0.0
5.745288178475159 17.517242673845196 6.992269803756191 190.99710244946948 0.0 0.0
-17.59610573984942 3.585782602444797 -4.205102902620061 192.19897925249555 0.0 0.0
-29.41768044107397 -46.42409018555951 -22.75850347833169 195.84949891219952 0.0 0.0
1.3512285169729168 -323.1821186933021 -103.89163334076238 158.01270636528966 0.0 0.0
-9.717365514424046 -272.0483990999033 -85.62002082935274 -148.52642615969455 0.0 0.0
-49.158831452753006 -49.16511849701263 -29.50998253269446 -195.56167177810508 0.0 0.0
-50.83212217436585 3.7432357117102866 -14.153671805126674 -194.95250729083256 0.0 0.0
-46.47015610012299 18.54844784010136 -8.422722089228303 -194.67651335909494 0.0 0.0
-46.159971446364736 15.239632636278559 -9.428623111202043 -204.55086381143164 0.0 0.0
-57.770871702555155 7.374041830083312 -15.744542071925752 -222.43389528696122 0.0 0.0
-85.96813722648392 2.6137778405038166 -26.92783217090453 -236.66596175935723 0.0 0.0
-143.86143629909364 -0.6499259530388954 -48.345786681973195 -238.69993274101327 0.0 0.0
-230.15543070975258 -4.828972893557069 -83.40383489261046 -224.64663354378186 0.0 0.0
-312.4084516884737 -6.675503512459429 -124.4903261558958 -207.78032910427575 0.0 0.0
-374.41574019836867 -6.926890482018564 -162.99912658858617 -195.30659351802316 0.0 0.0
-415.2652669596127 -7.112371436603198 -192.7352730552678 -187.476558940949 0.0 0.0
-445.9741290706053 -9.752300422424668 -217.03090290147964 -182.2679003202086 0.0 0.0
-470.0982363779956 -15.47870427439139 -237.9344269238679 -179.0308870444705 0.0 0.0
-485.95784622319496 -24.49775294719646 -255.71636687566664 -177.6062276844587 0.0 0.0
-490.27384468335424 -35.81444594490293 -269.45520931111713 -177.48123502122112 0.0 0.0
-474.1834158121098 -46.70216007414385 -275.7172596804111 -177.4594856641303 0.0 0.0
-408.4695579767996 -39.76119681075659 -258.28350995525744 -177.16067853796702 0.0 0.0
-226.7382248502165 -40.099536591464556 -199.18721613426345 -180.20089158594527 0.0 0.0
-27.041530833920916 -175.74377821344157 -71.95895850757987 -174.72321741107652 0.0 0.0
-27.04153083235576 -175.74377821074398 -71.95895850640522 174.72321741143054 0.0 0.0
-226.7382248496711 -40.0995365901756 -199.18721613380796 180.2008915863426 0.0 0.0
-408.4695579758782 -39.761196809388366 -258.2835099544806 177.1606785382895 0.0 0.0
-474.1834158115781 -46.702160073708654 -275.71725967997537 177.4594856641979 0.0 0.0
-490.2738446838307 -35.814445945811855 -269.4552093114929 177.4812350210862 0.0 0.0
-485.95784622386077 -24.497752948622804 -255.71636687625033 177.60622768456437 0.0 0.0
-470.0982363785023 -15.478704275387713 -237.9344269242539 179.03088704452418 0.0 0.0
-445.97412907026853 -9.752300422897491 -217.03090290145386 182.26790032042996 0.0 0.0
-415.2652669585925 -7.112371436049727 -192.7352730547185 187.47655894098392 0.0 0.0
-374.41574019743524 -6.926890481136084 -162.99912658786246 195.3065935179146 0.0 0.0
-312.4084516880215 -6.675503513200681 -124.49032615582831 207.78032910416565 0.0 0.0
-230.15543070910036 -4.8289728938246235 -83.40383489242615 224.64663354394293 0.0 0.0
-143.86143629908602 -0.6499259538690989 -48.345786682191445 238.69993274109103 0.0 0.0
-85.96813722653587 2.6137778396355387 -26.927832171163935 236.6659617592602 0.0 0.0
-57.77087170246311 7.3740418299791335 -15.744542071927526 222.43389528672176 0.0 0.0
-46.159971446266766 15.239632636126741 -9.428623111217584 204.55086381116968 0.0 0.0
-46.47015610013787 18.548447839849626 -8.422722089308632 194.676513358866 0.0 0.0
-50.83212217430897 3.7432357117194037 -14.153671805109397 194.9525072906801 0.0 0.0
-49.158831452749766 -49.16511849683978 -29.509982532648497 195.56167177801035 0.0 0.0
-9.71736551437422 -272.04839909948856 -85.6200208292284 148.5264261595745 0.0 0.0
-22.505492109640265 -222.68117445866778 -73.54840517817617 -135.63215467205245 0.0 0.0
-66.38324821295657 -49.55073035582912 -34.79587464053913 -192.1232734562377 0.0 0.0
-83.07486726771883 3.839345743395767 -23.826485794615014 -193.8668741770108 0.0 0.0
-97.04097694048907 19.43447926576424 -23.402742824394885 -193.20277623542904 0.0 0.0
-119.6851087310609 18.783085161495805 -30.78133447058153 -199.92867090839027 0.0 0.0
-164.5114549967518 12.218906587253427 -47.808600175862 -212.92867912874846 0.0 0.0
-247.5415974081824 7.471470392562427 -80.45116724615183 -219.64293580551202 0.0 0.0
-365.2016065114143 3.0632884257483646 -136.47477862667523 -209.01383575336712 0.0 0.0
-472.625415461864 -4.758834499682649 -203.44692026359917 -192.56717290316627 0.0 0.0
-546.3910245514642 -10.650138886595855 -257.36582356893285 -181.9331533017887 0.0 0.0
-599.0219605232556 -15.581042739966833 -295.57417616685706 -175.76185203812392 0.0 0.0
-641.1156656443231 -19.662012740654575 -323.4475164598747 -170.89113189301514 0.0 0.0
-678.8573876556593 -26.069898472888752 -347.96932328306553 -166.75923353484364 0.0 0.0
-714.2187939340131 -35.75671375234751 -371.8044119855366 -164.46183290466865 0.0 0.0
-747.4455321067193 -49.13681909402422 -396.03482824743594 -164.4262224610669 0.0 0.0
-776.367970471674 -64.94237911213361 -419.2892767903103 -166.5665774599247 0.0 0.0
-795.9590309949476 -79.84772892991981 -437.5601757776164 -171.35473220863787 0.0 0.0
-804.1702670766313 -92.85058438475767 -449.03189998627596 -178.86459480652704 0.0 0.0
-836.597911769032 -146.2294604844542 -493.2811176541905 -188.29688515277456 0.0 0.0
-855.1575090893546 -240.13808878861514 -551.2370514488689 -207.21549097724602 0.0 0.0
-855.1575090898042 -240.1380887892954 -551.2370514492861 207.21549097756775 0.0 0.0
-836.5979117695483 -146.22946048533743 -493.2811176546094 188.2968851531562 0.0 0.0
-804.1702670780578 -92.85058438646496 -449.031899987275 178.86459480693148 0.0 0.0
-795.9590309962509 -79.8477289318842 -437.560175778708 171.35473220894914 0.0 0.0
-776.3679704710216 -64.94237911164717 -419.28927678994046 166.56657745984018 0.0 0.0
-747.4455321062168 -49.13681909353758 -396.0348282470311 164.426222461093 0.0 0.0
-714.218793932781 -35.756713751409364 -371.8044119847774 164.46183290481866 0.0 0.0
-678.85738765485 -26.069898472135478 -347.96932328244463 166.759233534782 0.0 0.0
-641.1156656439209 -19.662012740447793 -323.44751645954074 170.89113189299033 0.0 0.0
-599.0219605236084 -15.581042740789911 -295.574176167068 175.76185203817386 0.0 0.0
-546.3910245516701 -10.650138887394462 -257.3658235690531 181.9331533018977 0.0 0.0
-472.62541546113374 -4.758834499392211 -203.44692026312202 192.56717290321555 0.0 0.0
-365.2016065102876 3.063288426732795 -136.47477862591384 209.0138357533225 0.0 0.0
-247.54159740699703 7.471470394005866 -80.45116724529738 219.6429358052457 0.0 0.0
-164.5114549963486 12.218906587466215 -47.808600175659215 212.92867912842763 0.0 0.0
-119.68510873104653 18.78308516116088 -30.781334470677287 199.9286709082947 0.0 0.0
-97.04097694048394 19.434479265365347 -23.4027428245146 193.20277623528312 0.0 0.0
-83.07486726783428 3.83934574301205 -23.826485794768125 193.86687417689456 0.0 0.0
-66.38324821310192 -49.55073035605286 -34.79587464065577 192.12327345609143 0.0 0.0
-22.50549210968478 -222.68117445851613 -73.54840517814627 135.63215467177898 0.0 0.0
-28.544880725857617 -176.26900962025996 -61.44416710383526 -120.70952526479836 0.0 0.0
-80.58029358829937 -47.39960599195501 -38.39220522374235 -184.79612678962224 0.0 0.0
-113.89493865192912 3.6871074893650917 -33.11734216839631 -188.78190141074455 0.0 0.0
-145.86930793479735 19.81247071950029 -38.019088051246506 -186.56036159192888 0.0 0.0
-190.83809344544923 21.12516851462323 -51.898553023957376 -189.09450118220138 0.0 0.0
-265.3071744954581 17.635363150783977 -79.49381063571391 -194.95261189630045 0.0 0.0
-377.6410254892557 13.549556371371132 -132.48592779902935 -189.46130539141805 0.0 0.0
-494.10881634850057 2.973271057515042 -207.96456672644564 -174.8242076084479 0.0 0.0
-583.2405652305537 -8.066510707649243 -275.33750759038287 -166.42397280233274 0.0 0.0
-649.0364894541078 -17.525498481559126 -323.2943663406183 -161.89467355241823 0.0 0.0
-702.320582780742 -25.01445237108645 -357.89714250808197 -158.0541774174135 0.0 0.0
-748.779026591865 -33.410448504931736 -387.089063400098 -153.8133546421424 0.0 0.0
-791.9184189069128 -43.248905359176945 -414.43198827585456 -149.88504039074542 0.0 0.0
-833.8894271614229 -56.45759267103526 -442.5034091175752 -147.53745198797972 0.0 0.0
-875.4903523009116 -74.05147040879908 -472.49863134253866 -147.7166035613944 0.0 0.0
-914.3191674748999 -94.54007849409822 -502.60735847202363 -150.78575582250392 0.0 0.0
-948.3645652515005 -116.16385666064696 -530.8431485438869 -156.30032543089783 0.0 0.0
-986.2818473606101 -149.07705478078378 -566.6262191156512 -162.36637437430025 0.0 0.0
-1030.5993653197152 -199.16209845718691 -613.9845323372969 -167.53140583350824 0.0 0.0
-1135.7390523172767 -338.20739949711606 -735.6028325321963 -172.05997155862406 0.0 0.0
-1135.7390523190934 -338.2073994991836 -735.6028325334626 172.05997155889023 0.0 0.0
-1030.5993653209655 -199.16209845898192 -613.9845323383001 167.53140583412159 0.0 0.0
-986.2818473603753 -149.0770547808487 -566.6262191155415 162.3663743746502 0.0 0.0
-948.3645652516649 -116.16385666105683 -530.8431485438987 156.30032543107978 0.0 0.0
-914.3191674744592 -94.54007849384632 -502.607358471715 150.78575582252626 0.0 0.0
-875.49035230061 -74.05147040856033 -472.49863134230577 147.7166035613239 0.0 0.0
-833.8894271605803 -56.457592670322484 -442.5034091170218 147.53745198798177 0.0 0.0
-791.9184189067539 -43.2489053592478 -414.43198827575316 149.88504039080067 0.0 0.0
-748.7790265911126 -33.41044850447225 -387.0890633996728 153.81335464221416 0.0 0.0
-702.3205827806917 -25.014452371254762 -357.8971425080837 158.05417741731193 0.0 0.0
-649.0364894544036 -17.52549848218024 -323.29436634084095 161.89467355237156 0.0 0.0
-583.2405652306275 -8.066510708215755 -275.3375075904214 166.42397280241653 0.0 0.0
-494.1088163484831 2.973271057045715 -207.96456672636867 174.82420760847293 0.0 0.0
-377.64102548876826 13.549556371441522 -132.485927798685 189.46130539131084 0.0 0.0
-265.30717449464066 17.635363151537565 -79.49381063520325 194.9526118960322 0.0 0.0
-190.8380934448565 21.125168515405058 -51.89855302355555 189.09450118192692 0.0 0.0
-145.8693079344656 19.81247071972583 -38.01908805108211 186.5603615918144 0.0 0.0
-113.89493865181542 3.6871074894366815 -33.11734216834571 188.78190141052207 0.0 0.0
-80.58029358837683 -47.39960599216372 -38.39220522383088 184.79612678944878 0.0 0.0
-28.544880725863152 -176.26900962003091 -61.44416710376821 120.70952526475139 0.0 0.0
-30.65263532892901 -133.83040297792172 -49.3449114920552 -104.88420442370186 0.0 0.0
-92.23597013500448 -42.9819373430973 -40.56484521215485 -172.94006997683033 0.0 0.0
-142.9075877629044 3.316810189675464 -41.919562303754525 -179.56173097555774 0.0 0.0
-192.76865081498372 19.145523285995072 -52.38578260384132 -175.03718476896813 0.0 0.0
-258.2882381318608 23.23057438577475 -72.31407218786724 -172.92923646165076 0.0 0.0
-356.04408075014805 23.100569464259983 -111.82211132306205 -169.32353033989372 0.0 0.0
-473.9355328335222 15.256441278527568 -182.28337589432934 -155.87090964583842 0.0 0.0
-575.7733712773631 1.5697548057660526 -261.0601259672378 -146.74316030639696 0.0 0.0
-654.5178173416073 -11.421277530436214 -321.27018478771276 -144.53573934843274 0.0 0.0
-718.7948062244959 -23.470174297265203 -365.0653585670131 -142.82837403074933 0.0 0.0
-774.2835506518022 -34.75019342770071 -400.43013326474033 -140.00326032167365 0.0 0.0
-825.3928588901833 -47.098177498237874 -433.08784579056476 -136.30725879108593 0.0 0.0
-873.3152350980931 -60.4714273799309 -464.2556485389864 -132.53464230993396 0.0 0.0
-920.2876750693279 -77.05404868700052 -496.34228649693875 -130.03955861224682 0.0 0.0
-967.6428908188375 -98.27948652508638 -530.8726034524559 -130.27060869662307 0.0 0.0
-1015.6735577168156 -124.92666471778372 -568.4600595848598 -133.57753005208926 0.0 0.0
-1065.404204941909 -158.66524594045447 -610.4293108165751 -138.7344823182736 0.0 0.0
-1119.5195292701942 -203.05949886665633 -659.8167654282613 -143.10620367848375 0.0 0.0
-1193.2825380423778 -276.57760057658083 -733.301061871977 -143.25146685557345 0.0 0.0
-1292.1430559103762 -400.1863218908072 -844.5665769845283 -141.94736709570003 0.0 0.0
-1292.1430559097673 -400.18632189012914 -844.5665769840336 141.9473670956354 0.0 0.0
-1193.28253804176 -276.5776005760733 -733.3010618715409 143.25146685576894 0.0 0.0
-1119.5195292698663 -203.05949886662899 -659.8167654279382 143.106203678861 0.0 0.0
-1065.404204941919 -158.6652459407463 -610.4293108164188 138.7344823185635 0.0 0.0
-1015.6735577170057 -124.92666471812481 -568.4600595849333 133.5775300521299 0.0 0.0
-967.6428908193059 -98.27948652570392 -530.8726034527566 130.27060869663117 0.0 0.0
-920.2876750698782 -77.05404868780342 -496.34228649735644 130.03955861230378 0.0 0.0
-873.315235098369 -60.471427380553244 -464.2556485391576 132.53464231016466 0.0 0.0
-825.3928588890176 -47.09817749739973 -433.0878457898372 136.3072587912092 0.0 0.0
-774.2835506511394 -34.75019342724766 -400.430133264277 140.0032603216551 0.0 0.0
-718.7948062246779 -23.47017429780442 -365.0653585670894 142.8283740307823 0.0 0.0
-654.5178173414345 -11.421277530809984 -321.2701847876468 144.53573934863348 0.0 0.0
-575.7733712766242 1.5697548060730266 -261.06012596670826 146.7431603065111 0.0 0.0
-473.93553283282773 15.256441278749326 -182.28337589385762 155.8709096458882 0.0 0.0
-356.0440807497337 23.100569464116305 -111.82211132290254 169.32353033987434 0.0 0.0
-258.2882381312132 23.230574386462084 -72.31407218747444 172.9292364614921 0.0 0.0
-192.76865081452223 19.145523286380552 -52.385782603598805 175.03718476892521 0.0 0.0
-142.90758776277522 3.316810189705131 -41.919562303712155 179.56173097534884 0.0 0.0
-92.23597013493625 -42.98193734320276 -40.5648452121662 172.94006997674285 0.0 0.0
-30.65263532897458 -133.83040297795685 -49.34491149207942 104.88420442356093 0.0 0.0
-31.71870479395291 -96.13394243378522 -38.35579416832144 -88.56895468669977 0.0 0.0
-102.32491049389586 -36.74019079965262 -41.71953038806454 -156.79421161691488 0.0 0.0
-170.05815581643026 2.8299595958698758 -50.18909875883913 -165.84455154657283 0.0 0.0
-238.02264021163137 17.764523288567027 -66.36569917788603 -159.20891361805678 0.0 0.0
-322.5565646579995 25.685667870351953 -92.49697382679557 -152.0453741527468 0.0 0.0
-433.1752321048782 25.645684510496217 -145.73622500412796 -138.617235160924 0.0 0.0
-543.466054871339 14.958047430536723 -225.8056104452517 -125.44071904316061 0.0 0.0
-633.6052956527707 0.5467394108887049 -299.4208765312803 -122.72199147804486 0.0 0.0
-707.9088121142495 -14.314040226960103 -353.49599995255517 -123.74422089837907 0.0 0.0
-772.5897630969 -28.797748672845387 -396.1483786114119 -123.5006825951114 0.0 0.0
-832.0025703942082 -44.28810744400306 -434.7788810140548 -121.42807503823646 0.0 0.0
-887.5681022920292 -60.790773213724236 -471.4629323740287 -118.2239249633904 0.0 0.0
-939.9413539484221 -77.99955688118419 -506.6753472197428 -114.72959584440447 0.0 0.0
-990.9983657139419 -97.40761988092689 -542.147190438607 -112.17521691191118 0.0 0.0
-1044.0336428414084 -122.44012218322675 -581.3166510377289 -112.08151003388923 0.0 0.0
-1101.6119030538225 -156.67465779767403 -627.348102015209 -114.9410681787645 0.0 0.0
-1165.6007313059806 -201.96359126157193 -682.1027745158825 -119.46012803424765 0.0 0.0
-1239.1250105044219 -263.32617880768936 -749.56439765165 -122.2550307594177 0.0 0.0
-1323.3373447851225 -346.4775915090097 -833.2328943023717 -121.27101675653012 0.0 0.0
-1408.9671051782766 -454.860852634205 -930.3663106657959 -120.94188611925124 0.0 0.0
-1408.9671051778187 -454.8608526336685 -930.366310665413 120.941886119199 0.0 0.0
-1323.3373447834406 -346.4775915073629 -833.2328943011227 121.27101675659436 0.0 0.0
-1239.1250105028628 -263.326178806154 -749.5643976505079 122.25503075942765 0.0 0.0
-1165.6007313067 -201.96359126247114 -682.1027745163981 119.46012803446109 0.0 0.0
-1101.6119030535588 -156.67465779768924 -627.348102015098 114.94106817908062 0.0 0.0
-1044.0336428410678 -122.44012218303213 -581.3166510375214 112.08151003387553 0.0 0.0
-990.9983657132057 -97.4076198803703 -542.1471904381251 112.1752169118877 0.0 0.0
-939.9413539477239 -77.9995568805839 -506.6753472193004 114.72959584428648 0.0 0.0
-887.5681022923908 -60.79077321445439 -471.4629323742695 118.22392496358279 0.0 0.0
-832.002570393628 -44.28810744364292 -434.77888101359963 121.42807503816431 0.0 0.0
-772.5897630959445 -28.79774867203991 -396.1483786107924 123.50068259489925 0.0 0.0
-707.90881211317 -14.314040225992546 -353.49599995184343 123.74422089812188 0.0 0.0
-633.6052956524443 0.5467394109263175 -299.42087653100054 122.72199147796765 0.0 0.0
-543.4660548716421 14.958047429700748 -225.8056104453275 125.44071904317637 0.0 0.0
-433.17523210462184 25.64568451000639 -145.73622500404008 138.61723516110058 0.0 0.0
-322.556564657787 25.685667870095493 -92.4969738267932 152.04537415267723 0.0 0.0
-238.02264021141565 17.764523288676706 -66.36569917779511 159.20891361787525 0.0 0.0
-170.0581558162496 2.829959595927204 -50.189098758771785 165.84455154640324 0.0 0.0
-102.32491049381582 -36.74019079976471 -41.71953038807415 156.79421161685934 0.0 0.0
-31.718704793968662 -96.13394243379351 -38.355794168328636 88.5689546866229 0.0 0.0
-32.55040043336466 -63.75956258396742 -28.89298890519962 -71.79353580357619 0.0 0.0
-111.42072354728285 -29.24932916363052 -42.20101581327401 -136.77996801007947 0.0 0.0
-195.56402217211172 2.178375625478992 -58.01350685816933 -147.6857058705364 0.0 0.0
-280.57646056831413 15.997710454969983 -79.7911031698054 -139.06750752746873 0.0 0.0
-381.90077309173523 27.80919022991568 -113.32426469240042 -126.52370927109794 0.0 0.0
-495.67829281024973 25.506621197441802 -179.89139295629846 -107.61883453969953 0.0 0.0
-595.0199400755148 14.773697567421692 -261.26870991156596 -99.0643186893596 0.0 0.0
-677.5695647834166 -0.5252641377162917 -327.615137418368 -100.36084720350905 0.0 0.0
-749.9845077489026 -16.26810437298758 -377.48862851207446 -103.04222011323675 0.0 0.0
-817.1884086208693 -33.948976418731974 -421.7951274446282 -103.61152743635643 0.0 0.0
-880.7553038188371 -53.60642433475695 -464.2430564214638 -102.08343582373466 0.0 0.0
-940.8831065916638 -74.47628759949981 -505.25560953878147 -99.48111349556622 0.0 0.0
-997.8838456408671 -95.76024415400605 -544.7696940820667 -96.53866403694467 0.0 0.0
-1052.9241493311113 -118.42893106462009 -583.8383346608659 -93.91078295130458 0.0 0.0
-1110.7772238423092 -146.9382555762341 -627.0855263318392 -93.08400911240518 0.0 0.0
-1177.5517228848953 -188.14994893436943 -681.1011893495186 -95.04197490110944 0.0 0.0
-1255.6212662164517 -246.10734862094802 -749.1451554134873 -98.66174026761999 0.0 0.0
-1343.873094898111 -321.49179580710637 -830.9976720646714 -101.37208512867429 0.0 0.0
-1433.384845788351 -410.24555303531577 -920.1885920594449 -102.22032707269506 0.0 0.0
-1511.3722192509617 -509.9105515712628 -1009.176669774987 -105.39889138713278 0.0 0.0
-1511.3722192504479 -509.9105515707827 -1009.1766697746754 105.39889138725094 0.0 0.0
-1433.384845787597 -410.2455530346436 -920.1885920590523 102.22032707281377 0.0 0.0
-1343.8730948968323 -321.4917958058901 -830.9976720639545 101.37208512866495 0.0 0.0
-1255.6212662146013 -246.1073486191494 -749.1451554121431 98.6617402675839 0.0 0.0
-1177.5517228842903 -188.14994893393103 -681.1011893490299 95.04197490124099 0.0 0.0
-1110.7772238411917 -146.93825557523655 -627.0855263309456 93.08400911235232 0.0 0.0
-1052.9241493288948 -118.42893106249586 -583.8383346593035 93.91078295117757 0.0 0.0
-997.8838456392518 -95.7602441525647 -544.7696940809669 96.53866403690324 0.0 0.0
-940.8831065906176 -74.4762875986892 -505.2556095380808 99.48111349559574 0.0 0.0
-880.7553038180553 -53.606424334181426 -464.2430564209534 102.08343582366273 0.0 0.0
-817.1884086203786 -33.94897641855239 -421.79512744431037 103.61152743641223 0.0 0.0
-749.984507747833 -16.26810437218481 -377.48862851136187 103.04222011320543 0.0 0.0
-677.5695647829186 -0.5252641375609173 -327.615137418019 100.36084720352673 0.0 0.0
-595.0199400754477 14.773697567060406 -261.2687099114527 99.06431868938422 0.0 0.0
-495.67829280973916 25.506621197576646 -179.89139295590255 107.6188345396055 0.0 0.0
-381.90077309143305 27.80919022984502 -113.32426469229186 126.52370927101501 0.0 0.0
-280.5764605681469 15.997710454953797 -79.79110316976909 139.06750752734965 0.0 0.0
-195.56402217200477 2.1783756252766007 -58.013506858198795 147.68570587042478 0.0 0.0
-111.42072354702026 -29.249329163444774 -42.2010158131395 136.77996800993003 0.0 0.0
-32.550400433275456 -63.75956258376639 -28.89298890511255 71.7935358035079 0.0 0.0
-33.129203587291585 -37.21816438030976 -21.1042103902804 -54.51615549727763 0.0 0.0
-119.48118947518373 -21.071818423553985 -42.16590236962131 -113.31644027139632 0.0 0.0
-219.6739497558798 1.2525055289592633 -65.52567278398703 -125.00548978049403 0.0 0.0
-322.27990344647947 14.820128069432156 -92.81933269062198 -115.28585528367476 0.0 0.0
-436.74396199369045 28.25264020903455 -135.95652821255896 -97.4184594396849 0.0 0.0
-544.3438816157949 24.706440157249816 -211.69493141246858 -79.06587146295179 0.0 0.0
-633.0785444398889 13.71709631306193 -289.1679383940634 -75.32466209652328 0.0 0.0
-711.6604774273661 -0.3441969136129899 -347.8735116473154 -78.69894579390328 0.0 0.0
-784.9307539014013 -17.88388941768713 -396.86026705283905 -81.99537223332563 0.0 0.0
-855.268679992492 -39.07993340197649 -443.8839426141884 -82.96751724505951 0.0 0.0
-922.8211094519553 -62.63799865626251 -490.097165436852 -81.96534071940175 0.0 0.0
-987.6983667305987 -87.89613436314741 -535.5953986177481 -80.03501561772005 0.0 0.0
-1049.6990942168889 -113.87289679595756 -579.9023860770401 -77.75360042626244 0.0 0.0
-1109.8741701854017 -140.8497547118855 -623.6865268871679 -75.34195960196514 0.0 0.0
-1171.9115935306065 -172.47439013180445 -670.566369514966 -73.58256122980498 0.0 0.0
-1244.4206991139197 -218.4484102949819 -729.7415030865341 -73.94497532652176 0.0 0.0
-1334.621224616912 -287.113028407581 -809.1481439669609 -76.89021213775248 0.0 0.0
-1435.332198451499 -374.3639458971959 -903.1865672684937 -80.83363578241287 0.0 0.0
-1532.9437969264986 -471.3842828356568 -1000.5930444422781 -85.10277194044568 0.0 0.0
-1609.2730752239263 -568.6772363754475 -1087.5756049099057 -92.95788497965154 0.0 0.0
-1609.2730752232746 -568.6772363748044 -1087.5756049095335 92.95788497967649 0.0 0.0
-1532.9437969258947 -471.3842828351489 -1000.5930444418321 85.10277194060941 0.0 0.0
-1435.3321984505005 -374.3639458962679 -903.1865672675789 80.83363578239495 0.0 0.0
-1334.6212246161294 -287.1130284068825 -809.1481439663174 76.89021213776718 0.0 0.0
-1244.4206991127915 -218.44841029397264 -729.7415030856419 73.944975326529 0.0 0.0
-1171.91159353116 -172.474390132548 -670.566369515272 73.58256122983043 0.0 0.0
-1109.8741701857805 -140.84975471247404 -623.6865268873842 75.34195960206898 0.0 0.0
-1049.6990942164898 -113.87289679577947 -579.9023860767413 77.75360042633527 0.0 0.0
-987.6983667300119 -87.89613436278752 -535.5953986172983 80.03501561767756 0.0 0.0
-922.8211094517258 -62.637998656290705 -490.09716543669674 81.9653407194171 0.0 0.0
-855.2686799926398 -39.07993340240559 -443.88394261424014 82.96751724500334 0.0 0.0
-784.9307539018807 -17.88388941854558 -396.8602670532284 81.99537223343307 0.0 0.0
-711.6604774268988 -0.34419691343517655 -347.8735116470099 78.69894579383656 0.0 0.0
-633.0785444391446 13.717096313476446 -289.16793839350726 75.32466209648115 0.0 0.0
-544.3438816159543 24.706440156690192 -211.69493141244945 79.06587146281377 0.0 0.0
-436.7439619937283 28.252640208454835 -135.95652821264207 97.41845943968033 0.0 0.0
-322.2799034462856 14.820128069134984 -92.81933269066433 115.28585528360824 0.0 0.0
-219.6739497556954 1.2525055288876796 -65.52567278395408 125.00548978047765 0.0 0.0
-119.48118947503588 -21.07181842342962 -42.165902369539644 113.31644027134081 0.0 0.0
-33.129203587337614 -37.21816438039583 -21.10421039032003 54.51615549726482 0.0 0.0
-32.85901092915121 -16.9849198716893 -14.953179240252151 -36.856102337949714 0.0 0.0
-125.73584015779235 -12.710877767761419 -41.53401537766613 -86.64275289860673 0.0 0.0
-242.9181736602166 -0.08042317466255255 -72.89957905046374 -97.77673683649166 0.0 0.0
-363.9749395671694 15.085214440080101 -105.70278936922098 -87.66641914486638 0.0 0.0
-484.0269661106784 27.125114503556436 -160.12630687937116 -67.0711098715489 0.0 0.0
-582.1953482361134 22.91669305440289 -240.57513394776242 -53.850629798552745 0.0 0.0
-663.5818926711905 13.254074090850736 -310.69273411555514 -53.32068701806316 0.0 0.0
-739.4225907971677 0.29759489132946726 -363.4053077343751 -57.014357579959686 0.0 0.0
-814.3187130993306 -19.564181218133456 -413.0819806183906 -60.35266779811347 0.0 0.0
-887.9095476917191 -44.00332581155513 -463.0166815610384 -61.57949660088967 0.0 0.0
-959.6481717891863 -71.42484831830916 -513.1391616703305 -61.069604391719764 0.0 0.0
-1029.1532777273108 -100.97959630801256 -563.0381676124954 -59.7903782107099 0.0 0.0
-1096.8506288777257 -131.9988787037982 -612.6639792970453 -58.27369238011618 0.0 0.0
-1163.0681868659399 -164.777866479249 -662.3505189933996 -56.30772113071917 0.0 0.0
-1230.0345769910577 -200.85553206405382 -713.9470934043899 -53.94676980970253 0.0 0.0
-1304.677264328727 -247.85380306793877 -774.6930227818589 -52.48854125746046 0.0 0.0
-1398.0563402025819 -318.737523453135 -856.7077146549984 -54.29779293561132 0.0 0.0
-1514.541321339549 -420.89438819863796 -966.0679456257201 -59.97180694359184 0.0 0.0
-1625.6441887747446 -530.7312306389331 -1076.662233476979 -68.7009673794367 0.0 0.0
-1711.0420845776118 -635.7491942160997 -1172.04440076846 -82.1939642644808 0.0 0.0
-1711.0420845770457 -635.7491942155868 -1172.0444007680755 82.19396426463892 0.0 0.0
-1625.6441887742553 -530.7312306384686 -1076.6622334766923 68.70096737937868 0.0 0.0
-1514.5413213386132 -420.8943881977531 -966.0679456251498 59.97180694358036 0.0 0.0
-1398.056340200853 -318.73752345152775 -856.7077146538217 54.29779293576168 0.0 0.0
-1304.677264328131 -247.85380306748374 -774.6930227813615 52.48854125754201 0.0 0.0
-1230.0345769913142 -200.8555320644779 -713.9470934044989 53.946769809717004 0.0 0.0
-1163.0681868660017 -164.77786647954716 -662.3505189934343 56.30772113097366 0.0 0.0
-1096.8506288761287 -131.99887870240528 -612.663979296035 58.27369238013084 0.0 0.0
-1029.1532777271673 -100.97959630814384 -563.0381676124322 59.79037821085615 0.0 0.0
-959.6481717885852 -71.42484831799933 -513.1391616699545 61.06960439177155 0.0 0.0
-887.9095476898059 -44.003325809921606 -463.01668155980565 61.579496601008685 0.0 0.0
-814.3187130987293 -19.56418121789251 -413.08198061794934 60.35266779829879 0.0 0.0
-739.4225907971517 0.29759489103488335 -363.4053077343345 57.014357579895915 0.0 0.0
-663.5818926705641 13.254074091095966 -310.69273411513905 53.32068701824136 0.0 0.0
-582.1953482353287 22.916693054849027 -240.57513394717202 53.85062979859576 0.0 0.0
-484.0269661101984 27.12511450354303 -160.12630687910584 67.07110987182018 0.0 0.0
-363.97493956707245 15.085214439439335 -105.7027893693884 87.66641914486011 0.0 0.0
-242.91817365998818 -0.0804231746134434 -72.89957905038048 97.77673683642762 0.0 0.0
-125.7358401577558 -12.71087776767255 -41.5340153776285 86.64275289853839 0.0 0.0
-32.85901092900402 -16.984919871605634 -14.953179240182894 36.85610233793264 0.0 0.0
-30.414979244807014 -3.4601848427479442 -10.162549226266485 -19.329034193019762 0.0 0.0
-128.46957316838524 -4.815988037239514 -39.985668361687424 -56.71895030089614 0.0 0.0
-265.77368427138003 -1.4803377608451953 -80.17620660966756 -65.51218448206045 0.0 0.0
-406.61881365298143 16.45703543995561 -119.49570551197529 -56.349754079510994 0.0 0.0
-522.6289136682817 25.555774605281062 -184.6001859092363 -38.5494851614801 0.0 0.0
-610.2431389591541 20.093535555814952 -265.4014289223403 -31.10863941241195 0.0 0.0
-687.4286961004339 13.990085295083801 -326.2406729341865 -32.09043014461403 0.0 0.0
-762.4620844936828 0.38159151395734625 -376.1489227021483 -35.250446268386774 0.0 0.0
-838.7134771658393 -21.043063333409805 -426.5076593859137 -38.1011500194891 0.0 0.0
-915.76006075255 -48.67203232329118 -479.54947365646217 -39.40355717778873 0.0 0.0
-991.8302806752181 -79.98950362389465 -533.7061893878337 -39.38216736254874 0.0 0.0
-1066.352520218385 -113.72639963057685 -588.153035503372 -38.75995705811988 0.0 0.0
-1139.6696890642393 -150.1456099580014 -643.2432794227476 -37.87434664766748 0.0 0.0
-1212.8711313959352 -189.33026885130357 -699.5916081448186 -36.58726374329633 0.0 0.0
-1286.7104857580873 -231.95713346619107 -757.9182276922886 -34.511284865699515 0.0 0.0
-1362.906845444994 -280.2850534932308 -820.180464289103 -31.87735545510678 0.0 0.0
-1449.542569039917 -343.76066312637613 -895.1058927214541 -31.359409799022522 0.0 0.0
-1562.479413428508 -440.95832363326707 -1000.0388439272767 -37.39884097830987 0.0 0.0
-1720.2689447760981 -595.334855715985 -1156.2712743903405 -51.36010505049481 0.0 0.0
-1825.9354334333295 -718.4136076666615 -1270.861716647808 -72.0899141979782 0.0 0.0
-1825.9354334339725 -718.4136076674135 -1270.861716648233 72.08991419831128 0.0 0.0
-1720.2689447766102 -595.3348557165542 -1156.2712743906209 51.36010505046883 0.0 0.0
-1562.479413428729 -440.95832363358386 -1000.0388439273258 37.398840978490085 0.0 0.0
-1449.5425690388236 -343.76066312540127 -895.1058927205512 31.359409799090336 0.0 0.0
-1362.9068454452033 -280.28505349356925 -820.1804642892401 31.877355455043656 0.0 0.0
-1286.7104857574468 -231.95713346570415 -757.9182276918659 34.51128486572823 0.0 0.0
-1212.8711313940653 -189.33026884962487 -699.5916081435005 36.5872637434034 0.0 0.0
-1139.6696890639137 -150.14560995787636 -643.2432794224068 37.87434664759729 0.0 0.0
-1066.3525202173878 -113.72639962982774 -588.1530355026403 38.759957058256596 0.0 0.0
-991.8302806743231 -79.98950362326741 -533.7061893871801 39.38216736258699 0.0 0.0
-915.7600607519455 -48.672032322984236 -479.5494736560956 39.40355717782454 0.0 0.0
-838.7134771648692 -21.043063332682536 -426.50765938528303 38.101150019392634 0.0 0.0
-762.4620844930016 0.38159151432402894 -376.148922701689 35.25044626828314 0.0 0.0
-687.4286961009478 13.990085294200036 -326.24067293444233 32.09043014443942 0.0 0.0
-610.2431389588376 20.093535555852924 -265.4014289220465 31.10863941233749 0.0 0.0
-522.6289136678356 25.55577460534316 -184.60018590890525 38.54948516158389 0.0 0.0
-406.6188136528852 16.45703543941315 -119.4957055121015 56.34975407964134 0.0 0.0
-265.77368427109394 -1.4803377607469752 -80.17620660955227 65.51218448206045 0.0 0.0
-128.4695731681868 -4.81598803702027 -39.98566836156212 56.71895030095592 0.0 0.0
-30.414979244717937 -3.4601848427215893 -10.162549226231857 19.329034193058195 0.0 0.0
-23.252538222218178 3.06890164766175 -6.055090972366926 -3.231940785488949 0.0 0.0
-124.46664632449432 1.7164289621733868 -36.82506520869628 -22.94208977850957 0.0 0.0
-289.66495168202306 -2.12158650620918 -87.53596145646966 -27.16777418893406 0.0 0.0
-446.45524455439204 18.54730473793049 -135.01829851893672 -22.514268733774017 0.0 0.0
-554.5927358331962 23.25997970220532 -209.1048549693838 -13.02791320539327 0.0 0.0
-634.4280893548969 18.627868494298028 -285.61656665549714 -10.430662329007344 0.0 0.0
-707.0411119375866 14.000263030068908 -338.68419470935316 -11.277812766896728 0.0 0.0
-781.108001234888 0.4119548866993057 -386.3277569666269 -13.345897184748448 0.0 0.0
-858.8562139439018 -22.518261154646638 -437.7106733144721 -15.263575926560893 0.0 0.0
-939.2579626399915 -52.99747161841225 -493.6901801726515 -16.429899347612462 0.0 0.0
-1019.9268517902408 -88.13589357119156 -551.9839148925566 -16.87970400081064 0.0 0.0
-1099.554926602331 -126.66995179549303 -611.3445590710677 -16.85668649081427 0.0 0.0
-1178.74515050294 -168.08904317099837 -671.8361731231712 -16.613510887627083 0.0 0.0
-1258.7580348713323 -213.42906053562837 -734.6363199510785 -16.03291871993983 0.0 0.0
-1340.229241404496 -263.48404357585093 -800.4851189710167 -14.84823250529903 0.0 0.0
-1422.200230285593 -317.6984050611669 -868.6321647149205 -12.80880603452372 0.0 0.0
-1503.1420526874952 -375.4620150312297 -937.9725874877524 -10.531240731272412 0.0 0.0
-1590.4557904108274 -445.8733859626677 -1016.6770960533772 -12.696809994903422 0.0 0.0
-1718.5164486646477 -566.9344858463953 -1141.0021236618522 -28.706410193678707 0.0 0.0
-2031.1912861689632 -891.5300315849727 -1460.0547458375686 -59.94550898698699 0.0 0.0
-2031.1912861694257 -891.530031585495 -1460.0547458377973 59.94550898717728 0.0 0.0
-1718.5164486642927 -566.9344858461045 -1141.0021236612656 28.706410193785423 0.0 0.0
-1590.455790410695 -445.87338596262083 -1016.6770960531868 12.69680999484194 0.0 0.0
-1503.142052687522 -375.4620150313644 -937.9725874878782 10.53124073121176 0.0 0.0
-1422.200230285785 -317.69840506149825 -868.6321647150148 12.808806034423238 0.0 0.0
-1340.229241405206 -263.48404357672956 -800.4851189714268 14.84823250535768 0.0 0.0
-1258.7580348703448 -213.42906053483009 -734.6363199504409 16.03291871993894 0.0 0.0
-1178.745150502638 -168.08904317088314 -671.8361731229272 16.613510887369245 0.0 0.0
-1099.5549266017952 -126.66995179521855 -611.3445590706889 16.85668649093118 0.0 0.0
-1019.926851790047 -88.13589357125201 -551.9839148924167 16.87970400068508 0.0 0.0
-939.2579626394709 -52.997471618183965 -493.69018017229433 16.429899347720223 0.0 0.0
-858.8562139426093 -22.518261153608634 -437.7106733136328 15.263575926413449 0.0 0.0
-781.1080012343992 0.4119548868808778 -386.3277569663021 13.345897184656845 0.0 0.0
-707.0411119373798 14.000263029944492 -338.684194709212 11.277812766885006 0.0 0.0
-634.4280893543898 18.627868494480936 -285.61656665510645 10.430662328977522 0.0 0.0
-554.5927358327281 23.25997970238071 -209.10485496902135 13.027913205346579 0.0 0.0
-446.45524455349795 18.54730473866722 -135.01829851843294 22.514268733817637 0.0 0.0
-289.66495168158576 -2.1215865057777705 -87.53596145620905 27.167774189049354 0.0 0.0
-124.46664632438885 1.7164289620965878 -36.825065208687676 22.942089778539458 0.0 0.0
-23.252538222360023 3.0689016474953505 -6.0550909724594 3.2319407854206275 0.0 0.0
SCALARS Strain float 6
LOOKUP_TABLE default
0.013220172884193377 -0.014290296755410214 0.0 -0.007971790681448154 0.0 0.0
0.002710721455245712 -0.0018386592938999247 0.0 0.0013477415584328134 0.0 0.0
0.0018988308737493166 -0.0007849329869562549 0.0 -3.432171730921585e-05 0.0 0.0
0.0025099735737914887 -0.0012808729313567024 0.0 -0.0002495775221423857 0.0 0.0
0.004189221220433553 -0.002694184815110079 0.0 -0.0003331013339062938 0.0 0.0
0.00763892440871335 -0.005842605014522162 0.0 -0.0005350097093538286 0.0 0.0
0.01329213633307856 -0.011231328740784363 0.0 -0.0008833685866120877 0.0 0.0
0.021540190728922704 -0.01920690929313773 0.0 -0.001432176516247996 0.0 0.0
0.032574969834989656 -0.02993805364248514 0.0 -0.0021997460297276117 0.0 0.0
0.04634161958963395 -0.04337160290033415 0.0 -0.0031161270804007657 0.0 0.0
0.06262219897622748 -0.059303093460632894 0.0 -0.004065294167844624 0.0 0.0
0.08114624992062505 -0.07747040641743164 0.0 -0.004986054418849417 0.0 0.0
0.10163371568260221 -0.09759570457848499 0.0 -0.005884177623452835 0.0 0.0
0.12376020823233 -0.11935030711092054 0.0 -0.006743977937629986 0.0 0.0
0.14704086947841466 -0.1422463834248111 0.0 -0.007510529382800446 0.0 0.0
0.170704590336251 -0.16551743887190717 0.0 -0.008021558838201992 0.0 0.0
0.19364839777517417 -0.18807389391792118 0.0 -0.008019238961595287 0.0 0.0
0.21448129844571734 -0.2085366040248191 0.0 -0.0073108919772663095 0.0 0.0
0.2315535410496433 -0.22525044639794523 0.0 -0.006399837852907209 0.0 0.0
0.24233491325919113 -0.23543550732677065 0.0 -0.008011580589746381 0.0 0.0
0.24233491325917522 -0.23543550732675644 0.0 0.008011580589761369 0.0 0.0
0.23155354104959255 -0.22525044639789904 0.0 0.0063998378529313005 0.0 0.0
0.2144812984456349 -0.20853660402474095 0.0 0.00731089197728263 0.0 0.0
0.1936483977750662 -0.18807389391782436 0.0 0.00801923896160428 0.0 0.0
0.1707045903361336 -0.16551743887180148 0.0 0.008021558838188891 0.0 0.0
0.1470408694782967 -0.14224638342469786 0.0 0.007510529382799613 0.0 0.0
0.12376020823220996 -0.11935030711080685 0.0 0.006743977937633594 0.0 0.0
0.1016337156824827 -0.09759570457836908 0.0 0.005884177623451725 0.0 0.0
0.08114624992051372 -0.07747040641732017 0.0 0.004986054418840702 0.0 0.0
0.06262219897612792 -0.05930309346053564 0.0 0.00406529416783874 0.0 0.0
0.046341619589551075 -0.043371602900254214 0.0 0.0031161270803886643 0.0 0.0
0.03257496983492436 -0.029938053642423412 0.0 0.002199746029724836 0.0 0.0
0.02154019072887514 -0.019206909293091545 0.0 0.0014321765162428335 0.0 0.0
0.013292136333045546 -0.01123132874075461 0.0 0.0008833685866113106 0.0 0.0
0.0076389244086943475 -0.005842605014505509 0.0 0.0005350097093523853 0.0 0.0
0.004189221220424477 -0.002694184815101641 0.0 0.0003331013339046285 0.0 0.0
0.0025099735737895146 -0.001280872931354149 0.0 0.00024957752214205264 0.0 0.0
0.0018988308737487025 -0.0007849329869562549 0.0 3.432171730877176e-05 0.0 0.0
0.0027107214552436476 -0.0018386592938974267 0.0 -0.0013477415584295382 0.0 0.0
0.013220172884182146 -0.014290296755396 0.0 0.007971790681411406 0.0 0.0
0.009507542014409648 -0.010954940085720066 0.0 -0.009739212374699546 0.0 0.0
0.0014469121304717114 -0.0009191257365726013 0.0 0.00012089601921216886 0.0 0.0
0.0016140911151050971 -0.0005643677609832309 0.0 -0.00012482057346924202 0.0 0.0
0.002177521582037871 -0.0010496438852372059 0.0 -0.0005165534852135112 0.0 0.0
0.003522964584681418 -0.0021286559334969812 0.0 -0.0007347655853935375 0.0 0.0
0.006488388950633549 -0.004777752053739981 0.0 -0.0012269674909271 0.0 0.0
0.01153796579972069 -0.009540959569278584 0.0 -0.0020923634278450787 0.0 0.0
0.019001223385421415 -0.016725577757927823 0.0 -0.0033753711210651183 0.0 0.0
0.028998201513959695 -0.026426829655624928 0.0 -0.005078120323689761 0.0 0.0
0.041422776661057585 -0.03853677307618675 0.0 -0.007037964411019337 0.0 0.0
0.05604931752177878 -0.052840067150957015 0.0 -0.009036652809683465 0.0 0.0
0.07264736555369894 -0.06911079612137971 0.0 -0.010953514258539743 0.0 0.0
0.09100501664346272 -0.08713545588044402 0.0 -0.012838699357783367 0.0 0.0
0.11085574999766817 -0.10664563108728009 0.0 -0.014685328126908925 0.0 0.0
0.13178477074986533 -0.12722577579190109 0.0 -0.016346898470108673 0.0 0.0
0.15314159699998664 -0.14822760563481463 0.0 -0.017508329668571687 0.0 0.0
0.17397574547136396 -0.16870480212451877 0.0 -0.017692545903500778 0.0 0.0
0.19299800715468438 -0.18736704344115296 0.0 -0.016640439326721213 0.0 0.0
0.20840913536612826 -0.2023659373819271 0.0 -0.014794451246262885 0.0 0.0
0.21770191747446724 -0.2113427667736243 0.0 -0.011983973062179465 0.0 0.0
0.21770191747445192 -0.2113427667736083 0.0 0.011983973062209219 0.0 0.0
0.2084091353660816 -0.2023659373818889 0.0 0.014794451246305296 0.0 0.0
0.1929980071546118 -0.18736704344107924 0.0 0.01664043932675363 0.0 0.0
0.17397574547126954 -0.16870480212442285 0.0 0.017692545903519097 0.0 0.0
0.1531415969998836 -0.14822760563470982 0.0 0.017508329668559863 0.0 0.0
0.1317847707497578 -0.12722577579179006 0.0 0.016346898470103732 0.0 0.0
0.11085574999756098 -0.10664563108716552 0.0 0.01468532812690504 0.0 0.0
0.09100501664335603 -0.08713545588033433 0.0 0.012838699357775596 0.0 0.0
0.07264736555360013 -0.0691107961212798 0.0 0.010953514258524755 0.0 0.0
0.05604931752168951 -0.05284006715086331 0.0 0.00903665280966992 0.0 0.0
0.04142277666098276 -0.038536773076110364 0.0 0.0070379644110001305 0.0 0.0
0.02899820151390098 -0.02642682965556853 0.0 0.005078120323680713 0.0 0.0
0.019001223385377908 -0.01672557775788741 0.0 0.003375371121053683 0.0 0.0
0.011537965799691297 -0.00954095956924994 0.0 0.0020923634278370296 0.0 0.0
0.006488388950617263 -0.004777752053722217 0.0 0.0012269674909229922 0.0 0.0
0.0035229645846740487 -0.002128655933490542 0.0 0.000734765585393149 0.0 0.0
0.0021775215820361016 -0.0010496438852346524 0.0 0.0005165534852132891 0.0 0.0
0.0016140911151047987 -0.0005643677609831199 0.0 0.0001248205734691865 0.0 0.0
0.001446912130472211 -0.000919125736570936 0.0 -0.0001208960192133346 0.0 0.0
0.00950754201439491 -0.010954940085703514 0.0 0.009739212374669293 0.0 0.0
0.007105102768183054 -0.008736411750303097 0.0 -0.009073464648747642 0.0 0.0
0.000843350556835154 -0.0006050013874762117 0.0 -0.0006104366033444775 0.0 0.0
0.001289851224975748 -0.0004100610170493235 0.0 -0.0004453711807422267 0.0 0.0
0.0018661184222567642 -0.0008385243058890435 0.0 -0.0007618549309350575 0.0 0.0
0.002929416433421969 -0.0016525737929709017 0.0 -0.0010655342259302536 0.0 0.0
0.0053863727537818915 -0.0037804397156766534 0.0 -0.001734620093215511 0.0 0.0
0.009798681630366055 -0.007877613994965227 0.0 -0.002986726663333439 0.0 0.0
0.0164313983700497 -0.014227269069727377 0.0 -0.0048625893725995906 0.0 0.0
0.025349352358758917 -0.02285644041289192 0.0 -0.007295830232954326 0.0 0.0
0.03640494493915952 -0.03361686838443756 0.0 -0.010055333616539541 0.0 0.0
0.04936910525506624 -0.046283189782022394 0.0 -0.012868569312610156 0.0 0.0
0.06404024434896136 -0.06065472470658273 0.0 -0.015581786406329012 0.0 0.0
0.08025200135254341 -0.07656335066482844 0.0 -0.018230670180686692 0.0 0.0
0.09780448212808263 -0.09380808954304731 0.0 -0.020838537877014895 0.0 0.0
0.11637228175836577 -0.11206392774032903 0.0 -0.023227453102367124 0.0 0.0
0.13543330017526664 -0.13080708743823255 0.0 -0.02496211110230795 0.0 0.0
0.15418518570614595 -0.1492302559631007 0.0 -0.025474816916105092 0.0 0.0
0.1714153138616776 -0.16610539137274216 0.0 -0.02435560379423407 0.0 0.0
0.1853682124720473 -0.17971083156029355 0.0 -0.02112201608420783 0.0 0.0
0.19405913650051948 -0.18814766267005822 0.0 -0.014729798950970707 0.0 0.0
0.19405913650050471 -0.18814766267004934 0.0 0.01472979895101656 0.0 0.0
0.18536821247200527 -0.1797108315602527 0.0 0.021122016084270778 0.0 0.0
0.17141531386161404 -0.16610539137267466 0.0 0.024355603794284142 0.0 0.0
0.15418518570606302 -0.1492302559630243 0.0 0.02547481691612785 0.0 0.0
0.13543330017517718 -0.13080708743814906 0.0 0.024962111102294626 0.0 0.0
0.1163722817582698 -0.11206392774023932 0.0 0.023227453102362294 0.0 0.0
0.09780448212798742 -0.09380808954295716 0.0 0.0208385378770104 0.0 0.0
0.08025200135244942 -0.07656335066474096 0.0 0.018230670180678366 0.0 0.0
0.06404024434887495 -0.06065472470649702 0.0 0.015581786406310916 0.0 0.0
0.04936910525498728 -0.046283189781943346 0.0 0.012868569312592837 0.0 0.0
0.036404944939092965 -0.0336168683843745 0.0 0.010055333616517448 0.0 0.0
0.025349352358706445 -0.02285644041284307 0.0 0.00729583023293956 0.0 0.0
0.016431398370011008 -0.01422726906968963 0.0 0.004862589372586323 0.0 0.0
0.009798681630340311 -0.007877613994941024 0.0 0.002986726663325945 0.0 0.0
0.005386372753769131 -0.003780439715665107 0.0 0.0017346200932076838 0.0 0.0
0.0029294164334164874 -0.0016525737929651285 0.0 0.0010655342259284217 0.0 0.0
0.0018661184222553695 -0.0008385243058871561 0.0 0.0007618549309355571 0.0 0.0
0.0012898512249757688 -0.00041006101704843534 0.0 0.0004453711807442251 0.0 0.0
0.0008433505568356536 -0.0006050013874748794 0.0 0.0006104366033417019 0.0 0.0
0.007105102768168836 -0.00873641175028765 0.0 0.009073464648722496 0.0 0.0
0.005407525856720469 -0.007058959787270058 0.0 -0.0077341203940356484 0.0 0.0
0.0005260047614584346 -0.0004500267289249127 0.0 -0.0012201999899673632 0.0 0.0
0.0009986542486501576 -0.0002992837000689308 0.0 -0.0008814279694168703 0.0 0.0
0.001570499595380137 -0.000661109297907414 0.0 -0.0010351582505732093 0.0 0.0
0.002406189622049429 -0.001266002139575395 0.0 -0.0013536351944218872 0.0 0.0
0.004368960139254224 -0.002890929028556588 0.0 -0.00208588762391565 0.0 0.0
0.008091587589601601 -0.006273681022932465 0.0 -0.003576996807835686 0.0 0.0
0.013862507126666576 -0.011743496325017144 0.0 -0.005887979701025392 0.0 0.0
0.02166674792783882 -0.019268172428719588 0.0 -0.008844175878153782 0.0 0.0
0.031331088475395646 -0.02865595209709193 0.0 -0.012174556162318051 0.0 0.0
0.04262155367832114 -0.039673035199703666 0.0 -0.015563894877215323 0.0 0.0
0.055359048023977744 -0.05213818211994248 0.0 -0.01885570138035325 0.0 0.0
0.06941930766467228 -0.06592555848849635 0.0 -0.022084198791302134 0.0 0.0
0.08466066381628026 -0.08089162764315327 0.0 -0.0252255531926448 0.0 0.0
0.10084698927296572 -0.0968029856653363 0.0 -0.028112093255631243 0.0 0.0
0.11759047064179186 -0.1132664640296559 0.0 -0.030346427409817744 0.0 0.0
0.13423899530153768 -0.1296155923724891 0.0 -0.03128799746203126 0.0 0.0
0.14972414280469096 -0.14478081663408116 0.0 -0.030171892702834824 0.0 0.0
0.1625272827309969 -0.1572763994925408 0.0 -0.025862180056276052 0.0 0.0
0.17097615778357889 -0.16549670705467712 0.0 -0.016951543741698827 0.0 0.0
0.17097615778356426 -0.16549670705466202 0.0 0.016951543741754338 0.0 0.0
0.16252728273096007 -0.15727639949249905 0.0 0.025862180056350437 0.0 0.0
0.14972414280463436 -0.14478081663402698 0.0 0.03017189270288889 0.0 0.0
0.13423899530146657 -0.1296155923724287 0.0 0.03128799746205346 0.0 0.0
0.1175904706417143 -0.11326646402957596 0.0 0.030346427409806864 0.0 0.0
0.10084698927288177 -0.09680298566525014 0.0 0.028112093255620585 0.0 0.0
0.08466066381619769 -0.08089162764307334 0.0 0.025225553192635974 0.0 0.0
0.06941930766459126 -0.06592555848841863 0.0 0.02208419879129131 0.0 0.0
0.05535904802390307 -0.05213818211987009 0.0 0.018855701380333434 0.0 0.0
0.042621553678253044 -0.03967303519964238 0.0 0.01556389487719223 0.0 0.0
0.031331088475338 -0.028655952097034643 0.0 0.012174556162289019 0.0 0.0
0.021666747927792773 -0.019268172428674735 0.0 0.00884417587813846 0.0 0.0
0.013862507126633006 -0.011743496324983838 0.0 0.005887979701012291 0.0 0.0
0.008091587589580118 -0.006273681022909816 0.0 0.0035769968078265824 0.0 0.0
0.004368960139244038 -0.0028909290285490385 0.0 0.002085887623909599 0.0 0.0
0.0024061896220454737 -0.0012660021395736187 0.0 0.0013536351944196667 0.0 0.0
0.0015704995953791379 -0.0006611092979081912 0.0 0.0010351582505705448 0.0 0.0
0.0009986542486502548 -0.00029928370007015204 0.0 0.0008814279694138172 0.0 0.0
0.0005260047614585872 -0.00045002672892413553 0.0 0.001220199989963311 0.0 0.0
0.0054075258567083395 -0.007058959787256994 0.0 0.007734120394015109 0.0 0.0
0.004103575568720333 -0.005687764498669756 0.0 -0.006347187165826995 0.0 0.0
0.00035038706218129545 -0.0003604026829542306 0.0 -0.0016952995413526128 0.0 0.0
0.000757269030067953 -0.00022169906895241898 0.0 -0.0013218924674751609 0.0 0.0
0.0012899668366511963 -0.0005139855702387397 0.0 -0.0013408499069930135 0.0 0.0
0.0019479891362924884 -0.0009598841036573269 0.0 -0.0016183478135533558 0.0 0.0
0.0034543431133991775 -0.002132521209196492 0.0 -0.0023420336126608876 0.0 0.0
0.006462117095653114 -0.0047745391950893 0.0 -0.0038851609137789955 0.0 0.0
0.011320216931224591 -0.009309329400712052 0.0 -0.006411272878719343 0.0 0.0
0.017987930401063515 -0.01570089624055626 0.0 -0.009717317922490587 0.0 0.0
0.02624176383897564 -0.023696506513310567 0.0 -0.013394567186019224 0.0 0.0
0.03584802369474224 -0.033052611016063604 0.0 -0.017133817025283327 0.0 0.0
0.046644472512922835 -0.0436044662326287 0.0 -0.020773509634394616 0.0 0.0
0.05854676301739414 -0.055264011853881634 0.0 -0.024348578930644738 0.0 0.0
0.07147188061436602 -0.06794679412045257 0.0 -0.02784162886944669 0.0 0.0
0.08526092779403409 -0.08149562695066326 0.0 -0.031049492689410485 0.0 0.0
0.09963899942324272 -0.09563099530770547 0.0 -0.03361030477166993 0.0 0.0
0.11412979414191338 -0.10986450655624491 0.0 -0.034948471896801614 0.0 0.0
0.12791623127159898 -0.12337180282074467 0.0 -0.03404889808300915 0.0 0.0
0.1397599655298239 -0.1349383057494622 0.0 -0.02924974489326604 0.0 0.0
0.1481971701488528 -0.1431526541499606 0.0 -0.01881736194662975 0.0 0.0
0.14819717014883918 -0.14315265414994727 0.0 0.018817361946691147 0.0 0.0
0.13975996552979145 -0.13493830574942578 0.0 0.029249744893346308 0.0 0.0
0.12791623127154997 -0.1233718028206976 0.0 0.034048898083070434 0.0 0.0
0.11412979414185367 -0.10986450655618718 0.0 0.034948471896832256 0.0 0.0
0.09963899942317567 -0.09563099530764507 0.0 0.03361030477166205 0.0 0.0
0.08526092779396233 -0.08149562695059931 0.0 0.031049492689399494 0.0 0.0
0.07147188061429627 -0.06794679412038596 0.0 0.027841628869436086 0.0 0.0
0.05854676301732609 -0.055264011853817685 0.0 0.024348578930633025 0.0 0.0
0.04664447251285986 -0.043604466232566974 0.0 0.020773509634373633 0.0 0.0
0.03584802369468465 -0.033052611016010314 0.0 0.01713381702525696 0.0 0.0
0.026241763838927068 -0.023696506513266158 0.0 0.013394567185987527 0.0 0.0
0.017987930401024255 -0.01570089624051807 0.0 0.00971731792246977 0.0 0.0
0.011320216931196503 -0.009309329400689403 0.0 0.006411272878703689 0.0 0.0
0.0064621170956357665 -0.004774539195074867 0.0 0.00388516091376806 0.0 0.0
0.0034543431133915448 -0.002132521209188498 0.0 0.0023420336126545593 0.0 0.0
0.001947989136289907 -0.0009598841036535521 0.0 0.0016183478135503027 0.0 0.0
0.001289966836650669 -0.0005139855702368523 0.0 0.0013408499069915147 0.0 0.0
0.0007572690300678975 -0.00022169906895241898 0.0 0.0013218924674723853 0.0 0.0
0.00035038706218104565 -0.00036040268295245426 0.0 0.0016952995413497818 0.0 0.0
0.004103575568710716 -0.005687764498658604 0.0 0.006347187165811008 0.0 0.0
0.0030676536774436325 -0.0045353888913432505 0.0 -0.00512417800868975 0.0 0.0
0.0002449495744760305 -0.00029939391167566054 0.0 -0.0020504482777817246 0.0 0.0
0.0005566473521120135 -0.00016360818926441922 0.0 -0.001708805064639829 0.0 0.0
0.0010194111408421969 -0.0003875256499823454 0.0 -0.0016522321255100225 0.0 0.0
0.0015464429625356713 -0.0007196572560848047 0.0 -0.0018761507391494847 0.0 0.0
0.0026415747980489124 -0.0015139067105702786 0.0 -0.002536331169137207 0.0 0.0
0.004956347163902072 -0.0034391484820761598 0.0 -0.004020197967515238 0.0 0.0
0.008853842262515232 -0.006988721708216961 0.0 -0.006511996600171266 0.0 0.0
0.014347004996394061 -0.012195608374849787 0.0 -0.009890113964396485 0.0 0.0
0.021177190548246932 -0.018781908946712722 0.0 -0.013705419678849529 0.0 0.0
0.029089214000899435 -0.026467253142783864 0.0 -0.017563706430172854 0.0 0.0
0.037940096427558814 -0.035100181851480006 0.0 -0.02132578693293441 0.0 0.0
0.04767989442809688 -0.044628077063276095 0.0 -0.025028973738061233 0.0 0.0
0.0582806488513927 -0.055019586400384846 0.0 -0.02864142187336638 0.0 0.0
0.06965826755050361 -0.06618890388651266 0.0 -0.031983947053292106 0.0 0.0
0.08162580447842577 -0.07795202451345418 0.0 -0.03473152399078916 0.0 0.0
0.09388316738223795 -0.09000092119901915 0.0 -0.03636166648346173 0.0 0.0
0.10593776389393558 -0.1018256554553858 0.0 -0.03587038824794697 0.0 0.0
0.1169061540310809 -0.11254464851937485 0.0 -0.03128173310799065 0.0 0.0
0.12549638927043727 -0.12090380586480709 0.0 -0.020376535002583518 0.0 0.0
0.12549638927042614 -0.12090380586479732 0.0 0.02037653500264225 0.0 0.0
0.11690615403105292 -0.1125446485193411 0.0 0.03128173310807669 0.0 0.0
0.10593776389389495 -0.10182565545533961 0.0 0.035870388248009366 0.0 0.0
0.09388316738218783 -0.09000092119896852 0.0 0.036361666483489596 0.0 0.0
0.08162580447836973 -0.07795202451339822 0.0 0.034731523990774726 0.0 0.0
0.06965826755044402 -0.06618890388646248 0.0 0.031983947053277006 0.0 0.0
0.05828064885133613 -0.055019586400327114 0.0 0.028641421873352835 0.0 0.0
0.04767989442804227 -0.044628077063222804 0.0 0.0250289737380488 0.0 0.0
0.037940096427507064 -0.03510018185143293 0.0 0.02132578693291276 0.0 0.0
0.029089214000852792 -0.026467253142738123 0.0 0.017563706430145376 0.0 0.0
0.021177190548206826 -0.018781908946673642 0.0 0.013705419678816999 0.0 0.0
0.014347004996362267 -0.012195608374819589 0.0 0.009890113964375002 0.0 0.0
0.00885384226249325 -0.006988721708194312 0.0 0.006511996600155334 0.0 0.0
0.004956347163888264 -0.003439148482063503 0.0 0.0040201979675044686 0.0 0.0
0.0026415747980434445 -0.0015139067105645054 0.0 0.00253633116912938 0.0 0.0
0.0015464429625342002 -0.0007196572560839165 0.0 0.0018761507391466536 0.0 0.0
0.0010194111408420303 -0.0003875256499829005 0.0 0.0016522321255080241 0.0 0.0
0.0005566473521119719 -0.00016360818926397513 0.0 0.0017088050646384412 0.0 0.0
0.0002449495744754615 -0.00029939391167516094 0.0 0.0020504482777820576 0.0 0.0
0.003067653677435611 -0.004535388891333678 0.0 0.005124178008680758 0.0 0.0
0.0022389728918844887 -0.0035588624416620918 0.0 -0.004106026238620497 0.0 0.0
0.00017294259470812534 -0.00025348838299876775 0.0 -0.002301072510911162 0.0 0.0
0.00038221032112287223 -0.00011423386136644176 0.0 -0.002018383529345247 0.0 0.0
0.0007543779612222412 -0.0002704149504730857 0.0 -0.0019427916273835888 0.0 0.0
0.0011819235640456727 -0.0005248863823255068 0.0 -0.0021348957233893184 0.0 0.0
0.0019342977793391225 -0.001025392124050839 0.0 -0.0026779580242896617 0.0 0.0
0.0035887645328173123 -0.0022970608894210542 0.0 -0.003982554281268924 0.0 0.0
0.006527985905021655 -0.0048555001573000744 0.0 -0.0062647118614705954 0.0 0.0
0.01079806992788146 -0.008823214387449152 0.0 -0.00941502387233173 0.0 0.0
0.016176404699743657 -0.013960652839133836 0.0 -0.013078009331974672 0.0 0.0
0.022384844481557642 -0.019964098620870896 0.0 -0.016841648596808034 0.0 0.0
0.029289776024603476 -0.026676386618627035 0.0 -0.0204999983745775 0.0 0.0
0.03686543135563661 -0.03407103998182093 0.0 -0.024091579471628655 0.0 0.0
0.04513343866108355 -0.042164104205621555 0.0 -0.027618783393777213 0.0 0.0
0.054081075986645466 -0.05093729125470148 0.0 -0.030904271284791007 0.0 0.0
0.06360573999169161 -0.06028825374428948 0.0 -0.033623081047873926 0.0 0.0
0.0735408624827791 -0.07006597737467146 0.0 -0.03541315870535233 0.0 0.0
0.08373769543474885 -0.08009635625450606 0.0 -0.03551051082299983 0.0 0.0
0.09378548460738753 -0.08993027755318295 0.0 -0.03185020128751248 0.0 0.0
0.1026356812652014 -0.09852870653963208 0.0 -0.021613121350208875 0.0 0.0
0.10263568126519368 -0.09852870653962142 0.0 0.021613121350267273 0.0 0.0
0.09378548460736519 -0.08993027755315985 0.0 0.0318502012875993 0.0 0.0
0.08373769543471643 -0.08009635625446876 0.0 0.035510510823064 0.0 0.0
0.07354086248273733 -0.0700659773746315 0.0 0.03541315870537742 0.0 0.0
0.06360573999164729 -0.06028825374424418 0.0 0.03362308104785883 0.0 0.0
0.0540810759865987 -0.05093729125465041 0.0 0.030904271284775686 0.0 0.0
0.04513343866103997 -0.04216410420557981 0.0 0.027618783393766 0.0 0.0
0.036865431355595446 -0.034071039981790285 0.0 0.024091579471616664 0.0 0.0
0.029289776024563174 -0.026676386618591508 0.0 0.020499998374553963 0.0 0.0
0.022384844481521837 -0.019964098620837145 0.0 0.016841648596782055 0.0 0.0
0.016176404699712432 -0.013960652839100973 0.0 0.013078009331942808 0.0 0.0
0.010798069927856951 -0.008823214387427392 0.0 0.009415023872310413 0.0 0.0
0.00652798590500564 -0.004855500157286752 0.0 0.0062647118614559405 0.0 0.0
0.003588764532807376 -0.002297060889415281 0.0 0.003982554281259265 0.0 0.0
0.001934297779335653 -0.0010253921240501729 0.0 0.002677958024286553 0.0 0.0
0.0011819235640447012 -0.0005248863823235084 0.0 0.002134895723388097 0.0 0.0
0.0007543779612217139 -0.00027041495047464004 0.0 0.0019427916273828671 0.0 0.0
0.000382210321123011 -0.00011423386136777403 0.0 0.0020183835293430263 0.0 0.0
0.00017294259470776452 -0.0002534883829984347 0.0 0.0023010725109097185 0.0 0.0
0.002238972891878327 -0.0035588624416551147 0.0 0.004106026238611726 0.0 0.0
0.0015875009738489376 -0.0027460287798579675 0.0 -0.0032963142581681204 0.0 0.0
0.00010969318416725882 -0.0002149164280063065 0.0 -0.002451344989637949 0.0 0.0
0.0002216471557912325 -6.558958627689293e-05 0.0 -0.0022501082879382572 0.0 0.0
0.0004938963566483157 -0.00015539054082269743 0.0 -0.0021863268852350126 0.0 0.0
0.0008301693710129066 -0.00035241530988883163 0.0 -0.0023774897389700067 0.0 0.0
0.001323544427301232 -0.0006552934999688453 0.0 -0.0028290132906188536 0.0 0.0
0.0023774183622491396 -0.0013785981892109334 0.0 -0.003846777185932626 0.0 0.0
0.004382475265561625 -0.0029808701338547294 0.0 -0.0057165194274610975 0.0 0.0
0.0074128530736575216 -0.005678323345224445 0.0 -0.00838686989726467 0.0 0.0
0.011294813979376622 -0.009313221766329427 0.0 -0.011566110296656884 0.0 0.0
0.015779361327463243 -0.013605278195771842 0.0 -0.014928537092969596 0.0 0.0
0.0207357454915848 -0.018393491509340443 0.0 -0.01824880309366872 0.0 0.0
0.026150179383338634 -0.023656365861175033 0.0 -0.021514685147787982 0.0 0.0
0.03207600973173966 -0.029442361227586922 0.0 -0.024722353924465312 0.0 0.0
0.038571396202586955 -0.03580015650197943 0.0 -0.027761980282343113 0.0 0.0
0.04562968178004215 -0.04271556227930695 0.0 -0.030313952790479104 0.0 0.0
0.05317791258667193 -0.05013664604110346 0.0 -0.03201142646040134 0.0 0.0
0.06129759174376495 -0.05816826012762277 0.0 -0.03262501244627769 0.0 0.0
0.07019686058753385 -0.06692245531199159 0.0 -0.03061215449633148 0.0 0.0
0.07932968475723717 -0.0757754493901821 0.0 -0.022433085546006204 0.0 0.0
0.07932968475723232 -0.07577544939017589 0.0 0.02243308554606005 0.0 0.0
0.0701968605875179 -0.0669224553119685 0.0 0.030612154496411303 0.0 0.0
0.061297591743740415 -0.05816826012759613 0.0 0.032625012446332535 0.0 0.0
0.05317791258663926 -0.050136646041077704 0.0 0.03201142646042021 0.0 0.0
0.04562968178001006 -0.04271556227928208 0.0 0.030313952790465226 0.0 0.0
0.03857139620255401 -0.035800156501950564 0.0 0.027761980282329568 0.0 0.0
0.032076009731709154 -0.029442361227558056 0.0 0.0247223539244531 0.0 0.0
0.026150179383310934 -0.023656365861147055 0.0 0.0215146851477811 0.0 0.0
0.020735745491556434 -0.018393491509311133 0.0 0.01824880309365151 0.0 0.0
0.01577936132743815 -0.013605278195750081 0.0 0.014928537092946725 0.0 0.0
0.011294813979355112 -0.00931322176631122 0.0 0.011566110296630128 0.0 0.0
0.007412853073640507 -0.005678323345203573 0.0 0.008386869897247462 0.0 0.0
0.004382475265551078 -0.0029808701338414068 0.0 0.00571651942745155 0.0 0.0
0.002377418362242978 -0.001378598189204494 0.0 0.0038467771859247435 0.0 0.0
0.0013235444272993446 -0.0006552934999664028 0.0 0.0028290132906133025 0.0 0.0
0.0008301693710122404 -0.0003524153098897198 0.0 0.002377489738964844 0.0 0.0
0.0004938963566478438 -0.00015539054082214232 0.0 0.002186326885234624 0.0 0.0
0.00022164715579106598 -6.558958627511657e-05 0.0 0.002250108287937036 0.0 0.0
0.00010969318416700902 -0.0002149164280057514 0.0 0.00245134498963534 0.0 0.0
0.0015875009738446355 -0.0027460287798526228 0.0 0.0032963142581616256 0.0 0.0
0.0010984873946500717 -0.0020982842516401035 0.0 -0.0026866219995263507 0.0 0.0
3.8725055722360624e-05 -0.00018134451795170925 0.0 -0.002524153557208364 0.0 0.0
6.651736928961482e-05 -1.1391676693173203e-05 0.0 -0.0024083315252420023 0.0 0.0
0.00023955249191034977 -4.210717184127688e-05 0.0 -0.002372319440237969 0.0 0.0
0.00047395319281942627 -0.00018251725080897785 0.0 -0.0025774643648229234 0.0 0.0
0.0007742767303946241 -0.00036466961880643467 0.0 -0.002997558998791894 0.0 0.0
0.0013363898905145999 -0.0006956848644064095 0.0 -0.00371003455185287 0.0 0.0
0.002454060896564303 -0.0014550900058449834 0.0 -0.004975717270218172 0.0 0.0
0.004253577653014928 -0.002890124301757613 0.0 -0.0068895141121047 0.0 0.0
0.006604756643104115 -0.004973392486128159 0.0 -0.009270176786210671 0.0 0.0
0.009331947587291584 -0.007506751088029784 0.0 -0.011905431814876577 0.0 0.0
0.012319768475924198 -0.0103474608997427 0.0 -0.014611389710139866 0.0 0.0
0.015573047095874648 -0.013475703013063889 0.0 -0.017345983091701878 0.0 0.0
0.019154815705060696 -0.016950796538189206 0.0 -0.02005093964596516 0.0 0.0
0.023165487945619567 -0.020864687684961858 0.0 -0.02266686090156489 0.0 0.0
0.027714663850434307 -0.0253117571681587 0.0 -0.02499250804020481 0.0 0.0
0.0328643267018075 -0.03034528211006915 0.0 -0.026581027054569994 0.0 0.0
0.03873783161052269 -0.03615780106530764 0.0 -0.027282667844312436 0.0 0.0
0.04596924006167272 -0.043393947734781335 0.0 -0.02700193423605257 0.0 0.0
0.055175304450943846 -0.052314090716015116 0.0 -0.02253093682872276 0.0 0.0
0.05517530445094129 -0.052314090716015116 0.0 0.02253093682876639 0.0 0.0
0.045969240061663696 -0.04339394773477334 0.0 0.02700193423612418 0.0 0.0
0.03873783161050562 -0.03615780106528099 0.0 0.02728266784435973 0.0 0.0
0.03286432670178596 -0.030345282110030958 0.0 0.02658102705458043 0.0 0.0
0.027714663850415155 -0.02531175716812495 0.0 0.024992508040190375 0.0 0.0
0.023165487945600693 -0.020864687684932104 0.0 0.0226668609015529 0.0 0.0
0.019154815705044126 -0.016950796538173662 0.0 0.020050939645955723 0.0 0.0
0.01557304709586066 -0.013475703013047458 0.0 0.017345983091698436 0.0 0.0
0.012319768475907794 -0.010347460899731153 0.0 0.014611389710127098 0.0 0.0
0.009331947587277095 -0.00750675108801957 0.0 0.011905431814856926 0.0 0.0
0.006604756643092374 -0.004973392486119721 0.0 0.009270176786188244 0.0 0.0
0.00425357765300588 -0.00289012430175406 0.0 0.006889514112093709 0.0 0.0
0.0024540608965584743 -0.0014550900058423188 0.0 0.004975717270212621 0.0 0.0
0.0013363898905111582 -0.0006956848644041891 0.0 0.0037100345518473743 0.0 0.0
0.000774276730394069 -0.00036466961880532445 0.0 0.0029975589987896734 0.0 0.0
0.0004739531928188434 -0.0001825172508072015 0.0 0.0025774643648206474 0.0 0.0
0.00023955249191034977 -4.210717183705803e-05 0.0 0.002372319440235915 0.0 0.0
6.6517369289254e-05 -1.1391676692174002e-05 0.0 0.0024083315252388937 0.0 0.0
3.872505572213858e-05 -0.00018134451795159823 0.0 0.0025241535572074203 0.0 0.0
0.0010984873946474072 -0.0020982842516364675 0.0 0.0026866219995216323 0.0 0.0
0.000747185768026043 -0.0015986308150602868 0.0 -0.0022402911653122137 0.0 0.0
-4.3321702064891277e-05 -0.00015387884614459502 0.0 -0.0025489687304012243 0.0 0.0
-8.728396877755173e-05 5.08531166981685e-05 0.0 -0.0025054974510467787 0.0 0.0
-8.194326986565859e-06 6.870392829827487e-05 0.0 -0.002498085777610015 0.0 0.0
0.00011301071032371324 -8.870384412329457e-06 0.0 -0.002699203485436008 0.0 0.0
0.0002414481028238935 -0.00010115218118489366 0.0 -0.0031374495274832936 0.0 0.0
0.0004241555850705292 -0.0002072537854003187 0.0 -0.0037236999452124886 0.0 0.0
0.0007725980942726585 -0.0003888459511016684 0.0 -0.004393849191977717 0.0 0.0
0.001368598551734046 -0.0007308470755327257 0.0 -0.005327530313887663 0.0 0.0
0.002158362861995944 -0.0012693642963581553 0.0 -0.006694216289560018 0.0 0.0
0.0030754845625314553 -0.0019830562312597166 0.0 -0.008492029318555971 0.0 0.0
0.004062690154058773 -0.0028331558366008203 0.0 -0.010550871110984184 0.0 0.0
0.0051354150155676626 -0.0038056669768633533 0.0 -0.012778218426840127 0.0 0.0
0.006353909278118991 -0.004949173537339924 0.0 -0.015138629924997371 0.0 0.0
0.007847284818785577 -0.006379228750948762 0.0 -0.017588377365435504 0.0 0.0
0.009830725883465008 -0.008292346897685654 0.0 -0.019949875027667874 0.0 0.0
0.012573215099147272 -0.010932013637852123 0.0 -0.02174975056686934 0.0 0.0
0.01627986474436341 -0.014498232272075917 0.0 -0.02232341506830693 0.0 0.0
0.021371941692838042 -0.019631307705718193 0.0 -0.022209120040650787 0.0 0.0
0.029660576533677763 -0.027905373080004736 0.0 -0.02177507365187914 0.0 0.0
0.02966057653367779 -0.027905373079995854 0.0 0.021775073651915222 0.0 0.0
0.021371941692834406 -0.01963130770570931 0.0 0.022209120040707298 0.0 0.0
0.016279864744354805 -0.014498232272076805 0.0 0.022323415068341124 0.0 0.0
0.01257321509913828 -0.01093201363784857 0.0 0.021749750566870563 0.0 0.0
0.00983072588346065 -0.008292346897682101 0.0 0.019949875027650776 0.0 0.0
0.007847284818780442 -0.006379228750942545 0.0 0.017588377365423846 0.0 0.0
0.006353909278116132 -0.004949173537332818 0.0 0.015138629924985048 0.0 0.0
0.005135415015566969 -0.0038056669768584683 0.0 0.0127782184268318 0.0 0.0
0.0040626901540554705 -0.0028331558365910503 0.0 0.010550871110969862 0.0 0.0
0.0030754845625286242 -0.001983056231256608 0.0 0.008492029318543537 0.0 0.0
0.0021583628619933903 -0.001269364296356379 0.0 0.00669421628954614 0.0 0.0
0.0013685985517326027 -0.0007308470755278407 0.0 0.005327530313882667 0.0 0.0
0.0007725980942709099 -0.0003888459510976716 0.0 0.004393849191974053 0.0 0.0
0.00042415558506966877 -0.00020725378539676598 0.0 0.0037236999452085473 0.0 0.0
0.00024144810282417106 -0.00010115218118400549 0.0 0.003137449527479408 0.0 0.0
0.00011301071032376875 -8.870384413661725e-06 0.0 0.0026992034854340097 0.0 0.0
-8.194326986454836e-06 6.870392829860794e-05 0.0 0.002498085777608239 0.0 0.0
-8.728396877766276e-05 5.085311669761339e-05 0.0 0.002505497451043892 0.0 0.0
-4.332170206516883e-05 -0.00015387884614476155 0.0 0.002548968730399337 0.0 0.0
0.0007471857680246274 -0.0015986308150588106 0.0 0.0022402911653081614 0.0 0.0
0.0005004935651088949 -0.0012352651359962552 0.0 -0.001956515046627083 0.0 0.0
-0.0001278862831795291 -0.00012778158178539112 0.0 -0.0025454883158557706 0.0 0.0
-0.00023947585896699763 0.00011699074243143315 0.0 -0.0025459262062648147 0.0 0.0
-0.00024952400135841435 0.00017683514065991446 0.0 -0.0025550209722929873 0.0 0.0
-0.00024506035144478133 0.00016436242760220487 0.0 -0.0027390139011595482 0.0 0.0
-0.00029411327829501066 0.00016183053440621542 0.0 -0.003157855710443358 0.0 0.0
-0.00044484218201387704 0.00022427779890010768 0.0 -0.0037368951139271633 0.0 0.0
-0.0007801889707549914 0.00039447467288677984 0.0 -0.004404255092458231 0.0 0.0
-0.0013689601858827838 0.0007321837088909433 0.0 -0.0053315748954501085 0.0 0.0
-0.0021578673191687825 0.0012707187564551248 0.0 -0.00669410436772655 0.0 0.0
-0.0030877231511036163 0.0019990396365656693 0.0 -0.008496144602799682 0.0 0.0
-0.004116870560716496 0.0028866447378135263 0.0 -0.010563770556906715 0.0 0.0
-0.005237853381048957 0.0038923387162599354 0.0 -0.012789645667206417 0.0 0.0
-0.006397655695542848 0.004950632960390333 0.0 -0.015140035278367936 0.0 0.0
-0.007436416073931418 0.0059040721418393005 0.0 -0.017599515677247712 0.0 0.0
-0.008061196588704966 0.006470109588826212 0.0 -0.020111834491640224 0.0 0.0
-0.007843192622251888 0.006249986951118558 0.0 -0.02264716159291258 0.0 0.0
-0.006414766862808147 0.005001738333322514 0.0 -0.02529801617589289 0.0 0.0
-0.003426562272948519 0.0024945123177966266 0.0 -0.027721473242953154 0.0 0.0
0.003964200652527949 -0.004513689187637837 0.0 -0.026945918676239078 0.0 0.0
0.0039642006525281714 -0.004513689187627179 0.0 0.026945918676257063 0.0 0.0
-0.0034265622729492684 0.0024945123178019557 0.0 0.02772147324297236 0.0 0.0
-0.006414766862804677 0.005001738333325179 0.0 0.02529801617589844 0.0 0.0
-0.007843192622245532 0.006249986951115005 0.0 0.022647161592900922 0.0 0.0
-0.008061196588693392 0.006470109588811113 0.0 0.020111834491617908 0.0 0.0
-0.007436416073923008 0.005904072141825534 0.0 0.01759951567723339 0.0 0.0
-0.0063976556955319674 0.004950632960375678 0.0 0.015140035278353059 0.0 0.0
-0.0052378533810367445 0.003892338716247501 0.0 0.012789645667197647 0.0 0.0
-0.004116870560705588 0.002886644737806865 0.0 0.010563770556890839 0.0 0.0
-0.003087723151094096 0.0019990396365612284 0.0 0.008496144602783584 0.0 0.0
-0.002157867319161233 0.0012707187564471312 0.0 0.006694104367712561 0.0 0.0
-0.001368960185877205 0.0007321837088865024 0.0 0.0053315748954447795 0.0 0.0
-0.0007801889707526322 0.00039447467288233895 0.0 0.004404255092455123 0.0 0.0
-0.00044484218201223946 0.00022427779889611088 0.0 0.0037368951139236106 0.0 0.0
-0.0002941132782943723 0.0001618305344055493 0.0 0.0031578557104396943 0.0 0.0
-0.00024506035144403193 0.0001643624276013167 0.0 0.0027390139011561065 0.0 0.0
-0.000249524001357998 0.00017683514065880424 0.0 0.002555020972290045 0.0 0.0
-0.0002394758589668311 0.00011699074243143315 0.0 0.0025459262062637045 0.0 0.0
-0.00012788628317986217 -0.00012778158178461396 0.0 0.0025454883158556596 0.0 0.0
0.000500493565108534 -0.0012352651359947165 0.0 0.001956515046626084 0.0 0.0
0.0003317436524445383 -0.0009692137959375069 0.0 -0.0017630391199455753 0.0 0.0
-0.00020556601527504936 -9.589369114360036e-05 0.0 -0.002500839420452372 0.0 0.0
-0.0003870524756693361 0.00018092846103145988 0.0 -0.002533421463239649 0.0 0.0
-0.00048330952223332724 0.00028129104123508775 0.0 -0.00253861741349809 0.0 0.0
-0.0005957341874121003 0.000332367471331807 0.0 -0.002691060646750343 0.0 0.0
-0.0008262303577508401 0.0004260280605801192 0.0 -0.003062909957621762 0.0 0.0
-0.0013563570091379984 0.0007153144206144546 0.0 -0.003750540960495652 0.0 0.0
-0.002458490794638446 0.0014612646012137631 0.0 -0.004998559811689174 0.0 0.0
-0.004251789721595317 0.0028901273811450245 0.0 -0.006895258841402185 0.0 0.0
-0.006605003593405823 0.004976189619391835 0.0 -0.00927119285548983 0.0 0.0
-0.009347183594973635 0.007526829236113475 0.0 -0.01190585712159975 0.0 0.0
-0.012371210637244417 0.01040276024755471 0.0 -0.014593748296455433 0.0 0.0
-0.015663392189097985 0.013557598970274753 0.0 -0.017286205207885597 0.0 0.0
-0.01917840069614088 0.016934840856797084 0.0 -0.019976355887946773 0.0 0.0
-0.022740430462153016 0.020355196103256645 0.0 -0.02273342634435971 0.0 0.0
-0.0259923785476443 0.02347117929489606 0.0 -0.02561442662369595 0.0 0.0
-0.02842326569387696 0.02579653182247199 0.0 -0.028717165679589818 0.0 0.0
-0.02945976775037215 0.026767662247476842 0.0 -0.03194006102399016 0.0 0.0
-0.02801395285200789 0.025061735872192514 0.0 -0.03348016434929635 0.0 0.0
-0.020682647523297848 0.01738958222464415 0.0 -0.03143347086219661 0.0 0.0
-0.020682647523298264 0.017389582224641487 0.0 0.031433470862239576 0.0 0.0
-0.02801395285200442 0.02506173587218541 0.0 0.03348016434935197 0.0 0.0
-0.029459767750357357 0.02676766224745375 0.0 0.03194006102402658 0.0 0.0
-0.028423265693855476 0.025796531822441793 0.0 0.028717165679588152 0.0 0.0
-0.025992378547618183 0.023471179294872968 0.0 0.025614426623674413 0.0 0.0
-0.022740430462129785 0.020355196103236217 0.0 0.022733426344343166 0.0 0.0
-0.01917840069611637 0.016934840856778433 0.0 0.019976355887932118 0.0 0.0
-0.015663392189074088 0.013557598970255214 0.0 0.017286205207873717 0.0 0.0
-0.012371210637219437 0.010402760247531617 0.0 0.01459374829643334 0.0 0.0
-0.009347183594951985 0.00752682923608905 0.0 0.01190585712157366 0.0 0.0
-0.006605003593388087 0.004976189619371851 0.0 0.009271192855466848 0.0 0.0
-0.0042517897215825495 0.0028901273811352546 0.0 0.006895258841389196 0.0 0.0
-0.0024584907946313683 0.0014612646012124308 0.0 0.004998559811681291 0.0 0.0
-0.0013563570091341404 0.0007153144206175632 0.0 0.003750540960488047 0.0 0.0
-0.0008262303577489805 0.00042602806057989717 0.0 0.0030629099576152674 0.0 0.0
-0.0005957341874113786 0.0003323674713302527 0.0 0.002691060646749066 0.0 0.0
-0.00048330952223257784 0.0002812910412333114 0.0 0.0025386174134965356 0.0 0.0
-0.0003870524756691973 0.00018092846103001659 0.0 0.0025334214632388163 0.0 0.0
-0.00020556601527529916 -9.5893691144322e-05 0.0 0.002500839420451262 0.0 0.0
0.00033174365244406645 -0.000969213795936761 0.0 0.001763039119942078 0.0 0.0
0.00021384536145685473 -0.0007463614763567605 0.0 -0.0015692238284423787 0.0 0.0
-0.00027420782468984273 -5.853638491815083e-05 0.0 -0.0024022327558342327 0.0 0.0
-0.0005268775560249295 0.00024022720936300868 0.0 -0.002463111132638196 0.0 0.0
-0.0007080113729182602 0.00037985952238517307 0.0 -0.002451511337810519 0.0 0.0
-0.000935430697762113 0.0004922077418525461 0.0 -0.00255815739441817 0.0 0.0
-0.0013733161294164076 0.0007189848854556313 0.0 -0.002937683043528261 0.0 0.0
-0.0023925496949280256 0.0013993949010941975 0.0 -0.003903124384234291 0.0 0.0
-0.0043807511853516945 0.002982550961316832 0.0 -0.005736258507228809 0.0 0.0
-0.0074095528159441315 0.005676263648886959 0.0 -0.008386944872596502 0.0 0.0
-0.01129762889176833 0.009317916183215758 0.0 -0.011567575421669973 0.0 0.0
-0.015794857460175227 0.013624393104855415 0.0 -0.014922073448620288 0.0 0.0
-0.02077355825172364 0.018435001174729848 0.0 -0.018188435690107307 0.0 0.0
-0.026207345518818898 0.023708146893735016 0.0 -0.021341536101431857 0.0 0.0
-0.03206242635873391 0.02939672550083383 0.0 -0.02448895951438612 0.0 0.0
-0.03816008077308711 0.03531599986498257 0.0 -0.027860836331409455 0.0 0.0
-0.044089125410125274 0.04106619220124319 0.0 -0.03175253533950351 0.0 0.0
-0.04920727816567508 0.046016535024762995 0.0 -0.036303120498339836 0.0 0.0
-0.052515429491598126 0.049111459249084 0.0 -0.04067313245006243 0.0 0.0
-0.052088097214983003 0.04840060522275458 0.0 -0.04283020902627199 0.0 0.0
-0.04391011709405837 0.039491018525365185 0.0 -0.03873823489249406 0.0 0.0
-0.04391011709405712 0.03949101852535364 0.0 0.03873823489254513 0.0 0.0
-0.05208809721497332 0.048400605222736814 0.0 0.0428302090263426 0.0 0.0
-0.052515429491575366 0.049111459249061795 0.0 0.04067313245010962 0.0 0.0
-0.04920727816564158 0.046016535024728356 0.0 0.036303120498347496 0.0 0.0
-0.044089125410085916 0.04106619220120589 0.0 0.03175253533948508 0.0 0.0
-0.038160080773049554 0.0353159998649466 0.0 0.027860836331388694 0.0 0.0
-0.032062426358695495 0.029396725500799636 0.0 0.024488959514365027 0.0 0.0
-0.02620734551878301 0.02370814689369949 0.0 0.021341536101416314 0.0 0.0
-0.02077355825168617 0.018435001174695653 0.0 0.018188435690084104 0.0 0.0
-0.01579485746014217 0.013624393104822108 0.0 0.014922073448588646 0.0 0.0
-0.011297628891740408 0.00931791618318556 0.0 0.011567575421639997 0.0 0.0
-0.007409552815923731 0.0056762636488651985 0.0 0.008386944872579072 0.0 0.0
-0.004380751185339565 0.0029825509613039536 0.0 0.005736258507215597 0.0 0.0
-0.0023925496949211145 0.0013993949010890905 0.0 0.0039031243842242436 0.0 0.0
-0.0013733161294131324 0.0007189848854565195 0.0 0.0029376830435217105 0.0 0.0
-0.0009354306977612248 0.0004922077418552107 0.0 0.002558157394415561 0.0 0.0
-0.000708011372917261 0.00037985952238561715 0.0 0.0024515113378093534 0.0 0.0
-0.0005268775560246797 0.00024022720936323072 0.0 0.0024631111326360866 0.0 0.0
-0.00027420782468981497 -5.8536384918927986e-05 0.0 0.002402232755832401 0.0 0.0
0.0002138453614563829 -0.0007463614763557076 0.0 0.0015692238284417681 0.0 0.0
0.00012149979506032027 -0.0005491556946581322 0.0 -0.0013634946575081242 0.0 0.0
-0.00033585115247214414 -1.57143529083692e-05 0.0 -0.002248144649902306 0.0 0.0
-0.0006577817695294086 0.0002947610897754416 0.0 -0.002339391493471843 0.0 0.0
-0.0009224336840934488 0.0004704158638277889 0.0 -0.002302829324348221 0.0 0.0
-0.0012664392591072438 0.000651695787239337 0.0 -0.0023689163944419223 0.0 0.0
-0.001977374465327697 0.0010878432201097965 0.0 -0.002812812996156544 0.0 0.0
-0.00359336242514241 0.0023114374902437618 0.0 -0.004035321015800064 0.0 0.0
-0.006520872002148181 0.004850344517270511 0.0 -0.006270388000280347 0.0 0.0
-0.010795952340789394 0.008821533781469881 0.0 -0.009411871182253617 0.0 0.0
-0.01618246050351202 0.01396779982533447 0.0 -0.013080340463036522 0.0 0.0
-0.02239699277081969 0.019978065016131197 0.0 -0.016827955148248974 0.0 0.0
-0.029301632556108237 0.02669047479175024 0.0 -0.02040139491168791 0.0 0.0
-0.03686358238344953 0.03406749776141549 0.0 -0.02381394762429201 0.0 0.0
-0.0450615536828364 0.0420741856623299 0.0 -0.027224850720305893 0.0 0.0
-0.05372901151284806 0.05053542155125523 0.0 -0.03098847469227506 0.0 0.0
-0.062409785156774256 0.058991664592735304 0.0 -0.03557510530889074 0.0 0.0
-0.07020620861790541 0.0665372110945075 0.0 -0.04104556729519737 0.0 0.0
-0.07554296555841802 0.07157817397128774 0.0 -0.04629564312318202 0.0 0.0
-0.07570613658045663 0.07129981417947473 0.0 -0.048520796493926155 0.0 0.0
-0.0657026521009903 0.06062886019141889 0.0 -0.04447704373109429 0.0 0.0
-0.06570265210098677 0.06062886019141889 0.0 0.0444770437311488 0.0 0.0
-0.07570613658044018 0.07129981417946141 0.0 0.04852079649400087 0.0 0.0
-0.07554296555838735 0.07157817397125843 0.0 0.04629564312323797 0.0 0.0
-0.07020620861786217 0.06653721109446398 0.0 0.04104556729521247 0.0 0.0
-0.06240978515672302 0.0589916645926829 0.0 0.035575105308875865 0.0 0.0
-0.053729011512797076 0.0505354215512015 0.0 0.030988474692253742 0.0 0.0
-0.045061553682784444 0.04207418566227439 0.0 0.02722485072028258 0.0 0.0
-0.03686358238340012 0.034067497761363974 0.0 0.023813947624275578 0.0 0.0
-0.02930163255605925 0.02669047479170672 0.0 0.020401394911664927 0.0 0.0
-0.02239699277077567 0.01997806501609034 0.0 0.016827955148218 0.0 0.0
-0.01618246050347409 0.013967799825294946 0.0 0.013080340463004492 0.0 0.0
-0.010795952340761236 0.00882153378144146 0.0 0.009411871182234521 0.0 0.0
-0.006520872002130376 0.004850344517255856 0.0 0.0062703880002682455 0.0 0.0
-0.003593362425131641 0.002311437490235768 0.0 0.004035321015790905 0.0 0.0
-0.001977374465323062 0.0010878432201060217 0.0 0.002812812996151881 0.0 0.0
-0.0012664392591057866 0.0006516957872413354 0.0 0.002368916394440146 0.0 0.0
-0.0009224336840923802 0.0004704158638288991 0.0 0.0023028293243485543 0.0 0.0
-0.0006577817695290061 0.0002947610897754416 0.0 0.0023393914934697335 0.0 0.0
-0.00033585115247163067 -1.5714352908979823e-05 0.0 0.002248144649901196 0.0 0.0
0.00012149979506018149 -0.0005491556946582033 0.0 0.0013634946575062923 0.0 0.0
4.3141080933395415e-05 -0.00037555796372551464 0.0 -0.0011513964109270969 0.0 0.0
-0.0003939349706879036 3.236570732467747e-05 0.0 -0.002038324751019893 0.0 0.0
-0.0007798088286071203 0.0003449742386483212 0.0 -0.0021579287205607534 0.0 0.0
-0.001124971780970374 0.0005517241487684732 0.0 -0.002088469012059946 0.0 0.0
-0.0016039920286662346 0.0008252562874373481 0.0 -0.0021358823746807087 0.0 0.0
-0.002670007321071255 0.0015634757758742346 0.0 -0.002661542782418813 0.0 0.0
-0.004951012468499327 0.0034423852327272186 0.0 -0.004050667479830405 0.0 0.0
-0.008845371031920235 0.006980412166373906 0.0 -0.006508505423696964 0.0 0.0
-0.014347908968108947 0.012196471263521413 0.0 -0.009885803018163886 0.0 0.0
-0.021185679542203573 0.018790607761441258 0.0 -0.013706299015909806 0.0 0.0
-0.029094156667302806 0.02647201754959827 0.0 -0.01754034977016905 0.0 0.0
-0.037916697609548355 0.0350770539937888 0.0 -0.021200888931595108 0.0 0.0
-0.04760040529501369 0.04455117277891496 0.0 -0.02469298535197295 0.0 0.0
-0.05813192491287472 0.05487081856080778 0.0 -0.02814896731446903 0.0 0.0
-0.06937771104668497 0.06588213021456024 0.0 -0.03196579179224235 0.0 0.0
-0.0808136135848476 0.07704234425911416 0.0 -0.036675885174630496 0.0 0.0
-0.09122472275285737 0.08712538855869045 0.0 -0.0423954384020403 0.0 0.0
-0.09841044967212853 0.09390641849820103 0.0 -0.04798726871253378 0.0 0.0
-0.09879093467544076 0.09378483901424772 0.0 -0.05092423920685607 0.0 0.0
-0.08699382616346774 0.0814054376265112 0.0 -0.049451225142624566 0.0 0.0
-0.08699382616346149 0.08140543762650765 0.0 0.04945122514268063 0.0 0.0
-0.09879093467541741 0.09378483901423351 0.0 0.05092423920692968 0.0 0.0
-0.09841044967208909 0.09390641849816994 0.0 0.04798726871258707 0.0 0.0
-0.0912247227528048 0.08712538855863361 0.0 0.04239543840205551 0.0 0.0
-0.08081361358478559 0.07704234425905288 0.0 0.03667588517462328 0.0 0.0
-0.0693777110466213 0.06588213021449807 0.0 0.03196579179222425 0.0 0.0
-0.05813192491281033 0.05487081856074694 0.0 0.028148967314445605 0.0 0.0
-0.04760040529495024 0.04455117277885501 0.0 0.024692985351951857 0.0 0.0
-0.03791669760948753 0.03507705399372529 0.0 0.02120088893157157 0.0 0.0
-0.029094156667248516 0.026472017549546756 0.0 0.01754034977013602 0.0 0.0
-0.021185679542156624 0.01879060776139907 0.0 0.01370629901587489 0.0 0.0
-0.014347908968072781 0.012196471263490771 0.0 0.009885803018139294 0.0 0.0
-0.008845371031895852 0.006980412166350813 0.0 0.006508505423679978 0.0 0.0
-0.004951012468484214 0.003442385232709677 0.0 0.004050667479817749 0.0 0.0
-0.002670007321064219 0.0015634757758669071 0.0 0.0026615427824151494 0.0 0.0
-0.0016039920286643194 0.0008252562874353497 0.0 0.0021358823746790434 0.0 0.0
-0.0011249717809697635 0.0005517241487686952 0.0 0.002088469012058003 0.0 0.0
-0.0007798088286065097 0.0003449742386483212 0.0 0.0021579287205589215 0.0 0.0
-0.00039393497068732075 3.236570732401134e-05 0.0 0.0020383247510191715 0.0 0.0
4.3141080933339904e-05 -0.0003755579637255216 0.0 0.0011513964109260977 0.0 0.0
-2.3773174933072738e-05 -0.0002266327289119907 0.0 -0.0009333159654464906 0.0 0.0
-0.00044992810027105756 8.418596322268268e-05 0.0 -0.0017781395841310332 0.0 0.0
-0.0008940111114740801 0.00039121280466447583 0.0 -0.001919757361766361 0.0 0.0
-0.0013179696507897298 0.0006292299442234306 0.0 -0.0018275892893570012 0.0 0.0
-0.001970276201496035 0.001035444506387595 0.0 -0.001879740197248736 0.0 0.0
-0.003462578462475885 0.002162452333337672 0.0 -0.0024527575533019874 0.0 0.0
-0.006452744382844544 0.004769714478005227 0.0 -0.0038996339279824266 0.0 0.0
-0.011314287960725256 0.009302868028046252 0.0 -0.006400552485143818 0.0 0.0
-0.017992396303899205 0.015704913822631283 0.0 -0.0097136679023615 0.0 0.0
-0.026250617144910726 0.023704752119942274 0.0 -0.013393040446876725 0.0 0.0
-0.03584168683388661 0.03304447726473647 0.0 -0.01710048015104293 0.0 0.0
-0.04658219277338571 0.043540962765925784 0.0 -0.02063908019066263 0.0 0.0
-0.058387133692875126 0.055110306125121244 0.0 -0.02402209160237001 0.0 0.0
-0.07123200218907566 0.06772161935896248 0.0 -0.027341652316045573 0.0 0.0
-0.08499836166132502 0.08122875964982423 0.0 -0.030838266610868525 0.0 0.0
-0.09911501805980308 0.09502141233746553 0.0 -0.035032062840498424 0.0 0.0
-0.11206377494879763 0.10756202740829579 0.0 -0.04032519256763123 0.0 0.0
-0.12100380949436312 0.11601108436882335 0.0 -0.04611075477817472 0.0 0.0
-0.12165311807132573 0.11612548008955947 0.0 -0.05086392157094055 0.0 0.0
-0.10839196382487204 0.10233104494367762 0.0 -0.054046862240705096 0.0 0.0
-0.10839196382486238 0.10233104494367051 0.0 0.05404686224076216 0.0 0.0
-0.12165311807129633 0.11612548008953372 0.0 0.05086392157101527 0.0 0.0
-0.12100380949431497 0.1160110843687816 0.0 0.0461107547782269 0.0 0.0
-0.11206377494873523 0.10756202740824339 0.0 0.040325192567644996 0.0 0.0
-0.09911501805972989 0.09502141233739536 0.0 0.03503206284049287 0.0 0.0
-0.0849983616612493 0.08122875964975451 0.0 0.03083826661085598 0.0 0.0
-0.07123200218899907 0.06772161935889764 0.0 0.027341652316025644 0.0 0.0
-0.05838713369279848 0.055110306125052855 0.0 0.02402209160235097 0.0 0.0
-0.04658219277331306 0.04354096276585828 0.0 0.02063908019064098 0.0 0.0
-0.035841686833821565 0.03304447726467519 0.0 0.017100480151010844 0.0 0.0
-0.026250617144855035 0.02370475211988854 0.0 0.013393040446846471 0.0 0.0
-0.017992396303855407 0.015704913822592648 0.0 0.009713667902340684 0.0 0.0
-0.011314287960694835 0.00930286802801783 0.0 0.006400552485128441 0.0 0.0
-0.006452744382824699 0.004769714477985021 0.0 0.0038996339279702696 0.0 0.0
-0.0034625784624664757 0.0021624523333303447 0.0 0.0024527575532946044 0.0 0.0
-0.0019702762014933567 0.0010354445063855966 0.0 0.001879740197246238 0.0 0.0
-0.001317969650789133 0.0006292299442232085 0.0 0.0018275892893558354 0.0 0.0
-0.0008940111114732197 0.0003912128046633656 0.0 0.0019197573617649732 0.0 0.0
-0.0004499281002702249 8.418596322301575e-05 0.0 0.0017781395841290903 0.0 0.0
-2.377317493305886e-05 -0.00022663272891124998 0.0 0.0009333159654456025 0.0 0.0
-7.816245578057268e-05 -0.00010474070093519083 0.0 -0.0007087100214646092 0.0 0.0
-0.0005025493661861558 0.00013711154564943762 0.0 -0.0014731137235281522 0.0 0.0
-0.001001940963059389 0.0004340467290375738 0.0 -0.001625031772632901 0.0 0.0
-0.001509030774993536 0.0007084725588581975 0.0 -0.0015184409418127487 0.0 0.0
-0.0023855200929197573 0.0012966243929253274 0.0 -0.0015790148415736338 0.0 0.0
-0.004359755518980657 0.002897090773238631 0.0 -0.002164222032465135 0.0 0.0
-0.008083686085707253 0.006266627312665474 0.0 -0.0035757581052289766 0.0 0.0
-0.013862137097834015 0.011742380725857426 0.0 -0.0058747361851674285 0.0 0.0
-0.021674451814930218 0.01927510199418636 0.0 -0.008841267038095402 0.0 0.0
-0.031337449556736285 0.028660984444718984 0.0 -0.01216967735188812 0.0 0.0
-0.04260014352671376 0.03964903097962358 0.0 -0.015522648301591113 0.0 0.0
-0.05526025375315985 0.052037873953736824 0.0 -0.0187300360257332 0.0 0.0
-0.06919314485278077 0.06570619609860096 0.0 -0.021823078257111272 0.0 0.0
-0.08432193792600445 0.08057311702243553 0.0 -0.024810057230361338 0.0 0.0
-0.10049387470357946 0.09646396999722473 0.0 -0.027714520132628984 0.0 0.0
-0.11712215819024291 0.112736936965252 0.0 -0.03084274068188675 0.0 0.0
-0.13251522856688527 0.12765346377290232 0.0 -0.034973528670090404 0.0 0.0
-0.1433206408095269 0.13789487538629253 0.0 -0.04081022563435599 0.0 0.0
-0.1446263280284135 0.13861648578000452 0.0 -0.04845674663242305 0.0 0.0
-0.13036579682119162 0.12383474498817293 0.0 -0.05825377057108638 0.0 0.0
-0.13036579682117924 0.12383474498816405 0.0 0.058253770571139674 0.0 0.0
-0.14462632802837824 0.13861648577997254 0.0 0.04845674663249089 0.0 0.0
-0.14332064080947074 0.1378948753862419 0.0 0.04081022563439973 0.0 0.0
-0.13251522856681172 0.12765346377283304 0.0 0.034973528670101284 0.0 0.0
-0.11712215819015873 0.11273693696517384 0.0 0.030842740681880587 0.0 0.0
-0.10049387470349168 0.09646396999713369 0.0 0.02771452013261888 0.0 0.0
-0.0843219379259154 0.08057311702234404 0.0 0.024810057230345017 0.0 0.0
-0.06919314485269194 0.06570619609851391 0.0 0.021823078257095008 0.0 0.0
-0.055260253753075736 0.052037873953655556 0.0 0.018730036025711605 0.0 0.0
-0.04260014352663752 0.03964903097954808 0.0 0.015522648301561415 0.0 0.0
-0.03133744955667184 0.02866098444465326 0.0 0.012169677351859365 0.0 0.0
-0.021674451814879495 0.019275101994132182 0.0 0.008841267038077971 0.0 0.0
-0.013862137097797475 0.011742380725822787 0.0 0.005874736185151663 0.0 0.0
-0.008083686085682953 0.0062666273126446015 0.0 0.0035757581052184295 0.0 0.0
-0.004359755518968958 0.00289709077322553 0.0 0.0021642220324568084 0.0 0.0
-0.002385520092915608 0.0012966243929197763 0.0 0.0015790148415708583 0.0 0.0
-0.0015090307749922732 0.0007084725588566432 0.0 0.001518440941812138 0.0 0.0
-0.0010019409630584314 0.00043404672903690766 0.0 0.0016250317726327346 0.0 0.0
-0.0005025493661857255 0.00013711154564971517 0.0 0.0014731137235274305 0.0 0.0
-7.816245578061431e-05 -0.00010474070093549268 0.0 0.0007087100214644426 0.0 0.0
-0.00011638790597784388 -1.3206314104341477e-05 0.0 -0.0004791293303933464 0.0 0.0
-0.0005473118610708205 0.00018735039446438062 0.0 -0.0011263557876818875 0.0 0.0
-0.0011051208649633937 0.00047332451319270774 0.0 -0.0012710975788743917 0.0 0.0
-0.0017100619156353858 0.0008008768866427651 0.0 -0.0011643634156647265 0.0 0.0
-0.002866588551857896 0.0016325322348849092 0.0 -0.001230200915722568 0.0 0.0
-0.005367083787930438 0.0037673762096714913 0.0 -0.001784460389303133 0.0 0.0
-0.00979731907869913 0.007875277973307337 0.0 -0.002977504670393205 0.0 0.0
-0.016438057409634665 0.014232996802354236 0.0 -0.004849639636149816 0.0 0.0
-0.02535931195233687 0.022865382202465145 0.0 -0.007293718076857747 0.0 0.0
-0.03640580039818209 0.03361594128805345 0.0 -0.010047350887983031 0.0 0.0
-0.04933034824255761 0.046241923879001945 0.0 -0.012825978729678833 0.0 0.0
-0.0639110765423177 0.06052473445902207 0.0 -0.015480700465945296 0.0 0.0
-0.07997919448893281 0.07629616751517565 0.0 -0.018056720984218178 0.0 0.0
-0.09737094792598772 0.09339055478131053 0.0 -0.020560394280402017 0.0 0.0
-0.11581354976699787 0.11152387536207886 0.0 -0.022766635968397564 0.0 0.0
-0.13467104446971667 0.13001659628935958 0.0 -0.024495097440075497 0.0 0.0
-0.15233242700841548 0.147185423851794 0.0 -0.026669361321460028 0.0 0.0
-0.16532918133423918 0.15952617402391134 0.0 -0.0320010358719105 0.0 0.0
-0.1679943464429852 0.16152827113720392 0.0 -0.04321220630935951 0.0 0.0
-0.15342506528216596 0.14638739392304156 0.0 -0.06171881658241141 0.0 0.0
-0.1534250652821524 0.1463873939230309 0.0 0.06171881658245559 0.0 0.0
-0.16799434644294453 0.16152827113716572 0.0 0.04321220630941469 0.0 0.0
-0.16532918133417404 0.15952617402385094 0.0 0.032001035871949135 0.0 0.0
-0.15233242700832994 0.14718542385171762 0.0 0.026669361321470686 0.0 0.0
-0.1346710444696212 0.1300165962892672 0.0 0.02449509744007239 0.0 0.0
-0.11581354976689813 0.11152387536197761 0.0 0.02276663596839268 0.0 0.0
-0.09737094792588592 0.09339055478120795 0.0 0.020560394280392413 0.0 0.0
-0.07997919448883194 0.07629616751508284 0.0 0.0180567209842053 0.0 0.0
-0.06391107654222165 0.060524734458926144 0.0 0.015480700465931752 0.0 0.0
-0.04933034824247111 0.04624192387891801 0.0 0.012825978729655796 0.0 0.0
-0.03640580039810857 0.033615941287989504 0.0 0.01004735088796227 0.0 0.0
-0.025359311952280104 0.022865382202410967 0.0 0.0072937180768454235 0.0 0.0
-0.01643805740959206 0.01423299680231116 0.0 0.004849639636135716 0.0 0.0
-0.009797319078670347 0.007875277973281136 0.0 0.002977504670386766 0.0 0.0
-0.005367083787916137 0.003767376209660833 0.0 0.0017844603892989697 0.0 0.0
-0.002866588551852213 0.0016325322348806903 0.0 0.0012302009157244553 0.0 0.0
-0.0017100619156336996 0.0008008768866396565 0.0 0.0011643634156646154 0.0 0.0
-0.00110512086496245 0.0004733245131924857 0.0 0.001271097578873559 0.0 0.0
-0.0005473118610708275 0.0001873503944647137 0.0 0.0011263557876809993 0.0 0.0
-0.00011638790597733734 -1.3206314104247802e-05 0.0 0.00047912933039312433 0.0 0.0
-0.0001316407951205134 4.3565368492870515e-05 0.0 -0.00025127744450925693 0.0 0.0
-0.0005751453812435359 0.00022860292210891142 0.0 -0.0007373463539116498 0.0 0.0
-0.0012063836048011312 0.0005115231475173454 0.0 -0.0008516583982667858 0.0 0.0
-0.0019398011942561855 0.0009204862268061831 0.0 -0.0007677804262919974 0.0 0.0
-0.0034281980465148965 0.002064851396570422 0.0 -0.0008354685545692853 0.0 0.0
-0.006466746853739547 0.004755644789088187 0.0 -0.0012507815365222497 0.0 0.0
-0.01154634110472158 0.00954698253724251 0.0 -0.0020806779449831225 0.0 0.0
-0.019014891416058166 0.01673843258469443 0.0 -0.0033659110934275427 0.0 0.0
-0.029008893838000593 0.026436365438230247 0.0 -0.005075743609143424 0.0 0.0
-0.04141604902861462 0.03852808589515 0.0 -0.007029048141503624 0.0 0.0
-0.05599303697298785 0.05278198502561393 0.0 -0.009002332793750178 0.0 0.0
-0.07249439819845466 0.06895793428774999 0.0 -0.010887739918645445 0.0 0.0
-0.09070055452817055 0.0868344373712806 0.0 -0.012744611869695999 0.0 0.0
-0.11033602652857355 0.10613244051178938 0.0 -0.014528012412310942 0.0 0.0
-0.130948208575288 0.12639503688145481 0.0 -0.01594918118051869 0.0 0.0
-0.1517457198994847 0.14681897517303 0.0 -0.016532432682359044 0.0 0.0
-0.17127049190740423 0.16589367365762886 0.0 -0.016496270403921542 0.0 0.0
-0.18661342366223738 0.18060647050025924 0.0 -0.01934610601303033 0.0 0.0
-0.19201570757276526 0.1850719574230002 0.0 -0.033393043797513844 0.0 0.0
-0.17831477622906763 0.1706843547135719 0.0 -0.06360156719643417 0.0 0.0
-0.17831477622905262 0.17068435471355325 0.0 0.06360156719647092 0.0 0.0
-0.19201570757271985 0.18507195742295224 0.0 0.03339304379755892 0.0 0.0
-0.18661342366216205 0.18060647050018286 0.0 0.019346106013062525 0.0 0.0
-0.17127049190730606 0.1658936736575365 0.0 0.016496270403924873 0.0 0.0
-0.15174571989937768 0.14681897517292164 0.0 0.01653243268235416 0.0 0.0
-0.13094820857517603 0.126395036881346 0.0 0.015949181180516858 0.0 0.0
-0.11033602652845897 0.10613244051168458 0.0 0.014528012412308333 0.0 0.0
-0.09070055452805796 0.08683443737116958 0.0 0.012744611869687561 0.0 0.0
-0.07249439819834669 0.06895793428764696 0.0 0.010887739918638673 0.0 0.0
-0.05599303697289201 0.05278198502552245 0.0 0.009002332793733803 0.0 0.0
-0.041416049028533006 0.03852808589507095 0.0 0.007029048141487304 0.0 0.0
-0.029008893837936853 0.026436365438171183 0.0 0.005075743609132377 0.0 0.0
-0.019014891416010322 0.016738432584649576 0.0 0.0033659110934179393 0.0 0.0
-0.011546341104688697 0.009546982537206317 0.0 0.002080677944973963 0.0 0.0
-0.006466746853721596 0.004755644789071534 0.0 0.0012507815365170316 0.0 0.0
-0.003428198046507222 0.0020648513965644266 0.0 0.0008354685545691742 0.0 0.0
-0.0019398011942543328 0.0009204862268031855 0.0 0.0007677804262934407 0.0 0.0
-0.001206383604800021 0.0005115231475172344 0.0 0.0008516583982667858 0.0 0.0
-0.0005751453812430606 0.00022860292210952204 0.0 0.000737346353912427 0.0 0.0
-0.00013164079512015953 4.356536849281674e-05 0.0 0.00025127744450975653 0.0 0.0
-0.00011178340712403312 5.9305952030186404e-05 0.0 -4.2015230211356336e-05 0.0 0.0
-0.0005696702772526874 0.0002505197121106528 0.0 -0.0002982471671206244 0.0 0.0
-0.001313838436466097 0.0005551934371766931 0.0 -0.00035318106445614283 0.0 0.0
-0.0022227512673655414 0.0010968987906947447 0.0 -0.00033272631328845614 0.0 0.0
-0.004073732606681424 0.0025928573844806735 0.0 -0.0003661492875592365 0.0 0.0
-0.007623711847622339 0.0058208782725901465 0.0 -0.0005342478596616629 0.0 0.0
-0.013311364913103918 0.011247914825870176 0.0 -0.0008782853169789218 0.0 0.0
-0.021559160946426348 0.019225113339796707 0.0 -0.0014263402672947123 0.0 0.0
-0.03258503689157649 0.029946866594750432 0.0 -0.002196187985023079 0.0 0.0
-0.04632675837107736 0.04335486714221526 0.0 -0.0031101267601351124 0.0 0.0
-0.06255009925540667 0.05923000593489869 0.0 -0.004049143439268432 0.0 0.0
-0.08097378782859116 0.07729864895365335 0.0 -0.0049609713784960485 0.0 0.0
-0.10130155039421912 0.09726420966062488 0.0 -0.005847805049218557 0.0 0.0
-0.12315208969623992 0.11873844286552382 0.0 -0.006647305258298153 0.0 0.0
-0.14589760040719657 0.1410892035992939 0.0 -0.007181910130308999 0.0 0.0
-0.16849650578698072 0.16327944418685725 0.0 -0.007077861687121434 0.0 0.0
-0.1893986172871271 0.18376546397671412 0.0 -0.0059443416067288535 0.0 0.0
-0.20637258654874024 0.20026657400388626 0.0 -0.005092605638991388 0.0 0.0
-0.2155035881136157 0.20865068199726977 0.0 -0.014650439362985379 0.0 0.0
-0.20715092388062 0.19838537175343696 0.0 -0.058602613647928514 0.0 0.0
-0.20715092388060308 0.19838537175341742 0.0 0.058602613647943724 0.0 0.0
-0.21550358811356535 0.2086506819972218 0.0 0.014650439363008805 0.0 0.0
-0.20637258654865412 0.200266574003801 0.0 0.005092605639004377 0.0 0.0
-0.18939861728701482 0.18376546397660132 0.0 0.005944341606724579 0.0 0.0
-0.16849650578686123 0.16327944418673646 0.0 0.007077861687117104 0.0 0.0
-0.1458976004070724 0.14108920359916555 0.0 0.0071819101303096655 0.0 0.0
-0.12315208969611255 0.11873844286540125 0.0 0.006647305258294045 0.0 0.0
-0.10130155039409526 0.09726420966050231 0.0 0.005847805049209676 0.0 0.0
-0.08097378782847155 0.07729864895353611 0.0 0.004960971378494272 0.0 0.0
-0.06255009925530045 0.059230005934792995 0.0 0.004049143439257441 0.0 0.0
-0.04632675837098898 0.043354867142129105 0.0 0.0031101267601283955 0.0 0.0
-0.03258503689150486 0.02994686659468515 0.0 0.00219618798501664 0.0 0.0
-0.02155916094637373 0.01922511333974608 0.0 0.0014263402672897163 0.0 0.0
-0.013311364913067275 0.011247914825833982 0.0 0.0008782853169760907 0.0 0.0
-0.007623711847601083 0.005820878272571051 0.0 0.0005342478596597755 0.0 0.0
-0.004073732606672082 0.002592857384473346 0.0 0.0003661492875577932 0.0 0.0
-0.0022227512673624935 0.001096898790695966 0.0 0.00033272631328890023 0.0 0.0
-0.0013138384364649487 0.0005551934371778033 0.0 0.00035318106445764164 0.0 0.0
-0.0005696702772520577 0.0002505197121100977 0.0 0.00029824716712101296 0.0 0.0
-0.00011178340712435404 5.9305952029705886e-05 0.0 4.201523021046816e-05 0.0 0.0
SCALARS Statev float 8
LOOKUP_TABLE default
0.0 0.014551587111989794 0.011305213380476764 -0.011685215358436358 0.000380001977959594 -0.006532064017024409 0.0 0.0
0.0 0.00101217402686853 0.0007368146976860495 -0.0006390296838651068 -9.778501382094267e-05 0.0006396121440901239 0.0 0.0
0.0 3.9562306935090386e-05 1.090080926606133e-06 -6.788256614044061e-07 -4.112552652017564e-07 2.479066451207922e-08 0.0 0.0
0.0 0.0004044308905230474 0.00031502308824653383 -0.0002505347498661676 -6.448833838036633e-05 -4.524149069661172e-05 0.0 0.0
0.0 0.002023316060977088 0.0016846891232892988 -0.0014205252800562835 -0.00026416384323301476 -0.00018118808767668827 0.0 0.0
0.0 0.005412532744972732 0.0048687671814644585 -0.004365741962254854 -0.0005030252192096037 -0.00039916251694492697 0.0 0.0
0.0 0.011568028528965824 0.010245033118013105 -0.009592201682128989 -0.000652831435884112 -0.0007350822678239211 0.0 0.0
0.0 0.02074569440930136 0.018214194468944844 -0.017453843912537986 -0.0007603505564068526 -0.0012580644909646287 0.0 0.0
0.0 0.033165420653059365 0.02897165559418164 -0.028105523206387015 -0.0008661323877946108 -0.0020011281447255423 0.0 0.0
0.0 0.04877083615531389 0.042465879491189226 -0.04148641265444342 -0.0009794668367458204 -0.002902038390557501 0.0 0.0
0.0 0.06733851959421273 0.05848251176492244 -0.057385016605076916 -0.001097495159845509 -0.003845129217202666 0.0 0.0
0.0 0.08827329636272706 0.07675413904847786 -0.07553649750974027 -0.001217641538737563 -0.004766194528997046 0.0 0.0
0.0 0.11155704295755572 0.09699788634836506 -0.09565865450528675 -0.0013392318430782407 -0.005666687931788893 0.0 0.0
0.0 0.13680962262812404 0.11888709887250092 -0.11742330032430773 -0.0014637985481931017 -0.006530776256232682 0.0 0.0
0.0 0.1634058956093763 0.1419360166117031 -0.14034358167511812 -0.0015924349365848702 -0.007305477682284565 0.0 0.0
0.0 0.19049148324423473 0.16537554737819596 -0.16365187119627825 -0.0017236761819177852 -0.007831095546264108 0.0 0.0
0.0 0.21676520614421485 0.18810865598441795 -0.1862555603280603 -0.001853095656357732 -0.007851089811628562 0.0 0.0
0.0 0.24060922547352387 0.2087502279584989 -0.20677354689517313 -0.001976681063325685 -0.0071678089204888894 0.0 0.0
0.0 0.2601293991095782 0.22565137529459905 -0.223555415634431 -0.0020959596601680354 -0.006260134186511138 0.0 0.0
0.0 0.27216976119777664 0.23620464114537099 -0.2339120546524858 -0.0022925864928851876 -0.0077792955125315375 0.0 0.0
0.0 0.2721697611977596 0.2362046411453559 -0.23391205465247095 -0.002292586492884807 0.00777929551254392 0.0 0.0
0.0 0.2601293991095226 0.22565137529455043 -0.22355541563438294 -0.0020959596601673527 0.00626013418653579 0.0 0.0
0.0 0.2406092254734313 0.20875022795841824 -0.20677354689509375 -0.0019766810633244447 0.007167808920504848 0.0 0.0
0.0 0.216765206144097 0.18810865598431514 -0.18625556032795904 -0.0018530956563561195 0.007851089811636895 0.0 0.0
0.0 0.19049148324410606 0.16537554737808388 -0.16365187119616798 -0.0017236761819160087 0.007831095546253239 0.0 0.0
0.0 0.16340589560924337 0.1419360166115873 -0.14034358167500377 -0.0015924349365834983 0.007305477682282326 0.0 0.0
0.0 0.1368096226279896 0.11888709887238408 -0.11742330032419196 -0.00146379854819208 0.006530776256234496 0.0 0.0
0.0 0.11155704295742039 0.09699788634824764 -0.09565865450517011 -0.0013392318430775233 0.005666687931788079 0.0 0.0
0.0 0.08827329636259909 0.07675413904836696 -0.07553649750962992 -0.0012176415387369713 0.0047661945289882305 0.0 0.0
0.0 0.0673385195941001 0.05848251176482447 -0.05738501660497966 -0.0010974951598447936 0.003845129217195929 0.0 0.0
0.0 0.04877083615522051 0.04246587949110834 -0.04148641265436328 -0.0009794668367450713 0.002902038390545177 0.0 0.0
0.0 0.03316542065298743 0.028971655594118604 -0.02810552320632473 -0.0008661323877938928 0.0020011281447225044 0.0 0.0
0.0 0.02074569440924901 0.018214194468898513 -0.017453843912492356 -0.000760350556406154 0.001258064490960428 0.0 0.0
0.0 0.011568028528931216 0.010245033117982374 -0.009592201682098695 -0.0006528314358836733 0.0007350822678217203 0.0 0.0
0.0 0.005412532744953847 0.004868767181447241 -0.0043657419622384125 -0.0005030252192088288 0.00039916251694321447 0.0 0.0
0.0 0.002023316060967194 0.001684689123281004 -0.0014205252800488578 -0.0002641638432321462 0.00018118808767574477 0.0 0.0
0.0 0.0004044308905203881 0.00031502308824505915 -0.00025053474986492423 -6.448833838013478e-05 4.524149069618284e-05 0.0 0.0
0.0 3.956230693473685e-05 1.090080926836501e-06 -6.78825661582587e-07 -4.112552652538691e-07 -2.4790664493825104e-08 0.0 0.0
0.0 0.0010121740268650324 0.0007368146976839574 -0.0006390296838632211 -9.778501382073713e-05 -0.0006396121440877553 0.0 0.0
0.0 0.014551587111971038 0.011305213380464457 -0.011685215358423024 0.0003800019779585644 0.006532064016992434 0.0 0.0
0.0 0.01094238328590299 0.007964737940852099 -0.008461800679895886 0.0004970627390437831 -0.007642617879543528 0.0 0.0
0.0 2.4268259901259353e-05 1.9171011630953057e-05 -1.7344409150752655e-05 -1.8266024802004045e-06 1.2606623674315677e-05 0.0 0.0
0.0 8.86937300705806e-07 2.95920499038422e-07 -2.2399277977014602e-07 -7.192771926827829e-08 -1.0357435871748783e-07 0.0 0.0
0.0 0.00017580677334899552 0.00013316145323776464 -0.00010497640263948876 -2.8185050598276107e-05 -4.5988485345918614e-05 0.0 0.0
0.0 0.0013907912893171442 0.0011210367902994623 -0.000930445305024974 -0.00019059148527448882 -0.0002971908335711953 0.0 0.0
0.0 0.004226189075734855 0.003804570299309952 -0.003361227027153419 -0.0004433432721565329 -0.0008248875533751977 0.0 0.0
0.0 0.00968743994093979 0.008570143070972381 -0.007950092822973228 -0.0006200502479991515 -0.0016723517629627818 0.0 0.0
0.0 0.01798015712096012 0.01575300436642883 -0.015015628375456738 -0.0007373759909720919 -0.0029162774812199884 0.0 0.0
0.0 0.02922526844247221 0.02547656908541763 -0.024633993551075983 -0.0008425755343416304 -0.004582753107245055 0.0 0.0
0.0 0.04330262456476983 0.03763698396391012 -0.03668649538110347 -0.0009504885828066406 -0.006524699429229541 0.0 0.0
0.0 0.05995267747040052 0.052010913652138765 -0.050950699459926724 -0.0010602141922120374 -0.008522571744871919 0.0 0.0
0.0 0.07895050485849503 0.06836735382888029 -0.06719668186399172 -0.0011706719648885272 -0.010447169600518464 0.0 0.0
0.0 0.09975605944979173 0.08649386902756287 -0.08521123120076242 -0.0012826378268004771 -0.01234331977489273 0.0 0.0
0.0 0.12235649296899213 0.10612024237563535 -0.1047233633179304 -0.0013968790577049668 -0.014203745064881632 0.0 0.0
0.0 0.14626721355531594 0.1268310727125039 -0.12531736073804176 -0.0015137119744620714 -0.015885422776326496 0.0 0.0
0.0 0.1706599685482677 0.14797734038305466 -0.14634488759287137 -0.0016324527901833042 -0.01707828847097224 0.0 0.0
0.0 0.19444941701535548 0.16861121850333105 -0.1668595267866979 -0.0017516917166331288 -0.017305615480508334 0.0 0.0
0.0 0.21616473313554344 0.18744553139823758 -0.185573853190172 -0.00187167820806553 -0.016295039610344425 0.0 0.0
0.0 0.23370023401895412 0.202668454585242 -0.20065998509183963 -0.0020084694934022315 -0.014465480020894702 0.0 0.0
0.0 0.2442191236446191 0.21182708231957473 -0.20971376137364967 -0.0021133209459251174 -0.01164469067535865 0.0 0.0
0.0 0.24421912364460147 0.2118270823195592 -0.20971376137363398 -0.002113320945925356 0.011644690675386862 0.0 0.0
0.0 0.23370023401890605 0.20266845458519922 -0.20065998509179767 -0.002008469493401528 0.014465480020939305 0.0 0.0
0.0 0.21616473313545992 0.18744553139816472 -0.18557385319009903 -0.0018716782080655868 0.016295039610377485 0.0 0.0
0.0 0.19444941701524632 0.1686112185032363 -0.16685952678660318 -0.0017516917166329473 0.017305615480524263 0.0 0.0
0.0 0.17065996854814758 0.14797734038295107 -0.14634488759276787 -0.001632452790183154 0.017078288470960823 0.0 0.0
0.0 0.14626721355519023 0.12683107271239527 -0.12531736073793306 -0.0015137119744621833 0.015885422776320653 0.0 0.0
0.0 0.12235649296886456 0.1061202423755252 -0.1047233633178199 -0.0013968790577052659 0.014203745064877184 0.0 0.0
0.0 0.09975605944966733 0.08649386902745536 -0.08521123120065488 -0.0012826378268004828 0.012343319774885453 0.0 0.0
0.0 0.07895050485838082 0.06836735382878131 -0.06719668186389333 -0.0011706719648879567 0.01044716960050403 0.0 0.0
0.0 0.05995267747029555 0.05201091365204792 -0.05095069945983621 -0.0010602141922116943 0.008522571744858879 0.0 0.0
0.0 0.04330262456468322 0.03763698396383518 -0.03668649538102883 -0.0009504885828063191 0.00652469942921125 0.0 0.0
0.0 0.02922526844240724 0.025476569085360688 -0.02463399355101935 -0.0008425755343413257 0.004582753107237098 0.0 0.0
0.0 0.0179801571209129 0.015753004366387446 -0.015015628375415856 -0.0007373759909715911 0.002916277481211867 0.0 0.0
0.0 0.009687439940907734 0.008570143070943876 -0.007950092822945483 -0.0006200502479983875 0.0016723517629572428 0.0 0.0
0.0 0.004226189075716155 0.003804570299293571 -0.0033612270271379096 -0.00044334327215566174 0.0008248875533712241 0.0 0.0
0.0 0.001390791289309315 0.0011210367902933056 -0.0009304453050196094 -0.00019059148527369657 0.00029719083356961174 0.0 0.0
0.0 0.00017580677334717306 0.00013316145323673988 -0.00010497640263864742 -2.818505059809236e-05 4.598848534551908e-05 0.0 0.0
0.0 8.869373005703445e-07 2.9592049912030475e-07 -2.239927798299475e-07 -7.192771929035972e-08 1.0357435873289597e-07 0.0 0.0
0.0 2.426825990098401e-05 1.91710116310479e-05 -1.7344409150797646e-05 -1.8266024802502516e-06 -1.2606623674235768e-05 0.0 0.0
0.0 0.010942383285880215 0.007964737940837161 -0.008461800679880269 0.0004970627390431001 0.007642617879516093 0.0 0.0
0.0 0.008379688186898415 0.0057827681576269295 -0.006315894257946791 0.0005331261003198591 -0.006772991003989674 0.0 0.0
0.0 0.0 0.0 0.0 0.0 0.0 0.0 0.0
0.0 0.0 0.0 0.0 0.0 0.0 0.0 0.0
0.0 4.481962593736607e-05 3.7290404130637325e-05 -2.9221692137335073e-05 -8.068711993302272e-06 -2.3769919085628e-05 0.0 0.0
0.0 0.0008261590433658103 0.0006735852738127793 -0.0005505033657204627 -0.00012308190809231622 -0.00031543062893957046 0.0 0.0
0.0 0.003302192641170555 0.0027984337343525097 -0.0024311098144902434 -0.0003673239198622668 -0.001045672306656588 0.0 0.0
0.0 0.007873038401586187 0.006927312714244239 -0.006349631479798352 -0.0005776812344458889 -0.0022901836280755307 0.0 0.0
0.0 0.015239115479114496 0.013279460757324082 -0.012571424495254413 -0.0007080362620696624 -0.004120640061786271 0.0 0.0
0.0 0.02530229980598271 0.021927270294925458 -0.021112979416301223 -0.0008142908786242287 -0.00651131380728824 0.0 0.0
0.0 0.037858736653999976 0.03272668235266106 -0.031810000458997824 -0.0009166818936632228 -0.009253628297552925 0.0 0.0
0.0 0.05266233556171879 0.045448414318718995 -0.04443012601728655 -0.0010182883014324515 -0.012071354974164745 0.0 0.0
0.0 0.06938608283144514 0.059890015373360944 -0.05877033284518628 -0.001119682528174656 -0.01479937077443703 0.0 0.0
0.0 0.08800503673526962 0.0758813837839431 -0.07465955921203356 -0.001221824571909517 -0.01746620640250744 0.0 0.0
0.0 0.10795153583245395 0.09322263542305026 -0.09189736740072615 -0.0013252680223240576 -0.020096886627140407 0.0 0.0
0.0 0.1291207850641866 0.11158610849491915 -0.1101561875912441 -0.0014299209036750405 -0.022517048352053183 0.0 0.0
0.0 0.15089048733998525 0.13044935651015832 -0.12891303719476652 -0.001536319315391749 -0.02429607329699713 0.0 0.0
0.0 0.17224955839762934 0.14901009311977093 -0.1473640365276507 -0.0016460565921201822 -0.024865197896503436 0.0 0.0
0.0 0.1917924997307559 0.16605347054561165 -0.16428924664425348 -0.0017642239013581618 -0.023802403851681662 0.0 0.0
0.0 0.20753799041161355 0.1798387931165841 -0.1779589964479072 -0.001879796668676824 -0.020624247894861312 0.0 0.0
0.0 0.21723220105899052 0.1884132793304346 -0.186449092508081 -0.0019641868223534676 -0.014300885710009531 0.0 0.0
0.0 0.21723220105897784 0.1884132793304222 -0.18644909250806987 -0.0019641868223522637 0.014300885710054601 0.0 0.0
0.0 0.20753799041156792 0.1798387931165422 -0.1779589964478664 -0.0018797966686759271 0.020624247894925733 0.0 0.0
0.0 0.1917924997306826 0.16605347054554623 -0.16428924664418862 -0.0017642239013574282 0.023802403851727813 0.0 0.0
0.0 0.17224955839753875 0.1490100931196912 -0.14736403652757185 -0.0016460565921194653 0.024865197896524076 0.0 0.0
0.0 0.15089048733988525 0.13044935651007133 -0.12891303719468117 -0.001536319315390144 0.024296073296985753 0.0 0.0
0.0 0.12912078506407995 0.11158610849482609 -0.1101561875911526 -0.0014299209036735205 0.022517048352046626 0.0 0.0
0.0 0.1079515358323477 0.09322263542295749 -0.09189736740063467 -0.0013252680223228132 0.020096886627136025 0.0 0.0
0.0 0.0880050367351654 0.07588138378385242 -0.0746595592119439 -0.0012218245719084813 0.01746620640249912 0.0 0.0
0.0 0.06938608283134581 0.05989001537327518 -0.058770332845101456 -0.0011196825281737529 0.01479937077441814 0.0 0.0
0.0 0.05266233556162838 0.04544841431864052 -0.04443012601720878 -0.0010182883014317047 0.012071354974146015 0.0 0.0
0.0 0.037858736653925674 0.03272668235259684 -0.03181000045893413 -0.0009166818936626968 0.009253628297530656 0.0 0.0
0.0 0.025302299805925094 0.021927270294875227 -0.02111297941625168 -0.0008142908786235384 0.006511313807275491 0.0 0.0
0.0 0.015239115479071232 0.013279460757286395 -0.012571424495217278 -0.0007080362620691063 0.0041206400617741406 0.0 0.0
0.0 0.007873038401558487 0.0069273127142199615 -0.006349631479774702 -0.0005776812344452566 0.0022901836280677865 0.0 0.0
0.0 0.0033021926411563596 0.002798433734340694 -0.00243110981447939 -0.000367323919861304 0.0010456723066518904 0.0 0.0
0.0 0.0008261590433597671 0.0006735852738080994 -0.0005505033657164939 -0.0001230819080916056 0.0003154306289373546 0.0 0.0
0.0 4.481962593664551e-05 3.729040413053192e-05 -2.9221692137239432e-05 -8.068711993292518e-06 2.3769919085512878e-05 0.0 0.0
0.0 0.0 0.0 0.0 0.0 0.0 0.0 0.0
0.0 0.0 0.0 0.0 0.0 0.0 0.0 0.0
0.0 0.008379688186877638 0.0057827681576126996 -0.006315894257931973 0.0005331261003192664 0.006772991003966423 0.0 0.0
0.0 0.006347456697371163 0.0042085323256614605 -0.004719161439605201 0.000510629113943741 -0.005407529587674028 0.0 0.0
0.0 0.0 0.0 0.0 0.0 0.0 0.0 0.0
0.0 0.0 0.0 0.0 0.0 0.0 0.0 0.0
0.0 8.424250776529282e-06 4.941548688875635e-06 -3.8605745522993134e-06 -1.0809741365763078e-06 -5.0745254661454924e-06 0.0 0.0
0.0 0.0004334427331683199 0.00034514028021129456 -0.0002788143849603973 -6.63258952508972e-05 -0.00025775293435339027 0.0 0.0
0.0 0.0023290346045134005 0.0019203643812146921 -0.001637840257532012 -0.00028252412368267986 -0.001087058438722797 0.0 0.0
0.0 0.006193516821627264 0.005339139375783926 -0.0048215691931192284 -0.000517570182664699 -0.0025953285746917985 0.0 0.0
0.0 0.012555158540996793 0.010826776901771046 -0.01015566730918255 -0.0006711095925884972 -0.0048643015131281464 0.0 0.0
0.0 0.021400124170587773 0.018364603965046605 -0.017584767164749285 -0.0007798368002973257 -0.007778497113195507 0.0 0.0
0.0 0.032416972645877 0.027779891725812588 -0.026902371673834406 -0.0008775200519781465 -0.011094977209465376 0.0 0.0
0.0 0.04534555939333994 0.038837607922609124 -0.037866113099494884 -0.0009714948231142312 -0.01449423130055732 0.0 0.0
0.0 0.05995342056394891 0.05135608902335311 -0.05029205314277774 -0.0010640358805753725 -0.017806767995643926 0.0 0.0
0.0 0.07607213277854709 0.06520843281261446 -0.06405218108966532 -0.0011562517229491258 -0.02106043674304471 0.0 0.0
0.0 0.09357542092912123 0.08025019457380972 -0.07900115639250539 -0.0012490381813043423 -0.024232560120256774 0.0 0.0
0.0 0.11214243419116035 0.096245196772127 -0.09490369380990074 -0.0013415029622262258 -0.02715952682644294 0.0 0.0
0.0 0.13108923478313217 0.11280467514478415 -0.11136934080948693 -0.0014353343352971693 -0.029447268639699497 0.0 0.0
0.0 0.15002533957551134 0.12927118225960582 -0.1277359227723488 -0.0015352594872569394 -0.03045384657412039 0.0 0.0
0.0 0.16750991010351518 0.14457948295509654 -0.1429376748322583 -0.001641808122838227 -0.029412536762100448 0.0 0.0
0.0 0.18179383877602495 0.15722489450249522 -0.15548072697919663 -0.0017441675232985076 -0.02520043776999717 0.0 0.0
0.0 0.19102101541488078 0.1655604449648139 -0.16374035297781286 -0.0018200919870011137 -0.016428345972854645 0.0 0.0
0.0 0.19102101541486513 0.16556044496479977 -0.16374035297779746 -0.001820091987002418 0.016428345972909934 0.0 0.0
0.0 0.1817938387759833 0.15722489450245636 -0.15548072697915705 -0.0017441675232992113 0.025200437770072047 0.0 0.0
0.0 0.16750991010345492 0.14457948295504092 -0.14293767483220376 -0.0016418081228370789 0.029412536762153968 0.0 0.0
0.0 0.15002533957543726 0.1292711822595396 -0.12773592277228374 -0.001535259487255802 0.030453846574144232 0.0 0.0
0.0 0.13108923478304135 0.1128046751447058 -0.11136934080940865 -0.0014353343352971363 0.029447268639688454 0.0 0.0
0.0 0.11214243419106229 0.0962451967720423 -0.09490369380981635 -0.0013415029622259223 0.02715952682643171 0.0 0.0
0.0 0.09357542092902804 0.0802501945737286 -0.07900115639242511 -0.0012490381813034784 0.02423256012024749 0.0 0.0
0.0 0.07607213277845618 0.06520843281253544 -0.06405218108958706 -0.0011562517229483638 0.021060436743032138 0.0 0.0
0.0 0.05995342056386432 0.051356089023280115 -0.05029205314270531 -0.0010640358805748197 0.017806767995621916 0.0 0.0
0.0 0.04534555939326537 0.03883760792254479 -0.03786611309943139 -0.0009714948231133781 0.014494231300533832 0.0 0.0
0.0 0.03241697264580986 0.027779891725755554 -0.026902371673777858 -0.0008775200519776806 0.01109497720943744 0.0 0.0
0.0 0.02140012417053596 0.01836460396500205 -0.017584767164705136 -0.0007798368002969136 0.007778497113178273 0.0 0.0
0.0 0.01255515854095892 0.010826776901738465 -0.01015566730915048 -0.0006711095925879762 0.004864301513113928 0.0 0.0
0.0 0.006193516821602331 0.0053391393757627435 -0.004821569193098886 -0.0005175701826638598 0.0025953285746819045 0.0 0.0
0.0 0.0023290346045023117 0.0019203643812062384 -0.0016378402575244074 -0.00028252412368183076 0.0010870584387177257 0.0 0.0
0.0 0.0004334427331649999 0.0003451402802093138 -0.00027881438495874934 -6.632589525056449e-05 0.00025775293435196817 0.0 0.0
0.0 8.424250776072606e-06 4.941548688995371e-06 -3.860574552390319e-06 -1.0809741366050417e-06 5.074525466255829e-06 0.0 0.0
0.0 0.0 0.0 0.0 0.0 0.0 0.0 0.0
0.0 0.0 0.0 0.0 0.0 0.0 0.0 0.0
0.0 0.006347456697353094 0.00420853232564943 -0.0047191614395925684 0.0005106291139431367 0.0054075295876557196 0.0 0.0
0.0 0.004668970815938828 0.002989053160321758 -0.0034415500025319354 0.00045249684221017886 -0.004057345448249394 0.0 0.0
0.0 0.0 0.0 0.0 0.0 0.0 0.0 0.0
0.0 0.0 0.0 0.0 0.0 0.0 0.0 0.0
0.0 1.2839467422548496e-06 6.937096468131424e-07 -5.313637046730717e-07 -1.6234594214007e-07 -1.0220460763446666e-06 0.0 0.0
0.0 0.0001954887470287502 0.00014312194131264154 -0.00011495013117072 -2.817181014192153e-05 -0.00016443362273103006 0.0 0.0
0.0 0.001499224919805767 0.001193909749198119 -0.000999716133163226 -0.00019419361603489294 -0.0009933122528377036 0.0 0.0
0.0 0.004717563598677358 0.003854981350898529 -0.0034170566007553083 -0.00043792475014322024 -0.0025999027470595794 0.0 0.0
0.0 0.010000933952125892 0.008424546894304446 -0.007803703269638323 -0.0006208436246661217 -0.005106263918382604 0.0 0.0
0.0 0.01754414050413377 0.014828805880339163 -0.01409091460355991 -0.0007378912767792619 -0.00837820099854754 0.0 0.0
0.0 0.027013366886940227 0.022839922095761384 -0.022007812806952687 -0.0008321092888086937 -0.012046979854223075 0.0 0.0
0.0 0.038071796617375274 0.03222214266169494 -0.03130300529970808 -0.0009191373619868867 -0.015802274043936287 0.0 0.0
0.0 0.050494727851513176 0.04281072482433747 -0.041807929468107366 -0.0010027953562300723 -0.019468406234855507 0.0 0.0
0.0 0.06425373820698387 0.05451666567354228 -0.053431460195572746 -0.0010852054779695425 -0.02307406409896152 0.0 0.0
0.0 0.07904455390541251 0.06725521851011079 -0.06608807021943999 -0.0011671482906708073 -0.02660598353115863 0.0 0.0
0.0 0.0948970185053709 0.08086551452632205 -0.07961732643607762 -0.0012481880902444496 -0.02986237589228139 0.0 0.0
0.0 0.1114558678128866 0.09507109726582763 -0.09374136481579942 -0.0013297324500281607 -0.03248157869603552 0.0 0.0
0.0 0.12777803293932655 0.10939381966963524 -0.10797811293329841 -0.00141570673633679 -0.0338909688784879 0.0 0.0
0.0 0.14320207498261928 0.12301431600785974 -0.12150562494275417 -0.0015086910651055272 -0.03308253385214853 0.0 0.0
0.0 0.1562472164306481 0.13470458067007804 -0.1331036432225194 -0.0016009374475585772 -0.028418703556360614 0.0 0.0
0.0 0.1652580043596025 0.1430221430698115 -0.14134726028183228 -0.0016748827879791229 -0.018187103938485934 0.0 0.0
0.0 0.16525800435958937 0.14302214306979805 -0.14134726028181893 -0.0016748827879790131 0.018187103938547174 0.0 0.0
0.0 0.15624721643061362 0.13470458067004393 -0.13310364322248525 -0.001600937447558696 0.028418703556438434 0.0 0.0
0.0 0.14320207498256887 0.12301431600781182 -0.12150562494270667 -0.0015086910651051528 0.03308253385220742 0.0 0.0
0.0 0.12777803293926215 0.10939381966957674 -0.10797811293324067 -0.0014157067363360619 0.03389096887851484 0.0 0.0
0.0 0.11145586781281344 0.09507109726576363 -0.09374136481573682 -0.001329732450026831 0.032481578696026484 0.0 0.0
0.0 0.09489701850529284 0.0808655145262544 -0.07961732643601035 -0.001248188090244093 0.029862375892270036 0.0 0.0
0.0 0.07904455390533431 0.06725521851004282 -0.06608807021937262 -0.0011671482906702184 0.0266059835311478 0.0 0.0
0.0 0.06425373820690844 0.05451666567347668 -0.053431460195507416 -0.0010852054779692216 0.023074064098949375 0.0 0.0
0.0 0.050494727851441226 0.04281072482427573 -0.0418079294680462 -0.0010027953562295245 0.019468406234832668 0.0 0.0
0.0 0.03807179661731053 0.03222214266163982 -0.0313030052996537 -0.0009191373619861176 0.01580227404390995 0.0 0.0
0.0 0.027013366886884552 0.022839922095714955 -0.022007812806907265 -0.0008321092888077037 0.012046979854192993 0.0 0.0
0.0 0.01754414050408867 0.01482880588030097 -0.01409091460352218 -0.0007378912767787855 0.00837820099852758 0.0 0.0
0.0 0.010000933952095937 0.00842454689427955 -0.007803703269614079 -0.0006208436246654692 0.0051062639183674634 0.0 0.0
0.0 0.004717563598658251 0.0038549813508829585 -0.003417056600740754 -0.0004379247501422051 0.0025999027470504166 0.0 0.0
0.0 0.0014992249197964005 0.001193909749191131 -0.000999716133157148 -0.00019419361603398262 0.000993312252831929 0.0 0.0
0.0 0.00019548874702614934 0.0001431219413112094 -0.00011495013116956268 -2.8171810141646678e-05 0.00016443362272947916 0.0 0.0
0.0 1.2839467421682712e-06 6.93709646992746e-07 -5.313637048131094e-07 -1.6234594217963416e-07 1.0220460766289556e-06 0.0 0.0
0.0 0.0 0.0 0.0 0.0 0.0 0.0 0.0
0.0 0.0 0.0 0.0 0.0 0.0 0.0 0.0
0.0 0.004668970815924184 0.0029890531603122 -0.0034415500025216234 0.00045249684220942176 0.004057345448235692 0.0 0.0
0.0 0.0032616209567398495 0.002027319531967997 -0.002398739499875711 0.0003714199679077135 -0.0028869336474119075 0.0 0.0
0.0 0.0 0.0 0.0 0.0 0.0 0.0 0.0
0.0 0.0 0.0 0.0 0.0 0.0 0.0 0.0
0.0 1.2459832782016668e-06 -8.711175530045244e-08 6.722946238267231e-08 1.9882292917777628e-08 2.0432140011233723e-07 0.0 0.0
0.0 8.678474403709317e-05 5.110435316400828e-05 -4.093592582934517e-05 -1.0168427334663117e-05 -8.82377686432691e-05 0.0 0.0
0.0 0.0008550958843479224 0.0006464689272218885 -0.0005328537303090726 -0.00011361519691281582 -0.0007947249876408593 0.0 0.0
0.0 0.00323283898047751 0.0025509519934388287 -0.0022127096510980793 -0.0003382423423407495 -0.002400951866148132 0.0 0.0
0.0 0.007572686526450281 0.006133630376448279 -0.005585816912237557 -0.0005478134642107207 -0.004917477991828411 0.0 0.0
0.0 0.013811041946093491 0.011359064662283461 -0.010674992026531485 -0.0006840726357519749 -0.008281879382212023 0.0 0.0
0.0 0.02167049458673903 0.017951827866222684 -0.01717311000803772 -0.000778717858184962 -0.012099627653374757 0.0 0.0
0.0 0.030825890435264916 0.025648693978559164 -0.0247892717168538 -0.0008594222617053642 -0.01598061973075781 0.0 0.0
0.0 0.04108806433151066 0.034302289259674185 -0.03336743564269041 -0.0009348536169837896 -0.019774634061364506 0.0 0.0
0.0 0.05237720036287449 0.04385847984585199 -0.04285113539749303 -0.001007344448358946 -0.023513635688999036 0.0 0.0
0.0 0.06465345552885181 0.05428480274489549 -0.05320637637545122 -0.0010784263694442779 -0.027169962116787544 0.0 0.0
0.0 0.07782929178656116 0.06549484977728004 -0.06434588162593059 -0.0011489681513494943 -0.030568115629775242 0.0 0.0
0.0 0.09141155317271613 0.07730449244289223 -0.07608647436757204 -0.0012180180753201591 -0.03338058090877992 0.0 0.0
0.0 0.10544360244111697 0.08940830163799288 -0.08812035151449371 -0.0012879501234991538 -0.03508435250822647 0.0 0.0
0.0 0.11896373200908246 0.10130926359944038 -0.09994472500425149 -0.0013645385951888643 -0.03469295594340117 0.0 0.0
0.0 0.1307157060330656 0.11212600823399069 -0.1106786185841346 -0.001447389649856003 -0.03026829820705446 0.0 0.0
0.0 0.13968231020236274 0.12058207906955676 -0.11905821264726982 -0.0015238664222868418 -0.01961751732203473 0.0 0.0
0.0 0.1396823102023533 0.12058207906954613 -0.11905821264725909 -0.0015238664222870146 0.019617517322096573 0.0 0.0
0.0 0.13071570603303695 0.11212600823396063 -0.110678618584104 -0.0014473896498566465 0.030268298207135363 0.0 0.0
0.0 0.11896373200903904 0.10130926359939726 -0.09994472500420881 -0.0013645385951884758 0.03469295594346003 0.0 0.0
0.0 0.10544360244106289 0.08940830163794271 -0.0881203515144444 -0.0012879501234982552 0.03508435250825137 0.0 0.0
0.0 0.0914115531726511 0.07730449244283631 -0.07608647436751634 -0.0012180180753199705 0.03338058090876768 0.0 0.0
0.0 0.07782929178649758 0.0654948497772247 -0.06434588162587652 -0.0011489681513481703 0.030568115629761857 0.0 0.0
0.0 0.06465345552878628 0.054284802744838524 -0.053206376375394854 -0.0010784263694436848 0.027169962116774096 0.0 0.0
0.0 0.05237720036281256 0.043858479845798125 -0.04285113539744016 -0.0010073444483579658 0.02351363568898581 0.0 0.0
0.0 0.04108806433145293 0.034302289259625085 -0.03336743564264227 -0.000934853616982804 0.01977463406134243 0.0 0.0
0.0 0.03082589043520992 0.025648693978513416 -0.02478927171680831 -0.0008594222617051091 0.015980619730730897 0.0 0.0
0.0 0.021670494586690868 0.017951827866183608 -0.017173110007998933 -0.0007787178581846692 0.01209962765334352 0.0 0.0
0.0 0.013811041946056719 0.011359064662252883 -0.010674992026501615 -0.0006840726357512635 0.00828187938219154 0.0 0.0
0.0 0.0075726865264235475 0.006133630376426691 -0.005585816912216726 -0.0005478134642099655 0.004917477991812348 0.0 0.0
0.0 0.0032328389804614707 0.0025509519934263365 -0.0022127096510865924 -0.00033824234233974427 0.002400951866137685 0.0 0.0
0.0 0.0008550958843406959 0.0006464689272170308 -0.0005328537303049239 -0.00011361519691210675 0.000794724987635081 0.0 0.0
0.0 8.678474403588983e-05 5.1104353163849785e-05 -4.093592582918911e-05 -1.0168427334660684e-05 8.823776864282513e-05 0.0 0.0
0.0 1.245983277765114e-06 -8.711175526903953e-08 6.722946235833695e-08 1.9882292910690027e-08 -2.0432140003799813e-07 0.0 0.0
0.0 0.0 0.0 0.0 0.0 0.0 0.0 0.0
0.0 0.0 0.0 0.0 0.0 0.0 0.0 0.0
0.0 0.0032616209567286956 0.0020273195319609966 -0.0023987394998679474 0.0003714199679069505 0.0028869336474019137 0.0 0.0
0.0 0.0021431136249604067 0.0012741743826597122 -0.0015504635501584203 0.0002762891674987079 -0.0019170877667266744 0.0 0.0
0.0 6.808126749334917e-07 -1.0371231226033877e-08 1.1382208934150606e-08 -1.010977708115995e-09 1.3495275768488005e-07 0.0 0.0
0.0 3.7869285625906513e-07 -1.0853022555903305e-08 7.76318668522007e-09 3.0898358706842675e-09 7.416418593090768e-08 0.0 0.0
0.0 1.343535810957597e-06 -6.745450613659108e-08 5.1836617700734505e-08 1.5617888435866596e-08 2.5068220686766373e-07 0.0 0.0
0.0 4.6426231585075605e-05 2.2851225347141014e-05 -1.81861409346287e-05 -4.665084412512322e-06 -5.884921299241764e-05 0.0 0.0
0.0 0.00046826712558798675 0.0002860892783526151 -0.00023304369777887916 -5.304558057373609e-05 -0.0005294496208254792 0.0 0.0
0.0 0.0020182444291688955 0.0014634980514745281 -0.0012398493737394655 -0.00022364867773506337 -0.0019785042753276082 0.0 0.0
0.0 0.00526627368208927 0.004036631586385109 -0.0035919718391821554 -0.0004446597472029499 -0.004360842828522466 0.0 0.0
0.0 0.01019106534591023 0.008024094743038328 -0.00741656940250238 -0.0006075253405359417 -0.007536512738421768 0.0 0.0
0.0 0.016420492684686268 0.013164985444605582 -0.01245278783422525 -0.0007121976103803313 -0.011221078728650666 0.0 0.0
0.0 0.023660846816461127 0.01916674358045981 -0.018377599816013186 -0.000789143764446621 -0.01501709244901653 0.0 0.0
0.0 0.03173545243407694 0.025885187596443888 -0.025027724796414047 -0.0008574628000298393 -0.01871312523406964 0.0 0.0
0.0 0.04061671467145941 0.033290176691037766 -0.032369846219334926 -0.0009203304717028306 -0.02234478852989674 0.0 0.0
0.0 0.050243952197756625 0.04139794091124044 -0.04041758464373754 -0.000980356267502883 -0.025918941039058452 0.0 0.0
0.0 0.06064633547513321 0.050190667101428235 -0.04915097033012761 -0.0010396967713006307 -0.029264693534438793 0.0 0.0
0.0 0.07162237561013729 0.059566726963799915 -0.05846793505018071 -0.0010987919136192395 -0.032055780853958084 0.0 0.0
0.0 0.08288959216839731 0.06936559830275256 -0.06821336638006324 -0.001152231922689282 -0.03392376309763475 0.0 0.0
0.0 0.09427670441637374 0.07942657502453457 -0.07821876829686138 -0.0012078067276732065 -0.03411919246736041 0.0 0.0
0.0 0.10517446234419033 0.08932289114974007 -0.08804435404013544 -0.0012785371096045825 -0.030633437435239365 0.0 0.0
0.0 0.11428724969229972 0.09801491906783542 -0.09665346494056849 -0.0013614541272669097 -0.020690429674519215 0.0 0.0
0.0 0.11428724969229252 0.09801491906782608 -0.09665346494055949 -0.0013614541272665736 0.020690429674578195 0.0 0.0
0.0 0.10517446234417285 0.08932289114971782 -0.08804435404011396 -0.0012785371096039558 0.030633437435318482 0.0 0.0
0.0 0.09427670441634158 0.07942657502450028 -0.07821876829682664 -0.001207806727673562 0.03411919246742133 0.0 0.0
0.0 0.08288959216835512 0.06936559830271244 -0.06821336638002293 -0.0011522319226895412 0.03392376309765831 0.0 0.0
0.0 0.07162237561008486 0.05956672696375515 -0.05846793505013572 -0.0010987919136194297 0.032055780853946086 0.0 0.0
0.0 0.060646335475076474 0.05019066710138019 -0.04915097033007936 -0.0010396967713008221 0.02926469353442106 0.0 0.0
0.0 0.05024395219770756 0.0413979409111981 -0.040417584643695804 -0.000980356267502282 0.02591894103904599 0.0 0.0
0.0 0.04061671467141791 0.033290176691001705 -0.03236984621929956 -0.0009203304717021224 0.022344788529886313 0.0 0.0
0.0 0.03173545243403138 0.025885187596405863 -0.025027724796376653 -0.000857462800029222 0.018713125234047792 0.0 0.0
0.0 0.0236608468164187 0.019166743580425263 -0.0183775998159793 -0.0007891437644459429 0.01501709244899107 0.0 0.0
0.0 0.016420492684645707 0.013164985444574229 -0.012452787834194283 -0.0007121976103799391 0.011221078728618937 0.0 0.0
0.0 0.010191065345881031 0.008024094743015537 -0.0074165694024799006 -0.0006075253405356387 0.007536512738402437 0.0 0.0
0.0 0.0052662736820704385 0.004036631586370657 -0.003591971839168543 -0.0004446597472021121 0.004360842828509108 0.0 0.0
0.0 0.0020182444291584377 0.0014634980514670608 -0.0012398493737327718 -0.00022364867773428784 0.0019785042753187832 0.0 0.0
0.0 0.00046826712558503745 0.00028608927835125253 -0.0002330436977778044 -5.304558057344795e-05 0.0005294496208231257 0.0 0.0
0.0 4.642623158374745e-05 2.285122534706805e-05 -1.8186140934563707e-05 -4.665084412504353e-06 5.8849212992217774e-05 0.0 0.0
0.0 1.343535810551308e-06 -6.74545061154224e-08 5.1836617684484416e-08 1.561788843093987e-08 -2.5068220678900275e-07 0.0 0.0
0.0 3.786928558295237e-07 -1.0853022544114866e-08 7.763186676628835e-09 3.0898358674860974e-09 -7.416418584570931e-08 0.0 0.0
0.0 6.808126741997652e-07 -1.0371231215047161e-08 1.1382208922371451e-08 -1.0109777073237724e-09 -1.34952757536912e-07 0.0 0.0
0.0 0.0021431136249512785 0.0012741743826543968 -0.0015504635501523477 0.0002762891674979505 0.001917087766718849 0.0 0.0
0.0 0.0012676800625323519 0.0007082154936419945 -0.0008889956993878029 0.000180780205745808 -0.0011397010384154868 0.0 0.0
0.0 1.6593411341083085e-06 6.222980614798112e-08 -6.178923295896603e-08 -4.405731890164403e-10 -1.4319597523651107e-06 0.0 0.0
0.0 6.769367203669943e-07 -5.619678955351736e-10 7.428960401993962e-10 -1.8092814466369258e-10 4.916154047007843e-08 0.0 0.0
0.0 1.9498821845986375e-06 2.412970426847886e-07 -1.8843705936762705e-07 -5.285998331715937e-08 -1.6308954216904368e-06 0.0 0.0
0.0 3.698328540020379e-05 1.2977233641213237e-05 -1.0273807697017573e-05 -2.7034259441956785e-06 -5.243323866066031e-05 0.0 0.0
0.0 0.0002507614478338954 0.00011298913759306643 -9.127177167713e-05 -2.1717365915936398e-05 -0.00033791287000943667 0.0 0.0
0.0 0.001121275562780042 0.0006650889622724236 -0.0005508392620615917 -0.00011424970021083167 -0.0014033282047603286 0.0 0.0
0.0 0.003231305990512249 0.0022162044524661946 -0.0019128221361766897 -0.0003033823162895048 -0.003451958857967165 0.0 0.0
0.0 0.0067623002613707165 0.004920794708127722 -0.004430780515795395 -0.0004900141923323242 -0.006224447850241584 0.0 0.0
0.0 0.011259299637429483 0.00856032668092416 -0.007943279599127676 -0.000617047081796485 -0.00946119397907718 0.0 0.0
0.0 0.016660310973939985 0.012842438779821844 -0.01214295125785303 -0.0006994875219688119 -0.012869345106048407 0.0 0.0
0.0 0.022511340903023584 0.01762524851677968 -0.016861816848824297 -0.0007634316679553868 -0.016235522395178236 0.0 0.0
0.0 0.028935857442907623 0.02288361629647343 -0.022065389947921954 -0.000818226348551485 -0.019546784691823662 0.0 0.0
0.0 0.035973713939412004 0.02866478155981302 -0.027797342667547707 -0.000867438892265307 -0.022802263913327955 0.0 0.0
0.0 0.0436791290810368 0.035019576179588965 -0.03410470900749273 -0.0009148671720962072 -0.025901501222187137 0.0 0.0
0.0 0.051867869029935246 0.04193858601416804 -0.04097491335201482 -0.0009636726621532115 -0.028533299451172608 0.0 0.0
0.0 0.0605331916309504 0.04935797276777487 -0.04835026425593742 -0.0010077085118374279 -0.030319859690831123 0.0 0.0
0.0 0.06956531241037872 0.05736549830634971 -0.05632749283380764 -0.0010380054725420403 -0.031024417077814857 0.0 0.0
0.0 0.07906168320701287 0.06612489496656003 -0.06503965274658693 -0.0010852422199730536 -0.02916784742909092 0.0 0.0
0.0 0.08826688992025503 0.07506583485765228 -0.07388939471776636 -0.0011764401398859754 -0.021292208315764546 0.0 0.0
0.0 0.08826688992025299 0.07506583485764716 -0.07388939471776083 -0.0011764401398863464 0.02129220831581641 0.0 0.0
0.0 0.07906168320700027 0.06612489496654171 -0.06503965274656806 -0.0010852422199736484 0.029167847429163625 0.0 0.0
0.0 0.06956531241035782 0.057365498306324494 -0.05632749283378257 -0.0010380054725419208 0.03102441707786836 0.0 0.0
0.0 0.0605331916309205 0.0493579727677453 -0.04835026425590888 -0.0010077085118364538 0.030319859690849535 0.0 0.0
0.0 0.05186786902990084 0.04193858601413879 -0.040974913351987455 -0.0009636726621513165 0.02853329945115917 0.0 0.0
0.0 0.04367912908099978 0.03501957617955797 -0.03410470900746266 -0.000914867172095333 0.025901501222172316 0.0 0.0
0.0 0.03597371393937708 0.028664781559783758 -0.02779734266751863 -0.0008674388922651408 0.022802263913315773 0.0 0.0
0.0 0.02893585744287573 0.0228836162964463 -0.022065389947894823 -0.0008182263485514862 0.019546784691814187 0.0 0.0
0.0 0.02251134090298927 0.017625248516752123 -0.016861816848797 -0.0007634316679551107 0.016235522395158263 0.0 0.0
0.0 0.016660310973910047 0.01284243877979854 -0.012142951257830405 -0.0006994875219681246 0.012869345106026475 0.0 0.0
0.0 0.01125929963740183 0.008560326680903878 -0.007943279599108212 -0.0006170470817956628 0.00946119397905291 0.0 0.0
0.0 0.0067623002613471424 0.0049207947081101825 -0.00443078051577862 -0.0004900141923315633 0.006224447850222506 0.0 0.0
0.0 0.0032313059904984206 0.0022162044524562056 -0.0019128221361676113 -0.0003033823162885943 0.0034519588579546728 0.0 0.0
0.0 0.00112127556277227 0.0006650889622677412 -0.0005508392620576032 -0.00011424970021013766 0.001403328204752223 0.0 0.0
0.0 0.000250761447830931 0.00011298913759210229 -9.127177167631768e-05 -2.171736591578458e-05 0.00033791287000651204 0.0 0.0
0.0 3.6983285399372255e-05 1.2977233641194636e-05 -1.0273807696999877e-05 -2.7034259441947493e-06 5.243323866059888e-05 0.0 0.0
0.0 1.949882184498478e-06 2.412970428134737e-07 -1.8843705946531645e-07 -5.2859983348160203e-08 1.6308954225141994e-06 0.0 0.0
0.0 6.769367201148282e-07 -5.619678399042218e-10 7.428960031714059e-10 -1.8092816326622727e-10 -4.916153976772502e-08 0.0 0.0
0.0 1.6593411335394695e-06 6.222980618600492e-08 -6.178923300366333e-08 -4.405731823416453e-10 1.4319597533067983e-06 0.0 0.0
0.0 0.0012676800625253475 0.000708215493638427 -0.0008889956993836226 0.00018078020574519588 0.001139701038409653 0.0 0.0
0.0 0.0005910393259417835 0.0003240938603130373 -0.0004230204998998642 9.892663958682723e-05 -0.0005652275246493586 0.0 0.0
0.0 3.2662726894872865e-06 3.4958297946827265e-08 -4.8376880206546005e-08 1.3418582259718928e-08 -1.6287363775467895e-06 0.0 0.0
0.0 1.9346561812637623e-06 2.5205363156053624e-08 -1.0738998146360347e-08 -1.4466365009693616e-08 -1.7751294051036165e-06 0.0 0.0
0.0 4.923011611972258e-06 4.0309751132016255e-07 -2.8435584245064275e-07 -1.1874166886951649e-07 -5.774806641600616e-06 0.0 0.0
0.0 3.967977946337773e-05 7.838355173271482e-06 -6.120266083141168e-06 -1.7180890901303166e-06 -5.9978742555819256e-05 0.0 0.0
0.0 0.00017737353502888124 4.6776101838940114e-05 -3.7665744008563437e-05 -9.110357830376685e-06 -0.00025933356021383197 0.0 0.0
0.0 0.0005855191448588548 0.00021771664770852485 -0.00017718064437639963 -4.0536003332125015e-05 -0.0008671615715700795 0.0 0.0
0.0 0.0016223733093653511 0.0008266927866192042 -0.0006882850554031235 -0.00013840773121608056 -0.0022658338693316194 0.0 0.0
0.0 0.003649524572996432 0.002201240085107057 -0.0018999077728529836 -0.0003013323122540731 -0.00438867718016526 0.0 0.0
0.0 0.006461204560767601 0.004274084685410309 -0.003822315375899481 -0.00045176930951082927 -0.006904532406149345 0.0 0.0
0.0 0.009794359203840133 0.006804072271853546 -0.006246940277516249 -0.0005571319943372943 -0.009616221852143732 0.0 0.0
0.0 0.013572172013371325 0.009632791534028686 -0.009005481347905903 -0.0006273101861227742 -0.012378788689587842 0.0 0.0
0.0 0.017651129108641805 0.012748380067338208 -0.01206780947287806 -0.0006805705944601531 -0.015165895393080525 0.0 0.0
0.0 0.022128392199253277 0.016204817160048995 -0.015482359935301448 -0.0007224572247475387 -0.01792103268911032 0.0 0.0
0.0 0.027070307085190377 0.02009414513873717 -0.019336076125441963 -0.0007580690132952016 -0.02059337726822684 0.0 0.0
0.0 0.03251882844214682 0.02451688706745593 -0.023723219256986547 -0.0007936678104693887 -0.0229948231442825 0.0 0.0
0.0 0.038483163921389285 0.029531471619752246 -0.028697888465644576 -0.0008335831541076967 -0.02469001241795178 0.0 0.0
0.0 0.04508473175967427 0.035292638999445916 -0.034435865835222075 -0.000856773164223844 -0.025496694345264984 0.0 0.0
0.0 0.052997078859150934 0.04242049883870686 -0.041565872464140105 -0.000854626374566754 -0.025318791648188656 0.0 0.0
0.0 0.06216910362258169 0.05139407300170624 -0.05044970108305786 -0.0009443719186483873 -0.02108231054643381 0.0 0.0
0.0 0.06216910362258468 0.05139407300170461 -0.050449701083056075 -0.0009443719186485429 0.021082310546478696 0.0 0.0
0.0 0.05299707885915127 0.04242049883869881 -0.04156587246413158 -0.0008546263745672034 0.025318791648256032 0.0 0.0
0.0 0.04508473175965804 0.03529263899942489 -0.03443586583520048 -0.0008567731642244092 0.025496694345310253 0.0 0.0
0.0 0.03848316392135874 0.02953147161972485 -0.028697888465615932 -0.0008335831541089229 0.0246900124179568 0.0 0.0
0.0 0.03251882844211462 0.024516887067431763 -0.023723219256961414 -0.0007936678104703461 0.022994823144263245 0.0 0.0
0.0 0.027070307085161574 0.020094145138715557 -0.019336076125420005 -0.0007580690132955427 0.020593377268208864 0.0 0.0
0.0 0.02212839219923303 0.016204817160032872 -0.015482359935285343 -0.0007224572247475275 0.017921032689101758 0.0 0.0
0.0 0.01765112910862454 0.012748380067324044 -0.012067809472864136 -0.0006805705944599146 0.015165895393074075 0.0 0.0
0.0 0.01357217201335284 0.009632791534015629 -0.00900548134789324 -0.0006273101861223877 0.012378788689572595 0.0 0.0
0.0 0.009794359203821506 0.006804072271841095 -0.006246940277504076 -0.0005571319943370199 0.009616221852125809 0.0 0.0
0.0 0.006461204560750228 0.004274084685399793 -0.003822315375889432 -0.0004517693095103583 0.006904532406129869 0.0 0.0
0.0 0.003649524572986432 0.0022012400851004334 -0.0018999077728470192 -0.0003013323122534135 0.0043886771801550754 0.0 0.0
0.0 0.001622373309359779 0.000826692786615961 -0.0006882850554004267 -0.00013840773121553436 0.0022658338693254945 0.0 0.0
0.0 0.0005855191448551739 0.00021771664770712666 -0.0001771806443752609 -4.053600333186569e-05 0.0008671615715656826 0.0 0.0
0.0 0.0001773735350273495 4.677610183890505e-05 -3.7665744008525733e-05 -9.110357830379306e-06 0.0002593335602132246 0.0 0.0
0.0 3.9679779462666514e-05 7.838355173282532e-06 -6.1202660831484065e-06 -1.7180890901341289e-06 5.997874255588107e-05 0.0 0.0
0.0 4.923011611814951e-06 4.030975113653008e-07 -2.8435584248147194e-07 -1.1874166888382626e-07 5.774806642280613e-06 0.0 0.0
0.0 1.9346561811755167e-06 2.5205363164221156e-08 -1.07389981486434e-08 -1.4466365015577286e-08 1.7751294058211027e-06 0.0 0.0
0.0 3.2662726892714e-06 3.4958297973322145e-08 -4.837688024830973e-08 1.3418582274987231e-08 1.6287363785388483e-06 0.0 0.0
0.0 0.0005910393259372795 0.0003240938603110309 -0.00042302049989736984 9.892663958633857e-05 0.0005652275246459802 0.0 0.0
0.0 0.00019058465735952818 9.981899738940343e-05 -0.0001365308288289532 3.671183143954977e-05 -0.00018612598256069403 0.0 0.0
0.0 4.311777902799206e-06 -7.190355632064598e-09 -2.2671096063562106e-08 2.986145169562793e-08 -2.925244540066292e-06 0.0 0.0
0.0 5.825178298478369e-06 -2.3242052865093076e-07 2.2239072166095163e-07 1.002980698997969e-08 -6.910720760810606e-06 0.0 0.0
0.0 9.895550778915236e-06 -1.5649916241722004e-07 2.240519027160919e-07 -6.755274029887111e-08 -1.5123445764487882e-05 0.0 0.0
0.0 4.638752391264753e-05 1.8355551905966675e-06 -1.2603748943194187e-06 -5.751802962772553e-07 -6.810152031911434e-05 0.0 0.0
0.0 0.00016530945285434228 1.36814976603478e-05 -1.0866684242043456e-05 -2.8148134183043244e-06 -0.0002583128604686096 0.0 0.0
0.0 0.00039790569670421005 4.819829203238314e-05 -3.902889109606568e-05 -9.16940093631747e-06 -0.0006491050476699912 0.0 0.0
0.0 0.0008166189550455865 0.0001326127308390177 -0.0001079917484093529 -2.4620982429664623e-05 -0.001293259884441381 0.0 0.0
0.0 0.0014959693451567387 0.00035019791074351517 -0.00028568841543500696 -6.450949530850791e-05 -0.002408743701343809 0.0 0.0
0.0 0.002634315261266991 0.0007927123508850251 -0.0006487405027838302 -0.0001439718481011948 -0.003992709970037757 0.0 0.0
0.0 0.004024835831749651 0.0014627048764597592 -0.0012188563521995984 -0.0002438485242601605 -0.005950651522864809 0.0 0.0
0.0 0.005781155192816422 0.002297871147623441 -0.0019678241435704914 -0.000330047004052949 -0.008107376149268711 0.0 0.0
0.0 0.007757617257967523 0.003264145874239206 -0.0028658993386519887 -0.00039824653558721525 -0.010404268698487863 0.0 0.0
0.0 0.00999202282253179 0.0043885263178833865 -0.003939458116042385 -0.000449068201841 -0.012822591787662057 0.0 0.0
0.0 0.012500077620331134 0.005780460965794024 -0.005294413918982125 -0.0004860470468118959 -0.01532730067522199 0.0 0.0
0.0 0.01541706861677747 0.007634754676264356 -0.007118993634339439 -0.0005157610419249145 -0.017750370452768453 0.0 0.0
0.0 0.018771689356896725 0.010209673814460406 -0.009660028612862406 -0.0005496452015979961 -0.019644110411530805 0.0 0.0
0.0 0.02264713477381668 0.01371927970294516 -0.013123705081526698 -0.0005955746214184571 -0.020362846064861276 0.0 0.0
0.0 0.0279586870773713 0.01866662405501167 -0.018080446778160092 -0.0005861772768515738 -0.020361079059556555 0.0 0.0
0.0 0.036218093623850055 0.026720417756928027 -0.02614418747997762 -0.0005762302769504067 -0.01992650827564862 0.0 0.0
0.0 0.03621809362385043 0.026720417756924755 -0.026144187479974268 -0.000576230276950489 0.019926508275680994 0.0 0.0
0.0 0.02795868707737504 0.01866662405500755 -0.018080446778156154 -0.0005861772768514035 0.020361079059604485 0.0 0.0
0.0 0.022647134773817502 0.013719279702940712 -0.013123705081522602 -0.0005955746214181014 0.020362846064889903 0.0 0.0
0.0 0.01877168935688618 0.010209673814452036 -0.009660028612854803 -0.0005496452015972294 0.019644110411533244 0.0 0.0
0.0 0.015417068616765171 0.007634754676259665 -0.007118993634335243 -0.0005157610419244214 0.01775037045275222 0.0 0.0
0.0 0.012500077620319858 0.0057804609657890705 -0.005294413918977395 -0.0004860470468116755 0.015327300675209321 0.0 0.0
0.0 0.009992022822520477 0.004388526317878555 -0.003939458116037659 -0.0004490682018408968 0.012822591787650378 0.0 0.0
0.0 0.007757617257958458 0.003264145874235528 -0.0028658993386484147 -0.00039824653558711355 0.010404268698478977 0.0 0.0
0.0 0.005781155192804213 0.002297871147619278 -0.0019678241435665844 -0.0003300470040526925 0.008107376149252775 0.0 0.0
0.0 0.0040248358317405515 0.0014627048764573477 -0.0012188563521975963 -0.00024384852425975184 0.005950651522851353 0.0 0.0
0.0 0.0026343152612586236 0.000792712350882811 -0.0006487405027821477 -0.0001439718481006635 0.003992709970026166 0.0 0.0
0.0 0.0014959693451524615 0.00035019791074227343 -0.0002856884154340307 -6.450949530824266e-05 0.00240874370133698 0.0 0.0
0.0 0.0008166189550428853 0.00013261273083845613 -0.0001079917484088863 -2.4620982429569708e-05 0.001293259884436948 0.0 0.0
0.0 0.0003979056967018887 4.819829203222547e-05 -3.9028891095912526e-05 -9.169400936312914e-06 0.0006491050476676205 0.0 0.0
0.0 0.00016530945285276336 1.3681497660329653e-05 -1.0866684242016456e-05 -2.814813418313198e-06 0.0002583128604676698 0.0 0.0
0.0 4.638752391145651e-05 1.8355551905990648e-06 -1.2603748943209222e-06 -5.751802962781471e-07 6.810152031910188e-05 0.0 0.0
0.0 9.895550778707354e-06 -1.5649916242854857e-07 2.2405190272897595e-07 -6.755274030042736e-08 1.5123445765135652e-05 0.0 0.0
0.0 5.825178297724276e-06 -2.3242052867855708e-07 2.22390721685185e-07 1.0029806993371394e-08 6.91072076145e-06 0.0 0.0
0.0 4.311777902432215e-06 -7.190355635802085e-09 -2.2671096072449715e-08 2.9861451708254335e-08 2.9252445407429798e-06 0.0 0.0
0.0 0.00019058465735730993 9.98189973886664e-05 -0.00013653082882798476 3.671183143931833e-05 0.00018612598255939578 0.0 0.0
0.0 2.6570757761547504e-05 1.2577762787131122e-05 -1.8029220012403837e-05 5.451457225272704e-06 -2.567150655105403e-05 0.0 0.0
0.0 3.980230457966217e-06 -1.0477746032466866e-07 4.078972150080628e-08 6.398773882386725e-08 -3.1865827404045003e-06 0.0 0.0
0.0 8.611638755278498e-06 -9.309022352929647e-07 7.958729036429328e-07 1.3502933165003253e-07 -1.1543611483991285e-05 0.0 0.0
0.0 1.6218688421101977e-05 -1.9846322314897893e-06 1.7535841753807158e-06 2.3104805610907475e-07 -2.4226298624753037e-05 0.0 0.0
0.0 5.485084771626944e-05 -5.5439799253428464e-06 4.781372584461909e-06 7.626073408809454e-07 -7.985267161093696e-05 0.0 0.0
0.0 0.00017510566796743676 -1.781467014499853e-05 1.468720459407751e-05 3.1274655509210085e-06 -0.0002662150717128622 0.0 0.0
0.0 0.00040461430723316857 -5.1472577377058495e-05 4.186495560150596e-05 9.607621775552518e-06 -0.0006602376110555194 0.0 0.0
0.0 0.0008208618031150883 -0.0001343753582120413 0.00010941346818037411 2.496189003166722e-05 -0.0013011559668250586 0.0 0.0
0.0 0.0014961086528832107 -0.0003505322440132721 0.00028598967495518414 6.454256905808788e-05 -0.0024111686593809444 0.0 0.0
0.0 0.002633959593517735 -0.0007925738052289468 0.0006487481072508677 0.00014382569797807935 -0.003992960089370965 0.0 0.0
0.0 0.004043083092865026 -0.0014705334757176797 0.0012275517887953297 0.00024298168692234992 -0.005957158887065381 0.0 0.0
0.0 0.005817150216980119 -0.0023403156926562387 0.0020102057849742216 0.00033010990768201547 -0.008126575290674377 0.0 0.0
0.0 0.007824036484784844 -0.0033481575406817867 0.002946592670413932 0.00040156487026785326 -0.010420162963043706 0.0 0.0
0.0 0.010010888457876527 -0.004427284210450259 0.0039659774868094945 0.00046130672364075927 -0.01281263374678982 0.0 0.0
0.0 0.012196593542940724 -0.005426948022549737 0.00491404958692699 0.0005128984356227461 -0.015290634717349748 0.0 0.0
0.0 0.014203928271962433 -0.006067731848172225 0.00550958823755902 0.0005581436106132001 -0.01780457843636435 0.0 0.0
0.0 0.01568147152854741 -0.005955904672823171 0.005358646738250496 0.0005972579345726749 -0.020340188279278887 0.0 0.0
0.0 0.016520215984999018 -0.00481948613307317 0.004200414715478211 0.0006190714175949532 -0.02299492735489932 0.0 0.0
0.0 0.016726763660722444 -0.002651801277786029 0.0020561218392772295 0.0005956794385087963 -0.025378861652335865 0.0 0.0
0.0 0.016683471869636986 0.0037278542016160226 -0.00378347103058288 5.561682896685537e-05 -0.024674516849895082 0.0 0.0
0.0 0.01668347186963978 0.003727854201614226 -0.0037834710305816007 5.561682896737671e-05 0.024674516849908467 0.0 0.0
0.0 0.016726763660726302 -0.0026518012777868877 0.002056121839277615 0.0005956794385092697 0.025378861652349906 0.0 0.0
0.0 0.01652021598499408 -0.004819486133071088 0.004200414715476582 0.0006190714175945029 0.022994927354900677 0.0 0.0
0.0 0.01568147152853555 -0.005955904672818167 0.005358646738246219 0.0005972579345719467 0.020340188279266348 0.0 0.0
0.0 0.014203928271941443 -0.0060677318481601955 0.005509588237547186 0.000558143610613001 0.01780457843634379 0.0 0.0
0.0 0.012196593542924959 -0.005426948022541013 0.004914049586918482 0.0005128984356225265 0.015290634717334054 0.0 0.0
0.0 0.010010888457857733 -0.004427284210438918 0.0039659774867984825 0.00046130672364043444 0.012812633746774245 0.0 0.0
0.0 0.007824036484769686 -0.003348157540671929 0.002946592670404405 0.0004015648702675204 0.010420162963032057 0.0 0.0
0.0 0.005817150216965154 -0.0023403156926487777 0.0020102057849671474 0.00033010990768162933 0.008126575290658048 0.0 0.0
0.0 0.004043083092851537 -0.0014705334757104175 0.0012275517887889624 0.00024298168692145534 0.005957158887050694 0.0 0.0
0.0 0.0026339595935064913 -0.000792573805224669 0.0006487481072473599 0.0001438256979773085 0.003992960089358408 0.0 0.0
0.0 0.001496108652877855 -0.0003505322440110791 0.00028598967495333574 6.454256905774332e-05 0.002411168659373521 0.0 0.0
0.0 0.0008208618031122243 -0.00013437535821129285 0.00010941346817976825 2.496189003152459e-05 0.0013011559668209393 0.0 0.0
0.0 0.0004046143072309831 -5.147257737685269e-05 4.1864955601383496e-05 9.60762177546919e-06 0.0006602376110532281 0.0 0.0
0.0 0.00017510566796599816 -1.7814670144979337e-05 1.4687204594067674e-05 3.1274655509116877e-06 0.0002662150717123113 0.0 0.0
0.0 5.485084771489895e-05 -5.543979925334386e-06 4.781372584456476e-06 7.626073408779017e-07 7.985267161090062e-05 0.0 0.0
0.0 1.6218688420502722e-05 -1.9846322314971416e-06 1.7535841753863507e-06 2.3104805611079025e-07 2.4226298624787304e-05 0.0 0.0
0.0 8.611638754763239e-06 -9.309022353712303e-07 7.958729037085843e-07 1.3502933166264702e-07 1.1543611484862973e-05 0.0 0.0
0.0 3.980230457733328e-06 -1.0477746034579305e-07 4.0789721487591985e-08 6.398773885820595e-08 3.1865827415252855e-06 0.0 0.0
0.0 2.6570757761028334e-05 1.2577762787329824e-05 -1.8029220012677686e-05 5.451457225347859e-06 2.567150655161535e-05 0.0 0.0
0.0 1.2794705618513804e-06 -7.325646252627723e-08 1.1123042410747284e-07 -3.797396158117645e-08 1.788907911065407e-07 0.0 0.0
0.0 2.7557418733513466e-06 -1.6968170481883687e-07 9.127635530167935e-08 7.840534951715603e-08 -3.2368655212821078e-06 0.0 0.0
0.0 9.939731665612336e-06 -1.6588494075707692e-06 1.379702720980283e-06 2.791466865904828e-07 -1.315209893850871e-05 0.0 0.0
0.0 2.1675113415177313e-05 -4.05703286882777e-06 3.453065258940602e-06 6.039676098871796e-07 -2.69813224375119e-05 0.0 0.0
0.0 6.2985243965735e-05 -1.5306017720424448e-05 1.2752380721864389e-05 2.55363699856006e-06 -9.198792494126918e-05 0.0 0.0
0.0 0.00020010985788024004 -5.705762314999379e-05 4.6453444884931375e-05 1.060417826506243e-05 -0.00029483712894803194 0.0 0.0
0.0 0.0006107663723685027 -0.00022811856737747034 0.0001859679216701411 4.215064570732922e-05 -0.0008951827950239952 0.0 0.0
0.0 0.0016342203470332314 -0.0008325999973827648 0.0006934335813778872 0.0001391664160048773 -0.002281379946895401 0.0 0.0
0.0 0.0036491017921316056 -0.0022009712764309197 0.0018998130500552431 0.000301158226375676 -0.004391885593661024 0.0 0.0
0.0 0.006462012692750609 -0.004275072414331795 0.003823805041644219 0.00045126737268757453 -0.006906061862566577 0.0 0.0
0.0 0.009809998226415179 -0.006818806620717592 0.006262840244778139 0.0005559663759394516 -0.009620953045104139 0.0 0.0
0.0 0.013615694219332425 -0.009680296602823595 0.009054225538101686 0.000626071064721907 -0.012372163581846235 0.0 0.0
0.0 0.01771632885062476 -0.01283016408345362 0.01214770839623111 0.000682455687222506 -0.01511833517193263 0.0 0.0
0.0 0.02211593962715674 -0.01621864841507764 0.015484589616679499 0.0007340587983981421 -0.01783835206018608 0.0 0.0
0.0 0.02664277480830203 -0.01967096027263161 0.018885659658195532 0.0007853006144360644 -0.02059588545236584 0.0 0.0
0.0 0.030935120316937133 -0.0228368861791396 0.02200240531956375 0.0008344808595758405 -0.02344906111671693 0.0 0.0
0.0 0.03454101414466403 -0.025219582395963523 0.024345491656962745 0.0008740907390007809 -0.026489554160877525 0.0 0.0
0.0 0.03680420695061038 -0.026251740141545545 0.025352111918806267 0.0008996282227392968 -0.029614821291505312 0.0 0.0
0.0 0.036005617312421016 -0.024790229160370693 0.023798064630479954 0.0009921645298907231 -0.03103230484231028 0.0 0.0
0.0 0.029213772022612373 -0.0175939226882073 0.016480680827779894 0.0011132418604273906 -0.028739669479492413 0.0 0.0
0.0 0.029213772022622552 -0.017593922688207114 0.01648068082777933 0.0011132418604277818 0.028739669479531195 0.0 0.0
0.0 0.03600561731242871 -0.0247902291603666 0.02379806463047586 0.0009921645298907188 0.031032304842360938 0.0 0.0
0.0 0.03680420695059779 -0.02625174014152768 0.025352111918788077 0.0008996282227395913 0.029614821291536468 0.0 0.0
0.0 0.03454101414463642 -0.02521958239594011 0.024345491656938778 0.0008740907390013374 0.026489554160871814 0.0 0.0
0.0 0.0309351203169062 -0.02283688617911546 0.022002405319539762 0.0008344808595756993 0.023449061116696493 0.0 0.0
0.0 0.02664277480827403 -0.019670960272609554 0.018885659658174035 0.0007853006144355238 0.020595885452348958 0.0 0.0
0.0 0.022115939627129863 -0.016218648415056748 0.015484589616659142 0.0007340587983976016 0.017838352060169475 0.0 0.0
0.0 0.017716328850598866 -0.012830164083431708 0.01214770839620995 0.0006824556872217451 0.01511833517192155 0.0 0.0
0.0 0.013615694219301287 -0.009680296602799815 0.009054225538078664 0.0006260710647211507 0.012372163581824466 0.0 0.0
0.0 0.009809998226384377 -0.006818806620695729 0.006262840244756985 0.0005559663759387427 0.009620953045077398 0.0 0.0
0.0 0.006462012692725156 -0.004275072414314408 0.003823805041627739 0.00045126737268666873 0.006906061862542178 0.0 0.0
0.0 0.0036491017921171476 -0.0022009712764206523 0.0018998130500458323 0.0003011582263748213 0.004391885593647393 0.0 0.0
0.0 0.0016342203470267108 -0.0008325999973787016 0.0006934335813744647 0.00013916641600423703 0.002281379946888099 0.0 0.0
0.0 0.0006107663723647326 -0.00022811856737609253 0.00018596792166909233 4.2150645707000246e-05 0.0008951827950198529 0.0 0.0
0.0 0.0002001098578775842 -5.705762314952692e-05 4.64534448845544e-05 1.0604178264972549e-05 0.00029483712894570844 0.0 0.0
0.0 6.298524396472895e-05 -1.530601772042059e-05 1.2752380721862605e-05 2.553636998557975e-06 9.198792494123512e-05 0.0 0.0
0.0 2.1675113414426574e-05 -4.057032868881957e-06 3.453065258986833e-06 6.03967609895124e-07 2.6981322437854816e-05 0.0 0.0
0.0 9.93973166495299e-06 -1.6588494076600702e-06 1.3797027210527478e-06 2.7914668660732125e-07 1.3152098939187052e-05 0.0 0.0
0.0 2.7557418730817487e-06 -1.6968170485251117e-07 9.127635530579347e-08 7.840534954671807e-08 3.2368655220731366e-06 0.0 0.0
0.0 1.2794705614589102e-06 -7.325646250320453e-08 1.1123042407310628e-07 -3.797396156990146e-08 -1.7889079104850708e-07 0.0 0.0
0.0 0.0 0.0 0.0 0.0 0.0 0.0 0.0
0.0 1.6610398609583399e-06 5.926428108120217e-09 2.8968235616873757e-09 -8.823251669810242e-09 1.1689243085624574e-07 0.0 0.0
0.0 8.928998702103752e-06 -1.5482147838305825e-06 1.2732506856950544e-06 2.749640981355237e-07 -8.946414298516928e-06 0.0 0.0
0.0 2.457037676515706e-05 -5.974759241892822e-06 4.964574808605864e-06 1.0101844332869685e-06 -2.6226637115443444e-05 0.0 0.0
0.0 7.497761816336563e-05 -2.740030729886804e-05 2.2476929575320076e-05 4.923377723547962e-06 -9.992887904955202e-05 0.0 0.0
0.0 0.00030110277284780835 -0.00013956792816651186 0.00011360659200495344 2.596133616155838e-05 -0.00040329908887635466 0.0 0.0
0.0 0.0011564983881348974 -0.0006827491246232343 0.0005664566893049143 0.00011629243531832006 -0.0014401274141458563 0.0 0.0
0.0 0.003237384993690112 -0.002217694047112587 0.0019145745314168377 0.0003031195156957498 -0.003463543808318986 0.0 0.0
0.0 0.006758398217504903 -0.004918456017238411 0.004428729093193801 0.0004897269240446099 -0.0062234332261661765 0.0 0.0
0.0 0.011262586752693562 -0.008563676241731056 0.007947047391931463 0.0006166288497995913 -0.009462944665488537 0.0 0.0
0.0 0.016675472204501815 -0.01285762193859027 0.01215913877877761 0.0006984831598126673 -0.012867369142193913 0.0 0.0
0.0 0.022536371205916277 -0.01766041238662186 0.016898251282266564 0.0007621611043552952 -0.016188862079759454 0.0 0.0
0.0 0.028950698863628516 -0.02293427476473688 0.022114865809756752 0.0008194089549801384 -0.019393030576352166 0.0 0.0
0.0 0.03589264537896707 -0.02864142072560971 0.02776442420977051 0.0008769965158391888 -0.022570972638542387 0.0 0.0
0.0 0.04323901537973923 -0.03460245416420955 0.03366427374156139 0.000938180422648127 -0.02594052048511133 0.0 0.0
0.0 0.0504938884129068 -0.040413250728199956 0.0394135028047933 0.0009997479234066214 -0.029792320513810956 0.0 0.0
0.0 0.05708206040470391 -0.045435965847224376 0.04437854273737315 0.0010574231098512132 -0.034271216267738165 0.0 0.0
0.0 0.06148079502107761 -0.04865757516563972 0.04752748242327352 0.0011300927423661656 -0.038562369583196525 0.0 0.0
0.0 0.061591491845345056 -0.04815482033457615 0.04692953986855499 0.0012252804660211312 -0.04065230075043639 0.0 0.0
0.0 0.05190941697041559 -0.039842137180515956 0.03837504269557655 0.0014670944849393933 -0.03650145526223195 0.0 0.0
0.0 0.05190941697042008 -0.03984213718051063 0.038375042695570724 0.0014670944849398977 0.03650145526227956 0.0 0.0
0.0 0.06159149184534465 -0.04815482033456441 0.04692953986854283 0.0012252804660215799 0.040652300750499026 0.0 0.0
0.0 0.06148079502106238 -0.048657575165618076 0.047527482423252165 0.001130092742365872 0.038562369583239164 0.0 0.0
0.0 0.05708206040466793 -0.04543596584719069 0.04437854273734029 0.0010574231098504111 0.03427121626774346 0.0 0.0
0.0 0.050493888412861496 -0.04041325072816196 0.039413502804755855 0.0009997479234061175 0.029792320513792235 0.0 0.0
0.0 0.04323901537969489 -0.034602454164172805 0.03366427374152503 0.0009381804226477736 0.025940520485091483 0.0 0.0
0.0 0.03589264537892327 -0.02864142072557361 0.027764424209734843 0.0008769965158387551 0.022570972638521265 0.0 0.0
0.0 0.028950698863586914 -0.02293427476470174 0.022114865809721967 0.0008194089549797634 0.019393030576335905 0.0 0.0
0.0 0.02253637120587315 -0.017660412386586822 0.016898251282231838 0.000762161104354987 0.01618886207973532 0.0 0.0
0.0 0.01667547220445985 -0.012857621938557719 0.012159138778745218 0.0006984831598124985 0.01286736914216359 0.0 0.0
0.0 0.011262586752656165 -0.008563676241702923 0.007947047391903595 0.0006166288497993292 0.009462944665459166 0.0 0.0
0.0 0.006758398217479398 -0.004918456017218549 0.004428729093174704 0.0004897269240438424 0.006223433226147657 0.0 0.0
0.0 0.003237384993674449 -0.0022176940471011343 0.0019145745314064475 0.0003031195156946874 0.003463543808305449 0.0 0.0
0.0 0.0011564983881262988 -0.0006827491246181381 0.000566456689300703 0.00011629243531743484 0.0014401274141372024 0.0 0.0
0.0 0.0003011027728444599 -0.0001395679281654276 0.0001136065920040659 2.5961336161361637e-05 0.00040329908887329184 0.0 0.0
0.0 7.497761816285071e-05 -2.740030729916792e-05 2.247692957556731e-05 4.923377723600574e-06 9.992887905051103e-05 0.0 0.0
0.0 2.4570376764315686e-05 -5.9747592419673445e-06 4.964574808666442e-06 1.0101844333008897e-06 2.6226637115766e-05 0.0 0.0
0.0 8.928998701658634e-06 -1.5482147839661294e-06 1.273250685805643e-06 2.7496409816049264e-07 8.946414299299354e-06 0.0 0.0
0.0 1.661039860584153e-06 5.926428077361581e-09 2.896823579067089e-09 -8.823251656432382e-09 -1.1689243043329275e-07 0.0 0.0
0.0 0.0 0.0 0.0 0.0 0.0 0.0 0.0
0.0 0.0 0.0 0.0 0.0 0.0 0.0 0.0
0.0 3.8538157917848767e-07 8.524370000021943e-09 -5.889213621647465e-09 -2.6351563783748637e-09 7.625979648851619e-08 0.0 0.0
0.0 5.532909725065825e-06 -1.1479588860051567e-06 9.363137270758796e-07 2.1164515892927202e-07 -5.0889907895923075e-06 0.0 0.0
0.0 2.390629903177908e-05 -8.450818995299732e-06 6.956597269576029e-06 1.494221725723693e-06 -2.7345922351635335e-05 0.0 0.0
0.0 0.00010111240045669202 -4.862331515107827e-05 3.963944983087116e-05 8.983865320207122e-06 -0.00012083632044046233 0.0 0.0
0.0 0.000529142783406366 -0.00033023637436515956 0.00027054108467868145 5.969528968647811e-05 -0.0006116071017379257 0.0 0.0
0.0 0.002050568028235698 -0.0014742251628985016 0.0012508269207593466 0.00022339824213915476 -0.0020089991904041647 0.0 0.0
0.0 0.00526263282062731 -0.004031240702503573 0.003587245497374779 0.0004439952051287936 -0.0043627269162971865 0.0 0.0
0.0 0.010187630357446608 -0.008022400447558581 0.007414958165928082 0.0006074422816304987 -0.007532906570723992 0.0 0.0
0.0 0.01642503448602205 -0.013171289771685957 0.012459360449633533 0.0007119293220524243 -0.01122357160063678 0.0 0.0
0.0 0.023671345008981617 -0.01917834550759934 0.018389745457394885 0.0007886000502044475 -0.015007912764067217 0.0 0.0
0.0 0.031728200274497 -0.025894947296590524 0.025038244622220308 0.000856702674370192 -0.01862940054740379 0.0 0.0
0.0 0.040559043890601484 -0.03328409682183744 0.03236349857285953 0.0009205982489778963 -0.022090997274262867 0.0 0.0
0.0 0.05008591441054006 -0.04132020981026567 0.040334510963415504 0.0009856988468502014 -0.025534336458346685 0.0 0.0
0.0 0.06026041450000141 -0.04983452519372019 0.04877904574247372 0.001055479451246394 -0.029294956779218957 0.0 0.0
0.0 0.07060342780251272 -0.05837149745464415 0.05724009749037171 0.0011313999642724002 -0.03383859741821358 0.0 0.0
0.0 0.08003348357393439 -0.06603282942833141 0.06481678705057205 0.0012160423777593304 -0.03924201902505982 0.0 0.0
0.0 0.08670845209969047 -0.07123968230850942 0.06992446702357333 0.0013152152849360312 -0.04443526247536173 0.0 0.0
0.0 0.08711128782071456 -0.07125454188391758 0.0697928267824861 0.0014617151014314474 -0.046658527424803704 0.0 0.0
0.0 0.07527928145269497 -0.06110906616975142 0.059424727351530565 0.0016843388182208666 -0.042631727958850195 0.0 0.0
0.0 0.07527928145270288 -0.061109066169749184 0.05942472735152883 0.0016843388182203236 0.04263172795890554 0.0 0.0
0.0 0.08711128782071051 -0.07125454188390279 0.06979282678247181 0.0014617151014309547 0.046658527424875876 0.0 0.0
0.0 0.0867084520996664 -0.07123968230847988 0.06992446702354486 0.0013152152849349485 0.04443526247541278 0.0 0.0
0.0 0.08003348357388854 -0.06603282942828832 0.0648167870505302 0.0012160423777580966 0.03924201902507115 0.0 0.0
0.0 0.07060342780245288 -0.05837149745459258 0.05724009749032062 0.001131399964271971 0.033838597418198176 0.0 0.0
0.0 0.060260414499939935 -0.04983452519366824 0.04877904574242192 0.0010554794512462687 0.029294956779197537 0.0 0.0
0.0 0.05008591441047707 -0.041320209810212796 0.04033451096336255 0.0009856988468502602 0.02553433645832263 0.0 0.0
0.0 0.04055904389054326 -0.033284096821787845 0.032363498572810456 0.000920598248977405 0.022090997274243438 0.0 0.0
0.0 0.03172820027444292 -0.025894947296545016 0.025038244622175437 0.0008567026743695605 0.018629400547379205 0.0 0.0
0.0 0.02367134500893001 -0.01917834550755726 0.018389745457353453 0.0007886000502038044 0.015007912764036482 0.0 0.0
0.0 0.016425034485974495 -0.013171289771648042 0.012459360449596318 0.0007119293220517238 0.011223571600604321 0.0 0.0
0.0 0.010187630357412658 -0.008022400447531748 0.007414958165901887 0.0006074422816298678 0.0075329065707022864 0.0 0.0
0.0 0.005262632820607698 -0.004031240702488208 0.003587245497360492 0.00044399520512771487 0.004362726916283601 0.0 0.0
0.0 0.002050568028223939 -0.0014742251628901645 0.0012508269207519936 0.00022339824213817077 0.0020089991903943583 0.0 0.0
0.0 0.0005291427834013238 -0.0003302363743625725 0.0002705410846764859 5.969528968608659e-05 0.0006116071017335146 0.0 0.0
0.0 0.00010111240045589508 -4.862331515123914e-05 3.963944983099352e-05 8.983865320245574e-06 0.00012083632044074827 0.0 0.0
0.0 2.390629903136003e-05 -8.450818995596302e-06 6.956597269814787e-06 1.4942217257815098e-06 2.7345922352526377e-05 0.0 0.0
0.0 5.532909724567081e-06 -1.1479588861405558e-06 9.363137271848753e-07 2.1164515895567893e-07 5.088990790198393e-06 0.0 0.0
0.0 3.8538157904294466e-07 8.52436999717895e-09 -5.889213619678072e-09 -2.6351563774992616e-09 -7.62597964614563e-08 0.0 0.0
0.0 0.0 0.0 0.0 0.0 0.0 0.0 0.0
0.0 0.0 0.0 0.0 0.0 0.0 0.0 0.0
0.0 0.0 0.0 0.0 0.0 0.0 0.0 0.0
0.0 2.439262921939299e-06 -5.567582694229205e-07 4.535588060678115e-07 1.0319946335511267e-07 -1.9495504553066648e-06 0.0 0.0
0.0 2.2638449161132345e-05 -7.760343746195625e-06 6.319023241362022e-06 1.441320504833615e-06 -1.8753135025207688e-05 0.0 0.0
0.0 0.00016317104005763856 -9.14261643109022e-05 7.424764035839577e-05 1.717852395250647e-05 -0.0001592925106950004 0.0 0.0
0.0 0.0009287867239346578 -0.0006842669712873114 0.0005668801676582444 0.00011738680362906694 -0.0008595187253268012 0.0 0.0
0.0 0.0032466346097679115 -0.0025499535386647046 0.0022136874975996488 0.000336266041065055 -0.002419938132269318 0.0 0.0
0.0 0.007564630132592386 -0.006125655759336969 0.005578139211043386 0.000547516548293579 -0.004913119534482381 0.0 0.0
0.0 0.013810905911117291 -0.011360079967806972 0.010675934246556008 0.0006841457212509617 -0.008277128146484958 0.0 0.0
0.0 0.02167978918609231 -0.01796014991764546 0.01718148929224302 0.0007786606254024419 -0.012100790142173358 0.0 0.0
0.0 0.03082651912814561 -0.025652744298018854 0.024793285909705892 0.000859458388312957 -0.015961784794671977 0.0 0.0
0.0 0.04104061574638906 -0.03427723765646984 0.03334246130785833 0.0009347763486115135 -0.019663977907071032 0.0 0.0
0.0 0.052236664745319544 -0.04377771088142297 0.042771245511568634 0.0010064653698543045 -0.023201500605995694 0.0 0.0
0.0 0.0644166290310118 -0.05413626529978431 0.05305813832598359 0.001078126973800732 -0.026690689494614186 0.0 0.0
0.0 0.07750779147839208 -0.06521317799230936 0.06405630538465767 0.0011568726076516915 -0.03050873216180179 0.0 0.0
0.0 0.09072726385820526 -0.0764815882092978 0.07523227754049898 0.0012493106687988 -0.03518165128830656 0.0 0.0
0.0 0.10314587645244166 -0.08672281864499365 0.08536365125626551 0.0013591673887280841 -0.04084245673759508 0.0 0.0
0.0 0.11180573401605087 -0.09373416048429543 0.09224001528000536 0.0014941452042900832 -0.04639795331266135 0.0 0.0
0.0 0.11237358305823654 -0.09394381368023222 0.09228237161316152 0.0016614420670706608 -0.04934771598902118 0.0 0.0
0.0 0.09884637271179539 -0.08202683138252635 0.08017074176591611 0.0018560896166102583 -0.0478789806230743 0.0 0.0
0.0 0.0988463727117987 -0.08202683138252101 0.08017074176591113 0.0018560896166098352 0.04787898062313105 0.0 0.0
0.0 0.11237358305822574 -0.09394381368021294 0.09228237161314348 0.0016614420670694086 0.04934771598909395 0.0 0.0
0.0 0.11180573401601818 -0.09373416048425977 0.09224001527997067 0.0014941452042890142 0.04639795331271451 0.0 0.0
0.0 0.10314587645238213 -0.08672281864493961 0.08536365125621131 0.001359167388728234 0.040842456737607516 0.0 0.0
0.0 0.09072726385813522 -0.07648158820923698 0.07523227754043835 0.0012493106687986185 0.03518165128829523 0.0 0.0
0.0 0.07750779147831925 -0.0652131779922468 0.06405630538459535 0.001156872607651457 0.030508732161783868 0.0 0.0
0.0 0.06441662903093888 -0.05413626529972204 0.053058138325921794 0.0010781269738002616 0.026690689494591063 0.0 0.0
0.0 0.052236664745247914 -0.04377771088136145 0.04277124551150739 0.001006465369854041 0.023201500605976134 0.0 0.0
0.0 0.04104061574631715 -0.03427723765640866 0.03334246130779757 0.0009347763486110797 0.019663977907044994 0.0 0.0
0.0 0.030826519128082604 -0.02565274429796624 0.024793285909654128 0.0008594583883120918 0.015961784794639885 0.0 0.0
0.0 0.021679789186038606 -0.01796014991760115 0.017181489292199162 0.0007786606254019858 0.012100790142141198 0.0 0.0
0.0 0.01381090591107708 -0.011360079967773684 0.010675934246523213 0.0006841457212504737 0.008277128146463709 0.0 0.0
0.0 0.007564630132563898 -0.006125655759313741 0.005578139211021015 0.000547516548292726 0.004913119534466399 0.0 0.0
0.0 0.0032466346097483056 -0.0025499535386494443 0.002213687497585719 0.00033626604106372566 0.0024199381322564557 0.0 0.0
0.0 0.0009287867239268974 -0.0006842669712821601 0.0005668801676538823 0.00011738680362827729 0.0008595187253208419 0.0 0.0
0.0 0.0001631710400558312 -9.14261643104308e-05 7.424764035800192e-05 1.717852395242879e-05 0.00015929251069423943 0.0 0.0
0.0 2.2638449160567015e-05 -7.760343746362702e-06 6.319023241495579e-06 1.4413205048671313e-06 1.875313502562454e-05 0.0 0.0
0.0 2.4392629218095638e-06 -5.567582695284656e-07 4.5355880615311804e-07 1.0319946337534532e-07 1.949550455679407e-06 0.0 0.0
0.0 0.0 0.0 0.0 0.0 0.0 0.0 0.0
0.0 0.0 0.0 0.0 0.0 0.0 0.0 0.0
0.0 0.0 0.0 0.0 0.0 0.0 0.0 0.0
0.0 0.0 0.0 0.0 0.0 0.0 0.0 0.0
0.0 9.159772724021529e-07 5.630253744311479e-08 -4.536700834069255e-08 -1.0935529102421052e-08 1.5681455061216043e-07 0.0 0.0
0.0 2.0166424769751043e-05 -1.0777437020412109e-05 8.690046341401363e-06 2.087390679010787e-06 -1.9711691499907802e-05 0.0 0.0
0.0 0.0002692369648133851 -0.00018904494773108613 0.00015356099856181322 3.548394916927289e-05 -0.00023493197672446275 0.0 0.0
0.0 0.0015350826678088608 -0.001215764156062921 0.001021564698700641 0.00019419945736228052 -0.0010537127042858933 0.0 0.0
0.0 0.004717876618483175 -0.0038473872009831865 0.003411413015187498 0.00043597418579569035 -0.0026117977850207514 0.0 0.0
0.0 0.009993713185460407 -0.0084186507391423 0.007797717295432155 0.0006209334437101411 -0.0050958614714982 0.0 0.0
0.0 0.017548366965194448 -0.014833108864482285 0.014095044640104755 0.000738064224377537 -0.008374119040889423 0.0 0.0
0.0 0.027022417774532626 -0.02284829125760142 0.022016021697937687 0.0008322695596637391 -0.012046090590204091 0.0 0.0
0.0 0.03805847284863084 -0.032214684535926755 0.03129501184604981 0.0009196726898769282 -0.01577339548533438 0.0 0.0
0.0 0.05040561190602809 -0.04274737508613481 0.04174413612972761 0.0010032389564071618 -0.019345825715220265 0.0 0.0
0.0 0.06403595320529314 -0.0543585093720249 0.05327512703630687 0.001083382335718024 -0.02276708896988973 0.0 0.0
0.0 0.07872334697688793 -0.06702078234100833 0.06585862028829761 0.0011621620527107336 -0.026120812137678615 0.0 0.0
0.0 0.09457769376471539 -0.08060551121497558 0.07935665680244419 0.0012488544125313812 -0.029628174492407254 0.0 0.0
0.0 0.11097253808297303 -0.09453113615280444 0.09317418271378576 0.0013569534390186961 -0.033796517166784 0.0 0.0
0.0 0.12586728604376102 -0.10727854737376702 0.10578541451895562 0.0014931328548113368 -0.03904258994415217 0.0 0.0
0.0 0.13629988274436836 -0.11601317822168024 0.1143562371974147 0.0016569410242655313 -0.04479291767150195 0.0 0.0
0.0 0.13734805527418997 -0.11648184506002611 0.11464634769796435 0.001835497362061725 -0.04953505731899551 0.0 0.0
0.0 0.12292904061633292 -0.10311373356063662 0.10109977436799501 0.0020139591926415993 -0.052676676652672366 0.0 0.0
0.0 0.12292904061633134 -0.10311373356062833 0.10109977436798673 0.0020139591926415313 0.052676676652727905 0.0 0.0
0.0 0.13734805527416744 -0.1164818450599989 0.11464634769793697 0.0018354973620619012 0.04953505731906869 0.0 0.0
0.0 0.13629988274432303 -0.11601317822163557 0.11435623719736987 0.0016569410242656896 0.04479291767155426 0.0 0.0
0.0 0.12586728604369724 -0.10727854737370916 0.105785414518899 0.0014931328548100898 0.03904258994416641 0.0 0.0
0.0 0.11097253808289115 -0.09453113615273288 0.09317418271371504 0.001356953439017818 0.033796517166776736 0.0 0.0
0.0 0.09457769376463177 -0.08060551121490261 0.07935665680237249 0.0012488544125300858 0.0296281744923954 0.0 0.0
0.0 0.07872334697680605 -0.0670207823409373 0.06585862028822782 0.0011621620527094317 0.026120812137660335 0.0 0.0
0.0 0.0640359532052098 -0.05435850937195252 0.05327512703623535 0.00108338233571711 0.02276708896987123 0.0 0.0
0.0 0.050405611905947466 -0.04274737508606513 0.04174413612965868 0.001003238956406444 0.019345825715198234 0.0 0.0
0.0 0.03805847284855669 -0.03221468453586399 0.03129501184598758 0.0009196726898764125 0.015773395485303227 0.0 0.0
0.0 0.027022417774468406 -0.022848291257547435 0.022016021697884268 0.0008322695596631555 0.012046090590173114 0.0 0.0
0.0 0.017548366965146674 -0.014833108864441561 0.01409504464006478 0.000738064224376783 0.008374119040869012 0.0 0.0
0.0 0.009993713185426465 -0.008418650739113612 0.007797717295404228 0.0006209334437093758 0.0050958614714825936 0.0 0.0
0.0 0.004717876618459498 -0.003847387200964048 0.003411413015169368 0.0004359741857946823 0.002611797785008275 0.0 0.0
0.0 0.001535082667798645 -0.0012157641560552688 0.001021564698693999 0.0001941994573612691 0.001053712704279733 0.0 0.0
0.0 0.000269236964810703 -0.0001890449477298618 0.0001535609985607842 3.54839491690774e-05 0.00023493197672304307 0.0 0.0
0.0 2.0166424769454673e-05 -1.0777437020621568e-05 8.690046341565647e-06 2.0873906790559036e-06 1.9711691500290085e-05 0.0 0.0
0.0 9.159772720464821e-07 5.630253742091469e-08 -4.5367008322703315e-08 -1.0935529098212496e-08 -1.5681455054918204e-07 0.0 0.0
0.0 0.0 0.0 0.0 0.0 0.0 0.0 0.0
0.0 0.0 0.0 0.0 0.0 0.0 0.0 0.0
0.0 0.0 0.0 0.0 0.0 0.0 0.0 0.0
0.0 0.0 0.0 0.0 0.0 0.0 0.0 0.0
0.0 2.633745482838499e-07 1.9034837468267232e-08 -1.5232417022672714e-08 -3.80242044559584e-09 3.959451352121644e-08 0.0 0.0
0.0 2.2330981656328326e-05 -1.4630064692923633e-05 1.1723064305384647e-05 2.9070003875390044e-06 -1.9724823124976903e-05 0.0 0.0
0.0 0.00046739625071831256 -0.00036335611495659146 0.00029631045657078057 6.704565838581096e-05 -0.00031257486885773015 0.0 0.0
0.0 0.0023462333537655053 -0.0019185188477845105 0.0016395003529099867 0.00027901849487452544 -0.0011363657034467616 0.0 0.0
0.0 0.006187107173070307 -0.005331469626629311 0.004814672106849236 0.0005167975197800767 -0.002596537497974174 0.0 0.0
0.0 0.012554458092331171 -0.010826161273538576 0.010154800726813469 0.0006713605467251084 -0.0048516498898466855 0.0 0.0
0.0 0.021408563913857988 -0.018371914280129 0.017591834909843437 0.0007800793702855626 -0.007775327199062168 0.0 0.0
0.0 0.03242268754291887 -0.027785551970798072 0.026907655177818846 0.0008778967929792394 -0.011091099627702345 0.0 0.0
0.0 0.04531497978484343 -0.03881514072559366 0.03784284356057169 0.0009722971650219332 -0.01445709887223889 0.0 0.0
0.0 0.059827433609692324 -0.0512569992189782 0.05019241397753004 0.0010645852414481217 -0.01768958082270284 0.0 0.0
0.0 0.07579396908557941 -0.06498531230600582 0.06383115836213986 0.001154153943865931 -0.02081228145156986 0.0 0.0
0.0 0.09316275400526959 -0.07991937149747602 0.0786770247503861 0.0012423467470899091 -0.02383061175553579 0.0 0.0
0.0 0.11171033136124922 -0.09589887787539658 0.09456262500331539 0.001336252872081214 -0.026757946836641518 0.0 0.0
0.0 0.1305592392052357 -0.11232233956474559 0.11086793571342624 0.0014544038513193182 -0.029881456002641967 0.0 0.0
0.0 0.148212714785507 -0.1274865142023625 0.1258733748620644 0.0016131393402980647 -0.033973955912299625 0.0 0.0
0.0 0.16072792961484103 -0.13806030558701793 0.13625891696719852 0.001801388619819427 -0.03975938836918463 0.0 0.0
0.0 0.16264873883495518 -0.1391695750346979 0.13717310193212962 0.0019964731025681583 -0.04735041059719726 0.0 0.0
0.0 0.14765844397579111 -0.12480381070700002 0.12263285814984942 0.0021709525571504684 -0.057045318066350915 0.0 0.0
0.0 0.147658443975786 -0.12480381070698937 0.12263285814983886 0.002170952557150549 0.05704531806640388 0.0 0.0
0.0 0.16264873883492342 -0.13916957503466423 0.1371731019320967 0.0019964731025675963 0.047350410597262964 0.0 0.0
0.0 0.16072792961478355 -0.138060305586964 0.13625891696714612 0.0018013886198177415 0.0397593883692286 0.0 0.0
0.0 0.14821271478542614 -0.12748651420229087 0.1258733748619938 0.0016131393402970696 0.03397395591231031 0.0 0.0
0.0 0.13055923920514248 -0.11232233956466418 0.11086793571334605 0.0014544038513180637 0.029881456002635712 0.0 0.0
0.0 0.1117103313611465 -0.09589887787530761 0.09456262500322679 0.001336252872080798 0.02675794683663109 0.0 0.0
0.0 0.09316275400516544 -0.07991937149738629 0.07867702475029667 0.0012423467470895392 0.023830611755518122 0.0 0.0
0.0 0.07579396908547831 -0.06498531230591828 0.06383115836205297 0.001154153943865303 0.020812281451552648 0.0 0.0
0.0 0.05982743360959727 -0.0512569992188958 0.05019241397744853 0.0010645852414472928 0.017689580822681798 0.0 0.0
0.0 0.045314979784755655 -0.03881514072551837 0.0378428435604969 0.0009722971650214592 0.014457098872208992 0.0 0.0
0.0 0.03242268754284362 -0.027785551970733607 0.026907655177754966 0.000877896792978633 0.011091099627674322 0.0 0.0
0.0 0.021408563913798473 -0.018371914280077752 0.017591834909792246 0.0007800793702855024 0.007775327199043341 0.0 0.0
0.0 0.012554458092290707 -0.010826161273503651 0.0101548007267791 0.0006713605467245486 0.004851649889831788 0.0 0.0
0.0 0.00618710717304454 -0.005331469626607277 0.0048146721068282414 0.0005167975197790339 0.0025965374979641746 0.0 0.0
0.0 0.0023462333537506474 -0.0019185188477728256 0.0016395003528994739 0.0002790184948733514 0.0011363657034402295 0.0 0.0
0.0 0.00046739625071315425 -0.000363356114953247 0.00029631045656794663 6.704565838530022e-05 0.00031257486885501374 0.0 0.0
0.0 2.2330981655834777e-05 -1.4630064693139186e-05 1.1723064305543423e-05 2.907000387595766e-06 1.9724823125230942e-05 0.0 0.0
0.0 2.633745479801639e-07 1.90348374459991e-08 -1.5232417004860948e-08 -3.802420441135515e-09 -3.959451347502403e-08 0.0 0.0
0.0 0.0 0.0 0.0 0.0 0.0 0.0 0.0
0.0 0.0 0.0 0.0 0.0 0.0 0.0 0.0
0.0 0.0 0.0 0.0 0.0 0.0 0.0 0.0
0.0 0.0 0.0 0.0 0.0 0.0 0.0 0.0
0.0 0.0 0.0 0.0 0.0 0.0 0.0 0.0
0.0 3.4685005532662576e-05 -2.6113580193250288e-05 2.0934221037779185e-05 5.179359155471096e-06 -2.469996678146365e-05 0.0 0.0
0.0 0.0007981373017788824 -0.000645955509868226 0.0005306767528820527 0.00011527875698617303 -0.0003582764873924321 0.0 0.0
0.0 0.003288873460736515 -0.0027825947080899094 0.002418637021123663 0.0003639576869662463 -0.0010844022019219474 0.0 0.0
0.0 0.007870315715670824 -0.006925567605380233 0.006347595662672966 0.0005779719427072662 -0.002284335739158384 0.0 0.0
0.0 0.015247009806507146 -0.013285606024913396 0.012577266980100275 0.0007083390448131185 -0.00410845298761034 0.0 0.0
0.0 0.025313380485297063 -0.021936687629595004 0.02112210206797923 0.0008145855616157574 -0.006509133395482271 0.0 0.0
0.0 0.037858068997526084 -0.03272678267078238 0.0318095685732321 0.0009172140975502808 -0.009246817432171464 0.0 0.0
0.0 0.05261315601427917 -0.04540895339859463 0.044389867120404214 0.0010190862781904097 -0.012032073872586476 0.0 0.0
0.0 0.0692307672227203 -0.059761336799561915 0.05864134527255242 0.0011199915270094923 -0.014703425549206069 0.0 0.0
0.0 0.08768494598891818 -0.07561193563154545 0.07439188999643248 0.0012200456351129409 -0.017299162983276665 0.0 0.0
0.0 0.107445526352439 -0.09279629956986699 0.09147631605491778 0.001319983514949215 -0.01982839390570267 0.0 0.0
0.0 0.1284557606668867 -0.11103558082024524 0.10961218051680595 0.0014234003034392817 -0.02206532796087143 0.0 0.0
0.0 0.1499576152168442 -0.12968147838684774 0.1281368098740334 0.0015446685128142964 -0.023812746403728508 0.0 0.0
0.0 0.17006752426756008 -0.14710531316456477 0.1453969653867733 0.0017083477777914168 -0.025963490013297078 0.0 0.0
0.0 0.18494484759694496 -0.15983691822827797 0.15790973206445663 0.0019271861638213196 -0.031221402381643806 0.0 0.0
0.0 0.18847040018186675 -0.16227721569528536 0.160128467657021 0.00214874803826438 -0.042319093733426835 0.0 0.0
0.0 0.17377400508660357 -0.14758154525175474 0.14524151016610296 0.002340035085651734 -0.06065029504697316 0.0 0.0
0.0 0.17377400508659493 -0.14758154525174266 0.14524151016609116 0.00234003508565143 0.06065029504701529 0.0 0.0
0.0 0.18847040018182565 -0.162277215695246 0.16012846765698163 0.002148748038264376 0.04231909373348277 0.0 0.0
0.0 0.18494484759687502 -0.15983691822821533 0.15790973206439407 0.0019271861638211999 0.03122140238168259 0.0 0.0
0.0 0.17006752426746746 -0.14710531316448372 0.14539696538669325 0.0017083477777905375 0.025963490013305786 0.0 0.0
0.0 0.14995761521673606 -0.12968147838675378 0.12813680987394038 0.0015446685128133854 0.02381274640372434 0.0 0.0
0.0 0.1284557606667713 -0.11103558082014502 0.10961218051670628 0.0014234003034388069 0.022065327960866358 0.0 0.0
0.0 0.10744552635232149 -0.09279629956976539 0.09147631605481653 0.0013199835149488486 0.019828393905689756 0.0 0.0
0.0 0.08768494598880694 -0.07561193563144895 0.07439188999633661 0.0012200456351123745 0.017299162983263595 0.0 0.0
0.0 0.06923076722261008 -0.059761336799466686 0.058641345272457464 0.0011199915270091942 0.014703425549190623 0.0 0.0
0.0 0.05261315601418157 -0.045408953398510116 0.0443898671203202 0.0010190862781898962 0.012032073872562766 0.0 0.0
0.0 0.03785806899744745 -0.03272678267071413 0.03180956857316469 0.0009172140975494369 0.009246817432149156 0.0 0.0
0.0 0.02531338048523442 -0.021936687629540222 0.021122102067925412 0.0008145855616148142 0.006509133395467539 0.0 0.0
0.0 0.015247009806458869 -0.013285606024871251 0.012577266980058757 0.0007083390448124973 0.0041084529875970695 0.0 0.0
0.0 0.0078703157156404 -0.006925567605353591 0.006347595662647101 0.0005779719427064931 0.002284335739149628 0.0 0.0
0.0 0.0032888734607222003 -0.0027825947080779784 0.0024186370211128376 0.00036395768696514084 0.0010844022019172248 0.0 0.0
0.0 0.0007981373017737091 -0.0006459555098645652 0.0005306767528790189 0.00011527875698554628 0.00035827648739079296 0.0 0.0
0.0 3.468500553182592e-05 -2.611358019326105e-05 2.0934221037768634e-05 5.17935915549244e-06 2.469996678143389e-05 0.0 0.0
0.0 0.0 0.0 0.0 0.0 0.0 0.0 0.0
0.0 0.0 0.0 0.0 0.0 0.0 0.0 0.0
0.0 0.0 0.0 0.0 0.0 0.0 0.0 0.0
0.0 0.0 0.0 0.0 0.0 0.0 0.0 0.0
0.0 0.0 0.0 0.0 0.0 0.0 0.0 0.0
0.0 0.0 0.0 0.0 0.0 0.0 0.0 0.0
0.0 7.659977576866082e-05 -6.126513109930775e-05 4.902927085897005e-05 1.2235860240337728e-05 -3.523362325835445e-05 0.0 0.0
0.0 0.0012890943659857215 -0.001053620095129421 0.0008762288741777396 0.0001773912209516806 -0.0003343252474700441 0.0 0.0
0.0 0.004205891094687983 -0.0037834929989935644 0.003341710259486871 0.0004417827395066929 -0.0008463692241608944 0.0 0.0
0.0 0.009694460253496774 -0.008577573505678065 0.00795652805721516 0.0006210454484629078 -0.0016635023531031401 0.0 0.0
0.0 0.017987625423307965 -0.01576623199037204 0.015028608116330895 0.0007376238740411534 -0.0029076552919385145 0.0 0.0
0.0 0.029237553505674942 -0.02548665253625038 0.02464374905006967 0.0008429034861806953 -0.004580428658890066 0.0 0.0
0.0 0.04329353112528753 -0.0376295809838215 0.03667848175515294 0.0009510992286685493 -0.006516801898192371 0.0 0.0
0.0 0.059885410654235215 -0.051954429109129355 0.05089362783863883 0.0010608012704904992 -0.008490364618037045 0.0 0.0
0.0 0.07877234647750334 -0.06821545475006366 0.06704480795232023 0.0011706467977434178 -0.010383860476889887 0.0 0.0
0.0 0.09940506671927576 -0.08619228941692049 0.08491079596834013 0.0012814934485803774 -0.01225224536327632 0.0 0.0
0.0 0.12175604237457589 -0.10560505368708807 0.10421039774673477 0.0013946559403532352 -0.01405237798364809 0.0 0.0
0.0 0.14528551670692724 -0.1259994691882353 0.1244878794786102 0.0015115897096250259 -0.015500534477264596 0.0 0.0
0.0 0.1689882247156085 -0.14658188394893323 0.14494576947589502 0.0016361144730381787 -0.016118027061442657 0.0 0.0
0.0 0.19119064640397984 -0.1658810788959764 0.16409550428061867 0.0017855746153578307 -0.016088598076534247 0.0 0.0
0.0 0.20864732776190414 -0.18096252234643567 0.1789674847323919 0.001995037614043722 -0.018859921080312297 0.0 0.0
0.0 0.215143281298326 -0.18604177204404426 0.18373382137283048 0.0023079506712135782 -0.03272536243185741 0.0 0.0
0.0 0.20190742700061132 -0.1721690120483727 0.16963122702678352 0.002537785021589054 -0.06266439831186045 0.0 0.0
0.0 0.20190742700059547 -0.17216901204835622 0.169631227026767 0.0025377850215890863 0.06266439831189287 0.0 0.0
0.0 0.21514328129827479 -0.18604177204399755 0.18373382137278416 0.002307950671213359 0.03272536243190282 0.0 0.0
0.0 0.20864732776181766 -0.18096252234635976 0.1789674847323167 0.0019950376140431604 0.01885992108034215 0.0 0.0
0.0 0.19119064640387035 -0.16588107889588086 0.16409550428052444 0.0017855746153564195 0.016088598076536696 0.0 0.0
0.0 0.16898822471548447 -0.14658188394882588 0.1449457694757878 0.0016361144730380425 0.01611802706143859 0.0 0.0
0.0 0.1452855167068004 -0.12599946918812516 0.12448787947850057 0.001511589709624604 0.015500534477262393 0.0 0.0
0.0 0.12175604237444979 -0.10560505368697833 0.10421039774662635 0.0013946559403519676 0.014052377983644088 0.0 0.0
0.0 0.0994050667191473 -0.08619228941680881 0.08491079596822948 0.0012814934485793495 0.012252245363268795 0.0 0.0
0.0 0.07877234647738263 -0.06821545474995844 0.06704480795221605 0.0011706467977423787 0.010383860476881336 0.0 0.0
0.0 0.05988541065412775 -0.05195442910903606 0.05089362783854653 0.0010608012704895146 0.008490364618020172 0.0 0.0
0.0 0.0432935311251958 -0.037629580983741896 0.036678481755073815 0.0009510992286680838 0.006516801898175585 0.0 0.0
0.0 0.029237553505605543 -0.025486652536189456 0.02464374905000937 0.0008429034861800879 0.004580428658880273 0.0 0.0
0.0 0.017987625423256066 -0.01576623199032636 0.01502860811628592 0.0007376238740404288 0.002907655291930258 0.0 0.0
0.0 0.009694460253458699 -0.008577573505644321 0.007956528057182232 0.0006210454484620901 0.0016635023530962507 0.0 0.0
0.0 0.004205891094668965 -0.0037834929989766985 0.003341710259470943 0.0004417827395057555 0.0008463692241566442 0.0 0.0
0.0 0.00128909436597797 -0.0010536200951233874 0.0008762288741725997 0.00017739122095078777 0.0003343252474685837 0.0 0.0
0.0 7.65997757672603e-05 -6.126513109893943e-05 4.902927085863981e-05 1.2235860240299583e-05 3.523362325810324e-05 0.0 0.0
0.0 0.0 0.0 0.0 0.0 0.0 0.0 0.0
0.0 0.0 0.0 0.0 0.0 0.0 0.0 0.0
0.0 0.0 0.0 0.0 0.0 0.0 0.0 0.0
0.0 0.0 0.0 0.0 0.0 0.0 0.0 0.0
0.0 0.0 0.0 0.0 0.0 0.0 0.0 0.0
0.0 0.0 0.0 0.0 0.0 0.0 0.0 0.0
0.0 0.0001922256420120513 -0.00016518153526509045 0.00013195195239509917 3.322958286999142e-05 -4.004081974939391e-05 0.0 0.0
0.0 0.0019444703200029111 -0.0015795362404162107 0.001331011099765777 0.00024852514065043296 -0.00019678641588912396 0.0 0.0
0.0 0.005393679997009585 -0.004852054448089652 0.004347671946103065 0.0005043825019865873 -0.00039864924938456736 0.0 0.0
0.0 0.011579973542545495 -0.010263185250934911 0.00960932555074942 0.0006538597001854896 -0.0007316737510092642 0.0 0.0
0.0 0.020768659513441118 -0.0182324946433718 0.01747189992806094 0.0007605947153108515 -0.0012528436038929825 0.0 0.0
0.0 0.033177205022661846 -0.02898109922356066 0.028114607569636105 0.0008664916539245384 -0.0019977614979777877 0.0 0.0
0.0 0.0487529355622974 -0.042450500035564 0.041470432286088356 0.000980067749475652 -0.0028965380686161502 0.0 0.0
0.0 0.06725485040811599 -0.05841064470915108 0.05731281925273045 0.0010978254564206354 -0.0038297072872578936 0.0 0.0
0.0 0.08807498050654491 -0.07658303496187935 0.07536564948412072 0.0012173854777586023 -0.004741834454115463 0.0 0.0
0.0 0.11117481649935869 -0.09666771246614568 0.0953287828910407 0.0013389295751049487 -0.0056318294076794055 0.0 0.0
0.0 0.1361046072612537 -0.11828039759261331 0.11681549663596835 0.001464900956644952 -0.006438877314938935 0.0 0.0
0.0 0.16206641098660368 -0.1407924079439944 0.13919555227660987 0.0015968556673845637 -0.006988883107740112 0.0 0.0
0.0 0.18788150896020273 -0.16316500049021687 0.1614316876196623 0.0017333128705544626 -0.006911347208672626 0.0 0.0
0.0 0.21173553015942678 -0.1838530589274681 0.1819811020916074 0.001871956835860675 -0.005807435477222312 0.0 0.0
0.0 0.23103434117431293 -0.20061413331971018 0.1985852416040033 0.002028891715706644 -0.004927547109057644 0.0 0.0
0.0 0.24150264898594934 -0.20947291078455482 0.207196076568012 0.002276834216542698 -0.014277256030467556 0.0 0.0
0.0 0.2338219644480236 -0.200522344615909 0.197606152863352 0.00291619175255694 -0.057823322031097676 0.0 0.0
0.0 0.23382196444800388 -0.20052234461589089 0.19760615286333408 0.002916191752556605 0.057823322031110416 0.0 0.0
0.0 0.24150264898589321 -0.20947291078450495 0.207196076567964 0.0022768342165407334 0.014277256030489596 0.0 0.0
0.0 0.23103434117421429 -0.20061413331962435 0.19858524160391827 0.0020288917157059603 0.004927547109071432 0.0 0.0
0.0 0.211735530159297 -0.1838530589273561 0.18198110209149504 0.0018719568358610624 0.005807435477218827 0.0 0.0
0.0 0.18788150896006445 -0.16316500049009708 0.16143168761954274 0.0017333128705541495 0.0069113472086696015 0.0 0.0
0.0 0.16206641098645846 -0.1407924079438686 0.13919555227648422 0.0015968556673842313 0.006988883107740016 0.0 0.0
0.0 0.1361046072611099 -0.11828039759248873 0.11681549663584423 0.0014649009566444424 0.006438877314934839 0.0 0.0
0.0 0.1111748164992169 -0.09666771246602276 0.09532878289091838 0.0013389295751043548 0.005631829407673875 0.0 0.0
0.0 0.08807498050640891 -0.07658303496176143 0.07536564948400348 0.0012173854777579244 0.004741834454112167 0.0 0.0
0.0 0.06725485040799452 -0.05841064470904571 0.05731281925262556 0.0010978254564201352 0.0038297072872485348 0.0 0.0
0.0 0.04875293556219745 -0.042450500035477345 0.04147043228600238 0.0009800677494749901 0.0028965380686080326 0.0 0.0
0.0 0.03317720502258419 -0.02898109922349268 0.028114607569568833 0.0008664916539238374 0.0019977614979732653 0.0 0.0
0.0 0.02076865951338346 -0.018232494643320867 0.017471899928010622 0.0007605947153102332 0.0012528436038891774 0.0 0.0
0.0 0.011579973542505263 -0.010263185250899278 0.009609325550714372 0.0006538597001849074 0.0007316737510065857 0.0 0.0
0.0 0.005393679996988051 -0.004852054448070072 0.004347671946084402 0.0005043825019856689 0.00039864924938306774 0.0 0.0
0.0 0.0019444703199930683 -0.0015795362404084031 0.0013310110997588184 0.0002485251406495859 0.00019678641588828768 0.0 0.0
0.0 0.00019222564201081243 -0.0001651815352646524 0.0001319519523947336 3.3229582869918716e-05 4.004081974927095e-05 0.0 0.0
0.0 0.0 0.0 0.0 0.0 0.0 0.0 0.0
0.0 0.0 0.0 0.0 0.0 0.0 0.0 0.0
0.0 0.0 0.0 0.0 0.0 0.0 0.0 0.0