# vtk DataFile Version 3.0
Some data
ASCII
DATASET UNSTRUCTURED_GRID
POINTS 861 float
0.0 0.0 0.0
0.4 0.0 0.0
0.8 0.0 0.0
1.2000000000000002 0.0 0.0
1.6 0.0 0.0
2.0 0.0 0.0
2.4000000000000004 0.0 0.0
2.8000000000000003 0.0 0.0
3.2 0.0 0.0
3.6 0.0 0.0
4.0 0.0 0.0
4.4 0.0 0.0
4.800000000000001 0.0 0.0
5.2 0.0 0.0
5.6000000000000005 0.0 0.0
6.0 0.0 0.0
6.4 0.0 0.0
6.800000000000001 0.0 0.0
7.2 0.0 0.0
7.6000000000000005 0.0 0.0
8.0 0.0 0.0
8.4 0.0 0.0
8.8 0.0 0.0
9.200000000000001 0.0 0.0
9.600000000000001 0.0 0.0
10.0 0.0 0.0
10.4 0.0 0.0
10.8 0.0 0.0
11.200000000000001 0.0 0.0
11.600000000000001 0.0 0.0
12.0 0.0 0.0
12.4 0.0 0.0
12.8 0.0 0.0
13.200000000000001 0.0 0.0
13.600000000000001 0.0 0.0
14.0 0.0 0.0
14.4 0.0 0.0
14.8 0.0 0.0
15.200000000000001 0.0 0.0
15.600000000000001 0.0 0.0
16.0 0.0 0.0
0.0 0.1 0.0
0.4 0.1 0.0
0.8 0.1 0.0
1.2000000000000002 0.1 0.0
1.6 0.1 0.0
2.0 0.1 0.0
2.4000000000000004 0.1 0.0
2.8000000000000003 0.1 0.0
3.2 0.1 0.0
3.6 0.1 0.0
4.0 0.1 0.0
4.4 0.1 0.0
4.800000000000001 0.1 0.0
5.2 0.1 0.0
5.6000000000000005 0.1 0.0
6.0 0.1 0.0
6.4 0.1 0.0
6.800000000000001 0.1 0.0
7.2 0.1 0.0
7.6000000000000005 0.1 0.0
8.0 0.1 0.0
8.4 0.1 0.0
8.8 0.1 0.0
9.200000000000001 0.1 0.0
9.600000000000001 0.1 0.0
10.0 0.1 0.0
10.4 0.1 0.0
10.8 0.1 0.0
11.200000000000001 0.1 0.0
11.600000000000001 0.1 0.0
12.0 0.1 0.0
12.4 0.1 0.0
12.8 0.1 0.0
13.200000000000001 0.1 0.0
13.600000000000001 0.1 0.0
14.0 0.1 0.0
14.4 0.1 0.0
14.8 0.1 0.0
15.200000000000001 0.1 0.0
15.600000000000001 0.1 0.0
16.0 0.1 0.0
0.0 0.2 0.0
0.4 0.2 0.0
0.8 0.2 0.0
1.2000000000000002 0.2 0.0
1.6 0.2 0.0
2.0 0.2 0.0
2.4000000000000004 0.2 0.0
2.8000000000000003 0.2 0.0
3.2 0.2 0.0
3.6 0.2 0.0
4.0 0.2 0.0
4.4 0.2 0.0
4.800000000000001 0.2 0.0
5.2 0.2 0.0
5.6000000000000005 0.2 0.0
6.0 0.2 0.0
6.4 0.2 0.0
6.800000000000001 0.2 0.0
7.2 0.2 0.0
7.6000000000000005 0.2 0.0
8.0 0.2 0.0
8.4 0.2 0.0
8.8 0.2 0.0
9.200000000000001 0.2 0.0
9.600000000000001 0.2 0.0
10.0 0.2 0.0
10.4 0.2 0.0
10.8 0.2 0.0
11.200000000000001 0.2 0.0
11.600000000000001 0.2 0.0
12.0 0.2 0.0
12.4 0.2 0.0
12.8 0.2 0.0
13.200000000000001 0.2 0.0
13.600000000000001 0.2 0.0
14.0 0.2 0.0
14.4 0.2 0.0
14.8 0.2 0.0
15.200000000000001 0.2 0.0
15.600000000000001 0.2 0.0
16.0 0.2 0.0
0.0 0.30000000000000004 0.0
0.4 0.30000000000000004 0.0
0.8 0.30000000000000004 0.0
1.2000000000000002 0.30000000000000004 0.0
1.6 0.30000000000000004 0.0
2.0 0.30000000000000004 0.0
2.4000000000000004 0.30000000000000004 0.0
2.8000000000000003 0.30000000000000004 0.0
3.2 0.30000000000000004 0.0
3.6 0.30000000000000004 0.0
4.0 0.30000000000000004 0.0
4.4 0.30000000000000004 0.0
4.800000000000001 0.30000000000000004 0.0
5.2 0.30000000000000004 0.0
5.6000000000000005 0.30000000000000004 0.0
6.0 0.30000000000000004 0.0
6.4 0.30000000000000004 0.0
6.800000000000001 0.30000000000000004 0.0
7.2 0.30000000000000004 0.0
7.6000000000000005 0.30000000000000004 0.0
8.0 0.30000000000000004 0.0
8.4 0.30000000000000004 0.0
8.8 0.30000000000000004 0.0
9.200000000000001 0.30000000000000004 0.0
9.600000000000001 0.30000000000000004 0.0
10.0 0.30000000000000004 0.0
10.4 0.30000000000000004 0.0
10.8 0.30000000000000004 0.0
11.200000000000001 0.30000000000000004 0.0
11.600000000000001 0.30000000000000004 0.0
12.0 0.30000000000000004 0.0
12.4 0.30000000000000004 0.0
12.8 0.30000000000000004 0.0
13.200000000000001 0.30000000000000004 0.0
13.600000000000001 0.30000000000000004 0.0
14.0 0.30000000000000004 0.0
14.4 0.30000000000000004 0.0
14.8 0.30000000000000004 0.0
15.200000000000001 0.30000000000000004 0.0
15.600000000000001 0.30000000000000004 0.0
16.0 0.30000000000000004 0.0
0.0 0.4 0.0
0.4 0.4 0.0
0.8 0.4 0.0
1.2000000000000002 0.4 0.0
1.6 0.4 0.0
2.0 0.4 0.0
2.4000000000000004 0.4 0.0
2.8000000000000003 0.4 0.0
3.2 0.4 0.0
3.6 0.4 0.0
4.0 0.4 0.0
4.4 0.4 0.0
4.800000000000001 0.4 0.0
5.2 0.4 0.0
5.6000000000000005 0.4 0.0
6.0 0.4 0.0
6.4 0.4 0.0
6.800000000000001 0.4 0.0
7.2 0.4 0.0
7.6000000000000005 0.4 0.0
8.0 0.4 0.0
8.4 0.4 0.0
8.8 0.4 0.0
9.200000000000001 0.4 0.0
9.600000000000001 0.4 0.0
10.0 0.4 0.0
10.4 0.4 0.0
10.8 0.4 0.0
11.200000000000001 0.4 0.0
11.600000000000001 0.4 0.0
12.0 0.4 0.0
12.4 0.4 0.0
12.8 0.4 0.0
13.200000000000001 0.4 0.0
13.600000000000001 0.4 0.0
14.0 0.4 0.0
14.4 0.4 0.0
14.8 0.4 0.0
15.200000000000001 0.4 0.0
15.600000000000001 0.4 0.0
16.0 0.4 0.0
0.0 0.5 0.0
0.4 0.5 0.0
0.8 0.5 0.0
1.2000000000000002 0.5 0.0
1.6 0.5 0.0
2.0 0.5 0.0
2.4000000000000004 0.5 0.0
2.8000000000000003 0.5 0.0
3.2 0.5 0.0
3.6 0.5 0.0
4.0 0.5 0.0
4.4 0.5 0.0
4.800000000000001 0.5 0.0
5.2 0.5 0.0
5.6000000000000005 0.5 0.0
6.0 0.5 0.0
6.4 0.5 0.0
6.800000000000001 0.5 0.0
7.2 0.5 0.0
7.6000000000000005 0.5 0.0
8.0 0.5 0.0
8.4 0.5 0.0
8.8 0.5 0.0
9.200000000000001 0.5 0.0
9.600000000000001 0.5 0.0
10.0 0.5 0.0
10.4 0.5 0.0
10.8 0.5 0.0
11.200000000000001 0.5 0.0
11.600000000000001 0.5 0.0
12.0 0.5 0.0
12.4 0.5 0.0
12.8 0.5 0.0
13.200000000000001 0.5 0.0
13.600000000000001 0.5 0.0
14.0 0.5 0.0
14.4 0.5 0.0
14.8 0.5 0.0
15.200000000000001 0.5 0.0
15.600000000000001 0.5 0.0
16.0 0.5 0.0
0.0 0.6000000000000001 0.0
0.4 0.6000000000000001 0.0
0.8 0.6000000000000001 0.0
1.2000000000000002 0.6000000000000001 0.0
1.6 0.6000000000000001 0.0
2.0 0.6000000000000001 0.0
2.4000000000000004 0.6000000000000001 0.0
2.8000000000000003 0.6000000000000001 0.0
3.2 0.6000000000000001 0.0
3.6 0.6000000000000001 0.0
4.0 0.6000000000000001 0.0
4.4 0.6000000000000001 0.0
4.800000000000001 0.6000000000000001 0.0
5.2 0.6000000000000001 0.0
5.6000000000000005 0.6000000000000001 0.0
6.0 0.6000000000000001 0.0
6.4 0.6000000000000001 0.0
6.800000000000001 0.6000000000000001 0.0
7.2 0.6000000000000001 0.0
7.6000000000000005 0.6000000000000001 0.0
8.0 0.6000000000000001 0.0
8.4 0.6000000000000001 0.0
8.8 0.6000000000000001 0.0
9.200000000000001 0.6000000000000001 0.0
9.600000000000001 0.6000000000000001 0.0
10.0 0.6000000000000001 0.0
10.4 0.6000000000000001 0.0
10.8 0.6000000000000001 0.0
11.200000000000001 0.6000000000000001 0.0
11.600000000000001 0.6000000000000001 0.0
12.0 0.6000000000000001 0.0
12.4 0.6000000000000001 0.0
12.8 0.6000000000000001 0.0
13.200000000000001 0.6000000000000001 0.0
13.600000000000001 0.6000000000000001 0.0
14.0 0.6000000000000001 0.0
14.4 0.6000000000000001 0.0
14.8 0.6000000000000001 0.0
15.200000000000001 0.6000000000000001 0.0
15.600000000000001 0.6000000000000001 0.0
16.0 0.6000000000000001 0.0
0.0 0.7000000000000001 0.0
0.4 0.7000000000000001 0.0
0.8 0.7000000000000001 0.0
1.2000000000000002 0.7000000000000001 0.0
1.6 0.7000000000000001 0.0
2.0 0.7000000000000001 0.0
2.4000000000000004 0.7000000000000001 0.0
2.8000000000000003 0.7000000000000001 0.0
3.2 0.7000000000000001 0.0
3.6 0.7000000000000001 0.0
4.0 0.7000000000000001 0.0
4.4 0.7000000000000001 0.0
4.800000000000001 0.7000000000000001 0.0
5.2 0.7000000000000001 0.0
5.6000000000000005 0.7000000000000001 0.0
6.0 0.7000000000000001 0.0
6.4 0.7000000000000001 0.0
6.800000000000001 0.7000000000000001 0.0
7.2 0.7000000000000001 0.0
7.6000000000000005 0.7000000000000001 0.0
8.0 0.7000000000000001 0.0
8.4 0.7000000000000001 0.0
8.8 0.7000000000000001 0.0
9.200000000000001 0.7000000000000001 0.0
9.600000000000001 0.7000000000000001 0.0
10.0 0.7000000000000001 0.0
10.4 0.7000000000000001 0.0
10.8 0.7000000000000001 0.0
11.200000000000001 0.7000000000000001 0.0
11.600000000000001 0.7000000000000001 0.0
12.0 0.7000000000000001 0.0
12.4 0.7000000000000001 0.0
12.8 0.7000000000000001 0.0
13.200000000000001 0.7000000000000001 0.0
13.600000000000001 0.7000000000000001 0.0
14.0 0.7000000000000001 0.0
14.4 0.7000000000000001 0.0
14.8 0.7000000000000001 0.0
15.200000000000001 0.7000000000000001 0.0
15.600000000000001 0.7000000000000001 0.0
16.0 0.7000000000000001 0.0
0.0 0.8 0.0
0.4 0.8 0.0
0.8 0.8 0.0
1.2000000000000002 0.8 0.0
1.6 0.8 0.0
2.0 0.8 0.0
2.4000000000000004 0.8 0.0
2.8000000000000003 0.8 0.0
3.2 0.8 0.0
3.6 0.8 0.0
4.0 0.8 0.0
4.4 0.8 0.0
4.800000000000001 0.8 0.0
5.2 0.8 0.0
5.6000000000000005 0.8 0.0
6.0 0.8 0.0
6.4 0.8 0.0
6.800000000000001 0.8 0.0
7.2 0.8 0.0
7.6000000000000005 0.8 0.0
8.0 0.8 0.0
8.4 0.8 0.0
8.8 0.8 0.0
9.200000000000001 0.8 0.0
9.600000000000001 0.8 0.0
10.0 0.8 0.0
10.4 0.8 0.0
10.8 0.8 0.0
11.200000000000001 0.8 0.0
11.600000000000001 0.8 0.0
12.0 0.8 0.0
12.4 0.8 0.0
12.8 0.8 0.0
13.200000000000001 0.8 0.0
13.600000000000001 0.8 0.0
14.0 0.8 0.0
14.4 0.8 0.0
14.8 0.8 0.0
15.200000000000001 0.8 0.0
15.600000000000001 0.8 0.0
16.0 0.8 0.0
0.0 0.9 0.0
0.4 0.9 0.0
0.8 0.9 0.0
1.2000000000000002 0.9 0.0
1.6 0.9 0.0
2.0 0.9 0.0
2.4000000000000004 0.9 0.0
2.8000000000000003 0.9 0.0
3.2 0.9 0.0
3.6 0.9 0.0
4.0 0.9 0.0
4.4 0.9 0.0
4.800000000000001 0.9 0.0
5.2 0.9 0.0
5.6000000000000005 0.9 0.0
6.0 0.9 0.0
6.4 0.9 0.0
6.800000000000001 0.9 0.0
7.2 0.9 0.0
7.6000000000000005 0.9 0.0
8.0 0.9 0.0
8.4 0.9 0.0
8.8 0.9 0.0
9.200000000000001 0.9 0.0
9.600000000000001 0.9 0.0
10.0 0.9 0.0
10.4 0.9 0.0
10.8 0.9 0.0
11.200000000000001 0.9 0.0
11.600000000000001 0.9 0.0
12.0 0.9 0.0
12.4 0.9 0.0
12.8 0.9 0.0
13.200000000000001 0.9 0.0
13.600000000000001 0.9 0.0
14.0 0.9 0.0
14.4 0.9 0.0
14.8 0.9 0.0
15.200000000000001 0.9 0.0
15.600000000000001 0.9 0.0
16.0 0.9 0.0
0.0 1.0 0.0
0.4 1.0 0.0
0.8 1.0 0.0
1.2000000000000002 1.0 0.0
1.6 1.0 0.0
2.0 1.0 0.0
2.4000000000000004 1.0 0.0
2.8000000000000003 1.0 0.0
3.2 1.0 0.0
3.6 1.0 0.0
4.0 1.0 0.0
4.4 1.0 0.0
4.800000000000001 1.0 0.0
5.2 1.0 0.0
5.6000000000000005 1.0 0.0
6.0 1.0 0.0
6.4 1.0 0.0
6.800000000000001 1.0 0.0
7.2 1.0 0.0
7.6000000000000005 1.0 0.0
8.0 1.0 0.0
8.4 1.0 0.0
8.8 1.0 0.0
9.200000000000001 1.0 0.0
9.600000000000001 1.0 0.0
10.0 1.0 0.0
10.4 1.0 0.0
10.8 1.0 0.0
11.200000000000001 1.0 0.0
11.600000000000001 1.0 0.0
12.0 1.0 0.0
12.4 1.0 0.0
12.8 1.0 0.0
13.200000000000001 1.0 0.0
13.600000000000001 1.0 0.0
14.0 1.0 0.0
14.4 1.0 0.0
14.8 1.0 0.0
15.200000000000001 1.0 0.0
15.600000000000001 1.0 0.0
16.0 1.0 0.0
0.0 1.1 0.0
0.4 1.1 0.0
0.8 1.1 0.0
1.2000000000000002 1.1 0.0
1.6 1.1 0.0
2.0 1.1 0.0
2.4000000000000004 1.1 0.0
2.8000000000000003 1.1 0.0
3.2 1.1 0.0
3.6 1.1 0.0
4.0 1.1 0.0
4.4 1.1 0.0
4.800000000000001 1.1 0.0
5.2 1.1 0.0
5.6000000000000005 1.1 0.0
6.0 1.1 0.0
6.4 1.1 0.0
6.800000000000001 1.1 0.0
7.2 1.1 0.0
7.6000000000000005 1.1 0.0
8.0 1.1 0.0
8.4 1.1 0.0
8.8 1.1 0.0
9.200000000000001 1.1 0.0
9.600000000000001 1.1 0.0
10.0 1.1 0.0
10.4 1.1 0.0
10.8 1.1 0.0
11.200000000000001 1.1 0.0
11.600000000000001 1.1 0.0
12.0 1.1 0.0
12.4 1.1 0.0
12.8 1.1 0.0
13.200000000000001 1.1 0.0
13.600000000000001 1.1 0.0
14.0 1.1 0.0
14.4 1.1 0.0
14.8 1.1 0.0
15.200000000000001 1.1 0.0
15.600000000000001 1.1 0.0
16.0 1.1 0.0
0.0 1.2000000000000002 0.0
0.4 1.2000000000000002 0.0
0.8 1.2000000000000002 0.0
1.2000000000000002 1.2000000000000002 0.0
1.6 1.2000000000000002 0.0
2.0 1.2000000000000002 0.0
2.4000000000000004 1.2000000000000002 0.0
2.8000000000000003 1.2000000000000002 0.0
3.2 1.2000000000000002 0.0
3.6 1.2000000000000002 0.0
4.0 1.2000000000000002 0.0
4.4 1.2000000000000002 0.0
4.800000000000001 1.2000000000000002 0.0
5.2 1.2000000000000002 0.0
5.6000000000000005 1.2000000000000002 0.0
6.0 1.2000000000000002 0.0
6.4 1.2000000000000002 0.0
6.800000000000001 1.2000000000000002 0.0
7.2 1.2000000000000002 0.0
7.6000000000000005 1.2000000000000002 0.0
8.0 1.2000000000000002 0.0
8.4 1.2000000000000002 0.0
8.8 1.2000000000000002 0.0
9.200000000000001 1.2000000000000002 0.0
9.600000000000001 1.2000000000000002 0.0
10.0 1.2000000000000002 0.0
10.4 1.2000000000000002 0.0
10.8 1.2000000000000002 0.0
11.200000000000001 1.2000000000000002 0.0
11.600000000000001 1.2000000000000002 0.0
12.0 1.2000000000000002 0.0
12.4 1.2000000000000002 0.0
12.8 1.2000000000000002 0.0
13.200000000000001 1.2000000000000002 0.0
13.600000000000001 1.2000000000000002 0.0
14.0 1.2000000000000002 0.0
14.4 1.2000000000000002 0.0
14.8 1.2000000000000002 0.0
15.200000000000001 1.2000000000000002 0.0
15.600000000000001 1.2000000000000002 0.0
16.0 1.2000000000000002 0.0
0.0 1.3 0.0
0.4 1.3 0.0
0.8 1.3 0.0
1.2000000000000002 1.3 0.0
1.6 1.3 0.0
2.0 1.3 0.0
2.4000000000000004 1.3 0.0
2.8000000000000003 1.3 0.0
3.2 1.3 0.0
3.6 1.3 0.0
4.0 1.3 0.0
4.4 1.3 0.0
4.800000000000001 1.3 0.0
5.2 1.3 0.0
5.6000000000000005 1.3 0.0
6.0 1.3 0.0
6.4 1.3 0.0
6.800000000000001 1.3 0.0
7.2 1.3 0.0
7.6000000000000005 1.3 0.0
8.0 1.3 0.0
8.4 1.3 0.0
8.8 1.3 0.0
9.200000000000001 1.3 0.0
9.600000000000001 1.3 0.0
10.0 1.3 0.0
10.4 1.3 0.0
10.8 1.3 0.0
11.200000000000001 1.3 0.0
11.600000000000001 1.3 0.0
12.0 1.3 0.0
12.4 1.3 0.0
12.8 1.3 0.0
13.200000000000001 1.3 0.0
13.600000000000001 1.3 0.0
14.0 1.3 0.0
14.4 1.3 0.0
14.8 1.3 0.0
15.200000000000001 1.3 0.0
15.600000000000001 1.3 0.0
16.0 1.3 0.0
0.0 1.4000000000000001 0.0
0.4 1.4000000000000001 0.0
0.8 1.4000000000000001 0.0
1.2000000000000002 1.4000000000000001 0.0
1.6 1.4000000000000001 0.0
2.0 1.4000000000000001 0.0
2.4000000000000004 1.4000000000000001 0.0
2.8000000000000003 1.4000000000000001 0.0
3.2 1.4000000000000001 0.0
3.6 1.4000000000000001 0.0
4.0 1.4000000000000001 0.0
4.4 1.4000000000000001 0.0
4.800000000000001 1.4000000000000001 0.0
5.2 1.4000000000000001 0.0
5.6000000000000005 1.4000000000000001 0.0
6.0 1.4000000000000001 0.0
6.4 1.4000000000000001 0.0
6.800000000000001 1.4000000000000001 0.0
7.2 1.4000000000000001 0.0
7.6000000000000005 1.4000000000000001 0.0
8.0 1.4000000000000001 0.0
8.4 1.4000000000000001 0.0
8.8 1.4000000000000001 0.0
9.200000000000001 1.4000000000000001 0.0
9.600000000000001 1.4000000000000001 0.0
10.0 1.4000000000000001 0.0
10.4 1.4000000000000001 0.0
10.8 1.4000000000000001 0.0
11.200000000000001 1.4000000000000001 0.0
11.600000000000001 1.4000000000000001 0.0
12.0 1.4000000000000001 0.0
12.4 1.4000000000000001 0.0
12.8 1.4000000000000001 0.0
13.200000000000001 1.4000000000000001 0.0
13.600000000000001 1.4000000000000001 0.0
14.0 1.4000000000000001 0.0
14.4 1.4000000000000001 0.0
14.8 1.4000000000000001 0.0
15.200000000000001 1.4000000000000001 0.0
15.600000000000001 1.4000000000000001 0.0
16.0 1.4000000000000001 0.0
0.0 1.5 0.0
0.4 1.5 0.0
0.8 1.5 0.0
1.2000000000000002 1.5 0.0
1.6 1.5 0.0
2.0 1.5 0.0
2.4000000000000004 1.5 0.0
2.8000000000000003 1.5 0.0
3.2 1.5 0.0
3.6 1.5 0.0
4.0 1.5 0.0
4.4 1.5 0.0
4.800000000000001 1.5 0.0
5.2 1.5 0.0
5.6000000000000005 1.5 0.0
6.0 1.5 0.0
6.4 1.5 0.0
6.800000000000001 1.5 0.0
7.2 1.5 0.0
7.6000000000000005 1.5 0.0
8.0 1.5 0.0
8.4 1.5 0.0
8.8 1.5 0.0
9.200000000000001 1.5 0.0
9.600000000000001 1.5 0.0
10.0 1.5 0.0
10.4 1.5 0.0
10.8 1.5 0.0
11.200000000000001 1.5 0.0
11.600000000000001 1.5 0.0
12.0 1.5 0.0
12.4 1.5 0.0
12.8 1.5 0.0
13.200000000000001 1.5 0.0
13.600000000000001 1.5 0.0
14.0 1.5 0.0
14.4 1.5 0.0
14.8 1.5 0.0
15.200000000000001 1.5 0.0
15.600000000000001 1.5 0.0
16.0 1.5 0.0
0.0 1.6 0.0
0.4 1.6 0.0
0.8 1.6 0.0
1.2000000000000002 1.6 0.0
1.6 1.6 0.0
2.0 1.6 0.0
2.4000000000000004 1.6 0.0
2.8000000000000003 1.6 0.0
3.2 1.6 0.0
3.6 1.6 0.0
4.0 1.6 0.0
4.4 1.6 0.0
4.800000000000001 1.6 0.0
5.2 1.6 0.0
5.6000000000000005 1.6 0.0
6.0 1.6 0.0
6.4 1.6 0.0
6.800000000000001 1.6 0.0
7.2 1.6 0.0
7.6000000000000005 1.6 0.0
8.0 1.6 0.0
8.4 1.6 0.0
8.8 1.6 0.0
9.200000000000001 1.6 0.0
9.600000000000001 1.6 0.0
10.0 1.6 0.0
10.4 1.6 0.0
10.8 1.6 0.0
11.200000000000001 1.6 0.0
11.600000000000001 1.6 0.0
12.0 1.6 0.0
12.4 1.6 0.0
12.8 1.6 0.0
13.200000000000001 1.6 0.0
13.600000000000001 1.6 0.0
14.0 1.6 0.0
14.4 1.6 0.0
14.8 1.6 0.0
15.200000000000001 1.6 0.0
15.600000000000001 1.6 0.0
16.0 1.6 0.0
0.0 1.7000000000000002 0.0
0.4 1.7000000000000002 0.0
0.8 1.7000000000000002 0.0
1.2000000000000002 1.7000000000000002 0.0
1.6 1.7000000000000002 0.0
2.0 1.7000000000000002 0.0
2.4000000000000004 1.7000000000000002 0.0
2.8000000000000003 1.7000000000000002 0.0
3.2 1.7000000000000002 0.0
3.6 1.7000000000000002 0.0
4.0 1.7000000000000002 0.0
4.4 1.7000000000000002 0.0
4.800000000000001 1.7000000000000002 0.0
5.2 1.7000000000000002 0.0
5.6000000000000005 1.7000000000000002 0.0
6.0 1.7000000000000002 0.0
6.4 1.7000000000000002 0.0
6.800000000000001 1.7000000000000002 0.0
7.2 1.7000000000000002 0.0
7.6000000000000005 1.7000000000000002 0.0
8.0 1.7000000000000002 0.0
8.4 1.7000000000000002 0.0
8.8 1.7000000000000002 0.0
9.200000000000001 1.7000000000000002 0.0
9.600000000000001 1.7000000000000002 0.0
10.0 1.7000000000000002 0.0
10.4 1.7000000000000002 0.0
10.8 1.7000000000000002 0.0
11.200000000000001 1.7000000000000002 0.0
11.600000000000001 1.7000000000000002 0.0
12.0 1.7000000000000002 0.0
12.4 1.7000000000000002 0.0
12.8 1.7000000000000002 0.0
13.200000000000001 1.7000000000000002 0.0
13.600000000000001 1.7000000000000002 0.0
14.0 1.7000000000000002 0.0
14.4 1.7000000000000002 0.0
14.8 1.7000000000000002 0.0
15.200000000000001 1.7000000000000002 0.0
15.600000000000001 1.7000000000000002 0.0
16.0 1.7000000000000002 0.0
0.0 1.8 0.0
0.4 1.8 0.0
0.8 1.8 0.0
1.2000000000000002 1.8 0.0
1.6 1.8 0.0
2.0 1.8 0.0
2.4000000000000004 1.8 0.0
2.8000000000000003 1.8 0.0
3.2 1.8 0.0
3.6 1.8 0.0
4.0 1.8 0.0
4.4 1.8 0.0
4.800000000000001 1.8 0.0
5.2 1.8 0.0
5.6000000000000005 1.8 0.0
6.0 1.8 0.0
6.4 1.8 0.0
6.800000000000001 1.8 0.0
7.2 1.8 0.0
7.6000000000000005 1.8 0.0
8.0 1.8 0.0
8.4 1.8 0.0
8.8 1.8 0.0
9.200000000000001 1.8 0.0
9.600000000000001 1.8 0.0
10.0 1.8 0.0
10.4 1.8 0.0
10.8 1.8 0.0
11.200000000000001 1.8 0.0
11.600000000000001 1.8 0.0
12.0 1.8 0.0
12.4 1.8 0.0
12.8 1.8 0.0
13.200000000000001 1.8 0.0
13.600000000000001 1.8 0.0
14.0 1.8 0.0
14.4 1.8 0.0
14.8 1.8 0.0
15.200000000000001 1.8 0.0
15.600000000000001 1.8 0.0
16.0 1.8 0.0
0.0 1.9000000000000001 0.0
0.4 1.9000000000000001 0.0
0.8 1.9000000000000001 0.0
1.2000000000000002 1.9000000000000001 0.0
1.6 1.9000000000000001 0.0
2.0 1.9000000000000001 0.0
2.4000000000000004 1.9000000000000001 0.0
2.8000000000000003 1.9000000000000001 0.0
3.2 1.9000000000000001 0.0
3.6 1.9000000000000001 0.0
4.0 1.9000000000000001 0.0
4.4 1.9000000000000001 0.0
4.800000000000001 1.9000000000000001 0.0
5.2 1.9000000000000001 0.0
5.6000000000000005 1.9000000000000001 0.0
6.0 1.9000000000000001 0.0
6.4 1.9000000000000001 0.0
6.800000000000001 1.9000000000000001 0.0
7.2 1.9000000000000001 0.0
7.6000000000000005 1.9000000000000001 0.0
8.0 1.9000000000000001 0.0
8.4 1.9000000000000001 0.0
8.8 1.9000000000000001 0.0
9.200000000000001 1.9000000000000001 0.0
9.600000000000001 1.9000000000000001 0.0
10.0 1.9000000000000001 0.0
10.4 1.9000000000000001 0.0
10.8 1.9000000000000001 0.0
11.200000000000001 1.9000000000000001 0.0
11.600000000000001 1.9000000000000001 0.0
12.0 1.9000000000000001 0.0
12.4 1.9000000000000001 0.0
12.8 1.9000000000000001 0.0
13.200000000000001 1.9000000000000001 0.0
13.600000000000001 1.9000000000000001 0.0
14.0 1.9000000000000001 0.0
14.4 1.9000000000000001 0.0
14.8 1.9000000000000001 0.0
15.200000000000001 1.9000000000000001 0.0
15.600000000000001 1.9000000000000001 0.0
16.0 1.9000000000000001 0.0
0.0 2.0 0.0
0.4 2.0 0.0
0.8 2.0 0.0
1.2000000000000002 2.0 0.0
1.6 2.0 0.0
2.0 2.0 0.0
2.4000000000000004 2.0 0.0
2.8000000000000003 2.0 0.0
3.2 2.0 0.0
3.6 2.0 0.0
4.0 2.0 0.0
4.4 2.0 0.0
4.800000000000001 2.0 0.0
5.2 2.0 0.0
5.6000000000000005 2.0 0.0
6.0 2.0 0.0
6.4 2.0 0.0
6.800000000000001 2.0 0.0
7.2 2.0 0.0
7.6000000000000005 2.0 0.0
8.0 2.0 0.0
8.4 2.0 0.0
8.8 2.0 0.0
9.200000000000001 2.0 0.0
9.600000000000001 2.0 0.0
10.0 2.0 0.0
10.4 2.0 0.0
10.8 2.0 0.0
11.200000000000001 2.0 0.0
11.600000000000001 2.0 0.0
12.0 2.0 0.0
12.4 2.0 0.0
12.8 2.0 0.0
13.200000000000001 2.0 0.0
13.600000000000001 2.0 0.0
14.0 2.0 0.0
14.4 2.0 0.0
14.8 2.0 0.0
15.200000000000001 2.0 0.0
15.600000000000001 2.0 0.0
16.0 2.0 0.0
CELLS 800 4000
4 0 1 42 41
4 1 2 43 42
4 2 3 44 43
4 3 4 45 44
4 4 5 46 45
4 5 6 47 46
4 6 7 48 47
4 7 8 49 48
4 8 9 50 49
4 9 10 51 50
4 10 11 52 51
4 11 12 53 52
4 12 13 54 53
4 13 14 55 54
4 14 15 56 55
4 15 16 57 56
4 16 17 58 57
4 17 18 59 58
4 18 19 60 59
4 19 20 61 60
4 20 21 62 61
4 21 22 63 62
4 22 23 64 63
4 23 24 65 64
4 24 25 66 65
4 25 26 67 66
4 26 27 68 67
4 27 28 69 68
4 28 29 70 69
4 29 30 71 70
4 30 31 72 71
4 31 32 73 72
4 32 33 74 73
4 33 34 75 74
4 34 35 76 75
4 35 36 77 76
4 36 37 78 77
4 37 38 79 78
4 38 39 80 79
4 39 40 81 80
4 41 42 83 82
4 42 43 84 83
4 43 44 85 84
4 44 45 86 85
4 45 46 87 86
4 46 47 88 87
4 47 48 89 88
4 48 49 90 89
4 49 50 91 90
4 50 51 92 91
4 51 52 93 92
4 52 53 94 93
4 53 54 95 94
4 54 55 96 95
4 55 56 97 96
4 56 57 98 97
4 57 58 99 98
4 58 59 100 99
4 59 60 101 100
4 60 61 102 101
4 61 62 103 102
4 62 63 104 103
4 63 64 105 104
4 64 65 106 105
4 65 66 107 106
4 66 67 108 107
4 67 68 109 108
4 68 69 110 109
4 69 70 111 110
4 70 71 112 111
4 71 72 113 112
4 72 73 114 113
4 73 74 115 114
4 74 75 116 115
4 75 76 117 116
4 76 77 118 117
4 77 78 119 118
4 78 79 120 119
4 79 80 121 120
4 80 81 122 121
4 82 83 124 123
4 83 84 125 124
4 84 85 126 125
4 85 86 127 126
4 86 87 128 127
4 87 88 129 128
4 88 89 130 129
4 89 90 131 130
4 90 91 132 131
4 91 92 133 132
4 92 93 134 133
4 93 94 135 134
4 94 95 136 135
4 95 96 137 136
4 96 97 138 137
4 97 98 139 138
4 98 99 140 139
4 99 100 141 140
4 100 101 142 141
4 101 102 143 142
4 102 103 144 143
4 103 104 145 144
4 104 105 146 145
4 105 106 147 146
4 106 107 148 147
4 107 108 149 148
4 108 109 150 149
4 109 110 151 150
4 110 111 152 151
4 111 112 153 152
4 112 113 154 153
4 113 114 155 154
4 114 115 156 155
4 115 116 157 156
4 116 117 158 157
4 117 118 159 158
4 118 119 160 159
4 119 120 161 160
4 120 121 162 161
4 121 122 163 162
4 123 124 165 164
4 124 125 166 165
4 125 126 167 166
4 126 127 168 167
4 127 128 169 168
4 128 129 170 169
4 129 130 171 170
4 130 131 172 171
4 131 132 173 172
4 132 133 174 173
4 133 134 175 174
4 134 135 176 175
4 135 136 177 176
4 136 137 178 177
4 137 138 179 178
4 138 139 180 179
4 139 140 181 180
4 140 141 182 181
4 141 142 183 182
4 142 143 184 183
4 143 144 185 184
4 144 145 186 185
4 145 146 187 186
4 146 147 188 187
4 147 148 189 188
4 148 149 190 189
4 149 150 191 190
4 150 151 192 191
4 151 152 193 192
4 152 153 194 193
4 153 154 195 194
4 154 155 196 195
4 155 156 197 196
4 156 157 198 197
4 157 158 199 198
4 158 159 200 199
4 159 160 201 200
4 160 161 202 201
4 161 162 203 202
4 162 163 204 203
4 164 165 206 205
4 165 166 207 206
4 166 167 208 207
4 167 168 209 208
4 168 169 210 209
4 169 170 211 210
4 170 171 212 211
4 171 172 213 212
4 172 173 214 213
4 173 174 215 214
4 174 175 216 215
4 175 176 217 216
4 176 177 218 217
4 177 178 219 218
4 178 179 220 219
4 179 180 221 220
4 180 181 222 221
4 181 182 223 222
4 182 183 224 223
4 183 184 225 224
4 184 185 226 225
4 185 186 227 226
4 186 187 228 227
4 187 188 229 228
4 188 189 230 229
4 189 190 231 230
4 190 191 232 231
4 191 192 233 232
4 192 193 234 233
4 193 194 235 234
4 194 195 236 235
4 195 196 237 236
4 196 197 238 237
4 197 198 239 238
4 198 199 240 239
4 199 200 241 240
4 200 201 242 241
4 201 202 243 242
4 202 203 244 243
4 203 204 245 244
4 205 206 247 246
4 206 207 248 247
4 207 208 249 248
4 208 209 250 249
4 209 210 251 250
4 210 211 252 251
4 211 212 253 252
4 212 213 254 253
4 213 214 255 254
4 214 215 256 255
4 215 216 257 256
4 216 217 258 257
4 217 218 259 258
4 218 219 260 259
4 219 220 261 260
4 220 221 262 261
4 221 222 263 262
4 222 223 264 263
4 223 224 265 264
4 224 225 266 265
4 225 226 267 266
4 226 227 268 267
4 227 228 269 268
4 228 229 270 269
4 229 230 271 270
4 230 231 272 271
4 231 232 273 272
4 232 233 274 273
4 233 234 275 274
4 234 235 276 275
4 235 236 277 276
4 236 237 278 277
4 237 238 279 278
4 238 239 280 279
4 239 240 281 280
4 240 241 282 281
4 241 242 283 282
4 242 243 284 283
4 243 244 285 284
4 244 245 286 285
4 246 247 288 287
4 247 248 289 288
4 248 249 290 289
4 249 250 291 290
4 250 251 292 291
4 251 252 293 292
4 252 253 294 293
4 253 254 295 294
4 254 255 296 295
4 255 256 297 296
4 256 257 298 297
4 257 258 299 298
4 258 259 300 299
4 259 260 301 300
4 260 261 302 301
4 261 262 303 302
4 262 263 304 303
4 263 264 305 304
4 264 265 306 305
4 265 266 307 306
4 266 267 308 307
4 267 268 309 308
4 268 269 310 309
4 269 270 311 310
4 270 271 312 311
4 271 272 313 312
4 272 273 314 313
4 273 274 315 314
4 274 275 316 315
4 275 276 317 316
4 276 277 318 317
4 277 278 319 318
4 278 279 320 319
4 279 280 321 320
4 280 281 322 321
4 281 282 323 322
4 282 283 324 323
4 283 284 325 324
4 284 285 326 325
4 285 286 327 326
4 287 288 329 328
4 288 289 330 329
4 289 290 331 330
4 290 291 332 331
4 291 292 333 332
4 292 293 334 333
4 293 294 335 334
4 294 295 336 335
4 295 296 337 336
4 296 297 338 337
4 297 298 339 338
4 298 299 340 339
4 299 300 341 340
4 300 301 342 341
4 301 302 343 342
4 302 303 344 343
4 303 304 345 344
4 304 305 346 345
4 305 306 347 346
4 306 307 348 347
4 307 308 349 348
4 308 309 350 349
4 309 310 351 350
4 310 311 352 351
4 311 312 353 352
4 312 313 354 353
4 313 314 355 354
4 314 315 356 355
4 315 316 357 356
4 316 317 358 357
4 317 318 359 358
4 318 319 360 359
4 319 320 361 360
4 320 321 362 361
4 321 322 363 362
4 322 323 364 363
4 323 324 365 364
4 324 325 366 365
4 325 326 367 366
4 326 327 368 367
4 328 329 370 369
4 329 330 371 370
4 330 331 372 371
4 331 332 373 372
4 332 333 374 373
4 333 334 375 374
4 334 335 376 375
4 335 336 377 376
4 336 337 378 377
4 337 338 379 378
4 338 339 380 379
4 339 340 381 380
4 340 341 382 381
4 341 342 383 382
4 342 343 384 383
4 343 344 385 384
4 344 345 386 385
4 345 346 387 386
4 346 347 388 387
4 347 348 389 388
4 348 349 390 389
4 349 350 391 390
4 350 351 392 391
4 351 352 393 392
4 352 353 394 393
4 353 354 395 394
4 354 355 396 395
4 355 356 397 396
4 356 357 398 397
4 357 358 399 398
4 358 359 400 399
4 359 360 401 400
4 360 361 402 401
4 361 362 403 402
4 362 363 404 403
4 363 364 405 404
4 364 365 406 405
4 365 366 407 406
4 366 367 408 407
4 367 368 409 408
4 369 370 411 410
4 370 371 412 411
4 371 372 413 412
4 372 373 414 413
4 373 374 415 414
4 374 375 416 415
4 375 376 417 416
4 376 377 418 417
4 377 378 419 418
4 378 379 420 419
4 379 380 421 420
4 380 381 422 421
4 381 382 423 422
4 382 383 424 423
4 383 384 425 424
4 384 385 426 425
4 385 386 427 426
4 386 387 428 427
4 387 388 429 428
4 388 389 430 429
4 389 390 431 430
4 390 391 432 431
4 391 392 433 432
4 392 393 434 433
4 393 394 435 434
4 394 395 436 435
4 395 396 437 436
4 396 397 438 437
4 397 398 439 438
4 398 399 440 439
4 399 400 441 440
4 400 401 442 441
4 401 402 443 442
4 402 403 444 443
4 403 404 445 444
4 404 405 446 445
4 405 406 447 446
4 406 407 448 447
4 407 408 449 448
4 408 409 450 449
4 410 411 452 451
4 411 412 453 452
4 412 413 454 453
4 413 414 455 454
4 414 415 456 455
4 415 416 457 456
4 416 417 458 457
4 417 418 459 458
4 418 419 460 459
4 419 420 461 460
4 420 421 462 461
4 421 422 463 462
4 422 423 464 463
4 423 424 465 464
4 424 425 466 465
4 425 426 467 466
4 426 427 468 467
4 427 428 469 468
4 428 429 470 469
4 429 430 471 470
4 430 431 472 471
4 431 432 473 472
4 432 433 474 473
4 433 434 475 474
4 434 435 476 475
4 435 436 477 476
4 436 437 478 477
4 437 438 479 478
4 438 439 480 479
4 439 440 481 480
4 440 441 482 481
4 441 442 483 482
4 442 443 484 483
4 443 444 485 484
4 444 445 486 485
4 445 446 487 486
4 446 447 488 487
4 447 448 489 488
4 448 449 490 489
4 449 450 491 490
4 451 452 493 492
4 452 453 494 493
4 453 454 495 494
4 454 455 496 495
4 455 456 497 496
4 456 457 498 497
4 457 458 499 498
4 458 459 500 499
4 459 460 501 500
4 460 461 502 501
4 461 462 503 502
4 462 463 504 503
4 463 464 505 504
4 464 465 506 505
4 465 466 507 506
4 466 467 508 507
4 467 468 509 508
4 468 469 510 509
4 469 470 511 510
4 470 471 512 511
4 471 472 513 512
4 472 473 514 513
4 473 474 515 514
4 474 475 516 515
4 475 476 517 516
4 476 477 518 517
4 477 478 519 518
4 478 479 520 519
4 479 480 521 520
4 480 481 522 521
4 481 482 523 522
4 482 483 524 523
4 483 484 525 524
4 484 485 526 525
4 485 486 527 526
4 486 487 528 527
4 487 488 529 528
4 488 489 530 529
4 489 490 531 530
4 490 491 532 531
4 492 493 534 533
4 493 494 535 534
4 494 495 536 535
4 495 496 537 536
4 496 497 538 537
4 497 498 539 538
4 498 499 540 539
4 499 500 541 540
4 500 501 542 541
4 501 502 543 542
4 502 503 544 543
4 503 504 545 544
4 504 505 546 545
4 505 506 547 546
4 506 507 548 547
4 507 508 549 548
4 508 509 550 549
4 509 510 551 550
4 510 511 552 551
4 511 512 553 552
4 512 513 554 553
4 513 514 555 554
4 514 515 556 555
4 515 516 557 556
4 516 517 558 557
4 517 518 559 558
4 518 519 560 559
4 519 520 561 560
4 520 521 562 561
4 521 522 563 562
4 522 523 564 563
4 523 524 565 564
4 524 525 566 565
4 525 526 567 566
4 526 527 568 567
4 527 528 569 568
4 528 529 570 569
4 529 530 571 570
4 530 531 572 571
4 531 532 573 572
4 533 534 575 574
4 534 535 576 575
4 535 536 577 576
4 536 537 578 577
4 537 538 579 578
4 538 539 580 579
4 539 540 581 580
4 540 541 582 581
4 541 542 583 582
4 542 543 584 583
4 543 544 585 584
4 544 545 586 585
4 545 546 587 586
4 546 547 588 587
4 547 548 589 588
4 548 549 590 589
4 549 550 591 590
4 550 551 592 591
4 551 552 593 592
4 552 553 594 593
4 553 554 595 594
4 554 555 596 595
4 555 556 597 596
4 556 557 598 597
4 557 558 599 598
4 558 559 600 599
4 559 560 601 600
4 560 561 602 601
4 561 562 603 602
4 562 563 604 603
4 563 564 605 604
4 564 565 606 605
4 565 566 607 606
4 566 567 608 607
4 567 568 609 608
4 568 569 610 609
4 569 570 611 610
4 570 571 612 611
4 571 572 613 612
4 572 573 614 613
4 574 575 616 615
4 575 576 617 616
4 576 577 618 617
4 577 578 619 618
4 578 579 620 619
4 579 580 621 620
4 580 581 622 621
4 581 582 623 622
4 582 583 624 623
4 583 584 625 624
4 584 585 626 625
4 585 586 627 626
4 586 587 628 627
4 587 588 629 628
4 588 589 630 629
4 589 590 631 630
4 590 591 632 631
4 591 592 633 632
4 592 593 634 633
4 593 594 635 634
4 594 595 636 635
4 595 596 637 636
4 596 597 638 637
4 597 598 639 638
4 598 599 640 639
4 599 600 641 640
4 600 601 642 641
4 601 602 643 642
4 602 603 644 643
4 603 604 645 644
4 604 605 646 645
4 605 606 647 646
4 606 607 648 647
4 607 608 649 648
4 608 609 650 649
4 609 610 651 650
4 610 611 652 651
4 611 612 653 652
4 612 613 654 653
4 613 614 655 654
4 615 616 657 656
4 616 617 658 657
4 617 618 659 658
4 618 619 660 659
4 619 620 661 660
4 620 621 662 661
4 621 622 663 662
4 622 623 664 663
4 623 624 665 664
4 624 625 666 665
4 625 626 667 666
4 626 627 668 667
4 627 628 669 668
4 628 629 670 669
4 629 630 671 670
4 630 631 672 671
4 631 632 673 672
4 632 633 674 673
4 633 634 675 674
4 634 635 676 675
4 635 636 677 676
4 636 637 678 677
4 637 638 679 678
4 638 639 680 679
4 639 640 681 680
4 640 641 682 681
4 641 642 683 682
4 642 643 684 683
4 643 644 685 684
4 644 645 686 685
4 645 646 687 686
4 646 647 688 687
4 647 648 689 688
4 648 649 690 689
4 649 650 691 690
4 650 651 692 691
4 651 652 693 692
4 652 653 694 693
4 653 654 695 694
4 654 655 696 695
4 656 657 698 697
4 657 658 699 698
4 658 659 700 699
4 659 660 701 700
4 660 661 702 701
4 661 662 703 702
4 662 663 704 703
4 663 664 705 704
4 664 665 706 705
4 665 666 707 706
4 666 667 708 707
4 667 668 709 708
4 668 669 710 709
4 669 670 711 710
4 670 671 712 711
4 671 672 713 712
4 672 673 714 713
4 673 674 715 714
4 674 675 716 715
4 675 676 717 716
4 676 677 718 717
4 677 678 719 718
4 678 679 720 719
4 679 680 721 720
4 680 681 722 721
4 681 682 723 722
4 682 683 724 723
4 683 684 725 724
4 684 685 726 725
4 685 686 727 726
4 686 687 728 727
4 687 688 729 728
4 688 689 730 729
4 689 690 731 730
4 690 691 732 731
4 691 692 733 732
4 692 693 734 733
4 693 694 735 734
4 694 695 736 735
4 695 696 737 736
4 697 698 739 738
4 698 699 740 739
4 699 700 741 740
4 700 701 742 741
4 701 702 743 742
4 702 703 744 743
4 703 704 745 744
4 704 705 746 745
4 705 706 747 746
4 706 707 748 747
4 707 708 749 748
4 708 709 750 749
4 709 710 751 750
4 710 711 752 751
4 711 712 753 752
4 712 713 754 753
4 713 714 755 754
4 714 715 756 755
4 715 716 757 756
4 716 717 758 757
4 717 718 759 758
4 718 719 760 759
4 719 720 761 760
4 720 721 762 761
4 721 722 763 762
4 722 723 764 763
4 723 724 765 764
4 724 725 766 765
4 725 726 767 766
4 726 727 768 767
4 727 728 769 768
4 728 729 770 769
4 729 730 771 770
4 730 731 772 771
4 731 732 773 772
4 732 733 774 773
4 733 734 775 774
4 734 735 776 775
4 735 736 777 776
4 736 737 778 777
4 738 739 780 779
4 739 740 781 780
4 740 741 782 781
4 741 742 783 782
4 742 743 784 783
4 743 744 785 784
4 744 745 786 785
4 745 746 787 786
4 746 747 788 787
4 747 748 789 788
4 748 749 790 789
4 749 750 791 790
4 750 751 792 791
4 751 752 793 792
4 752 753 794 793
4 753 754 795 794
4 754 755 796 795
4 755 756 797 796
4 756 757 798 797
4 757 758 799 798
4 758 759 800 799
4 759 760 801 800
4 760 761 802 801
4 761 762 803 802
4 762 763 804 803
4 763 764 805 804
4 764 765 806 805
4 765 766 807 806
4 766 767 808 807
4 767 768 809 808
4 768 769 810 809
4 769 770 811 810
4 770 771 812 811
4 771 772 813 812
4 772 773 814 813
4 773 774 815 814
4 774 775 816 815
4 775 776 817 816
4 776 777 818 817
4 777 778 819 818
4 779 780 821 820
4 780 781 822 821
4 781 782 823 822
4 782 783 824 823
4 783 784 825 824
4 784 785 826 825
4 785 786 827 826
4 786 787 828 827
4 787 788 829 828
4 788 789 830 829
4 789 790 831 830
4 790 791 832 831
4 791 792 833 832
4 792 793 834 833
4 793 794 835 834
4 794 795 836 835
4 795 796 837 836
4 796 797 838 837
4 797 798 839 838
4 798 799 840 839
4 799 800 841 840
4 800 801 842 841
4 801 802 843 842
4 802 803 844 843
4 803 804 845 844
4 804 805 846 845
4 805 806 847 846
4 806 807 848 847
4 807 808 849 848
4 808 809 850 849
4 809 810 851 850
4 810 811 852 851
4 811 812 853 852
4 812 813 854 853
4 813 814 855 854
4 814 815 856 855
4 815 816 857 856
4 816 817 858 857
4 817 818 859 858
4 818 819 860 859
CELL_TYPES 800
9
9
9
9
9
9
9
9
9
9
9
9
9
9
9
9
9
9
9
9
9
9
9
9
9
9
9
9
9
9
9
9
9
9
9
9
9
9
9
9
9
9
9
9
9
9
9
9
9
9
9
9
9
9
9
9
9
9
9
9
9
9
9
9
9
9
9
9
9
9
9
9
9
9
9
9
9
9
9
9
9
9
9
9
9
9
9
9
9
9
9
9
9
9
9
9
9
9
9
9
9
9
9
9
9
9
9
9
9
9
9
9
9
9
9
9
9
9
9
9
9
9
9
9
9
9
9
9
9
9
9
9
9
9
9
9
9
9
9
9
9
9
9
9
9
9
9
9
9
9
9
9
9
9
9
9
9
9
9
9
9
9
9
9
9
9
9
9
9
9
9
9
9
9
9
9
9
9
9
9
9
9
9
9
9
9
9
9
9
9
9
9
9
9
9
9
9
9
9
9
9
9
9
9
9
9
9
9
9
9
9
9
9
9
9
9
9
9
9
9
9
9
9
9
9
9
9
9
9
9
9
9
9
9
9
9
9
9
9
9
9
9
9
9
9
9
9
9
9
9
9
9
9
9
9
9
9
9
9
9
9
9
9
9
9
9
9
9
9
9
9
9
9
9
9
9
9
9
9
9
9
9
9
9
9
9
9
9
9
9
9
9
9
9
9
9
9
9
9
9
9
9
9
9
9
9
9
9
9
9
9
9
9
9
9
9
9
9
9
9
9
9
9
9
9
9
9
9
9
9
9
9
9
9
9
9
9
9
9
9
9
9
9
9
9
9
9
9
9
9
9
9
9
9
9
9
9
9
9
9
9
9
9
9
9
9
9
9
9
9
9
9
9
9
9
9
9
9
9
9
9
9
9
9
9
9
9
9
9
9
9
9
9
9
9
9
9
9
9
9
9
9
9
9
9
9
9
9
9
9
9
9
9
9
9
9
9
9
9
9
9
9
9
9
9
9
9
9
9
9
9
9
9
9
9
9
9
9
9
9
9
9
9
9
9
9
9
9
9
9
9
9
9
9
9
9
9
9
9
9
9
9
9
9
9
9
9
9
9
9
9
9
9
9
9
9
9
9
9
9
9
9
9
9
9
9
9
9
9
9
9
9
9
9
9
9
9
9
9
9
9
9
9
9
9
9
9
9
9
9
9
9
9
9
9
9
9
9
9
9
9
9
9
9
9
9
9
9
9
9
9
9
9
9
9
9
9
9
9
9
9
9
9
9
9
9
9
9
9
9
9
9
9
9
9
9
9
9
9
9
9
9
9
9
9
9
9
9
9
9
9
9
9
9
9
9
9
9
9
9
9
9
9
9
9
9
9
9
9
9
9
9
9
9
9
9
9
9
9
9
9
9
9
9
9
9
9
9
9
9
9
9
9
9
9
9
9
9
9
9
9
9
9
9
9
9
9
9
9
9
9
9
9
9
9
9
9
9
9
9
9
9
9
9
9
9
9
9
9
9
9
9
9
9
9
9
9
9
9
9
9
9
9
9
9
9
9
9
9
9
9
9
9
9
9
9
9
9
9
9
9
9
9
9
9
9
9
9
9
9
9
9
9
9
9
9
9
9
9
9
9
9
9
9
9
9
9
9
9
9
9
9
9
9
9
9
9
9
9
9
9
9
9
9
9
9
9
9
9
9
9
9
9
9
9
9
9
9
9
9
9
9
9
9
9
9
9
9
9
9
9
9
9
9
9
9
9
9
9
9
9
9
9
9
9
9
9
9
9
9
9
9
9
9
9
9
9
9
9
9
9
9
9
9
9
9
9
9
9
9
9
9
9
9
9
9
9
9
9
9
POINT_DATA 861
SCALARS Disp float 2
LOOKUP_TABLE default
0.0 0.0
0.004706744619699448 -0.15757613879087223
0.005789946209838677 -0.3074739260499611
0.006523404488981893 -0.45659743069258846
0.007415854302815445 -0.605418234103152
0.008704474307430727 -0.7536688268996692
0.010767317927356884 -0.9010092609527117
0.014017470428397847 -1.0470317733002017
0.018925809055180196 -1.1912331142717267
0.025997924481217783 -1.3329679336221127
0.03575102241543122 -1.4713722603165513
0.04872190383540961 -1.605302356786543
0.06547911810715394 -1.7333252608485137
0.08661569742064126 -1.8537690205245219
0.11274720848469902 -1.9647688097400355
0.14444108506787876 -2.064302520091091
0.18208598706979068 -2.1502316185953316
0.22572621789502492 -2.2203700271767595
0.2749102530482843 -2.2726289033977847
0.3286148873747554 -2.3052464853385857
0.3851636685266731 -2.3170120676694066
0.44171244967858825 -2.30524648533852
0.49541708400504986 -2.27262890339765
0.5446011191582927 -2.220370027176565
0.5882413499835057 -2.1502316185950865
0.6258862519853948 -2.0643025200908123
0.6575801285685519 -1.9647688097397291
0.6837116396325862 -1.8537690205241963
0.7048482189460495 -1.7333252608481797
0.7216054332177712 -1.6053023567862112
0.7345763146377295 -1.4713722603162303
0.744329412571926 -1.3329679336218094
0.75140152799795 -1.1912331142714454
0.7563098666247223 -1.047031773299947
0.759560019125756 -0.9010092609524859
0.7616228627456778 -0.7536688268994769
0.762911482750291 -0.6054182341029933
0.7638039325641239 -0.4565974306924657
0.7645373908432669 -0.3074739260498738
0.7656205924334052 -0.1575761387908221
0.7703273370531013 0.0
0.03931555904655361 -0.0020272981933014884
0.04251804058405537 -0.15774097108834279
0.0431050012430586 -0.30753559956559906
0.04376281802505771 -0.4566788641116022
0.04455778563477654 -0.6055292107431757
0.045670472687688576 -0.7538844183805774
0.04746027667031623 -0.9014256069274297
0.05032014417658098 -1.0477571564748736
0.054692146589596174 -1.1923872068497823
0.06103561921719904 -1.334671033955512
0.06980967758616051 -1.4737453766038897
0.08147952557622207 -1.6084726287326556
0.09654135631326702 -1.7374297950691477
0.11553904569971926 -1.8589538574089095
0.13903876774760454 -1.9711815466295253
0.1675721180483299 -2.0720674074697185
0.2015114902204261 -2.159411993180383
0.2409196089881914 -2.230928774677201
0.2854148756586212 -2.284397877161434
0.3340580868363012 -2.31791005907696
0.3851636685266651 -2.330034534978131
0.43626925021702617 -2.317910059076893
0.4849124613946974 -2.2843978771612967
0.5294077280651127 -2.2309287746770017
0.5688158468328597 -2.1594119931801328
0.6027552190049358 -2.072067407469434
0.6312885693056405 -1.9711815466292133
0.6547882913535046 -1.8589538574085793
0.6737859807399355 -1.7374297950688087
0.6888478114769602 -1.608472628732319
0.7005176594670035 -1.4737453766035644
0.7092917178359496 -1.3346710339552053
0.7156351904635402 -1.1923872068494983
0.7200071928765461 -1.0477571564746169
0.7228670603828045 -0.9014256069272026
0.7246568643654283 -0.7538844183803844
0.7257695514183387 -0.6055292107430169
0.7265645190280571 -0.45667886411147957
0.727222335810056 -0.3075355995655117
0.7278092964690592 -0.1577409710882924
0.7310117780065563 -0.0020272981932991244
0.07779203600368774 -0.0036152626222729434
0.08010064184356538 -0.15781885960647524
0.08044166588596124 -0.30757277908815894
0.08097987585307488 -0.45675197614127455
0.08168436860000565 -0.605621501039132
0.08263958454476716 -0.7540558925145997
0.08415862700235412 -0.9017694835905302
0.08662846399758442 -1.0483759274933495
0.09045525491033753 -1.1933921397125984
0.09605546749140896 -1.3361707263010767
0.10383252209746321 -1.475845932734026
0.11418731711979693 -1.6112834607778495
0.12754650169647325 -1.741071610254949
0.14438888561986074 -1.8635605842831504
0.16523567380297352 -1.9768893777023873
0.1905771741453901 -2.0789932502807575
0.22077396195061855 -2.1676199875754047
0.2559234307816774 -2.2403940980753903
0.2957204170183341 -2.2949750446004735
0.33930199597659694 -2.329293271302497
0.3851636685266574 -2.341749048136892
0.4310253410767151 -2.3292932713024284
0.4746069200349698 -2.2949750446003327
0.5144039062716138 -2.2403940980751873
0.5495533751026568 -2.1676199875751503
0.5797501629078675 -2.078993250280469
0.6050916632502655 -1.9768893777020708
0.6259384514333596 -1.8635605842828151
0.6427808353567281 -1.7410716102546053
0.6561400199333866 -1.6112834607775084
0.666494814955704 -1.4758459327336968
0.6742718695617446 -1.3361707263007667
0.6798720821428049 -1.1933921397123122
0.6836988730555498 -1.048375927493091
0.6861687100507743 -0.9017694835903022
0.6876877525083581 -0.7540558925144063
0.6886429684531183 -0.6056215010389732
0.6893474612000488 -0.45675197614115187
0.6898856711671624 -0.3075727790880716
0.6902266952095584 -0.15781885960642458
0.6925353010494315 -0.0036152626222681356
0.11583083345797252 -0.004883050840381922
0.11754909787466553 -0.157871216039524
0.11775835132434528 -0.3075937885187316
0.11817971356344517 -0.4568124746129544
0.11878980228021814 -0.6057009231077695
0.1196079012347967 -0.7541893055713157
0.12087060030252095 -0.9020426979765777
0.122951509664125 -1.0488893271332724
0.12622940482485934 -1.194246735310383
0.13107710006885268 -1.337464726556665
0.13784609763045086 -1.4776713896291351
0.14687579074500587 -1.6137339739595742
0.15852749120236662 -1.7442507410750527
0.17321336366073486 -1.867586933932432
0.19139261535960456 -1.9818879442160762
0.21352075461528366 -2.0850737193735687
0.23994866475960408 -2.1748488063357905
0.270809580804179 -2.2487614183452855
0.30588037654251354 -2.3043569933212207
0.3444307927145475 -2.3394184926429538
0.38516366852664996 -2.3522061294649657
0.4258965443387497 -2.3394184926428836
0.4644469605107763 -2.3043569933210777
0.49951775624909966 -2.248761418345079
0.5303786722936606 -2.1748488063355325
0.5568065824379659 -2.0850737193732756
0.5789347216936285 -1.9818879442157555
0.5971139733924818 -1.8675869339320925
0.6117998458508335 -1.7442507410747046
0.6234515463081786 -1.6137339739592294
0.6324812394227195 -1.4776713896288025
0.6392502369843055 -1.3374647265563524
0.644097932228289 -1.1942467353100945
0.647375827389016 -1.0488893271330124
0.6494567367506152 -0.9020426979763487
0.650719435818337 -0.754189305571122
0.6515375347729148 -0.6057009231076105
0.6521476234896875 -0.45681247461283175
0.6525689857287873 -0.30759378851864433
0.6527782391784671 -0.15787121603947304
0.6544965035951561 -0.004883050840374918
0.15361670421609686 -0.005900561302142102
0.1549024445880011 -0.1579145524809647
0.15503910630235648 -0.3076057338204685
0.1553603291633361 -0.4568594547148183
0.15587242726910475 -0.6057690439322574
0.15656626960767472 -0.7542943384319526
0.15760168230767208 -0.9022509826446138
0.15929847557348972 -1.0492991546694945
0.16202911404392425 -1.1949518401374661
0.1661207900877875 -1.3385523929556338
0.1718760963886924 -1.4792212723534843
0.1795775951163593 -1.6158240838108398
0.18952077774731818 -1.7469682193381202
0.20205064199741865 -1.871034152820036
0.21756690029584128 -1.9861758791378192
0.23647325065919178 -2.090305168977024
0.25911102693733484 -2.1810929660937846
0.2856520864107155 -2.256023427556736
0.31596785915125447 -2.3125420014439646
0.3494964139777527 -2.348301404582495
0.38516366852664263 -2.3614345876205793
0.4208309230755302 -2.3483014045824238
0.4543594779020217 -2.312542001443819
0.4846752506425506 -2.256023427556526
0.5112163101159195 -2.1810929660935234
0.5338540863940493 -2.0903051689767267
0.5527604367573856 -1.986175879137495
0.5682766950557941 -1.8710341528196923
0.5808065593058805 -1.7469682193377687
0.590749741936826 -1.6158240838104918
0.598451240664481 -1.4792212723531486
0.6042065469653752 -1.338552392955319
0.60829822300923 -1.194951840137176
0.6110288614796584 -1.0492991546692334
0.612725654745472 -0.9022509826443841
0.6137610674454675 -0.7542943384317586
0.6144549097840369 -0.6057690439320985
0.6149670078898053 -0.4568594547146957
0.615288230750785 -0.3076057338203812
0.6154248924651404 -0.15791455248091352
0.6167106328370412 -0.005900561302133181
0.1912346040525869 -0.0067122591415563785
0.19218841034098338 -0.15795396373259066
0.19228194439483978 -0.307613494940984
0.1925193377902674 -0.45689383943298206
0.1929317392984668 -0.6058261990257119
0.19350894824752352 -0.7543778140076868
0.19434299670414992 -0.9024052386918991
0.19568556473009155 -1.0496087230906337
0.1978694947332269 -1.195509749164352
0.20120742905379424 -1.3394351552020989
0.20594939610463328 -1.4804964522129846
0.21232385656013317 -1.6175555939319208
0.22056451474154543 -1.7492266256710594
0.23094843878296167 -1.873904982610452
0.24380699231465386 -1.989756017591219
0.2595001567912597 -2.0946878629832355
0.27834353388992944 -2.186348262033449
0.3005341186386836 -2.2621725194169415
0.32605620855731104 -2.319525598287512
0.35454365489605927 -2.3559482312422477
0.3851636685266353 -2.3694507563242384
0.4157836821572091 -2.355948231242176
0.4442711284959514 -2.3195255982873646
0.46979321841457017 -2.2621725194167293
0.49198380316331447 -2.186348262033185
0.5108271802619729 -2.0946878629829353
0.5265203447385668 -1.9897560175908917
0.5393788982702471 -1.8739049826101055
0.549762822311652 -1.7492266256707047
0.5580034804930528 -1.61755559393157
0.5643779409485429 -1.4804964522126465
0.5691199079993731 -1.3394351552017822
0.5724578423199334 -1.1955097491640603
0.5746417723230637 -1.049608723090372
0.5759843403490021 -0.902405238691669
0.5768183888056274 -0.7543778140074927
0.5773955977546837 -0.6058261990255529
0.577807999262883 -0.4568938394328594
0.5780453926583105 -0.30761349494089674
0.5781389267121668 -0.15795396373253928
0.5790927330005606 -0.0067122591415458895
0.2287304268080584 -0.007352481315051079
0.22942654981858993 -0.15799086751831762
0.22949083242409096 -0.30761957713213417
0.2296561278809619 -0.45691710433499244
0.22996981273215622 -0.6058717244943107
0.23043181950786423 -0.7544442536287601
0.2310841160321169 -0.9025175032247451
0.23210726086054717 -1.0498300103163678
0.23377158957044405 -1.1959243223220533
0.23635919332410454 -1.3401162859214633
0.24009441892975675 -1.4815000143410375
0.24514866045681907 -1.6189318574298606
0.25169717674276865 -1.7510305025757462
0.259950671869921 -1.8762049863400576
0.2701734459513135 -1.9926330438394115
0.28266582531492124 -2.0982257362470547
0.2977197682539696 -2.1906146172778365
0.31554713266797363 -2.267201772764579
0.33622864723543516 -2.3252984561387198
0.3596191802190489 -2.362355099908949
0.38516366852662776 -2.3762602367765244
0.41070815683420486 -2.362355099908876
0.43409868981781335 -2.325298456138571
0.45478020438526795 -2.2672017727643645
0.4726075687992637 -2.19061461727757
0.4876615117383028 -2.0982257362467522
0.5001538911019007 -1.9926330438390816
0.510376665183284 -1.876204986339709
0.5186301603104274 -1.7510305025753894
0.525178676596368 -1.6189318574295073
0.5302329181234223 -1.4815000143406978
0.5339681437290674 -1.3401162859211448
0.5365557474827223 -1.1959243223217606
0.5382200761926154 -1.0498300103161051
0.5392432210210434 -0.9025175032245146
0.5398955175452953 -0.7544442536285662
0.540357524321003 -0.6058717244941516
0.5406712091721971 -0.4569171043348699
0.5408365046290681 -0.30761957713204685
0.5409007872345689 -0.15799086751826616
0.5415969102450985 -0.0073524813150392995
0.26613551533342644 -0.007848424398828041
0.2666312692216329 -0.15802658910304135
0.26667169638405896 -0.3076245468283516
0.26677194405313087 -0.4569306791410591
0.26698937492056823 -0.605904799265807
0.267332424711793 -0.7544962226561363
0.26782084013954394 -0.9025963885697871
0.26855537176783545 -1.0499783300113334
0.269740825385302 -1.1962074671475542
0.2716043553416464 -1.3406017181426506
0.2743420840356135 -1.4822372197348888
0.27808713441220545 -1.6199584028802256
0.28295978805558525 -1.752386608436736
0.2891057819088162 -1.8779423189174587
0.2967194170164558 -1.994815916073254
0.30603981451888035 -2.1009255955382304
0.31732104302890685 -2.193895339314902
0.33077776449575697 -2.27110750478368
0.34657281598362616 -2.329847188124481
0.36477680559237735 -2.367506890891778
0.3851636685266198 -2.381857333768707
0.4055505314608614 -2.3675068908917027
0.42375452106960837 -2.329847188124331
0.4395495725574719 -2.271107504783464
0.45300629402431547 -2.1938953393146337
0.4642875225343348 -2.100925595537926
0.47360792003675195 -1.994815916072922
0.48122155514438486 -1.8779423189171083
0.48736754899760937 -1.7523866084363775
0.4922402026409825 -1.6199584028798704
0.49598525301756846 -1.4822372197345475
0.49872298171153023 -1.3406017181423309
0.5005865116678707 -1.1962074671472607
0.5017719652853346 -1.04997833001107
0.5025064969136247 -0.9025963885695567
0.5029949123413752 -0.7544962226559422
0.5033379621325997 -0.6059047992656479
0.5035553930000369 -0.45693067914093644
0.5036556406691088 -0.30762454682826434
0.5036960678315348 -0.1580265891029898
0.5041918217197398 -0.007848424398815236
0.30346763291764056 -0.008226643071240027
0.3038160029794138 -0.15806211288733144
0.3038297540095041 -0.3076277631016001
0.30386946218482785 -0.4569356526999757
0.3039938958944983 -0.6059252164195161
0.30421434047978557 -0.754533025107924
0.3045412369408126 -0.9026508846261907
0.3050217190471619 -1.0500692366917561
0.30577292321821786 -1.1963780932550232
0.3069580582205706 -1.3409058057923424
0.3087268569810082 -1.4827175009217983
0.3111817582175018 -1.6206443236899781
0.3143973640976977 -1.7533049588639322
0.3184631608582966 -1.8791287874759413
0.3235038617025617 -1.996317369223644
0.3296891686538227 -2.1027990531556506
0.33722415932544003 -2.196198870620867
0.34632446623268953 -2.2738900850361774
0.3571920493654946 -2.3331564240938096
0.37008195003913047 -2.3713768194214984
0.3851636685266117 -2.386224283830989
0.40024538701409235 -2.3713768194214238
0.41313528768772556 -2.3331564240936586
0.4240028708205264 -2.2738900850359602
0.4331031777277712 -2.1961988706205977
0.4406381683993837 -2.1027990531553447
0.44682347535063993 -1.9963173692233105
0.45186417619490077 -1.8791287874755893
0.4559299729554957 -1.7533049588635723
0.45914557883568735 -1.6206443236896215
0.46160048007217697 -1.4827175009214562
0.46336927883261114 -1.3409058057920218
0.46455441383496143 -1.1963780932547292
0.46530561800601594 -1.0500692366914925
0.46578610011236443 -0.9026508846259604
0.4661129965733912 -0.7545330251077299
0.46633344115867836 -0.605925216419357
0.4664578748683487 -0.456935652699853
0.46649758304367245 -0.30762776310151274
0.46651133407376255 -0.1580621128872799
0.46685970413553496 -0.008226643071226478
0.340738427679077 -0.00851498222655503
0.3409850859726446 -0.15809873634470614
0.34097024885125343 -0.30762794222112844
0.34095234049271783 -0.4569328570387338
0.3409868388327067 -0.6059332014098532
0.3410836046873055 -0.7545533234912558
0.341243782659219 -0.9026836916215676
0.3414851212796812 -1.0501196423429524
0.3418515453138496 -1.196462097419349
0.3424200903886606 -1.3410546875246316
0.34327195600943794 -1.4829623382915815
0.344473631018272 -1.6210075628898395
0.3460591145873303 -1.7538026936158386
0.3480725655258137 -1.8797830542503833
0.3505783132331923 -1.9971576370588848
0.35367032939511966 -2.103865359235551
0.35749136284917626 -2.197540064743884
0.36224512286516514 -2.2755607376191236
0.36818996799953707 -2.335217815623384
0.3756358103675542 -2.373925835451086
0.3851636685266034 -2.389325685882423
0.39469152668565216 -2.373925835451011
0.4021373690536682 -2.3352178156232326
0.40808221418803753 -2.275560737618905
0.4128359742040237 -2.197540064743614
0.41665700765807806 -2.103865359235244
0.41974902382000323 -1.9971576370585506
0.42225477152738 -1.879783054250031
0.42426822246586193 -1.7538026936154785
0.4258537060349185 -1.6210075628894824
0.4270553810437507 -1.4829623382912385
0.4279072466645267 -1.3410546875243106
0.42847579173933675 -1.1964620974190545
0.4288422157735045 -1.0501196423426884
0.4290835543939664 -0.9026836916213373
0.4292437323658798 -0.7545533234910619
0.4293404982204787 -0.6059332014096942
0.42937499656046757 -0.45693285703861103
0.42935708820193186 -0.307627942221041
0.42934225108054064 -0.15809873634465466
0.4295889093741077 -0.00851498222654095
0.37796353029450647 -0.00873590573680424
0.3781385688873869 -0.15813689796279926
0.3780977268727115 -0.30762435071025634
0.37802479896420177 -0.45692282038489834
0.37797236998334155 -0.6059290334904734
0.37794623730922433 -0.7545567656049852
0.37793669185639345 -0.9026938706538038
0.3779343836605147 -1.0501363149978515
0.3779341384298777 -1.1964880860255196
0.3779344343740884 -1.3410959896861643
0.37793463759663937 -1.483025875320574
0.3779348797577588 -1.6211013462328223
0.3779325621619153 -1.7539318999440303
0.37792559847031454 -1.8799539960575868
0.37791403941526264 -1.997384301748477
0.3779210798171502 -2.1041690219674356
0.37803036521142536 -2.19795812577746
0.3784392773985947 -2.2761535029682367
0.3794729897262481 -2.3360639689034057
0.38151073297343613 -2.3751288372635533
0.38516366852659467 -2.3911115808010526
0.38881660407975355 -2.375128837263478
0.3908543473269412 -2.336063968903254
0.3918880596545938 -2.2761535029680178
0.39229697184176304 -2.19795812577719
0.39240625723603895 -2.104169021967128
0.39241329763792687 -1.9973843017481427
0.3924017385828757 -1.8799539960572345
0.3923947748912758 -1.75393189994367
0.3923924572954332 -1.6211013462324653
0.3923926994565532 -1.4830258753202308
0.39239290267910476 -1.3410959896858434
0.39239319862331573 -1.196488086025225
0.392392953392679 -1.0501363149975877
0.3923906451968003 -0.9026938706535734
0.3923810997439695 -0.7545567656047912
0.39235496706985246 -0.6059290334903145
0.39230253808899235 -0.45692282038477555
0.3922296101804827 -0.30762435071016886
0.3921887681658073 -0.15813689796274777
0.39236380675868743 -0.008735905736789864
0.4151542555908719 -0.008908313465371577
0.4152804509203912 -0.158174225803683
0.41521601573233724 -0.30761731344039533
0.41509138444555155 -0.4569058091519697
0.4149549750077478 -0.6059131805634419
0.4148080240713895 -0.7545434450853283
0.4146298021900896 -0.9026809596789973
0.4143834406401512 -1.0501191444039835
0.41401668406927145 -1.1964621923518883
0.4134487625075631 -1.3410547371106825
0.41259786128431036 -1.4829626199228187
0.4113963306059366 -1.6210071011858884
0.40980605888661303 -1.753800899111757
0.40777807695430984 -1.8797787553685874
0.40524988307053594 -1.9971546026865692
0.40217332004575895 -2.103884466110075
0.3985641725033503 -2.1976397481029415
0.39457131283649344 -2.2758559590918983
0.3905228112840772 -2.3358625469260006
0.3869389259668119 -2.375096653312399
0.3851636685265861 -2.3916971268118705
0.38338841108635996 -2.3750966533123234
0.3798045257690945 -2.3358625469258487
0.3757560242166802 -2.27585595909168
0.3717631645498264 -2.197639748102672
0.3681540170074216 -2.103884466109768
0.36507745398264746 -1.997154602686235
0.3625492600988766 -1.8797787553682355
0.3605212781665767 -1.7538008991113974
0.35893100644725684 -1.6210071011855316
0.35772947576888603 -1.482962619922476
0.35687857454563604 -1.3410547371103616
0.3563106529839292 -1.196462192351594
0.3559438964130503 -1.0501191444037197
0.3556975348631125 -0.9026809596787667
0.355519312981813 -0.7545434450851344
0.35537236204545497 -0.6059131805632829
0.3552359526076513 -0.45690580915184703
0.3551113213208658 -0.30761731344030785
0.3550468861328119 -0.15817422580363155
0.355173081462331 -0.008908313465356987
0.45232661921417994 -0.009041309344872859
0.4524155005895903 -0.15820885442324373
0.4523296234893176 -0.307607037281206
0.4521565644406069 -0.4568821806541586
0.45193943971477857 -0.6058862316978104
0.4516747170850945 -0.7545136669565347
0.45133106289448177 -0.9026454649662262
0.45084658104077113 -1.050068269743089
0.45009511355145676 -1.1963782866934598
0.448911158767254 -1.3409060934765167
0.4471431903578402 -1.4827178523451863
0.4446878917168537 -1.6206433115457926
0.4414681937338513 -1.753300843841276
0.4373897720960262 -1.879119631551007
0.43232849461219885 -1.9963108650048407
0.42615462808454746 -2.1028374576865527
0.41880744240291995 -2.1963971574255123
0.410386342885449 -2.27447037948757
0.40123981697845773 -2.334443653186702
0.3922455872401591 -2.3739203788173753
0.3851636685265778 -2.391237119119176
0.37808174981299614 -2.3739203788173
0.36908752007469825 -2.3344436531865504
0.3599409941677106 -2.274470379487352
0.351519894650245 -2.196397157425244
0.34417270896862423 -2.102837457686247
0.3379988424409783 -1.9963108650045074
0.3329375649571563 -1.8791196315506562
0.328859143319337 -1.7533008438409174
0.3256394453363408 -1.6206433115454366
0.32318414669535955 -1.4827178523448443
0.3214161782859504 -1.3409060934761967
0.32023222350175085 -1.1963782866931654
0.31948075601243836 -1.0500682697428254
0.3189962741587287 -0.9026454649659957
0.31865261996811656 -0.7545136669563408
0.3183878973384328 -0.6058862316976512
0.31817077261260474 -0.45688218065403596
0.3179977135638942 -0.3076070372811185
0.3179118364636216 -0.15820885442319232
0.3180007178390319 -0.009041309344858117
0.48949278065310897 -0.009140618286216004
0.4895496161632335 -0.15823920029054575
0.4894434367547336 -0.3075936090283654
0.4892249479789157 -0.4568523813734105
0.4889307802890523 -0.6058487633970299
0.4885524543936382 -0.7544684580711263
0.48805055055998325 -0.9025882315929951
0.4873120313505365 -1.0499769478073289
0.48612753500533795 -1.1962079431915287
0.4842653906841052 -1.3406023003288483
0.48152796608144294 -1.482237502721803
0.47778205170440124 -1.6199568549389103
0.47290690596719 -1.752380748922761
0.46675403565852175 -1.8779294335388617
0.4591278478181393 -1.9948063713374937
0.44981373042805006 -2.100978688005183
0.4386617351833131 -2.194173855313654
0.4257210223632704 -2.271930539827893
0.41146260898308606 -2.331754812694572
0.3971020597270296 -2.3714504701377916
0.38516366852656947 -2.389744408127283
0.37322527732610955 -2.3714504701377157
0.3588647280700549 -2.331754812694421
0.34460631468987596 -2.2719305398276766
0.33166560186984057 -2.1941738553133874
0.32051360662511247 -2.1009786880048793
0.31119948923503143 -1.9948063713371618
0.30357330139465666 -1.8779294335385122
0.29742043108599686 -1.7523807489224041
0.29254528534879387 -1.6199568549385561
0.28879937097175984 -1.4822375027214625
0.2860619463691043 -1.3406023003285292
0.28419980204787637 -1.1962079431912351
0.2830153057026807 -1.0499769478070653
0.28227678649323573 -0.9025882315927647
0.28177488265958145 -0.7544684580709323
0.28139655676416786 -0.6058487633968709
0.28110238907430474 -0.45685238137328776
0.280883900298487 -0.307593609028278
0.2807777208899872 -0.1582392002904943
0.2808345564001117 -0.009140618286201148
0.5266604943733195 -0.009211314410954288
0.5266888125017513 -0.15826397745297335
0.5265624933245551 -0.30757697190556543
0.5263011772688518 -0.4568168300662588
0.5259332959970553 -0.6058016173296862
0.5254484650572052 -0.754409178426967
0.5247847378559156 -0.9025064867196437
0.5237601883390722 -1.0498285404793664
0.5220975401908079 -1.19592527297107
0.5195110232859491 -1.3401170627319725
0.5157753475564809 -1.481500052664514
0.5107199810587014 -1.6189298621483719
0.5041711979405402 -1.7510239817620232
0.49592001025639293 -1.8761910299128317
0.48570021644864037 -1.9926225213676991
0.47321076479625873 -2.098286085850932
0.4582038235830489 -2.190941374558571
0.440700763135344 -2.268214857643793
0.42132049110579517 -2.327782883783051
0.40170909637292995 -2.3677318900252087
0.38516366852656136 -2.3872668050070853
0.3686182406801934 -2.3677318900251336
0.34900684594733156 -2.327782883782901
0.3296265739177896 -2.2682148576435783
0.31212351347009387 -2.190941374558306
0.29711657225689475 -2.09828608585063
0.28462712060452394 -1.9926225213673694
0.2744073267967815 -1.8761910299124844
0.26615613911264485 -1.7510239817616686
0.25960735599449425 -1.6189298621480197
0.2545519894967246 -1.4815000526641753
0.250816313767265 -1.340117062731655
0.24822979686241262 -1.1959252729707774
0.24656714871415247 -1.0498285404791037
0.2455425991973117 -0.9025064867194135
0.24487887199602318 -0.7544091784267731
0.24439404105617363 -0.6058016173295272
0.24402615978437753 -0.45681683006613605
0.24376484372867435 -0.30757697190547806
0.24363852455147839 -0.1582639774529219
0.24366684267991015 -0.009211314410939347
0.5638353056355068 -0.009258166407921901
0.5638384188199307 -0.1582823543493254
0.5636919434788845 -0.30755696130933663
0.5633899841451654 -0.45677593522614957
0.5629525763640764 -0.6057458279436427
0.5623664917271841 -0.7543367729242958
0.5615252669222436 -0.9023919083747525
0.5601827174522166 -1.0496075738521826
0.5580007205065084 -1.1955111848395894
0.5546630559080038 -1.3394359363189579
0.5499200532673121 -1.4804961221891928
0.543544401448737 -1.6175533005172418
0.535306138035288 -1.7492208089327714
0.5249352256866873 -1.8738937023692945
0.5120997318181348 -1.9897482933796014
0.49641259493130424 -2.0947476229581308
0.47754421199415853 -2.1866892883873796
0.45549098122472037 -2.2633164740016105
0.4310259551872023 -2.3225350335553197
0.4062532996832817 -2.362794964506495
0.3851636685265535 -2.3838225316680366
0.3640740373698262 -2.3627949645064206
0.33930138186591036 -2.3225350335551713
0.31483635582840075 -2.263316474001398
0.29278312505897325 -2.186689288387118
0.2739147421218406 -2.094747622957832
0.2582276052350228 -1.9897482933792743
0.24539211136648317 -1.8738937023689504
0.23502119901789537 -1.7492208089324197
0.22678293560445933 -1.6175533005168925
0.22040728378589597 -1.4804961221888568
0.2156642811452146 -1.339435936318642
0.21232661654671808 -1.1955111848392983
0.2101446196010155 -1.0496075738519206
0.20880207013099203 -0.9023919083745225
0.20796084532605297 -0.754336772924102
0.20737476068916133 -0.6057458279434839
0.20693735290807264 -0.45677593522602694
0.2066353935743539 -0.3075569613092493
0.20648891823330784 -0.15828235434927393
0.20649203141773168 -0.009258166407906927
0.6010212347589902 -0.009285833471404005
0.6010029550084101 -0.15829396486692907
0.6008368976689461 -0.3075334090036337
0.6004961995785414 -0.45673010513973067
0.5999931467335449 -0.6056824934552881
0.5993035284023575 -0.7542485165466525
0.5982671638655039 -0.9022361526073316
0.5965719433520115 -1.0492985618128852
0.5938420654745454 -1.194953534599047
0.5897497291803102 -1.3385529881465785
0.5839929708646112 -1.4792205144514554
0.5762907630143749 -1.615821755929899
0.5663530485231204 -1.746964523889801
0.5538456954819694 -1.8710293416633164
0.5383712766323319 -1.9861758060065677
0.5194878611574326 -2.090361141944323
0.4967948571049401 -2.1814219170115523
0.4702564334420746 -2.2572438615168435
0.44078187791969414 -2.31602342545674
0.41087185962465195 -2.3566433014246737
0.38516366852654554 -2.3793949374253702
0.3594554774284409 -2.3566433014246
0.32954545913340466 -2.3160234254565935
0.3000709036110342 -2.257243861516633
0.27353247994818136 -2.1814219170112934
0.25083947589570366 -2.090361141944028
0.2319560604208196 -1.9861758060062438
0.21648164157119715 -1.8710293416629753
0.20397428853006125 -1.7469645238894527
0.19403657403882213 -1.6158217559295531
0.18633436618859947 -1.4792205144511223
0.18057760787291252 -1.3385529881462652
0.17648527157868682 -1.1949535345987579
0.17375539370122767 -1.0492985618126243
0.1720601731877397 -0.9022361526071023
0.1710238086508883 -0.7542485165464587
0.17033419031970165 -0.6056824934551293
0.1698311374747056 -0.45673010513960816
0.16949043938430106 -0.30753340900354637
0.16932438204483732 -0.1582939648668776
0.16930610229425716 -0.009285833471388987
0.6382208869749277 -0.009299007467999275
0.6381861203671539 -0.1582988862835042
0.6380024255187806 -0.30750629036987676
0.6376249723213074 -0.45667969243969814
0.6370583726568204 -0.6056123874539665
0.6362584520353411 -0.7541409304628479
0.63500166881257 -0.9020277244295646
0.6329215239308362 -1.0488889863905326
0.6296425093801874 -1.194248337767178
0.6247932150446407 -1.3374649831480632
0.6180226539588608 -1.4776702454181703
0.6089933606785953 -1.6137320471392758
0.5973505272815859 -1.7442504541661474
0.5826935945310814 -1.8675913232570376
0.5645687028845465 -1.9819004060261272
0.5424928618637809 -2.085131007109567
0.5160503634117907 -2.175158281832508
0.4851692000552968 -2.2500224901848034
0.4507893856231902 -2.308257933389462
0.41569369205912016 -2.3492534632248976
0.38516366852653783 -2.3739362564301456
0.3546336449939575 -2.3492534632248248
0.31953795142989455 -2.308257933389317
0.2851581369977996 -2.250022490184596
0.25427697364132057 -2.175158281832253
0.22783447518934713 -2.085131007109275
0.20575863416859858 -1.981900406025807
0.18763374252208137 -1.8675913232567
0.1729768097715943 -1.744250454165803
0.1613339763746023 -1.6137320471389336
0.1523046830943527 -1.477670245417841
0.14553412200858643 -1.3374649831477525
0.1406848276730506 -1.1942483377668909
0.13740581312240982 -1.048888986390273
0.1353256682406815 -0.902027724429336
0.13406888501791311 -0.7541409304626545
0.13326896439643499 -0.6056123874538077
0.13270236473194835 -0.4566796924395756
0.13232491153447556 -0.3075062903697895
0.13214121668610224 -0.15829888628345276
0.13210645007832852 -0.009299007467984233
0.6754352128203917 -0.00930247924148338
0.675390719312049 -0.1582977060201265
0.6751938911412799 -0.30747579768709615
0.6747815426427102 -0.4566251486545398
0.6741506948759542 -0.6055346259433865
0.6732274762496276 -0.7540084724264744
0.6717185890294851 -0.9017550120968653
0.6692472186550539 -1.048375166923913
0.6654170635267859 -1.1933932786350456
0.6598145303197211 -1.336170544434247
0.6520360728183583 -1.4758445512590068
0.6416833340672585 -1.6112825260128416
0.6283363928909181 -1.741075771850509
0.6115263031279298 -1.8635754926047643
0.590739313759563 -1.9769180061172291
0.5654822628812946 -2.079064451065313
0.5353814675596155 -2.1679323654599196
0.5003781792888435 -2.2416976720474877
0.46126118062526456 -2.2992489463014927
0.4208876498026778 -2.340574400332606
0.38516366852652983 -2.367359714302553
0.34943968725038443 -2.340574400332534
0.3090661564278061 -2.2992489463013506
0.2699491577642406 -2.2416976720472834
0.23494586949348564 -2.1679323654596687
0.2048450741718254 -2.0790644510650256
0.17958802329357618 -1.9769180061169138
0.15880103392522918 -1.8635754926044317
0.14199094416226085 -1.7410757718501693
0.12864400298594011 -1.6112825260125037
0.11829126423485804 -1.475844551258681
0.11051280673351024 -1.3361705444339393
0.10491027352645771 -1.1933932786347607
0.10108011839819907 -1.0483751669236552
0.09860874802377415 -0.9017550120966374
0.09709986080363517 -0.7540084724262813
0.09617664217731006 -0.6055346259432278
0.09554579441055457 -0.4566251486544174
0.09513344591198515 -0.30747579768700894
0.09493661774121624 -0.1582977060200751
0.09489212423287356 -0.009302479241468337
0.7126628420153435 -0.00930112986564822
0.7126185900784758 -0.158291700624313
0.7124174404772903 -0.3074425803438488
0.7119715944234055 -0.45656647569800013
0.7112707131588514 -0.6054476248780479
0.7102013771132947 -0.7538411214007285
0.7084225582318285 -0.9014114599318873
0.7055576117173099 -1.0477551697187972
0.70118045506327 -1.1923875645251716
0.6948340669194091 -1.334670357641591
0.6860589739714266 -1.4737439898704365
0.6743930961829031 -1.6084733506567181
0.6593465319125341 -1.73743917188029
0.6403825525550063 -1.8589795833385026
0.6169444897950609 -1.971228569060848
0.5885257494436502 -2.0721683025282815
0.5548228617635474 -2.1597761007516025
0.5159182396784616 -2.2323465548301247
0.47249314936398706 -2.2890341367537697
0.42673971509777886 -2.330517784669603
0.38516366852652173 -2.3595133328898052
0.34358762195526754 -2.330517784669533
0.29783418768906894 -2.2890341367536298
0.25440909737460987 -2.2323465548299244
0.21550447528954367 -2.1597761007513565
0.18180158760946172 -2.0721683025279987
0.15338284725807244 -1.9712285690605378
0.12994478449814928 -1.8589795833381744
0.1109808051406438 -1.7374391718799553
0.0959342408702967 -1.6084733506563846
0.08426836308179277 -1.473743989870115
0.07549327013382671 -1.3346703576412868
0.06914688198997938 -1.1923875645248891
0.06476972533594984 -1.0477551697185412
0.06190477882143843 -0.9014114599316607
0.06012595993997659 -0.7538411214005358
0.059056623894421734 -0.6054476248778895
0.0583557426298681 -0.4565664756978777
0.05790989657598361 -0.3074425803437616
0.05770874697479827 -0.15829170062426162
0.057664495037930724 -0.00930112986563318
0.7498987388352004 -0.009299753398132733
0.7498705785880626 -0.15828336003061017
0.7496809930219229 -0.3074078146212944
0.7492013480397253 -0.45650320527642885
0.748415475842099 -0.6053464885773843
0.7471759893704634 -0.7536321269835389
0.7451200239628418 -0.9009941964812962
0.7418619607400657 -1.0470280906656284
0.7369471328370145 -1.191232410216972
0.7298715284672246 -1.3329667337596751
0.7201179269417373 -1.4713711391061077
0.7071527715171688 -1.6053053567569575
0.6904132978283768 -1.7333404233026486
0.6693116709138811 -1.8538055658636539
0.6432450251559141 -1.964836252939731
0.6116980792661738 -2.0644492575473934
0.5744304064276987 -2.1507063470931698
0.5317073159967031 -2.222036574676707
0.48447359807651746 -2.277779562425152
0.4342700094100413 -2.318998557900202
0.38516366852651346 -2.3499999999999996
0.33605732764298846 -2.3189985579001333
0.28585373897652294 -2.2777795624250157
0.2386200210563556 -2.2220365746765105
0.19589693062538222 -2.150706347092929
0.15862925778693 -2.0644492575471163
0.12708231189721345 -1.964836252939426
0.10101566613927139 -1.8538055658633317
0.0799140392248003 -1.7333404233023197
0.06317456553603222 -1.605305356756629
0.050209410111485234 -1.471371139105791
0.04045580858601569 -1.3329667337593745
0.03338020421624076 -1.1912324102166927
0.028465376313200813 -1.0470280906653746
0.025207313090432837 -0.9009941964810712
0.023151347682816303 -0.7536321269833468
0.021911861211182874 -0.6053464885772261
0.021125989013557292 -0.45650320527630645
0.020646344031360068 -0.30740781462120714
0.020456758465220465 -0.15828336003055885
0.020428598218082704 -0.009299753398117677
SCALARS Stress float 6
LOOKUP_TABLE default
-1050.601979468071 -1836.3961191788085 -1366.0620932362376 -12.474767769806594 0.0 0.0
1217.7510512482847 705.6139455758254 871.1898969723703 -24.68663556911813 0.0 0.0
532.3686725390102 101.08269866094118 193.59346891181403 -36.292035874128 0.0 0.0
450.7119938550671 17.031658760001243 141.28181042668507 -3.4172650790061327 0.0 0.0
557.2787303399134 50.969729617344164 200.03697645496663 0.1935187622509682 0.0 0.0
644.3123821097206 84.51514181047182 287.8798368770544 0.859294490333872 0.0 0.0
743.9296478625904 112.68776437447224 382.2752897776251 0.35635377203095286 0.0 0.0
841.2112019524153 156.38055943283675 474.5493201438722 -0.4948041148185094 0.0 0.0
943.3059728542453 211.29149685228973 562.723423028097 -1.6000961824408755 0.0 0.0
1058.013782065661 283.1023539089563 659.1405471865626 -2.8335906794322505 0.0 0.0
1189.8018183720665 375.2542752725238 771.8495660331165 -4.087098364103775 0.0 0.0
1338.4450695041728 487.8937135121052 902.3612937486698 -5.242957872006096 0.0 0.0
1499.940115784088 614.8914165021876 1046.1183553125984 -5.981889248824848 0.0 0.0
1669.1346695663174 751.0108829657588 1198.22651149502 -6.603435064117705 0.0 0.0
1838.09612384919 888.3109763719575 1350.7757318547106 -7.061538654416893 0.0 0.0
1998.2680181228347 1018.5933749027267 1495.4383295200107 -7.326151533216175 0.0 0.0
2141.7241269338974 1134.8075528739068 1624.8034119042268 -7.250913910143016 0.0 0.0
2260.310367277182 1229.821047921577 1731.297319153555 -6.67305349192471 0.0 0.0
2349.5106839999034 1300.154400306113 1810.8845222808206 -5.5542812038425415 0.0 0.0
2399.311819077055 1337.0140328927178 1854.1901301521557 -5.307702515661349 0.0 0.0
2394.9109604596792 1329.9418299329495 1848.787105878904 -5.4569682106375694e-12 0.0 0.0
2399.3118190762675 1337.014032891938 1854.190130151419 5.307702515650561 0.0 0.0
2349.510683998029 1300.1544003042786 1810.8845222792572 5.5542812038818585 0.0 0.0
2260.3103672771954 1229.821047921675 1731.2973191533358 6.673053491886151 0.0 0.0
2141.7241269318183 1134.8075528719037 1624.8034119025695 7.250913910182556 0.0 0.0
1998.268018122768 1018.5933749027714 1495.4383295197838 7.326151533202317 0.0 0.0
1838.0961238482414 888.310976371142 1350.7757318538456 7.061538654360371 0.0 0.0
1669.134669564214 751.0108829637869 1198.2265114934346 6.603435064064168 0.0 0.0
1499.9401157832908 614.8914165015699 1046.1183553118801 5.981889248753731 0.0 0.0
1338.4450695027633 487.89371351088613 902.3612937475605 5.242957872112921 0.0 0.0
1189.8018183715149 375.2542752721837 771.8495660325975 4.087098364034615 0.0 0.0
1058.0137820650475 283.10235390858605 659.1405471860409 2.833590679375156 0.0 0.0
943.3059728537045 211.29149685199104 562.7234230276222 1.6000961825427549 0.0 0.0
841.2112019523754 156.38055943307623 474.5493201436915 0.4948041148323927 0.0 0.0
743.929647862171 112.68776437432672 382.27528977717094 -0.35635377203672114 0.0 0.0
644.3123821095245 84.51514181061597 287.87983687676797 -0.8592944902458708 0.0 0.0
557.278730339174 50.96972961673998 200.03697645447537 -0.19351876219744213 0.0 0.0
450.71199385469 17.031658759686792 141.28181042648262 3.417265078940373 0.0 0.0
532.368672538739 101.08269866084473 193.5934689116823 36.29203587410318 0.0 0.0
1217.751051247869 705.6139455754256 871.1898969718177 24.686635569136598 0.0 0.0
-1050.6019794655242 -1836.396119176266 -1366.0620932336824 12.474767769246963 0.0 0.0
-1338.8712532264938 -2093.810456328584 -1602.3729242500756 -11.546251191868564 0.0 0.0
824.4709673870071 394.80402654132695 542.3243398798043 -36.06720512587133 0.0 0.0
368.4246130566864 40.932089278389086 121.49660279668272 -29.517283557206966 0.0 0.0
399.5358259851038 1.6439036692800373 120.44689345394377 -16.455937713077333 0.0 0.0
496.91674646252466 21.757070162529285 165.44300756925747 -15.084928189254747 0.0 0.0
584.7967419841191 29.152461751871513 232.44365614990656 -18.836263840713993 0.0 0.0
657.0172883237362 40.22157900887695 308.24921867867147 -21.113427923638117 0.0 0.0
728.2876048154247 55.95307900283532 375.29253286182006 -21.95138566750311 0.0 0.0
795.3633701011166 75.10158433743439 429.1433437686244 -22.205845068014305 0.0 0.0
862.7953061885853 99.79891912447627 478.8809501302944 -22.393849439908696 0.0 0.0
932.523911269518 130.53764105244142 530.1988783803768 -22.351610833514222 0.0 0.0
1004.5080945681203 165.88598754782402 584.1451440596704 -22.1104527912233 0.0 0.0
1076.7189871556081 204.86403873549563 639.7435352058782 -21.580779629594325 0.0 0.0
1146.6712233450014 242.06645654709888 693.235069996899 -20.96388940220539 0.0 0.0
1208.1031450893404 272.2224683781876 738.9246985358533 -20.36238814163427 0.0 0.0
1256.0182084787518 290.622767279854 771.9850955884347 -19.57559660274729 0.0 0.0
1287.0983972721565 294.6728196677586 789.4881702911897 -18.328414758308114 0.0 0.0
1301.6050568345595 285.6244077064899 792.2091877559587 -16.40539599516296 0.0 0.0
1299.9393292595882 265.04581538023365 781.2105037066651 -13.853935484392261 0.0 0.0
1266.1196926149883 218.35004255252778 741.5608975816216 -11.760803059374282 0.0 0.0
1204.7954219022392 154.6265379115235 680.1039844252937 1.3633538742396922e-11 0.0 0.0
1266.119692614619 218.35004255217427 741.5608975813428 11.760803059384532 0.0 0.0
1299.9393292597226 265.0458153804458 781.2105037066392 13.853935484510867 0.0 0.0
1301.6050568339663 285.62440770594424 792.209187755489 16.405395995196578 0.0 0.0
1287.0983972719393 294.6728196676423 789.488170291083 18.32841475835841 0.0 0.0
1256.0182084782039 290.6227672794027 771.9850955879951 19.575596602769416 0.0 0.0
1208.103145088352 272.22246837730836 738.9246985350774 20.362388141549964 0.0 0.0
1146.6712233443802 242.066456546649 693.2350699964703 20.96388940223667 0.0 0.0
1076.7189871551436 204.86403873520186 639.743535205564 21.580779629632158 0.0 0.0
1004.5080945677462 165.885987547648 584.1451440594085 22.11045279125679 0.0 0.0
932.5239112694106 130.53764105255374 530.1988783802791 22.35161083351329 0.0 0.0
862.7953061882765 99.79891912441252 478.8809501300476 22.39384943996921 0.0 0.0
795.3633701007815 75.10158433733051 429.1433437683478 22.20584506810023 0.0 0.0
728.287604815186 55.95307900286096 375.29253286157706 21.951385667541714 0.0 0.0
657.0172883233957 40.22157900881676 308.2492186783195 21.113427923636657 0.0 0.0
584.7967419839118 29.152461752007216 232.44365614966088 18.83626384077119 0.0 0.0
496.916746461969 21.757070162210667 165.44300756893466 15.084928189242959 0.0 0.0
399.5358259848613 1.643903669276419 120.44689345387957 16.455937712954263 0.0 0.0
368.42461305661 40.93208927847713 121.49660279669192 29.517283557145372 0.0 0.0
824.4709673864711 394.8040265408729 542.3243398791981 36.06720512589037 0.0 0.0
-1338.871253224537 -2093.8104563265133 -1602.3729242479933 11.546251191411129 0.0 0.0
-1098.9201801127626 -1819.6617710502674 -1335.0423666909892 -50.48019568463215 0.0 0.0
627.0705583675922 302.6171113527794 400.718628747481 -101.5268063055768 0.0 0.0
262.32572144161674 48.481154540273785 93.24199713009025 -30.74198074112896 0.0 0.0
341.06312567820584 -0.5675548739107412 102.16737209295339 -36.62600784417448 0.0 0.0
451.3666847029207 13.839885907360538 142.83045021275385 -37.29533931008347 0.0 0.0
552.9702463088269 25.410404899200163 205.81287341386474 -37.195541486787775 0.0 0.0
628.6619752098429 37.93142462012881 283.7286353109702 -39.92783088029078 0.0 0.0
701.9201616154878 49.90204303847716 353.14359183845505 -41.3919777865153 0.0 0.0
767.8143098861653 66.70486829104235 408.53685396145966 -42.096208022907724 0.0 0.0
832.2882007520013 87.79184084462295 456.4804474743707 -42.50331783163135 0.0 0.0
898.0941244483656 114.78038237881518 504.49894780148196 -42.373368428203555 0.0 0.0
965.7464061595733 147.1632997448782 554.9644761803862 -41.59820335156987 0.0 0.0
1034.7194666122389 181.9664519212668 606.9293792438833 -40.52825236080641 0.0 0.0
1100.213144646613 216.1194896165793 656.7086234928528 -39.33213156196113 0.0 0.0
1158.5645567509318 243.5960253031839 699.5257800245729 -38.124430707679764 0.0 0.0
1204.505307239114 260.3606422147794 730.7843831977932 -36.606956659432576 0.0 0.0
1235.8657515949908 264.8544509952487 748.6573065709313 -34.295036279530855 0.0 0.0
1251.169231285591 256.564143318375 752.191872507457 -30.94315999860148 0.0 0.0
1245.2500072453772 231.5677423947285 736.9950977181377 -26.653355691995035 0.0 0.0
1223.9503976468063 197.37906841506637 709.6188116560799 -21.49078189250788 0.0 0.0
1146.9164649949826 118.2398560389102 632.9481494538056 1.4233947354114207e-11 0.0 0.0
1223.9503976464798 197.3790684147762 709.6188116558802 21.49078189254785 0.0 0.0
1245.2500072456762 231.5677423950347 736.9950977182979 26.653355691992914 0.0 0.0
1251.1692312853504 256.5641433182334 752.1918725072227 30.9431599985732 0.0 0.0
1235.865751594724 264.8544509950472 748.6573065707801 34.295036279579996 0.0 0.0
1204.5053072383205 260.36064221408895 730.7843831971676 36.606956659431745 0.0 0.0
1158.5645567502818 243.59602530265397 699.525780024091 38.1244307076141 0.0 0.0
1100.213144646354 216.11948961647514 656.7086234926148 39.33213156201945 0.0 0.0
1034.719466612176 181.96645192140696 606.9293792438174 40.52825236092219 0.0 0.0
965.7464061594343 147.1632997449311 554.9644761803207 41.59820335154295 0.0 0.0
898.0941244481047 114.78038237876976 504.4989478012711 42.373368428246195 0.0 0.0
832.2882007517326 87.79184084457881 456.4804474741524 42.50331783162241 0.0 0.0
767.814309885759 66.70486829088009 408.53685396113224 42.096208022896754 0.0 0.0
701.9201616151356 49.90204303839652 353.1435918381226 41.39197778654362 0.0 0.0
628.661975209477 37.93142462005457 283.7286353105938 39.92783088025644 0.0 0.0
552.9702463085905 25.41040489930885 205.81287341363767 37.1955414867752 0.0 0.0
451.3666847025298 13.839885907369554 142.8304502126158 37.2953393100767 0.0 0.0
341.06312567811005 -0.5675548738568281 102.1673720929411 36.626007844106006 0.0 0.0
262.32572144160343 48.48115454025414 93.24199713008043 30.741980741002326 0.0 0.0
627.0705583670972 302.6171113525349 400.71862874697916 101.52680630549835 0.0 0.0
-1098.920180110789 -1819.661771048226 -1335.0423666889146 50.48019568432253 0.0 0.0
-887.9010629343737 -1577.8086030067743 -1099.7065128654676 -64.14802870642276 0.0 0.0
471.47145079673385 208.38037978892083 285.6146496736592 -143.77597054078453 0.0 0.0
193.21408816068035 46.59204623411516 71.94184031843862 -53.02854883166966 0.0 0.0
285.1132629934148 4.085699204759706 86.76145136299773 -56.27951978650127 0.0 0.0
396.5317068994433 6.4120613100535735 120.81629357162049 -61.00719239966331 0.0 0.0
506.82437640901696 20.650593636726885 176.90900051138206 -57.4700165411386 0.0 0.0
598.8008163516054 32.94868610684697 254.25813066302118 -60.21639435647787 0.0 0.0
670.4513539120984 44.11348843008116 326.620043756302 -61.17970292627733 0.0 0.0
736.2482819143612 58.38992973685714 384.6047291343757 -61.82561946940366 0.0 0.0
798.1413943832848 76.2639777937092 431.8609949245383 -62.1153476940761 0.0 0.0
859.7578725153141 99.36241845336374 476.7123329809547 -61.63474747210476 0.0 0.0
923.4716058835196 127.47318046907355 523.3686136194689 -60.40850818590842 0.0 0.0
988.050019069294 159.5198567738722 571.8904885595776 -58.741057544507896 0.0 0.0
1050.0031242550172 189.11186024213623 617.6662715625135 -57.149812991631066 0.0 0.0
1104.744056988023 213.81452049802837 657.3071805266725 -55.44004090074605 0.0 0.0
1149.6224186605664 230.23159496674543 687.8801207070865 -53.22412251149182 0.0 0.0
1181.6084869260546 235.16209435986607 706.2994908245785 -50.08079187392806 0.0 0.0
1197.1667821786746 226.84155261392007 709.9878261619887 -45.69817735281616 0.0 0.0
1194.1143723397386 204.30568859015972 697.4452743226261 -39.67874355845635 0.0 0.0
1179.4415426316398 176.05263389697873 676.230113562229 -30.45202259823871 0.0 0.0
1069.9353646262643 64.4287149721056 567.8819763091483 6.281020148435346e-11 0.0 0.0
1179.4415426311098 176.052633896467 676.2301135618239 30.452022598342843 0.0 0.0
1194.1143723403036 204.30568859081512 697.4452743229689 39.67874355855134 0.0 0.0
1197.1667821790816 226.8415526143973 709.987826162286 45.698177352898355 0.0 0.0
1181.6084869253634 235.16209435928704 706.2994908240354 50.08079187405951 0.0 0.0
1149.6224186604238 230.23159496672 687.8801207069632 53.22412251161345 0.0 0.0
1104.7440569877747 213.8145204979035 657.3071805264867 55.440040900755186 0.0 0.0
1050.0031242546158 189.111860241902 617.6662715621667 57.14981299168969 0.0 0.0
988.0500190692882 159.51985677403545 571.8904885595396 58.74105754457781 0.0 0.0
923.4716058828321 127.47318046853968 523.3686136189999 60.40850818578872 0.0 0.0
859.7578725153367 99.36241845365028 476.7123329809462 61.634747472231666 0.0 0.0
798.1413943828233 76.26397779344254 431.86099492418685 62.115347694011156 0.0 0.0
736.2482819136002 58.38992973629217 384.60472913383956 61.8256194693185 0.0 0.0
670.4513539120945 44.11348843036696 326.62004375616726 61.1797029262516 0.0 0.0
598.8008163513176 32.948686106904034 254.2581306627021 60.216394356448404 0.0 0.0
506.8243764086284 20.650593636664716 176.90900051112197 57.47001654104993 0.0 0.0
396.5317068990313 6.412061309925968 120.816293571471 61.00719239959551 0.0 0.0
285.11326299330904 4.085699204685914 86.76145136294143 56.27951978642589 0.0 0.0
193.21408816073279 46.59204623421717 71.94184031848495 53.0285488314953 0.0 0.0
471.4714507962387 208.38037978872623 285.6146496732186 143.77597054072282 0.0 0.0
-887.901062932705 -1577.8086030050426 -1099.7065128636443 64.14802870613873 0.0 0.0
-705.8753174821458 -1366.3901016681564 -893.5798689055456 -64.75692519904135 0.0 0.0
357.24783419904765 127.1543766469268 197.72986039964664 -173.07090393418437 0.0 0.0
142.72668078440893 39.51316841041857 54.67195475844822 -81.78172614186937 0.0 0.0
233.50035587491925 10.663335503737901 73.24986276978902 -77.38400543388968 0.0 0.0
334.75455899860987 4.359080034929564 101.4093438220107 -83.87095817830745 0.0 0.0
454.3498287728321 9.149761935076171 146.01371746923672 -83.68989424863885 0.0 0.0
556.063703943203 26.292501960089275 218.9207344271945 -80.6870261912457 0.0 0.0
633.1312737300584 39.74494948515154 295.7787185390311 -81.1829654027929 0.0 0.0
699.5559465362568 50.51418054616916 356.34180943092275 -81.41378175560921 0.0 0.0
759.2882182648549 65.04546849511499 403.958665135305 -81.2015438792742 0.0 0.0
817.4670006993438 83.97999326183314 446.39968927249004 -80.21551760294712 0.0 0.0
876.7358320678351 107.85930281857026 489.28078338801214 -78.44739840231446 0.0 0.0
937.1686949848212 135.18970222849725 533.5844134321231 -76.39254383626758 0.0 0.0
994.8857482434987 162.57608835400552 576.2430611796981 -74.35142235890748 0.0 0.0
1046.784330317711 184.19735692188328 612.9652885120497 -72.23614165867238 0.0 0.0
1089.8298780470518 198.37142196433228 641.5188267562542 -69.52875782426268 0.0 0.0
1122.580541973478 204.57138961381577 660.9811689672173 -65.7305134178212 0.0 0.0
1141.2117345619067 198.99161481828372 667.5641051808547 -60.57738581606405 0.0 0.0
1142.4366041317908 179.89688514113442 658.8588243960872 -52.823530525928916 0.0 0.0
1130.5043190119763 152.9113278441555 639.6187145253417 -39.76173407663565 0.0 0.0
980.3083639442942 0.514610179933122 491.67806380461803 1.6926904322644987e-11 0.0 0.0
1130.504319011739 152.9113278440066 639.6187145253353 39.76173407682729 0.0 0.0
1142.436604132788 179.89688514218642 658.8588243967109 52.82353052619951 0.0 0.0
1141.211734561784 198.99161481822279 667.5641051808248 60.57738581606278 0.0 0.0
1122.5805419734934 204.57138961393815 660.9811689671925 65.73051341791235 0.0 0.0
1089.8298780465022 198.37142196384912 641.5188267558467 69.5287578242422 0.0 0.0
1046.7843303173213 184.19735692165796 612.9652885117107 72.23614165871992 0.0 0.0
994.8857482430556 162.5760883536878 576.2430611793718 74.35142235895749 0.0 0.0
937.1686949845745 135.18970222840923 533.5844134319275 76.39254383626294 0.0 0.0
876.7358320674285 107.85930281836534 489.2807833877051 78.44739840230005 0.0 0.0
817.467000699186 83.9799932618939 446.3996892723526 80.21551760303383 0.0 0.0
759.2882182640806 65.04546849447988 403.95866513475687 81.20154387909248 0.0 0.0
699.5559465357888 50.51418054592686 356.34180943052274 81.41378175553407 0.0 0.0
633.1312737295088 39.74494948487184 295.7787185385637 81.18296540276538 0.0 0.0
556.0637039428993 26.292501960137507 218.92073442687663 80.68702619118767 0.0 0.0
454.3498287722888 9.14976193483349 146.01371746893068 83.6898942485099 0.0 0.0
334.75455899825846 4.359080034757226 101.40934382186336 83.87095817823032 0.0 0.0
233.50035587490035 10.663335503816674 73.24986276980651 77.3840054337893 0.0 0.0
142.72668078445076 39.51316841047177 54.67195475847675 81.78172614164954 0.0 0.0
357.24783419855623 127.1543766467442 197.72986039926408 173.07090393407216 0.0 0.0
-705.8753174807833 -1366.3901016666252 -893.5798689039639 64.75692519889184 0.0 0.0
-546.7224582757697 -1178.9169176142102 -711.9027958869099 -64.78646930089515 0.0 0.0
267.44213200728274 64.85713910778183 131.50084941067766 -188.61597248344754 0.0 0.0
103.38328870192669 29.09469332757709 39.74339460885113 -108.93953975515193 0.0 0.0
185.41743328945017 16.118307586242903 60.46202345585371 -98.98661630332465 0.0 0.0
274.156762199075 4.223451257939243 83.4249171945466 -105.48133234003959 0.0 0.0
385.6260683506667 3.503184634051576 118.1186335484702 -108.3389962561264 0.0 0.0
494.4335297423344 19.421290092915026 180.22903144136743 -103.1675389675597 0.0 0.0
588.8791897469507 31.535534560615137 256.50742668232436 -102.64478357764085 0.0 0.0
654.2204715362443 43.70553536429731 322.03373394547316 -100.4508855132345 0.0 0.0
714.8850003064206 53.91852885346628 371.4024133950743 -99.85407664645048 0.0 0.0
769.7893589535041 68.69868898624836 412.4241746396584 -98.12785052562174 0.0 0.0
824.7837544933965 88.24778084666468 451.98356517789233 -95.73985201380023 0.0 0.0
880.6418598303604 111.58493717330462 492.4289981986813 -93.23183418611364 0.0 0.0
934.2626273575312 134.31372116306872 530.8883346183673 -90.95301401827312 0.0 0.0
983.0207890917449 153.82764391111644 565.0635682031308 -88.57130516762201 0.0 0.0
1024.3480835348091 167.15247611085263 592.4197498248967 -85.3390983194022 0.0 0.0
1057.621673051068 172.66838144609082 611.8081400117173 -81.14218071426741 0.0 0.0
1080.675889171715 171.26022194403888 622.6225363892584 -75.48170932276406 0.0 0.0
1087.8944598649225 157.4028110002105 619.526153107201 -66.34563643343394 0.0 0.0
1077.5124640329636 129.67962049680622 600.7320801611938 -49.99652523221307 0.0 0.0
877.9281480332484 -72.06897832650448 405.03497864892074 2.1245227799226996e-11 0.0 0.0
1077.512464033347 129.67962049732648 600.7320801615489 49.996525232424396 0.0 0.0
1087.8944598642418 157.40281099953742 619.5261531067957 66.34563643359616 0.0 0.0
1080.675889172434 171.2602219449197 622.622536389723 75.48170932294944 0.0 0.0
1057.621673051271 172.66838144643953 611.8081400118058 81.14218071446237 0.0 0.0
1024.3480835339894 167.1524761100705 592.4197498243633 85.33909831937135 0.0 0.0
983.0207890912883 153.82764391077887 565.0635682027664 88.57130516761791 0.0 0.0
934.2626273568602 134.31372116254352 530.8883346178261 90.95301401830241 0.0 0.0
880.641859830122 111.58493717320533 492.4289981984759 93.23183418612481 0.0 0.0
824.7837544934033 88.24778084691899 451.98356517788073 95.73985201387583 0.0 0.0
769.7893589524333 68.69868898525792 412.42417463887404 98.12785052549737 0.0 0.0
714.8850003062145 53.918528853489974 371.4024133949008 99.85407664635156 0.0 0.0
654.2204715360198 43.705535364313675 322.033733945218 100.45088551321032 0.0 0.0
588.8791897465094 31.535534560531147 256.5074266819209 102.64478357760358 0.0 0.0
494.43352974207886 19.421290093031715 180.229031441144 103.16753896756708 0.0 0.0
385.62606835018255 3.50318463384538 118.11863354825658 108.33899625590959 0.0 0.0
274.1567621990319 4.223451258160544 83.42491719460234 105.48133233995318 0.0 0.0
185.41743328936067 16.118307586118686 60.462023455789264 98.98661630318891 0.0 0.0
103.38328870191205 29.09469332757157 39.74339460884507 108.93953975495012 0.0 0.0
267.4421320068486 64.85713910753742 131.50084941034066 188.61597248323773 0.0 0.0
-546.7224582746275 -1178.9169176128642 -711.9027958855457 64.78646930079186 0.0 0.0
-410.94349577541027 -1006.2317804861245 -553.0841037532264 -65.87355913201878 0.0 0.0
196.98421248289497 15.095316641800535 81.61055476895103 -197.11679763045524 0.0 0.0
70.88575904770296 18.234679847211662 26.73613166847439 -131.46431344214002 0.0 0.0
139.9398897357822 19.493062090075036 47.8304705222245 -119.39274644315442 0.0 0.0
215.68235239375468 6.0881929896417475 66.5361211925074 -124.65543986173445 0.0 0.0
309.89480346872807 -1.2851431109590852 91.80828099394039 -132.99440802818128 0.0 0.0
422.3715354703063 7.704762562419669 139.1998526741144 -130.23894746759453 0.0 0.0
521.1308526118812 24.897317784299958 209.62548930847038 -123.56136804161531 0.0 0.0
602.8270664937802 32.65945571889974 277.67630950575045 -122.08029812713539 0.0 0.0
660.6325656641944 43.36705612386884 331.3613764027995 -117.70557318530375 0.0 0.0
715.1366193050558 53.510393222096525 372.85114065964996 -115.33321355093989 0.0 0.0
766.2085905137662 68.49980531881808 409.9928665381799 -112.35203957590235 0.0 0.0
817.2818414278154 87.32848345243018 446.68989411625006 -109.38967453436582 0.0 0.0
866.401777999636 106.43764401338076 481.4880658109753 -106.83143711834451 0.0 0.0
911.5850324950579 123.02203354511911 512.6176319981165 -104.28292610154917 0.0 0.0
950.9492513558906 133.50091028102452 537.6698900353849 -101.05306886679766 0.0 0.0
984.2612004665509 140.81853521413376 558.0441563451354 -96.13423429771706 0.0 0.0
1013.0730582006942 143.7258836881903 573.7870046800759 -90.16481347796149 0.0 0.0
1028.098149994621 135.56769280268304 577.3892842035551 -80.52713024589636 0.0 0.0
1020.1541219900944 107.7021247998485 559.8829363789349 -61.787398339020136 0.0 0.0
760.6455698150907 -153.4115413097838 306.93274479452106 4.091305072506657e-11 0.0 0.0
1020.1541219919067 107.70212480184897 559.88293638015 61.787398339356635 0.0 0.0
1028.0981499934237 135.56769280149058 577.3892842028484 80.52713024595016 0.0 0.0
1013.0730582005742 143.72588368816383 573.7870046799808 90.16481347816888 0.0 0.0
984.261200466312 140.81853521388862 558.0441563448636 96.13423429771623 0.0 0.0
950.949251355465 133.5009102806652 537.6698900351638 101.05306886665412 0.0 0.0
911.5850324944436 123.02203354462691 512.6176319976482 104.28292610153895 0.0 0.0
866.4017779992429 106.43764401313695 481.4880658106879 106.83143711843748 0.0 0.0
817.2818414273424 87.32848345211156 446.6898941159014 109.38967453439668 0.0 0.0
766.2085905136336 68.49980531891948 409.9928665381095 112.35203957598944 0.0 0.0
715.1366193040793 53.51039322120121 372.8511406588929 115.33321355079084 0.0 0.0
660.6325656642852 43.36705612425155 331.36137640282186 117.70557318530948 0.0 0.0
602.8270664930712 32.65945571842574 277.6763095052009 122.08029812709954 0.0 0.0
521.1308526119935 24.897317785021233 209.62548930849144 123.56136804169913 0.0 0.0
422.3715354696596 7.70476256205279 139.19985267372354 130.23894746761619 0.0 0.0
309.8948034682629 -1.285143111067316 91.80828099378927 132.99440802793143 0.0 0.0
215.68235239366388 6.088192989855999 66.53612119254328 124.65543986163091 0.0 0.0
139.9398897357113 19.49306209005055 47.83047052219568 119.39274644296492 0.0 0.0
70.88575904765226 18.23467984722697 26.736131668463766 131.4643134419346 0.0 0.0
196.98421248243892 15.095316641581533 81.61055476866288 197.11679763027468 0.0 0.0
-410.943495774435 -1006.2317804848979 -553.0841037520681 65.87355913195486 0.0 0.0
-291.3215318631157 -859.0250784550772 -415.36541989613227 -77.30630953339144 0.0 0.0
136.21055246872655 -22.077797534023908 42.86697917613975 -196.615143641636 0.0 0.0
42.619954267929984 9.269908306234187 15.566983447090756 -148.887271060854 0.0 0.0
96.20865920110053 20.851056925399597 35.1184567336463 -137.19848575166617 0.0 0.0
157.8167414587865 8.78697576512089 49.966881426221896 -141.35840537231465 0.0 0.0
230.02424958087227 -0.7100435831279232 68.42285795223846 -151.9761352940497 0.0 0.0
331.10185208205854 -0.7042745259787491 100.49082885671969 -157.29287468676745 0.0 0.0
434.34625908276115 12.308627902994429 155.26995314170918 -147.5150847302533 0.0 0.0
525.3963791943714 24.336361330308108 221.45466068222743 -141.40181240869765 0.0 0.0
595.0651659474433 29.040135032364383 277.88167826677494 -137.38817219665788 0.0 0.0
648.2235522361088 37.457264324010296 322.3396506381034 -131.78392769560583 0.0 0.0
696.6417794308721 48.824930046784836 359.43265271066997 -128.0144233533943 0.0 0.0
743.7531599494932 63.09158511708476 393.6692198500163 -124.66988621789277 0.0 0.0
787.7472201731258 77.7963946269846 424.7216460348786 -121.89360173066083 0.0 0.0
829.2206288605933 90.95730702451502 452.7789848239799 -119.38177809131787 0.0 0.0
865.9099038311422 100.48432578874181 476.32975667164334 -116.1470876232765 0.0 0.0
898.9423117984846 105.839555142922 495.8035110303586 -111.13792114881834 0.0 0.0
932.3986992677937 113.22593973301892 515.9527787029047 -104.49853835332753 0.0 0.0
958.6134415082709 115.57048914809715 530.2968670076327 -95.00077499437404 0.0 0.0
957.1557403325975 90.22609993294421 517.6022177315075 -75.89368069034983 0.0 0.0
622.6746075104479 -243.7795348096459 194.56595893964874 7.948131042212481e-11 0.0 0.0
957.1557403331072 90.22609993351529 517.6022177319315 75.89368069057483 0.0 0.0
958.6134415076139 115.57048914753676 530.2968670072627 95.00077499457313 0.0 0.0
932.398699266978 113.22593973235726 515.9527787023341 104.49853835349846 0.0 0.0
898.9423117982597 105.83955514277415 495.80351103014806 111.13792114895834 0.0 0.0
865.9099038306374 100.48432578831145 476.3297566713415 116.14708762326683 0.0 0.0
829.2206288604704 90.95730702454767 452.77898482385945 119.38177809138647 0.0 0.0
787.7472201730908 77.79639462720868 424.72164603486345 121.89360173078911 0.0 0.0
743.7531599494407 63.09158511721908 393.6692198499523 124.66988621798076 0.0 0.0
696.6417794308388 48.82493004692844 359.43265271064064 128.0144233534007 0.0 0.0
648.2235522354143 37.45726432334773 322.33965063753453 131.78392769544604 0.0 0.0
595.0651659474057 29.040135032639014 277.88167826669337 137.3881721966186 0.0 0.0
525.3963791941112 24.336361330392428 221.45466068197177 141.40181240867128 0.0 0.0
434.34625908257203 12.308627903270642 155.2699531415935 147.5150847302936 0.0 0.0
331.101852081255 -0.7042745267941224 100.49082885621715 157.29287468664364 0.0 0.0
230.02424958075505 -0.7100435828563221 68.42285795229904 151.97613529378538 0.0 0.0
157.816741458745 8.786975765253796 49.96688142624687 141.35840537220355 0.0 0.0
96.20865920108409 20.85105692555588 35.11845673368813 137.1984857515269 0.0 0.0
42.619954267901484 9.269908306348297 15.566983447116408 148.88727106064127 0.0 0.0
136.21055246833103 -22.077797534222377 42.86697917590959 196.61514364147374 0.0 0.0
-291.3215318623955 -859.0250784540154 -415.3654198952339 77.30630953344306 0.0 0.0
-206.0514027711275 -715.2361170708915 -309.6444722589437 -87.53726849795933 0.0 0.0
83.76429173870217 -51.44394239017349 13.637228904224589 -189.94212459623589 0.0 0.0
16.032755659444472 3.138030625356068 5.752735156862559 -161.5120989052033 0.0 0.0
53.983830130032636 20.742557090768027 22.417546713938687 -151.53825220449406 0.0 0.0
99.71117737898645 11.484181738107228 33.3482151158068 -154.67671440227758 0.0 0.0
151.61321144175233 1.788606436777751 45.93424826886376 -166.1672851265708 0.0 0.0
223.5617653274501 -2.869079210906919 65.66128904305526 -180.06573209845448 0.0 0.0
320.64167868333345 -2.8493984960848313 98.73081414296561 -179.27840898437432 0.0 0.0
416.87327907628105 7.39523827563129 149.36778654133184 -164.42213483307052 0.0 0.0
496.03002452661633 14.446706431176612 203.30841583348325 -154.48281341997873 0.0 0.0
556.0198361745846 20.48666242196378 250.50960775432128 -146.64532064697562 0.0 0.0
605.1149155427584 27.320050215311827 288.7319581383904 -142.12737211640334 0.0 0.0
649.329032506466 38.192084065662925 323.1425861683376 -138.54759525949225 0.0 0.0
688.7832439229692 48.66207418704626 352.27735261806515 -135.77608997910127 0.0 0.0
725.6240926505654 58.378029332065225 377.9502861430913 -133.49480759303287 0.0 0.0
759.7802410227465 65.8401855398557 400.15634443518394 -130.7322471120114 0.0 0.0
792.8742057136524 71.71901381102867 420.6541948112958 -126.018513062426 0.0 0.0
826.9596164322801 78.56568449325802 441.323885500372 -118.63402197869539 0.0 0.0
865.6269785822678 90.05308089905967 466.1785722851456 -109.2588808568344 0.0 0.0
883.9736445738098 79.57091475162379 471.35601810316336 -93.44937502437931 0.0 0.0
455.6785942701086 -340.13625146775087 65.7254822589166 3.8983927197477897e-11 0.0 0.0
883.9736445728863 79.57091475074809 471.3560181026238 93.4493750243473 0.0 0.0
865.6269785819507 90.0530808990301 466.1785722850158 109.25888085724074 0.0 0.0
826.9596164326497 78.56568449387413 441.3238855005777 118.6340219790514 0.0 0.0
792.874205713819 71.71901381128241 420.6541948113445 126.01851306255648 0.0 0.0
759.7802410223138 65.84018553953824 400.1563444348564 130.73224711200464 0.0 0.0
725.6240926505997 58.37802933231393 377.950286143165 133.49480759314736 0.0 0.0
688.7832439232471 48.66207418752823 352.2773526182109 135.7760899792371 0.0 0.0
649.3290325060584 38.192084065285115 323.1425861680358 138.5475952594652 0.0 0.0
605.1149155421992 27.320050214894113 288.7319581379984 142.1273721164858 0.0 0.0
556.0198361743061 20.486662421901116 250.50960775407734 146.64532064691923 0.0 0.0
496.03002452631495 14.44670643120731 203.30841583327415 154.48281342000246 0.0 0.0
416.8732790762107 7.39523827604498 149.36778654130813 164.42213483314205 0.0 0.0
320.641678683309 -2.84939849536487 98.73081414310522 179.27840898441428 0.0 0.0
223.56176532679834 -2.8690792114641788 65.66128904271442 180.06573209819396 0.0 0.0
151.6132114416337 1.7886064368363774 45.93424826885564 166.16728512630218 0.0 0.0
99.71117737889836 11.484181738016009 33.34821511575109 154.67671440214977 0.0 0.0
53.98383012998997 20.742557090732312 22.417546713915165 151.53825220433555 0.0 0.0
16.032755659499568 3.1380306256607535 5.752735156970198 161.51209890498077 0.0 0.0
83.76429173828888 -51.44394239041793 13.637228903999947 189.94212459596108 0.0 0.0
-206.05140277059536 -715.2361170699337 -309.64447225828474 87.53726849806314 0.0 0.0
-141.65783210298432 -593.9723327433088 -229.20363210477927 -104.02653897177743 0.0 0.0
37.2863618660166 -70.5595737122428 -8.801244213163034 -177.42451544402675 0.0 0.0
-9.051440555865288 -0.12953890006241997 -2.7539671388394433 -169.4530205621835 0.0 0.0
12.984901299865554 19.668347799309988 9.79627700256638 -161.92085195087952 0.0 0.0
41.96401459551608 13.801084513841937 16.732345114489583 -164.07972378763944 0.0 0.0
73.08111370436028 4.862216677254763 23.29531853559652 -176.69520507808664 0.0 0.0
110.8675740908241 -0.3996705675802157 33.014897679299246 -191.83759087711314 0.0 0.0
165.91079826621893 -2.716478894417803 48.961574533534645 -198.28844483097683 0.0 0.0
244.39993961253128 -7.248384436258742 72.22221169492127 -193.99199096889538 0.0 0.0
328.059428624594 -15.4066195273436 99.6441410913518 -181.68490813839793 0.0 0.0
399.68339960778496 -17.655423625492972 130.4989205859371 -169.47583551537164 0.0 0.0
449.483128609737 -11.745139511109201 161.6797649744625 -158.13050537610823 0.0 0.0
489.62103044975197 0.31389283052352823 192.04644368807067 -152.3155781584641 0.0 0.0
526.2174637036346 14.138248085011838 221.12198776064326 -149.19348915153432 0.0 0.0
559.5251030947205 23.55007290426453 248.19593023459015 -148.12659627118194 0.0 0.0
591.1363571499561 30.921015923848636 273.6766074541456 -148.57332241844807 0.0 0.0
624.8540015702794 36.67297477763959 299.5810509477073 -146.17104623707223 0.0 0.0
661.9965991654635 40.829838534447006 325.25695112805124 -138.3587761404642 0.0 0.0
703.7114922898896 45.637452162596645 350.9687205489946 -126.52782833873287 0.0 0.0
765.1955162813299 67.92974690389222 395.3929610950003 -116.12474108333106 0.0 0.0
226.86278275112798 -441.811399107427 -93.47110999180765 4.6817660859233e-11 0.0 0.0
765.195516281203 67.92974690395485 395.3929610950402 116.1247410835079 0.0 0.0
703.7114922899314 45.63745216282967 350.9687205490213 126.52782833914247 0.0 0.0
661.996599165813 40.82983853493585 325.2569511283377 138.35877614083773 0.0 0.0
624.8540015699804 36.672974777452396 299.581050947497 146.17104623713027 0.0 0.0
591.1363571506013 30.921015924870204 273.6766074545442 148.57332241848397 0.0 0.0
559.5251030946262 23.550072904084438 248.19593023450972 148.12659627118055 0.0 0.0
526.2174637039209 14.138248085468202 221.1219877608133 149.1934891515748 0.0 0.0
489.62103044935924 0.3138928299798742 192.04644368771713 152.3155781583672 0.0 0.0
449.4831286088688 -11.74513951199468 161.67976497386815 158.1305053760792 0.0 0.0
399.68339960794316 -17.655423625032032 130.49892058605863 169.4758355153657 0.0 0.0
328.05942862396296 -15.40661952786677 99.64414109099216 181.68490813828276 0.0 0.0
244.3999396124108 -7.24838443584385 72.22221169499468 193.99199096900438 0.0 0.0
165.9107982662851 -2.7164788937465305 48.96157453375741 198.2884448309417 0.0 0.0
110.86757409065342 -0.39967056764682374 33.01489767923049 191.83759087682472 0.0 0.0
73.08111370428882 4.862216677094701 23.29531853552867 176.69520507781345 0.0 0.0
41.96401459551096 13.801084513760197 16.73234511446351 164.07972378743898 0.0 0.0
12.984901299791751 19.66834779924517 9.796277002524706 161.9208519506734 0.0 0.0
-9.051440555860198 -0.12953889990474998 -2.7539671387908853 169.4530205619856 0.0 0.0
37.286361865781345 -70.55957371229644 -8.801244213263882 177.42451544380268 0.0 0.0
-141.65783210267224 -593.972332742535 -229.20363210437355 104.02653897186048 0.0 0.0
-110.1684870301801 -477.334098106547 -177.02727080415994 -108.68793431119519 0.0 0.0
1.761012398673949 -82.49670249865974 -24.115095964113692 -164.23979872054196 0.0 0.0
-32.15750903533963 -2.102160715915287 -10.27458040675236 -173.4103808018048 0.0 0.0
-26.586320577858473 18.33320618575948 -2.4752245540014615 -168.14487752519636 0.0 0.0
-14.90105185217152 15.632344954185017 0.21978856562401705 -169.45397226270958 0.0 0.0
-6.297587364308324 8.140368729244639 0.554404111274104 -180.60013101253753 0.0 0.0
-2.3612786422108663 1.9184890788875946 -0.13588445467476884 -196.4890023694331 0.0 0.0
-0.5044580287651463 0.23407286817580353 -0.08065898888799072 -202.86486053624438 0.0 0.0
-0.030507445533224598 -0.12698901688945607 -0.04813890291042178 -198.57320495837618 0.0 0.0
0.11539607946462382 0.020513563707430293 0.0521044564185722 -186.47670092869674 0.0 0.0
0.19451073004051977 -0.42763488299821084 -0.1925891459886273 -182.17776187640297 0.0 0.0
-0.7350004573098516 0.5521724630180032 0.03994116953640514 -179.67301307243272 0.0 0.0
-2.4879221896951123 1.32061616520933 -0.1472384250476324 -177.75737716140642 0.0 0.0
-1.8017343763458342 0.7230171427688603 0.24920506568426504 -172.17622212733139 0.0 0.0
1.5165062156271887 2.291014046226472 0.9542522985081092 -165.2548849455304 0.0 0.0
15.400566964119989 6.417499391180385 3.11836993847659 -158.70922219251617 0.0 0.0
50.97838937562648 15.052193564435392 8.63450781863088 -153.05911576807782 0.0 0.0
132.5311927942505 17.706339136712764 13.349107896762561 -146.34194548573862 0.0 0.0
318.9205516183396 -43.55938929611535 32.47031541203687 -141.38740322859155 0.0 0.0
483.40455823163796 -20.125292412887255 166.35033111627104 -162.28202743617626 0.0 0.0
-329.2327369028018 -626.8188617021374 -406.3812835654486 -6.529887741635321e-12 0.0 0.0
483.4045582313372 -20.125292413554206 166.3503311159689 162.28202743628387 0.0 0.0
318.9205516189149 -43.55938929498922 32.47031541264937 141.38740322908848 0.0 0.0
132.5311927940684 17.706339136355346 13.349107896674354 146.34194548639942 0.0 0.0
50.97838937512894 15.052193563586101 8.634507818131908 153.05911576827958 0.0 0.0
15.400566963827742 6.417499390396252 3.1183699380753254 158.7092221926512 0.0 0.0
1.5165062164678034 2.2910140471878506 0.9542522991296849 165.25488494533516 0.0 0.0
-1.8017343763064417 0.7230171424336227 0.249205065580405 172.17622212754733 0.0 0.0
-2.4879221891891348 1.3206161652346573 -0.14723842488432126 177.75737716159085 0.0 0.0
-0.7350004569807922 0.5521724627133864 0.039941169531985565 179.6730130723745 0.0 0.0
0.19451073035375543 -0.42763488300171915 -0.19258914590167464 182.17776187635445 0.0 0.0
0.11539607949208985 0.020513563191489226 0.05210445627261073 186.4767009286075 0.0 0.0
-0.030507445222735186 -0.1269890165046128 -0.04813890270039245 198.57320495848802 0.0 0.0
-0.5044580288131133 0.2340728678969881 -0.08065898898304003 202.86486053613118 0.0 0.0
-2.3612786418795775 1.918489079546168 -0.1358844543776736 196.4890023692242 0.0 0.0
-6.297587364232907 8.14036872918079 0.5544041112776807 180.60013101233002 0.0 0.0
-14.901051852048735 15.632344954212279 0.21978856566957172 169.4539722625183 0.0 0.0
-26.58632057785742 18.333206185604357 -2.475224554047276 168.14487752501267 0.0 0.0
-32.15750903527591 -2.1021607158207822 -10.274580406705345 173.4103808016472 0.0 0.0
1.7610123985892898 -82.49670249873058 -24.115095964159607 164.23979872040275 0.0 0.0
-110.16848703005198 -477.33409810588455 -177.02727080393802 108.68793431110585 0.0 0.0
-91.24370032295909 -374.73584672885283 -139.78531122053047 -103.8061830732409 0.0 0.0
-20.730322145265298 -87.95460778208746 -32.60613276802056 -153.9714490913952 0.0 0.0
-53.63691744542648 -3.964540034699846 -17.28151666883877 -173.44343774910013 0.0 0.0
-64.4146856189484 17.0657330382819 -14.202173438595208 -170.11573850145342 0.0 0.0
-70.70922375970557 16.786142878368466 -16.17267131189317 -170.25768277634734 0.0 0.0
-84.65760080691585 11.178112799652624 -22.006901902589533 -178.883896968117 0.0 0.0
-115.59438676686965 4.412192838529102 -33.168231651535436 -193.56244702013413 0.0 0.0
-166.97594473225524 3.075604066631538 -49.18534793925933 -198.51826011642459 0.0 0.0
-244.33516882966478 6.963603171751396 -72.3039370602753 -193.9793318564822 0.0 0.0
-327.8325849559021 15.382267324257475 -99.57339884937427 -181.63616546793128 0.0 0.0
-400.58936607798415 18.116532389689148 -130.2396663588507 -169.64953522469665 0.0 0.0
-449.4217290264078 11.600313873078964 -161.9683658328802 -157.9577193601171 0.0 0.0
-490.38567535915087 -0.5182662360045711 -192.86433378613077 -151.73356961425944 0.0 0.0
-527.2871350195027 -12.725022913399648 -221.68646066524576 -148.6445040311786 0.0 0.0
-557.0124089200273 -18.11115383913056 -244.25764599467732 -147.80992316408103 0.0 0.0
-576.3377211412742 -17.420160427361196 -255.90052071495896 -150.3021435052295 0.0 0.0
-583.1342446906051 -11.63094930080986 -254.06843193061388 -155.84294344170934 0.0 0.0
-579.4612752714638 -3.235538912901987 -235.3452461937472 -166.8077414390321 0.0 0.0
-564.277012608561 36.08068456176895 -191.25617374506498 -176.36864985294494 0.0 0.0
-333.12914876943125 73.21757160814732 -68.4065308254729 -121.58996807070191 0.0 0.0
-851.5929517960108 -843.3524189671941 -837.9722248277769 -1.3935164133727085e-10 0.0 0.0
-333.1291487696053 73.21757160756454 -68.40653082566652 121.58996807129094 0.0 0.0
-564.2770126080725 36.08068456230157 -191.2561737447706 176.3686498532926 0.0 0.0
-579.4612752712615 -3.2355389130736967 -235.34524619370154 166.807741439168 0.0 0.0
-583.1342446911082 -11.630949301706735 -254.06843193100931 155.84294344186685 0.0 0.0
-576.3377211420228 -17.420160428682223 -255.90052071540038 150.30214350526245 0.0 0.0
-557.0124089194336 -18.11115383837833 -244.2576459942516 147.80992316412238 0.0 0.0
-527.2871350196444 -12.725022913802825 -221.6864606652648 148.64450403114625 0.0 0.0
-490.38567535900603 -0.5182662361099375 -192.86433378603178 151.73356961433728 0.0 0.0
-449.4217290258217 11.600313873497264 -161.9683658324169 157.95771936015151 0.0 0.0
-400.5893660777833 18.116532389308407 -130.2396663587926 169.64953522475022 0.0 0.0
-327.8325849555727 15.382267323539343 -99.57339884946983 181.63616546791715 0.0 0.0
-244.3351688289839 6.963603172075569 -72.30393705995529 193.9793318565423 0.0 0.0
-166.97594473195232 3.0756040663894026 -49.18534793923797 198.51826011637576 0.0 0.0
-115.59438676645303 4.41219283888738 -33.1682316513061 193.56244701997386 0.0 0.0
-84.65760080686705 11.178112799319143 -22.006901902679328 178.88389696787908 0.0 0.0
-70.70922375949512 16.78614287858424 -16.172671311769406 170.25768277603476 0.0 0.0
-64.41468561891823 17.06573303815245 -14.202173438626545 170.1157385013133 0.0 0.0
-53.636917445288965 -3.9645400345708697 -17.28151666875818 173.44343774901725 0.0 0.0
-20.730322145354084 -87.9546077822146 -32.60613276808573 153.97144909123853 0.0 0.0
-91.24370032288239 -374.73584672840644 -139.78531122037847 103.80618307313975 0.0 0.0
-74.19800934556011 -287.07916976834395 -108.38315373417119 -94.3259526724412 0.0 0.0
-36.473727239379855 -87.03263584210008 -37.05218211426453 -143.1757615871459 0.0 0.0
-73.46856829450792 -5.435473565675209 -23.670021179653894 -169.5977716584447 0.0 0.0
-100.46605162468903 15.627452550568888 -25.456813614952825 -167.71703470715127 0.0 0.0
-125.03593608210781 17.252148643673724 -32.32789372659004 -166.3249944571306 0.0 0.0
-162.61487513398782 14.111663019709617 -44.26476506602997 -173.60238133993738 0.0 0.0
-226.1495826412649 6.131370818930048 -65.74660087410192 -179.515469095848 0.0 0.0
-320.82953145057013 2.796184489998387 -98.94350079398212 -179.43503219458188 0.0 0.0
-416.90178128001634 -7.664353057458765 -149.449885711334 -164.4402247543783 0.0 0.0
-496.0122163211364 -14.542314867091832 -203.30551023661124 -154.41975837366942 0.0 0.0
-555.9188815662714 -20.394173678606066 -250.4358487163491 -146.57024521229863 0.0 0.0
-605.2140380694144 -27.236949514154695 -288.8062849636285 -141.94481863852585 0.0 0.0
-649.7331426894705 -37.866357079357215 -323.34979075758554 -137.87447669174588 0.0 0.0
-689.2152765054211 -47.614649822332375 -352.1774503908342 -134.69056515659403 0.0 0.0
-722.7674183112149 -53.96901756108285 -374.6501986120058 -132.9005195367793 0.0 0.0
-745.7764671232845 -53.25341260136666 -387.1824888455054 -133.4646204946187 0.0 0.0
-755.9089730567047 -45.69960457155037 -388.8376985898673 -137.5618288449137 0.0 0.0
-751.6530335567875 -33.84125979671944 -380.72343692251974 -145.44965958978776 0.0 0.0
-717.6757082185059 -1.6082322412166121 -349.3527592748925 -154.91689291828507 0.0 0.0
-664.3113603444797 38.254181140239695 -306.0776667027971 -158.77535546477742 0.0 0.0
-1564.3183229211586 -1114.3069315890875 -1291.9764259980811 1.3752554650636739e-11 0.0 0.0
-664.3113603434856 38.25418114115119 -306.0776667021438 158.77535546492314 0.0 0.0
-717.6757082184286 -1.6082322415228276 -349.3527592749026 154.91689291869073 0.0 0.0
-751.6530335566515 -33.84125979672031 -380.7234369224275 145.44965959006274 0.0 0.0
-755.9089730564467 -45.6996045713798 -388.83769858970095 137.56182884490624 0.0 0.0
-745.7764671230758 -53.25341260118844 -387.18248884535296 133.46462049459484 0.0 0.0
-722.7674183113438 -53.96901756146865 -374.65019861203996 132.90051953689323 0.0 0.0
-689.2152765049002 -47.61464982184512 -352.1774503904481 134.69056515651732 0.0 0.0
-649.7331426896452 -37.86635707991355 -323.3497907577438 137.8744766919054 0.0 0.0
-605.2140380691197 -27.236949514093563 -288.8062849633692 141.94481863854895 0.0 0.0
-555.9188815660383 -20.394173678639866 -250.4358487161259 146.5702452122202 0.0 0.0
-496.01221632069564 -14.542314867183563 -203.30551023628541 154.41975837362506 0.0 0.0
-416.9017812794975 -7.664353057427929 -149.44988571101436 164.4402247545378 0.0 0.0
-320.8295314497214 2.7961844905752242 -98.94350079350502 179.4350321945694 0.0 0.0
-226.14958264074454 6.131370818923097 -65.74660087396552 179.5154690956443 0.0 0.0
-162.61487513367518 14.111663019788642 -44.26476506591729 173.60238133972558 0.0 0.0
-125.03593608191917 17.25214864374365 -32.327893726511476 166.32499445695714 0.0 0.0
-100.46605162448796 15.627452550728066 -25.456813614849363 167.71703470696795 0.0 0.0
-73.46856829448046 -5.435473565701535 -23.670021179653038 169.5977716582939 0.0 0.0
-36.47372723939897 -87.0326358420906 -37.05218211426706 143.17576158694686 0.0 0.0
-74.19800934549578 -287.079169768034 -108.38315373405892 94.32595267229466 0.0 0.0
-59.825175540093284 -212.45811488138918 -81.68498712644472 -82.85224731741754 0.0 0.0
-48.407969582105565 -81.3209243421507 -38.91861688435243 -130.7452605795372 0.0 0.0
-91.913461209922 -6.3580620071938805 -29.48265288023022 -161.68925401543999 0.0 0.0
-134.85818511034665 14.05754225750904 -36.23317844867819 -161.28607739058592 0.0 0.0
-177.84024696087866 17.180482495024258 -48.11280602169742 -158.28919814157635 0.0 0.0
-236.28465219611144 13.96880318265432 -66.60640773544517 -158.0252989567113 0.0 0.0
-332.5584044838436 4.694944159159448 -99.95532515774279 -160.36391727950885 0.0 0.0
-434.62860152840034 -12.50657307166791 -155.42638774754403 -148.0487247321182 0.0 0.0
-525.4559073337855 -24.620816760595737 -221.5393864506633 -141.3781460153917 0.0 0.0
-595.1026099463318 -29.119525614601955 -277.9315805136091 -137.3441686102126 0.0 0.0
-648.0589704782038 -37.309384811752224 -322.21930534379896 -131.72170325886458 0.0 0.0
-696.5738568312509 -48.62950888210865 -359.33571214274036 -127.81626304707393 0.0 0.0
-743.912827106941 -62.77573734915941 -393.6662660870669 -123.92592127565443 0.0 0.0
-788.2946353459633 -77.28353621275679 -424.82907615947386 -120.48988665499438 0.0 0.0
-827.7139255377504 -88.23283201857387 -450.8849186345273 -118.34779319398771 0.0 0.0
-855.4894904084622 -90.82113850543846 -466.5801787991711 -118.84993859242475 0.0 0.0
-867.8032420751907 -82.07966300088871 -468.60246805797715 -123.395272852708 0.0 0.0
-854.9513529631466 -56.03396853332731 -449.6639442040379 -130.82590110141805 0.0 0.0
-814.3867498149156 -11.817529590821152 -408.72385911671057 -137.75288497726865 0.0 0.0
-716.3380421453537 73.7800719056925 -323.0578346679897 -143.21828393673798 0.0 0.0
-2003.0942730823147 -1353.1961452483933 -1640.9133020169936 9.688960744824726e-11 0.0 0.0
-716.3380421446233 73.78007190643865 -323.05783466754235 143.21828393686022 0.0 0.0
-814.3867498152076 -11.817529591384712 -408.7238591169123 137.7528849775854 0.0 0.0
-854.9513529628151 -56.03396853314262 -449.66394420368914 130.82590110162377 0.0 0.0
-867.8032420745609 -82.07966300029932 -468.60246805754673 123.39527285270982 0.0 0.0
-855.4894904081755 -90.82113850525316 -466.5801787990065 118.84993859238993 0.0 0.0
-827.7139255371978 -88.23283201819535 -450.88491863412247 118.34779319407389 0.0 0.0
-788.2946353458003 -77.28353621268029 -424.82907615935466 120.48988665499729 0.0 0.0
-743.9128271067946 -62.775737349252395 -393.66626608698266 123.9259212756696 0.0 0.0
-696.5738568307775 -48.62950888188742 -359.33571214238896 127.81626304707473 0.0 0.0
-648.0589704779811 -37.30938481175959 -322.2193053436356 131.72170325883582 0.0 0.0
-595.1026099454197 -29.119525613936315 -277.9315805129438 137.34416861012434 0.0 0.0
-525.4559073334449 -24.620816760761148 -221.53938645035413 141.37814601549448 0.0 0.0
-434.6286015275941 -12.506573071055323 -155.4263877469834 148.04872473209554 0.0 0.0
-332.558404483247 4.694944159408092 -99.9553251574526 160.36391727943226 0.0 0.0
-236.28465219558262 13.968803182912248 -66.60640773523549 158.02529895645847 0.0 0.0
-177.8402469607532 17.18048249473082 -48.112806021754714 158.28919814139263 0.0 0.0
-134.8581851100935 14.057542257785975 -36.23317844851828 161.28607739047854 0.0 0.0
-91.91346120988825 -6.358062007323402 -29.482652880258534 161.68925401525172 0.0 0.0
-48.40796958204399 -81.32092434205514 -38.91861688430532 130.7452605793925 0.0 0.0
-59.82517554000789 -212.45811488114148 -81.68498712634481 82.85224731731725 0.0 0.0
-48.755945308909546 -150.06916524876047 -59.64753316730099 -70.69482254294158 0.0 0.0
-57.87769455317621 -72.2267688520703 -39.03133902157394 -116.38912190595583 0.0 0.0
-109.30915893872097 -6.577127195634136 -34.76643685576483 -149.88285585079475 0.0 0.0
-167.61299813872515 12.132156703095974 -46.65212009945367 -150.3879401490325 0.0 0.0
-227.99119798498788 15.906767877212268 -63.52206870323811 -145.2186280211598 0.0 0.0
-313.3202573197837 13.869173166088842 -89.18488698270171 -141.94972758886223 0.0 0.0
-419.56996027018744 -6.050219940376909 -138.74472301566405 -130.77222831619414 0.0 0.0
-521.13695105943 -25.256758877118646 -209.66994289005626 -123.87208406365906 0.0 0.0
-603.0006011199854 -32.98014830507371 -277.8515289289188 -122.03154319970834 0.0 0.0
-660.6533708134182 -43.39603922389801 -331.41096169112205 -117.66947913784259 0.0 0.0
-714.9637684721325 -53.296850594160574 -372.6894414373208 -115.30193314853804 0.0 0.0
-765.908308315524 -68.11709367343667 -409.68205380292136 -112.16078979625888 0.0 0.0
-817.0183031017569 -86.78119422402074 -446.33227914389215 -108.66305472211312 0.0 0.0
-866.9661957497441 -106.32211955690994 -481.74719321272397 -105.35792980238949 0.0 0.0
-912.2917757563987 -122.82793065439763 -512.9638114422578 -103.00617064425406 0.0 0.0
-945.9343928755924 -128.68650450104667 -532.9620259869494 -103.28589444538301 0.0 0.0
-956.6567937535557 -117.57580597677205 -533.1011226556857 -107.00999872038581 0.0 0.0
-934.7851410813215 -78.79066130466505 -503.3424301922221 -113.51800653161865 0.0 0.0
-872.0949367786422 -9.403872496400268 -438.84506910066426 -119.67690847086064 0.0 0.0
-744.782396350337 107.13049518461092 -321.5981326151407 -124.89118113130723 0.0 0.0
-2345.2142162772952 -1592.8094111249256 -1939.0700324419397 9.201173156725417e-11 0.0 0.0
-744.782396350026 107.1304951848474 -321.5981326148784 124.89118113142533 0.0 0.0
-872.0949367795906 -9.403872497589944 -438.8450691013284 119.67690847118108 0.0 0.0
-934.7851410808579 -78.7906613042817 -503.3424301919095 113.51800653176494 0.0 0.0
-956.6567937531474 -117.57580597650089 -533.1011226554647 107.00999872043035 0.0 0.0
-945.9343928753589 -128.6865045009647 -532.9620259867842 103.28589444552608 0.0 0.0
-912.2917757557619 -122.82793065388168 -512.9638114417968 103.0061706442556 0.0 0.0
-866.9661957501548 -106.32211955751134 -481.7471932129765 105.35792980249101 0.0 0.0
-817.0183031016306 -86.78119422408999 -446.33227914386083 108.6630547221065 0.0 0.0
-765.9083083149442 -68.11709367303527 -409.6820538025128 112.1607897962458 0.0 0.0
-714.9637684723165 -53.296850594609914 -372.6894414374538 115.30193314852015 0.0 0.0
-660.653370812622 -43.39603922330084 -331.41096169054845 117.66947913771561 0.0 0.0
-603.0006011194997 -32.98014830489048 -277.8515289284712 122.03154319971217 0.0 0.0
-521.1369510592308 -25.25675887746837 -209.66994288984935 123.87208406371123 0.0 0.0
-419.5699602696102 -6.050219940256742 -138.7447230153398 130.77222831621557 0.0 0.0
-313.32025731913114 13.869173166284732 -89.1848869824673 141.94972758873052 0.0 0.0
-227.99119798473762 15.906767877223928 -63.5220687031582 145.21862802112508 0.0 0.0
-167.61299813858423 12.132156703106402 -46.65212009940976 150.3879401489187 0.0 0.0
-109.30915893871213 -6.577127195763513 -34.76643685580074 149.8828558507195 0.0 0.0
-57.87769455312578 -72.2267688520335 -39.03133902154778 116.38912190587568 0.0 0.0
-48.75594530888739 -150.0691652486152 -59.64753316725077 70.69482254288108 0.0 0.0
-40.89635305107278 -99.41608586774453 -42.09373167564518 -58.212917319578914 0.0 0.0
-65.54731076081025 -61.044906760941906 -37.97766525652563 -100.21393026729835 0.0 0.0
-125.78198303024513 -6.0365727614385545 -39.54586110718329 -134.22541622295446 0.0 0.0
-198.78836900663595 10.102398674060161 -56.606160102007635 -135.45551344640498 0.0 0.0
-275.8427879433284 12.849949766947319 -78.88023706683381 -127.21161492756687 0.0 0.0
-383.881060836175 7.886707883824535 -114.41934740706529 -118.4768432602578 0.0 0.0
-492.7409209452346 -17.173790158715875 -179.10892996991254 -105.09753261462457 0.0 0.0
-589.1200136918415 -32.087016992131296 -256.6878129470071 -102.73673713135224 0.0 0.0
-654.3666225221176 -43.89491037500987 -322.1810021785684 -100.40115035730419 0.0 0.0
-714.8903450447183 -53.90867664795944 -371.4315393199139 -99.83901179019871 0.0 0.0
-769.5958768866673 -68.47320724290776 -412.24442026613093 -98.0967844365517 0.0 0.0
-824.27227978682 -87.68211532343376 -451.47707872248606 -95.54668885992555 0.0 0.0
-879.8344808649048 -110.65486120265511 -491.600828658567 -92.57805919409742 0.0 0.0
-934.5122030972999 -134.27725821465398 -530.9938006205059 -89.66106671531828 0.0 0.0
-985.9144434866334 -156.23464905704412 -567.7067267428632 -87.34599577410276 0.0 0.0
-1024.721503095527 -167.2866026895444 -592.8320176764634 -86.70723381959083 0.0 0.0
-1034.9268166871298 -151.84457038322483 -590.5933119995642 -89.41009029390997 0.0 0.0
-1000.1359181622499 -98.88801286669951 -547.3962559450141 -94.91291676780412 0.0 0.0
-912.8438818436523 -4.241609372615542 -457.8196564030987 -100.77160295789804 0.0 0.0
-762.458833363461 135.80210524504128 -315.80093344997834 -108.5834326631676 0.0 0.0
-2645.421465579892 -1825.973236603227 -2210.975289439254 2.0758506025231327e-11 0.0 0.0
-762.4588333629689 135.80210524545456 -315.80093344966707 108.58343266326294 0.0 0.0
-912.8438818441028 -4.2416093732391005 -457.8196564035037 100.77160295815256 0.0 0.0
-1000.1359181623275 -98.88801286684627 -547.3962559451054 94.91291676794314 0.0 0.0
-1034.926816686303 -151.84457038249974 -590.5933119990302 89.41009029393902 0.0 0.0
-1024.721503096369 -167.28660269057966 -592.8320176770178 86.70723381976028 0.0 0.0
-985.9144434856152 -156.23464905610882 -567.7067267421253 87.34599577406 0.0 0.0
-934.512203097085 -134.2772582146443 -530.9938006202761 89.66106671540152 0.0 0.0
-879.8344808647158 -110.65486120265517 -491.6008286584964 92.57805919409411 0.0 0.0
-824.2722797866529 -87.68211532349537 -451.4770787223615 95.54668885996307 0.0 0.0
-769.5958768864825 -68.47320724293321 -412.2444202660046 98.09678443649234 0.0 0.0
-714.8903450441169 -53.90867664757336 -371.4315393194793 99.83901179009709 0.0 0.0
-654.3666225219683 -43.89491037518196 -322.1810021783407 100.40115035731598 0.0 0.0
-589.1200136914437 -32.087016992198826 -256.68781294663097 102.7367371314086 0.0 0.0
-492.7409209449505 -17.173790158856132 -179.1089299696645 105.09753261463065 0.0 0.0
-383.88106083562184 7.886707884002437 -114.41934740682834 118.47684326024472 0.0 0.0
-275.8427879429286 12.8499497669719 -78.88023706673088 127.21161492748006 0.0 0.0
-198.78836900655475 10.102398673755456 -56.60616010207568 135.45551344628151 0.0 0.0
-125.78198303010724 -6.036572761442289 -39.54586110714291 134.22541622283944 0.0 0.0
-65.5473107607498 -61.0449067608621 -37.977665256483554 100.21393026712906 0.0 0.0
-40.89635305105085 -99.41608586764032 -42.093731675607344 58.21291731953894 0.0 0.0
-35.86582831973437 -60.251355079211116 -28.835155019683636 -45.570907054434784 0.0 0.0
-71.5741750218234 -48.841607073973684 -36.12473462873912 -82.38166762857544 0.0 0.0
-141.3094584404763 -4.878845419681774 -43.856491158047405 -114.82808780940836 0.0 0.0
-228.39922055949762 7.83828126178791 -66.17642919941073 -116.23824610859909 0.0 0.0
-326.8466934437017 9.583850015560227 -94.55541749627967 -106.76952702278592 0.0 0.0
-440.35965550591266 -5.736014035612055 -143.03746936429835 -88.95782481470064 0.0 0.0
-554.6414296953269 -24.51839922712359 -217.62096457392065 -82.07916680405789 0.0 0.0
-633.2768344064735 -40.06525637294011 -295.87574944474704 -81.08868238754457 0.0 0.0
-699.6871967662524 -50.61299632664472 -356.4659831917801 -81.37011184341124 0.0 0.0
-759.2940949376534 -65.02700584302016 -403.9801031915441 -81.20956492656782 0.0 0.0
-817.2439293110804 -83.72875757977047 -446.1892392629918 -80.18251396602584 0.0 0.0
-876.0532863775823 -107.1481934913086 -488.6165386476175 -78.24650673892047 0.0 0.0
-935.9342787009181 -133.95820462179955 -532.3878078713709 -75.84900056352981 0.0 0.0
-994.5180556631935 -162.25315890996006 -575.8884365268684 -73.42287473528584 0.0 0.0
-1050.1564093725904 -187.50929834919236 -616.2623614294754 -71.30973592847371 0.0 0.0
-1094.6432202638416 -202.8352124859123 -646.2441504577504 -69.92578561119109 0.0 0.0
-1106.9606244105573 -189.16662316951272 -645.9986873423672 -70.72642457431222 0.0 0.0
-1060.4123358976474 -122.54004626477865 -590.2000665971863 -75.13732097718623 0.0 0.0
-947.5581832541918 -0.9226148928676281 -474.12742309823153 -82.28541387237433 0.0 0.0
-769.6843301194539 165.83734414614096 -303.78068075083803 -94.45325871773588 0.0 0.0
-2914.3014616596843 -2045.7387405499599 -2459.5105756940743 5.233857791608898e-11 0.0 0.0
-769.6843301191456 165.83734414638587 -303.78068075072326 94.45325871787287 0.0 0.0
-947.558183253197 -0.9226148919680526 -474.12742309761427 82.28541387249973 0.0 0.0
-1060.4123358981733 -122.54004626538513 -590.200066597529 75.13732097733114 0.0 0.0
-1106.9606244096221 -189.16662316866595 -645.9986873416904 70.72642457434442 0.0 0.0
-1094.6432202638387 -202.83521248608236 -646.2441504576791 69.92578561129476 0.0 0.0
-1050.1564093711747 -187.50929834784822 -616.2623614284654 71.30973592840402 0.0 0.0
-994.51805566276 -162.25315890970163 -575.8884365264938 73.42287473535984 0.0 0.0
-935.9342787002682 -133.95820462130663 -532.3878078709995 75.84900056351712 0.0 0.0
-876.0532863772463 -107.14819349121412 -488.61653864736496 78.24650673894882 0.0 0.0
-817.2439293107974 -83.72875757972889 -446.18923926278234 80.18251396608079 0.0 0.0
-759.2940949373434 -65.02700584298002 -403.98010319129725 81.20956492656042 0.0 0.0
-699.6871967661398 -50.612996326875304 -356.46598319159006 81.3701118434366 0.0 0.0
-633.2768344059023 -40.06525637266384 -295.875749444236 81.08868238752609 0.0 0.0
-554.6414296949508 -24.518399227139085 -217.6209645735452 82.07916680399894 0.0 0.0
-440.3596555054564 -5.736014035644726 -143.03746936408453 88.95782481467329 0.0 0.0
-326.8466934433361 9.583850015406746 -94.55541749623566 106.76952702268852 0.0 0.0
-228.39922055939257 7.838281261626173 -66.17642919942827 116.23824610850076 0.0 0.0
-141.3094584403769 -4.878845419685129 -43.856491158018585 114.82808780929423 0.0 0.0
-71.57417502178946 -48.84160707397495 -36.12473462872933 82.3816676284245 0.0 0.0
-35.86582831972815 -60.25135507912438 -28.83515501965576 45.57090705443075 0.0 0.0
-33.00393027815187 -32.43659658006861 -19.63215805746614 -33.06205628890611 0.0 0.0
-75.67903997111634 -36.54503163313578 -33.66722148127563 -63.09862378093436 0.0 0.0
-155.61060204211282 -3.3811189658320533 -47.69751630238345 -91.61848719796349 0.0 0.0
-257.17458489547863 5.1390731626262465 -75.6063140149447 -92.77675713852227 0.0 0.0
-375.9470130469212 3.1910383818915293 -111.65042430982132 -80.86063625414657 0.0 0.0
-498.6913628697696 -14.51364584297281 -172.12459349821853 -64.2412850389984 0.0 0.0
-597.245138395683 -32.18970068871771 -253.29395006545155 -60.74014638628309 0.0 0.0
-670.4224489911564 -44.0249195220929 -326.5400542955717 -61.02450403554614 0.0 0.0
-736.3811677779734 -58.45416048954265 -384.7178156016274 -61.79544020482829 0.0 0.0
-798.1599028644739 -76.25310849346288 -431.88734614242145 -62.13944189870604 0.0 0.0
-859.4824541599907 -99.06766454487095 -476.45087895236594 -61.59670744059217 0.0 0.0
-922.6896392578504 -126.69607426111429 -522.618667134373 -60.210777074345025 0.0 0.0
-986.6619781553821 -158.22915436022072 -570.5826114509979 -58.33494158557993 0.0 0.0
-1048.9590233976987 -188.31001210828117 -616.7485662627985 -56.61360331060059 0.0 0.0
-1106.3135044526766 -215.6548604206707 -658.9898288440324 -54.928365757449235 0.0 0.0
-1154.4837031829193 -235.01936727171343 -692.7319024924066 -53.004544261712944 0.0 0.0
-1175.0968444986113 -228.29861981800053 -700.0142869050534 -51.76306894822146 0.0 0.0
-1125.352481668067 -156.94019079210608 -640.344772024436 -54.48736551380148 0.0 0.0
-984.469121741756 -6.019597459777671 -495.50589029061155 -63.73830239390417 0.0 0.0
-764.7821702782708 203.06827267736736 -282.1065576364408 -81.26590528424097 0.0 0.0
-3151.9062828823126 -2242.3688580511684 -2680.1964677486253 2.000177801164682e-11 0.0 0.0
-764.7821702779347 203.06827267766724 -282.10655763615 81.26590528429935 0.0 0.0
-984.469121741624 -6.019597459693102 -495.50589029054345 63.738302393976326 0.0 0.0
-1125.3524816679667 -156.94019079209815 -640.3447720243673 54.48736551390236 0.0 0.0
-1175.0968444988605 -228.29861981834512 -700.0142869052105 51.76306894831371 0.0 0.0
-1154.4837031824013 -235.01936727132988 -692.7319024919993 53.00454426180242 0.0 0.0
-1106.3135044518767 -215.6548604199615 -658.9898288434326 54.92836575739864 0.0 0.0
-1048.9590233979507 -188.31001210870818 -616.7485662628901 56.613603310635696 0.0 0.0
-986.6619781551128 -158.2291543601116 -570.5826114508199 58.33494158555112 0.0 0.0
-922.6896392574263 -126.69607426088783 -522.618667134047 60.21077707427304 0.0 0.0
-859.4824541596416 -99.06766454479276 -476.4508789521342 61.59670744066294 0.0 0.0
-798.1599028640466 -76.2531084932901 -431.88734614213485 62.13944189873585 0.0 0.0
-736.3811677774787 -58.454160489311455 -384.7178156012425 61.7954402047519 0.0 0.0
-670.4224489906792 -44.0249195219164 -326.5400542951379 61.02450403558673 0.0 0.0
-597.2451383949711 -32.18970068829204 -253.29395006484387 60.740146386200934 0.0 0.0
-498.69136286942523 -14.513645843078551 -172.12459349799994 64.24128503898503 0.0 0.0
-375.94701304652096 3.191038381797208 -111.65042430973376 80.86063625414764 0.0 0.0
-257.17458489533067 5.139073162465413 -75.60631401494899 92.77675713850937 0.0 0.0
-155.61060204201024 -3.381118965907894 -47.69751630237546 91.61848719794067 0.0 0.0
-75.67903997110238 -36.54503163320588 -33.66722148129247 63.09862378092919 0.0 0.0
-33.003930278077036 -32.43659657999586 -19.63215805742187 33.06205628883652 0.0 0.0
-31.17201387425299 -15.691739626266955 -14.059126050155982 -21.407057271517374 0.0 0.0
-77.06845401380856 -25.133008652952544 -30.660438800028317 -42.63842310816426 0.0 0.0
-168.25559485747607 -2.0985230401000883 -51.10623536927283 -64.17142311298014 0.0 0.0
-285.82027911470703 1.9945200209569331 -85.13005248949644 -64.6718350735037 0.0 0.0
-420.761883510586 -7.281907264554875 -131.34126510469795 -51.75634306585791 0.0 0.0
-545.9344591292491 -22.74886338378145 -201.86017623150246 -41.09911177383159 0.0 0.0
-627.2172887744863 -37.01946658616683 -282.7629970546435 -40.034988421410574 0.0 0.0
-701.6854624701045 -49.4109261229813 -352.8153712556889 -41.25376362070219 0.0 0.0
-767.9952715931914 -66.80866217973458 -408.69317079446216 -42.08255998736163 0.0 0.0
-832.2985806049643 -87.76656734048754 -456.4902786410819 -42.52906980823589 0.0 0.0
-897.7519970501908 -114.43235164724248 -504.174439757308 -42.33496935404844 0.0 0.0
-964.9440573573031 -146.4057282399345 -554.2089626583632 -41.43227963978826 0.0 0.0
-1033.4060671698142 -180.80957841238808 -605.7229768552502 -40.26943303578584 0.0 0.0
-1098.6395331413523 -214.86483709077334 -655.3202905272486 -39.10191154562301 0.0 0.0
-1157.0806102760366 -242.55543163734802 -698.2966990358782 -37.95591341624278 0.0 0.0
-1203.030771976118 -259.2934559229735 -729.5681938558184 -36.25985018808801 0.0 0.0
-1230.7494341876322 -259.9798138687358 -743.8702949602373 -33.753607377777776 0.0 0.0
-1208.7094370965174 -215.35034873297175 -711.2811614431641 -33.51572543434549 0.0 0.0
-1043.4363224387823 -37.62832181181034 -541.0246953707217 -43.32248849615914 0.0 0.0
-738.8712011020241 258.2783254436113 -241.15579781411853 -67.79845764780248 0.0 0.0
-3343.4052127397567 -2397.5903447559485 -2856.6721868354234 6.511591266189498e-11 0.0 0.0
-738.8712011019977 258.27832544360535 -241.15579781403358 67.79845764785551 0.0 0.0
-1043.436322439091 -37.628321812200646 -541.024695371027 43.32248849623067 0.0 0.0
-1208.7094370961158 -215.35034873261841 -711.2811614428541 33.51572543435192 0.0 0.0
-1230.7494341885642 -259.97981386979217 -743.8702949609219 33.75360737785251 0.0 0.0
-1203.0307719760442 -259.2934559230152 -729.5681938557227 36.259850188141 0.0 0.0
-1157.0806102761044 -242.55543163753825 -698.2966990358743 37.95591341619952 0.0 0.0
-1098.6395331405001 -214.86483709008715 -655.3202905265533 39.10191154561713 0.0 0.0
-1033.4060671692023 -180.80957841195777 -605.7229768548575 40.26943303579698 0.0 0.0
-964.944057356777 -146.4057282396235 -554.2089626579915 41.43227963979835 0.0 0.0
-897.7519970498424 -114.43235164712013 -504.17443975706334 42.33496935406854 0.0 0.0
-832.2985806046763 -87.76656734043928 -456.49027864084866 42.52906980819905 0.0 0.0
-767.9952715925508 -66.80866217932808 -408.6931707939919 42.08255998726185 0.0 0.0
-701.685462469771 -49.410926122950265 -352.81537125533686 41.25376362072092 0.0 0.0
-627.2172887740749 -37.01946658605099 -282.7629970542172 40.0349884213043 0.0 0.0
-545.9344591286525 -22.748863383531315 -201.86017623106054 41.09911177386763 0.0 0.0
-420.7618835102381 -7.2819072649010534 -131.3412651046804 51.75634306585538 0.0 0.0
-285.8202791146289 1.9945200207563047 -85.13005248953023 64.6718350735143 0.0 0.0
-168.25559485740123 -2.0985230401311057 -51.106235369259686 64.17142311285835 0.0 0.0
-77.06845401382665 -25.13300865303516 -30.660438800058547 42.6384231081978 0.0 0.0
-31.172013874266206 -15.69173962626445 -14.059126050159193 21.40705727148837 0.0 0.0
-28.21235557404974 -9.095577278275345 -11.192379855697526 -12.215140201411465 0.0 0.0
-74.31052366235622 -16.082543639557958 -27.117920190574257 -21.34743982163054 0.0 0.0
-178.5179228784557 -1.8010155174887785 -54.095681518783344 -31.381495299552363 0.0 0.0
-315.6829807113387 -1.1362877626459356 -95.02686027297457 -31.371088172308593 0.0 0.0
-468.7857794595415 -14.993098214412782 -152.2635261394695 -23.139369193762054 0.0 0.0
-579.5701152456336 -29.57889593056012 -230.08421087437523 -20.24339176192249 0.0 0.0
-655.0446669416104 -38.49415599977776 -306.77551062644443 -21.1791075391736 0.0 0.0
-728.0014430986563 -55.57698860154022 -375.0454029379264 -21.888637691510205 0.0 0.0
-795.5883942847954 -75.1671931849581 -429.28886603455817 -22.201868441726273 0.0 0.0
-862.7851542405618 -99.74907028375057 -478.8647714480389 -22.40715418804489 0.0 0.0
-932.1187622869082 -130.14152934425124 -529.8160364376683 -22.323833001388536 0.0 0.0
-1003.7326717053795 -165.19067852410657 -583.4297968680638 -22.01059353696238 0.0 0.0
-1075.5784730139721 -203.91313529464458 -638.7267894755648 -21.461098624303474 0.0 0.0
-1144.655565098186 -240.3759311213004 -691.4279744256485 -20.912762687946888 0.0 0.0
-1203.4461624823025 -268.0705621783007 -734.6022761915618 -20.345964835747807 0.0 0.0
-1245.357387019071 -280.7956099974962 -761.8807278812361 -19.295252309599164 0.0 0.0
-1267.4232989557518 -276.4766333753871 -770.7477540370362 -17.213581181978185 0.0 0.0
-1274.7414724795494 -261.48456267779784 -767.1007876155866 -14.82922627434615 0.0 0.0
-1201.8641328973317 -173.51269994888082 -687.7413392294957 -19.888693592942303 0.0 0.0
-726.2167200065413 299.157512408056 -214.26023480857677 -48.55336583128693 0.0 0.0
-3350.91741994309 -2369.8122478762934 -2850.042789865526 7.812062108314421e-11 0.0 0.0
-726.2167200063178 299.1575124082303 -214.2602348084033 48.55336583136026 0.0 0.0
-1201.864132896523 -173.51269994808644 -687.7413392289453 19.88869359292378 0.0 0.0
-1274.7414724791493 -261.4845626774824 -767.1007876154332 14.829226274336595 0.0 0.0
-1267.4232989556692 -276.4766333754226 -770.747754036945 17.21358118214277 0.0 0.0
-1245.3573870190578 -280.79560999758456 -761.8807278811561 19.29525230965626 0.0 0.0
-1203.4461624820065 -268.0705621781442 -734.602276191262 20.345964835711683 0.0 0.0
-1144.6555650970156 -240.3759311202768 -691.4279744247893 20.912762688006527 0.0 0.0
-1075.5784730135913 -203.91313529444457 -638.7267894753321 21.461098624307365 0.0 0.0
-1003.7326717044269 -165.19067852335496 -583.4297968674371 22.010593536980764 0.0 0.0
-932.11876228701 -130.14152934458656 -529.8160364377014 22.323833001335032 0.0 0.0
-862.7851542398746 -99.74907028329872 -478.86477144751746 22.407154187941487 0.0 0.0
-795.5883942842836 -75.16719318469646 -429.28886603417345 22.20186844168938 0.0 0.0
-728.001443098311 -55.576988601486526 -375.0454029376075 21.888637691485112 0.0 0.0
-655.044666941512 -38.494156000033406 -306.77551062622143 21.17910753920112 0.0 0.0
-579.5701152448966 -29.578895930086748 -230.08421087379773 20.24339176191853 0.0 0.0
-468.78577945936456 -14.993098214810244 -152.26352613945016 23.139369193712113 0.0 0.0
-315.68298071104925 -1.1362877626092194 -95.026860272894 31.371088172316018 0.0 0.0
-178.51792287822155 -1.8010155172445113 -54.095681518639815 31.38149529946441 0.0 0.0
-74.31052366228552 -16.0825436396368 -27.117920190576697 21.347439821659613 0.0 0.0
-28.212355573919872 -9.095577278189822 -11.192379855632911 12.215140201357556 0.0 0.0
-17.365780747888664 -4.417274132636285 -6.534916464157482 -7.6960294325922405 0.0 0.0
-63.656079042039195 -8.950201561284102 -21.78188418099699 -8.860879467852342 0.0 0.0
-185.1075238969747 -2.923614517727696 -56.409341524410706 -10.71393161122749 0.0 0.0
-353.19329809930036 -11.93276497196269 -109.47006646242411 -9.753631319078776 0.0 0.0
-528.5044014968898 -45.37021603989728 -186.2930474338584 -2.8410769020499593 0.0 0.0
-648.784263622616 -80.88679523933449 -285.0142797256181 0.057360904715228145 0.0 0.0
-742.422601879753 -111.31827335409662 -381.2097658092473 0.39070176246175947 0.0 0.0
-841.5193044241837 -156.38371008757235 -474.7586732868721 -0.47131110562592227 0.0 0.0
-943.672879265806 -211.54194651770234 -563.0338037448022 -1.6064762533346872 0.0 0.0
-1057.9869239723116 -283.0343522312431 -659.112998765317 -2.845885726880912 0.0 0.0
-1189.1388875052958 -374.6100328851901 -771.220351750922 -4.083019637667304 0.0 0.0
-1337.295948910614 -486.8436924223262 -901.2840557149088 -5.206630567517928 0.0 0.0
-1498.4966054387055 -613.6440547540465 -1044.804328654182 -5.960754996055231 0.0 0.0
-1666.1890333416861 -748.3772750092271 -1195.5167376954578 -6.669379806044503 0.0 0.0
-1827.666892704908 -878.418348091304 -1340.828933435805 -7.1828318532475315 0.0 0.0
-1964.7629200821127 -986.1877920278819 -1462.9610885842742 -7.277788372778648 0.0 0.0
-2054.9331178896678 -1050.3825378071224 -1540.1430955602925 -6.573414875889618 0.0 0.0
-2074.7322404312986 -1048.8406568269736 -1549.531555139275 -4.535646364661584 0.0 0.0
-2066.8725656319107 -1025.2525545336632 -1533.319853412247 -6.802147490630446 0.0 0.0
-2018.497038261109 -974.0009723720786 -1480.0741111152454 -36.4730873960551 0.0 0.0
-5119.226602952738 -4109.9934061485965 -4587.041646277618 9.275424872612348e-11 0.0 0.0
-2018.4970382602555 -974.0009723712395 -1480.074111114519 36.473087396082676 0.0 0.0
-2066.872565630669 -1025.252554532473 -1533.3198534111748 6.802147490602049 0.0 0.0
-2074.7322404300694 -1048.8406568257835 -1549.5315551384745 4.535646364678019 0.0 0.0
-2054.933117888323 -1050.3825378058796 -1540.1430955590654 6.573414875856841 0.0 0.0
-1964.7629200823685 -986.187792028263 -1462.96108858428 7.277788372697444 0.0 0.0
-1827.6668927035212 -878.418348090048 -1340.828933434554 7.182831853160707 0.0 0.0
-1666.1890333411213 -748.3772750088269 -1195.5167376949473 6.669379806066097 0.0 0.0
-1498.496605438464 -613.6440547540187 -1044.804328653849 5.960754996079633 0.0 0.0
-1337.2959489089285 -486.84369242080794 -901.2840557136785 5.206630567543716 0.0 0.0
-1189.1388875053146 -374.61003288547425 -771.2203517508113 4.0830196375603585 0.0 0.0
-1057.9869239708344 -283.034352229987 -659.1129987642092 2.845885726800887 0.0 0.0
-943.6728792652867 -211.54194651745155 -563.033803744352 1.6064762533547103 0.0 0.0
-841.5193044236319 -156.3837100872993 -474.7586732863939 0.47131110553460687 0.0 0.0
-742.4226018795563 -111.31827335426507 -381.20976580892943 -0.3907017623643476 0.0 0.0
-648.7842636219203 -80.88679523890251 -285.014279724995 -0.05736090468553101 0.0 0.0
-528.504401496425 -45.370216039798294 -186.29304743356488 2.8410769020237296 0.0 0.0
-353.1932980988807 -11.932764971792658 -109.47006646225228 9.753631319092598 0.0 0.0
-185.10752389663867 -2.9236145172726857 -56.4093415241734 10.713931611278214 0.0 0.0
-63.65607904208165 -8.950201561421164 -21.781884181050835 8.860879467917135 0.0 0.0
-17.36578074789603 -4.417274132581527 -6.534916464143263 7.696029432521405 0.0 0.0
SCALARS Strain float 6
LOOKUP_TABLE default
0.011766861549248636 -0.020272981933014862 0.0 -0.0007847565116444835 0.0 0.0
0.007237432762298352 -0.0016483229747053852 0.0 -0.006229447918892247 0.0 0.0
0.002270824836603059 -0.0006167351563795279 0.0 -0.0006260645449459631 0.0 0.0
0.0020323851162209615 -0.0008143341901374552 0.0 -3.6249705730379936e-05 0.0 0.0
0.002726337273061043 -0.0011097664002365953 0.0 8.006806075992093e-05 0.0 0.0
0.0041893295306768006 -0.0021559148090823043 0.0 0.00017120024062895279 0.0 0.0
0.0066412451512089 -0.004163459747179524 0.0 0.00022590442892789824 0.0 0.0
0.010198113909779146 -0.007253831746720903 0.0 0.0002469208330627239 0.0 0.0
0.014975567566024927 -0.011540925780555659 0.0 0.0002431749417711366 0.0 0.0
0.02103151670031378 -0.017031003333991445 0.0 0.0002030148037815358 0.0 0.0
0.028404974192739803 -0.023731162873384372 0.0 0.00016852275175520897 0.0 0.0
0.03716011961465344 -0.03170271946112354 0.0 0.00013496674317219613 0.0 0.0
0.04736724198153959 -0.041045342206341845 0.0 3.905238865722232e-05 0.0 0.0
0.05908511297193139 -0.051848368843877196 0.0 -7.095332362263022e-05 0.0 0.0
0.072281734559047 -0.0641273688948952 0.0 -0.00025128182915712264 0.0 0.0
0.0866734732313646 -0.07764887378627344 0.0 -0.0005181812646086444 0.0 0.0
0.10160641603393261 -0.0918037458505086 0.0 -0.0008293523507307496 0.0 0.0
0.11603033247311706 -0.10558747500441223 0.0 -0.0010626950714014598 0.0 0.0
0.12861083684966318 -0.11768973763648963 0.0 -0.001049346598913798 0.0 0.0
0.13781676934798628 -0.12663573738374248 0.0 -0.001046960724069759 0.0 0.0
0.1413719528797913 -0.13022467308724822 0.0 1.691355389077387e-15 0.0 0.0
0.13781676934797094 -0.12663573738373163 0.0 0.001046960724075288 0.0 0.0
0.12861083684963068 -0.11768973763646753 0.0 0.0010493465989186764 0.0 0.0
0.11603033247306993 -0.1055874750043655 0.0 0.0010626950714043718 0.0 0.0
0.10160641603387782 -0.09180374585046526 0.0 0.0008293523507312984 0.0 0.0
0.08667347323130783 -0.07764887378621724 0.0 0.0005181812646066659 0.0 0.0
0.07228173455898931 -0.06412736889484281 0.0 0.00025128182915623055 0.0 0.0
0.05908511297187233 -0.051848368843829484 0.0 7.09533236210977e-05 0.0 0.0
0.047367241981481484 -0.041045342206287964 0.0 -3.90523886597818e-05 0.0 0.0
0.0371601196146 -0.03170271946107758 0.0 -0.0001349667431721274 0.0 0.0
0.028404974192693395 -0.023731162873340792 0.0 -0.00016852275175743034 0.0 0.0
0.021031516700275466 -0.017031003333956133 0.0 -0.00020301480378360484 0.0 0.0
0.014975567565995326 -0.011540925780528673 0.0 -0.0002431749417698079 0.0 0.0
0.010198113909757387 -0.007253831746699097 0.0 -0.0002469208330624445 0.0 0.0
0.006641245151194363 -0.004163459747167021 0.0 -0.0002259044289278059 0.0 0.0
0.0041893295306687315 -0.002155914809074915 0.0 -0.00017120024062720982 0.0 0.0
0.0027263372730575567 -0.0011097664002367765 0.0 -8.006806075869123e-05 0.0 0.0
0.002032385116219974 -0.000814334190138254 0.0 3.624970572954307e-05 0.0 0.0
0.00227082483660168 -0.0006167351563791477 0.0 0.0006260645449448248 0.0 0.0
0.007237432762293024 -0.0016483229747027896 0.0 0.006229447918883378 0.0 0.0
0.011766861549240268 -0.02027298193299123 0.0 0.000784756511605691 0.0 0.0
0.00800620384375438 -0.018076313111364692 0.0 -0.0003240022191644454 0.0 0.0
0.004736802745631231 -0.0012136040780149544 0.0 -0.004915890596042265 0.0 0.0
0.0015559718012529262 -0.0004942651909894091 0.0 -0.0004137678984613307 0.0 0.0
0.0018159804896474242 -0.0007727272434307688 0.0 -0.000209657151505835 0.0 0.0
0.002384568328288582 -0.001016334679899959 0.0 -0.00016437135026795637 0.0 0.0
0.003628113794424603 -0.0019353280746528105 0.0 -0.0001949440436350654 0.0 0.0
0.005812089361115503 -0.0038011131890929306 0.0 -0.0003843772428838935 0.0 0.0
0.009039837399099932 -0.0067207709657397755 0.0 -0.0006470320570081546 0.0 0.0
0.013394343800772568 -0.010795127204358207 0.0 -0.0009951175750110691 0.0 0.0
0.018896913745705426 -0.01601396339481871 0.0 -0.0014099971416780257 0.0 0.0
0.025554882948778775 -0.022368362087374125 0.0 -0.0018444950612694281 0.0 0.0
0.03341459840888311 -0.029905519956531852 0.0 -0.002278456659635745 0.0 0.0
0.04257440015437151 -0.03873174703217752 0.0 -0.0027646178987207983 0.0 0.0
0.05312176429292197 -0.04895781879314393 0.0 -0.003323748454374785 0.0 0.0
0.06504134043576336 -0.060602839811756584 0.0 -0.003949610984638968 0.0 0.0
0.07809090309102695 -0.07345365094833295 0.0 -0.004607612801014759 0.0 0.0
0.09168436367482677 -0.08694184490036441 0.0 -0.00513683460521381 0.0 0.0
0.10487923179774378 -0.10012035449314988 0.0 -0.005246290543050856 0.0 0.0
0.11642309731013724 -0.11173070601344415 0.0 -0.004675785649449353 0.0 0.0
0.12468599108505501 -0.12023392981955672 0.0 -0.0036102792616640794 0.0 0.0
0.12776395422590636 -0.12368490233742829 0.0 4.797811453682854e-15 0.0 0.0
0.12468599108504026 -0.12023392981954398 0.0 0.0036102792616774216 0.0 0.0
0.1164230973101082 -0.11173070601341456 0.0 0.004675785649464602 0.0 0.0
0.10487923179770293 -0.10012035449311207 0.0 0.005246290543060464 0.0 0.0
0.09168436367477888 -0.08694184490031755 0.0 0.005136834605215884 0.0 0.0
0.078090903090976 -0.07345365094828467 0.0 0.00460761280101309 0.0 0.0
0.06504134043571093 -0.06060283981170948 0.0 0.003949610984636261 0.0 0.0
0.05312176429286868 -0.04895781879309365 0.0 0.0033237484543736343 0.0 0.0
0.04257440015431951 -0.03873174703212767 0.0 0.0027646178987183545 0.0 0.0
0.0334145984088352 -0.02990551995648555 0.0 0.002278456659632694 0.0 0.0
0.025554882948737055 -0.022368362087332595 0.0 0.001844495061265089 0.0 0.0
0.018896913745670978 -0.01601396339478548 0.0 0.0014099971416753686 0.0 0.0
0.013394343800745707 -0.010795127204332785 0.0 0.0009951175750100697 0.0 0.0
0.009039837399080436 -0.006720770965721182 0.0 0.0006470320570067204 0.0 0.0
0.005812089361102685 -0.0038011131890816176 0.0 0.0003843772428826188 0.0 0.0
0.003628113794417567 -0.0019353280746464063 0.0 0.0001949440436356958 0.0 0.0
0.0023845683282857828 -0.0010163346798995547 0.0 0.00016437135026817331 0.0 0.0
0.0018159804896465187 -0.0007727272434304837 0.0 0.00020965715150423323 0.0 0.0
0.0015559718012526278 -0.0004942651909890701 0.0 0.00041376789846035586 0.0 0.0
0.004736802745625305 -0.00121360407801222 0.0 0.004915890596032474 0.0 0.0
0.008006203843742557 -0.018076313111340656 0.0 0.00032400221913556125 0.0 0.0
0.005771514599694124 -0.014278763235402163 0.0 -0.0029326204034112076 0.0 0.0
0.0033120373528418854 -0.00065122475590618 0.0 -0.004791609129306822 0.0 0.0
0.0010990425118868688 -0.000290944765662907 0.0 -0.00039964526206569256 0.0 0.0
0.0015533783925555224 -0.0006680525067610255 0.0 -0.00047642474677901875 0.0 0.0
0.0020746358646153637 -0.000858561822969294 0.0 -0.00046981223944841477 0.0 0.0
0.00309282300293558 -0.0015244359536917952 0.0 -0.0004978354537069985 0.0 0.0
0.004986099316021575 -0.0030854552457396916 0.0 -0.0008484255624134174 0.0 0.0
0.007870784884979267 -0.0056608532919944264 0.0 -0.0013714927148650894 0.0 0.0
0.011783754367280694 -0.009297642303003352 0.0 -0.0020572073333432624 0.0 0.0
0.01672158398390713 -0.013968463005765146 0.0 -0.0028598370185166817 0.0 0.0
0.02266481203548495 -0.019630065126227614 0.0 -0.003708817874514583 0.0 0.0
0.02964247449876254 -0.026306726134592853 0.0 -0.004550771057234405 0.0 0.0
0.03775196062507976 -0.03410473002952499 0.0 -0.005415729936128282 0.0 0.0
0.047111465133125335 -0.04316538261761325 0.0 -0.006400619504220212 0.0 0.0
0.05773536065691176 -0.05353198793275441 0.0 -0.007521594437009399 0.0 0.0
0.06942286018455628 -0.06503155951925284 0.0 -0.008670079506503444 0.0 0.0
0.08168282079535898 -0.07718406577703663 0.0 -0.009565187047400666 0.0 0.0
0.09368306883464438 -0.08916321834042149 0.0 -0.009743962201397841 0.0 0.0
0.10422320649364934 -0.09979558079893283 0.0 -0.008796462114422447 0.0 0.0
0.11180406438540427 -0.10754216782996831 0.0 -0.006603975029292102 0.0 0.0
0.11465418137514784 -0.11085797243417238 0.0 9.878816514818922e-15 0.0 0.0
0.11180406438539037 -0.10754216782995613 0.0 0.006603975029316123 0.0 0.0
0.10422320649362345 -0.09979558079890548 0.0 0.008796462114445881 0.0 0.0
0.09368306883460868 -0.08916321834038698 0.0 0.009743962201411962 0.0 0.0
0.08168282079531707 -0.07718406577699596 0.0 0.00956518704740324 0.0 0.0
0.06942286018451085 -0.06503155951921168 0.0 0.008670079506499352 0.0 0.0
0.05773536065686494 -0.0535319879327109 0.0 0.007521594437006245 0.0 0.0
0.04711146513307824 -0.043165382617567354 0.0 0.006400619504218441 0.0 0.0
0.03775196062503363 -0.03410473002947882 0.0 0.00541572993612433 0.0 0.0
0.029642474498719866 -0.026306726134550488 0.0 0.004550771057227397 0.0 0.0
0.022664812035447526 -0.019630065126191216 0.0 0.003708817874507923 0.0 0.0
0.01672158398387612 -0.013968463005735187 0.0 0.002859837018509952 0.0 0.0
0.011783754367256507 -0.009297642302980965 0.0 0.002057207333338595 0.0 0.0
0.00787078488496178 -0.00566085329197847 0.0 0.0013714927148618236 0.0 0.0
0.00498609931601066 -0.0030854552457304086 0.0 0.0008484255624109441 0.0 0.0
0.0030928230029301463 -0.0015244359536870724 0.0 0.0004978354537063027 0.0 0.0
0.0020746358646132794 -0.0008585618229682489 0.0 0.0004698122394486054 0.0 0.0
0.0015533783925549803 -0.0006680525067605916 0.0 0.00047642474677811225 0.0 0.0
0.0010990425118868477 -0.0002909447656629715 0.0 0.0003996452620640467 0.0 0.0
0.0033120373528364474 -0.0006512247559032244 0.0 0.004791609129294957 0.0 0.0
0.005771514599683084 -0.01427876323537894 0.0 0.002932620403391575 0.0 0.0
0.004295661041732552 -0.011426493399345792 0.0 -0.0033470719358095124 0.0 0.0
0.0024093973329659736 -0.0004784643724473443 0.0 -0.004379408375758582 0.0 0.0
0.0007882696109745713 -0.00016477366154810265 0.0 -0.0006893711348117055 0.0 0.0
0.0012893136948410753 -0.0005373928677187307 0.0 -0.0007316516849913439 0.0 0.0
0.0017852345891894118 -0.000737714465627176 0.0 -0.0007807453524562584 0.0 0.0
0.002600997527878515 -0.0011922295867642626 0.0 -0.0007937932714724162 0.0 0.0
0.004179510536660387 -0.0024074952704174375 0.0 -0.0011597504258560078 0.0 0.0
0.006698505652922979 -0.004616135880726017 0.0 -0.0019049887877301366 0.0 0.0
0.010156988005909577 -0.007798502124338389 0.0 -0.0028499536113070585 0.0 0.0
0.014520866006989423 -0.011908333272786356 0.0 -0.003954204916547557 0.0 0.0
0.01974836334519151 -0.016876698097292232 0.0 -0.005118687797490273 0.0 0.0
0.025851741964894676 -0.022703115164950535 0.0 -0.006272799324585298 0.0 0.0
0.03292196614466123 -0.029483045415855745 0.0 -0.0074448197118477735 0.0 0.0
0.04108140519654748 -0.03736784268442815 0.0 -0.008737722038489873 0.0 0.0
0.0503842386931861 -0.04643250717716062 0.0 -0.010202349337082433 0.0 0.0
0.060695061749999404 -0.056559593481330606 0.0 -0.0117206950806342 0.0 0.0
0.07161103273611906 -0.06736489259189807 0.0 -0.01292429878106374 0.0 0.0
0.08241463972863679 -0.07814664740672765 0.0 -0.013241955586596448 0.0 0.0
0.09202651488796067 -0.0878347842174555 0.0 -0.012084132207482622 0.0 0.0
0.09910411498017065 -0.09504066639998907 0.0 -0.008839330173902642 0.0 0.0
0.10183218953025278 -0.09842769741843779 0.0 1.4674459564156805e-14 0.0 0.0
0.09910411498015784 -0.09504066639997905 0.0 0.00883933017393567 0.0 0.0
0.09202651488793749 -0.08783478421742931 0.0 0.012084132207514496 0.0 0.0
0.08241463972860559 -0.07814664740669398 0.0 0.013241955586615721 0.0 0.0
0.07161103273608285 -0.06736489259186548 0.0 0.012924298781068457 0.0 0.0
0.06069506174995981 -0.05655959348129161 0.0 0.01172069508063079 0.0 0.0
0.050384238693144935 -0.04643250717712062 0.0 0.01020234933707859 0.0 0.0
0.04108140519650636 -0.037367842684388974 0.0 0.008737722038486736 0.0 0.0
0.03292196614462109 -0.029483045415815347 0.0 0.007444819711841846 0.0 0.0
0.02585174196485757 -0.022703115164916837 0.0 0.006272799324574418 0.0 0.0
0.01974836334515867 -0.0168766980972588 0.0 0.00511868779748264 0.0 0.0
0.014520866006961869 -0.01190833327276096 0.0 0.003954204916537714 0.0 0.0
0.010156988005888077 -0.007798502124320608 0.0 0.002849953611299925 0.0 0.0
0.0066985056529077205 -0.004616135880710461 0.0 0.001904988787724771 0.0 0.0
0.004179510536651328 -0.0024074952704094808 0.0 0.0011597504258531333 0.0 0.0
0.0026009975278744758 -0.0011922295867616455 0.0 0.0007937932714708518 0.0 0.0
0.001785234589188098 -0.0007377144656272412 0.0 0.0007807453524556954 0.0 0.0
0.0012893136948406848 -0.0005373928677188119 0.0 0.0007316516849903209 0.0 0.0
0.0007882696109746105 -0.0001647736615477406 0.0 0.000689371134809439 0.0 0.0
0.00240939733296105 -0.0004784643724446848 0.0 0.00437940837574844 0.0 0.0
0.004295661041722432 -0.01142649339932521 0.0 0.0033470719357942 0.0 0.0
0.00321435092976059 -0.009146041505872287 0.0 -0.0030161249739843136 0.0 0.0
0.001778002607824526 -0.0004137384653332826 0.0 -0.00393490331631878 0.0 0.0
0.0005723557191687443 -9.853211126219278e-05 0.0 -0.0010631624398443021 0.0 0.0
0.0010416512084353337 -0.00040682410013844107 0.0 -0.0010060165056249035 0.0 0.0
0.0015074255554232937 -0.0006263795897121936 0.0 -0.001083919555174547 0.0 0.0
0.0021615687982091633 -0.000942542181854873 0.0 -0.0010971883268111728 0.0 0.0
0.0034152574572687594 -0.001812703576607785 0.0 -0.0013940382887822856 0.0 0.0
0.005534289670315259 -0.003596979786806776 0.0 -0.0022057965362327057 0.0 0.0
0.008527893142872247 -0.00631506926984555 0.0 -0.00336609831583595 0.0 0.0
0.012308727930960188 -0.009852143227169636 0.0 -0.004685145345315156 0.0 0.0
0.016821006285714746 -0.014125312919247415 0.0 -0.006073121198094996 0.0 0.0
0.022055851698282274 -0.019108099861733424 0.0 -0.007443354655158385 0.0 0.0
0.02809130860132425 -0.024879422980033334 0.0 -0.008827468565601177 0.0 0.0
0.035057653185653924 -0.031590243390099505 0.0 -0.010334199138489899 0.0 0.0
0.04302826082721648 -0.03934036687571321 0.0 -0.01201688542098823 0.0 0.0
0.05193015830186697 -0.048070718048331684 0.0 -0.013749347815076102 0.0 0.0
0.06147354468940454 -0.057497278488295486 0.0 -0.015173477573013065 0.0 0.0
0.07107104026739951 -0.06705550535827745 0.0 -0.01568860501520216 0.0 0.0
0.07980540945879655 -0.07584302483145852 0.0 -0.014468311208210629 0.0 0.0
0.08649476171923538 -0.08264869299647229 0.0 -0.010551421813209337 0.0 0.0
0.08916813637222198 -0.08622313429636431 0.0 1.473387384320901e-14 0.0 0.0
0.08649476171922371 -0.08264869299646138 0.0 0.010551421813247374 0.0 0.0
0.07980540945877551 -0.07584302483143221 0.0 0.014468311208248485 0.0 0.0
0.07107104026737221 -0.0670555053582506 0.0 0.015688605015222675 0.0 0.0
0.06147354468937327 -0.05749727848826404 0.0 0.015173477573018023 0.0 0.0
0.05193015830183257 -0.04807071804830013 0.0 0.013749347815069913 0.0 0.0
0.04302826082718106 -0.03934036687567967 0.0 0.012016885420983774 0.0 0.0
0.03505765318561873 -0.03159024339006649 0.0 0.01033419913848566 0.0 0.0
0.028091308601289854 -0.024879422980000017 0.0 0.008827468565593554 0.0 0.0
0.022055851698250726 -0.019108099861703722 0.0 0.007443354655147148 0.0 0.0
0.01682100628568677 -0.014125312919219906 0.0 0.006073121198084089 0.0 0.0
0.012308727930936366 -0.009852143227149727 0.0 0.004685145345302625 0.0 0.0
0.008527893142853923 -0.00631506926982944 0.0 0.003366098315827657 0.0 0.0
0.005534289670302395 -0.0035969797867965083 0.0 0.0022057965362271663 0.0 0.0
0.0034152574572611514 -0.0018127035766013237 0.0 0.00139403828877874 0.0 0.0
0.002161568798206004 -0.0009425421818538967 0.0 0.0010971883268092377 0.0 0.0
0.0015074255554222392 -0.0006263795897124808 0.0 0.0010839195551737412 0.0 0.0
0.001041651208435084 -0.0004068241001380368 0.0 0.0010060165056235834 0.0 0.0
0.0005723557191688311 -9.853211126203244e-05 0.0 0.0010631624398414442 0.0 0.0
0.0017780026078202497 -0.0004137384653311183 0.0 0.003934903316309627 0.0 0.0
0.0032143509297520812 -0.009146041505854833 0.0 0.0030161249739743515 0.0 0.0
0.0023845157209911477 -0.007259600064544928 0.0 -0.0025356485177780376 0.0 0.0
0.0013091754278160624 -0.0003815751867645785 0.0 -0.00350601859634056 0.0 0.0
0.0004136593116049912 -6.921655832828123e-05 0.0 -0.0014162140168169754 0.0 0.0
0.0008122436295337437 -0.0002882481008706503 0.0 -0.0012868865177807576 0.0 0.0
0.001237013071570123 -0.0005134028102670012 0.0 -0.001368040903123577 0.0 0.0
0.001764071757103893 -0.0007495759840375163 0.0 -0.0013960500817865769 0.0 0.0
0.0027207706032100075 -0.001332602900656774 0.0 -0.0016264677314596588 0.0 0.0
0.004408122536346195 -0.002654278234366415 0.0 -0.0023367116552788897 0.0 0.0
0.00690233040462836 -0.004862410922936327 0.0 -0.003570662506732572 0.0 0.0
0.010099876714257971 -0.007819464829148047 0.0 -0.005041362629205945 0.0 0.0
0.013895534382923637 -0.011393709937764824 0.0 -0.00655893570695584 0.0 0.0
0.018268898296140153 -0.015538868095104238 0.0 -0.008057390120294721 0.0 0.0
0.023280727778535616 -0.020311416188130937 0.0 -0.0095547408709117 0.0 0.0
0.0290530969663855 -0.025854167600107572 0.0 -0.011161590537688157 0.0 0.0
0.035689647510372555 -0.03228582350796057 0.0 -0.012945872188619142 0.0 0.0
0.04317067696909447 -0.039602836350153346 0.0 -0.014777432274140932 0.0 0.0
0.051292452309279805 -0.04760825592026206 0.0 -0.01631211395895833 0.0 0.0
0.05964084333422692 -0.05589172603921689 0.0 -0.01699643903128833 0.0 0.0
0.06751192032171946 -0.06378227347377476 0.0 -0.015915699360729615 0.0 0.0
0.07388432496165537 -0.07026847663227341 0.0 -0.011792616339427797 0.0 0.0
0.07655003407643739 -0.07412824577972607 0.0 1.534276178327687e-14 0.0 0.0
0.07388432496164508 -0.07026847663226074 0.0 0.011792616339465645 0.0 0.0
0.06751192032170134 -0.0637822734737602 0.0 0.015915699360766436 0.0 0.0
0.059640843334203913 -0.055891726039189724 0.0 0.016996439031311397 0.0 0.0
0.051292452309253576 -0.04760825592023452 0.0 0.016312113958964033 0.0 0.0
0.043170676969065465 -0.03960283635012862 0.0 0.014777432274134583 0.0 0.0
0.035689647510342766 -0.032285823507933104 0.0 0.012945872188612782 0.0 0.0
0.02905309696635651 -0.025854167600082065 0.0 0.011161590537683157 0.0 0.0
0.023280727778507038 -0.020311416188103407 0.0 0.009554740870903744 0.0 0.0
0.01826889829611363 -0.015538868095077214 0.0 0.008057390120284232 0.0 0.0
0.013895534382900348 -0.011393709937747219 0.0 0.006558935706941607 0.0 0.0
0.010099876714238074 -0.007819464829128858 0.0 0.00504136262919289 0.0 0.0
0.006902330404613247 -0.004862410922922148 0.0 0.0035706625067240616 0.0 0.0
0.004408122536335999 -0.0026542782343580745 0.0 0.00233671165527359 0.0 0.0
0.0027207706032047613 -0.0013326029006522522 0.0 0.0016264677314574935 0.0 0.0
0.0017640717571020788 -0.0007495759840375098 0.0 0.0013960500817841275 0.0 0.0
0.0012370130715695347 -0.0005134028102659449 0.0 0.0013680409031225117 0.0 0.0
0.0008122436295335721 -0.00028824810087103484 0.0 0.001286886517778976 0.0 0.0
0.0004136593116049353 -6.921655832827785e-05 0.0 0.0014162140168143514 0.0 0.0
0.001309175427812723 -0.00038157518676326863 0.0 0.0035060185963316443 0.0 0.0
0.002384515720984496 -0.007259600064530575 0.0 0.002535648517770923 0.0 0.0
0.0017403075263287735 -0.005680826286358297 0.0 -0.0020914091039689504 0.0 0.0
0.0009505070200407023 -0.0003631268522534085 0.0 -0.0031195753681062463 0.0 0.0
0.00028697257796498574 -5.525943683820772e-05 0.0 -0.0017090360747478205 0.0 0.0
0.0005987253850815969 -0.0001841985403854333 0.0 -0.0015521528884031152 0.0 0.0
0.0009696145336279553 -0.0003930012004761473 0.0 -0.0016207585067025188 0.0 0.0
0.0013928791249508828 -0.0005920432422474643 0.0 -0.0016898410916956082 0.0 0.0
0.0020943016908536935 -0.0009557493894400127 0.0 -0.0018429786825393877 0.0 0.0
0.0033593419229089546 -0.0018480346034996501 0.0 -0.0024094886829158844 0.0 0.0
0.005314915579446731 -0.0034885899160098685 0.0 -0.0035011912459943285 0.0 0.0
0.007903536699140866 -0.005832814702759142 0.0 -0.0049849835844697 0.0 0.0
0.010986833915893132 -0.008703837609519524 0.0 -0.006556024730595488 0.0 0.0
0.014503447266264853 -0.012014044741523323 0.0 -0.008096721033024045 0.0 0.0
0.018502514266377435 -0.015799913828384447 0.0 -0.009615044567547406 0.0 0.0
0.02309533651068115 -0.020186681535033165 0.0 -0.011216460950309554 0.0 0.0
0.028393941806250413 -0.025299492410173822 0.0 -0.012963813874736942 0.0 0.0
0.03443290287832025 -0.031188662774975638 0.0 -0.014778678159928192 0.0 0.0
0.04110163419131549 -0.03773538640726387 0.0 -0.016332499952018496 0.0 0.0
0.048136098726831875 -0.044674926833693916 0.0 -0.017136569290737695 0.0 0.0
0.055090059438844 -0.051607949184842274 0.0 -0.016358621798887283 0.0 0.0
0.06116877661399088 -0.05779329824765311 0.0 -0.01253647231566566 0.0 0.0
0.06386122076894514 -0.06203288722234547 0.0 1.4347030508066183e-14 0.0 0.0
0.061168776613981915 -0.057793298247634045 0.0 0.012536472315703494 0.0 0.0
0.05509005943882876 -0.05160794918483325 0.0 0.01635862179892341 0.0 0.0
0.04813609872681286 -0.04467492683367544 0.0 0.017136569290760562 0.0 0.0
0.04110163419129357 -0.03773538640724342 0.0 0.016332499952019644 0.0 0.0
0.03443290287829629 -0.03118866277495369 0.0 0.014778678159919227 0.0 0.0
0.02839394180622643 -0.025299492410152967 0.0 0.012963813874729604 0.0 0.0
0.023095336510658458 -0.020186681535012317 0.0 0.011216460950304954 0.0 0.0
0.018502514266355016 -0.015799913828364303 0.0 0.009615044567539779 0.0 0.0
0.014503447266243592 -0.012014044741502274 0.0 0.008096721033013728 0.0 0.0
0.010986833915874421 -0.00870383760950607 0.0 0.006556024730581228 0.0 0.0
0.007903536699125054 -0.005832814702742339 0.0 0.0049849835844575485 0.0 0.0
0.0053149155794348325 -0.003488589916001437 0.0 0.003501191245987121 0.0 0.0
0.0033593419229012043 -0.0018480346034901911 0.0 0.002409488682911639 0.0 0.0
0.00209430169084983 -0.0009557493894389582 0.0 0.001842978682538431 0.0 0.0
0.0013928791249494055 -0.0005920432422474359 0.0 0.0016898410916931098 0.0 0.0
0.0009696145336271038 -0.00039300120047497736 0.0 0.0016207585067011575 0.0 0.0
0.0005987253850813187 -0.00018419854038540353 0.0 0.0015521528884006378 0.0 0.0
0.00028697257796472526 -5.525943683803918e-05 0.0 0.0017090360747451495 0.0 0.0
0.0009505070200379318 -0.00036312685225256503 0.0 0.0031195753680996986 0.0 0.0
0.0017403075263239288 -0.005680826286346729 0.0 0.0020914091039637922 0.0 0.0
0.0012393847205160854 -0.004370808780944736 0.0 -0.001759381212622395 0.0 0.0
0.0006702263132906403 -0.00035622684506895537 0.0 -0.002772887232784996 0.0 0.0
0.00017584353937251694 -4.092984733000703e-05 0.0 -0.0019355046204562573 0.0 0.0
0.000397098170636611 -9.274182491631805e-05 0.0 -0.0017836440274891711 0.0 0.0
0.0007006008233276438 -0.0002674596260273848 0.0 -0.0018365135821359103 0.0 0.0
0.0010393315237195574 -0.0004438573958195916 0.0 -0.0019518817703684192 0.0 0.0
0.0015286838200530264 -0.000666907007227427 0.0 -0.0020670296505178026 0.0 0.0
0.0023999815571975496 -0.0011961318769426199 0.0 -0.00244155728913512 0.0 0.0
0.0038112294672636732 -0.0022688546648498573 0.0 -0.0032725669252776307 0.0 0.0
0.005751573312889458 -0.0039475993543962905 0.0 -0.0045428662518379 0.0 0.0
0.008103473838198885 -0.006087432903802438 0.0 -0.0060336656657114995 0.0 0.0
0.010772130024964677 -0.008562331300588037 0.0 -0.007521247073895577 0.0 0.0
0.013773309370763346 -0.011372281440930145 0.0 -0.008978958271895997 0.0 0.0
0.01719953620108819 -0.014619005679418214 0.0 -0.010474189603768962 0.0 0.0
0.021167540762580216 -0.01842162692116203 0.0 -0.012077017019723982 0.0 0.0
0.025752032515563798 -0.022866584542980725 0.0 -0.013732562357552392 0.0 0.0
0.030922437471095708 -0.027921266715152174 0.0 -0.015205431199458972 0.0 0.0
0.03656471619339906 -0.03344156135799161 0.0 -0.016053143188393553 0.0 0.0
0.04249880137077541 -0.03928983977544743 0.0 -0.015682221984824354 0.0 0.0
0.04823856567874214 -0.04510859756274808 0.0 -0.01269883295487478 0.0 0.0
0.05096715733560515 -0.049820235272324265 0.0 1.3406810384086754e-14 0.0 0.0
0.04823856567873562 -0.04510859756273847 0.0 0.012698832954907924 0.0 0.0
0.0424988013707631 -0.03928983977543829 0.0 0.015682221984859065 0.0 0.0
0.03656471619338386 -0.033441561357980557 0.0 0.016053143188414335 0.0 0.0
0.030922437471078652 -0.027921266715136284 0.0 0.015205431199461158 0.0 0.0
0.02575203251554568 -0.022866584542965123 0.0 0.013732562357545084 0.0 0.0
0.021167540762562578 -0.018421626921144817 0.0 0.012077017019717851 0.0 0.0
0.01719953620107173 -0.014619005679401404 0.0 0.010474189603765003 0.0 0.0
0.013773309370747019 -0.011372281440913793 0.0 0.008978958271889327 0.0 0.0
0.010772130024948838 -0.008562331300572016 0.0 0.007521247073884562 0.0 0.0
0.008103473838184645 -0.0060874329037920475 0.0 0.006033665665697534 0.0 0.0
0.00575157331287782 -0.003947599354384345 0.0 0.004542866251826986 0.0 0.0
0.0038112294672555747 -0.002268854664842622 0.0 0.003272566925271636 0.0 0.0
0.0023999815571925987 -0.0011961318769377267 0.0 0.002441557289131873 0.0 0.0
0.0015286838200507479 -0.0006669070072293919 0.0 0.0020670296505159334 0.0 0.0
0.001039331523718809 -0.0004438573958184134 0.0 0.0019518817703660031 0.0 0.0
0.0007006008233271367 -0.00026745962602664567 0.0 0.0018365135821343014 0.0 0.0
0.00039709817063622956 -9.274182491557339e-05 0.0 0.0017836440274873466 0.0 0.0
0.00017584353937216674 -4.092984732943432e-05 0.0 0.0019355046204535546 0.0 0.0
0.0006702263132886722 -0.0003562268450686359 0.0 0.0027728872327802945 0.0 0.0
0.0012393847205125878 -0.004370808780935878 0.0 0.001759381212619836 0.0 0.0
0.0008709251544330627 -0.003332789138634988 0.0 -0.001574112811975302 0.0 0.0
0.00045265136482942057 -0.00036073620832391385 0.0 -0.0024823162828920033 0.0 0.0
6.682400676757134e-05 -1.697696388424513e-05 0.0 -0.002099162429833133 0.0 0.0
0.00020517735624277274 -1.088948837329395e-05 0.0 -0.00196983444946026 0.0 0.0
0.00043109786869716343 -0.00014201072023136243 0.0 -0.0020093959492430208 0.0 0.0
0.000684176307892839 -0.00028550417559805114 0.0 -0.002151185380780694 0.0 0.0
0.0010092232092203703 -0.0004365152589011732 0.0 -0.0023055518814148377 0.0 0.0
0.0015396078467565574 -0.0007065616580961288 0.0 -0.002510263226812166 0.0 0.0
0.002420423966760924 -0.0012731513589744352 0.0 -0.0029921117329947938 0.0 0.0
0.003692417203487971 -0.002264846909905419 0.0 -0.003845584348397815 0.0 0.0
0.005279624996164027 -0.003625592783462286 0.0 -0.00502378750292241 0.0 0.0
0.007088133895861892 -0.005245800048068969 0.0 -0.006301839397334065 0.0 0.0
0.009101753300993517 -0.007080425895512581 0.0 -0.0076089470737284275 0.0 0.0
0.011383122006079945 -0.009203676664623775 0.0 -0.008931594864652191 0.0 0.0
0.014032509744407628 -0.011708604928156193 0.0 -0.010293351015955033 0.0 0.0
0.01715037202859798 -0.014698818486602407 0.0 -0.011699302365332322 0.0 0.0
0.02079412197358355 -0.018223627144911585 0.0 -0.013012190749311762 0.0 0.0
0.02495986255006827 -0.022266164177216472 0.0 -0.013860149994137552 0.0 0.0
0.029696854758051262 -0.02685313749451828 0.0 -0.013772657902096008 0.0 0.0
0.03496452395139656 -0.032094722796539354 0.0 -0.012039800795590081 0.0 0.0
0.0377042962187024 -0.0373417605685799 0.0 1.0422652324537651e-14 0.0 0.0
0.034964523951392205 -0.0320947227965397 0.0 0.012039800795616451 0.0 0.0
0.029696854758042582 -0.02685313749451055 0.0 0.013772657902128473 0.0 0.0
0.0249598625500571 -0.022266164177202886 0.0 0.013860149994154265 0.0 0.0
0.02079412197357166 -0.018223627144898766 0.0 0.013012190749310763 0.0 0.0
0.01715037202858598 -0.01469881848659254 0.0 0.011699302365325204 0.0 0.0
0.01403250974439634 -0.011708604928144179 0.0 0.010293351015950731 0.0 0.0
0.011383122006069732 -0.009203676664611764 0.0 0.008931594864648798 0.0 0.0
0.009101753300983319 -0.007080425895504562 0.0 0.007608947073722925 0.0 0.0
0.0070881338958516 -0.00524580004806142 0.0 0.006301839397326612 0.0 0.0
0.005279624996154718 -0.0036255927834541483 0.0 0.005023787502911896 0.0 0.0
0.003692417203480584 -0.0022648469098989904 0.0 0.0038455843483906713 0.0 0.0
0.002420423966755942 -0.0012731513589688136 0.0 0.002992111732991054 0.0 0.0
0.0015396078467535862 -0.0007065616580914871 0.0 0.002510263226809709 0.0 0.0
0.0010092232092189825 -0.000436515258902885 0.0 0.0023055518814126554 0.0 0.0
0.0006841763078923979 -0.00028550417559774637 0.0 0.0021511853807785514 0.0 0.0
0.0004310978686968951 -0.00014201072023156414 0.0 0.0020093959492411438 0.0 0.0
0.00020517735624264543 -1.0889488373370516e-05 0.0 0.001969834449458223 0.0 0.0
6.682400676722993e-05 -1.69769638829689e-05 0.0 0.0020991624298303726 0.0 0.0
0.00045265136482803073 -0.000360736208324289 0.0 0.0024823162828878117 0.0 0.0
0.0008709251544309383 -0.0033327891386285657 0.0 0.0015741128119742993 0.0 0.0
0.0006166457339189095 -0.0025463133278210543 0.0 -0.0014798984110481373 0.0 0.0
0.0002897764652204825 -0.00037392537733926107 0.0 -0.002278370453351278 0.0 0.0
-4.093184990844784e-05 1.7061956718913542e-05 0.0 -0.002202786551497764 0.0 0.0
2.0737476816625918e-05 6.416157538685792e-05 0.0 -0.002104890089036555 0.0 0.0
0.0001640802432345773 -1.9085354786882047e-05 0.0 -0.0021332126214363206 0.0 0.0
0.0003211797831403733 -0.00011870248530595012 0.0 -0.0022786286174488446 0.0 0.0
0.0005018957404697405 -0.0002149301380646541 0.0 -0.002480623986716114 0.0 0.0
0.000759703318288251 -0.0003353915304775793 0.0 -0.00265968418046267 0.0 0.0
0.0011687113862241564 -0.0005499638524817684 0.0 -0.002862730418799573 0.0 0.0
0.0017755133694854213 -0.0009509194691082173 0.0 -0.0032434203227017784 0.0 0.0
0.0025669257870142587 -0.0015418719938778004 0.0 -0.0039021911283546803 0.0 0.0
0.003483948222365517 -0.0022851127142193358 0.0 -0.004784836454036804 0.0 0.0
0.004498668134427159 -0.0031347054004904618 0.0 -0.005793373879591776 0.0 0.0
0.005648998307327439 -0.004126042908228861 0.0 -0.006881491243718417 0.0 0.0
0.006997204836632409 -0.005334662624165254 0.0 -0.008051992667955213 0.0 0.0
0.008641312019979933 -0.00684984405892403 0.0 -0.009318478789611638 0.0 0.0
0.010718491837556821 -0.008796275782965567 0.0 -0.010588193549539557 0.0 0.0
0.013373256437950969 -0.011317089660295045 0.0 -0.011523132769849757 0.0 0.0
0.016738359377986307 -0.014537724047983359 0.0 -0.011551670486185401 0.0 0.0
0.021217125658832936 -0.01876008921027247 0.0 -0.010490923152269887 0.0 0.0
0.02381964539762248 -0.024436484850318702 0.0 8.425551922819352e-15 0.0 0.0
0.021217125658830997 -0.018760089210270618 0.0 0.0104909231522946 0.0 0.0
0.016738359377981696 -0.014537724047978127 0.0 0.011551670486210332 0.0 0.0
0.01337325643794432 -0.011317089660286155 0.0 0.011523132769859369 0.0 0.0
0.010718491837550595 -0.008796275782960734 0.0 0.010588193549535397 0.0 0.0
0.008641312019974368 -0.006849844058914336 0.0 0.009318478789605395 0.0 0.0
0.006997204836627391 -0.005334662624160949 0.0 0.008051992667950246 0.0 0.0
0.005648998307323355 -0.004126042908222951 0.0 0.006881491243714748 0.0 0.0
0.004498668134423124 -0.0031347054004890107 0.0 0.005793373879585733 0.0 0.0
0.003483948222360956 -0.0022851127142194715 0.0 0.004784836454030284 0.0 0.0
0.0025669257870102216 -0.001541871993872281 0.0 0.0039021911283462192 0.0 0.0
0.0017755133694825921 -0.0009509194691084155 0.0 0.003243420322698102 0.0 0.0
0.0011687113862223165 -0.0005499638524791933 0.0 0.0028627304187991342 0.0 0.0
0.0007597033182871302 -0.0003353915304745382 0.0 0.0026596841804604155 0.0 0.0
0.0005018957404691758 -0.0002149301380647016 0.0 0.0024806239867127943 0.0 0.0
0.00032117978314037573 -0.00011870248530655134 0.0 0.0022786286174458557 0.0 0.0
0.00016408024323471418 -1.9085354787244865e-05 0.0 0.0021332126214337194 0.0 0.0
2.073747681641228e-05 6.416157538671101e-05 0.0 0.002104890089033971 0.0 0.0
-4.0931849908731356e-05 1.706195671961968e-05 0.0 0.0022027865514952613 0.0 0.0
0.0002897764652198401 -0.0003739253773393979 0.0 0.002278370453349068 0.0 0.0
0.0006166457339177652 -0.002546313327816928 0.0 0.0014798984110478662 0.0 0.0
0.00043759648220095565 -0.0019666561940827306 0.0 -0.001423341006013375 0.0 0.0
0.00016774572275620147 -0.0003774472948844005 0.0 -0.0021337314780823006 0.0 0.0
-0.00014221240398145385 5.314390366543929e-05 0.0 -0.0022535686222048667 0.0 0.0
-0.00015669611171253558 0.00013523943382033466 0.0 -0.0021856337111029727 0.0 0.0
-9.820206872195196e-05 0.00010010423205722699 0.0 -0.0022017506499031458 0.0 0.0
-4.4597658685193086e-05 4.93920296376139e-05 0.0 -0.002333949533742217 0.0 0.0
-1.4817060887051237e-05 1.365971285105513e-05 0.0 -0.0025443390867296296 0.0 0.0
-3.1917831446703194e-06 2.4896948457156767e-06 0.0 -0.0027511724122949157 0.0 0.0
6.339196709521781e-08 -4.7466269776139493e-07 0.0 -0.0028738995832818647 0.0 0.0
6.239584520111138e-07 -2.4793025282988544e-07 0.0 -0.003028876024305649 0.0 0.0
5.567295880324306e-07 -1.4081561859251253e-06 0.0 -0.0033771693089606463 0.0 0.0
-2.59429340513734e-06 2.3085197556266864e-06 0.0 -0.004019032840997358 0.0 0.0
-1.1601609305390511e-05 8.972520406324446e-06 0.0 -0.004831090784541836 0.0 0.0
-2.3153433315856327e-05 2.1494408980070507e-05 0.0 -0.005787945113077672 0.0 0.0
-5.6483164554836955e-06 1.5171861576208023e-05 0.0 -0.0069109332005927206 0.0 0.0
0.00014540724520339466 -9.553437261584176e-05 0.0 -0.008202326783032407 0.0 0.0
0.000647746976805597 -0.0004984167952882103 0.0 -0.009616552980130713 0.0 0.0
0.0018032806435284785 -0.0014761073638730289 0.0 -0.011001354050790921 0.0 0.0
0.0038393194685517936 -0.0032236565130832687 0.0 -0.012054951446445545 0.0 0.0
0.0071133485004331596 -0.005854089306563115 0.0 -0.012293936875770324 0.0 0.0
0.009132338882896796 -0.011857204647237569 0.0 8.218252467440124e-15 0.0 0.0
0.007113348500433113 -0.005854089306565606 0.0 0.01229393687578768 0.0 0.0
0.0038393194685502497 -0.0032236565130770996 0.0 0.012054951446456401 0.0 0.0
0.0018032806435273065 -0.001476107363873109 0.0 0.011001354050794169 0.0 0.0
0.0006477469768064327 -0.0004984167952927386 0.0 0.009616552980126201 0.0 0.0
0.00014540724520482775 -9.55343726202286e-05 0.0 0.008202326783026261 0.0 0.0
-5.648316453990749e-06 1.5171861579560484e-05 0.0 0.006910933200587176 0.0 0.0
-2.31534333138254e-05 2.1494408977240414e-05 0.0 0.005787945113074898 0.0 0.0
-1.1601609303064898e-05 8.972520405387425e-06 0.0 0.0048310907845357945 0.0 0.0
-2.594293403118122e-06 2.3085197536469875e-06 0.0 0.004019032840991276 0.0 0.0
5.567295895513437e-07 -1.4081561866506598e-06 0.0 0.003377169308954338 0.0 0.0
6.239584532393252e-07 -2.4793025532688436e-07 0.0 0.0030288760243045608 0.0 0.0
6.339196777093326e-08 -4.746626966264724e-07 0.0 0.0028738995832813317 0.0 0.0
-3.1917831443493006e-06 2.4896948445510165e-06 0.0 0.0027511724122921536 0.0 0.0
-1.4817060886828007e-05 1.3659712853405871e-05 0.0 0.0025443390867270544 0.0 0.0
-4.4597658684756424e-05 4.9392029637207555e-05 0.0 0.0023339495337401867 0.0 0.0
-9.820206872142542e-05 0.00010010423205709168 0.0 0.0022017506499004383 0.0 0.0
-0.00015669611171222045 0.0001352394338196197 0.0 0.002185633711100508 0.0 0.0
-0.00014221240398135348 5.3143903665749424e-05 0.0 0.0022535686222029503 0.0 0.0
0.00016774572275594823 -0.00037744729488455015 0.0 0.002133731478080536 0.0 0.0
0.00043759648220042987 -0.0019666561940801797 0.0 0.001423341006012544 0.0 0.0
0.0003154883237983644 -0.0015270180403430496 0.0 -0.0013493362474112343 0.0 0.0
7.72001768316752e-05 -0.0003597823022224219 0.0 -0.0020015914577629908 0.0 0.0
-0.00023633309354963714 8.656714525170682e-05 0.0 -0.0022549961023273814 0.0 0.0
-0.0003263009057367447 0.0002031986536982213 0.0 -0.0022110065217821498 0.0 0.0
-0.0003542004677024656 0.00021400896331600505 0.0 -0.0022116962595136523 0.0 0.0
-0.00040646602207269726 0.00021549324225299168 0.0 -0.0023173250150931523 0.0 0.0
-0.0005307292890477955 0.00024202843788804357 0.0 -0.0024977689578769115 0.0 0.0
-0.0007663976510226343 0.0003402262738128682 0.0 -0.0026655539398320943 0.0 0.0
-0.001168347665735156 0.0005489966602987781 0.0 -0.0028646152754789327 0.0 0.0
-0.0017735284812013833 0.0009494810482393453 0.0 -0.003241912497835124 0.0 0.0
-0.0025655398770331253 0.001540114876938833 0.0 -0.0038976912880032653 0.0 0.0
-0.003489752997121718 0.0022901734351493002 0.0 -0.004782789190698722 0.0 0.0
-0.004522817064533525 0.003155280513770951 0.0 -0.005786409868693443 0.0 0.0
-0.005695219770096343 0.004171822532900051 0.0 -0.006871261339957325 0.0 0.0
-0.007005946135688645 0.005367183718180976 0.0 -0.008059862442178609 0.0 0.0
-0.008357138208982156 0.006657821404414965 0.0 -0.00943869043347983 0.0 0.0
-0.009502509011581842 0.007804841759737785 0.0 -0.011078980269805637 0.0 0.0
-0.01005170152409138 0.008415617403335147 0.0 -0.013043171094552091 0.0 0.0
-0.009540483587101963 0.00810157858351826 0.0 -0.015216731514577995 0.0 0.0
-0.006698928446863822 0.006042292230890309 0.0 -0.016118953523721943 0.0 0.0
-0.004438143600564879 -0.0006276915906170853 0.0 9.329342853803269e-15 0.0 0.0
-0.006698928446864467 0.006042292230889056 0.0 0.0161189535237407 0.0 0.0
-0.009540483587099738 0.008101578583518664 0.0 0.015216731514590569 0.0 0.0
-0.010051701524085232 0.008415617403329152 0.0 0.013043171094554173 0.0 0.0
-0.009502509011573259 0.00780484175972561 0.0 0.01107898026979964 0.0 0.0
-0.008357138208973667 0.006657821404401449 0.0 0.009438690433472353 0.0 0.0
-0.007005946135681267 0.00536718371817714 0.0 0.008059862442172485 0.0 0.0
-0.005695219770088437 0.004171822532891012 0.0 0.006871261339950209 0.0 0.0
-0.004522817064524705 0.00315528051376241 0.0 0.005786409868686302 0.0 0.0
-0.0034897529971133576 0.002290173435143874 0.0 0.004782789190690124 0.0 0.0
-0.0025655398770259973 0.0015401148769314617 0.0 0.0038976912879942916 0.0 0.0
-0.0017735284811960504 0.0009494810482330437 0.0 0.003241912497831314 0.0 0.0
-0.0011683476657322076 0.0005489966602984803 0.0 0.00286461527547795 0.0 0.0
-0.000766397651020802 0.00034022627381119996 0.0 0.002665553939830508 0.0 0.0
-0.0005307292890466336 0.00024202843788889006 0.0 0.0024977689578749695 0.0 0.0
-0.00040646602207193897 0.00021549324225148448 0.0 0.002317325015091109 0.0 0.0
-0.0003542004677020672 0.00021400896331670653 0.0 0.0022116962595108373 0.0 0.0
-0.00032630090573638646 0.00020319865369760177 0.0 0.002211006521780807 0.0 0.0
-0.00023633309354924547 8.656714525200952e-05 0.0 0.002254996102326137 0.0 0.0
7.720017683151377e-05 -0.00035978230222282273 0.0 0.002001591457761007 0.0 0.0
0.00031548832379789626 -0.0015270180403412314 0.0 0.0013493362474100111 0.0 0.0
0.00022220343852597213 -0.0011615241042221228 0.0 -0.0012262373847417352 0.0 0.0
3.7553439221272753e-06 -0.00032487243431361635 0.0 -0.0018613337062052212 0.0 0.0
-0.00032367018622920645 0.0001185220601495323 0.0 -0.0022045526766612754 0.0 0.0
-0.0004877297181738059 0.00026713889279565976 0.0 -0.0021811753539343693 0.0 0.0
-0.0006023091943905557 0.0003220858320605075 0.0 -0.002160331471447846 0.0 0.0
-0.0007604710253710025 0.0003749350710103861 0.0 -0.0022268899742757873 0.0 0.0
-0.0010351700554042356 0.0004636404300113622 0.0 -0.0023395116337246538 0.0 0.0
-0.001544936678781251 0.0007109829832721429 0.0 -0.0025230736071153266 0.0 0.0
-0.0024192778418963665 0.0012712458017987475 0.0 -0.002993024986452022 0.0 0.0
-0.003689903992020683 0.0022621839091710016 0.0 -0.003841316181947479 0.0 0.0
-0.005279083813000423 0.0036255860050779702 0.0 -0.005020998600932313 0.0 0.0
-0.007093745779986107 0.00525123123489171 0.0 -0.00630013387778905 0.0 0.0
-0.009122649526034317 0.007100750944981487 0.0 -0.007591164603633169 0.0 0.0
-0.011424623902065592 0.009246609148628418 0.0 -0.008882732933396678 0.0 0.0
-0.014043930014348449 0.011741156745379835 0.0 -0.010257458931415454 0.0 0.0
-0.01690131526159858 0.014528890524458268 0.0 -0.011905813614384598 0.0 0.0
-0.01971035649887301 0.017329463946436762 0.0 -0.014053338851456678 0.0 0.0
-0.02195953178057781 0.01962709632002577 0.0 -0.01680957206760184 0.0 0.0
-0.022675944556612378 0.02053867115714314 0.0 -0.019613510667212494 0.0 0.0
-0.020095185564849995 0.018230915873035908 0.0 -0.02017616361450443 0.0 0.0
-0.0177047967839538 0.00976359342293715 0.0 1.0934829430819804e-14 0.0 0.0
-0.020095185564849367 0.0182309158730404 0.0 0.020176163614529907 0.0 0.0
-0.022675944556606875 0.02053867115713716 0.0 0.019613510667237415 0.0 0.0
-0.02195953178056651 0.019627096320014914 0.0 0.016809572067611668 0.0 0.0
-0.019710356498857915 0.017329463946422853 0.0 0.014053338851452657 0.0 0.0
-0.016901315261583432 0.014528890524444196 0.0 0.011905813614375729 0.0 0.0
-0.014043930014334915 0.01174115674536521 0.0 0.01025745893140848 0.0 0.0
-0.011424623902051637 0.00924660914861724 0.0 0.008882732933388532 0.0 0.0
-0.009122649526019402 0.007100750944964793 0.0 0.007591164603625699 0.0 0.0
-0.007093745779971867 0.005251231234878704 0.0 0.006300133877777138 0.0 0.0
-0.005279083812988023 0.0036255860050664135 0.0 0.005020998600919176 0.0 0.0
-0.0036899039920108533 0.0022621839091625236 0.0 0.003841316181939564 0.0 0.0
-0.002419277841890106 0.0012712458017942253 0.0 0.002993024986449534 0.0 0.0
-0.0015449366787776819 0.0007109829832723789 0.0 0.0025230736071134557 0.0 0.0
-0.0010351700554022244 0.0004636404300106501 0.0 0.0023395116337225855 0.0 0.0
-0.0007604710253698683 0.0003749350710102602 0.0 0.002226889974273789 0.0 0.0
-0.0006023091943898057 0.0003220858320604317 0.0 0.002160331471445436 0.0 0.0
-0.00048772971817331564 0.0002671388927960972 0.0 0.002181175353932856 0.0 0.0
-0.0003236701862290061 0.00011852206014933593 0.0 0.0022045526766592137 0.0 0.0
3.7553439220237577e-06 -0.00032487243431353715 0.0 0.001861333706202587 0.0 0.0
0.00022220343852566036 -0.0011615241042208378 0.0 0.0012262373847398307 0.0 0.0
0.0001420887753112844 -0.0008500253304071391 0.0 -0.001077079215126428 0.0 0.0
-6.167987296923957e-05 -0.00027561514864797793 0.0 -0.0016996788668820616 0.0 0.0
-0.00040583523039735577 0.00015032687820266355 0.0 -0.0021021271773932117 0.0 0.0
-0.000640820582101702 0.0003267529394986702 0.0 -0.0020958788196061883 0.0 0.0
-0.0008406169815968626 0.0004230718406217589 0.0 -0.0020508144607613134 0.0 0.0
-0.0011002871613362678 0.0005224426478384632 0.0 -0.0020555953844026372 0.0 0.0
-0.0015505288038770374 0.000694891232912183 0.0 -0.0021172373630841367 0.0 0.0
-0.00240376944330658 0.0011986463186113557 0.0 -0.002456603006661247 0.0 0.0
-0.0038083008330391304 0.0022650686119490386 0.0 -0.00326955745514291 0.0 0.0
-0.005749461154868726 0.003945153722719643 0.0 -0.004537626819366924 0.0 0.0
-0.008104173724629926 0.006088998403362415 0.0 -0.006032407269373461 0.0 0.0
-0.010776325142816182 0.00856724698710398 0.0 -0.007518611041958268 0.0 0.0
-0.01378502005734937 0.011384310396263036 0.0 -0.008950702216494426 0.0 0.0
-0.01722382268631341 0.014643008190877022 0.0 -0.010380837216582443 0.0 0.0
-0.02117538153808965 0.018441718185707952 0.0 -0.011952958900694276 0.0 0.0
-0.025582640793532837 0.022756859178106686 0.0 -0.013928671411643445 0.0 0.0
-0.0301158850809745 0.027278914334706375 0.0 -0.016707908877742744 0.0 0.0
-0.03399890775028364 0.03127760921888262 0.0 -0.02040409547667279 0.0 0.0
-0.035773703295300975 0.0333038470182561 0.0 -0.023996542250685992 0.0 0.0
-0.03287367557064575 0.03094244396083045 0.0 -0.025169448627034217 0.0 0.0
-0.02984597800115006 0.01985157056045464 0.0 1.341461663972865e-14 0.0 0.0
-0.03287367557064328 0.030942443960831824 0.0 0.02516944862706318 0.0 0.0
-0.03577370329529212 0.03330384701824508 0.0 0.023996542250714837 0.0 0.0
-0.03399890775026795 0.03127760921886865 0.0 0.020404095476687256 0.0 0.0
-0.030115885080954412 0.027278914334689607 0.0 0.016707908877740544 0.0 0.0
-0.02558264079351141 0.022756859178086522 0.0 0.013928671411633824 0.0 0.0
-0.021175381538069717 0.018441718185690684 0.0 0.011952958900686992 0.0 0.0
-0.01722382268629326 0.01464300819085759 0.0 0.010380837216573497 0.0 0.0
-0.013785020057328557 0.011384310396242492 0.0 0.008950702216484117 0.0 0.0
-0.010776325142796275 0.008567246987086169 0.0 0.007518611041944869 0.0 0.0
-0.008104173724611915 0.006088998403345164 0.0 0.006032407269358886 0.0 0.0
-0.005749461154854318 0.003945153722709716 0.0 0.004537626819355848 0.0 0.0
-0.003808300833029487 0.0022650686119403654 0.0 0.0032695574551380286 0.0 0.0
-0.0024037694433008236 0.0011986463186095578 0.0 0.002456603006657611 0.0 0.0
-0.0015505288038740943 0.0006948912329115116 0.0 0.002117237363082164 0.0 0.0
-0.0011002871613349076 0.0005224426478390957 0.0 0.002055595384400676 0.0 0.0
-0.0008406169815959076 0.00042307184062035324 0.0 0.0020508144607595943 0.0 0.0
-0.0006408205821010641 0.00032675293949941227 0.0 0.002095878819604748 0.0 0.0
-0.000405835230396941 0.00015032687820200067 0.0 0.002102127177390704 0.0 0.0
-6.167987296914611e-05 -0.00027561514864766286 0.0 0.0016996788668801864 0.0 0.0
0.00014208877531118994 -0.0008500253304061783 0.0 0.001077079215125124 0.0 0.0
7.079532107954437e-05 -0.0005877406085294865 0.0 -0.0009190326930582408 0.0 0.0
-0.00012250131095541478 -0.00021577029389822623 0.0 -0.0015130585847774258 0.0 0.0
-0.0004845440411242051 0.00018323859514396526 0.0 -0.0019485321458514887 0.0 0.0
-0.0007864966593746919 0.000382230736304526 0.0 -0.001955625948901582 0.0 0.0
-0.00106589026455824 0.0005146772669362119 0.0 -0.0018814550757641178 0.0 0.0
-0.001435697676424699 0.0006584257341519057 0.0 -0.0018109000697165466 0.0 0.0
-0.002110345897666238 0.0009816160912137807 0.0 -0.001900620754196784 0.0 0.0
-0.0033589970813846072 0.001846869775731396 0.0 -0.0024200523058821788 0.0 0.0
-0.005311456316403881 0.003483791759695924 0.0 -0.0034947253099047526 0.0 0.0
-0.007902740792908647 0.005831820049451773 0.0 -0.004980148497311319 0.0 0.0
-0.010988802784059571 0.008706902663052336 0.0 -0.006555563341152847 0.0 0.0
-0.014505187019925966 0.012017772108342196 0.0 -0.008093162650208102 0.0 0.0
-0.01849996350288575 0.015799699949946417 0.0 -0.00958029936508448 0.0 0.0
-0.023088726864874773 0.02017865584783601 0.0 -0.011092224366267065 0.0 0.0
-0.028386556825167795 0.025290389789461666 0.0 -0.012759399922647876 0.0 0.0
-0.034370491081989314 0.03115532523526214 0.0 -0.01490424397231754 0.0 0.0
-0.04063750207614324 0.03742283463137113 0.0 -0.017998580686848717 0.0 0.0
-0.046104165596567125 0.043070329131410755 0.0 -0.022202092223349894 0.0 0.0
-0.04873958345301757 0.046098895696266094 0.0 -0.026579559456188784 0.0 0.0
-0.04519602822404228 0.043277528156480505 0.0 -0.028598701748781832 0.0 0.0
-0.0413635696159208 0.029609382296232473 0.0 1.4163149819612642e-14 0.0 0.0
-0.04519602822403729 0.043277528156477146 0.0 0.028598701748812995 0.0 0.0
-0.048739583453004755 0.04609889569624774 0.0 0.026579559456221938 0.0 0.0
-0.046104165596547106 0.04307032913139295 0.0 0.022202092223367675 0.0 0.0
-0.040637502076118555 0.03742283463134833 0.0 0.017998580686848464 0.0 0.0
-0.03437049108196243 0.03115532523523621 0.0 0.014904243972311854 0.0 0.0
-0.02838655682514154 0.025290389789438667 0.0 0.012759399922638432 0.0 0.0
-0.023088726864848832 0.020178655847807533 0.0 0.011092224366258407 0.0 0.0
-0.01849996350285902 0.015799699949919845 0.0 0.009580299365073298 0.0 0.0
-0.014505187019900369 0.012017772108319395 0.0 0.008093162650194576 0.0 0.0
-0.010988802784036597 0.00870690266302784 0.0 0.006555563341136645 0.0 0.0
-0.007902740792889936 0.005831820049436992 0.0 0.004980148497298176 0.0 0.0
-0.0053114563163906645 0.0034837917596849434 0.0 0.003494725309897061 0.0 0.0
-0.0033589970813761635 0.0018468697757230662 0.0 0.002420052305877765 0.0 0.0
-0.0021103458976616334 0.0009816160912112192 0.0 0.0019006207541951703 0.0 0.0
-0.0014356976764226012 0.0006584257341519736 0.0 0.0018109000697157877 0.0 0.0
-0.0010658902645570864 0.0005146772669357421 0.0 0.0018814550757635887 0.0 0.0
-0.0007864966593741048 0.00038223073630432974 0.0 0.00195562594890024 0.0 0.0
-0.00048454404112390685 0.00018323859514335385 0.0 0.0019485321458504847 0.0 0.0
-0.000122501310955257 -0.00021577029389815722 0.0 0.0015130585847763839 0.0 0.0
7.079532107936189e-05 -0.0005877406085288688 0.0 0.0009190326930574541 0.0 0.0
7.782961059720639e-06 -0.0003725953022486457 0.0 -0.0007567679251545261 0.0 0.0
-0.00017920269577785 -0.00014993706977870565 0.0 -0.0013027810934748787 0.0 0.0
-0.0005605433434565913 0.0002178145096588573 0.0 -0.0017449543740750725 0.0 0.0
-0.0009242088935102325 0.0004336246326410657 0.0 -0.0017609717444344584 0.0 0.0
-0.0012793655224766932 0.0005956193719902627 0.0 -0.0016517934402340835 0.0 0.0
-0.0017841368022908058 0.0008033094015719746 0.0 -0.0015322838131249488 0.0 0.0
-0.002729717843709254 0.001351670561561528 0.0 -0.001676371111916988 0.0 0.0
-0.0044056830196690325 0.0026498933324070714 0.0 -0.0023403205163500546 0.0 0.0
-0.006899576930266086 0.004858691860114693 0.0 -0.0035628266647811675 0.0 0.0
-0.010100834048995477 0.0078203729269703 0.0 -0.005037642215199553 0.0 0.0
-0.013898318074083444 0.011397691065292028 0.0 -0.006558588707203735 0.0 0.0
-0.018267394040029895 0.015540531092364415 0.0 -0.008051948651105914 0.0 0.0
-0.023261469702562047 0.020297289361109777 0.0 -0.009516249402164802 0.0 0.0
-0.029008007771441517 0.02580844124757661 0.0 -0.01103092943065511 0.0 0.0
-0.03565328844422889 0.03223357680565575 0.0 -0.012712099817588036 0.0 0.0
-0.0431943997799705 0.03962471953304745 0.0 -0.014790761953853211 0.0 0.0
-0.0511520171332299 0.04759728773509008 0.0 -0.01775589619489335 0.0 0.0
-0.05814782100869535 0.05485498063474739 0.0 -0.022028829926270952 0.0 0.0
-0.06154710192679831 0.05879729163155961 0.0 -0.027041179061610566 0.0 0.0
-0.05732785832581104 0.05544294300267423 0.0 -0.030795556382286225 0.0 0.0
-0.052724077891819494 0.03935933790857475 0.0 1.3699111289788846e-14 0.0 0.0
-0.05732785832580391 0.05544294300266954 0.0 0.030795556382318748 0.0 0.0
-0.06154710192678181 0.058797291631540155 0.0 0.027041179061643952 0.0 0.0
-0.0581478210086714 0.05485498063472283 0.0 0.022028829926289805 0.0 0.0
-0.05115201713320022 0.047597287735064456 0.0 0.01775589619489476 0.0 0.0
-0.04319439977993814 0.03962471953301024 0.0 0.014790761953848635 0.0 0.0
-0.035653288444196754 0.03223357680562905 0.0 0.012712099817579963 0.0 0.0
-0.02900800777140928 0.025808441247545288 0.0 0.01103092943064717 0.0 0.0
-0.023261469702529822 0.02029728936107807 0.0 0.009516249402154462 0.0 0.0
-0.018267394039999243 0.015540531092334203 0.0 0.008051948651093365 0.0 0.0
-0.0138983180740559 0.011397691065265059 0.0 0.006558588707187887 0.0 0.0
-0.010100834048972347 0.007820372926950014 0.0 0.005037642215185813 0.0 0.0
-0.006899576930248881 0.004858691860097895 0.0 0.003562826664772441 0.0 0.0
-0.004405683019657564 0.002649893332397015 0.0 0.0023403205163453817 0.0 0.0
-0.002729717843703176 0.0013516705615562342 0.0 0.0016763711119143015 0.0 0.0
-0.0017841368022883993 0.0008033094015715037 0.0 0.0015322838131248977 0.0 0.0
-0.00127936552247543 0.0005956193719900546 0.0 0.0016517934402336416 0.0 0.0
-0.0009242088935092869 0.0004336246326395369 0.0 0.0017609717444329043 0.0 0.0
-0.0005605433434559538 0.00021781450965856897 0.0 0.0017449543740735676 0.0 0.0
-0.00017920269577773046 -0.00014993706977846046 0.0 0.0013027810934726775 0.0 0.0
7.782961059617231e-06 -0.00037259530224821445 0.0 0.0007567679251540062 0.0 0.0
-4.569937645032977e-05 -0.00020420530038692858 0.0 -0.0005924217917076522 0.0 0.0
-0.0002304213625550478 -8.265967089402468e-05 0.0 -0.0010709616791714808 0.0 0.0
-0.0006334442873357877 0.0002533546972993766 0.0 -0.0014927651415223087 0.0 0.0
-0.0010546886692515264 0.00048121393225728523 0.0 -0.0015114146838586518 0.0 0.0
-0.0014908389702299278 0.0006672024483810855 0.0 -0.001369032794932734 0.0 0.0
-0.002157478585051296 0.0009792123072396497 0.0 -0.0012322723992695566 0.0 0.0
-0.003414481312932452 0.00182091972593971 0.0 -0.0014305471311595868 0.0 0.0
-0.005531372988698087 0.003592937308249765 0.0 -0.0022026950965465682 0.0 0.0
-0.008527767714626567 0.006314235362057216 0.0 -0.0033590885487216433 0.0 0.0
-0.012311368262417771 0.009854765854473332 0.0 -0.004682929132326875 0.0 0.0
-0.016823707707419207 0.014129383855111519 0.0 -0.006072956271406944 0.0 0.0
-0.0220499029268635 0.019106266889830473 0.0 -0.007435215648640619 0.0 0.0
-0.028056334415506874 0.024851773833118682 0.0 -0.008787535935282588 0.0 0.0
-0.03497721486348573 0.03151189556128568 0.0 -0.010222258423987088 0.0 0.0
-0.04294729290567102 0.039239436767368525 0.0 -0.011819895019200907 0.0 0.0
-0.05197052440923966 0.04808307924282458 0.0 -0.013656304093848394 0.0 0.0
-0.06153928464419743 0.057655032774352535 0.0 -0.016072642377490735 0.0 0.0
-0.07001622398155732 0.06646991908403811 0.0 -0.01986079140360244 0.0 0.0
-0.07423071727177821 0.0713855008292876 0.0 -0.025432147704848553 0.0 0.0
-0.06952276174143583 0.06770750640798748 0.0 -0.03201242808159571 0.0 0.0
-0.06427047774526394 0.0494313761894565 0.0 1.4194374842180224e-14 0.0 0.0
-0.0695227617414261 0.06770750640797914 0.0 0.032012428081627624 0.0 0.0
-0.07423071727175841 0.07138550082927278 0.0 0.02543214770488025 0.0 0.0
-0.07001622398152918 0.06646991908400701 0.0 0.019860791403620286 0.0 0.0
-0.06153928464416321 0.057655032774323295 0.0 0.016072642377493812 0.0 0.0
-0.051970524409202176 0.048083079242786916 0.0 0.013656304093845429 0.0 0.0
-0.042947292905633074 0.0392394367673381 0.0 0.01181989501919447 0.0 0.0
-0.03497721486344799 0.03151189556125006 0.0 0.010222258423980415 0.0 0.0
-0.028056334415468814 0.024851773833083686 0.0 0.00878753593527325 0.0 0.0
-0.022049902926827236 0.01910626688979558 0.0 0.007435215648628809 0.0 0.0
-0.01682370770738706 0.01412938385508044 0.0 0.006072956271394298 0.0 0.0
-0.012311368262390793 0.009854765854447547 0.0 0.004682929132315025 0.0 0.0
-0.00852776771460604 0.006314235362036825 0.0 0.003359088548713976 0.0 0.0
-0.005531372988683902 0.0035929373082382978 0.0 0.00220269509654095 0.0 0.0
-0.0034144813129242035 0.0018209197259329317 0.0 0.0014305471311558398 0.0 0.0
-0.0021574785850475464 0.0009792123072371733 0.0 0.001232272399268595 0.0 0.0
-0.0014908389702283774 0.000667202448380047 0.0 0.0013690327949318533 0.0 0.0
-0.0010546886692507432 0.0004812139322563537 0.0 0.0015114146838573878 0.0 0.0
-0.0006334442873353287 0.0002533546972991674 0.0 0.0014927651415208249 0.0 0.0
-0.00023042136255489092 -8.265967089409662e-05 0.0 0.0010709616791695184 0.0 0.0
-4.569937645047058e-05 -0.00020420530038654604 0.0 0.0005924217917075995 0.0 0.0
-8.69165194344572e-05 -8.322885039691605e-05 0.0 -0.0004298067317557796 0.0 0.0
-0.00027307682018396455 -1.870576598709096e-05 0.0 -0.0008202821091521467 0.0 0.0
-0.0007014350573082408 0.0002880565826875841 0.0 -0.0011910403335735253 0.0 0.0
-0.0011800660774502526 0.0005247824259546585 0.0 -0.0012059060342679178 0.0 0.0
-0.0017081503574577512 0.0007393375595080489 0.0 -0.0010388068168906757 0.0 0.0
-0.0025708798053129074 0.001200220600890985 0.0 -0.0008994319831471022 0.0 0.0
-0.004171160130631219 0.0024057025523315113 0.0 -0.0011779440897001997 0.0 0.0
-0.006698949290478314 0.00461697444486067 0.0 -0.0018993901568046842 0.0 0.0
-0.01016038610774449 0.0078012798200062 0.0 -0.0028450056857112103 0.0 0.0
-0.014524819276658323 0.011912218561657613 0.0 -0.003953378866686112 0.0 0.0
-0.019749817957556787 0.01687981596224233 0.0 -0.005118320220280321 0.0 0.0
-0.025840158346593717 0.022696149585287036 0.0 -0.006262405670553736 0.0 0.0
-0.032874707684392365 0.029443760196459147 0.0 -0.007407373308214919 0.0 0.0
-0.04097728049629927 0.03726924529276171 0.0 -0.008659401595172951 0.0 0.0
-0.05025091583412578 0.04628899944669099 0.0 -0.010084419179507151 0.0 0.0
-0.06064792434094497 0.05648345439505097 0.0 -0.011600336138666487 0.0 0.0
-0.07165457726060516 0.06744775775816177 0.0 -0.013181301570668342 0.0 0.0
-0.08157622223575066 0.07773094734678145 0.0 -0.01576583521234728 0.0 0.0
-0.08684438499522083 0.08387239577623659 0.0 -0.02164220277226593 0.0 0.0
-0.08203214637081553 0.08034450546034093 0.0 -0.03201895291072529 0.0 0.0
-0.07632505883145342 0.06017611561408924 0.0 1.2385058256736414e-14 0.0 0.0
-0.082032146370804 0.08034450546033116 0.0 0.03201895291075268 0.0 0.0
-0.08684438499519734 0.08387239577621357 0.0 0.02164220277229278 0.0 0.0
-0.08157622223571749 0.07773094734674865 0.0 0.0157658352123628 0.0 0.0
-0.0716545772605656 0.06744775775812072 0.0 0.013181301570672696 0.0 0.0
-0.06064792434090246 0.056483454395011 0.0 0.011600336138666132 0.0 0.0
-0.050250915834082144 0.04628899944665157 0.0 0.010084419179501595 0.0 0.0
-0.040977280496255375 0.03726924529271628 0.0 0.008659401595165922 0.0 0.0
-0.03287470768434888 0.029443760196416785 0.0 0.007407373308206816 0.0 0.0
-0.025840158346552074 0.022696149585247363 0.0 0.006262405670542955 0.0 0.0
-0.0197498179575199 0.016879815962206748 0.0 0.005118320220270036 0.0 0.0
-0.01452481927662757 0.011912218561628623 0.0 0.0039533788666764194 0.0 0.0
-0.010160386107720734 0.007801279819984661 0.0 0.0028450056857034934 0.0 0.0
-0.0066989492904613295 0.004616974444845863 0.0 0.001899390156800125 0.0 0.0
-0.004171160130620865 0.0024057025523246513 0.0 0.0011779440896966362 0.0 0.0
-0.0025708798053081777 0.0012002206008871696 0.0 0.0008994319831460509 0.0 0.0
-0.0017081503574559393 0.000739337559507024 0.0 0.0010388068168911122 0.0 0.0
-0.001180066077449265 0.0005247824259536359 0.0 0.001205906034267715 0.0 0.0
-0.0007014350573076266 0.00028805658268703916 0.0 0.0011910403335732287 0.0 0.0
-0.00027307682018376436 -1.8705765987437146e-05 0.0 0.0008202821091520793 0.0 0.0
-8.691651943425863e-05 -8.322885039673095e-05 0.0 0.00042980673175487476 0.0 0.0
-0.00011123377085663059 -1.0611988244721298e-05 0.0 -0.00027829174452972586 0.0 0.0
-0.00030165209888957146 3.592829595599257e-05 0.0 -0.0005542995004061353 0.0 0.0
-0.0007614708366733209 0.00031855013013962284 0.0 -0.0008342285004687417 0.0 0.0
-0.001303995331656978 0.000566083708490485 0.0 -0.0008404248098719894 0.0 0.0
-0.0019425829913531784 0.0008238128795935006 0.0 -0.0006674522047634936 0.0 0.0
-0.003040132308086339 0.0014990453105972717 0.0 -0.0005608573020803273 0.0 0.0
-0.0049753219932170915 0.003081322488386499 0.0 -0.0008539210255062113 0.0 0.0
-0.007876906878374034 0.005669083358676488 0.0 -0.0013673942403571134 0.0 0.0
-0.011790860419165806 0.009303866210031023 0.0 -0.0020544934725055014 0.0 0.0
-0.01672623838553445 0.013973127532361376 0.0 -0.0028598314061094882 0.0 0.0
-0.022663995315578382 0.01963127773866887 0.0 -0.0037083769104144953 0.0 0.0
-0.02962459990930029 0.0262934824127891 0.0 -0.004540348217838879 0.0 0.0
-0.03769628867416101 0.0340564114292861 0.0 -0.005386185085163343 0.0 0.0
-0.04699634891419391 0.04305869959267511 0.0 -0.006358002713776243 0.0 0.0
-0.05755505030829397 0.0533591848263955 0.0 -0.007482263523115428 0.0 0.0
-0.0691973077499343 0.06481352290642443 0.0 -0.008603511279016915 0.0 0.0
-0.08138010449056367 0.07691090540453056 0.0 -0.009429034468935182 0.0 0.0
-0.09265035866793858 0.0883796767733933 0.0 -0.010400527936142802 0.0 0.0
-0.09936316185770717 0.09611898317846451 0.0 -0.015077091652413341 0.0 0.0
-0.0951218901234185 0.09367839277647327 0.0 -0.029908344808031867 0.0 0.0
-0.08930995319036676 0.07211461770170444 0.0 9.655470867286908e-15 0.0 0.0
-0.0951218901234046 0.09367839277645974 0.0 0.02990834480805328 0.0 0.0
-0.0993631618576798 0.09611898317843523 0.0 0.015077091652434538 0.0 0.0
-0.09265035866790061 0.0883796767733574 0.0 0.010400527936153772 0.0 0.0
-0.08138010449051905 0.07691090540448049 0.0 0.00942903446893819 0.0 0.0
-0.06919730774988686 0.06481352290637732 0.0 0.008603511279016618 0.0 0.0
-0.05755505030824523 0.05335918482634623 0.0 0.007482263523111219 0.0 0.0
-0.046996348914144226 0.04305869959262995 0.0 0.006358002713770928 0.0 0.0
-0.037696288674111414 0.034056411429239375 0.0 0.005386185085158145 0.0 0.0
-0.02962459990925356 0.026293482412744713 0.0 0.004540348217832819 0.0 0.0
-0.02266399531553737 0.019631277738629327 0.0 0.0037083769104061127 0.0 0.0
-0.016726238385500414 0.013973127532328475 0.0 0.002859831406101654 0.0 0.0
-0.011790860419138962 0.009303866210007226 0.0 0.0020544934724990656 0.0 0.0
-0.007876906878354427 0.005669083358658311 0.0 0.0013673942403534265 0.0 0.0
-0.004975321993204873 0.003081322488376184 0.0 0.0008539210255025691 0.0 0.0
-0.003040132308080121 0.0014990453105936314 0.0 0.0005608573020802828 0.0 0.0
-0.0019425829913507675 0.0008238128795911286 0.0 0.0006674522047639543 0.0 0.0
-0.0013039953316561557 0.0005660837084893498 0.0 0.00084042480987204 0.0 0.0
-0.0007614708366729202 0.0003185501301393358 0.0 0.0008342285004671585 0.0 0.0
-0.00030165209888949275 3.592829595565194e-05 0.0 0.0005542995004065716 0.0 0.0
-0.00011123377085669556 -1.0611988244684156e-05 0.0 0.00027829174452934866 0.0 0.0
-0.00011062984216928944 1.362921675324417e-05 0.0 -0.00015879682261834904 0.0 0.0
-0.00030675192256658293 7.172994758160597e-05 0.0 -0.00027751671768119714 0.0 0.0
-0.0008087445688378705 0.0003399153290084147 0.0 -0.00040795943889418077 0.0 0.0
-0.001433409148048585 0.0006097168905546663 0.0 -0.0004072786826726181 0.0 0.0
-0.00221277163763857 0.0009406868300117219 0.0 -0.0002694022976866791 0.0 0.0
-0.003560193658778619 0.0018817272146774812 0.0 -0.00021222821312017045 0.0 0.0
-0.005804706744981094 0.003804078077845427 0.0 -0.00038538573080177437 0.0 0.0
-0.009052628960698219 0.006735381291421968 0.0 -0.0006464203165454762 0.0 0.0
-0.013404430997375977 0.010804342090367352 0.0 -0.0009936383523495931 0.0 0.0
-0.018901851364804385 0.016019053372859672 0.0 -0.0014105409440638662 0.0 0.0
-0.025551213420632587 0.022367060764494955 0.0 -0.001844470652014227 0.0 0.0
-0.03339055257361555 0.02988584627942044 0.0 -0.0022717902627642714 0.0 0.0
-0.04251317953487089 0.038676742739302494 0.0 -0.002748266164937446 0.0 0.0
-0.05300255264684154 0.048849633705551274 0.0 -0.0033099075459401927 0.0 0.0
-0.06482100388919529 0.06040876588749099 0.0 -0.003957342005468994 0.0 0.0
-0.07765203503939176 0.07307596758959622 0.0 -0.004605332689045462 0.0 0.0
-0.09075938720648553 0.08613009183374917 0.0 -0.0049781210368862435 0.0 0.0
-0.10291214049945033 0.09830548685390453 0.0 -0.004926861463410461 0.0 0.0
-0.11147315572585333 0.10734691938170178 0.0 -0.006651950043082995 0.0 0.0
-0.1091618510468318 0.1078792121620177 0.0 -0.02118719713322693 0.0 0.0
-0.10394011642813934 0.08679857151276943 0.0 5.777496536740756e-15 0.0 0.0
-0.10916185104681599 0.10787921216200298 0.0 0.021187197133239334 0.0 0.0
-0.11147315572582214 0.10734691938167482 0.0 0.006651950043094134 0.0 0.0
-0.10291214049940665 0.09830548685386249 0.0 0.004926861463416567 0.0 0.0
-0.09075938720643524 0.0861300918336992 0.0 0.004978121036890375 0.0 0.0
-0.07765203503933911 0.07307596758954348 0.0 0.004605332689046312 0.0 0.0
-0.06482100388914053 0.06040876588743768 0.0 0.003957342005466132 0.0 0.0
-0.05300255264678584 0.048849633705501605 0.0 0.003309907545939286 0.0 0.0
-0.0425131795348158 0.038676742739249065 0.0 0.0027482661649343154 0.0 0.0
-0.03339055257356382 0.029885846279373365 0.0 0.0022717902627612473 0.0 0.0
-0.025551213420587526 0.022367060764448925 0.0 0.0018444706520082841 0.0 0.0
-0.018901851364766707 0.01601905337282533 0.0 0.0014105409440586395 0.0 0.0
-0.013404430997346076 0.010804342090339756 0.0 0.0009936383523463659 0.0 0.0
-0.009052628960676176 0.0067353812914013635 0.0 0.0006464203165430894 0.0 0.0
-0.005804706744966576 0.00380407807783104 0.0 0.00038538573080076726 0.0 0.0
-0.0035601936587708917 0.0018817272146733292 0.0 0.0002122282131201131 0.0 0.0
-0.0022127716376356176 0.0009406868300083668 0.0 0.00026940229768631166 0.0 0.0
-0.001433409148047654 0.0006097168905545492 0.0 0.00040727868267273997 0.0 0.0
-0.0008087445688372812 0.00033991532900906943 0.0 0.00040795943889303737 0.0 0.0
-0.00030675192256610735 7.172994758110933e-05 0.0 0.0002775167176815749 0.0 0.0
-0.0001106298421688653 1.362921675338005e-05 0.0 0.00015879682261764824 0.0 0.0
-7.040061784425268e-05 1.3764675154887786e-05 0.0 -0.00010004838262369912 0.0 0.0
-0.0002721822665967744 8.340593702813376e-05 0.0 -0.00011519143308208051 0.0 0.0
-0.000836538185421666 0.0003476572255434396 0.0 -0.00013928111094595736 0.0 0.0
-0.0015818964747799783 0.0006327042157126038 0.0 -0.000125806281913832 0.0 0.0
-0.0025316983365776032 0.0010113630066363123 0.0 3.647469858962494e-05 0.0 0.0
-0.004119314849071682 0.0020899441718965424 0.0 0.00018648769179789663 0.0 0.0
-0.0066425357879971655 0.004172634505910969 0.0 0.00022970270752292342 0.0 0.0
-0.010216113907284156 0.007270790531686899 0.0 0.0002457230579644658 0.0 0.0
-0.014988040341051407 0.011551543081994783 0.0 0.00024347386988783442 0.0 0.0
-0.021036507369096444 0.017036238819158698 0.0 0.00020120436673664167 0.0 0.0
-0.028398446187569586 0.023728507643286753 0.0 0.00016625095650438237 0.0 0.0
-0.03713078639170045 0.031679938997604754 0.0 0.00013514809698352698 0.0 0.0
-0.047301375754109615 0.0409874857764157 0.0 4.239777505669808e-05 0.0 0.0
-0.058960340840578516 0.05174017474848573 0.0 -7.86034576035757e-05 0.0 0.0
-0.07201698955963426 0.06392316121117014 0.0 -0.0002992609961427672 0.0 0.0
-0.08601827341026924 0.07719044980888062 0.0 -0.0006143194665622518 0.0 0.0
-0.09998845408683807 0.0906975365843238 0.0 -0.0009086997701279482 0.0 0.0
-0.11244601043897624 0.10309980153418105 0.0 -0.0009507559825626226 0.0 0.0
-0.12179663323332708 0.11254574328617152 0.0 -0.0013979919040655467 0.0 0.0
-0.12413741193750508 0.1151922676940082 0.0 -0.014972603845934733 0.0 0.0
-0.12276585220881608 0.09513332889805809 0.0 3.670674875166924e-15 0.0 0.0
-0.124137411937488 0.1151922676939958 0.0 0.01497260384593885 0.0 0.0
-0.12179663323329105 0.11254574328614249 0.0 0.001397991904067879 0.0 0.0
-0.11244601043892585 0.10309980153413728 0.0 0.0009507559825650859 0.0 0.0
-0.09998845408678199 0.09069753658427517 0.0 0.0009086997701282275 0.0 0.0
-0.08601827341021095 0.07719044980882112 0.0 0.0006143194665608857 0.0 0.0
-0.07201698955957317 0.06392316121111694 0.0 0.0002992609961393576 0.0 0.0
-0.05896034084051647 0.05174017474842667 0.0 7.860345760308824e-05 0.0 0.0
-0.047301375754048997 0.040987485776356324 0.0 -4.2397775057483045e-05 0.0 0.0
-0.037130786391643855 0.03167993899755703 0.0 -0.00013514809698484103 0.0 0.0
-0.028398446187520708 0.02372850764323751 0.0 -0.00016625095650784098 0.0 0.0
-0.021036507369055577 0.01703623881912552 0.0 -0.00020120436673857697 0.0 0.0
-0.014988040341018577 0.011551543081964401 0.0 -0.00024347386988817356 0.0 0.0
-0.01021611390725988 0.00727079053166523 0.0 -0.0002457230579655733 0.0 0.0
-0.00664253578798065 0.004172634505895151 0.0 -0.00022970270752156003 0.0 0.0
-0.004119314849062472 0.0020899441718908347 0.0 -0.00018648769179679752 0.0 0.0
-0.002531698336573759 0.001011363006634184 0.0 -3.6474698589428266e-05 0.0 0.0
-0.0015818964747784964 0.0006327042157126445 0.0 0.0001258062819140318 0.0 0.0
-0.0008365381854210242 0.0003476572255448546 0.0 0.0001392811109466168 0.0 0.0
-0.00027218226659670027 8.340593702759292e-05 0.0 0.00011519143308292277 0.0 0.0
-7.040061784439295e-05 1.3764675155151302e-05 0.0 0.00010004838262277826 0.0 0.0
SCALARS Statev float 8
LOOKUP_TABLE default
0.0 0.015372117102448114 0.012216184127966418 -0.014715997446177277 0.002499813318210869 -0.0006225845306369981 0.0 0.0
0.0 0.004875791586190487 0.0035138832698792194 -0.0020429812802535293 -0.0014709019896256867 -0.005908521656493711 0.0 0.0
0.0 1.0562488110647358e-05 5.099572526714008e-05 -3.320543750799737e-05 -1.779028775914283e-05 -0.00015426807858229908 0.0 0.0
0.0 9.952989101762351e-05 1.6295350725655873e-05 -1.1501777514833313e-05 -4.793573210822642e-06 8.174740296699825e-06 0.0 0.0
0.0 0.000618246616023181 0.00031645368046994196 -0.0002286414881309955 -8.781219233894663e-05 7.755231685065829e-05 0.0 0.0
0.0 0.0014837467402001616 0.0015263600881594852 -0.0011802021896545013 -0.0003461578985049835 0.0001600294122546125 0.0 0.0
0.0 0.003960081528120879 0.0036640414931240943 -0.003037591162591561 -0.0006264503305325319 0.0002212718298914959 0.0 0.0
0.0 0.007598650141975017 0.00693845271938213 -0.006062093760740654 -0.0008763589586414823 0.0002533532865553647 0.0 0.0
0.0 0.012666135231641926 0.011420060081574278 -0.010338339170993596 -0.0010817209105806822 0.000263976192142868 0.0 0.0
0.0 0.019249026086389773 0.01715481214162876 -0.01587078360965789 -0.0012840285319708883 0.00023985148261415523 0.0 0.0
0.0 0.02737187193433491 0.024176620862837932 -0.022664957173139228 -0.001511663689698698 0.00022165503048855815 0.0 0.0
0.0 0.036778890349910186 0.03255327677802373 -0.030780978483804816 -0.001772298294218933 0.00020312519550827555 0.0 0.0
0.0 0.047915124329701006 0.04235905606034133 -0.04030071158220775 -0.0020583444781335793 0.00011681694889194522 0.0 0.0
0.0 0.060798862930947564 0.053663295715790975 -0.05130238148711399 -0.0023609142286769875 1.489133221090099e-05 0.0 0.0
0.0 0.07541637703015441 0.06644988400214107 -0.06378561599319917 -0.002664268008941833 -0.00015948182664970176 0.0 0.0
0.0 0.09150549657681653 0.08045318069738457 -0.07750128113932278 -0.0029518995580617114 -0.0004229412946768355 0.0 0.0
0.0 0.10829648507593571 0.09503721184643031 -0.09182799230662093 -0.003209219539809428 -0.0007350904698988905 0.0 0.0
0.0 0.1245869926160123 0.10917045818734382 -0.105749168714374 -0.0034212894729696366 -0.0009759453760064378 0.0 0.0
0.0 0.13884206230477902 0.12152984181354407 -0.11794991682859908 -0.0035799249849450816 -0.0009771409432638434 0.0 0.0
0.0 0.14910532743851249 0.13060701649716835 -0.1269405546243623 -0.0036664618728061197 -0.0009779605913661613 0.0 0.0
0.0 0.15316991075216213 0.13416549148121068 -0.13050883513740513 -0.0036566563438055763 1.7633464133304244e-15 0.0 0.0
0.0 0.14910532743849753 0.13060701649715467 -0.12694055462434983 -0.0036664618728047896 0.0009779605913718334 0.0 0.0
0.0 0.1388420623047475 0.12152984181351585 -0.11794991682857299 -0.003579924984942826 0.0009771409432682114 0.0 0.0
0.0 0.12458699261595839 0.10917045818729651 -0.10574916871432807 -0.0034212894729683755 0.0009759453760098489 0.0 0.0
0.0 0.10829648507587882 0.0950372118463804 -0.09182799230657321 -0.0032092195398072663 0.0007350904698989256 0.0 0.0
0.0 0.09150549657675193 0.08045318069732782 -0.07750128113926727 -0.002951899558060611 0.00042294129467503527 0.0 0.0
0.0 0.0754163770300912 0.06644988400208558 -0.0637856159931454 -0.002664268008940152 0.00015948182664954564 0.0 0.0
0.0 0.06079886293088622 0.0536632957157371 -0.05130238148706196 -0.0023609142286751695 -1.4891332211736802e-05 0.0 0.0
0.0 0.04791512432963679 0.04235905606028521 -0.04030071158215305 -0.0020583444781321113 -0.00011681694889358009 0.0 0.0
0.0 0.03677889034985354 0.03255327677797384 -0.03078097848375654 -0.0017722982942173292 -0.00020312519550959524 0.0 0.0
0.0 0.027371871934283705 0.024176620862792996 -0.022664957173095544 -0.0015116636896974401 -0.00022165503048988033 0.0 0.0
0.0 0.019249026086347928 0.01715481214159216 -0.01587078360962244 -0.0012840285319697547 -0.00023985148261548156 0.0 0.0
0.0 0.012666135231610429 0.011420060081546222 -0.010338339170966637 -0.0010817209105795677 -0.00026397619214286365 0.0 0.0
0.0 0.007598650141951525 0.006938452719360661 -0.006062093760720381 -0.00087635895864028 -0.0002533532865552656 0.0 0.0
0.0 0.003960081528107165 0.0036640414931107543 -0.003037591162579643 -0.0006264503305311079 -0.00022127182989132842 0.0 0.0
0.0 0.0014837467401932567 0.001526360088152186 -0.0011802021896485557 -0.00034615789850362896 -0.00016002941225401354 0.0 0.0
0.0 0.0006182466160205376 0.0003164536804685101 -0.0002286414881300027 -8.781219233850656e-05 -7.755231685012446e-05 0.0 0.0
0.0 9.952989101688949e-05 1.629535072577776e-05 -1.150177751492914e-05 -4.79357321084813e-06 -8.174740296681775e-06 0.0 0.0
0.0 1.0562488110042112e-05 5.099572526677576e-05 -3.320543750773932e-05 -1.7790287759035964e-05 0.0001542680785814834 0.0 0.0
0.0 0.0048757915861815755 0.00351388326987454 -0.0020429812802503873 -0.0014709019896241454 0.0059085216564846044 0.0 0.0
0.0 0.015372117102428562 0.012216184127952964 -0.014715997446158705 0.0024998133182057266 0.0006225845306054803 0.0 0.0
0.0 0.012378852346053166 0.009156285039018861 -0.012019127095936626 0.0028628420569177617 -0.0001739009536701543 0.0 0.0
0.0 0.002829289467771904 0.0020201404583278927 -0.0011374312498213719 -0.0008827092085065201 -0.004447016929405939 0.0 0.0
0.0 -3.2980425996401063e-05 -4.250822591789875e-05 3.595618639869925e-05 6.552039519199524e-06 -3.0043212217640193e-05 0.0 0.0
0.0 9.719563620817083e-06 1.4375554067408064e-06 -9.72682618597641e-07 -4.6487278814320686e-07 4.2700387641702886e-06 0.0 0.0
0.0 0.00028328284615188233 0.00018078471257363914 -0.00013158039966493237 -4.920431290870658e-05 3.1732716192355374e-05 0.0 0.0
0.0 0.0013245417573366064 0.0010965242613566748 -0.0008552297862111299 -0.000241294475145547 4.992738629421653e-05 0.0 0.0
0.0 0.0032938935588281244 0.0030497091160281444 -0.0025543213236337036 -0.0004953877923944373 -0.00010990267987659783 0.0 0.0
0.0 0.006668173398801699 0.006045267792819791 -0.005345166154238084 -0.0007001016385817103 -0.000361664043330614 0.0 0.0
0.0 0.011392170244635525 0.01017389434242607 -0.009333875055240765 -0.0008400192871852951 -0.0007064415891268834 0.0 0.0
0.0 0.01745358794444686 0.015450957018644658 -0.014500443605962776 -0.0009505134126818796 -0.0011188770989592122 0.0 0.0
0.0 0.02488580899369622 0.021883368171580413 -0.020826966108161492 -0.001056402063418945 -0.001553924120433743 0.0 0.0
0.0 0.03384127641187319 0.029517104633453757 -0.028351970036329287 -0.0011651345971244364 -0.0019910207733498425 0.0 0.0
0.0 0.043853486203363275 0.03845771657950553 -0.03718137344231276 -0.001276343137192736 -0.002484067763536071 0.0 0.0
0.0 0.055764283563626664 0.04879136046601294 -0.04740829163586658 -0.0013830688301463446 -0.003051217892146114 0.0 0.0
0.0 0.06927472277524926 0.0605175454606877 -0.05904341038820972 -0.0014741350724779747 -0.003684899938797723 0.0 0.0
0.0 0.08415284853494923 0.07340472384293566 -0.07186475982863146 -0.001539964014304265 -0.004353130045179045 0.0 0.0
0.0 0.09975987693196646 0.08687511317340439 -0.08530032914735819 -0.0015747840260460762 -0.004898565213355804 0.0 0.0
0.0 0.11500271702854925 0.09998795690676465 -0.09840775516479656 -0.0015802017419682193 -0.005033020395113736 0.0 0.0
0.0 0.12837896325996556 0.11149278514246967 -0.10993421034089593 -0.0015585748015735936 -0.004495684488152251 0.0 0.0
0.0 0.1380918165064573 0.11979525903218131 -0.11831415914702446 -0.001481099885156833 -0.0034573888218922114 0.0 0.0
0.0 0.14207099474300186 0.12299207289990037 -0.12163068591749458 -0.0013613869824058247 4.618701254788249e-15 0.0 0.0
0.0 0.13809181650644184 0.11979525903216745 -0.11831415914701093 -0.0014810998851565256 0.003457388821905421 0.0 0.0
0.0 0.12837896325993203 0.11149278514244021 -0.10993421034086724 -0.0015585748015729433 0.004495684488165959 0.0 0.0
0.0 0.11500271702850395 0.09998795690672527 -0.09840775516475764 -0.0015802017419675797 0.0050330203951229075 0.0 0.0
0.0 0.0997598769319116 0.08687511317335725 -0.08530032914731124 -0.0015747840260460415 0.004898565213357223 0.0 0.0
0.0 0.08415284853489234 0.07340472384288611 -0.07186475982858238 -0.001539964014303566 0.004353130045177088 0.0 0.0
0.0 0.06927472277519213 0.06051754546063774 -0.05904341038816088 -0.001474135072476898 0.0036848999387961113 0.0 0.0
0.0 0.05576428356356741 0.04879136046596146 -0.04740829163581562 -0.001383068830145808 0.003051217892144557 0.0 0.0
0.0 0.04385348620330479 0.03845771657945494 -0.037181373442262626 -0.0012763431371923015 0.002484067763533136 0.0 0.0
0.0 0.03384127641181984 0.029517104633407065 -0.028351970036283067 -0.0011651345971239518 0.001991020773346356 0.0 0.0
0.0 0.024885808993648825 0.021883368171539255 -0.020826966108120838 -0.001056402063418449 0.0015539241204294164 0.0 0.0
0.0 0.017453587944409283 0.01545095701861128 -0.014500443605930061 -0.0009505134126812041 0.0011188770989557693 0.0 0.0
0.0 0.011392170244607014 0.010173894342400314 -0.00933387505521574 -0.0008400192871845714 0.0007064415891247667 0.0 0.0
0.0 0.006668173398781358 0.00604526779280116 -0.005345166154220344 -0.0007001016385808154 0.00036166404332867814 0.0 0.0
0.0 0.0032938935588157723 0.0030497091160164107 -0.00255432132362313 -0.0004953877923932789 0.00010990267987534217 0.0 0.0
0.0 0.0013245417573295346 0.00109652426135051 -0.0008552297862060838 -0.00024129447514442594 -4.992738629432972e-05 0.0 0.0
0.0 0.000283282846149939 0.0001807847125726562 -0.00013158039966425255 -4.920431290840399e-05 -3.17327161919852e-05 0.0 0.0
0.0 9.719563620326295e-06 1.4375554069466453e-06 -9.726826187547498e-07 -4.648727881917168e-07 -4.2700387641722715e-06 0.0 0.0
0.0 -3.298042599628896e-05 -4.2508225917667935e-05 3.595618639849693e-05 6.552039519170863e-06 3.0043212217465948e-05 0.0 0.0
0.0 0.002829289467763277 0.002020140458323055 -0.00113743124981808 -0.0008827092085049745 0.004447016929395899 0.0 0.0
0.0 0.012378852346033047 0.009156285039003483 -0.012019127095916885 0.002862842056913393 0.00017390095364721664 0.0 0.0
0.0 0.009033672238939755 0.006534059293646054 -0.008831398200356454 0.0022973389067104015 -0.0022763778595109893 0.0 0.0
0.0 0.001963282635738503 0.0012316881711543143 -0.0006226265319974667 -0.0006090616391568478 -0.0034717606473343237 0.0 0.0
0.0 1.2634912319597936e-08 -1.3678156687548327e-09 1.0394932843731892e-09 3.2832238438154863e-10 4.875689838480855e-10 0.0 0.0
0.0 2.4565785026517923e-06 4.6248999305710477e-07 -3.6898573473297817e-07 -9.350425832425178e-08 -2.866448047503578e-07 0.0 0.0
0.0 8.538305865051209e-05 5.280794528093164e-05 -3.646555013258481e-05 -1.634239514834709e-05 1.502717158267021e-05 0.0 0.0
0.0 0.000893361383027805 0.0006748066888610429 -0.0005133132986037587 -0.00016149339025728335 -1.4293414378757236e-05 0.0 0.0
0.0 0.0024463842932737198 0.002325279529869009 -0.0019065264530591156 -0.0004187530768098939 -0.00032936376096963745 0.0 0.0
0.0 0.005469093625493842 0.004965752529217226 -0.004327767877005898 -0.0006379846522113281 -0.0008333970036403901 0.0 0.0
0.0 0.009662853140834635 0.00865754540122862 -0.007866639898687125 -0.0007909055025414872 -0.0015099566290454618 0.0 0.0
0.0 0.015138807869982724 0.013376551412625616 -0.012474269237648704 -0.000902282174976917 -0.002307293886705475 0.0 0.0
0.0 0.02179015882780266 0.019103260408513567 -0.018100077429746918 -0.001003182978766639 -0.0031579640849479364 0.0 0.0
0.0 0.02953377727123072 0.025866934131852568 -0.024761476309807302 -0.001105457822045253 -0.004009994413663998 0.0 0.0
0.0 0.03882960039495538 0.03376170703876629 -0.03255208902034715 -0.0012096180184191585 -0.004888862655437799 0.0 0.0
0.0 0.049127416404482205 0.04291964157955643 -0.041610597413486945 -0.0013090441660694764 -0.005889301793914718 0.0 0.0
0.0 0.06118561099024045 0.053357220581148744 -0.05196283255410708 -0.0013943880270416908 -0.007025976837809562 0.0 0.0
0.0 0.0745071393831555 0.06488705118647956 -0.06343042819467137 -0.0014566229918081268 -0.008194189069930817 0.0 0.0
0.0 0.08854850631070926 0.0770237596737333 -0.075531553444764 -0.0014922062289692965 -0.009119351575766767 0.0 0.0
0.0 0.10234129761683751 0.08894035670195516 -0.08744099740132377 -0.0014993593006313363 -0.009341701121416022 0.0 0.0
0.0 0.11453779095607693 0.09944980071759175 -0.09798005185346123 -0.0014697488641305296 -0.008449968490426512 0.0 0.0
0.0 0.12339026476404832 0.10704480921727696 -0.10562870935808931 -0.0014160998591875894 -0.0063245948646895025 0.0 0.0
0.0 0.12714210119915473 0.11004638105841204 -0.10877937479269377 -0.0012670062657181905 9.694068464627392e-15 0.0 0.0
0.0 0.12339026476403442 0.10704480921726396 -0.10562870935807647 -0.001416099859187517 0.006324594864712999 0.0 0.0
0.0 0.11453779095604633 0.09944980071756507 -0.09798005185343472 -0.0014697488641304218 0.008449968490449968 0.0 0.0
0.0 0.10234129761679764 0.08894035670192013 -0.08744099740128933 -0.0014993593006307378 0.009341701121430509 0.0 0.0
0.0 0.08854850631066112 0.0770237596736922 -0.07553155344472294 -0.0014922062289692418 0.009119351575768696 0.0 0.0
0.0 0.07450713938310591 0.06488705118643616 -0.0634304281946289 -0.0014566229918072232 0.008194189069926739 0.0 0.0
0.0 0.06118561099018862 0.05335722058110365 -0.051962832554062595 -0.0013943880270410518 0.0070259768378072626 0.0 0.0
0.0 0.04912741640442896 0.04291964157951011 -0.04161059741344129 -0.0013090441660688302 0.005889301793912186 0.0 0.0
0.0 0.038829600394902686 0.033761707038720584 -0.03255208902030188 -0.0012096180184187134 0.004888862655432342 0.0 0.0
0.0 0.029533777271182077 0.025866934131810567 -0.024761476309765513 -0.0011054578220450564 0.0040099944136573395 0.0 0.0
0.0 0.021790158827761332 0.01910326040847706 -0.018100077429711002 -0.0010031829787660435 0.0031579640849407234 0.0 0.0
0.0 0.015138807869948997 0.013376551412595554 -0.012474269237619257 -0.0009022821749762943 0.0023072938866988612 0.0 0.0
0.0 0.009662853140809075 0.00865754540120573 -0.007866639898665028 -0.0007909055025407027 0.0015099566290409376 0.0 0.0
0.0 0.005469093625475613 0.0049657525292008805 -0.004327767876990564 -0.0006379846522103147 0.0008333970036367565 0.0 0.0
0.0 0.0024463842932635873 0.0023252795298592467 -0.0019065264530505747 -0.0004187530768086719 0.0003293637609676108 0.0 0.0
0.0 0.0008933613830223737 0.0006748066888566152 -0.0005133132986002752 -0.00016149339025633974 1.4293414378225198e-05 0.0 0.0
0.0 8.53830586493492e-05 5.280794528060808e-05 -3.646555013237822e-05 -1.6342395148229882e-05 -1.5027171582391806e-05 0.0 0.0
0.0 2.456578502344331e-06 4.624899930563191e-07 -3.689857347307597e-07 -9.350425832553744e-08 2.866448047340976e-07 0.0 0.0
0.0 1.2634912310065045e-08 -1.367815667713223e-09 1.0394932835817643e-09 3.283223841315191e-10 -4.875689834762404e-10 0.0 0.0
0.0 0.0019632826357317036 0.001231688171150233 -0.0006226265319947842 -0.0006090616391554483 0.0034717606473234786 0.0 0.0
0.0 0.009033672238919759 0.006534059293631318 -0.008831398200337367 0.002297338906706052 0.002276377859495382 0.0 0.0
0.0 0.006715596313024778 0.004718893682596057 -0.00651886174801168 0.0017999680654156157 -0.0025131475626260164 0.0 0.0
0.0 0.001349251371349122 0.000793032623176175 -0.00038473712068635914 -0.0004082955024898142 -0.002510320758728383 0.0 0.0
0.0 0.0 0.0 0.0 0.0 0.0 0.0 0.0
0.0 -3.1147891674874205e-07 1.810572563744543e-08 -9.292207910463583e-09 -8.813517726985456e-09 -1.7927766827285666e-08 0.0 0.0
0.0 1.656985812271996e-05 -6.5814129852942095e-06 6.247228529151572e-06 3.3418445614288425e-07 1.234814873936481e-05 0.0 0.0
0.0 0.00044735122100298297 0.00036321503705559347 -0.0002698824895672982 -9.333254748829474e-05 -4.668305643761418e-05 0.0 0.0
0.0 0.0018749918657010997 0.0016163166800571614 -0.0012926502804297322 -0.0003236663996274272 -0.0003769372992217958 0.0 0.0
0.0 0.004305237125784753 0.003902349181642061 -0.0033410962263738225 -0.0005612529552682406 -0.0011096526496885313 0.0 0.0
0.0 0.008005083072542154 0.007140238584644621 -0.0064091722564495685 -0.0007310663281950515 -0.0020462205582048106 0.0 0.0
0.0 0.012830685189792827 0.01129234649415037 -0.010444649577793166 -0.0008476969163572004 -0.003146705396524567 0.0 0.0
0.0 0.018625409578550856 0.016313686109766416 -0.01536880488131465 -0.0009448812284517568 -0.004317436080352909 0.0 0.0
0.0 0.02552788619643752 0.02221064662660989 -0.021170220738041416 -0.0010404258885684551 -0.005487488718168488 0.0 0.0
0.0 0.033339253096222966 0.029078831567314924 -0.0279407339382818 -0.0011380976290331403 -0.006681185963769168 0.0 0.0
0.0 0.042786029495687807 0.03704155677297937 -0.035811897891912546 -0.0012296588810668378 -0.007994774469598667 0.0 0.0
0.0 0.05324065284363177 0.04616720095978303 -0.04485850292337871 -0.001308698036404286 -0.009481628805372733 0.0 0.0
0.0 0.06480764155886581 0.05632411723020733 -0.05495449764711283 -0.0013696195830944658 -0.011028781487984805 0.0 0.0
0.0 0.07737293052614044 0.06711518267926546 -0.06570884109707144 -0.0014063415821940126 -0.012273248486702677 0.0 0.0
0.0 0.08978227514508724 0.07783404988590731 -0.07642012325728625 -0.0014139266286210526 -0.012647879281009838 0.0 0.0
0.0 0.10084260053942756 0.08740856947063115 -0.08601897319041277 -0.0013895962802182838 -0.01156830854122269 0.0 0.0
0.0 0.10899139792546306 0.09448533138820127 -0.09313742208518316 -0.001347909303018218 -0.008443453880125537 0.0 0.0
0.0 0.1127059631566645 0.09743097874404337 -0.09629311498189522 -0.0011378637621481866 1.385740480697173e-14 0.0 0.0
0.0 0.1089913979254514 0.09448533138818972 -0.093137422085172 -0.001347909303017755 0.008443453880157213 0.0 0.0
0.0 0.10084260053940024 0.08740856947060668 -0.08601897319038845 -0.0013895962802181674 0.011568308541253323 0.0 0.0
0.0 0.08978227514505058 0.0778340498858752 -0.07642012325725396 -0.0014139266286212133 0.012647879281028042 0.0 0.0
0.0 0.07737293052610054 0.06711518267923104 -0.06570884109703781 -0.0014063415821932027 0.012273248486705681 0.0 0.0
0.0 0.06480764155882082 0.05632411723016823 -0.054954497647074135 -0.0013696195830941004 0.011028781487979818 0.0 0.0
0.0 0.05324065284358525 0.04616720095974264 -0.04485850292333876 -0.0013086980364039149 0.009481628805368774 0.0 0.0
0.0 0.04278602949564218 0.03704155677293938 -0.035811897891873314 -0.0012296588810660565 0.007994774469594769 0.0 0.0
0.0 0.03333925309617653 0.029078831567274997 -0.027940733938242288 -0.0011380976290327122 0.006681185963762335 0.0 0.0
0.0 0.025527886196397523 0.022210646626574713 -0.02117022073800679 -0.001040425888567942 0.005487488718159164 0.0 0.0
0.0 0.01862540957851371 0.016313686109733876 -0.015368804881282628 -0.0009448812284512504 0.0043174360803436285 0.0 0.0
0.0 0.012830685189763026 0.011292346494124198 -0.010444649577767657 -0.000847696916356536 0.0031467053965155683 0.0 0.0
0.0 0.008005083072520203 0.007140238584625269 -0.006409172256430911 -0.00073106632819436 0.002046220558198785 0.0 0.0
0.0 0.004305237125768726 0.0039023491816270496 -0.0033410962263599035 -0.0005612529552671441 0.001109652649683501 0.0 0.0
0.0 0.001874991865691456 0.001616316680049149 -0.0012926502804229717 -0.00032366639962617803 0.00037693729921930367 0.0 0.0
0.0 0.00044735122099924226 0.0003632150370530138 -0.00026988248956534333 -9.333254748767032e-05 4.668305643720262e-05 0.0 0.0
0.0 1.6569858122180966e-05 -6.581412984963263e-06 6.247228528882376e-06 3.341844560808503e-07 -1.2348148739046083e-05 0.0 0.0
0.0 -3.114789166655735e-07 1.8105725580523234e-08 -9.292207865812805e-09 -8.813517714697911e-09 1.792776678419012e-08 0.0 0.0
0.0 0.0 0.0 0.0 0.0 0.0 0.0 0.0
0.0 0.0013492513713431683 0.0007930326231727737 -0.0003847371206841299 -0.0004082955024886455 0.0025103207587190432 0.0 0.0
0.0 0.006715596313007879 0.004718893682582928 -0.00651886174799452 0.0017999680654116007 0.0025131475626143968 0.0 0.0
0.0 0.004789267065382022 0.0033537725613107675 -0.004713273777113044 0.001359501215802276 -0.002174284946396775 0.0 0.0
0.0 0.0010763064070761065 0.00047908979239914725 -0.00021704380666987542 -0.0002620459857292714 -0.001684981565174383 0.0 0.0
0.0 0.0 0.0 0.0 0.0 0.0 0.0 0.0
0.0 -2.1175026786527247e-07 1.9226471027512064e-08 -1.544969006812908e-08 -3.77678095938152e-09 -2.443498433731356e-08 0.0 0.0
0.0 -1.5654845247263047e-05 -7.694603784344905e-06 6.0708643440893976e-06 1.623739440255503e-06 6.4029011434501435e-06 0.0 0.0
0.0 0.00019573579788779378 0.00012256487345147196 -8.774567216715045e-05 -3.4819201284321364e-05 -9.219701578867561e-06 0.0 0.0
0.0 0.0013128792225000055 0.001002758792133671 -0.000781689428852636 -0.00022106936328103447 -0.00034510694829609185 0.0 0.0
0.0 0.00320414189411775 0.00287191880370124 -0.0024023395458288997 -0.00046957925787234075 -0.0011504179859963977 0.0 0.0
0.0 0.006381423590962753 0.005640397395156604 -0.004983793538625627 -0.0006566038565309751 -0.00230771915301303 0.0 0.0
0.0 0.010524024867099257 0.009215793040081546 -0.008432500244544974 -0.0007832927955365705 -0.0036295252748845905 0.0 0.0
0.0 0.015560076716491494 0.013529240806019516 -0.01264941285059883 -0.0008798279554206844 -0.005030319469256684 0.0 0.0
0.0 0.02146188221478752 0.018567882667252972 -0.017598371452642505 -0.0009695112146104525 -0.006423538475928296 0.0 0.0
0.0 0.028366769283386713 0.02440862629989107 -0.0233492418285504 -0.0010593844713406384 -0.0078343654957297 0.0 0.0
0.0 0.036040285524108776 0.03119145316873699 -0.03004643061773473 -0.0011450225510022346 -0.0093676306478241 0.0 0.0
0.0 0.04520716499402324 0.03899008314377882 -0.03777172923207798 -0.0012183539117008551 -0.011077815579425491 0.0 0.0
0.0 0.055458909230804945 0.047740844284712584 -0.04646555210094839 -0.0012752921837641952 -0.01284547396336069 0.0 0.0
0.0 0.06622362188106018 0.0571589708174087 -0.055844792869953516 -0.0013141779474551462 -0.014318980898581394 0.0 0.0
0.0 0.07719923061251417 0.06666481517458867 -0.06533729967275473 -0.0013275155018339891 -0.014901098999593331 0.0 0.0
0.0 0.08720657392418628 0.07535136000244345 -0.0740405661143724 -0.0013107938880710492 -0.013781605311373558 0.0 0.0
0.0 0.09485682008314403 0.08203103518772975 -0.08075806508538713 -0.0012729701023425097 -0.010034519270213075 0.0 0.0
0.0 0.09865510311619341 0.08500488356347735 -0.08401772770564062 -0.000987155857836749 1.4518768132187887e-14 0.0 0.0
0.0 0.09485682008313341 0.08203103518771902 -0.08075806508537584 -0.001272970102343058 0.010034519270248623 0.0 0.0
0.0 0.08720657392416062 0.07535136000241995 -0.0740405661143489 -0.0013107938880710923 0.01378160531140789 0.0 0.0
0.0 0.07719923061248397 0.06666481517456188 -0.06533729967272779 -0.0013275155018341142 0.014901098999613852 0.0 0.0
0.0 0.06622362188102393 0.05715897081737749 -0.055844792869922694 -0.0013141779474548142 0.014318980898585154 0.0 0.0
0.0 0.055458909230767 0.04774084428467961 -0.04646555210091586 -0.0012752921837637069 0.012845473963354764 0.0 0.0
0.0 0.04520716499398397 0.03899008314374449 -0.0377717292320444 -0.0012183539117000836 0.011077815579420416 0.0 0.0
0.0 0.036040285524069834 0.031191453168703046 -0.030046430617701285 -0.001145022551001744 0.009367630647819213 0.0 0.0
0.0 0.028366769283348303 0.024408626299857482 -0.023349241828517314 -0.0010593844713401624 0.007834365495722136 0.0 0.0
0.0 0.021461882214752846 0.01856788266722269 -0.01759837145261285 -0.0009695112146098354 0.006423538475917248 0.0 0.0
0.0 0.015560076716459809 0.01352924080599221 -0.01264941285057207 -0.0008798279554201431 0.005030319469244648 0.0 0.0
0.0 0.010524024867074192 0.009215793040059818 -0.008432500244523872 -0.000783292795535944 0.0036295252748744225 0.0 0.0
0.0 0.00638142359094367 0.005640397395139652 -0.0049837935386096086 -0.0006566038565300404 0.002307719153005714 0.0 0.0
0.0 0.0032041418941052427 0.0028719188036900037 -0.0024023395458187585 -0.0004695792578712474 0.001150417985991216 0.0 0.0
0.0 0.0013128792224916532 0.0010027587921271756 -0.0007816894288473481 -0.000221069363279828 0.00034510694829330025 0.0 0.0
0.0 0.0001957357978854176 0.0001225648734502056 -8.774567216623516e-05 -3.481920128397009e-05 9.219701578609116e-06 0.0 0.0
0.0 -1.565484524772327e-05 -7.694603784122744e-06 6.070864343915872e-06 1.623739440206807e-06 -6.402901143253437e-06 0.0 0.0
0.0 -2.117502677458955e-07 1.9226471016883667e-08 -1.5449690059872236e-08 -3.776780957015529e-09 2.4434984322558555e-08 0.0 0.0
0.0 0.0 0.0 0.0 0.0 0.0 0.0 0.0
0.0 0.0010763064070703253 0.00047908979239647963 -0.00021704380666810898 -0.00026204598572836946 0.0016849815651666887 0.0 0.0
0.0 0.004789267065368377 0.003353772561300115 -0.004713273777098828 0.0013595012157987074 0.002174284946388758 0.0 0.0
0.0 0.003391798495983315 0.002281898442118316 -0.003252953357717895 0.0009710549155995805 -0.0016934244168664 0.0 0.0
0.0 0.0005784034729338196 0.00026650175055733795 -0.00010744641017654675 -0.0001590553403807914 -0.001054010954055741 0.0 0.0
0.0 0.0 0.0 0.0 0.0 0.0 0.0 0.0
0.0 -3.7155433862380205e-07 2.6959649637958232e-08 -2.0453683908928497e-08 -6.505965729029205e-09 -6.050583753727464e-08 0.0 0.0
0.0 -2.0645420179005474e-06 -2.2981867465231003e-06 1.8524525337349107e-06 4.457342127881989e-07 3.216417296937326e-06 0.0 0.0
0.0 1.8669352892463522e-05 1.837414262434286e-05 -1.1474854359069184e-05 -6.8992882652737876e-06 1.2356869543066741e-05 0.0 0.0
0.0 0.0006249320921033855 0.0005480784367997596 -0.00041771550934579637 -0.00013036292745396315 -0.000285289724881383 0.0 0.0
0.0 0.0024485779782260717 0.0018957910294758501 -0.0015438759825255773 -0.00035191504695027316 -0.0010023294687695576 0.0 0.0
0.0 0.004682661274651726 0.004179836950911795 -0.0036165572915352376 -0.000563279659376553 -0.0022648009950605235 0.0 0.0
0.0 0.008297437682988875 0.0071634331260986795 -0.006459626352863138 -0.0007038067732355424 -0.0037432596328020895 0.0 0.0
0.0 0.012514436459496854 0.010768271883594978 -0.00996388308230632 -0.0008043888012886635 -0.005283273650122758 0.0 0.0
0.0 0.01742141261347771 0.014955326542710003 -0.014064956019830627 -0.0008903705228793704 -0.006812772044115319 0.0 0.0
0.0 0.02308359754771292 0.019783539382441786 -0.018809734586953893 -0.0009738047954879088 -0.008342727026492221 0.0 0.0
0.0 0.02972231756653319 0.02537958691327 -0.02432800976295907 -0.0010515771503109377 -0.0099792013554506 0.0 0.0
0.0 0.037238176656049685 0.031852880383085196 -0.030732835191573833 -0.001120045191511362 -0.011794445221440056 0.0 0.0
0.0 0.04565884165708634 0.03918829489032405 -0.038013446980668046 -0.001174847909655991 -0.013668023995988703 0.0 0.0
0.0 0.05524464208069844 0.04718105872621118 -0.04596745310789834 -0.0012136056183128477 -0.015257265609672851 0.0 0.0
0.0 0.06469303370045279 0.05542828802586829 -0.05419307951059562 -0.0012352085152726618 -0.0160151768100924 0.0 0.0
0.0 0.0734749074299609 0.06323784146855593 -0.06200815660931764 -0.0012296848592383053 -0.015053206087094975 0.0 0.0
0.0 0.08076766246571151 0.06959238019247756 -0.06839950791846619 -0.0011928722740113147 -0.01114266151140903 0.0 0.0
0.0 0.08476529397197184 0.07265984233675477 -0.07184345619807031 -0.0008163861386844883 1.506910915494153e-14 0.0 0.0
0.0 0.08076766246570126 0.06959238019246665 -0.06839950791845503 -0.001192872274011735 0.011142661511444125 0.0 0.0
0.0 0.07347490742994421 0.06323784146853964 -0.062008156609301306 -0.0012296848592383111 0.015053206087129683 0.0 0.0
0.0 0.06469303370042553 0.055428288025843694 -0.0541930795105711 -0.001235208515272585 0.016015176810113052 0.0 0.0
0.0 0.0552446420806674 0.04718105872618458 -0.04596745310787211 -0.001213605618312463 0.015257265609676024 0.0 0.0
0.0 0.045658841657055214 0.03918829489029717 -0.038013446980641456 -0.0011748479096557272 0.013668023995982756 0.0 0.0
0.0 0.037238176656016996 0.03185288038305664 -0.030732835191545925 -0.0011200451915107312 0.01179444522143375 0.0 0.0
0.0 0.029722317566502492 0.025379586913242765 -0.02432800976293276 -0.0010515771503100252 0.009979201355445225 0.0 0.0
0.0 0.02308359754768052 0.019783539382413947 -0.018809734586926544 -0.0009738047954873888 0.008342727026484122 0.0 0.0
0.0 0.01742141261344714 0.014955326542683804 -0.014064956019804882 -0.0008903705228789202 0.006812772044103847 0.0 0.0
0.0 0.012514436459472391 0.010768271883574383 -0.009963883082286545 -0.0008043888012878336 0.005283273650110138 0.0 0.0
0.0 0.008297437682966804 0.00716343312607959 -0.006459626352844635 -0.0007038067732349475 0.0037432596327903207 0.0 0.0
0.0 0.004682661274635832 0.004179836950897446 -0.003616557291521859 -0.00056327965937559 0.0022648009950523265 0.0 0.0
0.0 0.002448577978215072 0.0018957910294671284 -0.0015438759825180848 -0.0003519150469490434 0.0010023294687647438 0.0 0.0
0.0 0.0006249320920979524 0.0005480784367956303 -0.0004177155093425763 -0.0001303629274530543 0.00028528972487912107 0.0 0.0
0.0 1.8669352891738208e-05 1.8374142624319605e-05 -1.1474854359078293e-05 -6.899288265241296e-06 -1.2356869542697616e-05 0.0 0.0
0.0 -2.0645420187903847e-06 -2.298186746480438e-06 1.8524525337035804e-06 4.4573421277682613e-07 -3.216417296879589e-06 0.0 0.0
0.0 -3.71554338523354e-07 2.6959649630558343e-08 -2.0453683903316375e-08 -6.505965727237455e-09 6.050583751945212e-08 0.0 0.0
0.0 0.0 0.0 0.0 0.0 0.0 0.0 0.0
0.0 0.0005784034729290684 0.00026650175055529645 -0.00010744641017517185 -0.00015905534038012433 0.0010540109540495535 0.0 0.0
0.0 0.003391798495972667 0.0022818984421100193 -0.0032529533577065157 0.000971054915596492 0.0016934244168606287 0.0 0.0
0.0 0.0021288429145063102 0.0014560511788467986 -0.0020957087832206294 0.0006396576043738298 -0.001235052835252706 0.0 0.0
0.0 0.00031174600326013143 0.00011064476474235448 -2.0711284584642356e-05 -8.993348015771195e-05 -0.0005570569989103279 0.0 0.0
0.0 0.0 0.0 0.0 0.0 0.0 0.0 0.0
0.0 -2.4436484517163937e-07 1.123532113513199e-08 -8.310448798480903e-09 -2.924872336655857e-09 -4.7184642108198884e-08 0.0 0.0
0.0 -1.4883208052072033e-06 1.392429324052256e-07 -1.1445504496291258e-07 -2.478788744228509e-08 -2.3778849997097168e-07 0.0 0.0
0.0 -2.6028599069123205e-05 -2.08101855682853e-05 1.693710000133383e-05 3.8730855669515405e-06 3.908621267074837e-05 0.0 0.0
0.0 0.0002770387424107316 0.0002028009363569626 -0.00015191612003547975 -5.0884816321483056e-05 -0.0001498723654606594 0.0 0.0
0.0 0.0013068158433695084 0.0011054718704887028 -0.0008763866795406226 -0.00022908519094808012 -0.0008031908983748853 0.0 0.0
0.0 0.0035977707991620943 0.0027662838948148056 -0.0023311321306050715 -0.0004351517642097328 -0.0019141473703415668 0.0 0.0
0.0 0.00599331821790963 0.005162466519609895 -0.004561659070277996 -0.000600807449331903 -0.003454811133060751 0.0 0.0
0.0 0.009538842160009475 0.008050693120190472 -0.007339407935682949 -0.0007112851845075218 -0.005056692954433268 0.0 0.0
0.0 0.013496037280654639 0.01139014332148152 -0.010592241582539491 -0.0007979017389420232 -0.006636144518537316 0.0 0.0
0.0 0.01800371412673476 0.015217132625591379 -0.0143405986423305 -0.0008765339832608823 -0.008192978798600653 0.0 0.0
0.0 0.023227503316167637 0.019645216185419503 -0.018697034989384152 -0.000948181196035352 -0.009827652267771074 0.0 0.0
0.0 0.02924244573367911 0.024789476142089976 -0.023778298581159655 -0.0010111775609303176 -0.011608135835416802 0.0 0.0
0.0 0.036418038099021444 0.030684912822015405 -0.029623238614293845 -0.0010616742077215518 -0.013464988264659822 0.0 0.0
0.0 0.043715315575740946 0.03722862222632165 -0.036126021048117005 -0.0011026011782046495 -0.015082754906148169 0.0 0.0
0.0 0.05194236477581662 0.04414700276838081 -0.04301326615781371 -0.0011337366105670542 -0.015964426715524196 0.0 0.0
0.0 0.059975845140578424 0.051019004154380265 -0.04987755649755843 -0.0011414476568218195 -0.015311769105690638 0.0 0.0
0.0 0.06677375040027847 0.057069383595808584 -0.05596175328409881 -0.0011076303117097614 -0.011733236137258402 0.0 0.0
0.0 0.07111238985376692 0.06028827472509678 -0.059664462043882135 -0.0006238126812146453 1.3814904081810297e-14 0.0 0.0
0.0 0.066773750400266 0.057069383595795366 -0.0559617532840852 -0.0011076303117101157 0.011733236137291858 0.0 0.0
0.0 0.05997584514056713 0.05101900415436816 -0.0498775564975463 -0.0011414476568218702 0.015311769105726063 0.0 0.0
0.0 0.051942364775796626 0.044147002768362205 -0.04301326615779542 -0.0011337366105667972 0.015964426715544367 0.0 0.0
0.0 0.04371531557571566 0.03722862222630014 -0.0361260210480961 -0.0011026011782040174 0.015082754906149328 0.0 0.0
0.0 0.03641803809899477 0.030684912821992708 -0.029623238614271075 -0.0010616742077216236 0.013464988264652724 0.0 0.0
0.0 0.02924244573365374 0.02478947614206762 -0.023778298581137964 -0.001011177560929636 0.0116081358354096 0.0 0.0
0.0 0.023227503316143077 0.019645216185397985 -0.01869703498936311 -0.0009481811960348703 0.009827652267765268 0.0 0.0
0.0 0.018003714126709966 0.015217132625570323 -0.014340598642309991 -0.0008765339832603259 0.008192978798592624 0.0 0.0
0.0 0.01349603728062995 0.011390143321460969 -0.010592241582519256 -0.0007979017389417191 0.006636144518525865 0.0 0.0
0.0 0.009538842159989912 0.008050693120174165 -0.007339407935667617 -0.0007112851845065438 0.005056692954420948 0.0 0.0
0.0 0.005993318217890809 0.005162466519594238 -0.004561659070262937 -0.0006008074493313051 0.003454811133048524 0.0 0.0
0.0 0.0035977707991491276 0.0027662838948049186 -0.002331132130596158 -0.0004351517642087595 0.0019141473703348265 0.0 0.0
0.0 0.0013068158433604622 0.001105471870481506 -0.0008763866795345699 -0.00022908519094693529 0.0008031908983695511 0.0 0.0
0.0 0.00027703874240758095 0.00020280093635519645 -0.00015191612003414732 -5.088481632104912e-05 0.00014987236545942073 0.0 0.0
0.0 -2.6028599069470272e-05 -2.0810185567826343e-05 1.693710000097907e-05 3.873085566847174e-06 -3.908621266999883e-05 0.0 0.0
0.0 -1.4883208052616137e-06 1.392429323832357e-07 -1.1445504494664729e-07 -2.4787887436580382e-08 2.3778849995601027e-07 0.0 0.0
0.0 -2.4436484509791044e-07 1.123532113164423e-08 -8.310448795894743e-09 -2.924872335750786e-09 4.718464209339819e-08 0.0 0.0
0.0 0.0 0.0 0.0 0.0 0.0 0.0 0.0
0.0 0.0003117460032567731 0.00011064476474110378 -2.071128458381988e-05 -8.99334801572838e-05 0.0005570569989061283 0.0 0.0
0.0 0.0021288429144983123 0.0014560511788406553 -0.002095708783211996 0.000639657604371342 0.0012350528352483795 0.0 0.0
0.0 0.0016000524193086627 0.0007844066323048497 -0.0011357138163082222 0.00035130718400337274 -0.0007543991886883066 0.0 0.0
0.0 3.646987516057894e-05 2.035732341018109e-05 2.2778440068463587e-05 -4.3135763478644746e-05 -0.00021689036544372735 0.0 0.0
0.0 1.501239477888374e-07 -8.943371455963241e-10 1.017711353153143e-09 -1.233742075570957e-10 2.99033348444305e-08 0.0 0.0
0.0 -3.110318095085595e-07 9.145119677157732e-09 -6.435641195785186e-09 -2.7094784813723947e-09 -6.371271751080803e-08 0.0 0.0
0.0 -1.3671853436232276e-07 -3.520981792749337e-07 2.809294745232952e-07 7.116870475164371e-08 1.145687704179572e-06 0.0 0.0
0.0 -1.522470459910285e-05 -9.22050263113818e-06 7.3634833957141325e-06 1.857019235424021e-06 2.380798845422674e-05 0.0 0.0
0.0 4.260780436100363e-05 2.2854391138844548e-05 -1.599661318936598e-05 -6.857777949478707e-06 -2.222227958982578e-05 0.0 0.0
0.0 0.0005912371061256019 0.0004796181333507996 -0.0003732506981208867 -0.00010636743522991268 -0.000523861187641827 0.0 0.0
0.0 0.0019517631346287275 0.0015529341043106178 -0.0012702599116864997 -0.0002826741926241176 -0.0014343433639645608 0.0 0.0
0.0 0.004262316592831163 0.0032366302031009504 -0.002783379763236785 -0.0004532504398641632 -0.0027568200132813466 0.0 0.0
0.0 0.006652684890386296 0.005402051449461514 -0.004818874421111171 -0.0005831770283503388 -0.004320474605668624 0.0 0.0
0.0 0.009597785839908547 0.007901307501946498 -0.007222344302609648 -0.0006789631993368638 -0.005857059570301449 0.0 0.0
0.0 0.01302903511251139 0.010739684778466527 -0.009981605796816305 -0.0007580789816502142 -0.007358249751063388 0.0 0.0
0.0 0.0169276806455048 0.014014577161215354 -0.01318928435324113 -0.0008252928079742277 -0.008889572781270371 0.0 0.0
0.0 0.021563623388684217 0.01783704205604999 -0.016953414035757744 -0.0008836280202922376 -0.010525053904536853 0.0 0.0
0.0 0.02681121329622002 0.022287704120098662 -0.021355646681170265 -0.0009320574389283906 -0.012222650218449796 0.0 0.0
0.0 0.03294691757038077 0.027330190511363206 -0.02635834575662352 -0.0009718447547396836 -0.013760638224524334 0.0 0.0
0.0 0.03932299076853869 0.03284649077471398 -0.03183516383970067 -0.001011326935013304 -0.014694662189800296 0.0 0.0
0.0 0.04584472657813983 0.038674535197467656 -0.037634326758414056 -0.0010402084390536115 -0.01444721190989749 0.0 0.0
0.0 0.052408851653494036 0.04436452945357583 -0.04334759112531664 -0.001016938328259226 -0.011712215105900236 0.0 0.0
0.0 0.057273115184899595 0.04777996393424791 -0.04737547674860089 -0.00040448718564704107 1.2377252001094519e-14 0.0 0.0
0.0 0.05240885165348835 0.04436452945356825 -0.04334759112530849 -0.0010169383282597252 0.011712215105930453 0.0 0.0
0.0 0.045844726578131025 0.03867453519745723 -0.03763432675840365 -0.001040208439053587 0.014447211909929616 0.0 0.0
0.0 0.039322990768525454 0.03284649077470102 -0.031835163839688374 -0.0010113269350126674 0.014694662189818852 0.0 0.0
0.0 0.032946917570361306 0.02733019051134674 -0.026358345756607542 -0.0009718447547391899 0.013760638224524693 0.0 0.0
0.0 0.026811213296199857 0.022287704120081974 -0.021355646681153712 -0.0009320574389282848 0.012222650218442615 0.0 0.0
0.0 0.021563623388664337 0.017837042056032832 -0.01695341403574106 -0.0008836280202917696 0.010525053904529829 0.0 0.0
0.0 0.01692768064548609 0.014014577161199384 -0.01318928435322552 -0.0008252928079738681 0.00888957278126475 0.0 0.0
0.0 0.013029035112492144 0.010739684778450576 -0.0099816057968008 -0.0007580789816497721 0.007358249751055575 0.0 0.0
0.0 0.009597785839889737 0.007901307501931 -0.007222344302594441 -0.0006789631993365529 0.005857059570290353 0.0 0.0
0.0 0.006652684890370443 0.005402051449448896 -0.004818874421099364 -0.0005831770283495295 0.004320474605656734 0.0 0.0
0.0 0.004262316592816718 0.0032366302030897905 -0.002783379763226392 -0.0004532504398634003 0.0027568200132709443 0.0 0.0
0.0 0.0019517631346196336 0.001552934104303565 -0.0012702599116804602 -0.0002826741926231035 0.0014343433639589084 0.0 0.0
0.0 0.0005912371061204426 0.00047961813334703547 -0.00037325069811783155 -0.00010636743522920397 0.0005238611876380565 0.0 0.0
0.0 4.2607804360297824e-05 2.285439113860778e-05 -1.5996613189213297e-05 -6.857777949394536e-06 2.2222279589566205e-05 0.0 0.0
0.0 -1.5224704599871455e-05 -9.22050263080207e-06 7.363483395449257e-06 1.8570192353528578e-06 -2.3807988453206286e-05 0.0 0.0
0.0 -1.367185345246711e-07 -3.5209817933700074e-07 2.8092947457316455e-07 7.116870476382543e-08 -1.1456877043442297e-06 0.0 0.0
0.0 -3.1103180944933557e-07 9.145119675171675e-09 -6.435641194459957e-09 -2.709478480710289e-09 6.371271749740787e-08 0.0 0.0
0.0 1.5012394747879627e-07 -8.94337143643398e-10 1.0177113510135556e-09 -1.2337420737023362e-10 -2.990333478189685e-08 0.0 0.0
0.0 3.646987515870016e-05 2.035732340954764e-05 2.2778440068837058e-05 -4.313576347838487e-05 0.00021689036544113638 0.0 0.0
0.0 0.0016000524193013383 0.0007844066323006919 -0.0011357138163022448 0.0003513071840015533 0.0007543991886850769 0.0 0.0
0.0 0.0006709712403669629 0.00036386128429394737 -0.000530152365825637 0.00016629108153168995 -0.0004361283215018304 0.0 0.0
0.0 -3.7312247378402835e-05 -2.288016409301365e-05 4.25857845913435e-05 -1.9705620498329894e-05 -1.306866314093595e-05 0.0 0.0
0.0 2.2756234019458266e-06 -3.622856323065417e-09 1.1119213435067454e-08 -7.496357112000574e-09 4.94855934509731e-07 0.0 0.0
0.0 7.864306231303351e-07 -1.6387003304045022e-09 -2.085611771306629e-10 1.847261507534281e-09 1.628291981626507e-07 0.0 0.0
0.0 -4.965025331277665e-07 -2.0942291689776855e-07 1.5745982029126122e-07 5.1963096606506326e-08 1.4013379865884532e-06 0.0 0.0
0.0 -1.5192619031664046e-05 -2.305467257460532e-06 1.8739817839842598e-06 4.3148547347627635e-07 8.989325864726328e-06 0.0 0.0
0.0 -3.570396005428852e-06 -1.439730266865785e-05 1.1664718709119401e-05 2.732583959538416e-06 3.530263586507121e-05 0.0 0.0
0.0 0.0002064637993777359 8.022157681021136e-05 -6.325592637625614e-05 -1.6965650433955137e-05 -0.00017964391001529963 0.0 0.0
0.0 0.0008449894437708108 0.0005712021086049636 -0.0004607659519261722 -0.00011043615667879106 -0.000854623980164876 0.0 0.0
0.0 0.002180889545991328 0.0015388997642518795 -0.0012880727815211528 -0.00025082698273072714 -0.001837307773938091 0.0 0.0
0.0 0.0037861299194076356 0.0029060202205555296 -0.0025182319296787456 -0.00038778829087678346 -0.0031173983345117273 0.0 0.0
0.0 0.005865350570252981 0.004536637330678653 -0.004041629988623805 -0.0004950073420548463 -0.004454183559820822 0.0 0.0
0.0 0.008178488112021544 0.006397110143812189 -0.005812678887828692 -0.0005844312559834952 -0.005807828335355028 0.0 0.0
0.0 0.010814027968804764 0.008540614926672766 -0.007885396140747456 -0.0006552187859253028 -0.0071665056949238755 0.0 0.0
0.0 0.013943158844972109 0.011058881754367535 -0.010345133506626034 -0.0007137482477415108 -0.008557918517245603 0.0 0.0
0.0 0.01766992835978754 0.014050465618446806 -0.013288114536114788 -0.0007623510823320173 -0.009999783152876173 0.0 0.0
0.0 0.021984517899956993 0.017568310757948777 -0.016761929613179308 -0.0008063811447694571 -0.011373950079500225 0.0 0.0
0.0 0.026663448393009454 0.02160489882289731 -0.02075656734678378 -0.000848331476113554 -0.012317907708414517 0.0 0.0
0.0 0.031950664942860314 0.02620306734491623 -0.02530569457271246 -0.0008973727722037376 -0.012352292450957161 0.0 0.0
0.0 0.03807028849596235 0.0313710461278097 -0.030459582876282015 -0.0009114632515276665 -0.010824958920273154 0.0 0.0
0.0 0.04332965755532957 0.035014287093538606 -0.03485897319644761 -0.0001553138970910466 9.916113069552424e-15 0.0 0.0
0.0 0.03807028849596468 0.03137104612780784 -0.030459582876280176 -0.0009114632515276675 0.010824958920299936 0.0 0.0
0.0 0.03195066494285499 0.02620306734490889 -0.025305694572705255 -0.000897372772203608 0.012352292450984344 0.0 0.0
0.0 0.026663448392996204 0.02160489882288553 -0.02075656734677242 -0.000848331476113103 0.012317907708426595 0.0 0.0
0.0 0.021984517899941363 0.017568310757936502 -0.016761929613167435 -0.0008063811447690704 0.011373950079497524 0.0 0.0
0.0 0.017669928359774115 0.014050465618435998 -0.013288114536104477 -0.000762351082331504 0.009999783152869144 0.0 0.0
0.0 0.013943158844958883 0.011058881754356558 -0.010345133506615103 -0.0007137482477414552 0.008557918517239815 0.0 0.0
0.0 0.010814027968791825 0.008540614926662103 -0.007885396140737216 -0.0006552187859248915 0.0071665056949187156 0.0 0.0
0.0 0.008178488112010511 0.006397110143803009 -0.005812678887819847 -0.0005844312559831631 0.0058078283353498765 0.0 0.0
0.0 0.005865350570240956 0.004536637330669943 -0.004041629988615594 -0.0004950073420543519 0.004454183559812297 0.0 0.0
0.0 0.0037861299193967606 0.002906020220547154 -0.002518231929671078 -0.00038778829087607645 0.003117398334501946 0.0 0.0
0.0 0.002180889545982316 0.0015388997642457305 -0.0012880727815156433 -0.0002508269827300872 0.0018373077739306382 0.0 0.0
0.0 0.0008449894437649163 0.0005712021086009186 -0.0004607659519227606 -0.00011043615667815745 0.0008546239801602071 0.0 0.0
0.0 0.00020646379937474572 8.022157680865133e-05 -6.325592637504147e-05 -1.6965650433609785e-05 0.00017964391001232342 0.0 0.0
0.0 -3.5703960063683016e-06 -1.4397302668134026e-05 1.1664718708705043e-05 2.7325839594290453e-06 -3.530263586386598e-05 0.0 0.0
0.0 -1.519261903140827e-05 -2.305467257232798e-06 1.8739817838057886e-06 4.314854734269734e-07 -8.989325863377528e-06 0.0 0.0
0.0 -4.965025338339889e-07 -2.0942291694598648e-07 1.5745982032990635e-07 5.19630966160917e-08 -1.401337986803546e-06 0.0 0.0
0.0 7.864306230353753e-07 -1.6387003332195712e-09 -2.0856117435996048e-10 1.847261507578611e-09 -1.6282919813890725e-07 0.0 0.0
0.0 2.2756234013447927e-06 -3.6228563214464765e-09 1.1119213431972399e-08 -7.496357110524799e-09 -4.948559343785076e-07 0.0 0.0
0.0 -3.731224737924474e-05 -2.2880164093040514e-05 4.258578459123394e-05 -1.9705620498193366e-05 1.3068663140318056e-05 0.0 0.0
0.0 0.0006709712403621969 0.00036386128429158744 -0.000530152365822218 0.00016629108153063017 0.0004361283214994785 0.0 0.0
0.0 0.00023067352433891162 9.01709471616996e-05 -0.0001327438604161562 4.2572913254456696e-05 -0.00012755340441503057 0.0 0.0
0.0 -3.3425838364736465e-05 -1.5696570997709195e-05 2.1600167701233315e-05 -5.903596703524114e-06 2.814824742107054e-05 0.0 0.0
0.0 5.096525743868014e-07 9.381252579871773e-11 1.5396771685514519e-09 -1.6334896943491657e-09 1.0271581062143611e-07 0.0 0.0
0.0 4.096640072979324e-07 9.90752011270457e-09 -8.396156044114786e-09 -1.5113640685919163e-09 8.098632487915903e-08 0.0 0.0
0.0 2.449295489137418e-07 6.031469949416043e-08 -4.623779108324443e-08 -1.4076908410907642e-08 -1.7621219700735557e-07 0.0 0.0
0.0 -7.978867635636585e-06 -1.9894825621512083e-06 1.5510796677112577e-06 4.384028944399248e-07 1.8409048566282397e-05 0.0 0.0
0.0 5.871801598262803e-06 -3.5192893168015593e-06 2.8919224284320256e-06 6.273668883695597e-07 1.3264694686356336e-05 0.0 0.0
0.0 6.71617144524241e-05 -4.830295841686011e-07 4.994231941401289e-07 -1.6393609971577117e-08 -8.193439765997046e-05 0.0 0.0
0.0 0.00022572863211451036 4.417242904949387e-05 -3.878870333929606e-05 -5.383725710197755e-06 -0.0003408345362039328 0.0 0.0
0.0 0.0006441457647324855 0.0002615725087084636 -0.0002323310168975803 -2.924149181088366e-05 -0.0008815165169026042 0.0 0.0
0.0 0.001526508093009843 0.000737774034416 -0.0006583213954597522 -7.94526389562477e-05 -0.0016990052666548488 0.0 0.0
0.0 0.0024641239206928556 0.001461434517511862 -0.001309642676287491 -0.0001517918412243713 -0.0027291398841473966 0.0 0.0
0.0 0.0037230605768560415 0.0023391034869562877 -0.0021137736534363456 -0.00022532983351993975 -0.0038132713635317434 0.0 0.0
0.0 0.005215253824165844 0.0033708013425777484 -0.0030757249714575027 -0.00029507637112024675 -0.004941975884748471 0.0 0.0
0.0 0.0069411060816023445 0.0046071983258670875 -0.0042408314386926105 -0.0003663668871744735 -0.00612634691642985 0.0 0.0
0.0 0.009042315761151769 0.006142526669297144 -0.005707229691637121 -0.00043529697766002087 -0.0073870255981718135 0.0 0.0
0.0 0.011687501095600938 0.008098602868293442 -0.0075929880780767865 -0.0005056147902166575 -0.00868796994845762 0.0 0.0
0.0 0.014989629793508479 0.010612403626617396 -0.010040358527527006 -0.0005720450990903906 -0.009724468680023725 0.0 0.0
0.0 0.01880113219156438 0.013814711175604245 -0.013183890989538018 -0.000630820186066244 -0.009906808717781865 0.0 0.0
0.0 0.023513736433380165 0.01808613213942462 -0.01735885522872744 -0.0007272769106971687 -0.008981301518186583 0.0 0.0
0.0 0.030139736344614497 0.021882407720217992 -0.02202734034564258 0.0001449326254245897 7.813194535799539e-15 0.0 0.0
0.0 0.02351373643338388 0.018086132139423478 -0.017358855228726024 -0.0007272769106974649 0.008981301518208999 0.0 0.0
0.0 0.018801132191561536 0.013814711175599816 -0.013183890989533846 -0.0006308201860659661 0.009906808717801476 0.0 0.0
0.0 0.014989629793498513 0.01061240362661017 -0.01004035852751961 -0.0005720450990905658 0.009724468680028478 0.0 0.0
0.0 0.01168750109559144 0.008098602868288117 -0.00759298807807178 -0.0005056147902163351 0.008687969948452702 0.0 0.0
0.0 0.00904231576114258 0.006142526669290482 -0.005707229691630969 -0.00043529697765951406 0.0073870255981651044 0.0 0.0
0.0 0.006941106081595773 0.0046071983258621505 -0.004240831438687667 -0.00036636688717448277 0.0061263469164249 0.0 0.0
0.0 0.005215253824158722 0.0033708013425731735 -0.0030757249714531906 -0.00029507637111998334 0.004941975884744276 0.0 0.0
0.0 0.0037230605768503295 0.0023391034869528734 -0.002113773653433295 -0.00022532983351957738 0.00381327136352696 0.0 0.0
0.0 0.0024641239206878753 0.0014614345175094233 -0.001309642676285393 -0.00015179184122402961 0.0027291398841412535 0.0 0.0
0.0 0.0015265080930025095 0.0007377740344120458 -0.0006583213954561185 -7.945263895592663e-05 0.0016990052666464655 0.0 0.0
0.0 0.0006441457647296644 0.0002615725087074655 -0.0002323310168966487 -2.924149181081675e-05 0.0008815165169004258 0.0 0.0
0.0 0.00022572863211325672 4.417242904898887e-05 -3.87887033388658e-05 -5.383725710122964e-06 0.0003408345362020777 0.0 0.0
0.0 6.716171445104497e-05 -4.830295842792914e-07 4.994231942583248e-07 -1.6393609979101152e-08 8.193439765817362e-05 0.0 0.0
0.0 5.871801597210603e-06 -3.519289316715799e-06 2.8919224283583778e-06 6.273668883574331e-07 -1.3264694685926705e-05 0.0 0.0
0.0 -7.978867635828222e-06 -1.9894825621333008e-06 1.5510796677013843e-06 4.3840289443191753e-07 -1.840904856571935e-05 0.0 0.0
0.0 2.4492954845590983e-07 6.031469949496439e-08 -4.6237791084161025e-08 -1.4076908410806542e-08 1.7621219701159195e-07 0.0 0.0
0.0 4.096640068308793e-07 9.90752010832275e-09 -8.39615604017302e-09 -1.5113640681489081e-09 -8.098632478345155e-08 0.0 0.0
0.0 5.096525740515149e-07 9.381252618957887e-11 1.539677166806176e-09 -1.6334896929998106e-09 -1.0271581055161462e-07 0.0 0.0
0.0 -3.342583836465276e-05 -1.5696570997407197e-05 2.1600167700860434e-05 -5.903596703453225e-06 -2.814824742036689e-05 0.0 0.0
0.0 0.00023067352433625018 9.017094716076366e-05 -0.00013274386041482112 4.2572913254057316e-05 0.00012755340441368047 0.0 0.0
0.0 9.158902653339025e-06 6.896863985795668e-06 -1.0779340301504948e-05 3.882476315709233e-06 -1.0397859967837091e-05 0.0 0.0
0.0 -1.0576470982915282e-06 -9.770369313283309e-07 1.5050922607385376e-06 -5.280553294101952e-07 1.3859052847451294e-06 0.0 0.0
0.0 3.566390412312072e-06 1.0029511242785453e-08 6.573081877766086e-09 -1.6602593120556167e-08 7.66328218595901e-07 0.0 0.0
0.0 1.2432659498151776e-06 2.246362439382492e-08 -1.8914806252637647e-08 -3.5488181411839826e-09 2.49696724580317e-07 0.0 0.0
0.0 -5.93618513331993e-07 8.139081861919481e-08 -7.938764351935554e-08 -2.00317509983944e-09 1.1509895120787808e-06 0.0 0.0
0.0 -6.508557901667377e-06 -6.756260287333472e-08 7.541111183938373e-08 -7.848508966046034e-09 1.3852169420770718e-05 0.0 0.0
0.0 6.817242584023937e-06 -3.3676073967766457e-07 3.215228112887303e-07 1.523792838892483e-08 1.0017944073000955e-05 0.0 0.0
0.0 6.523284755047182e-05 -4.393721819128848e-07 4.4165497835694195e-07 -2.28279644405053e-09 -0.00011392922532373817 0.0 0.0
0.0 0.00021917748192783556 -4.6762684938539894e-08 4.231286402046772e-08 4.4498209181087605e-09 -0.000292447918822974 0.0 0.0
0.0 0.00035606449146993247 1.5590508487689796e-07 -9.924726754221218e-08 -5.6657817334743836e-08 -0.0006046789122325912 0.0 0.0
0.0 0.0006514585770043243 -1.3461601056504819e-06 7.329006051438861e-07 6.132595005065915e-07 -0.0010088584045674074 0.0 0.0
0.0 0.0008593280317937559 1.9688793302432553e-06 -1.494931491123421e-06 -4.739478391196953e-07 -0.0016832836710557325 0.0 0.0
0.0 0.001229339169952167 2.5980682533274736e-06 -1.583301341836414e-06 -1.0147669114907073e-06 -0.0025202448814435514 0.0 0.0
0.0 0.0017579253399464445 -1.2686428121447534e-05 1.5550529300234256e-05 -2.8641011787868437e-06 -0.003549654225422366 0.0 0.0
0.0 0.002555246713487084 -8.362948016518463e-06 7.422929116278256e-06 9.400189002400575e-07 -0.004762619696300826 0.0 0.0
0.0 0.003497896287197776 8.270821437727973e-05 -9.984346421784777e-05 1.7135249840567347e-05 -0.006139106894529696 0.0 0.0
0.0 0.00465741691927793 0.00042838508200206355 -0.00048425841731900097 5.5873335316938345e-05 -0.007626784475145701 0.0 0.0
0.0 0.006013023769793427 0.0011872078501074385 -0.001345818608520073 0.00015861075841263199 -0.009098908759476318 0.0 0.0
0.0 0.008087083419476395 0.002228083099633977 -0.002478773266057128 0.00025069016642315236 -0.010216915204473856 0.0 0.0
0.0 0.01189445517749382 0.004915663267330047 -0.004778830510476814 -0.0001368327568532295 -0.01018427051910003 0.0 0.0
0.0 0.020676735027284822 0.009228702349509428 -0.009826531369429257 0.0005978290199198349 8.303687598631981e-15 0.0 0.0
0.0 0.011894455177499133 0.004915663267330049 -0.0047788305104768765 -0.00013683275685317012 0.010184270519115992 0.0 0.0
0.0 0.008087083419472871 0.002228083099632166 -0.002478773266054807 0.00025069016642264186 0.010216915204478247 0.0 0.0
0.0 0.006013023769787353 0.0011872078501065086 -0.0013458186085187728 0.0001586107584122639 0.009098908759470975 0.0 0.0
0.0 0.0046574169192717466 0.00042838508200336513 -0.0004842584173207782 5.58733353174129e-05 0.007626784475138565 0.0 0.0
0.0 0.0034978962871895156 8.270821437839684e-05 -9.984346421935503e-05 1.71352498409593e-05 0.006139106894521795 0.0 0.0
0.0 0.0025552467134847185 -8.362948016853806e-06 7.42292911701779e-06 9.400188998351215e-07 0.004762619696297817 0.0 0.0
0.0 0.0017579253399426847 -1.2686428120272286e-05 1.555052929898344e-05 -2.8641011787112613e-06 0.003549654225416783 0.0 0.0
0.0 0.0012293391699471322 2.5980682534059427e-06 -1.5833013418960044e-06 -1.0147669115101145e-06 0.002520244881435113 0.0 0.0
0.0 0.0008593280317914531 1.9688793301540254e-06 -1.4949314910929414e-06 -4.7394783906107047e-07 0.0016832836710504073 0.0 0.0
0.0 0.0006514585770009662 -1.3461601055725006e-06 7.329006050360961e-07 6.132595005364283e-07 0.0010088584045617297 0.0 0.0
0.0 0.0003560644914703474 1.559050849749653e-07 -9.924726763732483e-08 -5.6657817337637075e-08 0.0006046789122326637 0.0 0.0
0.0 0.00021917748192647253 -4.676268492279991e-08 4.231286401186066e-08 4.449820910913842e-09 0.00029244791882098716 0.0 0.0
0.0 6.523284754927149e-05 -4.393721819128222e-07 4.4165497837184354e-07 -2.2827964590020942e-09 0.00011392922532244958 0.0 0.0
0.0 6.81724258380013e-06 -3.3676073967737636e-07 3.215228112891352e-07 1.523792838825187e-08 -1.001794407285969e-05 0.0 0.0
0.0 -6.508557901936796e-06 -6.756260290419313e-08 7.541111187076965e-08 -7.848508966582815e-09 -1.3852169420103342e-05 0.0 0.0
0.0 -5.936185140033224e-07 8.139081864101748e-08 -7.938764353846805e-08 -2.003175102546146e-09 -1.150989512299697e-06 0.0 0.0
0.0 1.243265949176904e-06 2.246362440231061e-08 -1.891480625908926e-08 -3.5488181432222744e-09 -2.4969672465608085e-07 0.0 0.0
0.0 3.566390412088329e-06 1.0029511236819648e-08 6.5730818814683295e-09 -1.6602593118278783e-08 -7.663282184630181e-07 0.0 0.0
0.0 -1.057647098673261e-06 -9.770369313334368e-07 1.5050922607473089e-06 -5.280553294138843e-07 -1.385905284699245e-06 0.0 0.0
0.0 9.158902652467626e-06 6.896863985956112e-06 -1.0779340301741367e-05 3.88247631578535e-06 1.039785996816805e-05 0.0 0.0
0.0 1.2392568618169737e-06 -7.491151091484791e-08 1.1767598598030642e-07 -4.2764475065472074e-08 1.441325408975938e-07 0.0 0.0
0.0 1.0193361657633564e-07 1.0676732839692013e-08 -1.3945681913414806e-08 3.26894907372364e-09 3.7380425146472035e-08 0.0 0.0
0.0 -9.298029517704286e-07 -1.7591377812555963e-08 1.219425380817221e-08 5.397124004383721e-09 -2.3141158907991933e-07 0.0 0.0
0.0 1.3797272561352372e-06 6.786175752727544e-08 -5.5300079503580034e-08 -1.2561678023696974e-08 4.980787367445991e-07 0.0 0.0
0.0 -2.0528208089232e-06 2.658584457751126e-07 -2.445936832353439e-07 -2.12647625397664e-08 1.653616578862902e-06 0.0 0.0
0.0 -8.203999934788968e-06 5.787983074766324e-07 -3.9407580952946726e-07 -1.8472249794713322e-07 8.16564549236956e-06 0.0 0.0
0.0 2.191570094851899e-05 4.108586567043173e-06 -3.176453932209631e-06 -9.321326348336019e-07 1.854285338483238e-05 0.0 0.0
0.0 7.367200350695312e-05 -6.825431702999347e-07 6.063144724387313e-07 7.622869786124174e-08 -8.481655831857432e-05 0.0 0.0
0.0 0.000226332093971811 -4.468232241961736e-05 3.921998560511065e-05 5.462336814506454e-06 -0.0003428839613446633 0.0 0.0
0.0 0.0006420143443673504 -0.00026065225370954756 0.00023146073591014322 2.919151779940459e-05 -0.0008806423467520166 0.0 0.0
0.0 0.0015296203300517095 -0.0007307777475969468 0.0006532886663351348 7.748908126181134e-05 -0.0016922473300822099 0.0 0.0
0.0 0.0024794085029897087 -0.0014681964299293818 0.0013150867234949736 0.00015310970643440795 -0.0027293388390171977 0.0 0.0
0.0 0.0037501790676210227 -0.0023609625877709746 0.002132996831233051 0.00022796575653792072 -0.003813873463708071 0.0 0.0
0.0 0.005261766389871363 -0.0034104013203667977 0.003111987253939924 0.0002984140664268754 -0.004938882787552003 0.0 0.0
0.0 0.006934985572587409 -0.00461443729083922 0.00425583440500457 0.0003586028858346499 -0.006138333441045557 0.0 0.0
0.0 0.00875465833751965 -0.005885430624989267 0.00549656484376742 0.00038886578122184233 -0.007484762567911844 0.0 0.0
0.0 0.010460001129871655 -0.0069853868599759495 0.006607192491310005 0.00037819436866594705 -0.00905302200506342 0.0 0.0
0.0 0.011871461520984887 -0.007512266325394036 0.007209585315701838 0.00030268100969218776 -0.010874670455844672 0.0 0.0
0.0 0.012084117461191946 -0.006951861757834103 0.006787875381178976 0.0001639863766551369 -0.012923939066489714 0.0 0.0
0.0 0.010075203664021004 -0.005026066141842655 0.005073900853457221 -4.7834711614561456e-05 -0.014538283938802821 0.0 0.0
0.0 0.01968942509390029 -0.0027021658072772805 0.0010547227392832038 0.0016474430679940776 1.1139960481854061e-14 0.0 0.0
0.0 0.010075203664025565 -0.005026066141843595 0.005073900853458324 -4.7834711614728505e-05 0.014538283938813908 0.0 0.0
0.0 0.012084117461191117 -0.006951861757833078 0.006787875381177895 0.0001639863766551962 0.012923939066497761 0.0 0.0
0.0 0.01187146152097763 -0.007512266325389087 0.007209585315697076 0.0003026810096920053 0.010874670455844986 0.0 0.0
0.0 0.010460001129858766 -0.006985386859966791 0.006607192491300968 0.0003781943686658243 0.009053022005055368 0.0 0.0
0.0 0.008754658337507375 -0.0058854306249796744 0.005496564843758726 0.00038886578122094455 0.0074847625679039425 0.0 0.0
0.0 0.006934985572579837 -0.004614437290833043 0.004255834404998504 0.0003586028858345404 0.006138333441038896 0.0 0.0
0.0 0.005261766389861106 -0.0034104013203588154 0.003111987253932663 0.0002984140664261532 0.004938882787545307 0.0 0.0
0.0 0.003750179067610068 -0.002360962587762889 0.002132996831225404 0.00022796575653748517 0.0038138734636999176 0.0 0.0
0.0 0.0024794085029794122 -0.0014681964299226274 0.0013150867234890298 0.00015310970643359802 0.0027293388390081537 0.0 0.0
0.0 0.0015296203300414896 -0.0007307777475913065 0.0006532886663300555 7.748908126125032e-05 0.0016922473300725377 0.0 0.0
0.0 0.0006420143443619843 -0.00026065225370708247 0.00023146073590778318 2.9191517799299168e-05 0.0008806423467483904 0.0 0.0
0.0 0.00022633209397009374 -4.468232241910801e-05 3.921998560469397e-05 5.4623368144141476e-06 0.00034288396134290024 0.0 0.0
0.0 7.367200350586747e-05 -6.825431703128537e-07 6.063144724674305e-07 7.622869784541938e-08 8.481655831762389e-05 0.0 0.0
0.0 2.19157009469479e-05 4.108586567003482e-06 -3.1764539321855737e-06 -9.321326348179016e-07 -1.854285338469134e-05 0.0 0.0
0.0 -8.203999934674916e-06 5.787983073559886e-07 -3.940758094307873e-07 -1.847224979251936e-07 -8.165645491319315e-06 0.0 0.0
0.0 -2.052820808765958e-06 2.6585844563072466e-07 -2.4459368311145774e-07 -2.1264762519271006e-08 -1.6536165776143522e-06 0.0 0.0
0.0 1.3797272557746296e-06 6.7861757493596e-08 -5.530007947765584e-08 -1.2561678015939827e-08 -4.980787362662509e-07 0.0 0.0
0.0 -9.298029520373386e-07 -1.7591377794334567e-08 1.2194253793156505e-08 5.397124001175083e-09 2.3141158891321803e-07 0.0 0.0
0.0 1.0193361634669551e-07 1.0676732833700947e-08 -1.3945681909328034e-08 3.2689490756309226e-09 -3.7380425093418424e-08 0.0 0.0
0.0 1.2392568610875138e-06 -7.491151086901853e-08 1.1767598590977797e-07 -4.276447504077999e-08 -1.441325408055337e-07 0.0 0.0
0.0 0.0 0.0 0.0 0.0 0.0 0.0 0.0
0.0 -2.421719605901748e-07 -3.2468155202972983e-09 1.8808664176063756e-09 1.3659491026902043e-09 -4.880557232414907e-08 0.0 0.0
0.0 1.7890483534645332e-07 1.4413125339530715e-08 -8.45623333432936e-09 -5.9568920051999935e-09 2.1835489850601457e-07 0.0 0.0
0.0 -5.380493604660444e-07 -1.4350164693647584e-07 1.1733218335256662e-07 2.6169463583900335e-08 -8.53902741402669e-07 0.0 0.0
0.0 6.230995878975926e-06 2.568683956086545e-07 -2.2065587090776197e-07 -3.6212524700846345e-08 1.8934564948517184e-06 0.0 0.0
0.0 3.139282282361501e-06 7.373697229456123e-06 -5.9427043881886615e-06 -1.4309928412674404e-06 2.9940983143399283e-05 0.0 0.0
0.0 -4.295008170990067e-06 6.1550127193307795e-06 -4.860699356338067e-06 -1.2943133629926303e-06 -5.810535478630238e-06 0.0 0.0
0.0 0.0002186066513624556 -8.500999598437585e-05 6.734251245532266e-05 1.7667483529053055e-05 -0.00019041818858576233 0.0 0.0
0.0 0.0008438603237587046 -0.0005704402936494733 0.0004600400665990159 0.00011040022705045735 -0.000855302064645104 0.0 0.0
0.0 0.002176501180524836 -0.0015366146480705546 0.0012859188936698393 0.00025069575440071426 -0.0018338593230897754 0.0 0.0
0.0 0.0037848183686850024 -0.0029057344387614986 0.00251802477804707 0.0003877096607144296 -0.003115585413172431 0.0 0.0
0.0 0.00587170037026664 -0.004541740441355709 0.004046385497912921 0.0004953549434427887 -0.004454851235488215 0.0 0.0
0.0 0.008199146140198664 -0.006415808034342376 0.005830458330207689 0.0005853497041346863 -0.005798796406640473 0.0 0.0
0.0 0.010849407814706795 -0.008578235669858235 0.007922593307395694 0.0006556423624625411 -0.007131755586360957 0.0 0.0
0.0 0.013944215395068382 -0.011073021747052011 0.010364875407800421 0.0007081463392515829 -0.008529752177437323 0.0 0.0
0.0 0.017418109392778873 -0.013833086778152466 0.013095719153511919 0.0007373676246405503 -0.010170773547954554 0.0 0.0
0.0 0.020928433427984672 -0.016582617588331607 0.01584084196182465 0.0007417756265069529 -0.012265035076472799 0.0 0.0
0.0 0.023761583174817042 -0.01882311365787272 0.018097737913290404 0.0007253757445823388 -0.014918726492934601 0.0 0.0
0.0 0.02536312394917628 -0.019614007502794007 0.018946169617109127 0.0006678378856848793 -0.017599591059274784 0.0 0.0
0.0 0.02347749830613699 -0.017175363991471432 0.016584061426763795 0.000591302564707626 -0.018112083993462324 0.0 0.0
0.0 0.024368581839312762 -0.013492630205728759 0.011050685957503725 0.002441944248225037 1.0758754998008158e-14 0.0 0.0
0.0 0.0234774983061456 -0.017175363991473423 0.016584061426766196 0.0005913025647072169 0.0181120839934859 0.0 0.0
0.0 0.025363123949174664 -0.019614007502789375 0.01894616961710478 0.0006678378856845868 0.017599591059294435 0.0 0.0
0.0 0.023761583174804937 -0.018823113657861972 0.018097737913279892 0.0007253757445820796 0.014918726492940853 0.0 0.0
0.0 0.020928433427967214 -0.0165826175883173 0.015840841961810532 0.0007417756265067656 0.012265035076468873 0.0 0.0
0.0 0.017418109392760932 -0.013833086778137863 0.013095719153497495 0.0007373676246403686 0.010170773547945995 0.0 0.0
0.0 0.013944215395051883 -0.01107302174703846 0.010364875407787476 0.0007081463392509815 0.008529752177428868 0.0 0.0
0.0 0.010849407814692354 -0.008578235669845575 0.007922593307383444 0.000655642362462123 0.007131755586353806 0.0 0.0
0.0 0.008199146140180413 -0.006415808034327659 0.0058304583301932765 0.0005853497041343803 0.005798796406630929 0.0 0.0
0.0 0.005871700370249314 -0.004541740441342465 0.0040463854979004375 0.0004953549434420267 0.004454851235476002 0.0 0.0
0.0 0.003784818368670199 -0.0029057344387499783 0.0025180247780363665 0.00038770966071361226 0.0031155854131603134 0.0 0.0
0.0 0.002176501180514036 -0.001536614648062578 0.0012859188936629692 0.0002506957543996084 0.0018338593230824388 0.0 0.0
0.0 0.0008438603237526456 -0.0005704402936452804 0.00046004006659559703 0.00011040022704968351 0.0008553020646405422 0.0 0.0
0.0 0.000218606651360506 -8.500999598346883e-05 6.734251245466297e-05 1.7667483528805776e-05 0.00019041818858405335 0.0 0.0
0.0 -4.295008171898388e-06 6.155012718935149e-06 -4.860699356030518e-06 -1.2943133629046456e-06 5.8105354792101135e-06 0.0 0.0
0.0 3.1392822812197654e-06 7.373697229315014e-06 -5.942704388071711e-06 -1.4309928412434048e-06 -2.9940983142643913e-05 0.0 0.0
0.0 6.230995878378906e-06 2.5686839563834287e-07 -2.2065587093248414e-07 -3.6212524705860946e-08 -1.8934564950075966e-06 0.0 0.0
0.0 -5.380493605738316e-07 -1.4350164705785457e-07 1.1733218345086982e-07 2.6169463606996158e-08 8.53902742272874e-07 0.0 0.0
0.0 1.789048347847187e-07 1.4413125364417904e-08 -8.456233356618723e-09 -5.9568920077989635e-09 -2.183548986080987e-07 0.0 0.0
0.0 -2.421719603617441e-07 -3.246815517878595e-09 1.8808664168966315e-09 1.3659491009815945e-09 4.8805572277769595e-08 0.0 0.0
0.0 0.0 0.0 0.0 0.0 0.0 0.0 0.0
0.0 0.0 0.0 0.0 0.0 0.0 0.0 0.0
0.0 4.708975586266584e-08 6.631015335524161e-10 -4.066369113317879e-10 -2.56464622220512e-10 9.52065192162231e-09 0.0 0.0
0.0 -8.431200303313022e-07 -2.8996678881907022e-08 2.3017103404619397e-08 5.97957547729079e-09 -1.6687519249258124e-07 0.0 0.0
0.0 1.51992448942098e-06 2.068891632778594e-07 -1.7181712741238235e-07 -3.507203586548342e-08 8.401864714286611e-07 0.0 0.0
0.0 3.27758609287115e-07 2.185767917520997e-06 -1.7601513272265579e-06 -4.256165902944724e-07 6.945115079178873e-06 0.0 0.0
0.0 -1.6280905513111498e-05 2.179692815103041e-06 -1.7379579721432982e-06 -4.4173484295969263e-07 -1.266497965390766e-06 0.0 0.0
0.0 9.80076029390609e-05 -3.0627352955694345e-05 2.2645917654006345e-05 7.98143530168782e-06 -3.2506438450521776e-05 0.0 0.0
0.0 0.0006044133625690224 -0.00048252587689339625 0.0003760967000557784 0.00010642917683761796 -0.0005319695851437097 0.0 0.0
0.0 0.0019482550374425472 -0.0015502616011870908 0.001267679755075345 0.00028258184611174486 -0.0014316415569428176 0.0 0.0
0.0 0.004259336203623874 -0.003234524764329386 0.00278120006510274 0.0004533246992266454 -0.00275215262743416 0.0 0.0
0.0 0.006649109028439121 -0.005403171907472232 0.0048201279136881724 0.0005830439937840609 -0.004320025127008221 0.0 0.0
0.0 0.009603294672292371 -0.0079054036901972 0.0072265301780535356 0.0006788735121436627 -0.005856999622346308 0.0 0.0
0.0 0.013039379747261248 -0.010750118926969006 0.00999182044321782 0.0007582984837511844 -0.007339665239910916 0.0 0.0
0.0 0.016940135458841668 -0.014035518428141939 0.013209740304682648 0.0008257781234592893 -0.008814468690067516 0.0 0.0
0.0 0.02154628449510509 -0.017845488536380547 0.016964984079542403 0.0008805044568381498 -0.010414437589172435 0.0 0.0
0.0 0.02662842228806208 -0.022141295317447435 0.02122786036682243 0.0009134349506250041 -0.012383622209941925 0.0 0.0
0.0 0.03222131461705928 -0.026602892067186835 0.02568470408451107 0.0009181879826757668 -0.015103770330657542 0.0 0.0
0.0 0.03706827107641795 -0.030482697854573967 0.029600856115798473 0.0008818417387754783 -0.01870335876235435 0.0 0.0
0.0 0.03974128909093034 -0.03233258162928769 0.03152826875281276 0.0008043128764749476 -0.02220575474598149 0.0 0.0
0.0 0.03717829794578956 -0.029665902004062432 0.02901444978608197 0.000651452217980457 -0.023307610935856624 0.0 0.0
0.0 0.03443495525984903 -0.024321670806636567 0.021151539924047648 0.003170130882588907 1.2160411566597418e-14 0.0 0.0
0.0 0.037178297945794754 -0.02966590200406182 0.029014449786081385 0.000651452217980435 0.023307610935884 0.0 0.0
0.0 0.03974128909092418 -0.03233258162927853 0.03152826875280381 0.0008043128764746737 0.02220575474600622 0.0 0.0
0.0 0.03706827107640262 -0.030482697854559114 0.0296008561157846 0.0008818417387745092 0.018703358762366142 0.0 0.0
0.0 0.03222131461703746 -0.026602892067168375 0.025684704084492943 0.0009181879826754428 0.015103770330655316 0.0 0.0
0.0 0.026628422288037707 -0.022141295317426927 0.021227860366802017 0.00091343495062489 0.012383622209932756 0.0 0.0
0.0 0.02154628449508325 -0.017845488536362204 0.016964984079524677 0.0008805044568375224 0.010414437589164029 0.0 0.0
0.0 0.01694013545881846 -0.014035518428122307 0.01320974030466326 0.0008257781234590527 0.008814468690058534 0.0 0.0
0.0 0.013039379747237014 -0.010750118926948934 0.009991820443198086 0.0007582984837508427 0.007339665239900409 0.0 0.0
0.0 0.009603294672269547 -0.007905403690178801 0.007226530178035855 0.0006788735121429475 0.005856999622332897 0.0 0.0
0.0 0.006649109028417609 -0.005403171907455101 0.004820127913671535 0.0005830439937835669 0.0043200251269940185 0.0 0.0
0.0 0.004259336203608884 -0.003234524764317538 0.002781200065091852 0.0004533246992256856 0.0027521526274242314 0.0 0.0
0.0 0.0019482550374319433 -0.0015502616011789359 0.001267679755068473 0.0002825818461104619 0.0014316415569366006 0.0 0.0
0.0 0.000604413362564202 -0.00048252587688991163 0.0003760967000529681 0.00010642917683694337 0.0005319695851403689 0.0 0.0
0.0 9.80076029370216e-05 -3.0627352954926465e-05 2.2645917653421777e-05 7.981435301504829e-06 3.2506438449543894e-05 0.0 0.0
0.0 -1.628090551333907e-05 2.1796928145208156e-06 -1.7379579716928226e-06 -4.4173484282797906e-07 1.2664979667164185e-06 0.0 0.0
0.0 3.277586084150227e-07 2.1857679173226716e-06 -1.7601513270627618e-06 -4.256165902599058e-07 -6.945115078510134e-06 0.0 0.0
0.0 1.519924488900869e-06 2.0688916330503663e-07 -1.7181712743520663e-07 -3.5072035869837416e-08 -8.401864714735037e-07 0.0 0.0
0.0 -8.431200300362501e-07 -2.8996678872773777e-08 2.301710339753103e-08 5.979575475243381e-09 1.6687519243153147e-07 0.0 0.0
0.0 4.708975583477513e-08 6.631015331494612e-10 -4.066369110840808e-10 -2.5646462206536185e-10 -9.520651915847124e-09 0.0 0.0
0.0 0.0 0.0 0.0 0.0 0.0 0.0 0.0
0.0 0.0 0.0 0.0 0.0 0.0 0.0 0.0
0.0 0.0 0.0 0.0 0.0 0.0 0.0 0.0
0.0 -2.95889627028445e-07 -1.3592507698731995e-08 1.083743040721265e-08 2.7550772915178707e-09 -5.501979115714737e-08 0.0 0.0
0.0 -2.1575171082560004e-06 -2.1161377560273272e-07 1.7227543177806663e-07 3.93383438246686e-08 -5.82726964159695e-07 0.0 0.0
0.0 5.499714764853699e-06 2.642774127661429e-06 -2.126472482188533e-06 -5.1630164547289e-07 6.387088510959211e-06 0.0 0.0
0.0 1.4414531232721625e-05 1.793003944930003e-05 -1.4677848132266443e-05 -3.2521913170336553e-06 3.4446388938662976e-05 0.0 0.0
0.0 0.00029580171554671535 -0.0002296885107493623 0.00017439516598688815 5.529334476247423e-05 -0.00020058178608626045 0.0 0.0
0.0 0.0013146522620692178 -0.0011057023787382188 0.0008769432291927601 0.00022875914954545836 -0.0008097152130546108 0.0 0.0
0.0 0.003592620992207395 -0.0027627008266549427 0.002327414306147936 0.0004352865205070058 -0.0019083152483085437 0.0 0.0
0.0 0.005990678967431815 -0.005161684440214085 0.004560703746814453 0.0006009806933996364 -0.0034504452685193664 0.0 0.0
0.0 0.009542233944295467 -0.008052963379746132 0.007341907101158956 0.0007110562785871641 -0.005056638210221851 0.0 0.0
0.0 0.013499072278008915 -0.011392344199562879 0.010594972033531713 0.0007973721660311653 -0.006635072382856736 0.0 0.0
0.0 0.017999707895782653 -0.015214542197428838 0.014338580047698047 0.0008759621497307948 -0.008167679653697012 0.0 0.0
0.0 0.02320591431176177 -0.0196359998552805 0.018687196362176854 0.0009488034931036386 -0.009722571278835999 0.0 0.0
0.0 0.02919867476340775 -0.024778785559530784 0.023766646061935667 0.0010121394975950953 -0.011420319704272574 0.0 0.0
0.0 0.036329118140481585 -0.030633291913343342 0.02958041312947355 0.0010528787838697885 -0.013561527344527561 0.0 0.0
0.0 0.043351162826721565 -0.036830233500324154 0.03577607678664113 0.0010541567136829373 -0.016607450703483708 0.0 0.0
0.0 0.05026081348628933 -0.04230343952840585 0.04130709108102376 0.0009963484473821313 -0.020726358138438844 0.0 0.0
0.0 0.054168689180093654 -0.045051482181519956 0.04417950504992912 0.000871977131590758 -0.02502375964606759 0.0 0.0
0.0 0.050930320301298924 -0.041793817698436375 0.04114230488710925 0.0006515128113271144 -0.026975116394074836 0.0 0.0
0.0 0.045377223182691606 -0.03493531769988463 0.03114700297877825 0.00378831472110637 1.2973129515092552e-14 0.0 0.0
0.0 0.050930320301299944 -0.04179381769843221 0.04114230488710556 0.0006515128113266232 0.02697511639410446 0.0 0.0
0.0 0.05416868918008078 -0.045051482181505176 0.0441795050499143 0.0008719771315908718 0.02502375964609659 0.0 0.0
0.0 0.0502608134862694 -0.0423034395283871 0.04130709108100521 0.0009963484473818373 0.020726358138454727 0.0 0.0
0.0 0.043351162826694475 -0.036830233500300756 0.0357760767866179 0.0010541567136828519 0.016607450703482875 0.0 0.0
0.0 0.03632911814045121 -0.030633291913317255 0.029580413129447827 0.0010528787838694363 0.01356152734452001 0.0 0.0
0.0 0.029198674763379246 -0.02477878555950625 0.023766646061911742 0.001012139497594519 0.01142031970426311 0.0 0.0
0.0 0.023205914311730656 -0.019635999855253796 0.01868719636215039 0.0009488034931033837 0.00972257127882602 0.0 0.0
0.0 0.017999707895751692 -0.015214542197402797 0.014338580047672059 0.000875962149730723 0.008167679653685915 0.0 0.0
0.0 0.013499072277980717 -0.011392344199538967 0.010594972033508385 0.0007973721660305951 0.00663507238284338 0.0 0.0
0.0 0.009542233944267911 -0.008052963379723117 0.0073419071011362365 0.0007110562785868803 0.005056638210205884 0.0 0.0
0.0 0.0059906789674125825 -0.005161684440197598 0.0045607037467987385 0.0006009806933988577 0.0034504452685078734 0.0 0.0
0.0 0.0035926209921921955 -0.0027627008266432086 0.00232741430613744 0.00043528652050577103 0.001908315248300803 0.0 0.0
0.0 0.0013146522620598935 -0.0011057023787309867 0.0008769432291867885 0.00022875914954419835 0.0008097152130495192 0.0 0.0
0.0 0.00029580171554273964 -0.0002296885107469761 0.00017439516598507767 5.529334476189828e-05 0.00020058178608436874 0.0 0.0
0.0 1.4414531232364792e-05 1.7930039448780498e-05 -1.4677848131847566e-05 -3.252191316932972e-06 -3.4446388937709284e-05 0.0 0.0
0.0 5.4997147634734596e-06 2.6427741277008225e-06 -2.126472482221233e-06 -5.163016454795662e-07 -6.38708851103691e-06 0.0 0.0
0.0 -2.1575171088234997e-06 -2.1161377563877098e-07 1.7227543180678978e-07 3.9338343831984194e-08 5.827269642973594e-07 0.0 0.0
0.0 -2.9588962689353585e-07 -1.3592507692400482e-08 1.0837430402124616e-08 2.755077290274585e-09 5.50197911312241e-08 0.0 0.0
0.0 0.0 0.0 0.0 0.0 0.0 0.0 0.0
0.0 0.0 0.0 0.0 0.0 0.0 0.0 0.0
0.0 0.0 0.0 0.0 0.0 0.0 0.0 0.0
0.0 0.0 0.0 0.0 0.0 0.0 0.0 0.0
0.0 -1.336041538324973e-07 -7.0791082984345225e-09 5.607259907490537e-09 1.4718483909442396e-09 -2.3963176664436898e-08 0.0 0.0
0.0 -1.555711219258034e-07 -2.2690618974109305e-08 2.0845607799569463e-08 1.8450111745549255e-09 -5.006963119288666e-08 0.0 0.0
0.0 -1.0691265045546034e-05 8.029862901196067e-07 -7.149143597170621e-07 -8.80719304025509e-08 1.9575538242860306e-06 0.0 0.0
0.0 8.863729234978315e-05 -2.4530457394792327e-05 1.642524978799158e-05 8.105207606800918e-06 7.915149258402234e-06 0.0 0.0
0.0 0.0006642565634153952 -0.0005604373191760233 0.0004297647359823867 0.0001306725831936372 -0.0003101031879268687 0.0 0.0
0.0 0.0024504420999034086 -0.0018932451961185316 0.0015416166774094553 0.00035162851870907644 -0.0010047429336424748 0.0 0.0
0.0 0.004679225512440754 -0.0041768576864858655 0.003613344974938712 0.000563512711547151 -0.0022576117101362116 0.0 0.0
0.0 0.008297390968924274 -0.007164392647723698 0.006460433483663151 0.0007039591640605533 -0.0037397350619269693 0.0 0.0
0.0 0.012517924344104928 -0.010771415130913668 0.00996729665577737 0.0008041184751362916 -0.005283330509528563 0.0 0.0
0.0 0.017421094820825836 -0.014954771432164674 0.014065317631217619 0.0008894538009470498 -0.006809841695926881 0.0 0.0
0.0 0.023062345434857474 -0.019765680833029348 0.018793410702837843 0.0009722701301914953 -0.008312734632641537 0.0 0.0
0.0 0.029660417475068857 -0.02533335334420776 0.024281568533073165 0.001051784811134599 -0.009865335563355969 0.0 0.0
0.0 0.037160365249437624 -0.03180962829049557 0.030684318295596726 0.0011253099948988002 -0.0115766018725247 0.0 0.0
0.0 0.04565171597788347 -0.039210970195041876 0.03803482226533718 0.0011761479297047095 -0.013663567914198533 0.0 0.0
0.0 0.05518963357532455 -0.04709103987336842 0.045918230393976155 0.001172809479392289 -0.01659356502107252 0.0 0.0
0.0 0.06352385450477958 -0.05411656782110166 0.05302812243791997 0.001088445383181647 -0.020794962008289494 0.0 0.0
0.0 0.0679640491500422 -0.05767597441624363 0.05676250437105257 0.0009134700451910907 -0.025731148223157894 0.0 0.0
0.0 0.0643385296170692 -0.053785562401301126 0.05314654282622888 0.0006390195750722621 -0.02938397175766504 0.0 0.0
0.0 0.05721639520602015 -0.04555239335298374 0.04120460895906217 0.004347784393921594 1.3434565959702383e-14 0.0 0.0
0.0 0.0643385296170678 -0.05378556240129538 0.0531465428262233 0.0006390195750720644 0.02938397175769633 0.0 0.0
0.0 0.06796404915002595 -0.057675974416226426 0.05676250437103493 0.0009134700451915059 0.025731148223187967 0.0 0.0
0.0 0.06352385450475323 -0.05411656782107768 0.053028122437895904 0.001088445383181768 0.02079496200830654 0.0 0.0
0.0 0.05518963357529299 -0.047091039873341 0.045918230393948975 0.0011728094793919473 0.01659356502107355 0.0 0.0
0.0 0.045651715977843704 -0.039210970195007695 0.03803482226530307 0.001176147929704666 0.01366356791419175 0.0 0.0
0.0 0.03716036524940349 -0.03180962829046603 0.030684318295567985 0.0011253099948980402 0.011576601872517184 0.0 0.0
0.0 0.029660417475032987 -0.02533335334417624 0.024281568533042464 0.0010517848111337863 0.009865335563346952 0.0 0.0
0.0 0.023062345434820986 -0.01976568083299797 0.01879341070280653 0.000972270130191426 0.008312734632631238 0.0 0.0
0.0 0.017421094820790763 -0.01495477143213476 0.014065317631188158 0.0008894538009465861 0.0068098416959138435 0.0 0.0
0.0 0.01251792434407331 -0.010771415130886895 0.009967296655750994 0.0008041184751358994 0.005283330509513488 0.0 0.0
0.0 0.008297390968899115 -0.0071643926477023435 0.006460433483642488 0.000703959164059862 0.00373973506191455 0.0 0.0
0.0 0.0046792255124228875 -0.004176857686469322 0.0036133449749233414 0.0005635127115459782 0.002257611710127333 0.0 0.0
0.0 0.002450442099890783 -0.0018932451961085886 0.001541616677400897 0.0003516285187076914 0.0010047429336370703 0.0 0.0
0.0 0.0006642565634091536 -0.0005604373191712041 0.00042976473597859227 0.00013067258319261258 0.000310103187924103 0.0 0.0
0.0 8.863729234819814e-05 -2.4530457394528957e-05 1.642524978781619e-05 8.105207606712528e-06 -7.91514925828404e-06 0.0 0.0
0.0 -1.0691265045823698e-05 8.029862895747988e-07 -7.149143592942116e-07 -8.807193028061818e-08 -1.9575538235988125e-06 0.0 0.0
0.0 -1.5557112224163688e-07 -2.2690618993482742e-08 2.084560781404829e-08 1.8450111794521656e-09 5.006963124489742e-08 0.0 0.0
0.0 -1.3360415377959937e-07 -7.079108295548217e-09 5.6072599052097004e-09 1.4718483903391005e-09 2.396317665472527e-08 0.0 0.0
0.0 0.0 0.0 0.0 0.0 0.0 0.0 0.0
0.0 0.0 0.0 0.0 0.0 0.0 0.0 0.0
0.0 0.0 0.0 0.0 0.0 0.0 0.0 0.0
0.0 0.0 0.0 0.0 0.0 0.0 0.0 0.0
0.0 0.0 0.0 0.0 0.0 0.0 0.0 0.0
0.0 -1.521256311811995e-06 -1.9978836047236552e-07 1.5905130998322433e-07 4.0737050489118115e-08 -3.1748444686384696e-07 0.0 0.0
0.0 -1.2634002450475317e-06 1.593714576750176e-05 -1.2819968106687882e-05 -3.1171776608138244e-06 1.8971056363482673e-05 0.0 0.0
0.0 0.0001765570428706413 -0.000178840532621599 0.00013279669011239382 4.604384250920503e-05 -7.582067667844856e-05 0.0 0.0
0.0 0.0013426849540803649 -0.0010044832101573833 0.0007851181306714565 0.00021936507948592718 -0.00036351796270683395 0.0 0.0
0.0 0.0032016116356151803 -0.002868900325392249 0.0023995347143376347 0.0004693656110546147 -0.0011485422255084888 0.0 0.0
0.0 0.0063809887760597804 -0.0056399502000729395 0.0049830705737533895 0.0006568796263195547 -0.0023012770947572975 0.0 0.0
0.0 0.010526633513532266 -0.009218408451281348 0.00843498958649464 0.0007834188647867097 -0.0036272047882814924 0.0 0.0
0.0 0.015563791463304536 -0.013532365056127947 0.012652877890149261 0.000879487165978683 -0.005030583589848608 0.0 0.0
0.0 0.02145694904881503 -0.018563283593183974 0.01759500311974922 0.0009682804734347514 -0.006418011061034653 0.0 0.0
0.0 0.02832892582238083 -0.02437618204074203 0.023319081726369248 0.001057100314372779 -0.0078014989279567 0.0 0.0
0.0 0.03594332003959737 -0.031111836978324994 0.029967551617550388 0.0011442853607746123 -0.00926776105242837 0.0 0.0
0.0 0.04508848630260203 -0.038902168348476075 0.03767735510291139 0.001224813245564703 -0.010892868452130751 0.0 0.0
0.0 0.05546160087572662 -0.04777092735233595 0.04648592424917176 0.0012850031031641214 -0.01274726888090291 0.0 0.0
0.0 0.06633798097040815 -0.05725722948791247 0.055971426922570726 0.0012858025653417317 -0.01515319885802467 0.0 0.0
0.0 0.07637665947877087 -0.06578327247136205 0.06460670071161978 0.001176571759742292 -0.018884006230899017 0.0 0.0
0.0 0.08195215726863816 -0.07020550141249392 0.06925758549422331 0.0009479159182705684 -0.024362437324507685 0.0 0.0
0.0 0.0777876800414121 -0.0658812550957456 0.06526812217095135 0.0006131329247942212 -0.030784535718265154 0.0 0.0
0.0 0.06921071234032969 -0.05645684441133156 0.051599351836175644 0.004857492575155909 1.3510026430907374e-14 0.0 0.0
0.0 0.07778768004140622 -0.06588125509573688 0.06526812217094237 0.0006131329247944771 0.030784535718295272 0.0 0.0
0.0 0.0819521572686216 -0.07020550141247678 0.06925758549420641 0.0009479159182703232 0.02436243732453775 0.0 0.0
0.0 0.07637665947873772 -0.0657832724713327 0.06460670071159039 0.0011765717597423072 0.01888400623091498 0.0 0.0
0.0 0.06633798097037195 -0.057257229487880645 0.055971426922539654 0.00128580256534102 0.015153198858027333 0.0 0.0
0.0 0.05546160087568394 -0.04777092735229862 0.04648592424913503 0.0012850031031635147 0.0127472688808986 0.0 0.0
0.0 0.045088486302562576 -0.038902168348441686 0.037677355102877876 0.0012248132455637923 0.01089286845212522 0.0 0.0
0.0 0.035943320039555436 -0.031111836978288496 0.029967551617514698 0.0011442853607737764 0.009267761052420737 0.0 0.0
0.0 0.02832892582233942 -0.024376182040705935 0.023319081726333322 0.0010571003143726358 0.007801498927947525 0.0 0.0
0.0 0.021456949048774515 -0.01856328359314887 0.017595003119714743 0.0009682804734341347 0.006418011061022473 0.0 0.0
0.0 0.015563791463268601 -0.013532365056096838 0.012652877890118718 0.0008794871659781228 0.005030583589835247 0.0 0.0
0.0 0.010526633513502649 -0.009218408451255492 0.008434989586469484 0.0007834188647860012 0.003627204788269739 0.0 0.0
0.0 0.006380988776037683 -0.005639950200053037 0.0049830705737346085 0.0006568796263184282 0.0023012770947492996 0.0 0.0
0.0 0.0032016116356010918 -0.0028689003253797394 0.00239953471432641 0.0004693656110533306 0.00114854222550311 0.0 0.0
0.0 0.0013426849540713163 -0.001004483210150476 0.0007851181306658832 0.00021936507948459099 0.0003635179627038538 0.0 0.0
0.0 0.0001765570428677008 -0.00017884053261985706 0.0001327966901110857 4.6043842508770986e-05 7.582067667784246e-05 0.0 0.0
0.0 -1.2634002457800684e-06 1.5937145767060274e-05 -1.281996810634436e-05 -3.1171776607157833e-06 -1.897105636309735e-05 0.0 0.0
0.0 -1.5212563117333425e-06 -1.9978836048335493e-07 1.5905130999159261e-07 4.073705049176333e-08 3.174844468778864e-07 0.0 0.0
0.0 0.0 0.0 0.0 0.0 0.0 0.0 0.0
0.0 0.0 0.0 0.0 0.0 0.0 0.0 0.0
0.0 0.0 0.0 0.0 0.0 0.0 0.0 0.0
0.0 0.0 0.0 0.0 0.0 0.0 0.0 0.0
0.0 0.0 0.0 0.0 0.0 0.0 0.0 0.0
0.0 0.0 0.0 0.0 0.0 0.0 0.0 0.0
0.0 -9.149836726064544e-07 1.0598574866328172e-07 -8.428822410810431e-08 -2.169752455516888e-08 1.9180853287129744e-07 0.0 0.0
0.0 1.6956241414106603e-05 8.895628884960484e-06 -8.0137884365224e-06 -8.818404484378664e-07 1.238145441322974e-05 0.0 0.0
0.0 0.00046320699468078215 -0.0003573803499758462 0.0002665648955538668 9.08154544219793e-05 -6.429527764012304e-05 0.0 0.0
0.0 0.0018771336817059365 -0.001613159914784057 0.0012908424230833983 0.0003223174917006562 -0.0003883221866785197 0.0 0.0
0.0 0.004307358669620622 -0.003902684506249029 0.0033416552875410433 0.0005610292187079847 -0.0011060716043425841 0.0 0.0
0.0 0.008008725079478361 -0.007143238232991384 0.006411902147384513 0.000731336085606864 -0.002041664963048443 0.0 0.0
0.0 0.012835228981881091 -0.01129623044428978 0.010448413230614581 0.0008478172136752022 -0.0031455661220029336 0.0 0.0
0.0 0.018628105487994276 -0.016315683502002694 0.015371254285298147 0.0009444292167045371 -0.0043175630235526225 0.0 0.0
0.0 0.0255168231092244 -0.022200682262397693 0.021161667497004277 0.0010390147653934177 -0.00547966556858725 0.0 0.0
0.0 0.03328801437643228 -0.029034615442332285 0.02789903908385068 0.0011355763584815857 -0.0066490190676023785 0.0 0.0
0.0 0.04266698073513626 -0.03694007324686739 0.03571223396881236 0.001227839278055023 -0.007923424752135148 0.0 0.0
0.0 0.053077650004092314 -0.04603131534575946 0.044719318748849296 0.0013119965969101417 -0.009370350424660308 0.0 0.0
0.0 0.06472594372175763 -0.056267132729676546 0.05488772782289653 0.0013794049067800845 -0.010911277063264217 0.0 0.0
0.0 0.07741169673852745 -0.06717156239819667 0.06577658416014627 0.0013949782380503497 -0.012508381674341464 0.0 0.0
0.0 0.08903590793534434 -0.07714538727163515 0.07586710242020321 0.0012782848514319208 -0.01505749946066786 0.0 0.0
0.0 0.09577974594368972 -0.08267432761813764 0.08168253124548693 0.0009917963726507578 -0.020813604841145188 0.0 0.0
0.0 0.09172936184366803 -0.0783267929468628 0.07775883100508205 0.0005679619417808487 -0.030962496142030147 0.0 0.0
0.0 0.0823806236319572 -0.06794937540574156 0.06263980577839866 0.005309569627342908 1.2130053905767824e-14 0.0 0.0
0.0 0.09172936184365914 -0.07832679294685206 0.07775883100507168 0.0005679619417803487 0.030962496142056796 0.0 0.0
0.0 0.09577974594366484 -0.08267432761811458 0.08168253124546378 0.0009917963726507417 0.020813604841171084 0.0 0.0
0.0 0.08903590793530691 -0.07714538727160238 0.07586710242017064 0.001278284851431739 0.01505749946068207 0.0 0.0
0.0 0.07741169673848129 -0.06717156239815662 0.06577658416010633 0.001394978238050244 0.012508381674344617 0.0 0.0
0.0 0.06472594372171046 -0.05626713272963543 0.054887727822856044 0.0013794049067794001 0.0109112770632627 0.0 0.0
0.0 0.053077650004044345 -0.046031315345717846 0.044719318748808426 0.0013119965969094073 0.009370350424655413 0.0 0.0
0.0 0.04266698073508523 -0.03694007324682304 0.03571223396876857 0.0012278392780544622 0.007923424752127659 0.0 0.0
0.0 0.03328801437638303 -0.02903461544228972 0.02789903908380845 0.0011355763584812624 0.006649019067594651 0.0 0.0
0.0 0.025516823109178514 -0.022200682262357344 0.02116166749696459 0.0010390147653927633 0.005479665568577405 0.0 0.0
0.0 0.018628105487953524 -0.016315683501967087 0.015371254285263047 0.0009444292167040194 0.004317563023541417 0.0 0.0
0.0 0.012835228981847448 -0.011296230444260473 0.010448413230585799 0.0008478172136746695 0.0031455661219928523 0.0 0.0
0.0 0.008008725079453573 -0.0071432382329691705 0.006411902147363136 0.0007313360856060274 0.0020416649630417183 0.0 0.0
0.0 0.00430735866960394 -0.003902684506233515 0.003341655287526721 0.0005610292187067967 0.0011060716043374975 0.0 0.0
0.0 0.0018771336816960874 -0.0016131599147757116 0.001290842423076389 0.00032231749169932413 0.0003883221866760238 0.0 0.0
0.0 0.00046320699467619034 -0.00035738034997266844 0.0002665648955514244 9.081545442124379e-05 6.429527763924563e-05 0.0 0.0
0.0 1.6956241413475675e-05 8.895628884760491e-06 -8.013788436343964e-06 -8.818404484166557e-07 -1.2381454412807003e-05 0.0 0.0
0.0 -9.149836731724172e-07 1.0598574866332208e-07 -8.428822411047689e-08 -2.1697524552839804e-08 -1.9180853290655572e-07 0.0 0.0
0.0 0.0 0.0 0.0 0.0 0.0 0.0 0.0
0.0 0.0 0.0 0.0 0.0 0.0 0.0 0.0
0.0 0.0 0.0 0.0 0.0 0.0 0.0 0.0
0.0 0.0 0.0 0.0 0.0 0.0 0.0 0.0
0.0 0.0 0.0 0.0 0.0 0.0 0.0 0.0
0.0 0.0 0.0 0.0 0.0 0.0 0.0 0.0
0.0 3.3606617923718455e-07 4.0276521374764067e-07 -3.143890206047313e-07 -8.837619314292422e-08 3.090460835587687e-07 0.0 0.0
0.0 4.6495886427481684e-05 -4.670833235412699e-05 3.2067692993348845e-05 1.4640639360778188e-05 5.380255092659276e-06 0.0 0.0
0.0 0.0008580061447883753 -0.0006473735718630182 0.0004910976744750513 0.00015627589738796642 -2.6568849020516808e-05 0.0 0.0
0.0 0.0024397559691654064 -0.0023189092448058753 0.0019014493925736385 0.00041745985223223765 -0.0003334661760278739 0.0 0.0
0.0 0.005485208440934862 -0.004971819012091516 0.004334386738702703 0.000637432273388816 -0.0008310953132879849 0.0 0.0
0.0 0.009669525185624998 -0.008664136810661145 0.007872876857348214 0.0007912599533129215 -0.0015074201926697996 0.0 0.0
0.0 0.015144639831626193 -0.013381130751481979 0.012478777080194741 0.0009023536712872318 -0.0023069534986024224 0.0 0.0
0.0 0.02179067672881943 -0.019103145517434254 0.01810054984169384 0.00100259567574039 -0.0031580223088118657 0.0 0.0
0.0 0.029515731000900422 -0.025850801658861215 0.024746781523965276 0.0011040201348959597 -0.004001728582521633 0.0 0.0
0.0 0.03876916947915061 -0.03370905717121339 0.03250176575531045 0.0012072914159029485 -0.004862682455698128 0.0 0.0
0.0 0.048999658180243044 -0.04280842893991417 0.04150208404262606 0.001306344897288055 -0.005849677863683143 0.0 0.0
0.0 0.06098438096860556 -0.05318092545292361 0.05178889602061438 0.0013920294323093146 -0.006988836648704272 0.0 0.0
0.0 0.07425207158534629 -0.06466544636472189 0.0632110917372914 0.001454354627430456 -0.00813213322657177 0.0 0.0
0.0 0.08819452811446168 -0.07673213248286899 0.07524887488015244 0.0014832576027166342 -0.008990237573024073 0.0 0.0
0.0 0.10120416956129034 -0.08799675874772021 0.0865764426192486 0.0014203161284715856 -0.009964823505496309 0.0 0.0
0.0 0.10953450713410338 -0.09501395977128707 0.09393043326080931 0.0010835265104777183 -0.014513899301963278 0.0 0.0
0.0 0.10634594344325818 -0.09140185032646414 0.09091696065088099 0.0004848896755829744 -0.02902696485861043 0.0 0.0
0.0 0.09679778728301427 -0.08047432092405504 0.07480245332612138 0.00567186759793356 8.808925811010226e-15 0.0 0.0
0.0 0.1063459434432445 -0.09140185032645023 0.09091696065086768 0.00048488967558257915 0.029026964858631155 0.0 0.0
0.0 0.10953450713407198 -0.0950139597712592 0.09393043326078106 0.001083526510478197 0.014513899301983537 0.0 0.0
0.0 0.10120416956124766 -0.08799675874768326 0.08657644261921205 0.00142031612847117 0.009964823505507196 0.0 0.0
0.0 0.08819452811440748 -0.07673213248282229 0.07524887488010523 0.001483257602717076 0.008990237573026104 0.0 0.0
0.0 0.07425207158529196 -0.06466544636467474 0.06321109173724475 0.001454354627430025 0.008132133226570784 0.0 0.0
0.0 0.06098438096854916 -0.053180925452874825 0.051788896020565946 0.001392029432308908 0.006988836648700625 0.0 0.0
0.0 0.04899965818018869 -0.04280842893986667 0.04150208404257981 0.001306344897286886 0.0058496778636779045 0.0 0.0
0.0 0.03876916947909574 -0.03370905717116563 0.03250176575526306 0.0012072914159025475 0.004862682455692786 0.0 0.0
0.0 0.029515731000848283 -0.0258508016588161 0.02474678152392068 0.001104020134895358 0.004001728582515441 0.0 0.0
0.0 0.021790676728774466 -0.01910314551739443 0.01810054984165458 0.0010025956757398734 0.0031580223088032216 0.0 0.0
0.0 0.015144639831589153 -0.01338113075144896 0.012478777080162387 0.00090235367128657 0.0023069534985950655 0.0 0.0
0.0 0.009669525185597383 -0.008664136810636188 0.007872876857324051 0.0007912599533121412 0.0015074201926646616 0.0 0.0
0.0 0.005485208440914796 -0.004971819012073004 0.004334386738685401 0.0006374322733876029 0.0008310953132840547 0.0 0.0
0.0 0.0024397559691537946 -0.0023189092447949006 0.0019014493925640014 0.00041745985223089747 0.00033346617602561345 0.0 0.0
0.0 0.0008580061447830458 -0.0006473735718587454 0.0004910976744717176 0.00015627589738702696 2.656884902000343e-05 0.0 0.0
0.0 4.649588642629279e-05 -4.670833235394986e-05 3.206769299325619e-05 1.4640639360693532e-05 -5.380255092165707e-06 0.0 0.0
0.0 3.360661787821881e-07 4.027652138280952e-07 -3.143890206705345e-07 -8.837619315758142e-08 -3.090460836458795e-07 0.0 0.0
0.0 0.0 0.0 0.0 0.0 0.0 0.0 0.0
0.0 0.0 0.0 0.0 0.0 0.0 0.0 0.0
0.0 0.0 0.0 0.0 0.0 0.0 0.0 0.0
0.0 0.0 0.0 0.0 0.0 0.0 0.0 0.0
0.0 0.0 0.0 0.0 0.0 0.0 0.0 0.0
0.0 0.0 0.0 0.0 0.0 0.0 0.0 0.0
0.0 -1.5342600088896578e-06 7.610334546779593e-07 -6.66432108573928e-07 -9.460134610402916e-08 5.454635673934683e-07 0.0 0.0
0.0 0.00019292792177336203 -0.00011972767687168629 8.407836268526979e-05 3.564931418641641e-05 3.140950183222769e-05 0.0 0.0
0.0 0.0012252714265113623 -0.0010518377427578543 0.0008151402051502685 0.00023669753760758582 5.0935879784821925e-05 0.0 0.0
0.0 0.0032836139696726194 -0.0030473879102123733 0.002553818591492232 0.0004935693187201397 -0.00011005733279251766 0.0 0.0
0.0 0.006671631552682432 -0.006058555332514138 0.005358695965374795 0.0006998593671393371 -0.0003618680265558437 0.0 0.0
0.0 0.011408928950049541 -0.010183173114781273 0.009342862165813112 0.0008403109489681609 -0.0007050140626071516 0.0 0.0
0.0 0.01746000886475873 -0.01545584635619926 0.014505323835745518 0.0009505225204537262 -0.0011192479396192829 0.0 0.0
0.0 0.024883341854479046 -0.021880555957870924 0.020824866213129345 0.001055689744741602 -0.0015542608229961758 0.0 0.0
0.0 0.033816358569930184 -0.029494819928176902 0.0283310559691808 0.0011637639589960906 -0.00198565254678376 0.0 0.0
0.0 0.04378655302607292 -0.03839924705695635 0.03712485052204142 0.0012743965349148998 -0.002469271882821502 0.0 0.0
0.0 0.05563419996450036 -0.048676980679671036 0.04729738805187201 0.001379592627799013 -0.0030380416309968824 0.0 0.0
0.0 0.0690393587390992 -0.06030778233433856 0.05884204604037167 0.0014657362939669053 -0.0036928444626042724 0.0 0.0
0.0 0.08368460499480483 -0.07298926261111452 0.07146908846723322 0.00152017414388133 -0.004354494409020673 0.0 0.0
0.0 0.09873853747207656 -0.0859931072928254 0.08445521842113692 0.0015378888716884736 -0.004754344481520528 0.0 0.0
0.0 0.11273118520533575 -0.09808131116249269 0.0965501462771508 0.0015311648853419111 -0.00473408152184396 0.0 0.0
0.0 0.12276738291784423 -0.10675571612013424 0.10538007467325594 0.0013756414468781592 -0.006393397026374744 0.0 0.0
0.0 0.12192284696882646 -0.10540342153039985 0.10497270916775475 0.000430712362645155 -0.020556003377420203 0.0 0.0
0.0 0.11354300356426883 -0.0950153118850366 0.089346192437438 0.005669119447598554 4.767020111984266e-15 0.0 0.0
0.0 0.12192284696881016 -0.10540342153038464 0.10497270916773972 0.000430712362644885 0.02055600337743165 0.0 0.0
0.0 0.12276738291781097 -0.10675571612010505 0.10538007467322705 0.0013756414468778122 0.0063933970263861245 0.0 0.0
0.0 0.11273118520528622 -0.09808131116245027 0.09655014627710803 0.0015311648853422182 0.004734081521850191 0.0 0.0
0.0 0.09873853747201917 -0.08599310729277544 0.08445521842108739 0.001537888871688088 0.004754344481522519 0.0 0.0
0.0 0.08368460499474424 -0.07298926261106194 0.0714690884671811 0.0015201741438808174 0.0043544944090207795 0.0 0.0
0.0 0.06903935873903717 -0.06030778233428458 0.0588420460403185 0.0014657362939660841 0.0036928444626018794 0.0 0.0
0.0 0.055634199964439884 -0.048676980679618356 0.04729738805182028 0.0013795926277980083 0.0030380416309952014 0.0 0.0
0.0 0.043786553026010845 -0.0383992470569025 0.0371248505219879 0.0012743965349146075 0.0024692718828183188 0.0 0.0
0.0 0.033816358569874055 -0.02949481992812787 0.02833105596913235 0.0011637639589955132 0.0019856525467804973 0.0 0.0
0.0 0.02488334185442717 -0.021880555957825905 0.020824866213084787 0.0010556897447411126 0.0015542608229909287 0.0 0.0
0.0 0.01746000886471858 -0.01545584635616356 0.014505323835710744 0.0009505225204528272 0.0011192479396154005 0.0 0.0
0.0 0.011408928950018205 -0.010183173114752959 0.009342862165785556 0.0008403109489673967 0.0007050140626044038 0.0 0.0
0.0 0.006671631552659732 -0.006058555332493263 0.00535869596535492 0.0006998593671383412 0.0003618680265537827 0.0 0.0
0.0 0.003283613969657887 -0.003047387910198397 0.002553818591479607 0.0004935693187187896 0.00011005733279115265 0.0 0.0
0.0 0.001225271426504812 -0.0010518377427522355 0.0008151402051457215 0.0002366975376065139 -5.093587978482766e-05 0.0 0.0
0.0 0.00019292792177074913 -0.00011972767687018496 8.407836268419621e-05 3.5649314185988794e-05 -3.140950183194589e-05 0.0 0.0
0.0 -1.5342600090417498e-06 7.610334543373249e-07 -6.664321083195115e-07 -9.460134601775516e-08 -5.454635673683335e-07 0.0 0.0
0.0 0.0 0.0 0.0 0.0 0.0 0.0 0.0
0.0 0.0 0.0 0.0 0.0 0.0 0.0 0.0
0.0 0.0 0.0 0.0 0.0 0.0 0.0 0.0
0.0 0.0 0.0 0.0 0.0 0.0 0.0 0.0
0.0 0.0 0.0 0.0 0.0 0.0 0.0 0.0
0.0 0.0 0.0 0.0 0.0 0.0 0.0 0.0
0.0 -5.039436071100819e-07 1.9657685649433476e-06 -1.6270062701694281e-06 -3.387622947737945e-07 9.909252341921257e-07 0.0 0.0
0.0 0.0003936211985352285 -0.00023667122430378704 0.00016601791343967638 7.065331086411104e-05 7.340869831627449e-05 0.0 0.0
0.0 0.0016486962831958893 -0.0014242451434060294 0.0010936803330708637 0.00033056481033516495 0.00018574200003659873 0.0 0.0
0.0 0.0039466215084223155 -0.003669214837343416 0.0030437773211479525 0.0006254375161954626 0.00022462358461092067 0.0 0.0
0.0 0.007624045231356 -0.0069552309602249045 0.006078292115558176 0.0008769388446667265 0.0002518501023376031 0.0 0.0
0.0 0.012680764968788553 -0.011431539570116132 0.010349192790067383 0.0010823467800487483 0.00026435806118118546 0.0 0.0
0.0 0.019255667526191882 -0.017159793775729727 0.015875760696208472 0.001284033079521253 0.00023820088118609332 0.0 0.0
0.0 0.027366948598907627 -0.024171497326997277 0.022661018948828375 0.0015104783781688812 0.00021933021179405734 0.0 0.0
0.0 0.03674895715029662 -0.03252649826935323 0.030756287452778107 0.0017702108165751343 0.0002028342943612609 0.0 0.0
0.0 0.04784416658933822 -0.042296565302028424 0.0402407546490466 0.0020558106529817823 0.00011988759000541643 0.0 0.0
0.0 0.06066565075272106 -0.05354523669292711 0.051189502466976164 0.002355734225950919 8.098479875002368e-06 0.0 0.0
0.0 0.075145823517666 -0.06620752601840038 0.06356250921241559 0.0026450168059847083 -0.00020588418205054904 0.0 0.0
0.0 0.09085681978727816 -0.0798681821307769 0.07697980275602045 0.00288837937475638 -0.0005197082177161288 0.0 0.0
0.0 0.10670200562298966 -0.09359957694744087 0.09055683495318448 0.003042741994256278 -0.0008232453767413831 0.0 0.0
0.0 0.12102150682858173 -0.10596990755476911 0.10290760912496005 0.0030622984298089677 -0.0008917925798220209 0.0 0.0
0.0 0.13169662406487723 -0.1153001290170864 0.1122717174302736 0.003028411586812875 -0.0013095639866873513 0.0 0.0
0.0 0.13396890636207515 -0.11772603937143052 0.11481441583180406 0.0029116235396264454 -0.014498453709786014 0.0 0.0
0.0 0.12978261449777173 -0.11021527177269172 0.10112389355495555 0.009091378217736092 2.4702462297909733e-15 0.0 0.0
0.0 0.13396890636205824 -0.11772603937141533 0.11481441583178985 0.002911623539625354 0.014498453709789774 0.0 0.0
0.0 0.1316966240648394 -0.11530012901705318 0.11227171743024211 0.003028411586811162 0.001309563986690054 0.0 0.0
0.0 0.12102150682852728 -0.10596990755472188 0.10290760912491337 0.003062298429808594 0.0008917925798242726 0.0 0.0
0.0 0.10670200562292964 -0.09359957694738778 0.09055683495313348 0.0030427419942540236 0.0008232453767420874 0.0 0.0
0.0 0.09085681978721047 -0.07986818213071792 0.07697980275596245 0.0028883793747554527 0.0005197082177158183 0.0 0.0
0.0 0.07514582351760035 -0.06620752601834247 0.06356250921236006 0.0026450168059824167 0.00020588418204826701 0.0 0.0
0.0 0.060665650752651575 -0.053545236692866524 0.051189502466916705 0.002355734225949815 -8.098479875771718e-06 0.0 0.0
0.0 0.04784416658926973 -0.04229656530196848 0.04024075464898795 0.002055810652980521 -0.00011988759000651928 0.0 0.0
0.0 0.03674895715023682 -0.032526498269300944 0.030756287452727158 0.0017702108165737872 -0.00020283429436290887 0.0 0.0
0.0 0.02736694859885205 -0.024171497326948566 0.02266101894878069 0.0015104783781678737 -0.000219330211796126 0.0 0.0
0.0 0.019255667526149583 -0.0171597937756927 0.015875760696172893 0.0012840330795198145 -0.00023820088118698844 0.0 0.0
0.0 0.012680764968753325 -0.01143153957008485 0.010349192790037202 0.0010823467800476535 -0.0002643580611817848 0.0 0.0
0.0 0.007624045231331245 -0.006955230960202261 0.006078292115536689 0.0008769388446655738 -0.0002518501023375232 0.0 0.0
0.0 0.003946621508405714 -0.003669214837327661 0.0030437773211337473 0.0006254375161939155 -0.00022462358461082348 0.0 0.0
0.0 0.0016486962831884027 -0.0014242451433987148 0.0010936803330649741 0.00033056481033374047 -0.0001857420000358855 0.0 0.0
0.0 0.00039362119853206576 -0.00023667122430167908 0.00016601791343819088 7.065331086348939e-05 -7.340869831573671e-05 0.0 0.0
0.0 -5.039436072192831e-07 1.9657685648402404e-06 -1.627006270091751e-06 -3.3876229474850434e-07 -9.909252341719777e-07 0.0 0.0
0.0 0.0 0.0 0.0 0.0 0.0 0.0 0.0
0.0 0.0 0.0 0.0 0.0 0.0 0.0 0.0
0.0 0.0 0.0 0.0 0.0 0.0 0.0 0.0
SCALARS Wm float 4
LOOKUP_TABLE default
10.701224156275622 1.9398633986985483 4.264015883412482 4.497344874164587
4.950385964455226 2.4445302742966803 1.0937335588202683 1.412122131338277
0.5557574500478984 0.5490254282244222 -0.0031353363161657683 0.009867358139641744
0.45851108319765044 0.4508475058706184 0.0021531803312479485 0.0055103969957841295
0.8263694946395864 0.6745018497593539 0.05340778045942576 0.0984598644208064
1.638356281808938 0.9103009713232545 0.24635867836642938 0.48169663211925473
3.219051584082595 1.247211731711807 0.7936581166944181 1.1781817356763722
5.705381608063592 1.6342577105842324 1.7955242299391538 2.275599667540203
9.291865435382608 2.0947318671905775 3.4005821780320318 3.7965513901599968
14.150372742315042 2.663289275296538 5.733662188923049 5.753421278095458
20.426129555309338 3.3824187561618917 8.891764626706333 8.151946172441114
28.173422805498074 4.282674134581365 12.877950841484083 11.012797829432646
37.65656239798756 5.36521429354755 17.92695187874518 14.36439622569483
49.003714487194415 6.630786088404101 24.138206087595503 18.234722311194822
62.19976374143912 7.9900754623411645 31.598123518001636 22.611564761096297
76.91786992641482 9.273030194309946 40.24320684567976 27.401632886425137
92.33415044930604 10.257535503570768 49.663657850852566 32.412957094882714
107.19087913440188 10.753622390763443 59.16069013649358 37.27656660714482
120.02216047735467 10.75707060419462 67.73045503258675 41.53463484057334
128.9862415701466 10.267703568776659 74.04048882009998 44.67804918126995
132.00528507395154 9.460665620588582 76.57347103665698 45.97114841670601
128.98624157012753 10.267703568771307 74.0404888200907 44.67804918126561
120.02216047730843 10.75707060417705 67.73045503256742 41.53463484056395
107.19087913435843 10.753622390768472 59.16069013646154 37.276566607128366
92.33415044923794 10.257535503552225 49.66365785081994 32.41295709486572
76.91786992635917 9.273030194309376 40.24320684564425 27.401632886405565
62.199763741385425 7.990075462339727 31.598123517968524 22.611564761077158
49.003714487134225 6.630786088392773 24.138206087565038 18.234722311176384
37.656562397930855 5.365214293540173 17.926951878715137 14.364396225675574
28.173422805448677 4.282674134573823 12.877950841459253 11.012797829415607
20.426129555269412 3.3824187561582093 8.891764626685484 8.151946172425703
14.150372742283327 2.6632892752928554 5.733662188907498 5.753421278082971
9.291865435359696 2.0947318671878117 3.400582178021444 3.7965513901504444
5.705381608048237 1.6342577105830687 1.7955242299322125 2.2755996675329566
3.2190515840730494 1.2472117317101237 0.7936581166909398 1.178181735671986
1.6383562818042618 0.9103009713223253 0.2463586783652511 0.4816966321166851
0.8263694946375094 0.6745018497579901 0.05340778045915024 0.09845986442036912
0.45851108319713957 0.45084750587007294 0.0021531803312502414 0.005510396995816547
0.5557574500472349 0.5490254282238554 -0.003135336316177529 0.009867358139556697
4.950385964450229 2.4445302742968313 1.0937335588178336 1.4121221313355634
10.701224156251454 1.9398633986871183 4.2640158834056 4.497344874158744
12.511844834755927 5.601830444670344 3.2569123992520677 3.653101990833516
1.8307480977334616 0.4051499358413104 0.5751826665600257 0.8504154953321257
0.23601557277355695 0.2577710713160482 -0.005643209893493562 -0.01611228864899781
0.3648773528558621 0.36456658130412894 -7.6569794349557e-05 0.0003873413460826925
0.6336528051223127 0.554913735671376 0.02249924239423226 0.05623982705670484
1.3189416266534806 0.7899938958363855 0.18373794500022206 0.34520978581687295
2.646977547999562 1.0333818608202143 0.6293105032625186 0.9842851839168288
4.834224537316162 1.3182379680917207 1.5222374137271426 1.9937491554973013
8.005328048566733 1.6246220328410523 2.9754603476385872 3.405245668087094
12.256977808825763 1.9648699831127123 5.071745642948224 5.220362182764827
17.691202590654612 2.352087390303877 7.901193749221633 7.437921451129096
24.46392389490045 2.8061791448841396 11.588488966120371 10.069255783895946
32.545103739974664 3.3404237036175215 16.050994220534786 13.153685815822351
42.331640587153046 3.9423985142077207 21.66830583206417 16.720936240881155
53.76075371330491 4.572794816461232 28.410609463403215 20.777349433440463
66.59592778285712 5.131399723502025 36.226571977872126 25.23795608148296
80.19794372200948 5.488863728282893 44.81967046193624 29.889409531790342
93.51261393658305 5.549667076359522 53.536292611124296 34.426654249099236
105.11435674150873 5.274444168243368 61.421754014539275 38.4181585587261
113.29692588872237 4.711090086300418 67.27895875114156 41.306877051280374
116.3085086483999 4.115219584007473 69.70870565360714 42.4845834107853
113.2969258887106 4.711090086302496 67.27895875113225 41.30687705127585
105.11435674148807 5.274444168253002 61.42175401451921 38.41815855871591
93.51261393653712 5.549667076353433 53.53629261109787 34.42665424908579
80.19794372196611 5.488863728286865 44.81967046190552 29.88940953177377
66.59592778280316 5.13139972349571 36.22657197784145 25.237956081466006
53.760753713253344 4.57279481645624 28.410609463373827 20.777349433423286
42.33164058710607 3.942398514207309 21.66830583203538 16.7209362408634
32.54510373992626 3.3404237036134723 16.050994220508006 13.153685815804778
24.463923894859995 2.8061791448827447 11.588488966097445 10.06925578387981
17.691202590619795 2.352087390302175 7.901193749202803 7.437921451114825
12.256977808798613 1.9648699831107164 5.071745642934515 5.22036218275338
8.00532804854681 1.6246220328393446 2.9754603476292103 3.4052456680782526
4.834224537302227 1.3182379680899154 1.5222374137213306 1.9937491554909808
2.646977547991336 1.033381860818802 0.6293105032596087 0.9842851839129255
1.3189416266493383 0.789993895835472 0.1837379449989346 0.34520978581493167
0.633652805120867 0.5549137356703951 0.02249924239406356 0.0562398270564081
0.3648773528554677 0.3645665813036636 -7.656979433986186e-05 0.000387341346144052
0.23601557277356422 0.2577710713159207 -0.005643209893450261 -0.016112288648906105
1.8307480977281634 0.405149935840742 0.5751826665578155 0.8504154953296075
12.511844834732242 5.601830444659443 3.256912399245366 3.6531019908274307
9.279310480140914 4.391784911789542 2.2005130784151623 2.6870124899362096
1.1109253352009298 0.14620015756116714 0.37547352047778854 0.5892516571619741
0.1487358929757781 0.14873632943343648 -1.80369121587346e-08 -4.1842074621861334e-07
0.2754086033975046 0.27519361242405904 6.887000121385903e-05 0.00014612097223163723
0.4898922549868223 0.46973089741314733 0.004306639681563652 0.015854717892111462
1.027479044085367 0.7094692885334548 0.10682791691525523 0.21118183863665715
2.1331760301022142 0.9457585453416343 0.43977298410854415 0.7476445006520352
4.041576062205453 1.220405515193305 1.1859055037123185 1.6352650432998297
6.826365701858298 1.5056854817563914 2.4218643033740133 2.898815916727892
10.58034319497464 1.8110435039260904 4.243233939266679 4.526065751781868
15.343290604547008 2.1511502471793653 6.687755688884123 6.504384668483515
21.173850094458754 2.542573070149629 9.789054171455692 8.842222852853432
28.3406501782241 3.0087680508294663 13.764585819729211 11.567296307665424
36.774006845502335 3.5440293232292355 18.494936886398417 14.73504063587467
46.78088199191162 4.105402327566801 24.328953870933052 18.346525793411757
58.08130276887331 4.623338871869171 31.114916274934533 22.343047622069612
70.14945357262333 4.994242131168672 38.59409482412684 26.561116617327823
82.04721694024285 5.107822983755238 46.25444127550523 30.684952680982356
92.45394595298472 4.886145433818207 53.2520975009676 34.31570301819892
99.84001890604914 4.447405345801111 58.45713032581727 36.93548323443075
102.49127821844883 3.7508758782570664 60.68269408735749 38.05770825283429
99.84001890603386 4.447405345798394 58.45713032580903 36.935483234426385
92.45394595295078 4.886145433811262 53.25209750094976 34.315703018189744
82.04721694021737 5.107822983764349 46.254441275482804 30.68495268097022
70.14945357257643 4.9942421311625615 38.59409482410052 26.561116617313335
58.081302768832 4.623338871868577 31.114916274908662 22.343047622054755
46.78088199186808 4.1054023275645175 24.32895387090731 18.346525793396246
36.774006845457365 3.5440293232253093 18.49493688637333 14.735040635858704
28.340650178185196 3.008768050829865 13.764585819705797 11.567296307649531
21.17385009442265 2.542573070148325 9.78905417143552 8.842222852838818
15.343290604516453 2.151150247177447 6.68775568886816 6.504384668470843
10.580343194950858 1.8110435039245605 4.243233939254805 4.526065751771493
6.826365701840538 1.5056854817545338 2.4218643033659877 2.8988159167200154
4.0415760621935695 1.2204055151918758 1.1859055037074107 1.6352650432942848
2.1331760300952696 0.9457585453401759 0.43977298410637833 0.7476445006487152
1.027479044082275 0.7094692885326092 0.10682791691441532 0.21118183863525067
0.48989225498584454 0.4697308974123209 0.004306639681507511 0.01585471789201589
0.275408603397265 0.27519361242382306 6.887000121217222e-05 0.0001461209722297236
0.14873589297568277 0.14873632943334084 -1.8036912141597065e-08 -4.184207459031903e-07
1.110925335197198 0.14620015756128202 0.3754735204760957 0.5892516571598196
9.27931048011832 4.391784911779282 2.2005130784089615 2.68701248993008
6.928664276824563 3.4092783493567254 1.5175740326686944 2.001811894799144
0.7262376043564325 0.08003912773520457 0.23455636340905456 0.41164211321217364
0.10507103118715404 0.10507103118715404 0.0 0.0
0.20801508583769418 0.20800617580581648 3.783240486203388e-06 5.126791391525827e-06
0.38146337040299555 0.38548998914641525 -0.0013283544794329047 -0.0026982642639867493
0.7691306856697271 0.6091206167376618 0.04640763486443449 0.11360243406763056
1.6788809532992446 0.8651937097515299 0.2932654830864237 0.5204217604612914
3.2800799581551274 1.1166052219221432 0.8767222823456997 1.2867524538872848
5.692094458592628 1.3827618231346985 1.9105232643639807 2.3988093710939475
8.941956547640109 1.6572434869833135 3.4482178314215357 3.8364952292352617
13.029169810482799 1.9521194713308216 5.498518546531288 5.578531792620694
18.06481994906364 2.2919769965752406 8.149616509891846 7.623226442596554
24.086644256640582 2.690968270758184 11.393461695639681 10.002214290242717
31.45220070061473 3.1536739524022828 15.541178024855036 12.75734872335742
40.01517732364971 3.656611645036694 20.434520661061004 15.924045017552004
49.737079513923746 4.1379496296586815 26.144768465420203 19.45436141884487
60.33078027780526 4.516726095565744 32.613866263865944 23.20018791837357
70.87373137782416 4.6842432638323235 39.26928745892391 26.920200655067926
80.1911588807371 4.554895153994632 45.39349924353515 30.242764483207306
86.91473343407831 4.203719590300046 50.018491653058 32.69252219072031
89.33402776827003 3.3714753607873478 52.17320161626295 33.78935079121971
86.91473343406751 4.20371959029934 50.0184916530513 32.69252219071687
80.19115888072554 4.554895154006716 45.39349924351977 30.242764483199082
70.87373137779225 4.684243263831404 39.26928745890378 26.920200655057066
60.330780277772476 4.5167260955659705 32.613866263844955 23.20018791836155
49.73707951388659 4.1379496296577845 26.14476846539749 19.45436141883134
40.015177323609805 3.656611645033131 20.434520661038654 15.924045017538019
31.45220070057944 3.1536739524014927 15.541178024834279 12.757348723343672
24.086644256605165 2.6909682707565294 11.39346169561985 10.00221429022879
18.06481994903218 2.2919769965721106 8.14961650987578 7.623226442584288
13.029169810457462 1.9521194713306282 5.498518546517529 5.578531792609306
8.941956547618702 1.6572434869810402 3.4482178314114815 3.836495229226177
5.692094458576568 1.3827618231318934 1.9105232643574324 2.398809371087242
3.280079958145042 1.1166052219212657 0.8767222823416712 1.2867524538821045
1.6788809532935607 0.8651937097503684 0.29326548308451483 0.5204217604586775
0.7691306856674303 0.6091206167366314 0.04640763486398212 0.1136024340668169
0.38146337040238176 0.3854899891456647 -0.0013283544794127754 -0.002698264263870226
0.20801508583750183 0.20800617580564507 3.7832404844010713e-06 5.126791372403583e-06
0.10507103118704186 0.10507103118704186 0.0 0.0
0.7262376043533392 0.08003912773524968 0.23455636340768848 0.41164211321040095
6.928664276806534 3.409278349349095 1.5175740326637965 2.001811894793642
5.091325050310924 2.624335819002064 1.0054326138535457 1.4615566174553136
0.5321176153404219 0.10672510236417906 0.16047259153727578 0.2649199214389673
0.09551534153398067 0.09551534153398067 0.0 0.0
0.165330266041459 0.16532283722294072 4.1024249203392503e-07 7.018576026238409e-06
0.3004115880260903 0.30403114598685665 -0.0008776980525821681 -0.002741859908184237
0.5726975424094926 0.5247145583399285 0.011260398921071918 0.03672258514849183
1.2670677913797586 0.7636746643076863 0.17905603100175657 0.3243370960703162
2.5618952402877624 1.0079993048008107 0.6015555194756329 0.952340416011319
4.596136899711788 1.2539597416192327 1.434431763735761 1.9077453943567952
7.345148841230988 1.5006209902532353 2.690118257092986 3.1544095938847705
10.807795684546615 1.7585526521888672 4.388923402397124 4.6603196299606235
15.022764979982174 2.0473515458447094 6.55946410127544 6.415949332862026
20.124625992735005 2.3884678541531956 9.289155616420489 8.447002522161329
26.141223283106275 2.785200654391546 12.551344870186053 10.804677758528676
33.39041007792544 3.219655100927427 16.654824257342874 13.515930719655143
41.722176566246155 3.6647094439169563 21.49472884084443 16.562738281484776
50.743866420890704 4.053341093252076 26.844886612992926 19.845638714645702
59.94414210503827 4.281994594805051 32.51864394052743 23.143503569705775
68.26360230765604 4.253199635116012 37.866603585154394 26.143799087385645
74.4722471608642 3.9760098313575236 42.059491089326976 28.43674624017965
76.7413897604071 2.991546311210544 44.17379647906404 29.57604697013256
74.47224716085577 3.976009831358183 42.05949108932111 28.436746240176483
68.26360230763146 4.253199635113169 37.86660358514039 26.143799087377893
59.944142105015985 4.281994594807803 32.51864394051148 23.14350356969672
50.74386642085952 4.0533410932501495 26.84488661297454 19.84563871463482
41.722176566212354 3.6647094439129764 21.494728840826003 16.562738281473383
33.39041007789486 3.21965510092671 16.654824257324776 13.515930719643373
26.141223283073547 2.7852006543875314 12.55134487016906 10.804677758516943
20.124625992706747 2.38846785415252 9.289155616404651 8.447002522149578
15.022764979956719 2.047351545843196 6.559464101262122 6.415949332851398
10.807795684523954 1.7585526521871473 4.388923402385898 4.66031962995091
7.345148841212795 1.5006209902506482 2.6901182570849813 3.1544095938771672
4.596136899699049 1.2539597416177704 1.4344317637304365 1.907745394350842
2.561895240279125 1.0079993047989704 0.6015555194726734 0.9523404160074798
1.267067791374997 0.7636746643065319 0.17905603100030532 0.32433709606815964
0.5726975424077981 0.5247145583388063 0.011260398920893437 0.03672258514809842
0.3004115880256736 0.30403114598634357 -0.0008776980525629878 -0.0027418599081070407
0.16533026604128437 0.16532283722277033 4.1024249179030226e-07 7.018576022264267e-06
0.09551534153376375 0.09551534153376375 0.0 0.0
0.5321176153378203 0.10672510236412713 0.1604725915361463 0.2649199214375478
5.091325050297004 2.624335818996284 1.0054326138498773 1.461556617450843
3.667566512947571 2.00650411091791 0.6440131579506677 1.0170492440789936
0.37657177385371343 0.1428840428169482 0.07482621734321163 0.15886151369355334
0.10702255244274063 0.10702255244274063 0.0 0.0
0.1439020823424781 0.143888605335594 9.466100070054239e-07 1.2530396877125434e-05
0.24520292321101608 0.2462925141475696 -0.00016834222289422248 -0.0009212487136592595
0.4268551517179523 0.4249187994298269 -0.0019040715543140454 0.0038404238424395764
0.8943297091321353 0.6404356486327817 0.07351680257883375 0.1803772579205198
1.934173538309328 0.894471946703782 0.40241104233566205 0.6372905492698837
3.528921335892848 1.1146034711096686 0.9853759474566084 1.4289419173265718
5.815155569323898 1.3410152587980855 1.9920694894809103 2.482070821044901
8.656461057658017 1.564980918160876 3.339958230845077 3.751521908652061
12.085755205588391 1.810010962812872 5.054068681695376 5.221675561080146
16.19099218668495 2.0958126217094 7.184917947095512 6.910261617880039
21.145757463871625 2.429302028631499 9.850274803381717 8.86618063185841
26.997656851014483 2.8103725179078043 13.058152495043178 11.129131838063502
33.770678308590774 3.2047968381069065 16.87316875260454 13.692712717879331
41.451281789278966 3.586230783724874 21.387484901775828 16.47756610377824
49.298881217223375 3.8867652310005147 26.060428247983733 19.351687738239118
56.594223090925674 3.9687936322325337 30.57380523370459 22.05162422498854
62.38796238470937 3.7655338570526196 34.40905979942646 24.213368728230297
64.58079723006516 2.618475924204051 36.551484279279364 25.410837026581724
62.387962384704345 3.7655338570562065 34.40905979942098 24.213368728227135
56.59422309090827 3.9687936322288544 30.57380523369589 22.05162422498355
49.29888121720654 3.886765231005623 26.06042824796994 19.35168773823096
41.451281789256086 3.586230783726263 21.38748490176082 16.47756610376901
33.770678308563475 3.2047968381033436 16.87316875259016 13.692712717869982
26.997656850986846 2.8103725179043915 13.058152495028779 11.129131838053672
21.14575746384818 2.429302028630211 9.85027480336892 8.866180631849042
16.190992186660363 2.0958126217072417 7.184917947082875 6.910261617870253
12.085755205566613 1.8100109628115186 5.054068681684264 5.221675561070827
8.656461057639213 1.564980918157705 3.339958230836898 3.7515219086446137
5.8151555693095895 1.3410152587972337 1.9920694894742779 2.4820708210380755
3.5289213358822584 1.1146034711083572 0.9853759474523869 1.4289419173215145
1.934173538303003 0.8944719467027515 0.40241104233335157 0.6372905492668997
0.8943297091290232 0.6404356486318575 0.07351680257803955 0.18037725791912604
0.4268551517169376 0.42491879942878613 -0.0019040715543130519 0.0038404238424645807
0.245202923210737 0.24629251414727393 -0.00016834222289268232 -0.0009212487136442828
0.14390208234223084 0.14388860533535058 9.466100066451608e-07 1.2530396873620373e-05
0.10702255244245114 0.10702255244245114 0.0 0.0
0.3765717738515225 0.1428840428167201 0.07482621734239314 0.15886151369240947
3.6675665129371295 2.006504110913591 0.6440131579480536 1.0170492440754857
2.542580869612702 1.5107333242367176 0.3681896101136739 0.6636579352623104
0.28803780542639196 0.18384922212308052 0.02932901615369067 0.07485956714962082
0.1280898739095506 0.1280898739095506 0.0 0.0
0.13893036528342678 0.13892156591897442 5.916227772428284e-07 8.207741675143951e-06
0.20862766742240765 0.2085693410839665 4.389274662637742e-06 5.393706377848924e-05
0.32924758344786453 0.3422340580165547 -0.003513124540130746 -0.009473350028559344
0.6240186502532374 0.5344977318802268 0.020571389246975727 0.06894952912603466
1.3161581309971555 0.743308510065408 0.18940842660046056 0.3834411943312868
2.6101881569855427 0.9788038331704616 0.6629493464852549 0.9684349773298262
4.3266273624652465 1.1704033923334767 1.3351507628635453 1.8210732072682232
6.596159680551317 1.3691168757065348 2.3718954631260885 2.855147341718692
9.285682019761722 1.576325177967092 3.6681604978290365 4.041196343965594
12.467786868149574 1.8127411116167678 5.262162448469349 5.392883308063459
16.279748010850373 2.089312164970413 7.237925596829491 6.952510249050465
20.833480606420544 2.4082755141528187 9.659361947813077 8.765843144454646
26.2883121883827 2.764571411907686 12.683602394814658 10.84013838166035
32.24326753485286 3.125337868895446 15.97846513208821 13.139464533869209
38.82210453811715 3.4710448308243804 19.811754009660554 15.539305697632223
45.29694716989489 3.6814429024568964 23.702706117518666 17.91279814991931
50.66663993299694 3.576277651714636 27.11506143087264 19.97530085040967
52.870303342238145 2.2620175781527783 29.336711660394137 21.271574103691243
50.66663993299935 3.5762776517270995 27.115061430866298 19.97530085040595
45.29694716988192 3.6814429024529245 23.70270611751306 17.91279814991593
38.822104538094216 3.4710448308171027 19.81175400965093 15.539305697626176
32.24326753482965 3.125337868891339 15.978465132076627 13.139464533861688
26.28831218836314 2.7645714119077955 12.683602394803 10.840138381652341
20.833480606399966 2.40827551415049 9.659361947802553 8.765843144446912
16.279748010831582 2.089312164968703 7.237925596819883 6.952510249042999
12.467786868131354 1.8127411116151237 5.262162448460259 5.392883308055971
9.285682019744483 1.5763251779657217 3.668160497820623 4.041196343958138
6.596159680537177 1.3691168757045302 2.3718954631199893 2.855147341712656
4.326627362453438 1.1704033923326442 1.3351507628582764 1.8210732072625182
2.6101881569772267 0.9788038331687068 0.6629493464822179 0.9684349773263027
1.316158130992443 0.7433085100649213 0.1894084265987732 0.3834411943287485
0.6240186502511426 0.5344977318790525 0.02057138924666535 0.0689495291254247
0.3292475834471159 0.3422340580155504 -0.0035131245400678505 -0.00947335002836661
0.20862766742203157 0.2085693410835987 4.389274660295324e-06 5.3937063772554236e-05
0.13893036528309635 0.1389215659186467 5.916227770131883e-07 8.20774167260772e-06
0.12808987390919163 0.12808987390919163 0.0 0.0
0.2880378054249874 0.18384922212287758 0.02932901615321935 0.07485956714889022
2.5425808696048975 1.5107333242333485 0.36818961011192325 0.6636579352596262
1.7464775580916538 1.1655075153869385 0.21280444170996932 0.3681656009947458
0.219286233896362 0.19982578850592397 -0.0019072114700063201 0.021367656860444388
0.1510503692743134 0.15105555472016638 -2.1719582759986377e-07 -4.968250025342334e-06
0.14514179154577161 0.14513045221061183 8.207922390617571e-07 1.0518542920683493e-05
0.18677699590381527 0.18703582694122525 -3.102329128223614e-05 -0.00022780774612765883
0.26873037992002885 0.2754180187414514 -0.0016121761636529307 -0.005075462657769601
0.43076292280711825 0.42481045883434976 -0.002307748998375121 0.008260212971143597
0.8446729570973223 0.5966645948333563 0.0672450995774965 0.18076326268646964
1.6811271123932645 0.7971369132646318 0.31390838818431777 0.5700818109443151
3.0100923659289838 0.9947231249782189 0.8321073431417267 1.1832618978090375
4.6355296640309955 1.1619184280811434 1.5007983623903622 1.9728128735594899
6.609103148743112 1.3359067313870903 2.393392590342151 2.8798038270138697
8.93820863358679 1.531031322996091 3.507637983836882 3.8995393267538137
11.695157489150962 1.7541126488776246 4.8705133309056405 5.070531509367701
15.043693044825972 2.020128428614149 6.5884135246998365 6.435151091511992
19.004844153250268 2.3268259616957345 8.656038255781704 8.021979935772833
23.661575933567317 2.662450677314315 11.195307876512825 9.803817379740172
28.737871891707826 3.0304819439552886 13.964020477090122 11.743369470662408
34.063178093670416 3.358293135377372 16.949677390119188 13.75520756817386
39.12310946453067 3.3985649710845616 20.033955993702975 15.690588499743132
41.44630960571571 1.9264352904247712 22.394412836448307 17.12546147884263
39.12310946451411 3.3985649710724033 20.03395599370017 15.69058849974153
34.06317809366574 3.3582931353794723 16.94967739011508 13.755207568171208
28.737871891698884 3.030481943956273 13.964020477084205 11.743369470658415
23.66157593355463 2.6624506773158325 11.195307876504518 9.80381737973428
19.004844153232064 2.3268259616917195 8.65603825577354 8.021979935766812
15.043693044811718 2.0201284286135244 6.588413524692206 6.4351510915059915
11.695157489138888 1.754112648877908 4.870513330898896 5.07053150936208
8.938208633574561 1.5310313229961938 3.5076379838303784 3.899539326747988
6.609103148730841 1.335906731386552 2.3933925903362376 2.8798038270080513
4.635529664019837 1.1619184280793584 1.5007983623858592 1.972812873554619
3.0100923659206473 0.9947231249776649 0.832107343138097 1.1832618978048848
1.6811271123882876 0.7971369132640538 0.3139083881824718 0.5700818109417622
0.8446729570943771 0.596664594832593 0.06724509957672468 0.18076326268505874
0.43076292280595946 0.42481045883329516 -0.002307748998387733 0.008260212971051933
0.26873037991948107 0.2754180187406713 -0.0016121761636228203 -0.00507546265756748
0.18677699590352662 0.18703582694097404 -3.102329128503483e-05 -0.00022780774616227155
0.1451417915454832 0.14513045221032586 8.207922387916424e-07 1.0518542918553883e-05
0.1510503692739198 0.1510555547197619 -2.171958270000216e-07 -4.968250015090288e-06
0.21928623389546711 0.19982578850564592 -0.0019072114701990605 0.02136765686002039
1.7464775580861502 1.1655075153845564 0.2128044417086837 0.3681656009929098
1.1235291054646517 0.8661890736254566 0.07784920597588166 0.17949082586331327
0.18584950885435578 0.2013619971510127 -0.007044695779015275 -0.00846779251764159
0.1714346648653558 0.1715207339219574 -7.296353753386552e-06 -7.877270284823133e-05
0.15783229578843408 0.15786059754361173 -1.911838206656354e-06 -2.6389916971011686e-05
0.17767885838911546 0.17796893930316737 -3.9072035830469364e-05 -0.0002510088782214434
0.23032972021378242 0.2328169673514964 -0.0007364211301934792 -0.0017508260075205775
0.3199423932444729 0.33162413699117776 -0.0041806064784818955 -0.0075011372682230095
0.5169520247989845 0.46472072987820934 0.010281684421809293 0.04194961049896575
0.957343337744873 0.6089686449214804 0.10382809773457051 0.24454659508882212
1.7413973484887075 0.7700841768400932 0.3560219181766067 0.6152912534720079
2.795921838159332 0.9172431366757428 0.742791176089635 1.1358875253939553
4.101756386148884 1.0665739965486325 1.2845220456204245 1.7506603439798267
5.6273195257444115 1.2260062970554115 1.9552996295770433 2.4460135991119554
7.42108946011405 1.4025296263983567 2.7779611017619907 3.240598731953704
9.599171190311331 1.6141354372197714 3.8173583500227397 4.16767740306882
12.265202662604851 1.8725328237743588 5.130330902454299 5.262338936376198
15.462489037710265 2.1834971924702384 6.739924901369342 6.539066943870682
19.09856110164656 2.520780683023507 8.601382072543606 7.976398346079455
23.296851370958848 2.933121046267541 10.78754566802847 9.576184656662834
27.980236440971225 3.2198215653837283 13.412474679002177 11.347940196585316
30.470282422661455 1.6431341946849765 15.79756183197067 13.0295863960058
27.9802364409776 3.2198215653883993 13.412474679003205 11.347940196585995
23.296851370950932 2.933121046263571 10.787545668026151 9.576184656661207
19.098561101640083 2.520780683026268 8.60138207253826 7.976398346075552
15.462489037697823 2.18349719246856 6.7399249013632945 6.5390669438659685
12.265202662596572 1.8725328237749792 5.130330902449414 5.26233893637218
9.599171190302084 1.6141354372189929 3.817358350018203 4.1676774030648795
7.4210894601054 1.4025296263977511 2.7779611017578074 3.2405987319498433
5.627319525735225 1.2260062970531294 1.9552996295736604 2.4460135991084364
4.101756386139827 1.066573996546392 1.2845220456171007 1.7506603439763335
2.7959218381528803 0.9172431366754681 0.7427911760868867 1.1358875253905254
1.7413973484831824 0.7700841768389112 0.3560219181747209 0.6152912534695506
0.9573433377418228 0.6089686449209909 0.10382809773361332 0.24454659508721843
0.5169520247976503 0.46472072987790314 0.010281684421515476 0.04194961049823156
0.3199423932437359 0.33162413699011656 -0.004180606478419408 -0.0075011372679612935
0.23032972021331585 0.23281696735075091 -0.0007364211301567506 -0.0017508260072781807
0.17767885838878866 0.17796893930288793 -3.907203583721623e-05 -0.00025100887826208203
0.15783229578809954 0.15786059754327314 -1.91183820609508e-06 -2.638991696751545e-05
0.17143466486489867 0.1715207339214774 -7.2963537516321735e-06 -7.877270282710897e-05
0.18584950885376275 0.20136199715048853 -0.007044695779032233 -0.008467792517693685
1.1235291054611514 0.8661890736237454 0.07784920597521217 0.17949082586219386
0.7253147158322535 0.6619820882338024 0.016492776493644973 0.04683985110480624
0.1723124880288176 0.18368821693486276 -0.002805187437431204 -0.008570541468613972
0.1867351013926792 0.18675249542834477 -9.224449329999089e-07 -1.6471590732581265e-05
0.1731958689025051 0.17320995235363806 -6.269657850398564e-07 -1.3456485347957748e-05
0.17918140123653356 0.17914358998997207 6.621508314350062e-06 3.118973824710393e-05
0.2102688766974384 0.21438502737772677 -0.0008724889607224802 -0.0032436617195658584
0.2639588855520803 0.2680919687993565 -0.0017045049042659938 -0.0024285783430102958
0.33913686018094685 0.323046565461123 0.002781443043063724 0.013308851676760108
0.47673529302115847 0.39850113473499604 0.01850627284461769 0.059727885441544684
0.7602243225701248 0.4992675928481408 0.07818869809047338 0.18276803163151073
1.2559194218434169 0.6179833665862401 0.2302470496993028 0.4076890055578742
1.8777569661077969 0.7126833285815489 0.4354528228943757 0.7296208146318723
2.6562027534608994 0.8148822287069055 0.7314361288427337 1.1098843959112605
3.603629525206896 0.9390839238614106 1.1139983466693097 1.5505472546761767
4.75531346908019 1.0901219377942148 1.5962770317176933 2.0689144995682804
6.216518338311478 1.289884141427684 2.2235328372551004 2.7031013596286915
8.109582333774537 1.55860957571421 3.06078691169173 3.4901858463685955
10.502886431544209 1.8811738561119784 4.174712548714323 4.447000026717905
13.330111448695448 2.2193720923549587 5.535026835218208 5.575712521122284
17.187861710787555 2.8328163809132176 7.335731210641349 7.0193141192329875
20.497668721045127 1.4660399149595225 10.021580941377001 9.010047864708604
17.187861710788788 2.8328163809119338 7.335731210642774 7.019314119234071
13.330111448696465 2.2193720923578484 5.535026835217159 5.575712521121455
10.502886431534469 1.8811738561087905 4.174712548710762 4.447000026714919
8.109582333766888 1.5586095757124496 3.060786911688587 3.4901858463658484
6.216518338308296 1.2898841414301525 2.2235328372522765 2.7031013596258693
4.755313469074935 1.0901219377929467 1.5962770317157795 2.068914499566207
3.603629525203589 0.9390839238619452 1.1139983466674466 1.550547254674196
2.6562027534579773 0.8148822287071551 0.7314361288413189 1.1098843959095026
1.8777569661042457 0.7126833285806119 0.4354528228932258 0.7296208146304075
1.255919421839431 0.6179833665858524 0.23024704969782875 0.4076890055557503
0.7602243225684542 0.49926759284731753 0.07818869809016123 0.18276803163097538
0.4767352930205244 0.3985011347348828 0.018506272844462063 0.05972788544117945
0.3391368601799567 0.3230465654605732 0.0027814430429241943 0.013308851676459255
0.26395888555142694 0.2680919687986098 -0.0017045049042465356 -0.0024285783429363775
0.21026887669693511 0.21438502737710186 -0.0008724889606964543 -0.003243661719470328
0.1791814012361169 0.17914358998955762 6.621508312371987e-06 3.1189738246887676e-05
0.17319586890206995 0.17320995235318631 -6.269657839693201e-07 -1.3456485332418166e-05
0.18673510139225538 0.18675249542790895 -9.224449321673981e-07 -1.6471590721401528e-05
0.1723124880286011 0.18368821693441728 -0.0028051874373758445 -0.008570541468440326
0.7253147158302539 0.6619820882325063 0.01649277649342667 0.046839851104321185
0.47193235526037974 0.46785982517166874 0.00036917756635432866 0.0037033525223566515
0.16786979357888784 0.16841958903767873 -4.894805036991909e-05 -0.00050084740842096
0.19650145180545522 0.19663456246285363 -1.0971939736769806e-05 -0.00012213871766163787
0.18840766946491166 0.18845127398433292 -2.819219566788515e-06 -4.0785299854429545e-05
0.1884719926753624 0.18871024326560776 -3.5881105861561464e-05 -0.00020236948438380053
0.20841569080359262 0.21153090120770357 -0.0007218714382265131 -0.002393338965884397
0.24684749992633614 0.24982131319442105 -0.0013059894929128655 -0.0016678237751719513
0.29045511115015143 0.26621745409511427 0.004504972000634631 0.01973268505440242
0.32709350620480104 0.2557808317924406 0.020518723634102447 0.05079395077825819
0.36874748310331185 0.2198319344338641 0.04437705039348834 0.10453849827595939
0.4652924924277667 0.2058001042613899 0.09311326815265693 0.16637912001371996
0.6205115305926474 0.2159867824916662 0.14748605237953935 0.2570386957214416
0.8534539739292804 0.25538648079949644 0.2322048306990113 0.365862662430773
1.1620682898874577 0.2911621912111449 0.34942089557138034 0.5214852031049322
1.5822905533057436 0.2925201225997297 0.5306792338583709 0.7590911968476426
2.114285924789305 0.30359015793177657 0.7622610177970867 1.048434749060443
2.8065368185671193 0.33763695669336324 1.0776266910384515 1.3912731708353043
3.693729269500962 0.40430254243210284 1.491487674859302 1.797939052209556
5.10527767773465 0.6038914178530761 2.1058503780942806 2.395535881787293
8.225420115222498 1.5623632037242057 3.125601046646309 3.5374558648519847
13.616064632746331 1.3458836651346402 6.109577782198883 6.160603185412808
8.225420115224447 1.5623632037231518 3.1256010466479527 3.5374558648533467
5.1052776777339846 0.6038914178540141 2.1058503780934634 2.395535881786506
3.69372926949677 0.4043025424311342 1.4914876748575576 1.7979390522080805
2.806536818561848 0.3376369566914452 1.0776266910367926 1.3912731708336077
2.1142859247792574 0.3035901579262765 0.7622610177951976 1.0484347490577814
1.5822905533073017 0.2925201226022562 0.5306792338578445 0.7590911968472018
1.162068289883887 0.2911621912093439 0.34942089557067835 0.5214852031038656
0.8534539739266114 0.25538648079897586 0.23220483069802927 0.3658626624296061
0.6205115305915586 0.21598678249184344 0.14748605237904805 0.25703869572066773
0.4652924924258792 0.20580010426101134 0.09311326815200108 0.16637912001286648
0.3687474831035227 0.21983193443403332 0.04437705039352057 0.10453849827596898
0.3270935062044476 0.2557808317926184 0.02051872363391745 0.05079395077791177
0.2904551111495468 0.26621745409484193 0.0045049720005278905 0.0197326850541771
0.2468474999258818 0.24982131319393788 -0.0013059894929065368 -0.0016678237751495389
0.20841569080323333 0.2115309012072075 -0.0007218714382029715 -0.002393338965771194
0.18847199267489184 0.18871024326518335 -3.5881105867921245e-05 -0.00020236948442361308
0.18840766946445825 0.18845127398389602 -2.819219568302883e-06 -4.078529986947779e-05
0.19650145180512182 0.1966345624624957 -1.0971939734002608e-05 -0.00012213871763985795
0.1678697935787054 0.16841958903749 -4.8948050368062314e-05 -0.0005008474084164936
0.47193235525927685 0.467859825170483 0.00036917756634789197 0.0037033525224457555
0.3139249471963978 0.3139683759047931 -2.4699665670363174e-06 -4.095874182818501e-05
0.15956089433457354 0.15956496182772212 -3.861226354782416e-07 -3.6813705130687944e-06
0.2003828070789565 0.20034145298207884 3.696052658915358e-06 3.7658044218785024e-05
0.2014009331301071 0.20149396985168044 -8.521199394556781e-06 -8.451552217880485e-05
0.2032130217548977 0.20357282259071952 -5.54116089536854e-05 -0.0003043892268681723
0.22414798015542708 0.22624717837923486 -0.0006659932469010867 -0.0014332049769067044
0.27132318491391 0.2761878483073437 -0.001569969477360167 -0.003294693916073612
0.3415824230018135 0.3244431268899072 0.003233670285339531 0.013905625826566782
0.4770777407323267 0.3982197924669193 0.018731887941864055 0.06012606032354319
0.7591217403228325 0.4987115836395363 0.07795021989511156 0.18245993678818478
1.2553034158863339 0.6205285128958093 0.22930418826890953 0.405470714721615
1.8834278494413257 0.71334768876114 0.43887305379269514 0.731207106887491
2.6713213604861115 0.817515360335595 0.7369115225104976 1.1168944776400187
3.6301097783441003 0.9430485579589294 1.1252263332187395 1.5618348871664336
4.746103557719088 1.0835508995049785 1.5957449872008824 2.0668076710132284
5.993455732672052 1.240497530411103 2.140202091963005 2.612756110297943
7.217195414184269 1.4042596429738043 2.683584578498217 3.1293511927122495
8.23070850758849 1.5742558564205493 3.1603028507750364 3.4961498003929092
8.587957909705603 1.675056236698046 3.3276217906555123 3.5852798823520424
6.863975755940675 0.8922243374963379 2.943428293918896 3.0283231245254414
13.780993131481482 2.402245908424775 5.546685312117267 5.832061910939443
6.863975755947426 0.8922243374989518 2.943428293921164 3.028323124527307
8.587957909699986 1.6750562366931638 3.327621790655038 3.5852798823517817
8.230708507583437 1.5742558564203082 3.160302850772451 3.4961498003906755
7.217195414177527 1.4042596429753105 2.683584578493946 3.129351192708274
5.9934557326700535 1.2404975304165318 2.1402020919593103 2.612756110294214
4.746103557708688 1.0835508994995096 1.5957449871985236 2.066807671010655
3.6301097783397593 0.9430485579603634 1.1252263332159838 1.5618348871634127
2.6713213604789434 0.8175153603346106 0.736911522507694 1.1168944776366407
1.8834278494350494 0.7133476887600197 0.4388730537904665 0.7312071068845623
1.2553034158808982 0.6205285128949635 0.22930418826699267 0.4054707147189421
0.7591217403199929 0.49871158363836265 0.07795021989451242 0.18245993678711783
0.477077740731265 0.3982197924663632 0.018731887941707482 0.06012606032319417
0.3415824230010873 0.32444312688940763 0.0032336702852643825 0.01390562582641544
0.27132318491325996 0.27618784830667453 -0.001569969477362448 -0.0032946939160522003
0.22414798015497944 0.2262471783785674 -0.000665993246864975 -0.0014332049767230032
0.20321302175441944 0.2035728225899928 -5.541160892494179e-05 -0.00030438922664843333
0.20140093312985527 0.20149396985134072 -8.521199388451688e-06 -8.45155220969865e-05
0.20038280707870712 0.2003414529818625 3.6960526551908555e-06 3.765804418943021e-05
0.15956089433434367 0.15956496182748434 -3.861226352988379e-07 -3.681370505393053e-06
0.3139249471957423 0.3139683759041108 -2.4699665649585164e-06 -4.095874180351584e-05
0.20274632544518004 0.20274632544518004 0.0 0.0
0.14587657125426085 0.14586806380312675 4.6505239045753023e-07 8.042398743661904e-06
0.19750144664253552 0.19754262626989688 -3.1025019551530745e-06 -3.8077125406254156e-05
0.21094160938274764 0.21077312054557823 1.8928968684881802e-05 0.0001495598684845543
0.22160506677999944 0.22197083967589223 -5.3947173443293883e-05 -0.0003118257224495454
0.25663715459271297 0.2637071282888712 -0.0014528349485502406 -0.0056171387476081315
0.33130342273193863 0.33394795760174195 -0.0025169271772991506 -0.0001276076925041665
0.5212818671134514 0.46534031053900915 0.011556299267980257 0.044385257306461944
0.956930477476101 0.6087566075331767 0.10373293526530128 0.24444093467762323
1.7393668423837445 0.7698787562101876 0.3551431314243653 0.6143449547491907
2.79536018327802 0.9171591868357438 0.7424926186213184 1.135708377820957
4.105950433572077 1.0671694697088518 1.2862339401101055 1.7525470237531202
5.640803038125573 1.2274307177747434 1.9614079381652998 2.4519643821855306
7.443463704352721 1.4037165679765191 2.7892153214590465 3.250531814917155
9.58734086478803 1.6034220201794276 3.8176641298682474 4.1662547147403535
12.043312690273456 1.818575532393069 5.039921994558991 5.184815163321394
14.612795764131791 2.0424720313492672 6.3431146492564405 6.2272090835260805
16.90038221078082 2.286581782357966 7.471985402377557 7.1418150260452995
18.102642652710337 2.36362320897336 8.124871421922657 7.614148021814312
16.730560851205723 2.3495419399580526 7.438905563499165 6.942113347748507
20.244262303089833 5.261440662589206 7.6623292994972445 7.320492341003378
16.730560851212935 2.3495419399592463 7.4389055635026455 6.942113347751047
18.102642652709612 2.3636232089737828 8.124871421921977 7.614148021813848
16.900382210771262 2.2865817823568215 7.471985402372735 7.141815026041708
14.612795764121413 2.04247203135076 6.343114649249788 6.227209083520867
12.04331269025873 1.8185755323902757 5.039921994552452 5.184815163315997
9.587340864778811 1.6034220201808531 3.8176641298625817 4.166254714735377
7.44346370434207 1.403716567975065 2.7892153214543307 3.2505318149126747
5.6408030381143215 1.227430717774504 1.9614079381597829 2.4519643821800314
4.105950433560461 1.0671694697071614 1.2862339401053207 1.7525470237479785
2.7953601832693558 0.9171591868353084 0.7424926186176196 1.1357083778164276
1.7393668423779372 0.769878756209533 0.3551431314221487 0.6143449547462564
0.9569304774724312 0.6087566075320878 0.10373293526433411 0.24444093467600933
0.5212818671120171 0.4653403105381694 0.011556299267811671 0.04438525730603622
0.3313034227310639 0.33394795760070345 -0.0025169271772837714 -0.00012760769235580383
0.25663715459226744 0.26370712828824916 -0.0014528349485045456 -0.005617138747477218
0.22160506677943437 0.2219708396753653 -5.394717345050199e-05 -0.00031182572248043475
0.21094160938246417 0.21077312054512562 1.892896869986451e-05 0.00014955986863868093
0.19750144664216007 0.19754262626954375 -3.102501957660222e-06 -3.8077125426049424e-05
0.1458765712538933 0.1458680638027673 4.6505239000204435e-07 8.042398736028437e-06
0.20274632544469912 0.20274632544469912 0.0 0.0
0.12486705690073237 0.12486705690073237 0.0 0.0
0.12695189867142617 0.12695355959289495 -9.533615641300818e-08 -1.565585312364224e-06
0.18804311961114367 0.18801265839634312 2.1056555596612594e-06 2.83555592408956e-05
0.21651104089628653 0.21668596360627979 -1.897179056897025e-05 -0.00015595091942434384
0.24329751276997633 0.24497071252286762 -0.0002957869658835978 -0.0013774127870077074
0.29979208920138933 0.3011386770146791 -0.001050269155839312 -0.00029631865745043486
0.4486711951190809 0.436878913268273 0.0002975912168379424 0.011494690633969906
0.8492913585599636 0.5978515074756751 0.06896100106591439 0.182478850018374
1.6793498319653644 0.7970633245304455 0.31316160093606493 0.5691249064988538
3.00851229331046 0.9948207032278449 0.8315924192269221 1.1820991708556932
4.6350239525711086 1.1617103159449838 1.4994504397642627 1.9738631968618647
6.6124483998497885 1.335995679212091 2.395099018479904 2.8813537021577953
8.94532187771762 1.5314732462150988 3.5112004252959643 3.902648206206556
11.703467455605162 1.754204342564032 4.8751052216367095 5.074157891404423
15.020491198384489 2.0091878535139833 6.581790139242018 6.429513205628489
18.826356598733653 2.2782514042463675 8.582109161483015 7.965996033004271
23.022976077436777 2.549469251895018 10.888403883501086 9.585102942040674
26.77696695869487 2.7289017643882887 12.977427767952536 11.070637426354052
28.79954417682343 2.717147057946883 14.191333972363788 11.891063146512757
26.663281273771823 2.402003141257626 13.116651626534683 11.144626505979518
29.965233466052275 7.825221836867385 11.842033751198729 10.297977877986169
26.663281273769094 2.402003141251043 13.116651626536946 11.144626505981103
28.799544176816976 2.717147057945067 14.191333972360985 11.891063146510934
26.776966958683854 2.728901764388612 12.977427767945809 11.070637426349435
23.022976077418633 2.5494692518926305 10.888403883491831 9.585102942034165
18.82635659871639 2.278251404246306 8.58210916147316 7.965996032996927
15.020491198368092 2.009187853512501 6.581790139233648 6.429513205621943
11.703467455588294 1.7542043425625011 4.875105221628322 5.074157891397469
8.9453218777021 1.5314732462150482 3.511200425287778 3.9026482061992755
6.612448399834767 1.335995679211016 2.395099018472784 2.8813537021509688
4.635023952557065 1.161710315943492 1.4994504397581405 1.9738631968554325
3.008512293300201 0.9948207032256358 0.8315924192231668 1.1820991708513973
1.6793498319594307 0.7970633245295652 0.31316160093392076 0.5691249064959454
0.8492913585564308 0.5978515074741593 0.06896100106519365 0.18247885001707734
0.4486711951176266 0.4368789132672193 0.00029759121673929604 0.011494690633667771
0.29979208920070893 0.30113867701367314 -0.0010502691558044448 -0.0002963186571597619
0.24329751276950917 0.24497071252225336 -0.0002957869658651139 -0.0013774127868790443
0.21651104089596718 0.21668596360597453 -1.897179057089933e-05 -0.00015595091943643866
0.1880431196106989 0.18801265839590942 2.1056555587426653e-06 2.835555923076314e-05
0.12695189867115497 0.12695355959262272 -9.533615634106578e-08 -1.565585311427026e-06
0.12486705690043746 0.12486705690043746 0.0 0.0
0.07292299134812151 0.07292299134812151 0.0 0.0
0.10480495914543582 0.10480495914543582 0.0 0.0
0.1730933505463144 0.1730829097208654 6.169848764971448e-07 9.823840572470336e-06
0.21853067274072893 0.2184047865982037 1.5560442391887812e-05 0.00011032570013335384
0.2667566210858326 0.26843353875488873 -0.000301515286067975 -0.0013754023829882203
0.36203856483096414 0.3732296170294471 -0.0031161188904239743 -0.008074933308059154
0.6382546436266165 0.531667502494254 0.02533845231815883 0.08124868881420354
1.3185004891125378 0.7437597903925879 0.19053673628087736 0.3842039624390732
2.607754918649111 0.979073578164757 0.6616922279125974 0.9669891125717565
4.325623462539298 1.170628837992711 1.3343807614110488 1.8206138631355386
6.597671996344365 1.3688875802767202 2.3730205525239225 2.855763863543723
9.286880720881689 1.5755639453926036 3.669220086643824 4.042096688845262
12.463330822729304 1.8109359992705671 5.260787732613092 5.391607090845651
16.26262040267155 2.0871282801821556 7.229645550287392 6.9458465722020035
20.797237427975514 2.403277665733288 9.64132197200674 8.75263779023549
26.204501028429725 2.745624587596822 12.6448679309496 10.8140085098833
31.868787657930213 3.0268652584953295 15.811681358657305 13.030241040777584
37.16477303346654 3.113931876710208 19.01481535389788 15.036025802858434
39.92754150039749 2.87791736789166 20.88517708716896 16.164447045336875
37.08062759030193 2.4732084543904844 19.378052504492345 15.229366631419085
40.62552783242037 10.282812019287054 16.73637103242264 13.606344780710684
37.08062759030307 2.4732084543907793 19.378052504492906 15.229366631419374
39.92754150038844 2.877917367892699 20.885177087162702 16.164447045333063
37.164773033448654 3.113931876707741 19.014815353888395 15.036025802852517
31.8687876579067 3.026865258492395 15.811681358644933 13.03024104076938
26.204501028404454 2.7456245875939502 12.644867930936321 10.814008509874176
20.797237427952354 2.40327766573067 9.641321971994898 8.752637790226784
16.262620402650356 2.087128280182502 7.229645550275217 6.945846572192636
12.463330822706904 1.8109359992688279 5.260787732601747 5.391607090836327
9.28688072086055 1.5755639453897732 3.66922008663417 4.042096688836606
6.597671996327256 1.3688875802767198 2.3730205525153094 2.8557638635352265
4.325623462525783 1.170628837990485 1.3343807614056657 1.8206138631296322
2.607754918639906 0.9790735781632538 0.6616922279090323 0.9669891125676198
1.3185004891073848 0.7437597903916862 0.1905367362791639 0.3842039624365356
0.6382546436242641 0.5316675024931645 0.02533845231773014 0.08124868881336932
0.36203856483020835 0.37322961702838703 -0.003116118890349161 -0.008074933307829624
0.26675662108546416 0.2684335387545485 -0.0003015152860723628 -0.0013754023830119095
0.21853067274039653 0.2184047865978441 1.5560442393415944e-05 0.00011032570015896677
0.17309335054614905 0.173082909720705 6.169848761276928e-07 9.823840567913113e-06
0.10480495914529918 0.10480495914529918 0.0 0.0
0.07292299134798984 0.07292299134798984 0.0 0.0
0.04009905318471453 0.04009905318471453 0.0 0.0
0.08204664213192331 0.08204664213192331 0.0 0.0
0.15440084800917078 0.15439613432404217 2.7264122338958563e-07 4.441043905202767e-06
0.21803942565091908 0.21802854046317116 2.7243248821822685e-06 8.160862865767281e-06
0.2921321291168847 0.292872557142724 -0.00026516574904440917 -0.0004752622767950195
0.4544517648865546 0.4482638091492832 4.804617612236533e-05 0.006139909561148923
0.9066213084314838 0.6422017822512587 0.07817006593903669 0.18624946024118808
1.9341498717587418 0.8950099376792809 0.4022946564328885 0.6368452776465727
3.5272481730703866 1.1151558116175235 0.9844725676365373 1.4276197938163253
5.815497369591447 1.3412299366518108 1.9920712198455934 2.482196213094041
8.658398776481725 1.5646521416367605 3.3411372568307285 3.75260937801424
12.08369001350146 1.8081053210578393 5.0539857264366885 5.2215989660069315
16.17083420485286 2.090307294376293 7.17670893000661 6.903817980469961
21.09519474128673 2.422976371646665 9.824714911671373 8.847503457968688
26.947226387718807 2.816986131807051 13.024290474693501 11.105949781218257
33.78366076930658 3.2229435015590004 16.869660893682372 13.69105637406521
41.33446030836771 3.512399198164068 21.36032595273908 16.461735157464545
47.92759126497302 3.4564616222009277 25.471272652146837 18.999856990625275
51.09644450892537 2.9487616574164726 27.741347432009608 20.406335419499307
47.777079134949545 2.5884049829013906 25.932469436712783 19.256204715335365
52.24863902079612 12.814814470078387 22.35606176688868 17.07776278382904
47.777079134944614 2.5884049828976137 25.932469436712054 19.25620471533495
51.09644450891754 2.948761657421889 27.741347432001305 20.40633541949434
47.92759126495149 3.456461622200515 25.471272652133592 18.999856990617385
41.33446030834199 3.512399198163025 21.360325952723787 16.46173515745519
33.783660769274434 3.2229435015572236 16.86966089366397 13.691056374053243
26.947226387692332 2.816986131805869 13.024290474678502 11.105949781207961
21.095194741261192 2.422976371646961 9.824714911656447 8.84750345795778
16.170834204827717 2.0903072943764744 7.176708929992373 6.903817980458865
12.083690013476811 1.8081053210565918 5.053985726423934 5.221598965996287
8.658398776461116 1.564652141636364 3.3411372568201463 3.7526093780046006
5.815497369573909 1.34122993664942 1.9920712198380393 2.4821962130864508
3.5272481730585743 1.1151558116162548 0.9844725676317769 1.4276197938105437
1.9341498717515397 0.8950099376781422 0.40229465643022005 0.636845277643177
0.9066213084278089 0.6422017822501531 0.07817006593810466 0.18624946023955158
0.45445176488554867 0.44826380914836644 4.804617609778289e-05 0.006139909561084419
0.29213212911645814 0.29287255714206684 -0.00026516574902029884 -0.0004752622765884025
0.21803942565049514 0.2180285404627363 2.7243248828526515e-06 8.160862875989513e-06
0.15440084800889525 0.15439613432376856 2.726412232514537e-07 4.441043903424872e-06
0.08204664213168975 0.08204664213168975 0.0 0.0
0.04009905318464849 0.04009905318464849 0.0 0.0
0.020700828441285034 0.020700828441285034 0.0 0.0
0.060915494462911626 0.060915494462911626 0.0 0.0
0.13424052268102207 0.13424052268102207 0.0 0.0
0.21671862000530076 0.2166313776068452 8.812608487555339e-06 7.842978996803252e-05
0.3264229660930198 0.3340921804275431 -0.0016552846163780778 -0.006013929718145115
0.581876654975371 0.5088587580750503 0.015620832757433777 0.05739706414288678
1.2726875197279133 0.764570414548362 0.18190701293776423 0.3262100922417869
2.561169869703503 1.008690051697021 0.6007596854584467 0.9517201325480353
4.596085124195753 1.2545084579578902 1.434366117488695 1.9072105487491688
7.346931014890774 1.5008228608565755 2.690954739970027 3.1551534140641704
10.809666597214129 1.7579791704468435 4.390246897752424 4.661440529014858
15.016144449916963 2.044096898602354 6.557597944178173 6.4144496071364365
20.08830828154374 2.379047420293139 9.273664933941545 8.435595927309057
26.058683028267396 2.773901532951827 12.509240305601221 10.775541189714346
33.31292958334614 3.2320844405275593 16.60035418700647 13.480490955812112
41.77705525421341 3.716023803135452 21.496516537991933 16.56451491308601
50.79476276667224 4.011246910466068 26.90270281426384 19.880813041942343
58.75136748351193 3.771221990250025 32.083882266946844 22.896263226315057
62.60242197128069 2.9987458722715097 35.037102061532 24.5665740374772
58.89460471449427 2.7075892471157164 32.859124172269915 23.32789129510865
64.5514541691568 15.407724650511112 28.377040854278007 20.766688664367695
58.89460471448773 2.707589247114017 32.85912417226682 23.32789129510688
62.60242197126769 2.9987458722723472 35.03710206152309 24.566574037472247
58.75136748348633 3.7712219902517887 32.08388226692938 22.89626322630512
50.79476276663911 4.011246910462251 26.90270281424544 19.88081304193141
41.777055254184184 3.716023803139795 21.496516537971207 16.56451491307318
33.31292958331041 3.2320844405218594 16.60035418698829 13.480490955800237
26.058683028233446 2.7739015329487415 12.509240305582955 10.775541189701741
20.088308281511335 2.379047420290426 9.273664933924476 8.435595927296438
15.016144449886605 2.044096898599906 6.557597944162627 6.414449607124076
10.809666597188594 1.757979170445012 4.390246897739704 4.661440529003874
7.346931014870719 1.5008228608550858 2.6909547399605254 3.1551534140551074
4.596085124181804 1.2545084579570736 1.4343661174825175 1.9072105487422117
2.5611698696942398 1.008690051695354 0.6007596854550734 0.951720132543813
1.2726875197229268 0.7645704145472052 0.18190701293620853 0.32621009223951225
0.5818766549734334 0.508858758073959 0.015620832757154233 0.05739706414232027
0.32642296609237614 0.33409218042670064 -0.001655284616331089 -0.006013929717993354
0.2167186200049714 0.21663137760651088 8.812608487846435e-06 7.842978997270214e-05
0.13424052268077868 0.13424052268077868 0.0 0.0
0.060915494462724394 0.060915494462724394 0.0 0.0
0.02070082844127805 0.02070082844127805 0.0 0.0
0.010167487768697346 0.010167487768697346 0.0 0.0
0.043080716777284776 0.043080716777284776 0.0 0.0
0.11498746451646982 0.11498746451646982 0.0 0.0
0.2175475078795009 0.21760366864236536 -8.006988882167229e-06 -4.8153773982317186e-05
0.37559490899026604 0.38054809935216893 -0.0015326142759880476 -0.0034205760859148428
0.7650582437014721 0.6057648901750543 0.04671235726276538 0.11258099626365244
1.678093510907964 0.8644718109782427 0.29325936078203213 0.5203623391476895
3.281383371764583 1.1171026548883425 0.8773395904458205 1.2869411264304194
5.694457396403805 1.3832291446770386 1.9115728140248929 2.399655437701874
8.944842766069005 1.6573714483302027 3.449725937142874 3.8377453805959263
13.029889230039931 1.9510836734904347 5.499512147388412 5.579293409161087
18.05237132763234 2.2873051964673072 8.145197407321097 7.619868723843936
24.037445344234094 2.679029098721094 11.37159680297905 9.986819442533953
31.347034152227693 3.1382124996350824 15.487127109072517 12.721694543520096
39.892659102029725 3.6607496833535587 20.35654480527322 15.875364613402942
49.72307347500393 4.18902264940455 26.104149887049044 19.42990093855035
60.351340477228774 4.503984008901739 32.63521286935453 23.21214359897251
69.67933101182564 4.124074737498691 38.859765398634664 26.695490875692297
74.34322785607036 3.0635874460069172 42.55265823001093 28.72698218005249
70.64139608998788 2.785664712377497 40.35440660956798 27.501324768042412
77.98210311471261 18.009489888246065 35.27794673954837 24.694666486918184
70.64139608997765 2.785664712374702 40.3544066095631 27.501324768039847
74.34322785603948 3.063587445997336 42.552658229997085 28.726982180045074
69.67933101179764 4.124074737502289 38.859765398614215 26.69549087568114
60.35134047718773 4.503984008898902 32.63521286933019 23.21214359895865
49.723073474958845 4.1890226493973595 26.104149887025244 19.42990093853624
39.8926591019865 3.6607496833477167 20.3565448052502 15.875364613388577
31.3470341521887 3.1382124996347067 15.487127109049277 12.721694543504718
24.03744534419647 2.6790290987192975 11.37159680295804 9.986819442519135
18.052371327597612 2.287305196465103 8.145197407302668 7.619868723829842
13.029889230010765 1.9510836734887873 5.499512147373333 5.579293409148646
8.944842766045895 1.6573714483286452 3.449725937131535 3.837745380585715
5.6944573963866025 1.383229144674926 1.9115728140174546 2.3996554376942214
3.2813833717534107 1.1171026548867171 0.8773395904417227 1.2869411264249702
1.6780935109014112 0.8644718109763744 0.29325936078006637 0.520362339144971
0.7650582436988342 0.6057648901740025 0.04671235726220071 0.1125809962626313
0.375594908989569 0.3805480993513635 -0.001532614275969553 -0.0034205760858251164
0.21754750787921714 0.21760366864208733 -8.00698888406849e-06 -4.815377398610234e-05
0.11498746451632291 0.11498746451632291 0.0 0.0
0.04308071677727381 0.04308071677727381 0.0 0.0
0.01016748776865401 0.01016748776865401 0.0 0.0
0.004957604983180485 0.004957604983180485 0.0 0.0
0.029485540483738942 0.029485540483738942 0.0 0.0
0.0992199501372095 0.0992199501372095 0.0 0.0
0.22497868582081315 0.22513494056917108 -1.9991307556146734e-05 -0.00013626344080184066
0.4471158510544757 0.4304986425904819 0.0027747142232743332 0.013842494240719453
1.0059454273760264 0.7014464634470816 0.10177221494974266 0.20272674897920176
2.1301076218204513 0.9452906763048416 0.4379014610663923 0.7469154844492165
4.047930250706178 1.2205732444649882 1.1901981858041375 1.637158820437052
6.830997916576255 1.5059835549745046 2.424042936603479 2.9009714249982697
10.583865336377833 1.8110263774308661 4.245227316878165 4.527611642068806
15.341764714016385 2.149401959241289 6.687926233433393 6.504436521341702
21.154984524451784 2.5366737640256036 9.781560689603001 8.836750070823179
28.28299670671592 2.996148758954631 13.737738583618855 11.549109364142426
36.657860172290164 3.526326614745011 18.434832947146084 14.696700610399068
46.605557870820064 4.090242015868564 24.229134694439754 18.286181160511752
57.862966023669706 4.6138771970181685 30.98259148079181 22.266497345859708
69.79698672142744 4.939951475278676 38.40584295208469 26.45119229406409
80.56595217666987 4.609854960423617 45.6039071705131 30.352190045733174
86.3462982881463 3.1813812807764306 50.355167701076766 32.80974930629313
83.14509896911804 2.7466407196697995 48.55059794881413 31.847860300634093
92.64024253793241 20.474051854174693 43.1372079499145 29.028982733843243
83.14509896909999 2.7466407196636635 48.55059794880634 31.847860300629968
86.34629828812648 3.181381280784263 50.355167701058626 32.809749306283614
80.56595217663109 4.609854960421602 45.60390717048905 30.35219004572042
69.7969867213869 4.939951475283966 38.40584295205508 26.45119229404787
57.862966023626726 4.6138771970197965 30.982591480763507 22.266497345843423
46.60555787077489 4.090242015868298 24.229134694411727 18.286181160494852
36.65786017224885 3.5263266147456256 18.434832947120526 14.696700610382711
28.282996706672478 2.996148758952068 13.737738583594505 11.549109364125911
21.15498452441198 2.5366737640230554 9.781560689581386 8.83675007080754
15.341764713982823 2.149401959238957 6.687926233416014 6.504436521327856
10.583865336351414 1.8110263774289033 4.245227316865109 4.527611642057399
6.830997916556623 1.505983554972145 2.4240429365948097 2.9009714249896694
4.0479302506927635 1.2205732444633406 1.19019818579866 1.6371588204307623
2.130107621812761 0.9452906763033719 0.43790146106399463 0.7469154844453937
1.005945427372597 0.7014464634458167 0.10177221494893336 0.20272674897784712
0.4471158510533145 0.43049864258942705 0.002774714223206332 0.013842494240681055
0.22497868582057856 0.22513494056897215 -1.9991307561468093e-05 -0.00013626344083202894
0.09921995013704689 0.09921995013704689 0.0 0.0
0.029485540483753705 0.029485540483753705 0.0 0.0
0.004957604983172537 0.004957604983172537 0.0 0.0
0.002352868410738907 0.002352868410738907 0.0 0.0
0.020140832150819066 0.020140832150819066 0.0 0.0
0.09034023157315552 0.09034023157315552 0.0 0.0
0.24606920958473877 0.24639855046080872 -6.952348325717557e-05 -0.0002598173928128405
0.5598612630095762 0.5089977742434799 0.014191034379508633 0.03667245438658775
1.2835372436733645 0.7813129574312261 0.17128870255887102 0.33093558368326725
2.6434162871439764 1.0323007433658054 0.627222602411712 0.983892941366459
4.839667270540097 1.3175987448820226 1.5235947664748577 1.998473759183217
8.013736102769192 1.6248780528357902 2.9804352986008076 3.4084227513325946
12.26066329705609 1.9646033696887506 5.07401642052282 5.22204350684452
17.686697345531748 2.3494718411376834 7.9001703952213 7.437055109172765
24.438780353267507 2.799348969263608 11.577747989621306 10.0616833943826
32.48234380052246 3.328398315562568 16.02034922240857 13.133596262551325
42.210416986620416 3.9233878223882352 21.605125657027074 16.681903507205114
53.52986096543987 4.533136978412385 28.29031764000855 20.70640634701893
66.0973039026623 5.02413983891999 35.975002932033846 25.098161131708434
79.06825734401234 5.233298769702464 44.24551562932201 29.589442944987855
91.03081736402146 5.057437398921143 52.21965729597527 33.75372266912505
98.54423012620852 3.723404184376541 58.080157501541684 36.74066844029027
96.46434057246897 2.427576241608886 57.58406239298713 36.45270193787299
108.51826078752985 21.82064902280335 52.69531643724128 34.002295327485214
96.46434057245457 2.4275762416090956 57.58406239297742 36.45270193786805
98.54423012617653 3.723404184374328 58.08015750152199 36.74066844028023
91.03081736397924 5.057437398922371 52.2196572959466 33.75372266911029
79.0682573439646 5.233298769704221 44.245515629289876 29.5894429449705
66.09730390260862 5.024139838917074 35.97500293200124 25.09816113169031
53.52986096539093 4.533136978413829 28.290317639976763 20.70640634700032
42.21041698656337 3.9233878223786816 21.605125656997696 16.681903507186984
32.48234380047118 3.3283983155583226 16.020349222380155 13.133596262532693
24.438780353222484 2.7993489692596905 11.577747989597189 10.061683394365605
17.686697345494203 2.3494718411363045 7.900170395200705 7.437055109157202
12.260663297026785 1.9646033696863188 5.074016420508185 5.222043506832277
8.013736102746625 1.6248780528332685 2.9804352985904905 3.4084227513228678
4.839667270524968 1.3175987448804882 1.5235947664683667 1.998473759176117
2.6434162871348574 1.03230074336483 0.6272226024082398 0.9838929413617876
1.2835372436687593 0.781312957429536 0.17128870255770876 0.3309355836815149
0.5598612630080714 0.508997774242677 0.014191034379269017 0.03667245438612535
0.24606920958446027 0.24639855046041576 -6.952348324805871e-05 -0.0002598173927074646
0.09034023157298011 0.09034023157298011 0.0 0.0
0.020140832150786398 0.020140832150786398 0.0 0.0
0.0023528684107232065 0.0023528684107232065 0.0 0.0
0.0006528134625192628 0.0006528134625192628 0.0 0.0
0.014467213247052876 0.014467213247052876 0.0 0.0
0.09318643586390218 0.09318643586390218 0.0 0.0
0.29357552700647793 0.29446599752006175 -0.00024056864152255443 -0.0006499018720612696
0.725844154201065 0.6180767841905306 0.03470603582965506 0.07306133418087915
1.6282926578866512 0.9311056905430379 0.24969896501723746 0.44748800232637576
3.2166714952604805 1.2454095012418678 0.7907489468275494 1.1805130471910639
5.718716846725922 1.6347101434040074 1.8026149206416051 2.281391782680308
9.300904703428252 2.095063527396617 3.405380298416315 3.8004608776153255
14.15348822112131 2.662290752523181 5.73605092971583 5.755146538882298
20.417353206005252 3.3773358970908873 8.889689315358044 8.15032799355632
28.14052632924668 4.271936194818154 12.86480159043799 11.003788543990542
37.58610430859779 5.349286453483526 17.893715258142095 14.343102596972166
48.862702307556134 6.595891148776238 24.0720646345121 18.1947465242678
61.84924882147202 7.8615906143616865 31.455477157840832 22.53218104926947
75.94844181721741 8.851661948000078 39.88679098490475 27.209988884312597
89.88628089928095 9.194850414113727 48.75183289705908 31.93959758810815
101.96149771914264 8.693789240592864 57.053233846087636 36.2144746324622
110.69646712129077 7.887111771341321 63.404604093324366 39.40475125662507
107.36310548428052 2.4358273594411974 64.76687685484076 40.16040126999852
155.85055508146183 54.87510430042938 62.237694360449744 38.73775642058274
107.3631054842592 2.43582735943503 64.76687685483054 40.16040126999359
110.69646712125069 7.88711177133508 63.40460409330176 39.40475125661383
101.96149771908753 8.693789240586417 57.053233846055534 36.21447463244564
89.8862808992157 9.19485041410066 48.75183289702477 31.9395975880903
75.94844181716407 8.851661948004157 39.8867909848676 27.209988884292237
61.84924882141007 7.861590614353951 31.455477157806467 22.532181049249658
48.86270230749498 6.595891148770454 24.072064634477584 18.194746524246966
37.586104308543014 5.349286453481378 17.893715258110085 14.343102596951557
28.140526329193776 4.271936194809387 12.864801590411803 11.003788543972583
20.41735320596442 3.377335897089398 8.889689315335428 8.150327993539596
14.153488221086878 2.6622907525170745 5.7360509297001245 5.755146538869682
9.300904703402786 2.095063527393672 3.4053802984044634 3.8004608776046567
5.718716846708785 1.634710143401871 1.8026149206342676 2.2813917826726446
3.2166714952498348 1.2454095012405548 0.7907489468234323 1.1805130471858487
1.62829265788094 0.9311056905411081 0.24969896501586564 0.4474880023239667
0.7258441541989917 0.6180767841894566 0.034706035829304704 0.07306133418023036
0.29357552700594425 0.29446599751948277 -0.0002405686415088689 -0.0006499018720296329
0.09318643586375237 0.09318643586375237 0.0 0.0
0.014467213247036691 0.014467213247036691 0.0 0.0
0.0006528134625212761 0.0006528134625212761 0.0 0.0
CELL_DATA 800
SCALARS Stress float 6
LOOKUP_TABLE default
152.6344277707113 -506.6650495805245 -183.02925686951627 -106.81397451341223 0.0 0.0
395.64795989404104 -35.50447404115557 117.44338708998289 59.029728186873335 0.0 0.0
386.38727174783713 7.440237936467179 117.95206690038655 -4.744667117145104 0.0 0.0
447.33600687856085 -8.215605545466483 134.49034079351958 -13.370058871572354 0.0 0.0
520.3517611662954 -13.150265094224274 177.1951125528548 -11.18290876193417 0.0 0.0
589.4348434930506 -5.638947640531747 244.2652166782823 -9.576452517868526 0.0 0.0
656.1737259367793 2.3195958872038354 305.94630926677723 -9.605425165209105 0.0 0.0
722.8505950811209 18.326062548085332 360.3471104254222 -10.590837974077077 0.0 0.0
790.4892640938144 40.76046845630737 410.51052233829876 -11.826712309571683 0.0 0.0
859.4858563846583 68.70631612177947 460.7389651341516 -12.747997054995228 0.0 0.0
929.2986820131437 100.48912885528753 512.197486779423 -13.182403533296796 0.0 0.0
999.2820049384518 135.5415925205096 565.064116167596 -13.125856273796623 0.0 0.0
1069.5234950340125 172.22228286012592 618.7443970139257 -12.91180225241599 0.0 0.0
1140.675824841021 211.04190826547222 673.8685271649267 -12.655450243658333 0.0 0.0
1213.4792182988922 253.09078698957006 731.3861268596424 -12.30021057807739 0.0 0.0
1287.4680338932255 298.43312377942846 791.1152918872233 -11.67528504105942 0.0 0.0
1360.3624728823424 345.76950415338797 851.2813048584878 -10.57202601747686 0.0 0.0
1428.6577812753471 392.69168372495386 908.9110145793561 -8.953423950492011 0.0 0.0
1488.609619634893 436.6225068347557 960.8025585667411 -7.483930458367607 0.0 0.0
1554.0977571465637 493.37182574070994 1021.4045757916027 -9.236005826359467 0.0 0.0
1554.097757146309 493.37182574046307 1021.4045757913622 9.23600582637788 0.0 0.0
1488.609619633533 436.6225068334189 960.8025585656026 7.483930458367007 0.0 0.0
1428.6577812748778 392.69168372455124 908.9110145788671 8.953423950563137 0.0 0.0
1360.3624728814627 345.7695041525841 851.2813048577448 10.572026017509469 0.0 0.0
1287.4680338928486 298.43312377915436 791.1152918868881 11.675285041073096 0.0 0.0
1213.4792182990957 253.09078698989276 731.3861268597628 12.30021057802428 0.0 0.0
1140.6758248397755 211.04190826435448 673.8685271640297 12.655450243591696 0.0 0.0
1069.5234950324655 172.22228285873592 618.7443970128227 12.911802252388927 0.0 0.0
999.2820049379671 135.54159252020852 565.0641161671929 13.125856273846056 0.0 0.0
929.2986820125665 100.4891288549217 512.1974867789779 13.182403533308767 0.0 0.0
859.4858563842978 68.7063161216409 460.73896513387217 12.747997054933748 0.0 0.0
790.489264093626 40.76046845635918 410.51052233814886 11.826712309650272 0.0 0.0
722.8505950809827 18.32606254820331 360.3471104252738 10.590837974074745 0.0 0.0
656.1737259367842 2.3195958874907134 305.9463092666922 9.605425165236293 0.0 0.0
589.4348434929025 -5.638947640394932 244.2652166780789 9.576452517924675 0.0 0.0
520.3517611659697 -13.150265094280323 177.19511255261784 11.182908762005036 0.0 0.0
447.33600687813873 -8.215605545690359 134.4903407933312 13.37005887154255 0.0 0.0
386.38727174765404 7.4402379363669455 117.95206690030469 4.744667117140104 0.0 0.0
395.6479598940232 -35.50447404104171 117.44338708997464 -59.02972818684028 0.0 0.0
152.63442777121242 -506.6650495800347 -183.02925686901676 106.81397451305321 0.0 0.0
55.97991365145518 -536.3721256986336 -239.81054485046042 -149.46729567418998 0.0 0.0
245.91713564830948 -21.055338230285997 67.45853922540704 12.357274106800526 0.0 0.0
338.88083112739497 24.03326713490425 108.87373935236185 -10.343714120275573 0.0 0.0
408.33584652952396 -5.713832629279549 121.03489493385992 -32.974445617443585 0.0 0.0
490.57285294335816 -14.334351191410697 156.7897968471916 -31.864980210240113 0.0 0.0
564.5530232791882 -7.075438741657017 222.1744477891121 -28.39728094518829 0.0 0.0
635.5262966763229 0.6733203098803848 288.2464925071814 -28.7733168274124 0.0 0.0
703.2087163174147 15.842039940007822 345.9353691179162 -30.281635208346927 0.0 0.0
769.7559734104408 36.80801621904268 396.67624484036065 -32.14936267453341 0.0 0.0
836.1567096247578 62.43229140918124 445.23541909818573 -33.34343108852749 0.0 0.0
902.200922871529 91.13298746698295 493.59753408276265 -33.502884439682916 0.0 0.0
967.7917241675447 121.61111122068785 542.1136581989274 -32.900823003759044 0.0 0.0
1033.1065338294175 154.229086004277 591.3550487102558 -32.00722441411669 0.0 0.0
1099.352114463424 188.8563071437814 641.9656050093569 -31.09918936823367 0.0 0.0
1166.9567696766178 226.12067382333706 694.5194987113533 -30.04754728676478 0.0 0.0
1235.394498338675 266.2296254233501 748.8828469127116 -28.432925286046572 0.0 0.0
1303.0041084201625 308.3728210491165 803.8208367689728 -25.915145870835676 0.0 0.0
1367.490001758642 351.3714647419257 857.5695073564129 -22.61417064744707 0.0 0.0
1429.9390836737946 397.77461005638963 911.8309797917564 -19.350835822639993 0.0 0.0
1474.8204466017012 433.47263069313317 951.9273622254527 -15.349343008016628 0.0 0.0
1474.820446601845 433.47263069329347 951.9273622255974 15.349343008053491 0.0 0.0
1429.9390836744599 397.77461005709495 911.8309797922486 19.350835822686598 0.0 0.0
1367.4900017589378 351.37146474228564 857.5695073565838 22.61417064749866 0.0 0.0
1303.004108419487 308.3728210485207 803.8208367684184 25.915145870881567 0.0 0.0
1235.394498338092 266.22962542286393 748.8828469122243 28.43292528607097 0.0 0.0
1166.956769675126 226.12067382194778 694.5194987102191 30.047547286714895 0.0 0.0
1099.3521144628821 188.8563071433721 641.965605008946 31.099189368247927 0.0 0.0
1033.1065338292863 154.22908600432655 591.3550487101597 32.00722441422375 0.0 0.0
967.7917241672817 121.61111122061959 542.1136581987099 32.900823003765794 0.0 0.0
902.200922871372 91.13298746703636 493.5975340826153 33.50288443969836 0.0 0.0
836.1567096245815 62.43229140923685 445.2354190980202 33.34343108858384 0.0 0.0
769.755973410017 36.808016218861184 396.67624484004466 32.14936267461893 0.0 0.0
703.2087163167696 15.842039939603794 345.93536911743945 30.28163520841192 0.0 0.0
635.5262966757948 0.6733203096148088 288.24649250675054 28.773316827444265 0.0 0.0
564.5530232790882 -7.075438741432201 222.17444778894895 28.397280945212806 0.0 0.0
490.57285294314767 -14.334351191273072 156.78979684707028 31.864980210234485 0.0 0.0
408.33584652934076 -5.713832629133546 121.03489493385342 32.974445617308945 0.0 0.0
338.88083112740674 24.033267135093705 108.87373935242259 10.343714120187823 0.0 0.0
245.9171356485227 -21.05533822983471 67.45853922560639 -12.357274106885924 0.0 0.0
55.97991365180667 -536.3721256982324 -239.8105448500732 149.46729567398273 0.0 0.0
10.152165703791212 -538.5405742599511 -255.17930898155626 -163.42771739027833 0.0 0.0
142.86308082076275 -19.39479351797546 37.040486190836184 -39.99289259180113 0.0 0.0
275.90916425312406 28.6776613255415 91.37604767359966 -31.902937723181477 0.0 0.0
361.45585718749714 1.4257706329426725 108.93043620107935 -51.54146346940906 0.0 0.0
450.93690629371673 -12.48573969348413 137.7828321035525 -54.65485698880011 0.0 0.0
536.7728188989936 -11.017228172885243 196.26425568498226 -49.51352157090218 0.0 0.0
610.5406174412659 -0.04689133756179231 267.1876819920562 -48.23911332878261 0.0 0.0
679.1176198015582 13.357184897717325 327.96589696123857 -49.948764799929215 0.0 0.0
745.223970819968 32.93297144887562 380.2958149641653 -52.09547202815821 0.0 0.0
809.1150275236497 56.01332137112251 427.51137914420116 -53.30052421113823 0.0 0.0
871.4294279677458 81.21275383987944 472.73771166392794 -53.12895127035474 0.0 0.0
932.4297725689814 107.96906189678754 517.2943072365775 -51.96145580706073 0.0 0.0
993.3379846981752 135.99411286506637 562.1269675708544 -50.57224132890865 0.0 0.0
1054.5740306631774 166.2883917963734 608.1220963527836 -49.09305524976139 0.0 0.0
1116.761311156596 198.63275436672092 655.5416670357762 -47.38502021349843 0.0 0.0
1179.5937027684374 233.24274955420483 704.3801331538862 -44.93170391138326 0.0 0.0
1242.0046485165344 270.0677193190223 754.0706037335856 -41.32436766047349 0.0 0.0
1303.9025454324935 310.21665857435215 805.0720537565917 -36.67702888593981 0.0 0.0
1360.6963062084253 350.4176620810454 853.457835137295 -30.58811481769826 0.0 0.0
1399.576492867709 379.137124264155 887.1224378946985 -20.842783280900125 0.0 0.0
1399.5764928674253 379.1371242638896 887.1224378944602 20.842783280964476 0.0 0.0
1360.6963062075 350.4176620801564 853.4578351365822 30.588114817766602 0.0 0.0
1303.9025454325915 310.21665857449875 805.0720537565546 36.67702888590365 0.0 0.0
1242.0046485160906 270.06771931866683 754.0706037331618 41.32436766061568 0.0 0.0
1179.5937027675973 233.2427495534604 704.3801331532044 44.931703911450654 0.0 0.0
1116.7613111562075 198.6327543664556 655.5416670354863 47.3850202135198 0.0 0.0
1054.5740306630234 166.28839179635276 608.1220963526479 49.09305524977143 0.0 0.0
993.3379846980383 135.9941128650983 562.1269675706861 50.57224132896718 0.0 0.0
932.4297725690113 107.96906189701859 517.294307236533 51.961455807081165 0.0 0.0
871.4294279672021 81.21275383953876 472.7377116635467 53.128951270386246 0.0 0.0
809.1150275231687 56.01332137086365 427.51137914384447 53.30052421113503 0.0 0.0
745.2239708196211 32.932971448756916 380.29581496390233 52.0954720281147 0.0 0.0
679.1176198014073 13.357184897818726 327.96589696105764 49.94876479987057 0.0 0.0
610.5406174410621 -0.046891337497385166 267.1876819918034 48.23911332868849 0.0 0.0
536.772818898731 -11.017228172823565 196.26425568474625 49.513521570896366 0.0 0.0
450.93690629351113 -12.485739693311885 137.7828321034852 54.65485698879638 0.0 0.0
361.45585718730644 1.425770632980556 108.93043620104481 51.541463469443286 0.0 0.0
275.90916425305284 28.67766132544996 91.37604767355083 31.90293772314945 0.0 0.0
142.86308082098722 -19.39479351756207 37.040486191027526 39.99289259160684 0.0 0.0
10.152165704039575 -538.5405742596098 -255.17930898121378 163.4277173900909 0.0 0.0
-6.425123315579114 -522.4700582025688 -245.71908361075583 -165.92058846059987 0.0 0.0
84.5204437555022 -24.52612100327539 17.998296825668046 -84.36029358886816 0.0 0.0
215.91302198776788 27.78096151023248 73.10819504940011 -60.28121893883038 0.0 0.0
311.2820612815761 6.889102584106295 95.44328434308585 -71.65630896632894 0.0 0.0
401.7914807277126 -9.396228205006897 119.68384288317381 -78.81750808337844 0.0 0.0
496.6319109296518 -12.662768992382766 169.05689120599428 -72.82540591964295 0.0 0.0
578.2409917248888 -2.4357631112205933 239.97840287939488 -68.6309208466972 0.0 0.0
650.310336760361 11.509755052982257 306.18251940398284 -69.7746918726934 0.0 0.0
715.9296548378908 28.900258428367952 360.3490765142946 -71.65397256815989 0.0 0.0
777.5990340513705 49.33623581483488 406.8818359030676 -72.63556150780371 0.0 0.0
836.4180821448041 71.14861274325065 449.4467674633927 -72.06312077480524 0.0 0.0
893.4301769452634 94.0185101992439 490.38295722284136 -70.41469158957801 0.0 0.0
949.4177188178724 117.86810503667891 530.8067422591548 -68.53235563079346 0.0 0.0
1006.0066386436981 143.5476391085592 572.2549471883269 -66.63790315690697 0.0 0.0
1062.9024391184203 170.7054660746491 614.4867937057832 -64.37788371649742 0.0 0.0
1119.693115578114 199.77495446653205 657.5625403719894 -61.20273852582911 0.0 0.0
1177.1828822016014 231.41431697365346 702.2150759356375 -56.8259176961599 0.0 0.0
1234.466302730317 266.29982278345597 748.295838296156 -50.870458378038435 0.0 0.0
1286.8798791607874 300.9406742146116 791.7361649936975 -41.80561328910613 0.0 0.0
1323.541046967475 325.7611371935026 822.3540535716784 -26.68891213615147 0.0 0.0
1323.5410469670594 325.76113719309933 822.354053571358 26.688912136213087 0.0 0.0
1286.879879161516 300.9406742154108 791.7361649941848 41.80561328929738 0.0 0.0
1234.4663027309898 266.2998227842216 748.2958382965805 50.87045837817563 0.0 0.0
1177.182882201263 231.4143169733974 702.2150759353557 56.82591769623321 0.0 0.0
1119.6931155781972 199.77495446673424 657.5625403719531 61.2027385259191 0.0 0.0
1062.9024391179405 170.7054660742797 614.4867937053668 64.3778837164904 0.0 0.0
1006.0066386433052 143.5476391083287 572.254947188008 66.63790315702028 0.0 0.0
949.4177188176907 117.86810503668745 530.8067422590484 68.5323556308892 0.0 0.0
893.4301769443218 94.01851019843569 490.3829572221747 70.41469158947126 0.0 0.0
836.4180821445773 71.14861274323127 449.446767463164 72.06312077485856 0.0 0.0
777.5990340510737 49.33623581476577 406.8818359028397 72.63556150778237 0.0 0.0
715.9296548370546 28.900258427686687 360.3490765136951 71.65397256801141 0.0 0.0
650.3103367599185 11.509755052778374 306.18251940361114 69.77469187262986 0.0 0.0
578.2409917246576 -2.4357631111028155 239.97840287915048 68.6309208467261 0.0 0.0
496.6319109294068 -12.662768992259208 169.05689120581383 72.82540591957962 0.0 0.0
401.7914807272968 -9.396228205149399 119.6838428830072 78.81750808327376 0.0 0.0
311.2820612813676 6.889102583961466 95.4432843429812 71.6563089661557 0.0 0.0
215.91302198783913 27.780961510409412 73.10819504947456 60.28121893863822 0.0 0.0
84.52044375569491 -24.526121002875602 17.998296825845784 84.36029358870377 0.0 0.0
-6.4251233154675305 -522.4700582022614 -245.71908361045462 165.9205884604753 0.0 0.0
-9.199453950006287 -495.84551529249023 -223.01109567018082 -164.17059753048886 0.0 0.0
50.25489960506497 -30.29995746752613 5.986482641261649 -118.79780442642031 0.0 0.0
163.68094859136667 23.83486952907461 56.254745436132374 -89.10370275858273 0.0 0.0
258.319150627126 10.11393201284698 80.52964704433077 -93.14165616182093 0.0 0.0
344.99124536813787 -4.687383172196912 102.52651959898274 -101.74666857404549 0.0 0.0
445.0935140149132 -12.851147277038493 141.8417986031673 -99.00081710767556 0.0 0.0
538.013584707648 -5.698816855132899 207.72486843548413 -91.45032431572683 0.0 0.0
615.0643685117678 9.252312174954287 278.5949952315737 -89.72920834307799 0.0 0.0
681.0163068878285 24.93571596762447 335.8762715360134 -90.92706395299828 0.0 0.0
740.9039692295909 42.429914719899216 382.60669597724564 -91.41025805087207 0.0 0.0
796.6651836400322 60.87919768266791 423.2051567030255 -90.36174238562856 0.0 0.0
849.5492332240242 79.87153965867165 460.68859979899673 -88.22690031821948 0.0 0.0
901.2178150336401 99.63292863413534 497.1766301427069 -86.00211859678905 0.0 0.0
952.3937280596077 120.70419242847261 533.73886379473 -83.68683581262306 0.0 0.0
1003.9435970498735 142.8262824665096 570.845746427836 -80.98248881116427 0.0 0.0
1055.7830959981013 166.27531304200346 608.6875867775034 -77.34534007464238 0.0 0.0
1107.171146842396 191.84283756830902 647.2941547486809 -72.32769074383397 0.0 0.0
1158.96662324947 220.4522041450134 687.5235752019648 -65.24701759416217 0.0 0.0
1207.8003617578413 249.6682515242781 726.4733567451048 -53.4949564302721 0.0 0.0
1244.4137070099096 271.89025504478917 755.7502415814669 -33.36209566088071 0.0 0.0
1244.4137070097336 271.8902550446318 755.7502415814214 33.362095660955575 0.0 0.0
1207.8003617577967 249.6682515243313 726.473356745176 53.49495643062862 0.0 0.0
1158.9666232494992 220.45220414510885 687.5235752019797 65.24701759420614 0.0 0.0
1107.1711468417589 191.84283756775642 647.2941547481682 72.32769074392138 0.0 0.0
1055.7830959976745 166.2753130416978 608.687586777189 77.3453400747411 0.0 0.0
1003.9435970497159 142.82628246644396 570.8457464276519 80.98248881113621 0.0 0.0
952.3937280589146 120.70419242792039 533.7388637942109 83.68683581266569 0.0 0.0
901.2178150330677 99.63292863367508 497.17663014225997 86.00211859673996 0.0 0.0
849.549233223932 79.8715396587503 460.6885997988919 88.22690031819768 0.0 0.0
796.6651836398945 60.879197682760775 423.20515670288376 90.36174238569708 0.0 0.0
740.903969228703 42.42991471914161 382.60669597661257 91.4102580506986 0.0 0.0
681.0163068874674 24.93571596747301 335.87627153570315 90.92706395292413 0.0 0.0
615.0643685113398 9.25231217475207 278.59499523118063 89.72920834297673 0.0 0.0
538.0135847069887 -5.698816855514178 207.72486843496367 91.45032431566648 0.0 0.0
445.09351401454086 -12.851147277128025 141.84179860294205 99.00081710754772 0.0 0.0
344.99124536790407 -4.6873831721048145 102.5265195989405 101.7466685739471 0.0 0.0
258.3191506270991 10.11393201305754 80.52964704438652 93.14165616177453 0.0 0.0
163.68094859131918 23.834869528956652 56.25474543608274 89.10370275848452 0.0 0.0
50.254899605133545 -30.299957467362535 5.986482641331303 118.79780442617692 0.0 0.0
-9.19945394995925 -495.84551529221875 -223.01109566991556 164.1705975304 0.0 0.0
-5.831740148306324 -462.24715990414074 -193.53018617172683 -161.0386201956734 0.0 0.0
28.31177370077694 -35.10371992731915 -2.0375838679626623 -144.24334565185873 0.0 0.0
118.58927154627997 18.574420596106638 41.149107642715975 -114.91915529555811 0.0 0.0
204.67777119547955 12.115094117351655 65.03518278529623 -114.19464903561742 0.0 0.0
285.1974299420308 -0.8786031190600923 85.2782769744957 -123.17235919838666 0.0 0.0
377.8373764612655 -10.83129369674846 115.19914548661893 -125.56421752799857 0.0 0.0
480.6071362447389 -7.49047170161594 171.57447298889642 -117.52119491244741 0.0 0.0
568.0439293527481 5.3103509912589555 242.15645671283409 -111.35536646655041 0.0 0.0
638.7100283153591 20.626469665389372 304.86510574721916 -110.19913372140554 0.0 0.0
697.7552436888006 35.4584549157832 353.2995931592482 -109.68217707465786 0.0 0.0
750.5002801730732 50.26078082089169 392.61361312579766 -108.04838018541508 0.0 0.0
799.797509664679 65.58863237176509 427.49689349798734 -105.49632785861554 0.0 0.0
846.9736776099674 81.43681623017622 460.2749007840328 -102.88223121704263 0.0 0.0
893.1939864433207 97.79887537531202 492.2619518635072 -100.35707979704624 0.0 0.0
939.5038434874823 114.87073631358395 524.3415403033808 -97.36859933387368 0.0 0.0
985.4286725580139 133.13174735826453 556.6933331409709 -93.20249352661665 0.0 0.0
1031.062289604169 151.99062377137938 589.143833284544 -87.76644905061411 0.0 0.0
1076.553448507971 172.9600484674589 622.4613097159721 -79.94554307287324 0.0 0.0
1121.593064867109 196.26340277096986 656.5643140648692 -66.04658374171143 0.0 0.0
1159.860266300959 216.4694529334724 685.6111946433822 -41.36580373594354 0.0 0.0
1159.86026630114 216.46945293368287 685.6111946434531 41.365803736056264 0.0 0.0
1121.593064867181 196.26340277118146 656.5643140649476 66.04658374203738 0.0 0.0
1076.5534485079695 172.960048467532 622.4613097159789 79.94554307302691 0.0 0.0
1031.062289604851 151.99062377226392 589.1438332849611 87.76644905092056 0.0 0.0
985.4286725575325 133.13174735788766 556.6933331405774 93.20249352663178 0.0 0.0
939.5038434866523 114.87073631281149 524.3415403028023 97.3685993337952 0.0 0.0
893.1939864431425 97.79887537527658 492.261951863332 100.35707979711731 0.0 0.0
846.9736776093476 81.43681622974246 460.2749007835379 102.88223121714196 0.0 0.0
799.7975096639557 65.58863237120175 427.4968934974399 105.49632785863255 0.0 0.0
750.5002801725643 50.26078082060616 392.61361312541936 108.04838018544736 0.0 0.0
697.7552436882986 35.45845491542218 353.29959315881985 109.68217707452514 0.0 0.0
638.7100283152394 20.6264696655872 304.8651057470851 110.19913372145328 0.0 0.0
568.0439293525264 5.310350991365496 242.15645671258437 111.35536646653159 0.0 0.0
480.6071362446361 -7.490471701093316 171.5744729888481 117.5211949126293 0.0 0.0
377.8373764609541 -10.83129369672518 115.19914548649433 125.5642175278115 0.0 0.0
285.1974299418144 -0.8786031190368355 85.27827697444245 123.17235919824554 0.0 0.0
204.67777119530538 12.115094117231587 65.03518278520886 114.19464903538582 0.0 0.0
118.58927154625464 18.57442059602258 41.14910764268315 114.91915529531471 0.0 0.0
28.31177370076893 -35.103719927145676 -2.037583867913024 144.24334565160677 0.0 0.0
-5.831740148232051 -462.2471599039047 -193.53018617146492 161.03862019551235 0.0 0.0
-0.1840306303695911 -423.03740974767464 -161.01716916248563 -157.55574441147013 0.0 0.0
11.763125201711285 -39.67435396981202 -8.373368630430218 -161.95518145028421 0.0 0.0
78.6667237591351 13.335736243828183 27.600738000888978 -136.24413336707283 0.0 0.0
151.83339356285697 13.80142754090183 49.688559133502864 -133.39699832092649 0.0 0.0
221.75319165237022 1.725264544330896 67.07240095496154 -142.46283838487255 0.0 0.0
302.5448028634235 -6.960104658924475 90.22434075245053 -150.0567679714371 0.0 0.0
405.04499389605064 -7.835400860955758 133.32559239643479 -145.93218149572803 0.0 0.0
503.3537087652462 1.653396526438521 197.44554814402937 -136.09275484358147 0.0 0.0
582.6676393960586 14.981331609723078 262.86698102706544 -130.48239803587632 0.0 0.0
644.9455084500078 28.22910612304672 315.8277850932965 -127.75595746859615 0.0 0.0
695.5036810836589 39.3390761254197 355.3375720343965 -125.21450800472762 0.0 0.0
741.6031172941306 51.20018765595133 388.79962249314883 -122.23938176765489 0.0 0.0
784.5182495370415 63.0602296874049 418.50603753808616 -119.3123996353248 0.0 0.0
825.6665064909071 75.1703236689473 446.40688487730546 -116.5865425576438 0.0 0.0
866.0133825848272 86.9852926668094 473.1580534735743 -113.5059386621861 0.0 0.0
907.2616118821645 100.06303848312973 500.7041847032842 -109.06498108563358 0.0 0.0
946.7477375268464 112.6337155673211 527.03708202506 -102.98635913758763 0.0 0.0
984.5841108404019 124.84554545151366 552.2641161348749 -94.83589904685941 0.0 0.0
1025.1900710404907 139.9808217520353 580.0983059602959 -79.88484599743718 0.0 0.0
1066.8892856973162 158.20267143140558 609.7826314804506 -51.46089349038002 0.0 0.0
1066.8892856985108 158.202671432637 609.7826314813019 51.46089349052755 0.0 0.0
1025.1900710411599 139.98082175289497 580.0983059608535 79.88484599779335 0.0 0.0
984.5841108392805 124.84554545044332 552.2641161340921 94.83589904695444 0.0 0.0
946.7477375254655 112.63371556598923 527.0370820240867 102.98635913763582 0.0 0.0
907.261611881861 100.06303848281976 500.7041847030188 109.06498108548291 0.0 0.0
866.0133825843262 86.9852926663985 473.1580534732322 113.50593866217159 0.0 0.0
825.6665064904756 75.17032366864595 446.40688487701806 116.58654255769875 0.0 0.0
784.5182495365726 63.06022968706719 418.5060375377855 119.31239963535968 0.0 0.0
741.6031172937554 51.20018765573808 388.79962249290855 122.23938176764446 0.0 0.0
695.5036810836308 39.33907612556432 355.3375720343209 125.21450800466692 0.0 0.0
644.9455084494601 28.22910612261815 315.8277850928366 127.7559574684596 0.0 0.0
582.6676393955447 14.981331609432708 262.86698102666196 130.48239803583093 0.0 0.0
503.35370876483853 1.653396526389006 197.44554814369593 136.09275484359233 0.0 0.0
405.0449938955546 -7.8354008609583605 133.32559239619792 145.93218149578558 0.0 0.0
302.54480286299713 -6.960104659169875 90.22434075224797 150.05676797125392 0.0 0.0
221.7531916522961 1.72526454460644 67.07240095503069 142.46283838471962 0.0 0.0
151.8333935627868 13.801427541056933 49.688559133528955 133.39699832078887 0.0 0.0
78.66672375918687 13.335736243984577 27.60073800095143 136.24413336690202 0.0 0.0
11.763125201588519 -39.67435396978533 -8.37336863045904 161.95518145014333 0.0 0.0
-0.18403063032161526 -423.0374097472914 -161.01716916221423 157.5557444114137 0.0 0.0
3.475282255565638 -379.7880975450811 -130.46585772831284 -154.28313348861957 0.0 0.0
-4.116878825066915 -44.336045958003794 -14.5358487406812 -172.35216768769 0.0 0.0
42.37562138402537 9.161165027041758 15.46103592332014 -153.04989254946508 0.0 0.0
100.4066872611371 15.124263424270339 34.65762844287508 -149.5832898429988 0.0 0.0
156.59779188409175 4.269972140114195 48.26720755357029 -158.9287668075813 0.0 0.0
219.1375811570989 -3.277812346580475 65.46389119766155 -169.85051553892475 0.0 0.0
305.9997411241884 -5.332886735361901 95.20988769615356 -173.54722038291033 0.0 0.0
411.7488197661701 -0.6879939012263492 145.51832223180767 -164.8594204806418 0.0 0.0
503.40510325831724 8.65886030770691 206.56724271697016 -153.94376632478682 0.0 0.0
572.7403104412792 19.936005904272037 262.9812511539566 -146.5364543218035 0.0 0.0
625.6694110459943 28.021689821002013 305.7736656564382 -142.41129770076762 0.0 0.0
668.8323152385983 36.342615830290505 339.30917879390876 -138.58356011156488 0.0 0.0
707.8682911402833 44.78562541963876 367.66775288650626 -135.30808988352314 0.0 0.0
744.1203966372647 52.618487207788036 392.4168139132671 -132.46205043630573 0.0 0.0
779.1045308903124 59.69212161852122 414.9917115188906 -129.4825188140877 0.0 0.0
814.1493507107964 66.71639795922312 436.7989313936323 -124.97869697500558 0.0 0.0
849.8541486682481 74.19063027733792 458.8190587102391 -118.25195212809547 0.0 0.0
880.4697767761377 77.76424983868152 476.3720567408708 -109.57789522743131 0.0 0.0
911.859553270979 80.39555594619631 493.5150696523272 -94.93746630611219 0.0 0.0
957.5738839421713 94.91128846703079 523.181736162023 -64.68497661231504 0.0 0.0
957.5738839412616 94.91128846615547 523.181736161375 64.6849766124187 0.0 0.0
911.8595532696869 80.39555594490065 493.51506965146274 94.93746630623863 0.0 0.0
880.4697767761594 77.76424983891332 476.3720567409264 109.57789522772747 0.0 0.0
849.8541486683768 74.19063027766055 458.8190587103018 118.25195212831036 0.0 0.0
814.1493507104691 66.71639795898761 436.79893139339333 124.97869697501437 0.0 0.0
779.1045308898488 59.6921216181517 414.99171151853443 129.48251881412858 0.0 0.0
744.1203966373631 52.618487208115454 392.4168139133153 132.46205043645767 0.0 0.0
707.8682911409477 44.78562542067456 367.6677528869703 135.30808988375716 0.0 0.0
668.8323152385805 36.342615830566984 339.3091787938726 138.58356011170633 0.0 0.0
625.6694110456749 28.021689820862065 305.77366565617547 142.4112977007261 0.0 0.0
572.7403104409055 19.936005904065304 262.9812511536144 146.53645432170987 0.0 0.0
503.4051032584324 8.658860308312537 206.56724271700614 153.94376632484705 0.0 0.0
411.74881976599863 -0.6879939008706728 145.51832223174142 164.8594204806871 0.0 0.0
305.99974112348445 -5.332886735834908 95.20988769577625 173.54722038278456 0.0 0.0
219.13758115684618 -3.2778123467952485 65.46389119751842 169.85051553872927 0.0 0.0
156.59779188405864 4.269972140323882 48.267207553629625 158.9287668073572 0.0 0.0
100.40668726106145 15.124263424265282 34.65762844285169 149.58328984283048 0.0 0.0
42.375621384115576 9.161165027287822 15.461035923421019 153.04989254927295 0.0 0.0
-4.116878825162338 -44.3360459579403 -14.53584874069091 172.35216768751366 0.0 0.0
3.475282255516774 -379.78809754482717 -130.46585772815368 154.28313348849235 0.0 0.0
-0.3295577660714919 -333.40921666545955 -106.77503520477484 -148.86577605616822 0.0 0.0
-21.597124756304247 -49.70017494386737 -21.387949620533416 -178.5433735438418 0.0 0.0
8.846169789041925 6.666549917391303 4.653520070072989 -165.3312723300854 0.0 0.0
50.49555030809279 15.935466632338063 19.928191358628823 -162.19747467558625 0.0 0.0
90.40006026849142 7.703585075990386 29.444445411939547 -170.96043801066077 0.0 0.0
132.09911944705726 -0.2981643969427017 39.857118766065874 -185.14771245593715 0.0 0.0
187.9897396676343 -2.3878731903554264 57.50447134671193 -194.52682379120134 0.0 0.0
273.3988465403297 0.33305198207791253 88.76119093745388 -193.61760904540319 0.0 0.0
375.279517518549 4.3711283902677565 134.18466078134665 -183.02162462765378 0.0 0.0
458.81049344956773 10.20629349980657 184.60069612980146 -169.2278904907052 0.0 0.0
518.7990762243356 16.723747410012304 229.64590558494427 -160.54879099026726 0.0 0.0
562.744833096478 20.93035566642091 264.5708376024652 -155.31508498197118 0.0 0.0
599.4295542783915 26.145424031575736 293.9510177449687 -151.27103013750335 0.0 0.0
631.4883747214 30.399823497577607 318.3056223502546 -148.06837278276657 0.0 0.0
660.677136763934 32.81707645581595 338.3979446696863 -145.0542955309503 0.0 0.0
689.3082249937256 33.688649639719245 355.7676966192367 -140.9665765280045 0.0 0.0
721.0299856788374 34.809604073075946 373.3354723639262 -134.04063480598708 0.0 0.0
752.8275940443615 34.77068228311008 390.0591093562308 -123.90026087214468 0.0 0.0
771.6048472351056 19.35801892571719 392.8576369673718 -110.25595177334625 0.0 0.0
817.4142733414552 21.485228042932334 416.0407001434202 -82.54292465908281 0.0 0.0
817.4142733415646 21.485228043098118 416.0407001435358 82.5429246591987 0.0 0.0
771.6048472346446 19.35801892539729 392.85763696710706 110.25595177370815 0.0 0.0
752.82759404449 34.77068228352877 390.059109356302 123.90026087256848 0.0 0.0
721.029985679222 34.80960407378393 373.3354723641611 134.04063480625646 0.0 0.0
689.3082249937847 33.68864963994966 355.7676966192365 140.966576528092 0.0 0.0
660.6771367639573 32.817076456054465 338.39794466971534 145.05429553106723 0.0 0.0
631.4883747215915 30.39982349792811 318.30562235039525 148.06837278282563 0.0 0.0
599.4295542780535 26.145424031232892 293.951017744707 151.27103013745594 0.0 0.0
562.7448330953493 20.93035566512914 264.5708376016047 155.3150849818636 0.0 0.0
518.7990762237607 16.723747409467094 229.6459055844614 160.54879099015506 0.0 0.0
458.8104934492364 10.20629349973565 184.60069612955834 169.22789049066088 0.0 0.0
375.2795175182282 4.371128390396063 134.18466078119206 183.0216246277263 0.0 0.0
273.39884654029686 0.3330519828703711 88.76119093763796 193.61760904543075 0.0 0.0
187.98973966770794 -2.387873189658265 57.504471346926486 194.52682379106764 0.0 0.0
132.09911944686084 -0.29816439720426313 39.857118765927126 185.14771245572237 0.0 0.0
90.40006026833221 7.703585075640051 29.444445411789907 170.96043801044394 0.0 0.0
50.49555030798504 15.935466632146577 19.92819135853946 162.19747467542868 0.0 0.0
8.846169789038711 6.666549917511853 4.653520070108309 165.33127232984972 0.0 0.0
-21.597124756369112 -49.70017494383946 -21.38794962054503 178.5433735436423 0.0 0.0
-0.32955776612994825 -333.40921666510474 -106.77503520463999 148.86577605604063 0.0 0.0
-9.301833120538069 -285.41808562439223 -89.43234808091447 -139.86003338264885 0.0 0.0
-38.68256336342121 -54.5693415090716 -27.972823221692448 -182.03890770145333 0.0 0.0
-22.708842127762672 5.245451543585071 -5.238864550346456 -173.43975998184973 0.0 0.0
2.1600599444240114 16.536103285931777 5.608619263237731 -170.6508986867742 0.0 0.0
24.191043244377994 11.163858725517569 10.605349957067503 -178.46480742967634 0.0 0.0
42.46997571826333 3.6734364247420115 13.949047369892298 -193.0598797203488 0.0 0.0
62.8217795099061 0.022167422288180028 19.420850594453146 -206.42262082214773 0.0 0.0
92.72628729711897 0.08683299311663628 29.395479242762622 -212.7149505093314 0.0 0.0
138.73832991807024 2.57820465910779 45.98218305348062 -206.83093159226385 0.0 0.0
198.3704675080491 4.294470621854366 67.78011263745317 -195.82945475298442 0.0 0.0
257.7751793213351 6.581967344002443 93.54015461754585 -182.39993903960493 0.0 0.0
305.5012174305622 7.5717670533128185 118.93157083940507 -173.96610958049848 0.0 0.0
348.5328409050465 9.764297663043166 145.38705224476612 -168.67854497276204 0.0 0.0
386.1270252882699 8.980423985416252 169.744216441656 -164.15582283952853 0.0 0.0
414.463504548843 6.807650104240338 189.8206440397169 -159.834392348196 0.0 0.0
443.2505424686182 1.2545492960333746 207.63477479096213 -156.017753343914 0.0 0.0
479.1321224078225 -5.583507492873224 226.05555533623755 -150.0932644136022 0.0 0.0
525.2746176364225 -10.332935009037982 249.36015830190115 -139.8556301962165 0.0 0.0
565.7886782584179 -26.92340470954008 265.4880047328389 -122.83632465959128 0.0 0.0
590.2291738093802 -77.6716362414735 253.19670481952951 -103.4059725037252 0.0 0.0
590.2291738094297 -77.67163624142728 253.19670481958357 103.40597250393095 0.0 0.0
565.7886782583078 -26.92340470962131 265.48800473275253 122.83632465994879 0.0 0.0
525.2746176359001 -10.332935009495799 249.36015830160318 139.8556301965546 0.0 0.0
479.13212240776045 -5.583507492818285 226.05555533623726 150.09326441368336 0.0 0.0
443.2505424695933 1.2545492972628125 207.63477479159556 156.01775334390584 0.0 0.0
414.4635045492163 6.807650104914401 189.8206440399947 159.83439234821873 0.0 0.0
386.1270252882376 8.980423985239312 169.74421644154594 164.15582283963352 0.0 0.0
348.53284090531145 9.76429766353818 145.38705224495658 168.67854497289403 0.0 0.0
305.50121743052887 7.571767053181041 118.93157083932725 173.9661095804912 0.0 0.0
257.7751793211271 6.581967343814043 93.54015461738021 182.39993903958774 0.0 0.0
198.3704675079487 4.294470621796016 67.78011263738988 195.82945475291268 0.0 0.0
138.73832991787742 2.578204658953661 45.98218305336266 206.83093159233215 0.0 0.0
92.72628729703209 0.08683299310074766 29.39547924272663 212.71495050930173 0.0 0.0
62.82177950976998 0.02216742208935152 19.420850594350945 206.422620821938 0.0 0.0
42.46997571834808 3.6734364249459803 13.94904736997828 193.05987972011056 0.0 0.0
24.191043244475207 11.163858725536869 10.60534995710364 178.46480742941313 0.0 0.0
2.1600599444601603 16.536103285922284 5.608619263245769 170.65089868654798 0.0 0.0
-22.7088421277304 5.245451543707677 -5.238864550300104 173.43975998162475 0.0 0.0
-38.682563363410615 -54.56934150901739 -27.972823221673977 182.03890770131196 0.0 0.0
-9.301833120596942 -285.4180856240991 -89.43234808084341 139.86003338253408 0.0 0.0
-19.60786285827884 -238.9137751503258 -77.54608411929685 -128.52529746718102 0.0 0.0
-52.906202726981974 -55.96065434352414 -32.65782219226193 -181.74817811166986 0.0 0.0
-52.61452213668015 3.880949050780805 -14.619666999644469 -177.65439940029853 0.0 0.0
-44.59276985804947 17.005371843394645 -8.276213749655083 -174.70406542267332 0.0 0.0
-41.41573950769214 14.302445720681325 -8.13034603885932 -180.72458792149416 0.0 0.0
-47.586037157866556 7.842411245501419 -12.032221761271423 -194.0139150417182 0.0 0.0
-64.08224942128159 2.821959658478569 -18.954379686417305 -206.53420870390258 0.0 0.0
-92.7690756942386 0.3361645805615847 -29.28254608627586 -212.82542386532015 0.0 0.0
-138.46250213422286 -2.555051926035242 -45.88283409289407 -206.84564136948444 0.0 0.0
-198.1951504726079 -4.448114104323867 -67.77305276885227 -195.79032312050506 0.0 0.0
-258.0082245176165 -5.905090761120519 -93.14089628217991 -182.36703829514508 0.0 0.0
-306.5882435299385 -6.649740368306723 -119.01564006426878 -173.6490042188819 0.0 0.0
-351.8028066440744 -8.207891438612592 -146.22651367548596 -168.1934066911594 0.0 0.0
-391.7496670070751 -10.481775497741026 -172.764766993742 -163.83864316950832 0.0 0.0
-419.39310457919703 -16.97981551938561 -196.44142103558164 -161.07086694192222 0.0 0.0
-435.93015860424316 -27.344981933057156 -216.80487234721085 -161.183028836924 0.0 0.0
-431.1036726157895 -40.23932465622981 -228.82030039052444 -162.92792275243082 0.0 0.0
-376.4381837409943 -40.746743441847315 -219.64370393575857 -164.33287922245924 0.0 0.0
-200.3945208512854 -34.814631808209114 -147.11481973967025 -166.05085915688733 0.0 0.0
22.42038723746441 -169.8156283449489 -62.461087468127644 -133.08733383515536 0.0 0.0
22.42038723749829 -169.81562834480374 -62.46108746807835 133.087333835585 0.0 0.0
-200.39452085128283 -34.81463180811244 -147.114819739672 166.05085915731217 0.0 0.0
-376.4381837404783 -40.74674344103326 -219.64370393527068 164.33287922274295 0.0 0.0
-431.1036726162599 -40.23932465714674 -228.82030039087897 162.92792275255192 0.0 0.0
-435.93015860521047 -27.344981934852896 -216.80487234799455 161.18302883704865 0.0 0.0
-419.3931045793587 -16.979815520414874 -196.4414210359035 161.07086694205216 0.0 0.0
-391.7496670067268 -10.481775497540013 -172.7647669934659 163.83864316949825 0.0 0.0
-351.80280664386845 -8.207891439133093 -146.22651367546294 168.19340669128684 0.0 0.0
-306.58824352928525 -6.649740368216634 -119.01564006393644 173.64900421886946 0.0 0.0
-258.0082245171357 -5.905090761177373 -93.1408962819656 182.3670382951186 0.0 0.0
-198.19515047190447 -4.448114104278606 -67.77305276860173 195.7903231204328 0.0 0.0
-138.46250213392258 -2.5550519263181144 -45.88283409287682 206.84564136960927 0.0 0.0
-92.76907569388926 0.33616458080506284 -29.282546086091525 212.82542386525023 0.0 0.0
-64.08224942093706 2.8219596589130607 -18.9543796861763 206.5342087037628 0.0 0.0
-47.586037157492825 7.842411246103297 -12.032221760977226 194.01391504150502 0.0 0.0
-41.41573950756599 14.302445720625789 -8.130346038839733 180.72458792130692 0.0 0.0
-44.59276985811885 17.005371843086436 -8.276213749770148 174.70406542249629 0.0 0.0
-52.614522136655985 3.8809490506088657 -14.619666999690985 177.654399400091 0.0 0.0
-52.90620272698543 -55.96065434356768 -32.657822192277386 181.74817811154622 0.0 0.0
-19.607862858325912 -238.91377515013806 -77.54608411925797 128.52529746703658 0.0 0.0
-24.324858376734234 -194.6276855263014 -65.68576317091069 -115.75040833207109 0.0 0.0
-64.63585926641707 -54.461591385967765 -35.72888048028876 -177.56672355745013 0.0 0.0
-80.62122577422407 2.7027892190506893 -23.3763806291 -177.73151108949054 0.0 0.0
-89.82311498375894 17.1145316527855 -21.806860332503902 -174.38542817180422 0.0 0.0
-105.62536474995647 16.824454804280446 -26.67758276757828 -177.57178493172114 0.0 0.0
-136.2293822564891 11.201124483964449 -37.9621832605968 -187.46588248413323 0.0 0.0
-189.00151989692492 5.154193448232375 -57.00636666750993 -195.47009534257575 0.0 0.0
-273.3132231116013 0.0216936731987456 -88.64770987547023 -193.82333872677842 0.0 0.0
-375.02437520016827 -4.424089990322546 -134.10101951764585 -183.05383629000175 0.0 0.0
-458.64183240457464 -10.140300773709058 -184.48335774229804 -169.17555988267674 0.0 0.0
-518.5247290824799 -16.246832951538586 -229.35371824531316 -160.38951563557652 0.0 0.0
-562.5672379366554 -19.915587198668632 -264.1359623751499 -154.87583300693882 0.0 0.0
-599.9038234850491 -24.949258256649898 -293.70142943464555 -150.3183704045318 0.0 0.0
-634.3552980332256 -31.72130915966646 -320.18924928464367 -147.26174484297695 0.0 0.0
-667.3921105719194 -41.67763743337038 -345.58345913620246 -146.4753101744048 0.0 0.0
-697.9485507501441 -55.52831295887587 -370.2336489362458 -148.6451760003765 0.0 0.0
-722.7164392030905 -72.5545650275202 -393.02778157963735 -154.6079808281385 0.0 0.0
-736.1862041462473 -89.32819470344168 -410.19440421269576 -164.14515633462605 0.0 0.0
-773.0507001545325 -144.28170850567557 -456.0689152626187 -173.43902709779437 0.0 0.0
-752.0430872771701 -213.83762675593852 -479.1489128012313 -186.39155979197713 0.0 0.0
-752.0430872770261 -213.83762675585498 -479.14891280116956 186.39155979228315 0.0 0.0
-773.0507001542942 -144.28170850565476 -456.0689152625043 173.43902709818093 0.0 0.0
-736.1862041457939 -89.32819470326149 -410.1944042124926 164.1451563348802 0.0 0.0
-722.7164392036245 -72.55456502826723 -393.0277815800072 154.60798082823527 0.0 0.0
-697.9485507497045 -55.52831295855819 -370.23364893594874 148.6451760003646 0.0 0.0
-667.3921105719783 -41.67763743348419 -345.5834591361683 146.47531017439297 0.0 0.0
-634.3552980333416 -31.721309160075705 -320.18924928473484 147.2617448430642 0.0 0.0
-599.9038234849158 -24.94925825667299 -293.7014294345406 150.31837040456486 0.0 0.0
-562.5672379361831 -19.915587198572545 -264.13596237485 154.87583300703054 0.0 0.0
-518.5247290822572 -16.246832951652557 -229.35371824508888 160.3895156355623 0.0 0.0
-458.6418324044846 -10.14030077423618 -184.48335774221474 169.17555988268077 0.0 0.0
-375.0243751997735 -4.424089990750307 -134.10101951755036 183.05383629019414 0.0 0.0
-273.31322311098745 0.021693673406118386 -88.64770987518122 193.82333872676566 0.0 0.0
-189.00151989673827 5.154193447752954 -57.0063666675849 195.47009534252595 0.0 0.0
-136.22938225647385 11.201124483450567 -37.96218326074348 187.46588248392445 0.0 0.0
-105.62536474977657 16.824454804268203 -26.677582767530836 177.57178493151957 0.0 0.0
-89.82311498351994 17.11453165310814 -21.806860332336964 174.38542817160848 0.0 0.0
-80.62122577405303 2.7027892191965486 -23.376380629007514 177.73151108939757 0.0 0.0
-64.63585926637009 -54.4615913859235 -35.728880480262035 177.56672355727244 0.0 0.0
-24.3248583767734 -194.62768552621483 -65.68576317089648 115.75040833195152 0.0 0.0
-25.761514663336715 -153.51846083939327 -53.78399265081899 -102.40567619346217 0.0 0.0
-74.39532563501338 -50.473702820384716 -37.460325681019235 -169.32048942654623 0.0 0.0
-106.84440776456317 1.727864303475568 -31.532012897707823 -173.60713368684048 0.0 0.0
-133.30917079014898 16.84795727488237 -34.927592470375004 -169.4869348291448 0.0 0.0
-168.24736719996378 18.177237610909412 -45.142233125040626 -169.46041855298802 0.0 0.0
-222.0050895549566 13.171346751152537 -63.5343757651511 -173.67520954185963 0.0 0.0
-306.2088910253908 7.875763439472163 -94.65426440980632 -174.64600424229707 0.0 0.0
-411.34483180476315 0.8819089518400673 -145.35087948999333 -165.21094925692736 0.0 0.0
-503.28144284358063 -8.69167567693065 -206.497198377828 -153.91615437679815 0.0 0.0
-572.6800792655258 -19.89679530519065 -262.93683034825546 -146.4800815948286 0.0 0.0
-625.4839702956423 -27.68491981114893 -305.57367049704897 -142.28174556044405 0.0 0.0
-668.5530826225369 -35.507656772625424 -338.83777224472703 -138.11508708343464 0.0 0.0
-707.9576059970647 -43.687490534972646 -367.18004337565606 -134.15343887738487 0.0 0.0
-746.0566302610882 -53.31388335622209 -393.56611528300846 -131.13035958666694 0.0 0.0
-784.7224131726439 -66.34817404894794 -420.76098957356635 -130.25940834159923 0.0 0.0
-823.1919713307313 -84.03655082420228 -449.58007375286564 -132.7816718774 0.0 0.0
-859.0005309143044 -105.44307853402427 -478.8346726593994 -139.4176695703506 0.0 0.0
-899.7711420495398 -139.66544296039115 -516.9500899579446 -147.1082469935812 0.0 0.0
-944.1074752031448 -190.56539918721055 -565.1910677977822 -154.60008647910297 0.0 0.0
-1016.1245018000559 -307.956931105747 -657.0630846785427 -165.78957229122284 0.0 0.0
-1016.1245017992251 -307.95693110504607 -657.0630846780971 165.78957229138504 0.0 0.0
-944.1074752026411 -190.56539918671504 -565.1910677974515 154.60008647923505 0.0 0.0
-899.7711420495804 -139.6654429607267 -516.9500899579583 147.10824699392055 0.0 0.0
-859.0005309140577 -105.44307853395028 -478.8346726591585 139.41766957046386 0.0 0.0
-823.1919713302445 -84.03655082376797 -449.58007375252066 132.78167187737603 0.0 0.0
-784.7224131725555 -66.34817404895955 -420.7609895734911 130.25940834163728 0.0 0.0
-746.0566302606499 -53.31388335590552 -393.5661152827007 131.13035958666643 0.0 0.0
-707.9576059966289 -43.68749053461731 -367.1800433752994 134.15343887733417 0.0 0.0
-668.553082622386 -35.50765677279194 -338.83777224461437 138.11508708351684 0.0 0.0
-625.4839702955222 -27.684919811302397 -305.573670496911 142.28174556040898 0.0 0.0
-572.6800792646295 -19.896795304425723 -262.9368303475791 146.48008159466355 0.0 0.0
-503.28144284306387 -8.691675676914858 -206.49719837746565 153.91615437693247 0.0 0.0
-411.34483180390947 0.8819089523211487 -145.3508794894755 165.21094925696062 0.0 0.0
-306.20889102435285 7.875763440371196 -94.65426440920356 174.64600424212747 0.0 0.0
-222.0050895543399 13.171346751762345 -63.53437576478862 173.67520954162742 0.0 0.0
-168.2473671996491 18.17723761107283 -45.142233124901125 169.46041855281894 0.0 0.0
-133.3091707900644 16.84795727468118 -34.92759247041101 169.48693482893628 0.0 0.0
-106.84440776443866 1.727864303549166 -31.532012897649203 173.60713368663204 0.0 0.0
-74.39532563498676 -50.473702820416484 -37.46032568102101 169.32048942628884 0.0 0.0
-25.76151466328761 -153.51846083918616 -53.78399265074213 102.4056761932444 0.0 0.0
-26.42326808155992 -116.23995793153945 -42.798967803929806 -88.80815494569947 0.0 0.0
-82.94089304828205 -44.49119551261157 -38.229626568268074 -157.15303433217775 0.0 0.0
-131.37549350655019 1.0603113880231998 -39.091762703121375 -165.1695178920114 0.0 0.0
-175.0970283027492 15.835780243301686 -47.775916739331414 -160.20919562056883 0.0 0.0
-228.34511490418186 18.166269839888116 -63.22989821817235 -156.06745058286128 0.0 0.0
-302.76866394318114 15.211747281270323 -88.40118640173958 -154.64044913337761 0.0 0.0
-404.0598148147161 10.045487970973445 -132.52312380309007 -147.49319158952835 0.0 0.0
-503.0132445908428 -1.5255294780008022 -197.23266329322303 -136.28976361769713 0.0 0.0
-582.6895448002482 -15.069892848991607 -262.88428532233957 -130.40660835369414 0.0 0.0
-644.9226376502447 -28.21804144044644 -315.8278930781271 -127.71076251229488 0.0 0.0
-695.3844973989634 -39.10979939537233 -355.19913039939127 -125.11567051054921 0.0 0.0
-741.4293055528117 -50.648773802664856 -388.4775770620937 -121.78258404042737 0.0 0.0
-784.4539482436251 -62.13905202403249 -418.0162783233942 -118.07384858353386 0.0 0.0
-826.4804961478862 -74.98676743390851 -446.637276941222 -114.9200057393823 0.0 0.0
-869.1462669398356 -90.60558041042495 -476.34849407889016 -113.79232664274157 0.0 0.0
-914.289176669153 -112.29855288141972 -510.0402833302111 -116.22241142867998 0.0 0.0
-963.3532720455241 -143.319650093465 -550.2780222456911 -122.10145187210829 0.0 0.0
-1018.0292700586137 -187.1793072191811 -599.9420647531786 -128.8094340671376 0.0 0.0
-1084.3556450403273 -254.83891071080083 -666.9978770652106 -133.57206455747325 0.0 0.0
-1169.0818651078398 -374.90265690133543 -767.9443003082167 -142.54564126978602 0.0 0.0
-1169.0818651079264 -374.9026569015134 -767.9443003083072 142.54564126994148 0.0 0.0
-1084.3556450408396 -254.83891071144464 -666.9978770655237 133.57206455769273 0.0 0.0
-1018.0292700583982 -187.17930721921198 -599.9420647530285 128.8094340674438 0.0 0.0
-963.3532720448351 -143.31965009290354 -550.2780222451483 122.10145187219297 0.0 0.0
-914.2891766686205 -112.29855288104648 -510.0402833298089 116.22241142876665 0.0 0.0
-869.146266939288 -90.60558040999169 -476.34849407854415 113.79232664275399 0.0 0.0
-826.4804961478467 -74.98676743406693 -446.63727694121206 114.92000573950165 0.0 0.0
-784.4539482430878 -62.139052023634655 -418.0162783230678 118.07384858349454 0.0 0.0
-741.4293055519038 -50.64877380190923 -388.4775770614616 121.7825840403772 0.0 0.0
-695.3844973987636 -39.109799395405176 -355.19913039921255 125.11567051052423 0.0 0.0
-644.9226376498927 -28.218041440372772 -315.82789307783116 127.7107625122383 0.0 0.0
-582.6895447995915 -15.069892848693947 -262.88428532183656 130.40660835375223 0.0 0.0
-503.01324459050556 -1.5255294780767437 -197.2326632929157 136.28976361771038 0.0 0.0
-404.05981481430024 10.04548797080445 -132.5231238028929 147.49319158954904 0.0 0.0
-302.768663942763 15.211747281291315 -88.40118640159591 154.6404491332226 0.0 0.0
-228.3451149039171 18.166269839834865 -63.22989821811317 156.06745058276798 0.0 0.0
-175.09702830252712 15.835780243312502 -47.77591673926592 160.2091956204776 0.0 0.0
-131.37549350645108 1.0603113880740942 -39.09176270307712 165.16951789191467 0.0 0.0
-82.94089304816941 -44.4911955125694 -38.22962656822164 157.15303433206674 0.0 0.0
-26.423268081546773 -116.2399579314305 -42.79896780389317 88.808154945676 0.0 0.0
-27.05420816567984 -83.27476319150855 -33.09869140715651 -74.9212174957129 0.0 0.0
-90.86332832570079 -37.146151835408205 -38.402844048332696 -141.4784156314613 0.0 0.0
-154.43096914291846 0.7503846816222728 -46.10294308237421 -152.48991394902998 0.0 0.0
-215.3153664303418 14.071787759271945 -60.35151400088688 -146.48525215919105 0.0 0.0
-285.8373263519961 17.617094554566236 -80.61478188006538 -138.81659969598198 0.0 0.0
-376.59819031223054 17.03473045992397 -113.57192513523475 -130.70263309647555 0.0 0.0
-479.1645180564775 9.195331609298446 -170.60525015863274 -118.64284868957839 0.0 0.0
-567.9281828897358 -5.309275085888601 -242.0288290960284 -111.35979194607529 0.0 0.0
-638.8357619304468 -20.765530937345076 -304.97578549614286 -110.10919968926171 0.0 0.0
-697.768712699419 -35.44633296809679 -353.3167148432637 -109.6611591868194 0.0 0.0
-750.4646412932436 -50.140330539002 -392.5512097614519 -107.95767551814018 0.0 0.0
-799.8074900634862 -65.3600383015011 -427.4004029368631 -105.07045813701237 0.0 0.0
-846.8541638598367 -80.80116889803406 -459.9062557373312 -101.7147227738428 0.0 0.0
-892.6453110644171 -96.62463264961318 -491.39602488951766 -98.67336562052334 0.0 0.0
-939.4348079389821 -114.93662276824173 -524.2692040530688 -97.21623769582416 0.0 0.0
-990.9621658124806 -141.41518988709322 -563.3275782921222 -98.77674781321358 0.0 0.0
-1051.7072596292417 -181.1916602471156 -613.608557404416 -103.77096583235955 0.0 0.0
-1122.086490696909 -238.19893747753423 -677.4411889566022 -109.43630281776947 0.0 0.0
-1202.1530910433862 -318.3563208915785 -757.5826199423839 -113.63248568227255 0.0 0.0
-1282.6444920295053 -432.1792500009599 -854.090990498856 -125.26048610717172 0.0 0.0
-1282.6444920296076 -432.1792500011637 -854.0909904988919 125.26048610732637 0.0 0.0
-1202.153091043687 -318.3563208919813 -757.5826199425828 113.63248568246385 0.0 0.0
-1122.0864906972042 -238.19893747803033 -677.4411889569185 109.43630281806307 0.0 0.0
-1051.7072596287207 -181.19166024665918 -613.608557404076 103.77096583234761 0.0 0.0
-990.9621658123029 -141.41518988705985 -563.327578291991 98.77674781333971 0.0 0.0
-939.4348079390054 -114.93662276844694 -524.269204053079 97.21623769591753 0.0 0.0
-892.6453110643415 -96.62463264967376 -491.39602488940204 98.67336562054032 0.0 0.0
-846.8541638602087 -80.80116889862188 -459.9062557375123 101.71472277389705 0.0 0.0
-799.8074900636095 -65.3600383018867 -427.40040293695506 105.07045813709422 0.0 0.0
-750.4646412932497 -50.14033053924164 -392.55120976145963 107.95767551811011 0.0 0.0
-697.7687126987896 -35.44633296762779 -353.3167148428265 109.66115918665325 0.0 0.0
-638.8357619299541 -20.765530937083156 -304.97578549574905 110.10919968918158 0.0 0.0
-567.9281828893024 -5.309275085787805 -242.0288290956367 111.35979194607472 0.0 0.0
-479.1645180560282 9.195331609157385 -170.60525015835117 118.64284868972928 0.0 0.0
-376.5981903117059 17.034730460022125 -113.57192513501096 130.70263309641916 0.0 0.0
-285.8373263515531 17.617094554716438 -80.61478187990218 138.8165996959173 0.0 0.0
-215.31536643010992 14.071787759300568 -60.351514000810866 146.48525215907026 0.0 0.0
-154.43096914289964 0.7503846813957105 -46.10294308243711 152.48991394892127 0.0 0.0
-90.86332832563222 -37.14615183545811 -38.4028440483271 141.47841563142075 0.0 0.0
-27.054208165680244 -83.2747631914561 -33.0986914071409 74.9212174955784 0.0 0.0
-27.76427577514907 -55.06115234955759 -24.84762843741199 -60.62097010362191 0.0 0.0
-98.28977434516737 -29.001344939954446 -38.18733578553653 -122.70092139928502 0.0 0.0
-176.25063766366503 0.7083993769854677 -52.66267148600386 -135.67226530385702 0.0 0.0
-253.56169191973856 11.340964401491927 -72.65572685137026 -128.41836377380486 0.0 0.0
-338.6496182963152 17.502102318570028 -97.18967407721729 -117.72520462494822 0.0 0.0
-440.6513248933086 17.12624053265624 -139.9378915999524 -104.11813966383279 0.0 0.0
-536.8095418148508 6.924335556035562 -206.80151664490776 -92.11888868602512 0.0 0.0
-615.2024901395966 -9.406708530063739 -278.65686621478426 -89.53986304170888 0.0 0.0
-681.1646224863351 -25.07211696229396 -336.01778620946254 -90.86625875278187 0.0 0.0
-740.9229518869623 -42.41830849967774 -382.61956206568453 -91.40284098804631 0.0 0.0
-796.7096126947698 -60.85522057245506 -423.2166470393402 -90.26453345183477 0.0 0.0
-849.7122552341013 -79.91175821880957 -460.7881012041099 -87.84345200604257 0.0 0.0
-901.0642861292704 -99.29096094471116 -496.94624914981995 -85.05942858897065 0.0 0.0
-950.731547194927 -118.8285078672529 -532.0151962777453 -82.28824906423746 0.0 0.0
-1001.1559166573546 -139.9879201022149 -568.0304222168323 -80.38679974952846 0.0 0.0
-1058.850076050259 -170.35512126319296 -612.0306971224709 -80.77159190597067 0.0 0.0
-1129.5660401671992 -218.7907996626717 -671.4675288747604 -84.3594090998838 0.0 0.0
-1214.0945850687106 -288.8448525724842 -748.7475789276905 -89.70104177975983 0.0 0.0
-1303.0368511882184 -377.7218287721105 -837.7344933883578 -95.75572402123083 0.0 0.0
-1381.0781073444402 -487.7899760488849 -931.6275146601281 -112.05867548941441 0.0 0.0
-1381.0781073439152 -487.78997604836786 -931.6275146598318 112.05867548946279 0.0 0.0
-1303.036851188131 -377.72182877211367 -837.7344933884291 95.75572402139798 0.0 0.0
-1214.0945850687508 -288.8448525726609 -748.7475789277546 89.70104177999264 0.0 0.0
-1129.566040166587 -218.79079966214664 -671.4675288742087 84.3594090999382 0.0 0.0
-1058.850076049945 -170.35512126299852 -612.0306971222354 80.77159190601546 0.0 0.0
-1001.1559166575202 -139.9879201025632 -568.0304222169511 80.38679974968416 0.0 0.0
-950.7315471938132 -118.82850786625704 -532.0151962769482 82.28824906423688 0.0 0.0
-901.0642861283942 -99.29096094399891 -496.9462491492373 85.05942858899016 0.0 0.0
-849.7122552332554 -79.91175821814254 -460.78810120351005 87.84345200602931 0.0 0.0
-796.7096126944906 -60.855220572448886 -423.2166470391161 90.26453345192584 0.0 0.0
-740.9229518865537 -42.418308499506885 -382.61956206533694 91.40284098799053 0.0 0.0
-681.1646224862529 -25.072116962516233 -336.01778620929144 90.86625875277238 0.0 0.0
-615.2024901394599 -9.406708530304504 -278.65686621457917 89.53986304175187 0.0 0.0
-536.8095418145102 6.924335555954297 -206.80151664458432 92.11888868603923 0.0 0.0
-440.6513248930878 17.126240532393645 -139.9378915998513 104.11813966382122 0.0 0.0
-338.64961829594756 17.50210231842174 -97.18967407716255 117.72520462487813 0.0 0.0
-253.56169191955718 11.340964401365454 -72.65572685135577 128.41836377371453 0.0 0.0
-176.2506376635559 0.7083993768736367 -52.66267148600467 135.67226530370755 0.0 0.0
-98.28977434504166 -29.001344939863973 -38.18733578547169 122.70092139909073 0.0 0.0
-27.764275775149205 -55.06115234948673 -24.847628437390775 60.62097010353224 0.0 0.0
-28.291801275067392 -32.01012710729909 -18.090578514709943 -45.84037618314231 0.0 0.0
-104.8989763788193 -20.564157808716562 -37.63894025626075 -101.16109507345043 0.0 0.0
-196.95591392656553 0.7895905033694834 -58.849897026958814 -114.7015226458018 0.0 0.0
-290.4207998703009 7.937988684135744 -84.75325385557744 -106.62645702078966 0.0 0.0
-390.2853106806665 17.560618474895794 -114.00694039546867 -93.41867087491818 0.0 0.0
-492.6922614292319 16.154175864524955 -166.64361027182693 -77.04219567294422 0.0 0.0
-577.8449369115652 2.8165684792741814 -239.56600328535376 -68.61655341458767 0.0 0.0
-650.5588057007124 -11.69305767174783 -306.37526864532487 -69.54887593617671 0.0 0.0
-716.0564064489082 -28.99422893697122 -360.46393226719897 -71.6235559944659 0.0 0.0
-777.63886140471 -49.343166192401746 -406.9075188261718 -72.63433667688301 0.0 0.0
-836.5207681824775 -71.20367196300988 -449.51920664747104 -71.95359179983438 0.0 0.0
-893.6325840632967 -94.19637726083444 -490.5671831486765 -70.08935114634133 0.0 0.0
-949.1694574333649 -117.67951075072511 -530.6093267702499 -67.88968362720315 0.0 0.0
-1003.9987063268759 -141.66204947746283 -570.3623375048807 -65.70044510605153 0.0 0.0
-1058.7553124586302 -166.561020208674 -610.3819391314667 -63.535441206852546 0.0 0.0
-1119.123426437207 -199.26919996455877 -656.8714043994032 -62.287748611442346 0.0 0.0
-1197.6839161311939 -253.86276202494818 -723.1789312324591 -64.21568326816728 0.0 0.0
-1294.5567210987115 -335.1366705035615 -812.1293316579614 -69.9230040126686 0.0 0.0
-1394.1246687697762 -434.4422060952711 -911.6773694446035 -79.36579297036546 0.0 0.0
-1474.3129595637351 -545.709744284805 -1007.5634528290637 -101.0515800036165 0.0 0.0
-1474.3129595636942 -545.7097442848116 -1007.5634528290688 101.05158000370776 0.0 0.0
-1394.1246687691169 -434.44220609465356 -911.6773694441663 79.36579297041627 0.0 0.0
-1294.556721097866 -335.13667050278104 -812.1293316573551 69.92300401276057 0.0 0.0
-1197.683916130974 -253.86276202481872 -723.1789312322866 64.21568326823487 0.0 0.0
-1119.1234264357568 -199.26919996319756 -656.8714043982454 62.28774861144598 0.0 0.0
-1058.7553124572992 -166.56102020746857 -610.3819391304426 63.535441206873415 0.0 0.0
-1003.9987063263986 -141.66204947710492 -570.3623375044713 65.70044510602663 0.0 0.0
-949.1694574328467 -117.67951075038572 -530.6093267698396 67.88968362725527 0.0 0.0
-893.6325840626771 -94.19637726039443 -490.56718314822433 70.08935114628197 0.0 0.0
-836.5207681823244 -71.2036719630953 -449.519206647307 71.95359179987256 0.0 0.0
-777.6388614046173 -49.34316619259149 -406.90751882609953 72.63433667694184 0.0 0.0
-716.0564064484425 -28.994228936772632 -360.4639322668671 71.62355599444031 0.0 0.0
-650.5588057002471 -11.693057671582757 -306.37526864493117 69.54887593619715 0.0 0.0
-577.8449369109004 2.8165684796343946 -239.56600328480658 68.61655341454609 0.0 0.0
-492.692261428738 16.154175864668694 -166.64361027148607 77.04219567287323 0.0 0.0
-390.28531068041843 17.56061847455704 -114.00694039547497 93.41867087483732 0.0 0.0
-290.42079987012147 7.937988683909042 -84.75325385559967 106.62645702066504 0.0 0.0
-196.95591392638192 0.7895905033993733 -58.849897026894766 114.70152264576124 0.0 0.0
-104.89897637878087 -20.564157808797695 -37.638940256273564 101.16109507340774 0.0 0.0
-28.291801275098152 -32.010127107353064 -18.090578514735363 45.84037618306118 0.0 0.0
-27.996102600585292 -14.51647266004966 -12.753772578190482 -30.712156991572563 0.0 0.0
-109.78777788927229 -12.246469470895851 -36.61027420805044 -77.04206574660199 0.0 0.0
-216.7391469727096 0.5584622193556248 -64.85420542600619 -89.48165977464114 0.0 0.0
-326.6618096035502 5.397949613694982 -96.37754519091891 -81.40697971664733 0.0 0.0
-437.55157366704395 17.648428775777234 -131.5100176034598 -66.4820522313073 0.0 0.0
-534.0067515172757 12.632403326216679 -194.24375594790348 -51.947241376743094 0.0 0.0
-610.8048188960344 -0.183930023849328 -267.37878788573505 -47.954433013134874 0.0 0.0
-679.3677942295445 -13.488523167683162 -328.17823504596356 -49.75477077597553 0.0 0.0
-745.3108358374793 -32.97306926938751 -380.36369415442095 -52.085576119111444 0.0 0.0
-809.1864774199915 -56.05346943216806 -427.564487662979 -53.29930601944763 0.0 0.0
-871.5579992270937 -81.32411417608373 -472.8496922062635 -53.01864372461265 0.0 0.0
-932.5386636395264 -108.13384397212562 -517.4279955507192 -51.71607136841181 0.0 0.0
-992.9492847860759 -135.802200586355 -561.8551657814777 -50.20645157871248 0.0 0.0
-1052.8577575359088 -164.88865867203873 -606.6028151776238 -48.60658113697034 0.0 0.0
-1113.2107189116932 -195.31057485870565 -652.1462602456735 -46.63445019110491 0.0 0.0
-1176.6677110423625 -230.31117226157588 -701.3986831335806 -44.167662538242666 0.0 0.0
-1253.341104661936 -282.21938586104756 -765.3855017576394 -43.73618728982426 0.0 0.0
-1361.8696207368562 -373.9525326720235 -865.1729681802499 -49.53516801164883 0.0 0.0
-1478.2525631696567 -488.8977947411575 -980.9899330954654 -63.27859917032361 0.0 0.0
-1570.7763894131442 -610.504344746503 -1088.4597215847848 -90.99397358740575 0.0 0.0
-1570.776389413303 -610.5043447466918 -1088.4597215848307 90.99397358747561 0.0 0.0
-1478.2525631699252 -488.89779474149054 -980.989933095553 63.27859917044607 0.0 0.0
-1361.8696207373655 -373.95253267263 -865.1729681805688 49.535168011815884 0.0 0.0
-1253.341104661906 -282.2193858611013 -765.3855017575248 43.73618728984472 0.0 0.0
-1176.6677110429068 -230.31117226224453 -701.3986831339375 44.16766253831682 0.0 0.0
-1113.2107189120327 -195.3105748591938 -652.1462602458729 46.63445019120848 0.0 0.0
-1052.8577575361796 -164.88865867244894 -606.6028151777974 48.60658113690913 0.0 0.0
-992.9492847860754 -135.80220058652858 -561.855165781409 50.20645157872495 0.0 0.0
-932.5386636392477 -108.13384397203819 -517.4279955504414 51.716071368370265 0.0 0.0
-871.5579992264371 -81.32411417564597 -472.84969220580774 53.01864372463015 0.0 0.0
-809.1864774193946 -56.053469431814094 -427.56448766258967 53.29930601944408 0.0 0.0
-745.3108358368218 -32.973069268960685 -380.36369415397064 52.085576119017986 0.0 0.0
-679.3677942291729 -13.488523167599087 -328.1782350456609 49.75477077599478 0.0 0.0
-610.8048188955463 -0.18393002367119138 -267.3787878853032 47.954433013110105 0.0 0.0
-534.0067515168096 12.632403326369399 -194.2437559475224 51.94724137670977 0.0 0.0
-437.5515736666537 17.648428775662552 -131.51001760332767 66.48205223140778 0.0 0.0
-326.66180960336874 5.397949613500814 -96.37754519093221 81.40697971667645 0.0 0.0
-216.73914697262188 0.5584622191491881 -64.85420542604182 89.48165977463472 0.0 0.0
-109.7877778892851 -12.24646947101115 -36.610274208088875 77.04206574660412 0.0 0.0
-27.99610260057328 -14.516472660064338 -12.753772578191285 30.712156991581104 0.0 0.0
-25.62311811002202 -2.899169685975321 -8.556686338799201 -15.74977805704694 0.0 0.0
-111.30632379576167 -4.60079914231525 -34.77213688142307 -50.3164400727806 0.0 0.0
-235.80183989116432 -0.07957996759214403 -70.76442595762693 -59.50402449732806 0.0 0.0
-364.2199888437559 4.0872522650786465 -108.01285329421243 -52.9421787279343 0.0 0.0
-477.72864265389137 18.018988677688775 -149.75678823966135 -39.37185647658863 0.0 0.0
-563.5177371981674 7.054144972382268 -221.0947444702163 -29.224184565375317 0.0 0.0
-636.2011927409555 -1.2376754655396098 -288.8857621528858 -28.501076483491705 0.0 0.0
-703.3228430482997 -15.900848587119945 -346.0678848325324 -30.153721414776705 0.0 0.0
-769.8129104790742 -36.804114836621935 -396.70656268763315 -32.14539603164865 0.0 0.0
-836.2626226262723 -62.51300490999306 -445.32295023875577 -33.3384568612871 0.0 0.0
-902.3141858507547 -91.26461307133542 -493.71467660752876 -33.41664169650677 0.0 0.0
-967.7305737863362 -121.66225931539049 -542.1097552350418 -32.75204061159637 0.0 0.0
-1032.5882288805692 -153.95898492740082 -590.9728953133242 -31.846537744415134 0.0 0.0
-1098.1964846252508 -188.079036518223 -641.0162524447861 -30.89833664738724 0.0 0.0
-1165.321201486941 -224.95465392650362 -693.1296796048372 -29.537689238928618 0.0 0.0
-1233.698026066593 -265.10994951153157 -747.4607871643133 -27.02089625373287 0.0 0.0
-1305.3809596359142 -311.99690294126367 -806.6112956332961 -24.238374086151765 0.0 0.0
-1397.98807325076 -386.43049788597045 -889.5701274315709 -27.64941672070625 0.0 0.0
-1559.1261797756306 -543.2286333803688 -1048.4353405260567 -45.30858907746165 0.0 0.0
-1680.7254990528847 -690.5863793249677 -1183.712836873005 -80.88373877904102 0.0 0.0
-1680.7254990531455 -690.586379325277 -1183.712836873269 80.88373877912736 0.0 0.0
-1559.1261797755149 -543.2286333803067 -1048.4353405260608 45.30858907755754 0.0 0.0
-1397.9880732503168 -386.4304978855791 -889.5701274312461 27.64941672066614 0.0 0.0
-1305.3809596358312 -311.9969029412602 -806.6112956331849 24.238374086162786 0.0 0.0
-1233.6980260663177 -265.10994951137576 -747.4607871640762 27.020896253876927 0.0 0.0
-1165.3212014866274 -224.95465392631252 -693.1296796045266 29.537689238917537 0.0 0.0
-1098.1964846239157 -188.07903651701642 -641.0162524437633 30.89833664739702 0.0 0.0
-1032.5882288789385 -153.9589849259292 -590.9728953121476 31.84653774444461 0.0 0.0
-967.7305737854844 -121.66225931473559 -542.1097552344602 32.752040611617 0.0 0.0
-902.3141858504245 -91.26461307122894 -493.71467660724807 33.416641696486096 0.0 0.0
-836.2626226260518 -62.51300491001359 -445.32295023852083 33.338456861248154 0.0 0.0
-769.8129104786744 -36.80411483646709 -396.70656268730875 32.14539603158371 0.0 0.0
-703.3228430478625 -15.900848586947841 -346.0678848321522 30.153721414695603 0.0 0.0
-636.2011927407673 -1.2376754656779632 -288.8857621526373 28.50107648347717 0.0 0.0
-563.517737197682 7.054144972567244 -221.09474446980113 29.2241845653901 0.0 0.0
-477.72864265353496 18.018988677632493 -149.75678823946967 39.37185647659845 0.0 0.0
-364.21998884370157 4.087252264540003 -108.01285329436652 52.94217872785023 0.0 0.0
-235.80183989103145 -0.07957996759621366 -70.76442595758829 59.50402449723199 0.0 0.0
-111.30632379568408 -4.600799142330793 -34.77213688140446 50.31644007266744 0.0 0.0
-25.62311811000454 -2.899169686020824 -8.556686338807607 15.749778057046942 0.0 0.0
-18.76348814512331 2.6365943315351483 -4.838068144076448 -2.176545515992522 0.0 0.0
-106.62838347072595 1.6716996742577397 -31.48700513894046 -20.497124359748657 0.0 0.0
-254.90401553217404 -1.512551573567233 -76.92497013172238 -23.65974668029518 0.0 0.0
-403.8241268987796 5.553414735603005 -119.93339611251162 -21.5107453949442 0.0 0.0
-512.9009984592669 15.695705445907794 -170.4819855986353 -13.60242613948175 0.0 0.0
-590.234780501879 3.9238099516150555 -244.78454067779933 -9.423140434281448 0.0 0.0
-656.7258263583877 -2.7726389412916674 -306.5263611100889 -9.52694752319706 0.0 0.0
-723.0476159702963 -18.353798447269895 -360.5055303438396 -10.52975382218734 0.0 0.0
-790.5366064286991 -40.737748253111505 -410.52549106155675 -11.815628422699229 0.0 0.0
-859.601703335228 -68.80593934547737 -460.8397876266073 -12.741541672576556 0.0 0.0
-929.3747538249995 -100.61322732166127 -512.296116812621 -13.14607442869936 0.0 0.0
-999.0519972982363 -135.45540734102576 -564.9101263311062 -13.08012242853972 0.0 0.0
-1068.9293295615648 -171.8795685781457 -618.2798906497376 -12.872757134917263 0.0 0.0
-1140.1602649679533 -210.90760340955984 -673.5409654039834 -12.551092864482182 0.0 0.0
-1213.8892532116156 -254.15636740006488 -732.1055250951474 -11.890311485131438 0.0 0.0
-1289.3416199702901 -301.6452111792671 -793.6168946603277 -10.472353256753529 0.0 0.0
-1362.531339569795 -350.7171138128061 -854.7373395419388 -7.772727165906704 0.0 0.0
-1432.5975808896178 -402.41195672149865 -915.3594039632849 -6.340242784238171 0.0 0.0
-1533.1916849865916 -494.4978282066493 -1010.9470746894115 -20.708969835942646 0.0 0.0
-1876.285500223497 -855.0801141242617 -1363.727396876398 -65.44601082015315 0.0 0.0
-1876.2855002232327 -855.080114124039 -1363.7273968761347 65.44601082024099 0.0 0.0
-1533.1916849858058 -494.4978282059047 -1010.9470746887673 20.7089698360083 0.0 0.0
-1432.5975808885596 -402.4119567204935 -915.3594039625142 6.340242784259854 0.0 0.0
-1362.5313395685978 -350.7171138116892 -854.7373395410714 7.7727271658407195 0.0 0.0
-1289.341619970335 -301.6452111794263 -793.6168946602697 10.472353256790957 0.0 0.0
-1213.8892532114758 -254.15636740004692 -732.1055250949612 11.890311485090335 0.0 0.0
-1140.1602649671452 -210.90760340889398 -673.540965403394 12.551092864477209 0.0 0.0
-1068.929329561566 -171.87956857832745 -618.2798906497029 12.872757134923319 0.0 0.0
-999.0519972978088 -135.45540734080004 -564.9101263307743 13.080122428621527 0.0 0.0
-929.3747538244709 -100.61322732135721 -512.2961168122133 13.14607442858561 0.0 0.0
-859.6017033347315 -68.8059393452128 -460.8397876262577 12.741541672545715 0.0 0.0
-790.5366064280395 -40.73774825269842 -410.5254910611078 11.815628422640083 0.0 0.0
-723.0476159700497 -18.353798447302268 -360.5055303436399 10.529753822153864 0.0 0.0
-656.725826358087 -2.7726389412883847 -306.52636110980956 9.526947523169223 0.0 0.0
-590.234780501598 3.923809951575386 -244.78454067750695 9.423140434373177 0.0 0.0
-512.9009984589651 15.695705445867631 -170.48198559841896 13.602426139446374 0.0 0.0
-403.8241268984242 5.553414735498078 -119.93339611244812 21.510745394918757 0.0 0.0
-254.90401553185393 -1.512551573234827 -76.9249701315266 23.659746680329338 0.0 0.0
-106.62838347055342 1.6716996744414896 -31.48700513883357 20.497124359767874 0.0 0.0
-18.763488145091152 2.636594331520336 -4.8380681440712445 2.176545515988252 0.0 0.0
SCALARS Strain float 6
LOOKUP_TABLE default
0.009886532696501502 -0.010960652453860159 0.0 -0.005977989552844315 0.0 0.0
0.0020877028114280795 -0.0011325290655423426 0.0 0.0010162353174477112 0.0 0.0
0.0017390938264279041 -0.0007155346732585222 0.0 -6.111863930927108e-05 0.0 0.0
0.0021092717794404837 -0.0009620502951872556 0.0 -0.0001822132124867648 0.0 0.0
0.0030016338219091433 -0.0016328406046592914 0.0 -0.0002176019813039387 0.0 0.0
0.004815809503192254 -0.0031596872781306518 0.0 -0.000307242633782151 0.0 0.0
0.007637525009132146 -0.005708645746950625 0.0 -0.0004644149129549857 0.0 0.0
0.011600426299746924 -0.009397378763637665 0.0 -0.0006941827700467085 0.0 0.0
0.01676948506705056 -0.014285964557273712 0.0 -0.00100314671815796 0.0 0.0
0.023158945378968645 -0.02038108310368747 0.0 -0.001366587144967929 0.0 0.0
0.030800911762549916 -0.027716941167254205 0.0 -0.0017403011907377308 0.0 0.0
0.0397738062609866 -0.03637403083373347 0.0 -0.0021257882634506398 0.0 0.0
0.05016783587492445 -0.0464468555251083 0.0 -0.002531845093757118 0.0 0.0
0.06203904138992887 -0.057987868869386006 0.0 -0.0029598103352447003 0.0 0.0
0.07528403360488144 -0.0708881213405852 0.0 -0.0034115027722781965 0.0 0.0
0.0894803427175101 -0.08472630981839036 0.0 -0.0038094246131976928 0.0 0.0
0.10381043699124919 -0.09869561042746078 0.0 -0.0039745163787979765 0.0 0.0
0.11709912727961154 -0.1116386063204522 0.0 -0.003669904864055329 0.0 0.0
0.12793480688018877 -0.12216273751011597 0.0 -0.002923094460995479 0.0 0.0
0.13456795355285245 -0.12843020523549464 0.0 -0.0026465754823012944 0.0 0.0
0.13456795355284512 -0.12843020523548887 0.0 0.0026465754823053467 0.0 0.0
0.12793480688016598 -0.12216273751010087 0.0 0.002923094461010467 0.0 0.0
0.11709912727957283 -0.11163860632041622 0.0 0.003669904864063267 0.0 0.0
0.10381043699119999 -0.09869561042741637 0.0 0.003974516378804416 0.0 0.0
0.08948034271745661 -0.08472630981833884 0.0 0.0038094246131913367 0.0 0.0
0.07528403360482719 -0.07088812134052969 0.0 0.0034115027722777524 0.0 0.0
0.06203904138987304 -0.05798786886933671 0.0 0.002959810335243118 0.0 0.0
0.05016783587486795 -0.046446855525059894 0.0 0.002531845093756979 0.0 0.0
0.03977380626093294 -0.03637403083368218 0.0 0.0021257882634470038 0.0 0.0
0.030800911762502298 -0.027716941167209352 0.0 0.0017403011907359267 0.0 0.0
0.023158945378928236 -0.020381083103648612 0.0 0.0013665871449624056 0.0 0.0
0.016769485067018225 -0.014285964557241959 0.0 0.0010031467181577103 0.0 0.0
0.011600426299722827 -0.009397378763613906 0.0 0.0006941827700449044 0.0 0.0
0.00763752500911502 -0.005708645746933083 0.0 0.0004644149129543196 0.0 0.0
0.004815809503182056 -0.003159687278120882 0.0 0.00030724263378204 0.0 0.0
0.0030016338219042427 -0.0016328406046556276 0.0 0.00021760198130441055 0.0 0.0
0.0021092717794390925 -0.0009620502951875332 0.0 0.00018221321248634847 0.0 0.0
0.0017390938264273403 -0.0007155346732586887 0.0 6.111863930921557e-05 0.0 0.0
0.0020877028114268947 -0.0011325290655409825 0.0 -0.0010162353174459904 0.0 0.0
0.009886532696491396 -0.010960652453847076 0.0 0.005977989552815477 0.0 0.0
0.006888859221724258 -0.008329264735519537 0.0 -0.007101196265833637 0.0 0.0
0.001159980876748866 -0.0005753402034620048 0.0 0.00016064456338840682 0.0 0.0
0.0014950334363909336 -0.0005514577611616112 0.0 -0.00013446464429914262 0.0 0.0
0.001874325445812012 -0.0008270116281438034 0.0 -0.0004316354455573268 0.0 0.0
0.0025848787470919288 -0.0013188221498936503 0.0 -0.0005085247795481862 0.0 0.0
0.004136058050268253 -0.0025767539856149657 0.0 -0.0007311635828956553 0.0 0.0
0.00666213062686883 -0.004813238407882059 0.0 -0.0011391410476223052 0.0 0.0
0.010248491657210368 -0.00811851940645969 0.0 -0.001700687533973233 0.0 0.0
0.014929606510842887 -0.012523126041903199 0.0 -0.00241323414300329 0.0 0.0
0.020688891218769673 -0.018001242378505422 0.0 -0.0032234724240960133 0.0 0.0
0.027530803765494063 -0.0245569408766515 0.0 -0.004052794941348359 0.0 0.0
0.035526269142151595 -0.03226323615497728 0.0 -0.0048669601330840195 0.0 0.0
0.04480009163729967 -0.04124271030021176 0.0 -0.005741368943215586 0.0 0.0
0.05543313778874764 -0.05157278973551449 0.0 -0.00671187342226387 0.0 0.0
0.06734356330392749 -0.06316836941950488 0.0 -0.007727356011058839 0.0 0.0
0.08017019997165575 -0.07566918603030626 0.0 -0.008626514620375808 0.0 0.0
0.09319698449852995 -0.08836658896605343 0.0 -0.009032147377611655 0.0 0.0
0.1053653161338582 -0.10021245418614422 0.0 -0.008515745495650706 0.0 0.0
0.11528098766992842 -0.10980189832288456 0.0 -0.007040758271894321 0.0 0.0
0.12120906780053085 -0.11548862692149031 0.0 -0.0045057702180174575 0.0 0.0
0.12120906780052335 -0.11548862692148187 0.0 0.00450577021803239 0.0 0.0
0.11528098766990728 -0.10980189832285969 0.0 0.007040758271921965 0.0 0.0
0.10536531613382433 -0.10021245418610869 0.0 0.008515745495668137 0.0 0.0
0.09319698449848726 -0.08836658896601435 0.0 0.009032147377623256 0.0 0.0
0.08017019997160868 -0.07566918603026229 0.0 0.008626514620369896 0.0 0.0
0.06734356330387817 -0.06316836941946358 0.0 0.007727356011056785 0.0 0.0
0.05543313778869763 -0.051572789735467195 0.0 0.006711873422262538 0.0 0.0
0.04480009163724935 -0.0412427103001618 0.0 0.005741368943215086 0.0 0.0
0.03552626914210388 -0.03226323615493065 0.0 0.004866960133077747 0.0 0.0
0.02753080376545114 -0.02455694087660909 0.0 0.004052794941342863 0.0 0.0
0.020688891218733352 -0.018001242378469673 0.0 0.003223472424088547 0.0 0.0
0.014929606510813737 -0.012523126041875887 0.0 0.0024132341430007087 0.0 0.0
0.010248491657188441 -0.008118519406440816 0.0 0.0017006875339700689 0.0 0.0
0.006662130626853724 -0.004813238407869402 0.0 0.001139141047620279 0.0 0.0
0.004136058050259628 -0.002576753985606417 0.0 0.0007311635828941287 0.0 0.0
0.0025848787470880985 -0.0013188221498902086 0.0 0.0005085247795473535 0.0 0.0
0.0018743254458109815 -0.0008270116281428597 0.0 0.00043163544555560596 0.0 0.0
0.0014950334363906248 -0.0005514577611607785 0.0 0.00013446464429800464 0.0 0.0
0.0011599808767489561 -0.0005753402034603672 0.0 -0.00016064456338951705 0.0 0.0
0.0068888592217128675 -0.008329264735505864 0.0 0.007101196265810572 0.0 0.0
0.005033587820713323 -0.006600723255788754 0.0 -0.006553435302256022 0.0 0.0
0.0006878468650945227 -0.0003668293181072757 0.0 -0.0005199076036934147 0.0 0.0
0.0011994652577669088 -0.0004075395112623781 0.0 -0.0004147381904013592 0.0 0.0
0.001643226829629682 -0.0006996027015866435 0.0 -0.00067110978792706 0.0 0.0
0.002216643624175098 -0.0010641756267675273 0.0 -0.0007847155725574373 0.0 0.0
0.0034771769066389985 -0.0020331372138168158 0.0 -0.0010572794005086483 0.0 0.0
0.005688432946042966 -0.003933070129851446 0.0 -0.001641246490855508 0.0 0.0
0.008880857591859297 -0.006839976188538266 0.0 -0.0024810475901374807 0.0 0.0
0.01305988478133098 -0.01074297926686496 0.0 -0.003516809833622875 0.0 0.0
0.01818256520956557 -0.015597285753487622 0.0 -0.004676296329617885 0.0 0.0
0.024230610171110896 -0.021379850384167787 0.0 -0.005864894676845006 0.0 0.0
0.031263606292546334 -0.028148220009141633 0.0 -0.007033830085211357 0.0 0.0
0.03941032047719466 -0.036027402346926474 0.0 -0.008254120873138593 0.0 0.0
0.048782549852478166 -0.04512458081485349 0.0 -0.009630156641075888 0.0 0.0
0.0593370494976197 -0.05539517803250149 0.0 -0.011109449537206079 0.0 0.0
0.070780872436936 -0.06654643926598292 0.0 -0.01241086392669044 0.0 0.0
0.08251298109454204 -0.07798069515140371 0.0 -0.013054138979414265 0.0 0.0
0.09358472746873912 -0.08874634495321221 0.0 -0.012490104142867775 0.0 0.0
0.1026649939128709 -0.0975358503060173 0.0 -0.01028087621904561 0.0 0.0
0.10824318545270399 -0.1029115133426508 0.0 -0.00591028338079258 0.0 0.0
0.10824318545269662 -0.10291151334264503 0.0 0.005910283380817727 0.0 0.0
0.10266499391285158 -0.09753585030600309 0.0 0.010280876219082025 0.0 0.0
0.09358472746870937 -0.08874634495318201 0.0 0.012490104142891534 0.0 0.0
0.08251298109450489 -0.07798069515136907 0.0 0.013054138979427754 0.0 0.0
0.07078087243689504 -0.0665464392659465 0.0 0.012410863926684557 0.0 0.0
0.059337049497575595 -0.0553951780324593 0.0 0.01110944953720383 0.0 0.0
0.04878254985243424 -0.04512458081481019 0.0 0.009630156641073417 0.0 0.0
0.03941032047715037 -0.03602740234688273 0.0 0.00825412087313565 0.0 0.0
0.03126360629250435 -0.028148220009099223 0.0 0.007033830085201698 0.0 0.0
0.024230610171073058 -0.02137985038413248 0.0 0.005864894676837484 0.0 0.0
0.01818256520953318 -0.015597285753457424 0.0 0.004676296329607255 0.0 0.0
0.013059884781304876 -0.010742979266840313 0.0 0.003516809833615575 0.0 0.0
0.008880857591839736 -0.00683997618851917 0.0 0.002481047590130847 0.0 0.0
0.005688432946029748 -0.003933070129839011 0.0 0.0016412464908503732 0.0 0.0
0.003477176906632129 -0.0020331372138108206 0.0 0.001057279400506289 0.0 0.0
0.002216643624172454 -0.0010641756267650848 0.0 0.0007847155725566324 0.0 0.0
0.0016432268296289743 -0.0006996027015863104 0.0 0.0006711097879276706 0.0 0.0
0.001199465257766763 -0.00040753951126265564 0.0 0.00041473819040094284 0.0 0.0
0.0006878468650947378 -0.0003668293181058324 0.0 0.000519907603690889 0.0 0.0
0.005033587820702734 -0.006600723255776302 0.0 0.006553435302236316 0.0 0.0
0.0037550059857465595 -0.005304234516004369 0.0 -0.005556608115156236 0.0 0.0
0.0004323939550439221 -0.0002764087158881323 0.0 -0.0010966838166552861 0.0 0.0
0.0009282313750993906 -0.00029462701800458957 0.0 -0.0007836558462047949 0.0 0.0
0.0014027335281770192 -0.0005755046317594825 0.0 -0.0009313441964300673 0.0 0.0
0.0018899266164356734 -0.000865768425623914 0.0 -0.0010621293952285393 0.0 0.0
0.002872639709652007 -0.0015665876433654802 0.0 -0.0013152938822577898 0.0 0.0
0.0047221282842771425 -0.003090561021291016 0.0 -0.0019782619043900718 0.0 0.0
0.00751066703896109 -0.005574661816526438 0.0 -0.003029241414204409 0.0 0.0
0.011174214109820738 -0.008963856130259629 0.0 -0.004306183890563309 0.0 0.0
0.01565537982812886 -0.013187745616590307 0.0 -0.005725984202019169 0.0 0.0
0.02091398980277736 -0.01819996287807446 0.0 -0.007172729086767887 0.0 0.0
0.02699360386039957 -0.024037940571664862 0.0 -0.008600673721924024 0.0 0.0
0.034019670885585884 -0.03082348575335847 0.0 -0.010099833515941847 0.0 0.0
0.04211938749661548 -0.03867576904673431 0.0 -0.01174560438718203 0.0 0.0
0.05129311202378707 -0.04759692262598936 0.0 -0.013509926345147166 0.0 0.0
0.061332108028079285 -0.05737804680724601 0.0 -0.015129313990533078 0.0 0.0
0.07175246939744429 -0.0675308448472225 0.0 -0.016029502919221228 0.0 0.0
0.08173321059859197 -0.07723508667097212 0.0 -0.015492745002567199 0.0 0.0
0.09009871374816525 -0.08533960031142707 0.0 -0.012760608715598143 0.0 0.0
0.09550016295124078 -0.09055685047577544 0.0 -0.007072918509131665 0.0 0.0
0.09550016295123401 -0.090556850475771 0.0 0.007072918509162696 0.0 0.0
0.09009871374814753 -0.0853396003114053 0.0 0.012760608715642663 0.0 0.0
0.08173321059856552 -0.07723508667094192 0.0 0.015492745002596786 0.0 0.0
0.07175246939741231 -0.0675308448471923 0.0 0.016029502919235883 0.0 0.0
0.061332108028043814 -0.05737804680721004 0.0 0.015129313990528415 0.0 0.0
0.05129311202374859 -0.047596922625953386 0.0 0.01350992634514181 0.0 0.0
0.0421193874965774 -0.038675769046698116 0.0 0.011745604387179753 0.0 0.0
0.03401967088554758 -0.030823485753320723 0.0 0.010099833515938184 0.0 0.0
0.026993603860363202 -0.02403794057163333 0.0 0.008600673721912255 0.0 0.0
0.020913989802745087 -0.018199962878043152 0.0 0.0071727290867583116 0.0 0.0
0.015655379828100363 -0.013187745616562996 0.0 0.005725984202005596 0.0 0.0
0.011174214109797853 -0.008963856130240977 0.0 0.004306183890553761 0.0 0.0
0.00751066703894418 -0.005574661816511561 0.0 0.0030292414141968593 0.0 0.0
0.004722128284265992 -0.00309056102128058 0.0 0.0019782619043859084 0.0 0.0
0.0028726397096465184 -0.0015665876433605952 0.0 0.0013152938822542926 0.0 0.0
0.0018899266164340012 -0.0008657684256236919 0.0 0.0010621293952270683 0.0 0.0
0.0014027335281763809 -0.0005755046317597601 0.0 0.0009313441964278468 0.0 0.0
0.0009282313750993698 -0.00029462701800392344 0.0 0.0007836558462022969 0.0 0.0
0.00043239395504401923 -0.000276408715886689 0.0 0.001096683816653149 0.0 0.0
0.0037550059857372475 -0.005304234515993617 0.0 0.005556608115141332 0.0 0.0
0.002799433325375883 -0.004255545455201237 0.0 -0.0045502917649592745 0.0 0.0
0.00028774471026472154 -0.00023586186070712056 0.0 -0.0015443714575434642 0.0 0.0
0.0006982703205090229 -0.00021072919339587548 0.0 -0.0011583481358615755 0.0 0.0
0.0011556245174600618 -0.00045769905809145417 0.0 -0.0012108327312444767 0.0 0.0
0.0015888141095333555 -0.000703153345943508 0.0 -0.0013361835060333171 0.0 0.0
0.002336826445779691 -0.0011886581150976072 0.0 -0.0015601209394583149 0.0 0.0
0.0037992016146990576 -0.002319122342123059 0.0 -0.0021725527641207054 0.0 0.0
0.006143210591962371 -0.0043373872401257785 0.0 -0.0033047901975899185 0.0 0.0
0.009287012955538222 -0.007203356366755287 0.0 -0.004772350293346134 0.0 0.0
0.01312159168967994 -0.010789710529826468 0.0 -0.006363027101182472 0.0 0.0
0.017594948978958455 -0.015033449902907003 0.0 -0.00797963567179033 0.0 0.0
0.022729801015463957 -0.019949582270100574 0.0 -0.009568966893018227 0.0 0.0
0.02864223536439589 -0.025646180616774927 0.0 -0.011222694127784427 0.0 0.0
0.035468514787643575 -0.03225484121907796 0.0 -0.013051507601410217 0.0 0.0
0.043249393549945475 -0.03981416229805701 0.0 -0.014991428284624131 0.0 0.0
0.05185144172101597 -0.04818994972938073 0.0 -0.01676317978540459 0.0 0.0
0.060914555277668384 -0.0570219389993496 0.0 -0.01787070265524121 0.0 0.0
0.06979732832395798 -0.06566344351876507 0.0 -0.017487657777125687 0.0 0.0
0.07752000145655799 -0.07315211751650352 0.0 -0.014549593494766144 0.0 0.0
0.08285908522433272 -0.07831497681706034 0.0 -0.008058430558598118 0.0 0.0
0.08285908522432665 -0.07831497681705502 0.0 0.008058430558630536 0.0 0.0
0.07752000145654216 -0.07315211751648754 0.0 0.014549593494813384 0.0 0.0
0.06979732832393472 -0.06566344351874154 0.0 0.017487657777156884 0.0 0.0
0.06091455527764142 -0.05702193899932606 0.0 0.017870702655256254 0.0 0.0
0.051851441720985436 -0.04818994972935231 0.0 0.016763179785401094 0.0 0.0
0.04324939354991267 -0.039814162298025035 0.0 0.014991428284617636 0.0 0.0
0.03546851478761118 -0.03225484121904909 0.0 0.013051507601406553 0.0 0.0
0.028642235364364083 -0.02564618061674606 0.0 0.011222694127778321 0.0 0.0
0.02272980101543287 -0.01994958227006971 0.0 0.009568966893006292 0.0 0.0
0.017594948978931435 -0.015033449902880358 0.0 0.007979635671778618 0.0 0.0
0.013121591689655626 -0.010789710529806706 0.0 0.0063630271011654305 0.0 0.0
0.009287012955518814 -0.007203356366737523 0.0 0.0047723502933361694 0.0 0.0
0.006143210591948334 -0.004337387240113788 0.0 0.0033047901975807314 0.0 0.0
0.003799201614690051 -0.0023191223421171747 0.0 0.0021725527641157927 0.0 0.0
0.0023368264457759857 -0.0011886581150952757 0.0 0.0015601209394545401 0.0 0.0
0.0015888141095320996 -0.0007031533459426198 0.0 0.0013361835060320126 0.0 0.0
0.0011556245174595414 -0.00045769905809045497 0.0 0.0012108327312438938 0.0 0.0
0.0006982703205090368 -0.00021072919339631957 0.0 0.0011583481358602987 0.0 0.0
0.0002877447102647146 -0.00023586186070650994 0.0 0.0015443714575403 0.0 0.0
0.00279943332536825 -0.004255545455192439 0.0 0.004550291764947673 0.0 0.0
0.002062411623659971 -0.0033856297961083193 0.0 -0.003680302327486118 0.0 0.0
0.00019727082419680741 -0.00021492988438581717 0.0 -0.0018751634934741634 0.0 0.0
0.000503361065373166 -0.0001467354658029607 0.0 -0.0014939490188422555 0.0 0.0
0.0009076079492421757 -0.0003439518530459207 0.0 -0.0014844070681407362 0.0 0.0
0.0012990196559559061 -0.0005598254483609733 0.0 -0.0016004566753799743 0.0 0.0
0.001857931226098862 -0.0008935207695965897 0.0 -0.0018058899087084745 0.0 0.0
0.0029571410679648594 -0.0016677587929008197 0.0 -0.0023309120708339126 0.0 0.0
0.004810323391290318 -0.0031793019171766357 0.0 -0.003375217760891225 0.0 0.0
0.007406922592784776 -0.005478519385328839 0.0 -0.0048774165088092125 0.0 0.0
0.010596490820614063 -0.008423464237086398 0.0 -0.0065723463109068625 0.0 0.0
0.014285877478202716 -0.011899128129963188 0.0 -0.008264597400651996 0.0 0.0
0.01848646808420229 -0.015900702013133428 0.0 -0.009924766616734582 0.0 0.0
0.02329677396071074 -0.02051940317146239 0.0 -0.011641575438717577 0.0 0.0
0.02885165951635589 -0.0258851498889916 0.0 -0.013505431982057059 0.0 0.0
0.035231929800267084 -0.0320744975600582 0.0 -0.015495061447969638 0.0 0.0
0.04237165004714766 -0.03902114254103317 0.0 -0.01735208566273594 0.0 0.0
0.05002243645344767 -0.046478042960127475 0.0 -0.018568024121142945 0.0 0.0
0.05775450560761114 -0.054010555994228326 0.0 -0.018384939268819234 0.0 0.0
0.06484747415295235 -0.06089863258954642 0.0 -0.015609275900637931 0.0 0.0
0.07020562742269391 -0.06608174559493829 0.0 -0.00888195082204768 0.0 0.0
0.07020562742268859 -0.06608174559493207 0.0 0.008881950822080376 0.0 0.0
0.06484747415293837 -0.060898632589531765 0.0 0.015609275900682895 0.0 0.0
0.057754505607591725 -0.054010555994208787 0.0 0.01838493926885193 0.0 0.0
0.05002243645342501 -0.04647804296010083 0.0 0.018568024121158655 0.0 0.0
0.042371650047122095 -0.03902114254101008 0.0 0.017352085662730055 0.0 0.0
0.03523192980023965 -0.03207449756003511 0.0 0.015495061447961644 0.0 0.0
0.028851659516329564 -0.025885149888966064 0.0 0.013505431982052174 0.0 0.0
0.02329677396068544 -0.020519403171440187 0.0 0.011641575438713303 0.0 0.0
0.018486468084176644 -0.015900702013111445 0.0 0.009924766616723923 0.0 0.0
0.014285877478180609 -0.011899128129943426 0.0 0.008264597400640117 0.0 0.0
0.010596490820594162 -0.008423464237069078 0.0 0.006572346310890265 0.0 0.0
0.0074069225927689 -0.005478519385313074 0.0 0.004877416508799637 0.0 0.0
0.004810323391279153 -0.0031793019171661996 0.0 0.0033752177608834533 0.0 0.0
0.0029571410679580523 -0.0016677587928932702 0.0 0.0023309120708314146 0.0 0.0
0.001857931226096482 -0.0008935207695950353 0.0 0.0018058899087046998 0.0 0.0
0.0012990196559549694 -0.0005598254483605292 0.0 0.001600456675378309 0.0 0.0
0.0009076079492416345 -0.00034395185304614273 0.0 0.0014844070681377664 0.0 0.0
0.0005033610653732146 -0.00014673546580329377 0.0 0.0014939490188390914 0.0 0.0
0.00019727082419643271 -0.00021492988438501226 0.0 0.0018751634934708883 0.0 0.0
0.0020624116236542533 -0.0033856297961014567 0.0 0.0036803023274760427 0.0 0.0
0.001489846123422428 -0.002658323342503488 0.0 -0.0029716489922945732 0.0 0.0
0.00013088720990891978 -0.0002034564047059817 0.0 -0.002105417358853695 0.0 0.0
0.0003319289074285997 -9.272251142089516e-05 0.0 -0.0017711737337719469 0.0 0.0
0.0006638946482896146 -0.0002332478878150912 0.0 -0.0017340335521775496 0.0 0.0
0.0010063207086659781 -0.00042521899436265276 0.0 -0.0018541036942693878 0.0 0.0
0.001425889940004449 -0.0006542718620905497 0.0 -0.002030122830265324 0.0 0.0
0.002197095570902252 -0.0011360252000391924 0.0 -0.0024438855928844427 0.0 0.0
0.003562227909204241 -0.002157322602332812 0.0 -0.0033175778166519843 0.0 0.0
0.005563917137506147 -0.0038428852334404517 0.0 -0.004660779081133992 0.0 0.0
0.008091192874524158 -0.006113188075191456 0.0 -0.006309901897772696 0.0 0.0
0.010999114879567867 -0.008818754221080916 0.0 -0.008010587486483922 0.0 0.0
0.01427646241166168 -0.01191325655677522 0.0 -0.00965313703698023 0.0 0.0
0.0179993612254791 -0.015467192191954027 0.0 -0.011324136047733524 0.0 0.0
0.02229551148629022 -0.019601024056215888 0.0 -0.0131216627987491 0.0 0.0
0.02726597108254039 -0.024413657625089957 0.0 -0.015028163495267532 0.0 0.0
0.0329189643113436 -0.029902906641206428 0.0 -0.016821961114834527 0.0 0.0
0.03910510735106758 -0.035932270280829126 0.0 -0.018089618180797296 0.0 0.0
0.04559570756916338 -0.042272320024309806 0.0 -0.01817145551380528 0.0 0.0
0.051993153240456044 -0.048502614842950376 0.0 -0.01588646256431031 0.0 0.0
0.057414189052276965 -0.053744439875058614 0.0 -0.00953134781402859 0.0 0.0
0.057414189052273315 -0.0537444398750484 0.0 0.00953134781405962 0.0 0.0
0.051993153240444206 -0.04850261484293439 0.0 0.0158864625643535 0.0 0.0
0.045595707569147687 -0.042272320024300036 0.0 0.0181714555138367 0.0 0.0
0.03910510735104909 -0.035932270280818024 0.0 0.018089618180810285 0.0 0.0
0.032918964311323184 -0.029902906641187776 0.0 0.0168219611148262 0.0 0.0
0.027265971082518783 -0.02441365762507086 0.0 0.01502816349525915 0.0 0.0
0.02229551148627018 -0.019601024056197902 0.0 0.013121662798743994 0.0 0.0
0.017999361225460003 -0.015467192191937151 0.0 0.011324136047728528 0.0 0.0
0.014276462411642044 -0.011913256556757235 0.0 0.009653137036969073 0.0 0.0
0.010999114879550409 -0.008818754221063374 0.0 0.008010587486469711 0.0 0.0
0.00809119287450863 -0.006113188075178799 0.0 0.006309901897756709 0.0 0.0
0.005563917137494184 -0.003842885233430904 0.0 0.004660779081124611 0.0 0.0
0.0035622279091962195 -0.0021573226023263725 0.0 0.003317577816645989 0.0 0.0
0.0021970955708975615 -0.0011360252000359727 0.0 0.0024438855928816117 0.0 0.0
0.0014258899400029224 -0.0006542718620907717 0.0 0.002030122830262715 0.0 0.0
0.001006320708665298 -0.0004252189943614315 0.0 0.0018541036942679723 0.0 0.0
0.000663894648289004 -0.00023324788781425854 0.0 0.001734033552175801 0.0 0.0
0.0003319289074285303 -9.272251142028454e-05 0.0 0.0017711737337697264 0.0 0.0
0.00013088720990830915 -0.00020345640470562087 0.0 0.002105417358851863 0.0 0.0
0.0014898461234182647 -0.0026583233424979195 0.0 0.0029716489922886613 0.0 0.0
0.001055154937474559 -0.0020687122835102156 0.0 -0.002432786440405732 0.0 0.0
6.772274064549555e-05 -0.0001937002876929994 0.0 -0.002240553008343249 0.0 0.0
0.00017494480549458402 -4.094916082580946e-05 0.0 -0.001989648603143046 0.0 0.0
0.000427330721384761 -0.00012695356312819595 0.0 -0.001944409277224779 0.0 0.0
0.0007043679706400241 -0.00028609802748447155 0.0 -0.002066856388808075 0.0 0.0
0.0010191398609723928 -0.00045649254095603276 0.0 -0.0022609689435906244 0.0 0.0
0.001518767168301044 -0.0007270136841310837 0.0 -0.0025666464809142586 0.0 0.0
0.0024208222356530834 -0.0013076639394595801 0.0 -0.0031802665631483484 0.0 0.0
0.0038108311983715143 -0.0023735687858055243 0.0 -0.004223450856318811 0.0 0.0
0.005633159318005912 -0.003921844183006895 0.0 -0.005616616780523054 0.0 0.0
0.007749939516356968 -0.005831009983310098 0.0 -0.007163023638440291 0.0 0.0
0.010110324404469573 -0.008021356184743977 0.0 -0.008700051676036435 0.0 0.0
0.012764738267287315 -0.010524094928394456 0.0 -0.010249648907949882 0.0 0.0
0.015817919939880853 -0.013439608544364212 0.0 -0.011868605451441194 0.0 0.0
0.01938213056710701 -0.016874553839051565 0.0 -0.013570210140988526 0.0 0.0
0.02352027397705478 -0.02088494461692747 0.0 -0.015199599394981556 0.0 0.0
0.028196285467624496 -0.025430557792312847 0.0 -0.0163801346877821 0.0 0.0
0.033328293275842816 -0.030459081109131425 0.0 -0.016677852404035687 0.0 0.0
0.03886736285298384 -0.03589582249524481 0.0 -0.015228233475623743 0.0 0.0
0.04433572677715486 -0.04118439296001242 0.0 -0.009971661874300042 0.0 0.0
0.04433572677715268 -0.04118439296001508 0.0 0.009971661874325521 0.0 0.0
0.03886736285297514 -0.035895822495243035 0.0 0.015228233475661601 0.0 0.0
0.03332829327583055 -0.030459081109118546 0.0 0.016677852404064553 0.0 0.0
0.028196285467610424 -0.025430557792297748 0.0 0.016380134687792314 0.0 0.0
0.02352027397703986 -0.020884944616914147 0.0 0.015199599394974728 0.0 0.0
0.01938213056709176 -0.016874553839038686 0.0 0.013570210140981587 0.0 0.0
0.015817919939867142 -0.013439608544349557 0.0 0.011868605451438141 0.0 0.0
0.012764738267274325 -0.010524094928377137 0.0 0.010249648907947106 0.0 0.0
0.010110324404456028 -0.008021356184729989 0.0 0.008700051676028497 0.0 0.0
0.007749939516344423 -0.005831009983298996 0.0 0.00716302363842819 0.0 0.0
0.005633159317994962 -0.003921844182997791 0.0 0.005616616780510064 0.0 0.0
0.003810831198363479 -0.0023735687857959764 0.0 0.004223450856311206 0.0 0.0
0.0024208222356479903 -0.001307663939454251 0.0 0.003180266563143408 0.0 0.0
0.0015187671682981574 -0.0007270136841313057 0.0 0.0025666464809110945 0.0 0.0
0.0010191398609716157 -0.00045649254095647684 0.0 0.0022609689435879043 0.0 0.0
0.0007043679706396078 -0.00028609802748358337 0.0 0.0020668563888058267 0.0 0.0
0.00042733072138444184 -0.00012695356312808492 0.0 0.0019444092772226973 0.0 0.0
0.00017494480549451463 -4.094916082486577e-05 0.0 0.001989648603140548 0.0 0.0
6.772274064494044e-05 -0.00019370028769252756 0.0 0.0022405530083410563 0.0 0.0
0.0010551549374717278 -0.002068712283506656 0.0 0.0024327864404009025 0.0 0.0
0.0007437854441759983 -0.0016248130634486102 0.0 -0.002074641144466982 0.0 0.0
-1.3576141261045782e-06 -0.0001840128845153055 0.0 -0.0023206809384636873 0.0 0.0
2.7249770985199318e-05 1.3082708567813128e-05 0.0 -0.002149139771780023 0.0 0.0
0.00019866506207417978 -2.5946645476060404e-05 0.0 -0.0021082788828332144 0.0 0.0
0.000396513049857522 -0.00014141686834467926 0.0 -0.0022238777336217597 0.0 0.0
0.0006088430411756718 -0.0002655268935433108 0.0 -0.002451234931091284 0.0 0.0
0.0009022759085144522 -0.0004160632328664704 0.0 -0.002738138729059425 0.0 0.0
0.0013970352565303712 -0.000672049077610648 0.0 -0.0031040179088245856 0.0 0.0
0.0021921000964547077 -0.0011644294830743807 0.0 -0.00369710698464365 0.0 0.0
0.003275830476518679 -0.001968595510360327 0.0 -0.004613526387909128 0.0 0.0
0.0045707203066596425 -0.003040382848221057 0.0 -0.005780200062047547 0.0 0.0
0.006001361811567768 -0.004304869758837038 0.0 -0.007051590922927731 0.0 0.0
0.007599059623852877 -0.005760007631743003 0.0 -0.00839946077244369 0.0 0.0
0.009433060689554504 -0.007472673048416034 0.0 -0.009784674704517216 0.0 0.0
0.011596653891485523 -0.009532869575706648 0.0 -0.011208696276203634 0.0 0.0
0.014195030157092364 -0.012037501014587004 0.0 -0.012601332391770581 0.0 0.0
0.01731758365404798 -0.015059233529816307 0.0 -0.013700558332128854 0.0 0.0
0.021015535333971255 -0.018660220562603858 0.0 -0.0140613949947756 0.0 0.0
0.025419678802066276 -0.023052037795809888 0.0 -0.013401624131906542 0.0 0.0
0.030761970808163175 -0.028252090405107566 0.0 -0.010039841908957348 0.0 0.0
0.03076197080816173 -0.028252090405105346 0.0 0.010039841908978164 0.0 0.0
0.02541967880206153 -0.023052037795807223 0.0 0.01340162413194207 0.0 0.0
0.021015535333962734 -0.018660220562594088 0.0 0.014061394994801746 0.0 0.0
0.017317583654038654 -0.015059233529804317 0.0 0.013700558332134682 0.0 0.0
0.014195030157083621 -0.012037501014577678 0.0 0.012601332391763975 0.0 0.0
0.01159665389147678 -0.009532869575697323 0.0 0.01120869627619725 0.0 0.0
0.009433060689546982 -0.007472673048407152 0.0 0.009784674704513496 0.0 0.0
0.007599059623846105 -0.005760007631738118 0.0 0.008399460772439749 0.0 0.0
0.006001361811560316 -0.0043048697588361495 0.0 0.007051590922920459 0.0 0.0
0.004570720306652218 -0.0030403828482168382 0.0 0.005780200062037832 0.0 0.0
0.0032758304765127255 -0.001968595510355664 0.0 0.004613526387899469 0.0 0.0
0.002192100096450461 -0.001164429483070828 0.0 0.003697106984639653 0.0 0.0
0.0013970352565278177 -0.0006720490776062071 0.0 0.0031040179088224207 0.0 0.0
0.0009022759085129811 -0.0004160632328630287 0.0 0.0027381387290555392 0.0 0.0
0.0006088430411752555 -0.000265526893544088 0.0 0.0024512349310882864 0.0 0.0
0.0003965130498575359 -0.00014141686834601153 0.0 0.0022238777336193727 0.0 0.0
0.00019866506207406875 -2.5946645476726538e-05 0.0 0.0021082788828312715 0.0 0.0
2.7249770984949517e-05 1.308270856836824e-05 0.0 0.0021491397717770533 0.0 0.0
-1.357614126451523e-06 -0.0001840128845150557 0.0 0.002320680938461217 0.0 0.0
0.0007437854441743885 -0.0016248130634461382 0.0 0.0020746411444645674 0.0 0.0
0.0005271211080599553 -0.001295425641711645 0.0 -0.0018380052793237622 0.0 0.0
-6.959892008326363e-05 -0.00017285053610510692 0.0 -0.002366018598847275 0.0 0.0
-0.00011354533380666942 6.81408235376213e-05 0.0 -0.002254548150599056 0.0 0.0
-2.2413301089221904e-05 7.102286607640895e-05 0.0 -0.0022182487352740976 0.0 0.0
8.829147560190931e-05 3.6290282520168304e-06 0.0 -0.002318998882123835 0.0 0.0
0.00018829064885331204 -6.810572982751673e-05 0.0 -0.002556632378445639 0.0 0.0
0.0002987880307293439 -0.000134258435676049 0.0 -0.0028871359417509956 0.0 0.0
0.00045772350441421195 -0.00021330630534821537 0.0 -0.003208505145772478 0.0 0.0
0.0007110512737770885 -0.00033645383851577115 0.0 -0.0035159317001293156 0.0 0.0
0.0010650860541603635 -0.0005241959526256501 0.0 -0.003911792638553624 0.0 0.0
0.0015023964624418795 -0.0007866018598761126 0.0 -0.00453121775469123 0.0 0.0
0.0019789574665184523 -0.001114948355871892 0.0 -0.0053586239761501675 0.0 0.0
0.0025081090586032972 -0.0015007406769775855 0.0 -0.0063706683396972386 0.0 0.0
0.003117735815408293 -0.0019880324839776087 0.0 -0.007562314991383934 0.0 0.0
0.0038738207047686324 -0.0026516371073830314 0.0 -0.008933169974026767 0.0 0.0
0.004912898560414686 -0.003608618827303456 0.0 -0.01038099772654888 0.0 0.0
0.0064533402539477674 -0.005054131913445392 0.0 -0.01160427810412723 0.0 0.0
0.00872319682753174 -0.007194593145673167 0.0 -0.012073548623584618 0.0 0.0
0.011854482019006421 -0.010245775462442985 0.0 -0.011426388571846746 0.0 0.0
0.016475992140259715 -0.014944483655484841 0.0 -0.0098536294316795 0.0 0.0
0.016475992140259577 -0.014944483655484397 0.0 0.009853629431696986 0.0 0.0
0.011854482019004534 -0.010245775462441653 0.0 0.011426388571874557 0.0 0.0
0.00872319682752741 -0.007194593145671391 0.0 0.012073548623600328 0.0 0.0
0.006453340253944201 -0.005054131913441839 0.0 0.011604278104126342 0.0 0.0
0.004912898560412812 -0.0036086188272959063 0.0 0.010380997726540997 0.0 0.0
0.003873820704766398 -0.0026516371073781464 0.0 0.008933169974019772 0.0 0.0
0.0031177358154069884 -0.0019880324839769425 0.0 0.007562314991381158 0.0 0.0
0.002508109058602534 -0.001500740676974921 0.0 0.0063706683396946295 0.0 0.0
0.0019789574665175225 -0.001114948355871448 0.0 0.005358623976143173 0.0 0.0
0.0015023964624403113 -0.0007866018598756686 0.0 0.004531217754684902 0.0 0.0
0.0010650860541594753 -0.000524195952625206 0.0 0.003911792638547018 0.0 0.0
0.0007110512737763808 -0.0003364538385159932 0.0 0.0035159317001284274 0.0 0.0
0.00045772350441371235 -0.00021330630534799333 0.0 0.0032085051457703684 0.0 0.0
0.0002987880307290247 -0.00013425843567660412 0.0 0.0028871359417469156 0.0 0.0
0.00018829064885328428 -6.810572982673957e-05 0.0 0.0025566323784421696 0.0 0.0
8.829147560232564e-05 3.629028251905808e-06 0.0 0.002318998882120782 0.0 0.0
-2.2413301089041493e-05 7.102286607629793e-05 0.0 0.0022182487352712665 0.0 0.0
-0.00011354533380676657 6.81408235381209e-05 0.0 0.002254548150596225 0.0 0.0
-6.959892008331914e-05 -0.00017285053610488488 0.0 0.0023660185988455817 0.0 0.0
0.0005271211080591087 -0.0012954256417101878 0.0 0.001838005279322319 0.0 0.0
0.000376542402999655 -0.001048677847255458 0.0 -0.0016705940585350076 0.0 0.0
-0.0001315965034117822 -0.00015145285511375395 0.0 -0.0023623210170618802 0.0 0.0
-0.0002469489941192976 0.00012024251394820995 0.0 -0.0023093350278929337 0.0 0.0
-0.00023604802332995167 0.00016432079980133185 0.0 -0.0022710281175294667 0.0 0.0
-0.0002163545130944161 0.00014586723344267583 0.0 -0.002350536862640973 0.0 0.0
-0.00023470916766345218 0.00013115747231617902 0.0 -0.002568789073802591 0.0 0.0
-0.0003108371822713868 0.0001504078433729461 0.0 -0.0028899497696294463 0.0 0.0
-0.0004587522518959275 0.00021532133749602167 0.0 -0.003210510624315488 0.0 0.0
-0.0007095320218721557 0.0003357312455658512 0.0 -0.0035161916599568133 0.0 0.0
-0.0010633725008772354 0.0005225398661856673 0.0 -0.003909451452454915 0.0 0.0
-0.0015016106465678691 0.0007875022234460349 0.0 -0.004526567539903548 0.0 0.0
-0.0019907366439589347 0.0011262293960339065 0.0 -0.005355701681968694 0.0 0.0
-0.002543682029879951 0.0015312076063636049 0.0 -0.006370064419518262 0.0 0.0
-0.0031746911735322653 0.002024698754535148 0.0 -0.007566080564747335 0.0 0.0
-0.0038369032786118723 0.0025712745963435424 0.0 -0.008952810133670386 0.0 0.0
-0.0043748276851668655 0.0030146676593978405 0.0 -0.01050024465094529 0.0 0.0
-0.004479934349609374 0.003079607754284286 0.0 -0.01218527157554794 0.0 0.0
-0.0037684865309535603 0.0024948292687163587 0.0 -0.013987032232950725 0.0 0.0
-0.001932677587596604 0.001168029642798274 0.0 -0.01548364567715832 0.0 0.0
0.0023470976411659322 -0.002766810298317157 0.0 -0.01358805632937754 0.0 0.0
0.002347097641165946 -0.002766810298316713 0.0 0.013588056329391862 0.0 0.0
-0.001932677587597298 0.001168029642799162 0.0 0.01548364567717253 0.0 0.0
-0.003768486530952145 0.002494829268718579 0.0 0.013987032232955332 0.0 0.0
-0.004479934349605752 0.0030796077542771805 0.0 0.012185271575543888 0.0 0.0
-0.0043748276851610784 0.003014667659384962 0.0 0.010500244650937851 0.0 0.0
-0.0038369032786077922 0.002571274596336437 0.0 0.00895281013366378 0.0 0.0
-0.003174691173527505 0.0020246987545320394 0.0 0.0075660805647422835 0.0 0.0
-0.002543682029874761 0.0015312076063578317 0.0 0.006370064419513932 0.0 0.0
-0.001990736643953009 0.0011262293960301317 0.0 0.005355701681960479 0.0 0.0
-0.0015016106465634838 0.0007875022234429263 0.0 0.004526567539896331 0.0 0.0
-0.0010633725008730166 0.0005225398661834468 0.0 0.00390945145244781 0.0 0.0
-0.0007095320218698659 0.00033573124556363076 0.0 0.0035161916599568688 0.0 0.0
-0.00045875225189459523 0.00021532133749624371 0.0 0.0032105106243129344 0.0 0.0
-0.000310837182270568 0.00015040784337416735 0.0 0.002889949769626088 0.0 0.0
-0.00023470916766291094 0.00013115747231817743 0.0 0.0025687890737995933 0.0 0.0
-0.0002163545130937916 0.00014586723344223174 0.0 0.0023505368626393908 0.0 0.0
-0.00023604802332971575 0.0001643207998001106 0.0 0.0022710281175276903 0.0 0.0
-0.000246948994118909 0.0001202425139474328 0.0 0.002309335027890852 0.0 0.0
-0.0001315965034117128 -0.00015145285511394824 0.0 0.002362321017060437 0.0 0.0
0.0003765424029991138 -0.0010486778472545578 0.0 0.0016705940585332035 0.0 0.0
0.0002688458811621469 -0.0008381224953100397 0.0 -0.001504755308316924 0.0 0.0
-0.00018789036040833818 -0.00012176230185700909 0.0 -0.0023083009874455274 0.0 0.0
-0.00037211291937046254 0.0001695232850019157 0.0 -0.0023106100954791153 0.0 0.0
-0.00044191770454009294 0.0002528868172131382 0.0 -0.002266054558473951 0.0 0.0
-0.0005145919575529762 0.0002836349721264675 0.0 -0.0023163361220843726 0.0 0.0
-0.0006523450898907462 0.00032636420782450326 0.0 -0.0024968721637140534 0.0 0.0
-0.0009135542545612718 0.00043184686832886676 0.0 -0.002754231352250419 0.0 0.0
-0.0013977800752425912 0.0006739015966148454 0.0 -0.0031084817088187777 0.0 0.0
-0.002189845432388926 0.0011627464629726525 0.0 -0.0036963107179323607 0.0 0.0
-0.003273587040833109 0.001967056058991945 0.0 -0.00461092543490349 0.0 0.0
-0.0045710366492003884 0.0030427860886417246 0.0 -0.005777974657359797 0.0 0.0
-0.006012462127907417 0.004319224552886469 0.0 -0.007045682985913404 0.0 0.0
-0.007633004462660367 0.0057958954403076746 0.0 -0.00837665501342838 0.0 0.0
-0.009486839209501538 0.0075143074965464685 0.0 -0.009757317547873401 0.0 0.0
-0.011563036940535523 0.009453730526252535 0.0 -0.011270972229265763 0.0 0.0
-0.013695416530045149 0.011447995504754616 0.0 -0.013020837472992097 0.0 0.0
-0.015517448980409673 0.013140851408789178 0.0 -0.015070291571140815 0.0 0.0
-0.01649378432425949 0.014022366718134727 0.0 -0.017314648199862726 0.0 0.0
-0.015722643819454873 0.012975841171609215 0.0 -0.018270205182700172 0.0 0.0
-0.011071470192258945 0.008181410938590261 0.0 -0.01586321088489623 0.0 0.0
-0.011071470192259694 0.008181410938591593 0.0 0.015863210884918155 0.0 0.0
-0.015722643819454124 0.012975841171609215 0.0 0.01827020518273037 0.0 0.0
-0.016493784324252497 0.014022366718129398 0.0 0.017314648199879823 0.0 0.0
-0.01551744898039921 0.013140851408775411 0.0 0.015070291571139649 0.0 0.0
-0.013695416530031937 0.011447995504743513 0.0 0.01302083747298266 0.0 0.0
-0.011563036940525143 0.009453730526241877 0.0 0.011270972229257603 0.0 0.0
-0.009486839209491005 0.0075143074965347 0.0 0.00975731754786574 0.0 0.0
-0.007633004462649057 0.005795895440296794 0.0 0.00837665501342233 0.0 0.0
-0.006012462127895024 0.004319224552875811 0.0 0.0070456829859043 0.0 0.0
-0.004571036649190174 0.0030427860886321767 0.0 0.005777974657348306 0.0 0.0
-0.003273587040823825 0.001967056058981953 0.0 0.004610925434891666 0.0 0.0
-0.002189845432383028 0.0011627464629668793 0.0 0.0036963107179289745 0.0 0.0
-0.0013977800752392605 0.0006739015966137352 0.0 0.003108481708816113 0.0 0.0
-0.0009135542545592318 0.0004318468683260912 0.0 0.002754231352248615 0.0 0.0
-0.0006523450898895944 0.00032636420782206077 0.0 0.0024968721637108893 0.0 0.0
-0.0005145919575522129 0.0002836349721261344 0.0 0.002316336122082263 0.0 0.0
-0.0004419177045396905 0.00025288681721419293 0.0 0.002266054558471814 0.0 0.0
-0.0003721129193700323 0.0001695232850023043 0.0 0.0023106100954783937 0.0 0.0
-0.00018789036040821328 -0.00012176230185689807 0.0 0.002308300987443307 0.0 0.0
0.00026884588116179997 -0.0008381224953095696 0.0 0.0015047553083153697 0.0 0.0
0.00018214610691863475 -0.0006482740432257328 0.0 -0.0013312737905150085 0.0 0.0
-0.00024007063596573341 -8.45880723071013e-05 0.0 -0.0022010952994317157 0.0 0.0
-0.0004894347806607968 0.00021613766794320588 0.0 -0.0022564106288732177 0.0 0.0
-0.000639115519614708 0.00033633790764342475 0.0 -0.0022019207711768685 0.0 0.0
-0.0008038106563727221 0.000413385930944532 0.0 -0.0022135230019389995 0.0 0.0
-0.0010569475303345843 0.0005122112931966738 0.0 -0.0023283395442242893 0.0 0.0
-0.001528751328946698 0.0007427765449552481 0.0 -0.0025897113626617008 0.0 0.0
-0.002419954793141138 0.001308327188455305 0.0 -0.0031869065999799995 0.0 0.0
-0.0038076238817943975 0.002370683247997718 0.0 -0.004219438046808743 0.0 0.0
-0.005631741265094997 0.003920713855257052 0.0 -0.005613663374761435 0.0 0.0
-0.007751516272535314 0.005834031151327634 0.0 -0.007161335716390382 0.0 0.0
-0.010118554650266967 0.008032757626987186 0.0 -0.008687421744736301 0.0 0.0
-0.012789114933116755 0.010551464653301368 0.0 -0.010194461428118695 0.0 0.0
-0.01585933165526225 0.013473458397461613 0.0 -0.011767130223402311 0.0 0.0
-0.019359979897175847 0.016816316743585524 0.0 -0.013581358939536714 0.0 0.0
-0.02312397615795557 0.020410358966139963 0.0 -0.015876608189808683 0.0 0.0
-0.02670226542189194 0.023815708857676476 0.0 -0.018842521929297307 0.0 0.0
-0.02925617410896951 0.026143400759033764 0.0 -0.02195957579501584 0.0 0.0
-0.0291934737429438 0.02579374585856753 0.0 -0.02356915638487217 0.0 0.0
-0.023775387392551903 0.019813098357383208 0.0 -0.020230985429804227 0.0 0.0
-0.023775387392551944 0.019813098357387204 0.0 0.020230985429829984 0.0 0.0
-0.02919347374294072 0.025793745858567085 0.0 0.02356915638490492 0.0 0.0
-0.02925617410895831 0.026143400759021773 0.0 0.021959575795038933 0.0 0.0
-0.026702265421876148 0.02381570885766182 0.0 0.018842521929301026 0.0 0.0
-0.023123976157936155 0.020410358966123088 0.0 0.015876608189800523 0.0 0.0
-0.019359979897158666 0.01681631674356865 0.0 0.01358135893952822 0.0 0.0
-0.015859331655245917 0.013473458397447402 0.0 0.01176713022339354 0.0 0.0
-0.012789114933098922 0.010551464653285825 0.0 0.01019446142811059 0.0 0.0
-0.01011855465024901 0.008032757626969422 0.0 0.008687421744725254 0.0 0.0
-0.007751516272519118 0.005834031151311647 0.0 0.007161335716375228 0.0 0.0
-0.0056317412650807724 0.003920713855247504 0.0 0.0056136633747463915 0.0 0.0
-0.0038076238817843916 0.0023706832479895024 0.0 0.004219438046802915 0.0 0.0
-0.0024199547931352122 0.0013083271884530845 0.0 0.003186906599976058 0.0 0.0
-0.0015287513289432841 0.0007427765449569135 0.0 0.002589711362658398 0.0 0.0
-0.0010569475303330716 0.0005122112931983391 0.0 0.0023283395442214028 0.0 0.0
-0.000803810656371709 0.00041338593094475407 0.0 0.0022135230019371954 0.0 0.0
-0.0006391155196139586 0.00033633790764237004 0.0 0.002201920771174287 0.0 0.0
-0.0004894347806603944 0.0002161376679433169 0.0 0.0022564106288706365 0.0 0.0
-0.000240070635965553 -8.458807230729559e-05 0.0 0.0022010952994284128 0.0 0.0
0.00018214610691845434 -0.0006482740432248862 0.0 0.0013312737905121774 0.0 0.0
0.00010644204819540426 -0.0004773664358294627 0.0 -0.0011545060142940933 0.0 0.0
-0.0002906232321200908 -4.070019813823267e-05 0.0 -0.0020429894463183107 0.0 0.0
-0.0005997560394014889 0.0002609421497581921 0.0 -0.0021468588333841687 0.0 0.0
-0.000827561202074889 0.00041348687247733107 0.0 -0.002082736619112624 0.0 0.0
-0.001078946044080209 0.0005321285575152768 0.0 -0.0020414378563711755 0.0 0.0
-0.0014570387936806983 0.0007051225875533973 0.0 -0.0021203624706844504 0.0 0.0
-0.0022038359078625225 0.0011507610065688567 0.0 -0.002476741045230074 0.0 0.0
-0.003558930616828687 0.002155387742104553 0.0 -0.0033188489748505745 0.0 0.0
-0.005560826532614388 0.0038395390866712287 0.0 -0.004654494686206823 0.0 0.0
-0.008091375415163082 0.006113438270825444 0.0 -0.006307670022460021 0.0 0.0
-0.011001601093526436 0.008822214239138981 0.0 -0.008009897979514902 0.0 0.0
-0.014279911069215695 0.01191879975638055 0.0 -0.009636410358625447 0.0 0.0
-0.01800507249101943 0.015475853933837325 0.0 -0.011243333102529174 0.0 0.0
-0.02230747706016875 0.019611267979122715 0.0 -0.012943820425013186 0.0 0.0
-0.02725446130308873 0.02438226062023041 0.0 -0.014947836445104223 0.0 0.0
-0.03269867057243346 0.02962541454667189 0.0 -0.01761745618041416 0.0 0.0
-0.03805471658468432 0.034740814695914946 0.0 -0.021178563640278703 0.0 0.0
-0.042048356762166506 0.03843805547810453 0.0 -0.025052259283508405 0.0 0.0
-0.04246492998615202 0.03845254512051932 0.0 -0.027231235763674033 0.0 0.0
-0.03560477380853598 0.030980916163901195 0.0 -0.02425088298474809 0.0 0.0
-0.035604773808534926 0.03098091616389942 0.0 0.024250882984777233 0.0 0.0
-0.04246492998614562 0.038452545120509996 0.0 0.027231235763710504 0.0 0.0
-0.04204835676215117 0.03843805547808987 0.0 0.02505225928353616 0.0 0.0
-0.03805471658466386 0.03474081469589807 0.0 0.02117856364028564 0.0 0.0
-0.03269867057240909 0.02962541454665013 0.0 0.01761745618040822 0.0 0.0
-0.027254461303064748 0.024382260620209095 0.0 0.014947836445095841 0.0 0.0
-0.022307477060146547 0.01961126797910029 0.0 0.012943820425004582 0.0 0.0
-0.01800507249099559 0.015475853933816008 0.0 0.011243333102519737 0.0 0.0
-0.014279911069192006 0.011918799756361453 0.0 0.009636410358612402 0.0 0.0
-0.011001601093504648 0.008822214239117887 0.0 0.008009897979499192 0.0 0.0
-0.008091375415143875 0.006113438270807681 0.0 0.006307670022443201 0.0 0.0
-0.005560826532600371 0.0038395390866601264 0.0 0.004654494686198385 0.0 0.0
-0.0035589306168197776 0.0021553877420967815 0.0 0.0033188489748439687 0.0 0.0
-0.0022038359078571934 0.0011507610065644158 0.0 0.0024767410452259664 0.0 0.0
-0.0014570387936785334 0.0007051225875523981 0.0 0.002120362470681758 0.0 0.0
-0.0010789460440790016 0.0005321285575146106 0.0 0.002041437856370232 0.0 0.0
-0.0008275612020740147 0.0004134868724770535 0.0 0.002082736619111847 0.0 0.0
-0.0005997560394011558 0.0002609421497582476 0.0 0.002146858833383003 0.0 0.0
-0.00029062323211966057 -4.0700198138260424e-05 0.0 0.0020429894463168674 0.0 0.0
0.0001064420481952516 -0.0004773664358289926 0.0 0.001154506014293788 0.0 0.0
3.9289141069598355e-05 -0.0003261444665982882 0.0 -0.0009739758274442678 0.0 0.0
-0.0003409931478028927 8.168499384009209e-06 0.0 -0.001839219403208997 0.0 0.0
-0.0007040942367778913 0.0003045271816905504 0.0 -0.0019822549436665227 0.0 0.0
-0.0010066113161069645 0.00048342113076305093 0.0 -0.0019029137594765155 0.0 0.0
-0.0013386444709279077 0.000640974443572917 0.0 -0.0018115974124159606 0.0 0.0
-0.0018811900077876087 0.000934919237812526 0.0 -0.0018977759973813346 0.0 0.0
-0.002958873733587941 0.0016777248603763173 0.0 -0.002356858149078739 0.0 0.0
-0.0048058063674656926 0.0031752737933223862 0.0 -0.0033718822046634456 0.0 0.0
-0.007405226879204169 0.0054760727224762995 0.0 -0.004869611861562706 0.0 0.0
-0.0105983479626999 0.008425284441678338 0.0 -0.006570278089041426 0.0 0.0
-0.014288772895443141 0.011902460532255743 0.0 -0.008263104260550103 0.0 0.0
-0.0184838081645127 0.015898672301909 0.0 -0.009905232612559212 0.0 0.0
-0.023277625040935057 0.020502501863944644 0.0 -0.011549149358953681 0.0 0.0
-0.028819109595381198 0.025857777658174097 0.0 -0.013283949082523838 0.0 0.0
-0.03522073567401546 0.03206345440449487 0.0 -0.015321890054502352 0.0 0.0
-0.04234415518794438 0.03895274531996096 0.0 -0.018035099940333144 0.0 0.0
-0.04944536402142874 0.045752349066867204 0.0 -0.021722803371885424 0.0 0.0
-0.05480662258383365 0.05073116934957156 0.0 -0.026004821262291145 0.0 0.0
-0.055480062795982193 0.05092387873222748 0.0 -0.029012834532871845 0.0 0.0
-0.04704382375387113 0.041905994288812476 0.0 -0.027982086127553263 0.0 0.0
-0.047043823753869146 0.04190599428880981 0.0 0.02798208612758385 0.0 0.0
-0.05548006279597199 0.05092387873221549 0.0 0.029012834532910092 0.0 0.0
-0.05480662258381455 0.05073116934955024 0.0 0.0260048212623209 0.0 0.0
-0.04944536402140394 0.045752349066845 0.0 0.021722803371892196 0.0 0.0
-0.04234415518791482 0.03895274531993209 0.0 0.018035099940329424 0.0 0.0
-0.03522073567398573 0.032063454404464675 0.0 0.015321890054495801 0.0 0.0
-0.028819109595352513 0.025857777658145675 0.0 0.013283949082513347 0.0 0.0
-0.02327762504090558 0.020502501863912892 0.0 0.01154914935894455 0.0 0.0
-0.018483808164483265 0.015898672301878358 0.0 0.009905232612547388 0.0 0.0
-0.014288772895416336 0.011902460532228432 0.0 0.008263104260533644 0.0 0.0
-0.010598347962676176 0.008425284441657688 0.0 0.006570278089023163 0.0 0.0
-0.007405226879186107 0.005476072722460534 0.0 0.0048696118615512984 0.0 0.0
-0.004805806367453404 0.00317527379331195 0.0 0.003371882204656146 0.0 0.0
-0.0029588737335803222 0.001677724860369878 0.0 0.0023568581490756857 0.0 0.0
-0.0018811900077844723 0.0009349192378110827 0.0 0.001897775997379253 0.0 0.0
-0.001338644470926506 0.000640974443573028 0.0 0.0018115974124157108 0.0 0.0
-0.001006611316106014 0.0004834211307627734 0.0 0.0019029137594750722 0.0 0.0
-0.0007040942367773778 0.00030452718168949566 0.0 0.0019822549436651626 0.0 0.0
-0.0003409931478024833 8.168499383648387e-06 0.0 0.0018392194032084697 0.0 0.0
3.928914106949427e-05 -0.0003261444665980488 0.0 0.0009739758274425192 0.0 0.0
-1.8958207695290996e-05 -0.00019638790542894635 0.0 -0.0007880726113470848 0.0 0.0
-0.0003906658506376004 5.9708940496283613e-05 0.0 -0.0015951119781907053 0.0 0.0
-0.0008033217801547976 0.00034691196060943064 0.0 -0.0017637394489501412 0.0 0.0
-0.0011755757826069635 0.0005458228738677295 0.0 -0.0016689222770916168 0.0 0.0
-0.0015946287100996326 0.0007579543299897074 0.0 -0.0015581748668123674 0.0 0.0
-0.002346986677242535 0.0012200607253213258 0.0 -0.0016587962967514192 0.0 0.0
-0.003797212479399237 0.0023238390335917902 0.0 -0.0021919791384540366 0.0 0.0
-0.006139843528967903 0.0043333113991990135 0.0 -0.0032953753778015016 0.0 0.0
-0.009287501115924801 0.007202992064608615 0.0 -0.0047651650819080515 0.0 0.0
-0.01312470119548842 0.010792779550583775 0.0 -0.006361685870862721 0.0 0.0
-0.017597324586014235 0.0150357616254011 0.0 -0.007976628943430042 0.0 0.0
-0.022719972380879222 0.019939148151565167 0.0 -0.009546485201937849 0.0 0.0
-0.02859783173718969 0.02560322874474208 0.0 -0.011135237596975045 0.0 0.0
-0.035387390897737486 0.03218424039505763 0.0 -0.01284124614455201 0.0 0.0
-0.043213190452162376 0.03979484193420957 0.0 -0.01474677669372959 0.0 0.0
-0.051951733737047784 0.048269261948175934 0.0 -0.017123493936048284 0.0 0.0
-0.06073956804037953 0.05669991930297025 0.0 -0.020480926008723754 0.0 0.0
-0.06742447694987314 0.06292110291673536 0.0 -0.024890779617776082 0.0 0.0
-0.0683533422487034 0.06331635590200602 0.0 -0.029227345279576378 0.0 0.0
-0.05849727781854344 0.052896286622436506 0.0 -0.03163120424598559 0.0 0.0
-0.05849727781853989 0.05289628662243562 0.0 0.03163120424601623 0.0 0.0
-0.06835334224869007 0.0633163559019927 0.0 0.029227345279614902 0.0 0.0
-0.06742447694985018 0.06292110291671182 0.0 0.024890779617806835 0.0 0.0
-0.06073956804035037 0.05669991930294449 0.0 0.02048092600873236 0.0 0.0
-0.051951733737013006 0.04826926194814263 0.0 0.01712349393604573 0.0 0.0
-0.043213190452127244 0.03979484193417315 0.0 0.014746776693726343 0.0 0.0
-0.03538739089770258 0.03218424039502854 0.0 0.012841246144544322 0.0 0.0
-0.028597831737154716 0.025603228744711437 0.0 0.01113523759696719 0.0 0.0
-0.022719972380843903 0.01993914815153408 0.0 0.009546485201926885 0.0 0.0
-0.017597324585982572 0.015035761625370458 0.0 0.007976628943416247 0.0 0.0
-0.013124701195460373 0.010792779550557574 0.0 0.006361685870846928 0.0 0.0
-0.009287501115902756 0.007202992064586633 0.0 0.004765165081897116 0.0 0.0
-0.006139843528952159 0.00433331139918347 0.0 0.00329537537779398 0.0 0.0
-0.0037972124793893003 0.0023238390335830195 0.0 0.0021919791384488463 0.0 0.0
-0.0023469866772380873 0.001220060725316996 0.0 0.0016587962967484493 0.0 0.0
-0.0015946287100978632 0.0007579543299884861 0.0 0.0015581748668116457 0.0 0.0
-0.0011755757826059365 0.0005458228738668414 0.0 0.0016689222770905343 0.0 0.0
-0.0008033217801540829 0.000346911960608709 0.0 0.0017637394489481983 0.0 0.0
-0.0003906658506372049 5.970894049645015e-05 0.0 0.0015951119781881795 0.0 0.0
-1.8958207695429774e-05 -0.0001963879054286237 0.0 0.0007880726113459191 0.0 0.0
-6.630794794232342e-05 -9.047706585182946e-05 0.0 -0.0005959248903808501 0.0 0.0
-0.00043719023479663055 0.00011098608590903725 0.0 -0.0013150942359548556 0.0 0.0
-0.0008976891098474438 0.0003876566689471339 0.0 -0.0014911197943954235 0.0 0.0
-0.0013370656368544287 0.0006025935067709431 0.0 -0.0013863608320753562 0.0 0.0
-0.0018619236908333225 0.0008884604256308437 0.0 -0.0012674598440123308 0.0 0.0
-0.002866434699530823 0.0015800713078577555 0.0 -0.0013958946339967249 0.0 0.0
-0.004719206744032783 0.003090018000597494 0.0 -0.001984161328698386 0.0 0.0
-0.007511115535143609 0.005573861271108038 0.0 -0.003017782781175815 0.0 0.0
-0.011177038287227409 0.00896600915192125 0.0 -0.004300474810659205 0.0 0.0
-0.015659149251848636 0.01319137015900207 0.0 -0.005725140925830707 0.0 0.0
-0.020914376413127322 0.0181998891195414 0.0 -0.007167400207086616 0.0 0.0
-0.026975684860329863 0.02401889257138423 0.0 -0.008576086620038281 0.0 0.0
-0.033955357239569356 0.03076044064966066 0.0 -0.010030219542620011 0.0 0.0
-0.041999138120215634 0.0385670919335972 0.0 -0.011592807383793313 0.0 0.0
-0.05119907061958112 0.04752767407598357 0.0 -0.013257786483680256 0.0 0.0
-0.061419378130603414 0.05746885006900104 0.0 -0.015057527171719487 0.0 0.0
-0.07177448377419918 0.06742503255542198 0.0 -0.017516326471618715 0.0 0.0
-0.07981796244310885 0.07493431699658837 0.0 -0.021667387347102662 0.0 0.0
-0.0812571398238902 0.0757766513352709 0.0 -0.02787255656439097 0.0 0.0
-0.07029776828836116 0.06424259597500592 0.0 -0.03518387433512821 0.0 0.0
-0.07029776828835618 0.06424259597500104 0.0 0.03518387433515818 0.0 0.0
-0.08125713982387388 0.07577665133525802 0.0 0.02787255656442461 0.0 0.0
-0.0798179624430818 0.07493431699656572 0.0 0.021667387347129197 0.0 0.0
-0.07177448377416484 0.06742503255538868 0.0 0.017516326471626598 0.0 0.0
-0.06141937813056396 0.05746885006896951 0.0 0.015057527171718293 0.0 0.0
-0.051199070619540696 0.047527674075950266 0.0 0.013257786483677592 0.0 0.0
-0.041999138120174535 0.03856709193355856 0.0 0.011592807383785486 0.0 0.0
-0.03395535723952883 0.03076044064962269 0.0 0.0100302195426126 0.0 0.0
-0.02697568486028884 0.024018892571346262 0.0 0.008576086620027679 0.0 0.0
-0.02091437641309045 0.018199889119504986 0.0 0.007167400207072905 0.0 0.0
-0.015659149251816495 0.013191370158969873 0.0 0.0057251409258180785 0.0 0.0
-0.01117703828720188 0.008966009151897714 0.0 0.004300474810649962 0.0 0.0
-0.007511115535124908 0.005573861271091385 0.0 0.003017782781169237 0.0 0.0
-0.004719206744020314 0.0030900180005881683 0.0 0.001984161328693085 0.0 0.0
-0.0028664346995247586 0.0015800713078536477 0.0 0.0013958946339932277 0.0 0.0
-0.0018619236908309633 0.0008884604256282902 0.0 0.001267459844010721 0.0 0.0
-0.0013370656368533462 0.0006025935067697219 0.0 0.0013863608320739962 0.0 0.0
-0.0008976891098466666 0.00038765666894691186 0.0 0.0014911197943948962 0.0 0.0
-0.0004371902347962975 0.00011098608590859316 0.0 0.0013150942359543005 0.0 0.0
-6.630794794235811e-05 -9.047706585201508e-05 0.0 0.0005959248903797953 0.0 0.0
-9.907514514556626e-05 -1.1457550532084637e-05 0.0 -0.00039925804089044337 0.0 0.0
-0.00047565377392794206 0.00015836473079150482 0.0 -0.001001546854705826 0.0 0.0
-0.0009872521200535722 0.00042518233969485175 0.0 -0.0011632615770703347 0.0 0.0
-0.0014968092890536577 0.0006615264786921093 0.0 -0.0010582526762104028 0.0 0.0
-0.0021539240597573117 0.0010510977347678585 0.0 -0.0009462546978593334 0.0 0.0
-0.0034570880536420046 0.0020258518453640795 0.0 -0.0011119448903761653 0.0 0.0
-0.005689394070206355 0.0039326589965951175 0.0 -0.0016386962793562276 0.0 0.0
-0.008886462098645992 0.006844392993759607 0.0 -0.0024705845056414155 0.0 0.0
-0.013064784428264253 0.010747489229741669 0.0 -0.0035130418667131957 0.0 0.0
-0.018186273233928546 0.015600664364898265 0.0 -0.004675415695694185 0.0 0.0
-0.024227540039206658 0.021376076427987778 0.0 -0.00585775935287175 0.0 0.0
-0.03123721821668729 0.02812101721036253 0.0 -0.007010371090697187 0.0 0.0
-0.03933377814186606 0.03595256483955822 0.0 -0.008207866275529496 0.0 0.0
-0.048639851268627105 0.04499115280585597 0.0 -0.009547897992619847 0.0 0.0
-0.059166114873792613 0.05524477976576048 0.0 -0.010921248076754098 0.0 0.0
-0.07067911721708656 0.06646236208421152 0.0 -0.01201646057024297 0.0 0.0
-0.08235556453408219 0.07775367254952092 0.0 -0.013086476767971367 0.0 0.0
-0.09187101636960697 0.08666902612642868 0.0 -0.016329525645223775 0.0 0.0
-0.09433653048332091 0.08844024990130839 0.0 -0.024572466105026225 0.0 0.0
-0.08281750601091308 0.07627802509942416 0.0 -0.03836534525124591 0.0 0.0
-0.08281750601090714 0.0762780250994175 0.0 0.03836534525126989 0.0 0.0
-0.09433653048330148 0.08844024990128752 0.0 0.02457246610505609 0.0 0.0
-0.09187101636957566 0.08666902612639449 0.0 0.0163295256452482 0.0 0.0
-0.08235556453404247 0.0777536725494814 0.0 0.013086476767977473 0.0 0.0
-0.07067911721704216 0.066462362084164 0.0 0.012016460570243442 0.0 0.0
-0.059166114873747136 0.05524477976571296 0.0 0.010921248076753792 0.0 0.0
-0.04863985126858021 0.044991152805807344 0.0 0.009547897992613186 0.0 0.0
-0.03933377814181938 0.03595256483951137 0.0 0.008207866275522446 0.0 0.0
-0.03123721821664091 0.028121017210317456 0.0 0.007010371090690221 0.0 0.0
-0.02422754003916471 0.02137607642794892 0.0 0.005857759352860814 0.0 0.0
-0.018186273233892554 0.015600664364864958 0.0 0.004675415695683249 0.0 0.0
-0.013064784428235419 0.010747489229715912 0.0 0.003513041866704536 0.0 0.0
-0.008886462098624266 0.006844392993739401 0.0 0.002470584505635698 0.0 0.0
-0.005689394070191502 0.003932658996582461 0.0 0.0016386962793514537 0.0 0.0
-0.003457088053634233 0.0020258518453583063 0.0 0.0011119448903732232 0.0 0.0
-0.002153924059754054 0.001051097734765416 0.0 0.0009462546978598607 0.0 0.0
-0.001496809289052655 0.0006615264786910546 0.0 0.0010582526762109856 0.0 0.0
-0.0009872521200527708 0.00042518233969374153 0.0 0.0011632615770702515 0.0 0.0
-0.0004756537739277755 0.00015836473079100521 0.0 0.0010015468547058537 0.0 0.0
-9.907514514548299e-05 -1.1457550532174843e-05 0.0 0.0003992580408905544 0.0 0.0
-0.00011093180651294832 3.677385824335522e-05 0.0 -0.00020474711474161023 0.0 0.0
-0.0004974722149432009 0.00019611369530420086 0.0 -0.0006541137209461478 0.0 0.0
-0.001072743190567993 0.0004594514989352261 0.0 -0.0007735523184652648 0.0 0.0
-0.0016646612891375312 0.0007283701093917516 0.0 -0.0006879327681564018 0.0 0.0
-0.002490693339854161 0.0012717604554224327 0.0 -0.0006145830243899919 0.0 0.0
-0.004109632627010779 0.0025545159536187745 0.0 -0.0007567474218847792 0.0 0.0
-0.0066703961111874155 0.004817746850468652 0.0 -0.0011330194444507669 0.0 0.0
-0.010259139727884836 0.00812855657494893 0.0 -0.0016942101531841058 0.0 0.0
-0.014936151688657001 0.012529504512650336 0.0 -0.0024104329636666644 0.0 0.0
-0.02069193806168182 0.01800374090613177 0.0 -0.0032223600532265695 0.0 0.0
-0.027523270674529088 0.024548683723469855 0.0 -0.0040458530815813964 0.0 0.0
-0.035491881808386694 0.032228876631713144 0.0 -0.004849328140246523 0.0 0.0
-0.04471758640064516 0.04116254618240256 0.0 -0.005718223022122826 0.0 0.0
-0.05528131516039031 0.05142673161321376 0.0 -0.006682246730641606 0.0 0.0
-0.06709473903709903 0.06292792796706248 0.0 -0.007614410030129859 0.0 0.0
-0.07975460375222712 0.07526206622674225 0.0 -0.00817023694097141 0.0 0.0
-0.092384887944822 0.0875369096284011 0.0 -0.008012427864862448 0.0 0.0
-0.10317761122256688 0.0978296338254303 0.0 -0.008938424580359594 0.0 0.0
-0.10765870636099364 0.10135712605362945 0.0 -0.0180912072645647 0.0 0.0
-0.09662503480925665 0.08951498537875491 0.0 -0.04046575126222207 0.0 0.0
-0.09662503480924946 0.08951498537874603 0.0 0.04046575126223967 0.0 0.0
-0.10765870636097108 0.10135712605360725 0.0 0.01809120726458724 0.0 0.0
-0.10317761122253084 0.09782963382539656 0.0 0.008938424580376081 0.0 0.0
-0.0923848879447764 0.08753690962835581 0.0 0.00801242786486478 0.0 0.0
-0.07975460375217786 0.07526206622669429 0.0 0.008170236940973935 0.0 0.0
-0.0670947390370481 0.06292792796701319 0.0 0.007614410030128416 0.0 0.0
-0.05528131516033765 0.05142673161316824 0.0 0.006682246730638747 0.0 0.0
-0.04471758640059241 0.04116254618235837 0.0 0.005718223022118274 0.0 0.0
-0.03549188180833478 0.032228876631665404 0.0 0.004849328140243192 0.0 0.0
-0.027523270674482597 0.02454868372342478 0.0 0.004045853081573236 0.0 0.0
-0.0206919380616423 0.018003740906093135 0.0 0.003222360053218354 0.0 0.0
-0.014936151688624815 0.012529504512619916 0.0 0.0024104329636611133 0.0 0.0
-0.01025913972786021 0.008128556574926282 0.0 0.0016942101531789155 0.0 0.0
-0.0066703961111703874 0.00481774685045222 0.0 0.0011330194444473252 0.0 0.0
-0.004109632627001057 0.002554515953611225 0.0 0.0007567474218830028 0.0 0.0
-0.0024906933398499576 0.001271760455419213 0.0 0.0006145830243894368 0.0 0.0
-0.001664661289136421 0.0007283701093893646 0.0 0.0006879327681554304 0.0 0.0
-0.0010727431905673806 0.0004594514989349485 0.0 0.0007735523184640158 0.0 0.0
-0.0004974722149428176 0.00019611369530397882 0.0 0.0006541137209446768 0.0 0.0
-0.00011093180651278005 3.677385824311409e-05 0.0 0.00020474711474161023 0.0 0.0
-9.051523000680461e-05 4.858530609147538e-05 0.0 -2.8295091707902786e-05 0.0 0.0
-0.0004884189591566057 0.0002155315812857883 0.0 -0.00026646261667673254 0.0 0.0
-0.001156863795102936 0.0004901807206280084 0.0 -0.0003075767068438373 0.0 0.0
-0.0018584418277256542 0.0008220336111742776 0.0 -0.0002829591034162471 0.0 0.0
-0.002886028146490527 0.0015506535892665374 0.0 -0.0002520439589615009 0.0 0.0
-0.0047934803613597365 0.003131289338903609 0.0 -0.0003051200952335631 0.0 0.0
-0.007653762171618478 0.005721712518798938 0.0 -0.0004629311952060178 0.0 0.0
-0.01161498069636388 0.009411166806841065 0.0 -0.0006907589646446555 0.0 0.0
-0.01677749064206349 0.01429389095057676 0.0 -0.0010006992161020745 0.0 0.0
-0.023160868091837344 0.020382373231222717 0.0 -0.0013654743784658474 0.0 0.0
-0.030788791516364877 0.02770422332044631 0.0 -0.0017363315235306431 0.0 0.0
-0.03973254744895119 0.03633371238701044 0.0 -0.002118903461035271 0.0 0.0
-0.05008200784002942 0.0463638302624505 0.0 -0.0025275211504339756 0.0 0.0
-0.061880885647390665 0.05783166797982764 0.0 -0.002951322399387668 0.0 0.0
-0.07495710780143885 0.07055680551002519 0.0 -0.003326596676985316 0.0 0.0
-0.08871320064822216 0.0839439931966024 0.0 -0.003431737277996283 0.0 0.0
-0.10203464064510151 0.09689866905925237 0.0 -0.0028927471656091663 0.0 0.0
-0.11332351029332519 0.10782277241017635 0.0 -0.0016905869362530135 0.0 0.0
-0.1199462786658553 0.11386900549008994 0.0 -0.005824589114639567 0.0 0.0
-0.11335298431848158 0.10516279829603326 0.0 -0.037344766338728796 0.0 0.0
-0.1133529843184739 0.10516279829602704 0.0 0.037344766338736624 0.0 0.0
-0.11994627866583008 0.11386900549006906 0.0 0.00582458911464967 0.0 0.0
-0.11332351029328312 0.10782277241013993 0.0 0.0016905869362615067 0.0 0.0
-0.1020346406450494 0.09689866905920663 0.0 0.002892747165607612 0.0 0.0
-0.08871320064816784 0.08394399319654777 0.0 0.0034317372779974764 0.0 0.0
-0.07495710780138223 0.07055680550996923 0.0 0.0033265966769839284 0.0 0.0
-0.061880885647331456 0.05783166797977257 0.0 0.002951322399386558 0.0 0.0
-0.05008200783997089 0.04636383026239166 0.0 0.0025275211504316997 0.0 0.0
-0.039732547448893936 0.03633371238695515 0.0 0.002118903461035493 0.0 0.0
-0.030788791516313762 0.02770422332039768 0.0 0.0017363315235244259 0.0 0.0
-0.023160868091794483 0.020382373231182083 0.0 0.001365474378461684 0.0 0.0
-0.016777490642027812 0.01429389095054412 0.0 0.0010006992160995765 0.0 0.0
-0.011614980696336848 0.009411166806814864 0.0 0.000690758964642435 0.0 0.0
-0.007653762171599212 0.0057217125187808415 0.0 0.0004629311952044357 0.0 0.0
-0.004793480361348011 0.003131289338892951 0.0 0.00030512009523378514 0.0 0.0
-0.0028860281464853513 0.0015506535892623186 0.0 0.00025204395896064047 0.0 0.0
-0.001858441827724027 0.0008220336111732784 0.0 0.000282959103415914 0.0 0.0
-0.0011568637951021275 0.0004901807206288966 0.0 0.0003075767068442814 0.0 0.0
-0.000488418959156179 0.0002155315812862879 0.0 0.00026646261667698234 0.0 0.0
-9.051523000662941e-05 4.858530609134527e-05 0.0 2.8295091707847275e-05 0.0 0.0
SCALARS Statev float 8
LOOKUP_TABLE default
0.0 0.010574291605157488 0.008088819097972886 -0.008472919449605744 0.00038410035163286184 -0.004589407884169955 0.0 0.0
0.0 0.00037626327253882224 0.00023237138153111504 -0.00018536967486052888 -4.7001706670586176e-05 0.0002488488510183579 0.0 0.0
0.0 3.342380937738801e-05 -4.754075056001044e-06 3.773145031477424e-06 9.809300245235895e-07 5.62033213615258e-07 0.0 0.0
0.0 0.00013450911826851664 6.200384791975906e-05 -4.823274595180264e-05 -1.3771101967956506e-05 -8.402447156324208e-06 0.0 0.0
0.0 0.0008838003161200921 0.0006459422872656118 -0.0005207689686094448 -0.00012517331865616741 -7.222416739879446e-05 0.0 0.0
0.0 0.0024231807365092096 0.002226574689283627 -0.001880942449670994 -0.000345632239612633 -0.00018274875104986015 0.0 0.0
0.0 0.005329992393940724 0.004819055237179221 -0.004277063673581309 -0.0005419915635979117 -0.0003395443858072673 0.0 0.0
0.0 0.009585940551439399 0.00855418308380158 -0.007864212518118278 -0.0006899705656833019 -0.0005565018763837064 0.0 0.0
0.0 0.015268512558616155 0.013493945232773395 -0.012688267219907078 -0.0008056780128663111 -0.0008493994581335283 0.0 0.0
0.0 0.02239347438056636 0.01965568401892925 -0.01874427745201815 -0.0009114065669111019 -0.001200863183252991 0.0 0.0
0.0 0.031019072303166494 0.027073448275936263 -0.026057142558341795 -0.0010163057175944683 -0.0015689299448048725 0.0 0.0
0.0 0.04095170986274596 0.0358283047993265 -0.034705219614676944 -0.0011230851846495385 -0.0019551521318912834 0.0 0.0
0.0 0.05259946796062454 0.046006668419565466 -0.044775565101337025 -0.0012311033182284211 -0.00236399166447571 0.0 0.0
0.0 0.06602304500350256 0.05766302791886936 -0.05632126188270445 -0.0013417660361648943 -0.002795289482077142 0.0 0.0
0.0 0.08103881200287673 0.07069335288416079 -0.06923627725779524 -0.0014570756263655189 -0.003251600034763191 0.0 0.0
0.0 0.09719694665198148 0.08467732517154396 -0.08310060044861682 -0.0015767247229271357 -0.0036576459076639208 0.0 0.0
0.0 0.11352858493942833 0.09880420084035528 -0.09710699228161646 -0.0016972085587388444 -0.003837080040570777 0.0 0.0
0.0 0.1286690915080283 0.11190824242069126 -0.11009571154529492 -0.0018125308753963291 -0.003553510352698933 0.0 0.0
0.0 0.14100102715770035 0.12258789638011656 -0.1206717317769873 -0.0019161646031292336 -0.0028258033650367 0.0 0.0
0.0 0.14832370034837622 0.12906962936941807 -0.12703381086479096 -0.0020358185046271036 -0.0025265074065586213 0.0 0.0
0.0 0.14832370034836875 0.12906962936941135 -0.12703381086478469 -0.002035818504626653 0.002526507406562434 0.0 0.0
0.0 0.14100102715767857 0.12258789638009684 -0.12067173177696927 -0.0019161646031275856 0.002825803365051696 0.0 0.0
0.0 0.12866909150798525 0.11190824242065359 -0.11009571154525835 -0.0018125308753951924 0.0035535103527059462 0.0 0.0
0.0 0.11352858493937448 0.09880420084030817 -0.09710699228157048 -0.0016972085587376546 0.0038370800405767925 0.0 0.0
0.0 0.09719694665192113 0.08467732517149143 -0.08310060044856502 -0.0015767247229264364 0.0036576459076573865 0.0 0.0
0.0 0.08103881200281379 0.07069335288410619 -0.06923627725774087 -0.0014570756263653313 0.003251600034763437 0.0 0.0
0.0 0.06602304500344222 0.05766302791881674 -0.056321261882652775 -0.0013417660361639545 0.002795289482076426 0.0 0.0
0.0 0.05259946796056444 0.04600666841951297 -0.044775565101285636 -0.0012311033182273114 0.0023639916644759233 0.0 0.0
0.0 0.04095170986268595 0.03582830479927421 -0.034705219614625485 -0.001123085184648701 0.001955152131887005 0.0 0.0
0.0 0.031019072303114154 0.027073448275890314 -0.026057142558296643 -0.0010163057175936576 0.0015689299448029127 0.0 0.0
0.0 0.022393474380521285 0.019655684018890018 -0.01874427745197956 -0.0009114065669104533 0.001200863183248267 0.0 0.0
0.0 0.015268512558580553 0.013493945232741856 -0.012688267219876093 -0.0008056780128657669 0.0008493994581322568 0.0 0.0
0.0 0.009585940551413506 0.00855418308377813 -0.007864212518095538 -0.0006899705656825902 0.0005565018763819327 0.0 0.0
0.0 0.0053299923939224576 0.004819055237162374 -0.004277063673565323 -0.000541991563597049 0.0003395443858062478 0.0 0.0
0.0 0.002423180736499325 0.0022265746892740695 -0.0018809424496624354 -0.0003456322396116333 0.0001827487510490192 0.0 0.0
0.0 0.0008838003161154057 0.0006459422872619003 -0.0005207689686063447 -0.00012517331865555533 7.22241673983451e-05 0.0 0.0
0.0 0.0001345091182675721 6.200384791986001e-05 -4.823274595187655e-05 -1.377110196798349e-05 8.40244715629534e-06 0.0 0.0
0.0 3.342380937687491e-05 -4.754075055922566e-06 3.7731450314146314e-06 9.80930024507978e-07 -5.620332136057866e-07 0.0 0.0
0.0 0.00037626327253694516 0.00023237138153017818 -0.0001853696748597774 -4.700170667040099e-05 -0.0002488488510170668 0.0 0.0
0.0 0.010574291605141064 0.008088819097961757 -0.00847291944959361 0.00038410035163185017 0.004589407884145785 0.0 0.0
0.0 0.007592790054524169 0.005444685647643341 -0.005923150053824877 0.00047846440618153476 -0.005158121422069167 0.0 0.0
0.0 0.0 0.0 0.0 0.0 0.0 0.0 0.0
0.0 9.430826945183483e-08 -1.020951514236367e-08 7.758883502814768e-09 2.450631639548195e-09 3.6392644398315674e-09 0.0 0.0
0.0 3.8441441146372734e-05 5.627806621262764e-06 -4.38635280232992e-06 -1.2414538189330772e-06 -2.9676525305601746e-06 0.0 0.0
0.0 0.0005411289008054741 0.0003456976508588092 -0.00027610641925077226 -6.959123160803691e-05 -9.428003681506476e-05 0.0 0.0
0.0 0.0017778304560566631 0.0016359414474434938 -0.0013612855853042303 -0.0002746558621392637 -0.0003619989306082075 0.0 0.0
0.0 0.004333486935322345 0.003917878862712808 -0.0034309458256562043 -0.00048693303705660225 -0.0007650879288659439 0.0 0.0
0.0 0.008156589450033924 0.007275114189210181 -0.006624013478006733 -0.0006511007112034475 -0.0013070262762647229 0.0 0.0
0.0 0.013273469895807737 0.011731053035379788 -0.01095751779562221 -0.0007735352397575783 -0.0019952924282343556 0.0 0.0
0.0 0.01966445683779143 0.017269609236406934 -0.016391315642466913 -0.0008782935939400205 -0.002790007819945156 0.0 0.0
0.0 0.02733358406756678 0.023896894933461036 -0.022918908128554977 -0.0009779868049060454 -0.003617257443632481 0.0 0.0
0.0 0.036404092887687256 0.0316828976754433 -0.030606433637531013 -0.0010764640379122882 -0.004439249434035152 0.0 0.0
0.0 0.046725117133351785 0.04075293517022438 -0.03957716335642364 -0.001175771813800738 -0.005325275025832069 0.0 0.0
0.0 0.0586828901319923 0.05118261008466023 -0.04990509469202423 -0.0012775153926359766 -0.006307583960476832 0.0 0.0
0.0 0.07218094831004718 0.06288973971434643 -0.0615067583860396 -0.0013829813283068348 -0.007336737896330897 0.0 0.0
0.0 0.08673192798778842 0.07551589618846646 -0.07402391813954592 -0.0014919780489205203 -0.008256886591657202 0.0 0.0
0.0 0.101526615494669 0.08835025444315628 -0.08674821565351531 -0.0016020387896409456 -0.00869525048129079 0.0 0.0
0.0 0.11535825361999336 0.1003412775832125 -0.09863172224618127 -0.0017095553370312143 -0.008221761277233895 0.0 0.0
0.0 0.12659288532688953 0.11009570063633167 -0.10827811627796818 -0.0018175843583635059 -0.0067891974062 0.0 0.0
0.0 0.13326973037653328 0.11591306555690023 -0.11401586836171525 -0.0018971971951850125 -0.004306228758913242 0.0 0.0
0.0 0.13326973037652431 0.11591306555689246 -0.11401586836170717 -0.0018971971951852794 0.004306228758927695 0.0 0.0
0.0 0.12659288532686355 0.110095700636309 -0.10827811627794509 -0.0018175843583639112 0.006789197406227039 0.0 0.0
0.0 0.11535825361995383 0.10034127758317796 -0.09863172224614683 -0.001709555337031084 0.008221761277250654 0.0 0.0
0.0 0.10152661549462234 0.08835025444311524 -0.0867482156534751 -0.0016020387896400808 0.008695250481301795 0.0 0.0
0.0 0.08673192798773592 0.07551589618842085 -0.07402391813950113 -0.0014919780489196872 0.008256886591650973 0.0 0.0
0.0 0.07218094830999519 0.06288973971430079 -0.0615067583859953 -0.0013829813283054852 0.007336737896329491 0.0 0.0
0.0 0.05868289013193649 0.051182610084611696 -0.049905094691976314 -0.0012775153926353486 0.006307583960475314 0.0 0.0
0.0 0.04672511713329451 0.04075293517017465 -0.03957716335637426 -0.0011757718138003797 0.005325275025830177 0.0 0.0
0.0 0.03640409288763353 0.03168289767539646 -0.030606433637484762 -0.0010764640379116977 0.004439249434028791 0.0 0.0
0.0 0.027333584067518298 0.023896894933418757 -0.022918908128513292 -0.000977986804905464 0.0036172574436267846 0.0 0.0
0.0 0.01966445683775087 0.01726960923637133 -0.016391315642431955 -0.0008782935939393734 0.0027900078199369575 0.0 0.0
0.0 0.013273469895776761 0.011731053035352011 -0.0109575177955951 -0.0007735352397569064 0.001995292428230663 0.0 0.0
0.0 0.008156589450011704 0.0072751141891901575 -0.006624013477987522 -0.0006511007112026373 0.001307026276260714 0.0 0.0
0.0 0.004333486935307871 0.003917878862699298 -0.003430945825643659 -0.00048693303705563834 0.0007650879288635035 0.0 0.0
0.0 0.0017778304560477987 0.001635941447435462 -0.0013612855852972003 -0.00027465586213826107 0.00036199893060636225 0.0 0.0
0.0 0.0005411289008014875 0.0003456976508560562 -0.0002761064192485166 -6.959123160753959e-05 9.428003681430521e-05 0.0 0.0
0.0 3.844144114577152e-05 5.6278066213572394e-06 -4.386352802400727e-06 -1.2414538189563738e-06 2.967652530589672e-06 0.0 0.0
0.0 9.430826938068039e-08 -1.0209515134588993e-08 7.758883496907494e-09 2.4506316376819497e-09 -3.6392644370560787e-09 0.0 0.0
0.0 0.0 0.0 0.0 0.0 0.0 0.0 0.0
0.0 0.007592790054506134 0.005444685647631375 -0.005923150053812101 0.0004784644061807273 0.005158121422048797 0.0 0.0
0.0 0.005606284562620733 0.003792247167332106 -0.004275561099405646 0.0004833139320735415 -0.004428874976182403 0.0 0.0
0.0 0.0 0.0 0.0 0.0 0.0 0.0 0.0
0.0 0.0 0.0 0.0 0.0 0.0 0.0 0.0
0.0 4.792231230776987e-06 1.4818539432291591e-06 -1.1521146684922015e-06 -3.297392747369781e-07 -1.0707628247422376e-06 0.0 0.0
0.0 0.00024532383702990257 0.00014990473132161673 -0.00011866732070420297 -3.1237410617413666e-05 -7.42024317030358e-05 0.0 0.0
0.0 0.0013473213595606313 0.0010711833534121757 -0.0008784954610764259 -0.00019268789233574884 -0.00041360362008692 0.0 0.0
0.0 0.0033762514982593255 0.0030364410448183786 -0.002616243224013654 -0.00042019782080472505 -0.001014138017581334 0.0 0.0
0.0 0.006747067132632794 0.005997254115639939 -0.0053961368378826575 -0.0006011172777572795 -0.0018317136477384007 0.0 0.0
0.0 0.011308821231937372 0.009953608106850701 -0.009219364445433139 -0.0007342436614175611 -0.002839568697256818 0.0 0.0
0.0 0.016984609657175118 0.014862277122720306 -0.014022412750341459 -0.0008398643723788472 -0.003983389514873088 0.0 0.0
0.0 0.023775758794449396 0.020704388729527876 -0.01976966344391967 -0.0009347252856082018 -0.005174218310330395 0.0 0.0
0.0 0.031658932534750606 0.027539352483401475 -0.026513479198917233 -0.0010258732844842344 -0.0063583311597195675 0.0 0.0
0.0 0.04094600154171657 0.03549081217435766 -0.03437417548284826 -0.0011166366915094101 -0.0075966817358627805 0.0 0.0
0.0 0.05143175374207913 0.04467129543138601 -0.04346197858331141 -0.001209316848074592 -0.00899194692282899 0.0 0.0
0.0 0.06334146896983053 0.05503450457394046 -0.053729887337046534 -0.0013046172368939056 -0.010493444274430597 0.0 0.0
0.0 0.07632793009892577 0.06628933824715594 -0.06488669225987045 -0.0014026459872854677 -0.011826751775842458 0.0 0.0
0.0 0.08961968638770403 0.07783916533653829 -0.07633692086962365 -0.001502244466914593 -0.012516922199828109 0.0 0.0
0.0 0.10211065341692753 0.08873814781007308 -0.08713396634730033 -0.00160418146277269 -0.012013302767350556 0.0 0.0
0.0 0.11230507625671503 0.09766732562765629 -0.09596670740440395 -0.0017006182232522683 -0.009883230726415533 0.0 0.0
0.0 0.11850887917529793 0.10314469233160373 -0.10137715056782796 -0.0017675417637756968 -0.005639327198140878 0.0 0.0
0.0 0.11850887917529083 0.10314469233159702 -0.10137715056782166 -0.0017675417637753297 0.005639327198165189 0.0 0.0
0.0 0.11230507625669682 0.09766732562763918 -0.09596670740438774 -0.0017006182232514261 0.009883230726451059 0.0 0.0
0.0 0.10211065341689407 0.088738147810043 -0.08713396634727077 -0.0016041814627721373 0.012013302767374787 0.0 0.0
0.0 0.08961968638766342 0.07783916533650218 -0.07633692086958853 -0.001502244466913673 0.012516922199839749 0.0 0.0
0.0 0.0763279300988811 0.06628933824711705 -0.0648866922598326 -0.0014026459872844357 0.011826751775835698 0.0 0.0
0.0 0.06334146896978113 0.05503450457389747 -0.05372988733700404 -0.0013046172368934373 0.010493444274428072 0.0 0.0
0.0 0.051431753742029275 0.04467129543134263 -0.043461978583268446 -0.0012093168480741758 0.008991946922826389 0.0 0.0
0.0 0.04094600154166647 0.03549081217431386 -0.034374175482805136 -0.0011166366915087264 0.007596681735859078 0.0 0.0
0.0 0.03165893253470226 0.027539352483359626 -0.026513479198876 -0.0010258732844836205 0.006358331159709642 0.0 0.0
0.0 0.023775758794408238 0.020704388729491673 -0.019769663443884054 -0.0009347252856076226 0.005174218310322463 0.0 0.0
0.0 0.016984609657140024 0.0148622771226894 -0.014022412750311223 -0.0008398643723781739 0.003983389514862499 0.0 0.0
0.0 0.011308821231909157 0.00995360810682576 -0.009219364445408813 -0.0007342436614169451 0.002839568697250084 0.0 0.0
0.0 0.0067470671326116975 0.005997254115621013 -0.005396136837864567 -0.0006011172777564493 0.0018317136477325295 0.0 0.0
0.0 0.0033762514982456932 0.003036441044805897 -0.002616243224002227 -0.0004201978208036703 0.001014138017577423 0.0 0.0
0.0 0.0013473213595534984 0.0010711833534063579 -0.0008784954610714872 -0.00019268789233487015 0.0004136036200846363 0.0 0.0
0.0 0.00024532383702749846 0.0001499047313201581 -0.0001186673207030309 -3.1237410617127024e-05 7.420243170227941e-05 0.0 0.0
0.0 4.79223123046718e-06 1.4818539434800884e-06 -1.1521146686863813e-06 -3.2973927479372657e-07 1.0707628249077985e-06 0.0 0.0
0.0 0.0 0.0 0.0 0.0 0.0 0.0 0.0
0.0 0.0 0.0 0.0 0.0 0.0 0.0 0.0
0.0 0.005606284562605004 0.0037922471673213012 -0.004275561099394014 0.0004833139320727139 0.004428874976165134 0.0 0.0
0.0 0.004082319542911343 0.0026348478896044683 -0.003070100535381028 0.00043525264577655735 -0.003399640465168438 0.0 0.0
0.0 0.0 0.0 0.0 0.0 0.0 0.0 0.0
0.0 0.0 0.0 0.0 0.0 0.0 0.0 0.0
0.0 1.7764958665315978e-06 -1.7819784007305854e-07 1.3787375697884427e-07 4.03240830942293e-08 1.8782013220909485e-07 0.0 0.0
0.0 8.921872802595981e-05 4.64006348143605e-05 -3.6574299182549956e-05 -9.826335631810427e-06 -3.750179014461947e-05 0.0 0.0
0.0 0.0008426832126327516 0.0006240713383241653 -0.0005047405952000973 -0.00011933074312406803 -0.0003685636053024316 0.0 0.0
0.0 0.002518135341749263 0.0021872372853049605 -0.001851053113828488 -0.00033618417147647235 -0.0010860599333830081 0.0 0.0
0.0 0.005378075084059583 0.004735653766844733 -0.004197471307544834 -0.0005381824592998997 -0.0021221704198593947 0.0 0.0
0.0 0.00936602211911182 0.008178439838045276 -0.00749393932537319 -0.0006845005126720851 -0.00337468224717723 0.0 0.0
0.0 0.014321836275087475 0.012451711765448861 -0.011657705490732823 -0.0007940062747160306 -0.0047817219024177205 0.0 0.0
0.0 0.02021868656313356 0.017512792462363307 -0.01662690866737842 -0.0008858837949848818 -0.006235908516695419 0.0 0.0
0.0 0.02708323470744707 0.02340305517680638 -0.022432313421408924 -0.000970741755397446 -0.007685282731259509 0.0 0.0
0.0 0.035033534438993846 0.030245594562440276 -0.029192489586926326 -0.0010531049755139472 -0.009208912892741531 0.0 0.0
0.0 0.04425413552059191 0.03816305818284232 -0.03702611486352907 -0.001136943319313249 -0.01087931164614224 0.0 0.0
0.0 0.054706264720244736 0.047156388217865615 -0.0459343661071263 -0.001222022110739312 -0.012673013856832699 0.0 0.0
0.0 0.0659248109868915 0.057019648692446495 -0.05571103809565351 -0.0013086105967929772 -0.014333678389697298 0.0 0.0
0.0 0.07771921530753849 0.06726699907580022 -0.0658688194948849 -0.0013981795809153053 -0.015290765989171149 0.0 0.0
0.0 0.08893469175050112 0.07708277257655981 -0.07559244257334968 -0.0014903300032101208 -0.014831429043652698 0.0 0.0
0.0 0.09822819725280615 0.08530332961117378 -0.0837263796162684 -0.0015769499949053892 -0.012217135742839762 0.0 0.0
0.0 0.10412422068369902 0.09060463050255117 -0.08896681351093423 -0.001637816991616926 -0.006725962651361696 0.0 0.0
0.0 0.10412422068369317 0.09060463050254539 -0.08896681351092887 -0.0016378169916165522 0.006725962651391925 0.0 0.0
0.0 0.09822819725278537 0.08530332961115435 -0.0837263796162488 -0.0015769499949055338 0.012217135742881798 0.0 0.0
0.0 0.08893469175047038 0.07708277257653176 -0.07559244257332168 -0.0014903300032100863 0.014831429043680504 0.0 0.0
0.0 0.07771921530750385 0.06726699907576913 -0.06586881949485435 -0.001398179580914788 0.015290765989184852 0.0 0.0
0.0 0.06592481098685042 0.05701964869241086 -0.05571103809561848 -0.0013086105967923692 0.014333678389691466 0.0 0.0
0.0 0.054706264720201916 0.04715638821782835 -0.04593436610708983 -0.0012220221107385038 0.012673013856827434 0.0 0.0
0.0 0.044254135520549694 0.038163058182805375 -0.03702611486349279 -0.001136943319312589 0.010879311646138489 0.0 0.0
0.0 0.035033534438950825 0.03024559456240273 -0.02919248958688905 -0.0010531049755136757 0.009208912892736624 0.0 0.0
0.0 0.027083234707408376 0.02340305517677251 -0.02243231342137577 -0.0009707417553967377 0.007685282731249129 0.0 0.0
0.0 0.02021868656309777 0.017512792462331794 -0.016626908667347697 -0.0008858837949841075 0.0062359085166851505 0.0 0.0
0.0 0.014321836275055686 0.012451711765421402 -0.011657705490705956 -0.0007940062747154395 0.0047817219024044256 0.0 0.0
0.0 0.00936602211908846 0.008178439838024654 -0.007493939325353286 -0.000684500512671364 0.0033746822471696124 0.0 0.0
0.0 0.005378075084042085 0.004735653766829171 -0.004197471307530159 -0.0005381824592990102 0.002122170419852671 0.0 0.0
0.0 0.0025181353417375765 0.0021872372852947746 -0.0018510531138193538 -0.0003361841714754202 0.001086059933378469 0.0 0.0
0.0 0.0008426832126265645 0.0006240713383198162 -0.0005047405951964682 -0.00011933074312334794 0.0003685636052997574 0.0 0.0
0.0 8.921872802485027e-05 4.640063481430391e-05 -3.657429918248901e-05 -9.82633563181498e-06 3.750179014450924e-05 0.0 0.0
0.0 1.7764958662467406e-06 -1.7819784004332652e-07 1.3787375695581053e-07 4.032408308752122e-08 -1.8782013217738892e-07 0.0 0.0
0.0 0.0 0.0 0.0 0.0 0.0 0.0 0.0
0.0 0.0 0.0 0.0 0.0 0.0 0.0 0.0
0.0 0.004082319542897705 0.0026348478895955115 -0.0030701005353711928 0.00043525264577568 0.003399640465155153 0.0 0.0
0.0 0.002857977170885919 0.001767145678681908 -0.0021246337031690667 0.0003574880244871596 -0.002416073997062919 0.0 0.0
0.0 0.0 0.0 0.0 0.0 0.0 0.0 0.0
0.0 0.0 0.0 0.0 0.0 0.0 0.0 0.0
0.0 6.929946244958124e-08 -5.867089801559984e-09 4.478351496008589e-09 1.388738305550426e-09 8.798859195521545e-09 0.0 0.0
0.0 2.9473405157969234e-05 1.0616587332844826e-05 -8.439782631842544e-06 -2.1768047010023044e-06 -1.3476814570725685e-05 0.0 0.0
0.0 0.0004438938033970425 0.00030484485269431855 -0.00024399940978529414 -6.084544290902454e-05 -0.00027311031705853266 0.0 0.0
0.0 0.0018197844883701192 0.0014121727685313446 -0.0011720205781326962 -0.000240152190398648 -0.0009836985480162568 0.0 0.0
0.0 0.004107617320598634 0.003499659710513324 -0.0030431597553855372 -0.00045649995512778564 -0.0021383104891299046 0.0 0.0
0.0 0.007459536532516957 0.006423149402354536 -0.005802696078957646 -0.0006204533233968876 -0.0035902984619571557 0.0 0.0
0.0 0.011701116813280654 0.010054626759577703 -0.00931659410561571 -0.0007380326539619934 -0.005174693746521135 0.0 0.0
0.0 0.016722943838962362 0.014337749592336833 -0.013508040380805756 -0.0008297092115310777 -0.006804933020777159 0.0 0.0
0.0 0.02251571004020327 0.019292895058530338 -0.0183835832188594 -0.0009093118396709403 -0.008422017188881374 0.0 0.0
0.0 0.02927854369280263 0.025031360627392953 -0.024046753592181083 -0.0009846070352118716 -0.01010466658602617 0.0 0.0
0.0 0.03696902355640529 0.03168821073168034 -0.030629163293438812 -0.0010590474382415297 -0.011963578735846117 0.0 0.0
0.0 0.045853164833710346 0.03930018360803763 -0.03816610969517299 -0.001134073912864606 -0.013938655930078996 0.0 0.0
0.0 0.0557462711234819 0.047734970590754724 -0.04652462027042734 -0.0012103503203273604 -0.01575769036443424 0.0 0.0
0.0 0.06585303974010583 0.05663740503193188 -0.05534945523480452 -0.0012879497971273472 -0.01693044267557137 0.0 0.0
0.0 0.07572708546319264 0.0653644588767311 -0.06399596924181299 -0.0013684896349180993 -0.01663944654840158 0.0 0.0
0.0 0.08421394544560144 0.07294521206017285 -0.0714990481963705 -0.0014461638638023444 -0.013854159061172606 0.0 0.0
0.0 0.08993304177220202 0.07817847743422256 -0.07667418216939723 -0.0015042952648252864 -0.007624723315006668 0.0 0.0
0.0 0.08993304177219642 0.07817847743421706 -0.07667418216939144 -0.0015042952648255594 0.007624723315038114 0.0 0.0
0.0 0.08421394544558586 0.07294521206015743 -0.07149904819635475 -0.0014461638638026883 0.013854159061215211 0.0 0.0
0.0 0.07572708546316818 0.06536445887670786 -0.06399596924178985 -0.0013684896349179865 0.016639446548432205 0.0 0.0
0.0 0.06585303974007828 0.056637405031906514 -0.05534945523477995 -0.0012879497971265686 0.016930442675585276 0.0 0.0
0.0 0.05574627112344823 0.0477349705907254 -0.046524620270398505 -0.0012103503203268868 0.01575769036442946 0.0 0.0
0.0 0.04585316483367316 0.03930018360800523 -0.038166109695141205 -0.00113407391286402 0.013938655930072865 0.0 0.0
0.0 0.03696902355637052 0.031688210731649805 -0.030629163293409006 -0.0010590474382408028 0.011963578735841899 0.0 0.0
0.0 0.029278543692768333 0.025031360627362644 -0.024046753592151443 -0.0009846070352111855 0.0101046665860207 0.0 0.0
0.0 0.02251571004016792 0.019292895058499675 -0.018383583218829224 -0.0009093118396704363 0.008422017188869722 0.0 0.0
0.0 0.0167229438389318 0.014337749592310428 -0.013508040380779995 -0.000829709211530436 0.006804933020764555 0.0 0.0
0.0 0.01170111681325449 0.010054626759555742 -0.009316594105594442 -0.0007380326539612963 0.005174693746506349 0.0 0.0
0.0 0.007459536532495954 0.006423149402336241 -0.0058026960789401335 -0.0006204533233961053 0.0035902984619481555 0.0 0.0
0.0 0.004107617320583519 0.003499659710500534 -0.003043159755373768 -0.00045649995512676535 0.0021383104891220337 0.0 0.0
0.0 0.0018197844883613185 0.0014121727685242821 -0.0011720205781266756 -0.0002401521903976068 0.0009836985480121284 0.0 0.0
0.0 0.0004438938033932945 0.0003048448526920024 -0.00024399940978341142 -6.0845442908591046e-05 0.0002731103170564198 0.0 0.0
0.0 2.947340515712787e-05 1.0616587332832696e-05 -8.439782631828937e-06 -2.176804701003684e-06 1.3476814570700352e-05 0.0 0.0
0.0 6.92994622914334e-08 -5.86708978807203e-09 4.478351485713519e-09 1.3887383023585593e-09 -8.798859175293273e-09 0.0 0.0
0.0 0.0 0.0 0.0 0.0 0.0 0.0 0.0
0.0 0.0 0.0 0.0 0.0 0.0 0.0 0.0
0.0 0.002857977170874707 0.0017671456786748452 -0.0021246337031611572 0.00035748802448631097 0.002416073997052473 0.0 0.0
0.0 0.00185409262781775 0.0011079043052877014 -0.0013734368860676652 0.0002655325807799636 -0.0015868002649423642 0.0 0.0
0.0 0.0 0.0 0.0 0.0 0.0 0.0 0.0
0.0 0.0 0.0 0.0 0.0 0.0 0.0 0.0
0.0 7.616774122468806e-07 -5.549138125016537e-08 4.2107338484635224e-08 1.338404276552882e-08 1.233693222903045e-07 0.0 0.0
0.0 1.1212244328957982e-05 -3.679829710942935e-07 2.8112760911685723e-07 8.68553619774367e-08 7.839941990522876e-07 0.0 0.0
0.0 0.0001861330407896674 0.00012529612147734007 -9.980951819102079e-05 -2.5486603286319148e-05 -0.00017355508084449325 0.0 0.0
0.0 0.0010778135852267915 0.0008002313886720853 -0.0006520340205422872 -0.00014819736812979773 -0.0008031365369720961 0.0 0.0
0.0 0.0029238283214037594 0.0023413039560827163 -0.001990553093034557 -0.0003507508630481598 -0.0019275979968260695 0.0 0.0
0.0 0.005650052458058951 0.004701609814326893 -0.0041662890325619185 -0.0005353207817649734 -0.0034448277704309405 0.0 0.0
0.0 0.009135488896850102 0.007690851674282607 -0.007024174256393241 -0.0006666774178893659 -0.00514647800893631 0.0 0.0
0.0 0.013263388140480623 0.011197687668257383 -0.01043576119411934 -0.0007619264741380411 -0.0068599684582416 0.0 0.0
0.0 0.018023987091142047 0.015227108824683522 -0.014387703570248255 -0.0008394052544352709 -0.008553314354572579 0.0 0.0
0.0 0.023506096764619552 0.019874473148182217 -0.018965714385022273 -0.000908758763159949 -0.010304106432896023 0.0 0.0
0.0 0.02986808310216695 0.025270780824997514 -0.02429596035840792 -0.000974820466589587 -0.012200789944695459 0.0 0.0
0.0 0.037226076059392654 0.03149322899775512 -0.03045308316593983 -0.0010401458318153047 -0.014229269656629281 0.0 0.0
0.0 0.045226905045466184 0.03847924430510644 -0.037373618269276015 -0.0011056260358304369 -0.01614045324688992 0.0 0.0
0.0 0.05397793685997963 0.04597882669101071 -0.044807686894651304 -0.001171139796359398 -0.017427060283484962 0.0 0.0
0.0 0.06262744150025003 0.053564870402346434 -0.0523268340992297 -0.0012380363031167156 -0.01734564720887188 0.0 0.0
0.0 0.07016392206894735 0.06051875040387056 -0.0592127135350033 -0.0013060368688672282 -0.014750670311995683 0.0 0.0
0.0 0.075788420496454 0.0657594470625544 -0.06439588566818914 -0.001363561394365264 -0.008344195373480412 0.0 0.0
0.0 0.0757884204964486 0.06575944706254859 -0.0643958856681836 -0.0013635613943650316 0.008344195373511644 0.0 0.0
0.0 0.07016392206893432 0.06051875040385666 -0.05921271353498948 -0.0013060368688671943 0.01475067031203641 0.0 0.0
0.0 0.0626274415002308 0.053564870402327144 -0.052326834099210524 -0.0012380363031166434 0.017345647208902578 0.0 0.0
0.0 0.05397793685995339 0.045978826690986595 -0.044807686894627434 -0.001171139796359134 0.017427060283496686 0.0 0.0
0.0 0.045226905045438054 0.03847924430508213 -0.037373618269252354 -0.0011056260358297567 0.016140453246883842 0.0 0.0
0.0 0.03722607605936348 0.03149322899772981 -0.030453083165914985 -0.0010401458318148164 0.014229269656622308 0.0 0.0
0.0 0.029868083102137635 0.025270780824971764 -0.02429596035838273 -0.0009748204665890313 0.01220078994468965 0.0 0.0
0.0 0.023506096764592806 0.019874473148158624 -0.018965714384999572 -0.0009087587631590546 0.010304106432890456 0.0 0.0
0.0 0.018023987091114413 0.015227108824659828 -0.01438770357022536 -0.0008394052544344637 0.0085533143545617 0.0 0.0
0.0 0.013263388140456349 0.011197687668236825 -0.010435761194099481 -0.0007619264741373417 0.006859968458229301 0.0 0.0
0.0 0.009135488896827816 0.007690851674264032 -0.007024174256375511 -0.0006666774178885181 0.005146478008921438 0.0 0.0
0.0 0.0056500524580410695 0.004701609814311711 -0.004166289032547524 -0.0005353207817641859 0.0034448277704207443 0.0 0.0
0.0 0.0029238283213912407 0.002341303956072446 -0.001990553093025361 -0.00035075086304708425 0.0019275979968185423 0.0 0.0
0.0 0.0010778135852193367 0.0008002313886665041 -0.0006520340205375776 -0.00014819736812892654 0.0008031365369672338 0.0 0.0
0.0 0.00018613304078742086 0.00012529612147636526 -9.980951819023689e-05 -2.5486603286128396e-05 0.00017355508084315033 0.0 0.0
0.0 1.1212244328433018e-05 -3.6798297099430325e-07 2.8112760904026036e-07 8.68553619540525e-08 -7.839941988832722e-07 0.0 0.0
0.0 7.616774120036076e-07 -5.54913812317514e-08 4.210733847065235e-08 1.3384042761090036e-08 -1.2336932224923908e-07 0.0 0.0
0.0 0.0 0.0 0.0 0.0 0.0 0.0 0.0
0.0 0.0 0.0 0.0 0.0 0.0 0.0 0.0
0.0 0.0018540926278088376 0.0011079043052823593 -0.0013734368860614785 0.0002655325807791196 0.0015868002649343821 0.0 0.0
0.0 0.0010937084260503917 0.0006146844082090357 -0.0007849380934543974 0.00017025368524536182 -0.0009234243149454614 0.0 0.0
0.0 0.0 0.0 0.0 0.0 0.0 0.0 0.0
0.0 0.0 0.0 0.0 0.0 0.0 0.0 0.0
0.0 6.928205378478581e-07 -3.733951306313336e-08 2.7903524939343766e-08 9.435988123798777e-09 1.2742599449485983e-07 0.0 0.0
0.0 5.020646568215019e-06 7.512486530658545e-07 -6.069281733097166e-07 -1.4432047975614184e-07 -2.086795266044713e-06 0.0 0.0
0.0 9.547735214751871e-05 3.8062279827620374e-05 -3.0317623372116257e-05 -7.744656455504161e-06 -7.93848466366418e-05 0.0 0.0
0.0 0.0005473772802961654 0.00036010588872521717 -0.00028929231629568547 -7.081357242953167e-05 -0.0005467672334399782 0.0 0.0
0.0 0.001818785644424022 0.0013441077823837114 -0.001114390699601091 -0.0002297170827826198 -0.001548372003685425 0.0 0.0
0.0 0.003917005599174693 0.0030673514094810366 -0.0026494899608543814 -0.000417861448626655 -0.0029645079066676 0.0 0.0
0.0 0.006642766457820318 0.005382550669098634 -0.004813173665491733 -0.0005693770036069007 -0.004649074450680947 0.0 0.0
0.0 0.009881195495041364 0.008113611446389297 -0.0074391877220309315 -0.0006744237243583646 -0.006382798882422463 0.0 0.0
0.0 0.013596353112288139 0.011228446540414678 -0.010473653385374058 -0.0007547931550406216 -0.008064025074000718 0.0 0.0
0.0 0.01787589930936257 0.014799119378632129 -0.01397795690977836 -0.0008211624688537617 -0.009773074852474303 0.0 0.0
0.0 0.022792797203591196 0.01894954476665506 -0.018068765587508306 -0.0008807791791467458 -0.011606037745499731 0.0 0.0
0.0 0.028529822278643775 0.023776119188826828 -0.0228398269343364 -0.0009362922544904166 -0.013552586292659114 0.0 0.0
0.0 0.03501474753134459 0.029283807086712396 -0.028291273138743904 -0.0009925339479684803 -0.01540411636072129 0.0 0.0
0.0 0.041971738205926416 0.03533087485982191 -0.03428476162933787 -0.0010461132304840487 -0.016750795512008657 0.0 0.0
0.0 0.04917664781313747 0.04168845150734096 -0.040591275411104466 -0.0010971760962365023 -0.01693858882619611 0.0 0.0
0.0 0.05614446207763301 0.047947321576822084 -0.04679458638620937 -0.0011527351906126908 -0.014847959566343627 0.0 0.0
0.0 0.06178718002249617 0.05323172057815817 -0.052020445356448994 -0.0012112752217091707 -0.00886235619865365 0.0 0.0
0.0 0.061787180022489514 0.05323172057815166 -0.05202044535644186 -0.0012112752217097883 0.008862356198682763 0.0 0.0
0.0 0.05614446207762112 0.047947321576809025 -0.046794586386195845 -0.001152735190613186 0.014847959566382185 0.0 0.0
0.0 0.0491766478131266 0.041688451507328084 -0.04059127541109219 -0.0010971760962358746 0.016938588826226293 0.0 0.0
0.0 0.041971738205911546 0.03533087485980688 -0.034284761629323646 -0.001046113230483251 0.01675079551202102 0.0 0.0
0.0 0.03501474753132165 0.029283807086692638 -0.02829127313872456 -0.0009925339479680728 0.015404116360714922 0.0 0.0
0.0 0.028529822278620054 0.023776119188806597 -0.022839826934316517 -0.0009362922544900743 0.01355258629265092 0.0 0.0
0.0 0.02279279720356957 0.0189495447666363 -0.01806876558748989 -0.0008807791791464081 0.01160603774549391 0.0 0.0
0.0 0.017875899309342216 0.014799119378614419 -0.01397795690976095 -0.0008211624688534678 0.009773074852468852 0.0 0.0
0.0 0.013596353112266136 0.011228446540396236 -0.010473653385355929 -0.0007547931550403029 0.008064025073989695 0.0 0.0
0.0 0.00988119549502027 0.008113611446372083 -0.007439187722014268 -0.0006744237243578116 0.006382798882409042 0.0 0.0
0.0 0.006642766457802423 0.005382550669084511 -0.004813173665478445 -0.000569377003606066 0.0046490744506667335 0.0 0.0
0.0 0.003917005599161386 0.0030673514094706027 -0.002649489960844757 -0.000417861448625844 0.0029645079066588087 0.0 0.0
0.0 0.001818785644415344 0.0013441077823771541 -0.0011143906995955161 -0.00022971708278163856 0.0015483720036792888 0.0 0.0
0.0 0.000547377280292006 0.00036010588872264777 -0.00028929231629355224 -7.081357242909526e-05 0.000546767233436399 0.0 0.0
0.0 9.547735214642376e-05 3.806227982755368e-05 -3.0317623372054674e-05 -7.744656455498923e-06 7.938484663641427e-05 0.0 0.0
0.0 5.020646568025617e-06 7.512486532732595e-07 -6.069281734735582e-07 -1.443204797997072e-07 2.0867952666174998e-06 0.0 0.0
0.0 6.928205376352142e-07 -3.733951305122376e-08 2.7903524930424694e-08 9.435988120799248e-09 -1.2742599445425477e-07 0.0 0.0
0.0 0.0 0.0 0.0 0.0 0.0 0.0 0.0
0.0 0.0 0.0 0.0 0.0 0.0 0.0 0.0
0.0 0.0010937084260440539 0.0006146844082056146 -0.0007849380934502664 0.00017025368524465178 0.0009234243149402831 0.0 0.0
0.0 0.0005417635368897446 0.00027239759328663983 -0.0003602576589939308 8.786006570729116e-05 -0.0004271057050536776 0.0 0.0
0.0 1.266647607192392e-07 -7.072771973675951e-10 8.507483974345466e-10 -1.4347120006705642e-10 2.5171596720899338e-08 0.0 0.0
0.0 0.0 0.0 0.0 0.0 0.0 0.0 0.0
0.0 8.694762653476193e-07 -2.987712020632065e-08 2.159330647060148e-08 8.283813735721381e-09 1.7349073420562356e-07 0.0 0.0
0.0 3.8043156221815076e-06 1.847807600919715e-07 -1.5038902854945776e-07 -3.439173154252718e-08 -7.824203095180867e-07 0.0 0.0
0.0 5.526283386079212e-05 1.673107346351992e-05 -1.3201270690989725e-05 -3.5298027725301956e-06 -5.291224158460232e-05 0.0 0.0
0.0 0.00025491640447172304 0.0001235839641212894 -9.85348072237613e-05 -2.5049156897528102e-05 -0.0003105326159364244 0.0 0.0
0.0 0.0009261079454698418 0.0005793236293181049 -0.0004683232569564819 -0.00011100037236162285 -0.0010370940969000046 0.0 0.0
0.0 0.0023318965656690983 0.0016166448366169437 -0.0013519045683811279 -0.0002647402682358147 -0.002222181894096582 0.0 0.0
0.0 0.004206484253379597 0.0031938336513868586 -0.0027679418701354016 -0.00042589178125145607 -0.0037116428743396083 0.0 0.0
0.0 0.006640389915126639 0.005122285494343157 -0.004573953817361459 -0.000548331676981697 -0.005311676768330312 0.0 0.0
0.0 0.009284801327910607 0.007329640520212881 -0.00669085702284667 -0.0006387834973662109 -0.0068984653945860916 0.0 0.0
0.0 0.01232707509686094 0.009844076879045116 -0.009134718989452464 -0.0007093578895926484 -0.008490643739464081 0.0 0.0
0.0 0.01587759125960001 0.012764870908376113 -0.011997895164577355 -0.0007669757437987566 -0.010146598795769221 0.0 0.0
0.0 0.020078401378955606 0.016198633662361565 -0.015381870083530366 -0.0008167635788312027 -0.011886937396405386 0.0 0.0
0.0 0.024854451267339383 0.02020480021753008 -0.019342104183566942 -0.0008626960339631323 -0.013574876334306483 0.0 0.0
0.0 0.030211231759448835 0.024746529257764622 -0.023838501132631806 -0.0009080281251328172 -0.01484285931011686 0.0 0.0
0.0 0.03583189129739485 0.029757148851831457 -0.02881263960804932 -0.0009445092437821249 -0.01525333976607908 0.0 0.0
0.0 0.04169466723926698 0.03516893102502673 -0.03418973834059083 -0.0009791926844358733 -0.013994046413644285 0.0 0.0
0.0 0.04723186808948111 0.040474996894387584 -0.03943781597219128 -0.0010371809221963117 -0.009130757178339947 0.0 0.0
0.0 0.04723186808948304 0.040474996894387674 -0.039437815972191904 -0.0010371809221957494 0.009130757178364078 0.0 0.0
0.0 0.041694667239264974 0.03516893102502125 -0.034189738340585814 -0.0009791926844354324 0.0139940464136805 0.0 0.0
0.0 0.035831891297384864 0.029757148851819508 -0.028812639608037482 -0.0009445092437820237 0.015253339766104095 0.0 0.0
0.0 0.030211231759434166 0.024746529257750484 -0.023838501132618033 -0.0009080281251324533 0.01484285931012428 0.0 0.0
0.0 0.024854451267322566 0.020204800217516087 -0.01934210418355329 -0.0008626960339627818 0.01357487633429954 0.0 0.0
0.0 0.020078401378938775 0.016198633662347542 -0.01538187008351687 -0.0008167635788306716 0.011886937396397915 0.0 0.0
0.0 0.015877591259584038 0.012764870908362471 -0.011997895164564117 -0.0007669757437983589 0.01014659879576419 0.0 0.0
0.0 0.012327075096844435 0.009844076879031053 -0.009134718989438633 -0.0007093578895924183 0.008490643739458263 0.0 0.0
0.0 0.009284801327894518 0.007329640520199785 -0.006690857022834144 -0.000638783497365642 0.0068984653945763155 0.0 0.0
0.0 0.0066403899151117746 0.005122285494331604 -0.004573953817350531 -0.000548331676981072 0.00531167676831875 0.0 0.0
0.0 0.004206484253366102 0.0031938336513769538 -0.002767941870126338 -0.00042589178125061603 0.003711642874327836 0.0 0.0
0.0 0.0023318965656587655 0.0016166448366092946 -0.0013519045683743813 -0.00026474026823491325 0.0022221818940881943 0.0 0.0
0.0 0.000926107945464138 0.0005793236293143031 -0.00046832325695328773 -0.00011100037236101522 0.0010370940968944752 0.0 0.0
0.0 0.00025491640446979587 0.00012358396412064695 -9.853480722324013e-05 -2.504915689740689e-05 0.0003105326159348955 0.0 0.0
0.0 5.5262833859907434e-05 1.6731073463469614e-05 -1.3201270690953777e-05 -3.5298027725158176e-06 5.291224158442356e-05 0.0 0.0
0.0 3.8043156220257425e-06 1.8478076024479156e-07 -1.5038902867042484e-07 -3.4391731574359785e-08 7.824203101831648e-07 0.0 0.0
0.0 8.694762648168817e-07 -2.987712019000699e-08 2.1593306458356525e-08 8.283813731647456e-09 -1.7349073409897767e-07 0.0 0.0
0.0 0.0 0.0 0.0 0.0 0.0 0.0 0.0
0.0 1.2666476022059354e-07 -7.072771946710994e-10 8.50748394078545e-10 -1.4347119940746084e-10 -2.5171596621278046e-08 0.0 0.0
0.0 0.0005417635368853163 0.00027239759328467265 -0.00036025765899147554 8.786006570680294e-05 0.0004271057050505017 0.0 0.0
0.0 0.0001733072623330227 8.515685520100431e-05 -0.00011842386957758197 3.326701437657766e-05 -0.00013938605573679536 0.0 0.0
0.0 1.8030073051673429e-06 -4.177191184509683e-09 1.0378638774830307e-08 -6.201447590320216e-09 3.8291760625588695e-07 0.0 0.0
0.0 8.129603515550081e-07 -9.729788138728575e-10 -5.062304710215263e-10 1.479209284894036e-09 1.6676851108718092e-07 0.0 0.0
0.0 1.3942118126280809e-06 -1.7202479833820512e-08 1.1633862331670308e-08 5.568617502153395e-09 2.882879494068393e-07 0.0 0.0
0.0 4.2875077444907075e-06 2.3479424695981146e-07 -1.6803520398477223e-07 -6.675904297504349e-08 -1.3920394831693479e-06 0.0 0.0
0.0 4.605257108002276e-05 7.685875494070241e-06 -6.101714238912656e-06 -1.5841612551575894e-06 -4.4314669164100734e-05 0.0 0.0
0.0 0.00016116360667688885 4.5002107410815384e-05 -3.5882550393173976e-05 -9.119557017641386e-06 -0.00020929001977380786 0.0 0.0
0.0 0.00039939135477017404 0.00016368238820802032 -0.00013047428130436232 -3.3208106903658016e-05 -0.0005869889912343439 0.0 0.0
0.0 0.001028338246363479 0.0005235361926193839 -0.00042208885757587597 -0.0001014473350435081 -0.0013178258644841506 0.0 0.0
0.0 0.0020888709776819355 0.0012739884937152523 -0.001054510193490306 -0.0002194783002249461 -0.0024135638115299605 0.0 0.0
0.0 0.003481629498387692 0.0023462794050303987 -0.002001334112557199 -0.00034494529247319934 -0.0036930657791740726 0.0 0.0
0.0 0.005188055686922489 0.0036158894359887067 -0.0031685480311207277 -0.00044734140486797755 -0.005032494818162105 0.0 0.0
0.0 0.007094578196030689 0.005082056515125737 -0.0045506638938658415 -0.0005313926212598928 -0.006432937380656146 0.0 0.0
0.0 0.009311882599132385 0.006798676984719252 -0.006199981170296441 -0.0005986958144228069 -0.007859785858341252 0.0 0.0
0.0 0.011924263287348568 0.008850090739354105 -0.008198342335835298 -0.000651748403518807 -0.00932299043430128 0.0 0.0
0.0 0.015012116331942358 0.011332673551512169 -0.010638330380366157 -0.0006943431711460166 -0.010768766896906522 0.0 0.0
0.0 0.018647367934126864 0.014324651340309295 -0.013591733363117541 -0.0007329179771917607 -0.011958030079651022 0.0 0.0
0.0 0.022746939639072934 0.01788864205120846 -0.01711974391891852 -0.0007688981322899469 -0.01245069160343772 0.0 0.0
0.0 0.02748260440943333 0.02217997804973038 -0.021402134164134758 -0.0007778438855956253 -0.011968296758853041 0.0 0.0
0.0 0.03276030217296662 0.027331188333735427 -0.026509334085094913 -0.0008218542486405204 -0.008966783888389271 0.0 0.0
0.0 0.03276030217296649 0.02733118833373386 -0.026509334085093185 -0.0008218542486406848 0.008966783888408582 0.0 0.0
0.0 0.027482604409433835 0.022179978049727062 -0.02140213416413158 -0.0007778438855954732 0.011968296758883864 0.0 0.0
0.0 0.022746939639067154 0.017888642051200034 -0.01711974391891054 -0.000768898132289482 0.012450691603458356 0.0 0.0
0.0 0.018647367934116366 0.01432465134029946 -0.013591733363108162 -0.0007329179771912966 0.011958030079653348 0.0 0.0
0.0 0.015012116331930687 0.011332673551503476 -0.010638330380357896 -0.0006943431711455813 0.01076876689689878 0.0 0.0
0.0 0.011924263287337243 0.008850090739345649 -0.008198342335827086 -0.0006517484035185593 0.009322990434293375 0.0 0.0
0.0 0.009311882599122788 0.0067986769847115085 -0.006199981170288813 -0.0005986958144226968 0.007859785858336764 0.0 0.0
0.0 0.007094578196023484 0.005082056515119747 -0.004550663893860141 -0.0005313926212596052 0.0064329373806528214 0.0 0.0
0.0 0.0051880556869154226 0.00361588943598367 -0.003168548031116364 -0.000447341404867306 0.005032494818156232 0.0 0.0
0.0 0.0034816294983788148 0.0023462794050243064 -0.0020013341125518407 -0.0003449452924724651 0.0036930657791658167 0.0 0.0
0.0 0.002088870977673769 0.0012739884937104848 -0.0010545101934861503 -0.00021947830022433397 0.002413563811520878 0.0 0.0
0.0 0.0010283382463590557 0.0005235361926167023 -0.0004220888575736779 -0.00010144733504302409 0.0013178258644792112 0.0 0.0
0.0 0.0003993913547678911 0.00016368238820709585 -0.00013047428130365685 -3.320810690343891e-05 0.0005869889912318212 0.0 0.0
0.0 0.0001611636066748354 4.500210741034376e-05 -3.5882550392785804e-05 -9.119557017557955e-06 0.00020929001977165957 0.0 0.0
0.0 4.605257107933735e-05 7.685875494035626e-06 -6.101714238884756e-06 -1.584161255150856e-06 4.43146691638956e-05 0.0 0.0
0.0 4.287507744167361e-06 2.3479424701980564e-07 -1.6803520402864457e-07 -6.675904299116288e-08 1.3920394836013565e-06 0.0 0.0
0.0 1.3942118121365584e-06 -1.7202479827439693e-08 1.1633862327329383e-08 5.568617500112952e-09 -2.8828794930130727e-07 0.0 0.0
0.0 8.12960351106587e-07 -9.729788137991681e-10 -5.062304704954294e-10 1.479209284295063e-09 -1.667685109932312e-07 0.0 0.0
0.0 1.8030073045943297e-06 -4.1771911826671024e-09 1.0378638770354691e-08 -6.201447587687759e-09 -3.8291760613307903e-07 0.0 0.0
0.0 0.00017330726233098965 8.515685520042119e-05 -0.00011842386957676929 3.3267014376348e-05 0.00013938605573603913 0.0 0.0
0.0 2.995055645708325e-05 1.1354623104685625e-05 -1.643648539186248e-05 5.08186228717686e-06 -1.9824845349327e-05 0.0 0.0
0.0 2.3409661729961703e-06 6.496376963596438e-10 1.3091562580591183e-08 -1.3741200276949575e-08 4.872012716183131e-07 0.0 0.0
0.0 8.28283976103979e-07 8.757322001854407e-09 -7.994197467743662e-09 -7.631245341108108e-10 1.6872916499049268e-07 0.0 0.0
0.0 1.0341171999299922e-06 3.4830124123105497e-09 -4.631541757330647e-09 1.1485293450206947e-09 2.129476539670559e-07 0.0 0.0
0.0 5.565737345117536e-06 -9.92759610303959e-09 4.32442659721894e-09 5.603169505814255e-09 1.043614461957061e-06 0.0 0.0
0.0 4.165503022665834e-05 2.3744959539468853e-06 -1.8443773189933636e-06 -5.301186349535111e-07 -4.6853942081104886e-05 0.0 0.0
0.0 0.0001365197414371228 1.3843660204925315e-05 -1.1005327630951026e-05 -2.8383325739743038e-06 -0.00020364187106307487 0.0 0.0
0.0 0.0003116973377238119 3.831553628243595e-05 -3.0557820503976196e-05 -7.757715778459724e-06 -0.0004432107891511699 0.0 0.0
0.0 0.0005247247227398338 9.020020575561992e-05 -7.226409235398386e-05 -1.7936113401636062e-05 -0.0008271295894298856 0.0 0.0
0.0 0.0009040048247489763 0.00018134559150907926 -0.00014644243551666854 -3.490315599241073e-05 -0.0013660097267648263 0.0 0.0
0.0 0.0013354963233766597 0.00036370374877752636 -0.00029253869568780344 -7.116505308972298e-05 -0.0021600185471763664 0.0 0.0
0.0 0.0020037178025478224 0.0006412063862047182 -0.0005161580087335053 -0.000125048377471213 -0.003097064551603687 0.0 0.0
0.0 0.0028167587508639252 0.0009981718789397786 -0.0008086823255680825 -0.000189489553371696 -0.004177847255051333 0.0 0.0
0.0 0.0038266271810209777 0.0014551876496075517 -0.0011991277413098012 -0.0002560599082977508 -0.005428289294470062 0.0 0.0
0.0 0.005075944433738188 0.0020964456232403536 -0.0017792491350213935 -0.0003171964882189597 -0.006855322873500219 0.0 0.0
0.0 0.006648061640760972 0.0030099798342020875 -0.0026385635978942524 -0.0003714162363078334 -0.008352766933077998 0.0 0.0
0.0 0.008579144399284446 0.004388387713673701 -0.003968432859364936 -0.00041995485430876387 -0.009653065666750402 0.0 0.0
0.0 0.010963275108622132 0.006455364574288923 -0.005980976306720492 -0.000474388267568429 -0.010255425431033803 0.0 0.0
0.0 0.014025878948469838 0.00938338552774928 -0.008864243414408399 -0.0005191421133408778 -0.00982951635127206 0.0 0.0
0.0 0.01846967102515112 0.013788133874079898 -0.01329098665633411 -0.0004971472177457874 -0.008509351789131073 0.0 0.0
0.0 0.0184696710251525 0.013788133874079662 -0.01329098665633374 -0.0004971472177459144 0.008509351789145882 0.0 0.0
0.0 0.014025878948472216 0.009383385527747692 -0.008864243414406957 -0.0005191421133407333 0.009829516351295222 0.0 0.0
0.0 0.010963275108621304 0.006455364574286071 -0.005980976306717657 -0.00047438826756840966 0.010255425431045118 0.0 0.0
0.0 0.008579144399279648 0.004388387713670526 -0.003968432859361752 -0.00041995485430877276 0.009653065666748457 0.0 0.0
0.0 0.0066480616407533335 0.003009979834198133 -0.0026385635978904373 -0.00037141623630769375 0.008352766933070221 0.0 0.0
0.0 0.005075944433732214 0.0020964456232376804 -0.0017792491350189018 -0.0003171964882187777 0.006855322873492929 0.0 0.0
0.0 0.0038266271810172775 0.001455187649605978 -0.001199127741308464 -0.00025605990829751467 0.005428289294465923 0.0 0.0
0.0 0.0028167587508608643 0.0009981718789387189 -0.0008086823255672099 -0.0001894895533715085 0.004177847255047007 0.0 0.0
0.0 0.002003717802543461 0.0006412063862036407 -0.0005161580087325691 -0.00012504837747107154 0.0030970645515967874 0.0 0.0
0.0 0.001335496323372954 0.00036370374877646704 -0.0002925386956869778 -7.116505308948935e-05 0.0021600185471702615 0.0 0.0
0.0 0.0009040048247450635 0.00018134559150851065 -0.0001464424355161783 -3.490315599233237e-05 0.0013660097267591531 0.0 0.0
0.0 0.0005247247227387107 9.020020575546819e-05 -7.226409235390142e-05 -1.7936113401566717e-05 0.0008271295894281094 0.0 0.0
0.0 0.00031169733772270787 3.8315536282292935e-05 -3.055782050385901e-05 -7.757715778433897e-06 0.00044321078914944564 0.0 0.0
0.0 0.0001365197414356332 1.3843660204835247e-05 -1.1005327630869499e-05 -2.838332573965743e-06 0.00020364187106172135 0.0 0.0
0.0 4.165503022591767e-05 2.3744959539302297e-06 -1.8443773189799288e-06 -5.301186349503047e-07 4.685394208073239e-05 0.0 0.0
0.0 5.565737344765988e-06 -9.927596089637455e-09 4.3244265897146624e-09 5.603169499919398e-09 -1.043614461588831e-06 0.0 0.0
0.0 1.0341171994111593e-06 3.4830124097744975e-09 -4.63154175459075e-09 1.1485293448161685e-09 -2.1294765385734702e-07 0.0 0.0
0.0 8.282839756553083e-07 8.757321996808003e-09 -7.99419746324245e-09 -7.631245335657651e-10 -1.687291648967851e-07 0.0 0.0
0.0 2.340966172321822e-06 6.496376968874008e-10 1.3091562575233056e-08 -1.3741200272117913e-08 -4.87201271473837e-07 0.0 0.0
0.0 2.995055645617465e-05 1.1354623104679712e-05 -1.6436485391852837e-05 5.081862287173073e-06 1.982484534937599e-05 0.0 0.0
0.0 1.746363269014452e-06 -1.080716133846742e-07 1.601080298073669e-07 -5.203641642269867e-08 2.3480853834527648e-07 0.0 0.0
0.0 1.9028631458580495e-06 6.795419448546787e-09 4.3792250009357676e-09 -1.1174644449477697e-08 4.0529838982822875e-07 0.0 0.0
0.0 1.0262135838166635e-06 1.553964080768764e-08 -1.3515010181011998e-08 -2.024630626674332e-09 1.7216431094734168e-07 0.0 0.0
0.0 1.4763658052010385e-06 9.563100905025144e-09 -9.53482719820275e-09 -2.827370682226463e-11 1.2473296528664483e-07 0.0 0.0
0.0 7.821039282888488e-06 -1.766603322237837e-08 3.5876519442007176e-08 -1.8210486219619392e-08 -1.117219661548664e-06 0.0 0.0
0.0 4.620230830073447e-05 -3.0636976477743787e-06 2.5180277099649657e-06 5.456699378094077e-07 -4.660817826025419e-05 0.0 0.0
0.0 0.0001382865503245186 -1.4624565206886948e-05 1.1743101419004943e-05 2.881463787881999e-06 -0.00020500505647871265 0.0 0.0
0.0 0.0003125340021516613 -3.8326445683305974e-05 3.0563081922442095e-05 7.763363760863818e-06 -0.00044378011406632606 0.0 0.0
0.0 0.0005243844255192464 -8.987634022943515e-05 7.1988500855352e-05 1.788783937408314e-05 -0.0008271983221535154 0.0 0.0
0.0 0.0009024048458718152 -0.00018072849882396007 0.0001458281318450964 3.490036697886372e-05 -0.0013641772518883494 0.0 0.0
0.0 0.0013403163782614695 -0.00036013850454473707 0.00029030399605194297 6.983450849279404e-05 -0.0021557960420666615 0.0 0.0
0.0 0.002007565242382996 -0.0006462934969581052 0.0005210722724841293 0.0001252212244739761 -0.003098264627123229 0.0 0.0
0.0 0.0028287824328386015 -0.001016319604330727 0.0008252030830773274 0.00019111652125339935 -0.0041835501325331904 0.0 0.0
0.0 0.0038551266257753247 -0.0014908126522341142 0.0012303359810226277 0.0002604766712114859 -0.005436178203543727 0.0 0.0
0.0 0.005047209094216848 -0.0020600696105483383 0.0017324218855183026 0.0003276477250300345 -0.006858888863425398 0.0 0.0
0.0 0.006327714283111708 -0.0025614016735660515 0.0021722900226359455 0.0003891116509301038 -0.008404865276065277 0.0 0.0
0.0 0.007436611867996186 -0.002728005424100558 0.0022909184180559643 0.0004370870060445933 -0.01006720857976634 0.0 0.0
0.0 0.008208434489418468 -0.002276881283314998 0.001804440154410466 0.0004724411289045306 -0.011850704803058755 0.0 0.0
0.0 0.008537822773487419 -0.0012035991606619964 0.0008208387909528863 0.0003827603697091096 -0.013324984508118785 0.0 0.0
0.0 0.008090983181377893 0.0018865806312589957 -0.001977793206938407 9.121257567941139e-05 -0.01185792098952052 0.0 0.0
0.0 0.008090983181380972 0.0018865806312591315 -0.0019777932069385646 9.121257567943345e-05 0.011857920989529256 0.0 0.0
0.0 0.008537822773490852 -0.00120359916066256 0.000820838790953292 0.000382760369709267 0.013324984508127472 0.0 0.0
0.0 0.008208434489416574 -0.0022768812833142095 0.0018044401544101219 0.0004724411289040863 0.011850704803059674 0.0 0.0
0.0 0.007436611867988657 -0.002728005424096491 0.002290918418052206 0.0004370870060442848 0.010067208579760713 0.0 0.0
0.0 0.006327714283100957 -0.002561401673559297 0.0021722900226294186 0.00038911165092987774 0.008404865276056219 0.0 0.0
0.0 0.005047209094210404 -0.0020600696105454765 0.0017324218855156183 0.0003276477250298573 0.006858888863417102 0.0 0.0
0.0 0.0038551266257690147 -0.00149081265223038 0.0012303359810194505 0.00026047667121092955 0.0054361782035388054 0.0 0.0
0.0 0.002828782432832193 -0.0010163196043273125 0.0008252030830745001 0.00019111652125281236 0.004183550132527204 0.0 0.0
0.0 0.002007565242376471 -0.0006462934969548121 0.0005210722724813823 0.0001252212244734295 0.0030982646271151756 0.0 0.0
0.0 0.0013403163782563985 -0.00036013850454251955 0.0002903039960501613 6.98345084923583e-05 0.0021557960420597894 0.0 0.0
0.0 0.0009024048458670052 -0.0001807284988228147 0.00014582813184408058 3.490036697873407e-05 0.0013641772518821834 0.0 0.0
0.0 0.0005243844255179756 -8.987634022904545e-05 7.198850085502231e-05 1.7887839374023134e-05 0.0008271983221519483 0.0 0.0
0.0 0.00031253400215024596 -3.832644568307858e-05 3.0563081922247223e-05 7.763363760831339e-06 0.0004437801140646815 0.0 0.0
0.0 0.00013828655032299144 -1.462456520677749e-05 1.1743101418931988e-05 2.8814637878454946e-06 0.00020500505647717165 0.0 0.0
0.0 4.620230829995927e-05 -3.0636976477577117e-06 2.518027709955874e-06 5.456699378018491e-07 4.660817826002822e-05 0.0 0.0
0.0 7.821039282679379e-06 -1.7666033282599872e-08 3.58765194942143e-08 -1.8210486211618336e-08 1.117219662400927e-06 0.0 0.0
0.0 1.4763658049618491e-06 9.563100852958902e-09 -9.53482715508543e-09 -2.8273697873061172e-11 -1.2473296476136995e-07 0.0 0.0
0.0 1.0262135834969056e-06 1.5539640747720415e-08 -1.3515010131973461e-08 -2.024630615746478e-09 -1.7216431033092772e-07 0.0 0.0
0.0 1.9028631450714174e-06 6.795419446720134e-09 4.37922499599115e-09 -1.1174644442706392e-08 -4.052983896639658e-07 0.0 0.0
0.0 1.7463632684856744e-06 -1.0807161335057875e-07 1.601080297566021e-07 -5.2036416406020456e-08 -2.3480853827189452e-07 0.0 0.0
0.0 0.0 0.0 0.0 0.0 0.0 0.0 0.0
0.0 3.3206270015814023e-07 3.228124362425176e-09 -1.4545472289870203e-09 -1.773577133437446e-09 6.641880132428198e-08 0.0 0.0
0.0 1.333492901735825e-06 -1.7177614416147928e-08 1.2929301676182242e-08 4.248312739964652e-09 -1.0045131573809078e-07 0.0 0.0
0.0 4.436781597392138e-06 1.5937735912416557e-07 -1.3080402518352546e-07 -2.8573333940626615e-08 9.560077595036866e-07 0.0 0.0
0.0 1.1112269628932545e-05 -1.2448257481404784e-06 1.058276828763114e-06 1.8654891937737174e-07 -7.90291797199738e-06 0.0 0.0
0.0 5.502208407594191e-05 -1.1339766773249337e-05 9.07123712905221e-06 2.2685296441970905e-06 -5.981569142032161e-05 0.0 0.0
0.0 0.00016942788867307918 -4.63249149055635e-05 3.7064071241052645e-05 9.260843664510873e-06 -0.0002131201127969344 0.0 0.0
0.0 0.00040134114100296076 -0.00016415298398799176 0.0001308517287682444 3.330125521974737e-05 -0.0005887783053706581 0.0 0.0
0.0 0.001025660446579986 -0.0005225112206500373 0.00042117882084754415 0.0001013323998024931 -0.0013166108461623376 0.0 0.0
0.0 0.0020857750240705214 -0.0012723133665842462 0.0010530697776401814 0.0002192435889440645 -0.0024116431564286927 0.0 0.0
0.0 0.0034817837113366667 -0.0023468138305832663 0.002002202582407728 0.00034461124817553816 -0.003692910954097302 0.0 0.0
0.0 0.005197164904779067 -0.003625703262584868 0.0031787476884121047 0.00044695557417276377 -0.0050322971568232 0.0 0.0
0.0 0.007121033864089633 -0.005111461376772064 0.004580233852211383 0.0005312275245606794 -0.006422516198169467 0.0 0.0
0.0 0.009353034665904906 -0.006842928557001875 0.006241097221367997 0.0006018313356338804 -0.0078429148649147 0.0 0.0
0.0 0.011895449034775728 -0.008806968032530286 0.008142655358857205 0.0006643126736730781 -0.0093667931969985 0.0 0.0
0.0 0.014596273917871662 -0.01084431671913711 0.01012336377001941 0.0007209529491176991 -0.011088450184987202 0.0 0.0
0.0 0.017134418917283675 -0.012602240304304955 0.011830007902752689 0.0007722324015522707 -0.013060387820375014 0.0 0.0
0.0 0.018915098295949513 -0.01356213720190246 0.012749436779113521 0.0008127004227889454 -0.015180761167512588 0.0 0.0
0.0 0.01850985624308133 -0.012757916254334653 0.011853570291011866 0.0009043459633227815 -0.016015497830428847 0.0 0.0
0.0 0.013977421669665636 -0.008350734565208849 0.007403811072252352 0.0009469234929564935 -0.013440120607600527 0.0 0.0
0.0 0.013977421669672044 -0.0083507345652101 0.007403811072253575 0.0009469234929565265 0.013440120607618473 0.0 0.0
0.0 0.018509856243087815 -0.012757916254334893 0.011853570291012291 0.0009043459633225981 0.016015497830454018 0.0 0.0
0.0 0.01891509829594669 -0.01356213720189716 0.012749436779108277 0.0008127004227888802 0.01518076116752638 0.0 0.0
0.0 0.017134418917270366 -0.012602240304293497 0.011830007902741298 0.0007722324015521983 0.01306038782037259 0.0 0.0
0.0 0.01459627391785668 -0.010844316719125176 0.010123363770007825 0.0007209529491173499 0.011088450184977922 0.0 0.0
0.0 0.011895449034762454 -0.00880696803251973 0.00814265535884708 0.000664312673672648 0.009366793196990495 0.0 0.0
0.0 0.009353034665891491 -0.006842928556991512 0.006241097221357963 0.0006018313356335482 0.007842914864905905 0.0 0.0
0.0 0.007121033864076752 -0.005111461376761298 0.004580233852200975 0.0005312275245603201 0.006422516198162986 0.0 0.0
0.0 0.005197164904764865 -0.003625703262574243 0.0031787476884021244 0.0004469555741721168 0.005032297156812903 0.0 0.0
0.0 0.0034817837113234546 -0.0023468138305740003 0.0020022025823994206 0.00034461124817458 0.0036929109540859957 0.0 0.0
0.0 0.002085775024058238 -0.0012723133665760783 0.0010530697776330849 0.00021924358894299262 0.002411643156416816 0.0 0.0
0.0 0.0010256604465745435 -0.0005225112206466115 0.0004211788208446452 0.00010133239980196618 0.0013166108461564506 0.0 0.0
0.0 0.00040134114100077057 -0.00016415298398698587 0.00013085172876745163 3.330125521953426e-05 0.0005887783053681592 0.0 0.0
0.0 0.00016942788867139246 -4.6324914905288254e-05 3.7064071240841706e-05 9.26084366444649e-06 0.00021312011279577735 0.0 0.0
0.0 5.5022084074709396e-05 -1.1339766773164396e-05 9.071237128981912e-06 2.2685296441824733e-06 5.98156914198716e-05 0.0 0.0
0.0 1.1112269628631731e-05 -1.2448257482239883e-06 1.0582768288323104e-06 1.86548919391661e-07 7.90291797250893e-06 0.0 0.0
0.0 4.436781597110092e-06 1.5937735906600442e-07 -1.308040251331335e-07 -2.8573333932867025e-08 -9.560077590964507e-07 0.0 0.0
0.0 1.3334929014735596e-06 -1.7177614483604904e-08 1.292930173074375e-08 4.248312752861012e-09 1.0045131622527671e-07 0.0 0.0
0.0 3.3206269971330245e-07 3.2281243589135146e-09 -1.4545472286881782e-09 -1.7735771302251563e-09 -6.64188012348373e-08 0.0 0.0
0.0 0.0 0.0 0.0 0.0 0.0 0.0 0.0
0.0 0.0 0.0 0.0 0.0 0.0 0.0 0.0
0.0 3.514827227909665e-07 4.949457227588909e-09 -3.035179226646225e-09 -1.914278000941817e-09 7.106311338534543e-08 0.0 0.0
0.0 2.3595770756542535e-06 8.103527067074457e-08 -6.628456757845172e-08 -1.4750703092293867e-08 4.821090557083344e-07 0.0 0.0
0.0 6.5906872819304125e-06 3.108815427979235e-07 -2.5702362177301864e-07 -5.385792102489637e-08 1.4093816020137892e-06 0.0 0.0
0.0 1.6570507103382847e-05 -3.021313644099937e-06 2.415342402478366e-06 6.059712416215845e-07 -1.0537560750155236e-05 0.0 0.0
0.0 7.132905655335908e-05 -2.2466626080799032e-05 1.8045361460749594e-05 4.42126462004942e-06 -7.056182018011389e-05 0.0 0.0
0.0 0.0002683026556935048 -0.00012787462527524544 0.00010210299460509177 2.577163067015369e-05 -0.0003193133075118388 0.0 0.0
0.0 0.0009282963346473399 -0.000579934089924552 0.00046887407675396997 0.00011106001317058211 -0.0010391642596399438 0.0 0.0
0.0 0.002326846925507707 -0.0016139999786586319 0.0013494736645502583 0.00026452631410837316 -0.002218528039910367 0.0 0.0
0.0 0.004203705163862544 -0.0031925913072475363 0.0027667724673623335 0.00042581883988520257 -0.0037094223140286633 0.0 0.0
0.0 0.006641952454824559 -0.005123984306519399 0.004575869289194342 0.0005481150173250582 -0.00531167302410461 0.0 0.0
0.0 0.009291638675166108 -0.0073373073806803114 0.006699209628549417 0.0006380977521308921 -0.006891925612651651 0.0 0.0
0.0 0.01234012981291321 -0.009865628203997374 0.00915719563191715 0.0007084325720802245 -0.008450466722712692 0.0 0.0
0.0 0.015894333784806466 -0.012799368501915657 0.01203059369592658 0.0007687748059890771 -0.010062435548775641 0.0 0.0
0.0 0.020043385904831575 -0.0161670315767464 0.015339832509710948 0.0008271990670354439 -0.011887986631095925 0.0 0.0
0.0 0.024544156270438534 -0.019808441238167517 0.018921383652635577 0.0008870575855319282 -0.014150446455402482 0.0 0.0
0.0 0.029049411387540004 -0.023283679394110555 0.022336171444986043 0.0009475079491245042 -0.01703009222488275 0.0 0.0
0.0 0.03229090868367866 -0.025742241698099317 0.02471664612582449 0.0010255955722748263 -0.020047168584099283 0.0 0.0
0.0 0.03261039597225281 -0.025606571067405565 0.02448262504000219 0.0011239460274033784 -0.02155935526064383 0.0 0.0
0.0 0.026049377794778443 -0.020142294907228058 0.018843101633194043 0.0012991932740340098 -0.01807572099001833 0.0 0.0
0.0 0.026049377794786426 -0.020142294907230532 0.018843101633196455 0.001299193274034079 0.01807572099004198 0.0 0.0
0.0 0.032610395972257365 -0.025606571067403765 0.02448262504000052 0.0011239460274032236 0.021559355260674866 0.0 0.0
0.0 0.03229090868367051 -0.025742241698088437 0.0247166461258141 0.0010255955722743312 0.020047168584117966 0.0 0.0
0.0 0.029049411387523996 -0.02328367939409552 0.02233617144497175 0.0009475079491237809 0.017030092224884996 0.0 0.0
0.0 0.024544156270417134 -0.019808441238149364 0.01892138365261778 0.0008870575855315845 0.014150446455394636 0.0 0.0
0.0 0.020043385904811327 -0.016167031576729565 0.015339832509694376 0.0008271990670351827 0.011887986631086936 0.0 0.0
0.0 0.01589433378478836 -0.012799368501900579 0.012030593695911904 0.0007687748059886704 0.010062435548766877 0.0 0.0
0.0 0.012340129812893813 -0.009865628203980651 0.009157195631901018 0.0007084325720796278 0.008450466722705247 0.0 0.0
0.0 0.00929163867514516 -0.007337307380663188 0.006699209628532882 0.0006380977521303049 0.006891925612639536 0.0 0.0
0.0 0.006641952454804724 -0.005123984306503827 0.00457586928917951 0.0005481150173243183 0.005311673024089912 0.0 0.0
0.0 0.0042037051638466535 -0.0031925913072356317 0.0027667724673513198 0.00042581883988431244 0.003709422314015765 0.0 0.0
0.0 0.0023268469254974795 -0.0016139999786506432 0.0013494736645432825 0.00026452631410736036 0.002218528039902793 0.0 0.0
0.0 0.0009282963346424729 -0.0005799340899213963 0.00046887407675140133 0.00011106001316999511 0.0010391642596355704 0.0 0.0
0.0 0.0002683026556915666 -0.0001278746252747681 0.00010210299460472282 2.5771630670045265e-05 0.00031931330751074094 0.0 0.0
0.0 7.132905655226203e-05 -2.2466626080911566e-05 1.8045361460834714e-05 4.421264620076808e-06 7.056182018024614e-05 0.0 0.0
0.0 1.6570507102878476e-05 -3.0213136442059384e-06 2.4153424025646214e-06 6.059712416412737e-07 1.0537560750549416e-05 0.0 0.0
0.0 6.590687281374371e-06 3.1088154276881837e-07 -2.570236217490074e-07 -5.385792101982278e-08 -1.4093816018841068e-06 0.0 0.0
0.0 2.3595770750547986e-06 8.103527064889636e-08 -6.628456756069521e-08 -1.4750703088195763e-08 -4.821090555798598e-07 0.0 0.0
0.0 3.5148272258278746e-07 4.949457224581214e-09 -3.0351792247973143e-09 -1.914277999783761e-09 -7.106311334223886e-08 0.0 0.0
0.0 0.0 0.0 0.0 0.0 0.0 0.0 0.0
0.0 0.0 0.0 0.0 0.0 0.0 0.0 0.0
0.0 0.0 0.0 0.0 0.0 0.0 0.0 0.0
0.0 1.762862297087584e-06 7.425115861487428e-08 -6.029149643128876e-08 -1.3959662183589334e-08 3.448992119798501e-07 0.0 0.0
0.0 5.264503866958957e-06 1.3734694812404737e-08 -1.4463022982568333e-09 -1.2288392514151664e-08 -1.707604522913695e-08 0.0 0.0
0.0 2.303337109501846e-05 -4.8159121267260284e-06 3.934688632304883e-06 8.812234944211787e-07 -1.2560998793978375e-05 0.0 0.0
0.0 0.00011268232532155792 -5.2979632645496376e-05 4.230907562966461e-05 1.0670557015831749e-05 -0.00011003663195054173 0.0 0.0
0.0 0.0005706425337616045 -0.0003672532875371165 0.00029565915878728024 7.159412874983641e-05 -0.0005593295545662058 0.0 0.0
0.0 0.0018176502293040732 -0.0013420016830313088 0.0011126465276684585 0.0002293551553628499 -0.0015470820478205118 0.0 0.0
0.0 0.003911617332562253 -0.0030643100758701433 0.002646527805732305 0.0004177822701378383 -0.0029592087776087986 0.0 0.0
0.0 0.006639719273959198 -0.005382831128689719 0.004813402681935119 0.0005694284467545987 -0.004647430109800187 0.0 0.0
0.0 0.009884158922128948 -0.008116142001223764 0.00744188779441831 0.000674254206805453 -0.006383394262877762 0.0 0.0
0.0 0.013597639899968345 -0.011231454067748774 0.010477183301471515 0.0007542707662772537 -0.008053236766099892 0.0 0.0
0.0 0.017867717066889267 -0.014803035745322445 0.013982843854106957 0.0008201918912154849 -0.009708373070943235 0.0 0.0
0.0 0.022772315527411473 -0.018957510645992014 0.018076525156658595 0.0008809854893334183 -0.011449860350401218 0.0 0.0
0.0 0.02849529276609321 -0.023759161080123523 0.02281704638075445 0.0009421146993690602 -0.013468536198748583 0.0 0.0
0.0 0.03488340428129836 -0.029060732943405145 0.028050413121079944 0.0010103198223251968 -0.01610656483184132 0.0 0.0
0.0 0.041236916716628574 -0.034278346732965426 0.03318696600494545 0.0010913807280199725 -0.019591244765941297 0.0 0.0
0.0 0.04614462561058762 -0.03813889246983197 0.036946995011982744 0.0011918974578492007 -0.023377736640635617 0.0 0.0
0.0 0.046820834651731924 -0.0384259069426144 0.03709970939091502 0.0013261975516993601 -0.025494798924426878 0.0 0.0
0.0 0.03861704486880772 -0.03147363491881111 0.02994989020028379 0.001523744718527322 -0.022397789648240872 0.0 0.0
0.0 0.03861704486881162 -0.03147363491881002 0.029949890200282634 0.001523744718527377 0.022397789648267996 0.0 0.0
0.0 0.04682083465172935 -0.03842590694260687 0.037099709390907676 0.0013261975516991919 0.0254947989244605 0.0 0.0
0.0 0.04614462561057557 -0.03813889246981754 0.03694699501196879 0.0011918974578487274 0.02337773664065939 0.0 0.0
0.0 0.041236916716608896 -0.03427834673294676 0.03318696600492761 0.001091380728019134 0.019591244765947133 0.0 0.0
0.0 0.03488340428127199 -0.029060732943382274 0.02805041312105772 0.0010103198223245446 0.01610656483183425 0.0 0.0
0.0 0.028495292766066938 -0.02375916108010111 0.022817046380732304 0.0009421146993688011 0.013468536198740038 0.0 0.0
0.0 0.022772315527385636 -0.018957510645970232 0.018076525156637036 0.0008809854893331901 0.011449860350391059 0.0 0.0
0.0 0.017867717066863152 -0.014803035745300203 0.013982843854084949 0.0008201918912152555 0.009708373070934308 0.0 0.0
0.0 0.01359763989994329 -0.011231454067727544 0.010477183301450952 0.0007542707662765887 0.008053236766087497 0.0 0.0
0.0 0.009884158922103389 -0.008116142001202756 0.00744188779439795 0.0006742542068048096 0.0063833942628623765 0.0 0.0
0.0 0.006639719273936732 -0.005382831128671718 0.004813402681917959 0.0005694284467537579 0.004647430109784104 0.0 0.0
0.0 0.003911617332547288 -0.0030643100758582092 0.002646527805721454 0.00041778227013675466 0.002959208777599606 0.0 0.0
0.0 0.0018176502292943557 -0.0013420016830237387 0.0011126465276620335 0.00022935515536170515 0.0015470820478137334 0.0 0.0
0.0 0.0005706425337563268 -0.000367253287533825 0.00029565915878460405 7.159412874922094e-05 0.0005593295545618289 0.0 0.0
0.0 0.00011268232531979575 -5.297963264517528e-05 4.230907562940323e-05 1.0670557015772094e-05 0.00011003663194986439 0.0 0.0
0.0 2.3033371094179008e-05 -4.815912126833453e-06 3.934688632390915e-06 8.812234944424953e-07 1.2560998794247943e-05 0.0 0.0
0.0 5.2645038664728904e-06 1.3734694690921108e-08 -1.4463021985595135e-09 -1.2288392492371811e-08 1.707604563779669e-08 0.0 0.0
0.0 1.7628622966370727e-06 7.425115859493936e-08 -6.029149641515662e-08 -1.3959662179784548e-08 -3.4489921188806817e-07 0.0 0.0
0.0 0.0 0.0 0.0 0.0 0.0 0.0 0.0
0.0 0.0 0.0 0.0 0.0 0.0 0.0 0.0
0.0 0.0 0.0 0.0 0.0 0.0 0.0 0.0
0.0 0.0 0.0 0.0 0.0 0.0 0.0 0.0
0.0 6.301117771691601e-07 3.177133557320747e-08 -2.5610055499987776e-08 -6.161280073216576e-09 1.139376708674144e-07 0.0 0.0
0.0 7.479034888138472e-06 5.4592668232219e-07 -4.381286801518101e-07 -1.0779800217037303e-07 1.3945185929680183e-06 0.0 0.0
0.0 3.490586781248348e-05 -3.954370156175649e-06 3.210808451993587e-06 7.435617041820642e-07 -6.98161636819504e-06 0.0 0.0
0.0 0.00022878036781102585 -0.0001430048482394222 0.00011449041234170826 2.851443589771396e-05 -0.0001986417671271524 0.0 0.0
0.0 0.0010955243311429612 -0.000805166021129555 0.0006570935500071598 0.00014807247112239518 -0.0008145011161142198 0.0 0.0
0.0 0.0029200952577092833 -0.0023371726092898887 0.001986884650773183 0.0003502879585167055 -0.0019242049093644666 0.0 0.0
0.0 0.005646158362818555 -0.004699660044202167 0.004164183056023141 0.0005354769881790268 -0.0034381922656023037 0.0 0.0
0.0 0.009137013492541233 -0.007692648970919845 0.007025887965204798 0.0006667610057150448 -0.005144683019612774 0.0 0.0
0.0 0.013266372707076321 -0.011200486999427604 0.01043863840836871 0.0007618485910588913 -0.0068596544788142805 0.0 0.0
0.0 0.018018091152235537 -0.015223911376052814 0.014384660653915981 0.0008392507221368346 -0.00853931665677805 0.0 0.0
0.0 0.023471675580115633 -0.019854415358588923 0.018946367079039066 0.0009080482795498502 -0.010226857962893725 0.0 0.0
0.0 0.029802514647514787 -0.025237914026367807 0.024264838817491263 0.000973075208876543 -0.012001195329457036 0.0 0.0
0.0 0.037190937474009686 -0.03148237037455251 0.030442581500348002 0.001039788874204509 -0.014058078964456638 0.0 0.0
0.0 0.0452682418713351 -0.0384464585111508 0.037328386653239516 0.0011180718579112505 -0.016751002218761368 0.0 0.0
0.0 0.05365848523474199 -0.04537902804975983 0.0441603336425523 0.001218694407207545 -0.02037378081606475 0.0 0.0
0.0 0.06007033315103506 -0.05056965032000031 0.04922287251747896 0.0013467778025213466 -0.024582149325660142 0.0 0.0
0.0 0.060971686767948355 -0.051083205752016206 0.04957605677020671 0.0015071489818094732 -0.0275356122190023 0.0 0.0
0.0 0.05123114318236627 -0.04256000665447333 0.04086178731502473 0.0016982193394485823 -0.026353699808160033 0.0 0.0
0.0 0.05123114318236888 -0.0425600066544712 0.04086178731502288 0.0016982193394483032 0.026353699808188608 0.0 0.0
0.0 0.0609716867679414 -0.0510832057520054 0.049576056770196 0.0015071489818094118 0.027535612219038063 0.0 0.0
0.0 0.060070333151016383 -0.05056965031998095 0.049222872517459215 0.0013467778025217406 0.02458214932568608 0.0 0.0
0.0 0.05365848523471652 -0.04537902804973644 0.0441603336425291 0.0012186944072073106 0.020373780816071677 0.0 0.0
0.0 0.045268241871301886 -0.03844645851112188 0.03732838665321095 0.0011180718579109111 0.016751002218756007 0.0 0.0
0.0 0.03719093747397559 -0.03148237037452299 0.030442581500318783 0.0010397888742042162 0.014058078964448873 0.0 0.0
0.0 0.029802514647481834 -0.025237914026339417 0.02426483881746343 0.0009730752088759876 0.012001195329446324 0.0 0.0
0.0 0.02347167558008082 -0.01985441535855874 0.01894636707900942 0.000908048279549316 0.010226857962883886 0.0 0.0
0.0 0.018018091152201265 -0.01522391137602348 0.014384660653886945 0.0008392507221365308 0.008539316656765163 0.0 0.0
0.0 0.013266372707044755 -0.01120048699940114 0.010438638408342577 0.0007618485910585613 0.006859654478798212 0.0 0.0
0.0 0.009137013492515111 -0.007692648970897909 0.007025887965183403 0.0006667610057145064 0.00514468301959667 0.0 0.0
0.0 0.0056461583627988796 -0.0046996600441855845 0.004164183056007396 0.0005354769881781896 0.003438192265591938 0.0 0.0
0.0 0.0029200952576961445 -0.0023371726092790285 0.001986884650763481 0.00035028795851554836 0.0019242049093571743 0.0 0.0
0.0 0.0010955243311353046 -0.0008051660211239719 0.0006570935500025221 0.00014807247112144967 0.0008145011161092051 0.0 0.0
0.0 0.00022878036780853096 -0.000143004848238426 0.00011449041234089683 2.851443589752917e-05 0.00019864176712580393 0.0 0.0
0.0 3.490586781184637e-05 -3.954370156518901e-06 3.2108084522629093e-06 7.435617042558903e-07 6.981616368786129e-06 0.0 0.0
0.0 7.479034887487536e-06 5.459266822702636e-07 -4.3812868011058e-07 -1.0779800215968128e-07 -1.3945185928411796e-06 0.0 0.0
0.0 6.301117768796378e-07 3.177133555832444e-08 -2.5610055487985994e-08 -6.161280070339225e-09 -1.1393767081387647e-07 0.0 0.0
0.0 0.0 0.0 0.0 0.0 0.0 0.0 0.0
0.0 0.0 0.0 0.0 0.0 0.0 0.0 0.0
0.0 0.0 0.0 0.0 0.0 0.0 0.0 0.0
0.0 0.0 0.0 0.0 0.0 0.0 0.0 0.0
0.0 0.0 0.0 0.0 0.0 0.0 0.0 0.0
0.0 3.241628952765024e-06 2.6053331691204254e-07 -2.0807629639336721e-07 -5.2457020518637325e-08 5.164519678466237e-07 0.0 0.0
0.0 5.330841888015292e-05 -2.091197625602706e-05 1.6684879836558385e-05 4.227096419468693e-06 -2.7747206688040493e-05 0.0 0.0
0.0 0.0004739793489576819 -0.0003279475293769364 0.0002635456979181532 6.440183145878356e-05 -0.0003052604811215928 0.0 0.0
0.0 0.0018287415102685946 -0.0014129805419582906 0.0011738007681219745 0.000239179773836316 -0.0009944335855357098 0.0 0.0
0.0 0.004103261989944096 -0.0034959264403871915 0.003039555907317761 0.0004563705330694307 -0.0021313571582592863 0.0 0.0
0.0 0.007458653606979164 -0.006423312858250761 0.005802579036376389 0.0006207338218743695 -0.0035839037181218873 0.0 0.0
0.0 0.011704296272022185 -0.010057643241901651 0.009319557322153194 0.0007380859197484628 -0.0051734489380181195 0.0 0.0
0.0 0.016724998762945854 -0.01433988432395808 0.013510148338662212 0.0008297359852958641 -0.006803190008556189 0.0 0.0
0.0 0.022501355025063247 -0.019282460893843095 0.0183729564080019 0.0009095044858411837 -0.008404520325859297 0.0 0.0
0.0 0.029218864611496233 -0.02498686612168513 0.024002667746546996 0.000984198375138128 -0.010029465025318426 0.0 0.0
0.0 0.036859349669456955 -0.03160999871798035 0.030554262819184885 0.001055735898795457 -0.011771498906716922 0.0 0.0
0.0 0.04579507585332776 -0.03926943838235418 0.03814100202640936 0.0011284363559448075 -0.01370174829698572 0.0 0.0
0.0 0.05588266934437758 -0.04783106208437499 0.0466147163947328 0.0012163456896421765 -0.016073463241270666 0.0 0.0
0.0 0.06583482016939175 -0.056427125332349684 0.05509232294772067 0.0013348023846289961 -0.019384253690425263 0.0 0.0
0.0 0.07354409884974919 -0.06291039267177985 0.06142106393360318 0.0014893287381766607 -0.023724666074639206 0.0 0.0
0.0 0.07484249773023505 -0.06366134247600301 0.06199380802900171 0.001667534447001296 -0.027982520867300378 0.0 0.0
0.0 0.06412935624764726 -0.05372101351788476 0.05186617806967408 0.0018548354482106533 -0.030174441464623204 0.0 0.0
0.0 0.06412935624764933 -0.05372101351788262 0.05186617806967184 0.0018548354482107346 0.030174441464653215 0.0 0.0
0.0 0.07484249773022464 -0.06366134247599023 0.06199380802898842 0.0016675344470017785 0.02798252086733673 0.0 0.0
0.0 0.07354409884972608 -0.06291039267175705 0.06142106393358037 0.0014893287381766555 0.02372466607466693 0.0 0.0
0.0 0.06583482016936143 -0.05642712533232196 0.05509232294769403 0.0013348023846279432 0.019384253690433163 0.0 0.0
0.0 0.05588266934433879 -0.047831062084341125 0.04661471639469934 0.0012163456896417623 0.01607346324126753 0.0 0.0
0.0 0.04579507585328718 -0.039269438382318916 0.03814100202637426 0.001128436355944631 0.01370174829698045 0.0 0.0
0.0 0.03685934966942033 -0.03160999871794832 0.030554262819153685 0.001055735898794636 0.011771498906709242 0.0 0.0
0.0 0.029218864611459158 -0.024986866121652598 0.024002667746514984 0.0009841983751375973 0.010029465025310318 0.0 0.0
0.0 0.02250135502502551 -0.019282460893810104 0.018372956407969643 0.0009095044858404536 0.008404520325848505 0.0 0.0
0.0 0.0167249987629102 -0.014339884323927465 0.013510148338632292 0.0008297359852951715 0.006803190008541212 0.0 0.0
0.0 0.011704296271990922 -0.01005764324187487 0.009319557322127272 0.0007380859197475938 0.005173448938003051 0.0 0.0
0.0 0.007458653606954456 -0.0064233128582292034 0.005802579036355898 0.0006207338218733034 0.0035839037181110743 0.0 0.0
0.0 0.004103261989926804 -0.003495926440372185 0.0030395559073039344 0.00045637053306824926 0.0021313571582512055 0.0 0.0
0.0 0.0018287415102579384 -0.0014129805419496938 0.0011738007681146062 0.00023917977383508776 0.0009944335855303363 0.0 0.0
0.0 0.0004739793489528872 -0.0003279475293738343 0.0002635456979156191 6.440183145821509e-05 0.00030526048111877336 0.0 0.0
0.0 5.330841887926927e-05 -2.0911976256236228e-05 1.66848798367122e-05 4.2270964195240444e-06 2.7747206688229978e-05 0.0 0.0
0.0 3.2416289522024286e-06 2.6053331686397295e-07 -2.080762963552667e-07 -5.245702050872393e-08 -5.164519677547741e-07 0.0 0.0
0.0 0.0 0.0 0.0 0.0 0.0 0.0 0.0
0.0 0.0 0.0 0.0 0.0 0.0 0.0 0.0
0.0 0.0 0.0 0.0 0.0 0.0 0.0 0.0
0.0 0.0 0.0 0.0 0.0 0.0 0.0 0.0
0.0 0.0 0.0 0.0 0.0 0.0 0.0 0.0
0.0 0.0 0.0 0.0 0.0 0.0 0.0 0.0
0.0 3.2456681912232085e-06 -1.8453526008634317e-07 1.424827614468739e-07 4.2052498639487235e-08 -2.1689080509071306e-07 0.0 0.0
0.0 0.00010472024028405296 -5.516662031084944e-05 4.4218956642162116e-05 1.0947663668687445e-05 -5.3017122638394446e-05 0.0 0.0
0.0 0.0008628135957199127 -0.0006287075439956166 0.0005102966209835426 0.0001184109230120744 -0.00039434609024845005 0.0 0.0
0.0 0.002518466170081167 -0.0021851062116840765 0.001849818747905745 0.0003352874637783324 -0.0010921461343087464 0.0 0.0
0.0 0.005378092539829666 -0.004735423996115656 0.004196925447947722 0.0005384985481679341 -0.002113647394005518 0.0 0.0
0.0 0.009368723639722114 -0.008180943496789123 0.007496199788531946 0.0006847437082571757 -0.0033693685827311487 0.0 0.0
0.0 0.014325976329240847 -0.012455330972352947 0.011661266419617757 0.0007940645527351913 -0.0047808945490312275 0.0 0.0
0.0 0.02021824614902694 -0.017512856890130657 0.016626847517111527 0.0008860093730191243 -0.006232003513688769 0.0 0.0
0.0 0.027059885074390236 -0.023384667280627647 0.022413574806870444 0.000971092473757186 -0.007664925055135843 0.0 0.0
0.0 0.03495513988450713 -0.030181943208683996 0.029129170027108863 0.0010527731815751153 -0.00914765365546637 0.0 0.0
0.0 0.04411088558073834 -0.03804718116905477 0.036913860615236875 0.0011333205538178954 -0.010738701597414644 0.0 0.0
0.0 0.05459036194129814 -0.04707070849629818 0.045856773299641794 0.0012139351966563767 -0.012431825747991173 0.0 0.0
0.0 0.06601646105898858 -0.05710797190496332 0.055801203822568916 0.001306768082394368 -0.014247786439770737 0.0 0.0
0.0 0.07777871395987324 -0.06725162673342931 0.06581305209450125 0.0014385746389280834 -0.016681522589132542 0.0 0.0
0.0 0.08697990661978386 -0.07506607784085757 0.07344997126997117 0.0016161065708863976 -0.020758388294937972 0.0 0.0
0.0 0.08889239614901497 -0.07630569584335112 0.07449015930842567 0.0018155365349254472 -0.02684080125577622 0.0 0.0
0.0 0.07735069763732094 -0.06525611328621328 0.06324833007784075 0.002007783208372509 -0.0338702037950812 0.0 0.0
0.0 0.07735069763731975 -0.06525611328620853 0.06324833007783595 0.002007783208372586 0.033870203795109986 0.0 0.0
0.0 0.08889239614900171 -0.07630569584333652 0.07449015930841135 0.0018155365349251762 0.026840801255809198 0.0 0.0
0.0 0.0869799066197575 -0.07506607784083266 0.07344997126994679 0.0016161065708858047 0.020758388294963306 0.0 0.0
0.0 0.07777871395983513 -0.06725162673339563 0.06581305209446787 0.0014385746389277438 0.016681522589139543 0.0 0.0
0.0 0.06601646105894804 -0.05710797190492734 0.0558012038225345 0.0013067680823927962 0.014247786439769495 0.0 0.0
0.0 0.05459036194125608 -0.04707070849626107 0.045856773299605996 0.0012139351966550613 0.012431825747988238 0.0 0.0
0.0 0.044110885580692434 -0.038047181169014906 0.03691386061519778 0.0011333205538171008 0.010738701597407141 0.0 0.0
0.0 0.034955139884462326 -0.030181943208644937 0.02912917002707059 0.0010527731815743503 0.009147653655458282 0.0 0.0
0.0 0.027059885074345428 -0.023384667280588384 0.02241357480683188 0.0009710924737565147 0.0076649250551260135 0.0 0.0
0.0 0.02021824614898538 -0.01751285689009443 0.016626847517076014 0.0008860093730184057 0.006232003513674561 0.0 0.0
0.0 0.014325976329204636 -0.012455330972321444 0.011661266419586754 0.000794064552734685 0.004780894549017835 0.0 0.0
0.0 0.009368723639694973 -0.008180943496765127 0.007496199788508613 0.000684743708256513 0.0033693685827222383 0.0 0.0
0.0 0.005378092539810494 -0.004735423996098443 0.004196925447931531 0.0005384985481669112 0.002113647393998674 0.0 0.0
0.0 0.002518466170069177 -0.0021851062116735698 0.0018498187478964358 0.00033528746377713386 0.0010921461343039855 0.0 0.0
0.0 0.0008628135957137076 -0.0006287075439912946 0.0005102966209799682 0.0001184109230113264 0.0003943460902458755 0.0 0.0
0.0 0.00010472024028212264 -5.5166620310247856e-05 4.4218956641664935e-05 1.0947663668582803e-05 5.3017122637835824e-05 0.0 0.0
0.0 3.245668190829883e-06 -1.845352602749245e-07 1.4248276159506706e-07 4.205249867987006e-08 2.1689080535038544e-07 0.0 0.0
0.0 0.0 0.0 0.0 0.0 0.0 0.0 0.0
0.0 0.0 0.0 0.0 0.0 0.0 0.0 0.0
0.0 0.0 0.0 0.0 0.0 0.0 0.0 0.0
0.0 0.0 0.0 0.0 0.0 0.0 0.0 0.0
0.0 0.0 0.0 0.0 0.0 0.0 0.0 0.0
0.0 0.0 0.0 0.0 0.0 0.0 0.0 0.0
0.0 3.5025666899013814e-06 3.0365598257306394e-08 -2.2301568069106736e-08 -8.064030188210067e-09 3.806010601259252e-08 0.0 0.0
0.0 0.00022730280302208294 -0.00013695857466361583 0.00010926320398321686 2.769537068039891e-05 -8.198801885233841e-05 0.0 0.0
0.0 0.0013372792396504343 -0.001059471324988156 0.0008703140675352274 0.00018915725745292895 -0.0004366307524785051 0.0 0.0
0.0 0.0033762810690560795 -0.0030367140525905598 0.00261630323654171 0.00042041081604885 -0.0010152886501854743 0.0 0.0
0.0 0.006753603824174005 -0.006002123264818739 0.0054005165656847605 0.0006016066991339764 -0.0018237724855537335 0.0 0.0
0.0 0.011314386514927888 -0.009958235394212568 0.009223842781100756 0.0007343926131118048 -0.0028359293771647465 0.0 0.0
0.0 0.016988845325892718 -0.014865767782471308 0.01402580526443465 0.0008399625180366555 -0.003982524717441366 0.0 0.0
0.0 0.02377139747089463 -0.020701010752644713 0.01976608546171816 0.0009349252909265518 -0.005168516984451786 0.0 0.0
0.0 0.031626845106118524 -0.02751286765777393 0.02648673644143779 0.001026131216336118 -0.006338062162907833 0.0 0.0
0.0 0.04085714070697531 -0.03541551776748743 0.03429936916663867 0.0011161486008487425 -0.007555182405006235 0.0 0.0
0.0 0.05126971519054503 -0.04453279969172205 0.04332640524014587 0.0012063944515761983 -0.008916012437839233 0.0 0.0
0.0 0.06314488098328674 -0.05487124653189072 0.05357329717131795 0.0012979493605727696 -0.010315000224269733 0.0 0.0
0.0 0.07618965389984961 -0.06619334344496748 0.06479681835425549 0.0013965250907119952 -0.011442280957245815 0.0 0.0
0.0 0.08938418439619687 -0.07766026634220054 0.0761366795691968 0.0015235867730037222 -0.012517906333203651 0.0 0.0
0.0 0.10012891525650758 -0.08692035651720109 0.08519822490641314 0.0017221316107879307 -0.01568556846107234 0.0 0.0
0.0 0.10317795865079515 -0.08915009925922757 0.0871958751306165 0.0019542241286111058 -0.02374984431581202 0.0 0.0
0.0 0.09150872807011208 -0.07751207016334428 0.07534169265665978 0.0021703775066844546 -0.03718242359460964 0.0 0.0
0.0 0.09150872807010811 -0.0775120701633379 0.07534169265665375 0.002170377506684162 0.03718242359463271 0.0 0.0
0.0 0.10317795865077431 -0.08915009925920743 0.08719587513059676 0.001954224128610642 0.02374984431584029 0.0 0.0
0.0 0.10012891525647134 -0.08692035651716862 0.08519822490638074 0.0017221316107878509 0.015685568461094593 0.0 0.0
0.0 0.08938418439615169 -0.07766026634216087 0.07613667956915776 0.0015235867730031137 0.01251790633320949 0.0 0.0
0.0 0.07618965389979701 -0.06619334344492189 0.06479681835420996 0.0013965250907119603 0.011442280957245324 0.0 0.0
0.0 0.0631448809832336 -0.05487124653184457 0.053573297171272065 0.0012979493605725248 0.010315000224268081 0.0 0.0
0.0 0.051269715190490284 -0.04453279969167468 0.04332640524009863 0.0012063944515760443 0.008916012437833368 0.0 0.0
0.0 0.040857140706921896 -0.03541551776744091 0.034299369166592784 0.0011161486008481394 0.007555182404999023 0.0 0.0
0.0 0.03162684510606634 -0.02751286765772839 0.026486736441393113 0.0010261312163352783 0.006338062162901407 0.0 0.0
0.0 0.023771397470849102 -0.0207010107526047 0.01976608546167878 0.0009349252909259142 0.0051685169844406225 0.0 0.0
0.0 0.0169888453258539 -0.014865767782437186 0.014025805264401052 0.0008399625180361352 0.0039825247174304764 0.0 0.0
0.0 0.01131438651489763 -0.009958235394185708 0.009223842781074527 0.00073439261311118 0.002835929377157302 0.0 0.0
0.0 0.0067536038241513136 -0.0060021232647982925 0.005400516565665146 0.0006016066991331469 0.0018237724855477656 0.0 0.0
0.0 0.0033762810690414974 -0.0030367140525772323 0.002616303236529543 0.0004204108160476899 0.0010152886501810223 0.0 0.0
0.0 0.001337279239642791 -0.0010594713249819142 0.0008703140675299613 0.00018915725745195184 0.0004366307524759962 0.0 0.0
0.0 0.00022730280301947128 -0.0001369585746622828 0.0001092632039821312 2.7695370680151702e-05 8.198801885155962e-05 0.0 0.0
0.0 3.502566689323744e-06 3.03655980415572e-08 -2.2301567900799e-08 -8.064030140749733e-09 -3.806010580810969e-08 0.0 0.0
0.0 0.0 0.0 0.0 0.0 0.0 0.0 0.0
0.0 0.0 0.0 0.0 0.0 0.0 0.0 0.0
0.0 0.0 0.0 0.0 0.0 0.0 0.0 0.0
0.0 0.0 0.0 0.0 0.0 0.0 0.0 0.0
0.0 0.0 0.0 0.0 0.0 0.0 0.0 0.0
0.0 0.0 0.0 0.0 0.0 0.0 0.0 0.0
0.0 7.872190478940765e-06 5.502535375477658e-07 -4.1541514059405274e-07 -1.3483839695368378e-07 3.1555530674404985e-07 0.0 0.0
0.0 0.0004604393873904695 -0.0002996568259276623 0.0002404373656936597 5.921946023400276e-05 -0.00010274889019433968 0.0 0.0
0.0 0.0017560680966476699 -0.0016131048402666926 0.0013423265062542876 0.0002707783340124042 -0.00037683302253490003 0.0 0.0
0.0 0.004339621591349517 -0.003924575303910276 0.003436304795455588 0.0004882705084546864 -0.0007625054501653746 0.0 0.0
0.0 0.008160750788879137 -0.007285478612772816 0.006633974726063283 0.0006515038867095326 -0.0013022117747920087 0.0 0.0
0.0 0.01328159161439305 -0.011737353152548013 0.010963745877083386 0.000773607275464622 -0.001992542815255232 0.0 0.0
0.0 0.01966798935700729 -0.01727237888127358 0.016393927571384193 0.000878451309889381 -0.002788960114029837 0.0 0.0
0.0 0.027324400315551937 -0.02388916867979361 0.022910963495139106 0.000978205184654509 -0.0036114367395268087 0.0 0.0
0.0 0.03636419105022166 -0.03164888696128066 0.030572427434758027 0.0010764595265226199 -0.00442355161229577 0.0 0.0
0.0 0.04663154742249895 -0.0406720430766034 0.03949699942074872 0.0011750436558546661 -0.005304218031445429 0.0 0.0
0.0 0.05851195383690333 -0.05103397567070857 0.04975830769019982 0.00127566798050872 -0.006280568354225571 0.0 0.0
0.0 0.0718947172014979 -0.06264525952996133 0.06126502491505733 0.0013802346149040193 -0.007230420070023787 0.0 0.0
0.0 0.08623259332917796 -0.07510496972690792 0.07361587775445355 0.00148909197245438 -0.007818965289672882 0.0 0.0
0.0 0.10051289907490954 -0.08753589544450427 0.08592890576020362 0.001606989684300714 -0.007697329001742475 0.0 0.0
0.0 0.11268206044810022 -0.0981016717942894 0.09633044901383665 0.001771222780452759 -0.008578982162990412 0.0 0.0
0.0 0.11783900229353943 -0.10225057142297513 0.10016192694007878 0.002088644482896286 -0.017502195606557698 0.0 0.0
0.0 0.10704642092679302 -0.09103285613828918 0.08867125977149093 0.002361596366798247 -0.03941426265809454 0.0 0.0
0.0 0.10704642092678603 -0.09103285613828155 0.0886712597714828 0.0023615963667987113 0.039414262658111016 0.0 0.0
0.0 0.11783900229351485 -0.10225057142295306 0.10016192694005642 0.002088644482896573 0.01750219560657899 0.0 0.0
0.0 0.11268206044806048 -0.0981016717942545 0.0963304490138021 0.0017712227804523872 0.008578982163007422 0.0 0.0
0.0 0.10051289907485739 -0.0875358954444589 0.08592890576015859 0.0016069896843002877 0.007697329001744664 0.0 0.0
0.0 0.08623259332912221 -0.07510496972685946 0.07361587775440559 0.001489091972453841 0.007818965289673536 0.0 0.0
0.0 0.07189471720144042 -0.06264525952991123 0.061265024915008015 0.001380234614903223 0.007230420070022487 0.0 0.0
0.0 0.058511953836846944 -0.05103397567065924 0.049758307690151805 0.0012756679805074182 0.0062805683542225856 0.0 0.0
0.0 0.04663154742244348 -0.04067204307655484 0.039496999420701395 0.0011750436558534373 0.005304218031440494 0.0 0.0
0.0 0.036364191050165126 -0.03164888696123115 0.030572427434709164 0.001076459526521971 0.004423551612292171 0.0 0.0
0.0 0.027324400315499937 -0.02388916867974819 0.022910963495094416 0.0009782051846537608 0.003611436739518917 0.0 0.0
0.0 0.0196679893569633 -0.01727237888123484 0.016393927571346344 0.0008784513098885062 0.0027889601140221277 0.0 0.0
0.0 0.013281591614358604 -0.011737353152517107 0.010963745877053276 0.0007736072754638316 0.001992542815250525 0.0 0.0
0.0 0.008160750788853427 -0.007285478612749548 0.006633974726040999 0.0006515038867085457 0.0013022117747878727 0.0 0.0
0.0 0.004339621591331992 -0.003924575303894023 0.0034363047954405037 0.00048827050845351883 0.0007625054501621219 0.0 0.0
0.0 0.0017560680966388752 -0.0016131048402584977 0.001342326506247164 0.0002707783340113336 0.0003768330225329315 0.0 0.0
0.0 0.00046043938738651836 -0.00029965682592503857 0.00024043736569154364 5.921946023349465e-05 0.00010274889019365693 0.0 0.0
0.0 7.872190478191774e-06 5.502535373469744e-07 -4.154151404373938e-07 -1.3483839690962687e-07 -3.1555530662259475e-07 0.0 0.0
0.0 0.0 0.0 0.0 0.0 0.0 0.0 0.0
0.0 0.0 0.0 0.0 0.0 0.0 0.0 0.0
0.0 0.0 0.0 0.0 0.0 0.0 0.0 0.0
0.0 0.0 0.0 0.0 0.0 0.0 0.0 0.0
0.0 0.0 0.0 0.0 0.0 0.0 0.0 0.0
0.0 0.0 0.0 0.0 0.0 0.0 0.0 0.0
0.0 2.6792329436119494e-05 -1.0891165297119038e-05 8.630252979325848e-06 2.2609123177933344e-06 -3.319413281972484e-06 0.0 0.0
0.0 0.0008205018000934858 -0.0005537025744232831 0.0004471005859501451 0.00010660198847313782 -7.521241914823817e-05 0.0 0.0
0.0 0.0023979953164210274 -0.0022035975549396175 0.0018591413073760163 0.000344456247563601 -0.00018261926958790427 0.0 0.0
0.0 0.005338021833856348 -0.00483408153990361 0.004290697432302682 0.0005433841076009256 -0.00033908087740445596 0.0 0.0
0.0 0.009603655909295529 -0.008568031609699062 0.007877606079606211 0.0006904255300928489 -0.0005538721649562201 0.0 0.0
0.0 0.015278669413913294 -0.013501702468891999 0.012695986545606934 0.0008057159232850679 -0.0008470960466069846 0.0 0.0
0.0 0.022395835684520263 -0.01965732816561933 0.01874574069150735 0.0009115874741119784 -0.0011998343367223521 0.0 0.0
0.0 0.031004999360542986 -0.027061281763441306 0.026044783151098184 0.0010164986123431135 -0.0015654325559575515 0.0 0.0
0.0 0.04090487226700466 -0.035787835762968206 0.03466504623827155 0.0011227895246966383 -0.0019488618694642546 0.0 0.0
0.0 0.0525028783135871 -0.045922600381063425 0.044692414275024274 0.0012301861060391227 -0.0023601753076800515 0.0 0.0
0.0 0.06584302875164794 -0.05750675717577122 0.05616565415131753 0.0013411030244536472 -0.0027881581921494003 0.0 0.0
0.0 0.08065593117480205 -0.0703670543741236 0.06890859517956537 0.0014584591945582168 -0.003172022627678607 0.0 0.0
0.0 0.0962794192911761 -0.08390938570713011 0.08232778148055281 0.0015816042265773028 -0.003295596685658488 0.0 0.0
0.0 0.11140831719618022 -0.09703016562728466 0.09532635160964881 0.0017038140176357935 -0.002791701712452379 0.0 0.0
0.0 0.12417141521902575 -0.10813717942990426 0.1063128967165045 0.00182428271339975 -0.0016081637800579168 0.0 0.0
0.0 0.13165048930094742 -0.11453848759526643 0.11252528649160919 0.002013201103657196 -0.005555372506772312 0.0 0.0
0.0 0.12523994406247135 -0.10729976808386509 0.10457817952100473 0.0027215885628603517 -0.03649396819806681 0.0 0.0
0.0 0.1252399440624642 -0.107299768083858 0.10457817952099818 0.002721588562859767 0.03649396819807349 0.0 0.0
0.0 0.13165048930092105 -0.11453848759524306 0.11252528649158673 0.0020132011036562716 0.005555372506781561 0.0 0.0
0.0 0.12417141521898051 -0.10813717942986484 0.1063128967164658 0.0018242827133989913 0.0016081637800661286 0.0 0.0
0.0 0.11140831719612394 -0.09703016562723556 0.09532635160960057 0.0017038140176349266 0.0027917017124516825 0.0 0.0
0.0 0.09627941929111362 -0.08390938570707572 0.08232778148049899 0.001581604226576707 0.003295596685659194 0.0 0.0
0.0 0.0806559311747374 -0.07036705437406736 0.06890859517950981 0.0014584591945575216 0.003172022627677754 0.0 0.0
0.0 0.06584302875158232 -0.057506757175714164 0.05616565415126123 0.0013411030244529123 0.0027881581921483543 0.0 0.0
0.0 0.05250287831351989 -0.045922600381005096 0.0446924142749664 0.0012301861060386747 0.0023601753076776966 0.0 0.0
0.0 0.040904872266940395 -0.03578783576291225 0.03466504623821628 0.001122789524695959 0.001948861869463413 0.0 0.0
0.0 0.031004999360486354 -0.02706128176339176 0.02604478315104944 0.0010164986123423246 0.001565432555952813 0.0 0.0
0.0 0.022395835684472756 -0.01965732816557803 0.018745740691466662 0.0009115874741113721 0.0011998343367185897 0.0 0.0
0.0 0.015278669413875304 -0.013501702468858326 0.012695986545573891 0.0008057159232844322 0.0008470960466052553 0.0 0.0
0.0 0.00960365590926673 -0.008568031609673012 0.00787760607958084 0.0006904255300921718 0.0005538721649544347 0.0 0.0
0.0 0.005338021833836527 -0.004834081539885423 0.004290697432285439 0.0005433841075999849 0.0003390808774032358 0.0 0.0
0.0 0.0023979953164098952 -0.0022035975549289178 0.0018591413073664165 0.000344456247562501 0.0001826192695869338 0.0 0.0
0.0 0.0008205018000880762 -0.0005537025744193527 0.00044710058594690436 0.00010660198847244878 7.52124191478376e-05 0.0 0.0
0.0 2.6792329435577623e-05 -1.0891165297331327e-05 8.630252979479769e-06 2.2609123178515463e-06 3.319413281970168e-06 0.0 0.0
0.0 0.0 0.0 0.0 0.0 0.0 0.0 0.0
0.0 0.0 0.0 0.0 0.0 0.0 0.0 0.0
0.0 0.0 0.0 0.0 0.0 0.0 0.0 0.0