# vtk DataFile Version 3.0
Some data
ASCII
DATASET UNSTRUCTURED_GRID
POINTS 861 float
0.0 0.0 0.0
0.4 0.0 0.0
0.8 0.0 0.0
1.2000000000000002 0.0 0.0
1.6 0.0 0.0
2.0 0.0 0.0
2.4000000000000004 0.0 0.0
2.8000000000000003 0.0 0.0
3.2 0.0 0.0
3.6 0.0 0.0
4.0 0.0 0.0
4.4 0.0 0.0
4.800000000000001 0.0 0.0
5.2 0.0 0.0
5.6000000000000005 0.0 0.0
6.0 0.0 0.0
6.4 0.0 0.0
6.800000000000001 0.0 0.0
7.2 0.0 0.0
7.6000000000000005 0.0 0.0
8.0 0.0 0.0
8.4 0.0 0.0
8.8 0.0 0.0
9.200000000000001 0.0 0.0
9.600000000000001 0.0 0.0
10.0 0.0 0.0
10.4 0.0 0.0
10.8 0.0 0.0
11.200000000000001 0.0 0.0
11.600000000000001 0.0 0.0
12.0 0.0 0.0
12.4 0.0 0.0
12.8 0.0 0.0
13.200000000000001 0.0 0.0
13.600000000000001 0.0 0.0
14.0 0.0 0.0
14.4 0.0 0.0
14.8 0.0 0.0
15.200000000000001 0.0 0.0
15.600000000000001 0.0 0.0
16.0 0.0 0.0
0.0 0.1 0.0
0.4 0.1 0.0
0.8 0.1 0.0
1.2000000000000002 0.1 0.0
1.6 0.1 0.0
2.0 0.1 0.0
2.4000000000000004 0.1 0.0
2.8000000000000003 0.1 0.0
3.2 0.1 0.0
3.6 0.1 0.0
4.0 0.1 0.0
4.4 0.1 0.0
4.800000000000001 0.1 0.0
5.2 0.1 0.0
5.6000000000000005 0.1 0.0
6.0 0.1 0.0
6.4 0.1 0.0
6.800000000000001 0.1 0.0
7.2 0.1 0.0
7.6000000000000005 0.1 0.0
8.0 0.1 0.0
8.4 0.1 0.0
8.8 0.1 0.0
9.200000000000001 0.1 0.0
9.600000000000001 0.1 0.0
10.0 0.1 0.0
10.4 0.1 0.0
10.8 0.1 0.0
11.200000000000001 0.1 0.0
11.600000000000001 0.1 0.0
12.0 0.1 0.0
12.4 0.1 0.0
12.8 0.1 0.0
13.200000000000001 0.1 0.0
13.600000000000001 0.1 0.0
14.0 0.1 0.0
14.4 0.1 0.0
14.8 0.1 0.0
15.200000000000001 0.1 0.0
15.600000000000001 0.1 0.0
16.0 0.1 0.0
0.0 0.2 0.0
0.4 0.2 0.0
0.8 0.2 0.0
1.2000000000000002 0.2 0.0
1.6 0.2 0.0
2.0 0.2 0.0
2.4000000000000004 0.2 0.0
2.8000000000000003 0.2 0.0
3.2 0.2 0.0
3.6 0.2 0.0
4.0 0.2 0.0
4.4 0.2 0.0
4.800000000000001 0.2 0.0
5.2 0.2 0.0
5.6000000000000005 0.2 0.0
6.0 0.2 0.0
6.4 0.2 0.0
6.800000000000001 0.2 0.0
7.2 0.2 0.0
7.6000000000000005 0.2 0.0
8.0 0.2 0.0
8.4 0.2 0.0
8.8 0.2 0.0
9.200000000000001 0.2 0.0
9.600000000000001 0.2 0.0
10.0 0.2 0.0
10.4 0.2 0.0
10.8 0.2 0.0
11.200000000000001 0.2 0.0
11.600000000000001 0.2 0.0
12.0 0.2 0.0
12.4 0.2 0.0
12.8 0.2 0.0
13.200000000000001 0.2 0.0
13.600000000000001 0.2 0.0
14.0 0.2 0.0
14.4 0.2 0.0
14.8 0.2 0.0
15.200000000000001 0.2 0.0
15.600000000000001 0.2 0.0
16.0 0.2 0.0
0.0 0.30000000000000004 0.0
0.4 0.30000000000000004 0.0
0.8 0.30000000000000004 0.0
1.2000000000000002 0.30000000000000004 0.0
1.6 0.30000000000000004 0.0
2.0 0.30000000000000004 0.0
2.4000000000000004 0.30000000000000004 0.0
2.8000000000000003 0.30000000000000004 0.0
3.2 0.30000000000000004 0.0
3.6 0.30000000000000004 0.0
4.0 0.30000000000000004 0.0
4.4 0.30000000000000004 0.0
4.800000000000001 0.30000000000000004 0.0
5.2 0.30000000000000004 0.0
5.6000000000000005 0.30000000000000004 0.0
6.0 0.30000000000000004 0.0
6.4 0.30000000000000004 0.0
6.800000000000001 0.30000000000000004 0.0
7.2 0.30000000000000004 0.0
7.6000000000000005 0.30000000000000004 0.0
8.0 0.30000000000000004 0.0
8.4 0.30000000000000004 0.0
8.8 0.30000000000000004 0.0
9.200000000000001 0.30000000000000004 0.0
9.600000000000001 0.30000000000000004 0.0
10.0 0.30000000000000004 0.0
10.4 0.30000000000000004 0.0
10.8 0.30000000000000004 0.0
11.200000000000001 0.30000000000000004 0.0
11.600000000000001 0.30000000000000004 0.0
12.0 0.30000000000000004 0.0
12.4 0.30000000000000004 0.0
12.8 0.30000000000000004 0.0
13.200000000000001 0.30000000000000004 0.0
13.600000000000001 0.30000000000000004 0.0
14.0 0.30000000000000004 0.0
14.4 0.30000000000000004 0.0
14.8 0.30000000000000004 0.0
15.200000000000001 0.30000000000000004 0.0
15.600000000000001 0.30000000000000004 0.0
16.0 0.30000000000000004 0.0
0.0 0.4 0.0
0.4 0.4 0.0
0.8 0.4 0.0
1.2000000000000002 0.4 0.0
1.6 0.4 0.0
2.0 0.4 0.0
2.4000000000000004 0.4 0.0
2.8000000000000003 0.4 0.0
3.2 0.4 0.0
3.6 0.4 0.0
4.0 0.4 0.0
4.4 0.4 0.0
4.800000000000001 0.4 0.0
5.2 0.4 0.0
5.6000000000000005 0.4 0.0
6.0 0.4 0.0
6.4 0.4 0.0
6.800000000000001 0.4 0.0
7.2 0.4 0.0
7.6000000000000005 0.4 0.0
8.0 0.4 0.0
8.4 0.4 0.0
8.8 0.4 0.0
9.200000000000001 0.4 0.0
9.600000000000001 0.4 0.0
10.0 0.4 0.0
10.4 0.4 0.0
10.8 0.4 0.0
11.200000000000001 0.4 0.0
11.600000000000001 0.4 0.0
12.0 0.4 0.0
12.4 0.4 0.0
12.8 0.4 0.0
13.200000000000001 0.4 0.0
13.600000000000001 0.4 0.0
14.0 0.4 0.0
14.4 0.4 0.0
14.8 0.4 0.0
15.200000000000001 0.4 0.0
15.600000000000001 0.4 0.0
16.0 0.4 0.0
0.0 0.5 0.0
0.4 0.5 0.0
0.8 0.5 0.0
1.2000000000000002 0.5 0.0
1.6 0.5 0.0
2.0 0.5 0.0
2.4000000000000004 0.5 0.0
2.8000000000000003 0.5 0.0
3.2 0.5 0.0
3.6 0.5 0.0
4.0 0.5 0.0
4.4 0.5 0.0
4.800000000000001 0.5 0.0
5.2 0.5 0.0
5.6000000000000005 0.5 0.0
6.0 0.5 0.0
6.4 0.5 0.0
6.800000000000001 0.5 0.0
7.2 0.5 0.0
7.6000000000000005 0.5 0.0
8.0 0.5 0.0
8.4 0.5 0.0
8.8 0.5 0.0
9.200000000000001 0.5 0.0
9.600000000000001 0.5 0.0
10.0 0.5 0.0
10.4 0.5 0.0
10.8 0.5 0.0
11.200000000000001 0.5 0.0
11.600000000000001 0.5 0.0
12.0 0.5 0.0
12.4 0.5 0.0
12.8 0.5 0.0
13.200000000000001 0.5 0.0
13.600000000000001 0.5 0.0
14.0 0.5 0.0
14.4 0.5 0.0
14.8 0.5 0.0
15.200000000000001 0.5 0.0
15.600000000000001 0.5 0.0
16.0 0.5 0.0
0.0 0.6000000000000001 0.0
0.4 0.6000000000000001 0.0
0.8 0.6000000000000001 0.0
1.2000000000000002 0.6000000000000001 0.0
1.6 0.6000000000000001 0.0
2.0 0.6000000000000001 0.0
2.4000000000000004 0.6000000000000001 0.0
2.8000000000000003 0.6000000000000001 0.0
3.2 0.6000000000000001 0.0
3.6 0.6000000000000001 0.0
4.0 0.6000000000000001 0.0
4.4 0.6000000000000001 0.0
4.800000000000001 0.6000000000000001 0.0
5.2 0.6000000000000001 0.0
5.6000000000000005 0.6000000000000001 0.0
6.0 0.6000000000000001 0.0
6.4 0.6000000000000001 0.0
6.800000000000001 0.6000000000000001 0.0
7.2 0.6000000000000001 0.0
7.6000000000000005 0.6000000000000001 0.0
8.0 0.6000000000000001 0.0
8.4 0.6000000000000001 0.0
8.8 0.6000000000000001 0.0
9.200000000000001 0.6000000000000001 0.0
9.600000000000001 0.6000000000000001 0.0
10.0 0.6000000000000001 0.0
10.4 0.6000000000000001 0.0
10.8 0.6000000000000001 0.0
11.200000000000001 0.6000000000000001 0.0
11.600000000000001 0.6000000000000001 0.0
12.0 0.6000000000000001 0.0
12.4 0.6000000000000001 0.0
12.8 0.6000000000000001 0.0
13.200000000000001 0.6000000000000001 0.0
13.600000000000001 0.6000000000000001 0.0
14.0 0.6000000000000001 0.0
14.4 0.6000000000000001 0.0
14.8 0.6000000000000001 0.0
15.200000000000001 0.6000000000000001 0.0
15.600000000000001 0.6000000000000001 0.0
16.0 0.6000000000000001 0.0
0.0 0.7000000000000001 0.0
0.4 0.7000000000000001 0.0
0.8 0.7000000000000001 0.0
1.2000000000000002 0.7000000000000001 0.0
1.6 0.7000000000000001 0.0
2.0 0.7000000000000001 0.0
2.4000000000000004 0.7000000000000001 0.0
2.8000000000000003 0.7000000000000001 0.0
3.2 0.7000000000000001 0.0
3.6 0.7000000000000001 0.0
4.0 0.7000000000000001 0.0
4.4 0.7000000000000001 0.0
4.800000000000001 0.7000000000000001 0.0
5.2 0.7000000000000001 0.0
5.6000000000000005 0.7000000000000001 0.0
6.0 0.7000000000000001 0.0
6.4 0.7000000000000001 0.0
6.800000000000001 0.7000000000000001 0.0
7.2 0.7000000000000001 0.0
7.6000000000000005 0.7000000000000001 0.0
8.0 0.7000000000000001 0.0
8.4 0.7000000000000001 0.0
8.8 0.7000000000000001 0.0
9.200000000000001 0.7000000000000001 0.0
9.600000000000001 0.7000000000000001 0.0
10.0 0.7000000000000001 0.0
10.4 0.7000000000000001 0.0
10.8 0.7000000000000001 0.0
11.200000000000001 0.7000000000000001 0.0
11.600000000000001 0.7000000000000001 0.0
12.0 0.7000000000000001 0.0
12.4 0.7000000000000001 0.0
12.8 0.7000000000000001 0.0
13.200000000000001 0.7000000000000001 0.0
13.600000000000001 0.7000000000000001 0.0
14.0 0.7000000000000001 0.0
14.4 0.7000000000000001 0.0
14.8 0.7000000000000001 0.0
15.200000000000001 0.7000000000000001 0.0
15.600000000000001 0.7000000000000001 0.0
16.0 0.7000000000000001 0.0
0.0 0.8 0.0
0.4 0.8 0.0
0.8 0.8 0.0
1.2000000000000002 0.8 0.0
1.6 0.8 0.0
2.0 0.8 0.0
2.4000000000000004 0.8 0.0
2.8000000000000003 0.8 0.0
3.2 0.8 0.0
3.6 0.8 0.0
4.0 0.8 0.0
4.4 0.8 0.0
4.800000000000001 0.8 0.0
5.2 0.8 0.0
5.6000000000000005 0.8 0.0
6.0 0.8 0.0
6.4 0.8 0.0
6.800000000000001 0.8 0.0
7.2 0.8 0.0
7.6000000000000005 0.8 0.0
8.0 0.8 0.0
8.4 0.8 0.0
8.8 0.8 0.0
9.200000000000001 0.8 0.0
9.600000000000001 0.8 0.0
10.0 0.8 0.0
10.4 0.8 0.0
10.8 0.8 0.0
11.200000000000001 0.8 0.0
11.600000000000001 0.8 0.0
12.0 0.8 0.0
12.4 0.8 0.0
12.8 0.8 0.0
13.200000000000001 0.8 0.0
13.600000000000001 0.8 0.0
14.0 0.8 0.0
14.4 0.8 0.0
14.8 0.8 0.0
15.200000000000001 0.8 0.0
15.600000000000001 0.8 0.0
16.0 0.8 0.0
0.0 0.9 0.0
0.4 0.9 0.0
0.8 0.9 0.0
1.2000000000000002 0.9 0.0
1.6 0.9 0.0
2.0 0.9 0.0
2.4000000000000004 0.9 0.0
2.8000000000000003 0.9 0.0
3.2 0.9 0.0
3.6 0.9 0.0
4.0 0.9 0.0
4.4 0.9 0.0
4.800000000000001 0.9 0.0
5.2 0.9 0.0
5.6000000000000005 0.9 0.0
6.0 0.9 0.0
6.4 0.9 0.0
6.800000000000001 0.9 0.0
7.2 0.9 0.0
7.6000000000000005 0.9 0.0
8.0 0.9 0.0
8.4 0.9 0.0
8.8 0.9 0.0
9.200000000000001 0.9 0.0
9.600000000000001 0.9 0.0
10.0 0.9 0.0
10.4 0.9 0.0
10.8 0.9 0.0
11.200000000000001 0.9 0.0
11.600000000000001 0.9 0.0
12.0 0.9 0.0
12.4 0.9 0.0
12.8 0.9 0.0
13.200000000000001 0.9 0.0
13.600000000000001 0.9 0.0
14.0 0.9 0.0
14.4 0.9 0.0
14.8 0.9 0.0
15.200000000000001 0.9 0.0
15.600000000000001 0.9 0.0
16.0 0.9 0.0
0.0 1.0 0.0
0.4 1.0 0.0
0.8 1.0 0.0
1.2000000000000002 1.0 0.0
1.6 1.0 0.0
2.0 1.0 0.0
2.4000000000000004 1.0 0.0
2.8000000000000003 1.0 0.0
3.2 1.0 0.0
3.6 1.0 0.0
4.0 1.0 0.0
4.4 1.0 0.0
4.800000000000001 1.0 0.0
5.2 1.0 0.0
5.6000000000000005 1.0 0.0
6.0 1.0 0.0
6.4 1.0 0.0
6.800000000000001 1.0 0.0
7.2 1.0 0.0
7.6000000000000005 1.0 0.0
8.0 1.0 0.0
8.4 1.0 0.0
8.8 1.0 0.0
9.200000000000001 1.0 0.0
9.600000000000001 1.0 0.0
10.0 1.0 0.0
10.4 1.0 0.0
10.8 1.0 0.0
11.200000000000001 1.0 0.0
11.600000000000001 1.0 0.0
12.0 1.0 0.0
12.4 1.0 0.0
12.8 1.0 0.0
13.200000000000001 1.0 0.0
13.600000000000001 1.0 0.0
14.0 1.0 0.0
14.4 1.0 0.0
14.8 1.0 0.0
15.200000000000001 1.0 0.0
15.600000000000001 1.0 0.0
16.0 1.0 0.0
0.0 1.1 0.0
0.4 1.1 0.0
0.8 1.1 0.0
1.2000000000000002 1.1 0.0
1.6 1.1 0.0
2.0 1.1 0.0
2.4000000000000004 1.1 0.0
2.8000000000000003 1.1 0.0
3.2 1.1 0.0
3.6 1.1 0.0
4.0 1.1 0.0
4.4 1.1 0.0
4.800000000000001 1.1 0.0
5.2 1.1 0.0
5.6000000000000005 1.1 0.0
6.0 1.1 0.0
6.4 1.1 0.0
6.800000000000001 1.1 0.0
7.2 1.1 0.0
7.6000000000000005 1.1 0.0
8.0 1.1 0.0
8.4 1.1 0.0
8.8 1.1 0.0
9.200000000000001 1.1 0.0
9.600000000000001 1.1 0.0
10.0 1.1 0.0
10.4 1.1 0.0
10.8 1.1 0.0
11.200000000000001 1.1 0.0
11.600000000000001 1.1 0.0
12.0 1.1 0.0
12.4 1.1 0.0
12.8 1.1 0.0
13.200000000000001 1.1 0.0
13.600000000000001 1.1 0.0
14.0 1.1 0.0
14.4 1.1 0.0
14.8 1.1 0.0
15.200000000000001 1.1 0.0
15.600000000000001 1.1 0.0
16.0 1.1 0.0
0.0 1.2000000000000002 0.0
0.4 1.2000000000000002 0.0
0.8 1.2000000000000002 0.0
1.2000000000000002 1.2000000000000002 0.0
1.6 1.2000000000000002 0.0
2.0 1.2000000000000002 0.0
2.4000000000000004 1.2000000000000002 0.0
2.8000000000000003 1.2000000000000002 0.0
3.2 1.2000000000000002 0.0
3.6 1.2000000000000002 0.0
4.0 1.2000000000000002 0.0
4.4 1.2000000000000002 0.0
4.800000000000001 1.2000000000000002 0.0
5.2 1.2000000000000002 0.0
5.6000000000000005 1.2000000000000002 0.0
6.0 1.2000000000000002 0.0
6.4 1.2000000000000002 0.0
6.800000000000001 1.2000000000000002 0.0
7.2 1.2000000000000002 0.0
7.6000000000000005 1.2000000000000002 0.0
8.0 1.2000000000000002 0.0
8.4 1.2000000000000002 0.0
8.8 1.2000000000000002 0.0
9.200000000000001 1.2000000000000002 0.0
9.600000000000001 1.2000000000000002 0.0
10.0 1.2000000000000002 0.0
10.4 1.2000000000000002 0.0
10.8 1.2000000000000002 0.0
11.200000000000001 1.2000000000000002 0.0
11.600000000000001 1.2000000000000002 0.0
12.0 1.2000000000000002 0.0
12.4 1.2000000000000002 0.0
12.8 1.2000000000000002 0.0
13.200000000000001 1.2000000000000002 0.0
13.600000000000001 1.2000000000000002 0.0
14.0 1.2000000000000002 0.0
14.4 1.2000000000000002 0.0
14.8 1.2000000000000002 0.0
15.200000000000001 1.2000000000000002 0.0
15.600000000000001 1.2000000000000002 0.0
16.0 1.2000000000000002 0.0
0.0 1.3 0.0
0.4 1.3 0.0
0.8 1.3 0.0
1.2000000000000002 1.3 0.0
1.6 1.3 0.0
2.0 1.3 0.0
2.4000000000000004 1.3 0.0
2.8000000000000003 1.3 0.0
3.2 1.3 0.0
3.6 1.3 0.0
4.0 1.3 0.0
4.4 1.3 0.0
4.800000000000001 1.3 0.0
5.2 1.3 0.0
5.6000000000000005 1.3 0.0
6.0 1.3 0.0
6.4 1.3 0.0
6.800000000000001 1.3 0.0
7.2 1.3 0.0
7.6000000000000005 1.3 0.0
8.0 1.3 0.0
8.4 1.3 0.0
8.8 1.3 0.0
9.200000000000001 1.3 0.0
9.600000000000001 1.3 0.0
10.0 1.3 0.0
10.4 1.3 0.0
10.8 1.3 0.0
11.200000000000001 1.3 0.0
11.600000000000001 1.3 0.0
12.0 1.3 0.0
12.4 1.3 0.0
12.8 1.3 0.0
13.200000000000001 1.3 0.0
13.600000000000001 1.3 0.0
14.0 1.3 0.0
14.4 1.3 0.0
14.8 1.3 0.0
15.200000000000001 1.3 0.0
15.600000000000001 1.3 0.0
16.0 1.3 0.0
0.0 1.4000000000000001 0.0
0.4 1.4000000000000001 0.0
0.8 1.4000000000000001 0.0
1.2000000000000002 1.4000000000000001 0.0
1.6 1.4000000000000001 0.0
2.0 1.4000000000000001 0.0
2.4000000000000004 1.4000000000000001 0.0
2.8000000000000003 1.4000000000000001 0.0
3.2 1.4000000000000001 0.0
3.6 1.4000000000000001 0.0
4.0 1.4000000000000001 0.0
4.4 1.4000000000000001 0.0
4.800000000000001 1.4000000000000001 0.0
5.2 1.4000000000000001 0.0
5.6000000000000005 1.4000000000000001 0.0
6.0 1.4000000000000001 0.0
6.4 1.4000000000000001 0.0
6.800000000000001 1.4000000000000001 0.0
7.2 1.4000000000000001 0.0
7.6000000000000005 1.4000000000000001 0.0
8.0 1.4000000000000001 0.0
8.4 1.4000000000000001 0.0
8.8 1.4000000000000001 0.0
9.200000000000001 1.4000000000000001 0.0
9.600000000000001 1.4000000000000001 0.0
10.0 1.4000000000000001 0.0
10.4 1.4000000000000001 0.0
10.8 1.4000000000000001 0.0
11.200000000000001 1.4000000000000001 0.0
11.600000000000001 1.4000000000000001 0.0
12.0 1.4000000000000001 0.0
12.4 1.4000000000000001 0.0
12.8 1.4000000000000001 0.0
13.200000000000001 1.4000000000000001 0.0
13.600000000000001 1.4000000000000001 0.0
14.0 1.4000000000000001 0.0
14.4 1.4000000000000001 0.0
14.8 1.4000000000000001 0.0
15.200000000000001 1.4000000000000001 0.0
15.600000000000001 1.4000000000000001 0.0
16.0 1.4000000000000001 0.0
0.0 1.5 0.0
0.4 1.5 0.0
0.8 1.5 0.0
1.2000000000000002 1.5 0.0
1.6 1.5 0.0
2.0 1.5 0.0
2.4000000000000004 1.5 0.0
2.8000000000000003 1.5 0.0
3.2 1.5 0.0
3.6 1.5 0.0
4.0 1.5 0.0
4.4 1.5 0.0
4.800000000000001 1.5 0.0
5.2 1.5 0.0
5.6000000000000005 1.5 0.0
6.0 1.5 0.0
6.4 1.5 0.0
6.800000000000001 1.5 0.0
7.2 1.5 0.0
7.6000000000000005 1.5 0.0
8.0 1.5 0.0
8.4 1.5 0.0
8.8 1.5 0.0
9.200000000000001 1.5 0.0
9.600000000000001 1.5 0.0
10.0 1.5 0.0
10.4 1.5 0.0
10.8 1.5 0.0
11.200000000000001 1.5 0.0
11.600000000000001 1.5 0.0
12.0 1.5 0.0
12.4 1.5 0.0
12.8 1.5 0.0
13.200000000000001 1.5 0.0
13.600000000000001 1.5 0.0
14.0 1.5 0.0
14.4 1.5 0.0
14.8 1.5 0.0
15.200000000000001 1.5 0.0
15.600000000000001 1.5 0.0
16.0 1.5 0.0
0.0 1.6 0.0
0.4 1.6 0.0
0.8 1.6 0.0
1.2000000000000002 1.6 0.0
1.6 1.6 0.0
2.0 1.6 0.0
2.4000000000000004 1.6 0.0
2.8000000000000003 1.6 0.0
3.2 1.6 0.0
3.6 1.6 0.0
4.0 1.6 0.0
4.4 1.6 0.0
4.800000000000001 1.6 0.0
5.2 1.6 0.0
5.6000000000000005 1.6 0.0
6.0 1.6 0.0
6.4 1.6 0.0
6.800000000000001 1.6 0.0
7.2 1.6 0.0
7.6000000000000005 1.6 0.0
8.0 1.6 0.0
8.4 1.6 0.0
8.8 1.6 0.0
9.200000000000001 1.6 0.0
9.600000000000001 1.6 0.0
10.0 1.6 0.0
10.4 1.6 0.0
10.8 1.6 0.0
11.200000000000001 1.6 0.0
11.600000000000001 1.6 0.0
12.0 1.6 0.0
12.4 1.6 0.0
12.8 1.6 0.0
13.200000000000001 1.6 0.0
13.600000000000001 1.6 0.0
14.0 1.6 0.0
14.4 1.6 0.0
14.8 1.6 0.0
15.200000000000001 1.6 0.0
15.600000000000001 1.6 0.0
16.0 1.6 0.0
0.0 1.7000000000000002 0.0
0.4 1.7000000000000002 0.0
0.8 1.7000000000000002 0.0
1.2000000000000002 1.7000000000000002 0.0
1.6 1.7000000000000002 0.0
2.0 1.7000000000000002 0.0
2.4000000000000004 1.7000000000000002 0.0
2.8000000000000003 1.7000000000000002 0.0
3.2 1.7000000000000002 0.0
3.6 1.7000000000000002 0.0
4.0 1.7000000000000002 0.0
4.4 1.7000000000000002 0.0
4.800000000000001 1.7000000000000002 0.0
5.2 1.7000000000000002 0.0
5.6000000000000005 1.7000000000000002 0.0
6.0 1.7000000000000002 0.0
6.4 1.7000000000000002 0.0
6.800000000000001 1.7000000000000002 0.0
7.2 1.7000000000000002 0.0
7.6000000000000005 1.7000000000000002 0.0
8.0 1.7000000000000002 0.0
8.4 1.7000000000000002 0.0
8.8 1.7000000000000002 0.0
9.200000000000001 1.7000000000000002 0.0
9.600000000000001 1.7000000000000002 0.0
10.0 1.7000000000000002 0.0
10.4 1.7000000000000002 0.0
10.8 1.7000000000000002 0.0
11.200000000000001 1.7000000000000002 0.0
11.600000000000001 1.7000000000000002 0.0
12.0 1.7000000000000002 0.0
12.4 1.7000000000000002 0.0
12.8 1.7000000000000002 0.0
13.200000000000001 1.7000000000000002 0.0
13.600000000000001 1.7000000000000002 0.0
14.0 1.7000000000000002 0.0
14.4 1.7000000000000002 0.0
14.8 1.7000000000000002 0.0
15.200000000000001 1.7000000000000002 0.0
15.600000000000001 1.7000000000000002 0.0
16.0 1.7000000000000002 0.0
0.0 1.8 0.0
0.4 1.8 0.0
0.8 1.8 0.0
1.2000000000000002 1.8 0.0
1.6 1.8 0.0
2.0 1.8 0.0
2.4000000000000004 1.8 0.0
2.8000000000000003 1.8 0.0
3.2 1.8 0.0
3.6 1.8 0.0
4.0 1.8 0.0
4.4 1.8 0.0
4.800000000000001 1.8 0.0
5.2 1.8 0.0
5.6000000000000005 1.8 0.0
6.0 1.8 0.0
6.4 1.8 0.0
6.800000000000001 1.8 0.0
7.2 1.8 0.0
7.6000000000000005 1.8 0.0
8.0 1.8 0.0
8.4 1.8 0.0
8.8 1.8 0.0
9.200000000000001 1.8 0.0
9.600000000000001 1.8 0.0
10.0 1.8 0.0
10.4 1.8 0.0
10.8 1.8 0.0
11.200000000000001 1.8 0.0
11.600000000000001 1.8 0.0
12.0 1.8 0.0
12.4 1.8 0.0
12.8 1.8 0.0
13.200000000000001 1.8 0.0
13.600000000000001 1.8 0.0
14.0 1.8 0.0
14.4 1.8 0.0
14.8 1.8 0.0
15.200000000000001 1.8 0.0
15.600000000000001 1.8 0.0
16.0 1.8 0.0
0.0 1.9000000000000001 0.0
0.4 1.9000000000000001 0.0
0.8 1.9000000000000001 0.0
1.2000000000000002 1.9000000000000001 0.0
1.6 1.9000000000000001 0.0
2.0 1.9000000000000001 0.0
2.4000000000000004 1.9000000000000001 0.0
2.8000000000000003 1.9000000000000001 0.0
3.2 1.9000000000000001 0.0
3.6 1.9000000000000001 0.0
4.0 1.9000000000000001 0.0
4.4 1.9000000000000001 0.0
4.800000000000001 1.9000000000000001 0.0
5.2 1.9000000000000001 0.0
5.6000000000000005 1.9000000000000001 0.0
6.0 1.9000000000000001 0.0
6.4 1.9000000000000001 0.0
6.800000000000001 1.9000000000000001 0.0
7.2 1.9000000000000001 0.0
7.6000000000000005 1.9000000000000001 0.0
8.0 1.9000000000000001 0.0
8.4 1.9000000000000001 0.0
8.8 1.9000000000000001 0.0
9.200000000000001 1.9000000000000001 0.0
9.600000000000001 1.9000000000000001 0.0
10.0 1.9000000000000001 0.0
10.4 1.9000000000000001 0.0
10.8 1.9000000000000001 0.0
11.200000000000001 1.9000000000000001 0.0
11.600000000000001 1.9000000000000001 0.0
12.0 1.9000000000000001 0.0
12.4 1.9000000000000001 0.0
12.8 1.9000000000000001 0.0
13.200000000000001 1.9000000000000001 0.0
13.600000000000001 1.9000000000000001 0.0
14.0 1.9000000000000001 0.0
14.4 1.9000000000000001 0.0
14.8 1.9000000000000001 0.0
15.200000000000001 1.9000000000000001 0.0
15.600000000000001 1.9000000000000001 0.0
16.0 1.9000000000000001 0.0
0.0 2.0 0.0
0.4 2.0 0.0
0.8 2.0 0.0
1.2000000000000002 2.0 0.0
1.6 2.0 0.0
2.0 2.0 0.0
2.4000000000000004 2.0 0.0
2.8000000000000003 2.0 0.0
3.2 2.0 0.0
3.6 2.0 0.0
4.0 2.0 0.0
4.4 2.0 0.0
4.800000000000001 2.0 0.0
5.2 2.0 0.0
5.6000000000000005 2.0 0.0
6.0 2.0 0.0
6.4 2.0 0.0
6.800000000000001 2.0 0.0
7.2 2.0 0.0
7.6000000000000005 2.0 0.0
8.0 2.0 0.0
8.4 2.0 0.0
8.8 2.0 0.0
9.200000000000001 2.0 0.0
9.600000000000001 2.0 0.0
10.0 2.0 0.0
10.4 2.0 0.0
10.8 2.0 0.0
11.200000000000001 2.0 0.0
11.600000000000001 2.0 0.0
12.0 2.0 0.0
12.4 2.0 0.0
12.8 2.0 0.0
13.200000000000001 2.0 0.0
13.600000000000001 2.0 0.0
14.0 2.0 0.0
14.4 2.0 0.0
14.8 2.0 0.0
15.200000000000001 2.0 0.0
15.600000000000001 2.0 0.0
16.0 2.0 0.0
CELLS 800 4000
4 0 1 42 41
4 1 2 43 42
4 2 3 44 43
4 3 4 45 44
4 4 5 46 45
4 5 6 47 46
4 6 7 48 47
4 7 8 49 48
4 8 9 50 49
4 9 10 51 50
4 10 11 52 51
4 11 12 53 52
4 12 13 54 53
4 13 14 55 54
4 14 15 56 55
4 15 16 57 56
4 16 17 58 57
4 17 18 59 58
4 18 19 60 59
4 19 20 61 60
4 20 21 62 61
4 21 22 63 62
4 22 23 64 63
4 23 24 65 64
4 24 25 66 65
4 25 26 67 66
4 26 27 68 67
4 27 28 69 68
4 28 29 70 69
4 29 30 71 70
4 30 31 72 71
4 31 32 73 72
4 32 33 74 73
4 33 34 75 74
4 34 35 76 75
4 35 36 77 76
4 36 37 78 77
4 37 38 79 78
4 38 39 80 79
4 39 40 81 80
4 41 42 83 82
4 42 43 84 83
4 43 44 85 84
4 44 45 86 85
4 45 46 87 86
4 46 47 88 87
4 47 48 89 88
4 48 49 90 89
4 49 50 91 90
4 50 51 92 91
4 51 52 93 92
4 52 53 94 93
4 53 54 95 94
4 54 55 96 95
4 55 56 97 96
4 56 57 98 97
4 57 58 99 98
4 58 59 100 99
4 59 60 101 100
4 60 61 102 101
4 61 62 103 102
4 62 63 104 103
4 63 64 105 104
4 64 65 106 105
4 65 66 107 106
4 66 67 108 107
4 67 68 109 108
4 68 69 110 109
4 69 70 111 110
4 70 71 112 111
4 71 72 113 112
4 72 73 114 113
4 73 74 115 114
4 74 75 116 115
4 75 76 117 116
4 76 77 118 117
4 77 78 119 118
4 78 79 120 119
4 79 80 121 120
4 80 81 122 121
4 82 83 124 123
4 83 84 125 124
4 84 85 126 125
4 85 86 127 126
4 86 87 128 127
4 87 88 129 128
4 88 89 130 129
4 89 90 131 130
4 90 91 132 131
4 91 92 133 132
4 92 93 134 133
4 93 94 135 134
4 94 95 136 135
4 95 96 137 136
4 96 97 138 137
4 97 98 139 138
4 98 99 140 139
4 99 100 141 140
4 100 101 142 141
4 101 102 143 142
4 102 103 144 143
4 103 104 145 144
4 104 105 146 145
4 105 106 147 146
4 106 107 148 147
4 107 108 149 148
4 108 109 150 149
4 109 110 151 150
4 110 111 152 151
4 111 112 153 152
4 112 113 154 153
4 113 114 155 154
4 114 115 156 155
4 115 116 157 156
4 116 117 158 157
4 117 118 159 158
4 118 119 160 159
4 119 120 161 160
4 120 121 162 161
4 121 122 163 162
4 123 124 165 164
4 124 125 166 165
4 125 126 167 166
4 126 127 168 167
4 127 128 169 168
4 128 129 170 169
4 129 130 171 170
4 130 131 172 171
4 131 132 173 172
4 132 133 174 173
4 133 134 175 174
4 134 135 176 175
4 135 136 177 176
4 136 137 178 177
4 137 138 179 178
4 138 139 180 179
4 139 140 181 180
4 140 141 182 181
4 141 142 183 182
4 142 143 184 183
4 143 144 185 184
4 144 145 186 185
4 145 146 187 186
4 146 147 188 187
4 147 148 189 188
4 148 149 190 189
4 149 150 191 190
4 150 151 192 191
4 151 152 193 192
4 152 153 194 193
4 153 154 195 194
4 154 155 196 195
4 155 156 197 196
4 156 157 198 197
4 157 158 199 198
4 158 159 200 199
4 159 160 201 200
4 160 161 202 201
4 161 162 203 202
4 162 163 204 203
4 164 165 206 205
4 165 166 207 206
4 166 167 208 207
4 167 168 209 208
4 168 169 210 209
4 169 170 211 210
4 170 171 212 211
4 171 172 213 212
4 172 173 214 213
4 173 174 215 214
4 174 175 216 215
4 175 176 217 216
4 176 177 218 217
4 177 178 219 218
4 178 179 220 219
4 179 180 221 220
4 180 181 222 221
4 181 182 223 222
4 182 183 224 223
4 183 184 225 224
4 184 185 226 225
4 185 186 227 226
4 186 187 228 227
4 187 188 229 228
4 188 189 230 229
4 189 190 231 230
4 190 191 232 231
4 191 192 233 232
4 192 193 234 233
4 193 194 235 234
4 194 195 236 235
4 195 196 237 236
4 196 197 238 237
4 197 198 239 238
4 198 199 240 239
4 199 200 241 240
4 200 201 242 241
4 201 202 243 242
4 202 203 244 243
4 203 204 245 244
4 205 206 247 246
4 206 207 248 247
4 207 208 249 248
4 208 209 250 249
4 209 210 251 250
4 210 211 252 251
4 211 212 253 252
4 212 213 254 253
4 213 214 255 254
4 214 215 256 255
4 215 216 257 256
4 216 217 258 257
4 217 218 259 258
4 218 219 260 259
4 219 220 261 260
4 220 221 262 261
4 221 222 263 262
4 222 223 264 263
4 223 224 265 264
4 224 225 266 265
4 225 226 267 266
4 226 227 268 267
4 227 228 269 268
4 228 229 270 269
4 229 230 271 270
4 230 231 272 271
4 231 232 273 272
4 232 233 274 273
4 233 234 275 274
4 234 235 276 275
4 235 236 277 276
4 236 237 278 277
4 237 238 279 278
4 238 239 280 279
4 239 240 281 280
4 240 241 282 281
4 241 242 283 282
4 242 243 284 283
4 243 244 285 284
4 244 245 286 285
4 246 247 288 287
4 247 248 289 288
4 248 249 290 289
4 249 250 291 290
4 250 251 292 291
4 251 252 293 292
4 252 253 294 293
4 253 254 295 294
4 254 255 296 295
4 255 256 297 296
4 256 257 298 297
4 257 258 299 298
4 258 259 300 299
4 259 260 301 300
4 260 261 302 301
4 261 262 303 302
4 262 263 304 303
4 263 264 305 304
4 264 265 306 305
4 265 266 307 306
4 266 267 308 307
4 267 268 309 308
4 268 269 310 309
4 269 270 311 310
4 270 271 312 311
4 271 272 313 312
4 272 273 314 313
4 273 274 315 314
4 274 275 316 315
4 275 276 317 316
4 276 277 318 317
4 277 278 319 318
4 278 279 320 319
4 279 280 321 320
4 280 281 322 321
4 281 282 323 322
4 282 283 324 323
4 283 284 325 324
4 284 285 326 325
4 285 286 327 326
4 287 288 329 328
4 288 289 330 329
4 289 290 331 330
4 290 291 332 331
4 291 292 333 332
4 292 293 334 333
4 293 294 335 334
4 294 295 336 335
4 295 296 337 336
4 296 297 338 337
4 297 298 339 338
4 298 299 340 339
4 299 300 341 340
4 300 301 342 341
4 301 302 343 342
4 302 303 344 343
4 303 304 345 344
4 304 305 346 345
4 305 306 347 346
4 306 307 348 347
4 307 308 349 348
4 308 309 350 349
4 309 310 351 350
4 310 311 352 351
4 311 312 353 352
4 312 313 354 353
4 313 314 355 354
4 314 315 356 355
4 315 316 357 356
4 316 317 358 357
4 317 318 359 358
4 318 319 360 359
4 319 320 361 360
4 320 321 362 361
4 321 322 363 362
4 322 323 364 363
4 323 324 365 364
4 324 325 366 365
4 325 326 367 366
4 326 327 368 367
4 328 329 370 369
4 329 330 371 370
4 330 331 372 371
4 331 332 373 372
4 332 333 374 373
4 333 334 375 374
4 334 335 376 375
4 335 336 377 376
4 336 337 378 377
4 337 338 379 378
4 338 339 380 379
4 339 340 381 380
4 340 341 382 381
4 341 342 383 382
4 342 343 384 383
4 343 344 385 384
4 344 345 386 385
4 345 346 387 386
4 346 347 388 387
4 347 348 389 388
4 348 349 390 389
4 349 350 391 390
4 350 351 392 391
4 351 352 393 392
4 352 353 394 393
4 353 354 395 394
4 354 355 396 395
4 355 356 397 396
4 356 357 398 397
4 357 358 399 398
4 358 359 400 399
4 359 360 401 400
4 360 361 402 401
4 361 362 403 402
4 362 363 404 403
4 363 364 405 404
4 364 365 406 405
4 365 366 407 406
4 366 367 408 407
4 367 368 409 408
4 369 370 411 410
4 370 371 412 411
4 371 372 413 412
4 372 373 414 413
4 373 374 415 414
4 374 375 416 415
4 375 376 417 416
4 376 377 418 417
4 377 378 419 418
4 378 379 420 419
4 379 380 421 420
4 380 381 422 421
4 381 382 423 422
4 382 383 424 423
4 383 384 425 424
4 384 385 426 425
4 385 386 427 426
4 386 387 428 427
4 387 388 429 428
4 388 389 430 429
4 389 390 431 430
4 390 391 432 431
4 391 392 433 432
4 392 393 434 433
4 393 394 435 434
4 394 395 436 435
4 395 396 437 436
4 396 397 438 437
4 397 398 439 438
4 398 399 440 439
4 399 400 441 440
4 400 401 442 441
4 401 402 443 442
4 402 403 444 443
4 403 404 445 444
4 404 405 446 445
4 405 406 447 446
4 406 407 448 447
4 407 408 449 448
4 408 409 450 449
4 410 411 452 451
4 411 412 453 452
4 412 413 454 453
4 413 414 455 454
4 414 415 456 455
4 415 416 457 456
4 416 417 458 457
4 417 418 459 458
4 418 419 460 459
4 419 420 461 460
4 420 421 462 461
4 421 422 463 462
4 422 423 464 463
4 423 424 465 464
4 424 425 466 465
4 425 426 467 466
4 426 427 468 467
4 427 428 469 468
4 428 429 470 469
4 429 430 471 470
4 430 431 472 471
4 431 432 473 472
4 432 433 474 473
4 433 434 475 474
4 434 435 476 475
4 435 436 477 476
4 436 437 478 477
4 437 438 479 478
4 438 439 480 479
4 439 440 481 480
4 440 441 482 481
4 441 442 483 482
4 442 443 484 483
4 443 444 485 484
4 444 445 486 485
4 445 446 487 486
4 446 447 488 487
4 447 448 489 488
4 448 449 490 489
4 449 450 491 490
4 451 452 493 492
4 452 453 494 493
4 453 454 495 494
4 454 455 496 495
4 455 456 497 496
4 456 457 498 497
4 457 458 499 498
4 458 459 500 499
4 459 460 501 500
4 460 461 502 501
4 461 462 503 502
4 462 463 504 503
4 463 464 505 504
4 464 465 506 505
4 465 466 507 506
4 466 467 508 507
4 467 468 509 508
4 468 469 510 509
4 469 470 511 510
4 470 471 512 511
4 471 472 513 512
4 472 473 514 513
4 473 474 515 514
4 474 475 516 515
4 475 476 517 516
4 476 477 518 517
4 477 478 519 518
4 478 479 520 519
4 479 480 521 520
4 480 481 522 521
4 481 482 523 522
4 482 483 524 523
4 483 484 525 524
4 484 485 526 525
4 485 486 527 526
4 486 487 528 527
4 487 488 529 528
4 488 489 530 529
4 489 490 531 530
4 490 491 532 531
4 492 493 534 533
4 493 494 535 534
4 494 495 536 535
4 495 496 537 536
4 496 497 538 537
4 497 498 539 538
4 498 499 540 539
4 499 500 541 540
4 500 501 542 541
4 501 502 543 542
4 502 503 544 543
4 503 504 545 544
4 504 505 546 545
4 505 506 547 546
4 506 507 548 547
4 507 508 549 548
4 508 509 550 549
4 509 510 551 550
4 510 511 552 551
4 511 512 553 552
4 512 513 554 553
4 513 514 555 554
4 514 515 556 555
4 515 516 557 556
4 516 517 558 557
4 517 518 559 558
4 518 519 560 559
4 519 520 561 560
4 520 521 562 561
4 521 522 563 562
4 522 523 564 563
4 523 524 565 564
4 524 525 566 565
4 525 526 567 566
4 526 527 568 567
4 527 528 569 568
4 528 529 570 569
4 529 530 571 570
4 530 531 572 571
4 531 532 573 572
4 533 534 575 574
4 534 535 576 575
4 535 536 577 576
4 536 537 578 577
4 537 538 579 578
4 538 539 580 579
4 539 540 581 580
4 540 541 582 581
4 541 542 583 582
4 542 543 584 583
4 543 544 585 584
4 544 545 586 585
4 545 546 587 586
4 546 547 588 587
4 547 548 589 588
4 548 549 590 589
4 549 550 591 590
4 550 551 592 591
4 551 552 593 592
4 552 553 594 593
4 553 554 595 594
4 554 555 596 595
4 555 556 597 596
4 556 557 598 597
4 557 558 599 598
4 558 559 600 599
4 559 560 601 600
4 560 561 602 601
4 561 562 603 602
4 562 563 604 603
4 563 564 605 604
4 564 565 606 605
4 565 566 607 606
4 566 567 608 607
4 567 568 609 608
4 568 569 610 609
4 569 570 611 610
4 570 571 612 611
4 571 572 613 612
4 572 573 614 613
4 574 575 616 615
4 575 576 617 616
4 576 577 618 617
4 577 578 619 618
4 578 579 620 619
4 579 580 621 620
4 580 581 622 621
4 581 582 623 622
4 582 583 624 623
4 583 584 625 624
4 584 585 626 625
4 585 586 627 626
4 586 587 628 627
4 587 588 629 628
4 588 589 630 629
4 589 590 631 630
4 590 591 632 631
4 591 592 633 632
4 592 593 634 633
4 593 594 635 634
4 594 595 636 635
4 595 596 637 636
4 596 597 638 637
4 597 598 639 638
4 598 599 640 639
4 599 600 641 640
4 600 601 642 641
4 601 602 643 642
4 602 603 644 643
4 603 604 645 644
4 604 605 646 645
4 605 606 647 646
4 606 607 648 647
4 607 608 649 648
4 608 609 650 649
4 609 610 651 650
4 610 611 652 651
4 611 612 653 652
4 612 613 654 653
4 613 614 655 654
4 615 616 657 656
4 616 617 658 657
4 617 618 659 658
4 618 619 660 659
4 619 620 661 660
4 620 621 662 661
4 621 622 663 662
4 622 623 664 663
4 623 624 665 664
4 624 625 666 665
4 625 626 667 666
4 626 627 668 667
4 627 628 669 668
4 628 629 670 669
4 629 630 671 670
4 630 631 672 671
4 631 632 673 672
4 632 633 674 673
4 633 634 675 674
4 634 635 676 675
4 635 636 677 676
4 636 637 678 677
4 637 638 679 678
4 638 639 680 679
4 639 640 681 680
4 640 641 682 681
4 641 642 683 682
4 642 643 684 683
4 643 644 685 684
4 644 645 686 685
4 645 646 687 686
4 646 647 688 687
4 647 648 689 688
4 648 649 690 689
4 649 650 691 690
4 650 651 692 691
4 651 652 693 692
4 652 653 694 693
4 653 654 695 694
4 654 655 696 695
4 656 657 698 697
4 657 658 699 698
4 658 659 700 699
4 659 660 701 700
4 660 661 702 701
4 661 662 703 702
4 662 663 704 703
4 663 664 705 704
4 664 665 706 705
4 665 666 707 706
4 666 667 708 707
4 667 668 709 708
4 668 669 710 709
4 669 670 711 710
4 670 671 712 711
4 671 672 713 712
4 672 673 714 713
4 673 674 715 714
4 674 675 716 715
4 675 676 717 716
4 676 677 718 717
4 677 678 719 718
4 678 679 720 719
4 679 680 721 720
4 680 681 722 721
4 681 682 723 722
4 682 683 724 723
4 683 684 725 724
4 684 685 726 725
4 685 686 727 726
4 686 687 728 727
4 687 688 729 728
4 688 689 730 729
4 689 690 731 730
4 690 691 732 731
4 691 692 733 732
4 692 693 734 733
4 693 694 735 734
4 694 695 736 735
4 695 696 737 736
4 697 698 739 738
4 698 699 740 739
4 699 700 741 740
4 700 701 742 741
4 701 702 743 742
4 702 703 744 743
4 703 704 745 744
4 704 705 746 745
4 705 706 747 746
4 706 707 748 747
4 707 708 749 748
4 708 709 750 749
4 709 710 751 750
4 710 711 752 751
4 711 712 753 752
4 712 713 754 753
4 713 714 755 754
4 714 715 756 755
4 715 716 757 756
4 716 717 758 757
4 717 718 759 758
4 718 719 760 759
4 719 720 761 760
4 720 721 762 761
4 721 722 763 762
4 722 723 764 763
4 723 724 765 764
4 724 725 766 765
4 725 726 767 766
4 726 727 768 767
4 727 728 769 768
4 728 729 770 769
4 729 730 771 770
4 730 731 772 771
4 731 732 773 772
4 732 733 774 773
4 733 734 775 774
4 734 735 776 775
4 735 736 777 776
4 736 737 778 777
4 738 739 780 779
4 739 740 781 780
4 740 741 782 781
4 741 742 783 782
4 742 743 784 783
4 743 744 785 784
4 744 745 786 785
4 745 746 787 786
4 746 747 788 787
4 747 748 789 788
4 748 749 790 789
4 749 750 791 790
4 750 751 792 791
4 751 752 793 792
4 752 753 794 793
4 753 754 795 794
4 754 755 796 795
4 755 756 797 796
4 756 757 798 797
4 757 758 799 798
4 758 759 800 799
4 759 760 801 800
4 760 761 802 801
4 761 762 803 802
4 762 763 804 803
4 763 764 805 804
4 764 765 806 805
4 765 766 807 806
4 766 767 808 807
4 767 768 809 808
4 768 769 810 809
4 769 770 811 810
4 770 771 812 811
4 771 772 813 812
4 772 773 814 813
4 773 774 815 814
4 774 775 816 815
4 775 776 817 816
4 776 777 818 817
4 777 778 819 818
4 779 780 821 820
4 780 781 822 821
4 781 782 823 822
4 782 783 824 823
4 783 784 825 824
4 784 785 826 825
4 785 786 827 826
4 786 787 828 827
4 787 788 829 828
4 788 789 830 829
4 789 790 831 830
4 790 791 832 831
4 791 792 833 832
4 792 793 834 833
4 793 794 835 834
4 794 795 836 835
4 795 796 837 836
4 796 797 838 837
4 797 798 839 838
4 798 799 840 839
4 799 800 841 840
4 800 801 842 841
4 801 802 843 842
4 802 803 844 843
4 803 804 845 844
4 804 805 846 845
4 805 806 847 846
4 806 807 848 847
4 807 808 849 848
4 808 809 850 849
4 809 810 851 850
4 810 811 852 851
4 811 812 853 852
4 812 813 854 853
4 813 814 855 854
4 814 815 856 855
4 815 816 857 856
4 816 817 858 857
4 817 818 859 858
4 818 819 860 859
CELL_TYPES 800
9
9
9
9
9
9
9
9
9
9
9
9
9
9
9
9
9
9
9
9
9
9
9
9
9
9
9
9
9
9
9
9
9
9
9
9
9
9
9
9
9
9
9
9
9
9
9
9
9
9
9
9
9
9
9
9
9
9
9
9
9
9
9
9
9
9
9
9
9
9
9
9
9
9
9
9
9
9
9
9
9
9
9
9
9
9
9
9
9
9
9
9
9
9
9
9
9
9
9
9
9
9
9
9
9
9
9
9
9
9
9
9
9
9
9
9
9
9
9
9
9
9
9
9
9
9
9
9
9
9
9
9
9
9
9
9
9
9
9
9
9
9
9
9
9
9
9
9
9
9
9
9
9
9
9
9
9
9
9
9
9
9
9
9
9
9
9
9
9
9
9
9
9
9
9
9
9
9
9
9
9
9
9
9
9
9
9
9
9
9
9
9
9
9
9
9
9
9
9
9
9
9
9
9
9
9
9
9
9
9
9
9
9
9
9
9
9
9
9
9
9
9
9
9
9
9
9
9
9
9
9
9
9
9
9
9
9
9
9
9
9
9
9
9
9
9
9
9
9
9
9
9
9
9
9
9
9
9
9
9
9
9
9
9
9
9
9
9
9
9
9
9
9
9
9
9
9
9
9
9
9
9
9
9
9
9
9
9
9
9
9
9
9
9
9
9
9
9
9
9
9
9
9
9
9
9
9
9
9
9
9
9
9
9
9
9
9
9
9
9
9
9
9
9
9
9
9
9
9
9
9
9
9
9
9
9
9
9
9
9
9
9
9
9
9
9
9
9
9
9
9
9
9
9
9
9
9
9
9
9
9
9
9
9
9
9
9
9
9
9
9
9
9
9
9
9
9
9
9
9
9
9
9
9
9
9
9
9
9
9
9
9
9
9
9
9
9
9
9
9
9
9
9
9
9
9
9
9
9
9
9
9
9
9
9
9
9
9
9
9
9
9
9
9
9
9
9
9
9
9
9
9
9
9
9
9
9
9
9
9
9
9
9
9
9
9
9
9
9
9
9
9
9
9
9
9
9
9
9
9
9
9
9
9
9
9
9
9
9
9
9
9
9
9
9
9
9
9
9
9
9
9
9
9
9
9
9
9
9
9
9
9
9
9
9
9
9
9
9
9
9
9
9
9
9
9
9
9
9
9
9
9
9
9
9
9
9
9
9
9
9
9
9
9
9
9
9
9
9
9
9
9
9
9
9
9
9
9
9
9
9
9
9
9
9
9
9
9
9
9
9
9
9
9
9
9
9
9
9
9
9
9
9
9
9
9
9
9
9
9
9
9
9
9
9
9
9
9
9
9
9
9
9
9
9
9
9
9
9
9
9
9
9
9
9
9
9
9
9
9
9
9
9
9
9
9
9
9
9
9
9
9
9
9
9
9
9
9
9
9
9
9
9
9
9
9
9
9
9
9
9
9
9
9
9
9
9
9
9
9
9
9
9
9
9
9
9
9
9
9
9
9
9
9
9
9
9
9
9
9
9
9
9
9
9
9
9
9
9
9
9
9
9
9
9
9
9
9
9
9
9
9
9
9
9
9
9
9
9
9
9
9
9
9
9
9
9
9
9
9
9
9
9
9
9
9
9
9
9
9
9
9
9
9
9
9
9
9
9
9
9
9
9
9
9
9
9
9
9
9
9
9
9
9
9
9
9
9
9
9
9
9
9
9
9
9
9
9
9
9
9
9
9
9
9
9
9
9
9
9
9
9
9
9
9
9
9
9
9
9
9
9
9
9
9
9
9
9
9
9
9
9
9
9
9
9
9
9
9
9
9
9
9
9
9
9
9
9
9
9
POINT_DATA 861
SCALARS Disp float 2
LOOKUP_TABLE default
0.0 0.0
0.0059862514721553475 -0.26876691768045047
0.007360105265007654 -0.5280709873363343
0.008154890321116937 -0.7862766963971447
0.009195479242502587 -1.0441011289764728
0.010914133502725956 -1.3011052837718238
0.013979146503458542 -1.5567017894840733
0.01921340947304471 -1.8101497023658881
0.027587496546587757 -2.0605204578190364
0.04015937064910991 -2.3065999506368753
0.057981912165917526 -2.5467470889545782
0.08203982802603119 -2.7788138605853363
0.11322036154723165 -3.000180950301424
0.152303915322279 -3.2078814496906474
0.19995890556669216 -3.398688634773472
0.2566730220413231 -3.569187569239404
0.3226312570714962 -3.7158687386213383
0.3975715816952322 -3.8352777032052225
0.480663944911957 -3.924252581355742
0.5704635949653772 -3.9801736772920755
0.6646812035663194 -4.001270793209227
0.7588988121672564 -3.98017367729195
0.8486984622206576 -3.924252581355486
0.9317908254373488 -3.8352777032048526
1.0067311500610432 -3.7158687386208746
1.0726893850911707 -3.569187569238875
1.1294035015657562 -3.3986886347728924
1.1770584918101237 -3.207881449690033
1.2161420455851257 -3.0001809503007952
1.2473225791062825 -2.7788138605847124
1.2713804949663579 -2.5467470889539765
1.2892030364831333 -2.3065999506363086
1.3017749105856304 -2.0605204578185137
1.3101489976591554 -1.8101497023654156
1.3153832606287286 -1.5567017894836577
1.3184482736294534 -1.3011052837714714
1.3201669278896733 -1.0441011289761843
1.321207516811058 -0.7862766963969245
1.322002301867167 -0.5280709873361804
1.3233761556600179 -0.2687669176803657
1.32936240713217 0.0
0.06703914856497595 -0.0024792290578375116
0.07124462794426874 -0.2690493811275046
0.07195732856410972 -0.5281337005970302
0.07266044566856324 -0.7863678142602125
0.07357011881074446 -1.0442541416512563
0.07502726820694397 -1.3014508045151985
0.07765998349789269 -1.557425005222344
0.08224512424959206 -1.811472276159279
0.0896938147127798 -2.062690257381087
0.1009717362412616 -2.3098695180699003
0.11701825811535943 -2.5513562864238244
0.1386969058133834 -2.7849816495344863
0.16679095114347756 -3.008104404986123
0.20200945181568206 -3.2177348107906085
0.24496236515603662 -3.41061534268063
0.296104587264274 -3.583277249816485
0.3556275986794327 -3.732124114229045
0.4233312820869489 -3.8535813473368647
0.4985051313354371 -3.944340178292239
0.5797709930038148 -4.0016070134202195
0.6646812035663041 -4.02326194512571
0.7495914141287878 -4.001607013420091
0.8308572757971477 -3.944340178291977
0.9060311250456066 -3.853581347336486
0.9737348084530866 -3.7321241142285717
1.033257819868205 -3.583277249815945
1.0844000419764013 -3.4106153426800394
1.1273529553167143 -3.2177348107899837
1.1625714559888782 -3.0081044049854837
1.1906655013189331 -2.784981649533853
1.2123441490169227 -2.5513562864232138
1.2283906708909913 -2.3098695180693274
1.2396685924194504 -2.062690257380559
1.2471172828826214 -1.8114722761588034
1.2517024236343093 -1.5574250052219258
1.2543351389252513 -1.3014508045148452
1.2557922883214478 -1.0442541416509676
1.2567019614636283 -0.7863678142599922
1.2574050785680817 -0.5281337005968763
1.2581177791879228 -0.2690493811274195
1.26232325856721 -0.0024792290578350105
0.1330736440582247 -0.004452555480267888
0.13616728571128936 -0.26919023845303297
0.1365742857072213 -0.5281657966660271
0.1371473481912837 -0.7864479185468932
0.1379365915610308 -1.0443754127338931
0.13915868157623923 -1.3017241630584069
0.1413700859050334 -1.5580245367249599
0.1453090985067139 -1.8126079624161062
0.1518160751380761 -2.064592087874778
0.16176730802775968 -2.3127652552840106
0.17599412331930953 -2.555457253438621
0.1952490429616653 -2.79047882045999
0.2202134299518927 -3.015172186486148
0.25151316460237605 -3.226531396746394
0.2897041992414452 -3.421272464937257
0.33521049197283875 -3.5958811538129885
0.38824113072823246 -3.7466873745773164
0.4486741282614464 -3.870010481291207
0.5159058238898004 -3.9623999216994465
0.5886233628159995 -4.0208508394019296
0.6646812035662889 -4.043006653382661
0.7407390443165733 -4.020850839401798
0.813456583242756 -3.9623999216991788
0.8806882788710843 -3.8700104812908203
0.941121276404267 -3.746687374576834
0.994151915159625 -3.595881153812439
1.0396582078909817 -3.4212724649366564
1.0778492425300137 -3.2265313967457594
1.1091489771804608 -3.0151721864854992
1.134113364170654 -2.790478820459348
1.1533682838129788 -2.555457253438003
1.1675950991045028 -2.3127652552834315
1.1775463319941661 -2.0645920878742454
1.184053308625513 -1.8126079624156275
1.1879923212271835 -1.55802453672454
1.190203725555972 -1.3017241630580527
1.191425815571178 -1.0443754127336045
1.1922150589409248 -0.7864479185466728
1.1927881214249871 -0.5281657966658732
1.1931951214209193 -0.2691902384529475
1.1962887630739782 -0.00445255548026263
0.1985768277740797 -0.00604073968476708
0.20092124307800752 -0.2692863678833575
0.20116896732274198 -0.528183360025565
0.20161699793586005 -0.786512317656234
0.20229003017904054 -1.044473393799733
0.20330515739750613 -1.3019337768359287
0.20511976065574725 -1.558504644275556
0.2084206544046785 -1.8135577562552618
0.21398040258174736 -2.066222291726271
0.22258597013596307 -2.315280416834768
0.2349655781600412 -2.5590416674121568
0.2517650883211229 -2.795297340178524
0.2735681932734027 -3.0213759432923357
0.3009164497188761 -3.234260395684203
0.33430107025594363 -3.430647458167652
0.37412221827313824 -3.6069864754415857
0.4206107467667246 -3.7595475226595676
0.4737211474354139 -3.884557188275258
0.5329653227240044 -3.9784237887032012
0.5972232529522089 -4.037954552555902
0.6646812035662744 -4.0606161772419735
0.7321391541803351 -4.037954552555768
0.7963970844085246 -3.9784237887029286
0.8556412596970926 -3.8845571882748646
0.9087516603657546 -3.7595475226590773
0.9552401888593098 -3.606986475441028
0.9950613368764722 -3.430647458167043
1.028445957413507 -3.23426039568356
1.0557942138589487 -3.0213759432916794
1.0775973188111987 -2.795297340177874
1.0943968289722534 -2.5590416674115324
1.1067764369963087 -2.315280416834184
1.1153820045505065 -2.0662222917257345
1.120941752727562 -1.8135577562547807
1.1242426464764845 -1.5585046442751345
1.1260572497347212 -1.3019337768355739
1.1270723769531852 -1.0444733937994444
1.1277454091963655 -0.7865123176560136
1.1281934398094835 -0.5281833600254112
1.1284411640542178 -0.2692863678832717
1.130785579358141 -0.006040739684759229
0.26377744909053824 -0.007325801905656466
0.2655603581146727 -0.26936088284007736
0.26572178041509537 -0.528193424489457
0.26606477377461357 -0.7865621603550007
0.2666265980778992 -1.044552589666215
0.2674590421359982 -1.3020918857245893
0.26891607875588225 -1.558873691869009
0.27159409619326025 -1.8143246663237715
0.27621317514961424 -2.0675808792255412
0.2834675997389126 -2.3174120397304647
0.29398700876337147 -2.5621053553286206
0.30831516524401326 -2.7994322608986066
0.32693761960463846 -3.0267105377665207
0.3503130515931474 -3.2409161753991707
0.3788717684927865 -3.4387326415412605
0.41297690678694804 -3.616583602371467
0.45287673419301233 -3.770692963243473
0.49860454597931864 -3.897208044135958
0.549825446718404 -3.9924133471703076
0.6056734703687205 -4.052955419468725
0.66468120356626 -4.076151148615551
0.7236889367637952 -4.052955419468589
0.7795369604140981 -3.992413347170031
0.8307578611531639 -3.8972080441355588
0.8764856729394469 -3.7706929632429755
0.9163855003454844 -3.616583602370902
0.9504906386396178 -3.438732641540644
0.9790493555392289 -3.24091617539852
1.0024247875277106 -3.0267105377658567
1.0210472418883103 -2.7994322608979503
1.0353753983689293 -2.5621053553279904
1.0458948073933685 -2.3174120397298754
1.0531492319826512 -2.0675808792250012
1.057768310938994 -1.814324666323288
1.0604463283763648 -1.558873691868586
1.0619033649962453 -1.3020918857242343
1.0627358090543433 -1.044552589665926
1.0632976333576287 -0.7865621603547804
1.0636406267171468 -0.5281934244893033
1.0638020490175695 -0.26936088283999127
1.0655849580416996 -0.0073258019056463885
0.3287784921205176 -0.008359503993767536
0.33011946266571446 -0.2694216933910482
0.3302308757333172 -0.528200705440616
0.33048749203420025 -0.7865991266207311
0.3309416728802481 -1.0446165154521898
0.3316142349123862 -1.3022096288176765
0.33275205175814976 -1.559145422444759
0.33485017718092813 -1.8149150032293289
0.3385408346005485 -2.068670927546734
0.3444520719397944 -2.3191611323567893
0.3531126959565864 -2.5646478017107333
0.3649672250594995 -2.802882662813817
0.380406359915955 -3.0311745728050803
0.3998046543965084 -3.246496854193123
0.42352780317272304 -3.4455259228494004
0.4519075184272464 -3.6246674716104264
0.48519010019257014 -3.78011266057433
0.5234777802408876 -3.907949706794349
0.5666219282048727 -4.004365856405351
0.6140570263635999 -4.065872384438847
0.6646812035662456 -4.089647553055192
0.7153053807688873 -4.065872384438708
0.7627404789276028 -4.00436585640507
0.8058846268915714 -3.907949706793945
0.8441723069398691 -3.780112660573827
0.8774548887051699 -3.6246674716098544
0.9058346039596695 -3.4455259228487773
0.9295577527358608 -3.2464968541924666
0.9489560472163918 -3.03117457280441
0.9643951820728263 -2.8028826628131553
0.9762497111757201 -2.5646478017100987
0.9849103351924959 -2.3191611323561965
0.9908215725317289 -2.068670927546191
0.9945122299513399 -1.8149150032288432
0.9966103553741126 -1.559145422444335
0.9977481722198737 -1.3022096288173213
0.9984207342520109 -1.044616515451901
0.9988749150980587 -0.7865991266205107
0.9991315313989416 -0.5282007054404624
0.9992429444665444 -0.2694216933909618
1.0005839150117377 -0.00835950399375559
0.3936337481686487 -0.009181416001484515
0.39462237537751393 -0.26947190504153434
0.3947015844286517 -0.5282075781629275
0.3948849417116084 -0.7866246993682302
0.3952335846082645 -1.044667198260938
0.3957628835933657 -1.3022965389990815
0.39661874198853914 -1.559336390590422
0.3981876006305442 -1.815343686007869
0.4009935071915293 -2.0694992639536616
0.4055800551029636 -2.3205323916709375
0.412397723640971 -2.566672655788215
0.4217913786736814 -2.805651588915816
0.434058773320997 -3.034771033734485
0.44949165588576273 -3.251005205689881
0.4683909273994908 -3.4510289880265392
0.4910468388929026 -3.6312379334834026
0.5177009531498725 -3.7878004304166932
0.5485086969246583 -3.916768780115473
0.5835018977688538 -4.01426924562039
0.6224564619112566 -4.076705986156182
0.6646812035662308 -4.101121086640575
0.7069059452212016 -4.076705986156041
0.745860509363595 -4.014269245620106
0.7808537102077766 -3.9167687801150644
0.8116614539825462 -3.7878004304161856
0.8383155682394974 -3.6312379334828253
0.8609714797328898 -3.4510289880259117
0.8798707512465993 -3.2510052056892196
0.8953036338113476 -3.034771033733811
0.9075710284586466 -2.8056515889151497
0.9169646834913413 -2.566672655787576
0.9237823520293358 -2.3205323916703415
0.92836889994076 -2.069499263953116
0.931174806501738 -1.8153436860073822
0.932743665143739 -1.5593363905899977
0.9335995235389106 -1.302296538998726
0.9341288225240113 -1.044667198260649
0.9344774654206672 -0.7866246993680099
0.9346608227036239 -0.5282075781627737
0.9347400317547616 -0.2694719050414477
0.9357286589636241 -0.009181416001470991
0.4583790101142341 -0.009823415846942194
0.45908686438197244 -0.2695138762230418
0.45914160125087616 -0.528214541286359
0.4592590607060305 -0.786640158452718
0.45950366825479694 -1.0447048355434567
0.45989685147576376 -1.302360077356879
0.4605104591688608 -1.5594627368659657
0.46160257129857946 -1.8156310237494508
0.46358567248681304 -2.070081600721428
0.4668956957745502 -2.3215352671016327
0.47189941798400553 -2.568187679589831
0.47885791074889505 -2.807746458656732
0.4879817790005301 -3.037507709321286
0.49947850106392205 -3.2544489252778988
0.513579075263989 -3.455248766315218
0.5305324568362096 -3.6362996832407606
0.5505686644114883 -3.7937559132789818
0.5738711215676984 -3.9236540778145548
0.6006255894557252 -4.022101612372557
0.6309649468058376 -4.085436599734527
0.6646812035662157 -4.110566920089816
0.6983974603265913 -4.0854365997343844
0.7287368176766966 -4.02210161237227
0.755491285564712 -3.9236540778141427
0.7787937427209097 -3.79375591327847
0.7988299502961738 -3.6362996832401793
0.8157833318683795 -3.455248766314586
0.8298839060684331 -3.254448925277234
0.8413806281318125 -3.037507709320608
0.8505044963834352 -2.8077464586560623
0.8574629891483126 -2.5681876795891894
0.8624667113577588 -2.321535267101034
0.8657767346454889 -2.0700816007208807
0.8677598358337174 -1.8156310237489626
0.8688519479634331 -1.5594627368655407
0.869465555656529 -1.3023600773565236
0.8698587388774954 -1.0447048355431676
0.8701033464262619 -0.7866401584524976
0.8702208058814161 -0.5282145412862053
0.8702755427503198 -0.2695138762229551
0.8709833970180562 -0.009823415846927372
0.5230363419258718 -0.010315362991924903
0.5235293564452252 -0.26954972761482276
0.5235580309005831 -0.528220765475576
0.5236131590010188 -0.786646518109995
0.5237561205873773 -1.0447287769955762
0.5240117188730091 -1.3024043437918187
0.5244116845038451 -1.5595414288671887
0.5250897316140488 -1.8158015437625272
0.5263229168077627 -2.0704426944281873
0.528429922100309 -2.322188666096524
0.5316763087927485 -2.569206694575063
0.5362440697656303 -2.809180175553356
0.5422654450187041 -3.0393979572295153
0.5498709170869345 -3.256841788884174
0.5592179271053979 -3.458197732081708
0.5705024197913706 -3.639863098746005
0.5839452380447533 -3.7979870179174573
0.5997568102193285 -3.9286004650866504
0.6181888711630833 -4.0278330676036145
0.639699849721381 -4.092021647707437
0.6646812035662002 -4.117957140174325
0.6896625574110177 -4.092021647707293
0.7111735359693108 -4.027833067603325
0.7296055969130572 -3.928600465086236
0.7454171690876236 -3.797987017916943
0.7588599873409962 -3.6398630987454217
0.770144480026959 -3.4581977320810733
0.7794914900454142 -3.2568417888835066
0.7870969621136364 -3.039397957228835
0.7931183373667025 -2.8091801755526844
0.7976860983395768 -2.5692066945744196
0.8009324850320102 -2.3221886660959234
0.8030394903245519 -2.070442694427639
0.8042726755182626 -1.8158015437620383
0.8049507226284649 -1.5595414288667635
0.8053506882593002 -1.302404343791463
0.8056062865449319 -1.0447287769952875
0.8057492481312903 -0.7866465181097747
0.8058043762317261 -0.528220765475422
0.8058330506870837 -0.269549727614736
0.8063260652064359 -0.010315362991909096
0.5876215539144632 -0.010687104259730842
0.5879598520639823 -0.26958212398546894
0.5879574753005139 -0.5282244369429797
0.587951376321745 -0.7866445330216124
0.587995498658207 -1.0447387427752102
0.5881097802083504 -1.3024295307047442
0.5883065009910357 -1.559585514521257
0.5886313249014683 -1.8158849505392527
0.5892025619455955 -2.0706185719144576
0.5902021058139633 -2.3225252153752036
0.5917754910913019 -2.569756342700392
0.5940221796922467 -2.8099756353937484
0.5969988284603488 -3.0404636122560125
0.6007689769559449 -3.2582064255841536
0.6054205779397005 -3.459897810189535
0.6110846316407322 -3.641946119075974
0.6179576802581332 -3.800509006599477
0.6262994574780771 -3.9316198709209336
0.6364118537601612 -4.031439264436224
0.6488411137435857 -4.09639134616751
0.6646812035661841 -4.1232309913987635
0.6805212933887818 -4.0963913461673656
0.6929505533722043 -4.031439264435934
0.7030629496542832 -3.931619870920518
0.7114047268742215 -3.8005090065989613
0.7182777754916178 -3.6419461190753877
0.723941829192645 -3.4598978101888984
0.7285934301763973 -3.258206425583485
0.7323635786719903 -3.040463612255331
0.7353402274400892 -2.8099756353930747
0.7375869160410305 -2.5697563426997476
0.7391603013183665 -2.3225252153746023
0.7401598451867327 -2.0706185719139087
0.7407310822308584 -1.8158849505387635
0.7410559061412907 -1.5595855145208317
0.7412526269239756 -1.302429530704388
0.7413669084741189 -1.0447387427749213
0.7414110308105809 -0.786644533021392
0.7414049318318119 -0.5282244369428256
0.7414025550683435 -0.2695821239853822
0.7417408532178617 -0.010687104259714362
0.6521520629058037 -0.010964581076027966
0.652381233047643 -0.2696141179711321
0.6523450108892096 -0.5282236275468707
0.6522782625449306 -0.7866346741785734
0.6522260742892265 -1.0447348323319199
0.6521992796249158 -1.3024347971628016
0.6521889109744262 -1.5595993585620997
0.6521852040420758 -1.8159098127236737
0.6521838165598872 -2.0706644197221507
0.6521837128834316 -2.3226100314697176
0.6521838323056995 -2.5698969894565478
0.65218237851746 -2.810186678093641
0.6521733060153668 -3.0407559615283573
0.652154037574142 -3.2585922551372932
0.6521407321997985 -3.460396414829116
0.6522024823705411 -3.642590960907404
0.6525073242983579 -3.8013566981542244
0.6533711566929263 -3.9327514734362485
0.6552322479534058 -4.032950777867509
0.6585790213629173 -4.098478454222176
0.6646812035661673 -4.126285388452427
0.670783385769418 -4.098478454222032
0.674130159178929 -4.032950777867218
0.675991250439407 -3.932751473435831
0.6768550828339748 -3.8013566981537092
0.6771599247617924 -3.6425909609068183
0.6772216749325359 -3.46039641482848
0.6772083695581936 -3.2585922551366244
0.6771891011169706 -3.040755961527675
0.6771800286148792 -2.8101866780929674
0.677178574826641 -2.569896989455903
0.6771786942489098 -2.322610031469116
0.6771785905724548 -2.070664419721602
0.6771772030902664 -1.8159098127231843
0.6771734961579163 -1.5595993585616748
0.6771631275074267 -1.3024347971624455
0.677136332843116 -1.044734832331631
0.6770841445874121 -0.7866346741783529
0.6770173962431331 -0.5282236275467166
0.6769811740846995 -0.26961411797104545
0.6772103442265384 -0.010964581076011
0.7166390551882654 -0.011173225117217906
0.7167926259301938 -0.2696463426898779
0.7167250113782241 -0.5282176365176049
0.7165989638277103 -0.7866171080811475
0.7164531688429372 -1.0447174394020788
0.7162874814913569 -1.3024199031302865
0.7160705548059018 -1.5595829756882411
0.715738086469416 -1.8158841877537588
0.7151645709136639 -2.0706183815644534
0.7141652411267454 -2.322525223906019
0.7125923938691072 -2.569756230129413
0.7103413134342299 -2.809973230937223
0.7073457661261454 -3.040456786832431
0.7035382614332826 -3.258196992724695
0.6988645534042377 -3.4599029416368943
0.6933300623159796 -3.642016915009629
0.6870592540680254 -3.800752491336688
0.6803592529086228 -3.932211360915509
0.6737108996352074 -4.032574176713888
0.6678074774043005 -4.098398108558069
0.6646812035661506 -4.127215701555506
0.6615549297279998 -4.098398108557925
0.6556515074970936 -4.032574176713599
0.6490031542236817 -3.932211360915092
0.642303153064285 -3.800752491336173
0.6360323448163373 -3.642016915009044
0.6304978537280853 -3.459902941636258
0.6258241456990464 -3.258196992724027
0.62201664100619 -3.04045678683175
0.6190210936981124 -2.8099732309365497
0.6167700132632409 -2.569756230128769
0.6151971660056075 -2.3225252239054175
0.614197836218692 -2.0706183815639045
0.6136243206629417 -1.8158841877532699
0.6132918523264569 -1.559582975687816
0.6130749256410022 -1.3024199031299308
0.6129092382894221 -1.0447174394017897
0.6127634433046492 -0.7866171080809269
0.6126373957541352 -0.5282176365174508
0.6125697812021657 -0.2696463426897913
0.6127233519440939 -0.011173225117200683
0.7810941403985794 -0.011332301470716892
0.7811968816780378 -0.2696770781784455
0.7811012741983301 -0.5282068375103283
0.7809188478373893 -0.7865919914788052
0.7806828177728898 -1.044687170825922
0.7803819454426576 -1.3023853040771456
0.7799622820062859 -1.5595361700688923
0.7792772634443791 -1.8157998289211905
0.778043300388364 -2.0704424049609833
0.7759376273048482 -2.3221888492161793
0.7726911156523134 -2.569206070633766
0.7681181155792456 -2.80917499095414
0.7620800895266208 -3.039384185253971
0.7544439454100849 -3.256823494569515
0.7450838346879423 -3.4582098874631386
0.7339316972538189 -3.640008234134318
0.7210625664253347 -3.798473384698398
0.7067617219739448 -3.9297591412364636
0.6915916369488821 -4.03010387900912
0.6767457224942883 -4.096266097653626
0.6646812035661342 -4.12619764939989
0.65261668463798 -4.096266097653481
0.6377707701833885 -4.030103879008831
0.6226006851583329 -3.9297591412360484
0.6082998407069535 -3.798473384697886
0.595430709878481 -3.6400082341337354
0.5842785724443692 -3.4582098874625045
0.5749184617222374 -3.256823494568849
0.5672823176057125 -3.0393841852532923
0.5612442915530992 -2.809174990953469
0.5566712914800411 -2.569206070633123
0.5534247798275151 -2.32218884921558
0.5513191067440052 -2.0704424049604353
0.5500851436879939 -1.8157998289207018
0.5494001251260889 -1.5595361700684673
0.5489804616897179 -1.3023853040767899
0.5486795893594861 -1.044687170825633
0.5484435592949869 -0.7865919914785847
0.5482611329340462 -0.5282068375101742
0.5481655254543386 -0.26967707817835895
0.5482682667337967 -0.011332301470699453
0.8455349285007425 -0.011451000858887785
0.8455989200588494 -0.2697046809644441
0.8454785826216396 -0.5281917338073837
0.8452433004294223 -0.7865596965419318
0.8449208907912168 -1.0446448421061165
0.8444902162900576 -1.3023319608491106
0.8438585046906665 -1.559454184166412
0.842761757379033 -1.81562863648195
0.8407806737800063 -2.070081668757618
0.8374720844206961 -2.321535566323239
0.8324670338105363 -2.568186255158496
0.8255034439242619 -2.807738827732995
0.81636945360733 -3.0374888971430325
0.8048583263702985 -3.254425056511431
0.7907623371422998 -3.4552698842631613
0.7739286571599636 -3.636512429060668
0.754359588250724 -3.7944559422786477
0.7323375983498432 -3.9253257609968455
0.7086453228517148 -4.025494393846513
0.6849373311059428 -4.091965802105005
0.6646812035661185 -4.123289200436954
0.6444250760262948 -4.09196580210486
0.6207170842805274 -4.025494393846225
0.5970248087824089 -3.925325760996433
0.5750028188815426 -3.7944559422781388
0.5554337499723193 -3.636512429060089
0.5386000699899994 -3.4552698842625302
0.5245040807620165 -3.254425056510768
0.5129929535250011 -3.0374888971423566
0.5038589632080844 -2.807738827732327
0.4968953733218244 -2.5681862551578556
0.49189032271167704 -2.321535566322641
0.4885817333523756 -2.0700816687570707
0.4866006497533546 -1.8156286364814618
0.4855039024417242 -1.559454184165987
0.4848721908423346 -1.302331960848755
0.4844415163411759 -1.0446448421058274
0.48411910670297065 -0.7865596965417112
0.4838838245107535 -0.5281917338072297
0.4837634870735437 -0.2697046809643575
0.4838274786316506 -0.01145100085887019
0.9099738231458129 -0.01153568246820118
0.9100050158346498 -0.26972766720530805
0.9098616368063054 -0.5281726543690363
0.9095769967003652 -0.7865207733566352
0.9091724647604685 -1.0445914748606189
0.9086155406732335 -1.302259556021359
0.9077447138194 -1.5593245693489612
0.9061762729397198 -1.8153416288875992
0.9033736311780959 -2.0694999373578056
0.8987876787297532 -2.320532529964462
0.8919673775551981 -2.5666702093354314
0.8825699664820426 -2.8056424200137946
0.8703028179672256 -3.0347508133730585
0.8548808049095489 -3.2509819420779023
0.8360129505740521 -3.4510614510343722
0.8134510105533995 -3.6315017446889377
0.7871153974009919 -3.788664616465473
0.7573258890343847 -3.9188882931025475
0.7251258894678306 -4.018741633160214
0.692798291420624 -4.085579270772207
0.6646812035661029 -4.118584949617274
0.6365641157115833 -4.0855792707720635
0.604236517664384 -4.018741633159929
0.572036518097843 -3.9188882931021385
0.5422470097312534 -3.7886646164649687
0.5159113965788664 -3.6315017446883626
0.49334945655823464 -3.4510614510337456
0.47448160222275876 -3.2509819420772437
0.4590595891651028 -3.0347508133723875
0.4467924406503057 -2.8056424200131307
0.43739502957716847 -2.5666702093347955
0.43057472840262906 -2.3205325299638675
0.42598877595429824 -2.0694999373572607
0.4231861341926822 -1.815341628887112
0.4216176933130065 -1.559324569348537
0.42074686645917525 -1.3022595560210035
0.42018994237194096 -1.0445914748603298
0.41978541043204454 -0.7865207733564146
0.4195007703261045 -0.5281726543688823
0.4193573912977602 -0.26972766720522146
0.419388583986597 -0.011535682468183494
0.9744186660907106 -0.011592126286244368
0.9744214336206425 -0.26974484602626586
0.974255703228887 -0.5281497397539634
0.9739249481430222 -0.7864758289018885
0.9734435839736958 -1.044528341814715
0.9727555365792573 -1.302164868247848
0.9716100542652877 -1.5591315845345974
0.9695147244156664 -1.8149140373205281
0.9658272532270626 -2.0686720856904244
0.9599152611307665 -2.3191607726795254
0.95125122400539 -2.564644291268042
0.9393955392058206 -2.8028733340841283
0.9239693317703612 -3.031157746399551
0.9046115114722272 -3.246482490390239
0.8809528132069976 -3.4455731066530975
0.8526481721836825 -3.6249629797474383
0.8195484091778448 -3.7810881952494158
0.782018762273025 -3.910443467292731
0.7414040562358911 -4.0098713561653385
0.7006043278867546 -4.077156022096743
0.6646812035660876 -4.112103368593918
0.6287580792454229 -4.0771560220966006
0.5879583508962964 -4.009871356165055
0.5473436448591784 -3.9104434672923265
0.5098139979543798 -3.781088195248917
0.4767142349485667 -3.624962979746869
0.44840959392527713 -3.445573106652476
0.4247508956600729 -3.246482490389586
0.4053930753619643 -3.0311577463988852
0.3899668679265295 -2.8028733340834693
0.378111183126982 -2.56464429126741
0.36944714600162465 -2.3191607726789343
0.3635351539053433 -2.0686720856898817
0.35984768271674944 -1.814914037320042
0.35775235286713436 -1.559131584534174
0.35660687055316787 -1.3021648682474927
0.35591882315873036 -1.0445283418144262
0.35543745898940426 -0.7864758289016679
0.3551067039035396 -0.5281497397538093
0.35494097351178433 -0.2697448460261793
0.3549437410417163 -0.011592126286226578
1.0388748465960722 -0.01162587113178113
1.03885359692955 -0.26975551455916763
1.0386662712266528 -0.5281229698056723
1.038292065484875 -0.7864255991371623
1.0377367830995718 -1.0444556440676527
1.0369042043284853 -1.3020414424267566
1.0354474785475223 -1.5588593649017537
1.032773168980405 -1.814324828015081
1.0281555523813297 -2.0675821900733418
1.0208990016375028 -2.3174109002094943
1.0103762055662475 -2.5621010066507357
0.9960510394321798 -2.799424522613267
0.9774545093487628 -3.0267020967714116
0.9541464035274165 -3.2409193600552584
0.9256885376081875 -3.438800577296495
0.8916718168278954 -3.6168989928046287
0.8518799876880622 -3.7717362841862574
0.8067142341425185 -3.900008869505507
0.7577925088599591 -3.9989066144310437
0.7085422050008455 -4.066699920535741
0.6646812035660722 -4.103812696037987
0.6208202021313026 -4.0666999205356005
0.5715698982722014 -3.9989066144307643
0.5226481729896614 -3.900008869505107
0.477482419444142 -3.7717362841857653
0.4376905903043373 -3.616898992804066
0.40367386952407563 -3.4388005772958805
0.37521600360487617 -3.2409193600546122
0.35190789778355996 -3.0267020967707525
0.33331136770017183 -2.7994245226126138
0.31898620156613 -2.56210100665011
0.30846340549489715 -2.317410900208907
0.30120685475108755 -2.067582190072803
0.2965892381520246 -1.8143248280145974
0.2939149285849152 -1.558859364901331
0.29245820280395607 -1.302041442426402
0.291625624032871 -1.0444556440673636
0.29107034164756806 -0.7864255991369418
0.2906961359057907 -0.5281229698055182
0.2905088102028936 -0.2697555145590811
0.29048756053637137 -0.01162587113176331
1.1033458499965434 -0.011642411741153434
1.1033059806781285 -0.26975948947443307
1.10309893286088 -0.5280923479197381
1.102683526123887 -0.7863707331651068
1.1020541399930421 -1.0443726915207487
1.101056560945632 -1.3018811539256034
1.099248316239316 -1.558490956193019
1.0959493712082276 -1.8135584856636402
1.0903885914852633 -2.0662233012662865
1.0817796645719704 -2.3152783480759216
1.069397793474824 -2.5590370421610262
1.052606717158618 -2.795293181488414
1.0308411046238413 -3.0213801117173538
1.003579582884779 -3.234288343540766
0.9703307320094798 -3.430745854418276
0.9306552018921369 -3.6073262504197383
0.8843157079328626 -3.760640553469538
0.8317041545819766 -3.887618145281283
0.7745833123628697 -3.9858567738341337
0.7167831192457529 -4.05417428784935
0.6646812035660571 -4.093640228955378
0.6125792878863661 -4.054174287849212
0.5547790947692633 -3.985856773833859
0.4976582525501794 -3.887618145280889
0.4450466991993215 -3.7606405534690532
0.39870720524007996 -3.607326250419183
0.3590316751227717 -3.4307458544176694
0.3257828242475065 -3.2342883435401273
0.29852130250847875 -3.0213801117167023
0.2767556899737353 -2.7952931814877684
0.2599646136575591 -2.5590370421604063
0.24758274256043847 -2.3152783480753394
0.2389738156471655 -2.0662233012657514
0.2334130359242156 -1.813558485663159
0.2301140908931367 -1.5584909561925977
0.22830584618682553 -1.3018811539252493
0.22730826713941743 -1.04437269152046
0.2266788810085732 -0.7863707331648865
0.22626347427158042 -0.5280923479195841
0.22605642645433205 -0.26975948947434647
0.22601655713591692 -0.011642411741135606
1.1678331741197443 -0.011647302601608326
1.1677820307896631 -0.2697571868644499
1.1675596952371157 -0.5280580314605264
1.1671047439220634 -0.7863118041268925
1.166395522005051 -1.044276714912307
1.1652062593164472 -1.3016732960825974
1.1630038553084188 -1.5580115252737279
1.1590636829802792 -1.8126084231073567
1.1525527397804138 -2.0645922989006076
1.1425973859302219 -2.3127622869282933
1.128370414290677 -2.5554532182493683
1.1091299969163209 -2.7904802532166277
1.0842124210408814 -3.0151920314427865
1.0530115881324595 -3.2265890916677824
1.0149854113161736 -3.4214131920298434
0.969714701486006 -3.596269709879802
0.9170178908379337 -3.747855937707635
0.8572593470919061 -3.873323972102164
0.7920846721369073 -3.9707211758520864
0.7255462488515979 -4.039502594592173
0.6646812035660417 -4.081463294002112
0.6038161582804913 -4.0395025945920375
0.5372777349951985 -3.9707211758518164
0.47210306004022584 -3.8733239721017774
0.41234451629423063 -3.747855937707158
0.3596477056461955 -3.596269709879256
0.31437699581606665 -3.4214131920292457
0.27635081899981934 -3.2265890916671527
0.24514998609143632 -3.0151920314421448
0.22023241021603446 -2.79048025321599
0.20099199284171207 -2.555453218248756
0.18676502120219562 -2.312762286927718
0.17680966735202616 -2.0645922989000765
0.17029872415217748 -1.8126084231068786
0.1663585518240489 -1.5580115252733082
0.1641561478160264 -1.3016732960822437
0.16296688512742513 -1.0442767149120182
0.16225766321041346 -0.7863118041266721
0.1618027118953616 -0.5280580314603722
0.16158037634281439 -0.2697571868643633
0.16152923301273336 -0.011647302601590484
1.2323357006880868 -0.011646169259797393
1.2322840789257645 -0.2697498193862977
1.23205555643418 -0.5280206204660448
1.231561331270627 -0.7862485543760528
1.2307582867392564 -1.044163328675456
1.2293442594515098 -1.301404322684074
1.2267203991365987 -1.5574120797739976
1.2221297677532572 -1.811471493520657
1.2146745982107638 -2.0626892452513923
1.2033923410045366 -2.3098658466088486
1.1873482798539292 -2.551353872679719
1.1656900270942512 -2.784990515682308
1.1376501006122652 -3.0081420306575724
1.1025388237136329 -3.2178255764295294
1.059776573555459 -3.410810522262863
1.0089715014902878 -3.583753089015183
0.9500654681983509 -3.733444493592479
0.8835295009175672 -3.857221586662498
0.8107466925323827 -3.9535172653518003
0.7351860781377324 -4.022553042575745
0.6646812035660259 -4.0670810718003905
0.5941763289943267 -4.022553042575612
0.518615714599695 -3.9535172653515356
0.4458329062145403 -3.857221586662119
0.3792969389337937 -3.7334444935920112
0.3203909056418985 -3.583753089014647
0.2695858335767708 -3.4108105222622753
0.22682358341863987 -3.21782557642891
0.19171230652005056 -3.0081420306569404
0.16367238003810627 -2.7849905156816797
0.1420141272784659 -2.551353872679114
0.1259700661278897 -2.3098658466082793
0.11468780892168735 -2.062689245250866
0.10723263937921272 -1.8114714935201826
0.10264200799588352 -1.5574120797735802
0.10001814768097962 -1.301404322683721
0.09860412039323645 -1.0441633286751677
0.09780107586186676 -0.7862485543758324
0.0973068506983143 -0.5280206204658907
0.09707832820672992 -0.26974981938621106
0.09702670644440749 -0.011646169259779569
1.2968483637605763 -0.011644524562930582
1.2968132134560568 -0.2697399436752615
1.2965958035129383 -0.5279813998004019
1.296058293904776 -0.7861789437310976
1.2951366593724012 -1.0440242919476725
1.2934672733874917 -1.3010645596732446
1.2904065748873361 -1.5566876907123932
1.2851628757085887 -1.8101469072183745
1.2767806284995613 -2.060517937245205
1.2642045807955942 -2.3065958632666237
1.2463870924558504 -2.5467473088747643
1.2223546052265886 -2.7788317346568974
1.1912344575593443 -3.000238016442383
1.1522670951784286 -3.2080083629479663
1.1048324095306188 -3.3989508922743066
1.048562265235341 -3.569793986782591
0.98352438549114 -3.7174482176897823
0.9104326799345189 -3.839423178038299
0.8307867905519287 -3.9344122260509957
0.7469879931193971 -4.003167465972947
0.6646812035660097 -4.049999999999994
0.5823744140126305 -4.003167465972816
0.49857561658012006 -3.9344122260507373
0.4189297271975638 -3.839423178037929
0.3458380216409852 -3.7174482176893253
0.28080014189683006 -3.569793986782066
0.22452999760160078 -3.39895089227373
0.17709531195383799 -3.208008362947359
0.13812794957296992 -3.000238016441762
0.10700780190577162 -2.778831734656279
0.0829753146765515 -2.5467473088741683
0.06515782633684149 -2.306595863266062
0.05258177863290093 -2.0605179372446845
0.044199531423894524 -1.810146907217904
0.03895583224516095 -1.5566876907119782
0.03589513374501349 -1.3010645596728931
0.03422574776010815 -1.0440242919473846
0.033304113227734695 -0.7861789437308774
0.03276660361957275 -0.5279813998002477
0.03254919367645463 -0.2697399436751749
0.032514043371935024 -0.01164452456291275
SCALARS Stress float 6
LOOKUP_TABLE default
-1261.7655569717915 -2064.4771033848933 -1587.0882886366944 -27.533416871736186 0.0 0.0
1364.2590114370396 802.2735395508206 1021.216004371439 -20.526631828675665 0.0 0.0
620.5301782207803 166.37287870507973 254.92992019531235 -41.6517511479401 0.0 0.0
496.6435641280371 30.786453822769158 164.08940264442782 -1.0993851237987995 0.0 0.0
622.0843853498674 81.64679825105901 255.7324309873286 2.842313975115161 0.0 0.0
744.260420043547 134.1103939407082 383.8175072401517 1.7998805730103289 0.0 0.0
874.7571460615131 189.54808497428462 506.6635590609163 0.4966831255137496 0.0 0.0
1008.883910029059 262.19548955549953 621.2704104182544 -0.9621072323886175 0.0 0.0
1152.6010600782308 349.99796687088565 739.6288978376558 -2.6563656812343712 0.0 0.0
1313.5695943731034 459.711103859768 875.3918987245141 -4.498402874702074 0.0 0.0
1497.3211287752176 596.509193247694 1035.4681923207793 -6.24745494353426 0.0 0.0
1703.8900903479114 760.7257622174815 1220.4702650047213 -7.599569035391344 0.0 0.0
1927.8200043364222 945.5516488358533 1424.4094834884954 -8.425723598520642 0.0 0.0
2161.6515220844285 1143.3362088328452 1639.7967814405874 -9.053625011430746 0.0 0.0
2395.8280187111077 1344.347418093515 1856.9767268082605 -9.454834994574037 0.0 0.0
2619.2925799355553 1537.5778634175374 2064.946361744401 -9.545729590715416 0.0 0.0
2820.4794803549225 1711.8589867746193 2252.383278028453 -9.1590834799125 0.0 0.0
2987.9012680229594 1856.2264787067672 2408.081495347451 -8.245772777040271 0.0 0.0
3119.727672115491 1969.4205464691677 2530.3753927679127 -7.163310347093992 0.0 0.0
3201.353817245474 2037.6731823478958 2605.0790186612753 -9.283007638254062 0.0 0.0
3192.5067629013884 2027.8187955784933 2595.9256102809222 1.618083445009688e-11 0.0 0.0
3201.3538172453245 2037.6731823478035 2605.0790186609574 9.283007638431085 0.0 0.0
3119.727672115959 1969.4205464696824 2530.3753927682124 7.163310347094949 0.0 0.0
2987.9012680219193 1856.2264787058396 2408.081495346462 8.245772777033945 0.0 0.0
2820.479480352344 1711.8589867721196 2252.383278026445 9.159083479805957 0.0 0.0
2619.292579935868 1537.5778634180103 2064.9463617443766 9.545729590628131 0.0 0.0
2395.828018709756 1344.347418092337 1856.976726806978 9.454834994718397 0.0 0.0
2161.651522082913 1143.3362088315018 1639.796781439188 9.053625011392588 0.0 0.0
1927.8200043347142 945.551648834356 1424.4094834869588 8.425723598449803 0.0 0.0
1703.8900903465276 760.7257622163138 1220.4702650035615 7.59956903538488 0.0 0.0
1497.3211287764755 596.5091932492832 1035.4681923213816 6.2474549436754785 0.0 0.0
1313.569594370313 459.7111038571771 875.3918987225052 4.4984028748788045 0.0 0.0
1152.6010600786235 349.9979668716071 739.628897837666 2.6563656813216525 0.0 0.0
1008.8839100270728 262.1954895537039 621.2704104169082 0.962107232337031 0.0 0.0
874.7571460609998 189.54808497413615 506.6635590603854 -0.4966831254664914 0.0 0.0
744.2604200423207 134.1103939396916 383.81750723917304 -1.7998805729835823 0.0 0.0
622.0843853489496 81.64679825025675 255.73243098663912 -2.8423139752980315 0.0 0.0
496.6435641278862 30.786453822925836 164.08940264439457 1.0993851237255239 0.0 0.0
620.5301782204324 166.3728787050599 254.92992019512778 41.6517511477376 0.0 0.0
1364.2590114365833 802.2735395502804 1021.2160043708925 20.52663182877786 0.0 0.0
-1261.7655569689912 -2064.47710338214 -1587.0882886339493 27.53341687115569 0.0 0.0
-1606.7990473026905 -2380.956432432729 -1886.7839968183205 -29.57426150228048 0.0 0.0
931.1251653102128 442.85559839920774 641.5798042930996 -28.424119254329412 0.0 0.0
433.54908632575473 65.63080326022697 148.68286386565362 -36.1626678662992 0.0 0.0
437.3663950679102 6.890426184904991 135.681708522825 -15.640324885275383 0.0 0.0
551.3692855453087 36.63565165862694 205.54975573336293 -16.621795705590756 0.0 0.0
653.9894213405546 52.744424407745726 302.2333672620658 -22.328793806069072 0.0 0.0
742.0694772727645 71.9369116900469 390.28553547593725 -23.93152570957485 0.0 0.0
826.5001419122857 93.24101552676814 455.75322632079155 -24.297150472509077 0.0 0.0
903.7323041949356 113.94842656546422 507.37662467987025 -24.929289288835864 0.0 0.0
975.5133706610634 134.74413809310224 554.2580000203304 -25.740110535454818 0.0 0.0
1044.6972537561126 157.6533877058777 600.4691310064895 -26.193383583103895 0.0 0.0
1113.482264261906 183.98470920489078 648.0664824730586 -26.193813516980487 0.0 0.0
1181.4185012479634 213.84849418784296 696.9837941907986 -25.793750810990364 0.0 0.0
1245.8846134884423 242.72053428316315 743.6609707114479 -25.199482202619443 0.0 0.0
1301.4380572857078 265.5750091940948 782.8711794290331 -24.430480702536627 0.0 0.0
1343.6544194322848 277.97014601407307 810.1849527153645 -23.26161696411792 0.0 0.0
1369.751474556253 277.3925114513785 822.9503882180117 -21.4457295155914 0.0 0.0
1380.0720300096539 264.6856889655464 821.754976066309 -19.026916235172322 0.0 0.0
1369.3208472724639 235.33791864268403 801.8096978631629 -16.74175228034119 0.0 0.0
1295.7555637073574 148.8794321971036 722.5048737524687 -17.301179288568537 0.0 0.0
1172.4775019376918 25.392369904691478 600.2428976815654 6.966871524127782e-12 0.0 0.0
1295.7555637066882 148.87943219646482 722.5048737518696 17.301179288667125 0.0 0.0
1369.3208472730053 235.33791864327242 801.8096978636905 16.741752280206132 0.0 0.0
1380.0720300101445 264.6856889661534 821.7549760666243 19.026916235244975 0.0 0.0
1369.751474555206 277.39251145044807 822.9503882173385 21.445729515641176 0.0 0.0
1343.65441943312 277.9701460150466 810.1849527159443 23.26161696417539 0.0 0.0
1301.4380572848513 265.5750091933851 782.8711794283522 24.430480702539587 0.0 0.0
1245.8846134884427 242.7205342833498 743.6609707113398 25.199482202560986 0.0 0.0
1181.4185012474059 213.84849418748286 696.9837941904034 25.79375081090384 0.0 0.0
1113.482264261513 183.9847092047392 648.0664824728302 26.193813517012188 0.0 0.0
1044.6972537567108 157.65338770672253 600.469131006935 26.19338358313682 0.0 0.0
975.5133706600543 134.74413809237524 554.2580000196513 25.740110535557278 0.0 0.0
903.7323041944925 113.94842656530963 507.37662467955744 24.92928928905922 0.0 0.0
826.5001419111993 93.24101552591571 455.75322632007334 24.297150472369466 0.0 0.0
742.0694772727858 71.93691169041858 390.2855354758337 23.931525709642525 0.0 0.0
653.9894213395695 52.74442440698616 302.2333672612875 22.328793806040217 0.0 0.0
551.3692855443358 36.63565165775102 205.54975573269337 16.621795705356313 0.0 0.0
437.36639506767426 6.890426184908881 135.68170852275261 15.640324885246843 0.0 0.0
433.5490863259747 65.63080326077343 148.68286386588213 36.162667866100904 0.0 0.0
931.1251653095927 442.85559839862015 641.5798042924118 28.424119254377175 0.0 0.0
-1606.7990473007656 -2380.9564324307275 -1886.7839968162639 29.574261501839636 0.0 0.0
-1348.2035649567638 -2087.5026056041547 -1601.0183304321636 -67.89859913290458 0.0 0.0
746.2808134656552 351.36237537408465 497.7909521508732 -96.63046132424196 0.0 0.0
300.9473146774192 74.71067590247519 112.73248807962042 -39.603116302190905 0.0 0.0
375.2633214866829 1.7524300286295291 113.16691706250973 -37.336591458490915 0.0 0.0
506.2331301098426 26.88018905028337 175.83967524541848 -39.06643690611747 0.0 0.0
620.4045580382208 47.185136858796625 270.9134682792583 -42.279911634960456 0.0 0.0
712.1134378753861 66.77638311804243 366.0231275234984 -44.372109527845545 0.0 0.0
796.4844944823678 84.33623352974257 434.2223026828732 -45.27387925472846 0.0 0.0
870.7356053339897 101.45573223395255 484.10375012604135 -46.61808070495518 0.0 0.0
938.5824918251208 118.2307553374734 527.2199539382724 -47.81179624458805 0.0 0.0
1004.293772464576 138.13324735100431 570.2048430434168 -48.11576719275776 0.0 0.0
1069.9890316313622 162.54966492951877 615.3013387099451 -47.59618427979828 0.0 0.0
1135.259619555406 189.51291760628507 661.457722749565 -46.68098623592749 0.0 0.0
1196.3097268556007 216.1361834783326 705.3226616498138 -45.47609968801391 0.0 0.0
1249.9983725371546 237.628347143959 742.9141693045405 -43.9564777949121 0.0 0.0
1292.0504166864591 250.23193664419432 770.2357631592545 -41.838323290946995 0.0 0.0
1319.8888867727674 251.5426823365853 784.8200349639795 -38.777968119922 0.0 0.0
1329.5919074815858 238.17473266181076 783.0642398527449 -34.974465957577166 0.0 0.0
1308.2654402254288 198.2610681182053 752.7190608464804 -31.399613803613082 0.0 0.0
1266.6327612837063 144.00124912102132 705.1304481932949 -29.07344344029012 0.0 0.0
1122.9454203431878 0.7891089382647891 562.9861179185324 4.04476452331437e-12 0.0 0.0
1266.6327612840776 144.00124912147612 705.1304481935902 29.073443440465304 0.0 0.0
1308.2654402249104 198.26106811771936 752.7190608461642 31.399613803613995 0.0 0.0
1329.591907482115 238.17473266243326 783.064239853154 34.974465957693994 0.0 0.0
1319.888886772931 251.54268233687344 784.8200349640824 38.77796811995351 0.0 0.0
1292.0504166865235 250.23193664439415 770.2357631593347 41.83832329097802 0.0 0.0
1249.9983725362677 237.62834714321338 742.9141693038692 43.95647779486891 0.0 0.0
1196.3097268555773 216.136183478478 705.3226616497483 45.47609968802703 0.0 0.0
1135.2596195548215 189.5129176059015 661.4577227492398 46.68098623591702 0.0 0.0
1069.9890316314847 162.54966492986262 615.3013387100481 47.59618427979989 0.0 0.0
1004.2937724638326 138.13324735048678 570.2048430429517 48.11576719270086 0.0 0.0
938.5824918253096 118.23075533792404 527.2199539383993 47.81179624460104 0.0 0.0
870.7356053327961 101.4557322330638 484.1037501252959 46.61808070503896 0.0 0.0
796.4844944813959 84.33623352899443 434.22230268221415 45.273879254612204 0.0 0.0
712.113437874987 66.77638311796946 366.0231275231294 44.372109527850554 0.0 0.0
620.4045580375921 47.1851368584592 270.9134682786876 42.279911634881756 0.0 0.0
506.2331301091531 26.880189049731435 175.83967524496924 39.06643690602368 0.0 0.0
375.263321486409 1.7524300283750776 113.16691706236496 37.336591458584216 0.0 0.0
300.94731467746993 74.71067590253487 112.73248807965315 39.60311630220808 0.0 0.0
746.2808134651086 351.3623753737713 497.7909521502733 96.63046132405722 0.0 0.0
-1348.203564954656 -2087.5026056018833 -1601.0183304299494 67.89859913273746 0.0 0.0
-1104.1432601871984 -1812.7541107387203 -1335.6995626357418 -81.58556701818853 0.0 0.0
570.3992681053493 255.705105428207 367.3718767693606 -145.63957417088582 0.0 0.0
218.2091405677431 63.157957573100475 84.41012944225304 -61.151052055774976 0.0 0.0
311.9920865483899 7.415762529406869 95.65191583997631 -59.88123726876994 0.0 0.0
450.6917670200346 15.511636805949136 145.95392889884445 -64.01048804097972 0.0 0.0
574.4370085310998 40.16741287653687 234.6704610778904 -63.520668558464614 0.0 0.0
678.7410679459449 59.67874769914856 335.8779537154845 -66.13816898929036 0.0 0.0
761.5845168711143 75.60449117344443 408.952426542734 -66.46590374720105 0.0 0.0
833.6385471672684 89.20637564886461 458.4990323278088 -67.94123435423982 0.0 0.0
897.9350627390295 102.33718937792906 498.5013681817087 -69.12672589722528 0.0 0.0
959.8210488214193 118.91197439832644 537.9611175039411 -69.1020395412569 0.0 0.0
1022.4912188820434 140.44083583810703 580.1012945893966 -68.17412493847792 0.0 0.0
1084.5274996010542 165.4814079767071 623.713765085598 -66.74446325334418 0.0 0.0
1142.6958770475107 188.86998204914988 664.5356230496533 -65.04135026207909 0.0 0.0
1194.1336969710717 208.8104776186087 700.2196618143456 -62.84130002641166 0.0 0.0
1236.6774293749095 222.44795684429926 728.301036822523 -59.889161455370164 0.0 0.0
1265.96626587386 225.09420760792474 744.2985875483946 -55.99082176224439 0.0 0.0
1275.0042761635862 210.85398561853282 741.844599639999 -51.28922788307422 0.0 0.0
1260.2101975213973 177.18889866479984 717.8531746591187 -45.99748065797237 0.0 0.0
1235.3640269585899 139.05372360148468 686.557608867347 -39.3093911181319 0.0 0.0
1034.3100639569132 -61.08712772422257 487.9772491219529 4.7910120315464155e-11 0.0 0.0
1235.3640269597493 139.05372360270272 686.5576088682415 39.309391118235084 0.0 0.0
1260.2101975199996 177.1888986634463 717.8531746581285 45.99748065803381 0.0 0.0
1275.004276163105 210.85398561815776 741.8445996397871 51.289227883222665 0.0 0.0
1265.9662658754125 225.09420760962826 744.2985875494406 55.99082176238565 0.0 0.0
1236.6774293745364 222.44795684404085 728.3010368223364 59.88916145537328 0.0 0.0
1194.1336969714416 208.81047761916733 700.219661814614 62.841300026466484 0.0 0.0
1142.695877047405 188.86998204923793 664.535623049535 65.04135026219187 0.0 0.0
1084.5274996011972 165.4814079771462 623.7137650856758 66.74446325354823 0.0 0.0
1022.4912188818154 140.44083583808157 580.1012945893776 68.17412493854647 0.0 0.0
959.8210488213749 118.9119743985193 537.9611175038813 69.102039541235 0.0 0.0
897.9350627392093 102.33718937837568 498.50136818182796 69.12672589719992 0.0 0.0
833.6385471664892 89.20637564830375 458.49903232727723 67.9412343540436 0.0 0.0
761.5845168703495 75.60449117295553 408.95242654217805 66.46590374721734 0.0 0.0
678.7410679455047 59.67874769907516 335.87795371504046 66.13816898928546 0.0 0.0
574.4370085306374 40.1674128763687 234.67046107745827 63.52066855833845 0.0 0.0
450.6917670195614 15.511636805772941 145.9539288986087 64.01048804100174 0.0 0.0
311.99208654832364 7.415762529266975 95.65191583991371 59.88123726865726 0.0 0.0
218.2091405676572 63.157957572988934 84.41012944219382 61.151052055733615 0.0 0.0
570.3992681047165 255.7051054278148 367.37187676876306 145.6395741707313 0.0 0.0
-1104.1432601851461 -1812.754110736632 -1335.6995626336666 81.58556701794751 0.0 0.0
-891.6582330202075 -1574.1940694651328 -1102.4221898477092 -80.19485724054863 0.0 0.0
440.68080234530777 171.00455772390097 265.2079485522924 -178.09422826121732 0.0 0.0
159.74829995064852 49.402661461210435 62.745288423557675 -91.69652621366671 0.0 0.0
254.44005357435054 13.630897988281554 80.41767644646787 -84.36370000524528 0.0 0.0
385.428951367422 8.87507799223567 119.30956536367535 -90.07682157091283 0.0 0.0
519.3651983001372 27.59459725327591 194.33567381669351 -88.81493267422208 0.0 0.0
633.8616335642032 51.24524152085803 297.3564876956199 -88.13418689666032 0.0 0.0
720.8659439817686 67.5272213088085 379.1746456243857 -88.07479247676888 0.0 0.0
791.776501232069 77.54841272171443 430.02525092032096 -88.83723957096744 0.0 0.0
852.6507311004008 86.81358832835619 467.3928841169696 -89.6448879131636 0.0 0.0
911.0831332451314 99.82199659286385 503.48756440734894 -89.18419160299807 0.0 0.0
970.200368351911 118.28594318771894 542.3388760192939 -87.83132869621976 0.0 0.0
1029.087846971293 140.18407259088139 582.8332667858374 -86.06117329215236 0.0 0.0
1084.2415448932143 162.03805505031397 621.4171828492647 -83.84204580784457 0.0 0.0
1133.6784181425257 179.9635341449862 655.1058394655864 -81.01762163217741 0.0 0.0
1175.5283876220203 192.70631759287102 682.3784353260305 -77.46521836613326 0.0 0.0
1206.6008615405538 197.48388682022312 700.3449599652872 -73.06559341352224 0.0 0.0
1220.7318475620013 188.0621201209564 702.8550629588913 -67.69520037098667 0.0 0.0
1214.2542263225416 161.90196939732283 686.7522922816255 -60.47188237748996 0.0 0.0
1197.3938612665677 130.24391863953835 662.6305426411186 -49.79691509908324 0.0 0.0
925.970619760211 -139.69720962348202 394.9535537392319 1.0845369047274289e-10 0.0 0.0
1197.3938612670981 130.24391864014046 662.6305426414083 49.7969150992526 0.0 0.0
1214.2542263222556 161.9019693971357 686.7522922815059 60.47188237765777 0.0 0.0
1220.7318475610327 188.06212012011716 702.8550629583116 67.69520037122123 0.0 0.0
1206.6008615405556 197.48388682030978 700.3449599651506 73.06559341363696 0.0 0.0
1175.528387622059 192.70631759308412 682.3784353260794 77.46521836617035 0.0 0.0
1133.6784181429937 179.96353414561264 655.1058394659402 81.01762163230677 0.0 0.0
1084.241544892645 162.03805504990788 621.4171828488657 83.84204580784936 0.0 0.0
1029.0878469713077 140.18407259112325 582.8332667857776 86.06117329226144 0.0 0.0
970.2003683512563 118.28594318729445 542.3388760189205 87.83132869624157 0.0 0.0
911.08313324524 99.82199659317098 503.4875644073351 89.18419160295171 0.0 0.0
852.6507310997059 86.81358832787879 467.39288411655014 89.64488791308017 0.0 0.0
791.7765012324421 77.54841272239662 430.02525092051934 88.83723957094824 0.0 0.0
720.865943981536 67.52722130890093 379.17464562413187 88.07479247678418 0.0 0.0
633.8616335639852 51.24524152098678 297.35648769528905 88.13418689658769 0.0 0.0
519.3651982994652 27.594597252809713 194.3356738161711 88.81493267406326 0.0 0.0
385.42895136711996 8.875077992437593 119.3095653636419 90.07682157086168 0.0 0.0
254.44005357431448 13.630897988310954 80.41767644646156 84.36370000495279 0.0 0.0
159.74829995065744 49.40266146114427 62.745288423540515 91.69652621352307 0.0 0.0
440.680802344771 171.0045577236828 265.2079485518194 178.0942282611185 0.0 0.0
-891.6582330186449 -1574.1940694635618 -1102.4221898459932 80.19485724020277 0.0 0.0
-704.6456256758865 -1363.4049334553813 -894.7714989427433 -75.9932586316344 0.0 0.0
338.6990814644823 105.08324221456292 186.40193067821303 -197.22251535698504 0.0 0.0
115.69045662287343 34.02813693682609 44.91557806790985 -120.98242071708428 0.0 0.0
203.11696164464047 18.341948245361152 66.44177386817087 -109.13659874521213 0.0 0.0
315.7493405381509 6.019164908613145 95.92430661098184 -115.85852274774989 0.0 0.0
449.4995110134206 15.947745311732726 154.40635613346691 -115.32385761112552 0.0 0.0
572.6890251811147 42.02736990040669 251.00071922378532 -111.42218166770593 0.0 0.0
672.6308302448683 56.9845532354503 340.82468277532723 -110.70313621842125 0.0 0.0
742.2711156148063 66.30516322270708 396.64612515218676 -109.2870297001644 0.0 0.0
801.9283854455203 71.47439954231515 433.1307113536627 -109.36667690753508 0.0 0.0
856.8469611948905 80.83228800032198 466.0403016359166 -108.33574918975826 0.0 0.0
912.4358691945216 96.17012952613038 501.6139328609914 -106.52331019247264 0.0 0.0
967.8117394633572 115.32481248101266 539.0168637752929 -104.4003515433385 0.0 0.0
1019.8383726537882 134.0039647184448 574.4839713324199 -101.88408930155538 0.0 0.0
1066.9132505657888 150.3014082555192 606.209147192251 -98.5623763581375 0.0 0.0
1107.7430300692643 162.59763290299114 632.7671945930068 -94.38676878084696 0.0 0.0
1141.1247186921457 168.97485798127414 652.6461238026018 -89.75008463744078 0.0 0.0
1163.0863816006324 167.13476149850578 662.8314158032808 -84.03914049948803 0.0 0.0
1166.3976839792313 149.81876205666077 656.0662554510825 -75.32698270129066 0.0 0.0
1154.3778301581387 120.64089875850999 635.61165329968 -61.29646397397172 0.0 0.0
799.904897663459 -231.30855843627464 286.7801015185217 7.888267816724692e-11 0.0 0.0
1154.3778301588536 120.64089875930057 635.6116533001924 61.296463974104725 0.0 0.0
1166.397683980361 149.81876205794322 656.0662554519164 75.32698270154765 0.0 0.0
1163.0863816006533 167.13476149868606 662.8314158033191 84.0391404997075 0.0 0.0
1141.1247186905966 168.97485797983654 652.6461238014764 89.75008463760122 0.0 0.0
1107.7430300699978 162.59763290381926 632.7671945935391 94.38676878086551 0.0 0.0
1066.9132505657092 150.30140825558132 606.2091471921855 98.5623763581037 0.0 0.0
1019.8383726528136 134.00396471759794 574.4839713317848 101.88408930147435 0.0 0.0
967.81173946215 115.32481247994589 539.0168637744704 104.40035154333307 0.0 0.0
912.4358691941957 96.17012952598427 501.6139328607421 106.52331019240648 0.0 0.0
856.846961194629 80.83228800016414 466.04030163563306 108.3357491895657 0.0 0.0
801.9283854442793 71.4743995411835 433.1307113528237 109.36667690724295 0.0 0.0
742.2711156157989 66.30516322414663 396.6461251528325 109.2870297003288 0.0 0.0
672.6308302443689 56.98455323528903 340.82468277491785 110.70313621841889 0.0 0.0
572.6890251804057 42.02736989998752 251.00071922317278 111.42218166763887 0.0 0.0
449.4995110127342 15.947745311223956 154.40635613299816 115.32385761100787 0.0 0.0
315.74934053805316 6.019164909129756 95.9243066111266 115.85852274766769 0.0 0.0
203.1169616444882 18.341948245090304 66.44177386804397 109.13659874497937 0.0 0.0
115.69045662271358 34.02813693656948 44.91557806778492 120.98242071696706 0.0 0.0
338.69908146403174 105.0832422145369 186.40193067788374 197.2225153568181 0.0 0.0
-704.6456256745969 -1363.4049334539218 -894.771498941243 75.99325863151866 0.0 0.0
-542.7177366561458 -1171.3202837908539 -709.9576014081073 -72.10921779252939 0.0 0.0
257.9518573901983 53.11376135579178 125.87496377196251 -209.20956925852758 0.0 0.0
80.38198202701417 19.244555018875 29.88780740589532 -145.18645895975484 0.0 0.0
155.36277109049996 21.49835439788533 53.05940680247849 -132.04697045245902 0.0 0.0
245.97514276519803 6.560139008179822 75.3781661568037 -138.4465886663655 0.0 0.0
368.82781001787697 4.471146354160206 116.303058292926 -144.55702603003047 0.0 0.0
496.96751034873716 27.74415050287732 197.4504343678779 -137.97933916147625 0.0 0.0
605.9014401603581 47.26990570319401 291.00560570042694 -133.11858976816504 0.0 0.0
685.90978490344 52.39734859529668 355.2939750275084 -131.0242242438319 0.0 0.0
742.5147153237726 56.30216770914899 393.4815357599154 -128.1682737501029 0.0 0.0
795.7226498583113 62.03323133787128 424.62665275882193 -126.4583187848034 0.0 0.0
847.7306135113901 74.01583840901993 456.91999080722184 -124.19849795972095 0.0 0.0
899.1276359947528 89.91824057989068 490.7860904628556 -121.74333962166617 0.0 0.0
947.8043067612668 106.19822214393311 523.4160582140398 -118.995107542026 0.0 0.0
992.0175710162525 120.2238508248331 552.6392930770165 -115.4227371064644 0.0 0.0
1031.0141987921484 130.1175597670805 577.1052595913534 -110.90355436503422 0.0 0.0
1066.406181679104 139.62103511153666 599.5022914275969 -105.69494119957328 0.0 0.0
1098.482363372908 146.9365677345774 619.2439052427248 -100.06747055634608 0.0 0.0
1114.1039579503977 140.01001885389388 623.8492218036628 -90.97366801419214 0.0 0.0
1106.8981295468868 112.76159971966901 606.8681548917767 -74.62706950524172 0.0 0.0
654.3997308520192 -335.00793692002844 163.11768822533793 1.3058709669167e-10 0.0 0.0
1106.8981295481112 112.76159972097577 606.8681548927983 74.62706950537093 0.0 0.0
1114.1039579510996 140.01001885475 623.849221804159 90.97366801451163 0.0 0.0
1098.4823633732515 146.9365677349166 619.2439052429172 100.06747055628064 0.0 0.0
1066.4061816787246 139.62103511133517 599.5022914273551 105.69494119969872 0.0 0.0
1031.0141987924976 130.1175597674717 577.1052595917506 110.90355436495805 0.0 0.0
992.017571015873 120.22385082456131 552.6392930766427 115.42273710633759 0.0 0.0
947.8043067608695 106.19822214365824 523.4160582137484 118.99510754199406 0.0 0.0
899.1276359932954 89.91824057850738 490.78609046186875 121.74333962159042 0.0 0.0
847.7306135115389 74.01583840937656 456.9199908073506 124.19849795971263 0.0 0.0
795.7226498583362 62.03323133797497 424.62665275876276 126.45831878458422 0.0 0.0
742.5147153233914 56.30216770900285 393.4815357597138 128.16827374998113 0.0 0.0
685.90978490406 52.39734859636167 355.29397502784025 131.0242242439693 0.0 0.0
605.9014401603785 47.269905703725044 291.0056057003414 133.11858976825823 0.0 0.0
496.96751034816765 27.744150502689347 197.4504343674237 137.97933916146195 0.0 0.0
368.82781001759486 4.471146354388306 116.30305829284508 144.55702602995203 0.0 0.0
245.97514276526633 6.560139008822314 75.37816615701881 138.44658866613634 0.0 0.0
155.36277109044073 21.498354397965723 53.05940680248446 132.04697045225814 0.0 0.0
80.38198202690374 19.244555018699295 29.887807405809635 145.1864589596453 0.0 0.0
257.9518573897184 53.113761355522904 125.87496377160743 209.20956925835992 0.0 0.0
-542.7177366549896 -1171.3202837893855 -709.957601406746 72.10921779258871 0.0 0.0
-399.9654541328067 -1003.7452287535478 -546.3389585417716 -76.15710691420483 0.0 0.0
189.5436582806728 13.795438899489529 78.72393000008829 -213.09569738605444 0.0 0.0
50.33528711418447 7.091256698934065 17.227877102152714 -163.43629165197905 0.0 0.0
109.25586287382292 22.854388035450967 39.63477212889495 -151.65650447378013 0.0 0.0
179.86321766366734 8.50099370126065 56.30818312247699 -157.96181191596062 0.0 0.0
277.46831341728426 -0.8711493596604418 83.13517538877515 -170.86170143768655 0.0 0.0
400.30899199567426 11.987125489292458 141.18307985794053 -166.8598168681886 0.0 0.0
518.4861897291097 32.25583069716978 226.62191664846878 -157.05144017736876 0.0 0.0
609.4024729881854 40.122163505149494 300.10197467331136 -151.43563157672327 0.0 0.0
672.5392513983204 38.73703787612978 344.1285825046809 -147.40686115000275 0.0 0.0
723.2489191101026 42.51064984711081 375.5278228878 -143.4259976515166 0.0 0.0
772.2859734146095 51.9570113410867 405.76605672133473 -140.5952908147722 0.0 0.0
819.8050862120389 64.51988906807301 436.2352340365211 -137.81235347856236 0.0 0.0
864.1348546608679 77.57198157808347 465.14534269086215 -134.95284289099146 0.0 0.0
905.532984761209 89.411677650921 491.9175573461603 -131.49745646083653 0.0 0.0
942.3834514210042 98.28107236923115 514.9155368884361 -126.81256733817456 0.0 0.0
977.5181838794107 106.23046023546485 536.448061155786 -121.08650286291794 0.0 0.0
1018.7823067930402 122.5181926809583 565.0652252307386 -115.3371137176352 0.0 0.0
1052.9682021422818 133.3096413966802 587.8079722384374 -107.29816442785133 0.0 0.0
1055.3790273216064 111.553241110745 578.672672485913 -90.80951695050113 0.0 0.0
483.83070326550256 -450.23003162907526 21.586444459287108 1.6476064956805203e-10 0.0 0.0
1055.3790273221316 111.55324111146214 578.6726724864591 90.80951695082602 0.0 0.0
1052.9682021429205 133.30964139746482 587.8079722389049 107.29816442823284 0.0 0.0
1018.7823067924393 122.51819268038147 565.0652252302978 115.33711371759736 0.0 0.0
977.5181838799691 106.23046023619318 536.4480611560114 121.08650286315063 0.0 0.0
942.3834514204337 98.28107236874169 514.9155368881992 126.81256733808326 0.0 0.0
905.532984760924 89.41167765069552 491.91755734592164 131.49745646076596 0.0 0.0
864.1348546600502 77.57198157737824 465.1453426903032 134.9528428909776 0.0 0.0
819.8050862119393 64.51988906815342 436.23523403635323 137.81235347853286 0.0 0.0
772.2859734144165 51.9570113411753 405.7660567212892 140.59529081489626 0.0 0.0
723.2489191093273 42.51064984645229 375.52782288726604 143.42599765149987 0.0 0.0
672.5392513986858 38.73703787684286 344.12858250496635 147.40686114999096 0.0 0.0
609.4024729881412 40.12216350538766 300.1019746731944 151.43563157670803 0.0 0.0
518.4861897290787 32.25583069770323 226.62191664840117 157.05144017747037 0.0 0.0
400.3089919952953 11.987125489328497 141.18307985768573 166.85981686820026 0.0 0.0
277.4683134171283 -0.8711493590748556 83.13517538890035 170.86170143752247 0.0 0.0
179.86321766344648 8.500993701056686 56.30818312235302 157.9618119157503 0.0 0.0
109.25586287390075 22.85438803566375 39.63477212898276 151.65650447361924 0.0 0.0
50.33528711424551 7.091256699101338 17.227877102221132 163.43629165187554 0.0 0.0
189.54365828025095 13.795438899258729 78.72392999980204 213.0956973859123 0.0 0.0
-399.96545413194747 -1003.7452287523081 -546.338958540667 76.15710691430704 0.0 0.0
-288.5415817848905 -843.083247384909 -411.3280536100414 -81.45494977536993 0.0 0.0
130.92757324583084 -18.104721724517567 42.61335160527112 -210.6472927171548 0.0 0.0
22.493809649299124 -1.2356920772239786 6.3793382467102555 -176.32356122654681 0.0 0.0
64.15956906368856 22.66861634152949 26.041446605256393 -167.2945739679699 0.0 0.0
114.93894487207555 11.546741449649419 37.84615428850771 -173.11388686130732 0.0 0.0
182.0046186967423 -0.17757794196511534 54.26703737446796 -190.1375810086588 0.0 0.0
280.5621043477442 -1.2675466822252401 87.51926725679837 -198.11095987675492 0.0 0.0
400.0541163783438 10.937214772602442 148.7118842924778 -186.02420752690125 0.0 0.0
503.40482639576874 21.326700955406707 220.45954398787197 -171.85831188383702 0.0 0.0
576.1812078990981 21.13805979752358 273.68003899191353 -164.19229642749042 0.0 0.0
629.5343003243179 22.549606253127834 310.1006078464112 -158.6002620941794 0.0 0.0
676.5385480649245 28.828134102233534 339.9016165145481 -155.20966083915206 0.0 0.0
720.1246977441975 38.79604697991313 368.10149427381674 -152.15549854281983 0.0 0.0
759.63948919574 48.58706970633437 393.323979645597 -149.3057761823376 0.0 0.0
796.9545177910534 58.06933725417577 417.0556494344193 -146.2992873485069 0.0 0.0
832.6126307627329 66.45793050032907 439.40918780041613 -142.21101615980973 0.0 0.0
867.0673911388999 73.59268065642448 460.60064444123356 -136.25413628532402 0.0 0.0
909.2243378123308 89.17132626245098 489.39226893389076 -129.45440332509986 0.0 0.0
966.4100050141001 120.38468105749118 533.4748435458907 -123.51751077643586 0.0 0.0
997.4004424143477 122.32807576040216 551.1131513127764 -111.56423788639914 0.0 0.0
278.97428894638017 -572.6049367859301 -139.85531850643994 6.920686246303376e-12 0.0 0.0
997.4004424162157 122.32807576282826 551.1131513142583 111.56423788681859 0.0 0.0
966.4100050135538 120.38468105685249 533.4748435455608 123.51751077673318 0.0 0.0
909.2243378110537 89.17132626119516 489.3922689330684 129.45440332514764 0.0 0.0
867.0673911383008 73.59268065563407 460.6006444407601 136.25413628532246 0.0 0.0
832.6126307631238 66.45793050102239 439.4091878007097 142.21101615976147 0.0 0.0
796.9545177912626 58.06933725454951 417.0556494345985 146.29928734855835 0.0 0.0
759.6394891948688 48.58706970565044 393.3239796450231 149.3057761823968 0.0 0.0
720.1246977447325 38.79604698058278 368.1014942741253 152.15549854290538 0.0 0.0
676.5385480652925 28.82813410287757 339.90161651476615 155.20966083910974 0.0 0.0
629.5343003234013 22.549606252282203 310.10060784575865 158.60026209411575 0.0 0.0
576.1812078990627 21.138059797810598 273.6800389918869 164.19229642745643 0.0 0.0
503.404826395005 21.326700954816097 220.45954398730407 171.85831188383594 0.0 0.0
400.0541163779049 10.937214772489718 148.71188429217474 186.02420752684998 0.0 0.0
280.56210434721345 -1.2675466823726658 87.5192672565657 198.11095987671342 0.0 0.0
182.00461869671648 -0.177577941345068 54.26703737466149 190.1375810083182 0.0 0.0
114.93894487200184 11.546741449699006 37.846154288508515 173.1138868610218 0.0 0.0
64.15956906344708 22.668616341022307 26.041446605031542 167.2945739679154 0.0 0.0
22.49380964955713 -1.2356920764663775 6.379338247013686 176.32356122633965 0.0 0.0
130.92757324548631 -18.104721724643145 42.61335160507881 210.6472927170608 0.0 0.0
-288.54158178415037 -843.0832473838503 -411.3280536091708 81.4549497753917 0.0 0.0
-198.59797417081836 -700.506964646172 -301.0675845418449 -94.82868871850194 0.0 0.0
78.21339955528236 -43.35082201698134 14.112397969871711 -202.17910328523726 0.0 0.0
-4.5097093157687205 -5.060895246359049 -2.8819125734842714 -183.8645408110971 0.0 0.0
19.644189596473215 21.414623094075587 12.315614421903684 -178.12653005210979 0.0 0.0
49.97188185676913 14.564800921944407 19.327405490109953 -183.8661725230778 0.0 0.0
87.72428209169013 3.322762990914548 27.19598547747212 -202.65040762943082 0.0 0.0
141.59173284258787 -2.423321639497302 41.97278471829219 -218.6750215666912 0.0 0.0
226.9634069003843 -6.300085245811149 68.70237207909726 -218.99798015529774 0.0 0.0
333.6853941389813 -12.982151310028781 106.72159257080578 -201.76001119109733 0.0 0.0
420.7000388323677 -14.744818917907256 148.71206316963983 -179.40299441709845 0.0 0.0
479.37442340255325 -5.6879536467403184 188.12250045884429 -168.69200021334623 0.0 0.0
524.062155413049 3.434524089057362 220.83282543904647 -165.52918887760134 0.0 0.0
561.6048625368724 11.62808436801189 248.50459580176843 -164.47170256154013 0.0 0.0
595.2428782323647 19.56660598505117 272.6183075795121 -163.64151717297764 0.0 0.0
627.3902989427871 27.59959175420284 295.5874187738243 -162.54345765477743 0.0 0.0
660.8950718063619 35.76358847114666 319.3748852447993 -160.475088817639 0.0 0.0
697.2705166652728 43.203151472515316 344.5918882870568 -155.5790363764158 0.0 0.0
736.4308747651745 49.4053197445123 370.5013702619772 -147.56722647019956 0.0 0.0
799.9499922870978 77.69233311058836 416.6171808095863 -140.7071904920627 0.0 0.0
895.9112545530003 134.68606762563383 495.73001973328024 -139.35915972770368 0.0 0.0
6.585615970992507 -694.9959466786951 -332.0980862974122 2.098943241435336e-11 0.0 0.0
895.9112545552933 134.68606762822347 495.7300197350103 139.35915972808016 0.0 0.0
799.9499922861186 77.69233310973992 416.6171808090159 140.70719049224894 0.0 0.0
736.4308747648041 49.40531974435481 370.50137026169284 147.56722647044717 0.0 0.0
697.270516663176 43.203151469861794 344.5918882855026 155.5790363762747 0.0 0.0
660.895071807004 35.7635884717581 319.37488524532785 160.47508881763116 0.0 0.0
627.3902989433881 27.59959175481655 295.58741877424274 162.54345765471774 0.0 0.0
595.2428782319696 19.566605984758937 272.61830757933143 163.64151717295994 0.0 0.0
561.6048625370696 11.628084368616904 248.50459580191975 164.47170256168195 0.0 0.0
524.0621554133036 3.4345240894209716 220.83282543925986 165.52918887776036 0.0 0.0
479.3744234024905 -5.687953646655885 188.12250045878795 168.69200021325182 0.0 0.0
420.70003883200843 -14.744818918364752 148.7120631693454 179.40299441695322 0.0 0.0
333.6853941386086 -12.982151310104722 106.72159257062762 201.76001119120042 0.0 0.0
226.96340690009902 -6.300085245700865 68.70237207903419 218.99798015530786 0.0 0.0
141.59173284222007 -2.423321639862183 41.97278471807693 218.6750215665568 0.0 0.0
87.72428209182124 3.3227629916877377 27.19598547775421 202.6504076290636 0.0 0.0
49.97188185697756 14.564800922557621 19.327405490358995 183.86617252279243 0.0 0.0
19.644189596424148 21.41462309398598 12.31561442186197 178.12653005197092 0.0 0.0
-4.509709315494524 -5.060895245755989 -2.8819125732234 183.86454081089533 0.0 0.0
78.2133995549941 -43.3508220172009 14.112397969693799 202.17910328507827 0.0 0.0
-198.5979741704371 -700.5069646453949 -301.06758454129715 94.82868871854824 0.0 0.0
-139.0777132570884 -569.0766323372455 -220.68512082417635 -107.9151428177282 0.0 0.0
29.867149359481978 -61.43679900764637 -8.384621745725457 -187.15865562483012 0.0 0.0
-30.754380293511073 -5.678433826452222 -10.922686638259902 -187.7985893003398 0.0 0.0
-24.167306103738994 19.733220256236706 -1.33893797933706 -184.45912867969574 0.0 0.0
-14.236449806439756 17.233035862363735 0.8975217625298457 -189.5415057193313 0.0 0.0
-6.771545245564816 7.4129256910623695 0.20048394878406528 -207.23955143155456 0.0 0.0
-2.990540904275587 1.106142533028919 -0.5657583643690627 -224.8820475018727 0.0 0.0
-1.0547790622911535 0.07712785103827269 -0.29939414034628875 -227.8885387914335 0.0 0.0
-0.34879759874704774 0.002128588655773811 -0.10943013283142733 -220.13038321440345 0.0 0.0
-0.005051539355079626 -0.0068648040472929495 0.00043043847430368487 -215.49522575927145 0.0 0.0
-0.43228465394159343 0.014556166051736597 -0.1348227965344222 -211.25279941296623 0.0 0.0
-0.9544620195190845 0.16006827084934372 0.22660360334757002 -198.49322314431586 0.0 0.0
-1.9361020849758575 0.8427723513848377 0.4437991134964818 -189.14691056117547 0.0 0.0
-0.3170027583625483 2.5445057627701715 0.9960109109049 -182.1186932663799 0.0 0.0
8.55119677566654 6.543565140937787 2.3546174348414723 -177.12260454515518 0.0 0.0
31.95530956283659 13.98260589634583 6.192312002512423 -172.83138540922698 0.0 0.0
79.88097214534596 26.828552220893727 15.000084097944395 -167.47377470278929 0.0 0.0
167.12818678804098 36.604618752815114 20.619492426064014 -158.281151697496 0.0 0.0
386.9374751245284 -5.936068633290148 36.633318092653255 -153.0211068584297 0.0 0.0
613.368252776442 30.802332193436015 244.52069660963446 -199.7879673878879 0.0 0.0
-668.410645260114 -940.060890276786 -725.5761022551306 3.54418716597138e-11 0.0 0.0
613.3682527763604 30.80233219323722 244.52069660973984 199.78796738769432 0.0 0.0
386.9374751238945 -5.936068635181499 36.633318091491304 153.02110685924475 0.0 0.0
167.12818678828324 36.60461875353096 20.619492426272984 158.28115169793762 0.0 0.0
79.88097214443695 26.828552219364724 15.000084097117721 167.4737747029293 0.0 0.0
31.955309562017092 13.982605895080496 6.19231200173833 172.83138540911136 0.0 0.0
8.55119677636759 6.5435651416675995 2.354617435373939 177.1226045450244 0.0 0.0
-0.31700275806173295 2.5445057633774937 0.996010911159388 182.1186932663583 0.0 0.0
-1.9361020845730792 0.8427723515489873 0.4437991136220063 189.14691056152776 0.0 0.0
-0.9544620187980684 0.160068271253202 0.22660360369413013 198.49322314420067 0.0 0.0
-0.4322846535899103 0.01455616600475551 -0.13482279647966067 211.25279941294735 0.0 0.0
-0.005051538981746262 -0.0068648043196262165 0.000430438497939889 215.4952257591538 0.0 0.0
-0.348797598428078 0.002128588917782892 -0.10943013265667823 220.13038321414462 0.0 0.0
-1.0547790623291569 0.07712785070503303 -0.29939414045416957 227.8885387916016 0.0 0.0
-2.99054090427879 1.10614253292808 -0.5657583644020825 224.88204750164186 0.0 0.0
-6.771545245964958 7.412925690151542 0.2004839483909464 207.23955143138005 0.0 0.0
-14.236449806011318 17.233035863204286 0.8975217629101508 189.54150571912024 0.0 0.0
-24.167306103640463 19.733220256437953 -1.338937979248451 184.45912867949298 0.0 0.0
-30.754380293597062 -5.6784338263844845 -10.922686638268257 187.79858930014177 0.0 0.0
29.867149359100733 -61.436799007865 -8.384621745917672 187.15865562460007 0.0 0.0
-139.07771325686946 -569.076632336546 -220.68512082384694 107.9151428177909 0.0 0.0
-108.85158822912118 -450.53694046789144 -167.9490306146622 -113.26463853741505 0.0 0.0
-7.3740305439290506 -72.39650910372538 -23.90735991173526 -171.45238013209732 0.0 0.0
-55.50759169281267 -5.302448582502655 -18.253682420872273 -186.95695926206804 0.0 0.0
-66.81880147443701 18.217168239524945 -14.593201898423494 -185.98981244868196 0.0 0.0
-77.25167165456347 19.161270578613042 -17.4322941506222 -189.64249089254335 0.0 0.0
-100.09210549405849 11.293803924919407 -26.60275743694203 -204.3028585172237 0.0 0.0
-147.1071520931008 4.713312934867448 -43.006816536245395 -219.82631230661244 0.0 0.0
-228.39035263439814 6.360746173800959 -69.25081998011379 -219.38518113849426 0.0 0.0
-333.9009727034067 12.813400827001654 -106.90386437442311 -201.7842910283343 0.0 0.0
-420.68380970740236 14.731628055944764 -148.70283735146324 -179.36781409410497 0.0 0.0
-479.8662557324209 5.577069542294851 -188.36856467687113 -168.7069225088349 0.0 0.0
-524.8096153169545 -3.3961104567388603 -221.71876482697382 -165.38619763368087 0.0 0.0
-562.733431287778 -10.379287280823107 -249.354096057469 -163.8267619056983 0.0 0.0
-593.8844203745801 -14.76237117183858 -270.2097402004055 -162.830565718186 0.0 0.0
-615.7980734106967 -15.462957609763563 -282.5450023487975 -162.96047699311922 0.0 0.0
-626.3556975760132 -11.135644598967815 -284.00381024233707 -164.9726820229356 0.0 0.0
-623.9730283819629 -1.9029993905867855 -272.5962122603455 -169.4719808640758 0.0 0.0
-616.6635840919243 5.3413454858039415 -250.56878244109336 -178.90934744430908 0.0 0.0
-594.8247492655478 55.73264393691291 -188.52043890079375 -192.81782862416088 0.0 0.0
-321.7980902476711 171.41321079049789 37.71625767458946 -157.16118775920026 0.0 0.0
-1234.4538788652858 -1205.0123158233805 -1249.028471656853 -1.793480919332069e-10 0.0 0.0
-321.79809024785266 171.4132107896818 37.71625767416654 157.161187759866 0.0 0.0
-594.8247492659082 55.73264393626329 -188.52043890080904 192.81782862419118 0.0 0.0
-616.6635840921406 5.341345485476154 -250.5687824411572 178.9093474446417 0.0 0.0
-623.973028381832 -1.9029993904775893 -272.5962122603253 169.47198086410336 0.0 0.0
-626.3556975767128 -11.135644600139315 -284.0038102427775 164.97268202286472 0.0 0.0
-615.7980734104626 -15.4629576095695 -282.5450023486205 162.96047699325064 0.0 0.0
-593.8844203734649 -14.762371170580451 -270.20974019966286 162.83056571810127 0.0 0.0
-562.7334312882946 -10.379287281826741 -249.35409605784852 163.82676190589598 0.0 0.0
-524.8096153154503 -3.3961104549209438 -221.7187648258418 165.38619763351588 0.0 0.0
-479.8662557317585 5.577069542811394 -188.36856467634055 168.7069225086101 0.0 0.0
-420.68380970762917 14.731628054950107 -148.70283735171313 179.36781409431697 0.0 0.0
-333.9009727025558 12.813400827638919 -106.90386437389908 201.7842910284581 0.0 0.0
-228.39035263412094 6.360746173155858 -69.25081998018254 219.38518113857938 0.0 0.0
-147.10715209254474 4.713312935313124 -43.00681653594482 219.82631230646604 0.0 0.0
-100.09210549438478 11.29380392351984 -26.60275743747045 204.3028585168231 0.0 0.0
-77.2516716540448 19.161270579433527 -17.432294150224244 189.64249089234383 0.0 0.0
-66.81880147456205 18.21716823916998 -14.593201898571158 185.98981244853024 0.0 0.0
-55.507591692727445 -5.302448582368664 -18.253682420808424 186.95695926191152 0.0 0.0
-7.374030544001365 -72.39650910393088 -23.907359911816854 171.45238013209413 0.0 0.0
-108.85158822904694 -450.53694046720045 -167.94903061447374 113.2646385372826 0.0 0.0
-91.08430644581593 -344.3204297033534 -130.60801870261076 -106.37299283749121 0.0 0.0
-31.26067749037284 -77.50086006394876 -32.625524016919016 -158.61963354280186 0.0 0.0
-78.69068784152263 -5.177176587145514 -25.146510423459258 -182.96567584986363 0.0 0.0
-107.61666203060528 16.862272653002996 -27.252028483561922 -182.559573052261 0.0 0.0
-139.07526137640838 20.50634630607753 -35.50184173143321 -185.26269624795717 0.0 0.0
-191.81013514892157 14.487521294382145 -53.156537332576846 -195.21282279955216 0.0 0.0
-282.5526049285519 2.5324630428158024 -88.42730246571531 -197.71111603667794 0.0 0.0
-400.28443903772654 -11.15073166049914 -149.05016098111827 -186.60030438818274 0.0 0.0
-503.40294062377563 -21.530615659026935 -220.55701383549012 -171.97415908689823 0.0 0.0
-576.1164501611902 -21.172701505041545 -273.682351415142 -164.18379976109165 0.0 0.0
-629.5774579470219 -22.525581019300844 -310.1543622426098 -158.52732116609712 0.0 0.0
-676.9942527475911 -28.71664748736552 -340.17241775414254 -154.72735191601663 0.0 0.0
-720.645046238181 -37.88613823579345 -368.1009477553975 -151.0069100716007 0.0 0.0
-757.5420172790166 -44.648708101655046 -390.6280156327389 -148.0718472346397 0.0 0.0
-785.2925704950327 -46.44269840967068 -405.7763944275496 -147.0072081931258 0.0 0.0
-800.5742657854073 -40.805531012318625 -410.69799493056024 -148.28750213512208 0.0 0.0
-803.8967191631948 -29.573966932112228 -406.3912187262805 -152.1667759993651 0.0 0.0
-795.6452225317661 -15.195594620428665 -394.4903089712253 -158.56453694975525 0.0 0.0
-746.1553547151682 31.876528276110292 -346.26367990849195 -166.00796698499548 0.0 0.0
-629.665103757791 131.83957539213193 -240.42920319107566 -173.71354886352626 0.0 0.0
-2028.0059122465832 -1503.5981644808646 -1732.7917870866972 4.376232709546457e-11 0.0 0.0
-629.6651037564316 131.83957539324246 -240.42920319013996 173.71354886376872 0.0 0.0
-746.1553547146865 31.87652827655863 -346.2636799082284 166.00796698534575 0.0 0.0
-795.6452225318799 -15.19559462077163 -394.49030897122316 158.56453694995633 0.0 0.0
-803.8967191629819 -29.57396693189729 -406.3912187261392 152.1667759993064 0.0 0.0
-800.5742657853541 -40.80553101240424 -410.6979949304754 148.28750213510273 0.0 0.0
-785.2925704955599 -46.44269841065242 -405.7763944279155 147.00720819330846 0.0 0.0
-757.5420172780213 -44.648708100670774 -390.62801563200924 148.07184723462478 0.0 0.0
-720.6450462375578 -37.88613823551388 -368.10094775502364 151.00691007169215 0.0 0.0
-676.9942527472825 -28.716647487156763 -340.1724177538757 154.7273519159186 0.0 0.0
-629.5774579464096 -22.52558101858805 -310.1543622422096 158.52732116595396 0.0 0.0
-576.1164501609659 -21.172701505288547 -273.6823514149292 164.18379976090162 0.0 0.0
-503.40294062285795 -21.530615658417705 -220.55701383479604 171.97415908694475 0.0 0.0
-400.284439036797 -11.150731659882688 -149.05016098046346 186.60030438820502 0.0 0.0
-282.55260492797424 2.532463043095885 -88.42730246541478 197.71111603658198 0.0 0.0
-191.810135148753 14.487521293988513 -53.15653733265566 195.21282279929142 0.0 0.0
-139.07526137610375 20.50634630640993 -35.50184173124546 185.26269624776447 0.0 0.0
-107.61666203051402 16.862272652939456 -27.25202848355881 182.55957305210626 0.0 0.0
-78.69068784155108 -5.177176587272607 -25.14651042350837 182.96567584975563 0.0 0.0
-31.260677490538182 -77.50086006408559 -32.62552401700874 158.61963354270125 0.0 0.0
-91.08430644582239 -344.32042970291775 -130.60801870248105 106.37299283743671 0.0 0.0
-74.26394982286371 -255.32300869801966 -98.87608755626499 -95.06050213244416 0.0 0.0
-48.148545893117934 -76.22804235021941 -37.31215335231957 -145.0207831261807 0.0 0.0
-100.02021743665912 -5.226626629395623 -31.55757109579098 -174.54983732957663 0.0 0.0
-146.7760300772846 15.584995001178035 -39.321053513094796 -175.23964090027178 0.0 0.0
-198.514928592869 20.422261171037263 -53.34500642402976 -174.3460742577268 0.0 0.0
-279.95327112427657 12.230155810031892 -81.89805806351366 -174.70744445330968 0.0 0.0
-400.43834701176775 -9.855414831135112 -140.99125771956392 -169.54901812468805 0.0 0.0
-518.6051770101169 -32.72543119329799 -226.8136269809218 -157.68618945529542 0.0 0.0
-609.3564676340745 -40.334640363664555 -300.1854830190701 -151.49977353803206 0.0 0.0
-672.4410587437552 -38.68956391316399 -344.0962289688959 -147.43279054862055 0.0 0.0
-723.0799667356828 -42.29615263236195 -375.3709450660123 -143.3432309502674 0.0 0.0
-772.3198579035661 -51.59148565053671 -405.64893258586994 -140.044134179617 0.0 0.0
-820.0165569988706 -63.72224722436597 -436.02996472339385 -136.4231969535937 0.0 0.0
-862.6593476988043 -74.73121717245422 -463.1759967403855 -133.274657009386 0.0 0.0
-896.5022176458326 -80.30420505385419 -483.14576184390125 -131.95615637189107 0.0 0.0
-916.665801039013 -77.06964265540742 -491.75900008966835 -133.5799433591509 0.0 0.0
-921.4812993509497 -63.54318038709053 -487.46669427619383 -138.21578495147907 0.0 0.0
-901.15230252361 -31.731018549368997 -461.4122185168668 -144.04398256663802 0.0 0.0
-844.226218546542 28.227473615159212 -403.5536602429536 -148.54905937839675 0.0 0.0
-684.626131074713 176.78625154874857 -252.66747042643306 -149.91629198286293 0.0 0.0
-2471.6301910004377 -1736.9501541448726 -2079.829623097632 1.4279066817834973e-10 0.0 0.0
-684.6261310730526 176.78625155039242 -252.66747042524736 149.9162919829549 0.0 0.0
-844.2262185473941 28.22747361387168 -403.55366024354714 148.54905937887375 0.0 0.0
-901.1523025240706 -31.731018549979893 -461.41221851715625 144.04398256694515 0.0 0.0
-921.481299350276 -63.54318038645151 -487.466694275794 138.21578495142796 0.0 0.0
-916.6658010380825 -77.0696426546443 -491.7590000890876 133.57994335918525 0.0 0.0
-896.5022176457383 -80.30420505394187 -483.1457618437976 131.95615637193646 0.0 0.0
-862.6593476986671 -74.73121717257588 -463.17599674028384 133.27465700944435 0.0 0.0
-820.0165569978103 -63.722247223439794 -436.02996472277476 136.42319695367107 0.0 0.0
-772.3198579035281 -51.59148565081938 -405.64893258580116 140.0441341796071 0.0 0.0
-723.0799667362977 -42.296152633279284 -375.37094506649277 143.3432309503438 0.0 0.0
-672.4410587427125 -38.689563912302575 -344.0962289682658 147.43279054844461 0.0 0.0
-609.3564676335186 -40.33464036358739 -300.18548301867605 151.4997735382091 0.0 0.0
-518.605177009132 -32.7254311925436 -226.813626980156 157.686189455212 0.0 0.0
-400.43834701139025 -9.855414831186296 -140.99125771929548 169.54901812461569 0.0 0.0
-279.9532711238745 12.230155809856091 -81.89805806343004 174.7074444531646 0.0 0.0
-198.5149285922379 20.422261171748044 -53.34500642364889 174.34607425750437 0.0 0.0
-146.7760300771352 15.5849950012027 -39.32105351304701 175.23964090007232 0.0 0.0
-100.02021743663414 -5.226626629389705 -31.557571095780833 174.54983732946735 0.0 0.0
-48.14854589315054 -76.22804235031441 -37.31215335235877 145.02078312592295 0.0 0.0
-74.26394982268728 -255.32300869765487 -98.87608755610265 95.06050213242283 0.0 0.0
-60.42343675784277 -180.97864581552267 -72.42062477200962 -81.63645330196593 0.0 0.0
-60.92673666445457 -70.24937148104632 -39.35300860100561 -129.509475987851 0.0 0.0
-119.8592688563932 -5.169923879708859 -37.49763264113871 -162.0705960544085 0.0 0.0
-183.6587522283144 13.59118199376703 -50.995858305222576 -162.79068121450575 0.0 0.0
-257.07886390013533 18.781000689039836 -71.3614252426665 -159.09605587098508 0.0 0.0
-366.18794762857516 5.652359890214472 -114.07724727335383 -151.1198743076856 0.0 0.0
-494.6824424258016 -26.654555704293003 -196.70625577965316 -138.98039157368953 0.0 0.0
-606.1230450594444 -48.02647437192234 -291.27922782911554 -133.44884835826394 0.0 0.0
-685.9187344885624 -52.56834574994022 -355.4266330072009 -131.0769982810337 0.0 0.0
-742.3681189915362 -56.17094995574868 -393.38533607932186 -128.1987308155706 0.0 0.0
-795.3397911245827 -61.57598373649395 -424.24465382419544 -126.37534886681912 0.0 0.0
-847.1646380529927 -73.18883869185692 -456.2621435707647 -123.6403271354277 0.0 0.0
-898.7720632825274 -88.92731769184813 -490.14974312964375 -120.32339944285233 0.0 0.0
-947.3443072404693 -104.82578177944146 -522.5817287335412 -117.13814977294402 0.0 0.0
-987.6191043926256 -115.69658677363569 -548.3617562688449 -115.53483431090115 0.0 0.0
-1012.4725015132033 -114.49324611260073 -560.3817024619789 -117.0965754657434 0.0 0.0
-1012.8216871993718 -95.01141890630095 -551.0002701995629 -121.3470561944674 0.0 0.0
-979.7017277065083 -47.237002405159046 -510.7694678274603 -126.42393366057561 0.0 0.0
-893.9779640565621 44.621634178690016 -422.79797578693604 -128.86162352261434 0.0 0.0
-716.1683681124214 213.84612945179643 -251.15642926598503 -127.5393617844881 0.0 0.0
-2822.3810101736563 -1977.9676425970463 -2381.4315577913635 1.5412027210004453e-10 0.0 0.0
-716.1683681113748 213.84612945282083 -251.1564292651179 127.53936178465645 0.0 0.0
-893.9779640562431 44.62163417882013 -422.797975786831 128.8616235227957 0.0 0.0
-979.7017277071454 -47.23700240595437 -510.7694678279319 126.42393366078205 0.0 0.0
-1012.8216871999016 -95.01141890693623 -551.0002702000377 121.34705619450693 0.0 0.0
-1012.4725015129447 -114.49324611241681 -560.3817024618969 117.09657546566554 0.0 0.0
-987.6191043914292 -115.69658677259008 -548.3617562679792 115.53483431087668 0.0 0.0
-947.3443072409268 -104.82578178011414 -522.581728733834 117.13814977299877 0.0 0.0
-898.7720632825957 -88.92731769211598 -490.1497431297844 120.32339944281844 0.0 0.0
-847.1646380525831 -73.18883869167165 -456.26214357047286 123.64032713544105 0.0 0.0
-795.3397911241462 -61.57598373629091 -424.24465382386876 126.37534886668945 0.0 0.0
-742.368118991475 -56.170949956009444 -393.3853360792974 128.1987308155512 0.0 0.0
-685.9187344881498 -52.56834575001258 -355.42663300690697 131.0769982811637 0.0 0.0
-606.123045058365 -48.02647437106684 -291.27922782826965 133.44884835814497 0.0 0.0
-494.682442425545 -26.65455570455198 -196.70625577938756 138.9803915736445 0.0 0.0
-366.1879476279511 5.652359890513173 -114.07724727300103 151.11987430758543 0.0 0.0
-257.0788638998987 18.781000688741997 -71.36142524270406 159.09605587077408 0.0 0.0
-183.65875222817039 13.59118199368353 -50.99585830521854 162.79068121426502 0.0 0.0
-119.85926885611978 -5.169923879181911 -37.49763264089777 162.07059605429225 0.0 0.0
-60.92673666454806 -70.24937148131093 -39.35300860111304 129.50947598766942 0.0 0.0
-60.423436757725646 -180.97864581525778 -72.42062477189498 81.63645330187019 0.0 0.0
-50.16916076501636 -120.6094904157197 -51.23359535422081 -67.43708451977577 0.0 0.0
-70.90905187883038 -60.99108142010836 -39.57003998968162 -111.85472001130896 0.0 0.0
-138.43052063417488 -4.719029737226472 -42.94246473142617 -145.44082062842125 0.0 0.0
-218.77661153280144 11.290004324457987 -62.1523786039731 -146.3807376374673 0.0 0.0
-313.88792774132816 13.354064383395736 -90.77138157907126 -137.1343244725 0.0 0.0
-443.631813449828 -6.461510767378401 -150.57875703270915 -123.19871856812128 0.0 0.0
-571.4621730284466 -41.09084017969782 -249.94347101757495 -112.62577314349676 0.0 0.0
-673.1179208394922 -57.809455534437404 -341.32109122105715 -110.8471561209336 0.0 0.0
-742.2434803081197 -66.34315564434158 -396.70970595129035 -109.33731614207662 0.0 0.0
-801.7240946857995 -71.258658351418 -432.96112308757114 -109.39649255775069 0.0 0.0
-856.2332294929199 -80.15201476087252 -465.4342470991987 -108.2264260182917 0.0 0.0
-911.235189430977 -94.82566389095989 -500.3782922515892 -105.984319153681 0.0 0.0
-966.6341392702636 -113.8788605799493 -537.7128295270348 -103.1500643514834 0.0 0.0
-1020.2100873327745 -133.9944575721576 -574.6645005884667 -100.22176114771509 0.0 0.0
-1067.4057383285751 -150.72072172463936 -606.7762505949137 -98.3126258826394 0.0 0.0
-1096.1225669446162 -152.48148891686515 -622.2687515864684 -98.98903395144285 0.0 0.0
-1091.4353247018087 -124.77542808392752 -606.3397433353791 -102.64671495920481 0.0 0.0
-1039.0204620106342 -56.36320110372887 -546.2779330060714 -106.89999651159603 0.0 0.0
-927.1274855135609 62.30531370563598 -431.6524966843358 -108.74017993723905 0.0 0.0
-741.6249501400848 239.4921061948256 -251.27448351810355 -109.33818148472014 0.0 0.0
-3120.82677848388 -2204.5962866071945 -2647.848387521861 -4.1229242242479813e-11 0.0 0.0
-741.6249501392346 239.49210619551872 -251.27448351747165 109.3381814848542 0.0 0.0
-927.127485512817 62.305313706368125 -431.652496683883 108.74017993736298 0.0 0.0
-1039.0204620109791 -56.363201104163366 -546.2779330063091 106.89999651168762 0.0 0.0
-1091.4353247027534 -124.77542808507599 -606.3397433361015 102.64671495932149 0.0 0.0
-1096.122566945048 -152.48148891739407 -622.2687515867824 98.98903395144393 0.0 0.0
-1067.4057383274278 -150.72072172369727 -606.7762505941372 98.31262588272676 0.0 0.0
-1020.2100873319624 -133.99445757148217 -574.6645005878527 100.22176114763012 0.0 0.0
-966.6341392705224 -113.87886058042156 -537.7128295273254 103.15006435148986 0.0 0.0
-911.2351894305793 -94.82566389082278 -500.37829225133123 105.98431915370968 0.0 0.0
-856.2332294921421 -80.15201476028186 -465.4342470987324 108.22642601821958 0.0 0.0
-801.7240946856674 -71.25865835161594 -432.9611230875623 109.39649255775431 0.0 0.0
-742.2434803077335 -66.34315564422114 -396.709705950969 109.33731614200028 0.0 0.0
-673.1179208390096 -57.80945553413854 -341.32109122060996 110.84715612075412 0.0 0.0
-571.4621730275699 -41.09084017920488 -249.94347101683363 112.62577314342474 0.0 0.0
-443.6318134490791 -6.461510766912319 -150.57875703220927 123.19871856800896 0.0 0.0
-313.8879277410606 13.354064383102676 -90.77138157908152 137.13432447238776 0.0 0.0
-218.77661153270844 11.290004324447475 -62.152378603950595 146.38073763724947 0.0 0.0
-138.43052063398628 -4.719029736973988 -42.942464731292574 145.44082062828988 0.0 0.0
-70.90905187880804 -60.991081420240604 -39.57003998971459 111.85472001123682 0.0 0.0
-50.16916076490369 -120.60949041552053 -51.23359535412726 67.43708451964642 0.0 0.0
-43.31349952967252 -73.82167002819607 -35.14055086736057 -52.937618407915174 0.0 0.0
-78.64177711257216 -49.79532004516689 -38.531129147321714 -92.20292730266513 0.0 0.0
-155.86434133499068 -3.733397019033811 -47.87982900468088 -124.72503680997897 0.0 0.0
-252.53811923628805 7.708277846611252 -73.36089608114116 -125.1537371155378 0.0 0.0
-372.72850672387165 6.349197873816353 -111.90817897760215 -112.24509446588075 0.0 0.0
-507.87701530140174 -23.133454358926063 -190.51906975985491 -93.05472223528312 0.0 0.0
-633.1567619487569 -50.71932872694646 -296.4501479287124 -88.78964194629484 0.0 0.0
-721.1480158879248 -67.94629538708122 -379.48040037457923 -88.08518597963001 0.0 0.0
-791.7727721149188 -77.54988458324566 -430.07087227257284 -88.8788519159604 0.0 0.0
-852.3762115126417 -86.5108754189041 -467.1431634849195 -89.67080850798685 0.0 0.0
-910.2497366553805 -98.93598764215236 -502.6678864884327 -89.04451678364654 0.0 0.0
-968.492710701124 -116.54026017599261 -540.6456757653098 -87.33776112001142 0.0 0.0
-1027.1377042776112 -138.27327868672262 -580.8997520192686 -85.12023570440445 0.0 0.0
-1084.4199377709058 -162.32723589355 -621.6180405124487 -82.65680373277573 0.0 0.0
-1136.8461386650447 -183.2531137108198 -658.3868477710041 -80.49592482462188 0.0 0.0
-1171.0957559336653 -188.86340703409562 -678.561217860474 -79.97907179889319 0.0 0.0
-1163.2460698556035 -157.03915694181896 -659.0995018685358 -82.24799820719322 0.0 0.0
-1092.5474735572134 -68.79763624314046 -580.024129144952 -86.14413698416156 0.0 0.0
-956.0579901794041 75.20985503792127 -440.2142503915991 -89.59820484337997 0.0 0.0
-757.837781721447 264.49220400230513 -246.8846124792084 -94.09247606464406 0.0 0.0
-3378.0662683627866 -2408.8817682244376 -2881.4546605233145 5.341860287444433e-11 0.0 0.0
-757.837781721016 264.4922040026686 -246.88461247895958 94.09247606476768 0.0 0.0
-956.0579901797427 75.20985503755091 -440.21425039191354 89.59820484338968 0.0 0.0
-1092.5474735571117 -68.7976362431606 -580.0241291448696 86.14413698426132 0.0 0.0
-1163.2460698558473 -157.03915694219552 -659.0995018687526 82.24799820729898 0.0 0.0
-1171.095755933466 -188.8634070340623 -678.5612178602728 79.97907179894587 0.0 0.0
-1136.846138664938 -183.25311371090805 -658.3868477709632 80.49592482478425 0.0 0.0
-1084.4199377695013 -162.3272358922834 -621.6180405113967 82.65680373269204 0.0 0.0
-1027.1377042772692 -138.273278686568 -580.899752019127 85.12023570436247 0.0 0.0
-968.4927107006374 -116.54026017565216 -540.645675764946 87.33776111984783 0.0 0.0
-910.2497366554518 -98.93598764252447 -502.66788648856243 89.04451678357667 0.0 0.0
-852.3762115119072 -86.51087541846817 -467.1431634845417 89.67080850803612 0.0 0.0
-791.77277211376 -77.54988458238142 -430.0708722717731 88.87885191589785 0.0 0.0
-721.1480158879057 -67.94629538754252 -379.48040037447754 88.0851859798033 0.0 0.0
-633.1567619477216 -50.71932872618495 -296.4501479278656 88.78964194627001 0.0 0.0
-507.8770153007879 -23.133454358707873 -190.51906975940977 93.05472223523724 0.0 0.0
-372.7285067234095 6.349197873982105 -111.90817897740192 112.24509446578425 0.0 0.0
-252.53811923636155 7.708277846187093 -73.36089608129919 125.15373711538288 0.0 0.0
-155.86434133496434 -3.7333970191474504 -47.87982900470699 124.72503680991726 0.0 0.0
-78.64177711254068 -49.79532004505308 -38.53112914727813 92.2029273026111 0.0 0.0
-43.31349952979927 -73.82167002819567 -35.140550867398474 52.937618407766344 0.0 0.0
-39.199427679730974 -40.3508204640993 -23.865074443149076 -38.54282421839508 0.0 0.0
-84.06190447266596 -37.864228600626184 -36.57783992198764 -70.78853251279887 0.0 0.0
-172.0146493678682 -2.360745292456007 -52.31283887580154 -99.76337508434943 0.0 0.0
-286.52032392197236 2.9527331001475616 -84.94042590213317 -99.36686183818955 0.0 0.0
-428.7126420297003 -4.69484648187729 -136.12285953376326 -82.61577628447813 0.0 0.0
-567.536844096205 -35.524215498505164 -230.212926086074 -67.66039805275007 0.0 0.0
-677.8894011610423 -59.324436894277525 -335.18067775888295 -66.29842338354811 0.0 0.0
-761.6603592061906 -75.65025643295516 -409.0050863319568 -66.41010589632245 0.0 0.0
-833.642327037165 -89.17335576007167 -458.52303302782445 -67.97429422548052 0.0 0.0
-897.5878121298572 -101.95524507279221 -498.17249631985334 -69.14376909901807 0.0 0.0
-958.7962777191631 -117.86498432450637 -536.959867882307 -68.94354452406654 0.0 0.0
-1020.526522740445 -138.5370546503297 -578.1934628758253 -67.7636105925351 0.0 0.0
-1082.0941507570944 -163.29628444427584 -621.4051643854423 -66.14690662103784 0.0 0.0
-1141.5523367315286 -188.16609153868916 -663.5934870159655 -64.39186666003103 0.0 0.0
-1195.942641543331 -211.0585330240006 -702.2737792028843 -62.31916720248682 0.0 0.0
-1236.002002546691 -222.1465720455273 -728.0341612276853 -60.476757710267606 0.0 0.0
-1234.4579711637105 -194.99626623228258 -714.0841348980025 -60.76271520174063 0.0 0.0
-1152.7337894597124 -94.39937900698453 -623.3705544227366 -64.52714416972557 0.0 0.0
-987.2502537552286 79.29878917625697 -454.09917316634215 -70.85996936941933 0.0 0.0
-760.736211219102 297.2069831188357 -231.97391098878273 -80.32861211378878 0.0 0.0
-3594.336885873928 -2581.4555844745405 -3078.0970395786867 1.0837197805813048e-10 0.0 0.0
-760.7362112190874 297.2069831187923 -231.9739109888414 80.32861211398445 0.0 0.0
-987.2502537557143 79.29878917565838 -454.09917316673904 70.85996936953956 0.0 0.0
-1152.733789459247 -94.39937900655934 -623.3705544224533 64.52714416973744 0.0 0.0
-1234.457971163582 -194.99626623231805 -714.0841348978834 60.76271520185981 0.0 0.0
-1236.0020025463787 -222.1465720453587 -728.0341612273875 60.47675771035278 0.0 0.0
-1195.942641543511 -211.0585330243613 -702.2737792029897 62.31916720251018 0.0 0.0
-1141.552336730404 -188.1660915377644 -663.5934870151539 64.39186666010741 0.0 0.0
-1082.0941507576822 -163.29628444504905 -621.4051643858915 66.14690662098728 0.0 0.0
-1020.5265227394707 -138.53705464963687 -578.1934628751987 67.76361059255835 0.0 0.0
-958.7962777187254 -117.86498432435931 -536.9598678820814 68.94354452416425 0.0 0.0
-897.5878121297063 -101.9552450729246 -498.1724963197563 69.1437690990704 0.0 0.0
-833.6423270358898 -89.17335575911368 -458.52303302699937 67.97429422551558 0.0 0.0
-761.6603592059007 -75.65025643302522 -409.00508633172063 66.41010589644884 0.0 0.0
-677.8894011600743 -59.32443689355089 -335.18067775806514 66.29842338335285 0.0 0.0
-567.5368440953048 -35.52421549793088 -230.21292608539346 67.66039805275308 0.0 0.0
-428.71264202905303 -4.694846481515545 -136.12285953339745 82.61577628429876 0.0 0.0
-286.52032392166007 2.952733100107971 -84.9404259020772 99.36686183824992 0.0 0.0
-172.01464936780667 -2.360745292492332 -52.31283887579367 99.76337508427841 0.0 0.0
-84.061904472576 -37.86422860044185 -36.57783992190536 70.78853251278645 0.0 0.0
-39.19942767970461 -40.35082046404146 -23.865074443123817 38.54282421845342 0.0 0.0
-36.591194464640004 -19.8110818518839 -16.920682894957167 -25.035169183694563 0.0 0.0
-86.45726542198503 -26.426643273823117 -33.86517260874244 -47.91691042062094 0.0 0.0
-186.5518571577311 -1.1294182397383459 -56.304382619240826 -70.0118239658023 0.0 0.0
-322.3355713407064 -2.578140708681024 -97.24758535614086 -68.49864082473111 0.0 0.0
-480.3706336631637 -18.8748635122692 -163.90026810232357 -51.83026933719058 0.0 0.0
-615.0900526806099 -45.0140012347715 -267.609527655302 -44.51263698588385 0.0 0.0
-710.9820015092114 -65.87059466685294 -365.06656637649456 -44.324799402821114 0.0 0.0
-796.3765460027151 -84.06942818653701 -434.02087335545014 -45.198546613581996 0.0 0.0
-870.7536396437937 -101.41436360267298 -484.12761580349695 -46.64836966801269 0.0 0.0
-938.1444358870215 -117.75953096502793 -526.7957965523246 -47.81523044740883 0.0 0.0
-1003.1289305773417 -136.98877700848584 -569.0767228335367 -47.967947444928654 0.0 0.0
-1067.9903290135815 -160.6960918303593 -613.3948450134905 -47.304646365224365 0.0 0.0
-1132.6022131887678 -187.21138450770977 -658.9892427631482 -46.37170537324303 0.0 0.0
-1193.4063436615209 -213.82545215779203 -702.7315040314679 -45.2273285460781 0.0 0.0
-1246.83821710878 -235.20865426144826 -740.1768941290939 -43.62773672381661 0.0 0.0
-1286.36914253577 -245.33559630247146 -765.0920486744174 -41.32608201430053 0.0 0.0
-1298.52367856358 -231.45617075809 -764.4669543421778 -39.48422146555226 0.0 0.0
-1240.957790559703 -153.64351209097617 -697.2638385285156 -41.69224856232735 0.0 0.0
-1039.144933687285 58.13423308406368 -490.904493753819 -51.02621825740911 0.0 0.0
-736.2826578393464 353.78173303886655 -191.5537479781158 -66.8834766499248 0.0 0.0
-3756.0378942589286 -2704.8846765334024 -3222.4911486797296 -2.2794210963184014e-11 0.0 0.0
-736.2826578387827 353.7817330393607 -191.5537479778019 66.88347665002115 0.0 0.0
-1039.1449336876613 58.13423308361492 -490.9044937542208 51.02621825748369 0.0 0.0
-1240.9577905588862 -153.64351209024824 -697.263838527969 41.69224856232293 0.0 0.0
-1298.5236785641648 -231.45617075880918 -764.4669543425072 39.4842214656372 0.0 0.0
-1286.3691425350482 -245.3355963019074 -765.0920486739006 41.326082014359216 0.0 0.0
-1246.838217108052 -235.20865426089145 -740.17689412861 43.627736723846965 0.0 0.0
-1193.4063436617796 -213.82545215822432 -702.7315040315895 45.22732854615495 0.0 0.0
-1132.6022131891789 -187.21138450837526 -658.989242763428 46.37170537316903 0.0 0.0
-1067.9903290128832 -160.69609182986994 -613.3948450130451 47.304646365215106 0.0 0.0
-1003.1289305767733 -136.98877700818755 -569.0767228331928 47.96794744489523 0.0 0.0
-938.1444358865305 -117.75953096482738 -526.7957965519441 47.815230447339 0.0 0.0
-870.7536396432129 -101.41436360240692 -484.1276158031253 46.64836966809377 0.0 0.0
-796.3765460024387 -84.06942818658872 -434.0208733552241 45.19854661360303 0.0 0.0
-710.9820015086106 -65.87059466647659 -365.0665663759205 44.324799402566434 0.0 0.0
-615.0900526801993 -45.01400123476276 -267.60952765489077 44.51263698591301 0.0 0.0
-480.3706336627804 -18.874863512302557 -163.90026810210935 51.83026933702584 0.0 0.0
-322.33557134019765 -2.5781407084506087 -97.24758535593914 68.49864082477791 0.0 0.0
-186.55185715737107 -1.1294182395736585 -56.3043826190834 70.01182396565433 0.0 0.0
-86.45726542175731 -26.426643273673537 -33.86517260862925 47.91691042058376 0.0 0.0
-36.59119446452207 -19.81108185179353 -16.920682894894682 25.035169183644886 0.0 0.0
-33.142702325914456 -11.15122552681302 -13.288178355818243 -14.090547083905538 0.0 0.0
-84.33132245602829 -17.193435790571325 -30.457427473979877 -24.01159044924058 0.0 0.0
-199.02181079167386 -1.0844462463339797 -60.031877111402366 -34.0674890830939 0.0 0.0
-359.9765804514727 -7.994487466717224 -110.67150192223545 -32.1316006753712 0.0 0.0
-530.3616516416495 -30.75977175076081 -193.49105196969248 -23.407275696869693 0.0 0.0
-649.7738415570064 -51.923394970451795 -300.141491750794 -23.110473882766144 0.0 0.0
-740.3827712659379 -70.34237713740782 -388.7457596681741 -23.85682504580075 0.0 0.0
-826.3150554175161 -92.98535186155299 -455.5354489121813 -24.265708021795852 0.0 0.0
-903.7612185551372 -113.85658755591751 -507.36977333397465 -24.950755601869705 0.0 0.0
-974.9751273653374 -134.18135362548958 -553.733337857174 -25.730555495199578 0.0 0.0
-1043.4437218604135 -156.46312586167718 -599.2659096960582 -26.094081294274734 0.0 0.0
-1111.5527995545508 -182.258653496411 -646.254173662942 -26.037730236062107 0.0 0.0
-1178.6152435802724 -211.44515922422954 -694.4042090724253 -25.67885375740071 0.0 0.0
-1241.1708858583538 -238.64557806394563 -739.3161470409507 -25.142092590046474 0.0 0.0
-1292.2469273354823 -257.3295650196053 -774.2505083945019 -24.232423692556168 0.0 0.0
-1325.663982648092 -261.40306502654414 -793.0660574901517 -22.492089100572645 0.0 0.0
-1339.1422972156129 -249.11180966156024 -793.696206441727 -19.96485420728832 0.0 0.0
-1329.6585379543 -218.70329823851645 -773.8877953721983 -19.217858428241225 0.0 0.0
-1209.2000739683167 -85.40652374411806 -647.6581369568398 -27.326221671278624 0.0 0.0
-711.0751139464726 409.4376619487262 -151.47160390968367 -50.50120354736564 0.0 0.0
-3703.3157868196754 -2615.983868614803 -3153.5585538963646 -5.446310069601168e-12 0.0 0.0
-711.0751139446763 409.43766195048664 -151.47160390845926 50.50120354737852 0.0 0.0
-1209.2000739678194 -85.40652374367615 -647.6581369565895 27.326221671331055 0.0 0.0
-1329.6585379542878 -218.70329823858174 -773.8877953722125 19.217858428194653 0.0 0.0
-1339.1422972164464 -249.11180966255588 -793.6962064423898 19.964854207338476 0.0 0.0
-1325.6639826473654 -261.40306502594166 -793.0660574896558 22.492089100627226 0.0 0.0
-1292.246927333895 -257.32956501816943 -774.2505083933883 24.23242369258177 0.0 0.0
-1241.1708858597967 -238.64557806559102 -739.3161470418853 25.142092590017334 0.0 0.0
-1178.6152435795827 -211.4451592237599 -694.4042090720033 25.678853757354386 0.0 0.0
-1111.5527995543398 -182.2586534964654 -646.2541736627871 26.037730236117095 0.0 0.0
-1043.4437218596136 -156.46312586114743 -599.2659096955354 26.094081294383233 0.0 0.0
-974.9751273649531 -134.18135362535992 -553.7333378568864 25.73055549515813 0.0 0.0
-903.7612185548121 -113.85658755586695 -507.36977333377376 24.950755601739544 0.0 0.0
-826.3150554170281 -92.98535186136998 -455.53544891179956 24.265708021716353 0.0 0.0
-740.3827712658965 -70.34237713767914 -388.74575966801734 23.856825045681298 0.0 0.0
-649.7738415569753 -51.923394970834686 -300.1414917505584 23.1104738826938 0.0 0.0
-530.3616516411859 -30.759771750761956 -193.49105196937043 23.407275696764668 0.0 0.0
-359.97658045096364 -7.994487466550731 -110.67150192204932 32.13160067536247 0.0 0.0
-199.0218107915436 -1.0844462463930364 -60.031877111381 34.06748908302516 0.0 0.0
-84.3313224560885 -17.193435790618018 -30.45742747401196 24.011590449249717 0.0 0.0
-33.1427023260201 -11.15122552683201 -13.288178355855631 14.090547083725854 0.0 0.0
-21.761131657311104 -5.711480893130887 -8.241783765132597 -8.609004302268946 0.0 0.0
-73.60118599033174 -9.838506004137328 -25.031907598340716 -9.980672608735663 0.0 0.0
-208.80485016999742 -3.288527780565353 -63.62801338516882 -11.252252477621193 0.0 0.0
-405.4975783471657 -26.437183211128556 -131.97710150231913 -7.562480370554706 0.0 0.0
-601.8405983152393 -78.32969597655148 -244.03389009453207 0.35964455620256786 0.0 0.0
-745.8830041241503 -130.1424259922092 -381.4623189020814 1.4244608776123364 0.0 0.0
-873.8060463905099 -188.70240851662646 -505.7947863855454 0.555484737947129 0.0 0.0
-1009.3107302080823 -262.403633358228 -621.5706173807217 -0.9670171838075596 0.0 0.0
-1152.6937848370526 -349.9930056222944 -739.707499227131 -2.6818577139809623 0.0 0.0
-1312.686410945439 -458.81192882366884 -874.5449764238897 -4.51010561994423 0.0 0.0
-1495.306033486233 -594.5823841811235 -1033.527288188871 -6.216847871381708 0.0 0.0
-1700.903771187995 -757.9696269580786 -1217.6182851165727 -7.554423090627351 0.0 0.0
-1923.2156343661425 -941.3554769627002 -1420.0515928240804 -8.442982736249405 0.0 0.0
-2151.422200330469 -1133.7585665014485 -1630.031843306862 -9.14344297096844 0.0 0.0
-2368.586866061136 -1318.1750885479216 -1830.606817040259 -9.453901066572406 0.0 0.0
-2551.539488659437 -1471.6959776486406 -1998.7683954053693 -9.076164379978024 0.0 0.0
-2673.4480814209237 -1568.185297580317 -2107.9779205305117 -7.640099863434298 0.0 0.0
-2723.651730846143 -1597.783610688929 -2147.518374472339 -6.2314898507167165 0.0 0.0
-2784.2691409710083 -1643.9643494629595 -2199.499264996337 -13.056246419189215 0.0 0.0
-2872.5509662137943 -1730.8731167571998 -2284.6847692379665 -40.324217063053794 0.0 0.0
-6391.633716364955 -5276.385654344054 -5810.108569032698 7.30437932361383e-12 0.0 0.0
-2872.5509662110258 -1730.8731167544229 -2284.6847692359343 40.324217063011254 0.0 0.0
-2784.2691409684776 -1643.9643494604798 -2199.499264994218 13.05624641920658 0.0 0.0
-2723.651730846641 -1597.7836106895538 -2147.5183744723836 6.231489850757356 0.0 0.0
-2673.448081420468 -1568.1852975800082 -2107.9779205300692 7.640099863608704 0.0 0.0
-2551.5394886585664 -1471.6959776478918 -1998.7683954044758 9.076164379943442 0.0 0.0
-2368.5868660583646 -1318.1750885452916 -1830.6068170379933 9.453901066546976 0.0 0.0
-2151.422200330977 -1133.758566502194 -1630.0318433068883 9.143442970852476 0.0 0.0
-1923.2156343647496 -941.3554769615166 -1420.0515928229497 8.44298273622524 0.0 0.0
-1700.9037711865913 -757.9696269569208 -1217.6182851154294 7.554423090647571 0.0 0.0
-1495.3060334851825 -594.5823841803394 -1033.5272881878996 6.2168478714313835 0.0 0.0
-1312.6864109465291 -458.81192882508157 -874.5449764243458 4.510105620020433 0.0 0.0
-1152.693784836741 -349.99300562227234 -739.7074992267655 2.6818577136974113 0.0 0.0
-1009.3107302068815 -262.4036333573731 -621.5706173798203 0.9670171837001185 0.0 0.0
-873.8060463900596 -188.70240851645724 -505.7947863850709 -0.5554847378722769 0.0 0.0
-745.8830041238975 -130.14242599234166 -381.4623189016667 -1.4244608776582837 0.0 0.0
-601.8405983139878 -78.32969597555048 -244.03389009363508 -0.359644556117523 0.0 0.0
-405.49757834652183 -26.437183210753897 -131.97710150198787 7.562480370466183 0.0 0.0
-208.8048501697031 -3.2885277805546593 -63.628013385077324 11.252252477572775 0.0 0.0
-73.6011859901507 -9.838506004115125 -25.03190759827974 9.980672608803252 0.0 0.0
-21.76113165726062 -5.711480893082153 -8.24178376510283 8.609004302364337 0.0 0.0
SCALARS Strain float 6
LOOKUP_TABLE default
0.014965628680388372 -0.024792290578375148 0.0 -0.0015258085513668493 0.0 0.0
0.009200131581259565 -0.0028246344705409616 0.0 -0.007504969449283998 0.0 0.0
0.0027107985612019906 -0.0006271326069596466 0.0 -0.0009149904048469386 0.0 0.0
0.0022942174718686725 -0.0009111786306782038 0.0 1.787642429002947e-05 0.0 0.0
0.003449053977011279 -0.0015301267478347682 0.0 0.00021066146406986626 0.0 0.0
0.005979584076194942 -0.0034552074337461302 0.0 0.00038052140767989287 0.0 0.0
0.010374094962898438 -0.007232157382704997 0.0 0.0005028467017613144 0.0 0.0
0.01701043755391153 -0.013225737933905916 0.0 0.0005438123467693525 0.0 0.0
0.026182451470081525 -0.021697995620507976 0.0 0.0005003713231864855 0.0 0.0
0.037993019524162244 -0.03269567433024749 0.0 0.000340367002089215 0.0 0.0
0.05235057172115162 -0.04609197469246419 0.0 9.607205884207693e-05 0.0 0.0
0.06904806172664268 -0.06167788949150235 0.0 -0.00022154881003576244 0.0 0.0
0.08783010912030983 -0.07923454684698829 0.0 -0.0006285904191799484 0.0 0.0
0.1084231800243258 -0.0985336109996098 0.0 -0.0010792406560291693 0.0 0.0
0.13046138339880536 -0.11926707907157949 0.0 -0.001598053542501581 0.0 0.0
0.15334043938100525 -0.14089680577081024 0.0 -0.0021594775803241476 0.0 0.0
0.17612319956738623 -0.1625537560770704 0.0 -0.0026492513779075794 0.0 0.0
0.19754085980057595 -0.18303644131642155 0.0 -0.002882799500837324 0.0 0.0
0.21611501658768123 -0.20087596936497587 0.0 -0.0027081033737632616 0.0 0.0
0.2300215733179533 -0.21433336128144426 0.0 -0.003198784432479957 0.0 0.0
0.23554402150234915 -0.21991151916482743 0.0 4.3680337125096e-15 0.0 0.0
0.2300215733179225 -0.21433336128141434 0.0 0.003198784432490656 0.0 0.0
0.21611501658761567 -0.20087596936490776 0.0 0.0027081033737725267 0.0 0.0
0.19754085980048205 -0.1830364413163335 0.0 0.002882799500841535 0.0 0.0
0.1761231995672772 -0.16255375607697548 0.0 0.002649251377905344 0.0 0.0
0.15334043938089098 -0.14089680577069438 0.0 0.002159477580319015 0.0 0.0
0.13046138339869087 -0.11926707907147252 0.0 0.0015980535425024816 0.0 0.0
0.108423180024212 -0.09853361099950486 0.0 0.0010792406560269086 0.0 0.0
0.08783010912019878 -0.07923454684688669 0.0 0.0006285904191752944 0.0 0.0
0.06904806172654025 -0.06167788949140732 0.0 0.00022154881003123026 0.0 0.0
0.05235057172106353 -0.04609197469236921 0.0 -9.607205884537215e-05 0.0 0.0
0.03799301952409096 -0.032695674330191035 0.0 -0.0003403670020885952 0.0 0.0
0.02618245147002774 -0.021697995620451924 0.0 -0.0005003713231850682 0.0 0.0
0.017010437553872493 -0.01322573793387712 0.0 -0.000543812346770665 0.0 0.0
0.010374094962872343 -0.007232157382681292 0.0 -0.0005028467017601894 0.0 0.0
0.005979584076180673 -0.003455207433738305 0.0 -0.000380521407678594 0.0 0.0
0.003449053977005799 -0.001530126747834107 0.0 -0.00021066146407131746 0.0 0.0
0.002294217471867112 -0.0009111786306766978 0.0 -1.787642429088894e-05 0.0 0.0
0.0027107985611995776 -0.0006271326069583361 0.0 0.0009149904048426567 0.0 0.0
0.009200131581253516 -0.0028246344705379995 0.0 0.007504969449276323 0.0 0.0
0.014965628680379916 -0.02479229057835009 0.0 0.0015258085513169366 0.0 0.0
0.010513698448232009 -0.0222627774013395 0.0 -0.0010571598830440966 0.0 0.0
0.00614772499891723 -0.0021166038629121843 0.0 -0.006162918228320729 0.0 0.0
0.0017697721553681114 -0.0004740466484648403 0.0 -0.0005771392048165524 0.0 0.0
0.0020159878082934156 -0.0008561107487421352 0.0 -0.00018826196694858005 0.0 0.0
0.002958528172975908 -0.0013714187871013098 0.0 -0.00014817622609134345 0.0 0.0
0.005112330858935281 -0.003094396432914551 0.0 -0.00024083909629310399 0.0 0.0
0.009022320053310126 -0.006613736204432628 0.0 -0.000572142547225901 0.0 0.0
0.015042289018608896 -0.012291300251089208 0.0 -0.0011031200300832564 0.0 0.0
0.023408264989586914 -0.02035815027870637 0.0 -0.0018536594308350002 0.0 0.0
0.034155554253224536 -0.03082652323567555 0.0 -0.00279284941017255 0.0 0.0
0.04715646196515222 -0.04355082242021529 0.0 -0.003829108563772098 0.0 0.0
0.06221586628514765 -0.05832479937326793 0.0 -0.004889073524702355 0.0 0.0
0.07914068250287334 -0.07495618092362007 0.0 -0.005976109546847597 0.0 0.0
0.09771426751569891 -0.09324973527873277 0.0 -0.007092425717648841 0.0 0.0
0.1176189193107401 -0.11291915081892226 0.0 -0.008201580408581165 0.0 0.0
0.13833154190424513 -0.1334679228679218 0.0 -0.009198614777940546 0.0 0.0
0.15903336852834343 -0.15409317977989204 0.0 -0.009830753616793156 0.0 0.0
0.17859691582000542 -0.17366389042992247 0.0 -0.009757347247920902 0.0 0.0
0.19554963864608235 -0.19073670171852566 0.0 -0.008822687714976574 0.0 0.0
0.2077200902885839 -0.2033858105492701 0.0 -0.007853369288728068 0.0 0.0
0.21227552640621655 -0.2086793008671687 0.0 8.89392726133309e-15 0.0 0.0
0.2077200902885544 -0.20338581054924432 0.0 0.00785336928875115 0.0 0.0
0.19554963864602337 -0.19073670171846321 0.0 0.008822687714997602 0.0 0.0
0.1785969158199236 -0.17366389042983776 0.0 0.009757347247934825 0.0 0.0
0.1590333685282482 -0.15409317977980233 0.0 0.009830753616795942 0.0 0.0
0.1383315419041437 -0.1334679228678152 0.0 0.009198614777935592 0.0 0.0
0.11761891931063675 -0.11291915081882367 0.0 0.008201580408577602 0.0 0.0
0.09771426751559638 -0.09324973527863004 0.0 0.007092425717644049 0.0 0.0
0.07914068250277363 -0.07495618092352298 0.0 0.005976109546839362 0.0 0.0
0.06221586628505557 -0.05832479937317743 0.0 0.00488907352469572 0.0 0.0
0.04715646196507289 -0.04355082242013216 0.0 0.003829108563761965 0.0 0.0
0.034155554253159616 -0.030826523235615425 0.0 0.0027928494101671173 0.0 0.0
0.023408264989537377 -0.020358150278658664 0.0 0.001853659430834055 0.0 0.0
0.015042289018573695 -0.012291300251059338 0.0 0.0011031200300776474 0.0 0.0
0.009022320053287784 -0.0066137362044096995 0.0 0.0005721425472244954 0.0 0.0
0.005112330858923457 -0.0030943964329077658 0.0 0.00024083909629247894 0.0 0.0
0.002958528172971209 -0.0013714187871016487 0.0 0.00014817622608876625 0.0 0.0
0.0020159878082923223 -0.0008561107487416504 0.0 0.00018826196694829526 0.0 0.0
0.0017697721553681929 -0.00047404664846293243 0.0 0.0005771392048135499 0.0 0.0
0.0061477249989101415 -0.0021166038629088875 0.0 0.006162918228310033 0.0 0.0
0.010513698448217585 -0.02226277740131311 0.0 0.0010571598830063627 0.0 0.0
0.0077341041326617 -0.01780755313464786 0.0 -0.004155811386394083 0.0 0.0
0.004375802061245805 -0.0011849337792645834 0.0 -0.006258475813505589 0.0 0.0
0.0012250780999929682 -0.0002482971426739382 0.0 -0.0005139063241641071 0.0 0.0
0.0017028823172618827 -0.0007225169801062382 0.0 -0.0004792587483481419 0.0 0.0
0.0025141667311944244 -0.001096260742383336 0.0 -0.0004957487979116658 0.0 0.0
0.004291867930003282 -0.0024148616036507283 0.0 -0.0006719590360225725 0.0 0.0
0.007688021163093341 -0.005398195266059485 0.0 -0.0013058634078512276 0.0 0.0
0.013057486541303367 -0.010427400479913394 0.0 -0.002331788161840198 0.0 0.0
0.020572761901307222 -0.017660171725919233 0.0 -0.003763676740042695 0.0 0.0
0.030222560226541795 -0.027054493824340074 0.0 -0.00551028748129672 0.0 0.0
0.04185216866738203 -0.038426904941664015 0.0 -0.007405356246565629 0.0 0.0
0.055274133290728944 -0.05157845322018728 0.0 -0.009302753770711672 0.0 0.0
0.07033015205088848 -0.06635769153106594 0.0 -0.011179509708379592 0.0 0.0
0.0868634616119407 -0.08262792446797323 0.0 -0.013090358547915903 0.0 0.0
0.10462165921307853 -0.1001605774351074 0.0 -0.014993670833708596 0.0 0.0
0.12317116435848409 -0.11854612812550416 0.0 -0.016680482005753387 0.0 0.0
0.14182954536075926 -0.13711704215261278 0.0 -0.017745918911313687 0.0 0.0
0.1595808664519597 -0.15487920469196761 0.0 -0.017691357160337456 0.0 0.0
0.17493654319319113 -0.1704180520548106 0.0 -0.016249490695567033 0.0 0.0
0.18596922459561077 -0.18173769567841427 0.0 -0.013497114862047337 0.0 0.0
0.1901446018757177 -0.18677116058131765 0.0 1.5361843741512615e-14 0.0 0.0
0.1859692245955839 -0.18173769567838552 0.0 0.013497114862089616 0.0 0.0
0.17493654319313864 -0.17041805205476113 0.0 0.016249490695607303 0.0 0.0
0.15958086645188863 -0.15487920469189317 0.0 0.01769135716036172 0.0 0.0
0.14182954536067588 -0.13711704215252815 0.0 0.017745918911317254 0.0 0.0
0.12317116435839359 -0.11854612812541304 0.0 0.016680482005746258 0.0 0.0
0.10462165921298572 -0.10016057743501901 0.0 0.014993670833702247 0.0 0.0
0.08686346161184862 -0.08262792446788104 0.0 0.013090358547910439 0.0 0.0
0.07033015205080032 -0.06635769153098044 0.0 0.011179509708368354 0.0 0.0
0.05527413329064764 -0.05157845322010477 0.0 0.009302753770698615 0.0 0.0
0.04185216866731102 -0.03842690494159649 0.0 0.0074053562465503965 0.0 0.0
0.03022256022648398 -0.027054493824280677 0.0 0.005510287481284513 0.0 0.0
0.02057276190126267 -0.017660171725880355 0.0 0.0037636767400359853 0.0 0.0
0.013057486541271424 -0.010427400479886197 0.0 0.0023317881618318296 0.0 0.0
0.007688021163073705 -0.005398195266041536 0.0 0.0013058634078472698 0.0 0.0
0.004291867929993508 -0.0024148616036440296 0.0 0.0006719590360204774 0.0 0.0
0.0025141667311912906 -0.0010962607423835827 0.0 0.0004957487979107837 0.0 0.0
0.0017028823172613706 -0.0007225169801070722 0.0 0.0004792587483494013 0.0 0.0
0.0012250780999930688 -0.0002482971426737528 0.0 0.0005139063241643363 0.0 0.0
0.004375802061239238 -0.001184933779260928 0.0 0.00625847581348965 0.0 0.0
0.007734104132648007 -0.017807553134621 0.0 0.0041558113863710685 0.0 0.0
0.005861038259819538 -0.014366232126942883 0.0 -0.004595045334908425 0.0 0.0
0.003240174435827833 -0.0008532219352219946 0.0 -0.005712913409081081 0.0 0.0
0.0008696935723156852 -0.00013813911714949184 0.0 -0.0007949636767250746 0.0 0.0
0.0014013285703732056 -0.0005712090405376594 0.0 -0.0007754143010607437 0.0 0.0
0.0021101993270575712 -0.000885884661607914 0.0 -0.0008267913902771539 0.0 0.0
0.003537163095883391 -0.001838613330912336 0.0 -0.0010372602959832162 0.0 0.0
0.006394371258965455 -0.004245775720244299 0.0 -0.0018000100199222135 0.0 0.0
0.011075802407500142 -0.008583519538325543 0.0 -0.00322207088066194 0.0 0.0
0.017706644664105695 -0.014943956753817812 0.0 -0.005167825666691632 0.0 0.0
0.026231469472867308 -0.023233922232269957 0.0 -0.007522761051592183 0.0 0.0
0.03647389773144978 -0.03324050945000236 0.0 -0.010056726959385483 0.0 0.0
0.048253268891701895 -0.04476720219308282 0.0 -0.012587233438483964 0.0 0.0
0.06143920174719156 -0.05769175640186486 0.0 -0.015082871118370204 0.0 0.0
0.07591609622817622 -0.07192389326388353 0.0 -0.01758995864028877 0.0 0.0
0.09150721069282777 -0.08730088302001959 0.0 -0.02006975344002262 0.0 0.0
0.10788709563847623 -0.10351224279239273 0.0 -0.022293006544348713 0.0 0.0
0.12449866145284434 -0.12002794333078393 0.0 -0.02378537371819084 0.0 0.0
0.1404432199465997 -0.13598781422375533 0.0 -0.023943243965179842 0.0 0.0
0.1543776318959938 -0.15006712735430325 0.0 -0.022148591207787314 0.0 0.0
0.16464485105283766 -0.16052290033398323 0.0 -0.017489947909859874 0.0 0.0
0.168644876535158 -0.1657224761644486 0.0 2.294432005500724e-14 0.0 0.0
0.16464485105281274 -0.1605229003339515 0.0 0.017489947909914753 0.0 0.0
0.15437763189594692 -0.15006712735426372 0.0 0.022148591207841045 0.0 0.0
0.14044321994653758 -0.13598781422369538 0.0 0.02394324396521262 0.0 0.0
0.12449866145277161 -0.1200279433307026 0.0 0.023785373718196355 0.0 0.0
0.10788709563839702 -0.10351224279231515 0.0 0.022293006544339838 0.0 0.0
0.09150721069274625 -0.08730088301993588 0.0 0.020069753440014063 0.0 0.0
0.0759160962280958 -0.07192389326380347 0.0 0.017589958640281803 0.0 0.0
0.06143920174711516 -0.057691756401787 0.0 0.015082871118358442 0.0 0.0
0.04825326889163121 -0.04476720219301274 0.0 0.01258723343846615 0.0 0.0
0.036473897731387456 -0.033240509449939865 0.0 0.01005672695936635 0.0 0.0
0.026231469472816217 -0.023233922232217406 0.0 0.007522761051574433 0.0 0.0
0.01770664466406667 -0.014943956753782517 0.0 0.005167825666677889 0.0 0.0
0.011075802407472714 -0.008583519538301738 0.0 0.003222070880653589 0.0 0.0
0.00639437125894913 -0.0042457757202298855 0.0 0.0018000100199171694 0.0 0.0
0.003537163095875595 -0.0018386133309066651 0.0 0.0010372602959797118 0.0 0.0
0.0021101993270552836 -0.0008858846616073971 0.0 0.0008267913902777731 0.0 0.0
0.0014013285703731585 -0.0005712090405381496 0.0 0.0007754143010592484 0.0 0.0
0.0008696935723155119 -0.00013813911714983184 0.0 0.0007949636767245369 0.0 0.0
0.0032401744358217343 -0.000853221935219148 0.0 0.0057129134090674995 0.0 0.0
0.005861038259807712 -0.01436623212691861 0.0 0.004595045334889972 0.0 0.0
0.004457272560336213 -0.011593821545002308 0.0 -0.004079380603862848 0.0 0.0
0.0024304141556964493 -0.0006766275384534463 0.0 -0.005093430291216274 0.0 0.0
0.0006305195749260905 -8.672707525525713e-05 0.0 -0.001192054840777667 0.0 0.0
0.0011310220785047003 -0.0004340448224865003 0.0 -0.0010964859792462903 0.0 0.0
0.0017428354517306961 -0.0007156082622840295 0.0 -0.001153943205947975 0.0 0.0
0.002861850847478768 -0.0013792599087385552 0.0 -0.0013559901790918725 0.0 0.0
0.005168817571577526 -0.003203890846016157 0.0 -0.00212952023696526 0.0 0.0
0.009121370492164984 -0.006786234870335065 0.0 -0.003736370314417277 0.0 0.0
0.014841879432065466 -0.012243179102317269 0.0 -0.006057056664360369 0.0 0.0
0.02221729201719658 -0.019403577610105124 0.0 -0.008825086109692569 0.0 0.0
0.03105945688137572 -0.028030671492885025 0.0 -0.011789687477451368 0.0 0.0
0.04118826355158362 -0.03792661317646574 0.0 -0.014745794355491542 0.0 0.0
0.05249735793641768 -0.04899314756372164 0.0 -0.01766405991294329 0.0 0.0
0.06491768611018509 -0.061182292544599545 0.0 -0.020586606330263175 0.0 0.0
0.07832981899225094 -0.07439232340874471 0.0 -0.023450619131473813 0.0 0.0
0.09250620712528237 -0.08840498084420054 0.0 -0.026023901357224336 0.0 0.0
0.10703454899046311 -0.10282568957381094 0.0 -0.02788378507638575 0.0 0.0
0.12118589065673946 -0.11696259259545572 0.0 -0.028367315881174523 0.0 0.0
0.13383615548675223 -0.12971033851074915 0.0 -0.02640119176161842 0.0 0.0
0.14356969605982017 -0.13958915941472563 0.0 -0.02050338474959859 0.0 0.0
0.1475193329938435 -0.14515687906609154 0.0 2.8000171625741643e-14 0.0 0.0
0.14356969605979747 -0.13958915941470004 0.0 0.020503384749660798 0.0 0.0
0.13383615548671077 -0.1297103385107088 0.0 0.026401191761678183 0.0 0.0
0.12118589065668581 -0.11696259259540698 0.0 0.028367315881213183 0.0 0.0
0.10703454899040046 -0.10282568957374838 0.0 0.027883785076392914 0.0 0.0
0.09250620712521344 -0.088404980844131 0.0 0.02602390135721469 0.0 0.0
0.07832981899218058 -0.07439232340867147 0.0 0.02345061913146382 0.0 0.0
0.06491768611011624 -0.06118229254453332 0.0 0.02058660633025345 0.0 0.0
0.05249735793635177 -0.048993147563655304 0.0 0.01766405991292839 0.0 0.0
0.04118826355152343 -0.03792661317640847 0.0 0.014745794355471433 0.0 0.0
0.03105945688132323 -0.028030671492831748 0.0 0.011789687477427025 0.0 0.0
0.02221729201715263 -0.019403577610064362 0.0 0.008825086109671724 0.0 0.0
0.014841879432031631 -0.012243179102280915 0.0 0.0060570566643451465 0.0 0.0
0.009121370492141921 -0.0067862348703127805 0.0 0.003736370314407371 0.0 0.0
0.005168817571564305 -0.003203890846003782 0.0 0.0021295202369586365 0.0 0.0
0.0028618508474730097 -0.001379259908736118 0.0 0.0013559901790883109 0.0 0.0
0.0017428354517290095 -0.0007156082622826105 0.0 0.0011539432059477766 0.0 0.0
0.0011310220785043915 -0.0004340448224862173 0.0 0.001096485979242371 0.0 0.0
0.0006305195749262602 -8.672707525557549e-05 0.0 0.0011920548407757998 0.0 0.0
0.0024304141556911736 -0.0006766275384506256 0.0 0.005093430291205097 0.0 0.0
0.004457272560325331 -0.011593821544981746 0.0 0.0040793806038473815 0.0 0.0
0.003352426362992179 -0.009278070479140203 0.0 -0.0033739781026497348 0.0 0.0
0.0018154795159995814 -0.0005551110072850644 0.0 -0.004491415494354979 0.0 0.0
0.0004600367106072632 -7.076836735204445e-05 0.0 -0.001572771469322096 0.0 0.0
0.0008884964336635924 -0.00031269506614724717 0.0 -0.00141892282949321 0.0 0.0
0.0014084285977323469 -0.000573042973616855 0.0 -0.001478195094355073 0.0 0.0
0.002262973597377001 -0.0010232663724597604 0.0 -0.0016419264538736586 0.0 0.0
0.004044927835677446 -0.002313493607066833 0.0 -0.0023684018512809043 0.0 0.0
0.007235978552998457 -0.005095098420487159 0.0 -0.003939359191049858 0.0 0.0
0.012002368448582774 -0.009591923640603378 0.0 -0.006406001199750091 0.0 0.0
0.018214826695047325 -0.01560175970236432 0.0 -0.009408815884744518 0.0 0.0
0.025643941399631522 -0.022836502297969262 0.0 -0.012598338683287264 0.0 0.0
0.034117079949210885 -0.03109664008604756 0.0 -0.01577739671959309 0.0 0.0
0.04354678667126116 -0.040302479839821846 0.0 -0.018911970642339966 0.0 0.0
0.05390180407096008 -0.05044515145355078 0.0 -0.022046166092323953 0.0 0.0
0.06512858003842259 -0.0614817324263955 0.0 -0.02511747723810825 0.0 0.0
0.07707787127480883 -0.07327165555967827 0.0 -0.027883761626388913 0.0 0.0
0.08946282726705133 -0.08553733586609923 0.0 -0.0299816991956013 0.0 0.0
0.10178978501537811 -0.09780367989757335 0.0 -0.030795740062077817 0.0 0.0
0.1132240576533903 -0.10927949225041639 0.0 -0.02902109180337375 0.0 0.0
0.1225740942017163 -0.1187528334372836 0.0 -0.02268716309962128 0.0 0.0
0.12656044300660932 -0.12484969012511782 0.0 2.729587389449506e-14 0.0 0.0
0.12257409420169632 -0.11875283343725967 0.0 0.022687163099684583 0.0 0.0
0.11322405765335526 -0.10927949225037493 0.0 0.02902109180343801 0.0 0.0
0.10178978501533303 -0.09780367989752757 0.0 0.030795740062118278 0.0 0.0
0.0894628272669983 -0.08553733586605444 0.0 0.02998169919560987 0.0 0.0
0.07707787127475076 -0.07327165555961612 0.0 0.02788376162637777 0.0 0.0
0.06512858003836373 -0.06148173242633671 0.0 0.025117477238094255 0.0 0.0
0.05390180407090291 -0.05044515145349857 0.0 0.022046166092311498 0.0 0.0
0.04354678667120693 -0.040302479839773774 0.0 0.01891197064232486 0.0 0.0
0.03411707994916054 -0.03109664008599869 0.0 0.015777396719570836 0.0 0.0
0.02564394139958706 -0.022836502297926223 0.0 0.012598338683259066 0.0 0.0
0.01821482669501086 -0.01560175970233427 0.0 0.009408815884720225 0.0 0.0
0.0120023684485549 -0.009591923640569351 0.0 0.00640600119973473 0.0 0.0
0.0072359785529793625 -0.005095098420470207 0.0 0.003939359191039847 0.0 0.0
0.004044927835667044 -0.0023134936070599117 0.0 0.0023684018512750322 0.0 0.0
0.002262973597372962 -0.0010232663724590485 0.0 0.0016419264538709254 0.0 0.0
0.0014084285977312746 -0.000573042973614656 0.0 0.001478195094354512 0.0 0.0
0.000888496433663428 -0.00031269506614818295 0.0 0.001418922829490179 0.0 0.0
0.0004600367106070363 -7.076836735290033e-05 0.0 0.0015727714693205721 0.0 0.0
0.0018154795159950428 -0.0005551110072821365 0.0 0.004491415494344764 0.0 0.0
0.0033524263629834635 -0.009278070479122989 0.0 0.003373978102640859 0.0 0.0
0.002471568022163098 -0.007319559265873318 0.0 -0.0027236326315420193 0.0 0.0
0.0013347953250037428 -0.00046091415996783736 0.0 -0.003945694120514079 0.0 0.0
0.00032820791761804726 -6.917922871447808e-05 0.0 -0.0018873653205754063 0.0 0.0
0.0006650002245160774 -0.0002051591599343496 0.0 -0.0017166817633617023 0.0 0.0
0.0010974273521966679 -0.00044160045633630414 0.0 -0.001779822665820688 0.0 0.0
0.0017314467253432262 -0.0007522426960132997 0.0 -0.0019234075949672393 0.0 0.0
0.003030896296473122 -0.0015865721060341366 0.0 -0.002516896707429586 0.0 0.0
0.005468456503737707 -0.0035801026006097468 0.0 -0.0039416211157927376 0.0 0.0
0.009240568090524223 -0.007053365873471728 0.0 -0.006261692647512677 0.0 0.0
0.01425527056180212 -0.011870673724216447 0.0 -0.009248620619412356 0.0 0.0
0.020264154463397206 -0.017699389395487205 0.0 -0.01246538641900212 0.0 0.0
0.027076312100032484 -0.024318979214577232 0.0 -0.015669543985861394 0.0 0.0
0.03462534651510167 -0.03166568258102662 0.0 -0.018814925544706446 0.0 0.0
0.04291519259811719 -0.03976035542387876 0.0 -0.02195320952800037 0.0 0.0
0.051943978758924945 -0.048614217329088716 0.0 -0.025034549285572652 0.0 0.0
0.06163753218797728 -0.05816105815167616 0.0 -0.027839610942876618 0.0 0.0
0.0718273225396945 -0.0682162635232581 0.0 -0.030020737195495882 0.0 0.0
0.08225118077372637 -0.0785218551010258 0.0 -0.031119312370567406 0.0 0.0
0.09243470623324772 -0.08867877983603191 0.0 -0.029903201296623685 0.0 0.0
0.10147413224672146 -0.09782107647840485 0.0 -0.024025199064042442 0.0 0.0
0.1055618541374315 -0.1045968351731169 0.0 2.7661900547926166e-14 0.0 0.0
0.10147413224670508 -0.09782107647838136 0.0 0.024025199064106016 0.0 0.0
0.09243470623321856 -0.08867877983599856 0.0 0.029903201296689906 0.0 0.0
0.08225118077368875 -0.07852185510098662 0.0 0.031119312370603468 0.0 0.0
0.0718273225396508 -0.06821626352321593 0.0 0.030020737195501905 0.0 0.0
0.06163753218792953 -0.0581610581516261 0.0 0.027839610942861935 0.0 0.0
0.051943978758877386 -0.04861421732904324 0.0 0.025034549285557237 0.0 0.0
0.04291519259807232 -0.03976035542383574 0.0 0.021953209527988182 0.0 0.0
0.034625346515059184 -0.03166568258099188 0.0 0.018814925544691902 0.0 0.0
0.02707631209999203 -0.024318979214535515 0.0 0.01566954398583897 0.0 0.0
0.020264154463361522 -0.017699389395451376 0.0 0.012465386418972903 0.0 0.0
0.014255270561773415 -0.011870673724189198 0.0 0.009248620619389442 0.0 0.0
0.009240568090502865 -0.0070533658734463385 0.0 0.006261692647498517 0.0 0.0
0.005468456503723874 -0.00358010260059498 0.0 0.003941621115784614 0.0 0.0
0.0030308962964658076 -0.001586572106029246 0.0 0.002516896707424804 0.0 0.0
0.001731446725340465 -0.0007522426960108085 0.0 0.0019234075949652574 0.0 0.0
0.0010974273521957869 -0.0004416004563335718 0.0 0.001779822665817906 0.0 0.0
0.0006650002245156427 -0.0002051591599338609 0.0 0.001716681763359066 0.0 0.0
0.0003282079176178913 -6.917922871506587e-05 0.0 0.0018873653205740528 0.0 0.0
0.0013347953250003818 -0.00046091415996668425 0.0 0.003945694120505888 0.0 0.0
0.0024715680221565 -0.007319559265858743 0.0 0.0027236326315374947 0.0 0.0
0.0017696356693458282 -0.005669734952202082 0.0 -0.0022131821541334345 0.0 0.0
0.0009532389208025311 -0.00038911286644202956 0.0 -0.003454001460714633 0.0 0.0
0.00021524540507250844 -6.59365632419659e-05 0.0 -0.002125620427438299 0.0 0.0
0.00045258375490088323 -0.00010909370882454547 0.0 -0.0019717813743198444 0.0 0.0
0.0007972384621665285 -0.00030789367319171825 0.0 -0.002037218734638086 0.0 0.0
0.0012584886425798304 -0.000539023963687032 0.0 -0.0022032002549185374 0.0 0.0
0.0021321497785196093 -0.001025191383833794 0.0 -0.002623970414184486 0.0 0.0
0.003844016647440306 -0.0022892887732908086 0.0 -0.003762924901805225 0.0 0.0
0.006616405594963447 -0.004717152372630157 0.0 -0.005733256109060701 0.0 0.0
0.010392181871490616 -0.008281372127932342 0.0 -0.008383263598776622 0.0 0.0
0.01495276871793107 -0.012670193934241037 0.0 -0.01137106368498663 0.0 0.0
0.0201029512706557 -0.017642933187701642 0.0 -0.014386581704572856 0.0 0.0
0.025775737893783752 -0.02313461747515047 0.0 -0.01734472478792246 0.0 0.0
0.03199662032932367 -0.029182915971464017 0.0 -0.02028001523655702 0.0 0.0
0.038817444715359445 -0.03584372027584287 0.0 -0.023178448924042385 0.0 0.0
0.04623698643437403 -0.043125826313016626 0.0 -0.025856029212365274 0.0 0.0
0.054173330914360815 -0.050932937503819484 0.0 -0.027971568742837877 0.0 0.0
0.06257115630529611 -0.05915842485588661 0.0 -0.029191557393619335 0.0 0.0
0.07136728154767406 -0.06781910991611918 0.0 -0.028793285428817452 0.0 0.0
0.08006951763811336 -0.07657830775627683 0.0 -0.02436469559595165 0.0 0.0
0.08429064190094235 -0.08418026766875102 0.0 2.491062911502695e-14 0.0 0.0
0.08006951763810113 -0.07657830775626097 0.0 0.02436469559601246 0.0 0.0
0.07136728154765105 -0.06781910991609248 0.0 0.02879328542888169 0.0 0.0
0.06257115630526647 -0.0591584248558602 0.0 0.029191557393653526 0.0 0.0
0.054173330914327106 -0.05093293750378273 0.0 0.027971568742841978 0.0 0.0
0.046236986434337234 -0.04312582631298254 0.0 0.02585602921234917 0.0 0.0
0.038817444715324126 -0.035843720275809 0.0 0.023178448924027123 0.0 0.0
0.031996620329291056 -0.029182915971435616 0.0 0.0202800152365475 0.0 0.0
0.025775737893752516 -0.0231346174751196 0.0 0.017344724787908942 0.0 0.0
0.020102951270625297 -0.017642933187671534 0.0 0.014386581704554712 0.0 0.0
0.014952768717904668 -0.012670193934218555 0.0 0.011371063684963944 0.0 0.0
0.01039218187147028 -0.00828137212790929 0.0 0.00838326359875678 0.0 0.0
0.006616405594948234 -0.0047171523726147885 0.0 0.005733256109048048 0.0 0.0
0.0038440166474302912 -0.0022892887732799253 0.0 0.003762924901797318 0.0 0.0
0.002132149778514552 -0.0010251913838299328 0.0 0.0026239704141802138 0.0 0.0
0.0012584886425779501 -0.0005390239636840424 0.0 0.0022032002549167706 0.0 0.0
0.0007972384621659834 -0.0003078936731922709 0.0 0.0020372187346353967 0.0 0.0
0.0004525837549008317 -0.00010909370882373711 0.0 0.001971781374317884 0.0 0.0
0.00021524540507248733 -6.593656324135128e-05 0.0 0.002125620427437542 0.0 0.0
0.0009532389207999666 -0.0003891128664413429 0.0 0.0034540014607081595 0.0 0.0
0.0017696356693406084 -0.005669734952190454 0.0 0.0022131821541307574 0.0 0.0
0.0012325362983836652 -0.004318442063943349 0.0 -0.0018731925560991885 0.0 0.0
0.0006521112183890755 -0.0003412388121359065 0.0 -0.0030168146945148515 0.0 0.0
0.0001047531947418952 -4.947828310432439e-05 0.0 -0.002291617870776853 0.0 0.0
0.00024761210849278407 -2.1872844471835067e-05 0.0 -0.0021734363214275846 0.0 0.0
0.0004981998399878942 -0.00016953615876742867 0.0 -0.0022381300852296775 0.0 0.0
0.0008194548955847453 -0.00034726673932625494 0.0 -0.0024511711765826815 0.0 0.0
0.0013475159262996118 -0.0006138882764549772 0.0 -0.002766290852511393 0.0 0.0
0.0023890403798969254 -0.0012696339490100772 0.0 -0.0034828139368043164 0.0 0.0
0.004175238107825323 -0.0026848559651472268 0.0 -0.004899455623583884 0.0 0.0
0.006691739981232318 -0.0049497413678552486 0.0 -0.006922949986530171 0.0 0.0
0.009767684581651599 -0.007843315552803888 0.0 -0.009359021284558743 0.0 0.0
0.01323642028244461 -0.01114588368508119 0.0 -0.011917733601307962 0.0 0.0
0.017033559151630327 -0.014779514673634465 0.0 -0.014491769364428841 0.0 0.0
0.021190602608367356 -0.018787501531272028 0.0 -0.01704733910512633 0.0 0.0
0.02578937838054519 -0.02324521937158589 0.0 -0.019569123948732704 0.0 0.0
0.030909138674194217 -0.028232179176067254 0.0 -0.021975733272074846 0.0 0.0
0.03656798803494728 -0.033765466602474155 0.0 -0.023976628692580965 0.0 0.0
0.04280454139791248 -0.03982896553189518 0.0 -0.02516588255580269 0.0 0.0
0.04992879937756583 -0.04668826031833085 0.0 -0.02534515675380248 0.0 0.0
0.058115415503896206 -0.05477373216492117 0.0 -0.023274256024648186 0.0 0.0
0.06245338461204568 -0.06332035654473772 0.0 2.0201722239487907e-14 0.0 0.0
0.05811541550388809 -0.05477373216490149 0.0 0.023274256024701956 0.0 0.0
0.04992879937754934 -0.046688260318317375 0.0 0.0253451567538601 0.0 0.0
0.04280454139789097 -0.03982896553188033 0.0 0.025165882555832565 0.0 0.0
0.03656798803492387 -0.033765466602454476 0.0 0.023976628692576763 0.0 0.0
0.030909138674169223 -0.028232179176039488 0.0 0.02197573327205782 0.0 0.0
0.025789378380522386 -0.02324521937156156 0.0 0.019569123948721387 0.0 0.0
0.021190602608347056 -0.018787501531255996 0.0 0.017047339105120157 0.0 0.0
0.01703355915161056 -0.014779514673611674 0.0 0.014491769364417022 0.0 0.0
0.01323642028242565 -0.011145883685059763 0.0 0.01191773360129007 0.0 0.0
0.009767684581634834 -0.007843315552791946 0.0 0.009359021284540726 0.0 0.0
0.006691739981218933 -0.004949741367841415 0.0 0.006922949986514477 0.0 0.0
0.004175238107815516 -0.0026848559651412645 0.0 0.004899455623575866 0.0 0.0
0.0023890403798911162 -0.0012696339490059774 0.0 0.003482813936797317 0.0 0.0
0.0013475159262968971 -0.0006138882764540841 0.0 0.002766290852509292 0.0 0.0
0.0008194548955837239 -0.00034726673932365784 0.0 0.0024511711765793404 0.0 0.0
0.000498199839987609 -0.0001695361587671903 0.0 0.00223813008522732 0.0 0.0
0.0002476121084926489 -2.187284447364701e-05 0.0 0.0021734363214270724 0.0 0.0
0.00010475319474160711 -4.947828310139823e-05 0.0 0.002291617870774623 0.0 0.0
0.000652111218387284 -0.00034123881213543974 0.0 0.0030168146945111275 0.0 0.0
0.001232536298380681 -0.004318442063935025 0.0 0.0018731925560965406 0.0 0.0
0.0008457453737976157 -0.0032460904205152867 0.0 -0.0016589444146857075 0.0 0.0
0.00041990173256326426 -0.00032195178154691877 0.0 -0.0026622828419725574 0.0 0.0
-1.0594677796595123e-05 -1.4310356474628946e-05 0.0 -0.0023931113520465537 0.0 0.0
4.752919711649805e-05 5.921965710840693e-05 0.0 -0.0023173645707289504 0.0 0.0
0.00019800485825686054 -3.027668171921353e-05 0.0 -0.0023814785946683703 0.0 0.0
0.0003887529160359505 -0.0001522668549157969 0.0 -0.0026206609230250695 0.0 0.0
0.0006519308663975612 -0.00028964847455479546 0.0 -0.002933142440230136 0.0 0.0
0.0011200761931997828 -0.000541344805732442 0.0 -0.00331395960136608 0.0 0.0
0.0019634761406184414 -0.0011086264698189237 0.0 -0.003995832284315418 0.0 0.0
0.003216161432132999 -0.002106826865964798 0.0 -0.005153259566804788 0.0 0.0
0.004775092347854354 -0.003451474407425038 0.0 -0.006775407458426361 0.0 0.0
0.006529171711308719 -0.005032512701426417 0.0 -0.008692543185377481 0.0 0.0
0.008433496579622743 -0.0067900214942094314 0.0 -0.010749182754691717 0.0 0.0
0.010527186849189374 -0.008752331265595518 0.0 -0.012877144980865016 0.0 0.0
0.012894568355984065 -0.010993413737042443 0.0 -0.015060591392773364 0.0 0.0
0.015671377898040937 -0.013639310806996326 0.0 -0.01726368261657633 0.0 0.0
0.019018532296681174 -0.01684840118383147 0.0 -0.01928175853817611 0.0 0.0
0.023067716877534963 -0.020755041747991643 0.0 -0.020591089927944603 0.0 0.0
0.028177070331885695 -0.02558855131947116 0.0 -0.020747460106609276 0.0 0.0
0.035336687257528795 -0.03228403257370493 0.0 -0.02034380049549429 0.0 0.0
0.03960022455649524 -0.041641241390505436 0.0 1.6551864046032705e-14 0.0 0.0
0.03533668725752529 -0.03228403257368827 0.0 0.02034380049553889 0.0 0.0
0.02817707033187678 -0.02558855131946705 0.0 0.02074746010665221 0.0 0.0
0.023067716877521557 -0.020755041747979843 0.0 0.02059108992796539 0.0 0.0
0.019018532296668226 -0.01684840118383117 0.0 0.01928175853816864 0.0 0.0
0.015671377898029297 -0.013639310806981112 0.0 0.017263682616560052 0.0 0.0
0.012894568355974483 -0.010993413737029594 0.0 0.015060591392762293 0.0 0.0
0.010527186849181726 -0.008752331265589611 0.0 0.012877144980857659 0.0 0.0
0.00843349657961495 -0.006790021494199744 0.0 0.010749182754684932 0.0 0.0
0.006529171711300374 -0.0050325127014164035 0.0 0.008692543185364233 0.0 0.0
0.004775092347846571 -0.0034514744074173255 0.0 0.006775407458410796 0.0 0.0
0.0032161614321277337 -0.0021068268659617554 0.0 0.00515325956679546 0.0 0.0
0.0019634761406150157 -0.0011086264698167523 0.0 0.00399583228431203 0.0 0.0
0.001120076193197587 -0.0005413448057307221 0.0 0.003313959601362958 0.0 0.0
0.0006519308663966811 -0.00028964847455581147 0.0 0.002933142440228355 0.0 0.0
0.00038875291603525256 -0.00015226685491272603 0.0 0.0026206609230215315 0.0 0.0
0.00019800485825664316 -3.0276681716854848e-05 0.0 0.0023814785946655722 0.0 0.0
4.752919711642865e-05 5.9219657108115604e-05 0.0 0.002317364570727973 0.0 0.0
-1.0594677796512491e-05 -1.4310356472435336e-05 0.0 0.0023931113520447114 0.0 0.0
0.0004199017325623289 -0.00032195178154735473 0.0 0.0026622828419693894 0.0 0.0
0.0008457453737953645 -0.0032460904205096237 0.0 0.0016589444146840825 0.0 0.0
0.0005729253545981223 -0.0024306042874351437 0.0 -0.0015363358687497217 0.0 0.0
0.00024118497925748722 -0.0003210935220452669 0.0 -0.0024099387574963104 0.0 0.0
-0.00012871312839025014 3.4002126873803703e-05 0.0 -0.002438014870750807 0.0 0.0
-0.00014867074997885988 0.0001371247023251812 0.0 -0.002401068451485258 0.0 0.0
-9.872865001872208e-05 0.00010651686565562972 0.0 -0.002461802806634008 0.0 0.0
-4.6454143500442634e-05 4.8137872289005895e-05 0.0 -0.002692151372691411 0.0 0.0
-1.7594478549930865e-05 1.2694165078699385e-05 0.0 -0.003023500376759095 0.0 0.0
-6.368018173674348e-06 3.813927470476063e-06 0.0 -0.003297518610326171 0.0 0.0
-1.8639483052288364e-06 9.517500193835797e-07 0.0 -0.0035652285922132955 0.0 0.0
1.968226527669214e-08 -4.265407513296044e-08 0.0 -0.004225035604085606 0.0 0.0
-1.6679574645897186e-06 5.628548957416668e-07 0.0 -0.005386294390878245 0.0 0.0
-1.3157862915998933e-05 1.2022282625354314e-05 0.0 -0.00697804637984412 0.0 0.0
-3.542617914753098e-05 3.4127117907343835e-05 0.0 -0.008772282975581793 0.0 0.0
-4.071726946039021e-05 4.716429729101422e-05 0.0 -0.010704144239260381 0.0 0.0
6.0555995498925595e-05 -2.565723679603352e-05 0.0 -0.012778504889953817 0.0 0.0
0.00045824012319932656 -0.0003539796682759407 0.0 -0.014973200780149264 0.0 0.0
0.0014608429029816072 -0.001217423686053235 0.0 -0.01719277161159392 0.0 0.0
0.00340615456880993 -0.0029574499728760974 0.0 -0.01919362248887692 0.0 0.0
0.0065098308374886525 -0.005674561388320863 0.0 -0.020663496607178596 0.0 0.0
0.011811194515951813 -0.01003381195279279 0.0 -0.021836444927573573 0.0 0.0
0.01525545550812583 -0.0199235507837099 0.0 1.226796442210798e-14 0.0 0.0
0.01181119451595216 -0.010033811952793471 0.0 0.021836444927600306 0.0 0.0
0.006509830837486116 -0.005674561388325717 0.0 0.020663496607197032 0.0 0.0
0.003406154568806932 -0.0029574499728707566 0.0 0.01919362248887847 0.0 0.0
0.0014608429029817033 -0.0012174236860598635 0.0 0.01719277161158286 0.0 0.0
0.00045824012320155134 -0.00035397966828388025 0.0 0.014973200780133967 0.0 0.0
6.0555995501509466e-05 -2.5657236794689653e-05 0.0 0.012778504889942439 0.0 0.0
-4.071726945683511e-05 4.716429728978571e-05 0.0 0.010704144239252417 0.0 0.0
-3.542617914311307e-05 3.412711790430964e-05 0.0 0.008772282975570526 0.0 0.0
-1.3157862912109358e-05 1.2022282624406884e-05 0.0 0.006978046379831843 0.0 0.0
-1.6679574618510239e-06 5.628548937213374e-07 0.0 0.005386294390867288 0.0 0.0
1.968226724310962e-08 -4.265407685006563e-08 0.0 0.004225035604079969 0.0 0.0
-1.8639483043083216e-06 9.517500199742666e-07 0.0 0.0035652285922090597 0.0 0.0
-6.368018173219159e-06 3.8139274690625005e-06 0.0 0.0032975186103252614 0.0 0.0
-1.7594478549742037e-05 1.2694165078236454e-05 0.0 0.0030235003767566547 0.0 0.0
-4.645414350047075e-05 4.813787228562583e-05 0.0 0.002692151372688773 0.0 0.0
-9.872865001846212e-05 0.00010651686565866836 0.0 0.002461802806632494 0.0 0.0
-0.0001486707499788548 0.0001371247023259529 0.0 0.0024010684514833226 0.0 0.0
-0.0001287131283907759 3.400212687427628e-05 0.0 0.0024380148707489713 0.0 0.0
0.0002411849792565442 -0.0003210935220459083 0.0 0.002409938757494229 0.0 0.0
0.0005729253545970173 -0.002430604287431543 0.0 0.0015363358687494944 0.0 0.0
0.00038392685482122827 -0.0018386019734445785 0.0 -0.00147240646777175 0.0 0.0
0.00010744523744850998 -0.0003148010365672894 0.0 -0.002227271098509758 0.0 0.0
-0.00024207762810435492 8.395018271197971e-05 0.0 -0.0024321401934849452 0.0 0.0
-0.0003398031691084639 0.00021341349884179282 0.0 -0.0024218271432985454 0.0 0.0
-0.00038935292044168195 0.00023830752998853667 0.0 -0.0024697763931083075 0.0 0.0
-0.00047826754629444945 0.00024746542828228723 0.0 -0.002668591268993147 0.0 0.0
-0.0006867437774261721 0.00031594246603721467 0.0 -0.0029635006200417193 0.0 0.0
-0.0011324798652972284 0.0005499190124158064 0.0 -0.0033339603337494603 0.0 0.0
-0.0019660566783381876 0.0011100738058365306 0.0 -0.004003876047940742 0.0 0.0
-0.003215221305695892 0.002105911267690049 0.0 -0.005152738599115036 0.0 0.0
-0.004779909615644333 0.003454594113910338 0.0 -0.0067735920559350935 0.0 0.0
-0.006558284678702134 0.005058435697500797 0.0 -0.008697010569844853 0.0 0.0
-0.008503815001184096 0.006858881371931953 0.0 -0.010745784678071534 0.0 0.0
-0.010601515902384648 0.008843802838891005 0.0 -0.012858154325865312 0.0 0.0
-0.012760248896628627 0.010932636829890105 0.0 -0.015059390415448683 0.0 0.0
-0.014756624170265395 0.012913633865430754 0.0 -0.017415862708354306 0.0 0.0
-0.016213511759196143 0.014416567279130352 0.0 -0.019966846747466044 0.0 0.0
-0.01668544304102252 0.014961660998928095 0.0 -0.022824280316408176 0.0 0.0
-0.01568971938040286 0.014234494291944007 0.0 -0.02593648957581794 0.0 0.0
-0.011287120086320952 0.011061782842755784 0.0 -0.02746840039516787 0.0 0.0
-0.007815684595375866 0.00043869526268481857 0.0 1.4882192700405028e-14 0.0 0.0
-0.011287120086321292 0.011061782842753281 0.0 0.027468400395193687 0.0 0.0
-0.01568971938039754 0.014234494291936621 0.0 0.025936489575837857 0.0 0.0
-0.01668544304101066 0.014961660998915015 0.0 0.022824280316411545 0.0 0.0
-0.01621351175918057 0.014416567279115323 0.0 0.019966846747453443 0.0 0.0
-0.01475662417024963 0.01291363386541038 0.0 0.017415862708338187 0.0 0.0
-0.012760248896613589 0.010932636829876276 0.0 0.015059390415437215 0.0 0.0
-0.010601515902369166 0.008843802838881748 0.0 0.012858154325854895 0.0 0.0
-0.0085038150011675 0.006858881371911563 0.0 0.010745784678057039 0.0 0.0
-0.006558284678686381 0.005058435697493946 0.0 0.008697010569826729 0.0 0.0
-0.004779909615631083 0.003454594113900507 0.0 0.006773592055916289 0.0 0.0
-0.003215221305686209 0.0021059112676774247 0.0 0.005152738599106855 0.0 0.0
-0.001966056678332365 0.0011100738058347332 0.0 0.004003876047936428 0.0 0.0
-0.001132479865293866 0.0005499190124115707 0.0 0.0033339603337469346 0.0 0.0
-0.0006867437774244615 0.0003159424660381086 0.0 0.0029635006200386897 0.0 0.0
-0.0004782675462933953 0.0002474654282767244 0.0 0.002668591268989288 0.0 0.0
-0.00038935292044103804 0.00023830752999136703 0.0 0.002469776393106688 0.0 0.0
-0.00033980316910844904 0.00021341349884052265 0.0 0.0024218271432975766 0.0 0.0
-0.00024207762810423718 8.395018271242793e-05 0.0 0.002432140193483411 0.0 0.0
0.0001074452374484922 -0.0003148010365679904 0.0 0.0022272710985096963 0.0 0.0
0.00038392685482070157 -0.0018386019734421442 0.0 0.0014724064677709282 0.0 0.0
0.0002568531986459278 -0.001388878708349488 0.0 -0.0013825752069354016 0.0 0.0
8.917249688415786e-06 -0.00029169137283089713 0.0 -0.002061699406236088 0.0 0.0
-0.0003475423008105932 0.00012951355110633837 0.0 -0.0023757854083726175 0.0 0.0
-0.0005230705318003022 0.00028705769607797365 0.0 -0.002378733635931321 0.0 0.0
-0.0006711279934145475 0.00036298647981101924 0.0 -0.00240303100652749 0.0 0.0
-0.0009006697082549662 0.00043971140588073394 0.0 -0.0025475750602088217 0.0 0.0
-0.00138085249784815 0.0006439576091452471 0.0 -0.0028284066312318917 0.0 0.0
-0.002398727022402449 0.00127775635904376 0.0 -0.003514439067028574 0.0 0.0
-0.0041745451744136875 0.0026835640341771006 0.0 -0.004905761037023923 0.0 0.0
-0.0066902309200632636 0.0049482879139005126 0.0 -0.006920365621224948 0.0 0.0
-0.009774389657003314 0.00784987485458545 0.0 -0.009359477465304975 0.0 0.0
-0.013263782657115822 0.011172016021137631 0.0 -0.01191199082509638 0.0 0.0
-0.01709271271145092 0.01483944844699216 0.0 -0.014442192113295707 0.0 0.0
-0.0212453185483482 0.018859681066321375 0.0 -0.016931803076380494 0.0 0.0
-0.025640310195332618 0.023165286868668103 0.0 -0.019492005765693935 0.0 0.0
-0.03002658532825947 0.027522429744802894 0.0 -0.02233639732415445 0.0 0.0
-0.03396246909984254 0.03148274529019938 0.0 -0.025686962964188074 0.0 0.0
-0.03683866184556565 0.03442799959331882 0.0 -0.02964639068230011 0.0 0.0
-0.03751999934957065 0.03539891433687552 0.0 -0.03346157943891577 0.0 0.0
-0.033638041728435035 0.03216153226532155 0.0 -0.03446794448025128 0.0 0.0
-0.030161297320385534 0.019632505592757223 0.0 1.9761102476589798e-14 0.0 0.0
-0.033638041728432246 0.032161532265325594 0.0 0.03446794448030025 0.0 0.0
-0.0375199993495588 0.03539891433686607 0.0 0.033461579438960325 0.0 0.0
-0.036838661845543554 0.03442799959329581 0.0 0.029646390682316184 0.0 0.0
-0.033962469099814936 0.031482745290172906 0.0 0.025686962964179334 0.0 0.0
-0.03002658532823063 0.027522429744774132 0.0 0.02233639732413678 0.0 0.0
-0.025640310195304578 0.023165286868636344 0.0 0.019492005765677896 0.0 0.0
-0.021245318548320798 0.018859681066299375 0.0 0.01693180307636673 0.0 0.0
-0.017092712711422656 0.014839448446966459 0.0 0.01444219211328086 0.0 0.0
-0.013263782657089229 0.011172016021112605 0.0 0.011911990825073528 0.0 0.0
-0.009774389656980262 0.007849874854565848 0.0 0.009359477465280085 0.0 0.0
-0.006690230920045026 0.004948287913882662 0.0 0.006920365621206162 0.0 0.0
-0.004174545174401529 0.0026835640341693833 0.0 0.004905761037015744 0.0 0.0
-0.002398727022395353 0.0012777563590410652 0.0 0.0035144390670231243 0.0 0.0
-0.0013808524978450158 0.0006439576091444292 0.0 0.002828406631228053 0.0 0.0
-0.000900669708253684 0.0004397114058788435 0.0 0.002547575060206089 0.0 0.0
-0.000671127993413922 0.00036298647981204327 0.0 0.0024030310065256085 0.0 0.0
-0.0005230705317999019 0.0002870576960776352 0.0 0.0023787336359302807 0.0 0.0
-0.00034754230081047717 0.00012951355110581297 0.0 0.0023757854083715593 0.0 0.0
8.917249687939574e-06 -0.00029169137283120467 0.0 0.0020616994062346134 0.0 0.0
0.0002568531986450362 -0.0013888787083474788 0.0 0.0013825752069346626 0.0 0.0
0.00015997889526710835 -0.0010169049874214054 0.0 -0.0012357865277217743 0.0 0.0
-7.043234887869269e-05 -0.00025294513431262127 0.0 -0.0018852454025608568 0.0 0.0
-0.00044452453678379804 0.00017091570646010667 0.0 -0.0022669564319823116 0.0 0.0
-0.0006971147880284747 0.00035609061085007196 0.0 -0.0022756410585361574 0.0 0.0
-0.000941355174205898 0.0004784798265141749 0.0 -0.002267095446079675 0.0 0.0
-0.0013279826256878326 0.0006287402789323157 0.0 -0.0023437014224893587 0.0 0.0
-0.002160573638780685 0.0010580035996557507 0.0 -0.0027086854754788453 0.0 0.0
-0.0038472886383251644 0.0022910001679564895 0.0 -0.003789308262302971 0.0 0.0
-0.006612091197921199 0.004712338015887577 0.0 -0.005732008352950196 0.0 0.0
-0.010392049961837662 0.008281596258586038 0.0 -0.008380475876571815 0.0 0.0
-0.014960800620542863 0.01267930649167474 0.0 -0.011372767247771393 0.0 0.0
-0.02012197525400791 0.01766285470172796 0.0 -0.014369047966684926 0.0 0.0
-0.02580639694245425 0.023166859404561008 0.0 -0.017244143770019857 0.0 0.0
-0.032008895581287874 0.029207762458064543 0.0 -0.020041936402841173 0.0 0.0
-0.03866208651291872 0.03574218214383158 0.0 -0.022963636255997715 0.0 0.0
-0.045503436114469754 0.04253244722690151 0.0 -0.02638600602145352 0.0 0.0
-0.05198882351265036 0.04904384116462185 0.0 -0.03075251004193437 0.0 0.0
-0.05714283174876143 0.054354240669581756 0.0 -0.035977229157630346 0.0 0.0
-0.059250334054875495 0.05681122924452675 0.0 -0.04062878879045673 0.0 0.0
-0.05495514910699538 0.05343413440709056 0.0 -0.041980663606372405 0.0 0.0
-0.05064031884956002 0.03806349891307415 0.0 2.2839369284710642e-14 0.0 0.0
-0.0549551491069889 0.05343413440709312 0.0 0.04198066360642768 0.0 0.0
-0.059250334054857606 0.05681122924450338 0.0 0.040628788790512585 0.0 0.0
-0.05714283174873111 0.054354240669548685 0.0 0.03597722915765723 0.0 0.0
-0.05198882351261191 0.0490438411645869 0.0 0.030752510041929713 0.0 0.0
-0.04550343611442891 0.042532447226865264 0.0 0.026386006021437446 0.0 0.0
-0.03866208651287846 0.03574218214379148 0.0 0.02296363625597768 0.0 0.0
-0.03200889558124788 0.02920776245802481 0.0 0.020041936402824423 0.0 0.0
-0.025806396942415058 0.023166859404527 0.0 0.01724414377000347 0.0 0.0
-0.02012197525397088 0.01766285470169058 0.0 0.014369047966659807 0.0 0.0
-0.014960800620509328 0.01267930649163718 0.0 0.011372767247744367 0.0 0.0
-0.010392049961810987 0.008281596258564426 0.0 0.008380475876549788 0.0 0.0
-0.006612091197903041 0.004712338015871476 0.0 0.005732008352939588 0.0 0.0
-0.003847288638314245 0.002291000167950581 0.0 0.0037893082622944387 0.0 0.0
-0.0021605736387749616 0.0010580035996512174 0.0 0.0027086854754721683 0.0 0.0
-0.001327982625685385 0.0006287402789304877 0.0 0.0023437014224871955 0.0 0.0
-0.0009413551742049359 0.00047847982651665825 0.0 0.002267095446078344 0.0 0.0
-0.0006971147880279593 0.00035609061085000024 0.0 0.0022756410585343 0.0 0.0
-0.00044452453678366885 0.00017091570646005932 0.0 0.0022669564319807486 0.0 0.0
-7.04323488786571e-05 -0.00025294513431299044 0.0 0.0018852454025575626 0.0 0.0
0.00015997889526719972 -0.0010169049874200898 0.0 0.0012357865277214967 0.0 0.0
7.79817220920846e-05 -0.000705627136782835 0.0 -0.001061273892925557 0.0 0.0
-0.0001402329243844157 -0.0002008253091085974 0.0 -0.0016836470670788758 0.0 0.0
-0.0005350239178556625 0.00020997026710118088 0.0 -0.0021057796529203522 0.0 0.0
-0.0008614650572960428 0.0004193382002165028 0.0 -0.0021152870464779725 0.0 0.0
-0.0012018200339146314 0.000582501457007107 0.0 -0.0020600124185094124 0.0 0.0
-0.0017846886763356585 0.0008354630063122292 0.0 -0.00208976666442841 0.0 0.0
-0.003049084666892048 0.0016129981590725525 0.0 -0.00259484320969398 0.0 0.0
-0.005463853301630116 0.0035729958071091493 0.0 -0.003954374827887113 0.0 0.0
-0.009235742762458357 0.007047915335966949 0.0 -0.006255729110795665 0.0 0.0
-0.01425781702862216 0.01187396821856896 0.0 -0.009246956421679142 0.0 0.0
-0.020272140309638056 0.017709819452267517 0.0 -0.01246641158739583 0.0 0.0
-0.027080699484965408 0.02432746824433415 0.0 -0.015640278639239433 0.0 0.0
-0.03461145196561713 0.031655753717409106 0.0 -0.0186750117649786 0.0 0.0
-0.042862334241466946 0.039712830605960016 0.0 -0.021622371566998724 0.0 0.0
-0.051787242945186655 0.048483888050316434 0.0 -0.0246973729403054 0.0 0.0
-0.06112194146632528 0.057747246566149726 0.0 -0.02840638167028143 0.0 0.0
-0.0701564018987685 0.06683873514615794 0.0 -0.03328908088140767 0.0 0.0
-0.0774868849164515 0.07441146852057326 0.0 -0.039190451252517626 0.0 0.0
-0.0806594970172009 0.0781151884058713 0.0 -0.044570055166193445 0.0 0.0
-0.07555585737715974 0.07404890004130657 0.0 -0.04646916166726492 0.0 0.0
-0.07029271963630081 0.05592915921517656 0.0 2.6281060661048627e-14 0.0 0.0
-0.07555585737714846 0.07404890004130113 0.0 0.04646916166732124 0.0 0.0
-0.08065949701717556 0.078115188405847 0.0 0.04457005516625081 0.0 0.0
-0.07748688491641346 0.07441146852053127 0.0 0.03919045125254797 0.0 0.0
-0.07015640189872076 0.0668387351461071 0.0 0.03328908088140582 0.0 0.0
-0.06112194146627349 0.057747246566098906 0.0 0.028406381670264547 0.0 0.0
-0.051787242945134586 0.04848388805027061 0.0 0.024697372940286233 0.0 0.0
-0.042862334241414925 0.03971283060590519 0.0 0.02162237156697967 0.0 0.0
-0.03461145196556648 0.03165575371735748 0.0 0.018675011764957138 0.0 0.0
-0.027080699484918057 0.0243274682442886 0.0 0.015640278639214657 0.0 0.0
-0.020272140309595815 0.01770981945222721 0.0 0.012466411587366461 0.0 0.0
-0.014257817028587708 0.011873968218534151 0.0 0.009246956421655017 0.0 0.0
-0.009235742762433564 0.007047915335943426 0.0 0.006255729110781947 0.0 0.0
-0.005463853301614613 0.0035729958070992067 0.0 0.00395437482787632 0.0 0.0
-0.0030490846668837284 0.0016129981590647588 0.0 0.0025948432096870593 0.0 0.0
-0.0017846886763320732 0.0008354630063111947 0.0 0.002089766664425712 0.0 0.0
-0.001201820033913399 0.0005825014570056774 0.0 0.002060012418507608 0.0 0.0
-0.000861465057295529 0.00041933820021611826 0.0 0.002115287046475878 0.0 0.0
-0.000535023917855419 0.00020997026710301987 0.0 0.0021057796529187233 0.0 0.0
-0.000140232924384325 -0.0002008253091096192 0.0 0.0016836470670765153 0.0 0.0
7.798172209210082e-05 -0.0007056271367818578 0.0 0.0010612738929243123 0.0 0.0
6.918824829828922e-06 -0.00045094331789974275 0.0 -0.0008766820987570851 0.0 0.0
-0.00020370357727946702 -0.00013923676929777372 0.0 -0.0014541113601470167 0.0 0.0
-0.0006206068470253628 0.0002484228168197077 0.0 -0.0018905564927913484 0.0 0.0
-0.0010151490689889367 0.00047587109736430314 0.0 -0.0018979086533905689 0.0 0.0
-0.0014617644547061971 0.0006791539648321895 0.0 -0.0017897074869324629 0.0 0.0
-0.002291912135510248 0.0010905679730104172 0.0 -0.001810735123593847 0.0 0.0
-0.004051015204488624 0.0023260222360371847 0.0 -0.0024226377002382893 0.0 0.0
-0.007228501297781282 0.005084004362591307 0.0 -0.003941146241358124 0.0 0.0
-0.011999329106124855 0.00958873642231735 0.0 -0.006398813182577532 0.0 0.0
-0.018220036527090942 0.015608148774841374 0.0 -0.009408642433274132 0.0 0.0
-0.025649652406182454 0.02284601342347645 0.0 -0.012596561700505621 0.0 0.0
-0.03410236529378605 0.031089487002639027 0.0 -0.015736454163699544 0.0 0.0
-0.04348003466699174 0.04024358300823714 0.0 -0.01875298847495218 0.0 0.0
-0.05377064820420452 0.050312910113217806 0.0 -0.021691207227594773 0.0 0.0
-0.06495417411068113 0.06130436868938485 0.0 -0.024722676525822374 0.0 0.0
-0.07675550503644098 0.07301375942154502 0.0 -0.028289829372918893 0.0 0.0
-0.08828676238832144 0.08464166139607929 0.0 -0.03302765799626378 0.0 0.0
-0.09768044117744185 0.09439711798520074 0.0 -0.039037225604235955 0.0 0.0
-0.10176804298283788 0.09917509364585333 0.0 -0.04505759654437158 0.0 0.0
-0.09590356583725443 0.09439675118232772 0.0 -0.049070447634617056 0.0 0.0
-0.08980781080166474 0.07386126789643885 0.0 2.273702059962801e-14 0.0 0.0
-0.09590356583723876 0.09439675118231647 0.0 0.04907044763467475 0.0 0.0
-0.10176804298280547 0.09917509364582477 0.0 0.04505759654442893 0.0 0.0
-0.09768044117739585 0.09439711798515289 0.0 0.03903722560426499 0.0 0.0
-0.0882867623882648 0.08464166139601689 0.0 0.03302765799626539 0.0 0.0
-0.07675550503637835 0.07301375942147995 0.0 0.028289829372905327 0.0 0.0
-0.06495417411061716 0.061304368689326594 0.0 0.02472267652580781 0.0 0.0
-0.053770648204141146 0.05031291011315855 0.0 0.021691207227576007 0.0 0.0
-0.04348003466692936 0.04024358300817278 0.0 0.01875298847493214 0.0 0.0
-0.03410236529372782 0.03108948700258233 0.0 0.01573645416367527 0.0 0.0
-0.025649652406131086 0.022846013423428756 0.0 0.01259656170047748 0.0 0.0
-0.01822003652704841 0.015608148774798717 0.0 0.00940864243325033 0.0 0.0
-0.011999329106093975 0.00958873642228812 0.0 0.006398813182560409 0.0 0.0
-0.007228501297761111 0.005084004362573592 0.0 0.003941146241344601 0.0 0.0
-0.004051015204476936 0.002326022236029718 0.0 0.0024226377002317806 0.0 0.0
-0.0022919121355050275 0.0010905679730086252 0.0 0.0018107351235903545 0.0 0.0
-0.0014617644547045812 0.0006791539648305022 0.0 0.001789707486931452 0.0 0.0
-0.0010151490689885448 0.00047587109736412175 0.0 0.0018979086533879924 0.0 0.0
-0.0006206068470249679 0.00024842281682046206 0.0 0.0018905564927895403 0.0 0.0
-0.0002037035772791075 -0.00013923676929841901 0.0 0.0014541113601460789 0.0 0.0
6.918824829953181e-06 -0.0004509433178990562 0.0 0.0008766820987554033 0.0 0.0
-5.312416630502768e-05 -0.00025142727454543075 0.0 -0.0006881890393028975 0.0 0.0
-0.000260719211774128 -7.32172408359936e-05 0.0 -0.0011986380549346468 0.0 0.0
-0.0007019143058435011 0.0002869591711260902 0.0 -0.0016214575625295667 0.0 0.0
-0.0011618601588507472 0.0005254786839091112 0.0 -0.0016229529231534749 0.0 0.0
-0.001734826445486914 0.000778251469831599 0.0 -0.0014670240152624121 0.0 0.0
-0.0028616306900616966 0.001418571611221331 0.0 -0.0014995292107525865 0.0 0.0
-0.005163794185100585 0.0032031417078917522 0.0 -0.0021629221152645924 0.0 0.0
-0.00911490770774098 0.006777758284441812 0.0 -0.00373029750168021 0.0 0.0
-0.014842709178627633 0.012243922120686144 0.0 -0.006050898952013743 0.0 0.0
-0.022224183518852785 0.01941212301801987 0.0 -0.008826503515723057 0.0 0.0
-0.031059952756653755 0.028036245535081813 0.0 -0.011784180657547003 0.0 0.0
-0.04115212027185578 0.03790076297857092 0.0 -0.014695472886858714 0.0 0.0
-0.05238079488095402 0.04888817341098676 0.0 -0.01750968253509 0.0 0.0
-0.06470746467571913 0.060970734247365335 0.0 -0.020282743593596615 0.0 0.0
-0.07809323337440148 0.07413626117410783 0.0 -0.023084946924302165 0.0 0.0
-0.09226068740015658 0.08818364663850002 0.0 -0.026134485069931213 0.0 0.0
-0.10619697835672097 0.10223820889938896 0.0 -0.030050852101007455 0.0 0.0
-0.11760934853512892 0.11412661005723837 0.0 -0.035535951261226266 0.0 0.0
-0.12271503642709139 0.12007291165602504 0.0 -0.04246753315290039 0.0 0.0
-0.11638913161735878 0.11490867123696205 0.0 -0.05023864521368803 0.0 0.0
-0.10965250358692868 0.09231569819270764 0.0 2.3092638912203256e-14 0.0 0.0
-0.11638913161733846 0.11490867123694379 0.0 0.05023864521374428 0.0 0.0
-0.12271503642705169 0.12007291165598338 0.0 0.04246753315295061 0.0 0.0
-0.11760934853507428 0.11412661005718408 0.0 0.035535951261254264 0.0 0.0
-0.1061969783566552 0.10223820889932156 0.0 0.03005085210101107 0.0 0.0
-0.09226068740008307 0.08818364663842736 0.0 0.02613448506992268 0.0 0.0
-0.07809323337432637 0.07413626117403278 0.0 0.023084946924290656 0.0 0.0
-0.06470746467564462 0.06097073424729822 0.0 0.02028274359357929 0.0 0.0
-0.05238079488088052 0.04888817341091459 0.0 0.01750968253507141 0.0 0.0
-0.04115212027178755 0.03790076297850508 0.0 0.014695472886833424 0.0 0.0
-0.03105995275659345 0.028036245535020377 0.0 0.011784180657519785 0.0 0.0
-0.02222418351880308 0.019412123017973223 0.0 0.008826503515702735 0.0 0.0
-0.014842709178590645 0.012243922120654826 0.0 0.006050898951998856 0.0 0.0
-0.00911490770771535 0.006777758284415493 0.0 0.0037302975016712146 0.0 0.0
-0.0051637941850856146 0.0032031417078820694 0.0 0.0021629221152588275 0.0 0.0
-0.00286163069005529 0.0014185716112174772 0.0 0.0014995292107500755 0.0 0.0
-0.001734826445485044 0.0007782514698313852 0.0 0.0014670240152614184 0.0 0.0
-0.0011618601588504216 0.0005254786839074742 0.0 0.001622952923151692 0.0 0.0
-0.000701914305843158 0.00028695917112552026 0.0 0.0016214575625287597 0.0 0.0
-0.0002607192117742067 -7.321724083553718e-05 0.0 0.0011986380549339442 0.0 0.0
-5.312416630560519e-05 -0.00025142727454518176 0.0 0.0006881890393009624 0.0 0.0
-9.967329603778231e-05 -0.00010715734913617648 0.0 -0.0005010567148391362 0.0 0.0
-0.0003086464195794091 -8.361526411150508e-06 0.0 -0.0009202509226663852 0.0 0.0
-0.0007780681928018044 0.0003246917257295529 0.0 -0.0012969345610293157 0.0 0.0
-0.00130599108479727 0.0005689750513493539 0.0 -0.00128703731532105 0.0 0.0
-0.002033706472818583 0.0008946457767279015 0.0 -0.0010943314232269106 0.0 0.0
-0.0035072796921574506 0.0018407317207958821 0.0 -0.0011375559005272703 0.0 0.0
-0.006383987171755433 0.004239198140127024 0.0 -0.0018147808680655337 0.0 0.0
-0.011074655942565875 0.008582024538623665 0.0 -0.0032128613422142847 0.0 0.0
-0.017712133295321328 0.014949455863671197 0.0 -0.005163891019930303 0.0 0.0
-0.026238497513049006 0.023243066406003987 0.0 -0.007525254654829122 0.0 0.0
-0.03646618426669058 0.03323894200683861 0.0 -0.010047498143469022 0.0 0.0
-0.04819586106372847 0.04472134698319528 0.0 -0.012534049524703487 0.0 0.0
-0.06128391784229863 0.05755032664312512 0.0 -0.01495439410484734 0.0 0.0
-0.07563796576795198 0.0716513419373795 0.0 -0.01738125535093879 0.0 0.0
-0.09115547624080296 0.08693692633326254 0.0 -0.019813015058786177 0.0 0.0
-0.1075187800957717 0.10314641462413189 0.0 -0.022153950523524975 0.0 0.0
-0.12368880913770039 0.11940173239311239 0.0 -0.02467535282757254 0.0 0.0
-0.13716549446249093 0.13342448701671203 0.0 -0.0287947107088068 0.0 0.0
-0.14365129417027955 0.1409271928947889 0.0 -0.036734361825344515 0.0 0.0
-0.13737763599601593 0.13598662971783798 0.0 -0.049709099647792875 0.0 0.0
-0.13025478919923364 0.11174701017937913 0.0 2.1154952789537163e-14 0.0 0.0
-0.13737763599599206 0.13598662971781386 0.0 0.049709099647843195 0.0 0.0
-0.14365129417023328 0.14092719289473965 0.0 0.03673436182538924 0.0 0.0
-0.1371654944624274 0.1334244870166509 0.0 0.02879471070882974 0.0 0.0
-0.12368880913762441 0.11940173239303678 0.0 0.0246753528275763 0.0 0.0
-0.10751878009568733 0.10314641462404907 0.0 0.022153950523520528 0.0 0.0
-0.09115547624071677 0.08693692633317499 0.0 0.019813015058775668 0.0 0.0
-0.07563796576786627 0.07165134193729955 0.0 0.017381255350926383 0.0 0.0
-0.061283917842214056 0.057550326643036914 0.0 0.014954394104831546 0.0 0.0
-0.04819586106364959 0.044721346983120996 0.0 0.012534049524684938 0.0 0.0
-0.03646618426662108 0.03323894200677073 0.0 0.010047498143448024 0.0 0.0
-0.02623849751299198 0.023243066405947196 0.0 0.0075252546548111275 0.0 0.0
-0.01771213329527855 0.014949455863634529 0.0 0.005163891019918687 0.0 0.0
-0.011074655942535948 0.00858202453859466 0.0 0.0032128613422060274 0.0 0.0
-0.0063839871717375745 0.004239198140114193 0.0 0.0018147808680578441 0.0 0.0
-0.003507279692149058 0.001840731720791799 0.0 0.001137555900525781 0.0 0.0
-0.0020337064728153877 0.0008946457767274546 0.0 0.0010943314232244438 0.0 0.0
-0.001305991084796259 0.0005689750513490006 0.0 0.0012870373153223069 0.0 0.0
-0.0007780681928014471 0.0003246917257292617 0.0 0.0012969345610283776 0.0 0.0
-0.0003086464195793594 -8.361526410487197e-06 0.0 0.0009202509226662239 0.0 0.0
-9.967329603777515e-05 -0.00010715734913596465 0.0 0.0005010567148398944 0.0 0.0
-0.00012785832520293843 -1.8787593220023744e-05 0.0 -0.0003254571993880294 0.0 0.0
-0.0003418486032860769 4.8350440676975606e-05 0.0 -0.0006229198354680723 0.0 0.0
-0.0008466085845001867 0.00035863726846676605 0.0 -0.0009101537115554302 0.0 0.0
-0.001455216540080885 0.0006108939452698284 0.0 -0.0008843285810242365 0.0 0.0
-0.0023731057570198695 0.0010468142264643562 0.0 -0.0006811312135623927 0.0 0.0
-0.0042395833707899 0.002384156207648533 0.0 -0.0007300204223860335 0.0 0.0
-0.007678220420210024 0.005394382095104904 0.0 -0.0013084942945374863 0.0 0.0
-0.01306389441000617 0.010434960714916784 0.0 -0.0023239843084522944 0.0 0.0
-0.020582871312571457 0.01767028007447152 0.0 -0.0037622961486661697 0.0 0.0
-0.030227906862170993 0.02706250733536227 0.0 -0.0055127670231205515 0.0 0.0
-0.04183423626737601 0.03841584740653723 0.0 -0.007395025964892428 0.0 0.0
-0.05519749156224443 0.05151332903052953 0.0 -0.009256966813605756 0.0 0.0
-0.07014801097982687 0.06619040529890764 0.0 -0.011091068121824112 0.0 0.0
-0.08653376215588478 0.08231383555618321 0.0 -0.012980246589553716 0.0 0.0
-0.10412110830806695 0.0996766607770683 0.0 -0.014871565035129378 0.0 0.0
-0.12245940059779975 0.1178658070227745 0.0 -0.0164719341064847 0.0 0.0
-0.14056919299262452 0.135980299385297 0.0 -0.017569026450510807 0.0 0.0
-0.15616652337628306 0.15198279309392476 0.0 -0.019454816002611227 0.0 0.0
-0.16464137280038524 0.1616975424116708 0.0 -0.026906377264946716 0.0 0.0
-0.15925433571358205 0.1581062263680248 0.0 -0.04641285322763442 0.0 0.0
-0.15216261321388347 0.1327957857749394 0.0 1.2568071583451967e-14 0.0 0.0
-0.1592543357135538 0.1581062263679992 0.0 0.046412853227673474 0.0 0.0
-0.16464137280033184 0.16169754241161555 0.0 0.026906377264983794 0.0 0.0
-0.15616652337620993 0.15198279309385568 0.0 0.019454816002627537 0.0 0.0
-0.14056919299253792 0.1359802993852071 0.0 0.017569026450512826 0.0 0.0
-0.12245940059770508 0.11786580702268329 0.0 0.016471934106482834 0.0 0.0
-0.1041211083079701 0.09967666077697505 0.0 0.01487156503512535 0.0 0.0
-0.08653376215578795 0.0823138355560848 0.0 0.012980246589544126 0.0 0.0
-0.07014801097973115 0.0661904052988091 0.0 0.011091068121813243 0.0 0.0
-0.05519749156215535 0.05151332903044371 0.0 0.00925696681359165 0.0 0.0
-0.04183423626729864 0.038415847406462304 0.0 0.007395025964875035 0.0 0.0
-0.030227906862107377 0.02706250733530077 0.0 0.005512767023105418 0.0 0.0
-0.020582871312522667 0.0176702800744252 0.0 0.0037622961486580104 0.0 0.0
-0.013063894409971598 0.010434960714883087 0.0 0.002323984308444911 0.0 0.0
-0.007678220420188932 0.005394382095086922 0.0 0.0013084942945296428 0.0 0.0
-0.004239583370779765 0.0023841562076400563 0.0 0.0007300204223850432 0.0 0.0
-0.0023731057570161793 0.0010468142264617951 0.0 0.000681131213560229 0.0 0.0
-0.00145521654007943 0.0006108939452702549 0.0 0.000884328581025059 0.0 0.0
-0.0008466085844988697 0.00035863726846681337 0.0 0.0009101537115535066 0.0 0.0
-0.00034184860328533235 4.835044067721214e-05 0.0 0.0006229198354675889 0.0 0.0
-0.000127858325202578 -1.878759321984257e-05 0.0 0.00032545719938738353 0.0 0.0
-0.00012905440580562546 1.3890193388533963e-05 0.0 -0.00018317711209077197 0.0 0.0
-0.0003501803173833147 8.62159459421556e-05 0.0 -0.0003121506758401276 0.0 0.0
-0.000903434568921765 0.0003831583006229445 0.0 -0.00044287735808022074 0.0 0.0
-0.0016215871186543486 0.0006643019789734977 0.0 -0.00041063534820070456 0.0 0.0
-0.0027713397738962065 0.0012621148231720014 0.0 -0.00023902354827580816 0.0 0.0
-0.005047359503322111 0.0030436820467656047 0.0 -0.0002558685179533068 0.0 0.0
-0.00901811462281557 0.0066191728066725365 0.0 -0.000570365651142187 0.0 0.0
-0.015057251157293429 0.012307579444910911 0.0 -0.0011004932051949029 0.0 0.0
-0.023421783435900734 0.020371808277010694 0.0 -0.0018534977645001238 0.0 0.0
-0.03415789794604344 0.030832118308347423 0.0 -0.002794809958546529 0.0 0.0
-0.047127892387856855 0.04352954687302058 0.0 -0.003822445515955462 0.0 0.0
-0.06212272405207975 0.05824259279865196 0.0 -0.004862155920976035 0.0 0.0
-0.07893900422577275 0.07477007500201883 0.0 -0.005933643341710811 0.0 0.0
-0.09734190882100777 0.09290364359908124 0.0 -0.007058079276767133 0.0 0.0
-0.11695915277918151 0.1123114987776824 0.0 -0.008174399659841267 0.0 0.0
-0.13713888169638527 0.13237861548605545 0.0 -0.00905464541534356 0.0 0.0
-0.15680250071590068 0.15203860008926298 0.0 -0.009303148793112207 0.0 0.0
-0.17414846958246022 0.16950397031933023 0.0 -0.009224300486086384 0.0 0.0
-0.1854292784747936 0.1815447490054548 0.0 -0.013153727816451058 0.0 0.0
-0.18258186120794637 0.18167564309613138 0.0 -0.034746036721742445 0.0 0.0
-0.1762621864292573 0.15731647001059554 0.0 6.58501031480796e-15 0.0 0.0
-0.18258186120791353 0.1816756430961082 0.0 0.034746036721765 0.0 0.0
-0.1854292784747332 0.18154474900539694 0.0 0.0131537278164734 0.0 0.0
-0.17414846958237673 0.1695039703192465 0.0 0.009224300486094319 0.0 0.0
-0.1568025007158023 0.15203860008915948 0.0 0.00930314879311236 0.0 0.0
-0.13713888169627872 0.1323786154859527 0.0 0.00905464541534214 0.0 0.0
-0.11695915277907316 0.1123114987775824 0.0 0.008174399659840634 0.0 0.0
-0.0973419088209004 0.09290364359896575 0.0 0.007058079276761119 0.0 0.0
-0.07893900422566712 0.07477007500191646 0.0 0.005933643341705227 0.0 0.0
-0.062122724051980896 0.058242592798553705 0.0 0.004862155920968546 0.0 0.0
-0.047127892387770785 0.04352954687293823 0.0 0.0038224455159472804 0.0 0.0
-0.034157897945973154 0.030832118308278783 0.0 0.0027948099585378464 0.0 0.0
-0.02342178343584618 0.02037180827695726 0.0 0.0018534977644935535 0.0 0.0
-0.015057251157254741 0.012307579444874346 0.0 0.0011004932051902744 0.0 0.0
-0.009018114622791382 0.0066191728066481905 0.0 0.0005703656511377002 0.0 0.0
-0.0050473595033088785 0.003043682046752141 0.0 0.0002558685179516482 0.0 0.0
-0.0027713397738911047 0.0012621148231684676 0.0 0.000239023548274843 0.0 0.0
-0.0016215871186527292 0.0006643019789736021 0.0 0.00041063534820074207 0.0 0.0
-0.000903434568921057 0.0003831583006224217 0.0 0.0004428773580793271 0.0 0.0
-0.0003501803173834977 8.621594594206062e-05 0.0 0.0003121506758402463 0.0 0.0
-0.00012905440580606903 1.3890193388653552e-05 0.0 0.00018317711208843613 0.0 0.0
-8.78757612991603e-05 1.6446968668011117e-05 0.0 -0.00011191705592949628 0.0 0.0
-0.0003157003095479416 9.8757110362322e-05 0.0 -0.00012974874391356357 0.0 0.0
-0.0009436494391013859 0.00039220665642992255 0.0 -0.00014627928220907553 0.0 0.0
-0.0018239301756717598 0.0006961064495505327 0.0 -8.398884259887183e-05 0.0 0.0
-0.0032387756466057713 0.0013903672778331246 0.0 0.00017670640376767435 0.0 0.0
-0.005912605606331086 0.003397630108294199 0.0 0.00040089090392034243 0.0 0.0
-0.010380497098628266 0.007243890616042909 0.0 0.0005088230759641855 0.0 0.0
-0.017032432984718602 0.01324586302282453 0.0 0.0005432713873022681 0.0 0.0
-0.026197868641243065 0.02171308006187008 0.0 0.0004991078276649725 0.0 0.0
-0.03799192005463814 0.03269983342225209 0.0 0.0003356833736277106 0.0 0.0
-0.052312469461256804 0.04606563804954434 0.0 9.328678137222272e-05 0.0 0.0
-0.06894079362063264 0.06158781025410737 0.0 -0.00021760313614661245 0.0 0.0
-0.08760938756020013 0.07904014215189427 0.0 -0.0006272158930447505 0.0 0.0
-0.10800256003590739 0.09817213481562986 0.0 -0.0011083801419452064 0.0 0.0
-0.1296310374288598 0.118596299885561 0.0 -0.0016736700416824096 0.0 0.0
-0.15163503004934836 0.13959102232592163 0.0 -0.0022140193188117004 0.0 0.0
-0.17266198162602722 0.15996275902696352 0.0 -0.0024473161417435368 0.0 0.0
-0.1909219936740137 0.1779840862419986 0.0 -0.002173220281997089 0.0 0.0
-0.20430585851890187 0.1910503930080414 0.0 -0.004279379722849842 0.0 0.0
-0.2076319837323989 0.193855766027981 0.0 -0.026465567619599915 0.0 0.0
-0.2057669738834585 0.17081071800397474 0.0 5.689893001203927e-16 0.0 0.0
-0.20763198373236166 0.19385576602795862 0.0 0.02646556761960683 0.0 0.0
-0.20430585851883332 0.19105039300798676 0.0 0.004279379722858363 0.0 0.0
-0.19092199367391866 0.17798408624190182 0.0 0.002173220281998973 0.0 0.0
-0.17266198162591712 0.15996275902685586 0.0 0.002447316141743018 0.0 0.0
-0.15163503004923043 0.13959102232580828 0.0 0.002214019318808637 0.0 0.0
-0.1296310374287399 0.1185962998854565 0.0 0.0016736700416822362 0.0 0.0
-0.10800256003578865 0.09817213481550849 0.0 0.0011083801419406406 0.0 0.0
-0.08760938756008303 0.07904014215178454 0.0 0.0006272158930425101 0.0 0.0
-0.06894079362052304 0.06158781025400506 0.0 0.00021760313614394185 0.0 0.0
-0.05231246946116273 0.04606563804945588 0.0 -9.328678137394096e-05 0.0 0.0
-0.03799192005456317 0.03269983342217122 0.0 -0.0003356833736291552 0.0 0.0
-0.026197868641183675 0.021713080061812117 0.0 -0.0004991078276697582 0.0 0.0
-0.017032432984674942 0.01324586302278679 0.0 -0.0005432713873030856 0.0 0.0
-0.010380497098601296 0.0072438906160181196 0.0 -0.000508823075962799 0.0 0.0
-0.0059126056063160005 0.003397630108280189 0.0 -0.0004008909039198568 0.0 0.0
-0.003238775646598469 0.0013903672778321236 0.0 -0.00017670640376555983 0.0 0.0
-0.0018239301756692338 0.0006961064495507061 0.0 8.398884259787419e-05 0.0 0.0
-0.0009436494391000675 0.0003922066564293972 0.0 0.00014627928220844604 0.0 0.0
-0.00031570030954716115 9.875711036207002e-05 0.0 0.00012974874391444234 0.0 0.0
-8.787576129902559e-05 1.644696866813439e-05 0.0 0.00011191705593073637 0.0 0.0
SCALARS Statev float 8
LOOKUP_TABLE default
0.0 0.019655619124508215 0.01579710837721495 -0.01874318582986341 0.002946077452648445 -0.0011678741320342778 0.0 0.0
0.0 0.006899046611250702 0.005114070839957755 -0.003257789644582347 -0.0018562811953754055 -0.007238123235511214 0.0 0.0
0.0 0.00018595476280228233 0.00024010186844867818 -0.00014580685286090633 -9.429501558777222e-05 -0.00037351763992371723 0.0 0.0
0.0 0.00018883847056561627 0.00010331343592928196 -7.401144963335229e-05 -2.930198629592989e-05 3.216843089941392e-05 0.0 0.0
0.0 0.0011688558614141873 0.0008447008941195225 -0.0006216355145842686 -0.00022306537953525364 0.0001737113823933692 0.0 0.0
0.0 0.003105554708159086 0.003035173827748497 -0.0024336425125241236 -0.0006015313152243758 0.00035712296023075887 0.0 0.0
0.0 0.007709226458848377 0.007044626698643673 -0.006107766749892774 -0.0009368599487508855 0.0004963898211296353 0.0 0.0
0.0 0.014771494011455204 0.013291216853726869 -0.012091483901012442 -0.0011997329527144345 0.0005563197407904041 0.0 0.0
0.0 0.024763192413272135 0.022053886466753183 -0.02060964051798857 -0.001444245948764604 0.0005349040770425323 0.0 0.0
0.0 0.037824193956493696 0.03342782605617316 -0.0317107876098999 -0.0017170384462732629 0.00039884623946034186 0.0 0.0
0.0 0.053829184022219055 0.04731193215562824 -0.04527533667705867 -0.002036595478569529 0.00017728897310802163 0.0 0.0
0.0 0.0722090007553094 0.06350040531573642 -0.06109497776956082 -0.002405427546175519 -0.00012275441257567413 0.0 0.0
0.0 0.09303747714387439 0.08174595079711422 -0.07893396085943015 -0.0028119899376840684 -0.0005190560123991807 0.0 0.0
0.0 0.11595695628757102 0.10178962189931381 -0.09854811958848653 -0.0032415023108270285 -0.0009615435308805684 0.0 0.0
0.0 0.1405737223223205 0.12328422952260253 -0.11960960904376801 -0.0036746204788343693 -0.0014751406875721193 0.0 0.0
0.0 0.16626297990551792 0.14564776281907038 -0.14155833667537795 -0.004089426143692368 -0.002035383095644845 0.0 0.0
0.0 0.1919377120307979 0.1679671655628162 -0.16350375687336843 -0.00446340868944795 -0.0025301832926687144 0.0 0.0
0.0 0.21614987128154992 0.18899781542154243 -0.18422359956489975 -0.004774215856642669 -0.0027756044547357964 0.0 0.0
0.0 0.23718199099152273 0.20726607213595932 -0.20224791749999654 -0.005018154635962576 -0.002614980339251039 0.0 0.0
0.0 0.2527348246345393 0.2209789325332397 -0.2158120779393235 -0.005166854593916322 -0.003078105333182653 0.0 0.0
0.0 0.2594049636848133 0.2265171042966313 -0.22136796458294633 -0.005149139713684789 4.1598668953923834e-15 0.0 0.0
0.0 0.25273482463450414 0.22097893253320902 -0.21581207793929397 -0.0051668545939150936 0.003078105333191054 0.0 0.0
0.0 0.2371819909914462 0.20726607213589276 -0.20224791749992996 -0.0050181546359626 0.0026149803392602963 0.0 0.0
0.0 0.21614987128144536 0.18899781542145097 -0.18422359956481016 -0.004774215856640671 0.0027756044547400955 0.0 0.0
0.0 0.19193771203067955 0.1679671655627133 -0.16350375687326799 -0.004463408689445533 0.0025301832926678666 0.0 0.0
0.0 0.16626297990538608 0.1456477628189552 -0.1415583366752641 -0.004089426143691065 0.002035383095640851 0.0 0.0
0.0 0.14057372232219312 0.12328422952249103 -0.1196096090436591 -0.0036746204788317516 0.001475140687571143 0.0 0.0
0.0 0.11595695628744501 0.10178962189920344 -0.09854811958837925 -0.003241502310824318 0.0009615435308788032 0.0 0.0
0.0 0.09303747714375203 0.08174595079700722 -0.07893396085932594 -0.002811989937681194 0.0005190560123954479 0.0 0.0
0.0 0.07220900075519607 0.06350040531563741 -0.061094977769463765 -0.002405427546173545 0.00012275441257122597 0.0 0.0
0.0 0.05382918402211444 0.04731193215553717 -0.045275336676968855 -0.0020365954785682722 -0.00017728897311315348 0.0 0.0
0.0 0.03782419395642049 0.03342782605610893 -0.03171078760983769 -0.0017170384462712922 -0.00039884623946201923 0.0 0.0
0.0 0.024763192413210146 0.022053886466698543 -0.02060964051793552 -0.0014442459487629842 -0.0005349040770422496 0.0 0.0
0.0 0.014771494011417405 0.013291216853693048 -0.012091483900979671 -0.0011997329527133767 -0.0005563197407910461 0.0 0.0
0.0 0.007709226458821852 0.007044626698619126 -0.0061077667498698925 -0.0009368599487492235 -0.000496389821129125 0.0 0.0
0.0 0.0031055547081479053 0.0030351738277373656 -0.0024336425125145228 -0.000601531315222847 -0.0003571229602298074 0.0 0.0
0.0 0.0011688558614097709 0.0008447008941163958 -0.000621635514582008 -0.00022306537953438663 -0.00017371138239244302 0.0 0.0
0.0 0.00018883847056411644 0.00010331343592866181 -7.4011449632906e-05 -2.930198629575518e-05 -3.2168430899320797e-05 0.0 0.0
0.0 0.0001859547628011025 0.00024010186844769716 -0.0001458068528602958 -9.429501558740066e-05 0.0003735176399220679 0.0 0.0
0.0 0.006899046611240012 0.005114070839952356 -0.003257789644578189 -0.0018562811953741674 0.007238123235502214 0.0 0.0
0.0 0.019655619124486833 0.01579710837720074 -0.018743185829843807 0.0029460774526430533 0.0011678741319919124 0.0 0.0
0.0 0.01612223125989551 0.012146083040868888 -0.015598369805357368 0.003452286764488474 -0.0006726944835144512 0.0 0.0
0.0 0.004336784377472602 0.003118752276404627 -0.0019718244005032543 -0.001146927875901368 -0.005793404678014446 0.0 0.0
0.0 -8.831296981096548e-05 -7.65027755718414e-05 7.114726052113712e-05 5.355515050704325e-06 -0.00010702452255466279 0.0 0.0
0.0 5.163369956257757e-05 4.3014035015459606e-05 -3.0990724280557275e-05 -1.202331073490235e-05 1.5062256559999905e-05 0.0 0.0
0.0 0.0006812069116560498 0.0005649598563373484 -0.000419218483476437 -0.00014574137286091127 6.790711808133654e-05 0.0 0.0
0.0 0.002698634174864993 0.0023748504397372253 -0.0019237843720493488 -0.00045106606768787914 4.9435223185793885e-05 0.0 0.0
0.0 0.006591666516927986 0.006005306337695279 -0.0052748882437598085 -0.0007304180939354695 -0.0002610327130014279 0.0 0.0
0.0 0.013147797670168883 0.011733279671818806 -0.010834125276373428 -0.0008991543954453767 -0.000787257073940638 0.0 0.0
0.0 0.02247196827638394 0.019821591045480237 -0.01881122901822148 -0.0010103620272587518 -0.0015295786700801337 0.0 0.0
0.0 0.03457843161459875 0.03031149060708936 -0.02920558687011897 -0.0011059037369704045 -0.002458227973211637 0.0 0.0
0.0 0.0493456255502244 0.04307015947444021 -0.04187133978160077 -0.001198819692839463 -0.0034885945771917473 0.0 0.0
0.0 0.06663969516203887 0.05789653175135505 -0.056602399799189934 -0.001294131952165098 -0.004548553948981611 0.0 0.0
0.0 0.08564825442503722 0.07459983842920148 -0.07320781995140113 -0.0013920184778002842 -0.005640790786304723 0.0 0.0
0.0 0.10686473848876668 0.0929644167057486 -0.09147901957384874 -0.001485397131899832 -0.006764832449014788 0.0 0.0
0.0 0.12963745215817143 0.11268439830724626 -0.11112056200982062 -0.0015638362974254622 -0.00788398415944819 0.0 0.0
0.0 0.15340630766597735 0.13324550245517786 -0.1316270145397707 -0.0016184879154072871 -0.00889621375740701 0.0 0.0
0.0 0.17725758199829866 0.15383512550506628 -0.15219108954298755 -0.0016440359620786109 -0.009551959133090463 0.0 0.0
0.0 0.19987843161741176 0.1733262166675049 -0.17168457836563625 -0.0016416383018687465 -0.009509997336863663 0.0 0.0
0.0 0.21952900788190743 0.1902587558344788 -0.18865669549403563 -0.0016020603404430919 -0.00860504493533214 0.0 0.0
0.0 0.23388225565956208 0.20254838892897148 -0.20110281705406588 -0.001445571874905652 -0.0076284539579766775 0.0 0.0
0.0 0.2401372872105725 0.2073515917979074 -0.2061471821172633 -0.001204409680644253 8.805456364058273e-15 0.0 0.0
0.0 0.23388225565953114 0.20254838892894345 -0.2011028170540388 -0.001445571874904618 0.007628453957998477 0.0 0.0
0.0 0.2195290078818376 0.1902587558344188 -0.18865669549397457 -0.0016020603404440369 0.008605044935354923 0.0 0.0
0.0 0.1998784316173156 0.1733262166674221 -0.17168457836555337 -0.0016416383018686763 0.009509997336876637 0.0 0.0
0.0 0.17725758199819167 0.15383512550497386 -0.15219108954289576 -0.0016440359620782127 0.009551959133092605 0.0 0.0
0.0 0.15340630766585747 0.1332455024550746 -0.1316270145396668 -0.001618487915407472 0.008896213757401312 0.0 0.0
0.0 0.12963745215805542 0.11268439830714512 -0.1111205620097208 -0.0015638362974244053 0.00788398415944459 0.0 0.0
0.0 0.10686473848864858 0.0929644167056462 -0.0914790195737471 -0.00148539713189901 0.006764832449010757 0.0 0.0
0.0 0.08564825442492392 0.07459983842910342 -0.07320781995130365 -0.0013920184777996844 0.00564079078629761 0.0 0.0
0.0 0.06663969516193453 0.05789653175126436 -0.05660239979909962 -0.001294131952164773 0.004548553948974561 0.0 0.0
0.0 0.04934562555013106 0.043070159474359826 -0.041871339781520314 -0.0011988196928395256 0.0034885945771811876 0.0 0.0
0.0 0.03457843161452811 0.030311490607027394 -0.02920558687005774 -0.0011059037369696124 0.0024582279732048734 0.0 0.0
0.0 0.02247196827632964 0.01982159104543222 -0.018811229018174135 -0.0010103620272580837 0.0015295786700762852 0.0 0.0
0.0 0.013147797670132797 0.011733279671786686 -0.010834125276342008 -0.000899154395444694 0.000787257073936844 0.0 0.0
0.0 0.006591666516903646 0.0060053063376732324 -0.0052748882437388634 -0.0007304180939343616 0.00026103271299914255 0.0 0.0
0.0 0.002698634174854503 0.0023748504397280183 -0.0019237843720414111 -0.0004510660676866047 -4.9435223186043706e-05 0.0 0.0
0.0 0.0006812069116528987 0.0005649598563351972 -0.0004192184834748601 -0.00014574137286033702 -6.790711808086575e-05 0.0 0.0
0.0 5.163369956193185e-05 4.301403501544294e-05 -3.099072428055449e-05 -1.2023310734888361e-05 -1.506225655991368e-05 0.0 0.0
0.0 -8.831296981153862e-05 -7.650277557169714e-05 7.114726052098543e-05 5.35551505071152e-06 0.00010702452255423802 0.0 0.0
0.0 0.004336784377461699 0.003118752276398727 -0.001971824400498982 -0.0011469278758997406 0.00579340467800313 0.0 0.0
0.0 0.016122231259871965 0.012146083040850925 -0.015598369805335015 0.0034522867644840825 0.000672694483482448 0.0 0.0
0.0 0.012124915712615161 0.00894234055339104 -0.011793872949710477 0.002851532396319441 -0.003273129597666324 0.0 0.0
0.0 0.003000676430272797 0.0019181279852049672 -0.0010756380077102147 -0.0008424899774947564 -0.0050022798162904425 0.0 0.0
0.0 6.644095679194399e-07 1.5062725790154052e-06 -1.3308180507548333e-06 -1.754545282605681e-07 9.341877643746297e-07 0.0 0.0
0.0 6.527462811436138e-07 -1.0552695348236067e-06 1.3662275744032762e-06 -3.1095803957978607e-07 6.116940612240015e-06 0.0 0.0
0.0 0.00032532727205438947 0.0002870808770887649 -0.00020755247960186154 -7.95283974869037e-05 1.2114881867861675e-05 0.0 0.0
0.0 0.0019504521791214452 0.00166699304751926 -0.0013138102484684929 -0.0003531827990507656 -0.00012232018476808628 0.0 0.0
0.0 0.005168693306274528 0.004776653239678719 -0.00411487233355137 -0.0006617809061273493 -0.0007290259839892353 0.0 0.0
0.0 0.011038459892373278 0.009852901873210453 -0.009003021451814246 -0.0008498804213962008 -0.0017432277315287273 0.0 0.0
0.0 0.01938603474358915 0.017097423098177265 -0.016135191353898945 -0.0009622317442782939 -0.003157641690878278 0.0 0.0
0.0 0.030319509733960415 0.0264978238313298 -0.02544694393238235 -0.0010508798989474714 -0.004888734130117074 0.0 0.0
0.0 0.043569916964210455 0.03789320694065077 -0.03675582325515704 -0.0011373836854937135 -0.00677985127305978 0.0 0.0
0.0 0.05879531935552296 0.05109096463803133 -0.049863265989322905 -0.001227698648708404 -0.008684003375074294 0.0 0.0
0.0 0.07615859966814968 0.06593030991364522 -0.06461018010563989 -0.0013201298080052894 -0.010572656887312532 0.0 0.0
0.0 0.09478722460119088 0.08226410124535488 -0.08085615680260679 -0.0014079444427481684 -0.012499169251971727 0.0 0.0
0.0 0.1151309899164989 0.09984248112506551 -0.09835935035806465 -0.0014831307670010328 -0.014422236622374738 0.0 0.0
0.0 0.13641616332597228 0.11824161382475697 -0.11670385853895658 -0.0015377552858002925 -0.01613658380297107 0.0 0.0
0.0 0.1578728607193064 0.1367846450028463 -0.1352176921816906 -0.001566952821155869 -0.0172418053257547 0.0 0.0
0.0 0.17832328202697148 0.15446476537332363 -0.1529010941342751 -0.0015636712390486285 -0.017236689102888954 0.0 0.0
0.0 0.19612164584129646 0.16982168618551094 -0.1683178806437938 -0.001503805541716953 -0.01584129571612006 0.0 0.0
0.0 0.2090258230181877 0.1809097583351637 -0.17950005710980385 -0.0014097012253593837 -0.01311916009732356 0.0 0.0
0.0 0.21491898090201036 0.18537553761428693 -0.18424620881861645 -0.0011293287956704841 1.5308934675495323e-14 0.0 0.0
0.0 0.20902582301815767 0.18090975833513612 -0.1795000571097764 -0.0014097012253596211 0.013119160097363565 0.0 0.0
0.0 0.19612164584123812 0.1698216861854599 -0.16831788064374315 -0.0015038055417168777 0.01584129571616032 0.0 0.0
0.0 0.17832328202688813 0.15446476537325146 -0.15290109413420244 -0.0015636712390489475 0.017236689102911706 0.0 0.0
0.0 0.1578728607192089 0.13678464500276266 -0.13521769218160704 -0.0015669528211557035 0.01724180532575786 0.0 0.0
0.0 0.1364161633258678 0.11824161382466654 -0.11670385853886621 -0.0015377552858002977 0.01613658380296354 0.0 0.0
0.0 0.11513098991639466 0.09984248112497499 -0.09835935035797488 -0.001483130767000126 0.014422236622368946 0.0 0.0
0.0 0.09478722460108494 0.08226410124526308 -0.08085615680251548 -0.001407944442747659 0.012499169251966088 0.0 0.0
0.0 0.07615859966804958 0.06593030991355894 -0.06461018010555385 -0.001320129808005115 0.010572656887301432 0.0 0.0
0.0 0.05879531935542865 0.051090964637950084 -0.04986326598924179 -0.0012276986487082197 0.008684003375061217 0.0 0.0
0.0 0.04356991696413136 0.03789320694058203 -0.03675582325508874 -0.001137383685493279 0.006779851273045283 0.0 0.0
0.0 0.030319509733894287 0.02649782383127192 -0.025446943932324738 -0.001050879898947147 0.0048887341301047 0.0 0.0
0.0 0.019386034743542366 0.01709742309813622 -0.016135191353858536 -0.0009622317442776904 0.0031576416908704777 0.0 0.0
0.0 0.011038459892339914 0.009852901873181257 -0.009003021451785753 -0.0008498804213954857 0.0017432277315218708 0.0 0.0
0.0 0.00516869330625441 0.004776653239660421 -0.004114872333534209 -0.0006617809061262131 0.0007290259839852125 0.0 0.0
0.0 0.0019504521791121304 0.0016669930475112665 -0.0013138102484619052 -0.0003531827990493607 0.0001223201847670145 0.0 0.0
0.0 0.0003253272720523612 0.0002870808770875759 -0.0002075524796010564 -7.952839748651946e-05 -1.2114881867524161e-05 0.0 0.0
0.0 6.527462812193142e-07 -1.0552695345646524e-06 1.3662275742134953e-06 -3.10958039648828e-07 -6.116940612193504e-06 0.0 0.0
0.0 6.64409568083828e-07 1.5062725790011473e-06 -1.3308180507425109e-06 -1.754545282586375e-07 -9.34187764368685e-07 0.0 0.0
0.0 0.0030006764302638613 0.0019181279851997626 -0.0010756380077067116 -0.0008424899774930464 0.0050022798162769055 0.0 0.0
0.0 0.012124915712591522 0.00894234055337354 -0.011793872949688488 0.0028515323963149383 0.003273129597645482 0.0 0.0
0.0 0.00926172635704023 0.006659074050693837 -0.008962225807483688 0.0023031517567898324 -0.0035344329636719735 0.0 0.0
0.0 0.0022009959342273407 0.0013227935685974387 -0.0007250907450509646 -0.0005977028235464691 -0.0038195989448595643 0.0 0.0
0.0 0.0 0.0 0.0 0.0 0.0 0.0 0.0
0.0 -4.092187788181919e-06 -4.030344814669075e-06 3.178150397855516e-06 8.521944168135586e-07 3.0417834332657043e-06 0.0 0.0
0.0 0.00012196424034011162 9.893884051458893e-05 -6.847430175934145e-05 -3.0464538755246885e-05 5.344954255582679e-06 0.0 0.0
0.0 0.0012052595563355722 0.0010772348641595335 -0.0008257891908815354 -0.00025144567327799747 -0.00021149160472317598 0.0 0.0
0.0 0.004066410359951019 0.00359400097135768 -0.003022240926247898 -0.0005717600451097825 -0.0009402138230614387 0.0 0.0
0.0 0.00898188009229826 0.007994715199718838 -0.007205736579071996 -0.0007889786206468317 -0.0023580141319483263 0.0 0.0
0.0 0.016373150721094194 0.014360010040234367 -0.013451782262819515 -0.0009082277774148448 -0.004284589620086514 0.0 0.0
0.0 0.026054783576466563 0.02264305199551162 -0.021650953532778495 -0.0009920984627331067 -0.006624113614928254 0.0 0.0
0.0 0.037702070435560425 0.032660102125196086 -0.03158839607250595 -0.0010717060526900866 -0.00915840044534914 0.0 0.0
0.0 0.05122288757445549 0.04422162599293293 -0.043065517602066186 -0.001156108390866758 -0.01170096981428375 0.0 0.0
0.0 0.06615978848494776 0.057200357008779734 -0.05595680154471841 -0.0012435554640613485 -0.014215193096076734 0.0 0.0
0.0 0.08296596878303923 0.07148272525058687 -0.07015739592398354 -0.001325329326603276 -0.01674442108688174 0.0 0.0
0.0 0.1007366955008729 0.08690008741712184 -0.0855034053699345 -0.0013966820471872073 -0.019252816539679262 0.0 0.0
0.0 0.11935039827099903 0.10312983198210186 -0.10167701487731808 -0.0014528171047838024 -0.0215144474454289 0.0 0.0
0.0 0.13851265836770318 0.11962291931620951 -0.11813801708869018 -0.001484902227519294 -0.023057493035281654 0.0 0.0
0.0 0.1568689310911573 0.13549724644366956 -0.1340168108381426 -0.0014804356055268168 -0.023276484002699875 0.0 0.0
0.0 0.17293675198463238 0.14941914401837272 -0.1479859767893565 -0.0014331672290162968 -0.02155062395923367 0.0 0.0
0.0 0.18477001148060612 0.15970644791674798 -0.15833528649825182 -0.001371161418496623 -0.016978925825324155 0.0 0.0
0.0 0.19067342568863324 0.16411366139747008 -0.1631336095562092 -0.0009800518412607286 2.2323289050607542e-14 0.0 0.0
0.0 0.18477001148057615 0.15970644791672045 -0.1583352864982231 -0.001371161418497529 0.016978925825377703 0.0 0.0
0.0 0.1729367519845844 0.1494191440183293 -0.14798597678931377 -0.0014331672290154745 0.021550623959286606 0.0 0.0
0.0 0.15686893109108804 0.13549724644360897 -0.1340168108380818 -0.0014804356055270439 0.02327648400273072 0.0 0.0
0.0 0.138512658367614 0.11962291931613317 -0.11813801708861346 -0.0014849022275196422 0.02305749303528534 0.0 0.0
0.0 0.11935039827090861 0.1031298319820239 -0.10167701487724004 -0.0014528171047838152 0.02151444744541998 0.0 0.0
0.0 0.10073669550077823 0.08690008741703972 -0.08550340536985263 -0.0013966820471871572 0.019252816539669988 0.0 0.0
0.0 0.0829659687829473 0.07148272525050692 -0.07015739592390424 -0.0013253293266027115 0.016744421086873306 0.0 0.0
0.0 0.06615978848485873 0.057200357008703406 -0.055956801544642415 -0.0012435554640608656 0.014215193096062312 0.0 0.0
0.0 0.05122288757437472 0.044221625992863334 -0.04306551760199637 -0.0011561083908670433 0.011700969814265045 0.0 0.0
0.0 0.03770207043548875 0.03266010212513418 -0.031588396072444576 -0.0010717060526895645 0.009158400445330298 0.0 0.0
0.0 0.026054783576407375 0.022643051995460472 -0.021650953532727727 -0.0009920984627327623 0.006624113614910835 0.0 0.0
0.0 0.016373150721051777 0.014360010040197595 -0.01345178226278339 -0.0009082277774141964 0.004284589620075322 0.0 0.0
0.0 0.00898188009227021 0.007994715199693664 -0.007205736579047724 -0.0007889786206459336 0.0023580141319397632 0.0 0.0
0.0 0.004066410359933364 0.0035940009713427796 -0.0030222409262344427 -0.0005717600451083331 0.0009402138230564586 0.0 0.0
0.0 0.0012052595563276241 0.0010772348641531473 -0.0008257891908763651 -0.0002514456732767821 0.00021149160472131183 0.0 0.0
0.0 0.00012196424033886082 9.893884051404899e-05 -6.847430175900677e-05 -3.0464538755041974e-05 -5.3449542552494125e-06 0.0 0.0
0.0 -4.0921877885761515e-06 -4.0303448146887796e-06 3.1781503978714375e-06 8.521944168173646e-07 -3.041783433296293e-06 0.0 0.0
0.0 0.0 0.0 0.0 0.0 0.0 0.0 0.0
0.0 0.002200995934219715 0.0013227935685930182 -0.0007250907450480025 -0.0005977028235450186 0.0038195989448479924 0.0 0.0
0.0 0.009261726357019783 0.006659074050677996 -0.008962225807463668 0.002303151756785667 0.0035344329636566555 0.0 0.0
0.0 0.00685573408974006 0.004900639336467988 -0.006713971831978521 0.0018133324955105362 -0.0030368474597357157 0.0 0.0
0.0 0.0017606974227957625 0.0008813289033842007 -0.0004728172007265511 -0.00040851170265764904 -0.0027782053238204485 0.0 0.0
0.0 0.0 0.0 0.0 0.0 0.0 0.0 0.0
0.0 -6.037661033207458e-07 -1.0532771492819086e-07 8.728260331932865e-08 1.804511160886342e-08 2.421208218983865e-07 0.0 0.0
0.0 -4.244722808873038e-06 7.967659927452291e-06 -2.8758771485619204e-06 -5.091782778890353e-06 1.7055474473891798e-05 0.0 0.0
0.0 0.0007051698723989592 0.000597920262583036 -0.00044668158682968845 -0.00015123867575334802 -0.0002013960543269855 0.0 0.0
0.0 0.003001887765083067 0.0025224119975812273 -0.0020632898717307126 -0.00045912212585050825 -0.0009837758073086755 0.0 0.0
0.0 0.00701573474628789 0.00618709357265593 -0.005473810092469877 -0.0007132834801860621 -0.0025913980122192802 0.0 0.0
0.0 0.013404787930844585 0.011644357421368174 -0.010798218537697257 -0.0008461388836709302 -0.004902172549937791 0.0 0.0
0.0 0.02178811960073569 0.01878534807036257 -0.017857580128920855 -0.0009277679414417136 -0.007659702566821442 0.0 0.0
0.0 0.03191921592175411 0.027409005556650386 -0.026407925429370625 -0.0010010801272797517 -0.010630292986612397 0.0 0.0
0.0 0.043562695634699417 0.03732819893863458 -0.036249234025847545 -0.0010789649127870245 -0.013603987082440682 0.0 0.0
0.0 0.05664415007172058 0.04843644471062629 -0.04727618625604035 -0.0011602584545859266 -0.016545264660145307 0.0 0.0
0.0 0.07069686392114 0.06067166124256839 -0.059433994728237405 -0.0012376665143310323 -0.019496659734761196 0.0 0.0
0.0 0.08621493726729249 0.07391403096195415 -0.0726089646930575 -0.001305066268896663 -0.022397390050255515 0.0 0.0
0.0 0.10259893686832078 0.08794119231655062 -0.08658165219774282 -0.0013595401188078154 -0.0250168535184646 0.0 0.0
0.0 0.11913681414880659 0.1023482879529386 -0.1009526902756533 -0.0013955976772852725 -0.02693393236200996 0.0 0.0
0.0 0.13537047898072446 0.11641860719354921 -0.11501752283027916 -0.0014010843632700195 -0.027487278276351695 0.0 0.0
0.0 0.14988385334086776 0.12903786574765796 -0.1276683385798295 -0.0013695271678283304 -0.025615057290711053 0.0 0.0
0.0 0.16098951255030258 0.13877203844540836 -0.13745034240206183 -0.0013216960433464348 -0.019856024853310505 0.0 0.0
0.0 0.1671237115299102 0.14327236441121605 -0.14247700675772493 -0.0007953576534910666 2.6593310886724453e-14 0.0 0.0
0.0 0.16098951255027816 0.13877203844538427 -0.137450342402038 -0.0013216960433461839 0.019856024853370513 0.0 0.0
0.0 0.1498838533408239 0.12903786574761741 -0.1276683385797888 -0.0013695271678284436 0.02561505729076863 0.0 0.0
0.0 0.13537047898066745 0.1164186071934983 -0.11501752283022854 -0.0014010843632698317 0.027487278276387313 0.0 0.0
0.0 0.11913681414873382 0.10234828795287587 -0.10095269027559135 -0.0013955976772844557 0.02693393236201563 0.0 0.0
0.0 0.10259893686824152 0.08794119231648191 -0.08658165219767422 -0.0013595401188076829 0.025016853518454472 0.0 0.0
0.0 0.08621493726720982 0.07391403096188295 -0.07260896469298614 -0.0013050662688967904 0.022397390050243833 0.0 0.0
0.0 0.07069686392106242 0.06067166124250119 -0.0594339947281706 -0.0012376665143305008 0.01949665973475141 0.0 0.0
0.0 0.0566441500716445 0.04843644471056058 -0.047276186255975294 -0.0011602584545852418 0.01654526466012899 0.0 0.0
0.0 0.04356269563463163 0.03732819893857646 -0.03624923402578968 -0.0010789649127867767 0.013603987082420294 0.0 0.0
0.0 0.03191921592169239 0.027409005556597785 -0.026407925429318736 -0.0010010801272790583 0.010630292986588652 0.0 0.0
0.0 0.021788119600686568 0.018785348070320746 -0.01785758012887937 -0.0009277679414413733 0.007659702566801684 0.0 0.0
0.0 0.013404787930804653 0.011644357421333799 -0.010798218537663457 -0.000846138883670339 0.004902172549922818 0.0 0.0
0.0 0.0070157347462624425 0.006187093572633789 -0.005473810092448786 -0.0007132834801850036 0.0025913980122091763 0.0 0.0
0.0 0.0030018877650677695 0.002522411997568792 -0.002063289871719805 -0.0004591221258489878 0.0009837758073029967 0.0 0.0
0.0 0.0007051698723937142 0.0005979202625791557 -0.0004466815868267126 -0.00015123867575244352 0.00020139605432548802 0.0 0.0
0.0 -4.244722809348209e-06 7.967659927529144e-06 -2.875877148655863e-06 -5.091782778873394e-06 -1.7055474473425347e-05 0.0 0.0
0.0 -6.037661031909006e-07 -1.053277150222425e-07 8.72826033918664e-08 1.804511163036959e-08 -2.421208220153493e-07 0.0 0.0
0.0 0.0 0.0 0.0 0.0 0.0 0.0 0.0
0.0 0.0017606974227884278 0.0008813289033805724 -0.00047281720072415393 -0.0004085117026564166 0.0027782053238105562 0.0 0.0
0.0 0.006855734089722487 0.004900639336454225 -0.006713971831960893 0.0018133324955066559 0.0030368474597247453 0.0 0.0
0.0 0.0050368079601530846 0.0034883898427744255 -0.00486017149879124 0.0013717816560168145 -0.0023860657404384876 0.0 0.0
0.0 0.0011054629744771405 0.0005592118680163334 -0.00029287570014383636 -0.0002663361678724973 -0.0019275227947141737 0.0 0.0
0.0 0.0 0.0 0.0 0.0 0.0 0.0 0.0
0.0 -3.5446910038664173e-07 8.720861068789991e-08 -6.670410483595217e-08 -2.0504505851947745e-08 -1.4704580545226047e-07 0.0 0.0
0.0 -2.3640341084426908e-05 -1.7402897679015123e-05 1.4371672563778384e-05 3.0312251152367356e-06 2.7965701365674906e-05 0.0 0.0
0.0 0.0002957385197404767 0.0002710071944776977 -0.00019714629829809305 -7.38608961796047e-05 -0.00014271630492902667 0.0 0.0
0.0 0.001835871952018997 0.0016210248434581596 -0.0012880958399615163 -0.0003329290034966444 -0.0009199134896007274 0.0 0.0
0.0 0.005440650664266941 0.004469538255790283 -0.003859837917134117 -0.0006097003386561588 -0.0025002184202103815 0.0 0.0
0.0 0.010379339479699252 0.008985439803071083 -0.008215073595566428 -0.000770366207504664 -0.004985269813647954 0.0 0.0
0.0 0.017607517422770405 0.014962092434163687 -0.01410654305487712 -0.00085554937928656 -0.00798704908494656 0.0 0.0
0.0 0.0261490799042476 0.022180015478111423 -0.021256332843724662 -0.0009236826343867651 -0.011189973943820406 0.0 0.0
0.0 0.03590782149928687 0.030451576696818954 -0.029456416030594942 -0.0009951606662239798 -0.014392593687090938 0.0 0.0
0.0 0.046782076404121714 0.039689240488328836 -0.03861886099736893 -0.0010703794909599097 -0.01755476607227656 0.0 0.0
0.0 0.05881665546445776 0.049865344111767455 -0.04872368776116369 -0.00114165635060375 -0.02072167293140372 0.0 0.0
0.0 0.07171682586246717 0.06092877961876529 -0.05972355587103603 -0.001205223747729293 -0.023836166345452464 0.0 0.0
0.0 0.08534628548135365 0.0727322033657065 -0.07147387838719982 -0.0012583249785066506 -0.026656733632237906 0.0 0.0
0.0 0.09987217047752087 0.08498963514626642 -0.08369155389226349 -0.0012980812540028795 -0.028814948095314562 0.0 0.0
0.0 0.11390519515234647 0.0972193023733276 -0.09590047700896001 -0.0013188253643676977 -0.029703231235584476 0.0 0.0
0.0 0.12676032986323812 0.10860089675975575 -0.10729489015155422 -0.0013060066082015746 -0.028041841028256968 0.0 0.0
0.0 0.13737789395093986 0.11793658387901293 -0.11667105370588941 -0.0012655301731234272 -0.02189030906795965 0.0 0.0
0.0 0.14395145111010252 0.12264412583291541 -0.12206311983416347 -0.000581005998751832 2.6272387043668743e-14 0.0 0.0
0.0 0.13737789395091976 0.11793658387899127 -0.11667105370586767 -0.0012655301731237293 0.021890309068021217 0.0 0.0
0.0 0.12676032986319868 0.10860089675971825 -0.10729489015151622 -0.0013060066082021251 0.02804184102831789 0.0 0.0
0.0 0.11390519515229694 0.09721930237328277 -0.09590047700891506 -0.0013188253643675878 0.02970323123562207 0.0 0.0
0.0 0.0998721704774641 0.08498963514621725 -0.08369155389221554 -0.001298081254001733 0.028814948095321057 0.0 0.0
0.0 0.08534628548128419 0.0727322033656468 -0.07147387838713992 -0.0012583249785069707 0.026656733632226516 0.0 0.0
0.0 0.07171682586239919 0.06092877961870686 -0.059723555870977774 -0.0012052237477289914 0.02383616634543891 0.0 0.0
0.0 0.05881665546439526 0.049865344111712936 -0.04872368776110966 -0.0011416563506033068 0.020721672931392335 0.0 0.0
0.0 0.046782076404061956 0.03968924048827781 -0.03861886099731859 -0.0010703794909592077 0.017554766072261526 0.0 0.0
0.0 0.0359078214992288 0.030451576696769657 -0.029456416030546204 -0.0009951606662234414 0.014392593687069554 0.0 0.0
0.0 0.026149079904194985 0.022180015478067607 -0.021256332843681648 -0.0009236826343859758 0.01118997394379471 0.0 0.0
0.0 0.01760751742273128 0.014962092434130476 -0.014106543054844534 -0.000855549379285925 0.007987049084926067 0.0 0.0
0.0 0.010379339479664419 0.008985439803041373 -0.008215073595537137 -0.000770366207504244 0.004985269813630457 0.0 0.0
0.0 0.00544065066424531 0.004469538255772827 -0.0038598379171177217 -0.0006097003386551026 0.0025002184202004016 0.0 0.0
0.0 0.0018358719520085423 0.0016210248434497551 -0.0012880958399544816 -0.0003329290034952742 0.0009199134895957272 0.0 0.0
0.0 0.0002957385197373776 0.0002710071944756236 -0.0001971462982965697 -7.38608961790534e-05 0.0001427163049278238 0.0 0.0
0.0 -2.3640341084924066e-05 -1.7402897678606027e-05 1.4371672563464853e-05 3.031225115141138e-06 -2.7965701365168516e-05 0.0 0.0
0.0 -3.544691002241762e-07 8.720861068835202e-08 -6.670410483621617e-08 -2.05045058521327e-08 1.4704580544674218e-07 0.0 0.0
0.0 0.0 0.0 0.0 0.0 0.0 0.0 0.0
0.0 0.0011054629744711225 0.0005592118680135147 -0.0002928757001419485 -0.00026633616787156554 0.001927522794706128 0.0 0.0
0.0 0.005036807960139473 0.003488389842763701 -0.004860171498777142 0.0013717816560134362 0.0023860657404311167 0.0 0.0
0.0 0.0033975322477010645 0.0023632398776453865 -0.0033419708540154284 0.000978730976370038 -0.0017862128002391364 0.0 0.0
0.0 0.0007021326793850456 0.00031351912574438306 -0.00015074273500355494 -0.00016277639074082758 -0.001225969720153221 0.0 0.0
0.0 2.9041076945466384e-07 -3.4488798683329004e-09 2.6803405111441826e-09 7.685393571887485e-10 5.864590140692222e-08 0.0 0.0
0.0 -3.9933846218285653e-07 2.3010864123224606e-08 -1.7665084308602554e-08 -5.345779814626124e-09 -7.114747973550936e-08 0.0 0.0
0.0 -1.4502934258507348e-05 -9.540903881847596e-06 7.628812005799375e-06 1.91209187604827e-06 1.9982986842064e-05 0.0 0.0
0.0 7.732897814737741e-05 6.846898222447044e-05 -4.6902125317896216e-05 -2.1566856906574205e-05 -4.416625657684267e-05 0.0 0.0
0.0 0.0010771853424548894 0.0008838506220355689 -0.0006836659414736005 -0.00020018468056196817 -0.0007231652983303949 0.0 0.0
0.0 0.003497619155085608 0.0029463625700413467 -0.002471091560334539 -0.00047527100970680706 -0.0022110794488065903 0.0 0.0
0.0 0.008017726542266101 0.006422556151441228 -0.005753546976551789 -0.0006690091748894377 -0.004558377732342862 0.0 0.0
0.0 0.01336268898602112 0.011217372540386853 -0.010448190186136658 -0.0007691823542501948 -0.007582433060661018 0.0 0.0
0.0 0.020450046269626737 0.017015531040250685 -0.016179031598250862 -0.0008364994419998354 -0.010821428274799675 0.0 0.0
0.0 0.02835769073088787 0.0236340627762999 -0.022732082500144416 -0.000901980276155494 -0.01405496351238502 0.0 0.0
0.0 0.03709974956316946 0.031000764831692024 -0.03003040319423966 -0.0009703616374523128 -0.017232262129624795 0.0 0.0
0.0 0.04671891466115945 0.03912059248484781 -0.038084515987135456 -0.0010360764977124007 -0.020406273129954036 0.0 0.0
0.0 0.05714815083600655 0.04799318561969647 -0.046898351287072974 -0.001094834332623454 -0.023534053703188607 0.0 0.0
0.0 0.06861134407817428 0.05754329542305419 -0.05639946676293631 -0.0011438286601179238 -0.02639786473613117 0.0 0.0
0.0 0.07999187687264964 0.06760397662110769 -0.06641550598915573 -0.0011884706319520255 -0.028646702959901422 0.0 0.0
0.0 0.09211803316107113 0.0779080396663278 -0.07667994853677522 -0.001228091129552397 -0.029818435253334902 0.0 0.0
0.0 0.10383083099876166 0.08800997530448207 -0.08677190016067025 -0.0012380751438118764 -0.028720543612439184 0.0 0.0
0.0 0.11390037734862107 0.09701908623090422 -0.0958142350503452 -0.0012048511805590508 -0.02305504716047429 0.0 0.0
0.0 0.12116570746008298 0.10203202011012935 -0.10169551935990073 -0.00033650075022870435 2.5961871541468895e-14 0.0 0.0
0.0 0.11390037734860421 0.0970190862308852 -0.09581423505032485 -0.0012048511805603612 0.023055047160536198 0.0 0.0
0.0 0.10383083099873126 0.0880099753044514 -0.08677190016063942 -0.001238075143812021 0.028720543612501252 0.0 0.0
0.0 0.09211803316102955 0.07790803966628926 -0.07667994853673697 -0.0012280911295523343 0.029818435253371817 0.0 0.0
0.0 0.07999187687259987 0.06760397662106521 -0.0664155059891135 -0.0011884706319516853 0.028646702959905825 0.0 0.0
0.0 0.06861134407811713 0.057543295423005854 -0.056399466762887096 -0.0011438286601187998 0.02639786473611748 0.0 0.0
0.0 0.057148150835953086 0.04799318561964981 -0.046898351287027275 -0.0010948343326225621 0.023534053703174844 0.0 0.0
0.0 0.04671891466110885 0.039120592484804075 -0.03808451598709211 -0.0010360764977119514 0.020406273129942257 0.0 0.0
0.0 0.037099749563123764 0.031000764831653274 -0.03003040319420167 -0.00097036163745164 0.017232262129611223 0.0 0.0
0.0 0.02835769073083888 0.023634062776259433 -0.022732082500104073 -0.0009019802761553797 0.014054963512362705 0.0 0.0
0.0 0.020450046269582623 0.01701553104021495 -0.016179031598215602 -0.0008364994419993464 0.010821428274773308 0.0 0.0
0.0 0.01336268898598775 0.011217372540359533 -0.010448190186109554 -0.0007691823542499773 0.0075824330606396855 0.0 0.0
0.0 0.008017726542237558 0.006422556151418869 -0.005753546976530297 -0.0006690091748885698 0.004558377732326916 0.0 0.0
0.0 0.00349761915506923 0.0029463625700280795 -0.0024710915603225257 -0.00047527100970555134 0.0022110794487972575 0.0 0.0
0.0 0.001077185342447275 0.0008838506220301399 -0.0006836659414693061 -0.0002001846805608333 0.0007231652983257974 0.0 0.0
0.0 7.732897814519229e-05 6.846898222334085e-05 -4.6902125317090315e-05 -2.156685690625078e-05 4.416625657588144e-05 0.0 0.0
0.0 -1.4502934259053273e-05 -9.540903881783294e-06 7.6288120057443115e-06 1.9120918760389864e-06 -1.9982986841866504e-05 0.0 0.0
0.0 -3.9933846203843063e-07 2.3010864114477826e-08 -1.766508430182229e-08 -5.345779812654833e-09 7.114747970917023e-08 0.0 0.0
0.0 2.9041076910978675e-07 -3.44887986405181e-09 2.6803405077244864e-09 7.685393563274542e-10 -5.8645901335916544e-08 0.0 0.0
0.0 0.0007021326793803862 0.0003135191257424857 -0.00015074273500231014 -0.0001627763907401754 0.0012259697201472092 0.0 0.0
0.0 0.0033975322476906327 0.0023632398776372516 -0.0033419708540044185 0.0009787309763671678 0.0017862128002338407 0.0 0.0
0.0 0.0025587701815290706 0.001444336659066883 -0.00207046542744621 0.0006261287683793264 -0.0012231397642487715 0.0 0.0
0.0 0.00029789651140858564 0.00014429968274853365 -5.568867851833564e-05 -8.861100423019807e-05 -0.0006837573946959255 0.0 0.0
0.0 8.107875817790638e-07 4.7670203216254484e-08 -4.810041213045823e-08 4.3020891420439616e-10 -9.486359625717319e-07 0.0 0.0
0.0 -6.809218000492931e-07 3.818077828745594e-08 -2.9696497723538766e-08 -8.484280563917467e-09 -2.468161607030306e-07 0.0 0.0
0.0 -7.259007209370681e-06 -4.863860916201897e-06 3.858459481194918e-06 1.0054014350069782e-06 1.6284820269402788e-05 0.0 0.0
0.0 -1.096271818586355e-05 -5.456885462919147e-06 6.237016320359293e-06 -7.801308574401681e-07 1.800186377138802e-05 0.0 0.0
0.0 0.00048197326123748164 0.00036036012656208704 -0.0002728889034998337 -8.747122306225266e-05 -0.000454792794898034 0.0 0.0
0.0 0.0020439919731550047 0.0016399023198132147 -0.0013329057672102896 -0.00030699655260292476 -0.0017212561794994294 0.0 0.0
0.0 0.005111573289944367 0.004079729437290212 -0.0035535065186636594 -0.0005262229186265545 -0.0037645928985632995 0.0 0.0
0.0 0.009731455463619233 0.007603784045070229 -0.006950055566458492 -0.0006537284786117294 -0.006466974403826585 0.0 0.0
0.0 0.01485273459835689 0.011963581831482925 -0.011234582070479735 -0.0007289997610031799 -0.009506525715516913 0.0 0.0
0.0 0.020834184838201132 0.01692810600567628 -0.016135640199203168 -0.0007924658064731299 -0.012558842923980814 0.0 0.0
0.0 0.027512007138125447 0.02242784514738045 -0.021573156440117994 -0.0008546887072624375 -0.015553164192701146 0.0 0.0
0.0 0.034789687992890894 0.028490022042422753 -0.027576855583326832 -0.0009131664590958841 -0.018525628278974124 0.0 0.0
0.0 0.04285523383755488 0.035161773644049016 -0.03419460285093642 -0.0009671707931126072 -0.021468981990051504 0.0 0.0
0.0 0.0514735538358268 0.04244486409115551 -0.041431283192398624 -0.0010135808987568277 -0.02420746583696901 0.0 0.0
0.0 0.06083813714337262 0.05024975777705064 -0.049193140437444015 -0.0010566173396066175 -0.026397444205619947 0.0 0.0
0.0 0.0703716415435707 0.058508619898198444 -0.057395244521255724 -0.001113375376942696 -0.027692174915290083 0.0 0.0
0.0 0.08015163130019609 0.06718411695741533 -0.0660244938615315 -0.001159623095883744 -0.027398409291255386 0.0 0.0
0.0 0.08999523677527355 0.07582796137190032 -0.07468499641211929 -0.0011429649597810385 -0.02318417187559514 0.0 0.0
0.0 0.0983002374318103 0.08122852300386013 -0.08117099178901846 -5.75312148417943e-05 2.2761306728291686e-14 0.0 0.0
0.0 0.08999523677526505 0.07582796137188738 -0.0746849964121054 -0.0011429649597819052 0.023184171875651728 0.0 0.0
0.0 0.08015163130017428 0.06718411695739102 -0.06602449386150708 -0.0011596230958839458 0.027398409291314665 0.0 0.0
0.0 0.07037164154354134 0.05850861989817028 -0.05739524452122801 -0.0011133753769422578 0.02769217491532476 0.0 0.0
0.0 0.060838137143331056 0.050249757777015576 -0.04919314043740974 -0.0010566173396058132 0.02639744420562102 0.0 0.0
0.0 0.05147355383578442 0.04244486409112047 -0.0414312831923633 -0.0010135808987572325 0.024207465836954087 0.0 0.0
0.0 0.042855233837514176 0.035161773644014425 -0.03419460285090221 -0.0009671707931121799 0.021468981990037165 0.0 0.0
0.0 0.0347896879928555 0.028490022042392343 -0.02757685558329698 -0.000913166459095374 0.018525628278964795 0.0 0.0
0.0 0.027512007138088466 0.02242784514734958 -0.02157315644008793 -0.0008546887072616266 0.01555316419268801 0.0 0.0
0.0 0.020834184838165022 0.016928106005646922 -0.016135640199173858 -0.0007924658064730578 0.012558842923961061 0.0 0.0
0.0 0.014852734598325569 0.011963581831458606 -0.011234582070455927 -0.0007289997610026607 0.009506525715494443 0.0 0.0
0.0 0.009731455463592326 0.0076037840450495645 -0.006950055566438024 -0.0006537284786115392 0.006466974403806898 0.0 0.0
0.0 0.005111573289925314 0.0040797294372754 -0.003553506518649723 -0.0005262229186256791 0.0037645928985508437 0.0 0.0
0.0 0.002043991973142882 0.0016399023198040543 -0.0013329057672022214 -0.0003069965526018329 0.0017212561794902035 0.0 0.0
0.0 0.00048197326123244774 0.00036036012655859704 -0.0002728889034971037 -8.747122306149293e-05 0.0004547927948936102 0.0 0.0
0.0 -1.0962718186719337e-05 -5.45688546295296e-06 6.237016320374776e-06 -7.801308574217525e-07 -1.8001863771021783e-05 0.0 0.0
0.0 -7.259007211088548e-06 -4.863860916134614e-06 3.858459481145009e-06 1.0054014349895882e-06 -1.6284820269357445e-05 0.0 0.0
0.0 -6.809218003803801e-07 3.818077829771329e-08 -2.9696497730597932e-08 -8.484280567115261e-09 2.468161608336697e-07 0.0 0.0
0.0 8.107875815942919e-07 4.767020324342573e-08 -4.8100412158034675e-08 4.302089146093704e-10 9.486359631600772e-07 0.0 0.0
0.0 0.0002978965114055776 0.00014429968274730278 -5.5688678517557264e-05 -8.861100422974569e-05 0.000683757394691299 0.0 0.0
0.0 0.0025587701815194034 0.0014443366590608843 -0.0020704654274378356 0.0006261287683769515 0.0012231397642447654 0.0 0.0
0.0 0.0013243488198257285 0.0007936272558156927 -0.0011528302801112006 0.0003592030242955079 -0.0008142782090193797 0.0 0.0
0.0 0.00010129155410479056 3.4236296981051766e-05 9.596183763334157e-06 -4.383248074438572e-05 -0.00027839988919183873 0.0 0.0
0.0 1.941457254575303e-06 -3.8425037101966367e-10 9.899125809575815e-09 -9.514875438555234e-09 5.884251682555219e-07 0.0 0.0
0.0 1.1435943165183192e-06 -1.2064240548000345e-07 8.559732393489725e-08 3.504508154510604e-08 1.3931401560247093e-06 0.0 0.0
0.0 -7.413419560356908e-06 -2.4055407652480435e-06 1.907782725199148e-06 4.977580400488956e-07 1.2350443967317737e-05 0.0 0.0
0.0 -2.193321617881958e-05 -9.434008750211904e-06 8.02863449038604e-06 1.4053742598258946e-06 2.0617376529882766e-05 0.0 0.0
0.0 0.0001588513596456752 7.408298542275015e-05 -5.542848563703713e-05 -1.8654499785713365e-05 -0.0001908483741135796 0.0 0.0
0.0 0.0010018512252648914 0.0006282434466028266 -0.0005011710218668571 -0.00012707242473596972 -0.0010644992389546007 0.0 0.0
0.0 0.00280042948484428 0.0020208933432613978 -0.0017056929143487991 -0.00031520042891259686 -0.002665297569094002 0.0 0.0
0.0 0.005766545689890605 0.004253061089920981 -0.0037806397965063484 -0.0004724212934146346 -0.004788450132972795 0.0 0.0
0.0 0.009297602214537685 0.007118988401179317 -0.006546611221813433 -0.0005723771793658877 -0.007297217877334408 0.0 0.0
0.0 0.013498833083700505 0.01040682216804516 -0.009765364108723149 -0.0006414580593220039 -0.009900008010398986 0.0 0.0
0.0 0.018067632606578562 0.014043281974789934 -0.013341155620507009 -0.0007021263542829186 -0.012513747883372183 0.0 0.0
0.0 0.023057512849733952 0.018055271736416557 -0.017300991676541696 -0.0007542800598748735 -0.015106364014755938 0.0 0.0
0.0 0.028612969934348406 0.02251729327162282 -0.021714550807018562 -0.0008027424646042522 -0.017667233213202106 0.0 0.0
0.0 0.03479469045200969 0.027504876197831665 -0.02665643610072417 -0.0008484400971074881 -0.020126990061997318 0.0 0.0
0.0 0.04151815833407977 0.03303394106689927 -0.03214192795238608 -0.0008920131145131806 -0.022205324920871756 0.0 0.0
0.0 0.04856718399834577 0.039126265101645345 -0.0381768972530881 -0.0009493678485572824 -0.02348297531257638 0.0 0.0
0.0 0.05654676606174753 0.04607753863940039 -0.04504035645077833 -0.0010371821886220672 -0.023739429113708816 0.0 0.0
0.0 0.06594709128988681 0.054138575132434245 -0.053062602153132486 -0.001075972979301758 -0.021823920932124992 0.0 0.0
0.0 0.07544823436489874 0.05998982278437524 -0.06024865340514818 0.00025883062077287477 2.0110649256999125e-14 0.0 0.0
0.0 0.06594709128988122 0.05413857513242264 -0.05306260215311991 -0.0010759729793027256 0.021823920932173314 0.0 0.0
0.0 0.05654676606173628 0.046077538639385206 -0.04504035645076298 -0.0010371821886221953 0.023739429113762565 0.0 0.0
0.0 0.04856718399832656 0.0391262651016271 -0.03817689725307013 -0.0009493678485569686 0.023482975312605642 0.0 0.0
0.0 0.041518158334051 0.033033941066876966 -0.032141927952364056 -0.0008920131145128988 0.022205324920867568 0.0 0.0
0.0 0.03479469045197798 0.027504876197806206 -0.026656436100698844 -0.0008484400971073311 0.020126990061980918 0.0 0.0
0.0 0.028612969934320304 0.022517293271599795 -0.021714550806995518 -0.0008027424646042743 0.01766723321319013 0.0 0.0
0.0 0.023057512849712743 0.01805527173639873 -0.017300991676524408 -0.0007542800598743367 0.015106364014748998 0.0 0.0
0.0 0.018067632606552107 0.014043281974768958 -0.013341155620486296 -0.0007021263542826539 0.012513747883359247 0.0 0.0
0.0 0.013498833083674463 0.01040682216802565 -0.009765364108704063 -0.0006414580593215759 0.009900008010381645 0.0 0.0
0.0 0.009297602214518173 0.00711898840116489 -0.006546611221799616 -0.0005723771793652684 0.0072972178773172205 0.0 0.0
0.0 0.005766545689872595 0.004253061089908166 -0.0037806397964940453 -0.00047242129341412437 0.004788450132957542 0.0 0.0
0.0 0.00280042948483369 0.0020208933432536717 -0.001705692914341882 -0.00031520042891178875 0.002665297569085998 0.0 0.0
0.0 0.0010018512252582764 0.0006282434465985881 -0.0005011710218633066 -0.00012707242473528188 0.001064499238948268 0.0 0.0
0.0 0.0001588513596428706 7.40829854221195e-05 -5.542848563655201e-05 -1.865449978556746e-05 0.00019084837411201738 0.0 0.0
0.0 -2.1933216179399365e-05 -9.434008749883987e-06 8.028634490134418e-06 1.4053742597495278e-06 -2.0617376528795782e-05 0.0 0.0
0.0 -7.413419560022028e-06 -2.405540765088854e-06 1.9077827250801874e-06 4.977580400086772e-07 -1.2350443965963658e-05 0.0 0.0
0.0 1.14359431619762e-06 -1.2064240550578107e-07 8.559732395940072e-08 3.504508154638122e-08 -1.3931401558285652e-06 0.0 0.0
0.0 1.9414572544218767e-06 -3.8425035754833235e-10 9.899125789869653e-09 -9.51487543232092e-09 -5.884251677930577e-07 0.0 0.0
0.0 0.00010129155410218222 3.423629698050595e-05 9.596183763623707e-06 -4.3832480744129296e-05 0.00027839988918933845 0.0 0.0
0.0 0.0013243488198190546 0.0007936272558119016 -0.0011528302801057555 0.0003592030242938529 0.0008142782090164487 0.0 0.0
0.0 0.0006328551559197892 0.00033637342086968204 -0.0004930539353534206 0.000156680514483739 -0.00042617146134518236 0.0 0.0
0.0 -1.5213252642327375e-05 -1.5022901283811834e-05 3.329102482571882e-05 -1.826812354190706e-05 -3.395449926447193e-05 0.0 0.0
0.0 2.8390912412251028e-06 3.9657052483508336e-08 -9.331307671321342e-08 5.365602422970558e-08 -2.8723215022917926e-06 0.0 0.0
0.0 1.246014173933909e-06 -9.639459189911593e-08 8.624766559433944e-08 1.0146926304774557e-08 -1.7196800515234134e-06 0.0 0.0
0.0 -5.006062616387629e-06 -1.016241408903584e-06 8.48244691383043e-07 1.679967175205494e-07 8.781648131641587e-06 0.0 0.0
0.0 -5.838385251163004e-06 -4.090371719920097e-06 3.4997314833736755e-06 5.90640236546385e-07 1.3794376157531363e-05 0.0 0.0
0.0 6.469885389423704e-05 3.296396802814176e-06 -2.185090015989016e-06 -1.11130678682509e-06 -9.036715986315018e-05 0.0 0.0
0.0 0.00030756160615093395 7.88625889477901e-05 -6.634571103416375e-05 -1.251687791362648e-05 -0.00046698585934720966 0.0 0.0
0.0 0.0009910860957534529 0.00043565833181470035 -0.0003831052332040995 -5.255309861060027e-05 -0.0013729521388311519 0.0 0.0
0.0 0.0023599967028101678 0.0013136121043487595 -0.001178984618372251 -0.00013462748597650877 -0.002821020639382507 0.0 0.0
0.0 0.004441044975799007 0.002651872051059744 -0.0024217892533992392 -0.00023008279766050232 -0.004582411455652861 0.0 0.0
0.0 0.006614735927144945 0.004245261958535629 -0.003932342850593561 -0.00031291910794207275 -0.006540663729968667 0.0 0.0
0.0 0.009174857573394224 0.006015671287193051 -0.005632997728541529 -0.0003826735586515157 -0.008611050621391697 0.0 0.0
0.0 0.012036039841228054 0.007989249828374397 -0.00754837251680296 -0.000440877311571437 -0.010749805257616308 0.0 0.0
0.0 0.015218244659240664 0.010242397377062172 -0.009746945119238539 -0.0004954522578236367 -0.01294752644326126 0.0 0.0
0.0 0.018868637203052707 0.012899610249583046 -0.012347723813775316 -0.0005518864358077339 -0.015177506461947024 0.0 0.0
0.0 0.023152414584316376 0.016113872272994167 -0.015501623333765556 -0.0006122489392286016 -0.017259231065282703 0.0 0.0
0.0 0.028102069273339327 0.020015422538718828 -0.019341669979173474 -0.0006737525595453548 -0.018672715983831998 0.0 0.0
0.0 0.0337919229759272 0.024918784641330467 -0.02415216222537907 -0.0007666224159514026 -0.018918266630212458 0.0 0.0
0.0 0.04147150543237134 0.03180275511580217 -0.03087000100040368 -0.0009327541153984506 -0.018532131419034138 0.0 0.0
0.0 0.05368866467525518 0.03802665542717612 -0.0386545303626016 0.0006278749354255077 1.628818607768423e-14 0.0 0.0
0.0 0.04147150543237004 0.03180275511579367 -0.03087000100039393 -0.0009327541153997762 0.018532131419073845 0.0 0.0
0.0 0.03379192297592509 0.024918784641324323 -0.024152162225373048 -0.0007666224159512914 0.01891826663025297 0.0 0.0
0.0 0.02810206927332449 0.020015422538706612 -0.019341669979161872 -0.000673752559544726 0.018672715983849578 0.0 0.0
0.0 0.023152414584300514 0.01611387227298539 -0.015501623333757462 -0.0006122489392279562 0.01725923106527707 0.0 0.0
0.0 0.018868637203032952 0.012899610249569905 -0.012347723813761402 -0.000551886435808497 0.015177506461930841 0.0 0.0
0.0 0.01521824465922558 0.010242397377051132 -0.009746945119227229 -0.0004954522578239066 0.012947526443250963 0.0 0.0
0.0 0.012036039841217403 0.007989249828368013 -0.007548372516796452 -0.00044087731157156407 0.010749805257609178 0.0 0.0
0.0 0.009174857573381883 0.006015671287185408 -0.005632997728534344 -0.0003826735586510693 0.008611050621383065 0.0 0.0
0.0 0.006614735927129788 0.004245261958526878 -0.0039323428505846645 -0.0003129191079422124 0.006540663729953346 0.0 0.0
0.0 0.004441044975785869 0.002651872051052317 -0.002421789253392129 -0.0002300827976601876 0.004582411455638522 0.0 0.0
0.0 0.002359996702802215 0.0013136121043441625 -0.0011789846183679013 -0.0001346274859762617 0.002821020639375067 0.0 0.0
0.0 0.0009910860957496866 0.0004356583318127575 -0.0003831052332023743 -5.25530986103823e-05 0.0013729521388264245 0.0 0.0
0.0 0.0003075616061484255 7.886258894709197e-05 -6.63457110335181e-05 -1.2516877913573862e-05 0.0004669858593439564 0.0 0.0
0.0 6.469885389325699e-05 3.2963968029029654e-06 -2.18509001605508e-06 -1.1113067868478818e-06 9.036715986311661e-05 0.0 0.0
0.0 -5.838385251720916e-06 -4.090371719690857e-06 3.499731483198452e-06 5.906402364924072e-07 -1.3794376156295604e-05 0.0 0.0
0.0 -5.0060626163208325e-06 -1.0162414088696218e-06 8.482446913618381e-07 1.6799671750778047e-07 -8.781648130729244e-06 0.0 0.0
0.0 1.2460141739519508e-06 -9.639459192015718e-08 8.624766561483215e-08 1.014692630532571e-08 1.7196800523511249e-06 0.0 0.0
0.0 2.839091241140686e-06 3.9657052491057034e-08 -9.331307673227831e-08 5.3656024241217753e-08 2.872321503072306e-06 0.0 0.0
0.0 -1.5213252643583471e-05 -1.5022901283902319e-05 3.329102482568157e-05 -1.8268123541779192e-05 3.3954499263371246e-05 0.0 0.0
0.0 0.0006328551559153256 0.0003363734208675125 -0.0004930539353502509 0.00015668051448273807 0.0004261714613429557 0.0 0.0
0.0 0.00014596162174468266 8.367129114143142e-05 -0.0001248653768708124 4.119408572938093e-05 -0.00013343901211925537 0.0 0.0
0.0 -2.270049197088816e-05 -1.2882898669980452e-05 1.8314264413599764e-05 -5.431365743619294e-06 2.3123765626481395e-05 0.0 0.0
0.0 3.1806216338137303e-06 1.570923802370603e-07 -1.213043915916395e-07 -3.5787988645424665e-08 3.366790153610684e-06 0.0 0.0
0.0 2.7882040868566633e-06 -2.427960448154526e-07 1.9923491938359101e-07 4.356112543186413e-08 -3.099778649214036e-06 0.0 0.0
0.0 -5.458412111964047e-07 -3.5056454918294167e-07 3.432942779461985e-07 7.2702712367400925e-09 2.2367677172991975e-06 0.0 0.0
0.0 3.3283223127886686e-06 -1.1763028128489056e-06 1.2166518885229066e-06 -4.034907567400066e-08 1.9627959187979375e-06 0.0 0.0
0.0 7.142335560815915e-05 -1.8311977755632032e-06 1.829003510587856e-06 2.1942649753346998e-09 -0.0001000337592347499 0.0 0.0
0.0 0.00019439056971472083 -1.4275222961806953e-06 1.3970284113285867e-06 3.049388485215952e-08 -0.0003349676060375345 0.0 0.0
0.0 0.00044446161220067205 -2.809126277570648e-07 2.5376547873687074e-07 2.714714902017374e-08 -0.000703533610426051 0.0 0.0
0.0 0.0007405394465708274 3.5288413692568556e-08 -1.5261706217832615e-08 -2.0026707475020544e-08 -0.0014235976692150776 0.0 0.0
0.0 0.0013886747172136959 3.1306585939418663e-07 -3.605871102313658e-07 4.752125083740957e-08 -0.0026400079985096853 0.0 0.0
0.0 0.002305787667618347 -7.805545007108288e-06 1.0130153646850762e-05 -2.3246086397424602e-06 -0.004397634478968014 0.0 0.0
0.0 0.0035580555684934616 -2.381581152532974e-05 2.7674801693199937e-05 -3.858990167869019e-06 -0.006313373138286513 0.0 0.0
0.0 0.004990592107522301 -3.3821480658064525e-05 3.546028070597774e-05 -1.6388000479130237e-06 -0.008336601226797441 0.0 0.0
0.0 0.006579860662430328 3.114728548426126e-05 -4.20163411849609e-05 1.0869055700699255e-05 -0.010475911030866803 0.0 0.0
0.0 0.008285461494856542 0.00032872595223343076 -0.0003666712654096464 3.79453131762118e-05 -0.012726392769829314 0.0 0.0
0.0 0.01014997160500866 0.0011241809967331338 -0.0012092448627927666 8.506386605963774e-05 -0.015015612540457657 0.0 0.0
0.0 0.012100917027236594 0.002656349801638043 -0.0028588515478190158 0.000202501746180964 -0.017135967516809472 0.0 0.0
0.0 0.014777290425722303 0.004621189336055055 -0.005009524855328639 0.0003883355192735908 -0.018674222218019006 0.0 0.0
0.0 0.02138134592592225 0.009157337795274209 -0.008900990189680855 -0.00025634760559335506 -0.019239201351531024 0.0 0.0
0.0 0.038067570716572484 0.016099053245628527 -0.017314226453598838 0.0012151732079703041 1.1806527977498149e-14 0.0 0.0
0.0 0.02138134592593189 0.009157337795274825 -0.008900990189680505 -0.0002563476055943026 0.01923920135156027 0.0 0.0
0.0 0.014777290425715439 0.00462118933605111 -0.005009524855326728 0.00038833551927561243 0.01867422221802685 0.0 0.0
0.0 0.012100917027221303 0.0026563498016352214 -0.0028588515478165768 0.00020250174618135645 0.017135967516805278 0.0 0.0
0.0 0.01014997160499809 0.0011241809967342422 -0.0012092448627943541 8.506386606011335e-05 0.01501561254044478 0.0 0.0
0.0 0.008285461494846668 0.0003287259522366929 -0.00036667126541364934 3.794531317695475e-05 0.012726392769815518 0.0 0.0
0.0 0.006579860662422204 3.1147285485233576e-05 -4.2016341185415395e-05 1.086905570018312e-05 0.010475911030857116 0.0 0.0
0.0 0.004990592107517547 -3.3821480654721604e-05 3.546028070254526e-05 -1.6388000478231163e-06 0.008336601226789756 0.0 0.0
0.0 0.0035580555684817097 -2.381581152249157e-05 2.7674801690138475e-05 -3.858990167646039e-06 0.006313373138270663 0.0 0.0
0.0 0.0023057876676106166 -7.805545005698338e-06 1.0130153645485372e-05 -2.3246086397879696e-06 0.0043976344789572325 0.0 0.0
0.0 0.0013886747172065996 3.1306586038636714e-07 -3.605871114067494e-07 4.752125102060585e-08 0.0026400079984989703 0.0 0.0
0.0 0.0007405394465671833 3.528841341952579e-08 -1.5261705977641176e-08 -2.0026707441810076e-08 0.001423597669210969 0.0 0.0
0.0 0.0004444616122000728 -2.8091262777637377e-07 2.537654787582905e-07 2.7147149017918938e-08 0.0007035336104251808 0.0 0.0
0.0 0.00019439056971295754 -1.427522296196996e-06 1.397028411362344e-06 3.0493884834639384e-08 0.0003349676060344407 0.0 0.0
0.0 7.142335560750615e-05 -1.8311977755590642e-06 1.8290035105747568e-06 2.1942649843413335e-09 0.00010003375923530986 0.0 0.0
0.0 3.328322311446722e-06 -1.1763028128322464e-06 1.2166518885071143e-06 -4.0349075674876777e-08 -1.9627959191665684e-06 0.0 0.0
0.0 -5.458412116270805e-07 -3.5056454923385417e-07 3.4329427799517197e-07 7.2702712386854955e-09 -2.236767716068812e-06 0.0 0.0
0.0 2.7882040868252575e-06 -2.427960448682509e-07 1.9923491942976085e-07 4.356112543848991e-08 3.0997786499134555e-06 0.0 0.0
0.0 3.180621633073695e-06 1.570923802302839e-07 -1.213043915992599e-07 -3.578798863101518e-08 -3.366790152871203e-06 0.0 0.0
0.0 -2.2700491971024814e-05 -1.2882898669633404e-05 1.8314264413191427e-05 -5.431365743558045e-06 -2.3123765625571932e-05 0.0 0.0
0.0 0.00014596162174256174 8.367129114077535e-05 -0.00012486537686988663 4.1194085729111404e-05 0.0001334390121182128 0.0 0.0
0.0 3.436456216547725e-06 4.558393430037158e-07 -1.1181993707958732e-06 6.623600277921207e-07 3.383321464589287e-08 0.0 0.0
0.0 -6.178055523530197e-07 -1.4041335503574955e-07 2.5942326784103545e-07 -1.1900991280528562e-07 1.6098432075082117e-06 0.0 0.0
0.0 9.285862510453989e-07 1.2613385464612283e-07 -1.7948554603446767e-07 5.3351691388344527e-08 -1.699723078061276e-06 0.0 0.0
0.0 4.877113393426106e-06 -2.732122246267205e-07 2.0965258487735824e-07 6.355963974936258e-08 -3.959581465679972e-06 0.0 0.0
0.0 2.614542742900126e-06 -5.010975268783591e-07 4.75228387692952e-07 2.58691391854074e-08 -4.424011505242898e-06 0.0 0.0
0.0 4.428271672408075e-06 -7.704490921908961e-07 9.54114261189393e-07 -1.8366516899845231e-07 -1.2654108269237867e-05 0.0 0.0
0.0 9.408894721404801e-05 -8.648272362735104e-06 7.204948418858064e-06 1.4433239438769708e-06 -0.00010575856005575755 0.0 0.0
0.0 0.0003230218675420991 -8.486321283470658e-05 7.16535226250335e-05 1.3209690209673027e-05 -0.000481952978949035 0.0 0.0
0.0 0.0009956339830153008 -0.00043768751014228554 0.00038479954608477745 5.288796405750795e-05 -0.001380680264572394 0.0 0.0
0.0 0.0023582553518052764 -0.0013127590711021569 0.0011781731568220265 0.00013458591428012996 -0.002820957015891671 0.0 0.0
0.0 0.004455478551552067 -0.0026547655796840936 0.0024243565355849253 0.00023040904409916637 -0.004580402063320241 0.0 0.0
0.0 0.006655417803852286 -0.004271908915042929 0.0039556236795685994 0.0003162852354743293 -0.006546990000607003 0.0 0.0
0.0 0.009245418998965152 -0.006079747919752644 0.005692646517318196 0.00038710140243444394 -0.008616036773297454 0.0 0.0
0.0 0.012102796678765541 -0.008059551967570114 0.007621473453887715 0.0004380785136824007 -0.010741356971528887 0.0 0.0
0.0 0.015051612965218541 -0.010128270469512984 0.009662437004299678 0.00046583346521329695 -0.012940904214538137 0.0 0.0
0.0 0.017929688060187875 -0.012067554864647287 0.011603772826698066 0.00046378203794921336 -0.015271217842056142 0.0 0.0
0.0 0.020328894011677263 -0.013505395434762719 0.013081228415119826 0.0004241670196429035 -0.017763710996233056 0.0 0.0
0.0 0.022028782504558638 -0.013969966275995834 0.01363410572169955 0.0003358605542962855 -0.02049845879963216 0.0 0.0
0.0 0.022107819969933117 -0.012914777326520945 0.012780813290009928 0.0001339640365110175 -0.02342985780370385 0.0 0.0
0.0 0.01801123789756561 -0.009364435432384965 0.00977859403994367 -0.0004141586075587074 -0.025425304954298268 0.0 0.0
0.0 0.0367625668151392 -0.005324476382269785 0.002738533316018516 0.0025859430662512643 1.7213661052117857e-14 0.0 0.0
0.0 0.01801123789757222 -0.009364435432386254 0.009778594039944345 -0.0004141586075580893 0.025425304954315435 0.0 0.0
0.0 0.022107819969930154 -0.01291477732651481 0.012780813290005227 0.00013396403650957833 0.023429857803723364 0.0 0.0
0.0 0.022028782504541308 -0.01396996627598348 0.013634105721687682 0.000335860554295789 0.020498458799631202 0.0 0.0
0.0 0.02032889401165546 -0.013505395434747613 0.01308122841510447 0.00042416701964316267 0.017763710996220098 0.0 0.0
0.0 0.017929688060165237 -0.012067554864630441 0.011603772826681838 0.0004637820379486084 0.015271217842040946 0.0 0.0
0.0 0.015051612965200366 -0.010128270469498555 0.009662437004285498 0.0004658334652130544 0.012940904214524958 0.0 0.0
0.0 0.012102796678749401 -0.008059551967557208 0.0076214734538749595 0.000438078513682246 0.010741356971519577 0.0 0.0
0.0 0.009245418998941341 -0.006079747919735541 0.0056926465173014855 0.00038710140243406106 0.008616036773280392 0.0 0.0
0.0 0.006655417803833882 -0.004271908915030272 0.003955623679556613 0.0003162852354736522 0.00654699000059102 0.0 0.0
0.0 0.004455478551534017 -0.002654765579672585 0.002424356535574302 0.0002304090440982823 0.004580402063304357 0.0 0.0
0.0 0.0023582553517919203 -0.0013127590710932063 0.0011781731568136604 0.00013458591427954693 0.002820957015880734 0.0 0.0
0.0 0.0009956339830096113 -0.000437687510138976 0.0003847995460818562 5.288796405712008e-05 0.0013806802645664725 0.0 0.0
0.0 0.0003230218675390813 -8.486321283380141e-05 7.165352262433629e-05 1.3209690209465221e-05 0.0004819529789454038 0.0 0.0
0.0 9.408894721211043e-05 -8.648272362685378e-06 7.204948418808609e-06 1.44332394387677e-06 0.00010575856005463169 0.0 0.0
0.0 4.4282716719078405e-06 -7.704490923971916e-07 9.5411426134233e-07 -1.8366516894513344e-07 1.2654108270587453e-05 0.0 0.0
0.0 2.614542742498042e-06 -5.010975270002322e-07 4.752283877958642e-07 2.5869139204356763e-08 4.424011506219029e-06 0.0 0.0
0.0 4.877113392964792e-06 -2.732122247405543e-07 2.096525849728586e-07 6.355963976769487e-08 3.959581466683761e-06 0.0 0.0
0.0 9.285862505727931e-07 1.2613385463462756e-07 -1.7948554603257484e-07 5.3351691397942694e-08 1.699723078561189e-06 0.0 0.0
0.0 -6.178055524365881e-07 -1.4041335512261391e-07 2.594232679367354e-07 -1.1900991281412577e-07 -1.6098432075281098e-06 0.0 0.0
0.0 3.4364562151713956e-06 4.5583934342525483e-07 -1.1181993714230871e-06 6.623600279978584e-07 -3.3833213745474743e-08 0.0 0.0
0.0 2.034611343575935e-06 -1.1794173393863115e-07 1.8495244463876623e-07 -6.701071070005743e-08 2.736999519842078e-07 0.0 0.0
0.0 6.979766784148104e-07 3.106101897831012e-08 -1.6374772091041685e-08 -1.4686246887283446e-08 3.5582982033618167e-07 0.0 0.0
0.0 -9.677354821993143e-07 4.256078811127468e-07 -3.563633554068842e-07 -6.924452570587182e-08 2.7683776756103377e-06 0.0 0.0
0.0 2.5656424364978e-06 -5.71855393114156e-07 4.432970417079026e-07 1.2855835140624254e-07 -5.459186251927708e-06 0.0 0.0
0.0 5.6424979075895255e-06 1.7550703294608738e-06 -1.4109063811306526e-06 -3.441639483301559e-07 5.384044695953199e-06 0.0 0.0
0.0 2.6256031604942812e-05 3.7744343234932907e-07 -1.7620931342445786e-07 -2.0123411892489748e-07 -9.808363814643672e-06 0.0 0.0
0.0 0.0001803141486613676 -9.693173233973968e-05 7.48254328397672e-05 2.2106299499972496e-05 -0.00025816212275507665 0.0 0.0
0.0 0.0010229282744692503 -0.0006376061661762415 0.0005095081173179883 0.00012809804885825305 -0.0010886351099821984 0.0 0.0
0.0 0.0028012021438415294 -0.002020661915536584 0.0017052771807833365 0.0003153847347532468 -0.0026700969688942446 0.0 0.0
0.0 0.005763879608421472 -0.004251931248637587 0.003779453219061223 0.00047247802957636265 -0.004785976224330756 0.0 0.0
0.0 0.009304891350056752 -0.007125522282161071 0.006552905029397505 0.0005726172527635652 -0.007298622290145712 0.0 0.0
0.0 0.013528212964209151 -0.010432144991240126 0.00978984925282186 0.0006422957384182777 -0.00990053525018816 0.0 0.0
0.0 0.018122991080873473 -0.014098468109246793 0.013395760147180757 0.0007027079620660259 -0.012479102282364901 0.0 0.0
0.0 0.02309332379480458 -0.018110523547554706 0.01736066955746201 0.000749853990092687 -0.015006869062330175 0.0 0.0
0.0 0.02843161293070604 -0.02239217598211328 0.02161089691333258 0.0007812790687806937 -0.017580912059183298 0.0 0.0
0.0 0.03388567771167247 -0.02670096928824676 0.02590954900879053 0.0007914202794562127 -0.02040865979639786 0.0 0.0
0.0 0.03893731672006021 -0.030596933282514158 0.029815183218025725 0.0007817500644884424 -0.02370879487619633 0.0 0.0
0.0 0.04277066632239862 -0.03347496458829431 0.03271877426916648 0.0007561903191278343 -0.027585051701953283 0.0 0.0
0.0 0.04465971846638303 -0.034260803303443374 0.03360090314355948 0.0006599001598838731 -0.031303475868110824 0.0 0.0
0.0 0.041625462833351126 -0.030652600651344494 0.030197192927937586 0.00045540772340688947 -0.03220966834502544 0.0 0.0
0.0 0.045100537796477116 -0.024875852686503958 0.021509299866161628 0.0033665528203423167 1.9192980538207394e-14 0.0 0.0
0.0 0.04162546283336456 -0.030652600651345435 0.030197192927939525 0.0004554077234059162 0.03220966834507126 0.0 0.0
0.0 0.044659718466378694 -0.034260803303432855 0.0336009031435489 0.0006599001598839502 0.03130347586815082 0.0 0.0
0.0 0.042770666322374 -0.03347496458827215 0.03271877426914502 0.0007561903191271393 0.027585051701966762 0.0 0.0
0.0 0.03893731672002676 -0.030596933282487075 0.029815183217998698 0.0007817500644883774 0.023708794876188346 0.0 0.0
0.0 0.033885677711637495 -0.026700969288218173 0.02590954900876242 0.0007914202794557399 0.020408659796380443 0.0 0.0
0.0 0.02843161293067051 -0.02239217598208463 0.02161089691330439 0.0007812790687802601 0.017580912059164885 0.0 0.0
0.0 0.02309332379477556 -0.018110523547529716 0.01736066955743768 0.0007498539900920084 0.01500686906231661 0.0 0.0
0.0 0.01812299108084111 -0.014098468109220675 0.01339576014715516 0.0007027079620655107 0.012479102282348862 0.0 0.0
0.0 0.013528212964175838 -0.010432144991214368 0.009789849252796648 0.0006422957384177197 0.009900535250166586 0.0 0.0
0.0 0.009304891350027926 -0.0071255222821394095 0.00655290502937586 0.0005726172527635511 0.007298622290122683 0.0 0.0
0.0 0.0057638796083989766 -0.004251931248620524 0.0037794532190452627 0.0004724780295752638 0.004785976224314442 0.0 0.0
0.0 0.0028012021438289176 -0.002020661915527057 0.0017052771807749912 0.0003153847347520668 0.002670096968885461 0.0 0.0
0.0 0.0010229282744628455 -0.0006376061661718869 0.0005095081173145882 0.0001280980488572977 0.0010886351099764593 0.0 0.0
0.0 0.00018031414865795346 -9.693173233862267e-05 7.482543283886619e-05 2.2106299499756557e-05 0.0002581621227524882 0.0 0.0
0.0 2.625603160420811e-05 3.7744343208005984e-07 -1.7620931321181532e-07 -2.0123411886833134e-07 9.808363815300594e-06 0.0 0.0
0.0 5.642497906585216e-06 1.7550703293436925e-06 -1.4109063810302855e-06 -3.441639483134014e-07 -5.384044695329396e-06 0.0 0.0
0.0 2.565642436312254e-06 -5.718553932608367e-07 4.432970418286139e-07 1.28558351432228e-07 5.459186252898863e-06 0.0 0.0
0.0 -9.677354828862195e-07 4.2560788110675103e-07 -3.5636335541311426e-07 -6.924452569363182e-08 -2.7683776752639127e-06 0.0 0.0
0.0 6.979766780800455e-07 3.106101898894433e-08 -1.6374772096978337e-08 -1.468624689196332e-08 -3.558298205030231e-07 0.0 0.0
0.0 2.034611343773175e-06 -1.1794173394994551e-07 1.849524446547311e-07 -6.701071070482646e-08 -2.7369995201493404e-07 0.0 0.0
0.0 0.0 0.0 0.0 0.0 0.0 0.0 0.0
0.0 1.2793262250216665e-07 8.703308849541075e-11 4.028570319636627e-09 -4.115603408136257e-09 2.4778079492361678e-08 0.0 0.0
0.0 1.6008702133274508e-07 4.002538117174906e-07 -3.1784319159032545e-07 -8.241062012715801e-08 2.1914533021847446e-06 0.0 0.0
0.0 1.2441801413222382e-06 1.1612745900731235e-06 -9.799895413873187e-07 -1.8128504868580482e-07 2.4742731673761296e-06 0.0 0.0
0.0 3.7043427382703467e-06 1.8353508789585596e-06 -1.4213818663596673e-06 -4.1396901259893987e-07 -5.964807292263444e-07 0.0 0.0
0.0 3.968057630692752e-05 -3.271812344667229e-05 2.4812506100471053e-05 7.90561734620132e-06 -7.250464459633346e-05 0.0 0.0
0.0 0.0005663416208455856 -0.00038465191254789485 0.0002951362667144288 8.951564583346554e-05 -0.0005045482398578998 0.0 0.0
0.0 0.0020609927373753277 -0.0016435713405359104 0.0013364991179364216 0.00030707222259948705 -0.0017393877993841294 0.0 0.0
0.0 0.0051075133755625925 -0.004076089044824929 0.0035496982917261823 0.000526390753098742 -0.0037625112969557808 0.0 0.0
0.0 0.00973156832561568 -0.007604023357441975 0.006950238146582882 0.0006537852108591002 -0.006463849599439747 0.0 0.0
0.0 0.014858295284069819 -0.01197190143341201 0.011243110887134007 0.0007287905462779943 -0.009509305245417913 0.0 0.0
0.0 0.020854844731182744 -0.016946236591844695 0.016153858944246497 0.0007923776475981952 -0.012548474222349905 0.0 0.0
0.0 0.027532081204324547 -0.02245594247538154 0.021601400858099435 0.0008545416172821141 -0.015470642209623138 0.0 0.0
0.0 0.03476506062985445 -0.02850245966366311 0.027592665527268034 0.0009097941363950405 -0.018309365861719152 0.0 0.0
0.0 0.04264064587210533 -0.03502475037503619 0.03407423119986626 0.0009505191751699768 -0.02124820622316313 0.0 0.0
0.0 0.050713007477001595 -0.0417733500733923 0.04080515823848553 0.0009681918349067112 -0.02464946675778456 0.0 0.0
0.0 0.058788681177461055 -0.04820793182789053 0.047248135076116596 0.0009597967517739085 -0.028955704837565138 0.0 0.0
0.0 0.06537220823883107 -0.053376785091742734 0.05246904898076789 0.0009077361109748655 -0.03410465738426405 0.0 0.0
0.0 0.06870409056052904 -0.055592192242084476 0.05479842205826673 0.000793770183817695 -0.038697651018537574 0.0 0.0
0.0 0.06482748817473233 -0.05164584027993834 0.05114426274709509 0.0005015775328432199 -0.040031751810595186 0.0 0.0
0.0 0.06251343190955123 -0.0440073375604216 0.039921059962651426 0.004086277597770193 2.097714363324954e-14 0.0 0.0
0.0 0.06482748817474174 -0.05164584027993592 0.05114426274709371 0.0005015775328422469 0.04003175181064925 0.0 0.0
0.0 0.06870409056051553 -0.05559219224206515 0.0547984220582476 0.0007937701838174524 0.03869765101858721 0.0 0.0
0.0 0.06537220823879765 -0.05337678509171146 0.05246904898073674 0.0009077361109747055 0.03410465738428693 0.0 0.0
0.0 0.05878868117741781 -0.048207931827853885 0.04724813507608005 0.000959796751773879 0.028955704837561155 0.0 0.0
0.0 0.050713007476956104 -0.041773350073354094 0.04080515823844773 0.0009681918349063481 0.02464946675776803 0.0 0.0
0.0 0.04264064587205739 -0.03502475037499636 0.034074231199826895 0.0009505191751694687 0.021248206223142503 0.0 0.0
0.0 0.03476506062980816 -0.02850245966362383 0.02759266552722927 0.000909794136394555 0.018309365861701645 0.0 0.0
0.0 0.027532081204280773 -0.02245594247534533 0.021601400858063325 0.0008545416172819987 0.015470642209605742 0.0 0.0
0.0 0.020854844731137433 -0.01694623659180817 0.016153858944210682 0.0007923776475974851 0.01254847422232491 0.0 0.0
0.0 0.014858295284026189 -0.011971901433377497 0.011243110887099391 0.0007287905462780976 0.009509305245389899 0.0 0.0
0.0 0.009731568325585572 -0.0076040233574182796 0.0069502381465594695 0.0006537852108588065 0.006463849599420011 0.0 0.0
0.0 0.00510751337554185 -0.004076089044808845 0.0035496982917111205 0.0005263907530977217 0.003762511296942869 0.0 0.0
0.0 0.0020609927373645897 -0.0016435713405276334 0.001336499117929367 0.00030707222259826646 0.0017393877993766833 0.0 0.0
0.0 0.0005663416208388969 -0.0003846519125437329 0.00029513626671112046 8.951564583261261e-05 0.0005045482398521636 0.0 0.0
0.0 3.968057630533326e-05 -3.271812344637345e-05 2.481250610025072e-05 7.905617346122708e-06 7.250464459605621e-05 0.0 0.0
0.0 3.704342738455166e-06 1.8353508784024225e-06 -1.4213818659120885e-06 -4.1396901249032917e-07 5.964807307868041e-07 0.0 0.0
0.0 1.2441801405901135e-06 1.161274589950499e-06 -9.799895412867427e-07 -1.8128504866375462e-07 -2.474273166640121e-06 0.0 0.0
0.0 1.6008702084330634e-07 4.0025381174621216e-07 -3.178431916146087e-07 -8.241062013161023e-08 -2.191453302327349e-06 0.0 0.0
0.0 1.2793262222365965e-07 8.703308583074716e-11 4.028570317766604e-09 -4.115603403594462e-09 -2.4778079435018216e-08 0.0 0.0
0.0 0.0 0.0 0.0 0.0 0.0 0.0 0.0
0.0 0.0 0.0 0.0 0.0 0.0 0.0 0.0
0.0 -1.2025212151614905e-07 -2.8111852206668733e-09 1.9303984439410896e-09 8.807867767261456e-10 -2.3879236813071873e-08 0.0 0.0
0.0 -1.0170635092883542e-07 2.7109164503211045e-07 -2.1546574657264312e-07 -5.562589845946973e-08 1.1380957869589841e-06 0.0 0.0
0.0 -2.7549296058045977e-06 7.216893783459211e-07 -5.996255526378082e-07 -1.220638257081021e-07 9.918093106022854e-07 0.0 0.0
0.0 3.1462969632777548e-06 4.703648755605707e-06 -4.06398015229488e-06 -6.39668603310821e-07 8.236307813394384e-06 0.0 0.0
0.0 0.0001841697537979065 -0.0001163862692674915 8.680341450826334e-05 2.958285475922819e-05 -0.00012520829842849716 0.0 0.0
0.0 0.0011008512528230738 -0.0009107136719889595 0.0007091878902858353 0.00020152578170312414 -0.0007880981192360147 0.0 0.0
0.0 0.003501693584424116 -0.0029421966296344485 0.002467024769635922 0.0004751718599985275 -0.002219539799229681 0.0 0.0
0.0 0.008011704378396043 -0.006418141558151255 0.005748739013473003 0.0006694025446782506 -0.004551728133142226 0.0 0.0
0.0 0.01336478529043717 -0.011220310862717084 0.010451192785741414 0.0007691180769756816 -0.007580372921076723 0.0 0.0
0.0 0.020461626006906933 -0.017024172310356182 0.016188322703526815 0.0008358496068293625 -0.010823532052127181 0.0 0.0
0.0 0.028362438490137483 -0.023639052768094377 0.0227382722653578 0.000900780502736549 -0.014032954386478872 0.0 0.0
0.0 0.0370700769853464 -0.030986207240436717 0.030017007596250086 0.0009691996441866554 -0.017110807572221522 0.0 0.0
0.0 0.04661557651420559 -0.03906672397103407 0.03803207046089622 0.0010346535101378401 -0.02009957561995045 0.0 0.0
0.0 0.056912745087945804 -0.04784523493778724 0.046758399693192405 0.0010868352445948326 -0.023195420094263685 0.0 0.0
0.0 0.06806681147797175 -0.05707189138162113 0.05596043149074995 0.0011114598908711893 -0.02688412618922677 0.0 0.0
0.0 0.07849619481660913 -0.06606131099643042 0.06496805930459103 0.0010932516918393048 -0.031711569150879595 0.0 0.0
0.0 0.08781203002151511 -0.07342538598326787 0.07241194673929811 0.001013439243969801 -0.03754694011493014 0.0 0.0
0.0 0.09259027188132478 -0.07675687170933045 0.07591691632521258 0.000839955384117873 -0.04289485406039946 0.0 0.0
0.0 0.08773332352888556 -0.07203098098631892 0.07152868219797998 0.0005022987883389886 -0.04481114996406657 0.0 0.0
0.0 0.08165523556983159 -0.06271991338601515 0.05801327857621426 0.004706634809800766 2.4270516152391508e-14 0.0 0.0
0.0 0.08773332352888599 -0.07203098098631006 0.0715286821979723 0.0005022987883377593 0.04481114996412071 0.0 0.0
0.0 0.09259027188130502 -0.07675687170930638 0.07591691632518827 0.0008399553841180198 0.04289485406045447 0.0 0.0
0.0 0.08781203002147255 -0.07342538598322859 0.07241194673925842 0.0010134392439700112 0.037546940114957794 0.0 0.0
0.0 0.07849619481655234 -0.0660613109963817 0.06496805930454183 0.001093251691839932 0.03171156915087723 0.0 0.0
0.0 0.06806681147791166 -0.05707189138157025 0.05596043149069874 0.001111459890871442 0.026884126189210888 0.0 0.0
0.0 0.05691274508788865 -0.04784523493773829 0.04675839969314444 0.0010868352445938677 0.02319542009424484 0.0 0.0
0.0 0.04661557651414372 -0.039066723970981224 0.03803207046084362 0.0010346535101376083 0.020099575619930685 0.0 0.0
0.0 0.03707007698528635 -0.030986207240386348 0.030017007596199494 0.0009691996441868551 0.0171108075722005 0.0 0.0
0.0 0.028362438490082496 -0.023639052768048355 0.02273827226531237 0.0009007805027359821 0.014032954386453926 0.0 0.0
0.0 0.020461626006857688 -0.01702417231031532 0.016188322703486642 0.0008358496068286885 0.010823532052099497 0.0 0.0
0.0 0.013364785290396497 -0.011220310862683297 0.010451192785708042 0.0007691180769752599 0.007580372921052853 0.0 0.0
0.0 0.008011704378366836 -0.006418141558128193 0.005748739013450903 0.0006694025446772918 0.004551728133126819 0.0 0.0
0.0 0.0035016935844080534 -0.0029421966296217903 0.002467024769624589 0.0004751718599972008 0.002219539799220434 0.0 0.0
0.0 0.0011008512528133498 -0.000910713671981912 0.0007091878902801199 0.00020152578170179193 0.0007880981192296809 0.0 0.0
0.0 0.00018416975379507197 -0.00011638626926604976 8.680341450720111e-05 2.958285475884865e-05 0.0001252082984271018 0.0 0.0
0.0 3.146296962714333e-06 4.703648755151553e-06 -4.063980151936782e-06 -6.396686032147537e-07 -8.23630781245586e-06 0.0 0.0
0.0 -2.754929605784603e-06 7.21689378020237e-07 -5.996255523827552e-07 -1.2206382563746424e-07 -9.918093095681649e-07 0.0 0.0
0.0 -1.0170635114342531e-07 2.710916450606563e-07 -2.1546574659692652e-07 -5.562589846372981e-08 -1.138095787076583e-06 0.0 0.0
0.0 -1.2025212151506954e-07 -2.8111852205958148e-09 1.930398443898689e-09 8.807867766964716e-10 2.387923681280424e-08 0.0 0.0
0.0 0.0 0.0 0.0 0.0 0.0 0.0 0.0
0.0 0.0 0.0 0.0 0.0 0.0 0.0 0.0
0.0 0.0 0.0 0.0 0.0 0.0 0.0 0.0
0.0 -3.059323987657567e-07 5.351444253262459e-08 -4.1512542561456334e-08 -1.2001899971169551e-08 1.7417537812797099e-07 0.0 0.0
0.0 -2.9882547656147083e-06 2.440427255798276e-06 -1.97240946314858e-06 -4.6801779264967116e-07 5.040935896505849e-06 0.0 0.0
0.0 1.202170701069121e-07 -8.450791793069038e-06 5.394678934611352e-06 3.05611285845767e-06 -6.9612687899632805e-06 0.0 0.0
0.0 0.00041418007724019595 -0.0003093134699612401 0.00023155967112350377 7.775379883773645e-05 -0.0002091517822082697 0.0 0.0
0.0 0.0018765070524242758 -0.0016302558061422993 0.0012993679708666406 0.0003308878352756585 -0.0009585026493728313 0.0 0.0
0.0 0.005436413835528953 -0.0044616075137170605 0.00385139312217267 0.0006102143915443915 -0.0025001332117859858 0.0 0.0
0.0 0.010376105365815597 -0.008982690996977702 0.008212022421149942 0.0007706685758277598 -0.004977428072730535 0.0 0.0
0.0 0.017613440084322172 -0.014967745725820426 0.01411241423993841 0.0008553314858820301 -0.007986488030023374 0.0 0.0
0.0 0.02615757213208547 -0.02218686565150797 0.02126427228239263 0.0009225933691153053 -0.011189618162267826 0.0 0.0
0.0 0.03589188678423926 -0.030438995280844997 0.029446195099569975 0.0009928001812750404 -0.014358658014701693 0.0 0.0
0.0 0.04669576451110272 -0.0396242515058009 0.038556456857940936 0.001067794647859856 -0.017412037638382897 0.0 0.0
0.0 0.058628535656263456 -0.049732586204781576 0.048590570519196734 0.0011420156855849357 -0.020388324332674478 0.0 0.0
0.0 0.07145554574704756 -0.06075339087751756 0.05954669931462281 0.001206691562894747 -0.023444612389348057 0.0 0.0
0.0 0.08498795070370274 -0.0724370175624729 0.07119857988833272 0.0012384376741401202 -0.02700297193155014 0.0 0.0
0.0 0.0988393087208595 -0.08392625852194138 0.08271887593444313 0.0012073825874982925 -0.03169325070179413 0.0 0.0
0.0 0.11017762793844074 -0.09338930056855334 0.09230098639819437 0.0010883141703588125 -0.03764752564958519 0.0 0.0
0.0 0.11562924764184603 -0.09768642632973812 0.09682539710402831 0.0008610292257097926 -0.04364397420518748 0.0 0.0
0.0 0.11025468264407189 -0.09221311465253894 0.09170994150086632 0.00050317315167263 -0.0476490512753157 0.0 0.0
0.0 0.10220078459280632 -0.08148234392043889 0.0762312365804662 0.005251107339972692 2.3278254324132774e-14 0.0 0.0
0.0 0.11025468264406588 -0.09221311465252553 0.09170994150085382 0.0005031731516717856 0.047649051275371654 0.0 0.0
0.0 0.11562924764181753 -0.09768642632970767 0.09682539710399787 0.0008610292257097422 0.04364397420524321 0.0 0.0
0.0 0.11017762793838942 -0.0933893005685067 0.0923009863981478 0.0010883141703588318 0.037647525649613045 0.0 0.0
0.0 0.09883930872079166 -0.08392625852188282 0.08271887593438398 0.0012073825874987633 0.03169325070179421 0.0 0.0
0.0 0.08498795070362866 -0.07243701756240939 0.07119857988826916 0.0012384376741402495 0.027002971931536553 0.0 0.0
0.0 0.07145554574697688 -0.060753390877456744 0.05954669931456274 0.0012066915628939987 0.023444612389332355 0.0 0.0
0.0 0.058628535656192846 -0.049732586204720354 0.04859057051913623 0.0011420156855840966 0.020388324332656815 0.0 0.0
0.0 0.046695764511029345 -0.03962425150573836 0.03855645685787811 0.0010677946478602107 0.017412037638362778 0.0 0.0
0.0 0.035891886784172086 -0.030438995280788146 0.029446195099513572 0.0009928001812745536 0.014358658014677048 0.0 0.0
0.0 0.026157572132026876 -0.022186865651458894 0.021264272282343857 0.0009225933691150265 0.011189618162240619 0.0 0.0
0.0 0.017613440084272413 -0.014967745725778837 0.01411241423989695 0.0008553314858818861 0.007986488029999527 0.0 0.0
0.0 0.010376105365781802 -0.008982690996948088 0.008212022421121174 0.000770668575826913 0.004977428072714405 0.0 0.0
0.0 0.0054364138355052945 -0.004461607513698185 0.003851393122154857 0.000610214391543328 0.002500133211774797 0.0 0.0
0.0 0.0018765070524129927 -0.0016302558061331441 0.0012993679708591375 0.00033088783527400635 0.0009585026493672593 0.0 0.0
0.0 0.00041418007723551003 -0.0003093134699583141 0.00023155967112125432 7.77537988370593e-05 0.0002091517822062383 0.0 0.0
0.0 1.2021706941669204e-07 -8.450791793246212e-06 5.39467893477559e-06 3.0561128584706053e-06 6.961268790411134e-06 0.0 0.0
0.0 -2.9882547662365067e-06 2.440427255742729e-06 -1.972409463104218e-06 -4.680177926385055e-07 -5.040935896250533e-06 0.0 0.0
0.0 -3.0593239859254603e-07 5.351444256383797e-08 -4.1512542586276146e-08 -1.2001899977560431e-08 -1.7417537822786134e-07 0.0 0.0
0.0 0.0 0.0 0.0 0.0 0.0 0.0 0.0
0.0 0.0 0.0 0.0 0.0 0.0 0.0 0.0
0.0 0.0 0.0 0.0 0.0 0.0 0.0 0.0
0.0 0.0 0.0 0.0 0.0 0.0 0.0 0.0
0.0 -1.9259891853480113e-07 -1.2438204119640457e-08 9.900711751953166e-09 2.537492367688598e-09 -3.208399983975565e-08 0.0 0.0
0.0 -4.468579071817354e-06 2.351509978898169e-06 -1.911228300088884e-06 -4.402816788093139e-07 4.045659348516601e-06 0.0 0.0
0.0 4.785229148942675e-05 -2.9522383523234302e-05 1.9550451910306618e-05 9.971931612927806e-06 -7.837787205962757e-06 0.0 0.0
0.0 0.0006802343245832019 -0.0006427243997328596 0.0004866447554240761 0.00015607964430878308 -0.0002898178216939063 0.0 0.0
0.0 0.0030285697743810827 -0.002518764590340289 0.0020623279867102804 0.0004564366036300069 -0.00100865676996276 0.0 0.0
0.0 0.007008444304372398 -0.006180307671943849 0.005466547136983464 0.0007137605349603879 -0.002585190083945021 0.0 0.0
0.0 0.013405825730169808 -0.011645276453336765 0.010798906077021136 0.0008463703763156188 -0.004895473877106258 0.0 0.0
0.0 0.021796951231390277 -0.018792783519645317 0.017865398332618045 0.000927385187027279 -0.007660783005119228 0.0 0.0
0.0 0.031922339019491305 -0.027411109884572734 0.026411549038576856 0.0009995608459958654 -0.0106266019393596 0.0 0.0
0.0 0.043523598381450306 -0.037295435622262105 0.036219756699751235 0.0010756789225108748 -0.013560081992298568 0.0 0.0
0.0 0.05650608441379931 -0.048323865905624944 0.04716748361997505 0.0011563822856498424 -0.016403119470932745 0.0 0.0
0.0 0.07043153962284317 -0.060461282901473595 0.05922331345940805 0.0012379694420655602 -0.019208205145070528 0.0 0.0
0.0 0.08589417602386926 -0.07367146262329896 0.07235967726300788 0.0013117853602912246 -0.02203849990158208 0.0 0.0
0.0 0.10229291916179045 -0.0877063455578301 0.08635347821297927 0.0013528673448507307 -0.0250947571365456 0.0 0.0
0.0 0.11836270045140446 -0.10160495599565848 0.10028988632651183 0.0013150696691465445 -0.028981628124313954 0.0 0.0
0.0 0.13200112503122768 -0.113119843815425 0.11196174083440083 0.0011581029810242285 -0.03441607748043216 0.0 0.0
0.0 0.1388124033262828 -0.11848225306922487 0.11760245401997893 0.0008797990492457726 -0.04130275648993644 0.0 0.0
0.0 0.13294477949607467 -0.1125735313214669 0.11207912662564956 0.0004944046958173297 -0.04901544302484766 0.0 0.0
0.0 0.1233183877958687 -0.1006976768882364 0.0949708256405007 0.00572685124773574 2.2402218968764487e-14 0.0 0.0
0.0 0.1329447794960602 -0.11257353132144782 0.11207912662563049 0.0004944046958172778 0.04901544302490229 0.0 0.0
0.0 0.13881240332624104 -0.11848225306918451 0.11760245401993812 0.0008797990492462806 0.04130275648998654 0.0 0.0
0.0 0.13200112503116665 -0.11311984381537078 0.11196174083434692 0.0011581029810239407 0.03441607748045886 0.0 0.0
0.0 0.11836270045132849 -0.10160495599559238 0.10028988632644563 0.0013150696691467008 0.02898162812431617 0.0 0.0
0.0 0.10229291916170655 -0.08770634555775726 0.08635347821290709 0.0013528673448500721 0.025094757136536385 0.0 0.0
0.0 0.0858941760237825 -0.07367146262322449 0.07235967726293349 0.0013117853602910492 0.02203849990156847 0.0 0.0
0.0 0.07043153962276133 -0.060461282901402645 0.05922331345933828 0.001237969442064306 0.01920820514505429 0.0 0.0
0.0 0.05650608441371574 -0.048323865905552724 0.04716748361990283 0.0011563822856498793 0.016403119470914697 0.0 0.0
0.0 0.04352359838137215 -0.03729543562219527 0.036219756699684955 0.001075678922510296 0.013560081992275397 0.0 0.0
0.0 0.031922339019420924 -0.027411109884512813 0.026411549038516984 0.0009995608459958478 0.010626601939333291 0.0 0.0
0.0 0.02179695123133507 -0.01879278351959805 0.017865398332570885 0.0009273851870271459 0.007660783005098265 0.0 0.0
0.0 0.01340582573013126 -0.01164527645330308 0.010798906076988435 0.0008463703763146541 0.004895473877092182 0.0 0.0
0.0 0.007008444304343409 -0.006180307671918849 0.005466547136959631 0.0007137605349592152 0.002585190083933771 0.0 0.0
0.0 0.003028569774365826 -0.0025187645903280826 0.002062327986699614 0.0004564366036284681 0.0010086567699573174 0.0 0.0
0.0 0.0006802343245774032 -0.0006427243997285268 0.00048664475542072055 0.0001560796443078055 0.0002898178216919918 0.0 0.0
0.0 4.7852291488223866e-05 -2.952238352312631e-05 1.9550451910257622e-05 9.97193161286876e-06 7.837787206223062e-06 0.0 0.0
0.0 -4.468579071864045e-06 2.3515099787178933e-06 -1.9112282999522538e-06 -4.40281678765638e-07 -4.045659348285765e-06 0.0 0.0
0.0 -1.9259891850927365e-07 -1.243820411784055e-08 9.900711750511593e-09 2.5374923673294314e-09 3.208399983580417e-08 0.0 0.0
0.0 0.0 0.0 0.0 0.0 0.0 0.0 0.0
0.0 0.0 0.0 0.0 0.0 0.0 0.0 0.0
0.0 0.0 0.0 0.0 0.0 0.0 0.0 0.0
0.0 0.0 0.0 0.0 0.0 0.0 0.0 0.0
0.0 -7.18462332870173e-08 -5.322214849680892e-09 4.219826328331633e-09 1.102388521349622e-09 -1.0684932772376604e-08 0.0 0.0
0.0 -5.234650531835085e-06 3.6289956096134127e-06 -2.9797388875420475e-06 -6.492567220713583e-07 4.731888575414231e-06 0.0 0.0
0.0 0.00013111695167441727 -0.00010136982169354252 7.086675679209258e-05 3.050306490145015e-05 -2.0326331528694754e-05 0.0 0.0
0.0 0.001223190175811756 -0.0010682011840532951 0.0008217281430149892 0.00024647304103830495 -0.0002579707258415198 0.0 0.0
0.0 0.00406518771140817 -0.003586297837929961 0.003016215206218525 0.0005700826317114351 -0.0009529013640794077 0.0 0.0
0.0 0.0089815089487904 -0.007993337160682288 0.007204277652481219 0.0007890595082010657 -0.0023495299655620933 0.0 0.0
0.0 0.01637957807832925 -0.014365466243317342 0.013457074602374072 0.0009083916409432675 -0.004280225194999057 0.0 0.0
0.0 0.026064428620982683 -0.02265075006448869 0.021659202168693385 0.0009915478957952932 -0.006626385656541886 0.0 0.0
0.0 0.03769644098528069 -0.03265444015640498 0.03158463271005892 0.0010698074463460308 -0.009151232064656152 0.0 0.0
0.0 0.051160661038385395 -0.044168324226315475 0.04301595227802253 0.0011523719482929651 -0.011653122587000532 0.0 0.0
0.0 0.06598242663492747 -0.05705049926175776 0.055811559092632676 0.0012389401691251562 -0.014094484318773847 0.0 0.0
0.0 0.08263877915970935 -0.07120784345212633 0.0698844536594517 0.0013233897926745015 -0.01654416108435839 0.0 0.0
0.0 0.10030879401182438 -0.08654576150142665 0.0851448943672632 0.0014008671341634244 -0.019002865885153847 0.0 0.0
0.0 0.1188990196681458 -0.10276404118294806 0.10131109323869798 0.0014529479442500991 -0.021367752673291492 0.0 0.0
0.0 0.1376504982326175 -0.11888013988357723 0.11745390056518126 0.0014262393183960228 -0.023885437529949913 0.0 0.0
0.0 0.15356220885824523 -0.13247848041533697 0.13123232739592328 0.0012461530194136374 -0.027955857834600365 0.0 0.0
0.0 0.16192165491234295 -0.13927724347748852 0.13836867480852527 0.0009085686689632542 -0.03581318222354206 0.0 0.0
0.0 0.1563738715596701 -0.13347610533172535 0.13301152961893198 0.0004645757127935141 -0.04866482769031361 0.0 0.0
0.0 0.14604800841193044 -0.12077243370594384 0.1146456372135729 0.006126796492370731 1.9751561497471926e-14 0.0 0.0
0.0 0.1563738715596483 -0.13347610533170168 0.13301152961890797 0.00046457571279376396 0.048664827690361394 0.0 0.0
0.0 0.16192165491229144 -0.1392772434774414 0.13836867480847764 0.0009085686689636119 0.035813182223585226 0.0 0.0
0.0 0.15356220885817398 -0.1324784804152747 0.13123232739586116 0.001246153019413558 0.027955857834623146 0.0 0.0
0.0 0.13765049823253053 -0.11888013988350184 0.1174539005651062 0.0014262393183955679 0.023885437529952123 0.0 0.0
0.0 0.11889901966804974 -0.10276404118286456 0.10131109323861523 0.001452947944249332 0.02136775267328594 0.0 0.0
0.0 0.10030879401172417 -0.08654576150134025 0.08514489436717704 0.0014008671341631408 0.019002865885143036 0.0 0.0
0.0 0.08263877915961415 -0.07120784345204362 0.06988445365937006 0.001323389792673517 0.016544161084344984 0.0 0.0
0.0 0.06598242663482778 -0.05705049926167206 0.05581155909254681 0.00123894016912536 0.014094484318758711 0.0 0.0
0.0 0.05116066103829779 -0.04416832422623949 0.04301595227794718 0.0011523719482923326 0.011653122586981679 0.0 0.0
0.0 0.03769644098520184 -0.03265444015633711 0.03158463270999132 0.0010698074463457803 0.009151232064633887 0.0 0.0
0.0 0.026064428620917533 -0.022650750064432467 0.021659202168637634 0.0009915478957948352 0.006626385656523213 0.0 0.0
0.0 0.016379578078284628 -0.01436546624327827 0.013457074602335764 0.0009083916409424914 0.004280225194986984 0.0 0.0
0.0 0.008981508948757985 -0.007993337160653565 0.007204277652453354 0.0007890595082002143 0.002349529965552193 0.0 0.0
0.0 0.004065187711390231 -0.0035862978379146266 0.0030162152062047374 0.0005700826317098881 0.0009529013640742566 0.0 0.0
0.0 0.001223190175804354 -0.0010682011840475202 0.0008217281430104061 0.00024647304103711396 0.0002579707258399909 0.0 0.0
0.0 0.00013111695167242917 -0.00010136982169249102 7.086675679135666e-05 3.050306490113428e-05 2.032633152855951e-05 0.0 0.0
0.0 -5.234650532092981e-06 3.6289956090869403e-06 -2.979738887145011e-06 -6.492567219419198e-07 -4.731888574941809e-06 0.0 0.0
0.0 -7.184623319621463e-08 -5.322214842869262e-09 4.219826322927047e-09 1.1023885199412321e-09 1.0684932758656047e-08 0.0 0.0
0.0 0.0 0.0 0.0 0.0 0.0 0.0 0.0
0.0 0.0 0.0 0.0 0.0 0.0 0.0 0.0
0.0 0.0 0.0 0.0 0.0 0.0 0.0 0.0
0.0 0.0 0.0 0.0 0.0 0.0 0.0 0.0
0.0 0.0 0.0 0.0 0.0 0.0 0.0 0.0
0.0 -7.211637176429025e-06 6.7227275254142066e-06 -5.59008623203743e-06 -1.132641293376802e-06 6.153749697267705e-06 0.0 0.0
0.0 0.0002493580859281516 -0.00024541528612594024 0.00017478219137747133 7.063309474846855e-05 -7.337712178915063e-06 0.0 0.0
0.0 0.0019104105617059547 -0.0016330684007219596 0.0012851768433185219 0.00034789155740343777 -0.0001513561415695433 0.0 0.0
0.0 0.005162475993005852 -0.0047697161542289875 0.004109662216610609 0.0006600539376183768 -0.0007322719023008119 0.0 0.0
0.0 0.011054455920638879 -0.009859147132305575 0.009009711726812218 0.000849435405493373 -0.001736403202475729 0.0 0.0
0.0 0.01939668032190186 -0.01710741608346174 0.016145030009313954 0.0009623860741477847 -0.003155867342982004 0.0 0.0
0.0 0.03032785323073433 -0.02650401767401191 0.02545389464152839 0.0010501230324835489 -0.004891169027304238 0.0 0.0
0.0 0.04355324342185755 -0.03787768986425234 0.03674248281146335 0.0011352070527889428 -0.006771442648108356 0.0 0.0
0.0 0.05871218363714309 -0.051018676322442294 0.04979473172864071 0.0012239445938015416 -0.008642006410857836 0.0 0.0
0.0 0.07595469370800774 -0.06575430085478931 0.06443907503751832 0.0013152258172710247 -0.010488235951971953 0.0 0.0
0.0 0.09441424466531598 -0.08194156587186105 0.08053875604543269 0.0014028098264283711 -0.012392291318454705 0.0 0.0
0.0 0.11456218281790073 -0.09934999554510887 0.09787218138151871 0.0014778141635901263 -0.014304404457719758 0.0 0.0
0.0 0.13560144691497406 -0.11754319635258627 0.11601529321747155 0.0015279031351147247 -0.015934695040298794 0.0 0.0
0.0 0.1564405461829391 -0.13557045928745703 0.1340430942897288 0.0015273649977283837 -0.017055731571458628 0.0 0.0
0.0 0.17457947602616994 -0.1512380954494138 0.14984367821074726 0.001394417238666558 -0.01891281677130097 0.0 0.0
0.0 0.18515582843329895 -0.1600948035229534 0.15911179710508883 0.0009830064178642643 -0.02624303642760039 0.0 0.0
0.0 0.18085864879879485 -0.1553295804467942 0.15494556309410423 0.00038401735268985893 -0.045543368031185416 0.0 0.0
0.0 0.17054620560433778 -0.1422734874804085 0.13585241559319838 0.006421071887210154 1.2869913468271932e-14 0.0 0.0
0.0 0.18085864879876742 -0.15532958044676762 0.15494556309407753 0.0003840173526898767 0.04554336803122319 0.0 0.0
0.0 0.18515582843323822 -0.16009480352289948 0.1591117971050347 0.000983006417865036 0.0262430364276365 0.0 0.0
0.0 0.17457947602608792 -0.1512380954493428 0.14984367821067662 0.0013944172386661452 0.018912816771317335 0.0 0.0
0.0 0.1564405461828375 -0.13557045928736908 0.13404309428964117 0.0015273649977280762 0.017055731571459544 0.0 0.0
0.0 0.1356014469148671 -0.1175431963524935 0.11601529321737943 0.0015279031351140694 0.015934695040296164 0.0 0.0
0.0 0.11456218281779142 -0.09934999554501414 0.09787218138142452 0.001477814163589635 0.014304404457715338 0.0 0.0
0.0 0.09441424466520337 -0.0819415658717638 0.08053875604533589 0.0014028098264279429 0.012392291318444111 0.0 0.0
0.0 0.07595469370789641 -0.06575430085469297 0.06443907503742205 0.0013152258172708093 0.010488235951962046 0.0 0.0
0.0 0.05871218363704223 -0.051018676322355315 0.049794731728554156 0.0012239445938010964 0.008642006410843854 0.0 0.0
0.0 0.04355324342177088 -0.03787768986417685 0.03674248281138828 0.001135207052788524 0.006771442648091396 0.0 0.0
0.0 0.03032785323066365 -0.026504017673949883 0.02545389464146719 0.0010501230324826848 0.0048911690272900096 0.0 0.0
0.0 0.019396680321848696 -0.0171074160834149 0.016145030009267727 0.0009623860741471977 0.0031558673429727914 0.0 0.0
0.0 0.011054455920601164 -0.009859147132272124 0.00900971172677954 0.0008494354054925795 0.001736403202468071 0.0 0.0
0.0 0.005162475992984319 -0.004769716154209472 0.00410966221659251 0.0006600539376169718 0.0007322719022962793 0.0 0.0
0.0 0.0019104105616957164 -0.0016330684007132491 0.0012851768433112351 0.00034789155740201107 0.00015135614156817418 0.0 0.0
0.0 0.0002493580859249754 -0.00024541528612389614 0.00017478219137597318 7.063309474792268e-05 7.337712178893158e-06 0.0 0.0
0.0 -7.2116371763068604e-06 6.722727524973712e-06 -5.5900862316971104e-06 -1.1326412932766398e-06 -6.153749697053673e-06 0.0 0.0
0.0 0.0 0.0 0.0 0.0 0.0 0.0 0.0
0.0 0.0 0.0 0.0 0.0 0.0 0.0 0.0
0.0 0.0 0.0 0.0 0.0 0.0 0.0 0.0
0.0 0.0 0.0 0.0 0.0 0.0 0.0 0.0
0.0 0.0 0.0 0.0 0.0 0.0 0.0 0.0
0.0 0.0 0.0 0.0 0.0 0.0 0.0 0.0
0.0 -2.2053330621810166e-06 2.967995195859824e-07 -1.6977072534784565e-06 1.400907733892492e-06 7.075460579121153e-06 0.0 0.0
0.0 0.0005385156627438615 -0.00045590775126863863 0.00033013462650879194 0.00012577312475984718 6.527103578349793e-05 0.0 0.0
0.0 0.0025957899506082825 -0.002326587625618947 0.0018784260216561624 0.00044816160396278233 4.456764252265305e-05 0.0 0.0
0.0 0.006584330679094214 -0.006004832971694256 0.005277191895958406 0.0007276410757358524 -0.00026022692554677714 0.0 0.0
0.0 0.013153530585299878 -0.011748457081366449 0.010849730447724129 0.000898726633642303 -0.0007850390009115565 0.0 0.0
0.0 0.022493362161452982 -0.01983481688445989 0.018824394726956607 0.0010104221575032918 -0.0015291379416758177 0.0 0.0
0.0 0.034583706303717356 -0.030314894346440743 0.029209962378641104 0.0011049319677996295 -0.002460312737108934 0.0 0.0
0.0 0.04931725025209702 -0.043044267331891393 0.04184779805499426 0.001196469276897155 -0.0034832224591298906 0.0 0.0
0.0 0.06653858392104378 -0.057807729295046024 0.05651717560630775 0.0012905536887382676 -0.004523665427907227 0.0 0.0
0.0 0.0854245826065565 -0.0744047020603164 0.07301777161916095 0.0013869304411553737 -0.005599818242864603 0.0 0.0
0.0 0.1064519050241108 -0.09260299697937335 0.091126140940052 0.0014768560393213035 -0.006731232073096531 0.0 0.0
0.0 0.12891009631321218 -0.11204528825262527 0.11049840044918545 0.0015468878034398778 -0.007859378151838039 0.0 0.0
0.0 0.152087805431185 -0.13209226546691985 0.13050753575098079 0.0015847297159388035 -0.008762248257036117 0.0 0.0
0.0 0.17474581715688936 -0.15167100125397753 0.1500849013820848 0.0015860998718928768 -0.009043605688417463 0.0 0.0
0.0 0.19477591024082247 -0.16898906353310483 0.167442167310533 0.0015468962225717667 -0.008974468326519252 0.0 0.0
0.0 0.20810627142855317 -0.18048287509600347 0.17918649430778769 0.0012963807882155481 -0.012798486934724438 0.0 0.0
0.0 0.20687863020621192 -0.17863953655115541 0.17833463470960356 0.0003049018415517977 -0.0340895210756267 0.0 0.0
0.0 0.19811124618563192 -0.1663999211289257 0.16011107784259548 0.0062888432863301095 6.6509298068950784e-15 0.0 0.0
0.0 0.20687863020618172 -0.1786395365511271 0.17833463470957606 0.000304901841551013 0.034089521075649075 0.0 0.0
0.0 0.20810627142848565 -0.18048287509594452 0.1791864943077287 0.0012963807882157036 0.012798486934746093 0.0 0.0
0.0 0.19477591024072607 -0.16898906353302154 0.16744216731044967 0.0015468962225717595 0.008974468326527794 0.0 0.0
0.0 0.17474581715677295 -0.1516710012538775 0.15008490138198394 0.0015860998718934443 0.009043605688416957 0.0 0.0
0.0 0.15208780543106482 -0.1320922654668152 0.13050753575087687 0.001584729715938321 0.008762248257033986 0.0 0.0
0.0 0.12891009631309208 -0.11204528825252102 0.11049840044908228 0.001546887803438846 0.007859378151837071 0.0 0.0
0.0 0.10645190502398263 -0.09260299697926266 0.09112614093994117 0.0014768560393213458 0.006731232073090893 0.0 0.0
0.0 0.0854245826064369 -0.07440470206021287 0.07301777161905787 0.0013869304411550025 0.00559981824285962 0.0 0.0
0.0 0.0665385839209308 -0.05780772929494807 0.05651717560621034 0.0012905536887377286 0.004523665427899022 0.0 0.0
0.0 0.04931725025200049 -0.043044267331807745 0.04184779805491124 0.001196469276896536 0.0034832224591202984 0.0 0.0
0.0 0.034583706303638606 -0.030314894346371763 0.029209962378572825 0.0011049319677989618 0.00246031273710079 0.0 0.0
0.0 0.0224933621613925 -0.01983481688440658 0.018824394726903716 0.0010104221575028497 0.0015291379416709386 0.0 0.0
0.0 0.013153530585258357 -0.011748457081329357 0.010849730447687953 0.0008987266336414013 0.000785039000907962 0.0 0.0
0.0 0.00658433067906795 -0.006004832971670444 0.0052771918959357185 0.000727641075734723 0.0002602269255438434 0.0 0.0
0.0 0.002595789950593691 -0.0023265876256060897 0.001878426021645014 0.00044816160396107644 -4.456764252337119e-05 0.0 0.0
0.0 0.0005385156627394356 -0.00045590775126537405 0.0003301346265064433 0.00012577312475893057 -6.52710357830977e-05 0.0 0.0
0.0 -2.205333062255845e-06 2.9679951918865024e-07 -1.6977072531635432e-06 1.4009077339750012e-06 -7.075460578970209e-06 0.0 0.0
0.0 0.0 0.0 0.0 0.0 0.0 0.0 0.0
0.0 0.0 0.0 0.0 0.0 0.0 0.0 0.0
0.0 0.0 0.0 0.0 0.0 0.0 0.0 0.0
0.0 0.0 0.0 0.0 0.0 0.0 0.0 0.0
0.0 0.0 0.0 0.0 0.0 0.0 0.0 0.0
0.0 0.0 0.0 0.0 0.0 0.0 0.0 0.0
0.0 3.5363288195934124e-05 -3.406371100610244e-05 2.2080345831948093e-05 1.1983365174154404e-05 1.4323402218339355e-05 0.0 0.0
0.0 0.0008878415197286432 -0.0007131180341361999 0.0005132040251012253 0.0001999140090349744 0.000172031024537041 0.0 0.0
0.0 0.0032878576658489436 -0.0029505977030517693 0.0023573242537158977 0.0005932734493358676 0.00038237291251138207 0.0 0.0
0.0 0.007700058518472721 -0.007053212659028974 0.006118001409461958 0.0009352112495670228 0.0005016017743708727 0.0 0.0
0.0 0.014801385622683232 -0.013311840709786613 0.012111559168232467 0.0012002815415541434 0.0005558426106917667 0.0 0.0
0.0 0.024782085036058898 -0.022068950474331942 0.02062444316388528 0.0014445073104466348 0.0005339719779467256 0.0 0.0
0.0 0.03782665885903642 -0.03342852335778228 0.03171304598531644 0.001715477372465787 0.00039431474668698546 0.0 0.0
0.0 0.05379244076688307 -0.047278103802380636 0.0452452999879373 0.0020328038144433198 0.00017410580370018488 0.0 0.0
0.0 0.0720954077994138 -0.06339965663280464 0.06099987530444091 0.002399781328363753 -0.00011939563596845542 0.0 0.0
0.0 0.09279872491695543 -0.08153541999304958 0.07873201869592243 0.00280340129712714 -0.0005174571174735099 0.0 0.0
0.0 0.11550754734487417 -0.10139113464896748 0.09816874658268113 0.003222388066286435 -0.0009895153833226183 0.0 0.0
0.0 0.13970789017873478 -0.12251127595693641 0.11888838480364854 0.0036228911532877103 -0.0015507693278169702 0.0 0.0
0.0 0.1645171757428458 -0.1440830291656322 0.14012404038806767 0.0039589887775647314 -0.002096029181871987 0.0 0.0
0.0 0.18841323809769106 -0.16480898604608887 0.16063154651193798 0.004177439534150697 -0.002347994843518891 0.0 0.0
0.0 0.20931587730366555 -0.1829216879975249 0.17866624913746554 0.004255438860059089 -0.00209221091393777 0.0 0.0
0.0 0.22433696299258027 -0.1961497082357358 0.1917945621464052 0.004355146089330733 -0.004109648519400379 0.0 0.0
0.0 0.22735164129356897 -0.19929256573032267 0.19477427800858937 0.004518287721733341 -0.025941352797780218 0.0 0.0
0.0 0.22330693973338506 -0.19043854663669887 0.17889003284759852 0.01154851378909998 4.85722573273506e-16 0.0 0.0
0.0 0.22735164129353483 -0.1992925657302921 0.19477427800856034 0.0045182877217314985 0.025941352797787677 0.0 0.0
0.0 0.22433696299250905 -0.19614970823567296 0.19179456214634513 0.0043551460893276545 0.004109648519408676 0.0 0.0
0.0 0.20931587730355444 -0.18292168799742842 0.17866624913737106 0.0042554388600576296 0.00209221091393913 0.0 0.0
0.0 0.1884132380975658 -0.16480898604597988 0.16063154651183006 0.004177439534149634 0.0023479948435161067 0.0 0.0
0.0 0.16451717574271243 -0.14408302916551613 0.14012404038795312 0.003958988777562692 0.002096029181869373 0.0 0.0
0.0 0.13970789017860585 -0.122511275956823 0.11888838480353844 0.003622891153284485 0.0015507693278171246 0.0 0.0
0.0 0.11550754734473631 -0.1013911346488474 0.09816874658256267 0.0032223880662846888 0.0009895153833195565 0.0 0.0
0.0 0.09279872491682499 -0.08153541999293598 0.07873201869581058 0.0028034012971253504 0.00051745711747158 0.0 0.0
0.0 0.07209540779929194 -0.06339965663269861 0.06099987530433664 0.002399781328361877 0.00011939563596552287 0.0 0.0
0.0 0.05379244076677866 -0.04727810380228918 0.04524529998784795 0.002032803814441215 -0.00017410580370254974 0.0 0.0
0.0 0.037826658858947274 -0.033428523357704666 0.031713045985240315 0.0017154773724643137 -0.00039431474668942014 0.0 0.0
0.0 0.024782085035992427 -0.02206895047427352 0.02062444316382822 0.0014445073104453073 -0.0005339719779478246 0.0 0.0
0.0 0.014801385622638247 -0.013311840709746326 0.012111559168193606 0.001200281541552719 -0.000555842610691187 0.0 0.0
0.0 0.0077000585184445955 -0.007053212659003293 0.006118001409437712 0.0009352112495655799 -0.0005016017743704594 0.0 0.0
0.0 0.003287857665833727 -0.0029505977030375267 0.0023573242537035513 0.0005932734493339755 -0.00038237291251029933 0.0 0.0
0.0 0.0008878415197236244 -0.0007131180341323081 0.0005132040250984417 0.0001999140090338681 -0.00017203102453603207 0.0 0.0
0.0 3.536328819535162e-05 -3.4063711005737165e-05 2.208034583171122e-05 1.198336517402592e-05 -1.43234022181863e-05 0.0 0.0
0.0 0.0 0.0 0.0 0.0 0.0 0.0 0.0
0.0 0.0 0.0 0.0 0.0 0.0 0.0 0.0
0.0 0.0 0.0 0.0 0.0 0.0 0.0 0.0
SCALARS Wm float 4
LOOKUP_TABLE default
13.65752552746191 2.0576456505465988 5.8174844535508905 5.782395423364418
7.030466396821309 3.337556279388681 1.6738125253434903 2.019097592089138
0.801376734256434 0.7238096022038655 0.015081946875423975 0.06248518517714482
0.582499899776413 0.5377023415200217 0.012494596436631512 0.032302961819760216
1.2513745897358155 0.8372362272487182 0.15049574109562644 0.26364262139146977
2.8203560230157825 1.249285459372799 0.6028319016278829 0.9682386620150993
5.96178514103159 1.829548306662379 1.8293123983221942 2.302924436047016
11.136100962295345 2.5846065014553288 4.124042087361114 4.4274523734789035
18.862730454591418 3.5731933551119193 7.863868680654262 7.425668418825226
29.4943499290288 4.821758609805267 13.346619727713634 11.325971591509909
43.15515795659698 6.334408429233981 20.731609800744273 16.089139726618722
59.67977255258822 8.096600739387261 29.941340957560215 21.64183085564074
79.07731605822174 10.074334883597118 41.10187921171229 27.901101962912314
101.13039513545782 12.228218259583063 54.12002667303555 34.78215020283923
125.39094703820857 14.390639650455496 68.84153915959278 42.15876822816024
151.0311357947188 16.288108806983104 84.91414921326673 49.82887777446894
176.71357439174392 17.61285848132056 101.59539081713379 57.50532509328962
200.74880231543466 18.155402846922794 117.84796935189516 64.74543011661656
221.3955060696294 18.017618934250468 132.34127388069675 71.03661325468236
235.89985841418795 16.86308704654313 143.2698741233104 75.7668972443342
240.49333201002958 14.639057744131174 148.0126129644548 77.8416613014436
235.89985841415944 16.863087046549254 143.26987412328572 75.76689724432453
221.39550606958014 18.017618934278275 132.34127388064283 71.0366132546589
200.74880231532507 18.155402846915862 117.84796935182382 64.74543011658531
176.71357439161272 17.612858481302794 101.59539081705569 57.5053250932542
151.0311357945971 16.288108806985058 84.91414921318254 49.828877774429515
125.39094703808132 14.390639650444752 68.84153915951491 42.15876822812167
101.13039513533602 12.228218259572916 54.120026672962005 34.782150202801134
79.07731605810618 10.074334883585932 41.101879211644736 27.901101962875526
59.67977255248099 8.096600739372848 29.941340957501403 21.641830855606763
43.155157956515524 6.3344084292342 20.73160980069387 16.08913972658743
29.49434992895842 4.821758609789033 13.346619727681418 11.325971591487988
18.862730454544675 3.5731933551084913 7.863868680629671 7.425668418806511
11.13610096226275 2.5846065014474546 4.124042087347946 4.427452373467351
5.961785141012046 1.829548306658978 1.829312398314289 2.3029244360387793
2.820356023005697 1.2492854593690406 0.602831901625414 0.9682386620112415
1.2513745897320991 0.8372362272466667 0.15049574109493064 0.26364262139050204
0.5824998997756179 0.5377023415195243 0.012494596436531332 0.032302961819562284
0.8013767342552811 0.7238096022031036 0.015081946875289588 0.062485185176886796
7.030466396815426 3.3375562793891818 1.6738125253403533 2.0190975920858882
13.65752552743284 2.0576456505319793 5.817484453542873 5.782395423357998
16.42128167284858 7.099724690613748 4.545441928732767 4.776115053502066
2.913785142260945 0.6407518417168984 0.970170068574541 1.3028632319695046
0.2880492368228888 0.3386651529685238 -0.017660586201789872 -0.03295532994384508
0.44840983276929147 0.43203163950976353 0.00334691138499747 0.01303128187453046
0.9386501007037725 0.6810346576000352 0.08199835764732193 0.1756170854564155
2.247406958894225 1.0157195112280333 0.474250293140728 0.7574371545254638
4.890522564382232 1.4150108129033439 1.5018955363185258 1.9736162151603618
9.419415442846322 1.9206704880109753 3.56110907759946 3.937635877235887
16.218021188073227 2.5285392739200763 6.9602969994639174 6.729184914689237
25.513437094242487 3.228554678879442 11.927067179650463 10.357815235712572
37.37933919997289 4.002199084668137 18.601273753203998 14.775866362100732
51.82913419664835 4.855564747142645 27.06478812113838 19.90878132836733
68.54794617452501 5.791370629885311 37.06445937384814 25.692116170791586
87.68972534494321 6.7684101270909585 48.87024264439138 32.05107257346091
108.81172424671789 7.716234650412433 62.20932150765697 38.886168088648546
131.2811971853619 8.494470924346283 76.77273257985877 46.013993681156805
154.05805775383908 8.939311620739321 91.9800251804446 53.13872095265515
175.7069609883319 8.940082437616223 106.87751002765914 59.889368523056525
194.3136475439818 8.390044376435164 120.16043149497301 65.76317167257355
207.4694318032063 7.371501468768001 130.05392307206185 70.04400726237654
212.52513806576997 6.206616159496089 134.41405403451327 71.90446787176072
207.46943180316796 7.371501468760471 130.05392307204028 70.04400726236723
194.31364754391868 8.390044376440922 120.16043149492513 65.76317167255272
175.70696098824422 8.9400824376215 106.87751002759491 59.8893685230279
154.05805775373622 8.93931162073787 91.98002518037515 53.13872095262316
131.28119718524758 8.49447092434276 76.77273257978368 46.013993681121164
108.8117242466047 7.716234650403864 62.2093215075873 38.88616808861359
87.68972534484182 6.768410127092436 48.870242644323824 32.05107257342555
68.54794617442838 5.791370629884071 37.06445937378682 25.69211617075748
51.82913419655542 4.855564747134246 27.064788121085307 19.908781328335856
37.37933919989436 4.002199084661619 18.601273753160037 14.775866362072694
25.513437094187317 3.228554678876038 11.927067179619996 10.35781523569128
16.218021188029866 2.5285392739143937 6.960296999442823 6.729184914672643
9.41941544281916 1.9206704880070864 3.5611090775872287 3.9376358772248428
4.890522564366229 1.4150108129017156 1.5018955363116384 1.9736162151528718
2.2474069588865007 1.0157195112255963 0.47425029313840605 0.7574371545224994
0.9386501007009421 0.6810346575983057 0.08199835764688171 0.1756170854557552
0.44840983276870405 0.4320316395092144 0.0033469113849647664 0.013031281874524871
0.2880492368231999 0.33866515296868177 -0.017660586201721052 -0.03295532994376065
2.9137851422528076 0.640751841714999 0.9701700685714821 1.3028632319663287
16.421281672822357 7.099724690602988 4.545441928724397 4.7761150534949515
12.480961226387612 5.678227172833186 3.188349168522873 3.6143848850315514
1.824185327074345 0.2752685028413726 0.6492779841753843 0.8996388400575898
0.17882896362263767 0.17819773813016498 0.00011054311543429228 0.0005206823770383771
0.33022034500390723 0.3314171875206765 -0.0005888196308967653 -0.0006080228858724899
0.7056120885541126 0.5849652462851781 0.032808846353026395 0.08783799591590816
1.748587229516074 0.908740932607555 0.3115374408637466 0.5283088560447731
3.9677558842107223 1.289563311523304 1.113856252348628 1.5643363203387892
7.918109317683625 1.7533663170749432 2.8586688653706003 3.3060741352380836
13.892152970998886 2.2913241485301463 5.785058700926526 5.815770121542211
22.08961978988273 2.893530053303331 10.115813497177232 9.080276239402162
32.50755202087069 3.555484290972202 15.91375566926784 13.038312060630652
45.061497222334964 4.2865230396973875 23.154288766225534 17.620685416412023
59.8481605599811 5.102458997445717 31.979705564752333 22.76599599778304
76.48039151261808 5.98276649716129 42.064642048990024 28.43298296646674
95.01935600833686 6.8560965259899085 53.63312014605619 34.530139336290716
114.83755402199893 7.626369348364356 66.29542997334441 40.915754700290144
135.0698008453237 8.150527993283172 79.56084998375621 47.35842286828433
154.38560058242814 8.256123390101264 92.64992930271366 53.47954788961326
170.95762375789403 7.809700814032413 104.3570638700992 58.79085907376239
182.68671548925144 7.039248611660756 113.02131823253265 62.62614864505797
186.97252443629705 5.567727832690335 117.0140279885445 64.3907686150623
182.6867154892389 7.039248611678015 113.02131823251231 62.6261486450485
170.95762375783147 7.809700814026635 104.35706387006037 58.79085907374448
154.3856005823515 8.256123390103571 92.64992930265944 53.47954788958842
135.0698008452451 8.150527993295274 79.56084998369478 47.35842286825504
114.83755402190164 7.626369348361936 66.2954299732809 40.91575470025883
95.01935600824379 6.8560965259886615 53.63312014599548 34.53013933625967
76.48039151252306 5.982766497156928 42.064642048931205 28.432982966434864
59.84816055989269 5.102458997440028 31.97970556469973 22.765995997752942
45.0614972222575 4.286523039694629 23.154288766179153 17.620685416383754
32.50755202080485 3.555484290966574 15.913755669231655 13.038312060606623
22.089619789830845 2.893530053299177 10.115813497149592 9.080276239382071
13.892152970963334 2.291324148526294 5.785058700909077 5.8157701215279625
7.918109317658689 1.7533663170708984 2.8586688653597965 3.3060741352279956
3.9677558841966665 1.2895633115209 1.113856252343293 1.5643363203324732
1.748587229509977 0.9087409326058926 0.31153744086188323 0.5283088560422016
0.705612088552359 0.5849652462839973 0.03280884635280895 0.08783799591555266
0.330220345003757 0.3314171875204314 -0.0005888196308819683 -0.0006080228857924263
0.17882896362261194 0.17819773813014525 0.00011054311543286094 0.0005206823770338882
1.8241853270686326 0.2752685028408439 0.6492779841729439 0.8996388400548436
12.480961226360419 5.678227172821109 3.188349168514977 3.6143848850243376
9.470372420526179 4.428680632843852 2.276041494774696 2.765650292907635
1.2337568586731822 0.12573725553796491 0.4408540755979692 0.6671655275372467
0.12486762145161198 0.12486762145161198 0.0 0.0
0.24549478008614084 0.24714638901942476 -0.0002629156517885425 -0.0013886932814953454
0.5266225581422022 0.4895982274466521 0.008034714319867495 0.028989616375682425
1.3018700283125744 0.7870600072150397 0.17383516839027915 0.34097485270725536
3.1442629338749395 1.164880385479284 0.8015360946356521 1.1778464537600029
6.478002435932397 1.5828915401721888 2.2053665992912155 2.6897442964689926
11.643754374948417 2.05602453337206 4.678500648512436 4.909229193063922
18.739857087256727 2.5711347964862705 8.364997669111796 7.80372462165866
27.712601344804973 3.1302883687864025 13.280782973993016 11.301530002025563
38.56571522876391 3.757211354928527 19.47677706484511 15.331726808990254
51.14523245741362 4.462059990597781 26.83479763459534 19.848374832220497
65.63867141486593 5.237070358499839 35.59027065277955 24.81133040358653
81.59381809684142 6.0492371523917 45.371723232070295 30.172857712379436
98.73203355239288 6.813548256616911 56.101296936019196 35.817188359756756
116.50886267429377 7.401692230006534 67.56506423540947 41.5421062088778
133.60492702306533 7.630036781917377 78.9286929360935 47.04619730505435
148.38718238335107 7.368221061538396 89.14795188647938 51.87100943533328
159.0081788560182 6.7498684427415405 96.83220637071095 55.42610404256579
162.9026822230137 4.9930135665114195 100.73008291025738 57.179585746244896
159.00817885599372 6.74986844274516 96.83220637069138 55.42610404255719
148.3871823833037 7.368221061536427 89.14795188644835 51.871009435318925
133.6049270229936 7.630036781910091 78.92869293604984 47.04619730503368
116.50886267422379 7.401692230017809 67.5650642353551 41.54210620885089
98.73203355230625 6.813548256610429 56.10129693596603 35.81718835972982
81.59381809676088 6.049237152393365 45.37172323201692 30.172857712350538
65.63867141478939 5.237070358500466 35.59027065273014 24.811330403558795
51.145232457341784 4.462059990597612 26.834797634550252 19.848374832193905
38.56571522869579 3.7572113549235002 19.476777064806605 15.331726808965687
27.7126013447508 3.13028836878557 13.280782973961397 11.301530002003851
18.73985708721287 2.5711347964841176 8.36499766908801 7.803724621640729
11.643754374917302 2.0560245333689413 4.6785006484972875 4.909229193051079
6.478002435912867 1.5828915401700212 2.20536659928264 2.6897442964602027
3.144262933863672 1.1648803854774064 0.8015360946312751 1.1778464537549906
1.3018700283075992 0.7870600072135348 0.173835168388886 0.3409748527051788
0.5266225581410778 0.4895982274457657 0.008034714319767416 0.028989616375544425
0.24549478008602307 0.24714638901931643 -0.0002629156517892983 -0.0013886932815040224
0.1248676214515441 0.1248676214515441 0.0 0.0
1.2337568586688359 0.12573725553786883 0.4408540755959969 0.667165527534971
9.470372420502867 4.428680632833506 2.2760414947682968 2.7656502929010682
7.085290154264606 3.42992944477945 1.5738644597155822 2.0814962497695793
0.9037552887095911 0.11663372756705456 0.3168843200278475 0.470237241114688
0.1136303196936117 0.1136303196936117 0.0 0.0
0.19638937670441048 0.19644248637599318 -1.2394720465969246e-06 -5.1870199536141336e-05
0.3935091068761771 0.3952029504488648 -0.0023968280901938755 0.0007029845175065499
0.9485052406603641 0.6755638571255733 0.08338857651803847 0.18955280701675192
2.391264648271224 1.020140096876218 0.5400855326674041 0.831039018727602
5.121070673435334 1.4117204286723006 1.6135332692354762 2.095816975527558
9.474792354047104 1.82317562684994 3.6368628195808412 4.014753907616322
15.479341099741406 2.260306505800083 6.685396823984369 6.533637769956955
23.079050974945062 2.731299405415973 10.779690246402652 9.568061323126425
32.20812259106279 3.2596206657214815 15.902308606540185 13.04619331880113
42.874253140194966 3.8682645636712234 22.07577187738808 16.93021669913565
54.899642064922006 4.553194496710431 29.144796372128745 21.201651196082814
68.44855358652107 5.2853233376341695 37.34496791644658 25.818262332440334
83.14864755986797 6.032837071548632 46.41106396523688 30.70474652308247
98.36633435539635 6.6881077934420885 55.95863022747847 35.71959633447579
113.31278538222912 7.068171723368229 65.64973572524755 40.594877933613354
126.5082463047151 7.001124083573263 74.56013980523369 44.946982415908195
136.31865093399273 6.515914186496637 81.5261850448002 48.276551702695826
139.99735365201366 4.453829780608467 85.42689844670866 50.11662542469655
136.31865093397505 6.515914186501646 81.5261850447849 48.276551702688494
126.50824630468466 7.001124083583703 74.56013980520626 44.94698241589474
113.3127853821723 7.068171723363436 65.64973572521295 40.594877933595896
98.36633435531667 6.688107793426824 55.958630227435656 35.71959633445421
83.14864755980382 6.032837071553284 46.411063965191936 30.704746523058578
68.44855358644878 5.285323337631516 37.34496791640178 25.818262332415546
54.899642064851264 4.553194496702897 29.144796372088724 21.201651196059633
42.87425314012699 3.86826456366348 22.07577187735087 16.930216699112624
32.208122591007246 3.259620665717482 15.902308606509198 13.046193318780562
23.07905097489692 2.7312994054127144 10.779690246376532 9.568061323107676
15.479341099702621 2.260306505794993 6.685396823965493 6.533637769942138
9.474792354022004 1.8231756268505632 3.6368628195673227 4.01475390760412
5.12107067341901 1.411720428671049 1.6135332692281223 2.0958169755198393
2.391264648262093 1.0201400968747778 0.5400855326639562 0.8310390187233596
0.9485052406568932 0.6755638571241103 0.08338857651728394 0.18955280701549904
0.3935091068754406 0.3952029504480693 -0.002396828090195088 0.000702984517566416
0.19638937670399365 0.19644248637561484 -1.239472049455452e-06 -5.1870199571727514e-05
0.11363031969346489 0.11363031969346489 0.0 0.0
0.9037552887056792 0.11663372756670055 0.31688432002617906 0.4702372411128011
7.085290154246961 3.429929444772576 1.5738644597104468 2.081496249763935
5.20524826254475 2.6333491857998066 1.0613473043688648 1.5105517723760784
0.6416910329290944 0.1442188947823141 0.18049278148931727 0.3169793566574632
0.12849532453742776 0.12849532453742776 0.0 0.0
0.17437245937624835 0.17433246113666256 3.4895995905948937e-06 3.650863999515618e-05
0.3086853877451235 0.31870534687096674 -0.002638072239420264 -0.007381886886422953
0.6721012507325643 0.5586760099395665 0.026486129646452125 0.08693911114654596
1.7011599045919206 0.8614082038138028 0.2960928130741945 0.5436588877039228
3.9109196750833997 1.2304382242177212 1.1455704950994599 1.5349109557662195
7.3814801884709835 1.5925186787132162 2.6510173510708257 3.137944158686946
12.35025517004784 1.9620856383376333 5.11307530398015 5.2750942277300545
18.5916794080109 2.3541055672783284 8.39565904831527 7.8419147924173025
26.051888433296526 2.797761150494969 12.48652911017912 10.76759817262245
34.71901692867465 3.3162721880963355 17.382939516005123 14.019805224573194
44.6499536768397 3.9152987581346705 23.140172979696047 17.594481939008993
55.710908803643285 4.585431610228889 29.652750639160313 21.472726554254074
67.76985064758114 5.286861618671526 36.88404320308153 25.598945825828135
80.71780978219348 5.98250449070043 44.86948073197021 29.865824559522824
93.54337592327015 6.536128412753348 52.89191149355865 34.11533601695818
105.20302061062507 6.689049768653706 60.47672039836547 38.03725044360587
114.40618301958433 6.337910102360242 66.8718370756732 41.19643584155089
118.01992031996129 3.956539418096232 70.89670108459802 43.166679817267095
114.40618301957416 6.337910102368548 66.87183707566086 41.19643584154471
105.20302061059544 6.689049768659716 60.47672039834187 38.03725044359392
93.54337592323448 6.536128412760973 52.89191149352983 34.115336016943644
80.7178097821414 5.982504490697223 44.86948073193825 29.86582455950588
67.76985064752198 5.286861618670936 36.884043203044016 25.598945825807064
55.71090880358565 4.58543161022667 29.652750639125127 21.472726554233834
44.64995367678605 3.915298758130764 23.140172979665262 17.594481938990004
34.71901692862038 3.3162721880878374 17.382939515977355 14.019805224555206
26.05188843324995 2.7977611504912505 12.486529110153839 10.76759817260486
18.591679407972975 2.3541055672774482 8.395659048294144 7.841914792401386
12.35025517001755 1.9620856383335032 5.113075303965931 5.2750942277181165
7.381480188448468 1.5925186787126178 2.6510173510596395 3.137944158676211
3.910919675069902 1.230438224216135 1.1455704950937267 1.5349109557600402
1.7011599045848984 0.8614082038117763 0.2960928130720984 0.5436588877010234
0.6721012507302757 0.5586760099383028 0.026486129646104882 0.08693911114586793
0.30868538774465604 0.31870534687030816 -0.0026380722393839497 -0.007381886886268173
0.17437245937583717 0.1743324611362517 3.489599590432072e-06 3.6508639995024895e-05
0.12849532453727824 0.12849532453727824 0.0 0.0
0.6416910329260441 0.14421889478202832 0.18049278148807701 0.31697935665593874
5.20524826253119 2.6333491857943137 1.0613473043651962 1.5105517723716821
3.693441295187346 1.991556216234879 0.6576205163380577 1.0442645626144094
0.4779723319077544 0.1880448296532436 0.09800029412138134 0.19192720813312947
0.15458852638054973 0.15459872423278884 -5.595583971474408e-07 -9.638293841952227e-06
0.170779534453757 0.1707652484376399 9.176681420014073e-07 1.3368347975063384e-05
0.25908053503789963 0.26492322838087845 -0.0012300459003347604 -0.0046126474426441124
0.4809449920881268 0.45829657257663214 0.0009619846701567859 0.021686434841338097
1.166232011570974 0.712639746558438 0.1445988853427017 0.3089933796698339
2.732464186316188 1.0254916105145475 0.6662914405370829 1.0406811352645575
5.529307860841463 1.3637445812613935 1.8711433712441257 2.294419908335944
9.33188992906853 1.6722108087675012 3.627795711224932 4.031883409076096
14.290896489565743 1.998157718711645 6.164230593512538 6.128508177341559
20.15452010500222 2.3673931226162734 9.287434738891786 8.499692243494163
26.928472496135775 2.805375895507834 13.00140272608348 11.121693874544466
34.67613154718483 3.326759205846614 17.349438745070128 13.999933596268097
43.39232420933093 3.9259034000196875 22.32886617540088 17.137554633910355
53.123907826422204 4.58609569437115 28.03968200820149 20.498130123849553
63.32369425718474 5.288495801786476 34.01276561193668 24.022432843461612
74.14378149236728 5.9841178158934625 40.567657639050964 27.592006037422838
84.57492021822105 6.399345407614055 47.10628146648993 31.069293344117074
93.23304870693362 6.225765078152131 52.893997147756245 34.113286481025256
96.95052367414404 3.515771667275273 57.14718727212755 36.287564734741146
93.23304870692559 6.225765078159015 52.89399714774637 34.113286481020204
84.57492021819523 6.399345407614596 47.10628146647263 31.06929334410804
74.14378149232701 5.984117815888667 40.56765763902801 27.592006037410336
63.32369425714669 5.288495801789912 34.01276561191019 24.02243284344661
53.123907826373866 4.586095694369143 28.0396820081722 20.49813012383253
43.392324209285185 3.9259034000163404 22.328866175374692 17.137554633894165
34.6761315471445 3.3267592058450264 17.34943874504661 13.999933596252875
26.928472496096074 2.805375895502041 13.0014027260634 11.12169387453064
20.15452010496624 2.36739312261514 9.287434738871685 8.499692243479416
14.29089648953398 1.9981577187099246 6.164230593495887 6.1285081773281656
9.331889929045444 1.6722108087658307 3.627795711213584 4.031883409066027
5.529307860825033 1.3637445812615492 1.8711433712357355 2.2944199083277486
2.7324641863074994 1.0254916105145095 0.6662914405331685 1.040681135259821
1.1662320115664897 0.7126397465571892 0.1445988853414176 0.3089933796678825
0.4809449920868002 0.4582965725758401 0.0009619846700088046 0.02168643484095192
0.2590805350373243 0.26492322838024884 -0.0012300459003184803 -0.004612647442606129
0.17077953445337307 0.17076524843726137 9.176681415783688e-07 1.336834797013782e-05
0.15458852638039017 0.1545987242326169 -5.595583963068968e-07 -9.638293830423766e-06
0.4779723319056587 0.18804482965303665 0.09800029412056935 0.1919272081320524
3.6934412951769735 1.9915562162304694 0.6576205163355088 1.0442645626109968
2.5896834812150855 1.5170802128115772 0.4168224477503901 0.6557808206531185
0.3494479118540902 0.21632010825132256 0.03353529944389277 0.09959250415887486
0.18177323428349995 0.18158925932714515 1.850679997533203e-05 0.0001654681563794616
0.1786672261824597 0.1786207450818187 3.8335600276326785e-06 4.2647540613383134e-05
0.23297352731325535 0.23692203407346182 -0.0007390158702317782 -0.0032094908899745556
0.36478783836717243 0.3733984508975773 -0.00511081250523359 -0.0034998000251714218
0.754630943411603 0.567154963393502 0.047454196758604336 0.14002178325949635
1.7730507773156283 0.820978121780058 0.33548350836907853 0.616589147166492
3.6967218969274347 1.1074136457612929 1.0712852007001217 1.5180230504660206
6.606564285304972 1.3856512727294492 2.3969113923386867 2.824001620236837
10.20599122015676 1.6543867052012287 4.118777758525718 4.432826756429819
14.523543728878181 1.9609298647487072 6.311890774777893 6.250723089351579
19.511190698151413 2.3274516135092287 8.939308328992947 8.24443075564924
25.197054832365666 2.772222965164783 11.995698249073259 10.429133618127624
31.700384090365926 3.3102059035434417 15.567544028946047 12.822634157876447
38.925046122289885 3.921535143972149 19.582828971905055 15.42068200641269
46.89328421789437 4.59050829372473 24.131592811467282 18.17118311270234
55.37800403881663 5.374605946239276 28.945433607884485 21.057964484692885
64.22117077198573 6.081610692287478 34.09228179862137 24.047278281076885
72.5537765020097 6.183414158274797 39.40386103427535 26.966501309459552
76.59162587390576 3.147451430339719 44.010581239161944 29.433593204404104
72.553776501994 6.183414158266134 39.40386103427062 26.966501309457225
64.22117077197487 6.081610692294995 34.09228179860966 24.047278281070223
55.37800403878675 5.374605946233523 28.945433607869276 21.057964484683964
46.89328421786169 4.590508293725279 24.131592811446595 18.171183112689818
38.92504612224543 3.921535143960629 19.58282897188484 15.42068200639994
31.70038409033323 3.3102059035415015 15.567544028927529 12.82263415786422
25.19705483233384 2.7722229651589174 11.995698249057963 10.429133618116957
19.51119069812977 2.327451613513745 8.939308328977889 8.244430755638113
14.523543728849656 1.9609298647449478 6.311890774764136 6.250723089340573
10.205991220130647 1.6543867051955383 4.118777758514796 4.432826756420312
6.606564285288876 1.3856512727296246 2.396911392330311 2.824001620228942
3.6967218969153657 1.107413645759812 1.0712852006950715 1.518023050460481
1.7730507773086148 0.8209781217790856 0.33548350836653645 0.6165891471629928
0.7546309434086027 0.5671549633925824 0.0474541967579057 0.1400217832581148
0.3647878383662821 0.37339845089665225 -0.005110812505238834 -0.0034998000251315244
0.23297352731264226 0.2369220340728257 -0.0007390158702208753 -0.003209490889962503
0.17866722618213268 0.17862074508146825 3.833560028574862e-06 4.264754063587683e-05
0.18177323428340658 0.18158925932694198 1.8506799983641514e-05 0.00016546815648095552
0.34944791185263147 0.21632010825112807 0.03353529944342273 0.09959250415808064
2.58968348120748 1.517080212808505 0.41682244774839755 0.6557808206505775
1.692027552731669 1.1233757497439427 0.1931477975809196 0.37550400540680623
0.2702405133768048 0.2315928646112223 0.005524416115623878 0.033123232649958555
0.20446318232763355 0.20457127126646343 -1.262460790678086e-05 -9.546433092307966e-05
0.19288486558338236 0.19315411444468317 -2.8276467660616258e-05 -0.0002409723936402029
0.22168256473679118 0.2245433230546395 -0.0005978750511950831 -0.00226288326665314
0.30418989628943716 0.3122933662005931 -0.0035873986866866896 -0.00451607122446936
0.493695500483023 0.44668917099943295 0.005586381363322349 0.04141994812026773
1.029303959403982 0.6239719212614002 0.12476641346296728 0.2805656246796148
2.166460234474909 0.8400856800411809 0.4951973379304395 0.8311772165032875
3.9993850424673036 1.0675962677786355 1.2408030199324647 1.690985754756204
6.37546449262501 1.2943342578808932 2.291803124220501 2.7893271105236197
9.249470555829763 1.5508962189027926 3.657870578014982 4.040703758911987
12.548544826607475 1.856997110130899 5.278791479887569 5.412756236589007
16.311668802347665 2.228928215079723 7.169096749648495 6.91364383761945
20.656504454315456 2.6947219027800724 9.393162037014852 8.568620514520516
25.658666251182154 3.2643627119112 11.994536176510447 10.399767362760517
31.257646318622577 3.900863140748547 14.957624385833562 12.399158792040462
37.38680214144256 4.620399718979866 18.21888376558026 14.547518656882428
44.580440212317185 5.588545211229538 22.036880972994023 16.955014028093622
52.61948044404995 6.219140535556119 26.68936230693665 19.710977601557154
57.18311460558678 2.9093682233501066 31.608592059748474 22.6651543224882
52.61948044407237 6.219140535583001 26.689362306933873 19.71097760155551
44.580440212291315 5.58854521121264 22.036880972988424 16.955014028090233
37.3868021414195 4.620399718971538 18.21888376557121 14.547518656876743
31.257646318587817 3.9008631407355505 14.957624385820464 12.399158792031807
25.65866625116985 3.264362711922015 11.994536176496801 10.399767362751042
20.656504454295273 2.694721902779783 9.393162037003362 8.568620514512125
16.311668802331692 2.228928215078364 7.1690967496402225 6.913643837613107
12.548544826586161 1.8569971101275298 5.278791479877757 5.412756236580876
9.249470555816274 1.5508962189058204 3.657870578006175 4.0407037589042805
6.375464492611014 1.2943342578789998 2.2918031242144172 2.789327110517596
3.9993850424558492 1.0675962677772228 1.2408030199275786 1.6909857547510487
2.166460234468378 0.8400856800400281 0.4951973379280746 0.8311772165002757
1.0293039593998992 0.6239719212602486 0.1247664134618571 0.2805656246777936
0.4936955004816475 0.4466891709986167 0.005586381363118365 0.0414199481199126
0.30418989628861715 0.3122933661995302 -0.003587398686656078 -0.004516071224257015
0.2216825647364917 0.22454332305406965 -0.0005978750511642574 -0.0022628832664137325
0.19288486558322213 0.19315411444448455 -2.827646765323582e-05 -0.00024097239360913053
0.20446318232720254 0.2045712712659507 -1.2624607904088001e-05 -9.546433084405032e-05
0.2702405133760768 0.23159286461110704 0.005524416115404067 0.033123232649565605
1.6920275527263113 1.1233757497414547 0.19314779757974268 0.37550400540511447
1.0801164736381077 0.8398052966541408 0.07281689777537584 0.16749427920859158
0.2191852387878015 0.2273622200302111 -0.0049031050574959816 -0.003273876184913623
0.22048738066360288 0.21991179303139904 7.517338056801298e-05 0.0005004142516358743
0.2095529855560343 0.20921960012995316 3.51925122727435e-05 0.00029819291380820366
0.22273606049687397 0.22480091717927655 -0.0005207330588694078 -0.001544123623533201
0.2777066853536732 0.28233742891465036 -0.002053866910038368 -0.0025768766509386347
0.3715739150928242 0.3551363050773778 0.001064783611833616 0.015372826403612603
0.5464598185740024 0.4353638145144911 0.02549034096995954 0.08560566308955166
0.9723823930990684 0.5530871658689998 0.12984048069610962 0.28945474653395864
1.7949465962479978 0.6959646795792366 0.40122828098879093 0.6977536356799713
3.0318244716558023 0.8575463851257301 0.8919922187064449 1.2822858678236269
4.5158255020776705 1.043462882021456 1.4970739339728658 1.9752886860833512
6.2840083686355435 1.2738959273461978 2.2648422939284356 2.74527014736091
8.347963057289977 1.5660276435410618 3.1851539106448814 3.596781503104039
10.770757280633159 1.9431040205382093 4.275598295764056 4.552054964330886
13.686145134620725 2.439744543092394 5.595403792059336 5.650996799468992
17.203580805567565 3.053725650515184 7.220196342003909 6.929658813048473
21.25347971920716 3.681656071262003 9.191092987672342 8.380730660272816
26.13161707023408 4.503337177616076 11.555331532962096 10.072948359655902
33.331961116396194 5.992753986617307 14.932567189083258 12.406639940695637
39.67449704938752 2.973841451718919 20.625933823547662 16.074721774120924
33.33196111637814 5.992753986600426 14.932567189082553 12.406639940695154
26.131617070241052 4.50333717762453 11.555331532961201 10.072948359655314
21.253479719205526 3.6816560712708686 9.191092987666291 8.380730660268364
17.203580805547116 3.0537256505056485 7.220196341997634 6.929658813043827
13.686145134593694 2.439744543078833 5.595403792051861 5.650996799463001
10.770757280621796 1.9431040205367738 4.2755982957587655 4.552054964326256
8.347963057280136 1.566027643537773 3.18515391064136 3.596781503101001
6.284008368629102 1.2738959273473491 2.264842293924574 2.745270147357176
4.515825502065127 1.0434628820179024 1.4970739339684178 1.9752886860788075
3.031824471648754 0.8575463851260311 0.8919922187030211 1.2822858678197024
1.794946596243186 0.6959646795781327 0.40122828098718577 0.6977536356778685
0.9723823930971935 0.5530871658688599 0.12984048069547624 0.289454746532857
0.5464598185726157 0.43536381451405143 0.025490340969635324 0.08560566308892942
0.37157391509228244 0.35513630507685523 0.0010647836118179415 0.01537282640360912
0.2777066853528333 0.2823374289135836 -0.0020538669100347027 -0.0025768766507154764
0.22273606049636313 0.22480091717857992 -0.0005207330588405372 -0.00154412362337624
0.20955298555588328 0.20921960012964583 3.5192512286725564e-05 0.000298192913950657
0.22048738066322487 0.21991179303087183 7.517338058333249e-05 0.0005004142517697234
0.21918523878726007 0.22736222002985523 -0.004903105057534865 -0.0032738761850602087
1.0801164736350402 0.8398052966527041 0.07281689777477017 0.1674942792075654
0.6710394147181061 0.6142382844371062 0.012020876752921355 0.04478025352807887
0.19456748311247435 0.2036881939075425 -0.002059433422686343 -0.007061277372381822
0.2298445943411923 0.23049429318533823 -7.653114684592122e-05 -0.0005731676973000926
0.22591496389968097 0.22529622810099964 7.458749799720833e-05 0.000544148300684095
0.23399323311033698 0.23471591381068904 -0.00034518885704619043 -0.0003774918433058887
0.27456027867460814 0.2762624252300623 -0.0013840119994390204 -0.00031813455601491556
0.34285144523287653 0.3220253868764339 0.0034715884650371336 0.01735446989140569
0.3984340462208284 0.32151222222540377 0.019273476071239786 0.05764834792418486
0.45209703466750806 0.27789914867222043 0.05629051939756207 0.11790736659772542
0.597822232922327 0.2611205129227515 0.11866587980880744 0.21803584019076797
0.9405494046029879 0.30099130964725396 0.2538951391663905 0.38566295578934345
1.4589332478123547 0.3083644072464601 0.46117222608739294 0.6893966144785014
2.151506708842818 0.31641642834486605 0.770019890011953 1.0650703904859995
3.0005545537476133 0.35303943346547473 1.1562300543532782 1.4912850659288617
4.0272039942678255 0.4393157235084523 1.6214140710336868 1.9664741997256867
5.233023936275555 0.5968264711447702 2.151494313516786 2.484703151614001
6.667628795527526 0.8504157116910258 2.778174954750004 3.039038129086495
8.302821249488142 1.1763120761528294 3.502203492453256 3.624305680882053
10.56840409655024 1.6875864575244912 4.4782219577504305 4.4025956812753195
16.59086435699549 3.7102371994302143 6.497110602355927 6.383516555209347
27.756598036503263 3.2492118767425726 13.129534479515145 11.377851680245552
16.590864356998253 3.7102371994267456 6.497110602359515 6.3835165552119975
10.568404096529996 1.6875864575080728 4.4782219577483815 4.402595681273543
8.302821249472611 1.1763120761465138 3.5022034924482877 3.62430568087781
6.667628795528287 0.8504157116984833 2.7781749547463175 3.03903812908348
5.233023936268023 0.5968264711435363 2.151494313513643 2.4847031516108453
4.027203994263843 0.439315723508959 1.621414071031363 1.9664741997235198
3.0005545537479836 0.3530394334686245 1.1562300543518618 1.4912850659274977
2.1515067088338515 0.3164164283423695 0.7700198900088858 1.0650703904825967
1.4589332478111516 0.30836440724869285 0.46117222608569214 0.6893966144767668
0.9405494045983431 0.3009913096455479 0.2538951391650094 0.3856629557877853
0.597822232921447 0.2611205129227158 0.11866587980844652 0.21803584019028524
0.45209703466698264 0.27789914867186355 0.05629051939749524 0.11790736659762371
0.39843404622037226 0.32151222222575815 0.019273476070963812 0.057648347923650436
0.3428514452323824 0.3220253868758712 0.0034715884650117954 0.017354469891499538
0.27456027867384264 0.27626242522939276 -0.0013840119994653248 -0.00031813455608487593
0.23399323311020453 0.23471591381031226 -0.000345188857013154 -0.00037749184309459846
0.2259149638993076 0.22529622810049135 7.458749801096775e-05 0.0005441483008051906
0.22984459434084553 0.23049429318484532 -7.653114682425679e-05 -0.0005731676971755105
0.19456748311230088 0.20368819390711915 -0.0020594334226401107 -0.0070612773721781905
0.6710394147164661 0.6142382844360104 0.012020876752730182 0.04478025352772576
0.42860300818180175 0.4284821384513512 -0.00014293321429105325 0.00026380294474170386
0.18175106492912294 0.18209548018373686 -1.8150019749647932e-05 -0.00032626523486433497
0.23291316163624576 0.2326194865729664 8.320579245548204e-06 0.00028535448403394414
0.23974173194761766 0.23895764475778772 8.922292716297413e-05 0.0006948642626669763
0.25154248390422135 0.25091807097862034 -0.0001584295166105252 0.0007828424422116355
0.29574757999070705 0.29464058566873463 -0.001067770422245522 0.0021747647442179044
0.3843121776112151 0.3626621965070631 0.0032121662561878893 0.018437814847964477
0.5538592778600994 0.43756778163860627 0.027536151201007733 0.08875534502048525
0.9747329313128754 0.5530123699963575 0.13079806323776816 0.29092249807875
1.794158242250292 0.6955967495232378 0.400972779058913 0.6975887136681407
3.0369305855558655 0.8595348311831804 0.8939041963164829 1.2834915580562036
4.539574368182162 1.0473958756879773 1.508233681348837 1.9839448111453484
6.331193775345133 1.2799442479763485 2.2857918653745934 2.7654576619941893
8.385482859693315 1.564560673534121 3.2067796223349756 3.6141425638242173
10.626378257315633 1.9017925791141488 4.222790705930371 4.5017949722711075
12.924499327978662 2.292262750400357 5.266971998505142 5.36526457907316
14.989148267289142 2.715411938684133 6.183717636295287 6.090018692309723
16.63257663016343 3.216431674044901 6.872799400014433 6.543345556104101
17.203451825896924 3.569037465866174 7.042023757215579 6.592390602815172
13.99055845557081 2.5352844607914666 6.0461413822043895 5.409132612574939
28.11573161527155 4.99996290599849 12.161770925543953 10.953997783729085
13.990558455580157 2.535284460795105 6.046141382207599 5.409132612577444
17.203451825915636 3.5690374658867876 7.042023757214572 6.592390602814281
16.63257663014354 3.2164316740372523 6.872799400007433 6.54334555609884
14.989148267267565 2.7154119386777036 6.183717636286792 6.090018692303078
12.924499327963325 2.2922627504001136 5.266971998496871 5.365264579066329
10.626378257296562 1.9017925791073735 4.222790705923842 4.501794972265349
8.385482859678401 1.564560673529388 3.2067796223295777 3.6141425638194375
6.331193775329013 1.2799442479749419 2.2857918653670724 2.765457661986997
4.539574368167565 1.0473958756842294 1.5082336813435007 1.9839448111398355
3.0369305855461386 0.8595348311830876 0.8939041963119202 1.2834915580511297
1.7941582422420908 0.695596749521453 0.4009727790561286 0.6975887136645094
0.9747329313095614 0.5530123699955606 0.13079806323681192 0.29092249807718895
0.5538592778586454 0.4375677816382172 0.027536151200653308 0.0887553450197749
0.3843121776102264 0.36266219650638365 0.0032121662560737436 0.018437814847768554
0.29574757998985146 0.29464058566762735 -0.00106777042223335 0.0021747647444575018
0.2515424839038361 0.25091807097804036 -0.00015842951658670605 0.0007828424423824956
0.23974173194739806 0.2389576447573737 8.922292718204366e-05 0.0006948642628423418
0.232913161635951 0.23261948657258408 8.32057924793014e-06 0.0002853544841190497
0.18175106492924675 0.1820954801838842 -1.8150019754837134e-05 -0.0003262652348825541
0.4286030081808407 0.4284821384501193 -0.00014293321426356098 0.0002638029449850266
0.27671286084328167 0.2767864773704301 -5.074825948644306e-06 -6.854170119983136e-05
0.1677820968555882 0.16784312306129712 -3.996554194670588e-06 -5.702965151416507e-05
0.22958806856132066 0.23017386566862635 -8.859644967454627e-05 -0.0004972006576312044
0.2494483021268499 0.24841028352272548 8.500852705258967e-05 0.0009530100770718135
0.2735198006537066 0.2750752931064827 -0.0005132792902488114 -0.0010422131625272611
0.3400930742537879 0.3395989413172464 -0.0010922993159265468 0.001586432252467681
0.5136157241626792 0.4482214493066306 0.010167362548596801 0.05522691230745172
1.038993483513493 0.6248469181600872 0.12846499169729547 0.28568157365611135
2.1668733765822172 0.8397517760627694 0.49547950307169564 0.8316420974477527
3.998267597940029 1.0675937013803671 1.24011775964938 1.6905561369102817
6.3812565227019356 1.2954727612942056 2.2940555969523007 2.7917281644554244
9.27122393191524 1.5539250876098816 3.6677994044517344 4.0494994398536175
12.587739870956177 1.8596131189610774 5.299009635073264 5.429117116921842
16.325323254781214 2.2182864919503484 7.183330543141116 6.923706219689746
20.468081994514307 2.635300292811472 9.320307910283201 8.512473791419632
24.834045349645013 3.099963558433462 11.608996256550732 10.125085534660805
29.06711528910832 3.618098993022171 13.819142386431512 11.629873909654638
32.643752954463274 4.2120515605962305 15.58716156470498 12.844539829162047
34.38371298406389 4.494093224069773 16.486493617660393 13.403126142333733
31.982252522314653 4.393096099872274 15.202652945333679 12.386503477108704
39.44557441953927 9.353533225389642 16.551968659631658 13.54007253451795
31.98225252233167 4.393096099879004 15.202652945339963 12.386503477112695
34.38371298404299 4.494093224052249 16.486493617658283 13.403126142332463
32.643752954449056 4.212051560600688 15.587161564693668 12.844539829154698
29.067115289084946 3.6180989930236973 13.819142386416603 11.629873909644639
24.834045349622087 3.099963558436074 11.608996256535729 10.125085534650289
20.468081994486784 2.635300292809254 9.320307910268582 8.51247379140895
16.325323254758803 2.2182864919481324 7.183330543129777 6.923706219680891
12.587739870937192 1.8596131189637024 5.29900963506139 5.429117116912099
9.271223931888581 1.55392508760454 3.6677994044403572 4.049499439843683
6.381256522680863 1.295472761290895 2.294055596943274 2.7917281644466936
3.998267597928657 1.0675937013814822 1.24011775964334 1.6905561369038358
2.166873376574365 0.8397517760613106 0.49547950306888117 0.8316420974441727
1.0389934835095438 0.624846918158967 0.12846499169622844 0.2856815736543484
0.5136157241607535 0.44822144930561775 0.010167362548276607 0.05522691230685934
0.3400930742529793 0.33959894131627844 -0.0010922993159040335 0.0015864322526047622
0.27351980065331105 0.2750752931059536 -0.0005132792902248013 -0.00104221316241769
0.2494483021266289 0.2484102835223137 8.500852707048059e-05 0.0009530100772446714
0.22958806856110622 0.23017386566835046 -8.85964496706115e-05 -0.0004972006575736184
0.16778209685544856 0.16784312306118868 -3.996554196412467e-06 -5.7029651543715294e-05
0.2767128608427113 0.27678647736986683 -5.074825949206164e-06 -6.854170120644613e-05
0.17168596175274906 0.17168596175274906 0.0 0.0
0.14885200481899621 0.14885630905074676 -1.4328105404036436e-07 -4.160950696500454e-06
0.21945925841022995 0.2199207571676105 -6.340059626449702e-05 -0.0003980981611160835
0.2553590173652829 0.25605498751437905 -0.00016073804160266286 -0.0005352321074935358
0.29921647819772895 0.2998903804888524 -0.0004994341571871882 -0.00017446813393622078
0.4083075445971048 0.3920968360481749 -0.00025863228407142303 0.016469340833001656
0.7838189261064842 0.5743768442700358 0.057447222075609546 0.1519948597608387
1.7794154489239384 0.8212770637844429 0.3386862830787227 0.6194521020607738
3.694495623672039 1.1074316177361512 1.070163409215648 1.516900596720236
6.6070522406111465 1.3861044972978234 2.3971808786161546 2.8237668646971685
10.212202489751936 1.655188950862697 4.120395493276408 4.436618045612833
14.538774851252853 1.9621663881505835 6.319790190083376 6.256818273018897
19.52439034299569 2.326204402419598 8.947727487849054 8.25045845272703
25.161747843134535 2.7546171493056484 11.985495355663115 10.421635338165771
31.471472845241447 3.24298332211138 15.470667995089988 12.757821528040076
38.188559805504894 3.7742888327861923 19.22289957607242 15.191371396646282
45.01988388115359 4.340613372963413 23.123957862161667 17.55531264602851
50.76113221437944 4.784857437833443 26.41445633267974 19.561818443866265
53.63758729677493 4.9047700899828435 28.15291376898013 20.579903437811943
50.06841198009182 4.361725762008618 26.267303115995873 19.439383102087326
56.076856720736245 12.382312982962889 24.973030521484088 18.72151321628926
50.0684119800851 4.36172576199432 26.267303116000626 19.439383102090133
53.63758729676661 4.9047700899855675 28.15291376897315 20.579903437807904
50.761132214344286 4.784857437825242 26.41445633266278 19.561818443856286
45.01988388111526 4.340613372959403 23.12395786214033 17.55531264601553
38.188559805464884 3.774288832781454 19.222899576050786 15.19137139663264
31.471472845207433 3.2429833221135493 15.470667995068219 12.757821528025659
25.16174784309247 2.7546171492974856 11.985495355643085 10.421635338151898
19.52439034295703 2.3262044024119466 8.947727487831195 8.250458452713902
14.538774851222897 1.962166388151394 6.319790190066174 6.256818273005324
10.212202489722765 1.655188950861801 4.120395493261196 4.43661804559977
6.607052240588022 1.3861044972928995 2.397180878606778 2.823766864688343
3.694495623658271 1.1074316177337882 1.0701634092101988 1.5169005967142841
1.7794154489161782 0.8212770637819844 0.3386862830764917 0.6194521020577023
0.7838189261027253 0.5743768442689084 0.057447222074675564 0.15199485975914104
0.4083075445959301 0.39209683604716605 -0.0002586322841345401 0.01646934083289864
0.2992164781973138 0.2998903804880686 -0.0004994341571401611 -0.00017446813361458543
0.25535901736483557 0.2560549875137832 -0.0001607380415835672 -0.0005352321073640731
0.21945925840995162 0.21992075716736337 -6.34005962686103e-05 -0.00039809816114319096
0.14885200481859673 0.14885630905033728 -1.432810533475878e-07 -4.1609506871892085e-06
0.1716859617524258 0.1716859617524258 0.0 0.0
0.10069016691295553 0.10069016691295553 0.0 0.0
0.12527381536591747 0.12526958929219006 2.3276924337965782e-07 3.99330448403657e-06
0.20346402394658067 0.2037087875845115 -3.0280504299827288e-05 -0.0002144831336309589
0.2577683764569332 0.2581930244007149 -0.00015341473041705772 -0.0002712332133645608
0.3286313722517252 0.3320079828611545 -0.001358863782485671 -0.0020177468269435375
0.5291398009823142 0.4753318727703945 0.010956275865594042 0.04285165234632554
1.183842866399693 0.7094300811839537 0.15164934399566943 0.32276344122006917
2.733202925335845 1.0260314133070467 0.6668561947603293 1.04031531726847
5.526439468652773 1.3644053628617467 1.869321780929248 2.292712324861779
9.33420756990581 1.6728991414538101 3.628463696677498 4.032844731774508
14.298342588055522 1.9980635554605337 6.1686979471901 6.13158108540489
20.155252333659377 2.3646229403482546 9.28952297963941 8.501106413671708
26.89775146770255 2.796319974416361 12.988713735089622 11.112717758196597
34.574599689304975 3.3040077025780077 17.30184680630081 13.968745180426131
43.158150323373384 3.8771568637111073 22.21413467000324 17.066858789659044
52.583686051497565 4.486540634608331 27.761829205928567 20.335316210960684
61.8059009612337 5.0115449433050205 33.220605845625315 23.57375017230336
69.78273059088035 5.26343703463991 38.21790303772595 26.30139051851447
73.50305864825185 4.963206351750957 40.84893060954329 27.690921686957594
68.95894148244051 4.44097151930419 38.24770446468642 26.270265498449916
74.76212437882555 15.372751544706912 34.8996346301207 24.489738203997902
68.95894148243391 4.440971519297279 38.24770446468669 26.270265498449955
73.50305864824186 4.96320635175778 40.84893060953236 27.690921686951718
69.78273059085113 5.263437034646613 38.217903037702726 26.30139051850177
61.80590096117988 5.011544943298387 33.220605845595216 23.573750172286253
52.58368605144057 4.486540634600113 27.761829205897836 20.335316210942633
43.15815032332459 3.877156863707506 22.2141346699753 17.066858789641767
34.57459968925869 3.3040077025791352 17.30184680627205 13.968745180407492
26.89775146765583 2.7963199744140463 12.98871373506326 11.112717758178523
20.155252333616005 2.364622940344166 9.289522979616834 8.501106413655018
14.29834258802431 1.9980635554629018 6.168697947171521 6.13158108538989
9.334207569878066 1.6728991414522727 3.6284636966636277 4.032844731762166
5.526439468633882 1.3644053628597343 1.869321780920705 2.2927123248534444
2.733202925324769 1.0260314133043376 0.666856194756521 1.0403153172639097
1.1838428663942682 0.7094300811827672 0.15164934399399058 0.3227634412175099
0.5291398009805183 0.4753318727693308 0.010956275865376132 0.04285165234581136
0.3286313722510177 0.33200798286018507 -0.0013588637824381244 -0.0020177468267292115
0.2577683764564691 0.25819302440002756 -0.00015341473040044595 -0.0002712332131580171
0.2034640239462669 0.20370878758422262 -3.028050430236413e-05 -0.00021448313365333543
0.12527381536568186 0.12526958929195448 2.3276924336996675e-07 3.9933044839934034e-06
0.10069016691271501 0.10069016691271501 0.0 0.0
0.05552911185518999 0.05552911185518999 0.0 0.0
0.09960604394360645 0.09960604394360645 0.0 0.0
0.18296592937509126 0.18300567292481132 -4.742807380879466e-06 -3.500074233915573e-05
0.2576897774596712 0.2591216227877966 -0.00026331705138852625 -0.0011685282767370073
0.3669213556245166 0.3656402754847536 -0.0015220441875123203 0.002803124327275288
0.7114569397678515 0.5693789314193073 0.03827526311769641 0.10380274523084781
1.7137104118476767 0.8610383102292392 0.3027477955018856 0.5499243061165521
3.9082722399084338 1.2317766772630763 1.1438601689224597 1.532635393722897
7.3802735430543995 1.5936234023365672 2.6499676205321396 3.136682520185692
12.35496353948637 1.962702882442633 5.115250223141265 5.277010433902463
18.596057089498565 2.3524306651046873 8.399122859920048 7.844503564473837
26.031351793227003 2.7887721864622366 12.479743103507975 10.762836503256793
34.632552918944285 3.2955993315454952 17.343109918072596 13.993843669326193
44.476508696867334 3.8905962285216673 23.04797360760428 17.537938860741388
55.484401536964185 4.571856045333892 29.518041669088777 21.394503822541505
67.41763352293466 5.235494928095943 36.6902121499416 25.49192644489713
79.53254002547767 5.6862917755332125 44.28961122638846 29.556637023555997
89.35393891448105 5.6203357915420895 50.737614528459254 32.9959885944797
93.5660579424034 4.932277542997454 53.92788563354561 34.70589476586036
88.5496013545463 4.663896868787444 50.854657186131824 33.031047299627
95.14988600974269 18.378194526038612 46.19862549383349 30.573065989870596
88.54960135452939 4.6638968687758915 50.85465718612839 33.031047299625115
93.5660579423708 4.932277542989896 53.92788563352898 34.705894765851916
89.35393891443195 5.620335791538096 50.7376145284296 32.995988594464265
79.5325400254285 5.6862917755426 44.28961122635035 29.55663702353558
67.41763352287438 5.235494928097814 36.690212149901626 25.491926444874927
55.48440153689579 4.571856045323381 29.518041669052213 21.394503822520186
44.476508696809006 3.8905962285194664 23.047973607569503 17.537938860720057
34.63255291888769 3.2955993315451697 17.343109918038472 13.993843669304058
26.031351793174736 2.78877218645952 12.479743103478702 10.762836503236509
18.59605708945065 2.352430665098081 8.399122859896453 7.844503564456119
12.35496353945106 1.962702882440385 5.11525022312319 5.277010433887485
7.3802735430300475 1.593623402333634 2.6499676205212825 3.136682520175131
3.908272239892446 1.2317766772600738 1.1438601689161825 1.5326353937161885
1.7137104118403488 0.8610383102273068 0.30274779549963876 0.5499243061134043
0.7114569397647817 0.5693789314177811 0.03827526311714793 0.10380274522985265
0.36692135562380773 0.36564027548395234 -0.0015220441875114486 0.0028031243273670477
0.2576897774591582 0.2591216227872328 -0.0002633170513819973 -0.001168528276692611
0.18296592937477937 0.18300567292452075 -4.742807382777725e-06 -3.5000742358552096e-05
0.0996060439435051 0.0996060439435051 0.0 0.0
0.05552911185499041 0.05552911185499041 0.0 0.0
0.02870472428553964 0.02870472428553964 0.0 0.0
0.07485243452765641 0.07485243452765641 0.0 0.0
0.1604035667719842 0.1603967500083163 3.960330448053176e-07 6.420730623111643e-06
0.2575537444140822 0.2588364481530046 -0.00025070943157546726 -0.0010319943073469526
0.42811864779799913 0.4187159154296091 0.0006855991826268449 0.008717133185763027
0.9569392479642229 0.662238194194477 0.08620081946612651 0.20850023430361908
2.3957298810609036 1.0203991265594508 0.5433558294890231 0.8319749250124298
5.1182921157839285 1.4133093751249597 1.6112141184434157 2.093768622215553
9.47635161433718 1.8244219170029397 3.637268853882224 4.014660843452013
15.485569720004538 2.2605224457540927 6.688798788526429 6.536248485724014
23.077195930750978 2.7271325013788372 10.78105870115466 9.569004728217475
32.162525766137776 3.2435178863198995 15.88456350595922 13.03444437385865
42.733346071385775 3.835959446137238 22.00864316220212 16.88874346304641
54.65477972267974 4.524359843902344 29.008412885222736 21.122006993554688
68.18955887943324 5.295698610344576 37.171662504308834 25.722197764779807
82.88021795607128 6.0279226517401305 46.23838519634885 30.61391010798229
97.35550154626311 6.363266403291018 55.504007022115296 35.48822812085681
109.11836175660159 5.922650668585628 63.61210891102593 39.58360217699005
114.29343704538974 4.922810331706875 67.74597911793134 41.624647595751526
109.04731465169577 4.943115491635308 64.22918223192133 39.875016928139146
116.80769296631075 21.366605761308556 58.44211282066023 36.99897438434197
109.04731465167336 4.943115491625809 64.22918223191259 39.87501692813489
114.29343704534477 4.922810331700252 67.74597911790572 41.624647595738786
109.11836175655341 5.92265066859261 63.61210891098909 39.58360217697171
97.3555015462006 6.3632664032959045 55.504007022070645 35.488228120834044
82.88021795600055 6.027922651742161 46.23838519630128 30.6139101079571
68.18955887935036 5.295698610334589 37.17166250426191 25.722197764753858
54.65477972260797 4.524359843897244 29.00841288518058 21.12200699353013
42.73334607131846 3.8359594461360613 22.00864316216127 16.888743463021118
32.16252576607498 3.2435178863164786 15.884563505923495 13.034444373835
23.077195930701148 2.7271325013801633 10.781058701124863 9.569004728196123
15.485569719962447 2.2605224457499054 6.688798788505252 6.536248485707301
9.476351614308838 1.8244219169995382 3.6372688538691866 4.01466084344011
5.118292115766136 1.413309375124265 1.6112141184350088 2.0937686222068645
2.395729881050152 1.0203991265562335 0.5433558294856236 0.8319749250082932
0.9569392479604637 0.6622381941930178 0.08620081946525074 0.20850023430219541
0.4281186477970222 0.4187159154286654 0.0006855991826018933 0.00871713318575497
0.25755374441373047 0.2588364481525797 -0.00025070943157132057 -0.0010319943072778421
0.1604035667718471 0.16039675000818007 3.960330447626668e-07 6.4207306222634735e-06
0.0748524345275384 0.0748524345275384 0.0 0.0
0.02870472428544019 0.02870472428544019 0.0 0.0
0.01405999012324463 0.01405999012324463 0.0 0.0
0.053448251891965934 0.053448251891965934 0.0 0.0
0.13863698917026587 0.13863448684559412 1.22441077168008e-07 2.379883594554421e-06
0.2614925085923347 0.26326334424489756 -0.0003491418863919238 -0.0014216937661710133
0.5198459791877843 0.48041024820894873 0.008611237282822225 0.03082449369601347
1.2981837153844769 0.7826403543950274 0.17496749200040781 0.34057586898904196
3.142611934750717 1.1650944549519693 0.8007397755476909 1.1767777042510563
6.478643063798867 1.584134083621925 2.205323825040712 2.6891851551362294
11.648857328346757 2.057182328824295 4.680764135915872 4.910910863606596
18.74570293169547 2.570336499216232 8.368861283937395 7.8065051485418335
27.701027684098847 3.122906424961884 13.278327245567649 11.29979401356934
38.49520366652601 3.734948054004403 19.447235548065443 15.313020064456175
50.96188113701084 4.421737281467236 26.745000799080845 19.795143056462752
65.3253343852252 5.197098555701819 35.415001859652854 24.713233969870508
81.22239474363275 6.046371729801291 45.131315306213075 30.044707707618386
98.33053111249518 6.8118598000773725 55.83684776357931 35.68182354883853
115.3761604848905 7.052141415657027 67.04023562051255 41.28378344872094
129.17705263835606 6.271623475449368 76.85204913758064 46.053380025326035
135.6255286158274 4.956485499595592 82.09948872724965 48.56955438898217
130.75592770713936 5.215266942416524 78.64598771241555 46.8946730523073
140.2903751699601 24.294019262891627 72.20149373822701 43.79486216884145
130.75592770711222 5.215266942409702 78.64598771240178 46.89467305230079
135.6255286157855 4.956485499601928 82.09948872721694 48.569554388966594
129.1770526382856 6.27162347544476 76.85204913753593 46.053380025304875
115.37616048481128 7.052141415656822 67.04023562045968 41.28378344869479
98.33053111240606 6.811859800073319 55.8368477635229 35.68182354880977
81.22239474354788 6.046371729802831 45.13131530615669 30.044707707588376
65.32533438513676 5.197098555693157 35.415001859601745 24.713233969841863
50.961881136924205 4.421737281461077 26.745000799030304 19.795143056432806
38.49520366645457 3.7349480540013276 19.44723554802367 15.313020064429573
27.70102768403649 3.1229064249581895 13.278327245532871 11.299794013545444
18.745702931643244 2.570336499209866 8.368861283911201 7.806505148522173
11.648857328312028 2.0571823288191644 4.68076413589987 4.910910863592992
6.478643063776001 1.5841340836190287 2.205323825030917 2.6891851551260566
3.142611934738153 1.1650944549489692 0.8007397755432746 1.1767777042459098
1.2981837153793994 0.7826403543930822 0.174967491999139 0.3405758689871777
0.5198459791860838 0.4804102482077184 0.008611237282665492 0.030824493695699708
0.2614925085921772 0.2632633442445432 -0.00034914188637831176 -0.0014216937659874028
0.13863698917012657 0.13863448684545807 1.2244107697319608e-07 2.3798835915387224e-06
0.053448251891923884 0.053448251891923884 0.0 0.0
0.014059990123241963 0.014059990123241963 0.0 0.0
0.006790441628202991 0.006790441628202991 0.0 0.0
0.036924791812963924 0.036924791812963924 0.0 0.0
0.12087044511670617 0.12087044511670617 0.0 0.0
0.27640205164418263 0.2794808115080477 -0.0006781600352319165 -0.002400599828633138
0.6524155275221066 0.5525315084575229 0.025182821875424886 0.07470119718915909
1.7265343313019077 0.9039871769189907 0.3040992972748949 0.5184478571080224
3.9653180460730217 1.2898237238959833 1.1117637134066867 1.5637306087703504
7.92604158777492 1.7543254325308466 2.863783878294746 3.3079322769493302
13.900115712968258 2.2918660539846254 5.789131970802398 5.819117688181235
22.092974620064304 2.8911520345400175 10.119246995375487 9.082575590148796
32.48395168288314 3.5446267104117104 15.906118487402368 13.03320648506905
44.96913516131034 4.2600871401250915 23.113362213681924 17.59568580750334
59.63541940636663 5.0580203264965755 31.872632536489476 22.70476654338054
76.10593070611665 5.926952932806201 41.85790134582956 28.321076427480893
94.45593726400429 6.794016722693608 53.3023989428932 34.359521598417444
113.99005436952126 7.516939701883375 65.80180482140135 40.6713098462365
133.33347699829145 7.744686823848282 78.663792707697 46.924997466746184
149.38989610660064 6.810301363116793 90.21481390141449 52.364780842069365
157.61143093403714 5.005070182165481 97.11021637066895 55.49614438120271
153.95106054927214 5.420918334762761 94.3284746585411 54.20166755596821
165.8260179454081 27.047666100075755 87.62486526234284 51.153486582989494
153.95106054924386 5.420918334760032 94.32847465852336 54.20166755596039
157.6114309339766 5.005070182163682 97.1102163706288 55.496144381184166
149.3898961065247 6.810301363118291 90.2148139013617 52.36478084204476
133.33347699819336 7.744686823844475 78.66379270763305 46.924997466715865
113.99005436942707 7.516939701886132 65.80180482133648 40.67130984620445
94.45593726390854 6.7940167226944315 53.302398942829534 34.359521598384575
76.10593070601213 5.926952932797962 41.857901345767154 28.321076427447046
59.63541940628089 5.058020326502526 31.87263253643109 22.704766543347283
44.969135161223576 4.260087140118346 23.113362213632236 17.59568580747299
32.483951682813384 3.5446267104079388 15.9061184873627 13.033206485042744
22.092974620010896 2.891152034537629 10.119246995345955 9.082575590127306
13.90011571292903 2.2918660539815394 5.789131970782523 5.819117688164967
7.92604158774778 1.7543254325274955 2.863783878282526 3.3079322769377537
3.965318046057247 1.2898237238925938 1.1117637134011074 1.563730608763546
1.7265343312954498 0.9039871769173906 0.30409929727286117 0.518447857105198
0.6524155275198884 0.552531508456282 0.025182821875082223 0.07470119718852433
0.27640205164381954 0.27948081150751275 -0.0006781600352034304 -0.002400599828489977
0.12087044511628493 0.12087044511628493 0.0 0.0
0.036924791812856836 0.036924791812856836 0.0 0.0
0.006790441628204834 0.006790441628204834 0.0 0.0
0.0032235649826902906 0.0032235649826902906 0.0 0.0
0.02560751166585276 0.02560751166585276 0.0 0.0
0.11148864736718238 0.11148864736718238 0.0 0.0
0.3134481471912085 0.3147262044702948 -0.0008169280187128154 -0.00046112926037368204
0.8510083748279864 0.6477914855768132 0.06286819659391106 0.1403486926572621
2.21104640401547 1.0115801476788697 0.4573754898316875 0.7420907665049125
4.889225651184072 1.4149852649448431 1.5001332753911196 1.9741071108481085
9.427020667154837 1.9206087362531985 3.5633690183320694 3.9430429125695676
16.230076981621327 2.528267283549277 6.968057148463691 6.733752549608363
25.5127222550051 3.22429644753758 11.929273117031967 10.359152690435565
37.3430938817739 3.9880216721871826 18.587844632857642 14.767227576729063
51.71833277137784 4.826627912391821 27.013353935470253 19.878350923515754
68.312887479684 5.7444181236298615 36.943464332610475 25.62500502344368
87.25420605102863 6.6926562321116725 48.63433493721946 31.92721488169745
108.00876010839113 7.567504483965845 61.773628134336896 38.66762749008841
129.7325529862896 8.16442148517545 75.9490103255291 45.61912117558499
150.99900997637545 8.255043764522323 90.35233940685217 52.39162680500092
169.39018088264615 7.543842868112266 103.47919819723926 58.367139817294614
180.00553296300336 5.271839009517813 112.39136092794111 62.342333025544384
178.86548032295667 5.355589456306511 111.57045690290227 61.93943396374789
193.84947046533796 28.769072756991672 105.70765094562344 59.372746762722905
178.86548032291998 5.355589456299418 111.57045690288174 61.93943396373878
180.00553296294905 5.271839009530006 112.39136092789552 62.342333025523544
169.39018088254227 7.543842868101803 103.47919819717507 58.36713981726546
150.99900997627637 8.255043764533085 90.35233940677692 52.3916268049663
129.73255298616846 8.164421485165898 75.94901032545394 45.619121175548685
108.00876010827452 7.567504483957262 61.77362813426495 38.66762749005229
87.25420605092148 6.692656232116027 48.63433493714626 31.927214881659186
68.31288747957807 5.744418123624541 36.943464332545794 25.6250050234077
51.718332771280366 4.826627912385678 27.013353935412905 19.878350923481793
37.34309388169312 3.988021672180944 18.587844632812153 14.767227576700034
25.51272225493727 3.2242964475276237 11.92927311699794 10.359152690411705
16.230076981575856 2.528267283545739 6.968057148440208 6.7337525495899
9.427020667124449 1.9206087362496336 3.5633690183180042 3.9430429125568107
4.889225651166656 1.414985264942955 1.5001332753837178 1.9741071108399824
2.2110464040070426 1.0115801476778197 0.45737548982847626 0.7420907665007468
0.8510083748251377 0.6477914855755427 0.06286819659333945 0.14034869265625535
0.31344814719063513 0.31472620446957156 -0.000816928018690799 -0.0004611292602454578
0.11148864736695446 0.11148864736695446 0.0 0.0
0.025607511665839407 0.025607511665839407 0.0 0.0
0.003223564982658001 0.003223564982658001 0.0 0.0
0.0010242402229746943 0.0010242402229746943 0.0 0.0
0.01883354330857535 0.01883354330857535 0.0 0.0
0.11754726361676326 0.11754726361676326 0.0 0.0
0.39226624064715654 0.38016194747525006 0.0019940262632095074 0.010110266908697058
1.1342094393932964 0.7979498389874099 0.1149321707745986 0.22132742963128826
2.8212894686019987 1.2663343785855063 0.6157190942518148 0.9392359957646753
5.963154825388841 1.8295778150581998 1.8270336245966026 2.306543385734037
11.15342096165057 2.584797671220967 4.134029841749488 4.4345934486801175
18.873563850925585 3.5714608920081186 7.871246189650702 7.430856769266775
29.486334081806667 4.81229108106935 13.347599110109236 11.326443890628061
43.10149310404147 6.309714992377373 20.71380253725045 16.077975574413667
59.54206353836918 8.051958042137944 29.882381851959604 21.607723644271626
78.79498685681844 9.995571685534422 40.969945188142574 27.829469983141458
100.55101629042373 12.045935346941405 53.857765558165596 34.64731538531676
124.12127012294934 13.909774421862384 68.31069475197368 41.90080094911322
148.23712239723457 15.12824724762094 83.8007795414901 49.30809560812355
170.96466028174845 15.242408465017029 99.26928451723167 56.45296729949975
190.17061730345597 14.25749874745848 113.21033258214653 62.70278597385097
203.41582085201208 12.773660353205768 123.44530947788724 67.19685102091918
199.18607192054014 5.4974083008514585 125.51344292231992 68.17522069736867
273.9877027272936 84.47432693201478 122.71834249061516 66.7950333046637
199.1860719204751 5.497408300819549 125.51344292229656 68.17522069735892
203.41582085192036 12.773660353183693 123.4453094778382 67.19685102089841
190.17061730336346 14.257498747474981 113.21033258207171 62.70278597381692
170.96466028163533 15.242408465024418 99.26928451714916 56.45296729946181
148.23712239710926 15.128247247619626 83.80077954140518 49.30809560808433
124.12127012280146 13.909774421832697 68.31069475189466 41.90080094907414
100.55101629031435 12.045935346953854 53.857765558085156 34.64731538527539
78.79498685669854 9.995571685525348 40.96994518807067 27.829469983102562
59.54206353825448 8.051958042122797 29.882381851896547 21.60772364423512
43.101493103950084 6.309714992367692 20.713802537200092 16.077975574382318
29.486334081738768 4.812291081067364 13.347599110069988 11.326443890601412
18.87356385087643 3.571460892005377 7.871246189624358 7.430856769246711
11.153420961615382 2.5847976712152274 4.134029841733769 4.434593448666388
5.96315482536786 1.829577815054167 1.827033624588317 2.3065433857253774
2.821289468592465 1.2663343785841952 0.6157190942483246 0.9392359957599455
1.1342094393885622 0.7979498389846336 0.11493217077384645 0.22132742963008228
0.39226624064596705 0.38016194747420406 0.001994026263175211 0.010110266908587306
0.11754726361647774 0.11754726361647774 0.0 0.0
0.01883354330847182 0.01883354330847182 0.0 0.0
0.0010242402229848607 0.0010242402229848607 0.0 0.0
CELL_DATA 800
SCALARS Stress float 6
LOOKUP_TABLE default
169.108797917691 -521.6493205110597 -181.85895748053534 -110.25053802616215 0.0 0.0
403.3515547723653 -77.99147299810659 115.79465678369988 54.973605135808086 0.0 0.0
415.9424487629652 8.490066468777957 127.1785257106334 -2.798499349384091 0.0 0.0
474.92540773544096 -15.21555582493923 148.87759319058512 -15.378661495276667 0.0 0.0
552.4651801839894 -21.621376927193673 207.69993661222898 -11.677766130511099 0.0 0.0
627.2117864527069 -17.6092378428606 279.6364295780717 -10.327802529187073 0.0 0.0
699.5424172910199 -11.693163159969224 334.80424251976694 -11.084840067715168 0.0 0.0
772.7966509459787 2.322411114197422 383.18350979292035 -12.916348780092662 0.0 0.0
849.0411012638813 24.83326159704903 433.83041882811006 -14.71829247144146 0.0 0.0
927.8409680994323 54.683482757491305 488.727912780271 -15.895427599143975 0.0 0.0
1007.2881133359483 89.39221948810328 546.205845021224 -16.365515624452804 0.0 0.0
1085.9586127122063 127.60042159425046 604.9436631301926 -16.323776413206733 0.0 0.0
1163.9773043182172 168.2706124671664 664.4966510978049 -16.132313460757597 0.0 0.0
1242.188795909126 211.97845996683378 725.599966805547 -15.815625004045451 0.0 0.0
1321.1254297323094 259.28758756808827 788.8273863944291 -15.232696187799554 0.0 0.0
1400.0256719000079 309.59796588000296 853.5149285830299 -14.187922008775523 0.0 0.0
1476.471256329776 360.9833922334319 917.5010225959643 -12.560434103365136 0.0 0.0
1548.004283589669 411.6357560580621 978.640080762008 -10.66182844179308 0.0 0.0
1614.3684858967695 462.1849013366585 1037.0587772857057 -10.157822358649346 0.0 0.0
1712.2339994046192 551.3628983839712 1130.0699677888085 -16.47879299957932 0.0 0.0
1712.2339994044687 551.3628983838372 1130.0699677886423 16.47879299963777 0.0 0.0
1614.368485897105 462.18490133705404 1037.0587772858785 10.157822358788126 0.0 0.0
1548.0042835886213 411.6357560570894 978.6400807612284 10.661828441709815 0.0 0.0
1476.4712563295839 360.98339223334847 917.5010225958365 12.560434103424749 0.0 0.0
1400.0256718991407 309.59796587925854 853.5149285823917 14.187922008697363 0.0 0.0
1321.1254297326843 259.28758756861055 788.827386394606 15.232696187843423 0.0 0.0
1242.1887959088194 211.97845996670725 725.5999668052721 15.815625004069584 0.0 0.0
1163.9773043175333 168.27061246667233 664.4966510972424 16.13231346068322 0.0 0.0
1085.9586127111259 127.6004215933823 604.9436631293554 16.323776413150405 0.0 0.0
1007.2881133361025 89.39221948851201 546.2058450212638 16.36551562448593 0.0 0.0
927.8409680994291 54.68348275775395 488.7279127803123 15.895427599418166 0.0 0.0
849.0411012631866 24.833261596634543 433.83041882762143 14.71829247147902 0.0 0.0
772.7966509456572 2.322411114146746 383.1835097927033 12.916348780259552 0.0 0.0
699.5424172902357 -11.693163160480594 334.80424251925314 11.084840067550836 0.0 0.0
627.2117864521726 -17.60923784311339 279.6364295776807 10.327802529282438 0.0 0.0
552.4651801833568 -21.621376927594376 207.69993661177352 11.677766130412147 0.0 0.0
474.925407735056 -15.215555825150176 148.87759319037772 15.378661495100161 0.0 0.0
415.942448762954 8.490066469056982 127.17852571071768 2.798499349248268 0.0 0.0
403.3515547725247 -77.99147299788282 115.79465678376633 -54.97360513578347 0.0 0.0
169.108797918125 -521.649320510661 -181.8589574800785 110.2505380258032 0.0 0.0
68.41305108460455 -548.7144371885574 -243.20733856947535 -159.76773312630826 0.0 0.0
275.47838133953684 -69.94321883343275 61.89423603873841 8.974589053097333 0.0 0.0
364.73231748251516 33.04071318352789 119.33832296234105 -9.688375977044121 0.0 0.0
439.6803079705117 -13.555781830539003 132.25987052174665 -35.712797785409016 0.0 0.0
524.773254284142 -21.773080707122674 184.95039394027734 -33.43353671042013 0.0 0.0
603.8316961095529 -18.35861253668331 259.8765642052134 -30.58121693487946 0.0 0.0
679.7985390696166 -11.935817554672475 321.68872573983407 -31.726123271553696 0.0 0.0
754.0206933769546 1.9158215596843178 372.5635428625775 -34.49506779170949 0.0 0.0
828.8663559873745 23.034498375893392 422.40138748786205 -37.200446534456745 0.0 0.0
904.4276261394764 50.14375601489557 474.50377410790725 -38.604671565433094 0.0 0.0
979.2691049258838 81.01900729149726 527.84662476932 -38.69189454725219 0.0 0.0
1052.9374147196202 114.46763940459792 581.7340822560304 -38.08323479794062 0.0 0.0
1125.7170611708602 150.76008067781396 636.5012953049975 -37.23200291377401 0.0 0.0
1198.4477327733848 189.72756512078172 692.5216582149524 -36.19299988635102 0.0 0.0
1271.3276617584986 231.46791875760766 749.9605614294256 -34.71513772553201 0.0 0.0
1343.8812110036504 275.7590465186079 808.4802371363726 -32.40644047748123 0.0 0.0
1415.114072074476 322.0308156951296 867.2949436515341 -29.179003850491167 0.0 0.0
1484.494871354027 370.53778275735345 926.2394900400386 -25.925545055345417 0.0 0.0
1558.7902084463967 429.29368277800427 992.6180080917081 -24.352017957577086 0.0 0.0
1614.2511687149893 475.9091411482983 1043.5361639722319 -24.441081318842564 0.0 0.0
1614.251168714275 475.9091411475903 1043.53616397172 24.44108131882368 0.0 0.0
1558.790208446678 429.2936827783487 992.6180080919779 24.352017957666625 0.0 0.0
1484.4948713540966 370.53778275748715 926.2394900400448 25.92554505533429 0.0 0.0
1415.114072074201 322.0308156949691 867.2949436511302 29.17900385059918 0.0 0.0
1343.8812110031354 275.7590465182306 808.4802371358612 32.4064404775578 0.0 0.0
1271.3276617577878 231.46791875704378 749.9605614288095 34.71513772553703 0.0 0.0
1198.4477327729958 189.72756512055042 692.5216582145639 36.19299988628069 0.0 0.0
1125.7170611706915 150.76008067783624 636.5012953047622 37.23200291375812 0.0 0.0
1052.9374147186393 114.46763940382584 581.7340822553294 38.0832347979269 0.0 0.0
979.2691049254613 81.0190072913031 527.8466247689947 38.691894547203916 0.0 0.0
904.4276261392654 50.14375601492975 474.5037741077724 38.604671565393225 0.0 0.0
828.8663559868354 23.034498375618853 422.40138748755606 37.20044653457721 0.0 0.0
754.0206933760885 1.9158215591400278 372.56354286204436 34.49506779180915 0.0 0.0
679.7985390692038 -11.935817554816452 321.6887257395166 31.726123271426214 0.0 0.0
603.8316961092468 -18.35861253665616 259.87656420495847 30.58121693501961 0.0 0.0
524.7732542833514 -21.77308070771121 184.95039393974832 33.43353671029576 0.0 0.0
439.6803079700212 -13.555781830985257 132.25987052146888 35.71279778528384 0.0 0.0
364.73231748253113 33.04071318376984 119.33832296242309 9.68837597708551 0.0 0.0
275.47838133995305 -69.94321883267122 61.89423603909417 -8.97458905324222 0.0 0.0
68.41305108485406 -548.7144371882555 -243.2073385691765 159.76773312611573 0.0 0.0
14.524605481047132 -557.9589816223748 -268.56411279776796 -175.05838040524822 0.0 0.0
154.74789453450543 -58.61660548769882 28.839386714041986 -45.961002523729434 0.0 0.0
296.35106027506293 36.93895014150522 99.98700312497043 -34.01481453336485 0.0 0.0
394.31020401689545 -4.460718528397227 118.12233464011882 -55.9947851311736 0.0 0.0
488.2585461076175 -20.554030534352183 161.5691470686546 -57.311668487227855 0.0 0.0
576.8679561973656 -20.38143789566905 235.4649033013149 -52.48492539556206 0.0 0.0
655.9864671231669 -11.339015963005373 305.540543593429 -52.726911571629 0.0 0.0
730.8308732525278 1.6014571694739672 359.27644822468665 -55.94142101736692 0.0 0.0
804.5370444437298 21.26746563452339 408.78226173114064 -59.13485308499744 0.0 0.0
876.7792510697202 45.324514909139424 457.97199555489465 -60.51234429469854 0.0 0.0
947.2178757677585 72.23784368709576 507.2286775179831 -60.19802534018051 0.0 0.0
1015.8835966814311 101.52735911754566 556.5801964622456 -59.04886169038611 0.0 0.0
1083.6521807999763 132.99377951495185 606.4591146663429 -57.67554453832986 0.0 0.0
1150.704898066917 166.9375461634627 657.1616203449573 -55.95738648025585 0.0 0.0
1217.3420035906308 202.9005016556855 708.6208151400233 -53.636094688329315 0.0 0.0
1283.6901152874273 241.1074642799045 761.0076739237686 -50.33406865148921 0.0 0.0
1350.0906843502908 282.46455089300616 814.9309751904433 -46.05079899745673 0.0 0.0
1418.444006802534 329.801102958225 872.7392438148358 -41.63258933095047 0.0 0.0
1483.001993468174 378.4412455769539 929.2745881367634 -37.11605588136843 0.0 0.0
1529.1039324341496 414.76420747068886 970.408929603131 -31.157575716036913 0.0 0.0
1529.10393243495 414.76420747151394 970.4089296036518 31.157575716097064 0.0 0.0
1483.0019934685265 378.44124557738013 929.2745881369298 37.11605588154643 0.0 0.0
1418.4440068021913 329.8011029579538 872.7392438145705 41.63258933099356 0.0 0.0
1350.090684350466 282.4645508932893 814.9309751906244 46.050798997514235 0.0 0.0
1283.690115286989 241.1074642795886 761.0076739234846 50.33406865149401 0.0 0.0
1217.3420035905388 202.90050165573683 708.6208151399399 53.63609468834009 0.0 0.0
1150.7048980664035 166.93754616311537 657.161620344639 55.95738648030956 0.0 0.0
1083.6521807991967 132.99377951434292 606.4591146658424 57.67554453831421 0.0 0.0
1015.8835966811746 101.52735911753743 556.5801964621002 59.048861690521356 0.0 0.0
947.2178757674156 72.23784368698972 507.2286775177328 60.19802534023499 0.0 0.0
876.7792510690023 45.32451490864082 457.9719955544201 60.512344294596645 0.0 0.0
804.5370444437839 21.26746563482547 408.7822617311799 59.13485308490367 0.0 0.0
730.8308732517933 1.6014571690181896 359.2764482242471 55.941421017379014 0.0 0.0
655.9864671222294 -11.339015963682826 305.5405435927805 52.726911571536235 0.0 0.0
576.8679561967955 -20.381437895939612 235.46490330085464 52.4849253954724 0.0 0.0
488.25854610728186 -20.554030534346776 161.56914706843665 57.3116684872667 0.0 0.0
394.3102040167359 -4.460718528412121 118.12233464008166 55.99478513120328 0.0 0.0
296.35106027489 36.9389501411871 99.98700312482313 34.01481453348441 0.0 0.0
154.74789453454252 -58.61660548765854 28.839386714065196 45.96100252357571 0.0 0.0
14.524605481305457 -557.9589816220246 -268.5641127974657 175.05838040513902 0.0 0.0
-6.0698934554617665 -547.0144989009872 -266.28084662768345 -177.09320260702404 0.0 0.0
88.89772926714043 -54.845391426117956 10.215701352306743 -92.482814953144 0.0 0.0
231.64816618014643 33.4457386278517 79.52817144239943 -66.8594011331313 0.0 0.0
340.7099302294665 4.726590808122461 103.75240738242158 -78.06641117754383 0.0 0.0
442.0294241907002 -18.527078724005015 137.96781453003024 -83.64918743019925 0.0 0.0
540.157251106695 -20.608260988689274 207.33472842595228 -76.21845899710169 0.0 0.0
625.517646062179 -11.937106193923537 283.34479666907754 -74.41912689748133 0.0 0.0
703.0312115317112 1.875526983892911 343.1163004239569 -77.34274874128154 0.0 0.0
775.2881904218805 19.32676785207976 392.3541440055143 -80.48950929527699 0.0 0.0
844.4348625831309 40.28767031266561 438.88609203833573 -81.62978023141204 0.0 0.0
910.6673918143863 63.34503340299193 484.25763449307544 -80.8920650926591 0.0 0.0
974.6609467128245 88.33949976132722 529.1861384220621 -79.292204125837 0.0 0.0
1037.0805410784328 115.17552134629602 574.113735933644 -77.38476056014377 0.0 0.0
1098.7199815520025 143.9133579636786 619.5448369841737 -75.07905964500496 0.0 0.0
1159.2312627371489 173.9229207985887 664.9990023374877 -72.05273882640324 0.0 0.0
1219.1316594410407 206.0396016427977 711.1323917305302 -68.0244982229652 0.0 0.0
1280.6867815387143 242.35215767324397 760.1027336468258 -63.05760744230148 0.0 0.0
1343.651007236921 283.73300537336314 812.2526851714478 -57.25935131235869 0.0 0.0
1402.3415095432833 325.4183299909092 862.3978847181621 -49.55480411374305 0.0 0.0
1445.1933526603889 356.8106826673651 899.4526309238378 -38.229718766565966 0.0 0.0
1445.193352660934 356.81068266794773 899.4526309242951 38.22971876666732 0.0 0.0
1402.3415095423657 325.418329990049 862.3978847176186 49.5548041139029 0.0 0.0
1343.651007235361 283.7330053718831 812.2526851702764 57.259351312488704 0.0 0.0
1280.6867815390315 242.3521576737 760.1027336469275 63.05760744248013 0.0 0.0
1219.1316594411037 206.0396016430255 711.1323917305307 68.0244982231115 0.0 0.0
1159.2312627370775 173.92292079869554 664.9990023373696 72.05273882654367 0.0 0.0
1098.7199815529955 143.9133579648872 619.5448369847693 75.07905964516578 0.0 0.0
1037.0805410783926 115.17552134648503 574.1137359335034 77.38476056027415 0.0 0.0
974.6609467129819 88.33949976174713 529.1861384221735 79.29220412595386 0.0 0.0
910.6673918144971 63.345033403356126 484.25763449316526 80.89206509267419 0.0 0.0
844.4348625835005 40.287670313296445 438.8860920385508 81.62978023138892 0.0 0.0
775.288190421589 19.32676785204498 392.35414400528464 80.48950929519964 0.0 0.0
703.0312115312587 1.8755269836839972 343.11630042358314 77.34274874119326 0.0 0.0
625.5176460617096 -11.937106194100288 283.3447966686821 74.41912689739937 0.0 0.0
540.1572511064862 -20.608260988500533 207.33472842575037 76.21845899712997 0.0 0.0
442.02942419034486 -18.527078724027668 137.96781452984627 83.64918743010986 0.0 0.0
340.7099302292802 4.726590808012384 103.75240738234326 78.06641117731698 0.0 0.0
231.64816618022007 33.44573862798087 79.52817144246026 66.85940113292206 0.0 0.0
88.89772926732832 -54.84539142562263 10.215701352511708 92.48281495300736 0.0 0.0
-6.069893455300743 -547.0144989008039 -266.28084662743777 177.093202606775 0.0 0.0
-10.962588548771677 -524.1956860586926 -248.69859226522038 -174.4183783092408 0.0 0.0
52.536036087503106 -52.31038247881984 0.06769608260498039 -128.72636748975012 0.0 0.0
176.2644721219427 26.91860136065754 60.95492204478006 -99.99064754080155 0.0 0.0
283.6590883419339 10.767882979388832 88.34611774828589 -101.55745197736009 0.0 0.0
384.8444521886007 -14.00612068895563 115.61827724329592 -110.51959143412157 0.0 0.0
492.5042722154615 -20.34651580662425 175.94148752760236 -103.09703349536547 0.0 0.0
587.7772037328452 -12.834596579879815 254.97797717574286 -97.64791402999069 0.0 0.0
668.9140207743014 1.6786771781449872 322.0294701546493 -98.74586580009026 0.0 0.0
740.5293229649255 17.469251292767524 372.68776228744 -101.288376694757 0.0 0.0
806.742938776808 35.06918624332222 416.8610046683008 -102.01102003187758 0.0 0.0
869.0831108583294 54.346375821160194 458.62825973404216 -100.79038314639098 0.0 0.0
928.2697281694933 75.03425418777775 499.09689389286666 -98.75284989709948 0.0 0.0
985.5276105278874 97.13008901024088 539.1367623466951 -96.45338316278927 0.0 0.0
1041.395296870437 120.72499009043929 579.145505217797 -93.55437350792423 0.0 0.0
1096.064056745363 145.16377837179354 618.9292650636054 -89.90537519304738 0.0 0.0
1150.055782582555 171.01951972129402 659.014005274252 -85.45409866549201 0.0 0.0
1204.737492126332 200.42716876797883 701.1177626248441 -79.98422828851417 0.0 0.0
1261.4236832636122 234.71296848694766 746.58905408131 -72.96536595919733 0.0 0.0
1316.0217288062952 270.5041145114764 791.7397744213349 -62.40819465835074 0.0 0.0
1359.1345643901043 299.6181783693292 827.7677329498638 -46.26715541058137 0.0 0.0
1359.1345643903728 299.61817836964406 827.7677329499362 46.26715541074938 0.0 0.0
1316.0217288057247 270.5041145110018 791.7397744208318 62.408194658563914 0.0 0.0
1261.4236832636002 234.71296848708033 746.5890540813418 72.96536595949135 0.0 0.0
1204.7374921255634 200.4271687673812 701.1177626242634 79.98422828879504 0.0 0.0
1150.05578258206 171.0195197208934 659.0140052737522 85.4540986654504 0.0 0.0
1096.064056745533 145.16377837211388 618.9292650637376 89.90537519310232 0.0 0.0
1041.3952968690712 120.72499008918737 579.145505216928 93.55437350783626 0.0 0.0
985.527610526809 97.13008900930225 539.1367623459597 96.4533831627466 0.0 0.0
928.2697281688434 75.03425418733255 499.09689389234813 98.75284989713231 0.0 0.0
869.0831108576397 54.346375820683306 458.6282597334625 100.79038314636318 0.0 0.0
806.7429387758214 35.069186242447046 416.8610046675677 102.01102003163406 0.0 0.0
740.5293229649391 17.469251293088917 372.68776228744554 101.28837669480953 0.0 0.0
668.9140207749767 1.678677179270423 322.02947015508335 98.74586580022742 0.0 0.0
587.7772037326773 -12.83459657969896 254.97797717553553 97.6479140299295 0.0 0.0
492.5042722149137 -20.3465158068892 175.9414875271935 103.09703349525616 0.0 0.0
384.84445218818325 -14.006120688993388 115.61827724314058 110.51959143407363 0.0 0.0
283.6590883419285 10.767882979651684 88.3461177483685 101.55745197715886 0.0 0.0
176.26447212183598 26.91860136046539 60.9549220446904 99.99064754054962 0.0 0.0
52.536036087663234 -52.3103824784462 0.06769608276510874 128.7263674895366 0.0 0.0
-10.962588548674532 -524.1956860584281 -248.69859226497198 174.4183783090952 0.0 0.0
-8.75988211911772 -493.3829772688224 -222.16768983109654 -170.52880128599264 0.0 0.0
31.218382577545555 -49.35077317837798 -5.439717180249726 -155.78841754093202 0.0 0.0
129.34949274765012 19.781134462662912 44.7391881630939 -129.12585523532616 0.0 0.0
226.2008789220071 13.129832639831584 71.79523700996805 -125.25053457583914 0.0 0.0
319.33001119044536 -7.27498326604663 95.12563246739802 -135.3922659486611 0.0 0.0
428.6463101239717 -19.368533572316597 142.0734313638544 -133.00303724624126 0.0 0.0
536.2487044502274 -12.722330488907897 219.2113560206164 -123.38719757628644 0.0 0.0
624.8127205376907 0.24292822017685012 292.74887545123977 -120.89438895179435 0.0 0.0
698.6596491938733 15.277293919023712 348.1895358737188 -121.79324186036706 0.0 0.0
762.597752758102 29.835514491785673 391.21610042654953 -121.66194081923535 0.0 0.0
820.9937466105864 45.174796714606224 429.49609273826735 -119.91411256444496 0.0 0.0
875.6345519469018 61.6929275696142 465.78588183112805 -117.45956109995097 0.0 0.0
927.4921752225871 79.08879975935174 500.87361293557854 -114.76682935534338 0.0 0.0
977.6998125193104 97.34147242929 535.4297115229347 -111.51637445028378 0.0 0.0
1026.98461901363 116.53516691810319 569.9293062389735 -107.3462688847736 0.0 0.0
1074.5206767114107 136.45680250642766 603.8782463657583 -102.35673177486723 0.0 0.0
1121.650149037749 157.69933600492993 638.1824956806129 -96.65597065861253 0.0 0.0
1170.8666637357167 183.2543801302185 675.5656208398716 -88.97427848785173 0.0 0.0
1221.8781100371796 213.2070395664024 715.9764576650173 -76.24539977849629 0.0 0.0
1267.9613868878853 241.66481328047598 753.1098290510914 -55.933368171657676 0.0 0.0
1267.9613868884373 241.66481328107142 753.1098290516292 55.933368171749976 0.0 0.0
1221.8781100384804 213.20703956779698 715.9764576659991 76.24539977869892 0.0 0.0
1170.8666637361275 183.25438013078934 675.5656208400153 88.9742784880861 0.0 0.0
1121.6501490374544 157.69933600475218 638.1824956803703 96.65597065873058 0.0 0.0
1074.5206767111001 136.4568025062615 603.8782463655662 102.35673177494925 0.0 0.0
1026.9846190132664 116.5351669177955 569.9293062385971 107.3462688846071 0.0 0.0
977.6998125187639 97.34147242887889 535.4297115225663 111.5163744502604 0.0 0.0
927.4921752213145 79.08879975821458 500.87361293474186 114.76682935533276 0.0 0.0
875.6345519461341 61.69292756896101 465.7858818305489 117.45956109980399 0.0 0.0
820.9937466110251 45.17479671522307 429.49609273851513 119.91411256433979 0.0 0.0
762.5977527576247 29.83551449134562 391.21610042614805 121.66194081890526 0.0 0.0
698.6596491934761 15.277293918788743 348.18953587335716 121.79324186022163 0.0 0.0
624.8127205377222 0.2429282205129084 292.74887545118537 120.89438895175607 0.0 0.0
536.2487044493548 -12.722330489483511 219.21135601998986 123.38719757627084 0.0 0.0
428.64631012331876 -19.368533572675673 142.07343136345094 133.00303724616504 0.0 0.0
319.33001119019485 -7.27498326592922 95.12563246735763 135.39226594851772 0.0 0.0
226.20087892187365 13.129832639755803 71.79523700990669 125.2505345757096 0.0 0.0
129.34949274749 19.78113446237468 44.739188162959394 129.12585523508278 0.0 0.0
31.21838257765925 -49.35077317804865 -5.439717180116821 155.78841754084664 0.0 0.0
-8.759882119073097 -493.38297726846463 -222.167689830822 170.52880128598224 0.0 0.0
-3.2639376819539763 -456.1939634298758 -190.168743423637 -166.90481275011945 0.0 0.0
16.847860573835465 -46.55526263921362 -8.912160255974678 -174.8465574969441 0.0 0.0
88.30051306469277 13.203288105438094 30.451140351039257 -152.51876010336807 0.0 0.0
169.02945039886185 14.081114562575234 54.930045910743935 -147.16980436481555 0.0 0.0
249.4461411576422 -1.0577380705017867 75.2238749134136 -157.0200674673147 0.0 0.0
350.1997559221363 -15.46659201556558 108.97155790869958 -163.3952815453378 0.0 0.0
466.1672667439832 -12.91546014126054 175.64488291081776 -153.01779138961382 0.0 0.0
566.6330184159176 -0.9535091965851485 253.26406067039483 -144.79067891778377 0.0 0.0
645.2730359078296 12.082884126215454 314.9705832923561 -142.47654347566808 0.0 0.0
709.2894051935721 24.415944558550983 359.91578663361315 -140.79914657793927 0.0 0.0
764.0604008047771 35.835253187980115 395.46286317533986 -138.28733492457627 0.0 0.0
814.3013959474155 48.40824623875565 427.9663503665823 -135.40225872102562 0.0 0.0
860.757155670414 61.076714372931036 458.1810855095229 -132.37761236414596 0.0 0.0
904.8997667661511 74.07439621245679 487.18471640165575 -128.90462542206853 0.0 0.0
948.236189864713 87.76773630719316 515.9841247542697 -124.43035904579341 0.0 0.0
990.9354331909436 102.47171875224359 544.9624440952666 -118.88811740525173 0.0 0.0
1029.9975187421185 115.61735636007884 571.3093033461166 -112.77228117498157 0.0 0.0
1069.4001765796502 130.32621884028396 598.4054340979635 -105.17062503251861 0.0 0.0
1116.122867448528 152.43852177634375 632.6887173145772 -91.64039833500499 0.0 0.0
1167.8984932713497 181.33323056223816 672.7747167945417 -68.21172767396959 0.0 0.0
1167.8984932715123 181.33323056249264 672.7747167946029 68.21172767421129 0.0 0.0
1116.1228674494366 152.4385217774302 632.688717315213 91.64039833541878 0.0 0.0
1069.4001765791586 130.32621883991953 598.405434097668 105.17062503260368 0.0 0.0
1029.9975187419302 115.61735635993006 571.3093033459604 112.77228117500145 0.0 0.0
990.9354331909676 102.47171875239769 544.9624440953446 118.88811740522402 0.0 0.0
948.236189865279 87.76773630785965 515.9841247546615 124.43035904570078 0.0 0.0
904.8997667658878 74.07439621230526 487.1847164014116 128.90462542205648 0.0 0.0
860.7571556694886 61.07671437216598 458.1810855088935 132.37761236420008 0.0 0.0
814.3013959465017 48.408246237939835 427.96635036595745 135.40225872098273 0.0 0.0
764.0604008045223 35.835253187957136 395.46286317519 138.2873349245369 0.0 0.0
709.2894051937877 24.41594455888979 359.91578663372377 140.7991465777739 0.0 0.0
645.2730359085733 12.08288412749397 314.9705832928761 142.47654347590588 0.0 0.0
566.6330184164362 -0.9535091954080812 253.2640606706909 144.79067891802723 0.0 0.0
466.16726674403293 -12.91546014047762 175.6448829108797 153.01779138978193 0.0 0.0
350.19975592219186 -15.466592014779195 108.97155790886359 163.3952815452696 0.0 0.0
249.44614115775704 -1.0577380696773444 75.22387491369551 157.02006746711461 0.0 0.0
169.0294503991276 14.081114563376252 54.930045911064965 147.16980436457038 0.0 0.0
88.30051306479099 13.20328810572419 30.45114035115455 152.5187601031631 0.0 0.0
16.847860573768386 -46.55526263930128 -8.912160256021155 174.84655749684435 0.0 0.0
-3.2639376820272545 -456.1939634297111 -190.1687434234626 166.90481275007494 0.0 0.0
2.0742695826798183 -414.03822209959 -156.98939745998132 -164.40461112544534 0.0 0.0
3.791779917589028 -44.60503077105301 -12.243623978072328 -186.0948455330395 0.0 0.0
50.823529752752805 7.951861847261831 17.632214408756845 -170.13086727172075 0.0 0.0
112.93940767387653 15.118596774681027 38.419931513373555 -165.41166913186305 0.0 0.0
177.4653632043573 2.959937706999087 54.54342306552409 -175.9070589977485 0.0 0.0
256.54369622908024 -8.362305012373382 77.90584583456328 -188.46458704231966 0.0 0.0
368.26865160297257 -11.33777041255479 126.38860801268663 -186.30782529877652 0.0 0.0
484.05405224482934 -2.394640084215035 199.4852769683145 -172.84565396939308 0.0 0.0
573.5238604550301 8.410787267918245 267.4764608280875 -164.44676739997936 0.0 0.0
639.7408628017156 18.305647821490222 317.23660275240155 -159.77575237317313 0.0 0.0
692.9052601224856 26.26154897119451 352.9120723743329 -156.1783595372691 0.0 0.0
738.552906513675 34.99947587969631 382.3127959166501 -152.6597345572609 0.0 0.0
779.5569060961024 43.364682266761854 408.1709576387313 -149.22316997611082 0.0 0.0
817.4039854604578 51.10529289607203 431.6574263129498 -145.6751204838697 0.0 0.0
854.3042548843474 58.971873774248905 454.4421033750959 -141.28807428563746 0.0 0.0
891.7901337129003 68.21858332076329 478.08206657989723 -135.2613255682326 0.0 0.0
926.6174493745451 76.10303441055851 499.8180715272981 -128.24849688581986 0.0 0.0
954.1519066105532 78.0172717832221 514.8050835885442 -120.99616933189368 0.0 0.0
990.9580746249858 86.86065141209374 537.3832068015978 -108.78290935217325 0.0 0.0
1050.4968817540298 116.08651762380023 581.2530853242905 -84.54535121024296 0.0 0.0
1050.4968817537429 116.0865176236137 581.2530853242079 84.5453512104967 0.0 0.0
990.9580746260832 86.86065141348138 537.3832068024038 108.78290935268822 0.0 0.0
954.1519066106704 78.01727178349842 514.8050835886601 120.99616933207552 0.0 0.0
926.6174493746213 76.1030344107487 499.8180715271666 128.24849688597152 0.0 0.0
891.7901337115942 68.21858331951381 478.08206657887354 135.261325568159 0.0 0.0
854.3042548836428 58.97187377368812 454.4421033746165 141.28807428568572 0.0 0.0
817.4039854602433 51.105292895992534 431.65742631280773 145.67512048388784 0.0 0.0
779.5569060962257 43.3646822670282 408.1709576387724 149.2231699760971 0.0 0.0
738.5529065134199 34.999475879568564 382.3127959164244 152.65973455719654 0.0 0.0
692.9052601211359 26.261548969999694 352.9120723734316 156.1783595372949 0.0 0.0
639.740862801805 18.305647821873094 317.2366027523858 159.77575237318453 0.0 0.0
573.523860454572 8.410787267790312 267.4764608277588 164.44676739998528 0.0 0.0
484.0540522439677 -2.394640085014103 199.48527696764367 172.84565396923222 0.0 0.0
368.2686516025281 -11.33777041261223 126.38860801242528 186.30782529871237 0.0 0.0
256.5436962287718 -8.362305012230696 77.90584583449302 188.46458704211747 0.0 0.0
177.4653632039305 2.959937706387933 54.54342306521586 175.90705899759212 0.0 0.0
112.93940767345569 15.118596773807582 38.41993151298863 165.41166913177327 0.0 0.0
50.82352975283911 7.951861847495392 17.63221440885332 170.13086727159185 0.0 0.0
3.7917799177779954 -44.60503077046162 -12.243623977839595 186.09484553290582 0.0 0.0
2.0742695827445843 -414.0382220992248 -156.98939745972726 164.40461112537866 0.0 0.0
3.6881426183185937 -367.663247598844 -126.7985731045348 -161.44926554539683 0.0 0.0
-11.959034917190984 -44.75881922776453 -17.01568354938435 -191.65825226516176 0.0 0.0
15.526692154177418 4.801652566164849 6.098908768272249 -182.19375975543093 0.0 0.0
58.324044124235655 16.26299679212954 22.388682717828164 -179.19837768998994 0.0 0.0
103.26694702030515 6.751645344652555 33.274573595845574 -190.34131817119544 0.0 0.0
154.9742687703669 -2.47510346751492 47.24842566328523 -206.7889180609084 0.0 0.0
237.06742903225575 -5.188260064431749 76.18414194596788 -215.51984873064654 0.0 0.0
353.12374168459087 -2.4206418087236656 128.8501412853007 -206.9316941677207 0.0 0.0
461.25669326281275 4.929667905610177 194.33995202737407 -191.00831955183546 0.0 0.0
536.4294006110567 11.113192636163074 249.32137784233055 -180.0265111229846 0.0 0.0
589.9668675791537 16.902952965632245 289.39124879353534 -173.83028608362838 0.0 0.0
631.5556688757842 21.327222358550387 318.0949547769359 -169.43285042586692 0.0 0.0
667.0176710167123 25.746103190131578 341.2697619924682 -165.43035924200922 0.0 0.0
698.2810275542548 28.821269077073282 360.2425602387023 -161.68140064271296 0.0 0.0
727.6429562351196 30.65120198801796 376.80123916527447 -157.52083616543567 0.0 0.0
758.2977271173584 32.901656580706685 393.69488057161925 -151.88854713238337 0.0 0.0
792.3066435704052 37.02062980496774 413.0298074428208 -143.69403392869228 0.0 0.0
817.8931806509095 33.594824628324176 424.7910936377324 -135.14832445419893 0.0 0.0
832.9300512438798 16.329111611937748 423.6516940102618 -126.62069061386768 0.0 0.0
898.1942326831145 39.701447754622905 466.63240041764914 -107.46390234377411 0.0 0.0
898.1942326839892 39.70144775547237 466.63240041825736 107.46390234380263 0.0 0.0
832.9300512447485 16.3291116132645 423.6516940110388 126.62069061448486 0.0 0.0
817.8931806492026 33.594824626609466 424.7910936366241 135.1483244543304 0.0 0.0
792.3066435688634 37.020629803402585 413.0298074418655 143.69403392869285 0.0 0.0
758.2977271176298 32.90165658071942 393.6948805718019 151.8885471320777 0.0 0.0
727.642956236025 30.651201989178162 376.80123916594505 157.52083616551369 0.0 0.0
698.2810275542884 28.82126907719126 360.24256023873784 161.68140064268778 0.0 0.0
667.0176710168839 25.74610319052266 341.26976199261355 165.4303592421404 0.0 0.0
631.5556688763855 21.327222359525877 318.09495477731633 169.43285042605567 0.0 0.0
589.9668675793371 16.902952966167348 289.3912487936917 173.83028608363037 0.0 0.0
536.4294006106114 11.113192635661576 249.32137784194467 180.02651112274202 0.0 0.0
461.2566932626278 4.929667905718887 194.3399520272283 191.00831955189562 0.0 0.0
353.12374168373486 -2.4206418093137927 128.85014128476226 206.9316941676815 0.0 0.0
237.06742903201007 -5.188260064288093 76.18414194590339 215.51984873057415 0.0 0.0
154.97426877036358 -2.475103466829479 47.24842566349129 206.78891806067844 0.0 0.0
103.26694702053845 6.751645345380903 33.27457359613294 190.34131817092418 0.0 0.0
58.32404412437813 16.262996792539983 22.388682717996886 179.19837768982643 0.0 0.0
15.526692154279518 4.801652566478071 6.098908768398161 182.19375975521612 0.0 0.0
-11.959034917079684 -44.75881922745842 -17.01568354926052 191.65825226500323 0.0 0.0
3.68814261824674 -367.6632475985597 -126.79857310438375 161.44926554532344 0.0 0.0
0.17290113478446045 -317.828931637595 -101.3532922989448 -155.69694900300172 0.0 0.0
-30.980770681114286 -47.545584298645046 -23.559445094360473 -193.76433822107526 0.0 0.0
-18.337863705829694 3.8320958776249205 -4.353211206811544 -189.4202710456011 0.0 0.0
5.2472905231796405 17.347396188975928 6.78732958480267 -188.08663475375192 0.0 0.0
28.443757177936817 10.940103665678103 11.90540588323005 -198.8823475956922 0.0 0.0
49.9335304634718 2.5430230284006465 16.217281878991905 -217.20808647541227 0.0 0.0
79.47863807803485 -0.7304597444844863 25.18436980838526 -232.37854620534404 0.0 0.0
133.8964369260346 0.8890411377207883 44.59551786285635 -235.37709752159205 0.0 0.0
216.27711426753822 4.664291498621477 77.0489586621312 -222.66085844299215 0.0 0.0
297.0034423288265 6.992624804457606 115.7872434465623 -206.18975795012386 0.0 0.0
361.15155553077796 8.4809568632366 154.41560542491936 -193.80255470673268 0.0 0.0
403.11111472571 8.755356545045672 184.3887643909323 -185.96726853510756 0.0 0.0
432.3273783487155 9.118868999957655 207.4067229228333 -180.4174317215787 0.0 0.0
455.85806783456104 7.275028603085673 224.71617764258852 -175.96265584934855 0.0 0.0
478.54753593259835 3.15762009303765 238.30608630369198 -171.83753511912352 0.0 0.0
506.0843362583366 -2.5071679473111885 251.27095700716222 -167.27172639103114 0.0 0.0
543.2993213587702 -6.288933020196396 268.2604455761217 -160.21012565721242 0.0 0.0
590.0339722871607 -6.073243231185188 291.6791185457999 -148.9668653064484 0.0 0.0
610.5814332319028 -35.58500082857557 288.47072330480466 -138.99368866252098 0.0 0.0
645.5185829626271 -70.58131021330772 285.2199725828366 -136.81763756386354 0.0 0.0
645.5185829630107 -70.58131021279792 285.2199725831371 136.81763756410186 0.0 0.0
610.5814332316612 -35.58500082872672 288.47072330464755 138.99368866293966 0.0 0.0
590.0339722877042 -6.07324323027774 291.6791185462515 148.9668653067988 0.0 0.0
543.2993213582928 -6.288933020288226 268.26044557588614 160.210125657483 0.0 0.0
506.08433625702577 -2.507167949166501 251.27095700605457 167.27172639085478 0.0 0.0
478.5475359322194 3.1576200922144153 238.30608630328535 171.83753511899178 0.0 0.0
455.8580678340959 7.275028602418857 224.71617764223555 175.96265584936592 0.0 0.0
432.32737834905384 9.118869000424425 207.40672292304174 180.4174317217748 0.0 0.0
403.1111147258918 8.755356545409299 184.38876439105323 185.96726853511444 0.0 0.0
361.1515555306409 8.480956863097951 154.41560542475125 193.8025547067013 0.0 0.0
297.00344232894577 6.992624805040769 115.78724344669263 206.18975795015126 0.0 0.0
216.27711426735348 4.664291498296848 77.04895866194671 222.6608584429 0.0 0.0
133.89643692534082 0.8890411368231916 44.59551786236604 235.3770975216479 0.0 0.0
79.47863807798579 -0.7304597445742838 25.184369808343703 232.37854620516805 0.0 0.0
49.9335304633903 2.543023028512783 16.21728187900292 217.2080864752323 0.0 0.0
28.44375717812853 10.940103666148865 11.905405883427994 198.88234759541714 0.0 0.0
5.247290523264813 17.347396189082602 6.787329584860626 188.08663475358495 0.0 0.0
-18.337863705748994 3.832095877897032 -4.3532112067063835 189.4202710454382 0.0 0.0
-30.980770681126508 -47.545584298587954 -23.55944509434983 193.76433822092108 0.0 0.0
0.17290113467632295 -317.828931637355 -101.35329229886324 155.69694900280484 0.0 0.0
-11.42592377390266 -267.21177812612154 -84.3211455845964 -145.7407567175523 0.0 0.0
-50.07063372301036 -50.29562747976345 -30.115906499301822 -193.65523914151277 0.0 0.0
-51.18914094489041 3.816218066824339 -14.231694637909595 -192.4174780751198 0.0 0.0
-46.23157741042186 18.303305255029315 -8.413684975338507 -191.8161667652787 0.0 0.0
-45.47836910884281 15.12150956653553 -9.226994499137207 -201.0527020017708 0.0 0.0
-56.15856433020777 7.4321170544979545 -15.140871755114928 -218.1902237821074 0.0 0.0
-82.22532165719707 2.6397808863050356 -25.504392817511604 -232.5252653872438 0.0 0.0
-134.85823448026787 -0.4891490655304125 -44.809196137073556 -235.53181886977046 0.0 0.0
-216.15957422647494 -4.428336409566793 -76.9437004832975 -222.7747985620594 0.0 0.0
-296.7592274129036 -6.681337747114647 -115.59710486293251 -206.16689403711092 0.0 0.0
-361.36906897653665 -7.0570185965734495 -153.89159299193273 -193.6470764500658 0.0 0.0
-404.82992170745104 -7.080719087941105 -184.4221097051768 -185.49009954045607 0.0 0.0
-436.8369341354703 -9.391121594149169 -209.41238176521003 -179.98387873668176 0.0 0.0
-461.9285793652957 -14.702485936933641 -230.91329976542968 -176.58133947296704 0.0 0.0
-478.8494336632836 -23.479189368605546 -249.3367254217224 -175.12986252961844 0.0 0.0
-484.49263710107033 -34.810807971919985 -263.793716733058 -175.14795704118666 0.0 0.0
-469.89160500378955 -46.1154622408568 -270.8000650865826 -175.33982919933925 0.0 0.0
-405.83194455623885 -40.03415311499586 -254.3884745134494 -175.13339748491592 0.0 0.0
-223.53697763624263 -38.18112869659808 -193.82036271750383 -178.1062119484148 0.0 0.0
-19.22885701344788 -175.77510024049622 -69.97191198751204 -168.71556110055127 0.0 0.0
-19.22885701378749 -175.7751002409539 -69.9719119877721 168.71556110080144 0.0 0.0
-223.5369776376661 -38.18112869940177 -193.82036271891002 178.10621194881287 0.0 0.0
-405.8319445572221 -40.034153116759626 -254.3884745143381 175.13339748526963 0.0 0.0
-469.8916050034616 -46.11546224045037 -270.8000650863175 175.33982919937708 0.0 0.0
-484.4926371015975 -34.81080797264278 -263.79371673339045 175.14795704105177 0.0 0.0
-478.8494336628212 -23.479189368498112 -249.33672542147195 175.12986252961616 0.0 0.0
-461.9285793646259 -14.702485936290941 -230.91329976495325 176.5813394729612 0.0 0.0
-436.83693413473014 -9.391121593287536 -209.41238176463372 179.9838787367451 0.0 0.0
-404.82992170627995 -7.080719087082102 -184.42210970447314 185.49009954042356 0.0 0.0
-361.3690689756684 -7.057018596075764 -153.89159299135576 193.6470764499312 0.0 0.0
-296.7592274123814 -6.681337747555851 -115.59710486277736 206.166894037122 0.0 0.0
-216.15957422577492 -4.428336409451063 -76.94370048300304 222.77479856210817 0.0 0.0
-134.85823447974246 -0.4891490652387347 -44.80919613680825 235.5318188697841 0.0 0.0
-82.22532165703296 2.6397808859686034 -25.504392817547448 232.52526538706692 0.0 0.0
-56.15856433034667 7.432117053961031 -15.140871755313418 218.19022378186938 0.0 0.0
-45.47836910876338 15.121509566424232 -9.226994499146967 201.05270200158915 0.0 0.0
-46.23157741006402 18.30330525570802 -8.413684975028925 191.8161667651175 0.0 0.0
-51.18914094497086 3.8162180667252974 -14.231694637966024 192.41747807487502 0.0 0.0
-50.07063372309816 -50.295627479875755 -30.115906499365387 193.65523914136932 0.0 0.0
-11.425923774047245 -267.2117781259109 -84.32114558459138 145.7407567174701 0.0 0.0
-23.236708385146926 -218.56497360869486 -72.5329098058363 -132.7570731143683 0.0 0.0
-66.41563227152771 -50.38844346330042 -35.05089729090808 -190.1276771444613 0.0 0.0
-82.90289949791719 3.698806073074649 -23.80307718718413 -191.56433262187895 0.0 0.0
-96.08676385255686 19.095133019312197 -23.18607871403031 -190.52566785571457 0.0 0.0
-117.68928738348788 18.44560473473135 -30.187045238799033 -196.6025492871887 0.0 0.0
-160.13331225529953 11.96415509634825 -46.18798775863272 -209.1364481608316 0.0 0.0
-238.62630080227672 6.976391256195479 -76.36827215678692 -216.46596598207933 0.0 0.0
-352.79841962706075 2.75355049510242 -128.79067312737308 -207.42919199189728 0.0 0.0
-460.8582014269499 -4.751042936163117 -194.13931638428156 -191.18526492167484 0.0 0.0
-536.0648796272258 -10.695788883039306 -249.0031866315158 -179.9900118366314 0.0 0.0
-589.5108247705468 -15.812601878250064 -288.72819399333036 -173.53649421734204 0.0 0.0
-631.6169246101658 -19.837933153537264 -317.42458882316475 -168.6274553635444 0.0 0.0
-668.9832169847275 -25.898095180860153 -342.149859607597 -164.40382453631184 0.0 0.0
-703.9043736951247 -35.056310974905784 -365.7952124823227 -161.96380060361537 0.0 0.0
-736.9245211913126 -48.039346126305674 -389.84133650353 -161.86179314614913 0.0 0.0
-766.030293569559 -63.77024484608921 -413.19260035614946 -164.0457744203101 0.0 0.0
-786.2159498657649 -79.02049521606841 -431.9762683244536 -168.94028837405446 0.0 0.0
-794.5728064894521 -92.02790057177793 -443.62976995387345 -176.65451498089388 0.0 0.0
-828.1380102246037 -145.84806098063663 -488.5778342035805 -185.90704819132478 0.0 0.0
-840.4322269238315 -236.69060972971823 -541.9649921372322 -205.02377767406745 0.0 0.0
-840.4322269237798 -236.6906097295163 -541.9649921372434 205.02377767421444 0.0 0.0
-828.1380102237763 -145.84806097999456 -488.5778342031944 185.90704819162403 0.0 0.0
-794.5728064888306 -92.0279005710255 -443.6297699534144 176.65451498101544 0.0 0.0
-786.2159498659872 -79.02049521657574 -431.97626832461026 168.9402883741949 0.0 0.0
-766.0302935705083 -63.770244847197375 -413.1926003567719 164.04577442030228 0.0 0.0
-736.9245211915786 -48.03934612682957 -389.8413365037202 161.8617931463005 0.0 0.0
-703.9043736948663 -35.05631097496524 -365.7952124822149 161.96380060378593 0.0 0.0
-668.9832169845185 -25.8980951807832 -342.14985960742115 164.40382453630804 0.0 0.0
-631.6169246099073 -19.837933153732507 -317.424588823035 168.6274553636268 0.0 0.0
-589.510824769553 -15.812601877208806 -288.7281939925755 173.53649421713175 0.0 0.0
-536.0648796270218 -10.69578888286619 -249.00318663117253 179.99001183640573 0.0 0.0
-460.8582014270771 -4.751042937254283 -194.13931638445126 191.1852649219616 0.0 0.0
-352.79841962631474 2.7535504952654115 -128.7906731269499 207.42919199199977 0.0 0.0
-238.62630080158044 6.976391256512749 -76.36827215644047 216.46596598203155 0.0 0.0
-160.1333122549131 11.964155096535041 -46.18798775845656 209.13644816051786 0.0 0.0
-117.68928738358022 18.445604734170377 -30.187045238992283 196.60254928699874 0.0 0.0
-96.08676385262851 19.09513301890472 -23.186078714175668 190.52566785555538 0.0 0.0
-82.90289949794371 3.69880607294418 -23.80307718723531 191.56433262182964 0.0 0.0
-66.41563227143216 -50.388443463177566 -35.05089729084894 190.12767714445775 0.0 0.0
-23.23670838525456 -218.56497360854814 -72.53290980582682 132.75707311422718 0.0 0.0
-28.29308784024549 -172.89722904084914 -60.35709506432838 -117.99527705635117 0.0 0.0
-79.88800493900293 -47.97049750660118 -38.35477826276746 -182.6611549234022 0.0 0.0
-113.07037661121385 3.4285812293549585 -32.92945079682373 -186.6646891533309 0.0 0.0
-144.21256945215396 19.353723949257326 -37.60682699120592 -184.1294632086086 0.0 0.0
-187.63601824702158 20.522480157351186 -50.92336192865809 -186.13798864273178 0.0 0.0
-258.75194741944097 16.73530571679971 -76.76992936069554 -191.8983390298339 0.0 0.0
-367.4523160907321 12.876073536289702 -126.08157410672214 -187.71429705484402 0.0 0.0
-483.2274860925935 2.745637412047685 -199.10070420627179 -173.44852654149838 0.0 0.0
-573.2592524256842 -8.295336185150035 -267.311697389948 -164.51741928601984 0.0 0.0
-639.4788917635804 -18.001226665367568 -317.0003752288594 -159.7546544141372 0.0 0.0
-692.5532173553902 -25.474565616557882 -352.3942005788408 -155.88280901203944 0.0 0.0
-738.4492990759591 -33.77633146683121 -381.65627022104377 -151.68662982357486 0.0 0.0
-780.8659021784952 -43.22755742444201 -408.6357138206046 -147.69909215519414 0.0 0.0
-822.0801712453698 -55.7975155360497 -436.0816369035855 -145.18389229383706 0.0 0.0
-863.1982931527931 -72.84702460508504 -465.5698834607843 -145.21189950324765 0.0 0.0
-901.998781588006 -93.17357037022018 -495.583750620549 -148.24459411632418 0.0 0.0
-936.1082882942464 -114.75162837656131 -523.8549050782226 -153.91000331260585 0.0 0.0
-974.2474071339518 -147.75468990867512 -559.8097243873366 -160.14304993249198 0.0 0.0
-1017.8334720157553 -197.302949405834 -606.6031757375031 -165.6237026958728 0.0 0.0
-1119.041344964884 -334.37937728163 -725.1220413491058 -171.63145445456908 0.0 0.0
-1119.041344964623 -334.37937728162393 -725.1220413490141 171.6314544548609 0.0 0.0
-1017.8334720154538 -197.3029494057335 -606.6031757372082 165.62370269622707 0.0 0.0
-974.2474071343115 -147.7546899094943 -559.809724387545 160.14304993298123 0.0 0.0
-936.1082882937221 -114.75162837615656 -523.8549050777713 153.91000331265926 0.0 0.0
-901.9987815869133 -93.17357036913472 -495.5837506197048 148.2445941162673 0.0 0.0
-863.1982931520565 -72.84702460447203 -465.56988346031477 145.21189950325942 0.0 0.0
-822.0801712454554 -55.79751553647307 -436.08163690366416 145.18389229398178 0.0 0.0
-780.8659021770764 -43.227557423227054 -408.63571381961174 147.69909215530512 0.0 0.0
-738.4492990754874 -33.776331466469905 -381.65627022066917 151.68662982344838 0.0 0.0
-692.5532173554573 -25.474565616918657 -352.3942005789067 155.88280901205795 0.0 0.0
-639.4788917622699 -18.001226664023285 -317.0003752280053 159.7546544137972 0.0 0.0
-573.2592524246423 -8.295336184337614 -267.3116973892612 164.5174192860088 0.0 0.0
-483.2274860912876 2.7456374131866235 -199.1007042053444 173.44852654139376 0.0 0.0
-367.4523160897925 12.876073537093179 -126.08157410606432 187.71429705466818 0.0 0.0
-258.7519474189518 16.73530571698803 -76.76992936045718 191.89833902962226 0.0 0.0
-187.6360182467366 20.522480157463455 -50.92336192854186 186.13798864261685 0.0 0.0
-144.2125694517569 19.35372394977079 -37.60682699093682 184.12946320841095 0.0 0.0
-113.07037661116965 3.4285812292722846 -32.929450796840776 186.66468915310688 0.0 0.0
-79.88800493911069 -47.97049750685552 -38.35477826287719 182.6611549232482 0.0 0.0
-28.29308784023635 -172.8972290406428 -60.35709506426373 117.9952770562188 0.0 0.0
-30.08290738090082 -131.20899346803662 -48.38757025468123 -102.47145761345281 0.0 0.0
-91.00596957029644 -43.29427988669566 -40.289547805821954 -170.72126659999694 0.0 0.0
-141.4060417949946 3.0062963137573373 -41.54513175671296 -177.5651996318493 0.0 0.0
-190.41786524591657 18.581649899378025 -51.77619398216922 -172.9025471970909 0.0 0.0
-254.0054491845384 22.143751996866754 -70.95723743600861 -170.38183319102814 0.0 0.0
-348.20320815881854 21.882512503698795 -107.71672460469141 -167.45325324159165 0.0 0.0
-464.21915149764595 14.598283208604034 -174.5657217777993 -154.71873037122197 0.0 0.0
-566.1489887587568 1.1130433670952726 -252.9449196076423 -145.07725591901334 0.0 0.0
-645.1797727518997 -12.063942425581061 -314.9255181334546 -142.49551712633158 0.0 0.0
-709.1393353029565 -24.228697522178706 -359.7713780182298 -140.78882212545545 0.0 0.0
-763.9248301969878 -35.381773716509386 -395.1851400671783 -137.99655624291796 0.0 0.0
-814.3086481712678 -47.60419329311921 -427.57020544262315 -134.3647252140397 0.0 0.0
-861.4079707159044 -60.59818003610414 -458.21102468323295 -130.55694582656253 0.0 0.0
-907.4886295083764 -76.50026104241641 -489.5441808405375 -127.87271257994824 0.0 0.0
-954.1189277221835 -97.00317519116362 -523.3463976552287 -127.881252773155 0.0 0.0
-1001.7527636672539 -123.1609673838228 -560.487095217689 -131.11623181964333 0.0 0.0
-1051.3201040379586 -156.6327518967202 -602.2492925634087 -136.41447118969322 0.0 0.0
-1105.0952923664927 -200.68280398269457 -651.3223675850176 -141.129941824705 0.0 0.0
-1177.4455301325652 -273.0464765933125 -723.5215661479824 -141.8727103954165 0.0 0.0
-1275.0683479616434 -396.97500409490425 -834.2608882157754 -142.1411483621541 0.0 0.0
-1275.0683479620066 -396.9750040954371 -834.2608882160528 142.14114836239509 0.0 0.0
-1177.445530132391 -273.04647659320483 -723.5215661479144 141.87271039556444 0.0 0.0
-1105.0952923671741 -200.6828039836442 -651.3223675855784 141.1299418250493 0.0 0.0
-1051.320104038065 -156.63275189701733 -602.2492925634637 136.414471189795 0.0 0.0
-1001.7527636662685 -123.16096738289804 -560.4870952170166 131.1162318195356 0.0 0.0
-954.118927722009 -97.00317519110148 -523.346397655107 127.88125277309231 0.0 0.0
-907.4886295078942 -76.50026104203026 -489.5441808402262 127.87271257989144 0.0 0.0
-861.4079707161317 -60.598180036617876 -458.2110246834519 130.55694582666854 0.0 0.0
-814.308648170959 -47.604193293057016 -427.5702054424071 134.36472521406023 0.0 0.0
-763.9248301974928 -35.381773717371985 -395.18514006748285 137.99655624301198 0.0 0.0
-709.1393353030774 -24.228697522640324 -359.77137801829144 140.7888221254364 0.0 0.0
-645.1797727515562 -12.063942425637034 -314.9255181332297 142.49551712641664 0.0 0.0
-566.1489887585567 1.113043366770265 -252.9449196074748 145.0772559191303 0.0 0.0
-464.21915149744314 14.59828320821655 -174.56572177764926 154.71873037127114 0.0 0.0
-348.20320815854177 21.882512503379623 -107.71672460461431 167.45325324148502 0.0 0.0
-254.00544918418547 22.14375199691671 -70.9572374358911 170.38183319089376 0.0 0.0
-190.41786524564372 18.58164989954061 -51.776193982049556 172.902547196938 0.0 0.0
-141.40604179494142 3.00629631368151 -41.54513175672501 177.5651996316152 0.0 0.0
-91.005969570217 -43.29427988654012 -40.28954780575163 170.72126659984966 0.0 0.0
-30.08290738081609 -131.20899346789585 -48.38757025461358 102.47145761323931 0.0 0.0
-31.045679645701732 -94.2092901789183 -37.576490947386 -86.50591861215383 0.0 0.0
-100.71809669796123 -36.861828128671604 -41.27397744798985 -154.610005493067 0.0 0.0
-167.91226332030075 2.555118244764575 -49.61717525362255 -163.97714302572228 0.0 0.0
-234.95731750990063 17.041981117216924 -65.57598024575071 -157.35982670196523 0.0 0.0
-317.1408331674036 24.145443642634127 -90.55973798401936 -150.15288947695637 0.0 0.0
-425.0544085976293 24.360011661660714 -140.3173632538946 -137.69423310030734 0.0 0.0
-534.5836150545973 14.11654256645594 -217.94867973810423 -124.3147759777725 0.0 0.0
-624.718124056435 -0.31846917332725866 -292.6759145318894 -120.94978887861089 0.0 0.0
-698.6628475421688 -15.309195712699378 -348.2209163495455 -121.81168207702467 0.0 0.0
-762.5864359418964 -29.758540856162995 -391.1780798449267 -121.64690693698508 0.0 0.0
-821.1115210629362 -45.06684824058277 -429.4965585105113 -119.62180315340242 0.0 0.0
-875.8360531969563 -61.39112082626178 -465.7380369643517 -116.47206481856865 0.0 0.0
-927.3834656593108 -78.29277292674604 -500.4229558679734 -112.96970880914539 0.0 0.0
-977.4814486690601 -97.02141256828685 -535.1023418721436 -110.24172143830579 0.0 0.0
-1029.4923852314955 -121.07742506967165 -573.2700352446242 -109.89288901517392 0.0 0.0
-1086.257617126208 -154.4388664251128 -618.4482214597301 -112.62871000152703 0.0 0.0
-1149.6896834766603 -199.06546378731102 -672.5993326940483 -117.32102631166127 0.0 0.0
-1222.4682385353367 -259.6562611777115 -739.3094908618693 -120.5484392080549 0.0 0.0
-1306.0186074320818 -342.3432660190136 -822.4029484118503 -120.17620987798699 0.0 0.0
-1391.3314819774282 -451.8181340683621 -919.9087463977849 -121.4112354259542 0.0 0.0
-1391.3314819772881 -451.8181340682827 -919.9087463976446 121.41123542609057 0.0 0.0
-1306.018607431246 -342.3432660183549 -822.4029484113164 120.17620987830344 0.0 0.0
-1222.4682385340534 -259.6562611765023 -739.3094908609958 120.54843920812198 0.0 0.0
-1149.689683477745 -199.0654637885108 -672.5993326948076 117.32102631171911 0.0 0.0
-1086.2576171266137 -154.43886642573298 -618.4482214600503 112.62871000168715 0.0 0.0
-1029.4923852306204 -121.07742506892697 -573.2700352440231 109.89288901517591 0.0 0.0
-977.4814486683052 -97.02141256773345 -535.1023418715788 110.24172143835733 0.0 0.0
-927.3834656595172 -78.2927729271468 -500.42295586815214 112.96970880914239 0.0 0.0
-875.836053196529 -61.39112082606947 -465.73803696404497 116.47206481860322 0.0 0.0
-821.1115210620513 -45.06684823993645 -429.4965585098901 119.62180315335215 0.0 0.0
-762.5864359408357 -29.758540855270052 -391.1780798441855 121.646906936826 0.0 0.0
-698.6628475413573 -15.309195712176638 -348.22091634902085 121.81168207698549 0.0 0.0
-624.7181240552592 -0.31846917239189665 -292.6759145310875 120.94978887851329 0.0 0.0
-534.5836150539319 14.116542566918085 -217.948679737511 124.31477597757129 0.0 0.0
-425.0544085971178 24.36001166171347 -140.31736325357764 137.69423310024777 0.0 0.0
-317.14083316718256 24.145443642296268 -90.55973798403433 150.15288947680932 0.0 0.0
-234.95731750981588 17.04198111707501 -65.5759802457699 157.3598267018414 0.0 0.0
-167.91226332014293 2.5551182449570615 -49.61717525352179 163.97714302546956 0.0 0.0
-100.71809669788703 -36.86182812867641 -41.27397744796903 154.61000549297307 0.0 0.0
-31.045679645674507 -94.20929017887612 -37.57649094736518 86.5059186120428 0.0 0.0
-31.84305275927065 -62.452932983132214 -28.288795722720856 -70.09499137797889 0.0 0.0
-109.52767682200043 -29.246569858546955 -41.63227400416421 -134.75228341440598 0.0 0.0
-192.8321829523033 1.9833969224113224 -57.252448703147095 -145.97140120980933 0.0 0.0
-276.7622496699255 15.005114509786424 -78.82818201151525 -137.49470139652564 0.0 0.0
-375.5721042942238 26.048758441702823 -110.55908721658793 -125.44074492132283 0.0 0.0
-487.88383535493927 24.166663615559308 -173.5492527561396 -107.17735165122254 0.0 0.0
-586.9100893361282 13.57087148090718 -254.11307187918857 -97.88810734330355 0.0 0.0
-668.9850904324364 -1.8232537660706356 -322.10921677723934 -98.69898022983077 0.0 0.0
-740.6073167625796 -17.5414204762491 -372.7703200544073 -101.31232279793184 0.0 0.0
-806.8503310907464 -35.1028886303377 -416.92480982996574 -101.97416323214792 0.0 0.0
-869.4043939594485 -54.524216928061264 -458.86300221604176 -100.49506527331836 0.0 0.0
-928.5910463127591 -75.148499112921 -499.3186563692732 -97.92410125806313 0.0 0.0
-984.7714282586157 -96.16823341726274 -538.3142551996025 -94.99733813127565 0.0 0.0
-1038.8447652804828 -118.2349360122133 -576.6236850354277 -92.25596872916252 0.0 0.0
-1095.3894222720967 -145.5473264900083 -618.6236299629963 -91.18101156497174 0.0 0.0
-1160.8486851345797 -185.3741771536016 -671.2772138371715 -92.97378484604417 0.0 0.0
-1237.9017074534959 -242.2071313553848 -738.2443167118738 -96.7371978156113 0.0 0.0
-1325.556833095328 -316.9101894641117 -819.4537484521302 -99.84726752879867 0.0 0.0
-1414.9185343834627 -405.6727739492133 -908.570583582662 -101.28711600863652 0.0 0.0
-1493.034822246001 -506.76445668758674 -998.3440258824437 -106.02785955265661 0.0 0.0
-1493.034822246457 -506.76445668804644 -998.3440258827891 106.02785955266394 0.0 0.0
-1414.918534383346 -405.67277394918426 -908.5705835826564 101.28711600877935 0.0 0.0
-1325.5568330950928 -316.9101894639399 -819.45374845183 99.84726752888852 0.0 0.0
-1237.9017074537546 -242.2071313557675 -738.2443167118704 96.7371978156784 0.0 0.0
-1160.8486851341643 -185.37417715331492 -671.2772138368372 92.97378484606327 0.0 0.0
-1095.3894222709803 -145.54732648902007 -618.623629962213 91.18101156497949 0.0 0.0
-1038.8447652802834 -118.23493601221453 -576.623685035356 92.2559687292027 0.0 0.0
-984.7714282580189 -96.1682334168273 -538.3142551991771 94.99733813122562 0.0 0.0
-928.5910463125381 -75.14849911289778 -499.3186563691701 97.92410125800498 0.0 0.0
-869.404393959554 -54.524216928359415 -458.8630022161062 100.49506527319608 0.0 0.0
-806.850331090416 -35.10288863031202 -416.92480982980607 101.9741632321695 0.0 0.0
-740.6073167626023 -17.541420476587753 -372.7703200544396 101.31232279789371 0.0 0.0
-668.9850904328459 -1.8232537668639424 -322.1092167774442 98.69898022986908 0.0 0.0
-586.9100893355325 13.570871481158797 -254.11307187871802 97.88810734330035 0.0 0.0
-487.883835354085 24.166663616116352 -173.5492527555382 107.17735165111328 0.0 0.0
-375.57210429372157 26.048758441822667 -110.55908721637019 125.44074492126907 0.0 0.0
-276.76224966972984 15.005114509844788 -78.82818201145007 137.4947013963004 0.0 0.0
-192.83218295233456 1.9833969221496766 -57.25244870323582 145.97140120957388 0.0 0.0
-109.52767682185791 -29.246569858449277 -41.63227400409215 134.75228341427788 0.0 0.0
-31.843052759312684 -62.45293298310219 -28.28879572272446 70.09499137789776 0.0 0.0
-32.40476876024005 -36.43229060902692 -20.65111781078009 -53.189669660455785 0.0 0.0
-117.34860543252464 -21.009874120864605 -41.50754386601677 -111.55116928738786 0.0 0.0
-216.41797918258592 1.195737073757666 -64.56591214855935 -123.51511149165218 0.0 0.0
-317.6175497946491 13.413321498181123 -91.66729689785653 -114.0153967353367 0.0 0.0
-430.07201054013245 26.519420320376895 -132.19342619789302 -97.0709146076779 0.0 0.0
-537.0894122586797 23.221175025671187 -204.99529259654736 -78.73543442677867 0.0 0.0
-625.3566754995459 12.046006736775709 -283.09580467689557 -74.23180129266996 0.0 0.0
-703.1654285090474 -2.0054229506387884 -343.2489535745155 -77.27456672163778 0.0 0.0
-775.4242207026559 -19.42653332516599 -392.4704301021858 -80.50739389615346 0.0 0.0
-844.6451116400766 -40.43067650246732 -439.04963390278994 -81.56900799311715 0.0 0.0
-911.0744036128841 -63.693224504443776 -484.61986689661285 -80.60962643060347 0.0 0.0
-974.921203873729 -88.63320043238033 -529.4692847886602 -78.68606706813186 0.0 0.0
-1036.025718773087 -114.29997617239704 -573.1876089342945 -76.42500875368826 0.0 0.0
-1095.290458460412 -140.77369187417835 -616.2853644663237 -73.9868601525594 0.0 0.0
-1155.9341110825897 -171.18365698868226 -661.8758851764117 -72.05839066072036 0.0 0.0
-1226.5357886961474 -215.2337295073975 -719.1246647142469 -72.20518518519395 0.0 0.0
-1315.3273012241543 -282.3310259904213 -797.0211306959203 -75.17002176568198 0.0 0.0
-1415.6183950659704 -369.0145796368888 -890.5596610034006 -79.42442469404226 0.0 0.0
-1513.377790667028 -466.31593913779386 -988.1836720857596 -84.27798568157574 0.0 0.0
-1590.12221177261 -565.2422932421143 -1076.2092690274274 -93.6777382637354 0.0 0.0
-1590.1222117728462 -565.2422932424358 -1076.2092690276174 93.67773826392909 0.0 0.0
-1513.377790667285 -466.3159391381468 -988.1836720859831 84.2779856817312 0.0 0.0
-1415.6183950661161 -369.0145796371419 -890.559661003629 79.42442469418168 0.0 0.0
-1315.3273012237996 -282.33102599014046 -797.0211306956785 75.17002176567514 0.0 0.0
-1226.5357886954534 -215.2337295068628 -719.1246647136625 72.2051851853304 0.0 0.0
-1155.934111082017 -171.18365698827608 -661.8758851759544 72.058390660782 0.0 0.0
-1095.2904584600635 -140.77369187402192 -616.2853644659635 73.98686015262797 0.0 0.0
-1036.0257187718535 -114.29997617136254 -573.1876089334361 76.42500875370456 0.0 0.0
-974.9212038729363 -88.63320043179436 -529.4692847880605 78.68606706805879 0.0 0.0
-911.0744036122137 -63.693224504000995 -484.61986689611376 80.60962643052719 0.0 0.0
-844.6451116383741 -40.430676501033815 -439.0496339016969 81.56900799314623 0.0 0.0
-775.4242207014138 -19.426533324195276 -392.4704301014091 80.50739389614654 0.0 0.0
-703.1654285079062 -2.00542294985614 -343.24895357374294 77.274566721778 0.0 0.0
-625.3566754987734 12.046006737169677 -283.09580467634 74.23180129272248 0.0 0.0
-537.0894122583426 23.221175025653505 -204.9952925962519 78.73543442675832 0.0 0.0
-430.0720105398134 26.51942032021711 -132.19342619775728 97.07091460762953 0.0 0.0
-317.6175497944556 13.41332149801016 -91.66729689786513 114.01539673526827 0.0 0.0
-216.41797918264362 1.1957370733383335 -64.56591214870335 123.51511149176392 0.0 0.0
-117.3486054324024 -21.009874120800024 -41.50754386596073 111.5511692873238 0.0 0.0
-32.40476876024446 -36.43229060893045 -20.651117810752467 53.18966966035757 0.0 0.0
-32.122478131442364 -16.611007629631672 -14.62004572832221 -35.910101651830225 0.0 0.0
-123.3776326073696 -12.635392881291743 -40.803907646598404 -85.23587406740793 0.0 0.0
-239.11348053874357 -0.009626356167298233 -71.73693206847325 -96.56127058521163 0.0 0.0
-358.3605426175751 13.246459754127809 -104.25183040665809 -86.80079735763616 0.0 0.0
-477.4079726553331 25.577313055897353 -155.35929678973423 -67.13829764653907 0.0 0.0
-575.4427326775648 21.122723434157983 -234.1135314793422 -53.53158054729514 0.0 0.0
-656.1750482671919 11.167692197214038 -305.7073045114913 -52.45471527331345 0.0 0.0
-731.0148901435291 -1.7200537229952744 -359.4295779952852 -55.865661428982676 0.0 0.0
-804.7101318728712 -21.38679334351218 -408.9197686932115 -59.14283987505281 0.0 0.0
-877.0518986743475 -45.55296183942403 -458.20920170393686 -60.43858028891676 0.0 0.0
-947.5810400574212 -72.6271703761258 -507.5948875577437 -59.96208316819541 0.0 0.0
-1015.9452720655942 -101.78183135880204 -556.7442870763806 -58.669976823789995 0.0 0.0
-1082.6234029272946 -132.3649047672102 -605.6529781061107 -57.16681039697512 0.0 0.0
-1147.8724817058064 -164.62560022516988 -654.608571769212 -55.236349933679875 0.0 0.0
-1213.59197262521 -199.7029844196614 -705.097689226606 -52.843478003390445 0.0 0.0
-1286.234429335374 -244.71416426158942 -763.8510313952204 -51.18101838135844 0.0 0.0
-1377.459161654242 -313.2793611036137 -843.5998102583587 -52.79977658648069 0.0 0.0
-1493.353634814781 -414.6593066385067 -952.2573894471819 -58.62604755558795 0.0 0.0
-1604.941853246971 -525.0704536974652 -1063.3948465125172 -67.94488153381903 0.0 0.0
-1690.9666998594498 -631.8284234421045 -1159.9849538736921 -82.95105217655897 0.0 0.0
-1690.9666998591597 -631.828423441852 -1159.9849538735425 82.95105217667007 0.0 0.0
-1604.941853246415 -525.0704536969772 -1063.3948465120948 67.94488153391447 0.0 0.0
-1493.3536348146317 -414.6593066384705 -952.2573894469933 58.62604755574692 0.0 0.0
-1377.4591616537427 -313.2793611032051 -843.5998102577689 52.79977658645649 0.0 0.0
-1286.2344293356 -244.71416426197572 -763.8510313952478 51.18101838147265 0.0 0.0
-1213.5919726250756 -199.7029844197031 -705.0976892264678 52.84347800347392 0.0 0.0
-1147.8724817049397 -164.62560022446922 -654.608571768555 55.236349933673196 0.0 0.0
-1082.6234029279717 -132.3649047680942 -605.6529781065649 57.16681039688834 0.0 0.0
-1015.945272065743 -101.78183135917118 -556.7442870765519 58.66997682376895 0.0 0.0
-947.581040056789 -72.62717037577309 -507.59488755732156 59.96208316827733 0.0 0.0
-877.0518986745469 -45.55296183993633 -458.20920170402934 60.438580288956175 0.0 0.0
-804.7101318732502 -21.386793344197585 -408.91976869342 59.14283987505303 0.0 0.0
-731.0148901427328 -1.7200537225234527 -359.4295779947855 55.86566142902729 0.0 0.0
-656.1750482666146 11.167692197468348 -305.707304511094 52.454715273271006 0.0 0.0
-575.4427326766952 21.122723434798264 -234.1135314786764 53.53158054717065 0.0 0.0
-477.40797265445764 25.577313056517546 -155.359296789197 67.13829764651467 0.0 0.0
-358.3605426171417 13.246459754324274 -104.25183040648662 86.80079735742328 0.0 0.0
-239.1134805383595 -0.009626355758706406 -71.73693206823546 96.56127058512196 0.0 0.0
-123.37763260713263 -12.635392880994974 -40.80390764643828 85.23587406733535 0.0 0.0
-32.122478131407675 -16.61100762959698 -14.620045728301394 35.91010165197113 0.0 0.0
-29.680086887832267 -3.3784768386096546 -9.917569117932576 -18.77265111228825 0.0 0.0
-125.89733833266403 -4.748889358248292 -39.193868307273696 -55.77003299639821 0.0 0.0
-261.36088492218147 -1.3956041739247276 -78.82694672883184 -64.6069609483307 0.0 0.0
-400.3526189001127 14.330573298244268 -117.55451541042922 -55.96118404924931 0.0 0.0
-516.2723602735057 24.174548442733123 -179.0593349514303 -38.70095294513556 0.0 0.0
-603.7122674200734 17.92951157194087 -259.58520035416433 -30.83342422254886 0.0 0.0
-680.2451811545743 11.574808620236965 -322.14423106606284 -31.502819143435108 0.0 0.0
-754.165881513868 -2.013215969476775 -372.68327670426515 -34.42076734022435 0.0 0.0
-829.0576470723777 -23.164465507277697 -422.54987603340123 -37.20058429316382 0.0 0.0
-904.7214807532271 -50.42698402333127 -474.7823063336681 -38.53811551709844 0.0 0.0
-979.4966079234634 -81.3448669099933 -528.1195990145181 -38.535884316560356 0.0 0.0
-1052.7827804602025 -114.58988125515293 -581.7205128405824 -37.89569575101668 0.0 0.0
-1124.9070763699424 -150.43500006273686 -635.9364943074343 -37.014933161907315 0.0 0.0
-1196.9821352804656 -188.93562102820897 -691.3865896456797 -35.7800642455318 0.0 0.0
-1269.69979446332 -230.70491503237287 -748.7323960910462 -33.7740218833674 0.0 0.0
-1344.4179680290895 -277.6333191535218 -809.5637258864117 -31.07487412991764 0.0 0.0
-1428.7245103974583 -338.6753229655687 -882.0956713371783 -30.23816120609652 0.0 0.0
-1539.47867456648 -433.49709102634995 -984.7114721400849 -36.08791102686558 0.0 0.0
-1697.981623146895 -588.5954938674812 -1141.6651411733462 -50.57168848559955 0.0 0.0
-1804.8748233299104 -713.8754275126364 -1258.014114570588 -72.85065087685233 0.0 0.0
-1804.8748233299928 -713.8754275127553 -1258.0141145706796 72.85065087692664 0.0 0.0
-1697.9816231466302 -588.5954938672688 -1141.6651411732407 50.57168848564652 0.0 0.0
-1539.4786745653691 -433.497091025303 -984.7114721393621 36.08791102681435 0.0 0.0
-1428.724510397226 -338.6753229654325 -882.0956713369613 30.238161206019676 0.0 0.0
-1344.417968028376 -277.63331915294617 -809.5637258858815 31.074874130035376 0.0 0.0
-1269.6997944622353 -230.70491503143862 -748.7323960902473 33.77402188337934 0.0 0.0
-1196.9821352800082 -188.93562102793499 -691.3865896453001 35.78006424559949 0.0 0.0
-1124.90707636968 -150.43500006268616 -635.936494307127 37.01493316193145 0.0 0.0
-1052.782780459469 -114.5898812546712 -581.7205128399307 37.89569575108357 0.0 0.0
-979.4966079225576 -81.34486690932856 -528.1195990138838 38.53588431651781 0.0 0.0
-904.7214807515898 -50.42698402195106 -474.7823063326256 38.538115517058785 0.0 0.0
-829.0576470714485 -23.164465506622292 -422.5498760327719 37.20058429315624 0.0 0.0
-754.1658815131418 -2.013215969045504 -372.683276703765 34.420767340138156 0.0 0.0
-680.2451811545659 11.574808619907373 -322.1442310659679 31.50281914334385 0.0 0.0
-603.7122674204493 17.92951157122429 -259.58520035426267 30.833424222331523 0.0 0.0
-516.2723602736693 24.174548442068122 -179.05933495147772 38.700952945114906 0.0 0.0
-400.35261890007587 14.330573297631123 -117.55451541059355 55.96118404924708 0.0 0.0
-261.36088492188026 -1.395604173917663 -78.82694672873939 64.6069609483734 0.0 0.0
-125.89733833256409 -4.748889358290863 -39.19386830725649 55.770032996295726 0.0 0.0
-29.680086887801444 -3.378476838559081 -9.917569117908158 18.772651112040585 0.0 0.0
-22.555748704635633 2.993039459611074 -5.8688127735073685 -3.0652718943518638 0.0 0.0
-121.748582825564 1.7740982167395654 -35.992345382647336 -22.570266219541672 0.0 0.0
-284.43113821306656 -2.3042124231324586 -86.02060519085968 -26.599902795555206 0.0 0.0
-440.4019893932299 16.479410065877936 -132.38340366761804 -22.459163829238086 0.0 0.0
-548.6852857830661 21.78686838168894 -203.23553147692547 -13.120770398505389 0.0 0.0
-628.175569286406 16.25584894196048 -280.54935798745817 -10.302963028655029 0.0 0.0
-700.0261953415566 11.292249699352823 -335.2842459466946 -10.964120299696368 0.0 0.0
-772.9769160030534 -2.3727923557590884 -383.29999016754266 -12.866041750294759 0.0 0.0
-849.2442612688308 -24.977056143752492 -433.99088042818863 -14.705719567638184 0.0 0.0
-928.1149531359545 -54.97922653605292 -489.00638384950526 -15.861129055955294 0.0 0.0
-1007.3697777045074 -89.61968497488289 -546.3609544936141 -16.31017361889536 0.0 0.0
-1085.6562027456512 -127.60830769548335 -604.7937313273651 -16.270779512910185 0.0 0.0
-1163.5094740889726 -168.3057825399581 -664.2650512086833 -16.03574228241807 0.0 0.0
-1242.2198480038094 -212.7740858899923 -725.9822695474314 -15.498963536365002 0.0 0.0
-1322.502824953271 -261.9009888189371 -790.775858638278 -14.386207884841099 0.0 0.0
-1403.4132215707725 -315.16645604858854 -857.9206317456886 -12.411072416919115 0.0 0.0
-1483.0370498318684 -371.60590160047917 -925.9412547052387 -10.007270339687812 0.0 0.0
-1567.8347431534362 -439.41061796305814 -1002.0709312322008 -11.696290928902407 0.0 0.0
-1692.7188813647315 -557.2268500024952 -1123.1469016161425 -27.662147549737234 0.0 0.0
-2008.7932314126042 -885.8874577253844 -1445.98838105623 -60.409035492486545 0.0 0.0
-2008.7932314112932 -885.8874577240849 -1445.9883810553101 60.409035492481664 0.0 0.0
-1692.7188813627686 -557.2268500005655 -1123.1469016146334 27.662147549759617 0.0 0.0
-1567.8347431529594 -439.4106179626656 -1002.0709312316884 11.69629092888766 0.0 0.0
-1483.0370498324462 -371.6059016011757 -925.941254705599 10.007270339713902 0.0 0.0
-1403.413221570407 -315.16645604837123 -857.9206317454132 12.411072417099193 0.0 0.0
-1322.5028249522284 -261.90098881803976 -790.7758586375435 14.386207884798829 0.0 0.0
-1242.219848004156 -212.77408589052783 -725.9822695475469 15.498963536260032 0.0 0.0
-1163.5094740887473 -168.30578253993494 -664.2650512085123 16.03574228238638 0.0 0.0
-1085.656202744669 -127.60830769472958 -604.7937313267046 16.270779512906106 0.0 0.0
-1007.3697777044458 -89.61968497509314 -546.3609544935459 16.310173618979036 0.0 0.0
-928.1149531359519 -54.979226536342566 -489.00638384942897 15.861129055949213 0.0 0.0
-849.2442612697025 -24.97705614493556 -433.9908804287369 14.705719567632034 0.0 0.0
-772.9769160028922 -2.3727923558909367 -383.299990167452 12.866041750064117 0.0 0.0
-700.0261953409937 11.29224969961831 -335.2842459463341 10.96412029974791 0.0 0.0
-628.1755692865372 16.255848941490676 -280.54935798746175 10.302963028657603 0.0 0.0
-548.6852857825033 21.786868381969402 -203.2355314764963 13.120770398452226 0.0 0.0
-440.40198939268595 16.479410066082835 -132.38340366736335 22.45916382915815 0.0 0.0
-284.43113821272016 -2.3042124230084173 -86.02060519071856 26.59990279541856 0.0 0.0
-121.74858282540109 1.774098216687392 -35.992345382614104 22.570266219507513 0.0 0.0
-22.555748704717235 2.993039459531877 -5.868812773555607 3.0652718944842365 0.0 0.0
SCALARS Strain float 6
LOOKUP_TABLE default
0.012739663564310187 -0.013808462524457998 0.0 -0.007683712002200249 0.0 0.0
0.002608193015866612 -0.0017258835387506943 0.0 0.0012925124493153861 0.0 0.0
0.0018723777007034932 -0.0007691556188187398 0.0 -3.588517224867305e-05 0.0 0.0
0.0024378275794585923 -0.0012206526892564185 0.0 -0.00023747538452412176 0.0 0.0
0.0039697545705285955 -0.0024926670907905457 0.0 -0.00031215071181700527 0.0 0.0
0.0071221603646016395 -0.005343682408225803 0.0 -0.0004935245309822811 0.0 0.0
0.012274254651606926 -0.010228947658305287 0.0 -0.0008062209185299429 0.0 0.0
0.019778471920913487 -0.01746186677720729 0.0 -0.0012957561299986597 0.0 0.0
0.029812244538754924 -0.027196834975376838 0.0 -0.0019800230915965056 0.0 0.0
0.04233632923863183 -0.03939382451135742 0.0 -0.0027988256315661375 0.0 0.0
0.057170704447671986 -0.05388493209198142 0.0 -0.003648049742804471 0.0 0.0
0.0740932235641183 -0.07045621816924497 0.0 -0.004473969541665235 0.0 0.0
0.09287756805906479 -0.0888840789232983 0.0 -0.005283001043891289 0.0 0.0
0.11325987948095985 -0.10890034503559676 0.0 -0.006064665802320457 0.0 0.0
0.1348204232285856 -0.13008194242119586 0.0 -0.006775927940757931 0.0 0.0
0.15685155805666467 -0.15172528092393867 0.0 -0.00727050808868035 0.0 0.0
0.17830501003906493 -0.17279509869674659 0.0 -0.007302537116363195 0.0 0.0
0.19783276558151622 -0.19195620534069668 0.0 -0.006662702306382551 0.0 0.0
0.21383188965224717 -0.20760466532320887 0.0 -0.005741991520803458 0.0 0.0
0.2239097739542899 -0.2171224402231351 0.0 -0.006903069336190781 0.0 0.0
0.2239097739542757 -0.21712244022312177 0.0 0.0069030693362014395 0.0 0.0
0.2138318896522011 -0.2076046653231609 0.0 0.00574199152082977 0.0 0.0
0.1978327655814378 -0.19195620534062385 0.0 0.00666270230639554 0.0 0.0
0.1783050100389678 -0.17279509869665022 0.0 0.007302537116370744 0.0 0.0
0.1568515580565576 -0.15172528092383608 0.0 0.007270508088671024 0.0 0.0
0.1348204232284771 -0.13008194242108528 0.0 0.006775927940755544 0.0 0.0
0.11325987948085048 -0.10890034503548884 0.0 0.006064665802320124 0.0 0.0
0.09287756805895775 -0.08888407892319483 0.0 0.005283001043888347 0.0 0.0
0.0740932235640146 -0.07045621816914682 0.0 0.004473969541656464 0.0 0.0
0.057170704447581266 -0.05388493209188949 0.0 0.0036480497427983094 0.0 0.0
0.042336329238555126 -0.03939382451128015 0.0 0.0027988256315589766 0.0 0.0
0.0298122445386953 -0.02719683497532044 0.0 0.001980023091594618 0.0 0.0
0.019778471920869678 -0.01746186677716466 0.0 0.001295756129996939 0.0 0.0
0.012274254651576444 -0.01022894765827842 0.0 0.0008062209185260572 0.0 0.0
0.007122160364583741 -0.00534368240821026 0.0 0.0004935245309817815 0.0 0.0
0.003969754570520512 -0.0024926670907854387 0.0 0.00031215071181500686 0.0 0.0
0.002437827579456542 -0.0012206526892559744 0.0 0.00023747538452167927 0.0 0.0
0.0018723777007029763 -0.0007691556188175186 0.0 3.588517224689669e-05 0.0 0.0
0.002608193015864957 -0.0017258835387481408 0.0 -0.0012925124493129436 0.0 0.0
0.012739663564298842 -0.013808462524444074 0.0 0.0076837120021646665 0.0 0.0
0.00912390129044685 -0.010570918739793711 0.0 -0.009349027501693252 0.0 0.0
0.0013996257697161812 -0.0008647669726264962 0.0 0.0001232274475111983 0.0 0.0
0.0015952244856449055 -0.0005610017783881371 0.0 -0.0001259961008997501 0.0 0.0
0.002123645639910396 -0.001006876846586957 0.0 -0.0005004006075204348 0.0 0.0
0.0033490492642599262 -0.0019731481292253328 0.0 -0.0006923358876618213 0.0 0.0
0.00605514952467863 -0.004364450229122463 0.0 -0.00113563908494263 0.0 0.0
0.010655191691724825 -0.008676088797215264 0.0 -0.001917987463788906 0.0 0.0
0.01744458386818743 -0.015187583752588996 0.0 -0.0030714599385092134 0.0 0.0
0.026536443022706704 -0.023987838539004436 0.0 -0.004601374063585073 0.0 0.0
0.03784167145705962 -0.03498352114453507 0.0 -0.006366273183427196 0.0 0.0
0.05116695917547462 -0.04799068970150122 0.0 -0.008168650903878527 0.0 0.0
0.06632304040040196 -0.06282476212764143 0.0 -0.009897072063758228 0.0 0.0
0.08314779415335985 -0.07932183727905251 0.0 -0.01160606210536852 0.0 0.0
0.10142993497427974 -0.09726854106206151 0.0 -0.013299265740592758 0.0 0.0
0.12081064354953892 -0.11630513126564779 0.0 -0.014849551044617326 0.0 0.0
0.14069206271319032 -0.1358358217238731 0.0 -0.015969172684287325 0.0 0.0
0.1601708511759124 -0.15496197151307012 0.0 -0.016193533660651016 0.0 0.0
0.17800693109605273 -0.17244438680774987 0.0 -0.015217645560213211 0.0 0.0
0.19247925074322075 -0.1865178469445885 0.0 -0.01338187920533973 0.0 0.0
0.20121006414097392 -0.19494267119330289 0.0 -0.010501583046930052 0.0 0.0
0.20121006414096018 -0.19494267119329312 0.0 0.01050158304695381 0.0 0.0
0.1924792507431781 -0.1865178469445441 0.0 0.013381879205385139 0.0 0.0
0.17800693109598395 -0.1724443868076806 0.0 0.015217645560242188 0.0 0.0
0.1601708511758283 -0.15496197151298752 0.0 0.01619353366066678 0.0 0.0
0.1406920627130957 -0.13583582172378117 0.0 0.015969172684279664 0.0 0.0
0.12081064354944138 -0.11630513126555408 0.0 0.014849551044611276 0.0 0.0
0.10142993497418096 -0.0972685410619647 0.0 0.013299265740587929 0.0 0.0
0.08314779415326407 -0.07932183727895747 0.0 0.011606062105362636 0.0 0.0
0.06632304040031001 -0.06282476212755439 0.0 0.00989707206374546 0.0 0.0
0.05116695917539327 -0.04799068970142173 0.0 0.008168650903866315 0.0 0.0
0.03784167145699063 -0.03498352114446668 0.0 0.006366273183410653 0.0 0.0
0.026536443022652956 -0.02398783853895292 0.0 0.004601374063579411 0.0 0.0
0.017444583868147123 -0.01518758375255258 0.0 0.0030714599385031627 0.0 0.0
0.010655191691697985 -0.008676088797190173 0.0 0.0019179874637823557 0.0 0.0
0.00605514952466335 -0.004364450229108252 0.0 0.0011356390849410203 0.0 0.0
0.0033490492642534453 -0.0019731481292226682 0.0 0.0006923358876591013 0.0 0.0
0.0021236456399090775 -0.0010068768465880673 0.0 0.000500400607518825 0.0 0.0
0.0015952244856445863 -0.0005610017783871379 0.0 0.00012599610090030522 0.0 0.0
0.0013996257697165837 -0.0008647669726238316 0.0 -0.00012322744751308568 0.0 0.0
0.009123901290432779 -0.010570918739777939 0.0 0.009349027501664331 0.0 0.0
0.00679757119624063 -0.00842156817411882 0.0 -0.00869343355132901 0.0 0.0
0.0008184053008330125 -0.0005684639493113153 0.0 -0.0005974930328084826 0.0 0.0
0.0012763663714756013 -0.0004098123443925239 0.0 -0.000442192588933743 0.0 0.0
0.0018278445161594506 -0.0008119008759022162 0.0 -0.0007452711001936785 0.0 0.0
0.00279652154209252 -0.0015379742168086796 0.0 -0.0010118445045040891 0.0 0.0
0.005032509483794127 -0.0034486066405881033 0.0 -0.0016082985228210167 0.0 0.0
0.00904988293826467 -0.007149506948757489 0.0 -0.0027395188451735386 0.0 0.0
0.015083406010538855 -0.01289998845324547 0.0 -0.004431409453921564 0.0 0.0
0.023196000554874065 -0.020726827011255278 0.0 -0.006624167887789023 0.0 0.0
0.033258029144535024 -0.030497877621467495 0.0 -0.009115976170323725 0.0 0.0
0.045068037254296735 -0.04201466846035107 0.0 -0.011659048733724253 0.0 0.0
0.058459364928134055 -0.05511138262361159 0.0 -0.014110918020124541 0.0 0.0
0.07330998886994597 -0.06966377871998342 0.0 -0.016514336125091733 0.0 0.0
0.08946956897017094 -0.0855199608410202 0.0 -0.01890938268789788 0.0 0.0
0.10665930093573536 -0.10240157429496266 0.0 -0.021141646113093382 0.0 0.0
0.12439895906122492 -0.11982734855424271 0.0 -0.022802373283928812 0.0 0.0
0.14192924775237875 -0.13703427533151125 0.0 -0.02333278934967775 0.0 0.0
0.15809483864618065 -0.15285286993902947 0.0 -0.0222874610043714 0.0 0.0
0.17121933644300424 -0.16563790078864038 0.0 -0.019180157091912786 0.0 0.0
0.17939473920544413 -0.17356618506642807 0.0 -0.013022347652529187 0.0 0.0
0.1793947392054315 -0.1735661850664112 0.0 0.013022347652571264 0.0 0.0
0.1712193364429651 -0.16563790078859952 0.0 0.019180157091975625 0.0 0.0
0.15809483864612042 -0.15285286993897085 0.0 0.022287461004413478 0.0 0.0
0.14192924775230578 -0.13703427533143708 0.0 0.023332789349697403 0.0 0.0
0.12439895906114162 -0.11982734855416144 0.0 0.022802373283918875 0.0 0.0
0.1066593009356489 -0.10240157429487651 0.0 0.021141646113085888 0.0 0.0
0.08946956897008324 -0.08551996084093494 0.0 0.018909382687893217 0.0 0.0
0.0733099888698614 -0.06966377871990259 0.0 0.016514336125083684 0.0 0.0
0.05845936492805415 -0.055111382623532545 0.0 0.014110918020108887 0.0 0.0
0.04506803725422476 -0.04201466846028046 0.0 0.011659048733708044 0.0 0.0
0.0332580291444739 -0.030497877621409764 0.0 0.009115976170301687 0.0 0.0
0.023196000554826457 -0.020726827011206872 0.0 0.006624167887775201 0.0 0.0
0.015083406010502953 -0.01289998845321283 0.0 0.00443140945391074 0.0 0.0
0.009049882938241272 -0.007149506948738615 0.0 0.002739518845165989 0.0 0.0
0.005032509483781755 -0.0034486066405783333 0.0 0.0016082985228157987 0.0 0.0
0.0027965215420874268 -0.0015379742168046828 0.0 0.0010118445045027569 0.0 0.0
0.0018278445161590273 -0.0008119008759022162 0.0 0.0007452711001941781 0.0 0.0
0.0012763663714754347 -0.0004098123443936341 0.0 0.00044219258893529734 0.0 0.0
0.0008184053008331027 -0.0005684639493112043 0.0 0.0005974930328064842 0.0 0.0
0.0067975711962276475 -0.00842156817410402 0.0 0.008693433551305751 0.0 0.0
0.005159155410077873 -0.00679788588804614 0.0 -0.007402204650645505 0.0 0.0
0.000511433181446419 -0.0004228971030597606 0.0 -0.001202276594390872 0.0 0.0
0.0009887799657953555 -0.00029953581329456025 0.0 -0.0008691722147307068 0.0 0.0
0.0015435706830825568 -0.0006451928262425355 0.0 -0.0010176631303309702 0.0 0.0
0.0023094640957057183 -0.001186523775712267 0.0 -0.0012973356814590664 0.0 0.0
0.004089549847656415 -0.002635782410568499 0.0 -0.0019398277869223657 0.0 0.0
0.007473638982886527 -0.005679788309811862 0.0 -0.003281308599502264 0.0 0.0
0.012723533916778565 -0.010627487838899441 0.0 -0.005369863683729881 0.0 0.0
0.0198249901793926 -0.017451051974833653 0.0 -0.008039596162693174 0.0 0.0
0.028623771310671314 -0.025976554060803014 0.0 -0.011052906688031494 0.0 0.0
0.038909583302154244 -0.03599304318273333 0.0 -0.014120685289338186 0.0 0.0
0.05053194914113131 -0.04734757597133887 0.0 -0.01709858370652645 0.0 0.0
0.0634046105424779 -0.059951870945761154 0.0 -0.020032471503110993 0.0 0.0
0.07742917179588338 -0.07370481544288365 0.0 -0.0229179102263532 0.0 0.0
0.09240785788919532 -0.08841155151744884 0.0 -0.025610538876912614 0.0 0.0
0.10798544487456326 -0.10371283756893446 0.0 -0.027734630411996586 0.0 0.0
0.12354776556874421 -0.11898148222302662 0.0 -0.028659003284256634 0.0 0.0
0.13808134503459488 -0.13320207163903142 0.0 -0.027622266636343706 0.0 0.0
0.15013244234815107 -0.14495212689964632 0.0 -0.023539338134342058 0.0 0.0
0.15808210476450676 -0.1526791914320036 0.0 -0.015070605208634125 0.0 0.0
0.15808210476449477 -0.1526791914319885 0.0 0.015070605208688415 0.0 0.0
0.1501324423481154 -0.14495212689961523 0.0 0.02353933813441411 0.0 0.0
0.13808134503454217 -0.133202071638987 0.0 0.027622266636394333 0.0 0.0
0.12354776556868113 -0.11898148222296179 0.0 0.028659003284281503 0.0 0.0
0.10798544487449097 -0.10371283756886163 0.0 0.027734630411988093 0.0 0.0
0.09240785788911962 -0.08841155151737334 0.0 0.025610538876904565 0.0 0.0
0.07742917179580727 -0.07370481544280194 0.0 0.022917910226345595 0.0 0.0
0.06340461054240465 -0.05995187094568788 0.0 0.020032471503100835 0.0 0.0
0.05053194914106207 -0.04734757597126826 0.0 0.01709858370650641 0.0 0.0
0.03890958330209232 -0.03599304318267027 0.0 0.014120685289316426 0.0 0.0
0.028623771310618218 -0.025976554060747503 0.0 0.011052906688005848 0.0 0.0
0.019824990179350632 -0.017451051974792797 0.0 0.008039596162676466 0.0 0.0
0.012723533916747631 -0.010627487838870575 0.0 0.005369863683715781 0.0 0.0
0.007473638982866904 -0.00567978830979432 0.0 0.00328130859949316 0.0 0.0
0.004089549847646423 -0.002635782410558951 0.0 0.0019398277869174252 0.0 0.0
0.0023094640957021517 -0.0011865237757098246 0.0 0.0012973356814563464 0.0 0.0
0.0015435706830821405 -0.0006451928262428686 0.0 0.0010176631303282502 0.0 0.0
0.0009887799657954388 -0.00029953581329411616 0.0 0.0008691722147279868 0.0 0.0
0.000511433181446308 -0.0004228971030578732 0.0 0.0012022765943890956 0.0 0.0
0.005159155410066618 -0.006797885888033706 0.0 0.007402204650625133 0.0 0.0
0.003904849461664195 -0.005472563195409563 0.0 -0.006070850009521789 0.0 0.0
0.0003410442100318378 -0.00034045751064926133 0.0 -0.0016734427773667515 0.0 0.0
0.0007495120755015572 -0.00022123608444679643 0.0 -0.0012998784180304201 0.0 0.0
0.0012700064366667901 -0.0005044602585275726 0.0 -0.001320807368663135 0.0 0.0
0.0018812576127962832 -0.0009083443953104009 0.0 -0.0015641738861417176 0.0 0.0
0.003243566832059508 -0.0019473683441866285 0.0 -0.0021911708210993197 0.0 0.0
0.005970178575195495 -0.004310337406538078 0.0 -0.003565424099489123 0.0 0.0
0.010387170469967982 -0.00840192613375379 0.0 -0.0058464693309578375 0.0 0.0
0.016457077410680282 -0.01419570473759002 0.0 -0.008841048384642558 0.0 0.0
0.023975041301563624 -0.021457695042186753 0.0 -0.012174184219641837 0.0 0.0
0.032728356979443624 -0.029964241486616583 0.0 -0.015563473297830921 0.0 0.0
0.04257698652135089 -0.039572184768850605 0.0 -0.01885873293995749 0.0 0.0
0.05346715808632797 -0.050223569162558324 0.0 -0.022108183202477982 0.0 0.0
0.06535233209481721 -0.06186980051045987 0.0 -0.025318731081471868 0.0 0.0
0.07810606693585627 -0.07438575273549475 0.0 -0.028307405387866136 0.0 0.0
0.09147801146423488 -0.08751783284907866 0.0 -0.03072329909560545 0.0 0.0
0.10501936479327953 -0.1008067999462412 0.0 -0.032007157584995394 0.0 0.0
0.11795631087883804 -0.11347085946717428 0.0 -0.031178237066500802 0.0 0.0
0.12910390226130453 -0.12434737102582627 0.0 -0.026660563008152116 0.0 0.0
0.137039888000232 -0.13206684704881333 0.0 -0.01679584222963859 0.0 0.0
0.13703988800022088 -0.1320668470488009 0.0 0.0167958422296961 0.0 0.0
0.12910390226127297 -0.12434737102579785 0.0 0.026660563008227278 0.0 0.0
0.11795631087879302 -0.11347085946712898 0.0 0.031178237066557535 0.0 0.0
0.10501936479322588 -0.10080679994619146 0.0 0.032007157585024926 0.0 0.0
0.09147801146417295 -0.0875178328490196 0.0 0.030723299095596124 0.0 0.0
0.07810606693579131 -0.07438575273542858 0.0 0.028307405387855145 0.0 0.0
0.06535233209475297 -0.061869800510402584 0.0 0.025318731081460433 0.0 0.0
0.05346715808626609 -0.050223569162501924 0.0 0.022108183202466547 0.0 0.0
0.042576986521292604 -0.03957218476879554 0.0 0.018858732939936895 0.0 0.0
0.032728356979391304 -0.029964241486567733 0.0 0.015563473297806163 0.0 0.0
0.023975041301518896 -0.02145769504214723 0.0 0.01217418421961114 0.0 0.0
0.01645707741064456 -0.014195704737553605 0.0 0.008841048384625405 0.0 0.0
0.01038717046994203 -0.00840192613372337 0.0 0.00584646933094346 0.0 0.0
0.005970178575179341 -0.004310337406522313 0.0 0.003565424099478909 0.0 0.0
0.0032435668320519584 -0.0019473683441815215 0.0 0.002191170821093047 0.0 0.0
0.0018812576127939518 -0.0009083443953092907 0.0 0.0015641738861404408 0.0 0.0
0.00127000643666636 -0.0005044602585264624 0.0 0.0013208073686606925 0.0 0.0
0.0007495120755014462 -0.00022123608444746257 0.0 0.001299878418027145 0.0 0.0
0.0003410442100318378 -0.00034045751064787355 0.0 0.001673442777363976 0.0 0.0
0.0039048494616544804 -0.005472563195398633 0.0 0.006070850009506135 0.0 0.0
0.00291199719257762 -0.004360618291015694 0.0 -0.0049000042470105365 0.0 0.0
0.00023827764842566934 -0.00028542186398783365 0.0 -0.0020252494280321165 0.0 0.0
0.0005499669797996154 -0.00016222734905280145 0.0 -0.0016786361180592402 0.0 0.0
0.0010035296783800357 -0.0003812777812364221 0.0 -0.0016280526280857965 0.0 0.0
0.00150232627154899 -0.0006879649507653962 0.0 -0.0018252655845588106 0.0 0.0
0.002492094051171262 -0.0013893916353402425 0.0 -0.002392861966184212 0.0 0.0
0.004583730080979301 -0.0030982546210154283 0.0 -0.003700526852495001 0.0 0.0
0.008120704975756829 -0.006285095927338613 0.0 -0.005938897626013351 0.0 0.0
0.013122231563350115 -0.010997978605376879 0.0 -0.009000886888414106 0.0 0.0
0.019347865693499305 -0.016980566958146426 0.0 -0.012468612601258866 0.0 0.0
0.026560230169529367 -0.023968900897402445 0.0 -0.015971336295523775 0.0 0.0
0.03463316187971391 -0.03182693515701862 0.0 -0.019381358416297456 0.0 0.0
0.04353897130664888 -0.04052406213081383 0.0 -0.022748492207816662 0.0 0.0
0.0532780253624284 -0.05005708336948533 0.0 -0.026065435161060413 0.0 0.0
0.06379453343491914 -0.060367635250577756 0.0 -0.0291758943102427 0.0 0.0
0.07492087002786696 -0.07129115857669976 0.0 -0.031758740256699336 0.0 0.0
0.08636927977887887 -0.08253421581743225 0.0 -0.03329789669313299 0.0 0.0
0.09767168601022555 -0.09361231268081394 0.0 -0.03284133765614072 0.0 0.0
0.10798707787641249 -0.10368495466187522 0.0 -0.028532060153421357 0.0 0.0
0.11606114857202537 -0.11153567651358642 0.0 -0.018240658637713736 0.0 0.0
0.11606114857201541 -0.1115356765135731 0.0 0.018240658637771356 0.0 0.0
0.107987077876386 -0.10368495466184147 0.0 0.028532060153498295 0.0 0.0
0.0976716860101878 -0.09361231268077397 0.0 0.03284133765619757 0.0 0.0
0.08636927977883391 -0.08253421581738873 0.0 0.033297896693157636 0.0 0.0
0.07492087002781503 -0.07129115857664914 0.0 0.03175874025669012 0.0 0.0
0.06379453343486513 -0.0603676352505258 0.0 0.029175894310227046 0.0 0.0
0.053278025362376 -0.050057083369435595 0.0 0.026065435161047312 0.0 0.0
0.04353897130659928 -0.040524062130770755 0.0 0.022748492207805615 0.0 0.0
0.034633161879666835 -0.031826935156975544 0.0 0.019381358416275196 0.0 0.0
0.026560230169485777 -0.02396890089735626 0.0 0.01597133629549652 0.0 0.0
0.019347865693462918 -0.016980566958112675 0.0 0.012468612601225892 0.0 0.0
0.013122231563321485 -0.010997978605350234 0.0 0.009000886888393622 0.0 0.0
0.00812070497573636 -0.006285095927317519 0.0 0.005938897625997475 0.0 0.0
0.004583730080966936 -0.0030982546210072126 0.0 0.003700526852486674 0.0 0.0
0.0024920940511659884 -0.0013893916353378 0.0 0.0023928619661793826 0.0 0.0
0.0015023262715475327 -0.000687964950764286 0.0 0.0018252655845567012 0.0 0.0
0.0010035296783796055 -0.0003812777812365331 0.0 0.0016280526280841867 0.0 0.0
0.0005499669797994489 -0.00016222734905380065 0.0 0.001678636118056076 0.0 0.0
0.00023827764842554444 -0.0002854218639865569 0.0 0.0020252494280310063 0.0 0.0
0.002911997192569904 -0.0043606182910066234 0.0 0.004900004247000267 0.0 0.0
0.002120601845754466 -0.0034198551348254003 0.0 -0.003927432019967092 0.0 0.0
0.00016743240005183402 -0.0002446715246945397 0.0 -0.002272893597473291 0.0 0.0
0.00037602092263874787 -0.00011211103959640756 0.0 -0.0019827438813437848 0.0 0.0
0.0007415630567781939 -0.0002654818350338317 0.0 -0.0019129567745357345 0.0 0.0
0.001153102757584984 -0.0005058782015838759 0.0 -0.002085470544805179 0.0 0.0
0.0018368326103380822 -0.0009494231667075415 0.0 -0.002549713561934508 0.0 0.0
0.0033262134646546565 -0.002068420085627576 0.0 -0.003686038634380717 0.0 0.0
0.005986259686523374 -0.004348372546743917 0.0 -0.005722013830616823 0.0 0.0
0.009870713998964331 -0.007926060992311523 0.0 -0.008569462787498483 0.0 0.0
0.01477673843432839 -0.012589496161556912 0.0 -0.011904170683738835 0.0 0.0
0.020440184746999893 -0.01804946771266369 0.0 -0.015331008151885483 0.0 0.0
0.02673907862368835 -0.024157726638582844 0.0 -0.018653180580295414 0.0 0.0
0.033662005785197124 -0.03090197587409138 0.0 -0.02191998060154876 0.0 0.0
0.04124980714224377 -0.03831748938348323 0.0 -0.0251545640041847 0.0 0.0
0.049511616332040626 -0.046407640230188285 0.0 -0.028205998938981236 0.0 0.0
0.05836290229031066 -0.055086163098233776 0.0 -0.030756762689774786 0.0 0.0
0.0676377511637446 -0.06420390280684796 0.0 -0.032432463269659983 0.0 0.0
0.07718458591527791 -0.07358832225624212 0.0 -0.03250441842909202 0.0 0.0
0.08661740186564393 -0.082814901652565 0.0 -0.029053776964938494 0.0 0.0
0.09492624801919086 -0.09088223513793459 0.0 -0.019389351576772795 0.0 0.0
0.09492624801918295 -0.0908822351379257 0.0 0.019389351576830416 0.0 0.0
0.0866174018656233 -0.08281490165253924 0.0 0.029053776965016764 0.0 0.0
0.07718458591524635 -0.07358832225621281 0.0 0.03250441842914753 0.0 0.0
0.06763775116370893 -0.06420390280681332 0.0 0.03243246326968374 0.0 0.0
0.058362902290269025 -0.05508616309819159 0.0 0.030756762689762573 0.0 0.0
0.049511616331997715 -0.0464076402301421 0.0 0.02820599893896303 0.0 0.0
0.041249807142203804 -0.03831748938344459 0.0 0.025154564004172486 0.0 0.0
0.03366200578515963 -0.030901975874058518 0.0 0.021919980601539324 0.0 0.0
0.0267390786236521 -0.024157726638551313 0.0 0.018653180580276096 0.0 0.0
0.020440184746965295 -0.01804946771262994 0.0 0.015331008151859615 0.0 0.0
0.014776738434300857 -0.012589496161528047 0.0 0.01190417068370797 0.0 0.0
0.009870713998942765 -0.007926060992284878 0.0 0.008569462787483162 0.0 0.0
0.005986259686508261 -0.004348372546724821 0.0 0.00572201383060561 0.0 0.0
0.0033262134646457886 -0.0020684200856169177 0.0 0.003686038634373834 0.0 0.0
0.0018368326103345434 -0.0009494231667019903 0.0 0.0025497135619294564 0.0 0.0
0.0011531027575838737 -0.0005058782015803232 0.0 0.0020854705448025146 0.0 0.0
0.0007415630567778608 -0.0002654818350307231 0.0 0.001912956774532626 0.0 0.0
0.00037602092263863685 -0.00011211103959529733 0.0 0.0019827438813411202 0.0 0.0
0.00016743240005170912 -0.00024467152469481723 0.0 0.0022728935974721254 0.0 0.0
0.0021206018457485543 -0.0034198551348189575 0.0 0.003927432019958987 0.0 0.0
0.001501085983864725 -0.0026389926838185085 0.0 -0.0031569118742947877 0.0 0.0
0.00010426415532682753 -0.00021037790498990017 0.0 -0.0024200200902893543 0.0 0.0
0.00021573444448758083 -6.291923247003783e-05 0.0 -0.002211572527496042 0.0 0.0
0.00048446141890615135 -0.00015150554698228902 0.0 -0.0021509168325567485 0.0 0.0
0.0008109768832482711 -0.0003410394352945101 0.0 -0.002326912112952384 0.0 0.0
0.0012669666549162684 -0.000614792180813728 0.0 -0.0027192170694217976 0.0 0.0
0.0022126990499029553 -0.0012460600714967462 0.0 -0.00359357397126131 0.0 0.0
0.004020357977434247 -0.0026580685991763886 0.0 -0.005242636364952036 0.0 0.0
0.006771285725354487 -0.005072463508252412 0.0 -0.007642194327133867 0.0 0.0
0.01031263612736849 -0.008362069900617275 0.0 -0.010532465535913804 0.0 0.0
0.014407817172214232 -0.012263659409278205 0.0 -0.013600075929100508 0.0 0.0
0.018931554380886145 -0.016619824024266094 0.0 -0.016624665251345427 0.0 0.0
0.023877742664527968 -0.02141555757252478 0.0 -0.019600899308156894 0.0 0.0
0.029309480273163047 -0.026709146863824085 0.0 -0.022538390971461042 0.0 0.0
0.03529734282274158 -0.032561906358674175 0.0 -0.025351280504452123 0.0 0.0
0.04184878228582667 -0.03897260071859954 0.0 -0.027742503569961996 0.0 0.0
0.04889253666348148 -0.04588745955285667 0.0 -0.02932820320648244 0.0 0.0
0.056483161039727114 -0.05338921251576245 0.0 -0.029855319548767967 0.0 0.0
0.06481291988551272 -0.06158251601983533 0.0 -0.027913536217732404 0.0 0.0
0.07337201325649675 -0.06987634028709255 0.0 -0.02015775145008314 0.0 0.0
0.0733720132564912 -0.06987634028708811 0.0 0.02015775145013321 0.0 0.0
0.06481291988549795 -0.061582516019814015 0.0 0.027913536217805235 0.0 0.0
0.056483161039702356 -0.053389212515736695 0.0 0.029855319548817705 0.0 0.0
0.04889253666345508 -0.04588745955283002 0.0 0.029328203206501313 0.0 0.0
0.04184878228579597 -0.038972600718576 0.0 0.027742503569947563 0.0 0.0
0.03529734282271052 -0.03256190635864664 0.0 0.025351280504437357 0.0 0.0
0.029309480273135957 -0.026709146863797883 0.0 0.022538390971450384 0.0 0.0
0.023877742664502183 -0.021415557572498134 0.0 0.019600899308148234 0.0 0.0
0.018931554380860943 -0.016619824024242114 0.0 0.016624665251326443 0.0 0.0
0.01440781717219003 -0.012263659409260885 0.0 0.013600075929081523 0.0 0.0
0.010312636127349423 -0.008362069900597291 0.0 0.010532465535891267 0.0 0.0
0.006771285725339776 -0.005072463508239533 0.0 0.007642194327119767 0.0 0.0
0.004020357977424033 -0.0026580685991708375 0.0 0.005242636364939934 0.0 0.0
0.002212699049897432 -0.0012460600714927494 0.0 0.0035935739712535386 0.0 0.0
0.0012669666549140202 -0.0006147921808119516 0.0 0.0027192170694173012 0.0 0.0
0.0008109768832475772 -0.0003410394352965085 0.0 0.0023269121129506076 0.0 0.0
0.0004844614189060126 -0.00015150554698550867 0.0 0.002150916832556138 0.0 0.0
0.00021573444448752532 -6.291923246914966e-05 0.0 0.0022115725274944875 0.0 0.0
0.00010426415532657773 -0.0002103779049876242 0.0 0.0024200200902886326 0.0 0.0
0.0015010859838607282 -0.002638992683813143 0.0 0.003156911874288404 0.0 0.0
0.0010391408360906906 -0.002020688192260811 0.0 -0.0025831923990525807 0.0 0.0
3.287211486172059e-05 -0.00018033919025040035 0.0 -0.0024919884293911343 0.0 0.0
6.128640208358238e-05 -8.431895106353338e-06 0.0 -0.002369002288029609 0.0 0.0
0.00023385490352564875 -3.990345625726199e-05 0.0 -0.0023326088411947388 0.0 0.0
0.0004623497947190691 -0.00017576346279746247 0.0 -0.0025207463763665117 0.0 0.0
0.0007458580169016349 -0.0003463628349693604 0.0 -0.002901947002194649 0.0 0.0
0.0012535887757955666 -0.0006374621539679826 0.0 -0.0035173897686185396 0.0 0.0
0.0022555277973012045 -0.0012964213149788684 0.0 -0.004612272924820304 0.0 0.0
0.003883186451142606 -0.0025621338247510117 0.0 -0.006306624653918402 0.0 0.0
0.0060247149622227325 -0.004430987020043631 0.0 -0.00845461469362252 0.0 0.0
0.00851806196728322 -0.006725539828606575 0.0 -0.010854505963713068 0.0 0.0
0.011247530026469998 -0.009305574334447453 0.0 -0.013324731331724071 0.0 0.0
0.014219525704782937 -0.012151458632384315 0.0 -0.015826089675224475 0.0 0.0
0.01749826375277369 -0.015323574039033616 0.0 -0.018305606237079664 0.0 0.0
0.021185682983755533 -0.0189154921889787 0.0 -0.020717781020100468 0.0 0.0
0.02539483358847966 -0.023025045059940297 0.0 -0.02288523805498599 0.0 0.0
0.030191686743148816 -0.027706972581512446 0.0 -0.024379942002668686 0.0 0.0
0.035680571532298616 -0.03312801333446469 0.0 -0.024986845761185705 0.0 0.0
0.042425298177152876 -0.039879476463420716 0.0 -0.024604594197473628 0.0 0.0
0.051026804584272195 -0.048217748422561435 0.0 -0.020262602011735797 0.0 0.0
0.051026804584268864 -0.04821774842255344 0.0 0.020262602011777653 0.0 0.0
0.04242529817714463 -0.039879476463406505 0.0 0.024604594197538354 0.0 0.0
0.035680571532281574 -0.033128013334456696 0.0 0.024986845761230003 0.0 0.0
0.03019168674313094 -0.027706972581502676 0.0 0.02437994200268101 0.0 0.0
0.025394833588461063 -0.023025045059920757 0.0 0.022885238054967005 0.0 0.0
0.021185682983737464 -0.018915492188955163 0.0 0.02071778102008459 0.0 0.0
0.017498263752759396 -0.015323574039018961 0.0 0.018305606237070893 0.0 0.0
0.014219525704769254 -0.012151458632369216 0.0 0.01582608967521959 0.0 0.0
0.011247530026456148 -0.00930557433442969 0.0 0.013324731331711415 0.0 0.0
0.008518061967269869 -0.006725539828591476 0.0 0.010854505963693861 0.0 0.0
0.00602471496221163 -0.004430987020035193 0.0 0.008454614693600981 0.0 0.0
0.0038831864511350567 -0.0025621338247439063 0.0 0.00630662465390841 0.0 0.0
0.002255527797295459 -0.001296421314977092 0.0 0.004612272924813365 0.0 0.0
0.0012535887757932351 -0.0006374621539659842 0.0 0.0035173897686139877 0.0 0.0
0.0007458580169003026 -0.00034636283496625175 0.0 0.0029019470021914295 0.0 0.0
0.00046234979471868054 -0.0001757634627945759 0.0 0.002520746376362737 0.0 0.0
0.00023385490352553773 -3.990345625570768e-05 0.0 0.0023326088411932955 0.0 0.0
6.12864020834436e-05 -8.431895105132092e-06 0.0 0.0023690022880276107 0.0 0.0
3.2872114861637325e-05 -0.00018033919024923462 0.0 0.002491988429389469 0.0 0.0
0.0010391408360879983 -0.002020688192257392 0.0 0.0025831923990488614 0.0 0.0
0.0007093353641978717 -0.0015473540098013827 0.0 -0.0021712459010470586 0.0 0.0
-4.824865237712528e-05 -0.00015592294777111437 0.0 -0.0025201953047792047 0.0 0.0
-9.105915380977492e-05 5.3341195739742275e-05 0.0 -0.0024668193285124485 0.0 0.0
-1.0082399052591118e-05 6.884643164650761e-05 0.0 -0.002455650612653959 0.0 0.0
0.00010935860729072155 -6.780073837031608e-06 0.0 -0.002638065712594284 0.0 0.0
0.0002329401652447216 -9.555249450299286e-05 0.0 -0.0030411345199823914 0.0 0.0
0.00040139622260290664 -0.00019353112631903535 0.0 -0.0035809171044718924 0.0 0.0
0.0007123119524232446 -0.00035354996057002097 0.0 -0.004184616692605947 0.0 0.0
0.0012493002398900055 -0.0006533195110334233 0.0 -0.005001010591590305 0.0 0.0
0.0019668808745082478 -0.0011273142533485547 0.0 -0.006197865220693322 0.0 0.0
0.0028065435158815266 -0.001758447280243658 0.0 -0.007793526465006195 0.0 0.0
0.0037094703325112055 -0.0025169598611878286 0.0 -0.009648193470067623 0.0 0.0
0.0046886000679640105 -0.003390894127420996 0.0 -0.01167619280526988 0.0 0.0
0.0057978695117650025 -0.0044221709636045325 0.0 -0.013843355980030059 0.0 0.0
0.007157254839718047 -0.005717232355059387 0.0 -0.016113543756375526 0.0 0.0
0.008972363181522308 -0.007462666930885931 0.0 -0.018323307112735665 0.0 0.0
0.011507012018140444 -0.009896470350311048 0.0 -0.02002533322898048 0.0 0.0
0.014966859428204471 -0.013215579733000915 0.0 -0.020562905392718878 0.0 0.0
0.019720041741169952 -0.017993107429753685 0.0 -0.0203081885445604 0.0 0.0
0.027427840032310663 -0.025707525541646348 0.0 -0.019618686230305493 0.0 0.0
0.027427840032310385 -0.025707525541643683 0.0 0.01961868623033869 0.0 0.0
0.019720041741167066 -0.01799310742975191 0.0 0.020308188544610917 0.0 0.0
0.014966859428195839 -0.01321557973298848 0.0 0.020562905392746633 0.0 0.0
0.011507012018132617 -0.009896470350304831 0.0 0.0200253332289827 0.0 0.0
0.008972363181517312 -0.007462666930889483 0.0 0.01832330711272001 0.0 0.0
0.007157254839713495 -0.005717232355058055 0.0 0.016113543756361648 0.0 0.0
0.005797869511762477 -0.004422170963604977 0.0 0.013843355980021399 0.0 0.0
0.004688600067962484 -0.003390894127417443 0.0 0.011676192805264662 0.0 0.0
0.003709470332509429 -0.00251695986118472 0.0 0.009648193470055522 0.0 0.0
0.002806543515878862 -0.0017584472802418816 0.0 0.007793526464993872 0.0 0.0
0.0019668808745059163 -0.001127314253344558 0.0 0.0061978652206827745 0.0 0.0
0.0012493002398890618 -0.0006533195110338674 0.0 0.005001010591583532 0.0 0.0
0.0007123119524215238 -0.00035354996057246346 0.0 0.0041846166926035044 0.0 0.0
0.00040139622260276786 -0.0001935311263192574 0.0 0.003580917104467951 0.0 0.0
0.00023294016524413874 -9.555249450232672e-05 0.0 0.0030411345199796713 0.0 0.0
0.00010935860729066604 -6.7800738352552514e-06 0.0 0.002638065712590232 0.0 0.0
-1.0082399052424584e-05 6.884643164684068e-05 0.0 0.0024556506126525157 0.0 0.0
-9.10591538099692e-05 5.33411957408525e-05 0.0 0.002466819328511116 0.0 0.0
-4.824865237729181e-05 -0.00015592294777083682 0.0 0.0025201953047779835 0.0 0.0
0.0007093353641962064 -0.0015473540097992906 0.0 0.002171245901043395 0.0 0.0
0.0004784261047096894 -0.0012043437996789308 0.0 -0.0019113922596433186 0.0 0.0
-0.00012979588800368647 -0.00013116844740046485 0.0 -0.002519037396506163 0.0 0.0
-0.0002409948684909402 0.00011778563345898885 0.0 -0.002509638885085985 0.0 0.0
-0.00024747905059635533 0.00017479513633489319 0.0 -0.0025116326603963346 0.0 0.0
-0.00024060251986399162 0.00016143481178110264 0.0 -0.0026765535981034816 0.0 0.0
-0.0002841191699309298 0.00015638453186928025 0.0 -0.003060313956982197 0.0 0.0
-0.00042021908604522595 0.0002100392188684186 0.0 -0.0035919514897868043 0.0 0.0
-0.0007186287974257355 0.00035831563805999167 0.0 -0.004192817105881375 0.0 0.0
-0.0012492918292177357 0.000654228606979057 0.0 -0.005004154625962043 0.0 0.0
-0.001965909794212878 0.001127834454166976 0.0 -0.006197006229173518 0.0 0.0
-0.0028156677788960804 0.0017710324177659942 0.0 -0.007795879405240291 0.0 0.0
-0.003755774762722014 0.002563109261720875 0.0 -0.009659074024663372 0.0 0.0
-0.0047834664176095165 0.0034721855426198545 0.0 -0.011687204526904416 0.0 0.0
-0.005858766754235495 0.004443678024100173 0.0 -0.01384741043712956 0.0 0.0
-0.006840926146894244 0.00533759544998702 0.0 -0.016128643564391365 0.0 0.0
-0.007457457900171882 0.00589126357655978 0.0 -0.018479093391820633 0.0 0.0
-0.00729521095604263 0.005721596691380171 0.0 -0.020866926149237353 0.0 0.0
-0.005984077516169889 0.004583568371800517 0.0 -0.023368910799559717 0.0 0.0
-0.003195811026744294 0.002284734088643603 0.0 -0.025653971632637607 0.0 0.0
0.0037198854563751382 -0.004249837194858053 0.0 -0.02463837882777864 0.0 0.0
0.003719885456374805 -0.004249837194859829 0.0 0.02463837882779507 0.0 0.0
-0.0031958110267440165 0.0022847340886320566 0.0 0.025653971632655703 0.0 0.0
-0.005984077516167391 0.004583568371790747 0.0 0.023368910799563825 0.0 0.0
-0.007295210956036191 0.00572159669137573 0.0 0.020866926149225806 0.0 0.0
-0.007457457900162612 0.005891263576547345 0.0 0.018479093391801538 0.0 0.0
-0.006840926146885501 0.005337595449979915 0.0 0.016128643564376488 0.0 0.0
-0.005858766754226585 0.004443678024094844 0.0 0.013847410437118346 0.0 0.0
-0.004783466417599386 0.0034721855426140813 0.0 0.011687204526896866 0.0 0.0
-0.003755774762711217 0.002563109261715546 0.0 0.009659074024647385 0.0 0.0
-0.0028156677788873097 0.0017710324177611092 0.0 0.007795879405224859 0.0 0.0
-0.0019659097942057446 0.0011278344541603147 0.0 0.006197006229160862 0.0 0.0
-0.0012492918292132948 0.0006542286069768366 0.0 0.005004154625957158 0.0 0.0
-0.0007186287974233485 0.0003583156380597696 0.0 0.0041928171058784325 0.0 0.0
-0.0004202190860436439 0.00021003921886642019 0.0 0.0035919514897819194 0.0 0.0
-0.00028411916993045794 0.0001563845318670598 0.0 0.0030603139569779225 0.0 0.0
-0.00024060251986340875 0.0001614348117804365 0.0 0.0026765535981010946 0.0 0.0
-0.00024747905059610553 0.00017479513633733568 0.0 0.0025116326603948913 0.0 0.0
-0.00024099486849119 0.0001177856334587668 0.0 0.0025096388850837092 0.0 0.0
-0.00012979588800388075 -0.00013116844740079792 0.0 0.0025190373965049973 0.0 0.0
0.0004784261047088567 -0.0012043437996779559 0.0 0.0019113922596428745 0.0 0.0
0.0003203900267335358 -0.0009490592103328921 0.0 -0.0017256630596956812 0.0 0.0
-0.0002040275395966129 -9.96824064548596e-05 0.0 -0.002473723609761891 0.0 0.0
-0.00038559238931826223 0.00017957804809420885 0.0 -0.0025000477660987452 0.0 0.0
-0.00047728131159049947 0.00027692589249594945 0.0 -0.002496723636902065 0.0 0.0
-0.0005831996022656882 0.000324338146490577 0.0 -0.0026301818180221592 0.0 0.0
-0.0007957376522836346 0.0004070233624484665 0.0 -0.002961467428701514 0.0 0.0
-0.0012718586229906736 0.0006558222595849372 0.0 -0.003551567770533115 0.0 0.0
-0.002259348264709027 0.0013016771801903637 0.0 -0.004631430064793163 0.0 0.0
-0.0038812535880428933 0.002561756466548104 0.0 -0.0063110299819358895 0.0 0.0
-0.006024198637716277 0.004432670927432714 0.0 -0.008454744744680442 0.0 0.0
-0.00853010063493137 0.0067419973936471145 0.0 -0.010854781769120248 0.0 0.0
-0.011291966700886641 0.0093542078077129 0.0 -0.013310310016344529 0.0 0.0
-0.014304561011748401 0.012230498668202028 0.0 -0.015774357123372718 0.0 0.0
-0.017542273438984374 0.015332761644679671 0.0 -0.018240600954745556 0.0 0.0
-0.020858285652976816 0.018508675245334505 0.0 -0.020785818947173795 0.0 0.0
-0.023924923845548007 0.021438937568004413 0.0 -0.023476172138179985 0.0 0.0
-0.026251057013490536 0.023656631586677968 0.0 -0.026401875532951036 0.0 0.0
-0.027273047873097617 0.024612586919067425 0.0 -0.02946841006880918 0.0 0.0
-0.0259366708568759 0.023011543046058236 0.0 -0.03088777609254456 0.0 0.0
-0.01898849095788005 0.015750315300298467 0.0 -0.02874520547976933 0.0 0.0
-0.018988490957881327 0.015750315300300244 0.0 0.028745205479806635 0.0 0.0
-0.02593667085687218 0.023011543046058236 0.0 0.030887776092595964 0.0 0.0
-0.02727304787308421 0.024612586919057655 0.0 0.029468410068841155 0.0 0.0
-0.026251057013470108 0.023656631586655763 0.0 0.026401875532950148 0.0 0.0
-0.023924923845525387 0.021438937567976435 0.0 0.02347617213816111 0.0 0.0
-0.020858285652954778 0.018508675245310524 0.0 0.020785818947158696 0.0 0.0
-0.017542273438963335 0.015332761644659243 0.0 0.01824060095473279 0.0 0.0
-0.014304561011726613 0.012230498668181156 0.0 0.015774357123360838 0.0 0.0
-0.011291966700863604 0.009354207807690251 0.0 0.013310310016324656 0.0 0.0
-0.008530100634912025 0.006741997393633348 0.0 0.01085478176909671 0.0 0.0
-0.006024198637699291 0.0044326709274171705 0.0 0.008454744744655684 0.0 0.0
-0.003881253588031902 0.0025617564665343373 0.0 0.0063110299819262305 0.0 0.0
-0.0022593482647019214 0.0013016771801859228 0.0 0.004631430064786668 0.0 0.0
-0.0012718586229872875 0.0006558222595842711 0.0 0.0035515677705294513 0.0 0.0
-0.0007957376522821358 0.0004070233624484665 0.0 0.00296146742869674 0.0 0.0
-0.0005831996022649388 0.0003243381464881345 0.0 0.002630181818019217 0.0 0.0
-0.00047728131159008313 0.0002769258924942841 0.0 0.0024967236369003443 0.0 0.0
-0.0003855923893182345 0.00017957804809376476 0.0 0.0025000477660989673 0.0 0.0
-0.00020402753959644637 -9.968240645447102e-05 0.0 0.0024737236097627235 0.0 0.0
0.0003203900267327864 -0.0009490592103320455 0.0 0.0017256630596939049 0.0 0.0
0.00020841604695653881 -0.000731510870847385 0.0 -0.0015339386017325651 0.0 0.0
-0.0002699311461468179 -6.24954152699253e-05 0.0 -0.002374281197922601 0.0 0.0
-0.0005221356914475728 0.00023699319909020744 0.0 -0.002432590802068535 0.0 0.0
-0.0006980496283812421 0.0003731182833930369 0.0 -0.0024127780873270943 0.0 0.0
-0.0009144335392392844 0.0004783597392026273 0.0 -0.002499845664136968 0.0 0.0
-0.001314218794703531 0.0006766456525768572 0.0 -0.0028188939774069777 0.0 0.0
-0.002227207341925358 0.0012658917086030286 0.0 -0.0036440558646228527 0.0 0.0
-0.0040188083188022194 0.002659643213028584 0.0 -0.0052601737628446 0.0 0.0
-0.0067678280535325985 0.005070095481531034 0.0 -0.007641274738569903 0.0 0.0
-0.010314452828368348 0.00836549184105273 0.0 -0.010533011445700624 0.0 0.0
-0.014420737449177823 0.012279893482076254 0.0 -0.01359563360239513 0.0 0.0
-0.018965020461945842 0.016657256660418174 0.0 -0.016575617508707396 0.0 0.0
-0.023934089191959274 0.02146863084511219 0.0 -0.01945061065031206 0.0 0.0
-0.0293201249376768 0.026692206290306775 0.0 -0.02232460873383757 0.0 0.0
-0.03498227177057445 0.032179041368137096 0.0 -0.02542380253334653 0.0 0.0
-0.04054774967215474 0.037566237466997165 0.0 -0.02904092106990308 0.0 0.0
-0.045403542940338215 0.042254113296840146 0.0 -0.033329978063890375 0.0 0.0
-0.04857795065398887 0.04521432701112893 0.0 -0.037493901884248615 0.0 0.0
-0.04819238275045726 0.04454890355613905 0.0 -0.039565561056311926 0.0 0.0
-0.04040080808497312 0.036043722557781877 0.0 -0.0356106445395733 0.0 0.0
-0.0404008080849724 0.036043722557781877 0.0 0.03561064453962348 0.0 0.0
-0.04819238275044874 0.04454890355613195 0.0 0.03956556105637621 0.0 0.0
-0.048577950653967694 0.04521432701110495 0.0 0.037493901884293135 0.0 0.0
-0.04540354294030699 0.042254113296811724 0.0 0.03332997806389559 0.0 0.0
-0.0405477496721198 0.0375662374669683 0.0 0.029040921069888204 0.0 0.0
-0.0349822717705397 0.03217904136810601 0.0 0.0254238025333291 0.0 0.0
-0.029320124937643327 0.026692206290272136 0.0 0.022324608733818696 0.0 0.0
-0.023934089191925384 0.021468630845085546 0.0 0.019450610650300515 0.0 0.0
-0.01896502046191234 0.016657256660387088 0.0 0.016575617508684748 0.0 0.0
-0.014420737449147736 0.012279893482045168 0.0 0.01359563360236804 0.0 0.0
-0.010314452828341786 0.00836549184103319 0.0 0.01053301144567087 0.0 0.0
-0.006767828053514197 0.005070095481517711 0.0 0.00764127473855547 0.0 0.0
-0.004018808318790368 0.002659643213023477 0.0 0.00526017376283372 0.0 0.0
-0.002227207341919224 0.0012658917086016963 0.0 0.003644055864614304 0.0 0.0
-0.001314218794700811 0.000676645652575969 0.0 0.002818893977401593 0.0 0.0
-0.0009144335392382574 0.0004783597392026273 0.0 0.0024998456641355804 0.0 0.0
-0.0006980496283805482 0.0003731182833947022 0.0 0.0024127780873250404 0.0 0.0
-0.0005221356914473507 0.00023699319908987437 0.0 0.002432590802066481 0.0 0.0
-0.0002699311461468179 -6.249541527086899e-05 0.0 0.0023742811979207135 0.0 0.0
0.000208416046956178 -0.0007315108708464638 0.0 0.0015339386017308443 0.0 0.0
0.00011898030867957265 -0.0005383392508868101 0.0 -0.0013321289489748867 0.0 0.0
-0.00032964558194270577 -1.9534012582922422e-05 0.0 -0.0022193002060034717 0.0 0.0
-0.000649902872696756 0.0002900131182208554 0.0 -0.0023113498746392125 0.0 0.0
-0.0009086769726277255 0.0004614521539703098 0.0 -0.0022684576342370533 0.0 0.0
-0.0012344982354927925 0.0006288603662454317 0.0 -0.002309508117528891 0.0 0.0
-0.0018781730665306806 0.001010098226011058 0.0 -0.0026763782465817343 0.0 0.0
-0.0033314852391420346 0.002083112059008352 0.0 -0.003735766370617677 0.0 0.0
-0.005979656700813268 0.00434369497081466 0.0 -0.005726811138459742 0.0 0.0
-0.009868177259566208 0.007923838792944338 0.0 -0.008565354179612239 0.0 0.0
-0.014781689730893527 0.012595410909206795 0.0 -0.011905769989187909 0.0 0.0
-0.020451251199287368 0.01806226771132602 0.0 -0.015321647553864781 0.0 0.0
-0.02675142353968596 0.02417245744587193 0.0 -0.018573643873244672 0.0 0.0
-0.033666425368385405 0.0309059910175149 0.0 -0.021679895595823395 0.0 0.0
-0.04120480445436939 0.03825773831158674 0.0 -0.02478996103023745 0.0 0.0
-0.04924452500373605 0.04609558800259883 0.0 -0.02823871393914923 0.0 0.0
-0.05738085257705894 0.05401005092452138 0.0 -0.03249216852462378 0.0 0.0
-0.06476437283435979 0.06114396853736359 0.0 -0.03764637002004256 0.0 0.0
-0.0698653438308531 0.06595114290298465 0.0 -0.04268317963088142 0.0 0.0
-0.07004448724122322 0.06569646009547547 0.0 -0.04492867268412082 0.0 0.0
-0.06046651924293189 0.05545391076238726 0.0 -0.041106544897941855 0.0 0.0
-0.06046651924292895 0.05545391076238193 0.0 0.04110654489799492 0.0 0.0
-0.07004448724120829 0.06569646009546126 0.0 0.04492867268418721 0.0 0.0
-0.0698653438308246 0.06595114290295179 0.0 0.042683179630932266 0.0 0.0
-0.06476437283431985 0.061143968537322735 0.0 0.03764637002005311 0.0 0.0
-0.05738085257701289 0.054010050924480524 0.0 0.032492168524609455 0.0 0.0
-0.04924452500368956 0.04609558800255309 0.0 0.0282387139391298 0.0 0.0
-0.04120480445432351 0.03825773831154322 0.0 0.02478996103021669 0.0 0.0
-0.03366642536833933 0.03090599101746694 0.0 0.02167989559580613 0.0 0.0
-0.02675142353964216 0.0241724574458293 0.0 0.018573643873221524 0.0 0.0
-0.020451251199246748 0.018062267711282054 0.0 0.015321647553836193 0.0 0.0
-0.014781689730858402 0.01259541090917038 0.0 0.011905769989157267 0.0 0.0
-0.009868177259540312 0.007923838792919469 0.0 0.008565354179593865 0.0 0.0
-0.00597965670079631 0.0043436949707977845 0.0 0.005726811138447141 0.0 0.0
-0.003331485239132556 0.002083112058998804 0.0 0.0037357663706088506 0.0 0.0
-0.0018781730665261703 0.0010100982260066171 0.0 0.0026763782465755726 0.0 0.0
-0.0012344982354913075 0.0006288603662449876 0.0 0.002309508117527115 0.0 0.0
-0.0009086769726270594 0.0004614521539707539 0.0 0.0022684576342358875 0.0 0.0
-0.0006499028726964923 0.00029001311822052234 0.0 0.00231134987463677 0.0 0.0
-0.00032964558194265026 -1.953401258236731e-05 0.0 0.0022193002060015843 0.0 0.0
0.00011898030867968368 -0.0005383392508863348 0.0 0.001332128948972111 0.0 0.0
4.245027346094776e-05 -0.00036811319500495987 0.0 -0.0011245769419579998 0.0 0.0
-0.000386386775124814 2.8678970575568563e-05 0.0 -0.002009930071409871 0.0 0.0
-0.0007692439897561409 0.00033929534909782344 0.0 -0.0021326708432110597 0.0 0.0
-0.0011073701365287847 0.0005403875032519156 0.0 -0.0020586647415904435 0.0 0.0
-0.0015562143520920224 0.0007891040970744445 0.0 -0.002075183896084909 0.0 0.0
-0.002520386459753887 0.0014383629393741604 0.0 -0.002512980258381259 0.0 0.0
-0.004579713411626829 0.0031028819071743374 0.0 -0.003730430796538342 0.0 0.0
-0.008112641187784597 0.006277216172261291 0.0 -0.005935078425559848 0.0 0.0
-0.013122430680798658 0.010998044761589831 0.0 -0.008995577244795494 0.0 0.0
-0.01935542287491454 0.016988376761628565 0.0 -0.012469353193329757 0.0 0.0
-0.026566369840906018 0.023975019985277957 0.0 -0.01595447099821079 0.0 0.0
-0.034616694937845416 0.03181076451587028 0.0 -0.01928057445878939 0.0 0.0
-0.043474791694763426 0.04046259330585533 0.0 -0.022458739040344122 0.0 0.0
-0.053158190750907997 0.04993898034468902 0.0 -0.025609810546040834 0.0 0.0
-0.0635832263049598 0.06013554661386822 0.0 -0.029102587119990808 0.0 0.0
-0.07429422019780657 0.07057593078778446 0.0 -0.03345924206246087 0.0 0.0
-0.08414894408928339 0.08010623512936732 0.0 -0.03884426077302083 0.0 0.0
-0.0910183820046099 0.08657551402346009 0.0 -0.04424633612933904 0.0 0.0
-0.09140915799542887 0.08646762835170296 0.0 -0.047231863258289764 0.0 0.0
-0.08005026521898531 0.07452414849409816 0.0 -0.045911099347226925 0.0 0.0
-0.0800502652189802 0.07452414849409372 0.0 0.04591109934728144 0.0 0.0
-0.09140915799540705 0.0864676283516852 0.0 0.04723186325835915 0.0 0.0
-0.09101838200457399 0.08657551402343078 0.0 0.04424633612938855 0.0 0.0
-0.08414894408923532 0.08010623512931314 0.0 0.0388442607730326 0.0 0.0
-0.0742942201977502 0.0705759307877254 0.0 0.03345924206245143 0.0 0.0
-0.06358322630490161 0.06013554661381448 0.0 0.029102587119974765 0.0 0.0
-0.05315819075085007 0.04993898034463484 0.0 0.025609810546021905 0.0 0.0
-0.04347479169470592 0.04046259330579627 0.0 0.022458739040325526 0.0 0.0
-0.03461669493778985 0.03181076451581655 0.0 0.01928057445876602 0.0 0.0
-0.02656636984085599 0.023975019985232215 0.0 0.015954470998180925 0.0 0.0
-0.01935542287487095 0.016988376761590374 0.0 0.01246935319329906 0.0 0.0
-0.013122430680765185 0.010998044761560077 0.0 0.008995577244775343 0.0 0.0
-0.008112641187762337 0.006277216172244859 0.0 0.005935078425545137 0.0 0.0
-0.004579713411613395 0.0031028819071643454 0.0 0.0037304307965260186 0.0 0.0
-0.0025203864597472397 0.0014383629393692754 0.0 0.0025129802583749306 0.0 0.0
-0.0015562143520898436 0.000789104097072002 0.0 0.0020751838960821334 0.0 0.0
-0.0011073701365281602 0.0005403875032511385 0.0 0.0020586647415889447 0.0 0.0
-0.000769243989755905 0.0003392953490984896 0.0 0.002132670843208173 0.0 0.0
-0.00038638677512446706 2.867897057540203e-05 0.0 0.00200993007140865 0.0 0.0
4.2450273460989396e-05 -0.0003681131950048211 0.0 0.0011245769419565566 0.0 0.0
-2.310267073757366e-05 -0.00022206689219267384 0.0 -0.0009112348879137255 0.0 0.0
-0.00044132011831593543 8.050707694651216e-05 0.0 -0.001751779684387278 0.0 0.0
-0.0008812010345529697 0.00038499856508689145 0.0 -0.001897471401176909 0.0 0.0
-0.0012958081932868404 0.0006146375589435316 0.0 -0.0018016149655027958 0.0 0.0
-0.001900782706906301 0.0009806178407680832 0.0 -0.001818571614775999 0.0 0.0
-0.0032527601186657096 0.0019782272696746706 0.0 -0.0023003382948704743 0.0 0.0
-0.005962049270923475 0.004307144691454656 0.0 -0.003580550639207314 0.0 0.0
-0.01038135973459875 0.008395524612647254 0.0 -0.00583554444016926 0.0 0.0
-0.016460678550153762 0.014198840435567295 0.0 -0.00883654810154999 0.0 0.0
-0.02398354149578985 0.021465785436687757 0.0 -0.012173420949229796 0.0 0.0
-0.032726063667046223 0.0299604804408391 0.0 -0.015538289537188832 0.0 0.0
-0.042528421898595514 0.03952230549500557 0.0 -0.018749094068155503 0.0 0.0
-0.053332407649350266 0.05009389981559931 0.0 -0.021827160925214972 0.0 0.0
-0.06514570523057342 0.06167829845791717 0.0 -0.02486170959822387 0.0 0.0
-0.0779017022545091 0.07418258149705892 0.0 -0.02806351552607922 0.0 0.0
-0.09111449018208845 0.08707949002983773 0.0 -0.031927017832355964 0.0 0.0
-0.10336925056295401 0.09893254425191245 0.0 -0.03689956980465203 0.0 0.0
-0.11192053914961672 0.10699669760759356 0.0 -0.0424874197798738 0.0 0.0
-0.11256254026031245 0.10710421647648172 0.0 -0.04721581635433192 0.0 0.0
-0.0997301571943007 0.09373387058466864 0.0 -0.05038576692890051 0.0 0.0
-0.09973015719429265 0.09373387058465799 0.0 0.050385766928951914 0.0 0.0
-0.11256254026028459 0.10710421647645418 0.0 0.047215816354399864 0.0 0.0
-0.11192053914957267 0.10699669760755093 0.0 0.0424874197799221 0.0 0.0
-0.10336925056289756 0.09893254425185471 0.0 0.03689956980466491 0.0 0.0
-0.09111449018202243 0.08707949002977378 0.0 0.03192701783234958 0.0 0.0
-0.077901702254439 0.07418258149699453 0.0 0.02806351552606806 0.0 0.0
-0.06514570523050452 0.06167829845784878 0.0 0.024861709598206716 0.0 0.0
-0.05333240764928124 0.05009389981553314 0.0 0.021827160925197264 0.0 0.0
-0.04252842189852862 0.0395223054949394 0.0 0.01874909406813291 0.0 0.0
-0.03272606366698674 0.029960480440778703 0.0 0.015538289537157746 0.0 0.0
-0.023983541495737767 0.021465785436636686 0.0 0.012173420949200986 0.0 0.0
-0.016460678550113697 0.014198840435526439 0.0 0.00883654810152934 0.0 0.0
-0.010381359734570925 0.008395524612616612 0.0 0.005835544440154161 0.0 0.0
-0.005962049270905517 0.004307144691439335 0.0 0.003580550639196989 0.0 0.0
-0.003252760118657022 0.0019782272696700076 0.0 0.0023003382948640905 0.0 0.0
-0.0019007827069032895 0.000980617840766751 0.0 0.001818571614774056 0.0 0.0
-0.001295808193286313 0.0006146375589436426 0.0 0.0018016149655003533 0.0 0.0
-0.0008812010345526228 0.00038499856508578123 0.0 0.0018974714011739113 0.0 0.0
-0.00044132011831547746 8.050707694667869e-05 0.0 0.0017517796843856126 0.0 0.0
-2.310267073782346e-05 -0.00022206689219245526 0.0 0.0009112348879126708 0.0 0.0
-7.639873117148976e-05 -0.00010257762318860442 0.0 -0.0006914657055859252 0.0 0.0
-0.0004929669001823012 0.00013323485334348906 0.0 -0.0014501652007360422 0.0 0.0
-0.000987015598463259 0.00042743928994848357 0.0 -0.001605656854877957 0.0 0.0
-0.0014808356451848637 0.0006890925947962145 0.0 -0.0014959164452562068 0.0 0.0
-0.0022876972731206147 0.0012162052402853174 0.0 -0.0015192584018655642 0.0 0.0
-0.004081213109098425 0.002643486049439314 0.0 -0.002018684383313596 0.0 0.0
-0.0074665682477574324 0.005673755300878103 0.0 -0.003281041131855511 0.0 0.0
-0.012722995402549342 0.01062615579248094 0.0 -0.005356515417353602 0.0 0.0
-0.019831847071399622 0.017457204703139606 0.0 -0.008036185990228262 0.0 0.0
-0.0286308339605022 0.02598258311641155 0.0 -0.011049746442713282 0.0 0.0
-0.03889530306284206 0.03597652807281415 0.0 -0.014088240937326302 0.0 0.0
-0.05045267827274219 0.04726663089455263 0.0 -0.01699426547627214 0.0 0.0
-0.06321203445051055 0.05976500784275096 0.0 -0.01980799572186953 0.0 0.0
-0.07713339599316055 0.07342869696355869 0.0 -0.02254654135516121 0.0 0.0
-0.09211531362204384 0.08813732631554849 0.0 -0.025220617059326766 0.0 0.0
-0.1076641538738844 0.10334236550804876 0.0 -0.028093966494076583 0.0 0.0
-0.12222163362053687 0.11743227470471584 0.0 -0.03193451799245017 0.0 0.0
-0.13255320937708295 0.1272028241056704 0.0 -0.037516847136142006 0.0 0.0
-0.1338131212202879 0.1278773664165067 0.0 -0.044979936410802335 0.0 0.0
-0.11995364639308673 0.11349049884500229 0.0 -0.05451882453588064 0.0 0.0
-0.1199536463930756 0.11349049884498985 0.0 0.05451882453593271 0.0 0.0
-0.13381312122025485 0.12787736641647207 0.0 0.04497993641086373 0.0 0.0
-0.1325532093770301 0.12720282410561623 0.0 0.03751684713618486 0.0 0.0
-0.12222163362047156 0.11743227470465234 0.0 0.031934517992460054 0.0 0.0
-0.10766415387380796 0.10334236550797593 0.0 0.02809396649407364 0.0 0.0
-0.0921153136219624 0.08813732631546989 0.0 0.025220617059318273 0.0 0.0
-0.07713339599308072 0.07342869696348053 0.0 0.02254654135514611 0.0 0.0
-0.06321203445043011 0.0597650078426768 0.0 0.01980799572185421 0.0 0.0
-0.05045267827266446 0.04726663089447891 0.0 0.016994265476252324 0.0 0.0
-0.03889530306277267 0.03597652807274798 0.0 0.014088240937298713 0.0 0.0
-0.028630833960441818 0.025982583116359592 0.0 0.01104974644268919 0.0 0.0
-0.01983184707135323 0.017457204703099194 0.0 0.008036185990212441 0.0 0.0
-0.012722995402515973 0.010626155792452963 0.0 0.005356515417343111 0.0 0.0
-0.007466568247735339 0.005673755300859451 0.0 0.0032810411318470734 0.0 0.0
-0.004081213109087871 0.0026434860494299883 0.0 0.0020186843833079893 0.0 0.0
-0.002287697273116472 0.0012162052402817647 0.0 0.0015192584018630106 0.0 0.0
-0.0014808356451839477 0.0006890925947953264 0.0 0.0014959164452557072 0.0 0.0
-0.0009870155984627246 0.0004274392899467072 0.0 0.0016056568548794559 0.0 0.0
-0.000492966900181871 0.00013323485334354457 0.0 0.0014501652007352095 0.0 0.0
-7.639873117169793e-05 -0.00010257762318815686 0.0 0.0006914657055846485 0.0 0.0
-0.00011376581062028102 -1.2941252358511512e-05 0.0 -0.0004668313214737929 0.0 0.0
-0.0005367292122450129 0.00018309534597449328 0.0 -0.0011080663628763032 0.0 0.0
-0.0010879475650567572 0.00046622748712998874 0.0 -0.0012552965176077513 0.0 0.0
-0.0016732600598211578 0.0007745282332809467 0.0 -0.0011455873753940526 0.0 0.0
-0.002733552170017084 0.0015191722572387434 0.0 -0.0011759025548108148 0.0 0.0
-0.005013310892930167 0.0034364438114846685 0.0 -0.001658852123592569 0.0 0.0
-0.009048896699035358 0.0071474673778724185 0.0 -0.002731279924541863 0.0 0.0
-0.015089653653536816 0.012905324609813196 0.0 -0.004418563908860029 0.0 0.0
-0.023205350954355997 0.020735317566536793 0.0 -0.006621945279641328 0.0 0.0
-0.033261053420863995 0.030499425296428573 0.0 -0.009110320887202539 0.0 0.0
-0.04503936711320261 0.04198376091722 0.0 -0.011624465000528383 0.0 0.0
-0.05835398551277032 0.05500504273176876 0.0 -0.014025404695158672 0.0 0.0
-0.07307794330935513 0.0694366607377539 0.0 -0.016365006736908327 0.0 0.0
-0.08909378461448153 0.08515957130708118 0.0 -0.018668591277594238 0.0 0.0
-0.10618279993438834 0.10194601464184538 0.0 -0.020725247811461123 0.0 0.0
-0.12379538075918312 0.1192057815091987 0.0 -0.02231725110233984 0.0 0.0
-0.1404626213711418 0.13539394470510935 0.0 -0.024270155682838634 0.0 0.0
-0.15286939646763217 0.14714885580583115 0.0 -0.029262028958631503 0.0 0.0
-0.15542327050303262 0.14903645619611883 0.0 -0.0400512190447172 0.0 0.0
-0.14120870120656542 0.1342431410522149 0.0 -0.05796765261581016 0.0 0.0
-0.14120870120655163 0.13424314105220247 0.0 0.05796765261585002 0.0 0.0
-0.15542327050299426 0.1490364561960833 0.0 0.040051219044769604 0.0 0.0
-0.152869396467571 0.14714885580577075 0.0 0.029262028958669417 0.0 0.0
-0.14046262137106635 0.13539394470503696 0.0 0.02427015568284624 0.0 0.0
-0.12379538075909598 0.11920578150911032 0.0 0.0223172511023379 0.0 0.0
-0.10618279993429634 0.1019460146417539 0.0 0.020725247811457848 0.0 0.0
-0.08909378461439053 0.08515957130699459 0.0 0.01866859127758319 0.0 0.0
-0.07307794330926366 0.06943666073765842 0.0 0.01636500673689467 0.0 0.0
-0.05835398551268157 0.05500504273167861 0.0 0.014025404695143517 0.0 0.0
-0.0450393671131234 0.04198376091714362 0.0 0.011624465000508177 0.0 0.0
-0.03326105342079632 0.030499425296359295 0.0 0.009110320887181111 0.0 0.0
-0.023205350954303018 0.02073531756648128 0.0 0.006621945279625785 0.0 0.0
-0.015089653653498195 0.012905324609778113 0.0 0.00441856390884926 0.0 0.0
-0.009048896699009358 0.007147467377848882 0.0 0.0027312799245331476 0.0 0.0
-0.005013310892917157 0.0034364438114760087 0.0 0.0016588521235866849 0.0 0.0
-0.0027335521700116855 0.0015191722572374111 0.0 0.001175902554809094 0.0 0.0
-0.001673260059819888 0.0007745282332812797 0.0 0.0011455873753915546 0.0 0.0
-0.0010879475650558065 0.00046622748713109896 0.0 0.0012552965176065856 0.0 0.0
-0.0005367292122445133 0.00018309534597538146 0.0 0.0011080663628753595 0.0 0.0
-0.00011376581062019081 -1.2941252358421307e-05 0.0 0.0004668313214756248 0.0 0.0
-0.00012845636550434802 4.2504099815598995e-05 0.0 -0.00024404446445974726 0.0 0.0
-0.0005635725551650372 0.00022389236316866512 0.0 -0.0007250104289531767 0.0 0.0
-0.0011864705982567725 0.0005033037266068963 0.0 -0.000839890492328299 0.0 0.0
-0.0018903330604784774 0.0008831799384538819 0.0 -0.0007528459421779488 0.0 0.0
-0.0032541124704378865 0.0019117981768734804 0.0 -0.000793144627297071 0.0 0.0
-0.006032830403674361 0.004342094491269766 0.0 -0.001159763035106176 0.0 0.0
-0.010663504639351284 0.008681875432150488 0.0 -0.0019072464695711333 0.0 0.0
-0.01745764092794827 0.015199916179573059 0.0 -0.0030623183883422 0.0 0.0
-0.026547013820523768 0.023997469843297647 0.0 -0.0045991692081034374 0.0 0.0
-0.03783879098769055 0.0349789294454701 0.0 -0.006359593552096476 0.0 0.0
-0.0511233376675424 0.047945415519846435 0.0 -0.008140118756396864 0.0 0.0
-0.0661968779467818 0.06269869159766994 0.0 -0.009840567755207252 0.0 0.0
-0.08289013725881772 0.0790675801173375 0.0 -0.011526181733405139 0.0 0.0
-0.10098553371807484 0.09683092502616608 0.0 -0.013169318641951255 0.0 0.0
-0.12009472736917359 0.11559645315800005 0.0 -0.014509044535013338 0.0 0.0
-0.13950355492501132 0.13464032489887323 0.0 -0.015075153682915232 0.0 0.0
-0.15786813878351386 0.15256914777411357 0.0 -0.014967753400294104 0.0 0.0
-0.17244685417522934 0.16653147969976345 0.0 -0.017455231943348193 0.0 0.0
-0.1776237970999494 0.1707673125835738 0.0 -0.03076224654698967 0.0 0.0
-0.164212399821579 0.1566588710907526 0.0 -0.059911764362637454 0.0 0.0
-0.1642123998215618 0.15665887109073484 0.0 0.05991176436266554 0.0 0.0
-0.17762379709990553 0.17076731258353117 0.0 0.030762246547031635 0.0 0.0
-0.17244685417515948 0.1665314796996995 0.0 0.017455231943374783 0.0 0.0
-0.1578681387834271 0.15256914777402786 0.0 0.014967753400296824 0.0 0.0
-0.13950355492491306 0.13464032489877864 0.0 0.015075153682913178 0.0 0.0
-0.12009472736907062 0.11559645315790279 0.0 0.014509044535013227 0.0 0.0
-0.10098553371797268 0.09683092502606616 0.0 0.01316931864194662 0.0 0.0
-0.08289013725871566 0.07906758011723669 0.0 0.011526181733397589 0.0 0.0
-0.06619687794668262 0.06269869159757446 0.0 0.009840567755199536 0.0 0.0
-0.05112333766745361 0.04794541551976206 0.0 0.008140118756380155 0.0 0.0
-0.037838790987615806 0.034978929445403484 0.0 0.006359593552080434 0.0 0.0
-0.026547013820464708 0.023997469843243024 0.0 0.004599169208094944 0.0 0.0
-0.017457640927904115 0.015199916179532202 0.0 0.003062318388333596 0.0 0.0
-0.01066350463932221 0.008681875432120956 0.0 0.0019072464695639169 0.0 0.0
-0.006032830403658089 0.004342094491251114 0.0 0.0011597630350994037 0.0 0.0
-0.0032541124704305348 0.0019117981768643766 0.0 0.0007931446272947951 0.0 0.0
-0.0018903330604767392 0.0008831799384506622 0.0 0.0007528459421776157 0.0 0.0
-0.001186470598255416 0.0005033037266063412 0.0 0.0008398904923288542 0.0 0.0
-0.0005635725551644995 0.00022389236316827654 0.0 0.0007250104289518444 0.0 0.0
-0.0001284563655043064 4.2504099815769e-05 0.0 0.0002440444644565276 0.0 0.0
-0.00010846508355233375 5.7602039515269876e-05 0.0 -3.984853462657423e-05 0.0 0.0
-0.0005574155433789585 0.00024548188339601484 0.0 -0.00029341346085404174 0.0 0.0
-0.0012896684646443446 0.000544156552990227 0.0 -0.0003457987363422177 0.0 0.0
-0.002155848829681839 0.0010432368636918987 0.0 -0.0003234768085024209 0.0 0.0
-0.0038542665908200546 0.0023939986930634483 0.0 -0.0003446443221025719 0.0 0.0
-0.007105698518833026 0.005320760362169219 0.0 -0.000492661727741206 0.0 0.0
-0.012292913202610778 0.01024487681943298 0.0 -0.0008018692854535603 0.0 0.0
-0.019796770939401243 0.017479471542348524 0.0 -0.0012902859763105345 0.0 0.0
-0.029822881137742674 0.027206456742061125 0.0 -0.0019768088243169446 0.0 0.0
-0.042326936862939035 0.03938273573589601 0.0 -0.002794077633868297 0.0 0.0
-0.057113424986174666 0.05382672415182865 0.0 -0.0036343823096067762 0.0 0.0
-0.07395009268653774 0.07031397620300073 0.0 -0.004452570553853508 0.0 0.0
-0.09259829909943518 0.08860613848375998 0.0 -0.005254223287548987 0.0 0.0
-0.11274616975748003 0.10838421735059756 0.0 -0.005988806749813724 0.0 0.0
-0.13384402045056143 0.1290936611057405 0.0 -0.00649907797468996 0.0 0.0
-0.15492989129517226 0.14977689067644206 0.0 -0.006433639166395944 0.0 0.0
-0.1745345910467557 0.16897342263448056 0.0 -0.005379585224463579 0.0 0.0
-0.19053587220971838 0.18451723962502076 0.0 -0.004389523195009737 0.0 0.0
-0.19919926478397726 0.19245307951801038 0.0 -0.013028706426315595 0.0 0.0
-0.19101458015636805 0.18233324201597956 0.0 -0.055191129156373475 0.0 0.0
-0.1910145801563478 0.18233324201596623 0.0 0.05519112915638247 0.0 0.0
-0.19919926478392744 0.1924530795179713 0.0 0.013028706426337133 0.0 0.0
-0.1905358722096391 0.18451723962494437 0.0 0.0043895231950227265 0.0 0.0
-0.1745345910466564 0.16897342263437798 0.0 0.005379585224462802 0.0 0.0
-0.15492989129506313 0.1497768906763346 0.0 0.006433639166394223 0.0 0.0
-0.13384402045044605 0.12909366110563036 0.0 0.006499077974690487 0.0 0.0
-0.11274616975736704 0.10838421735048254 0.0 0.005988806749809089 0.0 0.0
-0.09259829909932205 0.08860613848364762 0.0 0.005254223287545101 0.0 0.0
-0.07395009268642816 0.07031397620289592 0.0 0.004452570553850399 0.0 0.0
-0.0571134249860758 0.05382672415172962 0.0 0.003634382309600115 0.0 0.0
-0.04232693686285773 0.0393827357358143 0.0 0.0027940776338607476 0.0 0.0
-0.029822881137678604 0.027206456741991847 0.0 0.001976808824312948 0.0 0.0
-0.019796770939351265 0.017479471542298786 0.0 0.0012902859763037067 0.0 0.0
-0.012292913202578422 0.010244876819403004 0.0 0.000801869285452117 0.0 0.0
-0.0071056985188142525 0.005320760362149235 0.0 0.0004926617277396517 0.0 0.0
-0.0038542665908106247 0.002393998693056565 0.0 0.0003446443221009621 0.0 0.0
-0.0021558488296789437 0.0010432368636910105 0.0 0.00032347680850114413 0.0 0.0
-0.0012896684646430106 0.000544156552990116 0.0 0.00034579873634044134 0.0 0.0
-0.0005574155433781154 0.00024548188339545973 0.0 0.00029341346085359765 0.0 0.0
-0.00010846508355255059 5.760203951506865e-05 0.0 3.9848534628295074e-05 0.0 0.0
SCALARS Statev float 8
LOOKUP_TABLE default
0.0 0.013976875387804375 0.01083885715773434 -0.011219341161246966 0.0003804840035126235 -0.006250455007860142 0.0 0.0
0.0 0.0009003737327700457 0.000648140017683175 -0.0005572068564260636 -9.093316125711131e-05 0.0005778555825498809 0.0 0.0
0.0 3.439042507685338e-05 -3.831654842215823e-06 3.0755105477681978e-06 7.561442944475951e-07 4.953192933201286e-07 0.0 0.0
0.0 0.00034938101895418106 0.00026369359682985644 -0.00020887040874268336 -5.482318808717305e-05 -3.755278508552511e-05 0.0 0.0
0.0 0.0018036513162651563 0.0014865465091362011 -0.0012443125309602497 -0.00024223397817595144 -0.000160339752120361 0.0 0.0
0.0 0.004853315576520412 0.004379142219940921 -0.003895363894965332 -0.0004837783249755896 -0.00035926309810284916 0.0 0.0
0.0 0.010431925559704572 0.009261209184191523 -0.00861896185278926 -0.0006422473314022589 -0.0006621179976496458 0.0 0.0
0.0 0.01875416225553461 0.01649274754754427 -0.01573950859166993 -0.0007532389558743376 -0.001127843595857455 0.0 0.0
0.0 0.03002259438316347 0.026255034553073257 -0.025396694003224096 -0.0008583405498491548 -0.0017886852894677667 0.0 0.0
0.0 0.04419739198233334 0.03851224149144131 -0.03754238860382532 -0.0009698528876159701 -0.002592185072777266 0.0 0.0
0.0 0.061098381919343775 0.05308766097775624 -0.052001652251886174 -0.0010860087258700432 -0.0034352980396865846 0.0 0.0
0.0 0.0801864667618605 0.06976224662764394 -0.06855786686345262 -0.0012043797641912782 -0.004261760448293547 0.0 0.0
0.0 0.10150557655948589 0.08830683243282116 -0.0869827210525101 -0.0013241113803109503 -0.00507328096890144 0.0 0.0
0.0 0.12474561013768634 0.10845530314157277 -0.1070085541913589 -0.001446748950213796 -0.005859062677267866 0.0 0.0
0.0 0.14935678666578334 0.12978696854086783 -0.1282134511348462 -0.0015735174060215495 -0.0065779028903165376 0.0 0.0
0.0 0.17455824844966872 0.15159609903885918 -0.14989295985261414 -0.0017031391862451337 -0.007086065102566267 0.0 0.0
0.0 0.19911223041150197 0.17284038037966012 -0.17100905723952514 -0.0018313231401350097 -0.0071392514730194475 0.0 0.0
0.0 0.22145078351178685 0.19217815791879797 -0.1902244175744595 -0.001953740344338443 -0.00652409853663924 0.0 0.0
0.0 0.23973350018649436 0.20800891274069688 -0.20593844893511845 -0.002070463805578387 -0.005609939830141016 0.0 0.0
0.0 0.25096930447656 0.21787075325652597 -0.2156157987642648 -0.002254954492261156 -0.00668884502719625 0.0 0.0
0.0 0.2509693044765444 0.21787075325651206 -0.2156157987642513 -0.002254954492260753 0.0066888450272061485 0.0 0.0
0.0 0.2397335001864405 0.20800891274064998 -0.20593844893507168 -0.0020704638055781548 0.005609939830165524 0.0 0.0
0.0 0.22145078351169964 0.19217815791872217 -0.19022441757438455 -0.0019537403443375765 0.006524098536653313 0.0 0.0
0.0 0.19911223041139064 0.17284038037956365 -0.17100905723942883 -0.0018313231401347846 0.0071392514730262225 0.0 0.0
0.0 0.1745582484495479 0.15159609903875435 -0.14989295985251005 -0.0017031391862443598 0.007086065102557958 0.0 0.0
0.0 0.14935678666565738 0.1297869685407585 -0.1282134511347374 -0.0015735174060210887 0.00657790289031358 0.0 0.0
0.0 0.12474561013756136 0.10845530314146436 -0.10700855419125124 -0.0014467489502130709 0.00585906267726722 0.0 0.0
0.0 0.10150557655936483 0.08830683243271595 -0.08698272105240602 -0.0013241113803099044 0.005073280968899465 0.0 0.0
0.0 0.08018646676174454 0.06976224662754307 -0.06855786686335301 -0.0012043797641900153 0.004261760448285508 0.0 0.0
0.0 0.06109838191923937 0.053087660977665416 -0.052001652251796 -0.0010860087258693979 0.003435298039679992 0.0 0.0
0.0 0.04419739198224506 0.038512241491365076 -0.03754238860374931 -0.0009698528876157875 0.0025921850727665405 0.0 0.0
0.0 0.030022594383098 0.026255034553015748 -0.025396694003167398 -0.0008583405498483752 0.0017886852894653908 0.0 0.0
0.0 0.018754162255486456 0.016492747547501668 -0.01573950859162785 -0.0007532389558738111 0.0011278435958535647 0.0 0.0
0.0 0.010431925559673127 0.009261209184163424 -0.008618961852761784 -0.0006422473314016329 0.0006621179976478963 0.0 0.0
0.0 0.004853315576502707 0.004379142219924728 -0.003895363894949913 -0.00048377832497481467 0.0003592630981011098 0.0 0.0
0.0 0.0018036513162576267 0.0014865465091299962 -0.0012443125309547713 -0.00024223397817522415 0.00016033975211964896 0.0 0.0
0.0 0.00034938101895232165 0.00026369359682910297 -0.00020887040874207298 -5.482318808702989e-05 3.755278508537717e-05 0.0 0.0
0.0 3.439042507634508e-05 -3.831654842131893e-06 3.0755105477039312e-06 7.561442944280058e-07 -4.95319293330814e-07 0.0 0.0
0.0 0.0009003737327667055 0.0006481400176811586 -0.0005572068564242901 -9.093316125686888e-05 -0.0005778555825477586 0.0 0.0
0.0 0.013976875387785827 0.010838857157722108 -0.0112193411612337 0.00038048400351158826 0.006250455007829225 0.0 0.0
0.0 0.010450085690658516 0.0075939533713867795 -0.008089537985078232 0.0004955846136914476 -0.007272046971051245 0.0 0.0
0.0 1.3597000313894735e-05 1.0160388826455606e-05 -8.991952391919595e-06 -1.1684364345360106e-06 6.557789820932952e-06 0.0 0.0
0.0 7.122867888113585e-07 1.314524511332054e-07 -9.938363849240375e-08 -3.2068812640803996e-08 -4.7213198176546645e-08 0.0 0.0
0.0 0.0001435557470810414 0.00010330023309464863 -8.118766969587464e-05 -2.2112563398774192e-05 -3.6134236310117534e-05 0.0 0.0
0.0 0.001223652460664902 0.0009699489626889476 -0.0007996972533530903 -0.00017025170933585775 -0.0002576999104263597 0.0 0.0
0.0 0.003762640761129283 0.0033982679716336606 -0.002977094775966897 -0.0004211731956667628 -0.000738083264789197 0.0 0.0
0.0 0.008704262484401959 0.007720828358654484 -0.0071141788122277266 -0.0006066495464267542 -0.001505547861258708 0.0 0.0
0.0 0.01621877078540359 0.01423619944793605 -0.01350728650602812 -0.0007289129419079292 -0.00262302405721699 0.0 0.0
0.0 0.026418729630652796 0.023060265071565465 -0.02222610941567105 -0.0008341556558944085 -0.004117768258637135 0.0 0.0
0.0 0.0392030407075332 0.03410650462154644 -0.03316584282423847 -0.0009406617973079783 -0.005864412453076565 0.0 0.0
0.0 0.05434982579882085 0.04718391209893642 -0.046135111143415904 -0.0010488009555205285 -0.007665656274764249 0.0 0.0
0.0 0.07168200817320051 0.062102655909294806 -0.06094509307920095 -0.0011575628300938255 -0.009401990011384998 0.0 0.0
0.0 0.09071696520164794 0.07870010091147976 -0.07743231014772779 -0.0012677907637519766 -0.011122046067489458 0.0 0.0
0.0 0.11150555762911932 0.09676107014541643 -0.09538072480118291 -0.0013803453442335126 -0.012828756742070195 0.0 0.0
0.0 0.1336286067922828 0.11592614796102699 -0.11443053852465394 -0.0014956094363729692 -0.01439825425418541 0.0 0.0
0.0 0.15631967849906653 0.13559901558365453 -0.13398607478425612 -0.001612940799398476 -0.01554788895808007 0.0 0.0
0.0 0.17854830881315284 0.15487926945456001 -0.15314851206795677 -0.0017307573866032632 -0.01581420661059463 0.0 0.0
0.0 0.19889921375021494 0.17252962264847868 -0.17068097417944555 -0.001848648469033123 -0.014880613474493721 0.0 0.0
0.0 0.21535639840878112 0.18681816723729333 -0.18483720303367138 -0.00198096420362194 -0.013065302971891226 0.0 0.0
0.0 0.22522949585964253 0.19541797625507978 -0.19333553590001354 -0.0020824403550662282 -0.010183848989785098 0.0 0.0
0.0 0.22522949585962915 0.1954179762550678 -0.19333553590000208 -0.002082440355065802 0.010183848989809103 0.0 0.0
0.0 0.21535639840873194 0.1868181672372502 -0.18483720303362786 -0.0019809642036223507 0.013065302971935472 0.0 0.0
0.0 0.19889921375013617 0.17252962264840976 -0.17068097417937683 -0.0018486484690328482 0.014880613474522842 0.0 0.0
0.0 0.17854830881305722 0.15487926945447644 -0.15314851206787436 -0.0017307573866018962 0.01581420661060899 0.0 0.0
0.0 0.15631967849895886 0.13559901558356116 -0.13398607478416383 -0.0016129407993972578 0.015547888958071413 0.0 0.0
0.0 0.13362860679217267 0.11592614796093122 -0.11443053852455942 -0.0014956094363718004 0.014398254254179295 0.0 0.0
0.0 0.11150555762900681 0.09676107014531865 -0.0953807248010861 -0.0013803453442325 0.01282875674206628 0.0 0.0
0.0 0.09071696520153834 0.0787001009113845 -0.07743231014763348 -0.0012677907637510192 0.011122046067483779 0.0 0.0
0.0 0.07168200817309772 0.06210265590920555 -0.06094509307911257 -0.0011575628300929492 0.00940199001137241 0.0 0.0
0.0 0.05434982579872863 0.047183912098856404 -0.04613511114333656 -0.0010488009555198277 0.007665656274752663 0.0 0.0
0.0 0.03920304070745464 0.03410650462147836 -0.03316584282417077 -0.0009406617973075693 0.005864412453060542 0.0 0.0
0.0 0.026418729630593628 0.02306026507151354 -0.02222610941561943 -0.0008341556558940991 0.0041177682586299065 0.0 0.0
0.0 0.01621877078536081 0.014236199447898458 -0.013507286505991081 -0.0007289129419073793 0.002623024057209644 0.0 0.0
0.0 0.008704262484373443 0.007720828358629016 -0.00711417881220301 -0.0006066495464260023 0.0015055478612538149 0.0 0.0
0.0 0.00376264076111325 0.00339826797161957 -0.0029770947759536637 -0.0004211731956659066 0.0007380832647857653 0.0 0.0
0.0 0.0012236524606592564 0.0009699489626847437 -0.0007996972533494626 -0.00017025170933528133 0.0002576999104252564 0.0 0.0
0.0 0.00014355574708038949 0.00010330023309469669 -8.118766969590598e-05 -2.21125633987906e-05 3.61342363101351e-05 0.0 0.0
0.0 7.122867886809513e-07 1.3145245121984528e-07 -9.938363855581899e-08 -3.206881266402874e-08 4.721319819357518e-08 0.0 0.0
0.0 1.3597000313511677e-05 1.016038882645283e-05 -8.991952391904665e-06 -1.1684364345481656e-06 -6.557789820936856e-06 0.0 0.0
0.0 0.010450085690636528 0.0075939533713723605 -0.008089537985063145 0.0004955846136907805 0.007272046971024827 0.0 0.0
0.0 0.007965682386699919 0.00548516352720518 -0.006012832526982028 0.0005276689997768483 -0.006417674606060783 0.0 0.0
0.0 0.0 0.0 0.0 0.0 0.0 0.0 0.0
0.0 0.0 0.0 0.0 0.0 0.0 0.0 0.0
0.0 3.309288730222421e-05 2.678592024255535e-05 -2.0948475274708617e-05 -5.837444967846763e-06 -1.73388934884216e-05 0.0 0.0
0.0 0.0007068269007625109 0.0005667514863558862 -0.0004604625243725107 -0.00010628896198337518 -0.000266792814170127 0.0 0.0
0.0 0.002927283681001109 0.0024707949009157675 -0.002128200161861737 -0.00034259473905402966 -0.00092599449267871 0.0 0.0
0.0 0.007039207748887446 0.00621125289409447 -0.005650521352867568 -0.0005607315412269029 -0.0020540689947423614 0.0 0.0
0.0 0.013707799927358943 0.011970568502367458 -0.011272834756877018 -0.0006977337454904307 -0.0037041709806957942 0.0 0.0
0.0 0.02283435316182577 0.01981838992370391 -0.01901318538016559 -0.0008052045435383235 -0.005855414797684057 0.0 0.0
0.0 0.034236572264703884 0.029629077654882475 -0.028722373326076266 -0.0009067043288061842 -0.008329315694492644 0.0 0.0
0.0 0.047701341651862496 0.041201147657265555 -0.040194187848857935 -0.001006959808407634 -0.010876474404301907 0.0 0.0
0.0 0.06294227403634567 0.054367108278096585 -0.053260323729483805 -0.001106784548612763 -0.01334328281814952 0.0 0.0
0.0 0.07998510869793471 0.06900090730721803 -0.0677935806743587 -0.0012073266328593226 -0.015764554046093445 0.0 0.0
0.0 0.09831994469296201 0.08495219322959899 -0.0836428487942197 -0.0013093444353792175 -0.01818193666365455 0.0 0.0
0.0 0.11789688104244367 0.10193987289297576 -0.1005271325751451 -0.001412740317830642 -0.0204443768821451 0.0 0.0
0.0 0.13814370921716637 0.1194836811920933 -0.11796583919182543 -0.0015178420002678456 -0.02214803039145945 0.0 0.0
0.0 0.15809949561320827 0.13682488761975248 -0.13519906559666517 -0.0016258220230872715 -0.022734128962710813 0.0 0.0
0.0 0.17642278215286294 0.1528064291323276 -0.15106510057789455 -0.0017413285544330412 -0.021746237343069044 0.0 0.0
0.0 0.19122217377719353 0.16576590022623394 -0.16391169214411774 -0.0018542080821161257 -0.018697648365454997 0.0 0.0
0.0 0.2003348816374469 0.17382697924888413 -0.1718907368107256 -0.0019362424381583988 -0.012617299168220707 0.0 0.0
0.0 0.20033488163743066 0.17382697924886953 -0.17189073681071088 -0.0019362424381585636 0.012617299168262004 0.0 0.0
0.0 0.1912221737771497 0.16576590022619392 -0.16391169214407825 -0.001854208082115789 0.01869764836551552 0.0 0.0
0.0 0.1764227821527963 0.15280642913226827 -0.15106510057783548 -0.001741328554432635 0.021746237343110562 0.0 0.0
0.0 0.15809949561312459 0.13682488761967931 -0.1351990655965919 -0.0016258220230874888 0.022734128962729718 0.0 0.0
0.0 0.1381437092170714 0.11948368119201128 -0.11796583919174367 -0.0015178420002675565 0.022148030391449452 0.0 0.0
0.0 0.11789688104234437 0.10193987289288972 -0.10052713257505948 -0.0014127403178302862 0.020444376882137467 0.0 0.0
0.0 0.0983199446928628 0.08495219322951286 -0.08364284879413394 -0.001309344435378917 0.018181936663649194 0.0 0.0
0.0 0.07998510869783977 0.0690009073071357 -0.06779358067427674 -0.0012073266328589023 0.0157645540460856 0.0 0.0
0.0 0.06294227403625409 0.05436710827801773 -0.053260323729405326 -0.0011067845486124335 0.013343282818132109 0.0 0.0
0.0 0.0477013416517809 0.041201147657194764 -0.040194187848787685 -0.0010069598084070563 0.010876474404284988 0.0 0.0
0.0 0.03423657226463574 0.02962907765482348 -0.028722373326017833 -0.0009067043288056365 0.008329315694471932 0.0 0.0
0.0 0.022834353161771247 0.019818389923656546 -0.019013185380118553 -0.0008052045435379859 0.005855414797671453 0.0 0.0
0.0 0.013707799927320415 0.011970568502333884 -0.01127283475684386 -0.0006977337454900184 0.0037041709806848126 0.0 0.0
0.0 0.0070392077488640676 0.00621125289407377 -0.005650521352847686 -0.0005607315412260829 0.002054068994736018 0.0 0.0
0.0 0.0029272836809883882 0.00247079490090515 -0.00212820016185216 -0.00034259473905298943 0.0009259944926746574 0.0 0.0
0.0 0.000706826900757535 0.0005667514863521519 -0.00046046252436937124 -0.00010628896198278061 0.0002667928141682897 0.0 0.0
0.0 3.309288730194981e-05 2.6785920242851886e-05 -2.0948475274929177e-05 -5.837444967922727e-06 1.733889348853546e-05 0.0 0.0
0.0 0.0 0.0 0.0 0.0 0.0 0.0 0.0
0.0 0.0 0.0 0.0 0.0 0.0 0.0 0.0
0.0 0.007965682386680505 0.005485163527191884 -0.006012832526968138 0.0005276689997762501 0.006417674606038944 0.0 0.0
0.0 0.006004976826944501 0.003969561859062176 -0.004471339503665922 0.0005017776446037438 -0.005099993016754193 0.0 0.0
0.0 0.0 0.0 0.0 0.0 0.0 0.0 0.0
0.0 0.0 0.0 0.0 0.0 0.0 0.0 0.0
0.0 5.759176488070644e-06 2.7395292210400733e-06 -2.132273865315651e-06 -6.072553557244065e-07 -2.7997850229004875e-06 0.0 0.0
0.0 0.0003565006541004528 0.00027847807846125526 -0.00022389252401114652 -5.458555445010859e-05 -0.0002098962448664763 0.0 0.0
0.0 0.0020378184825672547 0.001668853293278835 -0.001411503136326082 -0.000257350156952753 -0.0009489878199600439 0.0 0.0
0.0 0.005503990330092922 0.004753162288288362 -0.004256809114745359 -0.0004963531735430047 -0.002313859949835007 0.0 0.0
0.0 0.011251867825554665 0.009725865600231785 -0.009067644205885404 -0.0006582213943463783 -0.004364407950093221 0.0 0.0
0.0 0.01927093868487659 0.016566070595069586 -0.01579622231245296 -0.0007698482826166312 -0.006993232541854574 0.0 0.0
0.0 0.02927413949112803 0.025120357641282162 -0.024253010980434142 -0.0008673466608479842 -0.009991719545023137 0.0 0.0
0.0 0.04103017606720738 0.03517765034492641 -0.0342173808102871 -0.0009602695346393102 -0.013069088443133618 0.0 0.0
0.0 0.05433980968167315 0.04658493286484227 -0.04553350284244318 -0.001051430022399083 -0.016067785052890568 0.0 0.0
0.0 0.0690784162510989 0.059253141723005644 -0.05811095713697452 -0.0011421845860311267 -0.019026469615829125 0.0 0.0
0.0 0.08517004672133158 0.07308075918054514 -0.07184698500489778 -0.001233774175647347 -0.021941882450968134 0.0 0.0
0.0 0.10233970998321788 0.08787008446021369 -0.08654482072382982 -0.0013252637363838325 -0.02467385327216937 0.0 0.0
0.0 0.11994310180919432 0.10326554456741804 -0.1018476395003911 -0.0014179050670268941 -0.026850311935098042 0.0 0.0
0.0 0.13763400326693825 0.11864801399803074 -0.11713205873861454 -0.0015159552594161915 -0.02783925438750672 0.0 0.0
0.0 0.15403392413911254 0.1330070685342275 -0.1313868811272857 -0.0016201874069418129 -0.02687789506928304 0.0 0.0
0.0 0.1674697598793325 0.14490245912249825 -0.1431821094582087 -0.0017203496642895224 -0.0228951256808634 0.0 0.0
0.0 0.17614816521557738 0.15274053297159162 -0.15094627586996406 -0.0017942571016275586 -0.014573618864668767 0.0 0.0
0.0 0.17614816521556315 0.15274053297157847 -0.15094627586995038 -0.0017942571016281543 0.014573618864721739 0.0 0.0
0.0 0.16746975987929752 0.14490245912246508 -0.1431821094581755 -0.0017203496642894723 0.022895125680933374 0.0 0.0
0.0 0.15403392413905978 0.1330070685341786 -0.13138688112723795 -0.0016201874069405166 0.026877895069331977 0.0 0.0
0.0 0.1376340032668666 0.11864801399796691 -0.11713205873855136 -0.001515955259415541 0.02783925438752926 0.0 0.0
0.0 0.11994310180911075 0.10326554456734577 -0.1018476395003193 -0.00141790506702646 0.026850311935087644 0.0 0.0
0.0 0.10233970998313095 0.08787008446013833 -0.08654482072375516 -0.0013252637363831887 0.0246738532721595 0.0 0.0
0.0 0.08517004672124123 0.07308075918046678 -0.07184698500481973 -0.0012337741756470227 0.02194188245095844 0.0 0.0
0.0 0.06907841625101507 0.05925314172293267 -0.05811095713690246 -0.001142184586030201 0.01902646961581727 0.0 0.0
0.0 0.05433980968159279 0.04658493286477304 -0.045533502842374264 -0.0010514300223987737 0.01606778505286901 0.0 0.0
0.0 0.04103017606713556 0.035177650344864614 -0.03421738081022556 -0.0009602695346390468 0.013069088443111661 0.0 0.0
0.0 0.029274139491065013 0.025120357641228486 -0.02425301098038091 -0.0008673466608475593 0.009991719544997793 0.0 0.0
0.0 0.019270938684829233 0.01656607059502868 -0.015796222312412712 -0.0007698482826159724 0.00699323254183887 0.0 0.0
0.0 0.011251867825520578 0.009725865600202239 -0.009067644205856732 -0.000658221394345502 0.004364407950080269 0.0 0.0
0.0 0.0055039903300717705 0.004753162288270229 -0.0042568091147282315 -0.0004963531735419967 0.002313859949826968 0.0 0.0
0.0 0.0020378184825556095 0.0016688532932698666 -0.0014115031363180937 -0.0002573501569517733 0.0009489878199547355 0.0 0.0
0.0 0.0003565006540969866 0.00027847807845915527 -0.00022389252400939968 -5.458555444975573e-05 0.00020989624486491816 0.0 0.0
0.0 5.75917648775127e-06 2.7395292212728227e-06 -2.1322738654953185e-06 -6.072553557774933e-07 2.7997850231294256e-06 0.0 0.0
0.0 0.0 0.0 0.0 0.0 0.0 0.0 0.0
0.0 0.0 0.0 0.0 0.0 0.0 0.0 0.0
0.0 0.006004976826927353 0.003969561859050759 -0.0044713395036537935 0.000501777644603032 0.005099993016737058 0.0 0.0
0.0 0.004391436007300487 0.002800320986922184 -0.0032410765363370887 0.00044075554941490575 -0.0038034110915016583 0.0 0.0
0.0 0.0 0.0 0.0 0.0 0.0 0.0 0.0
0.0 0.0 0.0 0.0 0.0 0.0 0.0 0.0
0.0 8.626075037895545e-07 3.819960486324063e-07 -2.91864289187045e-07 -9.013175944536146e-08 -5.604929574538525e-07 0.0 0.0
0.0 0.00015357225540746827 0.00010945358668478989 -8.761969771777784e-05 -2.1833888967012042e-05 -0.0001274191974981373 0.0 0.0
0.0 0.001285008944640105 0.0010144379285636671 -0.0008429671255389115 -0.0001714708030247559 -0.0008509093856595687 0.0 0.0
0.0 0.004165988363026635 0.0033945076274250635 -0.0029820316522757976 -0.0004124759751492662 -0.0022960012170992437 0.0 0.0
0.0 0.00892133691058454 0.007528162587095666 -0.006923904283251089 -0.000604258303844577 -0.004562773075556664 0.0 0.0
0.0 0.015752050822914403 0.013339666316225966 -0.012613225366175308 -0.0007264409500506607 -0.0075242994876107165 0.0 0.0
0.0 0.024349938409465192 0.020619221894047017 -0.019797635058235702 -0.0008215868358113091 -0.010848040959227428 0.0 0.0
0.0 0.03440433790524954 0.02915240337848478 -0.02824440630983383 -0.0009079970686509764 -0.014253198316927838 0.0 0.0
0.0 0.04571617318797489 0.03879683460262439 -0.037806306106695955 -0.0009905284959284266 -0.0175749458912952 0.0 0.0
0.0 0.058292449470042876 0.049493920310723936 -0.04842222304829765 -0.0010716972624262838 -0.020854289221361722 0.0 0.0
0.0 0.07187247708615858 0.06119516135342738 -0.06004261425777972 -0.0011525470956476704 -0.024102524225868855 0.0 0.0
0.0 0.08652423878210469 0.07377188621728256 -0.07253908164464026 -0.0012328045726422915 -0.02713863551035652 0.0 0.0
0.0 0.10192208596144892 0.08697278283881543 -0.08565932576589991 -0.0013134570729154875 -0.029612395812954054 0.0 0.0
0.0 0.11715690128874558 0.1003479947297371 -0.09895015290795432 -0.0013978418217827546 -0.03096736261724471 0.0 0.0
0.0 0.13161864573101573 0.11312114549637235 -0.11163240520359163 -0.0014887402927807095 -0.030229687309031236 0.0 0.0
0.0 0.1438915190956648 0.12411715945067228 -0.12253824934354221 -0.001578910107130018 -0.02584925647759356 0.0 0.0
0.0 0.15236708427250892 0.13193529404526028 -0.13028458449465002 -0.0016507095506101694 -0.016194369209301035 0.0 0.0
0.0 0.15236708427249757 0.1319352940452484 -0.13028458449463864 -0.0016507095506096566 0.01619436920935636 0.0 0.0
0.0 0.14389151909563497 0.1241171594506421 -0.12253824934351303 -0.0015789101071290701 0.02584925647766595 0.0 0.0
0.0 0.13161864573096832 0.11312114549632765 -0.11163240520354696 -0.0014887402927806883 0.03022968730908415 0.0 0.0
0.0 0.11715690128868916 0.10034799472968553 -0.09895015290790363 -0.0013978418217819007 0.030967362617270587 0.0 0.0
0.0 0.1019220859613793 0.08697278283875462 -0.08565932576584034 -0.0013134570729143307 0.02961239581294527 0.0 0.0
0.0 0.08652423878202935 0.07377188621721742 -0.07253908164457525 -0.0012328045726422185 0.027138635510344816 0.0 0.0
0.0 0.07187247708608874 0.061195161353366785 -0.06004261425771952 -0.0011525470956472526 0.02410252422585856 0.0 0.0
0.0 0.05829244946997535 0.049493920310664935 -0.04842222304823928 -0.001071697262425632 0.020854289221350842 0.0 0.0
0.0 0.0457161731879093 0.03879683460256791 -0.03780630610664041 -0.000990528495927477 0.017574945891274174 0.0 0.0
0.0 0.03440433790519054 0.029152403378434326 -0.0282444063097845 -0.0009079970686498281 0.014253198316903443 0.0 0.0
0.0 0.02434993840941456 0.02061922189400481 -0.01979763505819438 -0.0008215868358104364 0.010848040959199896 0.0 0.0
0.0 0.015752050822872867 0.013339666316190666 -0.012613225366140474 -0.0007264409500501858 0.007524299487592881 0.0 0.0
0.0 0.008921336910552025 0.007528162587068677 -0.006923904283224632 -0.0006042583038440463 0.0045627730755405035 0.0 0.0
0.0 0.004165988363007737 0.00339450762740971 -0.002982031652261499 -0.00041247597514821043 0.002296001217089825 0.0 0.0
0.0 0.0012850089446321585 0.001014437928557846 -0.0008429671255339148 -0.0001714708030239307 0.000850909385654717 0.0 0.0
0.0 0.00015357225540595811 0.0001094535866842564 -8.761969771733808e-05 -2.1833888966918265e-05 0.00012741919749748346 0.0 0.0
0.0 8.626075036094855e-07 3.819960487476247e-07 -2.918642892753099e-07 -9.013175947231275e-08 5.604929576272884e-07 0.0 0.0
0.0 0.0 0.0 0.0 0.0 0.0 0.0 0.0
0.0 0.0 0.0 0.0 0.0 0.0 0.0 0.0
0.0 0.0043914360072859655 0.002800320986912753 -0.0032410765363269614 0.00044075554941420606 0.003803411091487897 0.0 0.0
0.0 0.003042266031869187 0.0018824706025233303 -0.002240094762596904 0.00035762416007357285 -0.002683129830292632 0.0 0.0
0.0 0.0 0.0 0.0 0.0 0.0 0.0 0.0
0.0 0.0 0.0 0.0 0.0 0.0 0.0 0.0
0.0 1.2459832782016668e-06 -8.711175530045244e-08 6.722946238267231e-08 1.9882292917777628e-08 2.0432140011233723e-07 0.0 0.0
0.0 6.705423197163741e-05 3.745218939879022e-05 -2.990656894839806e-05 -7.545620450392157e-06 -6.516612722621622e-05 0.0 0.0
0.0 0.000709877194705416 0.0005329198472387098 -0.00043646935524692035 -9.645049199178936e-05 -0.0006638224819830758 0.0 0.0
0.0 0.0028130518653926503 0.002212220097025726 -0.001901452877864623 -0.00031076721916110266 -0.002096493284003277 0.0 0.0
0.0 0.006710994010167112 0.0054361290785755 -0.004909968174456101 -0.0005261609041193975 -0.004367270569640024 0.0 0.0
0.0 0.012351943224964225 0.010174133562069861 -0.00950409129737061 -0.0006700422646992489 -0.007417574744229334 0.0 0.0
0.0 0.019484814631185995 0.016166454352086298 -0.015399023750828376 -0.000767430601257916 -0.010887007370608806 0.0 0.0
0.0 0.02780679251065698 0.023167267770655746 -0.022319040121952193 -0.0008482276487035484 -0.01441245283218599 0.0 0.0
0.0 0.03714780522000627 0.031046207334080516 -0.030123269144199646 -0.0009229381898808663 -0.017854384121998093 0.0 0.0
0.0 0.04745427126039707 0.039771454049578346 -0.03877695744737334 -0.0009944966022049848 -0.0212565234261972 0.0 0.0
0.0 0.058721200661618664 0.049338683075760184 -0.04827409644556842 -0.0010645866301917726 -0.024615722293206726 0.0 0.0
0.0 0.07089485797291692 0.05968930704958661 -0.058554940197289365 -0.001134366852297268 -0.027780392814740644 0.0 0.0
0.0 0.08350384787713495 0.07065876921761818 -0.06945584420461615 -0.0012029250130020342 -0.030428102743626062 0.0 0.0
0.0 0.0966078289298697 0.08195485178121843 -0.08068296353037936 -0.001271888250839046 -0.03204136907457102 0.0 0.0
0.0 0.10927966840721401 0.09310558269300209 -0.09175893615460165 -0.0013466465384004557 -0.031684672035798646 0.0 0.0
0.0 0.12031928717072227 0.10327146257207372 -0.10184420800815394 -0.0014272545639197132 -0.027540869956300902 0.0 0.0
0.0 0.12874994558268743 0.1112135036010833 -0.10971239375608036 -0.0015011098450029162 -0.017513524851482186 0.0 0.0
0.0 0.12874994558267666 0.11121350360107227 -0.10971239375606837 -0.0015011098450038824 0.017513524851538606 0.0 0.0
0.0 0.12031928717069361 0.1032714625720443 -0.10184420800812374 -0.0014272545639205797 0.02754086995637521 0.0 0.0
0.0 0.1092796684071753 0.09310558269296337 -0.09175893615456371 -0.0013466465383997022 0.03168467203585245 0.0 0.0
0.0 0.09660782892982211 0.08195485178117431 -0.08068296353033576 -0.0012718882508385423 0.032041369074594137 0.0 0.0
0.0 0.08350384787707585 0.07065876921756727 -0.06945584420456545 -0.0012029250130017885 0.030428102743615782 0.0 0.0
0.0 0.0708948579728555 0.05968930704953339 -0.058554940197236977 -0.0011343668522963922 0.027780392814727155 0.0 0.0
0.0 0.05872120066156004 0.04933868307570934 -0.048274096445518 -0.0010645866301913676 0.024615722293193927 0.0 0.0
0.0 0.04745427126034392 0.03977145404953214 -0.038776957447327745 -0.0009944966022044158 0.021256523426186287 0.0 0.0
0.0 0.03714780521995318 0.03104620733403543 -0.030123269144155328 -0.0009229381898801015 0.017854384121977745 0.0 0.0
0.0 0.02780679251060363 0.023167267770611254 -0.022319040121908065 -0.0008482276487032031 0.014412452832160102 0.0 0.0
0.0 0.019484814631142676 0.016166454352051034 -0.015399023750793744 -0.000767430601257285 0.010887007370580125 0.0 0.0
0.0 0.012351943224931224 0.010174133562042323 -0.009504091297343928 -0.0006700422646983889 0.007417574744210741 0.0 0.0
0.0 0.006710994010142053 0.005436129078555295 -0.004909968174436723 -0.0005261609041185744 0.0043672705696246455 0.0 0.0
0.0 0.002813051865379991 0.002212220097015921 -0.0019014528778557782 -0.00031076721916014255 0.0020964932839951534 0.0 0.0
0.0 0.0007098771947003775 0.0005329198472355573 -0.00043646935524426715 -9.645049199129009e-05 0.000663822481979237 0.0 0.0
0.0 6.705423197056835e-05 3.7452189398700885e-05 -2.9906568948311174e-05 -7.545620450389716e-06 6.516612722597119e-05 0.0 0.0
0.0 1.245983277765114e-06 -8.711175526903953e-08 6.722946235833695e-08 1.9882292910690027e-08 -2.0432140003799813e-07 0.0 0.0
0.0 0.0 0.0 0.0 0.0 0.0 0.0 0.0
0.0 0.0 0.0 0.0 0.0 0.0 0.0 0.0
0.0 0.0030422660318579855 0.0018824706025163396 -0.0022400947625891426 0.00035762416007280345 0.002683129830282498 0.0 0.0
0.0 0.001975280753947171 0.001167377473883967 -0.0014290343393344076 0.00026165686545044046 -0.0017576694542155392 0.0 0.0
0.0 5.610935232125803e-07 -8.037160125762508e-09 8.338978319598262e-09 -3.018181938355691e-10 1.1164998698213293e-07 0.0 0.0
0.0 0.0 0.0 0.0 0.0 0.0 0.0 0.0
0.0 1.343535810957597e-06 -6.745450613659108e-08 5.1836617700734505e-08 1.5617888435866596e-08 2.5068220686766373e-07 0.0 0.0
0.0 3.601361734257002e-05 1.7121257061140834e-05 -1.3584487124783323e-05 -3.5367699363575186e-06 -4.420966773008781e-05 0.0 0.0
0.0 0.00037981192756890236 0.00022609127956710144 -0.00018333323588345975 -4.275804368364182e-05 -0.0004255749018451163 0.0 0.0
0.0 0.0017203374928133717 0.0012394712650890766 -0.001041124560439072 -0.00019834670465000508 -0.0016968073463157374 0.0 0.0
0.0 0.0046158521887688115 0.0035315604216545 -0.003113759382131523 -0.00041780103952297564 -0.0038397350046856346 0.0 0.0
0.0 0.00905908490582906 0.00713492902055304 -0.006546109984142322 -0.0005888190364107132 -0.006717267722314797 0.0 0.0
0.0 0.014708440818337169 0.011806789005148775 -0.01110776809660889 -0.0006990209085398812 -0.010073781778225623 0.0 0.0
0.0 0.021288224683626365 0.017266829917520987 -0.016489359082633416 -0.0007774708348875633 -0.013533272797865991 0.0 0.0
0.0 0.028634223265814853 0.02338213353885928 -0.022536366250305622 -0.0008457672885536548 -0.01689295121692208 0.0 0.0
0.0 0.03673610980864175 0.030137106706668734 -0.02922895208418613 -0.0009081546224825969 -0.020199071640814862 0.0 0.0
0.0 0.04555798023399049 0.03756719697733418 -0.0365997346397938 -0.000967462337540367 -0.023478803873697808 0.0 0.0
0.0 0.055157034627445395 0.04567606317430926 -0.044650148439795784 -0.001025914734513489 -0.026588404271385924 0.0 0.0
0.0 0.06535093311486301 0.054379376368627205 -0.05329467487606568 -0.0010847014925615527 -0.02921121716350651 0.0 0.0
0.0 0.07585689104209728 0.0635181535595933 -0.062380029355516 -0.0011381242040772875 -0.030966423614385223 0.0 0.0
0.0 0.08650967311309835 0.07293068251178703 -0.07173824493442713 -0.001192437577359917 -0.031137200303669274 0.0 0.0
0.0 0.09674369014456685 0.08221447838703767 -0.08095387688430206 -0.001260601502735579 -0.02786245178658343 0.0 0.0
0.0 0.1053068930690707 0.0903679174738693 -0.08902789147564694 -0.0013400259982223272 -0.01850259911701119 0.0 0.0
0.0 0.10530689306906435 0.09036791747386104 -0.089027891475639 -0.0013400259982220073 0.01850259911706567 0.0 0.0
0.0 0.09674369014454783 0.0822144783870151 -0.08095387688427942 -0.0012606015027357654 0.02786245178665632 0.0 0.0
0.0 0.08650967311307056 0.07293068251175694 -0.07173824493439718 -0.0011924375773597231 0.031137200303723682 0.0 0.0
0.0 0.0758568910420608 0.06351815355955812 -0.062380029355481134 -0.0011381242040770124 0.030966423614408725 0.0 0.0
0.0 0.06535093311481455 0.05437937636858581 -0.05329467487602411 -0.0010847014925616759 0.029211217163494663 0.0 0.0
0.0 0.05515703462739322 0.0456760631742651 -0.04465014843975149 -0.0010259147345136 0.026588404271368916 0.0 0.0
0.0 0.045557980233945 0.03756719697729494 -0.03659973463975517 -0.0009674623375397689 0.02347880387368575 0.0 0.0
0.0 0.036736109808601466 0.030137106706633773 -0.029228952084151775 -0.0009081546224819865 0.02019907164080472 0.0 0.0
0.0 0.02863422326577445 0.02338213353882544 -0.022536366250272326 -0.0008457672885531251 0.01689295121690332 0.0 0.0
0.0 0.021288224683584864 0.017266829917487406 -0.016489359082600158 -0.0007774708348872316 0.013533272797840635 0.0 0.0
0.0 0.014708440818300904 0.01180678900512084 -0.01110776809658123 -0.0006990209085396027 0.01007378177819691 0.0 0.0
0.0 0.009059084905800353 0.007134929020530452 -0.006546109984120173 -0.0005888190364102796 0.006717267722296385 0.0 0.0
0.0 0.0046158521887487225 0.0035315604216390037 -0.0031137593821170904 -0.0004178010395219122 0.003839735004671256 0.0 0.0
0.0 0.0017203374928025283 0.0012394712650812267 -0.0010411245604321608 -0.00019834670464906554 0.001696807346306669 0.0 0.0
0.0 0.0003798119275644225 0.00022609127956471037 -0.0001833332358815112 -4.2758043683198985e-05 0.0004255749018409515 0.0 0.0
0.0 3.601361734133569e-05 1.7121257061115708e-05 -1.3584487124757636e-05 -3.5367699363580882e-06 4.420966773002454e-05 0.0 0.0
0.0 1.343535810551308e-06 -6.74545061154224e-08 5.1836617684484416e-08 1.561788843093987e-08 -2.5068220678900275e-07 0.0 0.0
0.0 0.0 0.0 0.0 0.0 0.0 0.0 0.0
0.0 5.610935225658215e-07 -8.037160116491167e-09 8.3389783100577e-09 -3.018181935663175e-10 -1.1164998685127716e-07 0.0 0.0
0.0 0.0019752807539384232 0.0011673774738789298 -0.0014290343393286366 0.00026165686544970553 0.001757669454208013 0.0 0.0
0.0 0.0011457707698026218 0.0006341732066119691 -0.0008011742651365109 0.00016700105852454159 -0.0010196519296639985 0.0 0.0
0.0 1.285342413041403e-06 3.227361519440475e-08 -3.051722536009772e-08 -1.756389834308371e-09 -7.870983598409137e-07 0.0 0.0
0.0 6.305102464673167e-07 -7.0898921551877894e-09 5.074535917472657e-09 2.0153562377156586e-09 1.2874703632778445e-07 0.0 0.0
0.0 1.3093366626906348e-06 7.217296885048771e-08 -5.95220748190314e-08 -1.2650894031454156e-08 -5.651338425284625e-07 0.0 0.0
0.0 2.916238480829155e-05 9.905108385269343e-06 -7.825944424683464e-06 -2.0791639605858923e-06 -4.012034598165351e-05 0.0 0.0
0.0 0.0002031241560048871 8.856348500415192e-05 -7.130634265639581e-05 -1.7257142347756125e-05 -0.00026917743787164183 0.0 0.0
0.0 0.0009320229610138174 0.0005439320482882904 -0.00044738533001048363 -9.654671827780664e-05 -0.0011715722423772152 0.0 0.0
0.0 0.0027825392732250195 0.0018957236715362491 -0.0016207864049355978 -0.00027493726660065106 -0.0029956428633499256 0.0 0.0
0.0 0.005950659608429604 0.004317497295223345 -0.0038530169626673264 -0.00046448033255601525 -0.005504386350934135 0.0 0.0
0.0 0.010014487014648276 0.00761724518922075 -0.00701813194139355 -0.0005991132478271992 -0.008455380755062554 0.0 0.0
0.0 0.014928580657269923 0.011512051303620097 -0.01082624115538895 -0.0006858101482311446 -0.01156975725511601 0.0 0.0
0.0 0.020245479496921258 0.01586475825601229 -0.015113522850019087 -0.000751235405993194 -0.014640088702101036 0.0 0.0
0.0 0.026097163040003788 0.020657261593905695 -0.019850789188256338 -0.00080647240564936 -0.01766099809846745 0.0 0.0
0.0 0.03253711690920582 0.02594660442467429 -0.025091081210644333 -0.0008555232140299544 -0.020644614405170736 0.0 0.0
0.0 0.039638151599239446 0.03179594251404386 -0.030893646190156256 -0.0009022963238875849 -0.023514535538738834 0.0 0.0
0.0 0.04723472091478423 0.03820928259211316 -0.03725888533476416 -0.0009503972573489908 -0.025984106337574975 0.0 0.0
0.0 0.05531508135036016 0.04512333107551554 -0.044128321443556696 -0.0009950096319588353 -0.027660972746966783 0.0 0.0
0.0 0.06374077292779051 0.052601635039732 -0.05157586338937992 -0.0010257716503520582 -0.02828236934745335 0.0 0.0
0.0 0.07262003346505533 0.060794495299708325 -0.05972430735475592 -0.0010701879449523696 -0.026499358396154152 0.0 0.0
0.0 0.08124891431357556 0.06916553825214874 -0.06800914792459407 -0.001156390327554708 -0.01905866188434998 0.0 0.0
0.0 0.0812489143135738 0.06916553825214422 -0.06800914792458926 -0.0011563903275550052 0.019058661884396755 0.0 0.0
0.0 0.07262003346504348 0.06079449529969136 -0.05972430735473869 -0.0010701879449526723 0.026499358396220286 0.0 0.0
0.0 0.06374077292776925 0.05260163503970724 -0.05157586338935519 -0.0010257716503520471 0.028282369347500724 0.0 0.0
0.0 0.055315081350333216 0.045123331075488854 -0.044128321443531085 -0.0009950096319577785 0.027660972746983682 0.0 0.0
0.0 0.04723472091475145 0.03820928259208558 -0.03725888533473787 -0.0009503972573477058 0.025984106337561496 0.0 0.0
0.0 0.03963815159920435 0.03179594251401476 -0.03089364619012769 -0.0009022963238870862 0.023514535538723444 0.0 0.0
0.0 0.03253711690917441 0.02594660442464794 -0.02509108121061827 -0.0008555232140296851 0.020644614405159842 0.0 0.0
0.0 0.026097163039973635 0.020657261593879754 -0.01985078918823078 -0.0008064724056489811 0.01766099809845897 0.0 0.0
0.0 0.020245479496890845 0.01586475825598783 -0.01511352284999519 -0.0007512354059926398 0.014640088702082887 0.0 0.0
0.0 0.014928580657243515 0.011512051303599499 -0.010826241155369032 -0.0006858101482304547 0.01156975725509669 0.0 0.0
0.0 0.01001448701462242 0.007617245189201785 -0.00701813194137537 -0.0005991132478264117 0.008455380755039868 0.0 0.0
0.0 0.0059506596084119585 0.00431749729521024 -0.0038530169626549886 -0.0004644803325552506 0.005504386350919958 0.0 0.0
0.0 0.002782539273213808 0.0018957236715281384 -0.0016207864049283501 -0.00027493726659978804 0.0029956428633399154 0.0 0.0
0.0 0.0009320229610072291 0.0005439320482845111 -0.0004473853300072583 -9.654671827725268e-05 0.0011715722423702776 0.0 0.0
0.0 0.00020312415600265275 8.856348500355435e-05 -7.13063426559009e-05 -1.7257142347653448e-05 0.00026917743786977424 0.0 0.0
0.0 2.9162384807662046e-05 9.905108385330334e-06 -7.825944424728614e-06 -2.079163960601708e-06 4.012034598191034e-05 0.0 0.0
0.0 1.3093366624278602e-06 7.217296892840575e-08 -5.952207488010993e-08 -1.265089404829879e-08 5.651338430853585e-07 0.0 0.0
0.0 6.305102458760242e-07 -7.089892147158693e-09 5.074535912009278e-09 2.015356235150372e-09 -1.2874703620679312e-07 0.0 0.0
0.0 1.285342412515628e-06 3.227361523594422e-08 -3.051722540848736e-08 -1.7563898274568994e-09 7.870983608568361e-07 0.0 0.0
0.0 0.0011457707697958936 0.0006341732066085773 -0.0008011742651324932 0.0001670010585239162 0.0010196519296584816 0.0 0.0
0.0 0.0005126652811962004 0.00027900739194402954 -0.0003670375999959152 8.803020805188587e-05 -0.0004843519469624216 0.0 0.0
0.0 2.5733138737001513e-06 5.535281952190934e-09 -7.171811440668092e-09 1.6365294884773763e-09 -4.311499440312745e-07 0.0 0.0
0.0 1.1884251837525116e-06 3.78331435093678e-09 -1.7565535030855276e-09 -2.026760847851598e-09 -4.834112090067063e-07 0.0 0.0
0.0 3.3253623112903253e-06 2.122021694070361e-07 -1.493499548139904e-07 -6.28522145930425e-08 -3.029931224869236e-06 0.0 0.0
0.0 3.095226934928083e-05 6.054388028290478e-06 -4.7094085964991595e-06 -1.3449794317913234e-06 -4.630924014097103e-05 0.0 0.0
0.0 0.00014942279621502538 3.8146656343455785e-05 -3.06532759813076e-05 -7.493380362148174e-06 -0.00021369106740283961 0.0 0.0
0.0 0.0004860371893454868 0.00017474545345659193 -0.00014164349717848837 -3.310195627810343e-05 -0.0007156317351201347 0.0 0.0
0.0 0.0013632312313326842 0.0006795533380931154 -0.0005613572814804127 -0.00011819605661270274 -0.0019221609006399353 0.0 0.0
0.0 0.0031500827708975136 0.0018758074147280184 -0.0016033871963437823 -0.000272420218384236 -0.0038235164997445416 0.0 0.0
0.0 0.005674555786042141 0.0037332198148851887 -0.0033079268155443656 -0.000425292999340823 -0.00611427004902372 0.0 0.0
0.0 0.008691902004530398 0.006027668932026202 -0.005491017418875702 -0.000536651513150498 -0.0085947122446259 0.0 0.0
0.0 0.012127193148339262 0.008598884947794308 -0.007987734510761124 -0.0006111504370331775 -0.011122104276187803 0.0 0.0
0.0 0.01583906003799841 0.011434961147473275 -0.010767757998821202 -0.0006672031486520752 -0.013675495005078355 0.0 0.0
0.0 0.019927778466567965 0.014590454358976079 -0.013879895002729547 -0.0007105593562465196 -0.016203748028724395 0.0 0.0
0.0 0.024465878778434643 0.018158646864309874 -0.017412081905818198 -0.0007465649584916656 -0.018670010149949803 0.0 0.0
0.0 0.029505614514674997 0.022243239758621358 -0.021461564431310365 -0.0007816753273109988 -0.020910686942265007 0.0 0.0
0.0 0.035062053620658416 0.026905229181168472 -0.026084071054017444 -0.0008211581271510452 -0.02251191956159569 0.0 0.0
0.0 0.04121430059252676 0.03227868450644315 -0.03143196104617335 -0.0008467234602698117 -0.02322991754328112 0.0 0.0
0.0 0.04857842062205621 0.03892061912936678 -0.03807624940359919 -0.0008443697257675831 -0.02295852521949335 0.0 0.0
0.0 0.05713706694755427 0.04729533419311503 -0.046369015711683406 -0.0009263184814316395 -0.018865571281266737 0.0 0.0
0.0 0.057137066947552106 0.04729533419310951 -0.04636901571167743 -0.0009263184814320946 0.018865571281308217 0.0 0.0
0.0 0.048578420622053205 0.03892061912935735 -0.03807624940358914 -0.0008443697257681745 0.022958525219550052 0.0 0.0
0.0 0.04121430059251997 0.032278684506430406 -0.031431961046161 -0.0008467234602694025 0.023229917543323708 0.0 0.0
0.0 0.035062053620645184 0.026905229181154525 -0.026084071054003597 -0.0008211581271509282 0.022511919561608 0.0 0.0
0.0 0.02950561451464893 0.022243239758601693 -0.021461564431290207 -0.0007816753273114854 0.020910686942249998 0.0 0.0
0.0 0.024465878778408175 0.018158646864290022 -0.0174120819057981 -0.0007465649584919207 0.018670010149932914 0.0 0.0
0.0 0.019927778466549924 0.014590454358961849 -0.013879895002715378 -0.00071055935624647 0.01620374802871595 0.0 0.0
0.0 0.015839060037981603 0.011434961147459538 -0.010767757998807585 -0.000667203148651958 0.013675495005071765 0.0 0.0
0.0 0.012127193148319027 0.008598884947779484 -0.007987734510746766 -0.0006111504370327149 0.01112210427617269 0.0 0.0
0.0 0.00869190200451058 0.006027668932012973 -0.00549101741886277 -0.0005366515131502023 0.008594712244606667 0.0 0.0
0.0 0.005674555786025441 0.0037332198148749825 -0.003307926815534667 -0.00042529299934031413 0.006114270049005334 0.0 0.0
0.0 0.003150082770887244 0.0018758074147213384 -0.0016033871963377167 -0.0002724202183836214 0.0038235164997337673 0.0 0.0
0.0 0.0013632312313270466 0.0006795533380899573 -0.0005613572814777775 -0.00011819605661217979 0.0019221609006335053 0.0 0.0
0.0 0.0004860371893424233 0.0001747454534556075 -0.00014164349717767346 -3.310195627793399e-05 0.0007156317351165239 0.0 0.0
0.0 0.00014942279621372 3.8146656343477476e-05 -3.065327598132211e-05 -7.4933803621553414e-06 0.00021369106740260965 0.0 0.0
0.0 3.095226934855276e-05 6.054388028259068e-06 -4.70940859647335e-06 -1.3449794317857174e-06 4.630924014072227e-05 0.0 0.0
0.0 3.3253623111344484e-06 2.1220216945236937e-07 -1.4934995484508397e-07 -6.285221460728278e-08 3.0299312255516426e-06 0.0 0.0
0.0 1.1884251837087602e-06 3.783314360355772e-09 -1.7565535059292658e-09 -2.0267608544260404e-09 4.83411209801204e-07 0.0 0.0
0.0 2.5733138731381687e-06 5.535281957337695e-09 -7.171811452764318e-09 1.6365294954262957e-09 4.3114994442675e-07 0.0 0.0
0.0 0.0005126652811922645 0.0002790073919423497 -0.00036703759999379924 8.803020805144942e-05 0.0004843519469596565 0.0 0.0
0.0 0.00015387572331623282 7.969752261913969e-05 -0.00010997993835964792 3.0282415740508208e-05 -0.00014718556400803635 0.0 0.0
0.0 3.349378646596431e-06 -2.34306106211118e-09 -5.349941101268104e-09 7.693002163380533e-09 -1.2589079052262259e-06 0.0 0.0
0.0 4.3469623982382105e-06 -1.5150827440638714e-07 1.4410398265582486e-07 7.404291750562902e-09 -4.3558049196337835e-06 0.0 0.0
0.0 7.23837074313727e-06 -1.1676300782143275e-07 1.6138086360143155e-07 -4.461785577999807e-08 -1.0524360855184041e-05 0.0 0.0
0.0 3.6590980419190644e-05 1.4080857243997235e-06 -9.568475736718428e-07 -4.512381507278881e-07 -5.259519385028543e-05 0.0 0.0
0.0 0.0001415547733764226 1.1412970288451436e-05 -9.04139113130055e-06 -2.3715791571508697e-06 -0.0002174293958020318 0.0 0.0
0.0 0.00034570234794209764 4.06838973085836e-05 -3.28843157669828e-05 -7.799581541600798e-06 -0.0005599960038024201 0.0 0.0
0.0 0.0007159181761744825 0.00011105660629393728 -9.025723407528853e-05 -2.079937221864865e-05 -0.0011247144248252505 0.0 0.0
0.0 0.0013053316182652713 0.0002904845437934434 -0.00023665185913202664 -5.383268466141652e-05 -0.002106419431831407 0.0 0.0
0.0 0.0023092579916479017 0.0006660334652406448 -0.0005430913487077595 -0.00012294211653288538 -0.0035173983673417114 0.0 0.0
0.0 0.003525143342444285 0.0012451305816598708 -0.001027501323126295 -0.00021762925853357514 -0.005274093253818671 0.0 0.0
0.0 0.005094730199590722 0.0019836309402866226 -0.0016794868252380936 -0.000304144115048528 -0.007230618979111225 0.0 0.0
0.0 0.006880381285315959 0.002851751564104619 -0.002476887320513461 -0.00037486424359115694 -0.009330766192889356 0.0 0.0
0.0 0.008913382487576737 0.0038665659819607083 -0.0034376847384042365 -0.00042888124355647267 -0.011555841453988526 0.0 0.0
0.0 0.011206315767038594 0.005126712719650149 -0.0046577400221701395 -0.0004689726974800061 -0.01387965579982692 0.0 0.0
0.0 0.013891831686532831 0.006815087183820402 -0.006314098151251127 -0.0005009890325692729 -0.016148774669652262 0.0 0.0
0.0 0.017001694824222372 0.009183472680180481 -0.00864768603480773 -0.0005357866453727475 -0.017942601595436716 0.0 0.0
0.0 0.020613185391562143 0.012445098379740588 -0.011862643880595549 -0.0005824544991450368 -0.01862633614373505 0.0 0.0
0.0 0.025526092263773417 0.01704646315872478 -0.01646660419080575 -0.0005798589679190323 -0.01850127059194763 0.0 0.0
0.0 0.03317242224405429 0.024522205111051822 -0.023958511157261615 -0.0005636939537902038 -0.017840056941975265 0.0 0.0
0.0 0.03317242224405688 0.02452220511105084 -0.02395851115726047 -0.0005636939537903673 0.017840056942005363 0.0 0.0
0.0 0.025526092263779082 0.01704646315872264 -0.016466604190803813 -0.0005798589679188364 0.0185012705919927 0.0 0.0
0.0 0.020613185391555686 0.01244509837973128 -0.011862643880586159 -0.0005824544991451187 0.01862633614375825 0.0 0.0
0.0 0.017001694824213865 0.00918347268017455 -0.008647686034802123 -0.0005357866453724238 0.017942601595435422 0.0 0.0
0.0 0.013891831686523835 0.006815087183817516 -0.006314098151249031 -0.0005009890325684842 0.016148774669638898 0.0 0.0
0.0 0.011206315767028107 0.005126712719645647 -0.00465774002216587 -0.0004689726974797765 0.013879655799814754 0.0 0.0
0.0 0.008913382487570244 0.0038665659819589787 -0.0034376847384025738 -0.0004288812435564058 0.011555841453979643 0.0 0.0
0.0 0.006880381285309217 0.002851751564102414 -0.0024768873205114218 -0.0003748642435909916 0.00933076619288159 0.0 0.0
0.0 0.005094730199582415 0.0019836309402846636 -0.001679486825236349 -0.0003041441150483144 0.007230618979099034 0.0 0.0
0.0 0.0035251433424359625 0.001245130581657431 -0.001027501323124283 -0.00021762925853314782 0.005274093253806755 0.0 0.0
0.0 0.0023092579916402086 0.0006660334652387876 -0.0005430913487063043 -0.00012294211653248352 0.003517398367330808 0.0 0.0
0.0 0.0013053316182618942 0.00029048454379265986 -0.00023665185913140146 -5.383268466125813e-05 0.002106419431825832 0.0 0.0
0.0 0.0007159181761725627 0.0001110566062936034 -9.02572340750191e-05 -2.0799372218584197e-05 0.0011247144248220818 0.0 0.0
0.0 0.000345702347940199 4.0683897308493056e-05 -3.288431576689177e-05 -7.799581541601266e-06 0.0005599960038007667 0.0 0.0
0.0 0.00014155477337516827 1.1412970288460823e-05 -9.04139113130084e-06 -2.3715791571599816e-06 0.00021742939580165135 0.0 0.0
0.0 3.6590980418350705e-05 1.4080857243886863e-06 -9.56847573664797e-07 -4.51238150723893e-07 5.259519384980904e-05 0.0 0.0
0.0 7.238370742975254e-06 -1.1676300783382124e-07 1.613808636158359e-07 -4.461785578201471e-08 1.0524360855911155e-05 0.0 0.0
0.0 4.346962397568624e-06 -1.5150827443824576e-07 1.441039826842706e-07 7.4042917539744565e-09 4.35580492041918e-06 0.0 0.0
0.0 3.3493786462908664e-06 -2.3430610659602612e-09 -5.349941111491109e-09 7.693002177453901e-09 1.2589079060092695e-06 0.0 0.0
0.0 0.00015387572331418935 7.969752261849731e-05 -0.00010997993835879553 3.0282415740298167e-05 0.00014718556400693188 0.0 0.0
0.0 1.8353855057219346e-05 8.256338013125824e-06 -1.1905513086071509e-05 3.649175072945675e-06 -1.6762422315138592e-05 0.0 0.0
0.0 3.0161150203125654e-06 -6.002035723258319e-08 2.987966488417117e-08 3.014069234841689e-08 -1.5192876664966276e-06 0.0 0.0
0.0 6.667325174299725e-06 -6.723786231160191e-07 5.732897506671519e-07 9.908887244886791e-08 -8.211670109427554e-06 0.0 0.0
0.0 1.2594188628052395e-05 -1.4867331247097613e-06 1.3107164811060565e-06 1.760166436037063e-07 -1.8022492447711825e-05 0.0 0.0
0.0 4.495594195044593e-05 -4.368901718680089e-06 3.7692185364549657e-06 5.996831822251293e-07 -6.286847208046132e-05 0.0 0.0
0.0 0.00015041106596991693 -1.4889480330816382e-05 1.2274792468806435e-05 2.6146878620099356e-06 -0.00022384104781480083 0.0 0.0
0.0 0.00035116345498151507 -4.3389395656050445e-05 3.524574272483042e-05 8.143652931219996e-06 -0.0005691230397526347 0.0 0.0
0.0 0.0007190513574388269 -0.00011228514282830203 9.12602374616316e-05 2.1024905366670364e-05 -0.001130903460574358 0.0 0.0
0.0 0.001304946035092978 -0.0002905520134246574 0.00023671537696223237 5.3836636462424936e-05 -0.0021080822446552707 0.0 0.0
0.0 0.0023082619748104735 -0.0006655313210634301 0.0005427066444887949 0.00012282467657463513 -0.003516836606691076 0.0 0.0
0.0 0.003540433779852207 -0.0012502453513961564 0.0010334265177961573 0.00021681883359999851 -0.005278467411389436 0.0 0.0
0.0 0.005124555716650126 -0.0020188793973744358 0.0017146348100416388 0.00030424458733279596 -0.007247702730637443 0.0 0.0
0.0 0.006941329062560184 -0.002927487001971204 0.00254976717673958 0.0003777198252316211 -0.009347414103327553 0.0 0.0
0.0 0.008945359162673985 -0.003917547535962562 0.003477927635088753 0.0004396199008738046 -0.011551853023980988 0.0 0.0
0.0 0.010972694679655018 -0.004855902850763318 0.00436271215820254 0.0004931906925607784 -0.013851955351506325 0.0 0.0
0.0 0.012864142928666477 -0.0054829015017239975 0.004942888085668187 0.0005400134160558048 -0.016202169950285207 0.0 0.0
0.0 0.01427926589590688 -0.005421126222014842 0.0048411364974488965 0.0005799897245659436 -0.018587508369645945 0.0 0.0
0.0 0.015099150956804055 -0.004396551734831363 0.0037934085087709644 0.000603143226060395 -0.021092176632255807 0.0 0.0
0.0 0.01532410299557136 -0.0024261283756842333 0.0018496037215959737 0.0005765246540882581 -0.023338590877308215 0.0 0.0
0.0 0.015184986609962434 0.0034474092231003657 -0.003504762847157012 5.735362405664404e-05 -0.02244507653347147 0.0 0.0
0.0 0.01518498660996755 0.0034474092231006536 -0.0035047628471573987 5.7353624056748556e-05 0.022445076533484654 0.0 0.0
0.0 0.015324102995571435 -0.0024261283756831535 0.0018496037215942015 0.0005765246540889483 0.023338590877321135 0.0 0.0
0.0 0.015099150956796674 -0.004396551734827927 0.003793408508767206 0.0006031432260607174 0.02109217663225532 0.0 0.0
0.0 0.014279265895894403 -0.0054211262220090345 0.004841136497443313 0.0005799897245657196 0.018587508369633902 0.0 0.0
0.0 0.01286414292864864 -0.005482901501713674 0.004942888085658077 0.0005400134160555919 0.016202169950267863 0.0 0.0
0.0 0.010972694679641421 -0.0048559028507563495 0.004362712158195966 0.0004931906925603807 0.013851955351491477 0.0 0.0
0.0 0.008945359162661606 -0.003917547535955322 0.0034779276350819293 0.0004396199008733911 0.011551853023969851 0.0 0.0
0.0 0.006941329062547609 -0.0029274870019626166 0.002549767176731473 0.0003777198252311422 0.00934741410331918 0.0 0.0
0.0 0.005124555716635622 -0.00201887939736715 0.0017146348100348268 0.0003042445873323229 0.007247702730621879 0.0 0.0
0.0 0.00354043377984024 -0.0012502453513901146 0.0010334265177909519 0.00021681883359916249 0.005278467411375753 0.0 0.0
0.0 0.002308261974799273 -0.0006655313210593374 0.0005427066444853559 0.000122824676573981 0.0035168366066782755 0.0 0.0
0.0 0.0013049460350889328 -0.00029055201342310135 0.00023671537696092504 5.3836636462176315e-05 0.0021080822446497517 0.0 0.0
0.0 0.0007190513574365692 -0.00011228514282770667 9.126023746113724e-05 2.102490536656948e-05 0.0011309034605712395 0.0 0.0
0.0 0.0003511634549791634 -4.338939565584724e-05 3.524574272470654e-05 8.1436529311407e-06 0.0005691230397500493 0.0 0.0
0.0 0.00015041106596811198 -1.4889480330753156e-05 1.2274792468764534e-05 2.6146878619886387e-06 0.0002238410478136208 0.0 0.0
0.0 4.495594194908192e-05 -4.368901718675959e-06 3.7692185364498276e-06 5.99683182226125e-07 6.286847208043545e-05 0.0 0.0
0.0 1.2594188627814035e-05 -1.4867331247668344e-06 1.310716481156188e-06 1.760166436106459e-07 1.8022492448363898e-05 0.0 0.0
0.0 6.667325173804707e-06 -6.723786231967519e-07 5.732897507349857e-07 9.908887246176683e-08 8.211670110333945e-06 0.0 0.0
0.0 3.0161150198352988e-06 -6.002035725165771e-08 2.987966488557177e-08 3.0140692366090835e-08 1.5192876671958222e-06 0.0 0.0
0.0 1.8353855056740126e-05 8.256338013339644e-06 -1.1905513086359441e-05 3.6491750730197933e-06 1.676242231576344e-05 0.0 0.0
0.0 1.2794705618513804e-06 -7.325646252627723e-08 1.1123042410747284e-07 -3.797396158117645e-08 1.788907911065407e-07 0.0 0.0
0.0 2.075379832949349e-06 -1.083893702870597e-07 6.001651798882832e-08 4.837285229822985e-08 -2.063806883894127e-06 0.0 0.0
0.0 7.901445127607441e-06 -1.234298499840512e-06 1.025052701183641e-06 2.0924579865686746e-07 -9.711442014318772e-06 0.0 0.0
0.0 1.741904654888207e-05 -2.983910869792278e-06 2.5409635495077396e-06 4.4294732028455e-07 -1.9889954777775487e-05 0.0 0.0
0.0 5.231777346538001e-05 -1.2365326104350267e-05 1.0295623883489896e-05 2.069702220860373e-06 -7.434867728870566e-05 0.0 0.0
0.0 0.00016786454852531156 -4.640684000056358e-05 3.772063694582686e-05 8.686203054736709e-06 -0.000242693602610703 0.0 0.0
0.0 0.0005069416156863464 -0.00018281494033017728 0.0001484484438653645 3.436649646481283e-05 -0.0007375102127660835 0.0 0.0
0.0 0.0013730890752802333 -0.0006844118505221291 0.000565525788583201 0.00011888606193892793 -0.0019348505688984983 0.0 0.0
0.0 0.0031490539664009 -0.001875298119888811 0.0016030154045120724 0.00027228271537673847 -0.0038256215379541166 0.0 0.0
0.0 0.005674266597180612 -0.003733422702851981 0.0033085477724597977 0.0004248749303921815 -0.006114874590804235 0.0 0.0
0.0 0.008704395319239907 -0.006039357704886007 0.005503701874892549 0.0005356558299934567 -0.008598807344294801 0.0 0.0
0.0 0.01216525634035519 -0.008639775860800865 0.00802983520333059 0.0006099406574702692 -0.011118153096618451 0.0 0.0
0.0 0.015902505940613973 -0.011511716859007448 0.01084328952921784 0.0006684273297896034 -0.013637107404400665 0.0 0.0
0.0 0.019939726930239023 -0.014624028855694592 0.013903493820288028 0.0007205350354065677 -0.016135071546898555 0.0 0.0
0.0 0.024136705450893085 -0.017830484070965005 0.017058723189423766 0.0007717608815412227 -0.01868161563627386 0.0 0.0
0.0 0.028164537831091158 -0.02081021664550357 0.019988954451346297 0.0008212621941572747 -0.021343577070715953 0.0 0.0
0.0 0.031589389026292845 -0.023086472409472494 0.022224445735472984 0.0008620266739995181 -0.02420565178408833 0.0 0.0
0.0 0.03377178366757211 -0.024103670346438833 0.023215422557261327 0.0008882477891775224 -0.02717190137405756 0.0 0.0
0.0 0.033023760516348304 -0.022747619648529203 0.021765709584319143 0.0009819100642100423 -0.02847098446605734 0.0 0.0
0.0 0.026544822313223818 -0.015954313226061317 0.014860172520355463 0.0010941407057058373 -0.026079896370006454 0.0 0.0
0.0 0.02654482231323471 -0.015954313226062566 0.01486017252035629 0.0010941407057062738 0.02607989637004185 0.0 0.0
0.0 0.03302376051635848 -0.022747619648528082 0.02176570958431775 0.0009819100642103158 0.028470984466104854 0.0 0.0
0.0 0.03377178366756598 -0.024103670346426718 0.023215422557249416 0.0008882477891772876 0.027171901374087953 0.0 0.0
0.0 0.0315893890262694 -0.02308647240945195 0.022224445735452743 0.0008620266739992073 0.024205651784085614 0.0 0.0
0.0 0.028164537831059676 -0.0208102166454788 0.0199889544513215 0.000821262194157301 0.02134357707069718 0.0 0.0
0.0 0.024136705450864587 -0.01783048407094271 0.017058723189401725 0.0007717608815409889 0.01868161563625679 0.0 0.0
0.0 0.01993972693021368 -0.014624028855674775 0.013903493820268446 0.0007205350354063272 0.01613507154688357 0.0 0.0
0.0 0.01590250594058859 -0.011511716858986326 0.010843289529197163 0.0006684273297891529 0.013637107404388834 0.0 0.0
0.0 0.01216525634032645 -0.008639775860779218 0.0080298352033095 0.0006099406574697152 0.011118153096597506 0.0 0.0
0.0 0.00870439531921581 -0.006039357704868935 0.005503701874876199 0.0005356558299927349 0.008598807344273998 0.0 0.0
0.0 0.0056742665971567414 -0.003733422702835239 0.00330854777244421 0.00042487493039103055 0.00611487459078241 0.0 0.0
0.0 0.003149053966387055 -0.0018752981198790748 0.001603015404503316 0.00027228271537575955 0.0038256215379407297 0.0 0.0
0.0 0.0013730890752733644 -0.0006844118505178742 0.0005655257885796988 0.00011888606193817555 0.0019348505688906708 0.0 0.0
0.0 0.0005069416156833838 -0.0001828149403292768 0.000148448443864676 3.436649646460084e-05 0.0007375102127630409 0.0 0.0
0.0 0.00016786454852367146 -4.640684000045259e-05 3.772063694573682e-05 8.686203054715775e-06 0.000242693602610008 0.0 0.0
0.0 5.231777346410826e-05 -1.2365326104270606e-05 1.0295623883423902e-05 2.0697022208466915e-06 7.434867728823384e-05 0.0 0.0
0.0 1.7419046548134647e-05 -2.9839108698469185e-06 2.5409635495542794e-06 4.429473202926401e-07 1.9889954778124142e-05 0.0 0.0
0.0 7.901445127057502e-06 -1.2342984999526477e-06 1.0250527012753683e-06 2.0924579867727892e-07 9.711442015181708e-06 0.0 0.0
0.0 2.0753798327305847e-06 -1.0838937032528112e-07 6.001651799517402e-08 4.8372852330107445e-08 2.063806884772791e-06 0.0 0.0
0.0 1.2794705614589102e-06 -7.325646250320453e-08 1.1123042407310628e-07 -3.797396156990146e-08 -1.7889079104850708e-07 0.0 0.0
0.0 0.0 0.0 0.0 0.0 0.0 0.0 0.0
0.0 1.546319917433396e-06 2.096489414379388e-08 -7.102539574969584e-09 -1.3862354568826943e-08 3.138160816275471e-07 0.0 0.0
0.0 7.114012060880084e-06 -1.035112742706643e-06 8.505518313762888e-07 1.8456091133034963e-07 -5.949843075233416e-06 0.0 0.0
0.0 2.010494797262549e-05 -4.366435683395106e-06 3.620568981710455e-06 7.458667016846588e-07 -1.909506561518245e-05 0.0 0.0
0.0 6.2049485675282e-05 -2.1854770661136775e-05 1.790826815235189e-05 3.9465025087848984e-06 -8.005181178145476e-05 0.0 0.0
0.0 0.00024567666257362743 -0.00011051099307216976 8.96863088226538e-05 2.0824684249515845e-05 -0.00032421557001913686 0.0 0.0
0.0 0.0009639303141525742 -0.0005597540123273459 0.0004612105056253988 9.854350670194719e-05 -0.0012037700029098803 0.0 0.0
0.0 0.0027880045109617948 -0.001897203488530588 0.001622422740520048 0.0002747807480105403 -0.003005342917805121 0.0 0.0
0.0 0.005946280388897357 -0.0043149423417668245 0.003850715737733336 0.000464226604033489 -0.005502548287851645 0.0 0.0
0.0 0.010016414166362292 -0.007619560772391786 0.007020779073890909 0.0005987816985008752 -0.008456200938316841 0.0 0.0
0.0 0.014941576995606526 -0.01152477451169397 0.010839845183257698 0.0006849293284362822 -0.011569157085238618 0.0 0.0
0.0 0.020269080433639692 -0.01589592286909786 0.015145979963806826 0.0007499429052910335 -0.014603691321000924 0.0 0.0
0.0 0.026117542424982862 -0.020707554587934367 0.01990051620823575 0.0008070383796986173 -0.01753052245229454 0.0 0.0
0.0 0.03248765281853411 -0.025947542810109407 0.02508395115576359 0.0008635916543457982 -0.020437218134017686 0.0 0.0
0.0 0.03929559906630508 -0.03147390566690929 0.030550124226242155 0.0009237814406671043 -0.02353604783980431 0.0 0.0
0.0 0.046086797800320614 -0.036920891745700866 0.03593573152053543 0.000985160225165406 -0.027113741346390864 0.0 0.0
0.0 0.052323363609323284 -0.041680911299049155 0.04063792664866425 0.0010429846503849014 -0.0313291480208265 0.0 0.0
0.0 0.056521555999716644 -0.044768060239763124 0.043652014763390375 0.0011160454763727429 -0.035412042235126215 0.0 0.0
0.0 0.056650366975949135 -0.04430907457809348 0.04309876333153834 0.001210311246555132 -0.03741245292126558 0.0 0.0
0.0 0.04740952738394238 -0.036394853488094805 0.03494937436471904 0.0014454791233757581 -0.0333794356316639 0.0 0.0
0.0 0.047409527383953334 -0.03639485348809524 0.034949374364719545 0.0014454791233757007 0.033379435631710294 0.0 0.0
0.0 0.056650366975953347 -0.044309074578085875 0.04309876333153162 0.00121031124655426 0.03741245292132526 0.0 0.0
0.0 0.05652155599970087 -0.0447680602397417 0.043652014763369634 0.0011160454763720165 0.03541204223516438 0.0 0.0
0.0 0.05232336360929136 -0.041680911299019276 0.04063792664863527 0.0010429846503840386 0.03132914802083102 0.0 0.0
0.0 0.046086797800282596 -0.03692089174566849 0.03593573152050405 0.0009851602251644523 0.02711374134637673 0.0 0.0
0.0 0.0392955990662657 -0.03147390566687659 0.030550124226209813 0.0009237814406667813 0.023536047839786724 0.0 0.0
0.0 0.0324876528184936 -0.025947542810076253 0.02508395115573082 0.000863591654345428 0.02043721813399693 0.0 0.0
0.0 0.02611754242494782 -0.02070755458790426 0.01990051620820665 0.0008070383796976036 0.01753052245228155 0.0 0.0
0.0 0.02026908043360041 -0.015895922869065614 0.015145979963775202 0.0007499429052904101 0.014603691320979918 0.0 0.0
0.0 0.0149415769955683 -0.011524774511664185 0.010839845183228215 0.0006849293284359695 0.011569157085211286 0.0 0.0
0.0 0.01001641416633102 -0.007619560772368479 0.007020779073867894 0.000598781698500587 0.008456200938291508 0.0 0.0
0.0 0.00594628038887751 -0.004314942341751383 0.0038507157377185445 0.0004642266040328365 0.005502548287837356 0.0 0.0
0.0 0.0027880045109503456 -0.0018972034885221664 0.0016224227405125958 0.0002747807480095706 0.003005342917795601 0.0 0.0
0.0 0.0009639303141461032 -0.0005597540123237182 0.00046121050562244526 9.854350670127277e-05 0.0012037700029036173 0.0 0.0
0.0 0.0002456766625705902 -0.00011051099307125579 8.968630882191541e-05 2.082468424934033e-05 0.0003242155700165036 0.0 0.0
0.0 6.204948567420859e-05 -2.1854770661192025e-05 1.79082681523924e-05 3.9465025087995885e-06 8.005181178156114e-05 0.0 0.0
0.0 2.010494797190466e-05 -4.366435683512592e-06 3.6205689818076685e-06 7.458667017049113e-07 1.9095065615697814e-05 0.0 0.0
0.0 7.114012060480714e-06 -1.0351127428551061e-06 8.505518314972933e-07 1.845609113578192e-07 5.949843076091489e-06 0.0 0.0
0.0 1.5463199168796422e-06 2.0964894136532813e-08 -7.10253957316928e-09 -1.3862354563367244e-08 -3.138160815128601e-07 0.0 0.0
0.0 0.0 0.0 0.0 0.0 0.0 0.0 0.0
0.0 0.0 0.0 0.0 0.0 0.0 0.0 0.0
0.0 3.8538157917848767e-07 8.524370000021943e-09 -5.889213621647465e-09 -2.6351563783748637e-09 7.625979648851619e-08 0.0 0.0
0.0 4.22936943142332e-06 -6.809168862163602e-07 5.548763245073956e-07 1.2604056170895957e-07 -3.002279425171482e-06 0.0 0.0
0.0 1.948861576274013e-05 -6.379462522329288e-06 5.252815631291029e-06 1.1266468910382517e-06 -2.072452067487123e-05 0.0 0.0
0.0 8.194454561148961e-05 -3.769121772881296e-05 3.069757633027738e-05 6.993641398535588e-06 -9.454428604552541e-05 0.0 0.0
0.0 0.0004339290479730108 -0.00026590834388807663 0.00021680576434729917 4.910257954077745e-05 -0.0004994859544410427 0.0 0.0
0.0 0.0017518910863939979 -0.0012503406395075974 0.0010519433330521638 0.00019839730645543357 -0.0017244228757917917 0.0 0.0
0.0 0.004612502055963949 -0.0035266595713803047 0.003109488891429585 0.00041717067995071934 -0.0038408068115125685 0.0 0.0
0.0 0.009054940121732823 -0.007132762586645263 0.006544000568744211 0.0005887620179010518 -0.006712912456969929 0.0 0.0
0.0 0.014711616075194292 -0.011811993167689355 0.011113188326835909 0.000698804840853446 -0.010075515301556988 0.0 0.0
0.0 0.0212985495361667 -0.01727747741897796 0.016500511624512316 0.0007769657944656457 -0.013527692322706848 0.0 0.0
0.0 0.028631635920288008 -0.023392641896933235 0.02254766013191669 0.0008449817650165353 -0.016826902445462158 0.0 0.0
0.0 0.03669319379225615 -0.030137599321884888 0.029229553424596714 0.0009080458972881524 -0.019982655300078082 0.0 0.0
0.0 0.04543573282037619 -0.03751642796965193 0.036544690401275455 0.000971737568376498 -0.023127615766698126 0.0 0.0
0.0 0.05485608980372475 -0.04540445472439472 0.04436440589048853 0.0010400488339061232 -0.026576257653098213 0.0 0.0
0.0 0.06453217007898504 -0.05339756085262493 0.05228249597311308 0.0011150648795118304 -0.030787657510968413 0.0 0.0
0.0 0.0734434657989638 -0.060646095380860195 0.05944677820194515 0.0011993171789150261 -0.03587298189457655 0.0 0.0
0.0 0.07981532589368834 -0.06561787512637221 0.06431993043297085 0.0012979446934013074 -0.04084849038716025 0.0 0.0
0.0 0.0802402226921563 -0.06565211165467234 0.06421024183402121 0.0014418698206510963 -0.0430843274489804 0.0 0.0
0.0 0.06890976223626508 -0.0559380313415897 0.05427479192859565 0.001663239412994056 -0.03925870996923385 0.0 0.0
0.0 0.06890976223627031 -0.05593803134158615 0.054274791928592026 0.0016632394129940992 0.03925870996928379 0.0 0.0
0.0 0.08024022269215116 -0.06565211165465801 0.06421024183400684 0.0014418698206511787 0.043084327449044876 0.0 0.0
0.0 0.07981532589366254 -0.06561787512634257 0.06431993043294087 0.0012979446934016647 0.04084849038720663 0.0 0.0
0.0 0.07344346579892072 -0.06064609538082025 0.059446778201905526 0.0011993171789146957 0.03587298189458578 0.0 0.0
0.0 0.06453217007893458 -0.053397560852581426 0.05228249597307009 0.0011150648795113334 0.03078765751095549 0.0 0.0
0.0 0.054856089803670606 -0.04540445472434883 0.04436440589044292 0.0010400488339058695 0.026576257653079603 0.0 0.0
0.0 0.04543573282032336 -0.03751642796960742 0.03654469040123119 0.0009717375683762446 0.0231276157666781 0.0 0.0
0.0 0.03669319379220174 -0.030137599321838775 0.029229553424550657 0.0009080458972881354 0.01998265530005944 0.0 0.0
0.0 0.028631635920237163 -0.023392641896890564 0.022547660131874536 0.0008449817650160117 0.01682690244543874 0.0 0.0
0.0 0.021298549536115943 -0.017277477418936565 0.01650051162447145 0.0007769657944651169 0.013527692322677035 0.0 0.0
0.0 0.014711616075150336 -0.011811993167654411 0.011113188326801526 0.0006988048408528808 0.010075515301526594 0.0 0.0
0.0 0.00905494012170197 -0.007132762586620831 0.0065440005687204756 0.0005887620179003587 0.0067129124569504485 0.0 0.0
0.0 0.004612502055943796 -0.003526659571364583 0.003109488891414886 0.00041717067994969444 0.003840806811498447 0.0 0.0
0.0 0.0017518910863825888 -0.0012503406394994893 0.0010519433330450827 0.00019839730645440643 0.0017244228757823258 0.0 0.0
0.0 0.00043392904796769324 -0.00026590834388531327 0.0002168057643449849 4.9102579540328344e-05 0.0004994859544362676 0.0 0.0
0.0 8.194454561046195e-05 -3.769121772884182e-05 3.069757633028933e-05 6.993641398552438e-06 9.454428604549597e-05 0.0 0.0
0.0 1.9488615762274747e-05 -6.379462522604088e-06 5.252815631510939e-06 1.1266468910931426e-06 2.0724520675693414e-05 0.0 0.0
0.0 4.229369430921382e-06 -6.809168863504003e-07 5.548763246151761e-07 1.2604056173522246e-07 3.00227942577265e-06 0.0 0.0
0.0 3.8538157904294466e-07 8.52436999717895e-09 -5.889213619678072e-09 -2.6351563774992616e-09 -7.62597964614563e-08 0.0 0.0
0.0 0.0 0.0 0.0 0.0 0.0 0.0 0.0
0.0 0.0 0.0 0.0 0.0 0.0 0.0 0.0
0.0 0.0 0.0 0.0 0.0 0.0 0.0 0.0
0.0 1.7986181569066855e-06 -2.7575866792415483e-07 2.2560001311566124e-07 5.0158654808497086e-08 -9.67983876670036e-07 0.0 0.0
0.0 1.84561150284624e-05 -5.384547672081987e-06 4.377651032354004e-06 1.0068966397279946e-06 -1.2986994464895529e-05 0.0 0.0
0.0 0.00013227953207135747 -7.013162776708203e-05 5.6826022134139425e-05 1.3305605632942599e-05 -0.0001231963328844762 0.0 0.0
0.0 0.00078022781552576 -0.0005690504441540912 0.00046850522328857093 0.00010054522086552016 -0.0007229552280772634 0.0 0.0
0.0 0.00282790651879681 -0.0022125435421113146 0.0019035007521530055 0.0003090427899583092 -0.0021143387088272997 0.0 0.0
0.0 0.0067033143619283555 -0.005428542143060246 0.004902717460245441 0.0005258246828148039 -0.004362731170137906 0.0 0.0
0.0 0.012350818541461287 -0.01017441161118118 0.009504265094315758 0.0006701465168654252 -0.007412025377794174 0.0 0.0
0.0 0.01949312213468061 -0.016173895626256693 0.015406522692229146 0.0007673729340275447 -0.010887943403148952 0.0 0.0
0.0 0.027810054815761615 -0.023172657345717974 0.0223244421071207 0.0008482152385972785 -0.014399387557216559 0.0 0.0
0.0 0.0371122137647042 -0.031028208408546552 0.03010535898475963 0.0009228494237869314 -0.017766437616147997 0.0 0.0
0.0 0.04733816807359004 -0.039705947959658955 0.03871234753819813 0.000993600421460782 -0.020990132825825233 0.0 0.0
0.0 0.058522536805837105 -0.04921896913922334 0.048155211721718647 0.0010637574175046973 -0.024176668167342857 0.0 0.0
0.0 0.07064446660883472 -0.059477285569273765 0.0583367901085024 0.0011404954607713703 -0.02767397956279355 0.0 0.0
0.0 0.0829968116598676 -0.07002226274400279 0.06879106636203113 0.0012311963819716697 -0.03199506883244102 0.0 0.0
0.0 0.09473983306711382 -0.07970799286662213 0.0783681289240478 0.0013398639425742848 -0.03731908743096924 0.0 0.0
0.0 0.10301654723310119 -0.0864044894399926 0.08493112873525283 0.0014733607047397747 -0.042679206419634325 0.0 0.0
0.0 0.10360164491143534 -0.08662618427991475 0.08498671234803214 0.0016394719318826095 -0.04566957252987593 0.0 0.0
0.0 0.09058025464314715 -0.07515119812979738 0.07331637882187717 0.00183481930792024 -0.04433275328668952 0.0 0.0
0.0 0.09058025464315057 -0.07515119812979265 0.07331637882187274 0.0018348193079198666 0.04433275328674226 0.0 0.0
0.0 0.10360164491142289 -0.08662618427989532 0.08498671234801312 0.0016394719318821816 0.04566957252994121 0.0 0.0
0.0 0.10301654723307108 -0.08640448943995997 0.08493112873522071 0.0014733607047391457 0.042679206419682966 0.0 0.0
0.0 0.0947398330670579 -0.07970799286657157 0.07836812892399686 0.0013398639425746541 0.03731908743098025 0.0 0.0
0.0 0.08299681165980168 -0.07002226274394581 0.06879106636197407 0.0012311963819717315 0.0319950688324295 0.0 0.0
0.0 0.07064446660876995 -0.05947728556921793 0.058336790108447154 0.0011404954607707953 0.02767397956277748 0.0 0.0
0.0 0.05852253680577215 -0.04921896913916751 0.048155211721663684 0.0010637574175038362 0.024176668167323258 0.0 0.0
0.0 0.04733816807352279 -0.03970594795960128 0.0387123475381405 0.000993600421460765 0.020990132825806675 0.0 0.0
0.0 0.03711221376464057 -0.031028208408492377 0.030105358984706038 0.0009228494237863275 0.017766437616124175 0.0 0.0
0.0 0.027810054815704727 -0.02317265734567047 0.02232444210707399 0.000848215238596469 0.014399387557187348 0.0 0.0
0.0 0.019493122134631648 -0.016173895626215955 0.015406522692189192 0.0007673729340267693 0.010887943403120322 0.0 0.0
0.0 0.012350818541423956 -0.010174411611150194 0.009504265094285393 0.0006701465168648033 0.007412025377774532 0.0 0.0
0.0 0.006703314361905001 -0.00542854214304126 0.004902717460227299 0.0005258246828139616 0.004362731170124465 0.0 0.0
0.0 0.002827906518781717 -0.002212543542099625 0.0019035007521425906 0.0003090427899570343 0.002114338708817592 0.0 0.0
0.0 0.0007802278155186035 -0.0005690504441494471 0.0004685052232846651 0.00010054522086478182 0.0007229552280717097 0.0 0.0
0.0 0.00013227953206945483 -7.013162776653756e-05 5.682602213369535e-05 1.330560563284211e-05 0.00012319633288361215 0.0 0.0
0.0 1.845611502767524e-05 -5.384547672123056e-06 4.377651032384804e-06 1.0068966397382596e-06 1.2986994465006527e-05 0.0 0.0
0.0 1.7986181567940365e-06 -2.7575866803734533e-07 2.2560001320717058e-07 5.015865483017256e-08 9.67983877068823e-07 0.0 0.0
0.0 0.0 0.0 0.0 0.0 0.0 0.0 0.0
0.0 0.0 0.0 0.0 0.0 0.0 0.0 0.0
0.0 0.0 0.0 0.0 0.0 0.0 0.0 0.0
0.0 0.0 0.0 0.0 0.0 0.0 0.0 0.0
0.0 9.159772724021529e-07 5.630253744311479e-08 -4.536700834069255e-08 -1.0935529102421052e-08 1.5681455061216043e-07 0.0 0.0
0.0 1.5620505280795516e-05 -7.731546189805968e-06 6.226338872438318e-06 1.5052073173676883e-06 -1.4183847347962544e-05 0.0 0.0
0.0 0.00021899565603670257 -0.00014968767859750988 0.00012117726129335163 2.8510417304158253e-05 -0.00018784193079880203 0.0 0.0
0.0 0.0013209738405225578 -0.0010374148256018837 0.0008652443194302558 0.00017217050617162824 -0.0009070327234045811 0.0 0.0
0.0 0.004167832974638354 -0.0033883121248402563 0.0029777555922271453 0.00041055653261311146 -0.002308005243744368 0.0 0.0
0.0 0.008914180672514519 -0.007522332988251532 0.006917999420663094 0.000604333567588436 -0.00455245769718146 0.0 0.0
0.0 0.01575519328376123 -0.01334310957713685 0.01261648108272306 0.0007266284944137938 -0.007519487905176876 0.0 0.0
0.0 0.024358858701804598 -0.020627331388026575 0.019805637168458377 0.0008216942195682026 -0.010847756827211874 0.0 0.0
0.0 0.03439694846346063 -0.029149122525965136 0.02824070043121617 0.0009084220947489446 -0.014231853688635693 0.0 0.0
0.0 0.04564582614908874 -0.03874716740025501 0.03775618343654713 0.0009909839637078463 -0.017476080751800682 0.0 0.0
0.0 0.05810805767306711 -0.049360274240982493 0.04829011245749829 0.0010701617834841949 -0.02059219552950839 0.0 0.0
0.0 0.07159408708649181 -0.06099376933574247 0.059846270462504375 0.0011474988732380943 -0.023662382004744756 0.0 0.0
0.0 0.08626939717986301 -0.07357101157782812 0.07233929855115631 0.0012317130266718242 -0.026878162375734586 0.0 0.0
0.0 0.10160115411858328 -0.0865952238429017 0.0852581720671481 0.0013370517757535863 -0.030718358629357387 0.0 0.0
0.0 0.11567156132900436 -0.09865041919778741 0.0971793608724413 0.0014710583253460486 -0.03564198623304909 0.0 0.0
0.0 0.12563941575427834 -0.10699730089101443 0.10536373268259291 0.0016335682084214912 -0.041189405301999424 0.0 0.0
0.0 0.12667344986695642 -0.10745931262469295 0.10564734666927861 0.0018119659554142967 -0.04589908384621964 0.0 0.0
0.0 0.11273139713030271 -0.09452264580692575 0.09253062459591391 0.001992021211011838 -0.049007404754715975 0.0 0.0
0.0 0.11273139713029931 -0.09452264580691662 0.09253062459590435 0.0019920212110121913 0.04900740475476728 0.0 0.0
0.0 0.12667344986693302 -0.10745931262466561 0.1056473466692511 0.0018119659554144867 0.04589908384628573 0.0 0.0
0.0 0.1256394157542342 -0.10699730089097087 0.10536373268255024 0.0016335682084206013 0.041189405302046546 0.0 0.0
0.0 0.11567156132894091 -0.09865041919773024 0.09717936087238511 0.00147105832534507 0.03564198623306109 0.0 0.0
0.0 0.10160115411850895 -0.08659522384283683 0.08525817206708385 0.0013370517757529674 0.03071835862935076 0.0 0.0
0.0 0.08626939717978566 -0.07357101157776096 0.07233929855108984 0.0012317130266710653 0.02687816237572333 0.0 0.0
0.0 0.07159408708641278 -0.060993769335674464 0.059846270462436395 0.0011474988732380334 0.023662382004727082 0.0 0.0
0.0 0.05810805767298949 -0.049360274240915145 0.04829011245743148 0.001070161783483616 0.02059219552949133 0.0 0.0
0.0 0.04564582614901203 -0.038747167400189034 0.03775618343648132 0.0009909839637076972 0.017476080751778846 0.0 0.0
0.0 0.034396948463390295 -0.029149122525905673 0.02824070043115701 0.0009084220947486615 0.014231853688606196 0.0 0.0
0.0 0.024358858701744146 -0.020627331387975865 0.019805637168407914 0.0008216942195679386 0.010847756827182782 0.0 0.0
0.0 0.015755193283714546 -0.013343109577097226 0.012616481082683815 0.0007266284944134134 0.007519487905156721 0.0 0.0
0.0 0.008914180672480917 -0.0075223329882231574 0.006917999420635496 0.0006043335675876564 0.004552457697165863 0.0 0.0
0.0 0.004167832974618505 -0.0033883121248241945 0.002977755592212166 0.00041055653261202975 0.0023080052437340843 0.0 0.0
0.0 0.001320973840514161 -0.0010374148255957298 0.000865244319424991 0.000172170506170738 0.0009070327233996178 0.0 0.0
0.0 0.0002189956560342723 -0.00014968767859650285 0.0001211772612925001 2.8510417304002677e-05 0.0001878419307975579 0.0 0.0
0.0 1.562050528058357e-05 -7.731546190071555e-06 6.226338872648757e-06 1.5052073174227774e-06 1.4183847348448124e-05 0.0 0.0
0.0 9.159772720464821e-07 5.630253742091469e-08 -4.5367008322703315e-08 -1.0935529098212496e-08 -1.5681455054918204e-07 0.0 0.0
0.0 0.0 0.0 0.0 0.0 0.0 0.0 0.0
0.0 0.0 0.0 0.0 0.0 0.0 0.0 0.0
0.0 0.0 0.0 0.0 0.0 0.0 0.0 0.0
0.0 0.0 0.0 0.0 0.0 0.0 0.0 0.0
0.0 2.633745482838499e-07 1.9034837468267232e-08 -1.5232417022672714e-08 -3.80242044559584e-09 3.959451352121644e-08 0.0 0.0
0.0 1.64260430817939e-05 -1.0128859311131385e-05 8.098717266550561e-06 2.030142044580845e-06 -1.3716287696829666e-05 0.0 0.0
0.0 0.0003879460440434674 -0.0002958482292362265 0.00024020998357639477 5.563824565983179e-05 -0.00025733651196575125 0.0 0.0
0.0 0.0020560401786539756 -0.0016684272241613409 0.001414253117028118 0.0002541741071332242 -0.0009951237357654732 0.0 0.0
0.0 0.005498674718837327 -0.004746359567169883 0.004250846546929562 0.0004955130202403228 -0.0023160277150508016 0.0 0.0
0.0 0.011250930666318857 -0.009725049824791835 0.00906656133410879 0.0006584884906830485 -0.004351946049972312 0.0 0.0
0.0 0.01927841861277094 -0.01657257141302737 0.015802495393558172 0.0007700760194691962 -0.006989589869578267 0.0 0.0
0.0 0.02928105640654194 -0.025126828867909703 0.02425919438060959 0.0008676344873001341 -0.009989349338802758 0.0 0.0
0.0 0.0410088928507856 -0.03516240068187922 0.03420145278957212 0.0009609478923070727 -0.013040315793728456 0.0 0.0
0.0 0.05423812837070473 -0.04650522598120511 0.04545321116372095 0.0010520148174841368 -0.015971346604386427 0.0 0.0
0.0 0.06884148240255594 -0.059063137234305146 0.05792268773205188 0.0011404495022532468 -0.018814470608071582 0.0 0.0
0.0 0.08481034003780613 -0.07279253228536924 0.07156520168853948 0.001227330596829733 -0.021584712173177936 0.0 0.0
0.0 0.10197994387480122 -0.08758523237987853 0.0862665296061034 0.0013187027737751513 -0.0242838579807374 0.0 0.0
0.0 0.11957559079523367 -0.10293301252173612 0.10150004347547015 0.0014329690462659178 -0.02715529908666906 0.0 0.0
0.0 0.13624946733787074 -0.1172640253494456 0.11567540718678783 0.0015886181626577384 -0.03095730770949631 0.0 0.0
0.0 0.14819864501206897 -0.12736447876271353 0.12558862991975078 0.0017758488429627144 -0.03648432961511946 0.0 0.0
0.0 0.15004628362983352 -0.1284279816837881 0.1264566039180665 0.0019713777657215654 -0.04388432259694185 0.0 0.0
0.0 0.13548096883469457 -0.11446521267762799 0.1123172130900128 0.0021479995876150506 -0.05330101393845208 0.0 0.0
0.0 0.13548096883468796 -0.11446521267761645 0.11231721309000134 0.002147999587615165 0.05330101393850163 0.0 0.0
0.0 0.15004628362980096 -0.12842798168375463 0.1264566039180329 0.0019713777657217684 0.04388432259700123 0.0 0.0
0.0 0.14819864501201124 -0.12736447876266066 0.12558862991969733 0.0017758488429632578 0.0364843296151605 0.0 0.0
0.0 0.13624946733779777 -0.1172640253493813 0.11567540718672382 0.0015886181626574825 0.030957307709506277 0.0 0.0
0.0 0.11957559079514825 -0.10293301252166148 0.10150004347539657 0.001432969046264838 0.027155299086664347 0.0 0.0
0.0 0.10197994387470927 -0.08758523237979866 0.08626652960602432 0.001318702773774333 0.02428385798072811 0.0 0.0
0.0 0.08481034003771495 -0.07279253228529038 0.0715652016884616 0.0012273305968286896 0.02158471217316195 0.0 0.0
0.0 0.06884148240246708 -0.05906313723422804 0.057922687731975675 0.0011404495022523564 0.01881447060805605 0.0 0.0
0.0 0.054238128370617755 -0.046505225981129564 0.04545321116364639 0.001052014817483207 0.01597134660436756 0.0 0.0
0.0 0.04100889285070726 -0.03516240068181177 0.034201452789505496 0.0009609478923062471 0.01304031579370186 0.0 0.0
0.0 0.02928105640647717 -0.025126828867854042 0.024259194380554655 0.0008676344872993729 0.00998934933877829 0.0 0.0
0.0 0.019278418612721653 -0.016572571412984568 0.015802495393515935 0.0007700760194686322 0.006989589869562536 0.0 0.0
0.0 0.011250930666284518 -0.009725049824761842 0.00906656133407977 0.0006584884906820714 0.004351946049959997 0.0 0.0
0.0 0.00549867471881436 -0.004746359567150226 0.004250846546910932 0.0004955130202392944 0.0023160277150416813 0.0 0.0
0.0 0.002056040178641906 -0.0016684272241520549 0.001414253117019829 0.00025417410713222564 0.0009951237357601313 0.0 0.0
0.0 0.00038794604403934033 -0.0002958482292337155 0.00024020998357432324 5.563824565939202e-05 0.0002573365119638266 0.0 0.0
0.0 1.6426043081437135e-05 -1.0128859311452165e-05 8.09871726679457e-06 2.030142044657607e-06 1.371628769721963e-05 0.0 0.0
0.0 2.633745479801639e-07 1.90348374459991e-08 -1.5232417004860948e-08 -3.802420441135515e-09 -3.959451347502403e-08 0.0 0.0
0.0 0.0 0.0 0.0 0.0 0.0 0.0 0.0
0.0 0.0 0.0 0.0 0.0 0.0 0.0 0.0
0.0 0.0 0.0 0.0 0.0 0.0 0.0 0.0
0.0 0.0 0.0 0.0 0.0 0.0 0.0 0.0
0.0 0.0 0.0 0.0 0.0 0.0 0.0 0.0
0.0 2.500205088077448e-05 -1.7965402712077483e-05 1.437737497395789e-05 3.5880277381195835e-06 -1.717700974478271e-05 0.0 0.0
0.0 0.0006800570039591923 -0.0005411852823411735 0.0004421347877916556 9.905049454951763e-05 -0.0003031046854058069 0.0 0.0
0.0 0.0029145660253120736 -0.002455583441610119 0.002116495798078518 0.0003390876435316008 -0.0009629415764777321 0.0 0.0
0.0 0.0070369193459280804 -0.006209830876170814 0.005648805387718323 0.0005610254884524902 -0.002049368625988788 0.0 0.0
0.0 0.013715228901494339 -0.01197630365039659 0.011278258176219951 0.0006980454741766391 -0.0036923103102832547 0.0 0.0
0.0 0.022844836643629508 -0.019827260138046726 0.019021806682405232 0.0008054534556414825 -0.005853088361265642 0.0 0.0
0.0 0.03423879157101381 -0.0296314371728073 0.028724298455058268 0.0009071387177490271 -0.00832461934344662 0.0 0.0
0.0 0.04766450386116408 -0.04117179499981631 0.04016413287767789 0.0010076621221383982 -0.010844957919341843 0.0 0.0
0.0 0.06281522293111252 -0.054262048330095125 0.05315491754984981 0.001107130780245309 -0.013262694996449402 0.0 0.0
0.0 0.07971304934834667 -0.06877185311902864 0.06756607069003984 0.0012057824289887962 -0.01562183820174765 0.0 0.0
0.0 0.09788269756176986 -0.08458327346394406 0.0832789777279945 0.0013042957359495956 -0.0179505187284564 0.0 0.0
0.0 0.11733126934238165 -0.10147204108173169 0.10006649507116597 0.0014055460105657233 -0.020038282597417047 0.0 0.0
0.0 0.13739831579081874 -0.11887705640599146 0.11735422413941074 0.0015228322665806569 -0.021651897863382178 0.0 0.0
0.0 0.15635522683964176 -0.13531064431991355 0.1336287530527585 0.0016818912671550097 -0.023583758587214385 0.0 0.0
0.0 0.17053077916306159 -0.1474530033376868 0.14555373580263076 0.0018992675350559783 -0.028499890340408857 0.0 0.0
0.0 0.17389380491695589 -0.14978125918711274 0.1476593034149669 0.0021219557721459323 -0.039167935584777554 0.0 0.0
0.0 0.1595488702644134 -0.1354415877732419 0.1331258556888257 0.0023157320844161295 -0.056889288937514895 0.0 0.0
0.0 0.15954887026440306 -0.13544158777322893 0.1331258556888127 0.002315732084416195 0.05688928893755331 0.0 0.0
0.0 0.1738938049169175 -0.1497812591870758 0.14765930341493044 0.002121955772145386 0.039167935584828714 0.0 0.0
0.0 0.17053077916299408 -0.147453003337626 0.14555373580257064 0.0018992675350553137 0.028499890340444707 0.0 0.0
0.0 0.15635522683955708 -0.13531064431983908 0.1336287530526857 0.0016818912671534231 0.023583758587222305 0.0 0.0
0.0 0.1373983157907179 -0.11887705640590382 0.11735422413932392 0.001522832266579876 0.021651897863378754 0.0 0.0
0.0 0.11733126934227646 -0.10147204108164022 0.1000664950710751 0.0014055460105651713 0.020038282597412686 0.0 0.0
0.0 0.09788269756166759 -0.08458327346385537 0.0832789777279067 0.0013042957359486618 0.01795051872844544 0.0 0.0
0.0 0.07971304934823936 -0.0687718531189358 0.06756607068994709 0.0012057824289887253 0.015621838201735124 0.0 0.0
0.0 0.06281522293100966 -0.05426204833000644 0.05315491754976102 0.0011071307802453887 0.01326269499643452 0.0 0.0
0.0 0.0476645038610751 -0.0411717949997391 0.040164132877601316 0.0010076621221377648 0.010844957919320572 0.0 0.0
0.0 0.0342387915709356 -0.029631437172739535 0.028724298454991113 0.0009071387177484222 0.008324619343424681 0.0 0.0
0.0 0.022844836643568005 -0.019827260137993193 0.019021806682352264 0.0008054534556409286 0.005853088361250095 0.0 0.0
0.0 0.013715228901453144 -0.011976303650360494 0.011278258176184452 0.000698045474176043 0.003692310310271905 0.0 0.0
0.0 0.007036919345900616 -0.006209830876146723 0.005648805387694977 0.0005610254884517506 0.0020493686259806243 0.0 0.0
0.0 0.0029145660252992826 -0.0024555834415994978 0.0021164957980689602 0.00033908764353053665 0.0009629415764734664 0.0 0.0
0.0 0.0006800570039549852 -0.0005411852823384163 0.0004421347877893415 9.905049454907511e-05 0.00030310468540440327 0.0 0.0
0.0 2.500205088033301e-05 -1.796540271242305e-05 1.4377374974216e-05 3.5880277382070697e-06 1.7177009745052067e-05 0.0 0.0
0.0 0.0 0.0 0.0 0.0 0.0 0.0 0.0
0.0 0.0 0.0 0.0 0.0 0.0 0.0 0.0
0.0 0.0 0.0 0.0 0.0 0.0 0.0 0.0
0.0 0.0 0.0 0.0 0.0 0.0 0.0 0.0
0.0 0.0 0.0 0.0 0.0 0.0 0.0 0.0
0.0 0.0 0.0 0.0 0.0 0.0 0.0 0.0
0.0 5.6765761633214785e-05 -4.340587914619136e-05 3.4666370496847784e-05 8.73950864934361e-06 -2.535054953770774e-05 0.0 0.0
0.0 0.0011244662462687404 -0.0009050778488334035 0.0007479278918224109 0.0001571499570109926 -0.00029003223901030874 0.0 0.0
0.0 0.0037419512407840918 -0.0033767525997473293 0.002957500731748705 0.00041925186799862294 -0.0007589285202130409 0.0 0.0
0.0 0.008711125396597607 -0.007728132867247152 0.0071204172707183475 0.0006077155965288083 -0.0014977098207064768 0.0 0.0
0.0 0.01622559851428185 -0.014248856259389544 0.013519708522093244 0.0007291477372963087 -0.0026148484129192833 0.0 0.0
0.0 0.026431027049312862 -0.023070297097472898 0.02223588088617537 0.0008344162112975232 -0.004115561612292308 0.0 0.0
0.0 0.03919865838658572 -0.034102997519459916 0.03316180868495641 0.0009411888345035035 -0.005858598050374197 0.0 0.0
0.0 0.05429748375635775 -0.047140051326811844 0.04609071554398943 0.001049335782822406 -0.007639152260281579 0.0 0.0
0.0 0.07153504051126179 -0.0619774296356244 0.06081988606399452 0.0011575435716298789 -0.009347923710444036 0.0 0.0
0.0 0.09042041423973024 -0.07844515911852326 0.07717848976163512 0.0012666693568881525 -0.011044987602300342 0.0 0.0
0.0 0.1109934969692216 -0.09632110635768334 0.09494305004391793 0.0013780563137653862 -0.01270417780675934 0.0 0.0
0.0 0.13279018796960484 -0.11521538436354213 0.11372232944733036 0.001493054916211692 -0.014069982250529562 0.0 0.0
0.0 0.15489499080606914 -0.13441226065242579 0.13279751895376757 0.0016147416986581418 -0.014671180319226302 0.0 0.0
0.0 0.17576151399078932 -0.1525556727229807 0.15079629411633944 0.0017593786066413515 -0.01457465730461485 0.0 0.0
0.0 0.1923242932600871 -0.1668767736471466 0.16491267993483535 0.0019640937123111793 -0.01698608909999894 0.0 0.0
0.0 0.19851769929242513 -0.1717292799367762 0.16945081990643085 0.0022784600303451677 -0.030104814596676875 0.0 0.0
0.0 0.1855375264266669 -0.15814586001805428 0.15563391482146505 0.0025119451965891215 -0.058964705901238375 0.0 0.0
0.0 0.1855375264266497 -0.158145860018037 0.15563391482144762 0.0025119451965892768 0.0589647059012655 0.0 0.0
0.0 0.1985176992923776 -0.17172927993673315 0.16945081990638772 0.0022784600303453555 0.03010481459671823 0.0 0.0
0.0 0.19232429326001077 -0.16687677364707965 0.16491267993476894 0.0019640937123108024 0.016986089100026195 0.0 0.0
0.0 0.17576151399069032 -0.15255567272289455 0.15079629411625373 0.0017593786066408194 0.014574657304618568 0.0 0.0
0.0 0.15489499080595814 -0.13441226065232945 0.13279751895367198 0.001614741698657425 0.014671180319222717 0.0 0.0
0.0 0.13279018796948988 -0.11521538436344196 0.11372232944723126 0.0014930549162107262 0.014069982250529295 0.0 0.0
0.0 0.11099349696910543 -0.09632110635758251 0.09494305004381787 0.0013780563137645865 0.012704177806753827 0.0 0.0
0.0 0.09042041423961371 -0.07844515911842198 0.07717848976153492 0.0012666693568870859 0.01104498760229248 0.0 0.0
0.0 0.07153504051115048 -0.06197742963552718 0.060819886063898716 0.0011575435716284436 0.00934792371043545 0.0 0.0
0.0 0.054297483756258376 -0.04714005132672564 0.04609071554390404 0.0010493357828215903 0.0076391522602654235 0.0 0.0
0.0 0.039198658386504985 -0.03410299751938972 0.03316180868488691 0.000941188834502817 0.00585859805035867 0.0 0.0
0.0 0.026431027049248913 -0.023070297097416557 0.022235880886119802 0.0008344162112967537 0.004115561612283913 0.0 0.0
0.0 0.016225598514234347 -0.01424885625934762 0.01351970852205207 0.0007291477372955441 0.0026148484129117997 0.0 0.0
0.0 0.008711125396565487 -0.007728132867218471 0.007120417270690618 0.0006077155965278517 0.0014977098207004467 0.0 0.0
0.0 0.00374195124076513 -0.0033767525997304 0.002957500731732925 0.00041925186799747586 0.0007589285202090939 0.0 0.0
0.0 0.0011244662462597758 -0.0009050778488263028 0.0007479278918163155 0.00015714995700998703 0.0002900322390083013 0.0 0.0
0.0 5.6765761631786843e-05 -4.3405879145803345e-05 3.4666370496502506e-05 8.739508649300792e-06 2.5350549537403646e-05 0.0 0.0
0.0 0.0 0.0 0.0 0.0 0.0 0.0 0.0
0.0 0.0 0.0 0.0 0.0 0.0 0.0 0.0
0.0 0.0 0.0 0.0 0.0 0.0 0.0 0.0
0.0 0.0 0.0 0.0 0.0 0.0 0.0 0.0
0.0 0.0 0.0 0.0 0.0 0.0 0.0 0.0
0.0 0.0 0.0 0.0 0.0 0.0 0.0 0.0
0.0 0.0001518953054432927 -0.00012769487311829937 0.00010166172377123713 2.603314934706234e-05 -3.150767872232576e-05 0.0 0.0
0.0 0.0017269223783003523 -0.0013830131565475785 0.0011571831252650162 0.00022583003128256183 -0.0001740743069220019 0.0 0.0
0.0 0.004833211905236469 -0.004361260935969242 0.00387639372654862 0.00048486720942062265 -0.0003587232083686906 0.0 0.0
0.0 0.010443146575014977 -0.009278770220274008 0.008635449909003839 0.0006433203112701678 -0.0006593357215575074 0.0 0.0
0.0 0.018776386696548845 -0.016510395533170928 0.015756920144871428 0.0007534753882994945 -0.0011230274335567027 0.0 0.0
0.0 0.030035194893027355 -0.026265111736256435 0.02540648931023436 0.0008586224260220686 -0.0017856344699376484 0.0 0.0
0.0 0.04418593983236649 -0.0385023405128376 0.03753194986309809 0.0009703906497395155 -0.002587882956140878 0.0 0.0
0.0 0.06103187115394502 -0.05303054705685487 0.05194422647840589 0.0010863205784489855 -0.003422350052561137 0.0 0.0
0.0 0.08002210083346954 -0.06962041473134375 0.06841634284036861 0.0012040718909751243 -0.004241050420185675 0.0 0.0
0.0 0.10118489277701555 -0.08802960797961328 0.08670600560851328 0.0013236023711000206 -0.005045758637877552 0.0 0.0
0.0 0.12415101215713213 -0.10794320505061711 0.10649578460372067 0.001447420446896455 -0.00578732022384098 0.0 0.0
0.0 0.1482130414524525 -0.1288105215969809 0.12723324802444785 0.0015772735725330775 -0.006312057272187026 0.0 0.0
0.0 0.17228455206185367 -0.14967245581900981 0.14796072217671033 0.001711733642299402 -0.006272295224975995 0.0 0.0
0.0 0.19464469695298803 -0.16906572653205496 0.1672179846856773 0.0018477418463776723 -0.005249490710047637 0.0 0.0
0.0 0.21282173838169433 -0.1848589208177441 0.1828594342032576 0.001999486614486263 -0.004237471412934006 0.0 0.0
0.0 0.22272877346619258 -0.19325623100458156 0.19101541509355155 0.0022408159110298732 -0.01266909850816901 0.0 0.0
0.0 0.21514072844037024 -0.18446842775747746 0.18158050688590321 0.0028879208715741674 -0.054405811694971155 0.0 0.0
0.0 0.21514072844035173 -0.18446842775746045 0.18158050688588676 0.0028879208715734835 0.05440581169498021 0.0 0.0
0.0 0.22272877346614173 -0.1932562310045364 0.19101541509350803 0.0022408159110281667 0.01266909850819026 0.0 0.0
0.0 0.2128217383816047 -0.1848589208176658 0.18285943420318074 0.0019994866144850054 0.0042374714129471865 0.0 0.0
0.0 0.19464469695287168 -0.16906572653195434 0.16721798468557678 0.0018477418463775626 0.005249490710046521 0.0 0.0
0.0 0.17228455206172893 -0.14967245581890176 0.14796072217660272 0.001711733642298899 0.006272295224971933 0.0 0.0
0.0 0.14821304145232272 -0.1288105215968683 0.12723324802433592 0.0015772735725323157 0.006312057272188102 0.0 0.0
0.0 0.12415101215700103 -0.1079432050505034 0.10649578460360762 0.0014474204468957093 0.005787320223837709 0.0 0.0
0.0 0.10118489277688594 -0.08802960797950098 0.08670600560840142 0.0013236023710995388 0.005045758637874078 0.0 0.0
0.0 0.08002210083334636 -0.06962041473123697 0.06841634284026252 0.0012040718909744254 0.004241050420182619 0.0 0.0
0.0 0.061031871153831775 -0.05303054705675653 0.0519442264783081 0.0010863205784484215 0.003422350052553387 0.0 0.0
0.0 0.04418593983227321 -0.03850234051275663 0.037531949863017944 0.0009703906497387035 0.002587882956133408 0.0 0.0
0.0 0.03003519489295197 -0.0262651117361906 0.025406489310168867 0.0008586224260217276 0.0017856344699337312 0.0 0.0
0.0 0.018776386696493175 -0.016510395533121818 0.015756920144822724 0.0007534753882990852 0.0011230274335528733 0.0 0.0
0.0 0.010443146574980713 -0.009278770220243527 0.00863544990897392 0.0006433203112696077 0.0006593357215553943 0.0 0.0
0.0 0.004833211905215912 -0.004361260935950522 0.003876393726530783 0.0004848672094197391 0.00035872320836710284 0.0 0.0
0.0 0.0017269223782906723 -0.0013830131565398982 0.0011571831252582185 0.0002258300312816807 0.00017407430692108309 0.0 0.0
0.0 0.0001518953054415926 -0.00012769487311743493 0.00010166172377052257 2.603314934691223e-05 3.150767872208815e-05 0.0 0.0
0.0 0.0 0.0 0.0 0.0 0.0 0.0 0.0
0.0 0.0 0.0 0.0 0.0 0.0 0.0 0.0
0.0 0.0 0.0 0.0 0.0 0.0 0.0 0.0