# vtk DataFile Version 3.0
Some data
ASCII
DATASET UNSTRUCTURED_GRID
POINTS 861 float
0.0 0.0 0.0
0.4 0.0 0.0
0.8 0.0 0.0
1.2000000000000002 0.0 0.0
1.6 0.0 0.0
2.0 0.0 0.0
2.4000000000000004 0.0 0.0
2.8000000000000003 0.0 0.0
3.2 0.0 0.0
3.6 0.0 0.0
4.0 0.0 0.0
4.4 0.0 0.0
4.800000000000001 0.0 0.0
5.2 0.0 0.0
5.6000000000000005 0.0 0.0
6.0 0.0 0.0
6.4 0.0 0.0
6.800000000000001 0.0 0.0
7.2 0.0 0.0
7.6000000000000005 0.0 0.0
8.0 0.0 0.0
8.4 0.0 0.0
8.8 0.0 0.0
9.200000000000001 0.0 0.0
9.600000000000001 0.0 0.0
10.0 0.0 0.0
10.4 0.0 0.0
10.8 0.0 0.0
11.200000000000001 0.0 0.0
11.600000000000001 0.0 0.0
12.0 0.0 0.0
12.4 0.0 0.0
12.8 0.0 0.0
13.200000000000001 0.0 0.0
13.600000000000001 0.0 0.0
14.0 0.0 0.0
14.4 0.0 0.0
14.8 0.0 0.0
15.200000000000001 0.0 0.0
15.600000000000001 0.0 0.0
16.0 0.0 0.0
0.0 0.1 0.0
0.4 0.1 0.0
0.8 0.1 0.0
1.2000000000000002 0.1 0.0
1.6 0.1 0.0
2.0 0.1 0.0
2.4000000000000004 0.1 0.0
2.8000000000000003 0.1 0.0
3.2 0.1 0.0
3.6 0.1 0.0
4.0 0.1 0.0
4.4 0.1 0.0
4.800000000000001 0.1 0.0
5.2 0.1 0.0
5.6000000000000005 0.1 0.0
6.0 0.1 0.0
6.4 0.1 0.0
6.800000000000001 0.1 0.0
7.2 0.1 0.0
7.6000000000000005 0.1 0.0
8.0 0.1 0.0
8.4 0.1 0.0
8.8 0.1 0.0
9.200000000000001 0.1 0.0
9.600000000000001 0.1 0.0
10.0 0.1 0.0
10.4 0.1 0.0
10.8 0.1 0.0
11.200000000000001 0.1 0.0
11.600000000000001 0.1 0.0
12.0 0.1 0.0
12.4 0.1 0.0
12.8 0.1 0.0
13.200000000000001 0.1 0.0
13.600000000000001 0.1 0.0
14.0 0.1 0.0
14.4 0.1 0.0
14.8 0.1 0.0
15.200000000000001 0.1 0.0
15.600000000000001 0.1 0.0
16.0 0.1 0.0
0.0 0.2 0.0
0.4 0.2 0.0
0.8 0.2 0.0
1.2000000000000002 0.2 0.0
1.6 0.2 0.0
2.0 0.2 0.0
2.4000000000000004 0.2 0.0
2.8000000000000003 0.2 0.0
3.2 0.2 0.0
3.6 0.2 0.0
4.0 0.2 0.0
4.4 0.2 0.0
4.800000000000001 0.2 0.0
5.2 0.2 0.0
5.6000000000000005 0.2 0.0
6.0 0.2 0.0
6.4 0.2 0.0
6.800000000000001 0.2 0.0
7.2 0.2 0.0
7.6000000000000005 0.2 0.0
8.0 0.2 0.0
8.4 0.2 0.0
8.8 0.2 0.0
9.200000000000001 0.2 0.0
9.600000000000001 0.2 0.0
10.0 0.2 0.0
10.4 0.2 0.0
10.8 0.2 0.0
11.200000000000001 0.2 0.0
11.600000000000001 0.2 0.0
12.0 0.2 0.0
12.4 0.2 0.0
12.8 0.2 0.0
13.200000000000001 0.2 0.0
13.600000000000001 0.2 0.0
14.0 0.2 0.0
14.4 0.2 0.0
14.8 0.2 0.0
15.200000000000001 0.2 0.0
15.600000000000001 0.2 0.0
16.0 0.2 0.0
0.0 0.30000000000000004 0.0
0.4 0.30000000000000004 0.0
0.8 0.30000000000000004 0.0
1.2000000000000002 0.30000000000000004 0.0
1.6 0.30000000000000004 0.0
2.0 0.30000000000000004 0.0
2.4000000000000004 0.30000000000000004 0.0
2.8000000000000003 0.30000000000000004 0.0
3.2 0.30000000000000004 0.0
3.6 0.30000000000000004 0.0
4.0 0.30000000000000004 0.0
4.4 0.30000000000000004 0.0
4.800000000000001 0.30000000000000004 0.0
5.2 0.30000000000000004 0.0
5.6000000000000005 0.30000000000000004 0.0
6.0 0.30000000000000004 0.0
6.4 0.30000000000000004 0.0
6.800000000000001 0.30000000000000004 0.0
7.2 0.30000000000000004 0.0
7.6000000000000005 0.30000000000000004 0.0
8.0 0.30000000000000004 0.0
8.4 0.30000000000000004 0.0
8.8 0.30000000000000004 0.0
9.200000000000001 0.30000000000000004 0.0
9.600000000000001 0.30000000000000004 0.0
10.0 0.30000000000000004 0.0
10.4 0.30000000000000004 0.0
10.8 0.30000000000000004 0.0
11.200000000000001 0.30000000000000004 0.0
11.600000000000001 0.30000000000000004 0.0
12.0 0.30000000000000004 0.0
12.4 0.30000000000000004 0.0
12.8 0.30000000000000004 0.0
13.200000000000001 0.30000000000000004 0.0
13.600000000000001 0.30000000000000004 0.0
14.0 0.30000000000000004 0.0
14.4 0.30000000000000004 0.0
14.8 0.30000000000000004 0.0
15.200000000000001 0.30000000000000004 0.0
15.600000000000001 0.30000000000000004 0.0
16.0 0.30000000000000004 0.0
0.0 0.4 0.0
0.4 0.4 0.0
0.8 0.4 0.0
1.2000000000000002 0.4 0.0
1.6 0.4 0.0
2.0 0.4 0.0
2.4000000000000004 0.4 0.0
2.8000000000000003 0.4 0.0
3.2 0.4 0.0
3.6 0.4 0.0
4.0 0.4 0.0
4.4 0.4 0.0
4.800000000000001 0.4 0.0
5.2 0.4 0.0
5.6000000000000005 0.4 0.0
6.0 0.4 0.0
6.4 0.4 0.0
6.800000000000001 0.4 0.0
7.2 0.4 0.0
7.6000000000000005 0.4 0.0
8.0 0.4 0.0
8.4 0.4 0.0
8.8 0.4 0.0
9.200000000000001 0.4 0.0
9.600000000000001 0.4 0.0
10.0 0.4 0.0
10.4 0.4 0.0
10.8 0.4 0.0
11.200000000000001 0.4 0.0
11.600000000000001 0.4 0.0
12.0 0.4 0.0
12.4 0.4 0.0
12.8 0.4 0.0
13.200000000000001 0.4 0.0
13.600000000000001 0.4 0.0
14.0 0.4 0.0
14.4 0.4 0.0
14.8 0.4 0.0
15.200000000000001 0.4 0.0
15.600000000000001 0.4 0.0
16.0 0.4 0.0
0.0 0.5 0.0
0.4 0.5 0.0
0.8 0.5 0.0
1.2000000000000002 0.5 0.0
1.6 0.5 0.0
2.0 0.5 0.0
2.4000000000000004 0.5 0.0
2.8000000000000003 0.5 0.0
3.2 0.5 0.0
3.6 0.5 0.0
4.0 0.5 0.0
4.4 0.5 0.0
4.800000000000001 0.5 0.0
5.2 0.5 0.0
5.6000000000000005 0.5 0.0
6.0 0.5 0.0
6.4 0.5 0.0
6.800000000000001 0.5 0.0
7.2 0.5 0.0
7.6000000000000005 0.5 0.0
8.0 0.5 0.0
8.4 0.5 0.0
8.8 0.5 0.0
9.200000000000001 0.5 0.0
9.600000000000001 0.5 0.0
10.0 0.5 0.0
10.4 0.5 0.0
10.8 0.5 0.0
11.200000000000001 0.5 0.0
11.600000000000001 0.5 0.0
12.0 0.5 0.0
12.4 0.5 0.0
12.8 0.5 0.0
13.200000000000001 0.5 0.0
13.600000000000001 0.5 0.0
14.0 0.5 0.0
14.4 0.5 0.0
14.8 0.5 0.0
15.200000000000001 0.5 0.0
15.600000000000001 0.5 0.0
16.0 0.5 0.0
0.0 0.6000000000000001 0.0
0.4 0.6000000000000001 0.0
0.8 0.6000000000000001 0.0
1.2000000000000002 0.6000000000000001 0.0
1.6 0.6000000000000001 0.0
2.0 0.6000000000000001 0.0
2.4000000000000004 0.6000000000000001 0.0
2.8000000000000003 0.6000000000000001 0.0
3.2 0.6000000000000001 0.0
3.6 0.6000000000000001 0.0
4.0 0.6000000000000001 0.0
4.4 0.6000000000000001 0.0
4.800000000000001 0.6000000000000001 0.0
5.2 0.6000000000000001 0.0
5.6000000000000005 0.6000000000000001 0.0
6.0 0.6000000000000001 0.0
6.4 0.6000000000000001 0.0
6.800000000000001 0.6000000000000001 0.0
7.2 0.6000000000000001 0.0
7.6000000000000005 0.6000000000000001 0.0
8.0 0.6000000000000001 0.0
8.4 0.6000000000000001 0.0
8.8 0.6000000000000001 0.0
9.200000000000001 0.6000000000000001 0.0
9.600000000000001 0.6000000000000001 0.0
10.0 0.6000000000000001 0.0
10.4 0.6000000000000001 0.0
10.8 0.6000000000000001 0.0
11.200000000000001 0.6000000000000001 0.0
11.600000000000001 0.6000000000000001 0.0
12.0 0.6000000000000001 0.0
12.4 0.6000000000000001 0.0
12.8 0.6000000000000001 0.0
13.200000000000001 0.6000000000000001 0.0
13.600000000000001 0.6000000000000001 0.0
14.0 0.6000000000000001 0.0
14.4 0.6000000000000001 0.0
14.8 0.6000000000000001 0.0
15.200000000000001 0.6000000000000001 0.0
15.600000000000001 0.6000000000000001 0.0
16.0 0.6000000000000001 0.0
0.0 0.7000000000000001 0.0
0.4 0.7000000000000001 0.0
0.8 0.7000000000000001 0.0
1.2000000000000002 0.7000000000000001 0.0
1.6 0.7000000000000001 0.0
2.0 0.7000000000000001 0.0
2.4000000000000004 0.7000000000000001 0.0
2.8000000000000003 0.7000000000000001 0.0
3.2 0.7000000000000001 0.0
3.6 0.7000000000000001 0.0
4.0 0.7000000000000001 0.0
4.4 0.7000000000000001 0.0
4.800000000000001 0.7000000000000001 0.0
5.2 0.7000000000000001 0.0
5.6000000000000005 0.7000000000000001 0.0
6.0 0.7000000000000001 0.0
6.4 0.7000000000000001 0.0
6.800000000000001 0.7000000000000001 0.0
7.2 0.7000000000000001 0.0
7.6000000000000005 0.7000000000000001 0.0
8.0 0.7000000000000001 0.0
8.4 0.7000000000000001 0.0
8.8 0.7000000000000001 0.0
9.200000000000001 0.7000000000000001 0.0
9.600000000000001 0.7000000000000001 0.0
10.0 0.7000000000000001 0.0
10.4 0.7000000000000001 0.0
10.8 0.7000000000000001 0.0
11.200000000000001 0.7000000000000001 0.0
11.600000000000001 0.7000000000000001 0.0
12.0 0.7000000000000001 0.0
12.4 0.7000000000000001 0.0
12.8 0.7000000000000001 0.0
13.200000000000001 0.7000000000000001 0.0
13.600000000000001 0.7000000000000001 0.0
14.0 0.7000000000000001 0.0
14.4 0.7000000000000001 0.0
14.8 0.7000000000000001 0.0
15.200000000000001 0.7000000000000001 0.0
15.600000000000001 0.7000000000000001 0.0
16.0 0.7000000000000001 0.0
0.0 0.8 0.0
0.4 0.8 0.0
0.8 0.8 0.0
1.2000000000000002 0.8 0.0
1.6 0.8 0.0
2.0 0.8 0.0
2.4000000000000004 0.8 0.0
2.8000000000000003 0.8 0.0
3.2 0.8 0.0
3.6 0.8 0.0
4.0 0.8 0.0
4.4 0.8 0.0
4.800000000000001 0.8 0.0
5.2 0.8 0.0
5.6000000000000005 0.8 0.0
6.0 0.8 0.0
6.4 0.8 0.0
6.800000000000001 0.8 0.0
7.2 0.8 0.0
7.6000000000000005 0.8 0.0
8.0 0.8 0.0
8.4 0.8 0.0
8.8 0.8 0.0
9.200000000000001 0.8 0.0
9.600000000000001 0.8 0.0
10.0 0.8 0.0
10.4 0.8 0.0
10.8 0.8 0.0
11.200000000000001 0.8 0.0
11.600000000000001 0.8 0.0
12.0 0.8 0.0
12.4 0.8 0.0
12.8 0.8 0.0
13.200000000000001 0.8 0.0
13.600000000000001 0.8 0.0
14.0 0.8 0.0
14.4 0.8 0.0
14.8 0.8 0.0
15.200000000000001 0.8 0.0
15.600000000000001 0.8 0.0
16.0 0.8 0.0
0.0 0.9 0.0
0.4 0.9 0.0
0.8 0.9 0.0
1.2000000000000002 0.9 0.0
1.6 0.9 0.0
2.0 0.9 0.0
2.4000000000000004 0.9 0.0
2.8000000000000003 0.9 0.0
3.2 0.9 0.0
3.6 0.9 0.0
4.0 0.9 0.0
4.4 0.9 0.0
4.800000000000001 0.9 0.0
5.2 0.9 0.0
5.6000000000000005 0.9 0.0
6.0 0.9 0.0
6.4 0.9 0.0
6.800000000000001 0.9 0.0
7.2 0.9 0.0
7.6000000000000005 0.9 0.0
8.0 0.9 0.0
8.4 0.9 0.0
8.8 0.9 0.0
9.200000000000001 0.9 0.0
9.600000000000001 0.9 0.0
10.0 0.9 0.0
10.4 0.9 0.0
10.8 0.9 0.0
11.200000000000001 0.9 0.0
11.600000000000001 0.9 0.0
12.0 0.9 0.0
12.4 0.9 0.0
12.8 0.9 0.0
13.200000000000001 0.9 0.0
13.600000000000001 0.9 0.0
14.0 0.9 0.0
14.4 0.9 0.0
14.8 0.9 0.0
15.200000000000001 0.9 0.0
15.600000000000001 0.9 0.0
16.0 0.9 0.0
0.0 1.0 0.0
0.4 1.0 0.0
0.8 1.0 0.0
1.2000000000000002 1.0 0.0
1.6 1.0 0.0
2.0 1.0 0.0
2.4000000000000004 1.0 0.0
2.8000000000000003 1.0 0.0
3.2 1.0 0.0
3.6 1.0 0.0
4.0 1.0 0.0
4.4 1.0 0.0
4.800000000000001 1.0 0.0
5.2 1.0 0.0
5.6000000000000005 1.0 0.0
6.0 1.0 0.0
6.4 1.0 0.0
6.800000000000001 1.0 0.0
7.2 1.0 0.0
7.6000000000000005 1.0 0.0
8.0 1.0 0.0
8.4 1.0 0.0
8.8 1.0 0.0
9.200000000000001 1.0 0.0
9.600000000000001 1.0 0.0
10.0 1.0 0.0
10.4 1.0 0.0
10.8 1.0 0.0
11.200000000000001 1.0 0.0
11.600000000000001 1.0 0.0
12.0 1.0 0.0
12.4 1.0 0.0
12.8 1.0 0.0
13.200000000000001 1.0 0.0
13.600000000000001 1.0 0.0
14.0 1.0 0.0
14.4 1.0 0.0
14.8 1.0 0.0
15.200000000000001 1.0 0.0
15.600000000000001 1.0 0.0
16.0 1.0 0.0
0.0 1.1 0.0
0.4 1.1 0.0
0.8 1.1 0.0
1.2000000000000002 1.1 0.0
1.6 1.1 0.0
2.0 1.1 0.0
2.4000000000000004 1.1 0.0
2.8000000000000003 1.1 0.0
3.2 1.1 0.0
3.6 1.1 0.0
4.0 1.1 0.0
4.4 1.1 0.0
4.800000000000001 1.1 0.0
5.2 1.1 0.0
5.6000000000000005 1.1 0.0
6.0 1.1 0.0
6.4 1.1 0.0
6.800000000000001 1.1 0.0
7.2 1.1 0.0
7.6000000000000005 1.1 0.0
8.0 1.1 0.0
8.4 1.1 0.0
8.8 1.1 0.0
9.200000000000001 1.1 0.0
9.600000000000001 1.1 0.0
10.0 1.1 0.0
10.4 1.1 0.0
10.8 1.1 0.0
11.200000000000001 1.1 0.0
11.600000000000001 1.1 0.0
12.0 1.1 0.0
12.4 1.1 0.0
12.8 1.1 0.0
13.200000000000001 1.1 0.0
13.600000000000001 1.1 0.0
14.0 1.1 0.0
14.4 1.1 0.0
14.8 1.1 0.0
15.200000000000001 1.1 0.0
15.600000000000001 1.1 0.0
16.0 1.1 0.0
0.0 1.2000000000000002 0.0
0.4 1.2000000000000002 0.0
0.8 1.2000000000000002 0.0
1.2000000000000002 1.2000000000000002 0.0
1.6 1.2000000000000002 0.0
2.0 1.2000000000000002 0.0
2.4000000000000004 1.2000000000000002 0.0
2.8000000000000003 1.2000000000000002 0.0
3.2 1.2000000000000002 0.0
3.6 1.2000000000000002 0.0
4.0 1.2000000000000002 0.0
4.4 1.2000000000000002 0.0
4.800000000000001 1.2000000000000002 0.0
5.2 1.2000000000000002 0.0
5.6000000000000005 1.2000000000000002 0.0
6.0 1.2000000000000002 0.0
6.4 1.2000000000000002 0.0
6.800000000000001 1.2000000000000002 0.0
7.2 1.2000000000000002 0.0
7.6000000000000005 1.2000000000000002 0.0
8.0 1.2000000000000002 0.0
8.4 1.2000000000000002 0.0
8.8 1.2000000000000002 0.0
9.200000000000001 1.2000000000000002 0.0
9.600000000000001 1.2000000000000002 0.0
10.0 1.2000000000000002 0.0
10.4 1.2000000000000002 0.0
10.8 1.2000000000000002 0.0
11.200000000000001 1.2000000000000002 0.0
11.600000000000001 1.2000000000000002 0.0
12.0 1.2000000000000002 0.0
12.4 1.2000000000000002 0.0
12.8 1.2000000000000002 0.0
13.200000000000001 1.2000000000000002 0.0
13.600000000000001 1.2000000000000002 0.0
14.0 1.2000000000000002 0.0
14.4 1.2000000000000002 0.0
14.8 1.2000000000000002 0.0
15.200000000000001 1.2000000000000002 0.0
15.600000000000001 1.2000000000000002 0.0
16.0 1.2000000000000002 0.0
0.0 1.3 0.0
0.4 1.3 0.0
0.8 1.3 0.0
1.2000000000000002 1.3 0.0
1.6 1.3 0.0
2.0 1.3 0.0
2.4000000000000004 1.3 0.0
2.8000000000000003 1.3 0.0
3.2 1.3 0.0
3.6 1.3 0.0
4.0 1.3 0.0
4.4 1.3 0.0
4.800000000000001 1.3 0.0
5.2 1.3 0.0
5.6000000000000005 1.3 0.0
6.0 1.3 0.0
6.4 1.3 0.0
6.800000000000001 1.3 0.0
7.2 1.3 0.0
7.6000000000000005 1.3 0.0
8.0 1.3 0.0
8.4 1.3 0.0
8.8 1.3 0.0
9.200000000000001 1.3 0.0
9.600000000000001 1.3 0.0
10.0 1.3 0.0
10.4 1.3 0.0
10.8 1.3 0.0
11.200000000000001 1.3 0.0
11.600000000000001 1.3 0.0
12.0 1.3 0.0
12.4 1.3 0.0
12.8 1.3 0.0
13.200000000000001 1.3 0.0
13.600000000000001 1.3 0.0
14.0 1.3 0.0
14.4 1.3 0.0
14.8 1.3 0.0
15.200000000000001 1.3 0.0
15.600000000000001 1.3 0.0
16.0 1.3 0.0
0.0 1.4000000000000001 0.0
0.4 1.4000000000000001 0.0
0.8 1.4000000000000001 0.0
1.2000000000000002 1.4000000000000001 0.0
1.6 1.4000000000000001 0.0
2.0 1.4000000000000001 0.0
2.4000000000000004 1.4000000000000001 0.0
2.8000000000000003 1.4000000000000001 0.0
3.2 1.4000000000000001 0.0
3.6 1.4000000000000001 0.0
4.0 1.4000000000000001 0.0
4.4 1.4000000000000001 0.0
4.800000000000001 1.4000000000000001 0.0
5.2 1.4000000000000001 0.0
5.6000000000000005 1.4000000000000001 0.0
6.0 1.4000000000000001 0.0
6.4 1.4000000000000001 0.0
6.800000000000001 1.4000000000000001 0.0
7.2 1.4000000000000001 0.0
7.6000000000000005 1.4000000000000001 0.0
8.0 1.4000000000000001 0.0
8.4 1.4000000000000001 0.0
8.8 1.4000000000000001 0.0
9.200000000000001 1.4000000000000001 0.0
9.600000000000001 1.4000000000000001 0.0
10.0 1.4000000000000001 0.0
10.4 1.4000000000000001 0.0
10.8 1.4000000000000001 0.0
11.200000000000001 1.4000000000000001 0.0
11.600000000000001 1.4000000000000001 0.0
12.0 1.4000000000000001 0.0
12.4 1.4000000000000001 0.0
12.8 1.4000000000000001 0.0
13.200000000000001 1.4000000000000001 0.0
13.600000000000001 1.4000000000000001 0.0
14.0 1.4000000000000001 0.0
14.4 1.4000000000000001 0.0
14.8 1.4000000000000001 0.0
15.200000000000001 1.4000000000000001 0.0
15.600000000000001 1.4000000000000001 0.0
16.0 1.4000000000000001 0.0
0.0 1.5 0.0
0.4 1.5 0.0
0.8 1.5 0.0
1.2000000000000002 1.5 0.0
1.6 1.5 0.0
2.0 1.5 0.0
2.4000000000000004 1.5 0.0
2.8000000000000003 1.5 0.0
3.2 1.5 0.0
3.6 1.5 0.0
4.0 1.5 0.0
4.4 1.5 0.0
4.800000000000001 1.5 0.0
5.2 1.5 0.0
5.6000000000000005 1.5 0.0
6.0 1.5 0.0
6.4 1.5 0.0
6.800000000000001 1.5 0.0
7.2 1.5 0.0
7.6000000000000005 1.5 0.0
8.0 1.5 0.0
8.4 1.5 0.0
8.8 1.5 0.0
9.200000000000001 1.5 0.0
9.600000000000001 1.5 0.0
10.0 1.5 0.0
10.4 1.5 0.0
10.8 1.5 0.0
11.200000000000001 1.5 0.0
11.600000000000001 1.5 0.0
12.0 1.5 0.0
12.4 1.5 0.0
12.8 1.5 0.0
13.200000000000001 1.5 0.0
13.600000000000001 1.5 0.0
14.0 1.5 0.0
14.4 1.5 0.0
14.8 1.5 0.0
15.200000000000001 1.5 0.0
15.600000000000001 1.5 0.0
16.0 1.5 0.0
0.0 1.6 0.0
0.4 1.6 0.0
0.8 1.6 0.0
1.2000000000000002 1.6 0.0
1.6 1.6 0.0
2.0 1.6 0.0
2.4000000000000004 1.6 0.0
2.8000000000000003 1.6 0.0
3.2 1.6 0.0
3.6 1.6 0.0
4.0 1.6 0.0
4.4 1.6 0.0
4.800000000000001 1.6 0.0
5.2 1.6 0.0
5.6000000000000005 1.6 0.0
6.0 1.6 0.0
6.4 1.6 0.0
6.800000000000001 1.6 0.0
7.2 1.6 0.0
7.6000000000000005 1.6 0.0
8.0 1.6 0.0
8.4 1.6 0.0
8.8 1.6 0.0
9.200000000000001 1.6 0.0
9.600000000000001 1.6 0.0
10.0 1.6 0.0
10.4 1.6 0.0
10.8 1.6 0.0
11.200000000000001 1.6 0.0
11.600000000000001 1.6 0.0
12.0 1.6 0.0
12.4 1.6 0.0
12.8 1.6 0.0
13.200000000000001 1.6 0.0
13.600000000000001 1.6 0.0
14.0 1.6 0.0
14.4 1.6 0.0
14.8 1.6 0.0
15.200000000000001 1.6 0.0
15.600000000000001 1.6 0.0
16.0 1.6 0.0
0.0 1.7000000000000002 0.0
0.4 1.7000000000000002 0.0
0.8 1.7000000000000002 0.0
1.2000000000000002 1.7000000000000002 0.0
1.6 1.7000000000000002 0.0
2.0 1.7000000000000002 0.0
2.4000000000000004 1.7000000000000002 0.0
2.8000000000000003 1.7000000000000002 0.0
3.2 1.7000000000000002 0.0
3.6 1.7000000000000002 0.0
4.0 1.7000000000000002 0.0
4.4 1.7000000000000002 0.0
4.800000000000001 1.7000000000000002 0.0
5.2 1.7000000000000002 0.0
5.6000000000000005 1.7000000000000002 0.0
6.0 1.7000000000000002 0.0
6.4 1.7000000000000002 0.0
6.800000000000001 1.7000000000000002 0.0
7.2 1.7000000000000002 0.0
7.6000000000000005 1.7000000000000002 0.0
8.0 1.7000000000000002 0.0
8.4 1.7000000000000002 0.0
8.8 1.7000000000000002 0.0
9.200000000000001 1.7000000000000002 0.0
9.600000000000001 1.7000000000000002 0.0
10.0 1.7000000000000002 0.0
10.4 1.7000000000000002 0.0
10.8 1.7000000000000002 0.0
11.200000000000001 1.7000000000000002 0.0
11.600000000000001 1.7000000000000002 0.0
12.0 1.7000000000000002 0.0
12.4 1.7000000000000002 0.0
12.8 1.7000000000000002 0.0
13.200000000000001 1.7000000000000002 0.0
13.600000000000001 1.7000000000000002 0.0
14.0 1.7000000000000002 0.0
14.4 1.7000000000000002 0.0
14.8 1.7000000000000002 0.0
15.200000000000001 1.7000000000000002 0.0
15.600000000000001 1.7000000000000002 0.0
16.0 1.7000000000000002 0.0
0.0 1.8 0.0
0.4 1.8 0.0
0.8 1.8 0.0
1.2000000000000002 1.8 0.0
1.6 1.8 0.0
2.0 1.8 0.0
2.4000000000000004 1.8 0.0
2.8000000000000003 1.8 0.0
3.2 1.8 0.0
3.6 1.8 0.0
4.0 1.8 0.0
4.4 1.8 0.0
4.800000000000001 1.8 0.0
5.2 1.8 0.0
5.6000000000000005 1.8 0.0
6.0 1.8 0.0
6.4 1.8 0.0
6.800000000000001 1.8 0.0
7.2 1.8 0.0
7.6000000000000005 1.8 0.0
8.0 1.8 0.0
8.4 1.8 0.0
8.8 1.8 0.0
9.200000000000001 1.8 0.0
9.600000000000001 1.8 0.0
10.0 1.8 0.0
10.4 1.8 0.0
10.8 1.8 0.0
11.200000000000001 1.8 0.0
11.600000000000001 1.8 0.0
12.0 1.8 0.0
12.4 1.8 0.0
12.8 1.8 0.0
13.200000000000001 1.8 0.0
13.600000000000001 1.8 0.0
14.0 1.8 0.0
14.4 1.8 0.0
14.8 1.8 0.0
15.200000000000001 1.8 0.0
15.600000000000001 1.8 0.0
16.0 1.8 0.0
0.0 1.9000000000000001 0.0
0.4 1.9000000000000001 0.0
0.8 1.9000000000000001 0.0
1.2000000000000002 1.9000000000000001 0.0
1.6 1.9000000000000001 0.0
2.0 1.9000000000000001 0.0
2.4000000000000004 1.9000000000000001 0.0
2.8000000000000003 1.9000000000000001 0.0
3.2 1.9000000000000001 0.0
3.6 1.9000000000000001 0.0
4.0 1.9000000000000001 0.0
4.4 1.9000000000000001 0.0
4.800000000000001 1.9000000000000001 0.0
5.2 1.9000000000000001 0.0
5.6000000000000005 1.9000000000000001 0.0
6.0 1.9000000000000001 0.0
6.4 1.9000000000000001 0.0
6.800000000000001 1.9000000000000001 0.0
7.2 1.9000000000000001 0.0
7.6000000000000005 1.9000000000000001 0.0
8.0 1.9000000000000001 0.0
8.4 1.9000000000000001 0.0
8.8 1.9000000000000001 0.0
9.200000000000001 1.9000000000000001 0.0
9.600000000000001 1.9000000000000001 0.0
10.0 1.9000000000000001 0.0
10.4 1.9000000000000001 0.0
10.8 1.9000000000000001 0.0
11.200000000000001 1.9000000000000001 0.0
11.600000000000001 1.9000000000000001 0.0
12.0 1.9000000000000001 0.0
12.4 1.9000000000000001 0.0
12.8 1.9000000000000001 0.0
13.200000000000001 1.9000000000000001 0.0
13.600000000000001 1.9000000000000001 0.0
14.0 1.9000000000000001 0.0
14.4 1.9000000000000001 0.0
14.8 1.9000000000000001 0.0
15.200000000000001 1.9000000000000001 0.0
15.600000000000001 1.9000000000000001 0.0
16.0 1.9000000000000001 0.0
0.0 2.0 0.0
0.4 2.0 0.0
0.8 2.0 0.0
1.2000000000000002 2.0 0.0
1.6 2.0 0.0
2.0 2.0 0.0
2.4000000000000004 2.0 0.0
2.8000000000000003 2.0 0.0
3.2 2.0 0.0
3.6 2.0 0.0
4.0 2.0 0.0
4.4 2.0 0.0
4.800000000000001 2.0 0.0
5.2 2.0 0.0
5.6000000000000005 2.0 0.0
6.0 2.0 0.0
6.4 2.0 0.0
6.800000000000001 2.0 0.0
7.2 2.0 0.0
7.6000000000000005 2.0 0.0
8.0 2.0 0.0
8.4 2.0 0.0
8.8 2.0 0.0
9.200000000000001 2.0 0.0
9.600000000000001 2.0 0.0
10.0 2.0 0.0
10.4 2.0 0.0
10.8 2.0 0.0
11.200000000000001 2.0 0.0
11.600000000000001 2.0 0.0
12.0 2.0 0.0
12.4 2.0 0.0
12.8 2.0 0.0
13.200000000000001 2.0 0.0
13.600000000000001 2.0 0.0
14.0 2.0 0.0
14.4 2.0 0.0
14.8 2.0 0.0
15.200000000000001 2.0 0.0
15.600000000000001 2.0 0.0
16.0 2.0 0.0
CELLS 800 4000
4 0 1 42 41
4 1 2 43 42
4 2 3 44 43
4 3 4 45 44
4 4 5 46 45
4 5 6 47 46
4 6 7 48 47
4 7 8 49 48
4 8 9 50 49
4 9 10 51 50
4 10 11 52 51
4 11 12 53 52
4 12 13 54 53
4 13 14 55 54
4 14 15 56 55
4 15 16 57 56
4 16 17 58 57
4 17 18 59 58
4 18 19 60 59
4 19 20 61 60
4 20 21 62 61
4 21 22 63 62
4 22 23 64 63
4 23 24 65 64
4 24 25 66 65
4 25 26 67 66
4 26 27 68 67
4 27 28 69 68
4 28 29 70 69
4 29 30 71 70
4 30 31 72 71
4 31 32 73 72
4 32 33 74 73
4 33 34 75 74
4 34 35 76 75
4 35 36 77 76
4 36 37 78 77
4 37 38 79 78
4 38 39 80 79
4 39 40 81 80
4 41 42 83 82
4 42 43 84 83
4 43 44 85 84
4 44 45 86 85
4 45 46 87 86
4 46 47 88 87
4 47 48 89 88
4 48 49 90 89
4 49 50 91 90
4 50 51 92 91
4 51 52 93 92
4 52 53 94 93
4 53 54 95 94
4 54 55 96 95
4 55 56 97 96
4 56 57 98 97
4 57 58 99 98
4 58 59 100 99
4 59 60 101 100
4 60 61 102 101
4 61 62 103 102
4 62 63 104 103
4 63 64 105 104
4 64 65 106 105
4 65 66 107 106
4 66 67 108 107
4 67 68 109 108
4 68 69 110 109
4 69 70 111 110
4 70 71 112 111
4 71 72 113 112
4 72 73 114 113
4 73 74 115 114
4 74 75 116 115
4 75 76 117 116
4 76 77 118 117
4 77 78 119 118
4 78 79 120 119
4 79 80 121 120
4 80 81 122 121
4 82 83 124 123
4 83 84 125 124
4 84 85 126 125
4 85 86 127 126
4 86 87 128 127
4 87 88 129 128
4 88 89 130 129
4 89 90 131 130
4 90 91 132 131
4 91 92 133 132
4 92 93 134 133
4 93 94 135 134
4 94 95 136 135
4 95 96 137 136
4 96 97 138 137
4 97 98 139 138
4 98 99 140 139
4 99 100 141 140
4 100 101 142 141
4 101 102 143 142
4 102 103 144 143
4 103 104 145 144
4 104 105 146 145
4 105 106 147 146
4 106 107 148 147
4 107 108 149 148
4 108 109 150 149
4 109 110 151 150
4 110 111 152 151
4 111 112 153 152
4 112 113 154 153
4 113 114 155 154
4 114 115 156 155
4 115 116 157 156
4 116 117 158 157
4 117 118 159 158
4 118 119 160 159
4 119 120 161 160
4 120 121 162 161
4 121 122 163 162
4 123 124 165 164
4 124 125 166 165
4 125 126 167 166
4 126 127 168 167
4 127 128 169 168
4 128 129 170 169
4 129 130 171 170
4 130 131 172 171
4 131 132 173 172
4 132 133 174 173
4 133 134 175 174
4 134 135 176 175
4 135 136 177 176
4 136 137 178 177
4 137 138 179 178
4 138 139 180 179
4 139 140 181 180
4 140 141 182 181
4 141 142 183 182
4 142 143 184 183
4 143 144 185 184
4 144 145 186 185
4 145 146 187 186
4 146 147 188 187
4 147 148 189 188
4 148 149 190 189
4 149 150 191 190
4 150 151 192 191
4 151 152 193 192
4 152 153 194 193
4 153 154 195 194
4 154 155 196 195
4 155 156 197 196
4 156 157 198 197
4 157 158 199 198
4 158 159 200 199
4 159 160 201 200
4 160 161 202 201
4 161 162 203 202
4 162 163 204 203
4 164 165 206 205
4 165 166 207 206
4 166 167 208 207
4 167 168 209 208
4 168 169 210 209
4 169 170 211 210
4 170 171 212 211
4 171 172 213 212
4 172 173 214 213
4 173 174 215 214
4 174 175 216 215
4 175 176 217 216
4 176 177 218 217
4 177 178 219 218
4 178 179 220 219
4 179 180 221 220
4 180 181 222 221
4 181 182 223 222
4 182 183 224 223
4 183 184 225 224
4 184 185 226 225
4 185 186 227 226
4 186 187 228 227
4 187 188 229 228
4 188 189 230 229
4 189 190 231 230
4 190 191 232 231
4 191 192 233 232
4 192 193 234 233
4 193 194 235 234
4 194 195 236 235
4 195 196 237 236
4 196 197 238 237
4 197 198 239 238
4 198 199 240 239
4 199 200 241 240
4 200 201 242 241
4 201 202 243 242
4 202 203 244 243
4 203 204 245 244
4 205 206 247 246
4 206 207 248 247
4 207 208 249 248
4 208 209 250 249
4 209 210 251 250
4 210 211 252 251
4 211 212 253 252
4 212 213 254 253
4 213 214 255 254
4 214 215 256 255
4 215 216 257 256
4 216 217 258 257
4 217 218 259 258
4 218 219 260 259
4 219 220 261 260
4 220 221 262 261
4 221 222 263 262
4 222 223 264 263
4 223 224 265 264
4 224 225 266 265
4 225 226 267 266
4 226 227 268 267
4 227 228 269 268
4 228 229 270 269
4 229 230 271 270
4 230 231 272 271
4 231 232 273 272
4 232 233 274 273
4 233 234 275 274
4 234 235 276 275
4 235 236 277 276
4 236 237 278 277
4 237 238 279 278
4 238 239 280 279
4 239 240 281 280
4 240 241 282 281
4 241 242 283 282
4 242 243 284 283
4 243 244 285 284
4 244 245 286 285
4 246 247 288 287
4 247 248 289 288
4 248 249 290 289
4 249 250 291 290
4 250 251 292 291
4 251 252 293 292
4 252 253 294 293
4 253 254 295 294
4 254 255 296 295
4 255 256 297 296
4 256 257 298 297
4 257 258 299 298
4 258 259 300 299
4 259 260 301 300
4 260 261 302 301
4 261 262 303 302
4 262 263 304 303
4 263 264 305 304
4 264 265 306 305
4 265 266 307 306
4 266 267 308 307
4 267 268 309 308
4 268 269 310 309
4 269 270 311 310
4 270 271 312 311
4 271 272 313 312
4 272 273 314 313
4 273 274 315 314
4 274 275 316 315
4 275 276 317 316
4 276 277 318 317
4 277 278 319 318
4 278 279 320 319
4 279 280 321 320
4 280 281 322 321
4 281 282 323 322
4 282 283 324 323
4 283 284 325 324
4 284 285 326 325
4 285 286 327 326
4 287 288 329 328
4 288 289 330 329
4 289 290 331 330
4 290 291 332 331
4 291 292 333 332
4 292 293 334 333
4 293 294 335 334
4 294 295 336 335
4 295 296 337 336
4 296 297 338 337
4 297 298 339 338
4 298 299 340 339
4 299 300 341 340
4 300 301 342 341
4 301 302 343 342
4 302 303 344 343
4 303 304 345 344
4 304 305 346 345
4 305 306 347 346
4 306 307 348 347
4 307 308 349 348
4 308 309 350 349
4 309 310 351 350
4 310 311 352 351
4 311 312 353 352
4 312 313 354 353
4 313 314 355 354
4 314 315 356 355
4 315 316 357 356
4 316 317 358 357
4 317 318 359 358
4 318 319 360 359
4 319 320 361 360
4 320 321 362 361
4 321 322 363 362
4 322 323 364 363
4 323 324 365 364
4 324 325 366 365
4 325 326 367 366
4 326 327 368 367
4 328 329 370 369
4 329 330 371 370
4 330 331 372 371
4 331 332 373 372
4 332 333 374 373
4 333 334 375 374
4 334 335 376 375
4 335 336 377 376
4 336 337 378 377
4 337 338 379 378
4 338 339 380 379
4 339 340 381 380
4 340 341 382 381
4 341 342 383 382
4 342 343 384 383
4 343 344 385 384
4 344 345 386 385
4 345 346 387 386
4 346 347 388 387
4 347 348 389 388
4 348 349 390 389
4 349 350 391 390
4 350 351 392 391
4 351 352 393 392
4 352 353 394 393
4 353 354 395 394
4 354 355 396 395
4 355 356 397 396
4 356 357 398 397
4 357 358 399 398
4 358 359 400 399
4 359 360 401 400
4 360 361 402 401
4 361 362 403 402
4 362 363 404 403
4 363 364 405 404
4 364 365 406 405
4 365 366 407 406
4 366 367 408 407
4 367 368 409 408
4 369 370 411 410
4 370 371 412 411
4 371 372 413 412
4 372 373 414 413
4 373 374 415 414
4 374 375 416 415
4 375 376 417 416
4 376 377 418 417
4 377 378 419 418
4 378 379 420 419
4 379 380 421 420
4 380 381 422 421
4 381 382 423 422
4 382 383 424 423
4 383 384 425 424
4 384 385 426 425
4 385 386 427 426
4 386 387 428 427
4 387 388 429 428
4 388 389 430 429
4 389 390 431 430
4 390 391 432 431
4 391 392 433 432
4 392 393 434 433
4 393 394 435 434
4 394 395 436 435
4 395 396 437 436
4 396 397 438 437
4 397 398 439 438
4 398 399 440 439
4 399 400 441 440
4 400 401 442 441
4 401 402 443 442
4 402 403 444 443
4 403 404 445 444
4 404 405 446 445
4 405 406 447 446
4 406 407 448 447
4 407 408 449 448
4 408 409 450 449
4 410 411 452 451
4 411 412 453 452
4 412 413 454 453
4 413 414 455 454
4 414 415 456 455
4 415 416 457 456
4 416 417 458 457
4 417 418 459 458
4 418 419 460 459
4 419 420 461 460
4 420 421 462 461
4 421 422 463 462
4 422 423 464 463
4 423 424 465 464
4 424 425 466 465
4 425 426 467 466
4 426 427 468 467
4 427 428 469 468
4 428 429 470 469
4 429 430 471 470
4 430 431 472 471
4 431 432 473 472
4 432 433 474 473
4 433 434 475 474
4 434 435 476 475
4 435 436 477 476
4 436 437 478 477
4 437 438 479 478
4 438 439 480 479
4 439 440 481 480
4 440 441 482 481
4 441 442 483 482
4 442 443 484 483
4 443 444 485 484
4 444 445 486 485
4 445 446 487 486
4 446 447 488 487
4 447 448 489 488
4 448 449 490 489
4 449 450 491 490
4 451 452 493 492
4 452 453 494 493
4 453 454 495 494
4 454 455 496 495
4 455 456 497 496
4 456 457 498 497
4 457 458 499 498
4 458 459 500 499
4 459 460 501 500
4 460 461 502 501
4 461 462 503 502
4 462 463 504 503
4 463 464 505 504
4 464 465 506 505
4 465 466 507 506
4 466 467 508 507
4 467 468 509 508
4 468 469 510 509
4 469 470 511 510
4 470 471 512 511
4 471 472 513 512
4 472 473 514 513
4 473 474 515 514
4 474 475 516 515
4 475 476 517 516
4 476 477 518 517
4 477 478 519 518
4 478 479 520 519
4 479 480 521 520
4 480 481 522 521
4 481 482 523 522
4 482 483 524 523
4 483 484 525 524
4 484 485 526 525
4 485 486 527 526
4 486 487 528 527
4 487 488 529 528
4 488 489 530 529
4 489 490 531 530
4 490 491 532 531
4 492 493 534 533
4 493 494 535 534
4 494 495 536 535
4 495 496 537 536
4 496 497 538 537
4 497 498 539 538
4 498 499 540 539
4 499 500 541 540
4 500 501 542 541
4 501 502 543 542
4 502 503 544 543
4 503 504 545 544
4 504 505 546 545
4 505 506 547 546
4 506 507 548 547
4 507 508 549 548
4 508 509 550 549
4 509 510 551 550
4 510 511 552 551
4 511 512 553 552
4 512 513 554 553
4 513 514 555 554
4 514 515 556 555
4 515 516 557 556
4 516 517 558 557
4 517 518 559 558
4 518 519 560 559
4 519 520 561 560
4 520 521 562 561
4 521 522 563 562
4 522 523 564 563
4 523 524 565 564
4 524 525 566 565
4 525 526 567 566
4 526 527 568 567
4 527 528 569 568
4 528 529 570 569
4 529 530 571 570
4 530 531 572 571
4 531 532 573 572
4 533 534 575 574
4 534 535 576 575
4 535 536 577 576
4 536 537 578 577
4 537 538 579 578
4 538 539 580 579
4 539 540 581 580
4 540 541 582 581
4 541 542 583 582
4 542 543 584 583
4 543 544 585 584
4 544 545 586 585
4 545 546 587 586
4 546 547 588 587
4 547 548 589 588
4 548 549 590 589
4 549 550 591 590
4 550 551 592 591
4 551 552 593 592
4 552 553 594 593
4 553 554 595 594
4 554 555 596 595
4 555 556 597 596
4 556 557 598 597
4 557 558 599 598
4 558 559 600 599
4 559 560 601 600
4 560 561 602 601
4 561 562 603 602
4 562 563 604 603
4 563 564 605 604
4 564 565 606 605
4 565 566 607 606
4 566 567 608 607
4 567 568 609 608
4 568 569 610 609
4 569 570 611 610
4 570 571 612 611
4 571 572 613 612
4 572 573 614 613
4 574 575 616 615
4 575 576 617 616
4 576 577 618 617
4 577 578 619 618
4 578 579 620 619
4 579 580 621 620
4 580 581 622 621
4 581 582 623 622
4 582 583 624 623
4 583 584 625 624
4 584 585 626 625
4 585 586 627 626
4 586 587 628 627
4 587 588 629 628
4 588 589 630 629
4 589 590 631 630
4 590 591 632 631
4 591 592 633 632
4 592 593 634 633
4 593 594 635 634
4 594 595 636 635
4 595 596 637 636
4 596 597 638 637
4 597 598 639 638
4 598 599 640 639
4 599 600 641 640
4 600 601 642 641
4 601 602 643 642
4 602 603 644 643
4 603 604 645 644
4 604 605 646 645
4 605 606 647 646
4 606 607 648 647
4 607 608 649 648
4 608 609 650 649
4 609 610 651 650
4 610 611 652 651
4 611 612 653 652
4 612 613 654 653
4 613 614 655 654
4 615 616 657 656
4 616 617 658 657
4 617 618 659 658
4 618 619 660 659
4 619 620 661 660
4 620 621 662 661
4 621 622 663 662
4 622 623 664 663
4 623 624 665 664
4 624 625 666 665
4 625 626 667 666
4 626 627 668 667
4 627 628 669 668
4 628 629 670 669
4 629 630 671 670
4 630 631 672 671
4 631 632 673 672
4 632 633 674 673
4 633 634 675 674
4 634 635 676 675
4 635 636 677 676
4 636 637 678 677
4 637 638 679 678
4 638 639 680 679
4 639 640 681 680
4 640 641 682 681
4 641 642 683 682
4 642 643 684 683
4 643 644 685 684
4 644 645 686 685
4 645 646 687 686
4 646 647 688 687
4 647 648 689 688
4 648 649 690 689
4 649 650 691 690
4 650 651 692 691
4 651 652 693 692
4 652 653 694 693
4 653 654 695 694
4 654 655 696 695
4 656 657 698 697
4 657 658 699 698
4 658 659 700 699
4 659 660 701 700
4 660 661 702 701
4 661 662 703 702
4 662 663 704 703
4 663 664 705 704
4 664 665 706 705
4 665 666 707 706
4 666 667 708 707
4 667 668 709 708
4 668 669 710 709
4 669 670 711 710
4 670 671 712 711
4 671 672 713 712
4 672 673 714 713
4 673 674 715 714
4 674 675 716 715
4 675 676 717 716
4 676 677 718 717
4 677 678 719 718
4 678 679 720 719
4 679 680 721 720
4 680 681 722 721
4 681 682 723 722
4 682 683 724 723
4 683 684 725 724
4 684 685 726 725
4 685 686 727 726
4 686 687 728 727
4 687 688 729 728
4 688 689 730 729
4 689 690 731 730
4 690 691 732 731
4 691 692 733 732
4 692 693 734 733
4 693 694 735 734
4 694 695 736 735
4 695 696 737 736
4 697 698 739 738
4 698 699 740 739
4 699 700 741 740
4 700 701 742 741
4 701 702 743 742
4 702 703 744 743
4 703 704 745 744
4 704 705 746 745
4 705 706 747 746
4 706 707 748 747
4 707 708 749 748
4 708 709 750 749
4 709 710 751 750
4 710 711 752 751
4 711 712 753 752
4 712 713 754 753
4 713 714 755 754
4 714 715 756 755
4 715 716 757 756
4 716 717 758 757
4 717 718 759 758
4 718 719 760 759
4 719 720 761 760
4 720 721 762 761
4 721 722 763 762
4 722 723 764 763
4 723 724 765 764
4 724 725 766 765
4 725 726 767 766
4 726 727 768 767
4 727 728 769 768
4 728 729 770 769
4 729 730 771 770
4 730 731 772 771
4 731 732 773 772
4 732 733 774 773
4 733 734 775 774
4 734 735 776 775
4 735 736 777 776
4 736 737 778 777
4 738 739 780 779
4 739 740 781 780
4 740 741 782 781
4 741 742 783 782
4 742 743 784 783
4 743 744 785 784
4 744 745 786 785
4 745 746 787 786
4 746 747 788 787
4 747 748 789 788
4 748 749 790 789
4 749 750 791 790
4 750 751 792 791
4 751 752 793 792
4 752 753 794 793
4 753 754 795 794
4 754 755 796 795
4 755 756 797 796
4 756 757 798 797
4 757 758 799 798
4 758 759 800 799
4 759 760 801 800
4 760 761 802 801
4 761 762 803 802
4 762 763 804 803
4 763 764 805 804
4 764 765 806 805
4 765 766 807 806
4 766 767 808 807
4 767 768 809 808
4 768 769 810 809
4 769 770 811 810
4 770 771 812 811
4 771 772 813 812
4 772 773 814 813
4 773 774 815 814
4 774 775 816 815
4 775 776 817 816
4 776 777 818 817
4 777 778 819 818
4 779 780 821 820
4 780 781 822 821
4 781 782 823 822
4 782 783 824 823
4 783 784 825 824
4 784 785 826 825
4 785 786 827 826
4 786 787 828 827
4 787 788 829 828
4 788 789 830 829
4 789 790 831 830
4 790 791 832 831
4 791 792 833 832
4 792 793 834 833
4 793 794 835 834
4 794 795 836 835
4 795 796 837 836
4 796 797 838 837
4 797 798 839 838
4 798 799 840 839
4 799 800 841 840
4 800 801 842 841
4 801 802 843 842
4 802 803 844 843
4 803 804 845 844
4 804 805 846 845
4 805 806 847 846
4 806 807 848 847
4 807 808 849 848
4 808 809 850 849
4 809 810 851 850
4 810 811 852 851
4 811 812 853 852
4 812 813 854 853
4 813 814 855 854
4 814 815 856 855
4 815 816 857 856
4 816 817 858 857
4 817 818 859 858
4 818 819 860 859
CELL_TYPES 800
9
9
9
9
9
9
9
9
9
9
9
9
9
9
9
9
9
9
9
9
9
9
9
9
9
9
9
9
9
9
9
9
9
9
9
9
9
9
9
9
9
9
9
9
9
9
9
9
9
9
9
9
9
9
9
9
9
9
9
9
9
9
9
9
9
9
9
9
9
9
9
9
9
9
9
9
9
9
9
9
9
9
9
9
9
9
9
9
9
9
9
9
9
9
9
9
9
9
9
9
9
9
9
9
9
9
9
9
9
9
9
9
9
9
9
9
9
9
9
9
9
9
9
9
9
9
9
9
9
9
9
9
9
9
9
9
9
9
9
9
9
9
9
9
9
9
9
9
9
9
9
9
9
9
9
9
9
9
9
9
9
9
9
9
9
9
9
9
9
9
9
9
9
9
9
9
9
9
9
9
9
9
9
9
9
9
9
9
9
9
9
9
9
9
9
9
9
9
9
9
9
9
9
9
9
9
9
9
9
9
9
9
9
9
9
9
9
9
9
9
9
9
9
9
9
9
9
9
9
9
9
9
9
9
9
9
9
9
9
9
9
9
9
9
9
9
9
9
9
9
9
9
9
9
9
9
9
9
9
9
9
9
9
9
9
9
9
9
9
9
9
9
9
9
9
9
9
9
9
9
9
9
9
9
9
9
9
9
9
9
9
9
9
9
9
9
9
9
9
9
9
9
9
9
9
9
9
9
9
9
9
9
9
9
9
9
9
9
9
9
9
9
9
9
9
9
9
9
9
9
9
9
9
9
9
9
9
9
9
9
9
9
9
9
9
9
9
9
9
9
9
9
9
9
9
9
9
9
9
9
9
9
9
9
9
9
9
9
9
9
9
9
9
9
9
9
9
9
9
9
9
9
9
9
9
9
9
9
9
9
9
9
9
9
9
9
9
9
9
9
9
9
9
9
9
9
9
9
9
9
9
9
9
9
9
9
9
9
9
9
9
9
9
9
9
9
9
9
9
9
9
9
9
9
9
9
9
9
9
9
9
9
9
9
9
9
9
9
9
9
9
9
9
9
9
9
9
9
9
9
9
9
9
9
9
9
9
9
9
9
9
9
9
9
9
9
9
9
9
9
9
9
9
9
9
9
9
9
9
9
9
9
9
9
9
9
9
9
9
9
9
9
9
9
9
9
9
9
9
9
9
9
9
9
9
9
9
9
9
9
9
9
9
9
9
9
9
9
9
9
9
9
9
9
9
9
9
9
9
9
9
9
9
9
9
9
9
9
9
9
9
9
9
9
9
9
9
9
9
9
9
9
9
9
9
9
9
9
9
9
9
9
9
9
9
9
9
9
9
9
9
9
9
9
9
9
9
9
9
9
9
9
9
9
9
9
9
9
9
9
9
9
9
9
9
9
9
9
9
9
9
9
9
9
9
9
9
9
9
9
9
9
9
9
9
9
9
9
9
9
9
9
9
9
9
9
9
9
9
9
9
9
9
9
9
9
9
9
9
9
9
9
9
9
9
9
9
9
9
9
9
9
9
9
9
9
9
9
9
9
9
9
9
9
9
9
9
9
9
9
9
9
9
9
9
9
9
9
9
9
9
9
9
9
9
9
9
9
9
9
9
9
9
9
9
9
9
9
9
9
9
9
9
9
9
9
9
9
9
9
9
9
9
9
9
9
9
9
9
9
9
9
9
9
9
9
9
9
9
9
9
9
9
9
9
9
9
9
9
9
9
9
9
9
9
9
9
9
9
9
9
9
9
9
9
9
9
9
9
9
9
9
9
9
9
9
9
9
9
9
9
9
9
9
9
9
9
9
9
9
9
9
9
9
9
9
9
9
9
9
POINT_DATA 861
SCALARS Disp float 2
LOOKUP_TABLE default
0.0 0.0
0.005066202872368008 -0.18381549828946966
0.006221224967219492 -0.3594584305581505
0.006970532727969721 -0.5342425020442095
0.00789676134684695 -0.708708494192967
0.009281551923284424 -0.8825482508808978
0.011570339247660653 -1.0553634972989323
0.015274609671451524 -1.2266644897263277
0.02098585118550029 -1.395844945645496
0.02934390753393842 -1.5621261714538293
0.040997237864912696 -1.7244645604046942
0.05659150654320896 -1.8814823015376299
0.07676861869881701 -2.031465570156496
0.10215907739989377 -2.172433642395761
0.1333820996577653 -2.3021988583377944
0.17097887082650062 -2.4184117184055816
0.21528617480939563 -2.518611952433668
0.2662763146225729 -2.600313875452165
0.3234114309877485 -2.661171537917561
0.38557105706298583 -2.699214623679408
0.4509374463251646 -2.7130851415129538
0.5163038355873398 -2.6992146236793273
0.578463461662565 -2.661171537917395
0.6355985780277197 -2.600313875451926
0.6865887178408708 -2.518611952433368
0.7308960218237374 -2.418411718405239
0.7684927929924437 -2.302198858337418
0.7997158152502859 -2.1724336423953634
0.8251062739513334 -2.0314655701560884
0.8452833861069138 -1.881482301537225
0.8608776547851851 -1.7244645604043027
0.8725309851161386 -1.56212617145346
0.8808890414645605 -1.395844945645154
0.8866002829785969 -1.2266644897260188
0.8903045534023794 -1.0553634972986596
0.8925933407267507 -0.8825482508806658
0.8939781313031857 -0.708708494192776
0.8949043599220623 -0.5342425020440623
0.8956536676828123 -0.35945843055804627
0.8968086897776626 -0.18381549828941074
0.9018748926500272 0.0
0.0458567901161688 -0.002154643022187593
0.04933676163855481 -0.18401137507776863
0.04995492446354325 -0.3595195116168752
0.050624333332586924 -0.5343264170611357
0.05144583965594422 -0.7088285103191858
0.052635502699450006 -0.8827921458565967
0.054614328604340484 -1.0558482011397459
0.05786710786396676 -1.2275260686695884
0.0629498662306039 -1.3972344178934117
0.07044625795222537 -1.5641962000251872
0.08093378868339303 -1.7273651962095893
0.09497396380912063 -1.8853624262239888
0.11312818422909993 -2.0364751882102743
0.13597250783897213 -2.178723374198012
0.1640752522768685 -2.309913187904242
0.19794279032575599 -2.42766523460328
0.23790067760101374 -2.529453215113871
0.2839493696123409 -2.612687335440856
0.33563290490343667 -2.674887366241432
0.3919148215180152 -2.7139294451689158
0.4509374463251546 -2.7282052103562826
0.5099600711322904 -2.713929445168833
0.5662419877468577 -2.674887366241262
0.6179255230379354 -2.612687335440611
0.6639742150492397 -2.529453215113565
0.7039321023244721 -2.427665234602931
0.7377996403733336 -2.3099131879038595
0.7659023848112034 -2.1787233741976073
0.7887467084210494 -2.0364751882098595
0.8069009288410038 -1.8853624262235775
0.8209411039667088 -1.7273651962091925
0.8314286346978578 -1.5641962000248137
0.8389250264194643 -1.3972344178930667
0.8440077847860904 -1.227526068669277
0.847260564045709 -1.0558482011394716
0.8492393899505952 -0.8827921458563639
0.8504290529940991 -0.7088285103189947
0.851250559317456 -0.5343264170609886
0.8519199681864995 -0.3595195116167709
0.8525381310114878 -0.1840113750777094
0.8560181025338688 -0.002154643022185175
0.09082776719691832 -0.003849544972377706
0.09335135550404944 -0.1841060249568469
0.09370925354882584 -0.35955531453149187
0.09425665241397278 -0.5344010471782166
0.0949812191808483 -0.7089269502758302
0.09599590860978684 -0.8829856127181982
0.09766937494327761 -1.0562484762259323
0.10047198190354384 -1.2282619406033595
0.10491593064513306 -1.3984465541542692
0.11153177869788626 -1.5660227002585396
0.12082906710020395 -1.7299378828538454
0.13329337844208197 -1.8888098360487529
0.14940843362412665 -2.0409293727127737
0.16968105322314622 -2.18432195875781
0.19463290823013507 -2.3167893574746117
0.22473198649353968 -2.435927195041991
0.26029873765361783 -2.5391523533575033
0.3013783873175218 -2.623783117157337
0.3476001064335107 -2.687214677224303
0.3980030434289912 -2.727151204904038
0.45093744632514493 -2.7417986987889607
0.5038718492212955 -2.727151204903953
0.5542747862167657 -2.6872146772241297
0.6004965053327385 -2.6237831171570876
0.6415761549966227 -2.5391523533571916
0.6771429061566784 -2.435927195041636
0.7072419844200598 -2.316789357474223
0.7321938394270251 -2.1843219587573994
0.7524664590260214 -2.0409293727123536
0.7685815142080441 -1.888809836048336
0.7810458255499017 -1.7299378828534437
0.7903431139522029 -1.5660227002581624
0.7969589620049427 -1.3984465541539213
0.801402910746522 -1.228261940603046
0.8042055177067815 -1.0562484762256568
0.8058789840402687 -0.8829856127179649
0.8068936734692058 -0.7089269502756389
0.807618240236081 -0.5344010471780695
0.8081656391012279 -0.3595553145313876
0.8085235371460043 -0.18410602495678732
0.8110471254531306 -0.0038495449723727365
0.13533533452683627 -0.005205479910398069
0.1372233110233476 -0.18416992538543822
0.13744269571198414 -0.35957547621597297
0.13787136978161413 -0.5344625856729206
0.138497269794358 -0.7090102793242069
0.1393590382582774 -0.8831352401811654
0.1407441402677474 -1.0565668693574162
0.14309974908184594 -1.2288733881339537
0.1469010995599681 -1.399479607250344
0.15262483136911917 -1.567602250777308
0.16071653742341002 -1.73217857977767
0.17158929902807687 -1.8918218211326774
0.1856535521993605 -2.044826049682292
0.20334532389305085 -2.18922502799829
0.2251242552966991 -2.3228210108497427
0.25142670355600005 -2.4431897582722764
0.28257092295108976 -2.54770172057069
0.3186476245527369 -2.6335962458187234
0.35937667210383567 -2.6981494426998043
0.4039442318617056 -2.738908453147627
0.45093744632513577 -2.753929723910979
0.49793066078856285 -2.738908453147541
0.5424982205464233 -2.6981494426996284
0.583227268097508 -2.63359624581847
0.6193039696991375 -2.547701720570374
0.650448189094208 -2.443189758271916
0.6767506373534883 -2.3228210108493488
0.6985295687571159 -2.1892250279978738
0.7162213404507859 -2.0448260496818667
0.7302855936220504 -1.8918218211322557
0.7411583552266996 -1.7321785797772642
0.7492500612809759 -1.5676022507769272
0.7549737930901151 -1.399479607249993
0.7587751435682286 -1.2288733881336384
0.7611307523823213 -1.0565668693571393
0.7625158543917885 -0.8831352401809317
0.7633776228557069 -0.7090102793240155
0.7640035228684504 -0.5344625856727736
0.7644321969380805 -0.3595754762158688
0.7646515816267171 -0.18416992538537832
0.766539558123224 -0.005205479910390822
0.17957625039750996 -0.006296093152412322
0.18099517497167109 -0.18422125128886918
0.1811385830734893 -0.3595870389282126
0.1814660862582771 -0.534510450196809
0.18199145709099326 -0.7090807398940135
0.18271623275041857 -0.8832513083019838
0.18384436728668294 -1.0568098292259527
0.1857607231267934 -1.2293626448563004
0.18892264871251446 -1.4003342396990808
0.19375029105967956 -1.568933569633058
0.2006286739969987 -1.734085781937272
0.2099032614178318 -1.8943970226685716
0.2219108444665548 -2.048164666688823
0.23701658559755737 -2.193432065732536
0.2556210188343964 -2.3280052443870796
0.2781131253815782 -2.449447935762357
0.30480823568610094 -2.555094618656252
0.3358448477114743 -2.6421182441047057
0.3710509501999679 -2.707690734114579
0.4098017450303713 -2.7492218460488838
0.45093744632512667 -2.7646346231867316
0.4920731476198791 -2.749221846048796
0.530823942450274 -2.7076907341144003
0.5660300449387552 -2.6421182441044477
0.5970666569641133 -2.5550946186559313
0.6237617672686196 -2.4494479357619925
0.6462538738157834 -2.3280052443866817
0.6648583070526048 -2.1934320657321154
0.67996404818359 -2.0481646666883933
0.6919716312322968 -1.894397022668146
0.7012462186531147 -1.7340857819368622
0.7081246015904213 -1.5689335696326745
0.7129522439375762 -1.400334239698728
0.7161141695232899 -1.2293626448559838
0.7180305253633956 -1.056809829225675
0.7191586598996578 -0.8832513083017498
0.7198834355590825 -0.7090807398938221
0.7204088063917984 -0.534510450196662
0.7207363095765862 -0.35958703892810845
0.7208797176784044 -0.18422125128880906
0.7222986422525618 -0.006296093152403065
0.22364034081971806 -0.007168006394290658
0.22469647029497172 -0.1842659152713655
0.22479509627787916 -0.3595948242050786
0.22503827491338407 -0.5345456614974148
0.22546224783832486 -0.7091394806600789
0.22606151263026364 -0.8833417282542526
0.22696162735543327 -1.0569889770762386
0.22847204635214152 -1.229733946497827
0.23099827469750164 -1.4010129633221338
0.23493354137198263 -1.5700178932179265
0.2405988794834525 -1.7356598801206566
0.24827512484639444 -1.896536447345993
0.2582294991420347 -2.0509467234426104
0.27075536672330164 -2.1969445947392643
0.2861866031947586 -2.3323436425213027
0.3048726563623348 -2.4547008289089303
0.32710929730907284 -2.5613254659579496
0.35306960451198677 -2.6493402961794192
0.3827107721435434 -2.715834457202993
0.4156292205959843 -2.7581005857149172
0.45093744632511745 -2.7739344917384674
0.48624567205424807 -2.7581005857148275
0.5191641205066816 -2.7158344572028126
0.5488052881382275 -2.649340296179158
0.5747655953411285 -2.561325465957626
0.5970022362878528 -2.454700828908562
0.6156882894554137 -2.3323436425209008
0.6311195259268559 -2.1969445947388397
0.6436453935081086 -2.050946723442177
0.6535997678037353 -1.8965364473455637
0.6612760131666646 -1.735659880120244
0.666941351278124 -1.5700178932175406
0.6708766179525965 -1.401012963321779
0.6734028462979504 -1.229733946497509
0.6749132652946551 -1.0569889770759604
0.6758133800198233 -0.8833417282540184
0.6764126448117617 -0.7091394806598875
0.6768366177367022 -0.5345456614972676
0.6770797963722072 -0.3595948242049745
0.6771784223551146 -0.1842659152713052
0.6782345518303653 -0.007168006394279675
0.2675757374499104 -0.007857072291883265
0.2683478584056316 -0.1843058431891743
0.26841661307340076 -0.35960129548693975
0.26858746687580515 -0.5345696543801263
0.2689108838586533 -0.7091864329442663
0.2693896478678394 -0.8834121774737143
0.27008595592006723 -1.0571175019129202
0.2712290214788619 -1.230000079923224
0.2731510387664016 -1.4015204795421399
0.2762011404045335 -1.5708587491856647
0.28066198589791513 -1.7369039088355802
0.28674760559044427 -1.8982431909155115
0.2946588392363253 -2.053176244402256
0.3046190995762506 -2.1997673841166856
0.3168962820731925 -2.335840114505543
0.33178580603500013 -2.458951439209045
0.3495654377922668 -2.5663929295887145
0.37043115982351293 -2.6552541189274903
0.39445451225439065 -2.7225706296283785
0.42148189283786375 -2.765541815176405
0.4509374463251081 -2.781837465209545
0.4803929998123501 -2.7655418151763143
0.507420380395817 -2.722570629628196
0.5314437328266858 -2.6552541189272265
0.5523094548579216 -2.5663929295883876
0.5700890866151767 -2.4589514392086738
0.584978610576972 -2.3358401145051384
0.5972557930739021 -2.1997673841162584
0.6072160534138165 -2.0531762444018193
0.6151272870596867 -1.8982431909150796
0.6212129067522058 -1.7369039088351652
0.625673752245579 -1.5708587491852766
0.6287238538837041 -1.4015204795417835
0.6306458711712392 -1.2300000799229052
0.6317889367300313 -1.0571175019126415
0.6324852447822582 -0.88341217747348
0.6329640087914439 -0.7091864329440749
0.633287425774292 -0.5345696543799789
0.6334582795766962 -0.3596012954868357
0.6335270342444653 -0.18430584318911383
0.6342991552001843 -0.00785707229187089
0.31141513915498537 -0.008391823856807763
0.3119647379323011 -0.18434265683558976
0.3120095537234063 -0.35960699218514447
0.31211509113271474 -0.5345838281038285
0.3123400429787737 -0.7092208088462194
0.3126964302829801 -0.8834665061573969
0.3132126004269039 -1.0572059168823638
0.31402447448346293 -1.230177703976856
0.3153883034520924 -1.4018697591187583
0.31758505776091367 -1.571462906711765
0.3208553486864032 -1.737823517049696
0.3253643196269369 -1.899522980695474
0.3312508800443327 -2.054860026950339
0.3386695655632186 -2.2019083878635515
0.3478189435275286 -2.338503031731018
0.35893846491103354 -2.4622059940891035
0.37227595963335036 -2.570299583481095
0.3880363538081992 -2.6598544825172703
0.4063870713526774 -2.727883913637182
0.4274231297186868 -2.771529299525755
0.4509374463250984 -2.788338175926577
0.4744517629315082 -2.7715292995256635
0.495487821297513 -2.727883913636998
0.513838538841984 -2.6598544825170047
0.5295989330168249 -2.570299583480766
0.5429364277391325 -2.462205994088729
0.554055949122628 -2.3385030317306112
0.5632053270869297 -2.201908387863122
0.5706240126058075 -2.0548600269499
0.5765105730231953 -1.89952298069504
0.5810195439637216 -1.7378235170492793
0.5842898348892047 -1.571462906711375
0.5864865891980213 -1.401869759118401
0.5878504181666475 -1.2301777039765365
0.5886622922232048 -1.057205916882085
0.5891784623671281 -0.8834665061571624
0.5895348496713341 -0.7092208088460281
0.589759801517393 -0.5345838281036811
0.5898653389267016 -0.3596069921850404
0.5899101547178065 -0.18434265683552928
0.5904597534951207 -0.008391823856794278
0.355177562274323 -0.008799747079958566
0.3555615847717435 -0.1843776713980924
0.355579657925478 -0.3596111889317684
0.3556239426400498 -0.5345892649894876
0.3557535547295271 -0.7092421690647933
0.3559832598815558 -0.8835051466629564
0.35632828554967527 -1.0572651557189
0.3568509548158037 -1.2302847300234443
0.35770805157130925 -1.4020813767629636
0.35910403648925987 -1.5718458989071278
0.36121924124379384 -1.7384290366750008
0.36417637216334564 -1.9003854789575159
0.3680615786767139 -2.056008551246043
0.37296969228008825 -2.2033797224199674
0.37902966628234525 -2.3403450108075683
0.386415167783987 -2.46447561078756
0.39533538401914975 -2.573053652995441
0.4060047469031605 -2.663140781246119
0.41863373954164257 -2.731755713797418
0.4335309419840446 -2.7760324042492623
0.4509374463250882 -2.79341651813722
0.468343950666131 -2.77603240424917
0.48324115310853016 -2.7317557137972326
0.4958701457470068 -2.6631407812458523
0.5065395086310119 -2.57305365299511
0.5154597248661682 -2.4644756107871837
0.5228452263678037 -2.3403450108071593
0.5289052003700556 -2.203379722419536
0.5338133139734248 -2.0560085512456023
0.5376985204867881 -1.9003854789570798
0.5406556514063351 -1.7384290366745827
0.5427708561608648 -1.5718458989067368
0.5441668410788126 -1.402081376762606
0.5450239378343164 -1.2302847300231246
0.5455466071004438 -1.057265155718621
0.5458916327685629 -0.8835051466627221
0.5461213379205916 -0.7092421690646019
0.5462509500100687 -0.5345892649893403
0.5462952347246405 -0.35961118893166427
0.5463133078783748 -0.1843776713980319
0.5466973303757943 -0.008799747079944256
0.3988756085092645 -0.009109322555867662
0.3991444130344737 -0.18441267430444058
0.39913241104933284 -0.3596123775097284
0.39911785122981397 -0.5345867689097639
0.3991550983510737 -0.7092506598381446
0.3992565619027374 -0.8835266851271618
0.39942617186490226 -1.0573005522292949
0.3996875095036992 -1.2303414481114143
0.40009810966677023 -1.4021838935107795
0.40076289300881845 -1.5720357120611355
0.4017827945040462 -1.7387432447169593
0.40323276358881466 -1.9008495260393816
0.40515011747294855 -2.0566396180280813
0.4075816589815403 -2.2042006629479998
0.4105948860042045 -2.3413864947908145
0.4142899100657917 -2.465778980547057
0.41882235976311005 -2.5746696503049473
0.4244110643688491 -2.6651244958455447
0.4313244751982583 -2.734174393675086
0.43992576186929844 -2.7790047589475098
0.45093744632507793 -2.7970310097999525
0.4619491307808572 -2.779004758947417
0.47055041745189585 -2.7341743936748997
0.47746382828130174 -2.6651244958452764
0.48305253288703753 -2.5746696503046156
0.4875849825843528 -2.4657789805466797
0.49128000664593713 -2.341386494790404
0.49429323366859934 -2.2042006629475677
0.49672477517718905 -2.05663961802764
0.4986421290613207 -1.9008495260389449
0.5000920981460871 -1.7387432447165405
0.501111999641313 -1.572035712060744
0.5017767829833603 -1.4021838935104216
0.5021873831464306 -1.2303414481110944
0.5024487207852271 -1.0573005522290158
0.5026183307473918 -0.8835266851269273
0.5027197942990556 -0.7092506598379532
0.5027570414203154 -0.5345867689096165
0.5027424816007964 -0.35961237750962427
0.5027304796156555 -0.18441267430438013
0.502999284140864 -0.009109322555852738
0.44252521256914623 -0.009344245280366733
0.44271290899667004 -0.18444908988760209
0.4426725694405119 -0.35960943724167077
0.4426012008876858 -0.5345768628561525
0.44254898394068176 -0.7092465389853804
0.44252282261282994 -0.8835306008911442
0.4425131178669752 -1.0573116637022677
0.442510535967517 -1.2303599323387695
0.4425100906017919 -1.4022140642241214
0.44251031701270455 -1.5720857737320186
0.44251054032949666 -1.7388236743546317
0.4425104330221875 -1.9009692949310735
0.44250708965151714 -2.0568040009854434
0.44249689567161804 -2.204419492609449
0.44248264376948 -2.3416744666636204
0.442496970650766 -2.466159658966903
0.44264334048266996 -2.5751850862538297
0.4431493087976526 -2.6658401641736513
0.4443694037639605 -2.735172604748219
0.4467067788346456 -2.780411602981848
0.4509374463250672 -2.7991189280285322
0.4551681138154893 -2.780411602981755
0.457505488886174 -2.735172604748032
0.4587255838524808 -2.665840164173382
0.4592315521674635 -2.575185086253497
0.45937792199936794 -2.4661596589665256
0.45939224888065444 -2.3416744666632097
0.45937799697851744 -2.204419492609017
0.4593678029986193 -2.0568040009850024
0.45936445962794986 -1.9009692949306365
0.45936435232064166 -1.7388236743542125
0.4593645756374344 -1.5720857737316274
0.45936480204834745 -1.4022140642237637
0.45936435668262265 -1.2303599323384493
0.4593617747831644 -1.0573116637019888
0.4593520700373099 -0.8835306008909098
0.4593259087094581 -0.709246538985189
0.4592736917624542 -0.5345768628560053
0.45920232320962817 -0.3596094372415665
0.45916198365346994 -0.18444908988754163
0.45934968008099347 -0.009344245280351474
0.4861374730236434 -0.009525769030834349
0.48626982925990586 -0.18448511078918806
0.48620392822050895 -0.3596025416140436
0.48607866088748986 -0.5345597625206241
0.4859397779564696 -0.7092302656874652
0.4857881037982325 -0.8835169170418707
0.4856000475497844 -1.0572978981462997
0.4853332558331825 -1.2303409291558254
0.4849219255592084 -1.402183924804903
0.4842577007899667 -1.5720357636459097
0.48323870884390796 -1.7387434045222623
0.48178822822373124 -1.9008488436985693
0.47986339939499206 -2.056636690462002
0.4774112376620019 -2.2041946406831094
0.4743709828317792 -2.341383683489428
0.47070706092712133 -2.465806947296901
0.4664608643871414 -2.574798557226692
0.461820833102076 -2.66548522885437
0.45715289049761404 -2.734929441393263
0.4530128796072822 -2.7803657507973885
0.45093744632505667 -2.7997935621936834
0.44886201304283035 -2.780365750797295
0.444722002152499 -2.734929441393077
0.44005405954803894 -2.6654852288541018
0.4354140282629776 -2.5747985572263596
0.43116783172300194 -2.4658069472965236
0.42750390981834796 -2.341383683489018
0.424463654988129 -2.204194640682678
0.422011493255143 -2.056636690461561
0.420086664426408 -1.9008488436981326
0.4186361838062353 -1.7387434045218437
0.4176171918601796 -1.572035763645519
0.41695296709093993 -1.4021839248045456
0.4165416368169668 -1.2303409291555052
0.4162748451003655 -1.0572978981460206
0.4160867888519179 -0.8835169170416366
0.41593511469368105 -0.7092302656872737
0.41579623176266095 -0.5345597625204769
0.4156709644296419 -0.35960254161393934
0.415605063390245 -0.18448511078912763
0.41573741962650734 -0.009525769030818877
0.5297275604077075 -0.009665599444859705
0.5298197599865971 -0.18451875679430038
0.5297308047912812 -0.35959200905578653
0.5295548950089473 -0.5345357784656005
0.529332717423499 -0.7092024375485378
0.5290585442890645 -0.8834859508925109
0.5286964961303781 -1.0572598909824358
0.5281691734220008 -1.2302836791395406
0.5273116438788543 -1.4020814690044636
0.5259168889545309 -1.5718461758363587
0.5238024453463452 -1.7384292081910495
0.5208441211985383 -1.9003838277873009
0.5169521946249969 -2.056002255976432
0.5120262565817557 -2.2033673174452097
0.5059426280135964 -2.3403393203218994
0.4985856770196179 -2.464532353166515
0.48992684881692306 -2.5733106129478864
0.4801112262636763 -2.6638475136870823
0.4695377057819997 -2.733261555581829
0.4591641864920547 -2.778965153623305
0.45093744632504623 -2.799216748660437
0.44271070615803726 -2.778965153623212
0.43233718686809375 -2.733261555581643
0.4217636663864214 -2.663847513686815
0.41194804383318145 -2.573310612947556
0.4032892156304947 -2.4645323531661396
0.3959322646365231 -2.34033932032149
0.38984863606837045 -2.203367317444779
0.38492269802513673 -2.0560022559759923
0.38103077145160225 -1.9003838277868654
0.3780724473038022 -1.738429208190632
0.3759580036956221 -1.5718461758359685
0.37456324877130254 -1.4020814690041061
0.3737057192281583 -1.2302836791392209
0.37317839651978213 -1.0572598909821567
0.3728163483610965 -0.8834859508922768
0.3725421752266623 -0.7092024375483464
0.37231999764121426 -0.5345357784654534
0.3721440878588804 -0.3595920090556823
0.37205513266356455 -0.18451875679423999
0.37214733224245405 -0.00966559944484404
0.5733097056951425 -0.00976999395539465
0.5733683045266454 -0.18454845318848967
0.573258026790162 -0.35957803293327545
0.5730347156616689 -0.5345053391518633
0.5727329290516096 -0.7091636934019192
0.5723410027123252 -0.8834388136136763
0.5718104275214205 -1.0571978495063197
0.5709942778820349 -1.230176168008672
0.5696316614933215 -1.4018701512009224
0.5674363841491884 -1.5714634592362187
0.5641662076166103 -1.7378235219333316
0.5596555346015191 -1.8995203844938537
0.5537645538433067 -2.0548511540901644
0.5463359710198893 -2.2018912042229433
0.5371736029229149 -2.3384952873377607
0.526076802341651 -2.46228651214669
0.5129308438484226 -2.5706633955710982
0.49784013259858895 -2.6608605156094685
0.48135213137941846 -2.730119839521888
0.4647921059422244 -2.7760661358800713
0.45093744632503596 -2.797410452707563
0.43708278670784784 -2.776066135879978
0.4205227612706567 -2.7301198395217035
0.4040347600514922 -2.660860515609203
0.3889440488016681 -2.57066339557077
0.37579809030845035 -2.462286512146316
0.3647012897271967 -2.338495287337353
0.355538921630232 -2.2018912042225147
0.3481103388068251 -2.054851154089727
0.34221935804862247 -1.8995203844934203
0.337708685033541 -1.7378235219329161
0.33443850850097084 -1.5714634592358299
0.3322432311568435 -1.4018701512005656
0.33088061476813374 -1.2301761680083527
0.33006446512875015 -1.0571978495060406
0.3295338899378464 -0.8834388136134421
0.3291419635985625 -0.7091636934017278
0.3288401769885034 -0.5345053391517162
0.3286168658600105 -0.3595780329331712
0.3285065881235272 -0.1845484531884293
0.32856518695503006 -0.00976999395537884
0.6168926469167354 -0.009844351660566492
0.616921674522607 -0.18457283008285086
0.6167905791999702 -0.35956065873393134
0.6165226913720727 -0.5344689022024487
0.6161448887082404 -0.7091149183540031
0.615642541590475 -0.8833768242372908
0.6149337593579814 -1.057106454013358
0.6137896024547175 -1.229998533002179
0.6118697278887506 -1.4015214027402048
0.6088207319325971 -1.5708594485084308
0.6043590903053134 -1.7369035348410202
0.5982715995782519 -1.8982398349341367
0.5903594782403693 -2.0531663387102763
0.5804019430426721 -2.1997489330272613
0.5681309712104933 -2.335832768830267
0.5532574724327977 -2.4590463982770694
0.5355705356965227 -2.5668267175615287
0.5151613408784315 -2.656502436959348
0.4927524907319678 -2.725492548548238
0.4701499882006433 -2.7717229913271777
0.4509374463250259 -2.7944338840893677
0.4317249044494095 -2.771722991327085
0.40912240191808963 -2.7254925485480537
0.38671355177163386 -2.656502436959084
0.3663043569535545 -2.566826717561204
0.3486174202172926 -2.4590463982766986
0.3337439214396103 -2.3358327688298615
0.32147294960744444 -2.1997489330268354
0.3115154144097605 -2.0531663387098416
0.3036032930718907 -1.898239834933706
0.2975158023448414 -1.736903534840607
0.29305416071756796 -1.5708594485080438
0.29000516476142213 -1.4015214027398493
0.2880852901954604 -1.2299985330018601
0.2869411332921995 -1.0571064540130795
0.2862323510597071 -0.8833768242370569
0.2857300039419423 -0.7091149183538116
0.2853522012781104 -0.5344689022023016
0.2850843134502131 -0.35956065873382714
0.28495321812757635 -0.18457283008279046
0.28498224573344805 -0.009844351660550624
0.6604824631167048 -0.009893708170458336
0.6604854579645701 -0.18459094893241487
0.6603336885655056 -0.35953980765756743
0.6600236656824859 -0.5344268934468906
0.6595745811974008 -0.7090573652375057
0.6589649627061163 -0.8832998804274426
0.658057215930917 -1.056975612303721
0.6565474667742374 -1.229732922207422
0.6540235951685943 -1.4010144084420653
0.6500885188703946 -1.570018519244431
0.6444216665223476 -1.7356589795348096
0.636743765480411 -1.8965326522442187
0.6267928680457698 -2.0509377928776247
0.6142845174934256 -2.1969297560408036
0.5988837831074554 -2.3323408421431546
0.5802136443426479 -2.4547999079535887
0.557982124026849 -2.5617900667882343
0.5322697250643913 -2.650766936310232
0.5039888172251444 -2.719390906952705
0.47544816768341225 -2.7659709618715316
0.45093744632501626 -2.790304789764045
0.4264267249666216 -2.7659709618714396
0.39788607542489546 -2.7193909069525226
0.36960516758565876 -2.650766936309971
0.34389276862321483 -2.561790066787913
0.32166124830743154 -2.4547999079532214
0.3029911095426404 -2.332340842142753
0.287590375156686 -2.196929756040381
0.2750820246043578 -2.0509377928771935
0.2651311271697325 -1.8965326522437913
0.2574532261278107 -1.7356589795343995
0.25178637377977586 -1.5700185192440466
0.2478512974815859 -1.4010144084417115
0.24532742587594966 -1.2297329222071043
0.24381767671927387 -1.056975612303443
0.24290992994407656 -0.8832998804272085
0.24230031145279274 -0.7090573652373143
0.24185122696770792 -0.5344268934467435
0.24154120408468854 -0.3595398076574633
0.24138943468562407 -0.18459094893235448
0.24139242953348944 -0.009893708170442403
0.7040835018896272 -0.009922955635778143
0.7040644163367066 -0.1846023523726556
0.7038925684908551 -0.3595153485706964
0.7035425737384093 -0.5343798189035912
0.7030259957397463 -0.708991963375627
0.7023043336059707 -0.8832043578859857
0.7011752860797031 -1.0567951547738177
0.6992610135883068 -1.2293623506433171
0.6961001666427639 -1.40033595987992
0.6912716733506644 -1.5689339045467146
0.6843913219161606 -1.7340843066527158
0.6751160682074052 -1.8943932837044148
0.6631168369624487 -2.0481588149874375
0.6480418099257925 -2.1934257980351215
0.6294912809363374 -2.328012505784588
0.6070328765688555 -2.449546251957699
0.5803028387001076 -2.555559118915256
0.5493615229216863 -2.6436644448992817
0.515291553155002 -2.7118296966463173
0.4808367431227777 -2.7588139485587266
0.45093744632500654 -2.7850017710302146
0.4210381495272373 -2.758813948558636
0.38658333949502066 -2.711829696646137
0.3525133697283487 -2.6436644448990236
0.32157205394994315 -2.5555591189149385
0.2948420160812134 -2.4495462519573357
0.27238361171375064 -2.328012505784191
0.2538330827243142 -2.1934257980347027
0.23875805568767708 -2.048158814987011
0.2267588244427392 -1.8943932837039914
0.2174835707340009 -1.7340843066523095
0.21060321929951167 -1.568933904546333
0.20577472600742355 -1.4003359598795684
0.20261387906188894 -1.2293623506430007
0.20069960657049765 -1.0567951547735404
0.1995705590442328 -0.883204357885752
0.19884889691045798 -0.7089919633754357
0.19833231891179523 -0.5343798189034442
0.19798232415934974 -0.3595153485705923
0.19781047631349846 -0.18460235237259526
0.19779139076057792 -0.009922955635762168
0.7476985833922305 -0.009936999076970035
0.74766245025224 -0.18460705036983324
0.74747243689384 -0.35948725898839473
0.747084542292164 -0.5343281343415873
0.7465022583342217 -0.7089191273384984
0.7456585046364558 -0.8830857561152535
0.7442792543063783 -1.0565522174128532
0.7419246853343643 -1.228873449649316
0.738122391620763 -1.399481231871709
0.7323967575828092 -1.5676021236619926
0.7243030789362355 -1.7321766309197781
0.7134314714805248 -1.891818844043656
0.6993805669875922 -2.044825145499504
0.6817285673874723 -2.189231024916717
0.6600207066098489 -2.322844459804764
0.6337884970666824 -2.4432927136669265
0.6026524260733344 -2.548156193360242
0.5666379037680744 -2.6352225280210266
0.5268849023029228 -2.7028187930517813
0.48645543962284804 -2.750225324479962
0.45093744632499694 -2.7784698064730997
0.4154194530271482 -2.7502253244798722
0.3749899903470824 -2.7028187930516037
0.3352369888819453 -2.635222528020772
0.2992224665767035 -2.548156193359929
0.2680863955833762 -2.443292713666568
0.2418541860402316 -2.322844459804372
0.2201463252626298 -2.189231024916303
0.20249432566253187 -2.044825145499082
0.18844342116962068 -1.891818844043237
0.17757181371392952 -1.732176630919376
0.16947813506737225 -1.5676021236616144
0.16375250102943162 -1.3994812318713599
0.15995020731584011 -1.2288734496490015
0.15759563834383228 -1.0565522174125768
0.1562163880137581 -0.8830857561150199
0.15537263431599344 -0.7089191273383072
0.15479035035805142 -0.5343281343414402
0.15440245575637573 -0.3594872589882907
0.15421244239797596 -0.18460705036977287
0.15417630925798553 -0.009936999076954056
0.7913287897289211 -0.009940832165411877
0.7912825309444541 -0.18460558866519344
0.7910788301577183 -0.35945571514941904
0.79065488222532 -0.5342723595298449
0.7900052689414999 -0.7088375539991296
0.7890229535336518 -0.8829372888783029
0.7873592394538643 -1.0562343487483186
0.7845551844379723 -1.2282616382062859
0.7801078639677655 -1.3984476790264588
0.7734893072213408 -1.5660220131122238
0.7641904643676667 -1.7299357163638032
0.7517297738989278 -1.8888084836129173
0.7356326758969013 -2.040934865187106
0.7154048107327065 -2.1843422140082565
0.6905336091511831 -2.316834277132554
0.6605490442035904 -2.4360503955566846
0.6251211245431587 -2.539620770228928
0.5842772087026096 -2.6254889715732523
0.5390059981676872 -2.6923660685690933
0.4924859471093438 -2.740147649051496
0.4509374463249869 -2.7706121360651608
0.40938894554063343 -2.7401476490514076
0.36286889448230064 -2.692366068568919
0.317597683947395 -2.625488971573002
0.27675376810686647 -2.5396207702286198
0.24132584844645824 -2.436050395556332
0.21134128349889011 -2.3168342771321666
0.1864700819173912 -2.184342214007848
0.16624221675322134 -2.0409348651866903
0.15014511875121914 -1.8888084836125039
0.13768442828250196 -1.7299357163634055
0.128385585428846 -1.5660220131118494
0.12176702868243613 -1.3984476790261127
0.11731970821224053 -1.2282616382059732
0.11451565319635584 -1.0562343487480432
0.11285193911657242 -0.8829372888780697
0.11186962370872602 -0.7088375539989384
0.11122001042490637 -0.5342723595296979
0.11079606249250827 -0.359455715149315
0.11059236170577282 -0.18460558866513307
0.11054610292130575 -0.009940832165395886
0.8349728086406383 -0.009939531278798019
0.8349266194057157 -0.1845992356235256
0.8347181279348019 -0.35942133412412824
0.834259299245887 -0.5342125210549278
0.833534856186902 -0.7087450226537804
0.8323885194030128 -0.8827480834466489
0.8304201510253466 -1.055834315152458
0.8271621952545136 -1.2275245532496306
0.8220740684061547 -1.3972346885297817
0.8145743666615477 -1.5641949222412552
0.8040859851359689 -1.727363177584009
0.7900521209124144 -1.8853636031699368
0.7719197784462024 -2.0364881064382185
0.7491227448500355 -2.1787586703132504
0.7211064736596652 -2.3099835760411507
0.6873973796555184 -2.4278294163611474
0.6477519166722576 -2.529992012362323
0.6023379666493706 -2.614546894995704
0.5519913858477956 -2.680504948499502
0.49923198306636996 -2.728481253919504
0.4509374463249766 -2.7612636761712324
0.40264290958358784 -2.728481253919418
0.34988350680217417 -2.680504948499331
0.2995369260006183 -2.6145468949954593
0.2541229759777549 -2.5299920123620208
0.21447751299452036 -2.4278294163608014
0.18076841899040064 -2.3099835760407696
0.15275214780005802 -2.178758670312848
0.12995511420391911 -2.0364881064378086
0.11182277173773392 -1.8853636031695293
0.09778890751420363 -1.7273631775836165
0.0873005259886448 -1.5641949222408849
0.07980082424405399 -1.3972346885294387
0.07471269739570757 -1.2275245532493206
0.071454741624883 -1.0558343151521838
0.06948637324722162 -0.8827480834464163
0.06834003646333463 -0.7087450226535894
0.06761559340435022 -0.5342125210547807
0.06715676471543557 -0.3594213341240243
0.06694827324452217 -0.18459923562346522
0.06690208400959954 -0.009939531278782046
0.878625589604262 -0.00993807914121226
0.8785956174524364 -0.18459050470086183
0.8783986033904836 -0.35938531706923427
0.8779038286955698 -0.5341478072579322
0.8770870924956947 -0.7086358432238207
0.8757513003145497 -0.8825106136254064
0.873468881623356 -1.0553486395240688
0.8697563500283969 -1.2266612080964472
0.8640382718459583 -1.3958440655962887
0.8556764069884708 -1.5621243138392955
0.8440230759203384 -1.724463088437594
0.8284374995067826 -1.881486823808908
0.8082854756244908 -2.0314866798959623
0.7829447761674763 -2.1724844554283154
0.751815941020873 -2.302298615736995
0.7144242461589742 -2.418638540647103
0.6706049975591132 -2.5192916658580216
0.6207310255902393 -2.6024756306461154
0.5658788283914574 -2.6674048378775033
0.5077906388766563 -2.715122831891204
0.45093744632496624 -2.7499999999999982
0.39408425377328105 -2.71512283189112
0.33599606425849365 -2.667404837877336
0.2811438670597336 -2.602475630645876
0.23126989509088683 -2.519291665857726
0.18745064649105495 -2.4186385406467634
0.1500589516291856 -2.3022986157366216
0.11893011648261365 -2.1724844554279206
0.09358941702562987 -2.0314866798955595
0.07343739314336728 -1.881486823808507
0.05785181672983813 -1.7244630884372072
0.04619848566172746 -1.5621243138389298
0.037836620804257724 -1.3958440655959494
0.0321185426218327 -1.2266612080961394
0.02840601102688292 -1.0553486395237963
0.026123592335695126 -0.8825106136251746
0.024787800154552595 -0.7086358432236299
0.02397106395467818 -0.5341478072577851
0.02347628925976502 -0.3593853170691304
0.02327927519781231 -0.18459050470080143
0.023249303045986727 -0.009938079141196298
SCALARS Stress float 6
LOOKUP_TABLE default
-1110.3680977702852 -1901.2231266717527 -1428.8702960359003 -17.050786568155537 0.0 0.0
1260.7194819988351 732.9583662470088 915.2038147715007 -23.833950128916786 0.0 0.0
556.0013235368992 119.33975650475536 209.4597860860572 -37.78333476789748 0.0 0.0
461.8134812069337 19.488100305657813 146.33357112352144 -2.8821483729486417 0.0 0.0
573.1688236054227 58.20080492041497 212.9367374520551 0.9011299012848872 0.0 0.0
669.3511877160042 95.92121775172933 311.238904046402 1.3443019248001264 0.0 0.0
776.9250090795994 130.92872159648357 414.28815786021136 0.6744923449974576 0.0 0.0
883.3227592224292 181.37933860251596 512.0981470223647 -0.3918961382573525 0.0 0.0
995.5866246053798 243.79347685223553 606.5698230173496 -1.6996707145501626 0.0 0.0
1121.3583704373627 324.07080360122757 711.5446438051003 -3.115734929717081 0.0 0.0
1265.391603643875 426.21535520569677 834.9633974700087 -4.5227384107101605 0.0 0.0
1427.7255997561324 550.645946345085 978.118043294435 -5.751264218026423 0.0 0.0
1604.1458191455813 691.3044076770865 1136.1912897151747 -6.531576363544325 0.0 0.0
1788.9001870968252 842.2998384407009 1303.566562551613 -7.17065269751561 0.0 0.0
1973.6476844467359 995.1998539461132 1471.8755209996466 -7.616490714635642 0.0 0.0
2149.2501711288523 1141.0899284407947 1632.1258817079345 -7.83798016550689 0.0 0.0
2306.872733983553 1271.826421885492 1775.889815660954 -7.695823416330231 0.0 0.0
2437.3709470048843 1379.1110437472446 1894.503177262549 -7.052073920390857 0.0 0.0
2536.454325702795 1459.5488491985116 1984.069231001762 -5.9232392230865765 0.0 0.0
2592.8322319610375 1502.939747552828 2033.8801588321294 -6.162904726631678 0.0 0.0
2586.5236084950375 1494.3636600440254 2026.755092541128 -3.5914382578994264e-11 0.0 0.0
2592.832231960426 1502.9397475522683 2033.880158831732 6.162904726584577 0.0 0.0
2536.45432570199 1459.5488491977403 1984.0692310010927 5.923239223225437 0.0 0.0
2437.37094700557 1379.1110437480165 1894.5031772628722 7.052073920439772 0.0 0.0
2306.872733983321 1271.826421885382 1775.8898156604773 7.6958234162690395 0.0 0.0
2149.2501711267078 1141.0899284387622 1632.1258817061794 7.837980165520497 0.0 0.0
1973.6476844454937 995.1998539449905 1471.8755209985882 7.616490714638742 0.0 0.0
1788.9001870958825 842.2998384399269 1303.5665625507354 7.17065269747855 0.0 0.0
1604.1458191455406 691.3044076772474 1136.191289714886 6.531576363598893 0.0 0.0
1427.7255997557797 550.6459463449557 978.118043293997 5.751264218062952 0.0 0.0
1265.3916036428961 426.2153552049483 834.963397469137 4.522738410641184 0.0 0.0
1121.3583704365444 324.07080360066686 711.5446438044115 3.115734929758018 0.0 0.0
995.5866246049035 243.79347685199252 606.5698230168969 1.6996707144971293 0.0 0.0
883.322759221489 181.37933860182875 512.0981470216311 0.3918961382083559 0.0 0.0
776.9250090796231 130.9287215968209 414.2881578600194 -0.674492345027657 0.0 0.0
669.3511877158214 95.92121775190445 311.23890404610154 -1.344301924899522 0.0 0.0
573.168823604768 58.2008049199371 212.9367374515922 -0.9011299012598872 0.0 0.0
461.8134812064732 19.48810030521615 146.3335711232599 2.882148372913532 0.0 0.0
556.0013235365988 119.33975650462475 209.45978608588115 37.78333476791914 0.0 0.0
1260.719481998381 732.9583662465495 915.2038147709245 23.833950128891715 0.0 0.0
-1110.368097767714 -1901.2231266691429 -1428.8702960332967 17.050786567741817 0.0 0.0
-1414.7794193202017 -2175.566720353472 -1683.5518882880685 -16.909904772112814 0.0 0.0
855.97954887406 408.0006366844148 571.03711310748 -33.79108176761129 0.0 0.0
386.0520544123612 47.86856460738639 128.60175639676245 -31.325393711674412 0.0 0.0
409.17178386402986 2.403628692669475 123.88374767591714 -16.30276906812192 0.0 0.0
510.7986915995363 25.272016098578444 174.76993943350172 -15.363685997790254 0.0 0.0
602.5351205446223 34.68749070539396 249.67838824652114 -19.63281426970187 0.0 0.0
679.1994624960369 47.76800830773042 330.33843951907465 -21.855792622179465 0.0 0.0
753.8862498975164 64.7128260005986 397.4847479372829 -22.582075660023914 0.0 0.0
823.8186284152778 84.07174148558785 450.05716332826194 -22.913036521563086 0.0 0.0
892.6285615113303 107.54714742047618 498.4538122853855 -23.279973134072172 0.0 0.0
962.3474009983056 136.01434573873317 548.1482909453707 -23.398794728552094 0.0 0.0
1033.5215321719477 168.8368783600067 600.3025277268817 -23.23312302718556 0.0 0.0
1104.7872806865646 205.52021872889821 654.2761285467044 -22.736438427533972 0.0 0.0
1173.6826268533769 241.02621193264196 706.4177859474528 -22.127442932974617 0.0 0.0
1234.1043409673462 270.0143365914426 751.060034638931 -21.469817363399997 0.0 0.0
1281.1233448107291 287.71249252332643 783.3633992349464 -20.560958428184254 0.0 0.0
1311.4365179139875 291.36499124712896 800.3082353648185 -19.15141642780958 0.0 0.0
1325.1763576886117 281.91762818158134 802.4438152149459 -17.092855139337885 0.0 0.0
1321.4859273455274 259.55278615524594 789.5204606895268 -14.570237703609923 0.0 0.0
1278.7859060612973 204.04389113660253 741.0555298021599 -13.071569048763603 0.0 0.0
1202.8384218410392 126.24565665705391 665.3037404082057 4.4009240696141205e-12 0.0 0.0
1278.7859060612357 204.0438911365717 741.0555298021081 13.071569048780514 0.0 0.0
1321.4859273460208 259.55278615581375 789.5204606898116 14.570237703717329 0.0 0.0
1325.1763576881642 281.9176281811967 802.4438152146188 17.09285513945619 0.0 0.0
1311.4365179149388 291.3649912482 800.3082353654621 19.151416427817452 0.0 0.0
1281.1233448093983 287.71249252209026 783.3633992339574 20.560958428195065 0.0 0.0
1234.1043409665776 270.0143365908209 751.0600346383608 21.469817363414606 0.0 0.0
1173.682626852905 241.0262119323247 706.4177859471101 22.127442933011373 0.0 0.0
1104.7872806869907 205.52021872952037 654.2761285469853 22.73643842757687 0.0 0.0
1033.5215321718947 168.83687836016054 600.3025277268515 23.23312302718979 0.0 0.0
962.3474009980796 136.01434573873158 548.148290945151 23.39879472842558 0.0 0.0
892.628561511027 107.54714742042242 498.4538122851719 23.27997313411153 0.0 0.0
823.8186284147628 84.07174148529991 450.05716332785835 22.91303652151479 0.0 0.0
753.8862498971364 64.71282600047999 397.48474793697613 22.58207566002006 0.0 0.0
679.1994624961588 47.76800830818499 330.33843951899433 21.85579262217584 0.0 0.0
602.5351205444005 34.687490705463006 249.6783882462468 19.632814269600793 0.0 0.0
510.79869159915796 25.27201609847475 174.7699394332759 15.363685997792253 0.0 0.0
409.1717838638368 2.4036286926407096 123.88374767585817 16.302769068051184 0.0 0.0
386.0520544122866 47.868564607551356 128.60175639679613 31.3253937116106 0.0 0.0
855.9795488734588 408.0006366839022 571.0371131068256 33.79108176760973 0.0 0.0
-1414.779419318223 -2175.5667203513826 -1683.551888285971 16.90990477173193 0.0 0.0
-1168.1683892016256 -1894.6471484152632 -1409.7912989954161 -55.46949581569895 0.0 0.0
660.0633773203006 316.75097460784946 427.73884884010926 -100.57812191555065 0.0 0.0
272.3803727107955 55.234385486581694 98.28431276007139 -33.07084984829325 0.0 0.0
350.0231117985765 -0.24842209836625606 104.78230085122676 -36.970531101159025 0.0 0.0
465.4685425455126 16.75959110265797 150.38447618295305 -37.60878397159258 0.0 0.0
570.2697733513937 30.53921298490196 221.55255376007906 -38.42824487928835 0.0 0.0
650.5661730271107 44.71878485570598 305.5903065394591 -41.130444089393194 0.0 0.0
726.8182238738744 58.11202849290028 375.8684003797539 -42.435807302406005 0.0 0.0
795.1463327250641 74.8674294574949 429.38584195147746 -43.28128539693533 0.0 0.0
860.6841895852572 94.58590702932142 475.313307502427 -43.94525837771495 0.0 0.0
926.5399748147402 119.45111238919432 521.549832716451 -43.994297158560435 0.0 0.0
993.6907364576107 149.539858000118 570.3862112724321 -43.308387494792555 0.0 0.0
1061.8267768672038 182.40355779359442 620.9127234590284 -42.277185356587964 0.0 0.0
1126.5437466157687 215.0543768081731 669.5640046361764 -41.08875410012195 0.0 0.0
1184.0967352995337 241.61223965730608 711.5669552874913 -39.780241119458395 0.0 0.0
1229.4522402814289 258.0002141099096 742.3817627957343 -38.056138694017896 0.0 0.0
1260.3474326014734 262.3994361249063 759.9900042128173 -35.50776197153792 0.0 0.0
1274.7316620766583 253.556856078118 762.7910246109705 -32.00813448346694 0.0 0.0
1265.425516398444 225.45338379848891 744.3400235391794 -27.864548362478747 0.0 0.0
1239.3770693798638 186.65797944400032 712.2824366717501 -23.402838962315315 0.0 0.0
1145.7586919127634 91.58066642934541 619.3803751071238 4.055777935718652e-11 0.0 0.0
1239.3770693792978 186.65797944348463 712.2824366712913 23.402838962525216 0.0 0.0
1265.4255163987339 225.4533837987952 744.3400235393617 27.864548362535935 0.0 0.0
1274.7316620753963 253.556856076911 762.7910246100532 32.00813448341506 0.0 0.0
1260.3474326017363 262.3994361252618 759.990004212977 35.50776197142331 0.0 0.0
1229.4522402807086 258.0002141092958 742.3817627952826 38.05613869403469 0.0 0.0
1184.0967352993614 241.61223965726094 711.5669552872182 39.78024111939483 0.0 0.0
1126.5437466151511 215.05437680772062 669.5640046357385 41.08875410010998 0.0 0.0
1061.8267768671508 182.403557793713 620.9127234590218 42.27718535657219 0.0 0.0
993.690736456931 149.53985799965074 570.3862112720135 43.308387494786714 0.0 0.0
926.5399748147381 119.45111238938472 521.5498327164103 43.99429715845388 0.0 0.0
860.6841895850238 94.5859070293496 475.31330750228165 43.945258377775566 0.0 0.0
795.1463327248962 74.8674294576092 429.385841951291 43.28128539697814 0.0 0.0
726.8182238733366 58.11202849259412 375.86840037934286 42.43580730239414 0.0 0.0
650.5661730273758 44.718784856366895 305.5903065394466 41.13044408932498 0.0 0.0
570.2697733510831 30.539212984913995 221.55255375977674 38.42824487924803 0.0 0.0
465.46854254520474 16.759591102698618 150.38447618283234 37.60878397157012 0.0 0.0
350.0231117985436 -0.24842209819325212 104.78230085127177 36.9705311010889 0.0 0.0
272.38037271083726 55.23438548661815 98.28431276009498 33.070849848247036 0.0 0.0
660.0633773197563 316.75097460752374 427.738848839549 100.57812191546601 0.0 0.0
-1168.1683891996547 -1894.647148413203 -1409.791298993326 55.46949581542249 0.0 0.0
-947.4265974595652 -1643.2624962661214 -1165.710735721697 -68.94814595612229 0.0 0.0
499.1131524861066 221.75810499541373 308.16365318020337 -144.4214830546881 0.0 0.0
199.79416092388877 50.76409454898709 75.16747664186275 -55.321364310439634 0.0 0.0
291.8089614996798 4.810254422046293 88.98203908074562 -57.419302836886715 0.0 0.0
410.5358067760781 8.270478052016143 126.51246762812619 -61.73715253197406 0.0 0.0
524.3445452328405 25.18495823021432 190.52558294117804 -58.937958254215076 0.0 0.0
619.7723728588994 39.27626875141936 275.5131230687755 -61.82746727675597 0.0 0.0
694.7284589535174 51.72420264763544 349.886263685508 -62.61295417445784 0.0 0.0
762.4557209282125 65.79542324055244 405.7114233472101 -63.450658398493474 0.0 0.0
825.1055275613476 82.15770872624245 450.21199206761236 -64.03810088171352 0.0 0.0
886.8218700071459 103.23984549682636 492.9828627782949 -63.76878703878602 0.0 0.0
950.2003026696422 129.38151393417553 538.085868818946 -62.64535385726266 0.0 0.0
1014.2561774579432 159.6795973089737 585.3448257190489 -61.04468021160864 0.0 0.0
1075.5608677974706 188.14355173302047 630.2175794907389 -59.453392263480296 0.0 0.0
1129.7485245737741 212.12855295574002 669.2679306438604 -57.5906796877023 0.0 0.0
1174.3106342399528 228.37561340777944 699.6292354313503 -55.093737013081835 0.0 0.0
1206.0176438656354 233.42129610548054 717.9734361170343 -51.67468174948312 0.0 0.0
1220.5255686055684 224.43909714993777 720.811186289553 -47.168943953725545 0.0 0.0
1214.8513452341786 199.5981002219857 705.7878969600794 -41.33910640794229 0.0 0.0
1197.7053216700551 169.02244470108698 682.1532598283915 -32.75974660881296 0.0 0.0
1065.2453161708024 35.19609190802334 551.2656767803569 1.0111378401234106e-10 0.0 0.0
1197.705321669726 169.02244470081965 682.1532598281067 32.759746608988294 0.0 0.0
1214.8513452335856 199.59810022143415 705.7878969597692 41.339106408032855 0.0 0.0
1220.525568605479 224.4390971499246 720.8111862895247 47.16894395378004 0.0 0.0
1206.0176438654937 233.42129610543805 717.9734361168931 51.67468174951094 0.0 0.0
1174.3106342394624 228.37561340742204 699.629235431067 55.093737013169864 0.0 0.0
1129.7485245731953 212.1285529552324 669.2679306434077 57.59067968764085 0.0 0.0
1075.5608677969506 188.1435517326613 630.217579490368 59.453392263453324 0.0 0.0
1014.2561774578753 159.67959730910403 585.3448257190128 61.04468021160914 0.0 0.0
950.2003026688997 129.38151393364876 538.0858688184659 62.64535385736982 0.0 0.0
886.8218700070229 103.23984549691012 492.982862778223 63.76878703873819 0.0 0.0
825.1055275607096 82.1577087258741 450.2119920671831 64.03810088179388 0.0 0.0
762.4557209282686 65.79542324090099 405.71142334719747 63.45065839859335 0.0 0.0
694.7284589525036 51.72420264681073 349.8862636847718 62.61295417436777 0.0 0.0
619.7723728592697 39.276268752208 275.5131230688346 61.82746727670413 0.0 0.0
524.344545232597 25.184958230372185 190.52558294098318 58.937958254170255 0.0 0.0
410.53580677559637 8.270478051851121 126.51246762793022 61.737152531886395 0.0 0.0
291.808961499585 4.810254422006273 88.98203908070306 57.41930283689261 0.0 0.0
199.79416092385435 50.76409454890314 75.16747664182724 55.321364310419995 0.0 0.0
499.11315248552535 221.75810499511073 308.1636531796832 144.42148305456502 0.0 0.0
-947.4265974578888 -1643.262496264364 -1165.7107357198543 68.94814595586197 0.0 0.0
-756.6704942339595 -1424.2726958595467 -951.7173019365403 -68.79313639369556 0.0 0.0
380.5619642042861 139.70167831497054 216.21956514963762 -174.60033483491125 0.0 0.0
147.31745850836248 41.87452715668311 56.75759569951367 -84.5766004192013 0.0 0.0
239.09399862555404 11.179889500289491 75.0828115787787 -79.42927503921058 0.0 0.0
347.62221344708814 5.195526153034026 105.52047830837108 -85.55001122058522 0.0 0.0
471.2946481261021 13.416754245207532 157.13728721677285 -84.87530400835715 0.0 0.0
576.4566795415095 32.28596720311884 238.79454143328715 -82.69489113381442 0.0 0.0
656.7808408688666 46.478910354698414 319.27023023901154 -83.10932160723783 0.0 0.0
724.7859066427771 57.21124327950934 378.092628656132 -83.424803007613 0.0 0.0
784.8863093349526 70.06582496085717 422.2075669606863 -83.5242428251684 0.0 0.0
843.1099554488675 87.13431437088046 462.11134655940145 -82.78265705217683 0.0 0.0
902.1819878524192 109.2672674710468 503.3417548597455 -81.15082814626494 0.0 0.0
962.3088223767016 135.26703812026085 546.5673510363786 -79.17862858313117 0.0 0.0
1019.7236833196665 161.6914694011871 588.5269747443148 -77.15412467698445 0.0 0.0
1071.1690570301446 182.78694455118384 624.8021845317345 -74.82710095743695 0.0 0.0
1114.0377810647744 196.99149514357725 653.3046644736855 -71.76303589407703 0.0 0.0
1146.700485760181 203.4283313483338 672.8341709275273 -67.68569955959245 0.0 0.0
1164.7843233454314 197.7085211313182 679.0778249521378 -62.441503919078436 0.0 0.0
1164.3588324192863 177.30048125119527 668.8652526696567 -54.87438590914587 0.0 0.0
1151.1545946353704 149.1844114689833 648.3896538948563 -42.44230196259022 0.0 0.0
970.3304029814998 -32.937080714852854 470.31372745658786 3.278444182797102e-11 0.0 0.0
1151.1545946364256 149.18441147011578 648.389653895619 42.44230196272968 0.0 0.0
1164.3588324181906 177.3004812501579 668.8652526689368 54.87438590929435 0.0 0.0
1164.7843233454591 197.7085211314114 679.0778249522077 62.44150391917192 0.0 0.0
1146.7004857595748 203.42833134781472 672.8341709271103 67.68569955962603 0.0 0.0
1114.0377810634825 196.99149514234762 653.3046644727697 71.76303589406457 0.0 0.0
1071.169057029464 182.7869445506501 624.8021845313122 74.82710095745334 0.0 0.0
1019.7236833192329 161.6914694008716 588.5269747439934 77.15412467694499 0.0 0.0
962.3088223766267 135.26703812040478 546.5673510362858 79.17862858317967 0.0 0.0
902.1819878521314 109.26726747101921 503.3417548595391 81.15082814643497 0.0 0.0
843.1099554483562 87.13431437054074 462.11134655901225 82.7826570521201 0.0 0.0
784.886309334084 70.06582496017131 422.20756696010795 83.52424282505967 0.0 0.0
724.7859066427812 57.21124327979335 378.0926286560455 83.42480300762992 0.0 0.0
656.7808408680135 46.47891035405405 319.27023023833806 83.10932160708427 0.0 0.0
576.4566795413003 32.28596720328191 238.79454143301834 82.69489113378022 0.0 0.0
471.29464812571285 13.416754245137973 157.13728721653246 84.87530400829439 0.0 0.0
347.6222134466557 5.195526152793752 105.52047830818923 85.55001122048367 0.0 0.0
239.09399862545416 11.17988950023667 75.08281157873247 79.42927503918162 0.0 0.0
147.3174585084427 41.874527156765836 56.75759569956255 84.57660041911407 0.0 0.0
380.56196420371856 139.70167831468552 216.2195651491833 174.60033483482107 0.0 0.0
-756.6704942326157 -1424.2726958579913 -951.7173019349359 68.79313639359205 0.0 0.0
-589.586389106654 -1230.2920292887632 -762.4075862148909 -67.41561122014946 0.0 0.0
287.3328722284165 76.46679036318942 146.44274799625114 -191.28136199774667 0.0 0.0
106.80546269997068 30.107221676630395 41.07380531298032 -112.27175253878997 0.0 0.0
190.36023323165324 16.530193279133954 62.06884047498204 -101.83387096283256 0.0 0.0
284.2941983281979 4.576208419840316 86.42054066976378 -108.17380363812377 0.0 0.0
402.697319778735 6.008594905357614 126.23335418282092 -110.29307249135086 0.0 0.0
515.1029082199868 24.790291390530815 197.5086591439863 -105.3159741010727 0.0 0.0
611.5704147122277 37.89144679228169 279.85505997981596 -104.91423131545909 0.0 0.0
678.827389684623 49.45607605139195 344.5513140165405 -102.95585937285317 0.0 0.0
739.2127797922899 58.10921003952133 390.10711987117236 -102.46812016018269 0.0 0.0
794.0532768378189 71.1582704150812 427.96087848381984 -101.03696290047449 0.0 0.0
848.9304397137598 89.18721289718583 465.5990166529843 -98.82523433707965 0.0 0.0
904.7202558215731 111.49391084266931 504.9927228208134 -96.43754135874468 0.0 0.0
958.2484698499809 133.68066640298508 542.9649363250746 -94.1939253875567 0.0 0.0
1006.6733491086716 152.70300971606193 576.7543694132278 -91.546617645355 0.0 0.0
1047.8833802358133 166.00166351251033 604.0401609788038 -87.89730947805515 0.0 0.0
1081.3376736454468 172.16536389893304 623.8122248306211 -83.40833524114323 0.0 0.0
1104.6739827989009 171.44576067947122 635.114971105143 -77.69947925902271 0.0 0.0
1111.259558530691 157.25726135304905 631.504448115708 -68.78413279196471 0.0 0.0
1100.3722083722057 129.15507672772821 612.2212595806999 -53.08421188404047 0.0 0.0
861.3594546367592 -110.87950379870846 377.6971535458627 8.44284642198545e-11 0.0 0.0
1100.3722083723965 129.1550767279434 612.2212595808566 53.08421188419223 0.0 0.0
1111.2595585300708 157.2572613525542 631.5044481153216 68.78413279212262 0.0 0.0
1104.6739827987026 171.44576067930785 635.1149711050728 77.69947925914872 0.0 0.0
1081.3376736452472 172.1653638988675 623.8122248303862 83.40833524116972 0.0 0.0
1047.8833802349018 166.00166351170162 604.040160978201 87.89730947801857 0.0 0.0
1006.6733491077804 152.70300971529315 576.7543694126767 91.54661764545335 0.0 0.0
958.2484698493898 133.68066640248702 542.9649363246328 94.19392538749182 0.0 0.0
904.7202558215133 111.49391084281174 504.9927228207076 96.43754135878629 0.0 0.0
848.9304397134929 89.18721289708178 465.5990166527867 98.82523433705494 0.0 0.0
794.053276837284 71.1582704146951 427.9608784833706 101.0369629003898 0.0 0.0
739.212779791935 58.10921003942726 390.10711987093015 102.46812016013355 0.0 0.0
678.8273896846769 49.45607605178148 344.5513140164912 102.95585937294086 0.0 0.0
611.5704147117656 37.89144679204901 279.85505997936565 104.91423131532358 0.0 0.0
515.1029082195846 24.79029139046747 197.5086591436361 105.31597410098667 0.0 0.0
402.6973197782782 6.008594905332076 126.23335418264979 110.29307249130896 0.0 0.0
284.294198327956 4.576208419714591 86.42054066965541 108.17380363798671 0.0 0.0
190.36023323155413 16.530193279003893 62.068840474912676 101.83387096272403 0.0 0.0
106.80546270002117 30.107221676772394 41.07380531303806 112.27175253863952 0.0 0.0
287.3328722279304 76.46679036299366 146.44274799590121 191.2813619976182 0.0 0.0
-589.5863891054165 -1230.2920292872573 -762.4075862134357 67.41561122019216 0.0 0.0
-446.345774708666 -1052.1922573343093 -595.854429598346 -66.94726970098114 0.0 0.0
213.95896952268288 26.141737010723418 93.5926475873723 -200.87218369172155 0.0 0.0
73.61838348575941 18.17810968007032 27.538850527823175 -135.19746472329928 0.0 0.0
144.3208258479919 19.911716781171013 49.27018211969656 -122.87000412031554 0.0 0.0
223.2178137343329 6.0823206206659925 68.74252031516656 -128.20616696955364 0.0 0.0
325.63391660987713 -0.40580677151028943 97.24717068469545 -136.4640062888194 0.0 0.0
442.09250366942604 12.324791418888395 152.84169648780718 -132.19390580708432 0.0 0.0
544.3990203535875 30.563819366212655 231.32024166654747 -126.27353122849517 0.0 0.0
626.4083567511268 38.01234696372098 301.1641332685274 -124.66214134010838 0.0 0.0
684.1450237470236 46.57521670817318 351.0879821445521 -120.63041255735781 0.0 0.0
738.1641618222076 55.341761532903526 388.9424952408581 -118.4776461761092 0.0 0.0
789.0515482952876 69.03033087338582 423.61808363522306 -115.69325274069504 0.0 0.0
840.2112186946526 87.14981869747552 459.0639344153714 -112.90501483238562 0.0 0.0
889.4816708383878 106.01440512607974 493.42288635865367 -110.4229712443914 0.0 0.0
934.3892893904064 122.17623089102193 524.1529921486344 -107.60499914724559 0.0 0.0
973.5596416458641 132.66637068775506 549.0833616547212 -103.85806470538772 0.0 0.0
1007.371026290155 140.69111225034823 569.990171415688 -98.63428255958307 0.0 0.0
1037.4740545621848 145.4378013167413 587.2938383214768 -92.67909532201003 0.0 0.0
1053.1068885168002 138.29269023392774 591.6674697447676 -83.37298684867028 0.0 0.0
1045.258124945963 110.57103608734977 574.2201060706712 -65.3716031001281 0.0 0.0
736.2315332559184 -198.51689205248755 272.51674757823054 5.5505822160739626e-11 0.0 0.0
1045.2581249452644 110.57103608667069 574.2201060702635 65.3716031001057 0.0 0.0
1053.1068885174489 138.29269023474896 591.6674697453406 83.3729868489408 0.0 0.0
1037.4740545615964 145.43780131623038 587.2938383210798 92.67909532216476 0.0 0.0
1007.3710262906642 140.69111225100852 569.9901714159324 98.63428255974605 0.0 0.0
973.5596416455121 132.66637068747062 549.083361654522 103.85806470532451 0.0 0.0
934.3892893891085 122.17623088976102 524.152992147719 107.60499914714859 0.0 0.0
889.4816708380648 106.01440512600117 493.4228863583928 110.42297124450025 0.0 0.0
840.2112186946994 87.14981869770094 459.0639344153681 112.9050148324618 0.0 0.0
789.0515482945301 69.03033087277453 423.6180836347477 115.6932527406318 0.0 0.0
738.1641618215197 55.341761532340946 388.94249524034626 118.4776461760568 0.0 0.0
684.1450237474106 46.57521670894702 351.0879821447969 120.63041255740808 0.0 0.0
626.4083567505204 38.012346963400205 301.1641332680517 124.6621413401173 0.0 0.0
544.3990203532342 30.563819366230668 231.32024166622432 126.27353122848538 0.0 0.0
442.09250366889745 12.32479141857429 152.84169648742449 132.19390580698368 0.0 0.0
325.63391660956296 -0.4058067712669913 97.24717068468452 136.4640062887205 0.0 0.0
223.21781373415575 6.0823206205622915 68.74252031508249 128.20616696937338 0.0 0.0
144.320825847883 19.91171678113942 49.27018211965431 122.87000412014872 0.0 0.0
73.61838348572049 18.178109680220395 27.538850527856635 135.19746472312835 0.0 0.0
213.9589695222553 26.141737010483787 93.59264758707171 200.87218369153138 0.0 0.0
-446.34577470764697 -1052.1922573330087 -595.8544295971205 66.94726970097712 0.0 0.0
-320.2435626759306 -899.0014271362871 -450.4435087313555 -76.1429739978158 0.0 0.0
151.09754745128475 -11.718231041381305 52.55926655797621 -201.6860586046307 0.0 0.0
44.89128369890356 8.368209351202637 15.977645136739477 -152.7846925933211 0.0 0.0
99.90480898393515 21.270653412946643 36.35379880479202 -141.13589725356937 0.0 0.0
163.64412702592608 8.693919827792753 51.658620744445614 -145.65249900055983 0.0 0.0
242.30697971884416 -1.1410572508432493 71.75950950800417 -157.48419573974556 0.0 0.0
349.76673933214124 1.6007779609600055 109.52559305927137 -160.15752492876794 0.0 0.0
457.4941529548167 17.40306479385689 173.29192244374073 -150.11470884735024 0.0 0.0
549.7552796544123 28.892982604088697 244.47323408870847 -144.41092729442482 0.0 0.0
617.9557849341004 31.729735948435774 299.34344690335325 -140.17362093087408 0.0 0.0
670.4444342008653 38.70420984977328 340.070423662487 -135.0549304590363 0.0 0.0
718.4421195937562 48.9809807287443 374.06389337288397 -131.5041739196527 0.0 0.0
765.5782905294384 62.90730977961469 406.5260003989379 -128.3625979053538 0.0 0.0
809.7829566694844 77.60619255285785 436.8047695710766 -125.70986315721132 0.0 0.0
850.997659461478 90.51199187387722 464.3116859848563 -122.94633078203074 0.0 0.0
887.5900254323539 99.98276099804156 487.63333342253645 -119.21443570450867 0.0 0.0
920.932187710448 105.98224283854647 507.4576133618547 -113.75761690814798 0.0 0.0
956.64617663996 116.08423574074277 530.0586156283339 -107.16179401152318 0.0 0.0
985.4706134464299 121.42328297083557 547.1306250376414 -98.31470798270482 0.0 0.0
985.0041766280398 97.12416936803649 535.3833296233141 -80.13875051547365 0.0 0.0
589.1697674736997 -295.950771175936 152.0444425297064 4.781597340297594e-11 0.0 0.0
985.0041766279304 97.12416936801233 535.3833296232115 80.13875051562317 0.0 0.0
985.4706134467096 121.42328297127871 547.1306250379205 98.3147079830159 0.0 0.0
956.6461766387066 116.08423573951217 530.0586156274417 107.16179401161854 0.0 0.0
920.9321877109466 105.9822428392877 507.4576133620215 113.75761690835874 0.0 0.0
887.5900254319506 99.98276099764237 487.6333334222938 119.21443570443498 0.0 0.0
850.9976594615138 90.51199187406198 464.3116859848566 122.9463307819543 0.0 0.0
809.7829566692996 77.6061925528962 436.8047695709563 125.70986315740913 0.0 0.0
765.5782905296297 62.90730978003793 406.5260003990156 128.3625979054147 0.0 0.0
718.442119593654 48.98098072886559 374.0638933728066 131.50417391967312 0.0 0.0
670.4444342002355 38.70420984933127 340.0704236620118 135.05493045901852 0.0 0.0
617.9557849343623 31.729735949003175 299.34344690348786 140.17362093087718 0.0 0.0
549.7552796538283 28.89298260370254 244.47323408821939 144.4109272943104 0.0 0.0
457.49415295411586 17.403064793362283 173.29192244324167 150.11470884732893 0.0 0.0
349.7667393318185 1.6007779609648072 109.5255930591114 160.15752492866736 0.0 0.0
242.3069797184831 -1.1410572508653662 71.75950950791109 157.48419573946128 0.0 0.0
163.64412702581578 8.69391982782193 51.65862074442072 145.6524990004161 0.0 0.0
99.9048089838715 21.270653412741968 36.35379880471119 141.1358972534065 0.0 0.0
44.891283698921754 8.368209351349073 15.977645136788878 152.78469259317694 0.0 0.0
151.09754745080937 -11.718231041691773 52.55926655767899 201.68605860440357 0.0 0.0
-320.24356267517817 -899.0014271351504 -450.44350873039343 76.14297399789871 0.0 0.0
-227.4631541164603 -750.1875075209565 -336.06796423672284 -85.12933358240892 0.0 0.0
96.9754127906874 -42.153994740047104 21.444691794314153 -196.22159815082622 0.0 0.0
17.87963247745934 1.7424629532637919 5.888260800702023 -165.4399511823632 0.0 0.0
56.826596200065005 21.122524680592207 23.384366811895656 -155.77596230641734 0.0 0.0
103.79380866346958 11.570293723543093 34.58169374103472 -159.48008778959723 0.0 0.0
159.35218014489374 1.3516987897137285 48.05545924605208 -172.493364759153 0.0 0.0
238.84789919026673 -3.464301905633239 70.3373692928232 -186.12113149190964 0.0 0.0
342.5320661182086 0.09749462420939237 110.3638663838079 -181.36450261193303 0.0 0.0
442.267737809992 11.799724599468444 168.77260344700426 -166.29513279607963 0.0 0.0
520.5779009538358 16.739185528098915 225.1630853950436 -157.09152849346412 0.0 0.0
578.9235464578716 21.266484421787325 270.7005972656958 -149.976402073563 0.0 0.0
626.6470687914814 27.33628820009612 306.11417881486955 -145.68463630911208 0.0 0.0
670.5007081449282 38.1659170260357 338.18075343551686 -142.37070761432815 0.0 0.0
709.8725615739858 48.79817039687275 365.69631042852046 -139.67243266157627 0.0 0.0
746.3157818275638 58.332197363853155 390.11656125439947 -137.14797687999683 0.0 0.0
780.5556815457873 66.10640187121729 411.9453572031223 -134.01815336374528 0.0 0.0
813.72244313385 72.26838816908862 432.3290585479766 -128.78683537911402 0.0 0.0
849.9139214068626 81.46323441412318 455.0617250527637 -121.2199982542651 0.0 0.0
893.7891830425766 98.7256313601861 485.1570163880413 -112.93888533501182 0.0 0.0
915.5498862211779 91.8453022562968 493.77299678820253 -98.67542695504164 0.0 0.0
411.6497692126749 -399.7716843780454 14.167658031912786 1.3102408047416247e-11 0.0 0.0
915.5498862214355 91.8453022567035 493.7729967884357 98.67542695533257 0.0 0.0
893.7891830431709 98.72563136098528 485.15701638845695 112.93888533531585 0.0 0.0
849.9139214056629 81.46323441307285 455.0617250519861 121.21999825446316 0.0 0.0
813.7224431339034 72.26838816923151 432.3290585479349 128.78683537938133 0.0 0.0
780.5556815454527 66.10640187100014 411.9453572029519 134.0181533637113 0.0 0.0
746.3157818278808 58.332197364273576 390.11656125464486 137.14797688004253 0.0 0.0
709.8725615738362 48.79817039702708 365.6963104284391 139.67243266169663 0.0 0.0
670.5007081453489 38.16591702666768 338.180753435786 142.3707076145111 0.0 0.0
626.6470687916158 27.336288200349568 306.1141788148974 145.68463630905003 0.0 0.0
578.9235464576094 21.266484421745293 270.7005972654913 149.97640207351589 0.0 0.0
520.5779009534438 16.73918552785363 225.1630853947104 157.09152849337465 0.0 0.0
442.26773780952516 11.799724599202083 168.77260344665427 166.29513279602503 0.0 0.0
342.5320661174244 0.09749462349096216 110.36386638329205 181.36450261189364 0.0 0.0
238.8478991899233 -3.464301905406384 70.33736929280322 186.1211314917096 0.0 0.0
159.3521801446978 1.3516987896168016 48.05545924597601 172.49336475880636 0.0 0.0
103.7938086635652 11.570293723773792 34.58169374113132 159.48008778945078 0.0 0.0
56.826596199861754 21.12252468015597 23.384366811703796 155.77596230630425 0.0 0.0
17.879632477491917 1.7424629534439426 5.888260800765492 165.43995118216952 0.0 0.0
96.97541279024152 -42.15399474035951 21.444691794053966 196.2215981505943 0.0 0.0
-227.46315411593147 -750.1875075199363 -336.0679642360089 85.12933358257149 0.0 0.0
-155.68625130294123 -622.4437867175832 -247.10980648844665 -101.29793074014461 0.0 0.0
48.34606448851434 -63.592396645508444 -2.798304074387918 -184.7495122381909 0.0 0.0
-7.9286458416746095 -1.4728825689307459 -2.820374257768785 -173.31818947401183 0.0 0.0
14.788904009289599 19.968503936112494 10.427488980318294 -166.2767303605555 0.0 0.0
44.17539087229399 14.113595638238579 17.480382598641683 -169.24432610259126 0.0 0.0
76.96663750552955 4.491406287382989 24.3273318806398 -183.57825744234813 0.0 0.0
118.66022910011418 -0.8440265135279157 35.25608959622204 -199.29912136393347 0.0 0.0
182.18896977621205 -3.8496913280772396 53.61605940683884 -205.49120632160023 0.0 0.0
269.27818605576834 -9.443997872234736 80.56184962131543 -198.20893233575336 0.0 0.0
358.29729382299547 -17.334379099540264 112.27804634768383 -182.7961463557015 0.0 0.0
425.67816536906344 -15.861605759162888 147.2583538106415 -168.56606357828866 0.0 0.0
472.2728909301773 -7.047113718964589 179.8111444587937 -158.8419656863528 0.0 0.0
512.0628596690483 6.6233339756068546 210.7490783076706 -154.71236515170798 0.0 0.0
548.0277921883829 16.94441933602102 238.58264680651658 -152.96994989993146 0.0 0.0
580.0320732187768 25.123181137887464 263.8620331697738 -152.16356848639663 0.0 0.0
611.4691533634605 32.41639559745763 288.16510199809176 -151.93759169864524 0.0 0.0
645.4673564950688 38.46921986485121 313.20171707835414 -148.60394592900352 0.0 0.0
683.2776459880091 43.27530336251135 338.8118787879484 -140.38653911030423 0.0 0.0
730.7113031950165 54.45077805976473 369.29647952153977 -129.78242424089868 0.0 0.0
801.1511093266465 86.19001183884549 422.7690016330838 -122.80862053453531 0.0 0.0
170.6765531534088 -507.7718458418216 -154.32386586814147 7.463540896424092e-11 0.0 0.0
801.1511093265971 86.19001183893633 422.76900163318805 122.80862053477131 0.0 0.0
730.7113031958224 54.4507780609502 369.29647952220927 129.78242424125654 0.0 0.0
683.2776459877306 43.27530336226016 338.81187878775734 140.38653911056494 0.0 0.0
645.4673564949567 38.469219865156454 313.20171707822624 148.60394592910603 0.0 0.0
611.46915336301 32.416395596980124 288.1651019977339 151.93759169868642 0.0 0.0
580.032073219388 25.1231811388612 263.86203317021756 152.16356848647897 0.0 0.0
548.0277921880639 16.944419335664307 238.58264680629142 152.96994990002332 0.0 0.0
512.0628596686059 6.623333975204556 210.74907830743837 154.71236515176093 0.0 0.0
472.27289092974036 -7.04711371941746 179.8111444584685 158.8419656862934 0.0 0.0
425.6781653691144 -15.861605758806359 147.25835381069942 168.5660635782892 0.0 0.0
358.2972938222027 -17.334379100383245 112.27804634718316 182.7961463555293 0.0 0.0
269.27818605526096 -9.44399787268097 80.56184962101082 198.2089323357864 0.0 0.0
182.18896977584112 -3.849691328137641 53.61605940671473 205.4912063215635 0.0 0.0
118.66022909962291 -0.8440265142931502 35.25608959584495 199.2991213637655 0.0 0.0
76.96663750544768 4.491406287270762 24.327331880584083 183.57825744208003 0.0 0.0
44.17539087246284 14.113595638535422 17.480382598781315 169.244326102386 0.0 0.0
14.788904009213224 19.968503935977594 10.427488980254772 166.27673036037967 0.0 0.0
-7.928645841568066 -1.4728825685940747 -2.82037425763597 173.31818947388376 0.0 0.0
48.3460644881769 -63.592396645728684 -2.798304074574638 184.7495122379017 0.0 0.0
-155.68625130259997 -622.4437867167653 -247.10980648798258 101.29793074028385 0.0 0.0
-116.45827462942374 -502.5631158864855 -187.47426249609265 -109.77505467871167 0.0 0.0
8.214293556517458 -76.85958735242423 -20.347873469236056 -169.94442610130582 0.0 0.0
-31.920295010425825 -2.8729102186570934 -10.434623673907748 -177.14480664137636 0.0 0.0
-26.019995787496057 18.53821854597437 -2.2431873030319514 -172.5544151354939 0.0 0.0
-14.628523218484856 16.165136377902986 0.46234175402223565 -174.7508239829968 0.0 0.0
-6.399157517647703 7.937802856201423 0.46527182253099664 -187.62190417276923 0.0 0.0
-2.5015501503669952 1.7008744302910124 -0.24327011208239213 -204.4314670157193 0.0 0.0
-0.6226722573623285 0.16599162697315606 -0.13797113648848125 -210.0694920923893 0.0 0.0
-0.08512418899351815 -0.08056274666200025 -0.04939513114115357 -203.42836954833857 0.0 0.0
0.10117968626303764 0.007290642464250041 0.04364755137703824 -192.4069794567277 0.0 0.0
0.03380490411308301 -0.2214050392262905 -0.13940719555527536 -190.22326576806367 0.0 0.0
-1.0737485003192546 0.6230119488237165 -8.515476230286367e-05 -187.5990679529668 0.0 0.0
-1.8668729052401574 0.628534479670499 0.09640951843633871 -182.4638521893334 0.0 0.0
-1.7986654631760643 1.1235190540131512 0.45213236098730647 -174.29109212709312 0.0 0.0
2.4712349618599205 3.3325194339763016 1.271361037406976 -168.17316337039938 0.0 0.0
18.427975733921457 8.30773723570293 3.7828581637275676 -162.73003955881296 0.0 0.0
57.208233359278836 18.129324519200836 10.106479563079219 -157.42685942203528 0.0 0.0
139.37232966218744 23.572053825557987 14.012645255676901 -149.5090607086896 0.0 0.0
339.26527183366136 -32.774182940269554 29.308388784274044 -143.2276577611069 0.0 0.0
519.1500988315605 -5.313817210323066 188.7106943750523 -174.51987983681104 0.0 0.0
-417.96329946759295 -710.3744406752916 -489.7088811587363 6.827605147918803e-11 0.0 0.0
519.1500988318371 -5.313817209857163 188.71069437521672 174.51987983670708 0.0 0.0
339.2652718333564 -32.77418294100005 29.308388784084514 143.22765776191738 0.0 0.0
139.37232966205434 23.572053825263453 14.012645255500544 149.50906070917085 0.0 0.0
57.20823336027719 18.12932452088895 10.106479563965479 157.42685942233464 0.0 0.0
18.42797573424771 8.30773723599168 3.782858163930854 162.73003955865366 0.0 0.0
2.4712349625822583 3.3325194346540172 1.2713610379031053 168.17316337050204 0.0 0.0
-1.7986654631501722 1.12351905395672 0.4521323609290988 174.29109212707198 0.0 0.0
-1.8668729049399246 0.6285344796711385 0.09640951851275048 182.46385218948961 0.0 0.0
-1.073748499497924 0.6230119486754653 -8.515452654123123e-05 187.59906795284184 0.0 0.0
0.033804904437204186 -0.2214050394747158 -0.13940719555171555 190.22326576804613 0.0 0.0
0.10117968622046192 0.007290641683942667 0.04364755112168872 192.4069794565504 0.0 0.0
-0.085124188869937 -0.0805627468462573 -0.04939513115352767 203.42836954840266 0.0 0.0
-0.6226722571865224 0.16599162715905713 -0.13797113637817926 210.06949209239585 0.0 0.0
-2.5015501504132107 1.7008744300521934 -0.24327011216801298 204.43146701546883 0.0 0.0
-6.399157517846129 7.937802855613589 0.46527182229497566 187.62190417252867 0.0 0.0
-14.628523218268501 16.165136378289798 0.4623417542029471 174.75082398275256 0.0 0.0
-26.01999578745021 18.538218545987046 -2.2431873030137712 172.55441513538315 0.0 0.0
-31.920295010423303 -2.8729102185789164 -10.434623673883182 177.14480664129968 0.0 0.0
8.214293556354665 -76.85958735255437 -20.347873469321435 169.94442610112486 0.0 0.0
-116.45827462931895 -502.56311588573544 -187.47426249586746 109.77505467858013 0.0 0.0
-96.2432684792729 -394.51141162236115 -147.18543580269014 -106.7333788587672 0.0 0.0
-17.83779093515021 -84.18320244034827 -30.61177532926626 -158.5878126581614 0.0 0.0
-54.28083641663808 -4.110595636156134 -17.5183359964734 -177.07566036805946 0.0 0.0
-65.22247350359058 17.231442570632183 -14.391907711612483 -174.4108501525693 0.0 0.0
-72.35281901051775 17.472407521611522 -16.464177190513396 -175.25283900059617 0.0 0.0
-88.67536124782623 11.170515992006155 -23.20166233915124 -185.6296173192338 0.0 0.0
-123.61143077835104 4.39310090416398 -35.62984870261957 -200.86176418204764 0.0 0.0
-183.36562827364082 4.097689087202288 -53.925306851440254 -205.73518386479256 0.0 0.0
-269.2654908437862 9.195238643297177 -80.66360066527488 -198.20037137792207 0.0 0.0
-358.1219709739048 17.321624841315646 -112.21536177987585 -182.75749251385034 0.0 0.0
-426.2729799700995 16.14908472476499 -147.13104969709696 -168.67142487907222 0.0 0.0
-472.4371012404431 6.796781899888515 -180.26022680022749 -158.6226609402134 0.0 0.0
-513.0957387614449 -6.401161715230515 -211.7596780765071 -154.26652715675868 0.0 0.0
-548.835380827329 -14.725257386607744 -238.76180319718515 -152.27461112840615 0.0 0.0
-575.9024332867822 -18.154305347617168 -258.1878663625771 -151.83762825580192 0.0 0.0
-592.4172174268551 -16.47925095637082 -266.663058545811 -154.23376072701507 0.0 0.0
-596.1716503356433 -9.788594695382628 -261.74888076549837 -159.35545177326208 0.0 0.0
-591.3849864179538 -2.5606787045792743 -241.91179940900005 -169.84039569168607 0.0 0.0
-575.3296534277813 39.811330934586124 -191.82969577854115 -181.86702916693443 0.0 0.0
-327.9387285908011 100.2502104551697 -40.84069335451433 -130.33017940899154 0.0 0.0
-953.1058877637894 -939.1153002944908 -946.6219944875738 -1.41824330057716e-10 0.0 0.0
-327.93872859083467 100.25021045534109 -40.84069335449877 130.33017940958143 0.0 0.0
-575.3296534272732 39.81133093473962 -191.82969577821422 181.86702916697823 0.0 0.0
-591.3849864185206 -2.560678705492194 -241.91179940934757 169.84039569205873 0.0 0.0
-596.1716503351564 -9.788594694718768 -261.7488807651281 159.35545177328012 0.0 0.0
-592.417217427061 -16.479250956674328 -266.6630585459941 154.23376072710064 0.0 0.0
-575.9024332865716 -18.15430534755287 -258.18786636236405 151.83762825579825 0.0 0.0
-548.83538082579 -14.72525738474491 -238.76180319603364 152.2746111281597 0.0 0.0
-513.0957387607842 -6.401161714612517 -211.75967807606037 154.26652715677199 0.0 0.0
-472.4371012396653 6.796781900718546 -180.2602267996358 158.6226609402578 0.0 0.0
-426.27297996986067 16.149084724735477 -147.13104969685705 168.67142487902325 0.0 0.0
-358.1219709732738 17.32162484114021 -112.21536177968235 182.7574925137847 0.0 0.0
-269.2654908427356 9.195238644073843 -80.66360066471387 198.20037137788302 0.0 0.0
-183.3656282733613 4.097689086946911 -53.92530685142365 205.735183864825 0.0 0.0
-123.61143077770495 4.393100905011374 -35.62984870217039 200.86176418175913 0.0 0.0
-88.67536124776832 11.170515991592392 -23.201662339263375 185.62961731900313 0.0 0.0
-72.35281901028071 17.472407521827556 -16.464177190381168 175.2528390004007 0.0 0.0
-65.22247350356635 17.23144257050577 -14.391907711644828 174.41085015236203 0.0 0.0
-54.28083641671533 -4.110595636351522 -17.518335996557965 177.07566036786721 0.0 0.0
-17.837790935228544 -84.18320244041557 -30.61177532931022 158.58781265800252 0.0 0.0
-96.24326847914165 -394.5114116218762 -147.18543580250167 106.73337885865186 0.0 0.0
-78.84158607056611 -302.168289151447 -114.30296256660391 -97.82538585429916 0.0 0.0
-35.45221740479004 -84.80195523615278 -36.07408587945329 -147.36741570505075 0.0 0.0
-75.0113185414359 -5.1984714025569065 -24.059119166803523 -173.188562755024 0.0 0.0
-102.50899425278038 15.793221332391854 -26.030410041228123 -171.5444302122248 0.0 0.0
-128.88776766294575 18.23878883701726 -33.139507235859746 -171.57840329057763 0.0 0.0
-170.15974725107577 14.258139017865252 -46.47812948108885 -179.45421785546634 0.0 0.0
-241.30045995196994 6.194205221459166 -70.62893723423906 -185.56245238767303 0.0 0.0
-342.7402938583561 -0.25441926654015923 -110.63507619416907 -181.5983935431898 0.0 0.0
-442.318324602952 -12.056363326187228 -168.86909428750806 -166.34482314664558 0.0 0.0
-520.5344935218498 -16.79813475075905 -225.15543031755408 -157.03967908244317 0.0 0.0
-578.88261276005 -21.21756175735745 -270.6732006516034 -149.910423918643 0.0 0.0
-626.8056982550894 -27.22957162025807 -306.223419178279 -145.42629377532884 0.0 0.0
-671.0597729361521 -37.826614087333816 -338.43806887236406 -141.59595121493334 0.0 0.0
-709.9850616876573 -47.192193878701815 -365.2107261428763 -138.4327636319714 0.0 0.0
-741.7757312894063 -52.35010521473231 -385.24601066268355 -136.68604036881726 0.0 0.0
-762.6166214500895 -50.61371606634303 -395.5437848777136 -137.50019439590125 0.0 0.0
-770.7681121128305 -42.360082540104884 -395.4993888274054 -141.55071198398264 0.0 0.0
-765.2897507552403 -29.96558040484254 -386.1759534129836 -148.9552799165235 0.0 0.0
-725.9947727441033 7.309240483715527 -349.2096465660683 -157.84372141955637 0.0 0.0
-653.7273892886681 65.47001242470785 -287.86749043888983 -163.63406462627285 0.0 0.0
-1690.9075767758181 -1221.4480606507632 -1413.2958560337167 5.279332526697544e-12 0.0 0.0
-653.7273892886119 65.4700124245428 -287.86749043885186 163.63406462658534 0.0 0.0
-725.9947727435883 7.309240484125283 -349.2096465658159 157.8437214198265 0.0 0.0
-765.2897507551718 -29.96558040497125 -386.1759534128981 148.95527991673296 0.0 0.0
-770.768112112748 -42.36008254014415 -395.49938882740037 141.55071198412725 0.0 0.0
-762.6166214499891 -50.613716066492834 -395.54378487761767 137.50019439587254 0.0 0.0
-741.7757312888575 -52.350105214286884 -385.2460106622711 136.6860403688951 0.0 0.0
-709.9850616872623 -47.19219387839699 -365.2107261427301 138.43276363200064 0.0 0.0
-671.0597729357271 -37.82661408709404 -338.43806887209524 141.59595121499163 0.0 0.0
-626.8056982547838 -27.229571620094184 -306.22341917800634 145.42629377524216 0.0 0.0
-578.8826127598415 -21.217561757318833 -270.6732006513943 149.91042391855154 0.0 0.0
-520.5344935215622 -16.7981347509634 -225.15543031733947 157.03967908241668 0.0 0.0
-442.3183246020513 -12.056363325521334 -168.86909428687406 166.34482314663808 0.0 0.0
-342.7402938581075 -0.25441926699751627 -110.63507619412394 181.59839354330947 0.0 0.0
-241.3004599512597 6.194205221811576 -70.62893723393312 185.56245238748267 0.0 0.0
-170.1597472507137 14.258139017957859 -46.478129480957506 179.45421785521876 0.0 0.0
-128.8877676627867 18.238788837051885 -33.13950723580156 171.5784032904381 0.0 0.0
-102.50899425271228 15.793221332292976 -26.030410041241282 171.5444302119857 0.0 0.0
-75.01131854139744 -5.198471402583084 -24.059119166799984 173.1885627549438 0.0 0.0
-35.45221740486162 -84.8019552362579 -36.074085879507045 147.3674157048695 0.0 0.0
-78.84158607051837 -302.16828915106163 -114.302962566474 97.82538585422671 0.0 0.0
-63.6847570884854 -223.72447359483604 -86.22276920499642 -86.2088875075426 0.0 0.0
-48.58736801109211 -80.24508383909667 -38.6500851387209 -134.64789301831462 0.0 0.0
-94.18067436210603 -5.91074355481439 -30.025818055465194 -165.18570054354578 0.0 0.0
-138.23487134454513 14.37436097585042 -37.1349183473554 -165.04472555315647 0.0 0.0
-183.30780211688435 18.030019217786375 -49.49482410370473 -162.4678216083415 0.0 0.0
-247.674476441617 13.99883130807111 -70.0711731841698 -162.86587317269075 0.0 0.0
-350.7496482853562 1.778864730756525 -109.1398126820053 -163.01383065581427 0.0 0.0
-457.7266846663837 -17.678880784197386 -173.45785870701488 -150.69584808993463 0.0 0.0
-549.7890631311955 -29.164737670007476 -244.56412158026933 -144.41645409469635 0.0 0.0
-617.951538615995 -31.765074245138074 -299.37374026371594 -140.14145852295775 0.0 0.0
-670.3092966785234 -38.57531722673542 -339.96297831522867 -135.0015890379662 0.0 0.0
-718.3750676055736 -48.727196964335484 -373.94921083436793 -131.22722486088801 0.0 0.0
-765.8393655878306 -62.55592507319062 -406.5387824684173 -127.46018001237289 0.0 0.0
-810.0856587556243 -76.67735317818571 -436.62026843846877 -124.12251781576573 0.0 0.0
-848.0730313263003 -86.44454133087261 -461.08412216030615 -122.05929279633544 0.0 0.0
-873.9320498030297 -87.86049177273418 -475.0446563675947 -122.84473225066591 0.0 0.0
-884.30450557955 -78.29723938759253 -475.5783785524075 -127.49634799454842 0.0 0.0
-869.0395834007588 -50.58650052565113 -454.37738986627176 -134.4711808929683 0.0 0.0
-823.161653132332 -1.3623735919539683 -407.97504952514487 -140.6938557550409 0.0 0.0
-705.6729267993757 103.97206229767087 -302.0715541696817 -145.60175599443966 0.0 0.0
-2134.322543298988 -1461.69187573062 -1765.148674783289 1.5777601447553025e-11 0.0 0.0
-705.6729267991582 103.97206229775868 -302.07155416956635 145.60175599460504 0.0 0.0
-823.1616531321654 -1.3623735919974962 -407.97504952497206 140.69385575525664 0.0 0.0
-869.0395834001191 -50.58650052512493 -454.3773898658248 134.4711808931434 0.0 0.0
-884.3045055799819 -78.29723938821766 -475.5783785527101 127.4963479947774 0.0 0.0
-873.9320498027972 -87.86049177246605 -475.04465636745056 122.84473225052513 0.0 0.0
-848.0730313254386 -86.4445413300915 -461.08412215968156 122.05929279625212 0.0 0.0
-810.0856587563641 -76.6773531792287 -436.6202684389662 124.12251781586842 0.0 0.0
-765.8393655873126 -62.555925072796526 -406.5387824680964 127.46018001228285 0.0 0.0
-718.3750676054211 -48.727196964391474 -373.94921083421855 131.22722486091038 0.0 0.0
-670.3092966782024 -38.57531722669016 -339.96297831500505 135.00158903793874 0.0 0.0
-617.9515386154799 -31.765074244955937 -299.3737402633096 140.14145852289158 0.0 0.0
-549.7890631309438 -29.16473767023835 -244.56412158000919 144.41645409477053 0.0 0.0
-457.7266846658191 -17.6788807841638 -173.4578587066297 150.69584808999747 0.0 0.0
-350.7496482851976 1.7788647302039777 -109.13981268203915 163.0138306559269 0.0 0.0
-247.67447644111522 13.998831308084055 -70.07117318404417 162.86587317232886 0.0 0.0
-183.30780211658634 18.03001921794126 -49.494824103578125 162.46782160814598 0.0 0.0
-138.2348713442604 14.374360976179812 -37.13491834717148 165.04472555303906 0.0 0.0
-94.18067436201002 -5.9107435548153955 -30.025818055436787 165.1857005434908 0.0 0.0
-48.587368011091975 -80.2450838391077 -38.65008513872415 134.64789301815063 0.0 0.0
-63.6847570883949 -223.72447359457954 -86.22276920489233 86.2088875074884 0.0 0.0
-51.835773969342 -158.16501858432102 -63.00023776609888 -73.64684214611178 0.0 0.0
-58.866487714420124 -71.92711443276487 -39.23808064415549 -119.97051169864017 0.0 0.0
-112.21804082789016 -6.090212094008461 -35.49302689202789 -153.20971176830312 0.0 0.0
-172.01136416450808 12.445616318733528 -47.87654705384415 -153.64937064785767 0.0 0.0
-235.76364221652298 16.917880049329867 -65.42744029766314 -149.23315083090733 0.0 0.0
-327.2824006225716 12.402351391652205 -94.74282909679862 -144.639986440525 0.0 0.0
-439.3718776825799 -10.8005442875278 -152.32153138205646 -132.88816218196325 0.0 0.0
-544.457701087607 -31.04096234687096 -231.40650170958497 -126.5914750077633 0.0 0.0
-626.5421282170266 -38.30348101290683 -301.3415699521433 -124.64508209545755 0.0 0.0
-684.1267116270578 -46.56431268059122 -351.1074858711984 -120.60645166893357 0.0 0.0
-737.978107440927 -55.11336661582024 -388.7602511043905 -118.44806024599833 0.0 0.0
-788.67626170574 -68.53003596861616 -423.22061882822084 -115.4223306200118 0.0 0.0
-839.9583013474463 -86.51799225082858 -458.6560097896523 -112.00316438999454 0.0 0.0
-889.9562695219626 -105.69146912167317 -493.54869967963407 -108.75194902997526 0.0 0.0
-934.2661737570314 -121.19319418006002 -523.7217767196713 -106.44839810800993 0.0 0.0
-965.9209027911917 -125.77547184877454 -542.0653388374433 -106.98948731346408 0.0 0.0
-973.9920334352372 -112.8604257289906 -539.90780515491 -110.97260624877475 0.0 0.0
-948.6922845690556 -71.59949705725586 -507.0380731297222 -117.1791966702213 0.0 0.0
-878.9107741584719 4.528564091425324 -435.381790592472 -122.30409621479947 0.0 0.0
-734.7948417156365 138.46535583994302 -300.1382471138951 -125.7949342462791 0.0 0.0
-2481.259996121671 -1703.7266364050772 -2066.533353199866 1.340403343874641e-10 0.0 0.0
-734.7948417154303 138.46535584003695 -300.1382471138085 125.79493424652149 0.0 0.0
-878.9107741578226 4.528564092017916 -435.38179059197205 122.30409621489589 0.0 0.0
-948.692284568398 -71.59949705673701 -507.0380731292548 117.17919667040107 0.0 0.0
-973.9920334361403 -112.8604257301219 -539.907805155641 110.97260624900639 0.0 0.0
-965.920902791101 -125.77547184891606 -542.0653388373535 106.9894873135867 0.0 0.0
-934.2661737561899 -121.19319417931266 -523.7217767190967 106.44839810808696 0.0 0.0
-889.9562695212903 -105.6914691211412 -493.54869967914874 108.75194902993168 0.0 0.0
-839.958301347051 -86.51799225055454 -458.65600978938306 112.00316438991646 0.0 0.0
-788.6762617052841 -68.5300359683698 -423.22061882791184 115.42233061997497 0.0 0.0
-737.9781074404672 -55.11336661559899 -388.76025110413116 118.44806024597725 0.0 0.0
-684.1267116266578 -46.56431268045092 -351.10748587089194 120.60645166886846 0.0 0.0
-626.5421282170386 -38.303481013358876 -301.3415699520429 124.64508209551062 0.0 0.0
-544.457701087153 -31.04096234690165 -231.40650170919102 126.59147500783578 0.0 0.0
-439.3718776821336 -10.800544287565865 -152.32153138175366 132.88816218189524 0.0 0.0
-327.282400622044 12.402351391685063 -94.74282909663084 144.63998644044858 0.0 0.0
-235.76364221613227 16.917880049647906 -65.42744029745353 149.233150830742 0.0 0.0
-172.0113641642997 12.445616318798626 -47.87654705376305 153.64937064776498 0.0 0.0
-112.2180408278814 -6.0902120942275815 -35.493026892090754 153.2097117681362 0.0 0.0
-58.8664877143002 -71.92711443268034 -39.23808064409414 119.97051169849738 0.0 0.0
-51.835773969177275 -158.16501858412062 -63.000237765989354 73.64684214592302 0.0 0.0
-43.33268425120837 -104.94914513144826 -44.48454881479698 -60.67900311018669 0.0 0.0
-67.1004488486227 -61.19941192933431 -38.4899582333871 -103.37809910682735 0.0 0.0
-129.26778628393114 -5.612308276736982 -40.46467365448768 -137.30239259378536 0.0 0.0
-204.07971477995287 10.436912887579165 -58.09105602898989 -138.27914102016027 0.0 0.0
-285.8901463337928 13.274551764873006 -81.68631972173571 -130.21090814652885 0.0 0.0
-399.47455440448925 4.853015662193284 -122.56587454759114 -119.75009741093488 0.0 0.0
-513.4568798612311 -22.86037249929218 -196.36960621322936 -107.02123791510739 0.0 0.0
-611.8957871207531 -38.54766462941802 -280.1136275470059 -105.01577044003639 0.0 0.0
-678.9321293214125 -49.61225643896092 -344.6909034294335 -102.93465827470735 0.0 0.0
-739.1802011216589 -58.063297303187376 -390.10200118867107 -102.46233583077101 0.0 0.0
-793.8053825402043 -70.87345335615301 -427.7215620824216 -101.00158137526087 0.0 0.0
-848.2586400886981 -88.43447930311135 -464.92785416467905 -98.55440250144163 0.0 0.0
-903.800895556074 -110.40316753288275 -504.0166216803418 -95.62488764271434 0.0 0.0
-958.570061527107 -133.6606364807638 -543.1099080900948 -92.73359218351898 0.0 0.0
-1009.4074465051494 -154.9636913182339 -579.2669672154648 -90.38341552692816 0.0 0.0
-1046.186833998932 -164.38486987908882 -602.5994230763072 -89.9545091377362 0.0 0.0
-1052.6420063639368 -146.22472274787117 -597.0862041159007 -93.03864664998207 0.0 0.0
-1012.7042579302376 -89.05193819202401 -549.0804047776596 -98.40925796776264 0.0 0.0
-917.6664571798253 13.001167437995846 -451.67831856808994 -103.09951011384577 0.0 0.0
-754.7144770582248 166.16274404251462 -295.9481584360044 -108.72818551705136 0.0 0.0
-2782.8270538676798 -1936.6478096188423 -2338.644186623904 1.4317080854198139e-10 0.0 0.0
-754.7144770589755 166.16274404171162 -295.94815843654817 108.72818551725058 0.0 0.0
-917.6664571798742 13.001167437855472 -451.6783185681213 103.09951011389845 0.0 0.0
-1012.7042579294973 -89.05193819135651 -549.0804047771313 98.4092579678645 0.0 0.0
-1052.642006364 -146.22472274806762 -597.0862041159745 93.03864665002635 0.0 0.0
-1046.1868339976686 -164.3848698779158 -602.5994230754217 89.95450913775713 0.0 0.0
-1009.4074465051151 -154.9636913183794 -579.266967215448 90.3834155270002 0.0 0.0
-958.5700615257598 -133.66063647947234 -543.1099080890945 92.7335921834149 0.0 0.0
-903.8008955559806 -110.40316753296237 -504.0166216803031 95.62488764267962 0.0 0.0
-848.2586400879627 -88.43447930259676 -464.92785416420344 98.55440250142891 0.0 0.0
-793.8053825403402 -70.87345335647991 -427.7215620825247 101.00158137515209 0.0 0.0
-739.1802011214904 -58.06329730337855 -390.10200118854306 102.46233583080267 0.0 0.0
-678.9321293211569 -49.61225643904383 -344.69090342917366 102.93465827473476 0.0 0.0
-611.8957871205885 -38.54766462969889 -280.1136275467355 105.01577044009046 0.0 0.0
-513.4568798603609 -22.860372498634057 -196.3696062125617 107.02123791496142 0.0 0.0
-399.47455440403866 4.85301566209101 -122.5658745474358 119.75009741103959 0.0 0.0
-285.89014633344055 13.274551764659199 -81.68631972172612 130.21090814633874 0.0 0.0
-204.0797147799686 10.436912887151756 -58.09105602912159 138.27914102003345 0.0 0.0
-129.26778628392364 -5.612308276947909 -40.46467365454829 137.30239259359627 0.0 0.0
-67.10044884860581 -61.199411929405414 -38.48995823340335 103.37809910668854 0.0 0.0
-43.33268425111035 -104.94914513130426 -44.48454881472437 60.679003110056485 0.0 0.0
-37.82156822256564 -63.781668262093255 -30.480970945397665 -47.53003573578792 0.0 0.0
-73.54572309730858 -49.21348288602317 -36.82776179499952 -85.0407484845713 0.0 0.0
-145.30190479882896 -4.528480881403521 -44.94956532375175 -117.54332658947654 0.0 0.0
-234.6572058359724 7.957330108185291 -68.010330456645 -118.57596664389179 0.0 0.0
-338.84862522026623 9.097502892548178 -98.55421292809876 -108.50167208555077 0.0 0.0
-457.94451235854797 -9.524504605795837 -153.91374009018477 -89.97200343623474 0.0 0.0
-575.178165533538 -30.84933945585345 -237.56027888155472 -83.82150494050025 0.0 0.0
-656.9887203606871 -46.85061882062908 -319.42891364080907 -83.04038075070896 0.0 0.0
-724.8896164091072 -57.296634501584045 -378.209971725303 -83.40415565755615 0.0 0.0
-784.8476169941837 -70.00407143037305 -422.1873096072235 -83.53847359562059 0.0 0.0
-842.7930721405421 -86.78365969084784 -461.80494512676313 -82.7367711222682 0.0 0.0
-901.2691235230741 -108.31446279017283 -502.44900835037424 -80.87883874974622 0.0 0.0
-960.851997756186 -133.80609500698102 -545.1348879441263 -78.51628172325172 0.0 0.0
-1019.4418454035558 -161.45704377032078 -588.2458169308675 -76.11674607945666 0.0 0.0
-1074.8298403763954 -186.3970664568344 -628.4005952758876 -73.89491860926887 0.0 0.0
-1117.5791956485984 -200.32396475522629 -656.8875205850563 -72.54468084222712 0.0 0.0
-1125.0746502397126 -182.6222612341674 -652.2155480248508 -73.8255076471958 0.0 0.0
-1071.4237161479668 -109.9142295558905 -589.6947969738319 -78.3841205800353 0.0 0.0
-950.7883352902002 18.93425426525107 -465.84854098275366 -84.44400134328849 0.0 0.0
-764.9385258301139 194.24597930030495 -286.53074329227036 -94.15034179679994 0.0 0.0
-3049.590839828992 -2153.046993128111 -2584.0249368923937 -9.265477274311706e-12 0.0 0.0
-764.9385258305998 194.24597929970025 -286.53074329251905 94.15034179701583 0.0 0.0
-950.7883352907006 18.934254264635015 -465.8485409831886 84.44400134345968 0.0 0.0
-1071.4237161476326 -109.91422955565866 -589.6947969736514 78.38412058022216 0.0 0.0
-1125.0746502395705 -182.6222612341109 -652.2155480247592 73.82550764722612 0.0 0.0
-1117.5791956477947 -200.3239647545333 -656.8875205844954 72.54468084224801 0.0 0.0
-1074.8298403762553 -186.3970664568888 -628.4005952757324 73.89491860934336 0.0 0.0
-1019.4418454020328 -161.4570437688654 -588.2458169297046 76.11674607936939 0.0 0.0
-960.8519977554824 -133.8060950064731 -545.1348879436381 78.51628172318648 0.0 0.0
-901.2691235222674 -108.3144627895769 -502.44900834981775 80.87883874979376 0.0 0.0
-842.7930721407986 -86.78365969133588 -461.8049451269428 82.73677112216836 0.0 0.0
-784.8476169935605 -70.00407143002563 -422.1873096067874 83.5384735956088 0.0 0.0
-724.8896164085361 -57.296634501303146 -378.20997172486733 83.40415565757255 0.0 0.0
-656.9887203605657 -46.85061882088223 -319.4289136405833 83.04038075071668 0.0 0.0
-575.178165532558 -30.849339455132814 -237.56027888078629 83.82150494039514 0.0 0.0
-457.9445123579939 -9.524504605653396 -153.91374008986034 89.97200343621095 0.0 0.0
-338.8486252200273 9.097502892247427 -98.55421292813311 108.5016720855084 0.0 0.0
-234.65720583582123 7.957330108241555 -68.01033045658293 118.5759666437876 0.0 0.0
-145.3019047988108 -4.528480881524379 -44.949565323782544 117.54332658937928 0.0 0.0
-73.54572309730524 -49.21348288611592 -36.82776179502635 85.04074848447159 0.0 0.0
-37.8215682224654 -63.78166826199564 -30.480970945338306 47.53003573579859 0.0 0.0
-34.63376516691022 -34.48758027343963 -20.73640363210495 -34.51454120683231 0.0 0.0
-77.97408649936749 -36.97383106875687 -34.4843752704373 -65.17321927257552 0.0 0.0
-160.08435890407145 -3.0763502146517907 -48.94821273561696 -93.84974079824599 0.0 0.0
-264.57376398546563 4.780679684482809 -77.9200810943673 -94.53596295580122 0.0 0.0
-389.64806143507406 1.6122675240277022 -117.21429966325839 -81.48763714475443 0.0 0.0
-516.4541336592558 -19.4307372430925 -185.8201272925528 -65.00689814827349 0.0 0.0
-618.4057376439865 -38.61723422143076 -274.59902819468033 -62.20522597316198 0.0 0.0
-694.7383034985069 -51.68138242441789 -349.83840000770317 -62.477856009172605 0.0 0.0
-762.573556898772 -65.8580813091433 -405.8210728614944 -63.437651661940755 0.0 0.0
-825.0668384257057 -82.09023000630725 -450.1847731709057 -64.06567089335813 0.0 0.0
-886.4189945392748 -102.81438412071702 -492.5947129853482 -63.71113435010133 0.0 0.0
-949.1522303120221 -128.34106962638634 -537.0764392195915 -62.389562352192506 0.0 0.0
-1012.575265273264 -158.11792182648995 -583.747370230369 -60.567263880790286 0.0 0.0
-1074.4315013821401 -187.29849391837237 -629.2226736280918 -58.86613559713869 0.0 0.0
-1131.545900527097 -214.23477018194896 -671.1916496990056 -57.042970383888495 0.0 0.0
-1178.7018312935186 -232.75224226402386 -704.0802592289316 -54.962052572887 0.0 0.0
-1194.4700704366319 -221.86613431000805 -706.9128910624802 -54.083287817942455 0.0 0.0
-1135.4351127361624 -142.24162537007882 -638.3423033267989 -57.391041838036735 0.0 0.0
-986.1418322038987 16.338739205856527 -485.1668047081348 -65.87597597862803 0.0 0.0
-763.0678322261916 229.29985482359854 -267.64324072385375 -80.73994437267716 0.0 0.0
-3281.7067558988597 -2343.3512891837618 -2798.3461645957195 -5.67403901641228e-11 0.0 0.0
-763.0678322258095 229.2998548238678 -267.6432407234156 80.73994437294391 0.0 0.0
-986.1418322043971 16.338739205275402 -485.1668047085236 65.8759759787434 0.0 0.0
-1135.4351127360546 -142.24162537004418 -638.3423033266621 57.39104183813613 0.0 0.0
-1194.4700704363543 -221.86613430981427 -706.9128910623349 54.08328781790827 0.0 0.0
-1178.701831293146 -232.7522422637585 -704.0802592285896 54.96205257285014 0.0 0.0
-1131.5459005264547 -214.2347701814687 -671.1916496985317 57.04297038387686 0.0 0.0
-1074.4315013807372 -187.29849391709377 -629.2226736269906 58.86613559712753 0.0 0.0
-1012.5752652727765 -158.1179218262042 -583.7473702300865 60.5672638807939 0.0 0.0
-949.152230311619 -128.34106962620749 -537.0764392192918 62.38956235229598 0.0 0.0
-886.4189945394854 -102.8143841211893 -492.59471298551654 63.71113435009349 0.0 0.0
-825.0668384252165 -82.0902300060371 -450.184773170567 64.06567089320974 0.0 0.0
-762.5735568980556 -65.85808130871516 -405.82107286100745 63.43765166195771 0.0 0.0
-694.7383034983924 -51.68138242465228 -349.8384000074988 62.47785600923336 0.0 0.0
-618.4057376432538 -38.617234221018485 -274.59902819406267 62.20522597315411 0.0 0.0
-516.4541336585759 -19.430737242709075 -185.82012729207574 65.00689814819916 0.0 0.0
-389.64806143459464 1.6122675240132263 -117.21429966311676 81.48763714469324 0.0 0.0
-264.5737639853212 4.780679684446344 -77.92008109433272 94.53596295578842 0.0 0.0
-160.0843589038869 -3.0763502145417365 -48.94821273552858 93.84974079812794 0.0 0.0
-77.97408649929898 -36.97383106875037 -34.48437527041479 65.17321927257134 0.0 0.0
-34.63376516685293 -34.487580273380665 -20.736403632070072 34.514541206764285 0.0 0.0
-32.596605984232994 -16.752613364650824 -14.80476580466514 -22.36653903195287 0.0 0.0
-79.612502054186 -25.532010432387388 -31.543353745972016 -44.05830481776813 0.0 0.0
-173.19435878567492 -1.781247977965068 -52.49268202909201 -65.76987507721478 0.0 0.0
-294.8346644129054 0.9834981956187505 -88.09137727029909 -65.75364109635125 0.0 0.0
-436.15879763400994 -9.788982431135668 -138.74594043198158 -51.70956615090797 0.0 0.0
-563.7447956513768 -28.055901750231317 -217.7860608592844 -41.895089592637056 0.0 0.0
-649.2021705675361 -43.78017640690615 -304.61768683755577 -41.165837616218546 0.0 0.0
-726.61805864608 -57.6888310001792 -375.56178995142363 -42.30485586566048 0.0 0.0
-795.313586962669 -74.96622395616367 -429.53509465870405 -43.28090282529215 0.0 0.0
-860.6236293661233 -94.49078472210047 -475.256784130116 -43.97215961768706 0.0 0.0
-926.0456054756994 -118.95265312209719 -521.076728487059 -43.935005511660194 0.0 0.0
-992.6184326202207 -148.52632862543436 -569.3708486835342 -43.10262755756515 0.0 0.0
-1060.1759620865655 -180.9463486451314 -619.3820149441415 -41.98609596464953 0.0 0.0
-1124.6369442376053 -213.52855728200288 -667.8647058876262 -40.8428583666773 0.0 0.0
-1182.284324319262 -240.32062355379068 -710.0397237903826 -39.57947080506407 0.0 0.0
-1227.429139638691 -256.4636272387527 -740.6668486905766 -37.635021105995385 0.0 0.0
-1252.2788270350452 -254.75381169346795 -752.4120545870658 -35.15575819076502 0.0 0.0
-1220.7337905055042 -201.45342403357597 -710.6842068228627 -35.69755768935018 0.0 0.0
-1043.532804466898 -12.749510949230313 -528.6447996763579 -45.63941667492127 0.0 0.0
-738.565222638113 283.8200347641054 -227.9233126687633 -67.3288903458057 0.0 0.0
-3464.879120386649 -2489.6904012067657 -2965.73070418307 -1.2609113753114798e-10 0.0 0.0
-738.565222637845 283.82003476428383 -227.9233126685624 67.32889034591342 0.0 0.0
-1043.5328044671949 -12.749510949577854 -528.6447996766851 45.63941667497279 0.0 0.0
-1220.7337905063946 -201.45342403456013 -710.6842068235435 35.69755768945013 0.0 0.0
-1252.278827034178 -254.75381169268312 -752.4120545864486 35.155758190735654 0.0 0.0
-1227.429139638406 -256.46362723863933 -740.6668486902337 37.63502110607769 0.0 0.0
-1182.2843243192028 -240.32062355384136 -710.0397237903416 39.57947080505723 0.0 0.0
-1124.6369442367115 -213.5285572812345 -667.8647058869064 40.8428583665719 0.0 0.0
-1060.175962086339 -180.9463486451331 -619.382014944091 41.98609596461073 0.0 0.0
-992.6184326202773 -148.52632862573466 -569.3708486835322 43.102627557661165 0.0 0.0
-926.0456054754943 -118.95265312213908 -521.0767284869277 43.93500551167932 0.0 0.0
-860.6236293656455 -94.4907847218759 -475.25678412976 43.97215961764288 0.0 0.0
-795.3135869616872 -74.96622395542185 -429.535094658046 43.28090282519032 0.0 0.0
-726.6180586461371 -57.68883100055585 -375.56178995131563 42.30485586564514 0.0 0.0
-649.2021705669582 -43.7801764066718 -304.617686837037 41.16583761624647 0.0 0.0
-563.7447956507365 -28.055901749900382 -217.78606085877362 41.895089592621595 0.0 0.0
-436.1587976336808 -9.788982431446207 -138.745940431934 51.70956615084262 0.0 0.0
-294.83466441275283 0.9834981954743642 -88.09137727029602 65.75364109636413 0.0 0.0
-173.19435878546213 -1.78124797790746 -52.49268202901087 65.76987507722538 0.0 0.0
-79.61250205415205 -25.532010432432024 -31.543353745975207 44.05830481774387 0.0 0.0
-32.59660598435798 -16.752613364698554 -14.80476580471696 22.366539031904267 0.0 0.0
-29.50062492889496 -9.617823651263839 -11.735534574047636 -12.712421931826292 0.0 0.0
-77.00756581128317 -16.427457510728658 -28.030506996603545 -22.06315513468084 0.0 0.0
-183.9646229126301 -1.4814535726680118 -55.63382294558942 -32.13389426343805 0.0 0.0
-326.75022530942533 -2.6690170420270087 -98.744920304216 -31.660823646964115 0.0 0.0
-484.83291491817624 -18.4157178199687 -161.7118307855969 -23.112095747153877 0.0 0.0
-597.7196148825578 -34.82728761694196 -247.455691231468 -20.9110283188291 0.0 0.0
-677.2949053798663 -46.052928215926514 -328.8316985916961 -21.858814366539995 0.0 0.0
-753.6259806054959 -64.37247462409705 -397.2279071691069 -22.520997257899104 0.0 0.0
-824.0269713534996 -84.13574363959738 -450.1965801857143 -22.91868613265339 0.0 0.0
-892.5325831041517 -107.41385310068343 -498.3574253417605 -23.29284741745182 0.0 0.0
-961.7736623435918 -135.45712169263166 -547.6029936482861 -23.356658610506422 0.0 0.0
-1032.486729778379 -167.90333133814124 -599.3396099635306 -23.112479015408823 0.0 0.0
-1103.267113493731 -204.23224088820442 -652.8974567472562 -22.606689210438624 0.0 0.0
-1171.0678888928194 -238.8085322664903 -704.0426205730795 -22.071843117361908 0.0 0.0
-1228.4451672018206 -264.9694305735991 -745.7851599016212 -21.425453290444615 0.0 0.0
-1268.8425061925 -276.409278981002 -771.7090580015986 -20.1840086813622 0.0 0.0
-1289.2936169569468 -270.8762400495496 -779.202344571001 -17.880797709127016 0.0 0.0
-1292.648515537363 -252.46696545802052 -771.8639664501377 -15.79959740275744 0.0 0.0
-1206.557643081692 -152.09242426328538 -679.5129430542336 -21.91460419617331 0.0 0.0
-724.2559279722561 326.90186458542735 -199.31523764490763 -49.144528056697 0.0 0.0
-3454.15788253148 -2443.5236538264635 -2940.149227475735 -4.1461944988441246e-11 0.0 0.0
-724.2559279717061 326.9018645859365 -199.31523764458643 49.14452805672662 0.0 0.0
-1206.5576430817555 -152.09242426339205 -679.5129430544239 21.91460419620525 0.0 0.0
-1292.6485155381135 -252.46696545886397 -771.8639664507082 15.799597402767478 0.0 0.0
-1289.2936169560992 -270.87624004878023 -779.2023445704148 17.880797709075168 0.0 0.0
-1268.8425061920652 -276.4092789807124 -771.709058001171 20.1840086813086 0.0 0.0
-1228.4451672016874 -264.96943057361005 -745.7851599014657 21.425453290411756 0.0 0.0
-1171.0678888927862 -238.80853226664127 -704.0426205730726 22.071843117468465 0.0 0.0
-1103.2671134930386 -204.2322408876976 -652.8974567468024 22.606689210488188 0.0 0.0
-1032.4867297778667 -167.90333133784623 -599.3396099631702 23.112479015313934 0.0 0.0
-961.7736623433427 -135.45712169263015 -547.6029936481198 23.356658610503867 0.0 0.0
-892.5325831034492 -107.41385310024216 -498.3574253412397 23.292847417462063 0.0 0.0
-824.0269713531655 -84.13574363951686 -450.1965801854619 22.918686132560047 0.0 0.0
-753.6259806048764 -64.3724746237929 -397.22790716862903 22.52099725782677 0.0 0.0
-677.2949053794212 -46.05292821577342 -328.8316985912731 21.858814366608343 0.0 0.0
-597.7196148820251 -34.82728761671643 -247.45569123099898 20.91102831884615 0.0 0.0
-484.8329149179245 -18.415717820250443 -161.71183078550007 23.112095747103425 0.0 0.0
-326.75022530908143 -2.6690170418633588 -98.74492030407986 31.66082364689511 0.0 0.0
-183.9646229125778 -1.4814535728966463 -55.63382294564232 32.13389426353524 0.0 0.0
-77.00756581120744 -16.427457510743874 -28.030506996585387 22.063155134642447 0.0 0.0
-29.50062492892167 -9.617823651293858 -11.735534574064658 12.712421931830406 0.0 0.0
-18.498020360544434 -4.736211834170991 -6.970269658414626 -7.942635606501259 0.0 0.0
-66.31544964028082 -9.232065969386094 -22.66425468290007 -9.158995601452244 0.0 0.0
-191.25538368324914 -2.808230602792854 -58.21908428581258 -10.913356886120232 0.0 0.0
-366.3689515643627 -15.08524000728379 -114.67113269337706 -9.30479691770414 0.0 0.0
-546.802692505284 -53.028591531815835 -199.60180430204505 -1.9186886047039629 0.0 0.0
-673.0620424424426 -92.35160516383412 -308.6190413926217 0.6296969107437 0.0 0.0
-775.5446602989313 -129.67808753524216 -413.2430390652528 0.7280087029844147 0.0 0.0
-883.6540087976151 -181.43871300731476 -512.3126231520922 -0.37151416634799617 0.0 0.0
-995.9397513756692 -244.03751348499577 -606.8724676280589 -1.7119884271694623 0.0 0.0
-1121.1950851386466 -323.8698431682185 -711.3905154087136 -3.1313251042620642 0.0 0.0
-1264.4673229211928 -425.3203010337375 -834.0838200230917 -4.515948606919444 0.0 0.0
-1426.193632222932 -549.2370642644951 -976.6726832735527 -5.710325887915888 0.0 0.0
-1602.0745670827112 -689.4736171635035 -1134.271191541212 -6.514800049211454 0.0 0.0
-1784.5495507834512 -838.3392276950759 -1299.4959241069434 -7.243347103871027 0.0 0.0
-1959.8393755069546 -982.0565336892143 -1458.633825341317 -7.724326008250799 0.0 0.0
-2108.43170699638 -1101.5575918768368 -1592.4717945037194 -7.722420693799162 0.0 0.0
-2205.8898536339343 -1173.4393195327943 -1677.2011607863496 -6.801468837240932 0.0 0.0
-2229.997943389242 -1176.595958817561 -1690.9400796339394 -4.722439380719813 0.0 0.0
-2234.4737240220065 -1165.8283304162842 -1686.8865315568055 -8.314583885886998 0.0 0.0
-2222.9839836458564 -1152.1540288107885 -1671.1156375998437 -37.74764663600564 0.0 0.0
-5444.03410783795 -4405.432539110732 -4898.643186490338 -2.702904566831421e-11 0.0 0.0
-2222.983983644861 -1152.1540288098274 -1671.115637599103 37.747646636003466 0.0 0.0
-2234.473724020775 -1165.8283304151037 -1686.8865315558253 8.314583885998026 0.0 0.0
-2229.9979433882036 -1176.5959588166056 -1690.94007963288 4.722439380695082 0.0 0.0
-2205.8898536325178 -1173.439319531473 -1677.2011607852032 6.8014688372688425 0.0 0.0
-2108.4317069950457 -1101.557591875634 -1592.4717945024765 7.72242069376675 0.0 0.0
-1959.8393755058614 -982.0565336882563 -1458.6338253402978 7.724326008184004 0.0 0.0
-1784.5495507835394 -838.3392276953606 -1299.4959241068598 7.243347103963458 0.0 0.0
-1602.0745670818833 -689.4736171628789 -1134.2711915404125 6.514800049237085 0.0 0.0
-1426.193632221221 -549.2370642629935 -976.6726832722214 5.7103258878025684 0.0 0.0
-1264.4673229209236 -425.3203010337138 -834.0838200227838 4.5159486068459 0.0 0.0
-1121.1950851375973 -323.86984316744577 -711.390515407865 3.131325104166283 0.0 0.0
-995.9397513757741 -244.0375134854198 -606.8724676279764 1.711988427210546 0.0 0.0
-883.6540087959033 -181.43871300584033 -512.3126231509334 0.3715141663558832 0.0 0.0
-775.5446602983969 -129.6780875350269 -413.24303906473085 -0.7280087029100848 0.0 0.0
-673.0620424420276 -92.35160516372889 -308.6190413921395 -0.6296969106199057 0.0 0.0
-546.8026925048764 -53.028591531730804 -199.60180430175654 1.9186886046740739 0.0 0.0
-366.3689515639138 -15.085240007186428 -114.671132693212 9.30479691762465 0.0 0.0
-191.25538368311118 -2.8082306029864093 -58.21908428582927 10.913356886256224 0.0 0.0
-66.31544964024462 -9.232065969359669 -22.664254682881282 9.158995601399841 0.0 0.0
-18.49802036057833 -4.736211834196341 -6.970269658432399 7.942635606506061 0.0 0.0
SCALARS Strain float 6
LOOKUP_TABLE default
0.012665507180920035 -0.021546430221875912 0.0 -0.0009708445619861365 0.0 0.0
0.007776531209024369 -0.0019587678829896767 0.0 -0.006617450535820171 0.0 0.0
0.002380412319502139 -0.0006108105872467157 0.0 -0.0006967597301873026 0.0 0.0
0.0020944204745343203 -0.000839150169262094 0.0 -2.4573497348611493e-05 0.0 0.0
0.0028887739941433803 -0.0012001612621875947 0.0 0.00010859704511225421 0.0 0.0
0.0045919723760171295 -0.002438949756988857 0.0 0.00022075387919925527 0.0 0.0
0.007491322185208878 -0.004847038408136287 0.0 0.0002945950100111071 0.0 0.0
0.01176938992229955 -0.008615789432604931 0.0 0.0003231714919478256 0.0 0.0
0.01758662232810862 -0.013894722479158683 0.0 0.0003130482916592488 0.0 0.0
0.02501423334926553 -0.020700285713578185 0.0 0.0002489857338717813 0.0 0.0
0.03405949876158819 -0.029006358048949 0.0 0.00017034558005275932 0.0 0.0
0.04471422604238043 -0.03880124686358913 0.0 7.331046936459075e-05 0.0 0.0
0.05695946357085606 -0.05009618053778042 0.0 -9.352076983463597e-05 0.0 0.0
0.07076685119868545 -0.06289731802250714 0.0 -0.00028230583583937444 0.0 0.0
0.08602474178325874 -0.07714329566447356 0.0 -0.0005410688212441935 0.0 0.0
0.10238009393953801 -0.09253516197698286 0.0 -0.0008771726272877779 0.0 0.0
0.11912180474509027 -0.10841262680203026 0.0 -0.0012326683920478056 0.0 0.0
0.13515657022294103 -0.12373459988691149 0.0 -0.001468931957185773 0.0 0.0
0.14911842805051614 -0.13715828323871004 0.0 -0.0014111961271714806 0.0 0.0
0.15940751917177048 -0.14714821489507868 0.0 -0.0014543599439470834 0.0 0.0
0.16341597315544285 -0.15120068843328224 0.0 8.664943762504151e-16 0.0 0.0
0.15940751917175056 -0.14714821489506166 0.0 0.0014543599439528895 0.0 0.0
0.14911842805047512 -0.13715828323867346 0.0 0.0014111961271799133 0.0 0.0
0.13515657022288258 -0.12373459988684965 0.0 0.0014689319571906225 0.0 0.0
0.11912180474502221 -0.1084126268019639 0.0 0.0012326683920460633 0.0 0.0
0.1023800939394661 -0.09253516197692283 0.0 0.0008771726272852375 0.0 0.0
0.08602474178318567 -0.07714329566440747 0.0 0.000541068821243094 0.0 0.0
0.07076685119861238 -0.06289731802243934 0.0 0.0002823058358380668 0.0 0.0
0.05695946357078514 -0.05009618053770974 0.0 9.352076983368002e-05 0.0 0.0
0.04471422604231466 -0.0388012468635252 0.0 -7.331046936579584e-05 0.0 0.0
0.03405949876153087 -0.029006358048896896 0.0 -0.00017034558005487774 0.0 0.0
0.025014233349219137 -0.020700285713535913 0.0 -0.0002489857338727055 0.0 0.0
0.017586622328072937 -0.013894722479125328 0.0 -0.00031304829166021146 0.0 0.0
0.011769389922273677 -0.00861578943258378 0.0 -0.00032317149194825354 0.0 0.0
0.0074913221851922365 -0.004847038408119307 0.0 -0.0002945950100112697 0.0 0.0
0.0045919723760077715 -0.002438949756980116 0.0 -0.00022075387919982632 0.0 0.0
0.002888773994139428 -0.001200161262186831 0.0 -0.00010859704511129522 0.0 0.0
0.002094420474533288 -0.0008391501692633883 0.0 2.45734973481897e-05 0.0 0.0
0.002380412319500336 -0.0006108105872461255 0.0 0.0006967597301865197 0.0 0.0
0.007776531209018552 -0.0019587678829868344 0.0 0.006617450535810523 0.0 0.0
0.012665507180911417 -0.02154643022185174 0.0 0.0009708445619462697 0.0 0.0
0.00869992880596503 -0.019247724861888516 0.0 -0.0005029941543610087 0.0 0.0
0.00512266793421806 -0.0014526333368861475 0.0 -0.0052803225849523275 0.0 0.0
0.0016094646175401457 -0.00048441986670712516 0.0 -0.00045365957117699516 0.0 0.0
0.0018636439905012217 -0.0007927256700359879 0.0 -0.00020564994787291565 0.0 0.0
0.002513961708578847 -0.0010922804143156132 0.0 -0.00015987182431961245 0.0 0.0
0.003960611185495319 -0.0021868091865022456 0.0 -0.00020283009318778825 0.0 0.0
0.006539506455645942 -0.004424894635000252 0.0 -0.000422225038154527 0.0 0.0
0.010419422032829275 -0.007987254385158482 0.0 -0.0007459097816209086 0.0 0.0
0.015723937610323258 -0.013008042543864994 0.0 -0.0011872668963346135 0.0 0.0
0.022479903065986424 -0.019482644023552022 0.0 -0.0017241170754826389 0.0 0.0
0.030659632321119075 -0.027366612245754283 0.0 -0.0022986365720456493 0.0 0.0
0.0402429944321336 -0.03663767255561588 0.0 -0.0028781305064908276 0.0 0.0
0.05124818003731438 -0.047319012781389995 0.0 -0.003502110340980943 0.0 0.0
0.06368383505971077 -0.05944158181024384 0.0 -0.004187620501197306 0.0 0.0
0.07746285310847992 -0.07295249568408443 0.0 -0.004923282644736843 0.0 0.0
0.09228178165518151 -0.08757738318204356 0.0 -0.005659455676840989 0.0 0.0
0.10750822410823097 -0.10270200461917896 0.0 -0.00621481182585867 0.0 0.0
0.12216528412802853 -0.11734620852585836 0.0 -0.006282325434705832 0.0 0.0
0.13495681488209285 -0.13021569653371218 0.0 -0.00560925993126321 0.0 0.0
0.14413067677714758 -0.1396829061231474 0.0 -0.0044873733135369865 0.0 0.0
0.14755656201784403 -0.1435677863800316 0.0 6.020791504246503e-15 0.0 0.0
0.14413067677712887 -0.13968290612312897 0.0 0.0044873733135530735 0.0 0.0
0.13495681488205635 -0.13021569653367296 0.0 0.005609259931280604 0.0 0.0
0.12216528412797742 -0.11734620852580935 0.0 0.006282325434716215 0.0 0.0
0.10750822410817096 -0.10270200461911372 0.0 0.006214811825859448 0.0 0.0
0.09228178165511744 -0.08757738318198639 0.0 0.005659455676837467 0.0 0.0
0.07746285310841408 -0.07295249568402266 0.0 0.004923282644735441 0.0 0.0
0.06368383505964492 -0.05944158181018021 0.0 0.004187620501196249 0.0 0.0
0.05124818003725065 -0.04731901278132367 0.0 0.00350211034097758 0.0 0.0
0.04024299443207436 -0.036637672555556534 0.0 0.00287813050648627 0.0 0.0
0.03065963232106749 -0.027366612245703595 0.0 0.0022986365720384042 0.0 0.0
0.022479903065944374 -0.01948264402351113 0.0 0.001724117075478868 0.0 0.0
0.015723937610290877 -0.013008042543835039 0.0 0.0011872668963312741 0.0 0.0
0.01041942203280598 -0.007987254385136797 0.0 0.0007459097816184756 0.0 0.0
0.006539506455631145 -0.0044248946349844664 0.0 0.00042222503815308115 0.0 0.0
0.003960611185487761 -0.0021868091864955404 0.0 0.00020283009318634634 0.0 0.0
0.0025139617085760467 -0.0010922804143142287 0.0 0.00015987182431998644 0.0 0.0
0.001863643990500566 -0.0007927256700358934 0.0 0.0002056499478720028 0.0 0.0
0.0016094646175397484 -0.00048441986670647995 0.0 0.00045365957117593275 0.0 0.0
0.005122667934211547 -0.0014526333368831716 0.0 0.005280322584941821 0.0 0.0
0.008699928805952469 -0.019247724861863637 0.0 0.0005029941543306093 0.0 0.0
0.0063089707678277915 -0.01525418444105241 0.0 -0.003248477907835721 0.0 0.0
0.0036018579398843843 -0.0007927515383478647 0.0 -0.005199465024928955 0.0 0.0
0.0011316211374041544 -0.000279822995489257 0.0 -0.00042992153450773635 0.0 0.0
0.0015899570400280695 -0.0006808430589251952 0.0 -0.0004793624352868014 0.0 0.0
0.00217407024476759 -0.0009088450251053426 0.0 -0.00047355623290827814 0.0 0.0
0.003360194703036653 -0.0017154716228439035 0.0 -0.0005342296434907779 0.0 0.0
0.005595091617196253 -0.003593341088351705 0.0 -0.0009463515394168497 0.0 0.0
0.009058194627319317 -0.006736597321826254 0.0 -0.0015843913210251697 0.0 0.0
0.013824745992928041 -0.011225946784659966 0.0 -0.002444782922153832 0.0 0.0
0.019891420568838632 -0.017030253760604627 0.0 -0.003471293790001473 0.0 0.0
0.027201999680244646 -0.024066917840403847 0.0 -0.004570176037681297 0.0 0.0
0.03572420815490334 -0.032296974543443026 0.0 -0.005662686228879127 0.0 0.0
0.045484593476330326 -0.041754307360090684 0.0 -0.006763313535018779 0.0 0.0
0.0565305932575106 -0.05250826900139034 0.0 -0.007960900681903775 0.0 0.0
0.06881366658799197 -0.06453911472750332 0.0 -0.00926153025607367 0.0 0.0
0.0820822867793535 -0.07762261834497927 0.0 -0.010534178702394283 0.0 0.0
0.09580800102997747 -0.09124252728409912 0.0 -0.01146867589380282 0.0 0.0
0.10912671097486587 -0.10454455188933433 0.0 -0.011586630131520151 0.0 0.0
0.1207808201393366 -0.11631038229186433 0.0 -0.010491273681381414 0.0 0.0
0.12917167486454295 -0.12489503989355163 0.0 -0.008082975237370315 0.0 0.0
0.13233600724038055 -0.12862256777348205 0.0 1.1772700869716601e-14 0.0 0.0
0.12917167486452596 -0.12489503989353795 0.0 0.008082975237401261 0.0 0.0
0.12078082013930375 -0.11631038229183005 0.0 0.010491273681410354 0.0 0.0
0.10912671097482113 -0.10454455188929629 0.0 0.011586630131535946 0.0 0.0
0.09580800102992487 -0.0912425272840449 0.0 0.01146867589380211 0.0 0.0
0.08208228677929633 -0.07762261834492576 0.0 0.010534178702390339 0.0 0.0
0.06881366658793323 -0.06453911472744556 0.0 0.009261530256069172 0.0 0.0
0.05653059325745195 -0.05250826900133473 0.0 0.007960900681900362 0.0 0.0
0.0454845934762737 -0.04175430736003393 0.0 0.006763313535011521 0.0 0.0
0.03572420815485021 -0.03229697454339299 0.0 0.005662686228870667 0.0 0.0
0.027201999680198447 -0.024066917840357374 0.0 0.004570176037670572 0.0 0.0
0.0198914205688012 -0.017030253760567878 0.0 0.003471293789994224 0.0 0.0
0.013824745992898858 -0.011225946784631272 0.0 0.002444782922148967 0.0 0.0
0.009058194627298372 -0.0067365973218078195 0.0 0.0015843913210204777 0.0 0.0
0.005595091617183228 -0.003593341088336849 0.0 0.0009463515394131448 0.0 0.0
0.0033601947030304745 -0.0017154716228389261 0.0 0.0005342296434897404 0.0 0.0
0.0021740702447655006 -0.0009088450251040279 0.0 0.0004735562329082002 0.0 0.0
0.0015899570400276393 -0.0006808430589243952 0.0 0.0004793624352858974 0.0 0.0
0.0011316211374042752 -0.0002798229954891746 0.0 0.00042992153450713516 0.0 0.0
0.0036018579398785595 -0.0007927515383449004 0.0 0.005199465024916227 0.0 0.0
0.006308970767815815 -0.015254184441028178 0.0 0.0032484779078151235 0.0 0.0
0.0047199412412782995 -0.012232740900173077 0.0 -0.003668697684642245 0.0 0.0
0.0026342014814348487 -0.0005761316601113999 0.0 -0.0047433980438604615 0.0 0.0
0.0008100734478331692 -0.00015862198360369178 0.0 -0.0007191777360357151 0.0 0.0
0.0013182176029673056 -0.0005470150929623621 0.0 -0.0007463346637710581 0.0 0.0
0.0018595855958290315 -0.0007689480909165904 0.0 -0.0007896285845810727 0.0 0.0
0.002808588091736685 -0.001328477918928218 0.0 -0.0008441168383526379 0.0 0.0
0.004675888529460665 -0.002806765000102475 0.0 -0.001297723223958823 0.0 0.0
0.007696199115275882 -0.00550352126470256 0.0 -0.0021972162499120465 0.0 0.0
0.01190635285909151 -0.009438427724059553 0.0 -0.0033774879672855093 0.0 0.0
0.01726929732930239 -0.014554346872591988 0.0 -0.004781153850191071 0.0 0.0
0.023705584573697144 -0.020739495417132593 0.0 -0.0062764284602376446 0.0 0.0
0.031171268469938083 -0.027935933099092557 0.0 -0.007759922502028029 0.0 0.0
0.03969503108121747 -0.03617646988024559 0.0 -0.009241954369874485 0.0 0.0
0.049338378871673264 -0.04555053487363077 0.0 -0.010816039587257928 0.0 0.0
0.06010172457868658 -0.05607943456233981 0.0 -0.012515359821176544 0.0 0.0
0.07180833456798837 -0.0676037036018302 0.0 -0.014195192710991511 0.0 0.0
0.08402615124592093 -0.0797113264937446 0.0 -0.015460619270642503 0.0 0.0
0.0960071864409324 -0.0916756347368422 0.0 -0.0157273506916297 0.0 0.0
0.10662075913621087 -0.10238028445137837 0.0 -0.014386040328843518 0.0 0.0
0.1144509677766253 -0.11035320572422638 0.0 -0.010731843507067533 0.0 0.0
0.11748303615857177 -0.11417962198885345 0.0 1.6988147000240872e-14 0.0 0.0
0.11445096777660937 -0.11035320572421194 0.0 0.010731843507107035 0.0 0.0
0.1066207591361816 -0.10238028445135203 0.0 0.014386040328880571 0.0 0.0
0.09600718644089296 -0.09167563473680308 0.0 0.015727350691652032 0.0 0.0
0.0840261512458751 -0.07971132649369944 0.0 0.01546061927064564 0.0 0.0
0.07180833456793853 -0.06760370360178258 0.0 0.014195192710987844 0.0 0.0
0.06010172457863487 -0.056079434562291225 0.0 0.012515359821170129 0.0 0.0
0.04933837887162208 -0.04555053487358208 0.0 0.010816039587252283 0.0 0.0
0.0396950310811681 -0.03617646988019611 0.0 0.009241954369865375 0.0 0.0
0.031171268469892176 -0.027935933099050177 0.0 0.007759922502018065 0.0 0.0
0.02370558457365694 -0.020739495417092624 0.0 0.00627642846022545 0.0 0.0
0.017269297329269274 -0.014554346872561727 0.0 0.00478115385018142 0.0 0.0
0.011906352859065845 -0.009438427724033104 0.0 0.0033774879672790374 0.0 0.0
0.007696199115257948 -0.005503521264689773 0.0 0.0021972162499055074 0.0 0.0
0.0046758885294500355 -0.002806765000089409 0.0 0.0012977232239543084 0.0 0.0
0.0028085880917319323 -0.0013284779189240276 0.0 0.0008441168383513868 0.0 0.0
0.0018595855958272382 -0.0007689480909164823 0.0 0.0007896285845802086 0.0 0.0
0.0013182176029669075 -0.0005470150929623186 0.0 0.0007463346637710985 0.0 0.0
0.0008100734478331764 -0.00015862198360400677 0.0 0.00071917773603546 0.0 0.0
0.002634201481429342 -0.0005761316601087052 0.0 0.004743398043848583 0.0 0.0
0.004719941241267462 -0.01223274090015167 0.0 0.003668697684626438 0.0 0.0
0.0035473114354028206 -0.009812632419462912 0.0 -0.003287863876733089 0.0 0.0
0.0019529158449741726 -0.0004799494296363826 0.0 -0.004247885861629696 0.0 0.0
0.0005886391082575174 -9.673994552839864e-05 0.0 -0.0010994958054496168 0.0 0.0
0.0010660925218800063 -0.00041537912247076173 0.0 -0.0010326005484015384 0.0 0.0
0.0015626831151768718 -0.0006460066793598849 0.0 -0.0011011824116341114 0.0 0.0
0.0023161377446120884 -0.0010324403654359225 0.0 -0.0011489898049922896 0.0 0.0
0.0038056129704685413 -0.0021105385941127095 0.0 -0.0015517352544659713 0.0 0.0
0.006347851782289388 -0.004302791819364237 0.0 -0.002544026739932352 0.0 0.0
0.009986959916107667 -0.007666780358950831 0.0 -0.003977780283279378 0.0 0.0
0.014632531605605289 -0.012078212203092291 0.0 -0.00564587778342157 0.0 0.0
0.02019121294769028 -0.017406501714931997 0.0 -0.007417605994179793 0.0 0.0
0.026602713086945073 -0.023573131066578643 0.0 -0.009169476847850886 0.0 0.0
0.03389165522465695 -0.030603368801590224 0.0 -0.010914069116584482 0.0 0.0
0.04213771795980211 -0.03859783370487175 0.0 -0.012750507971567453 0.0 0.0
0.051370674730026065 -0.04761315835779998 0.0 -0.014708098046979496 0.0 0.0
0.06148402106463058 -0.05755535318326646 0.0 -0.01663195380479218 0.0 0.0
0.07216465291237005 -0.06811872693629795 0.0 -0.01814601363801966 0.0 0.0
0.0828033931423336 -0.07872025180347589 0.0 -0.018635244526659298 0.0 0.0
0.09244612164862116 -0.08842507251594087 0.0 -0.017209002231684305 0.0 0.0
0.09985812015644858 -0.09596066283645006 0.0 -0.01275491766879722 0.0 0.0
0.10283925323688489 -0.10002383913743843 0.0 1.8267071882904773e-14 0.0 0.0
0.09985812015643403 -0.09596066283642961 0.0 0.01275491766884047 0.0 0.0
0.09244612164859506 -0.08842507251592047 0.0 0.017209002231727007 0.0 0.0
0.08280339314229922 -0.07872025180344105 0.0 0.018635244526684122 0.0 0.0
0.07216465291233058 -0.06811872693626157 0.0 0.018146013638024653 0.0 0.0
0.06148402106458761 -0.05755535318323038 0.0 0.01663195380478539 0.0 0.0
0.05137067472998156 -0.04761315835775871 0.0 0.01470809804697288 0.0 0.0
0.04213771795975836 -0.038597833704830165 0.0 0.01275050797156021 0.0 0.0
0.033891655224615076 -0.030603368801548403 0.0 0.01091406911657545 0.0 0.0
0.026602713086905812 -0.02357313106654043 0.0 0.009169476847839723 0.0 0.0
0.020191212947655728 -0.01740650171489992 0.0 0.00741760599416472 0.0 0.0
0.014632531605576891 -0.01207821220306815 0.0 0.005645877783407629 0.0 0.0
0.009986959916085614 -0.007666780358928366 0.0 0.0039777802832703015 0.0 0.0
0.006347851782274314 -0.004302791819353504 0.0 0.0025440267399245275 0.0 0.0
0.0038056129704598122 -0.0021105385941046126 0.0 0.001551735254461929 0.0 0.0
0.0023161377446086744 -0.0010324403654339068 0.0 0.001148989804990941 0.0 0.0
0.0015626831151757702 -0.0006460066793604931 0.0 0.0011011824116331618 0.0 0.0
0.0010660925218796465 -0.0004153791224707996 0.0 0.0010326005484011498 0.0 0.0
0.0005886391082577211 -9.673994552817869e-05 0.0 0.001099495805448483 0.0 0.0
0.0019529158449694793 -0.0004799494296343028 0.0 0.004247885861620197 0.0 0.0
0.003547311435393231 -0.009812632419444325 0.0 0.0032878638767229306 0.0 0.0
0.002640323688134122 -0.007804895697354739 0.0 -0.00274733693068464 0.0 0.0
0.0014434443227013638 -0.00042295950152564945 0.0 -0.003770105093682829 0.0 0.0
0.0004272557730154374 -7.12827936362745e-05 0.0 -0.00145953278300427 0.0 0.0
0.0008339394505570779 -0.0002960209165855394 0.0 -0.0013239174811104136 0.0 0.0
0.0012790471460994162 -0.0005284652512638117 0.0 -0.001397949607747243 0.0 0.0
0.001874224396385541 -0.0008043458586517139 0.0 -0.0014447949330951544 0.0 0.0
0.0030131671523473875 -0.0015383634348383796 0.0 -0.0017823296375466154 0.0 0.0
0.005045809177585476 -0.0031871753346168256 0.0 -0.002688491047026872 0.0 0.0
0.008076868774801415 -0.0059311992152963 0.0 -0.0042129831306884045 0.0 0.0
0.012000755982438573 -0.00962589776303261 0.0 -0.006054399273884089 0.0 0.0
0.016676979343014743 -0.014090634491541295 0.0 -0.00798163315550124 0.0 0.0
0.02203827457322778 -0.019230841234699918 0.0 -0.009886833289379613 0.0 0.0
0.02810030234613404 -0.025057888567163945 0.0 -0.01177021039273679 0.0 0.0
0.03494638006590489 -0.03167659192074882 0.0 -0.013733578954899435 0.0 0.0
0.04264661204879154 -0.0391743505923156 0.0 -0.015818976518102153 0.0 0.0
0.0511533676428929 -0.04751751723343864 0.0 -0.017863876028699145 0.0 0.0
0.060246185187064955 -0.056491554662314925 0.0 -0.019513323557281647 0.0 0.0
0.06950184354308811 -0.06567937411392108 0.0 -0.020204678496110337 0.0 0.0
0.07819952010499685 -0.07439947756899798 0.0 -0.01893255164725859 0.0 0.0
0.08528334272696772 -0.08159984563760639 0.0 -0.014224304131881048 0.0 0.0
0.08827056432282979 -0.08601421011406195 0.0 1.9609314172441827e-14 0.0 0.0
0.08528334272695509 -0.08159984563759279 0.0 0.014224304131923934 0.0 0.0
0.07819952010497432 -0.07439947756897843 0.0 0.018932551647301836 0.0 0.0
0.06950184354305859 -0.06567937411389238 0.0 0.020204678496136216 0.0 0.0
0.060246185187031606 -0.0564915546622826 0.0 0.01951332355728626 0.0 0.0
0.051153367642856516 -0.04751751723340687 0.0 0.017863876028691335 0.0 0.0
0.04264661204875384 -0.03917435059228235 0.0 0.015818976518095763 0.0 0.0
0.03494638006586863 -0.031676591920715626 0.0 0.01373357895489108 0.0 0.0
0.02810030234609934 -0.02505788856712926 0.0 0.011770210392727578 0.0 0.0
0.022038274573195328 -0.0192308412346686 0.0 0.009886833289365621 0.0 0.0
0.01667697934298603 -0.014090634491515337 0.0 0.007981633155484204 0.0 0.0
0.012000755982414693 -0.009625897763010103 0.0 0.006054399273869305 0.0 0.0
0.008076868774783075 -0.00593119921527718 0.0 0.004212983130679205 0.0 0.0
0.00504580917757338 -0.003187175334607018 0.0 0.0026884910470189555 0.0 0.0
0.0030131671523410276 -0.0015383634348336513 0.0 0.0017823296375426788 0.0 0.0
0.0018742243963831458 -0.0008043458586506252 0.0 0.0014447949330946355 0.0 0.0
0.001279047146098612 -0.0005284652512639594 0.0 0.0013979496077455877 0.0 0.0
0.0008339394505568679 -0.0002960209165859267 0.0 0.0013239174811089756 0.0 0.0
0.0004272557730153901 -7.128279363572684e-05 0.0 0.0014595327830023135 0.0 0.0
0.0014434443226976448 -0.0004229595015239938 0.0 0.003770105093674759 0.0 0.0
0.0026403236881268792 -0.0078048956973391015 0.0 0.0027473369306789037 0.0 0.0
0.0019303023893028804 -0.006119087312585525 0.0 -0.002247935566891155 0.0 0.0
0.001051094529362918 -0.0003837078211213602 0.0 -0.003338940807173956 0.0 0.0
0.00029951058771699043 -6.083990032968455e-05 0.0 -0.00175747676105445 0.0 0.0
0.0006178384815657562 -0.0001908330320680372 0.0 -0.0015973407250049264 0.0 0.0
0.0010027262400429198 -0.00040664093070258883 0.0 -0.0016641781647407595 0.0 0.0
0.0014688400767673704 -0.0006238895157212456 0.0 -0.0017392479472345865 0.0 0.0
0.0022992170137780318 -0.0010846990306257883 0.0 -0.001980012704533946 0.0 0.0
0.003831353557918021 -0.002218787395145325 0.0 -0.0027415813799175712 0.0 0.0
0.006215148657089504 -0.004283978983122752 0.0 -0.004123192805096951 0.0 0.0
0.009388683914391953 -0.007225067469192457 0.0 -0.0059717046721457405 0.0 0.0
0.013183081482388562 -0.010818184645196623 0.0 -0.007948206147555073 0.0 0.0
0.017496066673012713 -0.014932666747404916 0.0 -0.009894445555632035 0.0 0.0
0.022339367482257875 -0.01956651753864286 0.0 -0.011798336989978099 0.0 0.0
0.027796803546083968 -0.02481896562143774 0.0 -0.013758843429524268 0.0 0.0
0.03395838307343701 -0.030796946048576843 0.0 -0.015818367201599834 0.0 0.0
0.04083644464884296 -0.03752582590086629 0.0 -0.017861976110470395 0.0 0.0
0.048306692235640956 -0.044870587615728624 0.0 -0.019545038026669088 0.0 0.0
0.05611134307765478 -0.052570931689253905 0.0 -0.020388378568517787 0.0 0.0
0.06381341626793845 -0.06024728217094745 0.0 -0.019478124265473008 0.0 0.0
0.07060366758839688 -0.06714356905418893 0.0 -0.015113998862945871 0.0 0.0
0.07363888371810809 -0.07201842094054474 0.0 1.747733902046633e-14 0.0 0.0
0.07060366758838615 -0.06714356905418169 0.0 0.015113998862986346 0.0 0.0
0.06381341626791963 -0.06024728217092455 0.0 0.019478124265517597 0.0 0.0
0.056111343077630785 -0.052570931689233 0.0 0.02038837856854353 0.0 0.0
0.04830669223561364 -0.0448705876156984 0.0 0.019545038026673556 0.0 0.0
0.040836444648812906 -0.03752582590083791 0.0 0.017861976110460413 0.0 0.0
0.03395838307340665 -0.03079694604855345 0.0 0.015818367201590633 0.0 0.0
0.027796803546055536 -0.024818965621410605 0.0 0.01375884342951807 0.0 0.0
0.022339367482230744 -0.019566517538615203 0.0 0.011798336989968934 0.0 0.0
0.017496066672986626 -0.014932666747382532 0.0 0.00989444555561823 0.0 0.0
0.013183081482365473 -0.01081818464517706 0.0 0.00794820614753841 0.0 0.0
0.00938868391437294 -0.007225067469170636 0.0 0.005971704672131055 0.0 0.0
0.006215148657075076 -0.004283978983111131 0.0 0.004123192805088379 0.0 0.0
0.003831353557908922 -0.0022187873951375436 0.0 0.002741581379911959 0.0 0.0
0.0022992170137737075 -0.001084699030623915 0.0 0.0019800127045304745 0.0 0.0
0.0014688400767657321 -0.000623889515719771 0.0 0.0017392479472338935 0.0 0.0
0.0010027262400423174 -0.00040664093070271617 0.0 0.00166417816473842 0.0 0.0
0.0006178384815653206 -0.0001908330320679668 0.0 0.001597340725002748 0.0 0.0
0.0002995105877165275 -6.083990032893245e-05 0.0 0.0017574767610523353 0.0 0.0
0.0010510945293600651 -0.0003837078211204434 0.0 0.0033389408071664967 0.0 0.0
0.0019303023892974207 -0.0061190873125729715 0.0 0.00224793556688657 0.0 0.0
0.0013739969432893554 -0.004713373940376502 0.0 -0.0018679583248920112 0.0 0.0
0.0007430182105261741 -0.0003591410445904147 0.0 -0.002950328579861106 0.0 0.0
0.00018794150051706812 -4.9467224143376764e-05 0.0 -0.0019862398249121094 0.0 0.0
0.00041311156920928184 -9.805304680593404e-05 0.0 -0.0018348920051200995 0.0 0.0
0.0007266739378317393 -0.0002786806026354104 0.0 -0.001889993212591781 0.0 0.0
0.001090696810162747 -0.0004648459462107368 0.0 -0.0020133249765983486 0.0 0.0
0.0016600552506035196 -0.0007382690298987744 0.0 -0.002177349126283804 0.0 0.0
0.002719628781485596 -0.001423250501100767 0.0 -0.002720136110784228 0.0 0.0
0.0044507290968133625 -0.002804486104118943 0.0 -0.0038214393940980895 0.0 0.0
0.006833806542888475 -0.004935748607316693 0.0 -0.00542771699004021 0.0 0.0
0.009724077332529026 -0.00762563919710277 0.0 -0.007288815750242586 0.0 0.0
0.012994414197411859 -0.010711440210021102 0.0 -0.009151804511296335 0.0 0.0
0.016631557420352137 -0.014161534218936137 0.0 -0.01096806175815368 0.0 0.0
0.020710079353994947 -0.018061691516408095 0.0 -0.012800792456660636 0.0 0.0
0.025336124184768712 -0.022524481510128282 0.0 -0.014705086736176839 0.0 0.0
0.030571270132277173 -0.027620857892571272 0.0 -0.0165988809426623 0.0 0.0
0.03637236112145696 -0.033303617033635255 0.0 -0.01821087940079368 0.0 0.0
0.04263888964915868 -0.03943331159314061 0.0 -0.019112477296871253 0.0 0.0
0.04923346988810945 -0.045925420845199655 0.0 -0.01869738482434683 0.0 0.0
0.05568796871552642 -0.05245294536428767 0.0 -0.015322582130838924 0.0 0.0
0.05878579151602695 -0.057895264638371996 0.0 1.4984975066356654e-14 0.0 0.0
0.05568796871551814 -0.05245294536427976 0.0 0.015322582130878077 0.0 0.0
0.04923346988809474 -0.04592542084518294 0.0 0.018697384824389405 0.0 0.0
0.04263888964913984 -0.039433311593128545 0.0 0.019112477296894692 0.0 0.0
0.03637236112143557 -0.03330361703361104 0.0 0.01821087940079626 0.0 0.0
0.030571270132253837 -0.027620857892550074 0.0 0.01659888094265061 0.0 0.0
0.025336124184746456 -0.022524481510105592 0.0 0.014705086736167352 0.0 0.0
0.0207100793539745 -0.018061691516388218 0.0 0.01280079245665665 0.0 0.0
0.016631557420332014 -0.014161534218914635 0.0 0.010968061758144413 0.0 0.0
0.012994414197392576 -0.010711440210001914 0.0 0.009151804511283647 0.0 0.0
0.009724077332511688 -0.007625639197088524 0.0 0.00728881575022809 0.0 0.0
0.0068338065428745955 -0.0049357486073008895 0.0 0.005427716990026959 0.0 0.0
0.004450729096803616 -0.0028044861041121136 0.0 0.003821439394089854 0.0 0.0
0.0027196287814795455 -0.0014232505010981058 0.0 0.002720136110780219 0.0 0.0
0.0016600552506008824 -0.0007382690298970928 0.0 0.002177349126280864 0.0 0.0
0.0010906968101616241 -0.00046484594621056636 0.0 0.0020133249765957764 0.0 0.0
0.000726673937831163 -0.00027868060263504604 0.0 0.0018899932125899075 0.0 0.0
0.00041311156920938494 -9.805304680673568e-05 0.0 0.0018348920051179493 0.0 0.0
0.0001879415005168646 -4.946722414274509e-05 0.0 0.0019862398249102554 0.0 0.0
0.0007430182105238799 -0.00035914104459028675 0.0 0.0029503285798549938 0.0 0.0
0.0013739969432853825 -0.004713373940366828 0.0 0.001867958324889803 0.0 0.0
0.0009600562435512633 -0.0035874934952995433 0.0 -0.0016424640239389799 0.0 0.0
0.0005026195639437843 -0.0003500873442538754 0.0 -0.002615926803899151 0.0 0.0
7.7947335382892e-05 -2.6926622920041672e-05 0.0 -0.0021502053596111105 0.0 0.0
0.00021737100506126294 -1.4704029676157089e-05 0.0 -0.002024924680785263 0.0 0.0
0.0004491465518823831 -0.00014925495962628821 0.0 -0.0020695752303365213 0.0 0.0
0.0007184135251852105 -0.00030089484882389123 0.0 -0.002228075218846866 0.0 0.0
0.0010846186678098596 -0.0004731767346549462 0.0 -0.0024066220106178705 0.0 0.0
0.001724707527042446 -0.0008187206727899941 0.0 -0.0027051012038990245 0.0 0.0
0.002816352091820243 -0.0015706719601073125 0.0 -0.0034024300312151534 0.0 0.0
0.004388987090605767 -0.0028640267468518126 0.0 -0.004545398650522514 0.0 0.0
0.0063404195926072176 -0.004598638336316505 0.0 -0.006037245974769887 0.0 0.0
0.00855292179115007 -0.006632726719537173 0.0 -0.0076321734044143014 0.0 0.0
0.010991650145928266 -0.0088979553887153 0.0 -0.009246617184985194 0.0 0.0
0.013710109507039202 -0.011461375422240433 0.0 -0.010860107360298249 0.0 0.0
0.016806844379873502 -0.014417315298981874 0.0 -0.01249014807611176 0.0 0.0
0.02038214717100573 -0.017864932289765472 0.0 -0.014128576961049707 0.0 0.0
0.02448697389896692 -0.021850334119265066 0.0 -0.015599462424399593 0.0 0.0
0.02912294440311604 -0.02635006664136858 0.0 -0.01650402319922122 0.0 0.0
0.03440774385110514 -0.03145240018952347 0.0 -0.016427509526024373 0.0 0.0
0.04037963347930707 -0.03737729710877569 0.0 -0.014562844671693685 0.0 0.0
0.04351626085260798 -0.043464169366874916 0.0 1.2321307168994267e-14 0.0 0.0
0.0403796334793024 -0.03737729710876926 0.0 0.014562844671729688 0.0 0.0
0.03440774385109473 -0.031452400189509476 0.0 0.016427509526061517 0.0 0.0
0.029122944403102258 -0.026350066641360775 0.0 0.016504023199242473 0.0 0.0
0.024486973898951873 -0.02185033411924974 0.0 0.01559946242439901 0.0 0.0
0.020382147170989906 -0.017864932289751084 0.0 0.014128576961040182 0.0 0.0
0.016806844379859312 -0.014417315298965703 0.0 0.012490148076104312 0.0 0.0
0.013710109507026206 -0.011461375422227598 0.0 0.010860107360294972 0.0 0.0
0.010991650145915681 -0.008897955388700075 0.0 0.009246617184978888 0.0 0.0
0.00855292179113794 -0.006632726719524213 0.0 0.007632173404401426 0.0 0.0
0.006340419592595804 -0.004598638336306109 0.0 0.006037245974757166 0.0 0.0
0.004388987090596874 -0.002864026746844859 0.0 0.0045453986505123705 0.0 0.0
0.002816352091814442 -0.0015706719601036782 0.0 0.0034024300312092874 0.0 0.0
0.0017247075270389188 -0.0008187206727905035 0.0 0.0027051012038960126 0.0 0.0
0.0010846186678081051 -0.00047317673465346486 0.0 0.002406622010615692 0.0 0.0
0.0007184135251847517 -0.00030089484882417025 0.0 0.0022280752188436398 0.0 0.0
0.00044914655188233794 -0.00014925495962539714 0.0 0.0020695752303345064 0.0 0.0
0.00021737100506118585 -1.4704029677742804e-05 0.0 0.002024924680783817 0.0 0.0
7.794733538269146e-05 -2.692662291928872e-05 0.0 0.0021502053596087313 0.0 0.0
0.0005026195639422357 -0.0003500873442543635 0.0 0.002615926803894959 0.0 0.0
0.0009600562435485186 -0.0035874934952922735 0.0 0.0016424640239385286 0.0 0.0
0.000672011313022914 -0.0027224910020408567 0.0 -0.0015201278973161689 0.0 0.0
0.00032100317508537425 -0.00035709244754813824 0.0 -0.0023721975676930097 0.0 0.0
-3.3202255824672994e-05 8.758450487924724e-06 0.0 -0.002253060681484446 0.0 0.0
2.8359127176095315e-05 6.201066667534549e-05 0.0 -0.0021615616723401946 0.0 0.0
0.00017338834115431632 -2.1849602935967738e-05 0.0 -0.002197749215973872 0.0 0.0
0.0003388418922857072 -0.00012727114093860254 0.0 -0.0023645518325668075 0.0 0.0
0.0005386845012022365 -0.00023253991683661978 0.0 -0.002594292143815349 0.0 0.0
0.0008399222523350393 -0.0003760115766250919 0.0 -0.0028062708432894626 0.0 0.0
0.0013442293813991353 -0.0006634373057894366 0.0 -0.0031076347847374336 0.0 0.0
0.0021058560465949086 -0.0011993741244526312 0.0 -0.0036677863905017114 0.0 0.0
0.003087338224995178 -0.001973188398154092 0.0 -0.004560772044293397 0.0 0.0
0.0042091537111279215 -0.00291907986778791 0.0 -0.005700162344692957 0.0 0.0
0.005436119240907076 -0.0039772486970024185 0.0 -0.006961366261756663 0.0 0.0
0.006805960664069957 -0.005198850947408114 0.0 -0.00829757899576757 0.0 0.0
0.008385313855314248 -0.006647279280261369 0.0 -0.009708009563148193 0.0 0.0
0.010284342198631988 -0.008420240896713964 0.0 -0.011194930058770347 0.0 0.0
0.012651442878821887 -0.010657166291945332 0.0 -0.012642111805507911 0.0 0.0
0.01562764429393532 -0.013496914637658378 0.0 -0.013658119740212424 0.0 0.0
0.01939337187556163 -0.017084454754009007 0.0 -0.013672007765866826 0.0 0.0
0.024516213908524608 -0.02189599366292743 0.0 -0.012691585903077866 0.0 0.0
0.02752921113944852 -0.028512049456561633 0.0 1.091488011084607e-14 0.0 0.0
0.024516213908522374 -0.02189599366292495 0.0 0.012691585903106848 0.0 0.0
0.019393371875555655 -0.017084454753997697 0.0 0.013672007765894393 0.0 0.0
0.01562764429392706 -0.013496914637651559 0.0 0.013658119740225141 0.0 0.0
0.012651442878813774 -0.010657166291937093 0.0 0.012642111805503623 0.0 0.0
0.010284342198624473 -0.008420240896709029 0.0 0.011194930058763816 0.0 0.0
0.00838531385530818 -0.0066472792802512465 0.0 0.009708009563142687 0.0 0.0
0.006805960664064943 -0.005198850947404909 0.0 0.00829757899576469 0.0 0.0
0.005436119240901731 -0.00397724869699923 0.0 0.006961366261751225 0.0 0.0
0.004209153711122559 -0.0029190798677849747 0.0 0.005700162344682741 0.0 0.0
0.0030873382249903885 -0.0019731883981483726 0.0 0.004560772044284035 0.0 0.0
0.00210585604659146 -0.001199374124453455 0.0 0.0036677863904961867 0.0 0.0
0.0013442293813970036 -0.0006634373057898213 0.0 0.0031076347847355163 0.0 0.0
0.0008399222523335221 -0.0003760115766246856 0.0 0.002806270843288368 0.0 0.0
0.0005386845012015123 -0.00023253991683916284 0.0 0.002594292143813033 0.0 0.0
0.00033884189228560564 -0.00012727114093900058 0.0 0.002364551832564103 0.0 0.0
0.00017338834115450445 -2.1849602934945298e-05 0.0 0.00219774921597094 0.0 0.0
2.8359127176004913e-05 6.20106666748863e-05 0.0 0.002161561672338066 0.0 0.0
-3.320225582484461e-05 8.758450489248403e-06 0.0 0.002253060681482837 0.0 0.0
0.00032100317508465255 -0.0003570924475489053 0.0 0.0023721975676900897 0.0 0.0
0.0006720113130213308 -0.0027224910020360272 0.0 0.001520127897316061 0.0 0.0
0.0004692410688094071 -0.0020822323748334115 0.0 -0.0014527889461941556 0.0 0.0
0.0001841960892070779 -0.00036218242373736357 0.0 -0.0022044088244689564 0.0 0.0
-0.00013963513623025013 4.9179478424268746e-05 0.0 -0.002302130354807376 0.0 0.0
-0.0001544818747876511 0.00013503194569854378 0.0 -0.0022423288912574064 0.0 0.0
-9.797284356983008e-05 0.00010197075339671084 0.0 -0.0022687745167600634 0.0 0.0
-4.483259213316926e-05 4.884042645533868e-05 0.0 -0.0024236964186335544 0.0 0.0
-1.5358306641193975e-05 1.3270414976877253e-05 0.0 -0.002667285885120805 0.0 0.0
-3.7840814791989877e-06 2.5947779454436895e-06 0.0 -0.002899269004900833 0.0 0.0
-2.736935156282417e-07 -1.5647061796512007e-07 0.0 -0.003038222279370542 0.0 0.0
5.621596309350022e-07 -2.5792387072611823e-07 0.0 -0.00328797375739709 0.0 0.0
1.4501185375360775e-07 -7.990265150906097e-07 0.0 -0.0038248297995093225 0.0 0.0
-4.313347474460051e-06 3.411704061944689e-06 0.0 -0.004698085113931955 0.0 0.0
-1.6921688211861993e-05 1.4637830397595754e-05 0.0 -0.005746337487751998 0.0 0.0
-3.055735254645087e-05 3.011132445010034e-05 0.0 -0.006940188695413206 0.0 0.0
9.372393487813626e-08 1.4056506931608211e-05 0.0 -0.008294723808945153 0.0 0.0
0.0002008708914874607 -0.00013983374922075598 0.0 -0.00980252018111318 0.0 0.0
0.0008154226836082172 -0.0006445346087251009 0.0 -0.011408108388278044 0.0 0.0
0.002157579101613148 -0.0018036650441263062 0.0 -0.012935554451851823 0.0 0.0
0.0044468375462413 -0.003775238590885968 0.0 -0.014072222013467113 0.0 0.0
0.008210053201383488 -0.006804959249390902 0.0 -0.014497315410472472 0.0 0.0
0.010576668726054598 -0.013812761968657833 0.0 8.99714330815371e-15 0.0 0.0
0.008210053201383417 -0.0068049592493890235 0.0 0.014497315410490257 0.0 0.0
0.0044468375462395 -0.003775238590886618 0.0 0.014072222013481517 0.0 0.0
0.002157579101611926 -0.0018036650441262906 0.0 0.012935554451854993 0.0 0.0
0.0008154226836088542 -0.00064453460871859 0.0 0.011408108388271505 0.0 0.0
0.0002008708914886594 -0.0001398337492203184 0.0 0.009802520181104748 0.0 0.0
9.372393690830483e-08 1.4056506933368955e-05 0.0 0.008294723808939536 0.0 0.0
-3.055735254400133e-05 3.0111324447473482e-05 0.0 0.006940188695407726 0.0 0.0
-1.69216882095534e-05 1.4637830396041279e-05 0.0 0.005746337487745471 0.0 0.0
-4.313347471987799e-06 3.4117040612894245e-06 0.0 0.004698085113923639 0.0 0.0
1.4501185565914728e-07 -7.990265168372594e-07 0.0 0.0038248297995023195 0.0 0.0
5.621596322744255e-07 -2.579238742223043e-07 0.0 0.003287973757393488 0.0 0.0
-2.7369351463435356e-07 -1.5647061910516543e-07 0.0 0.003038222279370469 0.0 0.0
-3.7840814787723e-06 2.5947779459610606e-06 0.0 0.0028992690048990108 0.0 0.0
-1.5358306640936097e-05 1.3270414975878059e-05 0.0 0.0026672858851174578 0.0 0.0
-4.483259213294435e-05 4.884042645306923e-05 0.0 0.0024236964186313253 0.0 0.0
-9.79728435696436e-05 0.0001019707533980921 0.0 0.0022687745167580494 0.0 0.0
-0.00015448187478744334 0.00013503194569848952 0.0 0.002242328891255518 0.0 0.0
-0.00013963513623039094 4.917947842462014e-05 0.0 0.002302130354806339 0.0 0.0
0.00018419608920655688 -0.00036218242373759916 0.0 0.0022044088244666444 0.0 0.0
0.00046924106880882855 -0.0020822323748306724 0.0 0.0014527889461933027 0.0 0.0
0.0003308905906561984 -0.0016067708224648469 0.0 -0.0013866152030777986 0.0 0.0
8.306899608195188e-05 -0.0003483345334914814 0.0 -0.0020617107793762094 0.0 0.0
-0.00023896046552000598 8.714092942147064e-05 0.0 -0.002302137910448697 0.0 0.0
-0.00033018783004921 0.00020542195276006817 0.0 -0.0022661844854699508 0.0 0.0
-0.00036319636157166945 0.0002205071842128302 0.0 -0.002277775737472428 0.0 0.0
-0.00042466300835644177 0.0002232499931664992 0.0 -0.0024059321923697915 0.0 0.0
-0.0005685599563125262 0.0002588635991589128 0.0 -0.002613123825429928 0.0 0.0
-0.000847652488220041 0.00038126599614428315 0.0 -0.0028143460508359788 0.0 0.0
-0.0013444438040196892 0.0006629760982881608 0.0 -0.003110776727293634 0.0 0.0
-0.0021040208941255824 0.0011979894783006521 0.0 -0.00366648993756721 0.0 0.0
-0.003086840707794392 0.001972330817909529 0.0 -0.004556824981582229 0.0 0.0
-0.004219136811144789 0.0029273357188632216 0.0 -0.005698166542920644 0.0 0.0
-0.005471238202161634 0.004008725045055266 0.0 -0.0069567213632767974 0.0 0.0
-0.0068655207040160225 0.005260875821193778 0.0 -0.008286936733595157 0.0 0.0
-0.008380220918600656 0.006675731708606707 0.0 -0.009715462046658513 0.0 0.0
-0.009887648055797267 0.008136529001939199 0.0 -0.011325060327319718 0.0 0.0
-0.011107784781306702 0.009372366529713653 0.0 -0.013180310275571044 0.0 0.0
-0.011634967361909216 0.009963252432846143 0.0 -0.015354017878095282 0.0 0.0
-0.011009941868492237 0.00955524583194877 0.0 -0.017759142338576842 0.0 0.0
-0.007769305215696777 0.007232246792716493 0.0 -0.018793112713480213 0.0 0.0
-0.0051885832055648656 -0.0004891031595268447 0.0 1.1438766600591066e-14 0.0 0.0
-0.007769305215697056 0.0072322467927170755 0.0 0.018793112713498268 0.0 0.0
-0.0110099418684893 0.009555245831947808 0.0 0.01775914233859144 0.0 0.0
-0.011634967361901859 0.009963252432835135 0.0 0.015354017878100343 0.0 0.0
-0.011107784781296282 0.009372366529706272 0.0 0.013180310275563299 0.0 0.0
-0.009887648055787027 0.008136529001927564 0.0 0.011325060327311034 0.0 0.0
-0.008380220918591176 0.006675731708598202 0.0 0.00971546204665025 0.0 0.0
-0.006865520704006202 0.005260875821193064 0.0 0.008286936733586183 0.0 0.0
-0.005471238202151235 0.004008725045048317 0.0 0.00695672136326949 0.0 0.0
-0.004219136811134636 0.002927335718857471 0.0 0.00569816654290887 0.0 0.0
-0.003086840707785506 0.001972330817901541 0.0 0.004556824981569991 0.0 0.0
-0.0021040208941191635 0.001197989478295531 0.0 0.0036664899375610516 0.0 0.0
-0.001344443804015928 0.0006629760982891768 0.0 0.0031107767272924667 0.0 0.0
-0.000847652488218077 0.00038126599614240087 0.0 0.0028143460508340116 0.0 0.0
-0.0005685599563111812 0.0002588635991614533 0.0 0.0026131238254256377 0.0 0.0
-0.0004246630083555214 0.00022324999316464267 0.0 0.002405932192368051 0.0 0.0
-0.0003631963615711218 0.0002205071842134532 0.0 0.00227777573747085 0.0 0.0
-0.00033018783004889264 0.0002054219527594818 0.0 0.002266184485467807 0.0 0.0
-0.0002389604655199851 8.714092942073538e-05 0.0 0.0023021379104467337 0.0 0.0
8.306899608173565e-05 -0.0003483345334916444 0.0 0.0020617107793740102 0.0 0.0
0.0003308905906557972 -0.0016067708224628365 0.0 0.0013866152030761972 0.0 0.0
0.0002304989472242458 -0.00122112462280148 0.0 -0.0012717300161058892 0.0 0.0
4.055479467183439e-06 -0.00031671199650797576 0.0 -0.0019156356799609553 0.0 0.0
-0.0003310812220623282 0.0001225434038407355 0.0 -0.002250784240859237 0.0 0.0
-0.0004976092097277224 0.0002721168438044891 0.0 -0.002232761745044162 0.0 0.0
-0.0006204383998534621 0.0003328614277298857 0.0 -0.002221960057938284 0.0 0.0
-0.0007952766164011899 0.000390517140972591 0.0 -0.0023073222219085372 0.0 0.0
-0.0011117135838295863 0.0005002431999000865 0.0 -0.002445260450606278 0.0 0.0
-0.0017310653144046368 0.0008238057357665065 0.0 -0.0027218622832721902 0.0 0.0
-0.0028153555843374316 0.0015688680199041373 0.0 -0.0034044412004574738 0.0 0.0
-0.00438649816563639 0.0028615220484560617 0.0 -0.004541257187123893 0.0 0.0
-0.0063409596949907734 0.0045994129446527525 0.0 -0.006034571075166679 0.0 0.0
-0.008562813401685368 0.006642296023578114 0.0 -0.0076297778427888655 0.0 0.0
-0.011022330770978174 0.008927681859186475 0.0 -0.00922358983081274 0.0 0.0
-0.013761958264250713 0.011517182300832244 0.0 -0.010797663642397594 0.0 0.0
-0.01680072445267224 0.014441980758338586 0.0 -0.01244319419595274 0.0 0.0
-0.020019723995841652 0.017602175751053353 0.0 -0.014365408709834904 0.0 0.0
-0.023093063444927 0.02067580827796632 0.0 -0.016794053344302475 0.0 0.0
-0.025486428793654124 0.023123566224507983 0.0 -0.019842180809863073 0.0 0.0
-0.026183799714526983 0.024048009356874064 0.0 -0.022900845511256915 0.0 0.0
-0.02325032432119191 0.021498074586586206 0.0 -0.023547859673548745 0.0 0.0
-0.020566850417521876 0.011915547430601277 0.0 1.3712121715858672e-14 0.0 0.0
-0.023250324321190566 0.02149807458658471 0.0 0.023547859673579953 0.0 0.0
-0.026183799714519815 0.024048009356869248 0.0 0.02290084551128487 0.0 0.0
-0.02548642879364033 0.02312356622449425 0.0 0.01984218080987487 0.0 0.0
-0.023093063444908357 0.020675808277947766 0.0 0.016794053344297385 0.0 0.0
-0.02001972399582292 0.017602175751034736 0.0 0.014365408709824567 0.0 0.0
-0.016800724452655246 0.014441980758324414 0.0 0.012443194195943986 0.0 0.0
-0.013761958264232967 0.011517182300816175 0.0 0.010797663642387968 0.0 0.0
-0.011022330770960202 0.008927681859170367 0.0 0.00922358983080346 0.0 0.0
-0.008562813401668116 0.006642296023562348 0.0 0.007629777842772741 0.0 0.0
-0.006340959694975183 0.0045994129446380715 0.0 0.0060345710751502895 0.0 0.0
-0.004386498165624625 0.0028615220484448944 0.0 0.004541257187113436 0.0 0.0
-0.0028153555843297273 0.0015688680199008338 0.0 0.0034044412004519096 0.0 0.0
-0.00173106531440044 0.0008238057357619811 0.0 0.00272186228327007 0.0 0.0
-0.0011117135838272778 0.0005002431999005147 0.0 0.0024452604506039867 0.0 0.0
-0.0007952766163998404 0.00039051714097241365 0.0 0.0023073222219059347 0.0 0.0
-0.0006204383998528069 0.00033286142772973406 0.0 0.0022219600579364207 0.0 0.0
-0.0004976092097273201 0.0002721168438039989 0.0 0.0022327617450418097 0.0 0.0
-0.00033108122206209495 0.00012254340384053376 0.0 0.0022507842408581863 0.0 0.0
4.055479467064167e-06 -0.0003167119965083174 0.0 0.001915635679958636 0.0 0.0
0.00023049894722371167 -0.00122112462279982 0.0 0.0012717300161049477 0.0 0.0
0.00014649707875732167 -0.0008937610785339576 0.0 -0.0011207155375980537 0.0 0.0
-6.459863122554505e-05 -0.00027036644275227437 0.0 -0.0017504760423019887 0.0 0.0
-0.00041698608122066165 0.00015675160927589035 0.0 -0.002147235410771055 0.0 0.0
-0.000656372173190625 0.00033438131575852487 0.0 -0.0021430937701773065 0.0 0.0
-0.0008671411866795168 0.0004375959726739112 0.0 -0.0021059866535585456 0.0 0.0
-0.0011531269127361937 0.0005456332761007622 0.0 -0.002122708623447959 0.0 0.0
-0.0016834060378628632 0.0007671848453896532 0.0 -0.0022353768557271184 0.0 0.0
-0.002723457535123912 0.001425730686808719 0.0 -0.002738231954668858 0.0 0.0
-0.004447367166058292 0.0028003313212953446 0.0 -0.0038186939849516313 0.0 0.0
-0.006831817345889068 0.004933636639639373 0.0 -0.005422498525180613 0.0 0.0
-0.009726061934586732 0.007628366750145759 0.0 -0.007287931777201984 0.0 0.0
-0.013002067216629457 0.010719964265820899 0.0 -0.009147148297471822 0.0 0.0
-0.016649454477037178 0.014179586330778302 0.0 -0.010927106584499767 0.0 0.0
-0.02073868865048975 0.01809192208974518 0.0 -0.01267673425491384 0.0 0.0
-0.025323960847797977 0.02253275745816304 0.0 -0.014552418920199437 0.0 0.0
-0.030303448843115484 0.02742977444722875 0.0 -0.01685115822577388 0.0 0.0
-0.03529583717882755 0.03241947693178844 0.0 -0.019999069930474535 0.0 0.0
-0.039473390586255215 0.03672538363866982 0.0 -0.024069981864711237 0.0 0.0
-0.04131003332045564 0.03884503516795677 0.0 -0.027933100588413695 0.0 0.0
-0.03801835631797811 0.03621081148063531 0.0 -0.029184257939150658 0.0 0.0
-0.03463664904297082 0.023914322855345005 0.0 1.4275039483813146e-14 0.0 0.0
-0.03801835631797407 0.036210811480632175 0.0 0.02918425793918543 0.0 0.0
-0.04131003332044456 0.03884503516794625 0.0 0.02793310058844852 0.0 0.0
-0.03947339058623576 0.03672538363865361 0.0 0.024069981864728557 0.0 0.0
-0.035295837178802275 0.03241947693176046 0.0 0.019999069930473217 0.0 0.0
-0.030303448843089317 0.027429774447203882 0.0 0.016851158225759895 0.0 0.0
-0.025323960847773 0.022532757458142576 0.0 0.01455241892018706 0.0 0.0
-0.020738688650464458 0.018091922089715332 0.0 0.012676734254902377 0.0 0.0
-0.016649454477011907 0.01417958633075548 0.0 0.010927106584486913 0.0 0.0
-0.013002067216605242 0.010719964265797178 0.0 0.009147148297455925 0.0 0.0
-0.009726061934564632 0.007628366750124838 0.0 0.007287931777184431 0.0 0.0
-0.0068318173458718975 0.0049336366396244054 0.0 0.005422498525166528 0.0 0.0
-0.004447367166046407 0.0028003313212840203 0.0 0.003818693984943859 0.0 0.0
-0.00272345753511668 0.001425730686803455 0.0 0.0027382319546654385 0.0 0.0
-0.0016834060378592046 0.0007671848453851389 0.0 0.0022353768557258407 0.0 0.0
-0.0011531269127345609 0.0005456332761004101 0.0 0.0021227086234446935 0.0 0.0
-0.0008671411866787054 0.0004375959726742591 0.0 0.0021059866535569696 0.0 0.0
-0.0006563721731899715 0.00033438131575946726 0.0 0.002143093770175787 0.0 0.0
-0.00041698608122022135 0.0001567516092756967 0.0 0.002147235410770336 0.0 0.0
-6.459863122552257e-05 -0.0002703664427523253 0.0 0.0017504760422998532 0.0 0.0
0.00014649707875723326 -0.0008937610785329669 0.0 0.0011207155375973486 0.0 0.0
7.256901467891976e-05 -0.0006185710753184437 0.0 -0.0009574089478994528 0.0 0.0
-0.0001275846459567201 -0.00021247871962596084 0.0 -0.001559616652082322 0.0 0.0
-0.0004987289381680952 0.00019112637854024205 0.0 -0.0019917812727790985 0.0 0.0
-0.0008071131146623956 0.00039222852486315787 0.0 -0.001998074421003422 0.0 0.0
-0.001100187226997071 0.0005316408220673581 0.0 -0.0019266418145965844 0.0 0.0
-0.0015139116878236528 0.0006946659311682164 0.0 -0.0018696196052365869 0.0 0.0
-0.0023161739196970897 0.0011111860129927617 0.0 -0.002043193908626965 0.0 0.0
-0.0038300393365386237 0.002216229006250496 0.0 -0.0027527414475457925 0.0 0.0
-0.006211088152650484 0.004278713794286329 0.0 -0.0041164760064504825 0.0 0.0
-0.00938829697929651 0.007224699958938813 0.0 -0.005966991519987216 0.0 0.0
-0.013186415442931561 0.010822711992609277 0.0 -0.007948188503445513 0.0 0.0
-0.017499515081180285 0.014938661248175132 0.0 -0.009887350442110268 0.0 0.0
-0.02233707066947483 0.019566806062698974 0.0 -0.01174480160408959 0.0 0.0
-0.027785633787345013 0.02480724091069846 0.0 -0.013590305282306687 0.0 0.0
-0.03393058826234313 0.03077222597302958 0.0 -0.015570930639557723 0.0 0.0
-0.04070054439246343 0.037433020965508636 0.0 -0.01805822590909179 0.0 0.0
-0.04762016444295776 0.04436664391431937 0.0 -0.021563647460714312 0.0 0.0
-0.053522556205693565 0.050467896496181525 0.0 -0.02618432640437417 0.0 0.0
-0.05626419084723533 0.05364466284591625 0.0 -0.03084226373115715 0.0 0.0
-0.052268805508677546 0.05047587004269834 0.0 -0.032896360720472785 0.0 0.0
-0.04803135468904236 0.035528314717589084 0.0 1.7513768213461844e-14 0.0 0.0
-0.05226880550867033 0.05047587004269192 0.0 0.03289636072051121 0.0 0.0
-0.05626419084721965 0.053644662845904086 0.0 0.0308422637311943 0.0 0.0
-0.05352255620566897 0.05046789649616012 0.0 0.02618432640439512 0.0 0.0
-0.04762016444292657 0.04436664391428277 0.0 0.021563647460715225 0.0 0.0
-0.04070054439243024 0.03743302096547548 0.0 0.018058225909083857 0.0 0.0
-0.033930588262310206 0.030772225973001 0.0 0.01557093063954704 0.0 0.0
-0.027785633787312407 0.024807240910669232 0.0 0.013590305282295108 0.0 0.0
-0.022337070669442283 0.01956680606266831 0.0 0.011744801604075292 0.0 0.0
-0.017499515081148918 0.014938661248145784 0.0 0.009887350442093426 0.0 0.0
-0.01318641544290335 0.010822711992582962 0.0 0.007948188503426431 0.0 0.0
-0.009388296979274003 0.007224699958918002 0.0 0.0059669915199712185 0.0 0.0
-0.006211088152634439 0.0042787137942695615 0.0 0.004116476006440727 0.0 0.0
-0.003830039336528251 0.002216229006241758 0.0 0.0027527414475405003 0.0 0.0
-0.002316173919691536 0.0011111860129886296 0.0 0.002043193908623086 0.0 0.0
-0.0015139116878214356 0.0006946659311674557 0.0 0.0018696196052360972 0.0 0.0
-0.0011001872269959829 0.0005316408220681068 0.0 0.0019266418145947044 0.0 0.0
-0.0008071131146615929 0.00039222852486306447 0.0 0.001998074421002284 0.0 0.0
-0.000498728938167622 0.00019112637853922241 0.0 0.0019917812727769015 0.0 0.0
-0.00012758464595633928 -0.0002124787196258101 0.0 0.001559616652080466 0.0 0.0
7.256901467927857e-05 -0.0006185710753178532 0.0 0.0009574089478969994 0.0 0.0
7.487119663326018e-06 -0.0003930198760582334 0.0 -0.0007888270404324269 0.0 0.0
-0.00018596818899903138 -0.00014761144902365695 0.0 -0.001343915288388756 0.0 0.0
-0.0005772403526052201 0.00022655081617490832 0.0 -0.0017849841886702685 0.0 0.0
-0.0009488842101310513 0.00044541649428832383 0.0 -0.0017975351432389921 0.0 0.0
-0.0013233787204621201 0.000614774891880809 0.0 -0.0016856985681605466 0.0 0.0
-0.001896706583104612 0.000862331756524838 0.0 -0.0015888487552895225 0.0 0.0
-0.0030218699148485987 0.0015564961977010928 0.0 -0.0018336686163662737 0.0 0.0
-0.005042025952903449 0.0031809117943090944 0.0 -0.002691439504983665 0.0 0.0
-0.008073684879803455 0.00592721430142384 0.0 -0.004204802526194967 0.0 0.0
-0.012002410807808417 0.009627719808581387 0.0 -0.006051006775592823 0.0 0.0
-0.016680941737479603 0.014096140941522048 0.0 -0.007981508195499464 0.0 0.0
-0.022035998095722223 0.019232756148609236 0.0 -0.009876173532751753 0.0 0.0
-0.028074059983731754 0.02503761861419314 0.0 -0.011709586135333254 0.0 0.0
-0.03488635617289308 0.031615674960697164 0.0 -0.013554477166311182 0.0 0.0
-0.04258859143847216 0.039101315228394405 0.0 -0.015536141261761453 0.0 0.0
-0.051127073850757966 0.04750073159684933 0.0 -0.017934510126060888 0.0 0.0
-0.05992989909782072 0.056337993231365305 0.0 -0.021297270427878996 0.0 0.0
-0.0674916335021307 0.06418996030033076 0.0 -0.026000139989314424 0.0 0.0
-0.07102694672622371 0.0683142595096039 0.0 -0.031309719836453996 0.0 0.0
-0.06631421362516023 0.06454521384225678 0.0 -0.03520857890350398 0.0 0.0
-0.06127680339598837 0.04716056529576754 0.0 1.808102279010626e-14 0.0 0.0
-0.06631421362515096 0.06454521384224335 0.0 0.035208578903542107 0.0 0.0
-0.07102694672620354 0.06831425950958325 0.0 0.031309719836490855 0.0 0.0
-0.06749163350210079 0.06418996030030479 0.0 0.026000139989336035 0.0 0.0
-0.059929899097784026 0.05633799323132781 0.0 0.021297270427880065 0.0 0.0
-0.05112707385071805 0.04750073159681611 0.0 0.0179345101260544 0.0 0.0
-0.0425885914384319 0.03910131522835403 0.0 0.015536141261751565 0.0 0.0
-0.0348863561728533 0.031615674960664614 0.0 0.013554477166299182 0.0 0.0
-0.02807405998369198 0.02503761861415346 0.0 0.011709586135319746 0.0 0.0
-0.02203599809568395 0.01923275614857441 0.0 0.00987617353273565 0.0 0.0
-0.016680941737445824 0.014096140941487124 0.0 0.007981508195479128 0.0 0.0
-0.012002410807780967 0.009627719808554147 0.0 0.006051006775578056 0.0 0.0
-0.008073684879782717 0.005927214301403965 0.0 0.0042048025261846155 0.0 0.0
-0.0050420259528900085 0.0031809117942959604 0.0 0.0026914395049774764 0.0 0.0
-0.003021869914841346 0.0015564961976982335 0.0 0.0018336686163615452 0.0 0.0
-0.0018967065831014046 0.0008623317565226375 0.0 0.0015888487552904425 0.0 0.0
-0.001323378720460821 0.000614774891879806 0.0 0.001685698568159326 0.0 0.0
-0.0009488842101302536 0.0004454164942863766 0.0 0.0017975351432372956 0.0 0.0
-0.0005772403526047643 0.00022655081617392473 0.0 0.0017849841886677783 0.0 0.0
-0.00018596818899881584 -0.0001476114490240133 0.0 0.0013439152883869506 0.0 0.0
7.487119663491187e-06 -0.0003930198760577691 0.0 0.0007888270404307343 0.0 0.0
-4.771388230159181e-05 -0.0002164545325585214 0.0 -0.0006178904645652429 0.0 0.0
-0.00023866674846500895 -8.050718709165371e-05 0.0 -0.0011055297302994271 0.0 0.0
-0.0006523032478713108 0.0002627433458633423 0.0 -0.001528091521998008 0.0 0.0
-0.0010832159388858371 0.0004937955265169726 0.0 -0.0015413854577731505 0.0 0.0
-0.0015478001655482652 0.0006911894950366314 0.0 -0.001392288043889134 0.0 0.0
-0.002313387075053998 0.0010706215609449395 0.0 -0.0012862795960414176 0.0 0.0
-0.003804150022079863 0.0021169744543379702 0.0 -0.0015872990693588725 0.0 0.0
-0.006343899296174067 0.004297362790529815 0.0 -0.002539913581993999 0.0 0.0
-0.0099866752970531 0.007665882851781113 0.0 -0.003970460118403608 0.0 0.0
-0.014636055908254147 0.012081977912190593 0.0 -0.005644239903922242 0.0 0.0
-0.020194506429073906 0.01741174307515759 0.0 -0.007417161877686396 0.0 0.0
-0.026593106192139827 0.023569041002812575 0.0 -0.00915460541783303 0.0 0.0
-0.03384282285201587 0.030563236890601295 0.0 -0.010852148204272298 0.0 0.0
-0.04203194503263896 0.03849365562042948 0.0 -0.0125968640262062 0.0 0.0
-0.05126116669617118 0.04748191169195296 0.0 -0.014465949891254585 0.0 0.0
-0.06148555279528724 0.05753597143330938 0.0 -0.016559002793162428 0.0 0.0
-0.0720891920589613 0.06816936713996384 0.0 -0.01929623094455054 0.0 0.0
-0.08126410693138196 0.07772204144602662 0.0 -0.023497328645410147 0.0 0.0
-0.08565597474863586 0.08286056950462034 0.0 -0.029456454185414184 0.0 0.0
-0.08044263353749449 0.0787281869578503 0.0 -0.03642873328269269 0.0 0.0
-0.07474824199442567 0.05917491645472672 0.0 1.606527411102121e-14 0.0 0.0
-0.08044263353748231 0.07872818695783546 0.0 0.03642873328273035 0.0 0.0
-0.08565597474861077 0.08286056950459214 0.0 0.029456454185450842 0.0 0.0
-0.08126410693134688 0.07772204144599303 0.0 0.023497328645431966 0.0 0.0
-0.07208919205891907 0.06816936713992225 0.0 0.019296230944553565 0.0 0.0
-0.061485552795240664 0.057535971433266955 0.0 0.016559002793157734 0.0 0.0
-0.05126116669612398 0.047481911691906235 0.0 0.014465949891247158 0.0 0.0
-0.04203194503259199 0.038493655620390796 0.0 0.012596864026195576 0.0 0.0
-0.03384282285196881 0.03056323689055767 0.0 0.010852148204260177 0.0 0.0
-0.02659310619209529 0.023569041002771955 0.0 0.009154605417818833 0.0 0.0
-0.020194506429034472 0.017411743075116316 0.0 0.007417161877668176 0.0 0.0
-0.01463605590822167 0.01208197791216091 0.0 0.0056442399039083645 0.0 0.0
-0.009986675297028418 0.0076658828517590025 0.0 0.003970460118394344 0.0 0.0
-0.006343899296157382 0.004297362790513319 0.0 0.0025399135819869946 0.0 0.0
-0.0038041500220702207 0.0021169744543332644 0.0 0.0015872990693544947 0.0 0.0
-0.0023133870750496315 0.0010706215609426152 0.0 0.001286279596040342 0.0 0.0
-0.001547800165546942 0.0006911894950351162 0.0 0.0013922880438890324 0.0 0.0
-0.0010832159388852586 0.0004937955265169332 0.0 0.0015413854577717792 0.0 0.0
-0.0006523032478709923 0.0002627433458627567 0.0 0.0015280915219967428 0.0 0.0
-0.00023866674846481276 -8.050718709208226e-05 0.0 0.0011055297302981306 0.0 0.0
-4.771388230132607e-05 -0.0002164545325582727 0.0 0.0006178904645653818 0.0 0.0
-9.033284997623427e-05 -8.93826481686754e-05 0.0 -0.0004486890356888201 0.0 0.0
-0.00028268312298804617 -1.6181462689077203e-05 0.0 -0.0008472518505434818 0.0 0.0
-0.0007223849500949541 0.0002981671063862736 0.0 -0.0012200466303771977 0.0 0.0
-0.001212723199522944 0.0005372968687322433 0.0 -0.001228293003076511 0.0 0.0
-0.0017825470696353754 0.0007720468824867659 0.0 -0.0010506612083155905 0.0 0.0
-0.002778755034804134 0.001335345038414332 0.0 -0.0009482629545382521 0.0 0.0
-0.004667274127614176 0.002804030127493979 0.0 -0.0013148500467721404 0.0 0.0
-0.007696078357019119 0.005503562185157866 0.0 -0.0021904138252421186 0.0 0.0
-0.01190990968944373 0.009441404267304897 0.0 -0.0033723558908371615 0.0 0.0
-0.01727414085565937 0.014559457172453532 0.0 -0.004781079456705939 0.0 0.0
-0.02370660762785555 0.02074295144456485 0.0 -0.006275188219548819 0.0 0.0
-0.031153139935803965 0.027924000457487948 0.0 -0.007742114767043798 0.0 0.0
-0.039628630116315525 0.036119749001655294 0.0 -0.009186031419063899 0.0 0.0
-0.0491998254721793 0.04541792013432203 0.0 -0.010709138847006777 0.0 0.0
-0.05992508790098766 0.055891143260171555 0.0 -0.012365469863534434 0.0 0.0
-0.07171035067064321 0.06747928200507039 0.0 -0.014058828770673737 0.0 0.0
-0.0839382416232599 0.07969174343164159 0.0 -0.01582083872736957 0.0 0.0
-0.09470940471301435 0.09087736663014821 0.0 -0.01874982070980711 0.0 0.0
-0.100228080181533 0.09731814038612067 0.0 -0.0251812705102434 0.0 0.0
-0.09493431997240749 0.09333149753615477 0.0 -0.03631774684381684 0.0 0.0
-0.08879498324462486 0.07194817482526816 0.0 1.3404208298872788e-14 0.0 0.0
-0.09493431997239307 0.09333149753614237 0.0 0.03631774684385189 0.0 0.0
-0.10022808018150371 0.09731814038608842 0.0 0.02518127051027482 0.0 0.0
-0.09470940471297379 0.09087736663010816 0.0 0.01874982070982462 0.0 0.0
-0.0839382416232114 0.07969174343159438 0.0 0.015820838727371184 0.0 0.0
-0.07171035067058987 0.06747928200501892 0.0 0.01405882877067077 0.0 0.0
-0.05992508790093294 0.05589114326012007 0.0 0.01236546986352837 0.0 0.0
-0.0491998254721247 0.04541792013427501 0.0 0.010709138846998645 0.0 0.0
-0.03962863011626145 0.03611974900160333 0.0 0.009186031419055407 0.0 0.0
-0.03115313993575293 0.02792400045743871 0.0 0.00774211476703306 0.0 0.0
-0.023706607627810548 0.02074295144451816 0.0 0.006275188219534355 0.0 0.0
-0.01727414085562239 0.014559457172418737 0.0 0.004781079456691758 0.0 0.0
-0.011909909689415176 0.009441404267279616 0.0 0.003372355890829461 0.0 0.0
-0.007696078356999153 0.005503562185138069 0.0 0.0021904138252364 0.0 0.0
-0.004667274127602538 0.0028040301274858694 0.0 0.0013148500467690771 0.0 0.0
-0.00277875503479853 0.0013353450384118069 0.0 0.0009482629545363723 0.0 0.0
-0.0017825470696333058 0.0007720468824859088 0.0 0.0010506612083153617 0.0 0.0
-0.0012127231995221533 0.0005372968687317381 0.0 0.0012282930030762407 0.0 0.0
-0.000722384950094329 0.00029816710638641444 0.0 0.0012200466303756627 0.0 0.0
-0.00028268312298774704 -1.6181462689181205e-05 0.0 0.0008472518505434275 0.0 0.0
-9.03328499760885e-05 -8.938264816851888e-05 0.0 0.0004486890356879358 0.0 0.0
-0.00011564696116719101 -1.2661009139906918e-05 0.0 -0.00029076500741538727 0.0 0.0
-0.00031244946400339096 3.907373153830004e-05 0.0 -0.0005727579626309858 0.0 0.0
-0.0007845608989177892 0.00032962432133232505 0.0 -0.0008550083760037923 0.0 0.0
-0.0013419515202731872 0.0005780664332980159 0.0 -0.000853513793523027 0.0 0.0
-0.0020399108645852834 0.0008705234235910286 0.0 -0.0006681724221713266 0.0 0.0
-0.003307536859544513 0.0016883633430227266 0.0 -0.0005959196037008495 0.0 0.0
-0.005584711369599402 0.0035895113019754066 0.0 -0.0009509530651362787 0.0 0.0
-0.009064219357623532 0.006744481998428171 0.0 -0.0015791132469285523 0.0 0.0
-0.013832346520789518 0.011232716709634445 0.0 -0.0024420847054642293 0.0 0.0
-0.019896749500123587 0.0170360071036869 0.0 -0.0034720012779880785 0.0 0.0
-0.027199416653016298 0.024067266678846566 0.0 -0.004568557127199908 0.0 0.0
-0.035697235588456895 0.03227620436859851 0.0 -0.005645688869679679 0.0 0.0
-0.04540620395777677 0.04168519530642508 0.0 -0.006721105701123342 0.0 0.0
-0.05637383343214772 0.052361773017333205 0.0 -0.007903377618994992 0.0 0.0
-0.06856970816139513 0.06430441881806831 0.0 -0.009206391686453678 0.0 0.0
-0.08176560576003054 0.07731648652889443 0.0 -0.010438703426287093 0.0 0.0
-0.09533979437622578 0.09082090498959472 0.0 -0.011300767026093611 0.0 0.0
-0.10764390796933922 0.10337816512661527 0.0 -0.012431308518726127 0.0 0.0
-0.11473907699158221 0.11156922276139716 0.0 -0.017790929123440845 0.0 0.0
-0.11008568980337548 0.10872035280228973 0.0 -0.03392486715247463 0.0 0.0
-0.10387125196088813 0.08603065150933509 0.0 7.637987464725882e-15 0.0 0.0
-0.1100856898033577 0.1087203528022735 0.0 0.03392486715250109 0.0 0.0
-0.11473907699154802 0.11156922276136114 0.0 0.01779092912346593 0.0 0.0
-0.10764390796929274 0.10337816512656373 0.0 0.012431308518738566 0.0 0.0
-0.09533979437617103 0.09082090498954447 0.0 0.01130076702609455 0.0 0.0
-0.08176560575997051 0.077316486528836 0.0 0.010438703426287877 0.0 0.0
-0.06856970816133375 0.06430441881800693 0.0 0.009206391686450108 0.0 0.0
-0.05637383343208601 0.05236177301727636 0.0 0.007903377618986383 0.0 0.0
-0.04540620395771515 0.04168519530636402 0.0 0.0067211057011162 0.0 0.0
-0.035697235588399295 0.032276204368540146 0.0 0.0056456888696727 0.0 0.0
-0.027199416652966477 0.024067266678797373 0.0 0.004568557127189424 0.0 0.0
-0.019896749500082266 0.017036007103647718 0.0 0.0034720012779785097 0.0 0.0
-0.013832346520756838 0.011232716709606533 0.0 0.0024420847054567913 0.0 0.0
-0.009064219357600345 0.006744481998404326 0.0 0.001579113246923303 0.0 0.0
-0.005584711369585128 0.0035895113019637935 0.0 0.0009509530651340401 0.0 0.0
-0.003307536859537273 0.0016883633430184513 0.0 0.0005959196036999639 0.0 0.0
-0.002039910864582557 0.0008705234235884345 0.0 0.0006681724221707923 0.0 0.0
-0.0013419515202721915 0.0005780664332970424 0.0 0.0008535137935231597 0.0 0.0
-0.0007845608989169332 0.00032962432133217207 0.0 0.0008550083760039301 0.0 0.0
-0.00031244946400314934 3.907373153803076e-05 0.0 0.0005727579626306703 0.0 0.0
-0.00011564696116766668 -1.2661009139880343e-05 0.0 0.00029076500741475545 0.0 0.0
-0.00011547308730650756 1.3765120998094685e-05 0.0 -0.00016526148511374178 0.0 0.0
-0.0003183508822954176 7.541982165818678e-05 0.0 -0.00028682101675085096 0.0 0.0
-0.0008341501997857642 0.0003519904009239891 0.0 -0.0004177406254246947 0.0 0.0
-0.001479089684874771 0.0006227613595634345 0.0 -0.00040987831081498987 0.0 0.0
-0.002338474803592667 0.0010085538765451831 0.0 -0.00026033521867692774 0.0 0.0
-0.003893381451944178 0.002133376264482241 0.0 -0.00021988171885694506 0.0 0.0
-0.006532905185623839 0.004428546121248861 0.0 -0.00042237640626687954 0.0 0.0
-0.010432603273989914 0.00800215054919251 0.0 -0.0007446387695309401 0.0 0.0
-0.015734785741207548 0.013018067150849919 0.0 -0.0011859218485672088 0.0 0.0
-0.02248510408773245 0.019488496364639247 0.0 -0.0017251124821330362 0.0 0.0
-0.030652807186416664 0.027363139631047667 0.0 -0.002297793397492393 0.0 0.0
-0.04020775836220801 0.0366082990200479 0.0 -0.0028675330284875194 0.0 0.0
-0.05116172007797369 0.04724092645571527 0.0 -0.0034798352911937806 0.0 0.0
-0.06351663098317165 0.059288792899706844 0.0 -0.004169509829815394 0.0 0.0
-0.07715670649314645 0.07267830697779244 0.0 -0.004926773211421432 0.0 0.0
-0.0916931962342594 0.08705927454790915 0.0 -0.005634535624547812 0.0 0.0
-0.1063242662576846 0.1016455218545296 0.0 -0.00597748321342376 0.0 0.0
-0.11970066353057734 0.11506670463568636 0.0 -0.005872085733324364 0.0 0.0
-0.12888247947875076 0.12480615345795207 0.0 -0.008053797535898653 0.0 0.0
-0.12631742440352395 0.12512408580146053 0.0 -0.024424950753100222 0.0 0.0
-0.12073634185347792 0.10306068032581048 0.0 4.390585117697299e-15 0.0 0.0
-0.12631742440350296 0.12512408580144227 0.0 0.024424950753114544 0.0 0.0
-0.12888247947871193 0.1248061534579126 0.0 0.008053797535912798 0.0 0.0
-0.11970066353052415 0.11506670463562871 0.0 0.005872085733330538 0.0 0.0
-0.10632426625762248 0.10164552185447195 0.0 0.005977483213423694 0.0 0.0
-0.09169319623419289 0.0870592745478449 0.0 0.0056345356245464835 0.0 0.0
-0.07715670649307786 0.0726783069777244 0.0 0.004926773211418025 0.0 0.0
-0.063516630983102 0.0592887928996369 0.0 0.004169509829813912 0.0 0.0
-0.05116172007790521 0.047240926455650124 0.0 0.0034798352911914352 0.0 0.0
-0.040207758362144394 0.03660829901998661 0.0 0.002867533028481176 0.0 0.0
-0.03065280718636144 0.027363139630993242 0.0 0.0022977933974861428 0.0 0.0
-0.022485104087687034 0.019488496364597166 0.0 0.0017251124821286638 0.0 0.0
-0.015734785741171535 0.013018067150815238 0.0 0.0011859218485623115 0.0 0.0
-0.010432603273963734 0.008002150549169135 0.0 0.0007446387695278166 0.0 0.0
-0.006532905185607446 0.004428546121234508 0.0 0.0004223764062661955 0.0 0.0
-0.003893381451935485 0.002133376264476002 0.0 0.00021988171885702052 0.0 0.0
-0.002338474803589247 0.001008553876541897 0.0 0.0002603352186766477 0.0 0.0
-0.0014790896848738278 0.0006227613595637786 0.0 0.00040987831081412614 0.0 0.0
-0.0008341501997850805 0.0003519904009228469 0.0 0.0004177406254259582 0.0 0.0
-0.00031835088229504335 7.54198216579699e-05 0.0 0.0002868210167503518 0.0 0.0
-0.0001154730873065706 1.3765120998010193e-05 0.0 0.00016526148511379526 0.0 0.0
-7.493037956384375e-05 1.4521375857583628e-05 0.0 -0.00010325426288451637 0.0 0.0
-0.0002837327672229749 8.730922663784083e-05 0.0 -0.00011906694281887915 0.0 0.0
-0.0008647359460833376 0.0003601705489396282 0.0 -0.00014187363951956305 0.0 0.0
-0.0016393886184863178 0.0006471379699562702 0.0 -0.00011786319640299537 0.0 0.0
-0.0026906604762750737 0.0010917942995967841 0.0 6.885512858522997e-05 0.0 0.0
-0.004522763590423262 0.002374698212425465 0.0 0.0002368137400602305 0.0 0.0
-0.0074936878576912155 0.004856756283892366 0.0 0.000299062891295762 0.0 0.0
-0.011788262221747213 0.008633451531833163 0.0 0.00032226514855949887 0.0 0.0
-0.017599928799907596 0.013906229334930145 0.0 0.000313152219475933 0.0 0.0
-0.02501899490702491 0.02070608401959375 0.0 0.000246624717600973 0.0 0.0
-0.034048634352110425 0.02900089146415436 0.0 0.00016777038168177497 0.0 0.0
-0.04467200036980968 0.03876779361028772 0.0 7.429662072202083e-05 0.0 0.0
-0.05686590417413296 0.05001426542255804 0.0 -9.006774137309669e-05 0.0 0.0
-0.07058691825452229 0.06274214884935136 0.0 -0.00029460662688182097 0.0 0.0
-0.08565066251062775 0.07684960304155261 0.0 -0.0005979329114059011 0.0 0.0
-0.10151367932719992 0.091908757140446 0.0 -0.0009726476167246836 0.0 0.0
-0.11711652571091866 0.10700346504301239 0.0 -0.0012655536302087315 0.0 0.0
-0.13090771145956964 0.12071264349588798 0.0 -0.0012108756156631786 0.0 0.0
-0.1411754833919786 0.13100110621998856 0.0 -0.0019345761197422894 0.0 0.0
-0.14367672758311417 0.13358422028300104 0.0 -0.017657394550254463 0.0 0.0
-0.1421329813792192 0.11263676171234106 0.0 4.579669976578771e-16 0.0 0.0
-0.14367672758309055 0.1335842202829829 0.0 0.017657394550259074 0.0 0.0
-0.1411754833919343 0.13100110621995095 0.0 0.001934576119749386 0.0 0.0
-0.13090771145950844 0.1207126434958331 0.0 0.0012108756156639297 0.0 0.0
-0.11711652571084818 0.10700346504294955 0.0 0.0012655536302087506 0.0 0.0
-0.10151367932712652 0.09190875714038013 0.0 0.0009726476167250253 0.0 0.0
-0.08565066251055153 0.07684960304148267 0.0 0.0005979329114012676 0.0 0.0
-0.07058691825444474 0.0627421488492732 0.0 0.00029460662688262675 0.0 0.0
-0.05686590417405803 0.05001426542248769 0.0 9.006774137325629e-05 0.0 0.0
-0.0446720003697397 0.0387677936102268 0.0 -7.429662072716992e-05 0.0 0.0
-0.034048634352049814 0.02900089146409497 0.0 -0.00016777038168506054 0.0 0.0
-0.025018994906975466 0.020706084019549677 0.0 -0.00024662471760325067 0.0 0.0
-0.017599928799868415 0.013906229334890084 0.0 -0.00031315221947623116 0.0 0.0
-0.011788262221718469 0.00863345153181311 0.0 -0.00032226514855911593 0.0 0.0
-0.0074936878576719775 0.00485675628387567 0.0 -0.00029906289129470135 0.0 0.0
-0.004522763590412922 0.0023746982124171305 0.0 -0.00023681374005758682 0.0 0.0
-0.0026906604762711823 0.0010917942995944552 0.0 -6.88551285850076e-05 0.0 0.0
-0.001639388618484473 0.0006471379699558481 0.0 0.00011786319640200366 0.0 0.0
-0.0008647359460823326 0.0003601705489384787 0.0 0.0001418736395213309 0.0 0.0
-0.0002837327672228617 8.73092266378905e-05 0.0 0.00011906694281819789 0.0 0.0
-7.493037956394854e-05 1.4521375857534399e-05 0.0 0.0001032542628845788 0.0 0.0
SCALARS Statev float 8
LOOKUP_TABLE default
0.0 0.016571988862646755 0.013222207535709983 -0.01584917217922642 0.0026269646435164423 -0.0007491843366001141 0.0 0.0
0.0 0.005423758708622987 0.003945177070557956 -0.0023596747690692176 -0.0015855023014887375 -0.006307609184144255 0.0 0.0
0.0 4.963298069032123e-05 9.360501570386245e-05 -5.9317705336058204e-05 -3.428731036780435e-05 -0.0002055763782046354 0.0 0.0
0.0 0.00011781688057108697 3.40855756434206e-05 -2.437009229470048e-05 -9.715483348720214e-06 1.2894431499720817e-05 0.0 0.0
0.0 0.0007359148758623092 0.00042963618967497197 -0.00031200694520345314 -0.00011762924447151929 9.688235639555072e-05 0.0 0.0
0.0 0.0018353608399925376 0.0018559566201343046 -0.0014476707081038946 -0.0004082859120304097 0.00020327795417685358 0.0 0.0
0.0 0.004796843710289484 0.004424522458995923 -0.003714862265708989 -0.0007096601932869327 0.00028582660952614 0.0 0.0
0.0 0.009234024402861947 0.008392992354624724 -0.0074295547662503215 -0.0009634375883744056 0.00032826614174517107 0.0 0.0
0.0 0.015465020143695855 0.0138842341548861 -0.012710455191985765 -0.0011737789629003242 0.00033514401094840093 0.0 0.0
0.0 0.02359113478160773 0.020960864668188205 -0.019571285210220626 -0.0013895794579676162 0.00028949028795810316 0.0 0.0
0.0 0.033600408311669355 0.029624308872382377 -0.02798690232330666 -0.0016374065490756878 0.0002291411793919912 0.0 0.0
0.0 0.04515314012687724 0.03986874402805904 -0.03794571113073869 -0.001923032897320351 0.00014807690419893363 0.0 0.0
0.0 0.05859238213315301 0.05167997802121656 -0.04944219691287471 -0.002237781108341874 -8.610277108558905e-06 0.0 0.0
0.0 0.0738377119956549 0.06504114986468978 -0.06247011709023799 -0.0025710327744517766 -0.00018908735077167115 0.0 0.0
0.0 0.09078470214574955 0.07985711642344367 -0.07695101012603456 -0.0029061062974089593 -0.0004420544419539293 0.0 0.0
0.0 0.1090927536735749 0.09579366679911683 -0.09256854753993167 -0.003225119259185205 -0.0007752788851361872 0.0 0.0
0.0 0.12792853077869837 0.11215901543149216 -0.10864761508699101 -0.003511400344501203 -0.001132622687635514 0.0 0.0
0.0 0.1460422294642337 0.1278801368194313 -0.1241323439192466 -0.0037477929001845487 -0.0013772549962206913 0.0 0.0
0.0 0.16186016143991355 0.14160158354230268 -0.1376752421496458 -0.003926341392656855 -0.001334194017271355 0.0 0.0
0.0 0.17334662766274697 0.15174858787154266 -0.1477228450466531 -0.004025742824889848 -0.0013742421825008737 0.0 0.0
0.0 0.1779993451187473 0.15576503324184537 -0.15175258868194813 -0.004012444559897047 1.3322676295501878e-15 0.0 0.0
0.0 0.17334662766272596 0.1517485878715244 -0.14772284504663474 -0.004025742824889623 0.0013742421825072874 0.0 0.0
0.0 0.16186016143986856 0.14160158354226338 -0.13767524214960755 -0.003926341392655867 0.0013341940172779806 0.0 0.0
0.0 0.14604222946416454 0.12788013681937102 -0.12413234391918708 -0.003747792900183982 0.0013772549962249069 0.0 0.0
0.0 0.12792853077862065 0.11215901543142437 -0.10864761508692511 -0.0035114003444993323 0.0011326226876345671 0.0 0.0
0.0 0.10909275367349941 0.09579366679904996 -0.09256854753986733 -0.0032251192591826934 0.0007752788851334721 0.0 0.0
0.0 0.09078470214566939 0.07985711642337355 -0.0769510101259663 -0.0029061062974072172 0.00044205444195279196 0.0 0.0
0.0 0.07383771199557408 0.06504114986461898 -0.06247011709016905 -0.0025710327744499642 0.00018908735077084564 0.0 0.0
0.0 0.05859238213307166 0.05167997802114565 -0.04944219691280535 -0.0022377811083402477 8.61027710689433e-06 0.0 0.0
0.0 0.04515314012680327 0.0398687440279942 -0.0379457111306753 -0.0019230328973188823 -0.00014807690420061393 0.0 0.0
0.0 0.03360040831160695 0.02962430887232751 -0.0279869023232536 -0.0016374065490739188 -0.0002291411793932136 0.0 0.0
0.0 0.02359113478155726 0.020960864668144036 -0.019571285210177813 -0.0013895794579662408 -0.0002894902879595592 0.0 0.0
0.0 0.015465020143657117 0.01388423415485175 -0.012710455191952595 -0.0011737789628991407 -0.00033514401094867404 0.0 0.0
0.0 0.009234024402836376 0.00839299235460142 -0.007429554766228244 -0.0009634375883731791 -0.00032826614174496214 0.0 0.0
0.0 0.004796843710272123 0.004424522458979381 -0.003714862265693949 -0.0007096601932854308 -0.0002858266095259102 0.0 0.0
0.0 0.0018353608399841724 0.0018559566201256747 -0.0014476707080967545 -0.0004082859120289191 -0.0002032779541761325 0.0 0.0
0.0 0.0007359148758589818 0.00042963618967288065 -0.00031200694520197646 -0.00011762924447090322 -9.688235639491675e-05 0.0 0.0
0.0 0.00011781688057044982 3.408557564363583e-05 -2.437009229486974e-05 -9.715483348765583e-06 -1.2894431499686153e-05 0.0 0.0
0.0 4.963298068931795e-05 9.360501570310026e-05 -5.931770533552905e-05 -3.428731036757065e-05 0.00020557637820357098 0.0 0.0
0.0 0.005423758708613306 0.003945177070552856 -0.0023596747690656263 -0.0015855023014872272 0.0063076091841349335 0.0 0.0
0.0 0.0165719888626267 0.013222207535696329 -0.015849172179207532 0.0026269646435111964 0.000749184336565626 0.0 0.0
0.0 0.013417029691502318 0.009985147989603727 -0.013017388221533562 0.0030322402319298337 -0.00028316539232354175 0.0 0.0
0.0 0.0032302999773146128 0.002311326814535602 -0.001352111527335912 -0.0009592152871996872 -0.004841038521973379 0.0 0.0
0.0 -5.1998708167294776e-05 -5.609017301543711e-05 4.821802646962813e-05 7.872146545809003e-06 -4.6429452925228036e-05 0.0 0.0
0.0 1.556052979418194e-05 7.216135733951404e-06 -5.16051618941477e-06 -2.0556195445366644e-06 6.286050012669267e-06 0.0 0.0
0.0 0.00036514434160117375 0.00026003118387928585 -0.00019028754825894874 -6.974363562033662e-05 3.985609365166093e-05 0.0 0.0
0.0 0.0016208769697493197 0.0013744844012000795 -0.0010819263768425 -0.0002925580243575815 5.2396492318336114e-05 0.0 0.0
0.0 0.004024392679500573 0.0037106688149059646 -0.003149427823516237 -0.000561240991389722 -0.00013809973406619385 0.0 0.0
0.0 0.008138962908840941 0.007343287144248515 -0.0065837620184092775 -0.000759525125839242 -0.0004523427980405979 0.0 0.0
0.0 0.013950425007464374 0.012406037825467644 -0.011517587563677621 -0.0008884502617900116 -0.0008893974215542931 0.0 0.0
0.0 0.02145460265984884 0.018925761697988562 -0.01793375619995933 -0.0009920054980292177 -0.0014214774247397004 0.0 0.0
0.0 0.030645124793565903 0.02687413927115371 -0.025780940436532437 -0.0010931988346212951 -0.0019944522405744725 0.0 0.0
0.0 0.041596305576870454 0.0362290958804042 -0.035031120857567676 -0.0011979750228364781 -0.0025760999071374165 0.0 0.0
0.0 0.05374584503604889 0.04701393815479496 -0.04570801876118458 -0.0013059193936103277 -0.003206536641423003 0.0 0.0
0.0 0.06784515659476073 0.05923658792226403 -0.05782656225070581 -0.001410025671558236 -0.0038999637430686372 0.0 0.0
0.0 0.08351152529098155 0.07282394296048876 -0.07132482080363223 -0.0014991221568564713 -0.004644175019012644 0.0 0.0
0.0 0.10044164598260408 0.08748277876876528 -0.08591921552859168 -0.0015635632401736492 -0.005392163217274591 0.0 0.0
0.0 0.11794218871207938 0.10258855135857896 -0.1009912124454964 -0.001597338913082418 -0.005965843412297147 0.0 0.0
0.0 0.13487939467023094 0.11716594450468022 -0.11556436640741093 -0.001601578097269438 -0.006060118317894442 0.0 0.0
0.0 0.14970378202829804 0.12992299511563235 -0.1283469508824358 -0.0015760442331964762 -0.0054198468411162815 0.0 0.0
0.0 0.16049814163582019 0.13915439637824922 -0.13767336342503522 -0.0014810329532139491 -0.004317442915903061 0.0 0.0
0.0 0.16499532597556468 0.14272969400423677 -0.141396801419943 -0.0013328925842938904 5.96267826780128e-15 0.0 0.0
0.0 0.16049814163579937 0.13915439637823068 -0.13767336342501682 -0.0014810329532138299 0.004317442915918927 0.0 0.0
0.0 0.14970378202825452 0.12992299511559466 -0.1283469508823983 -0.0015760442331963066 0.005419846841132277 0.0 0.0
0.0 0.13487939467017318 0.11716594450463032 -0.1155643664073612 -0.0016015780972690533 0.006060118317903285 0.0 0.0
0.0 0.11794218871200696 0.10258855135851677 -0.10099121244543413 -0.001597338913082603 0.005965843412297821 0.0 0.0
0.0 0.10044164598253442 0.0874827787687045 -0.08591921552853181 -0.0015635632401725555 0.00539216321727093 0.0 0.0
0.0 0.08351152529090841 0.07282394296042496 -0.07132482080356936 -0.0014991221568557054 0.004644175019011052 0.0 0.0
0.0 0.06784515659468636 0.05923658792219957 -0.0578265622506418 -0.0014100256715577073 0.0038999637430671007 0.0 0.0
0.0 0.053745845035974224 0.04701393815473046 -0.04570801876112032 -0.0013059193936101599 0.003206536641419081 0.0 0.0
0.0 0.04159630557680296 0.036229095880345404 -0.035031120857509215 -0.0011979750228361746 0.0025760999071328026 0.0 0.0
0.0 0.0306451247935075 0.026874139271102927 -0.025780940436482408 -0.0010931988346205388 0.001994452240568872 0.0 0.0
0.0 0.021454602659802445 0.018925761697947636 -0.01793375619991895 -0.0009920054980286858 0.0014214774247354178 0.0 0.0
0.0 0.013950425007430009 0.0124060378254368 -0.011517587563647605 -0.000888450261789198 0.0008893974215515815 0.0 0.0
0.0 0.008138962908816605 0.00734328714422648 -0.006583762018388027 -0.0007595251258384567 0.0004523427980382145 0.0 0.0
0.0 0.0040243926794846846 0.003710668814891119 -0.003149427823502661 -0.0005612409913884559 0.00013809973406479507 0.0 0.0
0.0 0.0016208769697415863 0.0013744844011933234 -0.001081926376836885 -0.0002925580243564386 -5.239649231846403e-05 0.0 0.0
0.0 0.0003651443415987921 0.00026003118387788203 -0.00019028754825795138 -6.974363561993086e-05 -3.985609365131278e-05 0.0 0.0
0.0 1.5560529793663706e-05 7.216135734128932e-06 -5.160516189554258e-06 -2.0556195445744955e-06 -6.286050012662657e-06 0.0 0.0
0.0 -5.1998708167061144e-05 -5.609017301516369e-05 4.821802646938733e-05 7.872146545776199e-06 4.642945292499494e-05 0.0 0.0
0.0 0.003230299977305013 0.0023113268145303436 -0.001352111527332256 -0.0009592152871980863 0.004841038521962893 0.0 0.0
0.0 0.013417029691481184 0.009985147989587558 -0.013017388221513018 0.003032240231925449 0.00028316539229809493 0.0 0.0
0.0 0.009879716626357152 0.007193155042719901 -0.009647888231271658 0.002454733188551748 -0.002527374462231635 0.0 0.0
0.0 0.002245619789480375 0.0014182757884548195 -0.0007448030721464978 -0.0006734727163083209 -0.0038919494400267967 0.0 0.0
0.0 2.5678426942533087e-08 -2.678779843523035e-09 2.105284134767642e-09 5.734957087552363e-10 -4.864799241920996e-10 0.0 0.0
0.0 -1.6834404155874466e-06 -3.357700835522551e-06 2.6071705413408337e-06 7.505302941815907e-07 1.2544690282657791e-06 0.0 0.0
0.0 0.00013094990089620765 9.744363296844301e-05 -6.886345252593383e-05 -2.8580180442509537e-05 1.535795872242549e-05 0.0 0.0
0.0 0.0011176704055193745 0.0008869834863971563 -0.0006804341971012041 -0.0002065492892959518 -3.4662460060029163e-05 0.0 0.0
0.0 0.003042354810895217 0.002867724389153447 -0.0023827002932803798 -0.00048502409587307106 -0.0004116557662547384 0.0 0.0
0.0 0.006724340839831736 0.006075074151258924 -0.005373127527910314 -0.0007019466233486075 -0.0010327258260938918 0.0 0.0
0.0 0.011900086537935697 0.010605394236416175 -0.009763485669932629 -0.0008419085664835489 -0.0018821262119936733 0.0 0.0
0.0 0.018681955650458375 0.01644284844270997 -0.015499187050119708 -0.0009436613925902673 -0.0029000054310911786 0.0 0.0
0.0 0.02691899270326448 0.02353080122382941 -0.022492038691053033 -0.001038762532776353 -0.003998250174620013 0.0 0.0
0.0 0.036455223138340286 0.031835643576524124 -0.03069855841184855 -0.001137085164675568 -0.005099677191446823 0.0 0.0
0.0 0.04766789110477936 0.04138043401387324 -0.04014221589856931 -0.0012382181153039445 -0.006213710125383137 0.0 0.0
0.0 0.05992313386796016 0.05222480209659829 -0.0508893792585533 -0.00133542283804497 -0.0074267468786021855 0.0 0.0
0.0 0.07390757990161362 0.06432295170391149 -0.0629036803899093 -0.0014192713140021979 -0.008744387121520708 0.0 0.0
0.0 0.0890637020704135 0.07743559854330481 -0.07595486841091303 -0.0014807301323916627 -0.010039448899372048 0.0 0.0
0.0 0.10480362202984995 0.09103984802747668 -0.0895240183095022 -0.0015158297179745177 -0.011007074988172823 0.0 0.0
0.0 0.12012253962999753 0.10427757448551622 -0.10275605213969348 -0.001521522345822688 -0.011170524383235082 0.0 0.0
0.0 0.13361483984456202 0.11590838266835089 -0.11442300090095033 -0.0014853817674004986 -0.01012903455266919 0.0 0.0
0.0 0.14341810619437667 0.1243232001418173 -0.12290084053169423 -0.0014223596101229556 -0.00777873833086022 0.0 0.0
0.0 0.14766061518459145 0.12767365534312142 -0.12643276250509897 -0.001240892838022457 1.1243610209543675e-14 0.0 0.0
0.0 0.14341810619436046 0.12432320014180165 -0.12290084053167949 -0.0014223596101222812 0.0077787383308884316 0.0 0.0
0.0 0.1336148398445235 0.11590838266831734 -0.11442300090091687 -0.0014853817674005136 0.010129034552697385 0.0 0.0
0.0 0.12012253962995009 0.10427757448547462 -0.10275605213965268 -0.0015215223458218058 0.01117052438325155 0.0 0.0
0.0 0.10480362202978788 0.09103984802742356 -0.08952401830944916 -0.0015158297179743898 0.011007074988173604 0.0 0.0
0.0 0.08906370207035004 0.07743559854324966 -0.07595486841085825 -0.0014807301323914066 0.010039448899367885 0.0 0.0
0.0 0.07390757990154662 0.06432295170385313 -0.062903680389852 -0.0014192713140011568 0.008744387121517037 0.0 0.0
0.0 0.05992313386789472 0.05222480209654137 -0.05088937925849699 -0.0013354228380443854 0.007426746878598929 0.0 0.0
0.0 0.04766789110471425 0.04138043401381706 -0.04014221589851324 -0.0012382181153038133 0.006213710125376082 0.0 0.0
0.0 0.03645522313828115 0.031835643576473054 -0.030698558411797826 -0.0011370851646751942 0.005099677191438439 0.0 0.0
0.0 0.02691899270321208 0.023530801223783447 -0.022492038691007587 -0.0010387625327758672 0.003998250174610673 0.0 0.0
0.0 0.018681955650417113 0.01644284844267353 -0.01549918705008367 -0.0009436613925898487 0.0029000054310831416 0.0 0.0
0.0 0.011900086537903724 0.010605394236387728 -0.009763485669905038 -0.0008419085664826971 0.0018821262119882508 0.0 0.0
0.0 0.00672434083980988 0.0060750741512395935 -0.005373127527891771 -0.0007019466233478191 0.0010327258260893538 0.0 0.0
0.0 0.003042354810881002 0.002867724389140068 -0.0023827002932684505 -0.0004850240958716184 0.00041165576625192023 0.0 0.0
0.0 0.0011176704055132775 0.000886983486392096 -0.0006804341970972067 -0.00020654928929488863 3.466246005951632e-05 0.0 0.0
0.0 0.00013094990089467963 9.744363296777186e-05 -6.886345252546532e-05 -2.858018044230649e-05 -1.5357958722211326e-05 0.0 0.0
0.0 -1.6834404158268892e-06 -3.3577008354604207e-06 2.6071705412940043e-06 7.505302941664391e-07 -1.2544690282582912e-06 0.0 0.0
0.0 2.5678426919816804e-08 -2.678779841143436e-09 2.1052841328877173e-09 5.734957082559921e-10 4.864799235722653e-10 0.0 0.0
0.0 0.0022456197894730346 0.0014182757884503873 -0.0007448030721435607 -0.0006734727163068256 0.0038919494400151697 0.0 0.0
0.0 0.009879716626336039 0.007193155042704296 -0.009647888231251638 0.002454733188547345 0.00252737446221463 0.0 0.0
0.0 0.007405260050936659 0.0052436143805943995 -0.007186134418614366 0.0019425200380199564 -0.002772371787212656 0.0 0.0
0.0 0.0015771591891013763 0.0009335183562677412 -0.0004740069765890038 -0.0004595113796787366 -0.002865918764149517 0.0 0.0
0.0 0.0 0.0 0.0 0.0 0.0 0.0 0.0
0.0 -4.955666217141666e-07 -1.3876427690564356e-07 1.2013579804462968e-07 1.8628478861010318e-08 1.1627310846943632e-07 0.0 0.0
0.0 3.192554706436099e-05 9.080980468854397e-06 -4.728069570364656e-06 -4.352910898489468e-06 1.2954398334590422e-05 0.0 0.0
0.0 0.0006024016067877961 0.0005104311773295708 -0.0003820975178182619 -0.00012833365951130823 -7.792338104784209e-05 0.0 0.0
0.0 0.002349177185952378 0.0020492107528964605 -0.0016602180999680594 -0.0003889926529283992 -0.0004939661493609956 0.0 0.0
0.0 0.005350047249985347 0.004824972520008008 -0.004195220193982199 -0.0006297523260258117 -0.0013832478456440947 0.0 0.0
0.0 0.009921855249022383 0.00880133452433209 -0.008015154123849184 -0.0007861804004829035 -0.002552629408105095 0.0 0.0
0.0 0.015912224774812477 0.013942324242686436 -0.013052159136779757 -0.000890165105906677 -0.003948658538728797 0.0 0.0
0.0 0.02311693534914333 0.020165809286074095 -0.019185987545438567 -0.0009798217406355165 -0.005447434228733426 0.0 0.0
0.0 0.031607749079090273 0.02742146803071956 -0.026350411411530557 -0.0010710566191890032 -0.00694553290188361 0.0 0.0
0.0 0.04111195457583647 0.03574128682846979 -0.03457546636202495 -0.0011658204664448694 -0.008448373527123573 0.0 0.0
0.0 0.05228653782045016 0.04518811622952154 -0.043932584961363555 -0.0012555312681579573 -0.010043145487832684 0.0 0.0
0.0 0.06444001119223478 0.05577507668121712 -0.054441552644292054 -0.0013335240369250307 -0.011766680985236413 0.0 0.0
0.0 0.0776276097747096 0.06732878867004727 -0.06593467186436215 -0.001394116805685154 -0.013478974129821446 0.0 0.0
0.0 0.09170052031856024 0.07942315512492654 -0.07799244635429801 -0.0014307087706284974 -0.01478884840789922 0.0 0.0
0.0 0.10547103257723664 0.09132243402306378 -0.08988582509024921 -0.0014366089328145067 -0.015114154420231273 0.0 0.0
0.0 0.11769148220574426 0.1019045814058131 -0.10049731608919693 -0.0014072653166161502 -0.013848631945540275 0.0 0.0
0.0 0.1267098951739644 0.10973920472506922 -0.10837853007548415 -0.0013606746495852438 -0.010305966801152961 0.0 0.0
0.0 0.13092919143899076 0.11303650223075033 -0.11193083595896683 -0.0011056662717835474 1.567409396718844e-14 0.0 0.0
0.0 0.12670989517394887 0.10973920472505413 -0.10837853007546933 -0.001360674649584715 0.010305966801190187 0.0 0.0
0.0 0.11769148220571322 0.1019045814057855 -0.10049731608916918 -0.0014072653166163165 0.013848631945576142 0.0 0.0
0.0 0.10547103257719216 0.09132243402302474 -0.08988582509021023 -0.0014366089328145186 0.015114154420252887 0.0 0.0
0.0 0.09170052031850752 0.07942315512488113 -0.07799244635425308 -0.001430708770628069 0.014788848407901997 0.0 0.0
0.0 0.07762760977465372 0.06732878866999896 -0.06593467186431388 -0.001394116805685008 0.013478974129816636 0.0 0.0
0.0 0.06444001119217702 0.055775076681166866 -0.0544415526442425 -0.0013335240369243976 0.011766680985230801 0.0 0.0
0.0 0.052286537820393164 0.04518811622947187 -0.0439325849613144 -0.0012555312681574238 0.01004314548782739 0.0 0.0
0.0 0.041111954575779465 0.03574128682842091 -0.0345754663619763 -0.0011658204664445951 0.008448373527114457 0.0 0.0
0.0 0.03160774907904027 0.02742146803067585 -0.026350411411487376 -0.0010710566191885062 0.006945532901872258 0.0 0.0
0.0 0.02311693534909781 0.020165809286034526 -0.019185987545399307 -0.0009798217406352158 0.0054474342287218515 0.0 0.0
0.0 0.015912224774776877 0.013942324242655312 -0.01305215913674926 -0.0008901651059060405 0.0039486585387180995 0.0 0.0
0.0 0.009921855248993278 0.008801334524306651 -0.008015154123824409 -0.000786180400482233 0.002552629408097324 0.0 0.0
0.0 0.005350047249968984 0.0048249725199928034 -0.0041952201939679115 -0.0006297523260248873 0.0013832478456387266 0.0 0.0
0.0 0.0023491771859390376 0.002049210752885249 -0.0016602180999582923 -0.0003889926529269563 0.0004939661493571547 0.0 0.0
0.0 0.0006024016067829827 0.0005104311773259804 -0.0003820975178155183 -0.00012833365951046236 7.792338104717331e-05 0.0 0.0
0.0 3.1925547063559136e-05 9.080980468928097e-06 -4.728069570448214e-06 -4.352910898479886e-06 -1.2954398334314169e-05 0.0 0.0
0.0 -4.955666216204846e-07 -1.387642769534337e-07 1.201357980819538e-07 1.8628478871492096e-08 -1.1627310850540073e-07 0.0 0.0
0.0 0.0 0.0 0.0 0.0 0.0 0.0 0.0
0.0 0.0015771591890947126 0.0009335183562639051 -0.00047400697658644606 -0.00045951137967746185 0.002865918764139237 0.0 0.0
0.0 0.007405260050918907 0.005243614380580578 -0.007186134418596464 0.0019425200380158933 0.0027723717872002317 0.0 0.0
0.0 0.0053432209093572216 0.003766678909878488 -0.005253850634420927 0.0014871717245424408 -0.0023935531036150476 0.0 0.0
0.0 0.0012570642702928675 0.0005839878891496539 -0.00028328552718035003 -0.000300702361969303 -0.001978081508775851 0.0 0.0
0.0 0.0 0.0 0.0 0.0 0.0 0.0 0.0
0.0 -1.7918878968638495e-07 1.6580370838373166e-08 -1.3354665710081564e-08 -3.22570512829003e-09 -1.9972891801069645e-08 0.0 0.0
0.0 -1.861279593158097e-05 -9.353945366461485e-06 7.729727508133686e-06 1.6242178583277857e-06 1.0967734233496334e-05 0.0 0.0
0.0 0.0002947127085726417 0.00021549556617454758 -0.0001568762336476477 -5.8619332526899695e-05 -4.561085288364655e-05 0.0 0.0
0.0 0.001672249315838124 0.0013299503357156032 -0.0010490915986661087 -0.0002808587370494937 -0.0004767016697263834 0.0 0.0
0.0 0.004046251183561124 0.00361257128883562 -0.003071109764475911 -0.0005414615243597102 -0.00146360555903826 0.0 0.0
0.0 0.007980409283558431 0.007015986190797244 -0.006298518772400017 -0.0007174674183972299 -0.0028932578441804068 0.0 0.0
0.0 0.013142319917551593 0.011446510146812841 -0.010617900513453116 -0.0008286096333597168 -0.0045600626266943806 0.0 0.0
0.0 0.01940961941130964 0.016799531661841373 -0.015884341333773998 -0.0009151903280673854 -0.006341431452501494 0.0 0.0
0.0 0.02669230345071313 0.02301071668117917 -0.02201118178986563 -0.0009995348913135291 -0.008114516081949442 0.0 0.0
0.0 0.03506478300860717 0.030102862696508397 -0.029016389732071907 -0.0010864729644364487 -0.009884746945003776 0.0 0.0
0.0 0.0442339647325814 0.03816442720942203 -0.036993915064781724 -0.0011705121446402935 -0.011747504350766658 0.0 0.0
0.0 0.05487445059037069 0.04722621313849972 -0.045983136218213067 -0.0012430769202866794 -0.013735345734532816 0.0 0.0
0.0 0.06653514242043945 0.0571892763987326 -0.05588929699067667 -0.0012999794080559006 -0.015699034338169174 0.0 0.0
0.0 0.07861634373568613 0.06774554423698292 -0.06640656660800806 -0.0013389776289748643 -0.017266099543744945 0.0 0.0
0.0 0.09079264506991291 0.07829465104473166 -0.07694300118668614 -0.0013516498580455653 -0.017823504975711283 0.0 0.0
0.0 0.10184458439375794 0.08789357608740601 -0.08656173879456343 -0.0013318372928425614 -0.016495635214865405 0.0 0.0
0.0 0.11031556603048574 0.09529870828131749 -0.09400726852099967 -0.00129143976031775 -0.01220316774328355 0.0 0.0
0.0 0.11465643210029834 0.09864366619209002 -0.09769818753820704 -0.0009454786538829696 1.7837727822600513e-14 0.0 0.0
0.0 0.11031556603046815 0.09529870828130053 -0.0940072685209821 -0.0012914397603182835 0.012203167743324982 0.0 0.0
0.0 0.10184458439373299 0.08789357608738274 -0.08656173879454054 -0.0013318372928421613 0.016495635214906178 0.0 0.0
0.0 0.09079264506987422 0.07829465104469735 -0.07694300118665165 -0.0013516498580457314 0.017823504975734886 0.0 0.0
0.0 0.07861634373564216 0.06774554423694512 -0.06640656660797065 -0.0013389776289744687 0.01726609954374951 0.0 0.0
0.0 0.06653514242039392 0.05718927639869289 -0.05588929699063774 -0.0012999794080551035 0.015699034338162547 0.0 0.0
0.0 0.054874450590321554 0.04722621313845719 -0.045983136218170795 -0.0012430769202863904 0.013735345734525985 0.0 0.0
0.0 0.04423396473253251 0.03816442720937951 -0.03699391506473969 -0.001170512144639812 0.011747504350759923 0.0 0.0
0.0 0.035064783008559586 0.03010286269646698 -0.02901638973203106 -0.0010864729644358823 0.009884746944994117 0.0 0.0
0.0 0.026692303450669176 0.02301071668114099 -0.02201118178982802 -0.0009995348913129703 0.008114516081936068 0.0 0.0
0.0 0.019409619411271124 0.016799531661808278 -0.015884341333741572 -0.0009151903280667156 0.006341431452487156 0.0 0.0
0.0 0.01314231991752143 0.011446510146786888 -0.01061790051342772 -0.0008286096333591576 0.004560062626681853 0.0 0.0
0.0 0.007980409283533612 0.007015986190775462 -0.006298518772379094 -0.0007174674183963649 0.002893257844171113 0.0 0.0
0.0 0.004046251183546801 0.003612571288822835 -0.003071109764464246 -0.0005414615243585891 0.0014636055590324319 0.0 0.0
0.0 0.0016722493158281729 0.00132995033570776 -0.0010490915986595439 -0.00028085873704821845 0.0004767016697227858 0.0 0.0
0.0 0.0002947127085695524 0.00021549556617261583 -0.00015687623364622896 -5.861933252638637e-05 4.5610852883113924e-05 0.0 0.0
0.0 -1.8612795931724707e-05 -9.353945366033249e-06 7.72972750780549e-06 1.6242178582276963e-06 -1.0967734233126055e-05 0.0 0.0
0.0 -1.7918878958620634e-07 1.6580370829333657e-08 -1.3354665703083526e-08 -3.225705126253981e-09 1.9972891788994082e-08 0.0 0.0
0.0 0.0 0.0 0.0 0.0 0.0 0.0 0.0
0.0 0.0012570642702866258 0.0005839878891466897 -0.00028328552717837743 -0.0003007023619683105 0.0019780815087675216 0.0 0.0
0.0 0.005343220909342427 0.0037666789098669195 -0.005253850634405696 0.0014871717245387697 0.0023935531036062335 0.0 0.0
0.0 0.0038277946025457874 0.0025992062104119116 -0.0036814265138932403 0.0010822203034813295 -0.0018709339848226965 0.0 0.0
0.0 0.0007148651996395811 0.0003411442690984423 -0.00015463002300459514 -0.00018651424609384694 -0.0012834473877121222 0.0 0.0
0.0 0.0 0.0 0.0 0.0 0.0 0.0 0.0
0.0 -4.930754295569554e-07 3.68350299857422e-08 -2.8272421256256188e-08 -8.562608729485888e-09 -7.715859359061078e-08 0.0 0.0
0.0 -6.695042112462086e-06 -5.92872190716744e-06 4.7258151339291455e-06 1.2029067732383028e-06 8.309839548365997e-06 0.0 0.0
0.0 6.277520248870391e-05 5.910072112413347e-05 -4.099282223616798e-05 -1.8107898887965643e-05 -1.0984990707593384e-05 0.0 0.0
0.0 0.0008738901380046999 0.0007711010370492285 -0.0005933975407450738 -0.00017770349630415506 -0.00041322197423266965 0.0 0.0
0.0 0.0031013466885425073 0.002464576864182485 -0.0020394943565401687 -0.000425082507642316 -0.0013246060399259038 0.0 0.0
0.0 0.0059681852317925175 0.0052737429114801965 -0.004643411540001514 -0.00063033137147868 -0.002874556958841314 0.0 0.0
0.0 0.010453265137508683 0.008977016578343164 -0.008222463963735023 -0.0007545526146081445 -0.004722313711801713 0.0 0.0
0.0 0.015718848791748306 0.013455391682174002 -0.012613404610634243 -0.0008419870715397489 -0.006668152637795075 0.0 0.0
0.0 0.021796111287306543 0.018625801718984234 -0.01770498311463573 -0.0009208186043485031 -0.00860210524299758 0.0 0.0
0.0 0.02869696949412618 0.024501431017521395 -0.02350078865341371 -0.0010006423641077036 -0.01051652235507311 0.0 0.0
0.0 0.0365990501151573 0.031170106120747068 -0.030093175143501162 -0.001076930977245924 -0.012509057924861195 0.0 0.0
0.0 0.04536327722810425 0.03870743137194211 -0.03756272406311307 -0.0011447073088290383 -0.014628870488712536 0.0 0.0
0.0 0.05498061565571197 0.0470690134784508 -0.04586964023917926 -0.001199373239271534 -0.016721211005484425 0.0 0.0
0.0 0.06569113639860355 0.05603346320193204 -0.054794656634095495 -0.0012388065678365365 -0.018429015199146782 0.0 0.0
0.0 0.07618248609476917 0.0651883147267705 -0.06392691948646236 -0.001261395240308159 -0.019194585265743042 0.0 0.0
0.0 0.08590791745401789 0.07382636487654654 -0.07257161786579365 -0.0012547470107529299 -0.018038357920963043 0.0 0.0
0.0 0.09399587638782642 0.08089354618956936 -0.07967673081931569 -0.0012168153702535995 -0.013534209377388523 0.0 0.0
0.0 0.09859620088689486 0.08436399352426674 -0.08360122768279447 -0.0007627658414722381 1.8509499488672532e-14 0.0 0.0
0.0 0.09399587638781429 0.0808935461895563 -0.07967673081930263 -0.001216815370253772 0.013534209377429433 0.0 0.0
0.0 0.08590791745399681 0.07382636487652577 -0.07257161786577311 -0.00125474701075267 0.018038357921004243 0.0 0.0
0.0 0.07618248609473699 0.06518831472674166 -0.06392691948643325 -0.0012613952403083498 0.019194585265767283 0.0 0.0
0.0 0.06569113639856553 0.05603346320189925 -0.0547946566340635 -0.0012388065678357576 0.018429015199151053 0.0 0.0
0.0 0.05498061565567276 0.04706901347841684 -0.045869640239145734 -0.0011993732392710996 0.016721211005477094 0.0 0.0
0.0 0.045363277228063575 0.038707431371906895 -0.037562724063078146 -0.0011447073088287746 0.01462887048870487 0.0 0.0
0.0 0.0365990501151177 0.031170106120712353 -0.030093175143467016 -0.0010769309772453491 0.012509057924853682 0.0 0.0
0.0 0.028696969494086202 0.02450143101748705 -0.023500788653379994 -0.0010006423641070502 0.010516522355063354 0.0 0.0
0.0 0.0217961112872696 0.018625801718952666 -0.017704983114604583 -0.0009208186043480719 0.008602105242983911 0.0 0.0
0.0 0.015718848791715815 0.013455391682146711 -0.012613404610607832 -0.000841987071538885 0.006668152637779137 0.0 0.0
0.0 0.010453265137482317 0.008977016578320555 -0.008222463963712942 -0.0007545526146076077 0.004722313711787569 0.0 0.0
0.0 0.005968185231772068 0.0052737429114621 -0.004643411539984334 -0.0006303313714777683 0.002874556958830975 0.0 0.0
0.0 0.003101346688528963 0.002464576864171673 -0.002039494356530566 -0.000425082507641106 0.0013246060399197482 0.0 0.0
0.0 0.0008738901379982893 0.0007711010370442615 -0.0005933975407411582 -0.00017770349630310287 0.00041322197422985187 0.0 0.0
0.0 6.277520248749523e-05 5.910072112372721e-05 -4.099282223589374e-05 -1.8107898887833512e-05 1.0984990707618947e-05 0.0 0.0
0.0 -6.695042113501613e-06 -5.9287219071137485e-06 4.725815133884824e-06 1.202906773228897e-06 -8.309839548239618e-06 0.0 0.0
0.0 -4.930754293848574e-07 3.683502997241244e-08 -2.8272421245946087e-08 -8.562608726462763e-09 7.715859356278835e-08 0.0 0.0
0.0 0.0 0.0 0.0 0.0 0.0 0.0 0.0
0.0 0.0007148651996347207 0.00034114426909633456 -0.0001546300230032144 -0.0001865142460931201 0.001283447387705722 0.0 0.0
0.0 0.003827794602534266 0.0025992062104029223 -0.0036814265138810946 0.0010822203034781689 0.001870933984816405 0.0 0.0
0.0 0.002459612480834773 0.001689961232447228 -0.002421426332374496 0.0007314650999272672 -0.0013776210607784 0.0 0.0
0.0 0.0004098746103512503 0.00016090125864664723 -5.308908050989477e-05 -0.00010781217813675211 -0.0007276024191815768 0.0 0.0
0.0 4.5030000765742004e-07 -5.889399966331698e-09 5.402290337682763e-09 4.871096286490315e-10 9.028034844085993e-08 0.0 0.0
0.0 -1.5718552920546317e-07 7.200677098081056e-09 -5.104022359583998e-09 -2.0966547385017164e-09 -3.067144082449297e-08 0.0 0.0
0.0 -2.8908533310101177e-06 -1.1255672249958007e-06 8.879672683303817e-07 2.3759995666545948e-07 2.5020058634377756e-06 0.0 0.0
0.0 -1.9224775931563008e-05 -1.4067460412237292e-05 1.24611490781645e-05 1.6063113340728444e-06 3.4784134520066735e-05 0.0 0.0
0.0 0.0004329373300001619 0.00033650422729094475 -0.00025392168748438046 -8.258253980656444e-05 -0.00026149192904184924 0.0 0.0
0.0 0.0017729263663513427 0.0015021845476992238 -0.0012080275989461865 -0.00029415694875303746 -0.0011000254739471338 0.0 0.0
0.0 0.0045848717767173666 0.0035918715936822426 -0.003082681982911876 -0.0005091896107703654 -0.002502584967675542 0.0 0.0
0.0 0.007688948269701198 0.006564453593935922 -0.005905094043895959 -0.000659359550039965 -0.0044035093089000886 0.0 0.0
0.0 0.01209670303301822 0.010158687058438164 -0.009404233467266545 -0.0007544535911716245 -0.006407996747265651 0.0 0.0
0.0 0.017010713418936764 0.014289781553299189 -0.013458813953876075 -0.0008309675994231051 -0.008390433270002998 0.0 0.0
0.0 0.022525590930328947 0.018957632018453876 -0.018053353902465204 -0.0009042781159886652 -0.01033057179715708 0.0 0.0
0.0 0.028776657512398707 0.024248551129119132 -0.023274680811272572 -0.0009738703178465668 -0.01232334480334718 0.0 0.0
0.0 0.0358140873191056 0.03025593046104446 -0.029220013780723385 -0.0010359166803210302 -0.014419502212685642 0.0 0.0
0.0 0.043976014412238126 0.03699127103912735 -0.035905193249354185 -0.0010860777897731782 -0.016511821269300356 0.0 0.0
0.0 0.05220245671573024 0.04433585902968925 -0.0432080013804216 -0.0011278576492676849 -0.018262792353394508 0.0 0.0
0.0 0.06131197631851415 0.05202307026430119 -0.05086096885651213 -0.0011621014077889938 -0.019183550329331656 0.0 0.0
0.0 0.07019522273411634 0.05964282206532248 -0.05847158408472474 -0.001171237980597747 -0.018394275436440295 0.0 0.0
0.0 0.07778046581030344 0.06640456367690409 -0.06526720688810073 -0.0011373567888033865 -0.014264168022644201 0.0 0.0
0.0 0.08280800707317192 0.07006872583511711 -0.06951271405903109 -0.0005560117760860066 1.675352565011501e-14 0.0 0.0
0.0 0.07778046581029688 0.06640456367689523 -0.06526720688809176 -0.001137356788803414 0.014264168022684966 0.0 0.0
0.0 0.07019522273409627 0.05964282206530252 -0.05847158408470409 -0.0011712379805984068 0.018394275436481363 0.0 0.0
0.0 0.061311976318489975 0.05202307026427876 -0.050860968856490135 -0.0011621014077886585 0.019183550329355394 0.0 0.0
0.0 0.05220245671569684 0.04433585902966074 -0.043208001380393546 -0.0011278576492671538 0.018262792353396857 0.0 0.0
0.0 0.043976014412204036 0.036991271039098335 -0.03590519324932521 -0.0010860777897731362 0.016511821269291196 0.0 0.0
0.0 0.035814087319074844 0.03025593046101733 -0.02922001378069702 -0.0010359166803202906 0.014419502212677696 0.0 0.0
0.0 0.02877665751236737 0.024248551129091803 -0.023274680811245924 -0.0009738703178458656 0.012323344803339565 0.0 0.0
0.0 0.02252559093029693 0.01895763201842685 -0.018053353902438608 -0.0009042781159882408 0.01033057179714693 0.0 0.0
0.0 0.017010713418908054 0.014289781553275262 -0.013458813953852485 -0.0008309675994227822 0.008390433269990016 0.0 0.0
0.0 0.01209670303299229 0.010158687058416908 -0.009404233467245962 -0.0007544535911709401 0.006407996747249672 0.0 0.0
0.0 0.007688948269677673 0.006564453593916505 -0.0059050940438770605 -0.0006593595500394484 0.00440350930888475 0.0 0.0
0.0 0.004584871776701066 0.003591871593669653 -0.003082681982900274 -0.0005091896107693777 0.002502584967666854 0.0 0.0
0.0 0.0017729263663416217 0.0015021845476914347 -0.0012080275989395086 -0.0002941569487519247 0.001100025473941648 0.0 0.0
0.0 0.00043293732999584043 0.00033650422728821847 -0.0002539216874823035 -8.258253980591506e-05 0.00026149192903968734 0.0 0.0
0.0 -1.9224775931994747e-05 -1.4067460411956452e-05 1.2461149077935033e-05 1.6063113340213158e-06 -3.478413451947255e-05 0.0 0.0
0.0 -2.8908533313661494e-06 -1.1255672249942119e-06 8.87967268329724e-07 2.375999566644928e-07 -2.502005863433123e-06 0.0 0.0
0.0 -1.5718552915767728e-07 7.200677095833753e-09 -5.104022357979988e-09 -2.096654737854836e-09 3.0671440814790696e-08 0.0 0.0
0.0 4.503000071303827e-07 -5.889399959299267e-09 5.402290331223529e-09 4.871096280759266e-10 -9.028034833325816e-08 0.0 0.0
0.0 0.0004098746103475389 0.00016090125864512167 -5.308908050887175e-05 -0.00010781217813624998 0.0007276024191765891 0.0 0.0
0.0 0.0024596124808260156 0.001689961232440462 -0.0024214263323650777 0.0007314650999246189 0.001377621060773868 0.0 0.0
0.0 0.0018459094321825733 0.0009510473528675443 -0.001374397411805995 0.0004233500589384508 -0.0008780996629204062 0.0 0.0
0.0 9.856465930356831e-05 4.87920265446428e-05 4.935331630383039e-06 -5.372735817502588e-05 -0.0003284098180009067 0.0 0.0
0.0 -1.913158456041943e-07 3.8637544635110525e-09 -4.877645925398686e-09 1.0138914618880749e-09 -3.8821198934823165e-08 0.0 0.0
0.0 -6.363894460634292e-07 2.4202616213886604e-08 -1.8402187576480567e-08 -5.800428637406307e-09 -1.2534082369721003e-07 0.0 0.0
0.0 -2.9976452983643556e-07 -1.0178864395334572e-06 8.039198811833228e-07 2.1396655835014077e-07 3.489274415497406e-06 0.0 0.0
0.0 -2.419405124192176e-05 -1.491041004573215e-05 1.195907388375184e-05 2.951336161980285e-06 3.396956801834439e-05 0.0 0.0
0.0 0.0001150982386837821 7.79111104731605e-05 -5.733442111645544e-05 -2.0576689356705126e-05 -9.530130220982084e-05 0.0 0.0
0.0 0.0008871611367811433 0.0007182004975679083 -0.0005640867119722153 -0.00015411378559569328 -0.0007686448957686745 0.0 0.0
0.0 0.0026429426849400484 0.0021120020235804973 -0.001757608246524706 -0.00035439377705579085 -0.0019440973392705668 0.0 0.0
0.0 0.005509279943525984 0.004240637392495657 -0.00371844843930269 -0.0005221889531929622 -0.0036054599179388466 0.0 0.0
0.0 0.008565258729250508 0.00694001711179309 -0.006303387959556609 -0.0006366291522364772 -0.005533101654275114 0.0 0.0
0.0 0.012249570995740368 0.010036770910595521 -0.009317586094214864 -0.0007191848163806689 -0.00744225025034085 0.0 0.0
0.0 0.01645482829455023 0.013507815932972777 -0.012717914331441644 -0.0007899016015311103 -0.009299347985384081 0.0 0.0
0.0 0.021142370430945245 0.017432781013833422 -0.016579840889811546 -0.0008529401240218701 -0.011166564235616893 0.0 0.0
0.0 0.026571395407847337 0.021913371404249423 -0.021004077451328165 -0.0009092939529212485 -0.013106784436010443 0.0 0.0
0.0 0.03259493179356606 0.027014744146746268 -0.02605793665927915 -0.0009568074874670894 -0.015049093278503687 0.0 0.0
0.0 0.03946827883426523 0.032687859967205316 -0.031690943546219534 -0.0009969164209857808 -0.016732030380987757 0.0 0.0
0.0 0.04655545966910105 0.0388248730430125 -0.03778367558344188 -0.0010411974595706164 -0.01771937397472145 0.0 0.0
0.0 0.05382402426426996 0.045308947682890004 -0.044233635402327734 -0.0010753122805623088 -0.017419293620571662 0.0 0.0
0.0 0.06117999739567093 0.05171170908087325 -0.05065798495175082 -0.0010537241291224567 -0.014280778374137763 0.0 0.0
0.0 0.06685680945700581 0.0556240831856891 -0.05530368946748721 -0.00032039371820188705 1.4359607253267015e-14 0.0 0.0
0.0 0.06117999739566622 0.051711709080865316 -0.05065798495174311 -0.0010537241291221433 0.014280778374174973 0.0 0.0
0.0 0.05382402426425633 0.04530894768287498 -0.044233635402312385 -0.0010753122805626202 0.017419293620610198 0.0 0.0
0.0 0.046555459669084885 0.038824873042996734 -0.037783675583426886 -0.0010411974595698804 0.01771937397474365 0.0 0.0
0.0 0.039468278834238854 0.032687859967182806 -0.031690943546198024 -0.0009969164209847553 0.016732030380987598 0.0 0.0
0.0 0.032594931793538964 0.027014744146723987 -0.026057936659256924 -0.0009568074874670815 0.015049093278492954 0.0 0.0
0.0 0.02657139540782163 0.021913371404227274 -0.02100407745130635 -0.0009092939529209197 0.013106784436001944 0.0 0.0
0.0 0.021142370430922274 0.01743278101381378 -0.016579840889792315 -0.0008529401240214879 0.01116656423561033 0.0 0.0
0.0 0.016454828294525648 0.013507815932952447 -0.012717914331421859 -0.000789901601530577 0.00929934798537402 0.0 0.0
0.0 0.012249570995717732 0.010036770910576812 -0.00931758609419655 -0.0007191848163802542 0.007442250250327897 0.0 0.0
0.0 0.008565258729230814 0.006940017111777527 -0.00630338795954181 -0.0006366291522357095 0.0055331016542608516 0.0 0.0
0.0 0.005509279943507633 0.0042406373924815215 -0.003718448439289131 -0.0005221889531923904 0.003605459917925555 0.0 0.0
0.0 0.0026429426849295143 0.002112002023572357 -0.0017576082465175552 -0.0003543937770548007 0.0019440973392638185 0.0 0.0
0.0 0.0008871611367757126 0.0007182004975638719 -0.0005640867119688803 -0.00015411378559499113 0.0007686448957649428 0.0 0.0
0.0 0.0001150982386817019 7.791111047190431e-05 -5.733442111552212e-05 -2.0576689356382254e-05 9.530130220818872e-05 0.0 0.0
0.0 -2.4194051242421712e-05 -1.4910410045222765e-05 1.1959073883351806e-05 2.951336161870996e-06 -3.3969568017219956e-05 0.0 0.0
0.0 -2.9976453030136284e-07 -1.0178864395517815e-06 8.039198811989298e-07 2.1396655835284376e-07 -3.4892744155013874e-06 0.0 0.0
0.0 -6.363894459073826e-07 2.4202616207271002e-08 -1.8402187571489822e-08 -5.8004286357806e-09 1.2534082366478187e-07 0.0 0.0
0.0 -1.9131584570987368e-07 3.863754462644628e-09 -4.877645924500945e-09 1.013891461856389e-09 3.882119895543256e-08 0.0 0.0
0.0 9.856465930102525e-05 4.879202654381388e-05 4.935331630904828e-06 -5.3727358174718714e-05 0.00032840981799774787 0.0 0.0
0.0 0.0018459094321747202 0.0009510473528629578 -0.0013743974117994327 0.0004233500589364749 0.0008780996629171206 0.0 0.0
0.0 0.0008327000296936577 0.00046798880649704554 -0.0006818526352245351 0.00021386382872748964 -0.0005357826873676637 0.0 0.0
0.0 -1.2495854145856149e-05 -1.3321454428252052e-05 3.8312786323862395e-05 -2.499133189561034e-05 -6.50460279384103e-05 0.0 0.0
0.0 2.3707835292080704e-06 -4.741373455978782e-09 1.2902230881395796e-08 -8.160857425415773e-09 5.140057596115298e-07 0.0 0.0
0.0 7.864306231303351e-07 -1.6387003304045022e-09 -2.085611771306629e-10 1.847261507534281e-09 1.628291981626507e-07 0.0 0.0
0.0 -1.8637537983848144e-06 -5.94510238098197e-07 4.5682536275277094e-07 1.3768487534542496e-07 3.665910928243303e-06 0.0 0.0
0.0 -1.6317617415333208e-05 -4.236638485609776e-06 3.458116313958909e-06 7.785221716508703e-07 1.4338523022122547e-05 0.0 0.0
0.0 9.741675184794163e-06 -9.311227060689201e-06 7.922677597854862e-06 1.3885494628342866e-06 1.2952698776954896e-05 0.0 0.0
0.0 0.0003515078293994901 0.0001777392379634288 -0.0001398642471580162 -3.787499080541263e-05 -0.0003473626699438943 0.0 0.0
0.0 0.0012544526522597892 0.0008758718948399919 -0.0007131100712191603 -0.00016276182362083064 -0.0012405933048661177 0.0 0.0
0.0 0.002981568857792726 0.0021489509922213027 -0.0018291111949689885 -0.0003198397972523161 -0.0025032087801074793 0.0 0.0
0.0 0.00505705657303829 0.003883752482849084 -0.003430534542840091 -0.0004532179400089911 -0.0040875527478135675 0.0 0.0
0.0 0.0076564119318641224 0.0059198621477151115 -0.005370266289128128 -0.0005495958585869815 -0.0057382731323958455 0.0 0.0
0.0 0.010509525618262346 0.00820366661089595 -0.007575762781474813 -0.0006279038294211383 -0.007395797985998928 0.0 0.0
0.0 0.013695393193195727 0.010782488420407358 -0.010092012966221036 -0.0006904754541863144 -0.009044365735697757 0.0 0.0
0.0 0.01738456995716676 0.013747938608663057 -0.013004327771178196 -0.000743610837484872 -0.010707224376671801 0.0 0.0
0.0 0.02167542655440508 0.0171964464018883 -0.0164067127409982 -0.0007897336608901045 -0.012386340967321018 0.0 0.0
0.0 0.026544296442159502 0.021175257853373267 -0.02034259880758777 -0.0008326590457854753 -0.01392523356447111 0.0 0.0
0.0 0.03175931183953416 0.025678162235282048 -0.02479991934374976 -0.0008782428915323395 -0.014928163221915768 0.0 0.0
0.0 0.03765634642234971 0.030814621907514588 -0.029877609047178472 -0.0009370128603360627 -0.014959304016669218 0.0 0.0
0.0 0.04456519999062794 0.036680311496767926 -0.03572253929554311 -0.0009577722012248014 -0.013280064121278148 0.0 0.0
0.0 0.050824228995701666 0.04087960596702541 -0.04082658480411781 -5.302116290761942e-05 1.2154773715300493e-14 0.0 0.0
0.0 0.04456519999062757 0.03668031149676294 -0.03572253929553797 -0.00095777220122497 0.013280064121310362 0.0 0.0
0.0 0.03765634642234024 0.03081462190750303 -0.029877609047166957 -0.0009370128603360511 0.014959304016702413 0.0 0.0
0.0 0.0317593118395231 0.02567816223527153 -0.024799919343739672 -0.0008782428915318272 0.014928163221934446 0.0 0.0
0.0 0.02654429644214012 0.021175257853358106 -0.020342598807573137 -0.0008326590457849727 0.013925233564467052 0.0 0.0
0.0 0.021675426554386538 0.017196446401873573 -0.01640671274098348 -0.000789733660890081 0.012386340967311936 0.0 0.0
0.0 0.017384569957148717 0.013747938608648284 -0.01300432777116328 -0.000743610837484993 0.010707224376663757 0.0 0.0
0.0 0.01369539319318115 0.01078248842039522 -0.01009201296620932 -0.0006904754541859012 0.009044365735692915 0.0 0.0
0.0 0.010509525618245773 0.008203666610882614 -0.007575762781461713 -0.0006279038294209054 0.007395797985990244 0.0 0.0
0.0 0.007656411931847187 0.005919862147702732 -0.0053702662891161905 -0.0005495958585865396 0.005738273132383777 0.0 0.0
0.0 0.005057056573024496 0.00388375248283861 -0.003430534542830185 -0.00045321794000842376 0.00408755274780146 0.0 0.0
0.0 0.00298156885778163 0.002148950992213502 -0.0018291111949618965 -0.0003198397972516062 0.0025032087800985004 0.0 0.0
0.0 0.0012544526522533898 0.0008758718948356007 -0.0007131100712154198 -0.00016276182362018056 0.001240593304860962 0.0 0.0
0.0 0.0003515078293967571 0.00017773923796197096 -0.00013986424715688365 -3.78749908050872e-05 0.00034736266994139645 0.0 0.0
0.0 9.741675183556162e-06 -9.311227060416053e-06 7.922677597656898e-06 1.3885494627591998e-06 -1.295269877653283e-05 0.0 0.0
0.0 -1.631761741599201e-05 -4.236638485348367e-06 3.458116313756479e-06 7.785221715918602e-07 -1.4338523020842816e-05 0.0 0.0
0.0 -1.863753799027996e-06 -5.945102381305435e-07 4.568253627786836e-07 1.3768487535187165e-07 -3.6659109283532587e-06 0.0 0.0
0.0 7.864306230353753e-07 -1.6387003332195712e-09 -2.0856117435996048e-10 1.847261507578611e-09 -1.6282919813890725e-07 0.0 0.0
0.0 2.370783528572564e-06 -4.741373453977909e-09 1.2902230877658941e-08 -8.160857423679981e-09 -5.140057594732086e-07 0.0 0.0
0.0 -1.2495854146892472e-05 -1.3321454428430305e-05 3.831278632387712e-05 -2.4991331895446712e-05 6.504602793723204e-05 0.0 0.0
0.0 0.0008327000296883 0.0004679888064942588 -0.0006818526352205021 0.0002138638287262424 0.0005357826873650994 0.0 0.0
0.0 0.00032486663078884123 0.00014611217972857553 -0.00021446615514002202 6.835397541144672e-05 -0.00020325479769428892 0.0 0.0
0.0 -3.927573195787633e-05 -2.0313198437042006e-05 2.9191176300593538e-05 -8.877977863551537e-06 2.9546091403471368e-05 0.0 0.0
0.0 3.752924145788859e-07 1.0881436507427485e-09 -6.668165866363456e-10 -4.213270641053044e-10 7.578167770759034e-08 0.0 0.0
0.0 4.3577819227566815e-07 8.596504293499704e-09 -7.263520805166475e-09 -1.332983488335361e-09 3.58223470265722e-08 0.0 0.0
0.0 -1.2662725862187112e-06 -9.76458518332961e-08 6.607907924287313e-08 3.156677259043133e-08 2.4270233598148355e-06 0.0 0.0
0.0 -1.0204452741315963e-05 -2.7631879899063333e-06 2.2127817037365053e-06 5.504062861698001e-07 2.1965514183717916e-05 0.0 0.0
0.0 1.4792862564462256e-05 -2.998549674293221e-06 2.5546937755240943e-06 4.438558987691592e-07 -3.40356608421406e-06 0.0 0.0
0.0 9.636740851845192e-05 3.626955572121448e-06 -3.0555762101294376e-06 -5.713793619920857e-07 -0.0001348851611086598 0.0 0.0
0.0 0.0003585809469260236 0.00010451522874391427 -9.145726291263734e-05 -1.3057965831276757e-05 -0.00053091866437264 0.0 0.0
0.0 0.0009830242771957038 0.0004567850783521465 -0.00040683921869891096 -4.994585965323624e-05 -0.0012914364878775916 0.0 0.0
0.0 0.0021740254380145717 0.001156042520227078 -0.0010344755905887203 -0.00012156692963835666 -0.002369413217775645 0.0 0.0
0.0 0.003427080513599424 0.0021069353025867776 -0.00190571824610963 -0.00020121705647714952 -0.0036352167907703695 0.0 0.0
0.0 0.005001692046932333 0.0032018635609867498 -0.0029261474599153762 -0.00027571610107137036 -0.0049501055147844605 0.0 0.0
0.0 0.006806777185569282 0.0044491123023418485 -0.00410365738559587 -0.0003454549167459769 -0.006308969647068461 0.0 0.0
0.0 0.008868972288168504 0.005918631310681856 -0.0055070540263679815 -0.0004115772843138726 -0.007729883172825035 0.0 0.0
0.0 0.011325038868957523 0.00770786867820801 -0.0072328714916589255 -0.0004749971865490819 -0.00921974136668796 0.0 0.0
0.0 0.014350190682252661 0.009951612501761348 -0.00941150878090945 -0.000540103720851891 -0.010710260508430864 0.0 0.0
0.0 0.018033385624198633 0.012784386837220963 -0.012180156867306995 -0.0006042299699139616 -0.011833094731778468 0.0 0.0
0.0 0.02226963003828491 0.016375436245958504 -0.015706696970232994 -0.0006687392757255279 -0.011984836250735143 0.0 0.0
0.0 0.0276866515474607 0.02127389688209927 -0.020491063555682063 -0.0007828333264171809 -0.011095073836128904 0.0 0.0
0.0 0.035613819015579244 0.025682684806116525 -0.025948661196424624 0.0002659763903080886 9.94256760256107e-15 0.0 0.0
0.0 0.027686651547464605 0.021273896882097583 -0.020491063555679954 -0.0007828333264176405 0.011095073836154821 0.0 0.0
0.0 0.022269630038278754 0.01637543624595128 -0.015706696970225392 -0.0006687392757258869 0.011984836250758059 0.0 0.0
0.0 0.01803338562418884 0.012784386837213429 -0.012180156867299627 -0.0006042299699137998 0.011833094731787796 0.0 0.0
0.0 0.01435019068224051 0.009951612501754064 -0.0094115087809031 -0.0005401037208509611 0.010710260508425246 0.0 0.0
0.0 0.011325038868948256 0.007707868678201495 -0.007232871491652811 -0.00047499718654868476 0.00921974136668089 0.0 0.0
0.0 0.008868972288159188 0.005918631310674857 -0.005507054026361145 -0.000411577284313714 0.007729883172818459 0.0 0.0
0.0 0.006806777185562241 0.004449112302337557 -0.004103657385591698 -0.000345454916745865 0.006308969647064385 0.0 0.0
0.0 0.005001692046925099 0.0032018635609826654 -0.002926147459911186 -0.0002757161010714763 0.004950105514778331 0.0 0.0
0.0 0.0034270805135913933 0.002106935302582433 -0.0019057182461055737 -0.00020121705647685827 0.003635216790760926 0.0 0.0
0.0 0.0021740254380063664 0.0011560425202226563 -0.00103447559058462 -0.00012156692963803507 0.002369413217766274 0.0 0.0
0.0 0.0009830242771919847 0.0004567850783506462 -0.00040683921869746003 -4.9945859653186666e-05 0.0012914364878743056 0.0 0.0
0.0 0.0003585809469243739 0.00010451522874319324 -9.145726291200886e-05 -1.305796583118415e-05 0.000530918664370293 0.0 0.0
0.0 9.636740851772223e-05 3.6269555721818177e-06 -3.0555762101635323e-06 -5.713793620183867e-07 0.00013488516110804144 0.0 0.0
0.0 1.4792862563157825e-05 -2.9985496742744727e-06 2.5546937755046472e-06 4.4385589876984474e-07 3.4035660840807317e-06 0.0 0.0
0.0 -1.0204452741243695e-05 -2.763187989850505e-06 2.2127817036932537e-06 5.504062861572507e-07 -2.1965514182937768e-05 0.0 0.0
0.0 -1.266272586832118e-06 -9.764585183463556e-08 6.607907924382221e-08 3.156677259081013e-08 -2.427023360077827e-06 0.0 0.0
0.0 4.3577819184414653e-07 8.59650428731692e-09 -7.263520799668735e-09 -1.332983487647364e-09 -3.582234686941649e-08 0.0 0.0
0.0 3.752924143091098e-07 1.0881436506432341e-09 -6.668165872929771e-10 -4.213270633542405e-10 -7.578167765116563e-08 0.0 0.0
0.0 -3.92757319579412e-05 -2.031319843668698e-05 2.91911763001415e-05 -8.877977863454505e-06 -2.9546091402632063e-05 0.0 0.0
0.0 0.0003248666307854674 0.0001461121797272093 -0.00021446615513807485 6.835397541086529e-05 0.00020325479769237075 0.0 0.0
0.0 2.6190172595221567e-05 1.647637438265869e-05 -2.5315601089258107e-05 8.83922670659936e-06 -2.5713235370903987e-05 0.0 0.0
0.0 -3.862049249351784e-06 -2.6865698079997853e-06 3.915143155679699e-06 -1.2285733476799e-06 4.868714848019427e-06 0.0 0.0
0.0 3.575195980085646e-06 5.037983031734965e-09 1.165149105388123e-08 -1.6689474085620824e-08 7.521315305168588e-07 0.0 0.0
0.0 8.774684072786617e-07 6.065101424288833e-08 -5.392166712011042e-08 -6.729347122774626e-09 8.785055040150841e-07 0.0 0.0
0.0 -1.652085995756486e-06 1.1098972048202286e-07 -1.042006894980395e-07 -6.789030983983517e-09 2.986195018896195e-06 0.0 0.0
0.0 -7.3868014706753925e-06 -2.3219252683212048e-07 2.505836316565196e-07 -1.8391104824395703e-08 1.5388335612446426e-05 0.0 0.0
0.0 2.0222841937526963e-05 -6.641494120461429e-07 6.48812431748138e-07 1.5336980297992084e-08 -9.676813916453092e-06 0.0 0.0
0.0 9.942328726816717e-05 -6.286894566603238e-07 6.23854719801688e-07 4.834736858647243e-09 -0.00016836560769977225 0.0 0.0
0.0 0.0002764181736203435 -4.30093873653267e-08 4.4564135142863106e-08 -1.5547477775120151e-09 -0.0003936534752421413 0.0 0.0
0.0 0.0004521898588088741 1.3266849038149206e-07 -7.713622658723395e-08 -5.55322637942598e-08 -0.0007866830244596304 0.0 0.0
0.0 0.0008025008260935131 -5.65231018984147e-07 1.4959524387747787e-07 4.1563577510657766e-07 -0.0013519273445244955 0.0 0.0
0.0 0.001113201656104852 1.9897852182280555e-06 -1.3141061647961463e-06 -6.756790534315771e-07 -0.002259297230543387 0.0 0.0
0.0 0.0016622865000745278 -6.499907688501029e-06 8.839462919037861e-06 -2.3395552305361414e-06 -0.0033743074092906647 0.0 0.0
0.0 0.002477867700218178 -1.920054810807041e-05 2.2473929526750994e-05 -3.2733814186809484e-06 -0.004674404497760995 0.0 0.0
0.0 0.003473394618293534 -5.3566301673463996e-06 3.007803760627357e-06 2.348826406719544e-06 -0.006108472685129958 0.0 0.0
0.0 0.004601347223192056 0.0001268669059169994 -0.0001480561845527974 2.1189278635798316e-05 -0.007687029666848611 0.0 0.0
0.0 0.005928980853735339 0.0005717352229352428 -0.0006342091619375677 6.24739390023238e-05 -0.009361559215791581 0.0 0.0
0.0 0.00741315674625425 0.0015170945019240636 -0.0016914478508772994 0.00017435334895323388 -0.01099193666263886 0.0 0.0
0.0 0.009605100409269162 0.0027453124958389994 -0.0030585071852577174 0.0003131946894187175 -0.01221026246257272 0.0 0.0
0.0 0.014123532475173332 0.005889398022972777 -0.005716598973529367 -0.0001727990494434057 -0.012228556972593929 0.0 0.0
0.0 0.024691605555949736 0.010866360240641519 -0.011622398036220869 0.000756037795579355 8.108964888453585e-15 0.0 0.0
0.0 0.014123532475178637 0.005889398022972272 -0.005716598973529156 -0.0001727990494431146 0.012228556972613065 0.0 0.0
0.0 0.009605100409266945 0.0027453124958373436 -0.0030585071852554566 0.00031319468941811194 0.012210262462576586 0.0 0.0
0.0 0.007413156746245117 0.0015170945019227998 -0.001691447850876275 0.00017435334895347395 0.01099193666263577 0.0 0.0
0.0 0.005928980853725461 0.0005717352229347497 -0.0006342091619366706 6.247393900192177e-05 0.009361559215781157 0.0 0.0
0.0 0.004601347223188213 0.00012686690591730526 -0.00014805618455300914 2.118927863570475e-05 0.007687029666842251 0.0 0.0
0.0 0.0034733946182874285 -5.356630167167235e-06 3.0078037608269586e-06 2.3488264063388536e-06 0.006108472685123006 0.0 0.0
0.0 0.002477867700215355 -1.9200548105921522e-05 2.2473929524357943e-05 -3.2733814184356477e-06 0.00467440449775579 0.0 0.0
0.0 0.0016622865000699568 -6.499907687577966e-06 8.839462918044813e-06 -2.3395552304670777e-06 0.0033743074092821078 0.0 0.0
0.0 0.0011132016561003024 1.98978521672485e-06 -1.314106163124171e-06 -6.756790536009295e-07 0.0022592972305366956 0.0 0.0
0.0 0.0008025008260899182 -5.652310190669597e-07 1.4959524386457587e-07 4.1563577520238387e-07 0.0013519273445177188 0.0 0.0
0.0 0.0004521898588085523 1.326684903808805e-07 -7.713622662886731e-08 -5.5532263751896296e-08 0.0007866830244583323 0.0 0.0
0.0 0.0002764181736195341 -4.300938728437237e-08 4.4564135090956503e-08 -1.5547478066290241e-09 0.0003936534752412349 0.0 0.0
0.0 9.942328726707894e-05 -6.286894566683957e-07 6.238547198187046e-07 4.834736849698717e-09 0.00016836560769786535 0.0 0.0
0.0 2.0222841936329455e-05 -6.641494120437808e-07 6.488124317452686e-07 1.5336980298528908e-08 9.676813916363018e-06 0.0 0.0
0.0 -7.3868014708114e-06 -2.3219252685087477e-07 2.505836316745477e-07 -1.8391104823679742e-08 -1.5388335611547206e-05 0.0 0.0
0.0 -1.652085995625606e-06 1.1098972043802924e-07 -1.0420068945523105e-07 -6.789030982795026e-09 -2.9861950177339934e-06 0.0 0.0
0.0 8.774684064246314e-07 6.065101426756724e-08 -5.3921667141685445e-08 -6.729347125882713e-09 -8.785055044629755e-07 0.0 0.0
0.0 3.575195979762377e-06 5.0379830324215275e-09 1.1651491055013063e-08 -1.6689474087425398e-08 -7.521315305559584e-07 0.0 0.0
0.0 -3.862049250225871e-06 -2.6865698080301243e-06 3.915143155722424e-06 -1.2285733476923139e-06 -4.868714847978545e-06 0.0 0.0
0.0 2.619017259501559e-05 1.64763743830192e-05 -2.5315601089775153e-05 8.839226706756052e-06 2.571323537176119e-05 0.0 0.0
0.0 6.084078939633658e-07 -4.3833808501397025e-07 6.431792240142597e-07 -2.04841139000303e-07 9.18722086175143e-07 0.0 0.0
0.0 -1.845771129304948e-07 6.548410328110687e-08 -9.287068636471563e-08 2.7386583083611047e-08 -6.921482011058973e-08 0.0 0.0
0.0 -2.9640344029057393e-07 3.191142402301047e-10 -4.851017415897923e-09 4.531903175667429e-09 -1.543256639237421e-07 0.0 0.0
0.0 8.17411034708793e-07 1.8383975727257558e-07 -1.5683191589738542e-07 -2.700784137519173e-08 1.1565665134497413e-06 0.0 0.0
0.0 -1.3615367371852444e-06 8.007897756641052e-08 -8.034769677407422e-08 2.6871920766599604e-10 5.11169535322231e-07 0.0 0.0
0.0 -6.395020389751723e-06 6.670783619716492e-07 -4.1812217399771305e-07 -2.4895618797390113e-07 7.252832780248186e-06 0.0 0.0
0.0 3.33327054330713e-05 2.6420758815456617e-06 -1.9638245833629795e-06 -6.782512981827395e-07 -1.9208910633087426e-06 0.0 0.0
0.0 0.00010469969535326329 -5.565773498193419e-06 4.8411480206500565e-06 7.246254775433672e-07 -0.00013978866059367553 0.0 0.0
0.0 0.00035976984973285593 -0.00010531889283372427 9.210626780808334e-05 1.3212625025640712e-05 -0.0005341718993806475 0.0 0.0
0.0 0.0009808590561814117 -0.00045575164466389833 0.0004058753549634031 4.987628970049557e-05 -0.0012906425348871548 0.0 0.0
0.0 0.0021803458344890007 -0.0011519487554023926 0.0010314793497849094 0.00012046940561748288 -0.002364096458154289 0.0 0.0
0.0 0.003448348126982509 -0.002117146472293081 0.0019143058173027735 0.0002028406549903055 -0.0036360719506978675 0.0 0.0
0.0 0.005038060134600119 -0.0032330007680420178 0.0029534477283744915 0.0002795530396675226 -0.004951256510238934 0.0 0.0
0.0 0.00686543268026358 -0.004501574390755065 0.004153106332090045 0.00034846805866502065 -0.006307366788925875 0.0 0.0
0.0 0.008845366293493404 -0.005915222009732034 0.005515367785870751 0.00039985422386128676 -0.007741572879333087 0.0 0.0
0.0 0.010920051980736574 -0.007350275432916265 0.0069303048427620546 0.00041997059015421665 -0.009320021437868526 0.0 0.0
0.0 0.01279175572175652 -0.008534232742819807 0.008134428706538854 0.00039980403628095293 -0.011108689402518643 0.0 0.0
0.0 0.01426987629151239 -0.009044751146989815 0.00872611064762861 0.0003186404993612007 -0.013146092734103361 0.0 0.0
0.0 0.014461616361002388 -0.008361321148619264 0.008205450153466354 0.0001558709951529132 -0.015394870959406693 0.0 0.0
0.0 0.011920645261193736 -0.006040497297091789 0.006177826607522672 -0.00013732931043087472 -0.017098820381163327 0.0 0.0
0.0 0.02361568650730162 -0.0032516597089190156 0.0013568815185685632 0.0018947781903504496 1.327844084686447e-14 0.0 0.0
0.0 0.011920645261197193 -0.006040497297091618 0.006177826607522372 -0.0001373293104307466 0.017098820381173715 0.0 0.0
0.0 0.014461616361003014 -0.008361321148618147 0.00820545015346588 0.00015587099515227185 0.015394870959420725 0.0 0.0
0.0 0.014269876291501286 -0.009044751146981512 0.008726110647620793 0.0003186404993607187 0.013146092734103576 0.0 0.0
0.0 0.012791755721742806 -0.00853423274281027 0.008134428706529438 0.00039980403628082814 0.011108689402510658 0.0 0.0
0.0 0.010920051980722368 -0.007350275432905724 0.0069303048427513505 0.00041997059015436763 0.00932002143785873 0.0 0.0
0.0 0.008845366293482669 -0.005915222009723194 0.005515367785862564 0.0003998542238606341 0.007741572879324875 0.0 0.0
0.0 0.006865432680255116 -0.004501574390748418 0.004153106332084052 0.00034846805866436574 0.0063073667889201055 0.0 0.0
0.0 0.005038060134588502 -0.00323300076803332 0.0029534477283661128 0.0002795530396672071 0.004951256510231454 0.0 0.0
0.0 0.0034483481269698387 -0.0021171464722846848 0.0019143058172949256 0.00020284065498975907 0.0036360719506855176 0.0 0.0
0.0 0.0021803458344758814 -0.001151948755394385 0.0010314793497777867 0.00012046940561659722 0.0023640964581426883 0.0 0.0
0.0 0.0009808590561746627 -0.0004557516446606079 0.000405875354960396 4.987628970021178e-05 0.001290642534881851 0.0 0.0
0.0 0.0003597698497316544 -0.00010531889283321029 9.210626780763353e-05 1.3212625025576888e-05 0.0005341718993799873 0.0 0.0
0.0 0.00010469969535125423 -5.565773497985516e-06 4.841148020488831e-06 7.246254774966864e-07 0.00013978866059128652 0.0 0.0
0.0 3.3332705431329465e-05 2.6420758816049024e-06 -1.9638245834165433e-06 -6.78251298188354e-07 1.920891062768051e-06 0.0 0.0
0.0 -6.395020390009749e-06 6.670783618138717e-07 -4.181221738668634e-07 -2.4895618794700784e-07 -7.25283277899004e-06 0.0 0.0
0.0 -1.3615367371962145e-06 8.00789774512239e-08 -8.03476966773477e-08 2.687192261198959e-10 -5.111695343589006e-07 0.0 0.0
0.0 8.17411034481932e-07 1.8383975723050784e-07 -1.5683191586376242e-07 -2.700784136674476e-08 -1.1565665128990667e-06 0.0 0.0
0.0 -2.9640344052036915e-07 3.191142273652945e-10 -4.851017416937825e-09 4.531903189568301e-09 1.5432566446000004e-07 0.0 0.0
0.0 -1.845771130166337e-07 6.54841032897313e-08 -9.287068637470031e-08 2.7386583084972544e-08 6.921481997846767e-08 0.0 0.0
0.0 6.084078929880042e-07 -4.3833808506115745e-07 6.431792240794736e-07 -2.0484113901833639e-07 -9.18722086276367e-07 0.0 0.0
0.0 0.0 0.0 0.0 0.0 0.0 0.0 0.0
0.0 6.880248193494307e-07 2.5048177246087156e-09 8.32474642317674e-09 -1.0829564147790443e-08 1.407242047044977e-07 0.0 0.0
0.0 4.1006943754400965e-07 8.8984790810668e-08 -6.989570883907213e-08 -1.9089081971604858e-08 6.670749560754532e-07 0.0 0.0
0.0 9.86449624558219e-08 -4.200215270748276e-07 3.4163070151703333e-07 7.839082555778711e-08 -2.684152285239863e-06 0.0 0.0
0.0 3.209761032214956e-06 1.649360863002844e-06 -1.3734288034087847e-06 -2.7593205959400527e-07 8.559184839225274e-06 0.0 0.0
0.0 4.872956020064416e-06 7.19213415935364e-06 -5.730369214982055e-06 -1.461764944371567e-06 2.5582610212524546e-05 0.0 0.0
0.0 1.3835141811058084e-05 -1.8633820889064337e-06 1.378078013477315e-06 4.853040754291932e-07 -3.2948569566528514e-05 0.0 0.0
0.0 0.00036576973506293473 -0.00018369808830392064 0.0001450147770204196 3.868331128350097e-05 -0.00036108316721072253 0.0 0.0
0.0 0.0012536055905844582 -0.0008751521477432147 0.0007123687081993832 0.00016278343954383165 -0.0012419584995510817 0.0 0.0
0.0 0.002977311803511346 -0.00214675604562961 0.0018269778364507522 0.0003197782091788578 -0.0024997413590521307 0.0 0.0
0.0 0.005056810337843779 -0.0038843827748039645 0.003431167033322059 0.00045321574148190585 -0.00408573556422432 0.0 0.0
0.0 0.007667420386043725 -0.005928964396607726 0.0053789002055293494 0.0005500641910783747 -0.005739236023709589 0.0 0.0
0.0 0.010539517018998046 -0.008231428930736959 0.007602568166910369 0.000628860763826591 -0.007382842465018609 0.0 0.0
0.0 0.013738995314389527 -0.010830637335844792 0.010140349588479956 0.0006902877473648431 -0.008998037715181966 0.0 0.0
0.0 0.017363889274702247 -0.01374823997004133 0.013013198671484111 0.0007350412985572094 -0.010666275671158115 0.0 0.0
0.0 0.021305127299267954 -0.016875877140007284 0.016118003721893356 0.0007578734181139205 -0.012577906182688187 0.0 0.0
0.0 0.025177254796757326 -0.019896012091414107 0.019138207439256486 0.000757804652157624 -0.014953894088510698 0.0 0.0
0.0 0.028245053655145867 -0.022284192340604657 0.02154619557027987 0.000737996770324794 -0.017905762170948268 0.0 0.0
0.0 0.02991160540103201 -0.023066676459929988 0.022398656525490238 0.0006680199344397586 -0.020848877132802677 0.0 0.0
0.0 0.027710410049411396 -0.020315283591769845 0.01975833220487132 0.0005569513868985083 -0.021420616833407194 0.0 0.0
0.0 0.029115104890762147 -0.016064428408669507 0.013366482584640793 0.002697945824028712 1.3645334862033565e-14 0.0 0.0
0.0 0.027710410049417808 -0.020315283591768978 0.019758332204870804 0.0005569513868981558 0.021420616833434342 0.0 0.0
0.0 0.029911605401030068 -0.0230666764599244 0.022398656525484513 0.0006680199344398845 0.020848877132827133 0.0 0.0
0.0 0.028245053655131212 -0.022284192340591275 0.021546195570267008 0.000737996770324276 0.017905762170957334 0.0 0.0
0.0 0.025177254796734633 -0.019896012091395937 0.01913820743923826 0.0007578046521576641 0.014953894088503731 0.0 0.0
0.0 0.021305127299245993 -0.016875877139989143 0.01611800372187579 0.0007578734181133658 0.012577906182678227 0.0 0.0
0.0 0.017363889274683283 -0.013748239970025793 0.01301319867146916 0.0007350412985566393 0.010666275671148348 0.0 0.0
0.0 0.013738995314370015 -0.010830637335828341 0.010140349588463169 0.0006902877473651618 0.00899803771517196 0.0 0.0
0.0 0.0105395170189775 -0.00823142893072035 0.007602568166894104 0.0006288607638262448 0.007382842465008566 0.0 0.0
0.0 0.007667420386022274 -0.005928964396591347 0.005378900205513635 0.0005500641910777147 0.005739236023694593 0.0 0.0
0.0 0.005056810337824553 -0.0038843827747890446 0.0034311670333078124 0.0004532157414812309 0.004085735564209119 0.0 0.0
0.0 0.002977311803497294 -0.0021467560456192676 0.0018269778364413598 0.00031977820917790915 0.002499741359042019 0.0 0.0
0.0 0.0012536055905771415 -0.0008751521477380637 0.0007123687081950526 0.00016278343954301118 0.0012419584995456145 0.0 0.0
0.0 0.00036576973505905936 -0.0001836980883015843 0.00014501477701862176 3.8683311282962265e-05 0.0003610831672070462 0.0 0.0
0.0 1.3835141809828778e-05 -1.8633820891606097e-06 1.378078013667408e-06 4.853040754931552e-07 3.2948569566712056e-05 0.0 0.0
0.0 4.872956019175318e-06 7.1921341592285795e-06 -5.7303692148825e-06 -1.461764944346176e-06 -2.5582610211909668e-05 0.0 0.0
0.0 3.2097610309176912e-06 1.6493608630021424e-06 -1.3734288034076876e-06 -2.7593205959445033e-07 -8.559184839273997e-06 0.0 0.0
0.0 9.86449625375902e-08 -4.200215271810528e-07 3.4163070160361354e-07 7.839082557744927e-08 2.684152285995677e-06 0.0 0.0
0.0 4.1006943664837935e-07 8.898479081769454e-08 -6.989570884689114e-08 -1.9089081970799356e-08 -6.670749560829722e-07 0.0 0.0
0.0 6.880248191809002e-07 2.5048177248053658e-09 8.324746419153091e-09 -1.0829564143958909e-08 -1.407242046677047e-07 0.0 0.0
0.0 0.0 0.0 0.0 0.0 0.0 0.0 0.0
0.0 0.0 0.0 0.0 0.0 0.0 0.0 0.0
0.0 -2.601208151042033e-07 -4.54463681070783e-09 2.796718489368658e-09 1.747918321339569e-09 -5.343306389855201e-08 0.0 0.0
0.0 8.768806017353131e-07 1.2448174449155846e-08 -4.41157639447504e-09 -8.036598054674761e-09 1.786962950399552e-07 0.0 0.0
0.0 1.7555454543251648e-06 6.613474748429133e-07 -5.451736585779955e-07 -1.1617381626491963e-07 2.487662013727255e-06 0.0 0.0
0.0 7.777620161982587e-08 2.20061657602736e-06 -1.758062745904194e-06 -4.4255383012320356e-07 6.095027349893267e-06 0.0 0.0
0.0 -1.3551757840340886e-05 1.1369566577434396e-06 -9.793548782735653e-07 -1.5760177946982745e-07 -5.4522722029794225e-06 0.0 0.0
0.0 0.000178636839841875 -9.069921836295579e-05 6.845633028482856e-05 2.2242888078127054e-05 -0.00011619705720153294 0.0 0.0
0.0 0.000901520074281137 -0.0007215292210288109 0.0005673482756696079 0.0001541809453592026 -0.0007791859294997078 0.0 0.0
0.0 0.002639130138111295 -0.0021090151392777296 0.0017546252325781851 0.00035438990669954225 -0.0019412800817205787 0.0 0.0
0.0 0.00550655209404942 -0.004238767874572374 0.0037164740925454956 0.00052229378202688 -0.0036006595643821603 0.0 0.0
0.0 0.00856312341452764 -0.006942322894507063 0.0063058349237888065 0.0006364879707182549 -0.005532911119708424 0.0 0.0
0.0 0.01225891734938376 -0.010044206490299646 0.009325113832982661 0.0007190926573169767 -0.007441194374280278 0.0 0.0
0.0 0.016470044677464074 -0.013523899710410438 0.012733798734059887 0.0007901009763505553 -0.009270124244338917 0.0 0.0
0.0 0.021154546716118373 -0.017458206789136614 0.016605249964844967 0.0008529568242916284 -0.01106314152330889 0.0 0.0
0.0 0.026526664706367647 -0.021904888686403244 0.021001244434587497 0.0009036442518157717 -0.012965648113847077 0.0 0.0
0.0 0.03230934241722424 -0.02677814631631083 0.025845611846836484 0.0009325344694743283 -0.015254176706515224 0.0 0.0
0.0 0.038485332626524905 -0.03170512807783979 0.030771138802528457 0.0009339892753113242 -0.01834161740654541 0.0 0.0
0.0 0.04374048514287553 -0.0358856385048393 0.03499319068139753 0.0008924478234417438 -0.022321856513102645 0.0 0.0
0.0 0.04655831857569037 -0.03780823118946962 0.03700514198193032 0.0008030892075392959 -0.02610408046359816 0.0 0.0
0.0 0.04363509316053841 -0.03478714092178925 0.03417933444769337 0.0006078064740958517 -0.027291435111222936 0.0 0.0
0.0 0.04087346188292626 -0.02880529715224673 0.025373575406874686 0.003431721745372032 1.4067740028433917e-14 0.0 0.0
0.0 0.04363509316054187 -0.034787140921785996 0.03417933444769029 0.0006078064740957333 0.027291435111255563 0.0 0.0
0.0 0.046558318575684314 -0.037808231189459175 0.037005141981920536 0.0008030892075386157 0.0261040804636302 0.0 0.0
0.0 0.043740485142857055 -0.03588563850482157 0.0349931906813803 0.0008924478234412582 0.022321856513117695 0.0 0.0
0.0 0.03848533262649392 -0.031705128077813755 0.03077113880250252 0.0009339892753112524 0.018341617406541107 0.0 0.0
0.0 0.032309342417193514 -0.02677814631628521 0.025845611846810834 0.0009325344694743579 0.015254176706503067 0.0 0.0
0.0 0.02652666470634034 -0.021904888686380464 0.021001244434565358 0.0009036442518151128 0.01296564811383578 0.0 0.0
0.0 0.021154546716086742 -0.017458206789109927 0.016605249964818478 0.0008529568242914419 0.011063141523296086 0.0 0.0
0.0 0.016470044677435437 -0.013523899710386677 0.01273379873403635 0.0007901009763503185 0.009270124244327233 0.0 0.0
0.0 0.012258917349354519 -0.01004420649027605 0.009325113832959675 0.0007190926573163736 0.007441194374264087 0.0 0.0
0.0 0.00856312341450146 -0.006942322894486161 0.006305834923768478 0.0006364879707176868 0.005532911119691226 0.0 0.0
0.0 0.005506552094029855 -0.004238767874556897 0.0037164740925310015 0.0005222937820258948 0.0036006595643689374 0.0 0.0
0.0 0.002639130138097367 -0.0021090151392670602 0.0017546252325687831 0.00035438990669827303 0.0019412800817118405 0.0 0.0
0.0 0.0009015200742746087 -0.0007215292210237749 0.0005673482756656011 0.00015418094535817455 0.0007791859294954721 0.0 0.0
0.0 0.00017863683983816044 -9.069921836096922e-05 6.845633028326391e-05 2.224288807770538e-05 0.00011619705719879096 0.0 0.0
0.0 -1.3551757840508509e-05 1.1369566570751874e-06 -9.79354877749207e-07 -1.5760177932595467e-07 5.452272204418308e-06 0.0 0.0
0.0 7.777620137071105e-08 2.200616575770776e-06 -1.7580627456938174e-06 -4.4255383007695895e-07 -6.095027348927052e-06 0.0 0.0
0.0 1.7555454529743641e-06 6.613474748429719e-07 -5.451736585795554e-07 -1.1617381626341474e-07 -2.4876620137208154e-06 0.0 0.0
0.0 8.768806017548074e-07 1.2448174450744215e-08 -4.411576396546859e-09 -8.036598054201751e-09 -1.7869629504425285e-07 0.0 0.0
0.0 -2.601208150903466e-07 -4.544636810377973e-09 2.7967184891725414e-09 1.7479183212069819e-09 5.3433063895465725e-08 0.0 0.0
0.0 0.0 0.0 0.0 0.0 0.0 0.0 0.0
0.0 0.0 0.0 0.0 0.0 0.0 0.0 0.0
0.0 0.0 0.0 0.0 0.0 0.0 0.0 0.0
0.0 -2.95889627028445e-07 -1.3592507698731995e-08 1.083743040721265e-08 2.7550772915178707e-09 -5.501979115714737e-08 0.0 0.0
0.0 -1.3395254251698986e-06 -2.0268994252082221e-07 1.6857644196191817e-07 3.411350055891433e-08 -6.326025812724405e-07 0.0 0.0
0.0 -3.6653103071685385e-08 5.866643713044815e-06 -4.7352019505707084e-06 -1.131441762474101e-06 1.3389146205210934e-05 0.0 0.0
0.0 3.882535752156508e-05 -1.0104012685145696e-06 -3.8367036909959647e-07 1.3940716376141008e-06 1.0700218490238427e-05 0.0 0.0
0.0 0.00045347191304659644 -0.00036399764478856674 0.000277648620833446 8.634902395512058e-05 -0.00031564780026144187 0.0 0.0
0.0 0.0017799743161054098 -0.001501422027185272 0.001207637513789063 0.0002937845133962081 -0.0011070522724448695 0.0 0.0
0.0 0.004579130749536759 -0.003587845088012926 0.003078405652097109 0.0005094394359158163 -0.0024960899392095343 0.0 0.0
0.0 0.00768687488590861 -0.006564171118988903 0.005904670226094385 0.0006595008928945183 -0.004399107648291079 0.0 0.0
0.0 0.012101809865683388 -0.010162335332307244 0.009408171287870404 0.0007541640444368321 -0.0064083637202475355 0.0 0.0
0.0 0.017015737200587487 -0.014293759754846837 0.01346346610721727 0.0008302936476295696 -0.008386860144050115 0.0 0.0
0.0 0.022519743642704298 -0.018955040165798315 0.01805147455724747 0.0009035656085508489 -0.010288760467019655 0.0 0.0
0.0 0.028743705983986595 -0.024234712692937158 0.02326044080250443 0.000974271890432717 -0.012176529944917013 0.0 0.0
0.0 0.03573995549392385 -0.030226629849907566 0.02919121001821482 0.0010354198316927198 -0.014187101464153591 0.0 0.0
0.0 0.043810981798825754 -0.03687270109453678 0.035799918962309565 0.0010727821322272673 -0.016667362574016763 0.0 0.0
0.0 0.051634912167020625 -0.04372935662210741 0.0426600962850791 0.001069260337028208 -0.020121003579480237 0.0 0.0
0.0 0.05911198487841043 -0.04964705113812875 0.04864229844491965 0.001004752693209144 -0.02466099684766129 0.0 0.0
0.0 0.0632132403470136 -0.05251591681619453 0.05165058117833271 0.0008653356378617903 -0.029252310480364762 0.0 0.0
0.0 0.059520984846391456 -0.04883734063701029 0.04823114363025432 0.000606197006755936 -0.031261026575271154 0.0 0.0
0.0 0.05370408970337468 -0.04128044469284141 0.037225257875632176 0.004055186817209211 1.5775575290533084e-14 0.0 0.0
0.0 0.05952098484639068 -0.048837340637003845 0.048231143630247886 0.0006061970067559527 0.03126102657530643 0.0 0.0
0.0 0.06321324034700283 -0.05251591681618046 0.051650581178319305 0.0008653356378611534 0.029252310480400653 0.0 0.0
0.0 0.0591119848783863 -0.04964705113810597 0.04864229844489732 0.0010047526932085722 0.024660996847679903 0.0 0.0
0.0 0.051634912166982246 -0.043729356622074514 0.042660096285045704 0.001069260337028812 0.020121003579478134 0.0 0.0
0.0 0.043810981798787646 -0.03687270109450413 0.035799918962277376 0.0010727821322267434 0.016667362574007225 0.0 0.0
0.0 0.035739955493888004 -0.030226629849876858 0.029191210018184637 0.00103541983169223 0.014187101464141903 0.0 0.0
0.0 0.02874370598395097 -0.024234712692906384 0.02326044080247428 0.0009742718904320965 0.012176529944905997 0.0 0.0
0.0 0.02251974364266713 -0.018955040165766934 0.018051474557216438 0.0009035656085505071 0.010288760467006376 0.0 0.0
0.0 0.01701573720055196 -0.014293759754816924 0.013463466107187844 0.0008302936476290781 0.008386860144033751 0.0 0.0
0.0 0.012101809865651361 -0.010162335332280609 0.00940817128784406 0.0007541640444365568 0.006408363720228727 0.0 0.0
0.0 0.007686874885883497 -0.006564171118967728 0.005904670226073935 0.0006595008928937964 0.004399107648275928 0.0 0.0
0.0 0.004579130749516826 -0.0035878450879973504 0.0030784056520827344 0.0005094394359146188 0.00249608993919909 0.0 0.0
0.0 0.0017799743160943286 -0.0015014220271766239 0.0012076375137817508 0.0002937845133948733 0.001107052272438635 0.0 0.0
0.0 0.0004534719130410674 -0.0003639976447848474 0.00027764862083062787 8.63490239542193e-05 0.00031564780025844746 0.0 0.0
0.0 3.882535752071739e-05 -1.0104012686339851e-06 -3.8367036898183306e-07 1.39407163761577e-06 -1.0700218489735174e-05 0.0 0.0
0.0 -3.665310419184675e-08 5.866643712970126e-06 -4.73520195051126e-06 -1.1314417624588466e-06 -1.3389146204941937e-05 0.0 0.0
0.0 -1.3395254258736533e-06 -2.0268994254071537e-07 1.6857644197722223e-07 3.411350056350999e-08 6.326025813398568e-07 0.0 0.0
0.0 -2.9588962689353585e-07 -1.3592507692400482e-08 1.0837430402124616e-08 2.755077290274585e-09 5.50197911312241e-08 0.0 0.0
0.0 0.0 0.0 0.0 0.0 0.0 0.0 0.0
0.0 0.0 0.0 0.0 0.0 0.0 0.0 0.0
0.0 0.0 0.0 0.0 0.0 0.0 0.0 0.0
0.0 0.0 0.0 0.0 0.0 0.0 0.0 0.0
0.0 -3.008317283811859e-07 -1.6894082401111415e-08 1.3667650964936457e-08 3.226431436173586e-09 -5.3084951058647605e-08 0.0 0.0
0.0 8.770059481561335e-07 3.314905659730493e-08 -2.4226362986245758e-08 -8.92269361103422e-09 9.369002309107178e-08 0.0 0.0
0.0 -1.4872204745496022e-05 3.4543592715496372e-06 -2.9625660268486343e-06 -4.917932447010088e-07 7.04323774432871e-06 0.0 0.0
0.0 0.0001475011535214204 -7.590309941026264e-05 5.500603478575092e-05 2.089706462451187e-05 -3.20974889473686e-05 0.0 0.0
0.0 0.0009145365907811657 -0.0007834304836112252 0.0006060583310858627 0.00017737215252536202 -0.00044239252346987693 0.0 0.0
0.0 0.003101554016972802 -0.002460538955564318 0.0020356359954545457 0.00042490296010977294 -0.0013262344892631915 0.0 0.0
0.0 0.0059643050393545696 -0.005270478972998983 0.004639841034492375 0.0006306379385066074 -0.002866651968623772 0.0 0.0
0.0 0.010454153115953657 -0.008978757749937913 0.00822411299163183 0.0007546447583060862 -0.004718996409792798 0.0 0.0
0.0 0.015723952199314956 -0.013459807347936443 0.012618217791368867 0.0008415895565675724 -0.006668487637621074 0.0 0.0
0.0 0.021795106900626145 -0.018624748395480416 0.017705148803744727 0.000919599591735681 -0.008594966300233011 0.0 0.0
0.0 0.028666093594225703 -0.02447668518977122 0.023477908176002926 0.000998777013768275 -0.010466462595977964 0.0 0.0
0.0 0.03651434325193114 -0.03110866168211382 0.030031458188675173 0.0010772034934386672 -0.012348940467925434 0.0 0.0
0.0 0.04525289687020463 -0.03864290019374696 0.03749312206440465 0.0011497781293422498 -0.014361156859911389 0.0 0.0
0.0 0.05492063207563656 -0.0470466161201964 0.04584947656063192 0.0011971395595645057 -0.01676510150727032 0.0 0.0
0.0 0.06547645023337459 -0.05578165545629669 0.05459452452938488 0.0011871309269117928 -0.020087768021429225 0.0 0.0
0.0 0.07452409631183629 -0.06338531072693403 0.06229254299722903 0.0010927677297049058 -0.024720819635733512 0.0 0.0
0.0 0.0791855646689856 -0.06709663016701975 0.06619523650879203 0.0009013936582277048 -0.02996942620497401 0.0 0.0
0.0 0.07504887268442828 -0.06273531936145932 0.06213840616880286 0.0005969131926564563 -0.03379511249178231 0.0 0.0
0.0 0.06755501273283215 -0.05377560612101411 0.049161597483124375 0.004614008637889737 1.6224868670811077e-14 0.0 0.0
0.0 0.07504887268442124 -0.06273531936144834 0.06213840616879149 0.0005969131926568463 0.033795112491817846 0.0 0.0
0.0 0.07918556466896688 -0.06709663016699957 0.06619523650877197 0.0009013936582275792 0.029969426205010176 0.0 0.0
0.0 0.07452409631180588 -0.06338531072690601 0.06229254299720163 0.0010927677297043756 0.024720819635753795 0.0 0.0
0.0 0.0654764502333324 -0.05578165545626009 0.0545945245293482 0.0011871309269117715 0.02008776802142972 0.0 0.0
0.0 0.0549206320755943 -0.047046616120159715 0.04584947656059604 0.0011971395595637318 0.01676510150726356 0.0 0.0
0.0 0.04525289687015811 -0.038642900193707065 0.037493122064365086 0.001149778129341998 0.014361156859900562 0.0 0.0
0.0 0.03651434325188955 -0.031108661682077335 0.03003145818863969 0.0010772034934376242 0.012348940467914786 0.0 0.0
0.0 0.028666093594180004 -0.024476685189731978 0.023477908175963843 0.0009987770137681014 0.010466462595964912 0.0 0.0
0.0 0.02179510690058373 -0.018624748395444337 0.017705148803709145 0.0009195995917351779 0.008594966300217072 0.0 0.0
0.0 0.015723952199274707 -0.013459807347902626 0.012618217791335226 0.0008415895565673941 0.006668487637602152 0.0 0.0
0.0 0.010454153115922356 -0.008978757749911394 0.008224112991605987 0.0007546447583054118 0.004718996409777623 0.0 0.0
0.0 0.005964305039332782 -0.0052704789729792565 0.004639841034473688 0.0006306379385055673 0.0028666519686130648 0.0 0.0
0.0 0.0031015540169570368 -0.002460538955551717 0.00203563599544347 0.0004249029601082464 0.0013262344892563008 0.0 0.0
0.0 0.000914536590774834 -0.0007834304836063346 0.00060605833108202 0.00017737215252431557 0.0004423925234670469 0.0 0.0
0.0 0.00014750115351895785 -7.59030994092285e-05 5.500603478497094e-05 2.089706462425748e-05 3.20974889469277e-05 0.0 0.0
0.0 -1.4872204745405025e-05 3.454359270781309e-06 -2.9625660262400996e-06 -4.917932445412395e-07 -7.04323774307761e-06 0.0 0.0
0.0 8.770059473454006e-07 3.314905663466243e-08 -2.4226363017385362e-08 -8.922693617272433e-09 -9.369002313898822e-08 0.0 0.0
0.0 -3.0083172820327663e-07 -1.6894082390560128e-08 1.3667650956397697e-08 3.226431434162971e-09 5.3084951026648725e-08 0.0 0.0
0.0 0.0 0.0 0.0 0.0 0.0 0.0 0.0
0.0 0.0 0.0 0.0 0.0 0.0 0.0 0.0
0.0 0.0 0.0 0.0 0.0 0.0 0.0 0.0
0.0 0.0 0.0 0.0 0.0 0.0 0.0 0.0
0.0 -1.680433764396781e-07 -1.0793184899027673e-08 8.54508648894806e-09 2.2480984100807976e-09 -2.827633481288059e-08 0.0 0.0
0.0 -1.1783664625086673e-06 -9.410228664630562e-09 7.571537120138208e-09 1.8386915444635865e-09 1.0210859744319624e-07 0.0 0.0
0.0 2.26977683112199e-06 1.2257895499740352e-05 -1.0402276648656982e-05 -1.8556188510833158e-06 1.8233693223026454e-05 0.0 0.0
0.0 0.00027371576878141115 -0.0002688218803052285 0.00020045670530081998 6.836517500440832e-05 -0.00011664355137036605 0.0 0.0
0.0 0.0017020447149230945 -0.0013308736219182855 0.0010521134849945984 0.00027876013692368644 -0.0004976195051323692 0.0 0.0
0.0 0.004042292038819028 -0.0036083749930627884 0.0030669894336307164 0.0005413855594320713 -0.0014603886322347825 0.0 0.0
0.0 0.007979802018826282 -0.007015487124347894 0.006297716642087418 0.0007177704822604785 -0.002886206094855379 0.0 0.0
0.0 0.013146139946060724 -0.011450104894839623 0.010621445879440347 0.0008286590153992826 -0.004558239747179175 0.0 0.0
0.0 0.01941437039553338 -0.016803423975597614 0.01588876434771087 0.000914659627886732 -0.006341583853096908 0.0 0.0
0.0 0.02668352624814549 -0.02300290578123528 0.022005036118953266 0.0009978696622820011 -0.008103180514086327 0.0 0.0
0.0 0.0350101679424996 -0.030056974337661604 0.028973287037085724 0.0010836873005758807 -0.009831436541870023 0.0 0.0
0.0 0.04410407568712741 -0.03805929009667297 0.03688940934577946 0.001169880750893523 -0.011607346327173262 0.0 0.0
0.0 0.05471656482913793 -0.04710921398688828 0.04585905137075872 0.0012501626161295933 -0.01350531594933409 0.0 0.0
0.0 0.06649307195688821 -0.05718347404505465 0.05587589118273502 0.0013075828623195455 -0.015615921942213472 0.0 0.0
0.0 0.078596805157006 -0.06771607552165126 0.06641654314873784 0.0012995323729134347 -0.01833649934513699 0.0 0.0
0.0 0.08949540036859596 -0.07695640189043672 0.07577993482412337 0.0011764670663133743 -0.02247833507786969 0.0 0.0
0.0 0.09533709954476291 -0.0815724045022611 0.08064094291888466 0.0009314615833763452 -0.028358682167951427 0.0 0.0
0.0 0.09064781999450242 -0.07675636805433185 0.07617975315766519 0.0005766148966666394 -0.03520477883933428 0.0 0.0
0.0 0.08166790481578078 -0.06660589569031145 0.061489727755285196 0.005116167935026313 1.6189306839553552e-14 0.0 0.0
0.0 0.09064781999449234 -0.07675636805431856 0.07617975315765227 0.0005766148966662458 0.03520477883936915 0.0 0.0
0.0 0.09533709954473613 -0.08157240450223509 0.0806409429188581 0.0009314615833768439 0.028358682167985864 0.0 0.0
0.0 0.08949540036855763 -0.07695640189040269 0.07577993482408939 0.001176467066313321 0.022478335077889083 0.0 0.0
0.0 0.07859680515695812 -0.06771607552160955 0.06641654314869631 0.001299532372913273 0.018336499345139624 0.0 0.0
0.0 0.06649307195683718 -0.05718347404501025 0.05587589118269119 0.001307582862318986 0.015615921942208512 0.0 0.0
0.0 0.054716564829084144 -0.04710921398684163 0.04585905137071269 0.001250162616128946 0.013505315949325698 0.0 0.0
0.0 0.04410407568707779 -0.0380592900966297 0.03688940934573751 0.0011698807508921754 0.011607346327163771 0.0 0.0
0.0 0.03501016794244813 -0.03005697433761656 0.028973287037041356 0.001083687300575258 0.009831436541858755 0.0 0.0
0.0 0.026683526248096532 -0.02300290578119304 0.022005036118911702 0.000997869662281322 0.008103180514071513 0.0 0.0
0.0 0.019414370395487084 -0.0168034239755579 0.015888764347671384 0.0009146596278865138 0.006341583853079986 0.0 0.0
0.0 0.0131461399460256 -0.011450104894809085 0.01062144587941052 0.0008286590153985577 0.0045582397471654506 0.0 0.0
0.0 0.00797980201880048 -0.007015487124324995 0.006297716642065413 0.0007177704822595783 0.0028862060948459003 0.0 0.0
0.0 0.004042292038800749 -0.003608374993046751 0.003066989433616006 0.0005413855594307449 0.0014603886322276769 0.0 0.0
0.0 0.001702044714913953 -0.0013308736219113096 0.0010521134849889124 0.000278760136922395 0.0004976195051293582 0.0 0.0
0.0 0.0002737157687778906 -0.0002688218803029322 0.00020045670529910114 6.83651750038307e-05 0.00011664355136959949 0.0 0.0
0.0 2.269776830415607e-06 1.225789549936588e-05 -1.0402276648361462e-05 -1.8556188510042927e-06 -1.8233693222576974e-05 0.0 0.0
0.0 -1.1783664627077084e-06 -9.410228664749058e-09 7.571537119450662e-09 1.8386915452998912e-09 -1.0210859745989532e-07 0.0 0.0
0.0 -1.6804337643450485e-07 -1.0793184898566844e-08 8.545086488621468e-09 2.248098409945835e-09 2.8276334812116163e-08 0.0 0.0
0.0 0.0 0.0 0.0 0.0 0.0 0.0 0.0
0.0 0.0 0.0 0.0 0.0 0.0 0.0 0.0
0.0 0.0 0.0 0.0 0.0 0.0 0.0 0.0
0.0 0.0 0.0 0.0 0.0 0.0 0.0 0.0
0.0 0.0 0.0 0.0 0.0 0.0 0.0 0.0
0.0 -1.3991821282768945e-06 4.36518289558188e-07 -3.4729730992032493e-07 -8.922097963785473e-08 6.745153489051265e-07 0.0 0.0
0.0 3.383480703281783e-05 -7.709810668851431e-06 3.6920032191289204e-06 4.017807449722771e-06 8.67807456621684e-06 0.0 0.0
0.0 0.0006193421943030471 -0.0005043606633113226 0.00037908733320208133 0.00012527333010924137 -0.00010317327861069687 0.0 0.0
0.0 0.0023507720466085158 -0.002045069833018411 0.0016576091498431327 0.0003874606831752758 -0.0005061821091210348 0.0 0.0
0.0 0.005351333188762247 -0.004824666513174765 0.00419510404202064 0.0006295624711541286 -0.001378201697122874 0.0 0.0
0.0 0.009925680573869795 -0.008804560636205825 0.008018102729210216 0.0007864579069955987 -0.002547666419231932 0.0 0.0
0.0 0.015918043970107196 -0.013947219168296655 0.013057030905090153 0.0008901882632065092 -0.003948225735092282 0.0 0.0
0.0 0.023119570353792057 -0.020167626300818274 0.019188502803881496 0.0009791234969367543 -0.005446943472997502 0.0 0.0
0.0 0.031589666624596474 -0.027405505047512817 0.02633636280132246 0.0010691422461903456 -0.0069310504564652955 0.0 0.0
0.0 0.04103864000687668 -0.03567855172803449 0.034515854657532284 0.0011626970705022146 -0.008398656988613624 0.0 0.0
0.0 0.052126454964396475 -0.0450524497165883 0.043798931341398555 0.0012535183751896904 -0.009943879084243976 0.0 0.0
0.0 0.0642238685473984 -0.05559549802817361 0.05425821078574214 0.0013372872424314587 -0.011623911248543882 0.0 0.0
0.0 0.07748470427200303 -0.06722209026641507 0.06581887008060683 0.001403220185808345 -0.013344322087226208 0.0 0.0
0.0 0.09160155726409897 -0.07935905980913548 0.07794899966094297 0.0014100601481924413 -0.015117755985736317 0.0 0.0
0.0 0.10425305973890808 -0.09020310504237886 0.08892790863290419 0.0012751964094746323 -0.018003737165912633 0.0 0.0
0.0 0.11134694774985376 -0.0960006131187669 0.09502948373472334 0.0009711293840436116 -0.024324882822521227 0.0 0.0
0.0 0.10680060829319804 -0.09117649589012691 0.09063893165261172 0.000537564237515379 -0.03526812756697204 0.0 0.0
0.0 0.09707043042905375 -0.08009899564579981 0.0745448518904451 0.005554143755354668 1.4141465776162931e-14 0.0 0.0
0.0 0.10680060829318688 -0.09117649589011337 0.09063893165259918 0.0005375642375141655 0.035268127567003614 0.0 0.0
0.0 0.11134694774982075 -0.09600061311873659 0.09502948373469268 0.0009711293840439355 0.02432488282255116 0.0 0.0
0.0 0.10425305973886209 -0.09020310504233854 0.08892790863286432 0.0012751964094741626 0.018003737165928846 0.0 0.0
0.0 0.09160155726404406 -0.07935905980908785 0.0779489996608954 0.0014100601481924228 0.015117755985738373 0.0 0.0
0.0 0.07748470427194282 -0.0672220902663627 0.0658188700805551 0.0014032201858075915 0.013344322087223718 0.0 0.0
0.0 0.06422386854733741 -0.05559549802812067 0.054258210785689924 0.001337287242430773 0.01162391124853797 0.0 0.0
0.0 0.05212645496433809 -0.04505244971653714 0.043798931341348886 0.001253518375188206 0.009943879084235989 0.0 0.0
0.0 0.04103864000681588 -0.035678551727982 0.034515854657480055 0.0011626970705019616 0.008398656988605084 0.0 0.0
0.0 0.03158966662453962 -0.027405505047463086 0.026336362801273383 0.0010691422461897194 0.006931050456453213 0.0 0.0
0.0 0.023119570353739988 -0.02016762630077318 0.019188502803836608 0.0009791234969365712 0.0054469434729831415 0.0 0.0
0.0 0.015918043970066378 -0.01394721916826121 0.013057030905055247 0.0008901882632059542 0.00394822573508003 0.0 0.0
0.0 0.009925680573840108 -0.008804560636179484 0.008018102729184599 0.0007864579069948818 0.00254766641922401 0.0 0.0
0.0 0.005351333188741054 -0.004824666513155417 0.004195104042002493 0.0006295624711529275 0.0013782016971163658 0.0 0.0
0.0 0.002350772046597308 -0.0020450698330088894 0.0016576091498349869 0.00038746068317390526 0.0005061821091180734 0.0 0.0
0.0 0.000619342194298117 -0.0005043606633078266 0.00037908733319937484 0.00012527333010845123 0.00010317327860978354 0.0 0.0
0.0 3.383480703214379e-05 -7.709810668987438e-06 3.6920032192756265e-06 4.017807449711701e-06 -8.678074565650348e-06 0.0 0.0
0.0 -1.3991821288620683e-06 4.365182896226616e-07 -3.4729730997423265e-07 -8.922097964842371e-08 -6.745153490084555e-07 0.0 0.0
0.0 0.0 0.0 0.0 0.0 0.0 0.0 0.0
0.0 0.0 0.0 0.0 0.0 0.0 0.0 0.0
0.0 0.0 0.0 0.0 0.0 0.0 0.0 0.0
0.0 0.0 0.0 0.0 0.0 0.0 0.0 0.0
0.0 0.0 0.0 0.0 0.0 0.0 0.0 0.0
0.0 0.0 0.0 0.0 0.0 0.0 0.0 0.0
0.0 -1.0135033264947794e-06 1.5599831793191495e-06 -1.2401202048845828e-06 -3.1986297443458174e-07 1.28354072953915e-06 0.0 0.0
0.0 8.221225662122558e-05 -8.191926070990924e-05 5.7111228647719637e-05 2.4808032062189665e-05 4.051937790477135e-06 0.0 0.0
0.0 0.001080716914883431 -0.0008575758252019029 0.0006563465670078916 0.00020122925819400972 -5.1283438996567725e-05 0.0 0.0
0.0 0.0030359845841448196 -0.0028612973116284137 0.002377682397902301 0.00048361491372611587 -0.00041579717612543734 0.0 0.0
0.0 0.006740261564678936 -0.006081004995820535 0.00537965638053281 0.0007013486152877292 -0.0010291501206749663 0.0 0.0
0.0 0.011907350714609972 -0.010612530563898477 0.009770274806983205 0.0008422557569152719 -0.0018794329687354316 0.0 0.0
0.0 0.018688845562842896 -0.016448252706571295 0.01550464040705304 0.000943612299518245 -0.0029003632029581464 0.0 0.0
0.0 0.026917988348808247 -0.02352923269805153 0.02249134644351292 0.0010378862545386007 -0.003997402055548325 0.0 0.0
0.0 0.03642736414083409 -0.03181098919131924 0.030675852089770056 0.0011351371015491875 -0.005085354711431332 0.0 0.0
0.0 0.047581945452668736 -0.04130581669272784 0.04007059008410467 0.0012352266086231626 -0.006175286453582896 0.0 0.0
0.0 0.059748000563407205 -0.05207273860571413 0.05074066332855536 0.0013320752771587194 -0.007372420460228187 0.0 0.0
0.0 0.0736334839407795 -0.06408382706081506 0.06266753586367278 0.0014162911971423342 -0.008691858565987844 0.0 0.0
0.0 0.08870319746810094 -0.07712415577573109 0.07564666068259428 0.0014774950931367168 -0.009949448151909157 0.0 0.0
0.0 0.10426192427204956 -0.09058914904047133 0.0890876377256289 0.001501511314842559 -0.010843742169613667 0.0 0.0
0.0 0.1184974790058117 -0.10290844546309634 0.10148830525079063 0.0014201402123056937 -0.011967240268764575 0.0 0.0
0.0 0.12732829909136753 -0.11033350443518611 0.10927470390992841 0.0010588005252575973 -0.017197616706666866 0.0 0.0
0.0 0.12372512045029549 -0.10630901860704192 0.10585151982550889 0.0004574987815328052 -0.033049591577979154 0.0 0.0
0.0 0.11385611755514134 -0.0947299880170396 0.08883318877851434 0.005896799238525233 9.26862753214408e-15 0.0 0.0
0.0 0.12372512045027856 -0.10630901860702488 0.10585151982549247 0.000457498781532471 0.03304959157800422 0.0 0.0
0.0 0.1273282990913283 -0.11033350443515141 0.1092747039098932 0.0010588005252582665 0.017197616706691284 0.0 0.0
0.0 0.11849747900575525 -0.1029084454630479 0.10148830525074164 0.0014201402123062848 0.011967240268775714 0.0 0.0
0.0 0.10426192427198916 -0.09058914904041884 0.08908763772557693 0.0015015113148419516 0.010843742169614987 0.0 0.0
0.0 0.08870319746803312 -0.07712415577567179 0.07564666068253623 0.0014774950931356011 0.009949448151908865 0.0 0.0
0.0 0.07363348394070869 -0.06408382706075402 0.06266753586361182 0.0014162911971421417 0.008691858565984364 0.0 0.0
0.0 0.05974800056333883 -0.05207273860565466 0.050740663328497096 0.0013320752771576138 0.007372420460220947 0.0 0.0
0.0 0.04758194545259881 -0.04130581669266731 0.04007059008404404 0.0012352266086232489 0.00617528645357626 0.0 0.0
0.0 0.03642736414076762 -0.03181098919126182 0.030675852089713112 0.001135137101548643 0.005085354711423103 0.0 0.0
0.0 0.026917988348752586 -0.023529232698002604 0.02249134644346443 0.0010378862545381872 0.003997402055537592 0.0 0.0
0.0 0.01868884556279803 -0.0164482527065315 0.015504640407013989 0.0009436122995175178 0.002900363202949152 0.0 0.0
0.0 0.011907350714576591 -0.010612530563868607 0.00977027480695404 0.000842255756914566 0.0018794329687293167 0.0 0.0
0.0 0.00674026156465355 -0.006081004995797464 0.005379656380510926 0.0007013486152865389 0.0010291501206699165 0.0 0.0
0.0 0.003035984584131445 -0.0028612973116158994 0.002377682397891159 0.00048361491372474056 0.00041579717612283575 0.0 0.0
0.0 0.0010807169148769823 -0.0008575758251966023 0.0006563465670036883 0.00020122925819291313 5.128343899588329e-05 0.0 0.0
0.0 8.221225661948744e-05 -8.191926070922291e-05 5.711122864724335e-05 2.4808032061979492e-05 -4.051937790161895e-06 0.0 0.0
0.0 -1.013503326879784e-06 1.559983179340087e-06 -1.2401202049026604e-06 -3.198629744374474e-07 -1.2835407295741574e-06 0.0 0.0
0.0 0.0 0.0 0.0 0.0 0.0 0.0 0.0
0.0 0.0 0.0 0.0 0.0 0.0 0.0 0.0
0.0 0.0 0.0 0.0 0.0 0.0 0.0 0.0
0.0 0.0 0.0 0.0 0.0 0.0 0.0 0.0
0.0 0.0 0.0 0.0 0.0 0.0 0.0 0.0
0.0 0.0 0.0 0.0 0.0 0.0 0.0 0.0
0.0 -3.5323381371788245e-06 2.5405356529907425e-06 -2.1362736468922998e-06 -4.042620060984391e-07 1.7123965955435933e-06 0.0 0.0
0.0 0.00025911984751092557 -0.00018450155191013383 0.00013081534708936682 5.3686204820767064e-05 4.012202603607258e-05 0.0 0.0
0.0 0.0015198808599341052 -0.0013282078458040024 0.0010397497433959119 0.00028845810240809037 5.196164928783331e-05 0.0 0.0
0.0 0.004014830697818511 -0.003708757598935939 0.003149620856371149 0.000559136742564791 -0.00013821181950185975 0.0 0.0
0.0 0.008142841467900118 -0.0073568739436522404 0.00659773209065109 0.0007591418530011455 -0.0004518658051782518 0.0 0.0
0.0 0.013968128960763314 -0.012416149370178018 0.011527410541739091 0.0008887388284389262 -0.000887978928842715 0.0 0.0
0.0 0.02146162922602471 -0.018931098089875358 0.017939230617473795 0.0009918674724015502 -0.001422305465706163 0.0 0.0
0.0 0.030639597595289086 -0.026868529047710085 0.02577636025552301 0.001092168792187096 -0.0019941568355558094 0.0 0.0
0.0 0.041559291014467245 -0.036196189125268625 0.03500007616712575 0.0011961129581428737 -0.002567070801287204 0.0 0.0
0.0 0.053651001275538845 -0.04693107905695823 0.04562784080479481 0.0013032382521633783 -0.003185948331458078 0.0 0.0
0.0 0.06766178569381029 -0.05907556826796691 0.057670169796840455 0.0014053984711264336 -0.0038825758692896907 0.0 0.0
0.0 0.0831806631731259 -0.07253061254285019 0.0710418086400053 0.0014888039028449775 -0.004648242318645652 0.0 0.0
0.0 0.0998055436400163 -0.0869211612087708 0.08538049359652301 0.0015406676122477403 -0.005372143511690103 0.0 0.0
0.0 0.11662653027394361 -0.10145291604983066 0.09989715911248545 0.0015557569373452615 -0.005745032843205111 0.0 0.0
0.0 0.13204113923724947 -0.11477391735075271 0.11323227073999523 0.0015416466107576134 -0.005666690967088518 0.0 0.0
0.0 0.14283306093625753 -0.12409709931431852 0.12273750970006467 0.0013595896142537015 -0.0077689076813484016 0.0 0.0
0.0 0.14175473900705132 -0.1225047648232519 0.12210421973010768 0.000400545093144295 -0.023786071888363156 0.0 0.0
0.0 0.13316622417654356 -0.1115410617627738 0.10568683792993196 0.005854223832841757 4.912736883966318e-15 0.0 0.0
0.0 0.14175473900703006 -0.12250476482323243 0.12210421973008811 0.0004005450931442784 0.023786071888377093 0.0 0.0
0.0 0.1428330609362128 -0.12409709931427987 0.12273750970002528 0.0013595896142543982 0.007768907681362129 0.0 0.0
0.0 0.13204113923718552 -0.114773917350698 0.11323227073993984 0.0015416466107580754 0.005666690967094559 0.0 0.0
0.0 0.11662653027387457 -0.10145291604977076 0.09989715911242608 0.0015557569373447554 0.005745032843205719 0.0 0.0
0.0 0.0998055436399413 -0.0869211612087054 0.0853804935964586 0.0015406676122466899 0.005372143511689474 0.0 0.0
0.0 0.08318066317304736 -0.07253061254278204 0.0710418086399377 0.0014888039028443832 0.004648242318642672 0.0 0.0
0.0 0.06766178569373012 -0.05907556826789764 0.05767016979677133 0.0014053984711262216 0.0038825758692868214 0.0 0.0
0.0 0.05365100127546233 -0.04693107905689178 0.04562784080472886 0.001303238252162908 0.003185948331455089 0.0 0.0
0.0 0.041559291014396 -0.03619618912520658 0.03500007616706428 0.0011961129581422821 0.0025670708012820944 0.0 0.0
0.0 0.0306395975952265 -0.02686852904765585 0.025776360255469196 0.0010921687921866402 0.0019941568355495926 0.0 0.0
0.0 0.02146162922597575 -0.018931098089832014 0.017939230617431343 0.0009918674724006624 0.0014223054657016567 0.0 0.0
0.0 0.013968128960724326 -0.012416149370143178 0.011527410541704882 0.0008887388284382866 0.000887978928839031 0.0 0.0
0.0 0.008142841467873519 -0.007356873943627988 0.006597732090627841 0.0007591418530001419 0.0004518658051760685 0.0 0.0
0.0 0.004014830697802484 -0.003708757598920911 0.0031496208563573337 0.0005591367425635734 0.0001382118195002872 0.0 0.0
0.0 0.0015198808599259507 -0.0013282078457969313 0.0010397497433900483 0.00028845810240688284 -5.196164928797954e-05 0.0 0.0
0.0 0.00025911984750792087 -0.00018450155190825063 0.00013081534708801244 5.368620482023833e-05 -4.0122026035696846e-05 0.0 0.0
0.0 -3.5323381373443327e-06 2.5405356526643515e-06 -2.136273646646423e-06 -4.042620060178675e-07 -1.7123965955101749e-06 0.0 0.0
0.0 0.0 0.0 0.0 0.0 0.0 0.0 0.0
0.0 0.0 0.0 0.0 0.0 0.0 0.0 0.0
0.0 0.0 0.0 0.0 0.0 0.0 0.0 0.0
0.0 0.0 0.0 0.0 0.0 0.0 0.0 0.0
0.0 0.0 0.0 0.0 0.0 0.0 0.0 0.0
0.0 0.0 0.0 0.0 0.0 0.0 0.0 0.0
0.0 3.55342967203437e-06 -2.1784197154949356e-06 1.004043606079594e-06 1.1743761094154559e-06 3.099163527158511e-06 0.0 0.0
0.0 0.0004959129270769151 -0.00033559260749944556 0.0002373305120448699 9.826209545457562e-05 9.379808044638156e-05 0.0 0.0
0.0 0.002005338523701841 -0.0017589093480457332 0.0013639346124920389 0.00039497473555369356 0.00022862768022056243 0.0 0.0
0.0 0.004784244609172128 -0.004430346246097303 0.0037219651725223014 0.0007083810735750047 0.0002895987781569648 0.0 0.0
0.0 0.009260462337900026 -0.008410619181998247 0.007446695148945176 0.0009639240330530671 0.0003270948327220225 0.0 0.0
0.0 0.015480661343728238 -0.013896595014698834 0.012722198573849531 0.001174396440849297 0.00033540806902913585 0.0 0.0
0.0 0.023597960039879178 -0.020965910019197075 0.019576554834613805 0.0013893551845832698 0.00028733194395637947 0.0 0.0
0.0 0.03359137230995143 -0.029615403919089702 0.027979666254906624 0.0016357376641830635 0.00022647771357172872 0.0 0.0
0.0 0.0451096351282319 -0.039829896830002084 0.037909679458365465 0.0019202173716366222 0.00014853085726492746 0.0 0.0
0.0 0.058491629040934204 -0.05159114855177648 0.04935711487043967 0.0022340336813367386 -5.375340733347958e-06 0.0 0.0
0.0 0.07364573097063881 -0.06487092322830805 0.06230777677549116 0.002563146452816927 -0.00020044311453149694 0.0 0.0
0.0 0.09039962245675263 -0.07951250117163877 0.07663217590872627 0.002880325262912334 -0.0004975166732986416 0.0 0.0
0.0 0.1082250970831658 -0.09501256487178886 0.09186518984758002 0.003147375024208772 -0.0008722561477052925 0.0 0.0
0.0 0.12593416256444356 -0.11036303716322769 0.10704602511904591 0.003317012044181656 -0.0011771345353246004 0.0 0.0
0.0 0.14177696550012975 -0.12405902580030069 0.12071421625544101 0.003344809544859492 -0.0011494839037138205 0.0 0.0
0.0 0.15344785203423503 -0.13428218706482822 0.13094820748870178 0.003333979576126593 -0.0018264865292257565 0.0 0.0
0.0 0.15578758462253597 -0.13679671216450084 0.13350384099518642 0.0032928711693142507 -0.01716667514398639 0.0 0.0
0.0 0.15156073375011114 -0.12886892442843104 0.11914990846640229 0.00971901596202867 8.187894806610529e-16 0.0 0.0
0.0 0.15578758462251224 -0.13679671216447964 0.13350384099516607 0.0032928711693134814 0.017166675143991027 0.0 0.0
0.0 0.15344785203418737 -0.13428218706478678 0.13094820748866157 0.003333979576125308 0.0018264865292314109 0.0 0.0
0.0 0.1417769655000628 -0.12405902580024164 0.12071421625538449 0.0033448095448571887 0.001149483903714896 0.0 0.0
0.0 0.12593416256436699 -0.11036303716316062 0.10704602511898034 0.003317012044180029 0.001177134535324257 0.0 0.0
0.0 0.10822509708308571 -0.09501256487171846 0.09186518984751203 0.0031473750242063635 0.0008722561477060575 0.0 0.0
0.0 0.09039962245666863 -0.07951250117156508 0.07663217590865469 0.0028803252629103124 0.0004975166732948746 0.0 0.0
0.0 0.07364573097054952 -0.06487092322823038 0.062307776775414395 0.002563146452815949 0.00020044311453110142 0.0 0.0
0.0 0.058491629040850916 -0.05159114855170355 0.049357114870368646 0.0022340336813349206 5.375340733173618e-06 0.0 0.0
0.0 0.04510963512815684 -0.039829896829936415 0.0379096794583016 0.0019202173716347851 -0.00014853085726860334 0.0 0.0
0.0 0.03359137230988313 -0.029615403919029934 0.027979666254847976 0.0016357376641819624 -0.00022647771357405802 0.0 0.0
0.0 0.02359796003982586 -0.02096591001915045 0.01957655483456871 0.0013893551845817608 -0.0002873319439574123 0.0 0.0
0.0 0.01548066134368389 -0.01389659501465964 0.012722198573811558 0.001174396440848092 -0.0003354080690299683 0.0 0.0
0.0 0.009260462337873492 -0.00841061918197411 0.007446695148922055 0.0009639240330520517 -0.00032709483272174225 0.0 0.0
0.0 0.004784244609153287 -0.004430346246079631 0.0037219651725061116 0.0007083810735735192 -0.0002895987781568703 0.0 0.0
0.0 0.0020053385236923436 -0.0017589093480365864 0.0013639346124845243 0.00039497473555206314 -0.00022862768021952802 0.0 0.0
0.0 0.00049591292707343 -0.00033559260749703185 0.00023733051204316035 9.826209545387224e-05 -9.379808044577069e-05 0.0 0.0
0.0 3.553429671827111e-06 -2.1784197155011392e-06 1.0040436060914508e-06 1.1743761094096634e-06 -3.099163527116774e-06 0.0 0.0
0.0 0.0 0.0 0.0 0.0 0.0 0.0 0.0
0.0 0.0 0.0 0.0 0.0 0.0 0.0 0.0
0.0 0.0 0.0 0.0 0.0 0.0 0.0 0.0
SCALARS Wm float 4
LOOKUP_TABLE default
11.51545825787031 1.9687342443960016 4.689417644113552 4.85730636936075
5.512848155692864 2.6892447310622245 1.247091632848703 1.5765117917819398
0.6145168518318334 0.5930039878829072 -7.576905838817177e-05 0.0215886330073141
0.4866445954859338 0.4715608377514449 0.004087262870449034 0.010996494864039773
0.9184471623738926 0.7117854495290725 0.07290137126525155 0.13376034157956768
1.8926770878549708 0.987470104994618 0.3180262079424539 0.5871807749178979
3.8162731297150287 1.377537725550503 1.0095253046408574 1.429210099523672
6.898205441998356 1.8404573584356891 2.291536369656165 2.7662117139064972
11.407202056321724 2.405909796642209 4.365075464517586 4.636216795161932
17.5609961026954 3.1096594816791567 7.39528274847019 7.05605387254606
25.504405773204535 3.989405219610474 11.494493481383234 10.020507072210822
35.23819918926344 5.0681935422394915 16.644932903822117 13.525072743201862
46.962952565162595 6.34032635794285 23.055052663179445 17.5675735440403
60.72483514177111 7.800332747405383 30.77812538884603 22.146377005519692
76.41292927250599 9.343592952406341 39.84727405175383 27.222062268345816
93.59322759307148 10.777507687711031 50.137909917159185 32.677809988201275
111.33013590801575 11.857943339709555 61.169621787978414 38.302570780327756
128.26708756530113 12.383836296604308 72.17011363785241 43.71313763084437
142.86544217645854 12.365156782598046 82.06022086949477 48.44006452436581
153.09391752490825 11.745959338122034 89.39751919757835 51.95043898920784
156.4947860281797 10.666594699468588 92.40821335887352 53.41997796983754
153.09391752488676 11.745959338119913 89.39751919756478 51.9504389892021
142.86544217640932 12.365156782590777 82.06022086946618 48.440064524352344
128.26708756524994 12.383836296617057 72.17011363780964 43.713137630823226
111.33013590795113 11.85794333971475 61.16962178793197 38.30257078030441
93.59322759298855 10.777507687694312 50.1379099171158 32.67780998817848
76.4129292724294 9.343592952398007 39.847274051709896 27.222062268321483
60.72483514169461 7.800332747395272 30.778125388803904 22.146377005495403
46.96295256509829 6.340326357942945 23.055052663139428 17.567573544015964
35.238199189206014 5.0681935422384425 16.644932903787975 13.525072743179614
25.504405773153024 3.989405219604471 11.494493481356486 10.020507072192052
17.560996102655736 3.1096594816743015 7.395282748450439 7.056053872530997
11.407202056292991 2.405909796638875 4.365075464503922 4.636216795150204
6.8982054419785275 1.8404573584316883 2.291536369648225 2.7662117138986186
3.816273129703953 1.3775377255495294 1.0095253046362391 1.4292100995181858
1.8926770878495776 0.9874701049937908 0.3180262079408963 0.5871807749148901
0.9184471623714789 0.7117854495277106 0.07290137126484379 0.13376034157892508
0.4866445954853966 0.47156083775083457 0.004087262870460254 0.010996494864101855
0.6145168518309323 0.593003987882275 -7.576905845279225e-05 0.021588633007109646
5.512848155687527 2.689244731062547 1.2470916328459827 1.5765117917789957
11.515458257844784 1.9687342443836857 4.689417644106356 4.85730636935475
13.58319028557625 6.012989344021554 3.6056460164904833 3.964554925064214
2.1107767969758675 0.4626245005770385 0.6774942564751943 0.9706580399236338
0.2484955321561975 0.2790833927974506 -0.008786178524815723 -0.02180168211643746
0.38413153974025 0.3817187820537309 0.00027323147820966303 0.0021395262083095403
0.6997937986222578 0.5853210479052866 0.03367444084222236 0.08079830987474897
1.5187085188218823 0.842707367215215 0.24189088136394232 0.4341102702427254
3.1341191749129633 1.121445320183336 0.8092392501840885 1.2034346045455384
5.841089927198071 1.4521935925965836 1.9539106219151046 2.4349857126863825
9.824992271128778 1.8183331486762198 3.8339371285880173 4.17272199386454
15.215492111529311 2.22893152914551 6.565894010122365 6.420666572261437
22.108413341711508 2.6909524563915026 10.25174471343098 9.165716171889024
30.62293867279561 3.2218648245501003 15.005309342833517 12.395764505411998
40.65527601414601 3.834710203851776 20.699172383584628 16.1213934267096
52.547318316077785 4.511943486850045 27.69017672920509 20.34519810002266
66.1501087088821 5.2083760143161175 35.89334256133323 25.048390133232765
81.14200353689881 5.814884392926699 45.20252387534155 30.124595268630525
96.79953327044666 6.194243476004977 55.26118676249679 35.34410303194484
111.98731352801461 6.2462485894399284 65.35140743227436 40.38965750630033
125.1732262911949 5.9162617264903075 74.44136045459965 44.81560411010493
134.4831886165665 5.249833234871968 81.20458119265975 48.02877418903482
137.9373880416683 4.519085906359876 84.05642020727814 49.361881928030336
134.4831886165514 5.249833234876148 81.20458119264663 48.028774189028574
125.17322629116379 5.916261726499502 74.4413604545726 44.81560411009173
111.98731352795124 6.246248589428756 65.35140743223933 40.389657506283214
96.79953327039087 6.194243476013309 55.261186762454464 35.34410303192309
81.14200353683455 5.814884392922557 45.20252387530231 30.12459526860968
66.15010870881578 5.208376014311142 35.893342561293835 25.048390133210802
52.54731831601127 4.511943486843737 27.690176729167135 20.345198100000406
40.65527601408862 3.834710203852867 20.69917238354866 16.121393426687078
30.622938672743174 3.2218648245485895 15.005309342802981 12.395764505391599
22.108413341667756 2.690952456389759 10.251744713406538 9.16571617187146
15.215492111495148 2.2289315291432317 6.565894010104571 6.420666572247342
9.824992271103127 1.8183331486730347 3.833937128576152 4.1727219938539415
5.841089927181294 1.452193592594635 1.9539106219077982 2.434985712678862
3.1341191749032844 1.1214453201825891 0.8092392501801206 1.203434604540574
1.5187085188173046 0.8427073672142693 0.24189088136245046 0.4341102702405846
0.6997937986207597 0.5853210479044622 0.03367444084197724 0.0807983098743204
0.3841315397399733 0.3817187820533939 0.00027323147821662377 0.0021395262083628982
0.24849553215618708 0.27908339279726896 -0.008786178524756156 -0.02180168211632573
2.1107767969698266 0.46262450057623433 0.6774942564727102 0.9706580399208831
13.583190285551431 6.012989344010288 3.605646016483303 3.964554925057835
10.1416106947419 4.737213914294998 2.463571238738831 2.940825541708074
1.2943113065548373 0.17340599203492305 0.44693628510316413 0.6739690294167495
0.15663929909951968 0.15664018432922078 -3.6811495252537546e-08 -8.48418205815541e-07
0.28839465805374015 0.2897397208268635 -0.00024920666110358363 -0.001095856112019756
0.5364826053434717 0.49800754704857864 0.008950290302764521 0.029524767992128435
1.181654699147262 0.7563371444048422 0.1468430494470378 0.27847450529538204
2.5287239629043805 1.0259699772259832 0.5763186214203153 0.9264353642580827
4.889447331491721 1.3409932280813899 1.5366152844944851 2.011838818915845
8.389890253753608 1.6773774967795707 3.142526998133927 3.569985758840107
13.150377777162095 2.0410017593474383 5.520365979328659 5.589010038485997
19.199239436016484 2.4432840837330296 8.71292054326666 8.043034809016797
26.55590085331107 2.899664188072086 12.737580078192972 10.918656587046003
35.44571691689057 3.433591377308888 17.793342055978208 14.218783483603465
45.721500160877554 4.038204874824534 23.709539463179933 17.973755822873073
57.63863804747582 4.663296945764552 30.8122246898577 22.163116411853572
70.84062196470359 5.233743013318131 38.89686256393188 26.710016387453596
84.73188814333693 5.638609765858889 47.65562707109367 31.437651306384375
98.29510674802617 5.754884744666766 56.52089675655288 36.019325246806545
110.09847404897528 5.487453018996411 64.57220346599922 40.03881756397967
118.47674573238906 4.973796448055358 70.55911421107419 42.94383507325951
121.4909940594296 4.10459161157341 73.17314093564718 44.213261512209044
118.47674573236691 4.973796448048363 70.55911421106416 42.943835073254355
110.09847404893803 5.487453018993994 64.57220346597589 40.03881756396816
98.29510674798529 5.754884744668073 56.52089675652503 36.019325246792135
84.73188814327708 5.638609765853061 47.65562707105829 31.437651306365723
70.8406219646491 5.23374301331731 38.89686256389725 26.71001638743455
57.63863804742133 4.663296945765014 30.81222468982277 22.16311641183351
45.72150016082035 4.038204874819414 23.709539463147557 17.973755822853388
35.44571691683922 3.4335913773075735 17.79334205594776 14.218783483583877
26.555900853263303 2.899664188067885 12.737580078167143 10.918656587028286
19.19923943597744 2.443284083731308 8.712920543245348 8.043034809000778
13.150377777131798 2.041001759345058 5.520365979313372 5.589010038473366
8.3898902537323 1.6773774967786268 3.142526998123366 3.569985758830307
4.889447331476291 1.3409932280788117 1.5366152844882686 2.011838818909211
2.528723962896171 1.0259699772255737 0.5763186214170583 0.9264353642535392
1.1816546991437167 0.7563371444039189 0.1468430494460214 0.2784745052937766
0.5364826053424023 0.4980075470478228 0.008950290302655943 0.029524767991923356
0.2883946580535564 0.28973972082665617 -0.00024920666109858183 -0.001095856112001289
0.15663929909951177 0.15664018432921206 -3.68114952114993e-08 -8.484182050657688e-07
1.294311306550443 0.17340599203476192 0.44693628510126093 0.6739690294144196
10.141610694718253 4.737213914284525 2.463571238732133 2.9408255417015954
7.606704090851787 3.681069470579331 1.716923845983942 2.2087107742885164
0.8558174615255787 0.08855397824967932 0.28724901251357954 0.4800144707623194
0.11041010631141562 0.11041010631141562 0.0 0.0
0.21761981869612715 0.21766991066663957 7.545032997674385e-09 -5.0099515545423486e-05
0.41292184084571 0.4113068155819764 -0.0002934200733338773 0.0019084453370674256
0.8817359853315277 0.651785694785054 0.0698327481206016 0.16011754242587253
1.9926806850403775 0.9353960621103818 0.394607513803116 0.6626771091268793
3.976132666217212 1.2241661961827865 1.1517714512197486 1.6001950188146763
7.006852063048681 1.5333459532258367 2.499665380258876 2.973840729563965
11.130486275220768 1.8553832655654425 4.5141459977919 4.760957011863429
16.331455311124127 2.2012254875504635 7.204240329794098 6.925989493779562
22.689971148175054 2.595498557021942 10.647287307822264 9.44718528333086
30.1927569022317 3.0533719124048395 14.805360289149622 12.334024700677244
39.16033972870286 3.5780917112719712 19.97474684640151 15.607501171029394
49.37482981355949 4.143395603639621 25.94758173736388 19.283852472556003
60.746858470373596 4.681813555598731 32.764693063034606 23.30035185174026
72.93989459746561 5.104565629939939 40.33686413416788 27.498464833357737
84.95174791897605 5.288428242964731 48.03649183383268 31.626827842178653
95.50865565799357 5.132738647682198 55.07848817706167 35.29742883324966
103.12932087389999 4.723011775575363 60.39823840726654 38.008070691058144
105.87668079615123 3.6828406652397763 62.937521873111265 39.25631825780019
103.12932087389663 4.7230117755856265 60.39823840725734 38.00807069105364
95.5086556579656 5.1327386476817765 55.078488177043525 35.29742883324035
84.95174791894131 5.288428242968597 48.03649183380731 31.626827842165405
72.93989459742232 5.10456562994157 40.336864134138914 27.498464833341842
60.74685847032512 4.681813555596468 32.76469306300512 23.30035185172356
49.374829813503894 4.143395603630515 25.947581737334747 19.283852472538623
39.16033972865584 3.5780917112693933 19.974746846374238 15.607501171012203
30.192756902188076 3.0533719124039185 14.80536028912399 12.334024700660162
22.689971148134546 2.595498557017815 10.64728730780113 9.4471852833156
16.331455311090657 2.2012254875486983 7.2042403297763045 6.925989493765657
11.130486275194396 1.8553832655625675 4.514145997779222 4.760957011852602
7.006852063029418 1.5333459532245999 2.499665380249704 2.9738407295551155
3.9761326662045784 1.2241661961797756 1.1517714512154071 1.600195018809396
1.992680685033224 0.9353960621098032 0.3946075138002627 0.6626771091231578
0.8817359853289601 0.6517856947842802 0.06983274811994312 0.1601175424247368
0.412921840844881 0.4113068155811146 -0.00029342007333889726 0.0019084453371052276
0.2176198186960226 0.2176699106665523 7.545031693201638e-09 -5.00995155613929e-05
0.11041010631133873 0.11041010631133873 0.0 0.0
0.8558174615218461 0.08855397824952384 0.2872490125119875 0.4800144707603351
7.60670409083293 3.6810694705715097 1.71692384597867 2.208710774282753
5.618613474354068 2.8381493740088315 1.152721510800778 1.6277425895444573
0.6263370746819138 0.10733162565329091 0.19985816758208833 0.3191472814465347
0.10048862815326282 0.10048862815326282 0.0 0.0
0.1737341647338091 0.17372787516681615 3.5059575947504334e-07 5.938971233487455e-06
0.3211117942519848 0.32626592555841893 -0.0015653220267958794 -0.003588809279638258
0.6511276690046425 0.5614147149871126 0.02329727892264743 0.06641567509488205
1.5056958159393823 0.8241200305762766 0.24942781743613146 0.43214796792697496
3.1154770409596857 1.1029736248872202 0.8075307352801192 1.204972680792346
5.671185440332229 1.3848271920767847 1.8989176054818073 2.3874406427736385
9.161732137986968 1.6695727974103627 3.5522614158877137 3.9398979246888928
13.570615514601899 1.9685723612179307 5.786860769249 5.815182384134963
18.904745721565007 2.3021905980199073 8.617479446412737 7.985075677132368
25.2636704788135 2.6941140968041806 12.113149771734667 10.456406610274655
32.62663252537361 3.1479337797188762 16.215917268279448 13.262781477375288
41.28149735815885 3.641259296540966 21.224121703514637 16.416116358103245
51.02772727010402 4.145800182856047 26.996318873100314 19.885608214147688
61.42277279225478 4.58834541203475 33.27097213036643 23.5634552498536
71.90684928365516 4.851121462280794 39.83419995959491 27.22152786177944
81.33305244129363 4.81677513017832 45.981075246623 30.535202064492356
88.37592378711747 4.494874300300658 50.80668019723138 33.07436928958539
90.95882305421347 3.265674711205078 53.31670378346419 34.376444559544254
88.37592378710778 4.494874300306371 50.80668019722131 33.07436928958011
81.3330524412645 4.816775130170735 45.98107524660889 30.535202064484846
71.90684928362272 4.8511214622812915 39.83419995957364 27.221527861767797
61.42277279220993 4.588345412026379 33.270972130343075 23.56345524984046
51.027727270060474 4.145800182849329 26.996318873077154 19.885608214133974
41.28149735811889 3.641259296539477 21.224121703490898 16.41611635808853
32.62663252533449 3.147933779716936 16.215917268256987 13.262781477360557
25.263670478775758 2.694114096801602 12.113149771713989 10.45640661026016
18.90474572153285 2.302190598018985 8.617479446394928 7.985075677118941
13.570615514572799 1.9685723612149977 5.786860769234597 5.815182384123204
9.161732137965119 1.669572797407841 3.552261415877515 3.939897924679765
5.671185440316459 1.3848271920760447 1.898917605474452 2.387440642765961
3.11547704094949 1.1029736248849835 0.8075307352765416 1.204972680787963
1.505695815933518 0.8241200305749234 0.24942781743425685 0.4321479679243378
0.6511276690027694 0.5614147149861436 0.023297278922351162 0.06641567509427462
0.3211117942515048 0.32626592555775585 -0.001565322026761147 -0.003588809279489889
0.1737341647336471 0.17372787516665766 3.5059575927603094e-07 5.938971230153005e-06
0.10048862815319023 0.10048862815319023 0.0 0.0
0.6263370746789175 0.1073316256531331 0.19985816758080868 0.31914728144497656
5.618613474339394 2.838149374003054 1.1527215107966982 1.627742589539641
4.070162766516524 2.171777971406858 0.7505368337839169 1.1478479613257502
0.44296519959586594 0.1426526703264043 0.10051250318061372 0.19980002608884762
0.11284764459424028 0.11284764459424028 0.0 0.0
0.15219612480068134 0.15217839604922212 1.169214643420643e-06 1.655953681576686e-05
0.2603309619837855 0.2632318611722485 -0.0005219155898364253 -0.00237898359862657
0.47720789997065083 0.4589149051918869 0.0012428962963706217 0.01705009848239333
1.0626758531838376 0.6935063066551155 0.11410493608527798 0.2550646104434442
2.3589951918363945 0.9743871929909816 0.5514873259840644 0.8331206728613493
4.374241721889255 1.2281931928297831 1.3314500655396555 1.814598463519817
7.273465458030783 1.483552065766486 2.6610946972823917 3.128818694981904
10.895111388014783 1.740019143620771 4.442246758046108 4.7128454863479
15.244302813511965 2.0217392464462325 6.688478448011883 6.534085119053856
20.379008764157682 2.3510703728459386 9.433665218544576 8.594273172767164
26.44718378369798 2.736246669152295 12.781736755767602 10.929200358778079
33.45848253920407 3.174028366374659 16.717792194253278 13.566661978576132
41.402091747240945 3.627663586510477 21.28518326383934 16.489244896891126
50.24663782646998 4.0701471246640715 26.564976326066894 19.611514375739027
59.200028597637726 4.424551260466843 31.976953927741434 22.79852340942945
67.48431200862646 4.525090337346346 37.17769461573746 25.781527055542632
74.07258532479658 4.2910319436223805 41.599721275779594 28.181832105394587
76.58235307230636 2.861422817926246 44.160822353498105 29.560107900881974
74.07258532478107 4.2910319436174165 41.59972127577283 28.18183210539082
67.48431200861451 4.525090337352177 37.17769461572604 25.78152705553631
59.200028597610526 4.4245512604661155 31.97695392772448 22.798523409419907
50.2466378264465 4.070147124671106 26.5649763260477 19.611514375727694
41.40209174721196 3.6276635865122357 21.28518326382039 16.489244896879384
33.458482539163334 3.174028366364958 16.71779219423446 13.56666197856392
26.44718378366511 2.7362466691488416 12.781736755750224 10.929200358766039
20.379008764128887 2.3510703728456575 9.433665218528123 8.594273172755111
15.24430281348423 2.0217392464439308 6.688478447997669 6.534085119042632
10.89511138799166 1.740019143619031 4.442246758034602 4.712845486338031
7.273465458013218 1.4835520657654337 2.66109469727399 3.1288186949737926
4.37424172187607 1.2281931928287748 1.3314500655339034 1.8145984635133923
2.358995191828126 0.9743871929895153 0.5514873259810069 0.833120672857603
1.0626758531799598 0.6935063066539497 0.11410493608425268 0.25506461044175693
0.4772078999695284 0.4589149051909278 0.0012428962963179934 0.01705009848228261
0.2603309619833837 0.2632318611718152 -0.0005219155898294867 -0.002378983598602092
0.15219612480045236 0.15217839604899958 1.1692146428938903e-06 1.6559536809874406e-05
0.11284764459403464 0.11284764459403464 0.0 0.0
0.4429651995937507 0.14265267032634898 0.10051250317973166 0.1998000260876703
4.070162766504869 2.171777971401874 0.7505368337810143 1.1478479613219827
2.839823413345626 1.636605224268299 0.44032944562395315 0.762888743453375
0.33493711129459697 0.18532324030290612 0.045275531940572 0.10433833905111893
0.13512900750177273 0.13514476533372705 -8.23290305344124e-07 -1.4934541648948963e-05
0.1474404273234246 0.1474347653761425 3.8189143181449443e-07 5.280055850313281e-06
0.2215282823996134 0.22221794547250648 -0.00012349848330126036 -0.0005661645895918677
0.36056777394856887 0.37219458580620357 -0.004277030729667604 -0.0073497811279669804
0.7347638430550474 0.5779905711933019 0.04105419055436825 0.11571908130737721
1.6158180185364162 0.8119932678392151 0.28055069457480597 0.5232740561223952
3.2481261148277416 1.0724897676704257 0.911071885831324 1.2645644613259912
5.440850809581779 1.2903133999447127 1.820775831954081 2.329761577682985
8.330368682840307 1.5135893799354012 3.19427399786927 3.6225053050356384
11.746327320835956 1.7502332206661682 4.900495026377199 5.095599073792584
15.738465357764674 2.0238052644839213 6.965213790205101 6.749446303075657
20.42740091270257 2.347000705363141 9.463143736850403 8.617256470489023
25.904235013067826 2.719741498331556 12.447157923413382 10.737335591322884
32.30676577418972 3.1343445097346527 16.06489001364827 13.10753125080679
39.193003324006895 3.559805108890498 19.947591374026235 15.68560684109018
46.70681055426594 3.9765326238513534 24.380088823236054 18.350189107178537
54.07527340517043 4.2341171941312865 28.86254498232775 20.978611228711383
60.21467010698953 4.116746221076427 32.820609308058636 23.27731457785446
62.757335140232236 2.4815344101359793 35.49554275736159 24.780257972734674
60.21467010698306 4.11674622107538 32.820609308055154 23.277314577852508
54.075273405157446 4.234117194134708 28.862544982317395 20.978611228705365
46.70681055424068 3.976532623845457 24.380088823223986 18.35018910717122
39.193003323978 3.5598051088875287 19.947591374010248 15.68560684108024
32.3067657741608 3.1343445097315983 16.064890013632628 13.107531250796573
25.904235013043348 2.7197414983298387 12.447157923399985 10.737335591313522
20.427400912678266 2.347000705361239 9.463143736837491 8.617256470479543
15.738465357741248 2.0238052644825673 6.965213790192689 6.749446303065998
11.746327320814379 1.7502332206636237 4.900495026366838 5.095599073783923
8.330368682820959 1.5135893799325966 3.1942739978606687 3.6225053050276936
5.440850809567575 1.2903133999446066 1.8207758319471017 2.3297615776758684
3.2481261148172504 1.072489767668552 0.9110718858272313 1.2645644613214677
1.6158180185305542 0.8119932678380483 0.28055069457285065 0.5232740561196555
0.7347638430523392 0.5779905711920916 0.04105419055383187 0.11571908130641571
0.3605677739479157 0.37219458580536624 -0.004277030729616217 -0.007349781127834168
0.22152828239915154 0.2222179454720449 -0.00012349848330229737 -0.0005661645895910697
0.14744042732307425 0.14743476537579395 3.8189143166517263e-07 5.28005584866719e-06
0.13512900750148665 0.13514476533342212 -8.232903041218908e-07 -1.4934541631370911e-05
0.3349371112928925 0.18532324030267755 0.04527553193997921 0.10433833905023546
2.839823413337053 1.636605224264623 0.44032944562196874 0.7628887434504624
1.960749779710142 1.2560152567829896 0.26281186037376253 0.44192266255339047
0.25023882783000584 0.20535211622979613 0.005176079620972222 0.039710631979237354
0.15904562391120775 0.15903874504939464 4.794575328611232e-07 6.399404280218839e-06
0.15396823349841463 0.15394518516297093 1.6035202761400769e-06 2.1444815167550736e-05
0.1987152282245091 0.19950984892705337 -0.00011284641613781593 -0.0006817742864064057
0.29020991522706824 0.3005255851679317 -0.0027286045289069416 -0.007587065411956667
0.4948896987533597 0.46160633868042383 0.003324041715138637 0.029959318357797127
1.0364661217843771 0.6523352914569618 0.11459049186851615 0.26954033845889974
2.115733810070875 0.8750584513332503 0.4632403334376964 0.7774350252999284
3.8083454090209568 1.0915271809872027 1.159468348504873 1.5573498795288814
5.889606074728417 1.2799743337857223 2.0630473974742394 2.5465843434684543
8.401215806806345 1.477973380924086 3.2479033822452377 3.675339043637018
11.329998347828548 1.7042330407595638 4.698488160961638 4.927277146107345
14.736423076656669 1.9682792416856525 6.433205456377001 6.334938378594017
18.78016324112154 2.284523187580337 8.55815740168023 7.937482651860975
23.46141928029125 2.6497060980010483 11.054617739308586 9.757095442981619
28.84608010891968 3.0478956163106448 14.03795879834221 11.760225694266826
34.66399113044473 3.496621304084543 17.25425976212774 13.913110064232459
40.773584622354726 3.9066569612747926 20.717931030775812 16.148996630304126
46.601106331938105 3.9648512067363897 24.314323958627753 18.321931166573965
49.31037049369854 2.1333907977606232 27.176411310187166 20.00056838575075
46.60110633193754 3.964851206739475 24.314323958625376 18.321931166572686
40.77358462234224 3.906656961273063 20.717931030769165 16.14899663030002
34.66399113042624 3.496621304078509 17.254259762120178 13.913110064227572
28.84608010890474 3.0478956163154565 14.037958798330422 11.760225694258859
23.46141928027061 2.649706098000015 11.054617739297102 9.757095442973501
18.78016324110438 2.284523187581315 8.558157401669847 7.93748265185322
14.736423076638301 1.9682792416829566 6.433205456368234 6.334938378587111
11.329998347813532 1.7042330407607753 4.698488160952838 4.927277146099918
8.401215806791996 1.4779733809242428 3.2479033822376957 3.675339043630054
5.88960607471525 1.2799743337845353 2.0630473974682824 2.5465843434624316
3.8083454090099336 1.0915271809864424 1.1594683484999357 1.5573498795235556
2.115733810064292 0.8750584513319568 0.4632403334353908 0.7774350252969447
1.0364661217805835 0.6523352914555631 0.11459049186761201 0.2695403384574077
0.4948896987519536 0.46160633867969425 0.0033240417149582725 0.029959318357301187
0.2902099152263086 0.30052558516687594 -0.002728604528862502 -0.007587065411704926
0.19871522822420506 0.19950984892675128 -0.0001128464161351797 -0.0006817742864109946
0.15396823349804795 0.15394518516261027 1.6035202755702054e-06 2.1444815162099012e-05
0.15904562391093774 0.15903874504912113 4.794575329594315e-07 6.39940428362168e-06
0.2502388278288348 0.20535211622943203 0.005176079620697506 0.039710631978705176
1.9607497797041518 1.256015256780444 0.2628118603723113 0.4419226625513965
1.2641510237453564 0.9316852407015687 0.10445635898810023 0.22800942405568764
0.20435013070367458 0.21106608217384992 -0.00581144434705859 -0.0009045071231166502
0.17996129645439043 0.18005072964625088 -7.491667817260607e-06 -8.19415240432175e-05
0.16696612849669826 0.16699443025187588 -1.911838206656354e-06 -2.6389916971011686e-05
0.18884837146645728 0.18962491761322048 -0.00011536172358507896 -0.0006611844231780935
0.24828949973591702 0.2524769668055134 -0.001354134865980402 -0.0028333322036159857
0.3555406041877876 0.3632913351583078 -0.004442833582215923 -0.0033078973883042314
0.6180465518996033 0.5058680883470708 0.026715568449443512 0.08546289510308892
1.2109174687568867 0.6683789081632486 0.17515346262192086 0.36738509797171687
2.235975330542596 0.8464546240345266 0.5340266276786437 0.8554940788294255
3.5968411099594992 1.011588521210849 1.0680882034026522 1.5171643853459988
5.2643185487535735 1.1806061477085552 1.7957345112841891 2.2879778897608287
7.190200831766306 1.366991938270526 2.6778845323709244 3.1453243611248554
9.41827400127134 1.578524736089075 3.734741210866181 4.105008054316084
12.068355128344498 1.8350400861886609 5.0332144474284535 5.200100594727385
15.24473168505673 2.1516437415292735 6.629099653855897 6.463988289671559
18.9706590620823 2.525236837542004 8.538421847225631 7.907000377314661
23.14639641193251 2.9342323160892287 10.707006880976802 9.505157214866482
27.996986827429534 3.45856556457895 13.250532477796202 11.287888785054378
33.460258580758364 3.8250053896229503 16.338840926783597 13.296412264351808
36.4194687422888 1.8552129502209467 19.286299322269812 15.277956469798054
33.46025858075771 3.825005389622686 16.338840926783362 13.296412264351652
27.996986827430085 3.4585655645865785 13.250532477792012 11.287888785051495
23.14639641192271 2.9342323160872827 10.707006880972154 9.505157214863264
18.970659062060633 2.5252368375341 8.538421847217718 7.907000377308818
15.244731685040932 2.1516437415261644 6.629099653848752 6.463988289666019
12.068355128331417 1.8350400861874936 5.033214447421913 5.200100594722003
9.418274001262475 1.5785247360895494 3.7347412108611993 4.105008054311729
7.190200831754962 1.366991938269746 2.677884532365541 3.1453243611196737
5.264318548742315 1.1806061477072625 1.7957345112791947 2.2879778897558603
3.596841109950544 1.011588521209931 1.0680882033989207 1.5171643853416934
2.2359753305356125 0.8464546240331368 0.534026627676133 0.8554940788263427
1.21091746875297 0.6683789081622296 0.17515346262077966 0.36738509796996105
0.6180465518977929 0.5058680883462147 0.026715568449146167 0.08546289510243218
0.3555406041867769 0.3632913351572002 -0.004442833582219849 -0.003307897388203444
0.24828949973529493 0.25247696680462 -0.0013541348659421668 -0.0028333322033828536
0.18884837146615427 0.18962491761294167 -0.00011536172358756637 -0.0006611844231998073
0.16696612849644532 0.16699443025161892 -1.91183820609508e-06 -2.638991696751545e-05
0.17996129645399842 0.18005072964583477 -7.491667815417641e-06 -8.194152402093453e-05
0.20435013070303823 0.21106608217343348 -0.005811444347125419 -0.0009045071232699713
1.2641510237414064 0.9316852406997274 0.10445635898728833 0.2280094240543909
0.8104684439313409 0.7072636182006782 0.02810704431592356 0.0750977814147394
0.18186237057195864 0.19657389848021734 -0.004218892052814257 -0.010492635855444537
0.1954194535466365 0.1954321344679119 -6.695763111968447e-07 -1.2011344964188092e-05
0.1825264015006064 0.18253167436871603 3.503210944384899e-07 -5.623189204074868e-06
0.19009960958843738 0.1906047341279813 -8.295361818741989e-05 -0.00042217092135646457
0.22637216504180296 0.23155710785605052 -0.0012939911495347845 -0.0038909516647127125
0.2895634872103199 0.2905345243878907 -0.001373230913602948 0.0004021937360319885
0.38172107319901555 0.3546167040153384 0.004856848618873478 0.022247520564803624
0.5748907102687291 0.4411706385389781 0.034195525880761794 0.09952454584898911
0.9765230453779263 0.5582635155029251 0.13383012011679685 0.2844294097582045
1.642796194159449 0.680389971755479 0.36046290699704436 0.6019433154069254
2.463479869406558 0.7879816359315636 0.6564218637851403 1.0190763696898535
3.46649593995258 0.9155508189347604 1.0576237197334488 1.4933214012843714
4.656682318278549 1.0709020166682517 1.5577769422532413 2.0280033593570597
6.080400311341548 1.2606848573627316 2.1724416708869048 2.647273783091912
7.8526263067803255 1.5143073984992317 2.950401113492817 3.387917794788273
10.100254790043355 1.8492465586149864 3.9620159994916984 4.2889922319366685
12.859847848103572 2.2323790670174724 5.267342589667619 5.360126191418482
16.12263303863524 2.6588870402401152 6.84748462928169 6.616261369113438
20.729558931556618 3.4561272326422 9.002244967160117 8.271186731754298
24.72547908862987 1.726060985338684 12.347146462176374 10.652271641114812
20.729558931558728 3.4561272326416175 9.002244967161674 8.271186731755426
16.122633038628763 2.658887040237885 6.847484629279249 6.616261369111626
12.859847848098534 2.2323790670189725 5.2673425896640245 5.360126191415541
10.100254790040855 1.849246558620231 3.9620159994875026 4.288992231933121
7.85262630677265 1.514307398497437 2.950401113489787 3.387917794785427
6.080400311338048 1.2606848573649794 2.172441670884052 2.6472737830890165
4.656682318271329 1.0709020166649728 1.5577769422512497 2.028003359355104
3.4664959399461477 0.9155508189325287 1.0576237197314489 1.49332140128217
2.4634798694009286 0.7879816359304105 0.6564218637830891 1.0190763696874292
1.6427961941552416 0.680389971755425 0.3604629069952769 0.60194331540454
0.9765230453752678 0.5582635155016232 0.1338301201162444 0.28442940975740005
0.5748907102676459 0.4411706385386014 0.034195525880541394 0.09952454584850298
0.3817210731984913 0.3546167040149568 0.004856848618820341 0.02224752056471432
0.28956348720963787 0.29053452438726624 -0.0013732309136343915 0.0004021937360059796
0.22637216504127733 0.23155710785535466 -0.0012939911494993029 -0.003890951664578031
0.19009960958798883 0.19060473412758652 -8.295361819431796e-05 -0.00042217092140341193
0.18252640150023272 0.18253167436831386 3.503210967501979e-07 -5.62318917787672e-06
0.19541945354636034 0.19543213446762603 -6.695763105209002e-07 -1.2011344955200635e-05
0.18186237057163654 0.19657389847962048 -0.00421889205275029 -0.010492635855233665
0.8104684439289991 0.7072636181993673 0.028107044315591495 0.07509778141403999
0.5191242359875301 0.5088209097881035 0.001413416319055386 0.008889909880371074
0.17407936362462204 0.1758027704288387 -0.00023699298966442178 -0.001486413814552249
0.20507128687479284 0.20520103475717383 -1.0250859998171325e-05 -0.00011949702238287539
0.19793020978590137 0.19809763573570605 -1.6910767203728612e-05 -0.00015051518260096708
0.19976582129531342 0.2004059203394113 -0.00012017040921196917 -0.0005199286348859507
0.22410292354637346 0.22781286585384206 -0.0010530702381327554 -0.002656872069335776
0.270281502521401 0.26921379710462257 -0.0006789340521893875 0.0017466394689678593
0.31949269169030087 0.28256663050637354 0.007767910382889844 0.029158150801037418
0.35787337139708786 0.260946034430705 0.028694700013554227 0.06823263695282891
0.4153233817164643 0.22080502629557766 0.061141201008118644 0.13337715441276785
0.5592527585093892 0.22125500612999163 0.1263059834304975 0.21169176894890024
0.7897430540443204 0.25378816581467223 0.2049818915800549 0.3309729966495938
1.1179835574343924 0.2930651603499441 0.32857872093625207 0.4963396761481963
1.5460808707623757 0.29872017664286765 0.509892214868994 0.7374684792505141
2.096111596571645 0.30483934701127746 0.7567372255078727 1.034535024052495
2.7692643905824212 0.33374835090249194 1.056046502535644 1.379469537144285
3.6180930314290327 0.4032718382757416 1.4420793747709608 1.7727418183823307
4.660567110630417 0.5180231443981913 1.9245655459924826 2.217978420239743
6.251805126983258 0.7797149603168089 2.6211504744074396 2.850939692259005
10.026670768702044 1.9516341201482998 3.868860344479881 4.206176304073866
16.683978967465748 1.6853649285359953 7.633549545325139 7.365064493604617
10.02667076870797 1.951634120151006 3.868860344481734 4.206176304075228
6.251805126975428 0.7797149603100818 2.621150474406736 2.8509396922586077
4.660567110622227 0.5180231443948724 1.9245655459900082 2.217978420237347
3.6180930314223536 0.40327183827471125 1.4420793747681095 1.7727418183795305
2.769264390582152 0.3337483509046998 1.0560465025345058 1.379469537142946
2.0961115965663835 0.3048393470090074 0.7567372255064428 1.0345350240509341
1.5460808707631635 0.2987201766451336 0.5098922148683028 0.7374684792497282
1.1179835574335926 0.2930651603515159 0.32857872093512447 0.49633967614695196
0.7897430540430387 0.25378816581484887 0.20498189157921426 0.33097299664897617
0.5592527585066853 0.22125500612898205 0.12630598342972685 0.21169176894797587
0.41532338171645455 0.2208050262958668 0.06114120100803174 0.13337715441255626
0.35787337139719866 0.2609460344310623 0.028694700013467887 0.06823263695266847
0.319492691689801 0.2825666305063693 0.0077679103827257975 0.029158150800705794
0.2702815025208267 0.26921379710408627 -0.0006789340522082841 0.0017466394689487613
0.22410292354591563 0.22781286585319793 -0.0010530702380998189 -0.0026568720691826754
0.19976582129498954 0.20040592033886187 -0.00012017040918716505 -0.0005199286346851207
0.19793020978557602 0.19809763573547007 -1.691076721330043e-05 -0.00015051518268072828
0.20507128687459256 0.20520103475698112 -1.0250859997608486e-05 -0.00011949702239099764
0.1740793636243757 0.17580277042859166 -0.00023699298966216008 -0.0014864138145537728
0.5191242359862767 0.5088209097866399 0.0014134163190527235 0.008889909880584116
0.34233305333664865 0.3426205435559697 -3.659412208962546e-05 -0.00025089609723142866
0.1654117940645999 0.16538305132225692 3.982057318083478e-06 2.4760685024898205e-05
0.20886115491830237 0.20883411204469887 2.024570372908324e-06 2.501830323061647e-05
0.21114308993004618 0.2113809127245603 -3.347535238594595e-05 -0.0002043474421281842
0.2151243779989671 0.21529489604493707 -7.351983010945112e-05 -9.699821586047665e-05
0.24131886856171975 0.24353114446343946 -0.0009309279357899423 -0.0012813479659297537
0.2978308261053761 0.298413598193069 -0.0008207426665809949 0.00023797057888807457
0.38494951240069547 0.35616234688028076 0.005528382598533232 0.02325878292188132
0.575569155001298 0.4408998655183974 0.03452421675851064 0.1001450727243899
0.9754327645517158 0.5577674089073354 0.13355438068054704 0.2841109749638331
1.643082954919485 0.6822345181488001 0.36016092657734383 0.6006875101933411
2.4722840086675517 0.7893091693499062 0.6610597369392786 1.021915102378367
3.4891576597457616 0.9194177454780044 1.0664891093579096 1.5032508049098474
4.691071541020527 1.0747508904708083 1.5733866216311423 2.0429340289185767
6.056199506367292 1.2491468023901302 2.16713137844436 2.6399213255327996
7.535873251905414 1.4472164334413078 2.826282919184456 3.262373899279652
8.941477631671743 1.6559312595002176 3.4566690055886076 3.8288773665829163
10.087846818714317 1.8888076451897695 3.98336519247033 4.215673981054215
10.492093964316675 2.0394140121889763 4.15415032232145 4.298529629806247
8.377205069824448 1.1658031653064422 3.629446690627049 3.581955213890956
16.891725775294038 2.9099764026561736 6.97181077673443 7.009938595903436
8.377205069824296 1.1658031653028937 3.6294466906289107 3.5819552138924857
10.492093964326532 2.0394140121983098 4.154150322321799 4.29852962980642
10.087846818705476 1.8888076451883564 3.9833651924662803 4.215673981050839
8.941477631656321 1.6559312594938238 3.456669005583811 3.8288773665786904
7.535873251890255 1.4472164334350937 2.8262829191798224 3.262373899275338
6.056199506360232 1.2491468023899854 2.1671313784409647 2.639921325529284
4.691071541014285 1.0747508904694953 1.5733866216286958 2.042934028916091
3.4891576597363714 0.9194177454753193 1.0664891093547386 1.5032508049063158
2.4722840086587823 0.7893091693480851 0.6610597369361474 1.0219151023745492
1.6430829549130612 0.6822345181485622 0.3601609265747002 0.6006875101897983
0.9754327645479118 0.5577674089059655 0.13355438067959458 0.2841109749623515
0.5755691550001631 0.44089986551755606 0.034524216758414876 0.1001450727241921
0.3849495123996041 0.3561623468798029 0.005528382598327606 0.0232587829214737
0.2978308261043515 0.29841359819218854 -0.0008207426666235653 0.00023797057878642645
0.2413188685613667 0.24353114446281862 -0.000930927935742778 -0.0012813479657092443
0.21512437799863104 0.21529489604441085 -7.351983008853395e-05 -9.699821569121162e-05
0.21114308992962746 0.21138091272403817 -3.34753523774117e-05 -0.00020434744203329608
0.20886115491795743 0.20883411204425661 2.0245703781087683e-06 2.5018303322777706e-05
0.16541179406433093 0.16538305132201125 3.982057316641854e-06 2.476068500308045e-05
0.3423330533358498 0.3426205435552054 -3.6594122095436364e-05 -0.0002508960972602207
0.22158008688741257 0.22158008688741257 0.0 0.0
0.15181161699169254 0.1518362130662102 -1.5725880685879657e-06 -2.3023486449051548e-05
0.20598797568720173 0.206118585326759 -1.2467642613094322e-05 -0.00011814199694419046
0.22077604630892425 0.22023316394427728 6.45748747956234e-05 0.00047830748985137683
0.2343512862896624 0.23624774343457527 -0.0003475871847328981 -0.0015488699601798924
0.27658430180380644 0.2829894113784692 -0.0014978174997137919 -0.004907292074949032
0.3683524941533827 0.3655107838215601 -0.002441467101006457 0.0052831774328290886
0.6235260243710828 0.506485929314547 0.02850580039105579 0.08853429466548007
1.2106667315754165 0.6682086882296353 0.17509398181517769 0.36736406153060325
2.233939209809505 0.8462526163201379 0.5330994227654547 0.854587170723911
3.59706989657124 1.0117254822143404 1.0680395826140692 1.517304831742829
5.271825937548454 1.1816324442917718 1.7989313364476291 2.291262156809052
7.210587200688442 1.369143035549545 2.6873690231985194 3.154075141940381
9.44553064973729 1.5785756666579394 3.7495471893532435 4.117407793726103
12.034759523250955 1.8166660040348623 5.025936776709765 5.192156742506325
14.917033718267497 2.076682108460252 6.489431135214781 6.350920474592466
17.855425982802608 2.3539289309448743 7.99964161896116 7.501855432896571
20.429468112241423 2.6666908728775334 9.275921138967501 8.486856100396382
21.740452469059633 2.7748334687636698 9.986926640412793 8.97869235988317
20.09477540888684 2.7332171465780646 9.149571195218213 8.211987067090561
24.491679306739087 6.17352604254423 9.573705968594123 8.744447295600716
20.094775408891994 2.7332171465786064 9.149571195220949 8.211987067092442
21.74045246904606 2.774833468751547 9.986926640411907 8.978692359882604
20.429468112235952 2.6666908728824708 9.27592113896145 8.486856100392027
17.855425982786823 2.3539289309449467 7.9996416189520785 7.501855432889796
14.917033718258372 2.0766821084660583 6.489431135206454 6.350920474585861
12.034759523236502 1.8166660040330393 5.025936776702864 5.1921567425005986
9.44553064971692 1.578575666650371 3.749547189346438 4.117407793720113
7.2105872006750324 1.3691430355489032 2.6873690231919336 3.154075141934197
5.271825937534278 1.1816324442903277 1.798931336441279 2.29126215680267
3.5970698965584953 1.0117254822126236 1.0680395826088982 1.5173048317369722
2.233939209801177 0.8462526163189107 0.5330994227622669 0.8545871707200012
1.2106667315702968 0.6682086882278275 0.17509398181385796 0.3673640615286109
0.6235260243690885 0.5064859293140145 0.028505800390597177 0.08853429466447685
0.36835249415221405 0.3655107838203514 -0.00244146710102931 0.005283177432891959
0.27658430180314936 0.2829894113776616 -0.0014978174996709078 -0.004907292074841292
0.23435128628923152 0.23624774343415944 -0.0003475871847364993 -0.0015488699601914173
0.22077604630847683 0.22023316394368292 6.457487480825698e-05 0.0004783074899856931
0.20598797568701094 0.20611858532657268 -1.2467642614018895e-05 -0.0001181419969477083
0.15181161699140783 0.151836213065919 -1.5725880679371782e-06 -2.302348644323898e-05
0.22158008688694153 0.22158008688694153 0.0 0.0
0.13665185267573246 0.13665185267573246 0.0 0.0
0.13291490043195114 0.13290552824153612 6.316936465528355e-07 8.74049676847986e-06
0.19643718524520895 0.1964682364162833 -1.8256901364633365e-06 -2.9225480937948953e-05
0.22652937323437036 0.22707603269737325 -7.251292312678717e-05 -0.0004741465398761029
0.25723791999149487 0.25883334882821074 -0.00034594525626805914 -0.0012494835804478458
0.3235835587660703 0.3247301095909597 -0.001646177704821607 0.0004996268799323683
0.5154457221997574 0.47201895581799636 0.007743305544208351 0.03568346083755262
1.0416543460866057 0.653334926503124 0.11670868342408927 0.27161073615939246
2.1137479153291325 0.8750004442044215 0.462360686400603 0.7763867847241073
3.8068767876184273 1.091643613087575 1.1589702632907857 1.5562629112400683
5.890128948684975 1.2799933029569996 2.0620688124246684 2.5480668333033067
8.407337707777181 1.4782954169559703 3.2510021194757313 3.678040171345482
11.340814986788173 1.7049343367032888 4.70403310520116 4.931847544883723
14.742828602087988 1.9663449445465733 6.438002462297611 6.338481195243801
18.728197481625436 2.2643366868006525 8.540233576961509 7.923627217863277
23.18609950570634 2.5821590378448005 10.933668455335784 9.670272012525757
27.97742310710046 2.909652312296906 13.603462540477587 11.46430825432597
32.17875371901355 3.1373165766649636 15.969135549838763 13.072301592509815
34.383470424702516 3.1456577985385223 17.301640691483147 13.936171934680837
31.866289401488118 2.7633633575794 16.02126087821192 13.081665165696794
35.810676227035316 8.905441191778184 14.675707664161493 12.229527371095642
31.86628940148893 2.7633633575775365 16.02126087821353 13.081665165697855
34.383470424705436 3.1456577985460075 17.301640691480344 13.936171934679074
32.17875371899512 3.1373165766606115 15.96913554983026 13.072301592504243
27.977423107073413 2.9096523122929 13.603462540463806 11.464308254316705
23.186099505676346 2.5821590378371377 10.933668455322715 9.670272012516502
18.72819748160347 2.2643366867978902 8.540233576950492 7.923627217855099
14.742828602070006 1.9663449445501187 6.43800246228556 6.33848119523432
11.340814986766665 1.7049343367006469 4.704033105190894 4.931847544875127
8.407337707758685 1.4782954169559444 3.2510021194660137 3.678040171336728
5.890128948668465 1.2799933029562485 2.062068812416744 2.548066833295474
3.8068767876060043 1.0916436130860547 1.158970263285548 1.5562629112344022
2.113747915321004 0.8750004442032724 0.4623606863975286 0.7763867847202025
1.0416543460827115 0.6533349265021194 0.11670868342300808 0.27161073615758335
0.5154457221979765 0.4720189558173544 0.007743305543874238 0.03568346083674766
0.3235835587651119 0.32473010958962595 -0.001646177704771365 0.0004996268802573813
0.25723791999108647 0.25883334882758774 -0.00034594525623745883 -0.0012494835802638077
0.22652937323405778 0.22707603269706536 -7.251292312933019e-05 -0.00047414653987830975
0.19643718524503453 0.19646823641610986 -1.8256901365811306e-06 -2.9225480938672146e-05
0.13291490043168128 0.1329055282412668 6.316936464977709e-07 8.740496767980233e-06
0.1366518526754775 0.1366518526754775 0.0 0.0
0.07986852926206424 0.07986852926206424 0.0 0.0
0.11030513422227145 0.11030513422227145 0.0 0.0
0.1812212559449487 0.1812108151194997 6.169848764971448e-07 9.823840572470336e-06
0.22879945186434028 0.22866279106796553 1.8915133279151995e-05 0.0001177456630956068
0.28178312429410735 0.28549019422345845 -0.0007344853732217691 -0.0029725845561293764
0.39683345145205334 0.3995089798539313 -0.0019238497893029958 -0.0007516786125749816
0.7501003484749551 0.5750503737240983 0.0465002441667329 0.12854973058412372
1.617823458603259 0.8124062522100259 0.28161691766130204 0.523800288731931
3.245349548087791 1.0728313459694485 0.9095769762779832 1.262941225840359
5.440187031409363 1.2905912374940787 1.8201238008737268 2.329471993041556
8.333152146551534 1.5134823680976863 3.1960334356453743 3.6236363428084726
11.748696992687263 1.7492496278867133 4.902351312470623 5.097096052329922
15.731919734053093 2.021215694131637 6.963086269831248 6.747617770090212
20.398940032511078 2.341974780731956 9.449781212062941 8.607184039716179
25.83771936226897 2.7076801102210624 12.415017284541147 10.715021967506765
32.150462193414874 3.1023939677712065 15.989500700355807 13.058567525287868
38.622134287948505 3.4302286168330554 19.67653998369881 15.515365687416658
44.53061091079202 3.5451170956949403 23.29411670234184 17.6913771127552
47.50395465963102 3.2876884365369996 25.338453879807183 18.87781234328684
44.19513813448057 2.8399873208207356 23.548585309151232 17.80656550450861
48.29531129370302 11.527328501766046 20.663581672652434 16.104401119284542
44.1951381344769 2.839987320817632 23.54858530915089 17.806565504508374
47.503954659614706 3.2876884365293133 25.338453879801744 18.877812343283665
44.53061091077308 3.545117095695126 23.294116702329884 17.691377112748057
38.62213428792176 3.430228616836245 19.676539983680502 15.515365687405016
32.150462193390574 3.1023939677757104 15.98950070033839 13.05856752527647
25.837719362238406 2.707680110217015 12.415017284525517 10.715021967495861
20.398940032484912 2.3419747807312 9.449781212048265 8.607184039705457
15.731919734025734 2.021215694129859 6.9630862698168485 6.747617770079025
11.748696992662524 1.7492496278856928 4.90235131245776 5.097096052319072
8.333152146528134 1.5134823680947531 3.196033435634748 3.6236363427986324
5.440187031391677 1.2905912374915498 1.8201238008662464 2.3294719930338816
3.2453495480763683 1.072831345968605 0.9095769762729607 1.262941225834802
1.617823458596604 0.8124062522086424 0.2816169176590952 0.5238002887288666
0.7501003484719464 0.5750503737231053 0.046500244166017335 0.12854973058282343
0.39683345145122617 0.39950897985298944 -0.0019238497892705095 -0.0007516786124927982
0.2817831242935572 0.28549019422284905 -0.0007344853732093675 -0.0029725845560824725
0.22879945186399925 0.22866279106761359 1.891513327753285e-05 0.00011774566310802322
0.18122125594456673 0.18121081511912268 6.169848761276928e-07 9.823840567913113e-06
0.11030513422202567 0.11030513422202567 0.0 0.0
0.0798685292617785 0.0798685292617785 0.0 0.0
0.04394299735081631 0.04394299735081631 0.0 0.0
0.08670782574366528 0.08670782574366528 0.0 0.0
0.16202912406620654 0.1620184654719121 6.366593226293898e-07 1.002193497175889e-05
0.22841211522990218 0.2284311571626769 1.5575612191293599e-06 -2.059949399384251e-05
0.3094141674982246 0.3119970045474648 -0.0008882211659966212 -0.0016946158832437288
0.5078491253019534 0.4784161381506082 0.005633918032840065 0.023799069118505083
1.0753637197324855 0.6945555032668078 0.11947480224396811 0.261333414221709
2.358252621847362 0.9750759438443699 0.550998313572131 0.8321783644308611
4.372349141547176 1.2288417074329003 1.3303644279791869 1.813143006135089
7.274453700149273 1.4838352593764832 2.661393945122662 3.1292244956501265
10.898136652136435 1.7396486235487676 4.444070415395974 4.714417613191696
15.24081351047604 2.0188670738088645 6.688143890390772 6.533802546276399
20.34915950957403 2.34314009836038 9.42107700612053 8.58494240509312
26.37527406927541 2.726701134356883 12.74489177374192 10.903681161176598
33.37940982253093 3.178494705132426 16.66720589392386 13.533709223474652
41.365756057151685 3.6381325482975226 21.25589239407202 16.471731114782145
49.962631789985366 3.958973502990904 26.455878352504847 19.547779934489594
57.30208792919543 3.8942927040343465 31.10786589216534 22.299929332995756
60.69456045163645 3.3357337822491506 33.58603665570295 23.772790013684343
56.89348230170641 2.9848374129442283 31.439338335322727 22.46930655343947
61.90443253989491 14.202991519123026 27.522098160863067 20.1793428599088
56.89348230169471 2.9848374129382407 31.43933833531908 22.469306553437384
60.69456045162065 3.3357337822490103 33.586036655693 23.772790013678627
57.30208792916726 3.894292704031194 31.107865892149427 22.29992933298663
49.96263178995538 3.9589735029948536 26.45587835248348 19.547779934477056
41.36575605711375 3.6381325482927673 21.255892394051568 16.471731114769426
33.37940982249106 3.1784947051281205 16.66720589390236 13.533709223460576
26.375274069241122 2.726701134353444 12.744891773723687 10.903681161163998
20.34915950953946 2.3431400983585005 9.421077006101681 8.584942405079277
15.2408135104434 2.0188670738054015 6.688143890374468 6.533802546263535
10.89813665210885 1.7396486235476665 4.444070415381708 4.714417613179471
7.274453700129065 1.4838352593756692 2.6613939451127098 3.129224495640686
4.372349141532853 1.2288417074316564 1.3303644279730682 1.8131430061281302
2.3582526218382687 0.9750759438431802 0.5509983135685643 0.8321783644265237
1.0753637197280226 0.6945555032650254 0.1194748022429527 0.26133341422004497
0.5078491253005974 0.47841613814973155 0.005633918032688746 0.02379906911817716
0.30941416749762185 0.3119970045464855 -0.0008882211659461275 -0.0016946158829174844
0.22841211522947175 0.2284311571622672 1.5575612139207243e-06 -2.0599494009401227e-05
0.16202912406580938 0.1620184654715215 6.366593221431451e-07 1.0021934965748754e-05
0.08670782574351524 0.08670782574351524 0.0 0.0
0.043942997350656564 0.043942997350656564 0.0 0.0
0.022689701597422497 0.022689701597422497 0.0 0.0
0.0645792343767955 0.0645792343767955 0.0 0.0
0.1411973609369831 0.14119138679393942 3.662909033654852e-07 5.6078521402870744e-06
0.22729005801639235 0.22731066755575813 -6.196574300414125e-06 -1.4412965065367906e-05
0.34898699537032074 0.35573718500718077 -0.001792603746233263 -0.004957585890626774
0.660210234650241 0.5464049398655606 0.02726061220710636 0.08654468257757356
1.5112387370991616 0.8246379004836333 0.2525829642236124 0.43401787239191547
3.1141282149533844 1.1038699224388528 0.806334563839058 1.2039237286754734
5.671141755771627 1.3854953257275415 1.8987923695014026 2.3868540605426842
9.164384709196796 1.6698230913915624 3.553556457790102 3.941005160015129
13.572936054192096 1.967671038728709 5.788650860641318 5.816614154822066
18.89346091795994 2.2970685390757235 8.613969636140371 7.982422742743845
25.210165127952987 2.680606081853672 12.089590504979988 10.439968541119327
32.51321775230288 3.132899295055354 16.156550609582816 13.223767847664718
41.172093894394706 3.6551678495937745 21.148011577683548 16.36891446711739
51.04447089551908 4.195093137658011 26.975421592257288 19.873956165603794
61.319763287423356 4.5009213208180245 33.26038190016983 23.55846006643552
70.16177754022466 4.207977361310229 39.12191500906593 26.83188516984851
74.2913358037117 3.3691402852916794 42.34013889216698 28.58205662625304
70.12210563167612 3.146951394621762 39.78922254225607 27.185931694798246
76.32004690923054 16.911501018907003 34.9047063629075 24.503839527416044
70.12210563167157 3.1469513946257353 39.78922254225059 27.185931694795237
74.29133580368574 3.3691402852888084 42.34013889215198 28.582056626244924
70.16177754019057 4.207977361308478 39.12191500904496 26.8318851698371
61.31976328738186 4.500921320816296 33.260381900144466 23.55846006642109
51.04447089547256 4.19509313765281 26.9754215922313 19.873956165588442
41.172093894351924 3.655167849593147 21.14801157765755 16.368914467101213
32.51321775226106 3.1328992950512093 16.156550609560075 13.223767847649786
25.210165127915204 2.6806060818539086 12.089590504957645 10.43996854110365
18.893460917920834 2.297068539071332 8.613969636120538 7.982422742728954
13.572936054160106 1.9676710387281289 5.788650860624009 5.8166141548079615
9.164384709171735 1.6698230913891017 3.553556457778213 3.9410051600044214
5.6711417557537365 1.3854953257253648 1.8987923694937585 2.3868540605346142
3.1141282149418505 1.1038699224374153 0.8063345638344401 1.2039237286699958
1.511238737093133 0.8246379004815738 0.2525829642219453 0.4340178723896133
0.6602102346479658 0.5464049398644284 0.027260612206704397 0.0865446825768332
0.34898699536979694 0.3557371850064784 -0.0017926037461954822 -0.004957585890486043
0.2272900580161008 0.22731066755546997 -6.196574302023024e-06 -1.441296506718083e-05
0.14119736093677854 0.1411913867937351 3.662909033509835e-07 5.607852140109466e-06
0.06457923437669957 0.06457923437669957 0.0 0.0
0.02268970159741253 0.02268970159741253 0.0 0.0
0.01113422611736827 0.01113422611736827 0.0 0.0
0.045784960363644975 0.045784960363644975 0.0 0.0
0.12124004981958753 0.12124004981958753 0.0 0.0
0.2286633959049005 0.22887480900011553 -2.9682763337967795e-05 -0.00018173033187723303
0.4067956895749836 0.4055495735268766 -0.0003937236515134902 0.0016398396996205582
0.8778244674588135 0.64797628871557 0.07042663208279709 0.15942154666044672
1.9918018455434299 0.9348509279021828 0.39449731172089164 0.6624536059203561
3.9771251810408708 1.224799673148702 1.1521924990299166 1.600133008862252
7.009526553542358 1.5339509170957593 2.5008338452722763 2.974741791174323
11.134239421333527 1.8554566778965427 4.5161929592164345 4.762589784220547
16.33146840743175 2.199465719629633 7.205269848104004 6.926732839698122
22.669530908167083 2.5881332754546325 10.639675875062935 9.441721757649518
30.120650222276048 3.0362442930165954 14.772398825438174 12.312007103821275
39.015426302704796 3.5575555105727465 19.898334025223434 15.559536766908623
49.2059523488947 4.147651962426307 25.839070258589306 19.21923012787908
60.68021815775279 4.732779969474299 32.68990913365664 23.257529054621855
72.79372203849785 5.041347912845392 40.283272523162246 27.46910160249021
83.16361138001177 4.560940498600158 47.34203491245543 31.260635968956173
88.20072592384903 3.420953084820132 51.3826303237355 33.397142515293396
84.11308884915462 3.2753477224334273 48.815044328105216 32.02269679861598
92.0181845655713 19.599910304683625 43.316674170783294 29.101600090104384
84.11308884914013 3.275347722428581 48.81504432809881 32.02269679861276
88.2007259238263 3.420953084826343 51.38263032371644 33.39714251528348
83.16361137997204 4.560940498600303 47.34203491242928 31.260635968942438
72.7937220384515 5.041347912845856 40.283272523132055 27.469101602473604
60.68021815770251 4.732779969473736 32.68990913362488 23.25752905460388
49.20595234884043 4.147651962421086 25.839070258558596 19.21923012786075
39.01542630265306 3.557555510566508 19.89833402519549 15.559536766891064
30.120650222225212 3.0362442930114146 14.772398825410798 12.312007103803008
22.669530908121544 2.5881332754505744 10.63967587503887 9.441721757632108
16.33146840739503 2.199465719629087 7.2052698480836685 6.926732839682274
11.13423942130382 1.85545667789369 4.516192959201932 4.762589784208195
7.009526553521559 1.5339509170934857 2.5008338452628838 2.9747417911651906
3.9771251810268686 1.2247996731470467 1.15219249902437 1.6001330088554515
1.9918018455358268 0.9348509279000787 0.3944973117185186 0.6624536059172297
0.8778244674555368 0.6479762887140803 0.07042663208213246 0.15942154665932406
0.4067956895740837 0.40554957352589993 -0.0003937236515184804 0.001639839699702124
0.22866339590463414 0.2288748089998821 -2.9682763343336984e-05 -0.00018173033190458038
0.12124004981933725 0.12124004981933725 0.0 0.0
0.04578496036362357 0.04578496036362357 0.0 0.0
0.011134226117329792 0.011134226117329792 0.0 0.0
0.005413550827543857 0.005413550827543857 0.0 0.0
0.031412757745332066 0.031412757745332066 0.0 0.0
0.10489987134760306 0.10489987134760306 0.0 0.0
0.2374443943019393 0.23807523099785016 -8.969357585524712e-05 -0.000541143120055582
0.4910243196671147 0.4604099414379135 0.006056938164096304 0.024557440065104963
1.1598623334502836 0.7491997401198465 0.1411226528897384 0.26953994044069846
2.525880162006122 1.0256791835116779 0.5744172005549295 0.9257837779395139
4.896030194697174 1.3412658677820004 1.541089955559055 2.0136743713561196
8.395086717587573 1.6777508532063619 3.145016958165631 3.572318906215581
13.154491937420223 2.0407569704982507 5.522861653082613 5.590873313839366
19.195470076789967 2.4403532477056764 8.712486842641388 8.042629986442899
26.526132767565908 2.8904947324926074 12.725398045130234 10.910239989943063
35.361375674535715 3.415262198714177 17.753171353713768 14.192942122107768
45.55771347731538 4.013549192600444 23.622961009680058 17.921203275034905
57.391408694533695 4.640863222578752 30.669633469125166 22.080912002829784
70.51540246054347 5.212606969929654 38.70096041860483 26.601835072008978
84.1574057539738 5.533608576799508 47.35238609002908 31.27141108714523
96.16315747218516 5.065519223065047 55.55745572228225 35.54018252683787
102.45286110960829 3.5130121368884684 60.79196263065089 38.147886342068944
99.02787802078288 3.2942808692853545 58.67198561625221 37.06161153524532
109.128338334312 22.12805604505614 52.853810026941815 34.14647226231406
99.02787802076313 3.2942808692807217 58.67198561624218 37.061611535240196
102.45286110957062 3.5130121368861813 60.79196263062733 38.14788634205714
96.16315747213278 5.0655192230627515 55.55745572224913 35.54018252682088
84.15740575391918 5.533608576797291 47.35238608999473 31.271411087127166
70.51540246048395 5.212606969927496 38.700960418567846 26.601835071988596
57.391408694473576 4.640863222576675 30.669633469088286 22.080912002808603
45.55771347725631 4.0135491925957405 23.62296100964624 17.921203275014353
35.36137567448239 3.415262198714557 17.75317135368111 14.192942122086725
26.526132767514305 2.890494732490002 12.725398045101198 10.91023998992311
19.19547007674841 2.440353247703803 8.712486842618759 8.04262998642585
13.154491937388277 2.0407569704966964 5.522861653065971 5.590873313825608
8.395086717562759 1.67775085320293 3.1450169581545753 3.572318906205254
4.8960301946805425 1.3412658677805491 1.54108995555176 2.0136743713482335
2.5258801619971045 1.0256791835099532 0.574417200551989 0.9257837779351615
1.1598623334460085 0.7491997401183291 0.14112265288867112 0.26953994043900836
0.491024319665715 0.4604099414368494 0.006056938163964174 0.024557440064901535
0.23744439430166026 0.2380752309975811 -8.969357585610446e-05 -0.0005411431200647666
0.10489987134745482 0.10489987134745482 0.0 0.0
0.03141275774526101 0.03141275774526101 0.0 0.0
0.005413550827538881 0.005413550827538881 0.0 0.0
0.0025690305043107485 0.0025690305043107485 0.0 0.0
0.021543558082735143 0.021543558082735143 0.0 0.0
0.09582257988068425 0.09582257988068425 0.0 0.0
0.26159505849380543 0.2627114829548724 -0.00025721023229824624 -0.0008592142287686868
0.622404695787505 0.5431679583986349 0.02270679900963052 0.05652993837923966
1.4829114284215985 0.8354520367289039 0.22814106293400466 0.4193183287586897
3.1310747238337893 1.1206248506376966 0.8071922242509887 1.2032576489451043
5.846865751368242 1.4516015874441184 1.955427722586649 2.4398364413374742
9.834244190068704 1.8185474088937221 3.83951413029151 4.176182650883476
15.219274246038584 2.228225027774288 6.5685196283065865 6.42252958995771
22.100011008735784 2.6866926848399286 10.249386510617587 9.16393181327827
30.58452867594913 3.2114285488167282 14.988537025305105 12.384563101827295
40.56312884373343 3.8167059498734774 20.653492194288724 16.09293069957124
52.37031668467019 4.483500718142803 27.596636789426515 20.290179177100875
65.81567572343329 5.150897602354643 35.71598049123183 24.94879762984682
80.44949021973754 5.6698666606778305 44.84518086951613 29.93444268954358
95.310340864986 5.864103894422285 54.49039620618688 34.95584076437684
108.76852749705267 5.583080970530445 63.638737694365695 39.54670883215652
116.94755904676768 3.9961238486807273 70.1910639945071 42.760371203579815
114.9589910935609 3.023307174861566 69.53341569365219 42.40226822504716
127.72825628263136 23.51572972973954 64.3232745965995 39.88925195629232
114.95899109353776 3.0233071748578135 69.5334156936391 42.402268225040814
116.9475590467331 3.996123848687274 70.1910639944796 42.760371203566216
108.76852749700537 5.5830809705407125 63.638737694327226 39.54670883213744
95.31034086492078 5.864103894418135 54.49039620614654 34.95584076435605
80.44949021967166 5.669866660676495 44.84518086947398 29.934442689521198
65.81567572336762 5.1508976023547355 35.715980491189654 24.948797629823243
52.37031668460227 4.483500718139779 27.59663678938563 20.29017917707686
40.563128843669524 3.816705949869366 20.653492194251868 16.09293069954827
30.584528675892066 3.2114285488133802 14.988537025272924 12.384563101805764
22.100011008686586 2.6866926848356765 10.249386510591423 9.163931813259492
15.219274246002197 2.2282250277715923 6.56851962828778 6.422529589942825
9.834244190040522 1.8185474088910425 3.839514130278028 4.176182650871452
5.846865751350065 1.451601587442197 1.955427722578666 2.4398364413292053
3.1310747238227434 1.1206248506356835 0.8071922242470114 1.2032576489400486
1.4829114284163194 0.83545203672741 0.22814106293245429 0.4193183287564551
0.6224046957857001 0.5431679583977252 0.02270679900931515 0.05652993837865981
0.26159505849343945 0.2627114829543944 -0.00025721023228757677 -0.0008592142286673132
0.09582257988061813 0.09582257988061813 0.0 0.0
0.021543558082682733 0.021543558082682733 0.0 0.0
0.0025690305043123388 0.0025690305043123388 0.0 0.0
0.0007422456786603175 0.0007422456786603175 0.0 0.0
0.015572775571753893 0.015572775571753893 0.0 0.0
0.09932603941306442 0.09932603941306442 0.0 0.0
0.31561739798928634 0.31520226627166176 -0.00015217835261404104 0.0005673100702386432
0.8136758401811183 0.6599077127056562 0.050019272877541515 0.10374885459792028
1.8853945494853823 1.0070726129077323 0.32384136567633925 0.5544805709013108
3.814628251825032 1.3761592583776225 1.0066693029040112 1.4317996905434
6.912432908924538 1.8407998393540197 2.2993163835133315 2.772316686057187
11.416969164887371 2.406059083091813 4.370480360724728 4.6404297210708325
17.56332523186018 3.1076215338467197 7.397869419395189 7.05783427861827
25.489568575574417 3.981368144017523 11.490545337671936 10.017655093884953
35.188751666618124 5.051929393394032 16.62483035449582 13.51199191872827
46.85733659202725 6.31455984955671 23.005435433175773 17.53734130929478
60.50918538651381 7.742369311841189 30.67804551024235 22.088770564430266
75.8986318622895 9.155264648845272 39.63504650586534 27.108320707578862
92.2790028355302 10.218759613898028 49.63977116769076 32.420472053941424
108.21730657038285 10.527639600600716 59.980422324425334 37.70924464535682
121.89991325558101 9.912393433921821 69.54640748023436 42.44111234142494
131.64942293660656 8.952438355295497 76.7668654336677 45.93011914764338
127.97897236519339 3.0485514027522154 78.22441671518159 46.70600424725953
182.7412847696811 61.89919287831331 75.57090895790716 45.27118293346068
127.97897236516425 3.0485514027452147 78.22441671516675 46.706004247252295
131.6494229365569 8.952438355289429 76.76686543363807 45.93011914762936
121.89991325551502 9.9123934339172 69.54640748019332 42.4411123414046
108.21730657030373 10.527639600590025 59.980422324379745 37.709244645333975
92.27900283544835 10.218759613886252 49.639771167644874 32.42047205391717
75.89863186221162 9.155264648838797 39.63504650581922 27.108320707553602
60.509185386441914 7.742369311842563 30.67804551019581 22.08877056440356
46.85733659195756 6.314559849552995 23.00543543313485 17.537341309269753
35.1887516665503 5.051929393383268 16.62483035446125 13.511991918705775
25.489568575520316 3.9813681440132367 11.490545337642676 10.017655093864413
17.56332523181854 3.107621533841856 7.397869419374329 7.057834278602355
11.416969164857262 2.406059083090764 4.370480360709073 4.640429721057428
6.912432908902419 1.8407998393483347 2.29931638350509 2.7723166860489936
3.8146282518117016 1.376159258375095 1.006669302899095 1.4317996905375137
1.885394549478752 1.0070726129059941 0.3238413656744579 0.554480570898299
0.813675840178953 0.6599077127046578 0.05001927287712024 0.10374885459717521
0.31561739798860144 0.3152022662709681 -0.00015217835260760587 0.0005673100702409404
0.09932603941284847 0.09932603941284847 0.0 0.0
0.015572775571742602 0.015572775571742602 0.0 0.0
0.0007422456786599712 0.0007422456786599712 0.0 0.0
CELL_DATA 800
SCALARS Stress float 6
LOOKUP_TABLE default
158.13518929941307 -510.67945456431005 -182.39626423026067 -107.89953910119918 0.0 0.0
398.11448511583444 -48.90676030812126 116.63823253313168 57.689172502931676 0.0 0.0
394.5325260060929 8.855082070102373 120.82009641795386 -3.9832839544696075 0.0 0.0
454.73171420396557 -10.109753059108849 137.88451988936694 -13.971766040202743 0.0 0.0
529.2054403135519 -15.036354533010893 185.08667188993394 -11.38959261003539 0.0 0.0
599.8470238808811 -8.699527288042873 254.61373041753257 -9.81292873301027 0.0 0.0
668.2801504708325 -1.28904315505779 315.4579846341556 -9.953528692104028 0.0 0.0
736.8424141154383 13.969713933682733 367.8098194386464 -11.132099770126569 0.0 0.0
806.8397344633652 36.10335306076344 417.3349080792858 -12.533241897943736 0.0 0.0
878.5876674102733 64.34444847934562 468.44510731738444 -13.551526133338601 0.0 0.0
951.2029101694823 96.89473336168162 521.5285058493395 -14.025464744906243 0.0 0.0
1023.7274724092379 132.88388412315948 576.1146528672816 -13.969166372930633 0.0 0.0
1096.130122352507 170.75277600509773 631.4814059129076 -13.737635505722718 0.0 0.0
1169.1450324654975 211.0282241056907 688.2775065391301 -13.459632752830705 0.0 0.0
1243.5215701912548 254.66982328463604 747.3874571747289 -13.050468790011493 0.0 0.0
1318.7465770713407 301.54069844355104 808.5100660774975 -12.320305357659523 0.0 0.0
1392.5353168206461 350.1535180302029 869.7743832284318 -11.078465466160079 0.0 0.0
1461.707490256974 398.2718667099422 928.4571467963701 -9.37950559677942 0.0 0.0
1523.2819860047148 443.9908729952097 982.0667886889393 -8.085268573379306 0.0 0.0
1596.6616536197762 508.67838837828214 1050.5679192352889 -10.957595796268198 0.0 0.0
1596.661653619603 508.67838837812167 1050.5679192352234 10.957595796211919 0.0 0.0
1523.2819860038496 443.9908729943745 982.0667886883481 8.08526857347875 0.0 0.0
1461.7074902575878 398.27186671062907 928.4571467967622 9.379505596854745 0.0 0.0
1392.5353168213423 350.1535180310022 869.7743832287899 11.078465466151235 0.0 0.0
1318.7465770705417 301.54069844286295 808.5100660767897 12.32030535771832 0.0 0.0
1243.521570190211 254.6698232837138 747.387457173934 13.050468789997815 0.0 0.0
1169.1450324645405 211.02822410488204 688.27750653843 13.459632752827519 0.0 0.0
1096.130122352934 170.7527760057105 631.4814059131215 13.737635505784901 0.0 0.0
1023.7274724095477 132.88388412368042 576.1146528673901 13.969166372978888 0.0 0.0
951.2029101690384 96.8947333614602 521.5285058489529 14.025464744856416 0.0 0.0
878.5876674097915 64.3444484790986 468.44510731701394 13.551526133305838 0.0 0.0
806.8397344628927 36.10335306054242 417.3349080789505 12.533241898013381 0.0 0.0
736.8424141150548 13.969713933545037 367.80981943836474 11.132099770037641 0.0 0.0
668.2801504706988 -1.2890431549001846 315.45798463399143 9.953528692061694 0.0 0.0
599.8470238810496 -8.69952728755652 254.61373041752802 9.81292873298075 0.0 0.0
529.2054403132794 -15.03635453302607 185.0866718897106 11.38959261001051 0.0 0.0
454.7317142036085 -10.10975305930977 137.88451988920232 13.971766040133355 0.0 0.0
394.5325260059138 8.855082069942815 120.82009641785537 3.983283954500902 0.0 0.0
398.114485115762 -48.90676030802084 116.63823253309684 -57.68917250287873 0.0 0.0
158.13518929993532 -510.67945456380363 -182.39626422975297 107.89953910088059 0.0 0.0
59.711675515406284 -540.2174416235268 -241.14891361461474 -152.4642705542137 0.0 0.0
253.22230175754572 -34.83274378432866 65.51650139224381 11.372260161279886 0.0 0.0
345.7928091062723 26.840071471604016 111.78937404703497 -10.196955357964033 0.0 0.0
417.4446127205663 -7.6290024704690165 123.80488683196953 -33.70195569285149 0.0 0.0
500.029070016353 -15.95681543018245 163.8809950767496 -32.32586168421464 0.0 0.0
575.4537258612852 -9.941505465725552 232.81555912275778 -29.017761775427054 0.0 0.0
647.8711409359898 -2.6102804927983527 298.98797709548097 -29.515386170991345 0.0 0.0
717.4427947937077 12.02227395530982 354.70638732153327 -31.309869046003463 0.0 0.0
786.3377358961707 32.77538173625393 404.44550582715465 -33.45713736685979 0.0 0.0
855.3777447177695 58.63940425331445 453.52761543647614 -34.782775758438255 0.0 0.0
923.9967280870861 87.90060537218415 503.16553624328617 -34.974887849375705 0.0 0.0
991.896479196663 119.22850882623412 553.1864450821749 -34.36474898667119 0.0 0.0
1059.2640965842443 152.92073957607954 603.9820136514409 -33.450412809214825 0.0 0.0
1127.2365344771995 188.87786653899963 656.1249266184209 -32.49882649413861 0.0 0.0
1196.1966404748111 227.54678959536056 710.0667424124345 -31.330755850881676 0.0 0.0
1265.6239115289732 268.94809794241155 765.5803067552654 -29.517635923236664 0.0 0.0
1334.0599891223192 312.30765654322045 821.5460010704983 -26.78420072776858 0.0 0.0
1399.6697921668074 356.78251546480385 876.5999484170546 -23.456648423475528 0.0 0.0
1465.057967852602 406.3706312112296 933.928112240575 -20.593969550874853 0.0 0.0
1512.873069037618 445.1168331772455 977.031992843279 -17.591445283867998 0.0 0.0
1512.8730690381437 445.11683317778386 977.0319928436318 17.591445283896455 0.0 0.0
1465.0579678533998 406.3706312120863 933.928112241002 20.59396955104689 0.0 0.0
1399.6697921659777 356.7825154640391 876.5999484163506 23.456648423545715 0.0 0.0
1334.0599891217812 312.3076565427628 821.5460010700381 26.78420072768371 0.0 0.0
1265.623911528766 268.9480979423157 765.5803067550839 29.517635923320974 0.0 0.0
1196.1966404736695 227.54678959433423 710.066742411522 31.33075585085043 0.0 0.0
1127.2365344763734 188.87786653831807 656.1249266178031 32.49882649413787 0.0 0.0
1059.2640965843589 152.92073957637763 603.9820136515206 33.450412809252015 0.0 0.0
991.8964791962972 119.22850882605937 553.1864450819108 34.36474898661267 0.0 0.0
923.9967280868442 87.90060537216951 503.16553624309614 34.97488784932463 0.0 0.0
855.3777447174389 58.6394042531886 453.5276154362142 34.78277575833931 0.0 0.0
786.3377358956824 32.775381736003254 404.44550582680387 33.457137366838765 0.0 0.0
717.4427947933198 12.022273955168032 354.70638732121824 31.309869045952823 0.0 0.0
647.8711409360669 -2.6102804924250904 298.9879770954333 29.51538617090675 0.0 0.0
575.4537258611584 -9.941505465529048 232.81555912258563 29.017761775480764 0.0 0.0
500.02907001612203 -15.956815430105717 163.88099507660024 32.32586168425749 0.0 0.0
417.4446127205881 -7.629002470016971 123.80488683210773 33.70195569279535 0.0 0.0
345.7928091062984 26.84007147176305 111.7893740470909 10.196955357874145 0.0 0.0
253.2223017577451 -34.83274378382649 65.51650139245466 -11.372260161392475 0.0 0.0
59.7116755157316 -540.2174416231494 -241.14891361425242 152.46427055401182 0.0 0.0
11.649991269929444 -544.5334513477021 -259.47695417488234 -166.65701778623185 0.0 0.0
145.78047004910593 -29.89860412448885 34.764559777385124 -41.65862263020165 0.0 0.0
281.35136505853535 30.798739766764008 93.64503144758982 -32.711921199402454 0.0 0.0
370.23950647487635 0.2839897897900965 111.34938329555102 -52.70167527858878 0.0 0.0
461.2865914042134 -14.44760724076339 143.55592051277364 -55.431373763032184 0.0 0.0
547.9084842776047 -13.278638936819148 206.92388288177142 -50.31111381009374 0.0 0.0
623.2263981528247 -3.0509312411762544 279.10773687123196 -49.38437002992284 0.0 0.0
693.645683671075 10.110600137768841 338.3041618385233 -51.44629733559764 0.0 0.0
761.9731160170742 29.54133134261093 389.21392922260225 -53.96774533240276 0.0 0.0
828.3112140776825 52.761123507745914 436.43059131270974 -55.329609824110875 0.0 0.0
893.0038630714237 78.39158404380787 482.5701251020805 -55.18330627126605 0.0 0.0
956.1744774350923 105.84004535643105 528.3980644319216 -54.00800480863475 0.0 0.0
1018.9218810230554 134.85705396990352 574.6000979550462 -52.59287364095471 0.0 0.0
1081.7069248389048 166.29808404952195 621.9299587319624 -51.046375542886636 0.0 0.0
1145.0479569851714 199.83563737928222 670.5289687857562 -49.151748149263724 0.0 0.0
1208.6685115003706 235.54431789932505 720.3176588987648 -46.4260707057774 0.0 0.0
1271.887312735629 273.5789092229849 771.0136325781983 -42.58138831281856 0.0 0.0
1335.2482717007927 315.57843062912997 823.6671223796951 -37.96122015760343 0.0 0.0
1394.1086664069073 358.13865567648395 874.2788510354835 -32.279419959167264 0.0 0.0
1435.0222212111369 389.0050887547073 910.0501257565035 -23.44020139447689 0.0 0.0
1435.022221210569 389.00508875416614 910.0501257560355 23.440201394687193 0.0 0.0
1394.1086664053275 358.1386556749635 874.2788510343429 32.2794199593706 0.0 0.0
1335.2482717002117 315.57843062859604 823.6671223792624 37.96122015757586 0.0 0.0
1271.8873127342906 273.57890922171896 771.0136325771414 42.58138831277881 0.0 0.0
1208.6685114999439 235.54431789899076 720.3176588984547 46.42607070577247 0.0 0.0
1145.0479569850852 199.83563737932826 670.52896878564 49.15174814926723 0.0 0.0
1081.7069248386242 166.298084049351 621.9299587316269 51.04637554274496 0.0 0.0
1018.9218810227005 134.85705396970965 574.6000979547641 52.592873640914675 0.0 0.0
956.1744774343673 105.84004535589173 528.3980644314256 54.008004808638304 0.0 0.0
893.003863070999 78.39158404360278 482.57012510180954 55.18330627127378 0.0 0.0
828.3112140774217 52.761123507716164 436.4305913124985 55.32960982414954 0.0 0.0
761.973116017261 29.541331343116738 389.2139292227101 53.96774533255564 0.0 0.0
693.645683670802 10.110600137784985 338.3041618383191 51.44629733566897 0.0 0.0
623.2263981527157 -3.0509312409721687 279.1077368710394 49.38437002981571 0.0 0.0
547.9084842778585 -13.278638936167006 206.92388288183687 50.31111381008067 0.0 0.0
461.286591404055 -14.447607240552754 143.5559205127144 55.4313737629707 0.0 0.0
370.2395064746601 0.2839897898553678 111.34938329551467 52.70167527846387 0.0 0.0
281.3513650584687 30.7987397666012 93.64503144752095 32.71192119948145 0.0 0.0
145.78047004928607 -29.898604124100537 34.76455977755566 41.65862263010343 0.0 0.0
11.649991270092698 -544.5334513474562 -259.47695417460756 166.6570177860579 0.0 0.0
-6.0610178483121615 -529.8951491365171 -252.0785274579437 -168.99091340424866 0.0 0.0
85.81183390077295 -32.331868625612444 16.043989582548154 -86.57050293880975 0.0 0.0
220.19778593213556 29.065824599491357 74.77908315948807 -62.317824314567225 0.0 0.0
319.20985706576033 6.743688312301394 97.77799879679968 -73.31908763496335 0.0 0.0
412.91095459771714 -11.655900550842688 124.0132964808492 -80.28135811482885 0.0 0.0
508.76577799709656 -14.579998579914886 179.01708827905728 -73.71620560433372 0.0 0.0
591.5024083771799 -4.988648405930785 252.92267170185718 -70.10869981775218 0.0 0.0
665.2104900025988 8.824052180487314 318.29007001044835 -71.6880622131544 0.0 0.0
732.8402627251967 26.163611409723345 370.72671234522187 -74.04370433404127 0.0 0.0
796.7262525402816 46.64617966170076 416.63064917459917 -75.20009032525672 0.0 0.0
857.7083511976771 68.75031717417875 459.62523382533584 -74.65494653514318 0.0 0.0
916.6675082471263 92.17477210346952 501.50900109101144 -72.99749457459694 0.0 0.0
974.3494733814059 116.86500746511138 543.0941826439033 -71.08515226238531 0.0 0.0
1032.2510971111856 143.52673199114182 585.6468922445719 -69.08941912798572 0.0 0.0
1090.0720112105798 171.66795341212566 628.8292208856731 -66.57783896088823 0.0 0.0
1147.5306205920851 201.65741495874204 672.7040876004751 -63.08388249170195 0.0 0.0
1205.7816874885352 234.48131091653045 718.3170896235476 -58.47125674977419 0.0 0.0
1264.3296251148572 271.0529125262465 765.8619852130736 -52.547259512386624 0.0 0.0
1318.4193647803463 307.69124105333145 811.1502217600619 -43.86554264219463 0.0 0.0
1356.8552143634881 334.3803082393619 843.6063837401141 -29.645691767540086 0.0 0.0
1356.8552143645302 334.3803082404387 843.6063837408965 29.645691767607293 0.0 0.0
1318.4193647803213 307.6912410533705 811.1502217600992 43.86554264235528 0.0 0.0
1264.3296251147974 271.05291252627273 765.8619852130496 52.54725951251155 0.0 0.0
1205.7816874885646 234.48131091664493 718.3170896235991 58.47125674981831 0.0 0.0
1147.530620591905 201.65741495868417 672.704087600291 63.08388249179598 0.0 0.0
1090.0720112088775 171.66795341052745 628.8292208844916 66.57783896087568 0.0 0.0
1032.2510971105785 143.52673199064685 585.6468922441952 69.08941912793298 0.0 0.0
974.3494733809441 116.86500746481065 543.0941826435637 71.0851522623797 0.0 0.0
916.6675082466918 92.17477210326402 501.509001090699 72.99749457475609 0.0 0.0
857.7083511974323 68.75031717418634 459.6252338251735 74.65494653520919 0.0 0.0
796.7262525398924 46.64617966150111 416.63064917430864 75.20009032516626 0.0 0.0
732.840262724361 26.16361140912514 370.7267123446366 74.043704334048 0.0 0.0
665.2104900017627 8.824052179850938 318.29007000985206 71.68806221304872 0.0 0.0
591.5024083767269 -4.988648406092949 252.92267170145126 70.10869981769116 0.0 0.0
508.7657779972054 -14.579998579337595 179.01708827908573 73.71620560435922 0.0 0.0
412.9109545974072 -11.655900550796346 124.01329648075543 80.2813581148055 0.0 0.0
319.20985706550016 6.743688312170977 97.77799879668382 73.31908763495665 0.0 0.0
220.19778593216435 29.065824599430506 74.77908315947846 62.317824314590716 0.0 0.0
85.81183390092454 -32.33186862527297 16.04398958269547 86.57050293861973 0.0 0.0
-6.061017848221198 -529.8951491362961 -252.0785274576902 168.99091340408208 0.0 0.0
-9.480844932580027 -504.29839074779443 -230.75504437198032 -167.00018299520787 0.0 0.0
51.19459041980719 -35.696009998431165 4.649574126412808 -121.48677522062458 0.0 0.0
167.2506640570902 24.429869791721224 57.50416015464342 -92.25395412933263 0.0 0.0
265.29151349358926 10.447549785352578 82.72061857882125 -95.40624361649165 0.0 0.0
355.6698070766265 -6.7579776095394255 105.71165680025295 -104.20302438492627 0.0 0.0
458.2647541465734 -14.799736745053252 150.27126460767445 -100.21042740363623 0.0 0.0
552.0345544633058 -7.6008436416887175 221.17683265930276 -92.98483807291444 0.0 0.0
630.3984228427902 7.096112047146352 292.5385105875217 -92.04083041187629 0.0 0.0
698.1821693110577 22.875479109757908 348.1424703041606 -93.75275256091572 0.0 0.0
759.9385722009024 40.315714611818905 393.5169480473673 -94.44791838164694 0.0 0.0
817.6056313922065 58.93886047267955 433.9188459793449 -93.43487425889673 0.0 0.0
872.231486704151 78.35020439474087 471.93807110679165 -91.28876338066753 0.0 0.0
925.3123170857868 98.74972800498244 509.2289987887256 -89.0322105540298 0.0 0.0
977.6659594487265 120.62433630424131 546.6854195538226 -86.59125356172072 0.0 0.0
1029.994916072078 143.5608019633811 584.5659016987101 -83.55968406247726 0.0 0.0
1082.2456309829304 167.76141573486728 622.9863646439901 -79.56614977479624 0.0 0.0
1134.1962704561004 194.29240416923506 662.3374020276452 -74.3303093038008 0.0 0.0
1186.998241665859 224.33894423157165 703.768731315512 -67.28139438575548 0.0 0.0
1237.331949447795 255.3963147322772 744.3919014794321 -55.90798458775038 0.0 0.0
1275.8064875095606 279.5490325949225 775.5783254043165 -36.72564965901842 0.0 0.0
1275.8064875096811 279.5490325950635 775.5783254044067 36.725649659153355 0.0 0.0
1237.3319494474583 255.39631473201806 744.3919014791893 55.907984587955085 0.0 0.0
1186.9982416651237 224.33894423093855 703.7687313149584 67.281394385989 0.0 0.0
1134.1962704547452 194.29240416793886 662.3374020266872 74.33030930378135 0.0 0.0
1082.2456309812928 167.7614157333069 622.9863646428377 79.56614977481368 0.0 0.0
1029.9949160708834 143.5608019623059 584.5659016978618 83.5596840625357 0.0 0.0
977.6659594488222 120.62433630452978 546.6854195538417 86.59125356181963 0.0 0.0
925.3123170852546 98.74972800457795 509.2289987883005 89.03221055399132 0.0 0.0
872.2314867039847 78.35020439478822 471.9380711065839 91.28876338073593 0.0 0.0
817.6056313916055 58.93886047228672 433.9188459788751 93.4348742589021 0.0 0.0
759.938572200277 40.315714611367284 393.51694804688657 94.44791838154367 0.0 0.0
698.1821693107065 22.87547910966022 348.14247030388947 93.75275256090075 0.0 0.0
630.3984228426249 7.0961120472472885 292.53851058731493 92.04083041177608 0.0 0.0
552.0345544627054 -7.600843642055253 221.1768326588059 92.98483807279412 0.0 0.0
458.26475414614447 -14.799736745174494 150.27126460740234 100.21042740356721 0.0 0.0
355.66980707632933 -6.75797760962278 105.71165680014079 104.20302438478184 0.0 0.0
265.291513493382 10.447549785244055 82.72061857872764 95.40624361634124 0.0 0.0
167.25066405716842 24.429869791864537 57.50416015470988 92.25395412923015 0.0 0.0
51.19459041986911 -35.696009998258226 4.649574126483264 121.48677522051142 0.0 0.0
-9.480844932595616 -504.29839074748537 -230.75504437172486 167.00018299521582 0.0 0.0
-6.486163838952322 -471.414419693733 -201.92743561163994 -163.70628012809573 0.0 0.0
29.561257629635108 -38.31902109279344 -2.6273290389475017 -147.37900064933194 0.0 0.0
121.76236011989772 18.706764696858453 42.14073744502685 -118.88088016848153 0.0 0.0
210.6040828921764 12.287033976815614 66.8646582521445 -117.24850877540818 0.0 0.0
294.30349235456555 -1.952551662323989 87.91330088809563 -126.3428452393303 0.0 0.0
391.9192369035708 -13.124946332427108 121.53480494418172 -127.91627927828203 0.0 0.0
496.38067361642976 -8.960128571640277 184.3616469478569 -118.99018210209613 0.0 0.0
584.4147150223587 3.8439951061419233 257.7706969262347 -113.77670063779331 0.0 0.0
656.2674976362084 19.229057910026974 319.42817047602887 -113.37190301837711 0.0 0.0
716.768535313917 33.94250128658099 365.94200977807884 -113.10244544648194 0.0 0.0
771.1110413866123 48.83602725228102 404.2878799247393 -111.5449660598646 0.0 0.0
821.8488280454941 64.42220434710589 439.0726081479342 -108.96148559348222 0.0 0.0
870.1672989422042 80.69469743277085 472.19211170213606 -106.32239943177646 0.0 0.0
917.2768395811797 97.63039162238799 504.70121989169024 -103.66139315159951 0.0 0.0
964.2586559224021 115.38634834985848 537.3849907050671 -100.26956427766373 0.0 0.0
1010.5442048590091 134.2432084732623 570.1981994706326 -95.69810019890433 0.0 0.0
1056.306839876868 153.73758061286367 603.0079037692002 -90.0582465890856 0.0 0.0
1102.400941424884 175.79626790360868 637.1398960506244 -82.31400834978434 0.0 0.0
1148.9072690559915 200.88117861383523 672.8499825928789 -68.84414567221377 0.0 0.0
1189.3841019288323 223.33960208065463 704.1309748138007 -45.22997845641371 0.0 0.0
1189.3841019284432 223.33960208030294 704.1309748135033 45.22997845651786 0.0 0.0
1148.9072690559692 200.88117861386215 672.8499825928658 68.8441456722913 0.0 0.0
1102.4009414248 175.79626790365774 637.1398960506625 82.31400835000956 0.0 0.0
1056.3068398775517 153.73758061364205 603.0079037696678 90.05824658913869 0.0 0.0
1010.54420485945 134.2432084738584 570.1981994708467 95.69810019895777 0.0 0.0
964.2586559211762 115.38634834871675 537.3849907042531 100.26956427763011 0.0 0.0
917.2768395798618 97.6303916211038 504.7012198908 103.66139315145391 0.0 0.0
870.1672989421804 80.69469743289795 472.19211170209024 106.32239943178962 0.0 0.0
821.8488280452314 64.42220434705236 439.0726081477172 108.96148559352758 0.0 0.0
771.111041386261 48.83602725211493 404.2878799244809 111.54496605983732 0.0 0.0
716.7685353136349 33.94250128644286 365.9420097778053 113.10244544634384 0.0 0.0
656.2674976361029 19.22905791026387 319.42817047591075 113.37190301845047 0.0 0.0
584.4147150220364 3.843995106133846 257.770696925926 113.77670063776584 0.0 0.0
496.3806736161959 -8.96012857146847 184.3616469476485 118.99018210210114 0.0 0.0
391.9192369032368 -13.124946332341421 121.53480494405535 127.91627927825765 0.0 0.0
294.3034923544174 -1.9525516620996504 87.91330088812349 126.34284523923557 0.0 0.0
210.60408289207643 12.287033976776138 66.86465825210355 117.24850877530895 0.0 0.0
121.76236011980646 18.706764696794934 42.14073744498041 118.88088016827015 0.0 0.0
29.56125762969168 -38.31902109256178 -2.6273290388610304 147.37900064911628 0.0 0.0
-6.486163838860641 -471.41441969337393 -201.92743561133884 163.70628012802945 0.0 0.0
-0.8470790533766319 -432.70236956876283 -169.28874657966105 -160.2784581554874 0.0 0.0
13.696114243380007 -40.84555466315873 -8.144884334186264 -165.43708129753645 0.0 0.0
81.55256822625365 13.115472199178228 28.400412127629565 -140.66684463558238 0.0 0.0
156.54818023585602 13.728417845947533 51.07985584685388 -137.1948407861882 0.0 0.0
229.40501544658946 1.4237683416069906 69.37932299282818 -146.26065481763425 0.0 0.0
315.35290594006995 -9.011901066049887 94.5987349052276 -153.99005727124407 0.0 0.0
422.2768885769745 -9.460845287531388 143.92365861768013 -148.04159877167513 0.0 0.0
521.8633790590377 0.8578303271181644 213.6736250935042 -138.27844115539713 0.0 0.0
601.3896882311992 14.310043908097594 279.9924779090736 -133.73051274064667 0.0 0.0
664.2225245910006 27.32702461494384 330.9963620486194 -131.4318503890848 0.0 0.0
715.8874785327291 38.47855291920462 368.7581290170667 -129.03945757679762 0.0 0.0
763.0162168960073 50.43601033554855 401.23824220250236 -126.02355066690808 0.0 0.0
806.7337076189815 62.54388450377452 430.5978322615709 -123.07090913095436 0.0 0.0
848.4293668893123 74.91832951032146 458.4501610300006 -120.22128464894953 0.0 0.0
889.2940912870594 87.19416555427088 485.4848201450802 -116.6921781724453 0.0 0.0
930.8890564358201 100.86919295660755 513.4238692503069 -111.75421128545068 0.0 0.0
970.2024220356933 113.76636034668518 539.8101410269504 -105.46630927426325 0.0 0.0
1007.9855239625754 126.47120548215386 565.2180086938962 -97.49884851552335 0.0 0.0
1049.8979470577929 143.32796752601215 594.5025334587166 -83.12998882924951 0.0 0.0
1094.3712088263514 164.35908090480854 626.9508528489973 -55.982702821175565 0.0 0.0
1094.3712088259942 164.35908090450368 626.9508528488609 55.982702821320444 0.0 0.0
1049.8979470576514 143.32796752591048 594.5025334586869 83.12998882938673 0.0 0.0
1007.9855239621505 126.47120548190398 565.2180086936069 97.49884851581146 0.0 0.0
970.2024220352589 113.76636034636377 539.8101410265634 105.46630927436644 0.0 0.0
930.889056435187 100.86919295609593 513.4238692498152 111.75421128550155 0.0 0.0
889.2940912864931 87.19416555377754 485.48482014463474 116.69217817238462 0.0 0.0
848.4293668887536 74.91832950986716 458.45016102955486 120.22128464898742 0.0 0.0
806.7337076189386 62.54388450401227 430.59783226149904 123.07090913112805 0.0 0.0
763.0162168953751 50.436010335057816 401.2382422020751 126.02355066686243 0.0 0.0
715.8874785319085 38.47855291854545 368.7581290165043 129.0394575767678 0.0 0.0
664.2225245905881 27.32702461472131 330.99636204829034 131.43185038901396 0.0 0.0
601.3896882311835 14.310043908452528 279.9924779090394 133.73051274070656 0.0 0.0
521.8633790585327 0.8578303269693066 213.67362509311042 138.27844115541683 0.0 0.0
422.2768885763953 -9.460845287801908 143.92365861731517 148.04159877160518 0.0 0.0
315.35290593973895 -9.011901066101217 94.59873490510336 153.9900572710712 0.0 0.0
229.40501544632684 1.4237683416194225 69.37932299275919 146.2606548173979 0.0 0.0
156.54818023577536 13.728417845819267 51.0798558467922 137.194840786022 0.0 0.0
81.55256822635349 13.11547219948941 28.400412127752865 140.666844635339 0.0 0.0
13.696114243336728 -40.84555466303009 -8.144884334160595 165.43708129740395 0.0 0.0
-0.8470790533944594 -432.702369568523 -169.2887465794475 160.2784581553981 0.0 0.0
3.4962467862208584 -389.68477039435885 -137.64264381530745 -157.37191339433176 0.0 0.0
-1.456273084216337 -43.715433146890646 -13.550976060571653 -175.9750104645349 0.0 0.0
44.86304229646142 8.640609024916426 16.051095396413352 -157.60472488227308 0.0 0.0
103.86913003571692 15.062682187789463 35.67788690430477 -153.9010171086946 0.0 0.0
162.3648298278468 3.968533756982145 49.97261122836642 -163.62827364388224 0.0 0.0
228.99776173866246 -4.0874256674620675 68.63869121662142 -174.75918144140203 0.0 0.0
323.0935761264474 -7.168950073428815 102.50274281577006 -177.61147006472854 0.0 0.0
432.87951960830776 -1.3858697558067683 159.97570074776706 -167.15899094649217 0.0 0.0
524.8251869166236 8.722704616476364 225.38952627903916 -156.71614954789294 0.0 0.0
593.5104265598529 19.715148994990507 281.42967279048025 -150.16237331325075 0.0 0.0
646.264337859491 27.780036079564635 322.2245702475285 -146.33890911106198 0.0 0.0
689.8337420298778 36.08232590097818 353.8818694321973 -142.5694954857237 0.0 0.0
729.1775386032275 44.57292954448256 380.85185296503386 -139.26959448089656 0.0 0.0
765.5170943198026 52.397790516605376 404.6460118530419 -136.30958661817576 0.0 0.0
800.5110272316426 59.4768378571172 426.6620006115696 -132.89474745801203 0.0 0.0
836.0261727163871 67.11881405206466 448.70882965028835 -127.83567125251416 0.0 0.0
871.7101463945642 75.08287296774905 470.8845344373843 -120.75887350116443 0.0 0.0
901.1995305129195 78.23658558362828 487.6355255419886 -112.42038211921772 0.0 0.0
933.3383915287166 82.09060221897873 505.5968021507699 -98.73569482848393 0.0 0.0
982.7280410348392 100.31945687924565 538.8482588699275 -70.13216737655394 0.0 0.0
982.7280410351067 100.31945687951549 538.8482588700426 70.13216737664543 0.0 0.0
933.3383915289181 82.09060221934936 505.59680215084757 98.73569482883744 0.0 0.0
901.1995305117489 78.236585582619 487.63552554117734 112.42038211945844 0.0 0.0
871.7101463944031 75.0828729676839 470.8845344371475 120.75887350131477 0.0 0.0
836.0261727165318 67.11881405244333 448.70882965039345 127.8356712526232 0.0 0.0
800.511027232085 59.47683785768581 426.66200061185583 132.8947474580095 0.0 0.0
765.5170943198144 52.39779051679611 404.64601185308277 136.30958661827086 0.0 0.0
729.1775386035746 44.572929545069016 380.8518529653021 139.2695944810256 0.0 0.0
689.8337420302852 36.08232590163826 353.88186943242147 142.56949548578814 0.0 0.0
646.2643378598651 27.78003608028149 322.22457024774116 146.3389091111536 0.0 0.0
593.5104265596493 19.715148995041567 281.42967279027175 150.16237331321094 0.0 0.0
524.8251869161769 8.722704616190974 225.38952627865513 156.71614954778448 0.0 0.0
432.8795196076924 -1.3858697561931521 159.9757007473395 167.15899094644425 0.0 0.0
323.09357612582085 -7.168950073740507 102.50274281543841 177.61147006459336 0.0 0.0
228.99776173847252 -4.087425667453549 68.63869121655999 174.7591814412459 0.0 0.0
162.36482982774396 3.968533757076857 49.97261122836759 163.62827364361425 0.0 0.0
103.8691300356557 15.062682187668582 35.677886904250954 153.9010171086309 0.0 0.0
44.863042296363744 8.640609024667159 16.051095396309268 157.6047248820596 0.0 0.0
-1.4562730843131164 -43.7154331468577 -13.550976060591085 175.97501046434377 0.0 0.0
3.496246786178318 -389.6847703940687 -137.6426438151275 157.37191339425843 0.0 0.0
1.5142585486150715 -343.1743085267291 -111.76901652149544 -152.80054175281157 0.0 0.0
-18.835572154388828 -47.845932117861985 -20.002726127105078 -181.85044435783533 0.0 0.0
10.758048080112946 6.04742088837115 5.041344848688251 -169.80327096996936 0.0 0.0
52.698711517478664 15.99466260959963 20.606898514623055 -166.84776815415597 0.0 0.0
93.9654092491304 7.462570244468981 30.479366423002062 -176.29905148369704 0.0 0.0
138.22464109410606 -0.7273807448584753 41.81257207829843 -190.94166196495956 0.0 0.0
200.64499850441715 -2.863888903820662 61.9367100661264 -200.43917360638338 0.0 0.0
296.1467059376623 -0.5085266126073931 98.58530532059407 -198.1423193923728 0.0 0.0
401.8630872500254 4.405135778609408 150.88718491175166 -185.4342947552616 0.0 0.0
483.80619898130124 10.677310212398822 204.9049069919707 -171.98344358991824 0.0 0.0
541.7857922180547 17.107430746542835 249.90647017517549 -164.13683727060874 0.0 0.0
584.4268427281265 21.219294728350896 283.1694512212056 -159.12229119889753 0.0 0.0
620.3910400961887 26.392496231663586 310.4826334733443 -155.19250812376688 0.0 0.0
651.7085781096431 30.340914947901837 332.6398693221472 -151.92332892802804 0.0 0.0
680.1585493319537 32.278546067321315 350.7570247606911 -148.55509154567108 0.0 0.0
708.8799765483026 33.37972181400964 367.23883692915877 -144.0178065905426 0.0 0.0
741.3326588601936 35.532261095322895 385.1474888086246 -136.51538802276957 0.0 0.0
771.8283783224355 35.23107581504027 400.95652056025364 -126.56249408303057 0.0 0.0
788.5145244814732 18.694519057080512 401.76021257321906 -114.60133901255752 0.0 0.0
839.0964594705637 25.746779072497006 429.4088570213252 -89.45227827182084 0.0 0.0
839.0964594705752 25.746779072595302 429.40885702141264 89.45227827209605 0.0 0.0
788.5145244819578 18.694519057704497 401.7602125736079 114.60133901280186 0.0 0.0
771.8283783221868 35.231075815032995 400.95652056016127 126.56249408336872 0.0 0.0
741.3326588594437 35.53226109474568 385.14748880815404 136.5153880229323 0.0 0.0
708.8799765476286 33.37972181335891 367.23883692868463 144.01780659053222 0.0 0.0
680.1585493317847 32.27854606727489 350.75702476058837 148.5550915457374 0.0 0.0
651.708578109938 30.340914948299115 332.63986932230523 151.923328928094 0.0 0.0
620.3910400960526 26.392496231777642 310.4826334732847 155.19250812392394 0.0 0.0
584.4268427280698 21.219294728504423 283.1694512211168 159.12229119889912 0.0 0.0
541.7857922175331 17.1074307459889 249.9064701747313 164.13683727043912 0.0 0.0
483.806198980907 10.677310212189653 204.90490699166537 171.98344358981177 0.0 0.0
401.86308724956575 4.405135778341432 150.88718491143143 185.4342947552433 0.0 0.0
296.146705937068 -0.5085266129409032 98.58530532026583 198.14231939232053 0.0 0.0
200.64499850395805 -2.863888904055524 61.936710065911356 200.43917360626807 0.0 0.0
138.22464109400613 -0.7273807448197296 41.81257207827633 190.94166196471468 0.0 0.0
93.96540924905659 7.462570244326991 30.479366422940302 176.29905148340657 0.0 0.0
52.69871151746701 15.994662609546918 20.60689851460415 166.84776815401332 0.0 0.0
10.758048080094786 6.047420888485293 5.041344848717164 169.80327096979133 0.0 0.0
-18.835572154447977 -47.845932117941025 -20.002726127147305 181.8504443577128 0.0 0.0
1.5142585484737339 -343.17430852643855 -111.76901652139047 152.80054175274552 0.0 0.0
-6.44830739638822 -294.3671422030756 -92.21722409385394 -144.52550547201704 0.0 0.0
-36.927723518241514 -52.61419902905443 -26.85982852413339 -185.17527950691556 0.0 0.0
-21.508210087379688 4.900839958096209 -4.98205841387822 -177.68459631202091 0.0 0.0
3.055493482324859 16.722676397985744 5.932954968068735 -175.4352633649889 0.0 0.0
25.42918271020139 11.157529419394244 10.989899707256939 -184.00975675493822 0.0 0.0
44.49096797464779 3.3445994202045326 14.537100411025738 -199.57890225578205 0.0 0.0
66.99704839981304 -0.11550088051776264 20.85153874789211 -213.67258912991903 0.0 0.0
101.91902590173143 0.11817933683537785 32.672191360704126 -219.5791073749039 0.0 0.0
158.28839652134803 3.4247217648933432 53.33701675163664 -212.1584672472142 0.0 0.0
226.7985907851495 4.8715627474371885 79.67958259165361 -199.2107022610604 0.0 0.0
288.22209225310644 7.539420862365809 109.90577438581973 -185.30856885459565 0.0 0.0
338.1669083725738 8.715602123764413 138.99443778459764 -177.43432149784175 0.0 0.0
379.71858494872504 9.429379177472384 166.16269427905956 -171.84781975284346 0.0 0.0
410.2354787662189 8.875021439214706 188.2451144854656 -166.92425588192344 0.0 0.0
434.91464149048534 5.9206274874685505 205.88333868818307 -162.85349481944067 0.0 0.0
462.1805147078381 0.10026268478799238 221.6955065502239 -158.9947019528677 0.0 0.0
498.033754453379 -5.935866597005486 239.3119951223241 -152.75557460053207 0.0 0.0
544.6296805124954 -8.58058167102007 262.6935203821587 -141.99215382428707 0.0 0.0
579.0549492256799 -28.331413498701153 273.3022841735336 -126.73732331833871 0.0 0.0
605.1516601697032 -76.84502159655821 261.25767050781104 -112.58762485392553 0.0 0.0
605.1516601698305 -76.84502159633448 261.2576705079548 112.58762485414 0.0 0.0
579.054949225672 -28.331413498583686 273.3022841735651 126.73732331872026 0.0 0.0
544.6296805130344 -8.580581670030654 262.69352038260143 141.99215382472775 0.0 0.0
498.0337544539204 -5.935866596340929 239.3119951226578 152.75557460069467 0.0 0.0
462.1805147083748 0.10026268589527376 221.6955065506757 158.9947019530004 0.0 0.0
434.91464149054923 5.9206274875281935 205.88333868815644 162.853494819466 0.0 0.0
410.23547876629 8.875021439593766 188.24511448556365 166.92425588210165 0.0 0.0
379.7185849479351 9.429379176374383 166.16269427843562 171.84781975291978 0.0 0.0
338.16690837203373 8.715602122869072 138.99443778413186 177.43432149779832 0.0 0.0
288.22209225325315 7.539420862620936 109.90577438587563 185.30856885457672 0.0 0.0
226.79859078474297 4.87156274698517 79.67958259138123 199.21070226097564 0.0 0.0
158.28839652098208 3.424721764200873 53.33701675130028 212.15846724723207 0.0 0.0
101.91902590146442 0.11817933645153467 32.672191360501515 219.57910737491082 0.0 0.0
66.99704839948357 -0.11550088106369394 20.85153874762952 213.67258912978525 0.0 0.0
44.49096797442309 3.344599419639822 14.537100410788195 199.5789022555825 0.0 0.0
25.429182710194855 11.157529419320074 10.98989970723356 184.0097567546902 0.0 0.0
3.0554934824805056 16.722676398219992 5.932954968185379 175.4352633647445 0.0 0.0
-21.50821008733087 4.900839958250307 -4.982058413817455 177.684596311828 0.0 0.0
-36.927723518234124 -52.614199028965004 -26.85982852410531 185.17527950675498 0.0 0.0
-6.448307396502262 -294.367142202801 -92.21722409379426 144.52550547185433 0.0 0.0
-17.833725033018002 -246.6332904333363 -79.36169980124515 -133.37241723855618 0.0 0.0
-52.557400764280615 -54.53121587884534 -32.12494047568258 -185.0852284317341 0.0 0.0
-52.32563335338251 3.936516474998596 -14.518403885937564 -181.6395812164734 0.0 0.0
-45.03177469811887 17.34079145694222 -8.312356914886106 -179.3850342072137 0.0 0.0
-42.444125401659164 14.570642217980625 -8.38082765008242 -186.24489662474198 0.0 0.0
-49.86005964692285 7.72239663904053 -12.83944532759486 -200.53421674119596 0.0 0.0
-68.57229137572375 2.699734354431291 -20.56410573580203 -213.82944740529183 0.0 0.0
-102.16385719608994 0.2893116790475414 -32.62872388885206 -219.70687536042087 0.0 0.0
-158.03396735588336 -3.356967331711033 -53.234275949881265 -212.1959797469098 0.0 0.0
-226.56424290479862 -4.861082375056753 -79.60527181657616 -199.18385564006348 0.0 0.0
-288.4278792512878 -6.829028299043344 -109.55788494418647 -185.2414083380279 0.0 0.0
-339.3902727737735 -7.309988829697659 -139.00297316440444 -177.0818792953564 0.0 0.0
-383.199222005518 -8.187378731249183 -167.17959536787515 -171.29074542900273 0.0 0.0
-416.3513607514253 -11.581175185013748 -192.0464204589333 -166.7403435875438 0.0 0.0
-439.565932546486 -18.789756659307272 -213.9040899171404 -164.57003273296598 0.0 0.0
-452.3078000046655 -29.661549845294616 -232.320599849294 -164.9214073774968 0.0 0.0
-444.6198973570111 -42.53732855216373 -242.97126434524907 -166.28514019705318 0.0 0.0
-387.36944705939925 -40.65263990700916 -231.63600128721743 -167.03017372138473 0.0 0.0
-207.14618493333052 -34.116984482235495 -162.84536932439664 -169.15467727105894 0.0 0.0
13.05520974719164 -172.69200865233643 -65.29677270242541 -142.7078459968764 0.0 0.0
13.05520974748191 -172.69200865159502 -65.296772702147 142.7078459972149 0.0 0.0
-207.1461849336767 -34.11698448274183 -162.84536932459113 169.15467727154856 0.0 0.0
-387.3694470601101 -40.652639908331196 -231.6360012877941 167.03017372178618 0.0 0.0
-444.61989735667294 -42.53732855215216 -242.97126434504275 166.28514019720916 0.0 0.0
-452.3078000037352 -29.661549844024208 -232.3205998485189 164.9214073773564 0.0 0.0
-439.56593254566894 -18.789756658233387 -213.9040899164916 164.57003273290547 0.0 0.0
-416.3513607508988 -11.581175184888949 -192.04642045861326 166.7403435875608 0.0 0.0
-383.19922200454846 -8.187378730369161 -167.179595367199 171.29074542900105 0.0 0.0
-339.39027277232344 -7.30998882843307 -139.00297316348326 177.08187929526937 0.0 0.0
-288.4278792506965 -6.82902829916042 -109.5578849439046 185.24140833802016 0.0 0.0
-226.56424290416936 -4.861082375133151 -79.60527181636579 199.18385563995076 0.0 0.0
-158.0339673554121 -3.356967331867743 -53.23427594976566 212.19597974698934 0.0 0.0
-102.16385719565244 0.28931167932617186 -32.628723888631455 219.70687536044454 0.0 0.0
-68.5722913754332 2.6997343547785624 -20.564105735600222 213.82944740506932 0.0 0.0
-49.860059646830166 7.722396638870736 -12.83944532761491 200.53421674097152 0.0 0.0
-42.444125401610876 14.570642217895855 -8.380827650094504 186.24489662455596 0.0 0.0
-45.03177469796861 17.340791457065603 -8.312356914805868 179.38503420709768 0.0 0.0
-52.32563335335637 3.936516474974102 -14.518403885939211 181.6395812163265 0.0 0.0
-52.557400764393094 -54.531215878992114 -32.12494047576333 185.08522843158633 0.0 0.0
-17.833725033046218 -246.63329043308576 -79.36169980119075 133.37241723842277 0.0 0.0
-24.510880941681783 -201.13809088453309 -67.69469154786445 -120.42564084352661 0.0 0.0
-65.45061565527766 -53.449667496223896 -35.668480682141336 -181.11356295117872 0.0 0.0
-81.42917558851076 3.0134072767572833 -23.528395582082126 -181.53907912149603 0.0 0.0
-91.60971121035124 17.66129896785107 -22.183925673027467 -178.84077716424272 0.0 0.0
-108.88156269784773 17.297531519182648 -27.584806023312147 -182.7311904746405 0.0 0.0
-142.5356701365938 11.250039075574003 -40.09634033902212 -193.2588357715439 0.0 0.0
-201.93019768646468 5.369635229030406 -61.618002783362094 -201.4146990174446 0.0 0.0
-296.08565522862233 0.828231978932692 -98.51542064040754 -198.4091691842297 0.0 0.0
-401.5855336243769 -4.389635468789336 -150.77811440888195 -185.51459565250914 0.0 0.0
-483.6273639643815 -10.545493746391521 -204.76401178275643 -171.93139781862186 0.0 0.0
-541.4567536300208 -16.485850504833152 -249.52976965242752 -163.9589993313137 0.0 0.0
-584.239898616941 -19.992150951151544 -282.61408476174347 -158.5718073092221 0.0 0.0
-621.2095867136891 -25.32497581500718 -310.3834889421589 -154.14687922052502 0.0 0.0
-655.3001648512577 -32.61966831209861 -335.291277254288 -151.2300793254412 0.0 0.0
-687.7844191165414 -43.34324783156707 -359.5246499119107 -150.62171410729542 0.0 0.0
-717.7623090337138 -58.03319398751296 -383.4989381717205 -152.90251004184944 0.0 0.0
-741.0103653665594 -74.68491869616582 -404.9397496493489 -158.5279740481401 0.0 0.0
-752.3543299377045 -89.74725148856808 -419.8104006064063 -167.38838560498363 0.0 0.0
-789.0859994194436 -144.50896601805627 -466.15393344248685 -176.4474783718045 0.0 0.0
-776.3198019806433 -220.7090896004971 -498.30274586551013 -192.76700150413282 0.0 0.0
-776.3198019809654 -220.70908960087053 -498.30274586576826 192.7670015043994 0.0 0.0
-789.0859994184323 -144.50896601707254 -466.1539334419003 176.44747837193222 0.0 0.0
-752.3543299373902 -89.74725148820576 -419.81040060616715 167.38838560514108 0.0 0.0
-741.0103653665698 -74.68491869641875 -404.9397496494153 158.52797404830204 0.0 0.0
-717.7623090347486 -58.033193988757944 -383.49893817237773 152.9025100419372 0.0 0.0
-687.7844191167578 -43.34324783220397 -359.5246499120994 150.62171410749747 0.0 0.0
-655.3001648501253 -32.61966831096302 -335.29127725357796 151.23007932535785 0.0 0.0
-621.2095867126819 -25.32497581388818 -310.38348894145355 154.14687922044686 0.0 0.0
-584.239898616451 -19.99215095087669 -282.61408476136916 158.57180730919842 0.0 0.0
-541.4567536293304 -16.485850504271973 -249.52976965186213 163.95899933114305 0.0 0.0
-483.6273639636588 -10.54549374574345 -204.76401178213598 171.93139781842433 0.0 0.0
-401.585533623388 -4.389635468161755 -150.77811440826412 185.5145956525215 0.0 0.0
-296.0856552277948 0.8282319793908659 -98.51542063995858 198.4091691842424 0.0 0.0
-201.93019768606268 5.3696352291286775 -61.61800278319616 201.41469901730068 0.0 0.0
-142.53567013611064 11.250039075939215 -40.096340338760285 193.2588357712741 0.0 0.0
-108.8815626976685 17.29753151924536 -27.584806023241814 182.73119047447537 0.0 0.0
-91.60971121024532 17.66129896774078 -22.18392567303005 178.84077716394458 0.0 0.0
-81.4291755885412 3.013407276608528 -23.528395582138867 181.53907912127815 0.0 0.0
-65.45061565528817 -53.449667496313864 -35.6684806821727 181.11356295096567 0.0 0.0
-24.510880941707 -201.1380908843784 -67.69469154782561 120.42564084331524 0.0 0.0
-26.610672304930286 -158.75721639907147 -55.610366611200526 -106.62089159641593 0.0 0.0
-76.12129569818455 -49.895970593244044 -37.80399527865096 -173.06956028760152 0.0 0.0
-108.74549796367887 2.2232481660682897 -31.952228848442278 -177.25090600154903 0.0 0.0
-136.42269131361513 17.562318053574856 -35.65859804249045 -173.55940909021342 0.0 0.0
-173.60201192265183 18.711730724006514 -46.718326242527354 -173.92462739289377 0.0 0.0
-231.78172490263614 13.69570107441297 -66.85668228889624 -178.51597430714546 0.0 0.0
-323.08954212585417 9.373672343280564 -102.07283010703114 -178.74326474777814 0.0 0.0
-432.35787281475126 1.6068111322596401 -159.76780970456628 -167.59925980709258 0.0 0.0
-524.6677009353518 -8.715288424470039 -225.30116922148792 -156.72188549508405 0.0 0.0
-593.4107499209385 -19.61779500199662 -281.3518984098798 -150.11204328799988 0.0 0.0
-646.0222179099153 -27.334855146836787 -321.9422758421498 -146.18992106131373 0.0 0.0
-689.5545206856166 -35.088751409571756 -353.31086096376873 -141.96617842034047 0.0 0.0
-729.5107864659899 -43.54707608938175 -380.47990776959455 -137.95263511058064 0.0 0.0
-768.0924330555861 -53.835669620533494 -406.4542970190437 -135.00869969166808 0.0 0.0
-807.1184633897128 -67.95299182222239 -433.8382694062185 -134.31303700005068 0.0 0.0
-845.6368935662983 -86.71096171062393 -462.9978381434952 -137.04372988108977 0.0 0.0
-880.7680413744156 -108.26513052478327 -491.88681902187204 -143.4332550264498 0.0 0.0
-920.5416066367452 -141.96840092999904 -529.1557115759524 -150.58385626730046 0.0 0.0
-963.7759777974633 -191.6336186261748 -576.2213501012409 -157.45573356390702 0.0 0.0
-1044.6150918545954 -316.02436988199497 -676.9511631179253 -168.3226573038391 0.0 0.0
-1044.6150918543062 -316.024369881822 -676.9511631177928 168.32265730404941 0.0 0.0
-963.7759777978185 -191.6336186267903 -576.2213501014825 157.45573356426755 0.0 0.0
-920.5416066370294 -141.96840093065373 -529.155711576189 150.58385626768714 0.0 0.0
-880.7680413735573 -108.26513052405477 -491.8868190212105 143.43325502659044 0.0 0.0
-845.6368935651492 -86.71096170951611 -462.99783814271535 137.04372988095523 0.0 0.0
-807.1184633887842 -67.9529918212574 -433.8382694055914 134.3130369999475 0.0 0.0
-768.0924330558588 -53.83566962095274 -406.4542970191982 135.00869969166638 0.0 0.0
-729.5107864663729 -43.54707609011929 -380.47990776990775 137.9526351107225 0.0 0.0
-689.5545206857286 -35.08875140991343 -353.31086096381534 141.9661784203541 0.0 0.0
-646.0222179096614 -27.334855146829693 -321.94227584193015 146.18992106129218 0.0 0.0
-593.4107499205935 -19.617795001933317 -281.3518984096078 150.11204328791385 0.0 0.0
-524.6677009352286 -8.715288424887685 -225.30116922139484 156.72188549519075 0.0 0.0
-432.35787281456794 1.606811131752028 -159.76780970447086 167.5992598072105 0.0 0.0
-323.08954212544234 9.373672342879628 -102.07283010697266 178.74326474785028 0.0 0.0
-231.78172490213404 13.695701074517778 -66.85668228871205 178.51597430693138 0.0 0.0
-173.60201192235385 18.711730724217787 -46.71832624237739 173.92462739274546 0.0 0.0
-136.42269131342698 17.562318053635323 -35.6585980424199 173.55940909004914 0.0 0.0
-108.7454979635142 2.2232481661821275 -31.95222884835997 177.25090600144827 0.0 0.0
-76.12129569814863 -49.895970593290365 -37.803995278654426 173.06956028755627 0.0 0.0
-26.6106723049445 -158.75721639895517 -55.6103666111699 106.62089159636042 0.0 0.0
-27.472602537249323 -120.27353244236349 -44.323840493883836 -92.47046011168214 0.0 0.0
-85.27133432917545 -44.24012681914586 -38.853438344496396 -160.9344973833753 0.0 0.0
-134.27387083363016 1.6013571565684117 -39.7989621706818 -168.6262620794496 0.0 0.0
-179.4730401147816 16.62726904105167 -48.86753178222087 -163.77388876651182 0.0 0.0
-235.46632483247586 18.831538190126707 -65.37506325971592 -159.78029907157514 0.0 0.0
-315.00296846005267 16.817333547011177 -92.95058134308279 -158.33350421811994 0.0 0.0
-420.9770171664458 11.457452790695076 -143.09577614310473 -149.63487517825197 0.0 0.0
-521.4598766951397 -0.7156344049414045 -213.4226675483659 -138.518050921466 0.0 0.0
-601.3903594020323 -14.377799146605994 -280.0046828669682 -133.68038054679366 0.0 0.0
-664.1630627504417 -27.26804112141653 -330.96069579379173 -131.39605427713002 0.0 0.0
-715.7484835982598 -38.18960215449721 -368.5726230229965 -128.91388994188227 0.0 0.0
-762.8693161119942 -49.790423698708864 -400.8667212353653 -125.42167079993209 0.0 0.0
-806.8134288688451 -61.628038952399265 -430.1658564497744 -121.62660130153664 0.0 0.0
-849.625410279177 -75.16428328250927 -459.0735042189405 -118.52314529156573 0.0 0.0
-893.117124099658 -92.09486312671608 -489.64416933552934 -117.59988031907905 0.0 0.0
-938.9031693887712 -115.3144533964721 -524.3621976779916 -120.30361214092243 0.0 0.0
-988.085293228199 -147.29815957767877 -565.1661904215242 -126.0962261222429 0.0 0.0
-1041.9814917054161 -190.8862907530974 -614.240261636243 -132.24439906342923 0.0 0.0
-1109.2871270898345 -259.1823774062526 -682.0216594689755 -135.80273007769904 0.0 0.0
-1198.703585573524 -381.7809867909211 -787.2334329179657 -142.89027070428102 0.0 0.0
-1198.7035855738052 -381.78098679127385 -787.2334329182161 142.8902707044164 0.0 0.0
-1109.2871270891785 -259.18237740567054 -682.0216594686117 135.80273007780835 0.0 0.0
-1041.9814917044232 -190.88629075219208 -614.2402616354998 132.2443990635863 0.0 0.0
-988.0852932283683 -147.29815957802492 -565.1661904216414 126.09622612242595 0.0 0.0
-938.9031693898633 -115.31445339780224 -524.362197678689 120.30361214106837 0.0 0.0
-893.1171240996171 -92.09486312687278 -489.64416933549 117.59988031916397 0.0 0.0
-849.6254102786938 -75.16428328212658 -459.0735042185811 118.52314529153642 0.0 0.0
-806.8134288685311 -61.62803895228645 -430.1658564495656 121.6266013015454 0.0 0.0
-762.8693161120755 -49.79042369900483 -400.866721235368 125.42167079996968 0.0 0.0
-715.7484835969356 -38.1896021533242 -368.5726230220798 128.9138899417763 0.0 0.0
-664.1630627496365 -27.268041120793924 -330.9606957932001 131.39605427699814 0.0 0.0
-601.390359401663 -14.37779914658612 -280.0046828666153 133.6803805468141 0.0 0.0
-521.4598766947032 -0.7156344049314507 -213.4226675479934 138.51805092149274 0.0 0.0
-420.97701716620577 11.457452790230395 -143.0957761430049 149.6348751783243 0.0 0.0
-315.00296845982905 16.817333546579157 -92.95058134311034 158.33350421792974 0.0 0.0
-235.46632483217292 18.831538190242508 -65.3750632595934 159.78029907147697 0.0 0.0
-179.473040114405 16.627269041470356 -48.86753178198924 163.77388876630766 0.0 0.0
-134.27387083341785 1.601357156741003 -39.798962170567094 168.62626207936563 0.0 0.0
-85.27133432911566 -44.24012681916294 -38.85343834448358 160.93449738318523 0.0 0.0
-27.472602537160316 -120.27353244222698 -44.323840493816185 92.47046011152202 0.0 0.0
-28.15130467845316 -86.21359151699728 -34.30946885863513 -78.01159774140942 0.0 0.0
-93.61857357262465 -37.11979878391399 -39.22151170696159 -145.1073217537231 0.0 0.0
-158.22878180906957 1.2704381367670736 -47.08627084567609 -155.68131770982257 0.0 0.0
-220.92256877587386 14.829360996881695 -61.806580155741116 -149.5111717118815 0.0 0.0
-294.38190037735865 18.864970672103233 -83.21926008685543 -141.8200499550923 0.0 0.0
-389.92436100525646 18.993873365637075 -119.93634345582936 -132.87300208242257 0.0 0.0
-494.8285687889903 10.57462310665403 -183.306080797868 -120.0756084674415 0.0 0.0
-584.3041871038971 -3.8715469688794215 -257.65289094197817 -113.79243599385929 0.0 0.0
-656.3640488716067 -19.344991985088143 -319.5272127651608 -113.31302393350437 0.0 0.0
-716.760959541305 -33.90208947855544 -365.93426003520733 -113.08538543119305 0.0 0.0
-771.0970742421775 -48.70572912105153 -404.222061939173 -111.42095761869159 0.0 0.0
-821.9136720046454 -64.16997640118993 -438.9817779977046 -108.39727949857229 0.0 0.0
-870.0731147132126 -79.99646818875486 -471.8019631007725 -104.94939346780528 0.0 0.0
-916.7301321609616 -96.48076123788482 -503.84630901974975 -101.91104605525463 0.0 0.0
-964.6089463662063 -116.2425656205411 -537.8794255966418 -100.617609311798 0.0 0.0
-1017.5629886559825 -144.89419013031912 -578.7257368226049 -102.53131099008468 0.0 0.0
-1079.029028084621 -186.33061963837116 -630.2579090945078 -107.6017285178394 0.0 0.0
-1149.6141325889675 -244.09139588667765 -694.5376009712031 -112.64616606211415 0.0 0.0
-1230.3786429928714 -324.70805378037994 -775.205720939078 -115.40439882419815 0.0 0.0
-1313.0169468549116 -438.1898774925903 -873.0232444880754 -124.24050306945955 0.0 0.0
-1313.0169468552263 -438.18987749311 -873.0232444883588 124.24050306980351 0.0 0.0
-1230.3786429927563 -324.7080537803586 -775.2057209389843 115.404398824326 0.0 0.0
-1149.614132588882 -244.09139588671323 -694.5376009710826 112.64616606228087 0.0 0.0
-1079.0290280839931 -186.33061963785985 -630.2579090940511 107.60172851793442 0.0 0.0
-1017.5629886553613 -144.89419012986372 -578.7257368222099 102.53131099021338 0.0 0.0
-964.6089463654002 -116.2425656199114 -537.8794255961365 100.61760931194242 0.0 0.0
-916.7301321602554 -96.48076123732415 -503.8463090192636 101.91104605525616 0.0 0.0
-870.0731147121983 -79.9964681878192 -471.80196310003447 104.94939346768105 0.0 0.0
-821.9136720038739 -64.169976400547 -438.98177799716524 108.3972794984482 0.0 0.0
-771.0970742418218 -48.705729120942124 -404.22206193897796 111.42095761868428 0.0 0.0
-716.7609595413985 -33.90208947890993 -365.9342600352372 113.08538543112014 0.0 0.0
-656.3640488716436 -19.34499198549844 -319.5272127651665 113.31302393355395 0.0 0.0
-584.3041871038183 -3.871546969255675 -257.6528909418341 113.79243599395686 0.0 0.0
-494.8285687884985 10.574623106718764 -183.30608079748777 120.07560846742909 0.0 0.0
-389.92436100454563 18.993873365996258 -119.93634345544925 132.87300208236255 0.0 0.0
-294.3819003769944 18.86497067211117 -83.21926008675575 141.82004995503848 0.0 0.0
-220.92256877566297 14.829360996776364 -61.806580155714826 149.5111717117441 0.0 0.0
-158.22878180904752 1.270438136505291 -47.0862708457486 155.68131770966474 0.0 0.0
-93.61857357266362 -37.11979878412589 -39.221511707036846 145.1073217535715 0.0 0.0
-28.15130467836202 -86.21359151688425 -34.30946885857388 78.01159774123647 0.0 0.0
-28.8675866400589 -57.04314763750605 -25.773220283269485 -63.139319096094084 0.0 0.0
-101.37754590614585 -29.10065524516139 -39.14346034539217 -126.0097820432289 0.0 0.0
-180.86057953509336 1.1073996541886446 -53.92376685845093 -138.51246622757802 0.0 0.0
-260.04375871668765 12.093532063460335 -74.39781274385557 -130.85503531718473 0.0 0.0
-348.67708458679954 19.40627071198462 -100.46856844887 -119.95007695042572 0.0 0.0
-453.72345015345667 18.952180539526253 -148.2749904021237 -105.05753946499345 0.0 0.0
-550.9022037258046 8.700196609310517 -220.2387879106362 -93.50803664293215 0.0 0.0
-630.5253243339971 -7.2609155592371195 -292.6125389729584 -91.89005800684755 0.0 0.0
-698.3080340055321 -22.995308611534647 -348.2695016663039 -93.71828232190705 0.0 0.0
-759.9607686037763 -40.29787592871638 -393.5247700365317 -94.43667285746926 0.0 0.0
-817.7048517902438 -58.94755495790383 -433.96575769021126 -93.2988982548967 0.0 0.0
-872.4614886549477 -78.42122570916752 -472.08163540808476 -90.79016560271958 0.0 0.0
-925.0742598059786 -98.29408404069477 -508.90290960607103 -87.92907533649185 0.0 0.0
-975.6941403361014 -118.45009812934344 -544.6594605533944 -85.10136982202472 0.0 0.0
-1027.3521241548606 -141.05928162787643 -581.9471657580389 -83.25962443436248 0.0 0.0
-1087.0224998197507 -174.15639231813466 -628.2853010338756 -84.03009165948323 0.0 0.0
-1159.5778752394644 -225.31729513722348 -690.0783328504422 -87.88382841330544 0.0 0.0
-1244.8483021229847 -296.7511513902659 -768.4447568478117 -92.69327212297182 0.0 0.0
-1333.7590148675022 -385.51610570546154 -857.3280651673094 -97.26345273306177 0.0 0.0
-1412.2369611034987 -493.3845395117997 -950.5597303998996 -110.10936623571615 0.0 0.0
-1412.2369611045597 -493.3845395129376 -950.5597304006595 110.10936623587482 0.0 0.0
-1333.7590148679622 -385.51610570601053 -857.3280651676852 97.26345273318262 0.0 0.0
-1244.8483021228155 -296.7511513902334 -768.4447568477316 92.6932721231971 0.0 0.0
-1159.5778752388562 -225.31729513671362 -690.0783328499767 87.88382841335246 0.0 0.0
-1087.0224998186243 -174.1563923171031 -628.2853010329733 84.03009165949437 0.0 0.0
-1027.3521241540234 -141.05928162715824 -581.9471657573599 83.25962443434686 0.0 0.0
-975.6941403361218 -118.45009812956177 -544.659460553395 85.10136982214702 0.0 0.0
-925.0742598054001 -98.29408404022954 -508.90290960565267 87.92907533636875 0.0 0.0
-872.4614886540531 -78.42122570846534 -472.08163540745534 90.79016560271761 0.0 0.0
-817.7048517901892 -58.947554958070945 -433.96575769012094 93.29889825480369 0.0 0.0
-759.9607686035374 -40.29787592869915 -393.52477003632976 94.43667285740472 0.0 0.0
-698.3080340050208 -22.995308611356744 -348.26950166591627 93.7182823219767 0.0 0.0
-630.5253243335981 -7.260915559163589 -292.61253897258985 91.89005800682446 0.0 0.0
-550.9022037254118 8.70019660936184 -220.23878791027195 93.50803664288915 0.0 0.0
-453.7234501530642 18.952180539433073 -148.2749904018919 105.0575394650059 0.0 0.0
-348.67708458664754 19.406270711465176 -100.46856844897786 119.9500769504069 0.0 0.0
-260.0437587166137 12.09353206310312 -74.39781274395041 130.8550353170074 0.0 0.0
-180.86057953514998 1.1073996537575352 -53.923766858598086 138.5124662274109 0.0 0.0
-101.37754590617227 -29.100655245319118 -39.14346034544741 126.00978204309652 0.0 0.0
-28.867586640025074 -57.04314763753388 -25.773220283267683 63.13931909596597 0.0 0.0
-29.395582250596455 -33.19309389809629 -18.776602844607822 -47.78714973021967 0.0 0.0
-108.28506770535697 -20.702847561636894 -38.69637458009815 -103.99957139709196 0.0 0.0
-202.30460323010402 0.9619220283192771 -60.40280436053543 -117.11517876245239 0.0 0.0
-297.82007676459546 9.01582094319304 -86.68296922594703 -108.57484379601966 0.0 0.0
-401.20877795650665 19.76036381870175 -118.34196092370468 -94.65326112281224 0.0 0.0
-505.04790933510367 17.83375858991715 -176.62418022914466 -77.47537577693872 0.0 0.0
-591.1769588731636 5.2909724122822865 -252.54404075705645 -70.01407318759816 0.0 0.0
-665.4249014426887 -8.99665229145694 -318.46885270076393 -71.50671767361288 0.0 0.0
-732.9628327305338 -26.257366828639988 -370.8371493917941 -74.03104726341435 0.0 0.0
-796.7894605179122 -46.667211092164806 -416.67058491436757 -75.18782573056455 0.0 0.0
-857.8803753999937 -68.86374507388969 -459.7556230765932 -74.50569218092312 0.0 0.0
-916.9197917260967 -92.40085432965456 -501.74131839550563 -72.59091446889302 0.0 0.0
-973.9619250811886 -116.55430030543832 -542.7689067549362 -70.3452438015639 0.0 0.0
-1029.834163040935 -141.25398294756494 -583.357712865282 -68.0597356420021 0.0 0.0
-1085.7289901842105 -167.40833636517252 -624.5356911155274 -65.8046491677604 0.0 0.0
-1148.4765720938801 -203.04004959185102 -673.6418026578751 -64.87027407497234 0.0 0.0
-1230.1116254564454 -261.62713840126526 -743.5539552700586 -67.30393045609344 0.0 0.0
-1328.2044236345596 -344.899885254703 -834.2015290294021 -72.7562376909372 0.0 0.0
-1427.121067211668 -443.6142758554905 -933.1159188672058 -80.72936506359024 0.0 0.0
-1506.3539916678424 -551.2159851470833 -1026.7647432505048 -98.49260811688121 0.0 0.0
-1506.353991667806 -551.2159851470681 -1026.764743250425 98.49260811698662 0.0 0.0
-1427.1210672114848 -443.6142758553947 -933.1159188670488 80.72936506374633 0.0 0.0
-1328.2044236351362 -344.8998852553917 -834.2015290298398 72.75623769111013 0.0 0.0
-1230.1116254563399 -261.62713840125366 -743.5539552699333 67.30393045613036 0.0 0.0
-1148.476572093738 -203.04004959180773 -673.6418026577899 64.87027407494688 0.0 0.0
-1085.7289901831384 -167.4083363642055 -624.5356911147235 65.80464916769289 0.0 0.0
-1029.8341630400987 -141.25398294690552 -583.3577128645795 68.05973564209496 0.0 0.0
-973.9619250796163 -116.55430030397976 -542.7689067537641 70.34524380143755 0.0 0.0
-916.9197917245451 -92.4008543283058 -501.7413183943995 72.59091446894263 0.0 0.0
-857.8803753995028 -68.86374507361172 -459.75562307625455 74.50569218084757 0.0 0.0
-796.7894605174736 -46.66721109195967 -416.67058491406675 75.18782573046884 0.0 0.0
-732.9628327300745 -26.257366828434723 -370.83714939148365 74.03104726337834 0.0 0.0
-665.4249014421243 -8.996652291204686 -318.46885270033727 71.50671767363087 0.0 0.0
-591.1769588727032 5.290972412411371 -252.54404075665298 70.01407318760302 0.0 0.0
-505.0479093343286 17.833758590378842 -176.62418022861533 77.4753757769065 0.0 0.0
-401.2087779559628 19.760363818878314 -118.34196092346735 94.65326112273274 0.0 0.0
-297.8200767642799 9.015820943460753 -86.68296922578087 108.57484379595965 0.0 0.0
-202.30460322982273 0.9619220285984333 -60.402804360367284 117.11517876239047 0.0 0.0
-108.2850677052937 -20.702847561670787 -38.69637458008935 103.99957139704071 0.0 0.0
-29.395582250526537 -33.19309389804345 -18.776602844570995 47.787149730217536 0.0 0.0
-29.09615753971827 -15.075698068727895 -13.251556682533847 -32.08266125250526 0.0 0.0
-113.45829291177074 -12.355154527590717 -37.74403423180843 -79.27300754013027 0.0 0.0
-222.84009278374734 0.45166432150020874 -66.71652853867414 -91.40259091165834 0.0 0.0
-335.11767136863233 7.036999956517833 -98.48472691112464 -82.85225603660746 0.0 0.0
-448.5491164846159 19.62164378681884 -137.26427751206285 -66.8367025734182 0.0 0.0
-545.5573881108653 14.62865676372169 -205.08427110554078 -52.337171556167114 0.0 0.0
-623.4761459931967 2.8340561148594006 -279.29763365034574 -49.08713979935314 0.0 0.0
-693.8684792403483 -10.236239150765797 -338.4934257886008 -51.284490858762005 0.0 0.0
-762.0735240203646 -29.597008361539693 -389.29022030738565 -53.967821623543486 0.0 0.0
-828.4188327990421 -52.83146433064117 -436.51287616465225 -55.313377923739125 0.0 0.0
-893.1935433149615 -78.56476241321229 -482.74043026768527 -55.038945798612 0.0 0.0
-956.299629485366 -106.04126298429915 -528.5588090385464 -53.71617727968346 0.0 0.0
-1018.3988848498666 -134.57350228598307 -574.2150384149871 -52.1819306871069 0.0 0.0
-1079.6778175374125 -164.63365485807907 -620.1185503943284 -50.493540107652706 0.0 0.0
-1141.1712656223417 -196.24244720842833 -666.8183877633811 -48.314795217791655 0.0 0.0
-1206.4779257579548 -233.55294432669854 -718.1101846370757 -45.93007931205269 0.0 0.0
-1287.1868085916062 -290.32054610195803 -786.5675387150784 -46.19246988275638 0.0 0.0
-1398.6673209630342 -385.8684213822903 -889.8944315447985 -52.23714479626006 0.0 0.0
-1513.5489636690804 -499.5479616321627 -1004.349383325773 -64.62839949159863 0.0 0.0
-1603.779289138368 -616.2510701301859 -1108.163851099161 -88.10094474717387 0.0 0.0
-1603.779289138086 -616.2510701298814 -1108.1638510988655 88.10094474714977 0.0 0.0
-1513.5489636688087 -499.5479616319887 -1004.3493833254765 64.62839949180272 0.0 0.0
-1398.667320962509 -385.8684213818527 -889.8944315442905 52.23714479640355 0.0 0.0
-1287.1868085910294 -290.3205461014821 -786.5675387145451 46.192469882834445 0.0 0.0
-1206.477925757538 -233.55294432639016 -718.110184636654 45.93007931203012 0.0 0.0
-1141.1712656217942 -196.2424472080348 -666.818387762951 48.31479521788786 0.0 0.0
-1079.6778175367795 -164.63365485759888 -620.118550393856 50.49354010768471 0.0 0.0
-1018.3988848497047 -134.57350228598014 -574.2150384147947 52.18193068698902 0.0 0.0
-956.2996294852544 -106.04126298442989 -528.5588090384542 53.71617727980953 0.0 0.0
-893.1935433151737 -78.5647624136929 -482.74043026779253 55.03894579868428 0.0 0.0
-828.418832798944 -52.83146433080674 -436.5128761645967 55.31337792372278 0.0 0.0
-762.0735240198917 -29.597008361316433 -389.2902203070543 53.96782162348869 0.0 0.0
-693.8684792396164 -10.236239150313327 -338.4934257880757 51.28449085873997 0.0 0.0
-623.4761459930295 2.834056114684646 -279.2976336501219 49.087139799383294 0.0 0.0
-545.5573881104717 14.628656763754087 -205.08427110520134 52.337171556194846 0.0 0.0
-448.54911648428543 19.621643786690896 -137.26427751192904 66.83670257341268 0.0 0.0
-335.1176713685238 7.036999956124425 -98.48472691122143 82.85225603655765 0.0 0.0
-222.84009278368103 0.45166432127242606 -66.71652853872257 91.40259091156865 0.0 0.0
-113.45829291156589 -12.355154527484633 -37.74403423171515 79.27300754007904 0.0 0.0
-29.096157539745825 -15.07569806870501 -13.251556682535249 32.08266125243053 0.0 0.0
-26.696586362784373 -3.030483955804935 -8.918121095576794 -16.54147621099611 0.0 0.0
-115.21812500203674 -4.616485485826763 -35.950383146359044 -51.79615686995858 0.0 0.0
-242.73088205277458 -0.4896085633704992 -72.9661471848435 -60.862703905992454 0.0 0.0
-373.9328434729837 6.463379915715084 -110.3912000298437 -53.81855920782401 0.0 0.0
-488.38744715367443 19.391065590966296 -157.069295765078 -39.22572093659276 0.0 0.0
-574.7419743269004 9.760794963952243 -231.97278775949178 -29.676257075132945 0.0 0.0
-648.4815029009252 2.1044023693590077 -299.5832598822529 -29.25654806896387 0.0 0.0
-717.5566639812066 -12.087222045018123 -354.8220547469506 -31.19284964176571 0.0 0.0
-786.4182768252292 -32.79709808320446 -404.4927628728401 -33.459222154688504 0.0 0.0
-855.5256788699891 -58.76145512203392 -453.65397613442246 -34.76363354078849 0.0 0.0
-924.1464223856482 -88.07893538816361 -503.3232679724447 -34.866035028921935 0.0 0.0
-991.8217282256048 -119.29622823082099 -553.1843565224074 -34.19690508567745 0.0 0.0
-1058.657105120783 -152.61440589630072 -603.5341044751102 -33.2734435795245 0.0 0.0
-1125.9480572145562 -188.040259651829 -655.070199544151 -32.25426878841629 0.0 0.0
-1194.424449458002 -226.33596233574494 -708.5757156929303 -30.701155479461445 0.0 0.0
-1264.0640798570273 -268.11642142840896 -764.3409956671212 -28.020553032643758 0.0 0.0
-1338.721895817468 -318.60463289284655 -826.753525553808 -25.722676586915316 0.0 0.0
-1437.2202053718934 -399.7592199701175 -916.1485421192035 -30.056177036347442 0.0 0.0
-1598.386898946213 -557.0534281683022 -1075.4303187820537 -46.90479639707945 0.0 0.0
-1714.435310055865 -696.5357046432478 -1203.789874094927 -77.98185777148959 0.0 0.0
-1714.4353100557948 -696.5357046431582 -1203.7898740949854 77.98185777141153 0.0 0.0
-1598.3868989463926 -557.0534281685327 -1075.4303187823534 46.90479639713489 0.0 0.0
-1437.2202053724932 -399.7592199707792 -916.1485421197915 30.05617703630835 0.0 0.0
-1338.7218958179096 -318.60463289338725 -826.7535255541025 25.722676586929886 0.0 0.0
-1264.064079856592 -268.1164214280738 -764.340995666701 28.02055303250843 0.0 0.0
-1194.4244494577592 -226.3359623356533 -708.5757156926642 30.70115547954397 0.0 0.0
-1125.948057214058 -188.04025965147156 -655.0701995437155 32.2542687883809 0.0 0.0
-1058.6571051197407 -152.61440589542383 -603.5341044744274 33.273443579484855 0.0 0.0
-991.8217282248088 -119.29622823023286 -553.1843565218928 34.1969050856338 0.0 0.0
-924.146422385177 -88.07893538791794 -503.3232679720634 34.866035028888724 0.0 0.0
-855.5256788698214 -58.76145512212066 -453.6539761342425 34.76363354079519 0.0 0.0
-786.4182768242895 -32.79709808252527 -404.4927628722063 33.45922215464887 0.0 0.0
-717.5566639808775 -12.087222044979733 -354.8220547466464 31.192849641655382 0.0 0.0
-648.4815029006261 2.104402369357995 -299.58325988196054 29.256548068992892 0.0 0.0
-574.7419743263699 9.76079496417897 -231.97278775905102 29.676257075131893 0.0 0.0
-488.38744715329506 19.39106559096138 -157.069295764845 39.22572093657046 0.0 0.0
-373.9328434727959 6.463379915428251 -110.39120002988 53.818559207809116 0.0 0.0
-242.7308820526294 -0.4896085633448699 -72.96614718479226 60.86270390598391 0.0 0.0
-115.21812500190731 -4.616485485948197 -35.95038314635665 51.79615686996925 0.0 0.0
-26.696586362876253 -3.0304839558805288 -8.918121095627033 16.541476211021727 0.0 0.0
-19.75639347320385 2.7231503241605877 -5.109972944712978 -2.405179134431843 0.0 0.0
-110.65206727753991 1.7512871643165333 -32.670234033967006 -21.05931340039173 0.0 0.0
-262.81026269838765 -1.9397258932076458 -79.4249965774786 -24.390144042107504 0.0 0.0
-413.88139353183874 8.280226327814875 -122.90280219539756 -21.83825400741931 0.0 0.0
-522.7600913270494 16.964183037438655 -178.9115668511279 -13.485071994092468 0.0 0.0
-600.7127750026481 7.09440664220773 -255.2599255974288 -9.712436277502398 0.0 0.0
-668.8241481546677 0.8367499848450564 -316.0152515187405 -9.865733114617242 0.0 0.0
-737.0212747503379 -13.996009143693826 -367.9406436636949 -11.071117086135859 0.0 0.0
-806.9158388456896 -36.112651522926726 -417.3722973095237 -12.524179170115486 0.0 0.0
-878.7462685490337 -64.49118111105992 -468.5890504725002 -13.537359322198494 0.0 0.0
-951.2890340115518 -97.04481309062321 -521.6452824812475 -13.981289778693096 0.0 0.0
-1023.4676253815559 -132.8005278258798 -575.9460563963144 -13.919807842187339 0.0 0.0
-1095.5154103178374 -170.44553418620956 -631.0186457566268 -13.689338986109153 0.0 0.0
-1168.6809933750237 -211.037096944927 -688.0353975627038 -13.315078243140672 0.0 0.0
-1244.0754201683121 -256.01886501390146 -748.308710596526 -12.538611026322158 0.0 0.0
-1320.8619060910319 -305.18661371065895 -811.34067378437 -10.944014922886971 0.0 0.0
-1395.5345607402217 -356.2095294130254 -874.1800199723035 -8.231874532204436 0.0 0.0
-1469.4818504872455 -412.33860381181063 -938.9783669545195 -7.670978900988999 0.0 0.0
-1577.8190930861524 -512.7821926733313 -1042.8122736355153 -22.769714651773082 0.0 0.0
-1912.464016192726 -863.3908005659298 -1386.2304925825154 -63.598210156899874 0.0 0.0
-1912.4640161924656 -863.3908005656733 -1386.230492582406 63.598210156860716 0.0 0.0
-1577.819093085276 -512.7821926724987 -1042.8122736348837 22.769714651885703 0.0 0.0
-1469.4818504864118 -412.33860381104836 -938.9783669537677 7.670978901017756 0.0 0.0
-1395.5345607392792 -356.2095294121716 -874.1800199714942 8.231874532212242 0.0 0.0
-1320.861906090166 -305.1866137099056 -811.340673783673 10.9440149227777 0.0 0.0
-1244.0754201679222 -256.0188650136503 -748.308710596132 12.538611026372735 0.0 0.0
-1168.680993375002 -211.03709694506574 -688.0353975626864 13.315078243147028 0.0 0.0
-1095.515410317852 -170.4455341864235 -631.018645756589 13.689338986186858 0.0 0.0
-1023.4676253805776 -132.8005278251145 -575.9460563955406 13.919807842167156 0.0 0.0
-951.2890340109476 -97.04481309025397 -521.6452824807899 13.981289778617707 0.0 0.0
-878.7462685489531 -64.49118111123732 -468.5890504724298 13.537359322120098 0.0 0.0
-806.9158388454151 -36.11265152293181 -417.3722973093077 12.524179170122085 0.0 0.0
-737.0212747496745 -13.996009143294863 -367.94064366328683 11.071117086099957 0.0 0.0
-668.8241481538639 0.836749985369444 -316.01525151818583 9.865733114649217 0.0 0.0
-600.7127750024275 7.094406642105845 -255.2599255971734 9.712436277629152 0.0 0.0
-522.7600913268973 16.96418303722762 -178.91156685099014 13.485071994121537 0.0 0.0
-413.88139353153866 8.280226327682 -122.90280219534915 21.8382540073149 0.0 0.0
-262.81026269817096 -1.9397258932855852 -79.42499657743696 24.390144042071206 0.0 0.0
-110.65206727743126 1.751287164271595 -32.67023403394789 21.059313400470728 0.0 0.0
-19.756393473226368 2.7231503241440747 -5.109972944724688 2.405179134384872 0.0 0.0
SCALARS Strain float 6
LOOKUP_TABLE default
0.010682717993442524 -0.011752599052432838 0.0 -0.006453543519535393 0.0 0.0
0.002216481149799901 -0.001284789235118211 0.0 0.0010824553028184747 0.0 0.0
0.0017733957872423795 -0.0007249803782540809 0.0 -5.122065819448962e-05 0.0 0.0
0.0021846686777931574 -0.00101965571572471 0.0 -0.0001957121899372194 0.0 0.0
0.0032180670249290725 -0.0018195555095881222 0.0 -0.00023909485536297015 0.0 0.0
0.005334516536583376 -0.003642994082562634 0.0 -0.00034942646225219476 0.0 0.0
0.008696312104271438 -0.006731413920371576 0.0 -0.0005411372005720005 0.0 0.0
0.01349249985085738 -0.011255255955881838 0.0 -0.0008284402406454339 0.0 0.0
0.019818060087574488 -0.017297504096367655 0.0 -0.001221932608182874 0.0 0.0
0.027676076327677445 -0.024853321881263435 0.0 -0.0016897252352476022 0.0 0.0
0.037043054755029795 -0.03390380245626878 0.0 -0.002173673512208596 0.0 0.0
0.04791416571948419 -0.044448713700684817 0.0 -0.002659924275466713 0.0 0.0
0.06029347788868621 -0.05649674928014514 0.0 -0.003155342936946637 0.0 0.0
0.07415720836970996 -0.07002030684348926 0.0 -0.0036608717694218418 0.0 0.0
0.08933038652202861 -0.08483922882072736 0.0 -0.0041707728667393085 0.0 0.0
0.10533148907269084 -0.10047389438950605 0.0 -0.0045931567189786415 0.0 0.0
0.1212985397806303 -0.11607361334447175 0.0 -0.004732265274921488 0.0 0.0
0.13602331457033917 -0.1304464415628126 0.0 -0.004349472055183545 0.0 0.0
0.1480519283622697 -0.14215324906689197 0.0 -0.0035302640080755454 0.0 0.0
0.15548626758664819 -0.14917445166418153 0.0 -0.0034640315010438516 0.0 0.0
0.15548626758663855 -0.14917445166417265 0.0 0.003464031501047793 0.0 0.0
0.1480519283622407 -0.14215324906686755 0.0 0.0035302640080954184 0.0 0.0
0.13602331457029063 -0.13044644156276064 0.0 0.004349472055192649 0.0 0.0
0.12129853978056923 -0.11607361334440691 0.0 0.004732265274926983 0.0 0.0
0.10533148907262382 -0.10047389438944343 0.0 0.004593156718971869 0.0 0.0
0.08933038652195957 -0.08483922882066386 0.0 0.004170772866738837 0.0 0.0
0.07415720836964013 -0.07002030684342442 0.0 0.0036608717694209814 0.0 0.0
0.060293477888617164 -0.056496749280073644 0.0 0.003155342936947525 0.0 0.0
0.04791416571941856 -0.044448713700617315 0.0 0.0026599242754621333 0.0 0.0
0.03704305475497041 -0.033903802456211496 0.0 0.0021736735122050432 0.0 0.0
0.027676076327627946 -0.02485332188121614 0.0 0.0016897252352415792 0.0 0.0
0.01981806008753556 -0.017297504096330796 0.0 0.001221932608182097 0.0 0.0
0.013492499850828232 -0.011255255955854304 0.0 0.0008284402406418812 0.0 0.0
0.008696312104251397 -0.006731413920351814 0.0 0.0005411372005704185 0.0 0.0
0.00533451653657202 -0.0036429940825499774 0.0 0.000349426462250807 0.0 0.0
0.00321806702492361 -0.0018195555095836813 0.0 0.00023909485536210973 0.0 0.0
0.0021846686777919344 -0.001019655715724932 0.0 0.00019571218993624795 0.0 0.0
0.0017733957872419492 -0.000724980378254525 0.0 5.1220658194905955e-05 0.0 0.0
0.0022164811497981662 -0.0012847892351164902 0.0 -0.0010824553028162265 0.0 0.0
0.010682717993431956 -0.011752599052419203 0.0 0.006453543519505001 0.0 0.0
0.007504449786896409 -0.008947759146341883 0.0 -0.007713660318842019 0.0 0.0
0.0012200760872060415 -0.0006522639684751197 0.0 0.0001478321116966108 0.0 0.0
0.0015210096677382608 -0.000552165158488438 0.0 -0.00013255678038909258 0.0 0.0
0.0019325913627910273 -0.0008653503686268937 0.0 -0.00044650241312993444 0.0 0.0
0.0027554405905554046 -0.001459534091229564 0.0 -0.0005489452985191767 0.0 0.0
0.004565365297976558 -0.002968709738939923 0.0 -0.0008213872422337398 0.0 0.0
0.007569232774865629 -0.005680735099788281 0.0 -0.0013145629915159718 0.0 0.0
0.011908383885282953 -0.00974004097314185 0.0 -0.002011511197885091 0.0 0.0
0.017640299717968332 -0.015193182471049171 0.0 -0.0029144844941067505 0.0 0.0
0.024731023916856717 -0.021995934388041594 0.0 -0.003951227662275819 0.0 0.0
0.033130608084507004 -0.030100482345101875 0.0 -0.0050130137627716065 0.0 0.0
0.04283659450252995 -0.039507971636319805 0.0 -0.006042053172942763 0.0 0.0
0.05389617901111474 -0.050263845311491195 0.0 -0.007106991144963465 0.0 0.0
0.06631824930610664 -0.06237377065083738 0.0 -0.008240508841586558 0.0 0.0
0.07995827039036521 -0.07569065004539999 0.0 -0.009378094727771319 0.0 0.0
0.09440579804416979 -0.08980549341171651 0.0 -0.010330142430689304 0.0 0.0
0.10891042709403866 -0.10397459980056656 0.0 -0.010695716369598707 0.0 0.0
0.12238156800885576 -0.11711546349675839 0.0 -0.010058392408152206 0.0 0.0
0.13335606701257363 -0.12774535358996486 0.0 -0.008446141053773615 0.0 0.0
0.13994628462911685 -0.1340762408390006 0.0 -0.005712964285530753 0.0 0.0
0.13994628462910771 -0.13407624083898861 0.0 0.005712964285548572 0.0 0.0
0.13335606701254715 -0.12774535358993422 0.0 0.008446141053808032 0.0 0.0
0.12238156800881297 -0.1171154634967202 0.0 0.010058392408172412 0.0 0.0
0.10891042709398563 -0.10397459980051638 0.0 0.010695716369607533 0.0 0.0
0.09440579804411023 -0.08980549341165789 0.0 0.010330142430683309 0.0 0.0
0.07995827039030354 -0.07569065004534448 0.0 0.009378094727768627 0.0 0.0
0.06631824930604377 -0.06237377065077876 0.0 0.008240508841584337 0.0 0.0
0.05389617901105309 -0.05026384531142858 0.0 0.007106991144961605 0.0 0.0
0.04283659450247129 -0.03950797163626274 0.0 0.00604205317293427 0.0 0.0
0.033130608084453256 -0.03010048234504903 0.0 0.005013013762763363 0.0 0.0
0.024731023916812644 -0.02199593438799896 0.0 0.003951227662264412 0.0 0.0
0.01764029971793285 -0.015193182471015865 0.0 0.002914484494101699 0.0 0.0
0.011908383885256835 -0.009740040973117425 0.0 0.002011511197879623 0.0 0.0
0.007569232774847556 -0.005680735099769407 0.0 0.0013145629915115031 0.0 0.0
0.004565365297966806 -0.002968709738930375 0.0 0.0008213872422322688 0.0 0.0
0.0027554405905513557 -0.0014595340912261223 0.0 0.0005489452985189547 0.0 0.0
0.0019325913627901425 -0.0008653503686247843 0.0 0.0004465024131291573 0.0 0.0
0.0015210096677380769 -0.0005521651584877718 0.0 0.00013255678038792684 0.0 0.0
0.001220076087205979 -0.0006522639684732323 0.0 -0.00014783211169808186 0.0 0.0
0.007504449786884165 -0.008947759146327505 0.0 0.007713660318817289 0.0 0.0
0.005514456004553046 -0.007099176833058357 0.0 -0.007128542578306363 0.0 0.0
0.0007216034167661853 -0.0004203105653621808 0.0 -0.0005415620941926214 0.0 0.0
0.0012200911684711463 -0.00040850089592536776 0.0 -0.0004252549755922319 0.0 0.0
0.0016880834745242462 -0.0007243377154038111 0.0 -0.0006881560303699796 0.0 0.0
0.002345572366072371 -0.0011647825567199233 0.0 -0.0008336278141570508 0.0 0.0
0.003823210428700957 -0.002340102972255842 0.0 -0.0011786409901790862 0.0 0.0
0.0064477697179559645 -0.004649203310390204 0.0 -0.0018873164285969357 0.0 0.0
0.010306624024639228 -0.008222503133344494 0.0 -0.002923860368439085 0.0 0.0
0.015424474827380304 -0.013063018074215726 0.0 -0.004232379108703221 0.0 0.0
0.021736243070760698 -0.019101237212964417 0.0 -0.005711774522390273 0.0 0.0
0.02917134118318107 -0.026263410038746438 0.0 -0.007227038641388017 0.0 0.0
0.03772413544166036 -0.03454331026721347 0.0 -0.008699510710900832 0.0 0.0
0.047455489115887414 -0.04399873104999141 0.0 -0.010192509225599944 0.0 0.0
0.05841348301329644 -0.05467361307805563 0.0 -0.011801138277975631 0.0 0.0
0.07050190815338207 -0.0664710830270816 0.0 -0.013452910592269107 0.0 0.0
0.08338871319395974 -0.07905965221736277 0.0 -0.014836888967746042 0.0 0.0
0.09644543908193864 -0.09181247937286496 0.0 -0.015449498646398607 0.0 0.0
0.10868845833385961 -0.10373947068444034 0.0 -0.014751931657358552 0.0 0.0
0.11871312094168789 -0.1134600685954501 0.0 -0.012280652144249948 0.0 0.0
0.12490952169948037 -0.11944136682803563 0.0 -0.0073800136468173405 0.0 0.0
0.1249095216994719 -0.1194413668280303 0.0 0.007380013646848704 0.0 0.0
0.11871312094166339 -0.11346006859543412 0.0 0.01228065214429519 0.0 0.0
0.10868845833382193 -0.1037394706844057 0.0 0.014751931657387196 0.0 0.0
0.09644543908189215 -0.09181247937282588 0.0 0.015449498646411208 0.0 0.0
0.08338871319390784 -0.07905965221731304 0.0 0.014836888967738715 0.0 0.0
0.07050190815332708 -0.06647108302702698 0.0 0.013452910592265721 0.0 0.0
0.05841348301324109 -0.05467361307800189 0.0 0.011801138277969248 0.0 0.0
0.047455489115832916 -0.043998731049938566 0.0 0.010192509225594115 0.0 0.0
0.03772413544160888 -0.034543310267165506 0.0 0.008699510710889313 0.0 0.0
0.029171341183133526 -0.026263410038700696 0.0 0.007227038641377526 0.0 0.0
0.021736243070721945 -0.01910123721292667 0.0 0.005711774522377755 0.0 0.0
0.0154244748273486 -0.01306301807418242 0.0 0.004232379108696949 0.0 0.0
0.010306624024616101 -0.00822250313332229 0.0 0.002923860368432951 0.0 0.0
0.006447769717940227 -0.004649203310374661 0.0 0.0018873164285909683 0.0 0.0
0.003823210428693019 -0.002340102972245961 0.0 0.0011786409901756445 0.0 0.0
0.0023455723660693595 -0.0011647825567169257 0.0 0.0008336278141552467 0.0 0.0
0.0016880834745233164 -0.000724337715403256 0.0 0.0006881560303684808 0.0 0.0
0.0012200911684711602 -0.0004085008959259784 0.0 0.00042525497559325887 0.0 0.0
0.0007216034167662477 -0.0004203105653607653 0.0 0.0005415620941913446 0.0 0.0
0.0055144560045415625 -0.007099176833045503 0.0 0.007128542578285574 0.0 0.0
0.004133626338340551 -0.0057096957272260995 0.0 -0.006048105419385302 0.0 0.0
0.0004534909880684612 -0.00031444307835304386 0.0 -0.0011254165382045267 0.0 0.0
0.0009452215680222087 -0.0002971361806399786 0.0 -0.000810131716089374 0.0 0.0
0.0014390885568250772 -0.0005916254684753541 0.0 -0.0009529603191223146 0.0 0.0
0.001983180154180829 -0.0009326434531253813 0.0 -0.0011125026372784952 0.0 0.0
0.0031415456821679705 -0.0017951399467754925 0.0 -0.0014505800698901838 0.0 0.0
0.005339955817761241 -0.003661082954415029 0.0 -0.0022681626891918605 0.0 0.0
0.00870409507980402 -0.00671944585541695 0.0 -0.003559651461493979 0.0 0.0
0.013189217695395168 -0.010929756522434886 0.0 -0.005167422610642569 0.0 0.0
0.018712611239512518 -0.016192605076759348 0.0 -0.0069726953099747135 0.0 0.0
0.025184186281874917 -0.022412018477480533 0.0 -0.008812607791165467 0.0 0.0
0.032589795275008264 -0.029569092712125045 0.0 -0.010608567427586257 0.0 0.0
0.040996891030866164 -0.03772827370388532 0.0 -0.012440201841134368 0.0 0.0
0.0504792058006092 -0.046956356357915396 0.0 -0.014371325671477142 0.0 0.0
0.06099319350810348 -0.057212055137086715 0.0 -0.01634837168088671 0.0 0.0
0.0722991621245155 -0.0682553778782129 0.0 -0.018079633687439034 0.0 0.0
0.08389164203377546 -0.0795744818577182 0.0 -0.018975008901864987 0.0 0.0
0.0949189375494905 -0.09031644850378218 0.0 -0.018299602339344523 0.0 0.0
0.10414794323534156 -0.09927342158015406 0.0 -0.015203696653669163 0.0 0.0
0.11016114469773233 -0.1050914608850464 0.0 -0.008754994033216279 0.0 0.0
0.11016114469772431 -0.10509146088503263 0.0 0.00875499403325286 0.0 0.0
0.10414794323531903 -0.09927342158013142 0.0 0.015203696653720011 0.0 0.0
0.0949189375494576 -0.09031644850374931 0.0 0.018299602339379106 0.0 0.0
0.0838916420337345 -0.0795744818576769 0.0 0.018975008901880752 0.0 0.0
0.07229916212447116 -0.06825537787816938 0.0 0.018079633687433705 0.0 0.0
0.060993193508055016 -0.05721205513704719 0.0 0.01634837168088077 0.0 0.0
0.050479205800561394 -0.04695635635787054 0.0 0.014371325671471147 0.0 0.0
0.040996891030819105 -0.037728273703840465 0.0 0.012440201841127485 0.0 0.0
0.03258979527496417 -0.029569092712082856 0.0 0.010608567427575433 0.0 0.0
0.025184186281833915 -0.022412018477440343 0.0 0.00881260779115306 0.0 0.0
0.018712611239478788 -0.016192605076727373 0.0 0.006972695309957644 0.0 0.0
0.013189217695367378 -0.010929756522411127 0.0 0.005167422610633188 0.0 0.0
0.008704095079784119 -0.006719445855401185 0.0 0.003559651461484681 0.0 0.0
0.005339955817748099 -0.003661082954403927 0.0 0.0022681626891859485 0.0 0.0
0.0031415456821617394 -0.001795139946767832 0.0 0.0014505800698869642 0.0 0.0
0.001983180154178893 -0.0009326434531241601 0.0 0.0011125026372777735 0.0 0.0
0.0014390885568241751 -0.0005916254684754652 0.0 0.0009529603191222591 0.0 0.0
0.0009452215680224585 -0.00029713618064031166 0.0 0.0008101317160896793 0.0 0.0
0.000453490988068489 -0.00031444307835179486 0.0 0.0011254165382020564 0.0 0.0
0.004133626338330421 -0.005709695727214838 0.0 0.006048105419368371 0.0 0.0
0.0030938175617684777 -0.0045828861218731864 0.0 -0.004951905039370819 0.0 0.0
0.0003025426059070635 -0.0002622462968114858 0.0 -0.0015793280778681196 0.0 0.0
0.0007133522753659041 -0.0002149828873589943 0.0 -0.0011993014036813243 0.0 0.0
0.0011866796970711885 -0.00046976033335566214 0.0 -0.0012402390626430893 0.0 0.0
0.0016550505642051044 -0.0007458035916704242 0.0 -0.0013856668667968086 0.0 0.0
0.002535311576792522 -0.0013478390127741324 0.0 -0.001694512439465945 0.0 0.0
0.004283468546023392 -0.002752247459061552 0.0 -0.0024793148444279267 0.0 0.0
0.007110192413851482 -0.0052501263228965644 0.0 -0.0038785185321824622 0.0 0.0
0.010953636277057609 -0.008815236039607655 0.0 -0.005710943300760857 0.0 0.0
0.01567965131098626 -0.013292108841266081 0.0 -0.007725470014896152 0.0 0.0
0.02118854097971877 -0.01856761430403031 0.0 -0.009774415370712775 0.0 0.0
0.027452446680454073 -0.024607407156042704 0.0 -0.011769809625873207 0.0 0.0
0.0345395108903369 -0.031472928802577904 0.0 -0.013794408919337586 0.0 0.0
0.0425445871353701 -0.03925463570475651 0.0 -0.015943455615195834 0.0 0.0
0.05147269964344753 -0.047956456403979164 0.0 -0.018124270498037554 0.0 0.0
0.06116468906407596 -0.05741870224135237 0.0 -0.020036186909999976 0.0 0.0
0.07124614903535902 -0.06726449688205305 0.0 -0.021168977469981476 0.0 0.0
0.08105908765006271 -0.0768288758156368 0.0 -0.020660420071368923 0.0 0.0
0.08958655410355527 -0.08511231377223627 0.0 -0.017310063011844345 0.0 0.0
0.09555490877986099 -0.09089304108884333 0.0 -0.009920976123728775 0.0 0.0
0.09555490877985372 -0.09089304108883534 0.0 0.00992097612376841 0.0 0.0
0.08958655410353544 -0.08511231377221806 0.0 0.017310063011896304 0.0 0.0
0.08105908765003397 -0.07682887581561193 0.0 0.02066042007140856 0.0 0.0
0.07124614903532381 -0.06726449688202507 0.0 0.02116897746999835 0.0 0.0
0.06116468906403838 -0.057418702241323505 0.0 0.020036186909994758 0.0 0.0
0.05147269964340573 -0.04795645640394364 0.0 0.01812427049803178 0.0 0.0
0.0425445871353296 -0.03925463570471521 0.0 0.015943455615190616 0.0 0.0
0.03453951089029733 -0.031472928802541045 0.0 0.013794408919330148 0.0 0.0
0.02745244668041702 -0.02460740715600629 0.0 0.011769809625860495 0.0 0.0
0.02118854097968409 -0.01856761430399856 0.0 0.009774415370697564 0.0 0.0
0.01567965131095761 -0.013292108841240546 0.0 0.007725470014876501 0.0 0.0
0.010953636277033968 -0.00881523603958545 0.0 0.00571094330074956 0.0 0.0
0.007110192413834732 -0.005250126322880355 0.0 0.0038785185321715265 0.0 0.0
0.004283468546012914 -0.0027522474590540025 0.0 0.0024793148444210433 0.0 0.0
0.0025353115767878798 -0.0013478390127711348 0.0 0.0016945124394622813 0.0 0.0
0.001655050564203897 -0.0007458035916702022 0.0 0.001385666866794838 0.0 0.0
0.0011866796970704807 -0.00046976033335577316 0.0 0.0012402390626411741 0.0 0.0
0.0007133522753659804 -0.0002149828873584947 0.0 0.001199301403679992 0.0 0.0
0.000302542605907008 -0.0002622462968108197 0.0 0.0015793280778666485 0.0 0.0
0.0030938175617600816 -0.004582886121863694 0.0 0.004951905039360077 0.0 0.0
0.0022853130387184978 -0.0036449690770071486 0.0 -0.003999426013696433 0.0 0.0
0.00020922581334578694 -0.00023199599834999862 0.0 -0.001915927008441315 0.0 0.0
0.0005175405473866607 -0.00015232082286309456 0.0 -0.0015454514421902599 0.0 0.0
0.0009342373847361918 -0.0003547258344939186 0.0 -0.0015241072447580162 0.0 0.0
0.0013475360014061494 -0.0005870075182454748 0.0 -0.0016511338650061491 0.0 0.0
0.001995528471746749 -0.000994870280716098 0.0 -0.0019283975654411645 0.0 0.0
0.0033168556943786592 -0.001973291310393366 0.0 -0.002627915833094241 0.0 0.0
0.00556030704112484 -0.0038682482270153695 0.0 -0.003950574575926957 0.0 0.0
0.008731710390766062 -0.006741860938721533 0.0 -0.005827183916892853 0.0 0.0
0.012657729506064447 -0.010424423413307293 0.0 -0.007955405955740347 0.0 0.0
0.01720233131933885 -0.014753861422211578 0.0 -0.010091875839021824 0.0 0.0
0.022332009926901625 -0.019681322645820565 0.0 -0.012170057787500521 0.0 0.0
0.02810765990149028 -0.02526155168533606 0.0 -0.014270899027656936 0.0 0.0
0.03463552371049858 -0.03159630680830805 0.0 -0.016472664056706332 0.0 0.0
0.04196947141172991 -0.03873541142177528 0.0 -0.01872149610841628 0.0 0.0
0.0500203408800059 -0.04659036965440011 0.0 -0.020736208506564713 0.0 0.0
0.05853253654269998 -0.054906431894182095 0.0 -0.022006545476706052 0.0 0.0
0.06708065007804288 -0.06324997586728465 0.0 -0.021736862543710045 0.0 0.0
0.0749322862948924 -0.07088700943436699 0.0 -0.018564580811304465 0.0 0.0
0.08095472402047224 -0.07672101466282566 0.0 -0.0108985838615126 0.0 0.0
0.0809547240204657 -0.07672101466282122 0.0 0.010898583861551292 0.0 0.0
0.0749322862948755 -0.07088700943435011 0.0 0.018564580811354148 0.0 0.0
0.06708065007801844 -0.06324997586726022 0.0 0.021736862543748847 0.0 0.0
0.05853253654267099 -0.05490643189414923 0.0 0.022006545476720762 0.0 0.0
0.05002034087997426 -0.046590369654365915 0.0 0.020736208506557552 0.0 0.0
0.04196947141169516 -0.03873541142174686 0.0 0.01872149610840701 0.0 0.0
0.03463552371046538 -0.03159630680828185 0.0 0.016472664056697672 0.0 0.0
0.02810765990145886 -0.02526155168530453 0.0 0.01427089902764933 0.0 0.0
0.02233200992687126 -0.019681322645791255 0.0 0.012170057787487476 0.0 0.0
0.01720233131931065 -0.014753861422184933 0.0 0.010091875839006337 0.0 0.0
0.012657729506040855 -0.010424423413285089 0.0 0.00795540595572014 0.0 0.0
0.008731710390746772 -0.0067418609387022155 0.0 0.005827183916881362 0.0 0.0
0.005560307041111351 -0.003868248227003157 0.0 0.003950574575917298 0.0 0.0
0.0033168556943710126 -0.0019732913103862604 0.0 0.002627915833088801 0.0 0.0
0.0019955284717437793 -0.0009948702807138776 0.0 0.0019283975654389995 0.0 0.0
0.0013475360014051363 -0.0005870075182442536 0.0 0.0016511338650050944 0.0 0.0
0.000934237384735831 -0.0003547258344939186 0.0 0.0015241072447567672 0.0 0.0
0.0005175405473863692 -0.00015232082286320558 0.0 0.001545451442187512 0.0 0.0
0.00020922581334559265 -0.00023199599834905493 0.0 0.0019159270084385116 0.0 0.0
0.0022853130387120724 -0.003644969076999219 0.0 0.003999426013686858 0.0 0.0
0.001652149666296135 -0.002857826056699736 0.0 -0.0032180986863690197 0.0 0.0
0.00014196307359298777 -0.00021255172310091774 0.0 -0.00215063367577506 0.0 0.0
0.00034548901464105664 -9.935210953493367e-05 0.0 -0.001828668980262571 0.0 0.0
0.0006854610361339414 -0.0002427481282766264 0.0 -0.001783282248013579 0.0 0.0
0.0010439391417406685 -0.00044352292817861905 0.0 -0.001909594624476041 0.0 0.0
0.0015155977451894315 -0.000713718265630936 0.0 -0.002138784345328465 0.0 0.0
0.0024436745191921544 -0.001330195115377908 0.0 -0.002707468823806236 0.0 0.0
0.004107307820211473 -0.002634518151252152 0.0 -0.0038519799995634374 0.0 0.0
0.006558569933691416 -0.004767185513594674 0.0 -0.005558361335309403 0.0 0.0
0.009663920523589012 -0.007618828701079883 0.0 -0.007620811760467305 0.0 0.0
0.013243238291328563 -0.010996989970390558 0.0 -0.009748048032232726 0.0 0.0
0.01724724257909603 -0.014817861640227914 0.0 -0.01179385045451159 0.0 0.0
0.021723682323514 -0.019123931474745337 0.0 -0.013836841809675815 0.0 0.0
0.0267832005765649 -0.024019604861705623 0.0 -0.015968580613884786 0.0 0.0
0.0325113066816408 -0.029587360527667972 0.0 -0.018141257175136982 0.0 0.0
0.03889640809947935 -0.03580604386219388 0.0 -0.02010294612899144 0.0 0.0
0.045782645257618576 -0.04253508741079992 0.0 -0.02144153133983956 0.0 0.0
0.05296758746919489 -0.04956823799291765 0.0 -0.021493661861135493 0.0 0.0
0.06007929868685302 -0.05650384179076795 0.0 -0.018901734400200376 0.0 0.0
0.06621233761707028 -0.062440975331909954 0.0 -0.011674473638385197 0.0 0.0
0.06621233761706471 -0.06244097533190596 0.0 0.011674473638421778 0.0 0.0
0.06007929868683956 -0.05650384179075507 0.0 0.018901734400250447 0.0 0.0
0.05296758746917479 -0.049568237992899444 0.0 0.021493661861174962 0.0 0.0
0.045782645257595844 -0.04253508741077949 0.0 0.021441531339854936 0.0 0.0
0.03889640809945344 -0.03580604386217123 0.0 0.020102946128984556 0.0 0.0
0.03251130668161337 -0.029587360527643547 0.0 0.018141257175125824 0.0 0.0
0.026783200576539767 -0.02401960486168342 0.0 0.01596858061387907 0.0 0.0
0.021723682323490257 -0.019123931474721356 0.0 0.013836841809670486 0.0 0.0
0.017247242579072508 -0.014817861640207486 0.0 0.011793850454497545 0.0 0.0
0.01324323829130672 -0.010996989970372795 0.0 0.009748048032217294 0.0 0.0
0.00966392052357043 -0.007618828701063229 0.0 0.007620811760448709 0.0 0.0
0.00655856993367715 -0.004767185513579797 0.0 0.005558361335298356 0.0 0.0
0.0041073078202016056 -0.0026345181512443805 0.0 0.0038519799995560544 0.0 0.0
0.002443674519186839 -0.0013301951153750213 0.0 0.0027074688238010736 0.0 0.0
0.0015155977451877523 -0.0007137182656302699 0.0 0.002138784345325523 0.0 0.0
0.001043939141739586 -0.00044352292817817496 0.0 0.0019095946244733764 0.0 0.0
0.0006854610361338442 -0.00024274812827707049 0.0 0.0017832822480114974 0.0 0.0
0.000345489014640904 -9.935210953371243e-05 0.0 0.001828668980259407 0.0 0.0
0.00014196307359254368 -0.0002125517231002516 0.0 0.0021506336757733946 0.0 0.0
0.0016521496662914026 -0.002857826056694133 0.0 0.003218098686361831 0.0 0.0
0.0011670265934202867 -0.0022146889282671778 0.0 -0.002614596827244464 0.0 0.0
7.861118104962594e-05 -0.00019605654563298325 0.0 -0.0022875608964675886 0.0 0.0
0.00018727765485031245 -4.8168161414730015e-05 0.0 -0.00204886142346955 0.0 0.0
0.000443204919420237 -0.0001339855211646146 0.0 -0.0020005397316788243 0.0 0.0
0.0007326155702939013 -0.0003000036206675105 0.0 -0.0021341368900305857 0.0 0.0
0.001076494765054073 -0.0004893967104784291 0.0 -0.0023617011194023985 0.0 0.0
0.0016681791533593032 -0.0008313244156217259 0.0 -0.0027783744732354787 0.0 0.0
0.0027761571551687403 -0.0015932184539682037 0.0 -0.003629735093989006 0.0 0.0
0.004490924033464863 -0.0029730491978405826 0.0 -0.005003452933648012 0.0 0.0
0.006731869600029389 -0.0049425591033387395 0.0 -0.006765328703570772 0.0 0.0
0.009332627325106868 -0.007340089436733699 0.0 -0.008690156941368987 0.0 0.0
0.01221470866345506 -0.010055112788728948 0.0 -0.010586392335290129 0.0 0.0
0.015408498902825349 -0.013099294260599859 0.0 -0.01247028836266667 0.0 0.0
0.01901168995820883 -0.01656656816482993 0.0 -0.014395667960403313 0.0 0.0
0.02313127860643341 -0.020557978875032745 0.0 -0.016354824783746058 0.0 0.0
0.027822138696849505 -0.025118431064012015 0.0 -0.018158903206075994 0.0 0.0
0.03303719632357442 -0.030201841215975023 0.0 -0.019413446704762805 0.0 0.0
0.03872463772870033 -0.03579049444542326 0.0 -0.01973014816938129 0.0 0.0
0.044916576010514256 -0.04187452441871731 0.0 -0.01813019315390596 0.0 0.0
0.051151026184319215 -0.0479072346707512 0.0 -0.012202176534236775 0.0 0.0
0.05115102618431566 -0.04790723467074631 0.0 0.012202176534266751 0.0 0.0
0.04491657601050489 -0.04187452441870665 0.0 0.0181301931539537 0.0 0.0
0.03872463772868459 -0.03579049444541349 0.0 0.019730148169416428 0.0 0.0
0.033037196323557505 -0.030201841215959035 0.0 0.019413446704775406 0.0 0.0
0.027822138696829896 -0.025118431063991142 0.0 0.01815890320606761 0.0 0.0
0.023131278606413785 -0.02055797887501054 0.0 0.01635482478373418 0.0 0.0
0.019011689958191996 -0.016566568164812612 0.0 0.01439566796039804 0.0 0.0
0.015408498902808654 -0.013099294260580763 0.0 0.01247028836266173 0.0 0.0
0.012214708663438989 -0.010055112788710296 0.0 0.010586392335278139 0.0 0.0
0.009332627325091492 -0.007340089436715713 0.0 0.008690156941355276 0.0 0.0
0.0067318696000160105 -0.004942559103326083 0.0 0.00676532870355534 0.0 0.0
0.004490924033455523 -0.002973049197833477 0.0 0.0050034529336375755 0.0 0.0
0.002776157155162551 -0.001593218453964873 0.0 0.0036297350939822337 0.0 0.0
0.0016681791533558754 -0.0008313244156208377 0.0 0.00277837447323126 0.0 0.0
0.001076494765053032 -0.000489396710477874 0.0 0.0023617011193997894 0.0 0.0
0.0007326155702933324 -0.0003000036206669554 0.0 0.002134136890027505 0.0 0.0
0.00044320491942020923 -0.00013398552116505869 0.0 0.0020005397316781026 0.0 0.0
0.00018727765485035408 -4.8168161415673705e-05 0.0 0.0020488614234667746 0.0 0.0
7.861118104912634e-05 -0.00019605654563265018 0.0 0.0022875608964652294 0.0 0.0
0.0011670265934170254 -0.0022146889282630613 0.0 0.0026145968272396902 0.0 0.0
0.0008160337782870813 -0.0017228919112863006 0.0 -0.002197222595025 0.0 0.0
7.588960742072048e-06 -0.00018095742154078387 0.0 -0.0023636189907797756 0.0 0.0
3.7156118816161765e-05 6.5375088181829355e-06 0.0 -0.0022072757540985144 0.0 0.0
0.0002085740134212255 -2.9973468137822756e-05 0.0 -0.0021687326980546207 0.0 0.0
0.0004139608796155103 -0.00015014618778230737 0.0 -0.0022995253953347616 0.0 0.0
0.0006432945378554156 -0.00028467487300032346 0.0 -0.0025614035155525627 0.0 0.0
0.000980008631156673 -0.0004605729918232271 0.0 -0.002903382717717673 0.0 0.0
0.001584621148220819 -0.0007961741789295207 0.0 -0.003415801256823614 0.0 0.0
0.0025759603249985302 -0.0014616495091177573 0.0 -0.004275852793051982 0.0 0.0
0.00391888281220211 -0.002520105979830767 0.0 -0.0055012891305668 0.0 0.0
0.005508875005400274 -0.0038912756191207265 0.0 -0.0069786810775649966 0.0 0.0
0.007253200496877679 -0.005475569319522311 0.0 -0.008541804238015371 0.0 0.0
0.00917456888995763 -0.007260036550355231 0.0 -0.010162742628870236 0.0 0.0
0.011341501281151523 -0.009312122556392133 0.0 -0.011802968171463757 0.0 0.0
0.013850656954036172 -0.011724268713716235 0.0 -0.013454047151972903 0.0 0.0
0.016815832415601487 -0.014596835345018544 0.0 -0.015027299828388518 0.0 0.0
0.020322584362187285 -0.01799855954465901 0.0 -0.016211001190848895 0.0 0.0
0.024428004334864042 -0.022011972385468592 0.0 -0.016595772364529027 0.0 0.0
0.02937311139180271 -0.02695517287957916 0.0 -0.015956041945986876 0.0 0.0
0.035522735996028953 -0.03293423180490018 0.0 -0.012288856499283352 0.0 0.0
0.035522735996027566 -0.032934231804898406 0.0 0.012288856499311884 0.0 0.0
0.02937311139179727 -0.02695517287957072 0.0 0.015956041946027566 0.0 0.0
0.02442800433485315 -0.022011972385458378 0.0 0.01659577236455767 0.0 0.0
0.020322584362176155 -0.01799855954465146 0.0 0.016211001190856833 0.0 0.0
0.016815832415589455 -0.014596835345010106 0.0 0.015027299828379581 0.0 0.0
0.013850656954024876 -0.011724268713705577 0.0 0.013454047151964854 0.0 0.0
0.011341501281142558 -0.009312122556381475 0.0 0.011802968171459538 0.0 0.0
0.009174568889948581 -0.007260036550346349 0.0 0.010162742628868182 0.0 0.0
0.007253200496868811 -0.005475569319513429 0.0 0.008541804238005768 0.0 0.0
0.0055088750053916835 -0.0038912756191151754 0.0 0.006978681077551396 0.0 0.0
0.0039188828121945185 -0.0025201059798249936 0.0 0.005501289130553755 0.0 0.0
0.00257596032499377 -0.0014616495091150927 0.0 0.004275852793045709 0.0 0.0
0.0015846211482176409 -0.0007961741789288546 0.0 0.0034158012568197837 0.0 0.0
0.000980008631154855 -0.0004605729918232271 0.0 0.002903382717715064 0.0 0.0
0.000643294537854805 -0.00028467487299987937 0.0 0.0025614035155488157 0.0 0.0
0.0004139608796155103 -0.00015014618778286248 0.0 0.0022995253953314865 0.0 0.0
0.000208574013421281 -2.99734681380448e-05 0.0 0.002168732698052872 0.0 0.0
3.7156118815856454e-05 6.537508818738047e-06 0.0 0.002207275754096294 0.0 0.0
7.588960741961026e-06 -0.00018095742154103367 0.0 0.0023636189907783323 0.0 0.0
0.0008160337782849025 -0.0017228919112836135 0.0 0.002197222595022863 0.0 0.0
0.0005706261909162041 -0.00135669153830284 0.0 -0.0019197453343697823 0.0 0.0
-6.542692662372951e-05 -0.0001673765755191292 0.0 -0.0024067914323182837 0.0 0.0
-0.00010741046543122357 6.423160834490016e-05 0.0 -0.0023097310228912815 0.0 0.0
-1.8712282180338713e-05 7.01345318770974e-05 0.0 -0.002280782584610924 0.0 0.0
9.412777976480768e-05 1.025443908897472e-06 0.0 -0.002399377494972821 0.0 0.0
0.00019988152038770413 -7.513618477594797e-05 0.0 -0.002677628830742157 0.0 0.0
0.00032344467417332046 -0.00014797850163894566 0.0 -0.003061593318821998 0.0 0.0
0.0005126934966824953 -0.0002432747034839533 0.0 -0.00344568461169914 0.0 0.0
0.0008312621912010265 -0.0004011619211252704 0.0 -0.003857385378277123 0.0 0.0
0.0012751560150248281 -0.0006524565427763473 0.0 -0.004430942451363773 0.0 0.0
0.0018123272218241032 -0.0010009926468215191 0.0 -0.005287801079462806 0.0 0.0
0.0023925131418293943 -0.0014207592452675222 0.0 -0.006357789494129573 0.0 0.0
0.003026684410865857 -0.0019160630940553425 0.0 -0.007609626336672781 0.0 0.0
0.0037487189006576715 -0.002534007671275873 0.0 -0.009036035094466877 0.0 0.0
0.004636688678591475 -0.0033432514632592003 0.0 -0.010623005823157838 0.0 0.0
0.005848524411527958 -0.004480571843642256 0.0 -0.012254914783349335 0.0 0.0
0.007618341150902083 -0.006155521384944684 0.0 -0.013591278583706123 0.0 0.0
0.010166882244646347 -0.008569397006199075 0.0 -0.014062058032607572 0.0 0.0
0.01367332717715658 -0.012025275537355551 0.0 -0.013456976727318604 0.0 0.0
0.019052939932751492 -0.017473811314589582 0.0 -0.012011885047226112 0.0 0.0
0.019052939932751603 -0.017473811314588694 0.0 0.012011885047246706 0.0 0.0
0.013673327177154193 -0.012025275537352886 0.0 0.013456976727350467 0.0 0.0
0.010166882244640962 -0.00856939700618975 0.0 0.01406205803262739 0.0 0.0
0.007618341150898059 -0.006155521384937579 0.0 0.0135912785837074 0.0 0.0
0.0058485244115246 -0.004480571843634706 0.0 0.012254914783340454 0.0 0.0
0.00463668867858856 -0.0033432514632560917 0.0 0.010623005823150844 0.0 0.0
0.0037487189006565474 -0.0025340076712736526 0.0 0.009036035094463435 0.0 0.0
0.003026684410864386 -0.0019160630940588952 0.0 0.007609626336669617 0.0 0.0
0.0023925131418278123 -0.0014207592452697426 0.0 0.006357789494121857 0.0 0.0
0.0018123272218227987 -0.0010009926468192987 0.0 0.005287801079454202 0.0 0.0
0.0012751560150232322 -0.0006524565427770135 0.0 0.00443094245135589 0.0 0.0
0.0008312621912004575 -0.00040116192112749083 0.0 0.003857385378274625 0.0 0.0
0.0005126934966818986 -0.00024327470348506353 0.0 0.0034456846116975304 0.0 0.0
0.00032344467417282086 -0.00014797850164072202 0.0 0.0030615933188192224 0.0 0.0
0.00019988152038775964 -7.513618477805739e-05 0.0 0.002677628830738993 0.0 0.0
9.412777976493258e-05 1.0254439085644051e-06 0.0 0.002399377494970073 0.0 0.0
-1.871228218010279e-05 7.013453187787455e-05 0.0 0.002280782584608315 0.0 0.0
-0.00010741046543130683 6.423160834551078e-05 0.0 0.0023097310228888668 0.0 0.0
-6.542692662386829e-05 -0.00016737657551874063 0.0 0.002406791432316341 0.0 0.0
0.0005706261909150245 -0.0013566915383012197 0.0 0.0019197453343676174 0.0 0.0
0.0004000658297327875 -0.0010877232602679865 0.0 -0.0017343293683216854 0.0 0.0
-0.00013280074444374512 -0.000145626369793872 0.0 -0.0024058275074912427 0.0 0.0
-0.00024579485730646944 0.00011997981577782646 0.0 -0.0023617142523224 0.0 0.0
-0.00023887484753035149 0.00016686816721822595 0.0 -0.0023339540421267735 0.0 0.0
-0.00022229435761111915 0.00014978573594359723 0.0 -0.002433015569260316 0.0 0.0
-0.00024720124287849754 0.00013724702620754314 0.0 -0.00269150055338202 0.0 0.0
-0.00033671702007520565 0.00016384369456101666 0.0 -0.0030658768151619054 0.0 0.0
-0.0005147195496240098 0.00024571301081222074 0.0 -0.003448635302627956 0.0 0.0
-0.0008299979479112762 0.00040074752663632474 0.0 -0.003858341762736861 0.0 0.0
-0.0012734607865833303 0.000651399592390467 0.0 -0.004429165415340719 0.0 0.0
-0.0018132349093573086 0.001003605324368273 0.0 -0.0052840061111604775 0.0 0.0
-0.0024102152492618822 0.0014388087797261306 0.0 -0.0063576662971603914 0.0 0.0
-0.0030779446411116074 0.0019608122489023216 0.0 -0.007613543637098208 0.0 0.0
-0.0038181334154508972 0.0025781755026601516 0.0 -0.009041615812198645 0.0 0.0
-0.004561993779214832 0.0032174742209689633 0.0 -0.010643423445172218 0.0 0.0
-0.00512478338509495 0.0036962034856964365 0.0 -0.01238322561676275 0.0 0.0
-0.005167578712603496 0.0037073217320946483 0.0 -0.014231945889900122 0.0 0.0
-0.004309809547692542 0.0029904933711852877 0.0 -0.01619576120144095 0.0 0.0
-0.0022532947745583926 0.0014450776970784673 0.0 -0.017896197015742132 0.0 0.0
0.0026940427602451106 -0.0031439099034602513 0.0 -0.01613841669059457 0.0 0.0
0.002694042760244625 -0.0031439099034571427 0.0 0.016138416690608892 0.0 0.0
-0.0022532947745582677 0.001445077697076247 0.0 0.01789619701575762 0.0 0.0
-0.004309809547691543 0.0029904933711790704 0.0 0.016195761201447723 0.0 0.0
-0.005167578712598389 0.0037073217320906515 0.0 0.01423194588989568 0.0 0.0
-0.005124783385088996 0.0036962034856964365 0.0 0.012383225616750648 0.0 0.0
-0.0045619937792093085 0.003217474220968519 0.0 0.010643423445164057 0.0 0.0
-0.0038181334154449575 0.002578175502656155 0.0 0.009041615812191484 0.0 0.0
-0.0030779446411052236 0.0019608122489009894 0.0 0.007613543637091491 0.0 0.0
-0.0024102152492554985 0.0014388087797270188 0.0 0.006357666297152453 0.0 0.0
-0.001813234909351133 0.00100360532436361 0.0 0.005284006111151374 0.0 0.0
-0.001273460786578695 0.0006513995923873583 0.0 0.00442916541533156 0.0 0.0
-0.0008299979479081954 0.0004007475266341043 0.0 0.003858341762734585 0.0 0.0
-0.0005147195496223583 0.0002457130108124428 0.0 0.0034486353026271233 0.0 0.0
-0.0003367170200744146 0.00016384369456190484 0.0 0.003065876815156854 0.0 0.0
-0.00024720124287769263 0.00013724702620654394 0.0 0.0026915005533783287 0.0 0.0
-0.0002222943576107722 0.00014978573594315314 0.0 0.0024330155692584565 0.0 0.0
-0.00023887484752997679 0.00016686816721855902 0.0 0.0023339540421260796 0.0 0.0
-0.0002457948573063584 0.00011997981577771544 0.0 0.0023617142523210954 0.0 0.0
-0.00013280074444398104 -0.0001456263697943161 0.0 0.002405827507489827 0.0 0.0
0.0004000658297323295 -0.0010877232602669751 0.0 0.0017343293683202698 0.0 0.0
0.0002806947689401873 -0.000867382095688346 0.0 -0.001565533330965846 0.0 0.0
-0.00019357029339109322 -0.00011556723427619264 0.0 -0.002354317370609482 0.0 0.0
-0.00037647139419122455 0.00017258306640355325 0.0 -0.0023606844343448674 0.0 0.0
-0.00045132564558575394 0.0002590609697546986 0.0 -0.0023255848697896764 0.0 0.0
-0.0005323091158394577 0.00029397144143550324 0.0 -0.00239580608366613 0.0 0.0
-0.00068763050891818 0.0003448665661180961 0.0 -0.0026092061358135854 0.0 0.0
-0.0009926430312239276 0.0004762859007423348 0.0 -0.0029216931112290845 0.0 0.0
-0.0015860747714007417 0.0007985290836205472 0.0 -0.003422802350179388 0.0 0.0
-0.00257372461695643 0.0014602180499523332 0.0 -0.004276149670076335 0.0 0.0
-0.003916794442805599 0.002518920703818539 0.0 -0.005498718203797548 0.0 0.0
-0.005511005959979609 0.003896061212405044 0.0 -0.006976926079476198 0.0 0.0
-0.007270944252850603 0.005497251984190932 0.0 -0.00853440266664518 0.0 0.0
-0.00922262472028923 0.007308788617347517 0.0 -0.010134693863563804 0.0 0.0
-0.011404854247977547 0.00935843202714226 0.0 -0.011767986595905722 0.0 0.0
-0.013776091123295392 0.011594786489575348 0.0 -0.013519064443542117 0.0 0.0
-0.016131280928343483 0.013812692045957586 0.0 -0.015489334527560739 0.0 0.0
-0.018069567297890138 0.015628297230465993 0.0 -0.01774757750168221 0.0 0.0
-0.01905182885767319 0.01652800489360784 0.0 -0.020196775812119816 0.0 0.0
-0.018141912725346016 0.015342414927586034 0.0 -0.021244273461211383 0.0 0.0
-0.012877716811542622 0.009887053536649315 0.0 -0.018842723617973234 0.0 0.0
-0.01287771681154408 0.009887053536648871 0.0 0.018842723617999158 0.0 0.0
-0.018141912725343518 0.015342414927588699 0.0 0.02124427346124219 0.0 0.0
-0.019051828857665598 0.016528004893602066 0.0 0.02019677581214091 0.0 0.0
-0.018069567297876593 0.015628297230451782 0.0 0.017747577501682654 0.0 0.0
-0.016131280928328037 0.01381269204593627 0.0 0.015489334527548804 0.0 0.0
-0.01377609112328193 0.011594786489559805 0.0 0.013519064443533513 0.0 0.0
-0.011404854247964488 0.009358432027135155 0.0 0.01176798659589573 0.0 0.0
-0.009222624720274686 0.007308788617338635 0.0 0.010134693863556865 0.0 0.0
-0.007270944252836781 0.005497251984179385 0.0 0.00853440266663369 0.0 0.0
-0.005511005959965981 0.003896061212395052 0.0 0.006976926079459267 0.0 0.0
-0.003916794442794733 0.0025189207038116557 0.0 0.005498718203781672 0.0 0.0
-0.0025737246169490746 0.0014602180499494466 0.0 0.004276149670069784 0.0 0.0
-0.0015860747713966061 0.0007985290836198811 0.0 0.003422802350176779 0.0 0.0
-0.0009926430312219292 0.00047628590074166866 0.0 0.0029216931112254763 0.0 0.0
-0.0006876305089165147 0.0003448665661186512 0.0 0.0026092061358090612 0.0 0.0
-0.0005323091158388332 0.00029397144143550324 0.0 0.002395806083664437 0.0 0.0
-0.0004513256455851017 0.0002590609697540325 0.0 0.0023255848697861237 0.0 0.0
-0.0003764713941911413 0.00017258306640299814 0.0 0.0023606844343425637 0.0 0.0
-0.00019357029339096832 -0.00011556723427658122 0.0 0.0023543173706068454 0.0 0.0
0.00028069476893977097 -0.0008673820956875931 0.0 0.001565533330963098 0.0 0.0
0.00018849801299075652 -0.0006704545236211612 0.0 -0.0013860715907534071 0.0 0.0
-0.00024904116474916416 -7.860135839099502e-05 0.0 -0.002249707313193794 0.0 0.0
-0.0004990261385338923 0.00022207718124178655 0.0 -0.0023036312774894763 0.0 0.0
-0.0006549552443845252 0.00034591730177946367 0.0 -0.0022561052620804767 0.0 0.0
-0.0008326243421484802 0.00042940712726613484 0.0 -0.0022849416878061857 0.0 0.0
-0.0011157791869889078 0.0005458937747546688 0.0 -0.0024342709066938195 0.0 0.0
-0.0016793404347036078 0.0008477630349243981 0.0 -0.0028074540689379535 0.0 0.0
-0.002775182414824995 0.001594144672050879 0.0 -0.003639105948960053 0.0 0.0
-0.004487540335570722 0.0029701720184081015 0.0 -0.004999954538366158 0.0 0.0
-0.006730775175954717 0.004942014289289087 0.0 -0.006762581490142305 0.0 0.0
-0.009336246453622715 0.007345647755824913 0.0 -0.008688474329737239 0.0 0.0
-0.012228634164692137 0.01007272589857422 0.0 -0.01056763412534878 0.0 0.0
-0.015443151083323198 0.013136075542673264 0.0 -0.012396021219728826 0.0 0.0
-0.019057495831417193 0.01660073103202686 0.0 -0.014266660752123683 0.0 0.0
-0.023067189469053034 0.020449370019816726 0.0 -0.01636982091017325 0.0 0.0
-0.02725598336990409 0.024465291983063242 0.0 -0.018968327239561544 0.0 0.0
-0.03113291725385045 0.028171077272008294 0.0 -0.022253019139896524 0.0 0.0
-0.03382690212605885 0.030643570687773458 0.0 -0.025625047597300887 0.0 0.0
-0.03366693090892377 0.030203669015874013 0.0 -0.02735064276163196 0.0 0.0
-0.02760174973024629 0.023526568480537247 0.0 -0.023855292579981924 0.0 0.0
-0.027601749730246428 0.02352656848053858 0.0 0.02385529258001401 0.0 0.0
-0.033666930908918216 0.03020366901586602 0.0 0.027350642761672372 0.0 0.0
-0.033826902126046124 0.03064357068775836 0.0 0.02562504759732953 0.0 0.0
-0.03113291725382994 0.028171077271992306 0.0 0.022253019139901964 0.0 0.0
-0.02725598336988068 0.024465291983045923 0.0 0.01896832723954972 0.0 0.0
-0.023067189469031565 0.020449370019800295 0.0 0.01636982091016176 0.0 0.0
-0.01905749583139668 0.016600731032004656 0.0 0.014266660752111526 0.0 0.0
-0.015443151083300757 0.013136075542647951 0.0 0.012396021219718834 0.0 0.0
-0.012228634164671376 0.01007272589855246 0.0 0.01056763412533468 0.0 0.0
-0.009336246453601996 0.007345647755805151 0.0 0.00868847432971892 0.0 0.0
-0.006730775175937814 0.004942014289273544 0.0 0.006762581490124597 0.0 0.0
-0.00448754033555869 0.002970172018395667 0.0 0.004999954538356777 0.0 0.0
-0.002775182414817459 0.0015941446720428853 0.0 0.0036391059489538358 0.0 0.0
-0.0016793404346996943 0.0008477630349206233 0.0 0.0028074540689362326 0.0 0.0
-0.0011157791869867706 0.0005458937747541137 0.0 0.002434270906690711 0.0 0.0
-0.0008326243421476059 0.0004294071272665789 0.0 0.0022849416878045203 0.0 0.0
-0.0006549552443838869 0.00034591730177946367 0.0 0.0022561052620787836 0.0 0.0
-0.0004990261385333927 0.0002220771812420086 0.0 0.0023036312774883383 0.0 0.0
-0.00024904116474891436 -7.860135839127258e-05 0.0 0.0022497073131932666 0.0 0.0
0.0001884980129904651 -0.0006704545236206044 0.0 0.0013860715907526855 0.0 0.0
0.00010953304671812436 -0.0004936729976651177 0.0 -0.0012021159814518678 0.0 0.0
-0.0003017163239004139 -3.501347508522157e-05 0.0 -0.0020921484659838785 0.0 0.0
-0.0006139986954883658 0.00026905574379287867 0.0 -0.0021917965078208645 0.0 0.0
-0.0008494865923645845 0.00042605998665268263 0.0 -0.0021307861668393158 0.0 0.0
-0.0011178418213119157 0.0005538221215077854 0.0 -0.002103789944901291 0.0 0.0
-0.0015491967792478911 0.0007669243467356424 0.0 -0.002236478512333606 0.0 0.0
-0.0024503831783120045 0.0013451524972742934 0.0 -0.0027447148177486835 0.0 0.0
-0.0041031136933505075 0.002631917336053613 0.0 -0.003854111322286302 0.0 0.0
-0.006555341625358285 0.0047637959425270715 0.0 -0.00555212136021338 0.0 0.0
-0.009664772699827295 0.007619989100495994 0.0 -0.007619033926567764 0.0 0.0
-0.013247704677691041 0.011002683260139534 0.0 -0.009746714989867789 0.0 0.0
-0.01725387762011868 0.014826824698026542 0.0 -0.011766644846585073 0.0 0.0
-0.021732647526393284 0.019135432877851244 0.0 -0.013723823462977625 0.0 0.0
-0.026791674911441438 0.02402394851588019 0.0 -0.015743197095473005 0.0 0.0
-0.03246287419869956 0.029513161885575734 0.0 -0.018065875926039476 0.0 0.0
-0.03854111903687932 0.035383959395952846 0.0 -0.021094693689850064 0.0 0.0
-0.04437488258490596 0.04097378329845114 0.0 -0.025036548655523072 0.0 0.0
-0.048621064207042736 0.04492684811885317 0.0 -0.02920395621467775 0.0 0.0
-0.04895315996064814 0.04485217763271798 0.0 -0.031429715866562846 0.0 0.0
-0.04133400186600744 0.03659856585544263 0.0 -0.028279600695058305 0.0 0.0
-0.04133400186600568 0.03659856585543908 0.0 0.028279600695091944 0.0 0.0
-0.04895315996063869 0.044852177632711765 0.0 0.03142971586660531 0.0 0.0
-0.04862106420702543 0.04492684811884118 0.0 0.029203956214710836 0.0 0.0
-0.04437488258487925 0.04097378329842316 0.0 0.025036548655530677 0.0 0.0
-0.03854111903684959 0.035383959395916875 0.0 0.021094693689841904 0.0 0.0
-0.032462874198669944 0.02951316188554598 0.0 0.01806587592602865 0.0 0.0
-0.026791674911413238 0.024023948515854432 0.0 0.01574319709546007 0.0 0.0
-0.021732647526363585 0.019135432877822822 0.0 0.013723823462966633 0.0 0.0
-0.017253877620090577 0.014826824697997676 0.0 0.011766644846570085 0.0 0.0
-0.013247704677663563 0.011002683260118884 0.0 0.009746714989848138 0.0 0.0
-0.009664772699804383 0.00761998910047712 0.0 0.007619033926547836 0.0 0.0
-0.006555341625341479 0.00476379594251175 0.0 0.005552121360201556 0.0 0.0
-0.004103113693339322 0.002631917336044065 0.0 0.00385411132227792 0.0 0.0
-0.002450383178305593 0.001345152497267632 0.0 0.0027447148177440206 0.0 0.0
-0.0015491967792451433 0.0007669243467324227 0.0 0.002236478512329332 0.0 0.0
-0.0011178418213108332 0.0005538221215077854 0.0 0.0021037899449002084 0.0 0.0
-0.0008494865923638628 0.0004260599866540149 0.0 0.002130786166837262 0.0 0.0
-0.0006139986954877552 0.00026905574379326724 0.0 0.0021917965078198653 0.0 0.0
-0.0003017163239001086 -3.501347508541586e-05 0.0 0.0020921484659814082 0.0 0.0
0.00010953304671826314 -0.0004936729976646702 0.0 0.0012021159814497862 0.0 0.0
4.002806717118279e-05 -0.000337376797279354 0.0 -0.0010141507706383224 0.0 0.0
-0.0003535809021268099 1.3661133999809394e-05 0.0 -0.0018863951827984005 0.0 0.0
-0.0007223883886464111 0.00031429915961045385 0.0 -0.002023743192556826 0.0 0.0
-0.0010336089361470124 0.0004978093602775457 0.0 -0.0019422759298430847 0.0 0.0
-0.0013899570113121984 0.0006724846317279765 0.0 -0.0018699583175219026 0.0 0.0
-0.0020206612596160856 0.0010389275974251877 0.0 -0.002027313622546434 0.0 0.0
-0.0033173825749296115 0.0019822625219692025 0.0 -0.0026551316533752756 0.0 0.0
-0.005554682714512427 0.0038630254644829165 0.0 -0.0039467869690184565 0.0 0.0
-0.008730090317941475 0.006739617810697762 0.0 -0.005819424625032432 0.0 0.0
-0.012660617469163388 0.010427422851053247 0.0 -0.007953867504551682 0.0 0.0
-0.0172067397112477 0.014758689980642892 0.0 -0.010088755407189953 0.0 0.0
-0.02232877346565476 0.019678642612847685 0.0 -0.012136776974133179 0.0 0.0
-0.028082357187551782 0.025238614095546286 0.0 -0.014138375569434203 0.0 0.0
-0.034589632772686285 0.03155551836784909 0.0 -0.01619172064311869 0.0 0.0
-0.04192954692812895 0.03869208505296218 0.0 -0.018545950037483827 0.0 0.0
-0.04989807131509236 0.046415705483874525 0.0 -0.02162429644799735 0.0 0.0
-0.057651992225686066 0.05386075711205107 0.0 -0.02571587356833871 0.0 0.0
-0.06336219748213825 0.059185711223244564 0.0 -0.030294049393521205 0.0 0.0
-0.06392894009132083 0.05926835525589613 0.0 -0.033340592242480316 0.0 0.0
-0.0546540790425169 0.04940561890484574 0.0 -0.032315003404583265 0.0 0.0
-0.05465407904251382 0.04940561890484041 0.0 0.032315003404622844 0.0 0.0
-0.06392894009130747 0.059268355255883254 0.0 0.03334059224252456 0.0 0.0
-0.06336219748211572 0.05918571122322236 0.0 0.030294049393555178 0.0 0.0
-0.05765199222565405 0.053860757112022206 0.0 0.025715873568347924 0.0 0.0
-0.04989807131505655 0.04641570548384166 0.0 0.021624296447993463 0.0 0.0
-0.04192954692809174 0.03869208505292887 0.0 0.018545950037476278 0.0 0.0
-0.034589632772650356 0.03155551836781667 0.0 0.0161917206431057 0.0 0.0
-0.02808235718751531 0.0252386140955152 0.0 0.014138375569421713 0.0 0.0
-0.022328773465618887 0.01967864261281571 0.0 0.012136776974116859 0.0 0.0
-0.01720673971121396 0.014758689980610473 0.0 0.01008875540717008 0.0 0.0
-0.012660617469135244 0.01042742285102416 0.0 0.007953867504530476 0.0 0.0
-0.008730090317919728 0.006739617810675114 0.0 0.005819424625019665 0.0 0.0
-0.005554682714497411 0.0038630254644675954 0.0 0.003946786969009908 0.0 0.0
-0.0033173825749208546 0.001982262521962319 0.0 0.0026551316533687808 0.0 0.0
-0.002020661259612075 0.0010389275974240775 0.0 0.0020273136225436583 0.0 0.0
-0.0013899570113108106 0.0006724846317275324 0.0 0.0018699583175216805 0.0 0.0
-0.0010336089361459716 0.0004978093602767686 0.0 0.0019422759298416137 0.0 0.0
-0.0007223883886458143 0.0003142991596092326 0.0 0.0020237431925548277 0.0 0.0
-0.000353580902126574 1.3661133998921215e-05 0.0 0.0018863951827964298 0.0 0.0
4.002806717137708e-05 -0.00033737679727901745 0.0 0.0010141507706360742 0.0 0.0
-2.0113381319131207e-05 -0.00020325452780253772 0.0 -0.0008208111482492231 0.0 0.0
-0.00040452155614489893 6.527823315150005e-05 0.0 -0.0016381271665619757 0.0 0.0
-0.0008250220443316303 0.0003576681508529189 0.0 -0.0018005052464079019 0.0 0.0
-0.0012070781046852608 0.000562382025891095 0.0 -0.0017016573369692256 0.0 0.0
-0.0016641007813251174 0.0008046220166777474 0.0 -0.0016147099143699606 0.0 0.0
-0.002545992876833464 0.0013799003568013557 0.0 -0.0017959557119356373 0.0 0.0
-0.004280027060095004 0.002755145470040743 0.0 -0.002497547402223077 0.0 0.0
-0.007105898188982551 0.005245100631250166 0.0 -0.0038682778978629817 0.0 0.0
-0.010954461987873948 0.008815316299307208 0.0 -0.005703939564253302 0.0 0.0
-0.015684004728188594 0.01329643789905055 0.0 -0.007724528625061289 0.0 0.0
-0.021191443438364932 0.0185702071094882 0.0 -0.009768521597348812 0.0 0.0
-0.027437660849497114 0.024591732149952694 0.0 -0.011731981677170489 0.0 0.0
-0.03447922198625056 0.031414679479345065 0.0 -0.013667376018350441 0.0 0.0
-0.04243907921928153 0.039161471821243854 0.0 -0.01567329100852799 0.0 0.0
-0.0514106789153618 0.04790996177228024 0.0 -0.017857364703982803 0.0 0.0
-0.06120194773068344 0.05742301934433991 0.0 -0.020554047742922354 0.0 0.0
-0.07081714342609866 0.06666719641964436 0.0 -0.024290181729760385 0.0 0.0
-0.07793859700741401 0.07331850858669187 0.0 -0.029013859051122748 0.0 0.0
-0.07874432446744556 0.07359111809596497 0.0 -0.03349882669293047 0.0 0.0
-0.06801252269520916 0.06230016023317875 0.0 -0.03620918575822396 0.0 0.0
-0.06801252269520487 0.06230016023316853 0.0 0.03620918575825999 0.0 0.0
-0.07874432446742835 0.07359111809594499 0.0 0.03349882669297455 0.0 0.0
-0.07793859700738591 0.07331850858666433 0.0 0.029013859051157942 0.0 0.0
-0.07081714342606173 0.06666719641961061 0.0 0.024290181729769655 0.0 0.0
-0.06120194773064136 0.05742301934430394 0.0 0.0205540477429198 0.0 0.0
-0.051410678915317365 0.04790996177224027 0.0 0.01785736470397603 0.0 0.0
-0.04243907921923849 0.03916147182120033 0.0 0.01567329100851872 0.0 0.0
-0.03447922198620679 0.03141467947930421 0.0 0.013667376018337563 0.0 0.0
-0.027437660849454017 0.02459173214991406 0.0 0.011731981677157138 0.0 0.0
-0.02119144343832522 0.018570207109448456 0.0 0.009768521597328217 0.0 0.0
-0.01568400472815505 0.01329643789901791 0.0 0.007724528625041804 0.0 0.0
-0.010954461987847594 0.008815316299283005 0.0 0.005703939564241922 0.0 0.0
-0.0071058981889635525 0.005245100631232846 0.0 0.0038682778978532117 0.0 0.0
-0.004280027060083839 0.002755145470031195 0.0 0.002497547402216166 0.0 0.0
-0.0025459928768277393 0.0013799003567966928 0.0 0.0017959557119324732 0.0 0.0
-0.0016641007813232925 0.0008046220166749718 0.0 0.0016147099143695165 0.0 0.0
-0.0012070781046844628 0.0005623820258895407 0.0 0.0017016573369673937 0.0 0.0
-0.0008250220443310682 0.00035766815085108705 0.0 0.0018005052464057925 0.0 0.0
-0.0004045215561447116 6.527823315083392e-05 0.0 0.0016381271665602548 0.0 0.0
-2.011338131892304e-05 -0.00020325452780273028 0.0 0.0008208111482475577 0.0 0.0
-6.902336613892612e-05 -9.370719184767506e-05 0.0 -0.0006212329464928557 0.0 0.0
-0.0004523265053141823 0.00011695792561999818 0.0 -0.0013519944281621954 0.0 0.0
-0.000922361692652196 0.00039887072152755554 0.0 -0.001522497323911881 0.0 0.0
-0.0013735774457566685 0.0006226029956619694 0.0 -0.0014127660950342125 0.0 0.0
-0.001956769789426993 0.0009571890393039739 0.0 -0.0013216109840912538 0.0 0.0
-0.003135372320431151 0.0018076956584824888 0.0 -0.0015308764459886492 0.0 0.0
-0.005336051829262861 0.0036591917748269864 0.0 -0.0022723352687907816 0.0 0.0
-0.008703925823930314 0.0067181450110604946 0.0 -0.0035472557034625374 0.0 0.0
-0.013192659162566567 0.010932544464664629 0.0 -0.005161999520629068 0.0 0.0
-0.018717537601347034 0.016197283088298153 0.0 -0.006971930443636365 0.0 0.0
-0.025183576455582446 0.022410576968481477 0.0 -0.008803186253499407 0.0 0.0
-0.032562669672361294 0.029540545743458768 0.0 -0.01056912443227298 0.0 0.0
-0.04090878329597006 0.03764221303168691 0.0 -0.012338640647006738 0.0 0.0
-0.05032298720884826 0.046814095491140684 0.0 -0.014169262620936984 0.0 0.0
-0.06086326738831063 0.05710792135298082 0.0 -0.016052269187401214 0.0 0.0
-0.07233263607761983 0.06828231922893258 0.0 -0.018069393958323188 0.0 0.0
-0.08369479760460133 0.07922421216634579 0.0 -0.020834734707937952 0.0 0.0
-0.0922787140397949 0.08726410236395754 0.0 -0.025353246000692997 0.0 0.0
-0.09360534089037384 0.0879976383665051 0.0 -0.03192825093578211 0.0 0.0
-0.08177161261952808 0.0756029431793972 0.0 -0.03994689808047813 0.0 0.0
-0.08177161261952244 0.07560294317939187 0.0 0.03994689808051405 0.0 0.0
-0.09360534089035294 0.08799763836648511 0.0 0.03192825093582358 0.0 0.0
-0.09227871403976151 0.08726410236392068 0.0 0.025353246000723695 0.0 0.0
-0.0836947976045591 0.07922421216630404 0.0 0.020834734707945335 0.0 0.0
-0.07233263607757134 0.06828231922888461 0.0 0.01806939395832069 0.0 0.0
-0.0608632673882592 0.057107921352935076 0.0 0.01605226918739483 0.0 0.0
-0.0503229872087977 0.0468140954910945 0.0 0.01416926262092974 0.0 0.0
-0.04090878329591899 0.03764221303164428 0.0 0.012338640646995414 0.0 0.0
-0.032562669672311285 0.0295405457434168 0.0 0.010569124432262378 0.0 0.0
-0.025183576455536927 0.02241057696843818 0.0 0.008803186253481393 0.0 0.0
-0.01871753760130808 0.016197283088261072 0.0 0.006971930443618685 0.0 0.0
-0.013192659162535973 0.010932544464635985 0.0 0.00516199952061791 0.0 0.0
-0.008703925823907624 0.0067181450110402885 0.0 0.0035472557034543217 0.0 0.0
-0.005336051829248886 0.003659191774814996 0.0 0.0022723352687848697 0.0 0.0
-0.0031353723204238446 0.001807695658478714 0.0 0.0015308764459853463 0.0 0.0
-0.001956769789424301 0.0009571890393031968 0.0 0.0013216109840897272 0.0 0.0
-0.0013735774457559469 0.0006226029956627466 0.0 0.0014127660950337129 0.0 0.0
-0.0009223616926514605 0.0003988707215282772 0.0 0.0015224973239110762 0.0 0.0
-0.0004523265053138284 0.00011695792561972063 0.0 0.0013519944281615293 0.0 0.0
-6.902336613871102e-05 -9.370719184757098e-05 0.0 0.0006212329464928279 0.0 0.0
-0.00010298990557169874 -1.1856919010261313e-05 0.0 -0.0004170745962825684 0.0 0.0
-0.0004921426814197549 0.00016502771807741512 0.0 -0.0010305490980216936 0.0 0.0
-0.0010148031675929758 0.0004365932535911332 0.0 -0.0011882336818515582 0.0 0.0
-0.0015398715522031148 0.0006867407555566363 0.0 -0.0010784816305739742 0.0 0.0
-0.0022825863820174486 0.0011502028815977283 0.0 -0.0009956570475391502 0.0 0.0
-0.0038037055123311125 0.0023316795074257435 0.0 -0.0012322312361084664 0.0 0.0
-0.006448279984882482 0.004648400537825115 0.0 -0.0018832308625668093 0.0 0.0
-0.010312017729760176 0.008226821441400745 0.0 -0.002912421550154032 0.0 0.0
-0.015430238480473063 0.013068316975094474 0.0 -0.004228922417389924 0.0 0.0
-0.021740651875309797 0.019105125528721123 0.0 -0.005710587786891819 0.0 0.0
-0.029165372405561968 0.026256374933570248 0.0 -0.007215286217068184 0.0 0.0
-0.037685003118698934 0.034503203715682496 0.0 -0.008663797148984187 0.0 0.0
-0.047349830955393385 0.043895456104291686 0.0 -0.010124774025239258 0.0 0.0
-0.058223827948933576 0.05449496790335395 0.0 -0.011686143082589306 0.0 0.0
-0.07027096811344913 0.06626250391226085 0.0 -0.013213216966654562 0.0 0.0
-0.08320498831722464 0.07888870620778121 0.0 -0.014396089923287003 0.0 0.0
-0.09607304768226096 0.09134489789544364 0.0 -0.015628152984588084 0.0 0.0
-0.10628026500009252 0.1009314046523122 0.0 -0.01928969853674678 0.0 0.0
-0.10868689217302266 0.10265199955576865 0.0 -0.02822712313192799 0.0 0.0
-0.0963331176027603 0.08967672918202485 0.0 -0.04323367382607518 0.0 0.0
-0.09633311760275268 0.08967672918201908 0.0 0.043233673826101326 0.0 0.0
-0.10868689217299812 0.10265199955574555 0.0 0.028227123131964238 0.0 0.0
-0.1062802650000536 0.10093140465227624 0.0 0.019289698536775313 0.0 0.0
-0.09607304768221289 0.09134489789539879 0.0 0.015628152984594468 0.0 0.0
-0.08320498831716952 0.07888870620772837 0.0 0.014396089923286115 0.0 0.0
-0.07027096811339087 0.06626250391220534 0.0 0.013213216966654562 0.0 0.0
-0.05822382794887582 0.05449496790329933 0.0 0.011686143082583422 0.0 0.0
-0.04734983095533489 0.043895456104233954 0.0 0.01012477402522896 0.0 0.0
-0.03768500311864171 0.03450320371562543 0.0 0.008663797148978108 0.0 0.0
-0.029165372405510502 0.02625637493351718 0.0 0.007215286217055306 0.0 0.0
-0.02174065187526652 0.019105125528677824 0.0 0.00571058778687758 0.0 0.0
-0.015430238480438133 0.013068316975061611 0.0 0.004228922417380071 0.0 0.0
-0.010312017729733884 0.008226821441377874 0.0 0.002912421550146538 0.0 0.0
-0.006448279984865617 0.0046484005378086835 0.0 0.0018832308625617578 0.0 0.0
-0.003803705512322033 0.002331679507418194 0.0 0.0012322312361057186 0.0 0.0
-0.002282586382013778 0.0011502028815947307 0.0 0.0009956570475379567 0.0 0.0
-0.0015398715522021017 0.0006867407555548599 0.0 0.0010784816305735856 0.0 0.0
-0.00101480316759223 0.0004365932535899675 0.0 0.0011882336818503925 0.0 0.0
-0.0004921426814190298 0.0001650277180774984 0.0 0.0010305490980210275 0.0 0.0
-0.00010298990557186874 -1.1856919010103453e-05 0.0 0.00041707459628159693 0.0 0.0
-0.0001155600242368493 3.8269641408517074e-05 0.0 -0.00021503919074294942 0.0 0.0
-0.0005152403220619051 0.00020367033479345986 0.0 -0.0006733500393094616 0.0 0.0
-0.001103470776641552 0.0004710975010395746 0.0 -0.0007912151507779019 0.0 0.0
-0.0017175704285063709 0.000761849101332146 0.0 -0.0007020987553256475 0.0 0.0
-0.002660815239671599 0.0014086838850160266 0.0 -0.0006527290162368915 0.0 0.0
-0.004540103071817098 0.002946195137572216 0.0 -0.0008467272655642288 0.0 0.0
-0.007577513483406156 0.005685592762578517 0.0 -0.0013072975038068146 0.0 0.0
-0.011919309148207297 0.009750377266660948 0.0 -0.002004143850752982 0.0 0.0
-0.017647823113789762 0.01520040683822721 0.0 -0.0029118903535676477 0.0 0.0
-0.024734030474066304 0.02199814825381341 0.0 -0.0039495472003718834 0.0 0.0
-0.03311819336536667 0.030087096113874168 0.0 -0.005002152134858384 0.0 0.0
-0.04278680058529821 0.039458195959340525 0.0 -0.0060163582391501436 0.0 0.0
-0.05378112345045219 0.050151512219467786 0.0 -0.007072207537078046 0.0 0.0
-0.06610934096486709 0.062171223932045994 0.0 -0.008192217936191626 0.0 0.0
-0.07961707368967444 0.07535840143470107 0.0 -0.009221448628108808 0.0 0.0
-0.09384172830461551 0.0892486853107104 0.0 -0.009770575436640616 0.0 0.0
-0.10782233232929492 0.10285417222076676 0.0 -0.00957110459283217 0.0 0.0
-0.11952223917062171 0.11401598323569928 0.0 -0.010813209990202188 0.0 0.0
-0.12409931729971124 0.11763757600791802 0.0 -0.021040239192332666 0.0 0.0
-0.1123037969071882 0.1050742751296001 0.0 -0.04532845679666264 0.0 0.0
-0.11230379690717777 0.10507427512958989 0.0 0.04532845679668068 0.0 0.0
-0.12409931729968286 0.11763757600788827 0.0 0.021040239192359034 0.0 0.0
-0.11952223917057703 0.11401598323565088 0.0 0.010813209990220118 0.0 0.0
-0.10782233232923984 0.10285417222070903 0.0 0.009571104592834057 0.0 0.0
-0.09384172830455365 0.08924868531065089 0.0 0.009770575436636786 0.0 0.0
-0.07961707368960974 0.07535840143463757 0.0 0.009221448628109669 0.0 0.0
-0.0661093409648019 0.06217122393198338 0.0 0.00819221793618688 0.0 0.0
-0.05378112345038612 0.050151512219406946 0.0 0.007072207537070774 0.0 0.0
-0.042786800585234236 0.03945819595928035 0.0 0.0060163582391449255 0.0 0.0
-0.03311819336530944 0.0300870961138191 0.0 0.005002152134847948 0.0 0.0
-0.024734030474018474 0.021998148253766114 0.0 0.003949547200361919 0.0 0.0
-0.017647823113750835 0.015200406838192793 0.0 0.0029118903535617913 0.0 0.0
-0.01191930914817754 0.009750377266632526 0.0 0.0020041438507464315 0.0 0.0
-0.007577513483386547 0.005685592762560088 0.0 0.001307297503803373 0.0 0.0
-0.0045401030718060405 0.0029461951375635564 0.0 0.0008467272655620917 0.0 0.0
-0.002660815239666721 0.0014086838850123629 0.0 0.0006527290162357258 0.0 0.0
-0.0017175704285050872 0.0007618491013305917 0.0 0.0007020987553255364 0.0 0.0
-0.0011034707766409413 0.00047109750103940806 0.0 0.0007912151507777909 0.0 0.0
-0.0005152403220610793 0.00020367033479265495 0.0 0.0006733500393096004 0.0 0.0
-0.00011556002423711992 3.8269641408352276e-05 0.0 0.00021503919074328248 0.0 0.0
-9.520173343519067e-05 5.091530124767818e-05 0.0 -3.1267328747613954e-05 0.0 0.0
-0.0005068819160832239 0.00022373988778884302 0.0 -0.0002737710742050925 0.0 0.0
-0.001192004229785909 0.0005036542594477611 0.0 -0.00031707187254739755 0.0 0.0
-0.001926474073575185 0.0008694661347763422 0.0 -0.00029184316354780027 0.0 0.0
-0.0031026612062926007 0.0017332462560111228 0.0 -0.00027220289141893783 0.0 0.0
-0.0053134838360749115 0.003615727248159173 0.0 -0.00034776445785497656 0.0 0.0
-0.00871310920724011 0.0067451039078629815 0.0 -0.0005390814774732244 0.0 0.0
-0.013507756288496986 0.011269840433381528 0.0 -0.0008244499065556132 0.0 0.0
-0.019826958252618154 0.017306156677261875 0.0 -0.0012193836094654409 0.0 0.0
-0.0276771407421392 0.024853487741874014 0.0 -0.0016881318698508396 0.0 0.0
-0.03702430079638791 0.03388434253722106 0.0 -0.0021678543028615938 0.0 0.0
-0.047855457935629786 0.044391029516422265 0.0 -0.0026500703308859896 0.0 0.0
-0.0601721663164769 0.05637820713595554 0.0 -0.003146781780583585 0.0 0.0
-0.07393138292121712 0.06979587594545178 0.0 -0.0036413391524809935 0.0 0.0
-0.08887598608255712 0.08437918009099965 0.0 -0.004050537214312699 0.0 0.0
-0.10433088947890218 0.09945611109173003 0.0 -0.004119914563560756 0.0 0.0
-0.11910990248970099 0.11385805426944984 0.0 -0.003442860138221482 0.0 0.0
-0.1314984725004459 0.12585687485793873 0.0 -0.002206568496328276 0.0 0.0
-0.1385594903702834 0.13229266325149336 0.0 -0.00738738252238702 0.0 0.0
-0.13143466161635473 0.12311049099767235 0.0 -0.04178120889927395 0.0 0.0
-0.13143466161634237 0.12311049099766125 0.0 0.04178120889928005 0.0 0.0
-0.13855949037025123 0.13229266325146583 0.0 0.007387382522401176 0.0 0.0
-0.13149847250039506 0.12585687485789254 0.0 0.002206568496337824 0.0 0.0
-0.11910990248963758 0.11385805426939166 0.0 0.0034428601382209267 0.0 0.0
-0.10433088947883314 0.09945611109166563 0.0 0.0041199145635586465 0.0 0.0
-0.08887598608248627 0.08437918009093082 0.0 0.004050537214313227 0.0 0.0
-0.07393138292114317 0.06979587594537762 0.0 0.003641339152479217 0.0 0.0
-0.06017216631640358 0.05637820713588182 0.0 0.0031467817805826415 0.0 0.0
-0.047855457935559696 0.044391029516357206 0.0 0.0026500703308838802 0.0 0.0
-0.037024300796324426 0.03388434253716044 0.0 0.0021678543028547936 0.0 0.0
-0.02767714074208685 0.02485348774182161 0.0 0.0016881318698448167 0.0 0.0
-0.01982695825257566 0.017306156677220352 0.0 0.0012193836094636368 0.0 0.0
-0.013507756288464288 0.011269840433351774 0.0 0.0008244499065525879 0.0 0.0
-0.008713109207217913 0.006745103907844552 0.0 0.0005390814774724473 0.0 0.0
-0.005313483836061507 0.0036157272481465164 0.0 0.00034776445785561494 0.0 0.0
-0.003102661206286891 0.0017332462560055717 0.0 0.0002722028914188268 0.0 0.0
-0.0019264740735735328 0.0008694661347751209 0.0 0.00029184316354638473 0.0 0.0
-0.001192004229784771 0.0005036542594469839 0.0 0.0003170718725469257 0.0 0.0
-0.0005068819160826419 0.00022373988778842668 0.0 0.00027377107420611946 0.0 0.0
-9.520173343526093e-05 5.0915301247646955e-05 0.0 3.126732874700333e-05 0.0 0.0
SCALARS Statev float 8
LOOKUP_TABLE default
0.0 0.011521912360493072 0.008852428468753603 -0.009235593392007559 0.00038316492325395795 -0.005050849511219803 0.0 0.0
0.0 0.0004963832388774412 0.00032750593255824467 -0.0002681263571041558 -5.937957545408893e-05 0.00033249606028036295 0.0 0.0
0.0 3.342380937738801e-05 -4.754075056001044e-06 3.773145031477424e-06 9.809300245235895e-07 5.62033213615258e-07 0.0 0.0
0.0 0.00017763511937831245 0.00010267225701871672 -8.018259928916706e-05 -2.2489657729549747e-05 -1.407923141458373e-05 0.0 0.0
0.0 0.0010802057111549968 0.0008271152993966977 -0.0006729355686178392 -0.00015417973077885844 -9.103015143251006e-05 0.0 0.0
0.0 0.0029570196844911512 0.002704152721873205 -0.0023178053146747993 -0.00038634740719840574 -0.00022185838872306124 0.0 0.0
0.0 0.006480115249131462 0.005826164764135923 -0.005249361501938806 -0.000576803262197116 -0.00041174132757464815 0.0 0.0
0.0 0.011691130734020307 0.01038095708033868 -0.009668126175219123 -0.0007128309051195507 -0.0006837229436337884 0.0 0.0
0.0 0.018699929640324277 0.016464018806967736 -0.015641758897857495 -0.0008222599091102366 -0.0010590004635096055 0.0 0.0
0.0 0.027510138833752102 0.02408232232432117 -0.023154494961568677 -0.0009278273627524937 -0.0015135553955142004 0.0 0.0
0.0 0.038117840890102034 0.03321467506299892 -0.03217917899904896 -0.0010354960639499516 -0.001991342470524815 0.0 0.0
0.0 0.050234325765531565 0.04385902616292366 -0.042713369933385835 -0.0011456562295378125 -0.002478325112618615 0.0 0.0
0.0 0.06416914525420087 0.056016178549800684 -0.054759095867772514 -0.001257082682028131 -0.0029767536753722416 0.0 0.0
0.0 0.07989031211939515 0.06966044180334971 -0.06828931415551077 -0.0013711276478388683 -0.003485896543635043 0.0 0.0
0.0 0.09713107362222334 0.08461586459176139 -0.08312621439610157 -0.0014896501956598086 -0.00400111677246916 0.0 0.0
0.0 0.11537284787591373 0.1004028323341157 -0.09879071291700055 -0.0016121194171151505 -0.004432992749329068 0.0 0.0
0.0 0.13359459964163084 0.116165755048415 -0.11443091638454915 -0.0017348386638658861 -0.004588245223861406 0.0 0.0
0.0 0.15039208489662967 0.1307048706393138 -0.1288525539407823 -0.0018523166985314765 -0.004227538482425413 0.0 0.0
0.0 0.16409810429778088 0.14257460492477236 -0.14061518026982753 -0.00195942465494481 -0.0034251555166216145 0.0 0.0
0.0 0.17232723392450505 0.14984182877996965 -0.14774699924679036 -0.002094829533179358 -0.003321582755692365 0.0 0.0
0.0 0.1723272339244945 0.14984182877996055 -0.147746999246781 -0.0020948295331795317 0.003321582755697038 0.0 0.0
0.0 0.1640981042977502 0.14257460492474555 -0.14061518026980113 -0.0019594246549444047 0.0034251555166401946 0.0 0.0
0.0 0.1503920848965717 0.13070487063926378 -0.12885255394073225 -0.0018523166985314862 0.004227538482433537 0.0 0.0
0.0 0.13359459964155845 0.1161657550483522 -0.11443091638448671 -0.0017348386638654334 0.004588245223867017 0.0 0.0
0.0 0.1153728478758392 0.10040283233405059 -0.09879071291693675 -0.0016121194171138415 0.004432992749321531 0.0 0.0
0.0 0.09713107362214718 0.08461586459169498 -0.08312621439603621 -0.001489650195658783 0.004001116772468865 0.0 0.0
0.0 0.0798903121193178 0.06966044180328239 -0.06828931415544437 -0.0013711276478380165 0.0034858965436342236 0.0 0.0
0.0 0.06416914525412029 0.05601617854973075 -0.05475909586770312 -0.001257082682027641 0.0029767536753723214 0.0 0.0
0.0 0.05023432576545534 0.043859026162857424 -0.04271336993332031 -0.001145656229537108 0.0024783251126134077 0.0 0.0
0.0 0.03811784089003571 0.03321467506294084 -0.03217917899899181 -0.001035496063949017 0.0019913424705219097 0.0 0.0
0.0 0.027510138833696927 0.02408232232427316 -0.023154494961521423 -0.0009278273627517347 0.0015135553955086033 0.0 0.0
0.0 0.01869992964028195 0.016464018806930335 -0.015641758897820743 -0.0008222599091095998 0.001059000463507923 0.0 0.0
0.0 0.011691130733989268 0.010380957080310822 -0.0096681261751919 -0.0007128309051189238 0.0006837229436313919 0.0 0.0
0.0 0.006480115249110261 0.005826164764116539 -0.005249361501920278 -0.0005768032621962594 0.0004117413275736164 0.0 0.0
0.0 0.002957019684479049 0.0027041527218617297 -0.0023178053146643285 -0.00038634740719740074 0.00022185838872205724 0.0 0.0
0.0 0.0010802057111494782 0.0008271152993922393 -0.0006729355686140659 -0.0001541797307781731 9.103015143197308e-05 0.0 0.0
0.0 0.00017763511937727113 0.00010267225701873051 -8.018259928916693e-05 -2.2489657729563597e-05 1.4079231414514332e-05 0.0 0.0
0.0 3.342380937687491e-05 -4.754075055922566e-06 3.7731450314146314e-06 9.80930024507978e-07 -5.620332136057866e-07 0.0 0.0
0.0 0.0004963832388751163 0.0003275059325569699 -0.00026812635710309773 -5.9379575453872455e-05 -0.00033249606027880305 0.0 0.0
0.0 0.011521912360475789 0.008852428468741945 -0.00923559339199491 0.00038316492325296255 0.005050849511193552 0.0 0.0
0.0 0.008376967725438793 0.006033841876462165 -0.00651882779537306 0.0004849859189108928 -0.005731624801637241 0.0 0.0
0.0 9.735811856412316e-08 -9.785169814275069e-09 7.955171207828274e-09 1.8299986064463344e-09 -7.27040002772591e-09 0.0 0.0
0.0 9.430826945183483e-08 -1.020951514236367e-08 7.758883502814768e-09 2.450631639548195e-09 3.6392644398315674e-09 0.0 0.0
0.0 5.353618924226603e-05 1.9632125730446502e-05 -1.5331106945744987e-05 -4.3010187847017485e-06 -8.376989122865044e-06 0.0 0.0
0.0 0.0006837043210751921 0.0004771815099434904 -0.00038388491643899796 -9.329659350449232e-05 -0.00012870909662438643 0.0 0.0
0.0 0.0022085010146209983 0.0020224077491556806 -0.0017065982841352311 -0.00031580946502044946 -0.0004441563391531882 0.0 0.0
0.0 0.00531089504760299 0.004774443615089704 -0.004247395020277083 -0.0005270485948126179 -0.0009308629712930843 0.0 0.0
0.0 0.009999435273344862 0.008871262903229678 -0.008191928569745538 -0.0006793343334841404 -0.0016044829002870458 0.0 0.0
0.0 0.016325315661675905 0.014364442369832591 -0.013570884517145453 -0.0007935578526871367 -0.0024795417083375735 0.0 0.0
0.0 0.024248734294044512 0.021222385722802557 -0.0203257733690768 -0.000896612353725755 -0.003499051577416122 0.0 0.0
0.0 0.033711957389975386 0.02939722365649478 -0.02839924197546724 -0.0009979816810275256 -0.004558340220729722 0.0 0.0
0.0 0.044754084077384626 0.03888573453740925 -0.03778648979403272 -0.0010992447433765295 -0.005595311436116038 0.0 0.0
0.0 0.057134555779311216 0.0497352126580348 -0.048533579844018064 -0.0012016328140167188 -0.0066721357784436715 0.0 0.0
0.0 0.07115714693974824 0.06194957082345677 -0.06064311779188895 -0.001306453031567806 -0.007818024097162757 0.0 0.0
0.0 0.08665230633583203 0.07538370748600284 -0.07396898891904592 -0.0014147185669569147 -0.008970794901709857 0.0 0.0
0.0 0.10307433168424746 0.08962947109357144 -0.0881034275740022 -0.0015260435195692504 -0.009946413163687226 0.0 0.0
0.0 0.11957268354318672 0.10394090763484765 -0.10230272909799344 -0.0016381785368541825 -0.010347521760137715 0.0 0.0
0.0 0.134902955680334 0.1172332927438445 -0.1154849714632066 -0.0017483212806378562 -0.009753455978647022 0.0 0.0
0.0 0.14734933460731403 0.12804122528848835 -0.12617872762588125 -0.0018624976626071292 -0.008178419449612243 0.0 0.0
0.0 0.15477747496914915 0.13451514252295954 -0.1325669674120655 -0.0019481751108940998 -0.005484275496840468 0.0 0.0
0.0 0.1547774749691372 0.13451514252294913 -0.13256696741205487 -0.0019481751108942683 0.005484275496857918 0.0 0.0
0.0 0.14734933460728183 0.1280412252884598 -0.12617872762585303 -0.0018624976626067816 0.008178419449644422 0.0 0.0
0.0 0.13490295568028787 0.11723329274380367 -0.11548497146316689 -0.0017483212806367284 0.009753455978666318 0.0 0.0
0.0 0.11957268354312761 0.10394090763479592 -0.10230272909794247 -0.0016381785368533746 0.010347521760147645 0.0 0.0
0.0 0.10307433168417933 0.08962947109351249 -0.08810342757394368 -0.0015260435195687976 0.009946413163680137 0.0 0.0
0.0 0.08665230633576468 0.07538370748594397 -0.07396898891898836 -0.0014147185669556046 0.00897079490170757 0.0 0.0
0.0 0.0711571469396785 0.06194957082339608 -0.060643117791829085 -0.0013064530315669782 0.007818024097160545 0.0 0.0
0.0 0.057134555779240086 0.04973521265797314 -0.04853357984395665 -0.0012016328140164985 0.00667213577844133 0.0 0.0
0.0 0.04475408407731851 0.038885734537351765 -0.037786489793975725 -0.00109924474337602 0.005595311436108304 0.0 0.0
0.0 0.033711957389914615 0.029397223656441936 -0.028399241975414966 -0.0009979816810269603 0.004558340220722143 0.0 0.0
0.0 0.024248734293995308 0.021222385722759553 -0.020325773369034426 -0.0008966123537251302 0.003499051577406 0.0 0.0
0.0 0.016325315661637745 0.01436444236979865 -0.013570884517112152 -0.0007935578526864909 0.0024795417083327952 0.0 0.0
0.0 0.009999435273317007 0.008871262903204814 -0.008191928569721459 -0.0006793343334833596 0.0016044829002822363 0.0 0.0
0.0 0.005310895047583292 0.004774443615071735 -0.004247395020260032 -0.0005270485948117038 0.0009308629712897154 0.0 0.0
0.0 0.0022085010146108844 0.0020224077491465984 -0.001706598284127114 -0.0003158094650194842 0.0004441563391510188 0.0 0.0
0.0 0.000683704321070924 0.0004771815099404872 -0.0003838849164365104 -9.329659350397686e-05 0.00012870909662360727 0.0 0.0
0.0 5.3536189241445584e-05 1.963212573033784e-05 -1.533110694565577e-05 -4.3010187846819246e-06 8.376989122817791e-06 0.0 0.0
0.0 9.430826938068039e-08 -1.0209515134588993e-08 7.758883496907494e-09 2.4506316376819497e-09 -3.6392644370560787e-09 0.0 0.0
0.0 9.735811846572097e-08 -9.78516980428818e-09 7.9551711997036e-09 1.8299986045861706e-09 7.270400020323914e-09 0.0 0.0
0.0 0.008376967725419534 0.006033841876449405 -0.006518827795359538 0.0004849859189101357 0.005731624801615136 0.0 0.0
0.0 0.006245900761831646 0.004250190439919523 -0.004748250020677276 0.0004980595807577529 -0.004962001347085348 0.0 0.0
0.0 0.0 0.0 0.0 0.0 0.0 0.0 0.0
0.0 0.0 0.0 0.0 0.0 0.0 0.0 0.0
0.0 7.998023953843446e-06 4.336001777876041e-06 -3.374329697120549e-06 -9.616720807555125e-07 -3.0342517483255006e-06 0.0 0.0
0.0 0.00033654446099553453 0.00023280187895931902 -0.00018528075264062573 -4.752112631869315e-05 -0.00011301995523763239 0.0 0.0
0.0 0.001685698592804621 0.0013741358732303618 -0.0011414612268326823 -0.0002326746463976787 -0.0005245965106478676 0.0 0.0
0.0 0.004187453518933776 0.0037457229356369246 -0.003280447451648238 -0.0004652754839886874 -0.0012453196182079388 0.0 0.0
0.0 0.008329218812720045 0.007361017749248292 -0.006725131365768941 -0.000635886383479351 -0.002255058503076316 0.0 0.0
0.0 0.01397829046256022 0.012242742138142753 -0.011483944163069266 -0.0007587979750734837 -0.0035307984193819857 0.0 0.0
0.0 0.02103043479934171 0.01832847457260297 -0.01746793012241756 -0.000860544450185406 -0.004992489594676831 0.0 0.0
0.0 0.02942600897760473 0.025547764431542785 -0.02459200697670522 -0.0009557574548375556 -0.006509655659861559 0.0 0.0
0.0 0.039066061978954285 0.03389462021916743 -0.032845651681195104 -0.0010489685379723233 -0.00799740664838858 0.0 0.0
0.0 0.05018526198785874 0.043425065438659566 -0.04228273335137378 -0.0011423320872857921 -0.009508801868267533 0.0 0.0
0.0 0.06250426117740586 0.054187290453274146 -0.052949648172946936 -0.0012376422803271722 -0.011137535395918104 0.0 0.0
0.0 0.07618668973442204 0.06608221527770378 -0.06474689582532163 -0.0013353194523821016 -0.012813937866328678 0.0 0.0
0.0 0.09083817327091026 0.07877916360165502 -0.0773438945512607 -0.0014352690503942802 -0.014233350048570936 0.0 0.0
0.0 0.10565329951394226 0.09165289133096227 -0.09011602250100914 -0.0015368688299530718 -0.014895940598331967 0.0 0.0
0.0 0.11948493675118949 0.10372108530486888 -0.10207898974646526 -0.0016420955584035917 -0.014258435795309707 0.0 0.0
0.0 0.1307522048029838 0.11359120386972131 -0.11184818059766895 -0.0017430232720523316 -0.011861019684780774 0.0 0.0
0.0 0.1376450741483989 0.11968299341519151 -0.11786878375135772 -0.0018142096638337514 -0.007075291028689141 0.0 0.0
0.0 0.13764507414839156 0.11968299341518435 -0.11786878375135124 -0.001814209663833075 0.00707529102871777 0.0 0.0
0.0 0.1307522048029619 0.1135912038697007 -0.11184818059764942 -0.001743023272051278 0.011861019684823372 0.0 0.0
0.0 0.1194849367511491 0.10372108530483266 -0.10207898974642947 -0.001642095558403101 0.01425843579533871 0.0 0.0
0.0 0.10565329951389374 0.09165289133091899 -0.09011602250096733 -0.001536868829951693 0.014895940598345083 0.0 0.0
0.0 0.09083817327085157 0.07877916360160428 -0.0773438945512104 -0.001435269050393872 0.014233350048563673 0.0 0.0
0.0 0.07618668973435923 0.0660822152776491 -0.06474689582526753 -0.00133531945238158 0.012813937866325249 0.0 0.0
0.0 0.0625042611773432 0.05418729045321943 -0.05294964817289327 -0.0012376422803261724 0.011137535395913563 0.0 0.0
0.0 0.05018526198779739 0.04342506543860612 -0.04228273335132091 -0.001142332087285206 0.009508801868262225 0.0 0.0
0.0 0.03906606197889711 0.033894620219118016 -0.032845651681146275 -0.0010489685379717398 0.007997406648377014 0.0 0.0
0.0 0.029426008977551876 0.025547764431496648 -0.024592006976659496 -0.0009557574548371454 0.006509655659850967 0.0 0.0
0.0 0.021030434799298482 0.01832847457256516 -0.01746793012238037 -0.0008605444501847857 0.0049924895946638105 0.0 0.0
0.0 0.013978290462524056 0.012242742138111034 -0.011483944163038048 -0.0007587979750729836 0.0035307984193737253 0.0 0.0
0.0 0.008329218812695166 0.007361017749226247 -0.0067251313657475335 -0.0006358863834787148 0.0022550585030692545 0.0 0.0
0.0 0.004187453518917025 0.0037457229356217493 -0.0032804474516341673 -0.0004652754839875819 0.0012453196182033639 0.0 0.0
0.0 0.0016856985927948195 0.0013741358732222307 -0.0011414612268255827 -0.0002326746463966471 0.0005245965106445958 0.0 0.0
0.0 0.0003365444609925351 0.00023280187895732672 -0.0001852807526390078 -4.7521126318318796e-05 0.00011301995523662749 0.0 0.0
0.0 7.998023953470303e-06 4.3360017780710135e-06 -3.374329697270764e-06 -9.616720808002685e-07 3.034251748450538e-06 0.0 0.0
0.0 0.0 0.0 0.0 0.0 0.0 0.0 0.0
0.0 0.0 0.0 0.0 0.0 0.0 0.0 0.0
0.0 0.006245900761814873 0.004250190439908003 -0.004748250020664995 0.0004980595807569924 0.004962001347066821 0.0 0.0
0.0 0.004597678209603286 0.002990970912690421 -0.0034474292995028974 0.00045645838681247455 -0.0038512235451300695 0.0 0.0
0.0 0.0 0.0 0.0 0.0 0.0 0.0 0.0
0.0 0.0 0.0 0.0 0.0 0.0 0.0 0.0
0.0 1.7764958665315978e-06 -1.7819784007305854e-07 1.3787375697884427e-07 4.03240830942293e-08 1.8782013220909485e-07 0.0 0.0
0.0 0.00013615882950538026 8.71614750872531e-05 -6.897757375331844e-05 -1.818390133393452e-05 -6.884498178572021e-05 0.0 0.0
0.0 0.0010924344970476237 0.0008443724267312009 -0.0006905656544616873 -0.0001538067722695139 -0.0004922693970338455 0.0 0.0
0.0 0.003171518280095015 0.002754344810819231 -0.00236950209226682 -0.00038484271855241227 -0.0013567495915610822 0.0 0.0
0.0 0.006703670558567242 0.0058687138130774285 -0.005288315276299816 -0.0005803985367776128 -0.0026277066527229716 0.0 0.0
0.0 0.01165263538877572 0.010120351867401602 -0.009405224116877876 -0.0007151277505237294 -0.0042048544543000325 0.0 0.0
0.0 0.017825007419792416 0.01542389522006556 -0.01460580062249553 -0.0008180945975700222 -0.005995094135746376 0.0 0.0
0.0 0.025133963042782693 0.021688207852385802 -0.020779769685816907 -0.0009084381665688957 -0.007842093486208604 0.0 0.0
0.0 0.033538857185784955 0.028896983393564356 -0.02790270180863519 -0.0009942815849291638 -0.009659599998116497 0.0 0.0
0.0 0.043091571854415124 0.03711508244912265 -0.036036433257172915 -0.0010786491919497407 -0.01151609486172336 0.0 0.0
0.0 0.05391530672663248 0.04641171075140685 -0.04524714303383747 -0.0011645677175693685 -0.013473163222813328 0.0 0.0
0.0 0.06591873042028962 0.05674357921349728 -0.055492043056002964 -0.0012515361574943077 -0.01548285977439516 0.0 0.0
0.0 0.07859855891107331 0.06787305127539389 -0.06653331289071776 -0.0013397383846761352 -0.01725954321504691 0.0 0.0
0.0 0.09173778849002842 0.0792919311971429 -0.07786074024663273 -0.0014311909505101408 -0.018214882564117924 0.0 0.0
0.0 0.10414430988824536 0.0901526617705252 -0.0886264256509215 -0.0015262361196037133 -0.017616487965683495 0.0 0.0
0.0 0.11440563459016515 0.09923410860565991 -0.09761752340561011 -0.0016165852000497927 -0.014633444599320632 0.0 0.0
0.0 0.12096647688273637 0.1051438486638841 -0.1034626700290878 -0.0016811786347962962 -0.008369600040238257 0.0 0.0
0.0 0.12096647688272466 0.10514384866387366 -0.10346267002907669 -0.0016811786347970294 0.008369600040273966 0.0 0.0
0.0 0.11440563459014141 0.09923410860563764 -0.09761752340558763 -0.0016165852000499584 0.014633444599369393 0.0 0.0
0.0 0.10414430988820964 0.0901526617704926 -0.08862642565088891 -0.0015262361196036432 0.01761648796571646 0.0 0.0
0.0 0.09173778848998237 0.07929193119710205 -0.07786074024659188 -0.0014311909505101816 0.018214882564133117 0.0 0.0
0.0 0.07859855891102271 0.0678730512753501 -0.0665333128906745 -0.0013397383846755718 0.017259543215040356 0.0 0.0
0.0 0.06591873042023899 0.05674357921345316 -0.05549204305595977 -0.0012515361574933514 0.015482859774389386 0.0 0.0
0.0 0.053915306726579446 0.04641171075136077 -0.04524714303379162 -0.0011645677175691378 0.013473163222808018 0.0 0.0
0.0 0.043091571854362735 0.03711508244907694 -0.036036433257127756 -0.001078649191949186 0.01151609486171655 0.0 0.0
0.0 0.033538857185735856 0.028896983393521654 -0.02790270180859309 -0.000994281584928561 0.009659599998103605 0.0 0.0
0.0 0.025133963042736737 0.021688207852345792 -0.02077976968577737 -0.0009084381665684392 0.00784209348619534 0.0 0.0
0.0 0.017825007419754568 0.015423895220033042 -0.014605800622463578 -0.0008180945975694536 0.005995094135730483 0.0 0.0
0.0 0.011652635388746765 0.010120351867376216 -0.009405224116853256 -0.000715127750522954 0.0042048544542905636 0.0 0.0
0.0 0.006703670558547267 0.00586871381305986 -0.005288315276283018 -0.00058039853677684 0.0026277066527150474 0.0 0.0
0.0 0.0031715182800815356 0.0027543448108075016 -0.002369502092256195 -0.00038484271855130546 0.0013567495915559635 0.0 0.0
0.0 0.0010924344970396787 0.0008443724267253342 -0.0006905656544567073 -0.00015380677226862702 0.0004922693970302943 0.0 0.0
0.0 0.00013615882950380605 8.716147508679509e-05 -6.89775737529343e-05 -1.818390133386087e-05 6.884498178530204e-05 0.0 0.0
0.0 1.7764958662467406e-06 -1.7819784004332652e-07 1.3787375695581053e-07 4.032408308752122e-08 -1.8782013217738892e-07 0.0 0.0
0.0 0.0 0.0 0.0 0.0 0.0 0.0 0.0
0.0 0.0 0.0 0.0 0.0 0.0 0.0 0.0
0.0 0.0045976782095883215 0.002990970912680547 -0.003447429299492223 0.00045645838681167533 0.0038512235451153044 0.0 0.0
0.0 0.0032639162419893747 0.002038641633751716 -0.002421748002091055 0.00038310636833934007 -0.002780902660433116 0.0 0.0
0.0 0.0 0.0 0.0 0.0 0.0 0.0 0.0
0.0 0.0 0.0 0.0 0.0 0.0 0.0 0.0
0.0 3.1234164431588785e-07 -2.5617850497127908e-08 2.0115826190663957e-08 5.502024306463789e-09 4.21043713021938e-08 0.0 0.0
0.0 4.787907031545353e-05 2.5132047608042328e-05 -1.9941507807408046e-05 -5.190539800634298e-06 -3.1027549792767004e-05 0.0 0.0
0.0 0.0006119073151666378 0.0004471950978535864 -0.00036103630091749434 -8.615879693609212e-05 -0.000391776883218674 0.0 0.0
0.0 0.002325414462121605 0.0018436597572332842 -0.0015544261601691959 -0.0002892335970640885 -0.0012705119494800386 0.0 0.0
0.0 0.005184080335267594 0.004407652233589533 -0.0039012014829868285 -0.0005064507506027041 -0.0026819877368280706 0.0 0.0
0.0 0.009365065892812352 0.008019252354623198 -0.007360126475733617 -0.0006591258788895798 -0.004492157517468952 0.0 0.0
0.0 0.014659639466500713 0.012530707443970527 -0.011763504133952774 -0.0007672033100177547 -0.0064976470759347425 0.0 0.0
0.0 0.020898132218534378 0.017839799382435774 -0.01698502189033638 -0.0008547774920993956 -0.008559762005347117 0.0 0.0
0.0 0.02801157024550833 0.023916721660185616 -0.022982903841299994 -0.0009338178188856203 -0.010583055701924528 0.0 0.0
0.0 0.03614553035621469 0.030824917395098524 -0.02981486546879105 -0.0010100519263074742 -0.012636990182135198 0.0 0.0
0.0 0.04520846206469758 0.03865722197191356 -0.037571230317773895 -0.0010859916541396618 -0.014817769318893465 0.0 0.0
0.0 0.05542365783888449 0.04741491511858027 -0.04625241918713989 -0.0011624959314403616 -0.01703799460522535 0.0 0.0
0.0 0.06657506433230562 0.05693958257972959 -0.055699661326586325 -0.0012399212531432544 -0.019001826962927626 0.0 0.0
0.0 0.07784810341066156 0.06686011239237384 -0.0655411583941736 -0.001318953998200223 -0.020202683449032068 0.0 0.0
0.0 0.08877395799375151 0.07651625795505404 -0.0751144200773226 -0.0014018378777314144 -0.0197857619443541 0.0 0.0
0.0 0.09814773021061694 0.08489957668063386 -0.08341670956950681 -0.001482867111127053 -0.01658325921220359 0.0 0.0
0.0 0.10453179289503187 0.09075856737931204 -0.08921370903244713 -0.0015448583468648587 -0.009443542678161537 0.0 0.0
0.0 0.10453179289502428 0.09075856737930452 -0.08921370903243953 -0.0015448583468649169 0.009443542678199416 0.0 0.0
0.0 0.09814773021059811 0.08489957668061496 -0.08341670956948818 -0.0014828671111267325 0.016583259212252885 0.0 0.0
0.0 0.08877395799372377 0.0765162579550272 -0.0751144200772965 -0.001401837877730699 0.019785761944390703 0.0 0.0
0.0 0.07784810341062692 0.06686011239234202 -0.06554115839414261 -0.0013189539981994102 0.020202683449049193 0.0 0.0
0.0 0.0665750643322674 0.056939582579696134 -0.05569966132655385 -0.0012399212531422885 0.01900182696292218 0.0 0.0
0.0 0.05542365783884023 0.04741491511854156 -0.046252419187102045 -0.0011624959314395253 0.017037994605218817 0.0 0.0
0.0 0.04520846206465105 0.038657221971873046 -0.037571230317733864 -0.0010859916541391809 0.01481776931888696 0.0 0.0
0.0 0.036145530356171365 0.030824917395060374 -0.0298148654687536 -0.0010100519263067543 0.012636990182128261 0.0 0.0
0.0 0.028011570245466338 0.023916721660149156 -0.022982903841264377 -0.0009338178188847605 0.010583055701910926 0.0 0.0
0.0 0.02089813221849617 0.017839799382402804 -0.01698502189030427 -0.0008547774920985373 0.008559762005331838 0.0 0.0
0.0 0.014659639466468526 0.012530707443943606 -0.011763504133926638 -0.0007672033100169665 0.006497647075916433 0.0 0.0
0.0 0.009365065892786338 0.00801925235460076 -0.007360126475711857 -0.0006591258788888974 0.004492157517457851 0.0 0.0
0.0 0.0051840803352484885 0.004407652233573451 -0.0039012014829716817 -0.0005064507506017668 0.0026819877368184373 0.0 0.0
0.0 0.002325414462110705 0.0018436597572245124 -0.0015544261601614594 -0.0002892335970630542 0.0012705119494747195 0.0 0.0
0.0 0.0006119073151619615 0.0004471950978504991 -0.00036103630091494223 -8.615879693555682e-05 0.0003917768832159076 0.0 0.0
0.0 4.7879070314587926e-05 2.5132047608027403e-05 -1.994150780738318e-05 -5.19053980064415e-06 3.102754979267398e-05 0.0 0.0
0.0 3.1234164401444015e-07 -2.5617850471780222e-08 2.0115826170972936e-08 5.502024300809174e-09 -4.2104371261965705e-08 0.0 0.0
0.0 0.0 0.0 0.0 0.0 0.0 0.0 0.0
0.0 0.0 0.0 0.0 0.0 0.0 0.0 0.0
0.0 0.003263916241977651 0.0020386416337442445 -0.0024217480020827485 0.000383106368338503 0.0027809026604222716 0.0 0.0
0.0 0.0021635713399552796 0.0013077310749552002 -0.001600517377714372 0.00029278630275917175 -0.001871244372031189 0.0 0.0
0.0 0.0 0.0 0.0 0.0 0.0 0.0 0.0
0.0 0.0 0.0 0.0 0.0 0.0 0.0 0.0
0.0 7.616774122468806e-07 -5.549138125016537e-08 4.2107338484635224e-08 1.338404276552882e-08 1.233693222903045e-07 0.0 0.0
0.0 1.9602363096737576e-05 4.959663471979029e-06 -3.919570069863121e-06 -1.0400934021159e-06 -8.676876894855229e-06 0.0 0.0
0.0 0.00028094149013098077 0.00019854707514652736 -0.00015906448628233395 -3.948258886419324e-05 -0.0002654859348234981 0.0 0.0
0.0 0.0014416505980526554 0.0010980546038608355 -0.0009073771866887346 -0.0001906774171721005 -0.0010810434657669912 0.0 0.0
0.0 0.003760036284683247 0.003030655504061612 -0.002624190084623189 -0.0004064654194384229 -0.0024714774676356443 0.0 0.0
0.0 0.007179973086056145 0.005958358745164104 -0.005374462726103312 -0.0005838960190607912 -0.00435334917765395 0.0 0.0
0.0 0.011549160628918604 0.00967371359609185 -0.008970070102102205 -0.0007036434939896471 -0.006485074164936082 0.0 0.0
0.0 0.016694959878733522 0.014026461973171315 -0.013234943176505956 -0.0007915187966653565 -0.008641791280243585 0.0 0.0
0.0 0.02255378991470039 0.018978008005416713 -0.01811205151326595 -0.0008659564921507711 -0.010753558474785253 0.0 0.0
0.0 0.029172584709425225 0.024586153620481617 -0.023651486056533402 -0.0009346675639482179 -0.012888707835043842 0.0 0.0
0.0 0.036676011196804574 0.0309526369298638 -0.029951491677210687 -0.0010011452526530998 -0.015125065945735539 0.0 0.0
0.0 0.045145336356370566 0.03812733514070028 -0.03705987769358336 -0.0010674574471169456 -0.017417991772806653 0.0 0.0
0.0 0.05419910841989481 0.046024281967626694 -0.04489047209027196 -0.0011338098773547565 -0.019492133203978957 0.0 0.0
0.0 0.06393697957246042 0.054386120569888736 -0.05318614768177731 -0.0011999728881114035 -0.02083578827104794 0.0 0.0
0.0 0.07350504720978762 0.0627880496168498 -0.061519645950589424 -0.0012684036662603836 -0.02066678043516285 0.0 0.0
0.0 0.08186363166871385 0.07049834669142252 -0.06915877944996286 -0.0013395672414596546 -0.017669606917565688 0.0 0.0
0.0 0.08817174465442507 0.07639900937616977 -0.07499744005811498 -0.0014015693180547736 -0.010310594141579223 0.0 0.0
0.0 0.0881717446544203 0.0763990093761642 -0.07499744005810982 -0.0014015693180543976 0.01031059414161656 0.0 0.0
0.0 0.0818636316686982 0.07049834669140574 -0.06915877944994617 -0.0013395672414595818 0.01766960691761436 0.0 0.0
0.0 0.07350504720976353 0.06278804961682592 -0.06151964595056532 -0.0012684036662606256 0.020666780435198723 0.0 0.0
0.0 0.0639369795724268 0.05438612056985819 -0.053186147681746614 -0.0011999728881115488 0.02083578827106196 0.0 0.0
0.0 0.05419910841985693 0.04602428196759406 -0.04489047209023976 -0.001133809877354271 0.019492133203971102 0.0 0.0
0.0 0.04514533635633408 0.03812733514066873 -0.03705987769355229 -0.0010674574471164265 0.01741799177279782 0.0 0.0
0.0 0.036676011196770476 0.030952636929833927 -0.029951491677181377 -0.0010011452526525523 0.015125065945728773 0.0 0.0
0.0 0.029172584709389337 0.02458615362045044 -0.02365148605650261 -0.0009346675639478341 0.012888707835036066 0.0 0.0
0.0 0.022553789914665768 0.018978008005387258 -0.018112051513237096 -0.0008659564921501607 0.010753558474771618 0.0 0.0
0.0 0.016694959878701433 0.014026461973144236 -0.013234943176479394 -0.0007915187966648405 0.008641791280228451 0.0 0.0
0.0 0.01154916062889097 0.009673713596069052 -0.008970070102080143 -0.0007036434939889099 0.00648507416491767 0.0 0.0
0.0 0.007179973086034104 0.005958358745145519 -0.005374462726085515 -0.0005838960190600034 0.004353349177641506 0.0 0.0
0.0 0.0037600362846680877 0.003030655504049259 -0.0026241900846118832 -0.0004064654194373749 0.0024714774676263423 0.0 0.0
0.0 0.0014416505980440737 0.0010980546038543027 -0.0009073771866831516 -0.00019067741717115137 0.0010810434657614857 0.0 0.0
0.0 0.0002809414901282239 0.00019854707514516622 -0.00015906448628123242 -3.948258886393378e-05 0.0002654859348216501 0.0 0.0
0.0 1.960236309598684e-05 4.9596634720848504e-06 -3.919570069943989e-06 -1.0400934021408518e-06 8.676876895031912e-06 0.0 0.0
0.0 7.616774120036076e-07 -5.54913812317514e-08 4.210733847065235e-08 1.3384042761090036e-08 -1.2336932224923908e-07 0.0 0.0
0.0 0.0 0.0 0.0 0.0 0.0 0.0 0.0
0.0 0.0 0.0 0.0 0.0 0.0 0.0 0.0
0.0 0.002163571339945586 0.0013077310749493064 -0.0016005173777076487 0.00029278630275834244 0.0018712443720224747 0.0 0.0
0.0 0.0013172986369284997 0.0007533983873403824 -0.0009495179473054784 0.00019611955996509623 -0.0011344787303476833 0.0 0.0
0.0 2.413150468070681e-07 -3.1561199297649185e-09 2.895078666521106e-09 2.6104126324386403e-10 4.838109291425756e-08 0.0 0.0
0.0 0.0 0.0 0.0 0.0 0.0 0.0 0.0
0.0 1.343535810957597e-06 -6.745450613659108e-08 5.1836617700734505e-08 1.5617888435866596e-08 2.5068220686766373e-07 0.0 0.0
0.0 9.346581686034658e-06 3.1187015093739373e-06 -2.4652622275275887e-06 -6.534392818463524e-07 -8.206111846795605e-06 0.0 0.0
0.0 0.00014098225182838312 6.721346624784816e-05 -5.3731299032740265e-05 -1.3482167215107941e-05 -0.0001369136008022918 0.0 0.0
0.0 0.000780567236413319 0.0005339842963025051 -0.0004335900681482692 -0.00010039422815423613 -0.0007829280397744597 0.0 0.0
0.0 0.0024237054492699276 0.0018197881080472178 -0.0015355017966589303 -0.0002842863113882873 -0.002054360264543275 0.0 0.0
0.0 0.005079079615410819 0.003993075275261176 -0.0035166624839247525 -0.0004764127913364228 -0.003819864669680996 0.0 0.0
0.0 0.008514376489399981 0.006880292980629353 -0.006262635494195172 -0.0006176574864341805 -0.005912197705409203 0.0 0.0
0.0 0.012567491571706575 0.010274655921569325 -0.009562414323661887 -0.000712241597907433 -0.008070535083734356 0.0 0.0
0.0 0.01715586281893434 0.01410967287342307 -0.013323660003257892 -0.0007860128701651779 -0.010155544295841786 0.0 0.0
0.0 0.022335573046870134 0.01842972636056711 -0.01758065358744338 -0.0008490727731237205 -0.012236919990973408 0.0 0.0
0.0 0.0281595541208055 0.023341106477928822 -0.022433877217378263 -0.0009072292605505528 -0.014405703913448442 0.0 0.0
0.0 0.03478761429979699 0.028923854703754533 -0.027961162988291117 -0.0009626917154634053 -0.016624258858895194 0.0 0.0
0.0 0.04212145068140723 0.03516340241061062 -0.03414392043844773 -0.0010194819721628932 -0.01865014138228058 0.0 0.0
0.0 0.04988079746788989 0.041911997899500564 -0.040838900367939385 -0.0010730975315611845 -0.02007046931927414 0.0 0.0
0.0 0.05786784293121871 0.048965193670646084 -0.047840788721343716 -0.0011244049493023876 -0.02022617683043369 0.0 0.0
0.0 0.06560192953953523 0.05593655470304115 -0.05475388090762325 -0.001182673795417876 -0.01782104454542013 0.0 0.0
0.0 0.0719621397022554 0.061927446473569236 -0.06068078764392097 -0.0012466588296482471 -0.010946698501709913 0.0 0.0
0.0 0.07196213970225165 0.06192744647356479 -0.0606807876439162 -0.0012466588296485583 0.010946698501744612 0.0 0.0
0.0 0.0656019295395246 0.055936554703028205 -0.05475388090761012 -0.0011826737954180923 0.01782104454546842 0.0 0.0
0.0 0.05786784293120167 0.04896519367062731 -0.04784078872132533 -0.0011244049493019535 0.020226176830469414 0.0 0.0
0.0 0.049880797467867735 0.041911997899478935 -0.04083890036791858 -0.0010730975315603837 0.020070469319288173 0.0 0.0
0.0 0.04212145068137926 0.035163402410586374 -0.03414392043842421 -0.0010194819721621516 0.018650141382273035 0.0 0.0
0.0 0.03478761429976658 0.02892385470372852 -0.027961162988265745 -0.0009626917154627681 0.016624258858884824 0.0 0.0
0.0 0.02815955412077848 0.023341106477905132 -0.022433877217355295 -0.0009072292605498437 0.014405703913442232 0.0 0.0
0.0 0.022335573046843395 0.01842972636054383 -0.01758065358742076 -0.0008490727731230693 0.012236919990965822 0.0 0.0
0.0 0.01715586281890829 0.014109672873401332 -0.0133236600032366 -0.0007860128701647265 0.010155544295828333 0.0 0.0
0.0 0.012567491571682606 0.01027465592154975 -0.009562414323642902 -0.0007122415979068405 0.008070535083719311 0.0 0.0
0.0 0.00851437648937778 0.006880292980612006 -0.006262635494178518 -0.0006176574864334876 0.005912197705391527 0.0 0.0
0.0 0.005079079615393254 0.003993075275247469 -0.003516662483911725 -0.0004764127913357427 0.003819864669669171 0.0 0.0
0.0 0.0024237054492592023 0.001819788108039062 -0.0015355017966517627 -0.00028428631138729927 0.0020543602645356355 0.0 0.0
0.0 0.0007805672364082121 0.0005339842962991325 -0.00043359006814544624 -0.00010039422815368582 0.0007829280397702065 0.0 0.0
0.0 0.00014098225182693037 6.721346624756078e-05 -5.3731299032500385e-05 -1.3482167215060294e-05 0.00013691360080159717 0.0 0.0
0.0 9.346581685730153e-06 3.1187015095197036e-06 -2.465262227643063e-06 -6.53439281876645e-07 8.206111847203736e-06 0.0 0.0
0.0 1.343535810551308e-06 -6.74545061154224e-08 5.1836617684484416e-08 1.561788843093987e-08 -2.5068220678900275e-07 0.0 0.0
0.0 0.0 0.0 0.0 0.0 0.0 0.0 0.0
0.0 2.413150465246296e-07 -3.1561199259962506e-09 2.8950786630596134e-09 2.610412629367381e-10 -4.838109285659394e-08 0.0 0.0
0.0 0.0013172986369213188 0.0007533983873364192 -0.0009495179473007809 0.00019611955996436144 0.0011344787303416554 0.0 0.0
0.0 0.000686908364941627 0.00035855423817468296 -0.00046748467183901324 0.00010893043366433039 -0.0005687619531181513 0.0 0.0
0.0 5.68229300698234e-07 -7.067340485817422e-09 9.746384288017086e-09 -2.679043802201258e-09 1.14239571365149e-07 0.0 0.0
0.0 0.0 0.0 0.0 0.0 0.0 0.0 0.0
0.0 8.694762653476193e-07 -2.987712020632065e-08 2.159330647060148e-08 8.283813735721381e-09 1.7349073420562356e-07 0.0 0.0
0.0 7.720010480801655e-06 1.7031386326901673e-06 -1.3401278681014457e-06 -3.6301076458873405e-07 -6.969332660116564e-06 0.0 0.0
0.0 8.108969238175394e-05 2.8332854684499683e-05 -2.2504902708193016e-05 -5.82795197630666e-06 -8.983176066417188e-05 0.0 0.0
0.0 0.0003754082935186528 0.0001957119618405783 -0.0001570851868412557 -3.86267749993226e-05 -0.00046942536239400785 0.0 0.0
0.0 0.0013108379075926389 0.0008496443036151418 -0.0006970062746550577 -0.00015263802896008395 -0.0014566682116846084 0.0 0.0
0.0 0.0031352660372265047 0.002217966445225018 -0.0018913406511294705 -0.0003266257940955458 -0.002966142989525403 0.0 0.0
0.0 0.005541331713032354 0.00421603469990833 -0.0037287246992881926 -0.0004873100006201362 -0.004813217850498513 0.0 0.0
0.0 0.00858328516348119 0.006626312545300053 -0.006026256254970993 -0.0006000562903290593 -0.006787751122925182 0.0 0.0
0.0 0.011873037265449587 0.009350486246305434 -0.008669951001040725 -0.0006805352452647028 -0.00873298889397572 0.0 0.0
0.0 0.015577525503058565 0.012400748383573485 -0.01165711482096988 -0.0007436335626036044 -0.010659783634415014 0.0 0.0
0.0 0.019798468369902796 0.01586967019016429 -0.015073312458153692 -0.0007963577320105977 -0.012623643334367027 0.0 0.0
0.0 0.024667271795423572 0.019857931727978225 -0.019014603522553512 -0.0008433282054247088 -0.014627193066791902 0.0 0.0
0.0 0.030090715476899867 0.0244157492988211 -0.023526922630722324 -0.0008888266680987644 -0.01649703947979331 0.0 0.0
0.0 0.036064276897624356 0.0294975967027093 -0.028563363559565846 -0.0009342331431434513 -0.01784358134924767 0.0 0.0
0.0 0.04231559397618338 0.03506744824282416 -0.034098424789259035 -0.000969023453565122 -0.01826868320183146 0.0 0.0
0.0 0.048882136223456205 0.04113141515942529 -0.04012657463929297 -0.0010048405201323067 -0.01684662912113567 0.0 0.0
0.0 0.055182607363929416 0.04719613755276878 -0.04612646750529027 -0.0010696700474785103 -0.011290458358341573 0.0 0.0
0.0 0.05518260736392644 0.04719613755276446 -0.046126467505286164 -0.00106967004747828 0.011290458358370361 0.0 0.0
0.0 0.0488821362234502 0.04113141515941559 -0.04012657463928375 -0.001004840520131837 0.016846629121178812 0.0 0.0
0.0 0.04231559397617396 0.03506744824281154 -0.0340984247892472 -0.000969023453564335 0.01826868320186347 0.0 0.0
0.0 0.036064276897607744 0.029497596702692735 -0.02856336355955013 -0.000934233143142608 0.017843581349258314 0.0 0.0
0.0 0.030090715476876168 0.024415749298801494 -0.02352692263070297 -0.000888826668098505 0.01649703947978351 0.0 0.0
0.0 0.024667271795398436 0.019857931727957672 -0.01901460352253306 -0.0008433282054246228 0.014627193066780054 0.0 0.0
0.0 0.019798468369883096 0.015869670190147744 -0.015073312458137247 -0.0007963577320104983 0.012623643334360519 0.0 0.0
0.0 0.015577525503038436 0.012400748383556337 -0.011657114820952792 -0.0007436335626035454 0.010659783634408396 0.0 0.0
0.0 0.011873037265428741 0.009350486246288653 -0.008669951001024427 -0.0006805352452642223 0.008732988893962894 0.0 0.0
0.0 0.008583285163460885 0.006626312545284199 -0.006026256254955711 -0.0006000562903284861 0.006787751122910279 0.0 0.0
0.0 0.005541331713015213 0.004216034699895734 -0.0037287246992764094 -0.00048731000061932276 0.004813217850483598 0.0 0.0
0.0 0.003135266037215481 0.002217966445216908 -0.0018913406511221842 -0.000326625794094724 0.0029661429895163774 0.0 0.0
0.0 0.0013108379075862297 0.0008496443036108082 -0.0006970062746513595 -0.00015263802895944863 0.0014566682116784583 0.0 0.0
0.0 0.00037540829351587695 0.00019571196183931788 -0.00015708518684024632 -3.8626774999071604e-05 0.00046942536239154623 0.0 0.0
0.0 8.1089692380397e-05 2.8332854684329236e-05 -2.2504902708057603e-05 -5.827951976271612e-06 8.983176066359278e-05 0.0 0.0
0.0 7.720010480480169e-06 1.7031386327791244e-06 -1.3401278681723843e-06 -3.63010764606733e-07 6.969332660519528e-06 0.0 0.0
0.0 8.694762648168817e-07 -2.987712019000699e-08 2.1593306458356525e-08 8.283813731647456e-09 -1.7349073409897767e-07 0.0 0.0
0.0 0.0 0.0 0.0 0.0 0.0 0.0 0.0
0.0 5.682293000733039e-07 -7.067340481250902e-09 9.746384282047934e-09 -2.6790438007974454e-09 -1.1423957123934295e-07 0.0 0.0
0.0 0.0006869083649365769 0.0003585542381723397 -0.0004674846718361417 0.00010893043366380211 0.0005687619531143305 0.0 0.0
0.0 0.0002450368838970655 0.00012604749797166917 -0.00017240250561197546 4.63550076403063e-05 -0.00021081555223845 0.0 0.0
0.0 2.0717276247831737e-06 -6.165853434397743e-09 1.47916262852059e-08 -8.625772850807937e-09 4.367858720835785e-07 0.0 0.0
0.0 8.129603515550081e-07 -9.729788138728575e-10 -5.062304710215263e-10 1.479209284894036e-09 1.6676851108718092e-07 0.0 0.0
0.0 1.3942118126280809e-06 -1.7202479833820512e-08 1.1633862331670308e-08 5.568617502153395e-09 2.882879494068393e-07 0.0 0.0
0.0 7.994987441237745e-06 1.0467383710648976e-06 -7.918754964536133e-07 -2.5486287461128853e-07 -7.637726046699958e-06 0.0 0.0
0.0 6.734200481890044e-05 1.3799119385045186e-05 -1.0982149517424369e-05 -2.8169698676208205e-06 -7.916191000808795e-05 0.0 0.0
0.0 0.0002167133693885789 6.53928703780458e-05 -5.238098444830847e-05 -1.3011885929737294e-05 -0.000297673460834689 0.0 0.0
0.0 0.0005745381339208903 0.00025100278659448747 -0.00020153352897909924 -4.946925761538812e-05 -0.0008399511047227678 0.0 0.0
0.0 0.0014733963274031416 0.0007995833697839448 -0.0006545497797681389 -0.00014503359001580618 -0.001865206961233581 0.0 0.0
0.0 0.0028932646578962674 0.0018232251431021577 -0.0015404258719328532 -0.0002827992711693037 -0.0032655043638978626 0.0 0.0
0.0 0.004687413716503752 0.003200466895692578 -0.002789274379263596 -0.0004111925164289813 -0.004844902193047083 0.0 0.0
0.0 0.0068140024184315156 0.004787649402161381 -0.004280271352240067 -0.0005073780499213122 -0.006473214452429704 0.0 0.0
0.0 0.009147851572259679 0.006577926384034197 -0.00599568852115925 -0.0005822378628749431 -0.008145240023261266 0.0 0.0
0.0 0.011800024684476306 0.00862742956700838 -0.007987304459983956 -0.0006401251070244189 -0.009827964895399393 0.0 0.0
0.0 0.014854369031757773 0.011024417563618421 -0.010339288082913872 -0.000685129480704543 -0.01152283096187918 0.0 0.0
0.0 0.018390719818812108 0.013872360370974725 -0.0131495557338724 -0.0007228046371023257 -0.013155068342711464 0.0 0.0
0.0 0.02246563417113259 0.017246940692742237 -0.016486500628632397 -0.0007604400641098484 -0.01443630114655289 0.0 0.0
0.0 0.027024944602332644 0.021223143837814804 -0.020428950416219758 -0.000794193421595055 -0.01495045994144963 0.0 0.0
0.0 0.03236589903433692 0.026061220866840793 -0.02526323336928252 -0.0007979874975582648 -0.014466224538823628 0.0 0.0
0.0 0.03845134872754382 0.03200998715281687 -0.031160207725524837 -0.0008497794272920354 -0.011125976881749681 0.0 0.0
0.0 0.03845134872754473 0.0320099871528157 -0.0311602077255234 -0.0008497794272923082 0.011125976881774635 0.0 0.0
0.0 0.03236589903433472 0.026061220866834447 -0.025263233369275894 -0.0007979874975585467 0.014466224538861143 0.0 0.0
0.0 0.027024944602325764 0.021223143837805006 -0.02042895041621002 -0.0007941934215949767 0.014950459941473877 0.0 0.0
0.0 0.02246563417112376 0.017246940692733286 -0.016486500628623793 -0.0007604400641094865 0.014436301146558713 0.0 0.0
0.0 0.018390719818798272 0.013872360370964378 -0.013149555733862431 -0.0007228046371019425 0.013155068342702662 0.0 0.0
0.0 0.014854369031743708 0.011024417563607747 -0.010339288082903393 -0.0006851294807043526 0.011522830961870267 0.0 0.0
0.0 0.011800024684464457 0.008627429566998773 -0.007987304459974604 -0.000640125107024171 0.009827964895394316 0.0 0.0
0.0 0.009147851572249673 0.006577926384025911 -0.005995688521151231 -0.0005822378628746782 0.00814524002325717 0.0 0.0
0.0 0.006814002418419704 0.004787649402152894 -0.004280271352232171 -0.000507378049920723 0.006473214452420079 0.0 0.0
0.0 0.00468741371649242 0.003200466895685098 -0.0027892743792567233 -0.0004111925164283737 0.004844902193035688 0.0 0.0
0.0 0.0028932646578856513 0.0018232251430957656 -0.0015404258719270833 -0.0002827992711686817 0.0032655043638862014 0.0 0.0
0.0 0.0014733963273977015 0.0007995833697806006 -0.0006545497797653041 -0.00014503359001529653 0.0018652069612275462 0.0 0.0
0.0 0.0005745381339181306 0.00025100278659328796 -0.00020153352897814928 -4.946925761513851e-05 0.0008399511047196167 0.0 0.0
0.0 0.00021671336938719737 6.539287037784834e-05 -5.2380984448145354e-05 -1.3011885929702986e-05 0.0002976734608335791 0.0 0.0
0.0 6.734200481773218e-05 1.3799119384959114e-05 -1.0982149517357026e-05 -2.8169698676020722e-06 7.916191000752488e-05 0.0 0.0
0.0 7.994987440954163e-06 1.046738371128265e-06 -7.918754965021202e-07 -2.548628746261468e-07 7.637726047200888e-06 0.0 0.0
0.0 1.3942118121365584e-06 -1.7202479827439693e-08 1.1633862327329383e-08 5.568617500112952e-09 -2.8828794930130727e-07 0.0 0.0
0.0 8.12960351106587e-07 -9.729788137991681e-10 -5.062304704954294e-10 1.479209284295063e-09 -1.667685109932312e-07 0.0 0.0
0.0 2.0717276240791394e-06 -6.165853431574411e-09 1.4791626278552993e-08 -8.625772846978897e-09 -4.3678587193397695e-07 0.0 0.0
0.0 0.00024503688389452074 0.00012604749797079034 -0.00017240250561079563 4.635500764000512e-05 0.00021081555223717132 0.0 0.0
0.0 5.0971749808074364e-05 2.2991178452750983e-05 -3.2854124522825e-05 9.862946070074015e-06 -4.091376323356073e-05 0.0 0.0
0.0 2.3409661729961703e-06 6.496376963596438e-10 1.3091562580591183e-08 -1.3741200276949575e-08 4.872012716183131e-07 0.0 0.0
0.0 8.28283976103979e-07 8.757322001854407e-09 -7.994197467743662e-09 -7.631245341108108e-10 1.6872916499049268e-07 0.0 0.0
0.0 1.2290361302003152e-06 -6.3025428812876105e-09 3.822562759065352e-09 2.4799801222228565e-09 -1.2416086606848244e-07 0.0 0.0
0.0 1.0362829002915394e-05 2.030099037775082e-07 -1.3357956188627144e-07 -6.943034189124309e-08 -7.250657158623649e-06 0.0 0.0
0.0 6.269899775368169e-05 4.249230261310598e-06 -3.31707929846035e-06 -9.321509628502366e-07 -8.310310141699003e-05 0.0 0.0
0.0 0.00018437357913042227 1.956348897531673e-05 -1.5628116514799118e-05 -3.935372460517635e-06 -0.0002838496601330504 0.0 0.0
0.0 0.00040010885196583234 5.2283923220147446e-05 -4.197877427447691e-05 -1.0305148945670476e-05 -0.0005911562158253896 0.0 0.0
0.0 0.0006870106500862683 0.00012496281636908122 -0.0001008474100402601 -2.4115406328821113e-05 -0.0010993253040633383 0.0 0.0
0.0 0.0011997894891685999 0.00026798977910771687 -0.00021709709644832868 -5.089268265938813e-05 -0.0018412033219699878 0.0 0.0
0.0 0.0018225887724316503 0.0005473845534308493 -0.0004414979511749589 -0.00010588660225589036 -0.0028787896843530626 0.0 0.0
0.0 0.0026915089856336762 0.0009232436598290683 -0.000748595236650587 -0.000174648423178481 -0.00405114331465763 0.0 0.0
0.0 0.0037191760309532268 0.0013914795963070295 -0.0011443880711010275 -0.0002470915252060016 -0.005375604679885817 0.0 0.0
0.0 0.004987479037973102 0.0019932217107135977 -0.0016806618885944198 -0.0003125598221191778 -0.006866019768001871 0.0 0.0
0.0 0.006485170944996308 0.0027798214204025253 -0.0024116576304285407 -0.00036816378997398463 -0.00850591039050511 0.0 0.0
0.0 0.008317533117254515 0.0038703154918412848 -0.0034552591251791028 -0.0004150563666621804 -0.010187983657962056 0.0 0.0
0.0 0.010523452876338022 0.005478236571423166 -0.005019823427596102 -0.00045841314382706025 -0.011605456113899206 0.0 0.0
0.0 0.013188581945447274 0.007824903250150578 -0.007315509296501993 -0.0005093939536485807 -0.012216160032891839 0.0 0.0
0.0 0.016669507558784023 0.011145508737040429 -0.010605082619763225 -0.0005404261172772002 -0.0118093915241802 0.0 0.0
0.0 0.021890000771387468 0.016303800605269855 -0.01578997221059052 -0.000513828394679337 -0.01054824592412508 0.0 0.0
0.0 0.021890000771389497 0.01630380060526988 -0.015789972210590343 -0.0005138283946795298 0.010548245924142887 0.0 0.0
0.0 0.016669507558786302 0.011145508737038306 -0.010605082619761112 -0.0005404261172771933 0.011809391524207104 0.0 0.0
0.0 0.013188581945443232 0.007824903250144646 -0.007315509296496143 -0.0005093939536485017 0.012216160032905928 0.0 0.0
0.0 0.010523452876330858 0.005478236571417931 -0.0050198234275910065 -0.00045841314382692 0.01160545611389837 0.0 0.0
0.0 0.008317533117245998 0.003870315491837582 -0.0034552591251756073 -0.0004150563666619737 0.010187983657951448 0.0 0.0
0.0 0.006485170944989599 0.002779821420399341 -0.0024116576304256745 -0.00036816378997366625 0.008505910390497785 0.0 0.0
0.0 0.004987479037969464 0.001993221710712833 -0.0016806618885938408 -0.00031255982211899263 0.006866019767996113 0.0 0.0
0.0 0.0037191760309509777 0.0013914795963069254 -0.0011443880711012114 -0.000247091525205714 0.00537560467988166 0.0 0.0
0.0 0.0026915089856289344 0.0009232436598281446 -0.0007485952366498396 -0.00017464842317830507 0.0040511433146504785 0.0 0.0
0.0 0.0018225887724263945 0.0005473845534292776 -0.0004414979511737102 -0.00010588660225556708 0.0028787896843447043 0.0 0.0
0.0 0.0011997894891640575 0.0002679897791070668 -0.00021709709644775308 -5.0892682659313904e-05 0.001841203321963207 0.0 0.0
0.0 0.0006870106500845673 0.0001249628163687988 -0.00010084741004007167 -2.4115406328727032e-05 0.0010993253040606078 0.0 0.0
0.0 0.0004001088519647915 5.2283923220006026e-05 -4.197877427437232e-05 -1.0305148945633683e-05 0.0005911562158236899 0.0 0.0
0.0 0.00018437357912888048 1.9563488975251676e-05 -1.5628116514733907e-05 -3.935372460517762e-06 0.00028384966013201413 0.0 0.0
0.0 6.269899775282654e-05 4.2492302612861806e-06 -3.3170792984395763e-06 -9.321509628466082e-07 8.31031014164203e-05 0.0 0.0
0.0 1.0362829002626501e-05 2.03009903788754e-07 -1.3357956189334355e-07 -6.943034189541381e-08 7.250657159100521e-06 0.0 0.0
0.0 1.2290361299466922e-06 -6.302542897266189e-09 3.822562773419164e-09 2.4799801238469404e-09 1.2416086663684515e-07 0.0 0.0
0.0 8.282839756553083e-07 8.757321996808003e-09 -7.99419746324245e-09 -7.631245335657651e-10 -1.687291648967851e-07 0.0 0.0
0.0 2.340966172321822e-06 6.496376968874008e-10 1.3091562575233056e-08 -1.3741200272117913e-08 -4.87201271473837e-07 0.0 0.0
0.0 5.097174980700963e-05 2.299117845264306e-05 -3.285412452265956e-05 9.862946070016449e-06 4.0913763233510924e-05 0.0 0.0
0.0 2.6715149023956176e-06 2.419695460053911e-07 -3.49945352699856e-07 1.0797580669445825e-07 -4.879442204551589e-07 0.0 0.0
0.0 1.975098073652549e-06 2.0248458661073092e-09 6.1977404099035426e-09 -8.222586276005996e-09 2.8046212130042726e-07 0.0 0.0
0.0 1.3615236570677416e-06 -3.952165596532989e-08 3.117754385337399e-08 8.344112111957206e-09 -3.996965082461107e-07 0.0 0.0
0.0 2.6901086543431993e-06 -1.7332222667292347e-07 1.4801251400737395e-07 2.5309712665549657e-08 -1.948597432995376e-06 0.0 0.0
0.0 1.4067242905659108e-05 -7.890087509760278e-07 6.950952760817398e-07 9.391347489429744e-08 -1.1831913138670591e-05 0.0 0.0
0.0 6.829777055098546e-05 -5.576517676714777e-06 4.585785550563945e-06 9.907321261508262e-07 -8.455573574647261e-05 0.0 0.0
0.0 0.00018563375894031805 -2.0652120268643065e-05 1.6640427121571574e-05 4.011693147071478e-06 -0.0002860939988931117 0.0 0.0
0.0 0.0004002040521178706 -5.240938195826685e-05 4.2077580789570067e-05 1.033180116869672e-05 -0.0005924459229424843 0.0 0.0
0.0 0.0006869273156909267 -0.00012471497605424781 0.00010062999833623299 2.4084977718014777e-05 -0.0010997940260270337 0.0 0.0
0.0 0.0011983834168248315 -0.0002673391033467864 0.0002164507321836886 5.08883711630978e-05 -0.0018397752920198938 0.0 0.0
0.0 0.0018294183503712225 -0.0005456758829657146 0.0004407718195702785 0.00010490406339543578 -0.0028758678027661147 0.0 0.0
0.0 0.00269629948148394 -0.0009327333283841677 0.0007577688549673519 0.00017496447341681546 -0.004055601866320758 0.0 0.0
0.0 0.003746125710304636 -0.001424998992232704 0.001176180916498478 0.0002488180757342249 -0.005386763946521172 0.0 0.0
0.0 0.005025867496268493 -0.0020418180051596916 0.0017234847067696827 0.000318333298390008 -0.006873991345560575 0.0 0.0
0.0 0.0064284957237995795 -0.0027132048863470733 0.00233121797057006 0.00038198691577701223 -0.008504013019643661 0.0 0.0
0.0 0.00786227543926658 -0.0032562176096135043 0.00281756863514197 0.00043864897447152976 -0.010239247320855292 0.0 0.0
0.0 0.009044212147684229 -0.00337274211516456 0.002888621632302077 0.00048412048286248317 -0.01207023906733843 0.0 0.0
0.0 0.009817938003744175 -0.002781395274186885 0.002265248398200409 0.0005161468759864744 -0.014024368943062948 0.0 0.0
0.0 0.010118944768316988 -0.001513007380601688 0.001060675288103054 0.0004523320924986343 -0.015697186211218368 0.0 0.0
0.0 0.009724120182401333 0.0022717835394770094 -0.0023588122046314195 8.70286651544097e-05 -0.014283214692635177 0.0 0.0
0.0 0.009724120182404379 0.002271783539476602 -0.0023588122046311654 8.702866515456544e-05 0.014283214692645098 0.0 0.0
0.0 0.010118944768319389 -0.001513007380600884 0.0010606752881025545 0.00045233209249832807 0.01569718621122749 0.0 0.0
0.0 0.009817938003740662 -0.00278139527418518 0.0022652483981988702 0.0005161468759863087 0.014024368943064502 0.0 0.0
0.0 0.009044212147676926 -0.003372742115160817 0.0028886216322988392 0.00048412048286197636 0.012070239067331963 0.0 0.0
0.0 0.007862275439258097 -0.0032562176096091345 0.0028175686351381768 0.0004386489744709555 0.010239247320845015 0.0 0.0
0.0 0.006428495723792178 -0.002713204886343051 0.0023312179705664454 0.00038198691577660457 0.008504013019636287 0.0 0.0
0.0 0.005025867496261006 -0.002041818005155717 0.0017234847067663316 0.0003183332983893847 0.006873991345553193 0.0 0.0
0.0 0.0037461257102974887 -0.0014249989922288336 0.0011761809164952141 0.00024881807573361875 0.005386763946514477 0.0 0.0
0.0 0.002696299481477678 -0.0009327333283817555 0.0007577688549654741 0.00017496447341628163 0.004055601866313952 0.0 0.0
0.0 0.0018294183503641723 -0.0005456758829622482 0.0004407718195675107 0.00010490406339473764 0.0028758678027571115 0.0 0.0
0.0 0.0011983834168189285 -0.00026733910334509665 0.0002164507321822214 5.088837116287526e-05 0.0018397752920121999 0.0 0.0
0.0 0.0006869273156886108 -0.000124714976053585 0.0001006299983356764 2.408497771790858e-05 0.0010997940260237236 0.0 0.0
0.0 0.0004002040521168264 -5.240938195805398e-05 4.207758078938605e-05 1.0331801168667895e-05 0.0005924459229413445 0.0 0.0
0.0 0.0001856337589382158 -2.0652120268481112e-05 1.6640427121461914e-05 4.011693147019187e-06 0.00028609399889095244 0.0 0.0
0.0 6.829777054989067e-05 -5.576517676658094e-06 4.585785550522673e-06 9.907321261354297e-07 8.455573574569887e-05 0.0 0.0
0.0 1.4067242905278698e-05 -7.89008751015809e-07 6.950952761158031e-07 9.391347490000229e-08 1.1831913139228835e-05 0.0 0.0
0.0 2.6901086542723403e-06 -1.7332222674413954e-07 1.4801251406929884e-07 2.5309712674841142e-08 1.948597433809759e-06 0.0 0.0
0.0 1.3615236567412714e-06 -3.952165602423097e-08 3.117754390156524e-08 8.344112122666212e-09 3.996965088510663e-07 0.0 0.0
0.0 1.97509807306317e-06 2.0248458512614964e-09 6.197740409872792e-09 -8.222586261129399e-09 -2.8046212079526857e-07 0.0 0.0
0.0 2.67151490182365e-06 2.419695461458869e-07 -3.499453529018043e-07 1.0797580675592047e-07 4.879442207736616e-07 0.0 0.0
0.0 0.0 0.0 0.0 0.0 0.0 0.0 0.0
0.0 7.864401988905609e-07 5.562617747313795e-09 2.4586987983438436e-09 -8.021316545659175e-09 1.5894775584115108e-07 0.0 0.0
0.0 2.544183935718876e-06 -9.799870665795809e-08 7.96732638775245e-08 1.8325442780429435e-08 -6.764057654192223e-07 0.0 0.0
0.0 5.397506048324792e-06 -6.102959176226868e-08 6.401959037518968e-08 -2.98999861290751e-09 -6.54766654521065e-07 0.0 0.0
0.0 1.861406822435706e-05 -3.332214106413321e-06 2.7842307578502136e-06 5.479833485631154e-07 -2.030060749580345e-05 0.0 0.0
0.0 7.834019303773568e-05 -1.8221610130383103e-05 1.4668355026802184e-05 3.553255103580889e-06 -9.684127078351486e-05 0.0 0.0
0.0 0.0002262137067303001 -6.736459412310159e-05 5.411542389244258e-05 1.324917023065902e-05 -0.00030330202400230446 0.0 0.0
0.0 0.0005777594321173162 -0.00025217727824984224 0.00020248630992233894 4.969096832750331e-05 -0.0008434831507844018 0.0 0.0
0.0 0.0014708874104236225 -0.0007985485736510523 0.0006536207552463916 0.00014492781840466046 -0.001864459926593716 0.0 0.0
0.0 0.0028902722598017614 -0.001821621881277413 0.0015390611089297899 0.00028256077234762266 -0.0032636100321554637 0.0 0.0
0.0 0.004689554202273844 -0.0032027456220653956 0.0027920106800055373 0.0004107349420598567 -0.0048454590881691195 0.0 0.0
0.0 0.006829175195595404 -0.00480365411333524 0.004296931763878663 0.0005067223494565785 -0.006472969171625293 0.0 0.0
0.0 0.009185616766345134 -0.0066201394838565335 0.006038023882938781 0.0005821156009177501 -0.008130784433696978 0.0 0.0
0.0 0.011846281866367025 -0.008680219842070838 0.008035643205544436 0.0006445766365264057 -0.009801995564674986 0.0 0.0
0.0 0.014782363820330722 -0.010941470874327902 0.010240539125190505 0.0007009317491373915 -0.011560982160147277 0.0 0.0
0.0 0.017799395502790482 -0.013204767581413764 0.012450966145087 0.0007538014363267626 -0.013501601897016696 0.0 0.0
0.0 0.02054629661673405 -0.015083952473575612 0.014282796651422958 0.0008011558221526566 -0.01568671383905639 0.0 0.0
0.0 0.022423436729955705 -0.016054393686127127 0.015218494055234514 0.0008358996308926226 -0.018020726799255028 0.0 0.0
0.0 0.02192189700669791 -0.015112477077439611 0.01418209985838342 0.0009303772190561845 -0.018950456242377924 0.0 0.0
0.0 0.016851569420010176 -0.010074635554838417 0.00907866516288257 0.00099597039195584 -0.016336752598419508 0.0 0.0
0.0 0.016851569420017233 -0.010074635554839211 0.009078665162883123 0.0009959703919560875 0.016336752598441966 0.0 0.0
0.0 0.0219218970067053 -0.015112477077439814 0.014182099858383562 0.0009303772190562443 0.01895045624240707 0.0 0.0
0.0 0.022423436729952322 -0.016054393686120206 0.015218494055227759 0.0008358996308924422 0.01802072679927408 0.0 0.0
0.0 0.02054629661671912 -0.015083952473562494 0.014282796651409899 0.0008011558221525941 0.015686713839054726 0.0 0.0
0.0 0.017799395502768087 -0.013204767581396 0.01245096614506937 0.0007538014363266291 0.01350160189700362 0.0 0.0
0.0 0.014782363820313633 -0.010941470874314596 0.01024053912517754 0.0007009317491370546 0.011560982160136046 0.0 0.0
0.0 0.011846281866353722 -0.008680219842060672 0.008035643205534414 0.0006445766365262575 0.009801995564666079 0.0 0.0
0.0 0.009185616766330796 -0.006620139483844288 0.006038023882926873 0.0005821156009174127 0.008130784433691057 0.0 0.0
0.0 0.006829175195579181 -0.004803654113322894 0.0042969317638670386 0.0005067223494558543 0.0064729691716141095 0.0 0.0
0.0 0.004689554202256963 -0.00320274562205353 0.0027920106799946233 0.0004107349420589071 0.004845459088154407 0.0 0.0
0.0 0.002890272259788041 -0.0018216218812682579 0.0015390611089216807 0.00028256077234657684 0.0032636100321421554 0.0 0.0
0.0 0.0014708874104171494 -0.0007985485736467731 0.0006536207552427772 0.0001449278184039959 0.0018644599265870048 0.0 0.0
0.0 0.0005777594321147732 -0.00025217727824848374 0.00020248630992129673 4.9690968327187064e-05 0.0008434831507816281 0.0 0.0
0.0 0.00022621370672826186 -6.736459412271689e-05 5.4115423892137035e-05 1.3249170230579827e-05 0.00030330202400056735 0.0 0.0
0.0 7.834019303589039e-05 -1.8221610130193046e-05 1.4668355026648729e-05 3.5532551035442955e-06 9.684127078249798e-05 0.0 0.0
0.0 1.8614068224020713e-05 -3.3322141064854127e-06 2.784230757911005e-06 5.479833485743909e-07 2.0300607496257104e-05 0.0 0.0
0.0 5.397506047992663e-06 -6.102959180896269e-08 6.401959041552663e-08 -2.98999860656011e-09 6.547666548442445e-07 0.0 0.0
0.0 2.544183934971231e-06 -9.799870673073536e-08 7.967326393539998e-08 1.832544279533548e-08 6.764057659477521e-07 0.0 0.0
0.0 7.864401982389868e-07 5.562617742716562e-09 2.4586987968030427e-09 -8.021316539519248e-09 -1.5894775570840683e-07 0.0 0.0
0.0 0.0 0.0 0.0 0.0 0.0 0.0 0.0
0.0 0.0 0.0 0.0 0.0 0.0 0.0 0.0
0.0 9.659038647247042e-07 1.536493391610939e-08 -9.441890028047111e-09 -5.923043888061976e-09 1.9697054502569396e-07 0.0 0.0
0.0 3.123797815057657e-06 1.0788026094104876e-07 -8.564980673659911e-08 -2.2230454204453356e-08 6.305005306608872e-07 0.0 0.0
0.0 7.709204122735575e-06 1.3792200177171638e-08 -1.6222522569004943e-08 2.430322391844323e-09 1.6705609229769674e-07 0.0 0.0
0.0 2.5774038962886476e-05 -6.624175813002405e-06 5.367966398333564e-06 1.256209414668857e-06 -2.3921531698566526e-05 0.0 0.0
0.0 0.00010038388303331742 -3.661203429745193e-05 2.9457658595305465e-05 7.154375702146453e-06 -0.00011356324070092857 0.0 0.0
0.0 0.0003933396302315069 -0.00020294146071996277 0.00016315111485866736 3.979034586129539e-05 -0.0004837916272168374 0.0 0.0
0.0 0.0013138920651296123 -0.0008506345486096985 0.0006979220926106045 0.00015271245599909409 -0.0014603155714678494 0.0 0.0
0.0 0.0031301469682977322 -0.0022152265173629 0.001888795155295192 0.000326431362067707 -0.0029625700269300653 0.0 0.0
0.0 0.005539022489970414 -0.00421517596646784 0.003727959291802843 0.00048721667466499646 -0.004811124927398307 0.0 0.0
0.0 0.00858710988650211 -0.006630051060556618 0.006030375290931 0.0005996757696256209 -0.006788005355940161 0.0 0.0
0.0 0.011884361061892635 -0.009363460979824064 0.008683871583148001 0.0006795893966760615 -0.008722073805884353 0.0 0.0
0.0 0.015596157352110632 -0.012431637626781712 0.011688824881766797 0.0007428127450149155 -0.010602636963291277 0.0 0.0
0.0 0.019811716006132844 -0.015907468616098628 0.015108089285017584 0.0007993793310810391 -0.012511547656131999 0.0 0.0
0.0 0.024585510011731877 -0.019784284043947133 0.01892769987973394 0.0008565841642131901 -0.01462375142917259 0.0 0.0
0.0 0.0296253812677786 -0.023852362101853777 0.02293589469405167 0.0009164674078020928 -0.017186758751107378 0.0 0.0
0.0 0.03453931406528727 -0.027629304971298355 0.026653420634037778 0.0009758843372605624 -0.020388386824552674 0.0 0.0
0.0 0.03800267282537252 -0.03023088026163405 0.02917886671510441 0.001052013546529646 -0.02366745746582598 0.0 0.0
0.0 0.03825920292331907 -0.029999833473027572 0.02885184111715683 0.0011479923558707474 -0.025303718225301166 0.0 0.0
0.0 0.03096656531667108 -0.023868137570473194 0.02252434094748844 0.0013437966229847408 -0.021667098035032018 0.0 0.0
0.0 0.030966565316678803 -0.023868137570474318 0.022524340947489542 0.0013437966229847722 0.021667098035061366 0.0 0.0
0.0 0.03825920292331998 -0.029999833473021528 0.02885184111715102 0.0011479923558704993 0.025303718225336894 0.0 0.0
0.0 0.038002672825363105 -0.03023088026162124 0.0291788667150918 0.0010520135465294203 0.023667457465849598 0.0 0.0
0.0 0.034539314065268036 -0.02762930497128005 0.026653420634020427 0.0009758843372596347 0.020388386824556286 0.0 0.0
0.0 0.029625381267754276 -0.02385236210183328 0.022935894694031705 0.0009164674078015791 0.017186758751097302 0.0 0.0
0.0 0.02458551001170877 -0.019784284043927916 0.018927699879715015 0.0008565841642128946 0.01462375142916244 0.0 0.0
0.0 0.019811716006107417 -0.015907468616077614 0.015108089284996835 0.0007993793310807737 0.012511547656119865 0.0 0.0
0.0 0.015596157352083483 -0.012431637626758932 0.011688824881744126 0.0007428127450148009 0.010602636963279441 0.0 0.0
0.0 0.011884361061867212 -0.009363460979803326 0.00868387158312771 0.000679589396675614 0.008722073805870076 0.0 0.0
0.0 0.008587109886476974 -0.006630051060536829 0.006030375290911912 0.0005996757696249142 0.006788005355922121 0.0 0.0
0.0 0.005539022489949568 -0.004215175966452158 0.003727959291787909 0.000487216674664249 0.004811124927381717 0.0 0.0
0.0 0.0031301469682835726 -0.002215226517351971 0.0018887951552851705 0.00032643136206679995 0.002962570026919297 0.0 0.0
0.0 0.001313892065121048 -0.0008506345486036975 0.000697922092605567 0.00015271245599813056 0.001460315571460099 0.0 0.0
0.0 0.0003933396302282731 -0.00020294146071862205 0.00016315111485760273 3.979034586101928e-05 0.00048379162721417916 0.0 0.0
0.0 0.00010038388303189826 -3.6612034297391554e-05 2.945765859525564e-05 7.154375702135866e-06 0.00011356324070060285 0.0 0.0
0.0 2.577403896190145e-05 -6.624175813076083e-06 5.367966398393139e-06 1.256209414682907e-06 2.3921531698829106e-05 0.0 0.0
0.0 7.709204122159354e-06 1.3792200071178779e-08 -1.6222522483219418e-08 2.4303224120304944e-09 -1.670560918555032e-07 0.0 0.0
0.0 3.1237978142420583e-06 1.0788026091149483e-07 -8.564980671326711e-08 -2.2230454198221235e-08 -6.305005304893692e-07 0.0 0.0
0.0 9.659038644330307e-07 1.5364933911636078e-08 -9.441890025310556e-09 -5.923043886328447e-09 -1.969705449648645e-07 0.0 0.0
0.0 0.0 0.0 0.0 0.0 0.0 0.0 0.0
0.0 0.0 0.0 0.0 0.0 0.0 0.0 0.0
0.0 0.0 0.0 0.0 0.0 0.0 0.0 0.0
0.0 1.762862297087584e-06 7.425115861487428e-08 -6.029149643128876e-08 -1.3959662183589334e-08 3.448992119798501e-07 0.0 0.0
0.0 6.840968180305517e-06 -4.817859024299813e-07 4.127836019205551e-07 6.900230050942254e-08 -1.7256128746620951e-06 0.0 0.0
0.0 3.3056893269226474e-05 -1.032548475392005e-05 8.402348418864217e-06 1.923136335055863e-06 -2.6646056970813973e-05 0.0 0.0
0.0 0.00016729347449917481 -8.838180864173511e-05 7.090735429588333e-05 1.747445434585175e-05 -0.0001781429574980469 0.0 0.0
0.0 0.0008067978021625989 -0.0005429555775083895 0.0004417560433564923 0.00010119953415189748 -0.0007994614404314077 0.0 0.0
0.0 0.002421987728947092 -0.0018170217628047697 0.0015331716917130617 0.00028385007109170787 -0.0020533766603072438 0.0 0.0
0.0 0.0050735550070653375 -0.003989963551368485 0.003513592374856601 0.00047637117651188373 -0.0038142764131050624 0.0 0.0
0.0 0.008512233029695754 -0.0068813004914479 0.0062636436682867265 0.0006176568231611715 -0.005910885220965074 0.0 0.0
0.0 0.012572505336979801 -0.010279105597465983 0.009567149610980137 0.0007119559864858472 -0.008070834420623318 0.0 0.0
0.0 0.017158405464068868 -0.014115516756959821 0.013330172760499047 0.0007853439964607724 -0.010136163126185956 0.0 0.0
0.0 0.022324222704151016 -0.018436271225152318 0.01758810414463531 0.0008481670805170059 -0.012142677646057648 0.0 0.0
0.0 0.028125355985827327 -0.02334490454129773 0.022436721560545558 0.0009081829807521732 -0.014202396206682653 0.0 0.0
0.0 0.034711768937039526 -0.02886989712689464 0.02789949426105653 0.0009704028658380857 -0.016537077481891448 0.0 0.0
0.0 0.04187253215337648 -0.034806118166547155 0.03376563361233506 0.0010404845542120937 -0.019530746732018073 0.0 0.0
0.0 0.04883031440816847 -0.04050315264376377 0.03938039687086495 0.0011227557728988047 -0.023397297715933914 0.0 0.0
0.0 0.05407968424962828 -0.04461884657709966 0.043396946942606165 0.001221899634493445 -0.027484779026853173 0.0 0.0
0.0 0.05467250996892832 -0.04481853038051181 0.04346112633991103 0.0013574040406007467 -0.029664280375552757 0.0 0.0
0.0 0.045602550597412465 -0.03709400556770315 0.035528565261660004 0.001565440306043161 -0.02642202717590265 0.0 0.0
0.0 0.0456025505974158 -0.037094005567700886 0.035528565261657416 0.0015654403060434625 0.02642202717593453 0.0 0.0
0.0 0.054672509968926836 -0.04481853038050422 0.043461126339903434 0.0013574040406007857 0.029664280375593807 0.0 0.0
0.0 0.05407968424961719 -0.044618846577084856 0.04339694694259225 0.0012218996344925763 0.02748477902688421 0.0 0.0
0.0 0.0488303144081392 -0.040503152643736905 0.03938039687083827 0.001122755772898618 0.02339729771593914 0.0 0.0
0.0 0.04187253215333901 -0.03480611816651501 0.03376563361230306 0.0010404845542119469 0.019530746732008015 0.0 0.0
0.0 0.03471176893700511 -0.028869897126865406 0.027899494261027682 0.0009704028658377157 0.01653707748187952 0.0 0.0
0.0 0.028125355985795505 -0.023344904541270826 0.022436721560519155 0.000908182980751675 0.014202396206670097 0.0 0.0
0.0 0.02232422270411755 -0.01843627122512371 0.01758810414460711 0.0008481670805166019 0.012142677646046544 0.0 0.0
0.0 0.01715840546403563 -0.014115516756931758 0.013330172760471534 0.00078534399646022 0.010136163126170479 0.0 0.0
0.0 0.01257250533695051 -0.010279105597441992 0.009567149610956982 0.0007119559864850098 0.008070834420605046 0.0 0.0
0.0 0.00851223302966991 -0.0068813004914271905 0.006263643668266835 0.0006176568231603549 0.00591088522094686 0.0 0.0
0.0 0.00507355500704593 -0.003989963551352967 0.003513592374842264 0.00047637117651070304 0.003814276413092973 0.0 0.0
0.0 0.002421987728934802 -0.0018170217627951927 0.0015331716917046775 0.0002838500710905151 0.0020533766602985146 0.0 0.0
0.0 0.0008067978021556853 -0.000542955577503726 0.0004417560433526642 0.0001011995341510616 0.0007994614404258047 0.0 0.0
0.0 0.00016729347449648266 -8.838180864079487e-05 7.090735429511795e-05 1.7474454345676945e-05 0.00017814295749624516 0.0 0.0
0.0 3.305689326833118e-05 -1.0325484753994968e-05 8.40234841892346e-06 1.9231363350714655e-06 2.664605697100801e-05 0.0 0.0
0.0 6.8409681796819455e-06 -4.817859026159941e-07 4.1278360207175937e-07 6.90023005442273e-08 1.7256128752622804e-06 0.0 0.0
0.0 1.7628622966370727e-06 7.425115859493936e-08 -6.029149641515662e-08 -1.3959662179784548e-08 -3.4489921188806817e-07 0.0 0.0
0.0 0.0 0.0 0.0 0.0 0.0 0.0 0.0
0.0 0.0 0.0 0.0 0.0 0.0 0.0 0.0
0.0 0.0 0.0 0.0 0.0 0.0 0.0 0.0
0.0 0.0 0.0 0.0 0.0 0.0 0.0 0.0
0.0 6.301117771691601e-07 3.177133557320747e-08 -2.5610055499987776e-08 -6.161280073216576e-09 1.139376708674144e-07 0.0 0.0
0.0 8.045873138556833e-06 5.380789940678123e-07 -4.31168104285182e-07 -1.069108897826192e-07 1.3693024113747104e-06 0.0 0.0
0.0 5.077317961392486e-05 -1.4578943547533262e-05 1.1758037671139223e-05 2.8209058763940364e-06 -2.629766810570263e-05 0.0 0.0
0.0 0.0003322087855810553 -0.00022245315972509134 0.00017916717390537365 4.328598581971772e-05 -0.00029996459547494046 0.0 0.0
0.0 0.0014592137948431709 -0.0011023369175214809 0.0009121874320556449 0.0001901494854658357 -0.0010941487432985359 0.0 0.0
0.0 0.003755030500416274 -0.0030254484358592276 0.002619447582258501 0.00040600085360072613 -0.002467485301098286 0.0 0.0
0.0 0.007176212656149707 -0.005956578380708814 0.005372505878168052 0.0005840725025407618 -0.004346355313896876 0.0 0.0
0.0 0.011551974952653796 -0.009676567195727508 0.008972890469081257 0.0007036767266462459 -0.006483757493946173 0.0 0.0
0.0 0.01669925105403389 -0.014030646026627147 0.013239239921976124 0.0007914061046510215 -0.008640282958146964 0.0 0.0
0.0 0.022544782305714023 -0.018973932737229877 0.018108149319850112 0.0008657834173797704 -0.01072761234065174 0.0 0.0
0.0 0.02912484486581357 -0.02455968926092001 0.023625783819769083 0.0009339054411509114 -0.012774033454352733 0.0 0.0
0.0 0.03658668106536028 -0.03090647271726793 0.029907057512267448 0.000999415205000479 -0.014866877044400382 0.0 0.0
0.0 0.045076869510331866 -0.03808768518312369 0.03701956532312061 0.0010681198600030882 -0.017237921116430455 0.0 0.0
0.0 0.05415822104887508 -0.04589568626224183 0.044745743346308244 0.0011499429159335726 -0.020291389405126245 0.0 0.0
0.0 0.0633438617959061 -0.05348172987836228 0.05222847980447424 0.0012532500738880506 -0.024317051097606797 0.0 0.0
0.0 0.07019443621549822 -0.05902207031448024 0.0576399406023377 0.0013821297121425482 -0.02882964923471372 0.0 0.0
0.0 0.07098308531711409 -0.05942691753843566 0.05788351897890011 0.001543398559535514 -0.03184033505776574 0.0 0.0
0.0 0.060311551692358405 -0.050055813991213345 0.048317508005294205 0.0017383059859191253 -0.03069987686468029 0.0 0.0
0.0 0.06031155169236031 -0.050055813991209896 0.04831750800529058 0.0017383059859192905 0.0306998768647154 0.0 0.0
0.0 0.0709830853171058 -0.059426917538422705 0.05788351897888744 0.0015433985595352494 0.03184033505780832 0.0 0.0
0.0 0.07019443621547751 -0.059022070314458 0.057639940602315975 0.0013821297121420202 0.028829649234745527 0.0 0.0
0.0 0.06334386179587309 -0.053481729878331954 0.052228479804444436 0.0012532500738874765 0.024317051097614777 0.0 0.0
0.0 0.05415822104883615 -0.04589568626220785 0.044745743346274625 0.0011499429159332122 0.020291389405120687 0.0 0.0
0.0 0.04507686951029154 -0.03808768518308881 0.03701956532308612 0.0010681198600027155 0.017237921116421025 0.0 0.0
0.0 0.036586681065320724 -0.03090647271723396 0.029907057512234013 0.000999415204999949 0.01486687704438737 0.0 0.0
0.0 0.02912484486577454 -0.0245596892608861 0.023625783819735947 0.0009339054411501463 0.01277403345434186 0.0 0.0
0.0 0.022544782305674617 -0.018973932737196088 0.01810814931981689 0.000865783417379195 0.010727612340637033 0.0 0.0
0.0 0.01669925105399508 -0.014030646026594732 0.013239239921943983 0.0007914061046507442 0.008640282958127184 0.0 0.0
0.0 0.01155197495262021 -0.009676567195699471 0.008972890469053755 0.0007036767266457235 0.006483757493925914 0.0 0.0
0.0 0.007176212656124178 -0.005956578380687506 0.005372505878147391 0.0005840725025401195 0.004346355313883463 0.0 0.0
0.0 0.003755030500398919 -0.003025448435844954 0.0026194475822453956 0.00040600085359955964 0.0024674853010884686 0.0 0.0
0.0 0.001459213794833789 -0.0011023369175145153 0.0009121874320497459 0.00019014948546476916 0.0010941487432922024 0.0 0.0
0.0 0.0003322087855778444 -0.0002224531597235263 0.00017916717390410397 4.3285985819422313e-05 0.00029996459547294526 0.0 0.0
0.0 5.077317961318771e-05 -1.4578943547805502e-05 1.1758037671351425e-05 2.820905876453974e-06 2.629766810618028e-05 0.0 0.0
0.0 8.045873137922181e-06 5.380789939356677e-07 -4.3116810417992184e-07 -1.0691088975573523e-07 -1.3693024110598508e-06 0.0 0.0
0.0 6.301117768796378e-07 3.177133555832444e-08 -2.5610055487985994e-08 -6.161280070339225e-09 -1.1393767081387647e-07 0.0 0.0
0.0 0.0 0.0 0.0 0.0 0.0 0.0 0.0
0.0 0.0 0.0 0.0 0.0 0.0 0.0 0.0
0.0 0.0 0.0 0.0 0.0 0.0 0.0 0.0
0.0 0.0 0.0 0.0 0.0 0.0 0.0 0.0
0.0 9.159772724021529e-07 5.630253744311479e-08 -4.536700834069255e-08 -1.0935529102421052e-08 1.5681455061216043e-07 0.0 0.0
0.0 4.486488189227319e-06 -3.157321224155759e-07 2.5200838297860337e-07 6.372373943701371e-08 -5.418778458241529e-07 0.0 0.0
0.0 8.108998578932892e-05 -4.23088049964478e-05 3.387218356432006e-05 8.436621432127757e-06 -5.5358914014426124e-05 0.0 0.0
0.0 0.0006446534435715657 -0.0004713598408600768 0.000382141793270354 8.921804758972297e-05 -0.0004302076988907223 0.0 0.0
0.0 0.002332817116844037 -0.0018428239284179692 0.0015549329995395292 0.00028789092887843983 -0.001281942925864959 0.0 0.0
0.0 0.005178594070171964 -0.00440308174911086 0.0038966984140859184 0.0005063833350249412 -0.002673707143773963 0.0 0.0
0.0 0.00936463837657479 -0.008019819033263044 0.007360426538857127 0.0006593924944059192 -0.004485601894068511 0.0 0.0
0.0 0.014664252409278778 -0.012534934854117585 0.01176769897073367 0.0007672358833839197 -0.006496851877914188 0.0 0.0
0.0 0.020900172961411223 -0.017842289148385884 0.01698743897005704 0.000854850178328835 -0.008555635920035155 0.0 0.0
0.0 0.02798934636282546 -0.023901107697898254 0.022967023592403983 0.0009340841054942511 -0.010551709524335135 0.0 0.0
0.0 0.036063170117400886 -0.030764646177690813 0.029755184145430463 0.0010094620322603453 -0.012524298038976048 0.0 0.0
0.0 0.04506503216724023 -0.03855527285562513 0.03747319191055633 0.0010820809450688054 -0.01456697320084167 0.0 0.0
0.0 0.055333378566825575 -0.047358427965666375 0.04620130924555028 0.0011571187201160889 -0.01677498958633609 0.0 0.0
0.0 0.06665171967468646 -0.0569704977716127 0.055720839604650144 0.0012496581669625508 -0.019461656551349075 0.0 0.0
0.0 0.07758545592009197 -0.06639234749188283 0.06501929858319562 0.0013730489086871793 -0.023147691960387413 0.0 0.0
0.0 0.08582790715874883 -0.0733121493591562 0.071782324755187 0.0015298246039691832 -0.027808846513524114 0.0 0.0
0.0 0.08700814526607052 -0.0739397956494172 0.07223206800444007 0.0017077276449771017 -0.03223440180740067 0.0 0.0
0.0 0.07535484910639938 -0.06311725429455922 0.061222887893482646 0.001894366401076551 -0.03477776399715965 0.0 0.0
0.0 0.07535484910639655 -0.06311725429455246 0.061222887893475395 0.001894366401077052 0.034777763997193616 0.0 0.0
0.0 0.0870081452660548 -0.07393979564939908 0.07223206800442157 0.0017077276449774666 0.03223440180744317 0.0 0.0
0.0 0.085827907158721 -0.07331214935912878 0.07178232475515968 0.0015298246039690848 0.02780884651355638 0.0 0.0
0.0 0.07758545592005282 -0.06639234749184747 0.06501929858316093 0.0013730489086865288 0.023147691960396073 0.0 0.0
0.0 0.06665171967464192 -0.056970497771573356 0.055720839604612056 0.0012496581669612754 0.019461656551346372 0.0 0.0
0.0 0.05533337856677729 -0.04735842796562402 0.04620130924550899 0.0011571187201150275 0.016774989586329524 0.0 0.0
0.0 0.04506503216719073 -0.038555272855582315 0.03747319191051386 0.0010820809450684497 0.014566973200830807 0.0 0.0
0.0 0.03606317011735245 -0.03076464617764861 0.029755184145388774 0.0010094620322598194 0.012524298038964769 0.0 0.0
0.0 0.0279893463627788 -0.023901107697857634 0.022967023592364123 0.0009340841054934989 0.01055170952432181 0.0 0.0
0.0 0.020900172961365125 -0.01784228914834656 0.016987438970018344 0.0008548501783282147 0.008555635920015767 0.0 0.0
0.0 0.014664252409240252 -0.012534934854084908 0.011767698970701606 0.000767235883383294 0.006496851877895542 0.0 0.0
0.0 0.009364638376546337 -0.008019819033238399 0.007360426538833382 0.0006593924944050155 0.004485601894056225 0.0 0.0
0.0 0.005178594070151455 -0.004403081749093192 0.0038966984140693826 0.0005063833350238068 0.0026737071437644934 0.0 0.0
0.0 0.002332817116831824 -0.0018428239284081452 0.0015549329995308602 0.00028789092887728494 0.0012819429258586071 0.0 0.0
0.0 0.0006446534435657898 -0.0004713598408561062 0.0003821417932670933 8.921804758901275e-05 0.00043020769888739625 0.0 0.0
0.0 8.108998578802583e-05 -4.230880499632381e-05 3.38721835642079e-05 8.436621432115919e-06 5.535891401422675e-05 0.0 0.0
0.0 4.486488188998602e-06 -3.157321226651551e-07 2.520083831788903e-07 6.372373948624216e-08 5.418778462976067e-07 0.0 0.0
0.0 9.159772720464821e-07 5.630253742091469e-08 -4.5367008322703315e-08 -1.0935529098212496e-08 -1.5681455054918204e-07 0.0 0.0
0.0 0.0 0.0 0.0 0.0 0.0 0.0 0.0
0.0 0.0 0.0 0.0 0.0 0.0 0.0 0.0
0.0 0.0 0.0 0.0 0.0 0.0 0.0 0.0
0.0 0.0 0.0 0.0 0.0 0.0 0.0 0.0
0.0 0.0 0.0 0.0 0.0 0.0 0.0 0.0
0.0 4.365923059411557e-06 -9.777843578221157e-07 7.693219601905576e-07 2.0846239763157663e-07 -1.2931256859568068e-06 0.0 0.0
0.0 0.00015589736868124008 -9.859829530196415e-05 7.906111189014824e-05 1.9537183411816018e-05 -9.111858949469471e-05 0.0 0.0
0.0 0.0011128355347135013 -0.0008483184062144741 0.0006960187311865307 0.00015229967502794375 -0.0005236965608884459 0.0 0.0
0.0 0.0031704988036818163 -0.0027510466374142044 0.002367155413320245 0.0003838912240939603 -0.0013621523173520055 0.0 0.0
0.0 0.00670300110507529 -0.005867999574205202 0.005287287641302601 0.0005807119329026012 -0.0026176683737055696 0.0 0.0
0.0 0.011656084886688083 -0.01012348677324455 0.009408131325624337 0.00071535544762021 -0.004199595906204681 0.0 0.0
0.0 0.017830376915014916 -0.015428596992767272 0.014610429075610559 0.0008181679171567226 -0.005994488709139026 0.0 0.0
0.0 0.025131681722308886 -0.0216871036308082 0.020778441696136046 0.0009086619346721412 -0.007834612255147406 0.0 0.0
0.0 0.03350332078602453 -0.02886928397281855 0.027874558349924635 0.0009947256228939015 -0.009625442544177371 0.0 0.0
0.0 0.04298345323725535 -0.03702795848115467 0.03594988828545992 0.001078070195694741 -0.011424152477586406 0.0 0.0
0.0 0.05372776332361204 -0.04626073393736285 0.04510057759201918 0.0011601563453436602 -0.013284486057590958 0.0 0.0
0.0 0.06575815462988463 -0.05662253847861062 0.055379566012857075 0.0012429724657535626 -0.015196808748220329 0.0 0.0
0.0 0.0786281099876783 -0.06790527599552501 0.0665643419147642 0.0013409340807607791 -0.017226080395348547 0.0 0.0
0.0 0.09156372975654417 -0.07905201111782609 0.07757184948726235 0.0014801616305637273 -0.019959783612008737 0.0 0.0
0.0 0.10141555777009181 -0.08740634404304826 0.08574499286123512 0.0016613511818131166 -0.02440741491071081 0.0 0.0
0.0 0.1032402087066465 -0.08853483084639954 0.08667535426666423 0.0018594765797352911 -0.030878769189955437 0.0 0.0
0.0 0.09079310489455794 -0.07660681375378525 0.0745593450027551 0.002047468751030136 -0.03866649417495868 0.0 0.0
0.0 0.09079310489455672 -0.07660681375377965 0.07455934500274985 0.002047468751029815 0.038666494174993224 0.0 0.0
0.0 0.10324020870662731 -0.08853483084637917 0.08667535426664427 0.001859476579734925 0.030878769189994874 0.0 0.0
0.0 0.10141555777005418 -0.08740634404301367 0.08574499286120017 0.0016613511818134074 0.024407414910739264 0.0 0.0
0.0 0.09156372975649674 -0.07905201111778418 0.0775718494872209 0.0014801616305632774 0.01995978361201564 0.0 0.0
0.0 0.0786281099876231 -0.06790527599547705 0.06656434191471636 0.0013409340807606306 0.017226080395346382 0.0 0.0
0.0 0.06575815462982883 -0.056622538478561905 0.05537956601280931 0.0012429724657526016 0.015196808748214823 0.0 0.0
0.0 0.053727763323556534 -0.04626073393731443 0.045100577591972016 0.0011601563453423913 0.013284486057582506 0.0 0.0
0.0 0.042983453237201465 -0.03702795848110752 0.03594988828541411 0.0010780701956934263 0.011424152477576725 0.0 0.0
0.0 0.033503320785972256 -0.02886928397277262 0.027874558349879914 0.0009947256228927215 0.009625442544166123 0.0 0.0
0.0 0.025131681722258097 -0.02168710363076421 0.020778441696092602 0.0009086619346716011 0.007834612255130375 0.0 0.0
0.0 0.017830376914971545 -0.01542859699272975 0.01461042907557356 0.0008181679171561841 0.00599448870912259 0.0 0.0
0.0 0.011656084886654925 -0.010123486773215479 0.009408131325595821 0.0007153554476196547 0.004199595906193992 0.0 0.0
0.0 0.0067030011050516975 -0.005867999574184314 0.005287287641282619 0.0005807119329016928 0.00261766837369712 0.0 0.0
0.0 0.0031704988036674164 -0.002751046637401732 0.0023671554133089046 0.00038389122409282733 0.0013621523173460307 0.0 0.0
0.0 0.001112835534706603 -0.000848318406209556 0.000696018731182404 0.00015229967502715212 0.000523696560885562 0.0 0.0
0.0 0.00015589736867933316 -9.859829530137026e-05 7.906111188965998e-05 1.9537183411710115e-05 9.111858949420141e-05 0.0 0.0
0.0 4.365923058920323e-06 -9.777843580272401e-07 7.693219603516741e-07 2.0846239767557878e-07 1.293125686237362e-06 0.0 0.0
0.0 0.0 0.0 0.0 0.0 0.0 0.0 0.0
0.0 0.0 0.0 0.0 0.0 0.0 0.0 0.0
0.0 0.0 0.0 0.0 0.0 0.0 0.0 0.0
0.0 0.0 0.0 0.0 0.0 0.0 0.0 0.0
0.0 0.0 0.0 0.0 0.0 0.0 0.0 0.0
0.0 0.0 0.0 0.0 0.0 0.0 0.0 0.0
0.0 5.276362812742467e-06 -1.4547857918632344e-06 1.1521583544116793e-06 3.026274374515452e-07 -1.4023020980770562e-06 0.0 0.0
0.0 0.00031583169647485357 -0.0002163047501822347 0.00017337457166861602 4.293017851361864e-05 -0.0001267799140847138 0.0 0.0
0.0 0.0016751703929400075 -0.001361601993289514 0.001132573734782526 0.00022902825850698843 -0.0005518480058782938 0.0 0.0
0.0 0.004186929763729767 -0.003745594621219728 0.003280069587785504 0.0004655250334342231 -0.0012450980451752186 0.0 0.0
0.0 0.00833557641649602 -0.0073657698309674835 0.00672945977961115 0.000636310051356333 -0.002245723168990126 0.0 0.0
0.0 0.013984835358532254 -0.012248201703374628 0.011489256400410548 0.0007589453029640719 -0.003527340736283859 0.0 0.0
0.0 0.021035303533506952 -0.018332574222057526 0.017471885286928786 0.0008606889351287364 -0.00499151387388321 0.0 0.0
0.0 0.0294177210747269 -0.025541362478008506 0.02458529778526234 0.000956064692746166 -0.006499779921686228 0.0 0.0
0.0 0.039018405145897515 -0.03385540507930637 0.032806122372818124 0.0010492827064882348 -0.007965486844348302 0.0 0.0
0.0 0.0500620375620928 -0.04332101934219551 0.04217940273082432 0.0011416166113711614 -0.00944640892630687 0.0 0.0
0.0 0.06228714847650554 -0.05400256716912512 0.05276844162574673 0.0012341255433784052 -0.01102972706118982 0.0 0.0
0.0 0.07591821350123298 -0.06585970303779513 0.0645317316682244 0.001327971369570751 -0.01258512462882327 0.0 0.0
0.0 0.09059868744163106 -0.07860009338188052 0.07716958876382216 0.0014305046180583987 -0.013798998892230319 0.0 0.0
0.0 0.1051644544514916 -0.0912524457665285 0.0896858691049934 0.001566576661535046 -0.015027650876112252 0.0 0.0
0.0 0.11672627427472827 -0.10120057267466798 0.0994279041304619 0.001772668544206006 -0.0186106156543954 0.0 0.0
0.0 0.1197657643149671 -0.10337499337211417 0.10137289184343717 0.0020021015286770015 -0.02738695393853721 0.0 0.0
0.0 0.1072675675194549 -0.09090084353891247 0.08869006982231949 0.0022107737165929747 -0.042088361544361914 0.0 0.0
0.0 0.1072675675194506 -0.09090084353890537 0.08869006982231306 0.0022107737165923762 0.04208836154438838 0.0 0.0
0.0 0.1197657643149426 -0.10337499337209027 0.10137289184341408 0.0020021015286761867 0.027386953938570803 0.0 0.0
0.0 0.11672627427468682 -0.10120057267463026 0.0994279041304253 0.0017726685442049101 0.018610615654422066 0.0 0.0
0.0 0.10516445445143856 -0.09125244576648178 0.08968586910494783 0.001566576661533959 0.01502765087611762 0.0 0.0
0.0 0.09059868744156913 -0.07860009338182639 0.07716958876376903 0.0014305046180573785 0.013798998892229724 0.0 0.0
0.0 0.07591821350116797 -0.06585970303773836 0.06453173166816839 0.0013279713695700125 0.012585124628822018 0.0 0.0
0.0 0.06228714847644108 -0.0540025671690691 0.05276844162569137 0.001234125543377713 0.011029727061183521 0.0 0.0
0.0 0.05006203756202617 -0.04332101934213753 0.042179402730767104 0.0011416166113704467 0.009446408926298104 0.0 0.0
0.0 0.039018405145832324 -0.033855405079249765 0.032806122372762016 0.001049282706487745 0.007965486844340584 0.0 0.0
0.0 0.029417721074667752 -0.025541362477956863 0.024585297785211194 0.0009560646927456629 0.006499779921672409 0.0 0.0
0.0 0.021035303533458068 -0.018332574222014904 0.01747188528688655 0.000860688935128358 0.004991513873869184 0.0 0.0
0.0 0.013984835358494369 -0.01224820170334123 0.011489256400377774 0.0007589453029634597 0.0035273407362747177 0.0 0.0
0.0 0.008335576416469054 -0.0073657698309433865 0.006729459779587902 0.0006363100513554842 0.002245723168982918 0.0 0.0
0.0 0.004186929763711901 -0.0037455946212036255 0.0032800695877705332 0.0004655250334330924 0.001245098045169775 0.0 0.0
0.0 0.0016751703929307098 -0.001361601993281845 0.001132573734775914 0.00022902825850593036 0.0005518480058751855 0.0 0.0
0.0 0.0003158316964714693 -0.00021630475018020808 0.00017337457166695467 4.293017851325349e-05 0.0001267799140835919 0.0 0.0
0.0 5.276362812225787e-06 -1.4547857921280842e-06 1.1521583546199664e-06 3.026274375081259e-07 1.4023020983361494e-06 0.0 0.0
0.0 0.0 0.0 0.0 0.0 0.0 0.0 0.0
0.0 0.0 0.0 0.0 0.0 0.0 0.0 0.0
0.0 0.0 0.0 0.0 0.0 0.0 0.0 0.0
0.0 0.0 0.0 0.0 0.0 0.0 0.0 0.0
0.0 0.0 0.0 0.0 0.0 0.0 0.0 0.0
0.0 0.0 0.0 0.0 0.0 0.0 0.0 0.0
0.0 1.273904650126539e-05 -3.7979413126452685e-06 3.0461364993295728e-06 7.518048133157247e-07 -2.457485623935311e-06 0.0 0.0
0.0 0.000597356764135236 -0.0004253953491643945 0.0003435434426830665 8.185190648132804e-05 -0.00014279464406118558 0.0 0.0
0.0 0.0021868340345477942 -0.0019997111893759042 0.0016873190196228668 0.0003123921697530367 -0.0004609359235875005 0.0 0.0
0.0 0.005317236594970381 -0.004781324255170871 0.004252973606556956 0.0005283506486139155 -0.0009269623789102844 0.0 0.0
0.0 0.01000392396950666 -0.008881889743489215 0.008202245298793803 0.000679644444695416 -0.0015986368054100274 0.0 0.0
0.0 0.01633450266681741 -0.014371666521097682 0.013578025769096128 0.00079364075200155 -0.0024769204655566974 0.0 0.0
0.0 0.024252024042602748 -0.021225025226601045 0.02032818604691696 0.0008968391796840782 -0.003497619964341633 0.0 0.0
0.0 0.033696803351486865 -0.02938456455847934 0.028386286255277844 0.0009982783032015058 -0.004548893679482399 0.0 0.0
0.0 0.04469612901391351 -0.03883641282130003 0.037737167973372614 0.001099244847927398 -0.005571798473036337 0.0 0.0
0.0 0.05700337697815693 -0.049622060690405395 0.04842129743455545 0.001200763255849926 -0.006639652770544227 0.0 0.0
0.0 0.0709200562168824 -0.06174426636758828 0.06043989784516708 0.0013043685224211775 -0.007772912441942214 0.0 0.0
0.0 0.08625751042937096 -0.07504731895942744 0.0736355809986534 0.0014117379607740317 -0.008822333606875808 0.0 0.0
0.0 0.10239713577124586 -0.08907009403097367 0.08754665980456622 0.001523434226407452 -0.009406308247216248 0.0 0.0
0.0 0.11822632217760964 -0.10284676008787756 0.10119898225317407 0.001647777834703568 -0.00923670979720227 0.0 0.0
0.0 0.13144047387310845 -0.11430999978689622 0.11248472621431323 0.0018252735725830013 -0.010422479688729672 0.0 0.0
0.0 0.13676599562328268 -0.1185561084254057 0.11641211732216714 0.0021439911032384963 -0.020430476839170635 0.0 0.0
0.0 0.12526273237027438 -0.10658210872501614 0.10417961587659015 0.0024024928484259658 -0.04431469264563328 0.0 0.0
0.0 0.12526273237026467 -0.10658210872500601 0.10417961587657952 0.0024024928484264983 0.04431469264565233 0.0 0.0
0.0 0.1367659956232506 -0.11855610842537723 0.11641211732213781 0.0021439911032393785 0.020430476839196278 0.0 0.0
0.0 0.13144047387305544 -0.11430999978685041 0.11248472621426635 0.0018252735725840497 0.010422479688748109 0.0 0.0
0.0 0.11822632217754492 -0.10284676008782152 0.10119898225311795 0.0016477778347035678 0.009236709797203969 0.0 0.0
0.0 0.102397135771176 -0.08907009403091284 0.08754665980450631 0.0015234342264065063 0.009406308247214175 0.0 0.0
0.0 0.0862575104292975 -0.07504731895936341 0.0736355809985902 0.0014117379607732018 0.008822333606875597 0.0 0.0
0.0 0.07092005621680891 -0.06174426636752438 0.060439897845104076 0.0013043685224202834 0.007772912441937928 0.0 0.0
0.0 0.05700337697808411 -0.049622060690342196 0.04842129743449282 0.0012007632558493904 0.00663965277053747 0.0 0.0
0.0 0.044696129013842845 -0.038836412821238384 0.03773716797331147 0.0010992448479269022 0.005571798473031686 0.0 0.0
0.0 0.033696803351422805 -0.029384564558423525 0.02838628625522283 0.0009982783032006746 0.004548893679472395 0.0 0.0
0.0 0.024252024042548913 -0.021225025226553913 0.02032818604687062 0.0008968391796832998 0.003497619964331582 0.0 0.0
0.0 0.016334502666776815 -0.014371666521061486 0.013578025769060677 0.0007936407520008099 0.002476920465551356 0.0 0.0
0.0 0.01000392396947471 -0.00888188974346059 0.00820224529876614 0.0006796444446944464 0.0015986368054049117 0.0 0.0
0.0 0.005317236594950096 -0.00478132425515232 0.004252973606539418 0.0005283506486129008 0.0009269623789064654 0.0 0.0
0.0 0.002186834034537595 -0.0019997111893664985 0.0016873190196145303 0.0003123921697519687 0.000460935923585377 0.0 0.0
0.0 0.0005973567641305106 -0.00042539534916107046 0.0003435434426803458 8.185190648072447e-05 0.00014279464406030977 0.0 0.0
0.0 1.2739046500447816e-05 -3.797941312785305e-06 3.046136499436644e-06 7.518048133486139e-07 2.4574856240179365e-06 0.0 0.0
0.0 0.0 0.0 0.0 0.0 0.0 0.0 0.0
0.0 0.0 0.0 0.0 0.0 0.0 0.0 0.0
0.0 0.0 0.0 0.0 0.0 0.0 0.0 0.0
0.0 0.0 0.0 0.0 0.0 0.0 0.0 0.0
0.0 0.0 0.0 0.0 0.0 0.0 0.0 0.0
0.0 0.0 0.0 0.0 0.0 0.0 0.0 0.0
0.0 4.6124843319022824e-05 -2.9000969717365546e-05 2.2888709546413505e-05 6.112260170952187e-06 -7.945861451349225e-06 0.0 0.0
0.0 0.0010133715043492424 -0.0007317818253778873 0.0005959178535566636 0.00013586397182122344 -9.689695549573573e-05 0.0 0.0
0.0 0.0029327443969173507 -0.0026821682394945028 0.0022962961640480193 0.0003858720754464838 -0.00022150278624744537 0.0 0.0
0.0 0.006488872693708726 -0.005841756218767615 0.005263661058428644 0.0005780951603389689 -0.0004108269469832003 0.0 0.0
0.0 0.011709773101247507 -0.01039555489395638 0.009682377601478949 0.0007131772924774272 -0.0006805253844358471 0.0 0.0
0.0 0.018711023198015982 -0.01647260648163838 0.015650287730643687 0.0008223187509946939 -0.0010565692802539397 0.0 0.0
0.0 0.027511332744240034 -0.02408302974676937 0.023154940668897013 0.0009280890778723611 -0.0015121461986622592 0.0 0.0
0.0 0.038096017664484096 -0.03319589076968796 0.03216016512793497 0.001035725641752975 -0.0019860975357385833 0.0 0.0
0.0 0.050167409965519105 -0.043801239685055296 0.04265591163288486 0.0011453280521704187 -0.002469112828937554 0.0 0.0
0.0 0.06403164393620467 -0.055896785534801964 0.05464063372277489 0.0012561518120270637 -0.002968820373764166 0.0 0.0
0.0 0.07963170134179977 -0.06943658669610345 0.06806598684376983 0.0013705998523335934 -0.003468243135320165 0.0 0.0
0.0 0.09659916250329527 -0.08416210034513119 0.0826706982199219 0.0014914021252093097 -0.0038875352709705113 0.0 0.0
0.0 0.11418119181203455 -0.09940137087968956 0.09778374029047021 0.001617630589219313 -0.0039776423695632255 0.0 0.0
0.0 0.13098739088396522 -0.11397781401007788 0.11223453004544617 0.0017432839646316473 -0.003335845769302824 0.0 0.0
0.0 0.14501017332414617 -0.12617803870415917 0.12430587755083514 0.0018721611533240134 -0.002106845770615419 0.0 0.0
0.0 0.15300393964772077 -0.13300378660431592 0.1309256271647775 0.0020781594395383515 -0.0070913762319139715 0.0 0.0
0.0 0.14616916684743303 -0.12524677347511376 0.12247940323733914 0.0027673702377745938 -0.04095443216723425 0.0 0.0
0.0 0.14616916684742023 -0.12524677347510216 0.12247940323732731 0.0027673702377748223 0.040954432167240866 0.0 0.0
0.0 0.15300393964768663 -0.1330037866042859 0.13092562716474807 0.0020781594395377573 0.007091376231926662 0.0 0.0
0.0 0.14501017332409027 -0.1261780387041102 0.12430587755078752 0.0018721611533226484 0.002106845770624593 0.0 0.0
0.0 0.13098739088389527 -0.11397781401001669 0.11223453004538636 0.001743283964630295 0.0033358457693021676 0.0 0.0
0.0 0.11418119181195782 -0.0994013708796227 0.0977837402904044 0.0016176305892182574 0.003977642369562537 0.0 0.0
0.0 0.09659916250321507 -0.08416210034506133 0.08267069821985298 0.0014914021252083012 0.0038875352709703812 0.0 0.0
0.0 0.07963170134171466 -0.06943658669602978 0.06806598684369641 0.0013705998523333308 0.003468243135318306 0.0 0.0
0.0 0.0640316439361204 -0.05589678553472884 0.054640633722702274 0.001256151812026532 0.0029688203737622126 0.0 0.0
0.0 0.0501674099654418 -0.043801239684987794 0.0426559116328186 0.0011453280521691654 0.0024691128289357073 0.0 0.0
0.0 0.03809601766441339 -0.03319589076962626 0.032160165127874105 0.0010357256417521474 0.0019860975357327633 0.0 0.0
0.0 0.027511332744180324 -0.024083029746717586 0.023154940668845724 0.0009280890778718637 0.0015121461986572554 0.0 0.0
0.0 0.018711023197969048 -0.016472606481596944 0.015650287730602928 0.0008223187509940185 0.0010565692802520497 0.0 0.0
0.0 0.011709773101213301 -0.010395554893925787 0.009682377601448806 0.0007131772924769805 0.0006805253844332883 0.0 0.0
0.0 0.0064888726936869565 -0.0058417562187478185 0.005263661058409631 0.0005780951603381878 0.00041082694698200745 0.0 0.0
0.0 0.0029327443969040935 -0.002682168239481971 0.002296296164036586 0.00038587207544538474 0.00022150278624643595 0.0 0.0
0.0 0.0010133715043428213 -0.0007317818253730482 0.0005959178535526025 0.00013586397182044628 9.689695549524681e-05 0.0 0.0
0.0 4.612484331822678e-05 -2.9000969717340125e-05 2.2888709546379295e-05 6.1122601709608115e-06 7.94586145129101e-06 0.0 0.0
0.0 0.0 0.0 0.0 0.0 0.0 0.0 0.0
0.0 0.0 0.0 0.0 0.0 0.0 0.0 0.0
0.0 0.0 0.0 0.0 0.0 0.0 0.0 0.0