# vtk DataFile Version 3.0
Some data
ASCII
DATASET UNSTRUCTURED_GRID
POINTS 861 float
0.0 0.0 0.0
0.4 0.0 0.0
0.8 0.0 0.0
1.2000000000000002 0.0 0.0
1.6 0.0 0.0
2.0 0.0 0.0
2.4000000000000004 0.0 0.0
2.8000000000000003 0.0 0.0
3.2 0.0 0.0
3.6 0.0 0.0
4.0 0.0 0.0
4.4 0.0 0.0
4.800000000000001 0.0 0.0
5.2 0.0 0.0
5.6000000000000005 0.0 0.0
6.0 0.0 0.0
6.4 0.0 0.0
6.800000000000001 0.0 0.0
7.2 0.0 0.0
7.6000000000000005 0.0 0.0
8.0 0.0 0.0
8.4 0.0 0.0
8.8 0.0 0.0
9.200000000000001 0.0 0.0
9.600000000000001 0.0 0.0
10.0 0.0 0.0
10.4 0.0 0.0
10.8 0.0 0.0
11.200000000000001 0.0 0.0
11.600000000000001 0.0 0.0
12.0 0.0 0.0
12.4 0.0 0.0
12.8 0.0 0.0
13.200000000000001 0.0 0.0
13.600000000000001 0.0 0.0
14.0 0.0 0.0
14.4 0.0 0.0
14.8 0.0 0.0
15.200000000000001 0.0 0.0
15.600000000000001 0.0 0.0
16.0 0.0 0.0
0.0 0.1 0.0
0.4 0.1 0.0
0.8 0.1 0.0
1.2000000000000002 0.1 0.0
1.6 0.1 0.0
2.0 0.1 0.0
2.4000000000000004 0.1 0.0
2.8000000000000003 0.1 0.0
3.2 0.1 0.0
3.6 0.1 0.0
4.0 0.1 0.0
4.4 0.1 0.0
4.800000000000001 0.1 0.0
5.2 0.1 0.0
5.6000000000000005 0.1 0.0
6.0 0.1 0.0
6.4 0.1 0.0
6.800000000000001 0.1 0.0
7.2 0.1 0.0
7.6000000000000005 0.1 0.0
8.0 0.1 0.0
8.4 0.1 0.0
8.8 0.1 0.0
9.200000000000001 0.1 0.0
9.600000000000001 0.1 0.0
10.0 0.1 0.0
10.4 0.1 0.0
10.8 0.1 0.0
11.200000000000001 0.1 0.0
11.600000000000001 0.1 0.0
12.0 0.1 0.0
12.4 0.1 0.0
12.8 0.1 0.0
13.200000000000001 0.1 0.0
13.600000000000001 0.1 0.0
14.0 0.1 0.0
14.4 0.1 0.0
14.8 0.1 0.0
15.200000000000001 0.1 0.0
15.600000000000001 0.1 0.0
16.0 0.1 0.0
0.0 0.2 0.0
0.4 0.2 0.0
0.8 0.2 0.0
1.2000000000000002 0.2 0.0
1.6 0.2 0.0
2.0 0.2 0.0
2.4000000000000004 0.2 0.0
2.8000000000000003 0.2 0.0
3.2 0.2 0.0
3.6 0.2 0.0
4.0 0.2 0.0
4.4 0.2 0.0
4.800000000000001 0.2 0.0
5.2 0.2 0.0
5.6000000000000005 0.2 0.0
6.0 0.2 0.0
6.4 0.2 0.0
6.800000000000001 0.2 0.0
7.2 0.2 0.0
7.6000000000000005 0.2 0.0
8.0 0.2 0.0
8.4 0.2 0.0
8.8 0.2 0.0
9.200000000000001 0.2 0.0
9.600000000000001 0.2 0.0
10.0 0.2 0.0
10.4 0.2 0.0
10.8 0.2 0.0
11.200000000000001 0.2 0.0
11.600000000000001 0.2 0.0
12.0 0.2 0.0
12.4 0.2 0.0
12.8 0.2 0.0
13.200000000000001 0.2 0.0
13.600000000000001 0.2 0.0
14.0 0.2 0.0
14.4 0.2 0.0
14.8 0.2 0.0
15.200000000000001 0.2 0.0
15.600000000000001 0.2 0.0
16.0 0.2 0.0
0.0 0.30000000000000004 0.0
0.4 0.30000000000000004 0.0
0.8 0.30000000000000004 0.0
1.2000000000000002 0.30000000000000004 0.0
1.6 0.30000000000000004 0.0
2.0 0.30000000000000004 0.0
2.4000000000000004 0.30000000000000004 0.0
2.8000000000000003 0.30000000000000004 0.0
3.2 0.30000000000000004 0.0
3.6 0.30000000000000004 0.0
4.0 0.30000000000000004 0.0
4.4 0.30000000000000004 0.0
4.800000000000001 0.30000000000000004 0.0
5.2 0.30000000000000004 0.0
5.6000000000000005 0.30000000000000004 0.0
6.0 0.30000000000000004 0.0
6.4 0.30000000000000004 0.0
6.800000000000001 0.30000000000000004 0.0
7.2 0.30000000000000004 0.0
7.6000000000000005 0.30000000000000004 0.0
8.0 0.30000000000000004 0.0
8.4 0.30000000000000004 0.0
8.8 0.30000000000000004 0.0
9.200000000000001 0.30000000000000004 0.0
9.600000000000001 0.30000000000000004 0.0
10.0 0.30000000000000004 0.0
10.4 0.30000000000000004 0.0
10.8 0.30000000000000004 0.0
11.200000000000001 0.30000000000000004 0.0
11.600000000000001 0.30000000000000004 0.0
12.0 0.30000000000000004 0.0
12.4 0.30000000000000004 0.0
12.8 0.30000000000000004 0.0
13.200000000000001 0.30000000000000004 0.0
13.600000000000001 0.30000000000000004 0.0
14.0 0.30000000000000004 0.0
14.4 0.30000000000000004 0.0
14.8 0.30000000000000004 0.0
15.200000000000001 0.30000000000000004 0.0
15.600000000000001 0.30000000000000004 0.0
16.0 0.30000000000000004 0.0
0.0 0.4 0.0
0.4 0.4 0.0
0.8 0.4 0.0
1.2000000000000002 0.4 0.0
1.6 0.4 0.0
2.0 0.4 0.0
2.4000000000000004 0.4 0.0
2.8000000000000003 0.4 0.0
3.2 0.4 0.0
3.6 0.4 0.0
4.0 0.4 0.0
4.4 0.4 0.0
4.800000000000001 0.4 0.0
5.2 0.4 0.0
5.6000000000000005 0.4 0.0
6.0 0.4 0.0
6.4 0.4 0.0
6.800000000000001 0.4 0.0
7.2 0.4 0.0
7.6000000000000005 0.4 0.0
8.0 0.4 0.0
8.4 0.4 0.0
8.8 0.4 0.0
9.200000000000001 0.4 0.0
9.600000000000001 0.4 0.0
10.0 0.4 0.0
10.4 0.4 0.0
10.8 0.4 0.0
11.200000000000001 0.4 0.0
11.600000000000001 0.4 0.0
12.0 0.4 0.0
12.4 0.4 0.0
12.8 0.4 0.0
13.200000000000001 0.4 0.0
13.600000000000001 0.4 0.0
14.0 0.4 0.0
14.4 0.4 0.0
14.8 0.4 0.0
15.200000000000001 0.4 0.0
15.600000000000001 0.4 0.0
16.0 0.4 0.0
0.0 0.5 0.0
0.4 0.5 0.0
0.8 0.5 0.0
1.2000000000000002 0.5 0.0
1.6 0.5 0.0
2.0 0.5 0.0
2.4000000000000004 0.5 0.0
2.8000000000000003 0.5 0.0
3.2 0.5 0.0
3.6 0.5 0.0
4.0 0.5 0.0
4.4 0.5 0.0
4.800000000000001 0.5 0.0
5.2 0.5 0.0
5.6000000000000005 0.5 0.0
6.0 0.5 0.0
6.4 0.5 0.0
6.800000000000001 0.5 0.0
7.2 0.5 0.0
7.6000000000000005 0.5 0.0
8.0 0.5 0.0
8.4 0.5 0.0
8.8 0.5 0.0
9.200000000000001 0.5 0.0
9.600000000000001 0.5 0.0
10.0 0.5 0.0
10.4 0.5 0.0
10.8 0.5 0.0
11.200000000000001 0.5 0.0
11.600000000000001 0.5 0.0
12.0 0.5 0.0
12.4 0.5 0.0
12.8 0.5 0.0
13.200000000000001 0.5 0.0
13.600000000000001 0.5 0.0
14.0 0.5 0.0
14.4 0.5 0.0
14.8 0.5 0.0
15.200000000000001 0.5 0.0
15.600000000000001 0.5 0.0
16.0 0.5 0.0
0.0 0.6000000000000001 0.0
0.4 0.6000000000000001 0.0
0.8 0.6000000000000001 0.0
1.2000000000000002 0.6000000000000001 0.0
1.6 0.6000000000000001 0.0
2.0 0.6000000000000001 0.0
2.4000000000000004 0.6000000000000001 0.0
2.8000000000000003 0.6000000000000001 0.0
3.2 0.6000000000000001 0.0
3.6 0.6000000000000001 0.0
4.0 0.6000000000000001 0.0
4.4 0.6000000000000001 0.0
4.800000000000001 0.6000000000000001 0.0
5.2 0.6000000000000001 0.0
5.6000000000000005 0.6000000000000001 0.0
6.0 0.6000000000000001 0.0
6.4 0.6000000000000001 0.0
6.800000000000001 0.6000000000000001 0.0
7.2 0.6000000000000001 0.0
7.6000000000000005 0.6000000000000001 0.0
8.0 0.6000000000000001 0.0
8.4 0.6000000000000001 0.0
8.8 0.6000000000000001 0.0
9.200000000000001 0.6000000000000001 0.0
9.600000000000001 0.6000000000000001 0.0
10.0 0.6000000000000001 0.0
10.4 0.6000000000000001 0.0
10.8 0.6000000000000001 0.0
11.200000000000001 0.6000000000000001 0.0
11.600000000000001 0.6000000000000001 0.0
12.0 0.6000000000000001 0.0
12.4 0.6000000000000001 0.0
12.8 0.6000000000000001 0.0
13.200000000000001 0.6000000000000001 0.0
13.600000000000001 0.6000000000000001 0.0
14.0 0.6000000000000001 0.0
14.4 0.6000000000000001 0.0
14.8 0.6000000000000001 0.0
15.200000000000001 0.6000000000000001 0.0
15.600000000000001 0.6000000000000001 0.0
16.0 0.6000000000000001 0.0
0.0 0.7000000000000001 0.0
0.4 0.7000000000000001 0.0
0.8 0.7000000000000001 0.0
1.2000000000000002 0.7000000000000001 0.0
1.6 0.7000000000000001 0.0
2.0 0.7000000000000001 0.0
2.4000000000000004 0.7000000000000001 0.0
2.8000000000000003 0.7000000000000001 0.0
3.2 0.7000000000000001 0.0
3.6 0.7000000000000001 0.0
4.0 0.7000000000000001 0.0
4.4 0.7000000000000001 0.0
4.800000000000001 0.7000000000000001 0.0
5.2 0.7000000000000001 0.0
5.6000000000000005 0.7000000000000001 0.0
6.0 0.7000000000000001 0.0
6.4 0.7000000000000001 0.0
6.800000000000001 0.7000000000000001 0.0
7.2 0.7000000000000001 0.0
7.6000000000000005 0.7000000000000001 0.0
8.0 0.7000000000000001 0.0
8.4 0.7000000000000001 0.0
8.8 0.7000000000000001 0.0
9.200000000000001 0.7000000000000001 0.0
9.600000000000001 0.7000000000000001 0.0
10.0 0.7000000000000001 0.0
10.4 0.7000000000000001 0.0
10.8 0.7000000000000001 0.0
11.200000000000001 0.7000000000000001 0.0
11.600000000000001 0.7000000000000001 0.0
12.0 0.7000000000000001 0.0
12.4 0.7000000000000001 0.0
12.8 0.7000000000000001 0.0
13.200000000000001 0.7000000000000001 0.0
13.600000000000001 0.7000000000000001 0.0
14.0 0.7000000000000001 0.0
14.4 0.7000000000000001 0.0
14.8 0.7000000000000001 0.0
15.200000000000001 0.7000000000000001 0.0
15.600000000000001 0.7000000000000001 0.0
16.0 0.7000000000000001 0.0
0.0 0.8 0.0
0.4 0.8 0.0
0.8 0.8 0.0
1.2000000000000002 0.8 0.0
1.6 0.8 0.0
2.0 0.8 0.0
2.4000000000000004 0.8 0.0
2.8000000000000003 0.8 0.0
3.2 0.8 0.0
3.6 0.8 0.0
4.0 0.8 0.0
4.4 0.8 0.0
4.800000000000001 0.8 0.0
5.2 0.8 0.0
5.6000000000000005 0.8 0.0
6.0 0.8 0.0
6.4 0.8 0.0
6.800000000000001 0.8 0.0
7.2 0.8 0.0
7.6000000000000005 0.8 0.0
8.0 0.8 0.0
8.4 0.8 0.0
8.8 0.8 0.0
9.200000000000001 0.8 0.0
9.600000000000001 0.8 0.0
10.0 0.8 0.0
10.4 0.8 0.0
10.8 0.8 0.0
11.200000000000001 0.8 0.0
11.600000000000001 0.8 0.0
12.0 0.8 0.0
12.4 0.8 0.0
12.8 0.8 0.0
13.200000000000001 0.8 0.0
13.600000000000001 0.8 0.0
14.0 0.8 0.0
14.4 0.8 0.0
14.8 0.8 0.0
15.200000000000001 0.8 0.0
15.600000000000001 0.8 0.0
16.0 0.8 0.0
0.0 0.9 0.0
0.4 0.9 0.0
0.8 0.9 0.0
1.2000000000000002 0.9 0.0
1.6 0.9 0.0
2.0 0.9 0.0
2.4000000000000004 0.9 0.0
2.8000000000000003 0.9 0.0
3.2 0.9 0.0
3.6 0.9 0.0
4.0 0.9 0.0
4.4 0.9 0.0
4.800000000000001 0.9 0.0
5.2 0.9 0.0
5.6000000000000005 0.9 0.0
6.0 0.9 0.0
6.4 0.9 0.0
6.800000000000001 0.9 0.0
7.2 0.9 0.0
7.6000000000000005 0.9 0.0
8.0 0.9 0.0
8.4 0.9 0.0
8.8 0.9 0.0
9.200000000000001 0.9 0.0
9.600000000000001 0.9 0.0
10.0 0.9 0.0
10.4 0.9 0.0
10.8 0.9 0.0
11.200000000000001 0.9 0.0
11.600000000000001 0.9 0.0
12.0 0.9 0.0
12.4 0.9 0.0
12.8 0.9 0.0
13.200000000000001 0.9 0.0
13.600000000000001 0.9 0.0
14.0 0.9 0.0
14.4 0.9 0.0
14.8 0.9 0.0
15.200000000000001 0.9 0.0
15.600000000000001 0.9 0.0
16.0 0.9 0.0
0.0 1.0 0.0
0.4 1.0 0.0
0.8 1.0 0.0
1.2000000000000002 1.0 0.0
1.6 1.0 0.0
2.0 1.0 0.0
2.4000000000000004 1.0 0.0
2.8000000000000003 1.0 0.0
3.2 1.0 0.0
3.6 1.0 0.0
4.0 1.0 0.0
4.4 1.0 0.0
4.800000000000001 1.0 0.0
5.2 1.0 0.0
5.6000000000000005 1.0 0.0
6.0 1.0 0.0
6.4 1.0 0.0
6.800000000000001 1.0 0.0
7.2 1.0 0.0
7.6000000000000005 1.0 0.0
8.0 1.0 0.0
8.4 1.0 0.0
8.8 1.0 0.0
9.200000000000001 1.0 0.0
9.600000000000001 1.0 0.0
10.0 1.0 0.0
10.4 1.0 0.0
10.8 1.0 0.0
11.200000000000001 1.0 0.0
11.600000000000001 1.0 0.0
12.0 1.0 0.0
12.4 1.0 0.0
12.8 1.0 0.0
13.200000000000001 1.0 0.0
13.600000000000001 1.0 0.0
14.0 1.0 0.0
14.4 1.0 0.0
14.8 1.0 0.0
15.200000000000001 1.0 0.0
15.600000000000001 1.0 0.0
16.0 1.0 0.0
0.0 1.1 0.0
0.4 1.1 0.0
0.8 1.1 0.0
1.2000000000000002 1.1 0.0
1.6 1.1 0.0
2.0 1.1 0.0
2.4000000000000004 1.1 0.0
2.8000000000000003 1.1 0.0
3.2 1.1 0.0
3.6 1.1 0.0
4.0 1.1 0.0
4.4 1.1 0.0
4.800000000000001 1.1 0.0
5.2 1.1 0.0
5.6000000000000005 1.1 0.0
6.0 1.1 0.0
6.4 1.1 0.0
6.800000000000001 1.1 0.0
7.2 1.1 0.0
7.6000000000000005 1.1 0.0
8.0 1.1 0.0
8.4 1.1 0.0
8.8 1.1 0.0
9.200000000000001 1.1 0.0
9.600000000000001 1.1 0.0
10.0 1.1 0.0
10.4 1.1 0.0
10.8 1.1 0.0
11.200000000000001 1.1 0.0
11.600000000000001 1.1 0.0
12.0 1.1 0.0
12.4 1.1 0.0
12.8 1.1 0.0
13.200000000000001 1.1 0.0
13.600000000000001 1.1 0.0
14.0 1.1 0.0
14.4 1.1 0.0
14.8 1.1 0.0
15.200000000000001 1.1 0.0
15.600000000000001 1.1 0.0
16.0 1.1 0.0
0.0 1.2000000000000002 0.0
0.4 1.2000000000000002 0.0
0.8 1.2000000000000002 0.0
1.2000000000000002 1.2000000000000002 0.0
1.6 1.2000000000000002 0.0
2.0 1.2000000000000002 0.0
2.4000000000000004 1.2000000000000002 0.0
2.8000000000000003 1.2000000000000002 0.0
3.2 1.2000000000000002 0.0
3.6 1.2000000000000002 0.0
4.0 1.2000000000000002 0.0
4.4 1.2000000000000002 0.0
4.800000000000001 1.2000000000000002 0.0
5.2 1.2000000000000002 0.0
5.6000000000000005 1.2000000000000002 0.0
6.0 1.2000000000000002 0.0
6.4 1.2000000000000002 0.0
6.800000000000001 1.2000000000000002 0.0
7.2 1.2000000000000002 0.0
7.6000000000000005 1.2000000000000002 0.0
8.0 1.2000000000000002 0.0
8.4 1.2000000000000002 0.0
8.8 1.2000000000000002 0.0
9.200000000000001 1.2000000000000002 0.0
9.600000000000001 1.2000000000000002 0.0
10.0 1.2000000000000002 0.0
10.4 1.2000000000000002 0.0
10.8 1.2000000000000002 0.0
11.200000000000001 1.2000000000000002 0.0
11.600000000000001 1.2000000000000002 0.0
12.0 1.2000000000000002 0.0
12.4 1.2000000000000002 0.0
12.8 1.2000000000000002 0.0
13.200000000000001 1.2000000000000002 0.0
13.600000000000001 1.2000000000000002 0.0
14.0 1.2000000000000002 0.0
14.4 1.2000000000000002 0.0
14.8 1.2000000000000002 0.0
15.200000000000001 1.2000000000000002 0.0
15.600000000000001 1.2000000000000002 0.0
16.0 1.2000000000000002 0.0
0.0 1.3 0.0
0.4 1.3 0.0
0.8 1.3 0.0
1.2000000000000002 1.3 0.0
1.6 1.3 0.0
2.0 1.3 0.0
2.4000000000000004 1.3 0.0
2.8000000000000003 1.3 0.0
3.2 1.3 0.0
3.6 1.3 0.0
4.0 1.3 0.0
4.4 1.3 0.0
4.800000000000001 1.3 0.0
5.2 1.3 0.0
5.6000000000000005 1.3 0.0
6.0 1.3 0.0
6.4 1.3 0.0
6.800000000000001 1.3 0.0
7.2 1.3 0.0
7.6000000000000005 1.3 0.0
8.0 1.3 0.0
8.4 1.3 0.0
8.8 1.3 0.0
9.200000000000001 1.3 0.0
9.600000000000001 1.3 0.0
10.0 1.3 0.0
10.4 1.3 0.0
10.8 1.3 0.0
11.200000000000001 1.3 0.0
11.600000000000001 1.3 0.0
12.0 1.3 0.0
12.4 1.3 0.0
12.8 1.3 0.0
13.200000000000001 1.3 0.0
13.600000000000001 1.3 0.0
14.0 1.3 0.0
14.4 1.3 0.0
14.8 1.3 0.0
15.200000000000001 1.3 0.0
15.600000000000001 1.3 0.0
16.0 1.3 0.0
0.0 1.4000000000000001 0.0
0.4 1.4000000000000001 0.0
0.8 1.4000000000000001 0.0
1.2000000000000002 1.4000000000000001 0.0
1.6 1.4000000000000001 0.0
2.0 1.4000000000000001 0.0
2.4000000000000004 1.4000000000000001 0.0
2.8000000000000003 1.4000000000000001 0.0
3.2 1.4000000000000001 0.0
3.6 1.4000000000000001 0.0
4.0 1.4000000000000001 0.0
4.4 1.4000000000000001 0.0
4.800000000000001 1.4000000000000001 0.0
5.2 1.4000000000000001 0.0
5.6000000000000005 1.4000000000000001 0.0
6.0 1.4000000000000001 0.0
6.4 1.4000000000000001 0.0
6.800000000000001 1.4000000000000001 0.0
7.2 1.4000000000000001 0.0
7.6000000000000005 1.4000000000000001 0.0
8.0 1.4000000000000001 0.0
8.4 1.4000000000000001 0.0
8.8 1.4000000000000001 0.0
9.200000000000001 1.4000000000000001 0.0
9.600000000000001 1.4000000000000001 0.0
10.0 1.4000000000000001 0.0
10.4 1.4000000000000001 0.0
10.8 1.4000000000000001 0.0
11.200000000000001 1.4000000000000001 0.0
11.600000000000001 1.4000000000000001 0.0
12.0 1.4000000000000001 0.0
12.4 1.4000000000000001 0.0
12.8 1.4000000000000001 0.0
13.200000000000001 1.4000000000000001 0.0
13.600000000000001 1.4000000000000001 0.0
14.0 1.4000000000000001 0.0
14.4 1.4000000000000001 0.0
14.8 1.4000000000000001 0.0
15.200000000000001 1.4000000000000001 0.0
15.600000000000001 1.4000000000000001 0.0
16.0 1.4000000000000001 0.0
0.0 1.5 0.0
0.4 1.5 0.0
0.8 1.5 0.0
1.2000000000000002 1.5 0.0
1.6 1.5 0.0
2.0 1.5 0.0
2.4000000000000004 1.5 0.0
2.8000000000000003 1.5 0.0
3.2 1.5 0.0
3.6 1.5 0.0
4.0 1.5 0.0
4.4 1.5 0.0
4.800000000000001 1.5 0.0
5.2 1.5 0.0
5.6000000000000005 1.5 0.0
6.0 1.5 0.0
6.4 1.5 0.0
6.800000000000001 1.5 0.0
7.2 1.5 0.0
7.6000000000000005 1.5 0.0
8.0 1.5 0.0
8.4 1.5 0.0
8.8 1.5 0.0
9.200000000000001 1.5 0.0
9.600000000000001 1.5 0.0
10.0 1.5 0.0
10.4 1.5 0.0
10.8 1.5 0.0
11.200000000000001 1.5 0.0
11.600000000000001 1.5 0.0
12.0 1.5 0.0
12.4 1.5 0.0
12.8 1.5 0.0
13.200000000000001 1.5 0.0
13.600000000000001 1.5 0.0
14.0 1.5 0.0
14.4 1.5 0.0
14.8 1.5 0.0
15.200000000000001 1.5 0.0
15.600000000000001 1.5 0.0
16.0 1.5 0.0
0.0 1.6 0.0
0.4 1.6 0.0
0.8 1.6 0.0
1.2000000000000002 1.6 0.0
1.6 1.6 0.0
2.0 1.6 0.0
2.4000000000000004 1.6 0.0
2.8000000000000003 1.6 0.0
3.2 1.6 0.0
3.6 1.6 0.0
4.0 1.6 0.0
4.4 1.6 0.0
4.800000000000001 1.6 0.0
5.2 1.6 0.0
5.6000000000000005 1.6 0.0
6.0 1.6 0.0
6.4 1.6 0.0
6.800000000000001 1.6 0.0
7.2 1.6 0.0
7.6000000000000005 1.6 0.0
8.0 1.6 0.0
8.4 1.6 0.0
8.8 1.6 0.0
9.200000000000001 1.6 0.0
9.600000000000001 1.6 0.0
10.0 1.6 0.0
10.4 1.6 0.0
10.8 1.6 0.0
11.200000000000001 1.6 0.0
11.600000000000001 1.6 0.0
12.0 1.6 0.0
12.4 1.6 0.0
12.8 1.6 0.0
13.200000000000001 1.6 0.0
13.600000000000001 1.6 0.0
14.0 1.6 0.0
14.4 1.6 0.0
14.8 1.6 0.0
15.200000000000001 1.6 0.0
15.600000000000001 1.6 0.0
16.0 1.6 0.0
0.0 1.7000000000000002 0.0
0.4 1.7000000000000002 0.0
0.8 1.7000000000000002 0.0
1.2000000000000002 1.7000000000000002 0.0
1.6 1.7000000000000002 0.0
2.0 1.7000000000000002 0.0
2.4000000000000004 1.7000000000000002 0.0
2.8000000000000003 1.7000000000000002 0.0
3.2 1.7000000000000002 0.0
3.6 1.7000000000000002 0.0
4.0 1.7000000000000002 0.0
4.4 1.7000000000000002 0.0
4.800000000000001 1.7000000000000002 0.0
5.2 1.7000000000000002 0.0
5.6000000000000005 1.7000000000000002 0.0
6.0 1.7000000000000002 0.0
6.4 1.7000000000000002 0.0
6.800000000000001 1.7000000000000002 0.0
7.2 1.7000000000000002 0.0
7.6000000000000005 1.7000000000000002 0.0
8.0 1.7000000000000002 0.0
8.4 1.7000000000000002 0.0
8.8 1.7000000000000002 0.0
9.200000000000001 1.7000000000000002 0.0
9.600000000000001 1.7000000000000002 0.0
10.0 1.7000000000000002 0.0
10.4 1.7000000000000002 0.0
10.8 1.7000000000000002 0.0
11.200000000000001 1.7000000000000002 0.0
11.600000000000001 1.7000000000000002 0.0
12.0 1.7000000000000002 0.0
12.4 1.7000000000000002 0.0
12.8 1.7000000000000002 0.0
13.200000000000001 1.7000000000000002 0.0
13.600000000000001 1.7000000000000002 0.0
14.0 1.7000000000000002 0.0
14.4 1.7000000000000002 0.0
14.8 1.7000000000000002 0.0
15.200000000000001 1.7000000000000002 0.0
15.600000000000001 1.7000000000000002 0.0
16.0 1.7000000000000002 0.0
0.0 1.8 0.0
0.4 1.8 0.0
0.8 1.8 0.0
1.2000000000000002 1.8 0.0
1.6 1.8 0.0
2.0 1.8 0.0
2.4000000000000004 1.8 0.0
2.8000000000000003 1.8 0.0
3.2 1.8 0.0
3.6 1.8 0.0
4.0 1.8 0.0
4.4 1.8 0.0
4.800000000000001 1.8 0.0
5.2 1.8 0.0
5.6000000000000005 1.8 0.0
6.0 1.8 0.0
6.4 1.8 0.0
6.800000000000001 1.8 0.0
7.2 1.8 0.0
7.6000000000000005 1.8 0.0
8.0 1.8 0.0
8.4 1.8 0.0
8.8 1.8 0.0
9.200000000000001 1.8 0.0
9.600000000000001 1.8 0.0
10.0 1.8 0.0
10.4 1.8 0.0
10.8 1.8 0.0
11.200000000000001 1.8 0.0
11.600000000000001 1.8 0.0
12.0 1.8 0.0
12.4 1.8 0.0
12.8 1.8 0.0
13.200000000000001 1.8 0.0
13.600000000000001 1.8 0.0
14.0 1.8 0.0
14.4 1.8 0.0
14.8 1.8 0.0
15.200000000000001 1.8 0.0
15.600000000000001 1.8 0.0
16.0 1.8 0.0
0.0 1.9000000000000001 0.0
0.4 1.9000000000000001 0.0
0.8 1.9000000000000001 0.0
1.2000000000000002 1.9000000000000001 0.0
1.6 1.9000000000000001 0.0
2.0 1.9000000000000001 0.0
2.4000000000000004 1.9000000000000001 0.0
2.8000000000000003 1.9000000000000001 0.0
3.2 1.9000000000000001 0.0
3.6 1.9000000000000001 0.0
4.0 1.9000000000000001 0.0
4.4 1.9000000000000001 0.0
4.800000000000001 1.9000000000000001 0.0
5.2 1.9000000000000001 0.0
5.6000000000000005 1.9000000000000001 0.0
6.0 1.9000000000000001 0.0
6.4 1.9000000000000001 0.0
6.800000000000001 1.9000000000000001 0.0
7.2 1.9000000000000001 0.0
7.6000000000000005 1.9000000000000001 0.0
8.0 1.9000000000000001 0.0
8.4 1.9000000000000001 0.0
8.8 1.9000000000000001 0.0
9.200000000000001 1.9000000000000001 0.0
9.600000000000001 1.9000000000000001 0.0
10.0 1.9000000000000001 0.0
10.4 1.9000000000000001 0.0
10.8 1.9000000000000001 0.0
11.200000000000001 1.9000000000000001 0.0
11.600000000000001 1.9000000000000001 0.0
12.0 1.9000000000000001 0.0
12.4 1.9000000000000001 0.0
12.8 1.9000000000000001 0.0
13.200000000000001 1.9000000000000001 0.0
13.600000000000001 1.9000000000000001 0.0
14.0 1.9000000000000001 0.0
14.4 1.9000000000000001 0.0
14.8 1.9000000000000001 0.0
15.200000000000001 1.9000000000000001 0.0
15.600000000000001 1.9000000000000001 0.0
16.0 1.9000000000000001 0.0
0.0 2.0 0.0
0.4 2.0 0.0
0.8 2.0 0.0
1.2000000000000002 2.0 0.0
1.6 2.0 0.0
2.0 2.0 0.0
2.4000000000000004 2.0 0.0
2.8000000000000003 2.0 0.0
3.2 2.0 0.0
3.6 2.0 0.0
4.0 2.0 0.0
4.4 2.0 0.0
4.800000000000001 2.0 0.0
5.2 2.0 0.0
5.6000000000000005 2.0 0.0
6.0 2.0 0.0
6.4 2.0 0.0
6.800000000000001 2.0 0.0
7.2 2.0 0.0
7.6000000000000005 2.0 0.0
8.0 2.0 0.0
8.4 2.0 0.0
8.8 2.0 0.0
9.200000000000001 2.0 0.0
9.600000000000001 2.0 0.0
10.0 2.0 0.0
10.4 2.0 0.0
10.8 2.0 0.0
11.200000000000001 2.0 0.0
11.600000000000001 2.0 0.0
12.0 2.0 0.0
12.4 2.0 0.0
12.8 2.0 0.0
13.200000000000001 2.0 0.0
13.600000000000001 2.0 0.0
14.0 2.0 0.0
14.4 2.0 0.0
14.8 2.0 0.0
15.200000000000001 2.0 0.0
15.600000000000001 2.0 0.0
16.0 2.0 0.0
CELLS 800 4000
4 0 1 42 41
4 1 2 43 42
4 2 3 44 43
4 3 4 45 44
4 4 5 46 45
4 5 6 47 46
4 6 7 48 47
4 7 8 49 48
4 8 9 50 49
4 9 10 51 50
4 10 11 52 51
4 11 12 53 52
4 12 13 54 53
4 13 14 55 54
4 14 15 56 55
4 15 16 57 56
4 16 17 58 57
4 17 18 59 58
4 18 19 60 59
4 19 20 61 60
4 20 21 62 61
4 21 22 63 62
4 22 23 64 63
4 23 24 65 64
4 24 25 66 65
4 25 26 67 66
4 26 27 68 67
4 27 28 69 68
4 28 29 70 69
4 29 30 71 70
4 30 31 72 71
4 31 32 73 72
4 32 33 74 73
4 33 34 75 74
4 34 35 76 75
4 35 36 77 76
4 36 37 78 77
4 37 38 79 78
4 38 39 80 79
4 39 40 81 80
4 41 42 83 82
4 42 43 84 83
4 43 44 85 84
4 44 45 86 85
4 45 46 87 86
4 46 47 88 87
4 47 48 89 88
4 48 49 90 89
4 49 50 91 90
4 50 51 92 91
4 51 52 93 92
4 52 53 94 93
4 53 54 95 94
4 54 55 96 95
4 55 56 97 96
4 56 57 98 97
4 57 58 99 98
4 58 59 100 99
4 59 60 101 100
4 60 61 102 101
4 61 62 103 102
4 62 63 104 103
4 63 64 105 104
4 64 65 106 105
4 65 66 107 106
4 66 67 108 107
4 67 68 109 108
4 68 69 110 109
4 69 70 111 110
4 70 71 112 111
4 71 72 113 112
4 72 73 114 113
4 73 74 115 114
4 74 75 116 115
4 75 76 117 116
4 76 77 118 117
4 77 78 119 118
4 78 79 120 119
4 79 80 121 120
4 80 81 122 121
4 82 83 124 123
4 83 84 125 124
4 84 85 126 125
4 85 86 127 126
4 86 87 128 127
4 87 88 129 128
4 88 89 130 129
4 89 90 131 130
4 90 91 132 131
4 91 92 133 132
4 92 93 134 133
4 93 94 135 134
4 94 95 136 135
4 95 96 137 136
4 96 97 138 137
4 97 98 139 138
4 98 99 140 139
4 99 100 141 140
4 100 101 142 141
4 101 102 143 142
4 102 103 144 143
4 103 104 145 144
4 104 105 146 145
4 105 106 147 146
4 106 107 148 147
4 107 108 149 148
4 108 109 150 149
4 109 110 151 150
4 110 111 152 151
4 111 112 153 152
4 112 113 154 153
4 113 114 155 154
4 114 115 156 155
4 115 116 157 156
4 116 117 158 157
4 117 118 159 158
4 118 119 160 159
4 119 120 161 160
4 120 121 162 161
4 121 122 163 162
4 123 124 165 164
4 124 125 166 165
4 125 126 167 166
4 126 127 168 167
4 127 128 169 168
4 128 129 170 169
4 129 130 171 170
4 130 131 172 171
4 131 132 173 172
4 132 133 174 173
4 133 134 175 174
4 134 135 176 175
4 135 136 177 176
4 136 137 178 177
4 137 138 179 178
4 138 139 180 179
4 139 140 181 180
4 140 141 182 181
4 141 142 183 182
4 142 143 184 183
4 143 144 185 184
4 144 145 186 185
4 145 146 187 186
4 146 147 188 187
4 147 148 189 188
4 148 149 190 189
4 149 150 191 190
4 150 151 192 191
4 151 152 193 192
4 152 153 194 193
4 153 154 195 194
4 154 155 196 195
4 155 156 197 196
4 156 157 198 197
4 157 158 199 198
4 158 159 200 199
4 159 160 201 200
4 160 161 202 201
4 161 162 203 202
4 162 163 204 203
4 164 165 206 205
4 165 166 207 206
4 166 167 208 207
4 167 168 209 208
4 168 169 210 209
4 169 170 211 210
4 170 171 212 211
4 171 172 213 212
4 172 173 214 213
4 173 174 215 214
4 174 175 216 215
4 175 176 217 216
4 176 177 218 217
4 177 178 219 218
4 178 179 220 219
4 179 180 221 220
4 180 181 222 221
4 181 182 223 222
4 182 183 224 223
4 183 184 225 224
4 184 185 226 225
4 185 186 227 226
4 186 187 228 227
4 187 188 229 228
4 188 189 230 229
4 189 190 231 230
4 190 191 232 231
4 191 192 233 232
4 192 193 234 233
4 193 194 235 234
4 194 195 236 235
4 195 196 237 236
4 196 197 238 237
4 197 198 239 238
4 198 199 240 239
4 199 200 241 240
4 200 201 242 241
4 201 202 243 242
4 202 203 244 243
4 203 204 245 244
4 205 206 247 246
4 206 207 248 247
4 207 208 249 248
4 208 209 250 249
4 209 210 251 250
4 210 211 252 251
4 211 212 253 252
4 212 213 254 253
4 213 214 255 254
4 214 215 256 255
4 215 216 257 256
4 216 217 258 257
4 217 218 259 258
4 218 219 260 259
4 219 220 261 260
4 220 221 262 261
4 221 222 263 262
4 222 223 264 263
4 223 224 265 264
4 224 225 266 265
4 225 226 267 266
4 226 227 268 267
4 227 228 269 268
4 228 229 270 269
4 229 230 271 270
4 230 231 272 271
4 231 232 273 272
4 232 233 274 273
4 233 234 275 274
4 234 235 276 275
4 235 236 277 276
4 236 237 278 277
4 237 238 279 278
4 238 239 280 279
4 239 240 281 280
4 240 241 282 281
4 241 242 283 282
4 242 243 284 283
4 243 244 285 284
4 244 245 286 285
4 246 247 288 287
4 247 248 289 288
4 248 249 290 289
4 249 250 291 290
4 250 251 292 291
4 251 252 293 292
4 252 253 294 293
4 253 254 295 294
4 254 255 296 295
4 255 256 297 296
4 256 257 298 297
4 257 258 299 298
4 258 259 300 299
4 259 260 301 300
4 260 261 302 301
4 261 262 303 302
4 262 263 304 303
4 263 264 305 304
4 264 265 306 305
4 265 266 307 306
4 266 267 308 307
4 267 268 309 308
4 268 269 310 309
4 269 270 311 310
4 270 271 312 311
4 271 272 313 312
4 272 273 314 313
4 273 274 315 314
4 274 275 316 315
4 275 276 317 316
4 276 277 318 317
4 277 278 319 318
4 278 279 320 319
4 279 280 321 320
4 280 281 322 321
4 281 282 323 322
4 282 283 324 323
4 283 284 325 324
4 284 285 326 325
4 285 286 327 326
4 287 288 329 328
4 288 289 330 329
4 289 290 331 330
4 290 291 332 331
4 291 292 333 332
4 292 293 334 333
4 293 294 335 334
4 294 295 336 335
4 295 296 337 336
4 296 297 338 337
4 297 298 339 338
4 298 299 340 339
4 299 300 341 340
4 300 301 342 341
4 301 302 343 342
4 302 303 344 343
4 303 304 345 344
4 304 305 346 345
4 305 306 347 346
4 306 307 348 347
4 307 308 349 348
4 308 309 350 349
4 309 310 351 350
4 310 311 352 351
4 311 312 353 352
4 312 313 354 353
4 313 314 355 354
4 314 315 356 355
4 315 316 357 356
4 316 317 358 357
4 317 318 359 358
4 318 319 360 359
4 319 320 361 360
4 320 321 362 361
4 321 322 363 362
4 322 323 364 363
4 323 324 365 364
4 324 325 366 365
4 325 326 367 366
4 326 327 368 367
4 328 329 370 369
4 329 330 371 370
4 330 331 372 371
4 331 332 373 372
4 332 333 374 373
4 333 334 375 374
4 334 335 376 375
4 335 336 377 376
4 336 337 378 377
4 337 338 379 378
4 338 339 380 379
4 339 340 381 380
4 340 341 382 381
4 341 342 383 382
4 342 343 384 383
4 343 344 385 384
4 344 345 386 385
4 345 346 387 386
4 346 347 388 387
4 347 348 389 388
4 348 349 390 389
4 349 350 391 390
4 350 351 392 391
4 351 352 393 392
4 352 353 394 393
4 353 354 395 394
4 354 355 396 395
4 355 356 397 396
4 356 357 398 397
4 357 358 399 398
4 358 359 400 399
4 359 360 401 400
4 360 361 402 401
4 361 362 403 402
4 362 363 404 403
4 363 364 405 404
4 364 365 406 405
4 365 366 407 406
4 366 367 408 407
4 367 368 409 408
4 369 370 411 410
4 370 371 412 411
4 371 372 413 412
4 372 373 414 413
4 373 374 415 414
4 374 375 416 415
4 375 376 417 416
4 376 377 418 417
4 377 378 419 418
4 378 379 420 419
4 379 380 421 420
4 380 381 422 421
4 381 382 423 422
4 382 383 424 423
4 383 384 425 424
4 384 385 426 425
4 385 386 427 426
4 386 387 428 427
4 387 388 429 428
4 388 389 430 429
4 389 390 431 430
4 390 391 432 431
4 391 392 433 432
4 392 393 434 433
4 393 394 435 434
4 394 395 436 435
4 395 396 437 436
4 396 397 438 437
4 397 398 439 438
4 398 399 440 439
4 399 400 441 440
4 400 401 442 441
4 401 402 443 442
4 402 403 444 443
4 403 404 445 444
4 404 405 446 445
4 405 406 447 446
4 406 407 448 447
4 407 408 449 448
4 408 409 450 449
4 410 411 452 451
4 411 412 453 452
4 412 413 454 453
4 413 414 455 454
4 414 415 456 455
4 415 416 457 456
4 416 417 458 457
4 417 418 459 458
4 418 419 460 459
4 419 420 461 460
4 420 421 462 461
4 421 422 463 462
4 422 423 464 463
4 423 424 465 464
4 424 425 466 465
4 425 426 467 466
4 426 427 468 467
4 427 428 469 468
4 428 429 470 469
4 429 430 471 470
4 430 431 472 471
4 431 432 473 472
4 432 433 474 473
4 433 434 475 474
4 434 435 476 475
4 435 436 477 476
4 436 437 478 477
4 437 438 479 478
4 438 439 480 479
4 439 440 481 480
4 440 441 482 481
4 441 442 483 482
4 442 443 484 483
4 443 444 485 484
4 444 445 486 485
4 445 446 487 486
4 446 447 488 487
4 447 448 489 488
4 448 449 490 489
4 449 450 491 490
4 451 452 493 492
4 452 453 494 493
4 453 454 495 494
4 454 455 496 495
4 455 456 497 496
4 456 457 498 497
4 457 458 499 498
4 458 459 500 499
4 459 460 501 500
4 460 461 502 501
4 461 462 503 502
4 462 463 504 503
4 463 464 505 504
4 464 465 506 505
4 465 466 507 506
4 466 467 508 507
4 467 468 509 508
4 468 469 510 509
4 469 470 511 510
4 470 471 512 511
4 471 472 513 512
4 472 473 514 513
4 473 474 515 514
4 474 475 516 515
4 475 476 517 516
4 476 477 518 517
4 477 478 519 518
4 478 479 520 519
4 479 480 521 520
4 480 481 522 521
4 481 482 523 522
4 482 483 524 523
4 483 484 525 524
4 484 485 526 525
4 485 486 527 526
4 486 487 528 527
4 487 488 529 528
4 488 489 530 529
4 489 490 531 530
4 490 491 532 531
4 492 493 534 533
4 493 494 535 534
4 494 495 536 535
4 495 496 537 536
4 496 497 538 537
4 497 498 539 538
4 498 499 540 539
4 499 500 541 540
4 500 501 542 541
4 501 502 543 542
4 502 503 544 543
4 503 504 545 544
4 504 505 546 545
4 505 506 547 546
4 506 507 548 547
4 507 508 549 548
4 508 509 550 549
4 509 510 551 550
4 510 511 552 551
4 511 512 553 552
4 512 513 554 553
4 513 514 555 554
4 514 515 556 555
4 515 516 557 556
4 516 517 558 557
4 517 518 559 558
4 518 519 560 559
4 519 520 561 560
4 520 521 562 561
4 521 522 563 562
4 522 523 564 563
4 523 524 565 564
4 524 525 566 565
4 525 526 567 566
4 526 527 568 567
4 527 528 569 568
4 528 529 570 569
4 529 530 571 570
4 530 531 572 571
4 531 532 573 572
4 533 534 575 574
4 534 535 576 575
4 535 536 577 576
4 536 537 578 577
4 537 538 579 578
4 538 539 580 579
4 539 540 581 580
4 540 541 582 581
4 541 542 583 582
4 542 543 584 583
4 543 544 585 584
4 544 545 586 585
4 545 546 587 586
4 546 547 588 587
4 547 548 589 588
4 548 549 590 589
4 549 550 591 590
4 550 551 592 591
4 551 552 593 592
4 552 553 594 593
4 553 554 595 594
4 554 555 596 595
4 555 556 597 596
4 556 557 598 597
4 557 558 599 598
4 558 559 600 599
4 559 560 601 600
4 560 561 602 601
4 561 562 603 602
4 562 563 604 603
4 563 564 605 604
4 564 565 606 605
4 565 566 607 606
4 566 567 608 607
4 567 568 609 608
4 568 569 610 609
4 569 570 611 610
4 570 571 612 611
4 571 572 613 612
4 572 573 614 613
4 574 575 616 615
4 575 576 617 616
4 576 577 618 617
4 577 578 619 618
4 578 579 620 619
4 579 580 621 620
4 580 581 622 621
4 581 582 623 622
4 582 583 624 623
4 583 584 625 624
4 584 585 626 625
4 585 586 627 626
4 586 587 628 627
4 587 588 629 628
4 588 589 630 629
4 589 590 631 630
4 590 591 632 631
4 591 592 633 632
4 592 593 634 633
4 593 594 635 634
4 594 595 636 635
4 595 596 637 636
4 596 597 638 637
4 597 598 639 638
4 598 599 640 639
4 599 600 641 640
4 600 601 642 641
4 601 602 643 642
4 602 603 644 643
4 603 604 645 644
4 604 605 646 645
4 605 606 647 646
4 606 607 648 647
4 607 608 649 648
4 608 609 650 649
4 609 610 651 650
4 610 611 652 651
4 611 612 653 652
4 612 613 654 653
4 613 614 655 654
4 615 616 657 656
4 616 617 658 657
4 617 618 659 658
4 618 619 660 659
4 619 620 661 660
4 620 621 662 661
4 621 622 663 662
4 622 623 664 663
4 623 624 665 664
4 624 625 666 665
4 625 626 667 666
4 626 627 668 667
4 627 628 669 668
4 628 629 670 669
4 629 630 671 670
4 630 631 672 671
4 631 632 673 672
4 632 633 674 673
4 633 634 675 674
4 634 635 676 675
4 635 636 677 676
4 636 637 678 677
4 637 638 679 678
4 638 639 680 679
4 639 640 681 680
4 640 641 682 681
4 641 642 683 682
4 642 643 684 683
4 643 644 685 684
4 644 645 686 685
4 645 646 687 686
4 646 647 688 687
4 647 648 689 688
4 648 649 690 689
4 649 650 691 690
4 650 651 692 691
4 651 652 693 692
4 652 653 694 693
4 653 654 695 694
4 654 655 696 695
4 656 657 698 697
4 657 658 699 698
4 658 659 700 699
4 659 660 701 700
4 660 661 702 701
4 661 662 703 702
4 662 663 704 703
4 663 664 705 704
4 664 665 706 705
4 665 666 707 706
4 666 667 708 707
4 667 668 709 708
4 668 669 710 709
4 669 670 711 710
4 670 671 712 711
4 671 672 713 712
4 672 673 714 713
4 673 674 715 714
4 674 675 716 715
4 675 676 717 716
4 676 677 718 717
4 677 678 719 718
4 678 679 720 719
4 679 680 721 720
4 680 681 722 721
4 681 682 723 722
4 682 683 724 723
4 683 684 725 724
4 684 685 726 725
4 685 686 727 726
4 686 687 728 727
4 687 688 729 728
4 688 689 730 729
4 689 690 731 730
4 690 691 732 731
4 691 692 733 732
4 692 693 734 733
4 693 694 735 734
4 694 695 736 735
4 695 696 737 736
4 697 698 739 738
4 698 699 740 739
4 699 700 741 740
4 700 701 742 741
4 701 702 743 742
4 702 703 744 743
4 703 704 745 744
4 704 705 746 745
4 705 706 747 746
4 706 707 748 747
4 707 708 749 748
4 708 709 750 749
4 709 710 751 750
4 710 711 752 751
4 711 712 753 752
4 712 713 754 753
4 713 714 755 754
4 714 715 756 755
4 715 716 757 756
4 716 717 758 757
4 717 718 759 758
4 718 719 760 759
4 719 720 761 760
4 720 721 762 761
4 721 722 763 762
4 722 723 764 763
4 723 724 765 764
4 724 725 766 765
4 725 726 767 766
4 726 727 768 767
4 727 728 769 768
4 728 729 770 769
4 729 730 771 770
4 730 731 772 771
4 731 732 773 772
4 732 733 774 773
4 733 734 775 774
4 734 735 776 775
4 735 736 777 776
4 736 737 778 777
4 738 739 780 779
4 739 740 781 780
4 740 741 782 781
4 741 742 783 782
4 742 743 784 783
4 743 744 785 784
4 744 745 786 785
4 745 746 787 786
4 746 747 788 787
4 747 748 789 788
4 748 749 790 789
4 749 750 791 790
4 750 751 792 791
4 751 752 793 792
4 752 753 794 793
4 753 754 795 794
4 754 755 796 795
4 755 756 797 796
4 756 757 798 797
4 757 758 799 798
4 758 759 800 799
4 759 760 801 800
4 760 761 802 801
4 761 762 803 802
4 762 763 804 803
4 763 764 805 804
4 764 765 806 805
4 765 766 807 806
4 766 767 808 807
4 767 768 809 808
4 768 769 810 809
4 769 770 811 810
4 770 771 812 811
4 771 772 813 812
4 772 773 814 813
4 773 774 815 814
4 774 775 816 815
4 775 776 817 816
4 776 777 818 817
4 777 778 819 818
4 779 780 821 820
4 780 781 822 821
4 781 782 823 822
4 782 783 824 823
4 783 784 825 824
4 784 785 826 825
4 785 786 827 826
4 786 787 828 827
4 787 788 829 828
4 788 789 830 829
4 789 790 831 830
4 790 791 832 831
4 791 792 833 832
4 792 793 834 833
4 793 794 835 834
4 794 795 836 835
4 795 796 837 836
4 796 797 838 837
4 797 798 839 838
4 798 799 840 839
4 799 800 841 840
4 800 801 842 841
4 801 802 843 842
4 802 803 844 843
4 803 804 845 844
4 804 805 846 845
4 805 806 847 846
4 806 807 848 847
4 807 808 849 848
4 808 809 850 849
4 809 810 851 850
4 810 811 852 851
4 811 812 853 852
4 812 813 854 853
4 813 814 855 854
4 814 815 856 855
4 815 816 857 856
4 816 817 858 857
4 817 818 859 858
4 818 819 860 859
CELL_TYPES 800
9
9
9
9
9
9
9
9
9
9
9
9
9
9
9
9
9
9
9
9
9
9
9
9
9
9
9
9
9
9
9
9
9
9
9
9
9
9
9
9
9
9
9
9
9
9
9
9
9
9
9
9
9
9
9
9
9
9
9
9
9
9
9
9
9
9
9
9
9
9
9
9
9
9
9
9
9
9
9
9
9
9
9
9
9
9
9
9
9
9
9
9
9
9
9
9
9
9
9
9
9
9
9
9
9
9
9
9
9
9
9
9
9
9
9
9
9
9
9
9
9
9
9
9
9
9
9
9
9
9
9
9
9
9
9
9
9
9
9
9
9
9
9
9
9
9
9
9
9
9
9
9
9
9
9
9
9
9
9
9
9
9
9
9
9
9
9
9
9
9
9
9
9
9
9
9
9
9
9
9
9
9
9
9
9
9
9
9
9
9
9
9
9
9
9
9
9
9
9
9
9
9
9
9
9
9
9
9
9
9
9
9
9
9
9
9
9
9
9
9
9
9
9
9
9
9
9
9
9
9
9
9
9
9
9
9
9
9
9
9
9
9
9
9
9
9
9
9
9
9
9
9
9
9
9
9
9
9
9
9
9
9
9
9
9
9
9
9
9
9
9
9
9
9
9
9
9
9
9
9
9
9
9
9
9
9
9
9
9
9
9
9
9
9
9
9
9
9
9
9
9
9
9
9
9
9
9
9
9
9
9
9
9
9
9
9
9
9
9
9
9
9
9
9
9
9
9
9
9
9
9
9
9
9
9
9
9
9
9
9
9
9
9
9
9
9
9
9
9
9
9
9
9
9
9
9
9
9
9
9
9
9
9
9
9
9
9
9
9
9
9
9
9
9
9
9
9
9
9
9
9
9
9
9
9
9
9
9
9
9
9
9
9
9
9
9
9
9
9
9
9
9
9
9
9
9
9
9
9
9
9
9
9
9
9
9
9
9
9
9
9
9
9
9
9
9
9
9
9
9
9
9
9
9
9
9
9
9
9
9
9
9
9
9
9
9
9
9
9
9
9
9
9
9
9
9
9
9
9
9
9
9
9
9
9
9
9
9
9
9
9
9
9
9
9
9
9
9
9
9
9
9
9
9
9
9
9
9
9
9
9
9
9
9
9
9
9
9
9
9
9
9
9
9
9
9
9
9
9
9
9
9
9
9
9
9
9
9
9
9
9
9
9
9
9
9
9
9
9
9
9
9
9
9
9
9
9
9
9
9
9
9
9
9
9
9
9
9
9
9
9
9
9
9
9
9
9
9
9
9
9
9
9
9
9
9
9
9
9
9
9
9
9
9
9
9
9
9
9
9
9
9
9
9
9
9
9
9
9
9
9
9
9
9
9
9
9
9
9
9
9
9
9
9
9
9
9
9
9
9
9
9
9
9
9
9
9
9
9
9
9
9
9
9
9
9
9
9
9
9
9
9
9
9
9
9
9
9
9
9
9
9
9
9
9
9
9
9
9
9
9
9
9
9
9
9
9
9
9
9
9
9
9
9
9
9
9
9
9
9
9
9
9
9
9
9
9
9
9
9
9
9
9
9
9
9
9
9
9
9
9
9
9
9
9
9
9
9
9
9
9
9
9
9
9
9
9
9
9
9
9
9
9
9
9
9
9
9
9
9
9
9
9
9
9
9
9
9
9
9
9
9
9
9
9
9
9
9
9
9
9
9
9
9
9
9
9
9
9
9
9
9
9
9
9
9
9
9
9
9
9
9
9
9
9
9
9
9
9
9
9
9
9
9
9
9
9
9
9
9
9
9
9
9
9
9
9
9
9
9
9
9
9
9
9
9
9
9
9
9
POINT_DATA 861
SCALARS Disp float 2
LOOKUP_TABLE default
0.0 0.0
0.006288369507401859 -0.3014179126808565
0.0077435137489147475 -0.5929443192703946
0.008555979457532012 -0.8832867938126191
0.009643613393572514 -1.1732184747181884
0.011502459371573105 -1.4622487707288567
0.014889309260302614 -1.7497169041615213
0.020747162586443303 -2.034788153033565
0.03019022415535695 -2.3164116080815327
0.04443033898729123 -2.5932023771693404
0.06466569006282777 -2.8632827006936026
0.09200294412959785 -3.124205122886703
0.12742187169516925 -3.3730060406069597
0.17176421396297414 -3.606344906924203
0.22572364114146123 -3.8205993906385136
0.2897737818976996 -4.011948452775608
0.36404616362549885 -4.176484573362993
0.448191167920578 -4.3103891565923655
0.5412666522002056 -4.410197165307772
0.6417014673135043 -4.473052316462388
0.7470175071022682 -4.497052585062253
0.8523335468910271 -4.4730523164622475
0.9527683620043053 -4.410197165307487
1.0458438462838964 -4.310389156591949
1.129988850578929 -4.176484573362472
1.2042612323066777 -4.011948452775014
1.268311373062864 -3.82059939063786
1.3222708002412993 -3.6063449069235114
1.366613142509053 -3.37300604060625
1.4020320700745748 -3.1242051228859995
1.4293693241413015 -2.8632827006929245
1.449604675216802 -2.5932023771687023
1.4638447900487077 -2.3164116080809434
1.4732878516176007 -2.034788153033034
1.479145704943727 -1.7497169041610536
1.4825325548324482 -1.4622487707284615
1.4843914008104446 -1.1732184747178651
1.4854790347464841 -0.8832867938123721
1.4862915004551012 -0.5929443192702225
1.4877466446966126 -0.3014179126807624
1.4940350142040109 0.0
0.07518174450706325 -0.002585084357074846
0.07962925483022243 -0.30173096608050876
0.0803778763503135 -0.5930085925318239
0.08109355156918568 -0.8833809439914805
0.08203921990254169 -1.173385842900797
0.08360903215666346 -1.4626380904471867
0.08651461208814983 -1.7505400158441187
0.09164594889353625 -2.0362989610656475
0.10004761934104589 -2.3188939787236627
0.1128241721114025 -2.5969450231066222
0.13104414634935044 -2.8685576174890293
0.15568056234963315 -3.131257062025129
0.18760110978580646 -3.3820506111674757
0.22756962125959362 -3.6175667921376844
0.2762181600003502 -3.83414338039911
0.33398883579444133 -4.027896168358659
0.40102721368753824 -4.194822115803095
0.47705874103474205 -4.330975537244394
0.5612734907936451 -4.432738791021785
0.652153878091486 -4.4970725856097635
0.7470175071022511 -4.5216880629067004
0.8418811361130109 -4.49707258560962
0.9327615234108326 -4.432738791021491
1.0169762731697034 -4.330975537243969
1.0930078005168669 -4.194822115802563
1.1600461784099187 -4.027896168358051
1.217816854203963 -3.834143380398445
1.2664653929446725 -3.6175667921369805
1.3064339044184137 -3.382050611166755
1.3383544518545427 -3.1312570620244147
1.362990867854786 -2.868557617488342
1.3812108420927014 -2.596945023105977
1.3939873948630326 -2.3188939787230676
1.4023890653105233 -2.0362989610651128
1.407520402115897 -1.7505400158436486
1.4104259820473757 -1.4626380904467904
1.4119957943014942 -1.1733858429004735
1.4129414626348495 -0.8833809439912336
1.4136571378537215 -0.5930085925316517
1.4144057593738122 -0.3017309660804143
1.4188532696969658 -0.0025850843570723275
0.14932003796214016 -0.004650479341914386
0.1526065596656239 -0.3018886002030756
0.15303180227139485 -0.5930394719543797
0.15361377492927733 -0.8834632576573552
0.1544289859954004 -1.1735172598680332
0.15573887163290603 -1.4629462231026433
0.15817626062368123 -1.7512239033831676
0.16258405226295317 -2.037599038992594
0.16992507792715889 -2.3210729353551596
0.18119977627058745 -2.600262736963994
0.197353662686338 -2.8732538810998176
0.21923663107625965 -3.1375460858879025
0.24760595988362075 -3.39012359918474
0.28313668624320276 -3.627591126101918
0.32640394759068553 -3.8462519787415714
0.37782208560599706 -4.042168587887581
0.437563514699401 -4.2112571080447125
0.5054438771552967 -4.349459220324509
0.5807652824016015 -4.453007295301288
0.6620705452419755 -4.518635079855537
0.7470175071022342 -4.543798811856001
0.8319644689624877 -4.51863507985539
0.9132697318028444 -4.453007295300988
0.9885911370491208 -4.349459220324075
1.056471499504981 -4.21125710804417
1.1162129285983455 -4.042168587886962
1.1676310666136152 -3.8462519787408955
1.2108983279610557 -3.627591126101203
1.2464290543205971 -3.390123599184008
1.274798383127919 -3.1375460858871786
1.2966813515178055 -2.8732538810991217
1.3128352379335273 -2.6002627369633418
1.3241099362769329 -2.3210729353545596
1.3314509619411214 -2.037599038992056
1.3358587535803823 -1.7512239033826955
1.338296142571151 -1.4629462231022456
1.3396060282086542 -1.1735172598677095
1.3404212392747767 -0.8834632576571083
1.3410032119326594 -0.5930394719542074
1.3414284545384303 -0.3018886002029808
1.3447149762419082 -0.00465047934190901
0.22290445771895734 -0.006316581315547119
0.22540495988738046 -0.30199607750133867
0.2256629657813054 -0.5930560746498953
0.22611736752566627 -0.8835286940246456
0.22680836413974154 -1.1736219053720383
0.22788896773768902 -1.4631823158798392
0.22988527464007955 -1.7517732684910758
0.23357874335861428 -2.0386891276041115
0.23985237304682588 -2.322944009444453
0.24960325709242795 -2.603147534011868
0.2636591751365298 -2.877361632207996
0.2827513296905772 -3.143062263058242
0.30753071810675486 -3.3972144187724784
0.33858267471542686 -3.636404771891932
0.3764160707294148 -3.856910391669217
0.421424610685129 -4.054751028737187
0.4738117569185223 -4.225777084862476
0.5334805135543594 -4.365830591946473
0.5998568874136384 -4.470992763834788
0.6716943629170047 -4.53779754598544
0.7470175071022179 -4.563514737029292
0.8223406512874262 -4.53779754598529
0.8941781267907768 -4.470992763834483
0.9605545006500309 -4.36583059194603
1.0202232572858372 -4.225777084861925
1.072610403519196 -4.054751028736559
1.1176189434748731 -3.856910391668531
1.155452339488824 -3.636404771891207
1.1865042960974606 -3.3972144187717377
1.2112836845136041 -3.1430622630575096
1.230375839067621 -2.877361632207292
1.2444317571116976 -2.60314753401121
1.254182641157279 -2.3229440094438485
1.2604562708454758 -2.0386891276035697
1.264149739564001 -1.7517732684906022
1.2661460464663863 -1.463182315879441
1.2672266500643319 -1.173621905371714
1.2679176466784068 -0.8835286940243987
1.2683720484227676 -0.5930560746497231
1.2686300543166926 -0.30199607750124347
1.2711305564851105 -0.006316581315539098
0.2961742827540698 -0.007667369484207927
0.29808314549012843 -0.30207892696274874
0.298250908800094 -0.5930655219743959
0.2985986882029927 -0.8835790682418829
0.29917332502348293 -1.173705167122962
0.3000519284486092 -1.4633593793192863
0.30164938176452066 -1.752197058754924
0.30464603788048666 -2.039572357831798
0.3098595584945126 -2.32450691392928
0.31808046564450626 -2.6055958542968347
0.3300236362230676 -2.880875775547539
0.3463058338144739 -3.1477993861840594
0.3674712747899921 -3.403316340498325
0.3940176655919737 -3.644000332954017
0.4263915409576847 -3.8661091927969546
0.46495294514818897 -4.065632014411513
0.5099305623067366 -4.238368267996245
0.561318109011303 -4.380074091046646
0.6187119888278483 -4.486697871433634
0.6811437147836181 -4.554603737271822
0.7470175071022017 -4.58090557884703
0.8128912994207808 -4.554603737271669
0.8753230253765367 -4.486697871433324
0.9327169051930599 -4.380074091046197
0.9841044518976001 -4.2383682679956864
1.0290820690561178 -4.065632014410877
1.06764347324659 -3.8661091927962596
1.1000173486122695 -3.6440003329532846
1.1265637394142207 -3.4033163404975766
1.1477291803897098 -3.1477993861833196
1.1640113779810903 -2.8808757755468295
1.1759545485596297 -2.6055958542961712
1.1841754557096056 -2.324506913928672
1.1893889763236187 -2.0395723578312532
1.192385632439577 -1.7521970587544486
1.1939830857554843 -1.4633593793188875
1.1948616891806092 -1.1737051671226377
1.1954363260010994 -0.883579068241636
1.1957841054039982 -0.5930655219742239
1.1959518687139636 -0.3020789269626532
1.1978607314500176 -0.007667369484197597
0.36923705220360725 -0.00875617215607243
0.3706779180687543 -0.302145718712813
0.37079361810650274 -0.5930725006977106
0.3710541749337541 -0.8836164485972899
0.3715182215294706 -1.173771426511282
0.3722216648122456 -1.4634897421730608
0.3734622561893787 -1.7525097249321906
0.3758082669706433 -2.04025560227352
0.37997665752957416 -2.325764910599387
0.3866769934304771 -2.607608681801949
0.3965094898651173 -2.8837955400308823
0.40997901745808113 -3.1517559150319627
0.4275258679411852 -3.4084270056896075
0.4495590517269018 -3.650374810646336
0.47646026582159406 -3.873844998167324
0.5085598497457453 -4.0748047255411075
0.5460910873255164 -4.249017248161871
0.5891310562537655 -4.392174586016642
0.6374848300542192 -4.500120534683637
0.6905129397068495 -4.569076327131029
0.7470175071021853 -4.596012783712145
0.8035220744975177 -4.5690763271308725
0.8565501841501358 -4.500120534683322
0.9049039579505704 -4.392174586016187
0.9479439268787976 -4.249017248161305
0.9854751644585432 -4.0748047255404645
1.0175747483826676 -3.8738449981666223
1.0444759624773337 -3.6503748106455958
1.066509146263025 -3.408427005688852
1.0840559967461052 -3.151755915031217
1.0975255243390474 -2.883795540030167
1.1073580207736688 -2.607608681801281
1.1140583566745574 -2.325764910598775
1.118226747233478 -2.0402556022729734
1.1205727580147362 -1.752509724931714
1.1218133493918663 -1.4634897421726618
1.1225167926746404 -1.1737714265109578
1.1229808392703569 -0.883616448597043
1.123241396097608 -0.5930725006975386
1.1233570961353565 -0.3021457187127171
1.1247979620005 -0.008756172156060147
0.4421484212237438 -0.00962372009643498
0.4432142205241317 -0.3021999320652824
0.443296700631983 -0.5930793557030054
0.4434836076837967 -0.8836424097470341
0.44384033391190064 -1.1738235056868833
0.4443896252332202 -1.463584454611358
0.44531535098601666 -1.7527289690050647
0.44706573738034294 -2.040754432773543
0.45023674409057535 -2.3267255399545963
0.4554390434498172 -2.60919124778135
0.46317970373851725 -2.8861249390465
0.4738516247595522 -3.1549349944865472
0.4877923898417161 -3.4125491026671693
0.5053233933185101 -3.655530385007295
0.5267615319703975 -3.880118774337627
0.5523983510879322 -4.082267716507254
0.5824664337219346 -4.257715731117847
0.6171097916983602 -4.402116604616432
0.6563409229100843 -4.511247967896618
0.699894753398662 -4.581217177047069
0.7470175071021691 -4.6088547159148625
0.7941402608056729 -4.58121717704691
0.8376940912942403 -4.511247967896299
0.8769252225059485 -4.402116604615972
0.9115685804823559 -4.257715731117276
0.9416366631163379 -4.082267716506604
0.967273482233851 -3.880118774336919
0.9887116208857171 -3.6555303850065486
1.0062426243624918 -3.4125491026664085
1.0201833894446364 -3.1549349944857963
1.0308553104656544 -2.88612493904578
1.0385959707543393 -2.6091912477806787
1.04379827011357 -2.3267255399539817
1.0469692768237944 -2.040754432772995
1.048719663218116 -1.7527289690045875
1.0496453889709103 -1.4635844546109589
1.0501946802922293 -1.1738235056865591
1.050551406520333 -0.8836424097467871
1.0507383135721469 -0.5930793557028334
1.050820793679998 -0.30219993206518636
1.0518865929803831 -0.009623720096421033
0.5149450887495347 -0.010302966503157306
0.515710581494068 -0.3022441693288002
0.5157682592681452 -0.5930865733405614
0.5158890987078734 -0.8836581984034043
0.5161400943065428 -1.1738622058279968
0.5165463545209167 -1.4636524361728243
0.5172027896004474 -1.7528729256216447
0.5184162092642401 -2.041090289936255
0.5206573411982032 -2.327405441080861
0.5244155990783421 -2.6103541028703763
0.5300992799910728 -2.8878727276054774
0.5380042833989052 -3.1573448609110972
0.5483711839087791 -3.415690877476882
0.5614313286851448 -3.65947472254029
0.577431406823275 -3.884937101677683
0.5966258008992157 -4.088025188225921
0.6192398610680061 -4.264461982857464
0.6454540550240323 -4.409886407944835
0.6754612252227766 -4.520055754007574
0.7093932174757799 -4.591005451800313
0.747017507102152 -4.6194266166803475
0.7846417967285221 -4.591005451800153
0.8185737889815172 -4.520055754007252
0.8485809591802496 -4.409886407944372
0.8747951531362613 -4.264461982856889
0.897409213305036 -4.088025188225267
0.9166036073809604 -3.8849371016769707
0.9326036855190746 -3.65947472253954
0.9456638302954262 -3.4156908774761168
0.956030730805286 -3.1573448609103427
0.9639357342131059 -2.8878727276047544
0.9696194151258253 -2.6103541028697017
0.9733776730059558 -2.327405441080245
0.9756188049399133 -2.0410902899357057
0.9768322246037028 -1.752872925621167
0.9774886596832324 -1.4636524361724248
0.9778949198976059 -1.1738622058276726
0.9781459154962753 -0.8836581984031573
0.9782667549360035 -0.5930865733403894
0.9783244327100805 -0.302244169328704
0.9790899254546117 -0.010302966503142007
0.5876499800573498 -0.01082458630224186
0.5881839335820624 -0.3022808119430471
0.5882157698729412 -0.5930933121047391
0.5882741381458213 -0.8836647851992773
0.5884213856966191 -1.1738870171030782
0.5886857619796098 -1.4636991121476557
0.589108336974391 -1.7529609806496411
0.5898553031565813 -2.0412898712515317
0.5912472915096066 -2.3278306315318815
0.5936424411770873 -2.6111175139565472
0.5973338188147019 -2.889054300633183
0.6025241803046226 -3.1589999239215687
0.609365355610702 -3.417866930559151
0.6180049033037462 -3.6622222688236525
0.6286143892695921 -3.888312503913145
0.6413997945958317 -4.092087563221925
0.6565860663960364 -4.269263779294027
0.6743845046471648 -4.41547658750553
0.6950679897323215 -4.526509468840696
0.719140063229762 -4.598394230322493
0.7470175071021347 -4.6276975945870396
0.7748949509745063 -4.598394230322332
0.7989670244719411 -4.526509468840373
0.8196505095570893 -4.415476587505064
0.8374489478082071 -4.269263779293449
0.8526352196084012 -4.092087563221267
0.86542062493463 -3.8883125039124296
0.8760301109004655 -3.6622222688228994
0.8846696585935012 -3.4178669305583833
0.8915108338995718 -3.158999923920811
0.8967011953894839 -2.889054300632458
0.9003925730270916 -2.6111175139558704
0.9027877226945671 -2.3278306315312642
0.9041797110475889 -2.0412898712509815
0.9049266772297775 -1.752960980649163
0.9053492522245581 -1.463699112147256
0.9056136285075487 -1.1738870171027542
0.9057608760583463 -0.8836647851990302
0.9058192443312263 -0.5930933121045672
0.905851080622105 -0.3022808119429509
0.9063850341468161 -0.010824586302225481
0.6602800229635948 -0.011218878975647634
0.6606452237581423 -0.30231279089673746
0.660646279468186 -0.5930977058797671
0.660642828648615 -0.8836629040889654
0.6606891082982541 -1.1738975017546271
0.660807773335943 -1.4637257145704181
0.6610146350975146 -1.7530089579086745
0.6613662850568096 -2.0413863181633927
0.6620074903670115 -2.328039409044113
0.6631443205279174 -2.6115156267144033
0.6649372184566775 -2.889698017687158
0.6674924078067879 -3.159925001593942
0.6708751431650544 -3.419100979899453
0.6751584410173463 -3.663797124920742
0.6804412433718503 -3.890267551451075
0.6868676988427235 -4.094472830994828
0.6946493620569367 -4.272137211389842
0.7040598494741687 -4.418898804037669
0.7154167778977428 -4.530579150920503
0.7293366457191728 -4.6033050309285715
0.7470175071021168 -4.633599816836968
0.7646983684850601 -4.60330503092841
0.7786182363064879 -4.530579150920178
0.7899751647300565 -4.4188988040372
0.7993856521472822 -4.272137211389262
0.8071673153614907 -4.094472830994168
0.8135937708323588 -3.8902675514503575
0.8188765731868581 -3.6637971249199874
0.8231598710391475 -3.419100979898684
0.8265426063974101 -3.159925001593183
0.8290977957475165 -2.8896980176864315
0.8308906936762734 -2.611515626713725
0.8320275238371774 -2.328039409043495
0.8326687291473779 -2.0413863181628424
0.8330203791066721 -1.7530089579081967
0.8332272408682436 -1.4637257145700187
0.8333459059059324 -1.1738975017543032
0.8333921855555716 -0.8836629040887183
0.8333887347360003 -0.593097705879595
0.8333897904460439 -0.30231279089664126
0.8337549912405905 -0.011218878975630507
0.7328534177300603 -0.011512343441268072
0.733099038105246 -0.3023434646357986
0.733065008725115 -0.5930976531231632
0.732999894918831 -0.8836529897555105
0.7329476784689699 -1.1738936857637896
0.7329206526149628 -1.4637314859165182
0.7329098772507202 -1.7530239077586867
0.7329056647806911 -2.041414053056909
0.7329038819862361 -2.328092620623807
0.7329036076056399 -2.611615508789671
0.7329036281379603 -2.88986462289174
0.7329013128943602 -3.1601747247467404
0.7328899689158872 -3.419445353118678
0.7328684872459331 -3.6642497718833993
0.7328601514895983 -3.890850299056069
0.7329493048092122 -4.095223147814472
0.7333280901975161 -4.273117026065091
0.7343433616765034 -4.420194717385869
0.7364621875427075 -4.532293438088372
0.740207821430146 -4.605657937639641
0.7470175071020981 -4.637015598599644
0.7538271927740509 -4.605657937639481
0.7575728266614887 -4.532293438088046
0.759691652527691 -4.4201947173854
0.760706924006678 -4.273117026064511
0.7610857093949831 -4.095223147813812
0.7611748627145981 -3.89085029905535
0.7611665269582643 -3.6642497718826443
0.7611450452883127 -3.419445353117909
0.7611337013098414 -3.160174724745981
0.7611313860662426 -2.8898646228910136
0.7611314065985639 -2.611615508788993
0.7611311322179684 -2.3280926206231887
0.7611293494235138 -2.0414140530563585
0.7611251369534849 -1.7530239077582088
0.7611143615892425 -1.4637314859161188
0.7610873357352353 -1.1738936857634652
0.7610351192853744 -0.8836529897552634
0.7609700054790902 -0.5930976531229911
0.760935976098959 -0.30234346463570244
0.7611815964741443 -0.011512343441250404
0.8053816873253424 -0.011731237291845177
0.8055441469029934 -0.30237428725994564
0.8054766078527024 -0.5930921048573377
0.8053506805631099 -0.8836352120620936
0.8052026004242041 -1.173875923241942
0.8050321000069862 -1.4637161284843805
0.8048040952661493 -1.7530064165462598
0.8044436486756876 -2.0413854037804855
0.8037995227714285 -2.3280391153933686
0.8026627692976155 -2.611515604741485
0.8008700295232025 -2.8896976857299856
0.7983085392211327 -3.1599218311889716
0.7949024965434833 -3.419092844434494
0.7905782081149149 -3.663787612944477
0.7852846035874161 -3.890278875367967
0.7790438612209452 -4.094565408909059
0.7720114139100377 -4.272431504894365
0.764536058897247 -4.419585367954883
0.7571396774457939 -4.531866939337881
0.7505756148397447 -4.605567922208957
0.7470175071020789 -4.63803006153403
0.7434593993644126 -4.605567922208794
0.7368953367583642 -4.531866939337555
0.729498955306915 -4.419585367954414
0.722023600294131 -4.272431504893785
0.7149911529832313 -4.0945654089084
0.7087504106167671 -3.8902788753672493
0.7034568060892752 -3.663787612943723
0.6991325176607143 -3.4190928444337256
0.6957264749830723 -3.1599218311882127
0.6931649846810092 -2.889697685729259
0.6913722449066015 -2.611515604740808
0.6902354914327916 -2.3280391153927504
0.6895913655285348 -2.041385403779935
0.6892309189380742 -1.753006416545782
0.6890029141972378 -1.4637161284839808
0.6888324137800199 -1.1738759232416176
0.6886843336411144 -0.8836352120618465
0.6885584063515219 -0.5930921048571656
0.6884908673012308 -0.30237428725984955
0.6886533268788816 -0.011731237291827233
0.8778753384195955 -0.011897143229025395
0.8779822481755216 -0.3024039219965935
0.8778849149107859 -0.593081332160047
0.8777007712763949 -0.8836096944988245
0.8774602362571027 -1.1738448168120483
0.8771499022629132 -1.4636800675817339
0.8767061474657485 -1.7529555559975785
0.8759514332606608 -2.04128779400265
0.8745585853984829 -2.3278301823375847
0.8721647213084488 -2.6111176101761613
0.8684726947552592 -2.889053185923117
0.8632753071155587 -3.1589932034770944
0.8564139787129728 -3.4178507506003495
0.8477419608275656 -3.6622043474533723
0.8371330885410451 -3.888337993228432
0.8245384164118028 -4.092277368374978
0.8100711014914844 -4.2698516890470115
0.7940661766664888 -4.416823073449606
0.7771477961732529 -4.529091582119592
0.7605906039383011 -4.60315561733034
0.7470175071020606 -4.6368226781108035
0.7334444102658197 -4.603155617330176
0.716887218030871 -4.529091582119267
0.699968837537643 -4.416823073449141
0.6839639127126591 -4.269851689046434
0.6694965977923544 -4.0922773683743205
0.6569019256631248 -3.8883379932277164
0.6462930533766164 -3.662204347452621
0.6376210354912223 -3.4178507505995834
0.630759707088649 -3.158993203476338
0.6255623194489601 -2.8890531859223927
0.62187029289578 -2.6111176101754854
0.6194764288057526 -2.3278301823369674
0.6180835809435788 -2.0412877940020997
0.6173288667384934 -1.7529555559971006
0.6168851119413293 -1.4636800675813342
0.6165747779471403 -1.1738448168117241
0.6163342429278483 -0.8836096944985773
0.6161500992934573 -0.5930813321598748
0.6160527660287215 -0.30240392199649735
0.6161596757846475 -0.011897143229007224
0.9503519464896644 -0.012020899782237924
0.9504179915699486 -0.3024306841469691
0.9502945962803099 -0.5930659431154294
0.9500557312960427 -0.8835767768188703
0.9497265804277921 -1.1738011913402018
0.949281334379156 -1.4636240217379164
0.9486053967455033 -1.7528639674794213
0.9473874289920351 -2.041087503729661
0.9451485783572392 -2.327405354839341
0.9413915978645939 -2.6103542164398346
0.9357059532659406 -2.8878705422722653
0.9277947092421462 -3.1573351472513163
0.9174163825793838 -3.4156690904139158
0.9043433432831379 -3.6594523381029007
0.8883634551038543 -3.8849790442666894
0.8693432400079539 -4.088304741122277
0.8473287552120656 -4.26531181982607
0.8226677361072207 -4.411837979866615
0.7962274762650783 -4.523921116061067
0.7697804926637882 -4.59831621424514
0.7470175071020427 -4.633466938690582
0.7242545215402982 -4.598316214244978
0.6978075379390137 -4.523921116060744
0.6713672780968821 -4.411837979866152
0.6467062589920536 -4.265311819825497
0.6246917741961842 -4.088304741121624
0.6056715591003019 -3.8849790442659784
0.5896916709210361 -3.6594523381021533
0.5766186316248086 -3.415669090413154
0.5662403049620637 -3.1573351472505635
0.5583290609382856 -2.8878705422715445
0.552643416339646 -2.6103542164391613
0.5488864358470106 -2.3274053548387257
0.546647585212221 -2.0410875037291114
0.5454296174587565 -1.7528639674789432
0.5447536798251054 -1.4636240217375167
0.5443084337764698 -1.1738011913398776
0.5439792829082194 -0.883576776818623
0.5437404179239523 -0.5930659431152572
0.5436170226343137 -0.3024306841468731
0.5436830677145978 -0.012020899782219582
1.0228254993961152 -0.01210923815211613
1.0228575213458333 -0.30245308360939455
1.022710204754388 -0.5930463643208629
1.0224202906250428 -0.883537013165595
1.0220069211741254 -1.173746105743465
1.0214278418270828 -1.463546726822633
1.0204866170564717 -1.7527166907238887
1.0187373436434124 -2.040752123004601
1.0155698958995243 -2.3267260447099902
1.010367847067716 -2.60919105512418
1.0026239392019982 -2.8861215285695327
0.9919482682482278 -3.15492363868616
0.978009860032073 -3.412526263322334
0.9604959785647394 -3.655510570702909
0.9391057817440297 -3.8801790723488065
0.9136082952926939 -4.082617658541639
0.883975153019467 -4.25877448373392
0.8506105081678684 -4.404606674518306
0.814674493631401 -4.516355486597212
0.7786179159368442 -4.59114203685103
0.7470175071020253 -4.628070031730387
0.7154170982672087 -4.591142036850869
0.6793605205726599 -4.516355486596892
0.6434245060362065 -4.404606674517846
0.6100598611846281 -4.258774483733352
0.5804267189114247 -4.082617658540991
0.5549292324601125 -3.8801790723480996
0.5335390356394263 -3.6555105707021665
0.5160251541721165 -3.4125262633215776
0.502086745955984 -3.154923638685412
0.49141107500223424 -2.886121528568816
0.4836671671365344 -2.60919105512351
0.47846511830473926 -2.3267260447093765
0.47529767056085986 -2.0407521230040526
0.4735483971478059 -1.7527166907234113
0.4726071723771971 -1.4635467268222335
0.47202809303015547 -1.1737461057431406
0.4716147235792383 -0.8835370131653477
0.47132480944989313 -0.5930463643206906
0.4711774928584481 -0.3024530836092985
0.4712095148081659 -0.01210923815209766
1.0953045667217591 -0.012168202395698104
1.095307300075683 -0.30246985539050314
1.0951369777859314 -0.5930228090514645
1.0947995805194957 -0.8834911052558884
1.0943070686349554 -1.1736806873062924
1.0935860972579523 -1.4634438555189437
1.092338270373418 -1.7524956554534348
1.089995860381849 -2.0402545570931454
1.085830795680049 -2.3257658413758406
1.079129230434361 -2.6076078201798616
1.0692929276393288 -2.883790998360388
1.0558238092107985 -3.1517449042727717
1.038296047540188 -3.4084091305515436
1.0163150871822895 -3.650366871196821
0.9894958847053965 -3.873926089640005
0.957507756148277 -4.075202288845132
0.9202598951388419 -4.250228196894839
0.8782250506546088 -4.395127606398783
0.8329042921336448 -4.5064262063917315
0.7873999538573634 -4.581687618763538
0.7470175071020083 -4.6206515331636995
0.706635060346656 -4.581687618763379
0.6611307220703855 -4.506426206391414
0.6158099635494391 -4.3951276063983284
0.5737751190652297 -4.250228196894277
0.5365272580558229 -4.0752022888444905
0.5045391294987319 -3.873926089639305
0.4777199270218678 -3.650366871196085
0.45573896666399855 -3.4084091305507935
0.4382112049934151 -3.151744904272029
0.42474208656491014 -2.8837909983596766
0.4149057837698995 -2.607607820179196
0.4082042185242279 -2.3257658413752296
0.4040391538224391 -2.0402545570925987
0.4016967438308771 -1.7524956554529583
0.40044891694634627 -1.4634438555185445
0.39972794556934416 -1.173680687305968
0.3992354336848044 -0.8834911052556412
0.3988980364183687 -0.5930228090512923
0.3987277141286174 -0.30246985539040705
0.3987304474825412 -0.012168202395679553
1.1677949476812013 -0.012203556734380505
1.167772977709356 -0.3024802110676224
1.1675805044548724 -0.5929953082890653
1.167198473364975 -0.8834398491971475
1.1666290697663007 -1.1736048186035153
1.1657492359593473 -1.4633077214202734
1.164152793375244 -1.7521828638286567
1.1611604464969025 -2.0395725391738764
1.1559483525505627 -2.3245079080638984
1.147724808505955 -2.6055940527419867
1.1357783516753335 -2.880870541150643
1.1195025036597013 -3.1477911442289477
1.0983729450122333 -3.4033096713981754
1.0719110020554072 -3.6440141039394214
1.0396591877757637 -3.866216717768467
1.0012187601788514 -4.066062607441692
0.9564373026091939 -4.23968409175548
0.9058477166958724 -4.383421298731717
0.8512583784970295 -4.494159192640992
0.7963262376254286 -4.569956736845092
0.7470175071019913 -4.611177136811461
0.6977087765785579 -4.569956736844935
0.6427766357069702 -4.494159192640678
0.5881872975081487 -4.3834212987312675
0.5375977115948546 -4.239684091754925
0.49281625402522994 -4.066062607441059
0.4543758264283514 -3.8662167177677746
0.4221240121487416 -3.644014103938693
0.39566206919195035 -3.403309671397433
0.37453251054451436 -3.147791144228212
0.35825666252891164 -2.880870541149937
0.3463102056983154 -2.605594052741326
0.338086661653727 -2.3245079080632913
0.332874567707401 -2.039572539173332
0.3298822208290686 -1.7521828638281813
0.3282857782449695 -1.4633077214198746
0.32740594443801785 -1.1736048186031909
0.3268365408393439 -0.8834398491969003
0.32645450974944684 -0.5929953082888929
0.3262620364949631 -0.30248021106752637
0.32624006652311804 -0.012203556734361888
1.240300384345693 -0.012220998368881516
1.2402592366033571 -0.3024838997133029
1.240046487288555 -0.5929638746489272
1.2396220282739312 -0.8833839225491269
1.238974475394676 -1.173517337114524
1.2379112822937073 -1.4631286826145926
1.2359216379270024 -1.75175995110219
1.2322304509791753 -2.0386899241661736
1.2259556091702406 -2.322944588386609
1.2162009378951195 -2.603144704242811
1.2021436259517226 -2.8773565486667816
1.183065071727834 -3.1430594054211607
1.1583360453653513 -3.3972242099792958
1.1273925589149887 -3.636448861685726
1.089723467877812 -3.8570551273885596
1.0448993693361992 -4.055218347877894
0.9927464974375224 -4.227177054901647
0.9338033555983987 -4.369523452065997
0.8700527166225712 -4.479563379186184
0.8055793158915254 -4.55590922134631
0.7470175071019745 -4.599568845047699
0.6884556983124281 -4.5559092213461545
0.6239822975813976 -4.479563379185875
0.5602316586055953 -4.369523452065554
0.5012885167665034 -4.227177054901101
0.4491356448678638 -4.055218347877268
0.4043115463262899 -3.8570551273878766
0.3666424552891524 -3.6364488616850066
0.33569896883882916 -3.3972242099785626
0.3109699424763838 -3.1430594054204333
0.29189138825252864 -2.877356548666083
0.27783407630916074 -2.603144704242156
0.2680794050340618 -2.322944588386006
0.2618045632251437 -2.0386899241656318
0.2581133762773275 -1.7517599511017163
0.2561237319106278 -1.4631286826141945
0.2550605388096612 -1.1735173371141998
0.2544129859304065 -0.8833839225488799
0.25398852691578305 -0.5929638746487548
0.2537757776009812 -0.30248389971320694
0.25373462985864537 -0.012220998368862878
1.3128225387654118 -0.012226276798736713
1.312769696385769 -0.3024812851053469
1.312541073014265 -0.5929286663693616
1.3120757248171928 -0.8833238676980563
1.3113423681716512 -1.173414867906477
1.3100652819561853 -1.4628945301706626
1.3076366972532467 -1.7512113313264972
1.3032278283850869 -2.037599579314534
1.295882536421821 -2.3210725904627467
1.2846035135649858 -2.600259021614933
1.2684512996979513 -2.873250136329289
1.2465896130757583 -3.137551133291599
1.2182819752338099 -3.3901536484108954
1.1828756140955998 -3.627671984777971
1.139811504799143 -3.8464485765916328
1.0886860844504176 -4.042699833577667
1.0293794535079512 -4.212766965088933
0.9623962248579194 -4.353487792250954
0.8896206962019602 -4.4626348447669635
0.8153917980261798 -4.53946191268849
0.7470175071019574 -4.585695641006961
0.6786432161777401 -4.539461912688338
0.6044143180019774 -4.46263484476666
0.5316387893460476 -4.35348779225052
0.464655560696052 -4.212766965088395
0.4053489297536278 -4.0426998335770525
0.35422350940494624 -3.846448576590959
0.31115940010853366 -3.6276719847772623
0.27575303897036807 -3.3901536484101724
0.2474454011284619 -3.1375511332908808
0.22558371450630652 -2.8732501363285987
0.20943150063930424 -2.6002590216142845
0.1981524777824941 -2.321072590462149
0.19080718581924713 -2.037599579313996
0.1863983169511 -1.7512113313260256
0.18396973224816793 -1.4628945301702654
0.18269264603270502 -1.1734148679061531
0.18195928938716394 -0.8833238676978091
0.18149394119009205 -0.5929286663691895
0.18126531781858846 -0.30248128510525085
0.18121247543894564 -0.01222627679871807
1.3853603740724703 -0.012225212294654014
1.3853068295245747 -0.3024735466459062
1.385071471145278 -0.5928902952208276
1.3845650448585873 -0.8832592277769704
1.383729130296304 -1.1732920667838127
1.3822022585040954 -1.4625907435711425
1.3793049581095846 -1.7505274926967076
1.3741679626450984 -2.0362982259347717
1.3657594232942136 -2.3188922969656054
1.3529787040862418 -2.596940772637412
1.334764018428584 -2.8685565612454367
1.310156119708504 -3.131272243168023
1.2783060507712596 -3.3821035474892964
1.2384736146190782 -3.61768918533778
1.1900647575852372 -3.8344078769364955
1.132714108508517 -4.028536680536152
1.0664327780840335 -4.196523745478391
0.9918131749056724 -4.335412107013492
0.9104503452906559 -4.443384827725789
0.8261365401127122 -4.520472155152884
0.7470175071019403 -4.5693445492363045
0.6678984740911736 -4.520472155152735
0.5835846689132501 -4.443384827725493
0.502221839298267 -4.335412107013066
0.42760223611994774 -4.196523745477865
0.3613209056955107 -4.028536680535549
0.3039702566188401 -3.834407876935834
0.2555613995850486 -3.617689185337082
0.2157289634329162 -3.382103547488585
0.18387889449571884 -3.1312722431673152
0.15927099577568088 -2.868556561244756
0.14105631011805822 -2.596940772636771
0.12827559091011453 -2.318892296965013
0.1198670515592508 -2.036298225934238
0.11473005609477893 -1.750527492696238
0.11183275570027586 -1.4625907435707464
0.11030588390807079 -1.1732920667834892
0.10946996934578852 -0.8832592277767233
0.10896354305909818 -0.5928902952206555
0.1087281846798015 -0.30247354664581033
0.10867464013190616 -0.01222521229463535
1.4579088199155341 -0.012223509094597962
1.4578718143982123 -0.30246324355281323
1.4576473220875281 -0.5928500782450373
1.457094507522189 -0.8831874444220253
1.45612857395437 -1.173139665218892
1.4543191743174313 -1.462206934793566
1.4509357807406995 -1.7497031112708883
1.4450679962503417 -2.0347853122670005
1.4356164285303046 -2.316408348965517
1.4213727632236248 -2.593198046432466
1.4011461789379267 -2.8632856281614347
1.3738436135202805 -3.1242323255143347
1.3385028944511363 -3.3730840062233804
1.2943094116533909 -3.606513432413261
1.2406308901355028 -3.820948769753103
1.1771351309273617 -4.0127506468573495
1.1039739410421472 -4.1784978480999895
1.0219858447279426 -4.315418666302887
0.9328289260601338 -4.421976750662753
0.83915514310962 -4.498762653543902
0.7470175071019227 -4.549999999999992
0.6548798710942307 -4.498762653543756
0.5612060881437391 -4.421976750662464
0.4720491694759687 -4.315418666302471
0.39006107316181177 -4.178497848099474
0.3168998832766493 -4.012750646856759
0.25340412406856244 -3.820948769752454
0.1997256025507293 -3.6065134324125756
0.15553211975303782 -3.3730840062226815
0.12019140068394513 -3.124232325513639
0.09288883526634575 -2.8632856281607633
0.07266225098068559 -2.5931980464318336
0.058418585674036336 -2.3164083489649303
0.04896701795402276 -2.034785312266471
0.04309923346368068 -1.7497031112704218
0.039715839886957885 -1.4622069347931712
0.037906440250023356 -1.173139665218569
0.03694050668220565 -0.8831874444217782
0.036387692116867154 -0.5928500782448654
0.036163199806183134 -0.3024632435527174
0.03612619428886117 -0.012223509094579267
SCALARS Stress float 6
LOOKUP_TABLE default
-1310.3342346558532 -2116.7285800425534 -1637.8970864235391 -30.519370900170028 0.0 0.0
1396.1997953871164 824.4933362734537 1053.7359631499833 -19.415142324515205 0.0 0.0
642.4294623365898 182.0721001915406 271.388349156084 -42.652803420792004 0.0 0.0
508.7473399416535 36.43351356677783 171.63053009634353 -0.5081894540468201 0.0 0.0
640.6215662992856 91.13919788398762 272.94826904919864 3.4036577985325387 0.0 0.0
771.734965060473 149.39368860628187 410.8326713893914 1.7034345151625083 0.0 0.0
910.5563638287992 212.39044755633122 539.4342849226878 0.24008915039598522 0.0 0.0
1054.7539587047877 293.4400913180463 660.83759897426 -1.285438974146167 0.0 0.0
1210.0042111505145 391.0645109241947 789.0633178062094 -3.1104073690888363 0.0 0.0
1384.3004158513527 512.5330960782023 937.1029938307861 -5.105370838895406 0.0 0.0
1583.3658688033174 663.2551220414175 1111.6732459628379 -6.950835092402132 0.0 0.0
1806.8523870689046 843.1388585062723 1312.9265825060277 -8.319251910696524 0.0 0.0
2048.7278349025732 1044.9084021063597 1534.3046062702024 -9.15391870789553 0.0 0.0
2301.0192884206344 1260.3881830418145 1767.7723650606538 -9.783861048289374 0.0 0.0
2553.6185983456908 1479.28745140424 2003.125106473461 -10.168103321938888 0.0 0.0
2794.67272138811 1689.7779243173293 2228.5479915640917 -10.197639881519791 0.0 0.0
3011.6902952692553 1879.7080455102907 2431.755723006151 -9.706741362063134 0.0 0.0
3192.5778133238905 2037.4355700321207 2600.8887156933665 -8.689206945086516 0.0 0.0
3336.993371060797 2163.1077703634446 2735.7074090976016 -7.678464680659296 0.0 0.0
3429.5650238359453 2242.1508234774674 2821.222729596966 -10.55012598159272 0.0 0.0
3421.3735886351697 2233.392375306991 2812.894549770101 2.4924062813624914e-11 0.0 0.0
3429.565023837663 2242.150823479236 2821.2227295981024 10.550125981768241 0.0 0.0
3336.9933710611 2163.107770363847 2735.7074090971264 7.678464680745792 0.0 0.0
3192.5778133209205 2037.4355700292072 2600.888715690865 8.68920694511897 0.0 0.0
3011.6902952676082 1879.7080455087544 2431.755723004415 9.706741361854942 0.0 0.0
2794.6727213891895 1689.777924318624 2228.5479915644373 10.197639881481827 0.0 0.0
2553.6185983429646 1479.287451401637 2003.1251064710448 10.168103322025027 0.0 0.0
2301.019288419994 1260.388183041403 1767.7723650599182 9.783861048119467 0.0 0.0
2048.727834899312 1044.9084021032493 1534.3046062676838 9.153918707731133 0.0 0.0
1806.8523870686415 843.1388585062457 1312.926582505626 8.319251910609907 0.0 0.0
1583.365868802354 663.2551220407493 1111.6732459618727 6.950835092209347 0.0 0.0
1384.3004158499764 512.5330960771039 937.1029938297123 5.105370838777718 0.0 0.0
1210.0042111488021 391.0645109227731 789.0633178049228 3.110407369418361 0.0 0.0
1054.7539587037236 293.4400913172485 660.8375989734419 1.2854389745664658 0.0 0.0
910.5563638269729 212.39044755470303 539.4342849213424 -0.24008915031192934 0.0 0.0
771.7349650595183 149.39368860559162 410.8326713885797 -1.7034345151941022 0.0 0.0
640.621566298607 91.13919788357005 272.94826904865926 -3.4036577984615324 0.0 0.0
508.747339940791 36.43351356578729 171.63053009580153 0.5081894542025589 0.0 0.0
642.4294623364289 182.0721001916382 271.3883491559648 42.65280342069102 0.0 0.0
1396.199795386746 824.4933362730811 1053.735963149514 19.41514232445106 0.0 0.0
-1310.334234653155 -2116.7285800398513 -1637.897086420809 30.519370899727768 0.0 0.0
-1668.4669528380923 -2446.5874070553664 -1951.7560909435729 -33.32678141554854 0.0 0.0
953.0005339791023 454.47902019711785 663.3840423074776 -27.040748022394702 0.0 0.0
450.28806675281453 71.17117365234718 155.84451148413964 -37.50313890268034 0.0 0.0
447.5554028950816 9.097335856114018 140.52736955143618 -15.528408805012306 0.0 0.0
565.9869503150384 41.309291637540376 217.9162506092227 -17.23166373456237 0.0 0.0
672.3004712306683 59.85119529152577 321.3375150157797 -23.32078677572231 0.0 0.0
764.1815119426984 81.26457463447974 410.12881985316267 -24.579987103794995 0.0 0.0
851.7609352057553 104.06306322737487 475.0906370538231 -24.876778845977736 0.0 0.0
930.9894531329433 125.12698294190676 526.9548910249065 -25.651827108956677 0.0 0.0
1003.4002101339113 145.03624040652986 573.4934430146659 -26.60442729918455 0.0 0.0
1072.313083876819 166.30521877560182 618.6745807038426 -27.14807178642988 0.0 0.0
1140.2504881172151 190.62142037285008 664.8227362956554 -27.182540624763302 0.0 0.0
1206.8206010687188 218.08599404902662 711.8587791558059 -26.80385480690191 0.0 0.0
1269.4324580455811 244.36028824076186 756.315693514457 -26.222422106081943 0.0 0.0
1322.8477624153425 264.55340656529484 793.1376576557903 -25.42761652004649 0.0 0.0
1362.8436605660274 274.3982533129591 818.0788606831956 -24.170782988967108 0.0 0.0
1386.947851031072 271.639872360802 828.7663474990496 -22.219110632333102 0.0 0.0
1395.6508937946269 257.2078711567076 825.9050960061128 -19.701539006169597 0.0 0.0
1381.7406224905596 224.62084662705183 802.7742075626888 -17.56392110939794 0.0 0.0
1295.9675113959458 125.89121964078723 711.2429789695542 -18.866309452945483 0.0 0.0
1155.724497417054 -14.008749618642042 572.2535312813859 -5.509903644451697e-11 0.0 0.0
1295.9675113975325 125.89121964245498 711.2429789706148 18.866309453016434 0.0 0.0
1381.7406224905972 224.62084662710964 802.7742075625697 17.563921109395153 0.0 0.0
1395.6508937945864 257.207871156765 825.9050960061993 19.701539006124705 0.0 0.0
1386.9478510304411 271.639872360288 828.766347498743 22.219110632216037 0.0 0.0
1362.8436605661916 274.39825331325534 818.0788606832714 24.17078298901302 0.0 0.0
1322.847762414402 264.55340656450755 793.1376576551646 25.427616520044804 0.0 0.0
1269.432458045398 244.36028824075888 756.3156935143097 26.22242210596631 0.0 0.0
1206.820601068219 218.08599404875378 711.85877915551 26.803854806872263 0.0 0.0
1140.2504881174177 190.62142037324998 664.8227362959176 27.182540624680115 0.0 0.0
1072.3130838765353 166.30521877554168 618.6745807036469 27.148071786133286 0.0 0.0
1003.4002101343391 145.03624040726805 573.4934430149467 26.60442729906017 0.0 0.0
930.9894531319053 125.1269829411363 526.954891024221 25.651827109104417 0.0 0.0
851.7609352050011 104.06306322695099 475.0906370533455 24.87677884612554 0.0 0.0
764.181511941594 81.26457463360433 410.12881985236453 24.579987103751215 0.0 0.0
672.3004712306822 59.85119529193692 321.33751501558885 23.320786775704036 0.0 0.0
565.9869503142897 41.30929163702642 217.91625060868788 17.231663734444112 0.0 0.0
447.5554028944448 9.097335855581248 140.52736955109708 15.528408805121742 0.0 0.0
450.2880667526575 71.17117365261203 155.8445114841731 37.50313890255505 0.0 0.0
953.0005339784221 454.479020196479 663.384042306759 27.04074802243853 0.0 0.0
-1668.46695283594 -2446.587407053233 -1951.7560909414226 33.32678141503121 0.0 0.0
-1407.1714997556119 -2150.2093020171255 -1663.209465053287 -71.78858522039444 0.0 0.0
774.2745271040875 362.12984053585143 520.6697735696496 -95.01824014269077 0.0 0.0
311.37653481692774 81.50413119199555 117.92357859617205 -41.7951968999183 0.0 0.0
384.4248117138367 2.887858820255766 116.55207405628579 -37.42240949556977 0.0 0.0
520.6969123954239 31.090133708874244 186.2422155613571 -39.77307926349583 0.0 0.0
638.2938510382367 53.79475164938748 289.3944583560369 -43.644295663378344 0.0 0.0
733.5875040702424 75.34958893372655 386.1691833833429 -45.38311294076323 0.0 0.0
820.4582509213784 94.1219075595381 453.0143100323734 -46.238715427844255 0.0 0.0
896.2370914279633 111.25435001142 502.25926135593653 -47.783585595998524 0.0 0.0
964.5949187547685 127.14288991062108 544.8504027059735 -49.10326698321226 0.0 0.0
1030.2627991549675 145.6922162025005 587.0424407710414 -49.462706347696255 0.0 0.0
1095.3813147716164 168.3436690335052 630.9581817147846 -48.97300453268795 0.0 0.0
1159.429252292189 193.15666310705362 675.4295514335015 -48.06710448072378 0.0 0.0
1218.947897287919 217.47122183408283 717.3738121747621 -46.86162523893362 0.0 0.0
1270.9812696088707 236.80022477028805 753.0649320994643 -45.29823298993432 0.0 0.0
1311.4462207507374 247.48524398996892 778.6470318852095 -43.063586980572985 0.0 0.0
1337.6750523993746 246.98659755848163 791.5354199054933 -39.85422431095399 0.0 0.0
1344.9877719252072 231.12534166955882 787.3549450849545 -36.006722211329055 0.0 0.0
1318.6228632477628 186.1440967283117 751.9685616900437 -32.674549104672444 0.0 0.0
1270.987527738838 125.87644202117886 698.375528945445 -31.02587876615781 0.0 0.0
1110.614257037236 -33.37531953647803 539.7780813380493 -3.5067060366600344e-11 0.0 0.0
1270.9875277391443 125.87644202154478 698.3755289455169 31.025878766168873 0.0 0.0
1318.62286324774 186.14409672836035 751.968561690126 32.674549104810254 0.0 0.0
1344.987771926557 231.1253416710036 787.3549450861046 36.00672221142319 0.0 0.0
1337.6750523982341 246.98659755741875 791.5354199047495 39.85422431081693 0.0 0.0
1311.4462207502988 247.48524398969394 778.6470318849111 43.06358698053413 0.0 0.0
1270.9812696092329 236.80022477085294 753.0649320997715 45.298232990071284 0.0 0.0
1218.9478972876634 217.47122183403255 717.3738121745557 46.86162523907193 0.0 0.0
1159.4292522920332 193.1566631070506 675.4295514334367 48.06710448062445 0.0 0.0
1095.3813147710641 168.34366903315677 630.9581817145236 48.97300453251505 0.0 0.0
1030.2627991551835 145.6922162029884 587.042440771166 49.46270634770863 0.0 0.0
964.5949187550879 127.14288991122847 544.8504027062008 49.10326698332878 0.0 0.0
896.237091427364 111.25435001107198 502.2592613555212 47.78358559588127 0.0 0.0
820.4582509210333 94.12190755948032 453.01431003211286 46.23871542777064 0.0 0.0
733.5875040692754 75.34958893300207 386.1691833826293 45.38311294066139 0.0 0.0
638.2938510382971 53.79475164982992 289.39445835589606 43.64429566343455 0.0 0.0
520.6969123948404 31.090133708452697 186.24221556095256 39.77307926339145 0.0 0.0
384.42481171383594 2.8878588204115863 116.5520740563384 37.42240949561676 0.0 0.0
311.3765348169551 81.50413119195471 117.92357859616395 41.795196899786234 0.0 0.0
774.2745271032693 362.1298405353538 520.6697735689128 95.01824014269937 0.0 0.0
-1407.1714997533861 -2150.20930201493 -1663.209465051042 71.78858521997108 0.0 0.0
-1156.3623163234279 -1868.6788186649496 -1391.5565102165476 -85.59036884104864 0.0 0.0
594.1073503914895 266.8711655987363 387.2721237945246 -145.90438051782684 0.0 0.0
224.7237128753017 67.68376703863638 87.7222439741814 -63.095231587548255 0.0 0.0
319.62623152438846 8.533242749991961 98.1880384286608 -60.60230972252997 0.0 0.0
464.7697676460212 18.690636238659277 154.02159130811643 -64.8927357065673 0.0 0.0
592.2009634944563 46.20485851217582 251.77269909765732 -65.1636720380362 0.0 0.0
699.2761296639065 67.5892646915922 356.35593933227454 -67.48743118866822 0.0 0.0
784.2918945149768 84.36580137750974 427.48171031346743 -67.76326982322627 0.0 0.0
857.3531133663612 97.66468551936342 475.3568494441942 -69.48712650700759 0.0 0.0
922.0317148894983 109.88540676801188 514.5408523068993 -70.78879507830895 0.0 0.0
984.0707660325907 125.35217730128099 553.386311205951 -70.81917916466138 0.0 0.0
1046.4022598286667 145.43217774128925 594.6291784280711 -69.9232780967169 0.0 0.0
1107.4555106650037 168.51177117756674 636.7700747253024 -68.4912335040166 0.0 0.0
1164.3711482654712 189.96575245098916 675.9913581995589 -66.75241551252854 0.0 0.0
1214.6656318037244 208.23595361284438 710.2732571892541 -64.48748277986677 0.0 0.0
1256.1506352386973 220.456323285958 737.1305998367667 -61.427367929335546 0.0 0.0
1283.9827969293292 221.4580103070675 751.5986071997506 -57.416130619582546 0.0 0.0
1290.27075718881 204.38540053958388 746.3735963785803 -52.70835469880978 0.0 0.0
1271.689025783416 166.92811917985327 718.5983758242891 -47.60656900340455 0.0 0.0
1243.776848469768 125.72555759861348 684.2413585805879 -41.49994558690628 0.0 0.0
1020.0682381341293 -96.30176246257176 463.24627827020964 2.064126647383091e-12 0.0 0.0
1243.7768484706512 125.72555759957933 684.2413585811361 41.4999455870478 0.0 0.0
1271.6890257825105 166.9281191790023 718.5983758236641 47.606569003571416 0.0 0.0
1290.270757189021 204.3854005398352 746.3735963788105 52.70835469878636 0.0 0.0
1283.982796929184 221.4580103070972 751.5986071995139 57.41613061961068 0.0 0.0
1256.1506352388703 220.45632328620977 737.1305998370364 61.427367929343134 0.0 0.0
1214.66563180444 208.23595361373404 710.2732571897509 64.48748277982864 0.0 0.0
1164.371148264567 189.96575245026742 675.9913581989189 66.75241551259528 0.0 0.0
1107.4555106645148 168.5117711772494 636.770074725022 68.49123350396226 0.0 0.0
1046.4022598281915 145.43217774107762 594.6291784277619 69.92327809681179 0.0 0.0
984.0707660320392 125.3521773009546 553.3863112055425 70.81917916471271 0.0 0.0
922.031714888951 109.88540676772763 514.5408523065587 70.78879507826842 0.0 0.0
857.3531133664665 97.66468551975026 475.3568494442647 69.487126507028 0.0 0.0
784.291894515529 84.36580137838621 427.48171031376717 67.76326982316719 0.0 0.0
699.2761296632402 67.58926469126311 356.3559393316582 67.48743118859124 0.0 0.0
592.2009634934817 46.20485851143145 251.77269909691051 65.16367203794235 0.0 0.0
464.76976764551705 18.6906362384135 154.02159130782857 64.8927357064964 0.0 0.0
319.62623152433343 8.533242750002913 98.18803842864685 60.602309722479696 0.0 0.0
224.72371287510302 67.68376703819582 87.72224397398965 63.09523158745421 0.0 0.0
594.1073503908597 266.8711655984967 387.27212379395485 145.90438051769883 0.0 0.0
-1156.3623163215316 -1868.6788186630465 -1391.5565102145567 85.5903688407462 0.0 0.0
-937.0088120212918 -1623.7336130374251 -1152.156256181195 -83.997264253192 0.0 0.0
460.67860419811626 181.27611483479808 281.8335310461634 -179.13012452092028 0.0 0.0
164.02338539748138 52.2451346042355 64.88055600051506 -93.99345945619342 0.0 0.0
259.90001752930624 14.83042556313255 82.39326491518065 -85.88036328451106 0.0 0.0
398.77130308038227 10.664849596592639 125.03615272353878 -91.55963649148053 0.0 0.0
536.4290219608067 33.29584249442675 209.24486563975987 -90.34250317209657 0.0 0.0
653.8078370037593 58.53091027100783 317.8385448617879 -89.86203663869496 0.0 0.0
742.3167571364132 75.16832171562791 397.6887038707421 -89.68111450601563 0.0 0.0
813.7338901862967 84.6959759355549 445.8345990531065 -90.68234655405435 0.0 0.0
874.7989256260404 92.99658352581963 481.8835959939144 -91.62609323418388 0.0 0.0
933.5032346288776 105.13077227040623 517.4515421140092 -91.24095487489066 0.0 0.0
992.5273125778061 122.44226277939117 555.6745946683216 -89.93345040524949 0.0 0.0
1050.700899825563 142.7243992482937 595.0022690382191 -88.1436292250283 0.0 0.0
1104.929189029193 162.87939239044297 632.2608873786521 -85.84925448022561 0.0 0.0
1153.5840490840253 179.52948858871193 664.9199396950283 -82.92774649688626 0.0 0.0
1194.835500057505 191.3608357572573 691.4499975439398 -79.30073428322302 0.0 0.0
1224.78622223196 194.81482885425143 708.2181148708394 -74.85928030155507 0.0 0.0
1236.7365263453676 183.13640217914087 708.5334717491235 -69.48027025967635 0.0 0.0
1227.564167478976 154.2713376296577 689.7409804660255 -62.35488006092661 0.0 0.0
1209.057117153057 120.95899066042547 663.9799496848881 -52.20990767401806 0.0 0.0
907.9583900786687 -177.71293910642294 366.8782401235739 -4.994582525341684e-11 0.0 0.0
1209.0571171560425 120.95899066346753 663.9799496871619 52.209907674116685 0.0 0.0
1227.5641674773676 154.271337628141 689.7409804648194 62.354880060990425 0.0 0.0
1236.7365263445704 183.1364021783491 708.5334717485206 69.4802702596916 0.0 0.0
1224.7862222333035 194.81482885568025 708.2181148715824 74.85928030144001 0.0 0.0
1194.8355000571196 191.36083575704586 691.4499975438818 79.30073428316578 0.0 0.0
1153.5840490837415 179.52948858854842 664.9199396948443 82.92774649691076 0.0 0.0
1104.9291890285515 162.87939239006903 632.2608873781755 85.84925448033108 0.0 0.0
1050.7008998267022 142.7243992497134 595.0022690390731 88.14362922530312 0.0 0.0
992.5273125768585 122.44226277866021 555.6745946676735 89.93345040533774 0.0 0.0
933.5032346287929 105.13077227061254 517.4515421138676 91.24095487494176 0.0 0.0
874.7989256257018 92.99658352567155 481.8835959937457 91.62609323400754 0.0 0.0
813.7338901869799 84.69597593674916 445.83459905357506 90.68234655438519 0.0 0.0
742.3167571360544 75.16832171548234 397.6887038704443 89.68111450592568 0.0 0.0
653.8078370037358 58.530910271366935 317.8385448615915 89.86203663861382 0.0 0.0
536.4290219599807 33.295842493892124 209.24486563914346 90.34250317205914 0.0 0.0
398.7713030800218 10.664849596485238 125.03615272338637 91.55963649135359 0.0 0.0
259.90001752933495 14.830425562955222 82.39326491513374 85.88036328435669 0.0 0.0
164.0233853973561 52.24513460390978 64.88055600037976 93.99345945609508 0.0 0.0
460.67860419753873 181.27611483478583 281.83353104571614 179.13012452078158 0.0 0.0
-937.0088120199379 -1623.733613036015 -1152.1562561795713 83.99726425294776 0.0 0.0
-743.6245325326407 -1407.4060992789118 -938.7635673222658 -79.10030000533187 0.0 0.0
355.80845936051713 114.43309364038373 200.0993799744719 -198.94126322253248 0.0 0.0
118.6439092156452 35.64549009305476 46.286819792609975 -123.80409201162158 0.0 0.0
207.29604630916822 19.256094802261487 67.97123536597189 -111.45219446161943 0.0 0.0
327.401364653344 6.697760869830345 99.73563872976997 -118.46398063605156 0.0 0.0
465.73243094403466 20.431821403089913 166.16917991557366 -116.99195330352254 0.0 0.0
592.5872700532869 48.68409616816865 270.5793574258947 -113.42994257895398 0.0 0.0
692.843981836787 63.718792945473226 359.75070847809206 -112.52376575268272 0.0 0.0
762.6016609085317 72.04840768492824 411.7389055121322 -111.37644571447407 0.0 0.0
822.0730158017775 76.28314667745245 446.1803359482659 -111.60599512653111 0.0 0.0
877.3481559259136 84.98925921618618 478.51885470840676 -110.69228971230974 0.0 0.0
933.056545649018 99.46454714212113 513.6944485319578 -108.9442664234713 0.0 0.0
988.0349852410458 117.33635626817897 550.2446543919871 -106.8013922439136 0.0 0.0
1039.4523821151056 134.68874546677688 584.7274144792052 -104.17069097484163 0.0 0.0
1085.9944398881528 149.90830649442057 615.6421637142888 -100.69747502390982 0.0 0.0
1126.5844424906377 161.62989713900993 641.7938609682604 -96.48216131877487 0.0 0.0
1159.575777561373 167.5153730089252 661.2551129368918 -91.89114886736645 0.0 0.0
1180.2860906214526 164.33763242825538 670.1815579280865 -86.1809403985564 0.0 0.0
1181.7556324120098 145.11663299703568 661.5637353058706 -77.48914785196523 0.0 0.0
1168.9206570165422 115.10281813325636 640.3002417127244 -63.9458758517418 0.0 0.0
776.8837406531611 -273.199319999373 254.18215393507967 4.46984671498285e-11 0.0 0.0
1168.9206570192266 115.102818136069 640.3002417146852 63.94587585197502 0.0 0.0
1181.75563241294 145.11663299811744 661.563735306521 77.48914785225357 0.0 0.0
1180.2860906209742 164.33763242790357 670.1815579276922 86.18094039872237 0.0 0.0
1159.5757775620739 167.5153730097252 661.255112937335 91.89114886747792 0.0 0.0
1126.5844424920494 161.6298971406506 641.7938609693159 96.48216131887456 0.0 0.0
1085.9944398877587 149.90830649430563 615.6421637140044 100.69747502417749 0.0 0.0
1039.4523821154312 134.68874546732073 584.72741447935 104.17069097499615 0.0 0.0
988.0349852417356 117.33635626914759 550.2446543924232 106.80139224408362 0.0 0.0
933.0565456483333 99.46454714167851 513.6944485315456 108.94426642352146 0.0 0.0
877.3481559264565 84.98925921700696 478.518854708768 110.69228971245514 0.0 0.0
822.0730158008367 76.28314667666231 446.18033594762665 111.60599512636837 0.0 0.0
762.6016609092088 72.04840768609861 411.73890551258535 111.3764457146956 0.0 0.0
692.8439818353792 63.718792944185466 359.75070847709185 112.5237657525235 0.0 0.0
592.5872700524833 48.68409616755534 270.5793574252214 113.42994257881696 0.0 0.0
465.7324309438122 20.43182140337682 166.16917991542138 116.99195330351755 0.0 0.0
327.4013646531066 6.69776087002443 99.73563872977851 118.46398063602956 0.0 0.0
207.29604630918897 19.25609480235516 67.97123536600444 111.45219446123905 0.0 0.0
118.6439092156307 35.645490093072624 46.286819792611 123.80409201151049 0.0 0.0
355.8084593601576 114.43309364036897 200.09937997416543 198.94126322244045 0.0 0.0
-743.6245325311435 -1407.4060992773655 -938.7635673206664 79.1003000051013 0.0 0.0
-575.7230711707657 -1210.6742233232928 -748.339447733293 -74.29490657112407 0.0 0.0
272.6485918863866 61.86082417891066 137.03867411624546 -211.58034677055173 0.0 0.0
82.5401978828551 19.909986239603086 30.735183541071528 -148.45567674651176 0.0 0.0
158.86611111833298 22.20788663156295 54.322286913003815 -135.0466674676577 0.0 0.0
254.75357158642288 6.690786263059005 77.86831875265659 -142.1615278815104 0.0 0.0
383.4461585388406 7.2044207253190224 124.5000926499916 -146.82639234667067 0.0 0.0
516.0904483446368 33.80414740521126 214.67377256729756 -139.99543259933637 0.0 0.0
625.8965854208232 53.019143692171355 310.2358043989368 -135.19056323321658 0.0 0.0
704.5661824276732 57.0046207914554 370.4192865188951 -133.1044372923398 0.0 0.0
760.7475478707252 59.66407290649644 405.38548811922146 -130.60931293679144 0.0 0.0
814.2076940678901 65.02214435479583 435.6645436754486 -129.06397305318697 0.0 0.0
866.4751281594223 76.41339142119253 467.675597082722 -126.8820944333246 0.0 0.0
917.7862753798737 91.3980955631187 500.99151021771854 -124.4226804684822 0.0 0.0
966.2241541788188 106.71263880301464 532.997302559854 -121.55513575340295 0.0 0.0
1010.1276024779656 119.8488634717354 561.613364043225 -117.77411528953719 0.0 0.0
1049.0870768063 129.42953915638742 585.8902667100888 -113.16699662882843 0.0 0.0
1084.9273839765942 139.22135086222153 608.6649076970058 -108.1140606261325 0.0 0.0
1117.007937585923 146.5325218589555 628.4604626655605 -102.5823138208798 0.0 0.0
1131.7333290695622 138.63927995693098 632.180143819449 -93.45787231901194 0.0 0.0
1124.2046759784444 110.98969318006998 614.8590776837592 -77.5619058380317 0.0 0.0
625.3224009561951 -381.5257847948743 125.06309271935864 1.4141932069833274e-10 0.0 0.0
1124.2046759796672 110.98969318129109 614.859077684668 77.56190583818491 0.0 0.0
1131.7333290699173 138.63927995749702 632.1801438197009 93.45787231926724 0.0 0.0
1117.0079375866121 146.53252185976254 628.4604626661256 102.58231382114413 0.0 0.0
1084.9273839753653 139.22135086115532 608.6649076961735 108.11406062614537 0.0 0.0
1049.0870768085217 129.42953915881301 585.8902667117161 113.16699662908847 0.0 0.0
1010.1276024766834 119.8488634706813 561.6133640423873 117.77411528965428 0.0 0.0
966.2241541782986 106.71263880257669 532.997302559387 121.55513575344433 0.0 0.0
917.786275380734 91.39809556422536 500.9915102182224 124.4226804684789 0.0 0.0
866.4751281589398 76.41339142082671 467.6755970824095 126.88209443321004 0.0 0.0
814.2076940672201 65.02214435434044 435.66454367502894 129.06397305319706 0.0 0.0
760.7475478700602 59.66407290614205 405.38548811880025 130.60931293679218 0.0 0.0
704.566182426277 57.00462079001919 370.41928651794564 133.1044372921134 0.0 0.0
625.8965854203041 53.01914369186035 310.2358043984756 135.190563233045 0.0 0.0
516.0904483439275 33.80414740467723 214.6737725666641 139.99543259916786 0.0 0.0
383.446158538609 7.204420725593404 124.50009264992305 146.8263923466035 0.0 0.0
254.7535715860761 6.690786262956564 77.86831875253758 142.16152788149265 0.0 0.0
158.8661111183794 22.207886631638505 54.322286913040664 135.04666746739144 0.0 0.0
82.54019788308027 19.90998623992313 30.73518354123507 148.45567674637135 0.0 0.0
272.64859188593044 61.86082417868057 137.0386741158998 211.58034677050713 0.0 0.0
-575.7230711694889 -1210.6742233218363 -748.3394477318778 74.29490657103439 0.0 0.0
-427.5778393965892 -1038.548677977109 -579.173066476922 -76.89298506888143 0.0 0.0
202.37928715615092 22.08099697679961 87.82159558692112 -216.3645060321855 0.0 0.0
52.01222925116893 6.974485285100048 17.695539757585735 -166.95204713408972 0.0 0.0
112.22736255439247 23.509779802648197 40.72112603375625 -155.1263803368662 0.0 0.0
185.6031522333933 8.45776195758655 57.94542847415542 -162.2864158700716 0.0 0.0
289.6584349903401 -0.13343267864981678 88.01571563480275 -174.7402415079942 0.0 0.0
417.77389816091494 16.638578153342053 154.2176268221785 -168.98622155216563 0.0 0.0
538.3071716088327 37.23827842374932 244.95310359238303 -159.17717541425338 0.0 0.0
627.5150422878658 43.45696822416954 315.9176800893564 -153.5968076432345 0.0 0.0
688.9359926823865 40.86764888668862 355.742665981517 -149.8043284691941 0.0 0.0
739.7262784807369 44.34732898817279 385.45012617608853 -146.19450576694666 0.0 0.0
789.004718738955 53.400141128471844 415.2115011460504 -143.47231929680282 0.0 0.0
836.638050536691 65.40007342305685 445.2954499842358 -140.71887204966998 0.0 0.0
881.1006067393754 77.8923375805472 473.9368363461746 -137.7594989267001 0.0 0.0
922.5484507261416 89.2126187829554 500.4601254911255 -134.07256152330032 0.0 0.0
959.5161036696672 97.79896353871769 523.3520490697264 -129.2059626372128 0.0 0.0
995.4440759503203 106.4744959464765 545.6198156631328 -123.61484923379007 0.0 0.0
1038.2295845165117 124.323958015403 575.8418314505532 -118.19865900065255 0.0 0.0
1073.1556213198614 135.71594426667446 599.3526065617879 -110.2279363568496 0.0 0.0
1075.7215926257845 113.98105317350252 590.3403402478018 -94.1290500917272 0.0 0.0
447.7310034088292 -501.8580791389925 -22.707571745894896 4.9105608468380524e-11 0.0 0.0
1075.7215926266967 113.98105317451395 590.3403402484873 94.1290500919211 0.0 0.0
1073.1556213191234 135.71594426609187 599.3526065612245 110.2279363569979 0.0 0.0
1038.2295845174935 124.32395801662135 575.8418314513469 118.19865900098583 0.0 0.0
995.4440759496263 106.47449594598407 545.6198156623341 123.61484923396185 0.0 0.0
959.5161036702714 97.79896353961539 523.352049070163 129.20596263735058 0.0 0.0
922.5484507248555 89.21261878178834 500.46012549025176 134.07256152333773 0.0 0.0
881.1006067393721 77.89233758072092 473.936836346092 137.75949892671954 0.0 0.0
836.6380505372647 65.40007342370903 445.29544998462296 140.71887204964094 0.0 0.0
789.0047187381251 53.40014112774389 415.2115011454993 143.47231929664378 0.0 0.0
739.7262784799215 44.347328987414926 385.45012617547167 146.19450576683494 0.0 0.0
688.9359926826429 40.86764888728899 355.7426659817422 149.80432846915903 0.0 0.0
627.5150422861811 43.456968222483404 315.91768008816933 153.5968076429751 0.0 0.0
538.307171609049 37.23827842455292 244.95310359245397 159.17717541436565 0.0 0.0
417.7738981605856 16.638578153362275 154.21762682191692 168.98622155215227 0.0 0.0
289.65843499024845 -0.13343267816821802 88.01571563489902 174.74024150777527 0.0 0.0
185.60315223297889 8.457761956917613 57.945428473842746 162.2864158699719 0.0 0.0
112.22736255425657 23.509779802363525 40.72112603363492 155.1263803366975 0.0 0.0
52.01222925119414 6.974485285207347 17.695539757623823 166.9520471338394 0.0 0.0
202.37928715564263 22.080996976539286 87.82159558659367 216.36450603210298 0.0 0.0
-427.57783939559874 -1038.5486779758126 -579.1730664757424 76.89298506892214 0.0 0.0
-310.2714600952659 -874.156815867864 -437.910999371832 -80.98135437271011 0.0 0.0
142.20564386121973 -10.138092311505712 49.997163351694766 -214.8666909452963 0.0 0.0
23.92989416522651 -1.9704099537183248 6.587020123651666 -179.95392419276712 0.0 0.0
66.5122048540904 23.2987944620775 26.934676579690795 -171.11509858881792 0.0 0.0
118.6695294704712 11.449707368353659 38.90584270392898 -177.93725497272897 0.0 0.0
190.0809371991315 -0.6404206170139117 56.70803803981797 -195.81422069950676 0.0 0.0
294.950375174724 0.8150983839961148 95.11704447421108 -201.05141935704458 0.0 0.0
418.8886013512255 14.741033656057528 163.1463816578666 -187.49752439395118 0.0 0.0
521.7253626803347 23.860056867621843 236.4559351370694 -173.74094351512198 0.0 0.0
591.8841796688941 22.064022749125513 286.3217531990232 -166.62287203944365 0.0 0.0
644.4765449328162 23.317171589845376 320.06803398572714 -161.43581392573662 0.0 0.0
691.2762908031684 29.43927420036891 348.6432253854115 -158.19129672855416 0.0 0.0
734.9280459402272 39.09604887009185 376.1717232151263 -155.21617923516757 0.0 0.0
774.7627879065603 48.66234722644225 401.2149505440973 -152.312666826394 0.0 0.0
812.5599364092126 58.06443126794223 425.05825639497544 -149.09984109053465 0.0 0.0
848.8247213789759 66.60895944366996 447.7576009383165 -144.76231059212077 0.0 0.0
883.8667594217127 74.12156166215601 469.38413005063114 -138.76813078283905 0.0 0.0
928.1025084992567 91.83288261053453 500.2764619843851 -132.44104488101394 0.0 0.0
988.8925638847095 126.67917953355936 548.1600883793809 -127.05989360846412 0.0 0.0
1021.6795076996099 130.22917792148286 567.5918498672997 -115.48976828018337 0.0 0.0
234.58474526198145 -629.558268122721 -191.22202822739567 1.4153300753605436e-10 0.0 0.0
1021.6795076988512 130.22917792066605 567.5918498669716 115.48976828036052 0.0 0.0
988.8925638856429 126.67917953494923 548.1600883801385 127.05989360888364 0.0 0.0
928.1025084991809 91.83288261056776 500.276461984511 132.44104488133124 0.0 0.0
883.8667594224779 74.12156166316674 469.38413005103394 138.76813078317272 0.0 0.0
848.8247213785859 66.60895944324659 447.75760093803444 144.7623105921459 0.0 0.0
812.5599364102318 58.06443126934286 425.0582563956963 149.0998410905393 0.0 0.0
774.7627879065259 48.662347226436594 401.21495054405824 152.31266682640117 0.0 0.0
734.9280459397304 39.09604886977898 376.1717232148012 155.21617923525702 0.0 0.0
691.276290803348 29.439274200867832 348.64322538553836 158.19129672864523 0.0 0.0
644.4765449322999 23.31717158937421 320.06803398537625 161.43581392558673 0.0 0.0
591.8841796697129 22.064022750453507 286.32175319953586 166.62287203952042 0.0 0.0
521.7253626802124 23.860056867971938 236.4559351369164 173.74094351511127 0.0 0.0
418.8886013511307 14.74103365645924 163.14638165780866 187.49752439408994 0.0 0.0
294.9503751740987 0.8150983835093686 95.11704447382475 201.05141935697492 0.0 0.0
190.0809371992696 -0.6404206162379573 56.7080380400957 195.8142206991386 0.0 0.0
118.6695294700856 11.449707367791527 38.90584270365485 177.93725497252177 0.0 0.0
66.51220485399725 23.298794462087436 26.934676579664192 171.11509858872 0.0 0.0
23.929894165142173 -1.9704099537106532 6.587020123628463 179.9539241923828 0.0 0.0
142.20564386077794 -10.138092311813026 49.997163351403714 214.8666909451481 0.0 0.0
-310.2714600945044 -874.1568158667776 -437.9109993708982 80.98135437269448 0.0 0.0
-214.555187726242 -727.3223380408376 -321.0143286140169 -93.203716592055 0.0 0.0
88.21701896672413 -36.04600974287159 20.10757426699259 -207.32757990450318 0.0 0.0
-3.3229480544256633 -6.162626017843868 -2.863915442352607 -187.4194104880009 0.0 0.0
21.24857635658115 22.028449108188124 12.979602744509064 -182.0957817269208 0.0 0.0
51.88408514392552 14.624939037177754 19.909753621347747 -188.97089513406223 0.0 0.0
91.49229970767112 2.819313687343519 28.20821398592534 -209.06313095122812 0.0 0.0
149.74070087454143 -2.7341737870697362 44.74552584109417 -224.22539992499452 0.0 0.0
242.2729690253144 -6.9168863263616105 74.72394729315927 -221.6679483294258 0.0 0.0
353.2280815357015 -13.288718425323696 116.36007652006901 -200.70740985029238 0.0 0.0
437.57159831699266 -12.092095356290343 160.61347027070912 -178.1803633123391 0.0 0.0
494.95011371243345 -3.224384181650777 200.0231733707866 -170.55112226582298 0.0 0.0
538.2234603123273 4.564603276941078 231.4128162175241 -168.70568758809122 0.0 0.0
575.0708348952778 12.333837941048884 257.809684946567 -167.91425771930685 0.0 0.0
608.7434334980352 20.13693148594654 281.17461489675236 -167.03775892634772 0.0 0.0
641.5222340731704 28.266536465832516 304.00951301106085 -165.66923219144994 0.0 0.0
676.0633028822851 36.84257904867253 328.20681488257566 -163.15496343718848 0.0 0.0
713.3470753889287 44.75504651986786 353.87509508463955 -157.99552249320948 0.0 0.0
752.9503542202816 51.375894509686105 379.98395092825524 -150.3004717174167 0.0 0.0
821.6686013461244 85.02634089442785 431.37959169573026 -144.61284033396336 0.0 0.0
924.5903580797891 148.90597099336648 517.6911307931327 -144.4056154026745 0.0 0.0
-47.49601605068068 -755.8240078075755 -390.6132789764679 3.2009950245992513e-11 0.0 0.0
924.5903580779783 148.9059709914058 517.6911307919947 144.40561540250803 0.0 0.0
821.6686013471005 85.02634089593403 431.3795916966062 144.6128403344507 0.0 0.0
752.9503542190088 51.37589450770915 379.9839509272721 150.30047171740904 0.0 0.0
713.3470753884988 44.755046519340866 353.8750950844089 157.99552249312964 0.0 0.0
676.0633028802324 36.84257904616733 328.2068148813488 163.1549634372082 0.0 0.0
641.5222340747586 28.266536468114822 304.0095130123075 165.66923219159025 0.0 0.0
608.7434334980258 20.136931485904192 281.1746148966434 167.03775892631762 0.0 0.0
575.0708348941905 12.333837939636751 257.80968494588245 167.91425771932563 0.0 0.0
538.2234603121346 4.564603276762639 231.4128162174532 168.70568758809765 0.0 0.0
494.9501137117626 -3.2243841823928996 200.02317337036115 170.55112226567067 0.0 0.0
437.57159831700477 -12.092095356128814 160.6134702707741 178.18036331234111 0.0 0.0
353.22808153555604 -13.288718425265959 116.36007651999884 200.70740985032126 0.0 0.0
242.27296902492702 -6.916886326412689 74.72394729300646 221.6679483294352 0.0 0.0
149.74070087382043 -2.7341737881489276 44.74552584055355 224.22539992484047 0.0 0.0
91.49229970761675 2.8193136875826097 28.208213985990078 209.0631309508559 0.0 0.0
51.884085143932666 14.624939037332247 19.909753621399492 188.97089513383258 0.0 0.0
21.248576356607764 22.028449108390458 12.979602744577798 182.0957817267481 0.0 0.0
-3.3229480545021475 -6.162626017773482 -2.863915442356623 187.41941048771528 0.0 0.0
88.2170189663413 -36.046009743216025 20.10757426674642 207.32757990431594 0.0 0.0
-214.55518772575002 -727.3223380399011 -321.0143286133611 93.20371659213319 0.0 0.0
-148.57000076807574 -591.6339041013871 -233.66641664220498 -106.47521592423226 0.0 0.0
38.11496037553169 -55.7758327374475 -3.83566374917131 -193.09809201347076 0.0 0.0
-30.162251657110303 -6.730381266808395 -11.069302512029893 -191.30150228844965 0.0 0.0
-23.440998443445487 20.297568328463964 -0.9579127957497193 -188.4324453682009 0.0 0.0
-14.118815549026664 17.52053792113564 1.0181194231409938 -194.6666036244319 0.0 0.0
-6.937261170312629 7.190238865877875 0.08647599242566972 -214.11632559615398 0.0 0.0
-3.2257517811851955 0.9086028508643613 -0.696841452187031 -231.2336486062927 0.0 0.0
-1.245325960096487 0.12397607272659528 -0.3397331476326215 -233.98418735613652 0.0 0.0
-0.4024564552426213 -0.015818210456213677 -0.1333328782380825 -227.6912084223529 0.0 0.0
-0.0729592187659307 -0.008524621210401762 -0.02223903693429463 -223.59679261397076 0.0 0.0
-0.4976645404804003 0.0035195103164866737 -0.11015658763981406 -213.75351771041431 0.0 0.0
-1.088940031981636 0.2000697626666721 0.27786889889848965 -200.61166729461232 0.0 0.0
-1.79583935516402 1.0605787445410186 0.5578927408822096 -191.7699484540099 0.0 0.0
0.78091711785396 3.1853135554594303 1.1778185591287524 -185.0451185466003 0.0 0.0
11.615271724935354 7.81061338473954 2.7752997108893567 -180.20977431780568 0.0 0.0
37.70778025732599 16.12234138378875 7.186785232701908 -175.95829601505156 0.0 0.0
88.65140070015902 30.009800239156718 16.89057981384005 -170.4140796777955 0.0 0.0
178.25589587870724 40.72185261032061 23.42329921808306 -161.21931530711373 0.0 0.0
402.2494219238803 1.092308781469967 42.47457187749046 -157.04870840893682 0.0 0.0
639.8021108672602 39.75623027536577 260.28818251212033 -205.34425947257256 0.0 0.0
-749.0219028187973 -1012.4109073568603 -802.0718425387206 1.0534506600379245e-10 0.0 0.0
639.8021108679131 39.75623027648891 260.28818251252125 205.34425947218944 0.0 0.0
402.249421924081 1.092308782059547 42.47457187769018 157.04870840966137 0.0 0.0
178.25589587874944 40.72185261077787 23.42329921835801 161.21931530740005 0.0 0.0
88.65140070009484 30.00980023929199 16.89057981379773 170.41407967799782 0.0 0.0
37.70778025501576 16.12234138031181 7.186785230586892 175.9582960149487 0.0 0.0
11.615271725345352 7.8106133852500506 2.775299711220427 180.20977431799352 0.0 0.0
0.7809171183708798 3.1853135559035053 1.177818559458231 185.0451185466572 0.0 0.0
-1.7958393552728324 1.0605787441182102 0.5578927405824032 191.76994845395623 0.0 0.0
-1.0889400316372644 0.20006976277538513 0.2778688990041829 200.61166729439776 0.0 0.0
-0.4976645403096498 0.0035195102638176934 -0.11015658764852532 213.75351771026868 0.0 0.0
-0.07295921898170832 -0.008524623215842908 -0.02223903763282209 223.59679261372284 0.0 0.0
-0.402456454995626 -0.01581821072826628 -0.1333328782516503 227.69120842237032 0.0 0.0
-1.2453259596472748 0.12397607331821359 -0.33973314731203175 233.98418735620396 0.0 0.0
-3.225751781434381 0.9086028500358484 -0.6968414525119604 231.23364860608672 0.0 0.0
-6.937261170116084 7.190238866308495 0.08647599261509331 214.11632559582898 0.0 0.0
-14.118815548888005 17.520537921448756 1.0181194232756279 194.66660362419373 0.0 0.0
-23.440998443490418 20.297568328412893 -0.9579127957797264 188.43244536799753 0.0 0.0
-30.1622516572711 -6.730381266849404 -11.069302512091909 191.30150228825508 0.0 0.0
38.11496037509166 -55.77583273776234 -3.8356637494165535 193.09809201325632 0.0 0.0
-148.5700007677741 -591.6339041005479 -233.66641664179653 106.47521592438751 0.0 0.0
-113.28899662358378 -470.0761789563835 -175.55982174960434 -114.73543199090305 0.0 0.0
-2.795619987657634 -67.89994267982053 -21.12250971962115 -176.09258171918958 0.0 0.0
-55.72257294275235 -5.891339740446261 -18.500141953615724 -190.32248864778748 0.0 0.0
-67.14935416111004 18.69326790024211 -14.560414835404302 -189.85744895819067 0.0 0.0
-78.88045976618743 19.70406510739507 -17.76407356554445 -194.62930931841225 0.0 0.0
-104.02859274447343 11.334074549354634 -27.825368629050878 -210.49402037345726 0.0 0.0
-155.42544322695883 4.559285838646778 -46.03652190300382 -225.23650134347042 0.0 0.0
-243.77754138894522 6.934602040831961 -75.36723420562495 -222.07465383022355 0.0 0.0
-353.5097397554159 13.136329420983355 -116.58048540473473 -200.7827287116109 0.0 0.0
-437.59628080591466 12.050670547126522 -160.64113610768536 -178.14212384176417 0.0 0.0
-495.48781950977025 3.077114256148583 -200.39067099007823 -170.56542743202004 0.0 0.0
-539.1003813160528 -4.427197753237692 -232.37735914077558 -168.50112012552933 0.0 0.0
-575.986271377077 -10.63908801302 -258.325286176255 -167.19956212211375 0.0 0.0
-606.036627427362 -14.258042305324281 -277.32735274070876 -166.30694855042336 0.0 0.0
-626.4929835928112 -14.052859870489968 -287.65639617462705 -166.5079014756084 0.0 0.0
-635.3593658683768 -8.78515602504089 -287.150427732601 -168.47817365457877 0.0 0.0
-631.3724410643698 1.293129956299822 -273.9545960049137 -172.9651609084715 0.0 0.0
-623.3692035486375 8.85990026480627 -251.216146213402 -182.2415753790825 0.0 0.0
-598.2296030272541 63.09497676242327 -185.50298772203385 -195.90941102795244 0.0 0.0
-321.1790185293158 192.5386811471953 58.08464581323656 -167.53716102832277 0.0 0.0
-1327.8708143973777 -1291.5502142711066 -1345.9124213137604 -1.4768630762773682e-10 0.0 0.0
-321.17901852767034 192.5386811501079 58.084645814605636 167.53716102848045 0.0 0.0
-598.22960302767 63.09497676155418 -185.50298772248448 195.90941102824252 0.0 0.0
-623.3692035481247 8.859900265418048 -251.21614621314995 182.24157537934866 0.0 0.0
-631.3724410637456 1.2931299576734716 -273.95459600448953 172.96516090844926 0.0 0.0
-635.3593658683163 -8.785156025818324 -287.1504277326736 168.47817365453335 0.0 0.0
-626.4929835927505 -14.052859870670119 -287.6563961744556 166.50790147570768 0.0 0.0
-606.0366274275493 -14.258042305609834 -277.32735274082967 166.30694855031982 0.0 0.0
-575.9862713761416 -10.639088011801029 -258.3252861755861 167.19956212197746 0.0 0.0
-539.1003813152823 -4.427197752691228 -232.37735914028002 168.50112012553387 0.0 0.0
-495.4878195088505 3.0771142569198133 -200.3906709894513 170.56542743195206 0.0 0.0
-437.5962808059809 12.050670546380486 -160.64113610776224 178.14212384190884 0.0 0.0
-353.5097397549671 13.136329420662456 -116.58048540460108 200.78272871188332 0.0 0.0
-243.7775413878245 6.934602041744763 -75.36723420496956 222.07465383019633 0.0 0.0
-155.42544322655652 4.559285838633993 -46.03652190288745 225.23650134336404 0.0 0.0
-104.0285927439129 11.334074550198572 -27.825368628639215 210.49402037317 0.0 0.0
-78.88045976627984 19.704065106979087 -17.764073565698677 194.62930931812457 0.0 0.0
-67.14935416079699 18.69326790065291 -14.56041483519074 189.85744895804075 0.0 0.0
-55.72257294266993 -5.891339740275497 -18.50014195354205 190.32248864758446 0.0 0.0
-2.7956199877527075 -67.89994267993161 -21.122509719680977 176.0925817191223 0.0 0.0
-113.28899662340044 -470.0761789556269 -175.55982174935798 114.73543199084753 0.0 0.0
-95.13570234658772 -359.1201145372984 -136.26321419044055 -108.91875028655696 0.0 0.0
-29.324170013642718 -74.53154345461581 -31.15119709650773 -162.4439799102272 0.0 0.0
-79.7229709060364 -5.302609502797279 -25.493126774581995 -186.17982987746814 0.0 0.0
-109.08653359291736 17.317010045059096 -27.566526945861405 -186.24268420975523 0.0 0.0
-142.4705976709815 21.297809573820107 -36.290590978443554 -189.9140639427276 0.0 0.0
-199.37582420633854 14.212367903901528 -55.87517213441426 -200.13224287197238 0.0 0.0
-296.8372684573122 0.09775052364661185 -96.18094137727695 -200.9283671685923 0.0 0.0
-419.0547810223047 -14.945986750036369 -163.47539720852708 -188.168577767713 0.0 0.0
-521.6960786790193 -24.051433590162873 -236.54607279402256 -173.87287128936163 0.0 0.0
-591.8049684513971 -22.086300239458275 -286.3196291981731 -166.6307925742733 0.0 0.0
-644.5689083667273 -23.30193969946285 -320.15437818974993 -161.33544596589908 0.0 0.0
-691.7953919775837 -29.26673999212106 -348.92555032025336 -157.60608387858014 0.0 0.0
-735.2200827151678 -37.8379421861502 -375.89835364993615 -153.98485524021365 0.0 0.0
-771.393286317929 -43.63740952560161 -397.3385576701003 -151.24028154752995 0.0 0.0
-797.6810659586679 -44.03016231644682 -410.9262783843177 -150.36889411250556 0.0 0.0
-811.1450836317972 -36.85190932441134 -414.0754460647924 -151.744363149885 0.0 0.0
-813.0145545993737 -24.505285087905804 -408.4173303957133 -155.58554955132968 0.0 0.0
-803.7633353021333 -9.247946463455605 -395.58432145825 -161.73597668209192 0.0 0.0
-752.3361070280819 39.71376483815607 -345.0524208920609 -168.82422535621583 0.0 0.0
-624.5911016060488 150.18398384337414 -227.7536421922976 -176.5473256934618 0.0 0.0
-2134.3044241428343 -1591.632791580895 -1832.6267209563277 -8.317613264807733e-11 0.0 0.0
-624.591101605449 150.1839838440468 -227.75364219194668 176.54732569349832 0.0 0.0
-752.3361070276669 39.7137648380877 -345.0524208919884 168.82422535656374 0.0 0.0
-803.7633353028551 -9.247946464658867 -395.5843214587834 161.73597668247805 0.0 0.0
-813.0145546001893 -24.50528508882239 -408.41733039639246 155.58554955153534 0.0 0.0
-811.1450836304357 -36.851909323274256 -414.07544606388615 151.74436314997888 0.0 0.0
-797.6810659586808 -44.03016231656762 -410.92627838423186 150.36889411254708 0.0 0.0
-771.3932863182846 -43.637409526092334 -397.33855767029934 151.24028154751272 0.0 0.0
-735.2200827147979 -37.83794218597909 -375.8983536497632 153.98485524026594 0.0 0.0
-691.7953919777009 -29.266739992654585 -348.9255503203318 157.60608387859764 0.0 0.0
-644.5689083667526 -23.301939699788647 -320.15437818982855 161.33544596587535 0.0 0.0
-591.8049684507414 -22.08630023911111 -286.31962919776356 166.6307925741333 0.0 0.0
-521.6960786791842 -24.051433591118762 -236.54607279411883 173.87287128960185 0.0 0.0
-419.05478102138886 -14.94598674939902 -163.47539720787307 188.1685777677074 0.0 0.0
-296.837268456507 0.09775052432095555 -96.1809413767792 200.92836716844496 0.0 0.0
-199.37582420584408 14.2123679043682 -55.87517213413039 200.13224287172983 0.0 0.0
-142.4705976707857 21.297809573597767 -36.2905909784661 189.9140639425239 0.0 0.0
-109.08653359277233 17.317010045277495 -27.566526945756145 186.2426842095912 0.0 0.0
-79.72297090604795 -5.302609502678258 -25.493126774555574 186.1798298773221 0.0 0.0
-29.324170013773784 -74.53154345475556 -31.151197096587104 162.4439799102026 0.0 0.0
-95.1357023464476 -359.12011453678844 -136.2632141902447 108.91875028651793 0.0 0.0
-77.90903620719905 -266.46093100165547 -103.31099016265637 -97.97354070996872 0.0 0.0
-47.66248755931831 -74.45174233940631 -36.633682950654865 -148.45512868205236 0.0 0.0
-101.8450571686327 -5.093557432779717 -32.05445862960071 -177.6830370973857 0.0 0.0
-149.40505204595442 16.06602955161724 -39.9675522548425 -178.65749798972803 0.0 0.0
-203.62389959246943 21.150688755114523 -54.74719075885605 -178.25115509112072 0.0 0.0
-291.1656487220382 10.769229476956095 -86.99148443294325 -178.20783126763632 0.0 0.0
-417.71576698318154 -14.79917418204652 -154.01274155937642 -171.6893303299942 0.0 0.0
-538.3992544167374 -37.77432529313671 -245.16041783320173 -159.82100274202077 0.0 0.0
-627.4312145737894 -43.63588576785253 -315.98328532304333 -153.68190909130834 0.0 0.0
-688.7966744121477 -40.7822418007534 -355.67413589610607 -149.84620487616468 0.0 0.0
-739.5469542535075 -44.09511981661544 -385.2699309988029 -146.07886919862383 0.0 0.0
-789.0490141967716 -52.95629890427169 -415.064388661768 -142.79632214556216 0.0 0.0
-836.676735023723 -64.32996915242646 -444.87882516680077 -139.20306198137288 0.0 0.0
-878.5602083670261 -74.10344674942817 -470.9741409309393 -136.23362271428363 0.0 0.0
-910.7014363011197 -77.88907409058447 -489.1718375349536 -135.20489187039774 0.0 0.0
-928.8387685074995 -72.77495848506601 -495.79912202900215 -137.0454001265527 0.0 0.0
-931.7893282528906 -57.637966558971726 -489.74936041382796 -141.62417380720632 0.0 0.0
-910.1916172585665 -24.68166660907488 -462.4287297500974 -147.10541850184848 0.0 0.0
-850.5596674746282 38.00445110093666 -401.7331298248629 -151.0990875234011 0.0 0.0
-680.3909116658224 197.58833762522613 -239.47695458346132 -151.1121670341485 0.0 0.0
-2575.4932251603086 -1820.8789642284457 -2175.7438117515985 1.453095421766193e-10 0.0 0.0
-680.3909116660047 197.5883376248206 -239.476954583397 151.11216703464777 0.0 0.0
-850.5596674729851 38.00445110261623 -401.73312982380446 151.09908752344046 0.0 0.0
-910.1916172571332 -24.681666607751296 -462.4287297489879 147.10541850183122 0.0 0.0
-931.7893282533872 -57.637966559808035 -489.7493604142202 141.62417380742312 0.0 0.0
-928.8387685070888 -72.77495848485151 -495.799122028716 137.0454001267823 0.0 0.0
-910.701436300643 -77.88907409026962 -489.17183753454594 135.2048918703489 0.0 0.0
-878.5602083668413 -74.10344674957146 -470.97414093082614 136.2336227144717 0.0 0.0
-836.6767350236242 -64.3299691525253 -444.87882516679406 139.20306198147156 0.0 0.0
-789.0490141965828 -52.95629890415284 -415.064388661592 142.79632214534323 0.0 0.0
-739.5469542534458 -44.09511981672891 -385.2699309988386 146.0788691984254 0.0 0.0
-688.7966744114235 -40.78224180029507 -355.6741358956676 149.8462048760754 0.0 0.0
-627.4312145732623 -43.63588576765892 -315.98328532257756 153.68190909124468 0.0 0.0
-538.3992544161979 -37.77432529302193 -245.16041783273212 159.8210027420615 0.0 0.0
-417.7157669828219 -14.799174182069809 -154.01274155909007 171.68933032994227 0.0 0.0
-291.16564872164207 10.769229476928842 -86.99148443279711 178.20783126744217 0.0 0.0
-203.6238995920433 21.150688755403763 -54.7471907586598 178.25115509095684 0.0 0.0
-149.4050520459559 16.06602955137426 -39.96755225491801 178.65749798953212 0.0 0.0
-101.84505716839013 -5.093557432339379 -32.0544586293946 177.68303709734343 0.0 0.0
-47.66248755934043 -74.45174233947331 -36.63368295068275 148.45512868208868 0.0 0.0
-77.90903620702022 -266.4609310012684 -103.3109901624866 97.97354070985006 0.0 0.0
-63.42904160904407 -189.05487877770057 -75.74517611602337 -84.34711405549106 0.0 0.0
-61.39944320704557 -69.35985199083494 -39.2279647167195 -132.6801002325955 0.0 0.0
-122.33310194315516 -4.938475577804498 -38.16246306119667 -164.99702232441692 0.0 0.0
-187.39381214686642 14.009644261263729 -51.98916232349288 -165.85170114137836 0.0 0.0
-264.4128027126648 19.109688855373268 -73.71730009408039 -162.12591788625892 0.0 0.0
-379.872165247477 2.3782591109171642 -122.28061996511796 -153.11092329047796 0.0 0.0
-513.9746984270325 -32.93022879865754 -213.87637260135116 -141.04059081467287 0.0 0.0
-626.1611466462717 -53.84008017647749 -310.58290497919086 -135.52787164547252 0.0 0.0
-704.5194335532012 -57.12011984552912 -370.5121476604396 -133.18098640752416 0.0 0.0
-760.536123626184 -59.46972169548562 -405.2264406998595 -130.65195709856505 0.0 0.0
-813.7337195209706 -64.45863097449018 -435.1846319913785 -128.94221063514607 0.0 0.0
-865.8294210769052 -75.45321848000769 -466.9093952844107 -126.19564980998126 0.0 0.0
-917.3263346896416 -90.23510315784685 -500.219958403541 -122.85464988475543 0.0 0.0
-965.0947222233868 -104.74307689814756 -531.5438657072636 -119.81361275578357 0.0 0.0
-1003.5147853769895 -113.54113962913138 -555.3595533097068 -118.5505450289089 0.0 0.0
-1025.7745996128237 -109.89196958799656 -564.8456907883767 -120.40293791728882 0.0 0.0
-1023.5817007017471 -88.01314828201481 -552.9647759525726 -124.624260683462 0.0 0.0
-988.2357276766701 -38.184594487941354 -510.55812579922343 -129.27542951349508 0.0 0.0
-898.146868351302 58.12055960175735 -418.06966230187606 -130.90319301420922 0.0 0.0
-712.2964517962616 235.90781761091677 -237.73924266917342 -128.18513951447508 0.0 0.0
-2925.8168519930473 -2060.246828072265 -2475.9335462507283 1.8053469830192626e-10 0.0 0.0
-712.296451796537 235.9078176105232 -237.73924266927253 128.1851395147755 0.0 0.0
-898.1468683504606 58.1205596025391 -418.0696623012225 130.90319301426908 0.0 0.0
-988.2357276760606 -38.184594487396325 -510.5581257987862 129.27542951356534 0.0 0.0
-1023.5817007023223 -88.01314828263493 -552.964775953024 124.62426068344712 0.0 0.0
-1025.774599612146 -109.89196958744444 -564.8456907879124 120.40293791720906 0.0 0.0
-1003.5147853766694 -113.54113962894459 -555.3595533094243 118.55054502891271 0.0 0.0
-965.0947222225698 -104.74307689748623 -531.5438657067162 119.8136127557208 0.0 0.0
-917.3263346899523 -90.23510315834358 -500.219958403787 122.85464988474475 0.0 0.0
-865.8294210768033 -75.45321848004168 -466.9093952843037 126.19564980982743 0.0 0.0
-813.7337195203453 -64.45863097405443 -435.18463199096425 128.94221063504037 0.0 0.0
-760.5361236257501 -59.469721695326754 -405.2264406996377 130.65195709851366 0.0 0.0
-704.5194335522621 -57.12011984484621 -370.512147659779 133.18098640747326 0.0 0.0
-626.1611466457574 -53.84008017627776 -310.58290497872156 135.52787164539492 0.0 0.0
-513.9746984268525 -32.93022879896529 -213.8763726010723 141.04059081460235 0.0 0.0
-379.87216524704417 2.378259110874871 -122.280619964885 153.11092329038289 0.0 0.0
-264.41280271208734 19.109688855816337 -73.71730009379533 162.12591788608466 0.0 0.0
-187.3938121469342 14.009644260879229 -51.98916232364011 165.85170114123056 0.0 0.0
-122.33310194296796 -4.938475577671776 -38.16246306109997 164.99702232435752 0.0 0.0
-61.399443206970055 -69.35985199072017 -39.227964716662406 132.6801002325252 0.0 0.0
-63.429041609170376 -189.05487877752694 -75.74517611600916 84.3471140554142 0.0 0.0
-52.574809242259505 -126.17885480095305 -53.62609921296376 -69.76085089090134 0.0 0.0
-72.05057930424513 -60.689213358802 -39.82193779891414 -114.69050016117036 0.0 0.0
-141.43314606234426 -4.48266577339802 -43.76883128742122 -148.1167232535729 0.0 0.0
-223.79300085961177 11.547234709400097 -63.5375320909354 -149.11481823944078 0.0 0.0
-323.70471971681695 12.979904525765763 -94.48437339888996 -139.19651149599142 0.0 0.0
-459.4273290276162 -11.359153932378208 -162.19892460262685 -124.37389388046205 0.0 0.0
-591.5846621964241 -48.11923164479682 -269.62691564361273 -114.51427776668154 0.0 0.0
-693.348221736225 -64.55375620928305 -360.3101285970312 -112.6839401681198 0.0 0.0
-762.5166367346765 -72.03260953396902 -411.75285568267077 -111.44919402922065 0.0 0.0
-821.7733783228488 -75.97123701828856 -445.91695462552354 -111.63981466148041 0.0 0.0
-876.5595953998562 -84.1258254526535 -477.7342966496532 -110.53944746203473 0.0 0.0
-931.6593115668285 -97.90634081269752 -512.2482665512331 -108.29387166712945 0.0 0.0
-986.7963325338721 -115.8100064508316 -548.8651184369503 -105.42444706443096 0.0 0.0
-1039.6374624973496 -134.53922763398432 -584.7581728971599 -102.57615885952191 0.0 0.0
-1084.8999629238156 -149.0044004690997 -614.7910820140694 -100.96785133532036 0.0 0.0
-1110.3468940079579 -147.5078719171263 -627.0109633057561 -102.00108422209621 0.0 0.0
-1101.9311819088832 -116.3277124408618 -607.4520930919089 -105.6686978598686 0.0 0.0
-1045.78675913761 -44.333136706636395 -543.6925159324253 -109.4427815375827 0.0 0.0
-929.3965841494626 78.8839348283674 -424.43795840394944 -110.49597431704014 0.0 0.0
-738.9220962575754 261.54235672207153 -238.61089039443408 -109.74914091588245 0.0 0.0
-3222.23677077233 -2283.978702038565 -2739.605674063764 6.222578008419077e-11 0.0 0.0
-738.92209625692 261.54235672249666 -238.6108903941572 109.74914091621407 0.0 0.0
-929.3965841498737 78.88393482788987 -424.43795840427634 110.49597431726812 0.0 0.0
-1045.786759137967 -44.33313670714213 -543.6925159326262 109.44278153770041 0.0 0.0
-1101.9311819094569 -116.32771244162427 -607.4520930924475 105.66869785999424 0.0 0.0
-1110.3468940073994 -147.50787191673777 -627.0109633054306 102.00108422217468 0.0 0.0
-1084.899962924766 -149.00440047029315 -614.7910820146775 100.96785133547054 0.0 0.0
-1039.6374624952498 -134.5392276319412 -584.7581728956475 102.57615885928391 0.0 0.0
-986.7963325344808 -115.8100064517209 -548.8651184374078 105.42444706449987 0.0 0.0
-931.659311566296 -97.90634081242325 -512.2482665508771 108.29387166719216 0.0 0.0
-876.5595953989364 -84.12582545195065 -477.73429664907894 110.53944746192649 0.0 0.0
-821.7733783229933 -75.97123701882043 -445.9169546257168 111.6398146615702 0.0 0.0
-762.5166367339539 -72.03260953352847 -411.75285568213724 111.44919402926205 0.0 0.0
-693.3482217359323 -64.55375620929429 -360.3101285967299 112.683940167971 0.0 0.0
-591.5846621957922 -48.119231644586286 -269.626915643029 114.51427776668532 0.0 0.0
-459.4273290268151 -11.359153931847747 -162.19892460205767 124.37389388033807 0.0 0.0
-323.704719716259 12.979904526032234 -94.4843733986433 139.19651149593767 0.0 0.0
-223.79300085952397 11.547234709162433 -63.537532090990574 149.11481823926366 0.0 0.0
-141.4331460622544 -4.4826657734126085 -43.76883128739734 148.1167232535637 0.0 0.0
-72.05057930414686 -60.68921335870785 -39.82193779885641 114.69050016089054 0.0 0.0
-52.57480924220573 -126.17885480076283 -53.62609921289057 69.76085089089668 0.0 0.0
-45.24669634782051 -77.4089942407354 -36.79670717656676 -54.811362572075446 0.0 0.0
-80.27088739901781 -49.83513064326312 -39.03180541268428 -94.61590807584012 0.0 0.0
-159.34027778688835 -3.5279540565268115 -48.8609770514981 -127.07446652232781 0.0 0.0
-258.90049504300896 7.50458911880799 -75.29400752935433 -127.36180164882315 0.0 0.0
-384.65854875339545 4.7525853282779496 -117.49193567137776 -113.19748685702744 0.0 0.0
-525.611614574202 -28.86094000851878 -205.26792895033722 -94.1726364559441 0.0 0.0
-653.3329129027649 -58.29545707244821 -317.1041659414473 -90.43087488945157 0.0 0.0
-742.5932804305328 -75.57767391596639 -398.0222436483663 -89.7187409935588 0.0 0.0
-813.6713490728448 -84.64291339193984 -445.8270087984526 -90.74148414244264 0.0 0.0
-874.3943839168755 -92.5615536182778 -481.5047668557422 -91.64549307847975 0.0 0.0
-932.4265402504977 -104.00139669468314 -516.3883579487667 -91.05546051206962 0.0 0.0
-990.5263500001038 -120.41715700139281 -553.6885284069599 -89.36025738616415 0.0 0.0
-1048.657238631657 -140.74812605301793 -592.9817073786438 -87.12920119487976 0.0 0.0
-1105.1955565612768 -163.2980516033193 -632.580886892279 -84.68538099381642 0.0 0.0
-1155.8321907470734 -182.0287671389303 -667.3845863468549 -82.69823239777972 0.0 0.0
-1186.2833504200796 -183.7965247674464 -683.745935824766 -82.52413811229306 0.0 0.0
-1173.1357090057056 -146.86421759839376 -659.0472672780818 -84.92231373041075 0.0 0.0
-1097.475207874474 -53.896623848247515 -575.0699064189464 -88.44611067129566 0.0 0.0
-956.8887907073713 94.1444051544624 -431.1120196027314 -91.20612208765664 0.0 0.0
-756.1558847761827 286.4881897588707 -234.8833838139504 -94.34674689369119 0.0 0.0
-3476.0175421982226 -2484.0441537579063 -2969.131168337375 -6.281197784119286e-12 0.0 0.0
-756.1558847744511 286.48818976063643 -234.88338381277055 94.34674689369794 0.0 0.0
-956.8887907086096 94.14440515317588 -431.1120196036038 91.2061220876405 0.0 0.0
-1097.475207873576 -53.896623847486765 -575.0699064182115 88.4461106713643 0.0 0.0
-1173.1357090055824 -146.86421759837202 -659.04726727808 84.92231373051459 0.0 0.0
-1186.2833504193134 -183.79652476678717 -683.7459358242155 82.52413811215193 0.0 0.0
-1155.832190747628 -182.0287671397013 -667.3845863472284 82.6982323978355 0.0 0.0
-1105.1955565601615 -163.29805160241546 -632.5808868914547 84.68538099390531 0.0 0.0
-1048.65723863243 -140.7481260540492 -592.9817073792047 87.1292011949993 0.0 0.0
-990.5263500004213 -120.41715700205785 -553.688528407264 89.36025738642516 0.0 0.0
-932.4265402491305 -104.0013966934456 -516.3883579479086 91.05546051186721 0.0 0.0
-874.3943839173319 -92.56155361907828 -481.50476685611017 91.64549307852046 0.0 0.0
-813.6713490719063 -84.64291339118905 -445.8270087978238 90.74148414220643 0.0 0.0
-742.5932804305406 -75.57767391650061 -398.0222436483453 89.71874099380028 0.0 0.0
-653.3329129022749 -58.29545707242354 -317.1041659409677 90.43087488962314 0.0 0.0
-525.6116145735921 -28.860940008197648 -205.26792894983322 94.17263645577299 0.0 0.0
-384.658548752934 4.752585328301739 -117.49193567118826 113.19748685692856 0.0 0.0
-258.9004950427399 7.504589118742145 -75.29400752930236 127.36180164857272 0.0 0.0
-159.34027778661184 -3.5279540561552962 -48.86097705130361 127.07446652216741 0.0 0.0
-80.27088739901976 -49.835130643402266 -39.03180541272661 94.61590807577797 0.0 0.0
-45.246696347592064 -77.40899424052874 -36.79670717643624 54.81136257197599 0.0 0.0
-40.803325239398134 -42.45424307647414 -24.977270494761676 -39.945995384801854 0.0 0.0
-86.06576214710213 -38.06558787010277 -37.239405005161466 -72.69245907627115 0.0 0.0
-175.9970306946803 -2.1954201931542134 -53.45795574405461 -101.7057740681011 0.0 0.0
-294.6614265632553 2.1800335009239316 -87.57229288409457 -100.95348032410095 0.0 0.0
-442.6576107263595 -7.647327752171096 -144.03455656597933 -82.86387101714006 0.0 0.0
-585.7073582155251 -41.92215110609108 -247.4157839474895 -68.68965631387323 0.0 0.0
-698.5902366923916 -67.33824794297527 -355.75983154899376 -67.61767498372087 0.0 0.0
-784.3769100337811 -84.4305062448767 -427.56090834040197 -67.7371687441744 0.0 0.0
-857.2811817829806 -97.55911951928172 -475.3113733537623 -69.53167613968544 0.0 0.0
-921.5216458985356 -109.33996795440757 -514.0500800859854 -70.78975513713058 0.0 0.0
-982.7641973261302 -124.03316956498264 -552.1069342787342 -70.61888949900523 0.0 0.0
-1044.0963766094999 -143.22210423478617 -592.3920422638895 -69.46937777381576 0.0 0.0
-1104.8129329131693 -166.17446496080103 -634.275641953144 -67.87250522511975 0.0 0.0
-1163.2055967652748 -189.29571724100896 -675.0617120776362 -66.10163572906528 0.0 0.0
-1215.9653098086949 -210.0445961298776 -711.8806387197957 -64.04321513230165 0.0 0.0
-1252.4083996010222 -217.31723983614955 -733.9462256815509 -62.403886623146235 0.0 0.0
-1244.504110050104 -183.9877716650023 -713.7000380415765 -62.98412761693723 0.0 0.0
-1156.207218005955 -77.13768230694998 -616.501907128333 -66.67264968171949 0.0 0.0
-986.5945777014708 100.54730435064754 -443.1078583715688 -72.38968752366897 0.0 0.0
-759.4707145617369 319.6000772765103 -220.07492158624316 -80.4873770365516 0.0 0.0
-3687.270559131645 -2650.9999107518097 -3160.251005801477 6.856559764401027e-11 0.0 0.0
-759.4707145611935 319.60007727697746 -220.07492158580118 80.4873770367507 0.0 0.0
-986.5945777020771 100.5473043499201 -443.1078583721609 72.3896875238719 0.0 0.0
-1156.2072180058196 -77.13768230688616 -616.501907128246 66.67264968176161 0.0 0.0
-1244.5041100504072 -183.98777166542834 -713.7000380417813 62.98412761693489 0.0 0.0
-1252.408399600622 -217.31723983585172 -733.9462256812503 62.403886623069596 0.0 0.0
-1215.9653098078538 -210.0445961292302 -711.8806387191819 64.04321513225511 0.0 0.0
-1163.2055967664987 -189.29571724249186 -675.0617120784004 66.10163572934127 0.0 0.0
-1104.8129329137282 -166.17446496159235 -634.2756419536526 67.87250522511138 0.0 0.0
-1044.0963766105206 -143.22210423615385 -592.3920422646241 69.46937777404787 0.0 0.0
-982.7641973249787 -124.03316956405735 -552.1069342779786 70.61888949896583 0.0 0.0
-921.5216458987974 -109.33996795501855 -514.05008008616 70.7897551372173 0.0 0.0
-857.2811817820761 -97.55911951860942 -475.3113733532127 69.53167613952427 0.0 0.0
-784.3769100341492 -84.43050624561903 -427.56090834057346 67.7371687442753 0.0 0.0
-698.5902366920245 -67.33824794297374 -355.7598315485721 67.61767498365994 0.0 0.0
-585.7073582152146 -41.92215110626411 -247.415783947146 68.68965631388741 0.0 0.0
-442.6576107258756 -7.647327752104477 -144.0345565657355 82.86387101715283 0.0 0.0
-294.6614265628104 2.180033501103651 -87.5722928839309 100.95348032388665 0.0 0.0
-175.99703069469936 -2.1954201936110835 -53.45795574419712 101.70577406790942 0.0 0.0
-86.0657621470002 -38.065587870112054 -37.23940500513367 72.69245907641927 0.0 0.0
-40.80332523923022 -42.45424307636117 -24.977270494677413 39.945995384720256 0.0 0.0
-37.99809732061983 -20.915586513746856 -17.67410515031 -25.9670871260919 0.0 0.0
-88.75112736858418 -26.659200304477505 -34.6230983019185 -49.232489014852504 0.0 0.0
-191.09845398261805 -1.0428230259827935 -57.64238310258024 -71.40838132863227 0.0 0.0
-332.63536061086484 -4.015288756846057 -100.80294687450981 -69.28444098641516 0.0 0.0
-496.0168701611424 -22.983855598575534 -174.3502355914065 -51.912387359293206 0.0 0.0
-633.3183188698688 -51.66011894148873 -286.2182775663108 -45.49637861996822 0.0 0.0
-732.5403956523269 -74.48356545705771 -385.23850712124636 -45.329049782231266 0.0 0.0
-820.3696287634073 -93.8907127774914 -452.8445995957662 -46.18720892266187 0.0 0.0
-896.1581877225395 -111.11844271006859 -502.1915796232879 -47.81950726912637 0.0 0.0
-963.9675827730592 -126.48688935081299 -544.2394667970888 -49.086896951380595 0.0 0.0
-1028.808693986037 -144.27787500868305 -585.6326834108775 -49.28339459491757 0.0 0.0
-1093.0271718184454 -166.1795806123708 -628.7154048127044 -48.66696363704172 0.0 0.0
-1156.4070368860434 -190.55743765454005 -672.6286630597085 -47.76588713351617 0.0 0.0
-1215.6268779801512 -214.81807069169264 -714.4082031286669 -46.60723166450009 0.0 0.0
-1267.0423695921786 -233.68336442140344 -749.6041640650208 -44.924751133821225 0.0 0.0
-1303.6847357732026 -240.66173077372275 -771.5172360931149 -42.60462760014661 0.0 0.0
-1310.6082280142577 -221.59971251850192 -765.6807466372883 -41.0499266520776 0.0 0.0
-1244.7550938302506 -135.81215224425705 -690.2934389094809 -43.63151089943528 0.0 0.0
-1036.3304781383338 82.31938280746826 -477.3770235160063 -52.625198194380815 0.0 0.0
-733.9625334984875 377.93846175421163 -178.303632195091 -66.99512709201157 0.0 0.0
-3842.3016598896925 -2767.263346661286 -3297.5591202394507 7.040590332962893e-11 0.0 0.0
-733.962533497927 377.9384617547008 -178.30363219468825 66.99512709202695 0.0 0.0
-1036.3304781411905 82.3193828045341 -477.3770235183465 52.62519819459094 0.0 0.0
-1244.755093828992 -135.8121522431419 -690.2934389085694 43.63151089963564 0.0 0.0
-1310.6082280164321 -221.59971252075985 -765.6807466387495 41.049926652133614 0.0 0.0
-1303.6847357732547 -240.6617307739464 -771.517236093211 42.604627600074096 0.0 0.0
-1267.0423695921793 -233.6833644215445 -749.6041640650631 44.92475113381705 0.0 0.0
-1215.6268779799143 -214.8180706916904 -714.4082031284255 46.607231664584745 0.0 0.0
-1156.4070368854336 -190.55743765414775 -672.6286630593728 47.76588713351016 0.0 0.0
-1093.02717181867 -166.1795806129157 -628.7154048128691 48.666963637297485 0.0 0.0
-1028.808693985371 -144.27787500826872 -585.6326834104717 49.283394594974624 0.0 0.0
-963.9675827729458 -126.48688935099474 -544.2394667968955 49.08689695131183 0.0 0.0
-896.1581877213824 -111.11844270921873 -502.19157962254974 47.81950726910807 0.0 0.0
-820.3696287635399 -93.89071277800711 -452.84459959577373 46.187208922824944 0.0 0.0
-732.540395651732 -74.48356545675854 -385.23850712069583 45.329049782116996 0.0 0.0
-633.3183188694003 -51.6601189414139 -286.21827756582826 45.49637861997108 0.0 0.0
-496.0168701607088 -22.983855598587866 -174.35023559114936 51.91238735931825 0.0 0.0
-332.63536061045306 -4.015288756609162 -100.80294687433158 69.2844409863481 0.0 0.0
-191.09845398262976 -1.0428230264582963 -57.64238310272639 71.40838132856275 0.0 0.0
-88.75112736850996 -26.659200304451815 -34.62309830188852 49.23248901479272 0.0 0.0
-37.99809732065591 -20.91558651379293 -17.674105150334647 25.967087126055446 0.0 0.0
-34.442847157371524 -11.719787090780768 -13.848790274445683 -14.57154827064618 0.0 0.0
-86.81835865106548 -17.38198608821833 -31.260103421785125 -24.674122730754167 0.0 0.0
-204.29976778944263 -1.1964671578438093 -61.64887048418593 -34.68123442419124 0.0 0.0
-372.1572305717078 -10.264084453515702 -115.4835255060041 -32.15202535122116 0.0 0.0
-546.5189278699028 -35.86367975170134 -206.35214497246452 -23.689886584939966 0.0 0.0
-668.1869155155987 -58.71042194468004 -319.22183649820226 -23.92874173599948 0.0 0.0
-762.5662946868226 -79.72116427791713 -408.59731388606986 -24.498390826879877 0.0 0.0
-851.5879478972655 -103.81987471447624 -474.88381816239314 -24.857681502932046 0.0 0.0
-930.906891213207 -124.93166428538396 -526.8443007130714 -25.673733335651637 0.0 0.0
-1002.652010455115 -144.2745432364586 -572.7635311596036 -26.579433141069174 0.0 0.0
-1070.7799353516443 -164.86210831175714 -617.2027727878994 -27.03062689927741 0.0 0.0
-1137.9587942968965 -188.58040200255397 -662.6711463674344 -27.0258494654383 0.0 0.0
-1203.4762116525071 -215.20954005758443 -708.7744603935749 -26.70029633354444 0.0 0.0
-1263.8224796401464 -239.47959488560355 -751.1252549614937 -26.15131270692864 0.0 0.0
-1312.1573677108731 -254.93086597353977 -783.0859890925241 -25.147825668247062 0.0 0.0
-1342.55730109585 -255.71212236892006 -798.7509639948162 -23.270093592461393 0.0 0.0
-1353.2264034210123 -240.53925596980253 -796.5253700274848 -20.7861294057605 0.0 0.0
-1338.8783905579244 -205.40607284331725 -771.9211622923712 -20.533292056397958 0.0 0.0
-1207.1040398081223 -61.076686612267366 -634.4807586513854 -29.043175244385388 0.0 0.0
-703.6990081064282 439.23323771480636 -132.9102360848125 -50.962938064797974 0.0 0.0
-3777.5143598017066 -2665.9716135214812 -3216.2027727174386 1.794173698499435e-10 0.0 0.0
-703.6990081055212 439.23323771575065 -132.9102360839721 50.96293806466588 0.0 0.0
-1207.1040398110836 -61.07668661535294 -634.4807586534788 29.043175244472444 0.0 0.0
-1338.8783905564778 -205.4060728419609 -771.9211622913533 20.533292056462862 0.0 0.0
-1353.2264034224477 -240.53925597137825 -796.5253700284677 20.78612940579072 0.0 0.0
-1342.5573010943272 -255.7121223675361 -798.750963993728 23.270093592524145 0.0 0.0
-1312.157367710493 -254.9308659733485 -783.0859890922834 25.147825668191807 0.0 0.0
-1263.8224796387635 -239.47959488439972 -751.1252549605767 26.1513127068764 0.0 0.0
-1203.476211652692 -215.2095400579867 -708.7744603937173 26.70029633353164 0.0 0.0
-1137.9587942972191 -188.58040200314827 -662.6711463677111 27.025849465510866 0.0 0.0
-1070.779935350682 -164.86210831104893 -617.2027727873128 27.03062689925526 0.0 0.0
-1002.652010455041 -144.27454323669738 -572.763531159504 26.57943314106484 0.0 0.0
-930.9068912120391 -124.93166428450168 -526.8443007123387 25.673733335623535 0.0 0.0
-851.5879478963507 -103.81987471389371 -474.8838181617619 24.857681503052873 0.0 0.0
-762.5662946864072 -79.7211642777904 -408.5973138856872 24.498390826817243 0.0 0.0
-668.1869155151032 -58.71042194454908 -319.22183649771193 23.92874173598596 0.0 0.0
-546.5189278697425 -35.863679752023806 -206.35214497228927 23.68988658489534 0.0 0.0
-372.1572305712556 -10.26408445339588 -115.48352550583371 32.15202535129783 0.0 0.0
-204.29976778943114 -1.196467158019809 -61.648870484235275 34.68123442413105 0.0 0.0
-86.8183586510795 -17.381986088397408 -31.26010342184307 24.67412273067558 0.0 0.0
-34.44284715718166 -11.719787090673057 -13.848790274356414 14.57154827052078 0.0 0.0
-22.94232890189948 -6.089129845776684 -8.709437624302849 -8.836747299909918 0.0 0.0
-76.11589239470672 -9.976936096667911 -25.827848547412383 -10.258669359370987 0.0 0.0
-215.18945736524066 -3.83509537576737 -65.7073658223024 -11.28782030877412 0.0 0.0
-419.98365109486866 -31.221338623923785 -139.0958187800221 -6.79500036255066 0.0 0.0
-622.2601718096173 -88.38545906751193 -261.92979749134446 0.9732347569192257 0.0 0.0
-772.7203447915647 -145.25555067598467 -408.4759751944391 1.4404670674284858 0.0 0.0
-909.7508762287929 -211.67655606004524 -538.6517305449622 0.2931229301914122 0.0 0.0
-1055.1950294899377 -293.6740760307509 -661.1576871215332 -1.3005347516248804 0.0 0.0
-1209.9183095342182 -390.88793857707054 -788.9743931449216 -3.1378230249144803 0.0 0.0
-1383.0651489860074 -511.2974502960079 -935.9123712244492 -5.1097620406799376 0.0 0.0
-1580.8838856594696 -660.8917716162136 -1109.27748730508 -6.91199629875485 0.0 0.0
-1803.222937937191 -839.7865485743919 -1309.4550492900462 -8.280255270501229 0.0 0.0
-2042.8816155747745 -1039.5385225608693 -1528.749699088703 -9.18627505008158 0.0 0.0
-2287.9410388473043 -1248.0631665250066 -1755.2338693013708 -9.865599870625609 0.0 0.0
-2520.3376762353264 -1447.2282179807262 -1970.8236425909258 -10.096729681964277 0.0 0.0
-2715.88447866665 -1613.0815748739 -2151.458735797848 -9.575690834025298 0.0 0.0
-2848.1274426644472 -1719.7931807253917 -2270.896359236489 -8.03748627374556 0.0 0.0
-2911.807874365548 -1762.8433726910403 -2323.7795636757564 -7.024913831931229 0.0 0.0
-2996.2326379197343 -1832.979696625429 -2399.5908617257464 -14.697681935326704 0.0 0.0
-3116.2335454974805 -1951.6551139235942 -2516.7401445492956 -41.03046396001071 0.0 0.0
-6727.372488010493 -5587.8341487956495 -6134.09219124786 1.3375256457948126e-10 0.0 0.0
-3116.233545496452 -1951.655113922584 -2516.7401445480127 41.03046396000032 0.0 0.0
-2996.2326379192414 -1832.9796966250065 -2399.5908617249615 14.697681935350442 0.0 0.0
-2911.8078743647557 -1762.8433726903488 -2323.779563675031 7.024913831800291 0.0 0.0
-2848.1274426627947 -1719.7931807238724 -2270.896359235099 8.037486273612654 0.0 0.0
-2715.8844786631394 -1613.0815748705265 -2151.458735795002 9.575690834328512 0.0 0.0
-2520.3376762318208 -1447.2282179773786 -1970.8236425881996 10.096729681894118 0.0 0.0
-2287.9410388452025 -1248.063166523062 -1755.2338692997223 9.865599870484537 0.0 0.0
-2042.8816155753557 -1039.5385225617142 -1528.749699088804 9.186275050107831 0.0 0.0
-1803.2229379367836 -839.7865485742751 -1309.4550492895714 8.280255270540252 0.0 0.0
-1580.8838856571933 -660.8917716141423 -1109.2774873033918 6.91199629872278 0.0 0.0
-1383.0651489857391 -511.2974502960908 -935.9123712240578 5.109762040753239 0.0 0.0
-1209.9183095327608 -390.88793857586546 -788.974393143818 3.13782302473248 0.0 0.0
-1055.1950294877865 -293.67407602890086 -661.1576871200455 1.3005347514793044 0.0 0.0
-909.750876228756 -211.67655606035927 -538.6517305447097 -0.2931229301281526 0.0 0.0
-772.7203447909957 -145.2555506757398 -408.4759751938319 -1.440467067367564 0.0 0.0
-622.2601718096989 -88.38545906813863 -261.9297974912381 -0.9732347568805508 0.0 0.0
-419.9836510941169 -31.221338623371 -139.0958187796016 6.795000362611695 0.0 0.0
-215.18945736518725 -3.8350953761343085 -65.70736582239648 11.287820308527987 0.0 0.0
-76.1158923947745 -9.976936096799387 -25.827848547472165 10.258669359428824 0.0 0.0
-22.94232890199637 -6.089129845740496 -8.709437624321058 8.836747299667216 0.0 0.0
SCALARS Strain float 6
LOOKUP_TABLE default
0.015720923768504654 -0.025850843570748565 0.0 -0.0017273366315087159 0.0 0.0
0.009679392186143446 -0.0031305339965223365 0.0 -0.007771545859787641 0.0 0.0
0.0028345124376627003 -0.0006427326142942707 0.0 -0.0009924754007155224 0.0 0.0
0.002375124555822205 -0.0009415017886126543 0.0 3.302680679446163e-05 0.0 0.0
0.003683099892551359 -0.0016736818260864152 0.0 0.0002535939443946069 0.0 0.0
0.006557119833412622 -0.00389319718330033 0.0 0.0004426910467377999 0.0 0.0
0.011555879018587747 -0.008231116825972102 0.0 0.0005788003975865005 0.0 0.0
0.019126143618817936 -0.015108080320823752 0.0 0.0006194831709149299 0.0 0.0
0.029603970501059923 -0.024823706421298074 0.0 0.0005561716871701791 0.0 0.0
0.043094332384338574 -0.0374264593728179 0.0 0.0003494654760259496 0.0 0.0
0.05946575642788331 -0.05274916795426815 0.0 3.1130718524058376e-05 0.0 0.0
0.07844522704042692 -0.07051939138426436 0.0 -0.00037799269134388823 0.0 0.0
0.09970158729172046 -0.09044570560516216 0.0 -0.0008823491405027362 0.0 0.0
0.12287721180786518 -0.11221885213481875 0.0 -0.0014376145732477447 0.0 0.0
0.14751195991840713 -0.13543989760596006 0.0 -0.00205924372536787 0.0 0.0
0.17290315310504717 -0.15947715583050803 0.0 -0.0027059394381822996 0.0 0.0
0.1980217325285979 -0.1833754244010266 0.0 -0.003240379150551976 0.0 0.0
0.2215256107183834 -0.2058638065202847 0.0 -0.0034650087893331565 0.0 0.0
0.24188787424115787 -0.22541625714011365 0.0 -0.0032605639031345122 0.0 0.0
0.2571885686275788 -0.24020269147375833 0.0 -0.004045166913282432 0.0 0.0
0.26329009947190407 -0.24635477844447923 0.0 4.458239333260394e-15 0.0 0.0
0.2571885686275463 -0.24020269147371648 0.0 0.004045166913296124 0.0 0.0
0.2418878742410867 -0.22541625714004204 0.0 0.0032605639031478197 0.0 0.0
0.22152561071827997 -0.20586380652019792 0.0 0.00346500878934009 0.0 0.0
0.19802173252847685 -0.18337542440091556 0.0 0.0032403791505479576 0.0 0.0
0.17290315310491874 -0.1594771558303741 0.0 0.0027059394381738367 0.0 0.0
0.14751195991827687 -0.13543989760584554 0.0 0.0020592437253687517 0.0 0.0
0.12287721180773653 -0.11221885213469399 0.0 0.0014376145732441581 0.0 0.0
0.09970158729159452 -0.09044570560505386 0.0 0.0008823491404962138 0.0 0.0
0.07844522704031055 -0.0705193913841494 0.0 0.000377992691337523 0.0 0.0
0.059465756427784025 -0.052749167954174045 0.0 -3.113071853321934e-05 0.0 0.0
0.043094332384257965 -0.03742645937274449 0.0 -0.000349465476030395 0.0 0.0
0.029603970500998424 -0.02482370642124539 0.0 -0.0005561716871653457 0.0 0.0
0.019126143618774027 -0.015108080320785165 0.0 -0.0006194831709096243 0.0 0.0
0.011555879018559397 -0.008231116825953358 0.0 -0.0005788003975847696 0.0 0.0
0.006557119833397185 -0.003893197183289813 0.0 -0.00044269104673722373 0.0 0.0
0.0036830998925452144 -0.001673681826083539 0.0 -0.0002535939443928409 0.0 0.0
0.0023751245558207234 -0.0009415017886159637 0.0 -3.302680679220702e-05 0.0 0.0
0.002834512437660498 -0.0006427326142924323 0.0 0.0009924754007123468 0.0 0.0
0.009679392186137066 -0.0031305339965183817 0.0 0.007771545859777172 0.0 0.0
0.015720923768495786 -0.025850843570723436 0.0 0.001727336631458291 0.0 0.0
0.011118775807897942 -0.02325239670957201 0.0 -0.0012645144978839266 0.0 0.0
0.006495164804062801 -0.0023534376110954007 0.0 -0.006438434427326141 0.0 0.0
0.0018303709237040594 -0.00047576341992545653 0.0 -0.0006210297763138575 0.0 0.0
0.002076679440285239 -0.0008823192236799755 0.0 -0.00018258560248953884 0.0 0.0
0.0031443507343472334 -0.0014939257492236294 0.0 -0.00014457006049369906 0.0 0.0
0.005594240232010186 -0.003487261868934239 0.0 -0.000260654872487103 0.0 0.0
0.010046145921090998 -0.007534996108230312 0.0 -0.0006413314561824102 0.0 0.0
0.016916259066120088 -0.014054429795146185 0.0 -0.0012580052168801297 0.0 0.0
0.026472779022332804 -0.023306636368133286 0.0 -0.0021333086922087066 0.0 0.0
0.03874565876038071 -0.03530179897327048 0.0 -0.0032323620402279814 0.0 0.0
0.053570487797788315 -0.04985590203107586 0.0 -0.004450185530583201 0.0 0.0
0.07069620429557001 -0.0667048150059985 0.0 -0.005697807364748075 0.0 0.0
0.08986132363745061 -0.0855877928889035 0.0 -0.006966721698436232 0.0 0.0
0.11077131276817977 -0.10623109588857813 0.0 -0.008253600138400288 0.0 0.0
0.1330240181685598 -0.12826294051528678 0.0 -0.009510188030096484 0.0 0.0
0.15601131710898505 -0.15110067555986084 0.0 -0.010606900713493694 0.0 0.0
0.17883738155037562 -0.17386267340859368 0.0 -0.011262455737657353 0.0 0.0
0.20030784638263335 -0.19535031866071845 0.0 -0.011132297849767476 0.0 0.0
0.21886892132092978 -0.21405064996756903 0.0 -0.010128159449733339 0.0 0.0
0.23218002038575772 -0.22791381696574514 0.0 -0.009341200213788509 0.0 0.0
0.23715907252690635 -0.2337311339687469 0.0 8.936427986494522e-15 0.0 0.0
0.23218002038572663 -0.22791381696570517 0.0 0.009341200213814599 0.0 0.0
0.21886892132086572 -0.214050649967505 0.0 0.010128159449758128 0.0 0.0
0.20030784638254262 -0.19535031866062758 0.0 0.011132297849781234 0.0 0.0
0.17883738155026913 -0.17386267340849035 0.0 0.011262455737656885 0.0 0.0
0.15601131710886992 -0.15110067555974416 0.0 0.010606900713486241 0.0 0.0
0.1330240181684419 -0.12826294051517373 0.0 0.009510188030093583 0.0 0.0
0.11077131276806362 -0.10623109588846263 0.0 0.008253600138394119 0.0 0.0
0.089861323637338 -0.08558779288879306 0.0 0.0069667216984281854 0.0 0.0
0.07069620429546548 -0.0667048150058923 0.0 0.00569780736473811 0.0 0.0
0.053570487797698206 -0.049855902030986776 0.0 0.004450185530567238 0.0 0.0
0.038745658760308346 -0.035301798973195186 0.0 0.0032323620402179435 0.0 0.0
0.02647277902227757 -0.02330663636808305 0.0 0.0021333086922064844 0.0 0.0
0.01691625906608015 -0.014054429795109583 0.0 0.0012580052168777041 0.0 0.0
0.010046145921065426 -0.007534996108210285 0.0 0.0006413314561795266 0.0 0.0
0.005594240231996592 -0.0034872618689201734 0.0 0.0002606548724860003 0.0 0.0
0.0031443507343420995 -0.001493925749222092 0.0 0.00014457006049268517 0.0 0.0
0.0020766794402837714 -0.0008823192236815245 0.0 0.00018258560249112185 0.0 0.0
0.0018303709237029635 -0.0004757634199240783 0.0 0.0006210297763118032 0.0 0.0
0.0064951648040552645 -0.0023534376110919395 0.0 0.006438434427315568 0.0 0.0
0.011118775807883903 -0.023252396709545105 0.0 0.0012645144978428733 0.0 0.0
0.008216304258709362 -0.018657484792361408 0.0 -0.0044817360934325855 0.0 0.0
0.004639705386568361 -0.0013255571041491867 0.0 -0.006607715479791602 0.0 0.0
0.0012590190795668018 -0.00023741059035661073 0.0 -0.0005428746628900425 0.0 0.0
0.0017464796550069393 -0.0007387501658261826 0.0 -0.0004781551096641538 0.0 0.0
0.0026563708795358603 -0.001180312356204549 0.0 -0.000507985620611094 0.0 0.0
0.004684093285351059 -0.002721127163263735 0.0 -0.0007336264887896602 0.0 0.0
0.008556475787558955 -0.006166263234784331 0.0 -0.0014627071027902199 0.0 0.0
0.014686021629347068 -0.011950832692320484 0.0 -0.0026473176395999097 0.0 0.0
0.023269655009542818 -0.020250153603952152 0.0 -0.004305853935349924 0.0 0.0
0.03428573094897389 -0.03101255452623118 0.0 -0.006330757275695084 0.0 0.0
0.04754606850709027 -0.04402007359483322 0.0 -0.008529042218988724 0.0 0.0
0.06281537149660343 -0.05902600516556364 0.0 -0.01073331090143291 0.0 0.0
0.07987506895867892 -0.07581903802501333 0.0 -0.012908258662777538 0.0 0.0
0.09849748463383112 -0.0941898987712376 0.0 -0.015095207166873525 0.0 0.0
0.118356749203493 -0.113835056350536 0.0 -0.017232273586755508 0.0 0.0
0.1389494588858944 -0.13427430189264244 0.0 -0.019077537175489108 0.0 0.0
0.1595272394366244 -0.1547748452968978 0.0 -0.020190574391241216 0.0 0.0
0.1790022096277504 -0.17427527351039115 0.0 -0.020078871472630322 0.0 0.0
0.19578333510834828 -0.1912698640650158 0.0 -0.01855284131381748 0.0 0.0
0.20781528087579115 -0.20362480187837978 0.0 -0.015786971565799373 0.0 0.0
0.21236740465064058 -0.209133370612963 0.0 1.7186772838240216e-14 0.0 0.0
0.20781528087576254 -0.20362480187835003 0.0 0.015786971565844465 0.0 0.0
0.19578333510829143 -0.1912698640649592 0.0 0.0185528413138634 0.0 0.0
0.179002209627671 -0.17427527351030364 0.0 0.020078871472660027 0.0 0.0
0.15952723943653094 -0.15477484529681027 0.0 0.020190574391241597 0.0 0.0
0.1389494588857927 -0.1342743018925428 0.0 0.019077537175479695 0.0 0.0
0.11835674920338748 -0.11383505635042776 0.0 0.01723227358675116 0.0 0.0
0.09849748463372747 -0.094189898771135 0.0 0.015095207166868508 0.0 0.0
0.07987506895857943 -0.0758190380249144 0.0 0.012908258662764495 0.0 0.0
0.06281537149651058 -0.059026005165473 0.0 0.010733310901415374 0.0 0.0
0.047546068507010326 -0.04402007359475166 0.0 0.008529042218971874 0.0 0.0
0.034285730948909125 -0.03101255452616406 0.0 0.006330757275683047 0.0 0.0
0.023269655009492584 -0.020250153603904676 0.0 0.004305853935338965 0.0 0.0
0.014686021629311777 -0.011950832692286499 0.0 0.0026473176395910816 0.0 0.0
0.008556475787537278 -0.006166263234767464 0.0 0.0014627071027845874 0.0 0.0
0.004684093285340281 -0.002721127163252234 0.0 0.0007336264887884152 0.0 0.0
0.0026563708795326 -0.0011803123562041083 0.0 0.0005079856206101066 0.0 0.0
0.0017464796550067535 -0.0007387501658255815 0.0 0.0004781551096648155 0.0 0.0
0.00125901907956694 -0.00023741059035679244 0.0 0.0005428746628882891 0.0 0.0
0.004639705386561111 -0.0013255571041460332 0.0 0.006607715479778268 0.0 0.0
0.008216304258694952 -0.018657484792333697 0.0 0.004481736093404084 0.0 0.0
0.006251255421057792 -0.015084450711467683 0.0 -0.004927516504830742 0.0 0.0
0.003448135077935075 -0.0009516337983655639 0.0 -0.006041437545412906 0.0 0.0
0.0008905095478572819 -0.00013025010008104273 0.0 -0.0008202380106381275 0.0 0.0
0.0014317479480451876 -0.0005790529226391055 0.0 -0.0007827220341022045 0.0 0.0
0.002214500265028436 -0.0009395362746428418 0.0 -0.0008453321785794384 0.0 0.0
0.003846138125422517 -0.0020657810832139367 0.0 -0.001123919820281492 0.0 0.0
0.00711221952615659 -0.004865776858781041 0.0 -0.002017908951143027 0.0 0.0
0.012458873008432937 -0.009866594196021027 0.0 -0.003653498104053998 0.0 0.0
0.020030642167267115 -0.01716989287060727 0.0 -0.005900605172927334 0.0 0.0
0.02975850261212997 -0.02666558666420114 0.0 -0.008618581584835118 0.0 0.0
0.04143509074768661 -0.038109472238606903 0.0 -0.011543543624319851 0.0 0.0
0.054839428712781337 -0.05126650148078528 0.0 -0.014469969514532072 0.0 0.0
0.0697891812810621 -0.0659637065679263 0.0 -0.01735156151025593 0.0 0.0
0.08610669077832495 -0.08204603426049287 0.0 -0.02021506937706964 0.0 0.0
0.10355241996212781 -0.0992860702769161 0.0 -0.02299485422157349 0.0 0.0
0.12174460773638437 -0.11731713261966153 0.0 -0.025429068780614003 0.0 0.0
0.1400698785865379 -0.1355557997576656 0.0 -0.02701421597492854 0.0 0.0
0.1575564131188951 -0.15307435361068103 0.0 -0.02714843943536001 0.0 0.0
0.17276731170330661 -0.16845288066173147 0.0 -0.025225160417476276 0.0 0.0
0.18395077461072457 -0.17984328708142708 0.0 -0.020286618784918553 0.0 0.0
0.188307860463027 -0.1855338349551434 0.0 2.5195123765087146e-14 0.0 0.0
0.18395077461069848 -0.17984328708139574 0.0 0.020286618784978915 0.0 0.0
0.17276731170325588 -0.1684528806616854 0.0 0.02522516041753705 0.0 0.0
0.15755641311882537 -0.15307435361060998 0.0 0.02714843943539256 0.0 0.0
0.14006987858645634 -0.13555579975758475 0.0 0.027014215974931574 0.0 0.0
0.12174460773629525 -0.11731713261957089 0.0 0.02542906878060374 0.0 0.0
0.10355241996203533 -0.09928607027681957 0.0 0.022994854221562562 0.0 0.0
0.08610669077823445 -0.08204603426040703 0.0 0.02021506937706224 0.0 0.0
0.06978918128097523 -0.06596370656784159 0.0 0.017351561510240168 0.0 0.0
0.05483942871270063 -0.051266501480706626 0.0 0.014469969514512557 0.0 0.0
0.04143509074761704 -0.03810947223853993 0.0 0.011543543624299019 0.0 0.0
0.029758502612072642 -0.02666558666414616 0.0 0.008618581584815965 0.0 0.0
0.020030642167222962 -0.01716989287056199 0.0 0.005900605172913884 0.0 0.0
0.012458873008402288 -0.009866594195986917 0.0 0.0036534981040421514 0.0 0.0
0.007112219526137909 -0.004865776858765585 0.0 0.002017908951136543 0.0 0.0
0.003846138125413675 -0.002065781083210027 0.0 0.0011239198202784902 0.0 0.0
0.002214500265025692 -0.0009395362746421726 0.0 0.0008453321785786459 0.0 0.0
0.001431747948044904 -0.0005790529226389374 0.0 0.0007827220341015387 0.0 0.0
0.000890509547857237 -0.00013025010008265966 0.0 0.000820238010636905 0.0 0.0
0.0034481350779284534 -0.0009516337983618335 0.0 0.006041437545399027 0.0 0.0
0.006251255421044638 -0.015084450711442921 0.0 0.004927516504810405 0.0 0.0
0.004772156840146617 -0.012197954202626426 0.0 -0.00436592127310232 0.0 0.0
0.002595782557530256 -0.0007482060573721013 0.0 -0.005382899705866096 0.0 0.0
0.0006444283910802811 -8.213023907581706e-05 0.0 -0.0012219149729305147 0.0 0.0
0.0011530202792361859 -0.0004387728632209467 0.0 -0.0011155193952688668 0.0 0.0
0.0018165503070206902 -0.0007476056962196628 0.0 -0.0011761018981084153 0.0 0.0
0.003095070926297209 -0.0015371314661072224 0.0 -0.0014513791671691776 0.0 0.0
0.005742636789846856 -0.003682282205573739 0.0 -0.002381315394143326 0.0 0.0
0.010262720912489889 -0.007832373347044333 0.0 -0.004239700907800648 0.0 0.0
0.016793034705024485 -0.014104505774674578 0.0 -0.006907948167553678 0.0 0.0
0.025205097160693662 -0.0223057389504021 0.0 -0.010092395332577863 0.0 0.0
0.03528171021245944 -0.03216953911443284 0.0 -0.013502841216092978 0.0 0.0
0.04680954820865563 -0.0434682598686046 0.0 -0.01691226735096293 0.0 0.0
0.05963978972187478 -0.05606293458565059 0.0 -0.020275434290295286 0.0 0.0
0.0736503327096158 -0.06985019377201925 0.0 -0.02360918031591287 0.0 0.0
0.08866909944526921 -0.08467303249053365 0.0 -0.02681862636097469 0.0 0.0
0.10442377668631493 -0.10026848401959754 0.0 -0.029647648696033188 0.0 0.0
0.12045645482889239 -0.11620081649697833 0.0 -0.03165594375894621 0.0 0.0
0.1359767831513895 -0.13171997035084212 0.0 -0.03215929079970568 0.0 0.0
0.14978200721539386 -0.1456388542442443 0.0 -0.030022344578567735 0.0 0.0
0.16038189784294204 -0.1563939057279453 0.0 -0.023666750317522425 0.0 0.0
0.16468448079645356 -0.16249023341426194 0.0 2.892044242974734e-14 0.0 0.0
0.16038189784291862 -0.15639390572790526 0.0 0.02366675031759055 0.0 0.0
0.14978200721534898 -0.14563885424420808 0.0 0.030022344578635098 0.0 0.0
0.13597678315132916 -0.1317199703507863 0.0 0.03215929079974515 0.0 0.0
0.12045645482882228 -0.11620081649690109 0.0 0.0316559437589504 0.0 0.0
0.10442377668623726 -0.10026848401952115 0.0 0.02964764869602092 0.0 0.0
0.08866909944518953 -0.08467303249045531 0.0 0.026818626360961564 0.0 0.0
0.07365033270953883 -0.06985019377194514 0.0 0.023609180315903325 0.0 0.0
0.05963978972180073 -0.056062934585569664 0.0 0.02027543429028071 0.0 0.0
0.04680954820858706 -0.04346825986854063 0.0 0.016912267350940976 0.0 0.0
0.03528171021239998 -0.03216953911437346 0.0 0.013502841216067051 0.0 0.0
0.025205097160643834 -0.02230573895035358 0.0 0.01009239533255285 0.0 0.0
0.01679303470498602 -0.014104505774631407 0.0 0.0069079481675412766 0.0 0.0
0.010262720912464248 -0.007832373347020286 0.0 0.0042397009077877615 0.0 0.0
0.0057426367898319374 -0.003682282205558547 0.0 0.0023813153941350993 0.0 0.0
0.0030950709262904056 -0.0015371314661043742 0.0 0.0014513791671670723 0.0 0.0
0.0018165503070191736 -0.0007476056962193866 0.0 0.0011761018981071279 0.0 0.0
0.0011530202792366124 -0.00043877286322176456 0.0 0.0011155193952667817 0.0 0.0
0.0006444283910803462 -8.213023907705484e-05 0.0 0.001221914972929236 0.0 0.0
0.0025957825575238765 -0.0007482060573677921 0.0 0.0053828997058532405 0.0 0.0
0.004772156840134473 -0.012197954202605528 0.0 0.004365921273087733 0.0 0.0
0.003602164662867437 -0.009781753061135084 0.0 -0.0036031740434817007 0.0 0.0
0.0019457073786193165 -0.0006050255126685679 0.0 -0.004740035507031962 0.0 0.0
0.00047032108124972884 -6.916864304710896e-05 0.0 -0.0016094531961510811 0.0 0.0
0.0009057542787097967 -0.00031670752575499315 0.0 -0.0014490598629448741 0.0 0.0
0.0014593623481144419 -0.0005916928196085528 0.0 -0.0015065725276252222 0.0 0.0
0.002430043324885169 -0.0011253764603597733 0.0 -0.001734389103081044 0.0 0.0
0.004483252697997056 -0.002659551250702356 0.0 -0.002627479018094608 0.0 0.0
0.008143001675244278 -0.0059103747087235654 0.0 -0.004470484584714297 0.0 0.0
0.013585908074792282 -0.011093130126581106 0.0 -0.0073054214302220605 0.0 0.0
0.020666040419428933 -0.017976967422573948 0.0 -0.010745397762814825 0.0 0.0
0.029127530034504995 -0.026245817494803994 0.0 -0.014403703960268802 0.0 0.0
0.038770472595084766 -0.03567804151243851 0.0 -0.01806037734801412 0.0 0.0
0.04947504283602584 -0.046163810844223455 0.0 -0.021668044259346732 0.0 0.0
0.06116799735051118 -0.057650260266388975 0.0 -0.025243851964464537 0.0 0.0
0.07375099752355453 -0.07004790770336088 0.0 -0.02868743855490013 0.0 0.0
0.08703852687990292 -0.08317851047870699 0.0 -0.0317382827944679 0.0 0.0
0.10071400813502501 -0.09673731560801055 0.0 -0.03403296851842722 0.0 0.0
0.11424217841087839 -0.11021256784892289 0.0 -0.034920694716919165 0.0 0.0
0.1267273543163549 -0.12275048231492511 0.0 -0.03298250598180345 0.0 0.0
0.13691584630995784 -0.1330671988762327 0.0 -0.026110118210415634 0.0 0.0
0.14126141848833534 -0.13974568533915754 0.0 3.146701649248129e-14 0.0 0.0
0.13691584630993792 -0.13306719887619792 0.0 0.026110118210489017 0.0 0.0
0.12672735431631593 -0.12275048231488078 0.0 0.03298250598187523 0.0 0.0
0.11424217841082732 -0.11021256784887401 0.0 0.03492069471696422 0.0 0.0
0.10071400813496621 -0.09673731560794789 0.0 0.03403296851843456 0.0 0.0
0.08703852687983761 -0.08317851047863366 0.0 0.03173828279445502 0.0 0.0
0.07375099752348802 -0.07004790770329584 0.0 0.028687438554890046 0.0 0.0
0.06116799735044666 -0.05765026026632249 0.0 0.025243851964452054 0.0 0.0
0.04947504283596444 -0.046163810844157833 0.0 0.02166804425933072 0.0 0.0
0.03877047259502826 -0.03567804151238514 0.0 0.01806037734799107 0.0 0.0
0.029127530034454542 -0.026245817494750082 0.0 0.014403703960241272 0.0 0.0
0.02066604041938747 -0.017976967422537217 0.0 0.010745397762788982 0.0 0.0
0.013585908074761597 -0.011093130126545826 0.0 0.007305421430206819 0.0 0.0
0.008143001675223789 -0.005910374708710477 0.0 0.004470484584702671 0.0 0.0
0.004483252697985621 -0.0026595512506951014 0.0 0.0026274790180867095 0.0 0.0
0.0024300433248805025 -0.001125376460355281 0.0 0.0017343891030787923 0.0 0.0
0.001459362348113481 -0.0005916928196076621 0.0 0.0015065725276257127 0.0 0.0
0.0009057542787096667 -0.00031670752575456933 0.0 0.0014490598629398489 0.0 0.0
0.0004703210812496281 -6.916864304699937e-05 0.0 0.001609453196149636 0.0 0.0
0.0019457073786150682 -0.0006050255126656826 0.0 0.004740035507022458 0.0 0.0
0.0036021646628589285 -0.009781753061117282 0.0 0.003603174043470716 0.0 0.0
0.002664498250969683 -0.0077339717354243925 0.0 -0.0029003471924810443 0.0 0.0
0.0014353492602989194 -0.000492253079935833 0.0 -0.004156227381644906 0.0 0.0
0.0003367339495811804 -7.03632142541208e-05 0.0 -0.0019298912939776577 0.0 0.0
0.0006795415998970658 -0.00020874903057126618 0.0 -0.0017555686092508085 0.0 0.0
0.001132521936779388 -0.0004538965835751106 0.0 -0.0018181921950443576 0.0 0.0
0.0018437713426449872 -0.000813469998816684 0.0 -0.0020083806043714593 0.0 0.0
0.003345140183903447 -0.0018160034472691562 0.0 -0.00275980564738814 0.0 0.0
0.006151741380698391 -0.0041734383136745245 0.0 -0.004456002218930395 0.0 0.0
0.010466632586842899 -0.008202652407366852 0.0 -0.007142600416613987 0.0 0.0
0.016178699559927404 -0.013727105342134518 0.0 -0.010556220625553921 0.0 0.0
0.02301572663716875 -0.020385937872972493 0.0 -0.01423073275171926 0.0 0.0
0.030765857628998576 -0.027944729395671924 0.0 -0.017903874821716084 0.0 0.0
0.03933971069869731 -0.03631935893637583 0.0 -0.02151765831296569 0.0 0.0
0.04871142766085179 -0.04549955946976849 0.0 -0.025100704796857557 0.0 0.0
0.05884369721177771 -0.05546051755179177 0.0 -0.028565959366545435 0.0 0.0
0.06963112718942135 -0.06610231342407588 0.0 -0.03166644020792404 0.0 0.0
0.08088930076303479 -0.07722367347796316 0.0 -0.034067241424022905 0.0 0.0
0.09234311148518688 -0.08855910964096589 0.0 -0.03530030212213022 0.0 0.0
0.10348120212537723 -0.09967609661968554 0.0 -0.03399373969550916 0.0 0.0
0.11334573024010625 -0.1096456233464217 0.0 -0.02760704617815323 0.0 0.0
0.11780688425876379 -0.1170691648410025 0.0 3.138114768042044e-14 0.0 0.0
0.11334573024008893 -0.10964562334639776 0.0 0.02760704617822552 0.0 0.0
0.10348120212534445 -0.09967609661965024 0.0 0.03399373969558155 0.0 0.0
0.09234311148514449 -0.08855910964091956 0.0 0.03530030212217473 0.0 0.0
0.08088930076298667 -0.07722367347792128 0.0 0.034067241424029664 0.0 0.0
0.0696311271893688 -0.06610231342401075 0.0 0.03166644020791092 0.0 0.0
0.058843697211723875 -0.05546051755174433 0.0 0.028565959366533077 0.0 0.0
0.048711427660800916 -0.04549955946972035 0.0 0.02510070479684415 0.0 0.0
0.03933971069864913 -0.036319358936322786 0.0 0.021517658312946532 0.0 0.0
0.030765857628953237 -0.027944729395628903 0.0 0.017903874821691042 0.0 0.0
0.02301572663712871 -0.02038593787293553 0.0 0.014230732751691618 0.0 0.0
0.016178699559894403 -0.013727105342104397 0.0 0.010556220625529949 0.0 0.0
0.010466632586818835 -0.008202652407350351 0.0 0.007142600416596388 0.0 0.0
0.006151741380682536 -0.00417343831366125 0.0 0.00445600221891783 0.0 0.0
0.0033451401838951156 -0.001816003447264577 0.0 0.002759805647380627 0.0 0.0
0.0018437713426418235 -0.0008134699988135725 0.0 0.0020083806043688828 0.0 0.0
0.0011325219367783652 -0.00045389658357522435 0.0 0.0018181921950447644 0.0 0.0
0.0006795415998971316 -0.00020874903057101443 0.0 0.0017555686092473907 0.0 0.0
0.00033673394958158234 -7.036321425310526e-05 0.0 0.0019298912939758875 0.0 0.0
0.0014353492602956325 -0.0004922530799346102 0.0 0.00415622738163832 0.0 0.0
0.002664498250962907 -0.007733971735409317 0.0 0.00290034719247395 0.0 0.0
0.0019137318613332704 -0.0060043310290345125 0.0 -0.0023452128960769814 0.0 0.0
0.0010289631482631437 -0.0004043993888234003 0.0 -0.0036309432571011912 0.0 0.0
0.0002231465172566942 -6.978200866898482e-05 0.0 -0.002172190138463823 0.0 0.0
0.0004647937979969965 -0.00011187726121540247 0.0 -0.0020168882991712087 0.0 0.0
0.0008215697663040871 -0.00031755708097381646 0.0 -0.0020875382881827757 0.0 0.0
0.0013283691173806393 -0.0005732876814876531 0.0 -0.0022827160101117822 0.0 0.0
0.002337318429154261 -0.0011600582228813894 0.0 -0.002832387262416356 0.0 0.0
0.004318189497194641 -0.00267719238994471 0.0 -0.004217815442827756 0.0 0.0
0.0074992372676274555 -0.0055254578864246725 0.0 -0.006527029072494513 0.0 0.0
0.01180242349108699 -0.0096313308759858 0.0 -0.009567119519421076 0.0 0.0
0.0169858554007038 -0.014646807933413799 0.0 -0.012967872169978079 0.0 0.0
0.022839879897132848 -0.02032464717510591 0.0 -0.016409909613903272 0.0 0.0
0.02928380660779955 -0.02658913945991157 0.0 -0.019797498191560972 0.0 0.0
0.036325278643119976 -0.03345941908178773 0.0 -0.023150230324821462 0.0 0.0
0.043993090267588644 -0.040968647877588214 0.0 -0.026423795611066607 0.0 0.0
0.05226056780591392 -0.04909923357335764 0.0 -0.029398883935228878 0.0 0.0
0.06103531765602073 -0.05774024088090089 0.0 -0.03172836127813351 0.0 0.0
0.07027670519346318 -0.0667999144454981 0.0 -0.03311864919361506 0.0 0.0
0.07992395306468453 -0.07630750472038778 0.0 -0.03276347070816087 0.0 0.0
0.08944535234921941 -0.08588526637712518 0.0 -0.027987029185468706 0.0 0.0
0.09406072406592789 -0.09421439336088003 0.0 2.7315823214468793e-14 0.0 0.0
0.08944535234920642 -0.08588526637710696 0.0 0.027987029185535167 0.0 0.0
0.07992395306465944 -0.07630750472036653 0.0 0.0327634707082298 0.0 0.0
0.0702767051934302 -0.0667999144454592 0.0 0.03311864919365752 0.0 0.0
0.061035317655983065 -0.057740240880867155 0.0 0.03172836127813718 0.0 0.0
0.052260567805873855 -0.049099233573313826 0.0 0.029398883935214372 0.0 0.0
0.043993090267548204 -0.040968647877554366 0.0 0.026423795611053194 0.0 0.0
0.036325278643082506 -0.03345941908175015 0.0 0.023150230324809784 0.0 0.0
0.029283806607764355 -0.026589139459873144 0.0 0.019797498191543007 0.0 0.0
0.0228398798970995 -0.02032464717507675 0.0 0.016409909613880683 0.0 0.0
0.01698585540067423 -0.01464680793338859 0.0 0.012967872169951163 0.0 0.0
0.01180242349106253 -0.009631330875959179 0.0 0.009567119519396925 0.0 0.0
0.007499237267609878 -0.005525457886416214 0.0 0.006527029072480314 0.0 0.0
0.0043181894971835305 -0.0026771923899314197 0.0 0.004217815442818561 0.0 0.0
0.0023373184291488338 -0.001160058222877103 0.0 0.0028323872624109766 0.0 0.0
0.001328369117379015 -0.0005732876814850559 0.0 0.0022827160101085596 0.0 0.0
0.000821569766303727 -0.0003175570809762485 0.0 0.0020875382881823854 0.0 0.0
0.00046479379799699294 -0.00011187726121648299 0.0 0.002016888299170058 0.0 0.0
0.00022314651725660077 -6.978200866855012e-05 0.0 0.002172190138460793 0.0 0.0
0.0010289631482602911 -0.00040439938882274 0.0 0.0036309432570955863 0.0 0.0
0.0019137318613279659 -0.006004331029022274 0.0 0.002345212896072998 0.0 0.0
0.0013348838117816114 -0.004579562362451536 0.0 -0.0019658930317132195 0.0 0.0
0.0007072372694892923 -0.0003431078396864745 0.0 -0.003162695932750363 0.0 0.0
0.00011275570469852532 -5.566269602820557e-05 0.0 -0.0023398655700839206 0.0 0.0
0.0002570197795973552 -2.3528427805637756e-05 0.0 -0.002223481544216217 0.0 0.0
0.0005145297922356416 -0.0001764796331501339 0.0 -0.002297838726916725 0.0 0.0
0.00085868909721489 -0.00036639198797101867 0.0 -0.002535360358072793 0.0 0.0
0.0014619264712145213 -0.000680161435148659 0.0 -0.0029292213945087127 0.0 0.0
0.00267369316901961 -0.0014801411356893098 0.0 -0.0038366846399535918 0.0 0.0
0.004733922525632413 -0.0031698398162623587 0.0 -0.005533807537227444 0.0 0.0
0.007608159131369091 -0.00580761922013501 0.0 -0.007885979128750407 0.0 0.0
0.011102173909419246 -0.009126450408402466 0.0 -0.010663320128253342 0.0 0.0
0.01503942099500032 -0.012900703414222411 0.0 -0.013575165368046852 0.0 0.0
0.019350903748904514 -0.017050512112853605 0.0 -0.01650813484622833 0.0 0.0
0.0240612920736124 -0.02161201190225822 0.0 -0.01942140503148485 0.0 0.0
0.029243614115106883 -0.02665224886696262 0.0 -0.0222824352549646 0.0 0.0
0.034964596408055465 -0.03223821384453351 0.0 -0.024979604508564016 0.0 0.0
0.041230887564166215 -0.03837614266189722 0.0 -0.027188775409851505 0.0 0.0
0.04810240417035627 -0.04506198046416798 0.0 -0.028528139682652304 0.0 0.0
0.0559444482282465 -0.05261698456465115 0.0 -0.028869290146371997 0.0 0.0
0.06493689671226645 -0.061497895641289685 0.0 -0.026768015965964894 0.0 0.0
0.06969360968093036 -0.07086600078310673 0.0 2.623162104198329e-14 0.0 0.0
0.06493689671225805 -0.06149789564128505 0.0 0.026768015966024857 0.0 0.0
0.05594444822822876 -0.052616984564627274 0.0 0.02886929014643773 0.0 0.0
0.048102404170332465 -0.045061980464143926 0.0 0.02852813968268878 0.0 0.0
0.041230887564139944 -0.03837614266186662 0.0 0.027188775409850804 0.0 0.0
0.03496459640802873 -0.03223821384450897 0.0 0.024979604508546648 0.0 0.0
0.029243614115080443 -0.026652248866929906 0.0 0.022282435254950904 0.0 0.0
0.024061292073589063 -0.021612011902235044 0.0 0.019421405031476456 0.0 0.0
0.019350903748882934 -0.017050512112834298 0.0 0.016508134846217194 0.0 0.0
0.015039420994978518 -0.01290070341419901 0.0 0.013575165368028934 0.0 0.0
0.011102173909399927 -0.009126450408385818 0.0 0.010663320128230071 0.0 0.0
0.007608159131354094 -0.005807619220114695 0.0 0.007885979128731842 0.0 0.0
0.004733922525621607 -0.0031698398162514044 0.0 0.005533807537217708 0.0 0.0
0.00267369316901298 -0.0014801411356821824 0.0 0.0038366846399473017 0.0 0.0
0.001461926471211653 -0.0006801614351487868 0.0 0.0029292213945056314 0.0 0.0
0.0008586890972140263 -0.00036639198796777127 0.0 0.002535360358067946 0.0 0.0
0.0005145297922351859 -0.00017647963315212183 0.0 0.002297838726915552 0.0 0.0
0.0002570197795968714 -2.352842780537363e-05 0.0 0.0022234815442147924 0.0 0.0
0.00011275570469816175 -5.566269602804176e-05 0.0 0.002339865570080056 0.0 0.0
0.0007072372694872715 -0.0003431078396865337 0.0 0.003162695932745489 0.0 0.0
0.0013348838117779702 -0.004579562362442333 0.0 0.0019658930317097544 0.0 0.0
0.0009130019863688185 -0.0034387856951310107 0.0 -0.001717591439171909 0.0 0.0
0.00045782063073904065 -0.0003132634637573506 0.0 -0.002773011014231799 0.0 0.0
-2.9938869090913484e-06 -2.1705092120152933e-05 0.0 -0.0024414472294159877 0.0 0.0
5.353603758510477e-05 5.897721883345193e-05 0.0 -0.0023709609785258637 0.0 0.0
0.00020618085916002175 -3.334330355511967e-05 0.0 -0.002447049240061483 0.0 0.0
0.00040690849907565915 -0.00016186884431377923 0.0 -0.0027148670157941604 0.0 0.0
0.0006981396510833348 -0.000314635545226203 0.0 -0.0030680531095711627 0.0 0.0
0.001241069086871157 -0.000620909026886933 0.0 -0.003536255798749695 0.0 0.0
0.00222254433888467 -0.0013099454596237753 0.0 -0.004378683305615467 0.0 0.0
0.0036621601120824824 -0.0024899741656196597 0.0 -0.0057674286610431775 0.0 0.0
0.005435109098588051 -0.0040516112927849075 0.0 -0.007662671983132275 0.0 0.0
0.007422405885470968 -0.005874004125857391 0.0 -0.009868039816680153 0.0 0.0
0.009582541513198024 -0.007892112797632236 0.0 -0.012217087632573852 0.0 0.0
0.011957625258495044 -0.010137515298733572 0.0 -0.014640294728593156 0.0 0.0
0.01463657228172155 -0.012688975714621428 0.0 -0.017115821492578242 0.0 0.0
0.017760148356358047 -0.015677922962730975 0.0 -0.01958952385655662 0.0 0.0
0.02149018828930645 -0.019266233855319587 0.0 -0.021822347296152553 0.0 0.0
0.02595926980100767 -0.023590649401691217 0.0 -0.023258139266633386 0.0 0.0
0.03159599530625509 -0.028919846238382525 0.0 -0.0235367945616998 0.0 0.0
0.03950091150546746 -0.036318536585734855 0.0 -0.023437041393661963 0.0 0.0
0.04420215345735941 -0.046590020063028814 0.0 1.8534652979074195e-14 0.0 0.0
0.039500911505463754 -0.03631853658574105 0.0 0.023437041393710174 0.0 0.0
0.03159599530624524 -0.02891984623836595 0.0 0.023536794561750313 0.0 0.0
0.02595926980099288 -0.02359064940168489 0.0 0.023258139266653093 0.0 0.0
0.021490188289292618 -0.019266233855308148 0.0 0.021822347296145107 0.0 0.0
0.017760148356345776 -0.015677922962730278 0.0 0.019589523856541564 0.0 0.0
0.014636572281709254 -0.012688975714598897 0.0 0.017115821492565995 0.0 0.0
0.011957625258485757 -0.010137515298724609 0.0 0.014640294728587085 0.0 0.0
0.009582541513190029 -0.007892112797630612 0.0 0.012217087632563845 0.0 0.0
0.007422405885461287 -0.0058740041258485845 0.0 0.009868039816663442 0.0 0.0
0.005435109098579191 -0.004051611292779726 0.0 0.007662671983115429 0.0 0.0
0.0036621601120759737 -0.002489974165612673 0.0 0.005767428661032262 0.0 0.0
0.0022225443388804982 -0.001309945459619919 0.0 0.0043786833056085874 0.0 0.0
0.0012410690868685397 -0.0006209090268854977 0.0 0.003536255798746053 0.0 0.0
0.0006981396510821412 -0.00031463554522969105 0.0 0.003068053109568745 0.0 0.0
0.0004069084990751342 -0.0001618688443127553 0.0 0.0027148670157901554 0.0 0.0
0.00020618085915979326 -3.3343303554464424e-05 0.0 0.0024470492400594534 0.0 0.0
5.353603758481198e-05 5.8977218834340095e-05 0.0 0.0023709609785244165 0.0 0.0
-2.993886909571994e-06 -2.1705092119692513e-05 0.0 0.0024414472294127863 0.0 0.0
0.00045782063073777825 -0.0003132634637580347 0.0 0.002773011014227739 0.0 0.0
0.0009130019863664589 -0.0034387856951244846 0.0 0.0017175914391706643 0.0 0.0
0.0006140509379644872 -0.0025617915809878237 0.0 -0.0015694811775881223 0.0 0.0
0.0002644887438185668 -0.00030748181604074113 0.0 -0.0024870213781138712 0.0 0.0
-0.0001239289830187155 2.80051121468183e-05 0.0 -0.002485264477058211 0.0 0.0
-0.00014666282018139655 0.000138460134359934 0.0 -0.002455781228307959 0.0 0.0
-9.90528798352749e-05 0.00010789256342577484 0.0 -0.002530659571509896 0.0 0.0
-4.7251522812046204e-05 4.793043018802806e-05 0.0 -0.0027911441384047965 0.0 0.0
-1.8734792839651042e-05 1.2706812074635283e-05 0.0 -0.0031559080823150482 0.0 0.0
-7.494080605252622e-06 4.571914535247581e-06 0.0 -0.0034490729870104114 0.0 0.0
-2.571468814035918e-06 1.4682537261620629e-06 0.0 -0.0037916576438660624 0.0 0.0
-3.1731034475792567e-07 1.0986459093634249e-07 0.0 -0.004622758986426276 0.0 0.0
-2.868389099562412e-06 1.6597858639551201e-06 0.0 -0.00603496461371183 0.0 0.0
-1.707402759142031e-05 1.5852024850587473e-05 0.0 -0.007895255711947166 0.0 0.0
-4.103206053387184e-05 4.06773247943915e-05 0.0 -0.009957042028678205 0.0 0.0
-3.7271782861042014e-05 4.7559881325926596e-05 0.0 -0.012157346933896588 0.0 0.0
0.00010102195409879907 -5.66195844576697e-05 0.0 -0.01449991883601232 0.0 0.0
0.0005849233848971575 -0.0004628895711495274 0.0 -0.01695259687016857 0.0 0.0
0.001742571084113951 -0.0014714675226076355 0.0 -0.019404202698742313 0.0 0.0
0.003917621681489252 -0.0034328195860750294 0.0 -0.021589467913710865 0.0 0.0
0.007330574692053288 -0.006438942086887601 0.0 -0.023214527576960686 0.0 0.0
0.013194149449238388 -0.011314456401928904 0.0 -0.024707855036231532 0.0 0.0
0.017024214179881078 -0.02215122348530983 0.0 1.1669484822895981e-14 0.0 0.0
0.013194149449238158 -0.0113144564019243 0.0 0.02470785503626003 0.0 0.0
0.007330574692050167 -0.006438942086882508 0.0 0.023214527576980448 0.0 0.0
0.003917621681486558 -0.0034328195860707815 0.0 0.021589467913712267 0.0 0.0
0.0017425710841150878 -0.0014714675226087186 0.0 0.019404202698730874 0.0 0.0
0.000584923384900001 -0.00046288957116817056 0.0 0.016952596870153488 0.0 0.0
0.00010102195410141112 -5.661958445777747e-05 0.0 0.014499918835999895 0.0 0.0
-3.7271782856633214e-05 4.755988132409722e-05 0.0 0.012157346933886433 0.0 0.0
-4.103206052856576e-05 4.067732478742138e-05 0.0 0.009957042028663779 0.0 0.0
-1.707402758757909e-05 1.585202484786347e-05 0.0 0.007895255711929868 0.0 0.0
-2.868389096863616e-06 1.6597858614748992e-06 0.0 0.006034964613698691 0.0 0.0
-3.1731034277622094e-07 1.0986458311553144e-07 0.0 0.004622758986422415 0.0 0.0
-2.5714688126025214e-06 1.4682537246512271e-06 0.0 0.003791657643863352 0.0 0.0
-7.494080604393216e-06 4.571914537111013e-06 0.0 0.0034490729870083094 0.0 0.0
-1.873479283913858e-05 1.2706812071317695e-05 0.0 0.0031559080823118273 0.0 0.0
-4.7251522811992055e-05 4.7930430189607024e-05 0.0 0.0027911441384019663 0.0 0.0
-9.90528798352827e-05 0.00010789256342695543 0.0 0.002530659571507433 0.0 0.0
-0.00014666282018155092 0.00013846013435983643 0.0 0.0024557812283060223 0.0 0.0
-0.00012392898301937595 2.800511214695108e-05 0.0 0.0024852644770563368 0.0 0.0
0.0002644887438175207 -0.000307481816041695 0.0 0.002487021378112411 0.0 0.0
0.0006140509379633516 -0.002561791580983589 0.0 0.0015694811775890257 0.0 0.0
0.00040614894412753456 -0.0019239989387866774 0.0 -0.0014980214725747623 0.0 0.0
0.00011865065920013275 -0.00030228680397433136 0.0 -0.0022850341054880016 0.0 0.0
-0.00024183292485434392 8.160481558071523e-05 0.0 -0.0024766250743312045 0.0 0.0
-0.0003425092856228372 0.00021647628343029264 0.0 -0.00247539119293566 0.0 0.0
-0.00039822569515456313 0.0002443447587058894 0.0 -0.002538356587195677 0.0 0.0
-0.0004981314475685737 0.00025709167392023443 0.0 -0.0027668683906442075 0.0 0.0
-0.0007355641641231896 0.0003417588055405576 0.0 -0.0031052430449895097 0.0 0.0
-0.001255715618400842 0.0006312952712933656 0.0 -0.0035620311590380234 0.0 0.0
-0.0022260992225901443 0.0013121914311118093 0.0 -0.004389234140016061 0.0 0.0
-0.003661866560282569 0.0024894930675496215 0.0 -0.005767644406726448 0.0 0.0
-0.0054427875956036586 0.004057184843116259 0.0 -0.007662449972863328 0.0 0.0
-0.007459416224649013 0.005907606348228883 0.0 -0.009873977274642814 0.0 0.0
-0.009662913882772104 0.0079730125916394 0.0 -0.012212178208953914 0.0 0.0
-0.012022366195083962 0.010227122150137186 0.0 -0.014615170758680886 0.0 0.0
-0.014417933617462186 0.01256152913818633 0.0 -0.01710755969849418 0.0 0.0
-0.016591487096723066 0.014728897197471006 0.0 -0.01974522889504446 0.0 0.0
-0.018134752904622752 0.01632668509039679 0.0 -0.022559892337437007 0.0 0.0
-0.018589670580304814 0.016858219681310342 0.0 -0.02568021810446684 0.0 0.0
-0.017450555071877868 0.01600927984390415 0.0 -0.029050149664864904 0.0 0.0
-0.01265271292964373 0.01251160154650596 0.0 -0.030789990204410388 0.0 0.0
-0.0088952693441651 0.0009646024442005949 0.0 1.4367847189777905e-14 0.0 0.0
-0.012652712929643359 0.01251160154651744 0.0 0.030789990204437505 0.0 0.0
-0.01745055507187202 0.016009279843894806 0.0 0.029050149664886837 0.0 0.0
-0.01858967058029149 0.01685821968129977 0.0 0.025680218104473844 0.0 0.0
-0.018134752904604687 0.016326685090383583 0.0 0.022559892337423497 0.0 0.0
-0.016591487096704955 0.014728897197451334 0.0 0.019745228895025647 0.0 0.0
-0.014417933617445158 0.0125615291381694 0.0 0.01710755969848018 0.0 0.0
-0.01202236619506606 0.010227122150118081 0.0 0.014615170758665308 0.0 0.0
-0.009662913882753562 0.007973012591626501 0.0 0.012212178208936272 0.0 0.0
-0.007459416224631367 0.005907606348214849 0.0 0.009873977274623002 0.0 0.0
-0.005442787595588323 0.004057184843105561 0.0 0.007662449972844151 0.0 0.0
-0.003661866560271905 0.002489493067537181 0.0 0.005767644406716209 0.0 0.0
-0.0022260992225834634 0.0013121914311056515 0.0 0.004389234140012426 0.0 0.0
-0.0012557156183967918 0.0006312952712946928 0.0 0.0035620311590345973 0.0 0.0
-0.0007355641641212758 0.00034175880553965554 0.0 0.003105243044987475 0.0 0.0
-0.0004981314475678559 0.00025709167392314855 0.0 0.0027668683906416983 0.0 0.0
-0.0003982256951542226 0.0002443447587042236 0.0 0.00253835658719232 0.0 0.0
-0.00034250928562231785 0.00021647628343164827 0.0 0.0024753911929346582 0.0 0.0
-0.00024183292485431172 8.16048155813367e-05 0.0 0.0024766250743290877 0.0 0.0
0.00011865065919985834 -0.00030228680397458897 0.0 0.002285034105487073 0.0 0.0
0.0004061489441273058 -0.0019239989387840762 0.0 0.0014980214725748002 0.0 0.0
0.00026727438981506555 -0.001448312451963719 0.0 -0.0014156510973102065 0.0 0.0
1.1970613987868098e-05 -0.00028198443511740065 0.0 -0.00211101282900048 0.0 0.0
-0.00035184612390831916 0.0001308087095414877 0.0 -0.0024172734897506053 0.0 0.0
-0.0005308483171040401 0.0002921762161166006 0.0 -0.0024291021503373535 0.0 0.0
-0.0006885862668522382 0.0003736595087010284 0.0 -0.00246806633569665 0.0 0.0
-0.000942610989192814 0.00046053373231911133 0.0 -0.0026422521210634673 0.0 0.0
-0.0014980862528155138 0.0007122453341936288 0.0 -0.003003150629374787 0.0 0.0
-0.002684452584081964 0.0014895002541202263 0.0 -0.0038743813432693787 0.0 0.0
-0.0047333899402650466 0.0031688027701386357 0.0 -0.0055419922878355106 0.0 0.0
-0.007607363304029597 0.0058069415082515384 0.0 -0.007884611647023008 0.0 0.0
-0.011111767741112635 0.009135717288600756 0.0 -0.010664872912475636 0.0 0.0
-0.015073395052858075 0.012933419688278172 0.0 -0.01356610574147295 0.0 0.0
-0.01941668285999139 0.01711877010288887 0.0 -0.01644449979084411 0.0 0.0
-0.02410111271490958 0.021676374207882286 0.0 -0.019283377443989187 0.0 0.0
-0.02900443051970359 0.026499155506384712 0.0 -0.022197018569816512 0.0 0.0
-0.03382748381195099 0.031303338933908964 0.0 -0.02539522583818052 0.0 0.0
-0.03809029968164233 0.03559842534147634 0.0 -0.02909542483314592 0.0 0.0
-0.041154131647789347 0.03873694044134172 0.0 -0.03339148029085574 0.0 0.0
-0.04184446591023472 0.0397291163840707 0.0 -0.03747668575449409 0.0 0.0
-0.03766286133899041 0.03625853981908043 0.0 -0.038639480868797586 0.0 0.0
-0.033932742090601625 0.0228156142172415 0.0 2.109076802092602e-14 0.0 0.0
-0.03766286133898701 0.03625853981908032 0.0 0.03863948086884859 0.0 0.0
-0.04184446591022084 0.039729116384057704 0.0 0.03747668575454434 0.0 0.0
-0.04115413164776465 0.03873694044131205 0.0 0.03339148029087671 0.0 0.0
-0.038090299681610686 0.03559842534143987 0.0 0.029095424833137803 0.0 0.0
-0.03382748381191776 0.03130333893388254 0.0 0.025395225838162158 0.0 0.0
-0.029004430519672483 0.026499155506353553 0.0 0.022197018569798457 0.0 0.0
-0.024101112714878272 0.02167637420784888 0.0 0.01928337744397151 0.0 0.0
-0.019416682859959206 0.017118770102858127 0.0 0.016444499790825493 0.0 0.0
-0.015073395052827648 0.012933419688246274 0.0 0.013566105741446809 0.0 0.0
-0.011111767741086286 0.00913571728857354 0.0 0.010664872912448603 0.0 0.0
-0.007607363304009256 0.005806941508234024 0.0 0.007884611647002753 0.0 0.0
-0.004733389940251383 0.003168802770122539 0.0 0.005541992287825957 0.0 0.0
-0.0026844525840739814 0.0014895002541166576 0.0 0.003874381343261917 0.0 0.0
-0.001498086252812006 0.0007122453341940756 0.0 0.003003150629370184 0.0 0.0
-0.0009426109891915594 0.00046053373232034624 0.0 0.002642252121060466 0.0 0.0
-0.0006885862668513345 0.0003736595087000263 0.0 0.0024680663356957 0.0 0.0
-0.0005308483171039016 0.00029217621611739953 0.0 0.0024291021503358864 0.0 0.0
-0.000351846123908658 0.00013080870954209435 0.0 0.0024172734897497275 0.0 0.0
1.1970613987558768e-05 -0.00028198443511779167 0.0 0.00211101282899981 0.0 0.0
0.00026727438981469915 -0.0014483124519616614 0.0 0.0014156510973096822 0.0 0.0
0.00016511270071047245 -0.0010604746154534946 0.0 -0.0012736560292295938 0.0 0.0
-7.168776169311694e-05 -0.00024580806400564207 0.0 -0.0019299383149296275 0.0 0.0
-0.00045282534238242744 0.00017483919592040114 0.0 -0.0023061666218647 0.0 0.0
-0.0007100198156472384 0.0003634066661488789 0.0 -0.002321463537726256 0.0 0.0
-0.0009679961461084253 0.0004935553429160032 0.0 -0.002325631563693781 0.0 0.0
-0.0014014796028610386 0.0006667037955049877 0.0 -0.0024387723531760206 0.0 0.0
-0.002367381733901015 0.0011943263684518056 0.0 -0.0029270045360636856 0.0 0.0
-0.0043210229853302305 0.0026783549902440773 0.0 -0.004247182286140638 0.0 0.0
-0.00749478890930165 0.005520688137972271 0.0 -0.00652683838251011 0.0 0.0
-0.011803281364123229 0.009632775259905222 0.0 -0.009565855494818244 0.0 0.0
-0.016996110778059542 0.014658286767921677 0.0 -0.01296994128065689 0.0 0.0
-0.022861963358195923 0.020347823954670295 0.0 -0.016383379513718443 0.0 0.0
-0.029314207448760475 0.026622436390074583 0.0 -0.019667081968978303 0.0 0.0
-0.0363161593444121 0.033468883752317276 0.0 -0.022867353630097793 0.0 0.0
-0.04375012909398005 0.04079460439812678 0.0 -0.026202037759297563 0.0 0.0
-0.051293374864735834 0.04829854916669265 0.0 -0.030066575044768118 0.0 0.0
-0.05834437987591666 0.05538602656546519 0.0 -0.0348962907905086 0.0 0.0
-0.06387659868373416 0.06108199465649869 0.0 -0.04053996278684823 0.0 0.0
-0.0661090543042905 0.0636804776118933 0.0 -0.04546430568241691 0.0 0.0
-0.061512461453794604 0.06006790239654651 0.0 -0.04679571829417736 0.0 0.0
-0.05690746390436273 0.04376323190208204 0.0 2.7082502906949912e-14 0.0 0.0
-0.061512461453786235 0.0600679023965371 0.0 0.04679571829424234 0.0 0.0
-0.06610905430427012 0.06368047761188173 0.0 0.04546430568247733 0.0 0.0
-0.06387659868370028 0.06108199465647257 0.0 0.04053996278687622 0.0 0.0
-0.05834437987587264 0.05538602656541787 0.0 0.03489629079050511 0.0 0.0
-0.051293374864689795 0.04829854916664844 0.0 0.030066575044751083 0.0 0.0
-0.04375012909393501 0.0407946043980841 0.0 0.026202037759275633 0.0 0.0
-0.036316159344366584 0.033468883752272104 0.0 0.022867353630079752 0.0 0.0
-0.02931420744871551 0.026622436390029605 0.0 0.01966708196895872 0.0 0.0
-0.022861963358153787 0.02034782395462912 0.0 0.016383379513687117 0.0 0.0
-0.016996110778022253 0.014658286767884231 0.0 0.012969941280623365 0.0 0.0
-0.011803281364093702 0.009632775259878924 0.0 0.009565855494794585 0.0 0.0
-0.007494788909281224 0.005520688137954226 0.0 0.0065268383824944355 0.0 0.0
-0.004321022985317706 0.002678354990233802 0.0 0.004247182286131395 0.0 0.0
-0.002367381733894622 0.0011943263684466578 0.0 0.002927004536056597 0.0 0.0
-0.0014014796028584654 0.0006667037955034443 0.0 0.0024387723531723035 0.0 0.0
-0.0009679961461074933 0.0004935553429168943 0.0 0.0023256315636930014 0.0 0.0
-0.0007100198156468353 0.00036340666614783615 0.0 0.0023214635377241583 0.0 0.0
-0.0004528253423821565 0.00017483919592190827 0.0 0.0023061666218639034 0.0 0.0
-7.168776169309154e-05 -0.00024580806400590147 0.0 0.0019299383149302051 0.0 0.0
0.00016511270071053135 -0.0010604746154520821 0.0 0.0012736560292280511 0.0 0.0
8.005487429536559e-05 -0.0007365130673009019 0.0 -0.0010965124827213837 0.0 0.0
-0.00014411830215911695 -0.0001958562176700831 0.0 -0.0017248651822605546 0.0 0.0
-0.0005465384009882327 0.00021567031982392 0.0 -0.002143004417140969 0.0 0.0
-0.0008791044753280334 0.00042835781490984217 0.0 -0.0021554306609871763 0.0 0.0
-0.0012405609974497783 0.0006025201695470345 0.0 -0.0021097010354793437 0.0 0.0
-0.0019003801470672023 0.0009008310948638468 0.0 -0.0021894168315467182 0.0 0.0
-0.003363122729588194 0.0018415601299341102 0.0 -0.002842377087886044 0.0 0.0
-0.006145901446184073 0.004164733182580193 0.0 -0.004469535533557525 0.0 0.0
-0.010461870719620295 0.008197567317501953 0.0 -0.00713757853542313 0.0 0.0
-0.016182445871907602 0.01373198129986455 0.0 -0.01055619197559219 0.0 0.0
-0.023024473524360222 0.02039771955938654 0.0 -0.014230857585533468 0.0 0.0
-0.030767598962406537 0.027951214892723855 0.0 -0.01786041859773924 0.0 0.0
-0.039315362104360395 0.03629979931185835 0.0 -0.02133534021691478 0.0 0.0
-0.04863009786005421 0.045427334530396594 0.0 -0.024707291787332362 0.0 0.0
-0.05860960409005704 0.05526477313342537 0.0 -0.028221711790701026 0.0 0.0
-0.0689132859057033 0.06551226138572488 0.0 -0.03242168352977672 0.0 0.0
-0.07874723390603179 0.07541811465615901 0.0 -0.03783057033695261 0.0 0.0
-0.08662582423508254 0.08355186733915482 0.0 -0.04418968084217392 0.0 0.0
-0.08999074028878033 0.08747454834667741 0.0 -0.04978512357307239 0.0 0.0
-0.0845712331617196 0.0831429774080106 0.0 -0.05154587544859346 0.0 0.0
-0.07900102208704433 0.06407702763441207 0.0 2.9231825293685176e-14 0.0 0.0
-0.08457123316170657 0.08314297740799605 0.0 0.05154587544865771 0.0 0.0
-0.08999074028875274 0.08747454834665429 0.0 0.04978512357313531 0.0 0.0
-0.08662582423503984 0.08355186733911517 0.0 0.04418968084220842 0.0 0.0
-0.07874723390597714 0.0754181146561012 0.0 0.03783057033694877 0.0 0.0
-0.06891328590564434 0.06551226138566925 0.0 0.032421683529757425 0.0 0.0
-0.05860960408999798 0.05526477313336792 0.0 0.028221711790678727 0.0 0.0
-0.048630097859995135 0.04542733453034159 0.0 0.02470729178730993 0.0 0.0
-0.03931536210430294 0.03629979931179877 0.0 0.021335340216892075 0.0 0.0
-0.03076759896235281 0.02795121489267051 0.0 0.017860418597708573 0.0 0.0
-0.02302447352431204 0.0203977195593413 0.0 0.014230857585500314 0.0 0.0
-0.01618244587186874 0.01373198129982732 0.0 0.010556191975565416 0.0 0.0
-0.010461870719593142 0.00819756731747937 0.0 0.007137578535406161 0.0 0.0
-0.006145901446166699 0.004164733182565186 0.0 0.0044695355335445325 0.0 0.0
-0.003363122729578444 0.0018415601299246625 0.0 0.002842377087877461 0.0 0.0
-0.0019003801470630394 0.00090083109486093 0.0 0.002189416831543091 0.0 0.0
-0.0012405609974485297 0.0006025201695483968 0.0 0.002109701035478184 0.0 0.0
-0.0008791044753278414 0.0004283578149084515 0.0 0.002155430660986163 0.0 0.0
-0.0005465384009876149 0.00021567031982413533 0.0 0.0021430044171400894 0.0 0.0
-0.00014411830215899706 -0.00019585621766970827 0.0 0.001724865182259641 0.0 0.0
8.005487429445225e-05 -0.0007365130672998654 0.0 0.001096512482720384 0.0 0.0
6.833384809577641e-06 -0.0004715929113219304 0.0 -0.0009068910615817175 0.0 0.0
-0.0002094861697846516 -0.000135637291139271 0.0 -0.0014909765020952154 0.0 0.0
-0.0006346494452342304 0.0002552801589879033 0.0 -0.0019250638293090779 0.0 0.0
-0.00103738643872001 0.0004858198422377154 0.0 -0.0019314341188737356 0.0 0.0
-0.0015168540769292423 0.0007064356997493599 0.0 -0.0018301948679412504 0.0 0.0
-0.0024609978269219328 0.0011950270117966895 0.0 -0.001911739522605023 0.0 0.0
-0.0044877960951290406 0.0026691344761593724 0.0 -0.002682495373890332 0.0 0.0
-0.008134343366711132 0.0058979191536260534 0.0 -0.004472218135558187 0.0 0.0
-0.013583287434360075 0.011090683230457435 0.0 -0.007299295603201994 0.0 0.0
-0.020672335050900055 0.017985011910966745 0.0 -0.010746639039489041 0.0 0.0
-0.02913177652945289 0.02625493709444853 0.0 -0.014399292749461497 0.0 0.0
-0.03874610012392607 0.03566247228606457 0.0 -0.01800148818157526 0.0 0.0
-0.04938590253563642 0.04608295962079298 0.0 -0.021462033754260045 0.0 0.0
-0.06100020354348938 0.05748233381743249 0.0 -0.02482108140723907 0.0 0.0
-0.0735091637925157 0.06981177290170168 0.0 -0.028277241901718268 0.0 0.0
-0.08654498695819338 0.08277525549973165 0.0 -0.03232530963775438 0.0 0.0
-0.09910338186708498 0.09545195989220168 0.0 -0.0375958989934301 0.0 0.0
-0.10919450375649606 0.10592687893294253 0.0 -0.0440614692310973 0.0 0.0
-0.11353137099655672 0.1109814697811066 0.0 -0.050280591127800596 0.0 0.0
-0.10735848128954588 0.105926500029686 0.0 -0.05424005002203733 0.0 0.0
-0.10095611688838443 0.0844644745946351 0.0 2.8347116320937005e-14 0.0 0.0
-0.1073584812895284 0.10592650002967127 0.0 0.054240050022104386 0.0 0.0
-0.11353137099652111 0.11098146978106865 0.0 0.0502805911278646 0.0 0.0
-0.10919450375644474 0.10592687893288917 0.0 0.04406146923113264 0.0 0.0
-0.09910338186702024 0.09545195989213306 0.0 0.03759589899343099 0.0 0.0
-0.08654498695812236 0.08277525549966319 0.0 0.03232530963774131 0.0 0.0
-0.07350916379244386 0.06981177290162438 0.0 0.02827724190170019 0.0 0.0
-0.06100020354341683 0.05748233381737114 0.0 0.024821081407215565 0.0 0.0
-0.049385902535566004 0.046082959620718726 0.0 0.021462033754239614 0.0 0.0
-0.03874610012386062 0.03566247228600137 0.0 0.018001488181548782 0.0 0.0
-0.029131776529394617 0.026254937094394675 0.0 0.014399292749429655 0.0 0.0
-0.0206723350508528 0.01798501191091773 0.0 0.010746639039462984 0.0 0.0
-0.013583287434325422 0.011090683230426193 0.0 0.007299295603184921 0.0 0.0
-0.008134343366688408 0.005897919153604494 0.0 0.004472218135543403 0.0 0.0
-0.0044877960951159885 0.0026691344761491723 0.0 0.002682495373883175 0.0 0.0
-0.0024609978269161384 0.001195027011794697 0.0 0.0019117395226012773 0.0 0.0
-0.0015168540769273195 0.0007064356997495792 0.0 0.0018301948679409976 0.0 0.0
-0.001037386438719353 0.0004858198422366482 0.0 0.0019314341188720009 0.0 0.0
-0.0006346494452337639 0.0002552801589876352 0.0 0.0019250638293088593 0.0 0.0
-0.00020948616978438782 -0.00013563729113903438 0.0 0.0014909765020915766 0.0 0.0
6.833384809451373e-06 -0.0004715929113211699 0.0 0.0009068910615816568 0.0 0.0
-5.49249296131493e-05 -0.00026397986591709607 0.0 -0.000712547713436981 0.0 0.0
-0.00026805403291116787 -7.022161399876259e-05 0.0 -0.0012300068049859215 0.0 0.0
-0.0007181304304765243 0.00029467201268669756 0.0 -0.0016520001487901014 0.0 0.0
-0.0011892933607149333 0.0005359135338078225 0.0 -0.0016496491208864462 0.0 0.0
-0.001811546757034762 0.0008167509588417714 0.0 -0.0014978064803054345 0.0 0.0
-0.003095345488820765 0.0015758645217546481 0.0 -0.0015966313526527636 0.0 0.0
-0.005735986828055898 0.0036785217562225747 0.0 -0.0024141844240815214 0.0 0.0
-0.010255551030851639 0.007823164634861907 0.0 -0.00423335230742087 0.0 0.0
-0.01679454748868421 0.014106264946157718 0.0 -0.0069028245091818695 0.0 0.0
-0.02521250109403644 0.022315579685254685 0.0 -0.010094754054638817 0.0 0.0
-0.03527788105781693 0.032172248468029026 0.0 -0.013492872796732558 0.0 0.0
-0.04675675832887498 0.04342749425805805 0.0 -0.01684260022423799 0.0 0.0
-0.05948937700536776 0.05592460286124108 0.0 -0.020078710512275534 0.0 0.0
-0.07339219654558733 0.0695900475554736 0.0 -0.023246449299369632 0.0 0.0
-0.08836530234569494 0.08435481125722931 0.0 -0.02642271351576324 0.0 0.0
-0.10402735645821208 0.09991970483618744 0.0 -0.029876151544156432 0.0 0.0
-0.11921380435372356 0.11525570996595907 0.0 -0.034265352619127096 0.0 0.0
-0.13147365514020543 0.12802077166392217 0.0 -0.04020235138793926 0.0 0.0
-0.1369018488380546 0.13431413602774314 0.0 -0.04742717519708753 0.0 0.0
-0.13030108924379785 0.12889198708613528 0.0 -0.05537562004227849 0.0 0.0
-0.1232718263085886 0.10541344058000167 0.0 2.6020852139652106e-14 0.0 0.0
-0.1303010892437763 0.12889198708612307 0.0 0.055375620042339674 0.0 0.0
-0.13690184883801165 0.13431413602769343 0.0 0.047427175197143345 0.0 0.0
-0.1314736551401447 0.1280207716638661 0.0 0.04020235138797171 0.0 0.0
-0.11921380435364862 0.1152557099658845 0.0 0.034265352619129406 0.0 0.0
-0.10402735645812915 0.09991970483610846 0.0 0.029876151544143616 0.0 0.0
-0.08836530234561038 0.08435481125714128 0.0 0.026422713515747737 0.0 0.0
-0.07339219654550144 0.06959004755539328 0.0 0.023246449299352646 0.0 0.0
-0.05948937700528413 0.05592460286115275 0.0 0.02007871051225643 0.0 0.0
-0.04675675832879834 0.04342749425797886 0.0 0.01684260022421522 0.0 0.0
-0.035277881057748726 0.03217224846796782 0.0 0.01349287279670175 0.0 0.0
-0.025212501093980745 0.02231557968519568 0.0 0.010094754054614304 0.0 0.0
-0.016794547488642987 0.01410626494612115 0.0 0.0069028245091625785 0.0 0.0
-0.010255551030822983 0.007823164634832208 0.0 0.004233352307410972 0.0 0.0
-0.005735986828039345 0.0036785217562080143 0.0 0.0024141844240768047 0.0 0.0
-0.0030953454888135515 0.0015758645217503055 0.0 0.0015966313526480731 0.0 0.0
-0.0018115467570320371 0.000816750958840396 0.0 0.0014978064803038756 0.0 0.0
-0.0011892933607137667 0.0005359135338071657 0.0 0.0016496491208834543 0.0 0.0
-0.0007181304304759886 0.0002946720126878471 0.0 0.0016520001487880123 0.0 0.0
-0.00026805403291090555 -7.022161399939182e-05 0.0 0.0012300068049851136 0.0 0.0
-5.4924929612512915e-05 -0.0002639798659166013 0.0 0.0007125477134356879 0.0 0.0
-0.00010286935584013693 -0.00011360032178113103 0.0 -0.000519297940002424 0.0 0.0
-0.0003173713214226145 -5.370188622118383e-06 0.0 -0.0009450019679915248 0.0 0.0
-0.000796510411782438 0.00033320959851865966 0.0 -0.0013221857478180868 0.0 0.0
-0.0013400148673488352 0.0005799074954559829 0.0 -0.0013055708209089073 0.0 0.0
-0.0021384324752799777 0.0009497534851909564 0.0 -0.0011144580550800337 0.0 0.0
-0.003816046834592175 0.002065956248053963 0.0 -0.001223037500392365 0.0 0.0
-0.007101039143165108 0.004857662510796386 0.0 -0.0020320325494632553 0.0 0.0
-0.012457535945952185 0.009864799296714062 0.0 -0.0036438871646020023 0.0 0.0
-0.020036891355069572 0.01717658800575752 0.0 -0.005897555739506614 0.0 0.0
-0.02976497902314741 0.026675155635269548 0.0 -0.00862142505506137 0.0 0.0
-0.041419832709107034 0.03810202410676731 0.0 -0.011528636359846916 0.0 0.0
-0.05475947573296437 0.05120005468674805 0.0 -0.014399029560357999 0.0 0.0
-0.06959064101605646 0.0657801149364022 0.0 -0.01719166922282415 0.0 0.0
-0.08576572185942397 0.08171059580725604 0.0 -0.019965586560617404 0.0 0.0
-0.10311648697348698 0.09884070588417018 0.0 -0.022700272623314404 0.0 0.0
-0.1212212130503619 0.11681386932012447 0.0 -0.025315788033528984 0.0 0.0
-0.1388700171722503 0.13458563333273701 0.0 -0.02817062574134193 0.0 0.0
-0.15336722601868885 0.14966753240380637 0.0 -0.03274036454543745 0.0 0.0
-0.16028004963359158 0.15762173937014667 0.0 -0.04117062307573762 0.0 0.0
-0.153794011900746 0.1524741207830032 0.0 -0.0546790303231353 0.0 0.0
-0.1464045219738716 0.1274074790225016 0.0 2.5162164019043587e-14 0.0 0.0
-0.15379401190072106 0.15247412078298106 0.0 0.05467903032319181 0.0 0.0
-0.1602800496335412 0.15762173937009247 0.0 0.041170623075788206 0.0 0.0
-0.15336722601861777 0.14966753240373587 0.0 0.03274036454546169 0.0 0.0
-0.13887001717216438 0.13458563333264895 0.0 0.028170625741343984 0.0 0.0
-0.12122121305026685 0.1168138693200314 0.0 0.02531578803352016 0.0 0.0
-0.10311648697338915 0.09884070588407648 0.0 0.022700272623301695 0.0 0.0
-0.08576572185932599 0.08171059580715125 0.0 0.019965586560604855 0.0 0.0
-0.06959064101596082 0.06578011493630302 0.0 0.017191669222806513 0.0 0.0
-0.054759475732875804 0.05120005468665322 0.0 0.014399029560338204 0.0 0.0
-0.04141983270902897 0.03810202410669494 0.0 0.011528636359822562 0.0 0.0
-0.029764979023083532 0.02667515563520359 0.0 0.008621425055041262 0.0 0.0
-0.020036891355021274 0.01717658800571348 0.0 0.005897555739490069 0.0 0.0
-0.012457535945917928 0.009864799296677244 0.0 0.003643887164591314 0.0 0.0
-0.007101039143144883 0.004857662510777739 0.0 0.0020320325494560644 0.0 0.0
-0.003816046834582877 0.002065956248045628 0.0 0.0012230375003903086 0.0 0.0
-0.0021384324752766605 0.0009497534851892289 0.0 0.0011144580550798541 0.0 0.0
-0.0013400148673476308 0.0005799074954563557 0.0 0.0013055708209065956 0.0 0.0
-0.0007965104117816276 0.0003332095985166122 0.0 0.0013221857478155814 0.0 0.0
-0.0003173713214221324 -5.37018862235951e-06 0.0 0.0009450019679934506 0.0 0.0
-0.00010286935583959327 -0.00011360032178094444 0.0 0.0005192979400013632 0.0 0.0
-0.00013210594910701388 -2.106962886233956e-05 0.0 -0.00033757213263919467 0.0 0.0
-0.00035183218893332683 5.176533698336644e-05 0.0 -0.0006400223571930829 0.0 0.0
-0.0008674644607202457 0.0003678971404978834 0.0 -0.0009283089572722197 0.0 0.0
-0.0014983810532673055 0.0006234738607828642 0.0 -0.000892668998114866 0.0 0.0
-0.002513053576259239 0.00112635165355699 0.0 -0.0006900535826184214 0.0 0.0
-0.0046320886480054405 0.0026896952172501035 0.0 -0.0007906982230842318 0.0 0.0
-0.008546816963872689 0.006162292027411422 0.0 -0.0014647105169289009 0.0 0.0
-0.014692701039282167 0.011958491157008859 0.0 -0.002639015590695486 0.0 0.0
-0.023280393525126484 0.020261457105014678 0.0 -0.004305232255634998 0.0 0.0
-0.034289045904836855 0.031019658026994947 0.0 -0.006333101377567373 0.0 0.0
-0.04751737561153426 0.04399993710672302 0.0 -0.008513177211525174 0.0 0.0
-0.0627116555801769 0.05893581126568981 0.0 -0.010674150198655934 0.0 0.0
-0.07964249872519805 0.07560331244999752 0.0 -0.01280103732842399 0.0 0.0
-0.09808808804333359 0.09379838173973255 0.0 -0.014963381705474676 0.0 0.0
-0.11773691205647793 0.11323625226032064 0.0 -0.017078362462495063 0.0 0.0
-0.13804006411398945 0.13340833670870939 0.0 -0.018824289760036514 0.0 0.0
-0.15786232449062215 0.1532665471162821 0.0 -0.02005354510905605 0.0 0.0
-0.17469844663248865 0.17055672526252072 0.0 -0.022285753061169932 0.0 0.0
-0.1837555335396745 0.18089275730198062 0.0 -0.030479507206495133 0.0 0.0
-0.1782539863750038 0.177185330967125 0.0 -0.051039874194062376 0.0 0.0
-0.17093572731054998 0.15112147905696907 0.0 1.8068879725774423e-14 0.0 0.0
-0.17825398637497475 0.17718533096709874 0.0 0.051039874194104676 0.0 0.0
-0.1837555335396157 0.18089275730190588 0.0 0.030479507206537144 0.0 0.0
-0.17469844663240694 0.17055672526244542 0.0 0.02228575306119101 0.0 0.0
-0.15786232449052487 0.15326654711617338 0.0 0.020053545109057335 0.0 0.0
-0.13804006411388228 0.1334083367086015 0.0 0.01882428976003049 0.0 0.0
-0.11773691205636751 0.11323625226021006 0.0 0.017078362462488297 0.0 0.0
-0.09808808804322283 0.0937983817396228 0.0 0.01496338170546465 0.0 0.0
-0.07964249872508984 0.07560331244989182 0.0 0.012801037328413131 0.0 0.0
-0.06271165558007702 0.058935811265588056 0.0 0.010674150198643467 0.0 0.0
-0.047517375611447164 0.04399993710663887 0.0 0.008513177211507622 0.0 0.0
-0.03428904590476551 0.031019658026923823 0.0 0.006333101377549857 0.0 0.0
-0.023280393525071354 0.020261457104965075 0.0 0.004305232255624647 0.0 0.0
-0.014692701039242539 0.011958491156967893 0.0 0.002639015590688992 0.0 0.0
-0.008546816963848989 0.006162292027390627 0.0 0.0014647105169226353 0.0 0.0
-0.004632088647993784 0.0026896952172404958 0.0 0.000790698223082508 0.0 0.0
-0.002513053576255024 0.0011263516535541306 0.0 0.0006900535826187377 0.0 0.0
-0.0014983810532662374 0.0006234738607834495 0.0 0.0008926689981141823 0.0 0.0
-0.0008674644607193715 0.0003678971404957427 0.0 0.0009283089572713155 0.0 0.0
-0.00035183218893303925 5.1765336983338555e-05 0.0 0.0006400223571923055 0.0 0.0
-0.0001321059491070882 -2.1069628862478833e-05 0.0 0.0003375721326387209 0.0 0.0
-0.00013386136973901792 1.3838520693821952e-05 0.0 -0.0001894301275184003 0.0 0.0
-0.00036112865899032206 9.020776266818422e-05 0.0 -0.00032076359549980415 0.0 0.0
-0.0009272308324841689 0.0003929406216212239 0.0 -0.00045085604751448624 0.0 0.0
-0.0016779260612174293 0.0006821163801549739 0.0 -0.00040830092874810815 0.0 0.0
-0.002953482943114913 0.0013760134379267753 0.0 -0.00023336582911994504 0.0 0.0
-0.005530215233399335 0.0034379768854823686 0.0 -0.00027482058488707524 0.0 0.0
-0.010042869823746393 0.007541100278044778 0.0 -0.0006389355172719746 0.0 0.0
-0.016931918519213773 0.014071335237665489 0.0 -0.0012551660098468476 0.0 0.0
-0.026486573198570562 0.023321207486147244 0.0 -0.002133722835881148 0.0 0.0
-0.038744256082036826 0.03530487591233443 0.0 -0.0032340820565931972 0.0 0.0
-0.053528230472171846 0.04982254083926927 0.0 -0.004439941963387481 0.0 0.0
-0.07057245957165566 0.06659403888632189 0.0 -0.005663730582210274 0.0 0.0
-0.08960313136178265 0.08534821093757526 0.0 -0.006916581625564374 0.0 0.0
-0.11030161648252815 0.1057927618235536 0.0 -0.008211424020044515 0.0 0.0
-0.13219938263820166 0.12749903419264788 0.0 -0.009462442316166414 0.0 0.0
-0.15453997437650452 0.14974593360158509 0.0 -0.010399603292647367 0.0 0.0
-0.1761261670035556 0.17134558494471921 0.0 -0.010621845425695008 0.0 0.0
-0.19497804099172195 0.19034562974033467 0.0 -0.010628253459130783 0.0 0.0
-0.20709579349120033 0.20329047052105656 0.0 -0.015283910883370829 0.0 0.0
-0.20429104773589496 0.20349629572294184 0.0 -0.03863292647094389 0.0 0.0
-0.19779758252692364 0.1784782050348423 0.0 1.2448375663609568e-14 0.0 0.0
-0.2042910477358626 0.203496295722915 0.0 0.038632926470966736 0.0 0.0
-0.20709579349113336 0.2032904705209735 0.0 0.01528391088339395 0.0 0.0
-0.19497804099162802 0.1903456297402484 0.0 0.01062825345913981 0.0 0.0
-0.17612616700344555 0.17134558494460086 0.0 0.010621845425694863 0.0 0.0
-0.15453997437638467 0.14974593360147337 0.0 0.010399603292645315 0.0 0.0
-0.1321993826380776 0.12749903419252545 0.0 0.009462442316162684 0.0 0.0
-0.11030161648240498 0.10579276182343739 0.0 0.008211424020039763 0.0 0.0
-0.08960313136166227 0.08534821093745354 0.0 0.006916581625557359 0.0 0.0
-0.0705724595715442 0.06659403888620809 0.0 0.0056637305822025 0.0 0.0
-0.05352823047207583 0.049822540839177774 0.0 0.004439941963376516 0.0 0.0
-0.03874425608195792 0.03530487591225545 0.0 0.003234082056583337 0.0 0.0
-0.02648657319850926 0.023321207486091497 0.0 0.002133722835875624 0.0 0.0
-0.01693191851916946 0.014071335237625444 0.0 0.0012551660098442416 0.0 0.0
-0.01004286982371869 0.00754110027801891 0.0 0.0006389355172683388 0.0 0.0
-0.005530215233385202 0.003437976885470473 0.0 0.00027482058488626133 0.0 0.0
-0.0029534829431091853 0.0013760134379210726 0.0 0.00023336582911962303 0.0 0.0
-0.0016779260612157767 0.0006821163801548064 0.0 0.0004083009287492534 0.0 0.0
-0.0009272308324837733 0.00039294062162040054 0.0 0.0004508560475137036 0.0 0.0
-0.00036112865899003686 9.020776266739678e-05 0.0 0.0003207635954987826 0.0 0.0
-0.0001338613697383641 1.3838520693941816e-05 0.0 0.00018943012751677015 0.0 0.0
-9.251379330437812e-05 1.7032000560420073e-05 0.0 -0.00011487771489882896 0.0 0.0
-0.00032687228500741315 0.00010303093092983906 0.0 -0.0001333627016718229 0.0 0.0
-0.0009716335950290987 0.0004021697579024778 0.0 -0.0001467416640140635 0.0 0.0
-0.0018984351664478602 0.0007178335494502309 0.0 -6.735708129666201e-05 0.0 0.0
-0.0034691665059471237 0.0015240156492101749 0.0 0.00022007361623716806 0.0 0.0
-0.006490991517087872 0.0038380877757638937 0.0 0.00046485056836683043 0.0 0.0
-0.011563972583861904 0.008243814258194314 0.0 0.0005852544693594486 0.0 0.0
-0.01914919026299386 0.015129136677709414 0.0 0.0006187889341476517 0.0 0.0
-0.029619041283396413 0.024839480000883978 0.0 0.000554134654078641 0.0 0.0
-0.04308781199047222 0.037427262049459224 0.0 0.00034399237893571874 0.0 0.0
-0.05941143712918026 0.05270933084001871 0.0 2.8756241092102452e-05 0.0 0.0
-0.07830410560848797 0.07039917653688466 0.0 -0.00037303445966325663 0.0 0.0
-0.0994177523336118 0.09019541265916307 0.0 -0.0008829468248897042 0.0 0.0
-0.12234000539454165 0.11175752924519441 0.0 -0.0014729840690272233 0.0 0.0
-0.1464678509075364 0.1345910718339223 0.0 -0.0021351925524536654 0.0 0.0
-0.17082118636669447 0.15786033678801775 0.0 -0.002726123745157195 0.0 0.0
-0.19393660774927368 0.18025897378402078 0.0 -0.002923394725784182 0.0 0.0
-0.21393126872751655 0.19993440710605165 0.0 -0.0026219299807535984 0.0 0.0
-0.22853837702290308 0.21408077063036124 0.0 -0.005394176356489047 0.0 0.0
-0.23226427369776403 0.21709501608982343 0.0 -0.02984303170247215 0.0 0.0
-0.23034409001923672 0.1934454923631282 0.0 6.772360450213455e-15 0.0 0.0
-0.23226427369772906 0.21709501608979484 0.0 0.0298430317024799 0.0 0.0
-0.22853837702282748 0.2140807706302887 0.0 0.005394176356495816 0.0 0.0
-0.21393126872740909 0.1999344071059491 0.0 0.0026219299807517214 0.0 0.0
-0.19393660774914917 0.18025897378390546 0.0 0.0029233947257800083 0.0 0.0
-0.17082118636656166 0.15786033678790384 0.0 0.0027261237451605344 0.0 0.0
-0.14646785090739975 0.13459107183380475 0.0 0.0021351925524497432 0.0 0.0
-0.12234000539440584 0.11175752924506979 0.0 0.0014729840690218404 0.0 0.0
-0.09941775233348035 0.09019541265902858 0.0 0.0008829468248861307 0.0 0.0
-0.07830410560836512 0.07039917653676371 0.0 0.0003730344596599433 0.0 0.0
-0.05941143712907451 0.05270933083992507 0.0 -2.8756241096155634e-05 0.0 0.0
-0.043087811990386735 0.03742726204937488 0.0 -0.0003439923789378685 0.0 0.0
-0.029619041283328477 0.024839480000823578 0.0 -0.0005541346540825277 0.0 0.0
-0.01914919026294453 0.015129136677671053 0.0 -0.0006187889341492314 0.0 0.0
-0.0115639725838311 0.008243814258163444 0.0 -0.0005852544693577969 0.0 0.0
-0.006490991517071676 0.0038380877757505398 0.0 -0.0004648505683645599 0.0 0.0
-0.003469166505940276 0.0015240156492021266 0.0 -0.00022007361623549806 0.0 0.0
-0.0018984351664452454 0.0007178335494510658 0.0 6.735708129770635e-05 0.0 0.0
-0.00097163359502814 0.00040216975790070397 0.0 0.00014674166401086385 0.0 0.0
-0.0003268722850074653 0.00010303093092937307 0.0 0.00013336270167257466 0.0 0.0
-9.251379330488951e-05 1.7032000560773652e-05 0.0 0.00011487771489567383 0.0 0.0
SCALARS Statev float 8
LOOKUP_TABLE default
0.0 0.02066929734424306 0.016640656442084782 -0.01968954765215488 0.0030488912100700874 -0.001330584809806505 0.0 0.0
0.0 0.007404098915668263 0.005515737158343021 -0.0035780970400839567 -0.0019376401182590627 -0.007519149009568944 0.0 0.0
0.0 0.00024492809909106044 0.00030255580000118794 -0.00018236639801296324 -0.00012018940198822462 -0.0004379889562452264 0.0 0.0
0.0 0.00023021682901355354 0.0001434839216086176 -0.00010310255138954756 -4.0381370219070656e-05 3.963326969707028e-05 0.0 0.0
0.0 0.0013588540467683785 0.0010261232614547115 -0.000759023062483627 -0.00026710019897108417 0.00020934639301368395 0.0 0.0
0.0 0.0036530983457764817 0.003538784548103765 -0.002866314171656944 -0.0006724703764468249 0.00042054639804068716 0.0 0.0
0.0 0.008925796551517413 0.008130834298162285 -0.007118083090626531 -0.0010127512075357448 0.0005756792386313526 0.0 0.0
0.0 0.01703134974941225 0.01528379036073246 -0.014001893440895408 -0.0012818969198370492 0.0006361938775788302 0.0 0.0
0.0 0.028489703311945926 0.02532414118840295 -0.02378042768248396 -0.0015437135059189835 0.0005966069829683343 0.0 0.0
0.0 0.04344378215432416 0.03834728443994529 -0.03650701973868572 -0.0018402647012595976 0.0004158352969315892 0.0 0.0
0.0 0.061722194413057756 0.054211319635873126 -0.052022884892326 -0.002188434743547088 0.00012149157472528629 0.0 0.0
0.0 0.08268048386079525 0.0726450632666008 -0.07005541722243333 -0.002589646044167372 -0.00026984241650483297 0.0 0.0
0.0 0.10630671224440728 0.09332676762977243 -0.09029569895393484 -0.0030310686758376125 -0.000763348197300095 0.0 0.0
0.0 0.1321480040545025 0.11591435618791571 -0.11241760556980596 -0.0034967506181095937 -0.0013104243796199806 0.0 0.0
0.0 0.15970372932252258 0.13996748576349516 -0.1360012193057526 -0.003966266457742408 -0.0019270583821826624 0.0 0.0
0.0 0.18823792233533074 0.1648072783719287 -0.16039121438266632 -0.004416063989262304 -0.0025733701197225445 0.0 0.0
0.0 0.21655982916075195 0.18943047670502625 -0.184608795601165 -0.004821681103861434 -0.0031141915128451523 0.0 0.0
0.0 0.24313745403994486 0.2125202080803522 -0.20736078457691934 -0.0051594235034328195 -0.003352049099047033 0.0 0.0
0.0 0.2661897770204317 0.23255113015504553 -0.22712274482169337 -0.00542838533335165 -0.003160743862285941 0.0 0.0
0.0 0.2833036715344971 0.24763580383801065 -0.2420372639609963 -0.0055985398770147165 -0.003908015275521723 0.0 0.0
0.0 0.29076615667599665 0.25375266191634377 -0.24817033811340627 -0.005582323802937266 4.135580766728708e-15 0.0 0.0
0.0 0.2833036715344543 0.24763580383797384 -0.24203726396095898 -0.0055985398770151615 0.003908015275533137 0.0 0.0
0.0 0.2661897770203502 0.23255113015497267 -0.22712274482162392 -0.005428385333348211 0.003160743862298126 0.0 0.0
0.0 0.2431374540398351 0.2125202080802554 -0.20736078457682627 -0.0051594235034291315 0.003352049099053546 0.0 0.0
0.0 0.21655982916061725 0.18943047670490853 -0.18460879560105128 -0.004821681103857532 0.0031141915128438443 0.0 0.0
0.0 0.1882379223351808 0.1648072783717974 -0.16039121438253678 -0.0044160639892604665 0.0025733701197145744 0.0 0.0
0.0 0.15970372932238125 0.1399674857633711 -0.13600121930563272 -0.0039662664577383225 0.0019270583821824278 0.0 0.0
0.0 0.1321480040543568 0.11591435618778854 -0.11241760556968115 -0.003496750618107495 0.001310424379618604 0.0 0.0
0.0 0.10630671224427213 0.09332676762965438 -0.09029569895381959 -0.0030310686758345784 0.0007633481972957089 0.0 0.0
0.0 0.0826804838606625 0.07264506326648515 -0.0700554172223192 -0.0025896460441657988 0.00026984241649959497 0.0 0.0
0.0 0.0617221944129469 0.054211319635776176 -0.052022884892231475 -0.0021884347435447093 -0.00012149157473194177 0.0 0.0
0.0 0.04344378215423614 0.038347284439868325 -0.03650701973861049 -0.001840264701257943 -0.0004158352969345059 0.0 0.0
0.0 0.028489703311881262 0.025324141188345962 -0.023780427682428676 -0.0015437135059172523 -0.0005966069829677842 0.0 0.0
0.0 0.017031349749366258 0.015283790360691437 -0.014001893440855657 -0.0012818969198357519 -0.0006361938775789881 0.0 0.0
0.0 0.008925796551491817 0.008130834298138595 -0.0071180830906044015 -0.001012751207534198 -0.0005756792386307144 0.0 0.0
0.0 0.003653098345763281 0.003538784548090849 -0.0028663141716456244 -0.0006724703764452333 -0.00042054639803970053 0.0 0.0
0.0 0.0013588540467628178 0.001026123261450523 -0.0007590230624804903 -0.0002671001989700307 -0.0002093463930128409 0.0 0.0
0.0 0.00023021682901327837 0.00014348392160915303 -0.00010310255139001172 -4.038137021914061e-05 -3.963326969684035e-05 0.0 0.0
0.0 0.00024492809908941375 0.0003025557999997575 -0.00018236639801203283 -0.0001201894019877234 0.00043798895624336357 0.0 0.0
0.0 0.0074040989156569 0.005515737158337227 -0.003578097040079397 -0.0019376401182578293 0.0075191490095593075 0.0 0.0
0.0 0.020669297344221432 0.016640656442070568 -0.019689547652135125 0.0030488912100645363 0.0013305848097618293 0.0 0.0
0.0 0.017020600594220878 0.012863595325089995 -0.016449794239967674 0.0035861989148776785 -0.0008312663394817953 0.0 0.0
0.0 0.004729961561999399 0.0034069567279241837 -0.0022012558476511204 -0.0012057008802730577 -0.006086904703035008 0.0 0.0
0.0 -9.887874445612265e-05 -8.054588235528291e-05 7.757957916823881e-05 2.9663031870441005e-06 -0.00013348897057901315 0.0 0.0
0.0 7.228503749989108e-05 6.333948392115674e-05 -4.568174429076908e-05 -1.7657739630387576e-05 1.9283711975621164e-05 0.0 0.0
0.0 0.0008251198698089185 0.0007032542961421862 -0.0005246174060249401 -0.0001786368901172455 7.944156805561176e-05 0.0 0.0
0.0 0.0031665414110773884 0.0028045209413178006 -0.0022960608660221957 -0.0005084600752956072 4.251535559728722e-05 0.0 0.0
0.0 0.007672432506732714 0.006962328453108969 -0.006179853483708921 -0.0007824749694000468 -0.0003217916238330751 0.0 0.0
0.0 0.015201533602528867 0.013526184940513105 -0.012584467752893687 -0.0009417171876194208 -0.0009346070918824187 0.0 0.0
0.0 0.025894894486327088 0.022795954567618307 -0.02174535476660604 -0.0010505998010122569 -0.0017998349397922704 0.0 0.0
0.0 0.03976348514316433 0.03480645223484295 -0.03366163969558027 -0.0011448125392626673 -0.002886504485338583 0.0 0.0
0.0 0.05664208797215543 0.04938639207762339 -0.04815094662808287 -0.0012354454495405822 -0.004097260597359613 0.0 0.0
0.0 0.07633029020365775 0.06627811808998667 -0.06495031227124343 -0.0013278058187431796 -0.005344434336626154 0.0 0.0
0.0 0.09793573374513932 0.08522213779191426 -0.08380020378881184 -0.0014219340031024117 -0.006618271585946504 0.0 0.0
0.0 0.1218623385011418 0.10592516445058468 -0.1044142751024419 -0.00151088934814277 -0.007912708651021222 0.0 0.0
0.0 0.1473600057161092 0.12799631595281474 -0.1264117294180065 -0.001584586534807996 -0.00917962901533588 0.0 0.0
0.0 0.1737691057673233 0.15083581447714914 -0.14920128304455177 -0.0016345314325974982 -0.010292680534637126 0.0 0.0
0.0 0.20008451122044738 0.17355325162501006 -0.1718973014726025 -0.0016559501524074371 -0.01097360729943702 0.0 0.0
0.0 0.22491404850635674 0.1949542613644045 -0.19330402403180091 -0.0016502373326035616 -0.01087617784268727 0.0 0.0
0.0 0.24643028251833526 0.21350131078976162 -0.21189698195562442 -0.0016043288341370276 -0.009899828475311167 0.0 0.0
0.0 0.26213889553236425 0.22695588412669357 -0.22553245732840083 -0.0014234267982926718 -0.009095938190900208 0.0 0.0
0.0 0.26908018085179164 0.23221781721231516 -0.23106912317760603 -0.0011486940347093118 9.64939933512099e-15 0.0 0.0
0.0 0.26213889553232417 0.22695588412665862 -0.22553245732836524 -0.001423426798293093 0.009095938190925386 0.0 0.0
0.0 0.24643028251826143 0.21350131078969725 -0.21189698195556073 -0.001604328834136288 0.009899828475335987 0.0 0.0
0.0 0.2249140485062517 0.19495426136431415 -0.1933040240317102 -0.0016502373326039695 0.010876177842701609 0.0 0.0
0.0 0.20008451122032592 0.1735532516249055 -0.17189730147249802 -0.0016559501524076232 0.010973607299438082 0.0 0.0
0.0 0.17376910576718957 0.15083581447703379 -0.14920128304443625 -0.0016345314325971866 0.01029268053462907 0.0 0.0
0.0 0.1473600057159768 0.12799631595269934 -0.12641172941789192 -0.00158458653480746 0.009179629015333002 0.0 0.0
0.0 0.12186233850100832 0.10592516445046922 -0.10441427510232684 -0.0015108893481423106 0.007912708651016556 0.0 0.0
0.0 0.09793573374501086 0.08522213779180329 -0.08380020378870123 -0.0014219340031020912 0.006618271585938846 0.0 0.0
0.0 0.07633029020353695 0.06627811808988214 -0.06495031227113855 -0.0013278058187435869 0.005344434336617267 0.0 0.0
0.0 0.05664208797205234 0.04938639207753431 -0.048150946627994205 -0.0012354454495401186 0.004097260597347506 0.0 0.0
0.0 0.03976348514308069 0.03480645223476999 -0.033661639695507596 -0.0011448125392623232 0.0028865044853301604 0.0 0.0
0.0 0.02589489448626798 0.022795954567566078 -0.02174535476655454 -0.001050599801011543 0.0017998349397881268 0.0 0.0
0.0 0.015201533602486508 0.01352618494047559 -0.012584467752856815 -0.0009417171876188 0.0009346070918780723 0.0 0.0
0.0 0.007672432506707732 0.006962328453086408 -0.00617985348368737 -0.0007824749693990255 0.0003217916238307608 0.0 0.0
0.0 0.0031665414110622725 0.0028045209413044706 -0.0022960608660104525 -0.0005084600752940158 -4.251535559815214e-05 0.0 0.0
0.0 0.0008251198698049278 0.0007032542961392229 -0.0005246174060227582 -0.00017863689011646518 -7.944156805508824e-05 0.0 0.0
0.0 7.228503749970517e-05 6.333948392156494e-05 -4.5681744291118164e-05 -1.7657739630446594e-05 -1.9283711975460777e-05 0.0 0.0
0.0 -9.887874445668183e-05 -8.054588235514637e-05 7.75795791681075e-05 2.966303187038608e-06 0.0001334889705785875 0.0 0.0
0.0 0.004729961561988046 0.003406956727918009 -0.0022012558476465632 -0.0012057008802714437 0.006086904703023868 0.0 0.0
0.0 0.017020600594196734 0.012863595325071623 -0.016449794239944988 0.003586198914873354 0.0008312663394474675 0.0 0.0
0.0 0.012882551207764771 0.009532033606881802 -0.012512009729489128 0.0029799761226073293 -0.0035484844855674567 0.0 0.0
0.0 0.0032614107717549106 0.002092532172206173 -0.0011937898558178383 -0.0008987423163883395 -0.005372478357936624 0.0 0.0
0.0 2.249264440194618e-07 1.2779701644144215e-06 -9.810761969389486e-07 -2.968939674754681e-07 4.628968088954552e-07 0.0 0.0
0.0 4.958302474110233e-06 3.515495752568013e-06 -1.7241312722777062e-06 -1.791364480290451e-06 8.336213778253019e-06 0.0 0.0
0.0 0.00041977880264454446 0.00037888484146408744 -0.00027535433281374895 -0.0001035305086503383 9.06440981435184e-06 0.0 0.0
0.0 0.002317751159577486 0.0020074078451680125 -0.001598568457419262 -0.0004088393877487486 -0.00016625064516574142 0.0 0.0
0.0 0.0060745617169802625 0.005580816425683345 -0.004863376148272586 -0.0007174402774107612 -0.0008727266345602982 0.0 0.0
0.0 0.012820222754374364 0.011404434701128043 -0.010511233388687544 -0.000893201312440492 -0.0020462143390379346 0.0 0.0
0.0 0.022403613731337577 0.01970873996945404 -0.0187086808248334 -0.0010000591446206084 -0.0036846673226019434 0.0 0.0
0.0 0.03492253360623593 0.03047074629412494 -0.029384100993593173 -0.0010866453005317829 -0.005692414804913324 0.0 0.0
0.0 0.0500670442426118 0.04349385649677576 -0.042322576815956706 -0.0011712796808190046 -0.00788602703646867 0.0 0.0
0.0 0.06743836515417444 0.05853741769886778 -0.05727821426600156 -0.001259203432866241 -0.010096661842507964 0.0 0.0
0.0 0.08712987208533342 0.07538080201902882 -0.07403253313496007 -0.0013482688840686435 -0.012283386304528132 0.0 0.0
0.0 0.10818587351438053 0.09380501269840479 -0.092372772316214 -0.0014322403821908072 -0.014486006038767391 0.0 0.0
0.0 0.13097057387042477 0.11348664059075331 -0.11198298817182495 -0.0015036524189285818 -0.01664339655788636 0.0 0.0
0.0 0.1546275525450015 0.1339314261959535 -0.13237658823363835 -0.0015548379623149873 -0.018517710544741654 0.0 0.0
0.0 0.17830902908757443 0.15439664720082352 -0.1528159625762329 -0.0015806846245906825 -0.019672469475198816 0.0 0.0
0.0 0.2007557009068906 0.17380499119825613 -0.17223238614322367 -0.001572605055032625 -0.019610784083883035 0.0 0.0
0.0 0.22021344073469654 0.190597389779737 -0.18909469741125065 -0.0015026923684861061 -0.018128072175456752 0.0 0.0
0.0 0.23429103131985166 0.20269672119354692 -0.20130013950345926 -0.0013965816900871999 -0.015383635141839321 0.0 0.0
0.0 0.24082428614765558 0.20757393750815673 -0.20649090550771768 -0.001083032000439109 1.7642137750684128e-14 0.0 0.0
0.0 0.2342910313198201 0.20269672119351745 -0.20130013950343073 -0.0013965816900865522 0.015383635141884268 0.0 0.0
0.0 0.22021344073463173 0.19059738977968047 -0.18909469741119422 -0.0015026923684864789 0.01812807217550086 0.0 0.0
0.0 0.20075570090679495 0.17380499119817389 -0.1722323861431396 -0.0015726050550341824 0.019610784083911523 0.0 0.0
0.0 0.17830902908746912 0.15439664720073304 -0.15281596257614286 -0.0015806846245902681 0.019672469475200974 0.0 0.0
0.0 0.15462755254488575 0.13393142619585308 -0.13237658823353843 -0.0015548379623145682 0.018517710544732755 0.0 0.0
0.0 0.13097057387030192 0.11348664059064728 -0.11198298817171855 -0.0015036524189287292 0.01664339655788023 0.0 0.0
0.0 0.10818587351426188 0.09380501269830206 -0.09237277231611182 -0.0014322403821902352 0.01448600603876057 0.0 0.0
0.0 0.08712987208521886 0.07538080201893 -0.07403253313486147 -0.0013482688840685565 0.012283386304516376 0.0 0.0
0.0 0.06743836515406851 0.05853741769877677 -0.05727821426591041 -0.0012592034328662853 0.010096661842492678 0.0 0.0
0.0 0.05006704424251941 0.043493856496695626 -0.04232257681587708 -0.0011712796808185733 0.007886027036451661 0.0 0.0
0.0 0.03492253360616143 0.030470746294059825 -0.02938410099352827 -0.00108664530053153 0.005692414804899773 0.0 0.0
0.0 0.02240361373128228 0.01970873996940566 -0.018708680824785707 -0.0010000591446199525 0.003684667322592508 0.0 0.0
0.0 0.012820222754335323 0.011404434701093999 -0.010511233388654178 -0.0008932013124397941 0.0020462143390300633 0.0 0.0
0.0 0.006074561716959266 0.005580816425664343 -0.004863376148254616 -0.0007174402774097303 0.0008727266345559895 0.0 0.0
0.0 0.0023177511595651114 0.0020074078451573847 -0.0015985684574100943 -0.00040883938774729047 0.00016625064516376595 0.0 0.0
0.0 0.0004197788026421313 0.0003788848414625055 -0.0002753543328126827 -0.00010353050864982313 -9.064409813982185e-06 0.0 0.0
0.0 4.9583024740572695e-06 3.5154957526986598e-06 -1.7241312723778003e-06 -1.7913644803208546e-06 -8.33621377820246e-06 0.0 0.0
0.0 2.2492644412268304e-07 1.277970164342704e-06 -9.810761968874918e-07 -2.9689396745521255e-07 -4.6289680893198433e-07 0.0 0.0
0.0 0.0032614107717461515 0.0020925321722011655 -0.0011937898558145293 -0.0008987423163866306 0.0053724783579231754 0.0 0.0
0.0 0.01288255120773924 0.009532033606862928 -0.012512009729465687 0.0029799761226027345 0.003548484485544461 0.0 0.0
0.0 0.009895916943921845 0.007142714009352685 -0.009562934857952895 0.002420220848600173 -0.00381484170989711 0.0 0.0
0.0 0.0024171456765885715 0.0014588132600675176 -0.0008139204150802248 -0.0006448928449872843 -0.004144680598681156 0.0 0.0
0.0 0.0 0.0 0.0 0.0 0.0 0.0 0.0
0.0 -6.9716715165253825e-06 -6.301287808775272e-06 5.002268540508706e-06 1.2990192682665619e-06 5.107992290685176e-06 0.0 0.0
0.0 0.00017360511831088929 0.00014971976811849379 -0.00010480241740493168 -4.4917350713561515e-05 -1.7266143940635267e-06 0.0 0.0
0.0 0.0014790987174599021 0.0013320996443649848 -0.0010308448818866457 -0.0003012547624783382 -0.0002767920837870216 0.0 0.0
0.0 0.004807108558150674 0.0042517566838728565 -0.0036202750787447304 -0.0006314816051281252 -0.00114057234569034 0.0 0.0
0.0 0.010495091075412735 0.00930518480339452 -0.00847076279566591 -0.0008344220077286072 -0.0027725755963520556 0.0 0.0
0.0 0.01898510176667295 0.016603408902880642 -0.015659151353988255 -0.0009442575488923848 -0.004997272528336235 0.0 0.0
0.0 0.03007282307397158 0.02608498342629486 -0.025060154847246604 -0.0010248285790482314 -0.007698327248817102 0.0 0.0
0.0 0.0433946740193406 0.0375328446502845 -0.0364300475092555 -0.0011027971410289474 -0.010622894295179246 0.0 0.0
0.0 0.058811156039270646 0.050717509447892044 -0.04953211521210663 -0.0011853942357854218 -0.013560966899274753 0.0 0.0
0.0 0.07580474946263799 0.06545982649659136 -0.06418992704572866 -0.0012698994508626577 -0.016461175474703715 0.0 0.0
0.0 0.09475580616797216 0.0815837707029734 -0.08023531926305026 -0.0013484514399231043 -0.019347287975406774 0.0 0.0
0.0 0.11468451499823616 0.09885685561931234 -0.09743984171149087 -0.0014170139078214183 -0.022156516945435214 0.0 0.0
0.0 0.135402760309862 0.11690023494487498 -0.11542949238347815 -0.001470742561396851 -0.024630512997532644 0.0 0.0
0.0 0.1565508554212983 0.1351095495281515 -0.13360971770300734 -0.001499831825144157 -0.02626780627687396 0.0 0.0
0.0 0.176692827654384 0.15253119782832827 -0.15104131408302784 -0.0014898837453003089 -0.026463230824275482 0.0 0.0
0.0 0.19424072831250833 0.16773715631689576 -0.16630209015521924 -0.001435066161676542 -0.024606275020432024 0.0 0.0
0.0 0.20713277477596267 0.17894684074264455 -0.17757988755884457 -0.0013669531838003677 -0.019747119492288773 0.0 0.0
0.0 0.21368369996555042 0.1837579360460678 -0.18282735436822403 -0.0009305816778437131 2.5169970274685483e-14 0.0 0.0
0.0 0.2071327747759327 0.17894684074261624 -0.177579887558816 -0.0013669531838003345 0.019747119492347295 0.0 0.0
0.0 0.1942407283124547 0.1677371563168473 -0.16630209015517114 -0.0014350661616760528 0.02460627502049062 0.0 0.0
0.0 0.17669282765430344 0.15253119782825825 -0.1510413140829574 -0.001489883745300769 0.026463230824308334 0.0 0.0
0.0 0.1565508554212044 0.13510954952807025 -0.13360971770292723 -0.001499831825143149 0.02626780627687663 0.0 0.0
0.0 0.13540276030975806 0.11690023494478577 -0.1154294923833881 -0.001470742561397561 0.024630512997522277 0.0 0.0
0.0 0.11468451499812768 0.09885685561921838 -0.09743984171139695 -0.0014170139078214935 0.022156516945424788 0.0 0.0
0.0 0.09475580616787117 0.08158377070288542 -0.08023531926296315 -0.0013484514399223436 0.019347287975398506 0.0 0.0
0.0 0.07580474946253848 0.06545982649650606 -0.06418992704564354 -0.001269899450862464 0.01646117547468866 0.0 0.0
0.0 0.058811156039179184 0.050717509447812927 -0.0495321152120281 -0.0011853942357849063 0.013560966899254009 0.0 0.0
0.0 0.0433946740192619 0.037532844650216585 -0.03643004750918834 -0.001102797141028222 0.010622894295157753 0.0 0.0
0.0 0.030072823073907306 0.026084983426239324 -0.025060154847191526 -0.0010248285790477756 0.007698327248798474 0.0 0.0
0.0 0.018985101766621933 0.016603408902836646 -0.015659151353944644 -0.0009442575488919976 0.00499727252832252 0.0 0.0
0.0 0.010495091075376899 0.009305184803362876 -0.008470762795634905 -0.0008344220077279634 0.0027725755963409785 0.0 0.0
0.0 0.004807108558130916 0.004251756683856092 -0.0036202750787295537 -0.0006314816051265365 0.001140572345684857 0.0 0.0
0.0 0.0014790987174521516 0.0013320996443587805 -0.001030844881881596 -0.0003012547624771833 0.00027679208378523926 0.0 0.0
0.0 0.00017360511830909206 0.00014971976811746927 -0.00010480241740422199 -4.491735071324697e-05 1.7266143941929177e-06 0.0 0.0
0.0 -6.971671516827602e-06 -6.301287808788657e-06 5.002268540518565e-06 1.299019268270121e-06 -5.107992290697438e-06 0.0 0.0
0.0 0.0 0.0 0.0 0.0 0.0 0.0 0.0
0.0 0.0024171456765804985 0.0014588132600628322 -0.0008139204150770954 -0.0006448928449857399 0.004144680598668941 0.0 0.0
0.0 0.009895916943900145 0.007142714009335892 -0.009562934857931818 0.0024202208485959165 0.0038148417098807026 0.0 0.0
0.0 0.00737796455225889 0.005293366096425145 -0.00721303373974303 0.0019196676433179004 -0.003273956837810823 0.0 0.0
0.0 0.0019374501736253013 0.0009870540053611176 -0.0005408184286796731 -0.0004462355766814455 -0.0030542080870941332 0.0 0.0
0.0 0.0 0.0 0.0 0.0 0.0 0.0 0.0
0.0 -5.848572327111131e-07 -6.442726928759887e-07 5.149326301209481e-07 1.29340062755044e-07 9.253274297770987e-07 0.0 0.0
0.0 1.3293105484101166e-05 2.6245295098975875e-05 -1.5218760496744386e-05 -1.1026534602231476e-05 1.4173376280831603e-05 0.0 0.0
0.0 0.0008986668395818324 0.000776736878694455 -0.0005850998471785063 -0.000191637031515949 -0.00027692662593192195 0.0 0.0
0.0 0.003585040355831816 0.0030381517875272515 -0.0025174671841304568 -0.0005206846033967887 -0.0012131089178402908 0.0 0.0
0.0 0.00826653791293759 0.007260422665187377 -0.006498206764111739 -0.000762215901075649 -0.003073846419222444 0.0 0.0
0.0 0.015613557416814463 0.013520161116575995 -0.012638632920493246 -0.0008815281960827551 -0.00572907766235097 0.0 0.0
0.0 0.025220906087159094 0.02169342280184306 -0.020735698085601266 -0.0009577247162417823 -0.008901256120533474 0.0 0.0
0.0 0.036804318589392426 0.03154806751089167 -0.030518760810670547 -0.0010293067002211196 -0.012316708802719402 0.0 0.0
0.0 0.05008975646752547 0.042864086931938175 -0.04175816832163235 -0.0011059186103058126 -0.015743132495694687 0.0 0.0
0.0 0.06495427652056734 0.055492875225176735 -0.05430800182859639 -0.0011848733965803115 -0.01912956711036992 0.0 0.0
0.0 0.08086755422149444 0.0693183971841235 -0.06805880561935969 -0.0012595915647638071 -0.022493140007669936 0.0 0.0
0.0 0.09826008003817023 0.08416785334227468 -0.08284292395030865 -0.0013249293919660363 -0.02574056565651517 0.0 0.0
0.0 0.11647894929017595 0.0997738154359792 -0.09839585995198166 -0.0013779554839975553 -0.02861673915035128 0.0 0.0
0.0 0.1347608408234225 0.11568707313332022 -0.11427538413559542 -0.0014116889977248788 -0.030682773115026003 0.0 0.0
0.0 0.1525781955738815 0.13113060533055507 -0.1297177473645961 -0.0014128579659588546 -0.03125604728632988 0.0 0.0
0.0 0.1684222865091043 0.14491020485514247 -0.14353425321047505 -0.0013759516446671762 -0.02921173113777569 0.0 0.0
0.0 0.18051148767013497 0.15551402066769468 -0.15418914508099046 -0.0013248755867042166 -0.0229880215177602 0.0 0.0
0.0 0.18732834311697122 0.160428436797586 -0.1596894137734265 -0.0007390230241595002 2.9575300541928584e-14 0.0 0.0
0.0 0.18051148767010236 0.1555140206676644 -0.15418914508095782 -0.0013248755867065422 0.02298802151782704 0.0 0.0
0.0 0.16842228650906158 0.1449102048551015 -0.1435342532104355 -0.0013759516446658344 0.029211731137842218 0.0 0.0
0.0 0.15257819557381597 0.1311306053304966 -0.12971774736453842 -0.0014128579659582247 0.03125604728636916 0.0 0.0
0.0 0.1347608408233369 0.11568707313324662 -0.11427538413552216 -0.0014116889977244373 0.030682773115031682 0.0 0.0
0.0 0.11647894929008752 0.09977381543590305 -0.09839585995190485 -0.0013779554839981616 0.028616739150339764 0.0 0.0
0.0 0.098260080038079 0.0841678533421959 -0.08284292395023019 -0.0013249293919657872 0.02574056565650172 0.0 0.0
0.0 0.08086755422140797 0.06931839718404845 -0.06805880561928539 -0.0012595915647629456 0.022493140007659014 0.0 0.0
0.0 0.06495427652047814 0.055492875225100394 -0.054308001828519574 -0.0011848733965807417 0.019129567110351773 0.0 0.0
0.0 0.050089756467448815 0.04286408693187227 -0.04175816832156713 -0.0011059186103050888 0.015743132495671587 0.0 0.0
0.0 0.03680431858932315 0.03154806751083273 -0.030518760810612527 -0.00102930670022023 0.012316708802692807 0.0 0.0
0.0 0.0252209060871019 0.02169342280179445 -0.020735698085552763 -0.0009577247162416691 0.00890125612051075 0.0 0.0
0.0 0.015613557416768533 0.013520161116536604 -0.012638632920454324 -0.0008815281960822815 0.00572907766233427 0.0 0.0
0.0 0.008266537912909057 0.0072604226651628665 -0.006498206764087952 -0.0007622159010749165 0.003073846419210727 0.0 0.0
0.0 0.0035850403558139016 0.0030381517875126963 -0.0025174671841173917 -0.0005206846033953032 0.0012131089178331195 0.0 0.0
0.0 0.0008986668395760522 0.0007767368786900561 -0.0005850998471751489 -0.00019163703151490815 0.00027692662593030356 0.0 0.0
0.0 1.329310548350647e-05 2.6245295098871554e-05 -1.5218760496700567e-05 -1.1026534602171152e-05 -1.4173376280468985e-05 0.0 0.0
0.0 -5.848572328372031e-07 -6.4427269292907e-07 5.149326301624187e-07 1.293400627666339e-07 -9.253274298553349e-07 0.0 0.0
0.0 0.0 0.0 0.0 0.0 0.0 0.0 0.0
0.0 0.0019374501736170828 0.0009870540053569352 -0.0005408184286768388 -0.0004462355766800945 0.0030542080870830804 0.0 0.0
0.0 0.007377964552240612 0.005293366096410785 -0.0072130337397247205 0.0019196676433139283 0.003273956837799414 0.0 0.0
0.0 0.0054589257414187084 0.0038010328256288745 -0.005268304714522884 0.0014672718888940012 -0.0025748701434123865 0.0 0.0
0.0 0.0012450505136637154 0.0006384637922390135 -0.00034332922186800316 -0.00029513457037100846 -0.002153799085139038 0.0 0.0
0.0 0.0 0.0 0.0 0.0 0.0 0.0 0.0
0.0 -3.197299774544324e-07 1.150424163053447e-07 -8.707725359037864e-08 -2.796516271496594e-08 -1.8133494382135584e-07 0.0 0.0
0.0 -2.6146374941739924e-05 -1.7994375752877934e-05 1.5523881116966475e-05 2.4704946359114583e-06 3.345922064344831e-05 0.0 0.0
0.0 0.000418088445891565 0.0003812826721429913 -0.0002796831510858105 -0.00010159952105718156 -0.0002134937101352512 0.0 0.0
0.0 0.002269654487479055 0.001999211528121716 -0.001608221790324426 -0.00039098973779729 -0.0011528897645682074 0.0 0.0
0.0 0.0064387040214657085 0.0053139860181956895 -0.004650076637978613 -0.0006639093802170706 -0.0030076756299294207 0.0 0.0
0.0 0.01218988725904396 0.010498580740045215 -0.009691861315374752 -0.000806719424670471 -0.005857527635933898 0.0 0.0
0.0 0.020457420542082685 0.017339370564358615 -0.016456003128336144 -0.0008833674360224846 -0.00929451982616992 0.0 0.0
0.0 0.030226125063635124 0.025586051425762323 -0.02463696327493345 -0.0009490881508288842 -0.012964704194008773 0.0 0.0
0.0 0.04136932974536549 0.0350249283603508 -0.03400523775687765 -0.0010196906034730805 -0.016644101884508992 0.0 0.0
0.0 0.05374888717572544 0.045536239425810886 -0.04444307316611479 -0.0010931662596960978 -0.02027962616017585 0.0 0.0
0.0 0.06735877534511547 0.057049859679854605 -0.0558874342988314 -0.0011624253810232023 -0.0238896329817916 0.0 0.0
0.0 0.08184826551318759 0.06946935102942683 -0.06824499433042933 -0.0012243566989975842 -0.027378371379589303 0.0 0.0
0.0 0.09703708141316413 0.08261074030461064 -0.0813340925092137 -0.0012766477953968316 -0.030484014697323834 0.0 0.0
0.0 0.11306064334886727 0.09615928497613686 -0.09484364613730778 -0.0013156388388290115 -0.03283838358315147 0.0 0.0
0.0 0.1284824054400832 0.10959252674330563 -0.10825855453823986 -0.0013339722050658693 -0.03380034249173793 0.0 0.0
0.0 0.1425414864702082 0.12202859670674925 -0.12071108642833345 -0.0013175102784157844 -0.031975147059727906 0.0 0.0
0.0 0.15409481377364426 0.13220434761464406 -0.13092888161880503 -0.0012754659958389228 -0.025278821824342983 0.0 0.0
0.0 0.16141231236670908 0.1373484740359731 -0.13683308989727833 -0.0005153841386947167 3.0883282042815097e-14 0.0 0.0
0.0 0.1540948137736186 0.1322043476146179 -0.13092888161877736 -0.0012754659958404825 0.025278821824413336 0.0 0.0
0.0 0.14254148647016557 0.1220285967067082 -0.12071108642829222 -0.0013175102784160194 0.03197514705979593 0.0 0.0
0.0 0.12848240544002873 0.10959252674325581 -0.10825855453819053 -0.0013339722050651464 0.03380034249178082 0.0 0.0
0.0 0.11306064334879663 0.09615928497607643 -0.09484364613724741 -0.0013156388388289772 0.03283838358315735 0.0 0.0
0.0 0.09703708141308438 0.08261074030454231 -0.08133409250914489 -0.0012766477953975281 0.030484014697309644 0.0 0.0
0.0 0.08184826551311236 0.06946935102936166 -0.06824499433036472 -0.0012243566989969257 0.02737837137957573 0.0 0.0
0.0 0.06735877534504049 0.057049859679789504 -0.055887434298766914 -0.0011624253810226211 0.02388963298177711 0.0 0.0
0.0 0.053748887175651724 0.04553623942574811 -0.044443073166052345 -0.0010931662596957907 0.020279626160157632 0.0 0.0
0.0 0.04136932974530126 0.03502492836029645 -0.034005237756823715 -0.0010196906034727106 0.01664410188448529 0.0 0.0
0.0 0.030226125063573084 0.025586051425710923 -0.024636963274882285 -0.0009490881508286447 0.012964704193979354 0.0 0.0
0.0 0.02045742054203667 0.01733937056431972 -0.016456003128297834 -0.0008833674360218834 0.00929451982614619 0.0 0.0
0.0 0.01218988725900695 0.010498580740013579 -0.00969186131534363 -0.0008067194246699655 0.005857527635915775 0.0 0.0
0.0 0.006438704021444756 0.00531398601817881 -0.004650076637962699 -0.0006639093802161127 0.003007675629919866 0.0 0.0
0.0 0.002269654487467266 0.0019992115281123705 -0.0016082217903163215 -0.00039098973779604936 0.001152889764562088 0.0 0.0
0.0 0.0004180884458870019 0.00038128267213963837 -0.00027968315108331456 -0.00010159952105632354 0.00021349371013306394 0.0 0.0
0.0 -2.614637494203703e-05 -1.799437575234715e-05 1.5523881116543375e-05 2.4704946358037686e-06 -3.3459220642671945e-05 0.0 0.0
0.0 -3.197299773557351e-07 1.1504241626118821e-07 -8.707725355513995e-08 -2.796516270604503e-08 1.8133494374144842e-07 0.0 0.0
0.0 0.0 0.0 0.0 0.0 0.0 0.0 0.0
0.0 0.0012450505136575151 0.0006384637922360809 -0.00034332922186604276 -0.0002951345703700372 0.002153799085130732 0.0 0.0
0.0 0.005458925741404352 0.003801032825617597 -0.005268304714508168 0.001467271888890568 0.0025748701434044007 0.0 0.0
0.0 0.003730063052337758 0.002604593100238633 -0.003666694397164015 0.0010621012969253773 -0.0019345134070564316 0.0 0.0
0.0 0.0008089330384587402 0.00037045554830972017 -0.0001870263018264382 -0.00018342924648328144 -0.0014056828736277336 0.0 0.0
0.0 1.5734592941222573e-07 7.148379167026532e-10 -7.331624633568543e-11 -6.415216703671971e-10 3.250372699491736e-08 0.0 0.0
0.0 1.5712585741700463e-07 6.304622250958064e-09 -5.866682075806125e-09 -4.379401751547683e-10 3.806782874179354e-08 0.0 0.0
0.0 -2.2253234114483105e-05 -1.440726362915344e-05 1.1582320618213636e-05 2.824943010939858e-06 2.9907667415278405e-05 0.0 0.0
0.0 0.00014356297586285636 0.0001240973200137495 -8.757272566003082e-05 -3.6524594353718746e-05 -9.96375038647403e-05 0.0 0.0
0.0 0.001378671771678717 0.0011374048221390273 -0.0008888778529273113 -0.00024852696921171593 -0.0009398650235967676 0.0 0.0
0.0 0.004249272185858993 0.0035671408757309377 -0.0030343354474057413 -0.0005328054283251924 -0.00269852489689858 0.0 0.0
0.0 0.009440632146237924 0.0075849375356700595 -0.006875197307904276 -0.000709740227765783 -0.005412242731813571 0.0 0.0
0.0 0.01563474142203061 0.01307253616211236 -0.012276226152682082 -0.0007963100094302753 -0.008858299557375634 0.0 0.0
0.0 0.023721190971000925 0.019695718198874664 -0.01883624023813146 -0.0008594779607432149 -0.01255290110202783 0.0 0.0
0.0 0.03275237423182596 0.02724961547095733 -0.026325570264914663 -0.0009240452060426881 -0.016254407594082868 0.0 0.0
0.0 0.042717396052617526 0.03563936373046919 -0.03464818273579502 -0.0009911809946741052 -0.01990016346687542 0.0 0.0
0.0 0.0536223936070923 0.044839871802001996 -0.04378429047867556 -0.0010555813233265208 -0.023520488032063323 0.0 0.0
0.0 0.06535527221513399 0.054815252540660324 -0.05370215041936867 -0.0011131021212915726 -0.027034895867781447 0.0 0.0
0.0 0.07809950992226007 0.06545867151418958 -0.06429699510458321 -0.0011616764096064127 -0.03019526925174926 0.0 0.0
0.0 0.0907212856832563 0.07658649323099066 -0.07537939179476388 -0.0012071014362268052 -0.03266175863588318 0.0 0.0
0.0 0.10403897810573998 0.08792056127404405 -0.08667356964988342 -0.0012469916241604846 -0.033966732042458786 0.0 0.0
0.0 0.1168436420074739 0.098978764615694 -0.09772342281013667 -0.0012553418055575053 -0.032778787355362 0.0 0.0
0.0 0.12782394301932418 0.10881348001650976 -0.10759197618182875 -0.0012215038346810264 -0.026598741402258826 0.0 0.0
0.0 0.13592658443814362 0.11429557821586955 -0.11403595767651478 -0.00025962053935481185 2.9541473434147036e-14 0.0 0.0
0.0 0.1278239430193072 0.10881348001648952 -0.10759197618180773 -0.0012215038346819018 0.026598741402329117 0.0 0.0
0.0 0.11684364200744111 0.09897876461566064 -0.09772342281010331 -0.0012553418055573835 0.03277878735543106 0.0 0.0
0.0 0.10403897810569246 0.08792056127400029 -0.08667356964983929 -0.001246991624161066 0.03396673204249985 0.0 0.0
0.0 0.09072128568320417 0.07658649323094584 -0.07537939179471975 -0.0012071014362260869 0.03266175863588977 0.0 0.0
0.0 0.07809950992219176 0.065458671514132 -0.06429699510452448 -0.0011616764096075785 0.030195269251732763 0.0 0.0
0.0 0.0653552722150764 0.05481525254061006 -0.05370215041931913 -0.0011131021212908887 0.027034895867767576 0.0 0.0
0.0 0.0536223936070348 0.04483987180195238 -0.04378429047862671 -0.0010555813233256224 0.023520488032049376 0.0 0.0
0.0 0.042717396052558136 0.035639363730419135 -0.034648182735745485 -0.0009911809946736721 0.019900163466856306 0.0 0.0
0.0 0.032752374231772935 0.0272496154709134 -0.02632557026487102 -0.0009240452060423981 0.016254407594059318 0.0 0.0
0.0 0.023721190970953945 0.01969571819883667 -0.018836240238093854 -0.0008594779607428043 0.012552901102000056 0.0 0.0
0.0 0.015634741421993094 0.013072536162081518 -0.012276226152651816 -0.0007963100094296988 0.008858299557351654 0.0 0.0
0.0 0.009440632146211311 0.007584937535649396 -0.006875197307884115 -0.0007097402277652847 0.005412242731798915 0.0 0.0
0.0 0.004249272185841077 0.0035671408757165213 -0.0030343354473923827 -0.0005328054283241314 0.0026985248968882454 0.0 0.0
0.0 0.0013786717716698217 0.0011374048221324904 -0.0008888778529220768 -0.0002485269692104136 0.0009398650235914449 0.0 0.0
0.0 0.00014356297585991617 0.0001240973200120536 -8.75727256587416e-05 -3.6524594353312014e-05 9.963750386303647e-05 0.0 0.0
0.0 -2.2253234114609648e-05 -1.4407263628774475e-05 1.1582320617913243e-05 2.8249430108612354e-06 -2.9907667414639397e-05 0.0 0.0
0.0 1.5712585721141057e-07 6.304622253475461e-09 -5.866682076920911e-09 -4.379401765531699e-10 -3.806782869747957e-08 0.0 0.0
0.0 1.5734592914948445e-07 7.148379181953433e-10 -7.331624793983198e-11 -6.415216702555217e-10 -3.250372694055046e-08 0.0 0.0
0.0 0.0008089330384541817 0.0003704555483078502 -0.0001870263018252675 -0.00018342924648258243 0.0014056828736217276 0.0 0.0
0.0 0.003730063052326373 0.002604593100229782 -0.003666694397152185 0.0010621012969224016 0.0019345134070505039 0.0 0.0
0.0 0.0028157661221341226 0.00162503844163517 -0.0023217139979592343 0.0006966755563240634 -0.0013456040901815229 0.0 0.0
0.0 0.00037489330496911317 0.0001819206013279702 -7.950304959279045e-05 -0.00010241755173517989 -0.0008182046786827788 0.0 0.0
0.0 1.257628878837081e-06 9.040856487827421e-08 -9.278158135304826e-08 2.3730164747744455e-09 -1.8135257206559495e-06 0.0 0.0
0.0 -7.342842517705878e-07 3.3439796407250597e-09 -3.4273464203869906e-09 8.336677966176876e-11 -2.4535479194790803e-07 0.0 0.0
0.0 -1.1414045352115702e-05 -6.841209215266294e-06 5.476980299573728e-06 1.3642289156925678e-06 2.2185118128155443e-05 0.0 0.0
0.0 1.3893976566864603e-05 1.1900366863168204e-05 -6.109292156689754e-06 -5.791074706478471e-06 -1.1092870507857772e-05 0.0 0.0
0.0 0.0006693674713228075 0.0005047332458129675 -0.00038526382617345967 -0.00011946941963950739 -0.0006355663822382028 0.0 0.0
0.0 0.002564534753720273 0.0020499407121746765 -0.0016884933692616335 -0.00036144734291304267 -0.0021485121624424614 0.0 0.0
0.0 0.006152647014583688 0.0049007240286584155 -0.004327593643979686 -0.0005731303846787293 -0.004530270573132462 0.0 0.0
0.0 0.011435742427000644 0.008952658999977364 -0.008268651132423383 -0.0006840078675539726 -0.007619663249321551 0.0 0.0
0.0 0.0173237984474959 0.01393192019104651 -0.013180779971369428 -0.0007511402196770775 -0.011067343595007774 0.0 0.0
0.0 0.024164659428279455 0.01959777376684986 -0.018785323550920763 -0.0008124502159291124 -0.014544769463044834 0.0 0.0
0.0 0.03177879739036037 0.025866659640227028 -0.024993239576245465 -0.0008734200639815569 -0.01796815285491526 0.0 0.0
0.0 0.0400473204693482 0.032747519370313186 -0.03181632460506214 -0.0009311947652509895 -0.02135935683877436 0.0 0.0
0.0 0.049128322380841485 0.040264857130369064 -0.039280198107177096 -0.0009846590231919825 -0.024680852311263695 0.0 0.0
0.0 0.05875127498899291 0.048394713806478244 -0.04736392616194214 -0.001030787644536055 -0.02771920642094511 0.0 0.0
0.0 0.06909402315956954 0.057036238743683555 -0.055961017523213086 -0.0010752212204704693 -0.030121368238094227 0.0 0.0
0.0 0.07960280277224077 0.06613580595507955 -0.06500042711162451 -0.0011353788434548932 -0.03158206662660657 0.0 0.0
0.0 0.0903606423683772 0.07566077778432792 -0.07447732209989867 -0.001183455684429136 -0.03133050753552183 0.0 0.0
0.0 0.10111070029066306 0.08512322647622247 -0.08395607874368233 -0.0011671477325400782 -0.026763351534276256 0.0 0.0
0.0 0.11039557561550757 0.0910352205725564 -0.09106756781769071 3.234724513423071e-05 2.6679179698785305e-14 0.0 0.0
0.0 0.10111070029065325 0.08512322647620743 -0.08395607874366677 -0.0011671477325406216 0.02676335153434019 0.0 0.0
0.0 0.0903606423683584 0.07566077778430479 -0.07447732209987648 -0.0011834556844283022 0.031330507535588824 0.0 0.0
0.0 0.07960280277220325 0.06613580595504472 -0.06500042711158904 -0.0011353788434555617 0.0315820666266447 0.0 0.0
0.0 0.06909402315952738 0.05703623874364742 -0.05596101752317913 -0.0010752212204682555 0.030121368238095685 0.0 0.0
0.0 0.058751274988943766 0.04839471380643715 -0.04736392616190126 -0.0010307876445359862 0.027719206420928812 0.0 0.0
0.0 0.04912832238079811 0.04026485713033199 -0.03928019810714066 -0.000984659023191293 0.0246808523112498 0.0 0.0
0.0 0.04004732046930481 0.03274751937027586 -0.03181632460502556 -0.0009311947652503205 0.021359356838762427 0.0 0.0
0.0 0.0317787973903156 0.02586665964019053 -0.02499323957620886 -0.000873420063981654 0.017968152854897675 0.0 0.0
0.0 0.02416465942824149 0.019597773766818743 -0.018785323550890028 -0.0008124502159286939 0.014544769463024314 0.0 0.0
0.0 0.017323798447460445 0.013931920191018953 -0.013180779971342576 -0.0007511402196763544 0.011067343594982309 0.0 0.0
0.0 0.011435742426968716 0.008952658999952862 -0.008268651132399045 -0.0006840078675538138 0.007619663249297859 0.0 0.0
0.0 0.006152647014566464 0.004900724028644949 -0.004327593643967105 -0.0005731303846778492 0.004530270573121637 0.0 0.0
0.0 0.0025645347537060314 0.002049940712163796 -0.00168849336925193 -0.00036144734291186734 0.002148512162431808 0.0 0.0
0.0 0.0006693674713169048 0.0005047332458088242 -0.00038526382617016066 -0.00011946941963866316 0.0006355663822329975 0.0 0.0
0.0 1.3893976565417996e-05 1.1900366862868702e-05 -6.10929215649382e-06 -5.7910747063748534e-06 1.1092870507481282e-05 0.0 0.0
0.0 -1.141404535300586e-05 -6.841209215026619e-06 5.476980299395738e-06 1.3642289156308568e-06 -2.2185118127249504e-05 0.0 0.0
0.0 -7.342842518370933e-07 3.3439797077801128e-09 -3.4273464633879785e-09 8.336675560738612e-11 2.4535479299145575e-07 0.0 0.0
0.0 1.2576288785589867e-06 9.040856487689996e-08 -9.278158135995941e-08 2.3730164830598897e-09 1.8135257208799175e-06 0.0 0.0
0.0 0.0003748933049660201 0.00018192060132677754 -7.950304959208238e-05 -0.00010241755173469551 0.0008182046786782475 0.0 0.0
0.0 0.00281576612212371 0.0016250384416286268 -0.0023217139979502216 0.0006966755563215955 0.0013456040901770104 0.0 0.0
0.0 0.001508353153470201 0.0009181393893983973 -0.0013310519723128624 0.0004129125829144651 -0.0009131354248679874 0.0 0.0
0.0 0.00015118273619254763 5.599765674347738e-05 -4.113167309574228e-06 -5.188448943390279e-05 -0.0003694289504615116 0.0 0.0
0.0 3.4026202357712655e-06 3.114912729273366e-08 -3.527482629668271e-08 4.125699003950134e-09 -4.6455557794760707e-07 0.0 0.0
0.0 1.1234753154158092e-06 -1.9103811044434858e-07 1.4792203464652835e-07 4.311607579782009e-08 1.0147374384159248e-06 0.0 0.0
0.0 -7.798216424536198e-06 -3.2845300082903337e-06 2.6348882696980107e-06 6.496417385923245e-07 1.5345587728750965e-05 0.0 0.0
0.0 -1.6071843121286263e-05 -7.614162646561776e-06 6.993577972475168e-06 6.205846740866275e-07 1.0224511020794864e-05 0.0 0.0
0.0 0.0002539384070297293 0.000131072809628212 -9.913579759523704e-05 -3.193701203297537e-05 -0.00031555294286713287 0.0 0.0
0.0 0.0013137638744168843 0.0008460812852343685 -0.0006807938294559596 -0.0001652874557784087 -0.0013992168228322255 0.0 0.0
0.0 0.0034725000778733496 0.002515769700237776 -0.002151868153874363 -0.00036390154636341206 -0.003275175271530859 0.0 0.0
0.0 0.006910270680075097 0.0051113168969468435 -0.0046006304345787615 -0.000510686462368087 -0.005719881792237638 0.0 0.0
0.0 0.010978152912700073 0.008394868993118523 -0.00779621939797388 -0.0005986495951446431 -0.008564654547218765 0.0 0.0
0.0 0.015775142458114604 0.012150163290363142 -0.011488020510941386 -0.0006621427794217514 -0.011518678510575649 0.0 0.0
0.0 0.020992005433689672 0.016299165177331203 -0.015579342703471036 -0.0007198224738601526 -0.01449032451617115 0.0 0.0
0.0 0.026673384514184495 0.020862294080735415 -0.020091357030714446 -0.0007709370500209828 -0.017441340362741725 0.0 0.0
0.0 0.03295103746910627 0.0259054984645552 -0.025086143734096046 -0.0008193547304591443 -0.020344137320787655 0.0 0.0
0.0 0.03986529764970481 0.031492022641733564 -0.030626385158275916 -0.0008656374834576137 -0.023097694470866445 0.0 0.0
0.0 0.0473109168752503 0.03762681230462686 -0.036716874135999486 -0.0009099381686273529 -0.025384789709674598 0.0 0.0
0.0 0.05509228047975377 0.04435005564475237 -0.043378576421495195 -0.0009714792232572404 -0.02680640609919913 0.0 0.0
0.0 0.06389692790954361 0.05201224431069237 -0.05094480148392281 -0.001067442826769502 -0.02721751152946196 0.0 0.0
0.0 0.07420798562022898 0.06087523071545156 -0.059765134494546734 -0.0011100962209048618 -0.02526664897832251 0.0 0.0
0.0 0.08492187050131854 0.06728951551009527 -0.06765316536694126 0.000363649856845869 2.438847734875793e-14 0.0 0.0
0.0 0.07420798562023112 0.060875230715445275 -0.05976513449453965 -0.0011100962209055823 0.02526664897838016 0.0 0.0
0.0 0.06389692790952874 0.05201224431067319 -0.050944801483903346 -0.0010674428267698046 0.02721751152952224 0.0 0.0
0.0 0.055092280479728625 0.04435005564472917 -0.04337857642147123 -0.0009714792232579316 0.02680640609923148 0.0 0.0
0.0 0.047310916875214756 0.03762681230459887 -0.03671687413597218 -0.000909938168626703 0.02538478970966955 0.0 0.0
0.0 0.03986529764967236 0.031492022641707716 -0.030626385158250276 -0.0008656374834574229 0.023097694470848754 0.0 0.0
0.0 0.03295103746907193 0.02590549846452684 -0.025086143734067735 -0.0008193547304591194 0.0203441373207739 0.0 0.0
0.0 0.02667338451415676 0.020862294080712177 -0.020091357030691353 -0.0007709370500208469 0.017441340362733242 0.0 0.0
0.0 0.020992005433664234 0.01629916517731115 -0.015579342703451394 -0.0007198224738597425 0.014490324516158856 0.0 0.0
0.0 0.015775142458085645 0.012150163290341388 -0.01148802051092002 -0.0006621427794213673 0.011518678510556546 0.0 0.0
0.0 0.010978152912675485 0.008394868993100551 -0.007796219397956175 -0.00059864959514437 0.008564654547197443 0.0 0.0
0.0 0.0069102706800523005 0.005111316896930513 -0.004600630434563089 -0.00051068646236743 0.005719881792218077 0.0 0.0
0.0 0.0034725000778601947 0.0025157697002278793 -0.002151868153865571 -0.00036390154636230617 0.0032751752715212603 0.0 0.0
0.0 0.0013137638744083447 0.0008460812852287275 -0.00068079382945107 -0.00016528745577765825 0.0013992168228241328 0.0 0.0
0.0 0.0002539384070263638 0.00013107280962716043 -9.913579759444855e-05 -3.193701203271171e-05 0.0003155529428649573 0.0 0.0
0.0 -1.6071843122256963e-05 -7.614162646535498e-06 6.993577972466414e-06 6.205846740690365e-07 -1.022451102085512e-05 0.0 0.0
0.0 -7.798216425392041e-06 -3.2845300080726776e-06 2.6348882695312727e-06 6.496417385414146e-07 -1.5345587727230974e-05 0.0 0.0
0.0 1.123475315171737e-06 -1.910381104874301e-07 1.479220346813584e-07 4.3116075806072526e-08 -1.0147374385673084e-06 0.0 0.0
0.0 3.4026202349696327e-06 3.11491273275616e-08 -3.5274826332518156e-08 4.12569900495733e-09 4.6455557907955384e-07 0.0 0.0
0.0 0.00015118273618968376 5.5997656742767685e-05 -4.113167309196062e-06 -5.18844894335712e-05 0.00036942895045856373 0.0 0.0
0.0 0.0015083531534626881 0.000918139389393979 -0.0013310519723065482 0.0004129125829125678 0.0009131354248647264 0.0 0.0
0.0 0.0007534307631460165 0.000413272925017747 -0.0006055282794372121 0.00019225535441946563 -0.0005059431234751936 0.0 0.0
0.0 6.62165079804278e-06 -7.1721173083984706e-06 2.945347480758252e-05 -2.2281357499184196e-05 -7.775247547325651e-05 0.0 0.0
0.0 3.837275829015396e-06 8.104117274225076e-08 -1.7225727610098862e-07 9.121610335873816e-08 -4.9948930719761235e-06 0.0 0.0
0.0 2.4592837341328177e-06 -1.9476641875519146e-07 1.772419441466077e-07 1.752447460858181e-08 -3.7158160758935923e-06 0.0 0.0
0.0 -3.6216226683024914e-06 -1.4375275718176203e-06 1.2227594069014625e-06 2.1476816491616489e-07 9.572396681325785e-06 0.0 0.0
0.0 -1.9501608488308176e-07 -4.011707952793065e-06 3.585357789897842e-06 4.263501628951996e-07 2.953686571805046e-06 0.0 0.0
0.0 0.0001021972418233796 1.2453174791664213e-05 -9.235336217400887e-06 -3.217838574263292e-06 -0.0001531229105462329 0.0 0.0
0.0 0.0004323626963485153 0.00013141483319478164 -0.00011082922077741444 -2.0585612417367185e-05 -0.0006545724704671607 0.0 0.0
0.0 0.0013045445270467913 0.0006110109683482802 -0.0005391196304135009 -7.189133793477846e-05 -0.0017694869775616673 0.0 0.0
0.0 0.0029592105702598804 0.0016970841828691475 -0.0015322360859566554 -0.0001648480969124922 -0.0034510839379827698 0.0 0.0
0.0 0.005351087668984986 0.0032555567138095876 -0.002993029441251824 -0.0002625272725577592 -0.005445507393676576 0.0 0.0
0.0 0.007868700830257078 0.0050852547131510295 -0.0047423727274473184 -0.0003428819857037183 -0.007674865878034964 0.0 0.0
0.0 0.010804618837695467 0.007112402623053058 -0.006704461207574714 -0.0004079414154783452 -0.01003420228222286 0.0 0.0
0.0 0.01407068400859103 0.009365875410578917 -0.008903322883571122 -0.00046255252700778927 -0.012468803862550636 0.0 0.0
0.0 0.01768852478755833 0.011927375185571036 -0.011412010776324241 -0.0005153644092467998 -0.014962121474089393 0.0 0.0
0.0 0.021803927361915127 0.014927405932843498 -0.014355730681327051 -0.0005716752515164424 -0.01746850933187317 0.0 0.0
0.0 0.02657368176369093 0.01852139812476857 -0.017889175832208573 -0.0006322222925600032 -0.01976840550374083 0.0 0.0
0.0 0.032018208528124155 0.02284155779806318 -0.02214812741651684 -0.0006934303815463246 -0.02130423313430697 0.0 0.0
0.0 0.038291134304232415 0.0282622611984097 -0.02746540565329188 -0.0007968555451178222 -0.02165682763735828 0.0 0.0
0.0 0.0468139624267426 0.035877855367748276 -0.034899644207392305 -0.0009782111603559313 -0.021559768393427187 0.0 0.0
0.0 0.06066265713694547 0.04271997760743674 -0.04346806396653166 0.0007480863590949534 1.8115717259625796e-14 0.0 0.0
0.0 0.04681396242675509 0.03587785536774897 -0.034899644207393124 -0.0009782111603558962 0.021559768393477566 0.0 0.0
0.0 0.038291134304224664 0.028262261198398555 -0.02746540565328006 -0.0007968555451184794 0.021656827637402454 0.0 0.0
0.0 0.03201820852810788 0.022841557798050312 -0.022148127416504022 -0.000693430381546284 0.021304233134326764 0.0 0.0
0.0 0.026573681763669484 0.018521398124755745 -0.017889175832195486 -0.0006322222925602849 0.01976840550373442 0.0 0.0
0.0 0.021803927361901797 0.01492740593283589 -0.014355730681318742 -0.0005716752515171441 0.01746850933185785 0.0 0.0
0.0 0.01768852478753758 0.011927375185556095 -0.01141201077630887 -0.0005153644092472285 0.014962121474075319 0.0 0.0
0.0 0.014070684008577486 0.009365875410569447 -0.008903322883562124 -0.0004625525270073221 0.012468803862544953 0.0 0.0
0.0 0.010804618837684207 0.007112402623047355 -0.006704461207568686 -0.0004079414154786713 0.01003420228221261 0.0 0.0
0.0 0.007868700830240917 0.005085254713141937 -0.004742372727438016 -0.00034288198570392 0.007674865878018173 0.0 0.0
0.0 0.0053510876689716715 0.0032555567138023308 -0.0029930294412445746 -0.0002625272725577513 0.005445507393661711 0.0 0.0
0.0 0.002959210570248939 0.0016970841828629183 -0.001532236085950361 -0.00016484809691255707 0.0034510839379718284 0.0 0.0
0.0 0.0013045445270406782 0.0006110109683448164 -0.000539119630410257 -7.189133793455899e-05 0.001769486977554411 0.0 0.0
0.0 0.00043236269634557315 0.00013141483319379523 -0.00011082922077653419 -2.0585612417260886e-05 0.000654572470463396 0.0 0.0
0.0 0.00010219724182215816 1.2453174791645968e-05 -9.23533621738549e-06 -3.2178385742605154e-06 0.00015312291054581968 0.0 0.0
0.0 -1.950160853956826e-07 -4.0117079525904736e-06 3.585357789741835e-06 4.2635016284864417e-07 -2.9536865709719843e-06 0.0 0.0
0.0 -3.6216226692535103e-06 -1.4375275717725148e-06 1.222759406872591e-06 2.1476816489991726e-07 -9.572396680370982e-06 0.0 0.0
0.0 2.4592837340592944e-06 -1.947664187744281e-07 1.772419441660998e-07 1.7524474608328856e-08 3.715816076691509e-06 0.0 0.0
0.0 3.837275829052505e-06 8.104117274360183e-08 -1.7225727611328478e-07 9.12161033696793e-08 4.994893072486758e-06 0.0 0.0
0.0 6.621650796462426e-06 -7.172117308632786e-06 2.945347480767706e-05 -2.2281357499044205e-05 7.775247547163155e-05 0.0 0.0
0.0 0.0007534307631412086 0.00041327292501531593 -0.000605528279433646 0.0001922553544183292 0.0005059431234729329 0.0 0.0
0.0 0.00020684066308758776 0.00011895046068947767 -0.00017697668659630842 5.802622590683048e-05 -0.0001853033705731031 0.0 0.0
0.0 -2.6165008725309837e-05 -1.5503302789019735e-05 2.2816292586036884e-05 -7.3129897970171e-06 2.3253818061248742e-05 0.0 0.0
0.0 4.164734065090779e-06 1.8274959857859443e-07 -1.9031277285001984e-07 7.563174271421357e-09 1.655052691634365e-06 0.0 0.0
0.0 4.5678754543626555e-06 -4.48344665097673e-07 3.739258588213717e-07 7.441880627630455e-08 -6.159438521347817e-06 0.0 0.0
0.0 5.377859913535091e-07 -6.508160737265958e-07 6.388296312680896e-07 1.1986442458503895e-08 6.275607718267488e-09 0.0 0.0
0.0 8.918356822376254e-06 -1.6501446730277482e-06 1.7030580918082039e-06 -5.2913418780457295e-08 -7.631905654793747e-06 0.0 0.0
0.0 0.00010002287020940027 -2.288391835709097e-06 2.2799079702551927e-06 8.483865453899941e-09 -0.000149870650433244 0.0 0.0
0.0 0.000234843246512616 -1.5910864171291878e-06 1.5744455100209364e-06 1.6640907108291286e-08 -0.0004072785513806364 0.0 0.0
0.0 0.0005061021321918382 -7.829131708643682e-07 7.43660778222059e-07 3.92523926421923e-08 -0.0008316719343754743 0.0 0.0
0.0 0.0008658035318008276 1.3402618548270578e-09 9.69031343819979e-09 -1.103057529314882e-08 -0.0017160006824446556 0.0 0.0
0.0 0.0017340760751572606 -5.400220131451772e-07 7.304566201927218e-07 -1.9043460704683984e-07 -0.003256168883476443 0.0 0.0
0.0 0.002875535271074672 -1.0912419439164465e-05 1.3635069337629077e-05 -2.7226498984649376e-06 -0.005287304037117208 0.0 0.0
0.0 0.004339501298449737 -2.9625156529917746e-05 3.351751115026458e-05 -3.892354620345454e-06 -0.007464032698776076 0.0 0.0
0.0 0.005990452907078618 -3.463167027842979e-05 3.4571417064104015e-05 6.025321432661843e-08 -0.00975176039279078 0.0 0.0
0.0 0.007800162049826718 5.882446511756541e-05 -7.408679422763061e-05 1.5262329110065742e-05 -0.012157191769880853 0.0 0.0
0.0 0.009721581646736343 0.0004313481735352628 -0.00047615942983342827 4.4811256298162884e-05 -0.014665139021972895 0.0 0.0
0.0 0.011789228529738217 0.0013696646506926521 -0.0014632035530324217 9.353890233977332e-05 -0.017188819662930965 0.0 0.0
0.0 0.013925316571838866 0.0031225599298383188 -0.0033339100564814443 0.00021135012664312677 -0.019493616814718395 0.0 0.0
0.0 0.01682402820814356 0.0053846779034223274 -0.005777317640092892 0.00039263973667057206 -0.02117289436764451 0.0 0.0
0.0 0.024157100201284042 0.010445205514083317 -0.010163102113236663 -0.0002821034008466634 -0.02203837966308809 0.0 0.0
0.0 0.04327043183037594 0.018047599569131694 -0.01941580956656181 0.0013682099974301168 1.0293849106446373e-14 0.0 0.0
0.0 0.02415710020129346 0.01044520551408211 -0.010163102113236098 -0.00028210340084600317 0.02203837966312156 0.0 0.0
0.0 0.0168240282081357 0.005384677903419385 -0.005777317640090151 0.00039263973667076 0.02117289436765485 0.0 0.0
0.0 0.013925316571828002 0.0031225599298365147 -0.0033339100564790097 0.00021135012664250103 0.01949361681471607 0.0 0.0
0.0 0.011789228529726413 0.0013696646506942472 -0.0014632035530343398 9.353890234009202e-05 0.017188819662916903 0.0 0.0
0.0 0.009721581646730624 0.000431348173541271 -0.000476159429841325 4.481125630005704e-05 0.014665139021959154 0.0 0.0
0.0 0.007800162049813094 5.88244651193898e-05 -7.408679422917907e-05 1.5262329109791114e-05 0.012157191769865976 0.0 0.0
0.0 0.0059904529070686245 -3.4631670275444984e-05 3.457141706132358e-05 6.025321412034897e-08 0.009751760392779892 0.0 0.0
0.0 0.004339501298441442 -2.9625156525150183e-05 3.351751114479462e-05 -3.892354619643989e-06 0.007464032698762347 0.0 0.0
0.0 0.0028755352710650235 -1.0912419436723655e-05 1.3635069335036858e-05 -2.7226498983140573e-06 0.005287304037102696 0.0 0.0
0.0 0.0017340760751494728 -5.400220113921037e-07 7.304566182185794e-07 -1.9043460682624535e-07 0.003256168883465199 0.0 0.0
0.0 0.0008658035317997696 1.3402608591906503e-09 9.690314273062568e-09 -1.1030575132246442e-08 0.0017160006824440185 0.0 0.0
0.0 0.0005061021321900916 -7.829131710942902e-07 7.436607784216606e-07 3.92523926724246e-08 0.0008316719343725385 0.0 0.0
0.0 0.00023484324651093107 -1.5910864171476337e-06 1.5744455100810312e-06 1.664090706657449e-08 0.0004072785513776582 0.0 0.0
0.0 0.00010002287020810929 -2.288391835680858e-06 2.279907970218896e-06 8.483865462003558e-09 0.00014987065043269964 0.0 0.0
0.0 8.918356822106677e-06 -1.6501446730262274e-06 1.703058091813084e-06 -5.2913418786867376e-08 7.631905656188958e-06 0.0 0.0
0.0 5.37785990390995e-07 -6.508160737560776e-07 6.388296312930953e-07 1.1986442462987363e-08 -6.275607085081468e-09 0.0 0.0
0.0 4.567875454334904e-06 -4.483446651490773e-07 3.739258588667307e-07 7.441880628234668e-08 6.1594385220542e-06 0.0 0.0
0.0 4.164734064301707e-06 1.8274959856761487e-07 -1.9031277284639588e-07 7.56317427878971e-09 -1.655052690979439e-06 0.0 0.0
0.0 -2.616500872520339e-05 -1.5503302788705967e-05 2.281629258562916e-05 -7.312989796923225e-06 -2.3253818059921073e-05 0.0 0.0
0.0 0.00020684066308529925 0.00011895046068870603 -0.00017697668659520546 5.802622590649962e-05 0.00018530337057198786 0.0 0.0
0.0 9.987961186753033e-06 4.139926186471957e-06 -6.891271564542802e-06 2.751345378070817e-06 -6.460856693022955e-06 0.0 0.0
0.0 -1.8190743072799359e-06 -9.0491946074165e-07 1.3357148638531386e-06 -4.3079540311149e-07 4.169456861462929e-06 0.0 0.0
0.0 1.338008166574923e-06 1.927173183248638e-07 -2.725580616055735e-07 7.984074328070978e-08 -2.4327219099673122e-06 0.0 0.0
0.0 6.79723173406236e-06 -5.632352200303412e-07 4.45290434310696e-07 1.179447857196453e-07 -7.2443564791813e-06 0.0 0.0
0.0 4.828835189832748e-06 -9.134090108499936e-07 8.576331713162225e-07 5.577583953376762e-08 -8.175566056317319e-06 0.0 0.0
0.0 1.4891339369148482e-05 -2.725424965750938e-06 2.6403591131747145e-06 8.506585257627553e-08 -3.04461257892615e-05 0.0 0.0
0.0 0.00013729225448915573 -2.0652802084930817e-05 1.676942865237969e-05 3.88337343255105e-06 -0.0001771685275243936 0.0 0.0
0.0 0.0004516679707400981 -0.00013947685970330578 0.00011790509769735057 2.1571762005954992e-05 -0.0006750606592451163 0.0 0.0
0.0 0.0013103361591944491 -0.0006137167577886914 0.0005413744462666659 7.234231152202465e-05 -0.0017790586667651184 0.0 0.0
0.0 0.0029582905124318237 -0.0016967708545938326 0.001531883589443589 0.00016488726515024468 -0.003451796796783513 0.0 0.0
0.0 0.005369064866403093 -0.003261318833155704 0.002997981536085743 0.0002633372970699589 -0.0054450994162470664 0.0 0.0
0.0 0.007917696365939416 -0.00511912115340977 0.004772525726309828 0.0003465954270999421 -0.007683462713010928 0.0 0.0
0.0 0.010884340866415003 -0.007186429087170634 0.006774740695374499 0.00041168839179612945 -0.010038583901366435 0.0 0.0
0.0 0.014124415723410728 -0.009429561150516203 0.008973366391411698 0.000456194759104515 -0.012453180427525384 0.0 0.0
0.0 0.01743174539092452 -0.011738032583565802 0.011260569367887621 0.00047746321567818345 -0.014942956979311271 0.0 0.0
0.0 0.02060502244620017 -0.01385859364301764 0.01338905828719474 0.00046953535582287825 -0.01755501263753493 0.0 0.0
0.0 0.023200125837700432 -0.01538688289837382 0.014962228885011367 0.00042465401336246397 -0.020311345245626878 0.0 0.0
0.0 0.024988556591115645 -0.015836358931484523 0.015502042155343256 0.00033431677614126365 -0.023311077624538764 0.0 0.0
0.0 0.02501186597696288 -0.014643019073181014 0.01451820607396809 0.00012481299921292418 -0.02650332732150152 0.0 0.0
0.0 0.020413887020201343 -0.010670882846556496 0.011154266581695868 -0.0004833837351393643 -0.028612007111042184 0.0 0.0
0.0 0.041880677331699784 -0.00621210922555551 0.0034116786619894195 0.002800430563566077 1.629339024811216e-14 0.0 0.0
0.0 0.020413887020213003 -0.010670882846557936 0.011154266581697306 -0.0004833837351393718 0.028612007111067254 0.0 0.0
0.0 0.025011865976958148 -0.014643019073175062 0.014518206073961802 0.00012481299921324922 0.026503327321519686 0.0 0.0
0.0 0.02498855659109887 -0.015836358931472463 0.015502042155330766 0.00033431677614168996 0.023311077624542303 0.0 0.0
0.0 0.023200125837675157 -0.015386882898356182 0.014962228884992866 0.000424654013363339 0.020311345245613663 0.0 0.0
0.0 0.020605022446177707 -0.013858593643001113 0.013389058287178937 0.00046953535582216664 0.01755501263751671 0.0 0.0
0.0 0.017431745390903322 -0.011738032583549097 0.011260569367871943 0.00047746321567714776 0.014942956979295978 0.0 0.0
0.0 0.01412441572338741 -0.009429561150497971 0.00897336639139356 0.00045619475910440985 0.012453180427511142 0.0 0.0
0.0 0.010884340866391826 -0.007186429087153928 0.006774740695357913 0.00041168839179601616 0.010038583901350564 0.0 0.0
0.0 0.007917696365916903 -0.0051191211533944125 0.004772525726294963 0.00034659542709943947 0.00768346271299106 0.0 0.0
0.0 0.0053690648663827995 -0.003261318833142868 0.00299798153607351 0.00026333729706936053 0.005445099416228773 0.0 0.0
0.0 0.0029582905124172928 -0.001696770854584073 0.0015318835894346638 0.00016488726514941057 0.003451796796771393 0.0 0.0
0.0 0.0013103361591875152 -0.000613716757784535 0.0005413744462629867 7.23423115215487e-05 0.0017790586667579419 0.0 0.0
0.0 0.0004516679707374119 -0.0001394768597025062 0.00011790509769677801 2.1571762005728164e-05 0.0006750606592420443 0.0 0.0
0.0 0.00013729225448748064 -2.0652802084872937e-05 1.6769428652319567e-05 3.883373432553358e-06 0.0001771685275237423 0.0 0.0
0.0 1.4891339368576095e-05 -2.725424965952039e-06 2.640359113327499e-06 8.506585262454306e-08 3.04461257904876e-05 0.0 0.0
0.0 4.828835189080916e-06 -9.134090109026479e-07 8.576331713604043e-07 5.5775839542231113e-08 8.175566056701277e-06 0.0 0.0
0.0 6.797231733568218e-06 -5.632352201395971e-07 4.452904344020403e-07 1.1794478573755556e-07 7.244356480128515e-06 0.0 0.0
0.0 1.3380081661154075e-06 1.9271731831163296e-07 -2.72558061603745e-07 7.98407432921076e-08 2.4327219104891705e-06 0.0 0.0
0.0 -1.8190743079451477e-06 -9.049194607969855e-07 1.3357148639185848e-06 -4.3079540312160145e-07 -4.169456861517629e-06 0.0 0.0
0.0 9.987961185556651e-06 4.139926186830852e-06 -6.89127156507974e-06 2.7513453782489035e-06 6.460856693781983e-06 0.0 0.0
0.0 2.137443724680375e-06 -1.220915436041711e-07 1.897459172304093e-07 -6.765437362616072e-08 2.9265641503399196e-07 0.0 0.0
0.0 2.510562904022742e-07 6.735322939639807e-08 -3.976850954727201e-08 -2.7584719849140708e-08 7.58909832473958e-07 0.0 0.0
0.0 -1.1678703246708183e-06 5.751262057939845e-07 -5.023894654534516e-07 -7.273674034054259e-08 3.0642986564814648e-06 0.0 0.0
0.0 4.006184923614242e-06 -7.899244906565281e-07 6.115750831369209e-07 1.783494075195977e-07 -7.94725561053508e-06 0.0 0.0
0.0 8.287286524196688e-06 1.2775493957340057e-06 -9.713221422096826e-07 -3.0622725352425865e-07 8.164955588091288e-07 0.0 0.0
0.0 4.6315962904428385e-05 -8.226074506890462e-06 6.595398288474559e-06 1.6306762184158443e-06 -4.053296372782593e-05 0.0 0.0
0.0 0.0002818602957537221 -0.00015802469680939804 0.00012222926682351192 3.5795429985886366e-05 -0.0003910818561830879 0.0 0.0
0.0 0.0013377808421536042 -0.0008568107549082854 0.0006904349205241607 0.000166375834384124 -0.0014281898322891097 0.0 0.0
0.0 0.003474104249997357 -0.002515805806446228 0.0021516967108798878 0.0003641090955663396 -0.00328164496107381 0.0 0.0
0.0 0.006908785952262283 -0.005110947355929059 0.004600186112974474 0.000510761242954582 -0.005718411343557457 0.0 0.0
0.0 0.010988914444922069 -0.008404107676112816 0.007805142057263352 0.0005989656188494642 -0.008567512114918945 0.0 0.0
0.0 0.01581115182215928 -0.012181706528438719 0.01151867197479202 0.0006630345536467094 -0.011517226651051406 0.0 0.0
0.0 0.02105174559162655 -0.01636118689016968 0.015641282159271973 0.0007199047308977036 -0.014442696672721337 0.0 0.0
0.0 0.02668878613516179 -0.020905610234113494 0.02014146348952825 0.0007641467445852052 -0.017317253783871295 0.0 0.0
0.0 0.03267154132975797 -0.0256984598509614 0.024906395301452472 0.0007920645495089168 -0.020242222946353937 0.0 0.0
0.0 0.038693650445182096 -0.030448149426875792 0.029649767685986136 0.0007983817408896499 -0.023422549117232013 0.0 0.0
0.0 0.044192281177899355 -0.0346746108318709 0.033888803939423236 0.0007858068924476478 -0.027072812688978622 0.0 0.0
0.0 0.048318946452401534 -0.03774256337316125 0.036984158688518426 0.0007584046846428664 -0.03128891259398854 0.0 0.0
0.0 0.05029881618536826 -0.03854079335917518 0.03788446476799971 0.000656328591175416 -0.03528197082486327 0.0 0.0
0.0 0.04700981274740942 -0.03465626031848354 0.03422910278416604 0.00042715753431747666 -0.03634436563478258 0.0 0.0
0.0 0.051381323489513374 -0.028397609238693278 0.024823381457497233 0.0035742277811960446 2.2168031299507618e-14 0.0 0.0
0.0 0.04700981274742068 -0.03465626031848161 0.03422910278416398 0.0004271575343176301 0.036344365634833106 0.0 0.0
0.0 0.050298816185363325 -0.03854079335916336 0.037884464767987784 0.0006563285911755725 0.03528197082490901 0.0 0.0
0.0 0.04831894645237319 -0.037742563373135536 0.036984158688492884 0.000758404684642646 0.031288912594004493 0.0 0.0
0.0 0.04419228117785766 -0.03467461083183755 0.0338888039393891 0.000785806892448445 0.02707281268896784 0.0 0.0
0.0 0.03869365044514586 -0.030448149426846323 0.029649767685957423 0.000798381740888866 0.023422549117212428 0.0 0.0
0.0 0.03267154132971981 -0.02569845985093028 0.02490639530142202 0.0007920645495082865 0.020242222946335348 0.0 0.0
0.0 0.026688786135123953 -0.020905610234081436 0.020141463489496463 0.0007641467445849314 0.017317253783853848 0.0 0.0
0.0 0.021051745591587918 -0.01636118689013883 0.015641282159241186 0.0007199047308976505 0.014442696672702038 0.0 0.0
0.0 0.015811151822120097 -0.012181706528408623 0.0115186719747625 0.0006630345536461261 0.011517226651025036 0.0 0.0
0.0 0.010988914444887832 -0.008404107676086944 0.0078051420572376115 0.0005989656188493307 0.008567512114892227 0.0 0.0
0.0 0.00690878595223785 -0.005110947355910859 0.004600186112956823 0.0005107612429540391 0.005718411343539021 0.0 0.0
0.0 0.0034741042499801464 -0.0025158058064333184 0.0021516967108681792 0.0003641090955651401 0.0032816449610611332 0.0 0.0
0.0 0.00133778084214561 -0.0008568107549029446 0.00069043492051976 0.00016637583438318347 0.0014281898322817204 0.0 0.0
0.0 0.00028186029575017965 -0.00015802469680815866 0.00012222926682254177 3.579542998561709e-05 0.00039108185618040104 0.0 0.0
0.0 4.6315962903345525e-05 -8.226074506981706e-06 6.595398288543569e-06 1.6306762184380573e-06 4.053296372797797e-05 0.0 0.0
0.0 8.287286523906225e-06 1.2775493952916184e-06 -9.713221418402458e-07 -3.0622725345137496e-07 -8.164955571102299e-07 0.0 0.0
0.0 4.006184923245894e-06 -7.899244907578082e-07 6.115750832193302e-07 1.7834940753848349e-07 7.947255611201481e-06 0.0 0.0
0.0 -1.16787032496343e-06 5.751262057310897e-07 -5.023894654196578e-07 -7.273674031142688e-08 -3.0642986554603433e-06 0.0 0.0
0.0 2.510562901136286e-07 6.735322941370823e-08 -3.9768509555238795e-08 -2.758471985846668e-08 -7.589098328231854e-07 0.0 0.0
0.0 2.1374437248040467e-06 -1.2209154361244184e-07 1.8974591724285808e-07 -6.765437363045714e-08 -2.926564150508065e-07 0.0 0.0
0.0 0.0 0.0 0.0 0.0 0.0 0.0 0.0
0.0 1.5497580085625125e-07 -3.4618316171358743e-09 6.3919264297446794e-09 -2.9300948126130262e-09 -2.1642062946680593e-08 0.0 0.0
0.0 -7.683936842346967e-07 6.779193671653746e-07 -5.422906130503571e-07 -1.3562875411501057e-07 3.712860401314609e-06 0.0 0.0
0.0 1.9840045315822665e-06 1.1531605276958902e-06 -9.823880604027002e-07 -1.7077246729318898e-07 1.0839361402084674e-06 0.0 0.0
0.0 8.739248407949267e-06 -2.7140115169053864e-07 2.4526361344247883e-07 2.6137538248021157e-08 -8.366547509212137e-06 0.0 0.0
0.0 8.051849796676997e-05 -5.998474168482794e-05 4.562194838773502e-05 1.436279329709308e-05 -0.00012207054669674766 0.0 0.0
0.0 0.0007599835092363682 -0.0005320207725972423 0.0004107294765482014 0.00012129129604904014 -0.0006950432417737611 0.0 0.0
0.0 0.0025822152298832697 -0.00205342882793605 0.001691887108334851 0.0003615417196011974 -0.002169509250494367 0.0 0.0
0.0 0.006148893302423884 -0.004897061593069047 0.004323745816966286 0.0005733157761027537 -0.004528973564323102 0.0 0.0
0.0 0.011437431070861368 -0.008953982558607777 0.008269980253446612 0.0006840023051611793 -0.007617854831428105 0.0 0.0
0.0 0.01733218995635631 -0.013942423583015132 0.013191537039126289 0.0007508865438888305 -0.01107091598107478 0.0 0.0
0.0 0.02418759661592488 -0.01961874931856113 0.018806435344903852 0.0008123139736572753 -0.014527027325826135 0.0 0.0
0.0 0.03179382335737894 -0.025894636965120697 0.02502175289555093 0.0008728840695697803 -0.017857442163220456 0.0 0.0
0.0 0.03999174401221448 -0.03274097468409752 0.03181509946211747 0.0009258752219800149 -0.021096316534812105 0.0 0.0
0.0 0.048815828814561105 -0.04004721327991276 0.039084239857825595 0.0009629734220872128 -0.02444437416498239 0.0 0.0
0.0 0.05775487524872444 -0.047502042142969436 0.04652546712331322 0.000976575019656162 -0.02828498484312292 0.0 0.0
0.0 0.06655083176546925 -0.05450651422511141 0.05354190836525997 0.000964605859851346 -0.033055176531014925 0.0 0.0
0.0 0.0736420219535671 -0.06005630619198011 0.05914647246903107 0.000909833722949025 -0.038627592346324194 0.0 0.0
0.0 0.07718508842353654 -0.06240184898500323 0.061612016160439376 0.0007898328245637774 -0.0435000175446127 0.0 0.0
0.0 0.0730137243292402 -0.05817333982090282 0.05770015890904646 0.00047318091185641125 -0.04483126012273343 0.0 0.0
0.0 0.07100567930800178 -0.05002493194253124 0.04574077116785641 0.004284160774674862 2.520379738246703e-14 0.0 0.0
0.0 0.07301372432924373 -0.05817333982089407 0.05770015890903888 0.00047318091185520866 0.04483126012279192 0.0 0.0
0.0 0.07718508842352827 -0.06240184898498696 0.06161201616042345 0.0007898328245634693 0.0435000175446726 0.0 0.0
0.0 0.07364202195353621 -0.060056306191949724 0.059146472469002155 0.0009098337229476126 0.03862759234635241 0.0 0.0
0.0 0.0665508317654165 -0.05450651422506676 0.05354190836521549 0.000964605859851309 0.03305517653100861 0.0 0.0
0.0 0.05775487524867112 -0.0475020421429247 0.046525467123269 0.0009765750196556696 0.028284984843102913 0.0 0.0
0.0 0.04881582881450875 -0.04004721327986902 0.039084239857782664 0.0009629734220863612 0.0244443741649611 0.0 0.0
0.0 0.03999174401216182 -0.032740974684052966 0.031815099462073455 0.0009258752219795116 0.02109631653479162 0.0 0.0
0.0 0.03179382335732548 -0.025894636965076368 0.025021752895506604 0.000872884069569746 0.017857442163199587 0.0 0.0
0.0 0.024187596615873025 -0.019618749318519483 0.018806435344862617 0.000812313973656856 0.014527027325797654 0.0 0.0
0.0 0.017332189956309602 -0.013942423582978375 0.01319153703908945 0.0007508865438889316 0.01107091598104383 0.0 0.0
0.0 0.011437431070826927 -0.008953982558580528 0.008269980253419762 0.0006840023051607597 0.007617854831405605 0.0 0.0
0.0 0.006148893302399923 -0.004897061593050268 0.00432374581694876 0.000573315776101506 0.004528973564308254 0.0 0.0
0.0 0.0025822152298694283 -0.0020534288279253476 0.0016918871083255174 0.0003615417195998313 0.0021695092504845958 0.0 0.0
0.0 0.0007599835092286993 -0.000532020772592252 0.00041072947654413903 0.00012129129604811274 0.0006950432417673475 0.0 0.0
0.0 8.051849796444254e-05 -5.9984741684057324e-05 4.562194838714144e-05 1.4362793296915833e-05 0.00012207054669555574 0.0 0.0
0.0 8.739248407983264e-06 -2.714011521608236e-07 2.452636138210045e-07 2.6137538339827458e-08 8.36654751056275e-06 0.0 0.0
0.0 1.9840045306746165e-06 1.1531605276284585e-06 -9.82388060346106e-07 -1.7077246728235165e-07 -1.083936139759996e-06 0.0 0.0
0.0 -7.68393684782257e-07 6.779193671930886e-07 -5.422906130718454e-07 -1.3562875412125024e-07 -3.7128604015608246e-06 0.0 0.0
0.0 1.5497580060563492e-07 -3.4618316234513805e-09 6.391926430296705e-09 -2.9300948068424348e-09 2.1642063051903916e-08 0.0 0.0
0.0 0.0 0.0 0.0 0.0 0.0 0.0 0.0
0.0 0.0 0.0 0.0 0.0 0.0 0.0 0.0
0.0 -1.2025212151614905e-07 -2.8111852206668733e-09 1.9303984439410896e-09 8.807867767261456e-10 -2.3879236813071873e-08 0.0 0.0
0.0 -6.218551781229489e-07 4.757007690413256e-07 -3.80649793585244e-07 -9.505097545608407e-08 1.9568730764510734e-06 0.0 0.0
0.0 -2.670487150500534e-06 8.953083129551631e-07 -7.648681020154735e-07 -1.3044021093968018e-07 6.414538507423752e-07 0.0 0.0
0.0 1.1268155682478888e-05 -4.084007445148727e-07 -2.2342893994970636e-07 6.318296844645886e-07 -2.0641029579777004e-06 0.0 0.0
0.0 0.000264695607450851 -0.00018087286211111855 0.00013571062149036835 4.516224062075002e-05 -0.0001989748287705043 0.0 0.0
0.0 0.0014029071605013207 -0.0011634591395530435 0.0009144346673848223 0.00024902447216822084 -0.001008849407295296 0.0 0.0
0.0 0.004252269956061579 -0.0035617301906862176 0.003028817506024386 0.0005329126846618302 -0.0027076732021663807 0.0 0.0
0.0 0.009435057627388362 -0.007580721953113243 0.006870620544909138 0.0007101014082041035 -0.005406225712125316 0.0 0.0
0.0 0.015638700615848863 -0.013076809497369696 0.012280686061852912 0.0007961234355167932 -0.008857716533310843 0.0 0.0
0.0 0.023734054546063955 -0.01970526982120418 0.018846635186990476 0.0008586346342137018 -0.01255460884727657 0.0 0.0
0.0 0.03275285512655608 -0.027251995777668635 0.026329372760581917 0.0009226230170866847 -0.016219875150209485 0.0 0.0
0.0 0.042670293465600126 -0.03561441302325427 0.03462465538800781 0.000989757635246472 -0.019738229768412958 0.0 0.0
0.0 0.05347787945477246 -0.044759054662845375 0.04370609203299136 0.0010529626298540163 -0.02314971482150718 0.0 0.0
0.0 0.06503127911829809 -0.05459538120258034 0.053494167323540974 0.0011012138790393543 -0.02668055470532522 0.0 0.0
0.0 0.0773548272276826 -0.06479651939820372 0.0636757907980631 0.001120728600140653 -0.030856445336851966 0.0 0.0
0.0 0.08877017538019297 -0.07459079228887494 0.07349336068258763 0.0010974316062872208 -0.036210454948067614 0.0 0.0
0.0 0.09878523368005675 -0.08250775967712995 0.08149459953138068 0.0010131601457492013 -0.04250910025849848 0.0 0.0
0.0 0.10383960468306669 -0.086039929601074 0.08520962075268888 0.0008303088483850643 -0.04808338206388766 0.0 0.0
0.0 0.0986373315602046 -0.08101249804032569 0.08053838477825785 0.0004741132620678499 -0.049879468634905284 0.0 0.0
0.0 0.09261464036841152 -0.0711762083885636 0.06627563617740775 0.004900572211155679 2.6884744430688556e-14 0.0 0.0
0.0 0.09863733156020038 -0.08101249804031203 0.08053838477824471 0.0004741132620673413 0.04987946863496562 0.0 0.0
0.0 0.10383960468304679 -0.08603992960104846 0.08520962075266408 0.0008303088483842312 0.04808338206394981 0.0 0.0
0.0 0.09878523368001318 -0.08250775967708882 0.08149459953133989 0.001013160145748746 0.04250910025853205 0.0 0.0
0.0 0.08877017538012777 -0.07459079228881901 0.07349336068253136 0.0010974316062876835 0.036210454948063964 0.0 0.0
0.0 0.0773548272276156 -0.06479651939814664 0.0636757907980064 0.0011207286001401772 0.0308564453368337 0.0 0.0
0.0 0.06503127911822981 -0.05459538120252218 0.053494167323483534 0.001101213879038701 0.026680554705302863 0.0 0.0
0.0 0.05347787945470603 -0.04475905466278859 0.04370609203293509 0.0010529626298534977 0.02314971482148556 0.0 0.0
0.0 0.04267029346553141 -0.03561441302319638 0.03462465538794987 0.0009897576352464912 0.019738229768390396 0.0 0.0
0.0 0.03275285512649223 -0.027251995777615313 0.02632937276052907 0.000922623017086251 0.016219875150180817 0.0 0.0
0.0 0.02373405454600778 -0.01970526982115784 0.01884663518694462 0.0008586346342132217 0.012554608847244787 0.0 0.0
0.0 0.015638700615803837 -0.013076809497332437 0.01228068606181587 0.0007961234355165733 0.008857716533284737 0.0 0.0
0.0 0.009435057627357397 -0.0075807219530887714 0.00687062054488554 0.0007101014082032319 0.005406225712109007 0.0 0.0
0.0 0.004252269956041502 -0.0035617301906704125 0.0030288175060098565 0.0005329126846605554 0.002707673202154398 0.0 0.0
0.0 0.0014029071604895185 -0.0011634591395442372 0.000914434667377602 0.0002490244721666346 0.0010088494072876292 0.0 0.0
0.0 0.0002646956074469464 -0.00018087286210883275 0.00013571062148866182 4.516224062017109e-05 0.00019897482876811334 0.0 0.0
0.0 1.1268155682053313e-05 -4.0840074506139404e-07 -2.2342893950877616e-07 6.318296845701666e-07 2.0641029590826337e-06 0.0 0.0
0.0 -2.6704871505768284e-06 8.953083126879547e-07 -7.648681018060667e-07 -1.3044021088186923e-07 -6.414538498347889e-07 0.0 0.0
0.0 -6.218551783309209e-07 4.757007690673283e-07 -3.8064979360756805e-07 -9.505097545976047e-08 -1.956873076558182e-06 0.0 0.0
0.0 -1.2025212151506954e-07 -2.8111852205958148e-09 1.930398443898689e-09 8.807867766964716e-10 2.387923681280424e-08 0.0 0.0
0.0 0.0 0.0 0.0 0.0 0.0 0.0 0.0
0.0 0.0 0.0 0.0 0.0 0.0 0.0 0.0
0.0 0.0 0.0 0.0 0.0 0.0 0.0 0.0
0.0 -4.90773434432715e-07 1.3903948626215092e-07 -1.0947816975484412e-07 -2.956131650730826e-08 4.535729873698533e-07 0.0 0.0
0.0 -4.661425462935657e-06 3.5931195057462355e-06 -2.912130735105769e-06 -6.8098877064044e-07 7.0585182389942885e-06 0.0 0.0
0.0 1.512390405603268e-05 -2.058718165484385e-05 1.4252537446970683e-05 6.334644207873088e-06 -2.06402184933625e-05 0.0 0.0
0.0 0.0005454347752907183 -0.000424198299586358 0.0003193834010132158 0.0001048148985731425 -0.000294878902159017 0.0 0.0
0.0 0.0023091119628454934 -0.0020064920050795344 0.001617913267623302 0.0003885787374562324 -0.0011938097629234712 0.0 0.0
0.0 0.0064331664145662265 -0.005304898085239477 0.004640200409172585 0.000664697676066895 -0.00300732691337263 0.0 0.0
0.0 0.01218745595473645 -0.010496382448511647 0.009689442039501258 0.0008069404090103858 -0.0058504560808221254 0.0 0.0
0.0 0.020465127567685967 -0.01734630044675153 0.016463332596635634 0.0008829678501159127 -0.009295321448889794 0.0 0.0
0.0 0.030233434874662367 -0.025591768735607073 0.024644125383637534 0.0009476433519695017 -0.012962279932455042 0.0 0.0
0.0 0.04134136648559284 -0.03500303547713783 0.033986142622950966 0.0010168928541868768 -0.01659366784990258 0.0 0.0
0.0 0.05363201140653863 -0.04544893356029875 0.04435851747659089 0.0010904160837076965 -0.02009151594242244 0.0 0.0
0.0 0.06712009049989105 -0.05688096233179935 0.05571843650251064 0.0011625258292888 -0.023487591342065284 0.0 0.0
0.0 0.08150767432766606 -0.06923035720162135 0.06800725833664033 0.0012230988649809744 -0.026964659834359094 0.0 0.0
0.0 0.09650766970309878 -0.08215503074098791 0.08090675807334671 0.0012482726676411545 -0.030999295542867126 0.0 0.0
0.0 0.11160131460706352 -0.0946793956658397 0.09346952354190478 0.0012098721239349277 -0.03622220592125182 0.0 0.0
0.0 0.12380478469843476 -0.10484760843976662 0.10376432570387067 0.001083282735895758 -0.04263871307110873 0.0 0.0
0.0 0.12958741000271407 -0.10940271911117279 0.10855629829313465 0.000846420818038104 -0.04884414346167907 0.0 0.0
0.0 0.12387148667420511 -0.1036294736087665 0.10315248876609769 0.0004769848426689146 -0.05281331119013085 0.0 0.0
0.0 0.11576674485837289 -0.0923803095986763 0.08694160443757382 0.0054387051611024815 2.7533531010703882e-14 0.0 0.0
0.0 0.12387148667419731 -0.1036294736087513 0.10315248876608221 0.00047698484266915143 0.052813311190193585 0.0 0.0
0.0 0.12958741000267926 -0.10940271911113632 0.10855629829309796 0.000846420818038406 0.04884414346174011 0.0 0.0
0.0 0.12380478469837806 -0.10484760843971451 0.10376432570381904 0.0010832827358954675 0.04263871307114253 0.0 0.0
0.0 0.11160131460698729 -0.09467939566577406 0.09346952354183832 0.001209872123935616 0.03622220592125107 0.0 0.0
0.0 0.09650766970301818 -0.08215503074091862 0.08090675807327763 0.001248272667640947 0.030999295542853023 0.0 0.0
0.0 0.0815076743275797 -0.06923035720154748 0.06800725833656666 0.0012230988649807987 0.026964659834339072 0.0 0.0
0.0 0.06712009049981348 -0.056880962331731934 0.055718436502444485 0.0011625258292874505 0.023487591342044874 0.0 0.0
0.0 0.05363201140645523 -0.045448933560227285 0.044358517476519504 0.0010904160837077364 0.020091515942401113 0.0 0.0
0.0 0.04134136648551748 -0.03500303547707408 0.033986142622887724 0.0010168928541863078 0.016593667849875288 0.0 0.0
0.0 0.030233434874596003 -0.025591768735551478 0.02464412538358242 0.0009476433519690645 0.012962279932424613 0.0 0.0
0.0 0.020465127567629773 -0.01734630044670464 0.01646333259658876 0.000882967850115864 0.00929532144886257 0.0 0.0
0.0 0.012187455954699255 -0.010496382448479157 0.009689442039469694 0.0008069404090094628 0.0058504560808045145 0.0 0.0
0.0 0.006433166414539152 -0.005304898085217781 0.0046402004091519716 0.0006646976760658102 0.0030073269133597813 0.0 0.0
0.0 0.0023091119628317826 -0.0020064920050684503 0.0016179132676138717 0.0003885787374545776 0.0011938097629162665 0.0 0.0
0.0 0.0005454347752855412 -0.00042419829958292117 0.00031938340101062674 0.00010481489857229451 0.000294878902156882 0.0 0.0
0.0 1.5123904055271797e-05 -2.058718165494109e-05 1.4252537447064776e-05 6.334644207876291e-06 2.0640218493807437e-05 0.0 0.0
0.0 -4.661425463307874e-06 3.5931195055246267e-06 -2.9121307349354945e-06 -6.809887705891273e-07 -7.0585182384274125e-06 0.0 0.0
0.0 -4.907734342587274e-07 1.3903948629301482e-07 -1.0947816977937096e-07 -2.9561316513642487e-08 -4.5357298746857395e-07 0.0 0.0
0.0 0.0 0.0 0.0 0.0 0.0 0.0 0.0
0.0 0.0 0.0 0.0 0.0 0.0 0.0 0.0
0.0 0.0 0.0 0.0 0.0 0.0 0.0 0.0
0.0 0.0 0.0 0.0 0.0 0.0 0.0 0.0
0.0 -1.9259891853480113e-07 -1.2438204119640457e-08 9.900711751953166e-09 2.537492367688598e-09 -3.208399983975565e-08 0.0 0.0
0.0 -6.181617474496496e-06 3.5249868842920514e-06 -2.901165644762416e-06 -6.238212395296645e-07 6.054300548255529e-06 0.0 0.0
0.0 7.85910479232966e-05 -5.736303878243432e-05 3.976230556322185e-05 1.7600733219212587e-05 -2.6239151164077967e-05 0.0 0.0
0.0 0.0008725980028681853 -0.0008184807193880393 0.0006238499065104336 0.00019463081287760515 -0.00037238707872549033 0.0 0.0
0.0 0.003609880024901987 -0.0030324216980629156 0.002514343423318497 0.0005180782747444176 -0.0012385830505186504 0.0 0.0
0.0 0.008258396125032437 -0.007252984505045474 0.00649012971832339 0.0007628547867220835 -0.003067008674504606 0.0 0.0
0.0 0.015615667769583163 -0.01352189562660557 0.012640231976310472 0.0008816636502950858 -0.005723185215330115 0.0 0.0
0.0 0.02523091748162993 -0.02170162865516309 0.020744538727187144 0.0009570899279759815 -0.008903362644618577 0.0 0.0
0.0 0.03680304559782085 -0.03154633298852961 0.03051903310420355 0.0010272998843260626 -0.012309151810075651 0.0 0.0
0.0 0.05003105673685206 -0.042815285106987 0.04171325772545441 0.001102027381532555 -0.015680916878217852 0.0 0.0
0.0 0.06477407989097685 -0.05534668556235698 0.05416588507249072 0.0011808004898662078 -0.01894603089674209 0.0 0.0
0.0 0.080540897680801 -0.06906003717052435 0.06779987314830986 0.0012601640222145009 -0.02214553934645002 0.0 0.0
0.0 0.09785867327282687 -0.08386026142218825 0.08253012992728306 0.0013301314949052687 -0.02534763649459211 0.0 0.0
0.0 0.11601480059159093 -0.09939725339700003 0.09803364353065741 0.0013636098663425411 -0.028803337748696617 0.0 0.0
0.0 0.13357479176285667 -0.11455699303600973 0.1132417565895254 0.0013152364464842604 -0.03316136254063174 0.0 0.0
0.0 0.14824437714110858 -0.12692972889623386 0.12578143711172324 0.0011482917845106484 -0.039052551949212415 0.0 0.0
0.0 0.15547035610931512 -0.1326228563061901 0.13176141278650563 0.0008614435196842937 -0.046241495609947995 0.0 0.0
0.0 0.14930971998747664 -0.12644290261099955 0.1259729872344557 0.0004699153765437847 -0.0541491123326605 0.0 0.0
0.0 0.13959825241821605 -0.11407150158074045 0.10816593828298783 0.0059055632977526844 2.6112792483878877e-14 0.0 0.0
0.0 0.14930971998746537 -0.1264429026109823 0.12597298723443903 0.00046991537654313055 0.0541491123327216 0.0 0.0
0.0 0.1554703561092676 -0.13262285630614423 0.13176141278645925 0.0008614435196848673 0.046241495610004034 0.0 0.0
0.0 0.14824437714104358 -0.12692972889617535 0.12578143711166587 0.001148291784509464 0.03905255194924396 0.0 0.0
0.0 0.13357479176277098 -0.1145569930359354 0.11324175658945085 0.0013152364464844688 0.03316136254063272 0.0 0.0
0.0 0.11601480059149767 -0.09939725339691907 0.09803364353057709 0.0013636098663419277 0.028803337748685633 0.0 0.0
0.0 0.09785867327272713 -0.08386026142210265 0.0825301299271975 0.001330131494905148 0.025347636494575873 0.0 0.0
0.0 0.08054089768070513 -0.0690600371704414 0.0677998731482279 0.001260164022213408 0.022145539346431875 0.0 0.0
0.0 0.0647740798908782 -0.055346685562271875 0.05416588507240555 0.0011808004898663056 0.01894603089672144 0.0 0.0
0.0 0.05003105673676189 -0.04281528510691021 0.041713257725377616 0.0011020273815326022 0.01568091687819169 0.0 0.0
0.0 0.03680304559774526 -0.03154633298846512 0.03051903310413949 0.0010272998843256793 0.012309151810047471 0.0 0.0
0.0 0.025230917481564027 -0.021701628655106872 0.020744538727130914 0.0009570899279759349 0.008903362644593543 0.0 0.0
0.0 0.01561566776953853 -0.01352189562656698 0.0126402319762725 0.0008816636502944759 0.005723185215313896 0.0 0.0
0.0 0.0082583961249998 -0.007252984505017547 0.006490129718296381 0.0007628547867211648 0.003067008674491568 0.0 0.0
0.0 0.0036098800248835746 -0.003032421698048058 0.0025143434233052694 0.0005180782747427907 0.0012385830505117041 0.0 0.0
0.0 0.0008725980028611718 -0.0008184807193826388 0.0006238499065061557 0.00019463081287648194 0.00037238707872302437 0.0 0.0
0.0 7.859104792136466e-05 -5.736303878169705e-05 3.9762305562704117e-05 1.7600733218992948e-05 2.6239151163804487e-05 0.0 0.0
0.0 -6.181617474515356e-06 3.5249868840934226e-06 -2.901165644608404e-06 -6.238212394850212e-07 -6.054300547991614e-06 0.0 0.0
0.0 -1.9259891850927365e-07 -1.243820411784055e-08 9.900711750511593e-09 2.5374923673294314e-09 3.208399983580417e-08 0.0 0.0
0.0 0.0 0.0 0.0 0.0 0.0 0.0 0.0
0.0 0.0 0.0 0.0 0.0 0.0 0.0 0.0
0.0 0.0 0.0 0.0 0.0 0.0 0.0 0.0
0.0 0.0 0.0 0.0 0.0 0.0 0.0 0.0
0.0 -7.18462332870173e-08 -5.322214849680892e-09 4.219826328331633e-09 1.102388521349622e-09 -1.0684932772376604e-08 0.0 0.0
0.0 -7.320446858608167e-06 5.203876392685459e-06 -4.343251219661306e-06 -8.606251730241445e-07 6.824423304404969e-06 0.0 0.0
0.0 0.0001847578091454341 -0.00015266724812540403 0.00010795187301330355 4.4715375112100664e-05 -3.722773185721273e-05 0.0 0.0
0.0 0.0014968670194979057 -0.0013215169460949183 0.0010258822903398957 0.0002956346557550232 -0.0003300719683120131 0.0 0.0
0.0 0.004804660924196425 -0.004242735078941103 0.003612828648149184 0.0006299064307919185 -0.0011530027746748841 0.0 0.0
0.0 0.010494391031065288 -0.009303638517661196 0.00846904510037717 0.000834593417284024 -0.0027633039709277353 0.0 0.0
0.0 0.01899271297679093 -0.016609791185464233 0.01566549477064881 0.0009442964148154183 -0.004993643949690704 0.0 0.0
0.0 0.0300824695534693 -0.026092455865715326 0.0250684978860648 0.0010239579796505127 -0.007701158238278673 0.0 0.0
0.0 0.043381023044143804 -0.037520221878241965 0.03641988325718494 0.0011003386210570027 -0.010610590796359846 0.0 0.0
0.0 0.05872306622940058 -0.050642415069664895 0.0494614325796119 0.0011809824900530183 -0.013495927649298396 0.0 0.0
0.0 0.0755763791593913 -0.06526725151186151 0.06400235439890675 0.0012648971129547645 -0.016309326654897597 0.0 0.0
0.0 0.09435349986135967 -0.08124623001957554 0.0798996734301967 0.0013465565893787566 -0.019106265296139558 0.0 0.0
0.0 0.11415698269137098 -0.098419548276718 0.09699915994202685 0.0014203883346911204 -0.021867710826594482 0.0 0.0
0.0 0.13477862240303698 -0.11638606625063334 0.11492092358138134 0.001465142669251998 -0.024504537507428086 0.0 0.0
0.0 0.15527174656672063 -0.13399402833655968 0.1325682659689245 0.0014257623676352214 -0.027351832082321743 0.0 0.0
0.0 0.17240838421506668 -0.148626649312812 0.14739415712763965 0.001232492185172307 -0.0318736200995751 0.0 0.0
0.0 0.18130690033796626 -0.15586091757611564 0.1549744491942839 0.0008864683818316102 -0.04022955713792994 0.0 0.0
0.0 0.1755518769428115 -0.14984737059440192 0.14940680194239864 0.0004405686520033767 -0.05363269442166012 0.0 0.0
0.0 0.1651520099238937 -0.13668504555304334 0.13039119622886097 0.006293849324182203 2.4287863387151276e-14 0.0 0.0
0.0 0.1755518769427909 -0.14984737059437833 0.1494068019423757 0.00044056865200268244 0.053632694421714054 0.0 0.0
0.0 0.18130690033790975 -0.15586091757606424 0.1549744491942316 0.0008864683818325696 0.04022955713797787 0.0 0.0
0.0 0.1724083842149859 -0.1486266493127414 0.14739415712756923 0.0012324921851721716 0.03187362009959879 0.0 0.0
0.0 0.15527174656662054 -0.13399402833647306 0.13256826596883775 0.0014257623676351531 0.027351832082323828 0.0 0.0
0.0 0.13477862240292846 -0.11638606625053936 0.11492092358128787 0.0014651426692515405 0.02450453750742025 0.0 0.0
0.0 0.11415698269126057 -0.09841954827662248 0.09699915994193206 0.0014203883346902838 0.02186771082658238 0.0 0.0
0.0 0.09435349986124322 -0.08124623001947483 0.07989967343009634 0.001346556589378517 0.019106265296123418 0.0 0.0
0.0 0.07557637915927887 -0.06526725151176506 0.0640023543988099 0.0012648971129552813 0.01630932665488006 0.0 0.0
0.0 0.05872306622929562 -0.050642415069574356 0.04946143257952128 0.0011809824900531087 0.013495927649275583 0.0 0.0
0.0 0.043381023044057054 -0.03752022187816713 0.0364198832571108 0.0011003386210563396 0.010610590796336004 0.0 0.0
0.0 0.03008246955339504 -0.02609245586565133 0.025068497886001247 0.0010239579796500768 0.007701158238257438 0.0 0.0
0.0 0.01899271297673841 -0.016609791185418627 0.015665494770603597 0.0009442964148150354 0.0049936439496762524 0.0 0.0
0.0 0.01049439103102579 -0.009303638517626472 0.008469045100343254 0.0008345934172832143 0.0027633039709157358 0.0 0.0
0.0 0.00480466092417415 -0.004242735078922081 0.0036128286481317126 0.0006299064307903634 0.0011530027746684858 0.0 0.0
0.0 0.0014968670194880594 -0.0013215169460869185 0.0010258822903334076 0.0002956346557535122 0.0003300719683097721 0.0 0.0
0.0 0.00018475780914308838 -0.0001526672481240424 0.00010795187301233495 4.4715375111707485e-05 3.722773185686705e-05 0.0 0.0
0.0 -7.320446858882732e-06 5.203876392179831e-06 -4.343251219274423e-06 -8.606251729053964e-07 -6.824423303930855e-06 0.0 0.0
0.0 -7.184623319621463e-08 -5.322214842869262e-09 4.219826322927047e-09 1.1023885199412321e-09 1.0684932758656047e-08 0.0 0.0
0.0 0.0 0.0 0.0 0.0 0.0 0.0 0.0
0.0 0.0 0.0 0.0 0.0 0.0 0.0 0.0
0.0 0.0 0.0 0.0 0.0 0.0 0.0 0.0
0.0 0.0 0.0 0.0 0.0 0.0 0.0 0.0
0.0 0.0 0.0 0.0 0.0 0.0 0.0 0.0
0.0 -8.541957353070454e-06 7.5683963399847145e-06 -6.607156660967496e-06 -9.612396790172475e-07 8.028734708531054e-06 0.0 0.0
0.0 0.0003353859268639532 -0.0003289703622385 0.00023572027292104457 9.325008931745555e-05 -1.5192546947609604e-05 0.0 0.0
0.0 0.002277147651678697 -0.001972314648417797 0.0015686909173032778 0.00040362373111451825 -0.00019924530102464487 0.0 0.0
0.0 0.0060683070812126445 -0.005573698094478509 0.00485804150053635 0.0007156565939421547 -0.0008754328697598942 0.0 0.0
0.0 0.012836429700182818 -0.011410955864025022 0.010518123378357556 0.0008928324856674839 -0.0020385818747008814 0.0 0.0
0.0 0.022415336802311392 -0.019719567620013822 0.018719524667546287 0.0010000429524675274 -0.003683578661136357 0.0 0.0
0.0 0.03492921363044956 -0.030475297525193415 0.029389781899393782 0.0010855156257996356 -0.005694971717199426 0.0 0.0
0.0 0.05003874095667327 -0.04346819797923341 0.042299664415671075 0.0011685335635623064 -0.007872493081791247 0.0 0.0
0.0 0.06732466488537417 -0.05843886219922228 0.05718409530380493 0.0012547668954172976 -0.010041479671374389 0.0 0.0
0.0 0.08686834689024778 -0.07515524269183921 0.07381254608835158 0.0013426966034876674 -0.01218008079568828 0.0 0.0
0.0 0.10772157112654376 -0.09340379306416341 0.09197741947152782 0.001426373592635568 -0.014357487693836176 0.0 0.0
0.0 0.1302648618248449 -0.11287663150124663 0.11137969928194187 0.0014969322193047305 -0.016494340697755388 0.0 0.0
0.0 0.15358678810597742 -0.1330399088854237 0.13149884240477855 0.0015410664806451866 -0.018270429601234612 0.0 0.0
0.0 0.17642230852679006 -0.15279020403928453 0.15126011221689728 0.0015300918223873018 -0.019519896062579044 0.0 0.0
0.0 0.19602830985985964 -0.169713829550068 0.16833321322463243 0.0013806163254356432 -0.02171854341947728 0.0 0.0
0.0 0.20732702070337378 -0.17916646761004565 0.17821059913546178 0.0009558684745837331 -0.02979537962996819 0.0 0.0
0.0 0.2029482969977993 -0.1742847214631727 0.17392723940981358 0.00035748205335904044 -0.05016893754186623 0.0 0.0
0.0 0.19260734224923437 -0.1608214527114526 0.15424800462008179 0.00657344809137079 1.7170292965218437e-14 0.0 0.0
0.0 0.20294829699777137 -0.17428472146314508 0.17392723940978633 0.0003574820533586014 0.05016893754190832 0.0 0.0
0.0 0.20732702070329898 -0.17916646760998045 0.17821059913539392 0.0009558684745867476 0.02979537963000746 0.0 0.0
0.0 0.19602830985976913 -0.1697138295499896 0.16833321322455483 0.0013806163254346474 0.021718543419495747 0.0 0.0
0.0 0.17642230852667098 -0.15279020403918198 0.15126011221679442 0.0015300918223879606 0.019519896062579596 0.0 0.0
0.0 0.1535867881058537 -0.13303990888531675 0.13149884240467155 0.0015410664806452536 0.018270429601229526 0.0 0.0
0.0 0.1302648618247174 -0.11287663150113654 0.11137969928183189 0.0014969322193047294 0.01649434069774867 0.0 0.0
0.0 0.10772157112641684 -0.09340379306405344 0.09197741947141874 0.0014263735926347207 0.014357487693825045 0.0 0.0
0.0 0.08686834689012496 -0.07515524269173299 0.07381254608824533 0.0013426966034874933 0.012180080795677499 0.0 0.0
0.0 0.06732466488525823 -0.05843886219912234 0.05718409530370533 0.0012547668954169667 0.010041479671358596 0.0 0.0
0.0 0.05003874095657558 -0.043468197979148415 0.04229966441558645 0.0011685335635618994 0.007872493081772954 0.0 0.0
0.0 0.03492921363036882 -0.03047529752512262 0.029389781899324043 0.0010855156257985666 0.005694971717182804 0.0 0.0
0.0 0.022415336802252588 -0.0197195676199621 0.01871952466749526 0.0010000429524668476 0.003683578661126242 0.0 0.0
0.0 0.01283642970013815 -0.011410955863985512 0.010518123378318957 0.0008928324856665482 0.0020385818746922676 0.0 0.0
0.0 0.006068307081188239 -0.005573698094456509 0.004858041500515777 0.0007156565939407434 0.0008754328697551144 0.0 0.0
0.0 0.0022771476516668635 -0.0019723146484076455 0.0015686909172947226 0.00040362373111292 0.00019924530102288394 0.0 0.0
0.0 0.00033538592686040684 -0.00032897036223608465 0.00023572027291928274 9.325008931680165e-05 1.519254694760047e-05 0.0 0.0
0.0 -8.541957353025177e-06 7.56839633961697e-06 -6.6071566606817615e-06 -9.612396789352505e-07 -8.028734708342992e-06 0.0 0.0
0.0 0.0 0.0 0.0 0.0 0.0 0.0 0.0
0.0 0.0 0.0 0.0 0.0 0.0 0.0 0.0
0.0 0.0 0.0 0.0 0.0 0.0 0.0 0.0
0.0 0.0 0.0 0.0 0.0 0.0 0.0 0.0
0.0 0.0 0.0 0.0 0.0 0.0 0.0 0.0
0.0 0.0 0.0 0.0 0.0 0.0 0.0 0.0
0.0 3.4690130273633815e-06 -5.761323298170056e-06 1.975668305984636e-06 3.7856549921854225e-06 9.675400817766852e-06 0.0 0.0
0.0 0.000671350247671331 -0.0005842120408516468 0.0004260252274217309 0.00015818681342991643 7.46026964842745e-05 0.0 0.0
0.0 0.0030638578542649766 -0.002756179043485665 0.0022504158671850685 0.0005057631763005934 3.625305768091822e-05 0.0 0.0
0.0 0.007665995944468315 -0.006962516067558263 0.0061829606865750255 0.0007795553809832399 -0.0003204564365225363 0.0 0.0
0.0 0.015208026176284925 -0.013542034319042748 0.012600726962148381 0.0009413073568943536 -0.0009320161503087309 0.0 0.0
0.0 0.02591699165926416 -0.022809702690002213 0.021759239019684747 0.001050463670317471 -0.0017999643025176767 0.0 0.0
0.0 0.03976516060946543 -0.034806553141355334 0.03366312531609463 0.001143427825260658 -0.0028885494257592983 0.0 0.0
0.0 0.05659880128921469 -0.049347428117063115 0.04811487731861875 0.0012325507984443948 -0.004088543813696873 0.0 0.0
0.0 0.076194953657546 -0.06615954292272616 0.06483599598533818 0.0013235469373879972 -0.005312394539159577 0.0 0.0
0.0 0.09764861852895819 -0.08497172630419686 0.08355588262979406 0.0014158436744027363 -0.006569477773228297 0.0 0.0
0.0 0.12134021192248277 -0.1054684113590981 0.10396773819607914 0.0015006731630188448 -0.007871456954854443 0.0 0.0
0.0 0.14644688569732284 -0.1271956210822464 0.12563082348731053 0.0015647975949360008 -0.0091355205824792 0.0 0.0
0.0 0.1721339994447898 -0.14940888250057088 0.14781253181579368 0.0015963506847769256 -0.010097092075945367 0.0 0.0
0.0 0.19702168082803612 -0.17091563192544634 0.16932365356439544 0.0015919783610512015 -0.010351625743420113 0.0 0.0
0.0 0.21880421006392214 -0.18974963989163587 0.18820646077527586 0.0015431791163599948 -0.010361320662397608 0.0 0.0
0.0 0.23314377230965921 -0.20210360946005518 0.20083347675642865 0.0012701327036263419 -0.014906349605193818 0.0 0.0
0.0 0.23203029031368266 -0.20031306819291786 0.20004521566808095 0.0002678525248366303 -0.03797040827610152 0.0 0.0
0.0 0.22331467805143146 -0.18773327230727344 0.18131748740367098 0.006415784903602413 1.0135989270132484e-14 0.0 0.0
0.0 0.23203029031365052 -0.20031306819288733 0.20004521566805206 0.0002678525248352054 0.03797040827612608 0.0 0.0
0.0 0.23314377230957337 -0.20210360945998115 0.2008334767563534 0.0012701327036277398 0.014906349605215807 0.0 0.0
0.0 0.2188042100638181 -0.18974963989154559 0.18820646077518646 0.0015431791163591088 0.010361320662405794 0.0 0.0
0.0 0.19702168082790442 -0.17091563192533302 0.16932365356428142 0.0015919783610515996 0.010351625743419584 0.0 0.0
0.0 0.17213399944465702 -0.14940888250045498 0.1478125318156789 0.0015963506847758446 0.0100970920759425 0.0 0.0
0.0 0.14644688569718078 -0.12719562108212357 0.12563082348718801 0.0015647975949356551 0.009135520582476188 0.0 0.0
0.0 0.12134021192234495 -0.10546841135897862 0.10396773819596035 0.0015006731630181395 0.007871456954850371 0.0 0.0
0.0 0.09764861852881904 -0.0849717263040764 0.08355588262967387 0.001415843674402569 0.006569477773221448 0.0 0.0
0.0 0.07619495365741659 -0.06615954292261442 0.06483599598522642 0.0013235469373880043 0.0053123945391508574 0.0 0.0
0.0 0.05659880128910708 -0.04934742811696997 0.04811487731852604 0.0012325507984439676 0.0040885438136861975 0.0 0.0
0.0 0.03976516060937593 -0.03480655314127702 0.033663125316017124 0.0011434278252599123 0.0028885494257494936 0.0 0.0
0.0 0.025916991659198453 -0.02280970268994432 0.021759239019627438 0.0010504636703168831 0.0017999643025125179 0.0 0.0
0.0 0.015208026176238214 -0.013542034319001191 0.012600726962107745 0.0009413073568934432 0.0009320161503045544 0.0 0.0
0.0 0.007665995944439067 -0.006962516067531869 0.006182960686549721 0.0007795553809821399 0.0003204564365197149 0.0 0.0
0.0 0.003063857854250616 -0.002756179043473078 0.002250415867173997 0.0005057631762990815 -3.62530576815562e-05 0.0 0.0
0.0 0.0006713502476653335 -0.0005842120408469408 0.00042602522741814374 0.0001581868134287965 -7.460269648401634e-05 0.0 0.0
0.0 3.4690130270644195e-06 -5.761323298343193e-06 1.975668306151881e-06 3.7856549921914187e-06 -9.6754008176185e-06 0.0 0.0
0.0 0.0 0.0 0.0 0.0 0.0 0.0 0.0
0.0 0.0 0.0 0.0 0.0 0.0 0.0 0.0
0.0 0.0 0.0 0.0 0.0 0.0 0.0 0.0
0.0 0.0 0.0 0.0 0.0 0.0 0.0 0.0
0.0 0.0 0.0 0.0 0.0 0.0 0.0 0.0
0.0 0.0 0.0 0.0 0.0 0.0 0.0 0.0
0.0 5.532341720089671e-05 -5.39926470794361e-05 3.532103775751406e-05 1.867160932192211e-05 2.0977923416496628e-05 0.0 0.0
0.0 0.0010653484078998877 -0.0008833385317373212 0.0006396579905962919 0.0002436805411410286 0.00020742156439721804 0.0 0.0
0.0 0.0038391848950834343 -0.0034579870819356835 0.002792571049164811 0.0006654160327708717 0.00044612449649025993 0.0 0.0
0.0 0.008918164768572908 -0.008140710632625447 0.007129593128333906 0.0010111175042915536 0.0005814438712669601 0.0 0.0
0.0 0.01706242656942452 -0.015305462760272597 0.014022977982945967 0.0012824847773266327 0.0006356958859187755 0.0 0.0
0.0 0.028508776330125846 -0.025339243233308315 0.02379558063975062 0.001543662593557675 0.0005949263534025286 0.0 0.0
0.0 0.043441182103949025 -0.03834330097782286 0.03650528302062358 0.001838017957199224 0.00041041928546455865 0.0 0.0
0.0 0.06166833126559719 -0.05416227158926484 0.05197854763865295 0.002183723950611875 0.00011861219297591534 0.0 0.0
0.0 0.08253002252161239 -0.07251185331559867 0.06992909229891575 0.0025827610166828585 -0.00026539114114674037 0.0 0.0
0.0 0.10599941267305807 -0.09305577658821229 0.09003565829997222 0.0030201182882400503 -0.0007635252492386438 0.0 0.0
0.0 0.13157383745481308 -0.1154052457540447 0.11193308271559643 0.0034721630384483876 -0.0013447312707090906 0.0 0.0
0.0 0.158611592735351 -0.13899324031721724 0.13509047094558654 0.0039027693716305496 -0.002003935066588124 0.0 0.0
0.0 0.1860940666828263 -0.16288857443936883 0.1586247298406905 0.004263844598678417 -0.002601639764314871 0.0 0.0
0.0 0.21236819822822794 -0.18568200484589426 0.18117940398479632 0.004502600861097687 -0.002818907404225489 0.0 0.0
0.0 0.23522247104364352 -0.205502163760239 0.2008952428124449 0.0046069209477938985 -0.002530606100938502 0.0 0.0
0.0 0.25155836399882714 -0.21990606967083115 0.21515193386402018 0.004754135806810992 -0.005203106491329799 0.0 0.0
0.0 0.25495854383457095 -0.22338569885798598 0.2184038311243712 0.004981867733614865 -0.029309635670992013 0.0 0.0
0.0 0.2510648004686642 -0.21429011708924955 0.2020924660882189 0.01219765100103009 5.037636974236648e-15 0.0 0.0
0.0 0.25495854383453453 -0.22338569885795276 0.21840383112434109 0.004981867733611511 0.029309635670999895 0.0 0.0
0.0 0.25155836399874165 -0.2199060696707562 0.21515193386394743 0.004754135806808436 0.005203106491336262 0.0 0.0
0.0 0.23522247104352192 -0.20550216376013342 0.2008952428123411 0.004606920947792503 0.0025306061009383214 0.0 0.0
0.0 0.21236819822809017 -0.18568200484577368 0.18117940398467797 0.004502600861095496 0.002818907404223043 0.0 0.0
0.0 0.18609406668268402 -0.16288857443924426 0.15862472984056925 0.004263844598674514 0.002601639764314264 0.0 0.0
0.0 0.15861159273520486 -0.138993240317089 0.13509047094546162 0.0039027693716272003 0.002003935066585121 0.0 0.0
0.0 0.13157383745466317 -0.11540524575391402 0.1119330827154677 0.0034721630384462166 0.0013447312707055414 0.0 0.0
0.0 0.10599941267290527 -0.09305577658807934 0.09003565829984092 0.003020118288238416 0.0007635252492347294 0.0 0.0
0.0 0.08253002252147232 -0.07251185331547697 0.06992909229879557 0.002582761016681269 0.00026539114114292224 0.0 0.0
0.0 0.061668331265482726 -0.05416227158916484 0.051978547638554896 0.0021837239506099556 -0.00011861219297955219 0.0 0.0
0.0 0.04344118210385192 -0.03834330097773825 0.036505283020540645 0.0018380179571975451 -0.00041041928546766034 0.0 0.0
0.0 0.0285087763300529 -0.0253392432332442 0.023795580639688035 0.0015436625935561512 -0.0005949263534040499 0.0 0.0
0.0 0.017062426569375743 -0.01530546276022902 0.014022977982903808 0.0012824847773251977 -0.0006356958859184626 0.0 0.0
0.0 0.00891816476853929 -0.008140710632594923 0.007129593128305042 0.001011117504289876 -0.0005814438712661305 0.0 0.0
0.0 0.003839184895067756 -0.003457987081921054 0.002792571049151997 0.0006654160327690568 -0.00044612449648878173 0.0 0.0
0.0 0.0010653484078920953 -0.0008833385317308463 0.0006396579905914147 0.00024368054113943415 -0.00020742156439605095 0.0 0.0
0.0 5.532341720037711e-05 -5.3992647079119136e-05 3.5321037757343025e-05 1.867160932177608e-05 -2.097792341624561e-05 0.0 0.0
0.0 0.0 0.0 0.0 0.0 0.0 0.0 0.0
0.0 0.0 0.0 0.0 0.0 0.0 0.0 0.0
0.0 0.0 0.0 0.0 0.0 0.0 0.0 0.0
SCALARS Wm float 4
LOOKUP_TABLE default
14.374795410002847 2.089794915640226 6.198501604365311 6.086498889997301
7.549994400524837 3.555013773799824 1.8243674420072165 2.1706131847177996
0.8747424964283981 0.7719578895076613 0.02260741770257236 0.08017718921816472
0.6230863811678865 0.560816752855422 0.017553145755544078 0.0447164825569204
1.3969295849758487 0.8893131540944751 0.18697436504013293 0.32064206584123967
3.2262409880438376 1.3580803363168052 0.7356589928319939 1.1325016588950394
6.887510948857327 2.0220886306855412 2.197526945628064 2.667895372543719
12.944562184732792 2.911662799923172 4.927490322358257 5.105409062451367
22.010066459441003 4.096266574054964 9.370178213337491 8.543621672048538
34.47650751848576 5.594083709827549 15.870575775380708 13.011848033277507
50.45034337967958 7.391371954935268 24.601928606991997 18.45704281775233
69.70490975055402 9.45612748343606 35.46550650975331 24.78327575736466
92.17914146815296 11.740019253226093 48.55724975554311 31.88187245938376
117.5521282313457 14.184582568569246 63.728081167313775 39.63946449546271
145.23847476403586 16.592683731673866 80.74802074281126 47.89777028955071
174.24939469528584 18.657442898920696 99.17059132591727 56.42136047044776
203.08828676962315 20.050954740404375 118.1453718197216 64.8919602094972
229.93907943868035 20.570199614365478 136.5271748987343 72.84170492558034
252.9883216840664 20.36531785094747 152.88405481392869 79.7389490191905
269.1558128221071 18.957340161936404 165.26092164655284 84.93755101361768
274.1798049801131 16.20904993611145 170.7207364999249 87.25001854407685
269.1558128220946 18.957340161967313 165.2609216465216 84.93755101360567
252.98832168401245 20.365317850977284 152.88405481386962 79.73894901916552
229.93907943854873 20.57019961434427 136.52717489865717 72.8417049255472
203.08828676946627 20.050954740379236 118.14537181962997 64.89196020945698
174.24939469515752 18.6574428989364 99.17059132581844 56.42136047040276
145.23847476388016 16.592683731650247 80.74802074272209 47.89777028950783
117.55212823121107 14.184582568566395 63.728081167225945 39.639464495418736
92.17914146800769 11.74001925319846 48.557249755465996 31.881872459343228
69.70490975043151 9.456127483424591 35.465506509682086 24.78327575732487
50.45034337958178 7.391371954925881 24.601928606936713 18.457042817719156
34.476507518410465 5.5940837098188245 15.870575775340532 13.01184803325112
22.01006645938561 4.096266574045686 9.370178213310876 8.543621672029053
12.944562184694318 2.9116627999153146 4.927490322341636 5.105409062437369
6.887510948833984 2.0220886306780588 2.1975269456201643 2.6678953725357615
3.226240988032714 1.3580803363132334 0.7356589928289055 1.1325016588905716
1.3969295849714665 0.8893131540923103 0.18697436503922799 0.3206420658399287
0.6230863811669572 0.5608167528542793 0.01755314575558823 0.04471648255708961
0.8747424964272301 0.7719578895071098 0.022607417702352788 0.08017718921776633
7.549994400519071 3.5550137738009493 1.824367442003778 2.170613184714343
14.37479540997296 2.089794915625087 6.198501604357078 6.086498889990807
17.37725180775207 7.464868692385812 4.866757320409902 5.045625794956365
3.2023860545708356 0.7051571353730905 1.0764125555863842 1.4208163636113589
0.3041446744903188 0.36099654816883747 -0.020726804174144204 -0.036125069504374586
0.4751227352510311 0.4506027649943727 0.0052933070735429605 0.019226663183115483
1.0430860019341084 0.7182177059646448 0.1060773270602941 0.21879096890916988
2.566681149306182 1.0855465220217817 0.5833254027540518 0.8978092245303481
5.650759216706257 1.5366162014633864 1.8162971014556644 2.2978459137872065
10.946831527508126 2.122975860748211 4.270099040274808 4.5537566264851055
18.909502239732348 2.843019256854978 8.310420216800534 7.756062766076838
29.794221128517798 3.677027376515562 14.20386246780747 11.913331284194765
43.66364653769208 4.596886447646043 22.10195501497448 16.96480507507156
60.49361416377315 5.6024764870456805 32.075177852553665 22.815959824173824
79.8940398016609 6.688565002208469 43.82711485410637 29.378359945346094
101.94439285128661 7.803273365063563 57.590766936759266 36.55035254946377
126.08648354872871 8.86396077468721 73.01958864896213 44.20293412507948
151.56050980679288 9.71625037819284 89.72142634363632 52.122833084963645
177.19550954037203 10.185884384224416 107.02282545555062 59.98679970059696
201.43075546310544 10.158853272238998 123.87184862119369 67.40005356967274
222.18816561877392 9.506103545615309 138.8485080734049 73.83355399975368
236.8636184416282 8.349700942748084 149.99291862829776 78.52099887058237
242.59169671369247 7.032402770494917 154.97195866552877 80.58733527766887
236.86361844159563 8.349700942755929 149.9929186282693 78.52099887057038
222.18816561870347 9.506103545619235 138.8485080733529 73.83355399973144
201.43075546302606 10.15885327226346 123.8718486211213 67.40005356964144
177.1955095402452 10.185884384215214 107.02282545546932 59.98679970056059
151.56050980665302 9.716250378179144 89.72142634354991 52.12283308492391
126.08648354860445 8.86396077468505 73.0195886488799 44.202934125039526
101.94439285116195 7.803273365057745 57.59076693668038 36.55035254942381
79.89403980155282 6.688565002210891 43.827114854034505 29.37835994530738
60.493614163666464 5.602476487039022 32.07517785249007 22.81595982413737
43.663646537604215 4.596886447639486 22.101955014924165 16.96480507504056
29.79422112845442 3.6770273765146992 14.203862467770106 11.913331284169622
18.909502239686283 2.843019256850756 8.310420216776755 7.756062766058763
10.946831527475657 2.1229758607435567 4.270099040259926 4.553756626472175
5.6507592166873035 1.536616201459459 1.8162971014483165 2.2978459137795237
2.5666811492973705 1.0855465220208327 0.5833254027505411 0.8978092245259972
1.0430860019309416 0.7182177059629667 0.10607732705971742 0.2187909689082576
0.4751227352504248 0.45060276499361873 0.005293307073558576 0.019226663183247585
0.30414467448999305 0.3609965481683677 -0.020726804174088446 -0.03612506950428593
3.2023860545628704 0.7051571353716344 1.076412555583189 1.4208163636080484
17.377251807723436 7.464868692373149 4.866757320401201 5.045625794949069
13.282563239446521 5.999932963320977 3.440954819824883 3.8416754563006545
2.0186370635828608 0.31906591737687906 0.7217120638031668 0.9778590824028164
0.1865342942951708 0.1860043402562088 0.0001410945046932121 0.0003888595342687825
0.34709515757372184 0.3468986275822895 -0.00048711475569392597 0.0006836447471263057
0.78009456805091 0.6179428071969593 0.04597830309374634 0.11617345776020455
1.9989467205630782 0.9698907195414573 0.39055752959020945 0.6384984714314123
4.595306342521829 1.3972240346766538 1.361985591950299 1.8360967158948762
9.216354606835385 1.9282993180199712 3.4474523403082507 3.840602948507162
16.211872874463275 2.5587675614723406 6.932061506432307 6.721043806558627
25.80387964455261 3.2712463329366743 12.071449918365241 10.461183393250689
37.97816872161069 4.055662775584351 18.935055711072813 14.987450234953545
52.615673889410225 4.916878844659331 27.485195899539107 20.213599145211763
69.76473557129128 5.864582404495406 37.842775457600226 26.057377709195677
88.94990344804343 6.872055762584435 49.62527006298985 32.452577622469086
110.15378810532226 7.8593355842548425 63.01243801863225 39.28201450243518
132.63970829531235 8.7192009548639 77.54133589051894 46.379171449929515
155.42644081931456 9.293007274255094 92.64416017914998 53.48927336590952
177.04543502237405 9.386816413174778 107.44934508039358 60.20927352880574
195.50709764318555 8.86020184947583 120.6284983435089 66.01839745020082
208.54783281494733 7.98647513420254 130.35564695024362 70.2057107305012
213.35254337132662 6.279219031661676 134.91096487732045 72.16235946234448
208.54783281490646 7.9864751341936895 130.3556469502215 70.2057107304912
195.50709764313146 8.860201849485819 120.6284983434646 66.01839745018106
177.04543502229023 9.386816413183583 107.44934508032964 60.20927352877699
155.42644081920497 9.293007274245719 92.6441601790815 53.48927336587769
132.63970829521367 8.719200954872496 77.54133589044639 46.37917144989479
110.15378810521344 7.859335584256512 63.01243801855833 39.2820145023986
88.9499034479369 6.872055762581495 49.62527006292183 32.452577622433495
69.76473557118774 5.864582404488751 37.84277545753792 26.057377709161116
52.61567388931867 4.916878844653465 27.485195899485205 20.213599145180034
37.97816872153481 4.055662775580233 18.935055711029054 14.987450234925518
25.803879644493882 3.271246332932854 12.07144991833296 10.46118339322806
16.211872874421502 2.558767561468749 6.932061506410925 6.721043806541826
9.216354606807021 1.928299318016473 3.447452340295176 3.8406029484953743
4.595306342506224 1.397224034673428 1.3619855919445019 1.8360967158882935
1.9989467205554199 0.9698907195399171 0.39055752958758083 0.638498471427922
0.7800945680491264 0.6179428071959235 0.04597830309346893 0.11617345775973403
0.34709515757367176 0.34689862758219076 -0.00048711475568670253 0.0006836447471677759
0.18653429429511306 0.1860043402561771 0.00014109450469000883 0.0003888595342459918
2.018637063576678 0.31906591737582174 0.7217120638007328 0.9778590824001219
13.282563239417952 5.99993296330882 3.4409548198162447 3.84167545629289
10.117939089403388 4.688149629472172 2.473882069108674 2.955907390822544
1.37283822391526 0.14396562180719688 0.4968621429111341 0.7320104591969275
0.1297827799314131 0.1297827799314131 0.0 0.0
0.2559198653133322 0.25861588024827137 -0.0005005508111416594 -0.002195464123797428
0.5769201822655532 0.5187540001421047 0.013699591753483991 0.04446659036996463
1.4896870576254022 0.840413921916059 0.22614657908986016 0.4231265566194833
3.6502218242943156 1.2578209406042744 0.9923451285938071 1.400055755096233
7.555699951046867 1.7317565443276994 2.680235886701103 3.1437075200180677
13.602132332349242 2.279208594691599 5.630109243299122 5.692814494358523
21.900869568417082 2.8833983028804604 10.00833479962799 9.00913646590862
32.38667709373966 3.5437396520680147 15.833626370332478 13.009311071339164
45.03948604932166 4.281434486018442 23.149844221837114 17.608207341466105
59.65466644276819 5.101931623206579 31.810871702403233 22.74186311715836
76.36683095117718 5.993782439114894 42.02476690271679 28.348281609345513
94.63764972743719 6.920963274657445 53.35948290185634 34.35720355092338
114.11045051188513 7.789037743739827 65.68851580650403 40.63289696164122
134.14415037763277 8.448705156898924 78.74187990848058 46.95356531225333
153.27899315852162 8.690627328672592 91.59499958613556 52.99336624371345
169.73341189612802 8.379957817712254 103.09125184027482 58.26220223814092
181.51733436248213 7.67293216051546 111.70946956560847 62.13493263635828
185.87998674882107 5.638778843129516 116.15854064091698 64.08266726477456
181.5173343624829 7.672932160544993 111.7094695655883 62.134932636349546
169.73341189606063 8.379957817696672 103.09125184023907 58.26220223812487
153.27899315844041 8.690627328667633 91.59499958608319 52.99336624368961
134.14415037755262 8.448705156906117 78.7418799084216 46.953565312224896
114.11045051178718 7.789037743735808 65.68851580644102 40.63289696161034
94.63764972733755 6.920963274653863 53.359482901793186 34.357203550890446
76.36683095107796 5.993782439102288 42.024766902660645 28.34828160931505
59.6546664426867 5.101931623207039 31.810871702351065 22.74186311712857
45.03948604924487 4.281434486014547 23.149844221792005 17.60820734143832
32.38667709367057 3.5437396520587763 15.833626370296493 13.009311071315325
21.90086956836871 2.8833983028782915 10.008334799601213 9.009136465889192
13.602132332311335 2.2792085946880607 5.630109243280196 5.692814494343081
7.555699951023968 1.731756544327251 2.6802358866897618 3.143707520006951
3.6502218242820264 1.257820940602711 0.992345128588731 1.400055755090586
1.4896870576195789 0.8404139219136786 0.22614657908843586 0.42312655661746496
0.5769201822640668 0.5187540001410932 0.013699591753303934 0.04446659036966925
0.2559198653132048 0.2586158802481464 -0.0005005508111387831 -0.002195464123802796
0.12978277993127793 0.12978277993127793 0.0 0.0
1.3728382239102412 0.14396562180672492 0.49686214290899733 0.7320104591945189
10.117939089379945 4.688149629462582 2.473882069101776 2.9559073908155944
7.599746124453227 3.6365044327535037 1.725076368777512 2.2381653229222174
1.0063895612851441 0.1229705172620523 0.36015597233632546 0.5232630716867657
0.11795454744818662 0.11795454744818662 0.0 0.0
0.20410907774584902 0.20439562579232312 -2.7346766650153807e-05 -0.00025920127982394334
0.42525646929789623 0.4208211642467159 -0.0015861056795102722 0.006021410730690789
1.0833209819267562 0.7201211979352716 0.11559790304759887 0.24760188094388533
2.784064528927682 1.0987590022049456 0.6793208865416107 1.0059846401811263
5.990193200420146 1.53667576746363 1.9824596232078688 2.4710578097486486
11.085197627223076 2.0056644351913935 4.402148457935481 4.677384734096201
18.104198310463502 2.513010525114263 8.02771407212304 7.563473713226201
26.980429481005324 3.0661600381656227 12.880677322571112 11.033592120268585
37.62800760178019 3.6877987091659294 18.93589732821933 15.004311564394932
50.02122384446497 4.398631428194688 26.19933778735135 19.42325462891894
63.92266383757359 5.191843458280263 34.47796209716846 24.25285828212484
79.44847974006619 6.036901859719957 43.979772720633754 29.431805159712486
96.16030546478792 6.898450195693383 54.39310502568566 34.868750243408854
113.33775660074073 7.649049287115167 65.28190299114175 40.40680432248381
130.0800611261597 8.075841306445444 76.24702694119264 45.75719287852159
144.76555566687995 7.98958701800808 86.26745637044881 50.50851227842317
155.6394957106925 7.4322684679567645 94.07408337720457 54.133143865531025
159.76456433709794 5.051299377793494 98.53525086133259 56.178014097971804
155.6394957106778 7.4322684679732705 94.07408337718354 54.13314386552094
144.76555566684567 7.989587018014546 86.26745637042116 50.50851227841001
130.08006112609237 8.075841306439244 76.2470269411517 45.757192878501414
113.33775660066735 7.649049287118994 65.2819029910899 40.406804322458505
96.16030546470992 6.898450195693822 54.39310502563394 34.86875024338214
79.44847973997727 6.036901859709581 43.9797727205826 29.4318051596851
63.92266383750429 5.191843458282947 34.4779620971224 24.252858282098927
50.0212238443974 4.3986314281991055 26.199337787306273 19.42325462889202
37.62800760171227 3.6877987091575193 18.935897328183017 15.004311564371733
26.98042948095628 3.066160038167926 12.880677322540775 11.033592120247583
18.10419831042072 2.513010525111538 8.027714072100244 7.563473713208939
11.085197627192734 2.0056644351911945 4.402148457919328 4.677384734082208
5.990193200398875 1.5366757674595752 1.9824596231992964 2.471057809740002
2.784064528917019 1.0987590022035216 0.6793208865373981 1.0059846401761
1.0833209819228047 0.7201211979336188 0.11559790304671363 0.24760188094247207
0.4252564692970409 0.4208211642458837 -0.001586105679532867 0.006021410730690185
0.20410907774572132 0.2043956257922184 -2.7346766651676068e-05 -0.00025920127984543066
0.11795454744809747 0.11795454744809747 0.0 0.0
1.006389561280389 0.12297051726138795 0.360155972334389 0.5232630716846136
7.599746124435652 3.6365044327472176 1.725076368772067 2.238165322916363
5.607442538641736 2.795641523882181 1.174613954390114 1.6371870603694407
0.71586459103118 0.14600210017891585 0.2110068712621079 0.3588556195901561
0.13367806908498076 0.13367806908498076 0.0 0.0
0.18170614487258002 0.18165366163928381 5.5517223209430105e-06 4.693151097525225e-05
0.3286705571905587 0.3403494399755168 -0.0035451852995749575 -0.00813369748538304
0.762182828451629 0.5957764774638072 0.0427622651218164 0.1236440858660052
1.9889849628071996 0.9275420003355666 0.387649426683863 0.6737935357877698
4.587846629020974 1.3320249630889838 1.4214948776248972 1.8343267883070933
8.659670914216012 1.7391121424817506 3.2394503215105743 3.681108450223691
14.460994073180688 2.161611351939739 6.169317560806773 6.130065160434177
21.747444568456356 2.618983097685645 10.063433131688495 9.065028339082218
30.45140607157425 3.1406014852691353 14.904753942165613 12.406050644139512
40.53749538651947 3.74942156343913 20.678225369618517 16.109848453461833
52.02449352420919 4.449697179718577 27.417678442534886 20.157117901955736
64.7240528993628 5.229562954281686 34.982331496769106 24.51215844831199
78.46096659721881 6.049692226416904 43.30508976952133 29.10618460128062
93.08561973788105 6.863296284926114 52.39995704762655 33.82236640532838
107.4798295049376 7.501123477542994 61.49020695975487 38.48849906763974
120.47528387207024 7.669233442903949 70.03445308545305 42.771597343713196
130.67412071334587 7.263207800510863 77.19940147200153 46.21151144083347
134.73556068978633 4.52021308742835 81.81041025194422 48.40493735041384
130.67412071332888 7.2632078005179395 77.19940147198527 46.2115114408256
120.4752838720565 7.669233442929103 70.03445308542692 42.77159734370049
107.47982950489359 7.501123477547819 61.49020695972208 38.48849906762365
93.08561973781187 6.863296284918884 52.399957047585545 33.82236640530739
78.4609665971673 6.04969222643397 43.30508976947693 29.106184601256437
64.7240528992984 5.229562954279905 34.98233149672886 24.51215844828964
52.024493524143786 4.449697179714104 27.417678442496616 20.157117901933045
40.537495386456094 3.749421563433419 20.67822536958303 16.109848453439653
30.45140607152525 3.1406014852684914 14.90475394213666 12.406050644120091
21.747444568409758 2.61898309768366 10.063433131662627 9.06502833906348
14.460994073142931 2.1616113519333524 6.169317560789399 6.13006516042018
8.659670914191333 1.7391121424808174 3.239450321498219 3.6811084502122973
4.587846629006004 1.33202496308576 1.421494877619124 1.834326788301118
1.9889849627987815 0.9275420003329559 0.3876494266813548 0.67379353578447
0.7621828284490937 0.5957764774629822 0.04276226512122311 0.12364408586488856
0.32867055719025395 0.34034943997494593 -0.003545185299523731 -0.008133697485168201
0.18170614487201375 0.18165366163873903 5.551722318758721e-06 4.6931510955984156e-05
0.133678069084821 0.133678069084821 0.0 0.0
0.7158645910283238 0.14600210017895482 0.2110068712607909 0.3588556195885779
5.607442538626745 2.795641523875754 1.174613954386177 1.637187060364815
3.999949028777349 2.1173255218159936 0.7385997309951878 1.1440237759661682
0.5317889336995476 0.18891739094699164 0.11888428872539339 0.22398725402716227
0.16115060485710736 0.16115610302431022 -2.8514702602354354e-07 -5.213020176798422e-06
0.17864697670062285 0.17865230322650383 -1.9737344837264589e-07 -5.12915243257676e-06
0.27310595377251295 0.2820733956992967 -0.0020296957452045324 -0.006937746181579347
0.5372006745855498 0.4885629156439898 0.007081121585278473 0.04155663735628182
1.3645170934914679 0.7650618202769788 0.2000160214327621 0.3994392517817271
3.2262959608244635 1.1078592995492214 0.8522598179200354 1.2661768433552074
6.502539587049926 1.4772432572544125 2.3040048488209526 2.7212914809745614
10.9527910260413 1.8257047490273088 4.413587150621745 4.713499126392246
16.734209017968656 2.20223451120568 7.422122919910013 7.109851586852958
23.57506308775901 2.635653790814516 11.12131200439293 9.818097292551563
31.46883047850961 3.153334281507388 15.508508376899638 12.806987820102586
40.453946567333574 3.770080984767198 20.6128883029134 16.07097727965298
50.48400039173943 4.476197845447077 26.408111500314632 19.599691045977757
61.57320624648514 5.254477218638953 32.97414915554536 23.34457987230082
73.14078332336678 6.09033897084338 39.8091888811692 27.241255471354226
85.31413399178868 6.909571136948229 47.2362733757409 31.168289479099542
96.96084009988118 7.383520611050025 54.604182926401585 34.973136562429524
106.57019934303082 7.17748454511122 61.102358941828015 38.29035585609161
110.76051921965698 4.060216647608414 65.98447563645887 40.71582693558965
106.57019934301181 7.1774845451074984 61.10235894181776 38.29035585608652
96.9608400998298 7.383520611027674 54.60418292638232 34.97313656241982
85.31413399174959 6.909571136950527 47.236273375713864 31.168289479085193
73.14078332330735 6.090338970828459 39.8091888811405 27.241255471338384
61.573206246427134 5.2544772186373905 32.974149155509195 23.344579872280548
50.48400039167706 4.47619784543134 26.40811150028542 19.59969104596029
40.45394656728259 3.7700809847611985 20.612888302885715 16.070977279635677
31.468830478468718 3.1533342815114076 15.508508376872648 12.806987820084679
23.575063087714884 2.635653790808918 11.121312004370365 9.818097292535587
16.734209017932823 2.2022345112025006 7.42212291989161 7.10985158683871
10.952791026014282 1.8257047490248268 4.413587150608519 4.71349912638093
6.502539587028025 1.4772432572482819 2.3040048488128018 2.721291480966943
3.2262959608134394 1.107859299547922 0.8522598179155072 1.2661768433500107
1.3645170934860034 0.7650618202754796 0.2000160214311324 0.39943925177939094
0.5372006745837472 0.4885629156430633 0.007081121585015393 0.0415566373556693
0.2731059537722398 0.2820733956988178 -0.0020296957451628036 -0.006937746181415393
0.17864697670016255 0.17865230322603606 -1.9737344783652903e-07 -5.129152425718009e-06
0.16115060485687346 0.16115610302406688 -2.851470254176852e-07 -5.213020168041371e-06
0.5317889336977109 0.188917390947043 0.11888428872456665 0.2239872540261008
3.999949028765913 2.1173255218110962 0.7385997309923499 1.1440237759624692
2.819157058220644 1.6110788348924996 0.4751986364913658 0.7328795868367793
0.38761970257990686 0.2190796116046803 0.045922968933681606 0.12261712204154496
0.18963394285283688 0.18927852248763793 3.9459211377107e-05 0.00031596115382182216
0.18715759324727665 0.187118097391991 -2.0573509054953e-07 3.970159037621983e-05
0.24521922731093293 0.2507626232440312 -0.0011367687005023207 -0.004406627232595929
0.39844638877880906 0.39893480173937723 -0.004432390439128355 0.003943977478559947
0.8777218338355108 0.6062991715088586 0.07518264066922038 0.1962400216574314
2.1051241131446328 0.8845991199150794 0.44777317388983584 0.772751819339718
4.378848347355339 1.1944334696146726 1.3540699133289864 1.830344964411681
7.775062327841265 1.4990633062962944 2.940711379270894 3.335287642274078
11.976621861768026 1.8068806506280146 4.995595308697138 5.174145902442874
17.014265057617322 2.1660996752788764 7.59829991864784 7.2498654636906155
22.832673508157487 2.602035437628917 10.706170240517537 9.524467830011034
29.44674351501121 3.1357788616693028 14.304541293032129 12.006423360309766
36.9538547408672 3.780036737042936 18.46925728631912 14.704560717505156
45.21816914278969 4.508158365609509 23.106012434606903 17.60399834257328
54.25514344122167 5.310036812203144 28.297157727945105 20.647948901073413
63.852053616434546 6.251037410165628 33.773703403797846 23.82731280247107
73.7948706402181 7.077961314446251 39.606927831400924 27.109981494370906
83.06783096769466 7.184189816048161 45.582501104069834 30.30114004757665
87.63552430375475 3.6899592287238736 50.88337137328716 33.06219370174372
83.06783096769712 7.184189816059047 45.58250110406431 30.30114004757378
73.79487064021045 7.077961314454626 39.606927831390514 27.109981494365325
63.852053616401264 6.251037410163779 33.77370340377785 23.827312802459666
54.25514344119472 5.310036812210462 28.297157727923523 20.64794890106074
45.2181691427424 4.508158365601155 23.106012434582674 17.603998342558537
36.953854740836746 3.780036737045899 18.469257286298728 14.704560717492152
29.446743514981883 3.1357788616724482 14.30454129301274 12.006423360296695
22.832673508118052 2.6020354376219097 10.706170240498572 9.524467829997553
17.01426505758816 2.1660996752762056 7.598299918632888 7.249865463679072
11.976621861741663 1.8068806506252324 4.9955953086843055 5.174145902432122
7.77506232781993 1.4990633062946903 2.940711379260563 3.3352876422646807
4.378848347343075 1.1944334696121124 1.3540699133242715 1.8303449644066918
2.10512411313709 0.8845991199148536 0.44777317388665483 0.7727518193355815
0.877721833832012 0.6062991715079078 0.07518264066831563 0.1962400216557891
0.3984463887777463 0.3989348017384936 -0.004432390439193863 0.003943977478446343
0.24521922731084173 0.25076262324372595 -0.0011367687004597727 -0.004406627232424378
0.1871575932470165 0.18711809739153884 -2.0573507928229594e-07 3.97015905569393e-05
0.18963394285232923 0.18927852248708993 3.945921137960023e-05 0.0003159611538596993
0.38761970257859535 0.21907961160461226 0.04592296893320337 0.12261712204077953
2.819157058212163 1.6110788348889904 0.47519863648915783 0.7328795868340148
1.8525711496645982 1.1931200774363302 0.22874577814902464 0.4307052940792429
0.29705531101847193 0.23711861233218148 0.01184611194322919 0.04809058674306134
0.21313873453935608 0.21302928380051545 2.056014763956323e-05 8.889059120106527e-05
0.20202199738207732 0.20222351797350063 -2.2567340901344265e-05 -0.0001789532505219768
0.23375481524938616 0.2374425393035789 -0.0008530776473885056 -0.0028346464068042337
0.3268956292700466 0.33372546776507084 -0.004194452546484465 -0.002635385948539953
0.5598852278862687 0.4745424255937647 0.015396749130907479 0.06994605316159645
1.2216239605302035 0.6673001284418048 0.18018452594625692 0.3741393061421418
2.587163370213037 0.9025899062777742 0.6517753084882835 1.032798155446979
4.74401389981313 1.1491454079406558 1.5607654310580072 2.0341030608144655
7.520444014072206 1.4047384566107564 2.8222133026707734 3.293492254790677
10.874140399155307 1.7037930410935929 4.446750807002636 4.723596551059076
14.729289816489578 2.069968567141972 6.369253171565003 6.290068077782603
19.12365680149631 2.5227944158954747 8.602457052784736 7.998405332816106
24.170037026823472 3.0918790608874325 11.208117197631355 9.87004076830468
29.92504485679539 3.782382614373818 14.221712738020994 11.920949504400593
36.29662689039264 4.544048811348754 17.615591753250907 14.13698632579298
43.25303317022367 5.41698561005476 21.331000017584916 16.50504754258398
51.41769060281637 6.581069969720522 25.67655821920513 19.160062413890728
60.429783590529844 7.302614489651685 30.937923549970094 22.189245550908048
65.62760739039355 3.4737048733100693 36.64665840455761 25.507244112525875
60.42978359050392 7.302614489624146 30.93792354997108 22.189245550908694
51.41769060281287 6.5810699697291035 25.67655821919757 19.160062413886177
43.253033170192666 5.416985610043486 21.331000017572638 16.505047542576534
36.29662689036379 4.544048811347197 17.615591753234288 14.13698632578229
29.925044856764565 3.7823826143672665 14.221712738006428 11.920949504390885
24.170037026805943 3.0918790608947098 11.208117197616804 9.870040768294421
19.12365680146817 2.5227944158868842 8.602457052773483 7.998405332807805
14.729289816470372 2.0699685671403634 6.36925317155524 6.290068077774769
10.87414039913882 1.7037930410959163 4.446750806992422 4.723596551050485
7.520444014054631 1.404738456608748 2.8222133026627483 3.2934922547831316
4.744013899800986 1.1491454079415777 1.5607654310515373 2.0341030608078734
2.587163370206291 0.9025899062778986 0.6517753084851945 1.0327981554431978
1.2216239605254033 0.6673001284409803 0.18018452594468062 0.37413930613974283
0.5598852278845774 0.4745424255929027 0.015396749130602036 0.06994605316107269
0.32689562926883914 0.333725467763901 -0.004194452546513013 -0.0026353859485487297
0.233754815249165 0.23744253930304876 -0.0008530776473496748 -0.0028346464065341346
0.202021997381781 0.20222351797323054 -2.256734089904884e-05 -0.00017895325055051548
0.2131387345386353 0.2130292837995833 2.0560147658103534e-05 8.889059139382074e-05
0.29705531101749594 0.23711861233197007 0.011846111942934136 0.04809058674259154
1.8525711496587292 1.1931200774337907 0.2287457781476399 0.43070529407729913
1.184934807566589 0.8889754996130073 0.09229235840794316 0.203666949545639
0.23587144294371148 0.23601927731178937 -0.003424428475982955 0.0032765941079051088
0.22945363360559048 0.22845058694067513 0.00013511961732156605 0.0008679270475937401
0.219291100072493 0.2185624698182965 8.469181122147315e-05 0.000643938442974993
0.2349433717466773 0.2373238967569704 -0.0006915941128828128 -0.0016889308974102758
0.29775450348175775 0.300597670055279 -0.0021093982064692564 -0.0007337683670519674
0.40635619600691314 0.3761138453557086 0.003620008453705105 0.02662234219749941
0.6248164946784966 0.4607078208685379 0.04106272123804552 0.12304595257191349
1.1565923905156854 0.588226256620761 0.18487414513730563 0.3834919887576186
2.1543448162238583 0.7431615100265531 0.5336658596182012 0.8775174465791039
3.615337607671895 0.9291537881332369 1.130885300028371 1.5552985195102869
5.363526490249329 1.150024280890989 1.8620241553456671 2.3514780540126745
7.444929013048521 1.4307836086189452 2.7799469594331008 3.2341984449964745
9.8744109344274 1.7936790208123687 3.8735572209389217 4.207174692676105
12.720587670517146 2.2656326207254516 5.16181610179982 5.293138947991872
16.11874834696865 2.8812043388711004 6.705960230960758 6.531583777136792
20.163051636368273 3.6259398438127 8.581072923555483 7.956038869000094
24.750176669364947 4.371011797054116 10.823592545049785 9.555572327261059
30.326995828577296 5.388826798295849 13.515457506848316 11.422711523433112
38.55004847210191 7.161549620030382 17.379122325622646 14.009376526448909
45.81572259337039 3.621466540875047 24.027337673301385 18.166918379193948
38.55004847211782 7.1615496200367925 17.37912232562847 14.009376526452563
30.326995828563238 5.388826798287628 13.515457506844763 11.422711523430841
24.75017666934296 4.371011797043954 10.823592545042823 9.555572327256183
20.16305163633855 3.6259398437980406 8.581072923546737 7.956038868993769
16.118748346939743 2.88120433885159 6.705960230955433 6.531583777132715
12.72058767050276 2.2656326207250266 5.161816101792192 5.293138947985549
9.87441093442202 1.793679020815383 3.8735572209344307 4.2071746926722
7.4449290130331605 1.4307836086107866 2.7799469594293007 3.2341984449930683
5.363526490234146 1.1500242808855803 1.862024155340735 2.351478054007833
3.615337607661608 0.9291537881306154 1.1308853000246897 1.5552985195063045
2.1543448162161285 0.743161510024301 0.5336658596157212 0.8775174465761056
1.156592390511894 0.5882262566199549 0.18487414513612543 0.3834919887558133
0.6248164946770759 0.46070782086826717 0.04106272123764799 0.12304595257116109
0.4063561960060912 0.3761138453550069 0.003620008453660354 0.026622342197423814
0.2977545034808338 0.3005976700542088 -0.002109398206476455 -0.0007337683668985104
0.23494337174631255 0.23732389675641735 -0.0006915941128565694 -0.0016889308972483673
0.21929110007224828 0.21856246981790162 8.469181123460387e-05 0.0006439384431121207
0.22945363360497972 0.2284505869399692 0.00013511961732901875 0.0008679270476814558
0.23587144294306517 0.23601927731147151 -0.0034244284760671273 0.0032765941076609573
1.1849348075630848 0.8889754996113304 0.09229235840724359 0.20366694954451026
0.7318046628841549 0.6499842657043899 0.0187764394501821 0.06304395772958271
0.20348658597124586 0.21445288694237818 -0.0028656694978788882 -0.008100631473253498
0.23874986657149821 0.23905888254479318 -3.108200830088793e-05 -0.00027793396499410015
0.23599597381104162 0.2347547963965245 0.0001631277461640928 0.001078049668353153
0.24680490117432086 0.24718139036602174 -0.0003911433203553714 1.4654128654510594e-05
0.29439405826265297 0.2943084449127686 -0.0012552458497073777 0.0013408591995919161
0.37114782603620333 0.3392859346140454 0.005927553712961691 0.025934337709196564
0.4286670668671759 0.3344484639307409 0.024434440265343662 0.06978416267109129
0.4939382012158519 0.2895605953662411 0.06797800501646542 0.1363996008331456
0.6846104575135542 0.2845224809797122 0.14447323106290114 0.25561474547094193
1.1218967906519217 0.3098552537385505 0.3227582234504713 0.4892833134628991
1.764806619338781 0.31166721552778365 0.592818641333892 0.8603207624771053
2.606943473229505 0.33405229563845523 0.9733871807219356 1.299503996869113
3.6339681568488604 0.4025786613976237 1.440146279458851 1.791243215992389
4.867698523131777 0.5419326974141229 1.9932012925463864 2.3325645331712646
6.3062888047366314 0.7746677389461929 2.6160820026238194 2.9155390631666167
7.995599193094606 1.1254386159632945 3.3393455922733013 3.530814984858013
9.887971970272488 1.5547649588011194 4.16158168437701 4.171625327094361
12.46011817252267 2.1876634627556832 5.255837906402652 5.016616803364332
19.373819908054955 4.582704303433372 7.574873121779106 7.216242482842478
32.38074622818789 4.031778644960231 15.410258808364468 12.938708774863178
19.37381990808047 4.582704303452337 7.574873121783075 7.216242482845061
12.460118172516982 2.1876634627546796 5.255837906400047 5.016616803362256
9.887971970283406 1.5547649588188825 4.161581684373074 4.1716253270914505
7.995599193095664 1.1254386159720124 3.339345592269019 3.5308149848546266
6.306288804735081 0.7746677389487501 2.6160820026216234 2.915539063164704
4.867698523115929 0.5419326974061665 1.9932012925423157 2.332564533167445
3.6339681568405062 0.4025786613948745 1.440146279456179 1.7912432159894531
2.60694347323064 0.33405229564451666 0.9733871807193792 1.2995039968667448
1.7648066193372696 0.31166721553101057 0.5928186413314632 0.8603207624747968
1.1218967906498565 0.3098552537398179 0.32275822344890454 0.4892833134611332
0.6846104575127515 0.28452248097861366 0.14447323106290372 0.25561474547123453
0.49393820121561527 0.28956059536678574 0.0679780050161302 0.1363996008326991
0.4286670668667275 0.3344484639310796 0.024434440265067518 0.0697841626705806
0.3711478260355286 0.3392859346135541 0.005927553712875494 0.025934337709098847
0.29439405826211384 0.29430844491195446 -0.001255245849669524 0.0013408591998289466
0.24680490117380674 0.24718139036539485 -0.0003911433203500355 1.465412876195467e-05
0.23599597381067824 0.23475479639602492 0.00016312774617777517 0.001078049668475404
0.2387498665711712 0.2390588825443347 -3.1082008279259756e-05 -0.0002779339648842714
0.2034865859712398 0.21445288694204473 -0.0028656694978280973 -0.008100631472976884
0.7318046628822856 0.6499842657031575 0.01877643944994882 0.06304395772917938
0.46184656622516973 0.4593051832166282 0.00018422172776426686 0.00235716128077741
0.18757643063625556 0.1886148694411544 -0.00011311385745842706 -0.0009253249474405
0.2413693868717428 0.24095143357191998 9.772233736911576e-06 0.000408181066086071
0.24994737910155845 0.2484903608757525 0.00018611849396449294 0.0012708997318415997
0.2651339624592707 0.26381777821212526 -0.00013094591993071848 0.001447130167076104
0.3173321145089203 0.3127704263804597 -0.0007520014786822309 0.005313689607142632
0.42155549257382097 0.3834760418417349 0.006680643124080588 0.03139880760800577
0.6343191173144045 0.46307088356277504 0.043899096569040896 0.12734913718258845
1.1597722708231981 0.588251097749323 0.18618830638946557 0.38533286668440936
2.1540229591988584 0.7428537726171824 0.5335702212864939 0.877598965295181
3.6229967665754965 0.9315238548287599 1.1339056332276214 1.5575672785191164
5.393646344411135 1.1549081291407433 1.8761099476709706 2.3626282675994212
7.498844589008391 1.4369125537858751 2.804797898360219 3.257134136862296
9.900186746920403 1.7874312135507124 3.892127297687781 4.220628235681912
12.498975937396938 2.20721751108466 5.075923733220266 5.21583469309201
15.13302890278726 2.6947321872328733 6.270431821464635 6.1678648940897585
17.47581950249382 3.226416713031674 7.298014570542044 6.951388218920092
19.339584527069537 3.8576373583408 8.05066942987993 7.431277738848802
19.97399530094112 4.295896579467064 8.214494345820814 7.46360437565323
16.42319418130201 3.2490707667616556 7.044196473418304 6.129926941122046
32.807682548031686 5.986035808313912 14.332217272551015 12.489429467166747
16.42319418131028 3.2490707667605525 7.044196473423666 6.129926941126062
19.973995300923647 4.295896579453305 8.214494345818556 7.463604375651789
19.339584527027398 3.8576373583107504 8.050669429872904 7.431277738843729
17.475819502463526 3.226416713019219 7.298014570531912 6.9513882189124026
15.133028902782417 2.6947321872432983 6.270431821456128 6.167864894082982
12.49897593738443 2.2072175110866556 5.075923733212438 5.215834693085347
9.90018674690286 1.7874312135482 3.8921272976796857 4.220628235674976
7.498844588987897 1.436912553779994 2.8047978983526147 3.25713413685529
5.39364634439149 1.1549081291346854 1.8761099476641294 2.362628267592676
3.622996766561215 0.9315238548257037 1.133905633222144 1.5575672785133685
2.1540229591919924 0.7428537726174013 0.5335702212833923 0.8775989652911987
1.1597722708191318 0.5882510977484359 0.18618830638822065 0.38533286668247474
0.6343191173125258 0.46307088356183906 0.043899096568709425 0.12734913718197716
0.42155549257306224 0.38347604184117867 0.006680643123994775 0.031398807607888615
0.31733211450828747 0.3127704263796061 -0.0007520014786793214 0.0053136896073606235
0.26513396245852383 0.2638177782113177 -0.00013094591993578986 0.001447130167141996
0.24994737910136935 0.2484903608753804 0.0001861184939819132 0.0012708997320070728
0.24136938687132095 0.24095143357140603 9.772233739579824e-06 0.00040818106617514623
0.18757643063624269 0.1886148694411676 -0.00011311385746256868 -0.0009253249474622677
0.46184656622414905 0.4593051832153838 0.0001842217277821311 0.0023571612809830255
0.2968571027173852 0.29693435561021975 -5.288107123057896e-06 -7.196478571146139e-05
0.17313888853641662 0.1732786054913114 -1.256597159422256e-05 -0.00012715098330054532
0.2376228986666604 0.23830339587453853 -0.00012325285192534124 -0.0005572443559528196
0.25960875044483306 0.25809046582037853 0.00013311181225094214 0.0013851728122036401
0.28811940758857757 0.28882818513341724 -0.0004599866705360022 -0.0002487908743036394
0.36664789465590886 0.35918195423651067 -0.0001384759249685823 0.007604416344366384
0.5833205921984785 0.4763454616344183 0.021284381194351373 0.08569074936970891
1.2329603923535877 0.6680899164664926 0.18473324082039272 0.3801372350667025
2.58794505700739 0.9021627605469158 0.6522698058891502 1.0335124905713249
4.743670674249811 1.149262337618623 1.5603804875731984 2.0340278490579875
7.529007337085443 1.4063928705687976 2.825679440169378 3.2969350263472674
10.90132568899594 1.707514334314144 4.459430280589429 4.734381074092366
14.771372999162226 2.071658401522299 6.3919711357556235 6.307743461884311
19.11612232467658 2.5045630702728743 8.6092143348406 8.002344919563098
23.886054408666684 3.010012766882443 11.091589336893492 9.784452304890753
28.85138212458243 3.5763111278253383 13.707593661928717 11.56747733482837
33.61383449357949 4.213366439435175 16.194104834734986 13.206363219409317
37.600938806386196 4.936076495053092 18.15583846019173 14.509023851141361
39.537860999216306 5.3137808783253435 19.129224680293152 15.094855440597811
36.902009127552304 5.206404725804104 17.693795876671032 14.001808525077163
45.575561554905605 10.66756531666429 19.483689258475877 15.424306979765435
36.90200912753866 5.206404725781794 17.693795876676397 14.001808525080467
39.53786099923119 5.313780878344027 19.129224680290793 15.094855440596358
37.600938806376185 4.936076495064925 18.155838460178348 14.509023851132898
33.61383449354011 4.213366439427472 16.194104834715766 13.206363219396861
28.851382124544315 3.5763111278142494 13.707593661912597 11.567477334817475
23.88605440863138 3.010012766874876 11.091589336877206 9.784452304879292
19.11612232465012 2.5045630702732713 8.609214334825252 8.0023449195516
14.771372999131756 2.0716584015182047 6.391971135740857 6.307743461872697
10.90132568896974 1.707514334313514 4.459430280575554 4.734381074080667
7.529007337061066 1.4063928705658961 2.825679440158257 3.2969350263369144
4.743670674233767 1.1492623376165416 1.560380487566266 2.0340278490509602
2.587945056997755 0.9021627605463444 0.6522698058850444 1.0335124905663662
1.2329603923481858 0.668089916464782 0.18473324081894085 0.38013723506446295
0.5833205921962459 0.47634546163317254 0.02128438119399563 0.08569074936907803
0.3666478946550127 0.35918195423558774 -0.00013847592497426352 0.0076044163443991205
0.2881194075882928 0.2888281851327532 -0.000459986670480678 -0.0002487908739798512
0.2596087504444767 0.2580904658198988 0.0001331118122561652 0.0013851728123217232
0.2376228986665248 0.2383033958742083 -0.0001232528519064216 -0.000557244355776967
0.1731388885364075 0.173278605491369 -1.2565971599428578e-05 -0.0001271509833620678
0.2968571027167595 0.2969343556095986 -5.288107123425113e-06 -7.196478571559829e-05
0.18466731605834513 0.18466731605834513 0.0 0.0
0.15412530354581966 0.15412050480022355 8.469760380270854e-07 3.95176955815229e-06
0.22721836844039622 0.2280113217720877 -0.00011631182974656566 -0.000676641501944955
0.26551215376946424 0.2659852312769146 -0.0001597927184814922 -0.0003132847889688982
0.315078487199024 0.31417471985684925 -0.00043224014387985873 0.001336007486054573
0.44678339093632696 0.4154374553443392 0.0026252174525161305 0.0287207181394721
0.9099809141937321 0.6127065620178826 0.08718694558764484 0.21008740658820457
2.1117899317112236 0.8846468975240255 0.4513243442458335 0.7758186899413648
4.376794416583174 1.1945059373144677 1.3529741084192448 1.8293143708494592
7.7767054841515435 1.4996848534175415 2.941495009225326 3.3355256215086757
11.985133518780192 1.8080210264447127 4.998326054301055 5.178786438034424
17.031458839859763 2.167382672035359 7.607432333460829 7.256643834363584
22.84027775139409 2.5984592430641937 10.712837411665475 9.528981096664408
29.377736759824444 3.107833815616008 14.280262592743389 11.989640351465063
36.621621747572895 3.6879917537346074 18.32325359821596 14.61037639562232
44.246140930733645 4.32333438579075 22.61887485958413 17.303931685358766
51.89449806834367 5.003641070350012 27.006899220164684 19.883957777829
58.258183645387746 5.553508954223499 30.661912151695915 22.04276253946835
61.42083906524715 5.731429244469876 32.56520704341268 23.1242027773646
57.51167847650055 5.143743112293306 30.472681630217295 21.89525373398994
64.29967119927863 13.744198457987864 29.286286525704444 21.26918621558632
57.51167847650784 5.143743112297533 30.472681630219242 21.895253733991023
61.42083906522961 5.731429244459308 32.56520704340826 23.124202777362086
58.25818364536826 5.55350895422936 30.661912151679772 22.04276253945912
51.89449806830771 5.0036410703567045 27.006899220137868 19.88395777781313
44.246140930683005 4.323334385782292 22.618874859557934 17.303931685342764
36.6216217475377 3.6879917537397215 18.32325359819139 14.61037639560659
29.377736759785133 3.107833815616033 14.280262592719827 11.989640351449273
22.84027775135312 2.5984592430618845 10.712837411642885 9.528981096648367
17.031458839822385 2.16738267203392 7.607432333440395 7.256643834348058
11.985133518748437 1.8080210264438563 4.9983260542841625 5.178786438020425
7.776705484127543 1.4996848534148197 2.941495009214167 3.335525621498555
4.376794416568624 1.1945059373134381 1.3529741084126476 1.8293143708425381
2.1117899317026176 0.8846468975224885 0.4513243442427687 0.7758186899373609
0.9099809141891344 0.612706562016456 0.08718694558646534 0.21008740658621317
0.44678339093481195 0.41543745534331156 0.0026252174523515026 0.028720718139148886
0.3150784871986761 0.31417471985617645 -0.0004322401438313873 0.0013360074863309989
0.2655121537689814 0.2659852312763479 -0.00015979271847435427 -0.0003132847888921833
0.22721836844023818 0.22801132177197866 -0.00011631182975104162 -0.0006766415019894787
0.15412530354594814 0.15412050480033265 8.4697603968024e-07 3.9517695758314106e-06
0.18466731605785686 0.18466731605785686 0.0 0.0
0.10847410651263821 0.10847410651263821 0.0 0.0
0.13031536879620215 0.13031114272247468 2.3276924337965782e-07 3.99330448403657e-06
0.21097914019652217 0.2114068666325961 -5.7198654495071966e-05 -0.00037052778157878563
0.2678555455238276 0.26832717097842135 -0.00022572632871089811 -0.00024589912588279285
0.347203813097323 0.34801791115213726 -0.001232908833516022 0.0004188107787018412
0.5900716286798986 0.5029469214757708 0.02011529773404811 0.06700940947007937
1.3824907045383303 0.7616078429887018 0.20750269938224714 0.41338016216738127
3.226599505082271 1.1085276096703274 0.8525838678459949 1.2654880275659488
6.500017390787168 1.4780586668512172 2.30224053385144 2.719718190084509
10.95650468183797 1.826542774987592 4.4149425907761675 4.715019316074213
16.742510320565163 2.201922943079778 7.427277731600727 7.113309645884662
23.571352699898377 2.6314112737374344 11.121710022883802 9.818231403277144
31.420181898823337 3.139880252032374 15.487518945329745 12.792782701461244
40.30799979730162 3.7366562732968536 20.543907463625487 16.027436060379248
50.15439002420703 4.407154310946094 26.244816738995063 19.50241897426586
60.82098721625717 5.117496627387393 32.581769723993666 23.121720864876124
71.13700558121292 5.73760017819874 38.74346113529377 26.65594426772043
79.93272144578206 6.057358811425994 44.28201104261222 29.593351591743822
83.96409567616936 5.749572607048741 47.14880157283031 31.065721496290337
79.03297180519252 5.212815641025881 44.27868862165817 29.54146754250847
85.46752402277251 16.83727235196006 40.85269340650156 27.77755826431089
79.03297180517579 5.212815641013 44.27868862165583 29.54146754250698
83.96409567614283 5.749572607039447 47.148801572818904 31.06572149628445
79.9327214457219 6.057358811403534 44.282011042587655 29.593351591730695
71.13700558114945 5.737600178190475 38.7434611352581 26.655944267700892
60.8209872161997 5.117496627385404 32.581769723958324 23.121720864855973
50.15439002413804 4.407154310932265 26.244816738960544 19.502418974245224
40.30799979724621 3.736656273293405 20.543907463593527 16.027436060359264
31.420181898770043 3.1398802520309346 15.48751894529848 12.792782701440634
23.571352699848894 2.6314112737345243 11.121710022856613 9.818231403257778
16.742510320523305 2.201922943077011 7.4272777315787 7.113309645867593
10.956504681804475 1.8265427749837093 4.414942590760206 4.715019316060561
6.500017390765021 1.4780586668474278 2.3022405338419523 2.719718190075645
3.2265995050694114 1.1085276096682983 0.8525838678409288 1.265488027560184
1.3824907045320898 0.7616078429878371 0.20750269938005383 0.41338016216419826
0.590071628677635 0.5029469214747277 0.020115297733662836 0.06700940946924445
0.3472038130967524 0.3480179111512553 -0.0012329088334604196 0.0004188107789574807
0.26785554552355584 0.26832717097795933 -0.00022572632869846166 -0.0002458991257051277
0.2109791401963188 0.21140686663241495 -5.719865449693806e-05 -0.0003705277815991791
0.1303153687959878 0.13031114272226044 2.3276924336996675e-07 3.9933044839934034e-06
0.10847410651242849 0.10847410651242849 0.0 0.0
0.059884957058548224 0.059884957058548224 0.0 0.0
0.10403337551925362 0.10403337551925362 0.0 0.0
0.1900748584400448 0.19017827632082054 -1.2964828013468786e-05 -9.045305276228667e-05
0.2678657488129529 0.2699482744904242 -0.00041204120344962117 -0.0016704844740217445
0.39107278618775715 0.38477855136235267 -0.0010099976221337036 0.007304232447538156
0.8043927488338631 0.60411511661113 0.05709848010468542 0.1431791521180476
2.00108749681815 0.9269184389690572 0.3944633849147708 0.6797056729343224
4.584658460653616 1.3336394881405376 1.419357982991321 1.8316609895217562
8.65914437461515 1.7404354096352366 3.23862131067596 3.6800876543039545
14.467014304059312 2.1622440197024373 6.172253608629579 6.132516675727286
21.74996394752568 2.616151119971281 10.066550441579325 9.067262385975082
30.417798809999844 3.127773270984685 14.892345126618661 12.3976804123965
40.419068062280374 3.7220000311056465 20.62235029406767 16.074717737107047
51.798940833897774 4.416909895513671 27.29662562807281 20.085405310311273
64.41305818531191 5.202178644970114 34.80073717151511 24.410142368826676
77.91511429639012 5.957663958179107 43.00960828381291 28.947842054398144
91.4116302055526 6.470965173944824 51.55542634596829 33.385238685639465
102.203246288428 6.413171685319307 58.70593901377785 37.08413558933082
106.76886668169087 5.687142559283207 62.18838068435143 38.89334343805619
101.39635422397659 5.456766844358963 58.823499290096116 37.1160880895215
108.57604629083207 19.94067437029586 53.99251940476172 34.64285251577453
101.39635422398001 5.456766844369254 58.82349929009159 37.116088089519174
106.76886668164894 5.6871425592727185 62.188380684330475 38.893343438045775
102.20324628839072 6.41317168533276 58.70593901374421 37.08413558931373
91.41163020549389 6.470965173953211 51.555426345924154 33.38523868561656
77.91511429630832 5.957663958166249 43.009608283767996 28.947842054374096
64.41305818524066 5.202178644971065 34.80073717146895 24.410142368800635
51.79894083383272 4.416909895511616 27.296625628033258 20.085405310287836
40.419068062215274 3.722000031105907 20.62235029402751 16.074717737081876
30.4177988099425 3.1277732709840866 14.892345126584633 12.397680412373768
21.749963947475877 2.6161511199692 10.066550441551644 9.067262385955026
14.46701430401791 2.162244019699153 6.172253608608374 6.132516675710384
8.659144374588069 1.740435409632152 3.2386213106635475 3.680087654292368
4.584658460635714 1.3336394881378744 1.4193579829838145 1.8316609895140266
2.001087496809329 0.9269184389670152 0.3944633849118685 0.6797056729304464
0.8043927488306223 0.6041151166096974 0.05709848010401939 0.1431791521169054
0.391072786187001 0.38477855136153594 -0.0010099976221436188 0.00730423244760873
0.26786574881252817 0.2699482744898651 -0.00041204120343445 -0.0016704844739024072
0.19007485843999206 0.19017827632078876 -1.29648280152599e-05 -9.045305278145118e-05
0.10403337551880802 0.10403337551880802 0.0 0.0
0.05988495705847856 0.05988495705847856 0.0 0.0
0.030973856086886756 0.030973856086886756 0.0 0.0
0.07843138108176731 0.07843138108176731 0.0 0.0
0.16694960049165414 0.16694278372798627 3.960330448053176e-07 6.420730623111643e-06
0.26833612849795124 0.270305626446764 -0.0004235921718988953 -0.001545905776913818
0.4625799544592543 0.44145806295490103 0.003183131029108211 0.017938760475245553
1.0913244498853283 0.7071321723708728 0.11798295431570566 0.26620932319874935
2.7879491834018455 1.0991883451307765 0.6823929905622712 1.0063678477087976
5.987096122886697 1.5385509335691192 1.979791139889895 2.4687540494276803
11.087710843500457 2.0071506352589052 4.402946772367382 4.677613435874171
18.111074562450614 2.51291814780338 8.031718056644255 7.566438358002988
26.972976139035225 3.0595733367323037 12.88018610339968 11.033216698903232
37.56029778051179 3.6653312132371507 18.908284689445082 14.986681877829543
49.83518598536605 4.357374851653306 26.108669030527164 19.369142103185602
63.61576023666854 5.156646948309665 34.304298883348395 24.154814405010537
79.10575729240337 6.038581892581073 43.75562848407448 29.311546915747776
95.70287443024239 6.849858684844761 54.122541294298514 34.730474451099084
111.81525920814666 7.199437636524625 64.56396618482611 40.05185538679595
124.7163393945912 6.71137789128192 73.54838375425335 44.45657774905595
130.34977199441948 5.664737241505171 78.06300135812798 46.62203339478632
124.8199594216538 5.773648514521669 74.26181226832935 44.7844986388028
133.14760167355507 23.02034605501946 68.24432354454567 41.88293207398989
124.81995942162668 5.773648514504672 74.26181226832237 44.78449863879955
130.34977199438066 5.664737241510701 78.06300135809803 46.62203339477194
124.71633939452846 6.711377891279179 73.54838375421288 44.45657774903631
111.81525920806742 7.19943763652293 64.56396618477419 40.05185538677032
95.70287443015778 6.849858684842736 54.12254129424397 34.73047445107107
79.10575729231526 6.038581892578599 43.75562848401874 29.311546915717923
63.61576023657369 5.1566469482945205 34.304298883297285 24.154814404981888
49.835185985283935 4.357374851650856 26.108669030477266 19.369142103155802
37.560297780436024 3.665331213231347 18.90828468940241 14.98668187780226
26.972976138975522 3.0595733367286932 12.880186103366517 11.03321669888031
18.11107456240096 2.512918147799923 8.031718056617986 7.566438357983065
11.087710843466729 2.0071506352545803 4.402946772351699 4.6776134358604455
5.987096122865249 1.538550933567301 1.9797911398800534 2.468754049417893
2.787949183389828 1.099188345128154 0.6823929905579581 1.0063678477037135
1.0913244498809211 0.707132172369397 0.11798295431456197 0.2662093231969619
0.46257995445789524 0.4414580629538753 0.0031831310290010876 0.017938760475018745
0.26833612849729077 0.27030562644601713 -0.000423592171889989 -0.0015459057768363585
0.16694960049125784 0.16694278372759086 3.960330447626668e-07 6.4207306222634735e-06
0.07843138108165609 0.07843138108165609 0.0 0.0
0.03097385608676294 0.03097385608676294 0.0 0.0
0.015164474423095271 0.015164474423095271 0.0 0.0
0.05614694187985304 0.05614694187985304 0.0 0.0
0.1446283484225195 0.14462584609784776 1.22441077168008e-07 2.379883594554421e-06
0.27378729525555234 0.27641955886509073 -0.0005848310759969149 -0.0020474325335417005
0.5699703636849176 0.508494518133134 0.014559094662045862 0.046916750889737964
1.486040703583222 0.8359858589078465 0.22737596434526797 0.4226788803301068
3.6482039689956243 1.2583803634129103 0.991204096249664 1.3986195093330507
7.556441675620671 1.733308952476186 2.6800830163470515 3.1430497067974335
13.608267168302865 2.280515333733092 5.632900514050753 5.694851320519017
21.90597866327036 2.8817158063485757 10.012345433531548 9.011917423390239
32.36519373797402 3.532592339989232 15.827432771746892 13.005168626237912
44.93921901509571 4.250925599525756 23.10655179941787 17.581741616152083
59.415160622447246 5.050580685733639 31.69125113083057 22.673328805883063
75.97439099215097 5.9447546401421825 41.801986182355215 28.22765016965353
94.16037481337625 6.90793246211202 53.0532780577604 34.199164293503834
113.4963725215841 7.739780408359888 65.3108877981808 40.445704315043436
132.4536457026989 7.944679817998914 77.93880806598703 46.570157818712985
147.59446877349896 7.062514771913669 88.82472149605243 51.70723250553291
154.65969896763858 5.698763629336039 94.57580736977374 54.38512796852875
149.63320985128388 6.097406638004021 90.88772896613395 52.64807424714597
159.76243664466412 26.037003158653786 84.19937265892055 49.526060827089765
149.63320985124912 6.097406637988726 90.88772896612056 52.64807424713985
154.65969896759034 5.698763629341855 94.57580736973681 54.38512796851158
147.59446877341242 7.0625147719033405 88.82472149600017 51.70723250550886
132.45364570260534 7.94467981799789 77.93880806592435 46.5701578186831
113.49637252147244 7.73978040834632 65.31088779811515 40.44570431501091
94.1603748132768 6.907932462109763 53.05327805769623 34.199164293470815
75.97439099205162 5.944754640142529 41.80198618229063 28.227650169618496
59.4151606223568 5.0505806857359605 31.69125113077164 22.673328805849174
44.939219015013414 4.250925599526993 23.106551799366137 17.58174161612029
32.3651937379034 3.5325923399844963 15.827432771707295 13.00516862621161
21.905978663212483 2.881715806343997 10.012345433500627 9.011917423367848
13.608267168262792 2.2805153337285278 5.632900514031245 5.694851320503024
7.556441675594152 1.7333089524744156 2.6800830163345926 3.143049706785144
3.6482039689810524 1.2583803634105508 0.9912040962438969 1.3986195093266045
1.4860407035776841 0.8359858589067345 0.22737596434344176 0.4226788803275078
0.5699703636831382 0.5084945181319783 0.014559094661842742 0.0469167508893172
0.27378729525500795 0.2764195588643505 -0.0005848310759793562 -0.002047432533363101
0.14462834842208944 0.1446258460974209 1.2244107697319608e-07 2.3798835915387224e-06
0.05614694187996661 0.05614694187996661 0.0 0.0
0.01516447442300313 0.01516447442300313 0.0 0.0
0.0073093324598814575 0.0073093324598814575 0.0 0.0
0.03888521213218408 0.03888521213218408 0.0 0.0
0.12645288064714774 0.12645288064714774 0.0 0.0
0.2919394910874038 0.29574004834017315 -0.0010008617293377087 -0.0027996955234314436
0.7243873465653985 0.587365827448699 0.0365119698218013 0.10050954929489817
1.9769740224877592 0.9659019864095892 0.3826031292032303 0.6284689068749405
4.593007009308208 1.3977196646305312 1.3598075377286207 1.8354798069490532
9.224977531279126 1.929612102285958 3.4528410645904932 3.8425243644026796
16.22061002575223 2.559194175874602 6.936701229216988 6.724714620660642
25.80448218269958 3.2672072842953526 12.074291195765015 10.462983702639212
37.940400865998114 4.039893077272783 18.921652051327907 14.978855737397396
52.48782567744615 4.881117546517833 27.42727795923189 20.17943017169645
69.48669567017262 5.807067216524755 37.70076597053737 25.978862483110454
88.4724968123139 6.7999448232307405 49.35927764132145 32.313274347761734
109.430952516822 7.771972278487647 62.58865495468609 39.07032528364826
131.50615284103088 8.548788203583598 76.89045245647894 46.066912180968345
153.06288062151754 8.718866217828797 91.42448831411433 52.91952608957442
170.69728835768018 7.612314582882952 104.28554298639142 58.79943078840581
179.75771659952545 5.74453384177221 111.86568082293341 62.1475019348198
176.15629938167953 6.378747102980177 108.94899062803154 60.82856165066774
188.68622318887913 28.88929631896677 102.02510112860298 57.771825741309286
176.15629938164813 6.3787471029751615 108.94899062801302 60.828561650659886
179.75771659943473 5.744533841755057 111.8656808228825 62.14750193479725
170.69728835760708 7.612314582897019 104.28554298633155 58.79943078837847
153.06288062140464 8.718866217828879 91.4244883140371 52.91952608953869
131.50615284092277 8.548788203590027 76.89045245640153 46.066912180931205
109.4309525166906 7.771972278471119 62.58865495460943 39.07032528361003
88.47249681220713 6.799944823234832 49.359277641248795 32.313274347723556
69.48669567006685 5.807067216522412 37.70076597047073 25.978862483073716
52.48782567734605 4.881117546511726 27.427277959172798 20.17943017166152
37.9404008659173 4.039893077267874 18.921652051281615 14.978855737367812
25.804482182636097 3.2672072842913864 12.074291195730034 10.462983702614673
16.220610025707046 2.55919417587016 6.936701229194201 6.724714620642685
9.224977531248445 1.9296121022840038 3.4528410645754217 3.842524364389016
4.593007009291491 1.397719664628125 1.3598075377219816 1.8354798069413867
1.9769740224804602 0.9659019864080804 0.3826031292007428 0.6284689068716373
0.7243873465629412 0.5873658274474206 0.036511969821369374 0.10050954929415153
0.2919394910870024 0.2957400483396257 -0.0010008617293120997 -0.0027996955233113253
0.12645288064688168 0.12645288064688168 0.0 0.0
0.03888521213214851 0.03888521213214851 0.0 0.0
0.007309332459876313 0.007309332459876313 0.0 0.0
0.003471612123369589 0.003471612123369589 0.0 0.0
0.027075377347101363 0.027075377347101363 0.0 0.0
0.11709879190348199 0.11709879190348199 0.0 0.0
0.3352988175667027 0.33477836321215554 -0.0007207211356083376 0.0012411754901552547
0.952264611398864 0.6881070152813645 0.08395853146229279 0.1801990646552065
2.530316976141715 1.0822626009426797 0.5655433409358308 0.8825110342632041
5.650225589760404 1.53690854321817 1.814710453039802 2.298606593502431
10.95524774103566 2.12316703591334 4.272689146717791 4.559391558404525
18.921825645322254 2.8422278706486535 8.318756387688014 7.76084138698559
29.788427042933346 3.670299237454964 14.204538832942681 11.913588972535695
43.60940407819394 4.576932709029322 22.08077849395826 16.951692875206323
60.342820606234376 5.563577502398157 32.00398127624559 22.775261827590644
79.58475346601466 6.6260166731783405 43.66652101571947 29.292215777116876
101.3770828018207 7.700914129705316 57.2824617472863 36.39370692482903
125.0470375095598 8.66363100231896 72.45474222354773 43.9286642836932
149.5870775920168 9.286536799783525 88.66756142552211 51.632979366711055
173.3717565060218 9.319864777032416 104.97750584239284 59.07438588659653
193.6789957705462 8.422413822342214 119.68095232374905 65.57562962445493
205.334804616386 5.931880324462206 129.54934131317447 69.85358297874942
204.68067251381734 6.411099473574182 128.78464126871302 69.48493177153007
220.51431514898107 30.797996254043646 122.78254432618466 66.93377456875282
204.6806725137704 6.411099473559955 128.78464126869068 69.48493177151977
205.33480461634204 5.931880324504086 129.54934131311484 69.85358297872318
193.67899577042624 8.422413822324954 119.6809523236776 65.57562962442367
173.37175650591448 9.31986477705217 104.9775058423051 59.07438588655712
149.58707759189386 9.286536799786505 88.6675614254364 51.63297936667096
125.04703750943897 8.663631002328493 72.45474222345993 43.9286642836505
101.37708280168319 7.700914129690318 57.28246174720497 36.39370692478786
79.58475346588583 6.626016673169269 43.66652101564158 29.292215777074944
60.34282060612127 5.563577502391825 32.003981276177655 22.775261827551784
43.60940407810228 4.576932709022497 22.080778493905804 16.951692875173986
29.78842704286271 3.6702992374514953 14.204538832902623 11.913588972508602
18.921825645270363 2.8422278706432444 8.318756387661562 7.760841386965548
10.955247741000735 2.1231670359091455 4.272689146701372 4.55939155839022
5.650225589739234 1.536908543214653 1.8147104530311708 2.2986065934934103
2.5303169761325504 1.082262600940938 0.565543340932505 0.8825110342591086
0.9522646113953895 0.6881070152802603 0.0839585314614012 0.18019906465372815
0.3352988175661235 0.33477836321150933 -0.0007207211356019436 0.0012411754902162606
0.11709879190334187 0.11709879190334187 0.0 0.0
0.02707537734707588 0.02707537734707588 0.0 0.0
0.003471612123336707 0.003471612123336707 0.0 0.0
0.001134360977249107 0.001134360977249107 0.0 0.0
0.020045001598332928 0.020045001598332928 0.0 0.0
0.12437385896210984 0.12437385896210984 0.0 0.0
0.42549381060291236 0.4055806112676065 0.003814894335506769 0.016098304999799265
1.275838594148348 0.8543553970158692 0.1469037074592094 0.27457948967326995
3.2303035554149893 1.3746387717121007 0.7510307258732816 1.1046340578296059
6.8902183251015865 2.0226313414793253 2.195611812101762 2.6719751715204945
12.962837874302126 2.911654257899813 4.938277917132763 5.112905699269557
22.01975190219399 4.092995020056567 9.377892741513161 8.548864140624271
34.459953601152556 5.5798820216501355 15.869270732533188 13.010800846969222
50.37313574631922 7.35743324889126 24.57495979870226 18.44074269872575
69.51863212210543 9.395784358618378 35.38473973318298 24.738108030304033
91.80123926158285 11.62986502755696 48.38169795982414 31.78967627420178
116.7795944627574 13.93048646477601 63.38190561585139 39.46720238213006
143.5862765688169 15.957297017463674 80.05706786375376 47.571911687599346
170.75036087431124 17.208767916265465 97.76043008307234 55.78116287497348
196.16138912239612 17.227620268812167 115.29431351568024 63.63945533790367
217.56805823153542 16.097662289164766 130.9956318945891 70.47476404778162
232.20279857362974 14.385591318755607 142.45393632258993 75.36327093228424
227.9030292531316 6.590016822023949 144.8557210497592 76.45729138134853
310.3875467853008 93.17976663135379 142.08539033006412 75.12238982388288
227.9030292530802 6.590016822008719 144.85572104973335 76.45729138133814
232.20279857354816 14.385591318759566 142.45393632252942 75.36327093225916
217.56805823142196 16.09766228917296 130.99563189450464 70.4747640477445
196.16138912225202 17.2276202688035 115.2943135155866 63.639455337861996
170.75036087414722 17.20876791623631 97.76043008297893 55.781162874931816
143.58627656864627 15.957297017429568 80.05706786366137 47.57191168755544
116.77959446259639 13.930486464750434 63.38190561576101 39.46720238208496
91.80123926145296 11.629865027559774 48.38169795973702 31.789676274156243
69.51863212198624 9.395784358616337 35.38473973310799 24.73810803026187
50.37313574620703 7.3574332488704615 24.57495979864519 18.440742698691384
34.459953601074346 5.5798820216452345 15.869270732488882 13.010800846940231
22.01975190213546 4.092995020050042 9.37789274148316 8.548864140602273
12.962837874257666 2.9116542578878533 4.938277917115099 5.112905699254717
6.890218325077906 2.022631341476259 2.195611812091453 2.6719751715101934
3.23030355540406 1.3746387717098296 0.7510307258694919 1.1046340578247378
1.2758385941444241 0.854355397015297 0.14690370745789522 0.2745794896712318
0.42549381060171987 0.4055806112665308 0.00381489433547998 0.016098304999708598
0.12437385896177137 0.12437385896177137 0.0 0.0
0.020045001598329164 0.020045001598329164 0.0 0.0
0.001134360977246447 0.001134360977246447 0.0 0.0
CELL_DATA 800
SCALARS Stress float 6
LOOKUP_TABLE default
171.92131651401354 -525.3476368168231 -181.99317741435667 -110.95036488855982 0.0 0.0
404.7102053246178 -86.30638011985695 115.63312309351457 54.268372079980686 0.0 0.0
422.3425448733384 7.529672378723172 129.1572617022285 -2.5885932144680686 0.0 0.0
481.38993105810846 -17.336549261710815 152.96463290121557 -15.853830658397738 0.0 0.0
560.0233915029629 -24.230981447503183 215.39923267481865 -11.683331705270113 0.0 0.0
636.0064482821745 -20.943230047787893 286.6269170825501 -10.502977712110045 0.0 0.0
709.4492864025603 -15.538781251785188 339.534040354283 -11.546952850442423 0.0 0.0
784.2511446058422 -1.6503720695727964 387.41005219837916 -13.596858239530736 0.0 0.0
862.5524229658854 21.302537560657726 439.0208423760474 -15.514750418161915 0.0 0.0
943.5292386869183 51.845603424985086 495.2966470442742 -16.70873303276141 0.0 0.0
1024.9982823461435 87.28010561329629 554.1255693152134 -17.175710432125996 0.0 0.0
1105.5324625209214 126.22214864681439 614.1430175656778 -17.159856487913693 0.0 0.0
1185.3321603921468 167.7887343028943 675.023258806313 -16.98130187860621 0.0 0.0
1265.242761800173 212.5513831041152 737.4971194277928 -16.646028302236573 0.0 0.0
1345.7234521439468 260.97407630157886 802.0494563922362 -16.00017320483214 0.0 0.0
1425.8944672232444 312.3042093203713 867.8810286346081 -14.845412457879824 0.0 0.0
1503.2826809113342 364.4997958551484 932.7420693312783 -13.092723749330471 0.0 0.0
1575.6997492869846 415.9586013496211 994.7220083461693 -11.155499724798272 0.0 0.0
1643.9483335937903 468.32997418189035 1054.9860457168174 -11.002228609228776 0.0 0.0
1750.3481603183186 566.0291602956435 1156.548199534197 -18.44695590642695 0.0 0.0
1750.3481603189828 566.0291602963192 1156.548199534583 18.44695590641087 0.0 0.0
1643.9483335959987 468.329974184167 1054.9860457182244 11.002228609380031 0.0 0.0
1575.699749285876 415.95860134859333 994.7220083449764 11.155499724843377 0.0 0.0
1503.2826809091039 364.4997958530184 932.7420693293416 13.092723749141285 0.0 0.0
1425.894467223778 312.3042093210418 867.881028634727 14.845412457759593 0.0 0.0
1345.7234521442376 260.97407630203395 802.0494563922919 16.000173204981664 0.0 0.0
1265.2427617994417 212.55138310356267 737.4971194271981 16.64602830205608 0.0 0.0
1185.33216039097 167.78873430190578 675.023258805458 16.981301878583594 0.0 0.0
1105.5324625199148 126.22214864601847 614.1430175649705 17.159856487776324 0.0 0.0
1024.9982823464188 87.28010561381518 554.1255693153634 17.1757104318403 0.0 0.0
943.5292386866931 51.84560342501575 495.296647044123 16.708733032603234 0.0 0.0
862.552422965062 21.30253756009688 439.0208423755162 15.514750418358856 0.0 0.0
784.2511446044751 -1.6503720706651563 387.4100521974976 13.596858239819381 0.0 0.0
709.4492864014896 -15.538781252565144 339.53404035362564 11.546952850748571 0.0 0.0
636.0064482812297 -20.943230048473318 286.6269170819024 10.502977712086869 0.0 0.0
560.0233915021723 -24.230981448085387 215.39923267426772 11.683331705261638 0.0 0.0
481.38993105782123 -17.33654926181585 152.96463290106837 15.853830658509832 0.0 0.0
422.34254487293845 7.52967237842118 129.15726170203365 2.5885932145119543 0.0 0.0
404.7102053246871 -86.3063801195864 115.6331230935602 -54.26837208003031 0.0 0.0
171.92131651458098 -525.3476368163083 -181.99317741383274 110.95036488820915 0.0 0.0
71.13447299033149 -551.353370904638 -243.583853949853 -161.871792997464 0.0 0.0
282.5573297405765 -81.05748988374373 60.881376000671644 8.049418901548357 0.0 0.0
371.34553675410206 34.83024957086761 121.87141557057934 -9.560855134853632 0.0 0.0
446.69684166129775 -15.899786472092963 135.42598670824367 -36.39628212036242 0.0 0.0
532.7274067486395 -24.193334799776526 192.4030535861211 -33.748356973145626 0.0 0.0
612.9243815138125 -21.481282291403016 267.8619909267609 -31.07311089565273 0.0 0.0
689.9722498110589 -15.342405502620124 327.41176861410815 -32.558104062954705 0.0 0.0
765.70404695355 -1.5020047753994845 377.3966315340971 -35.661581711897526 0.0 0.0
842.4394927561682 19.987348564807405 427.9288826218101 -38.482346254348165 0.0 0.0
919.9426066687304 47.608364355707195 481.16826713610465 -39.84569592431966 0.0 0.0
996.6391073517873 79.06697496500306 535.6904776565812 -39.89838990201688 0.0 0.0
1072.092941155666 113.24046428725325 590.8095466720495 -39.30787169531049 0.0 0.0
1146.5621661551081 150.34142149654514 646.8151044590313 -38.46763375081124 0.0 0.0
1220.8174287056936 190.19361348807377 704.0332462175315 -37.397606918538756 0.0 0.0
1295.0318109914608 232.84361748462115 762.588523943831 -35.821840963006025 0.0 0.0
1368.7234283168295 278.014013469117 822.1124984334542 -33.35900680445623 0.0 0.0
1441.0494168200003 325.24515923810213 881.94824655086 -30.00992631582242 0.0 0.0
1511.9735266259968 375.24946631918993 942.4054862660125 -26.844678924838682 0.0 0.0
1589.4235084088114 437.1647092429713 1011.9468055422969 -25.70792742198868 0.0 0.0
1647.1748177734949 486.1327204334859 1065.2037684963057 -26.782648060440515 0.0 0.0
1647.1748177746315 486.13272043463553 1065.2037684970946 26.78264806030854 0.0 0.0
1589.42350840927 437.1647092434917 1011.9468055426755 25.707927422190743 0.0 0.0
1511.9735266258845 375.2494663191492 942.4054862661184 26.8446789248571 0.0 0.0
1441.0494168196408 325.2451592378557 881.9482465507083 30.009926315799184 0.0 0.0
1368.7234283156517 278.0140134680354 822.1124984327382 33.35900680434435 0.0 0.0
1295.0318109899881 232.8436174832982 762.5885239428594 35.82184096302403 0.0 0.0
1220.8174287053494 190.19361348790795 704.0332462173691 37.39760691857208 0.0 0.0
1146.5621661554035 150.34142149705173 646.8151044592059 38.46763375087463 0.0 0.0
1072.0929411555182 113.24046428732606 590.8095466719726 39.30787169520369 0.0 0.0
996.6391073511269 79.06697496455399 535.690477656176 39.89838990181082 0.0 0.0
919.9426066691179 47.608364356349284 481.1682671363575 39.84569592421016 0.0 0.0
842.4394927564996 19.987348565412503 427.9288826220655 38.4823462543816 0.0 0.0
765.7040469528743 -1.5020047758162605 377.3966315336899 35.66158171173156 0.0 0.0
689.9722498106281 -15.342405502764265 327.41176861379984 32.55810406286961 0.0 0.0
612.9243815140054 -21.481282290869046 267.86199092678333 31.073110895549853 0.0 0.0
532.7274067488771 -24.193334799166685 192.40305358621703 33.74835697307515 0.0 0.0
446.6968416610935 -15.899786472144516 135.42598670815227 36.39628212025565 0.0 0.0
371.34553675407176 34.8302495709666 121.87141557060431 9.560855134942152 0.0 0.0
282.55732974062556 -81.05748988335097 60.88137600081271 -8.04941890153525 0.0 0.0
71.13447299060508 -551.3533709043311 -243.58385394953666 161.87179299721726 0.0 0.0
15.50616019879729 -561.6657381379064 -270.8986818584848 -177.73873539267234 0.0 0.0
158.35478714076172 -68.48530416891984 26.96084489155256 -47.36672819159417 0.0 0.0
301.44961836681614 39.039877315284286 102.14684870463012 -34.36352428153578 0.0 0.0
402.24517389085526 -6.594900663734236 120.52484865868999 -57.09763249512413 0.0 0.0
496.89533207766954 -22.941062070671645 168.25579914886765 -57.855188141125026 0.0 0.0
586.1480845480905 -23.109159769045743 244.37629568976382 -53.208513428153836 0.0 0.0
666.46225692007 -14.290837992774996 312.48200613828067 -53.942451121622646 0.0 0.0
742.6911523320858 -1.2681822014822046 364.82987310351143 -57.548654965000516 0.0 0.0
818.0510657727291 18.656353620648034 414.60373083248703 -60.84953986433407 0.0 0.0
892.0157013658801 43.06633033820397 464.67536557282426 -62.147319186026365 0.0 0.0
964.1761034604319 70.47478368606978 514.980256540269 -61.78826478489111 0.0 0.0
1034.5543410493647 100.41727231980155 565.484756148637 -60.65182236571478 0.0 0.0
1103.8875940664311 132.62193609574086 616.5038806154972 -59.26782608144208 0.0 0.0
1172.280855195999 167.264579167333 668.2186224070088 -57.49901696399695 0.0 0.0
1240.0419619699885 203.91953649257772 720.5777902974003 -55.06181972319229 0.0 0.0
1307.4681749811962 242.94407625722675 773.9031595825334 -51.605268869648725 0.0 0.0
1375.2108916420573 285.5196642855661 829.0977770892376 -47.24740782432478 0.0 0.0
1445.470046195761 334.7413382162878 888.8001679174704 -42.94316223936335 0.0 0.0
1511.881969245043 385.2744610648019 947.218376020028 -38.780096862930016 0.0 0.0
1559.5730010239895 423.27108345522623 989.9939359559525 -33.74849018599083 0.0 0.0
1559.573001023871 423.27108345512164 989.9939359557175 33.74849018600521 0.0 0.0
1511.8819692445495 385.2744610643757 947.2183760195128 38.78009686313805 0.0 0.0
1445.4700461965883 334.7413382172177 888.8001679179481 42.94316223948427 0.0 0.0
1375.2108916409265 285.51966428451885 829.0977770883112 47.24740782427149 0.0 0.0
1307.4681749814288 242.94407625761613 773.9031595824514 51.60526886976517 0.0 0.0
1240.0419619702818 203.9195364930153 720.5777902974946 55.061819723167545 0.0 0.0
1172.280855196178 167.26457916771506 668.2186224070485 57.499016964126184 0.0 0.0
1103.8875940661692 132.6219360956967 616.5038806152627 59.267826081515494 0.0 0.0
1034.5543410480868 100.41727231868123 565.4847561478017 60.65182236556217 0.0 0.0
964.1761034601589 70.47478368603299 514.9802565400156 61.78826478490181 0.0 0.0
892.0157013660183 43.06633033863085 464.6753655728917 62.14731918615344 0.0 0.0
818.0510657718648 18.656353620071144 414.6037308319254 60.84953986432399 0.0 0.0
742.6911523318597 -1.268182201452916 364.8298731033233 57.54865496490012 0.0 0.0
666.4622569198034 -14.290837992734083 312.4820061380894 53.94245112166113 0.0 0.0
586.1480845468105 -23.109159770098337 244.37629568888363 53.20851342810104 0.0 0.0
496.89533207716823 -22.94106207086011 168.2557991485444 57.85518814119509 0.0 0.0
402.2451738907378 -6.594900663575803 120.52484865870795 57.09763249507668 0.0 0.0
301.4496183668284 39.03987731519195 102.1468487046061 34.363524281475996 0.0 0.0
158.3547871408498 -68.48530416865029 26.960844891659846 47.36672819126537 0.0 0.0
15.50616019892911 -561.6657381377199 -270.898681858264 177.73873539248365 0.0 0.0
-6.090840626081047 -551.9196824624532 -270.23048678762115 -179.74464462256068 0.0 0.0
90.03956713006575 -62.836653549392366 8.160874074202017 -94.43054558246813 0.0 0.0
235.45238124815086 35.170205438288114 81.18677600593168 -68.18373632472712 0.0 0.0
347.9061371667543 3.3770154346477783 105.64782359966344 -79.73030411831941 0.0 0.0
451.36677650644486 -21.074103681173277 143.39874066932214 -84.550124851288 0.0 0.0
550.1607544111766 -22.944011578944732 216.74913536867516 -77.09171838936868 0.0 0.0
636.3758279270229 -14.362201652000081 291.76316644966613 -75.9758129352999 0.0 0.0
715.0299413472167 -0.4726754456168223 349.57489171012594 -79.3307104384338 0.0 0.0
788.6735367704333 17.130345305188825 398.50369068692163 -82.58793020700429 0.0 0.0
859.3335329341464 38.313895803305144 445.62389915321125 -83.62731995221777 0.0 0.0
927.1404053038939 61.77374273997066 491.8897794624504 -82.8526088729388 0.0 0.0
992.7183053666447 87.33385328130994 537.8540820004594 -81.25589444361422 0.0 0.0
1056.6177088561303 114.81346413386707 583.8289888393463 -79.30767376274198 0.0 0.0
1119.4243702862557 144.10358993118228 630.1111775382824 -76.91773268175551 0.0 0.0
1180.857761596695 174.62055508363173 676.269769549401 -73.77579655133304 0.0 0.0
1241.7868891639205 207.48920059050386 723.2790099708889 -69.63803060391217 0.0 0.0
1304.7656732164564 245.11204329696167 773.6062863825541 -64.62836172800641 0.0 0.0
1369.373003554738 288.1236673019838 827.3951289878873 -58.89524673100664 0.0 0.0
1429.563596189279 331.3641115932015 879.075991106442 -51.46366303518012 0.0 0.0
1473.760221711522 364.2058947023002 917.5364381592011 -41.07378903883749 0.0 0.0
1473.7602217126218 364.20589470340985 917.5364381600278 41.07378903881036 0.0 0.0
1429.5635961892833 331.36411159325814 879.0759911064602 51.46366303527489 0.0 0.0
1369.373003552575 288.12366729989463 827.3951289863659 58.8952467311061 0.0 0.0
1304.765673216738 245.1120432972964 773.6062863826855 64.62836172781881 0.0 0.0
1241.786889163947 207.48920059063454 723.2790099710228 69.63803060386583 0.0 0.0
1180.857761596056 174.62055508311772 676.2697695490432 73.7757965512655 0.0 0.0
1119.4243702857946 144.1035899308746 630.1111775379511 76.91773268175798 0.0 0.0
1056.617708855184 114.81346413315066 583.8289888386931 79.30767376293711 0.0 0.0
992.7183053666494 87.33385328155379 537.8540820004398 81.25589444370776 0.0 0.0
927.1404053027131 61.77374273903868 491.8897794616197 82.85260887299165 0.0 0.0
859.3335329332696 38.31389580263391 445.62389915258797 83.62731995207292 0.0 0.0
788.6735367699996 17.130345305037878 398.5036906866514 82.58793020705983 0.0 0.0
715.0299413478862 -0.47267544457189103 349.57489171057125 79.33071043849182 0.0 0.0
636.3758279278538 -14.36220165080438 291.7631664501169 75.9758129352387 0.0 0.0
550.16075441093 -22.94401157882591 216.74913536844846 77.09171838935427 0.0 0.0
451.3667765060616 -21.074103681286864 143.39874066909044 84.55012485113066 0.0 0.0
347.90613716659294 3.377015434497113 105.64782359957997 79.73030411822236 0.0 0.0
235.45238124810925 35.170205437977465 81.18677600582599 68.18373632471005 0.0 0.0
90.03956713007483 -62.83665354919327 8.160874074264466 94.43054558235711 0.0 0.0
-6.0908406260379735 -551.9196824622413 -270.23048678742015 179.74464462242446 0.0 0.0
-11.472974893308418 -530.0395333074873 -253.89317086760917 -176.856960155221 0.0 0.0
52.836430454389564 -58.422269782084776 -1.6757517983085641 -131.100909269834 0.0 0.0
179.13676280728328 28.026657992644232 62.14902623997825 -102.37596330630295 0.0 0.0
289.62372093901854 10.403439626558594 90.05061524589598 -103.69753141628897 0.0 0.0
394.510725097623 -16.819067480989414 119.53192958492959 -112.36250376189268 0.0 0.0
503.47160405870784 -22.361020378400163 185.09477186927796 -104.01878339345974 0.0 0.0
599.1212812727335 -14.665216041406993 264.9341980667838 -99.38442308155787 0.0 0.0
681.0405004682217 -0.1491822669087739 329.7003853245123 -101.06782050061265 0.0 0.0
753.7476138955219 15.670672054645308 379.29818280754426 -103.7164687524743 0.0 0.0
821.2524662619787 33.39668212934869 423.6627637155779 -104.33943285493935 0.0 0.0
884.9869442272161 52.98345911118585 466.12450877509343 -103.09707968953076 0.0 0.0
945.6033234031112 74.11773991252267 507.4760003580608 -101.05916683691568 0.0 0.0
1004.2102028283402 96.73873107995827 548.4279743977019 -98.68360938878504 0.0 0.0
1061.1952102323153 120.8075949646619 589.2204508348365 -95.65890464599676 0.0 0.0
1116.639214886263 145.61874507562197 629.5683617884163 -91.89624404822955 0.0 0.0
1171.4250966201114 172.05730636004526 670.3235704177157 -87.39291371164985 0.0 0.0
1227.3455322085874 202.57547260047508 713.5884266490243 -81.91397429135944 0.0 0.0
1285.5265546949797 238.32282668824462 760.5385792436616 -74.90737610991006 0.0 0.0
1341.5381327983798 275.5859837269501 807.1403657004279 -64.55542508431185 0.0 0.0
1386.0696432303855 306.25406831681585 844.6642988504972 -49.38898797819655 0.0 0.0
1386.0696432311925 306.2540683176174 844.6642988510669 49.388987978171784 0.0 0.0
1341.5381327994087 275.5859837280956 807.1403657011075 64.55542508459938 0.0 0.0
1285.5265546947157 238.32282668811763 760.5385792433109 74.90737611018949 0.0 0.0
1227.3455322077168 202.57547259966657 713.5884266481964 81.91397429134162 0.0 0.0
1171.425096620559 172.05730636063288 670.3235704178569 87.39291371168024 0.0 0.0
1116.6392148854707 145.61874507501955 629.568361787876 91.89624404836565 0.0 0.0
1061.1952102323419 120.80759496488372 589.2204508347563 95.65890464609424 0.0 0.0
1004.2102028295202 96.73873108144647 548.4279743985082 98.68360938906973 0.0 0.0
945.6033234026946 74.11773991239048 507.47600035781335 101.05916683709893 0.0 0.0
884.9869442276964 52.98345911200178 466.12450877534525 103.09707968972901 0.0 0.0
821.2524662623589 33.39668213000391 423.66276371575833 104.33943285491267 0.0 0.0
753.7476138958755 15.67067205524512 379.29818280776124 103.71646875240893 0.0 0.0
681.040500467738 -0.14918226697642467 329.7003853242314 101.06782050077388 0.0 0.0
599.1212812717627 -14.665216042196441 264.93419806607415 99.38442308138889 0.0 0.0
503.47160405853117 -22.361020378158727 185.09477186910894 104.01878339347222 0.0 0.0
394.5107250972078 -16.819067481029002 119.53192958476669 112.36250376190313 0.0 0.0
289.6237209390098 10.403439626592471 90.05061524591248 103.69753141609365 0.0 0.0
179.13676280719415 28.026657992386422 62.14902623987415 102.37596330603392 0.0 0.0
52.83643045458706 -58.42226978152432 -1.675751798081183 131.10090926947532 0.0 0.0
-11.472974893160597 -530.0395333071593 -253.89317086733735 176.85696015508594 0.0 0.0
-9.5246422833589 -499.96565740032077 -228.2472039369881 -172.74505552266058 0.0 0.0
31.463496443655686 -53.62372983643591 -6.648070017834067 -158.52554799908538 0.0 0.0
131.65640831672366 20.362466158906596 45.605662342689065 -132.39815783816925 0.0 0.0
231.2117605871078 13.316068629904462 73.3543723065201 -127.89007510303138 0.0 0.0
328.0114089327549 -9.787487333904563 97.75617121332057 -138.40746392547982 0.0 0.0
440.52060130155894 -21.415525429779194 149.9518524060689 -134.35328751549523 0.0 0.0
548.7548801004335 -13.998615362974293 230.3055377647419 -125.05936746162635 0.0 0.0
637.3352204292775 -0.9918214540405295 302.13025617172093 -123.38922903575471 0.0 0.0
711.7055640547492 13.886383936714537 355.5667530740661 -124.49683798168212 0.0 0.0
776.6620521640154 28.471847241106587 398.1765651378929 -124.28798452328748 0.0 0.0
836.2673635167955 44.05676033766755 436.8850843913937 -122.5381576635338 0.0 0.0
892.1192663407697 60.865973689819 473.8334078960568 -120.07487270149774 0.0 0.0
945.1625926465641 78.62516135527115 509.650938766302 -117.29337892067991 0.0 0.0
996.4579653742269 97.31570243826334 544.9454706443547 -113.86871840153782 0.0 0.0
1046.4866977166862 116.8611155150023 579.986246699041 -109.55190200763803 0.0 0.0
1094.515017497777 137.0666049363175 614.3087058667339 -104.56717769944255 0.0 0.0
1142.4432482795976 159.03108268259388 649.3510950446757 -98.9210615069029 0.0 0.0
1193.0055156877338 185.8817530206391 688.0488319748224 -91.23615082852436 0.0 0.0
1245.5656718651742 217.40893870751157 730.0301551287281 -78.66440068490796 0.0 0.0
1293.3658391141144 247.76768416492368 768.9868666052001 -59.38966690044982 0.0 0.0
1293.3658391155918 247.767684166509 768.9868666060918 59.38966690076995 0.0 0.0
1245.5656718670252 217.40893870946445 730.030155129977 78.66440068507801 0.0 0.0
1193.0055156884143 185.88175302152138 688.0488319754522 91.23615082881783 0.0 0.0
1142.4432482804366 159.0310826835747 649.3510950453258 98.92106150696836 0.0 0.0
1094.5150174991563 137.06660493781897 614.3087058677019 104.56717769945983 0.0 0.0
1046.4866977175354 116.86111551607206 579.986246699551 109.55190200783568 0.0 0.0
996.4579653742649 97.31570243862893 544.9454706443687 113.86871840181844 0.0 0.0
945.1625926461866 78.62516135505794 509.6509387659353 117.2933789206775 0.0 0.0
892.119266341209 60.865973690524044 473.8334078962434 120.07487270157709 0.0 0.0
836.2673635164473 44.05676033749751 436.88508439118493 122.53815766349129 0.0 0.0
776.6620521626162 28.471847239846085 398.17656513698455 124.28798452315168 0.0 0.0
711.705564054209 13.886383936498461 355.56675307366186 124.49683798176054 0.0 0.0
637.3352204288118 -0.9918214541949624 302.130256171399 123.38922903575747 0.0 0.0
548.7548800994887 -13.998615363727737 230.30553776403872 125.05936746150306 0.0 0.0
440.5206013008665 -21.415525430239075 149.95185240559053 134.353287515353 0.0 0.0
328.01140893277903 -9.78748733318635 97.75617121353571 138.4074639254793 0.0 0.0
231.2117605873309 13.316068630518298 73.35437230677262 127.8900751027908 0.0 0.0
131.6564083168475 20.36246615908167 45.60566234277874 132.39815783798565 0.0 0.0
31.46349644377792 -53.623729836200525 -6.648070017726779 158.52554799908967 0.0 0.0
-9.52464228322819 -499.965657399961 -228.24720393668343 172.74505552256392 0.0 0.0
-4.112795048725289 -463.3460187589677 -196.69283371685614 -168.98743766116553 0.0 0.0
17.48459368050967 -49.05288496864807 -9.470285190899897 -177.90934493233183 0.0 0.0
90.29733862268726 13.415307812362498 31.113175963340787 -156.39805742929622 0.0 0.0
173.09630153991287 14.293907384699931 56.21393909969665 -150.41329185879556 0.0 0.0
256.09631469973317 -2.652695998957723 77.07183465909152 -160.8229812693202 0.0 0.0
361.86797741685496 -17.666235834243544 114.80333350691888 -166.0085836223701 0.0 0.0
480.0362683772219 -13.885438651595678 186.69350836913424 -154.6354384050199 0.0 0.0
580.1810865769077 -1.6058974535654382 264.6157410574431 -147.14994438747232 0.0 0.0
658.442893627371 11.196811729132968 323.81803103035054 -145.33190130186875 0.0 0.0
722.8891629928052 23.378806976863608 367.33616091596866 -143.68087296067523 0.0 0.0
778.6148971877973 34.98888954479392 402.83652249029365 -141.19460000385928 0.0 0.0
829.8119583978661 47.69205464738164 435.6838963212422 -138.2845140259592 0.0 0.0
877.2396329462242 60.55636832636938 466.39080018248416 -135.17672646322228 0.0 0.0
922.3703730393936 73.86200932940665 495.9909287639659 -131.5084209707789 0.0 0.0
966.5851409428346 87.99093824933979 525.4345199210164 -126.81314218048918 0.0 0.0
1009.5689716709263 102.83735107984462 554.6242832836099 -121.25748459711808 0.0 0.0
1048.7369625669241 116.05946215473023 581.0358630086213 -115.31963558368095 0.0 0.0
1089.1631555004303 131.7123050171918 609.0893226275791 -107.79527873352635 0.0 0.0
1137.6693475290929 155.63846074565376 645.179244715884 -94.40563574040002 0.0 0.0
1191.7073353702613 187.06810270841515 687.6878462749363 -72.10563797087181 0.0 0.0
1191.7073353705314 187.06810270869641 687.687846275254 72.10563797096002 0.0 0.0
1137.6693475284596 155.63846074503022 645.1792447154216 94.40563574040698 0.0 0.0
1089.1631554993562 131.71230501625473 609.0893226267992 107.79527873378797 0.0 0.0
1048.7369625666347 116.05946215459397 581.035863008348 115.31963558381072 0.0 0.0
1009.5689716700739 102.83735107916999 554.6242832829837 121.25748459728469 0.0 0.0
966.5851409421404 87.99093824888297 525.4345199206114 126.81314218061183 0.0 0.0
922.3703730386381 73.86200932883517 495.99092876343514 131.50842097088852 0.0 0.0
877.2396329459206 60.55636832614351 466.39080018219363 135.1767264631138 0.0 0.0
829.8119583977088 47.692054647350375 435.68389632113383 138.28451402584045 0.0 0.0
778.6148971873438 34.98888954455538 402.836522489918 141.19460000388932 0.0 0.0
722.8891629919042 23.37880697614925 367.3361609153773 143.68087296057675 0.0 0.0
658.4428936263525 11.196811728227445 323.81803102973873 145.33190130167884 0.0 0.0
580.1810865760773 -1.6058974544905453 264.61574105672923 147.14994438710693 0.0 0.0
480.036268376887 -13.885438651624696 186.69350836883092 154.63543840491042 0.0 0.0
361.8679774165772 -17.66623583422023 114.80333350675667 166.00858362222058 0.0 0.0
256.09631469933464 -2.6526959993808195 77.07183465884447 160.82298126910726 0.0 0.0
173.09630153965233 14.293907384372568 56.21393909952128 150.4132918587511 0.0 0.0
90.29733862276979 13.415307812375566 31.113175963370104 156.39805742910178 0.0 0.0
17.484593680562423 -49.05288496839111 -9.470285190807143 177.9093449320984 0.0 0.0
-4.11279504866323 -463.3460187585994 -196.69283371658048 168.9874376611492 0.0 0.0
1.3941330390568254 -421.5498431399954 -163.34640494896087 -166.49952455602684 0.0 0.0
5.085221406221521 -45.47530930836594 -12.11706756218473 -189.42718317467308 0.0 0.0
52.62149939976052 7.909596589564999 18.15982426398483 -174.3145035263675 0.0 0.0
115.85581840494709 15.214093076805534 39.33687954974948 -169.14135560486184 0.0 0.0
182.23693032425214 2.249243624678871 55.9435121214781 -180.09842295511118 0.0 0.0
266.21203990321544 -10.22105095574915 81.56280042808903 -192.9071088616352 0.0 0.0
382.9784228944799 -12.396009316846088 135.56788197826208 -188.6099151634739 0.0 0.0
499.4284051249651 -2.6755849597729386 212.0179434586775 -174.76425037021818 0.0 0.0
587.5745558420783 8.119362069392606 278.68195637137825 -167.12541557980248 0.0 0.0
653.2075320381925 17.703858740444453 326.0399184964365 -162.7995160293169 0.0 0.0
706.6440950237085 25.712557777503083 360.65631285269535 -159.30917827190086 0.0 0.0
752.9469065570627 34.44797800885394 389.8622685546005 -155.7661133319983 0.0 0.0
794.6593537747481 42.82152932420957 415.82849620366966 -152.25350153022987 0.0 0.0
833.2843893936351 50.68093603279297 439.64094249710627 -148.52108889887018 0.0 0.0
871.0446473795487 58.90521022112526 462.9816900969608 -143.8581327453221 0.0 0.0
909.123296198768 68.54314304942024 487.11245995541896 -137.68327468782638 0.0 0.0
943.4710182759602 76.05925991200024 508.4248581353649 -130.9071291162339 0.0 0.0
970.8780745455635 77.83173793725749 523.2137554118949 -124.01053406154278 0.0 0.0
1009.7593353803754 88.71402037655093 547.8343500121885 -112.05745604659016 0.0 0.0
1072.4902558687243 121.55012915985486 595.1519795056723 -89.07044283729483 0.0 0.0
1072.490255869378 121.55012916067568 595.1519795060731 89.07044283772524 0.0 0.0
1009.7593353807222 88.71402037708941 547.8343500124963 112.05745604686572 0.0 0.0
970.8780745454765 77.83173793746431 523.2137554118415 124.0105340619829 0.0 0.0
943.4710182763953 76.0592599127645 508.4248581355081 130.90712911661106 0.0 0.0
909.1232961996961 68.54314305074234 487.11245995586995 137.68327468811384 0.0 0.0
871.0446473800002 58.90521022177202 462.98169009712365 143.85813274538796 0.0 0.0
833.2843893936873 50.680936033070594 439.6409424971855 148.52108889894868 0.0 0.0
794.6593537748449 42.82152932452561 415.8284962037577 152.25350153030976 0.0 0.0
752.9469065566299 34.44797800849568 389.86226855427793 155.7661133319036 0.0 0.0
706.6440950228496 25.71255777670963 360.6563128520953 159.30917827176103 0.0 0.0
653.2075320375973 17.703858739797468 326.0399184959272 162.79951602904686 0.0 0.0
587.574555842226 8.119362070012187 278.68195637147363 167.12541557992625 0.0 0.0
499.42840512495064 -2.675584959071692 212.0179434586849 174.76425037045004 0.0 0.0
382.9784228943946 -12.396009316234228 135.56788197829053 188.60991516355304 0.0 0.0
266.2120399030984 -10.221050955331453 81.56280042814912 192.90710886148028 0.0 0.0
182.23693032426556 2.2492436249032446 55.94351212154562 180.09842295495122 0.0 0.0
115.85581840457449 15.214093076233269 39.33687954947308 169.14135560476902 0.0 0.0
52.62149939969342 7.909596589447821 18.159824263933192 174.31450352615653 0.0 0.0
5.085221406150483 -45.4753093083259 -12.11706756219537 189.4271831745017 0.0 0.0
1.3941330390213835 -421.5498431397472 -163.3464049487619 166.49952455596141 0.0 0.0
3.779311893220857 -375.3165430607614 -132.17038703513504 -163.8807262877506 0.0 0.0
-9.923431859370298 -44.20745531113535 -16.243434048543747 -195.0292604528214 0.0 0.0
17.027021266377798 4.540463717514443 6.474261544259031 -186.34391580533344 0.0 0.0
60.08905574655846 16.385055087424735 22.971536346926428 -183.21782862211998 0.0 0.0
106.18026312999991 6.362541257517666 34.140335258674455 -195.0403979846949 0.0 0.0
160.9747557512582 -3.302781010758975 49.276793490269846 -212.24104165583543 0.0 0.0
249.7885357028637 -6.10978973697129 81.89591522632853 -219.93814613192245 0.0 0.0
370.7129407357289 -2.81636573295485 139.78840428235912 -209.04517035899647 0.0 0.0
477.8053422650541 5.009915743010406 207.44645951414094 -192.94258673576155 0.0 0.0
550.9254970493225 11.149440668970776 261.02276168797067 -182.78673032814356 0.0 0.0
603.297939736656 16.709451393774174 298.9750680183697 -177.0269333001043 0.0 0.0
644.7204748048605 21.007529464660323 326.39862925865884 -172.68143507328872 0.0 0.0
680.4224075658713 25.25261660415893 348.8398481879276 -168.62600843598182 0.0 0.0
712.1644642452806 28.2185784838029 367.53806994150494 -164.7175690142536 0.0 0.0
742.2084004735237 30.16899211741091 384.24732851871505 -160.30593368197222 0.0 0.0
773.6824557232965 32.86035526285809 401.66690122898075 -154.40104071649563 0.0 0.0
807.911805608867 37.274148079382 421.27101915259567 -146.20592987430408 0.0 0.0
831.7083095411348 32.41477085574928 431.3888326944814 -138.32594242981904 0.0 0.0
847.3042131156915 15.761341004930244 430.69105546022246 -130.6547846431845 0.0 0.0
917.4929765550103 44.82814443046581 479.0625235723897 -113.04707890190888 0.0 0.0
917.4929765535464 44.82814442900127 479.062523571503 113.04707890193464 0.0 0.0
847.3042131151983 15.761341004298117 430.691055459933 130.6547846432236 0.0 0.0
831.7083095418902 32.414770856993016 431.38883269518556 138.3259424304079 0.0 0.0
807.9118056089233 37.27414807932303 421.27101915275387 146.2059298742256 0.0 0.0
773.6824557228192 32.86035526237771 401.66690122874337 154.40104071652644 0.0 0.0
742.2084004747953 30.1689921187438 384.2473285195653 160.30593368189318 0.0 0.0
712.1644642450359 28.218578483895897 367.53806994148096 164.71756901440398 0.0 0.0
680.4224075653572 25.25261660355551 348.8398481875198 168.62600843597298 0.0 0.0
644.7204748054309 21.007529465569093 326.39862925900087 172.68143507344024 0.0 0.0
603.2979397366339 16.70945139417681 298.9750680184207 177.0269333001866 0.0 0.0
550.9254970501189 11.149440670202196 261.022761688467 182.78673032818924 0.0 0.0
477.8053422658585 5.00991574438919 207.44645951463602 192.94258673581828 0.0 0.0
370.7129407354137 -2.816365732683373 139.78840428222276 209.0451703590976 0.0 0.0
249.78853570225095 -6.10978973743433 81.89591522596116 219.93814613181672 0.0 0.0
160.97475575086418 -3.3027810112376637 49.2767934900046 212.24104165549244 0.0 0.0
106.18026312982492 6.362541257340608 34.140335258568534 195.04039798446027 0.0 0.0
60.089055746519776 16.385055087439948 22.971536346922147 183.21782862194138 0.0 0.0
17.02702126633653 4.540463717693425 6.4742615443017275 186.34391580498598 0.0 0.0
-9.923431859415373 -44.2074553110988 -16.243434048549098 195.02926045253895 0.0 0.0
3.779311893193327 -375.3165430605312 -132.17038703497312 163.88072628759932 0.0 0.0
1.7898587673521504 -325.38349613829746 -104.98864324966146 -158.93849927090346 0.0 0.0
-28.761521070521535 -45.97152470741434 -22.42795416963221 -196.72619076059868 0.0 0.0
-17.28277054422762 3.4881782778180574 -4.14057374602704 -193.34891619067741 0.0 0.0
5.9502068750114105 17.587932974161394 7.077170743307206 -192.2015566800045 0.0 0.0
29.39897306735134 10.800679845673542 12.186448732168857 -203.85356762342053 0.0 0.0
51.771846563392394 2.1878384952335836 16.791322991886474 -223.25282780465645 0.0 0.0
84.34256391790134 -0.9003678957064443 26.99437594825375 -238.18796547078344 0.0 0.0
146.53509634133152 1.1520406556148242 49.585752321559646 -239.7503521387738 0.0 0.0
236.07372701964223 5.264516654459975 86.2749816175762 -225.25950706640515 0.0 0.0
318.8459326804673 7.128207310004498 128.38169856019104 -208.41259389898886 0.0 0.0
379.08197176734535 8.484687352933832 167.15876399748927 -196.18289584309818 0.0 0.0
417.31235311533214 8.716139437447026 195.85018976066843 -188.80964162748703 0.0 0.0
444.83695555756157 8.726199284705842 217.52150441337042 -183.52536888841612 0.0 0.0
467.871661157566 6.513490947705662 233.67005262258664 -179.06016617400599 0.0 0.0
490.9163259654485 2.2256121785708274 246.4524943179157 -174.78846187532946 0.0 0.0
519.1034920750766 -3.2081706272294355 259.0563178980309 -169.98525151404874 0.0 0.0
556.9257666240035 -6.333145824408604 276.18663071526595 -162.7042593569685 0.0 0.0
603.3260628984877 -5.855585730427947 299.37466377155124 -151.5988442034693 0.0 0.0
619.6324142094509 -38.676926083476616 291.99838257084184 -143.4907027047655 0.0 0.0
658.6917973959908 -67.48002102208025 293.6589485698138 -144.38691153056095 0.0 0.0
658.6917973963705 -67.48002102159637 293.6589485701139 144.38691153070783 0.0 0.0
619.632414208836 -38.676926084207196 291.99838257040204 143.4907027050716 0.0 0.0
603.3260628976476 -5.855585731115809 299.37466377106784 151.59884420378768 0.0 0.0
556.9257666219844 -6.333145827079477 276.18663071372623 162.70425935696653 0.0 0.0
519.1034920729217 -3.208170629831727 259.0563178965001 169.98525151394327 0.0 0.0
490.91632596535567 2.2256121778691806 246.45249431762977 174.7884618751901 0.0 0.0
467.8716611578618 6.5134909484527554 233.67005262290422 179.06016617419164 0.0 0.0
444.83695555716645 8.72619928437986 217.52150441316155 183.5253688885124 0.0 0.0
417.3123531141089 8.716139435449392 195.85018975967034 188.80964162722148 0.0 0.0
379.08197176652277 8.484687351573328 167.15876399674468 196.1828958428681 0.0 0.0
318.84593267955785 7.128207308677474 128.38169855944392 208.41259389883982 0.0 0.0
236.07372701885316 5.264516653119305 86.27498161690265 225.25950706638446 0.0 0.0
146.5350963409266 1.1520406550646562 49.58575232125183 239.7503521387728 0.0 0.0
84.34256391753539 -0.9003678963412352 26.994375947949948 238.1879654705737 0.0 0.0
51.771846563130204 2.1878384946832172 16.791322991644332 223.25282780437647 0.0 0.0
29.398973067416357 10.800679845993086 12.186448732283901 203.8535676232317 0.0 0.0
5.950206875400308 17.587932974935956 7.077170743656421 192.20155667973538 0.0 0.0
-17.282770544405473 3.4881782776868473 -4.140573746120437 193.34891619048386 0.0 0.0
-28.761521070775007 -45.97152470769266 -22.427954169794305 196.72619076043057 0.0 0.0
1.7898587672762432 -325.38349613800256 -104.98864324955001 158.93849927083178 0.0 0.0
-9.000232770063995 -274.0570861514826 -86.1838973658365 -149.66745109217294 0.0 0.0
-48.743726343989685 -48.679438736103265 -29.242999737355888 -196.34469472322533 0.0 0.0
-50.67375044208383 3.7079830965650156 -14.120019470706838 -196.0017892353711 0.0 0.0
-46.56309448391127 18.652605832145035 -8.424341166405249 -195.85646383458135 0.0 0.0
-46.4337175068015 15.289858928544199 -9.510175974354548 -206.01345815879574 0.0 0.0
-58.45791467151112 7.347613536057265 -16.005653127665582 -224.18665360439158 0.0 0.0
-87.59926175578167 2.597444980210237 -27.55887390570225 -238.34946465356154 0.0 0.0
-147.70789476805214 -0.7135122891113888 -49.885262484795334 -239.95659798445158 0.0 0.0
-235.96201573697664 -4.98808498513749 -86.16911172319776 -225.3789179889622 0.0 0.0
-318.56927159722227 -6.653019218078079 -128.12421064037557 -208.3871050944818 0.0 0.0
-379.342952401062 -6.8818994597770455 -166.5768153750301 -195.98803695339262 0.0 0.0
-419.26532558358394 -7.126068038767997 -195.96966157467642 -188.32513689254824 0.0 0.0
-449.53017058027564 -9.91324739345427 -219.99383583705105 -183.2256543863891 0.0 0.0
-473.2911546006016 -15.802400274007823 -240.6625549588763 -180.04525592592404 0.0 0.0
-488.7328078521591 -24.9102673619889 -258.1935952822437 -178.62467308872743 0.0 0.0
-492.5217726679484 -36.21258344160046 -271.6541551699797 -178.44013674330785 0.0 0.0
-475.82580021219997 -46.92753966468041 -277.6223644694009 -178.33768922080398 0.0 0.0
-409.42157819402706 -39.64481916521427 -259.78538972985405 -178.012419067787 0.0 0.0
-227.98865875928823 -40.965638252846645 -201.27819918304658 -181.06814880158518 0.0 0.0
-30.244979498429416 -175.67552404128966 -72.9620467841012 -177.1831479356467 0.0 0.0
-30.244979497401403 -175.67552403954534 -72.96204678333822 177.183147935764 0.0 0.0
-227.98865875829438 -40.96563825091221 -201.27819918225612 181.0681488020602 0.0 0.0
-409.4215781934264 -39.644819164263254 -259.7853897292833 178.01241906810273 0.0 0.0
-475.825800210422 -46.927539662042335 -277.62236446793196 178.33768922083158 0.0 0.0
-492.5217726673902 -36.21258344031179 -271.6541551694103 178.44013674302835 0.0 0.0
-488.7328078530355 -24.91026736377762 -258.1935952830735 178.62467308892562 0.0 0.0
-473.29115460106186 -15.802400275116014 -240.66255495929414 180.04525592601627 0.0 0.0
-449.5301705794474 -9.913247393047982 -219.99383583662038 183.22565438641118 0.0 0.0
-419.2653255819802 -7.126068036792574 -195.9696615735092 188.32513689228247 0.0 0.0
-379.34295239962506 -6.881899458248284 -166.57681537398526 195.98803695323406 0.0 0.0
-318.56927159647967 -6.653019218148913 -128.124210640006 208.38710509445116 0.0 0.0
-235.96201573659306 -4.9880849857601355 -86.16911172320856 225.37891798913438 0.0 0.0
-147.70789476729894 -0.713512288629234 -49.88526248439307 239.95659798445496 0.0 0.0
-87.59926175521137 2.597444980831205 -27.558873905325328 238.3494646533749 0.0 0.0
-58.457914671350245 7.34761353603359 -16.00565312762238 224.1866536041947 0.0 0.0
-46.43371750669596 15.289858928780449 -9.510175974252233 206.0134581585808 0.0 0.0
-46.56309448379082 18.65260583221723 -8.42434116634809 195.85646383437805 0.0 0.0
-50.67375044213663 3.707983096406158 -14.120019470772732 196.00178923514687 0.0 0.0
-48.74372634416899 -48.67943873622822 -29.242999737454074 196.34469472316871 0.0 0.0
-9.000232770174373 -274.0570861512746 -86.18389736581877 149.66745109214486 0.0 0.0
-22.14513321419828 -224.39634856527994 -73.9543693049786 -136.8287479194425 0.0 0.0
-66.33712534776856 -49.18725701927622 -34.675912917713276 -192.93726905254712 0.0 0.0
-83.12893397233478 3.893181276463597 -23.83292339465739 -194.8159910329474 0.0 0.0
-97.41792720125113 19.579964621075025 -23.48652838700731 -194.30637515438139 0.0 0.0
-120.51071686474673 18.934322439142342 -31.026781353823303 -201.32331012865706 0.0 0.0
-166.3647891749615 12.331662944491558 -48.512956701300496 -214.50559233332174 0.0 0.0
-251.26005954964506 7.679633959900189 -82.21925533691899 -220.91066183619503 0.0 0.0
-370.24455117047785 3.1862965255864566 -139.69326533030977 -209.63304478496133 0.0 0.0
-477.348475246334 -4.769663537586574 -207.1987858501518 -193.14390763520032 0.0 0.0
-550.4974888545083 -10.618691378132127 -260.6268440385404 -182.74491716395886 0.0 0.0
-602.80820242667 -15.464404471140483 -298.20730984436864 -176.67954692739454 0.0 0.0
-644.9295191237427 -19.585087768857463 -325.78845319971776 -171.8205105007131 0.0 0.0
-682.8539097684053 -26.158340248510143 -350.28088309596706 -167.7317796416603 0.0 0.0
-718.4006115568826 -36.05823406579867 -374.22008654027144 -165.49087903337647 0.0 0.0
-751.7087495989115 -49.58762863438335 -398.5309975460668 -165.47907361809 0.0 0.0
-780.5540724252277 -65.41273922359582 -421.74362928366065 -167.60245286162888 0.0 0.0
-799.9106579024904 -80.17728214357317 -439.8110769960675 -172.35201142579706 0.0 0.0
-808.113067173046 -93.2226768682902 -451.261162472702 -179.78171974108048 0.0 0.0
-840.0508671461814 -146.38765771755817 -495.1905084957021 -189.29369222221186 0.0 0.0
-861.2150593816459 -241.55113695371645 -555.0159077498364 -208.07955916520234 0.0 0.0
-861.2150593803486 -241.551136951972 -555.015907748915 208.07955916503363 0.0 0.0
-840.0508671457887 -146.3876577167659 -495.19050849544584 189.29369222218395 0.0 0.0
-808.1130671750857 -93.22267687089254 -451.261162474275 179.78171974158155 0.0 0.0
-799.910657903348 -80.17728214506673 -439.8110769969119 172.35201142617663 0.0 0.0
-780.5540724236332 -65.41273922177476 -421.74362928261223 167.6024528613416 0.0 0.0
-751.7087495987643 -49.58762863437198 -398.5309975459412 165.47907361812554 0.0 0.0
-718.4006115568461 -36.0582340657364 -374.2200865401577 165.49087903317752 0.0 0.0
-682.8539097676921 -26.158340247795422 -350.2808830954607 167.7317796415548 0.0 0.0
-644.9295191236627 -19.585087768933036 -325.78845319959584 171.8205105006788 0.0 0.0
-602.8082024263762 -15.46440447142838 -298.20730984422096 176.6795469275292 0.0 0.0
-550.4974888539468 -10.618691377837465 -260.62684403810704 182.7449171638391 0.0 0.0
-477.34847524635626 -4.769663538401964 -207.19878585021712 193.1439076354704 0.0 0.0
-370.2445511693872 3.1862965261015557 -139.6932653296953 209.63304478507013 0.0 0.0
-251.26005954877195 7.679633960526922 -82.21925533640656 220.91066183610735 0.0 0.0
-166.36478917454062 12.331662944854536 -48.51295670105736 214.50559233308155 0.0 0.0
-120.51071686462515 18.93432243915758 -31.026781353779686 201.32331012845498 0.0 0.0
-97.41792720103636 19.579964621256366 -23.48652838688992 194.30637515429692 0.0 0.0
-83.12893397220584 3.893181276721499 -23.832923394544636 194.8159910327207 0.0 0.0
-66.33712534770298 -49.18725701900652 -34.67591291761834 192.937269052354 0.0 0.0
-22.1451332141546 -224.39634856497338 -73.95436930487611 136.8287479192718 0.0 0.0
-28.631759114731643 -177.67592268450463 -61.892304539770876 -121.84204560726604 0.0 0.0
-80.84420539906301 -47.147420445997895 -38.396485033929025 -185.6676866582849 0.0 0.0
-114.21503559115658 3.791702636230272 -33.1902422764786 -189.6511534635137 0.0 0.0
-146.53031777978097 20.01495800459738 -38.18044043695539 -187.5721012816049 0.0 0.0
-192.15205256253944 21.397666586871846 -52.30485163045925 -190.33072940903753 0.0 0.0
-268.0542764583937 18.015172998831115 -80.68276086375069 -196.1959039776888 0.0 0.0
-381.8389344868656 13.817820628662648 -135.20813237357584 -190.15585170471928 0.0 0.0
-498.5205120802106 3.068961998135279 -211.5655824452374 -175.39916154316938 0.0 0.0
-587.2729551932764 -7.966709567725104 -278.48511298906305 -167.2146278741217 0.0 0.0
-652.892414505352 -17.31971250898927 -325.73887494146356 -162.77587498092709 0.0 0.0
-706.2695594449115 -24.81232383244665 -360.0632148325843 -158.94156366446657 0.0 0.0
-752.969985507787 -33.259546972436624 -389.2638528339995 -154.6808653698191 0.0 0.0
-796.4205384498252 -43.27799706206133 -416.7883607595773 -150.7856009926614 0.0 0.0
-838.703716651037 -56.74930751449256 -445.1264864268311 -148.5087944098338 0.0 0.0
-880.4940147527259 -74.55031902223331 -475.3196458311984 -148.74746019079387 0.0 0.0
-919.3320561528761 -95.09278977654088 -505.4587925918513 -151.82968339317375 0.0 0.0
-953.369326103077 -116.74456558661026 -533.6940546268564 -157.2838783770433 0.0 0.0
-991.2094534033288 -149.62517293110727 -569.4164794860417 -163.2823559565221 0.0 0.0
-1035.889556965713 -199.98119465894865 -617.066286718022 -168.31490845254274 0.0 0.0
-1142.5645221200243 -339.7590668870051 -739.8716461803355 -172.2287825807852 0.0 0.0
-1142.5645221207305 -339.759066887857 -739.8716461809122 172.22878258108457 0.0 0.0
-1035.8895569645608 -199.9811946580694 -617.0662867173763 168.3149084528693 0.0 0.0
-991.2094534026974 -149.62517293061575 -569.4164794856267 163.28235595663747 0.0 0.0
-953.3693261027553 -116.7445655865842 -533.6940546265547 157.283878377353 0.0 0.0
-919.3320561532448 -95.09278977739706 -505.4587925921081 151.82968339360212 0.0 0.0
-880.4940147535126 -74.55031902337518 -475.31964583172004 148.74746019100377 0.0 0.0
-838.7037166517055 -56.749307515499126 -445.12648642728345 148.50879441009528 0.0 0.0
-796.4205384489649 -43.27799706149028 -416.78836075907134 150.7856009928191 0.0 0.0
-752.9699855076794 -33.2595469725954 -389.26385283391994 154.68086536978115 0.0 0.0
-706.2695594447769 -24.8123238325337 -360.06321483252964 158.941563664362 0.0 0.0
-652.8924145054692 -17.319712509428218 -325.73887494160186 162.7758749808492 0.0 0.0
-587.2729551930563 -7.966709567848933 -278.485112988894 167.21462787410408 0.0 0.0
-498.5205120802765 3.0689619974433007 -211.56558244525672 175.3991615432767 0.0 0.0
-381.8389344858345 13.817820629527898 -135.208132372863 190.15585170456012 0.0 0.0
-268.05427645799114 18.015172999025886 -80.68276086352925 196.19590397748493 0.0 0.0
-192.15205256214307 21.39766658701383 -52.30485163030366 190.33072940887618 0.0 0.0
-146.5303177796497 20.01495800462004 -38.18044043691503 187.57210128150365 0.0 0.0
-114.21503559117437 3.7917026360803443 -33.19024227653291 189.6511534633342 0.0 0.0
-80.84420539916445 -47.1474204461931 -38.39648503402094 185.66768665833396 0.0 0.0
-28.63175911473424 -177.675922684468 -61.892304539760666 121.84204560729593 0.0 0.0
-30.883883539793374 -134.92587569690542 -49.74292777100963 -105.894143525614 0.0 0.0
-92.73357980198264 -42.84112970299617 -40.671885820217966 -173.8507392225227 0.0 0.0
-143.50805552960634 3.4461583069578996 -42.068929180411175 -180.38023367296103 0.0 0.0
-193.7198143930991 19.396980114779208 -52.62924017124016 -175.92391275615114 0.0 0.0
-260.0719419486059 23.711961016149907 -72.89211131620698 -173.98719912979092 0.0 0.0
-359.3026920539833 23.604213608730575 -113.59884717881779 -170.06708197729662 0.0 0.0
-477.918565818292 15.525883537644816 -185.48934531687644 -156.35140780289115 0.0 0.0
-579.6894691817649 1.7653221116820248 -264.285203580103 -147.44276952277565 0.0 0.0
-658.3184953204463 -11.1489407584192 -323.7472791906369 -145.37367169060957 0.0 0.0
-722.7197897483488 -23.15307466503205 -367.1598798508942 -143.66619472555735 0.0 0.0
-778.4944872492447 -34.48421334639343 -402.5374906613675 -140.82150563593657 0.0 0.0
-829.9048813084796 -46.89167058930613 -435.3236055817035 -137.0972613610013 0.0 0.0
-878.1746509408733 -60.43865063374827 -466.72594672834134 -133.34840992474278 0.0 0.0
-925.517311201907 -77.30681162698224 -499.1307074799023 -130.93656709317176 0.0 0.0
-973.1627036244896 -98.81483754338805 -533.9496795515818 -131.2566423627734 0.0 0.0
-1021.355537760116 -125.65142809329757 -571.7132703731826 -134.58848334653206 0.0 0.0
-1071.1646059769198 -159.49924657112078 -613.7725190826768 -139.6846213190197 0.0 0.0
-1125.4553880923504 -204.0590024999123 -663.3200656315623 -143.91230234480022 0.0 0.0
-1199.8082747056658 -278.0578387505407 -737.3425515383108 -143.8172541569363 0.0 0.0
-1299.1305231104602 -401.5022101327568 -848.7778788479052 -141.8850637062143 0.0 0.0
-1299.1305231109154 -401.50221013348107 -848.7778788481627 141.88506370667733 0.0 0.0
-1199.808274704469 -278.05783874945644 -737.3425515373855 143.81725415706458 0.0 0.0
-1125.4553880908095 -204.0590024983672 -663.3200656303466 143.91230234474023 0.0 0.0
-1071.1646059753741 -159.4992465696221 -613.7725190815166 139.6846213189842 0.0 0.0
-1021.355537759041 -125.65142809227424 -571.713270372386 134.5884833464553 0.0 0.0
-973.1627036238351 -98.81483754281216 -533.9496795511436 131.25664236266948 0.0 0.0
-925.5173112008986 -77.3068116260522 -499.1307074792179 130.9365670930769 0.0 0.0
-878.1746509409885 -60.438650634146306 -466.72594672836146 133.34840992485172 0.0 0.0
-829.904881308059 -46.89167058894603 -435.32360558137253 137.09726136076938 0.0 0.0
-778.4944872484366 -34.484213345604715 -402.53749066080434 140.82150563563178 0.0 0.0
-722.7197897475847 -23.153074664387614 -367.15987985034604 143.66619472536942 0.0 0.0
-658.3184953194965 -11.14894075773699 -323.74727919001043 145.37367169054323 0.0 0.0
-579.6894691808932 1.7653221123241742 -264.28520357942324 147.4427695227071 0.0 0.0
-477.9185658181333 15.525883537199174 -185.4893453167145 156.35140780294319 0.0 0.0
-359.3026920538752 23.604213608255943 -113.59884717881906 170.067081977185 0.0 0.0
-260.0719419482504 23.711961016176396 -72.89211131608239 173.9871991296152 0.0 0.0
-193.71981439296835 19.39698011485156 -52.629240171186545 175.923912756015 0.0 0.0
-143.5080555294211 3.446158307187047 -42.068929180291256 180.38023367268357 0.0 0.0
-92.73357980164808 -42.841129702487265 -40.67188581996509 173.85073922241384 0.0 0.0
-30.883883539817127 -134.92587569671886 -49.74292777096079 105.89414352552433 0.0 0.0
-31.997363980407187 -96.9395567504288 -38.6810762192508 -89.434060587355 0.0 0.0
-102.98414946640546 -36.681681320941905 -41.8997492362042 -157.69493527460872 0.0 0.0
-170.9324778253149 2.9434001512979346 -50.42259692677659 -166.61019232342392 0.0 0.0
-239.27196894513327 18.09419440438169 -66.68219292194306 -159.97794171082705 0.0 0.0
-324.81853138318957 26.34782970980449 -93.33664870067196 -152.81278360647462 0.0 0.0
-436.53073372540746 26.184070096660026 -148.04418547883415 -138.98156013787107 0.0 0.0
-547.1063637833506 15.310253134240305 -229.00306246916563 -125.924210723781 0.0 0.0
-637.2402621349167 0.9125222204441457 -302.0694246269135 -123.4604306732237 0.0 0.0
-711.6877614508057 -13.8982613140073 -355.57707950015606 -124.53718832143116 0.0 0.0
-776.6703851257928 -28.40120699244079 -398.1471871933037 -124.26224479788063 0.0 0.0
-836.4421861855458 -43.96730787544266 -436.92231354305113 -122.16490865425853 0.0 0.0
-892.350186694837 -60.54599537355273 -473.7920367130846 -118.93528063285824 0.0 0.0
-945.0686219827608 -77.89490167153897 -509.23192492031745 -115.45270228867852 0.0 0.0
-996.530113815561 -97.59557614826886 -545.0433338138697 -112.97791972681918 0.0 0.0
-1049.984967467606 -123.02248265896608 -584.6209168859081 -112.98807441555611 0.0 0.0
-1107.8929614122967 -157.600684143688 -630.9920671378786 -115.8906478808071 0.0 0.0
-1172.1263084989905 -203.1639540587763 -686.0031758270538 -120.3311154595207 0.0 0.0
-1245.9741124695868 -264.85130775026795 -753.7869281634281 -122.94809393523312 0.0 0.0
-1330.454314643624 -348.18630259924436 -837.6861320981241 -121.72331656341883 0.0 0.0
-1416.2037002041436 -456.1279426558213 -934.6614655480719 -120.77843405061944 0.0 0.0
-1416.2037002047869 -456.12794265663825 -934.6614655485862 120.77843405092901 0.0 0.0
-1330.454314644033 -348.1863025998721 -837.6861320984524 121.72331656378199 0.0 0.0
-1245.9741124706477 -264.8513077515061 -753.7869281641188 122.94809393545822 0.0 0.0
-1172.1263084993075 -203.16395405926434 -686.0031758272673 120.33111545967839 0.0 0.0
-1107.8929614121532 -157.60068414370187 -630.9920671377309 115.89064788084838 0.0 0.0
-1049.9849674676207 -123.02248265919359 -584.6209168858586 112.98807441568779 0.0 0.0
-996.5301138157661 -97.59557614869419 -545.0433338139642 112.9779197268592 0.0 0.0
-945.0686219826306 -77.89490167158087 -509.2319249202436 115.45270228863839 0.0 0.0
-892.3501866948196 -60.545995373807685 -473.79203671304947 118.93528063291598 0.0 0.0
-836.4421861854732 -43.96730787562603 -436.92231354289976 122.16490865425213 0.0 0.0
-776.670385124906 -28.401206991814732 -398.14718719271417 124.26224479783014 0.0 0.0
-711.6877614505229 -13.898261314095915 -355.577079500028 124.53718832153588 0.0 0.0
-637.2402621343367 0.9125222207350454 -302.06942462649465 123.46043067311629 0.0 0.0
-547.1063637829888 15.310253134242721 -229.00306246881547 125.92421072371283 0.0 0.0
-436.5307337249246 26.18407009675349 -148.04418547848746 138.98156013778038 0.0 0.0
-324.8185313826163 26.347829710028424 -93.3366487004213 152.81278360644342 0.0 0.0
-239.27196894494335 18.0941944042913 -66.68219292192464 159.97794171072437 0.0 0.0
-170.9324778254649 2.943400150821482 -50.42259692696891 166.61019232336298 0.0 0.0
-102.98414946626188 -36.68168132111217 -41.89974923621221 157.69493527456603 0.0 0.0
-31.9973639805056 -96.93955675039513 -38.68107621927021 89.43406058729094 0.0 0.0
-32.84502476301571 -64.30722577942782 -29.145675162733056 -72.50701496031019 0.0 0.0
-112.20325895615227 -29.24635792639564 -42.434885064764366 -137.6186223028563 0.0 0.0
-196.68734657561183 2.262071987930753 -58.32539527048384 -148.39274100638085 0.0 0.0
-282.151564794897 16.44972825599466 -80.18343667490043 -139.72073953843463 0.0 0.0
-384.52915410342524 28.55621502068675 -114.52329727171211 -126.94505763735442 0.0 0.0
-498.88601473822064 26.078268496127105 -182.54636303554597 -107.80019119520367 0.0 0.0
-598.3517483099519 15.280949017675937 -264.1283842842329 -99.5679325464786 0.0 0.0
-681.0913339518243 0.01879104132430598 -329.7735341488679 -101.05220106425419 0.0 0.0
-753.8253814513371 -15.739935419455975 -379.3761150217181 -103.75340893220584 0.0 0.0
-821.4144691626102 -33.47608068971215 -423.7725971316996 -104.28447948786534 0.0 0.0
-885.3905205789654 -53.233397259347925 -466.43697584012443 -102.73278172563082 0.0 0.0
-945.8977951012924 -74.20337907272983 -507.67603164470745 -100.1137344215606 0.0 0.0
-1003.2374004439174 -95.60359189390448 -547.4075524458299 -97.17062217286832 0.0 0.0
-1058.691305948205 -118.5392670766949 -586.8070774662182 -94.59903703835266 0.0 0.0
-1117.0920886897343 -147.5465322419878 -630.5757878930391 -93.87594282997566 0.0 0.0
-1184.4035330316974 -189.31278868182483 -685.1414332242039 -95.89186602055437 0.0 0.0
-1262.8923797658708 -247.72178029637053 -753.622822348548 -99.4431757652794 0.0 0.0
-1351.3913504060388 -323.3787016080711 -835.7368533503222 -101.99083629002352 0.0 0.0
-1440.9701849216017 -412.1293151060843 -924.9607944352695 -102.60761601639217 0.0 0.0
-1518.9126815952616 -511.2349264097795 -1013.6425145313874 -105.17607876282393 0.0 0.0
-1518.9126815942304 -511.23492640878237 -1013.642514530737 105.17607876297167 0.0 0.0
-1440.9701849207568 -412.12931510529313 -924.9607944347356 102.60761601646742 0.0 0.0
-1351.3913504059385 -323.3787016079929 -835.7368533502341 101.99083628995201 0.0 0.0
-1262.8923797648956 -247.72178029552393 -753.6228223478183 99.44317576535468 0.0 0.0
-1184.4035330308543 -189.31278868110104 -685.1414332237033 95.89186602051764 0.0 0.0
-1117.0920886900417 -147.54653224246337 -630.5757878932504 93.87594282999308 0.0 0.0
-1058.6913059479057 -118.53926707661115 -586.8070774659788 94.59903703840118 0.0 0.0
-1003.2374004428572 -95.60359189301408 -547.4075524450634 97.17062217285195 0.0 0.0
-945.8977951005813 -74.20337907228603 -507.67603164417045 100.11373442169142 0.0 0.0
-885.39052057796 -53.23339725863769 -466.4369758395431 102.73278172568192 0.0 0.0
-821.4144691614792 -33.47608068878337 -423.77259713098636 104.28447948773724 0.0 0.0
-753.8253814510176 -15.73993541945923 -379.37611502146876 103.75340893221235 0.0 0.0
-681.0913339514981 0.018791041401428288 -329.773534148594 101.05220106413336 0.0 0.0
-598.3517483093893 15.280949017825456 -264.1283842838069 99.5679325465561 0.0 0.0
-498.8860147379182 26.07826849600961 -182.54636303529318 107.80019119513409 0.0 0.0
-384.5291541029485 28.55621502080816 -114.52329727147755 126.94505763721997 0.0 0.0
-282.151564794563 16.44972825609502 -80.1834366747797 139.72073953830804 0.0 0.0
-196.68734657523797 2.262071988379544 -58.325395270237884 148.39274100621373 0.0 0.0
-112.2032589559249 -29.246357925993184 -42.43488506457541 137.61862230261715 0.0 0.0
-32.845024762876 -64.30722577927263 -29.145675162644583 72.5070149600839 0.0 0.0
-33.432084684940584 -37.54812440505086 -21.294062726997428 -55.07436958581178 0.0 0.0
-120.36625247634532 -21.096531877076917 -42.43883530602667 -114.04858137819679 0.0 0.0
-221.01770121274427 1.2820432026188113 -65.91993691894851 -125.62206859025513 0.0 0.0
-324.2242374306177 15.447246112597682 -93.30046485838284 -115.80789688515607 0.0 0.0
-439.5020217297977 28.986789588688843 -137.57584863044772 -97.53713073380277 0.0 0.0
-547.3236517820474 25.348899805159142 -214.45076190930894 -79.20965548921832 0.0 0.0
-636.252503511217 14.422851619611805 -291.5596540391623 -75.78886450228651 0.0 0.0
-715.1508233868303 0.3497294685137291 -349.6970406469578 -79.29397737834384 0.0 0.0
-788.8307495689428 -17.247150821484468 -398.6362332759248 -82.60867400594896 0.0 0.0
-859.617474810929 -38.5284454988053 -445.8571058600444 -83.54306365196625 0.0 0.0
-927.6238193627637 -62.21231181288377 -492.3370394030237 -82.5214706481804 0.0 0.0
-992.9164198797737 -87.60026980042275 -538.0983748714489 -80.58485020946016 0.0 0.0
-1055.2824037044666 -113.7058471063477 -582.6459472431524 -78.29754119211854 0.0 0.0
-1115.8477690591799 -140.9072371725012 -626.7292327734937 -75.90498816628318 0.0 0.0
-1178.4843909085612 -173.0546793758137 -674.1649070298987 -74.2201904496784 0.0 0.0
-1251.7767666980283 -219.81074518314318 -734.1273617488471 -74.66361450668093 0.0 0.0
-1342.5343977580849 -289.0859449583047 -814.1257036833126 -77.58947224867856 0.0 0.0
-1443.4162384087922 -376.5574864725431 -908.3617079690888 -81.40494982691517 0.0 0.0
-1540.981276123089 -473.47024561154944 -1005.6895959457395 -85.44573127635455 0.0 0.0
-1617.1614023505463 -570.1327723456359 -1092.2747395616384 -92.70077648996092 0.0 0.0
-1617.1614023503225 -570.132772345441 -1092.274739561432 92.70077649003578 0.0 0.0
-1540.9812761226885 -473.47024561119514 -1005.689595945338 85.44573127643741 0.0 0.0
-1443.4162384082572 -376.55748647212886 -908.3617079685712 81.40494982704928 0.0 0.0
-1342.5343977574043 -289.0859449577607 -814.1257036827395 77.58947224884284 0.0 0.0
-1251.7767666968834 -219.81074518211528 -734.1273617478699 74.66361450660334 0.0 0.0
-1178.4843909080228 -173.05467937538614 -674.1649070293561 74.22019044955694 0.0 0.0
-1115.8477690598834 -140.9072371734216 -626.7292327738924 75.90498816642089 0.0 0.0
-1055.2824037049197 -113.70584710707917 -582.6459472434665 78.29754119225571 0.0 0.0
-992.916419881066 -87.6002698019995 -538.0983748723028 80.58485020958375 0.0 0.0
-927.6238193630892 -62.21231181353608 -492.33703940326296 82.52147064830598 0.0 0.0
-859.6174748099696 -38.528445498050246 -445.8571058594034 83.54306365179472 0.0 0.0
-788.8307495688462 -17.24715082167569 -398.6362332759684 82.60867400589183 0.0 0.0
-715.1508233864379 0.34972946860489884 -349.69704064669725 79.29397737834748 0.0 0.0
-636.2525035109775 14.422851619391942 -291.5596540389729 75.78886450245346 0.0 0.0
-547.3236517821649 25.348899804558513 -214.45076190931138 79.20965548927845 0.0 0.0
-439.50202172946103 28.986789588519365 -137.5758486303025 97.53713073384351 0.0 0.0
-324.2242374306719 15.447246111970315 -93.30046485858946 115.80789688485268 0.0 0.0
-221.0177012124563 1.2820432026892075 -65.9199369188419 125.62206859007222 0.0 0.0
-120.3662524763432 -21.0965318771004 -42.43883530603307 114.04858137811993 0.0 0.0
-33.43208468485318 -37.54812440513159 -21.294062726995424 55.07436958590573 0.0 0.0
-33.168111377020935 -17.142181688181495 -15.093087919560727 -37.25508101043013 0.0 0.0
-126.71798816739246 -12.744096553462223 -41.8386254162564 -87.22828530307933 0.0 0.0
-244.49485164611372 -0.09874890743997433 -73.37808016606608 -98.28078394311315 0.0 0.0
-366.3237039260615 15.88870550869342 -106.32330678632898 -88.01232147079348 0.0 0.0
-486.75395163380915 27.787517119983143 -162.15400831589383 -67.03021670449117 0.0 0.0
-584.9675330945302 23.692682782895766 -243.18776915837446 -53.988960501849895 0.0 0.0
-666.626339421723 14.137776242596459 -312.63475348208146 -53.688539576468045 0.0 0.0
-742.8801825394016 1.1391866070203776 -364.9856729389671 -57.49655520641384 0.0 0.0
-818.2648464419203 -18.814063473386767 -414.7785432069129 -60.85339801543674 0.0 0.0
-892.3588893794733 -43.37209274164121 -464.98523597219827 -62.05026891016465 0.0 0.0
-964.5868443785291 -70.9416917648137 -515.4108250205541 -61.526131889128955 0.0 0.0
-1034.5535035387938 -100.6618950015951 -565.6154843222411 -60.24964793404224 0.0 0.0
-1102.6655692189122 -131.85968300881157 -615.5333002399882 -58.727579542366506 0.0 0.0
-1169.29034267017 -164.86127315953553 -665.5293309854214 -56.75128722913084 0.0 0.0
-1236.7990786751243 -201.37739497403157 -717.6100899292626 -54.4100351372534 0.0 0.0
-1312.2824963294004 -249.20493739353913 -779.1915596395149 -53.03541289419658 0.0 0.0
-1406.5128565494301 -320.9971833484378 -862.0974464309306 -54.91113274631572 0.0 0.0
-1523.2166595054875 -423.43773651464994 -971.7147881887956 -60.51650747384765 0.0 0.0
-1634.1520283647876 -533.0629560714618 -1082.1141397295476 -69.01473874757805 0.0 0.0
-1719.3235608941102 -637.4156981464296 -1177.0413156749578 -81.92245671329395 0.0 0.0
-1719.3235608940226 -637.4156981463689 -1177.0413156748798 81.92245671336947 0.0 0.0
-1634.1520283649595 -533.0629560717396 -1082.114139729788 69.01473874779742 0.0 0.0
-1523.2166595055962 -423.43773651485884 -971.7147881890967 60.51650747397487 0.0 0.0
-1406.5128565501377 -320.9971833492758 -862.0974464314017 54.91113274638682 0.0 0.0
-1312.2824963294331 -249.20493739368288 -779.191559639494 53.035412894102265 0.0 0.0
-1236.7990786741395 -201.37739497319845 -717.610089928557 54.410035137242346 0.0 0.0
-1169.2903426702355 -164.8612731597976 -665.5293309854637 56.751287229238336 0.0 0.0
-1102.6655692195657 -131.85968300971848 -615.5333002404636 58.72757954252053 0.0 0.0
-1034.553503538254 -100.6618950013239 -565.615484321887 60.24964793419488 0.0 0.0
-964.5868443786812 -70.94169176529022 -515.4108250206316 61.526131889351944 0.0 0.0
-892.3588893786667 -43.37209274108969 -464.98523597159533 62.05026891004346 0.0 0.0
-818.2648464419565 -18.814063473746913 -414.7785432068461 60.85339801548104 0.0 0.0
-742.8801825392503 1.1391866068317853 -364.9856729388559 57.496555206421675 0.0 0.0
-666.6263394218698 14.13777624211719 -312.63475348211693 53.68853957633217 0.0 0.0
-584.9675330944767 23.692682782607072 -243.187769158205 53.988960501772944 0.0 0.0
-486.75395163325595 27.787517120118288 -162.15400831555183 67.03021670460802 0.0 0.0
-366.3237039257825 15.888705508624984 -106.3233067862794 88.01232147074228 0.0 0.0
-244.49485164592818 -0.09874890758007604 -73.37808016605247 98.2807839429936 0.0 0.0
-126.71798816743144 -12.744096553844926 -41.838625416382904 87.22828530297258 0.0 0.0
-33.16811137691411 -17.142181688014094 -15.09308791947846 37.255081010498444 0.0 0.0
-30.724660119658854 -3.4941251904618795 -10.265635593036219 -19.564314846761604 0.0 0.0
-129.5460076878884 -4.84981870726558 -40.31874791854619 -57.11584227508803 0.0 0.0
-267.6100264856762 -1.4910337466495092 -80.7303180696977 -65.89049953916651 0.0 0.0
-409.2179580047647 17.36540549399976 -120.33934300392029 -56.49258022405054 0.0 0.0
-525.2411796708834 26.162027600763295 -186.92529726582694 -38.485160341193854 0.0 0.0
-612.9219490597536 21.022790855338123 -267.71595442749623 -31.224963383342256 0.0 0.0
-690.378130853504 15.01723160272212 -327.8242847736724 -32.341848718584366 0.0 0.0
-765.873615705739 1.3812973655832366 -377.53506074587983 -35.60096754040167 0.0 0.0
-842.6824129736672 -20.17145060776889 -428.1287402679926 -38.476419598856516 0.0 0.0
-920.2876838116212 -47.95831354626202 -481.5060521420612 -39.7625670543285 0.0 0.0
-996.8826687258054 -79.44619278952257 -535.998958834829 -39.733519296398676 0.0 0.0
-1071.9076227941332 -113.38847655164398 -590.7930247138811 -39.117253710508926 0.0 0.0
-1145.7115693671458 -150.04450910119198 -646.2413235509811 -38.22903891232128 0.0 0.0
-1219.3800288810448 -189.5138304511035 -702.962358782763 -36.92171285475769 0.0 0.0
-1293.6976317060503 -232.50660499829826 -761.7074125681416 -34.8205119647312 0.0 0.0
-1370.5290925060226 -281.4319670071161 -824.5831646872109 -32.21889194252271 0.0 0.0
-1458.1211614234173 -345.8989593807257 -900.4876519334933 -31.82800977280924 0.0 0.0
-1571.9003702544733 -444.00716311621545 -1006.3106893956422 -37.93160574164076 0.0 0.0
-1729.40920423415 -598.0904633592907 -1162.2534865316165 -51.682821733676555 0.0 0.0
-1834.6448584397806 -720.3543522037044 -1276.2049830732767 -71.81561039754146 0.0 0.0
-1834.6448584405896 -720.3543522045827 -1276.204983073943 71.81561039762872 0.0 0.0
-1729.409204235706 -598.09046336088 -1162.2534865327866 51.68282173364365 0.0 0.0
-1571.900370255447 -444.0071631172958 -1006.3106893962112 37.93160574178115 0.0 0.0
-1458.12116142301 -345.89895938045504 -900.4876519329431 31.82800977302898 0.0 0.0
-1370.5290925069914 -281.43196700822375 -824.5831646877461 32.21889194246232 0.0 0.0
-1293.6976317063657 -232.50660499876864 -761.7074125683855 34.82051196466524 0.0 0.0
-1219.3800288805508 -189.51383045079413 -702.9623587823392 36.921712854812405 0.0 0.0
-1145.711569365875 -150.04450910013054 -646.2413235499879 38.229038912356906 0.0 0.0
-1071.907622793197 -113.3884765509272 -590.7930247131818 39.11725371047842 0.0 0.0
-996.8826687256657 -79.4461927896814 -535.9989588346848 39.73351929654585 0.0 0.0
-920.2876838114304 -47.95831354636164 -481.50605214191086 39.762567054279465 0.0 0.0
-842.6824129727785 -20.17145060717212 -428.128740267405 38.476419598902055 0.0 0.0
-765.873615704895 1.3812973660899104 -377.5350607452798 35.60096754051111 0.0 0.0
-690.3781308528553 15.01723160300439 -327.82428477324095 32.34184871870923 0.0 0.0
-612.9219490591615 21.022790855633758 -267.7159544270291 31.224963383267216 0.0 0.0
-525.241179670357 26.162027600934785 -186.92529726544427 38.485160341216336 0.0 0.0
-409.21795800472444 17.365405493432768 -120.33934300405971 56.49258022398884 0.0 0.0
-267.610026485371 -1.4910337464943217 -80.73031806955959 65.8904995391964 0.0 0.0
-129.5460076878689 -4.849818707415827 -40.318747918585416 57.115842275058135 0.0 0.0
-30.72466011962603 -3.494125190550751 -10.26563559305303 19.5643148465908 0.0 0.0
-23.546872054471724 3.10221214045533 -6.133397974204918 -3.3024944866011374 0.0 0.0
-125.61125015701245 1.683166287968639 -37.17842516071314 -23.10000034557639 0.0 0.0
-291.85971131657726 -2.005446899123889 -88.15954746471034 -27.408106703942824 0.0 0.0
-448.94551604749694 19.417613347168597 -136.16487894886788 -22.5243227399908 0.0 0.0
-557.0197471518554 23.91215044887577 -211.5361902705785 -12.989091233862489 0.0 0.0
-636.9963636161647 19.643454713995737 -287.60531463505833 -10.485067342539928 0.0 0.0
-709.915096093483 15.156108081775088 -339.9907497895007 -11.414844616373877 0.0 0.0
-784.448505059558 1.5771768894620948 -387.54142150800845 -13.550733044874793 0.0 0.0
-862.8090292049596 -21.507705950852653 -439.23807391565805 -15.499121993617585 0.0 0.0
-943.8339687363812 -52.19371257661453 -495.617810914756 -16.668654212695067 0.0 0.0
-1025.0757312844426 -87.54220870641132 -554.2953018616241 -17.119424507513248 0.0 0.0
-1105.2508599681312 -126.30602360443746 -614.0383214088945 -17.102694005579544 0.0 0.0
-1184.989028752338 -168.0245333560473 -674.950305506581 -16.85554855626396 0.0 0.0
-1265.539485105591 -213.72450395970407 -738.1973359867911 -16.257194452247795 0.0 0.0
-1347.5056438754998 -264.16323672701617 -804.4841419500178 -15.043442496515263 0.0 0.0
-1429.9238810774013 -318.7724931513593 -873.0511763219473 -12.980089814107881 0.0 0.0
-1511.426069074023 -377.0918228764643 -942.9490683858992 -10.759692749970412 0.0 0.0
-1599.7739771517145 -448.56662840741467 -1022.7076371024555 -13.115417851189523 0.0 0.0
-1729.0876735376546 -570.8992785117314 -1148.3089481900327 -29.13003441613171 0.0 0.0
-2040.4589255115577 -893.9277194842516 -1465.9043783098823 -59.78009265538843 0.0 0.0
-2040.4589255115657 -893.9277194843173 -1465.9043783096681 59.7800926555599 0.0 0.0
-1729.0876735373074 -570.899278511429 -1148.30894818946 29.130034416126307 0.0 0.0
-1599.7739771520767 -448.5666284078728 -1022.707637102635 13.115417851215875 0.0 0.0
-1511.4260690731987 -377.09182287575084 -942.9490683852985 10.759692749900122 0.0 0.0
-1429.923881076043 -318.77249315012165 -873.051176320915 12.980089814207295 0.0 0.0
-1347.5056438727643 -264.1632367244504 -804.4841419480081 15.043442496585921 0.0 0.0
-1265.539485103546 -213.72450395783747 -738.197335985401 16.257194452192287 0.0 0.0
-1184.9890287525445 -168.0245333564576 -674.9503055067523 16.855548556129637 0.0 0.0
-1105.2508599686732 -126.30602360523392 -614.0383214092591 17.102694005600284 0.0 0.0
-1025.0757312838116 -87.54220870604073 -554.2953018612415 17.119424507613715 0.0 0.0
-943.8339687361125 -52.193712576616974 -495.617810914568 16.668654212526125 0.0 0.0
-862.8090292046502 -21.507705950854856 -439.23807391547876 15.499121993751398 0.0 0.0
-784.4485050580163 1.577176890728765 -387.54142150705405 13.550733044676804 0.0 0.0
-709.9150960928325 15.15610808209793 -339.99074978906606 11.414844616336996 0.0 0.0
-636.996363616408 19.64345471340978 -287.6053146351378 10.485067342521008 0.0 0.0
-557.019747151868 23.91215044845737 -211.5361902704946 12.989091233912742 0.0 0.0
-448.9455160473036 19.41761334691844 -136.16487894882835 22.524322740039814 0.0 0.0
-291.85971131632243 -2.0054468990878505 -88.15954746462305 27.408106703831802 0.0 0.0
-125.61125015715437 1.6831662876028144 -37.17842516086546 23.10000034549099 0.0 0.0
-23.54687205446819 3.102212140408426 -6.133397974217928 3.3024944865285457 0.0 0.0
SCALARS Strain float 6
LOOKUP_TABLE default
0.013419849788201295 -0.01449068878363563 0.0 -0.00809159385594388 0.0 0.0
0.0027547072020049426 -0.0018866333054083917 0.0 0.0013711983200299094 0.0 0.0
0.0019101761593618045 -0.0007921172014532241 0.0 -3.385893708873766e-05 0.0 0.0
0.0025416278367456323 -0.0013075918073504056 0.0 -0.000254831665493338 0.0 0.0
0.004285822790152955 -0.0027834395046923976 0.0 -0.0003422829760250101 0.0 0.0
0.007865537275269844 -0.006062157004635971 0.0 -0.0005531954723072552 0.0 0.0
0.013736487664408898 -0.011669598573398776 0.0 -0.0009172969422650556 0.0 0.0
0.02230591502052911 -0.019965893371059806 0.0 -0.0014921834185687155 0.0 0.0
0.0337708345028636 -0.031125082897058398 0.0 -0.0022961252894579953 0.0 0.0
0.048069156641855654 -0.04508781366354331 0.0 -0.0032547003301672817 0.0 0.0
0.06496708758381593 -0.0616342796692666 0.0 -0.0042469608787102375 0.0 0.0
0.08417434375218089 -0.08048254849471403 0.0 -0.005208802024891379 0.0 0.0
0.1053885671769901 -0.1013322788699873 0.0 -0.006145582173031128 0.0 0.0
0.12825995739905474 -0.12382937487039047 0.0 -0.007039209192128748 0.0 0.0
0.1522760206879121 -0.14745852671823645 0.0 -0.007829448842650744 0.0 0.0
0.17663844952612004 -0.1714262901157637 0.0 -0.008347065245870311 0.0 0.0
0.20022066455285328 -0.19461961546065787 0.0 -0.008329389957321576 0.0 0.0
0.22161279254816335 -0.21564003183019764 0.0 -0.007592019577979059 0.0 0.0
0.23914400301392416 -0.2328094743069391 0.0 -0.006689935321137708 0.0 0.0
0.2502245859994122 -0.2432787349591159 0.0 -0.008507628481179363 0.0 0.0
0.250224585999398 -0.24327873495909813 0.0 0.008507628481191354 0.0 0.0
0.2391440030138747 -0.23280947430687782 0.0 0.006689935321167129 0.0 0.0
0.22161279254807756 -0.2156400318301186 0.0 0.0075920195779968225 0.0 0.0
0.20022066455274484 -0.19461961546056195 0.0 0.008329389957326905 0.0 0.0
0.17663844952600105 -0.17142629011564203 0.0 0.008347065245857044 0.0 0.0
0.1522760206877875 -0.14745852671811033 0.0 0.007829448842649578 0.0 0.0
0.12825995739893103 -0.12382937487027057 0.0 0.0070392091921261946 0.0 0.0
0.10538856717686895 -0.10133227886987228 0.0 0.006145582173029296 0.0 0.0
0.08417434375206356 -0.08048254849460168 0.0 0.005208802024880832 0.0 0.0
0.06496708758371256 -0.06163427966916135 0.0 0.004246960878698247 0.0 0.0
0.048069156641769695 -0.04508781366345804 0.0 0.0032547003301522937 0.0 0.0
0.033770834502796665 -0.031125082896995337 0.0 0.0022961252894575512 0.0 0.0
0.02230591502047935 -0.01996589337101673 0.0 0.0014921834185688265 0.0 0.0
0.013736487664374797 -0.011669598573369688 0.0 0.0009172969422669985 0.0 0.0
0.007865537275249967 -0.00606215700462065 0.0 0.0005531954723053123 0.0 0.0
0.004285822790143778 -0.0027834395046870686 0.0 0.00034228297602406643 0.0 0.0
0.002541627836743554 -0.0013075918073494064 0.0 0.00025483166549444825 0.0 0.0
0.001910176159360899 -0.0007921172014541122 0.0 3.3858937089348284e-05 0.0 0.0
0.002754707202002493 -0.001886633305405172 0.0 -0.0013711983200284106 0.0 0.0
0.013419849788189886 -0.014490688783621012 0.0 0.008091593855906631 0.0 0.0
0.009667540033303647 -0.011115145537031967 0.0 -0.009902011778351871 0.0 0.0
0.0014673301573275288 -0.0009425677256125198 0.0 0.00012053102914016955 0.0 0.0
0.0016220598459433591 -0.0005659654421522609 0.0 -0.00012442504742465887 0.0 0.0
0.0022010992493488313 -0.0010686531655539344 0.0 -0.0005236791352416503 0.0 0.0
0.0035996223645342607 -0.002197748113464293 0.0 -0.0007534856307432891 0.0 0.0
0.006678711152826977 -0.004960100972528636 0.0 -0.001267067037949543 0.0 0.0
0.011923910555822967 -0.00991982732997787 0.0 -0.0021688415139528017 0.0 0.0
0.019678370139644186 -0.017395172792219693 0.0 -0.003508332748075771 0.0 0.0
0.030064063892231443 -0.027483352444345854 0.0 -0.005285743763253081 0.0 0.0
0.042967325817123175 -0.04006988734080208 0.0 -0.007329070666926174 0.0 0.0
0.05814923048775541 -0.05492643736780867 0.0 -0.009411636337159857 0.0 0.0
0.07536234530441802 -0.07181005940018803 0.0 -0.011409233926775897 0.0 0.0
0.09437404729171149 -0.09048660990749013 0.0 -0.013370059452116334 0.0 0.0
0.11489475011029934 -0.11066466153347676 0.0 -0.01528253825662701 0.0 0.0
0.1364860172617535 -0.13190508935691359 0.0 -0.016991559372492304 0.0 0.0
0.158474758733126 -0.1535370588526872 0.0 -0.01817033038486826 0.0 0.0
0.179889862253874 -0.17459337660865604 0.0 -0.01833723148928157 0.0 0.0
0.19942019375650974 -0.19376093679808726 0.0 -0.017254522300154673 0.0 0.0
0.21523206267276832 -0.20915499262638004 0.0 -0.015409680135556547 0.0 0.0
0.2247632385887806 -0.2183662159753741 0.0 -0.012640675869387774 0.0 0.0
0.22476323858876626 -0.21836621597535366 0.0 0.012640675869414197 0.0 0.0
0.215232062672723 -0.20915499262633208 0.0 0.015409680135607284 0.0 0.0
0.19942019375643422 -0.19376093679801176 0.0 0.017254522300188757 0.0 0.0
0.1798898622537794 -0.17459337660856278 0.0 0.01833723148929689 0.0 0.0
0.15847475873302064 -0.15353705885258773 0.0 0.01817033038485505 0.0 0.0
0.136486017261642 -0.13190508935680967 0.0 0.016991559372485865 0.0 0.0
0.11489475011018746 -0.11066466153336618 0.0 0.015282538256622846 0.0 0.0
0.09437404729160376 -0.09048660990738044 0.0 0.013370059452110006 0.0 0.0
0.0753623453043138 -0.07181005940008411 0.0 0.011409233926759521 0.0 0.0
0.05814923048766224 -0.05492643736771852 0.0 0.009411636337143703 0.0 0.0
0.042967325817046265 -0.04006988734072259 0.0 0.0073290706669060235 0.0 0.0
0.0300640638921712 -0.027483352444283238 0.0 0.005285743763244755 0.0 0.0
0.019678370139599 -0.017395172792177505 0.0 0.0035083327480650572 0.0 0.0
0.011923910555793005 -0.009919827329949671 0.0 0.002168841513946085 0.0 0.0
0.006678711152809824 -0.004960100972509984 0.0 0.001267067037944436 0.0 0.0
0.0035996223645272662 -0.002197748113455411 0.0 0.000753485630740236 0.0 0.0
0.0022010992493475823 -0.0010686531655533793 0.0 0.000523679135240096 0.0 0.0
0.0016220598459431024 -0.0005659654421518168 0.0 0.0001244250474258246 0.0 0.0
0.0014673301573269182 -0.0009425677256107434 0.0 -0.00012053102913983649 0.0 0.0
0.009667540033289401 -0.011115145537015935 0.0 0.00990201177832134 0.0 0.0
0.007233779839883575 -0.008867896359478766 0.0 -0.009232921415822715 0.0 0.0
0.0008540606246198595 -0.0006203999688930706 0.0 -0.0006157674664907242 0.0 0.0
0.0012954680028042093 -0.00041019531403074794 0.0 -0.00044672581565996516 0.0 0.0
0.0018827596002479116 -0.0008504093564762893 0.0 -0.0007691632439385532 0.0 0.0
0.002988111544316413 -0.0017036914060046815 0.0 -0.001089345932393515 0.0 0.0
0.005542119866457182 -0.0039272894255195645 0.0 -0.0017902405087944495 0.0 0.0
0.010126575447258368 -0.008197268597127216 0.0 -0.0030952178427811616 0.0 0.0
0.01701831919052165 -0.014805813504053411 0.0 -0.005051041676993384 0.0 0.0
0.026281977986288285 -0.023779355685836556 0.0 -0.007587778012774604 0.0 0.0
0.037762255574815565 -0.034962740780261736 0.0 -0.010461586554778357 0.0 0.0
0.05121890367996128 -0.04811964139258773 0.0 -0.013389989225367216 0.0 0.0
0.06643589652942347 -0.06303498379038786 0.0 -0.016214802076584767 0.0 0.0
0.08322835371031752 -0.07952232688876215 0.0 -0.018968616568998675 0.0 0.0
0.10137582170183852 -0.09736029358829779 0.0 -0.02166753246640718 0.0 0.0
0.1205333474637823 -0.11620426888626234 0.0 -0.024123316678168805 0.0 0.0
0.14016071915849648 -0.13551208833685457 0.0 -0.025889383861759985 0.0 0.0
0.15943639886466576 -0.15445674219863204 0.0 -0.02639513111382208 0.0 0.0
0.17712222388197973 -0.1717842007773207 0.0 -0.02524660152586866 0.0 0.0
0.19142842292967518 -0.18573967331701535 0.0 -0.02196359494579736 0.0 0.0
0.2003376325568405 -0.19439195651596997 0.0 -0.015482065430331482 0.0 0.0
0.200337632556827 -0.19439195651595753 0.0 0.015482065430378222 0.0 0.0
0.19142842292963397 -0.18573967331697716 0.0 0.021963594945866305 0.0 0.0
0.17712222388191334 -0.17178420077724965 0.0 0.02524660152591851 0.0 0.0
0.159436398864583 -0.15445674219855565 0.0 0.026395131113841064 0.0 0.0
0.14016071915840433 -0.13551208833676132 0.0 0.025889383861749993 0.0 0.0
0.12053334746368355 -0.11620426888616198 0.0 0.024123316678160034 0.0 0.0
0.10137582170173931 -0.09736029358819742 0.0 0.021667532466403072 0.0 0.0
0.08322835371022275 -0.07952232688866845 0.0 0.018968616568991625 0.0 0.0
0.06643589652933168 -0.06303498379030259 0.0 0.016214802076563672 0.0 0.0
0.05121890367987936 -0.04811964139250691 0.0 0.013389989225348287 0.0 0.0
0.037762255574747994 -0.0349627407801929 0.0 0.010461586554756486 0.0 0.0
0.026281977986233662 -0.02377935568578593 0.0 0.007587778012761226 0.0 0.0
0.0170183191904818 -0.014805813504014331 0.0 0.005051041676979562 0.0 0.0
0.010126575447232222 -0.008197268597101903 0.0 0.0030952178427734456 0.0 0.0
0.005542119866442763 -0.003927289425511571 0.0 0.0017902405087893425 0.0 0.0
0.002988111544310834 -0.0017036914060011288 0.0 0.0010893459323925714 0.0 0.0
0.0018827596002471414 -0.0008504093564754012 0.0 0.0007691632439379426 0.0 0.0
0.0012954680028044452 -0.000410195314031192 0.0 0.000446725815659188 0.0 0.0
0.0008540606246197346 -0.0006203999688920159 0.0 0.0006157674664864499 0.0 0.0
0.0072337798398696695 -0.008867896359463785 0.0 0.009232921415797402 0.0 0.0
0.005511706130602215 -0.007168188150354526 0.0 -0.007873763891113217 0.0 0.0
0.0005322115048631143 -0.0004614839295533635 0.0 -0.0012275970925720858 0.0 0.0
0.0010027264340744246 -0.00029910770868968317 0.0 -0.0008863885722214526 0.0 0.0
0.001582041793206937 -0.0006681798408048056 0.0 -0.0010427299802504009 0.0 0.0
0.0024490087788422016 -0.0013016259518530138 0.0 -0.0013786704068486921 0.0 0.0
0.004492200272877542 -0.0030042685164757277 0.0 -0.0021504508817860035 0.0 0.0
0.008362656043125902 -0.006535102457676523 0.0 -0.0037069395058196286 0.0 0.0
0.014358937877796907 -0.012230673562573458 0.0 -0.006114397574483954 0.0 0.0
0.02246473899449468 -0.020056123848969598 0.0 -0.009193611169886762 0.0 0.0
0.03249886077832895 -0.029812318122547588 0.0 -0.012659176115460025 0.0 0.0
0.044217940181817114 -0.04125633232680448 0.0 -0.016185475806285265 0.0 0.0
0.057431036739619856 -0.054195224258323016 0.0 -0.019611083499958215 0.0 0.0
0.07199793426331699 -0.06848741393965829 0.0 -0.02296519417001175 0.0 0.0
0.08775908922462376 -0.08397181094911232 0.0 -0.026215794001195336 0.0 0.0
0.10446243018277322 -0.10039893401031375 0.0 -0.029185299896512196 0.0 0.0
0.1217059542399261 -0.11736084404047542 0.0 -0.031467187881154324 0.0 0.0
0.13882037917550416 -0.13417341116971215 0.0 -0.03241715844220805 0.0 0.0
0.15471281709478038 -0.1497430334950911 0.0 -0.03126895598836299 0.0 0.0
0.16783650182392007 -0.16255649442614217 0.0 -0.026866043581935783 0.0 0.0
0.17649617062974665 -0.17098516552060072 0.0 -0.017777031440838864 0.0 0.0
0.17649617062973405 -0.17098516552058207 0.0 0.017777031440897706 0.0 0.0
0.167836501823883 -0.16255649442610487 0.0 0.0268660435820125 0.0 0.0
0.15471281709472182 -0.14974303349504403 0.0 0.031268955988421276 0.0 0.0
0.13882037917543283 -0.13417341116963932 0.0 0.032417158442227256 0.0 0.0
0.12170595423984581 -0.1173608440403946 0.0 0.03146718788114322 0.0 0.0
0.10446243018268675 -0.10039893401023026 0.0 0.029185299896499428 0.0 0.0
0.08775908922453807 -0.08397181094902884 0.0 0.026215794001184567 0.0 0.0
0.07199793426323509 -0.06848741393958102 0.0 0.0229651941700032 0.0 0.0
0.05743103673954081 -0.054195224258243524 0.0 0.01961108349993579 0.0 0.0
0.04421794018174685 -0.041256332326740086 0.0 0.016185475806261507 0.0 0.0
0.03249886077826997 -0.029812318122492965 0.0 0.012659176115430104 0.0 0.0
0.022464738994446343 -0.02005612384892297 0.0 0.00919361116986983 0.0 0.0
0.014358937877762601 -0.012230673562534822 0.0 0.006114397574469188 0.0 0.0
0.008362656043103989 -0.006535102457649655 0.0 0.0037069395058079713 0.0 0.0
0.004492200272865954 -0.0030042685164648475 0.0 0.002150450881779453 0.0 0.0
0.002449008778838302 -0.0013016259518505713 0.0 0.0013786704068448619 0.0 0.0
0.001582041793206701 -0.0006681798408053607 0.0 0.0010427299802493462 0.0 0.0
0.001002726434074841 -0.00029910770869101544 0.0 0.0008863885722212306 0.0 0.0
0.0005322115048627674 -0.0004614839295524753 0.0 0.0012275970925706425 0.0 0.0
0.0055117061305896 -0.007168188150341001 0.0 0.007873763891092955 0.0 0.0
0.004187160751507005 -0.005777972109643814 0.0 -0.006463669903285452 0.0 0.0
0.0003543291846425378 -0.00036885236689454537 0.0 -0.0017043118205078422 0.0 0.0
0.0007604202876874827 -0.0002217953936076711 0.0 -0.0013308875229819384 0.0 0.0
0.0012983542702585116 -0.0005181987186355652 0.0 -0.0013494298100935609 0.0 0.0
0.0019775583848765793 -0.000983111210473453 0.0 -0.001642495474508343 0.0 0.0
0.003547555866305771 -0.0022151451552065993 0.0 -0.002409023800986343 0.0 0.0
0.006678333621538135 -0.004979553094941913 0.0 -0.004025952947681655 0.0 0.0
0.011727388966196017 -0.009706205559144365 0.0 -0.006658189903094691 0.0 0.0
0.01865155381362074 -0.016354120876105327 0.0 -0.010097755357482974 0.0 0.0
0.02721958376650188 -0.024662959942288065 0.0 -0.013921567209444485 0.0 0.0
0.037189656480462616 -0.03438146665623565 0.0 -0.017809795618715096 0.0 0.0
0.04839036432327781 -0.045335970195930386 0.0 -0.021596172240886002 0.0 0.0
0.06072446823462281 -0.05742571441801081 0.0 -0.025309850334919948 0.0 0.0
0.07409386182550418 -0.07055141531344056 0.0 -0.028923254210720284 0.0 0.0
0.08832623514331955 -0.08454258249981894 0.0 -0.03222503892809947 0.0 0.0
0.10313606842289827 -0.09910845647610245 0.0 -0.034848822175189254 0.0 0.0
0.1180343945410191 -0.11374737567810289 0.0 -0.03621158982525219 0.0 0.0
0.13218456702124873 -0.12761579109999488 0.0 -0.035283218973311437 0.0 0.0
0.14432479451049998 -0.13947626554604842 0.0 -0.030366742108964728 0.0 0.0
0.1529729496423998 -0.1478989736216043 0.0 -0.019701748079330783 0.0 0.0
0.15297294964238908 -0.1478989736215892 0.0 0.019701748079393955 0.0 0.0
0.14432479451046748 -0.13947626554601023 0.0 0.03036674210904944 0.0 0.0
0.13218456702119744 -0.12761579109994514 0.0 0.03528321897337672 0.0 0.0
0.11803439454095901 -0.11374737567804782 0.0 0.03621158982528039 0.0 0.0
0.10313606842282946 -0.09910845647603139 0.0 0.03484882217517793 0.0 0.0
0.08832623514324545 -0.08454258249974878 0.0 0.03222503892808826 0.0 0.0
0.0740938618254321 -0.07055141531336817 0.0 0.028923254210709626 0.0 0.0
0.06072446823455341 -0.057425714417934426 0.0 0.025309850334909623 0.0 0.0
0.04839036432321181 -0.04533597019586599 0.0 0.021596172240864075 0.0 0.0
0.037189656480403566 -0.034381466656173476 0.0 0.01780979561869067 0.0 0.0
0.027219583766451005 -0.024662959942234775 0.0 0.013921567209411068 0.0 0.0
0.018651553813580468 -0.016354120876062694 0.0 0.010097755357461158 0.0 0.0
0.011727388966167263 -0.009706205559117276 0.0 0.006658189903080425 0.0 0.0
0.00667833362152076 -0.004979553094929479 0.0 0.004025952947670608 0.0 0.0
0.003547555866296903 -0.0022151451551979395 0.0 0.0024090238009799037 0.0 0.0
0.001977558384874012 -0.0009831112104721207 0.0 0.0016424954745075104 0.0 0.0
0.0012983542702585948 -0.0005181987186355652 0.0 0.0013494298100913404 0.0 0.0
0.0007604202876875799 -0.0002217953936086703 0.0 0.0013308875229784412 0.0 0.0
0.00035432918464234353 -0.00036885236689238043 0.0 0.0017043118205031793 0.0 0.0
0.004187160751496777 -0.005777972109632093 0.0 0.006463669903268854 0.0 0.0
0.0031333314569185616 -0.004608806464159898 0.0 -0.005218840779415701 0.0 0.0
0.0002477251819996834 -0.000305341788820912 0.0 -0.00206083212398811 0.0 0.0
0.0005593298488312248 -0.00016408077519458608 0.0 -0.0017211760518962005 0.0 0.0
0.0010259660297756018 -0.00039020162672853687 0.0 -0.0016623666549392957 0.0 0.0
0.001565918255118176 -0.0007339580694938341 0.0 -0.0018987167157950569 0.0 0.0
0.002707896412411967 -0.0015697825558562695 0.0 -0.0026003453529833687 0.0 0.0
0.005120496469488561 -0.0035903728644841593 0.0 -0.0041613503555729126 0.0 0.0
0.009174246586454105 -0.007297299276160185 0.0 -0.006762734530146364 0.0 0.0
0.014878294075181084 -0.012715976673050022 0.0 -0.010276165884938793 0.0 0.0
0.021966445904175264 -0.019559824975089235 0.0 -0.014239367403904357 0.0 0.0
0.030176810767498466 -0.02754239235100675 0.0 -0.018248932177054256 0.0 0.0
0.03935951945658486 -0.036505882160731584 0.0 -0.02216085253782396 0.0 0.0
0.04945523407813829 -0.046388356692601995 0.0 -0.02600704166037271 0.0 0.0
0.06042419093322465 -0.05714675265631097 0.0 -0.029745182362091782 0.0 0.0
0.07217050380210754 -0.06868383568224612 0.0 -0.03318699947431292 0.0 0.0
0.08449915026721674 -0.08080736961061508 0.0 -0.03600643284617 0.0 0.0
0.09710415863084318 -0.09320250777882944 0.0 -0.03767735498662894 0.0 0.0
0.10948113126522219 -0.10534725906385578 0.0 -0.03717249843167714 0.0 0.0
0.12072742517650994 -0.11634141564510703 0.0 -0.03246671925891542 0.0 0.0
0.1295341513735541 -0.12491391059378554 0.0 -0.0213084258521562 0.0 0.0
0.12953415137354507 -0.12491391059376866 0.0 0.021308425852226365 0.0 0.0
0.12072742517648177 -0.11634141564506884 0.0 0.03246671925899991 0.0 0.0
0.10948113126517858 -0.10534725906380782 0.0 0.03717249843174142 0.0 0.0
0.09710415863079311 -0.09320250777877437 0.0 0.03767735498665481 0.0 0.0
0.08449915026715962 -0.08080736961055024 0.0 0.03600643284615812 0.0 0.0
0.07217050380204673 -0.0686838356821804 0.0 0.03318699947429904 0.0 0.0
0.06042419093316509 -0.05714675265625058 0.0 0.02974518236208179 0.0 0.0
0.04945523407808261 -0.04638835669254826 0.0 0.026007041660358943 0.0 0.0
0.039359519456531156 -0.036505882160675185 0.0 0.02216085253779987 0.0 0.0
0.03017681076745038 -0.02754239235096012 0.0 0.018248932177026056 0.0 0.0
0.021966445904133047 -0.019559824975054152 0.0 0.014239367403871328 0.0 0.0
0.014878294075149012 -0.012715976673020268 0.0 0.01027616588491953 0.0 0.0
0.009174246586431345 -0.007297299276139313 0.0 0.006762734530130543 0.0 0.0
0.005120496469474878 -0.0035903728644752775 0.0 0.004161350355562254 0.0 0.0
0.002707896412405819 -0.0015697825558533829 0.0 0.0026003453529769294 0.0 0.0
0.0015659182551165385 -0.0007339580694902814 0.0 0.0018987167157942797 0.0 0.0
0.0010259660297754492 -0.0003902016267262054 0.0 0.0016623666549362426 0.0 0.0
0.0005593298488314469 -0.00016408077519403097 0.0 0.0017211760518938135 0.0 0.0
0.00024772518199978055 -0.00030534178882007934 0.0 0.0020608321239881655 0.0 0.0
0.0031333314569108595 -0.004608806464150605 0.0 0.005218840779403988 0.0 0.0
0.002289115056151453 -0.003617418351200552 0.0 -0.004181626014476414 0.0 0.0
0.00017519735241064427 -0.0002572745053687209 0.0 -0.002312686531362629 0.0 0.0
0.0003846831144273255 -0.00011503146963054434 0.0 -0.00203310058239492 0.0 0.0
0.0007596522834668329 -0.00027244398741821385 0.0 -0.0019551221119574747 0.0 0.0
0.001194439419616694 -0.0005334085128969601 0.0 -0.00215652567493424 0.0 0.0
0.001977701040408897 -0.0010596908902298363 0.0 -0.0027354152925216924 0.0 0.0
0.0037047575726487647 -0.0023990688964592444 0.0 -0.00411398261222079 0.0 0.0
0.006765173305244232 -0.005078791444882658 0.0 -0.006502477949448138 0.0 0.0
0.011200696549226036 -0.009213781076452321 0.0 -0.009782198339572279 0.0 0.0
0.016780426501788265 -0.014553218240016985 0.0 -0.013584735594911801 0.0 0.0
0.023221155536084226 -0.02078827491763846 0.0 -0.017491561472540607 0.0 0.0
0.030384581990047177 -0.027758206171314193 0.0 -0.021292892400928687 0.0 0.0
0.0382389353164497 -0.03543056171353953 0.0 -0.025022762085928907 0.0 0.0
0.04679777098752208 -0.043813324365256534 0.0 -0.028674409487095764 0.0 0.0
0.05603901649184434 -0.05287899529361795 0.0 -0.03205966257652826 0.0 0.0
0.065852678503491 -0.06251861729142227 0.0 -0.03485162576589396 0.0 0.0
0.07607193991556449 -0.07258027534010392 0.0 -0.03669316987372839 0.0 0.0
0.08654787676308556 -0.08288794719679515 0.0 -0.03680305848683385 0.0 0.0
0.09685727842697622 -0.09298030432099491 0.0 -0.03305480172993691 0.0 0.0
0.10593380416234935 -0.10180087759364209 0.0 -0.022581059299282336 0.0 0.0
0.10593380416234224 -0.10180087759363321 0.0 0.022581059299344397 0.0 0.0
0.0968572784269531 -0.09298030432097537 0.0 0.033054801730018735 0.0 0.0
0.08654787676305076 -0.08288794719676584 0.0 0.03680305848689969 0.0 0.0
0.07607193991552397 -0.07258027534006484 0.0 0.036693169873754816 0.0 0.0
0.06585267850344587 -0.06251861729138142 0.0 0.03485162576588596 0.0 0.0
0.05603901649179682 -0.05287899529357354 0.0 0.032059662576513936 0.0 0.0
0.046797770987475285 -0.04381332436521346 0.0 0.02867440948708433 0.0 0.0
0.038238935316408096 -0.035430561713499564 0.0 0.025022762085915473 0.0 0.0
0.030384581990005266 -0.027758206171272892 0.0 0.02129289240090182 0.0 0.0
0.023221155536047478 -0.02078827491760382 0.0 0.017491561472514405 0.0 0.0
0.01678042650175543 -0.014553218239988563 0.0 0.013584735594879715 0.0 0.0
0.011200696549201417 -0.009213781076432781 0.0 0.009782198339550963 0.0 0.0
0.006765173305227301 -0.005078791444870667 0.0 0.006502477949429708 0.0 0.0
0.0037047575726387727 -0.0023990688964505846 0.0 0.004113982612209577 0.0 0.0
0.0019777010404051776 -0.0010596908902269497 0.0 0.002735415292515142 0.0 0.0
0.0011944394196156671 -0.0005334085128980703 0.0 0.0021565256749313533 0.0 0.0
0.0007596522834663055 -0.00027244398741921305 0.0 0.001955122111956975 0.0 0.0
0.0003846831144276863 -0.00011503146963065536 0.0 0.0020331005823924775 0.0 0.0
0.00017519735241039447 -0.00025727450536766616 0.0 0.0023126865313597422 0.0 0.0
0.0022891150561454854 -0.0036174183511931725 0.0 0.004181626014468365 0.0 0.0
0.0016243078365574815 -0.002791312066657281 0.0 -0.0033555686040125376 0.0 0.0
0.0001118925811949556 -0.00021690689212361391 0.0 -0.0024643167528637377 0.0 0.0
0.00022400964076019214 -6.66278002535714e-05 0.0 -0.0022661224830062277 0.0 0.0
0.0004978039368341292 -0.00015699035477112488 0.0 -0.0022011450203714977 0.0 0.0
0.0008382956217056758 -0.00035743624956485753 0.0 -0.0023994124929097582 0.0 0.0
0.0013487625928899627 -0.000673655014138852 0.0 -0.00287817327532347 0.0 0.0
0.0024504823074789073 -0.0014381817163671151 0.0 -0.003959612314202832 0.0 0.0
0.004541400358735431 -0.0031238588314876914 0.0 -0.005924668262470401 0.0 0.0
0.007691759434524492 -0.00594300768595879 0.0 -0.008710468216982625 0.0 0.0
0.011718823187931604 -0.009724920569381457 0.0 -0.012012359652800675 0.0 0.0
0.01636920612219142 -0.014183180190883604 0.0 -0.015500017095772534 0.0 0.0
0.02151009476994173 -0.019155580463700694 0.0 -0.018945935966007132 0.0 0.0
0.02712461558676227 -0.02461799682815702 0.0 -0.02233524755726468 0.0 0.0
0.03326195512997007 -0.030614742594123 0.0 -0.02565798245901474 0.0 0.0
0.03997474925272548 -0.03718888615733018 0.0 -0.028794051606607973 0.0 0.0
0.04725041496124385 -0.044320857162836624 0.0 -0.031415268256323015 0.0 0.0
0.05501579025894304 -0.051959879986296365 0.0 -0.03316326686777782 0.0 0.0
0.06336331910487641 -0.060219471969086946 0.0 -0.033816713583992075 0.0 0.0
0.07250508218805463 -0.06921246677651638 0.0 -0.0317750227755359 0.0 0.0
0.08187716687343125 -0.07829878214436281 0.0 -0.023421432660902686 0.0 0.0
0.08187716687342705 -0.07829878214435482 0.0 0.023421432660963526 0.0 0.0
0.07250508218803747 -0.06921246677649684 0.0 0.03177502277561428 0.0 0.0
0.06336331910485077 -0.06021947196906119 0.0 0.03381671358405458 0.0 0.0
0.05501579025891193 -0.051959879986262614 0.0 0.03316326686780091 0.0 0.0
0.047250414961211074 -0.04432085716279843 0.0 0.0314152682563098 0.0 0.0
0.03997474925269154 -0.037188886157293766 0.0 0.02879405160659043 0.0 0.0
0.033261955129937126 -0.03061474259408925 0.0 0.025657982459002637 0.0 0.0
0.027124615586734402 -0.024617996828128152 0.0 0.02233524755725569 0.0 0.0
0.021510094769912863 -0.01915558046367405 0.0 0.018945935965985483 0.0 0.0
0.016369206122165164 -0.014183180190861844 0.0 0.015500017095748997 0.0 0.0
0.011718823187909011 -0.00972492056936236 0.0 0.012012359652770588 0.0 0.0
0.007691759434507561 -0.005943007685940138 0.0 0.008710468216965861 0.0 0.0
0.00454140035872394 -0.003123858831474813 0.0 0.005924668262461075 0.0 0.0
0.00245048230747269 -0.0014381817163597876 0.0 0.003959612314195116 0.0 0.0
0.0013487625928877978 -0.0006736550141359654 0.0 0.0028781732753189737 0.0 0.0
0.0008382956217051762 -0.0003574362495637473 0.0 0.002399412492907149 0.0 0.0
0.0004978039368336851 -0.00015699035477312329 0.0 0.00220114502037122 0.0 0.0
0.00022400964076016439 -6.662780025401549e-05 0.0 0.0022661224830041737 0.0 0.0
0.00011189258119459478 -0.00021690689212333636 0.0 0.002464316752862461 0.0 0.0
0.001624307836552985 -0.0027913120666519606 0.0 0.0033555686040059873 0.0 0.0
0.0011239428990752476 -0.002131358135480599 0.0 -0.0027310065407454287 0.0 0.0
4.111500115308586e-05 -0.00018186364359118468 0.0 -0.0025377700742801323 0.0 0.0
6.864681663631966e-05 -1.2563323580017105e-05 0.0 -0.002424838639478344 0.0 0.0
0.00024190900054613107 -4.301770618431178e-05 0.0 -0.0023889714396850836 0.0 0.0
0.0004788016508495141 -0.00018543537155712997 0.0 -0.002601715035619845 0.0 0.0
0.0007867959454410101 -0.0003728984089794718 0.0 -0.0030398424030175786 0.0 0.0
0.0013732701768567612 -0.000722120854472319 0.0 -0.0037964134540021677 0.0 0.0
0.0025414920790339246 -0.0015261221204636577 0.0 -0.005136410163172789 0.0 0.0
0.0044149747854831944 -0.0030344513504387827 0.0 -0.007143484077520523 0.0 0.0
0.006855344457968454 -0.005209149059155926 0.0 -0.00962257709771075 0.0 0.0
0.009681938550038877 -0.007843973631741274 0.0 -0.012357623273257734 0.0 0.0
0.012779888330432365 -0.010795635063375997 0.0 -0.01516365589627966 0.0 0.0
0.01615355693167017 -0.014044527186954259 0.0 -0.017997727767475435 0.0 0.0
0.019865360400437376 -0.01764951817509619 0.0 -0.02079886794549146 0.0 0.0
0.024014825996391015 -0.02170157655417171 0.0 -0.023501631819918045 0.0 0.0
0.028709918768022424 -0.026293499343592153 0.0 -0.025894746044934358 0.0 0.0
0.03401115708545033 -0.03147824313976866 0.0 -0.02752479863464119 0.0 0.0
0.040050516885913684 -0.03745949305973095 0.0 -0.028270870310375007 0.0 0.0
0.04748992664858795 -0.04490241342942625 0.0 -0.028036448588171226 0.0 0.0
0.05694788156914607 -0.05406511428003036 0.0 -0.023514775269214194 0.0 0.0
0.056947881569143766 -0.05406511428003569 0.0 0.023514775269261712 0.0 0.0
0.04748992664857804 -0.04490241342941914 0.0 0.02803644858824117 0.0 0.0
0.040050516885896004 -0.03745949305970786 0.0 0.02827087031042863 0.0 0.0
0.034011157085429344 -0.03147824313974734 0.0 0.02752479863465207 0.0 0.0
0.028709918768003162 -0.026293499343575277 0.0 0.025894746044919037 0.0 0.0
0.02401482599637128 -0.021701576554145063 0.0 0.023501631819900393 0.0 0.0
0.019865360400418364 -0.01764951817507754 0.0 0.020798867945482802 0.0 0.0
0.01615355693165646 -0.0140445271869436 0.0 0.017997727767471217 0.0 0.0
0.012779888330416461 -0.010795635063356457 0.0 0.015163655896264006 0.0 0.0
0.009681938550023306 -0.007843973631724843 0.0 0.012357623273237861 0.0 0.0
0.006855344457955742 -0.005209149059138163 0.0 0.009622577097688656 0.0 0.0
0.00441497478547434 -0.003034451350424572 0.0 0.007143484077505979 0.0 0.0
0.0025414920790277906 -0.0015261221204578845 0.0 0.005136410163165239 0.0 0.0
0.0013732701768536526 -0.000722120854472097 0.0 0.0037964134539965055 0.0 0.0
0.0007867959454400664 -0.00037289840898080406 0.0 0.0030398424030123605 0.0 0.0
0.00047880165084904225 -0.00018543537155757406 0.0 0.002601715035616625 0.0 0.0
0.00024190900054596454 -4.3017706184200755e-05 0.0 0.0023889714396834183 0.0 0.0
6.864681663579231e-05 -1.2563323579128927e-05 0.0 0.0024248386394746246 0.0 0.0
4.111500115283606e-05 -0.00018186364359096263 0.0 0.0025377700742773013 0.0 0.0
0.0011239428990722222 -0.002131358135476845 0.0 0.002731006540739378 0.0 0.0
0.0007635264621666249 -0.0016206910234078387 0.0 -0.002270245826678674 0.0 0.0
-4.121708760898568e-05 -0.00015310491228615053 0.0 -0.0025611613178285753 0.0 0.0
-8.570578231878456e-05 4.983545029391134e-05 0.0 -0.0025216909162056877 0.0 0.0
-7.4210002775632056e-06 6.865162146252324e-05 0.0 -0.002515934887766691 0.0 0.0
0.00011454897960225252 -9.77677631186502e-06 0.0 -0.002725268961971339 0.0 0.0
0.0002451079966613867 -0.00010360598056036174 0.0 -0.003178974314402727 0.0 0.0
0.00043429686158233394 -0.00021342371764143664 0.0 -0.0037862725557400445 0.0 0.0
0.0007992781446835573 -0.00040473236604654517 0.0 -0.004485716343990975 0.0 0.0
0.0014206947253870839 -0.0007654682748037267 0.0 -0.005470488810455754 0.0 0.0
0.0022411480763506186 -0.0013324363992492927 0.0 -0.006910897548504047 0.0 0.0
0.0031910926331378264 -0.0020816417869022885 0.0 -0.008794783357953473 0.0 0.0
0.004214239224741734 -0.0029704818601148375 0.0 -0.010939604154783344 0.0 0.0
0.005327270227922454 -0.003985100909411177 0.0 -0.013251344835413903 0.0 0.0
0.0065930832477115175 -0.0051769728382558 0.0 -0.015693920397080396 0.0 0.0
0.00814451098810881 -0.006665322123184936 0.0 -0.018220089956512142 0.0 0.0
0.01020056075314646 -0.008650657474454704 0.0 -0.02064615277169979 0.0 0.0
0.013032198620273938 -0.01137864011724421 0.0 -0.02248790324618477 0.0 0.0
0.01684469286222287 -0.015051002580343642 0.0 -0.023079225245174695 0.0 0.0
0.022081877136085476 -0.020335969394691844 0.0 -0.023030047669483023 0.0 0.0
0.030613183818620382 -0.02884344236873293 0.0 -0.022709680030727375 0.0 0.0
0.03061318381862005 -0.028843442368730265 0.0 0.022709680030763013 0.0 0.0
0.022081877136081896 -0.020335969394691844 0.0 0.023030047669539866 0.0 0.0
0.016844692862213517 -0.015051002580338313 0.0 0.02307922524520689 0.0 0.0
0.013032198620265917 -0.01137864011724865 0.0 0.02248790324618588 0.0 0.0
0.01020056075314188 -0.008650657474462697 0.0 0.020646152771682913 0.0 0.0
0.008144510988103981 -0.006665322123182271 0.0 0.018220089956498264 0.0 0.0
0.006593083247706688 -0.0051769728382482505 0.0 0.015693920397070404 0.0 0.0
0.0053272702279223705 -0.003985100909412953 0.0 0.013251344835407464 0.0 0.0
0.004214239224739069 -0.0029704818601206107 0.0 0.01093960415476769 0.0 0.0
0.0031910926331346345 -0.002081641786904953 0.0 0.008794783357936264 0.0 0.0
0.00224114807634776 -0.0013324363992524013 0.0 0.006910897548490835 0.0 0.0
0.001420694725385474 -0.0007654682748077235 0.0 0.0054704888104502025 0.0 0.0
0.0007992781446823638 -0.00040473236604787743 0.0 0.0044857163439868675 0.0 0.0
0.0004342968615817233 -0.00021342371764343504 0.0 0.0037862725557347154 0.0 0.0
0.0002451079966612757 -0.00010360598056236014 0.0 0.003178974314398786 0.0 0.0
0.00011454897960191945 -9.776776310532753e-06 0.0 0.0027252689619685633 0.0 0.0
-7.421000277313405e-06 6.86516214652988e-05 0.0 0.002515934887763638 0.0 0.0
-8.570578231936743e-05 4.98354502936893e-05 0.0 0.0025216909162039114 0.0 0.0
-4.1217087609596303e-05 -0.00015310491228692769 0.0 0.0025611613178270765 0.0 0.0
0.0007635264621649318 -0.0016206910234054846 0.0 0.0022702458266765646 0.0 0.0
0.0005100999410459772 -0.0012485823736207435 0.0 -0.001975821988141835 0.0 0.0
-0.00012696053802732643 -0.00012637179160757128 0.0 -0.0025564679792727807 0.0 0.0
-0.00023880136984574807 0.00011662979621329672 0.0 -0.002561130937048628 0.0 0.0
-0.00025037073595854387 0.0001777010763222009 0.0 -0.0025732209875944934 0.0 0.0
-0.0002469078390313628 0.00016559976992613912 0.0 -0.0027656600076711446 0.0 0.0
-0.00029847513134928505 0.00016424322282304615 0.0 -0.003200060342796407 0.0 0.0
-0.00045582382561348833 0.00023070244425094089 0.0 -0.0038004061134330747 0.0 0.0
-0.0008073858733924633 0.00041077253430854554 0.0 -0.004497225573782959 0.0 0.0
-0.0014212848180117088 0.0007670463931210847 0.0 -0.005475209506635603 0.0 0.0
-0.002240899052615708 0.0013342060497043562 0.0 -0.00691117847712408 0.0 0.0
-0.003204756932087549 0.0020991535976158104 0.0 -0.00879967058240927 0.0 0.0
-0.0042717333201528485 0.00302701120975879 0.0 -0.010953282249982155 0.0 0.0
-0.005432212623153132 0.004073338115531566 0.0 -0.013262741610492568 0.0 0.0
-0.006627425354791966 0.005167913135124991 0.0 -0.015693872161203104 0.0 0.0
-0.0076894863085714416 0.006145812967578657 0.0 -0.01822918532661444 0.0 0.0
-0.008317077403254436 0.0067163003806953725 0.0 -0.020810567173633054 0.0 0.0
-0.00807510441725437 0.006474353008561806 0.0 -0.023409338310294237 0.0 0.0
-0.006596944481561173 0.005179240907382976 0.0 -0.02612442948772653 0.0 0.0
-0.0035230358982634713 0.002582570905873105 0.0 -0.028605436464505862 0.0 0.0
0.004064472417858012 -0.004622237518505656 0.0 -0.027935783308448925 0.0 0.0
0.004064472417857984 -0.004622237518498551 0.0 0.02793578330846147 0.0 0.0
-0.0035230358982631382 0.0025825709058802104 0.0 0.028605436464527845 0.0 0.0
-0.006596944481558703 0.005179240907384752 0.0 0.02612442948773086 0.0 0.0
-0.008075104417246154 0.006474353008565359 0.0 0.02340933831028469 0.0 0.0
-0.00831707740324339 0.006716300380689155 0.0 0.020810567173611627 0.0 0.0
-0.007689486308561561 0.006145812967561781 0.0 0.018229185326600894 0.0 0.0
-0.006627425354782168 0.005167913135111224 0.0 0.015693872161189226 0.0 0.0
-0.0054322126231404755 0.00407333811552224 0.0 0.013262741610480133 0.0 0.0
-0.00427173332014158 0.0030270112097570134 0.0 0.010953282249962615 0.0 0.0
-0.0032047569320773073 0.00209915359761359 0.0 0.008799670582390728 0.0 0.0
-0.002240899052607853 0.001334206049698583 0.0 0.006911178477110869 0.0 0.0
-0.0014212848180068793 0.0007670463931157556 0.0 0.0054752095066319395 0.0 0.0
-0.0008073858733891881 0.00041077253430854554 0.0 0.004497225573778518 0.0 0.0
-0.00045582382561190626 0.0002307024442524952 0.0 0.0038004061134279676 0.0 0.0
-0.00029847513134848014 0.00016424322282260206 0.0 0.0032000603427931873 0.0 0.0
-0.0002469078390313628 0.0001655997699270273 0.0 0.002765660007668702 0.0 0.0
-0.0002503707359581553 0.0001777010763223119 0.0 0.002573220987592051 0.0 0.0
-0.00023880136984574807 0.00011662979621274161 0.0 0.0025611309370465185 0.0 0.0
-0.0001269605380279093 -0.00012637179160779333 0.0 0.0025564679792731693 0.0 0.0
0.0005100999410452556 -0.0012485823736197912 0.0 0.0019758219881420014 0.0 0.0
0.00033671166697135657 -0.0009777033691402703 0.0 -0.0017785240856784124 0.0 0.0
-0.00020609039378333138 -9.43101967861848e-05 0.0 -0.0025119930479985952 0.0 0.0
-0.0003875886549793983 0.0001814513027983411 0.0 -0.002547348072574507 0.0 0.0
-0.0004857689477474614 0.0002831199658130945 0.0 -0.0025561591354219537 0.0 0.0
-0.0006010430142592837 0.00033583666270042833 0.0 -0.0027171295710269328 0.0 0.0
-0.0008396994225021159 0.000434607256638575 0.0 -0.003107948319523046 0.0 0.0
-0.0013939509944366213 0.0007423516325832935 0.0 -0.0038398476262592185 0.0 0.0
-0.002546217208046264 0.0015327141680958611 0.0 -0.00516088887463384 0.0 0.0
-0.004413271954808978 0.0030346381055408322 0.0 -0.0071498232939269935 0.0 0.0
-0.006855957909503108 0.0052124718609607434 0.0 -0.009623984704870137 0.0 0.0
-0.009698597427213074 0.007865637593728714 0.0 -0.01235803813378944 0.0 0.0
-0.012834213850293985 0.01085360773010935 0.0 -0.015144450141394095 0.0 0.0
-0.01624538289246949 0.01412679662624372 0.0 -0.017934282293057158 0.0 0.0
-0.019878096017523994 0.01762073815319809 0.0 -0.020719946916790133 0.0 0.0
-0.023544268119641776 0.021144613368083043 0.0 -0.023567185137114977 0.0 0.0
-0.026874702789032257 0.024339281907167276 0.0 -0.026529306960152543 0.0 0.0
-0.029350349797232778 0.026710551763148516 0.0 -0.029707532575447004 0.0 0.0
-0.030393452430861362 0.027688258617833306 0.0 -0.032996417582724535 0.0 0.0
-0.028901568551251228 0.025938310484532323 0.0 -0.03459073347220243 0.0 0.0
-0.02141400571738289 0.01809844150921247 0.0 -0.03258655463923166 0.0 0.0
-0.021414005717383833 0.018098441509221352 0.0 0.032586554639270404 0.0 0.0
-0.028901568551246565 0.025938310484530547 0.0 0.03459073347225683 0.0 0.0
-0.03039345243084629 0.027688258617805772 0.0 0.032996417582759396 0.0 0.0
-0.02935034979720985 0.026710551763119206 0.0 0.029707532575449558 0.0 0.0
-0.026874702789005556 0.024339281907149513 0.0 0.02652930696012923 0.0 0.0
-0.023544268119617212 0.021144613368059062 0.0 0.023567185137097435 0.0 0.0
-0.019878096017500485 0.017620738153174997 0.0 0.020719946916770815 0.0 0.0
-0.01624538289244387 0.01412679662622196 0.0 0.017934282293041393 0.0 0.0
-0.012834213850268866 0.01085360773008448 0.0 0.015144450141370669 0.0 0.0
-0.00969859742719012 0.007865637593706065 0.0 0.012358038133765348 0.0 0.0
-0.006855957909484539 0.005212471860944756 0.0 0.009623984704844268 0.0 0.0
-0.0044132719547965715 0.0030346381055266214 0.0 0.007149823293915891 0.0 0.0
-0.0025462172080382706 0.0015327141680923084 0.0 0.005160888874627734 0.0 0.0
-0.0013939509944325967 0.0007423516325832935 0.0 0.0038398476262536674 0.0 0.0
-0.0008396994225007282 0.00043460725663924116 0.0 0.003107948319518883 0.0 0.0
-0.0006010430142587009 0.0003358366627002063 0.0 0.002717129571023935 0.0 0.0
-0.0004857689477468785 0.0002831199658135386 0.0 0.002556159135421121 0.0 0.0
-0.0003875886549793983 0.0001814513027993403 0.0 0.002547348072572231 0.0 0.0
-0.00020609039378358118 -9.431019678507457e-05 0.0 0.002511993047996819 0.0 0.0
0.00033671166697099575 -0.000977703369139004 0.0 0.001778524085676303 0.0 0.0
0.00021619354526275503 -0.0007525935179407695 0.0 -0.0015839465928944585 0.0 0.0
-0.00027591069296806214 -5.6865528789917796e-05 0.0 -0.0024137125951362304 0.0 0.0
-0.0005287607733227562 0.00024153362285994628 0.0 -0.0024757881069134013 0.0 0.0
-0.0007121073594284488 0.00038271575900417076 0.0 -0.0024679000915077687 0.0 0.0
-0.0009444750535321234 0.0004983565783198696 0.0 -0.0025837200245890646 0.0 0.0
-0.001399615538521748 0.0007381718098751211 0.0 -0.002990885716698033 0.0 0.0
-0.002465852448194805 0.0014593939557312474 0.0 -0.004018492763493142 0.0 0.0
-0.00453962312121739 0.0031255888561627643 0.0 -0.005945355855115464 0.0 0.0
-0.007688555728349283 0.005941106172849153 0.0 -0.008711014224330071 0.0 0.0
-0.011722088939803504 0.009730186935891894 0.0 -0.012014201640100475 0.0 0.0
-0.016385789579368676 0.014203499383148799 0.0 -0.015492474979941107 0.0 0.0
-0.021549568831685406 0.019198582061056957 0.0 -0.01888033289232527 0.0 0.0
-0.02718132147706645 0.02466834768452353 0.0 -0.022152124067592704 0.0 0.0
-0.033235950582255175 0.030554791561070438 0.0 -0.025416694831653763 0.0 0.0
-0.03951860903142837 0.036657881072216014 0.0 -0.028905389207864784 0.0 0.0
-0.045602249645258386 0.042562482368215804 0.0 -0.03291436263612102 0.0 0.0
-0.050832429912300664 0.04762481401966756 0.0 -0.03757586474735919 0.0 0.0
-0.05419830041922288 0.05077779820758188 0.0 -0.04203335841776068 0.0 0.0
-0.053755219795302234 0.050049345718616856 0.0 -0.044226072656964766 0.0 0.0
-0.0454201029974827 0.040975712527107966 0.0 -0.040072787905035545 0.0 0.0
-0.04542010299748164 0.04097571252710264 0.0 0.04007278790509072 0.0 0.0
-0.05375521979529155 0.050049345718611526 0.0 0.044226072657036375 0.0 0.0
-0.054198300419199374 0.05077779820756145 0.0 0.04203335841780753 0.0 0.0
-0.05083242991226558 0.04762481401963381 0.0 0.037575864747369514 0.0 0.0
-0.04560224964521778 0.04256248236817228 0.0 0.032914362636106476 0.0 0.0
-0.039518609031389706 0.036657881072172493 0.0 0.028905389207846133 0.0 0.0
-0.03323595058221768 0.030554791561028694 0.0 0.02541669483163511 0.0 0.0
-0.027181321477027065 0.024668347684488 0.0 0.022152124067578605 0.0 0.0
-0.021549568831647603 0.01919858206101921 0.0 0.018880332892299068 0.0 0.0
-0.016385789579333843 0.01420349938311416 0.0 0.015492474979908133 0.0 0.0
-0.011722088939774694 0.009730186935861695 0.0 0.012014201640068944 0.0 0.0
-0.007688555728328328 0.005941106172828725 0.0 0.008711014224311198 0.0 0.0
-0.004539623121204289 0.0031255888561481093 0.0 0.005945355855102363 0.0 0.0
-0.0024658524481873667 0.001459393955729027 0.0 0.004018492763482762 0.0 0.0
-0.0013996155385192222 0.0007381718098742329 0.0 0.0029908857166923153 0.0 0.0
-0.0009444750535307356 0.0004983565783198696 0.0 0.0025837200245873437 0.0 0.0
-0.0007121073594280602 0.00038271575900417076 0.0 0.0024679000915072136 0.0 0.0
-0.0005287607733226452 0.00024153362285939117 0.0 0.0024757881069116805 0.0 0.0
-0.00027591069296817317 -5.686552879058393e-05 0.0 0.0024137125951373406 0.0 0.0
0.00021619354526267176 -0.0007525935179405977 0.0 0.001583946592894847 0.0 0.0
0.00012258378750290566 -0.0005536891615183226 0.0 -0.0013766238658329821 0.0 0.0
-0.00033838985135509203 -1.4103339295301609e-05 0.0 -0.0022599833500963062 0.0 0.0
-0.0006609738920154706 0.0002967122392093513 0.0 -0.0023510141698249165 0.0 0.0
-0.0009281503989597706 0.00047424625006065035 0.0 -0.0023173834973354013 0.0 0.0
-0.0012804067445984502 0.0006619025601011241 0.0 -0.00239507337480227 0.0 0.0
-0.0020214530053297985 0.0011228583540816572 0.0 -0.00287374825897313 0.0 0.0
-0.0037090514581593625 0.0024132874029643148 0.0 -0.0041680358519606275 0.0 0.0
-0.006757872973354895 0.005073454272054523 0.0 -0.006508555050523723 0.0 0.0
-0.011198786655567006 0.009212357225028 0.0 -0.009779506291316742 0.0 0.0
-0.016786940580463816 0.014560875091935266 0.0 -0.013587323401331175 0.0 0.0
-0.023233643721955965 0.020802611339441945 0.0 -0.017475669158901197 0.0 0.0
-0.030395918598646432 0.02777167828368743 0.0 -0.021185527454612885 0.0 0.0
-0.03823365095447445 0.03542297245786852 0.0 -0.024728880165494904 0.0 0.0
-0.04671260624999182 0.04370869658937426 0.0 -0.028269200153223317 0.0 0.0
-0.05564712693404525 0.052435272492606266 0.0 -0.032168444185947 0.0 0.0
-0.06455953383639393 0.0611220933639407 0.0 -0.03689761440938455 0.0 0.0
-0.07253207994555436 0.06884320720229287 0.0 -0.04250208919091625 0.0 0.0
-0.07797034297326227 0.07398467406081455 0.0 -0.0478409882068459 0.0 0.0
-0.07812945161980847 0.07369903428981939 0.0 -0.05005485735047033 0.0 0.0
-0.0679542429957056 0.06285542177152337 0.0 -0.04591128279080536 0.0 0.0
-0.06795424299570141 0.06285542177151626 0.0 0.045911282790868535 0.0 0.0
-0.07812945161979135 0.07369903428980873 0.0 0.05005485735054582 0.0 0.0
-0.07797034297323144 0.07398467406079234 0.0 0.04784098820689975 0.0 0.0
-0.07253207994550862 0.06884320720225556 0.0 0.04250208919092968 0.0 0.0
-0.06455953383634103 0.061122093363893626 0.0 0.03689761440936867 0.0 0.0
-0.05564712693399304 0.052435272492557417 0.0 0.03216844418592468 0.0 0.0
-0.04671260624993995 0.043708696589327634 0.0 0.028269200153199447 0.0 0.0
-0.03823365095442177 0.03542297245781478 0.0 0.024728880165475697 0.0 0.0
-0.030395918598596694 0.02777167828363991 0.0 0.02118552745458402 0.0 0.0
-0.02323364372190989 0.0208026113394002 0.0 0.01747566915886467 0.0 0.0
-0.016786940580424375 0.014560875091899739 0.0 0.013587323401295981 0.0 0.0
-0.011198786655538057 0.009212357225003576 0.0 0.009779506291295204 0.0 0.0
-0.0067578729733362985 0.005073454272040312 0.0 0.006508555050508957 0.0 0.0
-0.003709051458148066 0.0024132874029527684 0.0 0.00416803585195008 0.0 0.0
-0.002021453005324983 0.0011228583540761061 0.0 0.002873748258965747 0.0 0.0
-0.001280406744596549 0.000661902560100236 0.0 0.0023950733747990505 0.0 0.0
-0.0009281503989594792 0.0004742462500608724 0.0 0.0023173834973341245 0.0 0.0
-0.0006609738920151792 0.00029671223921012846 0.0 0.002351014169821808 0.0 0.0
-0.0003383898513545647 -1.4103339293636274e-05 0.0 0.0022599833500949185 0.0 0.0
0.00012258378750243382 -0.0005536891615174275 0.0 0.0013766238658318164 0.0 0.0
4.3444129552483446e-05 -0.0003786801234526571 0.0 -0.001162642787635615 0.0 0.0
-0.00039704860149630816 3.3917441449204944e-05 0.0 -0.0020500341585699133 0.0 0.0
-0.0007841392447262008 0.0003473158955246136 0.0 -0.0021683666814609204 0.0 0.0
-0.0011323516693219626 0.0005566317343965732 0.0 -0.002101156508926172 0.0 0.0
-0.0016250634050572477 0.0008414487043091334 0.0 -0.002162722156273722 0.0 0.0
-0.0027363145689318635 0.0016195328707167 0.0 -0.0027276610556033476 0.0 0.0
-0.00511460425578536 0.0035930059095488076 0.0 -0.004192067123614196 0.0 0.0
-0.009165640557109944 0.007288846228027168 0.0 -0.006759424890299015 0.0 0.0
-0.01487951759687045 0.01271719139234051 0.0 -0.010272320786913203 0.0 0.0
-0.02197526332593719 0.019568825767314113 0.0 -0.014240205512470627 0.0 0.0
-0.03018098672787589 0.027546323112667803 0.0 -0.018222373036756223 0.0 0.0
-0.039332712358456645 0.036479335920893696 0.0 -0.022024921290252575 0.0 0.0
-0.049368552281540135 0.04630416138439086 0.0 -0.025651079403990584 0.0 0.0
-0.06026174912200344 0.05698341107444804 0.0 -0.029238592216768278 0.0 0.0
-0.07185701876056927 0.0683417620265443 0.0 -0.033195662662698355 0.0 0.0
-0.08360125410332733 0.0798082826779396 0.0 -0.03805740167769611 0.0 0.0
-0.09424936166978937 0.09012677479301967 0.0 -0.043918077329837324 0.0 0.0
-0.10157096632178922 0.09704174162502266 0.0 -0.049587560144897735 0.0 0.0
-0.10195114496354779 0.09691849146486575 0.0 -0.0525007711682145 0.0 0.0
-0.08997856948771774 0.08436458327090168 0.0 -0.05095469699688826 0.0 0.0
-0.08997856948771107 0.08436458327089102 0.0 0.050954696996950655 0.0 0.0
-0.1019511449635239 0.09691849146483911 0.0 0.05250077116829177 0.0 0.0
-0.10157096632175 0.09704174162497736 0.0 0.049587560144954135 0.0 0.0
-0.09424936166973458 0.09012677479296283 0.0 0.04391807732985298 0.0 0.0
-0.08360125410326286 0.07980828267787565 0.0 0.038057401677683456 0.0 0.0
-0.0718570187605039 0.06834176202647857 0.0 0.03319566266268237 0.0 0.0
-0.060261749121937824 0.056983411074380985 0.0 0.029238592216744297 0.0 0.0
-0.049368552281474076 0.04630416138432514 0.0 0.025651079403969046 0.0 0.0
-0.03933271235839489 0.036479335920831524 0.0 0.02202492129022743 0.0 0.0
-0.030180986727818535 0.027546323112610516 0.0 0.018222373036721695 0.0 0.0
-0.02197526332588813 0.01956882576726926 0.0 0.014240205512436821 0.0 0.0
-0.014879517596833383 0.012717191392304095 0.0 0.010272320786891553 0.0 0.0
-0.009165640557085158 0.007288846228004964 0.0 0.0067594248902815846 0.0 0.0
-0.005114604255769942 0.003593005909534819 0.0 0.004192067123601317 0.0 0.0
-0.0027363145689244667 0.001619532870711149 0.0 0.002727661055595687 0.0 0.0
-0.001625063405054708 0.0008414487043086893 0.0 0.0021627221562726673 0.0 0.0
-0.0011323516693211716 0.0005566317343960181 0.0 0.0021011565089254503 0.0 0.0
-0.000784139244726062 0.00034731589552283726 0.0 0.002168366681460532 0.0 0.0
-0.00039704860149532284 3.391744144815023e-05 0.0 0.0020500341585693582 0.0 0.0
4.344412955196997e-05 -0.0003786801234523119 0.0 0.0011626427876347822 0.0 0.0
-2.404577240183725e-05 -0.00022855007900851598 0.0 -0.0009425911944840326 0.0 0.0
-0.00045349443029402137 8.572542639939673e-05 0.0 -0.0017890420899371318 0.0 0.0
-0.0008992854454167865 0.0003937841057004565 0.0 -0.001928948818532339 0.0 0.0
-0.001327394354018241 0.0006356238075906351 0.0 -0.0018387194368421067 0.0 0.0
-0.002001006479945666 0.0010600140072367648 0.0 -0.0019068896230619026 0.0 0.0
-0.003555336835797007 0.0022446286172417285 0.0 -0.0025203694124880105 0.0 0.0
-0.006668446087388147 0.004974047720235131 0.0 -0.004040175646765065 0.0 0.0
-0.011721448310174631 0.009699756156055894 0.0 -0.006647601538061432 0.0 0.0
-0.018656386612869558 0.01635850374908454 0.0 -0.01009447964209853 0.0 0.0
-0.02722844953206699 0.024671123238098946 0.0 -0.013919572698484761 0.0 0.0
-0.03718120805520281 0.03437108626784591 0.0 -0.01777254381382276 0.0 0.0
-0.04832165039759828 0.045266095985960764 0.0 -0.021450482205258026 0.0 0.0
-0.06055362914340584 0.05726113205383854 0.0 -0.024963654757339304 0.0 0.0
-0.07383877094567082 0.07031069564468861 0.0 -0.028406200622863254 0.0 0.0
-0.08803569519253979 0.08424526637489027 0.0 -0.03203107559323337 0.0 0.0
-0.1025366482238656 0.09841893271399016 0.0 -0.036367182949736065 0.0 0.0
-0.11578053799694293 0.11125206403212129 0.0 -0.041795403042148016 0.0 0.0
-0.1248876208997586 0.11986660708902974 0.0 -0.047661855354538485 0.0 0.0
-0.12554559893485273 0.11998947834592677 0.0 -0.05242184506263414 0.0 0.0
-0.11211397159849093 0.10602639135341807 0.0 -0.05559897411792336 0.0 0.0
-0.11211397159848208 0.10602639135341452 0.0 0.055598974117983535 0.0 0.0
-0.12554559893482262 0.11998947834590101 0.0 0.052421845062710526 0.0 0.0
-0.12488762089971012 0.11986660708898178 0.0 0.047661855354590776 0.0 0.0
-0.11578053799687921 0.11125206403206267 0.0 0.041795403042164225 0.0 0.0
-0.10253664822378958 0.09841893271391822 0.0 0.03636718294972674 0.0 0.0
-0.08803569519246188 0.08424526637481033 0.0 0.03203107559321994 0.0 0.0
-0.07383877094559237 0.07031069564461134 0.0 0.02840620062284288 0.0 0.0
-0.06055362914332586 0.05726113205376393 0.0 0.024963654757320597 0.0 0.0
-0.04832165039752423 0.045266095985890153 0.0 0.021450482205236987 0.0 0.0
-0.03718120805513468 0.0343710862677824 0.0 0.017772543813791508 0.0 0.0
-0.027228449532008606 0.0246711232380461 0.0 0.013919572698451788 0.0 0.0
-0.018656386612824913 0.01635850374904102 0.0 0.010094479642076382 0.0 0.0
-0.011721448310143531 0.00969975615602614 0.0 0.006647601538043113 0.0 0.0
-0.006668446087367885 0.004974047720217145 0.0 0.0040401756467544625 0.0 0.0
-0.003555336835787473 0.0022446286172330687 0.0 0.002520369412480239 0.0 0.0
-0.0020010064799422245 0.0010600140072349884 0.0 0.0019068896230584054 0.0 0.0
-0.0013273943540171307 0.0006356238075906351 0.0 0.0018387194368408855 0.0 0.0
-0.0008992854454159815 0.0003937841057017888 0.0 0.0019289488185302295 0.0 0.0
-0.00045349443029377157 8.572542640078451e-05 0.0 0.0017890420899340231 0.0 0.0
-2.4045772401504184e-05 -0.0002285500790080823 0.0 0.0009425911944810905 0.0 0.0
-7.889714272663051e-05 -0.00010565140090734726 0.0 -0.0007159668046155532 0.0 0.0
-0.0005065282116070713 0.00013872497228817338 0.0 -0.0014826315579165583 0.0 0.0
-0.0010081126306517585 0.0004368014407936105 0.0 -0.0016330472971597954 0.0 0.0
-0.001521195597411762 0.0007170406850589561 0.0 -0.001528177278050824 0.0 0.0
-0.002428783634902787 0.0013326014733596736 0.0 -0.0016055505823574512 0.0 0.0
-0.004482608688510137 0.003009757660737744 0.0 -0.0022285591893844714 0.0 0.0
-0.008354417282710802 0.006527638670849267 0.0 -0.0037053153413492135 0.0 0.0
-0.014358669694093051 0.012229673424962506 0.0 -0.0061012358783204546 0.0 0.0
-0.022472769149660787 0.020063340882328085 0.0 -0.009190895623652606 0.0 0.0
-0.03250471096752294 0.0298167049151834 0.0 -0.012653397713016101 0.0 0.0
-0.04419300279940097 0.041228656458243584 0.0 -0.01614011306824603 0.0 0.0
-0.05732323126243838 0.05408600113333506 0.0 -0.01947582255295155 0.0 0.0
-0.07175678675898584 0.06825351836287785 0.0 -0.022688069246098674 0.0 0.0
-0.08740113164602548 0.08363416316801509 0.0 -0.02578191460670265 0.0 0.0
-0.10408065767315633 0.10002924971852778 0.0 -0.028786941406220512 0.0 0.0
-0.12116791183541753 0.11675648208815748 0.0 -0.032026219243545206 0.0 0.0
-0.1369159096905562 0.13202441759775674 0.0 -0.036280336521458456 0.0 0.0
-0.1479249714683379 0.14246830060263704 0.0 -0.042222391146487626 0.0 0.0
-0.14925692700330812 0.14321664476794727 0.0 -0.04994215099708854 0.0 0.0
-0.13483817414123572 0.12827903631271997 0.0 -0.05983463825429847 0.0 0.0
-0.13483817414122454 0.1282790363127102 0.0 0.05983463825435564 0.0 0.0
-0.1492569270032728 0.1432166447679144 0.0 0.04994215099715782 0.0 0.0
-0.14792497146828001 0.14246830060258198 0.0 0.042222391146535254 0.0 0.0
-0.1369159096904824 0.13202441759768657 0.0 0.036280336521471446 0.0 0.0
-0.12116791183533047 0.11675648208807665 0.0 0.032026219243538157 0.0 0.0
-0.10408065767306543 0.10002924971843985 0.0 0.02878694140620769 0.0 0.0
-0.08740113164593406 0.0836341631679196 0.0 0.025781914606686662 0.0 0.0
-0.07175678675889333 0.06825351836278237 0.0 0.02268806924608191 0.0 0.0
-0.05732323126235163 0.05408600113324091 0.0 0.019475822552929622 0.0 0.0
-0.044193002799322534 0.04122865645816276 0.0 0.016140113068216944 0.0 0.0
-0.03250471096745519 0.02981670491512034 0.0 0.012653397712985404 0.0 0.0
-0.022472769149609106 0.020063340882276126 0.0 0.009190895623632789 0.0 0.0
-0.014358669694055151 0.01222967342492609 0.0 0.006101235878304911 0.0 0.0
-0.008354417282685739 0.00652763867082462 0.0 0.0037053153413403317 0.0 0.0
-0.0044826086884984795 0.0030097576607246435 0.0 0.0022285591893789203 0.0 0.0
-0.0024287836348979436 0.0013326014733554548 0.0 0.0016055505823555083 0.0 0.0
-0.0015211955974107627 0.0007170406850561806 0.0 0.0015281772780468272 0.0 0.0
-0.0010081126306506066 0.00043680144079338845 0.0 0.0016330472971574639 0.0 0.0
-0.0005065282116070158 0.00013872497228806235 0.0 0.0014826315579155591 0.0 0.0
-7.88971427260754e-05 -0.00010565140090788502 0.0 0.0007159668046167744 0.0 0.0
-0.00011748765247349136 -1.3319109496034987e-05 0.0 -0.0004843160531355917 0.0 0.0
-0.0005517158578823844 0.00018911443760816216 0.0 -0.0011339677089400313 0.0 0.0
-0.0011122590146203093 0.0004763156531810697 0.0 -0.001277650191260471 0.0 0.0
-0.0017261369059958787 0.0008126202955884843 0.0 -0.001172571866089156 0.0 0.0
-0.0029253491455434877 0.0016831082598840474 0.0 -0.0012542975080516716 0.0 0.0
-0.00552278633705422 0.003913861098114202 0.0 -0.0018397921106775295 0.0 0.0
-0.010125069769983508 0.008194823136661089 0.0 -0.003085592654246183 0.0 0.0
-0.017025167215250825 0.014811713877508126 0.0 -0.005038070923349847 0.0 0.0
-0.026292117664945214 0.023788402758700755 0.0 -0.00758566915325154 0.0 0.0
-0.03776190726303902 0.034960474826852384 0.0 -0.010452451842433264 0.0 0.0
-0.05117530105760215 0.04807342233527434 0.0 -0.013343741675094334 0.0 0.0
-0.06629583025553892 0.06289416848981366 0.0 -0.016106793514874207 0.0 0.0
-0.08293730948571565 0.0792371923807802 0.0 -0.018783809846533606 0.0 0.0
-0.10091650041704203 0.09691713852341177 0.0 -0.021373111385907917 0.0 0.0
-0.11993689861292284 0.11562532548576598 0.0 -0.02364433666646426 0.0 0.0
-0.13932437855142837 0.13464302056470334 0.0 -0.025433942245538077 0.0 0.0
-0.15740796311144412 0.1522287481387865 0.0 -0.027704903758217103 0.0 0.0
-0.17065770953973347 0.16482097117131556 0.0 -0.03317948035069751 0.0 0.0
-0.17337787363353255 0.166879215385201 0.0 -0.044563829031847635 0.0 0.0
-0.15867012464221722 0.15160256349278622 0.0 -0.06330427935163818 0.0 0.0
-0.15867012464220437 0.1516025634927738 0.0 0.06330427935168303 0.0 0.0
-0.17337787363349133 0.16687921538515837 0.0 0.04456382903190814 0.0 0.0
-0.17065770953966541 0.16482097117124628 0.0 0.03317948035073914 0.0 0.0
-0.15740796311135927 0.1522287481386977 0.0 0.027704903758225652 0.0 0.0
-0.13932437855133 0.13464302056460475 0.0 0.025433942245532637 0.0 0.0
-0.11993689861281914 0.1156253254856674 0.0 0.023644336666457433 0.0 0.0
-0.10091650041693752 0.09691713852330652 0.0 0.02137311138589637 0.0 0.0
-0.08293730948561129 0.07923719238067184 0.0 0.018783809846520394 0.0 0.0
-0.06629583025543936 0.0628941684897164 0.0 0.016106793514860163 0.0 0.0
-0.051175301057513424 0.04807342233518419 0.0 0.013343741675072684 0.0 0.0
-0.037761907262962705 0.03496047482678 0.0 0.01045245184240795 0.0 0.0
-0.026292117664886337 0.023788402758641247 0.0 0.0075856691532357745 0.0 0.0
-0.017025167215206263 0.014811713877463717 0.0 0.005038070923336413 0.0 0.0
-0.010125069769954184 0.008194823136630447 0.0 0.003085592654234748 0.0 0.0
-0.0055227863370396965 0.003913861098099547 0.0 0.0018397921106709791 0.0 0.0
-0.002925349145536986 0.0016831082598796065 0.0 0.00125429750805095 0.0 0.0
-0.001726136905994692 0.0008126202955878181 0.0 0.0011725718660886564 0.0 0.0
-0.0011122590146191921 0.0004763156531800705 0.0 0.0012776501912589167 0.0 0.0
-0.0005517158578818154 0.00018911443760649682 0.0 0.0011339677089386435 0.0 0.0
-0.00011748765247333176 -1.331910949548161e-05 0.0 0.00048431605313647985 0.0 0.0
-0.00013298365942304713 4.4014817616733204e-05 0.0 -0.00025433609300790083 0.0 0.0
-0.0005799771885007243 0.00023054803987332395 0.0 -0.0007425059495761444 0.0 0.0
-0.0012147181047038602 0.0005150553480998132 0.0 -0.0008565764940091647 0.0 0.0
-0.001961589009781106 0.0009372052187517355 0.0 -0.0007743881888436221 0.0 0.0
-0.003504947509593126 0.002132938610921231 0.0 -0.0008542304515800625 0.0 0.0
-0.006657356371811585 0.004938126146547761 0.0 -0.0012907508305097792 0.0 0.0
-0.01193233041580749 0.009925960047758586 0.0 -0.002156750950879416 0.0 0.0
-0.01969228914268839 0.01740823438451633 0.0 -0.003498747061787544 0.0 0.0
-0.030074677581008624 0.027492712373309747 0.0 -0.005283246561748056 0.0 0.0
-0.04295862440586512 0.040059120306865204 0.0 -0.007319082893534112 0.0 0.0
-0.058086981677841154 0.05486232603714081 0.0 -0.009374721789228047 0.0 0.0
-0.07519713347399154 0.07164495522587222 0.0 -0.01133936344973574 0.0 0.0
-0.09404849661298914 0.09016450180895053 0.0 -0.01326958746480933 0.0 0.0
-0.1143412079128725 0.11011749547664262 0.0 -0.015112837717609295 0.0 0.0
-0.1355950867818071 0.1310192634832621 0.0 -0.016568691511146927 0.0 0.0
-0.1569849517086871 0.1520318632602864 0.0 -0.017161002395973846 0.0 0.0
-0.17700353978549077 0.17159452424001564 0.0 -0.01716011275222673 0.0 0.0
-0.1926729478387198 0.18662851139318715 0.0 -0.020166720853139863 0.0 0.0
-0.19817837919215506 0.1911988728839047 0.0 -0.03452103830963604 0.0 0.0
-0.1843666549187437 0.17670424653131 0.0 -0.06515894256978749 0.0 0.0
-0.18436665491872972 0.17670424653129135 0.0 0.06515894256982091 0.0 0.0
-0.1981783791921075 0.19119887288384874 0.0 0.03452103830968234 0.0 0.0
-0.1926729478386415 0.18662851139310366 0.0 0.020166720853169617 0.0 0.0
-0.17700353978539346 0.1715945242399206 0.0 0.01716011275223367 0.0 0.0
-0.15698495170857685 0.15203186326017093 0.0 0.01716100239596785 0.0 0.0
-0.13559508678169008 0.13101926348314308 0.0 0.01656869151114354 0.0 0.0
-0.11434120791275498 0.1101174954765276 0.0 0.015112837717604244 0.0 0.0
-0.09404849661287282 0.09016450180884084 0.0 0.013269587464802002 0.0 0.0
-0.07519713347387935 0.07164495522576475 0.0 0.011339363449726969 0.0 0.0
-0.058086981677741865 0.054862326037041775 0.0 0.00937472178921167 0.0 0.0
-0.042958624405781125 0.040059120306781715 0.0 0.007319082893515794 0.0 0.0
-0.03007467758094229 0.027492712373247574 0.0 0.00528324656173873 0.0 0.0
-0.019692289142638326 0.017408234384470145 0.0 0.003498747061780716 0.0 0.0
-0.011932330415773684 0.0099259600477275 0.0 0.0021567509508743643 0.0 0.0
-0.006657356371793998 0.004938126146532884 0.0 0.0012907508305050608 0.0 0.0
-0.0035049475095849693 0.002132938610915236 0.0 0.0008542304515786192 0.0 0.0
-0.001961589009779219 0.0009372052187485158 0.0 0.0007743881888424564 0.0 0.0
-0.0012147181047027743 0.0005150553480999243 0.0 0.0008565764940095533 0.0 0.0
-0.0005799771885003427 0.0002305480398726023 0.0 0.0007425059495757558 0.0 0.0
-0.00013298365942272447 4.401481761626483e-05 0.0 0.0002543360930056804 0.0 0.0
-0.00011318758152173425 6.003146574529161e-05 0.0 -4.2932428325814787e-05 0.0 0.0
-0.0005748133624759455 0.00025260034441643153 0.0 -0.00030030000449249306 0.0 0.0
-0.001324051065037135 0.0005600016536763119 0.0 -0.0003563053871512567 0.0 0.0
-0.0022523101626279463 0.0011209245993295536 0.0 -0.0003367931462944229 0.0 0.0
-0.0041703392864340105 0.0026810517124868927 0.0 -0.0003756355954923629 0.0 0.0
-0.007850867464053224 0.006040951016978768 0.0 -0.0005524647813517913 0.0 0.0
-0.013755974943555072 0.01168647546795265 0.0 -0.0009118866109282808 0.0 0.0
-0.022325133838652533 0.01998430833929632 0.0 -0.0014861904550149685 0.0 0.0
-0.033780480643314514 0.031133371025171552 0.0 -0.002292394556071997 0.0 0.0
-0.048051587429194575 0.04506829644473909 0.0 -0.0032481146876121025 0.0 0.0
-0.06488808017215753 0.061554253688452576 0.0 -0.0042297024887583135 0.0 0.0
-0.08398848500798611 0.08029729459802315 0.0 -0.0051820438296308335 0.0 0.0
-0.10503239868740827 0.10097647095217832 0.0 -0.006105626477008075 0.0 0.0
-0.12760922318966156 0.12317430053955736 0.0 -0.006932888250305358 0.0 0.0
-0.15105801035607663 0.1462257043109716 0.0 -0.007477576034325528 0.0 0.0
-0.17430315038712235 0.16905965528602085 0.0 -0.007356905846304773 0.0 0.0
-0.19575962436570682 0.19009669044503408 0.0 -0.006192310770577469 0.0 0.0
-0.21314968535353174 0.20700758886820836 0.0 -0.005407253381463306 0.0 0.0
-0.22248448516057173 0.21558789336009276 0.0 -0.015355619053375569 0.0 0.0
-0.21407083627308737 0.20527025422647593 0.0 -0.06004416068993779 0.0 0.0
-0.21407083627307308 0.20527025422646172 0.0 0.060044160689953996 0.0 0.0
-0.22248448516051875 0.21558789336004214 0.0 0.015355619053398106 0.0 0.0
-0.21314968535344217 0.20700758886811688 0.0 0.005407253381476407 0.0 0.0
-0.19575962436559505 0.1900966904449266 0.0 0.006192310770574527 0.0 0.0
-0.17430315038699973 0.16905965528590539 0.0 0.007356905846302331 0.0 0.0
-0.1510580103559467 0.14622570431085613 0.0 0.007477576034327027 0.0 0.0
-0.12760922318953066 0.12317430053943701 0.0 0.006932888250300917 0.0 0.0
-0.1050323986872802 0.10097647095204865 0.0 0.006105626477000969 0.0 0.0
-0.0839884850078625 0.08029729459789614 0.0 0.005182043829627225 0.0 0.0
-0.06488808017204686 0.06155425368834466 0.0 0.004229702488749709 0.0 0.0
-0.048051587429103516 0.045068296444648936 0.0 0.003248114687601056 0.0 0.0
-0.03378048064324114 0.031133371025099166 0.0 0.0022923945560692216 0.0 0.0
-0.022325133838596616 0.019984308339247914 0.0 0.0014861904550081406 0.0 0.0
-0.01375597494351739 0.01168647546791779 0.0 0.0009118866109255053 0.0 0.0
-0.007850867464032393 0.00604095101695612 0.0 0.0005524647813497929 0.0 0.0
-0.004170339286424489 0.0026810517124766786 0.0 0.0003756355954923629 0.0 0.0
-0.0022523101626249833 0.001120924599326556 0.0 0.00033679314629458945 0.0 0.0
-0.0013240510650360457 0.0005600016536759789 0.0 0.0003563053871498134 0.0 0.0
-0.0005748133624758778 0.00025260034441504375 0.0 0.00030030000449138283 0.0 0.0
-0.0001131875815216267 6.00314657450713e-05 0.0 4.29324283248711e-05 0.0 0.0
SCALARS Statev float 8
LOOKUP_TABLE default
0.0 0.01479053747167582 0.011499231984284458 -0.011879058390902029 0.0003798264066175689 -0.006649239112392602 0.0 0.0
0.0 0.001060515777313711 0.0007751462898423402 -0.0006745864121819085 -0.0001005598776604317 0.0006657094829901605 0.0 0.0
0.0 4.2089891042836666e-05 3.493836116539913e-06 -2.5158534834896382e-06 -9.779826330503038e-07 -2.0722530065277257e-07 0.0 0.0
0.0 0.0004292476008244244 0.00033812030691434704 -0.00026937721510286554 -6.874309181148158e-05 -4.8731866934167444e-05 0.0 0.0
0.0 0.002120913324234041 0.0017724582094791135 -0.0014991506611882093 -0.0002733075482909038 -0.0001903996638564987 0.0 0.0
0.0 0.0056588918730560295 0.005084030564411115 -0.004573490806349945 -0.0005105397580611708 -0.00041665676204982456 0.0 0.0
0.0 0.012065142575409825 0.010675234121049844 -0.010018429677004585 -0.0006568044440452524 -0.0007671865552093042 0.0 0.0
0.0 0.02161246452670591 0.018963298817693104 -0.018200149715505612 -0.000763149102187492 -0.0013154242614548158 0.0 0.0
0.0 0.03452706671967395 0.030148557457939224 -0.029279235686848787 -0.000869321771090423 -0.0020944335340218907 0.0 0.0
0.0 0.0507448169130906 0.044172223824124945 -0.043188802852071446 -0.000983420972053516 -0.003037486800741383 0.0 0.0
0.0 0.07002415750207716 0.06080420468447798 -0.05970199441984105 -0.001102210264636908 -0.0040236766430925995 0.0 0.0
0.0 0.091746880405716 0.07975722918889502 -0.07853414601781822 -0.0012230831710767858 -0.004985723890548501 0.0 0.0
0.0 0.11586910291583431 0.10072612436469318 -0.09938068941270409 -0.0013454349519890036 -0.005924825248609247 0.0 0.0
0.0 0.1419812731370325 0.12335881634385173 -0.1218880219640691 -0.0014707943797825321 -0.0068228108241996715 0.0 0.0
0.0 0.16942626811832243 0.1471419387262331 -0.14554173773694007 -0.0016002009892928915 -0.007621446590987925 0.0 0.0
0.0 0.19731821454948328 0.17127925504693628 -0.1695471479185788 -0.001732107128357617 -0.008154074883917872 0.0 0.0
0.0 0.2243285750322329 0.19465011394607626 -0.1927880773145697 -0.0018620366315066684 -0.00815918454858028 0.0 0.0
0.0 0.24881762673150548 0.2158503147162721 -0.21386419220049604 -0.0019861225157759383 -0.007446998081556682 0.0 0.0
0.0 0.2688671059232102 0.23320923537580326 -0.23110272260888265 -0.0021065127669205675 -0.0065469063492177345 0.0 0.0
0.0 0.2812502384462062 0.24405671123756537 -0.24174853622081532 -0.0023081750167500423 -0.008267818054395814 0.0 0.0
0.0 0.2812502384461881 0.24405671123754943 -0.24174853622079936 -0.0023081750167499625 0.008267818054408013 0.0 0.0
0.0 0.26886710592314683 0.2332092353757483 -0.2311027226088273 -0.0021065127669208745 0.006546906349245188 0.0 0.0
0.0 0.2488176267314105 0.21585031471618854 -0.21386419220041528 -0.0019861225157731793 0.007446998081573859 0.0 0.0
0.0 0.22432857503211526 0.19465011394597284 -0.19278807731446937 -0.001862036631503525 0.008159184548588067 0.0 0.0
0.0 0.19731821454934456 0.1712792550468158 -0.16954714791845948 -0.0017321071283564057 0.00815407488390617 0.0 0.0
0.0 0.16942626811817824 0.1471419387261078 -0.1455417377368157 -0.001600200989292053 0.007621446590984816 0.0 0.0
0.0 0.1419812731368923 0.12335881634372997 -0.12188802196394842 -0.0014707943797814846 0.006822810824199466 0.0 0.0
0.0 0.11586910291569845 0.10072612436457515 -0.09938068941258718 -0.0013454349519879762 0.005924825248607709 0.0 0.0
0.0 0.09174688040558393 0.07975722918878048 -0.07853414601770445 -0.0012230831710759531 0.00498572389053974 0.0 0.0
0.0 0.07002415750195773 0.060804204684374225 -0.05970199441973775 -0.0011022102646364663 0.004023676643084323 0.0 0.0
0.0 0.05074481691299227 0.04417222382403993 -0.043188802851986896 -0.0009834209720530522 0.0030374868007284517 0.0 0.0
0.0 0.034527066719600305 0.030148557457874772 -0.029279235686784956 -0.0008693217710898431 0.002094433534018886 0.0 0.0
0.0 0.021612464526654086 0.018963298817647224 -0.018200149715460447 -0.0007631491021867732 0.0013154242614511744 0.0 0.0
0.0 0.012065142575375071 0.01067523412101894 -0.01001842967697419 -0.0006568044440447415 0.0007671865552072671 0.0 0.0
0.0 0.0056588918730372285 0.005084030564393962 -0.0045734908063335845 -0.0005105397580603774 0.00041665676204818297 0.0 0.0
0.0 0.002120913324225656 0.0017724582094721898 -0.0014991506611819814 -0.00027330754829020813 0.0001903996638556651 0.0 0.0
0.0 0.0004292476008222538 0.000338120306913327 -0.0002693772151019929 -6.874309181133391e-05 4.873186693382046e-05 0.0 0.0
0.0 4.208989104260866e-05 3.4938361168891276e-06 -2.515853483760119e-06 -9.779826331289616e-07 2.0722530069286878e-07 0.0 0.0
0.0 0.0010605157773099884 0.0007751462898400183 -0.0006745864121798693 -0.00010055987766014996 -0.0006657094829880167 0.0 0.0
0.0 0.014790537471656552 0.01149923198427177 -0.011879058390888347 0.00037982640661657254 0.0066492391123599125 0.0 0.0
0.0 0.011147764093923358 0.008119461831070252 -0.00861705275394806 0.0004975909228778051 -0.007797678469384839 0.0 0.0
0.0 3.0357763219555752e-05 2.4279337800038012e-05 -2.2122217581928975e-05 -2.1571202181090325e-06 1.58885834200409e-05 0.0 0.0
0.0 9.81176371152257e-07 3.846598850191818e-07 -2.9126151957689173e-07 -9.339836544229232e-08 -1.3393067156166425e-07 0.0 0.0
0.0 0.00019067062850156206 0.00014690434139656868 -0.00011596999063915758 -3.0934350757411294e-05 -5.0527467676938814e-05 0.0 0.0
0.0 0.0014654151702508653 0.00118829990897058 -0.0009890857489632697 -0.0001992141600073111 -0.00031475699009239584 0.0 0.0
0.0 0.004431011242560321 0.0039836603082109515 -0.003531515002410761 -0.0004521453058001902 -0.0008631165963060575 0.0 0.0
0.0 0.010118495119065617 0.008942153351434903 -0.00831703927482702 -0.0006251140766078828 -0.0017455861611343905 0.0 0.0
0.0 0.018747584775292148 0.016413691845014483 -0.015673011750611227 -0.0007406800944032596 -0.003044732185821103 0.0 0.0
0.0 0.03044171750429674 0.02652374077523053 -0.025677736624102922 -0.0008460041511275871 -0.004785473261946556 0.0 0.0
0.0 0.04507223235813296 0.03916077773101724 -0.03820626285187337 -0.0009545148791438669 -0.006811076619910019 0.0 0.0
0.0 0.062364026305786927 0.05408817112992885 -0.05302327786512113 -0.00106489326480772 -0.008892957268433636 0.0 0.0
0.0 0.08207247558746888 0.07105795561507863 -0.06988190798988272 -0.0011760476251958688 -0.010898231594736862 0.0 0.0
0.0 0.10363363619342839 0.08983697124986932 -0.08854825110905166 -0.001288720140817677 -0.012869980213355788 0.0 0.0
0.0 0.1270080148689613 0.11013200325632928 -0.10872835358853229 -0.0014036496677970072 -0.014796369366686005 0.0 0.0
0.0 0.15168337046316685 0.1315040064189389 -0.12998287694193375 -0.0015211294770050324 -0.016525875439973227 0.0 0.0
0.0 0.1768049129975509 0.1532813313593957 -0.15164087502990736 -0.0016404563294883522 -0.01773666329641033 0.0 0.0
0.0 0.20126334015721503 0.17449540527845744 -0.17273510590979024 -0.0017602993686671464 -0.01794710244717588 0.0 0.0
0.0 0.2235630896153496 0.19383680855225757 -0.1919556156103452 -0.0018811929419122826 -0.016905541474131768 0.0 0.0
0.0 0.2415590973649409 0.20945861240290217 -0.20743876070166822 -0.00201985170123381 -0.015075477079070696 0.0 0.0
0.0 0.25235239834545503 0.21885436923330784 -0.2167283116981368 -0.0021260575351710574 -0.012292501444602049 0.0 0.0
0.0 0.2523523983454354 0.2188543692332907 -0.21672831169811924 -0.0021260575351715735 0.012292501444630186 0.0 0.0
0.0 0.24155909736488818 0.20945861240285588 -0.20743876070162162 -0.0020198517012342356 0.015075477079118806 0.0 0.0
0.0 0.2235630896152634 0.19383680855218272 -0.19195561561026953 -0.0018811929419130416 0.016905541474165613 0.0 0.0
0.0 0.20126334015710726 0.17449540527836405 -0.17273510590969654 -0.001760299368667297 0.0179471024471915 0.0 0.0
0.0 0.17680491299743245 0.15328133135929353 -0.15164087502980533 -0.0016404563294881605 0.017736663296398572 0.0 0.0
0.0 0.1516833704630428 0.13150400641883128 -0.1299828769418269 -0.0015211294770043685 0.01652587543996655 0.0 0.0
0.0 0.12700801486883329 0.11013200325621864 -0.10872835358842164 -0.0014036496677969593 0.01479636936668141 0.0 0.0
0.0 0.10363363619330339 0.08983697124976113 -0.08854825110894379 -0.001288720140817347 0.012869980213348635 0.0 0.0
0.0 0.08207247558734927 0.07105795561497516 -0.0698819079897795 -0.0011760476251955966 0.010898231594721874 0.0 0.0
0.0 0.0623640263056816 0.0540881711298377 -0.05302327786503033 -0.0010648932648073591 0.008892957268420163 0.0 0.0
0.0 0.04507223235804335 0.03916077773093973 -0.03820626285179612 -0.0009545148791435869 0.006811076619891291 0.0 0.0
0.0 0.030441717504227396 0.02652374077516992 -0.025677736624042453 -0.0008460041511274599 0.004785473261937794 0.0 0.0
0.0 0.01874758477524293 0.016413691844971438 -0.01567301175056858 -0.0007406800944028628 0.003044732185812547 0.0 0.0
0.0 0.010118495119033535 0.008942153351406417 -0.008317039274799208 -0.0006251140766072036 0.00174558616112878 0.0 0.0
0.0 0.004431011242540645 0.0039836603081936685 -0.003531515002394456 -0.0004521453057992121 0.0008631165963022879 0.0 0.0
0.0 0.0014654151702418845 0.0011882999089634558 -0.0009890857489569364 -0.00019921416000651956 0.0003147569900902591 0.0 0.0
0.0 0.00019067062850037426 0.00014690434139612608 -0.00011596999063878804 -3.093435075733792e-05 5.052746767677258e-05 0.0 0.0
0.0 9.81176371015381e-07 3.846598850997351e-07 -2.9126151963568894e-07 -9.339836546404856e-08 1.3393067157663203e-07 0.0 0.0
0.0 3.03577632191001e-05 2.427933779998288e-05 -2.2122217581831166e-05 -2.157120218151713e-06 -1.5888583419878253e-05 0.0 0.0
0.0 0.011147764093900892 0.008119461831055575 -0.008617052753932678 0.0004975909228770946 0.007797678469357516 0.0 0.0
0.0 0.008553057941889822 0.005907402408895002 -0.006442656451278766 0.0005352540423837603 -0.006922317855717974 0.0 0.0
0.0 0.0 0.0 0.0 0.0 0.0 0.0 0.0
0.0 0.0 0.0 0.0 0.0 0.0 0.0 0.0
0.0 5.055770553173718e-05 4.2428652786068975e-05 -3.327981933330046e-05 -9.148833452768538e-06 -2.6894021501939423e-05 0.0 0.0
0.0 0.0008799264130241622 0.0007216069895453597 -0.0005912593988115177 -0.00013034759073384162 -0.00033722848655888977 0.0 0.0
0.0 0.003468397993932791 0.0029432801475978063 -0.0025659570563175546 -0.00037732309128025207 -0.0010985298342284496 0.0 0.0
0.0 0.0082394564301358 0.007241550914876276 -0.0066573980125758155 -0.0005841529023004607 -0.002393965978200067 0.0 0.0
0.0 0.015907143425629273 0.013850205965214265 -0.013138191054892605 -0.0007120149103216522 -0.004302909162448377 0.0 0.0
0.0 0.026372533203540095 0.02284161278410434 -0.022023655259031973 -0.0008179575250723699 -0.006796733994538262 0.0 0.0
0.0 0.03942248335132325 0.034063789611852704 -0.0331430358315447 -0.0009207537803079954 -0.009653671405360015 0.0 0.0
0.0 0.054797503411920634 0.04727620572299863 -0.04625328077101703 -0.0010229249519815924 -0.012586741783163631 0.0 0.0
0.0 0.07215381894164502 0.06226197786687931 -0.06113701150618986 -0.0011249663606894362 -0.015426328385830475 0.0 0.0
0.0 0.09144531260585693 0.07883260446505222 -0.07760484935721797 -0.0012277551078342284 -0.01819813482993993 0.0 0.0
0.0 0.11208032101071307 0.09676764222822004 -0.09543586726772993 -0.0013317749604900469 -0.02092004524587522 0.0 0.0
0.0 0.13393097174865207 0.11571988364411734 -0.11428293694032415 -0.0014369467037931524 -0.023407513021767305 0.0 0.0
0.0 0.15635333680328234 0.1351486491373501 -0.1336047517162951 -0.0015438974210550324 -0.02521851536645455 0.0 0.0
0.0 0.17831408645081254 0.15423227056851768 -0.15257787751696292 -0.0016543930515547532 -0.025780914812105857 0.0 0.0
0.0 0.1983792269191078 0.17173018591020156 -0.1699565021472323 -0.0017736837629692798 -0.024688340416756938 0.0 0.0
0.0 0.2145284388809571 0.1858677523390772 -0.18397739510444175 -0.0018903572346353733 -0.02145945368657927 0.0 0.0
0.0 0.22446924387215395 0.19465966508083732 -0.1926839615277762 -0.0019757035530609387 -0.015043335057913602 0.0 0.0
0.0 0.22446924387213993 0.19465966508082388 -0.19268396152776376 -0.0019757035530600987 0.015043335057960155 0.0 0.0
0.0 0.2145284388809138 0.18586775233903705 -0.18397739510440295 -0.0018903572346341763 0.021459453686645508 0.0 0.0
0.0 0.19837922691903082 0.17173018591013317 -0.16995650214716393 -0.0017736837629690316 0.024688340416805215 0.0 0.0
0.0 0.17831408645072191 0.1542322705684376 -0.1525778775168844 -0.0016543930515533877 0.025780914812125535 0.0 0.0
0.0 0.15635333680317542 0.1351486491372573 -0.1336047517162036 -0.0015438974210536906 0.025218515366443046 0.0 0.0
0.0 0.1339309717485375 0.1157198836440179 -0.1142829369402254 -0.0014369467037925279 0.023407513021758856 0.0 0.0
0.0 0.11208032101059866 0.09676764222812057 -0.09543586726763116 -0.0013317749604894037 0.020920045245869434 0.0 0.0
0.0 0.0914453126057489 0.07883260446495834 -0.07760484935712479 -0.001227755107833515 0.018198134829931926 0.0 0.0
0.0 0.07215381894154253 0.06226197786679098 -0.061137011506102165 -0.0011249663606888569 0.015426328385811363 0.0 0.0
0.0 0.05479750341182735 0.04727620572291763 -0.04625328077093681 -0.0010229249519807906 0.012586741783144563 0.0 0.0
0.0 0.039422483351245055 0.03406378961178519 -0.033143035831477693 -0.0009207537803074846 0.009653671405336491 0.0 0.0
0.0 0.026372533203480382 0.022841612784052334 -0.0220236552589806 -0.000817957525071723 0.006796733994525014 0.0 0.0
0.0 0.015907143425584566 0.013850205965175307 -0.013138191054854292 -0.0007120149103210063 0.0043029091624358605 0.0 0.0
0.0 0.008239456430107182 0.0072415509148512375 -0.006657398012551393 -0.0005841529022998431 0.002393965978191851 0.0 0.0
0.0 0.0034683979939196165 0.0029432801475868875 -0.0025659570563075383 -0.00037732309127935006 0.0010985298342240288 0.0 0.0
0.0 0.0008799264130190545 0.0007216069895415193 -0.0005912593988082593 -0.00013034759073325995 0.0003372284865570352 0.0 0.0
0.0 5.055770553122663e-05 4.242865278615037e-05 -3.327981933335358e-05 -9.148833452796832e-06 2.689402150194571e-05 0.0 0.0
0.0 0.0 0.0 0.0 0.0 0.0 0.0 0.0
0.0 0.0 0.0 0.0 0.0 0.0 0.0 0.0
0.0 0.008553057941869448 0.005907402408881048 -0.006442656451264189 0.0005352540423831339 0.0069223178556951145 0.0 0.0
0.0 0.006491263540573903 0.004308935079857508 -0.0048230717291628126 0.0005141366493053043 -0.005537083511019928 0.0 0.0
0.0 0.0 0.0 0.0 0.0 0.0 0.0 0.0
0.0 0.0 0.0 0.0 0.0 0.0 0.0 0.0
0.0 1.0152528972877349e-05 6.048365924631918e-06 -4.733976828417922e-06 -1.3143890962139812e-06 -6.23602671224851e-06 0.0 0.0
0.0 0.00046870904266688575 0.0003756618517922006 -0.0003041071576834969 -7.155469410870346e-05 -0.000279518783781948 0.0 0.0
0.0 0.0024587700660407994 0.002032104186506254 -0.0017391836239112263 -0.0002929205625950281 -0.0011482585427242105 0.0 0.0
0.0 0.006497356619756383 0.005596878350687286 -0.005071082957851488 -0.0005257953928357967 -0.00271925393766073 0.0 0.0
0.0 0.01312457938677317 0.011307441495457588 -0.010631402935759359 -0.0006760385596982302 -0.005083098338784314 0.0 0.0
0.0 0.022324043874702444 0.01914482236463068 -0.01836100973430951 -0.0007838126303211751 -0.008119968077195706 0.0 0.0
0.0 0.03377405731601518 0.02892809980609299 -0.028046451453433076 -0.000881648352659879 -0.011572020956081194 0.0 0.0
0.0 0.04720298872342676 0.04041273343860127 -0.03943665576335482 -0.0009760776752464552 -0.01510839189093706 0.0 0.0
0.0 0.06236464217723218 0.05340522711570928 -0.0523360349436789 -0.0010691921720303648 -0.01855475687219123 0.0 0.0
0.0 0.07907221036005072 0.06776280939849616 -0.06660081121378442 -0.001161998184711735 -0.021934194411096102 0.0 0.0
0.0 0.09717859654257124 0.08332328952439667 -0.08206802557703143 -0.0012552639473652552 -0.025215863476332513 0.0 0.0
0.0 0.11634383721952665 0.0998344768617393 -0.09848634548901276 -0.0013481313727265153 -0.028226214541344868 0.0 0.0
0.0 0.13586677572914616 0.1168931721099486 -0.11545069119472573 -0.0014424809152228089 -0.030561893483303466 0.0 0.0
0.0 0.15533699370757337 0.13382462830394115 -0.13228141344679845 -0.001543214857142644 -0.03157698973974397 0.0 0.0
0.0 0.1732859291212961 0.1495392302714415 -0.14788849963278708 -0.0016507306386543538 -0.030503317780859903 0.0 0.0
0.0 0.18793154583567734 0.16250434399702313 -0.16075035560316459 -0.0017539883938584898 -0.02619701596247844 0.0 0.0
0.0 0.1973907585843674 0.17104998302048127 -0.16921925000430615 -0.0018307330161752727 -0.017243072183333978 0.0 0.0
0.0 0.19739075858435096 0.1710499830204661 -0.16921925000429017 -0.0018307330161760926 0.01724307218339317 0.0 0.0
0.0 0.18793154583563831 0.16250434399698616 -0.16075035560312756 -0.001753988393858489 0.026197015962553926 0.0 0.0
0.0 0.17328592912123889 0.14953923027138832 -0.1478884996327351 -0.0016507306386531247 0.030503317780916896 0.0 0.0
0.0 0.155336993707492 0.1338246283038691 -0.13228141344672667 -0.0015432148571423762 0.03157698973976561 0.0 0.0
0.0 0.1358667757290532 0.11689317210986858 -0.11545069119464531 -0.0014424809152232417 0.030561893483292968 0.0 0.0
0.0 0.11634383721942856 0.09983447686165471 -0.09848634548892819 -0.0013481313727264563 0.028226214541332978 0.0 0.0
0.0 0.09717859654247402 0.08332328952431232 -0.08206802557694759 -0.0012552639473647521 0.025215863476321716 0.0 0.0
0.0 0.07907221035995973 0.06776280939841693 -0.06660081121370595 -0.0011619981847109646 0.021934194411085017 0.0 0.0
0.0 0.06236464217714083 0.053405227115630546 -0.05233603494360066 -0.0010691921720298939 0.018554756872167587 0.0 0.0
0.0 0.04720298872334912 0.04041273343853427 -0.03943665576328878 -0.000976077675245471 0.015108391890912617 0.0 0.0
0.0 0.03377405731594878 0.028928099806036448 -0.02804645145337735 -0.0008816483526590844 0.011572020956053156 0.0 0.0
0.0 0.02232404387464806 0.019144822364583876 -0.018361009734263183 -0.0007838126303207012 0.008119968077178054 0.0 0.0
0.0 0.013124579386731833 0.01130744149542217 -0.010631402935724276 -0.0006760385596978853 0.005083098338768795 0.0 0.0
0.0 0.006497356619728559 0.005596878350663688 -0.005071082957828677 -0.0005257953928350106 0.0027192539376498684 0.0 0.0
0.0 0.0024587700660272426 0.002032104186495737 -0.00173918362390165 -0.00029292056259408623 0.0011482585427178478 0.0 0.0
0.0 0.0004687090426629613 0.000375661851789699 -0.0003041071576814089 -7.155469410829008e-05 0.0002795187837801633 0.0 0.0
0.0 1.0152528972376647e-05 6.048365924851866e-06 -4.733976828587025e-06 -1.3143890962648364e-06 6.236026712455455e-06 0.0 0.0
0.0 0.0 0.0 0.0 0.0 0.0 0.0 0.0
0.0 0.0 0.0 0.0 0.0 0.0 0.0 0.0
0.0 0.006491263540555592 0.004308935079845298 -0.004823071729149982 0.0005141366493046821 0.005537083511001437 0.0 0.0
0.0 0.004785820512064932 0.0030686265697109022 -0.003525823661747754 0.00045719709203685254 -0.004164529421267578 0.0 0.0
0.0 0.0 0.0 0.0 0.0 0.0 0.0 0.0
0.0 0.0 0.0 0.0 0.0 0.0 0.0 0.0
0.0 1.589501612086106e-06 9.16747872100776e-07 -7.044124909865118e-07 -2.123353811142634e-07 -1.361901681804353e-06 0.0 0.0
0.0 0.00021531869060514044 0.0001590740525443749 -0.00012795189104467715 -3.112216149969778e-05 -0.00018178292560373812 0.0 0.0
0.0 0.0015953606468454807 0.0012742984732485485 -0.0010704904894226197 -0.00020380798382592846 -0.0010567796168713661 0.0 0.0
0.0 0.004961446597559997 0.004058130688212532 -0.0036101437957256023 -0.0004479868924869291 -0.0027339554476214023 0.0 0.0
0.0 0.010473514477104963 0.008816513268441314 -0.00818934831912072 -0.000627164949320592 -0.005344308236586727 0.0 0.0
0.0 0.018322437193117394 0.015475269026436415 -0.014732905541323954 -0.0007423634851124706 -0.008749441263700808 0.0 0.0
0.0 0.028163767161929452 0.023798910603959375 -0.022962570507968474 -0.0008363400959908985 -0.012565154582330273 0.0 0.0
0.0 0.03965052382625908 0.03354338371115595 -0.032619716772288115 -0.0009236669388678641 -0.016469533582751196 0.0 0.0
0.0 0.05254742038127309 0.04453473831666813 -0.04352693990985124 -0.0010077984068168537 -0.0202824030720061 0.0 0.0
0.0 0.06681107215894981 0.0566711672786976 -0.05558045080757154 -0.001090716471126062 -0.02402696341286574 0.0 0.0
0.0 0.08211917582280812 0.06985292784304185 -0.06867982979666314 -0.0011730980463787169 -0.027679688450322325 0.0 0.0
0.0 0.09848580641404234 0.08390581972918429 -0.08265136486018503 -0.0012544548689992548 -0.031030387755472486 0.0 0.0
0.0 0.11554288760572351 0.09854251425496435 -0.09720612000734592 -0.0013363942476183432 -0.033712714296937805 0.0 0.0
0.0 0.1323318200704168 0.11327191272885041 -0.11184885210281886 -0.001423060626031528 -0.03514670815946452 0.0 0.0
0.0 0.1481679915862939 0.1272552263566717 -0.12573830753252813 -0.0015169188241434728 -0.0343094230838826 0.0 0.0
0.0 0.16154222808034951 0.13924119337064914 -0.13763117771693495 -0.001610015653714145 -0.029527521582868678 0.0 0.0
0.0 0.17077852974248434 0.1477689789769988 -0.14608414305006706 -0.0016848359269316842 -0.019059691235614226 0.0 0.0
0.0 0.17077852974247187 0.14776897897698615 -0.1460841430500539 -0.0016848359269321198 0.019059691235677724 0.0 0.0
0.0 0.16154222808031427 0.13924119337061425 -0.13763117771689992 -0.0016100156537142815 0.029527521582949648 0.0 0.0
0.0 0.14816799158624103 0.127255226356621 -0.1257383075324787 -0.0015169188241423047 0.03430942308394425 0.0 0.0
0.0 0.13233182007035338 0.11327191272879222 -0.11184885210276228 -0.0014230606260299066 0.035146708159492945 0.0 0.0
0.0 0.11554288760564299 0.0985425142548944 -0.09720612000727694 -0.0013363942476174973 0.033712714296926086 0.0 0.0
0.0 0.09848580641395946 0.08390581972911244 -0.08265136486011385 -0.001254454868998645 0.031030387755459504 0.0 0.0
0.0 0.08211917582272532 0.06985292784296984 -0.06867982979659194 -0.0011730980463779432 0.0276796884503104 0.0 0.0
0.0 0.06681107215886686 0.05667116727862574 -0.05558045080749962 -0.001090716471126091 0.024026963412851716 0.0 0.0
0.0 0.052547420381197744 0.04453473831660364 -0.043526939909787184 -0.0010077984068164393 0.02028240307198179 0.0 0.0
0.0 0.03965052382618887 0.03354338371109611 -0.03261971677222893 -0.0009236669388671793 0.016469533582724193 0.0 0.0
0.0 0.028163767161867435 0.023798910603907857 -0.022962570507917616 -0.000836340095990248 0.012565154582297202 0.0 0.0
0.0 0.018322437193069138 0.0154752690263956 -0.014732905541283467 -0.0007423634851121256 0.008749441263679842 0.0 0.0
0.0 0.010473514477072586 0.008816513268414455 -0.00818934831909444 -0.000627164949320015 0.005344308236570365 0.0 0.0
0.0 0.0049614465975417795 0.004058130688197763 -0.0036101437957117414 -0.00044798689248602144 0.0027339554476125526 0.0 0.0
0.0 0.0015953606468349928 0.001274298473240672 -0.0010704904894156856 -0.00020380798382498588 0.0010567796168647649 0.0 0.0
0.0 0.0002153186906032929 0.0001590740525435794 -0.000127951891044014 -3.1122161499565326e-05 0.00018178292560276963 0.0 0.0
0.0 1.589501612030598e-06 9.167478723032336e-07 -7.044124911442114e-07 -2.123353811590195e-07 1.3619016821228342e-06 0.0 0.0
0.0 0.0 0.0 0.0 0.0 0.0 0.0 0.0
0.0 0.0 0.0 0.0 0.0 0.0 0.0 0.0
0.0 0.004785820512049466 0.003068626569700835 -0.0035258236617370427 0.0004571970920362067 0.004164529421252737 0.0 0.0
0.0 0.0033542680644940972 0.0020886353763293927 -0.0024656359464888143 0.00037700057015942103 -0.0029731550576211135 0.0 0.0
0.0 0.0 0.0 0.0 0.0 0.0 0.0 0.0
0.0 0.0 0.0 0.0 0.0 0.0 0.0 0.0
0.0 1.2459832782016668e-06 -8.711175530045244e-08 6.722946238267231e-08 1.9882292917777628e-08 2.0432140011233723e-07 0.0 0.0
0.0 9.642899381155431e-05 5.781423627352571e-05 -4.6369262605198217e-05 -1.1444973668327477e-05 -9.9419684763819e-05 0.0 0.0
0.0 0.000921108644254833 0.0006980978963686068 -0.0005769962481459317 -0.00012110164822267484 -0.0008537526152819306 0.0 0.0
0.0 0.003419373328838804 0.002701182452589045 -0.002351789160871525 -0.0003493932917175206 -0.00253557857857177 0.0 0.0
0.0 0.007950830006149585 0.006439278136384237 -0.005883141953988485 -0.0005561361823957495 -0.005158674552681552 0.0 0.0
0.0 0.014445442751983124 0.011873945960423508 -0.011184500117040374 -0.000689445843383135 -0.008657706991176925 0.0 0.0
0.0 0.02261494063118272 0.018723108261923686 -0.017939926285341905 -0.0007831819765817816 -0.012623623605101619 0.0 0.0
0.0 0.03212574981483349 0.02671688671700808 -0.025852947480832805 -0.0008639392361752743 -0.016655936127428318 0.0 0.0
0.0 0.042780862566233736 0.03570097219725983 -0.03476128301782544 -0.0009396891794344014 -0.02059987919270449 0.0 0.0
0.0 0.05448935390640411 0.04561183526508783 -0.04459926220225905 -0.001012573062828757 -0.024482227734403873 0.0 0.0
0.0 0.06719684414409549 0.056405292865977445 -0.05532122601447442 -0.0010840668515030383 -0.028264889022871793 0.0 0.0
0.0 0.0808018031543846 0.06798334135684518 -0.06682843184319753 -0.0011549095136476728 -0.031762824748213625 0.0 0.0
0.0 0.09480197554909559 0.08015363814593243 -0.07892946705024989 -0.0012241710956825281 -0.034647059536077246 0.0 0.0
0.0 0.10923293147256359 0.0926045156560361 -0.09130997167725599 -0.0012945439787800923 -0.036391381187039204 0.0 0.0
0.0 0.12311668963584138 0.1048269995642767 -0.10345508630746514 -0.0013719132568115527 -0.03598642847090632 0.0 0.0
0.0 0.1351719758098473 0.11592075545793845 -0.11446506659815373 -0.0014556888597846121 -0.03144408205001162 0.0 0.0
0.0 0.1443635416173642 0.12459245400413872 -0.12305921995603117 -0.0015332340481074432 -0.02053636018245035 0.0 0.0
0.0 0.14436354161735282 0.12459245400412601 -0.12305921995601868 -0.0015332340481073075 0.020536360182516353 0.0 0.0
0.0 0.1351719758098159 0.11592075545790581 -0.11446506659812065 -0.0014556888597851499 0.03144408205009389 0.0 0.0
0.0 0.12311668963579565 0.10482699956423197 -0.10345508630741963 -0.0013719132568123572 0.03598642847096679 0.0 0.0
0.0 0.10923293147250682 0.09260451565598427 -0.0913099716772036 -0.0012945439787806121 0.03639138118706422 0.0 0.0
0.0 0.09480197554902514 0.08015363814587212 -0.07892946705018905 -0.0012241710956830466 0.034647059536065145 0.0 0.0
0.0 0.08080180315431174 0.06798334135678248 -0.06682843184313512 -0.0011549095136473438 0.03176282474819717 0.0 0.0
0.0 0.06719684414402746 0.05640529286591826 -0.055321226014415775 -0.001084066851502503 0.028264889022858147 0.0 0.0
0.0 0.05448935390634117 0.045611835265033165 -0.04459926220220537 -0.0010125730628278095 0.024482227734390134 0.0 0.0
0.0 0.042780862566169295 0.035700972197205263 -0.03476128301777163 -0.0009396891794336178 0.020599879192679367 0.0 0.0
0.0 0.03212574981477705 0.026716886716961166 -0.02585294748078616 -0.0008639392361750075 0.01665593612740067 0.0 0.0
0.0 0.02261494063113536 0.018723108261885214 -0.017939926285303984 -0.0007831819765812296 0.012623623605070355 0.0 0.0
0.0 0.014445442751946792 0.011873945960393208 -0.011184500117010955 -0.0006894458433822484 0.008657706991156642 0.0 0.0
0.0 0.007950830006123342 0.006439278136363092 -0.005883141953968022 -0.0005561361823950698 0.005158674552665696 0.0 0.0
0.0 0.0034193733288245135 0.002701182452577901 -0.0023517891608613476 -0.00034939329171655226 0.002535578578562715 0.0 0.0
0.0 0.0009211086442486975 0.0006980978963645139 -0.0005769962481425021 -0.00012110164822201177 0.0008537526152773403 0.0 0.0
0.0 9.642899381006516e-05 5.781423627316725e-05 -4.636926260487766e-05 -1.1444973668289597e-05 9.941968476304833e-05 0.0 0.0
0.0 1.245983277765114e-06 -8.711175526903953e-08 6.722946235833695e-08 1.9882292910690027e-08 -2.0432140003799813e-07 0.0 0.0
0.0 0.0 0.0 0.0 0.0 0.0 0.0 0.0
0.0 0.0 0.0 0.0 0.0 0.0 0.0 0.0
0.0 0.003354268064482427 0.002088635376322034 -0.002465635946480667 0.0003770005701586333 0.0029731550576106575 0.0 0.0
0.0 0.0022143277786380567 0.0013196207526813435 -0.0016018967005540855 0.00028227594787274147 -0.0019847893248812623 0.0 0.0
0.0 6.808126749334917e-07 -1.0371231226033877e-08 1.1382208934150606e-08 -1.010977708115995e-09 1.3495275768488005e-07 0.0 0.0
0.0 3.7869285625906513e-07 -1.0853022555903305e-08 7.76318668522007e-09 3.0898358706842675e-09 7.416418593090768e-08 0.0 0.0
0.0 1.343535810957597e-06 -6.745450613659108e-08 5.1836617700734505e-08 1.5617888435866596e-08 2.5068220686766373e-07 0.0 0.0
0.0 5.139415041001086e-05 2.558655410822903e-05 -2.0392808863934525e-05 -5.193745244294522e-06 -6.582691843307729e-05 0.0 0.0
0.0 0.0005093349510342141 0.0003140667998336352 -0.00025635274467295796 -5.771405516067738e-05 -0.0005773037054308807 0.0 0.0
0.0 0.0021516145083993136 0.001563788335338963 -0.0013295470380817317 -0.00023424129725723206 -0.0021037219129555313 0.0 0.0
0.0 0.005552742702297506 0.00425878263776551 -0.0038035667161633044 -0.00045521592160220224 -0.004589528672410997 0.0 0.0
0.0 0.010684065531526704 0.008411004345228406 -0.007796373748111403 -0.0006146305971169969 -0.007892883622647985 0.0 0.0
0.0 0.017160784943471345 0.013752053138663487 -0.013034774289038143 -0.0007172788496253406 -0.011716884246423023 0.0 0.0
0.0 0.024682677179228153 0.01998481916819787 -0.019191042235845293 -0.0007937769323525818 -0.015656031672490436 0.0 0.0
0.0 0.03306803782215759 0.026960586124510782 -0.02609842266247244 -0.0008621634620383394 -0.01949519371859122 0.0 0.0
0.0 0.042282020583569155 0.03464315790448186 -0.033717897905478314 -0.0009252599990035304 -0.02326546464190702 0.0 0.0
0.0 0.0522534802328127 0.043040698529465175 -0.04205509245919853 -0.0009856060702666293 -0.026964800014475637 0.0 0.0
0.0 0.06299973732973399 0.0521262289743857 -0.05108092049356887 -0.001045308480816821 -0.030411091728181898 0.0 0.0
0.0 0.07431163728582274 0.061791026096681544 -0.06068651416438969 -0.001104511932291893 -0.033275278466131424 0.0 0.0
0.0 0.08590664337971346 0.0718738980904749 -0.07071591341251426 -0.001157984677960625 -0.03519401461114054 0.0 0.0
0.0 0.09760912375456605 0.08221326342705057 -0.0809991300046891 -0.0012141334223614618 -0.03540171986329801 0.0 0.0
0.0 0.10878934697217203 0.09237015824752307 -0.0910842237363557 -0.0012859345111673006 -0.031827528465311714 0.0 0.0
0.0 0.11813200538383926 0.10128740140897306 -0.09991712533471638 -0.0013702760742566674 -0.021643686005661005 0.0 0.0
0.0 0.11813200538383362 0.1012874014089655 -0.099917125334708 -0.0013702760742574278 0.021643686005721918 0.0 0.0
0.0 0.1087893469721555 0.09237015824750149 -0.09108422373633471 -0.0012859345111668739 0.03182752846539344 0.0 0.0
0.0 0.09760912375453729 0.08221326342701855 -0.08099913000465789 -0.0012141334223605802 0.03540171986336044 0.0 0.0
0.0 0.08590664337967238 0.0718738980904352 -0.07071591341247532 -0.001157984677959897 0.035194014611165274 0.0 0.0
0.0 0.07431163728577334 0.061791026096638724 -0.06068651416434768 -0.0011045119322910524 0.03327527846612126 0.0 0.0
0.0 0.06299973732968088 0.05212622897434037 -0.05108092049352383 -0.0010453084808165218 0.030411091728165984 0.0 0.0
0.0 0.05225348023276101 0.0430406985294205 -0.04205509245915452 -0.000985606070265966 0.026964800014462775 0.0 0.0
0.0 0.04228202058352196 0.034643157904441 -0.03371789790543811 -0.0009252599990028725 0.023265464641894995 0.0 0.0
0.0 0.03306803782210756 0.02696058612446945 -0.02609842266243138 -0.0008621634620380805 0.019495193718565895 0.0 0.0
0.0 0.024682677179184653 0.019984819168162467 -0.019191042235810706 -0.0007937769323517414 0.015656031672463842 0.0 0.0
0.0 0.017160784943432213 0.013752053138633199 -0.013034774289008389 -0.0007172788496248065 0.011716884246392218 0.0 0.0
0.0 0.010684065531498607 0.008411004345206603 -0.007796373748089781 -0.0006146305971168239 0.007892883622629139 0.0 0.0
0.0 0.005552742702277823 0.004258782637750273 -0.003803566716149005 -0.0004552159216012663 0.004589528672397317 0.0 0.0
0.0 0.002151614508387306 0.0015637883353301469 -0.0013295470380738845 -0.0002342412972562612 0.002103721912945742 0.0 0.0
0.0 0.0005093349510294308 0.0003140667998310957 -0.0002563527446708477 -5.771405516024785e-05 0.0005773037054262745 0.0 0.0
0.0 5.139415040874168e-05 2.5586554108189246e-05 -2.0392808863897615e-05 -5.193745244291641e-06 6.582691843295889e-05 0.0 0.0
0.0 1.343535810551308e-06 -6.74545061154224e-08 5.1836617684484416e-08 1.561788843093987e-08 -2.5068220678900275e-07 0.0 0.0
0.0 3.786928558295237e-07 -1.0853022544114866e-08 7.763186676628835e-09 3.0898358674860974e-09 -7.416418584570931e-08 0.0 0.0
0.0 6.808126741997652e-07 -1.0371231215047161e-08 1.1382208922371451e-08 -1.0109777073237724e-09 -1.34952757536912e-07 0.0 0.0
0.0 0.002214327778628941 0.0013196207526760318 -0.0016018967005480406 0.00028227594787200844 0.0019847893248734253 0.0 0.0
0.0 0.0013198372151297598 0.000739992799228763 -0.0009264912588221601 0.00018649845959339663 -0.0011910747847841885 0.0 0.0
0.0 1.8515786045151204e-06 7.790885802200237e-08 -7.811481572903685e-08 2.0595770703315576e-10 -1.763371592987639e-06 0.0 0.0
0.0 7.254158058255284e-07 6.275041714254977e-09 -3.797705778380957e-09 -2.4773359358734914e-09 -3.393716344976862e-08 0.0 0.0
0.0 2.357197603601804e-06 3.5130374922628233e-07 -2.7177322310772956e-07 -7.953052611855057e-08 -2.3073975082939018e-06 0.0 0.0
0.0 4.0935765468668086e-05 1.4400103703650537e-05 -1.141180401965654e-05 -2.9882996839940174e-06 -5.813299449331284e-05 0.0 0.0
0.0 0.0002733892788756312 0.00012471501758239543 -0.00010088749886314963 -2.3827518719245817e-05 -0.0003703808601222128 0.0 0.0
0.0 0.0012071612938909647 0.0007203480019986318 -0.0005983822124737718 -0.00012196578952485987 -0.0015076834170776713 0.0 0.0
0.0 0.0034301026460522837 0.002358271870858963 -0.002043311383813363 -0.00031496048704559947 -0.0036527330076575643 0.0 0.0
0.0 0.007116780559821309 0.005184088632975257 -0.004684219727985568 -0.0004998689049896851 -0.006537837814445193 0.0 0.0
0.0 0.01179824618948307 0.008968401193595961 -0.008344568687281735 -0.000623832506314227 -0.009895965944419554 0.0 0.0
0.0 0.017406562814920985 0.013415538953018176 -0.012710792367956514 -0.0007047465850616593 -0.013428997778237823 0.0 0.0
0.0 0.023485295408284753 0.018381825607001596 -0.01761360659107747 -0.0007682190159241276 -0.016920976492691156 0.0 0.0
0.0 0.03015448178244995 0.023839293856180346 -0.02301637269981044 -0.000822921156369912 -0.020355952037371693 0.0 0.0
0.0 0.03744811748369265 0.029831016000796746 -0.028958759276450852 -0.0008722567243458892 -0.023727208303329427 0.0 0.0
0.0 0.04541226536918777 0.03640235636630487 -0.03548237270222104 -0.0009199836640837928 -0.026923895880918786 0.0 0.0
0.0 0.05385508805312571 0.04353828188475727 -0.042569219243852444 -0.0009690626409048124 -0.029625385685381273 0.0 0.0
0.0 0.06277261136418327 0.05117516134463429 -0.05016233247123938 -0.0010128288733948837 -0.03146147418926678 0.0 0.0
0.0 0.0720660509771142 0.05941049697217232 -0.05836749291383705 -0.0010430040583352437 -0.032204576641192015 0.0 0.0
0.0 0.0818252614354646 0.06841110806673585 -0.06731964635031029 -0.0010914617164255536 -0.030318275846930226 0.0 0.0
0.0 0.09127091801482312 0.07758976875708591 -0.07640506943710049 -0.0011846993199854938 -0.022263516904017854 0.0 0.0
0.0 0.09127091801482112 0.07758976875708029 -0.07640506943709502 -0.001184699319985285 0.022263516904073098 0.0 0.0
0.0 0.08182526143545318 0.06841110806671824 -0.06731964635029246 -0.001091461716425765 0.030318275847005027 0.0 0.0
0.0 0.07206605097709423 0.05941049697214734 -0.05836749291381253 -0.0010430040583347957 0.0322045766412488 0.0 0.0
0.0 0.06277261136415084 0.051175161344602364 -0.050162332471208576 -0.001012828873393801 0.031461474189284966 0.0 0.0
0.0 0.053855088053084116 0.043538281884722516 -0.0425692192438188 -0.000969062640903692 0.02962538568536432 0.0 0.0
0.0 0.0454122653691456 0.03640235636626988 -0.03548237270218694 -0.0009199836640829608 0.02692389588090039 0.0 0.0
0.0 0.03744811748365375 0.029831016000764075 -0.02895875927641829 -0.0008722567243457908 0.023727208303316306 0.0 0.0
0.0 0.03015448178241738 0.0238392938561526 -0.023016372699782878 -0.0008229211563697327 0.02035595203736166 0.0 0.0
0.0 0.023485295408250215 0.01838182560697387 -0.017613606591050168 -0.0007682190159237015 0.016920976492670735 0.0 0.0
0.0 0.01740656281489023 0.013415538952994124 -0.012710792367932974 -0.000704746585061138 0.013428997778216104 0.0 0.0
0.0 0.011798246189453616 0.008968401193574612 -0.00834456868726106 -0.0006238325063135442 0.009895965944392978 0.0 0.0
0.0 0.00711678055979886 0.00518408863295866 -0.00468421972796965 -0.000499868904989011 0.006537837814426819 0.0 0.0
0.0 0.0034301026460381843 0.002358271870848607 -0.0020433113838040015 -0.0003149604870446062 0.0036527330076452243 0.0 0.0
0.0 0.0012071612938827994 0.0007203480019938014 -0.0005983822124695889 -0.00012196578952421219 0.001507683417068926 0.0 0.0
0.0 0.0002733892788729394 0.00012471501758153206 -0.00010088749886243686 -2.382751871909515e-05 0.0003703808601197301 0.0 0.0
0.0 4.093576546694475e-05 1.4400103703521828e-05 -1.1411804019546822e-05 -2.988299683974992e-06 5.813299449278335e-05 0.0 0.0
0.0 2.3571976035650793e-06 3.5130374937211277e-07 -2.7177322321830426e-07 -7.95305261538115e-08 2.3073975092230592e-06 0.0 0.0
0.0 7.254158055655282e-07 6.2750417687889105e-09 -3.7977058146844535e-09 -2.477335954103495e-09 3.3937164138686485e-08 0.0 0.0
0.0 1.8515786039517963e-06 7.790885806046622e-08 -7.811481577421392e-08 2.0595771374762357e-10 1.7633715939388612e-06 0.0 0.0
0.0 0.0013198372151226945 0.0007399927992251146 -0.0009264912588178349 0.0001864984595927206 0.0011910747847784888 0.0 0.0
0.0 0.0006252376853922232 0.0003438159444652987 -0.00044736203288966287 0.00010354608842436436 -0.0006005570990046706 0.0 0.0
0.0 3.706764210370482e-06 5.582641041870807e-08 -7.666589737897161e-08 2.0839486960263698e-08 -2.3896883934542226e-06 0.0 0.0
0.0 2.7334760436735184e-06 3.379819709087992e-08 -1.3717951634083018e-08 -2.008024545679714e-08 -2.3677340090090804e-06 0.0 0.0
0.0 5.717506528566676e-06 4.986089648654984e-07 -3.520934812081436e-07 -1.4651548365735156e-07 -7.139667597523906e-06 0.0 0.0
0.0 4.381513001688498e-05 8.654649973802692e-06 -6.767180261706764e-06 -1.8874697120959303e-06 -6.618986181881137e-05 0.0 0.0
0.0 0.0001904897592063355 5.088318540398532e-05 -4.1007180063384886e-05 -9.876005340600439e-06 -0.000280708861491718 0.0 0.0
0.0 0.0006317611949685513 0.00023800668657647848 -0.00019404522939367425 -4.396145718280399e-05 -0.0009372175542871757 0.0 0.0
0.0 0.0017387395067293807 0.0008933854331793863 -0.0007462882742717514 -0.0001470971589076345 -0.0024188229485058344 0.0 0.0
0.0 0.0038690004844100755 0.0023446326370436515 -0.0020316232264850423 -0.00031300941055860816 -0.004635230449955623 0.0 0.0
0.0 0.006802818443444068 0.004508975276257253 -0.004046973874394841 -0.00046200140186241343 -0.0072463496034448835 0.0 0.0
0.0 0.010270174864794203 0.0071389756304738134 -0.0065741113770776075 -0.0005648642533962036 -0.010056273140356379 0.0 0.0
0.0 0.014193816804815617 0.010077395194493041 -0.00944399405460402 -0.000633401139889013 -0.012918797240326907 0.0 0.0
0.0 0.01842964963723742 0.013312583591028944 -0.012626896886344356 -0.0006856867046845925 -0.01580558965780767 0.0 0.0
0.0 0.023073365629539804 0.016898173051848934 -0.016171057266235026 -0.0007271157856138992 -0.01865753954830616 0.0 0.0
0.0 0.028188382028756023 0.020925408474977585 -0.020162737921270404 -0.0007626705537071732 -0.021417654682052405 0.0 0.0
0.0 0.03381217871181145 0.0254932973741437 -0.024694777084478026 -0.0007985202896656726 -0.023887532515619914 0.0 0.0
0.0 0.03995214132676632 0.030659415808253963 -0.029820839643023372 -0.0008385761652306054 -0.025624121546275233 0.0 0.0
0.0 0.04674809227973668 0.03658768074353336 -0.03572692120065627 -0.0008607595428770813 -0.02647263305878736 0.0 0.0
0.0 0.0548948306281484 0.04392308417770722 -0.04306422723158703 -0.0008588569461201809 -0.026337936387809825 0.0 0.0
0.0 0.06432278189858187 0.053146252688375306 -0.052194421751991585 -0.0009518309363837353 -0.02204516324348938 0.0 0.0
0.0 0.0643227818985889 0.05314625268837679 -0.05219442175199312 -0.0009518309363836938 0.022045163243536562 0.0 0.0
0.0 0.05489483062814823 0.0439230841776984 -0.043064227231577934 -0.0008588569461204204 0.026337936387879263 0.0 0.0
0.0 0.046748092279723485 0.03658768074351482 -0.03572692120063721 -0.0008607595428776029 0.02647263305883333 0.0 0.0
0.0 0.03995214132674446 0.030659415808232844 -0.029820839643001442 -0.0008385761652314 0.02562412154628714 0.0 0.0
0.0 0.03381217871178725 0.02549329737412575 -0.024694777084459822 -0.0007985202896659217 0.023887532515604194 0.0 0.0
0.0 0.028188382028726183 0.02092540847495477 -0.02016273792124724 -0.0007626705537075178 0.021417654682035783 0.0 0.0
0.0 0.02307336562951726 0.01689817305183125 -0.016171057266217242 -0.000727115785614007 0.01865753954829555 0.0 0.0
0.0 0.0184296496372224 0.013312583591016287 -0.012626896886332064 -0.0006856867046842303 0.015805589657803567 0.0 0.0
0.0 0.014193816804792429 0.010077395194476162 -0.009443994054587655 -0.0006334011398885046 0.012918797240309282 0.0 0.0
0.0 0.010270174864772273 0.007138975630459032 -0.006574111377063145 -0.0005648642533958879 0.010056273140335435 0.0 0.0
0.0 0.006802818443422133 0.004508975276243152 -0.004046973874381295 -0.0004620014018618537 0.007246349603422195 0.0 0.0
0.0 0.003869000484395077 0.0023446326370335857 -0.0020316232264757763 -0.0003130094105578087 0.004635230449940342 0.0 0.0
0.0 0.0017387395067217665 0.0008933854331750311 -0.0007462882742680129 -0.00014709715890701838 0.0024188229484969704 0.0 0.0
0.0 0.0006317611949649812 0.00023800668657518817 -0.00019404522939260718 -4.396145718258093e-05 0.000937217554282888 0.0 0.0
0.0 0.0001904897592047015 5.0883185403895924e-05 -4.100718006331262e-05 -9.87600534058328e-06 0.00028070886149095915 0.0 0.0
0.0 4.381513001578537e-05 8.654649973781342e-06 -6.767180261686933e-06 -1.887469712094412e-06 6.618986181864185e-05 0.0 0.0
0.0 5.7175065283954465e-06 4.986089649087882e-07 -3.520934812376292e-07 -1.4651548367115623e-07 7.139667598180046e-06 0.0 0.0
0.0 2.7334760430770162e-06 3.379819710237628e-08 -1.3717951638665165e-08 -2.0080245463710434e-08 2.367734009806993e-06 0.0 0.0
0.0 3.706764210066937e-06 5.58264104410851e-08 -7.666589741532704e-08 2.0839486974241568e-08 2.3896883942948346e-06 0.0 0.0
0.0 0.000625237685387168 0.00034381594446299905 -0.00044736203288685814 0.00010354608842385879 0.0006005570990005871 0.0 0.0
0.0 0.00020737741770176176 0.00010901895924792577 -0.00014857171943981516 3.955276019188941e-05 -0.00020404533615692882 0.0 0.0
0.0 4.771277378090659e-06 -8.700571947813126e-09 -3.150160930943009e-08 4.020218125724444e-08 -3.7208379407925636e-06 0.0 0.0
0.0 6.545011213416328e-06 -2.70522799959919e-07 2.5954246943906563e-07 1.0980330520853952e-08 -8.155005726881328e-06 0.0 0.0
0.0 1.1161523608793683e-05 -1.7437907641736038e-07 2.530230191941899e-07 -7.864394277682866e-08 -1.7314650926632698e-05 0.0 0.0
0.0 5.0478197958526626e-05 2.034807132259405e-06 -1.402042840952449e-06 -6.327642913069626e-07 -7.51725828668721e-05 0.0 0.0
0.0 0.00017598806768998916 1.4717506075104776e-05 -1.1700418703611357e-05 -3.0170873714933987e-06 -0.0002766875529421931 0.0 0.0
0.0 0.0004217834740948367 5.172505407164825e-05 -4.1916468363671824e-05 -9.808585707976431e-06 -0.0006898290046198599 0.0 0.0
0.0 0.0008619932565373855 0.0001427093524426615 -0.00011631129633028258 -2.639805611237874e-05 -0.001368961766186916 0.0 0.0
0.0 0.0015807379212509646 0.000377635337696927 -0.000308267795120199 -6.936754257672769e-05 -0.0025421152185924867 0.0 0.0
0.0 0.0027786061486961286 0.0008501832717535753 -0.0006972359889383276 -0.0001529472828152474 -0.004201533827817191 0.0 0.0
0.0 0.004243792392273139 0.001559147951326734 -0.0013047041200197058 -0.0002544438313070276 -0.006244405711993196 0.0 0.0
0.0 0.006078400398423587 0.0024345269529622467 -0.0020943187429880716 -0.0003402082099741735 -0.008485078813626014 0.0 0.0
0.0 0.008135900829424302 0.00344245700568176 -0.003035194215878308 -0.0004072627898034511 -0.010865515039864493 0.0 0.0
0.0 0.01045646376708983 0.004614000257279126 -0.004157227722324099 -0.0004567725349550259 -0.013366138236818318 0.0 0.0
0.0 0.013056810309112106 0.006062946518026298 -0.0055703969536527445 -0.0004925495643735491 -0.01594783995213286 0.0 0.0
0.0 0.01607311209897027 0.00798881551367728 -0.0074673769063588954 -0.0005214386073183837 -0.018436344502017154 0.0 0.0
0.0 0.019532704289524833 0.010652350014490207 -0.010097305792113263 -0.0005550442223769373 -0.02037274787454418 0.0 0.0
0.0 0.023522247282610865 0.014268341164792116 -0.013667673561686446 -0.0006006676031056661 -0.021108440270529594 0.0 0.0
0.0 0.029005555062695768 0.01936369724976927 -0.018775138569104025 -0.000588558680665248 -0.021164668534321068 0.0 0.0
0.0 0.03752205452136921 0.027658993222962027 -0.027077516144673824 -0.0005814770782882038 -0.020832650180830085 0.0 0.0
0.0 0.03752205452137245 0.02765899322296097 -0.027077516144672555 -0.0005814770782884085 0.02083265018086381 0.0 0.0
0.0 0.029005555062702783 0.019363697249767005 -0.01877513856910195 -0.0005885586806650673 0.021164668534373935 0.0 0.0
0.0 0.023522247282608433 0.014268341164785207 -0.013667673561679661 -0.0006006676031055412 0.021108440270557652 0.0 0.0
0.0 0.019532704289518935 0.010652350014485964 -0.010097305792109688 -0.000555044222376274 0.020372747874545315 0.0 0.0
0.0 0.016073112098963907 0.007988815513677274 -0.0074673769063594055 -0.0005214386073178656 0.01843634450200165 0.0 0.0
0.0 0.013056810309099841 0.006062946518020452 -0.00557039695364714 -0.0004925495643733117 0.01594783995212079 0.0 0.0
0.0 0.010456463767078355 0.0046140002572744145 -0.004157227722319365 -0.00045677253495504937 0.013366138236805915 0.0 0.0
0.0 0.008135900829420836 0.0034424570056828504 -0.0030351942158793606 -0.00040726278980348816 0.010865515039856803 0.0 0.0
0.0 0.006078400398416044 0.0024345269529612045 -0.0020943187429871887 -0.00034020820997401457 0.008485078813613812 0.0 0.0
0.0 0.004243792392263818 0.0015591479513244976 -0.0013047041200179184 -0.0002544438313065793 0.006244405711978979 0.0 0.0
0.0 0.002778606148688528 0.0008501832717521529 -0.0006972359889372863 -0.00015294728281486664 0.004201533827805918 0.0 0.0
0.0 0.0015807379212477912 0.00037763533769624095 -0.00030826779511968633 -6.936754257655461e-05 0.002542115218587204 0.0 0.0
0.0 0.0008619932565349078 0.00014270935244220553 -0.0001163112963299331 -2.6398056112272296e-05 0.0013689617661828213 0.0 0.0
0.0 0.000421783474092378 5.17250540714594e-05 -4.191646836350085e-05 -9.808585707958516e-06 0.0006898290046172574 0.0 0.0
0.0 0.0001759880676887805 1.4717506075115938e-05 -1.1700418703614426e-05 -3.0170873715015137e-06 0.0002766875529418916 0.0 0.0
0.0 5.047819795715703e-05 2.0348071322531473e-06 -1.402042840947795e-06 -6.327642913053555e-07 7.517258286655086e-05 0.0 0.0
0.0 1.1161523608468767e-05 -1.7437907642638862e-07 2.530230192040967e-07 -7.864394277770805e-08 1.7314650927077847e-05 0.0 0.0
0.0 6.545011212720515e-06 -2.7052279999044177e-07 2.5954246946619255e-07 1.098033052424849e-08 8.15500572762148e-06 0.0 0.0
0.0 4.771277377729304e-06 -8.700571951701821e-09 -3.150160931834473e-08 4.0202181270049085e-08 3.720837941478982e-06 0.0 0.0
0.0 0.00020737741769962176 0.00010901895924722178 -0.0001485717194388824 3.95527601916606e-05 0.0002040453361557514 0.0 0.0
0.0 3.068395551083161e-05 1.4739629620318612e-05 -2.1073138067181257e-05 6.333508446862636e-06 -3.0145123943586667e-05 0.0 0.0
0.0 4.443034479599879e-06 -1.255640175666919e-07 4.531295092667245e-08 8.02510666400243e-08 -3.986947870851658e-06 0.0 0.0
0.0 9.524099571553862e-06 -1.0506721965416205e-06 8.992258612856398e-07 1.514463352559814e-07 -1.3107676988803834e-05 0.0 0.0
0.0 1.788979283099869e-05 -2.212866540377825e-06 1.956893686000919e-06 2.5597285437690754e-07 -2.708695774493585e-05 0.0 0.0
0.0 5.929713398976567e-05 -6.069727066070852e-06 5.234635061684066e-06 8.350920043867942e-07 -8.748505160680013e-05 0.0 0.0
0.0 0.00018642571606551276 -1.9172617379141932e-05 1.5809803443994776e-05 3.36281393514714e-06 -0.00028563384593931646 0.0 0.0
0.0 0.000429056540622465 -5.526966022281792e-05 4.4978015857663824e-05 1.0291644365154081e-05 -0.0007018630729367743 0.0 0.0
0.0 0.0008668379859678139 -0.00014474456171306266 0.0001179503598748313 2.6794201838231392e-05 -0.0013777897999850883 0.0 0.0
0.0 0.0015813849664320495 -0.0003782105343893285 0.0003087901268565106 6.942040753281767e-05 -0.0025452835727790947 0.0 0.0
0.0 0.002778543409907417 -0.000850218539417277 0.0006974309224383498 0.00015278761697892751 -0.004202146110895817 0.0 0.0
0.0 0.004263368906979348 -0.0015682302423344497 0.0013146834432505574 0.0002535467990838921 -0.006251826102015165 0.0 0.0
0.0 0.006116964463236092 -0.002480050286655095 0.0021397890692152395 0.0003402612174398542 -0.008505055470379028 0.0 0.0
0.0 0.008204063873175845 -0.003529422395097512 0.0031186183428728474 0.0004108040522246606 -0.01088080810346951 0.0 0.0
0.0 0.01046812774316798 -0.004645667014638284 0.004175994572155813 0.0004696724424824674 -0.013353283834166091 0.0 0.0
0.0 0.0127205908824229 -0.005670478063276994 0.005149974699686997 0.0005205033635899962 -0.01590706457646098 0.0 0.0
0.0 0.014776774321656229 -0.006316268647832064 0.005751099406146482 0.0005651692416855753 -0.01849084539597005 0.0 0.0
0.0 0.016281018235615684 -0.006182800272394491 0.005578818459862807 0.0006039818125316838 -0.021090948350423782 0.0 0.0
0.0 0.017128463151634448 -0.004998981903933639 0.004373654551323226 0.0006253273526104082 -0.0238102680398453 0.0 0.0
0.0 0.017327250696518623 -0.0027464583606208698 0.002143498810223836 0.0006029595503970306 -0.026251550530085252 0.0 0.0
0.0 0.01732801282046283 0.0038427409591120735 -0.0038986704377230045 5.592947861092733e-05 -0.025632402385285514 0.0 0.0
0.0 0.017328012820465033 0.0038427409591106653 -0.003898670437721934 5.5929478611271627e-05 0.025632402385296536 0.0 0.0
0.0 0.017327250696522994 -0.002746458360621419 0.002143498810223946 0.0006029595503974708 0.026251550530101062 0.0 0.0
0.0 0.01712846315162945 -0.004998981903931891 0.004373654551322005 0.0006253273526098818 0.023810268039845525 0.0 0.0
0.0 0.016281018235603816 -0.006182800272389005 0.00557881845985804 0.0006039818125309632 0.021090948350413877 0.0 0.0
0.0 0.014776774321637674 -0.006316268647821021 0.005751099406135513 0.0005651692416854988 0.01849084539595226 0.0 0.0
0.0 0.012720590882405243 -0.00567047806326666 0.005149974699676506 0.0005205033635901476 0.015907064576444863 0.0 0.0
0.0 0.010468127743151213 -0.004645667014628475 0.00417599457214627 0.0004696724424822042 0.013353283834151016 0.0 0.0
0.0 0.008204063873160352 -0.0035294223950877407 0.0031186183428633784 0.00041080405222435897 0.010880808103456787 0.0 0.0
0.0 0.006116964463220754 -0.002480050286647131 0.0021397890692077424 0.00034026121743938693 0.008505055470362942 0.0 0.0
0.0 0.004263368906965396 -0.001568230242327532 0.001314683443244416 0.0002535467990831163 0.006251826101998686 0.0 0.0
0.0 0.002778543409895806 -0.000850218539412687 0.0006974309224345992 0.00015278761697808712 0.004202146110883004 0.0 0.0
0.0 0.0015813849664276063 -0.00037821053438736707 0.0003087901268548539 6.942040753251308e-05 0.0025452835727731923 0.0 0.0
0.0 0.0008668379859647199 -0.0001447445617122268 0.00011795035987415373 2.67942018380731e-05 0.0013777897999806036 0.0 0.0
0.0 0.000429056540620054 -5.526966022259055e-05 4.497801585753413e-05 1.0291644365056401e-05 0.000701863072934094 0.0 0.0
0.0 0.00018642571606401005 -1.9172617379112066e-05 1.5809803443975166e-05 3.3628139351369234e-06 0.00028563384593865656 0.0 0.0
0.0 5.92971339886215e-05 -6.069727066090672e-06 5.234635061702767e-06 8.350920043878953e-07 8.7485051607152e-05 0.0 0.0
0.0 1.7889792830496422e-05 -2.212866540397447e-06 1.9568936860173977e-06 2.559728543800485e-07 2.708695774513636e-05 0.0 0.0
0.0 9.524099571000044e-06 -1.050672196614731e-06 8.992258613467746e-07 1.5144633526795743e-07 1.310767698960946e-05 0.0 0.0
0.0 4.44303447936899e-06 -1.2556401758777952e-07 4.531295091319201e-08 8.025106667459232e-08 3.986947871975848e-06 0.0 0.0
0.0 3.068395551026704e-05 1.473962962048751e-05 -2.1073138067408095e-05 6.333508446920581e-06 3.014512394411851e-05 0.0 0.0
0.0 1.6632462327964354e-06 -8.87437630398127e-08 1.291199073641736e-07 -4.037614432434241e-08 2.496372743401371e-07 0.0 0.0
0.0 3.0873121289060606e-06 -1.9952194997281846e-07 1.0653091197352397e-07 9.299103799929291e-08 -3.8085503154828237e-06 0.0 0.0
0.0 1.088026899309383e-05 -1.8535982950150338e-06 1.542610365534857e-06 3.1098792948017293e-07 -1.4740189146190651e-05 0.0 0.0
0.0 2.359231175219894e-05 -4.539157390104159e-06 3.863459325331731e-06 6.756980647724378e-07 -3.017625841499562e-05 0.0 0.0
0.0 6.77859890770367e-05 -1.6628118307571558e-05 1.3858803176861601e-05 2.769315130709956e-06 -9.992653935439087e-05 0.0 0.0
0.0 0.00021531750470605635 -6.214741726252191e-05 5.0632323101724316e-05 1.1515094160797612e-05 -0.0003193756191898635 0.0 0.0
0.0 0.0006589690690919338 -0.00024946012875392426 0.00020373449045394656 4.5725638299977706e-05 -0.0009680090223886831 0.0 0.0
0.0 0.0017514751268921584 -0.0008997549054009597 0.0007518759607167474 0.00014787894468421174 -0.0024356592924293426 0.0 0.0
0.0 0.003868865993246057 -0.002344482252658916 0.0020316655315840365 0.00031281672107487846 -0.00463895249466939 0.0 0.0
0.0 0.00680414178673782 -0.0045103387683555745 0.004048878818511831 0.0004614599498437414 -0.007248300781738671 0.0 0.0
0.0 0.01028717937693069 -0.007155063986552987 0.006591436347677858 0.0005636276388751276 -0.010061204023733311 0.0 0.0
0.0 0.01423948585286615 -0.010127626566128135 0.009495456210468446 0.0006321703556596887 -0.012910783504884825 0.0 0.0
0.0 0.018494755781510483 -0.01339577217864418 0.012707886138189713 0.0006878860404544623 -0.015753769157715574 0.0 0.0
0.0 0.02304836933971642 -0.016901510440648686 0.01616209827638135 0.0007394121642673352 -0.018568565489356235 0.0 0.0
0.0 0.027715068657181194 -0.020457902310917892 0.01966719189053749 0.0007907104203803923 -0.021415957180079805 0.0 0.0
0.0 0.032119639779858905 -0.023702666979667004 0.022862899050721922 0.0008397679289450682 -0.02435047507295137 0.0 0.0
0.0 0.03580277628449477 -0.026130779046429787 0.025251855571518544 0.0008789234749112425 -0.027466956426911646 0.0 0.0
0.0 0.03810048719363178 -0.027169612854007617 0.026265310657706136 0.0009043021963015058 -0.03065925522609049 0.0 0.0
0.0 0.03728219088804888 -0.02566368146484021 0.02466738670965729 0.000996294755182901 -0.032129915473313675 0.0 0.0
0.0 0.030363211640476923 -0.01830278098752999 0.01718185074328383 0.0011209302442461385 -0.029881520370084028 0.0 0.0
0.0 0.030363211640491723 -0.01830278098753342 0.01718185074328732 0.0011209302442460936 0.029881520370124967 0.0 0.0
0.0 0.037282190888057315 -0.025663681464835938 0.024667386709652524 0.0009962947551833976 0.03212991547336844 0.0 0.0
0.0 0.03810048719361704 -0.02716961285398861 0.02626531065768619 0.0009043021963024079 0.030659255226118835 0.0 0.0
0.0 0.035802776284467555 -0.02613077904640608 0.02525185557149415 0.0008789234749119377 0.027466956426909262 0.0 0.0
0.0 0.03211963977982944 -0.02370266697964397 0.02286289905069902 0.0008397679289449493 0.02435047507293179 0.0 0.0
0.0 0.027715068657150614 -0.02045790231089386 0.019667191890513865 0.0007907104203800017 0.021415957180061805 0.0 0.0
0.0 0.023048369339686528 -0.016901510440625094 0.016162098276358172 0.0007394121642669149 0.01856856548933951 0.0 0.0
0.0 0.01849475578148143 -0.013395772178620296 0.012707886138166207 0.0006878860404540723 0.01575376915770118 0.0 0.0
0.0 0.014239485852833588 -0.010127626566103347 0.009495456210444259 0.0006321703556590859 0.012910783504861845 0.0 0.0
0.0 0.010287179376900792 -0.007155063986531714 0.006591436347657312 0.000563627638874398 0.010061204023707467 0.0 0.0
0.0 0.006804141786712925 -0.004510338768338722 0.004048878818495863 0.0004614599498428587 0.007248300781714361 0.0 0.0
0.0 0.0038688659932303963 -0.0023444822526477184 0.002031665531573771 0.00031281672107394843 0.004638952494654776 0.0 0.0
0.0 0.001751475126885419 -0.0008997549053967252 0.000751875960713177 0.00014787894468354818 0.002435659292421822 0.0 0.0
0.0 0.0006589690690880345 -0.0002494601287525565 0.0002037344904528912 4.5725638299665334e-05 0.000968009022384272 0.0 0.0
0.0 0.00021531750470419868 -6.214741726232929e-05 5.0632323101571566e-05 1.1515094160757734e-05 0.00031937561918882234 0.0 0.0
0.0 6.778598907582632e-05 -1.662811830750822e-05 1.3858803176811121e-05 2.7693151306970932e-06 9.992653935402048e-05 0.0 0.0
0.0 2.3592311751401428e-05 -4.539157390146934e-06 3.863459325367338e-06 6.756980647795964e-07 3.0176258415260873e-05 0.0 0.0
0.0 1.0880268992430341e-05 -1.853598295103738e-06 1.5426103656070732e-06 3.1098792949666345e-07 1.4740189146861823e-05 0.0 0.0
0.0 3.0873121286034763e-06 -1.995219500035549e-07 1.0653091197611202e-07 9.299103802744324e-08 3.808550316216997e-06 0.0 0.0
0.0 1.663246232129405e-06 -8.874376300538105e-08 1.291199073166848e-07 -4.0376144311303564e-08 -2.496372742301845e-07 0.0 0.0
0.0 0.0 0.0 0.0 0.0 0.0 0.0 0.0
0.0 1.7481729486645771e-06 -5.524192637413944e-09 1.0537790583633604e-08 -5.013597946222315e-09 -3.26685785266328e-08 0.0 0.0
0.0 9.762698258999668e-06 -1.7834048273457211e-06 1.4671928773421526e-06 3.162119500035644e-07 -1.03231118877231e-05 0.0 0.0
0.0 2.6596582901999076e-05 -6.703994178080795e-06 5.5748316560793035e-06 1.1291625220015013e-06 -2.9462774846905056e-05 0.0 0.0
0.0 8.116567844750946e-05 -3.0075568284807262e-05 2.4682889096012347e-05 5.39267918879491e-06 -0.00010942054227157673 0.0 0.0
0.0 0.00032717985682130117 -0.00015334553802715857 0.00012499038889774892 2.8355149129409548e-05 -0.0004403389649880784 0.0 0.0
0.0 0.001243767246120135 -0.000738743243377847 0.0006147342522972722 0.00012400899108057497 -0.001546466691331791 0.0 0.0
0.0 0.0034364567386986327 -0.0023597654914869898 0.002045114904383916 0.0003146505871030739 -0.0036651667550542623 0.0 0.0
0.0 0.0071131235582432145 -0.005181868686218083 0.0046823026184142705 0.000499566067803813 -0.0065372240619664896 0.0 0.0
0.0 0.011802135367436899 -0.008972214748452424 0.008348838564266617 0.0006233761841858061 -0.009898115265348423 0.0 0.0
0.0 0.017422570950949963 -0.013431755090141665 0.012728061840894787 0.0007036932492468846 -0.013426234652303042 0.0 0.0
0.0 0.023510612318117425 -0.018418504003856126 0.01765152903840646 0.0007669749654496623 -0.01686948164251762 0.0 0.0
0.0 0.030166044308341907 -0.02388931832154978 0.023064924321019732 0.000824394000530057 -0.020191911254688107 0.0 0.0
0.0 0.037351501618128065 -0.029795245689911973 0.0289127927940261 0.0008824528958858613 -0.023486080504325924 0.0 0.0
0.0 0.04492687735694506 -0.035940943904944886 0.034996912176451296 0.0009440317284935533 -0.026971672225384463 0.0 0.0
0.0 0.05237903688333783 -0.04190641673804659 0.04090076004398142 0.001005656694065131 -0.03094057675200976 0.0 0.0
0.0 0.059117083301703 -0.047041241212105483 0.045977941776505715 0.0010632994355997513 -0.03553117432845763 0.0 0.0
0.0 0.06360198700036675 -0.05032081563083196 0.04918498517290336 0.0011358304579285545 -0.039910687790325895 0.0 0.0
0.0 0.06370679810627691 -0.049801343232539125 0.048569817926386004 0.0012315253061531174 -0.04203797884708171 0.0 0.0
0.0 0.05384432181695829 -0.04132672645648359 0.03985085360909245 0.0014758728473911334 -0.03783381373148534 0.0 0.0
0.0 0.05384432181696669 -0.041326726456481146 0.03985085360908946 0.00147587284739168 0.037833813731536624 0.0 0.0
0.0 0.06370679810628285 -0.04980134323253191 0.04856981792637896 0.0012315253061529366 0.04203797884714908 0.0 0.0
0.0 0.06360198700035205 -0.050320815630810256 0.04918498517288204 0.0011358304579281646 0.03991068779037124 0.0 0.0
0.0 0.059117083301666956 -0.04704124121207151 0.04597794177647277 0.0010632994355987645 0.03553117432846392 0.0 0.0
0.0 0.052379036883289244 -0.04190641673800581 0.04090076004394124 0.0010056566940645781 0.03094057675198965 0.0 0.0
0.0 0.04492687735689666 -0.03594094390490478 0.03499691217641152 0.0009440317284932688 0.026971672225363084 0.0 0.0
0.0 0.037351501618081144 -0.029795245689873323 0.02891279279398771 0.0008824528958856103 0.023486080504303872 0.0 0.0
0.0 0.03016604430829864 -0.023889318321513083 0.0230649243209834 0.0008243940005296746 0.020191911254671957 0.0 0.0
0.0 0.023510612318071732 -0.01841850400381898 0.017651529038369786 0.0007669749654491875 0.016869481642491913 0.0 0.0
0.0 0.017422570950906047 -0.013431755090107553 0.01272806184086087 0.0007036932492466822 0.013426234652271427 0.0 0.0
0.0 0.011802135367398731 -0.008972214748423893 0.00834883856423823 0.0006233761841856633 0.009898115265317906 0.0 0.0
0.0 0.007113123558217582 -0.005181868686198161 0.0046823026183950445 0.0004995660678031122 0.006537224061947845 0.0 0.0
0.0 0.0034364567386817673 -0.002359765491474627 0.002045114904372593 0.00031465058710203396 0.003665166755039766 0.0 0.0
0.0 0.0012437672461119995 -0.0007387432433731966 0.0006147342522933412 0.00012400899107985512 0.00154646669132348 0.0 0.0
0.0 0.00032717985681791776 -0.0001533455380260215 0.00012499038889682298 2.8355149129198447e-05 0.00044033896498501125 0.0 0.0
0.0 8.116567844662025e-05 -3.007556828495477e-05 2.4682889096130315e-05 5.39267918882442e-06 0.00010942054227195315 0.0 0.0
0.0 2.659658290143252e-05 -6.70399417825412e-06 5.574831656223456e-06 1.1291625220306515e-06 2.9462774847666386e-05 0.0 0.0
0.0 9.762698258451736e-06 -1.7834048274520788e-06 1.467192877428516e-06 3.162119500235691e-07 1.0323111888335932e-05 0.0 0.0
0.0 1.748172948319002e-06 -5.524192671925289e-09 1.0537790603512326e-08 -5.013597931590751e-09 3.266857899870009e-08 0.0 0.0
0.0 0.0 0.0 0.0 0.0 0.0 0.0 0.0
0.0 0.0 0.0 0.0 0.0 0.0 0.0 0.0
0.0 3.8538157917848767e-07 8.524370000021943e-09 -5.889213621647465e-09 -2.6351563783748637e-09 7.625979648851619e-08 0.0 0.0
0.0 6.146458194421386e-06 -1.3677706776187763e-06 1.1159706095355207e-06 2.5180006808325084e-07 -6.071132076423274e-06 0.0 0.0
0.0 2.5926975157698466e-05 -9.399717078966487e-06 7.737767640245454e-06 1.6619494387210204e-06 -3.0372631505436692e-05 0.0 0.0
0.0 0.00011018231654388794 -5.381726030550629e-05 4.389667512315532e-05 9.920585182350993e-06 -0.00013323978611498764 0.0 0.0
0.0 0.0005729534975009319 -0.00035993149541501264 0.00029548497718880274 6.44465182262099e-05 -0.0006628761932682737 0.0 0.0
0.0 0.0021842222513149597 -0.00157440382173675 0.0013405461185733384 0.00023385770316341158 -0.0021354675505230424 0.0 0.0
0.0 0.005549010728800364 -0.0042532054496487014 0.0037986656523533112 0.00045453979729539063 -0.00459179904672764 0.0 0.0
0.0 0.010680974297632866 -0.008409538508888358 0.007795003267053472 0.0006145352418348865 -0.007889648559338817 0.0 0.0
0.0 0.01716588059673632 -0.013758811063495961 0.013041820960861563 0.0007169901026343999 -0.011719662869898931 0.0 0.0
0.0 0.024693037966112684 -0.01999670384172138 0.019203484439307993 0.0007932194024133804 -0.015644989585634022 0.0 0.0
0.0 0.03305831825018596 -0.026969717106360546 0.026108293906298687 0.0008614232000618389 -0.01940326305691987 0.0 0.0
0.0 0.042217170198769555 -0.03463352459581322 0.033707814814533436 0.0009257097812797745 -0.022995350836473246 0.0 0.0
0.0 0.05207843900145489 -0.04294967597264261 0.04195825861948646 0.0009914173531561776 -0.026567024781012083 0.0 0.0
0.0 0.06257413398873474 -0.051730460191565256 0.0506686781055591 0.0010617820860060925 -0.030462107835230946 0.0 0.0
0.0 0.07320103083231817 -0.06049880319529306 0.059360747292207236 0.001138055903085793 -0.03514796412587963 0.0 0.0
0.0 0.08285215746136185 -0.06833616456415045 0.06711329774755907 0.0012228668165913234 -0.040686189113769 0.0 0.0
0.0 0.08965693554694026 -0.07364413463499773 0.07232180589272824 0.001322328742269418 -0.0459701282763635 0.0 0.0
0.0 0.09005301149654768 -0.07365351083171341 0.07218359724420613 0.0014699135875072449 -0.04818523304643016 0.0 0.0
0.0 0.07801706187893204 -0.06333401051362429 0.0616410702192496 0.0016929402943747004 -0.04406677696262458 0.0 0.0
0.0 0.07801706187893721 -0.0633340105136193 0.06164107021924505 0.0016929402943742194 0.04406677696268173 0.0 0.0
0.0 0.09005301149654507 -0.07365351083169926 0.07218359724419324 0.0014699135875060393 0.04818523304650398 0.0 0.0
0.0 0.08965693554691952 -0.07364413463497047 0.07232180589270246 0.0013223287422679682 0.045970128276418123 0.0 0.0
0.0 0.08285215746131769 -0.06833616456410845 0.06711329774751834 0.001222866816590089 0.040686189113782883 0.0 0.0
0.0 0.07320103083226012 -0.06049880319524281 0.05936074729215785 0.001138055903084957 0.03514796412586475 0.0 0.0
0.0 0.0625741339886751 -0.051730460191514796 0.05066867810550901 0.0010617820860057466 0.03046210783520998 0.0 0.0
0.0 0.05207843900139648 -0.04294967597259336 0.04195825861943772 0.0009914173531556636 0.02656702478098945 0.0 0.0
0.0 0.04221717019870781 -0.034633524595760586 0.033707814814481485 0.000925709781279105 0.022995350836452624 0.0 0.0
0.0 0.03305831825012805 -0.026969717106311877 0.026108293906250496 0.0008614232000613553 0.019403263056894018 0.0 0.0
0.0 0.024693037966058443 -0.019996703841677323 0.019203484439264364 0.0007932194024129598 0.015644989585601458 0.0 0.0
0.0 0.0171658805966892 -0.013758811063458552 0.013041820960824782 0.0007169901026337717 0.011719662869866178 0.0 0.0
0.0 0.010680974297599897 -0.008409538508862195 0.007795003267028 0.0006145352418342022 0.007889648559318141 0.0 0.0
0.0 0.005549010728779806 -0.004253205449632481 0.003798665652338216 0.00045453979729426284 0.004591799046713765 0.0 0.0
0.0 0.0021842222513011504 -0.0015744038217266726 0.0013405461185645009 0.00023385770316217147 0.0021354675505118187 0.0 0.0
0.0 0.0005729534974945129 -0.0003599314954114513 0.0002954849771857849 6.444651822566641e-05 0.0006628761932623416 0.0 0.0
0.0 0.0001101823165421976 -5.381726030515587e-05 4.38966751228548e-05 9.920585182301037e-06 0.0001332397861140532 0.0 0.0
0.0 2.5926975157014226e-05 -9.399717079139822e-06 7.737767640382282e-06 1.661949438757536e-06 3.0372631505929485e-05 0.0 0.0
0.0 6.146458193855131e-06 -1.3677706777298973e-06 1.1159706096246942e-06 2.518000681052017e-07 6.071132076921267e-06 0.0 0.0
0.0 3.8538157904294466e-07 8.52436999717895e-09 -5.889213619678072e-09 -2.6351563774992616e-09 -7.62597964614563e-08 0.0 0.0
0.0 0.0 0.0 0.0 0.0 0.0 0.0 0.0
0.0 0.0 0.0 0.0 0.0 0.0 0.0 0.0
0.0 0.0 0.0 0.0 0.0 0.0 0.0 0.0
0.0 2.755655225566595e-06 -6.956507628442505e-07 5.662826399867366e-07 1.2936812285751754e-07 -2.43418125640952e-06 0.0 0.0
0.0 2.4593253332749086e-05 -8.87382237263825e-06 7.2295195740502715e-06 1.6443027985879915e-06 -2.1443266685420408e-05 0.0 0.0
0.0 0.00017767556940173173 -0.00010145397662760105 8.24767856343188e-05 1.897719099328228e-05 -0.00017615596938955175 0.0 0.0
0.0 0.0009960578477135086 -0.0007364510733780873 0.0006117501414270376 0.00012470093195104977 -0.000920900773811024 0.0 0.0
0.0 0.003432704456886912 -0.0026996116508709945 0.0023522905044988315 0.0003473211463721629 -0.002555052384205043 0.0 0.0
0.0 0.007942662336558288 -0.006431174600045064 0.0058753190867822025 0.0005558555132628585 -0.005154439291547107 0.0 0.0
0.0 0.014445752544739017 -0.011875291800837667 0.011185785437484103 0.0006895063633535608 -0.008653337338734596 0.0 0.0
0.0 0.0226245563512274 -0.01873173399158684 0.01794860544379767 0.0007831285477891685 -0.012624796330098179 0.0 0.0
0.0 0.03212489489672035 -0.026720110229075902 0.02585611290245212 0.0008639973266237733 -0.01663422922425086 0.0 0.0
0.0 0.04272773324257358 -0.035672468473112416 0.034732852562649574 0.0009396159104628386 -0.020478762642025417 0.0 0.0
0.0 0.0543376111642402 -0.045523899411514114 0.044512185072393934 0.0010117143391201382 -0.024150194274237764 0.0 0.0
0.0 0.06694239369634075 -0.05624305691786884 0.05515902878374524 0.001084028134123604 -0.027769879260319628 0.0 0.0
0.0 0.08044664044725794 -0.06766855902254855 0.06650496561330886 0.0011635934092396822 -0.031726817695296124 0.0 0.0
0.0 0.09403515647699066 -0.07924467842318819 0.07798795855583278 0.0012567198673554161 -0.03655082325524562 0.0 0.0
0.0 0.10674128543824768 -0.08972248082212315 0.08835540033682449 0.0013670804852986191 -0.04235377282886355 0.0 0.0
0.0 0.11556514636280944 -0.09686905311331183 0.09536635660282448 0.0015026965104873592 -0.0479892349237397 0.0 0.0
0.0 0.11612987731184612 -0.09707768204237573 0.09540721230774935 0.0016704697346263187 -0.05091836805289005 0.0 0.0
0.0 0.10239853488958625 -0.08498373509900285 0.08311892523555248 0.0018648098634504121 -0.04938457735423021 0.0 0.0
0.0 0.10239853488958647 -0.08498373509899497 0.08311892523554416 0.0018648098634507942 0.049384577354288584 0.0 0.0
0.0 0.11612987731182872 -0.09707768204235122 0.09540721230772474 0.0016704697346264048 0.05091836805296261 0.0 0.0
0.0 0.11556514636276943 -0.09686905311327021 0.09536635660278274 0.0015026965104873637 0.04798923492379318 0.0 0.0
0.0 0.10674128543818705 -0.08972248082206784 0.0883554003367693 0.0013670804852984801 0.04235377282887716 0.0 0.0
0.0 0.09403515647691696 -0.07924467842312424 0.07798795855576933 0.0012567198673548727 0.03655082325523243 0.0 0.0
0.0 0.08044664044718236 -0.06766855902248338 0.06650496561324433 0.0011635934092390715 0.03172681769527842 0.0 0.0
0.0 0.06694239369626363 -0.05624305691780298 0.055159028783679856 0.0010840281341231303 0.02776987926029513 0.0 0.0
0.0 0.05433761116416391 -0.04552389941144866 0.04451218507232872 0.0010117143391199011 0.024150194274216746 0.0 0.0
0.0 0.04272773324250159 -0.035672468473051076 0.034732852562588755 0.0009396159104623071 0.02047876264199952 0.0 0.0
0.0 0.03212489489665215 -0.026720110229018955 0.025856112902396085 0.00086399732662285 0.016634229224216417 0.0 0.0
0.0 0.022624556351171266 -0.018731733991540392 0.017948605443751903 0.0007831285477884897 0.012624796330065028 0.0 0.0
0.0 0.014445752544695736 -0.011875291800801954 0.01118578543744875 0.0006895063633532119 0.008653337338711587 0.0 0.0
0.0 0.007942662336530064 -0.006431174600022113 0.005875319086760041 0.000555855513262071 0.005154439291531073 0.0 0.0
0.0 0.003432704456868648 -0.0026996116508568573 0.002352290504485899 0.0003473211463709585 0.00255505238419305 0.0 0.0
0.0 0.000996057847705133 -0.0007364510733724445 0.0006117501414222635 0.00012470093195018065 0.0009209007738045421 0.0 0.0
0.0 0.00017767556940003504 -0.00010145397662721564 8.247678563399081e-05 1.8977190993224753e-05 0.00017615596938890278 0.0 0.0
0.0 2.459325333233777e-05 -8.873822372904784e-06 7.229519574259664e-06 1.644302798645133e-06 2.1443266686033582e-05 0.0 0.0
0.0 2.755655225456854e-06 -6.956507629586006e-07 5.662826400791582e-07 1.2936812287944013e-07 2.4341812568129036e-06 0.0 0.0
0.0 0.0 0.0 0.0 0.0 0.0 0.0 0.0
0.0 0.0 0.0 0.0 0.0 0.0 0.0 0.0
0.0 0.0 0.0 0.0 0.0 0.0 0.0 0.0
0.0 0.0 0.0 0.0 0.0 0.0 0.0 0.0
0.0 9.159772724021529e-07 5.630253744311479e-08 -4.536700834069255e-08 -1.0935529102421052e-08 1.5681455061216043e-07 0.0 0.0
0.0 2.234116894854548e-05 -1.2237092672114226e-05 9.872664105965615e-06 2.3644285661486507e-06 -2.2349822842456622e-05 0.0 0.0
0.0 0.00029252401401767597 -0.00020731133280507794 0.00016865425507062504 3.865707773445286e-05 -0.0002566038737762951 0.0 0.0
0.0 0.001631090776731139 -0.0012956089039150324 0.0010920887081004433 0.0002035201958145898 -0.0011189669269503627 0.0 0.0
0.0 0.004961120855518404 -0.004049958498738224 0.0036039227762554743 0.0004460357224827508 -0.0027457925236608434 0.0 0.0
0.0 0.010466314411974091 -0.008810623755076826 0.008183364898698234 0.0006272588563785897 -0.0053339229242261275 0.0 0.0
0.0 0.018327120103567025 -0.015479933781274635 0.014737401181472237 0.0007425325998024013 -0.008745685325979854 0.0 0.0
0.0 0.02817269161710454 -0.023807250202986057 0.022970723042106043 0.0008365271608800149 -0.01256387446514251 0.0 0.0
0.0 0.03963417574785459 -0.033533761011957194 0.03260951200951401 0.0009242490024431525 -0.016437017651389562 0.0 0.0
0.0 0.05244956377309608 -0.04446498053816797 0.04345675214120542 0.001008228396962504 -0.020149003657777734 0.0 0.0
0.0 0.0665783188210007 -0.05650195885769585 0.05541318258397344 0.0010887762737224168 -0.023700436669092016 0.0 0.0
0.0 0.08177862196136189 -0.06960333393274416 0.06843514440495045 0.0011681895277937417 -0.02717641314136467 0.0 0.0
0.0 0.09813574841949431 -0.08361741822929365 0.08236149722122606 0.0012559210080676127 -0.030810688336443688 0.0 0.0
0.0 0.11498284691878272 -0.09792631189156616 0.09656117920801544 0.001365132683550736 -0.035120588691468856 0.0 0.0
0.0 0.13022803122142224 -0.11096809300208096 0.10946590013043152 0.0015021928716493784 -0.040502641757199385 0.0 0.0
0.0 0.14085988173675845 -0.11986933748016601 0.11820280829143556 0.0016665291887304463 -0.04633597448276818 0.0 0.0
0.0 0.14191995278465816 -0.12034638317455675 0.11850122845242189 0.0018451547221348188 -0.051087946054421046 0.0 0.0
0.0 0.12731001983882387 -0.10680672435192638 0.104783733191277 0.0020229911606493758 -0.05423168509400665 0.0 0.0
0.0 0.12731001983882506 -0.10680672435192021 0.10478373319127099 0.002022991160649167 0.05423168509406491 0.0 0.0
0.0 0.14191995278463537 -0.12034638317452888 0.11850122845239425 0.0018451547221346033 0.051087946054496444 0.0 0.0
0.0 0.1408598817367093 -0.11986933748011777 0.11820280829138749 0.0016665291887302735 0.046335974482821396 0.0 0.0
0.0 0.13022803122135462 -0.11096809300201975 0.10946590013037122 0.001502192871648463 0.040502641757214616 0.0 0.0
0.0 0.11498284691869785 -0.0979263118914925 0.09656117920794188 0.001365132683550584 0.03512058869146001 0.0 0.0
0.0 0.0981357484194036 -0.08361741822921523 0.08236149722114772 0.0012559210080674956 0.030810688336430025 0.0 0.0
0.0 0.08177862196127202 -0.06960333393266672 0.06843514440487357 0.0011681895277931183 0.027176413141343666 0.0 0.0
0.0 0.0665783188209119 -0.05650195885761869 0.055413182583897116 0.0010887762737215102 0.023700436669073524 0.0 0.0
0.0 0.05244956377301294 -0.04446498053809601 0.04345675214113446 0.001008228396961552 0.020149003657755002 0.0 0.0
0.0 0.039634175747777695 -0.03353376101189215 0.03260951200944934 0.000924249002442819 0.016437017651357643 0.0 0.0
0.0 0.028172691617038854 -0.02380725020293086 0.02297072304205132 0.0008365271608795378 0.012563874465111202 0.0 0.0
0.0 0.018327120103515962 -0.015479933781231218 0.014737401181429587 0.0007425325998016289 0.008745685325957622 0.0 0.0
0.0 0.010466314411938502 -0.008810623755046829 0.008183364898668994 0.0006272588563778251 0.00533392292420938 0.0 0.0
0.0 0.004961120855495826 -0.00404995849871991 0.0036039227762382237 0.0004460357224816887 0.0027457925236492333 0.0 0.0
0.0 0.0016310907767201443 -0.001295608903906808 0.0010920887080932038 0.0002035201958136033 0.0011189669269434956 0.0 0.0
0.0 0.00029252401401456214 -0.00020731133280348606 0.00016865425506930857 3.865707773417728e-05 0.00025660387377454566 0.0 0.0
0.0 2.234116894828047e-05 -1.223709267234264e-05 9.872664106146001e-06 2.36442856619662e-06 2.234982284288082e-05 0.0 0.0
0.0 9.159772720464821e-07 5.630253742091469e-08 -4.5367008322703315e-08 -1.0935529098212496e-08 -1.5681455054918204e-07 0.0 0.0
0.0 0.0 0.0 0.0 0.0 0.0 0.0 0.0
0.0 0.0 0.0 0.0 0.0 0.0 0.0 0.0
0.0 0.0 0.0 0.0 0.0 0.0 0.0 0.0
0.0 0.0 0.0 0.0 0.0 0.0 0.0 0.0
0.0 2.633745482838499e-07 1.9034837468267232e-08 -1.5232417022672714e-08 -3.80242044559584e-09 3.959451352121644e-08 0.0 0.0
0.0 2.524365361463443e-05 -1.6854238377351253e-05 1.3517401062466969e-05 3.336837314884301e-06 -2.2674618543795105e-05 0.0 0.0
0.0 0.0005036627742695142 -0.00039415711481643654 0.0003220507198758613 7.210639494057532e-05 -0.000337567882818015 0.0 0.0
0.0 0.0024755026572414428 -0.0020296432227561246 0.0017403515411749141 0.00028929168158121243 -0.001198833668024633 0.0 0.0
0.0 0.006490504448032377 -0.005588859968784043 0.00506380617642564 0.0005250537923584038 -0.002720060102819489 0.0 0.0
0.0 0.013124013000253062 -0.011306936543926564 0.010630652981569254 0.0006762835623573143 -0.005070414172401985 0.0 0.0
0.0 0.022332845109992335 -0.01915244047796219 0.018368376162168205 0.0007840643157939833 -0.008116982861575271 0.0 0.0
0.0 0.03377899527823155 -0.028933201920506572 0.028051135271670965 0.0008820666488356206 -0.011567337885540539 0.0 0.0
0.0 0.047167858761468076 -0.04038670772941101 0.039409776729159324 0.0009769310002516478 -0.015067333949819685 0.0 0.0
0.0 0.06222747593965529 -0.05329719713004732 0.052227480290210335 0.00106971683983695 -0.01842821950022857 0.0 0.0
0.0 0.07877566086140494 -0.06752490243198775 0.06636515507198816 0.0011597473599995406 -0.021670201210601134 0.0 0.0
0.0 0.0967422571571561 -0.08297334750564857 0.08172483385112858 0.0012485136545199464 -0.02479514976054097 0.0 0.0
0.0 0.1158777841505719 -0.0994590650982221 0.09811554916849916 0.0013435159297229319 -0.027822078930374694 0.0 0.0
0.0 0.13525988611987944 -0.11633993516232537 0.11487667962140288 0.0014632555409224786 -0.031055592254958353 0.0 0.0
0.0 0.15332958104822636 -0.1318580551747282 0.1302348571703862 0.0016231980043419788 -0.035271673382225636 0.0 0.0
0.0 0.16608773954401457 -0.1426352690679564 0.14082342111543292 0.0018118479525234417 -0.04116412679873773 0.0 0.0
0.0 0.16804693468131005 -0.1437707603850286 0.14176398968790177 0.0020067706971267406 -0.048831356490495935 0.0 0.0
0.0 0.1528882561931692 -0.12924597839734392 0.12706554596157987 0.0021804324357639192 -0.05862952815992898 0.0 0.0
0.0 0.1528882561931647 -0.12924597839733323 0.12706554596156977 0.0021804324357635155 0.05862952815998518 0.0 0.0
0.0 0.1680469346812778 -0.14377076038499417 0.14176398968786832 0.0020067706971258654 0.04883135649056414 0.0 0.0
0.0 0.16608773954395395 -0.14263526906789978 0.14082342111537738 0.0018118479525222773 0.04116412679878361 0.0 0.0
0.0 0.15332958104814504 -0.13185805517465612 0.13023485717031516 0.001623198004340951 0.03527167338223649 0.0 0.0
0.0 0.13525988611978307 -0.11633993516224103 0.11487667962132009 0.0014632555409208523 0.031055592254952313 0.0 0.0
0.0 0.11587778415046882 -0.09945906509813243 0.0981155491684107 0.0013435159297216677 0.02782207893036345 0.0 0.0
0.0 0.09674225715704832 -0.08297334750555561 0.08172483385103606 0.001248513654519505 0.02479514976052319 0.0 0.0
0.0 0.07877566086129703 -0.06752490243189455 0.0663651550718952 0.001159747359999334 0.021670201210582586 0.0 0.0
0.0 0.06222747593955136 -0.05329719712995775 0.052227480290120865 0.001069716839836916 0.018428219500205033 0.0 0.0
0.0 0.04716785876137618 -0.04038670772933228 0.039409776729080914 0.000976931000251377 0.015067333949788965 0.0 0.0
0.0 0.03377899527815561 -0.028933201920441524 0.02805113527160653 0.0008820666488349873 0.011567337885512072 0.0 0.0
0.0 0.022332845109933185 -0.019152440477911342 0.018368376162117284 0.0007840643157940592 0.008116982861556194 0.0 0.0
0.0 0.013124013000210773 -0.011306936543890101 0.010630652981533364 0.0006762835623567369 0.005070414172386394 0.0 0.0
0.0 0.006490504448004393 -0.005588859968760223 0.005063806176402735 0.0005250537923574864 0.002720060102808437 0.0 0.0
0.0 0.00247550265722695 -0.002029643222744784 0.0017403515411646365 0.00028929168158014747 0.0011988336680183005 0.0 0.0
0.0 0.0005036627742646302 -0.00039415711481331295 0.00032205071987321274 7.210639494010009e-05 0.00033756788281554277 0.0 0.0
0.0 2.5243653613835122e-05 -1.6854238377332005e-05 1.3517401062437053e-05 3.336837314894957e-06 2.2674618543742505e-05 0.0 0.0
0.0 2.633745479801639e-07 1.90348374459991e-08 -1.5232417004860948e-08 -3.802420441135515e-09 -3.959451347502403e-08 0.0 0.0
0.0 0.0 0.0 0.0 0.0 0.0 0.0 0.0
0.0 0.0 0.0 0.0 0.0 0.0 0.0 0.0
0.0 0.0 0.0 0.0 0.0 0.0 0.0 0.0
0.0 0.0 0.0 0.0 0.0 0.0 0.0 0.0
0.0 0.0 0.0 0.0 0.0 0.0 0.0 0.0
0.0 3.9500633723783124e-05 -3.0170288282024206e-05 2.4206251976431408e-05 5.964036305592799e-06 -2.8411686968840604e-05 0.0 0.0
0.0 0.000851399985376612 -0.0006931291241683078 0.0005708087343595774 0.00012232038980873028 -0.0003829046908932864 0.0 0.0
0.0 0.0034548313075724465 -0.002927191301144787 0.0025531647308203666 0.0003740265703244211 -0.001137935624153481 0.0 0.0
0.0 0.008236568124560278 -0.00723968353873412 0.006655242616092401 0.0005844409226417177 -0.0023876416397520983 0.0 0.0
0.0 0.015915247527771192 -0.013856536032051735 0.01314421916125547 0.000712316870796264 -0.0042906157056664665 0.0 0.0
0.0 0.026383768566118182 -0.02285118234275606 0.022032907991594443 0.0008182743511616044 -0.0067945749790508615 0.0 0.0
0.0 0.039420250008442397 -0.03406264880921241 0.03314131910253308 0.0009213297066793201 -0.009645798346601122 0.0 0.0
0.0 0.054742425735060364 -0.04723189561088756 0.046208134289999786 0.0010237613208877562 -0.012543901960535658 0.0 0.0
0.0 0.07198557403773853 -0.06212247880683071 0.060997224483030084 0.0011252543238006222 -0.015323548091731656 0.0 0.0
0.0 0.09110371733893202 -0.07854507111449428 0.07731919249163591 0.0012258786228583555 -0.01802035131248284 0.0 0.0
0.0 0.11154356336196397 -0.09631563460990862 0.09498921537872607 0.0013264192311825491 -0.020635344651929212 0.0 0.0
0.0 0.13322044829438787 -0.11513138444690216 0.11370059870772956 0.0014307857391725794 -0.022937006209679967 0.0 0.0
0.0 0.1553333698754951 -0.13430556081533096 0.13275183416771766 0.0015537266476131652 -0.024744481877913522 0.0 0.0
0.0 0.17593332571635759 -0.15215004077336602 0.15043081860105817 0.0017192221723078514 -0.026991059032515002 0.0 0.0
0.0 0.19111149338753947 -0.16513435502926122 0.16319576268234737 0.0019385923469137723 -0.03239276575353749 0.0 0.0
0.0 0.19471439355737752 -0.1676298791354101 0.1654701309134168 0.0021597482219933633 -0.043666637428129124 0.0 0.0
0.0 0.1798808944722087 -0.15279519235847874 0.15044509466866476 0.002350097689813981 -0.062239287414365366 0.0 0.0
0.0 0.17988089447219946 -0.15279519235846611 0.15044509466865227 0.0023500976898138126 0.06223928741440923 0.0 0.0
0.0 0.19471439355733397 -0.1676298791353688 0.16547013091337495 0.0021597482219938907 0.04366663742818677 0.0 0.0
0.0 0.1911114933874631 -0.16513435502919335 0.16319576268227853 0.0019385923469148012 0.03239276575357747 0.0 0.0
0.0 0.1759333257162582 -0.1521500407732796 0.15043081860097177 0.0017192221723078883 0.02699105903252262 0.0 0.0
0.0 0.15533336987538163 -0.13430556081523262 0.13275183416761976 0.0015537266476127964 0.024744481877909306 0.0 0.0
0.0 0.13322044829427157 -0.11513138444680107 0.11370059870762934 0.0014307857391717789 0.02293700620967328 0.0 0.0
0.0 0.11154356336184325 -0.09631563460980423 0.09498921537862197 0.0013264192311822696 0.02063534465191627 0.0 0.0
0.0 0.09110371733880987 -0.07854507111438873 0.07731919249153038 0.0012258786228583922 0.018020351312467625 0.0 0.0
0.0 0.07198557403762545 -0.06212247880673291 0.06099722448293281 0.0011252543238000686 0.01532354809171563 0.0 0.0
0.0 0.05474242573495797 -0.0472318956107989 0.04620813428991167 0.0010237613208872011 0.012543901960511108 0.0 0.0
0.0 0.03942025000835711 -0.034062648809138396 0.03314131910246006 0.0009213297066783422 0.009645798346577385 0.0 0.0
0.0 0.026383768566051007 -0.022851182342697444 0.02203290799153678 0.0008182743511606758 0.006794574979034521 0.0 0.0
0.0 0.015915247527721117 -0.013856536032008048 0.0131442191612124 0.0007123168707956519 0.004290615705652931 0.0 0.0
0.0 0.008236568124526727 -0.0072396835387048344 0.006655242616063881 0.0005844409226409561 0.0023876416397424294 0.0 0.0
0.0 0.00345483130755564 -0.0029271913011307093 0.002553164730807489 0.00037402657032322036 0.001137935624147931 0.0 0.0
0.0 0.0008513999853704904 -0.0006931291241638563 0.0005708087343558035 0.00012232038980805268 0.0003829046908910458 0.0 0.0
0.0 3.9500633723211465e-05 -3.017028828226119e-05 2.420625197660043e-05 5.964036305660785e-06 2.841168696900683e-05 0.0 0.0
0.0 0.0 0.0 0.0 0.0 0.0 0.0 0.0
0.0 0.0 0.0 0.0 0.0 0.0 0.0 0.0
0.0 0.0 0.0 0.0 0.0 0.0 0.0 0.0
0.0 0.0 0.0 0.0 0.0 0.0 0.0 0.0
0.0 0.0 0.0 0.0 0.0 0.0 0.0 0.0
0.0 0.0 0.0 0.0 0.0 0.0 0.0 0.0
0.0 8.625660578008782e-05 -6.996012602216331e-05 5.604223976870922e-05 1.3917886253454112e-05 -3.9984645930965184e-05 0.0 0.0
0.0 0.001362730831886458 -0.0011198865157363042 0.0009338787575123493 0.00018600775822395467 -0.0003539233671445423 0.0 0.0
0.0 0.004410900344958931 -0.003962786371871054 0.0035120553370401957 0.00045073103483085815 -0.0008848263065263299 0.0 0.0
0.0 0.010125596803889822 -0.008949650341296396 0.008323570266304212 0.0006260800749921891 -0.0017363069175378191 0.0 0.0
0.0 0.01875531096896378 -0.01642715170923014 0.015686214883010988 0.0007409368262191658 -0.0030359344837623224 0.0 0.0
0.0 0.0304538414519456 -0.02653371580245393 0.025687352896486104 0.0008463629059678088 -0.004783053106962922 0.0 0.0
0.0 0.04506074102044787 -0.0391513825353395 0.03819622127066599 0.0009551612646734812 -0.006802169521827842 0.0 0.0
0.0 0.06228973654482497 -0.054025736061648656 0.05296023455974747 0.0010655015019011532 -0.008858186038374865 0.0 0.0
0.0 0.08188007061293015 -0.07089386761191915 0.06971784663736842 0.0011760209745507399 -0.010830839151499122 0.0 0.0
0.0 0.10325809114504164 -0.08951436751513167 0.0882267950150793 0.0012875725000523986 -0.012772609958949152 0.0 0.0
0.0 0.12636783257764214 -0.10958302205231808 0.10818155104740243 0.001401471004915593 -0.014632855450497447 0.0 0.0
0.0 0.15063709617463128 -0.1306179196496265 0.1290986889418423 0.0015192307077841862 -0.016116024855605423 0.0 0.0
0.0 0.17502147344283187 -0.15179132894369846 0.15014635470953214 0.001644974234166347 -0.01674215680072105 0.0 0.0
0.0 0.19779284476390527 -0.171582513895345 0.16978610581688391 0.0017964080784612525 -0.01674634862518021 0.0 0.0
0.0 0.21563178464061492 -0.18698892276621523 0.18498123061929303 0.0020076921469221777 -0.019673609978498534 0.0 0.0
0.0 0.222264384547257 -0.19217184909582066 0.1898518311645525 0.002320017931267924 -0.03384916162709825 0.0 0.0
0.0 0.20893197483128706 -0.1781882696294603 0.17563974353005896 0.0025485260994011568 -0.06422533963461945 0.0 0.0
0.0 0.20893197483127168 -0.17818826962944456 0.17563974353004247 0.002548526099401957 0.06422533963465174 0.0 0.0
0.0 0.2222643845471999 -0.1921718490957695 0.18985183116450038 0.002320017931269054 0.03384916162714498 0.0 0.0
0.0 0.2156317846405226 -0.18698892276613452 0.18498123061921265 0.0020076921469219422 0.019673609978526463 0.0 0.0
0.0 0.19779284476379483 -0.1715825138952485 0.16978610581678896 0.0017964080784595184 0.016746348625184294 0.0 0.0
0.0 0.17502147344270189 -0.15179132894358585 0.15014635470941995 0.0016449742341659082 0.016742156800715842 0.0 0.0
0.0 0.15063709617449558 -0.13061791964950897 0.1290986889417248 0.0015192307077842265 0.016116024855602894 0.0 0.0
0.0 0.12636783257750836 -0.10958302205220193 0.10818155104728724 0.0014014710049146794 0.014632855450491682 0.0 0.0
0.0 0.1032580911449118 -0.08951436751501861 0.08822679501496769 0.0012875725000509315 0.012772609958941361 0.0 0.0
0.0 0.08188007061280436 -0.07089386761180952 0.06971784663725981 0.0011760209745497233 0.010830839151490749 0.0 0.0
0.0 0.06228973654471121 -0.05402573606155009 0.052960234559649655 0.0010655015019004038 0.008858186038356575 0.0 0.0
0.0 0.04506074102035215 -0.03915138253525638 0.03819622127058351 0.0009551612646728665 0.0068021695218101605 0.0 0.0
0.0 0.030453841451873086 -0.02653371580239026 0.02568735289642316 0.0008463629059670993 0.0047830531069530035 0.0 0.0
0.0 0.018755310968909925 -0.016427151709182637 0.015686214882964435 0.0007409368262181916 0.0030359344837540716 0.0 0.0
0.0 0.010125596803854166 -0.008949650341264763 0.008323570266273334 0.0006260800749914286 0.0017363069175311443 0.0 0.0
0.0 0.004410900344941246 -0.003962786371855284 0.0035120553370254297 0.00045073103482985385 0.0008848263065225871 0.0 0.0
0.0 0.0013627308318783019 -0.001119886515729948 0.0009338787575068602 0.00018600775822308785 0.0003539233671428068 0.0 0.0
0.0 8.625660577840648e-05 -6.996012602153719e-05 5.604223976817585e-05 1.3917886253361286e-05 3.998464593060157e-05 0.0 0.0
0.0 0.0 0.0 0.0 0.0 0.0 0.0 0.0
0.0 0.0 0.0 0.0 0.0 0.0 0.0 0.0
0.0 0.0 0.0 0.0 0.0 0.0 0.0 0.0
0.0 0.0 0.0 0.0 0.0 0.0 0.0 0.0
0.0 0.0 0.0 0.0 0.0 0.0 0.0 0.0
0.0 0.0 0.0 0.0 0.0 0.0 0.0 0.0
0.0 0.00021110371404408571 -0.0001827034807930103 0.0001461709400991634 3.653254069384699e-05 -4.397695067454249e-05 0.0 0.0
0.0 0.002041222651582545 -0.001666676610407287 0.001408657054108863 0.0002580195562984231 -0.00020677740945215057 0.0 0.0
0.0 0.005640592455577964 -0.005067828435853995 0.004555831226031956 0.0005119972098220388 -0.00041615890589877225 0.0 0.0
0.0 0.012077410087590935 -0.010693651425649243 0.010035836158719301 0.0006578152669299415 -0.0007634936309154202 0.0 0.0
0.0 0.021635696545764343 -0.01898183768028256 0.01821843756499766 0.0007634001152848986 -0.0013100309254315962 0.0 0.0
0.0 0.03453829585080367 -0.030157554167089484 0.02928783890024489 0.0008697152668445719 -0.002090905970154968 0.0 0.0
0.0 0.05072373387988942 -0.04415413487074972 0.04317008733814545 0.0009840475326042867 -0.0030314221828470667 0.0 0.0
0.0 0.06993249031454207 -0.06072545778158737 0.05962290818226554 0.0011025495993218404 -0.004007149970160641 0.0 0.0
0.0 0.09153304604327502 -0.07957274722566546 0.0783498909439798 0.0012228562816856193 -0.0049597088075583 0.0 0.0
0.0 0.11545892982778545 -0.10037191580194052 0.0990266846175702 0.0013452311843703273 -0.005886504345776643 0.0 0.0
0.0 0.14122639898752365 -0.12270940852405335 0.12123731782771732 0.0014720906963360128 -0.0067215447224261374 0.0 0.0
0.0 0.16799911009654703 -0.14592345320471467 0.1443185358158684 0.0016049173888463156 -0.00728201128187083 0.0 0.0
0.0 0.19455892917528256 -0.1689412664859453 0.16719905516567862 0.0017422113202665958 -0.00718816467872137 0.0 0.0
0.0 0.2190513614078967 -0.19018255535723025 0.18830058685322654 0.0018819685040037653 -0.0060524347648278545 0.0 0.0
0.0 0.2388303750659847 -0.20735772686603796 0.20531669958886417 0.0020410272771735844 -0.005236752949397843 0.0 0.0
0.0 0.24954344247296778 -0.2164178591329361 0.2141262948200599 0.0022915643128760847 -0.014976928605965858 0.0 0.0
0.0 0.24183337436663116 -0.2074082897922208 0.20448034786816505 0.0029279419240556986 -0.05926701948541774 0.0 0.0
0.0 0.24183337436661612 -0.20740828979220624 0.20448034786815147 0.002927941924054516 0.05926701948543171 0.0 0.0
0.0 0.2495434424729086 -0.21641785913288353 0.21412629482000914 0.0022915643128741947 0.014976928605988465 0.0 0.0
0.0 0.23883037506588045 -0.20735772686594756 0.2053166995887742 0.002041027277173252 0.0052367529494106 0.0 0.0
0.0 0.2190513614077703 -0.19018255535712064 0.1883005868531176 0.0018819685040030684 0.006052434764825826 0.0 0.0
0.0 0.19455892917514542 -0.16894126648582605 0.16719905516556055 0.0017422113202653282 0.007188164678717636 0.0 0.0
0.0 0.16799911009640595 -0.14592345320459157 0.14431853581574722 0.0016049173888442185 0.00728201128187141 0.0 0.0
0.0 0.1412263989873791 -0.12270940852392781 0.12123731782759278 0.00147209069633493 0.0067215447224224165 0.0 0.0
0.0 0.11545892982763718 -0.10037191580181229 0.09902668461744199 0.0013452311843702588 0.005886504345771284 0.0 0.0
0.0 0.091533046043131 -0.07957274722554088 0.07834989094385542 0.0012228562816854343 0.004959708807554422 0.0 0.0
0.0 0.06993249031441676 -0.06072545778147873 0.05962290818215729 0.0011025495993214295 0.004007149970150731 0.0 0.0
0.0 0.05072373387978551 -0.044154134870659736 0.043170087338056 0.0009840475326037459 0.0030314221828382166 0.0 0.0
0.0 0.034538295850721115 -0.03015755416701739 0.029287838900173245 0.0008697152668441363 0.0020909059701504536 0.0 0.0
0.0 0.021635696545705928 -0.018981837680231022 0.018218437564946666 0.0007634001152843396 0.0013100309254273422 0.0 0.0
0.0 0.012077410087550866 -0.010693651425613678 0.010035836158684452 0.0006578152669292285 0.0007634936309131243 0.0 0.0
0.0 0.005640592455554684 -0.005067828435832945 0.0045558312260117525 0.0005119972098211916 0.00041615890589701986 0.0 0.0
0.0 0.002041222651571331 -0.0016666766103982037 0.001408657054100848 0.0002580195562973568 0.00020677740945149731 0.0 0.0
0.0 0.0002111037140414955 -0.00018270348079133002 0.00014617094009776587 3.6532540693564115e-05 4.397695067407184e-05 0.0 0.0
0.0 0.0 0.0 0.0 0.0 0.0 0.0 0.0
0.0 0.0 0.0 0.0 0.0 0.0 0.0 0.0
0.0 0.0 0.0 0.0 0.0 0.0 0.0 0.0