# vtk DataFile Version 3.0
Some data
ASCII
DATASET UNSTRUCTURED_GRID
POINTS 861 float
0.0 0.0 0.0
0.4 0.0 0.0
0.8 0.0 0.0
1.2000000000000002 0.0 0.0
1.6 0.0 0.0
2.0 0.0 0.0
2.4000000000000004 0.0 0.0
2.8000000000000003 0.0 0.0
3.2 0.0 0.0
3.6 0.0 0.0
4.0 0.0 0.0
4.4 0.0 0.0
4.800000000000001 0.0 0.0
5.2 0.0 0.0
5.6000000000000005 0.0 0.0
6.0 0.0 0.0
6.4 0.0 0.0
6.800000000000001 0.0 0.0
7.2 0.0 0.0
7.6000000000000005 0.0 0.0
8.0 0.0 0.0
8.4 0.0 0.0
8.8 0.0 0.0
9.200000000000001 0.0 0.0
9.600000000000001 0.0 0.0
10.0 0.0 0.0
10.4 0.0 0.0
10.8 0.0 0.0
11.200000000000001 0.0 0.0
11.600000000000001 0.0 0.0
12.0 0.0 0.0
12.4 0.0 0.0
12.8 0.0 0.0
13.200000000000001 0.0 0.0
13.600000000000001 0.0 0.0
14.0 0.0 0.0
14.4 0.0 0.0
14.8 0.0 0.0
15.200000000000001 0.0 0.0
15.600000000000001 0.0 0.0
16.0 0.0 0.0
0.0 0.1 0.0
0.4 0.1 0.0
0.8 0.1 0.0
1.2000000000000002 0.1 0.0
1.6 0.1 0.0
2.0 0.1 0.0
2.4000000000000004 0.1 0.0
2.8000000000000003 0.1 0.0
3.2 0.1 0.0
3.6 0.1 0.0
4.0 0.1 0.0
4.4 0.1 0.0
4.800000000000001 0.1 0.0
5.2 0.1 0.0
5.6000000000000005 0.1 0.0
6.0 0.1 0.0
6.4 0.1 0.0
6.800000000000001 0.1 0.0
7.2 0.1 0.0
7.6000000000000005 0.1 0.0
8.0 0.1 0.0
8.4 0.1 0.0
8.8 0.1 0.0
9.200000000000001 0.1 0.0
9.600000000000001 0.1 0.0
10.0 0.1 0.0
10.4 0.1 0.0
10.8 0.1 0.0
11.200000000000001 0.1 0.0
11.600000000000001 0.1 0.0
12.0 0.1 0.0
12.4 0.1 0.0
12.8 0.1 0.0
13.200000000000001 0.1 0.0
13.600000000000001 0.1 0.0
14.0 0.1 0.0
14.4 0.1 0.0
14.8 0.1 0.0
15.200000000000001 0.1 0.0
15.600000000000001 0.1 0.0
16.0 0.1 0.0
0.0 0.2 0.0
0.4 0.2 0.0
0.8 0.2 0.0
1.2000000000000002 0.2 0.0
1.6 0.2 0.0
2.0 0.2 0.0
2.4000000000000004 0.2 0.0
2.8000000000000003 0.2 0.0
3.2 0.2 0.0
3.6 0.2 0.0
4.0 0.2 0.0
4.4 0.2 0.0
4.800000000000001 0.2 0.0
5.2 0.2 0.0
5.6000000000000005 0.2 0.0
6.0 0.2 0.0
6.4 0.2 0.0
6.800000000000001 0.2 0.0
7.2 0.2 0.0
7.6000000000000005 0.2 0.0
8.0 0.2 0.0
8.4 0.2 0.0
8.8 0.2 0.0
9.200000000000001 0.2 0.0
9.600000000000001 0.2 0.0
10.0 0.2 0.0
10.4 0.2 0.0
10.8 0.2 0.0
11.200000000000001 0.2 0.0
11.600000000000001 0.2 0.0
12.0 0.2 0.0
12.4 0.2 0.0
12.8 0.2 0.0
13.200000000000001 0.2 0.0
13.600000000000001 0.2 0.0
14.0 0.2 0.0
14.4 0.2 0.0
14.8 0.2 0.0
15.200000000000001 0.2 0.0
15.600000000000001 0.2 0.0
16.0 0.2 0.0
0.0 0.30000000000000004 0.0
0.4 0.30000000000000004 0.0
0.8 0.30000000000000004 0.0
1.2000000000000002 0.30000000000000004 0.0
1.6 0.30000000000000004 0.0
2.0 0.30000000000000004 0.0
2.4000000000000004 0.30000000000000004 0.0
2.8000000000000003 0.30000000000000004 0.0
3.2 0.30000000000000004 0.0
3.6 0.30000000000000004 0.0
4.0 0.30000000000000004 0.0
4.4 0.30000000000000004 0.0
4.800000000000001 0.30000000000000004 0.0
5.2 0.30000000000000004 0.0
5.6000000000000005 0.30000000000000004 0.0
6.0 0.30000000000000004 0.0
6.4 0.30000000000000004 0.0
6.800000000000001 0.30000000000000004 0.0
7.2 0.30000000000000004 0.0
7.6000000000000005 0.30000000000000004 0.0
8.0 0.30000000000000004 0.0
8.4 0.30000000000000004 0.0
8.8 0.30000000000000004 0.0
9.200000000000001 0.30000000000000004 0.0
9.600000000000001 0.30000000000000004 0.0
10.0 0.30000000000000004 0.0
10.4 0.30000000000000004 0.0
10.8 0.30000000000000004 0.0
11.200000000000001 0.30000000000000004 0.0
11.600000000000001 0.30000000000000004 0.0
12.0 0.30000000000000004 0.0
12.4 0.30000000000000004 0.0
12.8 0.30000000000000004 0.0
13.200000000000001 0.30000000000000004 0.0
13.600000000000001 0.30000000000000004 0.0
14.0 0.30000000000000004 0.0
14.4 0.30000000000000004 0.0
14.8 0.30000000000000004 0.0
15.200000000000001 0.30000000000000004 0.0
15.600000000000001 0.30000000000000004 0.0
16.0 0.30000000000000004 0.0
0.0 0.4 0.0
0.4 0.4 0.0
0.8 0.4 0.0
1.2000000000000002 0.4 0.0
1.6 0.4 0.0
2.0 0.4 0.0
2.4000000000000004 0.4 0.0
2.8000000000000003 0.4 0.0
3.2 0.4 0.0
3.6 0.4 0.0
4.0 0.4 0.0
4.4 0.4 0.0
4.800000000000001 0.4 0.0
5.2 0.4 0.0
5.6000000000000005 0.4 0.0
6.0 0.4 0.0
6.4 0.4 0.0
6.800000000000001 0.4 0.0
7.2 0.4 0.0
7.6000000000000005 0.4 0.0
8.0 0.4 0.0
8.4 0.4 0.0
8.8 0.4 0.0
9.200000000000001 0.4 0.0
9.600000000000001 0.4 0.0
10.0 0.4 0.0
10.4 0.4 0.0
10.8 0.4 0.0
11.200000000000001 0.4 0.0
11.600000000000001 0.4 0.0
12.0 0.4 0.0
12.4 0.4 0.0
12.8 0.4 0.0
13.200000000000001 0.4 0.0
13.600000000000001 0.4 0.0
14.0 0.4 0.0
14.4 0.4 0.0
14.8 0.4 0.0
15.200000000000001 0.4 0.0
15.600000000000001 0.4 0.0
16.0 0.4 0.0
0.0 0.5 0.0
0.4 0.5 0.0
0.8 0.5 0.0
1.2000000000000002 0.5 0.0
1.6 0.5 0.0
2.0 0.5 0.0
2.4000000000000004 0.5 0.0
2.8000000000000003 0.5 0.0
3.2 0.5 0.0
3.6 0.5 0.0
4.0 0.5 0.0
4.4 0.5 0.0
4.800000000000001 0.5 0.0
5.2 0.5 0.0
5.6000000000000005 0.5 0.0
6.0 0.5 0.0
6.4 0.5 0.0
6.800000000000001 0.5 0.0
7.2 0.5 0.0
7.6000000000000005 0.5 0.0
8.0 0.5 0.0
8.4 0.5 0.0
8.8 0.5 0.0
9.200000000000001 0.5 0.0
9.600000000000001 0.5 0.0
10.0 0.5 0.0
10.4 0.5 0.0
10.8 0.5 0.0
11.200000000000001 0.5 0.0
11.600000000000001 0.5 0.0
12.0 0.5 0.0
12.4 0.5 0.0
12.8 0.5 0.0
13.200000000000001 0.5 0.0
13.600000000000001 0.5 0.0
14.0 0.5 0.0
14.4 0.5 0.0
14.8 0.5 0.0
15.200000000000001 0.5 0.0
15.600000000000001 0.5 0.0
16.0 0.5 0.0
0.0 0.6000000000000001 0.0
0.4 0.6000000000000001 0.0
0.8 0.6000000000000001 0.0
1.2000000000000002 0.6000000000000001 0.0
1.6 0.6000000000000001 0.0
2.0 0.6000000000000001 0.0
2.4000000000000004 0.6000000000000001 0.0
2.8000000000000003 0.6000000000000001 0.0
3.2 0.6000000000000001 0.0
3.6 0.6000000000000001 0.0
4.0 0.6000000000000001 0.0
4.4 0.6000000000000001 0.0
4.800000000000001 0.6000000000000001 0.0
5.2 0.6000000000000001 0.0
5.6000000000000005 0.6000000000000001 0.0
6.0 0.6000000000000001 0.0
6.4 0.6000000000000001 0.0
6.800000000000001 0.6000000000000001 0.0
7.2 0.6000000000000001 0.0
7.6000000000000005 0.6000000000000001 0.0
8.0 0.6000000000000001 0.0
8.4 0.6000000000000001 0.0
8.8 0.6000000000000001 0.0
9.200000000000001 0.6000000000000001 0.0
9.600000000000001 0.6000000000000001 0.0
10.0 0.6000000000000001 0.0
10.4 0.6000000000000001 0.0
10.8 0.6000000000000001 0.0
11.200000000000001 0.6000000000000001 0.0
11.600000000000001 0.6000000000000001 0.0
12.0 0.6000000000000001 0.0
12.4 0.6000000000000001 0.0
12.8 0.6000000000000001 0.0
13.200000000000001 0.6000000000000001 0.0
13.600000000000001 0.6000000000000001 0.0
14.0 0.6000000000000001 0.0
14.4 0.6000000000000001 0.0
14.8 0.6000000000000001 0.0
15.200000000000001 0.6000000000000001 0.0
15.600000000000001 0.6000000000000001 0.0
16.0 0.6000000000000001 0.0
0.0 0.7000000000000001 0.0
0.4 0.7000000000000001 0.0
0.8 0.7000000000000001 0.0
1.2000000000000002 0.7000000000000001 0.0
1.6 0.7000000000000001 0.0
2.0 0.7000000000000001 0.0
2.4000000000000004 0.7000000000000001 0.0
2.8000000000000003 0.7000000000000001 0.0
3.2 0.7000000000000001 0.0
3.6 0.7000000000000001 0.0
4.0 0.7000000000000001 0.0
4.4 0.7000000000000001 0.0
4.800000000000001 0.7000000000000001 0.0
5.2 0.7000000000000001 0.0
5.6000000000000005 0.7000000000000001 0.0
6.0 0.7000000000000001 0.0
6.4 0.7000000000000001 0.0
6.800000000000001 0.7000000000000001 0.0
7.2 0.7000000000000001 0.0
7.6000000000000005 0.7000000000000001 0.0
8.0 0.7000000000000001 0.0
8.4 0.7000000000000001 0.0
8.8 0.7000000000000001 0.0
9.200000000000001 0.7000000000000001 0.0
9.600000000000001 0.7000000000000001 0.0
10.0 0.7000000000000001 0.0
10.4 0.7000000000000001 0.0
10.8 0.7000000000000001 0.0
11.200000000000001 0.7000000000000001 0.0
11.600000000000001 0.7000000000000001 0.0
12.0 0.7000000000000001 0.0
12.4 0.7000000000000001 0.0
12.8 0.7000000000000001 0.0
13.200000000000001 0.7000000000000001 0.0
13.600000000000001 0.7000000000000001 0.0
14.0 0.7000000000000001 0.0
14.4 0.7000000000000001 0.0
14.8 0.7000000000000001 0.0
15.200000000000001 0.7000000000000001 0.0
15.600000000000001 0.7000000000000001 0.0
16.0 0.7000000000000001 0.0
0.0 0.8 0.0
0.4 0.8 0.0
0.8 0.8 0.0
1.2000000000000002 0.8 0.0
1.6 0.8 0.0
2.0 0.8 0.0
2.4000000000000004 0.8 0.0
2.8000000000000003 0.8 0.0
3.2 0.8 0.0
3.6 0.8 0.0
4.0 0.8 0.0
4.4 0.8 0.0
4.800000000000001 0.8 0.0
5.2 0.8 0.0
5.6000000000000005 0.8 0.0
6.0 0.8 0.0
6.4 0.8 0.0
6.800000000000001 0.8 0.0
7.2 0.8 0.0
7.6000000000000005 0.8 0.0
8.0 0.8 0.0
8.4 0.8 0.0
8.8 0.8 0.0
9.200000000000001 0.8 0.0
9.600000000000001 0.8 0.0
10.0 0.8 0.0
10.4 0.8 0.0
10.8 0.8 0.0
11.200000000000001 0.8 0.0
11.600000000000001 0.8 0.0
12.0 0.8 0.0
12.4 0.8 0.0
12.8 0.8 0.0
13.200000000000001 0.8 0.0
13.600000000000001 0.8 0.0
14.0 0.8 0.0
14.4 0.8 0.0
14.8 0.8 0.0
15.200000000000001 0.8 0.0
15.600000000000001 0.8 0.0
16.0 0.8 0.0
0.0 0.9 0.0
0.4 0.9 0.0
0.8 0.9 0.0
1.2000000000000002 0.9 0.0
1.6 0.9 0.0
2.0 0.9 0.0
2.4000000000000004 0.9 0.0
2.8000000000000003 0.9 0.0
3.2 0.9 0.0
3.6 0.9 0.0
4.0 0.9 0.0
4.4 0.9 0.0
4.800000000000001 0.9 0.0
5.2 0.9 0.0
5.6000000000000005 0.9 0.0
6.0 0.9 0.0
6.4 0.9 0.0
6.800000000000001 0.9 0.0
7.2 0.9 0.0
7.6000000000000005 0.9 0.0
8.0 0.9 0.0
8.4 0.9 0.0
8.8 0.9 0.0
9.200000000000001 0.9 0.0
9.600000000000001 0.9 0.0
10.0 0.9 0.0
10.4 0.9 0.0
10.8 0.9 0.0
11.200000000000001 0.9 0.0
11.600000000000001 0.9 0.0
12.0 0.9 0.0
12.4 0.9 0.0
12.8 0.9 0.0
13.200000000000001 0.9 0.0
13.600000000000001 0.9 0.0
14.0 0.9 0.0
14.4 0.9 0.0
14.8 0.9 0.0
15.200000000000001 0.9 0.0
15.600000000000001 0.9 0.0
16.0 0.9 0.0
0.0 1.0 0.0
0.4 1.0 0.0
0.8 1.0 0.0
1.2000000000000002 1.0 0.0
1.6 1.0 0.0
2.0 1.0 0.0
2.4000000000000004 1.0 0.0
2.8000000000000003 1.0 0.0
3.2 1.0 0.0
3.6 1.0 0.0
4.0 1.0 0.0
4.4 1.0 0.0
4.800000000000001 1.0 0.0
5.2 1.0 0.0
5.6000000000000005 1.0 0.0
6.0 1.0 0.0
6.4 1.0 0.0
6.800000000000001 1.0 0.0
7.2 1.0 0.0
7.6000000000000005 1.0 0.0
8.0 1.0 0.0
8.4 1.0 0.0
8.8 1.0 0.0
9.200000000000001 1.0 0.0
9.600000000000001 1.0 0.0
10.0 1.0 0.0
10.4 1.0 0.0
10.8 1.0 0.0
11.200000000000001 1.0 0.0
11.600000000000001 1.0 0.0
12.0 1.0 0.0
12.4 1.0 0.0
12.8 1.0 0.0
13.200000000000001 1.0 0.0
13.600000000000001 1.0 0.0
14.0 1.0 0.0
14.4 1.0 0.0
14.8 1.0 0.0
15.200000000000001 1.0 0.0
15.600000000000001 1.0 0.0
16.0 1.0 0.0
0.0 1.1 0.0
0.4 1.1 0.0
0.8 1.1 0.0
1.2000000000000002 1.1 0.0
1.6 1.1 0.0
2.0 1.1 0.0
2.4000000000000004 1.1 0.0
2.8000000000000003 1.1 0.0
3.2 1.1 0.0
3.6 1.1 0.0
4.0 1.1 0.0
4.4 1.1 0.0
4.800000000000001 1.1 0.0
5.2 1.1 0.0
5.6000000000000005 1.1 0.0
6.0 1.1 0.0
6.4 1.1 0.0
6.800000000000001 1.1 0.0
7.2 1.1 0.0
7.6000000000000005 1.1 0.0
8.0 1.1 0.0
8.4 1.1 0.0
8.8 1.1 0.0
9.200000000000001 1.1 0.0
9.600000000000001 1.1 0.0
10.0 1.1 0.0
10.4 1.1 0.0
10.8 1.1 0.0
11.200000000000001 1.1 0.0
11.600000000000001 1.1 0.0
12.0 1.1 0.0
12.4 1.1 0.0
12.8 1.1 0.0
13.200000000000001 1.1 0.0
13.600000000000001 1.1 0.0
14.0 1.1 0.0
14.4 1.1 0.0
14.8 1.1 0.0
15.200000000000001 1.1 0.0
15.600000000000001 1.1 0.0
16.0 1.1 0.0
0.0 1.2000000000000002 0.0
0.4 1.2000000000000002 0.0
0.8 1.2000000000000002 0.0
1.2000000000000002 1.2000000000000002 0.0
1.6 1.2000000000000002 0.0
2.0 1.2000000000000002 0.0
2.4000000000000004 1.2000000000000002 0.0
2.8000000000000003 1.2000000000000002 0.0
3.2 1.2000000000000002 0.0
3.6 1.2000000000000002 0.0
4.0 1.2000000000000002 0.0
4.4 1.2000000000000002 0.0
4.800000000000001 1.2000000000000002 0.0
5.2 1.2000000000000002 0.0
5.6000000000000005 1.2000000000000002 0.0
6.0 1.2000000000000002 0.0
6.4 1.2000000000000002 0.0
6.800000000000001 1.2000000000000002 0.0
7.2 1.2000000000000002 0.0
7.6000000000000005 1.2000000000000002 0.0
8.0 1.2000000000000002 0.0
8.4 1.2000000000000002 0.0
8.8 1.2000000000000002 0.0
9.200000000000001 1.2000000000000002 0.0
9.600000000000001 1.2000000000000002 0.0
10.0 1.2000000000000002 0.0
10.4 1.2000000000000002 0.0
10.8 1.2000000000000002 0.0
11.200000000000001 1.2000000000000002 0.0
11.600000000000001 1.2000000000000002 0.0
12.0 1.2000000000000002 0.0
12.4 1.2000000000000002 0.0
12.8 1.2000000000000002 0.0
13.200000000000001 1.2000000000000002 0.0
13.600000000000001 1.2000000000000002 0.0
14.0 1.2000000000000002 0.0
14.4 1.2000000000000002 0.0
14.8 1.2000000000000002 0.0
15.200000000000001 1.2000000000000002 0.0
15.600000000000001 1.2000000000000002 0.0
16.0 1.2000000000000002 0.0
0.0 1.3 0.0
0.4 1.3 0.0
0.8 1.3 0.0
1.2000000000000002 1.3 0.0
1.6 1.3 0.0
2.0 1.3 0.0
2.4000000000000004 1.3 0.0
2.8000000000000003 1.3 0.0
3.2 1.3 0.0
3.6 1.3 0.0
4.0 1.3 0.0
4.4 1.3 0.0
4.800000000000001 1.3 0.0
5.2 1.3 0.0
5.6000000000000005 1.3 0.0
6.0 1.3 0.0
6.4 1.3 0.0
6.800000000000001 1.3 0.0
7.2 1.3 0.0
7.6000000000000005 1.3 0.0
8.0 1.3 0.0
8.4 1.3 0.0
8.8 1.3 0.0
9.200000000000001 1.3 0.0
9.600000000000001 1.3 0.0
10.0 1.3 0.0
10.4 1.3 0.0
10.8 1.3 0.0
11.200000000000001 1.3 0.0
11.600000000000001 1.3 0.0
12.0 1.3 0.0
12.4 1.3 0.0
12.8 1.3 0.0
13.200000000000001 1.3 0.0
13.600000000000001 1.3 0.0
14.0 1.3 0.0
14.4 1.3 0.0
14.8 1.3 0.0
15.200000000000001 1.3 0.0
15.600000000000001 1.3 0.0
16.0 1.3 0.0
0.0 1.4000000000000001 0.0
0.4 1.4000000000000001 0.0
0.8 1.4000000000000001 0.0
1.2000000000000002 1.4000000000000001 0.0
1.6 1.4000000000000001 0.0
2.0 1.4000000000000001 0.0
2.4000000000000004 1.4000000000000001 0.0
2.8000000000000003 1.4000000000000001 0.0
3.2 1.4000000000000001 0.0
3.6 1.4000000000000001 0.0
4.0 1.4000000000000001 0.0
4.4 1.4000000000000001 0.0
4.800000000000001 1.4000000000000001 0.0
5.2 1.4000000000000001 0.0
5.6000000000000005 1.4000000000000001 0.0
6.0 1.4000000000000001 0.0
6.4 1.4000000000000001 0.0
6.800000000000001 1.4000000000000001 0.0
7.2 1.4000000000000001 0.0
7.6000000000000005 1.4000000000000001 0.0
8.0 1.4000000000000001 0.0
8.4 1.4000000000000001 0.0
8.8 1.4000000000000001 0.0
9.200000000000001 1.4000000000000001 0.0
9.600000000000001 1.4000000000000001 0.0
10.0 1.4000000000000001 0.0
10.4 1.4000000000000001 0.0
10.8 1.4000000000000001 0.0
11.200000000000001 1.4000000000000001 0.0
11.600000000000001 1.4000000000000001 0.0
12.0 1.4000000000000001 0.0
12.4 1.4000000000000001 0.0
12.8 1.4000000000000001 0.0
13.200000000000001 1.4000000000000001 0.0
13.600000000000001 1.4000000000000001 0.0
14.0 1.4000000000000001 0.0
14.4 1.4000000000000001 0.0
14.8 1.4000000000000001 0.0
15.200000000000001 1.4000000000000001 0.0
15.600000000000001 1.4000000000000001 0.0
16.0 1.4000000000000001 0.0
0.0 1.5 0.0
0.4 1.5 0.0
0.8 1.5 0.0
1.2000000000000002 1.5 0.0
1.6 1.5 0.0
2.0 1.5 0.0
2.4000000000000004 1.5 0.0
2.8000000000000003 1.5 0.0
3.2 1.5 0.0
3.6 1.5 0.0
4.0 1.5 0.0
4.4 1.5 0.0
4.800000000000001 1.5 0.0
5.2 1.5 0.0
5.6000000000000005 1.5 0.0
6.0 1.5 0.0
6.4 1.5 0.0
6.800000000000001 1.5 0.0
7.2 1.5 0.0
7.6000000000000005 1.5 0.0
8.0 1.5 0.0
8.4 1.5 0.0
8.8 1.5 0.0
9.200000000000001 1.5 0.0
9.600000000000001 1.5 0.0
10.0 1.5 0.0
10.4 1.5 0.0
10.8 1.5 0.0
11.200000000000001 1.5 0.0
11.600000000000001 1.5 0.0
12.0 1.5 0.0
12.4 1.5 0.0
12.8 1.5 0.0
13.200000000000001 1.5 0.0
13.600000000000001 1.5 0.0
14.0 1.5 0.0
14.4 1.5 0.0
14.8 1.5 0.0
15.200000000000001 1.5 0.0
15.600000000000001 1.5 0.0
16.0 1.5 0.0
0.0 1.6 0.0
0.4 1.6 0.0
0.8 1.6 0.0
1.2000000000000002 1.6 0.0
1.6 1.6 0.0
2.0 1.6 0.0
2.4000000000000004 1.6 0.0
2.8000000000000003 1.6 0.0
3.2 1.6 0.0
3.6 1.6 0.0
4.0 1.6 0.0
4.4 1.6 0.0
4.800000000000001 1.6 0.0
5.2 1.6 0.0
5.6000000000000005 1.6 0.0
6.0 1.6 0.0
6.4 1.6 0.0
6.800000000000001 1.6 0.0
7.2 1.6 0.0
7.6000000000000005 1.6 0.0
8.0 1.6 0.0
8.4 1.6 0.0
8.8 1.6 0.0
9.200000000000001 1.6 0.0
9.600000000000001 1.6 0.0
10.0 1.6 0.0
10.4 1.6 0.0
10.8 1.6 0.0
11.200000000000001 1.6 0.0
11.600000000000001 1.6 0.0
12.0 1.6 0.0
12.4 1.6 0.0
12.8 1.6 0.0
13.200000000000001 1.6 0.0
13.600000000000001 1.6 0.0
14.0 1.6 0.0
14.4 1.6 0.0
14.8 1.6 0.0
15.200000000000001 1.6 0.0
15.600000000000001 1.6 0.0
16.0 1.6 0.0
0.0 1.7000000000000002 0.0
0.4 1.7000000000000002 0.0
0.8 1.7000000000000002 0.0
1.2000000000000002 1.7000000000000002 0.0
1.6 1.7000000000000002 0.0
2.0 1.7000000000000002 0.0
2.4000000000000004 1.7000000000000002 0.0
2.8000000000000003 1.7000000000000002 0.0
3.2 1.7000000000000002 0.0
3.6 1.7000000000000002 0.0
4.0 1.7000000000000002 0.0
4.4 1.7000000000000002 0.0
4.800000000000001 1.7000000000000002 0.0
5.2 1.7000000000000002 0.0
5.6000000000000005 1.7000000000000002 0.0
6.0 1.7000000000000002 0.0
6.4 1.7000000000000002 0.0
6.800000000000001 1.7000000000000002 0.0
7.2 1.7000000000000002 0.0
7.6000000000000005 1.7000000000000002 0.0
8.0 1.7000000000000002 0.0
8.4 1.7000000000000002 0.0
8.8 1.7000000000000002 0.0
9.200000000000001 1.7000000000000002 0.0
9.600000000000001 1.7000000000000002 0.0
10.0 1.7000000000000002 0.0
10.4 1.7000000000000002 0.0
10.8 1.7000000000000002 0.0
11.200000000000001 1.7000000000000002 0.0
11.600000000000001 1.7000000000000002 0.0
12.0 1.7000000000000002 0.0
12.4 1.7000000000000002 0.0
12.8 1.7000000000000002 0.0
13.200000000000001 1.7000000000000002 0.0
13.600000000000001 1.7000000000000002 0.0
14.0 1.7000000000000002 0.0
14.4 1.7000000000000002 0.0
14.8 1.7000000000000002 0.0
15.200000000000001 1.7000000000000002 0.0
15.600000000000001 1.7000000000000002 0.0
16.0 1.7000000000000002 0.0
0.0 1.8 0.0
0.4 1.8 0.0
0.8 1.8 0.0
1.2000000000000002 1.8 0.0
1.6 1.8 0.0
2.0 1.8 0.0
2.4000000000000004 1.8 0.0
2.8000000000000003 1.8 0.0
3.2 1.8 0.0
3.6 1.8 0.0
4.0 1.8 0.0
4.4 1.8 0.0
4.800000000000001 1.8 0.0
5.2 1.8 0.0
5.6000000000000005 1.8 0.0
6.0 1.8 0.0
6.4 1.8 0.0
6.800000000000001 1.8 0.0
7.2 1.8 0.0
7.6000000000000005 1.8 0.0
8.0 1.8 0.0
8.4 1.8 0.0
8.8 1.8 0.0
9.200000000000001 1.8 0.0
9.600000000000001 1.8 0.0
10.0 1.8 0.0
10.4 1.8 0.0
10.8 1.8 0.0
11.200000000000001 1.8 0.0
11.600000000000001 1.8 0.0
12.0 1.8 0.0
12.4 1.8 0.0
12.8 1.8 0.0
13.200000000000001 1.8 0.0
13.600000000000001 1.8 0.0
14.0 1.8 0.0
14.4 1.8 0.0
14.8 1.8 0.0
15.200000000000001 1.8 0.0
15.600000000000001 1.8 0.0
16.0 1.8 0.0
0.0 1.9000000000000001 0.0
0.4 1.9000000000000001 0.0
0.8 1.9000000000000001 0.0
1.2000000000000002 1.9000000000000001 0.0
1.6 1.9000000000000001 0.0
2.0 1.9000000000000001 0.0
2.4000000000000004 1.9000000000000001 0.0
2.8000000000000003 1.9000000000000001 0.0
3.2 1.9000000000000001 0.0
3.6 1.9000000000000001 0.0
4.0 1.9000000000000001 0.0
4.4 1.9000000000000001 0.0
4.800000000000001 1.9000000000000001 0.0
5.2 1.9000000000000001 0.0
5.6000000000000005 1.9000000000000001 0.0
6.0 1.9000000000000001 0.0
6.4 1.9000000000000001 0.0
6.800000000000001 1.9000000000000001 0.0
7.2 1.9000000000000001 0.0
7.6000000000000005 1.9000000000000001 0.0
8.0 1.9000000000000001 0.0
8.4 1.9000000000000001 0.0
8.8 1.9000000000000001 0.0
9.200000000000001 1.9000000000000001 0.0
9.600000000000001 1.9000000000000001 0.0
10.0 1.9000000000000001 0.0
10.4 1.9000000000000001 0.0
10.8 1.9000000000000001 0.0
11.200000000000001 1.9000000000000001 0.0
11.600000000000001 1.9000000000000001 0.0
12.0 1.9000000000000001 0.0
12.4 1.9000000000000001 0.0
12.8 1.9000000000000001 0.0
13.200000000000001 1.9000000000000001 0.0
13.600000000000001 1.9000000000000001 0.0
14.0 1.9000000000000001 0.0
14.4 1.9000000000000001 0.0
14.8 1.9000000000000001 0.0
15.200000000000001 1.9000000000000001 0.0
15.600000000000001 1.9000000000000001 0.0
16.0 1.9000000000000001 0.0
0.0 2.0 0.0
0.4 2.0 0.0
0.8 2.0 0.0
1.2000000000000002 2.0 0.0
1.6 2.0 0.0
2.0 2.0 0.0
2.4000000000000004 2.0 0.0
2.8000000000000003 2.0 0.0
3.2 2.0 0.0
3.6 2.0 0.0
4.0 2.0 0.0
4.4 2.0 0.0
4.800000000000001 2.0 0.0
5.2 2.0 0.0
5.6000000000000005 2.0 0.0
6.0 2.0 0.0
6.4 2.0 0.0
6.800000000000001 2.0 0.0
7.2 2.0 0.0
7.6000000000000005 2.0 0.0
8.0 2.0 0.0
8.4 2.0 0.0
8.8 2.0 0.0
9.200000000000001 2.0 0.0
9.600000000000001 2.0 0.0
10.0 2.0 0.0
10.4 2.0 0.0
10.8 2.0 0.0
11.200000000000001 2.0 0.0
11.600000000000001 2.0 0.0
12.0 2.0 0.0
12.4 2.0 0.0
12.8 2.0 0.0
13.200000000000001 2.0 0.0
13.600000000000001 2.0 0.0
14.0 2.0 0.0
14.4 2.0 0.0
14.8 2.0 0.0
15.200000000000001 2.0 0.0
15.600000000000001 2.0 0.0
16.0 2.0 0.0
CELLS 800 4000
4 0 1 42 41
4 1 2 43 42
4 2 3 44 43
4 3 4 45 44
4 4 5 46 45
4 5 6 47 46
4 6 7 48 47
4 7 8 49 48
4 8 9 50 49
4 9 10 51 50
4 10 11 52 51
4 11 12 53 52
4 12 13 54 53
4 13 14 55 54
4 14 15 56 55
4 15 16 57 56
4 16 17 58 57
4 17 18 59 58
4 18 19 60 59
4 19 20 61 60
4 20 21 62 61
4 21 22 63 62
4 22 23 64 63
4 23 24 65 64
4 24 25 66 65
4 25 26 67 66
4 26 27 68 67
4 27 28 69 68
4 28 29 70 69
4 29 30 71 70
4 30 31 72 71
4 31 32 73 72
4 32 33 74 73
4 33 34 75 74
4 34 35 76 75
4 35 36 77 76
4 36 37 78 77
4 37 38 79 78
4 38 39 80 79
4 39 40 81 80
4 41 42 83 82
4 42 43 84 83
4 43 44 85 84
4 44 45 86 85
4 45 46 87 86
4 46 47 88 87
4 47 48 89 88
4 48 49 90 89
4 49 50 91 90
4 50 51 92 91
4 51 52 93 92
4 52 53 94 93
4 53 54 95 94
4 54 55 96 95
4 55 56 97 96
4 56 57 98 97
4 57 58 99 98
4 58 59 100 99
4 59 60 101 100
4 60 61 102 101
4 61 62 103 102
4 62 63 104 103
4 63 64 105 104
4 64 65 106 105
4 65 66 107 106
4 66 67 108 107
4 67 68 109 108
4 68 69 110 109
4 69 70 111 110
4 70 71 112 111
4 71 72 113 112
4 72 73 114 113
4 73 74 115 114
4 74 75 116 115
4 75 76 117 116
4 76 77 118 117
4 77 78 119 118
4 78 79 120 119
4 79 80 121 120
4 80 81 122 121
4 82 83 124 123
4 83 84 125 124
4 84 85 126 125
4 85 86 127 126
4 86 87 128 127
4 87 88 129 128
4 88 89 130 129
4 89 90 131 130
4 90 91 132 131
4 91 92 133 132
4 92 93 134 133
4 93 94 135 134
4 94 95 136 135
4 95 96 137 136
4 96 97 138 137
4 97 98 139 138
4 98 99 140 139
4 99 100 141 140
4 100 101 142 141
4 101 102 143 142
4 102 103 144 143
4 103 104 145 144
4 104 105 146 145
4 105 106 147 146
4 106 107 148 147
4 107 108 149 148
4 108 109 150 149
4 109 110 151 150
4 110 111 152 151
4 111 112 153 152
4 112 113 154 153
4 113 114 155 154
4 114 115 156 155
4 115 116 157 156
4 116 117 158 157
4 117 118 159 158
4 118 119 160 159
4 119 120 161 160
4 120 121 162 161
4 121 122 163 162
4 123 124 165 164
4 124 125 166 165
4 125 126 167 166
4 126 127 168 167
4 127 128 169 168
4 128 129 170 169
4 129 130 171 170
4 130 131 172 171
4 131 132 173 172
4 132 133 174 173
4 133 134 175 174
4 134 135 176 175
4 135 136 177 176
4 136 137 178 177
4 137 138 179 178
4 138 139 180 179
4 139 140 181 180
4 140 141 182 181
4 141 142 183 182
4 142 143 184 183
4 143 144 185 184
4 144 145 186 185
4 145 146 187 186
4 146 147 188 187
4 147 148 189 188
4 148 149 190 189
4 149 150 191 190
4 150 151 192 191
4 151 152 193 192
4 152 153 194 193
4 153 154 195 194
4 154 155 196 195
4 155 156 197 196
4 156 157 198 197
4 157 158 199 198
4 158 159 200 199
4 159 160 201 200
4 160 161 202 201
4 161 162 203 202
4 162 163 204 203
4 164 165 206 205
4 165 166 207 206
4 166 167 208 207
4 167 168 209 208
4 168 169 210 209
4 169 170 211 210
4 170 171 212 211
4 171 172 213 212
4 172 173 214 213
4 173 174 215 214
4 174 175 216 215
4 175 176 217 216
4 176 177 218 217
4 177 178 219 218
4 178 179 220 219
4 179 180 221 220
4 180 181 222 221
4 181 182 223 222
4 182 183 224 223
4 183 184 225 224
4 184 185 226 225
4 185 186 227 226
4 186 187 228 227
4 187 188 229 228
4 188 189 230 229
4 189 190 231 230
4 190 191 232 231
4 191 192 233 232
4 192 193 234 233
4 193 194 235 234
4 194 195 236 235
4 195 196 237 236
4 196 197 238 237
4 197 198 239 238
4 198 199 240 239
4 199 200 241 240
4 200 201 242 241
4 201 202 243 242
4 202 203 244 243
4 203 204 245 244
4 205 206 247 246
4 206 207 248 247
4 207 208 249 248
4 208 209 250 249
4 209 210 251 250
4 210 211 252 251
4 211 212 253 252
4 212 213 254 253
4 213 214 255 254
4 214 215 256 255
4 215 216 257 256
4 216 217 258 257
4 217 218 259 258
4 218 219 260 259
4 219 220 261 260
4 220 221 262 261
4 221 222 263 262
4 222 223 264 263
4 223 224 265 264
4 224 225 266 265
4 225 226 267 266
4 226 227 268 267
4 227 228 269 268
4 228 229 270 269
4 229 230 271 270
4 230 231 272 271
4 231 232 273 272
4 232 233 274 273
4 233 234 275 274
4 234 235 276 275
4 235 236 277 276
4 236 237 278 277
4 237 238 279 278
4 238 239 280 279
4 239 240 281 280
4 240 241 282 281
4 241 242 283 282
4 242 243 284 283
4 243 244 285 284
4 244 245 286 285
4 246 247 288 287
4 247 248 289 288
4 248 249 290 289
4 249 250 291 290
4 250 251 292 291
4 251 252 293 292
4 252 253 294 293
4 253 254 295 294
4 254 255 296 295
4 255 256 297 296
4 256 257 298 297
4 257 258 299 298
4 258 259 300 299
4 259 260 301 300
4 260 261 302 301
4 261 262 303 302
4 262 263 304 303
4 263 264 305 304
4 264 265 306 305
4 265 266 307 306
4 266 267 308 307
4 267 268 309 308
4 268 269 310 309
4 269 270 311 310
4 270 271 312 311
4 271 272 313 312
4 272 273 314 313
4 273 274 315 314
4 274 275 316 315
4 275 276 317 316
4 276 277 318 317
4 277 278 319 318
4 278 279 320 319
4 279 280 321 320
4 280 281 322 321
4 281 282 323 322
4 282 283 324 323
4 283 284 325 324
4 284 285 326 325
4 285 286 327 326
4 287 288 329 328
4 288 289 330 329
4 289 290 331 330
4 290 291 332 331
4 291 292 333 332
4 292 293 334 333
4 293 294 335 334
4 294 295 336 335
4 295 296 337 336
4 296 297 338 337
4 297 298 339 338
4 298 299 340 339
4 299 300 341 340
4 300 301 342 341
4 301 302 343 342
4 302 303 344 343
4 303 304 345 344
4 304 305 346 345
4 305 306 347 346
4 306 307 348 347
4 307 308 349 348
4 308 309 350 349
4 309 310 351 350
4 310 311 352 351
4 311 312 353 352
4 312 313 354 353
4 313 314 355 354
4 314 315 356 355
4 315 316 357 356
4 316 317 358 357
4 317 318 359 358
4 318 319 360 359
4 319 320 361 360
4 320 321 362 361
4 321 322 363 362
4 322 323 364 363
4 323 324 365 364
4 324 325 366 365
4 325 326 367 366
4 326 327 368 367
4 328 329 370 369
4 329 330 371 370
4 330 331 372 371
4 331 332 373 372
4 332 333 374 373
4 333 334 375 374
4 334 335 376 375
4 335 336 377 376
4 336 337 378 377
4 337 338 379 378
4 338 339 380 379
4 339 340 381 380
4 340 341 382 381
4 341 342 383 382
4 342 343 384 383
4 343 344 385 384
4 344 345 386 385
4 345 346 387 386
4 346 347 388 387
4 347 348 389 388
4 348 349 390 389
4 349 350 391 390
4 350 351 392 391
4 351 352 393 392
4 352 353 394 393
4 353 354 395 394
4 354 355 396 395
4 355 356 397 396
4 356 357 398 397
4 357 358 399 398
4 358 359 400 399
4 359 360 401 400
4 360 361 402 401
4 361 362 403 402
4 362 363 404 403
4 363 364 405 404
4 364 365 406 405
4 365 366 407 406
4 366 367 408 407
4 367 368 409 408
4 369 370 411 410
4 370 371 412 411
4 371 372 413 412
4 372 373 414 413
4 373 374 415 414
4 374 375 416 415
4 375 376 417 416
4 376 377 418 417
4 377 378 419 418
4 378 379 420 419
4 379 380 421 420
4 380 381 422 421
4 381 382 423 422
4 382 383 424 423
4 383 384 425 424
4 384 385 426 425
4 385 386 427 426
4 386 387 428 427
4 387 388 429 428
4 388 389 430 429
4 389 390 431 430
4 390 391 432 431
4 391 392 433 432
4 392 393 434 433
4 393 394 435 434
4 394 395 436 435
4 395 396 437 436
4 396 397 438 437
4 397 398 439 438
4 398 399 440 439
4 399 400 441 440
4 400 401 442 441
4 401 402 443 442
4 402 403 444 443
4 403 404 445 444
4 404 405 446 445
4 405 406 447 446
4 406 407 448 447
4 407 408 449 448
4 408 409 450 449
4 410 411 452 451
4 411 412 453 452
4 412 413 454 453
4 413 414 455 454
4 414 415 456 455
4 415 416 457 456
4 416 417 458 457
4 417 418 459 458
4 418 419 460 459
4 419 420 461 460
4 420 421 462 461
4 421 422 463 462
4 422 423 464 463
4 423 424 465 464
4 424 425 466 465
4 425 426 467 466
4 426 427 468 467
4 427 428 469 468
4 428 429 470 469
4 429 430 471 470
4 430 431 472 471
4 431 432 473 472
4 432 433 474 473
4 433 434 475 474
4 434 435 476 475
4 435 436 477 476
4 436 437 478 477
4 437 438 479 478
4 438 439 480 479
4 439 440 481 480
4 440 441 482 481
4 441 442 483 482
4 442 443 484 483
4 443 444 485 484
4 444 445 486 485
4 445 446 487 486
4 446 447 488 487
4 447 448 489 488
4 448 449 490 489
4 449 450 491 490
4 451 452 493 492
4 452 453 494 493
4 453 454 495 494
4 454 455 496 495
4 455 456 497 496
4 456 457 498 497
4 457 458 499 498
4 458 459 500 499
4 459 460 501 500
4 460 461 502 501
4 461 462 503 502
4 462 463 504 503
4 463 464 505 504
4 464 465 506 505
4 465 466 507 506
4 466 467 508 507
4 467 468 509 508
4 468 469 510 509
4 469 470 511 510
4 470 471 512 511
4 471 472 513 512
4 472 473 514 513
4 473 474 515 514
4 474 475 516 515
4 475 476 517 516
4 476 477 518 517
4 477 478 519 518
4 478 479 520 519
4 479 480 521 520
4 480 481 522 521
4 481 482 523 522
4 482 483 524 523
4 483 484 525 524
4 484 485 526 525
4 485 486 527 526
4 486 487 528 527
4 487 488 529 528
4 488 489 530 529
4 489 490 531 530
4 490 491 532 531
4 492 493 534 533
4 493 494 535 534
4 494 495 536 535
4 495 496 537 536
4 496 497 538 537
4 497 498 539 538
4 498 499 540 539
4 499 500 541 540
4 500 501 542 541
4 501 502 543 542
4 502 503 544 543
4 503 504 545 544
4 504 505 546 545
4 505 506 547 546
4 506 507 548 547
4 507 508 549 548
4 508 509 550 549
4 509 510 551 550
4 510 511 552 551
4 511 512 553 552
4 512 513 554 553
4 513 514 555 554
4 514 515 556 555
4 515 516 557 556
4 516 517 558 557
4 517 518 559 558
4 518 519 560 559
4 519 520 561 560
4 520 521 562 561
4 521 522 563 562
4 522 523 564 563
4 523 524 565 564
4 524 525 566 565
4 525 526 567 566
4 526 527 568 567
4 527 528 569 568
4 528 529 570 569
4 529 530 571 570
4 530 531 572 571
4 531 532 573 572
4 533 534 575 574
4 534 535 576 575
4 535 536 577 576
4 536 537 578 577
4 537 538 579 578
4 538 539 580 579
4 539 540 581 580
4 540 541 582 581
4 541 542 583 582
4 542 543 584 583
4 543 544 585 584
4 544 545 586 585
4 545 546 587 586
4 546 547 588 587
4 547 548 589 588
4 548 549 590 589
4 549 550 591 590
4 550 551 592 591
4 551 552 593 592
4 552 553 594 593
4 553 554 595 594
4 554 555 596 595
4 555 556 597 596
4 556 557 598 597
4 557 558 599 598
4 558 559 600 599
4 559 560 601 600
4 560 561 602 601
4 561 562 603 602
4 562 563 604 603
4 563 564 605 604
4 564 565 606 605
4 565 566 607 606
4 566 567 608 607
4 567 568 609 608
4 568 569 610 609
4 569 570 611 610
4 570 571 612 611
4 571 572 613 612
4 572 573 614 613
4 574 575 616 615
4 575 576 617 616
4 576 577 618 617
4 577 578 619 618
4 578 579 620 619
4 579 580 621 620
4 580 581 622 621
4 581 582 623 622
4 582 583 624 623
4 583 584 625 624
4 584 585 626 625
4 585 586 627 626
4 586 587 628 627
4 587 588 629 628
4 588 589 630 629
4 589 590 631 630
4 590 591 632 631
4 591 592 633 632
4 592 593 634 633
4 593 594 635 634
4 594 595 636 635
4 595 596 637 636
4 596 597 638 637
4 597 598 639 638
4 598 599 640 639
4 599 600 641 640
4 600 601 642 641
4 601 602 643 642
4 602 603 644 643
4 603 604 645 644
4 604 605 646 645
4 605 606 647 646
4 606 607 648 647
4 607 608 649 648
4 608 609 650 649
4 609 610 651 650
4 610 611 652 651
4 611 612 653 652
4 612 613 654 653
4 613 614 655 654
4 615 616 657 656
4 616 617 658 657
4 617 618 659 658
4 618 619 660 659
4 619 620 661 660
4 620 621 662 661
4 621 622 663 662
4 622 623 664 663
4 623 624 665 664
4 624 625 666 665
4 625 626 667 666
4 626 627 668 667
4 627 628 669 668
4 628 629 670 669
4 629 630 671 670
4 630 631 672 671
4 631 632 673 672
4 632 633 674 673
4 633 634 675 674
4 634 635 676 675
4 635 636 677 676
4 636 637 678 677
4 637 638 679 678
4 638 639 680 679
4 639 640 681 680
4 640 641 682 681
4 641 642 683 682
4 642 643 684 683
4 643 644 685 684
4 644 645 686 685
4 645 646 687 686
4 646 647 688 687
4 647 648 689 688
4 648 649 690 689
4 649 650 691 690
4 650 651 692 691
4 651 652 693 692
4 652 653 694 693
4 653 654 695 694
4 654 655 696 695
4 656 657 698 697
4 657 658 699 698
4 658 659 700 699
4 659 660 701 700
4 660 661 702 701
4 661 662 703 702
4 662 663 704 703
4 663 664 705 704
4 664 665 706 705
4 665 666 707 706
4 666 667 708 707
4 667 668 709 708
4 668 669 710 709
4 669 670 711 710
4 670 671 712 711
4 671 672 713 712
4 672 673 714 713
4 673 674 715 714
4 674 675 716 715
4 675 676 717 716
4 676 677 718 717
4 677 678 719 718
4 678 679 720 719
4 679 680 721 720
4 680 681 722 721
4 681 682 723 722
4 682 683 724 723
4 683 684 725 724
4 684 685 726 725
4 685 686 727 726
4 686 687 728 727
4 687 688 729 728
4 688 689 730 729
4 689 690 731 730
4 690 691 732 731
4 691 692 733 732
4 692 693 734 733
4 693 694 735 734
4 694 695 736 735
4 695 696 737 736
4 697 698 739 738
4 698 699 740 739
4 699 700 741 740
4 700 701 742 741
4 701 702 743 742
4 702 703 744 743
4 703 704 745 744
4 704 705 746 745
4 705 706 747 746
4 706 707 748 747
4 707 708 749 748
4 708 709 750 749
4 709 710 751 750
4 710 711 752 751
4 711 712 753 752
4 712 713 754 753
4 713 714 755 754
4 714 715 756 755
4 715 716 757 756
4 716 717 758 757
4 717 718 759 758
4 718 719 760 759
4 719 720 761 760
4 720 721 762 761
4 721 722 763 762
4 722 723 764 763
4 723 724 765 764
4 724 725 766 765
4 725 726 767 766
4 726 727 768 767
4 727 728 769 768
4 728 729 770 769
4 729 730 771 770
4 730 731 772 771
4 731 732 773 772
4 732 733 774 773
4 733 734 775 774
4 734 735 776 775
4 735 736 777 776
4 736 737 778 777
4 738 739 780 779
4 739 740 781 780
4 740 741 782 781
4 741 742 783 782
4 742 743 784 783
4 743 744 785 784
4 744 745 786 785
4 745 746 787 786
4 746 747 788 787
4 747 748 789 788
4 748 749 790 789
4 749 750 791 790
4 750 751 792 791
4 751 752 793 792
4 752 753 794 793
4 753 754 795 794
4 754 755 796 795
4 755 756 797 796
4 756 757 798 797
4 757 758 799 798
4 758 759 800 799
4 759 760 801 800
4 760 761 802 801
4 761 762 803 802
4 762 763 804 803
4 763 764 805 804
4 764 765 806 805
4 765 766 807 806
4 766 767 808 807
4 767 768 809 808
4 768 769 810 809
4 769 770 811 810
4 770 771 812 811
4 771 772 813 812
4 772 773 814 813
4 773 774 815 814
4 774 775 816 815
4 775 776 817 816
4 776 777 818 817
4 777 778 819 818
4 779 780 821 820
4 780 781 822 821
4 781 782 823 822
4 782 783 824 823
4 783 784 825 824
4 784 785 826 825
4 785 786 827 826
4 786 787 828 827
4 787 788 829 828
4 788 789 830 829
4 789 790 831 830
4 790 791 832 831
4 791 792 833 832
4 792 793 834 833
4 793 794 835 834
4 794 795 836 835
4 795 796 837 836
4 796 797 838 837
4 797 798 839 838
4 798 799 840 839
4 799 800 841 840
4 800 801 842 841
4 801 802 843 842
4 802 803 844 843
4 803 804 845 844
4 804 805 846 845
4 805 806 847 846
4 806 807 848 847
4 807 808 849 848
4 808 809 850 849
4 809 810 851 850
4 810 811 852 851
4 811 812 853 852
4 812 813 854 853
4 813 814 855 854
4 814 815 856 855
4 815 816 857 856
4 816 817 858 857
4 817 818 859 858
4 818 819 860 859
CELL_TYPES 800
9
9
9
9
9
9
9
9
9
9
9
9
9
9
9
9
9
9
9
9
9
9
9
9
9
9
9
9
9
9
9
9
9
9
9
9
9
9
9
9
9
9
9
9
9
9
9
9
9
9
9
9
9
9
9
9
9
9
9
9
9
9
9
9
9
9
9
9
9
9
9
9
9
9
9
9
9
9
9
9
9
9
9
9
9
9
9
9
9
9
9
9
9
9
9
9
9
9
9
9
9
9
9
9
9
9
9
9
9
9
9
9
9
9
9
9
9
9
9
9
9
9
9
9
9
9
9
9
9
9
9
9
9
9
9
9
9
9
9
9
9
9
9
9
9
9
9
9
9
9
9
9
9
9
9
9
9
9
9
9
9
9
9
9
9
9
9
9
9
9
9
9
9
9
9
9
9
9
9
9
9
9
9
9
9
9
9
9
9
9
9
9
9
9
9
9
9
9
9
9
9
9
9
9
9
9
9
9
9
9
9
9
9
9
9
9
9
9
9
9
9
9
9
9
9
9
9
9
9
9
9
9
9
9
9
9
9
9
9
9
9
9
9
9
9
9
9
9
9
9
9
9
9
9
9
9
9
9
9
9
9
9
9
9
9
9
9
9
9
9
9
9
9
9
9
9
9
9
9
9
9
9
9
9
9
9
9
9
9
9
9
9
9
9
9
9
9
9
9
9
9
9
9
9
9
9
9
9
9
9
9
9
9
9
9
9
9
9
9
9
9
9
9
9
9
9
9
9
9
9
9
9
9
9
9
9
9
9
9
9
9
9
9
9
9
9
9
9
9
9
9
9
9
9
9
9
9
9
9
9
9
9
9
9
9
9
9
9
9
9
9
9
9
9
9
9
9
9
9
9
9
9
9
9
9
9
9
9
9
9
9
9
9
9
9
9
9
9
9
9
9
9
9
9
9
9
9
9
9
9
9
9
9
9
9
9
9
9
9
9
9
9
9
9
9
9
9
9
9
9
9
9
9
9
9
9
9
9
9
9
9
9
9
9
9
9
9
9
9
9
9
9
9
9
9
9
9
9
9
9
9
9
9
9
9
9
9
9
9
9
9
9
9
9
9
9
9
9
9
9
9
9
9
9
9
9
9
9
9
9
9
9
9
9
9
9
9
9
9
9
9
9
9
9
9
9
9
9
9
9
9
9
9
9
9
9
9
9
9
9
9
9
9
9
9
9
9
9
9
9
9
9
9
9
9
9
9
9
9
9
9
9
9
9
9
9
9
9
9
9
9
9
9
9
9
9
9
9
9
9
9
9
9
9
9
9
9
9
9
9
9
9
9
9
9
9
9
9
9
9
9
9
9
9
9
9
9
9
9
9
9
9
9
9
9
9
9
9
9
9
9
9
9
9
9
9
9
9
9
9
9
9
9
9
9
9
9
9
9
9
9
9
9
9
9
9
9
9
9
9
9
9
9
9
9
9
9
9
9
9
9
9
9
9
9
9
9
9
9
9
9
9
9
9
9
9
9
9
9
9
9
9
9
9
9
9
9
9
9
9
9
9
9
9
9
9
9
9
9
9
9
9
9
9
9
9
9
9
9
9
9
9
9
9
9
9
9
9
9
9
9
9
9
9
9
9
9
9
9
9
9
9
9
9
9
9
9
9
9
9
9
9
9
9
9
9
9
9
9
9
9
9
9
9
9
9
9
9
9
9
9
9
9
9
9
9
9
9
9
9
9
9
9
9
9
9
9
9
9
9
9
9
9
9
9
9
9
9
9
9
9
9
9
9
9
9
9
9
9
9
9
9
9
9
9
9
9
9
9
9
9
9
9
9
9
9
9
9
9
9
POINT_DATA 861
SCALARS Disp float 2
LOOKUP_TABLE default
0.0 0.0
0.005954884582452504 -0.26550215775380126
0.007320572482049355 -0.5215858637655711
0.008113626159193258 -0.7765798912577632
0.00914963236723946 -1.0311954308968978
0.010854658226253205 -1.2849985872863368
0.013888263255291433 -1.537409308784076
0.01906136643524186 -1.7876960850802845
0.027330136758831208 -2.034942590851754
0.0397369459724789 -2.2779516587466215
0.0573198329230222 -2.515105645413383
0.08105104790400049 -2.744286420547942
0.1118084822268675 -2.962909215953164
0.15036642328996072 -3.1680446246402254
0.19739085550021707 -3.3565056154319803
0.2533710002303897 -3.524918031858445
0.31849731606252346 -3.66981240086
0.3925166305878559 -3.787771010051909
0.47461016031910747 -3.8756626235802476
0.5633457531019309 -3.9308915906442543
0.6564527073810339 -3.951701655711437
0.749559661660132 -3.9308915906441295
0.8382952544429362 -3.875662623579995
0.9203887841741544 -3.787771010051543
0.9944080986994458 -3.6698124008595436
1.0595344145315353 -3.5249180318579225
1.1155145592616629 -3.356505615431408
1.1625389914718742 -3.1680446246396192
1.201096932534922 -2.9629092159525428
1.2318543668577455 -2.744286420547326
1.255585581838686 -2.5151056454127896
1.2731684687891978 -2.2779516587460633
1.285575278002821 -2.034942590851238
1.293844048326392 -1.7876960850798194
1.29901715150633 -1.5374093087836658
1.3020507565353607 -1.28499858728599
1.3037557823943713 -1.0311954308966143
1.3047917886024167 -0.7765798912575461
1.30558484227956 -0.5215858637654193
1.3069505301791553 -0.2655021577537174
1.3129054147616044 0.0
0.06622500469106993 -0.0024682140341962997
0.07040544747381267 -0.26578150604088974
0.07111458548133606 -0.5216484470820568
0.07181645454768085 -0.7766707227576554
0.07272261595507012 -1.0313470613362845
0.07416882701072412 -1.2853398799184523
0.07677496451424806 -1.5381227985401977
0.08130662485611781 -1.7890002005313872
0.08866151262002334 -2.037081568743777
0.099791191076325 -2.281174356466653
0.11562182049973876 -2.519648638560016
0.137005769281058 -2.7503660507508485
0.16471778495778167 -2.9707206973718687
0.19946146712490853 -3.1777611698017894
0.24184466354730544 -3.368270562008273
0.292323697838595 -3.5388218416162314
0.3510947815030369 -3.6858594873106254
0.4179653330538421 -3.8058463192408882
0.4922347743215063 -3.895504758078434
0.5725386838057183 -3.9520661184880144
0.6564527073810188 -3.9734281980563453
0.7403667309563138 -3.952066118487887
0.8206706404405081 -3.8955047580781756
0.8949400817081432 -3.805846319240514
0.9618106332589127 -3.6858594873101582
1.0205817169233153 -3.538821841615698
1.071060751214564 -3.36827056200769
1.11344394763692 -3.177761169801173
1.1481876298040061 -2.9707206973712372
1.175899645480691 -2.7503660507502237
1.197283594261976 -2.5196486385594143
1.2131142236853614 -2.2811743564660882
1.2242439021416405 -2.037081568743256
1.2315987899055296 -1.7890002005309187
1.236130450247388 -1.5381227985397856
1.2387365877509056 -1.2853398799181044
1.2401827988065568 -1.0313470613360005
1.2410889602139454 -0.7766707227574382
1.24179082928029 -0.5216484470819048
1.2424999672878132 -0.2657815060408056
1.2466804100705504 -0.002468214034193766
0.13144938905996334 -0.004431983675928738
0.13452316859511732 -0.26592068803196695
0.13492835464314742 -0.5216806717620853
0.13550050426226867 -0.7767506104087658
0.1362872055702978 -1.0314673637188605
0.13750078978730815 -1.285609891486974
0.13969022674170398 -1.538714142028702
0.14358342020031511 -1.7901197961873687
0.15000838247187304 -2.0389560939783005
0.15982874228415833 -2.2840282940811245
0.1738641375246345 -2.5236904019581954
0.19285718750140773 -2.7557842602172187
0.21748159846469897 -2.9776880733017155
0.24835834878999088 -3.1864350034320528
0.2860415845629038 -3.378782502727224
0.3309563938401871 -3.551258844715581
0.38331568170799124 -3.700235539310101
0.44300375237116135 -3.822069981594248
0.5094262592155416 -3.913343588834727
0.5812845783110592 -3.9710779694032605
0.6564527073810039 -3.9929361121707574
0.7316208364509431 -3.97107796940313
0.8034791555464449 -3.9133435888344623
0.8699016623907996 -3.8220699815938666
0.9295897330539389 -3.7002355393096256
0.981949020921708 -3.5512588447150386
1.026863830198955 -3.378782502726631
1.064547065971831 -3.1864350034314266
1.0954238162970868 -2.9776880733010747
1.120048227260344 -2.755784260216585
1.1390412772370864 -2.523690401957586
1.1530766724775374 -2.284028294080554
1.1628970322898025 -2.038956093977775
1.1693219945613453 -1.790119796186897
1.1732151880199468 -1.5387141420282882
1.1754046249743373 -1.2856098914866252
1.1766182091913455 -1.0314673637185765
1.1774049104993742 -0.7767506104085485
1.1779770601184956 -0.5216806717619334
1.1783822461665254 -0.26592068803188235
1.181456025701674 -0.004431983675923491
0.19614480455092798 -0.006012124489500194
0.19847318985465312 -0.2660156598413818
0.1987198836466692 -0.5216983340225341
0.19916725525318651 -0.7768149047498734
0.1998385040410752 -1.03156471352349
0.20084730853296975 -1.2858169679481595
0.20264428787310562 -1.5391875492812406
0.20590688343352312 -1.7910558885152141
0.2113965129984064 -2.040562587526406
0.21988887094127693 -2.2865068503554684
0.2321019738381161 -2.527222768722667
0.2486730212585622 -2.760533209027518
0.2701789286942769 -2.983803220348054
0.2971568838898903 -3.194055550448938
0.3300964449125607 -3.3880291230518766
0.3693986049524962 -3.562216424428314
0.4152971035717158 -3.7129297014539953
0.46775159282177764 -3.8364342344655786
0.5262824261345009 -3.929171277939512
0.5897820460905671 -3.987975715899717
0.6564527073809895 -4.010334798744236
0.7231233686714069 -3.987975715899584
0.7866229886274585 -3.929171277939243
0.8451538219401595 -3.83643423446519
0.8976083111901945 -3.712929701453511
0.9435068098093835 -3.5622164244277634
0.9828089698492869 -3.3880291230512753
1.0157485308719247 -3.1940555504483035
1.0427264860675067 -2.9838032203474056
1.0642323935031919 -2.760533209026877
1.080803440923611 -2.5272227687220514
1.093016543820428 -2.286506850354892
1.1015089017632804 -2.040562587525877
1.1069985313281507 -1.7910558885147396
1.11026112688856 -1.539187549280825
1.1120581062286914 -1.2858169679478102
1.1130669107205846 -1.0315647135232056
1.113738159508473 -0.7768149047496564
1.1141855311149904 -0.5216983340223822
1.1144322249070062 -0.2660156598412969
1.1167606102107264 -0.006012124489492387
0.260538896608258 -0.007290415923663696
0.262308909298132 -0.26608932814832364
0.26246969029433526 -0.5217084604801949
0.2628121804111091 -0.7768646885694046
0.2633727043011702 -1.031643526494269
0.2642007014013092 -1.2859732718540446
0.2656441562406382 -1.5395513219660522
0.2682911537295434 -1.791811469464801
0.272851921320736 -2.041901087929049
0.2800108647833135 -2.2886071223833646
0.29038886490204974 -2.53024165961971
0.30452229194975383 -2.7646080779936253
0.32289080458330477 -2.989061164516828
0.34594918452566237 -3.2006173605856807
0.37412621686159125 -3.396002919064763
0.40778552466049883 -3.5716851521344197
0.447177482042251 -3.7239305889374297
0.4923393453164872 -3.8489258636165617
0.5429429417511693 -3.942989288948467
0.5981323414995606 -4.00279597754886
0.6564527073809752 -4.025683970137914
0.7147730732623855 -4.0027959775487245
0.7699624730107635 -3.9429892889481937
0.8205660694454262 -3.8489258636161683
0.8657279327196395 -3.723930588936939
0.9051198901013653 -3.5716851521338624
0.9387791979002448 -3.396002919064155
0.9669562302361459 -3.200617360585039
0.9900146101784765 -2.989061164516173
1.0083831228120022 -2.7646080779929774
1.0225165498596833 -2.5302416596190893
1.0328945499784004 -2.2886071223827837
1.0400534934409629 -2.041901087928516
1.0446142610321443 -1.7918114694643241
1.0472612585210423 -1.5395513219656354
1.048704713360368 -1.2859732718536947
1.0495327104605061 -1.0316435264939843
1.050093234350567 -0.7768646885691874
1.0504357244673408 -0.521708460480043
1.0505965054635442 -0.2660893281482384
1.0523665181534136 -0.007290415923653614
0.324734184853617 -0.008318453098106877
0.32606496215029745 -0.26614953521467777
0.32617593582906373 -0.5217157698597318
0.3264321306218534 -0.776901606662766
0.32688528674910733 -1.0317072332654456
0.327554868167367 -1.286089821025371
0.32868278094994563 -1.5398191290463663
0.3307568320132485 -1.792392788047453
0.33440069844029746 -2.0429746531650324
0.3402340335764796 -2.2903301217704306
0.34877828194215227 -2.5327465859146026
0.36047186403495135 -2.768008011515745
0.3757005174627334 -2.9934606085758237
0.39483536192276 -3.206118669368825
0.4182405684515901 -3.4027019303275954
0.44624813287192466 -3.579660135426462
0.47910580973644523 -3.7332273970204337
0.5169183779654002 -3.859531707097973
0.5595416871716612 -3.954794820171397
0.6064173414355236 -4.0155573245120895
0.6564527073809608 -4.039019057804971
0.7064880733263943 -4.015557324511953
0.7533637275902454 -3.95479482017112
0.7959870367964896 -3.8595317070975743
0.8337996050254255 -3.7332273970199377
0.8666572818899235 -3.579660135425898
0.8946648463102342 -3.4027019303269808
0.9180700528390414 -3.2061186693681774
0.9372048972990454 -2.993460608575163
0.9524335507268067 -2.7680080115150925
0.9641271328195866 -2.532746585913977
0.9726713811852434 -2.2903301217698457
0.9785047163214129 -2.042974653164497
0.9821485827484527 -1.7923927880469739
0.9842226338117502 -1.5398191290459484
0.9853505465943262 -1.286089821025021
0.9860201280125854 -1.031707233265161
0.9864732841398393 -0.7769016066625487
0.986729478932629 -0.5217157698595799
0.9868404526113951 -0.2661495352145923
0.988171229908072 -0.008318453098094878
0.38878426858499815 -0.009135683470336985
0.3897650533632459 -0.2661993475038043
0.3898439207413269 -0.5217226408746289
0.39002689427461834 -0.7769271344627947
0.39037468958919624 -1.0317577800602542
0.390902033785489 -1.2861759977160763
0.39175118802308256 -1.5400074054555777
0.3933024693573238 -1.7928146940155527
0.39607268307360455 -2.043790037581503
0.400598497374729 -2.291680493653023
0.4073245268518146 -2.5347411623627685
0.41659079107284863 -2.7707360439777213
0.4286910753273578 -2.997004569406121
0.4439141874021058 -3.210562314952959
0.4625594929521483 -3.408127918061935
0.4849171982127511 -3.5861413506335316
0.5112299054625865 -3.7408141465173963
0.5416542772213017 -3.8682385756145687
0.5762239423662499 -3.9645758755999063
0.6147185591126022 -4.026260163202584
0.6564527073809463 -4.0503554844014245
0.6981868556492874 -4.026260163202444
0.7366814723956303 -3.9645758755996265
0.7712511375405647 -3.868238575614166
0.8016755092992639 -3.7408141465168954
0.8279882165490812 -3.5861413506329627
0.8503459218096643 -3.4081279180613153
0.8689912273596885 -3.2105623149523064
0.884214339434419 -2.9970045694054557
0.8963146236889116 -2.7707360439770645
0.90558088790993 -2.5347411623621388
0.9123069173870032 -2.291680493652435
0.9168327316881179 -2.0437900375809646
0.9196029454043915 -1.792814694015072
0.9211542267386286 -1.5400074054551596
0.9220033809762206 -1.2861759977157259
0.9225307251725129 -1.0317577800599695
0.9228785204870907 -0.7769271344625776
0.9230614940203821 -0.5217226408744771
0.9231403613984629 -0.26619934750371865
0.9241211461767082 -0.009135683470323397
0.4527248440942377 -0.009773872478180694
0.4534268725999914 -0.2662410981514191
0.4534812972928262 -0.5217295734324178
0.45359839026468973 -0.7769425562160234
0.4538423322276557 -1.0317953080052493
0.45423419510073076 -1.2862391217748912
0.4548437110231878 -1.5401320872825413
0.4559241239672627 -1.7930973756646766
0.4578820586644329 -2.044362859402674
0.4611479250469144 -2.292667579621459
0.466084162498012 -2.536233055009532
0.47294832986612517 -2.7727995151027915
0.48194805732423646 -2.99970079017892
0.4932884803363748 -3.213955997898005
0.5071990917822315 -3.4122878522319637
0.5239283362771359 -3.591133543687402
0.543706775165932 -3.746690607961803
0.5667182758219792 -3.875035532635813
0.593147850294976 -3.9723108059194714
0.6231280587102812 -4.034884992149992
0.6564527073809313 -4.0596884102531074
0.6897773560515795 -4.034884992149851
0.7197575644668773 -3.972310805919189
0.7461871389398635 -3.875035532635406
0.7691986395958978 -3.7466906079612987
0.7889770784846801 -3.5911335436868286
0.8057063229795691 -3.4122878522313407
0.8196169344254127 -3.2139559978973486
0.8309573574375383 -2.999700790178251
0.8399570848956373 -2.7727995151021307
0.8468212522637387 -2.5362330550088985
0.8517574897148272 -2.2926675796208684
0.8550233560973016 -2.0443628594021344
0.8569812907944669 -1.793097375664195
0.858061703738539 -1.5401320872821225
0.8586712196609951 -1.2862391217745406
0.8590630825340699 -1.0317953080049644
0.8593070244970358 -0.7769425562158061
0.8594241174688991 -0.5217295734322659
0.8594785421617339 -0.2662410981513334
0.8601805706674858 -0.00977387247816587
0.5165778818020654 -0.010262795960350615
0.5170667910914192 -0.26627688070791783
0.517095128690554 -0.5217357400792045
0.5171499084890888 -0.7769488901674282
0.5172924189405447 -1.0318191597769677
0.517547114664546 -1.2862831597861228
0.5179449042988562 -1.5402099031025736
0.5186163510578021 -1.7932651315974568
0.5198340950248613 -2.0447177419356146
0.5219127641985617 -2.2933101554830104
0.5251150176127871 -2.5372359334749763
0.5296207372107465 -2.7742111813352395
0.5355602296137906 -3.0015625048562704
0.5430623348255864 -3.216313426938868
0.5522831441030238 -3.415194205591009
0.5634176152379766 -3.5946470967763386
0.5766861791798117 -3.7508647004531492
0.5922992658366615 -3.8799176562656235
0.6105066132908337 -3.9779701725159704
0.6317617498549386 -4.041389675314884
0.656452707380916 -4.066990221314862
0.6811436649068922 -4.041389675314742
0.7023988014709925 -3.9779701725156853
0.7206061489251567 -3.8799176562652145
0.7362192355819971 -3.7508647004526425
0.7494877995238229 -3.5946470967757627
0.7606222706587654 -3.415194205590383
0.7698430799361943 -3.2163134269382097
0.7773451851479825 -3.0015625048555994
0.7832846775510187 -2.7742111813345764
0.7877903971489706 -2.5372359334743417
0.7909926505631899 -2.2933101554824185
0.7930713197368859 -2.0447177419350737
0.794289063703942 -1.7932651315969745
0.7949605104628864 -1.5402099031021546
0.7953583000971962 -1.286283159785772
0.7956129958211973 -1.0318191597766828
0.7957555062726531 -0.7769488901672108
0.7958102860711879 -0.5217357400790527
0.7958386236703225 -0.2662768807078321
0.7963275329596751 -0.010262795960334819
0.5803590766505944 -0.01063225412350869
0.5806946998047513 -0.2663093326051722
0.5806919652362738 -0.5217393331717035
0.5806855894974232 -0.7769468926040577
0.5807294855170151 -1.0318290720908736
0.5808433148743025 -1.2863082077148476
0.5810390248734574 -1.5402536239405789
0.5813612882761311 -1.7933473180443693
0.5819257663589036 -2.044890465918826
0.5829118411018449 -2.2936406946539813
0.5844635104599332 -2.537776276904547
0.586679459621593 -2.7749937533036784
0.5896155283376474 -3.0026113655293214
0.5933343969384214 -3.2176570854588387
0.5979229719379396 -3.4168688383244135
0.6035109549639988 -3.5966999537116653
0.6102933672165718 -3.7533516156261553
0.6185285146658179 -3.8828968864439304
0.628516804784057 -3.9815301716250597
0.6407973910218083 -4.045705308947234
0.6564527073809001 -4.072200879885302
0.6721080237399918 -4.045705308947091
0.6843886099777409 -3.9815301716247737
0.6943769000959749 -3.8828968864435196
0.7026120475452156 -3.753351615625647
0.7093944597977843 -3.596699953711087
0.7149824428238384 -3.4168688383237855
0.7195710178233534 -3.2176570854581787
0.7232898864241241 -3.002611365528649
0.7262259551401752 -2.774993753303014
0.7284419043018315 -2.537776276903911
0.7299935736599173 -2.293640694653388
0.730979648402857 -2.0448904659182845
0.7315441264856282 -1.7933473180438868
0.7318663898883013 -1.5402536239401599
0.732062099887456 -1.2863082077144967
0.7321759292447434 -1.0318290720905887
0.7322198252643352 -0.7769468926038402
0.7322134495254846 -0.5217393331715516
0.732210714957007 -0.26630933260508655
0.7325463381111632 -0.01063225412349221
0.6440857709882573 -0.010908127159456871
0.6443133146867555 -0.26634146946365383
0.6442768859717684 -0.5217384453468565
0.6442099703505223 -0.776937037923562
0.6441577854162035 -1.031825152164991
0.64413101471398 -1.2863134243252432
0.6441206839584204 -1.5402673603107362
0.6441170107980471 -1.7933719099217977
0.6441156781733279 -2.044935620123287
0.6441155894108896 -2.2937240498763884
0.6441157150088964 -2.5379144262871423
0.6441143390691099 -2.775201009650147
0.6441054946392684 -3.002898573828568
0.6440864971989049 -3.2180362993600515
0.6440728428785251 -3.4173591100469265
0.644132123392899 -3.59733434792909
0.6444299368486287 -3.7541862042820284
0.6452790053758221 -3.8840121658499167
0.6471146281716904 -3.9830215377796145
0.6504217715183073 -4.047765916650435
0.6564527073808838 -4.075218791288652
0.6624836432434612 -4.047765916650292
0.6657907865900773 -3.983021537779328
0.6676264093859441 -3.8840121658495046
0.6684754779131368 -3.7541862042815204
0.6687732913688675 -3.597334347928512
0.668832571883242 -3.4173591100462986
0.6688189175628634 -3.218036299359391
0.6687999201225017 -3.002898573827895
0.6687910756926615 -2.7752010096494826
0.6687896997528762 -2.5379144262865063
0.6687898253508839 -2.293724049875795
0.6687897365884463 -2.0449356201227453
0.6687884039637275 -1.7933719099213155
0.6687847308033542 -1.540267360310317
0.6687744000477946 -1.2863134243248924
0.6687476293455713 -1.0318251521647062
0.6686954444112526 -0.7769370379233446
0.6686285287900066 -0.5217384453467045
0.6685921000750193 -0.2663414694635683
0.6688196437735171 -0.010908127159439951
0.7077691277190913 -0.011115747896175835
0.7079218304217625 -0.26637383570644096
0.7078542271326359 -0.5217324122674069
0.7077281766069313 -0.7769194919822684
0.7075826205174062 -1.0318077973550077
0.7074174293306114 -1.2862985770609243
0.7072015936122373 -1.540251082136279
0.70687180708248 -1.7933465716307846
0.7063051084441213 -2.044890285784564
0.7053192602937868 -2.293640704813269
0.7037681599423556 -2.537776183077834
0.7015479971279239 -2.7749914222267344
0.6985934794430853 -3.00260468023334
0.6948377250514113 -3.2176477033340034
0.690226214164135 -3.416873447813939
0.6847627174892399 -3.596768726756774
0.6785685648769163 -3.753590209298541
0.671946598448155 -3.8834790477823087
0.6653734619755574 -3.982649978780275
0.6595365968694805 -4.047686627174662
0.6564527073808673 -4.07614026806251
0.6533688178922534 -4.047686627174519
0.6475319527861768 -3.982649978779989
0.6409588163135828 -3.883479047781898
0.6343368498848271 -3.7535902092980336
0.6281426972725104 -3.5967687267561965
0.6226792005976209 -3.416873447813311
0.6180676897103503 -3.2176477033333444
0.6143119353186828 -3.0026046802326682
0.6113574176338503 -2.774991422226071
0.6091372548194243 -2.5377761830771983
0.6075861544679981 -2.2936407048126757
0.6066003063176667 -2.0448902857840228
0.6060336076793097 -1.793346571630302
0.6057038211495532 -1.5402510821358595
0.6054879854311797 -1.2862985770605733
0.6053227942443853 -1.0318077973547228
0.6051772381548601 -0.7769194919820509
0.6050511876291556 -0.5217324122672548
0.604983584340029 -0.2663738357063556
0.6051362870427 -0.011115747896158651
0.7714208594267566 -0.01127413761916787
0.7715232036834568 -0.26640468140883455
0.771427788242836 -0.5217216137336116
0.7712455513181704 -0.7768944162525154
0.771009998809025 -1.0317776148004798
0.7707100812337084 -1.2862641205421106
0.7702927326389193 -1.540204655423712
0.7696144002190286 -1.7932634531164862
0.7683958864880683 -2.0447174680702322
0.7663185506083273 -2.2933103449322276
0.7631162187987525 -2.5372353528729756
0.7586054331712682 -2.774206146224473
0.7526496592612711 -3.0015489952895367
0.7451171772628592 -3.216295185812356
0.7358822044512893 -3.415205226713184
0.7248747944631087 -3.5947880756928687
0.7121661034305583 -3.7513412894925913
0.6980363115592313 -3.8810579437616184
0.6830416689289928 -3.980210299054048
0.6683671854160409 -4.045582686982758
0.6564527073808512 -4.075140623693237
0.6445382293456615 -4.045582686982615
0.6298637458327115 -3.980210299053763
0.6148691032024798 -3.8810579437612085
0.6007393113311634 -3.751341289492086
0.5880306202986247 -3.5947880756922936
0.5770232103104551 -3.415205226712558
0.5677882374988954 -3.2162951858116986
0.5602557555004946 -3.0015489952888674
0.5542999815905085 -2.7742061462238112
0.5497891959630341 -2.537235352872342
0.5465868641534679 -2.293310344931636
0.544509528273733 -2.044717468069692
0.5432910145427761 -1.7932634531160039
0.5426126821228873 -1.5402046554232922
0.542195333528099 -1.2862641205417598
0.5418954159527827 -1.0317776148001947
0.5416598634436375 -0.7768944162522979
0.5414776265189721 -0.5217216137334597
0.5413822110783513 -0.2664046814087491
0.5414845553350515 -0.011274137619150517
0.835058582919129 -0.011392322881735242
0.8351223742403581 -0.2664323677841262
0.8350023623746254 -0.5217065417630667
0.8347674657357322 -0.7768621863192736
0.8344457558239597 -1.0317354148619915
0.834016524393452 -1.286211033315403
0.8333890541437885 -1.5401235696113216
0.8323040048080456 -1.7930950292053405
0.83034805893399 -2.0443629418823086
0.8270836376590828 -2.2926678939248855
0.8221461335621538 -2.5362317001368995
0.8152769911559211 -2.772792090664638
0.8062673060572914 -2.9996823119288365
0.7949124400284168 -3.213932118621654
0.7810051369997774 -3.4123071865437486
0.7643906619222073 -3.5913400737680514
0.74506688490294 -3.7473762398100465
0.7233096335131304 -3.8766798895757435
0.6998928989652231 -3.975657036687591
0.6764592090566651 -4.041336317478775
0.6564527073808355 -4.072276319029455
0.636446205705007 -4.041336317478632
0.6130125157964531 -3.975657036687307
0.5895957812485554 -3.8766798895753363
0.5678385298587603 -3.7473762398095443
0.5485147528395092 -3.5913400737674794
0.531900277761955 -3.412307186543126
0.5179929747333312 -3.213932118621
0.5066381087044722 -2.99968231192817
0.4976284236058575 -2.77279209066398
0.4907592811996389 -2.5362317001362684
0.485821777102722 -2.2926678939242957
0.4825573558278238 -2.0443629418817695
0.48060140995377365 -1.7930950292048589
0.47951636061803393 -1.5401235696109024
0.47888889036837173 -1.2862110333150523
0.4784596589378644 -1.0317354148617066
0.4781379490260922 -0.7768621863190562
0.47790305238719916 -0.5217065417629148
0.47778304052146664 -0.2664323677840409
0.4778468318426957 -0.011392322881717733
0.8986945206875548 -0.011476632662457981
0.8987256324240123 -0.2664554112891784
0.8985826672916135 -0.5216875162346121
0.8982985834565745 -0.7768233496084803
0.8978949657141483 -1.0316822185218881
0.8973401984731679 -1.2861390885638864
0.896476144326593 -1.5399956275700208
0.8949252143668907 -1.7928126628367982
0.8921582311878469 -2.043790725686651
0.8876330428805588 -2.291680660918785
0.8809044472676231 -2.534738807656918
0.8716344526390226 -2.770727099104967
0.8595342570529152 -2.996984664272278
0.844321489290358 -3.210538885252345
0.8257061727838079 -3.408157984557234
0.8034383875647579 -3.5863971720345327
0.7774334107625244 -3.7416597057026366
0.7480024470463993 -3.8703220068983617
0.7161770250012263 -3.968985728324429
0.6842227950118778 -4.035028535884794
0.6564527073808202 -4.067640656916785
0.6286826197497647 -4.035028535884652
0.5967283897604228 -3.968985728324147
0.5649029677152625 -3.8703220068979585
0.5354720039991551 -3.741659705702139
0.509467027196942 -3.5863971720339656
0.4871992419779126 -3.4081579845566163
0.46858392547138245 -3.210538885251695
0.45337115770884606 -2.9969846642716162
0.4412709621227579 -2.7707270991043127
0.4320009674941752 -2.5347388076562907
0.4252723718812553 -2.2916806609181983
0.420747183573979 -2.043790725686114
0.41798020039494266 -1.7928126628363175
0.4164292704352449 -1.5399956275696018
0.41556521628867205 -1.2861390885635358
0.41501044904769246 -1.031682218521603
0.4146068313052665 -0.7768233496082628
0.4143227474702276 -0.5216875162344603
0.414179782337829 -0.266455411289093
0.41421089407428635 -0.01147663266244036
0.9623364464220365 -0.011532820419327867
0.9623392196448852 -0.2664726295915381
0.9621739679352709 -0.5216646694117142
0.9618439093454771 -0.77677850505604
0.9613636833664302 -1.0316193076377724
0.9606788212637658 -1.2860451754651918
0.9595432129691257 -1.5398053155720557
0.9574718761684251 -1.7923918290006375
0.9538311762491596 -2.0429758306915984
0.9479971318326014 -2.2903298084143757
0.9394495237349453 -2.5327431792086026
0.9277546758752543 -2.7679988692940523
0.9125384084109516 -2.9934439593329523
0.8934429463469129 -3.2061038718915924
0.8701005901819158 -3.4027461828142465
0.8421649184041131 -3.579946227917614
0.8094809680193157 -3.734180504049339
0.7724031116714072 -3.8619808683466688
0.7322602287253799 -3.9602215581521385
0.6919314363480592 -4.026708348017098
0.6564527073808052 -4.061252020684416
0.6209739784135535 -4.026708348016957
0.5806451860362423 -3.9602215581518587
0.5405023030902308 -3.86198086834627
0.5034244467423432 -3.7341805040488465
0.4707404963575702 -3.579946227917053
0.44280482457979253 -3.4027461828136336
0.41946246841482043 -3.206103871890949
0.40036700635080663 -2.993443959332296
0.38515073888652784 -2.7679988692934026
0.37345589102685867 -2.5327431792079795
0.3649082829292214 -2.290329808413793
0.3590742385126778 -2.0429758306910633
0.3554335385934221 -1.7923918290001584
0.3533622017927276 -1.5398053155716376
0.35222659349809043 -1.2860451754648414
0.3515417313954271 -1.0316193076374875
0.3510615054163804 -0.7767785050558226
0.3507314468265869 -0.5216646694115623
0.3505661951169726 -0.26647262959145274
0.35056896833982126 -0.011532820419310145
1.0259897098533404 -0.011566402065591177
1.0259685353647177 -0.2664833285931485
1.0257817442239128 -0.5216379763726906
1.0254083561276777 -0.7767283815340472
1.024854491305772 -1.0315469138933333
1.0240264764299798 -1.2859229563950625
1.02258326759139 -1.53953698426335
1.0199399161362492 -1.7918116263613297
1.0153806092706283 -2.041902426047835
1.008219592390653 -2.288606046837069
0.9978382197025683 -2.530237408985834
0.9837075107191331 -2.7646004267323243
0.9653640181260773 -2.9890526399550446
0.9423713317549713 -3.2006197163406775
0.9142931410299845 -3.3960674126404538
0.8807194036675349 -3.571989981305169
0.8414276406998286 -3.7249480899561713
0.7968057769159304 -3.8516737689519798
0.7484522354810857 -3.9493872805639314
0.6997705850218012 -4.0163796285083055
0.6564527073807901 -4.05307893838199
0.6131348297397825 -4.016379628508167
0.56445317928051 -3.9493872805636556
0.5160996378456841 -3.8516737689515854
0.4714777740618106 -3.724948089955686
0.43218601109413246 -3.5719899813046143
0.39861227373171204 -3.3960674126398476
0.3705340830067549 -3.2006197163400407
0.34754139663567823 -2.989052639954395
0.32919790404265054 -2.7646004267316804
0.31506719505924113 -2.530237408985217
0.30468582237117825 -2.2886060468364904
0.29752480549122023 -2.0419024260473035
0.29296549862561144 -1.7918116263608528
0.29032214717047844 -1.539536984262933
0.28887893833189243 -1.2859229563947125
0.2880509234561017 -1.0315469138930484
0.2874970586341963 -0.77672838153383
0.2871236705379615 -0.5216379763725387
0.28693687939715684 -0.26648332859306323
0.2869157049085342 -0.011566402065573396
1.0896577710537316 -0.011582851543717108
1.0896180334195642 -0.26648733187937296
1.089411576247297 -0.5216074396510806
1.0889971101738625 -0.7766736240700429
1.088369520103371 -1.0314643935637053
1.0873782813839836 -1.2857644546217797
1.0855876309461439 -1.5391738260369905
1.0823269491411098 -1.7910566072742573
1.076836302697536 -2.040563635099509
1.068340635409383 -2.2865048589717993
1.056125217542064 -2.5272182108472943
1.0395621620160567 -2.7605289787972813
1.018092562048505 -2.9838069445067865
0.9911992659862148 -3.1940821345091237
0.9583927388308664 -3.3881234493391337
0.9192326684949467 -3.5625445636556408
0.8734756511221778 -3.713993802282168
0.821498935730318 -3.8394341398437395
0.7650426648549099 -3.936492298664211
0.7079102867534078 -4.004006061115483
0.6564527073807752 -4.043049271631234
0.604995128008147 -4.004006061115346
0.5478627499066587 -3.9364922986639397
0.49140647903127294 -3.839434139843351
0.4394297636394414 -3.7139938022816894
0.39367274626670506 -3.5625445636550936
0.3545126759308187 -3.388123449338535
0.32170614877550446 -3.194082134508494
0.29481285271324775 -2.9838069445061444
0.273343252745729 -2.7605289787966445
0.25678019721975087 -2.527218210846683
0.2445647793524569 -2.2865048589712256
0.23606911206432346 -2.0405636350989806
0.23057846562076426 -1.7910566072737828
0.22731778381573964 -1.5391738260365748
0.22552713337790478 -1.2857644546214302
0.2245358946585191 -1.0314643935634207
0.223908304588028 -0.7766736240698258
0.223493838514594 -0.5216074396509287
0.22328738134232695 -0.26648733187928764
0.22324764370815953 -0.01158285154369933
1.153342111755139 -0.011587703371129984
1.1532911422343843 -0.26648506068410294
1.1530694560772146 -0.5215732167126047
1.1526155790108248 -0.7766148078178713
1.1519087120831777 -1.031369034346674
1.150727952638122 -1.2855591142852565
1.1485475357590733 -1.5387010881626677
1.1446531727073157 -1.7901202442063588
1.1382242731650565 -2.038956355887484
1.128399827155751 -2.2840254073100814
1.1143641365424692 -2.523686373715129
1.0953849906036848 -2.7557854136063087
1.0708060116284055 -2.9777070439136004
1.0400257480674344 -3.186490662354001
1.0025037201157678 -3.378918257671452
0.9578191297824351 -3.5516343912834407
0.9057843898545216 -3.701372052408436
0.8467500018608407 -3.825314533969587
0.7823371537430481 -3.9215362826714775
0.7165683532805083 -3.9895117996967326
0.6564527073807599 -4.0310412195013425
0.5963370614810173 -3.9895117996965985
0.5305682610184933 -3.921536282671211
0.4661554129007266 -3.8253145339692054
0.4071210249070783 -3.701372052407965
0.35508628497920136 -3.5516343912829025
0.3104016946459061 -3.378918257670862
0.27287966669427843 -3.18649066235338
0.24209940313334535 -2.9777070439129676
0.21752042415810263 -2.7557854136056803
0.19854127821935147 -2.5236863737145256
0.18450558760609764 -2.2840254073095134
0.17468114159681397 -2.03895635588696
0.16825224205457157 -1.7901202442058874
0.16435787900282497 -1.5387010881622538
0.16217746212378226 -1.2855591142849074
0.1609967026787291 -1.0313690343463893
0.16028983575108235 -0.7766148078176541
0.1598359586846931 -0.5215732167124529
0.15961427252752344 -0.2664850606840176
0.1595633030067687 -0.011587703371112215
1.2170416058240692 -0.011586563310447596
1.216990179505513 -0.26647773058846386
1.2167623600742876 -0.5215359070558834
1.216269384468806 -0.7765516919419428
1.2154695233557458 -1.0312565428754221
1.2140664452468166 -1.2852934887330025
1.2114692207590527 -1.538109834645035
1.2069320844833848 -1.788999407744197
1.1995707596403435 -2.0370806205558605
1.188436750400527 -2.2811707574788835
1.1726083496731161 -2.5196461409677
1.1512440650972746 -2.750374391608685
1.1235846486385062 -2.9707569704765264
1.088945477516721 -3.1778490980508365
1.046748312073244 -3.368459495696766
0.9965985661773564 -3.539282604526079
0.938431131124595 -3.687144076372696
0.8727049706198867 -3.809409881906733
0.8007818699851879 -3.9045373037356805
0.7260974094473424 -3.9727661700510395
0.6564527073807445 -4.0168552151957835
0.5868080053141537 -3.972766170050908
0.512123544776326 -3.9045373037354203
0.44020044414165643 -3.809409881906359
0.3744742836369855 -3.6871440763722343
0.3163068485842651 -3.539282604525551
0.2661571026884197 -3.368459495696187
0.22395993724498522 -3.177849098050226
0.18932076612324306 -2.970756970475903
0.1616613496645149 -2.750374391608066
0.14029706508871048 -2.5196461409671045
0.12446866436133011 -2.281170757478322
0.11333465512153809 -2.037080620555342
0.10597333027851545 -1.7889994077437288
0.10143619400286001 -1.538109834644623
0.09883896951510326 -1.2852934887326546
0.09743589140617734 -1.031256542875138
0.09663603029311794 -0.7765516919417257
0.09614305468763655 -0.5215359070557316
0.09591523525641149 -0.2664777305883785
0.09586380893785537 -0.01158656331042978
1.2807511877019349 -0.01158492488111021
1.2807162254123428 -0.2664678975995194
1.2804995388805256 -0.5214967920840466
1.2799635790220942 -0.7764822874144681
1.2790462283936477 -1.0311187799602544
1.27739044735929 -1.2849579781836864
1.274361241276051 -1.537395180574421
1.2691787495648852 -1.7876932890260429
1.260901860844381 -2.0349401441881945
1.2484908438127318 -2.2779476197943938
1.230912695000007 -2.5151056634156137
1.2072060667263844 -2.74430349269665
1.1765073634885144 -2.9629644084061826
1.1380625651046448 -3.1681677640979644
1.0912527415963549 -3.356759945060484
1.0357060616143647 -3.5255064066157855
0.9714816841343831 -3.6713510319825002
0.8992808395511096 -3.7918312902904123
0.8205871972699968 -3.885662861134931
0.7377768388748261 -3.953612976375275
0.6564527073807286 -3.999999999999994
0.5751285758866389 -3.9536129763751475
0.49231821749148824 -3.8856628611346764
0.4136245752104091 -3.7918312902900473
0.34142373062717796 -3.6713510319820486
0.277199353147242 -3.5255064066152686
0.22165267316529885 -3.3567599450599155
0.17484284965705554 -3.168167764097365
0.1363980512732334 -2.96296440840557
0.10569934803540802 -2.7443034926960412
0.08199271976182562 -2.515105663415027
0.06441457094913447 -2.277947619793839
0.05200355391751206 -2.034940144187681
0.04372666519702803 -1.7876932890255783
0.03854417348587636 -1.5373951805740116
0.03551496740264548 -1.2849579781833396
0.033859186368291626 -1.0311187799599706
0.03294183573984632 -0.7764822874142508
0.03240587588141528 -0.5214967920838949
0.03218918934959804 -0.26646789759943407
0.03215422706000618 -0.01158492488109239
SCALARS Stress float 6
LOOKUP_TABLE default
-1256.6821201122334 -2059.006878777015 -1581.7754440265817 -27.209676842285667 0.0 0.0
1360.890344879507 799.9502250937212 1017.7757958650594 -20.646830507449963 0.0 0.0
618.2783947172605 164.75240755088134 253.2661007666658 -41.53261083956056 0.0 0.0
495.452131494168 30.20811656026859 163.34468072855782 -1.1675657020411834 0.0 0.0
620.2339179291221 80.71982978830614 254.03909726125005 2.779500905268931 0.0 0.0
741.4862785473317 132.60236709342553 381.0924988126901 1.8039238881957007 0.0 0.0
871.1411942810962 187.27753348789687 503.32512223953165 0.5196402172990586 0.0 0.0
1004.2453867142849 259.0799139593489 617.2683835238312 -0.9309166319922982 0.0 0.0
1146.7950343913383 345.9004623078836 734.6522539616503 -2.612524392133703 0.0 0.0
1306.4269630796857 454.44892403132474 869.1956153498472 -4.439261398166359 0.0 0.0
1488.648118755327 589.8684439094752 1027.8314113713757 -6.177548405502136 0.0 0.0
1693.5205366024702 752.5245808327105 1211.2096829346337 -7.527353655160089 0.0 0.0
1915.647448284224 935.6551864379992 1413.399887979222 -8.35278834969158 0.0 0.0
2147.6227910505754 1131.6641354105375 1626.9705615620542 -8.980676850882048 0.0 0.0
2379.94022687062 1330.8708235266636 1842.3166559048186 -9.38342036869762 0.0 0.0
2601.6222677553587 1522.3504128080351 2048.5163819486042 -9.480117661089142 0.0 0.0
2801.200107593929 1695.0380508003661 2234.3485618952714 -9.10374320429555 0.0 0.0
2967.2546759784846 1838.0460968142095 2388.6809426763125 -8.201123190179914 0.0 0.0
3097.8205375732055 1949.9888597431795 2509.719683045103 -7.113202539137501 0.0 0.0
3178.383717809057 2017.1946461274133 2583.3743309708807 -9.157187080806757 0.0 0.0
3169.518845941749 2007.2767895999204 2574.1854887938257 1.1295853141746193e-11 0.0 0.0
3178.3837178072927 2017.1946461256798 2583.3743309694814 9.157187080729564 0.0 0.0
3097.8205375724 1949.9888597424215 2509.7196830445405 7.113202539173464 0.0 0.0
2967.254675976531 1838.0460968123314 2388.680942674769 8.201123190246133 0.0 0.0
2801.2001075952576 1695.0380508018727 2234.3485618958803 9.103743204401244 0.0 0.0
2601.622267753975 1522.3504128067725 2048.5163819473714 9.480117661214885 0.0 0.0
2379.940226869176 1330.8708235253764 1842.3166559034732 9.38342036856393 0.0 0.0
2147.6227910488033 1131.6641354089454 1626.9705615605221 8.980676850702121 0.0 0.0
1915.6474482816725 935.6551864356361 1413.3998879772003 8.352788349680802 0.0 0.0
1693.5205366005973 752.5245808310407 1211.209682933197 7.527353655063418 0.0 0.0
1488.6481187545464 589.8684439089557 1027.8314113706074 6.177548405196866 0.0 0.0
1306.4269630790363 454.4489240309704 869.1956153492363 4.439261398428808 0.0 0.0
1146.7950343892328 345.90046230602127 734.6522539600996 2.612524392049469 0.0 0.0
1004.2453867144544 259.0799139598146 617.2683835238187 0.930916632144287 0.0 0.0
871.141194279996 187.27753348702703 503.3251222386323 -0.5196402173048273 0.0 0.0
741.4862785473744 132.60236709384017 381.09249881247865 -1.80392388810424 0.0 0.0
620.2339179292135 80.71982978879086 254.03909726117223 -2.7795009053772883 0.0 0.0
495.4521314937483 30.2081165600792 163.3446807283459 1.1675657020161445 0.0 0.0
618.2783947166355 164.75240755059934 253.26610076634648 41.53261083963055 0.0 0.0
1360.890344879 799.9502250931746 1017.775795864488 20.646830507410762 0.0 0.0
-1256.6821201094506 -2059.006878774246 -1581.7754440238348 27.209676841786486 0.0 0.0
-1600.345878831005 -2374.0785974429295 -1879.981235119446 -29.173363552036378 0.0 0.0
928.7795193089187 441.6178246376943 639.2649545554315 -28.569214439792887 0.0 0.0
431.8547366508926 65.0461623000574 147.95853093149253 -36.01306663310049 0.0 0.0
436.29546049516307 6.709641755277013 135.21606632690356 -15.65295731275091 0.0 0.0
549.8885922568936 36.17999421080353 204.33214802736137 -16.565546998350406 0.0 0.0
652.1251366020011 52.0409026274477 300.2913086628866 -22.226615002755302 0.0 0.0
739.8119640263317 71.00620247212824 388.2223753067755 -23.86224407835646 0.0 0.0
823.9093488246631 92.15299492631975 453.752454646716 -24.237467310851365 0.0 0.0
900.9188839820055 112.81696160760023 505.36022567529506 -24.85611388216666 0.0 0.0
972.6242603300777 133.70338011758565 552.2764481163521 -25.65213783773998 0.0 0.0
1041.8343391517758 156.7884683127809 598.597208463274 -26.095228561502715 0.0 0.0
1110.703497805574 183.33071397127972 646.3444013082265 -26.09143582600064 0.0 0.0
1178.7748236220643 213.44097146544743 695.4519859396773 -25.68912783952776 0.0 0.0
1243.4251369871931 242.57544126948423 742.3515606276569 -25.09381537405885 0.0 0.0
1299.1876759504028 265.69219411340526 781.796087880232 -24.327492782072774 0.0 0.0
1341.6189255122317 278.33370502573354 809.3389489555245 -23.16745029524734 0.0 0.0
1367.9081402963027 277.96426220981607 822.3034817683128 -21.365679462460854 0.0 0.0
1378.3823502643556 265.41909529814194 821.2652101344186 -18.95805350065145 0.0 0.0
1367.9312623113583 236.37774385862494 801.622077552339 -16.659643443023867 0.0 0.0
1295.5829946600877 151.1425100095945 723.5357600112093 -17.142140532317722 0.0 0.0
1174.0508290916919 29.34353048154769 602.9939612471721 6.874145697111089e-11 0.0 0.0
1295.5829946593988 151.14251000892287 723.5357600106063 17.142140532271085 0.0 0.0
1367.9312623121318 236.3777438594882 801.6220775529866 16.6596434430669 0.0 0.0
1378.3823502627943 265.4190952966619 821.2652101333862 18.958053500752094 0.0 0.0
1367.9081402973768 277.9642622110173 822.3034817690827 21.365679462606888 0.0 0.0
1341.6189255117745 278.3337050253944 809.3389489551738 23.167450295209058 0.0 0.0
1299.1876759498862 265.6921941130345 781.7960878797853 24.327492781995716 0.0 0.0
1243.4251369864412 242.57544126891776 742.3515606270392 25.09381537387862 0.0 0.0
1178.7748236213786 213.4409714649786 695.4519859392267 25.689127839605668 0.0 0.0
1110.7034978051242 183.33071397105624 646.3444013079563 26.091435826051864 0.0 0.0
1041.8343391518854 156.78846831312188 598.5972084633551 26.095228561312695 0.0 0.0
972.624260329742 133.70338011751693 552.2764481161233 25.652137837738472 0.0 0.0
900.9188839810673 112.81696160689103 505.3602256746362 24.856113881978906 0.0 0.0
823.9093488249118 92.15299492688726 453.75245464685054 24.23746731080724 0.0 0.0
739.8119640256011 71.00620247165861 388.2223753061938 23.862244078425952 0.0 0.0
652.1251366022445 52.04090262807119 300.29130866285 22.226615002681612 0.0 0.0
549.8885922568145 36.179994211111726 204.3321480272695 16.56554699831203 0.0 0.0
436.2954604948389 6.709641755262167 135.2160663268069 15.652957312775737 0.0 0.0
431.85473665053604 65.04616229970601 147.95853093127764 36.01306663317865 0.0 0.0
928.7795193083238 441.6178246372086 639.2649545547732 28.56921443967547 0.0 0.0
-1600.3458788290561 -2374.078597440888 -1879.9812351173714 29.173363551648354 0.0 0.0
-1342.0602278079473 -2080.9571998042106 -1594.534291705054 -67.49090079424786 0.0 0.0
743.2955456886069 350.27089528488847 495.40254728640906 -96.81044312013282 0.0 0.0
299.91741724364704 73.99419835487399 112.20582517801274 -39.367141437752835 0.0 0.0
374.3405084249427 1.6502460984780547 112.83609440045119 -37.328634640680306 0.0 0.0
504.75956972693206 26.468128740585378 174.82028666852736 -39.001592698975884 0.0 0.0
618.5848175249362 46.53269328611077 269.0506470497717 -42.1387128889975 0.0 0.0
709.9165170236137 65.92204295029461 363.928595548243 -44.26428981289617 0.0 0.0
794.0187026186685 83.34785232936122 432.26081683921416 -45.17482735804752 0.0 0.0
868.0964785751166 100.46032157851258 482.2225456761539 -46.498914058946404 0.0 0.0
935.8835385899142 117.3291818376397 525.3994655097049 -47.67831586417537 0.0 0.0
1001.5999828226018 137.37998945159302 568.4728818800372 -47.97574605933266 0.0 0.0
1067.3488223910188 161.97922446549495 613.6893490097418 -47.45210039719941 0.0 0.0
1132.7401922625734 189.16271687342243 660.0154557642462 -46.53549611188158 0.0 0.0
1193.9436229196253 216.0215011992239 704.074569387496 -45.33110835447536 0.0 0.0
1247.7947287133027 237.72754337751934 741.8532752734371 -43.81634608055015 0.0 0.0
1289.998552607647 250.51430740856892 769.3408254561433 -41.71020179905231 0.0 0.0
1317.9878009607312 251.99299047772905 784.0829319946404 -38.665975138239325 0.0 0.0
1327.9141577276425 238.85615679485286 782.5525659721175 -34.86902993081808 0.0 0.0
1307.0804967354195 199.43649128249066 752.6995717218158 -31.27028357248295 0.0 0.0
1266.0482921728128 145.77694883614112 705.7113331483058 -28.871366462776077 0.0 0.0
1124.1142531971082 4.250288484280816 565.295076015982 2.4623858507766272e-11 0.0 0.0
1266.0482921731611 145.77694883652816 705.7113331485336 28.871366462800495 0.0 0.0
1307.0804967361312 199.43649128324702 752.6995717223365 31.270283572469594 0.0 0.0
1327.9141577270857 238.85615679440426 782.552565971774 34.869029930866 0.0 0.0
1317.9878009611461 251.99299047830092 784.0829319948568 38.66597513842583 0.0 0.0
1289.9985526073567 250.51430740838532 769.3408254559766 41.71020179899515 0.0 0.0
1247.794728712991 237.7275433773589 741.8532752731691 43.816346080548286 0.0 0.0
1193.9436229191206 216.02150119890527 704.0745693870975 45.33110835439737 0.0 0.0
1132.7401922623521 189.16271687337718 660.0154557641762 46.535496111936446 0.0 0.0
1067.348822391071 161.979224465782 613.6893490097813 47.45210039723279 0.0 0.0
1001.5999828220235 137.37998945120486 568.4728818796916 47.975746059144186 0.0 0.0
935.8835385901756 117.32918183816955 525.3994655098437 47.67831586407655 0.0 0.0
868.0964785745899 100.46032157821136 482.22254567582036 46.49891405887176 0.0 0.0
794.0187026189699 83.3478523299554 432.2608168393298 45.17482735787928 0.0 0.0
709.9165170234114 65.92204295041584 363.92859554798036 44.2642898129799 0.0 0.0
618.5848175246698 46.532693286113265 269.05064704940975 42.13871288876988 0.0 0.0
504.75956972682036 26.46812874099964 174.8202866684904 39.00159269894691 0.0 0.0
374.3405084245833 1.6502460980253169 112.83609440022276 37.32863464071304 0.0 0.0
299.91741724350817 73.99419835470388 112.20582517792033 39.36714143770129 0.0 0.0
743.29554568796 350.27089528462835 495.4025472857945 96.81044312000857 0.0 0.0
-1342.0602278058232 -2080.9571998021233 -1594.5342917028872 67.4909007938328 0.0 0.0
-1098.7405963268911 -1806.9560125040464 -1329.902380849968 -81.16340803619738 0.0 0.0
567.9525409794727 254.5503269492279 365.3212760178027 -145.60603651103514 0.0 0.0
217.5477486740423 62.69769656416226 84.07363357146134 -60.95214459041331 0.0 0.0
311.23293930363525 7.308917621950622 95.40048798092874 -59.80450401438552 0.0 0.0
449.2524616799204 15.205737383786786 145.16816227962286 -63.923706885484535 0.0 0.0
572.6276508103339 39.57272260797515 232.96360392387507 -63.35214647280837 0.0 0.0
676.6386465900841 58.890279503103514 333.75554337814214 -65.9945668496568 0.0 0.0
759.2410920119597 74.71525732258866 407.0011603967484 -66.33241672540663 0.0 0.0
831.1769915316733 88.3429660870224 456.7373578562 -67.78241335270425 0.0 0.0
895.4303055334942 101.57286256000566 496.83910112493515 -68.95382165496031 0.0 0.0
957.3035671239654 118.27299525790635 536.3732321348562 -68.92290462850428 0.0 0.0
1020.00076040388 139.94928224050295 578.6023014378401 -67.99015824231992 0.0 0.0
1082.1329825157297 165.19085037399583 622.3622739098188 -66.55964694180726 0.0 0.0
1140.4287750426008 188.7782801112952 663.3476972027916 -64.86085749178562 0.0 0.0
1191.979137225263 208.8849732542101 699.1707098019056 -62.66844325043781 0.0 0.0
1234.6214240353775 222.655341576364 727.366349263211 -59.72803412411275 0.0 0.0
1264.0422980712424 225.44947528982 743.5015766203144 -55.842611852518516 0.0 0.0
1273.339678454945 211.47435289391834 741.3075146080369 -51.14350869610959 0.0 0.0
1258.9172448002462 178.1794210223665 717.6863428197805 -45.832239548376826 0.0 0.0
1234.3712403468971 140.34372048131502 686.6904542270568 -39.08128604720817 0.0 0.0
1035.7033269773392 -57.491524391761004 490.4698925475235 2.3135271476348862e-11 0.0 0.0
1234.3712403473735 140.3437204818502 686.690454227396 39.08128604741782 0.0 0.0
1258.9172448000556 178.17942102226417 717.6863428196938 45.832239548424 0.0 0.0
1273.339678454911 211.47435289394946 741.3075146081774 51.14350869625761 0.0 0.0
1264.0422980714318 225.44947529014186 743.5015766203315 55.842611852650435 0.0 0.0
1234.6214240342813 222.6553415753572 727.3663492626355 59.72803412407992 0.0 0.0
1191.9791372244233 208.88497325346648 699.170709801374 62.66844325028126 0.0 0.0
1140.4287750422793 188.7782801111328 663.3476972025144 64.86085749169153 0.0 0.0
1082.1329825141065 165.19085037246387 622.3622739087516 66.55964694164786 0.0 0.0
1020.0007604048868 139.949282241765 578.6023014385769 67.9901582422934 0.0 0.0
957.3035671227416 118.2729952568625 536.3732321340509 68.92290462834298 0.0 0.0
895.4303055335204 101.5728625602554 496.83910112494897 68.95382165486109 0.0 0.0
831.1769915310917 88.34296608674919 456.7373578558238 67.78241335278945 0.0 0.0
759.241092012582 74.71525732359598 407.00116039706313 66.33241672553856 0.0 0.0
676.6386465892833 58.89027950256089 333.7555433774817 65.99456684964635 0.0 0.0
572.627650810037 39.57272260802196 232.9636039235407 63.352146472666334 0.0 0.0
449.252461679987 15.205737384447701 145.16816227979018 63.92370688546907 0.0 0.0
311.2329393035573 7.308917621870675 95.40048798088283 59.804504014312954 0.0 0.0
217.54774867402452 62.697696564184696 84.07363357146276 60.95214459025557 0.0 0.0
567.9525409787744 254.55032694897528 365.32127601723073 145.60603651105166 0.0 0.0
-1098.7405963250317 -1806.95601250212 -1329.9023808479958 81.16340803592915 0.0 0.0
-886.9774804193144 -1569.0615597487752 -1097.2666190061586 -79.79983978393871 0.0 0.0
438.6159811889806 169.94252192798714 263.49911744145413 -177.98290868977244 0.0 0.0
159.31094925328043 49.11586045182968 62.52804291153304 -91.45689341371451 0.0 0.0
253.88971981722554 13.51893989546215 80.22031232797647 -84.2039697581638 0.0 0.0
384.0668352058523 8.706520260641252 118.75290851932755 -89.92303741577442 0.0 0.0
517.6292343388664 27.03230363393772 192.86323116547882 -88.66210299163707 0.0 0.0
631.8168970664692 50.517459431777056 295.2489358341651 -87.95130350902625 0.0 0.0
718.643839807392 66.74890246276645 377.2116021936532 -87.907745568614 0.0 0.0
789.4884101579888 76.81369063652535 428.353211246084 -88.64731063139344 0.0 0.0
850.3429106034336 86.18642082185521 465.8818694913192 -89.4382528920278 0.0 0.0
908.7530262008585 99.29821937755504 502.0477536074546 -88.96953520254417 0.0 0.0
967.8701809182817 117.87665574254795 540.9592435553827 -87.60968834913128 0.0 0.0
1026.827017503762 139.94021324962512 581.5700597674974 -85.839863972104 0.0 0.0
1082.0749190805218 161.97021737150567 620.2902377597924 -83.62906812729173 0.0 0.0
1131.5893505888666 180.02328118916375 654.0817631979941 -80.81639751658457 0.0 0.0
1173.4927941530348 192.84903515009492 681.4214132397541 -77.2733616205172 0.0 0.0
1204.6637455519888 197.74264074762098 699.4926075990229 -72.87934211616837 0.0 0.0
1218.997373281284 188.52840124216272 702.2049625646001 -67.51080274127546 0.0 0.0
1212.7795719619621 162.62705714107824 686.360405605037 -60.27715960893388 0.0 0.0
1196.0710414832308 131.12090988933278 662.3900363249276 -49.54477495024058 0.0 0.0
927.7796200180802 -135.78711167712336 397.817191586902 -1.5498713423767185e-11 0.0 0.0
1196.071041481645 131.1209098877579 662.3900363238495 49.54477495036697 0.0 0.0
1212.779571962093 162.6270571412459 686.3604056052166 60.27715960897556 0.0 0.0
1218.997373281103 188.52840124208515 702.2049625645901 67.5108027411947 0.0 0.0
1204.663745550837 197.74264074655093 699.4926075980985 72.87934211626275 0.0 0.0
1173.492794151871 192.84903514907322 681.4214132390495 77.27336162050963 0.0 0.0
1131.589350588162 180.0232811885981 654.0817631975608 80.81639751653678 0.0 0.0
1082.0749190801062 161.9702173712659 620.2902377595012 83.62906812735861 0.0 0.0
1026.8270175017335 139.94021324769736 581.5700597661084 85.83986397194876 0.0 0.0
967.8701809183627 117.87665574273943 540.9592435554807 87.60968834902394 0.0 0.0
908.7530262004129 99.29821937733284 502.0477536070622 88.9695352024059 0.0 0.0
850.3429106029351 86.18642082156346 465.88186949100884 89.43825289189252 0.0 0.0
789.4884101571552 76.81369063597819 428.3532112455736 88.64731063147914 0.0 0.0
718.6438398076334 66.74890246341708 377.21160219371274 87.90774556873406 0.0 0.0
631.8168970657659 50.517459431359384 295.24893583353366 87.95130350895462 0.0 0.0
517.6292343389028 27.03230363435945 192.863231165412 88.66210299149556 0.0 0.0
384.0668352054017 8.706520260634953 118.75290851919651 89.9230374157014 0.0 0.0
253.88971981726746 13.518939895834443 80.2203123280963 84.2039697581391 0.0 0.0
159.31094925333804 49.11586045178258 62.52804291153616 91.45689341367806 0.0 0.0
438.6159811883645 169.9425219276411 263.49911744092265 177.98290868968238 0.0 0.0
-886.9774804178755 -1569.061559747062 -1097.2666190044492 79.79983978397657 0.0 0.0
-700.6314382005795 -1358.8470473873126 -890.2187602448423 -75.67683058492756 0.0 0.0
336.9325905542773 104.11556857371329 184.99781182459662 -197.0379720487567 0.0 0.0
115.38531575396954 33.867998582389255 44.77599430090764 -120.68746731939926 0.0 0.0
202.68468772002797 18.258164143985503 66.2867396882212 -108.89382632876632 0.0 0.0
314.5719496922145 5.954382622654881 95.55071866787965 -115.58867689043582 0.0 0.0
447.84141278595985 15.51817176743032 153.259635891474 -115.15175846504881 0.0 0.0
570.64598082423 41.36225253227294 249.0104465049764 -111.21141088863013 0.0 0.0
670.5298094231956 56.29358670792119 338.8136584591512 -110.51204624547125 0.0 0.0
740.140822619983 65.70966639113925 395.026356874782 -109.07074821748523 0.0 0.0
799.8219271503912 70.98477307945898 431.75481428382074 -109.13331313797099 0.0 0.0
854.712650835767 80.42555644265606 464.74897162113785 -108.09009450912427 0.0 0.0
910.2778457830821 95.84530632063392 500.3590880183168 -106.2677592909729 0.0 0.0
965.692871601929 115.13288886051913 537.848196186243 -104.14477983072815 0.0 0.0
1017.78104580621 133.948729395178 573.4161746376263 -101.64056608540645 0.0 0.0
1064.9079706923264 150.35421736121802 605.2221622442186 -98.33668977507992 0.0 0.0
1105.7583892657667 162.70381523951886 631.817350749985 -94.16828563183253 0.0 0.0
1139.1681999450734 169.11568323556764 651.725350326405 -89.52830373462788 0.0 0.0
1161.237564962421 167.38885472906395 662.0169823012692 -83.81706367940498 0.0 0.0
1164.7180204674885 150.2466126745068 655.4209070870522 -75.10230201462686 0.0 0.0
1152.7609792982826 121.13329065031925 635.0292265567685 -61.01885456041515 0.0 0.0
802.2578242961862 -226.97276247420385 290.13671119434593 4.8617110337545455e-11 0.0 0.0
1152.7609792973342 121.13329064949156 635.0292265561692 61.01885456062172 0.0 0.0
1164.718020467178 150.2466126742608 655.4209070868765 75.10230201487485 0.0 0.0
1161.2375649623789 167.38885472911147 662.0169823012657 83.8170636794692 0.0 0.0
1139.1681999447464 169.11568323533135 651.7253503261065 89.52830373466195 0.0 0.0
1105.7583892653531 162.7038152392179 631.8173507497676 94.16828563181696 0.0 0.0
1064.9079706923415 150.3542173613654 605.2221622442077 98.33668977507503 0.0 0.0
1017.781045806683 133.94872939587788 573.4161746379369 101.64056608544793 0.0 0.0
965.6928716013471 115.13288886010342 537.8481961858216 104.14477983068727 0.0 0.0
910.2778457819516 95.8453063197506 500.3590880175859 106.26775929101153 0.0 0.0
854.7126508355516 80.42555644272235 464.748971620951 108.09009450920514 0.0 0.0
799.8219271505315 70.98477307986659 431.75481428388275 109.13331313800091 0.0 0.0
740.1408226190978 65.70966639049792 395.0263568741953 109.07074821742323 0.0 0.0
670.5298094233881 56.29358670857846 338.8136584591883 110.51204624562277 0.0 0.0
570.6459808237906 41.362252532174665 249.01044650454043 111.21141088854903 0.0 0.0
447.8414127856274 15.518171767443757 153.25963589124282 115.15175846492 0.0 0.0
314.5719496919184 5.954382622657361 95.55071866781432 115.58867689028868 0.0 0.0
202.68468771997667 18.258164143971666 66.28673968820178 108.89382632873898 0.0 0.0
115.38531575394487 33.86799858240008 44.775994300903484 120.68746731925083 0.0 0.0
336.93259055367184 104.11556857329693 184.99781182409728 197.0379720484635 0.0 0.0
-700.631438199277 -1358.8470473856985 -890.218760243286 75.67683058497147 0.0 0.0
-539.3279725106099 -1167.242943416117 -705.9965614481775 -71.8940281118147 0.0 0.0
256.4354087808521 52.206454354932674 124.73339271634725 -208.95394817381816 0.0 0.0
80.15646845147299 19.183371241342325 29.801798199973156 -144.84500198669528 0.0 0.0
154.99584909766176 21.431518301496062 52.92927937571026 -131.7349707977104 0.0 0.0
245.10022506907308 6.545209737495831 75.12990997818007 -138.06849546882032 0.0 0.0
367.3248680712588 4.222159860271143 115.51261944728812 -144.3120599455968 0.0 0.0
495.0099471317975 27.140364973693764 195.7263298536078 -137.7706045612403 0.0 0.0
603.8121142488409 46.67585077666138 288.9773984915969 -132.8982501745305 0.0 0.0
683.9430139891382 51.911467767757784 353.6474350190193 -130.80890497444113 0.0 0.0
740.5968510554286 55.95786918153005 392.2030135718836 -127.91421113893426 0.0 0.0
793.7924209701882 61.74445791294134 423.4739451197105 -126.18740405762009 0.0 0.0
845.7610986204595 73.77807870159081 455.79465227537776 -123.91517051912464 0.0 0.0
897.1693959118443 89.77902546490124 489.7202766682946 -121.45849084399579 0.0 0.0
945.8685876469106 106.1573326876574 522.4137722090923 -118.72233764070114 0.0 0.0
990.1101444682677 120.2707022729037 551.6961489914524 -115.17312575327357 0.0 0.0
1029.1107913663152 130.1952223224983 576.1811529842604 -110.66762431466552 0.0 0.0
1064.4516829911795 139.6616975856441 598.5336463455415 -105.44545130611199 0.0 0.0
1096.5079926008907 146.9536777650604 618.2475498239662 -99.80661272659253 0.0 0.0
1112.1964045485688 140.09867905939439 622.9167282696145 -90.71457766395116 0.0 0.0
1104.9975372193503 112.86565995161271 605.9458422568624 -74.31864194369416 0.0 0.0
657.4063502875101 -330.1673882416171 167.06525304021386 9.995204663937329e-11 0.0 0.0
1104.9975372206864 112.86565995308081 605.9458422578992 74.3186419439828 0.0 0.0
1112.1964045483562 140.0986790592762 622.9167282694413 90.71457766415085 0.0 0.0
1096.5079926010364 146.95367776542219 618.2475498240319 99.80661272687358 0.0 0.0
1064.4516829912504 139.6616975857953 598.5336463455806 105.44545130617261 0.0 0.0
1029.1107913668616 130.19522232324928 576.1811529847988 110.667624314743 0.0 0.0
990.1101444669124 120.27070227163745 551.6961489904962 115.17312575327146 0.0 0.0
945.8685876476935 106.15733268871368 522.4137722095868 118.72233764089196 0.0 0.0
897.1693959116456 89.77902546482078 489.7202766681535 121.45849084394656 0.0 0.0
845.76109862032 73.77807870166987 455.79465227531244 123.91517051908887 0.0 0.0
793.7924209707568 61.74445791378952 423.47394511999994 126.18740405762728 0.0 0.0
740.5968510559863 55.957869182320195 392.20301357224736 127.91421113889956 0.0 0.0
683.9430139881193 51.911467766941996 353.6474350183018 130.80890497433808 0.0 0.0
603.8121142484919 46.67585077662989 288.9773984912807 132.8982501745531 0.0 0.0
495.00994713129677 27.140364973474508 195.72632985315363 137.77060456107137 0.0 0.0
367.32486807100173 4.222159860562124 115.51261944724672 144.312059945489 0.0 0.0
245.1002250689071 6.545209737510854 75.12990997813823 138.0684954687272 0.0 0.0
154.99584909769703 21.431518301599397 52.92927937575143 131.73497079754316 0.0 0.0
80.15646845138123 19.183371241238024 29.801798199914515 144.84500198640436 0.0 0.0
256.4354087804264 52.206454354684794 124.73339271601692 208.95394817357658 0.0 0.0
-539.3279725093906 -1167.2429434146543 -705.9965614468036 71.894028111781 0.0 0.0
-397.1376968416166 -1000.1432063066806 -542.964689693671 -76.09928261335848 0.0 0.0
188.2195024976765 12.935413079706617 77.79532325662188 -212.7440594462317 0.0 0.0
50.15832594424569 7.111386447084621 17.18081660639861 -163.07008618854832 0.0 0.0
108.94509009149414 22.790237859637106 39.522244733915656 -151.29686467256195 0.0 0.0
179.27888654120437 8.507204033340154 56.1426401669586 -157.51390485368387 0.0 0.0
276.21263065055604 -0.9229845813693693 82.6669260221887 -170.43926318853528 0.0 0.0
398.5240554249199 11.535014269491842 139.90235439857386 -166.63765751362268 0.0 0.0
516.4150643561019 31.737316362432775 224.72094029976586 -156.824542272085 0.0 0.0
607.4747554089464 39.76216304818911 298.3778710464464 -151.20890874209448 0.0 0.0
670.7982819842426 38.51315557680702 342.8488834570521 -147.15933237182247 0.0 0.0
721.5183459225982 42.33747229438849 374.4694132699821 -143.13910704874786 0.0 0.0
770.5175048769725 51.811224316968264 404.7621434011907 -140.29164181882712 0.0 0.0
818.0332806277964 64.44016538414233 435.2819725202304 -137.5046642938391 0.0 0.0
862.3475686287051 77.54800649126739 464.2209963562574 -134.6545325174062 0.0 0.0
903.7377979931003 89.43703607489897 491.01630622145433 -131.22353001877593 0.0 0.0
940.5763210439144 98.33515120741514 514.025285542163 -126.56190792098056 0.0 0.0
975.6321808664102 106.21054397635828 535.4846513042303 -120.8268234044489 0.0 0.0
1016.7273735484787 122.3208800916091 563.9220743744773 -115.04193674529834 0.0 0.0
1050.805162817288 133.0155808415504 586.5512713694465 -106.9918154545463 0.0 0.0
1053.1640446889958 111.22202913573258 577.3693241475996 -90.45932105068962 0.0 0.0
487.593013447262 -444.83255508428334 26.20809635348114 1.1429790447436972e-10 0.0 0.0
1053.1640446893575 111.22202913611628 577.3693241479549 90.4593210508138 0.0 0.0
1050.8051628182038 133.0155808428179 586.5512713700936 106.9918154549681 0.0 0.0
1016.7273735486864 122.3208800918872 563.9220743745749 115.04193674555422 0.0 0.0
975.6321808649677 106.21054397490639 535.4846513031555 120.82682340434415 0.0 0.0
940.576321044728 98.33515120843569 514.0252855428345 126.56190792109957 0.0 0.0
903.7377979922119 89.43703607403144 491.01630622081024 131.22353001864778 0.0 0.0
862.3475686277781 77.54800649042555 464.22099635566883 134.65453251737082 0.0 0.0
818.033280627134 64.44016538371551 435.28197251977235 137.5046642938409 0.0 0.0
770.517504876966 51.811224317327 404.7621434012699 140.29164181903604 0.0 0.0
721.5183459227534 42.337472294796356 374.4694132700474 143.13910704890114 0.0 0.0
670.7982819838172 38.51315557644285 342.8488834568037 147.1593323716376 0.0 0.0
607.4747554084394 39.76216304805642 298.37787104603524 151.20890874208112 0.0 0.0
516.4150643554976 31.737316362087014 224.72094029927484 156.82454227203198 0.0 0.0
398.5240554246774 11.535014269717056 139.90235439842579 166.63765751365136 0.0 0.0
276.2126306503706 -0.9229845811225785 82.66692602220873 170.43926318827909 0.0 0.0
179.27888654120068 8.50720403357943 56.14264016703365 157.51390485349657 0.0 0.0
108.94509009152597 22.790237859929984 39.52224473401367 151.29686467236672 0.0 0.0
50.15832594405666 7.11138644678604 17.180816606252236 163.07008618830628 0.0 0.0
188.2195024972523 12.93541307944081 77.7953232563288 212.74405944611243 0.0 0.0
-397.1376968406713 -1000.1432063055053 -542.964689692571 76.0992826132799 0.0 0.0
-286.3305083339485 -839.8704542654 -408.6165390285555 -81.52401353808534 0.0 0.0
129.76268962708266 -18.929717852090924 41.86019914745469 -210.1964724358671 0.0 0.0
22.34154286478024 -1.15151979106392 6.3590022556833485 -175.94028953356522 0.0 0.0
63.911468076107745 22.605631512775776 25.948336569716698 -166.89941646526088 0.0 0.0
114.5547959507873 11.553517498228436 37.73533215035536 -172.62788758508907 0.0 0.0
181.1839555319214 -0.12483653461576671 54.02938005700041 -189.53783348312754 0.0 0.0
279.0902735742327 -1.4481270856276476 86.78895420248492 -197.7838439814069 0.0 0.0
398.09362497891505 10.542638674058724 147.2519908679892 -185.86791441036277 0.0 0.0
501.44654437864 21.04524049824483 218.7501377189258 -171.66398439927238 0.0 0.0
574.4844901691717 21.030790289794847 272.2737556894101 -163.9436457866795 0.0 0.0
627.9453315330059 22.481667037621936 309.0013965063571 -158.30517747735792 0.0 0.0
674.9608871223128 28.760969750848933 338.94014153738897 -154.89443231097204 0.0 0.0
718.5549953159649 38.77277040651322 367.2323675489659 -151.8340396070766 0.0 0.0
758.037531665808 48.58343232041404 392.4816897000953 -148.98750294713864 0.0 0.0
795.3053505971285 58.073077492118955 416.2065985287845 -146.0019165557423 0.0 0.0
830.9013970771601 66.44455941477862 438.52590584245576 -141.94255100996835 0.0 0.0
865.2971192562909 73.54084223214589 459.67450180855315 -135.99491309337387 0.0 0.0
907.239964348605 88.89752366621657 488.2493110793237 -129.14929763033084 0.0 0.0
964.025608218963 119.70394265157418 531.9086965800959 -123.1484299252528 0.0 0.0
994.7771076053773 121.4291825977848 549.3105229949018 -111.14769003107095 0.0 0.0
283.6236565776578 -566.627700108538 -134.47312948398067 1.915729797019594e-10 0.0 0.0
994.777107605342 121.42918259785478 549.3105229950713 111.14769003141285 0.0 0.0
964.0256082194544 119.70394265228441 531.9086965805004 123.148429925644 0.0 0.0
907.2399643483649 88.8975236659516 488.2493110791363 129.1492976303651 0.0 0.0
865.2971192560241 73.54084223195656 459.6745018082573 135.9949130933427 0.0 0.0
830.9013970773855 66.44455941521099 438.52590584266744 141.94255101001937 0.0 0.0
795.3053505975116 58.07307749260456 416.2065985290461 146.00191655573713 0.0 0.0
758.0375316652938 48.58343232015727 392.4816896997434 148.987502947149 0.0 0.0
718.5549953154683 38.772770406068716 367.2323675485823 151.83403960713713 0.0 0.0
674.9608871216024 28.760969750321017 338.94014153700516 154.89443231103667 0.0 0.0
627.9453315325183 22.481667037327128 309.00139650600005 158.30517747730167 0.0 0.0
574.484490168721 21.030790289550914 272.2737556890587 163.94364578655143 0.0 0.0
501.4465443784389 21.045240498562478 218.75013771882348 171.6639843994539 0.0 0.0
398.0936249784487 10.542638673995931 147.2519908676912 185.8679144104338 0.0 0.0
279.09027357393234 -1.448127085412056 86.78895420241399 197.78384398131305 0.0 0.0
181.1839555314579 -0.1248365350663998 54.02938005674765 189.53783348281462 0.0 0.0
114.5547959508475 11.553517498579083 37.73533215048563 172.62788758472985 0.0 0.0
63.911468076138114 22.605631512984537 25.94833656978811 166.8994164649968 0.0 0.0
22.34154286457777 -1.1515197913096364 6.359002255547736 175.94028953342345 0.0 0.0
129.76268962672552 -18.92971785237425 41.8601991472122 210.19647243566726 0.0 0.0
-286.33050833317753 -839.8704542642924 -408.61653902767097 81.52401353809032 0.0 0.0
-196.99155397923042 -697.7511407381106 -299.05636035213604 -95.01380380704997 0.0 0.0
77.17769588879568 -44.09573257499325 13.501513395601751 -201.62985865310432 0.0 0.0
-4.632185368682682 -4.942497943795807 -2.8824278975841864 -183.5010254020291 0.0 0.0
19.478347382631636 21.354470270131113 12.247967476455257 -177.71576958015265 0.0 0.0
49.77394191680415 14.556950339601228 19.266498234231054 -183.34613648317554 0.0 0.0
87.33779689775159 3.3702805735815407 27.09267250498704 -201.98280566786178 0.0 0.0
140.76473280050715 -2.380391909639594 41.70601484460208 -218.0689259414628 0.0 0.0
225.3938913967696 -6.234057440006431 68.10778359427675 -218.6845619939322 0.0 0.0
331.58990329108906 -12.928008946324228 105.73815254565656 -201.8161980926641 0.0 0.0
418.87211499334836 -14.981062914061617 147.46302762002773 -179.55328493689387 0.0 0.0
477.70343408380194 -6.0048249645761445 186.83093530813778 -168.5508666281809 0.0 0.0
522.5046747470639 3.284257073119882 219.651454483341 -165.20948606628292 0.0 0.0
560.1472009073975 11.549694476598773 247.4664968912876 -164.11407394356888 0.0 0.0
593.7962309366694 19.503725303436624 271.67124098252435 -163.28075079920967 0.0 0.0
625.888437306357 27.529035229896323 294.67015365568653 -162.20973890529356 0.0 0.0
659.2901824278748 35.65210406001674 318.42688077806133 -160.19338108897534 0.0 0.0
695.5712263229502 43.04134293331947 343.6026721796552 -155.33065338349493 0.0 0.0
734.6846057435016 49.19762046828005 369.49229273506455 -147.29053618263382 0.0 0.0
797.6587618574806 76.91910454762089 415.0566969776718 -140.30489130731812 0.0 0.0
892.8334724179734 133.13915068947 493.36316104208225 -138.82270513871194 0.0 0.0
12.262805197231486 -688.5916308444806 -325.9506599628734 1.765698698363849e-10 0.0 0.0
892.8334724175992 133.13915068918274 493.363161041997 138.8227051389491 0.0 0.0
797.6587618572361 76.91910454743238 415.05669697758583 140.30489130757073 0.0 0.0
734.6846057433552 49.19762046810301 369.4922927349461 147.2905361827634 0.0 0.0
695.5712263233333 43.041342933732246 343.6026721798803 155.33065338370287 0.0 0.0
659.2901824284656 35.65210406088453 318.42688077849016 160.19338108901664 0.0 0.0
625.8884373063092 27.529035229824913 294.6701536557522 162.20973890525823 0.0 0.0
593.7962309371896 19.50372530436164 271.671240982916 163.28075079933484 0.0 0.0
560.1472009069975 11.54969447616233 247.46649689093127 164.11407394352824 0.0 0.0
522.5046747461238 3.2842570721737943 219.65145448271605 165.20948606624182 0.0 0.0
477.7034340833033 -6.004824965078541 186.83093530785374 168.55086662814617 0.0 0.0
418.87211499319176 -14.981062914108987 147.4630276199378 179.55328493682669 0.0 0.0
331.58990329103835 -12.928008945704104 105.7381525457556 201.81619809274275 0.0 0.0
225.39389139631248 -6.234057440151601 68.10778359408108 218.6845619940077 0.0 0.0
140.76473280053392 -2.3803919090470473 41.706014844785265 218.06892594123588 0.0 0.0
87.33779689737553 3.370280572968582 27.092672504702758 201.9828056675564 0.0 0.0
49.77394191684792 14.556950339773698 19.266498234297927 183.34613648294257 0.0 0.0
19.478347382496164 21.35447026985143 12.247967476330746 177.71576957993074 0.0 0.0
-4.6321853685622525 -4.942497943537972 -2.8824278974732227 183.50102540187112 0.0 0.0
77.17769588850103 -44.095732575264776 13.501513395409088 201.62985865292063 0.0 0.0
-196.99155397869947 -697.7511407372149 -299.0563603515266 95.01380380710248 0.0 0.0
-138.15074209822183 -566.7569472780842 -219.39711916875365 -108.05023355918496 0.0 0.0
29.034942212892425 -62.00441205760697 -8.841418632799638 -186.53859799899445 0.0 0.0
-30.810372777488332 -5.571139139792935 -10.906437486676301 -187.4368099050707 0.0 0.0
-24.23934468506407 19.679229975786775 -1.3761780453843944 -184.04704770026677 0.0 0.0
-14.247930353771354 17.202460856342956 0.8850363236736816 -189.01577068300293 0.0 0.0
-6.755616773553934 7.4328152023600715 0.21102526465907356 -206.5378180855998 0.0 0.0
-2.971289455886236 1.126922812457392 -0.553570065422913 -224.2042343514266 0.0 0.0
-1.0414585657443851 0.07536918613734045 -0.29649234156275917 -227.25052675720212 0.0 0.0
-0.3322344309439913 -0.0007632343614414339 -0.10503365376334628 -219.40145881889413 0.0 0.0
0.0009047048891233089 -0.00608777833161156 0.0028070848292927053 -214.60530658403073 0.0 0.0
-0.4252379711119971 0.015203477972320911 -0.1368623368111841 -210.86830821285528 0.0 0.0
-0.939943249010426 0.15818632353020234 0.2217182675396856 -198.28595442741772 0.0 0.0
-1.9441599809920262 0.8244463021719497 0.4317847544977127 -188.88381482858992 0.0 0.0
-0.4118080843670384 2.482765064305738 0.977004643565266 -181.82008750471292 0.0 0.0
8.261363215186208 6.418225864151111 2.313058354128046 -176.8035102940635 0.0 0.0
31.388088434430244 13.767889525426256 6.095140582339852 -172.5012099970834 0.0 0.0
78.99895751933246 26.506620694821677 14.811480145757741 -167.16055224129508 0.0 0.0
166.0164985332028 36.17486697676404 20.337365459618155 -157.9770467977391 0.0 0.0
385.35378985145064 -6.724919436912231 36.08208059994662 -152.61335592226422 0.0 0.0
610.4429303340607 29.77023831385671 242.79076852728713 -199.14201468348617 0.0 0.0
-659.9058794858677 -932.3791181107364 -717.5156172034401 1.2470025012589758e-10 0.0 0.0
610.4429303344832 29.77023831426834 242.79076852747957 199.1420146834314 0.0 0.0
385.35378985167154 -6.72491943652534 36.08208060014192 152.61335592286542 0.0 0.0
166.01649853183034 36.17486697457858 20.337365458051266 157.97704679832455 0.0 0.0
78.99895751936114 26.506620694847044 14.811480145761351 167.16055224129985 0.0 0.0
31.38808843502241 13.767889525842975 6.095140582747803 172.50120999707963 0.0 0.0
8.261363215038486 6.418225863855625 2.313058353994151 176.80351029397957 0.0 0.0
-0.41180808459540685 2.482765063818988 0.9770046432955155 181.82008750483726 0.0 0.0
-1.9441599805368668 0.8244463022972823 0.4317847546655429 188.88381482878978 0.0 0.0
-0.9399432488421127 0.1581863233572065 0.2217182674968612 198.28595442741332 0.0 0.0
-0.4252379708762035 0.015203477553736633 -0.13686233690135907 210.86830821260565 0.0 0.0
0.0009047054212345529 -0.0060877783126347396 0.002807084987548336 214.60530658378977 0.0 0.0
-0.3322344307564187 -0.0007632345851815714 -0.105033653777733 219.40145881899306 0.0 0.0
-1.0414585653785444 0.07536918686578309 -0.29649234122731905 227.2505267571026 0.0 0.0
-2.97128945559132 1.126922813118144 -0.5535700651341378 224.20423435119608 0.0 0.0
-6.755616773176017 7.432815203049058 0.2110252649789981 206.53781808537266 0.0 0.0
-14.247930353827709 17.202460856044038 0.8850363235668472 189.0157706827584 0.0 0.0
-24.2393446851267 19.679229975601746 -1.3761780454602013 184.04704770014595 0.0 0.0
-30.810372777439802 -5.57113913941111 -10.906437486550251 187.4368099048903 0.0 0.0
29.03494221243088 -62.00441205802976 -8.841418633078426 186.53859799878543 0.0 0.0
-138.15074209797262 -566.7569472773843 -219.3971191684099 108.05023355914409 0.0 0.0
-108.41048342272234 -448.5474764150357 -167.18981110065647 -113.09614042147136 0.0 0.0
-7.815087474240547 -72.84809532048067 -24.179546691820246 -170.98695972731383 0.0 0.0
-55.479813505748666 -5.2466137962184 -18.22817385516501 -186.608723410263 0.0 0.0
-66.77864324963771 18.17230133536883 -14.59361498788427 -185.58911954554054 0.0 0.0
-77.08148218763631 19.105378473139897 -17.397532706844103 -189.13011566484502 0.0 0.0
-99.68838240164395 11.286612821873568 -26.480588319420335 -203.65548688188773 0.0 0.0
-146.25958570192745 4.720645134628444 -42.71274695476321 -219.23673197578788 0.0 0.0
-226.81243276283055 6.297419774713603 -68.64620380583044 -219.05886199049098 0.0 0.0
-331.8014182783025 12.757560518037003 -105.91775253552294 -201.8408518061093 0.0 0.0
-418.85091419837613 14.970814196851236 -147.45035320174816 -179.51845602318093 0.0 0.0
-478.19150067422515 5.899652743431993 -187.06409531710506 -168.5656164895188 0.0 0.0
-523.2366890615583 -3.253679375080395 -220.52637942288953 -165.07184729812764 0.0 0.0
-561.289135277881 -10.343150746436663 -248.34141421875174 -163.47681854497574 0.0 0.0
-592.5583873753068 -14.804033270641781 -269.39450945872545 -162.46505554721594 0.0 0.0
-614.6268612315253 -15.597381436640688 -281.94714933098555 -162.58694120530103 0.0 0.0
-625.3655155042806 -11.366545874456321 -283.6181525806603 -164.60680857687043 0.0 0.0
-623.1596882640596 -2.2232735859755905 -272.40446523456217 -169.1122694265265 0.0 0.0
-615.927208098625 4.992405607345233 -250.4492901138066 -178.57137587922875 0.0 0.0
-594.3965319656281 55.0184605312603 -188.77610132095694 -192.4924377372541 0.0 0.0
-321.8902806632634 169.12731134621754 35.365516827289014 -156.11063063501706 0.0 0.0
-1224.7179889173458 -1195.9287338778056 -1238.7961494369486 -1.7364953919241088e-10 0.0 0.0
-321.8902806633886 169.127311346598 35.36551682736183 156.11063063593292 0.0 0.0
-594.39653196535 55.01846053164891 -188.77610132081793 192.4924377373471 0.0 0.0
-615.9272080989965 4.992405606426331 -250.44929011380867 178.57137587929498 0.0 0.0
-623.1596882634562 -2.2232735853553294 -272.4044652342604 169.11226942661196 0.0 0.0
-625.3655155042101 -11.366545874677726 -283.61815258064564 164.60680857691597 0.0 0.0
-614.6268612309871 -15.59738143618754 -281.9471493305715 162.58694120531018 0.0 0.0
-592.5583873752886 -14.804033270940245 -269.394509458679 162.46505554716117 0.0 0.0
-561.2891352778852 -10.343150746667668 -248.3414142187795 163.47681854499226 0.0 0.0
-523.2366890613009 -3.2536793750097566 -220.5263794225877 165.07184729803313 0.0 0.0
-478.1915006739823 5.899652743325738 -187.0640953169829 168.5656164895649 0.0 0.0
-418.85091419712006 14.970814198032336 -147.45035320088982 179.5184560231313 0.0 0.0
-331.801418278686 12.757560516152399 -105.91775253609056 201.8408518064302 0.0 0.0
-226.8124327617648 6.297419775921637 -68.64620380511515 219.05886199039892 0.0 0.0
-146.25958570118584 4.720645135466518 -42.712746954295895 219.23673197561496 0.0 0.0
-99.68838240117307 11.286612822297535 -26.480588319163086 203.65548688162343 0.0 0.0
-77.08148218754988 19.105378473021066 -17.397532706857294 189.13011566454054 0.0 0.0
-66.77864324957396 18.172301335475204 -14.593614987837054 185.58911954539053 0.0 0.0
-55.47981350578431 -5.246613796325038 -18.228173855209583 186.60872341013197 0.0 0.0
-7.815087474335282 -72.84809532062064 -24.179546691888717 170.9869597271507 0.0 0.0
-108.41048342271107 -448.5474764144656 -167.18981110052331 113.09614042147919 0.0 0.0
-90.65878939240561 -342.8185530425771 -130.0298005883548 -106.10439799456087 0.0 0.0
-31.441282989803256 -77.79138161073 -32.76701956298078 -158.22774406125285 0.0 0.0
-78.5779758615655 -5.168094541044886 -25.11039705123027 -182.62810772353467 0.0 0.0
-107.45613751839439 16.81814165061416 -27.216242777078023 -182.17805562512714 0.0 0.0
-138.72144596461706 20.427938562430857 -35.41906284585606 -184.785452667793 0.0 0.0
-191.03817983340235 14.500471116082824 -52.89428379567926 -194.69080973443545 0.0 0.0
-281.0928513460305 2.7527315642287755 -87.6792019993698 -197.35958550117886 0.0 0.0
-398.3267466736326 -10.756190127185683 -147.5898438710223 -186.43470954879916 0.0 0.0
-501.44769004596753 -21.250378466745723 -218.8481825364162 -171.77764849223934 0.0 0.0
-574.4216348091679 -21.066909176812295 -272.2765408778453 -163.9333373376711 0.0 0.0
-627.9833890899072 -22.456044821949874 -309.0516119138384 -158.23436113170035 0.0 0.0
-675.4086938506882 -28.653906186748387 -339.20820564779706 -154.422265795769 0.0 0.0
-719.0915486844561 -37.89394382123203 -367.2536889902233 -150.69584726429443 0.0 0.0
-756.0552494639412 -44.74790122227229 -389.89432467866806 -147.7412909911487 0.0 0.0
-783.9532221892964 -46.68022932137694 -405.20262285778097 -146.65523755424857 0.0 0.0
-799.4241620216396 -41.19873599996225 -410.3077681301704 -147.9248790498811 0.0 0.0
-802.9020365861822 -30.08226506225091 -406.14379203789747 -151.8087213205689 0.0 0.0
-794.7510623750985 -15.789349101585174 -394.3356355902505 -158.2340143902584 0.0 0.0
-745.5040739572305 31.046612180086044 -346.3911460074497 -165.71826671074774 0.0 0.0
-630.2898838494882 129.8178700764202 -241.85471409678752 -173.4100958897885 0.0 0.0
-2016.7586804836842 -1494.2599332788018 -1722.206347589207 5.135802894074004e-11 0.0 0.0
-630.2898838491869 129.81787007657746 -241.85471409650236 173.4100958899856 0.0 0.0
-745.5040739564009 31.046612180733376 -346.39114600694063 165.7182667109774 0.0 0.0
-794.7510623741712 -15.789349100587415 -394.33563558958133 158.23401439041965 0.0 0.0
-802.9020365860479 -30.082265062231613 -406.1437920378668 151.80872132060415 0.0 0.0
-799.4241620211696 -41.19873599970304 -410.307768129851 147.92487904989056 0.0 0.0
-783.9532221888238 -46.68022932099192 -405.2026228574157 146.65523755422794 0.0 0.0
-756.0552494633793 -44.74790122185582 -389.8943246782887 147.74129099115896 0.0 0.0
-719.0915486847318 -37.8939438218397 -367.2536889904361 150.69584726441792 0.0 0.0
-675.4086938507321 -28.65390618717789 -339.20820564781036 154.42226579586628 0.0 0.0
-627.983389090241 -22.45604482276345 -309.05161191412367 158.23436113180466 0.0 0.0
-574.4216348086508 -21.06690917656966 -272.2765408774938 163.9333373375806 0.0 0.0
-501.4476900458949 -21.25037846733615 -218.8481825363167 171.77764849237957 0.0 0.0
-398.32674667285835 -10.756190126778622 -147.58984387049654 186.43470954881852 0.0 0.0
-281.0928513454721 2.752731564330764 -87.67920199912804 197.35958550117505 0.0 0.0
-191.0381798331607 14.500471115852317 -52.89428379568773 194.69080973416226 0.0 0.0
-138.7214459645135 20.427938562378696 -35.41906284584296 184.7854526674624 0.0 0.0
-107.4561375182804 16.818141650425297 -27.216242777105027 182.17805562490028 0.0 0.0
-78.57797586144717 -5.168094541003938 -25.110397051185068 182.62810772334134 0.0 0.0
-31.44128298983701 -77.79138161082366 -32.76701956301816 158.2277440611383 0.0 0.0
-90.65878939219198 -342.8185530421358 -130.02980058815734 106.10439799454986 0.0 0.0
-73.88759722477158 -254.18813868990873 -98.42272077440408 -94.75430399890223 0.0 0.0
-48.18762760366588 -76.39957570002537 -37.37533787042574 -144.66574438199706 0.0 0.0
-99.82661307075382 -5.2423554011728175 -31.505099420361752 -174.22669965605408 0.0 0.0
-146.4981899117322 15.537480813854737 -39.25177498043906 -174.88661564047212 0.0 0.0
-197.98956970646108 20.346105713059483 -53.20417845195058 -173.9419883012556 0.0 0.0
-278.80401022370063 12.353576284723838 -81.40817060830669 -174.33187461320063 0.0 0.0
-398.6735719216092 -9.371561716391803 -139.70997301219796 -169.32591182582658 0.0 0.0
-516.5361552468195 -32.19930213915325 -224.91084951822137 -157.4583496888398 0.0 0.0
-607.4326711961523 -39.97794558884332 -298.4628923628078 -151.27093457581296 0.0 0.0
-670.7041342617208 -38.46931205746096 -342.81987747080467 -147.18345306359763 0.0 0.0
-721.3502256676855 -42.12620342502137 -374.3145952400614 -143.05892088321946 0.0 0.0
-770.5496050655356 -51.45260528933707 -404.64718141903734 -139.75264665504085 0.0 0.0
-818.2568266610476 -63.66651922227588 -435.09356565841097 -136.13049777050057 0.0 0.0
-860.9671491479812 -74.79533702167375 -462.34177474963286 -132.96602217775694 0.0 0.0
-894.9767278666259 -80.54320713296573 -482.48599150773475 -131.61729863568286 0.0 0.0
-915.3488344190449 -77.49800331023019 -491.3015769523133 -133.21686973427606 0.0 0.0
-920.3591123511164 -64.13429531295145 -487.1898731244588 -137.8575382688299 0.0 0.0
-900.1735490984931 -32.44849484586001 -461.27700898657434 -143.72256617516024 0.0 0.0
-843.5541326596197 27.204346279226655 -403.7386748645203 -148.2820250452285 0.0 0.0
-685.1422162184507 174.52949416250013 -254.12927327476137 -149.79076093422216 0.0 0.0
-2460.5896029712612 -1728.0088838047245 -2069.6116668815503 8.966694053924584e-11 0.0 0.0
-685.1422162175672 174.52949416330176 -254.12927327412854 149.7907609343739 0.0 0.0
-843.554132658795 27.204346279882458 -403.73867486396483 148.28202504554469 0.0 0.0
-900.1735490990961 -32.44849484669383 -461.27700898690796 143.72256617543778 0.0 0.0
-920.359112350526 -64.13429531243455 -487.1898731241623 137.85753826884584 0.0 0.0
-915.3488344194715 -77.49800331089966 -491.301576952665 133.21686973447027 0.0 0.0
-894.9767278665302 -80.54320713313612 -482.4859915076649 131.61729863580047 0.0 0.0
-860.9671491474528 -74.79533702128049 -462.3417747492111 132.96602217774554 0.0 0.0
-818.2568266617508 -63.666519223327555 -435.0935656589308 136.13049777071626 0.0 0.0
-770.5496050653109 -51.45260528951882 -404.6471814188726 139.75264665512447 0.0 0.0
-721.3502256669792 -42.12620342443583 -374.3145952396641 143.05892088311975 0.0 0.0
-670.7041342623147 -38.46931205851408 -342.819877471219 147.18345306367226 0.0 0.0
-607.432671195473 -39.97794558856742 -298.4628923622836 151.2709345757585 0.0 0.0
-516.5361552462155 -32.199302139019764 -224.9108495177455 157.45834968893365 0.0 0.0
-398.6735719211978 -9.371561716506381 -139.7099730119323 169.3259118257789 0.0 0.0
-278.8040102229823 12.353576285337654 -81.40817060789817 174.33187461299534 0.0 0.0
-197.98956970625267 20.346105712872085 -53.204178451963216 173.94198830099717 0.0 0.0
-146.49818991166023 15.537480813761098 -39.25177498045084 174.88661564040808 0.0 0.0
-99.82661307071575 -5.242355401205036 -31.505099420358913 174.22669965586684 0.0 0.0
-48.187627603712635 -76.39957570024968 -37.37533787050798 144.6657443819177 0.0 0.0
-73.88759722457094 -254.18813868945406 -98.42272077420748 94.75430399874996 0.0 0.0
-60.11567984175957 -180.1567612427597 -72.08173232535579 -81.35608094322137 0.0 0.0
-60.870503112525085 -70.33158522274043 -39.36080265793499 -129.1810433323103 0.0 0.0
-119.60023606337792 -5.196040670079835 -37.42844953351228 -161.76627687083808 0.0 0.0
-183.2675300585711 13.548931514322717 -50.89172928765089 -162.47335605079738 0.0 0.0
-256.3298905917532 18.738026542918274 -71.13069003226374 -158.7755385413378 0.0 0.0
-364.7960764652054 5.960211525663975 -113.28287675498376 -150.90889642066904 0.0 0.0
-492.70879509503163 -26.03186141461085 -194.98931174862545 -138.76595935575145 0.0 0.0
-604.0280212007285 -47.424076699228905 -289.2431020586442 -133.22791624058152 0.0 0.0
-683.9575857991853 -52.08800716279012 -353.783609218985 -130.85925473173964 0.0 0.0
-740.4562179733548 -55.8324232006936 -392.11253269038923 -127.94323576198994 0.0 0.0
-793.4182010703595 -61.2971998683814 -423.10117927988296 -126.10766056534595 0.0 0.0
-845.2032652129865 -72.96447542989985 -455.14771708552917 -123.3694623634188 0.0 0.0
-896.8214972648012 -88.80372917993672 -489.09537675931404 -120.05544001638955 0.0 0.0
-945.4652390186887 -104.83773704119676 -521.6328669781881 -116.85901392144847 0.0 0.0
-985.9176294848647 -115.90935437046252 -547.6022708892311 -115.22172568256882 0.0 0.0
-1011.0344913277133 -114.95009893133818 -559.8770469491616 -116.75097311369589 0.0 0.0
-1011.6513684633226 -95.71582624541878 -550.7562274994525 -121.00164585594736 0.0 0.0
-978.7717021707524 -48.15807275458366 -510.7582531985682 -126.12177867928017 0.0 0.0
-893.5251678134974 43.21822056326914 -423.2792356929633 -128.64636644359646 0.0 0.0
-716.6276875550974 211.4759429987673 -252.62311400498783 -127.47727402218206 0.0 0.0
-2811.35435727547 -1969.1747390003047 -2371.334579947227 1.3311662883097597e-10 0.0 0.0
-716.6276875540392 211.47594299980176 -252.6231140041505 127.47727402229681 0.0 0.0
-893.525167813479 43.21822056318189 -423.2792356930712 128.6463664437777 0.0 0.0
-978.7717021714719 -48.158072755552666 -510.7582531990623 126.12177867950017 0.0 0.0
-1011.6513684620095 -95.71582624413715 -550.7562274987483 121.00164585587137 0.0 0.0
-1011.034491329118 -114.95009893300643 -559.8770469501245 116.75097311385275 0.0 0.0
-985.9176294844667 -115.90935437023953 -547.6022708888971 115.22172568257437 0.0 0.0
-945.465239019053 -104.83773704181348 -521.6328669784257 116.85901392158635 0.0 0.0
-896.8214972648318 -88.80372918015551 -489.0953767593991 120.05544001638916 0.0 0.0
-845.2032652119416 -72.96447542907835 -455.1477170848351 123.36946236334734 0.0 0.0
-793.4182010695666 -61.29719986778251 -423.1011792793966 126.10766056531531 0.0 0.0
-740.4562179739761 -55.83242320178317 -392.11253269080555 127.94323576211104 0.0 0.0
-683.9575857981473 -52.088007161946734 -353.783609218229 130.85925473159364 0.0 0.0
-604.0280212005564 -47.42407669950753 -289.243102058399 133.227916240631 0.0 0.0
-492.70879509438635 -26.031861414338117 -194.98931174811247 138.76595935570043 0.0 0.0
-364.7960764644346 5.960211526134827 -113.28287675454503 150.90889642056226 0.0 0.0
-256.32989059136247 18.738026542845976 -71.13069003218921 158.7755385411817 0.0 0.0
-183.26753005826453 13.54893151454538 -50.89172928750742 162.47335605063418 0.0 0.0
-119.60023606338301 -5.196040670326109 -37.42844953358654 161.76627687075373 0.0 0.0
-60.87050311237917 -70.33158522255157 -39.36080265783456 129.18104333217167 0.0 0.0
-60.11567984160353 -180.15676124244814 -72.0817323252155 81.35608094312285 0.0 0.0
-49.923447967066714 -120.04345916520656 -50.99007213968197 -67.19823858434147 0.0 0.0
-70.78639687503008 -61.01538324330659 -39.540534035501 -111.56127207360527 0.0 0.0
-138.11740380470255 -4.745201725709634 -42.856676795663844 -145.16233244279164 0.0 0.0
-218.26173358810223 11.263827672653992 -62.00976352751151 -146.09874779849736 0.0 0.0
-312.88438001362397 13.376592218361012 -90.41069188665391 -136.91084574366997 0.0 0.0
-442.0313991103809 -5.987894867123009 -149.44428227891447 -123.0776863374292 0.0 0.0
-569.398415533749 -40.38873806943916 -247.9452643068952 -112.42896746196585 0.0 0.0
-671.0135163669987 -57.11574406173967 -339.3025008788268 -110.65455287674054 0.0 0.0
-740.1188307281568 -65.75286085891352 -395.0944212629604 -109.11865135090055 0.0 0.0
-799.6262393552902 -70.77772455324533 -431.59365318390985 -109.16250326986494 0.0 0.0
-854.1155702649841 -79.76282284995246 -464.159902517721 -107.98462755669306 0.0 0.0
-909.0976564603304 -94.52316551432268 -499.1453239145963 -105.73975551827264 0.0 0.0
-964.5217193301339 -113.6959128871909 -536.5525299120607 -102.90876160029323 0.0 0.0
-1018.1629547345445 -133.94668468084328 -573.6044745634722 -99.97564677152673 0.0 0.0
-1065.5383943458055 -150.8878113420253 -605.9114666100862 -98.03818123904198 0.0 0.0
-1094.5834318497457 -152.9729661728881 -621.7306301934871 -98.6754013078691 0.0 0.0
-1090.2865626351945 -125.62465573253948 -606.1786234129013 -102.32734376393194 0.0 0.0
-1038.2692696956672 -57.58906585121932 -546.5088572072809 -106.6289329452881 0.0 0.0
-926.8700174332863 60.58317856751901 -432.3908369804675 -108.5556402475545 0.0 0.0
-741.9396324577159 237.14607484115584 -252.6388415223958 -109.30262132680198 0.0 0.0
-3109.9965786330235 -2196.092973021523 -2638.02532042478 6.915712447153055e-11 0.0 0.0
-741.9396324579334 237.14607484085496 -252.6388415224501 109.3026213269725 0.0 0.0
-926.8700174338675 60.583178566866934 -432.3908369809176 108.5556402477765 0.0 0.0
-1038.2692696956015 -57.58906585134757 -546.5088572072337 106.62893294545887 0.0 0.0
-1090.2865626347127 -125.62465573215607 -606.1786234126788 102.32734376406235 0.0 0.0
-1094.5834318503125 -152.9729661736235 -621.7306301938544 98.6754013078889 0.0 0.0
-1065.5383943452493 -150.88781134149272 -605.9114666096771 98.03818123881604 0.0 0.0
-1018.1629547352692 -133.94668468194138 -573.6044745638684 99.97564677176214 0.0 0.0
-964.5217193297652 -113.69591288695219 -536.5525299119435 102.90876160023576 0.0 0.0
-909.0976564594373 -94.52316551362027 -499.145323914043 105.739755518211 0.0 0.0
-854.1155702649959 -79.76282285025796 -464.159902517764 107.98462755673178 0.0 0.0
-799.6262393555664 -70.77772455382957 -431.59365318412733 109.16250326978839 0.0 0.0
-740.1188307272066 -65.75286085814095 -395.0944212622849 109.11865135078581 0.0 0.0
-671.0135163667545 -57.11574406189087 -339.30250087855495 110.65455287672611 0.0 0.0
-569.3984155336944 -40.38873806988043 -247.9452643066628 112.42896746195493 0.0 0.0
-442.0313991095294 -5.987894866544146 -149.44428227835715 123.0776863373168 0.0 0.0
-312.8843800134328 13.376592217826332 -90.41069188675864 136.91084574358382 0.0 0.0
-218.26173358790663 11.26382767274316 -62.00976352742866 146.09874779832413 0.0 0.0
-138.11740380460603 -4.745201725640799 -42.856676795612856 145.1623324427018 0.0 0.0
-70.78639687508063 -61.0153832433857 -39.5405340355399 111.56127207347295 0.0 0.0
-49.923447967088 -120.04345916505119 -50.99007213964175 67.19823858444553 0.0 0.0
-43.11616987463127 -73.45761608831351 -34.972135788883435 -52.74562772435549 0.0 0.0
-78.47052211599399 -49.78658402201982 -38.47713184140413 -91.95377003700831 0.0 0.0
-155.50277545292886 -3.756543060211448 -47.77830305241562 -124.48019476883758 0.0 0.0
-251.89207470436511 7.726866984481239 -73.16540112584413 -124.92459689805538 0.0 0.0
-371.51453067426246 6.491962272415879 -111.36705749131596 -112.13859770693558 0.0 0.0
-506.07316352988653 -22.57481562704681 -189.06473380202277 -92.94110460167792 0.0 0.0
-631.0888435213278 -49.960866948607055 -294.3266354480797 -88.61774664407953 0.0 0.0
-718.9254278091859 -67.16814135958222 -377.51356535721186 -87.91548171526946 0.0 0.0
-789.4900105106012 -76.8199507240538 -428.4033995404173 -88.68697872814626 0.0 0.0
-850.0802150590408 -85.89580567182243 -465.6438528644905 -89.46457271967581 0.0 0.0
-907.9429501721761 -98.43575050359436 -501.2514407532317 -88.8341877115903 0.0 0.0
-966.1929396716348 -116.16029646552701 -539.2965072416888 -87.12429281771112 0.0 0.0
-1024.888498725004 -138.03846524583383 -579.6478232161855 -84.90732278651608 0.0 0.0
-1082.2389589236177 -162.24149274355855 -620.4742772182855 -82.44400140602436 0.0 0.0
-1134.8268167364402 -183.37157309112186 -657.4229770373679 -80.26869594434156 0.0 0.0
-1169.4493765353661 -189.35754632759227 -677.9701285507433 -79.715798357666 0.0 0.0
-1162.1512099814415 -158.06013256590325 -659.0509592790488 -81.96565165044444 0.0 0.0
-1091.9855214503314 -70.32124754372413 -580.5002353965372 -85.89849244926046 0.0 0.0
-955.9465247211001 73.24611831802001 -441.14580760852004 -89.42944146592217 0.0 0.0
-758.0177132552877 262.18027770862886 -248.15037309970114 -94.07390646935364 0.0 0.0
-3367.596350913509 -2400.8190397560184 -2872.059027638503 -1.0125233984581428e-12 0.0 0.0
-758.0177132560204 262.18027770777223 -248.15037310019778 94.07390646950653 0.0 0.0
-955.9465247221739 73.24611831684516 -441.1458076092666 89.42944146608585 0.0 0.0
-1091.9855214503546 -70.32124754381672 -580.5002353965224 85.89849244930042 0.0 0.0
-1162.1512099815375 -158.06013256618175 -659.0509592791614 81.96565165057939 0.0 0.0
-1169.4493765350835 -189.3575463274734 -677.9701285504649 79.71579835773323 0.0 0.0
-1134.8268167359865 -183.3715730908031 -657.4229770370752 80.26869594430711 0.0 0.0
-1082.2389589229751 -162.24149274316812 -620.4742772177875 82.44400140612352 0.0 0.0
-1024.8884987250442 -138.0384652460618 -579.6478232162987 84.90732278650117 0.0 0.0
-966.1929396712572 -116.16029646545195 -539.2965072414413 87.1242928178885 0.0 0.0
-907.9429501726568 -98.43575050435769 -501.25144075360964 88.83418771161062 0.0 0.0
-850.0802150592365 -85.89580567233577 -465.6438528646992 89.46457271967063 0.0 0.0
-789.4900105094868 -76.81995072311946 -428.4033995396259 88.68697872796368 0.0 0.0
-718.925427808317 -67.16814135902847 -377.51356535657936 87.91548171519702 0.0 0.0
-631.0888435210734 -49.960866948816985 -294.32663544771714 88.61774664409238 0.0 0.0
-506.0731635291165 -22.574815626684398 -189.06473380148768 92.94110460169853 0.0 0.0
-371.5145306740128 6.491962272151197 -111.3670574912934 112.13859770683312 0.0 0.0
-251.89207470415965 7.726866984622201 -73.16540112575014 124.924596897848 0.0 0.0
-155.50277545285775 -3.7565430602961207 -47.778303052419616 124.48019476868038 0.0 0.0
-78.4705221159048 -49.78658402214396 -38.477131841414625 91.95377003693682 0.0 0.0
-43.116169874379835 -73.45761608810668 -34.972135788745945 52.745627724530586 0.0 0.0
-39.035699269696416 -40.13761346594325 -23.751993820691897 -38.39933308820234 0.0 0.0
-83.85330463920401 -37.840527212844115 -36.508149555614445 -70.5923681440034 0.0 0.0
-171.6023926823464 -2.3804210644117205 -52.19506460173171 -99.56117591511801 0.0 0.0
-285.7028945060227 3.0292160404538153 -84.67712104872516 -99.20083751398815 0.0 0.0
-427.2958651976358 -4.418135031206539 -135.3551267967701 -82.58606285236326 0.0 0.0
-565.6870764821945 -34.89192782026376 -228.4964444490332 -67.55724322387867 0.0 0.0
-675.7691537007787 -58.524859516039164 -333.048386873397 -66.15922685862483 0.0 0.0
-759.3154785951708 -74.75864516366079 -407.0506441938785 -66.27368344122549 0.0 0.0
-831.1873451054785 -88.3161427944096 -456.76719355166506 -67.81414529158373 0.0 0.0
-895.0981082177026 -101.2061305008224 -496.5251659829448 -68.97221178118595 0.0 0.0
-956.3060924336023 -117.25261593877259 -535.3989856934177 -68.76859142623177 0.0 0.0
-1018.0710708077789 -138.07735391807648 -576.7284437093555 -67.58445304993971 0.0 0.0
-1079.722527692676 -163.02297745815548 -620.0744098921509 -65.96477349714114 0.0 0.0
-1139.2846642533555 -188.06813261061401 -662.4017474672783 -64.21211309097384 0.0 0.0
-1193.8221099933191 -211.16092713821175 -701.2529724055394 -62.14059272745988 0.0 0.0
-1234.226251788073 -222.6134612743872 -727.3650505491792 -60.27899199049977 0.0 0.0
-1233.3355943133595 -196.09401953421104 -714.0594947076318 -60.5307567283548 0.0 0.0
-1152.3195797006633 -96.1663231888763 -624.0430581689562 -64.29867229172227 0.0 0.0
-987.2880728333689 77.09945283973357 -455.222259441407 -70.6988327845463 0.0 0.0
-760.8409494120265 294.8855955186705 -233.19603850825487 -80.32002318053199 0.0 0.0
-3584.3999691869058 -2573.9881780758415 -3069.288866906702 9.272582701669307e-12 0.0 0.0
-760.8409494117329 294.88559551895685 -233.1960385081494 80.32002318057076 0.0 0.0
-987.2880728332625 77.0994528397679 -455.2222594413737 70.69883278452384 0.0 0.0
-1152.319579701458 -96.16632318979272 -624.0430581695167 64.29867229183958 0.0 0.0
-1233.335594312404 -196.09401953336007 -714.0594947069625 60.530756728411085 0.0 0.0
-1234.2262517873098 -222.61346127375975 -727.3650505485878 60.27899199048703 0.0 0.0
-1193.8221099929833 -211.16092713804048 -701.2529724052955 62.14059272748196 0.0 0.0
-1139.284664252848 -188.0681326103075 -662.4017474668959 64.21211309104419 0.0 0.0
-1079.7225276922586 -163.02297745793527 -620.0744098919229 65.96477349710747 0.0 0.0
-1018.0710708076774 -138.07735391820498 -576.7284437092908 67.58445304992367 0.0 0.0
-956.3060924339316 -117.25261593946601 -535.398985693682 68.76859142644261 0.0 0.0
-895.0981082170379 -101.20613050044298 -496.5251659824964 68.97221178119821 0.0 0.0
-831.1873451046829 -88.31614279380453 -456.7671935511227 67.81414529133141 0.0 0.0
-759.3154785945301 -74.75864516336226 -407.05064419343654 66.27368344123279 0.0 0.0
-675.7691537003926 -58.524859516041296 -333.04838687296797 66.15922685867085 0.0 0.0
-565.6870764816322 -34.89192782010471 -228.49644444856466 67.55724322393195 0.0 0.0
-427.29586519720215 -4.418135031089728 -135.3551267965622 82.58606285239352 0.0 0.0
-285.7028945055602 3.0292160406067743 -84.67712104856552 99.20083751384333 0.0 0.0
-171.6023926822359 -2.380421064703533 -52.19506460178581 99.56117591509442 0.0 0.0
-83.85330463918388 -37.840527212894656 -36.508149555623554 70.59236814395486 0.0 0.0
-39.03569926971113 -40.13761346591608 -23.75199382068816 38.39933308812463 0.0 0.0
-36.4478120833202 -19.69935543187119 -16.844150254557416 -24.939956211110427 0.0 0.0
-86.2199160847495 -26.40052347683315 -33.78613186847478 -47.781634392340194 0.0 0.0
-186.08420300714525 -1.1431252478085736 -56.16819847648614 -69.86652171219065 0.0 0.0
-321.30286342376286 -2.4360766966579246 -96.89573590205379 -68.41262373253795 0.0 0.0
-478.7760023896217 -18.482436293796162 -162.88132354738207 -51.82359445086884 0.0 0.0
-613.2327438521991 -44.35539652059565 -265.73234024918287 -44.41311658336501 0.0 0.0
-708.7763690857792 -65.01267440416129 -362.9699333752634 -44.218309768993024 0.0 0.0
-793.908079770775 -83.0765992399061 -432.05561709889855 -45.09714426213643 0.0 0.0
-868.1230436164017 -100.42725870539077 -482.2543082828723 -46.528475787609395 0.0 0.0
-935.4633058989707 -116.87547547855047 -524.9928754521271 -47.68351637364887 0.0 0.0
-1000.4634849666277 -136.26221144155767 -567.3724496474479 -47.83125524682765 0.0 0.0
-1065.3859382308442 -160.15724138216407 -611.8169201857003 -47.162507997184704 0.0 0.0
-1130.119581311201 -186.89128549625676 -657.5806427000597 -46.22562263967266 0.0 0.0
-1191.0797925180236 -213.74259453952547 -701.5186626218979 -45.0826193386826 0.0 0.0
-1244.703726693206 -235.36897331204827 -739.1796221993981 -43.49251176609006 0.0 0.0
-1284.5087926601282 -245.79543967381318 -764.379357041244 -41.195305811301395 0.0 0.0
-1297.1858446031315 -232.43113017054895 -764.2732025449003 -39.32453460906023 0.0 0.0
-1240.4928112964983 -155.4543143859277 -697.930601469703 -41.488726083363424 0.0 0.0
-1039.3982883782269 55.63784091788625 -492.28259392133776 -50.855926994500734 0.0 0.0
-736.4689398374517 351.305053404952 -192.88742888829984 -66.87902567032303 0.0 0.0
-3746.807471532575 -2698.1745394160225 -3214.43427510808 -7.567280135845067e-13 0.0 0.0
-736.4689398380754 351.3050534042504 -192.88742888881922 66.87902567050307 0.0 0.0
-1039.3982883794035 55.637840916654 -492.2825939222297 50.85592699463407 0.0 0.0
-1240.4928112971195 -155.45431438665443 -697.9306014701269 41.48872608332447 0.0 0.0
-1297.1858446018123 -232.43113016935484 -764.2732025439387 39.32453460915089 0.0 0.0
-1284.5087926605602 -245.79543967439682 -764.3793570414865 41.195305811376095 0.0 0.0
-1244.7037266940445 -235.36897331304252 -739.1796221999231 43.49251176615517 0.0 0.0
-1191.0797925178833 -213.742594539571 -701.5186626216863 45.08261933855246 0.0 0.0
-1130.1195813106413 -186.89128549591348 -657.5806426997036 46.22562263976069 0.0 0.0
-1065.3859382312044 -160.15724138271491 -611.8169201859164 47.16250799691937 0.0 0.0
-1000.4634849665614 -136.26221144183626 -567.372449647448 47.83125524701962 0.0 0.0
-935.4633058980758 -116.87547547793154 -524.9928754515169 47.68351637370626 0.0 0.0
-868.1230436172077 -100.427258706504 -482.2543082833571 46.52847578761097 0.0 0.0
-793.9080797699467 -83.07659923941033 -432.05561709830687 45.09714426209828 0.0 0.0
-708.776369085261 -65.01267440395264 -362.9699333747376 44.21830976889144 0.0 0.0
-613.2327438516993 -44.35539652046117 -265.7323402487092 44.413116583417384 0.0 0.0
-478.776002389288 -18.48243629386798 -162.8813235472006 51.823594450894326 0.0 0.0
-321.30286342354464 -2.436076696638305 -96.89573590200203 68.41262373263655 0.0 0.0
-186.0842030071488 -1.1431252481499552 -56.16819847658963 69.86652171204247 0.0 0.0
-86.2199160846786 -26.40052347679749 -33.78613186844282 47.78163439228645 0.0 0.0
-36.44781208325895 -19.699355431772823 -16.844150254509525 24.939956211168145 0.0 0.0
-33.01089324757177 -11.094239941529679 -13.231539956730435 -14.041420081532914 0.0 0.0
-84.07515545514066 -17.171676971372907 -30.374049727954066 -23.943368615619526 0.0 0.0
-198.48412087751143 -1.0815149276292413 -59.86969074154219 -34.00289809954582 0.0 0.0
-358.7466133956388 -7.774830724789942 -110.20049646015724 -32.12541252823537 0.0 0.0
-528.716217908249 -30.25908589984884 -192.22574388620646 -23.38385420230606 0.0 0.0
-647.8963155649097 -51.252832400511494 -298.19972104170745 -23.02726010323741 0.0 0.0
-738.1177015261699 -69.40651267340813 -386.68229232874523 -23.788712978191203 0.0 0.0
-823.7221428411442 -91.89513641683472 -453.53296914580994 -24.204787077439263 0.0 0.0
-900.957774675327 -112.7343261559112 -505.36245272879773 -24.877393858596772 0.0 0.0
-972.1061543532895 -133.15981671607588 -551.7714692304177 -25.644007739782317 0.0 0.0
-1040.6084725079654 -155.62342402464745 -597.4206692113171 -25.997930359590374 0.0 0.0
-1108.8096314851189 -181.6356996592653 -644.565541340043 -25.93573987157295 0.0 0.0
-1176.0239669845155 -211.0832723459173 -692.9212299701911 -25.573079984589786 0.0 0.0
-1238.7981815983178 -238.57812337253597 -738.0884082267344 -25.037272148447265 0.0 0.0
-1290.1427462978136 -257.58067512227666 -773.3146382625514 -24.13715364057296 0.0 0.0
-1323.857673108544 -261.9783886199747 -792.4403620378546 -22.412215162133908 0.0 0.0
-1337.6173451058094 -249.97342148562902 -793.3553919886886 -19.88356526683431 0.0 0.0
-1328.6200127196573 -220.0337463192478 -774.0252551526503 -19.085245585419756 0.0 0.0
-1209.3364217365465 -87.87766462832505 -648.9578051073173 -27.145168938275003 0.0 0.0
-711.7537424731831 406.4084675896382 -153.3230492488191 -50.45461603647394 0.0 0.0
-3695.3844811068334 -2610.60468172934 -3146.8396670343823 4.623679217274912e-11 0.0 0.0
-711.753742474692 406.4084675880712 -153.3230492498788 50.45461603660153 0.0 0.0
-1209.3364217374665 -87.8776646293473 -648.9578051080335 27.145168938351794 0.0 0.0
-1328.6200127195634 -220.0337463192272 -774.0252551525853 19.085245585384495 0.0 0.0
-1337.617345104867 -249.97342148478796 -793.355391988163 19.88356526679908 0.0 0.0
-1323.8576731092205 -261.9783886208161 -792.4403620382709 22.412215162085758 0.0 0.0
-1290.142746298053 -257.58067512271055 -773.3146382626833 24.137153640747336 0.0 0.0
-1238.7981815974194 -238.5781233718171 -738.0884082260478 25.03727214833497 0.0 0.0
-1176.0239669844086 -211.083272346007 -692.9212299701621 25.57307998463916 0.0 0.0
-1108.8096314853476 -181.63569965976197 -644.5655413401408 25.935739871530103 0.0 0.0
-1040.6084725083442 -155.62342402529018 -597.4206692115229 25.997930359499236 0.0 0.0
-972.1061543519185 -133.15981671497588 -551.7714692294984 25.644007739754876 0.0 0.0
-900.9577746759594 -112.73432615689248 -505.36245272918086 24.877393858741 0.0 0.0
-823.7221428397615 -91.89513641572344 -453.53296914489175 24.204787077295144 0.0 0.0
-738.1177015254395 -69.40651267295735 -386.6822923281519 23.788712978073907 0.0 0.0
-647.8963155646591 -51.25283240061861 -298.19972104134825 23.02726010321598 0.0 0.0
-528.7162179080908 -30.25908590018822 -192.22574388607 23.383854202177297 0.0 0.0
-358.74661339507736 -7.774830724453288 -110.20049645990703 32.12541252826933 0.0 0.0
-198.48412087736435 -1.0815149276757308 -59.86969074151201 34.00289809937917 0.0 0.0
-84.07515545506567 -17.17167697132245 -30.37404972791643 23.943368615398967 0.0 0.0
-33.01089324749003 -11.094239941421877 -13.23153995667357 14.04142008158804 0.0 0.0
-21.641814913213054 -5.674119935583194 -8.194780454638874 -8.58561672037971 0.0 0.0
-73.34375073071661 -9.82207131436449 -24.94974661352433 -9.951918105489577 0.0 0.0
-208.1617984450652 -3.2452282638209837 -63.422108012665845 -11.24609279256975 0.0 0.0
-404.04256085635967 -25.971046777789713 -131.2828092906349 -7.636839088254188 0.0 0.0
-599.7860377057337 -77.33544739224254 -242.2712283157962 0.2907960100153133 0.0 0.0
-743.1770561154193 -128.65194456347956 -378.73520123748926 1.4157967670925586 0.0 0.0
-870.1748233583544 -186.41790567910127 -502.4480393961182 0.5788908385292508 0.0 0.0
-1004.6695241062904 -259.28404602786634 -617.5656088896505 -0.9348011707928556 0.0 0.0
-1146.903404394604 -345.9105612711787 -734.7452910986668 -2.637739005486509 0.0 0.0
-1305.5771869272776 -453.58179945631275 -868.3812439025369 -4.451582926262173 0.0 0.0
-1486.6785999607105 -587.984355723681 -1025.934962850783 -6.147870418765235 0.0 0.0
-1690.5955616728083 -749.8252127238801 -1208.4168601107667 -7.481808584395745 0.0 0.0
-1911.1581162497496 -931.5673158402651 -1409.1527297772795 -8.368466018350938 0.0 0.0
-2137.660463851793 -1122.3433659278749 -1617.4650884606153 -9.07073805593505 0.0 0.0
-2353.280319216483 -1305.2644205013614 -1816.5167602958177 -9.388813651710798 0.0 0.0
-2534.9627846505555 -1457.5399273542475 -1983.4186502599048 -9.025880891255547 0.0 0.0
-2655.8699084156005 -1553.0362731371267 -2091.6356570018816 -7.602848321130097 0.0 0.0
-2704.806379824087 -1581.3671845612362 -2129.922644252611 -6.156601332595848 0.0 0.0
-2763.067697776213 -1625.173702840889 -2179.5460183097584 -12.886074825770603 0.0 0.0
-2848.003935094023 -1708.7271647163616 -2261.356702160506 -40.24831186683752 0.0 0.0
-6357.357416419001 -5244.66737444871 -5777.063597798757 -3.063860276597552e-11 0.0 0.0
-2848.0039350952957 -1708.7271647176985 -2261.356702161295 40.24831186685425 0.0 0.0
-2763.0676977740786 -1625.1737028388022 -2179.5460183080895 12.886074825732962 0.0 0.0
-2704.806379822756 -1581.3671845600056 -2129.9226442512922 6.156601332587503 0.0 0.0
-2655.869908414049 -1553.036273135671 -2091.6356570007456 7.602848321033413 0.0 0.0
-2534.962784649431 -1457.5399273532971 -1983.4186502588414 9.025880891204984 0.0 0.0
-2353.2803192144656 -1305.2644204994906 -1816.5167602941788 9.388813651901508 0.0 0.0
-2137.660463849428 -1122.343365925676 -1617.465088458716 9.070738055854214 0.0 0.0
-1911.1581162491884 -931.5673158399409 -1409.1527297767107 8.368466018340243 0.0 0.0
-1690.5955616723393 -749.8252127236524 -1208.4168601102015 7.481808584506979 0.0 0.0
-1486.6785999610097 -587.9843557242898 -1025.934962850619 6.147870418425846 0.0 0.0
-1305.5771869240725 -453.58179945335684 -868.3812439002961 4.451582926308205 0.0 0.0
-1146.9034043940578 -345.9105612709438 -734.7452910981518 2.6377390057310848 0.0 0.0
-1004.6695241048153 -259.2840460266664 -617.5656088886078 0.934801170555609 0.0 0.0
-870.1748233573583 -186.41790567842017 -502.4480393953113 -0.5788908386066112 0.0 0.0
-743.1770561147027 -128.65194456306614 -378.7352012367851 -1.41579676709663 0.0 0.0
-599.7860377053865 -77.3354473923674 -242.2712283154636 -0.2907960100478135 0.0 0.0
-404.0425608557218 -25.971046777239266 -131.28280929025976 7.636839088172216 0.0 0.0
-208.16179844505092 -3.2452282639083307 -63.42210801268777 11.246092792613318 0.0 0.0
-73.34375073066819 -9.822071314437878 -24.94974661353181 9.951918105164289 0.0 0.0
-21.641814912908856 -5.674119935431831 -8.194780454502208 8.585616720187248 0.0 0.0
SCALARS Strain float 6
LOOKUP_TABLE default
0.014887211456131273 -0.024682140341962956 0.0 -0.0015053474738039134 0.0 0.0
0.009150715602561699 -0.0027934828708851183 0.0 -0.007476700793362309 0.0 0.0
0.002698426970925941 -0.0006258331648563255 0.0 -0.0009070368870851245 0.0 0.0
0.0022863248564876297 -0.0009083149989216404 0.0 1.6324970717942573e-05 0.0 0.0
0.0034262900838249316 -0.0015163043938675766 0.0 0.00020646584258984796 0.0 0.0
0.005923288610064966 -0.0034129263211580742 0.0 0.00037434048573711993 0.0 0.0
0.010258385261235825 -0.007134897561218765 0.0 0.0004951403471315787 0.0 0.0
0.01680234187942473 -0.013041154511029811 0.0 0.0005359816241614559 0.0 0.0
0.02584447442154631 -0.021389778920224554 0.0 0.0004942915290004322 0.0 0.0
0.037487120205238776 -0.03222697720031707 0.0 0.000338632836424933 0.0 0.0
0.051642627414401995 -0.04542993146632958 0.0 0.00010142351551463912 0.0 0.0
0.06811081162980662 -0.06079630202906691 0.0 -0.00020724940415084675 0.0 0.0
0.08664421923245036 -0.07811481418704744 0.0 -0.0006047278062126009 0.0 0.0
0.10697796659168712 -0.0971654516156405 0.0 -0.001045060999042384 0.0 0.0
0.12875572117553655 -0.11764946576293217 0.0 -0.0015536785518917083 0.0 0.0
0.1513830757028831 -0.13903809757785907 0.0 -0.002106505702972395 0.0 0.0
0.1739320379468325 -0.16047086450625353 0.0 -0.0025915683366941923 0.0 0.0
0.19514105532073 -0.18075309188979197 0.0 -0.002825753740446885 0.0 0.0
0.2135364031425938 -0.19842134498187058 0.0 -0.0026545857164431527 0.0 0.0
0.2273031838274085 -0.2117452784375939 0.0 -0.0031194831261144762 0.0 0.0
0.23276738569775168 -0.21726542344908056 0.0 3.864963904476326e-15 0.0 0.0
0.22730318382737774 -0.21174527843757285 0.0 0.0031194831261204276 0.0 0.0
0.21353640314252814 -0.19842134498180908 0.0 0.0026545857164523897 0.0 0.0
0.19514105532063725 -0.18075309188970987 0.0 0.0028257537404525242 0.0 0.0
0.1739320379467263 -0.16047086450614045 0.0 0.002591568336695216 0.0 0.0
0.15138307570277143 -0.13903809757775507 0.0 0.0021065057029712782 0.0 0.0
0.1287557211754234 -0.11764946576282717 0.0 0.0015536785518881846 0.0 0.0
0.10697796659157374 -0.09716545161553726 0.0 0.0010450609990382944 0.0 0.0
0.08664421923233914 -0.07811481418695009 0.0 0.0006047278062090338 0.0 0.0
0.06811081162970516 -0.060796302028975374 0.0 0.00020724940414547192 0.0 0.0
0.05164262741431531 -0.04542993146624707 0.0 -0.00010142351552410887 0.0 0.0
0.037487120205168555 -0.032226977200250126 0.0 -0.0003386328364236603 0.0 0.0
0.025844474421492722 -0.021389778920181977 0.0 -0.000494291529001138 0.0 0.0
0.016802341879386264 -0.013041154510990086 0.0 -0.0005359816241600737 0.0 0.0
0.010258385261211079 -0.007134897561199758 0.0 -0.0004951403471312466 0.0 0.0
0.005923288610051447 -0.003412926321144062 0.0 -0.00037434048573489975 0.0 0.0
0.003426290083819784 -0.0015163043938614292 0.0 -0.00020646584259031634 0.0 0.0
0.0022863248564857093 -0.0009083149989213616 0.0 -1.6324970718091238e-05 0.0 0.0
0.0026984269709231434 -0.0006258331648559788 0.0 0.0009070368870846967 0.0 0.0
0.009150715602555547 -0.002793482870882224 0.0 0.00747670079335226 0.0 0.0
0.014887211456122667 -0.024682140341937733 0.0 0.001505347473755365 0.0 0.0
0.010451106956856844 -0.022159918379643616 0.0 -0.0010362847169167312 0.0 0.0
0.00611197598783266 -0.002092651390828565 0.0 -0.006133871246501653 0.0 0.0
0.0017637588423352279 -0.00047403998257034236 0.0 -0.0005726100904665925 0.0 0.0
0.0020100380921675817 -0.0008535957550128946 0.0 -0.0001888773024073369 0.0 0.0
0.0029404655788041064 -0.0013596641098139902 0.0 -0.00014858043570451754 0.0 0.0
0.00506543569897243 -0.0030565210031877617 0.0 -0.00023901369961644984 0.0 0.0
0.008922247306742093 -0.006524166223131621 0.0 -0.0005655833341052816 0.0 0.0
0.014858185132219096 -0.012118555535423698 0.0 -0.0010881939291078687 0.0 0.0
0.023105707775259 -0.020067515632729196 0.0 -0.001826466353873886 0.0 0.0
0.033700384849644285 -0.03038317667251627 0.0 -0.002749855711902188 0.0 0.0
0.04651822275591628 -0.04292378272406064 0.0 -0.003768094847182858 0.0 0.0
0.06136995557255366 -0.05748919834638348 0.0 -0.00480937552777897 0.0 0.0
0.07806962230481321 -0.07389428674275873 0.0 -0.005878317624518837 0.0 0.0
0.0964085982369048 -0.09195189395913612 0.0 -0.006977703295355607 0.0 0.0
0.11607778839210829 -0.11138443647622001 0.0 -0.008072194454619644 0.0 0.0
0.13656264744466437 -0.13170406428567744 0.0 -0.00905918857895372 0.0 0.0
0.15705204401905853 -0.1521156922505096 0.0 -0.009688768803481965 0.0 0.0
0.1764249910230866 -0.17149485771169287 0.0 -0.009620979543233042 0.0 0.0
0.19321668843984507 -0.18840482627240038 0.0 -0.008694254576736728 0.0 0.0
0.20527241632439075 -0.20093189379502902 0.0 -0.007710173926747315 0.0 0.0
0.20978505893824465 -0.2061722822966039 0.0 9.442099879741761e-15 0.0 0.0
0.20527241632436144 -0.2009318937950035 0.0 0.007710173926767779 0.0 0.0
0.19321668843978682 -0.1884048262723374 0.0 0.008694254576760839 0.0 0.0
0.17642499102300582 -0.17149485771162004 0.0 0.009620979543247494 0.0 0.0
0.1570520440189652 -0.15211569225041036 0.0 0.009688768803485313 0.0 0.0
0.13656264744456442 -0.1317040642855794 0.0 0.00905918857894749 0.0 0.0
0.11607778839200597 -0.11138443647612066 0.0 0.00807219445461502 0.0 0.0
0.09640859823680277 -0.09195189395903788 0.0 0.00697770329534961 0.0 0.0
0.0780696223047136 -0.07389428674266242 0.0 0.005878317624512989 0.0 0.0
0.06136995557246243 -0.05748919834629418 0.0 0.004809375527772835 0.0 0.0
0.04651822275583829 -0.042923782723981584 0.0 0.003768094847169999 0.0 0.0
0.033700384849580454 -0.030383176672453674 0.0 0.0027498557118949387 0.0 0.0
0.023105707775210316 -0.020067515632685124 0.0 0.0018264663538677193 0.0 0.0
0.014858185132184523 -0.012118555535387245 0.0 0.0010881939291031567 0.0 0.0
0.008922247306719816 -0.006524166223112896 0.0 0.0005655833341041575 0.0 0.0
0.005065435698961144 -0.0030565210031748102 0.0 0.0002390136996149088 0.0 0.0
0.002940465578800079 -0.0013596641098096874 0.0 0.00014858043570437825 0.0 0.0
0.002010038092166334 -0.0008535957550125182 0.0 0.00018887730240781158 0.0 0.0
0.0017637588423344262 -0.00047403998257138655 0.0 0.0005726100904672483 0.0 0.0
0.006111975987825378 -0.002092651390824762 0.0 0.006133871246488357 0.0 0.0
0.010451106956842897 -0.022159918379617543 0.0 0.0010362847168802166 0.0 0.0
0.007684448837884982 -0.017719552276519408 0.0 -0.004122761590805381 0.0 0.0
0.004348706978980151 -0.001170769002460346 0.0 -0.006222148203493644 0.0 0.0
0.0012216695839392087 -0.0002494347023861411 0.0 -0.0005109121443327464 0.0 0.0
0.0016985636589379603 -0.0007209099610902167 0.0 -0.00047936141844049014 0.0 0.0
0.0025003569062993624 -0.001088260936027272 0.0 -0.000494660917735044 0.0 0.0
0.004253776464257746 -0.002385440148536105 0.0 -0.0006660652760739498 0.0 0.0
0.007603288016258758 -0.005323753705214458 0.0 -0.0012907640812055811 0.0 0.0
0.012897694662711344 -0.010278439919136854 0.0 -0.0023011470499716756 0.0 0.0
0.020306652604804014 -0.017405093913144428 0.0 -0.003710620475279829 0.0 0.0
0.029819693815951863 -0.026662469444077356 0.0 -0.005429485650108953 0.0 0.0
0.04128555652156174 -0.03787065081325325 0.0 -0.00729419097823083 0.0 0.0
0.054521826175080605 -0.05083579138334808 0.0 -0.009160829291878763 0.0 0.0
0.06937645161072896 -0.06541261488092844 0.0 -0.011007710336066498 0.0 0.0
0.0856999826227561 -0.08147190323574344 0.0 -0.012890952956976327 0.0 0.0
0.10324755631274542 -0.09879280521801706 0.0 -0.014770894778134395 0.0 0.0
0.12159262143135942 -0.11697291406041455 0.0 -0.016441760159091434 0.0 0.0
0.1400591981637177 -0.13535107071685168 0.0 -0.017502310754939177 0.0 0.0
0.15763822188443785 -0.15293957612344866 0.0 -0.017453763066103706 0.0 0.0
0.17285103242487213 -0.16833259930539243 0.0 -0.016021725696292708 0.0 0.0
0.18378306020682805 -0.17954798705851313 0.0 -0.013273842745795156 0.0 0.0
0.18792032267485512 -0.18453300343946036 0.0 1.565848145590465e-14 0.0 0.0
0.18378306020680102 -0.1795479870584845 0.0 0.01327384274583428 0.0 0.0
0.1728510324248206 -0.16833259930533725 0.0 0.016021725696332256 0.0 0.0
0.15763822188436738 -0.15293957612338083 0.0 0.017453763066126424 0.0 0.0
0.1400591981636354 -0.13535107071676686 0.0 0.017502310754944385 0.0 0.0
0.12159262143127006 -0.11697291406032662 0.0 0.016441760159083205 0.0 0.0
0.1032475563126536 -0.09879280521792652 0.0 0.014770894778128582 0.0 0.0
0.08569998262266477 -0.08147190323565455 0.0 0.012890952956969896 0.0 0.0
0.06937645161064145 -0.06541261488084164 0.0 0.011007710336056006 0.0 0.0
0.05452182617499945 -0.05083579138326612 0.0 0.009160829291866244 0.0 0.0
0.041285556521491566 -0.03787065081318573 0.0 0.0072941909782142204 0.0 0.0
0.029819693815895165 -0.026662469444018753 0.0 0.005429485650095504 0.0 0.0
0.020306652604760007 -0.017405093913102774 0.0 0.003710620475270568 0.0 0.0
0.01289769466268052 -0.010278439919103996 0.0 0.002301147049962281 0.0 0.0
0.007603288016240047 -0.005323753705196434 0.0 0.0012907640812027078 0.0 0.0
0.004253776464248208 -0.0023854401485278224 0.0 0.0006660652760695821 0.0 0.0
0.0025003569062959506 -0.0010882609360233293 0.0 0.0004946609177347094 0.0 0.0
0.0016985636589375045 -0.0007209099610918417 0.0 0.0004793614184410405 0.0 0.0
0.001221669583938903 -0.0002494347023866382 0.0 0.0005109121443320806 0.0 0.0
0.00434870697897299 -0.0011707690024562178 0.0 0.0062221482034785025 0.0 0.0
0.007684448837871541 -0.017719552276493224 0.0 0.004122761590778946 0.0 0.0
0.005820963259312908 -0.014292161238674737 0.0 -0.004561300638230828 0.0 0.0
0.0032188488696765745 -0.0008432005817835634 0.0 -0.005679058401218939 0.0 0.0
0.000867581748166776 -0.00013894359054744405 0.0 -0.0007923778796753729 0.0 0.0
0.0013982754930075229 -0.0005703908031944933 0.0 -0.0007745936319925302 0.0 0.0
0.0021000665997290566 -0.0008808138770423956 0.0 -0.0008250853434954332 0.0 0.0
0.0035072297900379853 -0.0018169018353536171 0.0 -0.0010289866271828403 0.0 0.0
0.006324468625691646 -0.0041858996867489865 0.0 -0.0017790032141466968 0.0 0.0
0.010940281406625963 -0.008458366387163359 0.0 -0.0031801301603159074 0.0 0.0
0.017477484384692286 -0.014724969753742493 0.0 -0.005096008056003622 0.0 0.0
0.02588182604963715 -0.022894141511200256 0.0 -0.00741461399955016 0.0 0.0
0.03598018789660657 -0.03275628830757307 0.0 -0.009909311452984841 0.0 0.0
0.047596193570200944 -0.044119088882036514 0.0 -0.012400042290003285 0.0 0.0
0.060604828289160154 -0.05686545607556108 0.0 -0.014856896183746755 0.0 0.0
0.07489689527285487 -0.07091178576814143 0.0 -0.017328199701421333 0.0 0.0
0.09030215132825749 -0.0861020816876946 0.0 -0.019777930980783814 0.0 0.0
0.10650082332394382 -0.10213153709419392 0.0 -0.021980068901089538 0.0 0.0
0.12294123483660158 -0.1184752481366387 0.0 -0.023463260875280813 0.0 0.0
0.13873165320348146 -0.13427941011156752 0.0 -0.023624005880265402 0.0 0.0
0.15253806658598687 -0.14822850056870213 0.0 -0.02184343911453365 0.0 0.0
0.1627128515581109 -0.15859004072800084 0.0 -0.017215585063398587 0.0 0.0
0.16667665322605016 -0.16373928983578373 0.0 2.2490689866039304e-14 0.0 0.0
0.1627128515580863 -0.1585900407279732 0.0 0.01721558506345408 0.0 0.0
0.15253806658594088 -0.14822850056865683 0.0 0.021843439114586145 0.0 0.0
0.13873165320342012 -0.1342794101115059 0.0 0.023624005880297012 0.0 0.0
0.12294123483653 -0.11847524813656612 0.0 0.023463260875286072 0.0 0.0
0.10650082332386544 -0.10213153709412087 0.0 0.021980068901081 0.0 0.0
0.09030215132817632 -0.0861020816876179 0.0 0.019777930980773288 0.0 0.0
0.07489689527277471 -0.0709117857680629 0.0 0.017328199701411053 0.0 0.0
0.06060482828908402 -0.056865456075493245 0.0 0.014856896183730976 0.0 0.0
0.04759619357013019 -0.04411908888195982 0.0 0.01240004228998284 0.0 0.0
0.03598018789654507 -0.03275628830751773 0.0 0.009909311452965409 0.0 0.0
0.025881826049586755 -0.02289414151114932 0.0 0.007414613999531668 0.0 0.0
0.017477484384653328 -0.014724969753705987 0.0 0.005096008055993607 0.0 0.0
0.010940281406599538 -0.008458366387133043 0.0 0.0031801301603079086 0.0 0.0
0.006324468625675517 -0.004185899686736865 0.0 0.0017790032141416926 0.0 0.0
0.003507229790030632 -0.001816901835347432 0.0 0.001028986627179512 0.0 0.0
0.0021000665997272304 -0.0008808138770387801 0.0 0.0008250853434952556 0.0 0.0
0.0013982754930073602 -0.0005703908031947385 0.0 0.0007745936319916097 0.0 0.0
0.0008675817481666514 -0.00013894359054730744 0.0 0.0007923778796733225 0.0 0.0
0.0032188488696700433 -0.0008432005817800853 0.0 0.005679058401207831 0.0 0.0
0.005820963259300411 -0.014292161238650711 0.0 0.00456130063821205 0.0 0.0
0.00442503172468496 -0.011531643043033453 0.0 -0.004050379048204781 0.0 0.0
0.002413492107596536 -0.0006693768664796904 0.0 -0.0050636942174421455 0.0 0.0
0.0006290888912213582 -8.717918598807173e-05 0.0 -0.0011889396143782884 0.0 0.0
0.0011287675085437095 -0.0004335095644623811 0.0 -0.0010944556742577794 0.0 0.0
0.001735651237750191 -0.0007125987097785483 0.0 -0.0011518155656392692 0.0 0.0
0.002839314924335047 -0.0013642653860584824 0.0 -0.001346946167742816 0.0 0.0
0.005113065410292711 -0.003157898825627884 0.0 -0.0021052816292452666 0.0 0.0
0.00900970635012226 -0.0066844976611946435 0.0 -0.0036874645551197216 0.0 0.0
0.01464963881721272 -0.012060328193131534 0.0 -0.005973638938748938 0.0 0.0
0.021921179476642214 -0.019116357074808996 0.0 -0.008699901437313556 0.0 0.0
0.030639283958050476 -0.02761908595967873 0.0 -0.011619653992645721 0.0 0.0
0.040627424601568894 -0.03737401244113644 0.0 -0.014530167239451903 0.0 0.0
0.051783615719885684 -0.04828694113884391 0.0 -0.01740365939778642 0.0 0.0
0.06404426534785815 -0.06031559459943453 0.0 -0.02028480302057131 0.0 0.0
0.07729542516854575 -0.07336403637859366 0.0 -0.023114121740776972 0.0 0.0
0.09131408147582482 -0.08721855499073906 0.0 -0.025661947743689937 0.0 0.0
0.10569227581998537 -0.10148847783218808 0.0 -0.027507358529029007 0.0 0.0
0.1197068246361477 -0.11548736316197158 0.0 -0.02798944929568403 0.0 0.0
0.13224124522884168 -0.1281177111594254 0.0 -0.026041337229572175 0.0 0.0
0.14188720703725763 -0.13790804306186255 0.0 -0.02019187476202624 0.0 0.0
0.14580091470353135 -0.1434212953036756 0.0 2.5549874715924403e-14 0.0 0.0
0.1418872070372353 -0.13790804306184867 0.0 0.02019187476208746 0.0 0.0
0.13224124522880093 -0.12811771115938364 0.0 0.02604133722962939 0.0 0.0
0.119706824636095 -0.11548736316191954 0.0 0.027989449295717242 0.0 0.0
0.10569227581992383 -0.10148847783213275 0.0 0.027507358529036303 0.0 0.0
0.09131408147575655 -0.08721855499067659 0.0 0.02566194774368047 0.0 0.0
0.07729542516847565 -0.073364036378527 0.0 0.02311412174076511 0.0 0.0
0.0640442653477899 -0.060315594599368125 0.0 0.020284803020562223 0.0 0.0
0.05178361571982062 -0.04828694113878951 0.0 0.01740365939777034 0.0 0.0
0.0406274246015086 -0.037374012441075403 0.0 0.0145301672394289 0.0 0.0
0.03063928395799804 -0.027619085959628444 0.0 0.011619653992621055 0.0 0.0
0.021921179476599606 -0.01911635707476858 0.0 0.008699901437292478 0.0 0.0
0.014649638817179789 -0.012060328193102375 0.0 0.005973638938736764 0.0 0.0
0.009009706350099567 -0.006684497661170039 0.0 0.0036874645551104486 0.0 0.0
0.0051130654102801475 -0.0031578988256188286 0.0 0.0021052816292396917 0.0 0.0
0.0028393149243300065 -0.0013642653860526576 0.0 0.0013469461677388301 0.0 0.0
0.0017356512377484385 -0.0007125987097779717 0.0 0.0011518155656389726 0.0 0.0
0.001128767508543085 -0.0004335095644606885 0.0 0.0010944556742573382 0.0 0.0
0.0006290888912217121 -8.717918598839827e-05 0.0 0.001188939614377815 0.0 0.0
0.002413492107591162 -0.0006693768664773028 0.0 0.005063694217431146 0.0 0.0
0.004425031724673565 -0.011531643043012354 0.0 0.004050379048194596 0.0 0.0
0.003326943241701125 -0.009226337733366596 0.0 -0.0033508454077265538 0.0 0.0
0.0018021887193083984 -0.000550096777403224 0.0 -0.0044659256264620775 0.0 0.0
0.0004589605894449025 -7.090197217036949e-05 0.0 -0.0015689370751521899 0.0 0.0
0.0008866886500545517 -0.0003122294669500824 0.0 -0.0014157599395960526 0.0 0.0
0.0014034219318920444 -0.0005712678299265462 0.0 -0.0014753415131264192 0.0 0.0
0.002246867751047817 -0.001013629310158088 0.0 -0.0016332078052520244 0.0 0.0
0.0040024548073518 -0.002280417447628842 0.0 -0.0023435498653805583 0.0 0.0
0.0071473968629397235 -0.0050161227537591805 0.0 -0.00388782700943046 0.0 0.0
0.011846501954038817 -0.009444748262267013 0.0 -0.0063178583893787905 0.0 0.0
0.01797197937731846 -0.01536685634829111 0.0 -0.009276752979885295 0.0 0.0
0.02529728807308967 -0.022497513715290546 0.0 -0.012419052432817724 0.0 0.0
0.0336527944007264 -0.03063982992048231 0.0 -0.015550032711051043 0.0 0.0
0.042954372359760774 -0.03971702444646341 0.0 -0.018636968596084918 0.0 0.0
0.05317506373607088 -0.049724771836392845 0.0 -0.021726637807498356 0.0 0.0
0.06426596368645585 -0.06062499498586038 0.0 -0.024760452119262037 0.0 0.0
0.07608155160606878 -0.0722809924955582 0.0 -0.027498465604787293 0.0 0.0
0.08833780636684417 -0.08441778789983001 0.0 -0.02957734748771092 0.0 0.0
0.10054484679401982 -0.0965635599900344 0.0 -0.030384619414632802 0.0 0.0
0.11187370433765417 -0.10793293325719608 0.0 -0.028627018692242556 0.0 0.0
0.12113877526162467 -0.11732092826861384 0.0 -0.022349208976758937 0.0 0.0
0.12508841486358843 -0.1233575713175557 0.0 2.6402491304367004e-14 0.0 0.0
0.12113877526160555 -0.1173209282685996 0.0 0.022349208976823735 0.0 0.0
0.11187370433761923 -0.10793293325716272 0.0 0.028627018692306515 0.0 0.0
0.10054484679397523 -0.09656355998998961 0.0 0.030384619414670223 0.0 0.0
0.08833780636679235 -0.08441778789977997 0.0 0.02957734748771633 0.0 0.0
0.07608155160601082 -0.0722809924955022 0.0 0.0274984656047767 0.0 0.0
0.0642659636863973 -0.060624994985801414 0.0 0.02476045211924799 0.0 0.0
0.05317506373601407 -0.049724771836333115 0.0 0.021726637807486338 0.0 0.0
0.04295437235970663 -0.03971702444641206 0.0 0.01863696859606936 0.0 0.0
0.033652794400676436 -0.03063982992043785 0.0 0.015550032711032086 0.0 0.0
0.025297288073045838 -0.022497513715247407 0.0 0.012419052432793442 0.0 0.0
0.017971979377282846 -0.01536685634825426 0.0 0.00927675297986398 0.0 0.0
0.011846501954011615 -0.00944474826224404 0.0 0.006317858389363937 0.0 0.0
0.00714739686292156 -0.005016122753739249 0.0 0.003887827009421769 0.0 0.0
0.004002454807341721 -0.0022804174476207108 0.0 0.002343549865373823 0.0 0.0
0.002246867751043833 -0.0010136293101552043 0.0 0.0016332078052486414 0.0 0.0
0.001403421931891178 -0.0005712678299263975 0.0 0.001475341513125158 0.0 0.0
0.0008866886500543474 -0.00031222946695004723 0.0 0.0014157599395956944 0.0 0.0
0.00045896058944476894 -7.090197217027209e-05 0.0 0.0015689370751502606 0.0 0.0
0.0018021887193037669 -0.0005500967774016334 0.0 0.004465925626449819 0.0 0.0
0.0033269432416922298 -0.009226337733348756 0.0 0.00335084540771994 0.0 0.0
0.0024519619456194234 -0.007277096900369238 0.0 -0.0027058638805646062 0.0 0.0
0.0013245651954109953 -0.00045781468370673095 0.0 -0.003924144506895731 0.0 0.0
0.00032730113921552344 -6.901786342994643e-05 0.0 -0.0018829263799256314 0.0 0.0
0.0006634610598366227 -0.00020474776628688632 0.0 -0.0017126257678499704 0.0 0.0
0.001093924388588365 -0.00044037369901886653 0.0 -0.0017758516738602846 0.0 0.0
0.001720623042357892 -0.0007465037476002556 0.0 -0.0019153970773355651 0.0 0.0
0.003000544464793545 -0.0015647911808753467 0.0 -0.00249372000813487 0.0 0.0
0.0054018688131525295 -0.00352293808611833 0.0 -0.00389183038733586 0.0 0.0
0.009120035021756429 -0.006941031188204597 0.0 -0.006175448426161188 0.0 0.0
0.014064804722762555 -0.01168728925514487 0.0 -0.009119448624408385 0.0 0.0
0.019990367122649597 -0.01743234547464392 0.0 -0.01229003512657479 0.0 0.0
0.026708185594429078 -0.02395751793523423 0.0 -0.015446929648321311 0.0 0.0
0.03415424541157149 -0.03120090801548136 0.0 -0.018545139411532758 0.0 0.0
0.042335522030988115 -0.03918664264590083 0.0 -0.021638593751693698 0.0 0.0
0.0512537635133067 -0.04792960952184143 0.0 -0.02468117794750815 0.0 0.0
0.060838015638047846 -0.057367041304701716 0.0 -0.027456768543270563 0.0 0.0
0.0709213487606881 -0.06731605470684345 0.0 -0.02961670407886156 0.0 0.0
0.08124254612957907 -0.07751912768919911 0.0 -0.030702672070241986 0.0 0.0
0.0913303523641257 -0.08757992874037067 0.0 -0.029496168868443355 0.0 0.0
0.10028595626837083 -0.09663833818951517 0.0 -0.023670924628108568 0.0 0.0
0.10433537067085676 -0.10334676224068463 0.0 2.690989792109022e-14 0.0 0.0
0.10028595626835488 -0.09663833818949158 0.0 0.023670924628174002 0.0 0.0
0.09133035236409652 -0.0875799287403424 0.0 0.02949616886850702 0.0 0.0
0.08124254612954195 -0.077519127689161 0.0 0.030702672070283224 0.0 0.0
0.07092134876064553 -0.06731605470680026 0.0 0.029616704078866213 0.0 0.0
0.060838015638000564 -0.05736704130465077 0.0 0.027456768543258674 0.0 0.0
0.05125376351325915 -0.047929609521801045 0.0 0.02468117794749568 0.0 0.0
0.04233552203094342 -0.03918664264585142 0.0 0.021638593751682315 0.0 0.0
0.03415424541152903 -0.031200908015439816 0.0 0.018545139411516608 0.0 0.0
0.026708185594388895 -0.02395751793519431 0.0 0.015446929648299784 0.0 0.0
0.01999036712261454 -0.017432345474605444 0.0 0.012290035126548797 0.0 0.0
0.014064804722734803 -0.011687289255113698 0.0 0.009119448624385533 0.0 0.0
0.009120035021735393 -0.006941031188188659 0.0 0.006175448426147353 0.0 0.0
0.005401868813138357 -0.0035229380861055487 0.0 0.0038918303873261622 0.0 0.0
0.0030005444647863153 -0.0015647911808704647 0.0 0.0024937200081279844 0.0 0.0
0.001720623042355323 -0.000746503747597702 0.0 0.0019153970773332376 0.0 0.0
0.001093924388587684 -0.0004403736990185717 0.0 0.0017758516738593613 0.0 0.0
0.0006634610598365733 -0.00020474776628647744 0.0 0.0017126257678477703 0.0 0.0
0.0003273011392153135 -6.901786343024575e-05 0.0 0.0018829263799219204 0.0 0.0
0.0013245651954077557 -0.0004578146837054989 0.0 0.0039241445068864626 0.0 0.0
0.0024519619456133002 -0.007277096900354999 0.0 0.002705863880559047 0.0 0.0
0.0017550712643842918 -0.005635562450068229 0.0 -0.002199998097759507 0.0 0.0
0.0009455664982356871 -0.00038766602056767706 0.0 -0.0034359375519296344 0.0 0.0
0.00021439708087298695 -6.549602287752902e-05 0.0 -0.0021207828346196645 0.0 0.0
0.00045129366853690505 -0.00010877852316681108 0.0 -0.001967097143686673 0.0 0.0
0.0007947560450512937 -0.00030689858356828734 0.0 -0.0020320601918422986 0.0 0.0
0.0012517234944151364 -0.0005358103502323855 0.0 -0.002195569701329714 0.0 0.0
0.0021124110831648737 -0.0010124882349789015 0.0 -0.0026042359833634353 0.0 0.0
0.003797934551556352 -0.00225218790951975 0.0 -0.0037190566477737757 0.0 0.0
0.006529751349564658 -0.004638521770557497 0.0 -0.005655695189693679 0.0 0.0
0.01025262979197386 -0.008148309149937647 0.0 -0.008266410389408653 0.0 0.0
0.014750506024013496 -0.012473855561039545 0.0 -0.011212465546803337 0.0 0.0
0.01982986853278063 -0.017375686787590376 0.0 -0.014184938272245201 0.0 0.0
0.025425188087812068 -0.02278967725074772 0.0 -0.01709983206185347 0.0 0.0
0.03156379307249401 -0.02875555992954152 0.0 -0.019993090448902167 0.0 0.0
0.03829981992595144 -0.03533143764537254 0.0 -0.02285367648236931 0.0 0.0
0.045634604229625564 -0.042528730714038544 0.0 -0.025501359536171418 0.0 0.0
0.05348742443105415 -0.05025276967876015 0.0 -0.027596117599386807 0.0 0.0
0.061801343911305 -0.05839540325527583 0.0 -0.02880030437028573 0.0 0.0
0.07051222861037754 -0.06697148458032089 0.0 -0.028398469769804684 0.0 0.0
0.07913107135744436 -0.07564756056149974 0.0 -0.024006051705363997 0.0 0.0
0.08331162167662312 -0.08317368456719026 0.0 2.4299139089745125e-14 0.0 0.0
0.0791310713574325 -0.07564756056148561 0.0 0.024006051705421888 0.0 0.0
0.07051222861035501 -0.06697148458029278 0.0 0.02839846976986722 0.0 0.0
0.06180134391127545 -0.05839540325524514 0.0 0.02880030437032293 0.0 0.0
0.05348742443102053 -0.050252769678734446 0.0 0.027596117599388265 0.0 0.0
0.04563460422958892 -0.04252873071399699 0.0 0.025501359536156898 0.0 0.0
0.03829981992591562 -0.03533143764534148 0.0 0.02285367648235461 0.0 0.0
0.03156379307246144 -0.028755559929513702 0.0 0.019993090448891214 0.0 0.0
0.0254251880877806 -0.022789677250719335 0.0 0.01709983206184034 0.0 0.0
0.01982986853275062 -0.01737568678755949 0.0 0.01418493827222813 0.0 0.0
0.014750506023987545 -0.01247385556101233 0.0 0.011212465546782426 0.0 0.0
0.010252629791953509 -0.00814830914991938 0.0 0.008266410389387528 0.0 0.0
0.006529751349549596 -0.004638521770544537 0.0 0.00565569518968268 0.0 0.0
0.003797934551546811 -0.0022521879095130917 0.0 0.0037190566477654135 0.0 0.0
0.002112411083160354 -0.0010124882349747122 0.0 0.0026042359833597906 0.0 0.0
0.0012517234944138783 -0.000535810350230964 0.0 0.002195569701326751 0.0 0.0
0.0007947560450508913 -0.0003068985835672639 0.0 0.0020320601918399927 0.0 0.0
0.000451293668536487 -0.00010877852316554773 0.0 0.001967097143684259 0.0 0.0
0.0002143970808727359 -6.5496022878546e-05 0.0 0.0021207828346170967 0.0 0.0
0.0009455664982333356 -0.00038766602056729185 0.0 0.0034359375519238894 0.0 0.0
0.001755071264379676 -0.005635562450057172 0.0 0.0021999980977543457 0.0 0.0
0.0012222732233841693 -0.004291908226639978 0.0 -0.00186404908713469 0.0 0.0
0.0006465586106105259 -0.0003411722687656326 0.0 -0.0030020441247678637 0.0 0.0
0.00010389674708708094 -4.87986964282816e-05 0.0 -0.0022866721071500003 0.0 0.0
0.0002466128124885295 -2.1681940171329025e-05 0.0 -0.002168278458537132 0.0 0.0
0.0004965077193214825 -0.0001688204281227403 0.0 -0.002232070576571881 0.0 0.0
0.0008156066978894749 -0.0003454296997808626 0.0 -0.0024428302891480085 0.0 0.0
0.0013365454915703907 -0.000607683290188211 0.0 -0.002750895512820286 0.0 0.0
0.0023614884075065204 -0.0012497118984645937 0.0 -0.003448976996959346 0.0 0.0
0.004120516425949425 -0.002638032580757802 0.0 -0.004837741384587757 0.0 0.0
0.006601153234907243 -0.004865575162610491 0.0 -0.006828159149549246 0.0 0.0
0.00963496626523102 -0.007716109475077049 0.0 -0.00922954250568092 0.0 0.0
0.013056515001254126 -0.010971191004433018 0.0 -0.01175256544927834 0.0 0.0
0.016801997018549838 -0.014552876752006946 0.0 -0.014290451937481123 0.0 0.0
0.020903643111541633 -0.018505437804169005 0.0 -0.01681004290819054 0.0 0.0
0.025444100515487757 -0.022904930462251682 0.0 -0.019297686518299634 0.0 0.0
0.030503793845984867 -0.02783205012131607 0.0 -0.02167502514336088 0.0 0.0
0.03610206324835593 -0.03330503832176195 0.0 -0.023655239108407198 0.0 0.0
0.0422755426387773 -0.039306769040589065 0.0 -0.02483064585933272 0.0 0.0
0.049328105022846465 -0.046096828527945194 0.0 -0.024995251366169903 0.0 0.0
0.057432617612603 -0.054101583986206875 0.0 -0.02292839944097857 0.0 0.0
0.06172739381494188 -0.06256234816097168 0.0 2.296079992802902e-14 0.0 0.0
0.0574326176125956 -0.05410158398619904 0.0 0.0229283994410327 0.0 0.0
0.04932810502283086 -0.046096828527926334 0.0 0.02499525136622628 0.0 0.0
0.04227554263875589 -0.03930676904056898 0.0 0.02483064585936034 0.0 0.0
0.03610206324833282 -0.03330503832174035 0.0 0.023655239108403565 0.0 0.0
0.030503793845960386 -0.027832050121289822 0.0 0.021675025143345295 0.0 0.0
0.02544410051546414 -0.022904930462225817 0.0 0.01929768651828672 0.0 0.0
0.020903643111521437 -0.01850543780415106 0.0 0.016810042908183772 0.0 0.0
0.016801997018530617 -0.014552876751990369 0.0 0.014290451937471665 0.0 0.0
0.013056515001235041 -0.010971191004417171 0.0 0.011752565449262653 0.0 0.0
0.009634966265213868 -0.007716109475062171 0.0 0.009229542505661853 0.0 0.0
0.006601153234894231 -0.004865575162599572 0.0 0.006828159149534177 0.0 0.0
0.004120516425940175 -0.002638032580748524 0.0 0.004837741384581401 0.0 0.0
0.0023614884075004055 -0.001249711898460134 0.0 0.0034489769969539433 0.0 0.0
0.001336545491567686 -0.000607683290185817 0.0 0.0027508955128167406 0.0 0.0
0.0008156066978886494 -0.0003454296997823712 0.0 0.0024428302891455122 0.0 0.0
0.0004965077193212 -0.00016882042812137537 0.0 0.0022320705765684263 0.0 0.0
0.0002466128124882367 -2.168194017041509e-05 0.0 0.0021682784585338754 0.0 0.0
0.00010389674708665408 -4.879869642902231e-05 0.0 0.002286672107148606 0.0 0.0
0.0006465586106089921 -0.00034117226876586486 0.0 0.003002044124762805 0.0 0.0
0.0012222732233814087 -0.004291908226631691 0.0 0.0018640490871320325 0.0 0.0
0.0008390578853923218 -0.0032266559955312765 0.0 -0.001653250273199459 0.0 0.0
0.0004161107320992071 -0.0003229437786803986 0.0 -0.0026512308335618693 0.0 0.0
-1.1387884160154824e-05 -1.3526338259970519e-05 0.0 -0.0023881635925346364 0.0 0.0
4.690035092661434e-05 5.926121933182171e-05 0.0 -0.0023118643417948674 0.0 0.0
0.00019715672109903658 -2.9961940117763663e-05 0.0 -0.0023748115101933326 0.0 0.0
0.0003869241955527991 -0.0001513226956001587 0.0 -0.002611189564960255 0.0 0.0
0.0006474667522857901 -0.0002872860408148504 0.0 -0.002919989614081302 0.0 0.0
0.0011084268568077875 -0.0005338916217057076 0.0 -0.0032927537715843726 0.0 0.0
0.0019381910321423033 -0.0010893909383614597 0.0 -0.003958805019682444 0.0 0.0
0.0031721801262871658 -0.002069471966888537 0.0 -0.005093137670511205 0.0 0.0
0.004709523149685284 -0.0033924640608305537 0.0 -0.006687836331575123 0.0 0.0
0.006440022347142943 -0.004949141574535898 0.0 -0.008575851489150537 0.0 0.0
0.008318671646035487 -0.006680344861484913 0.0 -0.010602840066561554 0.0 0.0
0.010384304500365342 -0.00861436210592008 0.0 -0.012701029127272893 0.0 0.0
0.01272069753197181 -0.010824522279587932 0.0 -0.014855091438528048 0.0 0.0
0.015462994098290186 -0.013436255763758283 0.0 -0.0170309308525646 0.0 0.0
0.018771949627273972 -0.016607519144402113 0.0 -0.019027377571244924 0.0 0.0
0.022779296959356505 -0.020472547921462816 0.0 -0.020324497302827295 0.0 0.0
0.027836095444987954 -0.025256826318222417 0.0 -0.020470453724845315 0.0 0.0
0.03491987824605384 -0.03188120667775475 0.0 -0.020038277008459112 0.0 0.0
0.039138290897729286 -0.04114284986894949 0.0 1.7414021613593178e-14 0.0 0.0
0.03491987824605093 -0.0318812066777534 0.0 0.020038277008504708 0.0 0.0
0.02783609544497895 -0.025256826318214468 0.0 0.020470453724887643 0.0 0.0
0.022779296959343363 -0.02047254792145054 0.0 0.02032449730284569 0.0 0.0
0.018771949627261645 -0.016607519144387784 0.0 0.01902737757123955 0.0 0.0
0.015462994098278483 -0.013436255763742796 0.0 0.017030930852549402 0.0 0.0
0.012720697531961388 -0.01082452227957762 0.0 0.014855091438518004 0.0 0.0
0.010384304500356935 -0.008614362105908003 0.0 0.012701029127265843 0.0 0.0
0.008318671646026976 -0.0066803448614788 0.0 0.010602840066552436 0.0 0.0
0.006440022347134116 -0.004949141574532086 0.0 0.008575851489137401 0.0 0.0
0.004709523149677546 -0.0033924640608253872 0.0 0.006687836331561014 0.0 0.0
0.003172180126281797 -0.002069471966883755 0.0 0.005093137670501785 0.0 0.0
0.0019381910321385008 -0.00108939093835632 0.0 0.003958805019678039 0.0 0.0
0.0011084268568053062 -0.0005338916217048223 0.0 0.003292753771582269 0.0 0.0
0.0006474667522846838 -0.0002872860408121394 0.0 0.002919989614077224 0.0 0.0
0.0003869241955525492 -0.00015132269560245534 0.0 0.0026111895649581136 0.0 0.0
0.0001971567210989228 -2.996194011708373e-05 0.0 0.0023748115101911034 0.0 0.0
4.690035092652227e-05 5.926121933083443e-05 0.0 0.0023118643417927836 0.0 0.0
-1.1387884160097238e-05 -1.352633825904968e-05 0.0 0.0023881635925334503 0.0 0.0
0.00041611073209840157 -0.0003229437786811107 0.0 0.0026512308335586315 0.0 0.0
0.0008390578853907172 -0.0032266559955256005 0.0 0.0016532502731979799 0.0 0.0
0.0005688592462455423 -0.002417468863335662 0.0 -0.0015331004180082772 0.0 0.0
0.00023889372938907462 -0.0003225155063441032 0.0 -0.0024022446491935427 0.0 0.0
-0.00012918042029128784 3.460452148337265e-05 0.0 -0.0024331510930744754 0.0 0.0
-0.00014887569445621207 0.00013700310894688872 0.0 -0.0023954479751274052 0.0 0.0
-9.869454567794429e-05 0.00010637367933043489 0.0 -0.00245480800014588 0.0 0.0
-4.637682222895073e-05 4.8153269615881146e-05 0.0 -0.002682187900636887 0.0 0.0
-1.750489491618494e-05 1.2709021498481407e-05 0.0 -0.0030102633017936526 0.0 0.0
-6.257231365553741e-06 3.7320679232142646e-06 0.0 -0.003282730733944817 0.0 0.0
-1.7767339468323373e-06 9.006713086947714e-07 0.0 -0.003543464517150163 0.0 0.0
4.604446061533046e-08 -5.079643784197457e-08 0.0 -0.004186411745109708 0.0 0.0
-1.5629272247280786e-06 4.6913356482647427e-07 0.0 -0.00532295230508664 0.0 0.0
-1.2775462035221198e-05 1.1655384719339783e-05 0.0 -0.006887496895126788 0.0 0.0
-3.480233775627749e-05 3.342647990763433e-05 0.0 -0.008654356610191812 0.0 0.0
-4.081470092908335e-05 4.6910624176090205e-05 0.0 -0.010559029707999393 0.0 0.0
5.703274249274442e-05 -2.3047447625812283e-05 0.0 -0.012606349580322147 0.0 0.0
0.0004463674626296913 -0.00034386522554530157 0.0 -0.014775055167671929 0.0 0.0
0.001433602478653772 -0.0011929683619339433 0.0 -0.01697128409931005 0.0 0.0
0.0033558641538270094 -0.0029108066918878467 0.0 -0.018953747960296873 0.0 0.0
0.0064284576781064254 -0.005599035776077448 0.0 -0.02040890254314508 0.0 0.0
0.011672599011491877 -0.00990659113714147 0.0 -0.02155053764793575 0.0 0.0
0.015077339656442522 -0.019696940886042614 0.0 1.3960187172923355e-14 0.0 0.0
0.011672599011491886 -0.00990659113713941 0.0 0.021550537647963275 0.0 0.0
0.00642845767810373 -0.005599035776073158 0.0 0.020408902543163077 0.0 0.0
0.0033558641538245573 -0.002910806691895635 0.0 0.018953747960299975 0.0 0.0
0.0014336024786545073 -0.0011929683619345643 0.0 0.016971284099298566 0.0 0.0
0.00044636746263167063 -0.00034386522554444467 0.0 0.014775055167657744 0.0 0.0
5.703274249483931e-05 -2.3047447629061962e-05 0.0 0.012606349580312617 0.0 0.0
-4.081470092541419e-05 4.691062417045192e-05 0.0 0.01055902970798939 0.0 0.0
-3.480233775224198e-05 3.3426479905094154e-05 0.0 0.008654356610179756 0.0 0.0
-1.2775462031845426e-05 1.1655384715868167e-05 0.0 0.006887496895113195 0.0 0.0
-1.562927221899395e-06 4.691335614522745e-07 0.0 0.005322952305074858 0.0 0.0
4.604446273836094e-08 -5.079643854593349e-08 0.0 0.004186411745104319 0.0 0.0
-1.7767339456171364e-06 9.006713073784551e-07 0.0 0.003543464517147558 0.0 0.0
-6.2572313652915e-06 3.7320679258113015e-06 0.0 0.003282730733941828 0.0 0.0
-1.7504894916119603e-05 1.2709021500904999e-05 0.0 0.003010263301790443 0.0 0.0
-4.6376822228570966e-05 4.815326961827504e-05 0.0 0.0026821879006341327 0.0 0.0
-9.869454567765519e-05 0.00010637367932922158 0.0 0.0024548080001435863 0.0 0.0
-0.00014887569445619687 0.00013700310894622657 0.0 0.002395447975126738 0.0 0.0
-0.00012918042029181354 3.4604521485011155e-05 0.0 0.0024331510930729037 0.0 0.0
0.00023889372938818348 -0.0003225155063455382 0.0 0.002402244649191758 0.0 0.0
0.0005688592462445077 -0.0024174688633320416 0.0 0.0015331004180065885 0.0 0.0
0.00038175675667804414 -0.001830052298554874 0.0 -0.0014697773331654 0.0 0.0
0.00010637426693074249 -0.0003160597259038253 0.0 -0.00222138548053255 0.0 0.0
-0.00024206726853897778 8.415806622471362e-05 0.0 -0.002427558989446092 0.0 0.0
-0.00033950826903710084 0.00021310835523279445 0.0 -0.002416326521260474 0.0 0.0
-0.0003884340953997927 0.0002376868225571117 0.0 -0.002462789384212512 0.0 0.0
-0.00047628363146099773 0.0002465189156626165 0.0 -0.0026587733779468896 0.0 0.0
-0.0006820278101643325 0.000313524435120208 0.0 -0.002949749809831023 0.0 0.0
-0.0011206064601450465 0.0005422840265571519 0.0 -0.0033120574554495715 0.0 0.0
-0.0019406834858663878 0.0010907602652748104 0.0 -0.003966624904403819 0.0 0.0
-0.003171185627207084 0.0020685247208005377 0.0 -0.005092565629398132 0.0 0.0
-0.00471407895732853 0.003395367070832732 0.0 -0.006685877817551387 0.0 0.0
-0.006468350624087873 0.0049743171283688145 0.0 -0.008580150933591229 0.0 0.0
-0.008387840095640847 0.006747892695154703 0.0 -0.010599528274073169 0.0 0.0
-0.010459081598687942 0.008705567738478595 0.0 -0.012682559155977609 0.0 0.0
-0.012593759452714303 0.010769416668715991 0.0 -0.014854471414642067 0.0 0.0
-0.014572061609023256 0.012731361181104454 0.0 -0.017182596504705158 0.0 0.0
-0.016020148801356122 0.014224573947186927 0.0 -0.01970706837227011 0.0 0.0
-0.01649387862669871 0.01477111044148854 0.0 -0.022538180935121735 0.0 0.0
-0.015512501973342953 0.014056193627832305 0.0 -0.025624270453930023 0.0 0.0
-0.0111509432433625 0.01091614833838299 0.0 -0.027135792114124136 0.0 0.0
-0.007709723721533813 0.0003908379770696051 0.0 1.6612579367691893e-14 0.0 0.0
-0.011150943243363104 0.010916148338384243 0.0 0.027135792114153262 0.0 0.0
-0.015512501973338332 0.014056193627829283 0.0 0.025624270453947967 0.0 0.0
-0.016493878626687105 0.01477111044147434 0.0 0.022538180935123636 0.0 0.0
-0.016020148801340416 0.014224573947174295 0.0 0.019707068372260668 0.0 0.0
-0.014572061609007612 0.01273136118108854 0.0 0.01718259650468972 0.0 0.0
-0.01259375945270005 0.010769416668704557 0.0 0.01485447141462938 0.0 0.0
-0.01045908159867269 0.008705567738462868 0.0 0.012682559155965247 0.0 0.0
-0.008387840095624911 0.006747892695138251 0.0 0.010599528274057302 0.0 0.0
-0.006468350624072954 0.00497431712835515 0.0 0.00858015093357336 0.0 0.0
-0.004714078957315207 0.003395367070819928 0.0 0.00668587781753445 0.0 0.0
-0.0031711856271969727 0.002068524720797018 0.0 0.005092565629388476 0.0 0.0
-0.0019406834858605756 0.001090760265263328 0.0 0.003966624904400922 0.0 0.0
-0.0011206064601419043 0.0005422840265599876 0.0 0.0033120574554455647 0.0 0.0
-0.0006820278101626512 0.0003135244351226207 0.0 0.002949749809828625 0.0 0.0
-0.00047628363145991494 0.00024651891566383765 0.0 0.0026587733779450413 0.0 0.0
-0.00038843409539926634 0.00023768682255649408 0.0 0.0024627893842093917 0.0 0.0
-0.0003395082690371266 0.00021310835523325491 0.0 0.0024163265212595324 0.0 0.0
-0.0002420672685389399 8.415806622430198e-05 0.0 0.0024275589894448705 0.0 0.0
0.00010637426693049551 -0.00031605972590418484 0.0 0.0022213854805304 0.0 0.0
0.0003817567566774686 -0.0018300522985528693 0.0 0.0014697773331664049 0.0 0.0
0.00025586064175043107 -0.0013828749277971064 0.0 -0.0013790834739773076 0.0 0.0
8.661020099156454e-06 -0.0002926603884261845 0.0 -0.002056626050076711 0.0 0.0
-0.00034706545660816683 0.00012935252170048547 0.0 -0.002371492344653514 0.0 0.0
-0.0005222367922638304 0.0002865283149741138 0.0 -0.002373555689580864 0.0 0.0
-0.0006693376055773826 0.000361912465081298 0.0 -0.0023964538292266056 0.0 0.0
-0.0008965827126320948 0.00043771872760609693 0.0 -0.00253832546483704 0.0 0.0
-0.0013696012683498233 0.0006375626247874807 0.0 -0.002811863060213458 0.0 0.0
-0.0023710576885636312 0.0012577121272199497 0.0 -0.0034800271803225287 0.0 0.0
-0.004119812013376546 0.002636719511278286 0.0 -0.004843862320333794 0.0 0.0
-0.006599584611644985 0.004864054441917332 0.0 -0.0068254691769496145 0.0 0.0
-0.009641396796323937 0.007722414704672545 0.0 -0.009229883516315752 0.0 0.0
-0.013083199421851408 0.01099665781048095 0.0 -0.01174708288071444 0.0 0.0
-0.016860319885511062 0.014611841522519223 0.0 -0.01424216641382286 0.0 0.0
-0.02095931851247728 0.018577923561747506 0.0 -0.01669671439453253 0.0 0.0
-0.025302978499688152 0.02283130635095124 0.0 -0.01922149817242975 0.0 0.0
-0.029645126275913723 0.02714326494361017 0.0 -0.022030356309421482 0.0 0.0
-0.03354810362984675 0.031069847442474104 0.0 -0.025345734955817833 0.0 0.0
-0.036405543126956944 0.033995791032823096 0.0 -0.029271086626943176 0.0 0.0
-0.03708640767898803 0.0349647104634188 0.0 -0.03305874407809566 0.0 0.0
-0.033236201935177075 0.031751548479437335 0.0 -0.03404984486306306 0.0 0.0
-0.029786195087974192 0.01931974516527077 0.0 1.9355177183211225e-14 0.0 0.0
-0.03323620193517443 0.03175154847943622 0.0 0.03404984486310853 0.0 0.0
-0.03708640767897711 0.034964710463411916 0.0 0.033058744078141016 0.0 0.0
-0.03640554312693506 0.03399579103280639 0.0 0.029271086626959188 0.0 0.0
-0.033548103629818846 0.031069847442446563 0.0 0.025345734955810086 0.0 0.0
-0.029645126275885475 0.02714326494358403 0.0 0.022030356309404718 0.0 0.0
-0.02530297849966177 0.02283130635092732 0.0 0.019221498172413136 0.0 0.0
-0.020959318512450878 0.018577923561723813 0.0 0.016696714394518634 0.0 0.0
-0.01686031988548369 0.014611841522489663 0.0 0.014242166413807267 0.0 0.0
-0.013083199421825767 0.010996657810454325 0.0 0.011747082880693763 0.0 0.0
-0.009641396796300895 0.00772241470464664 0.0 0.009229883516293415 0.0 0.0
-0.006599584611626368 0.0048640544419009425 0.0 0.006825469176931645 0.0 0.0
-0.004119812013364883 0.0026367195112657863 0.0 0.004843862320325341 0.0 0.0
-0.002371057688557237 0.001257712127216969 0.0 0.0034800271803177114 0.0 0.0
-0.0013696012683463352 0.0006375626247857964 0.0 0.0028118630602103943 0.0 0.0
-0.0008965827126307866 0.00043771872760479426 0.0 0.002538325464834179 0.0 0.0
-0.0006693376055768907 0.0003619124650809352 0.0 0.0023964538292227246 0.0 0.0
-0.0005222367922630687 0.00028652831497314834 0.0 0.0023735556895787646 0.0 0.0
-0.00034706545660771607 0.00012935252170044354 0.0 0.0023714923446513767 0.0 0.0
8.661020099194384e-06 -0.00029266038842655213 0.0 0.002056626050075065 0.0 0.0
0.00025586064175052984 -0.0013828749277955007 0.0 0.0013790834739771326 0.0 0.0
0.00015947830307261123 -0.0010124752164507801 0.0 -0.001231805951985729 0.0 0.0
-7.027568062956436e-05 -0.0002536494017186698 0.0 -0.00188062989888647 0.0 0.0
-0.0004436356307822762 0.00017048749499769941 0.0 -0.002262877925046347 0.0 0.0
-0.0006957581883320383 0.0003553332201754052 0.0 -0.002270930681634408 0.0 0.0
-0.0009386766778503993 0.00047698139295969486 0.0 -0.0022612242195452813 0.0 0.0
-0.0013208771002141463 0.0006251598911195788 0.0 -0.002334607239363933 0.0 0.0
-0.0021406494817581153 0.0010451392684577162 0.0 -0.002687936424052765 0.0 0.0
-0.003801244012248267 0.002253951398439877 0.0 -0.003745144599423149 0.0 0.0
-0.006525458936203621 0.004633711917908008 0.0 -0.005654357400538992 0.0 0.0
-0.010252406714795355 0.008148420067215391 0.0 -0.008263486457081231 0.0 0.0
-0.014758308128952121 0.012482726080286574 0.0 -0.011214103580337049 0.0 0.0
-0.019848534381078115 0.017395235597530295 0.0 -0.01416816740114731 0.0 0.0
-0.02545568890938047 0.02282165508629701 0.0 -0.01700204598804955 0.0 0.0
-0.03157771132189264 0.02878150280005403 0.0 -0.019759533131146752 0.0 0.0
-0.03815222263276196 0.03523621077974734 0.0 -0.022640102270403854 0.0 0.0
-0.04492281512104661 0.041954518291683375 0.0 -0.026018351074625475 0.0 0.0
-0.05135128551134611 0.048407918949768994 0.0 -0.030338233099783812 0.0 0.0
-0.05646748242214615 0.053679684316284296 0.0 -0.03552031866109095 0.0 0.0
-0.05856303057058147 0.056122853648091595 0.0 -0.040143754517621304 0.0 0.0
-0.05430023948048445 0.05277075548982299 0.0 -0.04149605494814515 0.0 0.0
-0.050016254189572805 0.03749983388225775 0.0 2.3109986146963024e-14 0.0 0.0
-0.054300239480477935 0.05277075548982118 0.0 0.04149605494819961 0.0 0.0
-0.05856303057056439 0.05612285364807855 0.0 0.04014375451767672 0.0 0.0
-0.056467482422116064 0.05367968431625066 0.0 0.03552031866111672 0.0 0.0
-0.05135128551130769 0.04840791894973346 0.0 0.030338233099779476 0.0 0.0
-0.04492281512100652 0.04195451829164042 0.0 0.026018351074609473 0.0 0.0
-0.03815222263272268 0.03523621077970801 0.0 0.02264010227038589 0.0 0.0
-0.03157771132185368 0.02878150280001778 0.0 0.019759533131130137 0.0 0.0
-0.02545568890934217 0.022821655086254146 0.0 0.017002045988032462 0.0 0.0
-0.019848534381041668 0.01739523559749426 0.0 0.014168167401124473 0.0 0.0
-0.014758308128919376 0.012482726080257208 0.0 0.011214103580310554 0.0 0.0
-0.010252406714768871 0.008148420067184772 0.0 0.008263486457058941 0.0 0.0
-0.0065254589361854135 0.004633711917892764 0.0 0.005654357400525798 0.0 0.0
-0.0038012440122372924 0.002253951398431331 0.0 0.0037451445994159125 0.0 0.0
-0.0021406494817523968 0.0010451392684531235 0.0 0.0026879364240470927 0.0 0.0
-0.001320877100211984 0.0006251598911208979 0.0 0.002334607239361319 0.0 0.0
-0.000938676677849532 0.0004769813929588444 0.0 0.0022612242195432395 0.0 0.0
-0.0006957581883316703 0.0003553332201749706 0.0 0.002270930681634445 0.0 0.0
-0.00044363563078200703 0.0001704874949974476 0.0 0.0022628779250437403 0.0 0.0
-7.027568062934092e-05 -0.00025364940171959975 0.0 0.001880629898885495 0.0 0.0
0.00015947830307263755 -0.001012475216449103 0.0 0.0012318059519837493 0.0 0.0
7.777934114337524e-05 -0.0007024876879631256 0.0 -0.001057629052261878 0.0 0.0
-0.0001398167449268329 -0.00020130903705956814 0.0 -0.0016793774425568474 0.0 0.0
-0.0005338112092973444 0.00020936175676340425 0.0 -0.002101895095898912 0.0 0.0
-0.0008596269718316801 0.00041840631616788155 0.0 -0.0021111598103697145 0.0 0.0
-0.0011979812292583737 0.0005805361210961764 0.0 -0.0020550359819046103 0.0 0.0
-0.0017735267344442546 0.0008292892510552042 0.0 -0.0020802769585951653 0.0 0.0
-0.0030187301328466268 0.0015912701963300905 0.0 -0.00257117371445217 0.0 0.0
-0.005397391423432494 0.003516001023515289 0.0 -0.0039045158438895918 0.0 0.0
-0.009115214357914812 0.006935555953552887 0.0 -0.0061694110266351035 0.0 0.0
-0.014067229900279855 0.011690427552550998 0.0 -0.009117631595240023 0.0 0.0
-0.019998237801920213 0.017442604641482957 0.0 -0.012291096868769691 0.0 0.0
-0.026712737768384752 0.023966106852927896 0.0 -0.015418897172532666 0.0 0.0
-0.034141204185830824 0.03119176297942275 0.0 -0.018409220915920583 0.0 0.0
-0.04228510533638416 0.03914123365030798 0.0 -0.02131411876371366 0.0 0.0
-0.05110387715700009 0.047805018647510966 0.0 -0.02434559256704316 0.0 0.0
-0.060340952526604624 0.0569692292521882 0.0 -0.028005869022222744 0.0 0.0
-0.06929492564794837 0.06597867880353192 0.0 -0.03283562799790708 0.0 0.0
-0.07657048220162266 0.07349510614537486 0.0 -0.03869013748585646 0.0 0.0
-0.07972456504315192 0.07717739267726555 0.0 -0.044046512432255804 0.0 0.0
-0.07465539702550764 0.07313984730838505 0.0 -0.0459575242834749 0.0 0.0
-0.06942521907764135 0.05512149172519522 0.0 2.637820517570333e-14 0.0 0.0
-0.07465539702549678 0.07313984730838 0.0 0.045957524283530005 0.0 0.0
-0.07972456504312775 0.07717739267724094 0.0 0.04404651243231215 0.0 0.0
-0.07657048220158452 0.07349510614533218 0.0 0.038690137485886615 0.0 0.0
-0.06929492564790043 0.06597867880349069 0.0 0.03283562799790541 0.0 0.0
-0.06034095252655307 0.056969229252128537 0.0 0.028005869022207544 0.0 0.0
-0.05110387715694941 0.04780501864746222 0.0 0.02434559256702409 0.0 0.0
-0.042285105336333124 0.039141233650254556 0.0 0.02131411876369623 0.0 0.0
-0.034141204185780774 0.031191762979371984 0.0 0.018409220915900172 0.0 0.0
-0.02671273776833863 0.023966106852886904 0.0 0.015418897172509109 0.0 0.0
-0.019998237801878354 0.017442604641444877 0.0 0.012291096868741821 0.0 0.0
-0.014067229900245268 0.011690427552512143 0.0 0.009117631595216294 0.0 0.0
-0.009115214357890755 0.006935555953534107 0.0 0.006169411026619391 0.0 0.0
-0.0053973914234176175 0.0035160010235006905 0.0 0.003904515843880175 0.0 0.0
-0.003018730132838236 0.0015912701963245609 0.0 0.0025711737144456103 0.0 0.0
-0.001773526734440515 0.0008292892510548252 0.0 0.0020802769585927345 0.0 0.0
-0.0011979812292569403 0.0005805361210955291 0.0 0.0020550359819036146 0.0 0.0
-0.0008596269718310484 0.00041840631616859534 0.0 0.0021111598103687383 0.0 0.0
-0.0005338112092968528 0.00020936175676226126 0.0 0.0021018950958976686 0.0 0.0
-0.00013981674492653736 -0.00020130903705899343 0.0 0.0016793774425550444 0.0 0.0
7.777934114347782e-05 -0.0007024876879620123 0.0 0.001057629052260597 0.0 0.0
6.933057121999193e-06 -0.0004488470156659098 0.0 -0.0008735771015964391 0.0 0.0
-0.00020309810845693899 -0.00013958651985073646 0.0 -0.0014502965369568687 0.0 0.0
-0.0006191378742600942 0.00024769930960794203 0.0 -0.0018869596691308494 0.0 0.0
-0.0010128557110509438 0.0004748403721650241 0.0 -0.0018944344270574063 0.0 0.0
-0.0014563601021393027 0.0006765231427754686 0.0 -0.0017857100533205132 0.0 0.0
-0.0022755879966306404 0.0010806608441178034 0.0 -0.0018011201337938044 0.0 0.0
-0.004008681369175879 0.0022932165333557106 0.0 -0.0023977005953220634 0.0 0.0
-0.007140045899957688 0.005005182377342557 0.0 -0.0038896350526353707 0.0 0.0
-0.011843430419779682 0.009441498194079622 0.0 -0.006310583853264662 0.0 0.0
-0.017977065642767777 0.015373070408582889 0.0 -0.009276438095784498 0.0 0.0
-0.02530306994668388 0.02250699335541855 0.0 -0.012417463924869948 0.0 0.0
-0.03363889415499236 0.030633361863213887 0.0 -0.015510684754883586 0.0 0.0
-0.04288966191042681 0.03966012158616794 0.0 -0.018482447881114257 0.0 0.0
-0.053047272786294855 0.0495958445583372 0.0 -0.021378567028550642 0.0 0.0
-0.06409753492849989 0.060452859583904006 0.0 -0.02436810380164561 0.0 0.0
-0.07577452770325005 0.0720359536468178 0.0 -0.027887821029980622 0.0 0.0
-0.0872022584158822 0.08355807873232095 0.0 -0.03257215084979658 0.0 0.0
-0.09652592411741957 0.09324118973191106 0.0 -0.03853466828084279 0.0 0.0
-0.10058959415418507 0.0979922388024926 0.0 -0.04453329718873853 0.0 0.0
-0.09475940168071853 0.09324453688244065 0.0 -0.048549128115728764 0.0 0.0
-0.08869682241813218 0.07280859267397351 0.0 2.5679111614884675e-14 0.0 0.0
-0.09475940168070351 0.09324453688242454 0.0 0.04854912811578483 0.0 0.0
-0.10058959415415321 0.09799223880245739 0.0 0.04453329718879529 0.0 0.0
-0.09652592411737375 0.09324118973186536 0.0 0.03853466828087318 0.0 0.0
-0.08720225841582581 0.08355807873226667 0.0 0.0325721508497984 0.0 0.0
-0.07577452770318839 0.07203595364675282 0.0 0.027887821029967674 0.0 0.0
-0.06409753492843719 0.06045285958384432 0.0 0.024368103801626493 0.0 0.0
-0.053047272786232474 0.0495958445582703 0.0 0.02137856702853543 0.0 0.0
-0.042889661910365806 0.03966012158610846 0.0 0.01848244788109473 0.0 0.0
-0.03363889415493502 0.030633361863160805 0.0 0.015510684754858936 0.0 0.0
-0.025303069946633082 0.022506993355367027 0.0 0.012417463924842422 0.0 0.0
-0.017977065642726078 0.015373070408539035 0.0 0.009276438095759483 0.0 0.0
-0.011843430419749178 0.009441498194053911 0.0 0.006310583853248031 0.0 0.0
-0.00714004589993774 0.005005182377323339 0.0 0.0038896350526243144 0.0 0.0
-0.004008681369164526 0.0022932165333440497 0.0 0.002397700595314885 0.0 0.0
-0.002275587996625565 0.001080660844116702 0.0 0.0018011201337907196 0.0 0.0
-0.0014563601021374965 0.0006765231427727659 0.0 0.0017857100533197863 0.0 0.0
-0.0010128557110502914 0.0004748403721651067 0.0 0.001894434427055443 0.0 0.0
-0.0006191378742597575 0.00024769930960803814 0.0 0.0018869596691295735 0.0 0.0
-0.0002030981084570148 -0.0001395865198509977 0.0 0.0014502965369551477 0.0 0.0
6.933057121599355e-06 -0.0004488470156651613 0.0 0.0008735771015977919 0.0 0.0
-5.293622155736098e-05 -0.0002501556219462956 0.0 -0.0006856931604166212 0.0 0.0
-0.000259957036784834 -7.351143917400197e-05 0.0 -0.0011953990104811077 0.0 0.0
-0.0007002240462998233 0.0002861488031687113 0.0 -0.001618274615994728 0.0 0.0
-0.0011590661476757543 0.0005244049299842978 0.0 -0.0016201677588778718 0.0 0.0
-0.0017273496221222795 0.0007745703703359542 0.0 -0.0014640348915652193 0.0 0.0
-0.0028390296429777946 0.0014036042170598821 0.0 -0.001490287361431284 0.0 0.0
-0.005108200367163586 0.003157447675327555 0.0 -0.0021387475727444785 0.0 0.0
-0.009003322900951799 0.006676108631899841 0.0 -0.0036814373671846803 0.0 0.0
-0.014650404681995022 0.012060977960444873 0.0 -0.005967393352792335 0.0 0.0
-0.02192798696007513 0.019124747212884433 0.0 -0.008701210788591615 0.0 0.0
-0.03064010208939969 0.02762484180654167 0.0 -0.011614505833476688 0.0 0.0
-0.040592751970613475 0.037349452483855766 0.0 -0.014481608007500306 0.0 0.0
-0.05167022370520211 0.04818507413082801 0.0 -0.017253343822675522 0.0 0.0
-0.063838596370116 0.06010868691234507 0.0 -0.019986867660252997 0.0 0.0
-0.07706491010929567 0.07311366737556595 0.0 -0.022752087960861672 0.0 0.0
-0.09108187541269495 0.08700832130986741 0.0 -0.025762096190481622 0.0 0.0
-0.10489203343950546 0.10093350883585261 0.0 -0.02963131904420263 0.0 0.0
-0.11621925652342838 0.11273364251464721 0.0 -0.035069867965146724 0.0 0.0
-0.12129398986766127 0.11864629743963787 0.0 -0.04197014379775827 0.0 0.0
-0.11499941012536952 0.11351143450807671 0.0 -0.049720320245830715 0.0 0.0
-0.10829469410252358 0.09101374526590758 0.0 2.2979881886264764e-14 0.0 0.0
-0.11499941012535009 0.11351143450805312 0.0 0.049720320245885546 0.0 0.0
-0.12129398986762298 0.11864629743959368 0.0 0.04197014379781033 0.0 0.0
-0.11621925652337449 0.11273364251459314 0.0 0.03506986796517339 0.0 0.0
-0.10489203343943972 0.1009335088357859 0.0 0.0296313190442056 0.0 0.0
-0.09108187541262328 0.08700832130979715 0.0 0.025762096190473364 0.0 0.0
-0.07706491010922188 0.07311366737549418 0.0 0.022752087960847673 0.0 0.0
-0.06383859637004219 0.06010868691227428 0.0 0.019986867660237988 0.0 0.0
-0.05167022370513046 0.04818507413075564 0.0 0.017253343822657835 0.0 0.0
-0.04059275197054639 0.03734945248379007 0.0 0.014481608007480197 0.0 0.0
-0.030640102089340412 0.027624841806479172 0.0 0.011614505833450394 0.0 0.0
-0.021927986960026125 0.01912474721283356 0.0 0.008701210788569894 0.0 0.0
-0.014650404681958468 0.012060977960414013 0.0 0.0059673933527759826 0.0 0.0
-0.009003322900927169 0.0066761086318793145 0.0 0.003681437367173428 0.0 0.0
-0.0051082003671487205 0.0031574476753135038 0.0 0.0021387475727381636 0.0 0.0
-0.0028390296429709645 0.0014036042170563867 0.0 0.0014902873614297757 0.0 0.0
-0.0017273496221202605 0.0007745703703339502 0.0 0.0014640348915638238 0.0 0.0
-0.0011590661476752887 0.0005244049299847137 0.0 0.0016201677588754547 0.0 0.0
-0.0007002240462993331 0.000286148803168186 0.0 0.0016182746159926807 0.0 0.0
-0.0002599570367841862 -7.351143917474066e-05 0.0 0.0011953990104801786 0.0 0.0
-5.293622155662027e-05 -0.00025015562194584477 0.0 0.0006856931604188974 0.0 0.0
-9.934408541852942e-05 -0.00010650652769413378 0.0 -0.0004991913301466304 0.0 0.0
-0.0003077435080433324 -8.660454771992859e-06 0.0 -0.0009177007858720441 0.0 0.0
-0.0007761540571273667 0.00032379830043038687 0.0 -0.0012943059718293069 0.0 0.0
-0.0013025701799076605 0.0005678685808790721 0.0 -0.0012850779750468438 0.0 0.0
-0.002023535987348299 0.0008893977332970738 0.0 -0.0010924343026425464 0.0 0.0
-0.003477361446533484 0.0018192105490305007 0.0 -0.0011294095508949682 0.0 0.0
-0.006314165303592207 0.004179480503411775 0.0 -0.0017938499771803298 0.0 0.0
-0.010939160310759664 0.00845691077485424 0.0 -0.003170978472817168 0.0 0.0
-0.017482892164658516 0.014730350801755401 0.0 -0.005091995149788248 0.0 0.0
-0.025888856444340486 0.022903197634937533 0.0 -0.007417045859242705 0.0 0.0
-0.035973091741658074 0.03275517635352645 0.0 -0.009900565582346858 0.0 0.0
-0.047540819366948796 0.044075065630078396 0.0 -0.01234851765160736 0.0 0.0
-0.060453620037302674 0.05672798020721678 0.0 -0.014731477128162872 0.0 0.0
-0.07462477902204855 0.07064526993338596 0.0 -0.01712354947812033 0.0 0.0
-0.0899582468640853 0.08574577484501117 0.0 -0.019525141004229817 0.0 0.0
-0.10614635963586065 0.10177795010863742 0.0 -0.021839310604293508 0.0 0.0
-0.1221671659557858 0.1178801877386754 0.0 -0.024328224461657475 0.0 0.0
-0.13554123283408492 0.13179617491196785 0.0 -0.02840199575300168 0.0 0.0
-0.14198581122113774 0.13925498946226766 0.0 -0.03629031027986767 0.0 0.0
-0.13573744684266872 0.13433914405786562 0.0 -0.04920737491524392 0.0 0.0
-0.12864394843157625 0.1101885944032372 0.0 1.9269308371150373e-14 0.0 0.0
-0.13573744684264558 0.1343391440578438 0.0 0.04920737491529159 0.0 0.0
-0.1419858112210926 0.1392549894622228 0.0 0.03629031027991058 0.0 0.0
-0.13554123283402147 0.1317961749118999 0.0 0.028401995753025128 0.0 0.0
-0.1221671659557098 0.11788018773860431 0.0 0.024328224461660317 0.0 0.0
-0.10614635963577836 0.10177795010855907 0.0 0.021839310604287877 0.0 0.0
-0.0899582468640006 0.08574577484492792 0.0 0.019525141004219624 0.0 0.0
-0.07462477902196388 0.07064526993330372 0.0 0.017123549478107365 0.0 0.0
-0.060453620037219456 0.056727980207135306 0.0 0.014731477128148485 0.0 0.0
-0.04754081936687109 0.044075065630000757 0.0 0.012348517651587804 0.0 0.0
-0.03597309174159019 0.032755176353456004 0.0 0.0099005655823267 0.0 0.0
-0.025888856444284254 0.02290319763488429 0.0 0.007417045859224942 0.0 0.0
-0.017482892164615786 0.01473035080171655 0.0 0.005091995149772076 0.0 0.0
-0.010939160310729772 0.00845691077482712 0.0 0.0031709784728075193 0.0 0.0
-0.006314165303574353 0.004179480503395546 0.0 0.0017938499771753698 0.0 0.0
-0.003477361446525689 0.0018192105490250857 0.0 0.0011294095508942907 0.0 0.0
-0.0020235359873459675 0.0008893977332962587 0.0 0.0010924343026430018 0.0 0.0
-0.0013025701799063186 0.0005678685808792808 0.0 0.0012850779750454094 0.0 0.0
-0.0007761540571262885 0.00032379830042883776 0.0 0.0012943059718289864 0.0 0.0
-0.0003077435080431421 -8.660454772262175e-06 0.0 0.0009177007858714131 0.0 0.0
-9.934408541864928e-05 -0.00010650652769398152 0.0 0.00049919133014562 0.0 0.0
-0.00012742380188695808 -1.8558833652539532e-05 0.0 -0.0003242194307444356 0.0 0.0
-0.00034081959740578567 4.800645454567069e-05 0.0 -0.0006211612471004224 0.0 0.0
-0.0008444540294492843 0.00035766297598640424 0.0 -0.0009082647822584783 0.0 0.0
-0.0014509299925455786 0.0006096606405006295 0.0 -0.0008834005678684247 0.0 0.0
-0.002359532965878161 0.0010392534414165608 0.0 -0.0006803668223576289 0.0 0.0
-0.0042014704051302615 0.002354829443886306 0.0 -0.0007242479558261554 0.0 0.0
-0.00759347491350776 0.005319956959777352 0.0 -0.0012934633368340332 0.0 0.0
-0.012904078242521152 0.010285997650302007 0.0 -0.0022934079446452036 0.0 0.0
-0.020316681939456023 0.017415072718246688 0.0 -0.003709169165615514 0.0 0.0
-0.02982517077823412 0.02667050746457486 0.0 -0.005431947328835382 0.0 0.0
-0.04126854569008293 0.037860349397971615 0.0 -0.007284347215022706 0.0 0.0
-0.05444765614257975 0.050772935942982295 0.0 -0.009116322342000853 0.0 0.0
-0.06919905317031294 0.0652498701512979 0.0 -0.010921127984609615 0.0 0.0
-0.0853778643907972 0.08116518229143832 0.0 -0.012782959544784797 0.0 0.0
-0.10275827285624925 0.09831976821183998 0.0 -0.014651794949912264 0.0 0.0
-0.12089916282655791 0.11630979564780758 0.0 -0.016237755009181128 0.0 0.0
-0.13883640990199295 0.13424862954735592 0.0 -0.017322778345596188 0.0 0.0
-0.1543090451393417 0.15012128968503752 0.0 -0.019175113380958994 0.0 0.0
-0.16272706072541548 0.1597749746426518 0.0 -0.026550556507542213 0.0 0.0
-0.1573555579528606 0.15619945532221888 0.0 -0.04594555756765896 0.0 0.0
-0.15028911474936402 0.13097028217725068 0.0 1.3322676295501878e-14 0.0 0.0
-0.15735555795283318 0.15619945532218774 0.0 0.04594555756769797 0.0 0.0
-0.1627270607253635 0.15977497464259383 0.0 0.026550556507579606 0.0 0.0
-0.15430904513926894 0.15012128968496113 0.0 0.019175113380974353 0.0 0.0
-0.13883640990190657 0.1342486295472765 0.0 0.01732277834559838 0.0 0.0
-0.1208991628264653 0.11630979564771243 0.0 0.016237755009179095 0.0 0.0
-0.10275827285615356 0.0983197682117396 0.0 0.01465179494990769 0.0 0.0
-0.08537786439070098 0.08116518229134279 0.0 0.0127829595447728 0.0 0.0
-0.06919905317021985 0.0652498701512072 0.0 0.010921127984602074 0.0 0.0
-0.054447656142492425 0.050772935942892686 0.0 0.0091163223419828 0.0 0.0
-0.04126854569000632 0.03786034939789461 0.0 0.007284347215008218 0.0 0.0
-0.029825170778171824 0.026670507464516782 0.0 0.0054319473288227445 0.0 0.0
-0.02031668193940755 0.017415072718193432 0.0 0.00370916916560504 0.0 0.0
-0.012904078242486228 0.010285997650270896 0.0 0.0022934079446376965 0.0 0.0
-0.007593474913486688 0.005319956959758793 0.0 0.0012934633368285103 0.0 0.0
-0.004201470405119905 0.0023548294438781626 0.0 0.0007242479558252649 0.0 0.0
-0.002359532965874906 0.001039253441414192 0.0 0.0006803668223582611 0.0 0.0
-0.0014509299925449968 0.0006096606405006269 0.0 0.0008834005678698652 0.0 0.0
-0.0008444540294486347 0.00035766297598485795 0.0 0.0009082647822565521 0.0 0.0
-0.00034081959740553256 4.800645454569467e-05 0.0 0.000621161247099724 0.0 0.0
-0.00012742380188687124 -1.85588336522114e-05 0.0 0.0003242194307451859 0.0 0.0
-0.00012856579639046868 1.3892450098804907e-05 0.0 -0.00018253846105992794 0.0 0.0
-0.0003490571872267128 8.581542291777753e-05 0.0 -0.00031126379200305384 0.0 0.0
-0.0009009937958838002 0.00038212314279043426 0.0 -0.0004420376752940956 0.0 0.0
-0.0016160458981774512 0.0006626020170162792 0.0 -0.0004107947180756005 0.0 0.0
-0.0027536740274864135 0.001251271932097805 0.0 -0.00023966443647442832 0.0 0.0
-0.005000378245866175 0.003005680507851917 0.0 -0.0002541411061742937 0.0 0.0
-0.008917950954289811 0.006529537941233167 0.0 -0.0005638711791045273 0.0 0.0
-0.01487307639838644 0.012134775901578847 0.0 -0.0010855981006842937 0.0 0.0
-0.0231191676035721 0.02008105849645203 0.0 -0.001826248771734004 0.0 0.0
-0.03370301245903428 0.030388937578434687 0.0 -0.0027518172298941546 0.0 0.0
-0.04649085662906579 0.04290355149757794 0.0 -0.0037617503745620627 0.0 0.0
-0.0612796262932626 0.05740960454829376 0.0 -0.004783156272534092 0.0 0.0
-0.07787323447569189 0.0737131775370906 0.0 -0.005836623752144535 0.0 0.0
-0.09604542070657782 0.09161449128018262 0.0 -0.006944071339247376 0.0 0.0
-0.11543363917420596 0.1107915630548407 0.0 -0.008046775691118158 0.0 0.0
-0.13539647618581124 0.13063992333827829 0.0 -0.008921066685264415 0.0 0.0
-0.15486699444683683 0.15010510212967673 0.0 -0.009172625326508884 0.0 0.0
-0.17206157642425857 0.16741621839587548 0.0 -0.00908734575238607 0.0 0.0
-0.1832594514656803 0.17936710768273567 0.0 -0.01294514254563879 0.0 0.0
-0.18041145325555447 0.17949411660728964 0.0 -0.03435496135353874 0.0 0.0
-0.17411175516648605 0.1552060975067448 0.0 7.892991815694472e-15 0.0 0.0
-0.1804114532555228 0.17949411660724984 0.0 0.03435496135356125 0.0 0.0
-0.18325945146562153 0.17936710768267172 0.0 0.012945142545660804 0.0 0.0
-0.17206157642417574 0.16741621839579296 0.0 0.00908734575239442 0.0 0.0
-0.15486699444673915 0.15010510212958347 0.0 0.009172625326507726 0.0 0.0
-0.13539647618570724 0.13063992333817057 0.0 0.008921066685261186 0.0 0.0
-0.11543363917409974 0.11079156305473291 0.0 0.0080467756911191 0.0 0.0
-0.09604542070647086 0.09161449128008016 0.0 0.0069440713392408225 0.0 0.0
-0.07787323447558801 0.07371317753698686 0.0 0.005836623752140342 0.0 0.0
-0.06127962629316579 0.0574096045481953 0.0 0.004783156272525155 0.0 0.0
-0.046490856628981066 0.0429035514974908 0.0 0.0037617503745508004 0.0 0.0
-0.033703012458965474 0.03038893757837271 0.0 0.002751817229886442 0.0 0.0
-0.023119167603518304 0.020081058496394234 0.0 0.0018262487717309339 0.0 0.0
-0.014873076398347557 0.012134775901546801 0.0 0.0010855981006790989 0.0 0.0
-0.008917950954265228 0.006529537941212125 0.0 0.0005638711791005921 0.0 0.0
-0.00500037824585337 0.0030056805078401173 0.0 0.00025414110617324635 0.0 0.0
-0.0027536740274816704 0.0012512719320929714 0.0 0.0002396644364731449 0.0 0.0
-0.0016160458981759824 0.0006626020170171067 0.0 0.0004107947180762054 0.0 0.0
-0.0009009937958830402 0.0003821231427899358 0.0 0.0004420376752919293 0.0 0.0
-0.00034905718722647006 8.581542291786089e-05 0.0 0.00031126379200018667 0.0 0.0
-0.00012856579639030697 1.3892450099136014e-05 0.0 0.00018253846106064452 0.0 0.0
-8.740572398073217e-05 1.638429337386193e-05 0.0 -0.00011161301736493623 0.0 0.0
-0.00031456102676175 9.832988944453896e-05 0.0 -0.00012937493537136443 0.0 0.0
-0.0009408079878105958 0.00039114971836749166 0.0 -0.00014619920630340672 0.0 0.0
-0.001816638108597442 0.0006940452747478731 0.0 -8.553931237668757e-05 0.0 0.0
-0.0032164145785054674 0.001377629151677922 0.0 0.00017243691749877128 0.0 0.0
-0.005856233896996333 0.0033551054931635514 0.0 0.0003945203570285646 0.0 0.0
-0.010264622243006527 0.007146540706139383 0.0 0.0005010666170384666 0.0 0.0
-0.016824225539587595 0.01306118718153998 0.0 0.0005354462977877669 0.0 0.0
-0.02585988219019176 0.021404763676662834 0.0 0.0004930985799394202 0.0 0.0
-0.03748645730546764 0.03223137684489533 0.0 0.00033403508777455097 0.0 0.0
-0.05160597135793434 0.04540477552086398 0.0 9.861214108934386e-05 0.0 0.0
-0.06800666438936595 0.06070898912035104 0.0 -0.0002034149471103041 0.0 0.0
-0.08642937702717454 0.07792562070343996 0.0 -0.0006031907515586686 0.0 0.0
-0.1065682773651993 0.09681333952871882 0.0 -0.0010735449386373788 0.0 0.0
-0.12794562936285014 0.11699550636282266 0.0 -0.0016290079161669791 0.0 0.0
-0.14971382182746462 0.1377619791029354 0.0 -0.002163904282437021 0.0 0.0
-0.17053152757906867 0.1579304439019592 0.0 -0.0024005744954020917 0.0 0.0
-0.18861810858048264 0.17578591616320646 0.0 -0.002131097128309549 0.0 0.0
-0.20188000084535396 0.18874442600750044 0.0 -0.004173834757988066 0.0 0.0
-0.20516811236158558 0.19153193675764377 0.0 -0.026127129306490582 0.0 0.0
-0.20331032873523439 0.16855215195790113 0.0 -1.249000902703301e-16 0.0 0.0
-0.20516811236155028 0.19153193675760144 0.0 0.026127129306497552 0.0 0.0
-0.2018800008452873 0.1887444260074452 0.0 0.004173834757995987 0.0 0.0
-0.18861810858038777 0.17578591616311992 0.0 0.0021310971283104926 0.0 0.0
-0.17053152757895876 0.1579304439018576 0.0 0.0024005744953967366 0.0 0.0
-0.14971382182734883 0.1377619791028254 0.0 0.0021639042824341363 0.0 0.0
-0.12794562936273288 0.11699550636271652 0.0 0.0016290079161699784 0.0 0.0
-0.10656827736508193 0.09681333952861423 0.0 0.0010735449386337168 0.0 0.0
-0.0864293770270595 0.07792562070332779 0.0 0.0006031907515564334 0.0 0.0
-0.06800666438925977 0.06070898912024729 0.0 0.00020341494710915918 0.0 0.0
-0.051605971357842007 0.04540477552077017 0.0 -9.861214109650653e-05 0.0 0.0
-0.03748645730539191 0.032231376844836415 0.0 -0.00033403508777599643 0.0 0.0
-0.025859882190133018 0.02140476367660671 0.0 -0.000493098579936901 0.0 0.0
-0.01682422553954458 0.0130611871815044 0.0 -0.0005354462977905546 0.0 0.0
-0.010264622242978189 0.007146540706116009 0.0 -0.0005010666170389543 0.0 0.0
-0.005856233896980936 0.0033551054931518264 0.0 -0.000394520357027456 0.0 0.0
-0.0032164145784989453 0.0013776291516725118 0.0 -0.00017243691749816933 0.0 0.0
-0.0018166381085954315 0.0006940452747489891 0.0 8.553931237579546e-05 0.0 0.0
-0.0009408079878103607 0.00039114971836706633 0.0 0.0001461992063039731 0.0 0.0
-0.0003145610267613865 9.832988944411058e-05 0.0 0.00012937493536713574 0.0 0.0
-8.740572397964325e-05 1.6384293373957456e-05 0.0 0.00011161301736243423 0.0 0.0
SCALARS Statev float 8
LOOKUP_TABLE default
0.0 0.01955036705819351 0.015709448572487045 -0.01864479229428609 0.0029353437217990363 -0.0011516216748541992 0.0 0.0
0.0 0.006847182995772689 0.005072852909602334 -0.0032252347852368755 -0.0018476181243654549 -0.007208291996765463 0.0 0.0
0.0 0.00018027772853530704 0.00023406275981595874 -0.0001422784593848425 -9.17843004311164e-05 -0.000367112946170837 0.0 0.0
0.0 0.00018479514311254682 9.939339495002855e-05 -7.116036338889443e-05 -2.8233031561134415e-05 3.150332484447792e-05 0.0 0.0
0.0 0.0011506148211235948 0.0008272588847536574 -0.000608494020023549 -0.00021876486473010806 0.00017033233082135187 0.0 0.0
0.0 0.003052673777513378 0.0029863995161874815 -0.0023920699905851687 -0.0005943295256023154 0.0003508894751905757 0.0 0.0
0.0 0.0075906849652640496 0.00693858327342149 -0.006009585753877306 -0.0009289975195441698 0.0004883850243066911 0.0 0.0
0.0 0.014549839304169122 0.013095637392078072 -0.011904283425469375 -0.0011913539666087048 0.0005480835403773555 0.0 0.0
0.0 0.02439574076192209 0.021731328323993916 -0.02029711029923449 -0.001434218024759419 0.0005282543460981706 0.0 0.0
0.0 0.03726754726162127 0.03294045219891211 -0.0312357879528294 -0.0017046642460827222 0.00039634323460109637 0.0 0.0
0.0 0.0530444649513216 0.04662593660354665 -0.04460455439068692 -0.0020213822128596765 0.00018173164478616627 0.0 0.0
0.0 0.07116519621270875 0.06258881034244528 -0.060201829603924825 -0.0023869807385203962 -0.00010939380663376396 0.0 0.0
0.0 0.09171254902444623 0.08058956460265505 -0.07779951911484229 -0.002790045487812776 -0.0004961415576666111 0.0 0.0
0.0 0.11433866030207926 0.10037780468189314 -0.09716188226377427 -0.003215922418118602 -0.0009283121999809165 0.0 0.0
0.0 0.1386606751410463 0.12161580126033063 -0.11797043455640233 -0.0036453667039281663 -0.0014316940870986365 0.0 0.0
0.0 0.1640649524715866 0.14373126455624124 -0.1396746416673433 -0.0040566228888979285 -0.001983264173378235 0.0 0.0
0.0 0.18947479282056645 0.16582011732790639 -0.1613927317560215 -0.004427385571884917 -0.002473219675038352 0.0 0.0
0.0 0.21345042796035746 0.18664487250007328 -0.1819094189458808 -0.004735453554192519 -0.002719139138974547 0.0 0.0
0.0 0.234280492186239 0.20473686326891022 -0.19975997894965902 -0.004976884319250937 -0.002562114083434364 0.0 0.0
0.0 0.24967665589066512 0.21831211870401065 -0.21318861459506117 -0.005123504108949696 -0.003000439694063989 0.0 0.0
0.0 0.2562677244189844 0.2237919848856335 -0.21868625089497679 -0.005105733990656626 3.7175124090182976e-15 0.0 0.0
0.0 0.24967665589063515 0.21831211870398406 -0.21318861459503613 -0.005123504108947946 0.0030004396940709445 0.0 0.0
0.0 0.23428049218616628 0.20473686326884655 -0.19975997894959585 -0.004976884319250474 0.0025621140834431377 0.0 0.0
0.0 0.21345042796025676 0.18664487249998513 -0.18190941894579457 -0.004735453554190551 0.002719139138979327 0.0 0.0
0.0 0.18947479282043972 0.1658201173277966 -0.16139273175591312 -0.004427385571883707 0.0024732196750379973 0.0 0.0
0.0 0.16406495247146285 0.14373126455613278 -0.13967464166723692 -0.004056622888895738 0.0019832641733754826 0.0 0.0
0.0 0.13866067514092068 0.12161580126022076 -0.1179704345562951 -0.003645366703925536 0.0014316940870968513 0.0 0.0
0.0 0.11433866030195453 0.10037780468178395 -0.09716188226366801 -0.0032159224181159893 0.0009283121999791675 0.0 0.0
0.0 0.09171254902432607 0.08058956460255001 -0.07779951911473994 -0.0027900454878100386 0.0004961415576631837 0.0 0.0
0.0 0.07116519621259801 0.06258881034234853 -0.060201829603829894 -0.00238698073851853 0.00010939380662964692 0.0 0.0
0.0 0.053044464951224654 0.04662593660346192 -0.04460455439060411 -0.0020213822128577856 -0.00018173164479166762 0.0 0.0
0.0 0.03726754726154303 0.03294045219884369 -0.031235787952762578 -0.0017046642460811718 -0.00039634323460323436 0.0 0.0
0.0 0.024395740761867672 0.021731328323945736 -0.020297110299188084 -0.0014342180247576164 -0.0005282543460977814 0.0 0.0
0.0 0.01454983930412574 0.013095637392039441 -0.011904283425431749 -0.0011913539666076902 -0.0005480835403779492 0.0 0.0
0.0 0.007590684965240509 0.006938583273399585 -0.006009585753856953 -0.0009289975195426259 -0.000488385024306284 0.0 0.0
0.0 0.003052673777499648 0.002986399516174054 -0.0023920699905734845 -0.0005943295256005725 -0.0003508894751895447 0.0 0.0
0.0 0.001150614821117191 0.0008272588847486615 -0.0006084940200198048 -0.00021876486472885502 -0.00017033233082041146 0.0 0.0
0.0 0.0001847951431112606 9.939339494960491e-05 -7.116036338861616e-05 -2.8233031560988095e-05 -3.1503324844301143e-05 0.0 0.0
0.0 0.000180277728534535 0.00023406275981538395 -0.0001422784593845028 -9.178430043088011e-05 0.00036711294616949936 0.0 0.0
0.0 0.006847182995762176 0.0050728529095970375 -0.0032252347852328622 -0.0018476181243641766 0.007208291996755923 0.0 0.0
0.0 0.019550367058172098 0.015709448572472803 -0.018644792294266438 0.0029353437217936283 0.0011516216748121413 0.0 0.0
0.0 0.016029166755125546 0.012071746602168303 -0.015510016063354642 0.00343826946118633 -0.0006570309907402577 0.0 0.0
0.0 0.004296695902987053 0.003089402560077754 -0.0019486738032205109 -0.0011407287568572387 -0.005762471458784345 0.0 0.0
0.0 -8.733421699347671e-05 -7.600780107191055e-05 7.044910730294828e-05 5.558693768962296e-06 -0.00010444022423628622 0.0 0.0
0.0 5.01017498351446e-05 4.144935181503745e-05 -2.987667355617957e-05 -1.157267825885788e-05 1.4611142658424891e-05 0.0 0.0
0.0 0.0006675219798984472 0.000551790830876887 -0.0004092329704416252 -0.00014255786043526145 6.677167527403777e-05 0.0 0.0
0.0 0.0026535452243489958 0.0023333083328979263 -0.0018881008484276695 -0.00044520748447026 4.993229541936892e-05 0.0 0.0
0.0 0.006486582483336388 0.005912030353278791 -0.005187145726492601 -0.0007248846267861876 -0.00025537416108664765 0.0 0.0
0.0 0.012946614737324929 0.011557496562455336 -0.010662827804848226 -0.0008946687576071061 -0.0007731068540668003 0.0 0.0
0.0 0.02213465005710909 0.01952837913627331 -0.018522181776281246 -0.0010061973599920669 -0.0015033368734057191 0.0 0.0
0.0 0.03406492044529955 0.02986623329034481 -0.028764342510434554 -0.0011018907799102656 -0.0024163779200115673 0.0 0.0
0.0 0.04862022806844622 0.04244212957532148 -0.04124707774420197 -0.0011950518311195355 -0.0034288568758833213 0.0 0.0
0.0 0.06567370520995339 0.05706095075644505 -0.05577028006756919 -0.0012906706888758518 -0.004470186862040962 0.0 0.0
0.0 0.08442130670573783 0.07353908762281056 -0.07215015138574335 -0.001388936237067121 -0.005544358962604976 0.0 0.0
0.0 0.10536567557488519 0.09166886305481456 -0.09018610611906126 -0.0014827569357532685 -0.006651483695492842 0.0 0.0
0.0 0.1278651552775145 0.11115308243534666 -0.10959142180104109 -0.0015616606343054487 -0.007755937048452695 0.0 0.0
0.0 0.15136965986468393 0.13148606179807507 -0.12986929599910452 -0.001616765798970677 -0.008758011725115505 0.0 0.0
0.0 0.1749745151579558 0.15186290493354423 -0.1502201961284618 -0.0016427088050823863 -0.009411014970469981 0.0 0.0
0.0 0.19737459862259393 0.17116310572991367 -0.16952248184758542 -0.0016406238823283472 -0.00937452484772457 0.0 0.0
0.0 0.21683841726251188 0.18793403186040475 -0.186332384981898 -0.0016016468785067198 -0.008477679211977413 0.0 0.0
0.0 0.23105536854577297 0.20010651875612154 -0.1986589282130701 -0.0014475905430515238 -0.007487326099827187 0.0 0.0
0.0 0.2372418478580193 0.20486331103037927 -0.20365343276350334 -0.0012098782668760015 8.547849927875717e-15 0.0 0.0
0.0 0.2310553685457421 0.20010651875609378 -0.19865892821304315 -0.0014475905430505508 0.007487326099848257 0.0 0.0
0.0 0.21683841726244224 0.1879340318603449 -0.1863323849818372 -0.001601646878507502 0.00847767921200097 0.0 0.0
0.0 0.1973745986225051 0.1711631057298369 -0.16952248184750912 -0.0016406238823277494 0.00937452484773772 0.0 0.0
0.0 0.17497451515784443 0.15186290493344848 -0.15022019612836573 -0.0016427088050828226 0.009411014970471419 0.0 0.0
0.0 0.15136965986456982 0.13148606179797637 -0.12986929599900596 -0.0016167657989701169 0.008758011725109776 0.0 0.0
0.0 0.1278651552773987 0.11115308243524578 -0.10959142180094135 -0.0015616606343045463 0.007755937048449077 0.0 0.0
0.0 0.10536567557476999 0.09166886305471451 -0.09018610611896226 -0.0014827569357521587 0.006651483695489188 0.0 0.0
0.0 0.08442130670562516 0.07353908762271302 -0.0721501513856464 -0.0013889362370665976 0.005544358962598115 0.0 0.0
0.0 0.06567370520985014 0.05706095075635535 -0.05577028006747984 -0.0012906706888755107 0.00447018686203416 0.0 0.0
0.0 0.04862022806835596 0.04244212957524359 -0.04124707774412432 -0.0011950518311192643 0.0034288568758729346 0.0 0.0
0.0 0.03406492044522804 0.029866233290282203 -0.028764342510372458 -0.0011018907799097285 0.002416377920004338 0.0 0.0
0.0 0.022134650057057174 0.019528379136227274 -0.018522181776236026 -0.0010061973599912429 0.001503336873401994 0.0 0.0
0.0 0.012946614737285709 0.011557496562420572 -0.010662827804814038 -0.0008946687576065544 0.0007731068540626624 0.0 0.0
0.0 0.006486582483314192 0.005912030353258587 -0.0051871457264734975 -0.0007248846267850796 0.00025537416108462003 0.0 0.0
0.0 0.002653545224335807 0.0023333083328863037 -0.0018881008484175244 -0.0004452074844687766 -4.9932295419951904e-05 0.0 0.0
0.0 0.0006675219798940607 0.0005517908308735784 -0.00040923297043912016 -0.00014255786043445846 -6.677167527367807e-05 0.0 0.0
0.0 5.010174983463296e-05 4.144935181524366e-05 -2.9876673556360443e-05 -1.1572678258883093e-05 -1.4611142658273015e-05 0.0 0.0
0.0 -8.733421699367164e-05 -7.600780107177913e-05 7.04491073028039e-05 5.558693768975014e-06 0.00010444022423592564 0.0 0.0
0.0 0.004296695902976023 0.003089402560071731 -0.0019486738032161604 -0.0011407287568555677 0.005762471458772577 0.0 0.0
0.0 0.01602916675510258 0.012071746602150789 -0.015510016063332742 0.003438269461181942 0.0006570309907087885 0.0 0.0
0.0 0.012046791390897052 0.008881512739660822 -0.011719658056767855 0.002838145317107035 -0.003245379880480159 0.0 0.0
0.0 0.0029745435045386943 0.001900739414394063 -0.001064076339422264 -0.0008366630749718025 -0.004963612442931918 0.0 0.0
0.0 5.676090111685325e-07 1.3825330203036675e-06 -1.220830528021376e-06 -1.6170249228228743e-07 8.606943580405495e-07 0.0 0.0
0.0 3.115541625780049e-07 -1.4093724383591561e-06 1.6037126554839195e-06 -1.9434021712488325e-07 5.910831888353959e-06 0.0 0.0
0.0 0.00031650160452294056 0.00027849168077837027 -0.00020123179513700974 -7.725988564136074e-05 1.2359787351642343e-05 0.0 0.0
0.0 0.0019152179943867113 0.0016342273871368868 -0.0012866504181045972 -0.000347576969032288 -0.00011826200851698214 0.0 0.0
0.0 0.005080901336121862 0.004698481388888497 -0.004042596251108145 -0.0006558851377803527 -0.0007153283136379303 0.0 0.0
0.0 0.010864255603665815 0.009701014153370864 -0.008855759901596835 -0.000845254251774027 -0.0017138742943170586 0.0 0.0
0.0 0.019088930726633035 0.016840194512810425 -0.015881916984660082 -0.0009582775281503259 -0.0031061345925135256 0.0 0.0
0.0 0.02986377531576079 0.026104369094023305 -0.025057190847116127 -0.0010471782469071945 -0.004809667543874671 0.0 0.0
0.0 0.042924018978052654 0.03733633591444618 -0.03620244146345726 -0.0011338944509888943 -0.006670506279459507 0.0 0.0
0.0 0.05793374917733903 0.050348584923338345 -0.049124130248574406 -0.0012244546747639392 -0.008543951986715167 0.0 0.0
0.0 0.07506303920020514 0.0649865179083726 -0.0636692949932553 -0.0013172229151172375 -0.010402748886612037 0.0 0.0
0.0 0.09344793341502404 0.08111040861403807 -0.07970498345327888 -0.0014054251607592077 -0.01230164854836814 0.0 0.0
0.0 0.11354701859607896 0.09847795389715533 -0.09699697092892456 -0.0014809829682309538 -0.014201282279087242 0.0 0.0
0.0 0.1345948817812243 0.1166724113676182 -0.11513647653036169 -0.0015359348372563908 -0.01589952753570376 0.0 0.0
0.0 0.1558292623956518 0.13502337304262257 -0.13345792956980723 -0.0015654434728155137 -0.016999653078142066 0.0 0.0
0.0 0.17608016589569442 0.1525307641799501 -0.15096815682187334 -0.0015626073580768454 -0.017000465677003064 0.0 0.0
0.0 0.1937122612095435 0.16774383403570153 -0.16624011165911906 -0.0015037223765822143 -0.01561521200985043 0.0 0.0
0.0 0.20649826618316885 0.1787300511689407 -0.17731923236471217 -0.0014108188042280998 -0.012898514981779068 0.0 0.0
0.0 0.21232738184155378 0.18315406945562 -0.18202014088806212 -0.001133928567557826 1.5335822889372963e-14 0.0 0.0
0.0 0.2064982661831385 0.17873005116891283 -0.17731923236468466 -0.0014108188042281356 0.012898514981817866 0.0 0.0
0.0 0.19371226120948243 0.1677438340356483 -0.1662401116590658 -0.0015037223765826163 0.015615212009890144 0.0 0.0
0.0 0.1760801658956153 0.15253076417988132 -0.15096815682180453 -0.0015626073580766336 0.017000465677025168 0.0 0.0
0.0 0.15582926239555495 0.1350233730425394 -0.13345792956972433 -0.0015654434728151153 0.01699965307814485 0.0 0.0
0.0 0.13459488178112225 0.1166724113675298 -0.11513647653027351 -0.0015359348372562698 0.01589952753569627 0.0 0.0
0.0 0.11354701859597409 0.0984779538970644 -0.09699697092883407 -0.00148098296823032 0.014201282279081451 0.0 0.0
0.0 0.09344793341492046 0.0811104086139482 -0.07970498345318977 -0.0014054251607584485 0.012301648548362732 0.0 0.0
0.0 0.07506303920010457 0.06498651790828604 -0.06366929499316874 -0.0013172229151172884 0.010402748886600833 0.0 0.0
0.0 0.05793374917724521 0.05034858492325745 -0.04912413024849375 -0.0012244546747636259 0.00854395198670222 0.0 0.0
0.0 0.04292401897797392 0.0373363359143778 -0.03620244146338918 -0.0011338944509886176 0.006670506279445345 0.0 0.0
0.0 0.02986377531569581 0.026104369093966306 -0.02505719084705958 -0.001047178246906701 0.004809667543862508 0.0 0.0
0.0 0.019088930726584644 0.0168401945127681 -0.01588191698461821 -0.0009582775281498997 0.0031061345925052337 0.0 0.0
0.0 0.010864255603630078 0.009701014153339597 -0.008855759901566321 -0.0008452542517732609 0.0017138742943098504 0.0 0.0
0.0 0.0050809013361022195 0.004698481388870584 -0.004042596251091424 -0.0006558851377791613 0.0007153283136339687 0.0 0.0
0.0 0.0019152179943765124 0.0016342273871281438 -0.0012866504180972693 -0.0003475769690308743 0.0001182620085155738 0.0 0.0
0.0 0.00031650160451974325 0.0002784916807760833 -0.0002012317951353612 -7.725988564072208e-05 -1.2359787351600447e-05 0.0 0.0
0.0 3.1155416275642315e-07 -1.409372438039364e-06 1.603712655240622e-06 -1.9434021720124288e-07 -5.910831888228948e-06 0.0 0.0
0.0 5.676090112340713e-07 1.3825330202987776e-06 -1.2208305280150791e-06 -1.6170249228369962e-07 -8.606943580362832e-07 0.0 0.0
0.0 0.0029745435045297375 0.0019007394143888228 -0.0010640763394187277 -0.0008366630749700907 0.004963612442918391 0.0 0.0
0.0 0.01204679139087316 0.008881512739643141 -0.01171965805674567 0.0028381453171025172 0.003245379880459119 0.0 0.0
0.0 0.009196570402087982 0.006609378650916341 -0.008900345641919794 0.0022909669910034344 -0.0035061763337602622 0.0 0.0
0.0 0.0021788648436039176 0.001308893569229758 -0.0007160414910337902 -0.000592852078195963 -0.003786179926575481 0.0 0.0
0.0 0.0 0.0 0.0 0.0 0.0 0.0 0.0
0.0 -3.85159615957167e-06 -3.825095106334649e-06 3.014749622599596e-06 8.103454837350525e-07 2.8649201944816484e-06 0.0 0.0
0.0 0.00011733079198102623 9.436514082456883e-05 -6.521162802201452e-05 -2.9153512802553703e-05 5.922846015865601e-06 0.0 0.0
0.0 0.0011791948973918125 0.0010528960257840919 -0.0008063785662921791 -0.00024651745949191183 -0.00020540872303633135 0.0 0.0
0.0 0.003994876614751329 0.0035302441270630945 -0.002964759799312164 -0.0005654843277509302 -0.0009210738451011589 0.0 0.0
0.0 0.008834274828201084 0.00786665057314517 -0.007082579295163241 -0.0007840712779819192 -0.002317808742885621 0.0 0.0
0.0 0.01611626912784731 0.01413921991294876 -0.013234813060095794 -0.0009044068528529568 -0.004214836682418467 0.0 0.0
0.0 0.025657124530115604 0.02230229246749708 -0.02131360171401264 -0.0009886907534844256 -0.006518214318035674 0.0 0.0
0.0 0.03713620934403251 0.03217563940207588 -0.03110713808497436 -0.001068501317101473 -0.009013313692814284 0.0 0.0
0.0 0.05046648650031966 0.043574017143699066 -0.04242093070047644 -0.0011530864432226268 -0.011516170232853128 0.0 0.0
0.0 0.06519667385018611 0.056375493063007216 -0.055134667442792745 -0.0012408256202145057 -0.01399162077350326 0.0 0.0
0.0 0.08178747239762083 0.07047294036361298 -0.06915001246032983 -0.0013229279032831145 -0.016485008554028124 0.0 0.0
0.0 0.09934194283790151 0.08570433916671537 -0.08430978178342491 -0.0013945573832903184 -0.018963241218528125 0.0 0.0
0.0 0.11774522058566782 0.10175274874002631 -0.10030183214212786 -0.001450916597898444 -0.02120360445747606 0.0 0.0
0.0 0.13670917034372215 0.11807444992411058 -0.11659117970105048 -0.0014832702230599798 -0.022737306921198068 0.0 0.0
0.0 0.15488698625160138 0.13379412761245962 -0.13231481108644266 -0.0014793165260168907 -0.022959140267215968 0.0 0.0
0.0 0.17080643295331943 0.14758727900774887 -0.14615449229238392 -0.0014327867153649837 -0.02124762000040475 0.0 0.0
0.0 0.1825329062723461 0.15778154661843902 -0.15641016678854652 -0.0013713798298929669 -0.016707528344784877 0.0 0.0
0.0 0.18837137930010028 0.1621476041433971 -0.16116257238453766 -0.0009850317588592505 2.2184511172529398e-14 0.0 0.0
0.0 0.18253290627231858 0.15778154661841326 -0.15641016678852027 -0.0013713798298931445 0.016707528344837654 0.0 0.0
0.0 0.1708064329532688 0.14758727900770352 -0.1461544922923385 -0.0014327867153649918 0.02124762000045663 0.0 0.0
0.0 0.15488698625153136 0.13379412761239873 -0.132314811086381 -0.001479316526017597 0.02295914026724566 0.0 0.0
0.0 0.13670917034363855 0.11807444992403854 -0.11659117970097922 -0.0014832702230592968 0.02273730692120162 0.0 0.0
0.0 0.1177452205855805 0.10175274873995103 -0.10030183214205225 -0.001450916597898721 0.02120360445746796 0.0 0.0
0.0 0.09934194283781071 0.08570433916663647 -0.08430978178334654 -0.0013945573832900352 0.01896324121851963 0.0 0.0
0.0 0.08178747239752976 0.0704729403635338 -0.06915001246025132 -0.001322927903282456 0.016485008554019062 0.0 0.0
0.0 0.06519667385010228 0.05637549306293529 -0.05513466744272128 -0.0012408256202139018 0.013991620773489553 0.0 0.0
0.0 0.05046648650023518 0.04357401714362627 -0.042420930700403446 -0.0011530864432229065 0.01151617023283303 0.0 0.0
0.0 0.037136209343965346 0.032175639402017744 -0.03110713808491685 -0.0010685013171008492 0.00901331369279695 0.0 0.0
0.0 0.025657124530057612 0.022302292467446964 -0.02131360171396289 -0.000988690753484082 0.006518214318018472 0.0 0.0
0.0 0.01611626912780458 0.014139219912911727 -0.013234813060059364 -0.0009044068528523584 0.004214836682407344 0.0 0.0
0.0 0.008834274828170176 0.007866650573117613 -0.007082579295136554 -0.0007840712779810491 0.0023178087428759073 0.0 0.0
0.0 0.003994876614734705 0.0035302441270491655 -0.0029647597992995215 -0.000565484327749642 0.0009210738450962895 0.0 0.0
0.0 0.0011791948973840505 0.0010528960257777907 -0.0008063785662871753 -0.0002465174594906152 0.0002054087230348494 0.0 0.0
0.0 0.00011733079197932838 9.436514082365216e-05 -6.521162802135302e-05 -2.9153512802298902e-05 -5.922846015842545e-06 0.0 0.0
0.0 -3.8515961598969535e-06 -3.825095106296034e-06 3.014749622568291e-06 8.103454837277641e-07 -2.8649201944588776e-06 0.0 0.0
0.0 0.0 0.0 0.0 0.0 0.0 0.0 0.0
0.0 0.0021788648435965095 0.0013088935692254812 -0.0007160414910309537 -0.0005928520781945297 0.0037861799265641576 0.0 0.0
0.0 0.009196570402067408 0.006609378650900395 -0.008900345641899654 0.002290966990999251 0.003506176333744972 0.0 0.0
0.0 0.006802231789233038 0.004860426858649132 -0.006662701393427789 0.0018022745347786593 -0.003012981131013578 0.0 0.0
0.0 0.001742661067594185 0.0008705746607057943 -0.0004659168281739742 -0.00040465783253181936 -0.002749916404475103 0.0 0.0
0.0 0.0 0.0 0.0 0.0 0.0 0.0 0.0
0.0 -5.59774543297247e-07 -7.221220726024847e-08 6.07842781111503e-08 1.1427929149099542e-08 1.9593259834975317e-07 0.0 0.0
0.0 -5.633291161758481e-06 6.50620489088212e-06 -1.9016954939848632e-06 -4.60450939689725e-06 1.7183920765798355e-05 0.0 0.0
0.0 0.0006869242272195062 0.0005810120548398412 -0.0004336882059716537 -0.00014732384886818816 -0.00019433882885153407 0.0 0.0
0.0 0.002945831459080077 0.0024726305178592797 -0.0020198873734358176 -0.00045274314442345624 -0.0009619146836279248 0.0 0.0
0.0 0.006894075611353826 0.00608242790806993 -0.005374459010506907 -0.0007079688975630289 -0.00254466386272774 0.0 0.0
0.0 0.013187868296099508 0.011459947119246692 -0.010617634214208055 -0.0008423129050386489 -0.004821223900540823 0.0 0.0
0.0 0.02144856489362848 0.018497567359094802 -0.01757295200877614 -0.0009246153503186626 -0.007537204149717194 0.0 0.0
0.0 0.031433698961036045 0.026997537786523702 -0.02599937588685404 -0.0009981618996696532 -0.010463050035012645 0.0 0.0
0.0 0.04291213104904613 0.03677632754592437 -0.03570015158313869 -0.0010761759627856686 -0.013391241290913196 0.0 0.0
0.0 0.055814369497845566 0.04773174604189255 -0.046574046589185146 -0.0011576994527074068 -0.016287741166149065 0.0 0.0
0.0 0.06968024710363628 0.05980728143515246 -0.0585718979510316 -0.0012353834841209211 -0.019197625134916515 0.0 0.0
0.0 0.08501050024627796 0.07288863598218216 -0.07158564611385919 -0.0013029898683229258 -0.02206350857306137 0.0 0.0
0.0 0.10121113631903961 0.08675802317764444 -0.08540042885540035 -0.0013575943222440773 -0.02465739404262321 0.0 0.0
0.0 0.11757498962911798 0.1010148099647454 -0.09962095650619969 -0.0013938534585456982 -0.026559927081518827 0.0 0.0
0.0 0.1336504683347374 0.11494793781545139 -0.11354820166441357 -0.0013997361510378302 -0.027111808860047434 0.0 0.0
0.0 0.14803041079395554 0.12745082856315104 -0.1260821364787803 -0.0013686920843706267 -0.025257734154656028 0.0 0.0
0.0 0.15903667274935257 0.13709711824916287 -0.13577595599459696 -0.001321162254565793 -0.019547792687673107 0.0 0.0
0.0 0.1651022118371083 0.14155506172330562 -0.1407539645278825 -0.0008010971954230747 2.5750235277399725e-14 0.0 0.0
0.0 0.15903667274933497 0.13709711824914447 -0.13577595599457923 -0.001321162254565144 0.01954779268773269 0.0 0.0
0.0 0.14803041079391094 0.12745082856311016 -0.12608213647873892 -0.0013686920843710758 0.025257734154712712 0.0 0.0
0.0 0.1336504683346789 0.11494793781539951 -0.11354820166436137 -0.0013997361510381702 0.02711180886008172 0.0 0.0
0.0 0.11757498962905008 0.10101480996468663 -0.09962095650614211 -0.0013938534585444112 0.026559927081524885 0.0 0.0
0.0 0.10121113631896464 0.08675802317757939 -0.08540042885533555 -0.001357594322243831 0.024657394042613846 0.0 0.0
0.0 0.08501050024619922 0.07288863598211409 -0.0715856461137914 -0.001302989868322665 0.022063508573050134 0.0 0.0
0.0 0.069680247103559 0.05980728143508551 -0.05857189795096503 -0.0012353834841204471 0.01919762513490656 0.0 0.0
0.0 0.05581436949777654 0.04773174604183266 -0.04657404658912623 -0.0011576994527063963 0.016287741166134996 0.0 0.0
0.0 0.04291213104897558 0.03677632754586412 -0.03570015158307834 -0.0010761759627857515 0.013391241290891589 0.0 0.0
0.0 0.031433698960976246 0.026997537786472577 -0.025999375886803903 -0.0009981618996686937 0.01046305003498978 0.0 0.0
0.0 0.02144856489358034 0.01849756735905379 -0.017572952008735484 -0.0009246153503182961 0.007537204149697876 0.0 0.0
0.0 0.013187868296064277 0.011459947119216338 -0.010617634214178169 -0.0008423129050381684 0.004821223900527534 0.0 0.0
0.0 0.006894075611327477 0.006082427908047091 -0.005374459010485106 -0.000707968897561988 0.002544663862716907 0.0 0.0
0.0 0.0029458314590669467 0.0024726305178486563 -0.0020198873734266773 -0.00045274314442198 0.0009619146836232817 0.0 0.0
0.0 0.0006869242272132936 0.0005810120548351492 -0.0004336882059679828 -0.00014732384886716665 0.0001943388288493878 0.0 0.0
0.0 -5.633291161978407e-06 6.506204891177026e-06 -1.9016954942494367e-06 -4.604509396927666e-06 -1.718392076514618e-05 0.0 0.0
0.0 -5.597745431701482e-07 -7.221220735614958e-08 6.078427818479489e-08 1.1427929171348289e-08 -1.9593259847035365e-07 0.0 0.0
0.0 0.0 0.0 0.0 0.0 0.0 0.0 0.0
0.0 0.0017426610675868816 0.0008705746607021846 -0.0004659168281715778 -0.0004046578325306052 0.0027499164044652736 0.0 0.0
0.0 0.0068022317892158886 0.004860426858635677 -0.00666270139341053 0.0018022745347748414 0.003012981131002901 0.0 0.0
0.0 0.0049936856434349645 0.00345650172125579 -0.004818377794098164 0.001361876072842374 -0.002367046610122496 0.0 0.0
0.0 0.0010912829099941489 0.000551195837134477 -0.0002877790167034797 -0.00026341682043099743 -0.0019044319898282405 0.0 0.0
0.0 0.0 0.0 0.0 0.0 0.0 0.0 0.0
0.0 -3.607313910390503e-07 8.256720272194955e-08 -6.314655763618596e-08 -1.9420645085763603e-08 -1.401973220902602e-07 0.0 0.0
0.0 -2.321608300775739e-05 -1.7180164633226144e-05 1.4144259500320406e-05 3.035905132905737e-06 2.7311286449246494e-05 0.0 0.0
0.0 0.00028447436126512063 0.00026082739860637386 -0.00018956859597908895 -7.125880262728493e-05 -0.00013623494520638972 0.0 0.0
0.0 0.0017944739595760165 0.0015847839517865235 -0.001257744069296397 -0.0003270398824901278 -0.0008978015238283664 0.0 0.0
0.0 0.005343910925264503 0.004387408683574353 -0.003783575485475265 -0.0006038331980990806 -0.002451170408239333 0.0 0.0
0.0 0.010201877077103655 0.008836901875837782 -0.008070545824980561 -0.0007663560508572261 -0.004899938662551484 0.0 0.0
0.0 0.01732583254612424 0.014726979122611419 -0.013874415101537085 -0.0008525640210743281 -0.007858019909091673 0.0 0.0
0.0 0.02574397312481614 0.021841486611006527 -0.02092044906381847 -0.000921037547188055 -0.011013881204199107 0.0 0.0
0.0 0.03536354198335909 0.02999571176331941 -0.029003101051383387 -0.0009926107119360105 -0.014168551840268393 0.0 0.0
0.0 0.0460865119225581 0.03910537962932127 -0.03803737728908375 -0.0010680023402375417 -0.017283086458285454 0.0 0.0
0.0 0.05796291025708987 0.049147205863089044 -0.04800771965270298 -0.0011394862103860503 -0.02040531044838807 0.0 0.0
0.0 0.07070382120974106 0.06007478840240237 -0.05887157087326165 -0.0012032175291407752 -0.023482075152185995 0.0 0.0
0.0 0.084177489518403 0.07174454140872416 -0.07048814796173215 -0.0012563934469919974 -0.026274277891573466 0.0 0.0
0.0 0.09855407958251441 0.08387322691746178 -0.08257702599060061 -0.0012962009268610649 -0.028413479539160746 0.0 0.0
0.0 0.11244855274223793 0.09598276772475321 -0.0946656224427842 -0.0013171452819691206 -0.029294997586800542 0.0 0.0
0.0 0.12518297096904882 0.10725861551495904 -0.10595395792923683 -0.0013046575857222676 -0.027650688766052405 0.0 0.0
0.0 0.1357057268977524 0.11650921414094387 -0.11524490941308291 -0.0012643047278609397 -0.02155596386747354 0.0 0.0
0.0 0.14220425970078804 0.1211718716651877 -0.12058411570194887 -0.0005877559632387555 2.5765847788683516e-14 0.0 0.0
0.0 0.1357057268977387 0.11650921414092738 -0.11524490941306682 -0.0012643047278606064 0.021555963867535652 0.0 0.0
0.0 0.12518297096901365 0.10725861551492505 -0.10595395792920295 -0.0013046575857222238 0.027650688766113138 0.0 0.0
0.0 0.11244855274218887 0.09598276772470891 -0.09466562244273971 -0.0013171452819690933 0.02929499758683712 0.0 0.0
0.0 0.09855407958245518 0.08387322691741078 -0.08257702599055036 -0.0012962009268604158 0.028413479539165724 0.0 0.0
0.0 0.08417748951833731 0.07174454140866754 -0.0704881479616756 -0.0012563934469919829 0.026274277891563086 0.0 0.0
0.0 0.07070382120967308 0.060074788402343954 -0.05887157087320344 -0.0012032175291404761 0.02348207515217201 0.0 0.0
0.0 0.05796291025702349 0.04914720586303138 -0.04800771965264557 -0.0011394862103858438 0.020405310448375517 0.0 0.0
0.0 0.04608651192249669 0.03910537962926878 -0.03803737728903182 -0.0010680023402369326 0.017283086458270425 0.0 0.0
0.0 0.035363541983304235 0.02999571176327269 -0.029003101051337306 -0.0009926107119353764 0.014168551840248938 0.0 0.0
0.0 0.025743973124764532 0.021841486610963586 -0.02092044906377626 -0.0009210375471873444 0.011013881204173775 0.0 0.0
0.0 0.01732583254608215 0.014726979122575808 -0.013874415101501971 -0.0008525640210738168 0.00785801990906997 0.0 0.0
0.0 0.010201877077075181 0.008836901875813168 -0.00807054582495659 -0.0007663560508565837 0.004899938662537434 0.0 0.0
0.0 0.005343910925242071 0.004387408683556271 -0.0037835754854582764 -0.000603833198097992 0.002451170408228673 0.0 0.0
0.0 0.0017944739595651044 0.0015847839517778414 -0.0012577440692890874 -0.0003270398824887546 0.0008978015238226851 0.0 0.0
0.0 0.0002844743612613394 0.0002608273986037258 -0.00018956859597711798 -7.125880262660755e-05 0.00013623494520468164 0.0 0.0
0.0 -2.3216083008109327e-05 -1.718016463270685e-05 1.4144259499914824e-05 3.035905132791995e-06 -2.7311286448595187e-05 0.0 0.0
0.0 -3.6073139087422185e-07 8.256720272415098e-08 -6.314655763779426e-08 -1.942064508635358e-08 1.4019732208732666e-07 0.0 0.0
0.0 0.0 0.0 0.0 0.0 0.0 0.0 0.0
0.0 0.001091282909987846 0.0005511958371314982 -0.000287779016701464 -0.0002634168204300335 0.0019044319898197939 0.0 0.0
0.0 0.004993685643421474 0.003456501721245139 -0.004818377794084109 0.001361876072838967 0.002367046610115312 0.0 0.0
0.0 0.0033636899223408526 0.0023387425508760314 -0.0033088689842268332 0.0009701264333507976 -0.0017712415151110148 0.0 0.0
0.0 0.0006913386358250223 0.0003077979221136552 -0.0001470937532355953 -0.00016070416887805923 -0.0012077431806360955 0.0 0.0
0.0 2.9041076945466384e-07 -3.4488798683329004e-09 2.6803405111441826e-09 7.685393571887485e-10 5.864590140692222e-08 0.0 0.0
0.0 -3.9933846218285653e-07 2.3010864123224606e-08 -1.7665084308602554e-08 -5.345779814626124e-09 -7.114747973550936e-08 0.0 0.0
0.0 -1.3755859858373112e-05 -9.064057183486827e-06 7.245454864533953e-06 1.8186023189529214e-06 1.903876723437909e-05 0.0 0.0
0.0 7.154878635689952e-05 6.36008709629369e-05 -4.3358315623791155e-05 -2.0242555339145736e-05 -3.934029804280713e-05 0.0 0.0
0.0 0.0010486783606441453 0.0008597947713755096 -0.0006643885902657075 -0.0001954061811098021 -0.0007027021488387453 0.0 0.0
0.0 0.00342515930455547 0.002886288115810712 -0.00241713307089098 -0.0004691550449197317 -0.002164153135066963 0.0 0.0
0.0 0.007878606830099655 0.006308658305990904 -0.005644202853531151 -0.0006644554524597526 -0.004474932661493453 0.0 0.0
0.0 0.013138385440873503 0.011034061791615531 -0.010267878804111553 -0.0007661829875039806 -0.007456563879602237 0.0 0.0
0.0 0.020125150485195906 0.01674923262234763 -0.015915168215073782 -0.0008340644072738577 -0.01064959887382573 0.0 0.0
0.0 0.027919831500883535 0.023273739197792232 -0.022374074702398432 -0.0008996644953938133 -0.013836032431572696 0.0 0.0
0.0 0.036538991513489945 0.030537647385212058 -0.02956946863393566 -0.0009681787512763558 -0.016966179030560812 0.0 0.0
0.0 0.046029095904293944 0.03854903575009869 -0.03751500576955512 -0.0010340299805436084 -0.020095203362364582 0.0 0.0
0.0 0.05632769006939035 0.04731116306786191 -0.046218253593016366 -0.0010929094748455051 -0.02318392731271559 0.0 0.0
0.0 0.0676628507573449 0.056752026244176405 -0.055610079499788356 -0.001141946744388082 -0.026018089427179918 0.0 0.0
0.0 0.07891977860769891 0.06670638336162898 -0.0655198852007666 -0.0011864981608624716 -0.028245913211882093 0.0 0.0
0.0 0.0909273017076029 0.07690780800795817 -0.07568176276438711 -0.0012260452435709055 -0.02940518610479628 0.0 0.0
0.0 0.10253068841489085 0.0869138934523764 -0.08567775243644038 -0.0012361410159361288 -0.028316879358811983 0.0 0.0
0.0 0.11250771739459323 0.09583918583558679 -0.09463625142005892 -0.0012029344155278664 -0.022704782282840553 0.0 0.0
0.0 0.11968843451204446 0.1008036857166171 -0.100459217894485 -0.00034446782213223034 2.5609722675845603e-14 0.0 0.0
0.0 0.11250771739457671 0.09583918583556796 -0.09463625142003912 -0.0012029344155288458 0.022704782282902222 0.0 0.0
0.0 0.10253068841486304 0.0869138934523478 -0.08567775243641208 -0.0012361410159357586 0.028316879358873052 0.0 0.0
0.0 0.09092730170756316 0.07690780800792096 -0.07568176276435049 -0.0012260452435704722 0.029405186104833867 0.0 0.0
0.0 0.07891977860764876 0.06670638336158634 -0.06551988520072399 -0.0011864981608623345 0.028245913211885968 0.0 0.0
0.0 0.06766285075728827 0.05675202624412832 -0.05561007949973953 -0.0011419467443888286 0.02601808942716701 0.0 0.0
0.0 0.05632769006933985 0.047311163067817776 -0.046218253592973116 -0.0010929094748446573 0.02318392731270316 0.0 0.0
0.0 0.04602909590424008 0.038549035750052404 -0.03751500576950907 -0.0010340299805433224 0.020095203362350725 0.0 0.0
0.0 0.036538991513440325 0.030537647385170272 -0.02956946863389423 -0.0009681787512760681 0.016966179030545307 0.0 0.0
0.0 0.02791983150083594 0.02327373919775277 -0.022374074702359213 -0.0008996644953935772 0.01383603243155163 0.0 0.0
0.0 0.020125150485151434 0.016749232622311438 -0.015915168215038255 -0.0008340644072731806 0.010649598873799643 0.0 0.0
0.0 0.013138385440838259 0.01103406179158672 -0.010267878804082949 -0.0007661829875037772 0.007456563879579838 0.0 0.0
0.0 0.007878606830076306 0.006308658305972659 -0.005644202853513738 -0.0006644554524589178 0.004474932661480957 0.0 0.0
0.0 0.0034251593045391596 0.0028862881157977636 -0.0024171330708790397 -0.0004691550449187217 0.002164153135056972 0.0 0.0
0.0 0.001048678360636223 0.0008597947713697739 -0.0006643885902611616 -0.00019540618110861155 0.0007027021488340573 0.0 0.0
0.0 7.154878635490715e-05 6.36008709620278e-05 -4.33583156231401e-05 -2.0242555338887906e-05 3.9340298041880603e-05 0.0 0.0
0.0 -1.3755859858848502e-05 -9.064057183377623e-06 7.245454864441925e-06 1.8186023189357003e-06 -1.903876723409218e-05 0.0 0.0
0.0 -3.9933846203843063e-07 2.3010864114477826e-08 -1.766508430182229e-08 -5.345779812654833e-09 7.114747970917023e-08 0.0 0.0
0.0 2.9041076910978675e-07 -3.44887986405181e-09 2.6803405077244864e-09 7.685393563274542e-10 -5.8645901335916544e-08 0.0 0.0
0.0 0.0006913386358202437 0.0003077979221116757 -0.00014709375323425776 -0.00016070416887741768 0.0012077431806299666 0.0 0.0
0.0 0.003363689922330656 0.002338742550868068 -0.0033088689842160185 0.0009701264333479507 0.0017712415151058941 0.0 0.0
0.0 0.0025327260061435005 0.001426097904591848 -0.0020449999983377576 0.0006189020937459091 -0.0012107074237858461 0.0 0.0
0.0 0.0002902260927383917 0.0001405650902517974 -5.3320847334762737e-05 -8.724424291703473e-05 -0.0006702647791286229 0.0 0.0
0.0 7.661518012122996e-07 4.375573198328932e-08 -4.424128698568644e-08 4.855550023977844e-10 -8.717141685354108e-07 0.0 0.0
0.0 -6.86231782700961e-07 3.6941969763355615e-08 -2.8710226881946384e-08 -8.231742881409526e-09 -2.37902943368085e-07 0.0 0.0
0.0 -6.820252192801735e-06 -4.6636213542801315e-06 3.697686327256332e-06 9.65935027023799e-07 1.5620571255592695e-05 0.0 0.0
0.0 -1.2780419423098393e-05 -6.723746676414611e-06 7.12390768357828e-06 -4.0016100716369574e-07 2.014072012124481e-05 0.0 0.0
0.0 0.00046457576879123055 0.00034694685904237244 -0.00026252369159112017 -8.44231674512518e-05 -0.00043794643568634023 0.0 0.0
0.0 0.001994199219284512 0.0016005466147691401 -0.0012991704843481118 -0.0003013761304210276 -0.00168033759823667 0.0 0.0
0.0 0.0050102230658965 0.003999587623661877 -0.0034785536461153527 -0.0005210339775465281 -0.0036899793760464487 0.0 0.0
0.0 0.009563513113809478 0.007470681440603434 -0.006820404179659742 -0.0006502772609436859 -0.00635333906857496 0.0 0.0
0.0 0.014607494564868255 0.011768124622747064 -0.011041561283722618 -0.0007265633390244309 -0.009351657155169613 0.0 0.0
0.0 0.020502500824730215 0.016662141059973004 -0.015871823436757977 -0.0007903176232150436 -0.01236114692860045 0.0 0.0
0.0 0.02708622091706274 0.022084604891529646 -0.02123190519794639 -0.0008526996935832447 -0.015312271426033556 0.0 0.0
0.0 0.03426452802274353 0.02806470873362177 -0.02715344711452041 -0.0009112616191013286 -0.018242581526175885 0.0 0.0
0.0 0.042228356212936455 0.03465181094943047 -0.03368649166942521 -0.0009653192800052732 -0.021147770592125224 0.0 0.0
0.0 0.05074619232141454 0.04185026327953036 -0.0408385040601965 -0.0010117592193338203 -0.02385605473319867 0.0 0.0
0.0 0.06001335577257512 0.04957180631964298 -0.048517147150385985 -0.0010546591692569985 -0.026025368895128968 0.0 0.0
0.0 0.06945004389952031 0.057747071475261744 -0.05663603348384943 -0.001111037991412255 -0.027304759192596846 0.0 0.0
0.0 0.07913226282012628 0.06633755307460758 -0.06518052783324854 -0.001157025241358975 -0.027007576168895573 0.0 0.0
0.0 0.0888836058438621 0.0748981381639244 -0.07375787065392352 -0.0011402675100009056 -0.02283008053170503 0.0 0.0
0.0 0.09708950105805206 0.0802457199212906 -0.08017882012706774 -6.689979422293889e-05 2.2817685241260932e-14 0.0 0.0
0.0 0.08888360584385403 0.07489813816391185 -0.07375787065391023 -0.001140267510001564 0.02283008053176131 0.0 0.0
0.0 0.0791322628201045 0.06633755307458336 -0.06518052783322442 -0.0011570252413589356 0.027007576168952635 0.0 0.0
0.0 0.0694500438994886 0.05774707147523171 -0.05663603348381968 -0.001111037991412014 0.027304759192630725 0.0 0.0
0.0 0.060013355772539544 0.04957180631961279 -0.0485171471503568 -0.0010546591692559666 0.026025368895131788 0.0 0.0
0.0 0.05074619232136831 0.041850263279492185 -0.040838504060157835 -0.0010117592193344283 0.0238560547331826 0.0 0.0
0.0 0.04222835621289717 0.03465181094939683 -0.0336864916693921 -0.0009653192800046868 0.021147770592112196 0.0 0.0
0.0 0.0342645280227082 0.028064708733591685 -0.027153447114490664 -0.000911261619101039 0.018242581526165397 0.0 0.0
0.0 0.027086220917027188 0.02208460489150016 -0.021231905197917563 -0.0008526996935825873 0.015312271426020409 0.0 0.0
0.0 0.02050250082469418 0.016662141059943687 -0.015871823436728775 -0.0007903176232149095 0.01236114692858066 0.0 0.0
0.0 0.014607494564835049 0.011768124622721044 -0.011041561283697114 -0.0007265633390239122 0.00935165715514671 0.0 0.0
0.0 0.009563513113784351 0.007470681440584295 -0.006820404179640663 -0.0006502772609436291 0.006353339068556239 0.0 0.0
0.0 0.005010223065879519 0.003999587623648537 -0.0034785536461031073 -0.0005210339775454325 0.003689979376035625 0.0 0.0
0.0 0.001994199219274219 0.0016005466147613642 -0.0012991704843413675 -0.0003013761304199968 0.0016803375982289983 0.0 0.0
0.0 0.000464575768786606 0.0003469468590391804 -0.0002625236915886428 -8.442316745053739e-05 0.0004379464356823224 0.0 0.0
0.0 -1.2780419423885245e-05 -6.723746676346117e-06 7.123907683517893e-06 -4.001610071717129e-07 -2.014072012087712e-05 0.0 0.0
0.0 -6.820252194465956e-06 -4.66362135419233e-06 3.6976863271904535e-06 9.65935027001859e-07 -1.5620571255462692e-05 0.0 0.0
0.0 -6.86231783036294e-07 3.694196977261842e-08 -2.8710226888208072e-08 -8.231742884410239e-09 2.379029434915991e-07 0.0 0.0
0.0 7.661518010224459e-07 4.375573201004388e-08 -4.4241287012875875e-08 4.855550028324311e-10 8.717141691149816e-07 0.0 0.0
0.0 0.0002902260927356811 0.0001405650902507284 -5.332084733412422e-05 -8.724424291660437e-05 0.0006702647791244276 0.0 0.0
0.0 0.00253272600613389 0.0014260979045859188 -0.002044999998329509 0.0006189020937435906 0.001210707423781707 0.0 0.0
0.0 0.0013058754043548835 0.0007811952751129791 -0.0011349765263567345 0.000353781251243755 -0.0008042369111395812 0.0 0.0
0.0 9.643752740282799e-05 3.2140884418158176e-05 1.0910653656628003e-05 -4.305153807478587e-05 -0.0002694899831015911 0.0 0.0
0.0 1.9626867563950643e-06 2.5646010890063875e-10 9.72020773337122e-09 -9.976667842270943e-09 5.51656786347537e-07 0.0 0.0
0.0 1.132626799466788e-06 -1.135757682705097e-07 7.960923352873616e-08 3.3966534741773353e-08 1.4139555112602032e-06 0.0 0.0
0.0 -7.249220984426353e-06 -2.3329859595782808e-06 1.8471765378315157e-06 4.858094217467654e-07 1.2091962034276486e-05 0.0 0.0
0.0 -2.2228727949816482e-05 -9.456264486555226e-06 8.01448627559893e-06 1.4417782109563257e-06 2.116154613265097e-05 0.0 0.0
0.0 0.0001504347797595087 6.910536437451309e-05 -5.162381309499635e-05 -1.7481551279517056e-05 -0.00017970554106199631 0.0 0.0
0.0 0.0009724225983830664 0.0006077122269250164 -0.00048440666806453083 -0.00012330555886048546 -0.0010326941096246297 0.0 0.0
0.0 0.0027354709985793527 0.001972976771381981 -0.0016629637601026771 -0.00031001301127930197 -0.002606109587397216 0.0 0.0
0.0 0.005654304743001936 0.0041686876030301925 -0.0037005917452715927 -0.000468095857758601 -0.004696891754322413 0.0 0.0
0.0 0.009131109173356118 0.006992464202881953 -0.0064230977182061135 -0.0005693664846758437 -0.007171575198475267 0.0 0.0
0.0 0.013272350673527639 0.010233262232574921 -0.00959414431019771 -0.0006391179223772025 -0.009738937829235706 0.0 0.0
0.0 0.01777598941018348 0.01381822974890323 -0.013118059559742113 -0.0007001701891611121 -0.012316609422589128 0.0 0.0
0.0 0.022696596657472968 0.017775053136243352 -0.017022576133722222 -0.0007524770025211428 -0.014873205369877737 0.0 0.0
0.0 0.028179805817661017 0.02217899327653347 -0.021378027926023408 -0.0008009653505100519 -0.017399661603074983 0.0 0.0
0.0 0.034288252769009944 0.027106742558484914 -0.026260131964010534 -0.000846610594474371 -0.01982977198023129 0.0 0.0
0.0 0.040939649242406305 0.03257540066813552 -0.03168528510132541 -0.0008901155668101099 -0.021887305238193332 0.0 0.0
0.0 0.047916076457739425 0.03860506306915258 -0.03765802274577825 -0.0009470403233743866 -0.02315170499013842 0.0 0.0
0.0 0.05581356429836245 0.04548539594059916 -0.04445144678400448 -0.0010339491565946742 -0.023394321777141625 0.0 0.0
0.0 0.06512123648026687 0.05346484163296515 -0.05239259845329537 -0.0010722431796697648 -0.02148347947057465 0.0 0.0
0.0 0.07449984977833854 0.05925762428766484 -0.05950548386978849 0.00024785958212358416 2.0479277995644196e-14 0.0 0.0
0.0 0.06512123648026671 0.053464841632958275 -0.0523925984532877 -0.0010722431796705615 0.02148347947062433 0.0 0.0
0.0 0.05581356429834962 0.045485395940582755 -0.04445144678398782 -0.0010339491565948954 0.02339432177719291 0.0 0.0
0.0 0.04791607645771676 0.038605063069131695 -0.03765802274575748 -0.0009470403233742071 0.02315170499016559 0.0 0.0
0.0 0.04093964924237789 0.032575400668113035 -0.0316852851013037 -0.0008901155668093171 0.021887305238190113 0.0 0.0
0.0 0.034288252768978976 0.027106742558460267 -0.0262601319639858 -0.0008466105944744434 0.019829771980215044 0.0 0.0
0.0 0.028179805817631222 0.022178993276509056 -0.021378027925999004 -0.0008009653505100566 0.01739966160306214 0.0 0.0
0.0 0.022696596657451 0.017775053136224822 -0.017022576133704295 -0.0007524770025205405 0.014873205369870836 0.0 0.0
0.0 0.017775989410161088 0.013818229748885254 -0.01311805955972464 -0.0007001701891606064 0.01231660942257888 0.0 0.0
0.0 0.013272350673504404 0.010233262232558016 -0.009594144310180866 -0.0006391179223771408 0.009738937829219176 0.0 0.0
0.0 0.00913110917333498 0.006992464202866269 -0.006423097718191028 -0.0005693664846752322 0.007171575198456931 0.0 0.0
0.0 0.005654304742985731 0.0041686876030185395 -0.003700591745260658 -0.00046809585775788536 0.0046968917543090075 0.0 0.0
0.0 0.002735470998568303 0.0019729767713740605 -0.0016629637600954436 -0.00031001301127861567 0.0026061095873885 0.0 0.0
0.0 0.0009724225983763842 0.0006077122269206926 -0.0004844066680609037 -0.00012330555885978913 0.0010326941096183038 0.0 0.0
0.0 0.0001504347797561192 6.91053643735271e-05 -5.1623813094237376e-05 -1.7481551279289658e-05 0.00017970554105967127 0.0 0.0
0.0 -2.222872795009273e-05 -9.456264486118057e-06 8.014486275269044e-06 1.4417782108489746e-06 -2.1161546131077152e-05 0.0 0.0
0.0 -7.249220984174979e-06 -2.332985959440759e-06 1.8471765377289892e-06 4.858094217117805e-07 -1.2091962033061707e-05 0.0 0.0
0.0 1.132626799136108e-06 -1.135757682948987e-07 7.960923355153294e-08 3.396653474336662e-08 -1.4139555110819814e-06 0.0 0.0
0.0 1.962686756233963e-06 2.564601223648811e-10 9.720207714132917e-09 -9.9766678364974e-09 -5.516567858983488e-07 0.0 0.0
0.0 9.643752740023977e-05 3.214088441762147e-05 1.0910653656913094e-05 -4.305153807453416e-05 0.00026948998309913057 0.0 0.0
0.0 0.0013058754043484629 0.0007811952751093516 -0.0011349765263515023 0.0003537812512421501 0.0008042369111368585 0.0 0.0
0.0 0.0006208880470839552 0.00032880440365310403 -0.0004819721633377724 0.00015316775968466877 -0.0004180708237078089 0.0 0.0
0.0 -1.7097222677907755e-05 -1.566907611385878e-05 3.3553698121163765e-05 -1.788462200730507e-05 -3.004267107151292e-05 0.0 0.0
0.0 2.7107908567912747e-06 3.565392118858356e-08 -8.576844039179046e-08 5.0114519203207404e-08 -2.6502623082585385e-06 0.0 0.0
0.0 1.1534507811470002e-06 -8.7729366664303e-08 7.83402697964882e-08 9.38909686781292e-09 -1.5593372528824676e-06 0.0 0.0
0.0 -4.948690889763136e-06 -9.778156242357417e-07 8.139684107829799e-07 1.638472134527703e-07 8.68826408795003e-06 0.0 0.0
0.0 -6.2829244197439314e-06 -4.070359318106058e-06 3.4716056360415512e-06 5.987536820644707e-07 1.4586908721947676e-05 0.0 0.0
0.0 6.158414447873584e-05 2.6315226856978244e-06 -1.6779597989886504e-06 -9.535628867091108e-07 -8.509357684228491e-05 0.0 0.0
0.0 0.00029628503659833886 7.426798905534457e-05 -6.246882201910572e-05 -1.1799167036239e-05 -0.00044985446566325326 0.0 0.0
0.0 0.0009616620355639184 0.0004194567310858565 -0.00036875880987472 -5.069792121113584e-05 -0.0013351944444778105 0.0 0.0
0.0 0.0023017587058012166 0.001276542498379373 -0.001145063938398165 -0.0001314785599812086 -0.002758944966331586 0.0 0.0
0.0 0.0043510913633484916 0.0025922451447816163 -0.0023656383819197634 -0.00022660676286185037 -0.00449667506540877 0.0 0.0
0.0 0.006490393574606451 0.004161902540742314 -0.0038523286660558896 -0.00030957387468642946 -0.006428128170288859 0.0 0.0
0.0 0.009012670549461907 0.00590645992855033 -0.005526672787169881 -0.00037978714138044395 -0.008469357105295157 0.0 0.0
0.0 0.01183332990546964 0.007852085795110937 -0.007413679524558474 -0.0004384062705524629 -0.010578379366883169 0.0 0.0
0.0 0.014972034254834937 0.010074554128768396 -0.00958132956929435 -0.000493224559474053 -0.012746364832759226 0.0 0.0
0.0 0.018575983959116426 0.012697661663407927 -0.012147940689249464 -0.0005497209741584692 -0.014948416898407922 0.0 0.0
0.0 0.02281114545860314 0.015874059518328678 -0.0152639650113148 -0.0006100945070138721 -0.01700807907725949 0.0 0.0
0.0 0.0277114958691087 0.019733908800444018 -0.019062270676086367 -0.0006716381243576505 -0.018409720332453056 0.0 0.0
0.0 0.03334358284605285 0.024585765337988487 -0.023822348652707794 -0.0007634166852807074 -0.018646490137850177 0.0 0.0
0.0 0.040937839845899146 0.0313954643515613 -0.030467607481012026 -0.0009278568705492459 -0.01823358184165585 0.0 0.0
0.0 0.05299094078703175 0.03755516343553209 -0.03817042349687556 0.0006152600613434931 1.512071717835184e-14 0.0 0.0
0.0 0.04093783984590678 0.0313954643515597 -0.030467607481009913 -0.0009278568705498132 0.01823358184169837 0.0 0.0
0.0 0.033343582846047895 0.02458576533798029 -0.023822348652699395 -0.0007634166852809256 0.018646490137889223 0.0 0.0
0.0 0.02771149586909279 0.01973390880043116 -0.019062270676073606 -0.0006716381243575439 0.01840972033246976 0.0 0.0
0.0 0.0228111454585814 0.015874059518315393 -0.01526396501130162 -0.0006100945070138023 0.01700807907725141 0.0 0.0
0.0 0.01857598395909758 0.012697661663395216 -0.012147940689236783 -0.0005497209741584261 0.014948416898392184 0.0 0.0
0.0 0.014972034254820922 0.010074554128758208 -0.009581329569283653 -0.0004932245594745607 0.012746364832749645 0.0 0.0
0.0 0.011833329905455733 0.007852085795101903 -0.007413679524549654 -0.00043840627055225276 0.010578379366874491 0.0 0.0
0.0 0.00901267054944954 0.005906459928542629 -0.005526672787162718 -0.00037978714137991697 0.00846935710528657 0.0 0.0
0.0 0.006490393574594707 0.00416190254073583 -0.0038523286660496945 -0.0003095738746861339 0.006428128170276258 0.0 0.0
0.0 0.004351091363336523 0.00259224514477519 -0.002365638381913259 -0.0002266067628619314 0.004496675065395112 0.0 0.0
0.0 0.0023017587057925816 0.001276542498374581 -0.0011450639383935163 -0.00013147855998106524 0.0027589449663230382 0.0 0.0
0.0 0.0009616620355594856 0.0004194567310833861 -0.0003687588098726085 -5.069792121077681e-05 0.0013351944444723821 0.0 0.0
0.0 0.00029628503659591144 7.426798905463787e-05 -6.246882201847386e-05 -1.1799167036164077e-05 0.0004498544656601682 0.0 0.0
0.0 6.158414447710224e-05 2.631522685621449e-06 -1.6779597989254141e-06 -9.535628866960283e-07 8.509357684115845e-05 0.0 0.0
0.0 -6.2829244199561174e-06 -4.070359317821573e-06 3.471605635819186e-06 5.987536820023897e-07 -1.45869087201201e-05 0.0 0.0
0.0 -4.9486908897614666e-06 -9.778156242092797e-07 8.1396841076653e-07 1.6384721344274603e-07 -8.688264087149615e-06 0.0 0.0
0.0 1.153450781149915e-06 -8.772936668529691e-08 7.834026981765734e-08 9.389096867640281e-09 1.5593372536841186e-06 0.0 0.0
0.0 2.7107908567568394e-06 3.565392119724254e-08 -8.576844041302625e-08 5.0114519215780205e-08 2.6502623091254657e-06 0.0 0.0
0.0 -1.7097222679018385e-05 -1.5669076113887283e-05 3.355369812107839e-05 -1.7884622007191023e-05 3.0042671070663375e-05 0.0 0.0
0.0 0.000620888047079727 0.0003288044036511023 -0.0004819721633348652 0.00015316775968376225 0.0004180708237056484 0.0 0.0
0.0 0.00014022381213006508 8.038185706639483e-05 -0.00012000591884570452 3.962406177930959e-05 -0.00012844738173887284 0.0 0.0
0.0 -2.214676008467248e-05 -1.2549727710997288e-05 1.779683931407096e-05 -5.2471116030736385e-06 2.2757124793385572e-05 0.0 0.0
0.0 3.088227218615246e-06 1.550786564499609e-07 -1.1499821390959618e-07 -4.008044254036859e-08 3.5274356914438943e-06 0.0 0.0
0.0 2.63490033960018e-06 -2.243931352881385e-07 1.8367497228211797e-07 4.071816300602307e-08 -2.836355023936936e-06 0.0 0.0
0.0 -6.403114108636652e-07 -3.236481390625888e-07 3.170340035735798e-07 6.614135489006112e-09 2.3970187331579142e-06 0.0 0.0
0.0 2.8429315484738006e-06 -1.1329776606523404e-06 1.1723063407384955e-06 -3.93286800861546e-08 2.803734475910907e-06 0.0 0.0
0.0 6.888205773053309e-05 -1.788418516202046e-06 1.7871181542307136e-06 1.3003619713186518e-09 -9.560825522510697e-05 0.0 0.0
0.0 0.00019074587473611176 -1.3816232699700489e-06 1.3482956315668605e-06 3.3327638403248725e-08 -0.000328473886101188 0.0 0.0
0.0 0.00043838035733905243 -2.7425712429959213e-07 2.485853534409367e-07 2.5671770858619835e-08 -0.0006912455525045392 0.0 0.0
0.0 0.0007292584789467288 3.6599895916305776e-08 -1.4789861606306833e-08 -2.1810034310137857e-08 -0.001396542759517309 0.0 0.0
0.0 0.001357824520033296 3.807743425736159e-07 -4.5003428691966856e-07 6.925994434634402e-08 -0.0025816642983195197 0.0 0.0
0.0 0.0022504338998104627 -7.505888903563864e-06 9.787115629482341e-06 -2.2812267259187747e-06 -0.004309779487570354 0.0 0.0
0.0 0.003480973984090527 -2.3197191266313146e-05 2.7035685557033195e-05 -3.838494290718747e-06 -0.006198867017420146 0.0 0.0
0.0 0.004891377746022099 -3.356600594544125e-05 3.534459369336013e-05 -1.7785877479185538e-06 -0.008195368570438124 0.0 0.0
0.0 0.0064583986789264036 2.882285274423261e-05 -3.927694459259835e-05 1.0454091848366171e-05 -0.010307903946499324 0.0 0.0
0.0 0.008142248950027757 0.00031922156561918903 -0.00035647982964727724 3.725826402808561e-05 -0.012532539437709845 0.0 0.0
0.0 0.009986343037105216 0.0011005848423179775 -0.0011847858089104166 8.42009665924423e-05 -0.014798196920173215 0.0 0.0
0.0 0.011918858247160893 0.002610550009815569 -0.002812150230782435 0.00020160022096685988 -0.016900046351926257 0.0 0.0
0.0 0.014573789905039337 0.004545724470593725 -0.0049332573732157915 0.00038753290262207425 -0.018424928916155645 0.0 0.0
0.0 0.021103077528877655 0.009029225870083287 -0.008775591780418727 -0.00025363408966455934 -0.018961691457050428 0.0 0.0
0.0 0.03754825080635404 0.015902026950900598 -0.017101177540522896 0.0011991505896222958 1.2346026978526936e-14 0.0 0.0
0.0 0.021103077528885555 0.00902922587008209 -0.008775591780417806 -0.00025363408966427 0.018961691457078662 0.0 0.0
0.0 0.014573789905034686 0.004545724470590796 -0.00493325737321281 0.00038753290262200926 0.018424928916165824 0.0 0.0
0.0 0.011918858247143635 0.0026105500098143487 -0.0028121502307837058 0.0002016002209693571 0.016900046351921754 0.0 0.0
0.0 0.009986343037094739 0.0011005848423186128 -0.0011847858089111167 8.420096659250516e-05 0.014798196920161667 0.0 0.0
0.0 0.008142248950017816 0.0003192215656194439 -0.000356479829647004 3.7258264027559176e-05 0.012532539437695708 0.0 0.0
0.0 0.006458398678919551 2.882285274642118e-05 -3.927694459479147e-05 1.0454091848370454e-05 0.010307903946490882 0.0 0.0
0.0 0.00489137774601211 -3.3566005941765373e-05 3.5344593689407944e-05 -1.778587747642299e-06 0.008195368570426504 0.0 0.0
0.0 0.003480973984080465 -2.319719126411341e-05 2.7035685554801202e-05 -3.838494290687034e-06 0.006198867017405489 0.0 0.0
0.0 0.002250433899800216 -7.505888901353718e-06 9.787115627063974e-06 -2.2812267257117327e-06 0.004309779487556823 0.0 0.0
0.0 0.0013578245200276937 3.8077434345984277e-07 -4.500342879826746e-07 6.925994452313674e-08 0.0025816642983109836 0.0 0.0
0.0 0.0007292584789440201 3.659989564457761e-08 -1.4789861369591617e-08 -2.1810034274870793e-08 0.0013965427595150513 0.0 0.0
0.0 0.00043838035733679583 -2.742571243795995e-07 2.485853535031242e-07 2.5671770876305882e-08 0.0006912455525006473 0.0 0.0
0.0 0.00019074587473515663 -1.3816232699410892e-06 1.3482956315736202e-06 3.3327638367460524e-08 0.00032847388609949285 0.0 0.0
0.0 6.888205772943314e-05 -1.7884185161870125e-06 1.7871181542261148e-06 1.3003619609271457e-09 9.560825522489394e-05 0.0 0.0
0.0 2.842931547460024e-06 -1.132977660648773e-06 1.1723063407341992e-06 -3.932868008543444e-08 -2.8037344757121817e-06 0.0 0.0
0.0 -6.403114114942772e-07 -3.236481391003615e-07 3.170340036101058e-07 6.614135490258788e-09 -2.3970187322728266e-06 0.0 0.0
0.0 2.6349003396871703e-06 -2.24393135351029e-07 1.836749723374504e-07 4.0718163013578464e-08 2.8363550248404146e-06 0.0 0.0
0.0 3.0882272178946915e-06 1.5507865644351376e-07 -1.1499821391837954e-07 -4.008044252512539e-08 -3.527435690670521e-06 0.0 0.0
0.0 -2.2146760084786284e-05 -1.2549727710633223e-05 1.7796839313639403e-05 -5.247111603006207e-06 -2.275712479245354e-05 0.0 0.0
0.0 0.0001402238121278341 8.038185706567965e-05 -0.00012000591884469358 3.962406177901415e-05 0.00012844738173771575 0.0 0.0
0.0 2.956104712977218e-06 2.0324251811739468e-07 -7.153582647629341e-07 5.121157466454982e-07 4.7249231372761347e-07 0.0 0.0
0.0 -4.868447903115552e-07 -9.175871650610074e-08 1.8879944948658068e-07 -9.704073298047934e-08 1.4449959225296262e-06 0.0 0.0
0.0 8.986227493133056e-07 1.196175126904982e-07 -1.7084583556491584e-07 5.122832287441736e-08 -1.6455851126732971e-06 0.0 0.0
0.0 4.706568544485485e-06 -2.4702326768531153e-07 1.8846119966733397e-07 5.856206801797787e-08 -3.6679671684471514e-06 0.0 0.0
0.0 2.4219374467626356e-06 -4.6491581216748924e-07 4.414078496916151e-07 2.3507962475874176e-08 -4.09788056952681e-06 0.0 0.0
0.0 3.6079679987710018e-06 -6.326826990982682e-07 8.323954716521521e-07 -1.9971277255383983e-07 -1.1252048482349022e-05 0.0 0.0
0.0 9.044077535839798e-05 -7.718034384897285e-06 6.4627104620297385e-06 1.2553239228674818e-06 -9.967229414578038e-05 0.0 0.0
0.0 0.0003113763231311521 -8.006747237756922e-05 6.76089728305924e-05 1.245849954697678e-05 -0.00046429224957318877 0.0 0.0
0.0 0.0009660614161029599 -0.0004214166825011042 0.00037039370646388756 5.1022976037216646e-05 -0.0013426938309243981 0.0 0.0
0.0 0.0022999583077170094 -0.0012756503647225485 0.001144218748716095 0.00013143161600645325 -0.00275882570109678 0.0 0.0
0.0 0.004365194877743431 -0.002594868117817912 0.002367985413128576 0.00022688270468933575 -0.004494524803187642 0.0 0.0
0.0 0.006530246181841509 -0.004187837266977036 0.0038749409225175445 0.00031289634445948996 -0.00643421691871557 0.0 0.0
0.0 0.009082152672596227 -0.005969421266699225 0.005585162624641937 0.0003842586420572825 -0.008474329632988484 0.0 0.0
0.0 0.011900853571002025 -0.007922587475905457 0.007486658559580756 0.0004359289163247045 -0.0105705134338638 0.0 0.0
0.0 0.014813352537564144 -0.009966941942708113 0.009502542560055428 0.0004643993826526791 -0.012740841178973155 0.0 0.0
0.0 0.01766146204332537 -0.011887711079184531 0.011424718408349323 0.0004629926708351959 -0.01504270799320584 0.0 0.0
0.0 0.020040848580606944 -0.013316291968266624 0.012892344084868869 0.0004239478833977579 -0.01750860886972527 0.0 0.0
0.0 0.021731962914466243 -0.013782427912965273 0.013446583666133162 0.000335844246832113 -0.02021675304869176 0.0 0.0
0.0 0.021816338736025877 -0.012741155774699357 0.012606342375246122 0.00013481339945323347 -0.023121868763345717 0.0 0.0
0.0 0.01777284864377573 -0.009234752597785926 0.009640724635897938 -0.00040597203811201425 -0.025106353915868913 0.0 0.0
0.0 0.03625175714696673 -0.00523822110191921 0.0026752104389271944 0.002563010662992015 1.8875526142103638e-14 0.0 0.0
0.0 0.017772848643781206 -0.009234752597785223 0.00964072463589721 -0.000405972038111995 0.025106353915886122 0.0 0.0
0.0 0.02181633873602321 -0.01274115577469533 0.012606342375241787 0.0001348133994535383 0.023121868763362457 0.0 0.0
0.0 0.021731962914450682 -0.013782427912953192 0.013446583666123002 0.0003358442468301877 0.020216753048692797 0.0 0.0
0.0 0.020040848580587044 -0.013316291968252559 0.012892344084854492 0.0004239478833980851 0.017508608869714715 0.0 0.0
0.0 0.01766146204330433 -0.011887711079169541 0.011424718408334644 0.0004629926708348965 0.01504270799318982 0.0 0.0
0.0 0.014813352537547932 -0.009966941942695255 0.009502542560043155 0.00046439938265209566 0.012740841178960348 0.0 0.0
0.0 0.011900853570983281 -0.00792258747589067 0.007486658559566618 0.0004359289163240521 0.010570513433852154 0.0 0.0
0.0 0.009082152672574326 -0.005969421266683657 0.005585162624626591 0.00038425864205706827 0.008474329632972403 0.0 0.0
0.0 0.006530246181821403 -0.004187837266962845 0.0038749409225043653 0.0003128963444584723 0.0064342169186989255 0.0 0.0
0.0 0.004365194877724077 -0.0025948681178057805 0.0023679854131168506 0.00022688270468892963 0.004494524803170106 0.0 0.0
0.0 0.0022999583077062216 -0.0012756503647156584 0.0011442187487098415 0.0001314316160058177 0.002758825701087768 0.0 0.0
0.0 0.000966061416096264 -0.0004214166824970534 0.0003703937064604012 5.102297603665249e-05 0.0013426938309173296 0.0 0.0
0.0 0.0003113763231286605 -8.006747237687068e-05 6.76089728300596e-05 1.2458499546811128e-05 0.0004642922495703786 0.0 0.0
0.0 9.044077535703795e-05 -7.718034384966177e-06 6.462710462065577e-06 1.2553239229006152e-06 9.967229414563067e-05 0.0 0.0
0.0 3.60796799841518e-06 -6.32682699347842e-07 8.323954718457366e-07 -1.997127724978989e-07 1.1252048483937107e-05 0.0 0.0
0.0 2.421937446278758e-06 -4.649158122713623e-07 4.414078497780903e-07 2.3507962493261718e-08 4.097880570365147e-06 0.0 0.0
0.0 4.7065685440271315e-06 -2.470232677994205e-07 1.8846119976231535e-07 5.8562068037104014e-08 3.6679671694561786e-06 0.0 0.0
0.0 8.986227488304272e-07 1.1961751267980674e-07 -1.7084583556368762e-07 5.122832288387623e-08 1.6455851131553959e-06 0.0 0.0
0.0 -4.868447904007134e-07 -9.175871659221763e-08 1.88799449582528e-07 -9.704073299031422e-08 -1.4449959225593824e-06 0.0 0.0
0.0 2.9561047116034925e-06 2.0324251854067861e-07 -7.153582653922825e-07 5.121157468516298e-07 -4.724923128245288e-07 0.0 0.0
0.0 2.034611343575935e-06 -1.1794173393863115e-07 1.8495244463876623e-07 -6.701071070005743e-08 2.736999519842078e-07 0.0 0.0
0.0 7.10300858306516e-07 2.983328760655102e-08 -1.593420171058795e-08 -1.389908589597809e-08 3.3462271957584675e-07 0.0 0.0
0.0 -9.096468603576041e-07 4.066853112479755e-07 -3.395649634837553e-07 -6.712034776422928e-08 2.673055752437273e-06 0.0 0.0
0.0 2.439480216376578e-06 -5.532563615543594e-07 4.2903627783449223e-07 1.2422008371985552e-07 -5.240966454210929e-06 0.0 0.0
0.0 5.4311511081786925e-06 1.7829378205649865e-06 -1.4379909465658968e-06 -3.4494687399902434e-07 5.757055454704194e-06 0.0 0.0
0.0 2.4671859104506103e-05 1.0174675155227498e-06 -6.823234179397461e-07 -3.351440975830299e-07 -7.344938289378902e-06 0.0 0.0
0.0 0.00017123662359306996 -9.152671727238299e-05 7.064088694823641e-05 2.0885830324146605e-05 -0.0002461884486981334 0.0 0.0
0.0 0.000993219403403406 -0.0006169430061927805 0.0004926181920388959 0.00012432481415388424 -0.0010563759561881395 0.0 0.0
0.0 0.002736167654037889 -0.0019727214046514506 0.0016625275947384384 0.00031019380991301133 -0.002610752889934682 0.0 0.0
0.0 0.005651536991376027 -0.00416749161268113 0.0036993417242708725 0.00046814988841025623 -0.0046943357915598906 0.0 0.0
0.0 0.009138067804040882 -0.006998741335978084 0.006429142427276676 0.0005695989087014068 -0.007172836821603645 0.0 0.0
0.0 0.013301035580283435 -0.010257949120349786 0.009618001992166964 0.0006399471281828306 -0.00973959342536944 0.0 0.0
0.0 0.017830706871905157 -0.01387258359130596 0.013171793385113364 0.0007007902061925845 -0.012283120399387032 0.0 0.0
0.0 0.022733879072115167 -0.01783100560400899 0.017082738706644948 0.0007482668973640201 -0.014776077611647597 0.0 0.0
0.0 0.02800716411190745 -0.02206103666701042 0.021280973729987513 0.0007800629370228948 -0.017314980084224513 0.0 0.0
0.0 0.03340389732047879 -0.026325265222000727 0.02553466072838226 0.0007906044936184495 -0.020107332881773028 0.0 0.0
0.0 0.03841054852310915 -0.030187932532566058 0.02940669002484924 0.0007812425077168383 -0.023372221578650442 0.0 0.0
0.0 0.04221449137029969 -0.03304697529211921 0.032291107731382995 0.0007558675607362266 -0.027214044439869814 0.0 0.0
0.0 0.04409464002333681 -0.03383190410994292 0.03317163457257136 0.0006602695373715318 -0.03090440661085594 0.0 0.0
0.0 0.041087698506875055 -0.030252807781960187 0.029794242232135826 0.0004585655498243369 -0.03179551361649581 0.0 0.0
0.0 0.044475461995595024 -0.024527101106857775 0.021182597289555447 0.003344503817302306 1.8688176006698143e-14 0.0 0.0
0.0 0.041087698506884596 -0.030252807781958376 0.029794242232134796 0.00045856554982359694 0.03179551361653871 0.0 0.0
0.0 0.044094640023335616 -0.03383190410993442 0.033171634572563224 0.0006602695373712029 0.030904406610898306 0.0 0.0
0.0 0.042214491370277725 -0.033046975292099455 0.03229110773136369 0.0007558675607357681 0.027214044439883726 0.0 0.0
0.0 0.03841054852307536 -0.030187932532538764 0.02940669002482184 0.0007812425077169144 0.02337222157864223 0.0 0.0
0.0 0.03340389732044599 -0.026325265221973964 0.025534660728356 0.0007906044936179458 0.020107332881756146 0.0 0.0
0.0 0.028007164111876263 -0.022061036666985265 0.02128097372996293 0.0007800629370223549 0.01731498008420818 0.0 0.0
0.0 0.022733879072086197 -0.0178310056039842 0.01708273870662058 0.0007482668973635905 0.014776077611633569 0.0 0.0
0.0 0.01783070687187085 -0.013872583591278437 0.013171793385086106 0.0007007902061923226 0.012283120399369829 0.0 0.0
0.0 0.013301035580250677 -0.010257949120324588 0.0096180019921424 0.0006399471281821871 0.009739593425347502 0.0 0.0
0.0 0.009138067804010558 -0.006998741335955022 0.00642914242725391 0.0005695989087011119 0.0071728368215799535 0.0 0.0
0.0 0.005651536991353308 -0.00416749161266421 0.0036993417242545752 0.00046814988840963905 0.004694335791543095 0.0 0.0
0.0 0.0027361676540238133 -0.0019727214046408857 0.0016625275947291492 0.0003101938099117367 0.002610752889924406 0.0 0.0
0.0 0.0009932194033976127 -0.0006169430061888577 0.0004926181920358295 0.00012432481415302726 0.0010563759561830713 0.0 0.0
0.0 0.00017123662358939197 -9.152671727117018e-05 7.064088694724215e-05 2.088583032392812e-05 0.0002461884486951187 0.0 0.0
0.0 2.4671859103782012e-05 1.01746751526365e-06 -6.823234177398883e-07 -3.351440975238498e-07 7.344938290069857e-06 0.0 0.0
0.0 5.431151107051641e-06 1.78293782048033e-06 -1.4379909464929334e-06 -3.449468739873918e-07 -5.7570554542857295e-06 0.0 0.0
0.0 2.439480216119548e-06 -5.532563616862337e-07 4.290362779437347e-07 1.2422008374250434e-07 5.24096645506085e-06 0.0 0.0
0.0 -9.096468610269631e-07 4.0668531123638125e-07 -3.39564963485085e-07 -6.712034775129134e-08 -2.67305575206197e-06 0.0 0.0
0.0 7.103008579777273e-07 2.98332876167054e-08 -1.593420171650037e-08 -1.3899085900202352e-08 -3.346227197323932e-07 0.0 0.0
0.0 2.034611343773175e-06 -1.1794173394994551e-07 1.849524446547311e-07 -6.701071070482646e-08 -2.7369995201493404e-07 0.0 0.0
0.0 0.0 0.0 0.0 0.0 0.0 0.0 0.0
0.0 1.2793262250216665e-07 8.703308849541075e-11 4.028570319636627e-09 -4.115603408136257e-09 2.4778079492361678e-08 0.0 0.0
0.0 2.351517811016695e-07 3.762523391910276e-07 -2.9829673310982023e-07 -7.79556060812003e-08 2.069170482356087e-06 0.0 0.0
0.0 1.1800028045438692e-06 1.1613199767460823e-06 -9.79131232125269e-07 -1.8218874462081296e-07 2.5953216917295545e-06 0.0 0.0
0.0 3.3139433475034624e-06 1.9840615735695357e-06 -1.5397578432201266e-06 -4.443037303494533e-07 2.162837104156246e-08 0.0 0.0
0.0 3.623631687151104e-05 -3.0438940581016918e-05 2.3073738447948664e-05 7.365202133068322e-06 -6.829286939232578e-05 0.0 0.0
0.0 0.0005482761259477016 -0.00037090392424295334 0.0002844217596389646 8.648216460398837e-05 -0.00048669957031701827 0.0 0.0
0.0 0.00201112770929695 -0.0016042284635002307 0.001302777401988082 0.0003014510615121476 -0.0016981860534682311 0.0 0.0
0.0 0.005006145332066257 -0.003995956837150335 0.0034747583005137854 0.0005211985366365455 -0.0036878352510534233 0.0 0.0
0.0 0.009563481888348642 -0.007470819827779147 0.006820480609903907 0.0006503392178752506 -0.006350101567254462 0.0 0.0
0.0 0.014612762054104573 -0.011776218198611311 0.011049859866050057 0.0007263583325612467 -0.009354337608855196 0.0 0.0
0.0 0.020522851657147463 -0.016679936035812998 0.01588970344425012 0.0007902325915628784 -0.012351382994631779 0.0 0.0
0.0 0.027106563105348303 -0.022112544903396265 0.02125996209392921 0.0008525828094670701 -0.015232349517033046 0.0 0.0
0.0 0.03424245905838493 -0.0280785812438097 0.027170516099315978 0.000908065144493682 -0.01803097484283591 0.0 0.0
0.0 0.0420225662742095 -0.03452188279138988 0.03357273273635063 0.000949150055039286 -0.020929077388139976 0.0 0.0
0.0 0.050007647941379116 -0.0411992703193452 0.04023203269117749 0.0009672376281676537 -0.02428653176807989 0.0 0.0
0.0 0.05801084881374698 -0.047576476202246636 0.046617266948120385 0.0009592092541261929 -0.02854608510228902 0.0 0.0
0.0 0.06454344961881933 -0.052707202932402324 0.051799750953385994 0.0009074519790163429 -0.033651925300813866 0.0 0.0
0.0 0.06785456920608374 -0.054910061400161296 0.05411589270540924 0.0007941686947520123 -0.03821608819203333 0.0 0.0
0.0 0.06400943266344805 -0.050993928068060586 0.05048920078477068 0.0005047272832898814 -0.03954877505600027 0.0 0.0
0.0 0.06166800363892412 -0.0434097370007459 0.03934457639650216 0.0040651606042437765 2.1940782524154656e-14 0.0 0.0
0.0 0.06400943266345498 -0.05099392806805636 0.050489200784767124 0.0005047272832892451 0.03954877505605275 0.0 0.0
0.0 0.06785456920607569 -0.05491006140014655 0.05411589270539502 0.0007941686947514556 0.038216088192084635 0.0 0.0
0.0 0.06454344961878603 -0.05270720293237098 0.05179975095335512 0.0009074519790158555 0.033651925300836036 0.0 0.0
0.0 0.0580108488137035 -0.047576476202209936 0.046617266948083616 0.0009592092541263718 0.028546085102284468 0.0 0.0
0.0 0.05000764794133018 -0.04119927031930451 0.04023203269113672 0.0009672376281677687 0.024286531768061358 0.0 0.0
0.0 0.04202256627416306 -0.03452188279135122 0.033572732736312394 0.000949150055038825 0.020929077388120484 0.0 0.0
0.0 0.034242459058340856 -0.02807858124377216 0.027170516099279184 0.0009080651444929559 0.018030974842819444 0.0 0.0
0.0 0.027106563105300463 -0.022112544903356804 0.021259962093889764 0.0008525828094670376 0.015232349517013142 0.0 0.0
0.0 0.020522851657103724 -0.016679936035777703 0.015889703444215576 0.0007902325915621185 0.012351382994607859 0.0 0.0
0.0 0.014612762054065805 -0.011776218198580627 0.011049859866019423 0.0007263583325611975 0.009354337608829996 0.0 0.0
0.0 0.009563481888313925 -0.007470819827751897 0.006820480609877041 0.0006503392178748519 0.0063501015672312025 0.0 0.0
0.0 0.00500614533204579 -0.003995956837134324 0.0034747583004989657 0.0005211985366353573 0.0036878352510409376 0.0 0.0
0.0 0.0020111277092853207 -0.001604228463491364 0.0013027774019804886 0.00030145106151087533 0.001698186053459775 0.0 0.0
0.0 0.0005482761259415276 -0.0003709039242390656 0.00028442175963596045 8.648216460310529e-05 0.000486699570311967 0.0 0.0
0.0 3.623631687020245e-05 -3.043894058091298e-05 2.307373844788894e-05 7.3652021330239924e-06 6.829286939237923e-05 0.0 0.0
0.0 3.3139433475226307e-06 1.984061573094654e-06 -1.5397578428399007e-06 -4.44303730254749e-07 -2.162836972438324e-08 0.0 0.0
0.0 1.1800028038941528e-06 1.1613199765959324e-06 -9.791312320014657e-07 -1.8218874459446531e-07 -2.5953216908604356e-06 0.0 0.0
0.0 2.3515178059369604e-07 3.762523392257734e-07 -2.982967331391484e-07 -7.79556060866317e-08 -2.069170482528749e-06 0.0 0.0
0.0 1.2793262222365965e-07 8.703308583074716e-11 4.028570317766604e-09 -4.115603403594462e-09 -2.4778079435018216e-08 0.0 0.0
0.0 0.0 0.0 0.0 0.0 0.0 0.0 0.0
0.0 0.0 0.0 0.0 0.0 0.0 0.0 0.0
0.0 -1.2025212151614905e-07 -2.8111852206668733e-09 1.9303984439410896e-09 8.807867767261456e-10 -2.3879236813071873e-08 0.0 0.0
0.0 -5.6243889490700286e-08 2.5323571415711776e-07 -2.0106828153192978e-07 -5.216743262519041e-08 1.0665034219826767e-06 0.0 0.0
0.0 -2.742722290043386e-06 6.964818011831227e-07 -5.772304230649556e-07 -1.1925137811815631e-07 9.938182906518227e-07 0.0 0.0
0.0 2.5253236367698123e-06 5.079228466374214e-06 -4.34488255444045e-06 -7.343459119337579e-07 9.046019132780946e-06 0.0 0.0
0.0 0.00017684372567633748 -0.00011053034996220723 8.236976359660043e-05 2.816058636560681e-05 -0.00011846130512646781 0.0 0.0
0.0 0.0010722609910427078 -0.0008867179171163222 0.0006898823431376589 0.00019683557397866342 -0.0007672162428273995 0.0 0.0
0.0 0.003429348548807565 -0.0028822520855656605 0.0024132147221223752 0.0004690373634432849 -0.0021725529327620316 0.0 0.0
0.0 0.007872556075588576 -0.006304233853491547 0.005639384196839582 0.0006648496566519622 -0.004468240715122487 0.0 0.0
0.0 0.013140299007689673 -0.011036866244249707 0.010270736542558848 0.0007661297016908738 -0.007454369530334153 0.0 0.0
0.0 0.020136554037516314 -0.016757744365290813 0.015924311570299506 0.0008334327949913033 -0.010651697281420194 0.0 0.0
0.0 0.027924865168017253 -0.023278889731092958 0.022380402756629624 0.0008984869744633162 -0.013815094161808223 0.0 0.0
0.0 0.03651080462838873 -0.03052394535841569 0.029556906314286254 0.0009670390441294626 -0.01684850019570752 0.0 0.0
0.0 0.045929436593621475 -0.03849748504731979 0.03746477517651864 0.0010327098708011121 -0.01979495158273483 0.0 0.0
0.0 0.05610030078106541 -0.0471695564474653 0.04608428556880214 0.001085270878663165 -0.02284771013316977 0.0 0.0
0.0 0.06713666244862924 -0.05629802078878679 0.05518761243942957 0.0011104083493572313 -0.026488106371744702 0.0 0.0
0.0 0.07746679405380716 -0.06520637688624906 0.06411364654081483 0.0010927303454341516 -0.03126260660177975 0.0 0.0
0.0 0.08671238516756724 -0.07251499817969864 0.07150160157609381 0.0010133966036048375 -0.03705055436302582 0.0 0.0
0.0 0.09146344308874693 -0.07582703072677897 0.0749860949691895 0.0008409357575894747 -0.042374109668489035 0.0 0.0
0.0 0.08664381427306861 -0.07113397934424147 0.07062859139105107 0.0005053879531904436 -0.04430031972118653 0.0 0.0
0.0 0.08056391978209013 -0.06187921126968528 0.05719333201436269 0.004685879255322475 2.4652155317106406e-14 0.0 0.0
0.0 0.0866438142730695 -0.0711339793442331 0.07062859139104369 0.0005053879531893956 0.04430031972124015 0.0 0.0
0.0 0.09146344308872717 -0.07582703072675519 0.0749860949691652 0.0008409357575899108 0.04237410966854304 0.0 0.0
0.0 0.0867123851675246 -0.07251499817965908 0.07150160157605412 0.0010133966036047748 0.03705055436305312 0.0 0.0
0.0 0.07746679405375567 -0.0652063768862047 0.06411364654077026 0.0010927303454345227 0.031262606601779076 0.0 0.0
0.0 0.06713666244856481 -0.056298020788732174 0.05518761243937469 0.0011104083493574356 0.026488106371727452 0.0 0.0
0.0 0.05610030078100743 -0.047169556447415786 0.04608428556875339 0.0010852708786624262 0.02284771013315063 0.0 0.0
0.0 0.04592943659356117 -0.03849748504726822 0.037464775176467395 0.0010327098708008285 0.01979495158271561 0.0 0.0
0.0 0.036510804628329535 -0.030523945358365938 0.029556906314236416 0.0009670390441295138 0.016848500195687115 0.0 0.0
0.0 0.027924865167965923 -0.023278889731049794 0.02238040275658713 0.0008984869744626459 0.013815094161785588 0.0 0.0
0.0 0.020136554037468394 -0.01675774436525129 0.015924311570260342 0.0008334327949909596 0.010651697281392722 0.0 0.0
0.0 0.013140299007646926 -0.011036866244214273 0.010270736542523886 0.0007661297016903893 0.007454369530308851 0.0 0.0
0.0 0.007872556075561638 -0.00630423385347028 0.005639384196819274 0.0006648496566510038 0.004468240715108672 0.0 0.0
0.0 0.00342934854878996 -0.0028822520855516943 0.002413214722109794 0.0004690373634418993 0.0021725529327519724 0.0 0.0
0.0 0.0010722609910337637 -0.0008867179171099793 0.0006898823431325036 0.00019683557397747576 0.0007672162428215041 0.0 0.0
0.0 0.00017684372567379237 -0.00011053034996095719 8.236976359568164e-05 2.8160586365275526e-05 0.00011846130512542677 0.0 0.0
0.0 2.5253236362932716e-06 5.079228465857016e-06 -4.3448825540282915e-06 -7.343459118286993e-07 -9.046019131748138e-06 0.0 0.0
0.0 -2.742722289953566e-06 6.964818008310686e-07 -5.772304227895251e-07 -1.1925137804152593e-07 -9.938182895060656e-07 0.0 0.0
0.0 -5.6243889724969575e-08 2.532357141933738e-07 -2.0106828156242021e-07 -5.216743263095357e-08 -1.0665034221313056e-06 0.0 0.0
0.0 -1.2025212151506954e-07 -2.8111852205958148e-09 1.930398443898689e-09 8.807867766964716e-10 2.387923681280424e-08 0.0 0.0
0.0 0.0 0.0 0.0 0.0 0.0 0.0 0.0
0.0 0.0 0.0 0.0 0.0 0.0 0.0 0.0
0.0 0.0 0.0 0.0 0.0 0.0 0.0 0.0
0.0 -2.90377438685203e-07 4.632698135824758e-08 -3.580266405929706e-08 -1.0524317298951839e-08 1.5065262544182282e-07 0.0 0.0
0.0 -2.8315100260939466e-06 2.3340531072812946e-06 -1.8860118716665412e-06 -4.4804123561472915e-07 4.849294323058785e-06 0.0 0.0
0.0 -1.0717730818166013e-06 -7.489351573621988e-06 4.6975738332467305e-06 2.791777740375241e-06 -5.869058652802705e-06 0.0 0.0
0.0 0.00040192091323663546 -0.000298579266797792 0.00022338679636947542 7.519247042831666e-05 -0.000201110211407224 0.0 0.0
0.0 0.0018351954245840283 -0.001594190295071635 0.0012691447039419395 0.00032504559112969407 -0.0009361240183165073 0.0 0.0
0.0 0.00533981965608773 -0.004379605685533543 0.003775287071782516 0.0006043186137510267 -0.002451125865237745 0.0 0.0
0.0 0.010198577499934636 -0.008834107189321708 0.008067442620387515 0.0007666645689341965 -0.004892041385702954 0.0 0.0
0.0 0.01733156414924833 -0.014732491512597057 0.013880129192540312 0.0008523623200567467 -0.007857325553276255 0.0 0.0
0.0 0.02575249326364814 -0.021848376183410467 0.02092839426049425 0.0009199819229162 -0.011013663766632934 0.0 0.0
0.0 0.03534861116181578 -0.02998390860683409 0.028993613220223112 0.0009902953866110019 -0.01413606793314604 0.0 0.0
0.0 0.04600299161261708 -0.03904242597797501 0.03797698977674061 0.0010654362012343164 -0.01714463398031044 0.0 0.0
0.0 0.05777952094173448 -0.049017784751488616 0.047877926837794384 0.0011398579136942802 -0.020078883620520797 0.0 0.0
0.0 0.0704497517034346 -0.05990504187369901 0.058700123849180275 0.001204918024518686 -0.023093607445538067 0.0 0.0
0.0 0.08383447824389575 -0.07146366593855089 0.07022634738461736 0.0012373185539334838 -0.026605040812978334 0.0 0.0
0.0 0.09756064460979816 -0.0828485305214244 0.08164150423191151 0.0012070262895129053 -0.031241895380865456 0.0 0.0
0.0 0.10881191919225394 -0.092240724653529 0.0911519678708127 0.0010887567827160744 -0.03714849215255404 0.0 0.0
0.0 0.11423121317569924 -0.09651295555463804 0.09565043162803435 0.0008625239266036876 -0.043122073865520305 0.0 0.0
0.0 0.10889433145802777 -0.0910729426684518 0.09056693879726471 0.0005060038711871393 -0.047128194038480335 0.0 0.0
0.0 0.10084939748623603 -0.0803980169651365 0.07516702469049444 0.00523099227464208 2.4777055407376736e-14 0.0 0.0
0.0 0.10889433145801876 -0.09107294266843628 0.0905669387972497 0.0005060038711866331 0.047128194038534195 0.0 0.0
0.0 0.11423121317566737 -0.09651295555460496 0.09565043162800085 0.0008625239266040884 0.04312207386557419 0.0 0.0
0.0 0.10881191919220443 -0.09224072465348364 0.09115196787076783 0.0010887567827157453 0.037148492152582216 0.0 0.0
0.0 0.09756064460973471 -0.0828485305213695 0.08164150423185637 0.0012070262895130905 0.03124189538086559 0.0 0.0
0.0 0.08383447824382263 -0.07146366593848805 0.0702263473845547 0.0012373185539333684 0.026605040812965105 0.0 0.0
0.0 0.07044975170336308 -0.059905041873637696 0.0587001238491194 0.0012049180245182734 0.023093607445521885 0.0 0.0
0.0 0.0577795209416609 -0.04901778475142485 0.047877926837731295 0.0011398579136935262 0.020078883620502523 0.0 0.0
0.0 0.046002991612547124 -0.039042425977915324 0.03797698977668066 0.001065436201234642 0.017144633980291663 0.0 0.0
0.0 0.035348611161751003 -0.029983908606779342 0.02899361322016869 0.0009902953866106293 0.014136067933122193 0.0 0.0
0.0 0.025752493263587996 -0.02184837618336013 0.020928394260444173 0.0009199819229159397 0.011013663766604903 0.0 0.0
0.0 0.017331564149198266 -0.014732491512555183 0.01388012919249864 0.000852362320056543 0.007857325553252234 0.0 0.0
0.0 0.010198577499902856 -0.008834107189293786 0.00806744262036038 0.0007666645689334038 0.004892041385687815 0.0 0.0
0.0 0.005339819656064175 -0.004379605685514636 0.003775287071764829 0.0006043186137498073 0.0024511258652268747 0.0 0.0
0.0 0.0018351954245707242 -0.0015941902950608689 0.0012691447039329168 0.00032504559112795213 0.0009361240183094712 0.0 0.0
0.0 0.00040192091323245575 -0.00029857926679526875 0.00022338679636759278 7.519247042767543e-05 0.00020111021140560066 0.0 0.0
0.0 -1.071773082585925e-06 -7.489351573730664e-06 4.6975738333470565e-06 2.7917777403835825e-06 5.869058653197404e-06 0.0 0.0
0.0 -2.83151002669287e-06 2.3340531072139195e-06 -1.8860118716120514e-06 -4.4804123560186277e-07 -4.849294322771086e-06 0.0 0.0
0.0 -2.9037743851730315e-07 4.632698139190745e-08 -3.580266408605883e-08 -1.052431730584722e-08 -1.5065262554974723e-07 0.0 0.0
0.0 0.0 0.0 0.0 0.0 0.0 0.0 0.0
0.0 0.0 0.0 0.0 0.0 0.0 0.0 0.0
0.0 0.0 0.0 0.0 0.0 0.0 0.0 0.0
0.0 0.0 0.0 0.0 0.0 0.0 0.0 0.0
0.0 -1.9259891853480113e-07 -1.2438204119640457e-08 9.900711751953166e-09 2.537492367688598e-09 -3.208399983975565e-08 0.0 0.0
0.0 -4.302196333141517e-06 2.2364246340272834e-06 -1.8156186834220932e-06 -4.208059506052191e-07 3.852000796848171e-06 0.0 0.0
0.0 4.5168732978892356e-05 -2.708961157931726e-05 1.7788176725507322e-05 9.30143485381005e-06 -6.233121375057319e-06 0.0 0.0
0.0 0.0006621044633288788 -0.0006261231494719668 0.00047377144919725226 0.00015235170027471393 -0.0002820530016094707 0.0 0.0
0.0 0.0029726856739601616 -0.0024691874031519756 0.0020191287916164783 0.0004500586115354962 -0.0009867168663714443 0.0 0.0
0.0 0.0068868851030589985 -0.006075718321981057 0.005367290848948155 0.000708427473032907 -0.002538536104886177 0.0 0.0
0.0 0.013188808257623811 -0.011460789654838724 0.010618237598988611 0.0008425520558501045 -0.004814462629326434 0.0 0.0
0.0 0.0214572446506838 -0.01850489537258439 0.017580640139358252 0.0009242552332261575 -0.007538171343235828 0.0 0.0
0.0 0.031437131412122746 -0.02699991812542405 0.026003228972671537 0.0009966891527525023 -0.010459661393226015 0.0 0.0
0.0 0.04287475186647156 -0.03674497247781612 0.03567201979581342 0.001072952682002701 -0.013348992200870057 0.0 0.0
0.0 0.05568024247182567 -0.04762231064427012 0.046468461974145385 0.001153848670124671 -0.016149548626450804 0.0 0.0
0.0 0.06942078643006253 -0.05960147523044066 0.05836582452184999 0.0012356507085906632 -0.018915095641974675 0.0 0.0
0.0 0.08469716312630551 -0.07265196785080621 0.0713421505503608 0.0013098173004454962 -0.021708594913585226 0.0 0.0
0.0 0.10091909802594505 -0.08653562004233561 0.08518397978387623 0.0013516402584592795 -0.024725790811831964 0.0 0.0
0.0 0.11683856175481074 -0.10030694402736567 0.0989920062447914 0.0013149377825742274 -0.02856576557274685 0.0 0.0
0.0 0.13037319968603706 -0.11173556114058708 0.11057652011709554 0.0011590410234916027 -0.03395318756330634 0.0 0.0
0.0 0.13714419263896818 -0.11706610677799148 0.11618442834955336 0.0008816784284379812 -0.04080756105870131 0.0 0.0
0.0 0.13130996537478404 -0.11118827670217968 0.11069128099000108 0.0004969957121785174 -0.048497359461729124 0.0 0.0
0.0 0.12169588215035541 -0.09936602944904781 0.09365835739685965 0.005707672052188225 2.298161660974074e-14 0.0 0.0
0.0 0.1313099653747671 -0.11118827670215861 0.11069128098997992 0.0004969957121786164 0.04849735946178198 0.0 0.0
0.0 0.13714419263892602 -0.11706610677795073 0.11618442834951229 0.000881678428438339 0.04080756105875122 0.0 0.0
0.0 0.13037319968597638 -0.11173556114053322 0.11057652011704192 0.0011590410234913547 0.03395318756333249 0.0 0.0
0.0 0.11683856175473523 -0.10030694402730005 0.09899200624472577 0.001314937782574228 0.02856576557274806 0.0 0.0
0.0 0.10091909802586357 -0.0865356200422648 0.08518397978380618 0.001351640258458489 0.024725790811822825 0.0 0.0
0.0 0.08469716312622128 -0.0726519678507338 0.07134215055028857 0.0013098173004451924 0.02170859491357168 0.0 0.0
0.0 0.0694207864299794 -0.05960147523036872 0.05836582452177898 0.001235650708589722 0.01891509564195838 0.0 0.0
0.0 0.05568024247174307 -0.04762231064419878 0.046468461974073935 0.0011538486701248346 0.01614954862643332 0.0 0.0
0.0 0.04287475186639481 -0.03674497247775044 0.03567201979574827 0.001072952682002142 0.013348992200847646 0.0 0.0
0.0 0.03143713141205222 -0.02699991812536407 0.02600322897261156 0.0009966891527525268 0.010459661393199456 0.0 0.0
0.0 0.021457244650626598 -0.01850489537253549 0.017580640139309333 0.0009242552332261366 0.007538171343214176 0.0 0.0
0.0 0.01318880825758535 -0.011460789654805154 0.01061823759895594 0.000842552055849221 0.004814462629312455 0.0 0.0
0.0 0.006886885103033366 -0.006075718321958994 0.005367290848927113 0.0007084274730318783 0.0025385361048758668 0.0 0.0
0.0 0.0029726856739430334 -0.0024691874031381534 0.0020191287916044025 0.00045005861153375027 0.0009867168663649627 0.0 0.0
0.0 0.0006621044633231122 -0.0006261231494676401 0.0004737714491939023 0.00015235170027373722 0.0002820530016076953 0.0 0.0
0.0 4.5168732977323e-05 -2.7089611578909793e-05 1.7788176725235086e-05 9.301434853674777e-06 6.23312137499295e-06 0.0 0.0
0.0 -4.302196333145857e-06 2.2364246338168936e-06 -1.8156186832616569e-06 -4.2080595055523554e-07 -3.852000796568799e-06 0.0 0.0
0.0 -1.9259891850927365e-07 -1.243820411784055e-08 9.900711750511593e-09 2.5374923673294314e-09 3.208399983580417e-08 0.0 0.0
0.0 0.0 0.0 0.0 0.0 0.0 0.0 0.0
0.0 0.0 0.0 0.0 0.0 0.0 0.0 0.0
0.0 0.0 0.0 0.0 0.0 0.0 0.0 0.0
0.0 0.0 0.0 0.0 0.0 0.0 0.0 0.0
0.0 -7.18462332870173e-08 -5.322214849680892e-09 4.219826328331633e-09 1.102388521349622e-09 -1.0684932772376604e-08 0.0 0.0
0.0 -5.030912815151861e-06 3.4724351100460427e-06 -2.847522655318677e-06 -6.249124547273592e-07 4.532912635002202e-06 0.0 0.0
0.0 0.00012626043774069292 -9.671655410208456e-05 6.751192046149776e-05 2.920463364058702e-05 -1.8815485561823956e-05 0.0 0.0
0.0 0.0011971286062517632 -0.0010440086225264565 0.0008023949067349782 0.00024161371579147845 -0.00025116538898454545 0.0 0.0
0.0 0.003993778702974043 -0.003522679404672468 0.002958878490130707 0.0005638009145417588 -0.0009337800280182073 0.0 0.0
0.0 0.008833946828444465 -0.007865296851820119 0.007081154816488969 0.0007841420353311448 -0.0023094205880812364 0.0 0.0
0.0 0.01612257747365313 -0.014144580443650231 0.013239999707741732 0.0009045807359084931 -0.00421041126099766 0.0 0.0
0.0 0.025666711528392464 -0.022309962847977618 0.02132179337614067 0.0009881694718369368 -0.006520407106087289 0.0 0.0
0.0 0.03713122135530971 -0.032170538681938345 0.03110388181602979 0.0010666568659085266 -0.00900657389380584 0.0 0.0
0.0 0.05040658094887163 -0.04352267270935105 0.042373253127893064 0.0011494195814579942 -0.011469919761958144 0.0 0.0
0.0 0.0650241110536734 -0.05622965347986474 0.054993399688130336 0.0012362537917345073 -0.013873935072700043 0.0 0.0
0.0 0.08146748269731371 -0.07020406052089863 0.06888308097885809 0.0013209795420404378 -0.01628879200793767 0.0 0.0
0.0 0.09892337258298564 -0.08535775716343433 0.08395896685710391 0.0013987903063304003 -0.018717313298772836 0.0 0.0
0.0 0.11730934432072893 -0.10140019614465566 0.09994863046150347 0.0014515656831522047 -0.021055683708417004 0.0 0.0
0.0 0.1358851318194001 -0.11736571825558174 0.11593956520281497 0.0014261530527668043 -0.023541324624188866 0.0 0.0
0.0 0.15167353645328888 -0.13085994900761838 0.12961246257110776 0.0012474864365104718 -0.027566113013209298 0.0 0.0
0.0 0.15998053900100603 -0.1376165550668734 0.1367057266996568 0.0009108283672165815 -0.03537122545366856 0.0 0.0
0.0 0.15445791735644104 -0.13184070776009293 0.13137366059839187 0.00046704716170123964 -0.04816321461389701 0.0 0.0
0.0 0.14414301681126662 -0.11918686415311552 0.11307800203947597 0.006108862113639389 1.915655134521188e-14 0.0 0.0
0.0 0.1544579173564208 -0.13184070776007067 0.1313736605983692 0.0004670471617015835 0.04816321461394418 0.0 0.0
0.0 0.15998053900095752 -0.13761655506682874 0.136705726699612 0.0009108283672166269 0.03537122545371176 0.0 0.0
0.0 0.15167353645321419 -0.13085994900755318 0.12961246257104242 0.0012474864365107083 0.027566113013231204 0.0 0.0
0.0 0.13588513181931558 -0.11736571825550826 0.1159395652027421 0.0014261530527661672 0.023541324624190972 0.0 0.0
0.0 0.11730934432063664 -0.10140019614457534 0.099948630461424 0.0014515656831513334 0.021055683708411547 0.0 0.0
0.0 0.09892337258288872 -0.08535775716335071 0.08395896685702069 0.0013987903063299425 0.018717313298762354 0.0 0.0
0.0 0.08146748269721776 -0.07020406052081542 0.06888308097877566 0.0013209795420397472 0.016288792007923786 0.0 0.0
0.0 0.06502411105357851 -0.05622965347978294 0.05499339968804872 0.001236253791734325 0.013873935072686087 0.0 0.0
0.0 0.05040658094878252 -0.043522672709273943 0.04237325312781634 0.001149419581457631 0.011469919761938792 0.0 0.0
0.0 0.037131221355230566 -0.03217053868187025 0.031103881815961926 0.0010666568659083136 0.009006573893782947 0.0 0.0
0.0 0.02566671152832988 -0.022309962847923477 0.021321793376087198 0.0009881694718362614 0.006520407106069364 0.0 0.0
0.0 0.01612257747360673 -0.01414458044360976 0.013239999707701865 0.0009045807359078823 0.0042104112609847675 0.0 0.0
0.0 0.008833946828413103 -0.007865296851792321 0.007081154816461981 0.0007841420353303438 0.002309420588071493 0.0 0.0
0.0 0.00399377870295467 -0.003522679404655903 0.0029588784901157113 0.0005638009145401896 0.0009337800280126482 0.0 0.0
0.0 0.0011971286062442495 -0.0010440086225205324 0.0008023949067303141 0.00024161371579021823 0.00025116538898317523 0.0 0.0
0.0 0.000126260437739138 -9.671655410143437e-05 6.75119204610612e-05 2.920463364037314e-05 1.8815485561885715e-05 0.0 0.0
0.0 -5.030912815439257e-06 3.4724351095440207e-06 -2.8475226549416487e-06 -6.249124546023652e-07 -4.532912634553829e-06 0.0 0.0
0.0 -7.184623319621463e-08 -5.322214842869262e-09 4.219826322927047e-09 1.1023885199412321e-09 1.0684932758656047e-08 0.0 0.0
0.0 0.0 0.0 0.0 0.0 0.0 0.0 0.0
0.0 0.0 0.0 0.0 0.0 0.0 0.0 0.0
0.0 0.0 0.0 0.0 0.0 0.0 0.0 0.0
0.0 0.0 0.0 0.0 0.0 0.0 0.0 0.0
0.0 0.0 0.0 0.0 0.0 0.0 0.0 0.0
0.0 -7.029670967628107e-06 6.586605675167855e-06 -5.45687500480576e-06 -1.1297306703621172e-06 5.963540654568614e-06 0.0 0.0
0.0 0.0002414297258348356 -0.00023769859369182053 0.00016917963398003637 6.851895971178392e-05 -6.660094496333982e-06 0.0 0.0
0.0 0.0018752530354067985 -0.0016004382910239337 0.001258158800337211 0.0003422794906867223 -0.0001468774402424101 0.0 0.0
0.0 0.005074689878174754 -0.004691566979748002 0.004037400878106594 0.0006541661016414063 -0.0007186253098371239 0.0 0.0
0.0 0.010880236417983682 -0.009707236168175483 0.008862435101197027 0.0008448010669784715 -0.0017071450692374304 0.0 0.0
0.0 0.019099453514429904 -0.0168500890718564 0.015891642983924727 0.0009584460879316726 -0.003104298980376592 0.0 0.0
0.0 0.02987220372292972 -0.02611065677513529 0.02506420056994097 0.0010464562051943533 -0.004812061615977947 0.0 0.0
0.0 0.042908328755703 -0.037321680256883295 0.03618990655325829 0.0011317737036249614 -0.006662540896813947 0.0 0.0
0.0 0.05785339452179654 -0.05027868769377732 0.0490579178622683 0.0012207698315089897 -0.008503209738037453 0.0 0.0
0.0 0.07486454707396109 -0.06481516315605139 0.06350277624276232 0.001312386913289112 -0.010320194890293875 0.0 0.0
0.0 0.09308363941326012 -0.08079535731394923 0.07939499758142604 0.0014003597325231666 -0.012196885493381918 0.0 0.0
0.0 0.11299114809612165 -0.09799657711605042 0.0965207880550613 0.001475789060989109 -0.014086392296953097 0.0 0.0
0.0 0.13380112606407682 -0.11599188105832983 0.11446544062162456 0.001526440436705308 -0.015702216033634215 0.0 0.0
0.0 0.1544391323304869 -0.13384553717805045 0.1323185966274866 0.0015269405505639797 -0.01681155939567841 0.0 0.0
0.0 0.17243035514706073 -0.14938665845664267 0.14799092613781792 0.0013957323188248775 -0.01863575994187527 0.0 0.0
0.0 0.18293589137264074 -0.15818503641302956 0.15719926411461305 0.0009857722984161778 -0.0258894294566137 0.0 0.0
0.0 0.17865141260890013 -0.1534355868168984 0.15304889550210546 0.00038669131479275 -0.04507613023394475 0.0 0.0
0.0 0.16834505109464368 -0.14042399061348732 0.13401929225436984 0.006404698359117503 1.333828880678567e-14 0.0 0.0
0.0 0.17865141260886996 -0.15343558681686958 0.15304889550207615 0.0003866913147933589 0.045076130233981423 0.0 0.0
0.0 0.18293589137257915 -0.15818503641297488 0.15719926411455806 0.0009857722984170233 0.025889429456649363 0.0 0.0
0.0 0.17243035514697455 -0.14938665845656854 0.14799092613774348 0.0013957323188249758 0.018635759941891136 0.0 0.0
0.0 0.15443913233039144 -0.1338455371779675 0.1323185966274047 0.0015269405505629427 0.01681155939567942 0.0 0.0
0.0 0.1338011260639688 -0.11599188105823637 0.11446544062153133 0.0015264404367049968 0.015702216033631203 0.0 0.0
0.0 0.11299114809600877 -0.0979965771159528 0.09652078805496386 0.0014757890609889853 0.014086392296947666 0.0 0.0
0.0 0.09308363941314966 -0.08079535731385346 0.07939499758133128 0.0014003597325222504 0.012196885493371617 0.0 0.0
0.0 0.07486454707385566 -0.06481516315596009 0.06350277624267128 0.0013123869132886858 0.010320194890285184 0.0 0.0
0.0 0.057853394521694454 -0.05027868769368933 0.0490579178621806 0.0012207698315087024 0.008503209738022845 0.0 0.0
0.0 0.04290832875561586 -0.037321680256807446 0.03618990655318278 0.0011317737036246444 0.006662540896796963 0.0 0.0
0.0 0.02987220372286177 -0.02611065677507562 0.025064200569882046 0.0010464562051935731 0.004812061615964562 0.0 0.0
0.0 0.01909945351437283 -0.016850089071806306 0.015891642983875107 0.000958446087931218 0.003104298980366097 0.0 0.0
0.0 0.010880236417947308 -0.009707236168143072 0.008862435101165564 0.0008448010669774985 0.0017071450692304191 0.0 0.0
0.0 0.005074689878153239 -0.004691566979728415 0.0040374008780885585 0.000654166101639867 0.0007186253098329216 0.0 0.0
0.0 0.0018752530353964604 -0.0016004382910151645 0.0012581588003298565 0.00034227949068530545 0.00014687744024083886 0.0 0.0
0.0 0.0002414297258320213 -0.00023769859369006846 0.00016917963397879892 6.851895971126918e-05 6.660094496634749e-06 0.0 0.0
0.0 -7.0296709675568175e-06 6.586605674765667e-06 -5.456875004501561e-06 -1.1297306702641405e-06 -5.963540654409777e-06 0.0 0.0
0.0 0.0 0.0 0.0 0.0 0.0 0.0 0.0
0.0 0.0 0.0 0.0 0.0 0.0 0.0 0.0
0.0 0.0 0.0 0.0 0.0 0.0 0.0 0.0
0.0 0.0 0.0 0.0 0.0 0.0 0.0 0.0
0.0 0.0 0.0 0.0 0.0 0.0 0.0 0.0
0.0 0.0 0.0 0.0 0.0 0.0 0.0 0.0
0.0 -2.5954926175982413e-06 7.241780233222937e-07 -1.944494143465217e-06 1.2203161201429449e-06 6.835644791459294e-06 0.0 0.0
0.0 0.0005260247853451714 -0.000443820182624252 0.00032115441890536627 0.00012266576371888595 6.43256681555505e-05 0.0 0.0
0.0 0.0025507128225157978 -0.0022850754982049544 0.0018428006149445474 0.0004422748832604058 4.521327516779262e-05 0.0 0.0
0.0 0.006479160110330746 -0.005911495654162192 0.005189370513817836 0.0007221251403443595 -0.0002546179103880419 0.0 0.0
0.0 0.012952272919325537 -0.011572607842524684 0.010678368915682588 0.0008942389268420812 -0.0007709358686775831 0.0 0.0
0.0 0.022155942001658976 -0.01954152389852253 0.018535249786125408 0.0010062741123971317 -0.0015028426515722461 0.0 0.0
0.0 0.034070452841846864 -0.029869878616187562 0.028768920226639502 0.0011009583895480407 -0.002418445129276984 0.0 0.0
0.0 0.04859315284463671 -0.0424173804063799 0.04122462490512224 0.0011927555012576664 -0.003423777279887388 0.0 0.0
0.0 0.06557573298620775 -0.05697487999733598 0.055687720287352346 0.00128715970998364 -0.004445991654203643 0.0 0.0
0.0 0.08420356912252028 -0.07334912139424347 0.07196517610338811 0.0013839452908553074 -0.005504173712344867 0.0 0.0
0.0 0.10496314000399704 -0.09131642959598515 0.0898420520123077 0.0014743775836773918 -0.006618586801317564 0.0 0.0
0.0 0.1271553703593561 -0.11052926841279413 0.10898428035361155 0.0015449880591826223 -0.0077329926937907125 0.0 0.0
0.0 0.15008120074544049 -0.13035881594625526 0.12877536822865857 0.0015834477175964963 -0.008629707888156674 0.0 0.0
0.0 0.1725152602224091 -0.14974390094151924 0.1481585101314631 0.001585390810056285 -0.008914138978040038 0.0 0.0
0.0 0.19236924071627065 -0.16690956486286815 0.16536241922566328 0.0015471456372048924 -0.008839237559775615 0.0 0.0
0.0 0.2055995415105417 -0.17831802256160106 0.17701905466561146 0.0012989678959892796 -0.012592255349441216 0.0 0.0
0.0 0.20436466285748722 -0.1764730564156773 0.17616445908175848 0.0003085973339187794 -0.03369905134506458 0.0 0.0
0.0 0.19559486227757036 -0.1642709992840975 0.15799578469317965 0.0062752145909176545 7.299716386910404e-15 0.0 0.0
0.0 0.20436466285744814 -0.17647305641564207 0.1761644590817226 0.00030859733391946323 0.03369905134508543 0.0 0.0
0.0 0.2055995415104716 -0.17831802256154028 0.17701905466555024 0.0012989678959899474 0.012592255349462232 0.0 0.0
0.0 0.19236924071617523 -0.16690956486278566 0.16536241922558084 0.0015471456372047419 0.00883923755978442 0.0 0.0
0.0 0.17251526022229874 -0.14974390094142426 0.14815851013136788 0.0015853908100563344 0.008914138978039337 0.0 0.0
0.0 0.150081200745319 -0.13035881594614984 0.12877536822855343 0.001583447717596299 0.00862970788815407 0.0 0.0
0.0 0.12715537035923297 -0.11052926841268755 0.10898428035350535 0.0015449880591822719 0.007732992693789386 0.0 0.0
0.0 0.10496314000387653 -0.09131642959588057 0.08984205201220406 0.0014743775836763852 0.006618586801312466 0.0 0.0
0.0 0.08420356912240083 -0.07334912139414021 0.07196517610328503 0.0013839452908551875 0.0055041737123400335 0.0 0.0
0.0 0.06557573298609581 -0.0569748799972389 0.05568772028725587 0.0012871597099830413 0.004445991654195263 0.0 0.0
0.0 0.04859315284453819 -0.04241738040629456 0.04122462490503744 0.0011927555012571612 0.0034237772798773112 0.0 0.0
0.0 0.03407045284177291 -0.02986987861612259 0.028768920226575463 0.0011009583895471519 0.002418445129269628 0.0 0.0
0.0 0.02215594200159668 -0.01954152389846761 0.01853524978607098 0.0010062741123966267 0.0015028426515672998 0.0 0.0
0.0 0.012952272919286384 -0.01157260784248967 0.01067836891564844 0.0008942389268412318 0.0007709358686742624 0.0 0.0
0.0 0.006479160110306055 -0.005911495654139694 0.005189370513796525 0.0007221251403431648 0.0002546179103856312 0.0 0.0
0.0 0.0025507128225022145 -0.0022850754981930256 0.0018428006149341994 0.0004422748832588253 -4.521327516856143e-05 0.0 0.0
0.0 0.0005260247853403214 -0.00044382018262060347 0.00032115441890267154 0.00012266576371793177 -6.432566815516002e-05 0.0 0.0
0.0 -2.5954926176099338e-06 7.241780228646308e-07 -1.9444941431036068e-06 1.2203161202390852e-06 -6.835644791295894e-06 0.0 0.0
0.0 0.0 0.0 0.0 0.0 0.0 0.0 0.0
0.0 0.0 0.0 0.0 0.0 0.0 0.0 0.0
0.0 0.0 0.0 0.0 0.0 0.0 0.0 0.0
0.0 0.0 0.0 0.0 0.0 0.0 0.0 0.0
0.0 0.0 0.0 0.0 0.0 0.0 0.0 0.0
0.0 0.0 0.0 0.0 0.0 0.0 0.0 0.0
0.0 3.360392322025411e-05 -3.230608841828013e-05 2.091245341632983e-05 1.1393635001950317e-05 1.3739595770616912e-05 0.0 0.0
0.0 0.0008709492574028243 -0.000696894403538857 0.00050122048960684 0.00019567391393201673 0.00016865656936857217 0.0 0.0
0.0 0.003234585786537397 -0.002901429335120688 0.002315496829951586 0.0005859325051690979 0.0003761149990563613 0.0 0.0
0.0 0.007581370048723269 -0.0069470470438275835 0.00601969594040318 0.0009273511034244071 0.0004935410361375862 0.0 0.0
0.0 0.01457960778988841 -0.01311615240143242 0.0119242547121854 0.0011918976892470183 0.0005475987130080741 0.0 0.0
0.0 0.024414572198897148 -0.02174634894677351 0.020311843439778824 0.0014345055069946602 0.0005273891870107449 0.0 0.0
0.0 0.03727040326698806 -0.032941515935869525 0.03123834819593218 0.0017031677399372987 0.0003919056658159602 0.0 0.0
0.0 0.05300923485321733 -0.04659345733599248 0.04457577695526515 0.0020176803807273286 0.00017853445653329093 0.0 0.0
0.0 0.07105499506155616 -0.06249104969025388 0.06010959655129508 0.0023814531389587997 -0.00010615143551315903 0.0 0.0
0.0 0.09148018440077595 -0.08038466651435211 0.07760299101360074 0.0027816755007513743 -0.0004944006933201043 0.0 0.0
0.0 0.11390094644360667 -0.09998968772752306 0.0967923680298896 0.003197319697633577 -0.0009556253439102248 0.0 0.0
0.0 0.13781624932131686 -0.12086189953796352 0.11726713284606102 0.003594766691902321 -0.0015069533386947373 0.0 0.0
0.0 0.16235724353603503 -0.14220044577063307 0.1382721065873409 0.003928339183292317 -0.0020465678308507 0.0 0.0
0.0 0.18601490582920965 -0.16271918593219922 0.15857436691951862 0.004144819012680318 -0.002301737467227404 0.0 0.0
0.0 0.20672212639012225 -0.18066101142458296 0.17644065854989757 0.004220352874685071 -0.002051061310985803 0.0 0.0
0.0 0.2216122095484593 -0.19377174193819885 0.18945637394757592 0.004315367990623137 -0.0040063157852530465 0.0 0.0
0.0 0.22459135990595192 -0.19688321848643076 0.1924115316253438 0.004471686861086956 -0.025603901252221686 0.0 0.0
0.0 0.22053348732656886 -0.18805613811151056 0.17657385730881803 0.011482280802692223 2.7755575615628914e-16 0.0 0.0
0.0 0.22459135990590776 -0.1968832184863923 0.19241153162530505 0.004471686861086984 0.025603901252228452 0.0 0.0
0.0 0.22161220954838895 -0.19377174193813726 0.18945637394751597 0.0043153679906211264 0.004006315785261456 0.0 0.0
0.0 0.20672212639001705 -0.18066101142449092 0.17644065854980887 0.004220352874682319 0.002051061310986854 0.0 0.0
0.0 0.1860149058290878 -0.16271918593209317 0.15857436691941376 0.004144819012679147 0.0023017374672233 0.0 0.0
0.0 0.16235724353590517 -0.14220044577051988 0.1382721065872295 0.003928339183290118 0.002046567830848469 0.0 0.0
0.0 0.13781624932118863 -0.12086189953785105 0.11726713284595101 0.00359476669189996 0.0015069533386952595 0.0 0.0
0.0 0.11390094644347894 -0.09998968772741133 0.0967923680297804 0.0031973196976309245 0.0009556253439076106 0.0 0.0
0.0 0.09148018440064543 -0.08038466651423853 0.07760299101348866 0.002781675500749859 0.0004944006933180096 0.0 0.0
0.0 0.07105499506143545 -0.06249104969014886 0.060109596551191746 0.0023814531389570203 0.00010615143551056909 0.0 0.0
0.0 0.05300923485311099 -0.04659345733589932 0.044575776955174194 0.002017680380725146 -0.0001785344565360435 0.0 0.0
0.0 0.03727040326691089 -0.032941515935802024 0.031238348195866645 0.0017031677399353372 -0.00039190566581800285 0.0 0.0
0.0 0.024414572198832196 -0.02174634894671637 0.02031184343972311 0.0014345055069932562 -0.0005273891870114043 0.0 0.0
0.0 0.014579607789844773 -0.013116152401393414 0.011924254712147597 0.0011918976892458168 -0.0005475987130077777 0.0 0.0
0.0 0.007581370048695303 -0.006947047043801996 0.0060196959403791064 0.0009273511034228889 -0.0004935410361370685 0.0 0.0
0.0 0.003234585786523021 -0.0029014293351071986 0.002315496829939926 0.000585932505167272 -0.0003761149990552 0.0 0.0
0.0 0.0008709492573965114 -0.0006968944035337591 0.0005012204896030736 0.00019567391393068734 -0.0001686565693675478 0.0 0.0
0.0 3.36039232198362e-05 -3.230608841807083e-05 2.0912453416213293e-05 1.1393635001857495e-05 -1.3739595770443292e-05 0.0 0.0
0.0 0.0 0.0 0.0 0.0 0.0 0.0 0.0
0.0 0.0 0.0 0.0 0.0 0.0 0.0 0.0
0.0 0.0 0.0 0.0 0.0 0.0 0.0 0.0
SCALARS Wm float 4
LOOKUP_TABLE default
13.583388405359553 2.054367764236259 5.77820083755356 5.75081980356973
6.977092179354567 3.315076520034737 1.658477139982904 2.003538519336926
0.7941363995055892 0.7189728577284432 0.014381467677816088 0.060782074099329536
0.5785864017470514 0.5354736235797977 0.012022814720889223 0.031089963446364596
1.2374095417470412 0.8321750927075707 0.1470641387623839 0.2581703102770859
2.7813649699362024 1.2386992305203064 0.5902913467171712 0.9523743926987238
5.87248584214558 1.8109560523020998 1.7941677907894564 2.2673619990540215
10.961047857105033 2.5532854703784973 4.046806421515941 4.360955965210592
18.556972691778682 3.5232847325419034 7.7182550341144545 7.3154329251223205
29.008532683816718 4.748093703011576 13.10146139609176 11.158977584713385
42.44140974937952 6.233482584125519 20.354203157326374 15.853724007927614
58.69641247900033 7.966581006288595 29.401141976839206 21.32868949587255
77.78971451655633 9.914714807950409 40.37137617816782 27.50362353043805
99.51417979564467 12.040225719850161 53.17729266490926 34.29666141088532
123.4352839788767 14.178283843295539 67.67214605797535 41.584854077605705
148.74110660428116 16.05868818036838 83.51294887632156 49.16946954759113
174.11017338751805 17.375838219589312 99.96788583540459 56.7664493325242
197.86579487674192 17.919865824081196 116.0103319304944 63.93559712216618
218.27392125816522 17.788111174371494 130.31964646617735 70.1661636176166
232.61185971900034 16.657439776811334 141.10497328996922 74.84944665221965
237.16135805384545 14.483623560292894 145.77724489968168 76.90048959387089
232.61185971895407 16.65743977679452 141.10497328994813 74.84944665221154
218.27392125809297 17.788111174372368 130.31964646612622 70.16616361759424
197.86579487662763 17.91986582406566 116.01033193042588 63.935597122136016
174.11017338742158 17.375838219614227 99.96788583532123 56.76644933248614
148.74110660415968 16.058688180362587 83.51294887624282 49.169469547554286
123.43528397875177 14.178283843285245 67.67214605789883 41.58485407756773
99.51417979552141 12.040225719837123 53.17729266483673 34.2966614108476
77.78971451643413 9.914714807930475 40.371376178101755 27.503623530401924
58.6964124788937 7.966581006272469 29.401141976781936 21.328689495839324
42.44140974929246 6.233482584114005 20.354203157279823 15.853724007898618
29.008532683753035 4.74809370300567 13.101461396057427 11.158977584689957
18.55697269173128 3.5232847325325025 7.718255034092898 7.3154329251058785
10.961047857073916 2.553285470375707 4.046806421500848 4.3609559651973635
5.872485842126794 1.8109560522976427 1.7941677907824682 2.2673619990466842
2.7813649699276195 1.2386992305194402 0.5902913467140767 0.9523743926941017
1.2374095417440036 0.8321750927071374 0.14706413876134422 0.25817031027552195
0.5785864017461135 0.5354736235790597 0.01202281472082279 0.031089963446230995
0.7941363995041149 0.7189728577271706 0.014381467677749216 0.060782074099193964
6.977092179348878 3.315076520035344 1.6584771399797975 2.0035385193337314
13.583388405330503 2.0543677642216758 5.778200837545544 5.750819803563294
16.322639216942516 7.062035039762286 4.512408467895186 4.7481957092850395
2.884473282559883 0.6342046169141555 0.9594319707546086 1.2908366948911179
0.28649331905566683 0.33645193967212617 -0.01734807050522916 -0.03261055011123023
0.4458232704810031 0.4300682917121077 0.003196988912872491 0.012557989856023107
0.9286311247856999 0.6773511544085402 0.07976836422715339 0.17151160615000657
2.2167551976713344 1.0088699666549612 0.46397475119129034 0.7439104798250827
4.817254700148893 1.4031883911916936 1.4719752917698399 1.9420910171873587
9.2715712022005 1.9012217473857522 3.4930684535577976 3.8772810012569465
15.956333009798762 2.498454245294236 6.829889314348703 6.627989450155833
25.095500813321088 3.1857427216820944 11.70599620573962 10.203761885899365
36.763771167353696 3.945551471144276 18.25997257726444 14.558247118944983
50.97834339742453 4.784515821568156 26.57484323138891 19.61898434446747
67.43197218617027 5.70606304686963 36.40187728205309 25.324031857247558
86.28601131986461 6.670016410318357 48.01464120735388 31.601353702192355
107.1092092199967 7.607051147647731 61.147679044638444 38.35447902771058
129.28137031583776 8.378134561676118 75.50023641054851 45.40299934361309
151.7753217123162 8.820509631588907 90.50101117818875 52.453800902538504
173.16800510189427 8.823830735479687 105.20595573972581 59.13821862668877
191.5610323379463 8.283515362523856 118.32152248213885 64.95599449328354
204.56566748598792 7.278749993233874 128.09097632658083 69.19594116617327
209.5556963211732 6.129685902005308 132.39017427690405 71.03583614226397
204.56566748596572 7.278749993242258 128.09097632655946 69.19594116616396
191.5610323378937 8.283515362539564 118.32152248209141 64.95599449326276
173.16800510179706 8.823830735468302 105.20595573966655 59.13821862666232
151.77532171220295 8.820509631580943 90.50101117811673 52.45380090250524
129.28137031573053 8.378134561674115 75.50023641047724 45.402999343579104
107.10920921988662 7.607051147641845 61.147679044569124 38.35447902767564
86.28601131976119 6.670016410315053 48.01464120728823 31.6013537021579
67.43197218607251 5.7060630468665625 36.40187728199235 25.324031857213583
50.97834339733767 4.784515821564706 26.574843231336576 19.618984344436367
36.763771167278605 3.9455514711386406 18.259972577222083 14.558247118917874
25.09550081326512 3.1857427216784457 11.705996205708876 10.2037618858778
15.95633300975869 2.4984542452901373 6.829889314328598 6.627989450139958
9.271571202174037 1.9012217473845354 3.4930684535445446 3.8772810012449606
4.8172547001329145 1.4031883911888243 1.471975291763578 1.942091017180509
2.21675519766405 1.008869966654401 0.46397475118834186 0.7439104798213083
0.928631124783384 0.6773511544078746 0.07976836422653451 0.17151160614897562
0.44582327048051223 0.4300682917115514 0.003196988912870779 0.012557989856090057
0.2864933190554376 0.3364519396717582 -0.0173480705051674 -0.032610550111152964
2.884473282552292 0.6342046169128898 0.9594319707515007 1.290836694887903
16.322639216915782 7.062035039750638 4.512408467887023 4.748195709278103
12.39856171411058 5.645092328496928 3.1625217881369934 3.5909475974766565
1.8046185345723493 0.2708626754115462 0.641956897951976 0.8917989612088282
0.17803873484257202 0.17746154620868865 9.925329019025034e-05 0.0004779353436930883
0.3285717093045463 0.3298695328355526 -0.0005911156995793171 -0.0007067078314269584
0.6984871988337922 0.5816746377272815 0.03162226580392628 0.08519029530258454
1.7246112163488923 0.9027325626355744 0.3041400453096938 0.5177386084036248
3.907404225568688 1.279052928874171 1.0903525522505213 1.5379987444439942
7.792591799319171 1.7364684030469015 2.802310541637126 3.253812854635147
13.666689805072027 2.2656332279845968 5.674417659299724 5.726638917787703
21.726948933447122 2.8573652902988598 9.92602772843657 8.94355591471169
31.971548611640603 3.507751767920809 15.61925417800024 12.844542665719562
44.31956744672775 4.226480827206665 22.730872255440055 17.362214364081012
58.87254286456627 5.029930599462041 31.40528440621674 22.4373278588875
75.2522860095686 5.898178987738014 41.322911409274994 28.031195612555557
93.52775626551185 6.760684516896527 52.71212380628945 34.05494794232582
113.08224576790752 7.5223838766009825 65.1904916526807 40.36937023862587
133.06186258736972 8.041692667826757 78.27482654701268 46.7453433725303
152.14946575236686 8.148245606440932 91.19460709319631 52.80661305272968
168.53372671482927 7.709529078495704 102.75615394258097 58.068043693752564
180.13200107935916 6.949273313860642 111.31484612601655 61.867881639481844
184.3667203804497 5.501341416676301 115.25208998585173 63.613288977921684
180.13200107933045 6.949273313862051 111.31484612599604 61.867881639472266
168.53372671476515 7.709529078490835 102.7561539425405 58.068043693733856
152.14946575230516 8.148245606454013 91.19460709314507 52.806613052706055
133.06186258728746 8.04169266783436 78.27482654695181 46.74534337250122
113.08224576781373 7.522383876599614 65.19049165261892 40.36937023859527
93.52775626541809 6.760684516894905 52.7121238062286 34.05494794229458
75.25228600947803 5.898178987735827 41.32291140921774 28.03119561252443
58.872542864477246 5.029930599455943 31.405284406164053 22.437327858857252
44.31956744665177 4.22648082720482 22.730872255394075 17.3622143640529
31.971548611572544 3.5077517679125854 15.619254177964324 12.844542665695634
21.726948933399918 2.8573652902984845 9.926027728409492 8.943555914691942
13.666689805035906 2.265633227981234 5.674417659281707 5.726638917772967
7.7925917992960585 1.7364684030461033 2.8023105416256135 3.2538128546243454
3.9074042255559385 1.2790529288727512 1.090352552245366 1.5379987444378214
1.7246112163426655 0.9027325626342302 0.3041400453076477 0.5177386084007879
0.6984871988321057 0.581674637726664 0.03162226580356335 0.08519029530187841
0.32857170930430435 0.329869532835184 -0.0005911156995550103 -0.0007067078313247404
0.17803873484247867 0.17746154620859855 9.925329018889548e-05 0.0004779353436912681
1.8046185345666141 0.2708626754110008 0.6419568979495347 0.8917989612060768
12.398561714083481 5.645092328485091 3.1625217881290304 3.590947597469368
9.40413247474298 4.402125899128126 2.255903060125201 2.746103515489655
1.2197543631279697 0.12403341190524249 0.43519475187292533 0.6605261993498008
0.12436389640587145 0.12436389640587145 0.0 0.0
0.2444562009776488 0.24601667310183467 -0.00024395631843258087 -0.0013165158057532145
0.5218224412676931 0.48667170650350117 0.007551153271609559 0.02759958149258227
1.2839505075146456 0.781795421736756 0.16899962670891222 0.3331554590689775
3.0957089746973745 1.1557794347373727 0.7835431918355097 1.1563863481244916
6.373945216574047 1.5684239556431068 2.1600585341365806 2.6454627267943596
11.45349782057652 2.0344780104142943 4.58685509336924 4.832164716792984
18.43118735319093 2.541128748876586 8.205631696068316 7.6844269082460235
27.254544843353077 3.0907436080426587 13.032029560165455 11.131771675144964
37.92974427819245 3.707197697511852 19.11774009320769 15.104806487472901
50.30792676334813 4.4010984397435315 26.347387880858722 19.55944044274587
64.58192001817417 5.165068429903085 34.959070099206386 24.457781489064693
80.30827203525783 5.966358259742308 44.58748186084802 29.754431914667496
97.21598968406099 6.720797095385871 55.15955753345573 35.33563505521937
114.76981247148841 7.3020109582495065 66.46674171027517 41.00105980296375
131.66395333045352 7.528904435866162 77.68343503832975 46.45161385625759
146.27999725646515 7.271752519671994 87.77633100066038 51.23191373613275
156.78467397158448 6.661994293083243 95.36770715398093 54.754972524520284
160.6330968767146 4.932978260525452 99.21114670105877 56.48897191513034
156.7846739715646 6.661994293089167 95.36770715396304 54.7549725245124
146.27999725642255 7.271752519677197 87.77633100062778 51.23191373611755
131.6639533303783 7.528904435855773 77.68343503828575 46.45161385623677
114.76981247140166 7.302010958238764 66.4667417102244 41.0010598029385
97.21598968397441 6.720797095376516 55.15955753340456 35.33563505519332
80.30827203516911 5.966358259732269 44.587481860796984 29.754431914639785
64.58192001809354 5.16506842989868 34.95907009915763 24.45778148903723
50.30792676326929 4.401098439732087 26.347387880816353 19.55944044272083
37.9297442781303 3.7071976975155088 19.117740093167573 15.104806487447211
27.254544843296397 3.090743608035864 13.032029560135934 11.131771675124611
18.43118735314743 2.5411287488739087 8.205631696045064 7.684426908228444
11.453497820544747 2.034478010410678 4.586855093354025 4.832164716780044
6.373945216554622 1.568423955642719 2.1600585341271876 2.645462726784712
3.095708974685981 1.1557794347347634 0.7835431918314293 1.1563863481197887
1.2839505075101065 0.7817954217356039 0.16899962670754623 0.33315545906695637
0.5218224412667755 0.4866717065030031 0.007551153271461854 0.027599581492310253
0.24445620097759782 0.24601667310176747 -0.0002439563184284412 -0.0013165158057412104
0.12436389640577025 0.12436389640577025 0.0 0.0
1.219754363123544 0.1240334119049363 0.4351947518710176 0.6605261993475907
9.404132474720642 4.4021258991188175 2.255903060118774 2.746103515483053
7.032804833660529 3.4088274961232923 1.5585317704718273 2.065445567065414
0.8934353550247273 0.11608062891575324 0.3125283921050143 0.4648263340039588
0.11318139249589695 0.11318139249589695 0.0 0.0
0.19559848127860055 0.19563695424116553 1.9976939335895765e-07 -3.86727319583675e-05
0.3904776133091505 0.39262712293920615 -0.002435923397197854 0.0002864137671424986
0.9356972072714327 0.6711589254187422 0.08045916710287786 0.18407911474981226
2.3536736820817556 1.0124154779653205 0.5270360604867073 0.8142221436297286
5.037285892700469 1.3994877875285032 1.5784788550621878 2.0593192501097786
9.318439638571537 1.8054453568720508 3.5633162614978913 3.9496780202015986
15.223032897708755 2.235912453636419 6.555349085949993 6.431771358122344
22.69663883196465 2.699179393375727 10.575053203388428 9.422406235200478
31.67558518575529 3.2186916878744265 15.605869554345556 12.851023943535312
42.17089989946053 3.8176827865993745 21.67193458529902 16.681282527562118
54.01082294961479 4.4923899760831425 28.621766822192715 20.896666151338916
67.36450618648935 5.213881999659423 36.6936929602341 25.45693122659584
81.86618017623175 5.950610920286234 45.62716289700117 30.288406358944336
96.89050917573962 6.5967305989736325 55.04272959678031 35.25104897998568
111.65926015988819 6.972170582831578 64.60821483383577 40.07887474322083
124.70656296238509 6.906857468103006 73.4087558328656 44.39094966141651
134.41032251186402 6.428548332946738 80.2910743740597 47.690699804857516
138.04506338405716 4.398564757989269 84.13632301932444 49.510175606743466
134.4103225118217 6.428548332920806 80.29107437404866 47.69069980485221
124.70656296234579 6.906857468105096 73.4087558328378 44.390949661402914
111.65926015984368 6.972170582840432 64.60821483380039 40.07887474320288
96.89050917567332 6.596730598967226 55.04272959674053 35.25104897996558
81.86618017616821 5.95061092028765 45.627162896958794 30.288406358921712
67.36450618642459 5.213881999660733 36.69369296019161 25.456931226572266
54.01082294954701 4.492389976078234 28.621766822153 20.896666151315785
42.170899899399934 3.8176827865933234 21.67193458526539 16.681282527541207
31.67558518569417 3.218691687866893 15.605869554313363 12.851023943513924
22.696638831918282 2.699179393372715 10.575053203363256 9.422406235182315
15.223032897672702 2.2359124536332726 6.555349085931612 6.431771358107818
9.3184396385446 1.8054453568677742 3.5633162614860194 3.949678020190805
5.037285892683587 1.399487787527176 1.5784788550546205 2.059319250101791
2.3536736820734077 1.0124154779634635 0.527036060483808 0.8142221436261367
0.9356972072682287 0.6711589254179932 0.08045916710196624 0.1840791147482692
0.39047761330843256 0.3926271229383229 -0.002435923397169341 0.00028641376727898466
0.19559848127838642 0.19563695424099092 1.9976939029606671e-07 -3.867273199477577e-05
0.11318139249595896 0.11318139249595896 0.0 0.0
0.8934353550207119 0.11608062891527506 0.31252839210335726 0.46482633400208095
7.032804833643462 3.4088274961167393 1.5585317704668227 2.065445567059897
5.164324999147003 2.616803512932174 1.0499064036703878 1.4976150825444423
0.6342486714244492 0.14407848971163606 0.17744484448665446 0.31272533722615886
0.12795669090624917 0.12795669090624917 0.0 0.0
0.17361158862393936 0.1735737151267178 3.2435443984136475e-06 3.462995282316024e-05
0.30675335572453477 0.31655149350841616 -0.0025435282012755784 -0.00725460958260579
0.6635930871954614 0.5549651096592153 0.025068113827162855 0.08355986370908333
1.6737384963675586 0.8548783966162095 0.28762059856456806 0.5312395011867805
3.845778111759235 1.2204282256293575 1.119460830593609 1.505889055536268
7.257502206717693 1.578149428929983 2.5946473333676803 3.084705444420032
12.144177626221438 1.942710285650425 5.010878575268341 5.190588765302666
18.282304047237673 2.3286036272906285 8.233317661267767 7.7203827586792775
25.619545948062726 2.7649051927275576 12.250326437273193 10.604314318061977
34.14640776048663 3.274921805524703 17.060350074524198 13.811135880437737
43.92354958812582 3.8644013404302546 22.720789870711762 17.33835837698381
54.82275728655457 4.524191712189678 29.129740415781843 21.168825158583044
66.71642126942554 5.214470846221758 36.253643385839524 25.248307037364295
79.49924369611468 5.898908354187942 44.12993804940338 29.47039729252336
92.16986373200136 6.44431930431544 52.04720113003892 33.678343297647004
103.69671063300464 6.595579481280089 59.53708836726827 37.56404278445625
112.79975742809535 6.249592260790342 65.85537940171442 40.69478576559055
116.36933906378528 3.9046917594994444 69.82212481523932 42.64252248904658
112.7997574281088 6.249592260816493 65.85537940170599 40.694785765586275
103.69671063297058 6.595579481277703 59.5370883672473 37.564042784445604
92.16986373194855 6.444319304305485 52.0472011300104 33.67834329763263
79.49924369607045 5.898908354194612 44.129938049370175 29.470397292505655
66.71642126936604 5.21447084621746 36.2536433858042 25.248307037344418
54.82275728649193 4.524191712182384 29.12974041574675 21.16882515856278
43.92354958807858 3.864401340435712 22.72078987067918 17.33835837696368
34.14640776044073 3.2749218055257248 17.06035007449577 13.81113588041925
25.619545948020104 2.7649051927253465 12.250326437249406 10.604314318045354
18.282304047196707 2.3286036272859394 8.233317661247106 7.720382758663671
12.144177626192892 1.9427102856499185 5.010878575253134 5.19058876528984
7.2575022066974295 1.5781494289276246 2.594647333358595 3.084705444411208
3.84577811174608 1.2204282256285564 1.1194608305876754 1.5058890555298485
1.673738496360693 0.8548783966145357 0.287620598562413 0.5312395011837439
0.6635930871930136 0.5549651096580717 0.025068113826741255 0.0835598637082008
0.30675335572418205 0.316551493507813 -0.002543528201223348 -0.007254609582407434
0.1736115886238235 0.1735737151266014 3.2435443983465104e-06 3.462995282373769e-05
0.1279566909060023 0.1279566909060023 0.0 0.0
0.634248671421122 0.14407848971122011 0.17744484448535258 0.312725337224549
5.1643249991335285 2.61680351292669 1.0499064036667576 1.4976150825400822
3.6623589193128 1.9787602968006546 0.6494867544261258 1.0341118680860206
0.4725816866012052 0.18795960470083492 0.09593308660107998 0.1886889952992904
0.15390902007935725 0.1539192179315963 -5.595583971474408e-07 -9.638293841952227e-06
0.16996582459815818 0.16995153858204112 9.176681420014073e-07 1.3368347975063384e-05
0.2576837427830732 0.2632336632973359 -0.0011613953586999569 -0.004388525155562752
0.4756578182420899 0.4552187845886668 0.00048665646954602025 0.019952377183877167
1.147440417054417 0.7074490640350439 0.1395500626891629 0.3004412903302105
2.685113461847302 1.0173078648170168 0.648862394100193 1.0189432029300927
5.434998323744441 1.3525156372420286 1.8297986765609284 2.252684009941486
9.173704872202617 1.6571754910450864 3.551937033196346 3.9645923479611835
14.05135237460833 1.9784102545560365 6.041902677853009 6.0310394421992815
19.818350712043575 2.341598144870458 9.108418092563884 8.368334474609238
26.481689927534312 2.772126085468154 12.75609738224515 10.95346645982102
34.107180931162645 3.284540682604226 17.029652279276124 13.7929879692823
42.69374632904304 3.8735868074371727 21.92874311749782 16.89141640410805
52.29165093483091 4.522709634596625 27.555359172071206 20.21358212816308
62.357156806614555 5.21256321744019 33.44379022373579 23.700803365438578
73.0439647824188 5.896271494465387 39.91290668222401 27.234786605729383
83.35433522373869 6.3055597615272605 46.369524883724026 30.679250578487412
91.91656874897416 6.134851611026753 52.08622860501353 33.695488532933894
95.58729775428097 3.4659454445739346 56.27696935940168 35.844382950305274
91.91656874896121 6.134851611028349 52.086228605003896 33.69548853292895
83.35433522372088 6.305559761533521 46.369524883708266 30.679250578479124
73.04396478239218 5.896271494472547 39.91290668220219 27.234786605717417
62.35715680656721 5.212563217434616 33.44379022370916 23.700803365423454
52.29165093479529 4.522709634606787 27.555359172042316 20.213582128146204
42.693746328990706 3.8735868074248323 21.928743117473147 16.89141640409274
34.10718093111766 3.2845406826004315 17.02965227925115 13.79298796926608
26.48168992749166 2.7721260854622183 12.756097382223437 10.953466459806013
19.81835071200911 2.341598144869757 9.108418092544436 8.368334474594917
14.051352374580233 1.978410254558155 6.0419026778362985 6.031039442185782
9.17370487217972 1.6571754910447432 3.551937033184421 3.9645923479505507
5.434998323727679 1.3525156372387062 1.8297986765541245 2.252684009934847
2.685113461836595 1.0173078648149365 0.6488623940962814 1.018943202925376
1.1474404170496488 0.7074490640336487 0.13955006268783343 0.3004412903281665
0.47565781824073317 0.4552187845877552 0.00048665646942977773 0.019952377183548822
0.2576837427827808 0.2632336632969614 -0.0011613953586771502 -0.004388525155503611
0.16996582459786905 0.16995153858175735 9.176681415783688e-07 1.336834797013782e-05
0.1539090200788332 0.1539192179310599 -5.595583963068968e-07 -9.638293830423766e-06
0.47258168659903665 0.18795960470061224 0.09593308660024644 0.18868899529817768
3.662358919302337 1.9787602967960232 0.6494867544236368 1.0341118680826786
2.566506337379728 1.5075537026516252 0.4109850649260032 0.6479675698020997
0.3456421056582966 0.21601499508901087 0.032335731673805095 0.0972913788954808
0.1809644089422248 0.18079549542803294 1.6836091478681932e-05 0.00015207742271310784
0.17779501102225123 0.1777503193759631 3.637100450521998e-06 4.1054545837607023e-05
0.23173462659175462 0.2355144892900077 -0.000701998306508079 -0.0030778643917449815
0.36161410709188857 0.37076944463723216 -0.005110226939356698 -0.004045110605987121
0.7430609589466132 0.5632416393394089 0.04501678184908018 0.13480253775812417
1.7413654747492762 0.8146169856060584 0.3250971513492119 0.6016513377940056
3.63080634263365 1.098703541009169 1.0444847927790137 1.4876180088454674
6.492589790576943 1.3744220059163506 2.344548859097635 2.7736189255629577
10.032423760254328 1.6395224128814951 4.033646599315758 4.359254748057078
14.278777977615078 1.9411099411103163 6.186450150785223 6.15121788571954
19.184445111000933 2.3011848246811475 8.76656539676316 8.116694889556626
24.77884940076923 2.737626092445022 11.769637681111632 10.271585627212575
31.183300698607937 3.265598181288232 15.283131646472025 12.634570870847682
38.30564133211328 3.865928161988031 19.23723961687762 15.202473553247637
46.16910750337916 4.522496601049387 23.72286219911892 17.92374870321083
54.544910375620525 5.291704249425487 28.471720929541927 20.78148519665313
63.27919428433228 5.986840168325097 33.550886366742894 23.7414677492643
71.5168016688874 6.087768081361422 38.796021519671385 26.633012067854608
75.50212289191846 3.0979642153786564 43.333786277437454 29.070372399102364
71.51680166887992 6.08776808136056 38.796021519666944 26.633012067852405
63.279194284318855 5.98684016832997 33.55088636673122 23.741467749257687
54.54491037558808 5.2917042494189985 28.471720929525592 20.78148519664352
46.169107503335134 4.522496601033804 23.72286219910123 17.923748703200115
38.30564133207276 3.865928161983341 19.23723961685564 15.202473553233762
31.18330069858073 3.2655981812906196 15.28313164645425 12.63457087083588
24.778849400733435 2.7376260924351024 11.769637681096405 10.27158562720193
19.18444511097364 2.3011848246789635 8.76656539674873 8.116694889545933
14.278777977588794 1.9411099411086858 6.186450150771555 6.151217885708556
10.032423760228625 1.6395224128774164 4.033646599304205 4.359254748047001
6.492589790558888 1.3744220059134489 2.3445488590898433 2.773618925555599
3.6308063426239516 1.0987035410088053 1.044484792774595 1.4876180088405504
1.7413654747427805 0.8146169856046367 0.325097151347088 0.6016513377910554
0.7430609589439464 0.5632416393386339 0.0450167818484473 0.13480253775686557
0.3616141070909179 0.3707694446362051 -0.0051102269393609135 -0.004045110605926565
0.2317346265913554 0.23551448928956573 -0.0007019983064934105 -0.0030778643917168213
0.17779501102188555 0.1777503193755754 3.6371004513100767e-06 4.1054545858826825e-05
0.1809644089418026 0.1807954954275027 1.683609148681882e-05 0.00015207742281307573
0.3456421056570447 0.2160149950888794 0.032335731673389226 0.09729137889477585
2.566506337372084 1.5075537026484704 0.4109850649240372 0.6479675697995764
1.6759259005388836 1.1163249329931137 0.18963898546730626 0.36996198207846315
0.26760048722581414 0.2309919486134283 0.0049415137383709935 0.03166702487401497
0.2035831958566991 0.20368379619285534 -1.1504855512841393e-05 -8.909548064333507e-05
0.19195364630475986 0.19222630469193602 -2.839573886155065e-05 -0.0002442626483146407
0.22046925065973225 0.22325820276307767 -0.0005753284071308798 -0.0022136236962145475
0.30198993876948665 0.310105498511442 -0.0035108349017199995 -0.004604724840235482
0.48752763885820805 0.44382781304275787 0.004804850977086633 0.03889497483836342
1.011107436990866 0.619608594258127 0.11976179485351457 0.27173704787922476
2.1260094943046637 0.8337807678355786 0.48053902870709564 0.8116896977619887
3.926948701151959 1.0594189148851014 1.2102162902608053 1.6573134960060532
6.263332463668531 1.2834607121671708 2.2404925432675094 2.7393792082338524
9.08990623215998 1.536040340273856 3.5811068527095267 3.9727590391765943
12.334195096596682 1.8365935087552114 5.17233830893715 5.325263278904319
16.035318129240984 2.2009927155077995 7.028956433136415 6.805368980596775
20.31133104311762 2.657131669613607 9.215528093183472 8.438671280320529
25.239550420877872 3.2153766194202937 11.776337741555176 10.247836059902408
30.762745725508715 3.8401012818904685 14.697038375768102 12.225606067850144
36.81134966328101 4.545339580806028 17.91382368170423 14.352186400770751
43.90965194362567 5.494571753278487 21.680026672481553 16.73505351786562
51.850496834154725 6.115625328178095 26.271650304183623 19.463221201792987
56.35108936373684 2.8578632855496013 31.112587015965513 22.38063906222172
51.85049683415533 6.115625328178806 26.27165030418353 19.463221201793
43.90965194360475 5.494571753267799 21.680026672475183 16.735053517861743
36.81134966326731 4.545339580809619 17.91382368169364 14.352186400764037
30.76274572549954 3.840101281902597 14.697038375755344 12.225606067841593
25.239550420855927 3.215376619420961 11.77633774154182 10.247836059893164
20.311331043095493 2.657131669612556 9.215528093171311 8.438671280311626
16.035318129229328 2.2009927155112003 7.028956433127926 6.805368980590207
12.334195096577302 1.8365935087509928 5.172338308928905 5.325263278897404
9.089906232140418 1.5360403402690495 3.5811068527016374 3.972759039169733
6.263332463655474 1.2834607121671782 2.2404925432609537 2.7393792082273434
3.926948701142584 1.0594189148846649 1.210216290256481 1.6573134960014384
2.126009494297641 0.8337807678341973 0.4805390287046057 0.8116896977588388
1.0111074369871218 0.6196085942573446 0.11976179485239424 0.2717370478773831
0.4875276388564992 0.4438278130418515 0.0048048509768152114 0.038894974837832705
0.3019899387688214 0.3101054985104175 -0.0035108349016640915 -0.0046047248399320026
0.2204692506590842 0.2232582027621897 -0.0005753284071053159 -0.0022136236960002055
0.19195364630423434 0.1922263046913756 -2.8395738854671433e-05 -0.00024426264828656194
0.20358319585646775 0.2036837961925448 -1.1504855510457471e-05 -8.90954805666069e-05
0.26760048722493424 0.23099194861315114 0.004941513738154978 0.03166702487362809
1.6759259005336682 1.1163249329906442 0.1896389854661776 0.3699619820768467
1.0697025286412978 0.8348638020174928 0.07093457870480588 0.16390414791899927
0.2175849335006506 0.22642439380493318 -0.005000393113502789 -0.0038390671907798926
0.2195786709961792 0.21904767193923394 6.9074918115685e-05 0.00046192413882958466
0.2085661286197014 0.20826411145530999 3.1593265996914186e-05 0.0002704238983943532
0.22151126988114955 0.22354185777273936 -0.0005036757855263113 -0.0015269121060635556
0.27572326425307025 0.28047340403738946 -0.0020399013732442586 -0.00271023841107484
0.3682467319340339 0.35292946365556915 0.0008788549101844028 0.014438413368280334
0.5391367843980891 0.4327317926329219 0.024182310208573 0.08222268155659393
0.9549037039574526 0.5493854070913486 0.12489073677951155 0.280627560086592
1.7603389986607014 0.6912445006612044 0.3888122155807041 0.680282282418793
2.9749086632155666 0.8505515993482158 0.869057258701982 1.2552998051653685
4.432873920369707 1.0331098140704909 1.4617781127000762 1.9379859935991401
6.170289648892015 1.258911873713573 2.2147637236587183 2.6966140515197234
8.198548896430365 1.5445062072750095 3.11807415823998 3.535968530915378
10.58010152253217 1.912776434910313 4.189133237326963 4.47819185029489
13.448397101526714 2.3982733807682144 5.486922885883429 5.563200834875074
16.914220302869484 2.9998731153607388 7.087069100422648 6.827278087086104
20.91163096081324 3.616825488319694 9.03124682090743 8.263558651586115
25.72210287158399 4.42022336021827 11.36343316482658 9.938446346539132
32.82046564759718 5.881580624032116 14.69234469529101 12.24654032827406
39.07105243600717 2.91420895909688 20.291438748651114 15.865404728259177
32.820465647596826 5.881580624026184 14.69234469529438 12.24654032827626
25.722102871581168 4.420223360219067 11.363433164824418 9.938446346537681
20.911630960797396 3.616825488315192 9.031246820900865 8.263558651581343
16.914220302842327 2.999873115348536 7.0870691004140935 6.8272780870797
13.44839710151333 2.398273380767582 5.486922885876399 5.563200834869347
10.580101522517632 1.912776434905006 4.1891332373220465 4.478191850290583
8.19854889641997 1.5445062072731919 3.1180741582354186 3.5359685309113598
6.1702896488852295 1.258911873714349 2.2147637236548956 2.6966140515159824
4.432873920361909 1.0331098140695891 1.4617781126967009 1.9379859935956205
2.974908663205519 0.8505515993449118 0.8690572586988147 1.2552998051617938
1.7603389986554574 0.6912445006600609 0.38881221557891027 0.6802822824164865
0.9549037039559177 0.5493854070918449 0.12489073677878212 0.28062756008529044
0.5391367843968695 0.4327317926325946 0.024182310208279385 0.08222268155599582
0.3682467319330216 0.3529294636548441 0.0008788549100964432 0.014438413368080784
0.2757232642525929 0.2804734040365474 -0.0020399013732064065 -0.0027102384107479706
0.2215112698807637 0.22354185777219346 -0.0005036757855035584 -0.0015269121059261262
0.20856612861929408 0.2082641114547511 3.1593266010644156e-05 0.00027042389853227614
0.21957867099596337 0.219047671938852 6.907491813301028e-05 0.00046192413897841835
0.21758493350022884 0.22642439380463916 -0.005000393113527392 -0.0038390671908828185
1.069702528638116 0.8348638020158258 0.07093457870424613 0.16390414791804364
0.6650574385066492 0.6105772035938427 0.011421323418064247 0.043058911494742315
0.19371727091180027 0.20258515886061412 -0.0019727300330970397 -0.006895157915716861
0.22893626472294948 0.22961767137743663 -8.052063278670796e-05 -0.0006008860217004479
0.22489170472503095 0.22432604982228835 6.749772210868949e-05 0.0004981571806339784
0.23270944841691943 0.23345401211152364 -0.000338730792185702 -0.00040583290241845497
0.27259949362217994 0.27445328537535096 -0.0013900399690554577 -0.00046375178411551225
0.3400549511408558 0.3202057696674379 0.003257100979004152 0.016592080494413883
0.39549696549021884 0.32014186762476543 0.01880010908540696 0.05655498878004664
0.4481590027293012 0.2769079918373734 0.05516804318073201 0.11608296771119576
0.5896963475172455 0.25879283231881317 0.11625197642223405 0.2146515387761985
0.9234918588262819 0.2992975050159809 0.2477864430587022 0.376407910751599
1.42971488842672 0.3080925245693673 0.4488318633007463 0.6727905005566054
2.1076041245493227 0.31512776471264015 0.7505304299835733 1.0419459298531106
2.9394027923893837 0.3491084301903122 1.1287735926148932 1.4615207695841792
3.9460502119627474 0.4307339860445788 1.5852806107305724 1.930035615187597
5.129412953068753 0.5814810750496101 2.1061924746725667 2.4417394033465762
6.539407618707971 0.8261314705657937 2.7233265649060674 2.989949583236109
8.1497285620873 1.1423642540687329 3.4376762380353307 3.5696880699832336
10.386101935388664 1.642363110332496 4.4021932759930715 4.3415455490631025
16.320000229106352 3.6288627880393522 6.391101350134414 6.3000360909325845
27.304353541927043 3.176430498960083 12.905867215011773 11.222055827955192
16.320000229124563 3.628862788052343 6.3911013501375065 6.300036090934714
10.38610193538711 1.6423631103335161 4.402193275991604 4.341545549061992
8.149728562063764 1.1423642540553123 3.4376762380300545 3.569688069978398
6.539407618706075 0.8261314705704622 2.723326564902485 2.9899495832331238
5.129412953059672 0.5814810750469235 2.1061924746693474 2.4417394033434014
3.946050211959793 0.4307339860453872 1.5852806107285948 1.93003561518581
2.939402792380454 0.34910843018694826 1.1287735926122586 1.4615207695812464
2.1076041245431414 0.3151277647120698 0.7505304299808546 1.0419459298502174
1.4297148884219213 0.30809252456919 0.4488318632986156 0.6727905005541155
0.9234918588250494 0.2992975050170171 0.24778644305754255 0.3764079107504888
0.5896963475171975 0.25879283231910344 0.11625197642209842 0.21465153877599613
0.4481590027274984 0.27690799183658954 0.0551680431803116 0.11608296771059702
0.395496965489881 0.32014186762484087 0.01880010908528537 0.0565549887797548
0.34005495114004286 0.32020576966675346 0.003257100978915634 0.01659208049437367
0.2725994936217537 0.2744532853748871 -0.0013900399690465071 -0.00046375178408703975
0.23270944841642704 0.23345401211086148 -0.00033873079216734336 -0.00040583290226713857
0.22489170472492312 0.22432604982200305 6.749772212938292e-05 0.0004981571807905767
0.22893626472265138 0.2296176713769853 -8.05206327639617e-05 -0.0006008860215700207
0.19371727091173588 0.20258515886029324 -0.001972730033050986 -0.006895157915506384
0.6650574385049052 0.6105772035926832 0.011421323417865932 0.04305891149435622
0.42532965102354053 0.425368987781501 -0.00015903432404523363 0.00011969756608490499
0.18116251462279928 0.18146247535051513 -1.2983709882337847e-05 -0.0002869770178334813
0.23204901527168276 0.23176404768245773 8.60215664318055e-06 0.00027636543258187645
0.23870421514657555 0.23797933629483672 8.117804066732914e-05 0.000643700811071514
0.25017437807293547 0.24960849874538885 -0.0001591815267817464 0.0007250608543282579
0.2936255491480184 0.2927819867667083 -0.001085111250564135 0.0019286736318743303
0.3807643386477593 0.3604745716063318 0.0029464039662564882 0.017343363075171137
0.5463065308924473 0.4348930333225521 0.026151812952508537 0.08526168461738663
0.9571769202655875 0.5493121551731708 0.12581400896608705 0.28205075612633007
1.759515970930547 0.6908697991130461 0.3885465254319489 0.6800996463855513
2.979782705035574 0.8525083427807015 0.8708678850006422 1.2564064772542312
4.455992593025439 1.0369449089981073 1.4726543451539804 1.9463933388733525
6.216682320850664 1.2649217406985889 2.23528280390716 2.7164777762449144
8.23679839362056 1.543426251702872 3.1398125037037445 3.5535596382139425
10.442478348181261 1.8730026246411615 4.139158877769456 4.430316845770644
12.707597969110193 2.254460446794437 5.168340748046094 5.284796774269659
14.745149859400627 2.6675330935485113 6.07401170050575 6.003605065346369
16.36742610986834 3.1563514512406554 6.7567749743857 6.4542996842419935
16.931958539254484 3.5005903066118 6.926421997098002 6.504946235544684
13.75547724887348 2.469517978981295 5.948343398643891 5.337615871248285
27.657089937864374 4.906959447716506 11.949375446897175 10.80075504325069
13.755477248868814 2.4695179789715693 5.948343398646799 5.337615871250446
16.931958539246104 3.500590306605509 6.926421997096714 6.504946235543885
16.367426109876245 3.156351451259425 6.756774974379542 6.454299684237265
14.745149859377502 2.6675330935391797 6.074011700498038 6.0036050653402935
12.70759796909099 2.2544604467893072 5.168340748038367 5.284796774263307
10.442478348169557 1.873002624640415 4.13915887776367 4.4303168457654785
8.236798393611839 1.5434262517059256 3.139812503697536 3.553559638208381
6.216682320834503 1.2649217406959474 2.2352828039002586 2.716477776238294
4.455992593012331 1.0369449089967948 1.472654345148208 1.9463933388673293
2.9797827050221395 0.8525083427776665 0.8708678849957063 1.2564064772487653
1.7595159709235932 0.6908697991111399 0.3885465254297626 0.6800996463826909
0.9571769202627971 0.5493121551733283 0.1258140089650016 0.2820507561244673
0.5463065308905838 0.43489303332152196 0.02615181295222778 0.08526168461683406
0.38076433864702136 0.36047457160566043 0.0029464039662120472 0.017343363075148388
0.29362554914736033 0.29278198676575057 -0.0010851112505475236 0.0019286736321572993
0.2501743780723536 0.24960849874464416 -0.00015918152676514834 0.000725060854474581
0.23870421514640255 0.23797933629446838 8.117804068646063e-05 0.0006437008112477695
0.23204901527143557 0.2317640476821266 8.602156644935973e-06 0.0002763654326639018
0.18116251462256427 0.18146247535030538 -1.298370988761896e-05 -0.0002869770178533778
0.4253296510229749 0.42536898778066284 -0.00015903432401692582 0.00011969756632900915
0.27469608482587815 0.2747697013530267 -5.074825948644306e-06 -6.854170119983136e-05
0.1672306585255903 0.1672876096128198 -3.6186896081899782e-06 -5.333239762133215e-05
0.22876240496945352 0.22932630385042635 -8.412480962458707e-05 -0.0004797740713481839
0.24841041212984752 0.24741382598038164 8.142473743852024e-05 0.000915161412027354
0.27205819365514194 0.27368048982797655 -0.0005166789699501132 -0.0011056172028843607
0.3375438355077767 0.3375835904909561 -0.0011509354071581484 0.0011111804239784654
0.5071062772046381 0.445341760138687 0.009260861756339717 0.0525036553096114
1.0206365064325609 0.6204876216928761 0.12337996155658432 0.27676892318310053
2.1263903191490585 0.8334558185696448 0.4808027229858364 0.8121317775935769
3.9257675584014775 1.0594067567116503 1.2095074245764306 1.6568533771133964
6.268864839295371 1.2845502711673316 2.2426334572857076 2.7416811108423293
9.111098712521159 1.5389948061870096 3.5907576779900996 3.981346228344046
12.372928319661336 1.8392607158604013 5.192235748097866 5.341431855703076
16.05055140248798 2.1909942188662024 7.043684380317609 6.81587280330416
20.131345627447615 2.5997520235944713 9.146454457476356 8.385139146376783
24.438117738412796 3.0549394931941523 11.40262682588445 9.980551419334178
28.619110711539854 3.561965990744234 13.585301267291529 11.471843453504093
32.15540333725642 4.14364476194718 15.334071229991876 12.677687345317354
33.876655389990034 4.416978300980861 16.22607447733003 13.233602611679126
31.5003644932746 4.317163568375511 14.958026755240626 12.225174169658455
38.8430406582115 9.22495857925361 16.265532144588047 13.352549934369833
31.500364493289116 4.317163568382684 14.958026755245156 12.225174169661278
33.87665538999388 4.416978300985596 16.22607447732949 13.233602611678783
32.15540333722682 4.143644761934273 15.334071229981744 12.677687345310812
28.61911071151368 3.561965990743159 13.585301267276515 11.471843453493989
24.438117738389955 3.054939493195225 11.402626825870428 9.980551419324305
20.131345627419375 2.5997520235883997 9.146454457463562 8.385139146367406
16.050551402463846 2.190994218862237 7.043684380306289 6.815872803295319
12.372928319637282 1.8392607158592338 5.192235748085297 5.341431855692753
9.111098712497927 1.5389948061846768 3.5907576779789765 3.981346228334275
6.268864839277754 1.2845502711682988 2.2426334572763054 2.7416811108331482
3.925767558386051 1.0594067567088905 1.2095074245702788 1.6568533771068832
2.1263903191414024 0.8334558185691376 0.4808027229827062 0.8121317775895581
1.020636506428879 0.6204876216917168 0.12337996155564104 0.27676892318152113
0.5071062772025665 0.4453417601376417 0.009260861755984994 0.052503655308939925
0.3375438355069988 0.3375835904900093 -0.0011509354071292848 0.001111180424118701
0.27205819365430234 0.2736804898270501 -0.0005166789699361158 -0.0011056172028116207
0.24841041212935402 0.2474138259797224 8.142473745279807e-05 0.0009151614121787534
0.22876240496903408 0.22932630384993863 -8.412480961926946e-05 -0.0004797740712853348
0.16723065852540844 0.16728760961266728 -3.618689609771073e-06 -5.3332397649088066e-05
0.27469608482539526 0.27476970135255085 -5.074825949206164e-06 -6.854170120644613e-05
0.17037702921292341 0.17037702921292341 0.0 0.0
0.14830725207411183 0.1483115563058624 -1.4328105404036436e-07 -4.160950696500454e-06
0.21865774799236162 0.2190924974901297 -5.917076456191234e-05 -0.0003755787332061702
0.2543209450039665 0.2550357680457919 -0.00016033773314416436 -0.0005544853086812444
0.2976431714032734 0.2984355063850229 -0.0005007470238676997 -0.00029158795788184616
0.40467602822937254 0.3897011559457326 -0.0004611905323568433 0.015436062815997183
0.7719275212457049 0.5705480780491852 0.05480423016914924 0.14657521302737028
1.7476980987451554 0.8149414539634847 0.32826403458699094 0.6044926101946805
3.6285722649605128 1.0987175363734125 1.043364519263554 1.4864902093235441
6.49297403209648 1.3748596145278906 2.344773473807227 2.773340943761363
10.038401773007973 1.6402900602115735 4.035153634453688 4.3629580783427135
14.293747043213195 1.942328898667635 6.19419779317364 6.157220351371925
19.197970150928136 2.300112880370727 8.775054247201089 8.12280302335631
24.746329829414666 2.72091268148974 11.76056228105043 10.264854866874504
30.963624925630032 3.200656205260753 15.190571070274114 12.572397650095148
37.59093194637972 3.7222265032023323 18.888941902705437 14.979763540471954
44.34139701538928 4.277815954660866 22.741618118909713 17.321962941818704
50.0212472385035 4.712157767529004 25.99589861104822 19.313190859926284
52.86987655232873 4.826692209975802 27.718137308622605 20.32504703373032
49.33650839382981 4.288531092937634 25.854010827869402 19.193966473022773
55.26657164520778 12.247393724446946 24.55129304509775 18.467884875663092
49.33650839382844 4.288531092930674 25.854010827872912 19.19396647302483
52.86987655231012 4.826692209963769 27.718137308618424 20.325047033727948
50.02124723847312 4.712157767525445 25.995898611031357 19.313190859916322
44.34139701535304 4.277815954659054 22.741618118888333 17.321962941805648
37.590931946327544 3.7222265031880433 18.888941902682213 14.97976354045728
30.9636249255923 3.200656205258032 15.190571070253082 12.572397650081175
24.746329829380734 2.7209126814879854 11.760562281031454 10.264854866861297
19.1979701508931 2.300112880369479 8.775054247181657 8.122803023341966
14.293747043183503 1.9423288986675469 6.194197793157124 6.157220351358821
10.038401772981638 1.640290060210287 4.0351536344402446 4.362958078331112
6.492974032074759 1.3748596145271523 2.344773473796454 2.773340943751154
3.628572264947074 1.0987175363711628 1.0433645192582357 1.4864902093176748
1.747698098737901 0.8149414539619744 0.32826403458458553 0.604492610191342
0.7719275212423546 0.5705480780482043 0.05480423016832342 0.14657521302582666
0.4046760282282481 0.38970115594466365 -0.00046119053239528345 0.01543606281597989
0.2976431714027508 0.2984355063841927 -0.0005007470238319896 -0.00029158795760986234
0.25432094500390623 0.25503576804555356 -0.00016033773312015045 -0.0005544853085270856
0.21865774799186244 0.21909249748966825 -5.917076456704784e-05 -0.0003755787332388335
0.14830725207406578 0.14831155630580634 -1.432810533475878e-07 -4.1609506871892085e-06
0.17037702921239334 0.17037702921239334 0.0 0.0
0.0999085558295814 0.0999085558295814 0.0 0.0
0.1247529211916692 0.12474869511794179 2.3276924337965782e-07 3.99330448403657e-06
0.2026866986913572 0.2029156118847007 -2.8068798119485733e-05 -0.00020084439522405717
0.2567365205163153 0.2571499351337326 -0.00014584359809396112 -0.00026757101932333046
0.3268087891058008 0.3303711348587682 -0.0013583068978622209 -0.002204038855105097
0.5233801638213214 0.4725501989767503 0.010176121063094356 0.040653843781476684
1.1649980665221937 0.7042613524036961 0.14655034674798126 0.3141863673705161
2.685899419929983 1.0178362868402824 0.6494513037221715 1.0186118293675286
5.432107564747167 1.3531625468131607 1.8279771685344475 2.2509678493995575
9.17588679713193 1.657847716752079 3.552540231025991 3.9654988493538625
14.058672052873348 1.978327882068304 6.046284675989737 6.034059494815306
19.819393109896563 2.338947941499002 9.11061075123211 8.369834417165452
26.45247973619316 2.763444917540573 12.744098767428856 10.944936051223753
34.00956517694101 3.2627297120122383 16.983932260482398 13.762903204446353
42.468114104391105 3.8266697489493273 21.8183188555518 16.823125499889986
51.77059309886784 4.426529639012308 27.28779195017841 20.05627150967715
60.88432069466668 4.942610952063873 32.6767797907882 23.26492995181461
68.77985958417975 5.18813876660228 37.62022375235583 25.971497065221623
72.4697945838973 4.88892387003751 40.22799766116245 27.352873052697333
67.96677983969789 4.36842203474027 37.654945039149155 25.94341276580846
73.70632990571745 15.226692808216855 34.317293465931705 24.1623436315689
67.9667798397004 4.368422034742069 37.654945039149695 25.94341276580864
72.46979458387901 4.888923870036085 40.22799766115151 27.35287305269145
68.77985958414877 5.188138766607259 37.620223752332606 25.97149706520889
60.88432069462213 4.942610952062016 32.676779790761024 23.26492995179907
51.770593098822644 4.426529639019266 27.28779195014559 20.056271509657794
42.46811410434513 3.826669748949096 21.818318855523568 16.82312549987246
34.00956517688834 3.2627297120056937 16.983932260454434 13.762903204428207
26.452479736151673 2.7634449175427447 12.744098767403004 10.944936051205925
19.819393109857533 2.338947941496563 9.110610751211121 8.369834417149859
14.058672052836227 1.9783278820638475 6.046284675971673 6.034059494800703
9.17588679710446 1.6578477167520695 3.5525402310114877 3.9654988493409045
5.432107564728466 1.3531625468099535 1.8279771685266106 2.2509678493919036
2.6858994199196924 1.0178362868392115 0.6494513037179751 1.0186118293625062
1.1649980665164745 0.7042613524018191 0.14655034674646436 0.31418636736819067
0.5233801638195186 0.47255019897555317 0.010176121062915995 0.040653843781049394
0.3268087891051822 0.3303711348578591 -0.0013583068978122524 -0.002204038854864737
0.2567365205160304 0.2571499351332006 -0.00014584359807441935 -0.00026757101909582115
0.20268669869112088 0.20291561188449628 -2.8068798123015587e-05 -0.00020084439525234053
0.12475292119141335 0.12474869511768596 2.3276924336996675e-07 3.9933044839934034e-06
0.0999085558292804 0.0999085558292804 0.0 0.0
0.055092769315687254 0.055092769315687254 0.0 0.0
0.09915066421799629 0.09915066421799629 0.0 0.0
0.18223224797630722 0.182266685734624 -4.103503973798182e-06 -3.033425434298484e-05
0.2566487263451254 0.25802044020048637 -0.0002502089984701676 -0.0011215048568908432
0.36458851302974704 0.36368629751360504 -0.0015433116990995971 0.002445527215241586
0.7026457381530407 0.5659280513709783 0.036592690617588415 0.10012499616447357
1.6863236012122806 0.8545427909338031 0.2942499819729747 0.537530828305503
3.843192137619544 1.221739128863605 1.1177958470603326 1.5036571616956054
7.256239513606858 1.5792337145939699 2.5935816320326874 3.083424166980205
12.148743352049545 1.9433204752998963 5.012975222799563 5.192447653950079
18.286777266542327 2.3270198068007786 8.236777555685395 7.72297990405616
25.600104416192416 2.7562531805443307 12.243997419003696 10.599853816644393
34.06283566694254 3.254868363781214 17.021955503267936 13.786011799893393
43.75489879288349 3.8404245705159314 22.631239775651867 17.283234446715703
54.60373716851361 4.511748811673978 28.999222744801255 21.092765612038377
66.3812422071027 5.166635662746917 36.068721827948096 25.145884716407668
78.35861335182813 5.611567234550332 43.5740083150368 29.173037802240984
88.08338513396792 5.545044655864424 49.952064503376135 32.58627597472733
92.26130541523003 4.861114610190799 53.11370637487745 34.28648443016176
87.28342102393219 4.588983553289095 50.07149547489398 32.622941995749116
93.82515777171864 18.221733112409105 45.43577461247589 30.167650046833625
87.28342102390366 4.588983553268545 50.07149547488876 32.622941995746324
92.26130541519673 4.861114610185476 53.11370637485889 34.28648443015232
88.08338513392762 5.545044655867572 49.952064503347664 32.586275974712386
78.3586133517594 5.61156723453629 43.57400831500125 29.17303780222189
66.38124220704367 5.166635662749112 36.0687218279088 25.14588471638576
54.60373716844798 4.511748811666801 28.999222744764367 21.092765612016795
43.754898792829664 3.840424570520428 22.631239775615764 17.28323444669348
34.0628356668845 3.2548683637767093 17.02195550323552 13.786011799872286
25.60010441613879 2.7562531805384056 12.24399741897556 10.599853816624828
18.286777266497023 2.327019806797755 8.236777555661286 7.722979904037982
12.148743352015572 1.9433204752990978 5.012975222781469 5.192447653935002
7.256239513582579 1.579233714589806 2.593581632022524 3.0834241669702496
3.8431921376051568 1.2217391288621204 1.1177958470541072 1.5036571616889283
1.6863236012046834 0.8545427909326301 0.294249981970306 0.537530828301749
0.7026457381502939 0.5659280513695272 0.03659269061713594 0.10012499616363038
0.3645885130289629 0.3636862975127571 -0.0015433116991035699 0.0024455272153095873
0.25664872634468894 0.25802044019999126 -0.0002502089984628803 -0.0011215048568395814
0.18223224797608123 0.18226668573442117 -4.103503975920531e-06 -3.0334254363973628e-05
0.09915066421781916 0.09915066421781916 0.0 0.0
0.055092769315725494 0.055092769315725494 0.0 0.0
0.028477727149636554 0.028477727149636554 0.0 0.0
0.07448591692081684 0.07448591692081684 0.0 0.0
0.15972885877650134 0.15972204201283347 3.960330448053176e-07 6.420730623111643e-06
0.2564603063119031 0.2576781218525175 -0.00023573605063239637 -0.0009820794899819286
0.42481784018541596 0.41641784932027903 0.00048792527553297594 0.007912065589603761
0.9441666125673335 0.6577919442084726 0.08331339126189452 0.2030612770969659
2.3581946359849453 1.0126645343875218 0.5303203904565216 0.8152097111409012
5.034547585194849 1.401048572260461 1.5761981356789625 2.057300877255426
9.319910959336902 1.8066675603376559 3.563687794292358 3.949555604706885
15.229162531580606 2.236146843151237 6.5586791766065975 6.434336511822778
22.695201186849232 2.6952134908334218 10.576545249743878 9.423442446271931
31.63192098841261 3.2031608264408846 15.588969742343128 12.839790419628596
42.03417963632717 3.786227424806538 21.60696133070738 16.64099088081324
53.77180214664347 4.464140457467275 28.48888065283444 20.818781036341786
67.1129311764521 5.224839163977256 36.52499811477263 25.36309389770219
81.61405339374488 5.949337317036603 45.462952300744995 30.201763775963297
95.92602336077893 6.2834028906142905 54.611633943637806 35.030986526526824
107.57548842636331 5.847814098142972 62.63244974733845 39.095224580881926
112.70636825768217 4.853031658933978 66.72915220493259 41.12418439381567
107.49203414521476 4.864256570647018 63.243204827902716 39.38457274666505
115.1950986562401 21.200727694589975 57.48214806125405 36.51222290039609
107.492034145208 4.8642565706553995 63.24320482789251 39.38457274666001
112.70636825764768 4.85303165893801 66.72915220490684 41.12418439380287
107.57548842630554 5.847814098139897 62.63244974730192 39.09522458086367
95.92602336071396 6.283402890616157 54.6116339435936 35.030986526504186
81.61405339367226 5.949337317034512 45.46295230069896 30.201763775938804
67.11293117638132 5.224839163977095 36.52499811472723 25.363093897677008
53.77180214657355 4.464140457464957 28.48888065279175 20.818781036316828
42.034179636261136 3.7862274248056935 21.60696133066716 16.640990880788273
31.631920988352945 3.203160826439381 15.588969742308187 12.839790419605373
22.69520118679627 2.695213490831616 10.576545249714123 9.423442446250526
15.229162531540457 2.2361468431502747 6.558679176584719 6.4343365118054665
9.319910959308054 1.8066675603336113 3.56368779427943 3.949555604695009
5.034547585176581 1.4010485722572537 1.576198135671585 2.057300877247744
2.3581946359749324 1.0126645343860154 0.5303203904527115 0.815209711136203
0.9441666125633644 0.6577919442067826 0.08331339126102996 0.20306127709555183
0.4248178401843497 0.41641784931938963 0.000487925275474336 0.007912065589485701
0.25646030631149913 0.2576781218520247 -0.00023573605062545002 -0.0009820794899001095
0.15972885877616472 0.15972204201249773 3.960330447626668e-07 6.4207306222634735e-06
0.07448591692074663 0.07448591692074663 0.0 0.0
0.028477727149711776 0.028477727149711776 0.0 0.0
0.013949544480608297 0.013949544480608297 0.0 0.0
0.05317279626914656 0.05317279626914656 0.0 0.0
0.138021486350673 0.1380189840260013 1.22441077168008e-07 2.379883594554421e-06
0.2602648062358704 0.2619544786416563 -0.00032909994397172264 -0.0013605724618144135
0.5150635492890613 0.4775966006899217 0.00809940909957807 0.02936753949956163
1.2802594279813524 0.777382812167123 0.170119213883438 0.33275740193079173
3.0940952113019793 1.1559596781023005 0.7827805135781187 1.1553550196215594
6.3745837111739005 1.5696376836912307 2.1600294986991218 2.6449165287835465
11.458495171330629 2.0356175281806617 4.589066959218358 4.833810683931615
18.437044562635776 2.540397774407644 8.209456766976707 7.687190021251413
27.243776198869583 3.0836843923507797 13.029863681443924 11.130228125074895
37.861886419403696 3.685684181334377 19.0894061998981 15.086796038171226
50.12980890090935 4.361820268026726 26.260340249912883 19.507648382969744
64.2760502669228 5.125935584039465 34.78826965055756 24.361845032325753
79.94642913603488 5.964208329626661 44.35313952568945 29.62908128071878
96.83296866781876 6.722972276337625 54.90507544158475 35.20492094989639
113.68761957104046 6.9666593203901686 65.96678671164632 40.754173539004015
127.3551463460588 6.196729297993039 75.67163872913426 45.48677831893152
133.74402328405856 4.8868624819576425 80.86994118064958 47.98721962145131
128.89385271256216 5.131199300420612 77.44276656739056 46.319886844751
138.36830825693153 24.119256110085697 71.0256872338142 43.223364913031645
128.89385271253423 5.131199300411459 77.44276656737783 46.31988684474495
133.74402328402 4.886862481964433 80.86994118061881 47.987219621436644
127.35514634599238 6.196729297995606 75.67163872908753 45.48677831890925
113.68761957096237 6.966659320388726 65.96678671159503 40.754173538978584
96.83296866772736 6.722972276327766 54.90507544153075 35.20492094986874
79.94642913594815 5.964208329623385 44.353139525635065 29.62908128068974
64.27605026683278 5.12593558402966 34.788269650506265 24.36184503229687
50.12980890083129 4.3618202680250855 26.260340249864974 19.507648382941216
37.8618864193295 3.6856841813295933 19.089406199855766 15.08679603814415
27.24377619880941 3.083684392349333 13.029863681409179 11.130228125050909
18.43704456258966 2.5403977744054558 8.209456766951675 7.687190021232523
11.45849517129474 2.03561752817547 4.589066959201795 4.8338106839174735
6.3745837111501915 1.56963768368681 2.1600294986896906 2.644916528773691
3.0940952112896274 1.1559596781003072 0.7827805135733378 1.1553550196159827
1.2802594279766786 0.7773828121656332 0.17011921388215095 0.3327574019288938
0.5150635492879747 0.4775966006891235 0.008099409099472935 0.029367539499378002
0.2602648062353544 0.26195447864095445 -0.0003290999439601453 -0.0013605724616396627
0.13802148635041533 0.13801898402574683 1.2244107697319608e-07 2.3798835915387224e-06
0.05317279626908133 0.05317279626908133 0.0 0.0
0.013949544480582731 0.013949544480582731 0.0 0.0
0.006738541279638748 0.006738541279638748 0.0 0.0
0.036725317422009414 0.036725317422009414 0.0 0.0
0.1202996072136447 0.1202996072136447 0.0 0.0
0.2748798318135011 0.2778733583489966 -0.0006475165381967586 -0.0023460099972986113
0.6455543866234112 0.5490512537815724 0.024180443728945282 0.07232268911289359
1.702557130706151 0.8978981234270351 0.2967584004539148 0.5079006068252016
3.9049543217483285 1.279290172085003 1.0882693601590152 1.5373947895043092
7.800460071610078 1.7373940960295238 2.8073995433036556 3.2556664322769
13.674558016912359 2.26617873434959 5.678429635255512 5.72994964730726
21.730487388652932 2.8551234382767334 9.92948321183219 8.945880738544016
31.9491497795582 3.497325092279044 15.612092601235581 12.839732086043561
44.23040522387946 4.200896298354946 22.6914598515793 17.338049073945218
58.665857465362414 4.986705420059457 31.30142949053626 22.377722554766667
74.88743819860849 5.843842331817881 41.12170101295093 27.921894853839685
92.9790225581387 6.700767360695037 52.39004401377878 33.888211183664836
112.26056981024189 7.418155354411866 64.7112008627207 40.13121359310928
131.3828972994657 7.651161986362791 77.4071619941029 46.324573319
147.28219887782325 6.734336385182429 88.82781789152793 51.72004460111283
155.42243303815258 4.93611020302353 95.65615955645808 54.83016327867098
151.76005286029232 5.329454481577244 92.89110163291063 53.53949674580437
163.5691063087421 26.86342734479609 86.21253850266204 50.49314046128397
151.7600528602506 5.329454481563579 92.89110163289115 53.539496745795795
155.42243303807874 4.9361102030091955 95.65615955641742 54.830163278652144
147.28219887775174 6.734336385192082 88.82781789147269 51.72004460108701
131.38289729936696 7.651161986352479 77.40716199404304 46.3245733189715
112.26056981013714 7.418155354404839 64.71120086265535 40.131213593076914
92.97902255804176 6.700767360697604 52.39004401371326 33.888211183630915
74.88743819851035 5.843842331813959 41.12170101288994 27.92189485380649
58.66585746527066 4.986705420054319 31.301429490481162 22.377722554735175
44.23040522379733 4.200896298353639 22.691459851529203 17.338049073914483
31.949149779487836 3.497325092274895 15.61209260119585 12.839732086017095
21.730487388597574 2.855123438270383 9.92948321180385 8.94588073852334
13.674558016873174 2.266178734349092 5.678429635234261 5.729949647289822
7.800460071584268 1.7373940960266205 2.807399543291916 3.255666432265728
3.9049543217336877 1.279290172082725 1.0882693601534528 1.5373947894975104
1.7025571306993312 0.8978981234251106 0.29675840045187396 0.5079006068223473
0.6455543866216222 0.5490512537806187 0.02418044372863632 0.07232268911236742
0.27487983181344644 0.27787335834879273 -0.0006475165381758183 -0.0023460099971707054
0.12029960721340639 0.12029960721340639 0.0 0.0
0.03672531742197604 0.03672531742197604 0.0 0.0
0.006738541279627933 0.006738541279627933 0.0 0.0
0.003198816737117552 0.003198816737117552 0.0 0.0
0.025458900927355827 0.025458900927355827 0.0 0.0
0.11091961846846396 0.11091961846846396 0.0 0.0
0.31133885520978977 0.3127294220341099 -0.0008123896092857298 -0.0005781772150345631
0.8413320184783907 0.6437872922606652 0.06094329661606548 0.13660142960166005
2.180403259908269 1.004635784514865 0.4471998365759847 0.7285676388174198
4.81588598956114 1.403132134534915 1.4701979028782823 1.9425559521479419
9.279096539867574 1.9011342799331454 3.4952966431903043 3.8826656167441223
15.968326701640558 2.498220809767481 6.837579388911507 6.632526502961568
25.09517565372044 3.1816943488805975 11.70830465202577 10.205176652814082
36.7290919278894 3.931889816852329 18.24720375527414 14.549998355762916
50.871166274841464 4.756485303435136 26.525185326619795 19.58949564478653
67.2037381155803 5.66052182593143 36.28451530900814 25.25870098064076
85.86265050785696 6.596637138248861 47.785427991132785 31.48058537847527
106.32812450831867 7.462935860929372 60.72397894113014 38.14120970625919
127.77226874252429 8.057157625551588 74.6979713457569 45.017139771215746
148.78797986975508 8.15305333379687 88.91246680976384 51.72245972619439
166.98800662562337 7.4600239092313885 101.882843742508 57.645138973884
177.50220366845107 5.211076292755685 110.70081328993597 61.5903140857594
176.31761449966143 5.254910470552613 109.87746024087116 61.18524378823761
191.21686666193182 28.56762585850991 104.03140899129602 58.61783181212597
176.31761449962 5.254910470549548 109.87746024084471 61.18524378822573
177.50220366840838 5.211076292781635 110.70081328988891 61.590314085737816
166.98800662553504 7.460023909235048 101.88284374244476 57.645138973855246
148.78797986964142 8.153053333786938 88.91246680969272 51.722459726161645
127.7722687424166 8.057157625556371 74.69797134568122 45.01713977117911
106.3281245082197 7.462935860940886 60.72397894105664 38.14120970622218
85.86265050774838 6.596637138244807 47.78542799106425 31.480585378439315
67.2037381154702 5.660521825921584 36.28451530894374 25.258700980604853
50.87116627474902 4.75648530343295 26.525185326563175 19.5894956447529
36.729091927809584 3.9318898168484364 18.247203755227872 14.549998355733278
25.09517565366223 3.1816943488766416 11.708304651993934 10.205176652791652
15.96832670159681 2.4982208097668255 6.83757938888742 6.63252650294256
9.279096539837207 1.9011342799280233 3.495296643177102 3.8826656167320786
4.815885989543318 1.4031321345317103 1.470197902871318 1.9425559521402882
2.1804032598996845 1.0046357845131237 0.4471998365730039 0.7285676388135569
0.8413320184756882 0.643787292259744 0.06094329661541778 0.13660142960052613
0.31133885520932447 0.3127294220334707 -0.0008123896092586343 -0.0005781772148873592
0.11091961846815418 0.11091961846815418 0.0 0.0
0.0254589009272837 0.0254589009272837 0.0 0.0
0.003198816737132763 0.003198816737132763 0.0 0.0
0.001013341177459108 0.001013341177459108 0.0 0.0
0.018712117951913895 0.018712117951913895 0.0 0.0
0.11686471223596873 0.11686471223596873 0.0 0.0
0.38908045226484034 0.37765215926821327 0.001845835530746966 0.009582457465880167
1.1206621122742537 0.7924385084772404 0.11196385241177731 0.21625975138523626
2.781990673487957 1.2558095029048808 0.6029267273731507 0.9232544432099231
5.8737275290394555 1.810933777169772 1.791856896238489 2.270936855631195
10.978260911756998 2.5534881267041776 4.056712682205465 4.368060102847359
18.567860242930568 3.5216765531614524 7.725580769888025 7.320602919881103
29.00121626187816 4.739039486173028 13.102609561058609 11.1595672146465
42.38982752558361 6.209625556236711 20.337188166544244 15.843013802802679
58.563095957466125 7.923346417097093 29.344149714394817 21.29559982597421
77.51604843920575 9.838710424652016 40.243430182695846 27.433907831857887
98.95242570066694 11.864339452616218 52.92275112947733 34.1653351185734
122.20106371662712 13.711588927782408 67.15616609406533 41.33330869477932
146.01367067952074 14.92607528525437 82.42747944666458 48.66011594760183
168.4745274636128 15.04929893536714 97.69176090941149 55.73346761883415
187.46210495957004 14.078695779034362 111.45874847778444 61.924660702751254
200.56924516146654 12.61672351200448 121.57309661843007 66.37942503103207
196.34999703385643 5.392365619294753 123.61049512346871 67.34713629109288
270.3837779989483 83.60579583126501 120.8149843699553 65.96299779772798
196.34999703383994 5.392365619321347 123.61049512343847 67.34713629108008
200.56924516138378 12.616723511990408 121.5730966183817 66.37942503101159
187.46210495946025 14.078695779027623 111.45874847771381 61.92466070271894
168.4745274634881 15.049298935359406 97.69176090933146 55.73346761879733
146.01367067939233 14.926075285246496 82.42747944658214 48.66011594756357
122.20106371649518 13.711588927767783 67.15616609398698 41.333308694740474
98.95242570053202 11.864339452593859 52.922751129403096 34.1653351185351
77.51604843908535 9.838710424642306 40.24343018262414 27.433907831818935
58.56309595736367 7.923346417093093 29.344149714332527 21.295599825938027
42.38982752550061 6.209625556236697 20.337188166493185 15.843013802770734
29.001216261804576 4.739039486156384 13.10260956102475 11.159567214623443
18.567860242877902 3.5216765531541014 7.725580769862326 7.320602919861491
10.978260911721975 2.5534881266976464 4.056712682190292 4.36806010283404
5.873727529018016 1.8109337771651752 1.791856896230263 2.2709368556225775
2.781990673477414 1.2558095029021221 0.6029267273698459 0.9232544432054457
1.1206621122703866 0.7924385084759544 0.11196385241078989 0.21625975138364212
0.38908045226390187 0.3776521592673492 0.001845835530732541 0.009582457465819785
0.11686471223588213 0.11686471223588213 0.0 0.0
0.018712117951874233 0.018712117951874233 0.0 0.0
0.0010133411774133165 0.0010133411774133165 0.0 0.0
CELL_DATA 800
SCALARS Stress float 6
LOOKUP_TABLE default
168.79570033865042 -521.2679458663597 -181.8539544372941 -110.17653120204596 0.0 0.0
403.21264173985986 -77.09296528131478 115.81750655631151 55.05005207488476 0.0 0.0
415.254767083293 8.564252190198943 126.97065446242505 -2.8229001991855864 0.0 0.0
474.24618287436545 -15.01178368986737 148.4655122653043 -15.329472050271512 0.0 0.0
551.6760557563647 -21.36164569364704 206.90098284836895 -11.674711967427456 0.0 0.0
626.2899448370888 -17.27534819184299 278.8685156117813 -10.310213003987174 0.0 0.0
698.5000052153977 -11.30669797540336 334.27087583560643 -11.039627191808048 0.0 0.0
771.5950463312427 2.7310525599207836 382.72684797974 -12.848216735368602 0.0 0.0
847.6258295559423 25.204270586527812 433.28566343990906 -14.63733830417368 0.0 0.0
926.1945257978903 54.98562032844815 488.04042093508247 -15.811568569589962 0.0 0.0
1005.4250310695104 89.61914531131711 545.3748012063655 -16.282664104245104 0.0 0.0
1083.897571360239 127.75180215247198 603.9778222024333 -16.2385801943848 0.0 0.0
1161.7284197756567 168.3283964670218 663.3912519734506 -16.04562453795326 0.0 0.0
1239.7622544217027 211.9254222105379 724.3508741324667 -15.73078075893314 0.0 0.0
1318.5388302855235 259.11725993241095 787.4399629988847 -15.154146406134622 0.0 0.0
1397.3075220620688 309.3190870631737 852.0075552066137 -14.120605095459226 0.0 0.0
1473.6565025341476 360.6183506332073 915.9023454064729 -12.506342771766537 0.0 0.0
1545.102083511758 411.1886278281379 976.9569450666663 -10.612914991535451 0.0 0.0
1611.28131838688 461.5578524443626 1035.1938912006353 -10.074737680732277 0.0 0.0
1708.262885575987 549.8531364136212 1127.3196653433508 -16.276062688755125 0.0 0.0
1708.262885575702 549.8531364133534 1127.3196653430946 16.27606268875399 0.0 0.0
1611.2813183855612 461.5578524430802 1035.1938911997008 10.074737680730411 0.0 0.0
1545.1020835111062 411.1886278275594 976.9569450662509 10.61291499160574 0.0 0.0
1473.6565025345824 360.6183506337576 915.9023454067203 12.506342771764066 0.0 0.0
1397.307522062792 309.3190870640391 852.0075552070261 14.120605095641405 0.0 0.0
1318.538830284818 259.1172599318582 787.4399629982911 15.154146406064784 0.0 0.0
1239.7622544208011 211.9254222097976 724.3508741318074 15.730780758748642 0.0 0.0
1161.7284197742542 168.32839646579953 663.3912519724677 16.04562453791923 0.0 0.0
1083.8975713588195 127.7518021512688 603.9778222014335 16.238580194356544 0.0 0.0
1005.4250310685565 89.61914531059793 545.3748012056902 16.28266410405577 0.0 0.0
926.1945257980445 54.98562032884928 488.040420935169 15.811568569575575 0.0 0.0
847.6258295552959 25.20427058615556 433.2856634394773 14.637338304240865 0.0 0.0
771.5950463305177 2.731052559459698 382.7268479792339 12.848216735376873 0.0 0.0
698.500005215185 -11.306697975325832 334.27087583546927 11.03962719192429 0.0 0.0
626.2899448370729 -17.275348191541354 278.8685156116774 10.310213003966417 0.0 0.0
551.6760557565781 -21.361645693066635 206.9009828484265 11.674711967438522 0.0 0.0
474.24618287448106 -15.011783689438083 148.4655122654167 15.329472050220893 0.0 0.0
415.2547670829484 8.564252190162172 126.97065446231382 2.8229001990921896 0.0 0.0
403.21264173967603 -77.09296528137955 115.81750655619942 -55.05005207476785 0.0 0.0
168.79570033914052 -521.2679458658978 -181.85395443680164 110.17653120171691 0.0 0.0
68.12408075094328 -548.4487344178776 -243.16547967169225 -159.53652385623565 0.0 0.0
274.6951869656134 -68.75712109132587 61.997791082659155 9.060385061865706 0.0 0.0
364.05736735032104 32.8462793719673 119.07720384666632 -9.702682872328845 0.0 0.0
438.9436601622654 -13.323045195486342 131.94349795348433 -35.64281343981952 0.0 0.0
523.9388812698646 -21.53707206401005 184.18535846496258 -33.399543971163276 0.0 0.0
602.8786332741654 -18.04469923800296 259.0124595984607 -30.529363309890257 0.0 0.0
678.7303236831923 -11.592259255563512 321.0476996577954 -31.64295691273063 0.0 0.0
752.7961056315208 2.268198232886789 372.0397420371553 -34.37706690957869 0.0 0.0
827.4433177491562 23.354425577488612 421.8190520524381 -37.068088660250126 0.0 0.0
902.7968095583562 50.41243032887911 473.803643417039 -38.47479916318249 0.0 0.0
977.4405624744378 81.22890804795459 527.022591913054 -38.566487251507255 0.0 0.0
1050.9195511163266 114.60291100272369 580.7806973475061 -37.956071827778885 0.0 0.0
1123.5198313157077 150.80995747611635 635.4166186949308 -37.10340521882392 0.0 0.0
1196.0902437503107 189.68352635425435 691.3104789283523 -36.067673305066435 0.0 0.0
1268.8321272760381 231.32774718251818 748.6328101481654 -34.5998448597235 0.0 0.0
1341.2695285565303 275.5263618011116 807.0485702311968 -32.30734755543553 0.0 0.0
1412.3933160600075 321.69969247047106 865.7599931138171 -29.094025391044884 0.0 0.0
1481.6226044862456 370.0573252700032 924.554866139587 -25.83340000283405 0.0 0.0
1555.593908423727 428.4870423922139 990.6077326663673 -24.214087430594844 0.0 0.0
1610.8087031796592 474.8496566397138 1041.2744693122488 -24.197238585539054 0.0 0.0
1610.808703179409 474.849656639484 1041.274469312126 24.19723858556364 0.0 0.0
1555.593908424889 428.487042393424 990.6077326671386 24.214087430621838 0.0 0.0
1481.6226044857704 370.05732526960907 924.5548661392295 25.83340000291962 0.0 0.0
1412.3933160583338 321.6996924689011 865.7599931124776 29.09402539115255 0.0 0.0
1341.2695285555499 275.52636180027423 807.0485702303852 32.30734755550648 0.0 0.0
1268.8321272754868 231.32774718209777 748.6328101476483 34.59984485968765 0.0 0.0
1196.09024374999 189.68352635410645 691.3104789279904 36.06767330502083 0.0 0.0
1123.5198313151202 150.80995747573678 635.4166186943945 37.10340521898079 0.0 0.0
1050.919551116517 114.60291100313671 580.7806973475532 37.95607182779918 0.0 0.0
977.4405624740464 81.22890804779212 527.0225919127362 38.56648725138119 0.0 0.0
902.7968095582934 50.412430329053706 473.8036434169958 38.47479916305085 0.0 0.0
827.4433177489994 23.35442557759754 421.8190520523573 37.06808866022722 0.0 0.0
752.7961056315432 2.2681982331614563 372.03974203715245 34.37706690931387 0.0 0.0
678.7303236828936 -11.592259255595451 321.04769965755344 31.642956912685303 0.0 0.0
602.878633274099 -18.04469923773371 259.01245959832414 30.529363309745136 0.0 0.0
523.938881269791 -21.53707206378727 184.18535846486202 33.39954397105347 0.0 0.0
438.94366016216765 -13.32304519524314 131.94349795350877 35.64281343992655 0.0 0.0
364.05736735018183 32.846279371821275 119.0772038465838 9.7026828725322 0.0 0.0
274.6951869655726 -68.75712109111579 61.99779108271202 -9.06038506195134 0.0 0.0
68.12408075132552 -548.448734417511 -243.16547967134665 159.53652385598917 0.0 0.0
14.428263761356845 -557.5537367797348 -268.3030601478934 -174.77615464301792 0.0 0.0
154.40144432498417 -57.601655579028375 29.039936623786737 -45.8131595231354 0.0 0.0
295.8254500381502 36.72013621814621 99.76367587688891 -33.9797496404952 0.0 0.0
393.4845488827783 -4.255193243668813 117.8790899667959 -55.879889642939574 0.0 0.0
487.35254994146715 -20.318247332994808 160.89297591993983 -57.253312535872126 0.0 0.0
575.8949879492577 -20.109579393717045 234.515491216817 -52.409911434806126 0.0 0.0
654.888386656297 -11.039204791059952 304.77000406768616 -52.60403750082179 0.0 0.0
729.5873912258943 1.8973941868906934 358.6704224852409 -55.77774315420277 0.0 0.0
803.118353422672 21.540680410780112 408.165007015581 -58.956396268795885 0.0 0.0
875.1756377376446 45.562777073941405 457.2653239718717 -60.34026284794214 0.0 0.0
945.4313904982464 72.42740211945501 506.4131437165057 -60.031674622529195 0.0 0.0
1013.9155626575744 101.64992798759361 555.6438671375645 -58.88072114614444 0.0 0.0
1081.5173188361236 133.0373665506383 605.4011071190279 -57.50809872097144 0.0 0.0
1148.428118807072 166.90584361900653 655.9956809680423 -55.795549928559204 0.0 0.0
1214.9493033348226 202.79546764020438 707.3609588212022 -53.4865748592906 0.0 0.0
1281.1899950709887 240.91874414217273 759.6531736094065 -50.20144956739168 0.0 0.0
1347.4585782776685 282.1535390831116 813.4502903489629 -45.92808389444724 0.0 0.0
1415.6194515153702 329.2971373235881 871.0660690610841 -41.49937181637287 0.0 0.0
1479.9830085806516 377.73692684251387 927.4029687121001 -36.94471625029237 0.0 0.0
1525.9161712322625 413.8821902135279 968.3629389457619 -30.886751344106987 0.0 0.0
1525.9161712316904 413.8821902129804 968.3629389453143 30.886751344203432 0.0 0.0
1479.9830085804315 377.7369268423525 927.4029687118101 36.944716250343 0.0 0.0
1415.6194515156342 329.2971373239384 871.0660690612109 41.499371816500684 0.0 0.0
1347.4585782786041 282.15353908416023 813.4502903495891 45.928083894528136 0.0 0.0
1281.1899950716706 240.91874414301287 759.6531736098432 50.20144956752395 0.0 0.0
1214.9493033346002 202.7954676401028 707.3609588210101 53.486574859167845 0.0 0.0
1148.428118806856 166.90584361891615 655.9956809679265 55.79554992837151 0.0 0.0
1081.5173188356282 133.0373665503139 605.4011071187498 57.50809872096577 0.0 0.0
1013.9155626568416 101.64992798703508 555.6438671371122 58.880721146045445 0.0 0.0
945.4313904975465 72.42740211897183 506.413143716031 60.03167462243562 0.0 0.0
875.1756377378315 45.56277707435518 457.26532397194273 60.34026284782523 0.0 0.0
803.1183534224633 21.540680410825416 408.1650070154431 58.9563962687442 0.0 0.0
729.5873912258794 1.8973941871346796 358.67042248521824 55.77774315406528 0.0 0.0
654.8883866565212 -11.03920479050872 304.77000406776676 52.60403750085907 0.0 0.0
575.8949879490748 -20.109579393563926 234.51549121660042 52.4099114347445 0.0 0.0
487.35254994143014 -20.31824733270048 160.8929759198873 57.253312535705405 0.0 0.0
393.48454888262813 -4.255193243511224 117.8790899668024 55.879889642911465 0.0 0.0
295.8254500380769 36.72013621782195 99.76367587676963 33.979749640367096 0.0 0.0
154.401444325041 -57.60165557847941 29.03993662396848 45.81315952293898 0.0 0.0
14.428263761591154 -557.5537367795047 -268.3030601476204 174.7761546427418 0.0 0.0
-6.065447586879486 -546.4844317075831 -265.8507274694224 -176.81717927269713 0.0 0.0
88.78780491849606 -54.030242510273936 10.42726872246664 -92.27905273497304 0.0 0.0
231.2552277276099 33.27391387008782 79.35874247930931 -66.71842251866089 0.0 0.0
339.9677207915672 4.8445974357296375 103.55362971554453 -77.89651108103504 0.0 0.0
441.05153992647985 -18.270325081958724 137.42758851573842 -83.54885708550651 0.0 0.0
539.1067059665301 -20.376345403467077 206.34952486091757 -76.12946384833486 0.0 0.0
624.3795729037117 -11.68936256844544 282.42135949496253 -74.26136412112928 0.0 0.0
701.7716815910568 2.1172736525614155 342.4058867293544 -77.13917095709411 0.0 0.0
773.8808655230414 19.555403175674087 391.6960333586995 -80.27007323864562 0.0 0.0
842.8646053226357 40.494841047094496 438.1726260163507 -81.41900979826342 0.0 0.0
908.9302723313745 63.51369836827568 483.4529140172973 -80.6864481459097 0.0 0.0
972.7561871628991 88.45016743353725 528.2733514917394 -79.08492197532632 0.0 0.0
1035.017660418802 115.21702826180649 573.089008759882 -77.18114634931698 0.0 0.0
1096.5327234617398 143.8942551704149 618.4284964200925 -74.88501795444857 0.0 0.0
1156.949198862543 173.84977707231994 663.8091258624574 -71.87173803055622 0.0 0.0
1216.7491145155345 205.89162991010488 709.8562823322006 -67.85635021926588 0.0 0.0
1278.1641439092136 242.0726272341723 758.6919705009221 -62.89588470790434 0.0 0.0
1340.9606406822354 283.284234106359 810.673317493357 -57.09159913589628 0.0 0.0
1399.494132209339 324.8048284579204 860.6567093713461 -49.35712668121364 0.0 0.0
1442.2032886577151 356.0437139640271 897.5623727244781 -37.931712878647765 0.0 0.0
1442.2032886577488 356.04371396407146 897.5623727245738 37.93171287873564 0.0 0.0
1399.4941322097193 324.8048284583742 860.6567093717337 49.3571266813163 0.0 0.0
1340.9606406811286 283.28423410530684 810.6733174925985 57.09159913589113 0.0 0.0
1278.1641439077266 242.072627232775 758.6919704998278 62.895884707971504 0.0 0.0
1216.7491145143624 205.89162990904225 709.8562823313893 67.85635021925997 0.0 0.0
1156.949198860567 173.8497770704716 663.8091258611404 71.87173803053557 0.0 0.0
1096.5327234601828 143.8942551689924 618.4284964189875 74.88501795441934 0.0 0.0
1035.0176604175304 115.21702826069043 573.0890087589391 77.18114634928264 0.0 0.0
972.7561871626074 88.45016743338508 528.2733514914788 79.08492197514573 0.0 0.0
908.9302723312419 63.51369836831665 483.4529140172185 80.68644814574901 0.0 0.0
842.864605321927 40.49484104657998 438.17262601587396 81.41900979815011 0.0 0.0
773.88086552242 19.55540317531262 391.6960333582649 80.27007323870085 0.0 0.0
701.7716815910461 2.1172736529953795 342.4058867293115 77.13917095739083 0.0 0.0
624.3795729034548 -11.689362568325627 282.4213594947524 74.26136412125277 0.0 0.0
539.1067059660794 -20.376345403608322 206.34952486053137 76.12946384821343 0.0 0.0
441.0515399265041 -18.270325081496726 137.42758851582136 83.54885708553581 0.0 0.0
339.96772079155755 4.84459743626725 103.55362971571037 77.89651108094209 0.0 0.0
231.2552277278138 33.27391387049241 79.35874247949184 66.71842251858402 0.0 0.0
88.78780491865565 -54.03024250993714 10.427268722615555 92.27905273494315 0.0 0.0
-6.065447586894308 -546.4844317072692 -265.8507274691942 176.81717927272305 0.0 0.0
-10.908500756399945 -523.5689161116525 -248.13944352859053 -174.16541815828876 0.0 0.0
52.50410452380329 -51.692137501840655 0.24359010658879576 -128.4782143605253 0.0 0.0
175.964648661814 26.811802285581415 60.83293528421862 -99.73864522618751 0.0 0.0
283.03606826953626 10.78811721880735 88.16366398901306 -101.33907621854573 0.0 0.0
383.83822498493134 -13.72417571576712 115.23266847218576 -110.31875353572177 0.0 0.0
491.3544102519471 -20.143337268761965 175.0030616074165 -103.00172904315829 0.0 0.0
586.5864458381394 -12.647541225750224 253.9022831028318 -97.47323064484088 0.0 0.0
667.6388007760846 1.8663712040160192 321.1815428329734 -98.50696860699166 0.0 0.0
739.1366514256886 17.654888157162105 371.97102701861763 -101.03374373743125 0.0 0.0
805.2113007304125 35.24367948562353 416.13611764398615 -101.76502853119499 0.0 0.0
867.403753265468 54.49217090635391 457.83524611306336 -100.54829498002212 0.0 0.0
926.4389952838208 75.13377609230996 498.2120641693233 -98.50848174509775 0.0 0.0
983.5537605747304 97.17384431484044 538.155541251135 -96.21614967185047 0.0 0.0
1039.3022676378168 120.71678858729761 578.080119308132 -93.33138684633212 0.0 0.0
1093.89020725629 145.11470541733888 617.8038371670985 -89.69628143666037 0.0 0.0
1147.8061175779094 170.91311219490632 657.8237365326398 -85.2524787215215 0.0 0.0
1202.3672190707705 200.2101159020114 699.8134434837228 -79.78500597125506 0.0 0.0
1258.901502642146 234.34457605678668 745.1331860381338 -72.76513515315831 0.0 0.0
1313.3519536965578 269.9800192180999 790.1313193470367 -62.18510932725742 0.0 0.0
1356.3145445287616 298.9301854850727 826.0010860515839 -45.9393570938742 0.0 0.0
1356.3145445276366 298.93018548396606 826.0010860507313 45.9393570939816 0.0 0.0
1313.3519536948002 269.98001921638496 790.1313193458097 62.18510932740804 0.0 0.0
1258.901502642164 234.3445760568929 745.133186038148 72.76513515317185 0.0 0.0
1202.3672190705533 200.21011590189096 699.8134434834855 79.78500597135096 0.0 0.0
1147.8061175768191 170.91311219389547 657.8237365317709 85.2524787214507 0.0 0.0
1093.8902072560286 145.11470541720433 617.8038371669347 89.69628143661456 0.0 0.0
1039.3022676376552 120.7167885872754 578.080119308102 93.33138684631078 0.0 0.0
983.5537605739927 97.17384431428363 538.155541250676 96.21614967185192 0.0 0.0
926.4389952822535 75.13377609085327 498.2120641682311 98.50848174496372 0.0 0.0
867.4037532639745 54.49217090500767 457.8352461119689 100.54829497989468 0.0 0.0
805.2113007301842 35.24367948572268 416.1361176437892 101.7650285312998 0.0 0.0
739.1366514250956 17.654888156776295 371.9710270182577 101.03374373733973 0.0 0.0
667.6388007754701 1.8663712036156568 321.1815428325312 98.50696860685021 0.0 0.0
586.5864458380272 -12.64754122549649 253.90228310266917 97.47323064483874 0.0 0.0
491.3544102519208 -20.143337268361744 175.0030616073405 103.00172904307286 0.0 0.0
383.83822498485176 -13.72417571548366 115.23266847221782 110.31875353556882 0.0 0.0
283.0360682692524 10.788117218611637 88.16366398887517 101.33907621847541 0.0 0.0
175.9646486619005 26.811802285740477 60.832935284292276 99.73864522624302 0.0 0.0
52.504104523917526 -51.692137501645306 0.24359010668166858 128.47821436037157 0.0 0.0
-10.908500756476329 -523.56891611154 -248.13944352844044 174.16541815822643 0.0 0.0
-8.679667165826928 -492.6810658838924 -221.51962351183346 -170.29853136076633 0.0 0.0
31.18691104071705 -48.92352606352326 -5.320984506841865 -155.50226106085208 0.0 0.0
129.10540881996297 19.72779616899006 44.64996149668592 -128.78232029691114 0.0 0.0
225.67517848030928 13.103391142634148 71.62959442829947 -124.97785440809021 0.0 0.0
318.4395983699411 -7.033061718699895 94.86325865907706 -135.07554205519114 0.0 0.0
427.40601698114085 -19.15533673652171 141.2834575715115 -132.85522951629017 0.0 0.0
534.9312623802871 -12.591262773538421 218.03680557978075 -123.22038380622027 0.0 0.0
623.4907750501427 0.36858451556426886 291.7147685904125 -120.63831500953937 0.0 0.0
697.2811774259134 15.418930129877971 347.3775431041005 -121.50925409206579 0.0 0.0
761.1100085695895 29.976636828250218 390.4661794304557 -121.38439891648005 0.0 0.0
819.3778993854935 45.29375961702034 428.7100117871347 -119.63871877585441 0.0 0.0
873.8901187059496 61.78049931451993 464.9322027255945 -117.1818850777605 0.0 0.0
925.6233292013824 79.13892449896848 499.9445444544834 -114.49761926917915 0.0 0.0
975.7172254559259 97.34566702943161 534.4238606240347 -111.26632240291721 0.0 0.0
1024.922505068316 116.49932657156322 568.8643654246487 -107.11438032419764 0.0 0.0
1072.410551895137 136.39180864073538 602.7759508573423 -102.12747561689969 0.0 0.0
1119.4666277169326 157.5647338087345 637.011096872246 -96.42216461259248 0.0 0.0
1168.5491972307732 182.98774117520833 674.2621683391131 -88.74034721154916 0.0 0.0
1219.399853689495 212.77515826734947 714.5090719181504 -75.99352990781392 0.0 0.0
1265.301031536917 241.03254923828143 751.4495854697266 -55.56967862093933 0.0 0.0
1265.301031537837 241.03254923925647 751.4495854704742 55.56967862114037 0.0 0.0
1219.399853690039 212.7751582680603 714.5090719185839 75.99352990819581 0.0 0.0
1168.5491972289892 182.98774117350177 674.2621683378087 88.74034721168672 0.0 0.0
1119.4666277170127 157.56473380900144 637.0110968722414 96.42216461282673 0.0 0.0
1072.4105518951528 136.39180864088542 602.7759508573613 102.1274756169505 0.0 0.0
1024.9225050672974 116.49932657068587 568.8643654238932 107.11438032425168 0.0 0.0
975.717225456777 97.34566703048236 534.4238606245364 111.26632240298787 0.0 0.0
925.6233292018583 79.13892449968114 499.9445444547825 114.49761926928446 0.0 0.0
873.8901187058749 61.78049931465421 464.9322027254823 117.18188507776622 0.0 0.0
819.3778993849123 45.29375961669231 428.71001178676534 119.63871877586087 0.0 0.0
761.1100085698012 29.97663682869586 390.46617943052763 121.3843989164769 0.0 0.0
697.2811774260601 15.418930130345487 347.3775431041233 121.50925409212945 0.0 0.0
623.4907750500573 0.36858451594990527 291.7147685903144 120.63831500971857 0.0 0.0
534.931262379999 -12.591262773477197 218.03680557950773 123.22038380614796 0.0 0.0
427.40601698063085 -19.155336736745546 141.2834575711837 132.85522951618827 0.0 0.0
318.4395983699354 -7.033061718219027 94.86325865921246 135.07554205498246 0.0 0.0
225.67517848024787 13.103391142662451 71.62959442829096 124.9778544079692 0.0 0.0
129.10540881997045 19.727796168993265 44.649961496689116 128.78232029667203 0.0 0.0
31.186911040686624 -48.9235260634021 -5.320984506814643 155.50226106048487 0.0 0.0
-8.679667165694212 -492.68106588359996 -221.51962351155746 170.29853136066282 0.0 0.0
-3.175765136081125 -455.4348525431268 -189.48021846606684 -166.68684014963588 0.0 0.0
16.772680311522357 -46.31154919638563 -8.861600301820214 -174.52642488781717 0.0 0.0
88.08720210939977 13.186481104635789 30.38210496421066 -152.1140582200166 0.0 0.0
168.60482781451353 14.060307941843343 54.79641714921988 -146.83109791608555 0.0 0.0
248.76083363721835 -0.9170844519421861 75.030659644743 -156.63221671812536 0.0 0.0
348.99117409794684 -15.236146390048905 108.39910787794334 -163.1083581484816 0.0 0.0
464.70816569133274 -12.811375198202688 174.50344323650899 -152.85120832404965 0.0 0.0
565.1930749375963 -0.8887209057715939 252.02972863815125 -144.5511124273027 0.0 0.0
643.87370142748 12.170384618069638 313.98686718999744 -142.17749710808377 0.0 0.0
707.846004564422 24.521973918266784 359.102313633443 -140.49464731435347 0.0 0.0
762.5162199782613 35.924475643117425 394.6696180125337 -137.98240116931143 0.0 0.0
812.6553007541447 48.481086267393664 427.1411886928591 -135.09587720892253 0.0 0.0
859.0108368704342 61.131018685734595 457.3082791362682 -132.07969380404504 0.0 0.0
903.0530724329515 74.09887709290547 486.2533852261375 -128.62747958391662 0.0 0.0
946.2965038927324 87.74462941959472 514.9844041308759 -124.17892833403775 0.0 0.0
988.9636989434123 102.42934402022611 543.9370479871247 -118.64276994059438 0.0 0.0
1028.022133407239 115.56995015702446 570.2820115356337 -112.51027385688502 0.0 0.0
1067.3297963573807 130.18808369158876 597.2885291440706 -104.89915823436829 0.0 0.0
1113.8695061939918 152.11231889780174 631.3857335104691 -91.352047180093 0.0 0.0
1165.4051751211864 180.74014862572744 671.2157653941305 -67.80103683959453 0.0 0.0
1165.4051751214693 180.740148626083 671.2157653942161 67.8010368398065 0.0 0.0
1113.869506194009 152.11231889791907 631.385733510447 91.35204718030151 0.0 0.0
1067.3297963582545 130.1880836926664 597.2885291446496 104.89915823467476 0.0 0.0
1028.022133407234 115.56995015718724 570.2820115356344 112.5102738570177 0.0 0.0
988.9636989441121 102.42934402104913 543.9370479875946 118.64276994063071 0.0 0.0
946.2965038921981 87.74462941927843 514.9844041306068 124.17892833412874 0.0 0.0
903.05307243181 74.09887709179861 486.25338522534275 128.6274795838312 0.0 0.0
859.0108368698288 61.13101868535392 457.30827913589087 132.07969380408562 0.0 0.0
812.6553007543728 48.48108626785253 427.1411886929953 135.09587720897176 0.0 0.0
762.5162199790794 35.924475644267346 394.66961801303705 137.98240116944703 0.0 0.0
707.8460045649267 24.521973919075023 359.1023136337667 140.49464731434676 0.0 0.0
643.8737014270527 12.170384617770821 313.9868671897058 142.1774971079025 0.0 0.0
565.1930749362413 -0.888720907057845 252.02972863717756 144.5511124271298 0.0 0.0
464.708165690769 -12.81137519848858 174.50344323607447 152.85120832394983 0.0 0.0
348.9911740977684 -15.236146389719877 108.39910787792444 163.10835814840198 0.0 0.0
248.76083363714474 -0.9170844516915659 75.03065964479494 156.63221671801625 0.0 0.0
168.60482781458393 14.060307942145823 54.796417149332726 146.83109791596422 0.0 0.0
88.08720210931384 13.186481104598958 30.38210496417383 152.11405821979457 0.0 0.0
16.772680311518794 -46.31154919627528 -8.861600301788231 174.5264248876491 0.0 0.0
-3.175765136067696 -455.4348525429101 -189.48021846585235 166.68684014954113 0.0 0.0
2.141669545791892 -413.24393977866015 -156.32670449661794 -164.18263202669607 0.0 0.0
3.6468136881029674 -44.5290906608781 -12.26429875978762 -185.74690122734032 0.0 0.0
50.63100491085921 7.960832851854862 17.577148257566677 -169.69590201447267 0.0 0.0
112.63157976296492 15.1117264062049 38.32514503617246 -165.01949671800796 0.0 0.0
176.96347929350506 3.017710974501714 54.39347552939203 -175.48089594818006 0.0 0.0
255.5589153632874 -8.176627709633998 77.54910716614891 -187.9949131047856 0.0 0.0
366.7345497752045 -11.218755766735836 125.46713834825542 -186.05478949402763 0.0 0.0
482.4136400597804 -2.3665872895371978 198.15594807119666 -172.64968690915086 0.0 0.0
572.015371221772 8.435420579722127 266.23794458288637 -164.17065299095404 0.0 0.0
638.3010026691275 18.36540743555713 316.2545632322144 -159.45746630596187 0.0 0.0
691.4394919969288 26.31792138118689 352.06019568469856 -155.85065307771436 0.0 0.0
737.0174508398773 35.05116002328978 381.49152786249675 -152.32934947246093 0.0 0.0
777.9520827060192 43.419832164065575 407.3489295557957 -148.90163298716973 0.0 0.0
815.7224982602866 51.15078900869075 430.8086650196118 -145.37266271626615 0.0 0.0
852.5356001018564 58.98134079135296 453.5392078111664 -141.01594781809456 0.0 0.0
889.9557761948506 68.18271243706518 477.12432980543184 -135.00963719970412 0.0 0.0
924.829638184928 76.09854932942145 498.89858015529614 -127.97667646739939 0.0 0.0
952.3931811742091 78.03798443333207 513.9194730973159 -120.6859746704609 0.0 0.0
988.9934931164408 86.67740989478378 536.2953056452354 -108.44132464751749 0.0 0.0
1048.1935509405776 115.52345546345856 579.8012998732082 -84.06691120930576 0.0 0.0
1048.1935509408765 115.5234554638576 579.8012998735041 84.06691120958469 0.0 0.0
988.9934931160844 86.67740989449857 536.2953056450041 108.44132464772409 0.0 0.0
952.3931811750535 78.03798443454616 513.919473097915 120.68597467094126 0.0 0.0
924.8296381830695 76.09854932760379 498.89858015394304 127.97667646736102 0.0 0.0
889.9557761944191 68.18271243661343 477.12432980494134 135.00963719959555 0.0 0.0
852.5356001012016 58.981340790780024 453.53920781071935 141.0159478180534 0.0 0.0
815.7224982594199 51.15078900785804 430.80866501905643 145.3726627161343 0.0 0.0
777.9520827053265 43.419832163376526 407.34892955530285 148.9016329871044 0.0 0.0
737.0174508395016 35.05116002316316 381.49152786222436 152.32934947259395 0.0 0.0
691.4394919961884 26.31792138080455 352.06019568424864 155.85065307785524 0.0 0.0
638.3010026680394 18.365407434512647 316.25456323143055 159.45746630579097 0.0 0.0
572.0153712213355 8.435420579454942 266.2379445825088 164.17065299090336 0.0 0.0
482.41364005987896 -2.366587288662224 198.15594807130552 172.64968690937448 0.0 0.0
366.7345497748409 -11.218755766635201 125.46713834806053 186.05478949397119 0.0 0.0
255.55891536314925 -8.176627709416639 77.54910716615294 187.9949131045459 0.0 0.0
176.96347929356256 3.0177109748702584 54.39347552952108 175.4808959478754 0.0 0.0
112.63157976302561 15.111726406536834 38.32514503629331 165.01949671765317 0.0 0.0
50.63100491075336 7.960832851810865 17.577148257522236 169.69590201429256 0.0 0.0
3.6468136879610475 -44.52909066108741 -12.264298759894361 185.74690122713463 0.0 0.0
2.1416695458709185 -413.24393977836894 -156.3267044963795 164.18263202656203 0.0 0.0
3.6645632689316017 -366.85698549518463 -126.24995161085369 -161.18754569535258 0.0 0.0
-12.179468086333511 -44.82854024527249 -17.102571890960647 -191.3067107782514 0.0 0.0
15.369119994323658 4.8336478521495305 6.06094663520755 -181.76680067218462 0.0 0.0
58.13774957281443 16.25147787988468 22.327940613163825 -178.77974411496305 0.0 0.0
102.9595600556847 6.785780953697782 33.18222821994884 -189.85709102805902 0.0 0.0
154.3670174818136 -2.398252884043462 47.04658949281684 -206.22956393604034 0.0 0.0
235.76718115048592 -5.0908442008357495 75.62430176789627 -215.03906430704322 0.0 0.0
351.2580193545599 -2.375373204934755 127.73005968609922 -206.69513935439397 0.0 0.0
459.45875583057625 4.916708439094492 192.93159817606798 -190.81260458318116 0.0 0.0
534.8591077332097 11.108626838793452 248.0274967702112 -179.74205987887612 0.0 0.0
588.5218167572541 16.919015157250655 288.313647824115 -173.4979025909475 0.0 0.0
630.1329113093702 21.35004416524037 317.16114023853754 -169.08861088869912 0.0 0.0
665.5833942946988 25.79432018143922 340.43293582490594 -165.09310371089322 0.0 0.0
696.8042080343234 28.88282175077292 359.4500098741168 -161.35977783779512 0.0 0.0
726.1009039940562 30.70361704852462 376.00515776187086 -157.226398414054 0.0 0.0
756.671891465698 32.90865566439737 392.8493035428561 -151.6255501384976 0.0 0.0
790.6485749979483 36.986708830012105 412.14765419799164 -143.43703236299962 0.0 0.0
816.4207821664319 33.703933980922244 424.0755481163998 -134.82551147896604 0.0 0.0
831.4273140122574 16.398872750493553 422.9187107978768 -126.20207000148953 0.0 0.0
896.1742344300065 39.17830116649267 465.33813559653447 -106.87186862904365 0.0 0.0
896.1742344301933 39.178301166869744 465.33813559677515 106.87186862945268 0.0 0.0
831.4273140123621 16.398872750848227 422.91871079805804 126.20207000185715 0.0 0.0
816.4207821666629 33.70393398128073 424.0755481165834 134.82551147910604 0.0 0.0
790.6485749985168 36.98670883064847 412.1476541984 143.4370323630949 0.0 0.0
756.671891466539 32.90865566545378 392.84930354354674 151.62555013859355 0.0 0.0
726.1009039946468 30.703617049435252 376.0051577623287 157.2263984141867 0.0 0.0
696.8042080347128 28.88282175135737 359.45000987438397 161.35977783793032 0.0 0.0
665.5833942946543 25.794320181846786 340.4329358249872 165.09310371112954 0.0 0.0
630.1329113081049 21.35004416392725 317.1611402376747 169.08861088859857 0.0 0.0
588.5218167567206 16.91901515677705 288.3136478237346 173.49790259084403 0.0 0.0
534.8591077336836 11.108626839713061 248.02749677051017 179.74205987891963 0.0 0.0
459.4587558304605 4.916708439461928 192.93159817602435 190.8126045832979 0.0 0.0
351.25801935380053 -2.375373205378917 127.73005968563741 206.6951393544104 0.0 0.0
235.767181149919 -5.090844201116681 75.6243017676062 215.03906430692996 0.0 0.0
154.3670174815636 -2.3982528842001196 47.046589492696135 206.22956393583823 0.0 0.0
102.9595600553642 6.78578095307782 33.18222821966808 189.85709102786763 0.0 0.0
58.1377495729304 16.25147788023601 22.32794061330713 178.77974411474165 0.0 0.0
15.369119994288177 4.833647852184079 6.0609466352084835 181.7668006719229 0.0 0.0
-12.179468086460375 -44.82854024542204 -17.10257189104506 191.30671077811516 0.0 0.0
3.6645632689652636 -366.85698549485807 -126.24995161066903 161.18754569528187 0.0 0.0
-0.014134817217211548 -317.03783453864895 -100.99348380929771 -155.34743953420605 0.0 0.0
-31.208004251280354 -47.714060333483154 -23.677571667254647 -193.46151859163155 0.0 0.0
-18.4460825672762 3.8695923247559154 -4.374346461064818 -189.01163869145145 0.0 0.0
5.174477457077041 17.323684599129372 6.757782185428715 -187.65682521822316 0.0 0.0
28.34292358798918 10.95187704780231 11.875147496451568 -198.3694276652353 0.0 0.0
49.74469660904213 2.5763767452880293 16.158502509758634 -216.58674624181864 0.0 0.0
78.99920074984587 -0.7109443791596162 25.010026102846076 -231.7652382204069 0.0 0.0
132.63235447982785 0.8617514575997021 44.106600620842556 -234.89639724691773 0.0 0.0
214.22980252684016 4.608991567886687 76.12887654968117 -222.37434476179914 0.0 0.0
294.6748383023849 6.956417680855978 114.47907907067152 -205.95170195466997 0.0 0.0
359.08990816450796 8.48817333898279 153.01585950748606 -193.54498007128007 0.0 0.0
401.4951650628676 8.750037340243239 183.10836219194474 -185.68031101077057 0.0 0.0
430.9378760875951 9.153310868075195 206.27278715309154 -180.09739799139075 0.0 0.0
454.549580901754 7.349394034151004 223.71239021066373 -175.6390013028828 0.0 0.0
477.21968184436724 3.255416101418632 237.39976498072758 -171.52825763042807 0.0 0.0
504.6976754775636 -2.4298797519441564 250.41608871644456 -166.98846260652334 0.0 0.0
541.8504208281048 -6.283863917679952 267.3982737155326 -159.95160790638406 0.0 0.0
588.609258900105 -6.110959101495297 290.8333701665317 -148.70166775612302 0.0 0.0
609.6036666700915 -35.276504378375535 288.06918354999937 -138.5361367571082 0.0 0.0
644.138305066785 -70.88004263307187 284.3516097312318 -136.01586504329862 0.0 0.0
644.1383050672351 -70.88004263224599 284.3516097316354 136.01586504378113 0.0 0.0
609.6036666697697 -35.27650437874746 288.06918354975625 138.53613675744032 0.0 0.0
588.6092588999361 -6.110959101647438 290.8333701664247 148.70166775648477 0.0 0.0
541.8504208275424 -6.283863918411214 267.3982737150776 159.9516079064009 0.0 0.0
504.6976754777071 -2.4298797520088726 250.4160887163527 166.9884626063709 0.0 0.0
477.21968184380887 3.2554161008602023 237.3997649803605 171.52825763038476 0.0 0.0
454.54958090194754 7.3493940342955 223.7123902107561 175.63900130285612 0.0 0.0
430.9378760878292 9.153310868439917 206.27278715322876 180.0973979915513 0.0 0.0
401.49516506283885 8.750037340272911 183.10836219188857 185.6803110107886 0.0 0.0
359.0899081638043 8.488173338064144 153.01585950694346 193.54498007115063 0.0 0.0
294.6748383019038 6.95641767999129 114.47907907019935 205.95170195449325 0.0 0.0
214.2298025268279 4.608991568093213 76.12887654969511 222.3743447618254 0.0 0.0
132.63235448015638 0.8617514587669852 44.10660062127574 234.8963972469636 0.0 0.0
78.99920074956773 -0.7109443793498347 25.010026102703783 231.7652382201622 0.0 0.0
49.744696609229045 2.5763767457518405 16.15850250995446 216.58674624161364 0.0 0.0
28.34292358797636 10.951877047698256 11.87514749641579 198.36942766496733 0.0 0.0
5.174477456932334 17.32368459877214 6.757782185278397 187.65682521797393 0.0 0.0
-18.44608256724966 3.8695923248580355 -4.3743464610269465 189.01163869126322 0.0 0.0
-31.208004251376927 -47.71406033352322 -23.677571667298412 193.4615185915127 0.0 0.0
-0.01413481728133803 -317.03783453843903 -100.99348380921188 155.34743953401085 0.0 0.0
-11.674002900925192 -266.5023559531952 -84.13708918014497 -145.32826128095834 0.0 0.0
-50.19466569110492 -50.45736705727052 -30.2008781663023 -193.37231667860442 0.0 0.0
-51.239100728120334 3.8256854686814643 -14.24287472660345 -192.04463942400406 0.0 0.0
-46.193964185641114 18.268925274431638 -8.411222798150963 -191.39413494590002 0.0 0.0
-45.377240134091 15.10372210164436 -9.197476848508543 -200.5409587223789 0.0 0.0
-55.9273576442754 7.441657057094205 -15.054748681511295 -217.57166134233248 0.0 0.0
-81.70244319424336 2.6397903026845357 -25.308489764084307 -231.90711386542537 0.0 0.0
-133.56749981358547 -0.4616916555743451 -44.30877361446489 -235.0484520158455 0.0 0.0
-214.10843196271213 -4.379878100278777 -76.0237558138098 -222.48409021758061 0.0 0.0
-294.4329580101229 -6.660620950366983 -114.29496086068663 -205.92887628600204 0.0 0.0
-359.3034976863678 -7.083843360405069 -152.49779853744263 -193.3937732575985 0.0 0.0
-403.18938508672045 -7.074128257979126 -183.13526172935536 -185.2051025061236 0.0 0.0
-435.4208537077809 -9.341645993972577 -208.23334213296118 -179.65255959710166 0.0 0.0
-460.66776560509976 -14.589124886052218 -229.82571670383066 -176.22181546065715 0.0 0.0
-477.75191974262617 -23.326779128810642 -248.34788819413728 -174.7639943083778 0.0 0.0
-483.5974912064921 -34.657858509632746 -262.9162336468524 -174.8027341531887 0.0 0.0
-469.2188056721838 -46.02363782096225 -270.0361172485985 -175.02832641893326 0.0 0.0
-405.40030837105763 -40.0726287179732 -253.7804434985954 -174.8391602638014 0.0 0.0
-223.0437721224286 -37.92223631802551 -192.98890344361956 -177.79766388681378 0.0 0.0
-18.071918973840297 -175.76174734390096 -69.7305951700134 -167.82549060395647 0.0 0.0
-18.071918973173354 -175.76174734268668 -69.73059516952435 167.82549060440607 0.0 0.0
-223.04377212245527 -37.922236317917395 -192.98890344365873 177.79766388718247 0.0 0.0
-405.40030837202335 -40.072628718921976 -253.78044349930315 174.83916026404518 0.0 0.0
-469.21880567232523 -46.0236378218043 -270.03611724884973 175.0283264190452 0.0 0.0
-483.5974912057746 -34.6578585089494 -262.91623364635325 174.80273415318106 0.0 0.0
-477.75191974283075 -23.32677912932644 -248.34788819427544 174.76399430839538 0.0 0.0
-460.6677656053582 -14.589124886599478 -229.82571670399756 176.2218154607151 0.0 0.0
-435.42085370746315 -9.341645994200633 -208.23334213285756 179.65255959718604 0.0 0.0
-403.18938508678707 -7.074128258729758 -183.13526172949594 185.20510250608422 0.0 0.0
-359.3034976854089 -7.083843359781419 -152.49779853683268 193.393773257445 0.0 0.0
-294.4329580088676 -6.660620949494231 -114.29496085992767 205.92887628589756 0.0 0.0
-214.1084319623033 -4.379878100817717 -76.02375581377683 222.48409021771863 0.0 0.0
-133.5674998131642 -0.46169165549771307 -44.30877361429671 235.04845201577228 0.0 0.0
-81.70244319376215 2.6397903033461274 -25.30848976372833 231.90711386526965 0.0 0.0
-55.927357643580095 7.441657058319352 -15.054748680933772 217.5716613421031 0.0 0.0
-45.37724013376227 15.103722102073906 -9.197476848281479 200.5409587221827 0.0 0.0
-46.19396418575652 18.268925274078466 -8.411222798292993 191.39413494581362 0.0 0.0
-51.23910072800812 3.8256854689557707 -14.24287472649037 192.04463942386874 0.0 0.0
-50.19466569116136 -50.4573670572965 -30.200878166330902 193.37231667851364 0.0 0.0
-11.674002901145712 -266.50235595316894 -84.13708918021706 145.32826128078014 0.0 0.0
-23.329902324432656 -217.9714889443012 -72.38282258830392 -132.3418110697586 0.0 0.0
-66.41226980984216 -50.50751316216288 -35.084844615946 -189.8307296477811 0.0 0.0
-82.87277056960215 3.6773583548377533 -23.79858539618343 -191.22475613034482 0.0 0.0
-95.94144742361526 19.0468236196364 -23.152539663169605 -190.13022472052535 0.0 0.0
-117.39497124250869 18.39902472483996 -30.0993464474236 -196.11745560911748 0.0 0.0
-159.50224031207077 11.92895814325757 -45.958835106941535 -208.58161521840142 0.0 0.0
-237.32502942647295 6.904307394825649 -75.79055433571287 -215.98488799394968 0.0 0.0
-350.9477285092413 2.7044804333318098 -127.67391117284961 -207.1837933277549 0.0 0.0
-459.0664407180768 -4.744126666793157 -192.73546298084767 -190.98642516386172 0.0 0.0
-534.5009161658444 -10.702260179022133 -247.7167095356016 -179.7058337622879 0.0 0.0
-588.0700975153712 -15.845358395646713 -287.6618024875663 -173.20930599202669 0.0 0.0
-630.1815178976519 -19.85977081284169 -316.48859290080964 -168.29033280607885 0.0 0.0
-667.5024066432782 -25.87773973158771 -341.2614338014446 -164.05660262856313 0.0 0.0
-702.3607022026081 -34.95700362452092 -364.88804994420235 -161.59510200336925 0.0 0.0
-735.349749082934 -47.87714431081923 -388.9093593779365 -161.48214203336838 0.0 0.0
-764.4821920951097 -63.59332429793426 -412.2745870165727 -163.67273976381253 0.0 0.0
-784.7585744918456 -78.89456965800113 -431.13622680541255 -168.58467526440273 0.0 0.0
-793.1530147157195 -91.91648105092412 -442.83307621252766 -176.3302284466477 0.0 0.0
-826.877261527454 -145.79209582083675 -487.873734217546 -185.55863509766684 0.0 0.0
-838.2573431680199 -236.17872542560397 -540.5822308411451 -204.68691931088438 0.0 0.0
-838.2573431684799 -236.17872542629507 -540.5822308415982 204.686919311224 0.0 0.0
-826.8772615278122 -145.79209582145816 -487.8737342179311 185.5586350979691 0.0 0.0
-793.1530147148721 -91.9164810501864 -442.8330762120448 176.33022844679883 0.0 0.0
-784.758574491128 -78.89456965720672 -431.1362268048695 168.58467526440654 0.0 0.0
-764.4821920947271 -63.593324297684006 -412.274587016346 163.67273976378772 0.0 0.0
-735.3497490825364 -47.87714431061454 -388.90935937770126 161.4821420333904 0.0 0.0
-702.3607022022771 -34.95700362427725 -364.88804994398424 161.59510200327986 0.0 0.0
-667.5024066430116 -25.877739731385887 -341.26143380121647 164.05660262848536 0.0 0.0
-630.1815178976444 -19.859770813060294 -316.48859290075154 168.29033280605347 0.0 0.0
-588.0700975154882 -15.845358396135524 -287.6618024875982 173.20930599205855 0.0 0.0
-534.5009161656083 -10.702260179415752 -247.71670953545916 179.70583376238704 0.0 0.0
-459.0664407174699 -4.744126666731017 -192.73546298043476 190.98642516400042 0.0 0.0
-350.9477285089161 2.704480432891968 -127.673911172749 207.18379332787194 0.0 0.0
-237.32502942539048 6.904307395914771 -75.7905543350257 215.9848879938303 0.0 0.0
-159.5022403115799 11.928958143585852 -45.95883510669212 208.58161521815168 0.0 0.0
-117.39497124245621 18.39902472462608 -30.099346447470374 196.11745560883242 0.0 0.0
-95.94144742338165 19.046823620022693 -23.152539662984573 190.13022472023155 0.0 0.0
-82.87277056959925 3.677358354602505 -23.798585396256392 191.22475613013088 0.0 0.0
-66.41226980998411 -50.50751316250738 -35.084844616097925 189.83072964759066 0.0 0.0
-23.32990232432525 -217.97148894392313 -72.38282258816052 132.3418110697157 0.0 0.0
-28.245702346320435 -172.40380414730794 -60.194851948088505 -117.59735528490324 0.0 0.0
-79.78034082200836 -48.051082877139066 -38.34665463883046 -182.34409632888224 0.0 0.0
-112.94327896491876 3.390015628886686 -32.900454421460935 -186.35137566296945 0.0 0.0
-143.96181244095862 19.290743576299757 -37.54326488348909 -183.7731374064448 0.0 0.0
-187.16360722732634 20.443008416837966 -50.77961684019881 -185.71083884288058 0.0 0.0
-257.7980644523219 16.60525897036778 -76.38637455568166 -191.44403792101173 0.0 0.0
-365.9493027828139 12.772341733942362 -125.16232738098597 -187.4479722280294 0.0 0.0
-481.5965603605848 2.7130030998840127 -197.7784482004252 -173.2484718409919 0.0 0.0
-571.7548306188206 -8.323943729937916 -266.0764591403593 -164.2392960191089 0.0 0.0
-638.0445311700066 -18.068811401207114 -316.0247404470135 -159.4362297962514 0.0 0.0
-691.0905918491283 -25.543061102376313 -351.5506283436808 -155.56182964730974 0.0 0.0
-736.9033171348558 -33.828887114591026 -380.8323748030481 -151.36878097257136 0.0 0.0
-779.217617726374 -43.229850882812485 -407.7686699393256 -147.37581776792945 0.0 0.0
-820.3213052655243 -55.706344063870716 -435.1263504587612 -144.83699010829267 0.0 0.0
-861.3656051210694 -72.67032942389795 -464.5369959187392 -144.84183950545673 0.0 0.0
-900.1609679936194 -92.96858885421761 -494.5339571345611 -147.86855534452945 0.0 0.0
-934.2854831305385 -114.54246613718183 -522.814417894479 -153.55675439961493 0.0 0.0
-972.4615130625672 -147.56016247501475 -558.7976799739456 -159.81500512529018 0.0 0.0
-1015.9583295222768 -197.04459389933504 -605.5257889219209 -165.34170432622938 0.0 0.0
-1116.5613130927227 -333.8058066838745 -723.5597801977223 -171.56400326195853 0.0 0.0
-1116.5613130923482 -333.80580668365326 -723.5597801975424 171.56400326218392 0.0 0.0
-1015.9583295213746 -197.0445938985223 -605.5257889212182 165.34170432646619 0.0 0.0
-972.461513061899 -147.56016247449622 -558.7976799733701 159.81500512550937 0.0 0.0
-934.2854831295535 -114.54246613627382 -522.8144178937433 153.55675439961828 0.0 0.0
-900.1609679925912 -92.96858885325491 -494.5339571338203 147.86855534448966 0.0 0.0
-861.3656051209447 -72.67032942393062 -464.5369959186781 144.8418395054676 0.0 0.0
-820.3213052653994 -55.706344063999495 -435.12635045865204 144.83699010846692 0.0 0.0
-779.2176177258591 -43.229850882603046 -407.768669938935 147.37581776810953 0.0 0.0
-736.9033171350626 -33.8288871151368 -380.8323748031683 151.368780972661 0.0 0.0
-691.0905918494184 -25.543061103183227 -351.55062834393857 155.56182964752824 0.0 0.0
-638.0445311698229 -18.068811401301232 -316.02474044692497 159.4362297961388 0.0 0.0
-571.7548306184929 -8.323943729896637 -266.076459140117 164.23929601902518 0.0 0.0
-481.59656036021937 2.7130030997307215 -197.7784482001656 173.24847184109223 0.0 0.0
-365.9493027826354 12.772341733159525 -125.16232738100602 187.44797222815413 0.0 0.0
-257.7980644521521 16.60525896984821 -76.38637455574832 191.444037920852 0.0 0.0
-187.16360722714907 20.443008416864323 -50.779616840138736 185.71083884262458 0.0 0.0
-143.96181244104338 19.29074357575729 -37.54326488368062 183.77313740631917 0.0 0.0
-112.94327896472308 3.3900156290154815 -32.90045442136908 186.35137566278422 0.0 0.0
-79.7803408219165 -48.05108287702725 -38.346654638770445 182.34409632870688 0.0 0.0
-28.24570234631943 -172.4038041473483 -60.19485194810032 117.5973552847965 0.0 0.0
-29.99605891798167 -130.82609753067638 -48.24664693459741 -102.11920392213867 0.0 0.0
-90.82124923430443 -43.33728334803137 -40.24703274342505 -170.39303169629548 0.0 0.0
-141.17949721105086 2.9608497185814766 -41.48855059510587 -177.2696666623372 0.0 0.0
-190.06627472438993 18.50335612708791 -51.684238035289546 -172.58890091590828 0.0 0.0
-253.37831739284374 21.993511300679923 -70.7616345378578 -170.00862219511657 0.0 0.0
-347.0537983154925 21.703218620727668 -107.13518591054664 -167.16869325721547 0.0 0.0
-462.77892956215715 14.499426451181762 -173.43653193519313 -154.54998367313786 0.0 0.0
-564.710394597724 1.0482515752379484 -251.7121046639482 -144.83666836924837 0.0 0.0
-643.7838795649391 -12.154655357525797 -313.94444955406834 -142.19414489586788 0.0 0.0
-707.6983216269255 -24.338839644415444 -358.96144219028145 -140.48434308210938 0.0 0.0
-762.3796074709123 -35.47645525201389 -394.39448491679207 -137.6992179256052 0.0 0.0
-812.6550676237359 -47.67915314011984 -426.74316662274737 -134.07431482578409 0.0 0.0
-859.6351216027683 -60.62195545928191 -457.3114779134992 -130.2639834544345 0.0 0.0
-905.5859496389164 -76.42612858654294 -488.5367417079091 -127.55404323395692 0.0 0.0
-952.107004691368 -96.81793831607774 -522.2284422963296 -127.52908408182749 0.0 0.0
-999.6816939706632 -122.89936864013401 -559.3004735058344 -130.75201381208555 0.0 0.0
-1049.228086540951 -156.33120909212695 -601.0331835981868 -136.07034224372197 0.0 0.0
-1102.9637107514839 -200.33751748109393 -650.0690410835442 -140.8358687746265 0.0 0.0
-1175.1090528580307 -272.53350107726885 -722.0824893976585 -141.66845747513335 0.0 0.0
-1272.533486799842 -396.49739346633635 -832.7281699110179 -142.17363166634607 0.0 0.0
-1272.5334867991214 -396.4973934658029 -832.7281699106129 142.1736316666566 0.0 0.0
-1175.109052858452 -272.5335010778626 -722.0824893979999 141.66845747542772 0.0 0.0
-1102.963710752151 -200.3375174820012 -650.0690410840268 140.83586877492635 0.0 0.0
-1049.2280865407015 -156.33120909214742 -601.0331835980127 136.07034224396267 0.0 0.0
-999.6816939708023 -122.89936864042718 -559.3004735059149 130.75201381218133 0.0 0.0
-952.1070046921905 -96.81793831723533 -522.2284422968777 127.52908408209373 0.0 0.0
-905.5859496389539 -76.42612858685115 -488.5367417079967 127.55404323405003 0.0 0.0
-859.6351216028983 -60.62195545959916 -457.3114779135941 130.2639834544927 0.0 0.0
-812.6550676235802 -47.67915314025376 -426.7431666226342 134.07431482584488 0.0 0.0
-762.3796074701493 -35.47645525157318 -394.3944849163091 137.69921792565862 0.0 0.0
-707.6983216265088 -24.33883964420105 -358.9614421899472 140.48434308203872 0.0 0.0
-643.7838795646146 -12.154655357642373 -313.9444495538684 142.19414489593566 0.0 0.0
-564.710394597553 1.0482515749325483 -251.7121046637713 144.83666836933736 0.0 0.0
-462.7789295611395 14.49942645198702 -173.4365319344763 154.54998367301627 0.0 0.0
-347.0537983149222 21.703218620999593 -107.13518591021625 167.16869325701603 0.0 0.0
-253.37831739229534 21.9935113010293 -70.76163453759685 170.00862219496173 0.0 0.0
-190.06627472389366 18.503356127741668 -51.6842380349547 172.58890091575756 0.0 0.0
-141.17949721105663 2.9608497183038693 -41.48855059519721 177.26966666214832 0.0 0.0
-90.82124923434188 -43.33728334834072 -40.24703274352928 170.3930316961909 0.0 0.0
-29.996058917879186 -130.8260975304586 -48.246646934501335 102.11920392201482 0.0 0.0
-30.94605748137399 -93.92859521688598 -37.46239580947799 -86.20538245306227 0.0 0.0
-100.47959844394344 -36.8774976427852 -41.20712882601858 -154.28781802769342 0.0 0.0
-167.59282507798477 2.514457922064941 -49.532210018836516 -163.70067662659346 0.0 0.0
-234.50150059992222 16.944503602227744 -65.4567375329626 -157.08922534329147 0.0 0.0
-316.35004058285597 23.926569005153745 -90.28491117469235 -149.87043749424575 0.0 0.0
-423.858529387473 24.172321525100216 -139.5400762477829 -137.55254527694984 0.0 0.0
-533.2660121226471 13.99332130792886 -216.77944912252497 -124.15446780624336 0.0 0.0
-623.3960933890307 -0.4433646237454809 -291.6404003967848 -120.6920534698167 0.0 0.0
-697.2870072478609 -15.453331106897622 -347.4113653924503 -121.52535801236988 0.0 0.0
-761.0973660197915 -29.899636460728573 -390.42793482660034 -121.37010351375017 0.0 0.0
-819.4899851752817 -45.18398716112132 -428.70693477103976 -119.35393021684878 0.0 0.0
-874.0881431662551 -61.480826744484744 -464.88356099449754 -116.21030311559758 0.0 0.0
-925.5145371802081 -78.34017685328652 -499.49317739245015 -112.70867730914502 0.0 0.0
-975.4745036937563 -96.97299814015733 -534.0601585326943 -109.9579237948214 0.0 0.0
-1027.33403171794 -120.88284037091034 -572.0791011804031 -109.57135625887234 0.0 0.0
-1083.9774775628223 -154.11014543169648 -617.1274433611172 -112.28657719770342 0.0 0.0
-1147.3316815450403 -198.63895583418955 -671.1913901645393 -117.00221576498994 0.0 0.0
-1220.0056296325079 -259.1182784911286 -737.7949014172752 -120.29341335245049 0.0 0.0
-1303.4571876322425 -341.73469628763047 -820.8019952808448 -120.01479258957386 0.0 0.0
-1388.7187929626589 -451.3715472860948 -918.3597835338361 -121.48866808319512 0.0 0.0
-1388.7187929617464 -451.3715472852211 -918.359783533221 121.4886680832818 0.0 0.0
-1303.4571876317787 -341.734696287197 -820.8019952805507 120.01479258967348 0.0 0.0
-1220.0056296315631 -259.1182784902137 -737.7949014167016 120.2934133524301 0.0 0.0
-1147.3316815446717 -198.63895583401634 -671.1913901643512 117.00221576514483 0.0 0.0
-1083.9774775626809 -154.1101454316073 -617.1274433610055 112.28657719756683 0.0 0.0
-1027.334031717464 -120.88284037053855 -572.0791011800798 109.57135625875958 0.0 0.0
-975.4745036936793 -96.97299814021537 -534.06015853253 109.9579237948268 0.0 0.0
-925.5145371802778 -78.34017685368413 -499.4931773925756 112.70867730931542 0.0 0.0
-874.0881431655143 -61.4808267438454 -464.883560993966 116.21030311541583 0.0 0.0
-819.4899851741854 -45.18398716023816 -428.7069347702819 119.35393021683299 0.0 0.0
-761.0973660194877 -29.89963646072335 -390.42793482638626 121.37010351371066 0.0 0.0
-697.2870072475357 -15.453331106875748 -347.4113653922431 121.52535801233525 0.0 0.0
-623.3960933886108 -0.44336462357591344 -291.64040039641077 120.69205346971725 0.0 0.0
-533.2660121222978 13.993321307762265 -216.77944912221486 124.1544678063349 0.0 0.0
-423.85852938706944 24.17232152498501 -139.54007624755073 137.55254527692625 0.0 0.0
-316.35004058248063 23.926569005007398 -90.28491117460908 149.87043749416955 0.0 0.0
-234.50150059990176 16.94450360182165 -65.4567375330835 157.0892253432108 0.0 0.0
-167.5928250778096 2.5144579222137278 -49.53221001874413 163.700676626504 0.0 0.0
-100.47959844373258 -36.87749764249964 -41.207128825869674 154.2878180276379 0.0 0.0
-30.946057481323155 -93.92859521670331 -37.46239580940793 86.2053824529299 0.0 0.0
-31.739261293432044 -62.262593162784796 -28.20055633686505 -69.84798992528599 0.0 0.0
-109.24862999885843 -29.24497613881171 -41.54808184130104 -134.45380440593522 0.0 0.0
-192.42828067906075 1.9552319614580957 -57.1397275094603 -145.71865134171034 0.0 0.0
-276.19967865783497 14.870641255375126 -78.68454711308728 -137.2639715774233 0.0 0.0
-374.6438097601633 25.795328933498794 -110.16759428756234 -125.27384684261173 0.0 0.0
-486.73215537741635 23.974192081975318 -172.6267978856382 -107.11138687175051 0.0 0.0
-585.7093521169505 13.396289384619372 -253.03222713455435 -97.72049016352291 0.0 0.0
-667.7119904193664 -2.0122731361292097 -321.26176932109274 -98.45675259717885 0.0 0.0
-739.2152719933507 -17.727923795678763 -372.0545618693451 -101.05618747750157 0.0 0.0
-805.3138658831285 -35.2735761618608 -416.19604885473484 -101.72976657569163 0.0 0.0
-867.7164046738058 -54.66261542724655 -458.0620456120493 -100.25958165401224 0.0 0.0
-926.7612023359841 -75.24955713569344 -498.43442728740064 -97.69189178710857 0.0 0.0
-982.8200972446489 -96.2313576361856 -537.3539950279044 -94.76841599781696 0.0 0.0
-1036.7555763562773 -118.21499501707103 -575.5569230960266 -92.01330439933155 0.0 0.0
-1093.1103912479525 -145.35267665222403 -617.3756791616285 -90.90255386334852 0.0 0.0
-1158.3741108420204 -184.97015440541986 -669.8248160354137 -92.66804446269738 0.0 0.0
-1235.2771810019622 -241.63331948411764 -736.6308622526103 -96.44965356663366 0.0 0.0
-1322.84485694028 -316.2334116468046 -817.7445122178439 -99.61914467557985 0.0 0.0
-1412.185835968595 -404.9972167243044 -906.8509776862278 -101.1500129530945 0.0 0.0
-1490.3228834078434 -506.3071248832062 -996.7445938307067 -106.1311770450159 0.0 0.0
-1490.3228834089111 -506.3071248843363 -996.744593831403 106.1311770451658 0.0 0.0
-1412.1858359701491 -404.997216726022 -906.8509776872695 101.15001295341682 0.0 0.0
-1322.8448569402162 -316.23341164683865 -817.7445122176301 99.61914467567078 0.0 0.0
-1235.2771810012064 -241.63331948351515 -736.6308622519034 96.44965356681324 0.0 0.0
-1158.3741108424026 -184.97015440602294 -669.8248160355963 92.6680444628727 0.0 0.0
-1093.110391248345 -145.3526766528047 -617.3756791618398 90.9025538634106 0.0 0.0
-1036.7555763566738 -118.21499501758647 -575.5569230962876 92.01330439922637 0.0 0.0
-982.8200972444204 -96.23135763625774 -537.3539950277651 94.76841599804123 0.0 0.0
-926.7612023358225 -75.24955713575154 -498.4344272873431 97.69189178710609 0.0 0.0
-867.7164046737294 -54.66261542744602 -458.06204561201866 100.25958165402452 0.0 0.0
-805.3138658832399 -35.27357616223649 -416.19604885482727 101.72976657561448 0.0 0.0
-739.2152719928191 -17.72792379542893 -372.0545618690294 101.05618747746453 0.0 0.0
-667.711990419212 -2.0122731362607453 -321.2617693209337 98.456752597096 0.0 0.0
-585.7093521167884 13.396289384376335 -253.03222713432837 97.72049016350304 0.0 0.0
-486.7321553770744 23.97419208194987 -172.62679788535064 107.11138687163523 0.0 0.0
-374.64380975979054 25.795328933359436 -110.16759428744872 125.27384684252667 0.0 0.0
-276.1996786577083 14.870641255227538 -78.68454711310098 137.2639715772164 0.0 0.0
-192.42828067897779 1.9552319613918128 -57.13972750945615 145.71865134149198 0.0 0.0
-109.2486299988451 -29.2449761390012 -41.548081841353884 134.45380440578577 0.0 0.0
-31.739261293423432 -62.26259316285012 -28.200556336882062 69.84798992531589 0.0 0.0
-32.29894383349751 -36.31796972023938 -20.585074066121066 -52.99710021756409 0.0 0.0
-117.03543109981004 -21.00042059692658 -41.41075550902099 -111.29184983928069 0.0 0.0
-215.93797460557695 1.1886265348649383 -64.42404393712448 -123.29586323608007 0.0 0.0
-316.9354995052504 13.219268854931771 -91.49859301784761 -113.82770313263758 0.0 0.0
-429.089642466157 26.269170498339964 -131.6577677423007 -97.01237620434424 0.0 0.0
-536.0156121194029 23.01059367154278 -204.00703021475886 -78.68849438744522 0.0 0.0
-624.2139620886201 11.803945512285736 -282.16748745307564 -74.07498079211513 0.0 0.0
-701.9076993845014 -2.2481624354432057 -342.5398679316903 -77.06758570793369 0.0 0.0
-774.0153236451791 -19.65402750584633 -391.81121993938825 -80.28746935120127 0.0 0.0
-843.06791880328 -40.631369105493775 -438.3297996935519 -81.36050703070586 0.0 0.0
-909.3289434761982 -63.85248865501654 -483.80620231345466 -80.4089150452237 0.0 0.0
-973.0208001564899 -88.74496860085733 -528.5586233699753 -78.4856059619201 0.0 0.0
-1033.9913813227167 -114.3654567861984 -572.1889832336104 -76.22760698593807 0.0 0.0
-1093.126201506713 -140.76964400740727 -615.1899975104589 -73.7878735977932 0.0 0.0
-1153.5721401337414 -171.00732826090803 -660.5979659643257 -71.83629366381733 0.0 0.0
-1223.8923136093929 -214.77083793035825 -717.5612524290052 -71.94914609687501 0.0 0.0
-1312.4687082177763 -281.6259014171813 -795.2254196056919 -74.9132441687047 0.0 0.0
-1412.6967901044281 -368.2212334919407 -888.6871504083408 -79.21338781135873 0.0 0.0
-1510.4820933550816 -465.5662171599248 -986.3463086181973 -84.15699748015098 0.0 0.0
-1587.2940271930365 -564.7460757598953 -1074.5351716276962 -93.7956866015472 0.0 0.0
-1587.2940271927591 -564.7460757596458 -1074.5351716275281 93.79568660161979 0.0 0.0
-1510.482093355009 -465.566217159912 -986.346308618181 84.15699748020702 0.0 0.0
-1412.6967901052324 -368.22123349284107 -888.6871504089695 79.21338781144976 0.0 0.0
-1312.4687082169976 -281.625901416489 -795.2254196052315 74.91324416871409 0.0 0.0
-1223.8923136081187 -214.77083792920035 -717.5612524280758 71.94914609687743 0.0 0.0
-1153.5721401335086 -171.00732826085567 -660.5979659640923 71.83629366393404 0.0 0.0
-1093.1262015052187 -140.76964400608827 -615.1899975093697 73.78787359780976 0.0 0.0
-1033.9913813224389 -114.36545678613851 -572.1889832333974 76.22760698599456 0.0 0.0
-973.020800156025 -88.74496860062368 -528.5586233696001 78.48560596200755 0.0 0.0
-909.328943475763 -63.852488654868445 -483.80620231311764 80.40891504528493 0.0 0.0
-843.067918803478 -40.63136910599091 -438.32979969365834 81.36050703070988 0.0 0.0
-774.0153236443517 -19.654027505291566 -391.81121993889633 80.28746935113043 0.0 0.0
-701.9076993829173 -2.24816243400776 -342.5398679306285 77.06758570766537 0.0 0.0
-624.2139620879716 11.803945512572525 -282.16748745258724 74.07498079215085 0.0 0.0
-536.0156121190729 23.010593671393803 -204.00703021449164 78.68849438756997 0.0 0.0
-429.08964246599396 26.269170497955304 -131.65776774229403 97.01237620441482 0.0 0.0
-316.9354995050343 13.219268854923879 -91.49859301779904 113.82770313238507 0.0 0.0
-215.93797460524894 1.1886265350500902 -64.42404393697143 123.29586323597832 0.0 0.0
-117.03543109971426 -21.000420596934323 -41.41075550899457 111.29184983920808 0.0 0.0
-32.29894383341131 -36.31796972019482 -20.585074066081834 52.99710021758117 0.0 0.0
-32.01527260427952 -16.556690613740173 -14.571588965405903 -35.77303689607984 0.0 0.0
-123.03238947633518 -12.624723241553784 -40.69713381536669 -85.02973281327301 0.0 0.0
-238.55440822105288 0.003265320236452318 -71.5653428702449 -96.38277468354977 0.0 0.0
-357.5419779897026 12.988463221810878 -104.04343606046417 -86.67032714155573 0.0 0.0
-476.4309252689991 25.35555336060092 -154.67459698161394 -67.14412207462277 0.0 0.0
-574.4426967067845 20.868447103993844 -233.1472963375477 -53.48628335653637 0.0 0.0
-655.0791389757939 10.866349176070685 -304.9378901417224 -52.33041351879343 0.0 0.0
-729.7714277999838 -2.0153403293619476 -358.82377320662135 -55.69936897877318 0.0 0.0
-803.2877588740112 -21.656640823459014 -408.2992268570214 -58.96463823429623 0.0 0.0
-875.4413488719761 -45.7839009476034 -457.49556584892224 -60.268877910504415 0.0 0.0
-945.7890983649036 -72.80859476434108 -506.7724145216839 -59.7985798039341 0.0 0.0
-1013.9825179610166 -101.9045157682516 -555.8103451434112 -58.5043461585957 0.0 0.0
-1080.5085359504242 -132.4224160342125 -604.6119417815617 -57.00271573570583 0.0 0.0
-1145.61689529277 -164.60877606867103 -653.4617135112251 -55.07854400562785 0.0 0.0
-1211.1610053886277 -199.5462016325196 -703.795611557608 -52.683081283359115 0.0 0.0
-1283.5143162448999 -244.26814188550713 -762.2602399671559 -50.990583870780746 0.0 0.0
-1374.4106120961837 -312.47738282374723 -841.6622513313297 -52.5775585039934 0.0 0.0
-1490.209337473397 -413.73034489076406 -950.2050211718663 -58.42426326245428 0.0 0.0
-1601.8787096790638 -524.2333871818619 -1061.4309769563447 -67.83374628272294 0.0 0.0
-1688.0057816804438 -631.2638285029464 -1158.2123134505764 -83.07495854230878 0.0 0.0
-1688.0057816807312 -631.2638285032441 -1158.2123134508165 83.07495854232593 0.0 0.0
-1601.8787096785709 -524.233387181416 -1061.430976955999 67.83374628275654 0.0 0.0
-1490.2093374728377 -413.7303448902784 -950.2050211713756 58.42426326245125 0.0 0.0
-1374.4106120954534 -312.4773828231483 -841.6622513305583 52.57755850410371 0.0 0.0
-1283.51431624401 -244.26814188474208 -762.2602399663955 50.99058387075535 0.0 0.0
-1211.1610053885477 -199.54620163258267 -703.7956115574611 52.68308128332845 0.0 0.0
-1145.6168952921942 -164.6087760682622 -653.4617135107828 55.078544005615036 0.0 0.0
-1080.5085359504426 -132.42241603445876 -604.6119417815544 57.00271573580049 0.0 0.0
-1013.9825179609431 -101.9045157684026 -555.8103451434142 58.50434615849818 0.0 0.0
-945.7890983647192 -72.80859476437574 -506.77241452153976 59.79857980389174 0.0 0.0
-875.4413488714497 -45.783900947437346 -457.4955658485818 60.26887791075133 0.0 0.0
-803.2877588735473 -21.65664082330163 -408.2992268566731 58.964638234291584 0.0 0.0
-729.771427799846 -2.0153403295002548 -358.8237732065045 55.69936897862014 0.0 0.0
-655.0791389758256 10.866349175633097 -304.93789014168965 52.33041351890228 0.0 0.0
-574.4426967063177 20.868447104123213 -233.1472963371442 53.48628335656505 0.0 0.0
-476.4309252684566 25.355553360766827 -154.6745969813062 67.14412207477208 0.0 0.0
-357.54197798945324 12.98846322181139 -104.04343606041569 86.670327141518 0.0 0.0
-238.55440822091435 0.00326531992979584 -71.56534287029537 96.3827746835882 0.0 0.0
-123.03238947636694 -12.624723241823599 -40.697133815457164 85.02973281327729 0.0 0.0
-32.01527260434069 -16.556690613843788 -14.571588965455343 35.77303689595173 0.0 0.0
-29.573509582667345 -3.3664971601851854 -9.882002022855758 -18.692233726422472 0.0 0.0
-125.52221588654766 -4.740562456385815 -39.07883350288003 -55.631482991946015 0.0 0.0
-260.7145341972031 -1.3770721835444304 -78.62748191422423 -64.47482414516477 0.0 0.0
-399.4333215399091 14.026404582006286 -117.27974053343836 -55.899176040709605 0.0 0.0
-515.3321533011667 23.98103272488161 -178.25479189957727 -38.72264444547028 0.0 0.0
-602.7444200719059 17.62070213476975 -258.70446160426354 -30.793490280503907 0.0 0.0
-679.1815403248297 11.227245560650886 -321.5078353908449 -31.418945991919923 0.0 0.0
-752.939160148431 -2.363561859018759 -372.1580343407297 -34.30127643955908 0.0 0.0
-827.629622553103 -23.479295829012727 -421.96270526555725 -37.06872332222366 0.0 0.0
-903.0853531769585 -50.68907238735096 -474.0762158015178 -38.41001838063081 0.0 0.0
-977.6661153103587 -81.5493229577778 -527.291770740962 -38.41159285579753 0.0 0.0
-1050.7681613155032 -114.72280110977226 -580.7675971096432 -37.76885075942774 0.0 0.0
-1122.7151697943377 -150.48323703454082 -634.8539192981082 -36.88828634939766 0.0 0.0
-1194.6248029414664 -188.8833928425482 -690.1719815552158 -35.66128794568703 0.0 0.0
-1267.1816944355376 -230.52952988337177 -747.3770888235255 -33.666654465303985 0.0 0.0
-1341.6899192642827 -277.25776998873897 -808.004690913557 -30.959612956919226 0.0 0.0
-1425.652563990407 -337.93792187499685 -880.1820791431613 -30.074721948844207 0.0 0.0
-1536.0668893967138 -432.38778131657017 -982.4358029650655 -35.89214744399091 0.0 0.0
-1694.6776882944469 -587.59238982946 -1139.4965933913586 -50.4544397752226 0.0 0.0
-1801.7751660025415 -713.2257236647154 -1256.131711168425 -72.9747463202001 0.0 0.0
-1801.7751660028594 -713.225723665093 -1256.131711168663 72.97474632038198 0.0 0.0
-1694.6776882961644 -587.5923898312651 -1139.4965933925168 50.45443977539831 0.0 0.0
-1536.0668893976379 -432.3877813176084 -982.4358029657519 35.89214744412536 0.0 0.0
-1425.6525639893396 -337.937921874019 -880.1820791424359 30.074721948824873 0.0 0.0
-1341.6899192649225 -277.2577699895252 -808.0046909138819 30.95961295697584 0.0 0.0
-1267.1816944369887 -230.52952988500667 -747.3770888243388 33.666654465465655 0.0 0.0
-1194.6248029414355 -188.88339284270003 -690.1719815551024 35.66128794558141 0.0 0.0
-1122.7151697935537 -150.48323703393382 -634.8539192974265 36.88828634937782 0.0 0.0
-1050.7681613152217 -114.72280110971838 -580.7675971092489 37.76885075931469 0.0 0.0
-977.6661153102428 -81.54932295790283 -527.291770740825 38.411592855720585 0.0 0.0
-903.0853531771133 -50.689072387813766 -474.07621580162305 38.410018380740155 0.0 0.0
-827.6296225535413 -23.479295829770294 -421.9627052657707 37.06872332227132 0.0 0.0
-752.939160148189 -2.363561859085465 -372.15803434055493 34.30127643954846 0.0 0.0
-679.1815403238141 11.227245561360192 -321.50783539012434 31.41894599185794 0.0 0.0
-602.7444200713143 17.620702135074943 -258.70446160377327 30.79349028040165 0.0 0.0
-515.3321533013047 23.981032724286717 -178.2547918996022 38.72264444541665 0.0 0.0
-399.4333215398182 14.026404581667988 -117.27974053351706 55.8991760406838 0.0 0.0
-260.71453419693347 -1.3770721834777206 -78.62748191412335 64.47482414510073 0.0 0.0
-125.52221588643914 -4.740562456351519 -39.0788335028372 55.631482991766674 0.0 0.0
-29.573509582563197 -3.3664971600364653 -9.882002022779897 18.692233726473713 0.0 0.0
-22.454963348903597 2.9823984348958534 -5.841769474202321 -3.0412363117421775 0.0 0.0
-121.35414480394533 1.780048689723575 -35.87222883426652 -22.51654804562404 0.0 0.0
-283.6689545987437 -2.3202120681195506 -85.79675000005899 -26.517959459126935 0.0 0.0
-439.5071827250157 16.179760595532517 -132.0113097056533 -22.447517303058078 0.0 0.0
-547.811184749874 21.582333798327358 -202.37445239238076 -13.134311581961727 0.0 0.0
-627.2502808165897 15.916312418740851 -279.77358865355876 -10.284416989159903 0.0 0.0
-698.9858409785493 10.90378181730945 -334.7534606898649 -10.920133591444554 0.0 0.0
-771.7739579752232 -2.779483662959592 -382.8423210269728 -12.797468471513028 0.0 0.0
-847.8236234053629 -25.342080264766878 -433.440585606652 -14.625034103362854 0.0 0.0
-926.4650522499387 -55.27597102481025 -488.3143478696702 -15.777926147708612 0.0 0.0
-1005.5072768477738 -89.84346091910606 -545.528632844588 -16.22748115707725 0.0 0.0
-1083.594331670632 -127.75339548987273 -603.8246272910472 -16.185857174788296 0.0 0.0
-1161.2499226024865 -168.34532289146532 -663.1456374999847 -15.951674345061917 0.0 0.0
-1239.7684301470786 -212.68503357827478 -724.703158243848 -15.421314296397155 0.0 0.0
-1319.8777353328517 -261.6751630382307 -789.3419088632934 -14.319365435911664 0.0 0.0
-1400.6347314403206 -314.801558110336 -856.3407921910239 -12.354457805093926 0.0 0.0
-1480.0691879822332 -371.0483806005822 -924.1705951132299 -9.933587666268707 0.0 0.0
-1564.4950459780864 -438.4653381787175 -999.918395549189 -11.550575996541356 0.0 0.0
-1688.89318526234 -555.7824165114787 -1120.4955400754511 -27.505916614833865 0.0 0.0
-2005.4976219883622 -885.0745640542414 -1443.9266105051495 -60.48510965506969 0.0 0.0
-2005.497621988773 -885.0745640546745 -1443.9266105054746 60.48510965507263 0.0 0.0
-1688.8931852623073 -555.7824165115026 -1120.495540075346 27.505916614845944 0.0 0.0
-1564.4950459767965 -438.4653381775056 -999.9183955481508 11.550575996552933 0.0 0.0
-1480.0691879815636 -371.0483806000228 -924.1705951127008 9.933587666278349 0.0 0.0
-1400.6347314393936 -314.80155810953175 -856.3407921904125 12.354457804911679 0.0 0.0
-1319.8777353322266 -261.675163037754 -789.34190886291 14.319365436034765 0.0 0.0
-1239.7684301454772 -212.68503357685296 -724.7031582426848 15.42131429646384 0.0 0.0
-1161.2499226016778 -168.34532289086292 -663.1456374994448 15.951674345051112 0.0 0.0
-1083.5943316712626 -127.75339549074387 -603.8246272914126 16.185857174810707 0.0 0.0
-1005.5072768479737 -89.84346091958902 -545.5286328446462 16.22748115696303 0.0 0.0
-926.4650522491165 -55.27597102422742 -488.3143478690781 15.777926147635927 0.0 0.0
-847.8236234038907 -25.342080263571233 -433.44058560569937 14.625034103375917 0.0 0.0
-771.7739579746673 -2.779483662722484 -382.84232102664896 12.797468471544455 0.0 0.0
-698.985840977792 10.903781817770316 -334.75346068938666 10.92013359131192 0.0 0.0
-627.2502808161653 15.916312418855718 -279.7735886532145 10.284416989147838 0.0 0.0
-547.8111847496766 21.582333798165518 -202.37445239217394 13.134311581864448 0.0 0.0
-439.50718272477275 16.179760595358907 -132.01130970559595 22.44751730298489 0.0 0.0
-283.6689545984674 -2.3202120679522764 -85.79674999992588 26.517959459028724 0.0 0.0
-121.3541448039488 1.7800486896976881 -35.872228834275326 22.51654804546178 0.0 0.0
-22.454963348773557 2.982398434901258 -5.84176947416169 3.041236311520133 0.0 0.0
SCALARS Strain float 6
LOOKUP_TABLE default
0.012669159206494057 -0.013737811606424066 0.0 -0.007641474288467953 0.0 0.0
0.00259353238390031 -0.0017096580178705967 0.0 0.0012845706370630539 0.0 0.0
0.0018686534293608642 -0.0007670740818890298 0.0 -3.6172020866476196e-05 0.0 0.0
0.0024277095192943472 -0.0012123096963947422 0.0 -0.00023578789061329264 0.0 0.0
0.003939046143334696 -0.002464615357512523 0.0 -0.00030920685300045436 0.0 0.0
0.007049678165702702 -0.005273911941188647 0.0 -0.00048769993221731145 0.0 0.0
0.012130954402275225 -0.01008802603612402 0.0 -0.0007954244600846261 0.0 0.0
0.019529572609368603 -0.017215466715626793 0.0 -0.0012766710694842032 0.0 0.0
0.029420609587436686 -0.02680837806027192 0.0 -0.0019492146969882218 0.0 0.0
0.041766895467446344 -0.03882845433332349 0.0 -0.0027541725473428924 0.0 0.0
0.05639395470287188 -0.053113116747697475 0.0 -0.0035891893878685632 0.0 0.0
0.07308681249948835 -0.06945555810805804 0.0 -0.0044016819929441064 0.0 0.0
0.09162702903777512 -0.08764013290134276 0.0 -0.005198118566917875 0.0 0.0
0.11175953579081672 -0.10740745868928725 0.0 -0.005968719337618111 0.0 0.0
0.13307397377682798 -0.12834378167039429 0.0 -0.006672091766561472 0.0 0.0
0.15487174937071935 -0.1497544810420557 0.0 -0.007164203126342916 0.0 0.0
0.17611233259517162 -0.17061197819802398 0.0 -0.007200961870215572 0.0 0.0
0.19545371374864476 -0.1895872184358316 0.0 -0.006570983115430251 0.0 0.0
0.21129937783379393 -0.20508331170973015 0.0 -0.005650185811052699 0.0 0.0
0.22127622231800514 -0.21450535094333922 0.0 -0.006750527275531604 0.0 0.0
0.22127622231799113 -0.2145053509433268 0.0 0.0067505272755404855 0.0 0.0
0.2112993778337479 -0.20508331170969107 0.0 0.005650185811075903 0.0 0.0
0.19545371374856688 -0.189587218435757 0.0 0.006570983115445905 0.0 0.0
0.176112332595076 -0.17061197819792584 0.0 0.007200961870222344 0.0 0.0
0.15487174937061543 -0.14975448104194777 0.0 0.007164203126337032 0.0 0.0
0.1330739737767203 -0.12834378167029037 0.0 0.006672091766557808 0.0 0.0
0.11175953579070907 -0.10740745868918422 0.0 0.005968719337615114 0.0 0.0
0.09162702903766745 -0.0876401329012424 0.0 0.005198118566915766 0.0 0.0
0.0730868124993852 -0.06945555810796211 0.0 0.004401681992936002 0.0 0.0
0.056393954702782356 -0.053113116747612654 0.0 0.0035891893878595704 0.0 0.0
0.04176689546737122 -0.03882845433324711 0.0 0.00275417254733179 0.0 0.0
0.0294206095873778 -0.026808378060215965 0.0 0.00194921469698639 0.0 0.0
0.019529572609325252 -0.017215466715586825 0.0 0.0012766710694808725 0.0 0.0
0.012130954402245597 -0.010088026036094933 0.0 0.000795424460084182 0.0 0.0
0.0070496781656853025 -0.0052739119411708835 0.0 0.0004876999322155351 0.0 0.0
0.003939046143327296 -0.002464615357503419 0.0 0.00030920685299984374 0.0 0.0
0.0024277095192926645 -0.0012123096963917446 0.0 0.00023578789061229344 0.0 0.0
0.0018686534293594348 -0.0007670740818885857 0.0 3.617202086525495e-05 0.0 0.0
0.0025935323838980895 -0.0017096580178690979 0.0 -0.0012845706370596122 0.0 0.0
0.012669159206482816 -0.013737811606409939 0.0 0.00764147428843287 0.0 0.0
0.00906777789737092 -0.010514758164048177 0.0 -0.009291968002424156 0.0 0.0
0.0013929050694418965 -0.000857033355528003 0.0 0.0001237954514732853 0.0 0.0
0.0015925233568325342 -0.0005605616556946247 0.0 -0.00012617352085242395 0.0 0.0
0.0021160783942730174 -0.0010009501684324906 0.0 -0.0004981682118271324 0.0 0.0
0.0033247440908304587 -0.0019515697554888245 0.0 -0.0006864209787931785 0.0 0.0
0.005994468072399707 -0.00430677528513046 0.0 -0.001122836434141683 0.0 0.0
0.010531067250601135 -0.008554695722430283 0.0 -0.0018935323290538153 0.0 0.0
0.01722481254432931 -0.014970604452526182 0.0 -0.0030287565239173753 0.0 0.0
0.02618754783573371 -0.023642314244975537 0.0 -0.004534129483710236 0.0 0.0
0.03733253082986244 -0.034478505063253895 0.0 -0.006271146299397068 0.0 0.0
0.05047124844761558 -0.04729986432274469 0.0 -0.008045411836091698 0.0 0.0
0.06542053330001865 -0.06192792698108551 0.0 -0.009746915995560601 0.0 0.0
0.08202554061552347 -0.07820604780054996 0.0 -0.011430777340324216 0.0 0.0
0.1000830402441374 -0.09592887174607156 0.0 -0.013102100973665431 0.0 0.0
0.11924230446071625 -0.11474471909150274 0.0 -0.0146364419094423 0.0 0.0
0.13891296441530748 -0.13406527549412983 0.0 -0.015749944328410703 0.0 0.0
0.15819827776746878 -0.1529985717641802 0.0 -0.015979995156642723 0.0 0.0
0.17586493514005566 -0.17031246554826396 0.0 -0.015015536540757823 0.0 0.0
0.19020278572466162 -0.184253408357697 0.0 -0.013182779225760943 0.0 0.0
0.1988526908065572 -0.19259882514829396 0.0 -0.010295805393154889 0.0 0.0
0.19885269080654255 -0.19259882514828064 0.0 0.010295805393179536 0.0 0.0
0.19020278572461993 -0.18425340835764903 0.0 0.013182779225804686 0.0 0.0
0.17586493513998755 -0.17031246554819823 0.0 0.0150155365407878 0.0 0.0
0.15819827776738565 -0.15299857176410603 0.0 0.01597999515665849 0.0 0.0
0.13891296441521483 -0.13406527549404235 0.0 0.0157499443284026 0.0 0.0
0.11924230446061951 -0.11474471909140904 0.0 0.014636441909435693 0.0 0.0
0.10008304024403986 -0.09592887174597564 0.0 0.013102100973661157 0.0 0.0
0.08202554061542766 -0.07820604780045715 0.0 0.011430777340320941 0.0 0.0
0.06542053329992759 -0.06192792698099314 0.0 0.009746915995548 0.0 0.0
0.05047124844753437 -0.0472998643226652 0.0 0.008045411836078764 0.0 0.0
0.03733253082979554 -0.03447850506318684 0.0 0.006271146299379526 0.0 0.0
0.02618754783568017 -0.023642314244922247 0.0 0.004534129483702576 0.0 0.0
0.017224812544290147 -0.014970604452486436 0.0 0.0030287565239061065 0.0 0.0
0.0105310672505749 -0.008554695722405192 0.0 0.0018935323290483752 0.0 0.0
0.005994468072384962 -0.004306775285115583 0.0 0.001122836434136576 0.0 0.0
0.0033247440908243386 -0.0019515697554826072 0.0 0.0006864209787901809 0.0 0.0
0.002116078394271581 -0.0010009501684307143 0.0 0.0004981682118282982 0.0 0.0
0.0015925233568322428 -0.0005605616556950688 0.0 0.00012617352085508848 0.0 0.0
0.001392905069441286 -0.0008570333555269483 0.0 -0.00012379545147439552 0.0 0.0
0.009067777897357243 -0.010514758164032311 0.0 0.00929196800239429 0.0 0.0
0.0067527060485989415 -0.008375563114931484 0.0 -0.008638115882397823 0.0 0.0
0.0008148498000577833 -0.0005631703493182982 0.0 -0.0005955710738007602 0.0 0.0
0.0012744015320481986 -0.00040978300778182764 0.0 -0.0004417367453264376 0.0 0.0
0.0018224376198972825 -0.0008082207286854715 0.0 -0.0007429552961631947 0.0 0.0
0.0027779858861311305 -0.0015221313290743055 0.0 -0.0010043916587839652 0.0 0.0
0.004983020368164608 -0.0034024185686198916 0.0 -0.001590640458195014 0.0 0.0
0.008944736273785787 -0.007047497901919941 0.0 -0.002704869917752206 0.0 0.0
0.014893239795551495 -0.012712929379755433 0.0 -0.004370777203948573 0.0 0.0
0.022890897193944812 -0.020425249112246746 0.0 -0.006529282746598364 0.0 0.0
0.032810622671644196 -0.03005461519407726 0.0 -0.008982707952335689 0.0 0.0
0.044455121746524114 -0.04140657787385571 0.0 -0.011487022851662199 0.0 0.0
0.05766289799875743 -0.05432047928319195 0.0 -0.013901460572629643 0.0 0.0
0.07231838190113166 -0.06867847031612007 0.0 -0.01626974864163999 0.0 0.0
0.08827849599447926 -0.08433583670769096 0.0 -0.01863436262485635 0.0 0.0
0.10527121164652364 -0.10102100018693116 0.0 -0.02084419689616429 0.0 0.0
0.12282223310877957 -0.11825870928313442 0.0 -0.022494299645083038 0.0 0.0
0.14017819989153968 -0.13529207507612018 0.0 -0.023027407547957957 0.0 0.0
0.15619167519637958 -0.1509597098805795 0.0 -0.02199327654513694 0.0 0.0
0.16919742381447944 -0.16362717800620885 0.0 -0.01890534966858759 0.0 0.0
0.17729848795045955 -0.1714821653496763 0.0 -0.012784193117554188 0.0 0.0
0.1772984879504457 -0.17148216534966565 0.0 0.012784193117596376 0.0 0.0
0.16919742381444153 -0.16362717800617244 0.0 0.018905349668647875 0.0 0.0
0.15619167519631993 -0.1509597098805182 0.0 0.021993276545179352 0.0 0.0
0.14017819989146754 -0.1352920750760429 0.0 0.02302740754797683 0.0 0.0
0.12282223310869783 -0.11825870928304871 0.0 0.022494299645074323 0.0 0.0
0.10527121164643774 -0.10102100018684634 0.0 0.020844196896155243 0.0 0.0
0.08827849599439219 -0.0843358367076048 0.0 0.01863436262484819 0.0 0.0
0.07231838190104733 -0.06867847031603791 0.0 0.016269748641631998 0.0 0.0
0.057662897998677964 -0.05432047928311601 0.0 0.013901460572610769 0.0 0.0
0.044455121746451554 -0.04140657787378643 0.0 0.011487022851643935 0.0 0.0
0.03281062267158513 -0.030054615194016865 0.0 0.008982707952313929 0.0 0.0
0.022890897193896698 -0.02042524911219923 0.0 0.006529282746585374 0.0 0.0
0.0148932397955166 -0.012712929379720128 0.0 0.0043707772039357495 0.0 0.0
0.00894473627376352 -0.0070474979018959605 0.0 0.0027048699177456004 0.0 0.0
0.004983020368152125 -0.003402418568607901 0.0 0.0015906404581895184 0.0 0.0
0.002777985886126877 -0.0015221313290696425 0.0 0.0010043916587801904 0.0 0.0
0.001822437619896311 -0.0008082207286844723 0.0 0.0007429552961627506 0.0 0.0
0.001274401532048497 -0.0004097830077831599 0.0 0.00044173674532477225 0.0 0.0
0.0008148498000569715 -0.0005631703493159113 0.0 0.0005955710737982067 0.0 0.0
0.006752706048585966 -0.008375563114917037 0.0 0.00863811588237251 0.0 0.0
0.005122997491998904 -0.006759798705526676 0.0 -0.007354001966632107 0.0 0.0
0.0005093434852741913 -0.0004189738230128137 0.0 -0.0011996276855546495 0.0 0.0
0.0009873271541139539 -0.0002995513859599397 0.0 -0.0008673394927425915 0.0 0.0
0.001539715847437284 -0.0006429839515516012 0.0 -0.0010151812830130336 0.0 0.0
0.002296001990041957 -0.0011755843833214374 0.0 -0.001289534088384059 0.0 0.0
0.004050542724331044 -0.0026003829534830825 0.0 -0.0019194831270001322 0.0 0.0
0.007386991311653296 -0.005596768171992839 0.0 -0.00323991509813909 0.0 0.0
0.012562996445094912 -0.010470406761148965 0.0 -0.005297003752550877 0.0 0.0
0.019564126756810074 -0.01719386215269525 0.0 -0.007925860782391603 0.0 0.0
0.02823887876946926 -0.025595814624697066 0.0 -0.010893644974579064 0.0 0.0
0.038380593085187764 -0.03546879931575386 0.0 -0.01391526457283121 0.0 0.0
0.04984302508658209 -0.04666406567440573 0.0 -0.0168481394035761 0.0 0.0
0.06254541892246378 -0.059098771527582805 0.0 -0.01973977508817132 0.0 0.0
0.07639574169824923 -0.07267803074814472 0.0 -0.02258855092851375 0.0 0.0
0.091201834798554 -0.08721261859495932 0.0 -0.025253459772451692 0.0 0.0
0.10661307000121464 -0.1023480759476989 0.0 -0.027361901393174293 0.0 0.0
0.12202044065537232 -0.11746258317208369 0.0 -0.02828410478716914 0.0 0.0
0.13641803718425677 -0.13154820079969287 0.0 -0.027259245450408476 0.0 0.0
0.1483612746305717 -0.14319136329049442 0.0 -0.02320985307243817 0.0 0.0
0.1562387839647968 -0.15084716521410435 0.0 -0.014807367247070213 0.0 0.0
0.15623878396478463 -0.15084716521409192 0.0 0.014807367247123726 0.0 0.0
0.14836127463053686 -0.14319136329045712 0.0 0.023209853072508002 0.0 0.0
0.1364180371842049 -0.1315482007996467 0.0 0.027259245450456104 0.0 0.0
0.1220204406553102 -0.11746258317202951 0.0 0.028284104787192232 0.0 0.0
0.10661307000114367 -0.10234807594763407 0.0 0.0273619013931643 0.0 0.0
0.0912018347984784 -0.08721261859489404 0.0 0.02525345977244231 0.0 0.0
0.07639574169817356 -0.07267803074807722 0.0 0.022588550928505424 0.0 0.0
0.06254541892239096 -0.059098771527516636 0.0 0.019739775088159273 0.0 0.0
0.049843025086513615 -0.04666406567433867 0.0 0.01684813940355334 0.0 0.0
0.03838059308512526 -0.03546879931569169 0.0 0.01391526457280634 0.0 0.0
0.028238878769417886 -0.025595814624649105 0.0 0.010893644974553918 0.0 0.0
0.019564126756768607 -0.017193862152656614 0.0 0.007925860782377336 0.0 0.0
0.01256299644506459 -0.010470406761117879 0.0 0.0052970037525416624 0.0 0.0
0.007386991311634394 -0.005596768171974631 0.0 0.003239915098132373 0.0 0.0
0.0040505427243213155 -0.002600382953475311 0.0 0.001919483126994026 0.0 0.0
0.0022960019900393203 -0.0011755843833176627 0.0 0.0012895340883829487 0.0 0.0
0.0015397158474363404 -0.0006429839515492697 0.0 0.0010151812830119789 0.0 0.0
0.0009873271541140927 -0.0002995513859584964 0.0 0.0008673394927415923 0.0 0.0
0.0005093434852742607 -0.00041897382301159247 0.0 0.001199627685554261 0.0 0.0
0.005122997491986914 -0.006759798705513631 0.0 0.007354001966615731 0.0 0.0
0.0038759874831930385 -0.005441221203986324 0.0 -0.006030787438916441 0.0 0.0
0.0003396933437118943 -0.00033758222945479144 0.0 -0.001670216786686829 0.0 0.0
0.0007483561369543701 -0.00022113736449114185 0.0 -0.0012966023879404376 0.0 0.0
0.0012671000216438882 -0.0005031243226891746 0.0 -0.001317917366022825 0.0 0.0
0.0018719731479983348 -0.0009012797125156347 0.0 -0.0015566703296518991 0.0 0.0
0.0032142095273845067 -0.0019217812582033034 0.0 -0.0021702402894265282 0.0 0.0
0.005901310690259995 -0.004245628314829553 0.0 -0.0035207431597318872 0.0 0.0
0.010255792522801982 -0.008274419093175833 0.0 -0.005767077460951009 0.0 0.0
0.0162403482484495 -0.013982823115246568 0.0 -0.008717149261004364 0.0 0.0
0.023652810605511165 -0.02113962840979111 0.0 -0.01200082255930407 0.0 0.0
0.03228376142562901 -0.02952429908505927 0.0 -0.015339859342320683 0.0 0.0
0.04199645757666623 -0.03899688790557532 0.0 -0.0185856796559708 0.0 0.0
0.05274153050298021 -0.0495037642106988 0.0 -0.021788369694686005 0.0 0.0
0.0644777985809488 -0.061001600229882325 0.0 -0.02495837936183487 0.0 0.0
0.07708359027405275 -0.0733699727743713 0.0 -0.027915748703530918 0.0 0.0
0.0903120428078408 -0.08635895687522988 0.0 -0.03031119346812583 0.0 0.0
0.10371803937898869 -0.09951325782207565 0.0 -0.03158767923030237 0.0 0.0
0.11653363205117884 -0.11205687352170468 0.0 -0.030769282659637964 0.0 0.0
0.12758131751531707 -0.12283439093079362 0.0 -0.026292764394082346 0.0 0.0
0.1354446647835652 -0.1304821731514343 0.0 -0.016512157672676442 0.0 0.0
0.1354446647835546 -0.13048217315142985 0.0 0.016512157672731842 0.0 0.0
0.1275813175152863 -0.12283439093077231 0.0 0.026292764394156953 0.0 0.0
0.11653363205113379 -0.11205687352165938 0.0 0.030769282659690145 0.0 0.0
0.10371803937893645 -0.09951325782202458 0.0 0.0315876792303279 0.0 0.0
0.09031204280777971 -0.08635895687517481 0.0 0.030311193468116726 0.0 0.0
0.07708359027398765 -0.07336997277430735 0.0 0.02791574870351865 0.0 0.0
0.06447779858088534 -0.061001600229819264 0.0 0.024958379361823546 0.0 0.0
0.05274153050291855 -0.04950376421064062 0.0 0.021788369694674903 0.0 0.0
0.04199645757660872 -0.03899688790552602 0.0 0.018585679655949372 0.0 0.0
0.03228376142557632 -0.029524299085014416 0.0 0.01533985934229587 0.0 0.0
0.023652810605467423 -0.021139628409748035 0.0 0.012000822559278035 0.0 0.0
0.01624034824841486 -0.013982823115214593 0.0 0.00871714926098588 0.0 0.0
0.010255792522776419 -0.008274419093153185 0.0 0.005767077460935244 0.0 0.0
0.005901310690244632 -0.0042456283148142315 0.0 0.003520743159722839 0.0 0.0
0.00321420952737711 -0.0019217812581953098 0.0 0.002170240289419756 0.0 0.0
0.0018719731479965862 -0.0009012797125134142 0.0 0.0015566703296487905 0.0 0.0
0.0012671000216430972 -0.0005031243226896187 0.0 0.0013179173660221033 0.0 0.0
0.0007483561369544534 -0.00022113736449058674 0.0 0.0012966023879411592 0.0 0.0
0.0003396933437120331 -0.0003375822294541253 0.0 0.0016702167866848305 0.0 0.0
0.0038759874831829633 -0.005441221203975879 0.0 0.006030787438902063 0.0 0.0
0.0028894525936602744 -0.004335213306783381 0.0 -0.004867557965900382 0.0 0.0
0.00023730132105913293 -0.0002834165201184291 0.0 -0.002021529393791077 0.0 0.0
0.000548960407601301 -0.00016199407463002302 0.0 -0.001674170163859845 0.0 0.0
0.0010011893022898455 -0.0003803729741873596 0.0 -0.0016245077859050605 0.0 0.0
0.0014961570181905859 -0.0006836174275699491 0.0 -0.0018181644786307571 0.0 0.0
0.002471333775215176 -0.0013722654995829142 0.0 -0.0023730312443262513 0.0 0.0
0.0045316654969302095 -0.0030509118865571505 0.0 -0.0036559623652666073 0.0 0.0
0.008017600179162074 -0.006186451922849834 0.0 -0.005858400967500177 0.0 0.0
0.012948936796633198 -0.010828781495313411 0.0 -0.00887516368836555 0.0 0.0
0.019087847303447827 -0.01672474165379123 0.0 -0.012292872527838172 0.0 0.0
0.026199807892291413 -0.023613044550712114 0.0 -0.01574452428232037 0.0 0.0
0.03416117210286408 -0.03135996646137196 0.0 -0.019103978597990456 0.0 0.0
0.0429474456684682 -0.039938032072158514 0.0 -0.02242284120494853 0.0 0.0
0.05256314009859084 -0.04934816659237207 0.0 -0.025697330185163625 0.0 0.0
0.06295658710117176 -0.05953601470704273 0.0 -0.02877459788115655 0.0 0.0
0.07396298014294486 -0.07033982352015844 0.0 -0.031334266512456965 0.0 0.0
0.08529617498458741 -0.08146809006779154 0.0 -0.03286094905817594 0.0 0.0
0.09649121793901147 -0.09243961972552128 0.0 -0.0324097440710015 0.0 0.0
0.10671283876276838 -0.10241947059501832 0.0 -0.028141125570874448 0.0 0.0
0.1147118927672271 -0.1101963264347372 0.0 -0.017940229729332957 0.0 0.0
0.11471189276721816 -0.11019632643472299 0.0 0.0179402297293918 0.0 0.0
0.10671283876274237 -0.10241947059498901 0.0 0.02814112557095305 0.0 0.0
0.09649121793897344 -0.09243961972549286 0.0 0.03240974407105768 0.0 0.0
0.08529617498454367 -0.08146809006774713 0.0 0.03286094905820225 0.0 0.0
0.07396298014289421 -0.07033982352010737 0.0 0.03133426651244664 0.0 0.0
0.0629565871011172 -0.059536014706993434 0.0 0.028774597881145225 0.0 0.0
0.05256314009853924 -0.04934816659231567 0.0 0.02569733018515108 0.0 0.0
0.042947445668418294 -0.03993803207210567 0.0 0.02242284120493676 0.0 0.0
0.034161172102817355 -0.03135996646132533 0.0 0.01910397859796953 0.0 0.0
0.02619980789224799 -0.02361304455067126 0.0 0.015744524282296446 0.0 0.0
0.019087847303412425 -0.01672474165375437 0.0 0.01229287252780975 0.0 0.0
0.012948936796605165 -0.010828781495284101 0.0 0.008875163688347176 0.0 0.0
0.008017600179141826 -0.006186451922829184 0.0 0.0058584009674881865 0.0 0.0
0.004531665496918108 -0.0030509118865460483 0.0 0.0036559623652563378 0.0 0.0
0.002471333775209944 -0.0013722654995798056 0.0 0.002373031244320589 0.0 0.0
0.0014961570181893646 -0.0006836174275675067 0.0 0.001818164478627482 0.0 0.0
0.0010011893022895402 -0.00038037297418713756 0.0 0.0016245077859035617 0.0 0.0
0.0005489604076013288 -0.00016199407463002302 0.0 0.0016741701638567363 0.0 0.0
0.00023730132105875823 -0.0002834165201178185 0.0 0.0020215293937863033 0.0 0.0
0.0028894525936527526 -0.004335213306774456 0.0 0.00486755796588817 0.0 0.0
0.0021035166050018678 -0.003399698277292418 0.0 -0.0039016384034566975 0.0 0.0
0.0001666150886447948 -0.00024341602701816178 0.0 -0.0022687318735546413 0.0 0.0
0.0003750831314437292 -0.00011177155508723668 0.0 -0.001977482756860216 0.0 0.0
0.0007396715969298362 -0.0002647484911186826 0.0 -0.0019085535907022444 0.0 0.0
0.0011490088367098056 -0.0005032600190497671 0.0 -0.0020785195133233847 0.0 0.0
0.0018233377000632517 -0.000939029428891569 0.0 -0.0025320449822039404 0.0 0.0
0.003289617847895207 -0.002036817380435929 0.0 -0.003644833127417424 0.0 0.0
0.005910185516813701 -0.0042775173514737475 0.0 -0.005645883126098372 0.0 0.0
0.00973960085450741 -0.007799538948036311 0.0 -0.008449954047813013 0.0 0.0
0.014577833660228995 -0.012394893075996727 0.0 -0.011737363530359313 0.0 0.0
0.020163039486434095 -0.017776818859166266 0.0 -0.01511580493789566 0.0 0.0
0.026375014640775574 -0.02379845948934678 0.0 -0.018389646679884297 0.0 0.0
0.03320441885860795 -0.030449518589223068 0.0 -0.02160981692666586 0.0 0.0
0.04069489624487416 -0.03776808557537015 0.0 -0.024802362981907633 0.0 0.0
0.04885868719438394 -0.045760636119497544 0.0 -0.027820220561452946 0.0 0.0
0.05761393267328943 -0.05434327249138793 0.0 -0.030347286359179937 0.0 0.0
0.0667948405184528 -0.063367092328253 0.0 -0.0320073506938614 0.0 0.0
0.07624904952243125 -0.07265943670404518 0.0 -0.032076183939225844 0.0 0.0
0.08559353145207196 -0.08179879633486742 0.0 -0.028656054659471075 0.0 0.0
0.09382349617374314 -0.08978877399546104 0.0 -0.019075926139124677 0.0 0.0
0.09382349617373661 -0.08978877399545304 0.0 0.019075926139180965 0.0 0.0
0.08559353145205076 -0.0817987963348461 0.0 0.02865605465954557 0.0 0.0
0.07624904952240083 -0.07265943670400965 0.0 0.03207618393928291 0.0 0.0
0.06679484051841666 -0.06336709232821658 0.0 0.03200735069388583 0.0 0.0
0.05761393267324949 -0.054343272491343964 0.0 0.03034728635916928 0.0 0.0
0.04885868719433997 -0.0457606361194558 0.0 0.027820220561437847 0.0 0.0
0.040694896244834744 -0.03776808557533684 0.0 0.024802362981895976 0.0 0.0
0.033204418858570145 -0.030449518589187985 0.0 0.021609816926654757 0.0 0.0
0.026375014640739464 -0.023798459489309032 0.0 0.01838964667986398 0.0 0.0
0.02016303948639997 -0.017776818859127186 0.0 0.015115804937871236 0.0 0.0
0.014577833660202072 -0.012394893075966529 0.0 0.011737363530330946 0.0 0.0
0.009739600854486274 -0.007799538948017215 0.0 0.008449954047793695 0.0 0.0
0.005910185516798699 -0.004277517351465976 0.0 0.005645883126085494 0.0 0.0
0.0032896178478864224 -0.002036817380429712 0.0 0.003644833127408098 0.0 0.0
0.0018233377000601847 -0.0009390294288882384 0.0 0.0025320449821998325 0.0 0.0
0.0011490088367089313 -0.0005032600190484349 0.0 0.0020785195133218304 0.0 0.0
0.0007396715969295864 -0.00026474849111746135 0.0 0.0019085535907007456 0.0 0.0
0.00037508313144341 -0.00011177155508723668 0.0 0.0019774827568573294 0.0 0.0
0.00016661508864457275 -0.00024341602701766218 0.0 0.0022687318735525874 0.0 0.0
0.002103516604996497 -0.003399698277286159 0.0 0.003901638403448371 0.0 0.0
0.0014886722438842426 -0.0026235301933432154 0.0 -0.0031368570297291565 0.0 0.0
0.00010345286496196704 -0.00020974601642709256 0.0 -0.0024154188695791334 0.0 0.0
0.0002148409629980086 -6.250299095744705e-05 0.0 -0.002205917979151817 0.0 0.0
0.0004830655180274035 -0.00015092861561671889 0.0 -0.002145752062016726 0.0 0.0
0.0008081982463453707 -0.00033944891475057304 0.0 -0.002319735839975301 0.0 0.0
0.001259131945959141 -0.0006092691563195363 0.0 -0.0027040718327077107 0.0 0.0
0.002189824628776066 -0.001227858764062617 0.0 -0.0035585442652342203 0.0 0.0
0.003969598330286789 -0.0026131923286039083 0.0 -0.005176300340353324 0.0 0.0
0.006680669445227272 -0.004987291972458507 0.0 -0.007537039647346644 0.0 0.0
0.010173113581653848 -0.008227271634980049 0.0 -0.010385595392936708 0.0 0.0
0.014212358707590717 -0.012072723489465087 0.0 -0.013410822644920772 0.0 0.0
0.018674024826444036 -0.0163669045489927 0.0 -0.01639285007557234 0.0 0.0
0.02355316027991783 -0.02109571859106607 0.0 -0.01932752835827456 0.0 0.0
0.028914275904117798 -0.026318911999540617 0.0 -0.022226257182606735 0.0 0.0
0.03482964453732146 -0.03209953223991269 0.0 -0.025006571892795426 0.0 0.0
0.041308753538289084 -0.03843822790141438 0.0 -0.0273749200654122 0.0 0.0
0.04828073414112102 -0.04528108060578173 0.0 -0.028945380465294823 0.0 0.0
0.05579615240896124 -0.05270745113155151 0.0 -0.029460971864806784 0.0 0.0
0.06404418122426275 -0.060820248806949806 0.0 -0.027529840584217813 0.0 0.0
0.07251950774578464 -0.06903247113323019 0.0 -0.019836499405657015 0.0 0.0
0.07251950774578042 -0.06903247113322397 0.0 0.01983649940570753 0.0 0.0
0.06404418122424765 -0.06082024880693648 0.0 0.027529840584286536 0.0 0.0
0.05579615240893812 -0.052707451131523086 0.0 0.02946097186485952 0.0 0.0
0.048280734141093185 -0.04528108060576397 0.0 0.028945380465311477 0.0 0.0
0.041308753538260135 -0.03843822790138818 0.0 0.027374920065398545 0.0 0.0
0.034829644537289206 -0.03209953223988382 0.0 0.025006571892778662 0.0 0.0
0.028914275904090625 -0.02631891199951797 0.0 0.022226257182594522 0.0 0.0
0.02355316027989232 -0.02109571859104431 0.0 0.0193275283582659 0.0 0.0
0.018674024826418945 -0.016366904548969163 0.0 0.01639285007555702 0.0 0.0
0.014212358707566708 -0.012072723489444215 0.0 0.013410822644902343 0.0 0.0
0.010173113581634696 -0.008227271634966726 0.0 0.010385595392913616 0.0 0.0
0.0066806694452131166 -0.004987291972446517 0.0 0.007537039647332433 0.0 0.0
0.003969598330276741 -0.002613192328591696 0.0 0.005176300340344775 0.0 0.0
0.002189824628770487 -0.0012278587640579541 0.0 0.0035585442652263377 0.0 0.0
0.0012591319459575312 -0.0006092691563177599 0.0 0.0027040718327027147 0.0 0.0
0.0008081982463449267 -0.0003394489147490187 0.0 0.002319735839971415 0.0 0.0
0.0004830655180270982 -0.00015092861561538662 0.0 0.002145752062012618 0.0 0.0
0.00021484096299762 -6.250299095744705e-05 0.0 0.0022059179791495964 0.0 0.0
0.00010345286496177275 -0.0002097460164278142 0.0 0.002415418869577468 0.0 0.0
0.001488672243880551 -0.002623530193338306 0.0 0.003136857029722162 0.0 0.0
0.0010306655543882437 -0.002009550302062457 0.0 -0.0025684362272330175 0.0 0.0
3.20037883215496e-05 -0.00018022494876668294 0.0 -0.0024873486270132195 0.0 0.0
6.050507460544918e-05 -7.977645642087694e-06 0.0 -0.002363299130451302 0.0 0.0
0.00023300808880966084 -3.957375267793495e-05 0.0 -0.002326823446420989 0.0 0.0
0.0004606563516108275 -0.0001748012131521648 0.0 -0.002512585610276563 0.0 0.0
0.0007418745418314443 -0.00034384383365027027 0.0 -0.002888595505938729 0.0 0.0
0.0012421377020247204 -0.0006295364245896273 0.0 -0.0034908642836921078 0.0 0.0
0.0022277775622895624 -0.0012745521506181134 0.0 -0.004561655003912479 0.0 0.0
0.003830929895802193 -0.0025163157709107153 0.0 -0.006224561666561601 0.0 0.0
0.00594240346539221 -0.00435441300270778 0.0 -0.00833885155101799 0.0 0.0
0.00840208594952399 -0.00661457699004675 0.0 -0.010704829034280383 0.0 0.0
0.011094451398873051 -0.00915716320744675 0.0 -0.013141064009826842 0.0 0.0
0.014026217265712265 -0.011962595965110179 0.0 -0.015608998331683721 0.0 0.0
0.017261730346194687 -0.015091456266876246 0.0 -0.018056214658392133 0.0 0.0
0.020903067701264905 -0.018637448343655993 0.0 -0.02043917041103771 0.0 0.0
0.02506372024301015 -0.022698860541664256 0.0 -0.022583943175214283 0.0 0.0
0.029810292632619778 -0.02733072675656789 0.0 -0.024065598958228573 0.0 0.0
0.0352445469655141 -0.032696146436986595 0.0 -0.024660050177446102 0.0 0.0
0.0419196535023203 -0.03937816370719904 0.0 -0.02426413685089357 0.0 0.0
0.050432842356336605 -0.04763146101395055 0.0 -0.019941940338288444 0.0 0.0
0.05043284235633466 -0.047631461013946996 0.0 0.019941940338334185 0.0 0.0
0.04191965350231183 -0.03937816370718927 0.0 0.02426413685095663 0.0 0.0
0.03524454696549789 -0.03269614643696883 0.0 0.024660050177488402 0.0 0.0
0.029810292632601265 -0.02733072675654613 0.0 0.024065598958238676 0.0 0.0
0.025063720242993137 -0.022698860541642052 0.0 0.022583943175199517 0.0 0.0
0.020903067701245726 -0.0186374483436329 0.0 0.020439170411023055 0.0 0.0
0.017261730346179838 -0.015091456266858927 0.0 0.018056214658385472 0.0 0.0
0.014026217265698498 -0.011962595965095524 0.0 0.015608998331680501 0.0 0.0
0.011094451398859062 -0.009157163207439645 0.0 0.013141064009812742 0.0 0.0
0.008402085949510113 -0.006614576990035648 0.0 0.01070482903426162 0.0 0.0
0.005942403465381385 -0.004354413002693569 0.0 0.008338851550999116 0.0 0.0
0.003830929895794616 -0.0025163157709027217 0.0 0.006224561666552497 0.0 0.0
0.0022277775622840112 -0.001274552150615893 0.0 0.0045616550039063175 0.0 0.0
0.0012421377020217783 -0.0006295364245889612 0.0 0.003490864283687223 0.0 0.0
0.0007418745418306116 -0.0003438438336504923 0.0 0.002888595505935676 0.0 0.0
0.0004606563516106055 -0.00017480121315438524 0.0 0.002512585610274287 0.0 0.0
0.00023300808880954982 -3.957375267660268e-05 0.0 0.0023268234464188797 0.0 0.0
6.050507460522714e-05 -7.97764564186565e-06 0.0 0.0023632991304486373 0.0 0.0
3.200378832127204e-05 -0.00018022494876712702 0.0 0.002487348627011887 0.0 0.0
0.0010306655543860788 -0.002009550302059203 0.0 0.0025684362272294092 0.0 0.0
0.000703958565818924 -0.001540049472149252 0.0 -0.0021614798839898475 0.0 0.0
-4.895410433067293e-05 -0.00015624516817336342 0.0 -0.0025160424746732968 0.0 0.0
-9.161420012077093e-05 5.371252671360072e-05 0.0 -0.002461182068355272 0.0 0.0
-1.0361143408799123e-05 6.887303189206939e-05 0.0 -0.002449463398869034 0.0 0.0
0.00010882331882997032 -6.483422565484176e-06 0.0 -0.0026292610359522905 0.0 0.0
0.00023172405449400912 -9.47649027658315e-05 0.0 -0.0030273956408265468 0.0 0.0
0.0003982378028756506 -0.0001916412379285859 0.0 -0.0035608966091703054 0.0 0.0
0.0007039318225665891 -0.00034873040945004874 0.0 -0.004155400913230856 0.0 0.0
0.0012324824756289043 -0.0006425471343400879 0.0 -0.004955022492975192 0.0 0.0
0.001939743695118873 -0.001107523025011048 0.0 -0.006127684036609127 0.0 0.0
0.0027682165273416603 -0.001727028645319706 0.0 -0.007694654720269312 0.0 0.0
0.0036590303577660466 -0.0024723232285759345 0.0 -0.009519741759390299 0.0 0.0
0.004624838950513216 -0.00333211100229569 0.0 -0.011518974015728545 0.0 0.0
0.005718650848923118 -0.004347428118629981 0.0 -0.013658348435218404 0.0 0.0
0.0070590794255414036 -0.005623329699688373 0.0 -0.015902744739340835 0.0 0.0
0.008850282135378446 -0.007344914366494315 0.0 -0.018090707529498817 0.0 0.0
0.011355269970549337 -0.009749340309297416 0.0 -0.019778738771773052 0.0 0.0
0.014779891142634172 -0.013033227802703884 0.0 -0.020311750900346093 0.0 0.0
0.019484661980460255 -0.01775986928877682 0.0 -0.020038375820580323 0.0 0.0
0.02710781527708553 -0.025392595532755635 0.0 -0.019313654487943754 0.0 0.0
0.027107815277086222 -0.02539259553275297 0.0 0.019313654487979948 0.0 0.0
0.01948466198045659 -0.017759869288775043 0.0 0.020038375820629617 0.0 0.0
0.014779891142626206 -0.013033227802696778 0.0 0.020311750900375736 0.0 0.0
0.011355269970541843 -0.00974934030929342 0.0 0.019778738771773385 0.0 0.0
0.008850282135374421 -0.007344914366490318 0.0 0.018090707529483163 0.0 0.0
0.007059079425535769 -0.0056233296996857085 0.0 0.015902744739326624 0.0 0.0
0.005718650848920426 -0.0043474281186264285 0.0 0.013658348435209522 0.0 0.0
0.004624838950511134 -0.0033321110022921374 0.0 0.011518974015721217 0.0 0.0
0.003659030357763715 -0.002472323228573714 0.0 0.009519741759378086 0.0 0.0
0.0027682165273386627 -0.0017270286453210382 0.0 0.007694654720255878 0.0 0.0
0.0019397436951170133 -0.0011075230250128243 0.0 0.006127684036597025 0.0 0.0
0.0012324824756275443 -0.0006425471343383116 0.0 0.004955022492970085 0.0 0.0
0.0007039318225653401 -0.0003487304094449417 0.0 0.00415540091322697 0.0 0.0
0.0003982378028746514 -0.00019164123792880794 0.0 0.003560896609165476 0.0 0.0
0.00023172405449392586 -9.476490276405514e-05 0.0 0.0030273956408227165 0.0 0.0
0.0001088233188301091 -6.483422565928265e-06 0.0 0.0026292610359484603 0.0 0.0
-1.0361143408771367e-05 6.887303189073712e-05 0.0 0.002449463398866314 0.0 0.0
-9.161420012088195e-05 5.3712526714044806e-05 0.0 0.0024611820683536623 0.0 0.0
-4.8954104331033754e-05 -0.00015624516817336342 0.0 0.0025160424746725196 0.0 0.0
0.0007039585658175918 -0.0015400494721474565 0.0 0.0021614798839864613 0.0 0.0
0.0004753080014618105 -0.0011999348975303414 0.0 -0.001904925313873318 0.0 0.0
-0.00013004000514202363 -0.0001316658166873319 0.0 -0.0025151560758378544 0.0 0.0
-0.00024120768368826595 0.00011789510371618128 0.0 -0.0025043532780757993 0.0 0.0
-0.00024717627980500034 0.00017450375638627946 0.0 -0.002505317729652512 0.0 0.0
-0.00023995236127274944 0.00016101037151083908 0.0 -0.0026675662435410863 0.0 0.0
-0.00028270809241723316 0.00015562719387984814 0.0 -0.0030464299738182654 0.0 0.0
-0.00041682461266331905 0.0002080823273520327 0.0 -0.003571519190710415 0.0 0.0
-0.0007100390788473132 0.0003533631486800637 0.0 -0.004163147667955891 0.0 0.0
-0.0012324211409659447 0.0006433970092123431 0.0 -0.004958055208805878 0.0 0.0
-0.0019387184417805625 0.0011079413621382095 0.0 -0.006126739262367065 0.0 0.0
-0.002776923442772611 0.001739153163604179 0.0 -0.007696763178515309 0.0 0.0
-0.0037042026433503072 0.0025174050932021963 0.0 -0.009530313418129044 0.0 0.0
-0.004718439790046741 0.0034124481063773082 0.0 -0.011529872508568073 0.0 0.0
-0.005781456509570293 0.004371291295180324 0.0 -0.01366269826793265 0.0 0.0
-0.006755270200651281 0.005256417026520133 0.0 -0.015918319121494995 0.0 0.0
-0.00737042394574236 0.0058080807790164 0.0 -0.018245562995239606 0.0 0.0
-0.007216122376960038 0.005645565255476548 0.0 -0.020612394561467018 0.0 0.0
-0.005921892095911652 0.004523385334736396 0.0 -0.023093244278580727 0.0 0.0
-0.0031621521993248636 0.0022542423755567143 0.0 -0.025357988306307977 0.0 0.0
0.0036838079674541835 -0.004210936490429695 0.0 -0.02430901765179716 0.0 0.0
0.003683807967454489 -0.004210936490425254 0.0 0.024309017651817588 0.0 0.0
-0.0031621521993256685 0.0022542423755576024 0.0 0.025357988306325963 0.0 0.0
-0.005921892095908904 0.0045233853347284025 0.0 0.023093244278585168 0.0 0.0
-0.0072161223769536265 0.005645565255467666 0.0 0.020612394561455583 0.0 0.0
-0.007370423945732341 0.005808080779010183 0.0 0.018245562995224063 0.0 0.0
-0.006755270200643676 0.005256417026510807 0.0 0.01591831912148134 0.0 0.0
-0.005781456509561578 0.004371291295169666 0.0 0.013662698267922213 0.0 0.0
-0.004718439790036583 0.0034124481063675383 0.0 0.01152987250855797 0.0 0.0
-0.003704202643340676 0.00251740509319065 0.0 0.009530313418112168 0.0 0.0
-0.0027769234427642286 0.0017391531636001822 0.0 0.007696763178498656 0.0 0.0
-0.001938718441773013 0.0011079413621364331 0.0 0.006126739262353853 0.0 0.0
-0.001232421140961254 0.0006433970092074581 0.0 0.004958055208801659 0.0 0.0
-0.0007100390788448707 0.00035336314867895346 0.0 0.004163147667950506 0.0 0.0
-0.00041682461266231985 0.0002080823273540311 0.0 0.0035715191907066957 0.0 0.0
-0.000282708092416456 0.00015562719388406698 0.0 0.0030464299738148237 0.0 0.0
-0.00023995236127211106 0.00016101037151217135 0.0 0.002667566243538866 0.0 0.0
-0.0002471762798048893 0.0001745037563849472 0.0 0.0025053177296520124 0.0 0.0
-0.00024120768368837697 0.0001178951037172915 0.0 0.0025043532780750777 0.0 0.0
-0.00013004000514224567 -0.0001316658166873319 0.0 0.002515156075837466 0.0 0.0
0.00047530800146097785 -0.0011999348975300413 0.0 0.0019049253138715971 0.0 0.0
0.00031880869921421806 -0.0009461771269282937 0.0 -0.001720264653115755 0.0 0.0
-0.00020377341218433265 -0.00010023584299156951 0.0 -0.0024697142477069223 0.0 0.0
-0.0003853593129628241 0.0001793713177409284 0.0 -0.002495173685010621 0.0 0.0
-0.0004763857483381373 0.00027629142140384033 0.0 -0.00249061488659047 0.0 0.0
-0.0005813859526390686 0.0003231953667088838 0.0 -0.00262145583585488 0.0 0.0
-0.0007914803914540747 0.00040441615690256505 0.0 -0.0029473452972995084 0.0 0.0
-0.0012601486870601197 0.0006477261343253993 0.0 -0.00352419816794719 0.0 0.0
-0.002231515461648542 0.0012796811431510235 0.0 -0.004580305481928892 0.0 0.0
-0.0038289800375944094 0.002515887976862974 0.0 -0.006228778070936913 0.0 0.0
-0.005941790201257707 0.004355950429496769 0.0 -0.008338861901954542 0.0 0.0
-0.0084136855523948 0.006630531035597631 0.0 -0.010705066126790896 0.0 0.0
-0.011137864493544536 0.009204804730321925 0.0 -0.013127054531936855 0.0 0.0
-0.014110295487607366 0.012041012327254741 0.0 -0.015558356881183677 0.0 0.0
-0.017308104623557863 0.015103693112015204 0.0 -0.017992519232944537 0.0 0.0
-0.020588633328844558 0.018244360823301164 0.0 -0.020507323598034533 0.0 0.0
-0.023628554556092363 0.021147854349273132 0.0 -0.023170292789307823 0.0 0.0
-0.025939697875110468 0.023350119133199954 0.0 -0.026070607617400987 0.0 0.0
-0.026959723878545144 0.024303918734586816 0.0 -0.029114507540436096 0.0 0.0
-0.025639185773785877 0.022718099590654184 0.0 -0.030517317903892782 0.0 0.0
-0.01874795940475371 0.015517922805884155 0.0 -0.02836152926518587 0.0 0.0
-0.01874795940475424 0.01551792280588149 0.0 0.028361529265224394 0.0 0.0
-0.02563918577378327 0.022718099590648855 0.0 0.03051731790394152 0.0 0.0
-0.026959723878532155 0.024303918734577934 0.0 0.029114507540466517 0.0 0.0
-0.02593969787508993 0.023350119133183522 0.0 0.02607060761740032 0.0 0.0
-0.023628554556069326 0.021147854349251816 0.0 0.023170292789290947 0.0 0.0
-0.02058863332882377 0.01824436082328207 0.0 0.02050732359801788 0.0 0.0
-0.017308104623538073 0.015103693111996996 0.0 0.01799251923292855 0.0 0.0
-0.01411029548758555 0.012041012327234313 0.0 0.015558356881170576 0.0 0.0
-0.01113786449352308 0.009204804730300165 0.0 0.013127054531916538 0.0 0.0
-0.00841368555237565 0.006630531035577203 0.0 0.010705066126769025 0.0 0.0
-0.005941790201240416 0.004355950429479449 0.0 0.008338861901933337 0.0 0.0
-0.0038289800375829186 0.002515887976853648 0.0 0.006228778070926921 0.0 0.0
-0.0022315154616425747 0.0012796811431450283 0.0 0.004580305481923341 0.0 0.0
-0.0012601486870566225 0.0006477261343276197 0.0 0.0035241981679430268 0.0 0.0
-0.0007914803914523816 0.00040441615690300914 0.0 0.002947345297295567 0.0 0.0
-0.0005813859526383747 0.0003231953667077736 0.0 0.0026214558358509388 0.0 0.0
-0.00047638574833785974 0.0002762914214051726 0.0 0.0024906148865868616 0.0 0.0
-0.00038535931296243553 0.0001793713177399292 0.0 0.0024951736850085116 0.0 0.0
-0.00020377341218433265 -0.00010023584299284627 0.0 0.002469714247705257 0.0 0.0
0.000318808699213996 -0.000946177126926814 0.0 0.0017202646531152554 0.0 0.0
0.00020766947241149247 -0.0007293581892949264 0.0 -0.0015287656187037424 0.0 0.0
-0.00026928413294194375 -6.30720237340121e-05 0.0 -0.0023701594361938416 0.0 0.0
-0.0005214169544484892 0.00023650951893350314 0.0 -0.0024281160971316718 0.0 0.0
-0.0006965780261473375 0.0003721493586510416 0.0 -0.002407176700869873 0.0 0.0
-0.0009114362572803791 0.0004764358259790047 0.0 -0.0024916543704119887 0.0 0.0
-0.001306023555565805 0.0006708651954905331 0.0 -0.0028025156488353242 0.0 0.0
-0.0022042271945421077 0.0012475486176823924 0.0 -0.0036081911390601906 0.0 0.0
-0.003968074506269792 0.0026147504953475398 0.0 -0.005193524363700075 0.0 0.0
-0.0066771964433104125 0.004984885976332176 0.0 -0.007535988647330516 0.0 0.0
-0.010174794883129917 0.00823051871709346 0.0 -0.010386008620169362 0.0 0.0
-0.0142249100421461 0.012088541479555737 0.0 -0.013406616108771363 0.0 0.0
-0.01870682376078342 0.01640369460267843 0.0 -0.016345314008211487 0.0 0.0
-0.023609185034108138 0.021148752757011113 0.0 -0.019180448711656806 0.0 0.0
-0.02892784480026181 0.02630553680068548 0.0 -0.02201540945842617 0.0 0.0
-0.03452735633218834 0.0317302104712609 0.0 -0.025075670217050816 0.0 0.0
-0.04004058506477198 0.03706525803680716 0.0 -0.02865348014474489 0.0 0.0
-0.04485880407642079 0.041715519342096385 0.0 -0.032904862912000676 0.0 0.0
-0.04801422147268225 0.04465658276165918 0.0 -0.037039118054699505 0.0 0.0
-0.047635216776887174 0.043998159352200084 0.0 -0.039098317515594117 0.0 0.0
-0.03990122463877424 0.03555337083882559 0.0 -0.035162304623405305 0.0 0.0
-0.03990122463877269 0.03555337083882559 0.0 0.03516230462345438 0.0 0.0
-0.04763521677687965 0.04399815935219742 0.0 0.03909831751565651 0.0 0.0
-0.04801422147266188 0.044656582761642305 0.0 0.03703911805474258 0.0 0.0
-0.044858804076389286 0.041715519342070184 0.0 0.03290486291200534 0.0 0.0
-0.04004058506473718 0.03706525803677785 0.0 0.028653480144729238 0.0 0.0
-0.0345273563321547 0.03173021047122759 0.0 0.02507567021703294 0.0 0.0
-0.028927844800229613 0.026305536800653506 0.0 0.02201540945840985 0.0 0.0
-0.02360918503407483 0.021148752756980027 0.0 0.01918044871164526 0.0 0.0
-0.018706823760750974 0.016403694602644237 0.0 0.016345314008190392 0.0 0.0
-0.014224910042116401 0.012088541479523318 0.0 0.013406616108746938 0.0 0.0
-0.0101747948831038 0.008230518717067703 0.0 0.01038600862014194 0.0 0.0
-0.006677196443291428 0.004984885976314413 0.0 0.007535988647311864 0.0 0.0
-0.003968074506258856 0.0026147504953375478 0.0 0.0051935243636903605 0.0 0.0
-0.002204227194535585 0.0012475486176746209 0.0 0.0036081911390541954 0.0 0.0
-0.001306023555563085 0.0006708651954869804 0.0 0.0028025156488304392 0.0 0.0
-0.0009114362572796297 0.00047643582597878265 0.0 0.0024916543704086025 0.0 0.0
-0.0006965780261467547 0.00037214935864882115 0.0 0.0024071767008686518 0.0 0.0
-0.0005214169544479896 0.0002365095189338362 0.0 0.0024281160971301174 0.0 0.0
-0.00026928413294174947 -6.307202373367904e-05 0.0 0.0023701594361916767 0.0 0.0
0.00020766947241157574 -0.000729358189295112 0.0 0.0015287656187023546 0.0 0.0
0.0001186288221080023 -0.0005367664288745133 0.0 -0.0013275496509878026 0.0 0.0
-0.0003287212476643375 -2.0089882987184282e-05 0.0 -0.0022150331522553524 0.0 0.0
-0.0006487255924152446 0.00028931119624009405 0.0 -0.0023072342234409238 0.0 0.0
-0.000906659567748519 0.00046016525448333567 0.0 -0.0022634837650025164 0.0 0.0
-0.0012299983393602998 0.0006257054581002564 0.0 -0.002301190769738448 0.0 0.0
-0.0018644054952981493 0.000999433964087526 0.0 -0.0026575228149623986 0.0 0.0
-0.003294974119306543 0.0020515420492142056 0.0 -0.0036941198677468146 0.0 0.0
-0.005903661316374154 0.0042729128210012846 0.0 -0.0056505603450162645 0.0 0.0
-0.009737011977744237 0.00779724600879117 0.0 -0.008445721716723309 0.0 0.0
-0.014582624637330843 0.012400627430407596 0.0 -0.011738846552956983 0.0 0.0
-0.020173921293541452 0.017789420198262018 0.0 -0.015106976526878535 0.0 0.0
-0.026387350855921504 0.02381319608114829 0.0 -0.018312670645759255 0.0 0.0
-0.033209542239289846 0.030454405129338724 0.0 -0.021375033303280055 0.0 0.0
-0.04065327441898692 0.0377121767791202 0.0 -0.024442283803871256 0.0 0.0
-0.04860282537077515 0.04546051860016753 0.0 -0.027846286244095686 0.0 0.0
-0.056660942276876125 0.05329717920464283 0.0 -0.032052117126947666 0.0 0.0
-0.06398526888241843 0.06037208392395588 0.0 -0.03716074173751038 0.0 0.0
-0.06905269574135034 0.06514595520271804 0.0 -0.042166387826033214 0.0 0.0
-0.06923489987238299 0.06489544978571704 0.0 -0.04441405048335667 0.0 0.0
-0.059720736633609106 0.05471721853325473 0.0 -0.04062222345235256 0.0 0.0
-0.05972073663360494 0.05471721853325384 0.0 0.04062222345240685 0.0 0.0
-0.06923489987236969 0.06489544978570105 0.0 0.04441405048342406 0.0 0.0
-0.06905269574132245 0.06514595520268607 0.0 0.04216638782608295 0.0 0.0
-0.0639852688823781 0.06037208392391635 0.0 0.03716074173752326 0.0 0.0
-0.05666094227683005 0.05329717920459576 0.0 0.0320521171269359 0.0 0.0
-0.04860282537072955 0.045460518600116906 0.0 0.027846286244079255 0.0 0.0
-0.040653274418942495 0.0377121767790749 0.0 0.02444228380385194 0.0 0.0
-0.03320954223924427 0.030454405129292095 0.0 0.02137503330326307 0.0 0.0
-0.026387350855878608 0.02381319608110566 0.0 0.018312670645736828 0.0 0.0
-0.020173921293501665 0.017789420198225603 0.0 0.015106976526851668 0.0 0.0
-0.014582624637296052 0.012400627430374733 0.0 0.011738846552927507 0.0 0.0
-0.009737011977718105 0.007797246008765857 0.0 0.008445721716704213 0.0 0.0
-0.005903661316358083 0.004272912820985297 0.0 0.0056505603450042186 0.0 0.0
-0.0032949741192968007 0.0020515420492095426 0.0 0.003694119867736878 0.0 0.0
-0.0018644054952938055 0.0009994339640855276 0.0 0.0026575228149556263 0.0 0.0
-0.0012299983393586483 0.0006257054581009225 0.0 0.002301190769736783 0.0 0.0
-0.0009066595677477696 0.0004601652544855561 0.0 0.002263483765001295 0.0 0.0
-0.0006487255924148838 0.0002893111962389838 0.0 0.002307234223439203 0.0 0.0
-0.0003287212476639073 -2.008988298851655e-05 0.0 0.00221503315225402 0.0 0.0
0.00011862882210804393 -0.0005367664288737223 0.0 0.0013275496509861928 0.0 0.0
4.2356199132675965e-05 -0.00036703029614815197 0.0 -0.0011206699718898094 0.0 0.0
-0.0003852710525165115 2.8142602691016982e-05 0.0 -0.0020057416343600143 0.0 0.0
-0.0007676780310409415 0.00033845687669142865 0.0 -0.0021289536099414197 0.0 0.0
-0.0011048046518415955 0.0005387771827802812 0.0 -0.0020543716630020414 0.0 0.0
-0.0015495366795560406 0.0007841199140512511 0.0 -0.002066720122372412 0.0 0.0
-0.002499578051518847 0.0014211254832985354 0.0 -0.0024923917255929573 0.0 0.0
-0.0045278334505037265 0.00305572917062924 0.0 -0.0036857836488615736 0.0 0.0
-0.008009603872886517 0.006178644156067392 0.0 -0.0058545463617806215 0.0 0.0
-0.012949040904807918 0.010828737497313501 0.0 -0.008869721126861796 0.0 0.0
-0.019095254638239717 0.016732404763625475 0.0 -0.012293569818625616 0.0 0.0
-0.026206053110364363 0.02361929129614948 0.0 -0.015728478399102852 0.0 0.0
-0.03414557881301267 0.0313446737512022 0.0 -0.019006446036422542 0.0 0.0
-0.042885287283244894 0.03987859150039297 0.0 -0.022139624850425976 0.0 0.0
-0.05244709083943405 0.04923407551870085 0.0 -0.025247390511115353 0.0 0.0
-0.06275432124606589 0.059313729299527385 0.0 -0.02869429953851721 0.0 0.0
-0.07336115898378875 0.06965072885107748 0.0 -0.03300057176905258 0.0 0.0
-0.08313602508004175 0.07910170102495417 0.0 -0.038337222457321296 0.0 0.0
-0.08996038123900044 0.08552654361991863 0.0 -0.043711172293613654 0.0 0.0
-0.09035377795833646 0.08542179019993501 0.0 -0.046702771479979366 0.0 0.0
-0.07906102074788962 0.07354412050032444 0.0 -0.04540153544330405 0.0 0.0
-0.07906102074788399 0.07354412050032355 0.0 0.04540153544335834 0.0 0.0
-0.09035377795831631 0.08542179019991725 0.0 0.04670277148004498 0.0 0.0
-0.0899603812389646 0.08552654361988754 0.0 0.04371117229366095 0.0 0.0
-0.08313602507999368 0.07910170102490754 0.0 0.03833722245733506 0.0 0.0
-0.07336115898373256 0.06965072885102197 0.0 0.033000571769039755 0.0 0.0
-0.06275432124600891 0.05931372929947276 0.0 0.0286942995385 0.0 0.0
-0.052447090839377736 0.04923407551864489 0.0 0.025247390511095757 0.0 0.0
-0.042885287283187884 0.03987859150033479 0.0 0.022139624850409545 0.0 0.0
-0.03414557881295868 0.03134467375115202 0.0 0.019006446036397395 0.0 0.0
-0.026206053110314945 0.023619291296105516 0.0 0.015728478399074874 0.0 0.0
-0.019095254638196474 0.016732404763583286 0.0 0.012293569818595362 0.0 0.0
-0.012949040904774833 0.010828737497281526 0.0 0.008869721126840702 0.0 0.0
-0.008009603872865048 0.006178644156047852 0.0 0.005854546361765578 0.0 0.0
-0.004527833450490307 0.0030557291706168055 0.0 0.0036857836488528584 0.0 0.0
-0.002499578051512477 0.0014211254832932063 0.0 0.0024923917255872396 0.0 0.0
-0.0015495366795536397 0.0007841199140494748 0.0 0.002066720122370691 0.0 0.0
-0.0011048046518408322 0.0005387771827785048 0.0 0.00205437166300132 0.0 0.0
-0.0007676780310405529 0.00033845687669187274 0.0 0.002128953609940698 0.0 0.0
-0.00038527105251610905 2.814260269190516e-05 0.0 0.0020057416343592926 0.0 0.0
4.2356199132551065e-05 -0.0003670302961474199 0.0 0.0011206699718880886 0.0 0.0
-2.3001582217685446e-05 -0.0002214032393684784 0.0 -0.0009080238690287179 0.0 0.0
-0.00044005356302412313 7.997018706618064e-05 0.0 -0.0017478994572771578 0.0 0.0
-0.0008793083575358573 0.0003840828050817313 0.0 -0.0018941856528916223 0.0 0.0
-0.0012926135011908646 0.0006125863321597702 0.0 -0.0017978950685618722 0.0 0.0
-0.0018910962230707096 0.0009730640728422557 0.0 -0.0018100723836562693 0.0 0.0
-0.0032235214165377 0.0019527518941755417 0.0 -0.0022791610265482376 0.0 0.0
-0.005893360319801699 0.004242669740067928 0.0 -0.003535971457761189 0.0 0.0
-0.01025000848110763 0.008268036415354452 0.0 -0.0057561367753688475 0.0 0.0
-0.01624382662066698 0.013985831105350233 0.0 -0.008712530242412031 0.0 0.0
-0.02366122598217596 0.021147659000376517 0.0 -0.012000133550367775 0.0 0.0
-0.03228194605390766 0.02952106392248144 0.0 -0.0153157307324151 0.0 0.0
-0.04194970007169824 0.03894880969818004 0.0 -0.018479406282002286 0.0 0.0
-0.052610185543930765 0.04937737464411329 0.0 -0.021513760564420892 0.0 0.0
-0.06427568361248012 0.06081462862354137 0.0 -0.024507827747403566 0.0 0.0
-0.07688676142531536 0.07317508393119176 0.0 -0.027668086652652524 0.0 0.0
-0.08996964169062963 0.0859433035280639 0.0 -0.031484691258735875 0.0 0.0
-0.10212465016475802 0.0976975674392806 0.0 -0.0364108644912422 0.0 0.0
-0.11062053047608988 0.10570688491447999 0.0 -0.0419693917706323 0.0 0.0
-0.11126305354575644 0.10581498548499813 0.0 -0.0466931451144279 0.0 0.0
-0.09849575826033155 0.09250900905608805 0.0 -0.04985798480761805 0.0 0.0
-0.09849575826032411 0.09250900905607473 0.0 0.04985798480767145 0.0 0.0
-0.11126305354572952 0.1058149854849626 0.0 0.04669314511449563 0.0 0.0
-0.11062053047604675 0.10570688491443736 0.0 0.04196939177067949 0.0 0.0
-0.10212465016470149 0.0976975674392282 0.0 0.036410864491256856 0.0 0.0
-0.08996964169056401 0.08594330352799595 0.0 0.03148469125873027 0.0 0.0
-0.07688676142524763 0.0731750839311216 0.0 0.027668086652641588 0.0 0.0
-0.06427568361241144 0.06081462862347031 0.0 0.02450782774738397 0.0 0.0
-0.05261018554386318 0.049377374644046235 0.0 0.02151376056440707 0.0 0.0
-0.04194970007163305 0.038948809698115205 0.0 0.018479406281981303 0.0 0.0
-0.03228194605384832 0.02952106392242193 0.0 0.015315730732386179 0.0 0.0
-0.02366122598212518 0.02114765900032456 0.0 0.012000133550337688 0.0 0.0
-0.01624382662062704 0.013985831105312485 0.0 0.008712530242392158 0.0 0.0
-0.010250008481080625 0.008268036415327806 0.0 0.005756136775353138 0.0 0.0
-0.00589336031978431 0.004242669740050831 0.0 0.003535971457750753 0.0 0.0
-0.0032235214165289433 0.0019527518941679922 0.0 0.002279161026540355 0.0 0.0
-0.0018910962230675732 0.0009730640728398132 0.0 0.0018100723836537713 0.0 0.0
-0.0012926135011901568 0.000612586332158993 0.0 0.0017978950685594852 0.0 0.0
-0.0008793083575353716 0.0003840828050812872 0.0 0.0018941856528888468 0.0 0.0
-0.0004400535630236929 7.997018706529246e-05 0.0 0.001747899457275215 0.0 0.0
-2.3001582217518912e-05 -0.00022140323936879237 0.0 0.0009080238690291065 0.0 0.0
-7.61401534879469e-05 -0.00010226382175176907 0.0 -0.0006889623028283332 0.0 0.0
-0.000491560391340129 0.00013266717692861363 0.0 -0.001446794047910649 0.0 0.0
-0.0009848177120870272 0.0004264709280713541 0.0 -0.0016028066275555197 0.0 0.0
-0.0014768186154964225 0.0006863889681600899 0.0 -0.001492713097268561 0.0 0.0
-0.0022740669939740887 0.0012051105145538532 0.0 -0.001510960691740726 0.0 0.0
-0.004042324095537009 0.0026082999982117716 0.0 -0.0019984075605837814 0.0 0.0
-0.00738004157521871 0.005590886567159892 0.0 -0.0032397973709878958 0.0 0.0
-0.012562441636493005 0.010469050176989736 0.0 -0.005283652230857472 0.0 0.0
-0.019570855210160665 0.017199894067979837 0.0 -0.00792237359871728 0.0 0.0
-0.028245988194254834 0.0256019300190502 0.0 -0.010890688239199031 0.0 0.0
-0.03836720563680296 0.03545323036791359 0.0 -0.013883986438500528 0.0 0.0
-0.049766365700759374 0.046585716916504705 0.0 -0.01674674756852601 0.0 0.0
-0.06235747804174535 0.05891638639906027 0.0 -0.019520442216608203 0.0 0.0
-0.07610589735041923 0.07240772566437004 0.0 -0.02222360375160648 0.0 0.0
-0.09091725962296165 0.08694690475424371 0.0 -0.02486529058506104 0.0 0.0
-0.10631097542559376 0.10199852661765618 0.0 -0.027702807848107525 0.0 0.0
-0.12074822396969737 0.11596958391121603 0.0 -0.03150167451304031 0.0 0.0
-0.13101226538781585 0.12567305503980641 0.0 -0.03704664709947081 0.0 0.0
-0.13226753570098315 0.1263427464627167 0.0 -0.0444819824674042 0.0 0.0
-0.11846932126705509 0.11201617071789371 0.0 -0.05397964182883652 0.0 0.0
-0.11846932126704465 0.11201617071788483 0.0 0.053979641828886704 0.0 0.0
-0.13226753570095087 0.12634274646268473 0.0 0.04448198246746393 0.0 0.0
-0.13101226538776464 0.12567305503975046 0.0 0.03704664709951244 0.0 0.0
-0.12074822396963128 0.11596958391115386 0.0 0.03150167451305019 0.0 0.0
-0.1063109754255182 0.10199852661758735 0.0 0.027702807848102362 0.0 0.0
-0.09091725962288337 0.08694690475416644 0.0 0.024865290585053323 0.0 0.0
-0.0761058973503391 0.07240772566429765 0.0 0.022223603751591436 0.0 0.0
-0.062357478041666956 0.058916386398983 0.0 0.01952044221659316 0.0 0.0
-0.049766365700683005 0.04658571691643054 0.0 0.01674674756850858 0.0 0.0
-0.0383672056367345 0.03545323036784698 0.0 0.013883986438475215 0.0 0.0
-0.028245988194196076 0.025601930018989805 0.0 0.010890688239173274 0.0 0.0
-0.019570855210114285 0.017199894067937205 0.0 0.007922373598699961 0.0 0.0
-0.012562441636459976 0.010469050176964867 0.0 0.005283652230841596 0.0 0.0
-0.007380041575196991 0.005590886567141018 0.0 0.003239797370979236 0.0 0.0
-0.004042324095526122 0.0026082999982017796 0.0 0.0019984075605801177 0.0 0.0
-0.002274066993970522 0.0012051105145498564 0.0 0.0015109606917398932 0.0 0.0
-0.001476818615495687 0.0006863889681598678 0.0 0.0014927130972656188 0.0 0.0
-0.000984817712085917 0.00042647092807157616 0.0 0.001602806627554243 0.0 0.0
-0.0004915603913396779 0.00013266717692839158 0.0 0.0014467940479097052 0.0 0.0
-7.614015348764158e-05 -0.00010226382175173437 0.0 0.0006889623028285552 0.0 0.0
-0.00011338394365267845 -1.2903160714172746e-05 0.0 -0.00046504947964903787 0.0 0.0
-0.0005351791617962953 0.0001824706687297839 0.0 -0.0011053865265725493 0.0 0.0
-0.0010854289247802518 0.0004651959532381289 0.0 -0.001252976070886147 0.0 0.0
-0.001668071247672931 0.0007708773460162188 0.0 -0.0011429409442363925 0.0 0.0
-0.0027149977055535013 0.0015034977677734762 0.0 -0.0011683600760946655 0.0 0.0
-0.004963834146110346 0.003390391054229669 0.0 -0.0016413012804372684 0.0 0.0
-0.008943806070989768 0.007045504711106876 0.0 -0.002696779705520125 0.0 0.0
-0.014899432482291086 0.01271821139961915 0.0 -0.004357954214340487 0.0 0.0
-0.022900141621823467 0.02043365436871447 0.0 -0.006527033049167796 0.0 0.0
-0.032813885600751214 0.030056443969414204 0.0 -0.008977344116812058 0.0 0.0
-0.044427751830989626 0.04137701161568774 0.0 -0.011453521861290561 0.0 0.0
-0.057560723678538595 0.05421732892079323 0.0 -0.01381810418335383 0.0 0.0
-0.07209194952907677 0.06845686374154436 0.0 -0.01612385224782331 0.0 0.0
-0.08791069388376888 0.08398331911402357 0.0 -0.018398820853721354 0.0 0.0
-0.10480582583656567 0.10057682019940817 0.0 -0.020434347048671087 0.0 0.0
-0.1222396966258529 0.11765961122965773 0.0 -0.022007624590242192 0.0 0.0
-0.13876387923192582 0.13370677873942327 0.0 -0.023929499589069758 0.0 0.0
-0.1510863987415008 0.14537810933442863 0.0 -0.028872109309648564 0.0 0.0
-0.15362647320505232 0.14725138705741792 0.0 -0.03959882226946565 0.0 0.0
-0.1394665315904769 0.13251156774320894 0.0 -0.05742545526502685 0.0 0.0
-0.13946653159046343 0.13251156774319384 0.0 0.05742545526506426 0.0 0.0
-0.15362647320501524 0.14725138705738328 0.0 0.03959882226951705 0.0 0.0
-0.1510863987414408 0.14537810933437179 0.0 0.028872109309684313 0.0 0.0
-0.13876387923184963 0.13370677873935133 0.0 0.02392949958907903 0.0 0.0
-0.12223969662576678 0.11765961122957647 0.0 0.022007624590238473 0.0 0.0
-0.10480582583647692 0.1005768201993198 0.0 0.02043434704866648 0.0 0.0
-0.08791069388367725 0.08398331911393475 0.0 0.018398820853709863 0.0 0.0
-0.07209194952898755 0.06845686374145465 0.0 0.01612385224781282 0.0 0.0
-0.057560723678451726 0.05421732892070619 0.0 0.013818104183338842 0.0 0.0
-0.04442775183091175 0.04137701161561047 0.0 0.011453521861268134 0.0 0.0
-0.032813885600684746 0.03005644396934981 0.0 0.008977344116793684 0.0 0.0
-0.022900141621771335 0.02043365436866429 0.0 0.0065270330491534745 0.0 0.0
-0.014899432482251992 0.012718211399580293 0.0 0.004357954214326387 0.0 0.0
-0.00894380607096399 0.0070455047110802305 0.0 0.0026967797055132414 0.0 0.0
-0.004963834146097024 0.0033903910542183446 0.0 0.001641301280432883 0.0 0.0
-0.0027149977055485816 0.0015034977677705896 0.0 0.0011683600760951651 0.0 0.0
-0.0016680712476723342 0.0007708773460162188 0.0 0.0011429409442363925 0.0 0.0
-0.0010854289247790236 0.00046519595323646357 0.0 0.0012529760708866466 0.0 0.0
-0.0005351791617959137 0.00018247066872861817 0.0 0.0011053865265726048 0.0 0.0
-0.00011338394365275478 -1.2903160714524894e-05 0.0 0.00046504947964737253 0.0 0.0
-0.00012799479913877532 4.235078160735872e-05 0.0 -0.00024299903844349213 0.0 0.0
-0.0005618819854938395 0.00022319876180221243 0.0 -0.0007232092788952982 0.0 0.0
-0.0011835658398393623 0.0005021276632494187 0.0 -0.000838172713887142 0.0 0.0
-0.001883410050883827 0.0008780367359011443 0.0 -0.0007507631751066945 0.0 0.0
-0.003229796942480989 0.0018905851175292643 0.0 -0.0007872628388910785 0.0 0.0
-0.005972051708515724 0.0042843953494329234 0.0 -0.0011470116934341745 0.0 0.0
-0.010539374159282022 0.008560449898971978 0.0 -0.0018829275483236985 0.0 0.0
-0.017237780481625498 0.014982858968929147 0.0 -0.003019664359205365 0.0 0.0
-0.026198069061402596 0.023651925814107244 0.0 -0.004531936831708161 0.0 0.0
-0.0373301141758659 0.03447441289313424 0.0 -0.0062647554902152125 0.0 0.0
-0.05042928814328285 0.04725627372526464 0.0 -0.00801767504402151 0.0 0.0
-0.06529799429255956 0.06180547717348972 0.0 -0.009691703950465369 0.0 0.0
-0.08177429335344527 0.07795818870119131 0.0 -0.01135285022145227 0.0 0.0
-0.09964899174392966 0.09550163138925116 0.0 -0.012975884170413399 0.0 0.0
-0.11854292028652547 0.11405274366024054 0.0 -0.014303911289641036 0.0 0.0
-0.1377527187258437 0.1328988139655105 0.0 -0.014868027889540891 0.0 0.0
-0.15595068562298606 0.15066314049296903 0.0 -0.01475180872338755 0.0 0.0
-0.17041993594061425 0.1645181549932575 0.0 -0.01718803815761849 0.0 0.0
-0.17556657625048158 0.16872304290745088 0.0 -0.030386617130898075 0.0 0.0
-0.1622004349579334 0.1546581697562619 0.0 -0.05937780035259921 0.0 0.0
-0.16220043495791658 0.15465816975624325 0.0 0.05937780035262874 0.0 0.0
-0.17556657625043934 0.16872304290739937 0.0 0.030386617130940596 0.0 0.0
-0.1704199359405457 0.16451815499318378 0.0 0.017188038157647023 0.0 0.0
-0.15595068562289893 0.15066314049288732 0.0 0.014751808723391102 0.0 0.0
-0.13775271872574682 0.13289881396541015 0.0 0.01486802788953745 0.0 0.0
-0.11854292028642573 0.11405274366013307 0.0 0.014303911289642424 0.0 0.0
-0.09964899174382755 0.09550163138914902 0.0 0.012975884170405488 0.0 0.0
-0.08177429335334432 0.0779581887010945 0.0 0.0113528502214445 0.0 0.0
-0.06529799429246352 0.06180547717339513 0.0 0.009691703950455266 0.0 0.0
-0.05042928814319466 0.04725627372517671 0.0 0.008017675044004302 0.0 0.0
-0.037330114175792725 0.034474412893059636 0.0 0.006264755490200835 0.0 0.0
-0.026198069061344566 0.023651925814046404 0.0 0.004531936831700056 0.0 0.0
-0.017237780481581293 0.014982858968885626 0.0 0.003019664359197205 0.0 0.0
-0.01053937415925249 0.008560449898947331 0.0 0.0018829275483174257 0.0 0.0
-0.005972051708499404 0.004284395349419379 0.0 0.0011470116934296226 0.0 0.0
-0.0032297969424738456 0.0018905851175206045 0.0 0.0007872628388883585 0.0 0.0
-0.0018834100508827029 0.0008780367358993679 0.0 0.0007507631751062505 0.0 0.0
-0.001183565839838266 0.0005021276632491967 0.0 0.0008381727138863093 0.0 0.0
-0.0005618819854934128 0.00022319876180215692 0.0 0.0007232092788929667 0.0 0.0
-0.00012799479913859144 4.23507816078323e-05 0.0 0.00024299903844415827 0.0 0.0
-0.00010798576018555828 5.735709140913814e-05 0.0 -3.953607205264831e-05 0.0 0.0
-0.0005556324538029123 0.00024473980390593564 0.0 -0.00029271512459311255 0.0 0.0
-0.0012861693298914512 0.0005425974965576064 0.0 -0.0003447334729686502 0.0 0.0
-0.002146514676883371 0.0010358372132130977 0.0 -0.0003221813931296724 0.0 0.0
-0.003823573929108426 0.0023663673224205706 0.0 -0.0003416443493874377 0.0 0.0
-0.007033038213753895 0.005250823099651081 0.0 -0.0004868222310976944 0.0 0.0
-0.01214953498354221 0.010103863943839997 0.0 -0.0007911739459849909 0.0 0.0
-0.019547766954431722 0.017232975429101405 0.0 -0.0012712535395781877 0.0 0.0
-0.029431282839332107 0.026818070260778537 0.0 -0.0019460425803147219 0.0 0.0
-0.04175818692516975 0.03881807618288091 0.0 -0.0027495901920668864 0.0 0.0
-0.0563386410618304 0.05305688232060746 0.0 -0.003575865122520616 0.0 0.0
-0.07294764962079825 0.06931730491189514 0.0 -0.004380785826125111 0.0 0.0
-0.09135496188206832 0.08736948011608048 0.0 -0.005170341892953512 0.0 0.0
-0.11125873618970894 0.10690442294577052 0.0 -0.005895637705386814 0.0 0.0
-0.13212053234734722 0.12737874273287852 0.0 -0.006402338180171885 0.0 0.0
-0.1529897656659287 0.14784621150244526 0.0 -0.00634237928268222 0.0 0.0
-0.17240875635997682 0.1668581800325848 0.0 -0.0053004700973801055 0.0 0.0
-0.18827092864476444 0.18226517108535223 0.0 -0.004292759761672871 0.0 0.0
-0.19686852366626997 0.19013818138257133 0.0 -0.012799943383164036 0.0 0.0
-0.18871104195087016 0.1800420443577746 0.0 -0.054697938824489145 0.0 0.0
-0.18871104195085042 0.1800420443577524 0.0 0.054697938824497916 0.0 0.0
-0.19686852366622276 0.19013818138252425 0.0 0.012799943383184575 0.0 0.0
-0.18827092864468617 0.18226517108528117 0.0 0.004292759761686138 0.0 0.0
-0.1724087563598774 0.16685818003248887 0.0 0.005300470097378995 0.0 0.0
-0.1529897656658206 0.14784621150234178 0.0 0.006342379282674615 0.0 0.0
-0.13212053234723556 0.12737874273276972 0.0 0.006402338180175049 0.0 0.0
-0.11125873618959713 0.10690442294566704 0.0 0.005895637705384926 0.0 0.0
-0.09135496188195569 0.08736948011597168 0.0 0.00517034189295032 0.0 0.0
-0.07294764962069186 0.069317304911785 0.0 0.004380785826122335 0.0 0.0
-0.05633864106173374 0.05305688232050931 0.0 0.0035758651225112903 0.0 0.0
-0.041758186925089355 0.03881807618280453 0.0 0.0027495901920582266 0.0 0.0
-0.029431282839268023 0.026818070260721694 0.0 0.0019460425803118353 0.0 0.0
-0.01954776695438331 0.01723297542905522 0.0 0.0012712535395752456 0.0 0.0
-0.012149534983508837 0.01010386394381002 0.0 0.0007911739459811051 0.0 0.0
-0.007033038213734589 0.005250823099633539 0.0 0.0004868222310960846 0.0 0.0
-0.0038235739290997245 0.002366367322412355 0.0 0.0003416443493854948 0.0 0.0
-0.0021465146768808972 0.0010358372132108773 0.0 0.00032218139312839567 0.0 0.0
-0.0012861693298905196 0.0005425974965578284 0.0 0.00034473347296737344 0.0 0.0
-0.0005556324538028776 0.0002447398039058246 0.0 0.00029271512459100313 0.0 0.0
-0.00010798576018497714 5.7357091408909155e-05 0.0 3.953607204976173e-05 0.0 0.0
SCALARS Statev float 8
LOOKUP_TABLE default
0.0 0.013892588607593997 0.010770497854345324 -0.011151059258240233 0.00038056140389490663 -0.006209179382841355 0.0 0.0
0.0 0.0008845113940421563 0.0006355559871135058 -0.0005456479690197659 -8.990801809374006e-05 0.0005689199600895519 0.0 0.0
0.0 3.388091927096585e-05 -4.318046076665482e-06 3.44278947855266e-06 8.752565981127924e-07 5.256817229364331e-07 0.0 0.0
0.0 0.00034184755765532485 0.0002566591977856754 -0.00020318323523590075 -5.347596254977457e-05 -3.6504753959763005e-05 0.0 0.0
0.0 0.001773161504682471 0.0014589748702849555 -0.0012199415711371875 -0.00023903329914776828 -0.00015743559742389742 0.0 0.0
0.0 0.004775191659554493 0.004310618192647165 -0.003829797509556127 -0.000480820683091038 -0.0003536671631654782 0.0 0.0
0.0 0.010272307601571292 0.00912290064298854 -0.008482336224670498 -0.000640564418318041 -0.0006519093065911214 0.0 0.0
0.0 0.018473121600891686 0.016249784228521878 -0.015497639136959923 -0.0007521450915619548 -0.0011096442519244111 0.0 0.0
0.0 0.029577431014061087 0.025870215340696633 -0.02501303217371078 -0.00085718316698584 -0.0017589292990339643 0.0 0.0
0.0 0.04354758101874611 0.03795046190035219 -0.036982030014866274 -0.0009684318854859049 -0.002548622155938223 0.0 0.0
0.0 0.06020970378369227 0.05231932046730085 -0.051235012725840245 -0.0010843077414605868 -0.003377514754513377 0.0 0.0
0.0 0.07903301544857236 0.06876491907921951 -0.06756250402847638 -0.0012024150507431006 -0.004190580450417104 0.0 0.0
0.0 0.10007054548334388 0.08706596641155753 -0.08574409537605421 -0.0013218710355032354 -0.004989525447924484 0.0 0.0
0.0 0.12302236146104768 0.10696513896322273 -0.10552091610750869 -0.0014442228557139734 -0.00576421918775198 0.0 0.0
0.0 0.14734952933217746 0.1280511154597973 -0.1264803997801297 -0.0015707156796675222 -0.006475087863281722 0.0 0.0
0.0 0.17228167569983055 0.1496272017238137 -0.14792710386146854 -0.0017000978623452046 -0.006980635260101946 0.0 0.0
0.0 0.19659001679118399 0.17065883112656038 -0.1688307316792791 -0.0018280994472813332 -0.0070383794141826075 0.0 0.0
0.0 0.2187135816077995 0.18981042169042817 -0.18786007303210467 -0.001950348658323488 -0.006433015220540291 0.0 0.0
0.0 0.23681935113878677 0.20548809885732705 -0.2034213881575707 -0.0020667106997563135 -0.00551921422120318 0.0 0.0
0.0 0.2479397547366783 0.21525066709276064 -0.21300124279902832 -0.0022494242937323426 -0.006538938460577786 0.0 0.0
0.0 0.24793975473666333 0.2152506670927473 -0.2130012427990154 -0.0022494242937318902 0.006538938460586684 0.0 0.0
0.0 0.23681935113873792 0.20548809885728425 -0.20342138815752858 -0.002066710699755542 0.005519214221226408 0.0 0.0
0.0 0.21871358160771154 0.18981042169035206 -0.18786007303202873 -0.0019503486583232563 0.006433015220555031 0.0 0.0
0.0 0.19659001679107252 0.1706588311264638 -0.16883073167918267 -0.0018280994472810923 0.007038379414189411 0.0 0.0
0.0 0.17228167569970854 0.14962720172370808 -0.14792710386136323 -0.0017000978623448845 0.006980635260093694 0.0 0.0
0.0 0.14734952933205586 0.12805111545969144 -0.126480399780025 -0.001570715679666442 0.006475087863278967 0.0 0.0
0.0 0.12302236146092646 0.10696513896311749 -0.1055209161074043 -0.0014442228557131388 0.005764219187751381 0.0 0.0
0.0 0.10007054548322422 0.08706596641145357 -0.08574409537595132 -0.001321871035502258 0.004989525447922816 0.0 0.0
0.0 0.079033015448458 0.06876491907912016 -0.06756250402837807 -0.001202415050742035 0.004190580450409367 0.0 0.0
0.0 0.06020970378359258 0.05231932046721401 -0.05123501272575427 -0.0010843077414597196 0.0033775147545068453 0.0 0.0
0.0 0.04354758101865918 0.037950461900277024 -0.036982030014791535 -0.0009684318854855042 0.002548622155927308 0.0 0.0
0.0 0.029577431013996267 0.02587021534063977 -0.025013032173654585 -0.0008571831669852089 0.0017589292990312587 0.0 0.0
0.0 0.01847312160084533 0.016249784228480703 -0.015497639136919494 -0.0007521450915612036 0.0011096442519209731 0.0 0.0
0.0 0.010272307601539118 0.009122900642959888 -0.008482336224642322 -0.0006405644183175576 0.0006519093065891663 0.0 0.0
0.0 0.0047751916595359205 0.0043106181926301414 -0.0038297975095400514 -0.00048082068309009005 0.00035366716316397165 0.0 0.0
0.0 0.0017731615046735114 0.0014589748702774456 -0.0012199415711305792 -0.00023903329914686552 0.00015743559742314298 0.0 0.0
0.0 0.0003418475576527096 0.0002566591977842265 -0.00020318323523470748 -5.3475962549518984e-05 3.650475395942181e-05 0.0 0.0
0.0 3.38809192704454e-05 -4.3180460765932575e-06 3.4427894784966083e-06 8.752565980966931e-07 -5.256817229435264e-07 0.0 0.0
0.0 0.0008845113940393638 0.0006355559871119392 -0.000545647969018387 -8.99080180935525e-05 -0.00056891996008763 0.0 0.0
0.0 0.013892588607575428 0.010770497854333063 -0.011151059258226941 0.0003805614038938726 0.00620917938281055 0.0 0.0
0.0 0.010378088577995711 0.007539736172481848 -0.008035076590339913 0.0004953404178580598 -0.007217993192293092 0.0 0.0
0.0 1.2587459061691783e-05 9.290139600829066e-06 -8.208282998964678e-06 -1.08185660186439e-06 6.010445669031049e-06 0.0 0.0
0.0 6.09892427769837e-07 1.2174490887932964e-07 -9.119575898018358e-08 -3.0549149899148776e-08 -3.8643512148957674e-08 0.0 0.0
0.0 0.00013923029186019807 9.929077259868729e-05 -7.800420528143445e-05 -2.1286567317253057e-05 -3.481163710947873e-05 0.0 0.0
0.0 0.0012005570053491498 0.000949022114082564 -0.0007816980355665335 -0.00016732407851603097 -0.00025222690716805593 0.0 0.0
0.0 0.003698041670804895 0.003341526546569566 -0.0029237151496315054 -0.0004178113969380599 -0.0007259547111131097 0.0 0.0
0.0 0.008566362834763037 0.007601598792788521 -0.006997067391140984 -0.0006045314016475341 -0.001482173889188317 0.0 0.0
0.0 0.015970436440753178 0.014022293926576768 -0.013294691672187602 -0.0007276022543891654 -0.002581854654092852 0.0 0.0
0.0 0.02602134011514261 0.022718091463432816 -0.021885192818160593 -0.0008328986452722233 -0.004052244331126985 0.0 0.0
0.0 0.03862059622414218 0.03360487089268953 -0.0326656665354352 -0.0009392043572543421 -0.0057709739102756955 0.0 0.0
0.0 0.05355189531468618 0.0464964228851849 -0.045449314131403226 -0.001047108753781682 -0.007544047501822104 0.0 0.0
0.0 0.07064524445283349 0.061209010956962365 -0.06005339116340338 -0.001155619793558955 -0.009253487061799475 0.0 0.0
0.0 0.08942641774100644 0.0775872813232015 -0.07632169291291459 -0.0012655884102869182 -0.010948433072479506 0.0 0.0
0.0 0.10995555584983996 0.09542408003330977 -0.09404618829382484 -0.0013778917394849139 -0.012633221220699568 0.0 0.0
0.0 0.13182292944233898 0.11436808466033208 -0.11287516042127903 -0.0014929242390529932 -0.014186643926265894 0.0 0.0
0.0 0.15427090664333581 0.13383047917057328 -0.1322204301549538 -0.0016100490156195219 -0.015329948810190041 0.0 0.0
0.0 0.17627671984155083 0.15291750071554516 -0.15118984026277182 -0.0017276604527733685 -0.01560177282655914 0.0 0.0
0.0 0.19643275059138476 0.17039874040473882 -0.16855348596867523 -0.0018452544360635624 -0.01467970234072098 0.0 0.0
0.0 0.21273554332000644 0.18455345834513084 -0.18257654110802293 -0.001976917237107925 -0.01286799608916321 0.0 0.0
0.0 0.22251579238128064 0.19307283347958687 -0.19099494867275466 -0.0020778848068321856 -0.009981241291542882 0.0 0.0
0.0 0.22251579238126476 0.19307283347957294 -0.19099494867274075 -0.0020778848068322905 0.009981241291567208 0.0 0.0
0.0 0.21273554331995567 0.18455345834508632 -0.1825765411079781 -0.0019769172371082245 0.012867996089206602 0.0 0.0
0.0 0.1964327505913085 0.17039874040467196 -0.16855348596860878 -0.0018452544360630788 0.014679702340749844 0.0 0.0
0.0 0.17627671984146057 0.15291750071546606 -0.1511898402626943 -0.0017276604527715366 0.015601772826573506 0.0 0.0
0.0 0.1542709066432319 0.13383047917048307 -0.13222043015486482 -0.0016100490156181909 0.015329948810181016 0.0 0.0
0.0 0.13182292944222923 0.1143680846602367 -0.11287516042118483 -0.0014929242390518654 0.014186643926259755 0.0 0.0
0.0 0.10995555584972874 0.09542408003321305 -0.09404618829372921 -0.0013778917394838073 0.012633221220695885 0.0 0.0
0.0 0.0894264177408982 0.07758728132310726 -0.07632169291282156 -0.0012655884102856876 0.01094843307247419 0.0 0.0
0.0 0.07064524445272818 0.061209010956871035 -0.06005339116331272 -0.0011556197935582856 0.00925348706178661 0.0 0.0
0.0 0.05355189531459406 0.04649642288510493 -0.04544931413132398 -0.0010471087537809237 0.007544047501810808 0.0 0.0
0.0 0.03862059622406557 0.033604870892623144 -0.032665666535369176 -0.0009392043572539587 0.005770973910259866 0.0 0.0
0.0 0.026021340115082545 0.022718091463380108 -0.0218851928181082 -0.0008328986452718905 0.004052244331119621 0.0 0.0
0.0 0.015970436440708845 0.0140222939265379 -0.0132946916721492 -0.0007276022543887052 0.0025818546540850263 0.0 0.0
0.0 0.008566362834734866 0.0076015987927633664 -0.006997067391116545 -0.0006045314016468198 0.0014821738891834663 0.0 0.0
0.0 0.0036980416707888004 0.0033415265465553522 -0.0029237151496182795 -0.0004178113969370729 0.0007259547111098891 0.0 0.0
0.0 0.0012005570053419728 0.000949022114076996 -0.0007816980355616916 -0.00016732407851530472 0.0002522269071664859 0.0 0.0
0.0 0.00013923029185889784 9.929077259814138e-05 -7.800420528098405e-05 -2.128656731715721e-05 3.481163710925304e-05 0.0 0.0
0.0 6.098924278304364e-07 1.217449089411332e-07 -9.119575902676785e-08 -3.0549149914367284e-08 3.864351216990477e-08 0.0 0.0
0.0 1.2587459061298349e-05 9.290139600817249e-06 -8.20828299894231e-06 -1.081856601874937e-06 -6.010445669028112e-06 0.0 0.0
0.0 0.010378088577973576 0.007539736172467329 -0.008035076590324788 0.0004953404178574552 0.007217993192266431 0.0 0.0
0.0 0.007905324241326827 0.005441779534400715 -0.005968606625612615 0.0005268270912119002 -0.006366025872038591 0.0 0.0
0.0 0.0 0.0 0.0 0.0 0.0 0.0 0.0
0.0 0.0 0.0 0.0 0.0 0.0 0.0 0.0
0.0 3.1602724151032047e-05 2.545072056808146e-05 -1.9899304192766175e-05 -5.551416375315314e-06 -1.6516730804980234e-05 0.0 0.0
0.0 0.0006904762164452568 0.000552085229304212 -0.000448171803617221 -0.00010391342568699065 -0.0002600985958176275 0.0 0.0
0.0 0.0028751819826840913 0.0024251542961529694 -0.0020862549529021943 -0.00033889934325077425 -0.0009093116095425344 0.0 0.0
0.0 0.006922483039535646 0.006110890539419242 -0.005552814291878667 -0.0005580762475405754 -0.002021017430241523 0.0 0.0
0.0 0.013492137216602033 0.011786154564430221 -0.011090029630123184 -0.0006961249343070271 -0.0036456665429439364 0.0 0.0
0.0 0.02248506034758408 0.019519863957970993 -0.018716027473643267 -0.0008038364843277273 -0.005762849595104018 0.0 0.0
0.0 0.033722013953914276 0.029188986634524693 -0.028283767636882694 -0.0009052189976419796 -0.00819828453531244 0.0 0.0
0.0 0.04699483066140832 0.04059622561278682 -0.03959094808313086 -0.0010052775296559768 -0.01070661108156932 0.0 0.0
0.0 0.062023135099905806 0.053579260878157293 -0.0524743897784372 -0.001104871099720071 -0.013136011197729764 0.0 0.0
0.0 0.07884004254050382 0.06801845301745554 -0.06681327950994052 -0.0012051735075149963 -0.015522143358267362 0.0 0.0
0.0 0.096944107133133 0.08377070768732447 -0.08246373022612331 -0.0013069774612010942 -0.017909020475785083 0.0 0.0
0.0 0.1162933958086699 0.10056169976954164 -0.09915151213189816 -0.0014101876376434708 -0.020148871422993514 0.0 0.0
0.0 0.13632280148239478 0.117917141010052 -0.1164020382508247 -0.001515102759227291 -0.021841680800706947 0.0 0.0
0.0 0.15607833132867538 0.13508431274429944 -0.1334614794685958 -0.001622833275703645 -0.022430342457330145 0.0 0.0
0.0 0.17422736334943797 0.15091412274837973 -0.14917616728633276 -0.001737955462046984 -0.021453784711524093 0.0 0.0
0.0 0.18889119833423668 0.1637552186149081 -0.1619047836744823 -0.0018504349404257529 -0.018425068357333787 0.0 0.0
0.0 0.19792015731537488 0.17174227478803716 -0.1698101576354769 -0.0019321171525601242 -0.012382665350080797 0.0 0.0
0.0 0.19792015731536153 0.17174227478802467 -0.16981015763546503 -0.0019321171525595647 0.012382665350121731 0.0 0.0
0.0 0.18889119833419601 0.1637552186148706 -0.16190478367444583 -0.0018504349404248753 0.018425068357393416 0.0 0.0
0.0 0.1742273633493702 0.1509141227483195 -0.14917616728627264 -0.0017379554620466963 0.021453784711564845 0.0 0.0
0.0 0.15607833132859034 0.13508431274422514 -0.1334614794685214 -0.0016228332757038002 0.022430342457347964 0.0 0.0
0.0 0.1363228014822983 0.11791714100996877 -0.11640203825074151 -0.0015151027592271904 0.02184168080069651 0.0 0.0
0.0 0.11629339580857163 0.1005616997694564 -0.09915151213181345 -0.0014101876376429964 0.02014887142298606 0.0 0.0
0.0 0.0969441071330335 0.08377070768723818 -0.08246373022603722 -0.001306977461200975 0.017909020475779358 0.0 0.0
0.0 0.07884004254040827 0.06801845301737279 -0.06681327950985791 -0.001205173507514836 0.015522143358259443 0.0 0.0
0.0 0.06202313509981598 0.05357926087807997 -0.052474389778360254 -0.0011048710997197467 0.013136011197712178 0.0 0.0
0.0 0.04699483066132708 0.04059622561271633 -0.03959094808306093 -0.0010052775296553779 0.010706611081552273 0.0 0.0
0.0 0.033722013953845845 0.029188986634465418 -0.02828376763682398 -0.0009052189976414343 0.0081982845352922 0.0 0.0
0.0 0.022485060347529815 0.019519863957923784 -0.0187160274735965 -0.0008038364843272825 0.0057628495950916995 0.0 0.0
0.0 0.013492137216562474 0.011786154564395732 -0.011090029630089156 -0.0006961249343065704 0.003645666542932901 0.0 0.0
0.0 0.006922483039510166 0.006110890539396802 -0.005552814291856985 -0.0005580762475398155 0.0020210174302344327 0.0 0.0
0.0 0.002875181982670105 0.0024251542961413047 -0.0020862549528915687 -0.00033889934324973585 0.00090931160953784 0.0 0.0
0.0 0.0006904762164403639 0.0005520852293005062 -0.00044817180361416407 -0.00010391342568634196 0.00026009859581602017 0.0 0.0
0.0 3.160272415045039e-05 2.545072056810722e-05 -1.9899304192770454e-05 -5.551416375336785e-06 1.6516730804901596e-05 0.0 0.0
0.0 0.0 0.0 0.0 0.0 0.0 0.0 0.0
0.0 0.0 0.0 0.0 0.0 0.0 0.0 0.0
0.0 0.007905324241307314 0.0054417795343873225 -0.005968606625598556 0.0005268270912112317 0.006366025872016866 0.0 0.0
0.0 0.005955162146129194 0.0039348219911677935 -0.004435250809573214 0.0005004288184054184 -0.005055378636087043 0.0 0.0
0.0 0.0 0.0 0.0 0.0 0.0 0.0 0.0
0.0 0.0 0.0 0.0 0.0 0.0 0.0 0.0
0.0 5.438862137130663e-06 2.4745842063591865e-06 -1.924912969581775e-06 -5.496712367773957e-07 -2.52663895957799e-06 0.0 0.0
0.0 0.00034612350345187946 0.000269480185560227 -0.00021651406524831647 -5.296612031191038e-05 -0.00020339894627247418 0.0 0.0
0.0 0.0019975198418295307 0.0016339689636845692 -0.0013803168802245759 -0.0002536520834599934 -0.0009298000969717791 0.0 0.0
0.0 0.0054076916038800025 0.004671191442524513 -0.0041781199605526 -0.0004930714819719132 -0.0022745173645644092 0.0 0.0
0.0 0.011068560824107048 0.009570922777712503 -0.008914726776931154 -0.0006561960007813446 -0.004294194530108654 0.0 0.0
0.0 0.0189697619552825 0.016311599583996427 -0.01554327382025101 -0.0007683257637454246 -0.006882349830289209 0.0 0.0
0.0 0.02882774712700264 0.024742556943451254 -0.02387673298292406 -0.0008658239605271584 -0.009835197847201639 0.0 0.0
0.0 0.04041563597831319 0.03465639164210925 -0.03369779302807223 -0.0009585986140370113 -0.012866340746934383 0.0 0.0
0.0 0.053539105865943286 0.04590432942915551 -0.04485477220359146 -0.0010495572255640427 -0.01582003541789686 0.0 0.0
0.0 0.06807987247143148 0.058402789675902296 -0.05726269666512381 -0.0011400930107784966 -0.0187364201856302 0.0 0.0
0.0 0.08396937688174695 0.07205656220832629 -0.07082506019417405 -0.0012315020141522312 -0.02161504569510592 0.0 0.0
0.0 0.10093933281193027 0.08667357715864345 -0.08535072999323343 -0.0013228471654099933 -0.024319127178054463 0.0 0.0
0.0 0.11835103344667847 0.10190294629700042 -0.10048762600197783 -0.0014153202950225444 -0.026479768840323836 0.0 0.0
0.0 0.13586430455618315 0.11713076683242889 -0.11561766213663935 -0.0015131046957895323 -0.027466458285966385 0.0 0.0
0.0 0.15210925534225345 0.13135417030824517 -0.12973717103296126 -0.001616999275283894 -0.026517054661641823 0.0 0.0
0.0 0.16542351510571726 0.1431419962762689 -0.14142516117041298 -0.0017168351058558411 -0.02256821042558239 0.0 0.0
0.0 0.17402269462976377 0.150908176651541 -0.14911773529185118 -0.001790441359689777 -0.01431425497964779 0.0 0.0
0.0 0.17402269462975087 0.15090817665152884 -0.14911773529183878 -0.0017904413596901384 0.014314254979700163 0.0 0.0
0.0 0.16542351510567918 0.14314199627623342 -0.1414251611703768 -0.001716835105856529 0.022568210425650888 0.0 0.0
0.0 0.15210925534219993 0.13135417030819613 -0.12973717103291263 -0.0016169992752833398 0.02651705466168952 0.0 0.0
0.0 0.13586430455611798 0.11713076683237048 -0.11561766213658206 -0.0015131046957883862 0.0274664582859886 0.0 0.0
0.0 0.11835103344660006 0.1019029462969325 -0.10048762600191065 -0.0014153202950218402 0.026479768840313923 0.0 0.0
0.0 0.10093933281184915 0.08667357715857299 -0.08535072999316383 -0.001322847165409144 0.024319127178045345 0.0 0.0
0.0 0.08396937688166484 0.07205656220825463 -0.07082506019410342 -0.0012315020141511748 0.02161504569509797 0.0 0.0
0.0 0.06807987247135171 0.05840278967583275 -0.05726269666505539 -0.0011400930107773645 0.018736420185618597 0.0 0.0
0.0 0.053539105865865036 0.04590432942908787 -0.04485477220352446 -0.0010495572255634054 0.01582003541787645 0.0 0.0
0.0 0.04041563597824115 0.03465639164204735 -0.033697793028010584 -0.0009585986140367552 0.012866340746911602 0.0 0.0
0.0 0.02882774712694483 0.024742556943401932 -0.023876732982875303 -0.0008658239605266098 0.009835197847177967 0.0 0.0
0.0 0.018969761955236773 0.016311599583956872 -0.015543273820212151 -0.0007683257637447257 0.0068823498302742255 0.0 0.0
0.0 0.011068560824072777 0.009570922777682818 -0.008914726776902318 -0.0006561960007804951 0.0042941945300955815 0.0 0.0
0.0 0.005407691603859161 0.00467119144250676 -0.004178119960535692 -0.000493071481971068 0.0022745173645560873 0.0 0.0
0.0 0.00199751984181882 0.0016339689636763034 -0.0013803168802173534 -0.0002536520834589505 0.0009298000969672513 0.0 0.0
0.0 0.00034612350344858506 0.0002694801855582867 -0.00021651406524669098 -5.296612031159577e-05 0.00020339894627098305 0.0 0.0
0.0 5.438862136722818e-06 2.474584206518702e-06 -1.9249129697040423e-06 -5.496712368146481e-07 2.526638959731679e-06 0.0 0.0
0.0 0.0 0.0 0.0 0.0 0.0 0.0 0.0
0.0 0.0 0.0 0.0 0.0 0.0 0.0 0.0
0.0 0.0059551621461125005 0.00393482199115669 -0.004435250809561419 0.0005004288184047262 0.005055378636070331 0.0 0.0
0.0 0.0043511625136817885 0.0027729674475146736 -0.0032119485398555475 0.0004389810923408743 -0.003766637002858687 0.0 0.0
0.0 0.0 0.0 0.0 0.0 0.0 0.0 0.0
0.0 0.0 0.0 0.0 0.0 0.0 0.0 0.0
0.0 8.158651300164499e-07 3.473521079372431e-07 -2.6531039538734127e-07 -8.204171254990197e-08 -5.093751817303023e-07 0.0 0.0
0.0 0.0001480755248693764 0.00010504476220830607 -8.405249375112347e-05 -2.0992268457182613e-05 -0.0001225265336875162 0.0 0.0
0.0 0.0012555599905904925 0.0009897270626327529 -0.0008215283640704482 -0.00016819869856230486 -0.0008312178118654704 0.0 0.0
0.0 0.004089179816313331 0.0033302605738849203 -0.002921657515289345 -0.0004086030585955752 -0.002253591161348956 0.0 0.0
0.0 0.008769741084424394 0.007402170389977042 -0.006800520433782327 -0.0006016499561947161 -0.004486486869060117 0.0 0.0
0.0 0.01549874783689294 0.013129103864084724 -0.01240443603836592 -0.0007246678257188122 -0.007403710592417758 0.0 0.0
0.0 0.02397172703713204 0.02030382379755352 -0.019483825679657632 -0.0008199981178958773 -0.010677877188398535 0.0 0.0
0.0 0.03388210972225863 0.028715233784830797 -0.02780890144052324 -0.0009063323443075838 -0.014032731507580394 0.0 0.0
0.0 0.045034618217848946 0.03822428136063958 -0.03723558019685715 -0.000988701163782421 -0.01730506939328453 0.0 0.0
0.0 0.05744134872623046 0.04877675577845552 -0.04770706947953421 -0.0010696862989213187 -0.02053755974895195 0.0 0.0
0.0 0.07084801398680746 0.060329482604602865 -0.059179110592399886 -0.0011503720122029888 -0.023745071332832553 0.0 0.0
0.0 0.08532820381582784 0.07275851705164794 -0.0715280052348229 -0.0012305118168250498 -0.02674969704485433 0.0 0.0
0.0 0.10056047311051142 0.08581611749304259 -0.08450507765503859 -0.001311039838003976 -0.02920291124474605 0.0 0.0
0.0 0.11564028088304106 0.09905623862271343 -0.09766103740775398 -0.0013952012149594415 -0.030550474152676053 0.0 0.0
0.0 0.12996458301539723 0.11170834118111049 -0.1102225443689682 -0.0014857968121422698 -0.029823335902646905 0.0 0.0
0.0 0.14212667903384435 0.12260472475468198 -0.12102906611731873 -0.0015756586373631976 -0.025484357972828 0.0 0.0
0.0 0.15052475124453335 0.1303504889682264 -0.12870335063298913 -0.001647138335237168 -0.015914946030456074 0.0 0.0
0.0 0.15052475124452672 0.13035048896821846 -0.12870335063298213 -0.0016471383352362522 0.01591494603051008 0.0 0.0
0.0 0.1421266790338189 0.1226047247546556 -0.12102906611729332 -0.0015756586373622706 0.025484357972900648 0.0 0.0
0.0 0.12996458301534955 0.11170834118106553 -0.11022254436892338 -0.001485796812142155 0.02982333590269891 0.0 0.0
0.0 0.11564028088298425 0.09905623862266175 -0.09766103740770297 -0.0013952012149587609 0.03055047415270034 0.0 0.0
0.0 0.10056047311044458 0.08581611749298411 -0.08450507765498139 -0.0013110398380027828 0.029202911244737867 0.0 0.0
0.0 0.0853282038157536 0.0727585170515837 -0.07152800523475891 -0.001230511816824825 0.02674969704484266 0.0 0.0
0.0 0.07084801398673476 0.06032948260454013 -0.059179110592337006 -0.0011503720122031142 0.023745071332821506 0.0 0.0
0.0 0.05744134872616219 0.048776755778396026 -0.04770706947947504 -0.0010696862989209657 0.02053755974894083 0.0 0.0
0.0 0.04503461821778688 0.03822428136058608 -0.03723558019680456 -0.0009887011637814951 0.017305069393264844 0.0 0.0
0.0 0.0338821097222016 0.028715233784781913 -0.027808901440475542 -0.0009063323443063715 0.014032731507557239 0.0 0.0
0.0 0.023971727037080778 0.020303823797510768 -0.019483825679615686 -0.0008199981178950858 0.010677877188371137 0.0 0.0
0.0 0.015498747836854215 0.013129103864051932 -0.012404436038333445 -0.0007246678257184811 0.007403710592400463 0.0 0.0
0.0 0.008769741084395929 0.007402170389953288 -0.006800520433759262 -0.0006016499561940274 0.0044864868690461905 0.0 0.0
0.0 0.0040891798162952485 0.003330260573870255 -0.0029216575152757047 -0.0004086030585945497 0.0022535911613399354 0.0 0.0
0.0 0.0012555599905813902 0.000989727062625974 -0.0008215283640646092 -0.00016819869856136413 0.0008312178118598087 0.0 0.0
0.0 0.00014807552486741012 0.00010504476220742887 -8.405249375039169e-05 -2.0992268457037157e-05 0.00012252653368639594 0.0 0.0
0.0 8.158651298540178e-07 3.473521080655186e-07 -2.6531039548564024e-07 -8.204171257987638e-08 5.093751819230309e-07 0.0 0.0
0.0 0.0 0.0 0.0 0.0 0.0 0.0 0.0
0.0 0.0 0.0 0.0 0.0 0.0 0.0 0.0
0.0 0.00435116251366746 0.002772967447505374 -0.003211948539845554 0.0004389810923401776 0.0037666370028451197 0.0 0.0
0.0 0.003010524001100862 0.0018615498953958203 -0.0022171069133804094 0.00035555701798458837 -0.0026536770582104197 0.0 0.0
0.0 0.0 0.0 0.0 0.0 0.0 0.0 0.0
0.0 0.0 0.0 0.0 0.0 0.0 0.0 0.0
0.0 1.2459832782016668e-06 -8.711175530045244e-08 6.722946238267231e-08 1.9882292917777628e-08 2.0432140011233723e-07 0.0 0.0
0.0 6.451837822927736e-05 3.570432175144593e-05 -2.849783343292243e-05 -7.206488318523501e-06 -6.218243191327256e-05 0.0 0.0
0.0 0.0006901447580746055 0.0005174958715619562 -0.0004234546040713271 -9.404126749062877e-05 -0.0006459132606144792 0.0 0.0
0.0 0.0027548460442626153 0.0021651774992381377 -0.0018585034707493567 -0.00030667402848878094 -0.0020540973757857436 0.0 0.0
0.0 0.0065902592180895 0.0053382713335703245 -0.004815486529966822 -0.0005227848036035023 -0.004290102872376165 0.0 0.0
0.0 0.012145919591609041 0.010006725619354598 -0.00933888806516778 -0.0006678375541868155 -0.007295543385168695 0.0 0.0
0.0 0.019174555987122026 0.01591296148498794 -0.015147260555932414 -0.0007657009290555194 -0.010714875341923932 0.0 0.0
0.0 0.027376949178013747 0.02281392405247018 -0.021967381482038275 -0.0008465425704319027 -0.014189220938234264 0.0 0.0
0.0 0.036585869858100695 0.030581790562394504 -0.02966063547579724 -0.0009211550865972681 -0.01758061409197957 0.0 0.0
0.0 0.046751488936482934 0.03918795422589146 -0.03819537488416956 -0.0009925793417218907 -0.0209343721544492 0.0 0.0
0.0 0.05787391037691335 0.04863220826279141 -0.047569683298399286 -0.0010625249643921382 -0.0242508679939257 0.0 0.0
0.0 0.06990435261408497 0.0588600201138245 -0.0577278310341611 -0.0011321890796634243 -0.02738211093694198 0.0 0.0
0.0 0.08237459695801899 0.0697096790227163 -0.06850900280923339 -0.0012006762134829036 -0.03000660932943727 0.0 0.0
0.0 0.09534641855792592 0.08089070559202421 -0.07962119714995144 -0.0012695084420727293 -0.03160746091821224 0.0 0.0
0.0 0.1078971972471513 0.09193434681712909 -0.09059034138304249 -0.0013440054340865947 -0.03125611955725136 0.0 0.0
0.0 0.11883456609118336 0.10200676583959917 -0.10058248299794359 -0.0014242828416554856 -0.027153209682072865 0.0 0.0
0.0 0.12718738596362994 0.10987411081160452 -0.10837636325541863 -0.0014977475561858352 -0.017217823907260746 0.0 0.0
0.0 0.12718738596361928 0.10987411081159358 -0.10837636325540681 -0.001497747556186731 0.01721782390731697 0.0 0.0
0.0 0.11883456609115775 0.10200676583957215 -0.10058248299791638 -0.0014242828416557703 0.027153209682146507 0.0 0.0
0.0 0.10789719724711877 0.09193434681709546 -0.09059034138301018 -0.0013440054340853075 0.03125611955730575 0.0 0.0
0.0 0.09534641855787881 0.08089070559198047 -0.07962119714990826 -0.0012695084420721863 0.031607460918235505 0.0 0.0
0.0 0.08237459695796023 0.06970967902266581 -0.06850900280918303 -0.0012006762134827498 0.03000660932942628 0.0 0.0
0.0 0.06990435261402522 0.05886002011377259 -0.057727831034110076 -0.0011321890796624915 0.02738211093692995 0.0 0.0
0.0 0.05787391037685155 0.04863220826273788 -0.047569683298346106 -0.0010625249643917928 0.024250867993912236 0.0 0.0
0.0 0.046751488936424175 0.0391879542258407 -0.038195374884119115 -0.000992579341721603 0.02093437215443606 0.0 0.0
0.0 0.03658586985804604 0.030581790562348186 -0.029660635475751564 -0.0009211550865966178 0.017580614091958567 0.0 0.0
0.0 0.027376949177964037 0.022813924052428616 -0.021967381481997204 -0.00084654257043142 0.014189220938210255 0.0 0.0
0.0 0.019174555987078293 0.015912961484952255 -0.015147260555897359 -0.000765700929054893 0.010714875341895552 0.0 0.0
0.0 0.012145919591575356 0.010006725619326568 -0.009338888065140553 -0.0006678375541860083 0.007295543385149494 0.0 0.0
0.0 0.006590259218065608 0.005338271333550937 -0.004815486529948376 -0.0005227848036025615 0.004290102872361845 0.0 0.0
0.0 0.002754846044248452 0.0021651774992271586 -0.0018585034707394024 -0.0003066740284877561 0.002054097375776414 0.0 0.0
0.0 0.0006901447580690796 0.0005174958715584468 -0.00042345460406835597 -9.404126749009072e-05 0.0006459132606101415 0.0 0.0
0.0 6.451837822794385e-05 3.570432175117759e-05 -2.8497833432689743e-05 -7.206488318487854e-06 6.218243191271017e-05 0.0 0.0
0.0 1.245983277765114e-06 -8.711175526903953e-08 6.722946235833695e-08 1.9882292910690027e-08 -2.0432140003799813e-07 0.0 0.0
0.0 0.0 0.0 0.0 0.0 0.0 0.0 0.0
0.0 0.0 0.0 0.0 0.0 0.0 0.0 0.0
0.0 0.0030105240010890877 0.0018615498953884876 -0.0022171069133723334 0.00035555701798384596 0.0026536770581995525 0.0 0.0
0.0 0.0019510925921400225 0.0011520228241684832 -0.0014115079899800057 0.0002594851658115224 -0.0017347094815114306 0.0 0.0
0.0 5.610935232125803e-07 -8.037160125762508e-09 8.338978319598262e-09 -3.018181938355691e-10 1.1164998698213293e-07 0.0 0.0
0.0 0.0 0.0 0.0 0.0 0.0 0.0 0.0
0.0 1.343535810957597e-06 -6.745450613659108e-08 5.1836617700734505e-08 1.5617888435866596e-08 2.5068220686766373e-07 0.0 0.0
0.0 3.465690935053079e-05 1.6375031312915085e-05 -1.298735686711425e-05 -3.3876744458008414e-06 -4.230069598775503e-05 0.0 0.0
0.0 0.0003680218763999939 0.00021812627180535914 -0.00017676327397748938 -4.13629978278699e-05 -0.0004116363262736794 0.0 0.0
0.0 0.0016793028490299686 0.0012086151214960028 -0.001013943091053153 -0.00019467203044284994 -0.0016577674192047782 0.0 0.0
0.0 0.004525005984652787 0.003460931653724289 -0.003047239541581268 -0.00041369211214301944 -0.003766718664543437 0.0 0.0
0.0 0.008899495174371316 0.007009468225082111 -0.006423600018200443 -0.0005858682068816629 -0.006601646585407924 0.0 0.0
0.0 0.014465559744310484 0.011614040068734451 -0.010917080468291264 -0.0006969596004431822 -0.009910933115272717 0.0 0.0
0.0 0.020950512456977325 0.016996349527026264 -0.01622066248039566 -0.0007756870466306005 -0.013322033722694613 0.0 0.0
0.0 0.028192014142114842 0.02302517154944523 -0.022181170186513242 -0.000844001362931988 -0.016633400276168303 0.0 0.0
0.0 0.03618221999010263 0.02968702362098878 -0.028780695008641687 -0.0009063286123470882 -0.019892780907213272 0.0 0.0
0.0 0.04488882440979742 0.037020159276187965 -0.03605462027434604 -0.0009655390018419019 -0.023130205747316716 0.0 0.0
0.0 0.054373053695622106 0.045031298225245986 -0.044007437904560104 -0.0010238603206858886 -0.026205894493110456 0.0 0.0
0.0 0.06445544790073517 0.0536386637665834 -0.052556068091093255 -0.0010825956754901664 -0.028804930349952212 0.0 0.0
0.0 0.07485315361484271 0.0626835077939556 -0.061547485861623806 -0.001136021932331774 -0.030544717133721894 0.0 0.0
0.0 0.08540130923238756 0.07200361545989784 -0.07081344963425094 -0.0011901658256468993 -0.030712494882179055 0.0 0.0
0.0 0.09554002054192776 0.08119943099971441 -0.07994147506979973 -0.001257955929914655 -0.027468478046129865 0.0 0.0
0.0 0.10402317571398187 0.08927440416916699 -0.0879375433278167 -0.0013368608413502812 -0.01819451266020995 0.0 0.0
0.0 0.10402317571397665 0.08927440416915972 -0.08793754332780992 -0.0013368608413497523 0.01819451266026348 0.0 0.0
0.0 0.09554002054191053 0.08119943099969326 -0.07994147506977901 -0.0012579559299143433 0.02746847804620165 0.0 0.0
0.0 0.08540130923235696 0.07200361545986553 -0.07081344963421862 -0.0011901658256468668 0.030712494882232134 0.0 0.0
0.0 0.07485315361480535 0.06268350779391973 -0.06154748586158821 -0.0011360219323315404 0.030544717133744598 0.0 0.0
0.0 0.06445544790068672 0.0536386637665419 -0.05255606809105165 -0.001082595675490231 0.02880493034994108 0.0 0.0
0.0 0.05437305369557236 0.04503129822520381 -0.044007437904517985 -0.0010238603206858194 0.026205894493094174 0.0 0.0
0.0 0.0448888244097552 0.037020159276151404 -0.036054620274310105 -0.0009655390018413013 0.02313020574730617 0.0 0.0
0.0 0.03618221999006092 0.02968702362095287 -0.028780695008606173 -0.0009063286123466804 0.019892780907201642 0.0 0.0
0.0 0.028192014142071162 0.023025171549408873 -0.022181170186477243 -0.0008440013629316388 0.016633400276147348 0.0 0.0
0.0 0.020950512456933336 0.01699634952699053 -0.01622066248036035 -0.000775687046630165 0.013322033722668426 0.0 0.0
0.0 0.014465559744274561 0.011614040068706701 -0.010917080468263864 -0.0006969596004428307 0.00991093311524444 0.0 0.0
0.0 0.008899495174345799 0.007009468225062225 -0.006423600018180931 -0.0005858682068812936 0.006601646585390963 0.0 0.0
0.0 0.004525005984637649 0.003460931653712672 -0.003047239541570558 -0.00041369211214211255 0.0037667186645328064 0.0 0.0
0.0 0.0016793028490202202 0.0012086151214889562 -0.0010139430910470037 -0.00019467203044195178 0.0016577674191967503 0.0 0.0
0.0 0.00036802187639648355 0.00021812627180364938 -0.00017676327397609976 -4.1362997827549484e-05 0.0004116363262706066 0.0 0.0
0.0 3.465690934924565e-05 1.6375031312862552e-05 -1.2987356867067584e-05 -3.387674445794984e-06 4.230069598761907e-05 0.0 0.0
0.0 1.343535810551308e-06 -6.74545061154224e-08 5.1836617684484416e-08 1.561788843093987e-08 -2.5068220678900275e-07 0.0 0.0
0.0 0.0 0.0 0.0 0.0 0.0 0.0 0.0
0.0 5.610935225658215e-07 -8.037160116491167e-09 8.3389783100577e-09 -3.018181935663175e-10 -1.1164998685127716e-07 0.0 0.0
0.0 0.001951092592131672 0.0011520228241636919 -0.001411507989974488 0.000259485165810795 0.001734709481504336 0.0 0.0
0.0 0.001128330777615107 0.0006236079297423661 -0.0007885880468761538 0.0001649801171337875 -0.0010024828133821078 0.0 0.0
0.0 1.2401430734731237e-06 2.8712390453638588e-08 -2.679073022904939e-08 -1.921660224590543e-09 -7.091536237094084e-07 0.0 0.0
0.0 6.305102464673167e-07 -7.0898921551877894e-09 5.074535917472657e-09 2.0153562377156586e-09 1.2874703632778445e-07 0.0 0.0
0.0 1.269702412603967e-06 6.292637614490407e-08 -5.216044903733843e-08 -1.0765927107563478e-08 -4.986046826226214e-07 0.0 0.0
0.0 2.8123582913926196e-05 9.497629633686018e-06 -7.502037388736032e-06 -1.995592244950001e-06 -3.848419264896012e-05 0.0 0.0
0.0 0.0001968889842494339 8.539608832747628e-05 -6.87239839772118e-05 -1.667210435026448e-05 -0.00026013796234549774 0.0 0.0
0.0 0.000906276794602895 0.0005275244537723224 -0.000433462453043748 -9.406200072857407e-05 -0.001139832001811861 0.0 0.0
0.0 0.002720171204273535 0.0018512141711603755 -0.0015805050099597566 -0.00027070916120061845 -0.002931854410534362 0.0 0.0
0.0 0.005836524529061315 0.004232602636862324 -0.0037720891016501308 -0.0004605135352121906 -0.005402821158464241 0.0 0.0
0.0 0.009838097243675549 0.007483538524309868 -0.006887265323305821 -0.0005962732010040453 -0.008312648330959205 0.0 0.0
0.0 0.014682226534113527 0.011322728423204899 -0.010639063564848582 -0.0006836648583563194 -0.011384764154910486 0.0 0.0
0.0 0.0199224802494633 0.015613751604073332 -0.014864396881055588 -0.0007493547230177336 -0.014412568532430349 0.0 0.0
0.0 0.02569210555178802 0.020339553008967524 -0.019534866233493677 -0.0008046867754738515 -0.017391807129441352 0.0 0.0
0.0 0.03204655257600753 0.02555860259385882 -0.02470486919966422 -0.0008537333941945934 -0.020336412567295275 0.0 0.0
0.0 0.039061209605893786 0.031335747359715956 -0.030435326731999918 -0.0009004206277160189 -0.023173364571160197 0.0 0.0
0.0 0.04657329653198624 0.037676935220678574 -0.03672852130459928 -0.0009484139160792858 -0.025619794781816047 0.0 0.0
0.0 0.05457054844927597 0.04451908164442346 -0.0435259810249185 -0.000993100619504956 -0.02728168367121863 0.0 0.0
0.0 0.06291008099709998 0.05192212268938617 -0.05089817207231088 -0.0010239506170752674 -0.027892054194090795 0.0 0.0
0.0 0.07170080414108661 0.06003367283199058 -0.05896570265828121 -0.0010679701737093396 -0.026120103363800082 0.0 0.0
0.0 0.08024557585199169 0.06832152712408675 -0.06716809613432681 -0.0011534309897599869 -0.01874362955993604 0.0 0.0
0.0 0.08024557585198967 0.06832152712408207 -0.06716809613432169 -0.0011534309897604203 0.018743629559982933 0.0 0.0
0.0 0.07170080414107827 0.06003367283197649 -0.05896570265826734 -0.001067970173709147 0.026120103363866123 0.0 0.0
0.0 0.06291008099707877 0.05192212268936155 -0.05089817207228636 -0.001023950617075176 0.027892054194137282 0.0 0.0
0.0 0.05457054844925302 0.04451908164440016 -0.043525981024896465 -0.0009931006195037055 0.027281683671235783 0.0 0.0
0.0 0.04657329653195288 0.037676935220650375 -0.0367285213045722 -0.0009484139160781584 0.025619794781803804 0.0 0.0
0.0 0.03906120960585689 0.031335747359685445 -0.03043532673196984 -0.0009004206277156246 0.023173364571143967 0.0 0.0
0.0 0.03204655257597775 0.0255586025938339 -0.024704869199639545 -0.0008537333941943654 0.020336412567284776 0.0 0.0
0.0 0.02569210555176034 0.020339553008943707 -0.019534866233470248 -0.00080468677547346 0.017391807129433542 0.0 0.0
0.0 0.01992248024943387 0.015613751604049517 -0.014864396881032391 -0.0007493547230171252 0.014412568532413298 0.0 0.0
0.0 0.014682226534085822 0.011322728423183347 -0.010639063564827581 -0.0006836648583557538 0.011384764154890224 0.0 0.0
0.0 0.009838097243652765 0.007483538524293414 -0.006887265323290085 -0.0005962732010033251 0.008312648330938333 0.0 0.0
0.0 0.005836524529044043 0.004232602636849384 -0.0037720891016380254 -0.0004605135352113585 0.0054028211584506896 0.0 0.0
0.0 0.0027201712042609497 0.0018512141711513113 -0.001580505009951608 -0.00027070916119970257 0.0029318544105229067 0.0 0.0
0.0 0.0009062767945961273 0.0005275244537684202 -0.00043346245304042594 -9.406200072799412e-05 0.001139832001804712 0.0 0.0
0.0 0.0001968889842472 8.539608832688924e-05 -6.872398397672345e-05 -1.6672104350165792e-05 0.00026013796234361774 0.0 0.0
0.0 2.8123582913180556e-05 9.497629633700774e-06 -7.50203738874456e-06 -1.9955922449562026e-06 3.8484192649034454e-05 0.0 0.0
0.0 1.2697024123095003e-06 6.292637621539871e-08 -5.2160449092464564e-08 -1.0765927122937097e-08 4.986046831263358e-07 0.0 0.0
0.0 6.305102458760242e-07 -7.089892147158693e-09 5.074535912009278e-09 2.015356235150372e-09 -1.2874703620679312e-07 0.0 0.0
0.0 1.2401430729430276e-06 2.8712390494861253e-08 -2.6790730277133895e-08 -1.921660217727396e-09 7.091536247178673e-07 0.0 0.0
0.0 0.0011283307776085649 0.0006236079297390738 -0.0007885880468722241 0.00016498011713315052 0.0010024828133768555 0.0 0.0
0.0 0.0005016492456534276 0.00027268233238452827 -0.00035914345709941705 8.646112471488894e-05 -0.0004729981331934341 0.0 0.0
0.0 2.532992700207492e-06 4.460548867440273e-09 -5.307506261663706e-09 8.469573942236494e-10 -3.613868959512381e-07 0.0 0.0
0.0 1.1002187946706433e-06 1.3663648665025108e-09 -7.849585385337476e-10 -5.814063279691109e-10 -3.3072171290193074e-07 0.0 0.0
0.0 3.1256455206515125e-06 1.8846868516145696e-07 -1.3260679839098358e-07 -5.5861886770470166e-08 -2.686772926469334e-06 0.0 0.0
0.0 2.9843992310600164e-05 5.810565092873943e-06 -4.517435507203406e-06 -1.2931295856705414e-06 -4.444342691179568e-05 0.0 0.0
0.0 0.0001457054604490157 3.701195933553637e-05 -2.9732158768107327e-05 -7.27980056742905e-06 -0.0002076111747702047 0.0 0.0
0.0 0.0004727874357330913 0.00016910198262288164 -0.00013699497920787536 -3.210700341500617e-05 -0.0006953564477005459 0.0 0.0
0.0 0.0013276483369813687 0.0006595194952385098 -0.0005441931660324511 -0.00011532632920605859 -0.0018746181923053576 0.0 0.0
0.0 0.003080244828476212 0.0018304085765720552 -0.0015623137820962214 -0.0002680947944758339 -0.003743997806980246 0.0 0.0
0.0 0.0055634106930845095 0.003656812112139668 -0.0032356262301466154 -0.00042118588199305143 -0.0060022047725926 0.0 0.0
0.0 0.008535297845319945 0.005917325860209768 -0.00538391886896095 -0.0005334069912488177 -0.008449356300598065 0.0 0.0
0.0 0.011921367658299629 0.008451553618931866 -0.007842972350951091 -0.0006085812679807719 -0.010942912068273752 0.0 0.0
0.0 0.01558066635807365 0.01124764117824829 -0.010582543070837967 -0.0006650981074103226 -0.01346278798344211 0.0 0.0
0.0 0.01961388305213369 0.014360208553460404 -0.013651489048767451 -0.0007087195046929394 -0.015958537546500798 0.0 0.0
0.0 0.024094334879240478 0.017882626343510215 -0.017137807336264726 -0.0007448190072454829 -0.018395227231655008 0.0 0.0
0.0 0.029075718591834217 0.021918997724492538 -0.021139122027473412 -0.0007798756970191376 -0.020612811023413814 0.0 0.0
0.0 0.034574128456670926 0.026530751302172043 -0.025711465956924043 -0.0008192853452480178 -0.022200917537509576 0.0 0.0
0.0 0.04066273666701373 0.031849112277827926 -0.031003921611466957 -0.0008451906663609678 -0.022907318528219544 0.0 0.0
0.0 0.047948458764392146 0.038421493307581565 -0.03757863903373631 -0.000842854273845258 -0.022623509940874205 0.0 0.0
0.0 0.05641760428503856 0.046708745839331114 -0.0457850839647432 -0.0009236618745879244 -0.01855260604611088 0.0 0.0
0.0 0.056417604285040425 0.04670874583932916 -0.045785083964740896 -0.0009236618745882811 0.0185526060461513 0.0 0.0
0.0 0.047948458764390994 0.03842149330757338 -0.037578639033727886 -0.0008428542738454755 0.022623509940932485 0.0 0.0
0.0 0.04066273666700202 0.03184911227781137 -0.03100392161145037 -0.0008451906663610009 0.022907318528260022 0.0 0.0
0.0 0.03457412845665021 0.026530751302152253 -0.025711465956903996 -0.0008192853452482526 0.02220091753751844 0.0 0.0
0.0 0.029075718591809106 0.021918997724473942 -0.02113912202745419 -0.0007798756970197448 0.0206128110233978 0.0 0.0
0.0 0.02409433487921397 0.017882626343490138 -0.017137807336244613 -0.0007448190072455205 0.01839522723163863 0.0 0.0
0.0 0.01961388305211429 0.014360208553444886 -0.013651489048752068 -0.0007087195046928149 0.015958537546492377 0.0 0.0
0.0 0.015580666358057934 0.011247641178235478 -0.010582543070825293 -0.0006650981074101845 0.013462787983435818 0.0 0.0
0.0 0.011921367658284162 0.008451553618920941 -0.007842972350940612 -0.0006085812679803254 0.01094291206826096 0.0 0.0
0.0 0.008535297845301468 0.005917325860197277 -0.005383918868948851 -0.0005334069912484265 0.008449356300580649 0.0 0.0
0.0 0.005563410693066351 0.003656812112128301 -0.0032356262301358437 -0.000421185881992456 0.0060022047725731605 0.0 0.0
0.0 0.0030802448284661553 0.0018304085765655422 -0.0015623137820903043 -0.000268094794475238 0.0037439978069696246 0.0 0.0
0.0 0.0013276483369757818 0.0006595194952353962 -0.0005441931660298415 -0.00011532632920555469 0.0018746181922989825 0.0 0.0
0.0 0.0004727874357301403 0.0001691019826219176 -0.00013699497920709004 -3.2107003414827506e-05 0.0006953564476971334 0.0 0.0
0.0 0.00014570546044759681 3.701195933553762e-05 -2.9732158768102133e-05 -7.279800567435466e-06 0.000207611174769779 0.0 0.0
0.0 2.9843992310145964e-05 5.8105650929033995e-06 -4.5174355072259675e-06 -1.2931295856774333e-06 4.444342691200773e-05 0.0 0.0
0.0 3.1256455205460603e-06 1.8846868521250975e-07 -1.3260679842645425e-07 -5.586188678605288e-08 2.686772927238443e-06 0.0 0.0
0.0 1.1002187945940389e-06 1.3663648751008758e-09 -7.849585410620822e-10 -5.814063340383271e-10 3.3072171363957145e-07 0.0 0.0
0.0 2.5329926996705e-06 4.460548873268434e-09 -5.307506274952763e-09 8.469574016840013e-10 3.61386896389936e-07 0.0 0.0
0.0 0.0005016492456496538 0.00027268233238296176 -0.000359143457097468 8.646112471450596e-05 0.000472998133190745 0.0 0.0
0.0 0.00014892553558708082 7.69822623830901e-05 -0.00010637172739577945 2.9389465012689365e-05 -0.00014196317004516883 0.0 0.0
0.0 3.22452606451433e-06 -1.5310753778561982e-09 -3.2303837501392092e-09 4.7614591279966544e-09 -1.0427329820870381e-06 0.0 0.0
0.0 4.158882864973723e-06 -1.4091848885328992e-07 1.339215473096175e-07 6.996941543673021e-09 -4.030765366403351e-06 0.0 0.0
0.0 6.891886463129207e-06 -1.1133051734719685e-07 1.5299836018116797e-07 -4.166784283397044e-08 -9.924671032132961e-06 0.0 0.0
0.0 3.535494810972024e-05 1.3492377064052076e-06 -9.157011778346098e-07 -4.335365285706048e-07 -5.045847630423165e-05 0.0 0.0
0.0 0.00013826582699911393 1.1102890331368467e-05 -8.791987814070507e-06 -2.3109025172979446e-06 -0.00021176793968290467 0.0 0.0
0.0 0.0003386492986226046 3.969042171195093e-05 -3.2072675753749914e-05 -7.61774595820102e-06 -0.0005479485123050156 0.0 0.0
0.0 0.0007022311363234925 0.00010822257828511324 -8.793073408704165e-05 -2.0291844198071446e-05 -0.0011017477490209255 0.0 0.0
0.0 0.0012788601851626787 0.0002824402651710551 -0.0002300540735647393 -5.2386191606315574e-05 -0.002064156011071803 0.0 0.0
0.0 0.0022636919565718143 0.0006485227487342398 -0.0005285742373557433 -0.00011994851137849635 -0.0034503119111984172 0.0 0.0
0.0 0.0034551941689711864 0.0012150230357888237 -0.0010013108605066289 -0.00021371217528219432 -0.005178569979342671 0.0 0.0
0.0 0.004997567864924717 0.0019393421317499902 -0.0016391681243949322 -0.00030017400735505754 -0.007105897716250282 0.0 0.0
0.0 0.00675571792694945 0.0027932887171069906 -0.0024220615617750363 -0.00037122715533195245 -0.009177707841840466 0.0 0.0
0.0 0.008759897183077067 0.00379249562078157 -0.0033667821321321095 -0.0004257134886494614 -0.011375041418280928 0.0 0.0
0.0 0.011022131435179607 0.005033963787942786 -0.004567677609957825 -0.0004662861779849592 -0.01367287739014527 0.0 0.0
0.0 0.013674617882825132 0.0066987730714373785 -0.006200094321443582 -0.0004986787499937939 -0.015919857515614016 0.0 0.0
0.0 0.016749543723976714 0.009037689481105591 -0.008504047947893561 -0.0005336415332120256 -0.017699367868990058 0.0 0.0
0.0 0.02032360505450995 0.012263928464731202 -0.011683509063596453 -0.0005804194011347439 -0.018378629219516492 0.0 0.0
0.0 0.025179866948154876 0.016815832665867232 -0.016236977491554803 -0.0005788551743124233 -0.018237406042737915 0.0 0.0
0.0 0.032737113015045664 0.024207331102398845 -0.02364546044739325 -0.0005618706550055901 -0.017545448242380874 0.0 0.0
0.0 0.03273711301504976 0.02420733110239913 -0.023645460447393435 -0.000561870655005693 0.01754544824241079 0.0 0.0
0.0 0.025179866948159525 0.016815832665864255 -0.016236977491552017 -0.0005788551743122478 0.018237406042782893 0.0 0.0
0.0 0.020323605054506234 0.012263928464723692 -0.011683509063589 -0.0005804194011346903 0.018378629219541434 0.0 0.0
0.0 0.01674954372396794 0.009037689481099129 -0.008504047947887432 -0.0005336415332116917 0.017699367868990172 0.0 0.0
0.0 0.013674617882813564 0.0066987730714324015 -0.006200094321439185 -0.0004986787499932162 0.015919857515600343 0.0 0.0
0.0 0.01102213143516898 0.005033963787938555 -0.004567677609953755 -0.0004662861779847992 0.013672877390131621 0.0 0.0
0.0 0.008759897183068967 0.0037924956207782655 -0.0033667821321288504 -0.00042571348864941583 0.011375041418272391 0.0 0.0
0.0 0.00675571792694175 0.002793288717104491 -0.0024220615617727504 -0.00037122715533174005 0.00917770784183105 0.0 0.0
0.0 0.004997567864916045 0.001939342131747763 -0.0016391681243929875 -0.00030017400735477516 0.007105897716237835 0.0 0.0
0.0 0.0034551941689636443 0.0012150230357871525 -0.0010013108605052374 -0.00021371217528191468 0.005178569979330919 0.0 0.0
0.0 0.0022636919565649444 0.00064852274873278 -0.0005285742373546262 -0.00011994851137815405 0.003450311911188613 0.0 0.0
0.0 0.0012788601851592822 0.00028244026517008713 -0.0002300540735639931 -5.2386191606093875e-05 0.0020641560110663554 0.0 0.0
0.0 0.0007022311363207865 0.0001082225782846222 -8.793073408662846e-05 -2.0291844197993604e-05 0.0011017477490164423 0.0 0.0
0.0 0.00033864929862070586 3.969042171184361e-05 -3.2072675753651495e-05 -7.617745958192094e-06 0.0005479485123033676 0.0 0.0
0.0 0.0001382658269974039 1.110289033134003e-05 -8.79198781403908e-06 -2.3109025173009503e-06 0.0002117679396817389 0.0 0.0
0.0 3.5354948108955536e-05 1.34923770639836e-06 -9.157011778313224e-07 -4.33536528567041e-07 5.045847630388523e-05 0.0 0.0
0.0 6.891886462847379e-06 -1.1133051735722602e-07 1.52998360192506e-07 -4.166784283528005e-08 9.924671032652731e-06 0.0 0.0
0.0 4.158882864334225e-06 -1.409184888870222e-07 1.3392154733972472e-07 6.996941547296789e-09 4.0307653672407325e-06 0.0 0.0
0.0 3.2245260641998107e-06 -1.5310753815603074e-09 -3.230383760284075e-09 4.761459141846916e-09 1.042732982854565e-06 0.0 0.0
0.0 0.0001489255355852067 7.698226238252222e-05 -0.00010637172739500124 2.9389465012478945e-05 0.00014196317004432004 0.0 0.0
0.0 1.733247003263719e-05 7.71884826642623e-06 -1.113975588597051e-05 3.4209076195442703e-06 -1.5657917220859637e-05 0.0 0.0
0.0 2.898561127658492e-06 -5.404452185822438e-08 2.770281290988143e-08 2.6341708948347814e-08 -1.315959015996767e-06 0.0 0.0
0.0 6.411269278007611e-06 -6.37963934547242e-07 5.43713190688284e-07 9.425074385895866e-08 -7.77296556374645e-06 0.0 0.0
0.0 1.2110087598150787e-05 -1.4199051623737574e-06 1.2513495384331607e-06 1.6855562394059793e-07 -1.7193975355811856e-05 0.0 0.0
0.0 4.359568772910794e-05 -4.206792722590748e-06 3.629685528717983e-06 5.771071938727706e-07 -6.0533780150160807e-05 0.0 0.0
0.0 0.00014700692712446133 -1.4490941632481771e-05 1.1945749105697071e-05 2.5451925267846884e-06 -0.0002179983763679434 0.0 0.0
0.0 0.0003438970380831739 -4.231544588420186e-05 3.436697640111852e-05 7.948469483083309e-06 -0.0005567267104598852 0.0 0.0
0.0 0.0007051029060899297 -0.0001093572776844447 8.885719681585991e-05 2.0500080868584748e-05 -0.0011075177917498993 0.0 0.0
0.0 0.0012784341626941493 -0.00028248443202351695 0.00023009811804895416 5.238631397456275e-05 -0.00206576203597733 0.0 0.0
0.0 0.002262631734138813 -0.0006479870244465287 0.0005281525885838303 0.00011983443586269848 -0.0034496638706490385 0.0 0.0
0.0 0.0034700846027337965 -0.0012197784171875431 0.0010068704360704887 0.00021290798111705395 -0.005182644126166529 0.0 0.0
0.0 0.0050264997327037755 -0.0019735698028977068 0.0016732887642679783 0.00030028103862972757 -0.007122647085549437 0.0 0.0
0.0 0.0068157336901620924 -0.002867698003698237 0.0024936750425860583 0.0003740229611121758 -0.00919438923380575 0.0 0.0
0.0 0.008793330613858934 -0.0038447399439296183 0.00340849669614719 0.00043624324778242555 -0.011371814666944105 0.0 0.0
0.0 0.010797736816716638 -0.004774022602922571 0.004283901210259041 0.0004901213926635312 -0.013646387195486083 0.0 0.0
0.0 0.012672404769818062 -0.005398797627944628 0.004861599484284548 0.0005371981436600748 -0.01597312745124815 0.0 0.0
0.0 0.01407859830562181 -0.005344117981203459 0.004766801060200185 0.000577316921003273 -0.018337026318020883 0.0 0.0
0.0 0.014895969938177595 -0.004335670162381217 0.0037349773505217826 0.0006006928118594307 -0.02082033519515131 0.0 0.0
0.0 0.015123566937564168 -0.0023933000483551876 0.0018198045437977696 0.0005734955045574163 -0.023046618675779396 0.0 0.0
0.0 0.014971651921376238 0.003405929048552514 -0.003463831524925971 5.790247637345488e-05 -0.022127286273945727 0.0 0.0
0.0 0.01497165192138089 0.003405929048552039 -0.003463831524925867 5.790247637383174e-05 0.02212728627396031 0.0 0.0
0.0 0.01512356693756729 -0.002393300048355757 0.0018198045437980185 0.000573495504557735 0.023046618675792593 0.0 0.0
0.0 0.014895969938168076 -0.0043356701623761245 0.003734977350516023 0.0006006928118600979 0.02082033519515258 0.0 0.0
0.0 0.014078598305609431 -0.005344117981197981 0.004766801060194926 0.0005773169210030543 0.018337026318007994 0.0 0.0
0.0 0.012672404769803629 -0.005398797627936422 0.004861599484276738 0.0005371981436596805 0.015973127451232708 0.0 0.0
0.0 0.010797736816702555 -0.004774022602914925 0.00428390121025178 0.0004901213926631415 0.0136463871954722 0.0 0.0
0.0 0.008793330613844616 -0.0038447399439206823 0.0034084966961386294 0.00043624324778205145 0.011371814666932916 0.0 0.0
0.0 0.006815733690148644 -0.0028676980036898537 0.0024936750425780603 0.00037402296111179205 0.00919438923379455 0.0 0.0
0.0 0.005026499732687569 -0.001973569802889079 0.0016732887642598743 0.0003002810386292046 0.007122647085533074 0.0 0.0
0.0 0.00347008460272192 -0.0012197784171821052 0.001006870436065727 0.0002129079811163781 0.00518264412615187 0.0 0.0
0.0 0.002262631734128347 -0.0006479870244428075 0.0005281525885807113 0.00011983443586209561 0.0034496638706371843 0.0 0.0
0.0 0.0012784341626896774 -0.00028248443202162925 0.00023009811804742658 5.2386313974202644e-05 0.0020657620359713176 0.0 0.0
0.0 0.0007051029060869056 -0.00010935727768374136 8.88571968152507e-05 2.0500080868490724e-05 0.0011075177917454669 0.0 0.0
0.0 0.0003438970380813456 -4.231544588408239e-05 3.436697640106476e-05 7.94846948301763e-06 0.0005567267104581897 0.0 0.0
0.0 0.00014700692712307686 -1.449094163247718e-05 1.1945749105699438e-05 2.54519252677776e-06 0.00021799837636748328 0.0 0.0
0.0 4.359568772795144e-05 -4.206792722611041e-06 3.629685528736196e-06 5.77107193874838e-07 6.0533780150490946e-05 0.0 0.0
0.0 1.211008759789544e-05 -1.4199051624284835e-06 1.2513495384805975e-06 1.6855562394788543e-07 1.7193975356434934e-05 0.0 0.0
0.0 6.411269277588959e-06 -6.379639346382655e-07 5.437131907649254e-07 9.425074387334078e-08 7.772965564783625e-06 0.0 0.0
0.0 2.898561127234775e-06 -5.4044521879964716e-08 2.7702812912246417e-08 2.63417089677232e-08 1.315959016788576e-06 0.0 0.0
0.0 1.7332470032132854e-05 7.7188482666275e-06 -1.1139755886240938e-05 3.420907619613437e-06 1.5657917221455095e-05 0.0 0.0
0.0 1.2794705618513804e-06 -7.325646252627723e-08 1.1123042410747284e-07 -3.797396158117645e-08 1.788907911065407e-07 0.0 0.0
0.0 1.9889358542453155e-06 -1.0059980228515292e-07 5.605118056270465e-08 4.454862172244674e-08 -1.9147622857676873e-06 0.0 0.0
0.0 7.6291166134290175e-06 -1.177300676831876e-06 9.774920180612947e-07 1.9980865877057736e-07 -9.25185531613831e-06 0.0 0.0
0.0 1.683800095487321e-05 -2.8370852853607994e-06 2.416322675481048e-06 4.207626098797636e-07 -1.892196522364001e-05 0.0 0.0
0.0 5.085435100229178e-05 -1.1961579010400538e-05 9.9587665497856e-06 2.0028124606149366e-06 -7.19289129363525e-05 0.0 0.0
0.0 0.00016359969665026485 -4.501400533924667e-05 3.657975305775874e-05 8.434252281487914e-06 -0.00023578429946028985 0.0 0.0
0.0 0.0004930986519189518 -0.0001768529103390857 0.0001435312217079923 3.332168863109342e-05 -0.0007163946240258442 0.0 0.0
0.0 0.0013372307181870706 -0.0006642309652116126 0.0005482262814612283 0.00011600468375038407 -0.0018869161686680784 0.0 0.0
0.0 0.0030791349444561056 -0.0018298672184754862 0.001561905754648553 0.00026796146382693345 -0.0037459545438067116 0.0 0.0
0.0 0.00556297817349613 -0.0036569140750004206 0.0032361352918397106 0.00042077878316070845 -0.0060026860630447995 0.0 0.0
0.0 0.008547350956500208 -0.005928595806142764 0.005396159977571458 0.0005324358285713048 -0.00845334514889455 0.0 0.0
0.0 0.01195860861692401 -0.008491479449626752 0.007884098418188441 0.000607381031438308 -0.01093928020545783 0.0 0.0
0.0 0.015643648566148912 -0.011323492214690523 0.010657255265245595 0.0006662369494449243 -0.013425621047012356 0.0 0.0
0.0 0.01962876712233898 -0.014396068692897909 0.013677605001917593 0.0007184636909803184 -0.015891782906900735 0.0 0.0
0.0 0.023778232712749637 -0.01756706433896302 0.016797357882163955 0.0007697064567990526 -0.018408055751600746 0.0 0.0
0.0 0.027767980145406497 -0.020519945462588576 0.01970068580209528 0.0008192596604932979 -0.02104254717237826 0.0 0.0
0.0 0.031166886665670315 -0.022780951197346362 0.02192074977954407 0.0008602014178022931 -0.02387900683896375 0.0 0.0
0.0 0.0333377005370392 -0.023796083140861724 0.022909522003449066 0.0008865611374126729 -0.026822214570629672 0.0 0.0
0.0 0.032597434742601725 -0.022455298211206183 0.02147493357614087 0.000980364635065294 -0.02810505564762311 0.0 0.0
0.0 0.02616516797672687 -0.015721814123313735 0.014630557071998427 0.0010912570513152901 -0.025700599314144375 0.0 0.0
0.0 0.026165167976736004 -0.01572181412331368 0.014630557071997848 0.001091257051315829 0.025700599314178483 0.0 0.0
0.0 0.032597434742609115 -0.022455298211203293 0.02147493357613753 0.0009803646350657503 0.028105055647667923 0.0 0.0
0.0 0.03333770053703426 -0.023796083140851142 0.02290952200343849 0.0008865611374126359 0.02682221457065813 0.0 0.0
0.0 0.031166886665649183 -0.022780951197327405 0.021920749779525562 0.0008602014178018456 0.023879006838963036 0.0 0.0
0.0 0.027767980145378932 -0.020519945462566733 0.019700685802073625 0.0008192596604931135 0.021042547172361706 0.0 0.0
0.0 0.02377823271272432 -0.01756706433894356 0.016797357882144783 0.00076970645679878 0.0184080557515838 0.0 0.0
0.0 0.019628767122314743 -0.01439606869287908 0.01367760500189899 0.0007184636909800895 0.015891782906885914 0.0 0.0
0.0 0.015643648566123457 -0.011323492214669394 0.0106572552652249 0.0006662369494444863 0.013425621047000267 0.0 0.0
0.0 0.011958608616896033 -0.008491479449605576 0.007884098418167871 0.0006073810314377009 0.010939280205437843 0.0 0.0
0.0 0.008547350956473751 -0.005928595806123808 0.005396159977553251 0.0005324358285705556 0.008453345148872263 0.0 0.0
0.0 0.005562978173472961 -0.0036569140749846867 0.0032361352918249273 0.00042077878315976 0.006002686063022305 0.0 0.0
0.0 0.0030791349444433975 -0.0018298672184663177 0.0015619057546404462 0.0002679614638258726 0.003745954543794916 0.0 0.0
0.0 0.0013372307181808442 -0.0006642309652077797 0.0005482262814580709 0.00011600468374970893 0.0018869161686610062 0.0 0.0
0.0 0.0004930986519162867 -0.00017685291033833663 0.00014353122170742165 3.3321688630915e-05 0.0007163946240232328 0.0 0.0
0.0 0.0001635996966486274 -4.5014005339141374e-05 3.657975305767185e-05 8.434252281469533e-06 0.0002357842994595953 0.0 0.0
0.0 5.085435100116323e-05 -1.1961579010360057e-05 9.958766549753347e-06 2.0028124606066975e-06 7.192891293611748e-05 0.0 0.0
0.0 1.683800095404336e-05 -2.8370852853942436e-06 2.4163226755098057e-06 4.2076260988443957e-07 1.8921965223851526e-05 0.0 0.0
0.0 7.629116612765635e-06 -1.1773006769200646e-06 9.774920181332254e-07 1.998086587868388e-07 9.251855316809872e-06 0.0 0.0
0.0 1.9889358539869637e-06 -1.0059980232002584e-07 5.605118056760027e-08 4.4548621752425904e-08 1.914762286578077e-06 0.0 0.0
0.0 1.2794705614589102e-06 -7.325646250320453e-08 1.1123042407310628e-07 -3.797396156990146e-08 -1.7889079104850708e-07 0.0 0.0
0.0 0.0 0.0 0.0 0.0 0.0 0.0 0.0
0.0 1.546319917433396e-06 2.096489414379388e-08 -7.102539574969584e-09 -1.3862354568826943e-08 3.138160816275471e-07 0.0 0.0
0.0 6.870715916011292e-06 -9.662178127568027e-07 7.938407095002106e-07 1.723771032565879e-07 -5.548213513068715e-06 0.0 0.0
0.0 1.949809649443403e-05 -4.147745903328487e-06 3.438024782871307e-06 7.097211204571888e-07 -1.8125914586090543e-05 0.0 0.0
0.0 6.033594083741153e-05 -2.11231337787887e-05 1.730594779352716e-05 3.8171859852615595e-06 -7.741346545454128e-05 0.0 0.0
0.0 0.0002383657077775309 -0.00010670490668216605 8.656224212668887e-05 2.0142664555477093e-05 -0.0003137431558621717 0.0 0.0
0.0 0.0009376941004942878 -0.0005430656590986034 0.00044701946376698087 9.60461953316226e-05 -0.0011713675000958085 0.0 0.0
0.0 0.0027255489520419188 -0.00185268987211768 0.0015821229670066048 0.00027056690511107504 -0.00294129422976718 0.0 0.0
0.0 0.0058320870674708186 -0.004230022894521755 0.0037697587603430956 0.0004602641341786587 -0.005400877799082101 0.0 0.0
0.0 0.009839836521989989 -0.007485712555052215 0.006889758866673966 0.000595953688378247 -0.008313337632818094 0.0 0.0
0.0 0.014694896397231982 -0.011335097617069544 0.010652294954778405 0.0006828026622911471 -0.011384312323356335 0.0 0.0
0.0 0.019945797234548736 -0.0156442990679856 0.014896235500344532 0.0007480635676410703 -0.01437751985556806 0.0 0.0
0.0 0.025713043864355075 -0.020389594726709474 0.019584422579926625 0.0008051721467828488 -0.01726456308067372 0.0 0.0
0.0 0.03200107467423131 -0.025562487315718137 0.024700897037418408 0.0008615902782997134 -0.020132528587018368 0.0 0.0
0.0 0.03873166381243071 -0.031026339294596948 0.030104708216820677 0.000921631077776245 -0.023192726303479877 0.0 0.0
0.0 0.04545626222074745 -0.036421034043787055 0.035438058593385974 0.0009829754504010505 -0.026731188925266006 0.0 0.0
0.0 0.05164239419824947 -0.04114341198681559 0.040102581821244765 0.001040830165570815 -0.03090862510480568 0.0 0.0
0.0 0.055812005293356864 -0.04421145067104286 0.04309749478447948 0.0011139558865633553 -0.03496152298807073 0.0 0.0
0.0 0.055943924290735636 -0.043759280703507666 0.04255115614403047 0.0012081245594771869 -0.03694887535935314 0.0 0.0
0.0 0.04676857733753752 -0.03590446645363302 0.0344622182323093 0.0014422482213237158 -0.03293197258099984 0.0 0.0
0.0 0.046768577337547565 -0.03590446645363274 0.03446221823230902 0.00144224822132371 0.032931972581045986 0.0 0.0
0.0 0.05594392429074241 -0.04375928070350239 0.042551156144026145 0.0012081245594762462 0.03694887535941245 0.0 0.0
0.0 0.05581200529334475 -0.04421145067102418 0.043097494784461884 0.0011139558865622579 0.03496152298811096 0.0 0.0
0.0 0.05164239419821849 -0.041143411986786546 0.04010258182121661 0.0010408301655699759 0.0309086251048103 0.0 0.0
0.0 0.045456262220709316 -0.03642103404375483 0.035438058593354506 0.000982975450400333 0.026731188925250872 0.0 0.0
0.0 0.03873166381239077 -0.03102633929456389 0.03010470821678781 0.0009216310777760776 0.023192726303461864 0.0 0.0
0.0 0.03200107467419308 -0.025562487315686593 0.024700897037387426 0.0008615902782991622 0.020132528586999782 0.0 0.0
0.0 0.025713043864318105 -0.020389594726677843 0.01958442257989585 0.0008051721467819818 0.017264563080659837 0.0 0.0
0.0 0.019945797234508865 -0.015644299067953116 0.014896235500312573 0.0007480635676405422 0.0143775198555458 0.0 0.0
0.0 0.01469489639719404 -0.01133509761703999 0.0106522949547492 0.0006828026622907903 0.01138431232332907 0.0 0.0
0.0 0.00983983652195659 -0.007485712555027024 0.006889758866649088 0.0005959536883779389 0.008313337632792135 0.0 0.0
0.0 0.005832087067447658 -0.004230022894503984 0.0037697587603259812 0.0004602641341780009 0.005400877799064537 0.0 0.0
0.0 0.002725548952029158 -0.0018526898721084118 0.001582122966998317 0.000270566905110095 0.0029412942297561617 0.0 0.0
0.0 0.0009376941004866468 -0.0005430656590941777 0.00044701946376336115 9.604619533081634e-05 0.001171367500088192 0.0 0.0
0.0 0.00023836570777436276 -0.00010670490668117467 8.656224212588877e-05 2.014266455528584e-05 0.00031374315585936297 0.0 0.0
0.0 6.033594083622998e-05 -2.112313377879601e-05 1.7305947793529354e-05 3.817185985266619e-06 7.741346545448295e-05 0.0 0.0
0.0 1.9498096493648245e-05 -4.147745903422741e-06 3.438024782948733e-06 7.097211204739953e-07 1.8125914586502272e-05 0.0 0.0
0.0 6.870715915609442e-06 -9.66217812904643e-07 7.938407096205724e-07 1.723771032840767e-07 5.548213513922588e-06 0.0 0.0
0.0 1.5463199168796422e-06 2.0964894136532813e-08 -7.10253957316928e-09 -1.3862354563367244e-08 -3.138160815128601e-07 0.0 0.0
0.0 0.0 0.0 0.0 0.0 0.0 0.0 0.0
0.0 0.0 0.0 0.0 0.0 0.0 0.0 0.0
0.0 3.8538157917848767e-07 8.524370000021943e-09 -5.889213621647465e-09 -2.6351563783748637e-09 7.625979648851619e-08 0.0 0.0
0.0 4.058385398124949e-06 -6.196576747768705e-07 5.048759379515883e-07 1.1478173682527731e-07 -2.728556830540443e-06 0.0 0.0
0.0 1.8890821056515515e-05 -6.099516988871652e-06 5.022704708376926e-06 1.0768122804947194e-06 -1.9828053095708654e-05 0.0 0.0
0.0 7.942442700970566e-05 -3.625893725184779e-05 2.952797370080446e-05 6.730963551043352e-06 -9.107868120193272e-05 0.0 0.0
0.0 0.00042112696966640123 -0.00025728445465541497 0.00020963439464482902 4.7650060010585964e-05 -0.00048432980261859743 0.0 0.0
0.0 0.0017107266650595392 -0.001219485129721774 0.0010247217247122715 0.0001947634050095026 -0.0016849700799960222 0.0 0.0
0.0 0.004521704057398783 -0.003456105123018599 0.003043037814232587 0.0004130673087860121 -0.0037676836562160355 0.0 0.0
0.0 0.00889525962326871 -0.007007241237286932 0.006421426791900288 0.0005858144453866447 -0.006597197833077026 0.0 0.0
0.0 0.014468533176312774 -0.01161908345194826 0.010922331982903863 0.0006967514690443959 -0.009912550092889562 0.0 0.0
0.0 0.020960759873865354 -0.0170068296664401 0.01623164133594053 0.0007751883304995711 -0.013316886693845667 0.0 0.0
0.0 0.028189971875077813 -0.023035708997447123 0.022192494495479165 0.0008432145019679534 -0.01656970455302406 0.0 0.0
0.0 0.03614118782497222 -0.02968826678133518 0.02878209500736073 0.0009061717739744206 -0.019681601518372404 0.0 0.0
0.0 0.044771253798240006 -0.03697278897623401 0.03600312338503268 0.0009696655912013563 -0.022784081241829814 0.0 0.0
0.0 0.05408338445531127 -0.04477085991823692 0.04373310512126637 0.0010377547969704797 -0.026188408151031926 0.0 0.0
0.0 0.0636636999461137 -0.05268583357024176 0.05157320279662876 0.0011126307736129765 -0.030352340947390557 0.0 0.0
0.0 0.07250056994494344 -0.059875175038749145 0.058678348064207804 0.0011968269745413177 -0.035391827288342 0.0 0.0
0.0 0.07882911787307757 -0.06481348702543988 0.06351809366237096 0.0012953933630688546 -0.04033552153196307 0.0 0.0
0.0 0.07925791202155144 -0.06485127859380523 0.06341232997771985 0.0014389486160853431 -0.04257236053617994 0.0 0.0
0.0 0.06800222747406126 -0.05520190754467593 0.05354181301552012 0.0016600945291558227 -0.03877396624069006 0.0 0.0
0.0 0.06800222747406838 -0.05520190754467396 0.05354181301551826 0.0016600945291556789 0.03877396624074031 0.0 0.0
0.0 0.07925791202154649 -0.06485127859379122 0.06341232997770568 0.0014389486160855283 0.0425723605362435 0.0 0.0
0.0 0.07882911787305241 -0.06481348702541073 0.0635180936623418 0.0012953933630689058 0.04033552153200891 0.0 0.0
0.0 0.07250056994490123 -0.05987517503870983 0.05867834806416902 0.0011968269745407903 0.035391827288351746 0.0 0.0
0.0 0.06366369994606008 -0.052685833570195545 0.05157320279658281 0.0011126307736127302 0.030352340947377543 0.0 0.0
0.0 0.05408338445525547 -0.04477085991818977 0.04373310512121948 0.0010377547969702503 0.02618840815101204 0.0 0.0
0.0 0.04477125379818756 -0.036972788976189996 0.03600312338498873 0.0009696655912012761 0.022784081241809286 0.0 0.0
0.0 0.03614118782491862 -0.029688266781289573 0.02878209500731535 0.0009061717739742245 0.019681601518354665 0.0 0.0
0.0 0.028189971875027656 -0.02303570899740504 0.022192494495437608 0.0008432145019674207 0.016569704553000844 0.0 0.0
0.0 0.02096075987381951 -0.01700682966640274 0.016231641335903782 0.0007751883304989622 0.013316886693818105 0.0 0.0
0.0 0.014468533176270823 -0.01161908345191473 0.010922331982871056 0.0006967514690436715 0.009912550092861004 0.0 0.0
0.0 0.008895259623237525 -0.0070072412372622975 0.006421426791876345 0.0005858144453859567 0.0065971978330570495 0.0 0.0
0.0 0.004521704057379623 -0.003456105123003576 0.0030430378142186484 0.0004130673087849258 0.0037676836562028325 0.0 0.0
0.0 0.0017107266650495546 -0.0012194851297148371 0.001024721724706184 0.00019476340500865292 0.0016849700799876665 0.0 0.0
0.0 0.00042112696966161095 -0.00025728445465301964 0.00020963439464282216 4.765006001019746e-05 0.00048432980261441767 0.0 0.0
0.0 7.942442700894578e-05 -3.6258937252023026e-05 2.952797370093774e-05 6.730963551085229e-06 9.10786812022801e-05 0.0 0.0
0.0 1.889082105599431e-05 -6.099516989120858e-06 5.022704708575261e-06 1.0768122805455926e-06 1.9828053096446636e-05 0.0 0.0
0.0 4.058385397706223e-06 -6.196576749406934e-07 5.048759380837499e-07 1.1478173685694164e-07 2.7285568312748133e-06 0.0 0.0
0.0 3.8538157904294466e-07 8.52436999717895e-09 -5.889213619678072e-09 -2.6351563774992616e-09 -7.62597964614563e-08 0.0 0.0
0.0 0.0 0.0 0.0 0.0 0.0 0.0 0.0
0.0 0.0 0.0 0.0 0.0 0.0 0.0 0.0
0.0 0.0 0.0 0.0 0.0 0.0 0.0 0.0
0.0 1.7182477345216258e-06 -2.405337961749296e-07 1.9703443587206934e-07 4.3499360302863784e-08 -8.448137957046218e-07 0.0 0.0
0.0 1.7894130942811497e-05 -5.065499738086571e-06 4.11730756981524e-06 9.481921682713414e-07 -1.2211733539252288e-05 0.0 0.0
0.0 0.0001281960092092599 -6.732398989606837e-05 5.453464138915989e-05 1.2789348506908467e-05 -0.00011840443494721704 0.0 0.0
0.0 0.0007599613460940814 -0.0005533370366655059 0.0004551659672201505 9.817106944535537e-05 -0.0007042086369926096 0.0 0.0
0.0 0.0027698424670602882 -0.0021656825816123845 0.0018606943722218375 0.0003049882093905474 -0.00207177556738041 0.0 0.0
0.0 0.006582646066295767 -0.005330749053472158 0.004808306238507396 0.00052244281496476 -0.004285549666673005 0.0 0.0
0.0 0.012144660602318934 -0.010006902913317635 0.009338956593887521 0.0006679463194301139 -0.0072898914727009875 0.0 0.0
0.0 0.01918269791147198 -0.015920259165071754 0.01515461499465953 0.0007656441704122214 -0.010715758472946865 0.0 0.0
0.0 0.027380495865898517 -0.022819439567386197 0.021972915852035604 0.0008465237153505945 -0.014176877306283817 0.0 0.0
0.0 0.03655181141908523 -0.030564684678789863 0.029643620328683496 0.0009210643501063781 -0.017495712095919772 0.0 0.0
0.0 0.046638678830342874 -0.03912446462871246 0.038132780812800415 0.0009916838159120091 -0.020674412045407094 0.0 0.0
0.0 0.05768037352991543 -0.048516268055974546 0.04745463851606196 0.0010616295399126017 -0.023817937501782675 0.0 0.0
0.0 0.06966329093204053 -0.058657093999803164 0.05751902380203442 0.0011380701977687405 -0.02726987190715187 0.0 0.0
0.0 0.08189111227208692 -0.06909812797916386 0.06786962219685005 0.0012285057823138083 -0.03154084626548243 0.0 0.0
0.0 0.09353709777359288 -0.07870411219131465 0.07736711119656076 0.0013370009947538519 -0.03681619365237643 0.0 0.0
0.0 0.10175903122404177 -0.08535572286070049 0.0838854342157996 0.0014702886449009223 -0.0421473579200318 0.0 0.0
0.0 0.10234778490102231 -0.08558029705752795 0.08394407490700354 0.0016362221505244149 -0.04514257917631491 0.0 0.0
0.0 0.08940227819125954 -0.07417202377930622 0.07234036037201017 0.0018316634072960505 -0.043822182758222514 0.0 0.0
0.0 0.08940227819126462 -0.07417202377930292 0.07234036037200721 0.0018316634072956545 0.04382218275827568 0.0 0.0
0.0 0.10234778490101012 -0.08558029705750904 0.08394407490698474 0.0016362221505242904 0.04514257917637922 0.0 0.0
0.0 0.1017590312240104 -0.08535572286066716 0.08388543421576622 0.001470288644900843 0.042147357920079356 0.0 0.0
0.0 0.09353709777354162 -0.07870411219126788 0.07736711119651409 0.0013370009947537244 0.03681619365238818 0.0 0.0
0.0 0.08189111227202256 -0.06909812797910808 0.06786962219679447 0.0012285057823135956 0.031540846265471385 0.0 0.0
0.0 0.0696632909319759 -0.058657093999747514 0.05751902380197914 0.0011380701977683953 0.027269871907136124 0.0 0.0
0.0 0.057680373529850115 -0.048516268055918466 0.04745463851600666 0.001061629539911808 0.02381793750176301 0.0 0.0
0.0 0.04663867883027689 -0.03912446462865588 0.03813278081274393 0.0009916838159119352 0.020674412045388443 0.0 0.0
0.0 0.03655181141902416 -0.030564684678737825 0.029643620328632027 0.0009210643501057908 0.01749571209589699 0.0 0.0
0.0 0.027380495865843107 -0.022819439567339797 0.021972915851990005 0.0008465237153497745 0.014176877306256046 0.0 0.0
0.0 0.01918269791142127 -0.015920259165029697 0.015154614994618093 0.0007656441704116148 0.010715758472917124 0.0 0.0
0.0 0.012144660602280453 -0.010006902913285832 0.009338956593856237 0.0006679463194295984 0.007289891472680343 0.0 0.0
0.0 0.006582646066271113 -0.005330749053451974 0.0048083062384882 0.0005224428149637739 0.004285549666659254 0.0 0.0
0.0 0.0027698424670449407 -0.0021656825816004973 0.0018606943722112258 0.00030498820938927145 0.0020717755673705044 0.0 0.0
0.0 0.0007599613460870794 -0.0005533370366609783 0.00045516596721635106 9.8171069444627e-05 0.0007042086369871982 0.0 0.0
0.0 0.00012819600920749915 -6.732398989563895e-05 5.453464138880324e-05 1.2789348506835621e-05 0.00011840443494648669 0.0 0.0
0.0 1.789413094218089e-05 -5.0654997382161e-06 4.117307569918717e-06 9.481921682973917e-07 1.22117335395793e-05 0.0 0.0
0.0 1.7182477344370127e-06 -2.405337963003676e-07 1.9703443597350498e-07 4.349936032686032e-08 8.448137961464234e-07 0.0 0.0
0.0 0.0 0.0 0.0 0.0 0.0 0.0 0.0
0.0 0.0 0.0 0.0 0.0 0.0 0.0 0.0
0.0 0.0 0.0 0.0 0.0 0.0 0.0 0.0
0.0 0.0 0.0 0.0 0.0 0.0 0.0 0.0
0.0 9.159772724021529e-07 5.630253744311479e-08 -4.536700834069255e-08 -1.0935529102421052e-08 1.5681455061216043e-07 0.0 0.0
0.0 1.5029245221976115e-05 -7.335966688257873e-06 5.90678722651126e-06 1.4291794617466527e-06 -1.3463438055369462e-05 0.0 0.0
0.0 0.00021228290061176518 -0.00014443557230098822 0.00011687032210317333 2.7565250197814945e-05 -0.00018151237470231686 0.0 0.0
0.0 0.0012915092827049403 -0.0010128395483561127 0.0008438425038710835 0.00016899704448502972 -0.0008867129972154809 0.0 0.0
0.0 0.004091244032161286 -0.0033242674658418487 0.002917575924267574 0.00040669154157427505 -0.002265605085635391 0.0 0.0
0.0 0.008762607033102124 -0.007396359592696632 0.00679463714142441 0.0006017224512722206 -0.004476198991605522 0.0 0.0
0.0 0.015501735205523583 -0.013132423989197761 0.012407565973534582 0.0007248580156631811 -0.00739879980520451 0.0 0.0
0.0 0.023980583089279653 -0.02031186109028521 0.019491762009079025 0.0008200990812061902 -0.010677646584883783 0.0 0.0
0.0 0.03387544115379206 -0.028712451022097574 0.02780570932418889 0.0009067416979086681 -0.01401235617091294 0.0 0.0
0.0 0.0449667616082431 -0.03817642003665296 0.037187264039423434 0.0009891559972294872 -0.017209411688769875 0.0 0.0
0.0 0.057261547377481625 -0.04864646308670365 0.047578270293885394 0.0010681927928182702 -0.02028177115644927 0.0 0.0
0.0 0.07057549205422543 -0.06013256360786838 0.05898723484944827 0.0011453287584201111 -0.023311654790212254 0.0 0.0
0.0 0.08508178058478294 -0.07256530200279639 0.0713361182088385 0.0012291837939578778 -0.026486353452428994 0.0 0.0
0.0 0.10026082531137911 -0.08545996359208077 0.08412585590977484 0.0013341076823059081 -0.03028000668072081 0.0 0.0
0.0 0.11421271488866491 -0.09741566053235332 0.09594787197181932 0.0014677885605339325 -0.035157018994875965 0.0 0.0
0.0 0.12411420120699922 -0.10570727307718547 0.10407716791897682 0.0016301051582085931 -0.040674342889849766 0.0 0.0
0.0 0.12514786329942643 -0.10616989665752925 0.10436141634813742 0.0018084803093917903 -0.04537819494603767 0.0 0.0
0.0 0.11127784222373699 -0.09329872142136321 0.09130994346464627 0.0019887779567169593 -0.04847827950603284 0.0 0.0
0.0 0.11127784222373269 -0.09329872142135316 0.09130994346463595 0.0019887779567171445 0.0484782795060843 0.0 0.0
0.0 0.12514786329939898 -0.10616989665749871 0.10436141634810658 0.0018084803093920908 0.04537819494610121 0.0 0.0
0.0 0.12411420120695565 -0.10570727307714237 0.10407716791893479 0.0016301051582075683 0.04067434288989577 0.0 0.0
0.0 0.1142127148886046 -0.09741566053229858 0.0959478719717661 0.0014677885605324354 0.03515701899488828 0.0 0.0
0.0 0.10026082531130295 -0.08545996359201442 0.08412585590970907 0.001334107682305343 0.03028000668071292 0.0 0.0
0.0 0.08508178058470382 -0.07256530200272787 0.07133611820877034 0.0012291837939574742 0.026486353452417247 0.0 0.0
0.0 0.07057549205414462 -0.06013256360779888 0.0589872348493788 0.001145328758420048 0.02331165479019403 0.0 0.0
0.0 0.05726154737740489 -0.048646463086637115 0.047578270293819246 0.001068192792817809 0.020281771156432534 0.0 0.0
0.0 0.044966761608168315 -0.03817642003658858 0.037187264039359215 0.0009891559972293545 0.017209411688748927 0.0 0.0
0.0 0.03387544115372268 -0.02871245102203887 0.02780570932413054 0.0009067416979083305 0.014012356170883861 0.0 0.0
0.0 0.02398058308921928 -0.020311861090234577 0.01949176200902864 0.0008200990812059218 0.010677646584854698 0.0 0.0
0.0 0.015501735205478696 -0.01313242398915963 0.012407565973496857 0.0007248580156627749 0.007398799805185119 0.0 0.0
0.0 0.008762607033071008 -0.007396359592670357 0.006794637141398892 0.0006017224512714596 0.00447619899159089 0.0 0.0
0.0 0.004091244032140998 -0.0033242674658252964 0.0029175759242522736 0.0004066915415730238 0.002265605085625213 0.0 0.0
0.0 0.0012915092826948828 -0.0010128395483486724 0.0008438425038646055 0.00016899704448406654 0.0008867129972090968 0.0 0.0
0.0 0.0002122829006090896 -0.00014443557229975419 0.00011687032210215713 2.7565250197596945e-05 0.00018151237470092463 0.0 0.0
0.0 1.5029245221615327e-05 -7.3359666884252055e-06 5.906787226641423e-06 1.4291794617837623e-06 1.3463438055671767e-05 0.0 0.0
0.0 9.159772720464821e-07 5.630253742091469e-08 -4.5367008322703315e-08 -1.0935529098212496e-08 -1.5681455054918204e-07 0.0 0.0
0.0 0.0 0.0 0.0 0.0 0.0 0.0 0.0
0.0 0.0 0.0 0.0 0.0 0.0 0.0 0.0
0.0 0.0 0.0 0.0 0.0 0.0 0.0 0.0
0.0 0.0 0.0 0.0 0.0 0.0 0.0 0.0
0.0 2.633745482838499e-07 1.9034837468267232e-08 -1.5232417022672714e-08 -3.80242044559584e-09 3.959451352121644e-08 0.0 0.0
0.0 1.5678807399365486e-05 -9.560104214544316e-06 7.641485100784085e-06 1.9186191137602505e-06 -1.2952956544272244e-05 0.0 0.0
0.0 0.00037718477745077403 -0.0002867016775092449 0.0002326435467494669 5.4058130759778076e-05 -0.00024979980108425095 0.0 0.0
0.0 0.002015876645729774 -0.001633740689754818 0.0013832130663528148 0.000250527623402004 -0.0009754571335469938 0.0 0.0
0.0 0.005402537213841564 -0.0046645170776867945 0.00417229466528592 0.0004922224124008767 -0.0022768226206903988 0.0 0.0
0.0 0.011067598886090794 -0.009570085185121197 0.008913619638192665 0.000656465546928535 -0.0042817736166543335 0.0 0.0
0.0 0.018977094134370286 -0.01631797646310262 0.015549424390132217 0.0007685520729704032 -0.006878636497151664 0.0 0.0
0.0 0.028834768842458523 -0.024749090353437003 0.023882990286832422 0.000866100066604599 -0.009833001647799855 0.0 0.0
0.0 0.04039552958542073 -0.03464204895587468 0.033682790092504196 0.0009592588633704516 -0.012838670542912621 0.0 0.0
0.0 0.05344068667298409 -0.04582721708793318 0.044777072624219295 0.0010501444637138562 -0.015726434691021047 0.0 0.0
0.0 0.06784863141159048 -0.05821735279516148 0.05707894313615677 0.0011384096590046796 -0.01852948332579101 0.0 0.0
0.0 0.08361699119506273 -0.07177420580516246 0.07054909958588132 0.0012251062192811146 -0.021264361394835167 0.0 0.0
0.0 0.1005891505421577 -0.0863968068636308 0.08508068623640115 0.0013161206272296546 -0.023931418767431413 0.0 0.0
0.0 0.11800478466537194 -0.10159001199308584 0.10016020045825037 0.0014298115348353993 -0.02676746894884815 0.0 0.0
0.0 0.13453775051077188 -0.1158011574101428 0.11421617222656674 0.0015849851835760228 -0.030527802338847155 0.0 0.0
0.0 0.1464061617529408 -0.12583414401314413 0.12406208529649698 0.0017720587166471513 -0.03601687305792314 0.0 0.0
0.0 0.14824535165461578 -0.12689299402287493 0.12492533494555641 0.0019676590773184768 -0.04338794150016224 0.0 0.0
0.0 0.13374473994314312 -0.1129917730021713 0.11084715729846209 0.002144615703709085 -0.05276029790301641 0.0 0.0
0.0 0.13374473994313874 -0.11299177300216162 0.11084715729845263 0.0021446157037090336 0.05276029790306565 0.0 0.0
0.0 0.148245351654585 -0.126892994022843 0.12492533494552452 0.001967659077318523 0.04338794150022124 0.0 0.0
0.0 0.14640616175288285 -0.1258341440130912 0.12406208529644336 0.0017720587166477376 0.0360168730579636 0.0 0.0
0.0 0.13453775051069927 -0.11580115741007888 0.11421617222650296 0.001584985183575928 0.03052780233885691 0.0 0.0
0.0 0.1180047846652891 -0.10159001199301354 0.10016020045817906 0.0014298115348344007 0.026767468948842955 0.0 0.0
0.0 0.10058915054206836 -0.08639680686355325 0.08508068623632431 0.0013161206272289153 0.02393141876742218 0.0 0.0
0.0 0.08361699119497466 -0.07177420580508619 0.07054909958580621 0.001225106219279888 0.02126436139481991 0.0 0.0
0.0 0.06784863141150105 -0.05821735279508407 0.05707894313607994 0.001138409659004121 0.01852948332577523 0.0 0.0
0.0 0.05344068667289775 -0.04582721708785821 0.04477707262414522 0.0010501444637130283 0.015726434691002482 0.0 0.0
0.0 0.04039552958534294 -0.034642048955807664 0.033682790092438 0.0009592588633696412 0.01283867054288651 0.0 0.0
0.0 0.028834768842389842 -0.024749090353378158 0.023882990286774052 0.0008661000666040886 0.009833001647774045 0.0 0.0
0.0 0.018977094134319673 -0.016317976463058808 0.01554942439008879 0.0007685520729700166 0.006878636497135266 0.0 0.0
0.0 0.011067598886057628 -0.009570085185092343 0.008913619638164587 0.0006564655469277548 0.004281773616641946 0.0 0.0
0.0 0.005402537213818616 -0.004664517077667156 0.004172294665267318 0.0004922224123998378 0.002276822620681275 0.0 0.0
0.0 0.0020158766457176016 -0.0016337406897454039 0.0013832130663444639 0.0002505276234009396 0.0009754571335417081 0.0 0.0
0.0 0.00037718477744700345 -0.00028670167750706054 0.00023264354674764799 5.405813075941232e-05 0.0002497998010825005 0.0 0.0
0.0 1.5678807398960435e-05 -9.560104214828297e-06 7.641485100998567e-06 1.9186191138297407e-06 1.295295654461287e-05 0.0 0.0
0.0 2.633745479801639e-07 1.90348374459991e-08 -1.5232417004860948e-08 -3.802420441135515e-09 -3.959451347502403e-08 0.0 0.0
0.0 0.0 0.0 0.0 0.0 0.0 0.0 0.0
0.0 0.0 0.0 0.0 0.0 0.0 0.0 0.0
0.0 0.0 0.0 0.0 0.0 0.0 0.0 0.0
0.0 0.0 0.0 0.0 0.0 0.0 0.0 0.0
0.0 0.0 0.0 0.0 0.0 0.0 0.0 0.0
0.0 2.3786926061176553e-05 -1.694381698239761e-05 1.3556908831914264e-05 3.386908150483332e-06 -1.6226691396167965e-05 0.0 0.0
0.0 0.0006638919085308587 -0.0005268216446400249 0.00043006171759455206 9.675992704547246e-05 -0.0002954864891245694 0.0 0.0
0.0 0.002862554220237365 -0.0024100389364267536 0.002074663829143201 0.00033537510728355233 -0.0009459795968022956 0.0 0.0
0.0 0.006920260611118264 -0.006109517687559276 0.005551147421550248 0.0005583702660090271 -0.00201648432977581 0.0 0.0
0.0 0.013499503136140421 -0.011791834013595142 0.011095395299756053 0.0006964387138390882 -0.0036338624176164356 0.0 0.0
0.0 0.02249543456756334 -0.01952863662897413 0.01872455709423522 0.0008040795347389019 -0.005760492752121945 0.0 0.0
0.0 0.0337245602371924 -0.02919159805658612 0.028285958102070873 0.0009056399545152422 -0.008193848703975501 0.0 0.0
0.0 0.04695959194589158 -0.04056817785309415 0.03956221232017957 0.0010059655329145525 -0.010676140323839418 0.0 0.0
0.0 0.061899897934159356 -0.053477383380101 0.05237216220497785 0.001105221175123154 -0.013057547683292085 0.0 0.0
0.0 0.07857459435037471 -0.0677949583860483 0.06659129510511745 0.0012036632809308532 -0.015382816943259135 0.0 0.0
0.0 0.09651635136076868 -0.08340971514167486 0.08210774508116093 0.0013019700605139636 -0.017682799781648193 0.0 0.0
0.0 0.11574124114858465 -0.10010503352940772 0.0987021162821514 0.0014029172472563194 -0.01974946699198742 0.0 0.0
0.0 0.13560238114225945 -0.11733191761740741 0.11581229010476718 0.0015196275126401694 -0.021344746999922042 0.0 0.0
0.0 0.15439348718229418 -0.13362303562267752 0.13194505635840073 0.0016779792642767522 -0.023245991328517845 0.0 0.0
0.0 0.16846880394808972 -0.14568125510322777 0.14378613952091457 0.0018951155823130907 -0.028112593887236657 0.0 0.0
0.0 0.1718108235347282 -0.1479955762028643 0.14587758946337412 0.002117986739490336 -0.038716983567790256 0.0 0.0
0.0 0.15752004194346525 -0.13371071689500497 0.13139855974302714 0.002312157151977798 -0.05634548080397683 0.0 0.0
0.0 0.15752004194345343 -0.13371071689499087 0.13139855974301273 0.002312157151978119 0.056345480804014025 0.0 0.0
0.0 0.171810823534691 -0.14799557620282852 0.1458775894633385 0.002117986739490016 0.038716983567841215 0.0 0.0
0.0 0.16846880394802474 -0.14568125510316912 0.14378613952085686 0.0018951155823122047 0.028112593887272448 0.0 0.0
0.0 0.15439348718220952 -0.13362303562260291 0.13194505635832804 0.0016779792642748893 0.02324599132852568 0.0 0.0
0.0 0.13560238114216316 -0.11733191761732344 0.11581229010468456 0.0015196275126388502 0.021344746999918653 0.0 0.0
0.0 0.11574124114848297 -0.10010503352931925 0.09870211628206368 0.0014029172472556104 0.01974946699198321 0.0 0.0
0.0 0.09651635136066478 -0.08340971514158485 0.08210774508107159 0.0013019700605132298 0.017682799781636865 0.0 0.0
0.0 0.07857459435027213 -0.06779495838595936 0.06659129510502895 0.0012036632809304206 0.015382816943247413 0.0 0.0
0.0 0.06189989793405948 -0.05347738338001474 0.052372162204891666 0.0011052211751230532 0.013057547683278364 0.0 0.0
0.0 0.0469595919458026 -0.04056817785301702 0.03956221232010296 0.0010059655329140566 0.010676140323817543 0.0 0.0
0.0 0.033724560237117875 -0.029191598056521526 0.028285958102006948 0.0009056399545145787 0.008193848703953916 0.0 0.0
0.0 0.022495434567505485 -0.019528636628923558 0.018724557094185468 0.000804079534738092 0.005760492752107684 0.0 0.0
0.0 0.013499503136096542 -0.011791834013556768 0.011095395299718267 0.000696438713838503 0.003633862417604325 0.0 0.0
0.0 0.006920260611089435 -0.006109517687533947 0.005551147421525793 0.0005583702660081599 0.0020164843297675117 0.0 0.0
0.0 0.00286255422022322 -0.002410038936414966 0.0020746638291325357 0.0003353751072824294 0.0009459795967975373 0.0 0.0
0.0 0.0006638919085264814 -0.0005268216446371077 0.0004300617175921114 9.675992704499649e-05 0.00029548648912312804 0.0 0.0
0.0 2.3786926061011673e-05 -1.6943816982974294e-05 1.355690883235853e-05 3.3869081506157856e-06 1.6226691396658343e-05 0.0 0.0
0.0 0.0 0.0 0.0 0.0 0.0 0.0 0.0
0.0 0.0 0.0 0.0 0.0 0.0 0.0 0.0
0.0 0.0 0.0 0.0 0.0 0.0 0.0 0.0
0.0 0.0 0.0 0.0 0.0 0.0 0.0 0.0
0.0 0.0 0.0 0.0 0.0 0.0 0.0 0.0
0.0 0.0 0.0 0.0 0.0 0.0 0.0 0.0
0.0 5.4230924125941685e-05 -4.112344711142934e-05 3.283511988109177e-05 8.288327230337607e-06 -2.4073886577469738e-05 0.0 0.0
0.0 0.0011017607417906192 -0.0008845468147371991 0.0007302995361037404 0.00015424727863345882 -0.00028386846109996485 0.0 0.0
0.0 0.0036773039491282524 -0.003319955247360436 0.0029041185162448206 0.0004158367311156138 -0.0007466963197876238 0.0 0.0
0.0 0.008573205523004546 -0.007608887342403165 0.007003279607595212 0.0006056077348079565 -0.0014744812504287395 0.0 0.0
0.0 0.01597716962430887 -0.014034867075182964 0.0133070309864905 0.000727836088692474 -0.002573747765491097 0.0 0.0
0.0 0.026033600753947762 -0.022728083950278935 0.021894933801524318 0.0008331501487546125 -0.004050043428519253 0.0 0.0
0.0 0.03861678695512532 -0.033601835342264415 0.032662115901603284 0.0009397194406611248 -0.005765425251267012 0.0 0.0
0.0 0.05350151564682219 -0.046454219207279164 0.04540658351097655 0.0010476356963026053 -0.007518324336896143 0.0 0.0
0.0 0.07050249380302842 -0.06108738908331117 0.059931787541400855 0.001155601541910303 -0.009200708890592808 0.0 0.0
0.0 0.08913731632395727 -0.07733872323897256 0.07607425125272535 0.0012644719862472233 -0.010873302498910102 0.0 0.0
0.0 0.10945563127896463 -0.09499445079081897 0.09361885317671888 0.0013755976141000572 -0.012512287427119469 0.0 0.0
0.0 0.13100413785251203 -0.11367387174240812 0.1121835531347688 0.0014903186076392636 -0.013866244781592086 0.0 0.0
0.0 0.15287994067359725 -0.1326721628208757 0.13106056090018744 0.0016116019206882538 -0.014465552921100942 0.0 0.0
0.0 0.17355470876814358 -0.15064960280456127 0.14889407813764366 0.0017555246669177012 -0.014360837338052573 0.0 0.0
0.0 0.18998956484304733 -0.16486183687005312 0.1629023398612977 0.0019594970087554015 -0.016721440240846607 0.0 0.0
0.0 0.19614176392232846 -0.16968382128384057 0.16740974343406947 0.0022740778497709327 -0.02973070941382018 0.0 0.0
0.0 0.1832019285214099 -0.1561455952801704 0.153637438058829 0.00250815722134124 -0.05842912865043661 0.0 0.0
0.0 0.1832019285213925 -0.15614559528015293 0.15363743805881142 0.002508157221341386 0.05842912865046378 0.0 0.0
0.0 0.19614176392227686 -0.1696838212837942 0.16740974343402268 0.00227407784977144 0.02973070941386042 0.0 0.0
0.0 0.1899895648429663 -0.16486183686998257 0.16290233986122674 0.0019594970087558907 0.016721440240873395 0.0 0.0
0.0 0.1735547087680466 -0.15064960280447692 0.14889407813755975 0.0017555246669171418 0.01436083733805638 0.0 0.0
0.0 0.15287994067348376 -0.13267216282077732 0.13106056090008958 0.0016116019206877383 0.014465552921096764 0.0 0.0
0.0 0.1310041378523931 -0.11367387174230481 0.1121835531346661 0.0014903186076387013 0.01386624478159137 0.0 0.0
0.0 0.10945563127884715 -0.09499445079071707 0.09361885317661772 0.0013755976140993088 0.01251228742711293 0.0 0.0
0.0 0.08913731632384356 -0.0773387232388736 0.0760742512526277 0.0012644719862459014 0.010873302498902587 0.0 0.0
0.0 0.07050249380291933 -0.06108738908321587 0.05993178754130701 0.0011556015419088349 0.009200708890584174 0.0 0.0
0.0 0.053501515646721134 -0.04645421920719154 0.04540658351088962 0.001047635696301907 0.007518324336879934 0.0 0.0
0.0 0.03861678695504106 -0.033601835342191314 0.032662115901530606 0.0009397194406607249 0.005765425251251214 0.0 0.0
0.0 0.026033600753880982 -0.02272808395022017 0.021894933801466288 0.000833150148753886 0.00405004342851053 0.0 0.0
0.0 0.015977169624259824 -0.014034867075139809 0.013307030986447938 0.0007278360886918634 0.002573747765483075 0.0 0.0
0.0 0.00857320552297489 -0.007608887342376566 0.0070032796075696225 0.0006056077348069409 0.0014744812504232725 0.0 0.0
0.0 0.0036773039491120587 -0.0033199552473458806 0.002904118516231373 0.00041583673111450774 0.0007466963197844013 0.0 0.0
0.0 0.0011017607417818643 -0.0008845468147302951 0.0007302995360978107 0.00015424727863248413 0.0002838684610979421 0.0 0.0
0.0 5.423092412489709e-05 -4.1123447111385085e-05 3.283511988102513e-05 8.288327230359894e-06 2.4073886577361047e-05 0.0 0.0
0.0 0.0 0.0 0.0 0.0 0.0 0.0 0.0
0.0 0.0 0.0 0.0 0.0 0.0 0.0 0.0
0.0 0.0 0.0 0.0 0.0 0.0 0.0 0.0
0.0 0.0 0.0 0.0 0.0 0.0 0.0 0.0
0.0 0.0 0.0 0.0 0.0 0.0 0.0 0.0
0.0 0.0 0.0 0.0 0.0 0.0 0.0 0.0
0.0 0.00014655564869532874 -0.0001227260869234735 9.766067158943173e-05 2.5065415334041856e-05 -3.0363668189917355e-05 0.0 0.0
0.0 0.0016967686396146616 -0.001355706183250136 0.0011331771977155518 0.00022252898553458392 -0.00017089829882193524 0.0 0.0
0.0 0.004754914091430571 -0.004292572724023173 0.0038107057333521543 0.00048186699067102054 -0.0003531248102386157 0.0 0.0
0.0 0.010283428375518645 -0.009140380296958295 0.00849873608225083 0.0006416442147074649 -0.0006492122092962118 0.0 0.0
0.0 0.018495228724458364 -0.016267329871590505 0.01551494842891291 0.0007523814426775899 -0.0011048864494485181 0.0 0.0
0.0 0.029590096106446306 -0.025880338721112423 0.02502288434858435 0.0008574543725280655 -0.001755917136971005 0.0 0.0
0.0 0.04353693835446269 -0.037941247142261776 0.03697228693782555 0.0009689602044362277 -0.0025444771521466744 0.0 0.0
0.0 0.060145469271865364 -0.052264162818237064 0.05117954576066444 0.0010846170575726198 -0.003364907867478612 0.0 0.0
0.0 0.07887323923626499 -0.06862704499661647 0.067424943450902 0.001202101545714479 -0.004170369682852863 0.0 0.0
0.0 0.09975823514515482 -0.08679594870964305 0.08547461339038409 0.0013213353192589954 -0.004962970126467707 0.0 0.0
0.0 0.1224428574472898 -0.10646597632670673 0.1050211407310755 0.0014448355956312104 -0.0056951606195336495 0.0 0.0
0.0 0.1462327172461209 -0.12709766927853525 0.12552328908177546 0.0015743801967598439 -0.006216186429505034 0.0 0.0
0.0 0.1700545817796288 -0.14774330553417914 0.14603475600754995 0.0017085495266291344 -0.006181771331216 0.0 0.0
0.0 0.19220092312393458 -0.1669512388836364 0.16510706226094451 0.0018441766226919263 -0.005171333457718613 0.0 0.0
0.0 0.21021763107327535 -0.18260602901546588 0.18061087761395492 0.0019951514015107397 -0.004142602273717833 0.0 0.0
0.0 0.22004573696736945 -0.19093847467483868 0.18870301037712206 0.002235464297716528 -0.012442366467171196 0.0 0.0
0.0 0.21247393339809936 -0.18217705560276742 0.17929328082930554 0.0028837747734618427 -0.05391163239897324 0.0 0.0
0.0 0.21247393339807608 -0.18217705560274677 0.1792932808292844 0.0028837747734622027 0.05391163239898197 0.0 0.0
0.0 0.22004573696731555 -0.1909384746747915 0.1887030103770753 0.002235464297716017 0.012442366467191577 0.0 0.0
0.0 0.21021763107318933 -0.1826060290153907 0.18061087761388128 0.0019951514015093008 0.00414260227373095 0.0 0.0
0.0 0.19220092312382198 -0.1669512388835387 0.1651070622608476 0.0018441766226911238 0.005171333457717376 0.0 0.0
0.0 0.1700545817795069 -0.14774330553407353 0.14603475600744475 0.0017085495266286753 0.006181771331210763 0.0 0.0
0.0 0.14623271724599407 -0.12709766927842542 0.12552328908166577 0.0015743801967595798 0.006216186429506597 0.0 0.0
0.0 0.12244285744716604 -0.10646597632659904 0.10502114073096906 0.001444835595629929 0.0056951606195308965 0.0 0.0
0.0 0.09975823514502756 -0.08679594870953276 0.0854746133902743 0.0013213353192584136 0.004962970126464655 0.0 0.0
0.0 0.07887323923614065 -0.06862704499650879 0.06742494345079471 0.0012021015457140533 0.004170369682849796 0.0 0.0
0.0 0.060145469271753946 -0.05226416281814022 0.051179545760568323 0.0010846170575718867 0.003364907867470771 0.0 0.0
0.0 0.0435369383543728 -0.037941247142183734 0.03697228693774837 0.0009689602044353753 0.0025444771521389597 0.0 0.0
0.0 0.029590096106377993 -0.025880338721052477 0.025022884348525166 0.0008574543725273039 0.0017559171369679483 0.0 0.0
0.0 0.01849522872440577 -0.01626732987154403 0.015514948428866856 0.0007523814426771601 0.0011048864494451677 0.0 0.0
0.0 0.01028342837548379 -0.0091403802969273 0.008498736082220402 0.0006416442147069008 0.0006492122092940501 0.0 0.0
0.0 0.004754914091411017 -0.004292572724005301 0.0038107057333351905 0.00048186699067010835 0.00035312481023716264 0.0 0.0
0.0 0.0016967686396049176 -0.0013557061832423537 0.0011331771977087517 0.00022252898553360307 0.00017089829882125697 0.0 0.0
0.0 0.00014655564869338632 -0.00012272608692238902 9.766067158852975e-05 2.506541533385914e-05 3.0363668189592104e-05 0.0 0.0
0.0 0.0 0.0 0.0 0.0 0.0 0.0 0.0
0.0 0.0 0.0 0.0 0.0 0.0 0.0 0.0
0.0 0.0 0.0 0.0 0.0 0.0 0.0 0.0