# vtk DataFile Version 3.0
Some data
ASCII
DATASET UNSTRUCTURED_GRID
POINTS 861 float
0.0 0.0 0.0
0.4 0.0 0.0
0.8 0.0 0.0
1.2000000000000002 0.0 0.0
1.6 0.0 0.0
2.0 0.0 0.0
2.4000000000000004 0.0 0.0
2.8000000000000003 0.0 0.0
3.2 0.0 0.0
3.6 0.0 0.0
4.0 0.0 0.0
4.4 0.0 0.0
4.800000000000001 0.0 0.0
5.2 0.0 0.0
5.6000000000000005 0.0 0.0
6.0 0.0 0.0
6.4 0.0 0.0
6.800000000000001 0.0 0.0
7.2 0.0 0.0
7.6000000000000005 0.0 0.0
8.0 0.0 0.0
8.4 0.0 0.0
8.8 0.0 0.0
9.200000000000001 0.0 0.0
9.600000000000001 0.0 0.0
10.0 0.0 0.0
10.4 0.0 0.0
10.8 0.0 0.0
11.200000000000001 0.0 0.0
11.600000000000001 0.0 0.0
12.0 0.0 0.0
12.4 0.0 0.0
12.8 0.0 0.0
13.200000000000001 0.0 0.0
13.600000000000001 0.0 0.0
14.0 0.0 0.0
14.4 0.0 0.0
14.8 0.0 0.0
15.200000000000001 0.0 0.0
15.600000000000001 0.0 0.0
16.0 0.0 0.0
0.0 0.1 0.0
0.4 0.1 0.0
0.8 0.1 0.0
1.2000000000000002 0.1 0.0
1.6 0.1 0.0
2.0 0.1 0.0
2.4000000000000004 0.1 0.0
2.8000000000000003 0.1 0.0
3.2 0.1 0.0
3.6 0.1 0.0
4.0 0.1 0.0
4.4 0.1 0.0
4.800000000000001 0.1 0.0
5.2 0.1 0.0
5.6000000000000005 0.1 0.0
6.0 0.1 0.0
6.4 0.1 0.0
6.800000000000001 0.1 0.0
7.2 0.1 0.0
7.6000000000000005 0.1 0.0
8.0 0.1 0.0
8.4 0.1 0.0
8.8 0.1 0.0
9.200000000000001 0.1 0.0
9.600000000000001 0.1 0.0
10.0 0.1 0.0
10.4 0.1 0.0
10.8 0.1 0.0
11.200000000000001 0.1 0.0
11.600000000000001 0.1 0.0
12.0 0.1 0.0
12.4 0.1 0.0
12.8 0.1 0.0
13.200000000000001 0.1 0.0
13.600000000000001 0.1 0.0
14.0 0.1 0.0
14.4 0.1 0.0
14.8 0.1 0.0
15.200000000000001 0.1 0.0
15.600000000000001 0.1 0.0
16.0 0.1 0.0
0.0 0.2 0.0
0.4 0.2 0.0
0.8 0.2 0.0
1.2000000000000002 0.2 0.0
1.6 0.2 0.0
2.0 0.2 0.0
2.4000000000000004 0.2 0.0
2.8000000000000003 0.2 0.0
3.2 0.2 0.0
3.6 0.2 0.0
4.0 0.2 0.0
4.4 0.2 0.0
4.800000000000001 0.2 0.0
5.2 0.2 0.0
5.6000000000000005 0.2 0.0
6.0 0.2 0.0
6.4 0.2 0.0
6.800000000000001 0.2 0.0
7.2 0.2 0.0
7.6000000000000005 0.2 0.0
8.0 0.2 0.0
8.4 0.2 0.0
8.8 0.2 0.0
9.200000000000001 0.2 0.0
9.600000000000001 0.2 0.0
10.0 0.2 0.0
10.4 0.2 0.0
10.8 0.2 0.0
11.200000000000001 0.2 0.0
11.600000000000001 0.2 0.0
12.0 0.2 0.0
12.4 0.2 0.0
12.8 0.2 0.0
13.200000000000001 0.2 0.0
13.600000000000001 0.2 0.0
14.0 0.2 0.0
14.4 0.2 0.0
14.8 0.2 0.0
15.200000000000001 0.2 0.0
15.600000000000001 0.2 0.0
16.0 0.2 0.0
0.0 0.30000000000000004 0.0
0.4 0.30000000000000004 0.0
0.8 0.30000000000000004 0.0
1.2000000000000002 0.30000000000000004 0.0
1.6 0.30000000000000004 0.0
2.0 0.30000000000000004 0.0
2.4000000000000004 0.30000000000000004 0.0
2.8000000000000003 0.30000000000000004 0.0
3.2 0.30000000000000004 0.0
3.6 0.30000000000000004 0.0
4.0 0.30000000000000004 0.0
4.4 0.30000000000000004 0.0
4.800000000000001 0.30000000000000004 0.0
5.2 0.30000000000000004 0.0
5.6000000000000005 0.30000000000000004 0.0
6.0 0.30000000000000004 0.0
6.4 0.30000000000000004 0.0
6.800000000000001 0.30000000000000004 0.0
7.2 0.30000000000000004 0.0
7.6000000000000005 0.30000000000000004 0.0
8.0 0.30000000000000004 0.0
8.4 0.30000000000000004 0.0
8.8 0.30000000000000004 0.0
9.200000000000001 0.30000000000000004 0.0
9.600000000000001 0.30000000000000004 0.0
10.0 0.30000000000000004 0.0
10.4 0.30000000000000004 0.0
10.8 0.30000000000000004 0.0
11.200000000000001 0.30000000000000004 0.0
11.600000000000001 0.30000000000000004 0.0
12.0 0.30000000000000004 0.0
12.4 0.30000000000000004 0.0
12.8 0.30000000000000004 0.0
13.200000000000001 0.30000000000000004 0.0
13.600000000000001 0.30000000000000004 0.0
14.0 0.30000000000000004 0.0
14.4 0.30000000000000004 0.0
14.8 0.30000000000000004 0.0
15.200000000000001 0.30000000000000004 0.0
15.600000000000001 0.30000000000000004 0.0
16.0 0.30000000000000004 0.0
0.0 0.4 0.0
0.4 0.4 0.0
0.8 0.4 0.0
1.2000000000000002 0.4 0.0
1.6 0.4 0.0
2.0 0.4 0.0
2.4000000000000004 0.4 0.0
2.8000000000000003 0.4 0.0
3.2 0.4 0.0
3.6 0.4 0.0
4.0 0.4 0.0
4.4 0.4 0.0
4.800000000000001 0.4 0.0
5.2 0.4 0.0
5.6000000000000005 0.4 0.0
6.0 0.4 0.0
6.4 0.4 0.0
6.800000000000001 0.4 0.0
7.2 0.4 0.0
7.6000000000000005 0.4 0.0
8.0 0.4 0.0
8.4 0.4 0.0
8.8 0.4 0.0
9.200000000000001 0.4 0.0
9.600000000000001 0.4 0.0
10.0 0.4 0.0
10.4 0.4 0.0
10.8 0.4 0.0
11.200000000000001 0.4 0.0
11.600000000000001 0.4 0.0
12.0 0.4 0.0
12.4 0.4 0.0
12.8 0.4 0.0
13.200000000000001 0.4 0.0
13.600000000000001 0.4 0.0
14.0 0.4 0.0
14.4 0.4 0.0
14.8 0.4 0.0
15.200000000000001 0.4 0.0
15.600000000000001 0.4 0.0
16.0 0.4 0.0
0.0 0.5 0.0
0.4 0.5 0.0
0.8 0.5 0.0
1.2000000000000002 0.5 0.0
1.6 0.5 0.0
2.0 0.5 0.0
2.4000000000000004 0.5 0.0
2.8000000000000003 0.5 0.0
3.2 0.5 0.0
3.6 0.5 0.0
4.0 0.5 0.0
4.4 0.5 0.0
4.800000000000001 0.5 0.0
5.2 0.5 0.0
5.6000000000000005 0.5 0.0
6.0 0.5 0.0
6.4 0.5 0.0
6.800000000000001 0.5 0.0
7.2 0.5 0.0
7.6000000000000005 0.5 0.0
8.0 0.5 0.0
8.4 0.5 0.0
8.8 0.5 0.0
9.200000000000001 0.5 0.0
9.600000000000001 0.5 0.0
10.0 0.5 0.0
10.4 0.5 0.0
10.8 0.5 0.0
11.200000000000001 0.5 0.0
11.600000000000001 0.5 0.0
12.0 0.5 0.0
12.4 0.5 0.0
12.8 0.5 0.0
13.200000000000001 0.5 0.0
13.600000000000001 0.5 0.0
14.0 0.5 0.0
14.4 0.5 0.0
14.8 0.5 0.0
15.200000000000001 0.5 0.0
15.600000000000001 0.5 0.0
16.0 0.5 0.0
0.0 0.6000000000000001 0.0
0.4 0.6000000000000001 0.0
0.8 0.6000000000000001 0.0
1.2000000000000002 0.6000000000000001 0.0
1.6 0.6000000000000001 0.0
2.0 0.6000000000000001 0.0
2.4000000000000004 0.6000000000000001 0.0
2.8000000000000003 0.6000000000000001 0.0
3.2 0.6000000000000001 0.0
3.6 0.6000000000000001 0.0
4.0 0.6000000000000001 0.0
4.4 0.6000000000000001 0.0
4.800000000000001 0.6000000000000001 0.0
5.2 0.6000000000000001 0.0
5.6000000000000005 0.6000000000000001 0.0
6.0 0.6000000000000001 0.0
6.4 0.6000000000000001 0.0
6.800000000000001 0.6000000000000001 0.0
7.2 0.6000000000000001 0.0
7.6000000000000005 0.6000000000000001 0.0
8.0 0.6000000000000001 0.0
8.4 0.6000000000000001 0.0
8.8 0.6000000000000001 0.0
9.200000000000001 0.6000000000000001 0.0
9.600000000000001 0.6000000000000001 0.0
10.0 0.6000000000000001 0.0
10.4 0.6000000000000001 0.0
10.8 0.6000000000000001 0.0
11.200000000000001 0.6000000000000001 0.0
11.600000000000001 0.6000000000000001 0.0
12.0 0.6000000000000001 0.0
12.4 0.6000000000000001 0.0
12.8 0.6000000000000001 0.0
13.200000000000001 0.6000000000000001 0.0
13.600000000000001 0.6000000000000001 0.0
14.0 0.6000000000000001 0.0
14.4 0.6000000000000001 0.0
14.8 0.6000000000000001 0.0
15.200000000000001 0.6000000000000001 0.0
15.600000000000001 0.6000000000000001 0.0
16.0 0.6000000000000001 0.0
0.0 0.7000000000000001 0.0
0.4 0.7000000000000001 0.0
0.8 0.7000000000000001 0.0
1.2000000000000002 0.7000000000000001 0.0
1.6 0.7000000000000001 0.0
2.0 0.7000000000000001 0.0
2.4000000000000004 0.7000000000000001 0.0
2.8000000000000003 0.7000000000000001 0.0
3.2 0.7000000000000001 0.0
3.6 0.7000000000000001 0.0
4.0 0.7000000000000001 0.0
4.4 0.7000000000000001 0.0
4.800000000000001 0.7000000000000001 0.0
5.2 0.7000000000000001 0.0
5.6000000000000005 0.7000000000000001 0.0
6.0 0.7000000000000001 0.0
6.4 0.7000000000000001 0.0
6.800000000000001 0.7000000000000001 0.0
7.2 0.7000000000000001 0.0
7.6000000000000005 0.7000000000000001 0.0
8.0 0.7000000000000001 0.0
8.4 0.7000000000000001 0.0
8.8 0.7000000000000001 0.0
9.200000000000001 0.7000000000000001 0.0
9.600000000000001 0.7000000000000001 0.0
10.0 0.7000000000000001 0.0
10.4 0.7000000000000001 0.0
10.8 0.7000000000000001 0.0
11.200000000000001 0.7000000000000001 0.0
11.600000000000001 0.7000000000000001 0.0
12.0 0.7000000000000001 0.0
12.4 0.7000000000000001 0.0
12.8 0.7000000000000001 0.0
13.200000000000001 0.7000000000000001 0.0
13.600000000000001 0.7000000000000001 0.0
14.0 0.7000000000000001 0.0
14.4 0.7000000000000001 0.0
14.8 0.7000000000000001 0.0
15.200000000000001 0.7000000000000001 0.0
15.600000000000001 0.7000000000000001 0.0
16.0 0.7000000000000001 0.0
0.0 0.8 0.0
0.4 0.8 0.0
0.8 0.8 0.0
1.2000000000000002 0.8 0.0
1.6 0.8 0.0
2.0 0.8 0.0
2.4000000000000004 0.8 0.0
2.8000000000000003 0.8 0.0
3.2 0.8 0.0
3.6 0.8 0.0
4.0 0.8 0.0
4.4 0.8 0.0
4.800000000000001 0.8 0.0
5.2 0.8 0.0
5.6000000000000005 0.8 0.0
6.0 0.8 0.0
6.4 0.8 0.0
6.800000000000001 0.8 0.0
7.2 0.8 0.0
7.6000000000000005 0.8 0.0
8.0 0.8 0.0
8.4 0.8 0.0
8.8 0.8 0.0
9.200000000000001 0.8 0.0
9.600000000000001 0.8 0.0
10.0 0.8 0.0
10.4 0.8 0.0
10.8 0.8 0.0
11.200000000000001 0.8 0.0
11.600000000000001 0.8 0.0
12.0 0.8 0.0
12.4 0.8 0.0
12.8 0.8 0.0
13.200000000000001 0.8 0.0
13.600000000000001 0.8 0.0
14.0 0.8 0.0
14.4 0.8 0.0
14.8 0.8 0.0
15.200000000000001 0.8 0.0
15.600000000000001 0.8 0.0
16.0 0.8 0.0
0.0 0.9 0.0
0.4 0.9 0.0
0.8 0.9 0.0
1.2000000000000002 0.9 0.0
1.6 0.9 0.0
2.0 0.9 0.0
2.4000000000000004 0.9 0.0
2.8000000000000003 0.9 0.0
3.2 0.9 0.0
3.6 0.9 0.0
4.0 0.9 0.0
4.4 0.9 0.0
4.800000000000001 0.9 0.0
5.2 0.9 0.0
5.6000000000000005 0.9 0.0
6.0 0.9 0.0
6.4 0.9 0.0
6.800000000000001 0.9 0.0
7.2 0.9 0.0
7.6000000000000005 0.9 0.0
8.0 0.9 0.0
8.4 0.9 0.0
8.8 0.9 0.0
9.200000000000001 0.9 0.0
9.600000000000001 0.9 0.0
10.0 0.9 0.0
10.4 0.9 0.0
10.8 0.9 0.0
11.200000000000001 0.9 0.0
11.600000000000001 0.9 0.0
12.0 0.9 0.0
12.4 0.9 0.0
12.8 0.9 0.0
13.200000000000001 0.9 0.0
13.600000000000001 0.9 0.0
14.0 0.9 0.0
14.4 0.9 0.0
14.8 0.9 0.0
15.200000000000001 0.9 0.0
15.600000000000001 0.9 0.0
16.0 0.9 0.0
0.0 1.0 0.0
0.4 1.0 0.0
0.8 1.0 0.0
1.2000000000000002 1.0 0.0
1.6 1.0 0.0
2.0 1.0 0.0
2.4000000000000004 1.0 0.0
2.8000000000000003 1.0 0.0
3.2 1.0 0.0
3.6 1.0 0.0
4.0 1.0 0.0
4.4 1.0 0.0
4.800000000000001 1.0 0.0
5.2 1.0 0.0
5.6000000000000005 1.0 0.0
6.0 1.0 0.0
6.4 1.0 0.0
6.800000000000001 1.0 0.0
7.2 1.0 0.0
7.6000000000000005 1.0 0.0
8.0 1.0 0.0
8.4 1.0 0.0
8.8 1.0 0.0
9.200000000000001 1.0 0.0
9.600000000000001 1.0 0.0
10.0 1.0 0.0
10.4 1.0 0.0
10.8 1.0 0.0
11.200000000000001 1.0 0.0
11.600000000000001 1.0 0.0
12.0 1.0 0.0
12.4 1.0 0.0
12.8 1.0 0.0
13.200000000000001 1.0 0.0
13.600000000000001 1.0 0.0
14.0 1.0 0.0
14.4 1.0 0.0
14.8 1.0 0.0
15.200000000000001 1.0 0.0
15.600000000000001 1.0 0.0
16.0 1.0 0.0
0.0 1.1 0.0
0.4 1.1 0.0
0.8 1.1 0.0
1.2000000000000002 1.1 0.0
1.6 1.1 0.0
2.0 1.1 0.0
2.4000000000000004 1.1 0.0
2.8000000000000003 1.1 0.0
3.2 1.1 0.0
3.6 1.1 0.0
4.0 1.1 0.0
4.4 1.1 0.0
4.800000000000001 1.1 0.0
5.2 1.1 0.0
5.6000000000000005 1.1 0.0
6.0 1.1 0.0
6.4 1.1 0.0
6.800000000000001 1.1 0.0
7.2 1.1 0.0
7.6000000000000005 1.1 0.0
8.0 1.1 0.0
8.4 1.1 0.0
8.8 1.1 0.0
9.200000000000001 1.1 0.0
9.600000000000001 1.1 0.0
10.0 1.1 0.0
10.4 1.1 0.0
10.8 1.1 0.0
11.200000000000001 1.1 0.0
11.600000000000001 1.1 0.0
12.0 1.1 0.0
12.4 1.1 0.0
12.8 1.1 0.0
13.200000000000001 1.1 0.0
13.600000000000001 1.1 0.0
14.0 1.1 0.0
14.4 1.1 0.0
14.8 1.1 0.0
15.200000000000001 1.1 0.0
15.600000000000001 1.1 0.0
16.0 1.1 0.0
0.0 1.2000000000000002 0.0
0.4 1.2000000000000002 0.0
0.8 1.2000000000000002 0.0
1.2000000000000002 1.2000000000000002 0.0
1.6 1.2000000000000002 0.0
2.0 1.2000000000000002 0.0
2.4000000000000004 1.2000000000000002 0.0
2.8000000000000003 1.2000000000000002 0.0
3.2 1.2000000000000002 0.0
3.6 1.2000000000000002 0.0
4.0 1.2000000000000002 0.0
4.4 1.2000000000000002 0.0
4.800000000000001 1.2000000000000002 0.0
5.2 1.2000000000000002 0.0
5.6000000000000005 1.2000000000000002 0.0
6.0 1.2000000000000002 0.0
6.4 1.2000000000000002 0.0
6.800000000000001 1.2000000000000002 0.0
7.2 1.2000000000000002 0.0
7.6000000000000005 1.2000000000000002 0.0
8.0 1.2000000000000002 0.0
8.4 1.2000000000000002 0.0
8.8 1.2000000000000002 0.0
9.200000000000001 1.2000000000000002 0.0
9.600000000000001 1.2000000000000002 0.0
10.0 1.2000000000000002 0.0
10.4 1.2000000000000002 0.0
10.8 1.2000000000000002 0.0
11.200000000000001 1.2000000000000002 0.0
11.600000000000001 1.2000000000000002 0.0
12.0 1.2000000000000002 0.0
12.4 1.2000000000000002 0.0
12.8 1.2000000000000002 0.0
13.200000000000001 1.2000000000000002 0.0
13.600000000000001 1.2000000000000002 0.0
14.0 1.2000000000000002 0.0
14.4 1.2000000000000002 0.0
14.8 1.2000000000000002 0.0
15.200000000000001 1.2000000000000002 0.0
15.600000000000001 1.2000000000000002 0.0
16.0 1.2000000000000002 0.0
0.0 1.3 0.0
0.4 1.3 0.0
0.8 1.3 0.0
1.2000000000000002 1.3 0.0
1.6 1.3 0.0
2.0 1.3 0.0
2.4000000000000004 1.3 0.0
2.8000000000000003 1.3 0.0
3.2 1.3 0.0
3.6 1.3 0.0
4.0 1.3 0.0
4.4 1.3 0.0
4.800000000000001 1.3 0.0
5.2 1.3 0.0
5.6000000000000005 1.3 0.0
6.0 1.3 0.0
6.4 1.3 0.0
6.800000000000001 1.3 0.0
7.2 1.3 0.0
7.6000000000000005 1.3 0.0
8.0 1.3 0.0
8.4 1.3 0.0
8.8 1.3 0.0
9.200000000000001 1.3 0.0
9.600000000000001 1.3 0.0
10.0 1.3 0.0
10.4 1.3 0.0
10.8 1.3 0.0
11.200000000000001 1.3 0.0
11.600000000000001 1.3 0.0
12.0 1.3 0.0
12.4 1.3 0.0
12.8 1.3 0.0
13.200000000000001 1.3 0.0
13.600000000000001 1.3 0.0
14.0 1.3 0.0
14.4 1.3 0.0
14.8 1.3 0.0
15.200000000000001 1.3 0.0
15.600000000000001 1.3 0.0
16.0 1.3 0.0
0.0 1.4000000000000001 0.0
0.4 1.4000000000000001 0.0
0.8 1.4000000000000001 0.0
1.2000000000000002 1.4000000000000001 0.0
1.6 1.4000000000000001 0.0
2.0 1.4000000000000001 0.0
2.4000000000000004 1.4000000000000001 0.0
2.8000000000000003 1.4000000000000001 0.0
3.2 1.4000000000000001 0.0
3.6 1.4000000000000001 0.0
4.0 1.4000000000000001 0.0
4.4 1.4000000000000001 0.0
4.800000000000001 1.4000000000000001 0.0
5.2 1.4000000000000001 0.0
5.6000000000000005 1.4000000000000001 0.0
6.0 1.4000000000000001 0.0
6.4 1.4000000000000001 0.0
6.800000000000001 1.4000000000000001 0.0
7.2 1.4000000000000001 0.0
7.6000000000000005 1.4000000000000001 0.0
8.0 1.4000000000000001 0.0
8.4 1.4000000000000001 0.0
8.8 1.4000000000000001 0.0
9.200000000000001 1.4000000000000001 0.0
9.600000000000001 1.4000000000000001 0.0
10.0 1.4000000000000001 0.0
10.4 1.4000000000000001 0.0
10.8 1.4000000000000001 0.0
11.200000000000001 1.4000000000000001 0.0
11.600000000000001 1.4000000000000001 0.0
12.0 1.4000000000000001 0.0
12.4 1.4000000000000001 0.0
12.8 1.4000000000000001 0.0
13.200000000000001 1.4000000000000001 0.0
13.600000000000001 1.4000000000000001 0.0
14.0 1.4000000000000001 0.0
14.4 1.4000000000000001 0.0
14.8 1.4000000000000001 0.0
15.200000000000001 1.4000000000000001 0.0
15.600000000000001 1.4000000000000001 0.0
16.0 1.4000000000000001 0.0
0.0 1.5 0.0
0.4 1.5 0.0
0.8 1.5 0.0
1.2000000000000002 1.5 0.0
1.6 1.5 0.0
2.0 1.5 0.0
2.4000000000000004 1.5 0.0
2.8000000000000003 1.5 0.0
3.2 1.5 0.0
3.6 1.5 0.0
4.0 1.5 0.0
4.4 1.5 0.0
4.800000000000001 1.5 0.0
5.2 1.5 0.0
5.6000000000000005 1.5 0.0
6.0 1.5 0.0
6.4 1.5 0.0
6.800000000000001 1.5 0.0
7.2 1.5 0.0
7.6000000000000005 1.5 0.0
8.0 1.5 0.0
8.4 1.5 0.0
8.8 1.5 0.0
9.200000000000001 1.5 0.0
9.600000000000001 1.5 0.0
10.0 1.5 0.0
10.4 1.5 0.0
10.8 1.5 0.0
11.200000000000001 1.5 0.0
11.600000000000001 1.5 0.0
12.0 1.5 0.0
12.4 1.5 0.0
12.8 1.5 0.0
13.200000000000001 1.5 0.0
13.600000000000001 1.5 0.0
14.0 1.5 0.0
14.4 1.5 0.0
14.8 1.5 0.0
15.200000000000001 1.5 0.0
15.600000000000001 1.5 0.0
16.0 1.5 0.0
0.0 1.6 0.0
0.4 1.6 0.0
0.8 1.6 0.0
1.2000000000000002 1.6 0.0
1.6 1.6 0.0
2.0 1.6 0.0
2.4000000000000004 1.6 0.0
2.8000000000000003 1.6 0.0
3.2 1.6 0.0
3.6 1.6 0.0
4.0 1.6 0.0
4.4 1.6 0.0
4.800000000000001 1.6 0.0
5.2 1.6 0.0
5.6000000000000005 1.6 0.0
6.0 1.6 0.0
6.4 1.6 0.0
6.800000000000001 1.6 0.0
7.2 1.6 0.0
7.6000000000000005 1.6 0.0
8.0 1.6 0.0
8.4 1.6 0.0
8.8 1.6 0.0
9.200000000000001 1.6 0.0
9.600000000000001 1.6 0.0
10.0 1.6 0.0
10.4 1.6 0.0
10.8 1.6 0.0
11.200000000000001 1.6 0.0
11.600000000000001 1.6 0.0
12.0 1.6 0.0
12.4 1.6 0.0
12.8 1.6 0.0
13.200000000000001 1.6 0.0
13.600000000000001 1.6 0.0
14.0 1.6 0.0
14.4 1.6 0.0
14.8 1.6 0.0
15.200000000000001 1.6 0.0
15.600000000000001 1.6 0.0
16.0 1.6 0.0
0.0 1.7000000000000002 0.0
0.4 1.7000000000000002 0.0
0.8 1.7000000000000002 0.0
1.2000000000000002 1.7000000000000002 0.0
1.6 1.7000000000000002 0.0
2.0 1.7000000000000002 0.0
2.4000000000000004 1.7000000000000002 0.0
2.8000000000000003 1.7000000000000002 0.0
3.2 1.7000000000000002 0.0
3.6 1.7000000000000002 0.0
4.0 1.7000000000000002 0.0
4.4 1.7000000000000002 0.0
4.800000000000001 1.7000000000000002 0.0
5.2 1.7000000000000002 0.0
5.6000000000000005 1.7000000000000002 0.0
6.0 1.7000000000000002 0.0
6.4 1.7000000000000002 0.0
6.800000000000001 1.7000000000000002 0.0
7.2 1.7000000000000002 0.0
7.6000000000000005 1.7000000000000002 0.0
8.0 1.7000000000000002 0.0
8.4 1.7000000000000002 0.0
8.8 1.7000000000000002 0.0
9.200000000000001 1.7000000000000002 0.0
9.600000000000001 1.7000000000000002 0.0
10.0 1.7000000000000002 0.0
10.4 1.7000000000000002 0.0
10.8 1.7000000000000002 0.0
11.200000000000001 1.7000000000000002 0.0
11.600000000000001 1.7000000000000002 0.0
12.0 1.7000000000000002 0.0
12.4 1.7000000000000002 0.0
12.8 1.7000000000000002 0.0
13.200000000000001 1.7000000000000002 0.0
13.600000000000001 1.7000000000000002 0.0
14.0 1.7000000000000002 0.0
14.4 1.7000000000000002 0.0
14.8 1.7000000000000002 0.0
15.200000000000001 1.7000000000000002 0.0
15.600000000000001 1.7000000000000002 0.0
16.0 1.7000000000000002 0.0
0.0 1.8 0.0
0.4 1.8 0.0
0.8 1.8 0.0
1.2000000000000002 1.8 0.0
1.6 1.8 0.0
2.0 1.8 0.0
2.4000000000000004 1.8 0.0
2.8000000000000003 1.8 0.0
3.2 1.8 0.0
3.6 1.8 0.0
4.0 1.8 0.0
4.4 1.8 0.0
4.800000000000001 1.8 0.0
5.2 1.8 0.0
5.6000000000000005 1.8 0.0
6.0 1.8 0.0
6.4 1.8 0.0
6.800000000000001 1.8 0.0
7.2 1.8 0.0
7.6000000000000005 1.8 0.0
8.0 1.8 0.0
8.4 1.8 0.0
8.8 1.8 0.0
9.200000000000001 1.8 0.0
9.600000000000001 1.8 0.0
10.0 1.8 0.0
10.4 1.8 0.0
10.8 1.8 0.0
11.200000000000001 1.8 0.0
11.600000000000001 1.8 0.0
12.0 1.8 0.0
12.4 1.8 0.0
12.8 1.8 0.0
13.200000000000001 1.8 0.0
13.600000000000001 1.8 0.0
14.0 1.8 0.0
14.4 1.8 0.0
14.8 1.8 0.0
15.200000000000001 1.8 0.0
15.600000000000001 1.8 0.0
16.0 1.8 0.0
0.0 1.9000000000000001 0.0
0.4 1.9000000000000001 0.0
0.8 1.9000000000000001 0.0
1.2000000000000002 1.9000000000000001 0.0
1.6 1.9000000000000001 0.0
2.0 1.9000000000000001 0.0
2.4000000000000004 1.9000000000000001 0.0
2.8000000000000003 1.9000000000000001 0.0
3.2 1.9000000000000001 0.0
3.6 1.9000000000000001 0.0
4.0 1.9000000000000001 0.0
4.4 1.9000000000000001 0.0
4.800000000000001 1.9000000000000001 0.0
5.2 1.9000000000000001 0.0
5.6000000000000005 1.9000000000000001 0.0
6.0 1.9000000000000001 0.0
6.4 1.9000000000000001 0.0
6.800000000000001 1.9000000000000001 0.0
7.2 1.9000000000000001 0.0
7.6000000000000005 1.9000000000000001 0.0
8.0 1.9000000000000001 0.0
8.4 1.9000000000000001 0.0
8.8 1.9000000000000001 0.0
9.200000000000001 1.9000000000000001 0.0
9.600000000000001 1.9000000000000001 0.0
10.0 1.9000000000000001 0.0
10.4 1.9000000000000001 0.0
10.8 1.9000000000000001 0.0
11.200000000000001 1.9000000000000001 0.0
11.600000000000001 1.9000000000000001 0.0
12.0 1.9000000000000001 0.0
12.4 1.9000000000000001 0.0
12.8 1.9000000000000001 0.0
13.200000000000001 1.9000000000000001 0.0
13.600000000000001 1.9000000000000001 0.0
14.0 1.9000000000000001 0.0
14.4 1.9000000000000001 0.0
14.8 1.9000000000000001 0.0
15.200000000000001 1.9000000000000001 0.0
15.600000000000001 1.9000000000000001 0.0
16.0 1.9000000000000001 0.0
0.0 2.0 0.0
0.4 2.0 0.0
0.8 2.0 0.0
1.2000000000000002 2.0 0.0
1.6 2.0 0.0
2.0 2.0 0.0
2.4000000000000004 2.0 0.0
2.8000000000000003 2.0 0.0
3.2 2.0 0.0
3.6 2.0 0.0
4.0 2.0 0.0
4.4 2.0 0.0
4.800000000000001 2.0 0.0
5.2 2.0 0.0
5.6000000000000005 2.0 0.0
6.0 2.0 0.0
6.4 2.0 0.0
6.800000000000001 2.0 0.0
7.2 2.0 0.0
7.6000000000000005 2.0 0.0
8.0 2.0 0.0
8.4 2.0 0.0
8.8 2.0 0.0
9.200000000000001 2.0 0.0
9.600000000000001 2.0 0.0
10.0 2.0 0.0
10.4 2.0 0.0
10.8 2.0 0.0
11.200000000000001 2.0 0.0
11.600000000000001 2.0 0.0
12.0 2.0 0.0
12.4 2.0 0.0
12.8 2.0 0.0
13.200000000000001 2.0 0.0
13.600000000000001 2.0 0.0
14.0 2.0 0.0
14.4 2.0 0.0
14.8 2.0 0.0
15.200000000000001 2.0 0.0
15.600000000000001 2.0 0.0
16.0 2.0 0.0
CELLS 800 4000
4 0 1 42 41
4 1 2 43 42
4 2 3 44 43
4 3 4 45 44
4 4 5 46 45
4 5 6 47 46
4 6 7 48 47
4 7 8 49 48
4 8 9 50 49
4 9 10 51 50
4 10 11 52 51
4 11 12 53 52
4 12 13 54 53
4 13 14 55 54
4 14 15 56 55
4 15 16 57 56
4 16 17 58 57
4 17 18 59 58
4 18 19 60 59
4 19 20 61 60
4 20 21 62 61
4 21 22 63 62
4 22 23 64 63
4 23 24 65 64
4 24 25 66 65
4 25 26 67 66
4 26 27 68 67
4 27 28 69 68
4 28 29 70 69
4 29 30 71 70
4 30 31 72 71
4 31 32 73 72
4 32 33 74 73
4 33 34 75 74
4 34 35 76 75
4 35 36 77 76
4 36 37 78 77
4 37 38 79 78
4 38 39 80 79
4 39 40 81 80
4 41 42 83 82
4 42 43 84 83
4 43 44 85 84
4 44 45 86 85
4 45 46 87 86
4 46 47 88 87
4 47 48 89 88
4 48 49 90 89
4 49 50 91 90
4 50 51 92 91
4 51 52 93 92
4 52 53 94 93
4 53 54 95 94
4 54 55 96 95
4 55 56 97 96
4 56 57 98 97
4 57 58 99 98
4 58 59 100 99
4 59 60 101 100
4 60 61 102 101
4 61 62 103 102
4 62 63 104 103
4 63 64 105 104
4 64 65 106 105
4 65 66 107 106
4 66 67 108 107
4 67 68 109 108
4 68 69 110 109
4 69 70 111 110
4 70 71 112 111
4 71 72 113 112
4 72 73 114 113
4 73 74 115 114
4 74 75 116 115
4 75 76 117 116
4 76 77 118 117
4 77 78 119 118
4 78 79 120 119
4 79 80 121 120
4 80 81 122 121
4 82 83 124 123
4 83 84 125 124
4 84 85 126 125
4 85 86 127 126
4 86 87 128 127
4 87 88 129 128
4 88 89 130 129
4 89 90 131 130
4 90 91 132 131
4 91 92 133 132
4 92 93 134 133
4 93 94 135 134
4 94 95 136 135
4 95 96 137 136
4 96 97 138 137
4 97 98 139 138
4 98 99 140 139
4 99 100 141 140
4 100 101 142 141
4 101 102 143 142
4 102 103 144 143
4 103 104 145 144
4 104 105 146 145
4 105 106 147 146
4 106 107 148 147
4 107 108 149 148
4 108 109 150 149
4 109 110 151 150
4 110 111 152 151
4 111 112 153 152
4 112 113 154 153
4 113 114 155 154
4 114 115 156 155
4 115 116 157 156
4 116 117 158 157
4 117 118 159 158
4 118 119 160 159
4 119 120 161 160
4 120 121 162 161
4 121 122 163 162
4 123 124 165 164
4 124 125 166 165
4 125 126 167 166
4 126 127 168 167
4 127 128 169 168
4 128 129 170 169
4 129 130 171 170
4 130 131 172 171
4 131 132 173 172
4 132 133 174 173
4 133 134 175 174
4 134 135 176 175
4 135 136 177 176
4 136 137 178 177
4 137 138 179 178
4 138 139 180 179
4 139 140 181 180
4 140 141 182 181
4 141 142 183 182
4 142 143 184 183
4 143 144 185 184
4 144 145 186 185
4 145 146 187 186
4 146 147 188 187
4 147 148 189 188
4 148 149 190 189
4 149 150 191 190
4 150 151 192 191
4 151 152 193 192
4 152 153 194 193
4 153 154 195 194
4 154 155 196 195
4 155 156 197 196
4 156 157 198 197
4 157 158 199 198
4 158 159 200 199
4 159 160 201 200
4 160 161 202 201
4 161 162 203 202
4 162 163 204 203
4 164 165 206 205
4 165 166 207 206
4 166 167 208 207
4 167 168 209 208
4 168 169 210 209
4 169 170 211 210
4 170 171 212 211
4 171 172 213 212
4 172 173 214 213
4 173 174 215 214
4 174 175 216 215
4 175 176 217 216
4 176 177 218 217
4 177 178 219 218
4 178 179 220 219
4 179 180 221 220
4 180 181 222 221
4 181 182 223 222
4 182 183 224 223
4 183 184 225 224
4 184 185 226 225
4 185 186 227 226
4 186 187 228 227
4 187 188 229 228
4 188 189 230 229
4 189 190 231 230
4 190 191 232 231
4 191 192 233 232
4 192 193 234 233
4 193 194 235 234
4 194 195 236 235
4 195 196 237 236
4 196 197 238 237
4 197 198 239 238
4 198 199 240 239
4 199 200 241 240
4 200 201 242 241
4 201 202 243 242
4 202 203 244 243
4 203 204 245 244
4 205 206 247 246
4 206 207 248 247
4 207 208 249 248
4 208 209 250 249
4 209 210 251 250
4 210 211 252 251
4 211 212 253 252
4 212 213 254 253
4 213 214 255 254
4 214 215 256 255
4 215 216 257 256
4 216 217 258 257
4 217 218 259 258
4 218 219 260 259
4 219 220 261 260
4 220 221 262 261
4 221 222 263 262
4 222 223 264 263
4 223 224 265 264
4 224 225 266 265
4 225 226 267 266
4 226 227 268 267
4 227 228 269 268
4 228 229 270 269
4 229 230 271 270
4 230 231 272 271
4 231 232 273 272
4 232 233 274 273
4 233 234 275 274
4 234 235 276 275
4 235 236 277 276
4 236 237 278 277
4 237 238 279 278
4 238 239 280 279
4 239 240 281 280
4 240 241 282 281
4 241 242 283 282
4 242 243 284 283
4 243 244 285 284
4 244 245 286 285
4 246 247 288 287
4 247 248 289 288
4 248 249 290 289
4 249 250 291 290
4 250 251 292 291
4 251 252 293 292
4 252 253 294 293
4 253 254 295 294
4 254 255 296 295
4 255 256 297 296
4 256 257 298 297
4 257 258 299 298
4 258 259 300 299
4 259 260 301 300
4 260 261 302 301
4 261 262 303 302
4 262 263 304 303
4 263 264 305 304
4 264 265 306 305
4 265 266 307 306
4 266 267 308 307
4 267 268 309 308
4 268 269 310 309
4 269 270 311 310
4 270 271 312 311
4 271 272 313 312
4 272 273 314 313
4 273 274 315 314
4 274 275 316 315
4 275 276 317 316
4 276 277 318 317
4 277 278 319 318
4 278 279 320 319
4 279 280 321 320
4 280 281 322 321
4 281 282 323 322
4 282 283 324 323
4 283 284 325 324
4 284 285 326 325
4 285 286 327 326
4 287 288 329 328
4 288 289 330 329
4 289 290 331 330
4 290 291 332 331
4 291 292 333 332
4 292 293 334 333
4 293 294 335 334
4 294 295 336 335
4 295 296 337 336
4 296 297 338 337
4 297 298 339 338
4 298 299 340 339
4 299 300 341 340
4 300 301 342 341
4 301 302 343 342
4 302 303 344 343
4 303 304 345 344
4 304 305 346 345
4 305 306 347 346
4 306 307 348 347
4 307 308 349 348
4 308 309 350 349
4 309 310 351 350
4 310 311 352 351
4 311 312 353 352
4 312 313 354 353
4 313 314 355 354
4 314 315 356 355
4 315 316 357 356
4 316 317 358 357
4 317 318 359 358
4 318 319 360 359
4 319 320 361 360
4 320 321 362 361
4 321 322 363 362
4 322 323 364 363
4 323 324 365 364
4 324 325 366 365
4 325 326 367 366
4 326 327 368 367
4 328 329 370 369
4 329 330 371 370
4 330 331 372 371
4 331 332 373 372
4 332 333 374 373
4 333 334 375 374
4 334 335 376 375
4 335 336 377 376
4 336 337 378 377
4 337 338 379 378
4 338 339 380 379
4 339 340 381 380
4 340 341 382 381
4 341 342 383 382
4 342 343 384 383
4 343 344 385 384
4 344 345 386 385
4 345 346 387 386
4 346 347 388 387
4 347 348 389 388
4 348 349 390 389
4 349 350 391 390
4 350 351 392 391
4 351 352 393 392
4 352 353 394 393
4 353 354 395 394
4 354 355 396 395
4 355 356 397 396
4 356 357 398 397
4 357 358 399 398
4 358 359 400 399
4 359 360 401 400
4 360 361 402 401
4 361 362 403 402
4 362 363 404 403
4 363 364 405 404
4 364 365 406 405
4 365 366 407 406
4 366 367 408 407
4 367 368 409 408
4 369 370 411 410
4 370 371 412 411
4 371 372 413 412
4 372 373 414 413
4 373 374 415 414
4 374 375 416 415
4 375 376 417 416
4 376 377 418 417
4 377 378 419 418
4 378 379 420 419
4 379 380 421 420
4 380 381 422 421
4 381 382 423 422
4 382 383 424 423
4 383 384 425 424
4 384 385 426 425
4 385 386 427 426
4 386 387 428 427
4 387 388 429 428
4 388 389 430 429
4 389 390 431 430
4 390 391 432 431
4 391 392 433 432
4 392 393 434 433
4 393 394 435 434
4 394 395 436 435
4 395 396 437 436
4 396 397 438 437
4 397 398 439 438
4 398 399 440 439
4 399 400 441 440
4 400 401 442 441
4 401 402 443 442
4 402 403 444 443
4 403 404 445 444
4 404 405 446 445
4 405 406 447 446
4 406 407 448 447
4 407 408 449 448
4 408 409 450 449
4 410 411 452 451
4 411 412 453 452
4 412 413 454 453
4 413 414 455 454
4 414 415 456 455
4 415 416 457 456
4 416 417 458 457
4 417 418 459 458
4 418 419 460 459
4 419 420 461 460
4 420 421 462 461
4 421 422 463 462
4 422 423 464 463
4 423 424 465 464
4 424 425 466 465
4 425 426 467 466
4 426 427 468 467
4 427 428 469 468
4 428 429 470 469
4 429 430 471 470
4 430 431 472 471
4 431 432 473 472
4 432 433 474 473
4 433 434 475 474
4 434 435 476 475
4 435 436 477 476
4 436 437 478 477
4 437 438 479 478
4 438 439 480 479
4 439 440 481 480
4 440 441 482 481
4 441 442 483 482
4 442 443 484 483
4 443 444 485 484
4 444 445 486 485
4 445 446 487 486
4 446 447 488 487
4 447 448 489 488
4 448 449 490 489
4 449 450 491 490
4 451 452 493 492
4 452 453 494 493
4 453 454 495 494
4 454 455 496 495
4 455 456 497 496
4 456 457 498 497
4 457 458 499 498
4 458 459 500 499
4 459 460 501 500
4 460 461 502 501
4 461 462 503 502
4 462 463 504 503
4 463 464 505 504
4 464 465 506 505
4 465 466 507 506
4 466 467 508 507
4 467 468 509 508
4 468 469 510 509
4 469 470 511 510
4 470 471 512 511
4 471 472 513 512
4 472 473 514 513
4 473 474 515 514
4 474 475 516 515
4 475 476 517 516
4 476 477 518 517
4 477 478 519 518
4 478 479 520 519
4 479 480 521 520
4 480 481 522 521
4 481 482 523 522
4 482 483 524 523
4 483 484 525 524
4 484 485 526 525
4 485 486 527 526
4 486 487 528 527
4 487 488 529 528
4 488 489 530 529
4 489 490 531 530
4 490 491 532 531
4 492 493 534 533
4 493 494 535 534
4 494 495 536 535
4 495 496 537 536
4 496 497 538 537
4 497 498 539 538
4 498 499 540 539
4 499 500 541 540
4 500 501 542 541
4 501 502 543 542
4 502 503 544 543
4 503 504 545 544
4 504 505 546 545
4 505 506 547 546
4 506 507 548 547
4 507 508 549 548
4 508 509 550 549
4 509 510 551 550
4 510 511 552 551
4 511 512 553 552
4 512 513 554 553
4 513 514 555 554
4 514 515 556 555
4 515 516 557 556
4 516 517 558 557
4 517 518 559 558
4 518 519 560 559
4 519 520 561 560
4 520 521 562 561
4 521 522 563 562
4 522 523 564 563
4 523 524 565 564
4 524 525 566 565
4 525 526 567 566
4 526 527 568 567
4 527 528 569 568
4 528 529 570 569
4 529 530 571 570
4 530 531 572 571
4 531 532 573 572
4 533 534 575 574
4 534 535 576 575
4 535 536 577 576
4 536 537 578 577
4 537 538 579 578
4 538 539 580 579
4 539 540 581 580
4 540 541 582 581
4 541 542 583 582
4 542 543 584 583
4 543 544 585 584
4 544 545 586 585
4 545 546 587 586
4 546 547 588 587
4 547 548 589 588
4 548 549 590 589
4 549 550 591 590
4 550 551 592 591
4 551 552 593 592
4 552 553 594 593
4 553 554 595 594
4 554 555 596 595
4 555 556 597 596
4 556 557 598 597
4 557 558 599 598
4 558 559 600 599
4 559 560 601 600
4 560 561 602 601
4 561 562 603 602
4 562 563 604 603
4 563 564 605 604
4 564 565 606 605
4 565 566 607 606
4 566 567 608 607
4 567 568 609 608
4 568 569 610 609
4 569 570 611 610
4 570 571 612 611
4 571 572 613 612
4 572 573 614 613
4 574 575 616 615
4 575 576 617 616
4 576 577 618 617
4 577 578 619 618
4 578 579 620 619
4 579 580 621 620
4 580 581 622 621
4 581 582 623 622
4 582 583 624 623
4 583 584 625 624
4 584 585 626 625
4 585 586 627 626
4 586 587 628 627
4 587 588 629 628
4 588 589 630 629
4 589 590 631 630
4 590 591 632 631
4 591 592 633 632
4 592 593 634 633
4 593 594 635 634
4 594 595 636 635
4 595 596 637 636
4 596 597 638 637
4 597 598 639 638
4 598 599 640 639
4 599 600 641 640
4 600 601 642 641
4 601 602 643 642
4 602 603 644 643
4 603 604 645 644
4 604 605 646 645
4 605 606 647 646
4 606 607 648 647
4 607 608 649 648
4 608 609 650 649
4 609 610 651 650
4 610 611 652 651
4 611 612 653 652
4 612 613 654 653
4 613 614 655 654
4 615 616 657 656
4 616 617 658 657
4 617 618 659 658
4 618 619 660 659
4 619 620 661 660
4 620 621 662 661
4 621 622 663 662
4 622 623 664 663
4 623 624 665 664
4 624 625 666 665
4 625 626 667 666
4 626 627 668 667
4 627 628 669 668
4 628 629 670 669
4 629 630 671 670
4 630 631 672 671
4 631 632 673 672
4 632 633 674 673
4 633 634 675 674
4 634 635 676 675
4 635 636 677 676
4 636 637 678 677
4 637 638 679 678
4 638 639 680 679
4 639 640 681 680
4 640 641 682 681
4 641 642 683 682
4 642 643 684 683
4 643 644 685 684
4 644 645 686 685
4 645 646 687 686
4 646 647 688 687
4 647 648 689 688
4 648 649 690 689
4 649 650 691 690
4 650 651 692 691
4 651 652 693 692
4 652 653 694 693
4 653 654 695 694
4 654 655 696 695
4 656 657 698 697
4 657 658 699 698
4 658 659 700 699
4 659 660 701 700
4 660 661 702 701
4 661 662 703 702
4 662 663 704 703
4 663 664 705 704
4 664 665 706 705
4 665 666 707 706
4 666 667 708 707
4 667 668 709 708
4 668 669 710 709
4 669 670 711 710
4 670 671 712 711
4 671 672 713 712
4 672 673 714 713
4 673 674 715 714
4 674 675 716 715
4 675 676 717 716
4 676 677 718 717
4 677 678 719 718
4 678 679 720 719
4 679 680 721 720
4 680 681 722 721
4 681 682 723 722
4 682 683 724 723
4 683 684 725 724
4 684 685 726 725
4 685 686 727 726
4 686 687 728 727
4 687 688 729 728
4 688 689 730 729
4 689 690 731 730
4 690 691 732 731
4 691 692 733 732
4 692 693 734 733
4 693 694 735 734
4 694 695 736 735
4 695 696 737 736
4 697 698 739 738
4 698 699 740 739
4 699 700 741 740
4 700 701 742 741
4 701 702 743 742
4 702 703 744 743
4 703 704 745 744
4 704 705 746 745
4 705 706 747 746
4 706 707 748 747
4 707 708 749 748
4 708 709 750 749
4 709 710 751 750
4 710 711 752 751
4 711 712 753 752
4 712 713 754 753
4 713 714 755 754
4 714 715 756 755
4 715 716 757 756
4 716 717 758 757
4 717 718 759 758
4 718 719 760 759
4 719 720 761 760
4 720 721 762 761
4 721 722 763 762
4 722 723 764 763
4 723 724 765 764
4 724 725 766 765
4 725 726 767 766
4 726 727 768 767
4 727 728 769 768
4 728 729 770 769
4 729 730 771 770
4 730 731 772 771
4 731 732 773 772
4 732 733 774 773
4 733 734 775 774
4 734 735 776 775
4 735 736 777 776
4 736 737 778 777
4 738 739 780 779
4 739 740 781 780
4 740 741 782 781
4 741 742 783 782
4 742 743 784 783
4 743 744 785 784
4 744 745 786 785
4 745 746 787 786
4 746 747 788 787
4 747 748 789 788
4 748 749 790 789
4 749 750 791 790
4 750 751 792 791
4 751 752 793 792
4 752 753 794 793
4 753 754 795 794
4 754 755 796 795
4 755 756 797 796
4 756 757 798 797
4 757 758 799 798
4 758 759 800 799
4 759 760 801 800
4 760 761 802 801
4 761 762 803 802
4 762 763 804 803
4 763 764 805 804
4 764 765 806 805
4 765 766 807 806
4 766 767 808 807
4 767 768 809 808
4 768 769 810 809
4 769 770 811 810
4 770 771 812 811
4 771 772 813 812
4 772 773 814 813
4 773 774 815 814
4 774 775 816 815
4 775 776 817 816
4 776 777 818 817
4 777 778 819 818
4 779 780 821 820
4 780 781 822 821
4 781 782 823 822
4 782 783 824 823
4 783 784 825 824
4 784 785 826 825
4 785 786 827 826
4 786 787 828 827
4 787 788 829 828
4 788 789 830 829
4 789 790 831 830
4 790 791 832 831
4 791 792 833 832
4 792 793 834 833
4 793 794 835 834
4 794 795 836 835
4 795 796 837 836
4 796 797 838 837
4 797 798 839 838
4 798 799 840 839
4 799 800 841 840
4 800 801 842 841
4 801 802 843 842
4 802 803 844 843
4 803 804 845 844
4 804 805 846 845
4 805 806 847 846
4 806 807 848 847
4 807 808 849 848
4 808 809 850 849
4 809 810 851 850
4 810 811 852 851
4 811 812 853 852
4 812 813 854 853
4 813 814 855 854
4 814 815 856 855
4 815 816 857 856
4 816 817 858 857
4 817 818 859 858
4 818 819 860 859
CELL_TYPES 800
9
9
9
9
9
9
9
9
9
9
9
9
9
9
9
9
9
9
9
9
9
9
9
9
9
9
9
9
9
9
9
9
9
9
9
9
9
9
9
9
9
9
9
9
9
9
9
9
9
9
9
9
9
9
9
9
9
9
9
9
9
9
9
9
9
9
9
9
9
9
9
9
9
9
9
9
9
9
9
9
9
9
9
9
9
9
9
9
9
9
9
9
9
9
9
9
9
9
9
9
9
9
9
9
9
9
9
9
9
9
9
9
9
9
9
9
9
9
9
9
9
9
9
9
9
9
9
9
9
9
9
9
9
9
9
9
9
9
9
9
9
9
9
9
9
9
9
9
9
9
9
9
9
9
9
9
9
9
9
9
9
9
9
9
9
9
9
9
9
9
9
9
9
9
9
9
9
9
9
9
9
9
9
9
9
9
9
9
9
9
9
9
9
9
9
9
9
9
9
9
9
9
9
9
9
9
9
9
9
9
9
9
9
9
9
9
9
9
9
9
9
9
9
9
9
9
9
9
9
9
9
9
9
9
9
9
9
9
9
9
9
9
9
9
9
9
9
9
9
9
9
9
9
9
9
9
9
9
9
9
9
9
9
9
9
9
9
9
9
9
9
9
9
9
9
9
9
9
9
9
9
9
9
9
9
9
9
9
9
9
9
9
9
9
9
9
9
9
9
9
9
9
9
9
9
9
9
9
9
9
9
9
9
9
9
9
9
9
9
9
9
9
9
9
9
9
9
9
9
9
9
9
9
9
9
9
9
9
9
9
9
9
9
9
9
9
9
9
9
9
9
9
9
9
9
9
9
9
9
9
9
9
9
9
9
9
9
9
9
9
9
9
9
9
9
9
9
9
9
9
9
9
9
9
9
9
9
9
9
9
9
9
9
9
9
9
9
9
9
9
9
9
9
9
9
9
9
9
9
9
9
9
9
9
9
9
9
9
9
9
9
9
9
9
9
9
9
9
9
9
9
9
9
9
9
9
9
9
9
9
9
9
9
9
9
9
9
9
9
9
9
9
9
9
9
9
9
9
9
9
9
9
9
9
9
9
9
9
9
9
9
9
9
9
9
9
9
9
9
9
9
9
9
9
9
9
9
9
9
9
9
9
9
9
9
9
9
9
9
9
9
9
9
9
9
9
9
9
9
9
9
9
9
9
9
9
9
9
9
9
9
9
9
9
9
9
9
9
9
9
9
9
9
9
9
9
9
9
9
9
9
9
9
9
9
9
9
9
9
9
9
9
9
9
9
9
9
9
9
9
9
9
9
9
9
9
9
9
9
9
9
9
9
9
9
9
9
9
9
9
9
9
9
9
9
9
9
9
9
9
9
9
9
9
9
9
9
9
9
9
9
9
9
9
9
9
9
9
9
9
9
9
9
9
9
9
9
9
9
9
9
9
9
9
9
9
9
9
9
9
9
9
9
9
9
9
9
9
9
9
9
9
9
9
9
9
9
9
9
9
9
9
9
9
9
9
9
9
9
9
9
9
9
9
9
9
9
9
9
9
9
9
9
9
9
9
9
9
9
9
9
9
9
9
9
9
9
9
9
9
9
9
9
9
9
9
9
9
9
9
9
9
9
9
9
9
9
9
9
9
9
9
9
9
9
9
9
9
9
9
9
9
9
9
9
9
9
9
9
9
9
9
9
9
9
9
9
9
9
9
9
9
9
9
9
9
9
9
9
9
9
9
9
9
9
9
9
9
9
9
9
9
9
9
9
9
9
9
9
9
9
9
9
9
9
9
9
9
9
9
9
9
9
9
9
9
9
9
9
9
9
9
9
9
9
9
9
9
9
9
POINT_DATA 861
SCALARS Disp float 2
LOOKUP_TABLE default
0.0 0.0
0.00498183010832646 -0.17726450173172487
0.006119184215634067 -0.34647312838291544
0.0068646479011136834 -0.514843248555611
0.0077823936269679405 -0.6828993229985886
0.009142969311389842 -0.8503432579498431
0.011374940941032146 -1.0167913247379
0.01496545831224495 -1.1817739278229684
0.02047616649142059 -1.3447102649439329
0.028513597235899656 -1.5048549435769547
0.03969360822224373 -1.6612094084056153
0.05463469864753157 -1.8124544581348316
0.07396014311419674 -1.9569464053220789
0.09829045865550129 -2.0927815231762144
0.1282431810769092 -2.217852735564016
0.1643654180655381 -2.3298925040247624
0.20700663751713705 -2.426521265297654
0.25615725320945537 -2.5053284344826907
0.31130132892727536 -2.564032242082766
0.37134291025957755 -2.6007142661444647
0.4344996869500724 -2.614052511962865
0.49765646364056426 -2.600714266144387
0.5576980449728549 -2.5640322420826074
0.6128421206906554 -2.505328434482462
0.6619927363829484 -2.4265212652973673
0.7046339558345207 -2.329892504024435
0.7407561928231221 -2.217852735563657
0.7707089152445017 -2.0927815231758333
0.7950392307857785 -1.9569464053216883
0.8143646752524171 -1.8124544581344437
0.829305765677681 -1.66120940840524
0.8404857766640053 -1.5048549435766008
0.8485232074084689 -1.3447102649436047
0.8540339155876328 -1.181773927822672
0.8576244329588375 -1.0167913247376372
0.8598564045884745 -0.8503432579496198
0.8612169802728943 -0.682899322998405
0.862134725998748 -0.5148432485554695
0.8628801896842272 -0.346473128382815
0.8640175437915336 -0.1772645017316679
0.8689993738998569 0.0
0.044223588619671565 -0.0021247620363155023
0.047638081086654765 -0.17745294804267048
0.048248596925556365 -0.3465342733073486
0.04891517220090578 -0.5149265639639599
0.04973002514288171 -0.6830170356504718
0.0509003146245831 -0.850579975719724
0.052831545713410755 -1.01725877722412
0.055985781562526565 -1.1826013483093316
0.06089090541711285 -1.3460409346727809
0.06809980929404734 -1.5068334971766757
0.0781606302572044 -1.6639786627698905
0.09161080300256806 -1.81615781836759
0.10899510623794911 -1.961730524931535
0.13088092772138493 -2.09879569577995
0.15783532088832167 -2.225242038847111
0.190370373788849 -2.338773821675478
0.2288230727039177 -2.4369468308707654
0.2732095121972058 -2.517247374345357
0.32309264212134625 -2.577260240749343
0.3774607397790111 -2.6149149506816958
0.4344996869500629 -2.6286467639297304
0.49153863412111154 -2.6149149506816163
0.5459067317787658 -2.5772602407491805
0.5957898617028893 -2.517247374345123
0.6401763011961555 -2.4369468308704727
0.6786290001112003 -2.338773821675144
0.7111640530117028 -2.225242038846745
0.7381184461786141 -2.098795695779563
0.7600042676620251 -1.961730524931138
0.7773885708973822 -1.816157818367196
0.7908387436427243 -1.6639786627695101
0.8008995646058634 -1.5068334971763178
0.8081084684827837 -1.3460409346724498
0.8130135923373594 -1.1826013483090327
0.8161678281864679 -1.017258777223856
0.8180990592752911 -0.8505799757195
0.8192693487569906 -0.6830170356502879
0.8200842016989662 -0.5149265639638183
0.8207507769743154 -0.3465342733072482
0.8213612928132169 -0.17745294804261325
0.8247757852801951 -0.0021247620363131206
0.0875723232196602 -0.0037944311231912138
0.09004501738582313 -0.1775436098044626
0.09039882354718913 -0.3465704028355478
0.0909439866681946 -0.5150007950726065
0.0916635703191948 -0.683113897371908
0.09266326702050562 -0.8507678527415713
0.09429780186010328 -1.017644784579841
0.09701683652958389 -1.1833077990261058
0.10130642177864621 -1.3472012640969444
0.10766897223902265 -1.5085785123988993
0.11658774143143301 -1.666433779703967
0.12852711684302062 -1.8194467428636212
0.14395621761252014 -1.9659823454136112
0.1633742423940327 -2.10414693031302
0.18730204340172488 -2.2318264529707146
0.2162126558291437 -2.3467016874389675
0.2504362949572496 -2.4462727004566993
0.2900312777600641 -2.5279346994084566
0.33464357061229577 -2.589148932137666
0.383337382358412 -2.627675876649737
0.43449968695005375 -2.641769289621085
0.48566199154169254 -2.6276758766496555
0.534355803287799 -2.589148932137501
0.5789680961400157 -2.5279346994082177
0.6185630789428115 -2.4462727004564013
0.6527867180708958 -2.346701687438628
0.6816973304982926 -2.231826452970343
0.7056251315059623 -2.104146930312627
0.7250431562874529 -1.9659823454132084
0.7404722570569311 -1.8194467428632222
0.7524116324684994 -1.6664337797035822
0.7613304016608938 -1.5085785123985378
0.7676929521212575 -1.3472012640966107
0.7719825373703102 -1.1833077990258047
0.7747015720397845 -1.017644784579576
0.7763361068793784 -0.8507678527413468
0.7773358035806879 -0.6831138973717241
0.7780553872316878 -0.515000795072465
0.7786005503526933 -0.3465704028354475
0.7789543565140593 -0.1775436098044051
0.7814270506802173 -0.0037944311231863015
0.13046374478332018 -0.0051295123077514816
0.13231139637559416 -0.17760474203543697
0.13252835176591285 -0.3465907709789451
0.1329552677823444 -0.5150620854454622
0.13357731542062953 -0.6831962290972848
0.13442806097421078 -0.8509133383595235
0.13578225902029353 -1.0179517212865827
0.1380687805247055 -1.183894558419868
0.14173907923461457 -1.348189646510083
0.14724427020284994 -1.510086842530878
0.15500668024208716 -1.6685710810885994
0.165420934019211 -1.8223189670089315
0.17888485781146402 -1.9697003109138613
0.1958278953316719 -2.10883137969592
0.21670890682210311 -2.237600117717743
0.24196856826523505 -2.3536686407623235
0.2719330594981343 -2.4544914510581357
0.30670376021677953 -2.537385559231238
0.3460151965967185 -2.5996944803100392
0.3890750217028775 -2.63902403976614
0.434499686950045 -2.6534807495151855
0.4799243521972095 -2.6390240397660576
0.5229841773033596 -2.5996944803098714
0.5622956136832855 -2.537385559230996
0.5970663144019143 -2.454491451057833
0.6270308056347949 -2.353668640761979
0.6522904670779073 -2.237600117717367
0.6731714785683188 -2.1088313796955216
0.6901145160885074 -1.9697003109134539
0.703578439880742 -1.8223189670085276
0.713992693657849 -1.6685710810882104
0.7217551036970721 -1.5100868425305132
0.7272602946652963 -1.348189646509747
0.730930593375197 -1.1838945584195653
0.7332171148796034 -1.0179517212863165
0.7345713129256832 -0.8509133383592987
0.7354220584792636 -0.6831962290971008
0.7360441061175483 -0.5150620854453206
0.73647102213398 -0.34659077097884483
0.7366879775242987 -0.1776047420353791
0.7385356291165683 -0.005129512307744295
0.17309175725199283 -0.006202788318473636
0.17447890479698508 -0.17765412903431382
0.17462071534350584 -0.34660243479017755
0.17494673617086381 -0.5151097452605057
0.17546892129480235 -0.6832660982795615
0.1761859191359788 -0.8510265677025659
0.17729059010328668 -1.0181858616999468
0.17915164249532223 -1.1843637626285888
0.18220546661606318 -1.3490067897327294
0.18684943443001995 -1.5113573561898577
0.19344823487225074 -1.67038930386281
0.2023315795300703 -1.8247734387421426
0.2138256250936597 -1.9728842561209063
0.22828987778013787 -2.112848959093876
0.24612402947649867 -2.2425605116328997
0.26772035160913743 -2.359670033898617
0.29340048959923976 -2.461596703722729
0.32331129693125654 -2.5455917902570535
0.3572919979094928 -2.6088957653477594
0.3947341145866583 -2.6489788446339415
0.4344996869500364 -2.663815595380387
0.4742652593134117 -2.6489788446338576
0.5117073759905689 -2.608895765347589
0.5456880769687938 -2.5455917902568075
0.5755988843007963 -2.4615967037224222
0.6012790222908827 -2.359670033898269
0.6228753444235043 -2.242560511632519
0.6407094961198484 -2.112848959093473
0.6551737488063101 -1.9728842561204947
0.6666677943698837 -1.8247734387417347
0.6755511390276892 -1.6703893038624176
0.6821499394699075 -1.5113573561894902
0.6867939072838547 -1.349006789732391
0.6898477314045884 -1.1843637626282848
0.6917087837966195 -1.01818586169968
0.6928134547639252 -0.8510265677023409
0.6935304526051012 -0.6832660982793773
0.6940526377290394 -0.515109745260364
0.6943786585563974 -0.3466024347900774
0.6945204691029181 -0.1776541290342557
0.6959076166479068 -0.006202788318464438
0.2155450285447385 -0.007060383221332751
0.21657662772222647 -0.17769749530753517
0.21667406559363156 -0.34661022733258984
0.21691590084023635 -0.5151447664864713
0.2173371141698022 -0.6833244533886756
0.21793090403565638 -0.8511151888504874
0.21881425903304763 -1.018358649421137
0.2202823205176143 -1.1847194328897894
0.2227226331545737 -1.3496551541190396
0.22650873420933842 -1.5123913294452924
0.23194419069408684 -1.6718889439002662
0.2392967427493473 -1.8268113489140083
0.2488249607377618 -1.9755359396788912
0.26081752341948244 -2.1162014868920385
0.2756070861640674 -2.2467095263843024
0.29354543646588344 -2.3647052656981966
0.31493317483257993 -2.4675832371627227
0.3399493290787114 -2.5525448919483935
0.36855816489524057 -2.616748600590886
0.40036607201600694 -2.657548746949371
0.43449968695002766 -2.6727937381062405
0.46863330188404567 -2.657548746949286
0.500441209004805 -2.6167486005907135
0.5290500448213243 -2.5525448919481444
0.5540661990674438 -2.4675832371624122
0.5754539374341266 -2.364705265697844
0.5933922877359283 -2.2467095263839183
0.6081818504804994 -2.116201486891632
0.6201744131622063 -1.975535939678476
0.6297026311506078 -1.8268113489135973
0.6370551832058564 -1.6718889438998712
0.6424906396905946 -1.5123913294449225
0.6462767407453512 -1.3496551541186994
0.6487170533823049 -1.1847194328894841
0.650185114866868 -1.0183586494208694
0.6510684698642578 -0.8511151888502623
0.6516622597301115 -0.6833244533884915
0.6520834730596772 -0.5151447664863297
0.652325308306282 -0.34661022733248964
0.6524227461776869 -0.17769749530747686
0.6534543453551722 -0.007060383221321873
0.2578711659279709 -0.0077377974387021
0.2586249583737227 -0.1777366513539944
0.25869268567832904 -0.34661662068724985
0.25886225932648227 -0.515168591282905
0.2591833557221594 -0.6833710724575607
0.25965805531750225 -0.851184587205669
0.2603431966589948 -1.0184829914772082
0.2614559034990977 -1.184974160010492
0.263313130520472 -1.3501392440531905
0.26624764026502656 -1.513192220419105
0.27052779607595734 -1.6730730314914481
0.2763570052227242 -1.828435839785452
0.28392948742648016 -1.977659501520555
0.29346489919698526 -2.1188939181574296
0.30522969177377157 -2.250051262765565
0.3195203022288455 -2.3687775738844317
0.33661799471385695 -2.4724500439989323
0.3567226535703761 -2.558236934475437
0.3799082828736964 -2.623243169659728
0.4060239876845796 -2.6647306343473804
0.43449968695001867 -2.680422689463571
0.46297538621545553 -2.664730634347294
0.48909109102633275 -2.6232431696595535
0.5122767203296448 -2.558236934475185
0.5323813791861542 -2.4724500439986197
0.5494790716711546 -2.368777573884076
0.5637696821262167 -2.250051262765177
0.5755344747029918 -2.1188939181570206
0.5850698864734866 -1.9776595015201368
0.5926423686772321 -1.8284358397850384
0.5984715778239895 -1.6730730314910507
0.6027517336349121 -1.5131922204187331
0.6056862433794602 -1.3501392440528488
0.6075434704008301 -1.184974160010186
0.6086561772409305 -1.0184829914769404
0.609341318582422 -0.8511845872054437
0.6098160181777647 -0.6833710724573765
0.6101371145734416 -0.5151685912827634
0.6103066882215947 -0.34661662068714966
0.6103744155262011 -0.17773665135393593
0.6111282079719507 -0.007737797438689867
0.30010255516322765 -0.008263252752873446
0.30063906756255904 -0.1777731508970941
0.3006828736729033 -0.34662215865960083
0.3007871962568804 -0.5151826290904682
0.30101035765795847 -0.6834051394251515
0.3013635142790414 -0.8512383248738729
0.3018727618162713 -1.018568937094614
0.30266497336872056 -1.185144276099378
0.30398382824496645 -1.3504717783123006
0.30609719959847403 -1.5137665936782658
0.3092348215049885 -1.6739471028309751
0.3135538913034176 -1.8296525667005
0.3191884988795775 -1.9792617079333021
0.3262904642984104 -2.120934244323242
0.3350568299498281 -2.252594233469133
0.3457267846512249 -2.3718933280835657
0.3585497408530342 -2.4761998880246865
0.3737330332736826 -2.562663087898258
0.3914429370121168 -2.6283646283951514
0.41176885239511096 -2.670508548420715
0.43449968695000935 -2.6866970097574554
0.4572305215049064 -2.6705085484206275
0.4775564368878957 -2.628364628394975
0.4952663406263235 -2.562663087898004
0.5104496330469646 -2.4761998880243716
0.523272589248765 -2.3718933280832077
0.5339425439501528 -2.252594233468743
0.5427089096015624 -2.120934244322831
0.5498108750203875 -1.9792617079328823
0.55544548259654 -1.829652566700084
0.5597645523949617 -1.673947102830576
0.5629021743014703 -1.5137665936778926
0.5650155456549734 -1.3504717783119577
0.5663344005312162 -1.1851442760990714
0.5671266120836638 -1.018568937094346
0.567635859620893 -0.8512383248736476
0.5679890162419757 -0.6834051394249672
0.5682121776430538 -0.5151826290903264
0.5683165002270307 -0.3466221586595006
0.5683603063373749 -0.17777315089703558
0.5688968187367048 -0.008263252752860146
0.34225792100303437 -0.008664017342627759
0.34263319317407653 -0.17780823460851294
0.3426502492010694 -0.3466261326745927
0.3426934746653671 -0.5151879626484649
0.3428218558433723 -0.6834262731988721
0.3430493040601714 -0.8512765204233702
0.34338993831301595 -1.018626949212949
0.34390190535585846 -1.1852471239908244
0.3447321580883432 -1.3506729334001497
0.3460752521597908 -1.5141297005267442
0.34810410258809743 -1.674521261462138
0.35093640092698214 -1.8304710240984396
0.35465525698260597 -1.9803528899136438
0.35935379120388 -2.1223344822024046
0.36515957825815376 -2.254351080818532
0.37224509504846065 -2.3740637597276413
0.3808185234986662 -2.478841040088768
0.3910947027323756 -2.565823005640555
0.4032819217755574 -2.632095200754067
0.4176755404756371 -2.6748528116519448
0.43449968694999974 -2.6915971861543087
0.45132383342436166 -2.674852811651857
0.46571745212443816 -2.6320952007538896
0.4779046711676152 -2.5658230056403
0.4881808504013195 -2.4788410400884513
0.496754278851519 -2.374063759727281
0.5038397956418198 -2.2543510808181404
0.5096455826960885 -2.1223344822019916
0.5143441169173577 -1.9803528899132223
0.5180629729729769 -1.8304710240980222
0.5208952713118569 -1.6745212614617377
0.5229241217401595 -1.5141297005263699
0.5242672158116044 -1.3506729333998067
0.5250974685440873 -1.1852471239905173
0.5256094355869291 -1.0186269492126807
0.5259500698397732 -0.851276520423145
0.5261775180565722 -0.6834262731986879
0.5263058992345774 -0.5151879626483231
0.526349124698875 -0.34662613267449244
0.5263661807258677 -0.1778082346084544
0.526741452896909 -0.008664017342613642
0.3843496147990655 -0.008968432569696372
0.38461295629810194 -0.17784358622067048
0.3846002297598169 -0.34662708178625373
0.38458488593373075 -0.515185401802121
0.38462148163005616 -0.683434643238828
0.3847218166385363 -0.8512977565133282
0.3848891437438333 -1.0186617029551392
0.38514559942584203 -1.1853021938427435
0.385545022420752 -1.3507706164358027
0.386185430566477 -1.5143090815243505
0.3871633137144157 -1.674817980453952
0.3885516269720231 -1.8309098183954626
0.39038651207690606 -1.9809506440588873
0.3927140093866378 -2.123113721465709
0.39560069212203186 -2.255342176548838
0.3991448825776322 -2.375307681874759
0.40349896893741183 -2.480388069950698
0.4088781473419813 -2.5677280979995247
0.4155485207357708 -2.634424098157447
0.42385969925744 -2.677718885641237
0.43449968694998986 -2.6950832581522435
0.4451396746425395 -2.677718885641148
0.4534508531642071 -2.634424098157269
0.4601212265579938 -2.5677280979992685
0.4655004049625603 -2.4803880699503806
0.4698544913223372 -2.3753076818743986
0.47339868177793437 -2.2553421765484454
0.47628536451332654 -2.123113721465295
0.4786128618230566 -1.9809506440584648
0.4804477469279374 -1.8309098183950445
0.4818360601855428 -1.674817980453551
0.4828139433334798 -1.5143090815239755
0.48345435147920385 -1.3507706164354594
0.48385377447411315 -1.1853021938424362
0.4841102301561215 -1.018661702954871
0.4842775572614184 -0.8512977565131028
0.48437789226989847 -0.6834346432386437
0.48441448796622394 -0.5151854018019792
0.4843991441401378 -0.3466270817861533
0.4843864176018526 -0.17784358622061197
0.4846497591008886 -0.008968432569681698
0.42639349556765743 -0.009199930537619501
0.42657803278676676 -0.17788041155892648
0.42653752297273284 -0.34662397541360074
0.42646577567862837 -0.5151754718069286
0.4264135204485703 -0.683430511193331
0.42638738826964745 -0.8513015597671139
0.4263777230272499 -1.018672586786183
0.4263752054571484 -1.1853202259965951
0.42637481674860134 -1.3507997328283592
0.4263750642856365 -1.5143568459807426
0.426375285795904 -1.6748940681369036
0.4263752714194213 -1.8310230937969088
0.4263722196644962 -1.981105956166128
0.42636282937707626 -2.123320323438472
0.42634914797984264 -2.2556146043200087
0.42636132295409995 -2.37566885445113
0.42649783022878235 -2.4808788769038803
0.4269788410485318 -2.5684127242414236
0.4281517247243465 -2.6353839777397794
0.4304136956284677 -2.679074451291726
0.4344996869499797 -2.6970956969255466
0.4385856782714922 -2.679074451291637
0.44084764917561275 -2.6353839777396013
0.44202053285142656 -2.568412724241167
0.442501543671176 -2.4808788769035632
0.4426380509458593 -2.375668854450769
0.44265022592011677 -2.255614604319616
0.44263654452288387 -2.123320323438059
0.4426271542354652 -1.9811059561657054
0.4426241024805411 -1.8310230937964904
0.4426240881040593 -1.674894068136502
0.4426243096143274 -1.5143568459803673
0.44262455715136295 -1.350799732828016
0.44262416844281616 -1.185320225996288
0.44262165087271477 -1.018672586785915
0.44261198563031734 -0.8513015597668885
0.44258585345139456 -0.6834305111931468
0.4425335982213366 -0.5151754718067869
0.4424618509272321 -0.3466239754135003
0.44242134111319825 -0.17788041155886802
0.4426058783323073 -0.009199930537604477
0.46840071534449634 -0.009379230835463498
0.46853151154591516 -0.17791674672875746
0.4684659179969802 -0.34661703463842725
0.4683407892159331 -0.5151583964006939
0.46820251705068766 -0.6834143417848308
0.46805199798560887 -0.8512879693234023
0.46786632401013656 -1.0186590257609565
0.46760453053641066 -1.1853016836760433
0.46720448733153613 -1.3507706632972216
0.46656465690288806 -1.5143091321804616
0.4655877001023297 -1.6748181674575633
0.4641990706199383 -1.8309091976831826
0.46235742809369945 -1.9809479958035778
0.4600108292291395 -2.1231081098055533
0.457098050259133 -2.255339220002643
0.45358038624355257 -2.3753332353960865
0.44949280304632544 -2.4805093683212487
0.4450139695711059 -2.5680721857043434
0.44050048151531473 -2.635151219517845
0.43649893045561167 -2.6790318988228954
0.4344996869499696 -2.697748474180457
0.4325004434443269 -2.6790318988228066
0.4284988923846239 -2.6351512195176663
0.4239854043288348 -2.568072185704087
0.4195065708536191 -2.4805093683209316
0.4154189876563964 -2.375333235395726
0.41190132364081933 -2.2553392200022504
0.40898854467081625 -2.1231081098051403
0.40664194580626045 -1.9809479958031555
0.4048003032800258 -1.8309091976827645
0.40341167379763826 -1.674818167457162
0.4024347169970829 -1.5143091321800863
0.40179488656843676 -1.3507706632968783
0.4013948433635632 -1.185301683675736
0.4011330498898379 -1.0186590257606882
0.400947375914366 -0.851287969323177
0.4007968568492875 -0.6834143417846467
0.4006585846840422 -0.5151583964005523
0.4005334559029952 -0.34661703463832677
0.4004678623540603 -0.17791674672869906
0.400598658555479 -0.009379230835448274
0.5103866559086302 -0.009517416655558152
0.510478032085784 -0.17795062915159648
0.5103897781051872 -0.34660655463571194
0.510214534367852 -0.5151344986398771
0.5099935698126925 -0.6833867278309778
0.5097216982786986 -0.8512572941437309
0.5093641366170029 -1.0186216468207583
0.508847696851365 -1.1852461018966338
0.5080170504281342 -1.3506730522949324
0.5066751728496747 -1.5141299794241687
0.5046471127511607 -1.674521479345156
0.5018138502420918 -1.8304695490076663
0.49808896640582645 -1.9803471485737272
0.4933738870169108 -2.1223228471127795
0.48754498267291385 -2.2543449940338096
0.48048306386467815 -2.3741155004093155
0.47215148181061817 -2.4790827259137975
0.46268396045082333 -2.5664974855460603
0.452466752064978 -2.633545519105984
0.44243811030782915 -2.677687518173164
0.43449968694995983 -2.697201853798513
0.4265612635920898 -2.6776875181730753
0.4165326218349423 -2.6335455191058066
0.40631541344910094 -2.5664974855458045
0.39684789208931276 -2.479082725913482
0.3885163100352604 -2.3741155004089562
0.38145439122703123 -2.2543449940334184
0.37562548688304037 -2.122322847112368
0.3709104074941317 -1.9803471485733062
0.3671855236578737 -1.8304695490072493
0.3643522611488112 -1.6745214793447558
0.3623242010503026 -1.5141299794237941
0.36098232347184694 -1.3506730522945893
0.36015167704861817 -1.1852461018963267
0.35963523728298147 -1.0186216468204903
0.3592776756212864 -0.8512572941435056
0.35900580408729293 -0.6833867278307936
0.3587848395321337 -0.5151344986397354
0.35860959579479873 -0.34660655463561146
0.3585213418142018 -0.1779506291515381
0.3586127179913556 -0.009517416655542763
0.552365100015789 -0.00962058793298891
0.5524232652468138 -0.17798048509652434
0.5523139486835521 -0.34659270194953107
0.5520917728526656 -0.5151042144152275
0.5517918263593312 -0.6833482940525872
0.5514031621181729 -0.8512106278512969
0.5508797929930802 -1.018560854261757
0.5500833674753176 -1.1851427867736557
0.5487656599589397 -1.3504721920629477
0.5466537463865585 -1.5137671542314723
0.5435163052839456 -1.6739471847982208
0.5391957655582523 -1.8296502550852498
0.5335572284356708 -1.9792536031357735
0.5264460727870909 -2.1209180673612584
0.5176666017964048 -2.252585743852059
0.5070146545367242 -2.3719663606615744
0.4943665538669528 -2.4765414563275456
0.47981278063184396 -2.5636222538606215
0.46388183961065443 -2.630517036402347
0.44787207640817356 -2.6748959881079752
0.4344996869499499 -2.6954753960707056
0.4211272974917267 -2.6748959881078864
0.4051175342892482 -2.6305170364021704
0.38918659326806454 -2.5636222538603675
0.37463282003296483 -2.476541456327232
0.3619847193632037 -2.371966360661218
0.3513327721035328 -2.2525857438516694
0.34255330111285587 -2.120918067360849
0.3354421454642855 -1.9792536031353547
0.32980360834171396 -1.8296502550848346
0.3254830686160298 -1.673947184797822
0.3223456275134247 -1.5137671542310993
0.3202337139410491 -1.350472192062605
0.3189160064246747 -1.185142786773349
0.318119580906914 -1.0185608542614888
0.3175962117818223 -0.8512106278510717
0.3172075475406645 -0.6833482940524032
0.31690760104733035 -0.5151042144150857
0.31668542521644405 -0.34659270194943054
0.3165761086531824 -0.17798048509646597
0.3166342738842073 -0.009620587932973412
0.5943445323772983 -0.00969406465803499
0.5943733855368863 -0.1780049618255578
0.5942434202498095 -0.34657549890800243
0.5939770843166715 -0.515067987201773
0.5936016561090613 -0.6832999091061165
0.5931035924476422 -0.851149330517162
0.5924062345765857 -1.0184719596842278
0.5912923463814855 -1.1849726369056752
0.5894371505201648 -1.350140176256205
0.5865037510468835 -1.5131929427711446
0.5822229070784619 -1.6730727741547018
0.5763920227123551 -1.8284328474903477
0.568818778853665 -1.9776504516243254
0.5592859014770889 -2.1188764945123584
0.5475263245968273 -2.2500427433297503
0.5332480034856638 -2.368863063375635
0.5162304804518463 -2.4728558019512237
0.49654724716876913 -2.5594247599023583
0.4748951981184721 -2.6260536349298045
0.4530410413077841 -2.670709318778019
0.4344996869499403 -2.6926254705250208
0.4159583325920977 -2.6707093187779307
0.3941041757814135 -2.6260536349296286
0.37245212673112416 -2.559424759902106
0.3527688934480583 -2.4728558019509133
0.33575137041425346 -2.3688630633752807
0.3214730493031028 -2.2500427433293635
0.3097134724228533 -2.118876494511951
0.3001805950462894 -1.9776504516239095
0.292607351187612 -1.828432847489935
0.28677646682151703 -1.6730727741543059
0.28249562285310514 -1.5131929427707729
0.27956222337983133 -1.3501401762558638
0.2777070275185156 -1.184972636905369
0.27659313932341845 -1.0184719596839602
0.2758957814523632 -0.8511493305169369
0.2753977177909445 -0.6832999091059324
0.2750222895833347 -0.5150679872016314
0.274755953650197 -0.3465754989079019
0.2746259883631203 -0.1780049618254994
0.27465484152270836 -0.009694064658019414
0.6363308984541086 -0.009742818225824347
0.6363339198672887 -0.17802314577288114
0.6361834081884087 -0.34655484488422456
0.6358752955410893 -0.5150262423098505
0.6354289933551129 -0.6832427807811058
0.6348252401696636 -0.8510735610491391
0.6339343570480861 -1.0183452987018011
0.6324668047962066 -1.184718381768031
0.6300287485302803 -1.349656601222051
0.6262428711478925 -1.512392002310403
0.6208060397493185 -1.6718882039001592
0.6134519394587638 -1.8268079473977776
0.6039268566996098 -1.9755277788288634
0.5919505568600344 -2.116187410132673
0.5771894918087819 -2.2467050582648875
0.5592642691056335 -2.364793537501073
0.537873051875655 -2.468015283455668
0.5130748663193877 -2.553898517547086
0.48574745648691653 -2.620165494016383
0.4581495786245432 -2.6651615489646865
0.434499686949931 -2.6886699161539704
0.41084979527532034 -2.665161548964599
0.3832519174129524 -2.6201654940162085
0.35592450758049116 -2.5538985175468363
0.33112632202423675 -2.468015283455361
0.3097351047942733 -2.3647935375007223
0.29180988209114034 -2.246705058264504
0.2770488170399032 -2.1161874101322695
0.2650725172003428 -1.975527778828451
0.25554743444120415 -1.826807947397368
0.2481933341506634 -1.671888203899766
0.24275650275210145 -1.512392002310034
0.238970625369723 -1.349656601221711
0.2365325691038031 -1.1847183817677254
0.2350650168519276 -1.0183452987015338
0.23417413373035198 -0.851073561048914
0.23357038054490328 -0.6832427807809217
0.23312407835892726 -0.5150262423097087
0.23281596571160829 -0.3465548448841241
0.23266545403272837 -0.17802314577282277
0.23266847544590846 -0.009742818225808726
0.678328464982884 -0.009771684862566358
0.6783095716049021 -0.17803460125121148
0.6781391041026351 -0.34653059988692103
0.6777913174900582 -0.5149794620334782
0.6772779916465235 -0.6831778953164119
0.6765643777804279 -0.8509799110678251
0.6754587772655004 -1.0181711530676643
0.6735996860024979 -1.1843634003184103
0.6705468688579788 -1.349008510317607
0.665902113113895 -1.5113577691766076
0.6593014870602014 -1.6703880276229035
0.6504174362924455 -1.824770058540137
0.6389309140891978 -1.9728789042976245
0.6244951604745389 -2.1128428912270465
0.6067117578164539 -2.242565465711891
0.5851462384559879 -2.359756659532951
0.5594251452878821 -2.462025252013319
0.5295839975605346 -2.547053457594377
0.49666225838873496 -2.6128667334286138
0.46334465746768644 -2.6582565297935443
0.4344996869499218 -2.683588439004758
0.4056547164321592 -2.6582565297934577
0.37233711551111753 -2.6128667334284414
0.33941537633932956 -2.5470534575941306
0.30957422861199735 -2.4620252520130155
0.2838531354439089 -2.359756659532604
0.2622876160834611 -2.2425654657115115
0.244504213425394 -2.112842891226647
0.23006845981075305 -1.9728789042972164
0.21858193760752312 -1.8247700585397308
0.20969788683978363 -1.6703880276225136
0.20309726078610407 -1.5113577691762412
0.1984525050420314 -1.349008510317269
0.1953996878975204 -1.184363400318106
0.19354059663452275 -1.0181711530673974
0.19243499611959783 -0.8509799110676002
0.19172138225350308 -0.683177895316228
0.19120805640996885 -0.5149794620333364
0.19086026979739232 -0.34653059988682056
0.1906898022951254 -0.17803460125115309
0.1906709089171435 -0.009771684862550707
0.720339999220926 -0.009785518406644501
0.7203041932244472 -0.17803935450166009
0.7201156890989135 -0.3465027406711
0.7197302780930256 -0.5149280759506039
0.719151799021424 -0.6831057495788494
0.7183191050999252 -0.8508641376176701
0.7169707719698482 -1.0179369953556705
0.7146852266912439 -1.1838945280623725
0.7110139508344495 -1.3481912756645136
0.7055069485920146 -1.5100868288110132
0.6977426725128959 -1.6685693515372926
0.6873293350293527 -1.8223162400010513
0.6738775069016423 -1.9696994828234444
0.656971340226263 -2.1088367647536232
0.6361570328159384 -2.2376203095740133
0.6109629252446175 -2.3537589788110935
0.5810001337041367 -2.4549072266268372
0.5462685713104012 -2.538916634020927
0.5078581484001067 -2.6041672300912753
0.4687633767283751 -2.649968438796295
0.43449968694991276 -2.6773277244739075
0.4002359971714526 -2.6499684387962095
0.3611412254997293 -2.6041672300911056
0.3227308025894485 -2.5389166340206835
0.2879992401957304 -2.454907226626538
0.2580364486552693 -2.353758978810751
0.2328423410839694 -2.2376203095736384
0.21202803367366538 -2.108836764753228
0.19512186699830683 -1.9696994828230407
0.1816700388706167 -1.8223162400006498
0.17125670138709242 -1.6685693515369067
0.16349242530798958 -1.5100868288106497
0.15798542306556745 -1.348191275664178
0.1543141472087825 -1.1838945280620699
0.15202860193018447 -1.0179369953554045
0.15068026880011057 -0.8508641376174453
0.1498475748786129 -0.6831057495786653
0.14926909580701173 -0.5149280759504622
0.14888368480112413 -0.3465027406709995
0.14869518067559073 -0.1780393545016017
0.14865937467911192 -0.009785518406628824
0.7623665510336229 -0.009789263894687816
0.7623207156017772 -0.1780379614266821
0.762118658375484 -0.3464714468293807
0.7616974744881068 -0.5148725903564302
0.7610524709956891 -0.6830251494820796
0.7600850680181312 -0.8507197619633243
0.7584603832480531 -1.0176305786316222
0.7557398838657512 -1.183307392740016
0.7514469406147675 -1.347202406431136
0.745081791716142 -1.5085779723472217
0.736161498239514 -1.6664318223976262
0.7242252860203062 -1.819445458894694
0.7088125663174923 -1.9659873824767073
0.6894359633099499 -2.104165582104189
0.665583332602087 -2.231866730385578
0.636779388889441 -2.3468105975865536
0.6026832268694363 -2.4466993404761084
0.5632995643158236 -2.5295352702480485
0.5195662990897391 -2.594075494926462
0.47458430429035575 -2.6402414164478034
0.4344996869499033 -2.6697933843368262
0.3944150696094538 -2.640241416447719
0.3494330748100802 -2.5940754949262956
0.30569980958401155 -2.529535270247809
0.26631614703041867 -2.446699340475814
0.23221998501043634 -2.346810597586216
0.20341604129781388 -2.231866730385208
0.17956341058997422 -2.1041655821037986
0.1601868075824552 -1.965987382476309
0.14477408787966425 -1.8194454588942974
0.13283787566047756 -1.6664318223972445
0.12391758218386732 -1.508577972346862
0.11755243328525625 -1.3472024064308032
0.11325949003428329 -1.1833073927397153
0.11053899065198855 -1.0176305786313573
0.10891430588191456 -0.8507197619631001
0.10794690290435822 -0.6830251494818956
0.10730189941194106 -0.5148725903562887
0.10688071552456412 -0.34647144682928027
0.10667865829827103 -0.1780379614266237
0.10663282286642539 -0.009789263894672145
0.8044067937610617 -0.009787950810760839
0.8043610698615171 -0.178031692601395
0.8041543359403074 -0.3464373426800398
0.8036986086162095 -0.5148130287202428
0.8029800371890682 -0.6829340424406507
0.8018530853288004 -0.8505361180314683
0.7999324452312064 -1.0172448331352384
0.7967730615435678 -1.1825997278487157
0.7918626358589846 -1.3460412451720611
0.7846505304356135 -1.5068323922572768
0.7745887919496142 -1.6639768062053346
0.7611442643782528 -1.8161588184588393
0.7437800286546886 -1.9617423866421553
0.7219378586687006 -2.098828264056834
0.6950633781078881 -2.22530592331329
0.6626752825003583 -2.3389207616630427
0.6245152406192594 -2.43743892947716
0.5807292793734239 -2.518991109830696
0.5321133709398936 -2.5826260756160275
0.48110688757812103 -2.6289785604044877
0.43449968694989377 -2.660823470724327
0.38789248632167 -2.628978560404405
0.33688600295990856 -2.5826260756158645
0.2882700945263961 -2.518991109830462
0.24448413328058338 -2.4374389294768704
0.2063240913995097 -2.338920761662711
0.17393599579200594 -2.225305923312926
0.14706151523121946 -2.0988282640564497
0.12521934524525757 -1.9617423866417634
0.10785510952171898 -1.8161588184584485
0.094410581950381 -1.6639768062049576
0.08434884346440107 -1.506832392256921
0.07713673804104591 -1.3460412451717314
0.07222631235647496 -1.1825997278484173
0.06906692866884419 -1.0172448331349748
0.06714628857125518 -0.8505361180312446
0.06601933671098953 -0.6829340424404668
0.0653007652838488 -0.5148130287201014
0.0648450379597512 -0.3464373426799394
0.0646383040385416 -0.17803169260133658
0.064592580138997 -0.009787950810745186
0.846455679644602 -0.009786516550254178
0.8464261447538185 -0.1780230562551294
0.8462309072992246 -0.34640162189360457
0.8457397776013991 -0.5147486729749349
0.8449307613988697 -0.6828269133678155
0.8436192009467598 -0.8503058716872814
0.8413937334325479 -1.0167764234885126
0.8377950479603371 -1.1817705605054651
0.8322776033438587 -1.3447094511539741
0.824236449588821 -1.50485327288325
0.813056278855865 -1.6612080159477425
0.7981230456756627 -1.8124585064080472
0.7788206845943664 -1.956965804563273
0.754536152885797 -2.092828352617146
0.7246698398536754 -2.217943624984032
0.6887374173571644 -2.3300976911767415
0.646555468746744 -2.427146426181102
0.5984699262842341 -2.5073605683813893
0.5455242637283768 -2.5699877951246184
0.48941007910091794 -2.616081084683588
0.4344996869498839 -2.6499999999999986
0.37958929479885367 -2.6160810846835076
0.32347511017140734 -2.5699877951244594
0.2705294476155704 -2.50736056838116
0.22244390515308687 -2.427146426180819
0.18026195654269436 -2.330097691176416
0.14432953404621188 -2.217943624983675
0.11446322101411946 -2.092828352616769
0.09017868930557887 -1.9569658045628875
0.07087632822431032 -1.8124585064076628
0.055943095044134035 -1.6612080159473708
0.04476292431119919 -1.5048532728828985
0.036721770556178715 -1.3447094511536477
0.03120432593971372 -1.1817705605051694
0.027605640467511898 -1.0167764234882506
0.025380172953305677 -0.8503058716870583
0.024068612501198287 -0.6828269133676319
0.023259596298669603 -0.5147486729747934
0.022768466600844504 -0.34640162189350426
0.022573229146250588 -0.178023056255071
0.02254369425546734 -0.009786516550238525
SCALARS Stress float 6
LOOKUP_TABLE default
-1096.3326440279307 -1886.0290499933396 -1414.160852148144 -15.99524716578945 0.0 0.0
1250.747479721762 726.5271853154209 904.9839150061084 -24.07316756538227 0.0 0.0
550.3532449274037 115.05409449698952 205.62915890188881 -37.42660751422943 0.0 0.0
459.06041427652286 18.81642548490766 145.05200057853713 -3.0124440518085462 0.0 0.0
569.2618524617096 56.41041111256287 209.7153584322024 0.7247633586571034 0.0 0.0
663.2275259914423 93.06014551561518 305.46555037903 1.2448803366299068 0.0 0.0
768.8799214171064 126.40166602033099 406.51160699734913 0.6226435525371219 0.0 0.0
873.028703744134 175.14613698155662 502.9886964503795 -0.3936138781068308 0.0 0.0
982.7678125746324 235.65058760281448 595.8197828660983 -1.6582468927119312 0.0 0.0
1105.783169200041 313.769174232178 698.5807397269717 -3.0333559548492834 0.0 0.0
1246.7593507631414 413.3780748377211 819.2791352933523 -4.405629342511256 0.0 0.0
1405.681013976998 534.8411879615703 959.260941741876 -5.61867174059733 0.0 0.0
1578.3882816291186 672.0938947188603 1113.7697813511368 -6.390197965712689 0.0 0.0
1759.2760302534364 819.4025065811227 1277.3571711825314 -7.027384068584198 0.0 0.0
1940.1080456897137 968.4551718216863 1441.7699982859965 -7.477465508313312 0.0 0.0
2111.8887893134497 1110.5074481632437 1598.1757840869054 -7.708965437957184 0.0 0.0
2266.003921899796 1237.6757199144681 1738.3894575793558 -7.583333048095512 0.0 0.0
2393.5437416532227 1341.9352149927504 1854.0038613593192 -6.957313128909533 0.0 0.0
2490.1366223561663 1419.8431311054212 1941.0625699772606 -5.831083828438938 0.0 0.0
2544.8110542976774 1461.548656830158 1989.1913669652665 -5.943103778910221 0.0 0.0
2538.9409203404657 1453.3101644508968 1982.45994399826 1.3164580536795256e-11 0.0 0.0
2544.8110542973577 1461.548656829856 1989.1913669648732 5.943103778864465 0.0 0.0
2490.136622357014 1419.8431311063443 1941.0625699777388 5.831083828473856 0.0 0.0
2393.5437416518944 1341.9352149915017 1854.0038613582444 6.957313128998008 0.0 0.0
2266.003921898329 1237.6757199131075 1738.3894575779448 7.583333048290765 0.0 0.0
2111.8887893135557 1110.5074481634456 1598.1757840867433 7.708965437899769 0.0 0.0
1940.108045689547 968.4551718216929 1441.7699982857157 7.477465508225789 0.0 0.0
1759.2760302518325 819.4025065796574 1277.3571711813356 7.027384068635859 0.0 0.0
1578.3882816292028 672.0938947191651 1113.769781350944 6.390197965750412 0.0 0.0
1405.681013975868 534.8411879606377 959.2609417409509 5.6186717406211315 0.0 0.0
1246.7593507622464 413.3780748370583 819.279135292536 4.405629342454841 0.0 0.0
1105.7831691993063 313.7691742316938 698.5807397263325 3.0333559549626283 0.0 0.0
982.7678125734891 235.650587601888 595.8197828652452 1.6582468926373437 0.0 0.0
873.0287037440492 175.14613698175708 502.9886964501656 0.3936138780817142 0.0 0.0
768.879921416148 126.40166601961029 406.51160699657 -0.6226435525516099 0.0 0.0
663.2275259909037 93.06014551535922 305.46555037851186 -1.244880336619305 0.0 0.0
569.2618524613097 56.41041111239754 209.7153584319187 -0.7247633587180058 0.0 0.0
459.0604142761668 18.816425484745494 145.05200057837985 3.012444051711311 0.0 0.0
550.3532449269235 115.0540944966471 205.6291589016073 37.42660751421282 0.0 0.0
1250.7474797212703 726.527185314948 904.983915005532 24.073167565414508 0.0 0.0
-1096.3326440252363 -1886.0290499906846 -1414.1608521455103 15.995247165185983 0.0 0.0
-1396.9691472305935 -2156.4225852002833 -1664.5704918181339 -15.664581634504014 0.0 0.0
848.6219027127188 404.8971285436095 564.3409780772836 -34.34249702209271 0.0 0.0
381.8632460805986 46.239142241414385 126.89342650405584 -30.88992120754767 0.0 0.0
406.91392096925017 2.1170759691051657 122.99534640138825 -16.35200911751825 0.0 0.0
507.3978934405807 24.428320150351144 172.45186790876892 -15.283571988089442 0.0 0.0
598.2233809263953 33.30782153334813 245.43217480048983 -19.42938108417369 0.0 0.0
673.8424109535746 45.894630586054056 325.03018982268304 -21.67321263780977 0.0 0.0
747.691524076613 62.513648845281196 392.2166340475108 -22.42996859168055 0.0 0.0
816.9304081528278 81.789528933447 445.04951258541536 -22.74279582257681 0.0 0.0
885.4153869029014 105.53533243526647 493.7052508569906 -23.06735701649336 0.0 0.0
955.1471039638873 134.5370741712193 543.7586438117589 -23.149896221673096 0.0 0.0
1026.5266245293938 167.96942800001983 596.3396134630941 -22.96781274864926 0.0 0.0
1098.0360060402024 205.22206340756236 650.7196509818075 -22.461436918122214 0.0 0.0
1167.213903931228 241.18072430719167 703.2216862296598 -21.85011578238986 0.0 0.0
1227.9219230918648 270.51706876529505 748.1712835622042 -21.20614951820698 0.0 0.0
1275.2055553091773 288.460248474344 780.7205454506891 -20.324659239423692 0.0 0.0
1305.7444481466905 292.2750167247637 797.8541427393237 -18.95233917747387 0.0 0.0
1319.6906703527138 282.9657909132984 800.1621102122002 -16.926436663598018 0.0 0.0
1316.5049211520895 261.06199200129174 787.7251882245785 -14.394996457139873 0.0 0.0
1276.0648698042087 207.80386402158933 741.5080209407852 -12.743103605533719 0.0 0.0
1203.8090088501776 133.56129616497205 669.3695132482432 1.7336354574126744e-11 0.0 0.0
1276.06486980484 207.8038640222655 741.5080209412067 12.743103605618671 0.0 0.0
1316.5049211513249 261.0619920005489 787.7251882239807 14.394996457222454 0.0 0.0
1319.6906703529735 282.9657909136565 800.1621102124018 16.92643666367739 0.0 0.0
1305.7444481463633 292.2750167245364 797.85414273899 18.95233917759213 0.0 0.0
1275.2055553094444 288.4602484746925 780.7205454508124 20.32465923930792 0.0 0.0
1227.9219230917213 270.5170687653006 748.1712835620449 21.206149518089376 0.0 0.0
1167.2139039306085 241.18072430674263 703.2216862292697 21.850115782494008 0.0 0.0
1098.0360060403664 205.2220634079152 650.7196509818648 22.461436918137984 0.0 0.0
1026.526624528696 167.96942799951614 596.3396134626464 22.967812748636696 0.0 0.0
955.1471039630301 134.53707417056552 543.7586438111309 23.149896221583262 0.0 0.0
885.4153869026867 105.53533243530433 493.7052508568241 23.067357016481182 0.0 0.0
816.9304081517406 81.78952893257231 445.04951258466684 22.74279582256215 0.0 0.0
747.6915240769011 62.51364884586132 392.2166340476025 22.429968591597657 0.0 0.0
673.842410952898 45.894630585644 325.03018982212427 21.673212637782527 0.0 0.0
598.2233809260011 33.307821533253076 245.4321748001168 19.429381084200262 0.0 0.0
507.39789344015395 24.42832015013868 172.45186790851093 15.283571988015618 0.0 0.0
406.9139209690993 2.117075969157669 122.99534640137065 16.35200911739593 0.0 0.0
381.86324608029776 46.23914224109718 126.89342650387765 30.88992120749264 0.0 0.0
848.6219027120386 404.89712854307015 564.3409780766042 34.34249702212461 0.0 0.0
-1396.9691472286202 -2156.4225851982865 -1664.5704918160677 15.664581633910274 0.0 0.0
-1151.805399815848 -1876.983964112464 -1392.21860695797 -54.29501905561703 0.0 0.0
652.2858643194429 313.42938564340545 421.36247282641875 -100.82768816424648 0.0 0.0
269.9433408431955 53.60414930311152 97.06413234475032 -32.51591514749476 0.0 0.0
347.7742351890489 -0.2689788185355493 104.15777237713407 -36.89981120543002 0.0 0.0
462.06617664682113 16.01195949803628 148.4884670167986 -37.51770961032977 0.0 0.0
566.0671997615957 29.265905982059984 217.6550078247391 -38.12049574909777 0.0 0.0
645.2846285986869 43.02603284826632 300.3101255702617 -40.83872987728618 0.0 0.0
720.8130774647008 56.059761572362476 370.489333711423 -42.18395169300998 0.0 0.0
788.5564683395265 72.80265015548412 424.4461066487728 -42.99609157648379 0.0 0.0
853.8427198262149 92.82605074912023 470.7926269097242 -43.60080234984651 0.0 0.0
919.6940728710367 118.1880404968062 517.4124673593391 -43.612574205047565 0.0 0.0
986.9737441846789 148.82665065111146 566.6256149910075 -42.90960797740045 0.0 0.0
1055.317008889169 182.16899145942068 617.5025132176396 -41.865702084844 0.0 0.0
1120.2495992905317 215.22414222412502 666.4575868127915 -40.67444728045936 0.0 0.0
1178.0343145585348 242.0678628358384 708.7090429712804 -39.39095829151323 0.0 0.0
1223.566832101983 258.6102021832259 739.6824708034865 -37.71274612674222 0.0 0.0
1254.6037092184015 263.0876369816121 757.3968921981742 -35.21685396536523 0.0 0.0
1269.2406487041155 254.42992507236426 760.4144959246992 -31.751360141947988 0.0 0.0
1260.79188826094 227.13001298371944 742.7945709828937 -27.56998808572456 0.0 0.0
1235.9352869099935 189.4988372320298 711.9158758444632 -22.931763870105716 0.0 0.0
1146.452796374304 98.39696234637339 623.067017191173 7.570122306788107e-11 0.0 0.0
1235.935286910606 189.49883723265782 711.9158758449345 22.93176387019513 0.0 0.0
1260.7918882598149 227.1300129826617 742.7945709820173 27.56998808577633 0.0 0.0
1269.2406487038902 254.4299250721974 760.4144959246124 31.751360142066293 0.0 0.0
1254.6037092191316 263.087636982468 757.3968921986823 35.216853965451314 0.0 0.0
1223.5668321020407 258.61020218338103 739.6824708035522 37.712746126715814 0.0 0.0
1178.0343145573117 242.06786283470973 708.7090429702534 39.39095829140645 0.0 0.0
1120.2495992908268 215.22414222461254 666.4575868129633 40.67444728051639 0.0 0.0
1055.3170088888016 182.1689914592061 617.502513217359 41.86570208477246 0.0 0.0
986.9737441840574 148.82665065071706 566.625614990616 42.909607977450726 0.0 0.0
919.694072870184 118.18804049615349 517.4124673587462 43.612574205038435 0.0 0.0
853.842719826178 92.82605074931574 470.79262690968113 43.60080234975954 0.0 0.0
788.5564683387586 72.8026501549931 424.4461066482341 42.99609157657815 0.0 0.0
720.8130774645839 56.05976157247144 370.48933371124133 42.18395169291937 0.0 0.0
645.2846285983209 43.02603284821225 300.31012556987486 40.838729877180974 0.0 0.0
566.0671997612873 29.26590598208377 217.6550078244367 38.12049574904208 0.0 0.0
462.06617664641533 16.011959497984208 148.48846701663322 37.51770961030907 0.0 0.0
347.77423518900207 -0.26897881849459426 104.15777237713219 36.89981120532926 0.0 0.0
269.94334084310157 53.604149302780456 97.06413234462295 32.51591514742085 0.0 0.0
652.285864318872 313.42938564311964 421.3624728258605 100.82768816415037 0.0 0.0
-1151.805399813952 -1876.983964110496 -1392.21860695592 54.295019055263914 0.0 0.0
-933.3255055889347 -1627.8319095804798 -1150.1710826941348 -67.79766530845575 0.0 0.0
492.61342226132007 218.63029143341709 302.8375757976354 -144.2827086748717 0.0 0.0
198.20751883144987 49.74612935657029 74.38609445640604 -54.78617545752836 0.0 0.0
290.1738712414384 4.617383124163489 88.43556008411365 -57.165126298609806 0.0 0.0
407.1208071435177 7.790161704289344 125.08250693469134 -61.55272204869861 0.0 0.0
520.1075420073445 24.059503088484444 187.13530220724417 -58.57097048851245 0.0 0.0
614.7108575833568 37.7000493572793 270.346011854025 -61.437772623979676 0.0 0.0
688.8951863115637 49.829087520203345 344.37935391178235 -62.26810741075746 0.0 0.0
756.1669882247829 63.937255579870225 400.76271557268655 -63.06177596528527 0.0 0.0
818.6369084275415 80.63801386658547 445.8662299797861 -63.57927339325561 0.0 0.0
880.3356068972687 102.19033286661411 489.07854835454003 -63.2675197201215 0.0 0.0
943.7957452467008 128.80030104351937 534.5252382671921 -62.125951886293535 0.0 0.0
1007.9760368353702 159.51997601093967 582.0780392027691 -60.50394212269223 0.0 0.0
1069.4622480412154 188.3007364162271 627.1956950528589 -58.912726886814944 0.0 0.0
1123.8182916673372 212.5189696844963 666.4366666627583 -57.08903809963954 0.0 0.0
1168.4813630347578 228.85811756947842 696.8897927914475 -54.65294504978263 0.0 0.0
1200.2773553539762 233.9236511627422 715.2857981229956 -51.29201912765337 0.0 0.0
1215.0759577396254 225.15910688446505 718.3735004988839 -46.81319717696759 0.0 0.0
1210.0604639469668 200.9145330864201 703.9804065442252 -40.93799257214726 0.0 0.0
1193.523394812263 170.91808388661238 680.9450316193662 -32.19721359679783 0.0 0.0
1066.7757870972646 42.61688391112963 555.6744896931726 1.0194156629950157e-10 0.0 0.0
1193.523394811312 170.91808388567318 680.9450316186807 32.19721359687745 0.0 0.0
1210.0604639470737 200.91453308656003 703.9804065443119 40.937992572135286 0.0 0.0
1215.075957739356 225.15910688431885 718.3735004987217 46.81319717707463 0.0 0.0
1200.2773553542552 233.92365116311566 715.2857981231693 51.29201912772364 0.0 0.0
1168.4813630340016 228.858117568786 696.8897927910591 54.65294504977166 0.0 0.0
1123.8182916662236 212.51896968350718 666.4366666619208 57.089038099550805 0.0 0.0
1069.4622480415685 188.300736416751 627.1956950530699 58.91272688691074 0.0 0.0
1007.9760368349903 159.5199760107204 582.0780392025115 60.503942122655474 0.0 0.0
943.79574524673 128.80030104378238 534.5252382671817 62.12595188635658 0.0 0.0
880.3356068969106 102.19033286646089 489.0785483543251 63.267519720132654 0.0 0.0
818.6369084273415 80.63801386659264 445.8662299796105 63.57927339313916 0.0 0.0
756.166988224869 63.93725558023574 400.7627155726833 63.06177596526338 0.0 0.0
688.8951863108763 49.82908751974141 344.3793539112361 62.26810741067208 0.0 0.0
614.7108575831219 37.70004935736211 270.3460118537145 61.43777262393172 0.0 0.0
520.1075420069791 24.059503088454733 187.1353022069764 58.57097048840817 0.0 0.0
407.12080714334934 7.790161704633012 125.08250693474145 61.55272204872022 0.0 0.0
290.17387124146137 4.617383124355776 88.43556008417598 57.165126298498535 0.0 0.0
198.20751883140875 49.74612935647497 74.38609445636511 54.786175457423724 0.0 0.0
492.6134222607714 218.63029143315956 302.8375757971371 144.28270867473776 0.0 0.0
-933.3255055873484 -1627.8319095787326 -1150.1710826923158 67.79766530830103 0.0 0.0
-744.6111618575247 -1410.6282292372252 -938.0034616181014 -67.80650065727531 0.0 0.0
375.0821118670258 136.78765240946726 211.84586267368528 -174.25202472460018 0.0 0.0
146.2184314140865 41.284433633694576 56.25085951433431 -83.91931878047198 0.0 0.0
237.7507745085473 11.03805002693948 74.63729250167168 -78.95339225986837 0.0 0.0
344.47676994724935 4.961984528456102 104.48987024406934 -85.15176258750488 0.0 0.0
467.2068491699909 12.356010531053867 154.35391819209295 -84.57687563657394 0.0 0.0
571.531448808395 30.79995668277821 233.92535771253355 -82.20715999892697 0.0 0.0
651.1185456211634 44.80204818367904 313.6910518766991 -82.65070779080293 0.0 0.0
718.766982237641 55.548960414972065 373.03499414206317 -82.94772423139653 0.0 0.0
778.7786131894472 68.78007080702136 417.9541900842956 -82.97019855440236 0.0 0.0
836.9974377886881 86.28580057088533 458.4004200044196 -82.17929700125299 0.0 0.0
896.1090770299401 108.8268357029633 499.9782129557833 -80.52325745278532 0.0 0.0
956.2944093771173 135.13697989060148 543.4331044493745 -78.52331362833372 0.0 0.0
1013.8118452232777 161.83923721466005 585.5836665410221 -76.4979629614864 0.0 0.0
1065.3947655762522 183.11919274544994 622.0105184039156 -74.226182978708 0.0 0.0
1108.317040712257 197.3544781891252 650.5537181299833 -71.23751157426508 0.0 0.0
1141.0145385673711 203.7708478983754 670.0901783904162 -67.21446225599851 0.0 0.0
1159.2648896755459 198.1398729142712 676.456138430414 -61.9886744485279 0.0 0.0
1159.2529581406845 178.07957135649457 666.6278030116051 -54.38152508368772 0.0 0.0
1146.350707577206 150.2381174013605 646.4488672845952 -41.794661425224646 0.0 0.0
973.1317075138302 -24.504218074118327 475.86648714337554 1.1857004267312732e-10 0.0 0.0
1146.3507075762654 150.23811740040955 646.4488672840421 41.794661425252926 0.0 0.0
1159.2529581402518 178.07957135616354 666.6278030112719 54.381525083851955 0.0 0.0
1159.26488967631 198.13987291512086 676.4561384309935 61.98867444870089 0.0 0.0
1141.0145385671287 203.77084789818807 670.0901783901439 67.21446225590415 0.0 0.0
1108.3170407121395 197.3544781891262 650.5537181300282 71.23751157422929 0.0 0.0
1065.3947655765564 183.1191927459074 622.010518404094 74.22618297873878 0.0 0.0
1013.8118452228828 161.8392372144146 585.5836665407152 76.49796296150569 0.0 0.0
956.2944093770186 135.136979890699 543.4331044492894 78.52331362836783 0.0 0.0
896.1090770297332 108.8268357028951 499.97821295560476 80.52325745272293 0.0 0.0
836.9974377880815 86.28580057045849 458.40042000399075 82.17929700117725 0.0 0.0
778.778613189499 68.78007080736566 417.95419008432225 82.97019855444358 0.0 0.0
718.7669822376197 55.54896041518589 373.03499414195596 82.94772423134226 0.0 0.0
651.1185456207173 44.80204818346239 313.69105187625775 82.65070779066428 0.0 0.0
571.5314488080268 30.79995668273041 233.92535771216012 82.20715999883836 0.0 0.0
467.20684916944674 12.356010530725325 154.35391819175138 84.57687563652023 0.0 0.0
344.47676994708854 4.9619845287037165 104.48987024411096 85.15176258740964 0.0 0.0
237.75077450855676 11.03805002711447 74.63729250172659 78.9533922597836 0.0 0.0
146.21843141411 41.28443363375597 56.25085951435978 83.91931878038139 0.0 0.0
375.082111866526 136.78765240918946 211.84586267325528 174.2520247244017 0.0 0.0
-744.611161856044 -1410.6282292355256 -938.0034616164246 67.80650065720096 0.0 0.0
-579.3861685243297 -1218.1799296954855 -750.4577304914292 -66.74402523749472 0.0 0.0
282.6574516071124 73.78193479777146 142.90296995195217 -190.6745967710698 0.0 0.0
105.9942817885345 29.837222884850142 40.74945140201538 -111.47979227340055 0.0 0.0
189.18605251473335 16.420556398015776 61.683695195570635 -101.16074103243858 0.0 0.0
281.7793978976206 4.4816562437444905 85.68049799852048 -107.51958125460284 0.0 0.0
398.61220265649354 5.362750527954733 124.19182858639691 -109.82891285570433 0.0 0.0
510.12710310026404 23.450914629945935 193.23284033984822 -104.78751077198163 0.0 0.0
606.1422315833361 36.32655431785457 274.2715852947031 -104.37440331872668 0.0 0.0
672.9992029315227 48.040822619095785 339.3327306246207 -102.37123119361284 0.0 0.0
733.4476458721601 57.0476127006733 385.81763050452474 -101.84506627871124 0.0 0.0
788.3116305427736 70.50678242252087 424.3678529446699 -100.3519581301537 0.0 0.0
843.1989245131116 88.8822478772598 462.3974966334377 -98.10686840636757 0.0 0.0
898.975271395479 111.41205146614668 501.98709685141046 -95.68046090098215 0.0 0.0
952.5564544260375 133.78304256144386 540.0912355696574 -93.43599358295766 0.0 0.0
1001.0825125769608 152.97526605809426 574.0100437013316 -90.85892389419081 0.0 0.0
1042.321023289072 166.30484344632072 601.32958654885 -87.29678634283091 0.0 0.0
1075.7306676047033 172.3346596371823 621.0168652660011 -82.86008641816954 0.0 0.0
1099.0273237997872 171.496900081475 632.23401932388 -77.15763440159266 0.0 0.0
1105.7758558004793 157.41572853227856 628.7619715544749 -68.19984794617658 0.0 0.0
1094.9947862269387 129.3969094566344 609.5853049615143 -52.34432019360749 0.0 0.0
865.7484109629825 -101.15788254476016 384.6929311445035 3.752553823233029e-11 0.0 0.0
1094.9947862269655 129.3969094567506 609.585304961605 52.34432019372805 0.0 0.0
1105.7758558002308 157.4157285320656 628.761971554254 68.19984794636552 0.0 0.0
1099.0273237999097 171.4969000816974 632.2340193240444 77.1576344016401 0.0 0.0
1075.7306676043213 172.3346596368355 621.0168652657068 82.86008641814766 0.0 0.0
1042.3210232896502 166.30484344702737 601.3295865492629 87.29678634283704 0.0 0.0
1001.082512578384 152.97526605978237 574.010043702261 90.85892389440116 0.0 0.0
952.5564544248307 133.78304256030262 540.091235568777 93.43599358289295 0.0 0.0
898.9752713953872 111.41205146624773 501.9870968513141 95.6804609010365 0.0 0.0
843.198924512416 88.88224787670356 462.3974966329688 98.1068684063221 0.0 0.0
788.3116305421906 70.50678242214073 424.36785294419013 100.35195813012544 0.0 0.0
733.447645872041 57.04761270083364 385.817630504442 101.84506627874715 0.0 0.0
672.9992029311165 48.04082261892435 339.3327306242589 102.37123119358073 0.0 0.0
606.1422315827871 36.326554317553516 274.2715852942202 104.37440331865096 0.0 0.0
510.12710309991877 23.450914629928107 193.23284033953104 104.78751077189138 0.0 0.0
398.61220265598956 5.362750527830481 124.19182858617587 109.82891285557402 0.0 0.0
281.7793978973558 4.481656243567205 85.6804979983898 107.51958125449313 0.0 0.0
189.18605251467616 16.420556397957238 61.68369519553531 101.16074103227507 0.0 0.0
105.99428178852453 29.837222884899134 40.74945140202709 111.47979227325 0.0 0.0
282.6574516066272 73.78193479746429 142.9029699515734 190.67459677087825 0.0 0.0
-579.3861685230129 -1218.1799296939785 -750.4577304899567 66.74402523740234 0.0 0.0
-437.8931598780519 -1041.3530467034045 -585.6870650804536 -66.63232923523935 0.0 0.0
209.96688210911887 23.59267227690146 90.75131569055242 -200.01646158832497 0.0 0.0
72.97743967235715 18.164697210141316 27.342641064749532 -134.29880882920133 0.0 0.0
143.28442387901242 19.801613098608495 48.92623042423398 -122.04284294059653 0.0 0.0
221.37263120543372 6.078590679791511 68.2061813128984 -127.33782795440607 0.0 0.0
321.85397089538094 -0.6678676310677542 95.87442379414675 -135.6720268064502 0.0 0.0
437.3486927378732 11.15783452596463 149.4294025403532 -131.7108341986815 0.0 0.0
538.8562864568256 29.174558771983047 226.06979422335667 -125.62816266775762 0.0 0.0
620.8473839091566 36.725665038070346 295.70194660598634 -124.06228914206751 0.0 0.0
678.6236043610562 45.76928913212847 346.61249625244744 -119.9397159897604 0.0 0.0
732.7696545316835 54.87486551622189 385.31125174036345 -117.73608040200969 0.0 0.0
783.6705432228007 68.84879740252347 420.493287221454 -114.91014366873641 0.0 0.0
834.7623310673657 87.09981588867691 456.1509509304947 -112.06961234934452 0.0 0.0
884.0313992952748 106.08571224220806 490.6170275099804 -109.58307459507542 0.0 0.0
929.0098076677424 122.3880239969664 521.4613511703791 -106.83730957665747 0.0 0.0
968.215559403882 132.89142482613056 546.4263899003503 -103.20042022874684 0.0 0.0
1001.894852685936 140.7502112079359 567.1973696525854 -98.02882459855314 0.0 0.0
1031.7046187903686 145.09082824482536 584.1447782029652 -92.06011375779441 0.0 0.0
1047.1958334234014 137.72812535330223 588.3403519365593 -82.69080276423242 0.0 0.0
1039.302517797571 109.95901939893952 570.8623321461341 -64.51908872271693 0.0 0.0
742.5081118937453 -187.28408768789586 281.22092955474625 5.1874948781005514e-11 0.0 0.0
1039.3025177977051 109.95901939913946 570.8623321463076 64.51908872292393 0.0 0.0
1047.1958334233861 137.72812535335706 588.3403519365899 82.69080276438521 0.0 0.0
1031.7046187904248 145.09082824502022 584.1447782029861 92.06011375794071 0.0 0.0
1001.8948526853263 140.75021120745444 567.1973696521735 98.02882459867334 0.0 0.0
968.2155594030986 132.8914248254473 546.4263898998191 103.20042022882915 0.0 0.0
929.0098076687589 122.38802399816524 521.4613511710401 106.8373095767947 0.0 0.0
884.0313992941319 106.08571224112339 490.61702750915083 109.58307459494247 0.0 0.0
834.762331066579 87.0998158879846 456.15095092995153 112.06961234929034 0.0 0.0
783.6705432230264 68.84879740301858 420.49328722162915 114.91014366882669 0.0 0.0
732.769654531679 54.87486551642431 385.31125174027324 117.73608040197534 0.0 0.0
678.6236043603074 45.76928913158764 346.6124962519383 119.93971598966701 0.0 0.0
620.8473839089423 36.72566503827163 295.7019466057711 124.06228914217827 0.0 0.0
538.8562864560441 29.17455877142904 226.06979422275398 125.62816266765981 0.0 0.0
437.3486927376409 11.15783452620689 149.429402540205 131.71083419866247 0.0 0.0
321.8539708949293 -0.6678676311024865 95.87442379401554 135.67202680620093 0.0 0.0
221.37263120532714 6.078590679807463 68.20618131286913 127.3378279543727 0.0 0.0
143.28442387896393 19.801613098677784 48.92623042424009 122.0428429403918 0.0 0.0
72.97743967238681 18.164697210229154 27.342641064784786 134.2988088290346 0.0 0.0
209.96688210867302 23.592672276611342 90.75131569022994 200.01646158814765 0.0 0.0
-437.8931598771695 -1041.353046702272 -585.6870650793114 66.63232923514653 0.0 0.0
-313.3166993747195 -889.5405260118423 -442.05203526334185 -76.34613975434438 0.0 0.0
147.5984885656613 -14.118407952969878 50.26085163817496 -200.52615735504648 0.0 0.0
44.36296624583032 8.560644889727985 15.876854458248788 -151.8473459509991 0.0 0.0
99.03144520656855 21.15925992742283 36.058371625924885 -140.19414782232909 0.0 0.0
162.23628248377355 8.71156756338835 51.249060524951275 -144.61600106040078 0.0 0.0
239.25211988702358 -1.0202378930136073 70.93767269870159 -156.14156164426737 0.0 0.0
345.3359211486214 0.9482250268754125 107.23344552188675 -159.52080471020895 0.0 0.0
451.98869305840924 16.154378417434724 168.86349562733955 -149.48615231656657 0.0 0.0
544.0484371286989 27.820905284098107 239.04868378496323 -143.7144295665375 0.0 0.0
612.624619601178 31.07755956517492 294.4683392500812 -139.51584161960267 0.0 0.0
665.3072788117029 38.41105463313214 336.1390554199282 -134.28485003919403 0.0 0.0
713.3669118652435 48.91471295005272 370.80595183356087 -130.67899981192676 0.0 0.0
760.4301728029889 62.87508721729816 403.5818791279357 -127.4779466453649 0.0 0.0
804.620318674295 77.64936221247264 434.02712558220753 -124.8176203269945 0.0 0.0
845.8739553709593 90.63277859945754 461.6483541192553 -122.11794571439039 0.0 0.0
882.4693099410242 100.12333022164198 485.0120663179998 -118.49535500305251 0.0 0.0
915.7150415647179 105.96544728354473 504.7346755988232 -113.1251995126081 0.0 0.0
950.8908773068108 115.43121249903567 526.7475968247176 -106.50026115221638 0.0 0.0
979.0840530972406 120.068925168178 543.1562367794371 -97.51574890787546 0.0 0.0
978.3539285019864 95.50755869320491 531.1639625777296 -79.13507312495473 0.0 0.0
597.6293182479699 -283.0288867631165 162.70103529391372 3.2439828601127374e-11 0.0 0.0
978.3539285013736 95.5075586927137 531.163962577384 79.1350731251049 0.0 0.0
979.0840530977518 120.06892516888487 543.1562367798277 97.51574890823633 0.0 0.0
950.89087730659 115.43121249881924 526.7475968244878 106.50026115233841 0.0 0.0
915.7150415642196 105.96544728317076 504.7346755983753 113.12519951264794 0.0 0.0
882.4693099400963 100.12333022078674 485.0120663174388 118.49535500306568 0.0 0.0
845.8739553714408 90.63277860019215 461.64835411960496 122.11794571454436 0.0 0.0
804.6203186736356 77.64936221196255 434.02712558174966 124.81762032711751 0.0 0.0
760.43017280275 62.87508721722915 403.58187912770853 127.47794664532721 0.0 0.0
713.3669118652977 48.914712950360794 370.80595183364744 130.67899981204073 0.0 0.0
665.3072788111984 38.41105463270982 336.13905541952346 134.28485003911754 0.0 0.0
612.624619600844 31.077559565062796 294.46833924981104 139.51584161947375 0.0 0.0
544.0484371280971 27.8209052837111 239.0486837845087 143.71442956655144 0.0 0.0
451.98869305810086 16.154378417573106 168.86349562711607 149.4861523165285 0.0 0.0
345.3359211484214 0.9482250272760182 107.23344552188622 159.52080471024152 0.0 0.0
239.25211988655607 -1.020237893327438 70.93767269848732 156.1415616440415 0.0 0.0
162.23628248360765 8.711567563231172 51.249060524852354 144.61600106028757 0.0 0.0
99.03144520653632 21.15925992755394 36.05837162595423 140.1941478221638 0.0 0.0
44.362966245788826 8.56064488973389 15.87685445823815 151.8473459508329 0.0 0.0
147.59848856535012 -14.118407953141812 50.26085163797234 200.52615735481396 0.0 0.0
-313.3166993739318 -889.5405260107058 -442.0520352623806 76.34613975440065 0.0 0.0
-222.29524553256036 -741.8797064098567 -329.68437631225646 -85.64328126497 0.0 0.0
93.8702168240916 -44.342938018031106 19.589536024904078 -194.77823670122413 0.0 0.0
17.447504403540606 2.06517502168616 5.855435999053113 -164.49181701012068 0.0 0.0
56.15284615998059 21.01849365512969 23.151032492231582 -154.7607769458105 0.0 0.0
102.80346278178061 11.547682543426486 34.282692236295865 -158.31659348485232 0.0 0.0
157.4790907739927 1.454578028566598 47.53877608700352 -170.96331743102155 0.0 0.0
235.1904112801372 -3.380130884630436 69.15087809638487 -184.76193216425511 0.0 0.0
337.34170892471815 -0.6892536283329345 107.44054586899595 -180.8973926427101 0.0 0.0
436.3513348348342 10.794245209322717 164.10086365849244 -165.8235919274132 0.0 0.0
514.9225278001335 16.222868501660272 220.10030083316477 -156.4612507673417 0.0 0.0
573.7119297666876 21.118035609382545 266.1939566763908 -149.19374690420707 0.0 0.0
621.7221201801059 27.326778509257224 302.2933604722276 -144.8272554958291 0.0 0.0
665.5732242926122 38.11833202708927 334.8370527779628 -141.45234233031766 0.0 0.0
704.9953057419989 48.79817063304219 362.7144646754622 -138.7636470411494 0.0 0.0
741.4788964982797 58.36083836651185 387.36746873469986 -136.28708827098052 0.0 0.0
775.6601184554604 66.05848276473174 409.2376961166972 -133.24361163348996 0.0 0.0
808.7814750945405 72.14941857357246 429.61909374906566 -128.12263424194097 0.0 0.0
844.4673374684567 80.7855433002245 451.8457891219316 -120.57452722084179 0.0 0.0
887.0631789240457 96.65195602012219 480.6340488539834 -112.03725503175215 0.0 0.0
907.9661697649989 88.89493813700481 488.39907482056594 -97.44329732862174 0.0 0.0
422.63609050967875 -385.0734520059075 26.999467477985107 6.642153493885417e-11 0.0 0.0
907.966169765144 88.89493813737556 488.3990748207185 97.44329732888323 0.0 0.0
887.0631789244911 96.65195602071857 480.63404885437694 112.03725503214037 0.0 0.0
844.4673374685868 80.78554330052413 451.84578912197236 120.57452722103662 0.0 0.0
808.781475093873 72.14941857284241 429.6190937484581 128.12263424194018 0.0 0.0
775.6601184549392 66.05848276425604 409.23769611636175 133.24361163345714 0.0 0.0
741.4788964984612 58.360838366791626 387.36746873488687 136.2870882709259 0.0 0.0
704.9953057415904 48.79817063281348 362.7144646751746 138.76364704122486 0.0 0.0
665.5732242932638 38.11833202805138 334.83705277836754 141.45234233047807 0.0 0.0
621.7221201795107 27.326778508644182 302.29336047175036 144.82725549571379 0.0 0.0
573.7119297662441 21.11803560911608 266.19395667604533 149.19374690413662 0.0 0.0
514.9225278001877 16.222868502066813 220.100300833138 156.4612507672942 0.0 0.0
436.3513348338986 10.79424520844505 164.1008636578322 165.8235919273277 0.0 0.0
337.3417089246302 -0.6892536278678865 107.44054586904275 180.89739264281803 0.0 0.0
235.19041127984264 -3.3801308844727496 69.1508780963584 184.76193216402697 0.0 0.0
157.47909077371517 1.4545780283200527 47.53877608686075 170.96331743072352 0.0 0.0
102.80346278172348 11.547682543267582 34.282692236229416 158.31659348462415 0.0 0.0
56.152846159977464 21.018493655161674 23.15103249224022 154.7607769456958 0.0 0.0
17.447504403576687 2.065175021900088 5.855435999127765 164.4918170099279 0.0 0.0
93.87021682376891 -44.34293801824074 19.589536024713183 194.77823670100275 0.0 0.0
-222.29524553190365 -741.8797064088229 -329.6843763115109 85.64328126503597 0.0 0.0
-152.23648815185516 -615.6400267262169 -242.72959880569036 -101.95127928671411 0.0 0.0
45.69545152949876 -65.26348270246302 -4.239994391230759 -183.0288360246048 0.0 0.0
-8.202350997857032 -1.1445024772969687 -2.803971777133377 -172.3828000133671 0.0 0.0
14.356882205151418 19.88099060635813 10.271649929043308 -165.23153339788078 0.0 0.0
43.644106322792624 14.040601950728806 17.301996082717185 -167.97397401692945 0.0 0.0
76.03518840839108 4.577777362147406 24.07749598151332 -181.92413189224686 0.0 0.0
116.76354134419377 -0.7131531501350516 34.71992078703385 -197.50079329480207 0.0 0.0
178.27233114393496 -3.5740867633174553 52.470914267115795 -203.8441100391244 0.0 0.0
263.34684825145996 -8.952514129855205 78.50155825134637 -197.33603288119085 0.0 0.0
351.4928001205491 -17.07368355291866 109.14930697652794 -182.7437771928459 0.0 0.0
419.9317538343548 -16.394409712685153 143.31872243070376 -168.76448993607866 0.0 0.0
467.10896796098734 -8.374425581735636 175.5901880046064 -158.60288409169925 0.0 0.0
506.83188848758977 5.488872274305386 206.50261716172915 -154.01667861032783 0.0 0.0
543.090214413415 16.471734506513226 234.69748911509544 -152.0455693393272 0.0 0.0
575.3166252927019 24.814596184626772 260.3557692017835 -151.19390764185508 0.0 0.0
606.7228812074974 32.08278255459501 284.88053712799996 -151.13905272998613 0.0 0.0
640.5982707988384 38.03969529802575 310.0604738395692 -148.01064884490802 0.0 0.0
678.2767313423043 42.715203415890414 335.68143704564443 -139.8643139777585 0.0 0.0
724.2848856048894 52.32471605983835 364.917881215632 -128.95032808562303 0.0 0.0
792.4850624556103 81.75402859303159 416.14069338553065 -121.22937384751569 0.0 0.0
184.57593568706125 -491.59786521491276 -139.2703828804821 1.113420466936077e-11 0.0 0.0
792.4850624560847 81.75402859380117 416.1406933860034 121.2293738478231 0.0 0.0
724.2848856043063 52.32471605916897 364.9178812152892 128.95032808585705 0.0 0.0
678.276731343119 42.715203416975534 335.68143704622713 139.86431397803833 0.0 0.0
640.5982707976526 38.03969529636699 310.060473838683 148.01064884492652 0.0 0.0
606.7228812073197 32.08278255471358 284.88053712792475 151.13905272994776 0.0 0.0
575.3166252925002 24.81459618424593 260.3557692015991 151.1939076418891 0.0 0.0
543.09021441241 16.471734505114725 234.697489114398 152.04556933925215 0.0 0.0
506.8318884878395 5.488872274818302 206.5026171619402 154.0166786103839 0.0 0.0
467.1089679606851 -8.37442558194036 175.59018800436883 158.60288409166026 0.0 0.0
419.93175383477234 -16.394409711735825 143.31872243104033 168.76448993613434 0.0 0.0
351.49280012038315 -17.07368355254349 109.1493069765645 182.74377719287511 0.0 0.0
263.346848251203 -8.952514129784229 78.50155825126724 197.33603288122612 0.0 0.0
178.272331143343 -3.5740867639427147 52.470914266760644 203.84411003918447 0.0 0.0
116.76354134403769 -0.7131531501310664 34.71992078698725 197.50079329459268 0.0 0.0
76.03518840810506 4.577777361677754 24.077495981288944 181.924131891982 0.0 0.0
43.64410632285163 14.04060195088081 17.301996082780448 167.97397401674655 0.0 0.0
14.356882205058893 19.880990606103218 10.27164992893894 165.23153339766964 0.0 0.0
-8.20235099778491 -1.1445024770019807 -2.8039717770233943 172.38280001314624 0.0 0.0
45.695451529148016 -65.26348270265966 -4.239994391414102 183.02883602432547 0.0 0.0
-152.23648815142445 -615.6400267254096 -242.7295988052057 101.95127928673989 0.0 0.0
-114.83394029007347 -496.6104514891563 -184.87974875193873 -109.6385516964253 0.0 0.0
6.58926202139205 -78.19290897460941 -21.280495092103777 -168.53733353804242 0.0 0.0
-31.98336991407639 -2.66749788950099 -10.391955216769567 -176.24113050553967 0.0 0.0
-26.15822771220928 18.474252017606883 -2.304098339060069 -171.47874967861932 0.0 0.0
-14.68743273369745 16.041473664118904 0.4074634491977178 -173.48640321846716 0.0 0.0
-6.37249288846626 7.981220959694583 0.48585841807142227 -185.93334814116122 0.0 0.0
-2.465339828603712 1.7589092755031341 -0.2148418019275118 -202.55505282108376 0.0 0.0
-0.5930097073019738 0.17723638598920477 -0.1252340833243668 -208.43090281531207 0.0 0.0
-0.07018902168652374 -0.08840528214821042 -0.046791438420731524 -202.26345401964736 0.0 0.0
0.10573659594132323 0.01309751791541558 0.04768017281865866 -190.7739305115624 0.0 0.0
0.07442738459542397 -0.26428293565829897 -0.148194860807763 -188.22608288458622 0.0 0.0
-0.961609600308023 0.5839225397104322 0.013135630830952039 -185.66796661119832 0.0 0.0
-1.916021466972083 0.7047017427050903 0.05568153249791408 -181.69272221044648 0.0 0.0
-1.8333733534587537 1.0393435992613789 0.40337723451347074 -173.73999819968265 0.0 0.0
2.177742682795966 3.0819752622465657 1.1901331813048586 -167.43922206715683 0.0 0.0
17.582512793704694 7.8504692207057545 3.6096202548986582 -161.77728056180345 0.0 0.0
55.57116774571034 17.399549462629288 9.732165435484276 -156.41322069010275 0.0 0.0
137.49253920534522 22.26633013912857 13.705928336202746 -148.73983664409477 0.0 0.0
334.5410789436236 -35.419373231246595 29.85900575411435 -142.7013109864562 0.0 0.0
510.4861052448719 -8.871222111397273 183.3285537421396 -171.69147340415043 0.0 0.0
-396.22247404473524 -690.0318052816214 -469.29663931758915 -3.0809133022557944e-11 0.0 0.0
510.4861052444842 -8.8712221119317 183.32855374184 171.691473404266 0.0 0.0
334.5410789431651 -35.41937323166715 29.859005753996385 142.70131098702933 0.0 0.0
137.492539205601 22.26633013932485 13.705928336395957 148.73983664466397 0.0 0.0
55.571167745087855 17.399549461754823 9.732165434941223 156.4132206901906 0.0 0.0
17.58251279359601 7.850469220304696 3.6096202546943488 161.77728056180325 0.0 0.0
2.1777426831862527 3.0819752626150603 1.1901331816036915 167.4392220671274 0.0 0.0
-1.833373353538633 1.0393435987673385 0.4033772343141351 173.73999819961656 0.0 0.0
-1.916021466194053 0.7047017430646996 0.05568153284677635 181.6927222106494 0.0 0.0
-0.9616095995763985 0.583922540194564 0.013135631202981557 185.66796661113858 0.0 0.0
0.07442738530625093 -0.26428293492265453 -0.14819486037769636 188.22608288452847 0.0 0.0
0.10573659629623222 0.013097518152703103 0.04768017299684679 190.77393051147718 0.0 0.0
-0.07018902141421535 -0.08840528192337338 -0.046791438264971674 202.26345401966805 0.0 0.0
-0.5930097072387674 0.17723638588198254 -0.12523408333562447 208.43090281527995 0.0 0.0
-2.46533982844087 1.7589092757676519 -0.21484180179911982 202.55505282085022 0.0 0.0
-6.37249288858971 7.981220959308716 0.4858584179183567 185.93334814088698 0.0 0.0
-14.687432733623481 16.04147366417428 0.4074634492362528 173.48640321825687 0.0 0.0
-26.15822771236648 18.474252017182188 -2.3040983392340073 171.47874967843978 0.0 0.0
-31.983369913978223 -2.6674978893317878 -10.391955216688983 176.24113050541888 0.0 0.0
6.589262021257872 -78.1929089748289 -21.280495092206586 168.5373335379121 0.0 0.0
-114.83394029000155 -496.61045148838593 -184.8797487517226 109.63855169629895 0.0 0.0
-95.09438852115807 -389.70715480106225 -145.41849975095317 -106.03524105216974 0.0 0.0
-18.572504791697554 -85.11155524015568 -31.108263840712752 -157.47883191847143 0.0 0.0
-54.134886446081815 -4.05655943975276 -17.458065630843286 -176.20509112466942 0.0 0.0
-65.02953514568243 17.185503409676496 -14.34864206826799 -173.3714058435184 0.0 0.0
-71.95023235728566 17.306079134978173 -16.39195984738956 -174.04166276403183 0.0 0.0
-87.70996575383711 11.1679736176483 -22.914599750483614 -184.00940474086553 0.0 0.0
-121.63979427549671 4.364343582418171 -35.04179149406578 -199.07756508395997 0.0 0.0
-179.4314525669237 3.8522159220050978 -52.758437577123665 -204.09443097623793 0.0 0.0
-263.3120109435064 8.691536219865036 -78.59921266104692 -197.32042167366663 0.0 0.0
-351.29677092496513 17.056195377999437 -109.0850512724056 -182.70319646563968 0.0 0.0
-420.57809969960437 16.719622995740373 -143.16097077007328 -168.88383034497292 0.0 0.0
-467.2237245290878 8.160849415934745 -175.99515717416716 -158.39542436614076 0.0 0.0
-507.8175683206608 -5.338972410072429 -207.47534751675647 -153.55458544372675 0.0 0.0
-543.9777109973884 -14.450047810505623 -234.99257356446716 -151.37741212680316 0.0 0.0
-571.6281738813861 -18.22862490220524 -255.1443517115545 -150.85389446654648 0.0 0.0
-588.7741291089725 -16.77515633817889 -264.3451180199994 -153.28004652618145 0.0 0.0
-593.2084296133331 -10.2985648634386 -260.12595059439155 -158.4971837802111 0.0 0.0
-588.6741031487027 -2.903473037433031 -240.5266422889834 -169.1041361818167 0.0 0.0
-572.8348776065665 38.86863369806247 -191.7866187861481 -180.62961922962992 0.0 0.0
-329.1029053608311 93.70563602376296 -47.766537598475765 -128.20364696086662 0.0 0.0
-928.4665880465166 -915.8289953097997 -920.1509811126723 -1.03518971172889e-10 0.0 0.0
-329.102905361117 93.70563602302097 -47.76653759875305 128.20364696143895 0.0 0.0
-572.8348776069099 38.86863369761637 -191.7866187864176 180.62961922995524 0.0 0.0
-588.6741031472902 -2.9034730359823584 -240.5266422879624 169.10413618171316 0.0 0.0
-593.2084296137227 -10.298564864009442 -260.125950594676 158.49718378047007 0.0 0.0
-588.774129109516 -16.775156339220942 -264.34511802041493 153.280046526243 0.0 0.0
-571.628173880616 -18.228624901329113 -255.14435171096034 150.85389446652889 0.0 0.0
-543.9777109966847 -14.450047809738969 -234.992573563985 151.37741212679617 0.0 0.0
-507.81756832010615 -5.338972409547388 -207.4753475163767 153.55458544372829 0.0 0.0
-467.2237245286071 8.16084941620625 -175.99515717380967 158.39542436621045 0.0 0.0
-420.57809969909067 16.719622995966077 -143.16097076971226 168.883830344967 0.0 0.0
-351.2967709240887 17.056195378313888 -109.08505127201309 182.70319646551354 0.0 0.0
-263.31201094276105 8.691536220103075 -78.59921266073731 197.3204216737056 0.0 0.0
-179.43145256642336 3.852215922245611 -52.75843757689627 204.09443097622872 0.0 0.0
-121.63979427507137 4.364343582729161 -35.04179149384408 199.07756508377952 0.0 0.0
-87.70996575375132 11.167973617308984 -22.9145997505641 184.00940474059993 0.0 0.0
-71.95023235716292 17.306079134982273 -16.391959847355576 174.0416627637958 0.0 0.0
-65.02953514561035 17.185503409705813 -14.348642068239077 173.37140584336177 0.0 0.0
-54.13488644602995 -4.056559439694674 -17.458065630813145 176.20509112459533 0.0 0.0
-18.572504791789473 -85.11155524029519 -31.108263840782566 157.4788319183192 0.0 0.0
-95.09438852098083 -389.70715480056543 -145.4184997507464 106.03524105206654 0.0 0.0
-77.74128318037428 -298.5452724898441 -112.8859667010655 -97.00829874099442 0.0 0.0
-35.72178138082174 -85.3526128360913 -36.32015235224436 -146.3688226849242 0.0 0.0
-74.65046842293705 -5.239994047641863 -23.963888996358754 -172.3265400309151 0.0 0.0
-102.02867863262584 15.749732239257105 -25.896272749930183 -170.62717681361693 0.0 0.0
-127.94748370018493 17.98987709457482 -32.94561850590932 -170.27936671503642 0.0 0.0
-168.31792149039765 14.216470905272383 -45.940616456895256 -178.04027102978952 0.0 0.0
-237.70278182156608 6.26347254676953 -69.3828348105931 -184.23591438340074 0.0 0.0
-337.53550518669914 0.5483869197651252 -107.6994938073561 -181.10115156774188 0.0 0.0
-436.3996576633364 -11.055004737770197 -164.19475297076244 -165.8669382288694 0.0 0.0
-514.883741271779 -16.28912098510957 -220.0933133787093 -156.40744381428294 0.0 0.0
-573.6565184167579 -21.058884659538755 -266.15457830644675 -149.12564863553715 0.0 0.0
-621.8646725012173 -27.226144619091528 -302.3941538811803 -144.5867554331863 0.0 0.0
-666.1072122605887 -37.79806648814647 -335.0900674785597 -140.70547091981712 0.0 0.0
-705.2054479212402 -47.338363505961496 -362.33991090597624 -137.55208621795958 0.0 0.0
-737.386811281446 -52.77604727038043 -382.91123513314324 -135.77418387291365 0.0 0.0
-758.733333488239 -51.30205935758316 -393.7158098078487 -136.5270463650927 0.0 0.0
-767.3486037234945 -43.24470346129678 -394.066342217319 -140.59068021629204 0.0 0.0
-762.1377405385565 -30.986535420311014 -385.00220576289644 -148.10841431392595 0.0 0.0
-724.0367876386658 5.150887819176205 -349.3126508078443 -157.14427147801973 0.0 0.0
-656.2726767125789 58.98803797805846 -292.35427085275677 -162.53800978103115 0.0 0.0
-1660.4393260472477 -1195.720106146685 -1384.174490765475 4.3804959659610176e-11 0.0 0.0
-656.2726767119046 58.98803797852423 -292.3542708522997 162.53800978129246 0.0 0.0
-724.0367876389213 5.1508878184856 -349.31265080802984 157.14427147845697 0.0 0.0
-762.137740537323 -30.98653541901156 -385.00220576214065 148.1084143141063 0.0 0.0
-767.3486037234728 -43.244703461472135 -394.06634221731133 140.59068021642503 0.0 0.0
-758.7333334888117 -51.30205935844647 -393.71580980822864 136.5270463651576 0.0 0.0
-737.3868112817098 -52.77604727082766 -382.9112351332904 135.77418387298954 0.0 0.0
-705.2054479211217 -47.33836350609461 -362.33991090594265 137.55208621804152 0.0 0.0
-666.1072122605988 -37.79806648835927 -335.09006747858865 140.70547091988257 0.0 0.0
-621.8646725006804 -27.22614461882158 -302.3941538807592 144.58675543315735 0.0 0.0
-573.6565184162569 -21.05888465934737 -266.1545783061032 149.12564863545973 0.0 0.0
-514.8837412715255 -16.289120985244963 -220.093313378476 156.40744381424378 0.0 0.0
-436.3996576624056 -11.055004737056732 -164.19475297009132 165.86693822881676 0.0 0.0
-337.5355051862697 0.5483869195743334 -107.69949380719294 181.10115156784545 0.0 0.0
-237.70278182067275 6.263472547405322 -69.38283481015392 184.2359143831596 0.0 0.0
-168.31792149019307 14.216470904953427 -45.94061645693203 178.0402710295726 0.0 0.0
-127.94748370009293 17.98987709426086 -32.94561850597616 170.27936671487987 0.0 0.0
-102.0286786323227 15.749732239572634 -25.89627274974895 170.62717681343716 0.0 0.0
-74.65046842290285 -5.239994047640329 -23.96388899634809 172.32654003078227 0.0 0.0
-35.72178138087684 -85.35261283617257 -36.32015235228602 146.36882268473158 0.0 0.0
-77.74128318025254 -298.5452724894844 -112.88596670092105 97.00829874085551 0.0 0.0
-62.76263439296479 -221.01695592316474 -85.13387709483885 -85.4123511921188 0.0 0.0
-48.55946492095842 -80.51816428493768 -38.72363834543309 -133.71706400793227 0.0 0.0
-93.64508945587292 -6.004936996859998 -29.893400616208933 -164.35612473550395 0.0 0.0
-137.4232943041365 14.295350449768144 -36.91991352362751 -164.13141582096415 0.0 0.0
-182.0108316085706 17.836524071812722 -49.16058936782335 -161.49097030471327 0.0 0.0
-244.91228478609133 14.010389155908499 -69.20989185460739 -161.72561995115518 0.0 0.0
-346.3984611752666 2.5602499085745176 -106.8155991916947 -162.40335068821773 0.0 0.0
-452.2324915796506 -16.41114744538932 -169.02702991687113 -150.0582610555304 0.0 0.0
-544.0882656160619 -28.096352001398813 -239.1384660384326 -143.71438151406517 0.0 0.0
-612.6292705639561 -31.122519633962334 -294.5032491133364 -139.48094124112504 0.0 0.0
-665.166374615854 -38.27973539516956 -336.02893154431604 -134.22986700533863 0.0 0.0
-713.2988487386974 -48.674619474588454 -370.6957686623706 -130.4205964014761 0.0 0.0
-760.6763437500733 -62.54342094331011 -403.59584377777327 -126.61662367410207 0.0 0.0
-804.998580213653 -76.83302455931197 -433.92854371727674 -123.26834269940748 0.0 0.0
-843.3273234480291 -86.90825888622591 -458.7740639954858 -121.17474147608861 0.0 0.0
-869.6503077241102 -88.63101729578393 -473.15604668764945 -121.88211815098222 0.0 0.0
-880.4951878733398 -79.3055841507392 -474.06051209277496 -126.5150466301472 0.0 0.0
-865.773887269992 -51.98818059827828 -453.3702330628093 -133.6011022492008 0.0 0.0
-821.1046604309538 -3.9101948979001833 -408.21484401718186 -139.98978479294252 0.0 0.0
-708.1278987248811 96.83788519238337 -307.05691154571025 -145.08746333724392 0.0 0.0
-2103.013879764298 -1435.890266091254 -1735.6244931944618 1.0260947647111607e-10 0.0 0.0
-708.1278987239489 96.8378851932785 -307.05691154505837 145.0874633374275 0.0 0.0
-821.1046604302429 -3.910194897305857 -408.214844016681 139.98978479306697 0.0 0.0
-865.7738872696382 -51.988180598090125 -453.37023306258317 133.60110224938222 0.0 0.0
-880.4951878728904 -79.30558415033973 -474.06051209247505 126.51504663020762 0.0 0.0
-869.6503077237352 -88.63101729547759 -473.156046687349 121.88211815089883 0.0 0.0
-843.3273234485024 -86.90825888694357 -458.7740639957244 121.17474147617013 0.0 0.0
-804.9985802130111 -76.83302455885563 -433.92854371685985 123.26834269944544 0.0 0.0
-760.6763437504324 -62.54342094398417 -403.59584377804515 126.61662367424513 0.0 0.0
-713.2988487376614 -48.67461947371729 -370.69576866167654 130.4205964014228 0.0 0.0
-665.166374615948 -38.27973539563667 -336.0289315444191 134.22986700542228 0.0 0.0
-612.6292705634798 -31.122519633724977 -294.50324911290704 139.48094124095903 0.0 0.0
-544.088265615576 -28.0963520012452 -239.13846603800357 143.71438151405746 0.0 0.0
-452.23249157878047 -16.41114744478283 -169.0270299162508 150.05826105544978 0.0 0.0
-346.3984611746792 2.560249908783909 -106.81559919140284 162.4033506882451 0.0 0.0
-244.91228478555564 14.010389155815451 -69.20989185450672 161.72561995095117 0.0 0.0
-182.01083160835844 17.836524071585664 -49.16058936783819 161.4909703044715 0.0 0.0
-137.4232943040048 14.295350449715897 -36.91991352360368 164.13141582076886 0.0 0.0
-93.64508945569938 -6.00493699663595 -29.893400616089764 164.35612473532885 0.0 0.0
-48.55946492097869 -80.51816428500253 -38.723638345458596 133.71706400769318 0.0 0.0
-62.76263439287182 -221.01695592292648 -85.13387709473947 85.41235119203904 0.0 0.0
-51.09708075923912 -156.21775201268352 -62.19444983157677 -72.94236363142866 0.0 0.0
-58.64004849536525 -72.01131348346846 -39.195408593650114 -119.11690077576414 0.0 0.0
-111.52789720203529 -6.199063069254011 -35.31863909684509 -152.41762893796442 0.0 0.0
-170.96316102905396 12.374409119733453 -47.58357261587871 -152.86672026634997 0.0 0.0
-233.86452482735106 16.677062325949986 -64.96177693813772 -148.26887283693657 0.0 0.0
-323.92397812987497 12.79791104869825 -93.34538532151933 -144.0157930987457 0.0 0.0
-434.60671663244 -9.605155116299203 -148.9280197095174 -132.37172220613257 0.0 0.0
-538.8998854674664 -29.62153087467895 -226.14360485968515 -125.94462772917565 0.0 0.0
-620.9905829564623 -37.02489561454058 -295.87950331341517 -124.03888641948306 0.0 0.0
-678.6146994886404 -45.76806109722096 -346.6395878052045 -119.91258713579403 0.0 0.0
-732.5890198463084 -54.653383378809664 -385.1355606999698 -117.70677945034241 0.0 0.0
-783.3146206056444 -68.3778063483733 -420.11849486420454 -114.65804926114208 0.0 0.0
-834.51281047589 -86.49452760805488 -455.75766668189385 -111.2119503513756 0.0 0.0
-884.5370259959841 -105.82014998986195 -490.7836630752312 -107.9559156586962 0.0 0.0
-929.1160552175405 -121.61308790303916 -521.2431335914757 -105.63256579472875 0.0 0.0
-961.2741297695571 -126.54941866187613 -540.0211409281585 -106.09526843442539 0.0 0.0
-969.9959537889843 -114.1076323120241 -538.4369322652485 -110.02365543797248 0.0 0.0
-945.4850500996205 -73.43800966961976 -506.2876147510776 -116.31197366122657 0.0 0.0
-877.3447356781047 1.115983045683663 -436.2939455730402 -121.68450655985615 0.0 0.0
-737.0414030594171 131.09788657838533 -305.1531056289963 -125.60584704709997 0.0 0.0
-2449.0166392268266 -1677.5322619280826 -2036.444254311782 5.526246127374179e-11 0.0 0.0
-737.0414030594166 131.09788657829708 -305.15310562910395 125.60584704723996 0.0 0.0
-877.3447356770555 1.1159830466504417 -436.2939455722519 121.68450655999885 0.0 0.0
-945.4850500989198 -73.43800966904135 -506.28761475061884 116.3119736614282 0.0 0.0
-969.9959537887426 -114.10763231189182 -538.4369322651241 110.02365543799658 0.0 0.0
-961.2741297693689 -126.54941866175729 -540.0211409280182 106.09526843442009 0.0 0.0
-929.1160552169748 -121.61308790266796 -521.2431335911092 105.63256579471161 0.0 0.0
-884.5370259954881 -105.82014998955583 -490.78366307490444 107.95591565886019 0.0 0.0
-834.5128104762687 -86.49452760874624 -455.7576666821624 111.211950351531 0.0 0.0
-783.3146206046587 -68.37780634752218 -420.1184948635578 114.65804926107029 0.0 0.0
-732.5890198469975 -54.653383379895935 -385.13556070046315 117.70677945041668 0.0 0.0
-678.6146994881458 -45.768061096944 -346.6395878048283 119.91258713571997 0.0 0.0
-620.9905829560199 -37.024895614504445 -295.87950331301727 124.03888641949264 0.0 0.0
-538.8998854662933 -29.621530873677926 -226.1436048587992 125.9446277290617 0.0 0.0
-434.6067166318875 -9.60515511616894 -148.92801970915835 132.37172220606297 0.0 0.0
-323.92397812945626 12.79791104861128 -93.34538532142143 144.0157930986534 0.0 0.0
-233.86452482711846 16.677062325987414 -64.9617769380573 148.2688728367991 0.0 0.0
-170.96316102883594 12.3744091197946 -47.58357261579671 152.86672026619172 0.0 0.0
-111.52789720184614 -6.199063069185572 -35.31863909676757 152.417628937912 0.0 0.0
-58.64004849528921 -72.01131348347549 -39.19540859362941 119.11690077559385 0.0 0.0
-51.09708075917403 -156.21775201251896 -62.194449831507875 72.94236363129704 0.0 0.0
-42.74724374304032 -103.61717537489871 -43.9093257353817 -60.08891074719101 0.0 0.0
-66.73581575687139 -61.17186131740425 -38.372303122282695 -102.62330637852412 0.0 0.0
-128.43884468049902 -5.708852153931644 -40.24495433661642 -136.56910170250865 0.0 0.0
-202.81821316714553 10.358867613512068 -57.73700451928744 -137.59848828642023 0.0 0.0
-283.45550847414086 13.194941630043104 -80.98956603553722 -129.50786355418998 0.0 0.0
-395.711061663613 5.62882811186277 -120.51683499786647 -119.44883850887257 0.0 0.0
-508.4631742345118 -21.445021898230454 -192.09737086855327 -106.5480398946446 0.0 0.0
-606.4464012423673 -36.95798139529246 -274.5094728293366 -104.47338647721688 0.0 0.0
-673.113761393545 -48.20520549622139 -339.4747168109049 -102.34379170133619 0.0 0.0
-733.4253388145826 -57.011864430010775 -385.82179851454634 -101.83680076485732 0.0 0.0
-788.0800625933857 -70.24034325968269 -424.14557035546414 -100.31848810922187 0.0 0.0
-842.5694991609961 -88.17765100918605 -461.7698803715352 -97.85440113387244 0.0 0.0
-898.0860766077075 -110.36230775195884 -501.04742309378815 -94.90669436398531 0.0 0.0
-952.8608331821625 -133.75805434829675 -540.2259559560246 -92.01399754102616 0.0 0.0
-1003.8765468463159 -155.28669941311776 -576.5725555936214 -89.66691139477511 0.0 0.0
-1041.195196901752 -165.16995698490487 -600.4001976049888 -89.16901962755772 0.0 0.0
-1048.5769509889467 -147.71464763336587 -595.7102980199506 -92.16548623294862 0.0 0.0
-1009.8458185238865 -91.55517593069976 -548.8403535549106 -97.58781745306203 0.0 0.0
-916.5891692980374 8.781473303920649 -453.24336030685197 -102.5565987077779 0.0 0.0
-756.4003788399872 159.04947670467 -300.53259729374753 -108.69840067637641 0.0 0.0
-2750.441418734825 -1910.6655752150775 -2308.6787986569943 5.0324189260209096e-11 0.0 0.0
-756.4003788401822 159.0494767043648 -300.5325972939096 108.69840067655757 0.0 0.0
-916.5891692973966 8.7814733044994 -453.2433603063904 102.55659870793642 0.0 0.0
-1009.8458185237903 -91.5551759307344 -548.8403535548886 97.58781745319573 0.0 0.0
-1048.5769509884335 -147.71464763289762 -595.71029801963 92.16548623294808 0.0 0.0
-1041.1951969023871 -165.16995698573933 -600.4001976054335 89.16901962769451 0.0 0.0
-1003.8765468454961 -155.28669941238218 -576.5725555930642 89.66691139471067 0.0 0.0
-952.8608331822994 -133.7580543486576 -540.2259559560459 92.01399754112133 0.0 0.0
-898.0860766077102 -110.3623077522398 -501.04742309384034 94.90669436414144 0.0 0.0
-842.5694991601301 -88.17765100844719 -461.76988037096856 97.85440113378444 0.0 0.0
-788.0800625935161 -70.24034326011287 -424.14557035562 100.31848810923239 0.0 0.0
-733.4253388140485 -57.01186442981825 -385.8217985141754 101.83680076490066 0.0 0.0
-673.1137613933103 -48.2052054962718 -339.47471681065616 102.34379170134216 0.0 0.0
-606.4464012413005 -36.95798139446631 -274.50947282850296 104.47338647716319 0.0 0.0
-508.46317423369663 -21.445021897615973 -192.0973708679198 106.54803989449263 0.0 0.0
-395.7110616630985 5.62882811193134 -120.51683499763834 119.44883850882059 0.0 0.0
-283.45550847378604 13.194941629922027 -80.98956603548817 129.50786355404787 0.0 0.0
-202.81821316683414 10.358867613741687 -57.73700451912739 137.5984882863568 0.0 0.0
-128.43884468043328 -5.708852153985403 -40.24495433661243 136.56910170241514 0.0 0.0
-66.73581575686006 -61.17186131738844 -38.372303122274545 102.62330637847944 0.0 0.0
-42.7472437429959 -103.61717537480502 -43.90932573534027 60.08891074711529 0.0 0.0
-37.351416422567695 -62.931025521932156 -30.084732583349947 -47.060549040524535 0.0 0.0
-73.07840899473953 -49.13110800757411 -36.662855100694095 -84.40592266546435 0.0 0.0
-144.35065904915015 -4.609217371271278 -44.68841254580845 -116.89562684426782 0.0 0.0
-233.1517360339914 7.939129113180494 -67.56678003239585 -118.01387089469054 0.0 0.0
-335.9415919409993 9.238903852961993 -97.5566247900083 -108.09870635952905 0.0 0.0
-453.7003018248466 -8.563291266203331 -151.18681637573863 -89.72338229971118 0.0 0.0
-570.2149623839583 -29.285052988383292 -232.6739805072646 -83.3946215056765 0.0 0.0
-651.3118441233993 -45.16237476181379 -313.83427167023 -82.57606335652572 0.0 0.0
-718.8771627525209 -55.637769474603296 -373.154229305368 -82.92170662031512 0.0 0.0
-778.752755264948 -68.73131102147744 -417.94580885027153 -82.98286642100439 0.0 0.0
-836.7073527081889 -85.96385966852371 -458.120893862608 -82.13737058007857 0.0 0.0
-895.257076180713 -107.93674925027719 -499.1457896307378 -80.26793613342589 0.0 0.0
-954.8930441802651 -133.7316668964467 -542.057661567899 -77.8889003785195 0.0 0.0
-1013.5039003651832 -161.57701398795788 -585.2783084852879 -75.4852793619967 0.0 0.0
-1068.9956372352633 -186.66517825124413 -625.5437189212611 -73.28854879678417 0.0 0.0
-1112.23581281715 -201.0231151497711 -654.4771774409742 -71.91084742826398 0.0 0.0
-1120.949414680543 -184.3698999616698 -650.9391729395315 -73.07363744351039 0.0 0.0
-1068.9693082637148 -113.11585290083877 -590.0103354041439 -77.62362150417088 0.0 0.0
-950.0915669854968 14.087976243333372 -467.9241545196969 -83.94450471027659 0.0 0.0
-765.9199623042244 187.58374663579926 -290.49551261111395 -94.21254823530916 0.0 0.0
-3017.835500775712 -2127.971391192331 -2554.927055078073 6.987121992096945e-11 0.0 0.0
-765.9199623038489 187.58374663610374 -290.4955126107926 94.21254823543923 0.0 0.0
-950.0915669848607 14.087976243864432 -467.924154519182 83.94450471048803 0.0 0.0
-1068.9693082639715 -113.11585290117833 -590.0103354043827 77.62362150426839 0.0 0.0
-1120.9494146800394 -184.36989996125288 -650.9391729391509 73.07363744349266 0.0 0.0
-1112.2358128168794 -201.02311514963196 -654.4771774407918 71.91084742829497 0.0 0.0
-1068.9956372352765 -186.6651782514019 -625.5437189211949 73.28854879680406 0.0 0.0
-1013.5039003650651 -161.57701398800742 -585.2783084850992 75.48527936198033 0.0 0.0
-954.8930441799474 -133.73166689636696 -542.0576615677518 77.88890037861309 0.0 0.0
-895.2570761805124 -107.93674925022074 -499.14578963053765 80.26793613336177 0.0 0.0
-836.707352707871 -85.96385966843903 -458.12089386242485 82.13737058000176 0.0 0.0
-778.7527552638043 -68.73131102053219 -417.9458088495007 82.98286642085725 0.0 0.0
-718.8771627526753 -55.63776947506404 -373.1542293053697 82.92170662028705 0.0 0.0
-651.3118441225458 -45.162374761231945 -313.83427166954596 82.57606335644968 0.0 0.0
-570.2149623834748 -29.285052988285905 -232.67398050682368 83.39462150569061 0.0 0.0
-453.70030182425364 -8.563291266013803 -151.1868163754036 89.7233822996748 0.0 0.0
-335.9415919405187 9.238903853072996 -97.55662478985528 108.09870635943531 0.0 0.0
-233.15173603376496 7.939129113202121 -67.56678003232095 118.0138708945787 0.0 0.0
-144.35065904893818 -4.60921737116055 -44.6884125457116 116.89562684406383 0.0 0.0
-73.07840899463406 -49.13110800748856 -36.662855100636776 84.4059226654052 0.0 0.0
-37.35141642247111 -62.93102552182804 -30.08473258328974 47.060549040419076 0.0 0.0
-34.24193923847306 -33.992734532381945 -20.470402131256495 -34.16615260344654 0.0 0.0
-77.4275461410781 -36.875734577625465 -34.29098421561107 -64.67752663033997 0.0 0.0
-159.0177514166721 -3.147104958408856 -48.649456912524286 -93.31772668738057 0.0 0.0
-262.7704006750224 4.875667667602803 -77.35737280377425 -94.11036950622754 0.0 0.0
-386.3554602694702 2.0506167633654337 -115.81369135090074 -81.36306197943395 0.0 0.0
-512.1501741367751 -18.209770343616007 -182.40920150242692 -64.80978501703039 0.0 0.0
-613.2998098064238 -37.0187205294624 -269.4193849853926 -61.847968707181266 0.0 0.0
-688.8956917757903 -49.77564378402056 -344.32292807896454 -62.128485600865595 0.0 0.0
-756.2890339778143 -64.00135352807234 -400.8737083350784 -63.044703113784 0.0 0.0
-818.6148649434637 -80.58749984886869 -445.854512714094 -63.60614523887848 0.0 0.0
-879.968381198995 -101.80156139038282 -488.72547088072724 -63.215282863619414 0.0 0.0
-942.8175114761601 -127.82802644974717 -533.5838555001312 -61.88348981739216 0.0 0.0
-1006.3674813326719 -158.02375669640224 -580.5509616090612 -60.042354259514774 0.0 0.0
-1068.3490901668101 -187.46057342143524 -626.2138328319943 -58.336455638861516 0.0 0.0
-1125.560373497589 -214.5605134300461 -668.3001608159327 -56.54842899064378 0.0 0.0
-1173.0381750979295 -233.38333585919415 -701.4855679271338 -54.4918378193512 0.0 0.0
-1190.0721110820655 -223.61865500390476 -705.5015997735429 -53.513252466741996 0.0 0.0
-1133.2419645482983 -145.9755241436738 -639.0549605051978 -56.7049139401064 0.0 0.0
-985.8153134547944 10.896455482591278 -487.73150041588417 -65.3847792928916 0.0 0.0
-763.3722587392401 223.1059641691765 -270.98874744837434 -80.84774362319428 0.0 0.0
-3251.323309662707 -2319.834743572693 -2770.8175000109372 7.891642894719553e-11 0.0 0.0
-763.3722587390494 223.10596416932938 -270.9887474481179 80.84774362328372 0.0 0.0
-985.8153134544809 10.896455482834398 -487.7315004155944 65.38477929298207 0.0 0.0
-1133.2419645480277 -145.97552414350224 -639.0549605049761 56.704913940253775 0.0 0.0
-1190.072111081776 -223.61865500370075 -705.5015997733481 53.513252466756 0.0 0.0
-1173.0381750964327 -233.383335857787 -701.4855679260232 54.49183781932861 0.0 0.0
-1125.5603734973638 -214.56051342998623 -668.3001608158004 56.54842899069284 0.0 0.0
-1068.3490901661025 -187.46057342090876 -626.2138328314313 58.33645563889517 0.0 0.0
-1006.3674813323878 -158.0237566962931 -580.550961608941 60.0423542595328 0.0 0.0
-942.817511475809 -127.82802644959398 -533.583855499819 61.883489817310334 0.0 0.0
-879.968381198665 -101.80156139029708 -488.7254708805404 63.21528286358867 0.0 0.0
-818.6148649426684 -80.58749984828775 -445.85451271357977 63.60614523876102 0.0 0.0
-756.2890339775059 -64.00135352806936 -400.87370833483504 63.044703113792856 0.0 0.0
-688.8956917750215 -49.77564378349813 -344.32292807834403 62.12848560076977 0.0 0.0
-613.2998098061672 -37.01872052963137 -269.4193849850634 61.847968707198724 0.0 0.0
-512.150174136373 -18.209770343635334 -182.40920150214166 64.8097850170638 0.0 0.0
-386.35546026893564 2.0506167634878842 -115.81369135070601 81.36306197941046 0.0 0.0
-262.77040067486297 4.875667667419579 -77.35737280378117 94.11036950611644 0.0 0.0
-159.01775141652942 -3.147104958460469 -48.64945691249696 93.31772668720929 0.0 0.0
-77.42754614102014 -36.8757345776173 -34.29098421559122 64.67752663018624 0.0 0.0
-34.241939238504486 -33.99273453236815 -20.470402131261796 34.166152603346816 0.0 0.0
-32.254081501793465 -16.496149342908126 -14.625069253410475 -22.13624071589522 0.0 0.0
-79.00508672077912 -25.43965225936222 -31.3334216940424 -43.718883308967364 0.0 0.0
-172.01499533509664 -1.8547880444562157 -52.16093501386585 -65.38861193965218 0.0 0.0
-292.63272647920087 1.2473736879899842 -87.3636836782124 -65.50024646156427 0.0 0.0
-432.4134754118712 -9.174932781519274 -136.89779004467485 -51.704909864811476 0.0 0.0
-559.421042277789 -26.74167316575682 -213.8431613245893 -41.69375538244986 0.0 0.0
-643.9019214451117 -42.093278263454636 -299.3393444482209 -40.88940322264776 0.0 0.0
-720.6042045976766 -55.62073068242736 -370.176176382079 -42.05124456004997 0.0 0.0
-788.7285437555934 -72.90464785188902 -424.598170767318 -42.99266433690501 0.0 0.0
-853.8028983635372 -92.75176977476097 -470.75543205426607 -43.62766548195821 0.0 0.0
-919.2416213379631 -117.73106332643563 -516.9800453378123 -43.558796464690076 0.0 0.0
-985.9717003915033 -147.87900335789388 -565.6778919840617 -42.71273775652592 0.0 0.0
-1053.749794538531 -180.78501749488453 -616.0514287156444 -41.58108110006552 0.0 0.0
-1118.423705795516 -213.76311101960576 -664.8325133395026 -40.431265335983454 0.0 0.0
-1176.3023562133008 -240.83775612591435 -707.2532486704158 -39.198374574034546 0.0 0.0
-1221.7013011160566 -257.2117215956846 -738.1101900697099 -37.3092774675652 0.0 0.0
-1247.3490919541487 -256.2065378254451 -750.5918545369826 -34.80840171778803 0.0 0.0
-1218.1225898186117 -205.04015919088232 -711.1066377247953 -35.167129525784055 0.0 0.0
-1043.6100140263138 -18.818829512999827 -531.7224842585877 -45.10392837320764 0.0 0.0
-738.6025054843285 277.7158646184746 -231.0499670139011 -67.42748413810749 0.0 0.0
-3436.48522041174 -2468.292123395772 -2940.3599578044114 3.2301272767654154e-11 0.0 0.0
-738.6025054835413 277.71586461921083 -231.04996701330185 67.42748413819083 0.0 0.0
-1043.6100140267422 -18.81882951350299 -531.7224842589287 45.10392837331986 0.0 0.0
-1218.1225898187934 -205.0401591911371 -711.1066377248577 35.16712952585134 0.0 0.0
-1247.3490919542228 -256.20653782561163 -750.5918545370325 34.808401717766834 0.0 0.0
-1221.7013011141858 -257.21172159391386 -738.1101900682443 37.309277467539594 0.0 0.0
-1176.3023562128417 -240.83775612560433 -707.253248670142 39.19837457406381 0.0 0.0
-1118.423705795321 -213.76311101959604 -664.8325133393193 40.431265336105 0.0 0.0
-1053.7497945384066 -180.7850174949532 -616.0514287156184 41.58108110009383 0.0 0.0
-985.9717003910507 -147.87900335763226 -565.677891983729 42.71273775645962 0.0 0.0
-919.2416213375134 -117.73106332621043 -516.9800453375448 43.55879646462907 0.0 0.0
-853.8028983630322 -92.7517697745044 -470.7554320539093 43.627665481840076 0.0 0.0
-788.7285437551361 -72.90464785171717 -424.59817076698977 42.9926643369291 0.0 0.0
-720.6042045966678 -55.62073068166045 -370.1761763813025 42.051244560027726 0.0 0.0
-643.9019214451637 -42.09327826387667 -299.33934444807835 40.88940322252082 0.0 0.0
-559.42104227742 -26.741673165785592 -213.84316132424294 41.6937553823901 0.0 0.0
-432.4134754113121 -9.174932781452261 -136.8977900444728 51.70490986483635 0.0 0.0
-292.63272647910804 1.247373687775157 -87.36368367824717 65.5002464615279 0.0 0.0
-172.01499533507084 -1.8547880446238507 -52.1609350139084 65.38861193964969 0.0 0.0
-79.00508672066331 -25.439652259286426 -31.333421693984928 43.71888330885885 0.0 0.0
-32.25408150170109 -16.496149342893656 -14.625069253378424 22.136240715844032 0.0 0.0
-29.190695212490755 -9.491238131039959 -11.604580003059212 -12.593186283798017 0.0 0.0
-76.3626291657115 -16.347531672410955 -27.813048251436733 -21.8918520301451 0.0 0.0
-182.66007153078635 -1.5521891438643176 -55.26367820239521 -31.955809988887754 0.0 0.0
-324.01284306774795 -2.2991863722207397 -97.83123634620068 -31.591292152708153 0.0 0.0
-480.99484353203997 -17.525219323619066 -159.34170611509802 -23.1197371659397 0.0 0.0
-593.3189081064253 -33.52037426058138 -243.18000118963812 -20.74215894400323 0.0 0.0
-671.9210534020053 -44.17526409223396 -323.5306905014386 -21.689615432831477 0.0 0.0
-747.4248207327402 -62.16505548216641 -391.96039504697956 -22.36839219229401 0.0 0.0
-817.144950176681 -81.85671585959253 -445.19208353031837 -22.746296638596228 0.0 0.0
-885.344600773844 -105.42688036989368 -493.6323022831649 -23.080478253543905 0.0 0.0
-954.619159065669 -134.0236456287417 -543.2573564468964 -23.111636260399724 0.0 0.0
-1025.5586323302982 -167.09666665859015 -595.4405437229773 -22.851807122639723 0.0 0.0
-1096.6105861402266 -204.01735643328774 -649.4308423095531 -22.333269511625193 0.0 0.0
-1164.7496271261655 -239.0950984467926 -700.9881485709824 -21.79497975082207 0.0 0.0
-1222.5148015333614 -265.6971785988634 -743.1346212177526 -21.16913277651962 0.0 0.0
-1263.3334751097514 -277.53062687106984 -769.4558038817793 -19.974239707254114 0.0 0.0
-1284.2351801091693 -272.3748545447307 -777.356182164092 -17.717903512253073 0.0 0.0
-1288.5937750472644 -254.852877232335 -770.9672306760933 -15.549472753633765 0.0 0.0
-1205.6296588380294 -157.42520901323581 -681.6904996036872 -21.426373341385204 0.0 0.0
-724.8344555751476 320.11969339093537 -203.0083210292205 -49.01176051432749 0.0 0.0
-3429.9886438578174 -2426.3930829998008 -2919.1582163543267 3.2869706956262235e-11 0.0 0.0
-724.8344555741818 320.119693391886 -203.0083210285273 49.01176051433107 0.0 0.0
-1205.6296588383573 -157.42520901362502 -681.6904996039796 21.426373341461883 0.0 0.0
-1288.5937750473188 -254.85287723247683 -770.9672306761122 15.549472753616627 0.0 0.0
-1284.235180109279 -272.3748545449445 -777.3561821642263 17.717903512289 0.0 0.0
-1263.3334751093576 -277.5306268707719 -769.4558038814564 19.974239707228794 0.0 0.0
-1222.5148015328016 -265.6971785984431 -743.1346212172961 21.169132776420607 0.0 0.0
-1164.7496271266718 -239.0950984474714 -700.988148571243 21.79497975079866 0.0 0.0
-1096.6105861399797 -204.01735643324182 -649.4308423093996 22.333269511596438 0.0 0.0
-1025.5586323300456 -167.09666665855877 -595.4405437227766 22.85180712255451 0.0 0.0
-954.6191590652141 -134.0236456285319 -543.257356446607 23.111636260416766 0.0 0.0
-885.3446007734045 -105.42688036971552 -493.6323022828346 23.080478253549373 0.0 0.0
-817.1449501760026 -81.85671585918334 -445.19208352984623 22.74629663856781 0.0 0.0
-747.4248207323573 -62.16505548206938 -391.9603950466485 22.368392192341172 0.0 0.0
-671.9210534017666 -44.17526409233289 -323.530690501133 21.689615432818854 0.0 0.0
-593.3189081057209 -33.52037426021782 -243.1800011890661 20.74215894400884 0.0 0.0
-480.99484353138735 -17.525219323265354 -159.3417061147289 23.11973716594345 0.0 0.0
-324.0128430674495 -2.2991863721790153 -97.83123634611341 31.591292152649633 0.0 0.0
-182.6600715307478 -1.5521891440469155 -55.26367820243842 31.955809988921068 0.0 0.0
-76.36262916570661 -16.34753167242096 -27.813048251438268 21.891852030051513 0.0 0.0
-29.190695212541904 -9.491238131082694 -11.604580003087378 12.593186283786519 0.0 0.0
-18.22433744277 -4.658209438871951 -6.864764064492584 -7.883878983331171 0.0 0.0
-65.67952438781957 -9.167386791199561 -22.454073353705734 -9.087135090264717 0.0 0.0
-189.7726534851105 -2.8239142734066753 -57.77897032755514 -10.8697931217974 0.0 0.0
-363.1540680408339 -14.283232850236205 -113.37516029098128 -9.41904118280599 0.0 0.0
-542.3278249939578 -51.11430221513267 -196.2729177648234 -2.139809470380328 0.0 0.0
-667.1231864225723 -89.49219932676868 -302.79537226757867 0.5059130620125138 0.0 0.0
-767.4673673056234 -125.12068049915634 -405.45933508001303 0.6724433972058996 0.0 0.0
-873.3531192151847 -175.19176213211603 -503.19970783078406 -0.3723849971158124 0.0 0.0
-983.1274455577478 -235.8998463663267 -596.1265998387096 -1.6689919808909686 0.0 0.0
-1105.6598783507752 -313.60749672627776 -698.4635597843744 -3.048004749892618 0.0 0.0
-1245.9065392809998 -412.55158916303174 -818.4680293193569 -4.3999176983935495 0.0 0.0
-1404.2487922700195 -533.525349301454 -957.9120179056365 -5.578935935096288 0.0 0.0
-1576.4787011296146 -670.4130072012213 -1112.0058909225306 -6.372048550730614 0.0 0.0
-1755.2916946976543 -815.7883926678619 -1273.6406771294655 -7.098166827656689 0.0 0.0
-1927.1773772911827 -956.1576034056617 -1429.383078409533 -7.589051794632191 0.0 0.0
-2072.9516864471984 -1072.8103572741284 -1560.3674666023176 -7.612699038749472 0.0 0.0
-2168.6046301948363 -1142.814537515665 -1643.2462725831265 -6.744600013754258 0.0 0.0
-2191.4461392130374 -1144.6278526113392 -1655.7218981216515 -4.6592636493301995 0.0 0.0
-2192.463397649123 -1130.2959755251582 -1648.2426593529171 -7.9329172143918765 0.0 0.0
-2172.038273107131 -1107.544999358127 -1623.3986095961577 -37.46372846924167 0.0 0.0
-5364.808025197635 -4333.214457739352 -4822.614084210037 -1.8758328224066645e-11 0.0 0.0
-2172.038273106353 -1107.5449993573773 -1623.3986095954729 37.46372846922638 0.0 0.0
-2192.4633976491273 -1130.295975525221 -1648.2426593528128 7.932917214507839 0.0 0.0
-2191.4461392113312 -1144.6278526097037 -1655.7218981202795 4.659263649266151 0.0 0.0
-2168.604630194566 -1142.8145375155118 -1643.2462725828404 6.74460001380827 0.0 0.0
-2072.9516864476345 -1072.8103572746932 -1560.3674666024585 7.612699038745387 0.0 0.0
-1927.1773772894078 -956.1576034040328 -1429.383078408064 7.589051794640863 0.0 0.0
-1755.291694697578 -815.7883926679729 -1273.640677129122 7.098166827691394 0.0 0.0
-1576.4787011286296 -670.4130072004261 -1112.0058909216625 6.37204855080364 0.0 0.0
-1404.2487922689538 -533.5253493006129 -957.9120179047238 5.578935934993353 0.0 0.0
-1245.90653928012 -412.55158916238645 -818.46802931865 4.399917698377749 0.0 0.0
-1105.659878350218 -313.6074967260063 -698.4635597838286 3.048004749973714 0.0 0.0
-983.1274455564621 -235.8998463652813 -596.126599837769 1.668991980809139 0.0 0.0
-873.3531192153212 -175.19176213258822 -503.1997078307485 0.37238499707329353 0.0 0.0
-767.4673673046457 -125.12068049846036 -405.4593350792219 -0.6724433971141792 0.0 0.0
-667.1231864217124 -89.49219932618216 -302.795372266851 -0.5059130618679291 0.0 0.0
-542.3278249932964 -51.11430221472543 -196.2729177643743 2.1398094703924357 0.0 0.0
-363.1540680404173 -14.283232849984167 -113.37516029078432 9.419041182805124 0.0 0.0
-189.7726534851669 -2.8239142737206926 -57.77897032766627 10.869793121792773 0.0 0.0
-65.67952438779803 -9.167386791296334 -22.45407335372831 9.08713509010024 0.0 0.0
-18.22433744258778 -4.658209438793494 -6.864764064414382 7.8838789834275405 0.0 0.0
SCALARS Strain float 6
LOOKUP_TABLE default
0.012454575270816164 -0.021247620363154987 0.0 -0.0009253681325964611 0.0 0.0
0.007648980269542586 -0.0018844631094560005 0.0 -0.006528900695361249 0.0 0.0
0.0023535222409840303 -0.000611449244331466 0.0 -0.000679306430634505 0.0 0.0
0.002079011764167345 -0.0008331540834874095 0.0 -2.7500271670316066e-05 0.0 0.0
0.0028479017628451992 -0.0011771265188322503 0.0 0.00010130341634754385 0.0 0.0
0.004490684142580258 -0.0023671776988080802 0.0 0.00020845095779342486 0.0 0.0
0.0072781112510688865 -0.00467452486219931 0.0 0.00027771038237925925 0.0 0.0
0.01137653193798556 -0.00827420486363342 0.0 0.00030455724527478486 0.0 0.0
0.016935173654568383 -0.013306697288481294 0.0 0.00029611956444017826 0.0 0.0
0.024021802163528956 -0.0197855359972106 0.0 0.00023819125437409369 0.0 0.0
0.032651376764539906 -0.027692543642751456 0.0 0.00017082715226080587 0.0 0.0
0.04283316861494127 -0.0370336023275804 0.0 8.979740478550196e-05 0.0 0.0
0.054569700009962196 -0.047841196094563984 0.0 -5.920006420433762e-05 0.0 0.0
0.06785379745339068 -0.06014172603735646 0.0 -0.00022822214358512072 0.0 0.0
0.08259369926254612 -0.07389303283095118 0.0 -0.00046732794656117397 0.0 0.0
0.09845432055028489 -0.08881317650715767 0.0 -0.0007861049339386395 0.0 0.0
0.1147397939298965 -0.10425565573110926 0.0 -0.0011305612046029444 0.0 0.0
0.1303683642626728 -0.11918939862666206 0.0 -0.0013661311038847858 0.0 0.0
0.1439820713126527 -0.13227998666577503 0.0 -0.0013191576365093566 0.0 0.0
0.15399794752849666 -0.1420068453723107 0.0 -0.0013470421557890302 0.0 0.0
0.15789194172623366 -0.14594251966865426 0.0 2.089474426814064e-15 0.0 0.0
0.15399794752847812 -0.14200684537229397 0.0 0.0013470421557948047 0.0 0.0
0.1439820713126141 -0.13227998666573187 0.0 0.0013191576365157347 0.0 0.0
0.13036836426261703 -0.11918939862661371 0.0 0.0013661311038898208 0.0 0.0
0.1147397939298318 -0.10425565573105308 0.0 0.0011305612046050252 0.0 0.0
0.09845432055021716 -0.0888131765070897 0.0 0.0007861049339344733 0.0 0.0
0.08259369926247612 -0.0738930328308821 0.0 0.00046732794655936 0.0 0.0
0.06785379745332068 -0.06014172603729506 0.0 0.00022822214358538245 0.0 0.0
0.05456970000989425 -0.04784119609449558 0.0 5.9200064202977274e-05 0.0 0.0
0.04283316861487806 -0.03703360232752315 0.0 -8.979740478702982e-05 0.0 0.0
0.03265137676448527 -0.027692543642701566 0.0 -0.00017082715226266767 0.0 0.0
0.024021802163484856 -0.01978553599717022 0.0 -0.0002381912543740352 0.0 0.0
0.016935173654534494 -0.013306697288453236 0.0 -0.0002961195644414923 0.0 0.0
0.011376531937960909 -0.008274204863608966 0.0 -0.0003045572452747407 0.0 0.0
0.007278111251052195 -0.004674524862187536 0.0 -0.0002777103823793772 0.0 0.0
0.004490684142570981 -0.002367177698801429 0.0 -0.00020845095779252677 0.0 0.0
0.0028479017628418412 -0.0011771265188305876 0.0 -0.00010130341634789026 0.0 0.0
0.002079011764166052 -0.0008331540834874665 0.0 2.7500271669121855e-05 0.0 0.0
0.0023535222409819907 -0.0006114492443316339 0.0 0.0006793064306333315 0.0 0.0
0.007648980269537149 -0.0018844631094536398 0.0 0.006528900695352861 0.0 0.0
0.012454575270808304 -0.021247620363131176 0.0 0.0009253681325547375 0.0 0.0
0.008536231167457999 -0.01897215561595603 0.0 -0.0004588489175863719 0.0 0.0
0.005031260382355999 -0.0013955403636887718 0.0 -0.005195952701308024 0.0 0.0
0.001596363892813763 -0.000486372263161625 0.0 -0.0004438232438364064 0.0 0.0
0.0018517852716566732 -0.0007877325849771863 0.0 -0.00020675909349949362 0.0 0.0
0.002481428029596645 -0.001072871866597243 0.0 -0.00016088123357082352 0.0 0.0
0.0038769007131612947 -0.0021229739586408306 0.0 -0.0002006884214808883 0.0 0.0
0.006356833672429327 -0.004267299209704698 0.0 -0.00041241114165335566 0.0 0.0
0.010074199629627625 -0.007669356015688822 0.0 -0.0007208057241314233 0.0 0.0
0.015142534664400985 -0.012454995765057594 0.0 -0.0011389096480518264 0.0 0.0
0.021587156050114454 -0.018617844109724127 0.0 -0.0016452851057720081 0.0 0.0
0.029388742135650885 -0.026121856491757172 0.0 -0.0021847354426964 0.0 0.0
0.038543094975930864 -0.03496142364394581 0.0 -0.0027277367246106425 0.0 0.0
0.0490876558985211 -0.045179700457661884 0.0 -0.0033169742738332125 0.0 0.0
0.06105026831296577 -0.056827035684029595 0.0 -0.003970473701812662 0.0 0.0
0.07436180758433023 -0.06986858703349147 0.0 -0.004678345745331719 0.0 0.0
0.08873468976949503 -0.08404591707102667 0.0 -0.005394801211540475 0.0 0.0
0.10354892301044583 -0.09875717579522414 0.0 -0.005943653636786044 0.0 0.0
0.1178369617717856 -0.11303132462882926 0.0 -0.0060216395951786204 0.0 0.0
0.13031403447725654 -0.1255834502745006 0.0 -0.005373261995320682 0.0 0.0
0.13925880603589594 -0.13480805252636277 0.0 -0.004260793481311196 0.0 0.0
0.14259736792762565 -0.138583888291099 0.0 5.9869643964649555e-15 0.0 0.0
0.13925880603587845 -0.13480805252634182 0.0 0.004260793481328131 0.0 0.0
0.13031403447722217 -0.12558345027447038 0.0 0.005373261995337878 0.0 0.0
0.11783696177173733 -0.11303132462877918 0.0 0.006021639595187297 0.0 0.0
0.10354892301038894 -0.09875717579516916 0.0 0.005943653636788938 0.0 0.0
0.0887346897694342 -0.08404591707096414 0.0 0.005394801211535027 0.0 0.0
0.07436180758426718 -0.06986858703342912 0.0 0.0046783457453287314 0.0 0.0
0.06105026831290275 -0.05682703568396949 0.0 0.00397047370181257 0.0 0.0
0.04908765589845998 -0.0451797004575997 0.0 0.003316974273829793 0.0 0.0
0.03854309497587398 -0.03496142364389223 0.0 0.002727736724606007 0.0 0.0
0.02938874213560143 -0.026121856491711993 0.0 0.0021847354426900965 0.0 0.0
0.02158715605007411 -0.018617844109684475 0.0 0.0016452851057677325 0.0 0.0
0.015142534664369944 -0.012454995765031982 0.0 0.0011389096480492406 0.0 0.0
0.010074199629605258 -0.007669356015664527 0.0 0.0007208057241279583 0.0 0.0
0.006356833672414734 -0.0042672992096933985 0.0 0.00041241114165171277 0.0 0.0
0.003876900713153532 -0.0021229739586347907 0.0 0.0002006884214810798 0.0 0.0
0.002481428029594093 -0.0010728718665964849 0.0 0.00016088123357024535 0.0 0.0
0.0018517852716561215 -0.0007877325849768655 0.0 0.0002067590934979122 0.0 0.0
0.001596363892813283 -0.0004863722631627376 0.0 0.00044382324383549323 0.0 0.0
0.005031260382349506 -0.0013955403636860802 0.0 0.005195952701298257 0.0 0.0
0.008536231167445498 -0.018972155615931456 0.0 0.0004588489175535119 0.0 0.0
0.006181735415407317 -0.015023751357179888 0.0 -0.003172165884935441 0.0 0.0
0.003533125409411151 -0.0007589699638326155 0.0 -0.005103388195748728 0.0 0.0
0.0011237116029643413 -0.0002824883579822264 0.0 -0.00042270738339735616 0.0 0.0
0.0015809334650071054 -0.0006776074075118104 0.0 -0.0004788902632571508 0.0 0.0
0.0021491004403887764 -0.000895967234065464 0.0 -0.0004723706974669933 0.0 0.0
0.0032927894261355803 -0.0016668131989987897 0.0 -0.0005248772617780687 0.0 0.0
0.005441961886347817 -0.003464720312313388 0.0 -0.0009213663212543342 0.0 0.0
0.008760774898178652 -0.0064660505526816766 0.0 -0.0015306045854846793 0.0 0.0
0.013315169636798447 -0.010743559186510878 0.0 -0.002347522628483082 0.0 0.0
0.01910164956598349 -0.01626672677101338 0.0 -0.003318339964765107 0.0 0.0
0.026072680754997458 -0.02296209159354307 0.0 -0.004355038156488117 0.0 0.0
0.03421059522635891 -0.030805743206705295 0.0 -0.0053850520538401715 0.0 0.0
0.0435589069387651 -0.03984892991163268 0.0 -0.006426476444174395 0.0 0.0
0.05418228223650597 -0.05017841957985103 0.0 -0.007570296394945275 0.0 0.0
0.06604801679388883 -0.06179039435315756 0.0 -0.008825516738527708 0.0 0.0
0.07891781444440592 -0.07447409543422845 0.0 -0.0100668369755508 0.0 0.0
0.09227327741365032 -0.08772310093685401 0.0 -0.010991330990778295 0.0 0.0
0.10525909456880767 -0.1006909244294052 0.0 -0.011124049503339457 0.0 0.0
0.11663263074793491 -0.11217119780347976 0.0 -0.010063699174738698 0.0 0.0
0.12482014542219763 -0.12054544542222456 0.0 -0.0077040372349421495 0.0 0.0
0.12790576147910077 -0.12416992792727702 0.0 1.2437533641884713e-14 0.0 0.0
0.12482014542218153 -0.12054544542220519 0.0 0.007704037234969545 0.0 0.0
0.11663263074790414 -0.11217119780345522 0.0 0.010063699174766811 0.0 0.0
0.10525909456876584 -0.10069092442936435 0.0 0.01112404950335659 0.0 0.0
0.09227327741360039 -0.08772310093679984 0.0 0.010991330990781131 0.0 0.0
0.07891781444435149 -0.07447409543417355 0.0 0.010066836975546167 0.0 0.0
0.06604801679383303 -0.06179039435310847 0.0 0.00882551673852343 0.0 0.0
0.05418228223645035 -0.05017841957979354 0.0 0.007570296394942539 0.0 0.0
0.04355890693871099 -0.03984892991158028 0.0 0.0064264764441664905 0.0 0.0
0.03421059522630813 -0.030805743206657327 0.0 0.005385052053832846 0.0 0.0
0.02607268075495344 -0.022962091593503275 0.0 0.004355038156479757 0.0 0.0
0.019101649565947686 -0.01626672677097732 0.0 0.0033183399647560884 0.0 0.0
0.013315169636770359 -0.010743559186486396 0.0 0.0023475226284794134 0.0 0.0
0.008760774898158536 -0.0064660505526619415 0.0 0.0015306045854789835 0.0 0.0
0.005441961886335118 -0.0034647203123023026 0.0 0.0009213663212504157 0.0 0.0
0.0032927894261291888 -0.001666813198993573 0.0 0.000524877261776693 0.0 0.0
0.0021491004403867264 -0.0008959672340646601 0.0 0.00047237069746701953 0.0 0.0
0.001580933465006804 -0.0006776074075115245 0.0 0.00047889026325583135 0.0 0.0
0.0011237116029645614 -0.00028248835798355145 0.0 0.00042270738339639474 0.0 0.0
0.0035331254094051424 -0.0007589699638294363 0.0 0.005103388195735828 0.0 0.0
0.006181735415395096 -0.015023751357155835 0.0 0.003172165884914098 0.0 0.0
0.004619128980684987 -0.012041785976412095 0.0 -0.003590904157550677 0.0 0.0
0.00258075872824086 -0.0005525961492561129 0.0 -0.004657136283182134 0.0 0.0
0.0008048392584377849 -0.0001601597731489324 0.0 -0.0007122202809478687 0.0 0.0
0.0013112045683958096 -0.0005447509394963787 0.0 -0.0007430751345786885 0.0 0.0
0.0018409914898329344 -0.0007610045382679363 0.0 -0.0007873112645389678 0.0 0.0
0.0027561794995799816 -0.0012935748049738341 0.0 -0.0008311046592565718 0.0 0.0
0.004550899438118386 -0.002705385600529063 0.0 -0.0012625838595135145 0.0 0.0
0.007446025267901285 -0.005279818012414189 0.0 -0.002123376700683917 0.0 0.0
0.011469362097680553 -0.00902762817892587 0.0 -0.003245130951677898 0.0 0.0
0.016584501259340766 -0.013894218954792936 0.0 -0.004574482268159141 0.0 0.0
0.022720829770451353 -0.01977762079421449 0.0 -0.005987688393478163 0.0 0.0
0.02984772196172107 -0.02663347939260624 0.0 -0.0073892238463289205 0.0 0.0
0.038008701640576084 -0.03450955353647795 0.0 -0.0087934784530379 0.0 0.0
0.04728006126329889 -0.04351014390427826 0.0 -0.010296581574326344 0.0 0.0
0.05767584116695403 -0.05367029331092482 0.0 -0.011936645959136067 0.0 0.0
0.06903019084503902 -0.06484173229824765 0.0 -0.013575687775522267 0.0 0.0
0.08091898993943049 -0.07662001633015106 0.0 -0.014825174876192216 0.0 0.0
0.09260267137323014 -0.08828545424298417 0.0 -0.015103690708916652 0.0 0.0
0.10296407685762242 -0.0987341660504671 0.0 -0.013805964182642329 0.0 0.0
0.11060561294165827 -0.10651483992102193 0.0 -0.010249175365201774 0.0 0.0
0.11356166311791518 -0.1102315287965121 0.0 1.6161551263937923e-14 0.0 0.0
0.11060561294164303 -0.10651483992101166 0.0 0.010249175365238169 0.0 0.0
0.10296407685759479 -0.09873416605043887 0.0 0.013805964182676628 0.0 0.0
0.09260267137319325 -0.08828545424294842 0.0 0.015103690708938976 0.0 0.0
0.08091898993938663 -0.07662001633010555 0.0 0.014825174876195887 0.0 0.0
0.06903019084499123 -0.06484173229820353 0.0 0.013575687775517199 0.0 0.0
0.057675841166904954 -0.053670293310881655 0.0 0.011936645959129914 0.0 0.0
0.047280061263250316 -0.04351014390422749 0.0 0.010296581574322058 0.0 0.0
0.03800870164052904 -0.034509553536432556 0.0 0.008793478453028705 0.0 0.0
0.029847721961677093 -0.026633479392561738 0.0 0.007389223846318325 0.0 0.0
0.02272082977041282 -0.01977762079417742 0.0 0.005987688393467377 0.0 0.0
0.016584501259309138 -0.013894218954762037 0.0 0.004574482268146874 0.0 0.0
0.011469362097656043 -0.009027628178900465 0.0 0.0032451309516700255 0.0 0.0
0.007446025267883863 -0.0052798180124001524 0.0 0.002123376700677533 0.0 0.0
0.0045508994381079325 -0.0027053856005195337 0.0 0.0012625838595097028 0.0 0.0
0.002756179499575408 -0.0012935748049705876 0.0 0.0008311046592546088 0.0 0.0
0.001840991489831563 -0.0007610045382661152 0.0 0.0007873112645395012 0.0 0.0
0.001311204568395492 -0.0005447509394955053 0.0 0.0007430751345772038 0.0 0.0
0.0008048392584377839 -0.00016015977314928596 0.0 0.0007122202809465084 0.0 0.0
0.0025807587282353087 -0.0005525961492531747 0.0 0.0046571362831699555 0.0 0.0
0.004619128980673915 -0.0120417859763907 0.0 0.003590904157536601 0.0 0.0
0.0034678688624806683 -0.009654354567906372 0.0 -0.0032219329825089607 0.0 0.0
0.0019111976143912622 -0.00046376636049090384 0.0 -0.004173401356468305 0.0 0.0
0.0005847892173483891 -9.72817682241583e-05 0.0 -0.001090951144146136 0.0 0.0
0.0010602574391206585 -0.00041340520504634117 0.0 -0.0010264140722700897 0.0 0.0
0.0015489787063937453 -0.0006411214569541954 0.0 -0.0010970343067119304 0.0 0.0
0.002277086010605402 -0.0010092524548191266 0.0 -0.0011354889682535238 0.0 0.0
0.0037071541991792823 -0.002034640672771868 0.0 -0.001511493593757888 0.0 0.0
0.0061435956409706255 -0.004124372349607546 0.0 -0.002458460076434152 0.0 0.0
0.009622239918372157 -0.007327538044782799 0.0 -0.003824222351790512 0.0 0.0
0.014053460320234464 -0.01152243457207293 0.0 -0.005405822630158262 0.0 0.0
0.01935268137506294 -0.01658931405833496 0.0 -0.007082550930357802 0.0 0.0
0.025471737776761188 -0.022461909525383808 0.0 -0.008739646671938986 0.0 0.0
0.03244787281258445 -0.029178143825150236 0.0 -0.010393885808177168 0.0 0.0
0.04037300547854874 -0.03685053598059079 0.0 -0.012147178950938855 0.0 0.0
0.04928809228624953 -0.0455470433327983 0.0 -0.014035446796105952 0.0 0.0
0.05909557515342638 -0.055183124679363614 0.0 -0.0159108991090452 0.0 0.0
0.0694886816526488 -0.06545893052293644 0.0 -0.01740161877581757 0.0 0.0
0.07986438538781628 -0.07579666358577587 0.0 -0.017895982721628408 0.0 0.0
0.08927852206925221 -0.08527060140423465 0.0 -0.01651897647849914 0.0 0.0
0.09650961130067967 -0.09262353591615324 0.0 -0.012194535975137165 0.0 0.0
0.09941393090844183 -0.09656494295527565 0.0 1.8386767802747173e-14 0.0 0.0
0.09650961130066563 -0.09262353591614411 0.0 0.012194535975177521 0.0 0.0
0.08927852206922786 -0.08527060140421246 0.0 0.016518976478540455 0.0 0.0
0.07986438538778429 -0.07579666358573946 0.0 0.017895982721652912 0.0 0.0
0.06948868165261113 -0.0654589305229002 0.0 0.01740161877582004 0.0 0.0
0.059095575153385024 -0.05518312467932237 0.0 0.01591089910903768 0.0 0.0
0.049288092286207126 -0.045547043332754 0.0 0.014035446796099742 0.0 0.0
0.04037300547850725 -0.036850535980551234 0.0 0.012147178950932825 0.0 0.0
0.032447872812543965 -0.029178143825109942 0.0 0.010393885808168529 0.0 0.0
0.02547173777672386 -0.022461909525347396 0.0 0.008739646671925231 0.0 0.0
0.019352681375029965 -0.016589314058304903 0.0 0.007082550930342836 0.0 0.0
0.014053460320206913 -0.011522434572044533 0.0 0.005405822630145946 0.0 0.0
0.009622239918351082 -0.007327538044761554 0.0 0.003824222351780659 0.0 0.0
0.0061435956409559775 -0.004124372349595103 0.0 0.0024584600764264012 0.0 0.0
0.0037071541991710354 -0.0020346406727652015 0.0 0.0015114935937537105 0.0 0.0
0.002277086010602242 -0.0010092524548183945 0.0 0.0011354889682525617 0.0 0.0
0.0015489787063928306 -0.0006411214569530244 0.0 0.0010970343067109687 0.0 0.0
0.0010602574391203514 -0.0004134052050455557 0.0 0.0010264140722689758 0.0 0.0
0.0005847892173483765 -9.728176822392481e-05 0.0 0.0010909511441449583 0.0 0.0
0.0019111976143868035 -0.00046376636048886007 0.0 0.004173401356457284 0.0 0.0
0.003467868862471929 -0.009654354567887925 0.0 0.003221932982499659 0.0 0.0
0.0025789979437198744 -0.0076750456011423634 0.0 -0.002695736835616103 0.0 0.0
0.0014112963111163263 -0.00041261159840265405 0.0 -0.0037070372553835136 0.0 0.0
0.0004240913975123742 -7.092948536157409e-05 0.0 -0.0014492372995542069 0.0 0.0
0.0008288107202132732 -0.00029423011199663336 0.0 -0.001315166792015292 0.0 0.0
0.0012687539942750103 -0.0005248708899952388 0.0 -0.0013908558182350202 0.0 0.0
0.0018464310790567888 -0.0007900975155150986 0.0 -0.0014320641329597518 0.0 0.0
0.0029392706024473584 -0.0014856488863072414 0.0 -0.0017422722705868572 0.0 0.0
0.004885467651907559 -0.0030519869095157726 0.0 -0.0025993258535014756 0.0 0.0
0.007783017114655169 -0.005662271602304687 0.0 -0.004051551172335178 0.0 0.0
0.011526946924391433 -0.00917432114623672 0.0 -0.005801208051500873 0.0 0.0
0.015985010675011145 -0.01341863814319121 0.0 -0.00762721831736205 0.0 0.0
0.021100962554593733 -0.01831200521654611 0.0 -0.009431616260012017 0.0 0.0
0.026900975837668924 -0.023876226998242874 0.0 -0.011218360808435674 0.0 0.0
0.03347765678288205 -0.030224795317767797 0.0 -0.013091876297527455 0.0 0.0
0.04090989130800128 -0.037453755663328495 0.0 -0.015101412021333655 0.0 0.0
0.04915761083564057 -0.04553769992907208 0.0 -0.01709238537448514 0.0 0.0
0.05800486576603478 -0.054266701381018995 0.0 -0.018712007239660104 0.0 0.0
0.06703123757832571 -0.06322572109191542 0.0 -0.01939992108960651 0.0 0.0
0.07552092867161944 -0.07173702155984503 0.0 -0.018173393930204465 0.0 0.0
0.08242690256848402 -0.07875894856719377 0.0 -0.013607056404586499 0.0 0.0
0.08533403733504852 -0.0830354704159231 0.0 1.7870687568644072e-14 0.0 0.0
0.08242690256847165 -0.07875894856718108 0.0 0.01360705640462798 0.0 0.0
0.0755209286715984 -0.07173702155982531 0.0 0.018173393930246088 0.0 0.0
0.06703123757829858 -0.06322572109188725 0.0 0.019399921089630536 0.0 0.0
0.05800486576600283 -0.05426670138098912 0.0 0.018712007239664395 0.0 0.0
0.0491576108356056 -0.04553769992903369 0.0 0.017092385374476493 0.0 0.0
0.04090989130796591 -0.03745375566328506 0.0 0.015101412021327247 0.0 0.0
0.03347765678284752 -0.03022479531773971 0.0 0.013091876297520528 0.0 0.0
0.02690097583763544 -0.023876226998209522 0.0 0.011218360808426885 0.0 0.0
0.021100962554562668 -0.01831200521651849 0.0 0.009431616259998601 0.0 0.0
0.015985010674983664 -0.013418638143166626 0.0 0.007627218317346326 0.0 0.0
0.011526946924368437 -0.009174321146213795 0.0 0.005801208051487483 0.0 0.0
0.007783017114637832 -0.005662271602289238 0.0 0.004051551172325557 0.0 0.0
0.004885467651896036 -0.0030519869095069125 0.0 0.002599325853494898 0.0 0.0
0.002939270602441107 -0.0014856488863023505 0.0 0.0017422722705825165 0.0 0.0
0.0018464310790543112 -0.0007900975155143189 0.0 0.0014320641329581272 0.0 0.0
0.0012687539942741934 -0.0005248708899955679 0.0 0.001390855818233707 0.0 0.0
0.0008288107202131143 -0.00029423011199677685 0.0 0.0013151667920131387 0.0 0.0
0.0004240913975122332 -7.092948536133172e-05 0.0 0.0014492372995522501 0.0 0.0
0.0014112963111128213 -0.0004126115984014912 0.0 0.0037070372553746865 0.0 0.0
0.002578997943713222 -0.007675045601127123 0.0 0.002695736835608747 0.0 0.0
0.0018844811143795925 -0.006014347657703414 0.0 -0.0022095016957854366 0.0 0.0
0.0010268996879477358 -0.00037827794779458977 0.0 -0.0032863298590220056 0.0 0.0
0.00029662619094944953 -5.965663505495342e-05 0.0 -0.0017458845147796166 0.0 0.0
0.0006133375547878967 -0.00018931301998418673 0.0 -0.0015865876296685798 0.0 0.0
0.0009947449887748889 -0.0004034301823786415 0.0 -0.0016537774626732861 0.0 0.0
0.0014498011710442431 -0.0006156801169273234 0.0 -0.0017268475576344435 0.0 0.0
0.0022473102269944126 -0.0010514383673860311 0.0 -0.0019444520899104109 0.0 0.0
0.00371241732684658 -0.0021242160479422504 0.0 -0.002657051464446947 0.0 0.0
0.005989670957411139 -0.004083120966304711 0.0 -0.0039666000588024965 0.0 0.0
0.009018331944356686 -0.006876321164865423 0.0 -0.0057249073521440826 0.0 0.0
0.012636706197122009 -0.010290794653545474 0.0 -0.007601370153425291 0.0 0.0
0.01675211418815349 -0.014206088932459934 0.0 -0.009447344766031996 0.0 0.0
0.021384867467826283 -0.018628841272053196 0.0 -0.011254907255893327 0.0 0.0
0.026625255434114262 -0.02366378715601934 0.0 -0.013124997161622616 0.0 0.0
0.03256925378982534 -0.029423535424155156 0.0 -0.015105850729950097 0.0 0.0
0.03923537867510675 -0.03594031192684603 0.0 -0.017091735615002688 0.0 0.0
0.0465029391769132 -0.04308325430982034 0.0 -0.018741370636484424 0.0 0.0
0.054112860199799266 -0.050590979749322855 0.0 -0.0195728861011382 0.0 0.0
0.06162666764275432 -0.05808013902132779 0.0 -0.01869326425554773 0.0 0.0
0.06823925509540292 -0.06479900735671766 0.0 -0.014460497859283541 0.0 0.0
0.07118924816359504 -0.0695163582560738 0.0 1.674745411794909e-14 0.0 0.0
0.06823925509539257 -0.06479900735670618 0.0 0.01446049785932621 0.0 0.0
0.0616266676427365 -0.058080139021309846 0.0 0.01869326425558908 0.0 0.0
0.05411286019977682 -0.050590979749299964 0.0 0.01957288610116304 0.0 0.0
0.04650293917688729 -0.04308325430979736 0.0 0.01874137063649003 0.0 0.0
0.03923537867507808 -0.03594031192682137 0.0 0.017091735614994857 0.0 0.0
0.03256925378979635 -0.02942353542412042 0.0 0.015105850729941389 0.0 0.0
0.026625255434087357 -0.023663787155998536 0.0 0.013124997161614953 0.0 0.0
0.02138486746780052 -0.01862884127203148 0.0 0.011254907255883413 0.0 0.0
0.016752114188128664 -0.014206088932433327 0.0 0.00944734476601947 0.0 0.0
0.012636706197099966 -0.010290794653523205 0.0 0.007601370153408421 0.0 0.0
0.009018331944338426 -0.006876321164850762 0.0 0.0057249073521302984 0.0 0.0
0.005989670957397516 -0.004083120966291544 0.0 0.003966600058795179 0.0 0.0
0.003712417326837715 -0.00212421604793726 0.0 0.0026570514644409164 0.0 0.0
0.002247310226989826 -0.0010514383673817201 0.0 0.0019444520899072545 0.0 0.0
0.001449801171042617 -0.0006156801169269322 0.0 0.0017268475576320236 0.0 0.0
0.000994744988774331 -0.0004034301823783232 0.0 0.0016537774626727867 0.0 0.0
0.0006133375547875389 -0.00018931301998377514 0.0 0.0015865876296659088 0.0 0.0
0.00029662619094941316 -5.965663505461157e-05 0.0 0.00174588451477745 0.0 0.0
0.0010268996879449137 -0.0003782779477938848 0.0 0.003286329859014713 0.0 0.0
0.0018844811143737912 -0.006014347657691294 0.0 0.002209501695779674 0.0 0.0
0.0013412809983284505 -0.004631099519628258 0.0 -0.0018409699852342458 0.0 0.0
0.0007253981370944974 -0.0003579162725927647 0.0 -0.0029074583816399288 0.0 0.0
0.00018516086790168514 -4.755993671407091e-05 0.0 -0.001974030128015466 0.0 0.0
0.0004093549813190351 -9.685682779920244e-05 0.0 -0.0018226492625139754 0.0 0.0
0.0007203975277012846 -0.00027600370655705807 0.0 -0.0018771191231912168 0.0 0.0
0.0010780051978910884 -0.0004596660885056653 0.0 -0.0019985033734820274 0.0 0.0
0.0016268238620989835 -0.0007197886787042163 0.0 -0.00214873076177524 0.0 0.0
0.0026388330358689165 -0.0013648199016625488 0.0 -0.0026485422383043774 0.0 0.0
0.004290282787191797 -0.0026684467347962764 0.0 -0.003682759134253825 0.0 0.0
0.006563741575027562 -0.0046874005381946915 0.0 -0.005206096174521811 0.0 0.0
0.009320864631179523 -0.0072411498534499935 0.0 -0.006975933717092181 0.0 0.0
0.012442096718236264 -0.010175921564938564 0.0 -0.00874627785661908 0.0 0.0
0.015920716243740987 -0.013466941965444517 0.0 -0.010473249247799013 0.0 0.0
0.019835413837813294 -0.017202820224875348 0.0 -0.012221196885314702 0.0 0.0
0.02429540044101816 -0.021499090264838816 0.0 -0.014049422278493725 0.0 0.0
0.029366138629007596 -0.02643092921604624 0.0 -0.015883104096366504 0.0 0.0
0.03500781077807213 -0.03195498044917795 0.0 -0.01745955584432003 0.0 0.0
0.04111649519885325 -0.03793035582559213 0.0 -0.018345679653083643 0.0 0.0
0.04754477390178539 -0.04426015547169571 0.0 -0.01793863114376569 0.0 0.0
0.0538209374223658 -0.05061088652282 0.0 -0.01465771274759279 0.0 0.0
0.05682708638724446 -0.05587248345368693 0.0 1.4240778695162604e-14 0.0 0.0
0.053820937422357815 -0.0506108865228148 0.0 0.014657712747630534 0.0 0.0
0.04754477390177136 -0.04426015547167844 0.0 0.01793863114380664 0.0 0.0
0.04111649519883616 -0.0379303558255764 0.0 0.01834567965310596 0.0 0.0
0.0350078107780519 -0.03195498044916034 0.0 0.017459555844321576 0.0 0.0
0.029366138628985447 -0.02643092921602882 0.0 0.015883104096358295 0.0 0.0
0.024295400440996838 -0.021499090264814356 0.0 0.014049422278486521 0.0 0.0
0.019835413837793463 -0.01720282022485878 0.0 0.01222119688531051 0.0 0.0
0.015920716243722155 -0.01346694196542677 0.0 0.010473249247789846 0.0 0.0
0.012442096718217764 -0.01017592156491914 0.0 0.008746277856607698 0.0 0.0
0.009320864631162724 -0.007241149853435854 0.0 0.0069759337170768355 0.0 0.0
0.006563741575014519 -0.004687400538183082 0.0 0.00520609617450925 0.0 0.0
0.004290282787182382 -0.002668446734789748 0.0 0.0036827591342472607 0.0 0.0
0.002638833035862953 -0.0013648199016573711 0.0 0.002648542238299279 0.0 0.0
0.001626823862096088 -0.0007197886787009205 0.0 0.00214873076177388 0.0 0.0
0.0010780051978900292 -0.000459666088506597 0.0 0.0019985033734804592 0.0 0.0
0.0007203975277007883 -0.00027600370655740604 0.0 0.0018771191231896317 0.0 0.0
0.0004093549813186266 -9.685682779853758e-05 0.0 0.0018226492625117944 0.0 0.0
0.00018516086790148576 -4.755993671396396e-05 0.0 0.0019740301280133554 0.0 0.0
0.0007253981370926836 -0.0003579162725923222 0.0 0.0029074583816338195 0.0 0.0
0.0013412809983248232 -0.00463109951961886 0.0 0.0018409699852317757 0.0 0.0
0.0009381804276052867 -0.0035258990841146344 0.0 -0.0016252449855238705 0.0 0.0
0.0004904102475437401 -0.00035217661788181076 0.0 -0.0025832004872416883 0.0 0.0
7.535186411313816e-05 -2.4615633264578384e-05 0.0 -0.0021378796153719575 0.0 0.0
0.00021450830287853071 -1.386355826384691e-05 0.0 -0.0020117272710973746 0.0 0.0
0.00044478674350534173 -0.00014751906838233575 0.0 -0.002055077358143648 0.0 0.0
0.000710103087054472 -0.00029715819727534624 0.0 -0.0022093332201216097 0.0 0.0
0.0010657516196087237 -0.00046382930262494043 0.0 -0.002381344821508246 0.0 0.0
0.0016777747191590608 -0.0007895887168282982 0.0 -0.0026543499483940853 0.0 0.0
0.002716683504915536 -0.0014941906175102361 0.0 -0.003297249790972086 0.0 0.0
0.004214930624692885 -0.002712439230422968 0.0 -0.004369255237471624 0.0 0.0
0.006076435958989122 -0.004354388114884198 0.0 -0.005784193417483756 0.0 0.0
0.008188942993135627 -0.0062862584748124405 0.0 -0.00730085722135438 0.0 0.0
0.010521737846122375 -0.008444680627927042 0.0 -0.008839256643313583 0.0 0.0
0.013130401594434706 -0.010897385712333696 0.0 -0.01038001318997348 0.0 0.0
0.01611412980572579 -0.013739715398526814 0.0 -0.011942286045527693 0.0 0.0
0.01957368155064054 -0.017071768955966765 0.0 -0.013521959455758422 0.0 0.0
0.02356200960489363 -0.020940909630059255 0.0 -0.014952916969254312 0.0 0.0
0.028079247846113965 -0.02532505050633278 0.0 -0.015842130490130436 0.0 0.0
0.03322604717907684 -0.03029734881148049 0.0 -0.015759338895966986 0.0 0.0
0.039022206468052933 -0.03605168610260779 0.0 -0.0139232474386567 0.0 0.0
0.04206036618590567 -0.04193124197394219 0.0 1.2703380014578158e-14 0.0 0.0
0.03902220646804803 -0.03605168610260155 0.0 0.013923247438690025 0.0 0.0
0.03322604717906705 -0.030297348811467853 0.0 0.015759338896003873 0.0 0.0
0.028079247846101628 -0.025325050506319436 0.0 0.015842130490149365 0.0 0.0
0.023562009604879683 -0.020940909630049347 0.0 0.014952916969251884 0.0 0.0
0.019573681550625378 -0.01707176895595425 0.0 0.01352195945574966 0.0 0.0
0.016114129805711745 -0.013739715398511463 0.0 0.01194228604551902 0.0 0.0
0.013130401594422449 -0.01089738571232329 0.0 0.010380013189969584 0.0 0.0
0.010521737846110657 -0.008444680627911297 0.0 0.00883925664330778 0.0 0.0
0.008188942993124042 -0.006286258474804229 0.0 0.0073008572213427055 0.0 0.0
0.0060764359589781805 -0.004354388114875368 0.0 0.00578419341747142 0.0 0.0
0.004214930624684299 -0.0027124392304135143 0.0 0.004369255237461826 0.0 0.0
0.002716683504909891 -0.0014941906175095377 0.0 0.0032972497909676533 0.0 0.0
0.0016777747191559578 -0.0007895887168243472 0.0 0.002654349948392166 0.0 0.0
0.001065751619607368 -0.0004638293026239114 0.0 0.0023813448215054666 0.0 0.0
0.0007101030870539979 -0.00029715819727620606 0.0 0.002209333220119368 0.0 0.0
0.00044478674350535214 -0.00014751906838291119 0.0 0.0020550773581405166 0.0 0.0
0.00021450830287845132 -1.3863558263692538e-05 0.0 0.0020117272710959058 0.0 0.0
7.535186411288768e-05 -2.461563326367859e-05 0.0 0.00213787961536959 0.0 0.0
0.000490410247542559 -0.00035217661788207596 0.0 0.002583200487237673 0.0 0.0
0.0009381804276032636 -0.0035258990841077406 0.0 0.001625244985522285 0.0 0.0
0.0006583537475911653 -0.0026795659749586902 0.0 -0.0015100113043200504 0.0 0.0
0.00031326870093924714 -0.000360884752067637 0.0 -0.0023491134572455902 0.0 0.0
-3.508795546398892e-05 1.0786304959414148e-05 0.0 -0.002240900618496065 0.0 0.0
2.656483779911193e-05 6.245420768199379e-05 0.0 -0.002147946749411252 0.0 0.0
0.00017116338100690016 -2.1189972294422844e-05 0.0 -0.0021821203630191543 0.0 0.0
0.00033457764222147497 -0.00012519671871737131 0.0 -0.0023434035980086218 0.0 0.0
0.0005297284841322329 -0.00022818786617004766 0.0 -0.0025666230905989373 0.0 0.0
0.0008198483461483297 -0.000365510028852863 0.0 -0.002769641344378888 0.0 0.0
0.0012997889257935966 -0.0006339971410476942 0.0 -0.0030453163007175994 0.0 0.0
0.0020228641170796408 -0.0011357272699913247 0.0 -0.003560144393457737 0.0 0.0
0.0029577455069327865 -0.0018640333738280386 0.0 -0.004395005049857365 0.0 0.0
0.004028997953112983 -0.002760348492345268 0.0 -0.005471477043973062 0.0 0.0
0.005202978018268335 -0.0037653312624210842 0.0 -0.006670065428356803 0.0 0.0
0.0065177250564072255 -0.004929206180337175 0.0 -0.007944224746457309 0.0 0.0
0.008038591488743026 -0.0063176175073847984 0.0 -0.00929460190286862 0.0 0.0
0.009872846019225 -0.008025473617444809 0.0 -0.010726227224128618 0.0 0.0
0.01216658095543639 -0.010189184075563521 0.0 -0.012128986505375769 0.0 0.0
0.015061939747948689 -0.012948593004340996 0.0 -0.013124343677655897 0.0 0.0
0.01872693989432329 -0.01644388492856259 0.0 -0.013139469808195017 0.0 0.0
0.023688957767773865 -0.021108198198905498 0.0 -0.012133174229342607 0.0 0.0
0.02659996923137444 -0.027492553856191114 0.0 9.957746432975867e-15 0.0 0.0
0.023688957767771437 -0.02110819819889968 0.0 0.01213317422936995 0.0 0.0
0.01872693989431789 -0.016443884928560366 0.0 0.01313946980822234 0.0 0.0
0.015061939747941597 -0.012948593004328953 0.0 0.013124343677667499 0.0 0.0
0.012166580955429286 -0.010189184075563882 0.0 0.012128986505370785 0.0 0.0
0.009872846019217616 -0.0080254736174377 0.0 0.010726227224120899 0.0 0.0
0.008038591488736702 -0.006317617507380011 0.0 0.009294601902863948 0.0 0.0
0.006517725056402782 -0.004929206180338942 0.0 0.007944224746452512 0.0 0.0
0.0052029780182635 -0.0037653312624143023 0.0 0.006670065428350143 0.0 0.0
0.004028997953107705 -0.0027603484923414776 0.0 0.005471477043963699 0.0 0.0
0.0029577455069280424 -0.001864033373819888 0.0 0.0043950050498487905 0.0 0.0
0.002022864117076269 -0.0011357272699874608 0.0 0.0035601443934545106 0.0 0.0
0.0012997889257915934 -0.000633997141046221 0.0 0.0030453163007158482 0.0 0.0
0.0008198483461470156 -0.0003655100288546938 0.0 0.0027696413443796374 0.0 0.0
0.0005297284841314939 -0.00022818786616970622 0.0 0.0025666230905957758 0.0 0.0
0.000334577642221148 -0.0001251967187190044 0.0 0.0023434035980060245 0.0 0.0
0.00017116338100687031 -2.1189972293844493e-05 0.0 0.002182120363016499 0.0 0.0
2.6564837799181967e-05 6.245420768102014e-05 0.0 0.0021479467494086653 0.0 0.0
-3.508795546423585e-05 1.0786304960615278e-05 0.0 0.00224090061849325 0.0 0.0
0.0003132687009384376 -0.0003608847520682893 0.0 0.0023491134572428793 0.0 0.0
0.0006583537475900414 -0.0026795659749541214 0.0 0.001510011304318454 0.0 0.0
0.00046134304777332904 -0.002053991328835667 0.0 -0.0014456998261131325 0.0 0.0
0.00018003425634424873 -0.0003658025404348911 0.0 -0.00218727985591068 0.0 0.0
-0.00014032138517299433 5.0235739132300364e-05 0.0 -0.0022903841241860845 0.0 0.0
-0.00015500315520315197 0.00013502700713582705 0.0 -0.002228653313651452 0.0 0.0
-9.798426122615121e-05 0.0001015072699853896 0.0 -0.002252432847074368 0.0 0.0
-4.4746776650479586e-05 4.893594962907911e-05 0.0 -0.002401687755701807 0.0 0.0
-1.5228515623790312e-05 1.3385970913734107e-05 0.0 -0.0026374314553354134 0.0 0.0
-3.6328483107785515e-06 2.5508335015043214e-06 0.0 -0.002864276999877212 0.0 0.0
-1.7646438996474874e-07 -2.3430709454624237e-07 0.0 -0.002998450426263936 0.0 0.0
5.863091283007406e-07 -2.5328055495002554e-07 0.0 -0.0032217874536252544 0.0 0.0
2.5891723091675837e-07 -9.350180546581006e-07 0.0 -0.0037108778306384036 0.0 0.0
-3.832664259835125e-06 3.1035614003022366e-06 0.0 -0.004527641796954257 0.0 0.0
-1.555255293127656e-05 1.3241276547738964e-05 0.0 -0.005516956967988157 0.0 0.0
-2.883960581690978e-05 2.8058300777542e-05 0.0 -0.006651710979843138 0.0 0.0
-1.8830287203964449e-06 1.4782730973091594e-05 0.0 -0.007948873080316844 0.0 0.0
0.00018585281117456287 -0.0001277676066359449 0.0 -0.00940282240023751 0.0 0.0
0.0007718976180397553 -0.0006064918527521085 0.0 -0.010960666693298659 0.0 0.0
0.002067368119455195 -0.001720438524093845 0.0 -0.012452264899251258 0.0 0.0
0.0042935682249199214 -0.003635606801986936 0.0 -0.013567354915158442 0.0 0.0
0.007934952782041477 -0.006565065908290246 0.0 -0.013943492991350713 0.0 0.0
0.010214978303780552 -0.013326080141068437 0.0 9.650266696858978e-15 0.0 0.0
0.007934952782041357 -0.006565065908292571 0.0 0.013943492991368628 0.0 0.0
0.004293568224918007 -0.0036356068019870193 0.0 0.013567354915171994 0.0 0.0
0.0020673681194539944 -0.0017204385240913536 0.0 0.012452264899252375 0.0 0.0
0.0007718976180408341 -0.0006064918527572648 0.0 0.01096066669329162 0.0 0.0
0.00018585281117592571 -0.00012776760663873446 0.0 0.00940282240022932 0.0 0.0
-1.8830287192801503e-06 1.4782730974088464e-05 0.0 0.007948873080311641 0.0 0.0
-2.8839605814372313e-05 2.8058300773458082e-05 0.0 0.006651710979837758 0.0 0.0
-1.5552552928417736e-05 1.3241276547852561e-05 0.0 0.005516956967980216 0.0 0.0
-3.832664257459313e-06 3.1035614011010496e-06 0.0 0.004527641796946927 0.0 0.0
2.589172328609497e-07 -9.350180528490821e-07 0.0 0.003710877830631811 0.0 0.0
5.863091295711545e-07 -2.532805546794358e-07 0.0 0.003221787453622574 0.0 0.0
-1.7646438910288932e-07 -2.3430709410218704e-07 0.0 0.002998450426262399 0.0 0.0
-3.632848310282583e-06 2.5508335008976967e-06 0.0 0.0028642769998758442 0.0 0.0
-1.5228515623558943e-05 1.3385970914614262e-05 0.0 0.002637431455332012 0.0 0.0
-4.4746776650312084e-05 4.89359496275868e-05 0.0 0.002401687755699207 0.0 0.0
-9.798426122596457e-05 0.0001015072699855387 0.0 0.0022524328470727873 0.0 0.0
-0.0001550031552030157 0.00013502700713417912 0.0 0.002228653313648671 0.0 0.0
-0.00014032138517287737 5.023573913287934e-05 0.0 0.0022903841241844725 0.0 0.0
0.0001800342563440151 -0.0003658025404355704 0.0 0.0021872798559089846 0.0 0.0
0.00046134304777263016 -0.00205399132883285 0.0 0.0014456998261124661 0.0 0.0
0.00032699050354701977 -0.001587430589693367 0.0 -0.0013779880283714262 0.0 0.0
8.150331560481634e-05 -0.00035108796334994846 0.0 -0.0020472582586184124 0.0 0.0
-0.00023840291247751133 8.710388944415563e-05 0.0 -0.0022907864276489674 0.0 0.0
-0.00032925118286556115 0.00020486583525701317 0.0 -0.0022528404868864833 0.0 0.0
-0.00036098903790524414 0.00021891681176585006 0.0 -0.0022617193327746656 0.0 0.0
-0.0004202413006889152 0.00022132811691557045 0.0 -0.0023843049249012162 0.0 0.0
-0.0005593343114977442 0.00025469982712345533 0.0 -0.002585074992036183 0.0 0.0
-0.0008272958482504747 0.0003706204998063901 0.0 -0.0027770899492490534 0.0 0.0
-0.0012998420419031995 0.0006334026671338232 0.0 -0.0030481422328580343 0.0 0.0
-0.002020984036508023 0.001134332782869281 0.0 -0.003558837380236254 0.0 0.0
-0.002956982853687189 0.0018629439587393155 0.0 -0.00439094710211826 0.0 0.0
-0.004037840010787845 0.002767723946213202 0.0 -0.005469391319165519 0.0 0.0
-0.005235301738498494 0.003794037962003511 0.0 -0.006664906446312417 0.0 0.0
-0.00657422229320803 0.004987381628463309 0.0 -0.00793374204965917 0.0 0.0
-0.008038053731983739 0.006348051430993449 0.0 -0.009302233522810632 0.0 0.0
-0.009506559016009514 0.007766770209075213 0.0 -0.010853980845366297 0.0 0.0
-0.010708020840558378 0.008980754950416054 0.0 -0.012655429976141675 0.0 0.0
-0.011240401913763387 0.009576193476813143 0.0 -0.014776716984287664 0.0 0.0
-0.010643798894367763 0.00919229316897847 0.0 -0.017124504695032537 0.0 0.0
-0.007500993206681414 0.006934665592810328 0.0 -0.018124494931458294 0.0 0.0
-0.004998108764105965 -0.0005307843648320167 0.0 1.0967789176863363e-14 0.0 0.0
-0.007500993206682148 0.006934665592808455 0.0 0.01812449493147629 0.0 0.0
-0.01064379889436516 0.00919229316897374 0.0 0.017124504695046276 0.0 0.0
-0.011240401913756031 0.00957619347681356 0.0 0.014776716984289884 0.0 0.0
-0.010708020840547984 0.008980754950403161 0.0 0.012655429976136029 0.0 0.0
-0.009506559015999682 0.007766770209061375 0.0 0.01085398084535673 0.0 0.0
-0.00803805373197519 0.0063480514309893835 0.0 0.00930223352280418 0.0 0.0
-0.006574222293198595 0.00498738162845778 0.0 0.007933742049652267 0.0 0.0
-0.005235301738488011 0.00379403796199595 0.0 0.006664906446302275 0.0 0.0
-0.004037840010777718 0.0027677239462052974 0.0 0.00546939131915535 0.0 0.0
-0.0029569828536786798 0.0018629439587330055 0.0 0.004390947102107719 0.0 0.0
-0.0020209840365018696 0.001134332782866294 0.0 0.0035588373802300614 0.0 0.0
-0.0012998420418996147 0.000633402667132824 0.0 0.0030481422328570837 0.0 0.0
-0.0008272958482485897 0.0003706204998064416 0.0 0.0027770899492473976 0.0 0.0
-0.0005593343114964049 0.0002546998271240322 0.0 0.0025850749920337 0.0 0.0
-0.000420241300687965 0.00022132811691395223 0.0 0.0023843049248986198 0.0 0.0
-0.00036098903790482244 0.00021891681176574993 0.0 0.0022617193327727127 0.0 0.0
-0.0003292511828653235 0.00020486583525703626 0.0 0.002252840486884948 0.0 0.0
-0.00023840291247739846 8.71038894443229e-05 0.0 0.002290786427648556 0.0 0.0
8.150331560468079e-05 -0.0003510879633504153 0.0 0.0020472582586163017 0.0 0.0
0.0003269905035467929 -0.0015874305896913783 0.0 0.0013779880283699608 0.0 0.0
0.00022844044288449292 -0.0012067854876270608 0.0 -0.0012611078836329273 0.0 0.0
3.90274569611938e-06 -0.0003186918388344341 0.0 -0.0019026539706993102 0.0 0.0
-0.00032937214741502694 0.0001216634444811515 0.0 -0.0022396834274911064 0.0 0.0
-0.0004952603656183429 0.00027090992733174487 0.0 -0.002220298310419173 0.0 0.0
-0.000616045111441723 0.00033023866121868414 0.0 -0.0022069478365993205 0.0 0.0
-0.0007867914946120908 0.0003867073605280495 0.0 -0.0022878280744055035 0.0 0.0
-0.0010925017841671744 0.0004908574959963949 0.0 -0.0024186647764100856 0.0 0.0
-0.0016838577360859114 0.0007944845119373308 0.0 -0.002670072148182899 0.0 0.0
-0.002715655002112886 0.0014923561713691476 0.0 -0.00329898377240111 0.0 0.0
-0.004212422096216834 0.0027098897449456365 0.0 -0.004365086394427603 0.0 0.0
-0.006076653259478643 0.004354913296713159 0.0 -0.0057814360712924034 0.0 0.0
-0.008197682931667808 0.006294712989664829 0.0 -0.0072986118441441036 0.0 0.0
-0.010549954031476213 0.008471963339021626 0.0 -0.00881762092153467 0.0 0.0
-0.013179979666140807 0.010950212221474449 0.0 -0.010321089035346709 0.0 0.0
-0.016113528940290875 0.01376738075292092 0.0 -0.011898058934311955 0.0 0.0
-0.019241876077869643 0.016834373672562297 0.0 -0.01375082338412661 0.0 0.0
-0.022248879267318538 0.019839559968514307 0.0 -0.01610872731779355 0.0 0.0
-0.02460591218205021 0.02224965921860668 0.0 -0.01908443618654193 0.0 0.0
-0.02530731267874277 0.023170915577488092 0.0 -0.022080750307180756 0.0 0.0
-0.02245883139377279 0.020679553574598226 0.0 -0.02270468860285188 0.0 0.0
-0.019846058394674262 0.011365390548755442 0.0 1.2156074757907476e-14 0.0 0.0
-0.022458831393771896 0.02067955357460052 0.0 0.02270468860288202 0.0 0.0
-0.025307312678736094 0.023170915577479165 0.0 0.022080750307209913 0.0 0.0
-0.024605912182036987 0.022249659218600035 0.0 0.019084436186553855 0.0 0.0
-0.022248879267300695 0.019839559968496182 0.0 0.01610872731778909 0.0 0.0
-0.01924187607785194 0.016834373672540977 0.0 0.013750823384115655 0.0 0.0
-0.016113528940274978 0.013767380752903326 0.0 0.011898058934302732 0.0 0.0
-0.013179979666124397 0.010950212221458065 0.0 0.010321089035338725 0.0 0.0
-0.010549954031458305 0.00847196333900321 0.0 0.008817620921524171 0.0 0.0
-0.008197682931650525 0.006294712989650001 0.0 0.00729861184412983 0.0 0.0
-0.006076653259463817 0.004354913296700402 0.0 0.0057814360712773296 0.0 0.0
-0.004212422096205327 0.002709889744934835 0.0 0.00436508639441686 0.0 0.0
-0.002715655002105566 0.0014923561713664597 0.0 0.0032989837723959078 0.0 0.0
-0.0016838577360817936 0.000794484511934016 0.0 0.0026700721481809084 0.0 0.0
-0.0010925017841647224 0.0004908574959978793 0.0 0.0024186647764075425 0.0 0.0
-0.0007867914946106043 0.0003867073605262608 0.0 0.002287828074403071 0.0 0.0
-0.000616045111440699 0.0003302386612170823 0.0 0.002206947836597255 0.0 0.0
-0.0004952603656176898 0.0002709099273326916 0.0 0.0022202983104176732 0.0 0.0
-0.00032937214741486436 0.00012166344448108176 0.0 0.0022396834274893518 0.0 0.0
3.902745696028534e-06 -0.00031869183883469947 0.0 0.0019026539706968426 0.0 0.0
0.0002284404428843453 -0.0012067854876256611 0.0 0.0012611078836311219 0.0 0.0
0.0001454130775621814 -0.0008832400123841185 0.0 -0.0011103605654975443 0.0 0.0
-6.393916529604673e-05 -0.0002716633698066117 0.0 -0.001738375265167018 0.0 0.0
-0.000414365492685312 0.00015527863854742833 0.0 -0.0021364509252665117 0.0 0.0
-0.0006526529052762601 0.0003325571905202682 0.0 -0.0021317403847226513 0.0 0.0
-0.0008607634181161362 0.0004340936243069736 0.0 -0.0020925853132419342 0.0 0.0
-0.0011400417078139046 0.000539818132844324 0.0 -0.0021062294167431914 0.0 0.0
-0.0016497433035690115 0.0007484356826522379 0.0 -0.0022047088550340753 0.0 0.0
-0.002642666292675611 0.0013673249547917889 0.0 -0.002665924600885516 0.0 0.0
-0.004287026360948796 0.0026643801936370045 0.0 -0.003679958862117364 0.0 0.0
-0.006561693343742479 0.004685183265119972 0.0 -0.0052008499330475485 0.0 0.0
-0.009322476035382677 0.007243525952271998 0.0 -0.006974904430714995 0.0 0.0
-0.012448846060343426 0.010183507586592111 0.0 -0.00874216057062345 0.0 0.0
-0.015937115963951858 0.013483484747009545 0.0 -0.010435703105818097 0.0 0.0
-0.019863283299082598 0.017231763002102107 0.0 -0.012105103594467122 0.0 0.0
-0.024289272812958375 0.02151125352029891 0.0 -0.013903657005828199 0.0 0.0
-0.02912505991181505 0.026262185168399954 0.0 -0.016119942489430075 0.0 0.0
-0.03400234238110032 0.031134619812866603 0.0 -0.019174873292667826 0.0 0.0
-0.03810589282037294 0.035363628218510766 0.0 -0.02315304150377238 0.0 0.0
-0.039925880279588044 0.03745942088089597 0.0 -0.026949937541721418 0.0 0.0
-0.03672769082588073 0.034890996975724294 0.0 -0.02818329458567362 0.0 0.0
-0.03343097364555862 0.022881916367458587 0.0 1.4215191523891946e-14 0.0 0.0
-0.03672769082587715 0.03489099697572574 0.0 0.028183294585708604 0.0 0.0
-0.03992588027957775 0.03745942088088927 0.0 0.026949937541754315 0.0 0.0
-0.038105892820354204 0.035363628218493565 0.0 0.023153041503788913 0.0 0.0
-0.034002342381076 0.03113461981284462 0.0 0.01917487329266501 0.0 0.0
-0.029125059911790034 0.0262621851683769 0.0 0.01611994248941802 0.0 0.0
-0.02428927281293484 0.021511253520272503 0.0 0.013903657005817912 0.0 0.0
-0.01986328329905914 0.017231763002081683 0.0 0.012105103594457794 0.0 0.0
-0.015937115963927388 0.013483484746982459 0.0 0.010435703105806961 0.0 0.0
-0.01244884606031964 0.010183507586573527 0.0 0.008742160570607843 0.0 0.0
-0.009322476035361531 0.007243525952249521 0.0 0.006974904430698134 0.0 0.0
-0.0065616933437258485 0.004685183265105623 0.0 0.0052008499330332275 0.0 0.0
-0.004287026360937533 0.0026643801936278803 0.0 0.0036799588621092135 0.0 0.0
-0.0026426662926689595 0.0013673249547893306 0.0 0.0026659246008811123 0.0 0.0
-0.0016497433035655886 0.0007484356826509923 0.0 0.002204708855032565 0.0 0.0
-0.001140041707811976 0.000539818132843482 0.0 0.0021062294167420743 0.0 0.0
-0.0008607634181149984 0.00043409362430577665 0.0 0.002092585313239845 0.0 0.0
-0.0006526529052755509 0.0003325571905197659 0.0 0.0021317403847200956 0.0 0.0
-0.00041436549268495754 0.00015527863854810742 0.0 0.0021364509252642305 0.0 0.0
-6.393916529601219e-05 -0.00027166336980686753 0.0 0.001738375265163906 0.0 0.0
0.00014541307756213973 -0.0008832400123832155 0.0 0.0011103605654965074 0.0 0.0
7.213289897019476e-05 -0.0006111514641771936 0.0 -0.0009482507272085725 0.0 0.0
-0.00012639015936114837 -0.00021330338178381927 0.0 -0.0015485197100849335 0.0 0.0
-0.0004953765252687268 0.00018928532653245776 0.0 -0.001981484195984695 0.0 0.0
-0.0008022051759352267 0.00038986052688482815 0.0 -0.001987899305523739 0.0 0.0
-0.0010918648362866035 0.0005275663574075259 0.0 -0.001915844165326963 0.0 0.0
-0.0014942769155944654 0.0006853340107890731 0.0 -0.0018546729651844232 0.0 0.0
-0.002264057582695855 0.0010777777997793415 0.0 -0.0020063127106121725 0.0 0.0
-0.0037113550705261894 0.002122025028122526 0.0 -0.0026680841105265547 0.0 0.0
-0.005985744168252549 0.004077954204483712 0.0 -0.003959939475132188 0.0 0.0
-0.009017804302128512 0.006875759605346378 0.0 -0.005720123566450213 0.0 0.0
-0.012639660418160297 0.010294904490310109 0.0 -0.0076012085721386905 0.0 0.0
-0.016755160280996086 0.01421153843735963 0.0 -0.009441227334471898 0.0 0.0
-0.0213826515440828 0.01862912153455112 0.0 -0.011206417457818262 0.0 0.0
-0.02661556782104704 0.023653286142924872 0.0 -0.012967944267062706 0.0 0.0
-0.03254737248928124 0.029403427935857103 0.0 -0.014868761017210425 0.0 0.0
-0.03911980518122626 0.03586411580250712 0.0 -0.017268250432294772 0.0 0.0
-0.045875945396118334 0.04263086435938573 0.0 -0.02066963061489304 0.0 0.0
-0.05166910291671765 0.048618681567677055 0.0 -0.025186862785507056 0.0 0.0
-0.0543827573262312 0.05175771192982024 0.0 -0.02977761421326483 0.0 0.0
-0.050494388960664806 0.04867219571644473 0.0 -0.03182728341217187 0.0 0.0
-0.04635338589460807 0.03402739958367465 0.0 1.533669025111095e-14 0.0 0.0
-0.050494388960658484 0.04867219571643802 0.0 0.03182728341220758 0.0 0.0
-0.054382757326217 0.05175771192981169 0.0 0.029777614213301967 0.0 0.0
-0.051669102916694 0.04861868156765678 0.0 0.025186862785527477 0.0 0.0
-0.04587594539608833 0.04263086435935679 0.0 0.020669630614891348 0.0 0.0
-0.03911980518119434 0.03586411580247605 0.0 0.017268250432284738 0.0 0.0
-0.03254737248925012 0.029403427935828633 0.0 0.014868761017199205 0.0 0.0
-0.026615567821016765 0.023653286142896857 0.0 0.012967944267054504 0.0 0.0
-0.021382651544051726 0.018629121534517384 0.0 0.011206417457806749 0.0 0.0
-0.016755160280965516 0.014211538437334043 0.0 0.009441227334455491 0.0 0.0
-0.012639660418133605 0.0102949044902789 0.0 0.007601208572120334 0.0 0.0
-0.009017804302107156 0.00687575960532732 0.0 0.005720123566435309 0.0 0.0
-0.0059857441682369 0.004077954204469819 0.0 0.003959939475123064 0.0 0.0
-0.003711355070516058 0.002122025028118517 0.0 0.002668084110519998 0.0 0.0
-0.0022640575826905467 0.0010777777997761165 0.0 0.0020063127106086614 0.0 0.0
-0.0014942769155924665 0.000685334010787933 0.0 0.0018546729651835805 0.0 0.0
-0.0010918648362856307 0.0005275663574072538 0.0 0.0019158441653252074 0.0 0.0
-0.0008022051759343933 0.0003898605268847171 0.0 0.0019878993055218257 0.0 0.0
-0.0004953765252679934 0.0001892853265323948 0.0 0.001981484195983987 0.0 0.0
-0.00012639015936078866 -0.0002133033817839996 0.0 0.0015485197100827204 0.0 0.0
7.213289897017004e-05 -0.0006111514641765717 0.0 0.0009482507272068613 0.0 0.0
7.553532950218915e-06 -0.00038810102265686056 0.0 -0.0007811558397134832 0.0 0.0
-0.0001843628321248266 -0.00014819712826829015 0.0 -0.001334102982920814 0.0 0.0
-0.000573280407749074 0.00022449510540697981 0.0 -0.0017754514070836705 0.0 0.0
-0.0009430185416197023 0.0004426258414738603 0.0 -0.0017887540041679182 0.0 0.0
-0.0013125692142823206 0.0006100689485230503 0.0 -0.0016774707368006792 0.0 0.0
-0.0018682953837835911 0.0008470972466843576 0.0 -0.0015742207369406156 0.0 0.0
-0.00294804421682108 0.0015040330828184879 0.0 -0.0017933124540416604 0.0 0.0
-0.004882010647257069 0.0030461829363230774 0.0 -0.0026024300452504906 0.0 0.0
-0.007779917060392593 0.005658329692991245 0.0 -0.0040434339888956086 0.0 0.0
-0.011528385976202236 0.009175867972683962 0.0 -0.005797693012576589 0.0 0.0
-0.01598866461141084 0.013423732658993773 0.0 -0.007627031450519274 0.0 0.0
-0.021098978812135783 0.018313944751052347 0.0 -0.009422400760428508 0.0 0.0
-0.026876728248411638 0.02385773663350471 0.0 -0.011163652240955573 0.0 0.0
-0.03342170611353501 0.030168016426562076 0.0 -0.012925304307780043 0.0 0.0
-0.04085785969300116 0.037386388089294995 0.0 -0.014830493112367947 0.0 0.0
-0.0491455499164084 0.04553201921342511 0.0 -0.01714660663685428 0.0 0.0
-0.05773675348280716 0.05415274968952262 0.0 -0.02040790087733709 0.0 0.0
-0.06515699423592314 0.06185651153990407 0.0 -0.02500401124206588 0.0 0.0
-0.06865660961855558 0.06593450750595366 0.0 -0.030243487920685798 0.0 0.0
-0.06405971192123192 0.06226394492237376 0.0 -0.03411244687247273 0.0 0.0
-0.05912472918652864 0.045185157601314856 0.0 1.6335890973273592e-14 0.0 0.0
-0.06405971192122326 0.06226394492236381 0.0 0.034112446872510534 0.0 0.0
-0.06865660961853656 0.06593450750593798 0.0 0.030243487920723996 0.0 0.0
-0.06515699423589465 0.061856511539875814 0.0 0.025004011242086187 0.0 0.0
-0.057736753482772366 0.054152749689490326 0.0 0.020407900877337633 0.0 0.0
-0.049145549916370504 0.04553201921338346 0.0 0.017146606636848652 0.0 0.0
-0.04085785969296257 0.0373863880892607 0.0 0.014830493112357481 0.0 0.0
-0.0334217061134969 0.03016801642652288 0.0 0.012925304307769827 0.0 0.0
-0.026876728248373775 0.023857736633466176 0.0 0.011163652240945541 0.0 0.0
-0.021098978812099288 0.01831394475102018 0.0 0.00942240076041252 0.0 0.0
-0.01598866461137845 0.013423732658959943 0.0 0.007627031450501271 0.0 0.0
-0.011528385976175545 0.009175867972659468 0.0 0.005797693012562949 0.0 0.0
-0.007779917060372947 0.0056583296929724695 0.0 0.004043433988885591 0.0 0.0
-0.0048820106472442565 0.0030461829363157148 0.0 0.002602430045244462 0.0 0.0
-0.0029480442168139517 0.0015040330828154876 0.0 0.001793312454036777 0.0 0.0
-0.0018682953837804144 0.0008470972466828034 0.0 0.0015742207369393185 0.0 0.0
-0.0013125692142809163 0.0006100689485222122 0.0 0.001677470736799436 0.0 0.0
-0.0009430185416187836 0.00044262584147434375 0.0 0.0017887540041672378 0.0 0.0
-0.0005732804077486602 0.00022449510540659785 0.0 0.0017754514070824233 0.0 0.0
-0.00018436283212480586 -0.00014819712826824024 0.0 0.0013341029829202333 0.0 0.0
7.553532950238368e-06 -0.00038810102265652083 0.0 0.0007811558397124987 0.0 0.0
-4.723344495491535e-05 -0.00021350090410078432 0.0 -0.0006117871375268192 0.0 0.0
-0.00023670110031129537 -8.104364389472018e-05 0.0 -0.0010972769946510366 0.0 0.0
-0.0006478176435550303 0.00026052106562257047 0.0 -0.0015196714253102944 0.0 0.0
-0.0010763905701394207 0.0004908317962330072 0.0 -0.0015342065271831675 0.0 0.0
-0.0015336746370376386 0.0006851560112815471 0.0 -0.001386532961378804 0.0 0.0
-0.002274017976278736 0.0010471171573451584 0.0 -0.0012722475377574488 0.0 0.0
-0.003705864722412527 0.002041516730653313 0.0 -0.001547286954421421 0.0 0.0
-0.00613988550940207 0.004119268528291183 0.0 -0.002454587087243172 0.0 0.0
-0.00962196611075362 0.0073266277876886405 0.0 -0.0038169495519018368 0.0 0.0
-0.014056727247221797 0.0115258674969484 0.0 -0.005404009411011144 0.0 0.0
-0.01935584602681199 0.016594261814333336 0.0 -0.007082197886524742 0.0 0.0
-0.025463216213754594 0.022458536983631136 0.0 -0.00872661799045721 0.0 0.0
-0.03240284477238322 0.02914148002709399 0.0 -0.010337789848475576 0.0 0.0
-0.04027394534092994 0.03675322689525309 0.0 -0.0120042849366915 0.0 0.0
-0.04918615252318874 0.04542374345437322 0.0 -0.013804505346599712 0.0 0.0
-0.05910826566071463 0.05517279344989874 0.0 -0.015831452181865414 0.0 0.0
-0.06945280111931666 0.06554028414415315 0.0 -0.01848558843437455 0.0 0.0
-0.07845360862393408 0.0749094176307967 0.0 -0.02258332681405103 0.0 0.0
-0.08279917511606033 0.07999131962553652 0.0 -0.028450380683007002 0.0 0.0
-0.07770321429851655 0.07596555084195745 0.0 -0.035333141451020796 0.0 0.0
-0.07211242629440914 0.056710958400316966 0.0 1.6817276737857156e-14 0.0 0.0
-0.07770321429850525 0.07596555084194814 0.0 0.03533314145105688 0.0 0.0
-0.08279917511603704 0.0799913196255166 0.0 0.028450380683043557 0.0 0.0
-0.07845360862390026 0.07490941763076123 0.0 0.022583326814069334 0.0 0.0
-0.06945280111927588 0.06554028414411504 0.0 0.018485588434376875 0.0 0.0
-0.05910826566067044 0.055172793449855755 0.0 0.015831452181860717 0.0 0.0
-0.049186152523143636 0.04542374345432788 0.0 0.013804505346591583 0.0 0.0
-0.04027394534088511 0.03675322689520876 0.0 0.012004284936680886 0.0 0.0
-0.03240284477233868 0.029141480027050574 0.0 0.010337789848466363 0.0 0.0
-0.02546321621371181 0.022458536983589253 0.0 0.008726617990441454 0.0 0.0
-0.019355846026773857 0.016594261814296397 0.0 0.00708219788650797 0.0 0.0
-0.014056727247190245 0.011525867496922563 0.0 0.005404009410996294 0.0 0.0
-0.009621966110729538 0.007326627787663317 0.0 0.0038169495518912966 0.0 0.0
-0.006139885509385818 0.004119268528279168 0.0 0.002454587087236344 0.0 0.0
-0.003705864722403217 0.0020415167306460456 0.0 0.0015472869544181807 0.0 0.0
-0.002274017976274586 0.0010471171573432428 0.0 0.0012722475377562941 0.0 0.0
-0.0015336746370362114 0.0006851560112816095 0.0 0.0013865329613782786 0.0 0.0
-0.0010763905701384165 0.0004908317962326483 0.0 0.0015342065271816622 0.0 0.0
-0.0006478176435542813 0.0002605210656226605 0.0 0.001519671425307642 0.0 0.0
-0.00023670110031098247 -8.104364389453647e-05 0.0 0.0010972769946502676 0.0 0.0
-4.723344495467887e-05 -0.000213500904100499 0.0 0.000611787137525448 0.0 0.0
-8.951499119690766e-05 -8.789516060731538e-05 0.0 -0.00044415998384480506 0.0 0.0
-0.00028038765251553574 -1.680087735309362e-05 0.0 -0.0008408078461944195 0.0 0.0
-0.0007173939142769608 0.0002957652877017502 0.0 -0.0012131304469359472 0.0 0.0
-0.0012048625968620098 0.0005343583852396217 0.0 -0.0012229761444448768 0.0 0.0
-0.0017639662413755763 0.0007637291716615654 0.0 -0.0010476803380047 0.0 0.0
-0.0027262838144698487 0.0013007455225042134 0.0 -0.0009356060325097291 0.0 0.0
-0.004542348010851745 0.002702872180209185 0.0 -0.0012799581431144097 0.0 0.0
-0.007446026419248323 0.005280037891970776 0.0 -0.0021168610697880007 0.0 0.0
-0.011472847624036709 0.009030519432354767 0.0 -0.0032400171518572984 0.0 0.0
-0.016589097901941983 0.013898984146929139 0.0 -0.004574201829740233 0.0 0.0
-0.022722016953327203 0.019781026126386984 0.0 -0.005986708090984477 0.0 0.0
-0.029831457014066975 0.02662299822721489 0.0 -0.007373415468386971 0.0 0.0
-0.03794749350386202 0.03445760910458575 0.0 -0.008742394799242336 0.0 0.0
-0.04715059260712969 0.04338654561428918 0.0 -0.01019701926115675 0.0 0.0
-0.05751051872705705 0.053493676631569925 0.0 -0.011794893643673001 0.0 0.0
-0.06894612388975221 0.0647303097319838 0.0 -0.013442894148765101 0.0 0.0
-0.08086794241777029 0.07662955768605119 0.0 -0.015156661104520523 0.0 0.0
-0.09142748163003765 0.08759093673164328 0.0 -0.017997170554103006 0.0 0.0
-0.09688149322753266 0.09395619251075653 0.0 -0.024294552464190364 0.0 0.0
-0.09169807681274249 0.09007556672870573 0.0 -0.03525238386494352 0.0 0.0
-0.08565922444615323 0.06897527333966053 0.0 1.5407813913626e-14 0.0 0.0
-0.09169807681272918 0.09007556672869352 0.0 0.0352523838649748 0.0 0.0
-0.09688149322750522 0.0939561925107307 0.0 0.024294552464221006 0.0 0.0
-0.0914274816299987 0.08759093673160562 0.0 0.017997170554120104 0.0 0.0
-0.08086794241772391 0.07662955768600625 0.0 0.015156661104523253 0.0 0.0
-0.06894612388970126 0.06473030973194083 0.0 0.013442894148763162 0.0 0.0
-0.0575105187270049 0.053493676631518605 0.0 0.011794893643668194 0.0 0.0
-0.04715059260707825 0.04338654561424132 0.0 0.010197019261149147 0.0 0.0
-0.03794749350381089 0.03445760910453568 0.0 0.008742394799234405 0.0 0.0
-0.029831457014018035 0.026622998227167606 0.0 0.00737341546837424 0.0 0.0
-0.022722016953283915 0.019781026126344907 0.0 0.005986708090970791 0.0 0.0
-0.01658909790190621 0.013898984146897123 0.0 0.004574201829727171 0.0 0.0
-0.011472847624008862 0.009030519432328035 0.0 0.0032400171518492363 0.0 0.0
-0.007446026419228757 0.005280037891955035 0.0 0.002116861069781071 0.0 0.0
-0.004542348010839954 0.0027028721801982307 0.0 0.001279958143111203 0.0 0.0
-0.0027262838144645027 0.0013007455225002027 0.0 0.0009356060325092638 0.0 0.0
-0.0017639662413735631 0.0007637291716612552 0.0 0.0010476803380048796 0.0 0.0
-0.0012048625968609115 0.0005343583852384627 0.0 0.00122297614444338 0.0 0.0
-0.000717393914276211 0.00029576528770123715 0.0 0.0012131304469337207 0.0 0.0
-0.00028038765251528784 -1.6800877353169514e-05 0.0 0.000840807846192421 0.0 0.0
-8.951499119707758e-05 -8.789516060719134e-05 0.0 0.00044415998384350863 0.0 0.0
-0.00011458857961448943 -1.2162020581734716e-05 0.0 -0.0002877711293066379 0.0 0.0
-0.0003098658226737887 3.830950132542116e-05 0.0 -0.0005683454830165758 0.0 0.0
-0.0007790513920880002 0.0003269899553011626 0.0 -0.0008500519552154785 0.0 0.0
-0.0013327342247435457 0.0005752361518046993 0.0 -0.0008504756999549697 0.0 0.0
-0.002015508087469304 0.0008585356909931734 0.0 -0.00066777367039679 0.0 0.0
-0.0032401096845449243 0.001640097931008653 0.0 -0.0005868852925527431 0.0 0.0
-0.005431480190475024 0.0034608111021614497 0.0 -0.0009261721640733794 0.0 0.0
-0.008766803291607006 0.006474001068282644 0.0 -0.0015256104877732985 0.0 0.0
-0.01332261518701147 0.010750152462261867 0.0 -0.002344799386331026 0.0 0.0
-0.01910680296906672 0.01627218276868158 0.0 -0.0033188607401189816 0.0 0.0
-0.026070632119794688 0.022962726659790246 0.0 -0.004353761000748934 0.0 0.0
-0.03418616490252697 0.03078710771106004 0.0 -0.005369803354351686 0.0 0.0
-0.04348665338794532 0.03978548090644719 0.0 -0.0063875452466363855 0.0 0.0
-0.05403654214425682 0.0500425034839475 0.0 -0.0075165926739000225 0.0 0.0
-0.06582071802563635 0.06157193130361717 0.0 -0.008774542893208132 0.0 0.0
-0.07862513216581334 0.07419108574025032 0.0 -0.00997897633445999 0.0 0.0
-0.0918497807170214 0.08734148574838839 0.0 -0.010830306251255015 0.0 0.0
-0.10389615972462149 0.09962762095115288 0.0 -0.011916652747828176 0.0 0.0
-0.11089407503183488 0.10770577237623902 0.0 -0.01710657005075897 0.0 0.0
-0.10633326517479483 0.10494939195903516 0.0 -0.03292980751422498 0.0 0.0
-0.10021154335112761 0.0825212687479037 0.0 1.0826409213571253e-14 0.0 0.0
-0.10633326517477883 0.10494939195902357 0.0 0.032929807514249974 0.0 0.0
-0.11089407503180278 0.10770577237620446 0.0 0.017106570050783643 0.0 0.0
-0.10389615972457697 0.09962762095110739 0.0 0.011916652747839868 0.0 0.0
-0.09184978071696911 0.0873414857483354 0.0 0.010830306251256035 0.0 0.0
-0.07862513216575603 0.0741910857402034 0.0 0.009978976334458977 0.0 0.0
-0.06582071802557761 0.06157193130356037 0.0 0.008774542893204796 0.0 0.0
-0.05403654214419838 0.05004250348388995 0.0 0.007516592673895456 0.0 0.0
-0.04348665338788753 0.03978548090638955 0.0 0.006387545246631002 0.0 0.0
-0.034186164902472095 0.030787107711007212 0.0 0.005369803354342917 0.0 0.0
-0.026070632119746213 0.022962726659743686 0.0 0.004353761000737904 0.0 0.0
-0.019106802969026636 0.016272182768643752 0.0 0.0033188607401086747 0.0 0.0
-0.013322615186980023 0.010750152462232343 0.0 0.0023447993863252854 0.0 0.0
-0.008766803291584576 0.00647400106826531 0.0 0.0015256104877688142 0.0 0.0
-0.0054314801904608925 0.003460811102146653 0.0 0.0009261721640684668 0.0 0.0
-0.003240109684537906 0.0016400979310030083 0.0 0.0005868852925514036 0.0 0.0
-0.0020155080874668637 0.0008585356909923893 0.0 0.0006677736703975983 0.0 0.0
-0.0013327342247426532 0.000575236151803493 0.0 0.0008504756999544332 0.0 0.0
-0.0007790513920875558 0.0003269899553003496 0.0 0.000850051955215446 0.0 0.0
-0.0003098658226734097 3.830950132554027e-05 0.0 0.000568345483015165 0.0 0.0
-0.00011458857961409731 -1.2162020581849055e-05 0.0 0.0002877711293059724 0.0 0.0
-0.00011430974886130502 1.3736722168125142e-05 0.0 -0.0001637114216893742 0.0 0.0
-0.0003155722759427861 7.45258577636676e-05 0.0 -0.0002845940763918863 0.0 0.0
-0.0008280765566345428 0.00034912467888045074 0.0 -0.0004154255298555407 0.0 0.0
-0.0014678734390489241 0.0006195869074765853 0.0 -0.00040935913430174755 0.0 0.0
-0.002306904109261257 0.0009911805713197427 0.0 -0.0002624096231284098 0.0 0.0
-0.0038094899473272974 0.002069451380214006 0.0 -0.0002178237250906651 0.0 0.0
-0.006350029731540999 0.0042707757155496405 0.0 -0.0004127613490849337 0.0 0.0
-0.010087261715277265 0.007684161172753487 0.0 -0.0007196945730984848 0.0 0.0
-0.015153163884942776 0.01246477638580959 0.0 -0.0011375168652448008 0.0 0.0
-0.02159230488671306 0.01862349731985924 0.0 -0.0016461619281957088 0.0 0.0
-0.02938283257170081 0.026119032249418212 0.0 -0.002184129670197388 0.0 0.0
-0.038510954118656876 0.03493476243323315 0.0 -0.00271817726924347 0.0 0.0
-0.049008007136940195 0.045107889567174014 0.0 -0.003296215613122567 0.0 0.0
-0.06089581318350075 0.056686147435212844 0.0 -0.003953472959682868 0.0 0.0
-0.07407822021042804 0.06961552700772813 0.0 -0.004683085749819991 0.0 0.0
-0.08818517186078582 0.08356453204906064 0.0 -0.0053761153662203135 0.0 0.0
-0.10243250390866779 0.09776457147503183 0.0 -0.005726725823027666 0.0 0.0
-0.1155023370992071 0.11087350933329579 0.0 -0.005632122831531365 0.0 0.0
-0.12452798974412853 0.12043849900921849 0.0 -0.0076944900240512445 0.0 0.0
-0.1220171049875 0.12080165882107324 0.0 -0.023617869832563504 0.0 0.0
-0.11651800157056398 0.09896692168413998 0.0 6.0645932720149176e-15 0.0 0.0
-0.12201710498748142 0.12080165882105973 0.0 0.02361786983257693 0.0 0.0
-0.1245279897440924 0.12043849900918024 0.0 0.007694490024065418 0.0 0.0
-0.1155023370991565 0.11087350933324466 0.0 0.005632122831536988 0.0 0.0
-0.10243250390860806 0.09776457147497118 0.0 0.00572672582302961 0.0 0.0
-0.08818517186072179 0.08356453204899854 0.0 0.005376115366219691 0.0 0.0
-0.07407822021036273 0.06961552700766571 0.0 0.004683085749815828 0.0 0.0
-0.06089581318343555 0.056686147435144704 0.0 0.003953472959679311 0.0 0.0
-0.049008007136875684 0.04510788956711046 0.0 0.003296215613119053 0.0 0.0
-0.03851095411859576 0.03493476243317298 0.0 0.0027181772692374847 0.0 0.0
-0.02938283257164744 0.026119032249366732 0.0 0.0021841296701919375 0.0 0.0
-0.021592304886668832 0.018623497319816922 0.0 0.001646161928191097 0.0 0.0
-0.015153163884907605 0.012464776385777535 0.0 0.0011375168652410905 0.0 0.0
-0.010087261715252161 0.007684161172730002 0.0 0.000719694573096863 0.0 0.0
-0.00635002973152474 0.0042707757155342725 0.0 0.0004127613490829803 0.0 0.0
-0.0038094899473183454 0.002069451380208337 0.0 0.0002178237250908214 0.0 0.0
-0.0023069041092579953 0.0009911805713192312 0.0 0.0002624096231288913 0.0 0.0
-0.0014678734390479134 0.0006195869074764296 0.0 0.00040935913430098974 0.0 0.0
-0.0008280765566340112 0.00034912467887954484 0.0 0.00041542552985597374 0.0 0.0
-0.00031557227594274415 7.452585776361248e-05 0.0 0.00028459407639066966 0.0 0.0
-0.00011430974886145442 1.3736722168030444e-05 0.0 0.0001637114216892247 0.0 0.0
-7.383722695880322e-05 1.434260506653412e-05 0.0 -0.00010249042678330522 0.0 0.0
-0.00028096543172173995 8.636346265629012e-05 0.0 -0.00011813275617344129 0.0 0.0
-0.0008579589405241098 0.000357207864351965 0.0 -0.00014130731058336626 0.0 0.0
-0.0016251823754435514 0.0006435574530794485 0.0 -0.00011992449086566891 0.0 0.0
-0.002650720818299277 0.001071290728351449 0.0 6.074370758348571e-05 0.0 0.0
-0.004421284957902405 0.0023024634418685637 0.0 0.00022426852872507464 0.0 0.0
-0.00728019123302836 0.004684096467258776 0.0 0.0002820209906855967 0.0 0.0
-0.0113951626108614 0.008291673432505224 0.0 0.00030357958586811216 0.0 0.0
-0.016948247964395074 0.013317940180869504 0.0 0.0002962843765103038 0.0 0.0
-0.024026655609992335 0.019791193740269476 0.0 0.00023598553986667607 0.0 0.0
-0.03264175489144801 0.027687902575921214 0.0 0.00016832715651334115 0.0 0.0
-0.04279449282687309 0.03700312050791887 0.0 9.0577204687138e-05 0.0 0.0
-0.0544836159873321 0.04776582078882531 0.0 -5.574836459495535e-05 0.0 0.0
-0.06768855592586384 0.05999911439687389 0.0 -0.00023933335498479112 0.0 0.0
-0.08224841941079065 0.07362298329257774 0.0 -0.0005220557416193098 0.0 0.0
-0.09764296388366417 0.08823070486301685 0.0 -0.0008821529282761302 0.0 0.0
-0.1128343638411629 0.10292503296057554 0.0 -0.0011763152309636257 0.0 0.0
-0.1262890062729588 0.11630541449306657 0.0 -0.0011452420712920082 0.0 0.0
-0.13632480897914495 0.12638280491409065 0.0 -0.0017917174929162174 0.0 0.0
-0.13878072097311622 0.12897475720899332 0.0 -0.01698334086625568 0.0 0.0
-0.13727598037758038 0.10823470724328622 0.0 1.6306400674181987e-15 0.0 0.0
-0.13878072097309552 0.128974757208977 0.0 0.016983340866259845 0.0 0.0
-0.13632480897910404 0.12638280491404977 0.0 0.0017917174929225291 0.0 0.0
-0.12628900627290052 0.11630541449301797 0.0 0.001145242071292166 0.0 0.0
-0.11283436384109502 0.10292503296050895 0.0 0.0011763152309645277 0.0 0.0
-0.09764296388359371 0.08823070486294413 0.0 0.0008821529282761822 0.0 0.0
-0.0822484194107185 0.07362298329251547 0.0 0.0005220557416169922 0.0 0.0
-0.0676885559257913 0.059999114396801945 0.0 0.0002393333549844008 0.0 0.0
-0.05448361598726151 0.04776582078876004 0.0 5.5748364595460155e-05 0.0 0.0
-0.042794492826806065 0.037003120507857486 0.0 -9.057720469181525e-05 0.0 0.0
-0.03264175489138895 0.027687902575866633 0.0 -0.00016832715651553167 0.0 0.0
-0.024026655609944134 0.019791193740224054 0.0 -0.00023598553986646943 0.0 0.0
-0.01694824796435682 0.013317940180837802 0.0 -0.0002962843765124401 0.0 0.0
-0.011395162610833483 0.008291673432476169 0.0 -0.0003035795858684215 0.0 0.0
-0.007280191233010054 0.004684096467245399 0.0 -0.0002820209906842434 0.0 0.0
-0.004421284957892022 0.002302463441862531 0.0 -0.00022426852872225165 0.0 0.0
-0.002650720818295082 0.0010712907283502902 0.0 -6.0743707582725794e-05 0.0 0.0
-0.0016251823754422216 0.0006435574530798496 0.0 0.0001199244908656779 0.0 0.0
-0.000857958940523754 0.0003572078643506462 0.0 0.00014130731058330603 0.0 0.0
-0.0002809654317214532 8.636346265580786e-05 0.0 0.00011813275617130312 0.0 0.0
-7.383722695812709e-05 1.4342605066535774e-05 0.0 0.00010249042678455804 0.0 0.0
SCALARS Statev float 8
LOOKUP_TABLE default
0.0 0.016289959105402485 0.012985953637743592 -0.015583215357452402 0.002597261719708817 -0.0007174299194411986 0.0 0.0
0.0 0.005293558490814081 0.0038425095214160705 -0.0022835019439412995 -0.0015590075774747692 -0.006215949517011282 0.0 0.0
0.0 3.966580014469736e-05 8.278089644532878e-05 -5.2746111072474765e-05 -3.0034785372854056e-05 -0.00019276053294952248 0.0 0.0
0.0 0.00011311796637681243 2.9512331879898348e-05 -2.106758862935832e-05 -8.444743250540164e-06 1.1661501003195035e-05 0.0 0.0
0.0 0.0007059012971687757 0.0004007811548537996 -0.0002907127580541966 -0.00011006839679960349 9.18814926850016e-05 0.0 0.0
0.0 0.0017460012501113375 0.0017723350564650127 -0.0013794388118304472 -0.0003928962446345637 0.000192267513417236 0.0 0.0
0.0 0.0045857490064584484 0.004233081553509873 -0.003543445899679281 -0.0006896356538305889 0.00026961601619627655 0.0 0.0
0.0 0.00882375076035411 0.008028590669412791 -0.007085909448249429 -0.0009426812211633612 0.00030967422569017354 0.0 0.0
0.0 0.014765308780762683 0.013268540147398594 -0.012117068833334264 -0.001151471314064322 0.0003176767740454337 0.0 0.0
0.0 0.022507768071076226 0.02001141118846747 -0.01864783600498096 -0.0013635751834865312 0.0002776248817871341 0.0 0.0
0.0 0.03204796868634122 0.028266565825920815 -0.02666037628785534 -0.0016061895380654677 0.00022810033371345212 0.0 0.0
0.0 0.04306644152569836 0.03804591673961146 -0.036160395333809936 -0.001885521405801528 0.00016284013741326776 0.0 0.0
0.0 0.05593079931170543 0.04935655411592159 -0.04716342847368789 -0.002193125642233718 2.387250934992647e-05 0.0 0.0
0.0 0.07058461894169762 0.06220255681876899 -0.05968378876810815 -0.002518768050660819 -0.00013686615069352453 0.0 0.0
0.0 0.0869460917479279 0.07650849678925908 -0.07366249162409604 -0.0028460051651628855 -0.0003701208949531008 0.0 0.0
0.0 0.10469492160030872 0.09195790145209283 -0.08880061688787336 -0.0031572845642194878 -0.0006858883832451946 0.0 0.0
0.0 0.12301477216252907 0.10787387208663829 -0.10443744426146288 -0.003436427825175385 -0.0010319778749777 0.0 0.0
0.0 0.14066864942224455 0.12319455416893482 -0.11952775329710702 -0.0036668008718276383 -0.0012756860332089625 0.0 0.0
0.0 0.15609276168611674 0.13657274675249592 -0.13273240353280197 -0.0038403432196939236 -0.001243353546739651 0.0 0.0
0.0 0.1672709679956652 0.14645000229270147 -0.14251358502456704 -0.003936417268134579 -0.001269781806663196 0.0 0.0
0.0 0.1717744494931304 0.15035089228720505 -0.14642696919440065 -0.003923923092804259 1.916869440954372e-15 0.0 0.0
0.0 0.16727096799564503 0.14645000229268346 -0.14251358502454986 -0.003936417268133544 0.00126978180666957 0.0 0.0
0.0 0.15609276168606978 0.13657274675245518 -0.13273240353276144 -0.0038403432196936604 0.0012433535467455733 0.0 0.0
0.0 0.14066864942218468 0.12319455416888213 -0.11952775329705598 -0.0036668008718261313 0.0012756860332128472 0.0 0.0
0.0 0.12301477216245904 0.10787387208657674 -0.10443744426140418 -0.00343642782517257 0.0010319778749772468 0.0 0.0
0.0 0.10469492160023103 0.09195790145202465 -0.08880061688780651 -0.003157284564218213 0.0006858883832417755 0.0 0.0
0.0 0.08694609174784804 0.07650849678918949 -0.07366249162402763 -0.0028460051651617193 0.0003701208949524249 0.0 0.0
0.0 0.07058461894162209 0.062202556818703 -0.05968378876804363 -0.0025187680506594426 0.00013686615069311578 0.0 0.0
0.0 0.05593079931162723 0.049356554115853414 -0.04716342847362119 -0.0021931256422321696 -2.387250935177764e-05 0.0 0.0
0.0 0.043066441525629634 0.0380459167395511 -0.0361603953337511 -0.0018855214057999978 -0.00016284013741510537 0.0 0.0
0.0 0.03204796868628162 0.028266565825868416 -0.026660376287804686 -0.0016061895380637225 -0.00022810033371458045 0.0 0.0
0.0 0.022507768071028146 0.020011411188425365 -0.01864783600494023 -0.001363575183485162 -0.0002776248817885494 0.0 0.0
0.0 0.01476530878072801 0.013268540147367752 -0.012117068833304578 -0.0011514713140631594 -0.00031767677404577813 0.0 0.0
0.0 0.00882375076032745 0.008028590669388543 -0.0070859094482264295 -0.0009426812211621187 -0.0003096742256898031 0.0 0.0
0.0 0.00458574900644379 0.004233081553495726 -0.0035434458996665107 -0.0006896356538292123 -0.00026961601619620613 0.0 0.0
0.0 0.001746001250103949 0.0017723350564572686 -0.001379438811824102 -0.0003928962446331655 -0.0001922675134164757 0.0 0.0
0.0 0.0007059012971654957 0.0004007811548517671 -0.00029071275805273304 -0.00011006839679903293 -9.188149268455625e-05 0.0 0.0
0.0 0.00011311796637596157 2.9512331879906056e-05 -2.1067588629374498e-05 -8.444743250531089e-06 -1.1661501003125141e-05 0.0 0.0
0.0 3.9665800143883375e-05 8.278089644475449e-05 -5.2746111072073176e-05 -3.0034785372680807e-05 0.00019276053294856496 0.0 0.0
0.0 0.005293558490805147 0.003842509521411517 -0.002283501943938178 -0.001559007577473333 0.006215949517002474 0.0 0.0
0.0 0.0162899591053828 0.012985953637730191 -0.015583215357433877 0.0025972617197036717 0.0007174299194073184 0.0 0.0
0.0 0.013172150517086444 0.009789587288083339 -0.012782352148527704 0.002992764860444356 -0.0002552093563378205 0.0 0.0
0.0 0.0031349041450179447 0.002242008028723746 -0.0013005816852218162 -0.0009414263435019252 -0.004749500240020819 0.0 0.0
0.0 -4.784714525243317e-05 -5.325348447102455e-05 4.556703450828439e-05 7.68644996274018e-06 -4.2254268138286774e-05 0.0 0.0
0.0 1.3180467453906096e-05 4.884300366162929e-06 -3.4540637667545176e-06 -1.4302365994084412e-06 5.8170250282435195e-06 0.0 0.0
0.0 0.00034419227921405525 0.00023975884448242178 -0.00017523882532497452 -6.4520019157447e-05 3.780520227433922e-05 0.0 0.0
0.0 0.0015454873682123678 0.001303893803030076 -0.0010240297327172437 -0.0002798640703128343 5.189353261336961e-05 0.0 0.0
0.0 0.0038397341311538578 0.0035440088482745586 -0.002998463461470581 -0.0005455453868039725 -0.00013065937736182862 0.0 0.0
0.0 0.007769550285685038 0.00701783743358375 -0.006272062022729041 -0.0007457754108547128 -0.00042921613243957624 0.0 0.0
0.0 0.013310541555054477 0.011848141185915134 -0.01097097352861746 -0.0008771676572976635 -0.0008432533023583278 0.0 0.0
0.0 0.020456236479570837 0.01805893999053833 -0.01707683981526062 -0.000982100175277701 -0.001345409464557594 0.0 0.0
0.0 0.02920974211011589 0.025630450192805913 -0.0245461832409498 -0.001084266951856134 -0.0018837867918146509 0.0 0.0
0.0 0.0396641399449172 0.034556925415478564 -0.033366971426957166 -0.0011899539885213506 -0.002429155158878202 0.0 0.0
0.0 0.05128012983567855 0.04488138843990415 -0.043582677289166705 -0.0012987111507373908 -0.0030249755938976243 0.0 0.0
0.0 0.06483114901895512 0.0566308024091149 -0.05522728592032422 -0.0014035164887906697 -0.003686422196641593 0.0 0.0
0.0 0.07995543592042324 0.06975023049736212 -0.06825703256733685 -0.0014931979300252805 -0.004402665801595028 0.0 0.0
0.0 0.0963681928102973 0.0839624331838367 -0.08240432916225858 -0.0015581040215781642 -0.00513058064142797 0.0 0.0
0.0 0.11339072730532035 0.0986553945089085 -0.09706315299251891 -0.0015922415163894372 -0.005697273227478883 0.0 0.0
0.0 0.12990035980676556 0.11286320027171025 -0.11126637441254836 -0.0015968258591619825 -0.0058015959185518445 0.0 0.0
0.0 0.14435986153719174 0.12530469064183491 -0.12373241507044205 -0.0015722755713928208 -0.00518612704137786 0.0 0.0
0.0 0.1548822323454923 0.13430244951431847 -0.13282071251035318 -0.001481737003965228 -0.004095133134439261 0.0 0.0
0.0 0.15924829257549356 0.13778271909749462 -0.13644192698877622 -0.0013407921087184916 5.761884025456965e-15 0.0 0.0
0.0 0.15488223234547083 0.13430244951429943 -0.13282071251033406 -0.0014817370039653772 0.0040951331344550885 0.0 0.0
0.0 0.1443598615371543 0.12530469064180236 -0.1237324150704102 -0.001572275571392093 0.005186127041393987 0.0 0.0
0.0 0.12990035980670903 0.11286320027166152 -0.11126637441249937 -0.0015968258591620647 0.00580159591855949 0.0 0.0
0.0 0.11339072730525557 0.09865539450885243 -0.09706315299246382 -0.0015922415163886017 0.005697273227480239 0.0 0.0
0.0 0.09636819281022646 0.08396243318377523 -0.08240432916219724 -0.0015581040215778563 0.0051305806414240224 0.0 0.0
0.0 0.07995543592035133 0.06975023049729959 -0.06825703256727497 -0.001493197930024693 0.004402665801593569 0.0 0.0
0.0 0.06483114901888455 0.056630802409053736 -0.055227285920263394 -0.0014035164887903225 0.003686422196640146 0.0 0.0
0.0 0.051280129835607716 0.044881388439842816 -0.043582677289105955 -0.0012987111507369007 0.003024975593894001 0.0 0.0
0.0 0.03966413994485437 0.03455692541542373 -0.0333669714269028 -0.0011899539885209128 0.002429155158873728 0.0 0.0
0.0 0.02920974211006182 0.02563045019275882 -0.024546183240903574 -0.0010842669518552617 0.001883786791809514 0.0 0.0
0.0 0.02045623647952617 0.01805893999049887 -0.017076839815221723 -0.0009821001752771342 0.0013454094645534778 0.0 0.0
0.0 0.013310541555023358 0.011848141185887099 -0.010970973528590236 -0.0008771676572968661 0.0008432533023559324 0.0 0.0
0.0 0.007769550285659841 0.007017837433560946 -0.0062720620227070785 -0.0007457754108538686 0.00042921613243718877 0.0 0.0
0.0 0.0038397341311404423 0.0035440088482618956 -0.0029984634614590843 -0.0005455453868028087 0.00013065937736053996 0.0 0.0
0.0 0.0015454873682049274 0.0013038938030235814 -0.0010240297327118793 -0.0002798640703117029 -5.189353261352372e-05 0.0 0.0
0.0 0.0003441922792119643 0.00023975884448129687 -0.0001752388253241812 -6.452001915711594e-05 -3.780520227395768e-05 0.0 0.0
0.0 1.3180467453465741e-05 4.884300366416909e-06 -3.4540637669490015e-06 -1.4302365994677284e-06 -5.817025028234933e-06 0.0 0.0
0.0 -4.7847145252200205e-05 -5.325348447074382e-05 4.5567034508039695e-05 7.686449962703989e-06 4.225426813808884e-05 0.0 0.0
0.0 0.003134904145008847 0.002242008028718824 -0.0013005816852184658 -0.0009414263435003579 0.004749500240010635 0.0 0.0
0.0 0.013172150517065174 0.00978958728806707 -0.01278235214850706 0.0029927648604399794 0.00025520935631267815 0.0 0.0
0.0 0.009679266144609563 0.007036958557880905 -0.009454867546778297 0.0024179089888973827 -0.00246633063721242 0.0 0.0
0.0 0.0021785724696751028 0.001373883875518673 -0.0007156443863308502 -0.000658239489187822 -0.003792628249613524 0.0 0.0
0.0 2.5678426942533087e-08 -2.678779843523035e-09 2.105284134767642e-09 5.734957087552363e-10 -4.864799241920996e-10 0.0 0.0
0.0 -3.327224240345829e-07 -2.1045206002415845e-06 1.6354979301418176e-06 4.690226700996407e-07 8.072824134394656e-07 0.0 0.0
0.0 0.00011876397892510152 8.552019692692288e-05 -6.0195066060215995e-05 -2.5325130866707193e-05 1.5359527467293574e-05 0.0 0.0
0.0 0.0010603334803000008 0.0008328347980378002 -0.0006375594175295876 -0.00019527538050821217 -2.9310817039797772e-05 0.0 0.0
0.0 0.0028912303518193053 0.002730542980982173 -0.0022614583453012976 -0.00046908463568087836 -0.0003904628328496136 0.0 0.0
0.0 0.006408465489466242 0.005796533153780825 -0.005109395743779303 -0.0006871374100015204 -0.0009822132134755495 0.0 0.0
0.0 0.011339974733694122 0.010118260430307197 -0.009288068574805845 -0.0008301918555013482 -0.0017885734379887931 0.0 0.0
0.0 0.017797613471604613 0.01567786398334068 -0.014743904004655074 -0.0009339599786856194 -0.002751529534217101 0.0 0.0
0.0 0.025640810391586964 0.022427611152426488 -0.02139737198568153 -0.0010302391667449315 -0.003788074691822497 0.0 0.0
0.0 0.0347309701666862 0.030348904903898695 -0.02921947742119732 -0.001129427482701352 -0.004827227150133968 0.0 0.0
0.0 0.045465176430736366 0.039481829151334843 -0.03825054558576957 -0.0012312835655653143 -0.005882222317071423 0.0 0.0
0.0 0.05722983572137186 0.04990355683360869 -0.048574479511816655 -0.0013290773217919736 -0.007041528580299304 0.0 0.0
0.0 0.07072970414764554 0.06158401057980684 -0.06017061863104203 -0.0014133919487648431 -0.008313434280738033 0.0 0.0
0.0 0.08542303653058578 0.07429741929337606 -0.07282227249078639 -0.0014751468025896199 -0.009576571275903148 0.0 0.0
0.0 0.10073390138129325 0.08753098566132801 -0.08602053821963718 -0.0015104474416908513 -0.010533511889228544 0.0 0.0
0.0 0.11566751000068723 0.10043515795678266 -0.09891859133782385 -0.0015165666189587755 -0.010711281821494134 0.0 0.0
0.0 0.1288334727906743 0.11178355818258014 -0.11030146817953258 -0.0014820900030474806 -0.009705289329624276 0.0 0.0
0.0 0.13839807059633713 0.11999259105726241 -0.118571162864253 -0.0014214281930092832 -0.0074059243046307776 0.0 0.0
0.0 0.14251657773527482 0.12325569346653562 -0.1220076330186607 -0.0012480604478748484 1.1455246473612846e-14 0.0 0.0
0.0 0.1383980705963178 0.11999259105724487 -0.11857116286423519 -0.001421428193009776 0.0074059243046570074 0.0 0.0
0.0 0.12883347279064297 0.11178355818255206 -0.11030146817950578 -0.001482090003046371 0.009705289329651721 0.0 0.0
0.0 0.11566751000063975 0.10043515795674163 -0.0989185913377826 -0.0015165666189589306 0.010711281821509728 0.0 0.0
0.0 0.10073390138123296 0.08753098566127648 -0.08602053821958545 -0.0015104474416910132 0.010533511889230266 0.0 0.0
0.0 0.08542303653052302 0.07429741929332168 -0.07282227249073206 -0.0014751468025896294 0.009576571275898862 0.0 0.0
0.0 0.07072970414758509 0.061584010579753906 -0.060170618630990685 -0.0014133919487632363 0.008313434280735145 0.0 0.0
0.0 0.057229835721307146 0.049903556833552576 -0.04857447951176091 -0.0013290773217916568 0.007041528580295826 0.0 0.0
0.0 0.045465176430675165 0.03948182915128184 -0.038250545585717055 -0.0012312835655647852 0.005882222317064447 0.0 0.0
0.0 0.0347309701666297 0.030348904903849838 -0.0292194774211489 -0.0011294274827009195 0.004827227150125987 0.0 0.0
0.0 0.025640810391539766 0.022427611152384876 -0.021397371985640647 -0.0010302391667442253 0.0037880746918142576 0.0 0.0
0.0 0.017797613471564572 0.01567786398330529 -0.014743904004620114 -0.000933959978685165 0.002751529534209214 0.0 0.0
0.0 0.011339974733665222 0.01011826043028141 -0.00928806857478087 -0.0008301918555005432 0.001788573437983898 0.0 0.0
0.0 0.006408465489444095 0.0057965331537611865 -0.00510939574376056 -0.0006871374100006236 0.0009822132134710317 0.0 0.0
0.0 0.0028912303518071536 0.002730542980970644 -0.00226145834529107 -0.0004690846356795742 0.0003904628328470632 0.0 0.0
0.0 0.0010603334802936667 0.000832834798032534 -0.0006375594175254064 -0.00019527538050712702 2.9310817039145997e-05 0.0 0.0
0.0 0.0001187639789239219 8.55201969265755e-05 -6.019506606000848e-05 -2.532513086656703e-05 -1.5359527466998407e-05 0.0 0.0
0.0 -3.3272242434923193e-07 -2.104520600250217e-06 1.6354979301498238e-06 4.690226701004157e-07 -8.072824134488362e-07 0.0 0.0
0.0 2.5678426919816804e-08 -2.678779841143436e-09 2.1052841328877173e-09 5.734957082559921e-10 4.864799235722653e-10 0.0 0.0
0.0 0.0021785724696677805 0.001373883875514253 -0.0007156443863279363 -0.0006582394891863154 0.0037926282496018727 0.0 0.0
0.0 0.009679266144588375 0.0070369585578652335 -0.009454867546758157 0.002417908988892928 0.0024663306371956674 0.0 0.0
0.0 0.007241280279129632 0.00511875202021774 -0.0070278713109343015 0.0019091192907165534 -0.0027095345085407533 0.0 0.0
0.0 0.0015227754161423776 0.0008998934177808375 -0.0004525711093347649 -0.0004473223084460718 -0.0027814610704088014 0.0 0.0
0.0 0.0 0.0 0.0 0.0 0.0 0.0 0.0
0.0 -4.3316694984273256e-07 -8.537299896666975e-08 7.629187113198348e-08 9.081127834682824e-09 7.150730323891951e-08 0.0 0.0
0.0 2.7610342654785312e-05 4.696457073815642e-06 -1.6503756720693376e-06 -3.0460814017460235e-06 1.2874122094114384e-05 0.0 0.0
0.0 0.0005623148751645896 0.00047243399748685117 -0.00035300805409437306 -0.0001194259433924774 -6.968204290591014e-05 0.0 0.0
0.0 0.002228578151860103 0.0019394142420185601 -0.0015663005431593871 -0.0003731136988591712 -0.000463892815401779 0.0 0.0
0.0 0.005086496938954874 0.004592861998491445 -0.003979051639680184 -0.0006138103588112615 -0.00131389130434407 0.0 0.0
0.0 0.009441368383429955 0.008385577113285476 -0.007611919901129019 -0.000773657212156453 -0.0024253278641291885 0.0 0.0
0.0 0.015142756205170037 0.013281073082972612 -0.012400654316514869 -0.0008804187664577404 -0.0037479517140468176 0.0 0.0
0.0 0.02199752842369329 0.019206055057796743 -0.018234451225669846 -0.0009716038321268764 -0.005165210637116583 0.0 0.0
0.0 0.030093325465505152 0.026123731544453625 -0.025059999422553002 -0.0010637321219006295 -0.0065815864718071024 0.0 0.0
0.0 0.03917501902462974 0.0340812184792198 -0.032922072302475444 -0.0011591461767443804 -0.008006927205442898 0.0 0.0
0.0 0.04991642321712597 0.043155994670296426 -0.041906660671718284 -0.0012493339985781308 -0.00953071612479775 0.0 0.0
0.0 0.06164228843682415 0.05337518316313822 -0.05204750572185217 -0.0013276774412860411 -0.01119448846384075 0.0 0.0
0.0 0.07442088608291128 0.06457640589540659 -0.06318796615235574 -0.001388439743050883 -0.012865199489875094 0.0 0.0
0.0 0.08811279081993459 0.07634141733658922 -0.07491628985574929 -0.0014251274808399004 -0.014158378627532721 0.0 0.0
0.0 0.10153952066253279 0.08794259049560704 -0.08651107559004875 -0.001431514905558284 -0.014495119145616079 0.0 0.0
0.0 0.11346793311931039 0.09827111694733351 -0.0968676774101624 -0.0014034395371710464 -0.013273770279204412 0.0 0.0
0.0 0.12226837465871988 0.10591579064085592 -0.10455772770080754 -0.0013580629400485188 -0.009830611588443405 0.0 0.0
0.0 0.12636026966121647 0.1091252212428353 -0.10801093780088208 -0.0011142834419532721 1.483578884742265e-14 0.0 0.0
0.0 0.12226837465870691 0.10591579064084303 -0.10455772770079502 -0.001358062940047926 0.009830611588478763 0.0 0.0
0.0 0.11346793311927922 0.09827111694730574 -0.0968676774101346 -0.001403439537171109 0.013273770279238865 0.0 0.0
0.0 0.10153952066249196 0.08794259049557103 -0.08651107559001289 -0.0014315149055580973 0.01449511914563701 0.0 0.0
0.0 0.08811279081988271 0.07634141733654479 -0.07491628985570503 -0.0014251274808397916 0.01415837862753548 0.0 0.0
0.0 0.07442088608285836 0.06457640589536101 -0.06318796615230987 -0.0013884397430511141 0.012865199489870163 0.0 0.0
0.0 0.06164228843677131 0.05337518316309197 -0.05204750572180698 -0.001327677441285008 0.011194488463835753 0.0 0.0
0.0 0.04991642321706925 0.0431559946702472 -0.04190666067166929 -0.0012493339985778717 0.009530716124792215 0.0 0.0
0.0 0.03917501902457629 0.03408121847917393 -0.03292207230242992 -0.0011591461767439916 0.008006927205434184 0.0 0.0
0.0 0.030093325465455133 0.026123731544409886 -0.025059999422509784 -0.0010637321219001395 0.006581586471795688 0.0 0.0
0.0 0.021997528423650433 0.019206055057759443 -0.018234451225632876 -0.0009716038321265687 0.005165210637105654 0.0 0.0
0.0 0.015142756205134679 0.013281073082941734 -0.01240065431648457 -0.0008804187664571511 0.003747951714036064 0.0 0.0
0.0 0.00944136838340208 0.008385577113261078 -0.007611919901105314 -0.0007736572121557596 0.0024253278641216 0.0 0.0
0.0 0.005086496938938234 0.004592861998475947 -0.003979051639665691 -0.000613810358810254 0.0013138913043387963 0.0 0.0
0.0 0.0022285781518485825 0.001939414242008937 -0.0015663005431510897 -0.00037311369885784654 0.0004638928153985905 0.0 0.0
0.0 0.0005623148751601886 0.0004724339974836591 -0.0003530080540919276 -0.00011942594339173146 6.96820429053023e-05 0.0 0.0
0.0 2.761034265396837e-05 4.696457073877974e-06 -1.6503756721441095e-06 -3.046081401733872e-06 -1.2874122093861577e-05 0.0 0.0
0.0 -4.3316694975256824e-07 -8.53729990175541e-08 7.629187117175401e-08 9.081127845812395e-09 -7.150730327714872e-08 0.0 0.0
0.0 0.0 0.0 0.0 0.0 0.0 0.0 0.0
0.0 0.0015227754161355731 0.0008998934177768961 -0.0004525711093321096 -0.00044732230844478913 0.002781461070398364 0.0 0.0
0.0 0.007241280279112102 0.005118752020204085 -0.007027871310916533 0.0019091192907124588 0.002709534508528688 0.0 0.0
0.0 0.005211022881823221 0.0036679771354853016 -0.005125135356933683 0.0014571582214483818 -0.002340448473964381 0.0 0.0
0.0 0.001213727249912969 0.000558737327680862 -0.00026731266072717373 -0.00029142466695368703 -0.0019081250350485013 0.0 0.0
0.0 0.0 0.0 0.0 0.0 0.0 0.0 0.0
0.0 -1.7918878968638495e-07 1.6580370838373166e-08 -1.3354665710081564e-08 -3.22570512829003e-09 -1.9972891801069645e-08 0.0 0.0
0.0 -1.8204589419849107e-05 -9.227361183713783e-06 7.5185806905021435e-06 1.7087804932116245e-06 9.938606925633622e-06 0.0 0.0
0.0 0.00026871350153518156 0.00019111665784016794 -0.00013869135643127014 -5.2425301408897624e-05 -3.5989584978062474e-05 0.0 0.0
0.0 0.001580437165095137 0.0012465849267302757 -0.0009804552464043668 -0.00026612968032590817 -0.00044280051377183684 0.0 0.0
0.0 0.0038331759135345513 0.0034257425629553753 -0.002901168194279147 -0.0005245743686762315 -0.0013840008751537143 0.0 0.0
0.0 0.007578881533620149 0.006671280939019505 -0.005967579882288103 -0.0007037010567313968 -0.0027459019367823564 0.0 0.0
0.0 0.012488047435017155 0.010889668645624202 -0.010071235721197424 -0.0008184329244267755 -0.00432721004895103 0.0 0.0
0.0 0.018450031237384402 0.015984723516982456 -0.015077646274499723 -0.0009070772424827377 -0.006014220069341512 0.0 0.0
0.0 0.025389550688576755 0.021904399964599607 -0.02091191276892004 -0.000992487195679561 -0.007692844325052776 0.0 0.0
0.0 0.03339584407133407 0.02868425589220883 -0.027604237453863503 -0.0010800184383452937 -0.009373082731008826 0.0 0.0
0.0 0.042189846380922595 0.036425080608065874 -0.03526063889901764 -0.001164441709048205 -0.011152705432439533 0.0 0.0
0.0 0.052459236925698656 0.04516881302509231 -0.0439315313705553 -0.0012372816545370255 -0.013070506417382752 0.0 0.0
0.0 0.06376425138035274 0.05482585224434377 -0.05353159093204588 -0.0012942613122978426 -0.014984811458579755 0.0 0.0
0.0 0.07551262423553154 0.06509440049924513 -0.06376112768699164 -0.0013332728122534602 -0.016527830766489584 0.0 0.0
0.0 0.08738553407744151 0.07537995495645557 -0.07403378140818828 -0.0013461735482673443 -0.017090129953797537 0.0 0.0
0.0 0.09817458229228963 0.08474931834010097 -0.0834221781192887 -0.001327140220812259 -0.015812016652411203 0.0 0.0
0.0 0.10644014397689099 0.09197288823982258 -0.09068552714086738 -0.0012873610989551257 -0.011651205376609243 0.0 0.0
0.0 0.11064424930697417 0.0952253157744766 -0.0942689245729193 -0.0009563912015573086 1.6843731270865803e-14 0.0 0.0
0.0 0.10644014397687987 0.09197288823981101 -0.09068552714085569 -0.0012873610989551994 0.01165120537664923 0.0 0.0
0.0 0.09817458229226476 0.08474931834007775 -0.08342217811926597 -0.0013271402208117377 0.015812016652450373 0.0 0.0
0.0 0.08738553407740335 0.07537995495642191 -0.07403378140815416 -0.0013461735482678207 0.017090129953819803 0.0 0.0
0.0 0.07551262423548845 0.06509440049920799 -0.06376112768695523 -0.001333272812252745 0.016527830766493293 0.0 0.0
0.0 0.06376425138030539 0.05482585224430306 -0.05353159093200477 -0.0012942613122982444 0.0149848114585727 0.0 0.0
0.0 0.05245923692564906 0.045168813025049354 -0.04393153137051257 -0.0012372816545367761 0.013070506417376136 0.0 0.0
0.0 0.04218984638087629 0.036425080608025545 -0.0352606388989779 -0.0011644417090476292 0.011152705432433255 0.0 0.0
0.0 0.03339584407128811 0.02868425589216886 -0.027604237453823968 -0.001080018438344871 0.009373082730999748 0.0 0.0
0.0 0.025389550688534532 0.02190439996456295 -0.020911912768883868 -0.0009924871956790815 0.007692844325039832 0.0 0.0
0.0 0.018450031237348015 0.015984723516951228 -0.015077646274469088 -0.0009070772424821431 0.0060142200693275305 0.0 0.0
0.0 0.012488047434985425 0.010889668645596949 -0.010071235721170631 -0.0008184329244263144 0.00432721004893818 0.0 0.0
0.0 0.007578881533596425 0.0066712809389986956 -0.0059675798822681194 -0.000703701056730572 0.0027459019367732105 0.0 0.0
0.0 0.0038331759135195537 0.0034257425629419707 -0.002901168194266952 -0.0005245743686750193 0.001384000875147765 0.0 0.0
0.0 0.0015804371650861594 0.0012465849267232372 -0.0009804552463985735 -0.00026612968032466524 0.0004428005137688119 0.0 0.0
0.0 0.00026871350153263184 0.00019111665783872288 -0.00013869135643022364 -5.242530140849878e-05 3.598958497779884e-05 0.0 0.0
0.0 -1.8204589420115913e-05 -9.227361183389747e-06 7.518580690256159e-06 1.708780493133521e-06 -9.938606925356874e-06 0.0 0.0
0.0 -1.7918878958620634e-07 1.6580370829333657e-08 -1.3354665703083526e-08 -3.225705126253981e-09 1.9972891788994082e-08 0.0 0.0
0.0 0.0 0.0 0.0 0.0 0.0 0.0 0.0
0.0 0.0012137272499066249 0.0005587373276778402 -0.00026731266072513543 -0.00029142466695270317 0.0019081250350400619 0.0 0.0
0.0 0.005211022881809091 0.003667977135474223 -0.005125135356919 0.00145715822144477 0.0023404484739560473 0.0 0.0
0.0 0.003723326697666217 0.002522972296061152 -0.0035789118011885727 0.0010559395051274235 -0.001828064507528671 0.0 0.0
0.0 0.0006819090254008922 0.00032303641020534974 -0.00014318064005291455 -0.00017985577015243524 -0.0012282674973596065 0.0 0.0
0.0 0.0 0.0 0.0 0.0 0.0 0.0 0.0
0.0 -4.930754295569554e-07 3.68350299857422e-08 -2.8272421256256188e-08 -8.562608729485888e-09 -7.715859359061078e-08 0.0 0.0
0.0 -5.050746404375574e-06 -4.899763849695321e-06 3.910672630250238e-06 9.890912194450932e-07 6.898738074816728e-06 0.0 0.0
0.0 5.0322712359166464e-05 4.7701934445848576e-05 -3.270522129053667e-05 -1.499671315531204e-05 -4.288265835595222e-06 0.0 0.0
0.0 0.0008096165388529847 0.0007136607194007284 -0.0005478635442968025 -0.000165797175103926 -0.0003800346305510965 0.0 0.0
0.0 0.0029356218218186936 0.0023206537034097165 -0.0019129989557879873 -0.0004076547476217297 -0.0012424586103580292 0.0 0.0
0.0 0.005644528446987323 0.0049990814298631284 -0.0043839778150659495 -0.000615103614797176 -0.0027207251668182105 0.0 0.0
0.0 0.009913932229559747 0.008524006559838431 -0.00778066129517506 -0.0007433452646633734 -0.004477222189877627 0.0 0.0
0.0 0.014919721163607872 0.012785764475348061 -0.01195215283007265 -0.0008336116452754078 -0.00632264286167005 0.0 0.0
0.0 0.0207064529336545 0.01771188754879422 -0.01679802182421258 -0.0009138657245816315 -0.008156226970729237 0.0 0.0
0.0 0.027298383249756843 0.023326198203167867 -0.02233184370320327 -0.000994354499964615 -0.009974514816722903 0.0 0.0
0.0 0.034883393779881734 0.029725685927948515 -0.028654738995581464 -0.0010709469323670659 -0.011877208380949005 0.0 0.0
0.0 0.04333308601769172 0.03699495670975562 -0.03585599315920154 -0.0011389635505540748 -0.013920246010709169 0.0 0.0
0.0 0.052648309031758746 0.045097457364187965 -0.04390374823154679 -0.0011937091326411622 -0.015957527152028333 0.0 0.0
0.0 0.0630744456085087 0.053816239715366046 -0.052583253379898866 -0.001232986335467178 -0.0176348261162239 0.0 0.0
0.0 0.07330207924443448 0.06274169733843481 -0.06148631357763731 -0.0012553837607975067 -0.01839687184238581 0.0 0.0
0.0 0.08279002993898857 0.07117131594274717 -0.06992229346147397 -0.0012490224812732387 -0.01728679590690417 0.0 0.0
0.0 0.09067925296911632 0.07806040195897655 -0.07684906297769428 -0.0012113389812822121 -0.012926580242069597 0.0 0.0
0.0 0.0951278947239035 0.08143059785313325 -0.08065401899003809 -0.000776578863095185 1.738106186754962e-14 0.0 0.0
0.0 0.09067925296910499 0.07806040195896438 -0.076849062977682 -0.0012113389812824515 0.012926580242109515 0.0 0.0
0.0 0.0827900299389677 0.07117131594272676 -0.06992229346145391 -0.001249022481272826 0.017286795906943334 0.0 0.0
0.0 0.07330207924440421 0.06274169733840763 -0.0614863135776098 -0.0012553837607978114 0.018396871842409207 0.0 0.0
0.0 0.0630744456084726 0.05381623971533506 -0.05258325337986825 -0.0012329863354667999 0.017634826116228474 0.0 0.0
0.0 0.05264830903171635 0.045097457364151786 -0.04390374823151047 -0.0011937091326412986 0.015957527152019615 0.0 0.0
0.0 0.043333086017647064 0.03699495670971705 -0.03585599315916301 -0.001138963550554055 0.01392024601070003 0.0 0.0
0.0 0.03488339377984604 0.029725685927916978 -0.028654738995550804 -0.0010709469323661868 0.011877208380942918 0.0 0.0
0.0 0.027298383249718318 0.02332619820313485 -0.022331843703170717 -0.0009943544999641185 0.00997451481671341 0.0 0.0
0.0 0.020706452933620473 0.017711887548765105 -0.01679802182418393 -0.0009138657245811645 0.008156226970716414 0.0 0.0
0.0 0.01491972116357714 0.012785764475322207 -0.011952152830047762 -0.0008336116452744539 0.006322642861654694 0.0 0.0
0.0 0.009913932229533722 0.008524006559816147 -0.007780661295153239 -0.000743345264662898 0.004477222189863769 0.0 0.0
0.0 0.0056445284469693 0.004999081429847025 -0.004383977815050795 -0.0006151036147962332 0.002720725166809008 0.0 0.0
0.0 0.002935621821806167 0.00232065370339976 -0.0019129989557791689 -0.00040765474762058986 0.001242458610352435 0.0 0.0
0.0 0.0008096165388464297 0.0007136607193957019 -0.0005478635442928168 -0.00016579717510288477 0.00038003463054792823 0.0 0.0
0.0 5.032271235793962e-05 4.7701934445372625e-05 -3.2705221290223294e-05 -1.4996713155149375e-05 4.288265835665155e-06 0.0 0.0
0.0 -5.050746405544076e-06 -4.899763849649985e-06 3.910672630214457e-06 9.89091219435501e-07 -6.898738074704167e-06 0.0 0.0
0.0 -4.930754293848574e-07 3.683502997241244e-08 -2.8272421245946087e-08 -8.562608726462763e-09 7.715859356278835e-08 0.0 0.0
0.0 0.0 0.0 0.0 0.0 0.0 0.0 0.0
0.0 0.0006819090253960469 0.00032303641020324167 -0.00014318064005151165 -0.0001798557701517297 0.0012282674973532707 0.0 0.0
0.0 0.0037233266976549723 0.002522972296052384 -0.003578911801176684 0.0010559395051242969 0.0018280645075225168 0.0 0.0
0.0 0.002379899229295228 0.0016333867460940647 -0.0023429527616241493 0.0007095660155300837 -0.0013432814157273247 0.0 0.0
0.0 0.0003860205293757297 0.00014858125935332203 -4.5164012479590146e-05 -0.00010341724687373161 -0.0006861158583737809 0.0 0.0
0.0 0.0 0.0 0.0 0.0 0.0 0.0 0.0
0.0 -1.5718552920546317e-07 7.200677098081056e-09 -5.104022359583998e-09 -2.0966547385017164e-09 -3.067144082449297e-08 0.0 0.0
0.0 -3.233610408731714e-06 -6.910092632449252e-07 5.450829998991253e-07 1.459262633458272e-07 1.6143007339932585e-06 0.0 0.0
0.0 -2.1838567936194025e-05 -1.6658849188042698e-05 1.4251813262306729e-05 2.4070359257360426e-06 3.6888790849408716e-05 0.0 0.0
0.0 0.0003920094132056981 0.000301447618904524 -0.00022706039709851478 -7.438722180600944e-05 -0.00023221124532755066 0.0 0.0
0.0 0.0016536764513865462 0.0014010024240554623 -0.001122699720781892 -0.0002783027032735705 -0.001023885349766099 0.0 0.0
0.0 0.004335619585545977 0.0033840754553314404 -0.002891925295722349 -0.0004921501596090908 -0.002353790299955618 0.0 0.0
0.0 0.007263908293849867 0.0062137866006282665 -0.005567313459605811 -0.00064647314102246 -0.004165691044277197 0.0 0.0
0.0 0.011458244186431052 0.009633137100348467 -0.00888804762171851 -0.0007450894786299601 -0.006070801108199165 0.0 0.0
0.0 0.016135046555466263 0.013567774598975457 -0.012744087173806165 -0.0008236874251692845 -0.00795351289833842 0.0 0.0
0.0 0.021398931769388417 0.018025931962718216 -0.017127970428499794 -0.0008979615342184091 -0.009798002295351849 0.0 0.0
0.0 0.027392021644839507 0.023100152547266165 -0.022132243077022495 -0.0009679094702436788 -0.011700417191886636 0.0 0.0
0.0 0.034171706076000584 0.028889978814237664 -0.027859768805882805 -0.001030210008354833 -0.013716965705453546 0.0 0.0
0.0 0.04208467587492466 0.035413277600177054 -0.03433280612702033 -0.001080471473156732 -0.015750130152028977 0.0 0.0
0.0 0.05007620549673496 0.042555386284774295 -0.041433367032352245 -0.0011220192524221187 -0.01746699591670324 0.0 0.0
0.0 0.05896241619129485 0.050048190515519106 -0.04889265979505697 -0.0011555307204620358 -0.018376104622286872 0.0 0.0
0.0 0.0676316768770228 0.05747979119157211 -0.056315475370054366 -0.0011643158215177423 -0.01761828381961271 0.0 0.0
0.0 0.07502038400966413 0.06406397453373268 -0.0629335551787968 -0.0011304193549359059 -0.01362174970588822 0.0 0.0
0.0 0.07987477912022821 0.0676176128669266 -0.06704434425546157 -0.0005732686114649568 1.6074815090139083e-14 0.0 0.0
0.0 0.07502038400965545 0.0640639745337222 -0.06293355517878586 -0.0011304193549362708 0.013621749705928199 0.0 0.0
0.0 0.06763167687700554 0.05747979119155448 -0.05631547537003668 -0.0011643158215178348 0.01761828381965207 0.0 0.0
0.0 0.05896241619127073 0.0500481905154967 -0.048892659795034946 -0.0011555307204617656 0.01837610462230981 0.0 0.0
0.0 0.050076205496706626 0.04255538628475009 -0.041433367032328375 -0.0011220192524216963 0.017466995916707275 0.0 0.0
0.0 0.042084675874893625 0.0354132776001505 -0.03433280612699423 -0.0010804714731562778 0.015750130152020075 0.0 0.0
0.0 0.03417170607596436 0.028889978814206373 -0.02785976880585154 -0.001030210008354814 0.013716965705443058 0.0 0.0
0.0 0.02739202164481217 0.02310015254724211 -0.02213224307699923 -0.0009679094702428715 0.0117004171918807 0.0 0.0
0.0 0.021398931769360363 0.018025931962694527 -0.01712797042847661 -0.000897961534217912 0.009798002295342641 0.0 0.0
0.0 0.01613504655543625 0.013567774598950507 -0.012744087173781442 -0.0008236874251690789 0.007953512898324723 0.0 0.0
0.0 0.011458244186404435 0.009633137100326617 -0.0088880476216974 -0.0007450894786292112 0.006070801108182742 0.0 0.0
0.0 0.007263908293830557 0.006213786600612178 -0.005567313459590333 -0.0006464731410218492 0.004165691044264627 0.0 0.0
0.0 0.004335619585529711 0.0033840754553188706 -0.0028919252957108343 -0.000492150159608035 0.0023537902999468618 0.0 0.0
0.0 0.0016536764513781137 0.0014010024240487702 -0.0011226997207762085 -0.0002783027032725605 0.0010238853497613388 0.0 0.0
0.0 0.0003920094132006355 0.00030144761890123873 -0.00022706039709598593 -7.438722180525308e-05 0.00023221124532464291 0.0 0.0
0.0 -2.1838567936576094e-05 -1.6658849187659815e-05 1.4251813261997306e-05 2.4070359256624206e-06 -3.68887908485887e-05 0.0 0.0
0.0 -3.2336104087156496e-06 -6.910092632898258e-07 5.450829999336849e-07 1.45926263356148e-07 -1.6143007340584157e-06 0.0 0.0
0.0 -1.5718552915767728e-07 7.200677095833753e-09 -5.104022357979988e-09 -2.096654737854836e-09 3.0671440814790696e-08 0.0 0.0
0.0 0.0 0.0 0.0 0.0 0.0 0.0 0.0
0.0 0.0003860205293718774 0.0001485812593518103 -4.5164012478587225e-05 -0.00010341724687322317 0.0006861158583687934 0.0 0.0
0.0 0.0023798992292864054 0.0016333867460872641 -0.0023429527616146565 0.0007095660155273958 0.0013432814157227687 0.0 0.0
0.0 0.0017863369745709696 0.000910475653289272 -0.0013164499915261385 0.00040597433823686704 -0.0008484701684277694 0.0 0.0
0.0 8.319311187343596e-05 4.1619359793998884e-05 9.464777477838877e-06 -5.108413727183782e-05 -0.00030061833602432414 0.0 0.0
0.0 -7.065832220066025e-08 2.2856944986285933e-09 -3.4301065921381326e-09 1.144412093510007e-09 -1.4630652477694394e-08 0.0 0.0
0.0 -6.363894460634292e-07 2.4202616213886604e-08 -1.8402187576480567e-08 -5.800428637406307e-09 -1.2534082369721003e-07 0.0 0.0
0.0 9.242446355408567e-08 -8.429425850738563e-07 6.664701390874162e-07 1.7647244598644707e-07 2.8888905939923428e-06 0.0 0.0
0.0 -2.1984807710566835e-05 -1.3379249335497434e-05 1.0719789837990571e-05 2.659459497506835e-06 3.133692789344892e-05 0.0 0.0
0.0 9.482187179969566e-05 6.241676217901954e-05 -4.5675753832831e-05 -1.6741008346188623e-05 -7.496030054252304e-05 0.0 0.0
0.0 0.0008103834185909519 0.0006564163816440311 -0.0005143135107210994 -0.00014210287092293182 -0.0007052222581890118 0.0 0.0
0.0 0.002467269601224976 0.0019703449851518947 -0.0016329055798462735 -0.00033743940530562113 -0.0018144715498888376 0.0 0.0
0.0 0.005195848871439651 0.003988937325244557 -0.0034821488977436767 -0.0005067884275008766 -0.003392390233466978 0.0 0.0
0.0 0.008087039182492642 0.006556153402200598 -0.0059310356252682064 -0.0006251177769323888 -0.00523023066658266 0.0 0.0
0.0 0.011588362400257004 0.00950484315608547 -0.008794235834140619 -0.00071060732194486 -0.007047450859064031 0.0 0.0
0.0 0.01560101132195141 0.012818250829243892 -0.012035299323634627 -0.0007829515056092483 -0.008816035941409266 0.0 0.0
0.0 0.020090370763288165 0.016579826976133843 -0.01573309586955296 -0.0008467311065808869 -0.010598567821063769 0.0 0.0
0.0 0.025319419678300377 0.02089445236324144 -0.01999097069360078 -0.000903481669640651 -0.012461888984206646 0.0 0.0
0.0 0.03114708958786834 0.02583149517411194 -0.024880323802765916 -0.0009511713713460002 -0.014342664481326824 0.0 0.0
0.0 0.0378341465983212 0.031345285754572086 -0.03035413310985035 -0.0009911526447217228 -0.015988928250656124 0.0 0.0
0.0 0.04474131061384436 0.03732530902630482 -0.036291054176890006 -0.0010342548494148183 -0.016961176258104827 0.0 0.0
0.0 0.05182155149981147 0.04364419137922061 -0.04257713966272158 -0.0010670517164990592 -0.01667092640796331 0.0 0.0
0.0 0.058979955904091275 0.04986917506176228 -0.048824147479666444 -0.0010450275820958618 -0.013628956796968381 0.0 0.0
0.0 0.06445271218043455 0.05365844801880082 -0.053316843489558535 -0.00034160452924228836 1.3817939847893257e-14 0.0 0.0
0.0 0.058979955904088215 0.04986917506175608 -0.04882414747966023 -0.001045027582095789 0.01362895679700417 0.0 0.0
0.0 0.05182155149979788 0.04364419137920568 -0.04257713966270651 -0.001067051716499185 0.016670926407999564 0.0 0.0
0.0 0.04474131061382685 0.037325309026288174 -0.03629105417687388 -0.0010342548494143248 0.016961176258125554 0.0 0.0
0.0 0.03783414659829895 0.03134528575455312 -0.0303541331098323 -0.000991152644720792 0.01598892825065715 0.0 0.0
0.0 0.031147089587844748 0.025831495174092303 -0.024880323802746455 -0.0009511713713458691 0.014342664481318438 0.0 0.0
0.0 0.02531941967827442 0.020894452363219334 -0.01999097069357875 -0.0009034816696405754 0.01246188898419744 0.0 0.0
0.0 0.020090370763267248 0.016579826976115857 -0.015733095869535522 -0.0008467311065803515 0.010598567821057982 0.0 0.0
0.0 0.015601011321929674 0.012818250829225813 -0.012035299323617228 -0.0007829515056085744 0.008816035941400594 0.0 0.0
0.0 0.011588362400234805 0.009504843156067288 -0.008794235834122524 -0.0007106073219447486 0.007047450859051167 0.0 0.0
0.0 0.008087039182472923 0.00655615340218508 -0.005931035625253321 -0.0006251177769317548 0.005230230666568306 0.0 0.0
0.0 0.005195848871424267 0.003988937325232609 -0.003482148897732415 -0.0005067884275001955 0.0033923902334560916 0.0 0.0
0.0 0.0024672696012148485 0.0019703449851442264 -0.0016329055798393935 -0.0003374394053048314 0.001814471549882093 0.0 0.0
0.0 0.0008103834185847932 0.0006564163816394816 -0.0005143135107174119 -0.0001421028709220693 0.0007052222581844077 0.0 0.0
0.0 9.482187179751572e-05 6.241676217772455e-05 -4.5675753831839425e-05 -1.6741008345885114e-05 7.496030054074081e-05 0.0 0.0
0.0 -2.1984807710973007e-05 -1.3379249335011823e-05 1.0719789837605393e-05 2.6594594974064674e-06 -3.133692789208058e-05 0.0 0.0
0.0 9.242446301686409e-08 -8.429425851245194e-07 6.664701391281324e-07 1.7647244599637928e-07 -2.8888905941068303e-06 0.0 0.0
0.0 -6.363894459073826e-07 2.4202616207271002e-08 -1.8402187571489822e-08 -5.8004286357806e-09 1.2534082366478187e-07 0.0 0.0
0.0 -7.06583224475588e-08 2.2856944996465023e-09 -3.430106592971138e-09 1.144412093324758e-09 1.4630652527135584e-08 0.0 0.0
0.0 8.319311187096085e-05 4.1619359793178495e-05 9.464777478370734e-06 -5.1084137271549224e-05 0.0003006183360212376 0.0 0.0
0.0 0.0017863369745633403 0.0009104756532848532 -0.0013164499915198004 0.00040597433823494686 0.0008484701684245668 0.0 0.0
0.0 0.0007930762181351054 0.00044231053118491903 -0.0006444699848325761 0.00020215945364765697 -0.00051188232907926 0.0 0.0
0.0 -1.9493588555112024e-05 -1.607093956640852e-05 3.97277014818382e-05 -2.3656761915429655e-05 -5.108341012577427e-05 0.0 0.0
0.0 2.3707835292080704e-06 -4.741373455978782e-09 1.2902230881395796e-08 -8.160857425415773e-09 5.140057596115298e-07 0.0 0.0
0.0 7.864306231303351e-07 -1.6387003304045022e-09 -2.085611771306629e-10 1.847261507534281e-09 1.628291981626507e-07 0.0 0.0
0.0 -1.4840876209141932e-06 -4.850082339778713e-07 3.717514276465451e-07 1.1325680633132527e-07 3.0383571594318696e-06 0.0 0.0
0.0 -1.5531230403848792e-05 -3.802335642136433e-06 3.0957128733151495e-06 7.066227688212873e-07 1.3189906481669927e-05 0.0 0.0
0.0 4.702712314679537e-06 -1.1544315974330734e-05 9.58328586299488e-06 1.961030111335783e-06 2.056029662707063e-05 0.0 0.0
0.0 0.0003124068610911063 0.00015119311289646468 -0.00011896906649606266 -3.22240464004021e-05 -0.0003026838440388544 0.0 0.0
0.0 0.0011487909424881511 0.0007972694940430876 -0.00064748354581686 -0.0001497859482262269 -0.0011415430959157142 0.0 0.0
0.0 0.0027789226187300486 0.0019948027396944536 -0.001691019329981322 -0.00030378340971313306 -0.00233525897749618 0.0 0.0
0.0 0.004738084434990247 0.003638844298584344 -0.0032001194632664933 -0.00043872483531784894 -0.0038446747077290643 0.0 0.0
0.0 0.007208860815793658 0.005574762600707323 -0.005036869146380226 -0.000537893454327094 -0.005418102899908603 0.0 0.0
0.0 0.009927884382482878 0.007753304801866892 -0.007134656872456626 -0.0006186479294102623 -0.007000376193019456 0.0 0.0
0.0 0.01297556023233973 0.01022269401868747 -0.009539811909872716 -0.0006828821088147493 -0.008576085778438538 0.0 0.0
0.0 0.016523573070345608 0.013075327783886204 -0.012338250042509902 -0.000737077741376312 -0.010170553898004945 0.0 0.0
0.0 0.020671966461756713 0.016408325226685384 -0.015624714647932187 -0.000783610578753198 -0.01178979250452305 0.0 0.0
0.0 0.02540104937567549 0.020270754997904886 -0.019444055869661706 -0.0008266991282431592 -0.013287322724109077 0.0 0.0
0.0 0.030480634035353206 0.024655858157404915 -0.023784508532948324 -0.0008713496244566377 -0.014274661636259487 0.0 0.0
0.0 0.03622366234041798 0.02965666029176777 -0.02872906274991406 -0.0009275975418536649 -0.01430285458055421 0.0 0.0
0.0 0.04293539039966335 0.03534831663866429 -0.03440161292641446 -0.0009467037122498249 -0.01265648457338462 0.0 0.0
0.0 0.04894327628489146 0.03941007475656538 -0.039331421376931165 -7.865337963426818e-05 1.1843390851362656e-14 0.0 0.0
0.0 0.04293539039966301 0.03534831663865945 -0.03440161292640963 -0.0009467037122498129 0.012656484573414544 0.0 0.0
0.0 0.03622366234040923 0.02965666029175723 -0.028729062749903143 -0.0009275975418540707 0.014302854580586045 0.0 0.0
0.0 0.030480634035339595 0.024655858157392442 -0.02378450853293622 -0.0008713496244561957 0.014274661636275887 0.0 0.0
0.0 0.025401049375659592 0.020270754997892274 -0.019444055869650062 -0.0008266991282422177 0.013287322724106664 0.0 0.0
0.0 0.020671966461739473 0.016408325226671613 -0.015624714647918581 -0.0007836105787530166 0.011789792504514717 0.0 0.0
0.0 0.016523573070328156 0.013075327783871958 -0.0123382500424954 -0.000737077741376555 0.010170553897996983 0.0 0.0
0.0 0.012975560232326412 0.010222694018676474 -0.009539811909862207 -0.0006828821088142672 0.008576085778433662 0.0 0.0
0.0 0.009927884382467098 0.007753304801853965 -0.007134656872444108 -0.0006186479294098652 0.007000376193011566 0.0 0.0
0.0 0.007208860815779555 0.005574762600697081 -0.005036869146370559 -0.0005378934543265198 0.005418102899898423 0.0 0.0
0.0 0.00473808443497754 0.003638844298574702 -0.0032001194632575143 -0.0004387248353171865 0.003844674707717645 0.0 0.0
0.0 0.0027789226187184403 0.0019948027396861677 -0.0016910193299738603 -0.0003037834097123081 0.0023352589774870013 0.0 0.0
0.0 0.0011487909424834338 0.0007972694940398133 -0.0006474835458141673 -0.00014978594822564567 0.0011415430959123933 0.0 0.0
0.0 0.0003124068610876903 0.00015119311289456887 -0.00011896906649449851 -3.222404640007032e-05 0.0003026838440355321 0.0 0.0
0.0 4.70271231335087e-06 -1.1544315974016515e-05 9.583285862753785e-06 1.9610301112627704e-06 -2.0560296626884432e-05 0.0 0.0
0.0 -1.5531230404291912e-05 -3.802335641806511e-06 3.09571287305749e-06 7.066227687489925e-07 -1.3189906480038335e-05 0.0 0.0
0.0 -1.4840876215907201e-06 -4.850082340196643e-07 3.7175142768021115e-07 1.132568063394647e-07 -3.038357159597027e-06 0.0 0.0
0.0 7.864306230353753e-07 -1.6387003332195712e-09 -2.0856117435996048e-10 1.847261507578611e-09 -1.6282919813890725e-07 0.0 0.0
0.0 2.370783528572564e-06 -4.741373453977909e-09 1.2902230877658941e-08 -8.160857423679981e-09 -5.140057594732086e-07 0.0 0.0
0.0 -1.9493588556131082e-05 -1.6070939566576817e-05 3.9727701481850574e-05 -2.3656761915273666e-05 5.108341012463623e-05 0.0 0.0
0.0 0.000793076218129967 0.00044231053118228095 -0.000644469984828746 0.0002021594536464642 0.0005118823290768176 0.0 0.0
0.0 0.00030125624244488016 0.00013198175005258022 -0.000193814971763924 6.1833221711344e-05 -0.00018464467359276734 0.0 0.0
0.0 -3.837496281589305e-05 -1.9463772348787336e-05 2.76158471520799e-05 -8.152074803292574e-06 3.0261411074272838e-05 0.0 0.0
0.0 3.752924145788859e-07 1.0881436507427485e-09 -6.668165866363456e-10 -4.213270641053044e-10 7.578167770759034e-08 0.0 0.0
0.0 4.1995720307751985e-07 9.387576456984309e-09 -7.947148504755924e-09 -1.4404279522305173e-09 6.318476119885082e-08 0.0 0.0
0.0 -7.513805831718162e-07 -4.325355689399498e-08 2.6171560197790197e-08 1.708199669621312e-08 1.5412992009284985e-06 0.0 0.0
0.0 -9.976378581055694e-06 -2.6153898049893983e-06 2.083421056748237e-06 5.319687482411348e-07 2.1610116590586898e-05 0.0 0.0
0.0 1.2389430707062066e-05 -3.0790711333877544e-06 2.603092777468991e-06 4.7597835591879445e-07 8.872222334893607e-07 0.0 0.0
0.0 8.751532170997624e-05 1.8319316843522128e-06 -1.5247269196995549e-06 -3.0720476465274415e-07 -0.00011966791387027136 0.0 0.0
0.0 0.00032235072349975853 8.737825071853349e-05 -7.646196064420864e-05 -1.091629007432464e-05 -0.0004799478732621173 0.0 0.0
0.0 0.0008927525612115442 0.00040351355161230914 -0.0003593956915811156 -4.4117860031194066e-05 -0.0011844752899507407 0.0 0.0
0.0 0.0020087521286049504 0.0010484732068380403 -0.0009371856108670251 -0.00011128759597101433 -0.0022010666806883436 0.0 0.0
0.0 0.0031843949997410756 0.0019442767569423525 -0.0017544276304881999 -0.0001898491264541544 -0.003409639550780972 0.0 0.0
0.0 0.0046830367482745905 0.002986805809984437 -0.0027227738653186314 -0.00026403194466580296 -0.004667848606422541 0.0 0.0
0.0 0.006408093492764601 0.004179027819772562 -0.0038448832975769764 -0.0003341445221955852 -0.0059676323450460565 0.0 0.0
0.0 0.00838559495329162 0.005589763910359132 -0.005188181896566205 -0.00040158201379292496 -0.0073290811035245035 0.0 0.0
0.0 0.010752012264221312 0.007314676592711406 -0.006848482402714539 -0.0004661941899968615 -0.008761419538638798 0.0 0.0
0.0 0.013681546959591976 0.009485739855148593 -0.008953394435096039 -0.0005323454200525504 -0.010204848070391966 0.0 0.0
0.0 0.017268980566723102 0.012238151051929465 -0.011641231768838528 -0.0005969192830909299 -0.011306107595945036 0.0 0.0
0.0 0.02139828950843686 0.01573137936221205 -0.015071704358631009 -0.000659675003581068 -0.011463115543081919 0.0 0.0
0.0 0.02663889300325366 0.02047337453846365 -0.019704029708108944 -0.0007693448303546905 -0.010557192369324904 0.0 0.0
0.0 0.03423822210784745 0.024730787180796042 -0.024966606200906682 0.00023581902011063333 9.816800150552751e-15 0.0 0.0
0.0 0.02663889300325552 0.020473374538460726 -0.019704029708105555 -0.0007693448303551882 0.010557192369348248 0.0 0.0
0.0 0.021398289508434837 0.015731379362208045 -0.015071704358626816 -0.0006596750035812335 0.011463115543106197 0.0 0.0
0.0 0.017268980566711917 0.012238151051920807 -0.011641231768829814 -0.0005969192830909944 0.011306107595953 0.0 0.0
0.0 0.013681546959582276 0.009485739855143597 -0.00895339443509121 -0.0005323454200523856 0.010204848070386744 0.0 0.0
0.0 0.010752012264212144 0.007314676592704975 -0.006848482402708401 -0.0004661941899965741 0.008761419538631576 0.0 0.0
0.0 0.008385594953283601 0.0055897639103529686 -0.005188181896560093 -0.00040158201379287623 0.007329081103519389 0.0 0.0
0.0 0.006408093492759546 0.004179027819770001 -0.0038448832975743028 -0.00033414452219570283 0.005967632345042235 0.0 0.0
0.0 0.004683036748266073 0.00298680580997944 -0.002722773865313724 -0.0002640319446657144 0.0046678486064151495 0.0 0.0
0.0 0.003184394999733229 0.0019442767569379225 -0.0017544276304841953 -0.00018984912645372704 0.0034096395507721157 0.0 0.0
0.0 0.002008752128596303 0.0010484732068331375 -0.0009371856108624898 -0.00011128759597064699 0.002201066680679044 0.0 0.0
0.0 0.0008927525612073499 0.0004035135516103841 -0.00035939569157932173 -4.411786003106293e-05 0.0011844752899471342 0.0 0.0
0.0 0.00032235072349818107 8.7378250717803e-05 -7.646196064359452e-05 -1.0916290074208031e-05 0.0004799478732599085 0.0 0.0
0.0 8.75153217096096e-05 1.8319316845274944e-06 -1.5247269198248186e-06 -3.072047647027895e-07 0.00011966791387024051 0.0 0.0
0.0 1.2389430705575346e-05 -3.0790711334101203e-06 2.603092777486458e-06 4.759783559236752e-07 -8.872222339285017e-07 0.0 0.0
0.0 -9.976378580944841e-06 -2.6153898049272803e-06 2.0834210566978065e-06 5.319687482294741e-07 -2.1610116589740556e-05 0.0 0.0
0.0 -7.513805837940092e-07 -4.325355689595388e-08 2.6171560199553157e-08 1.7081996696397454e-08 -1.5412992012065942e-06 0.0 0.0
0.0 4.199572026471371e-07 9.387576450744758e-09 -7.947148499211324e-09 -1.4404279515326122e-09 -6.318476103972558e-08 0.0 0.0
0.0 3.752924143091098e-07 1.0881436506432341e-09 -6.668165872929771e-10 -4.213270633542405e-10 -7.578167765116563e-08 0.0 0.0
0.0 -3.837496281590832e-05 -1.946377234841297e-05 2.7615847151609932e-05 -8.15207480319695e-06 -3.026141107335145e-05 0.0 0.0
0.0 0.0003012562424415347 0.0001319817500512409 -0.00019381497176201864 6.183322171077757e-05 0.0001846446735908357 0.0 0.0
0.0 2.0383765079946775e-05 1.3277448862054057e-05 -2.0509604952903052e-05 7.232156090848941e-06 -2.0398654059603424e-05 0.0 0.0
0.0 -2.777456664602e-06 -2.122159862781297e-06 3.1251548320884347e-06 -1.0029949693071253e-06 3.7054800838720117e-06 0.0 0.0
0.0 3.5759254583909436e-06 6.284737981849492e-09 1.0240883536395953e-08 -1.6525621518250078e-08 7.505723859315751e-07 0.0 0.0
0.0 1.0565381710434024e-06 4.321387571464535e-08 -3.7742029111405566e-08 -5.4718466032365e-09 5.704321705992103e-07 0.0 0.0
0.0 -1.5985508513260096e-06 1.2630811231097153e-07 -1.2005226195455633e-07 -6.2558503564153425e-09 2.8903947657051645e-06 0.0 0.0
0.0 -7.422198382023046e-06 -1.8369314149932395e-07 1.9989312501394834e-07 -1.6199983514620946e-08 1.5445770133288452e-05 0.0 0.0
0.0 1.7071069792460253e-05 -5.857152704082904e-07 5.71152090421585e-07 1.4563179986691707e-08 -4.215768661323723e-06 0.0 0.0
0.0 9.152551032188423e-05 -5.897963202714541e-07 5.872858856187945e-07 2.5104346526765458e-09 -0.00015467526327815452 0.0 0.0
0.0 0.0002623428944081464 -2.8314362385337404e-08 3.2248626033857885e-08 -3.934263648503296e-09 -0.00036902552400852145 0.0 0.0
0.0 0.00042954675811305806 1.4879268469528053e-07 -8.86429913871818e-08 -6.01496933081379e-08 -0.0007417263569749428 0.0 0.0
0.0 0.0007644885234696758 -7.319363867595169e-07 2.7574540931497136e-07 4.561909774444625e-07 -0.0012639387531387823 0.0 0.0
0.0 0.0010512315654758794 1.8709709975171264e-06 -1.2387622524657002e-06 -6.32208745051101e-07 -0.0021139582310086796 0.0 0.0
0.0 0.0015384285043562893 -4.831870683611426e-06 6.927257932502122e-06 -2.095387248890079e-06 -0.0031549515792523527 0.0 0.0
0.0 0.002293372249132901 -1.7508657798954042e-05 2.071658860281736e-05 -3.2079308038633733e-06 -0.0043930910032472644 0.0 0.0
0.0 0.0032411684418964604 -6.3635794690492485e-06 4.424668458009591e-06 1.9389110110395492e-06 -0.0057721631934438 0.0 0.0
0.0 0.004323327637700378 0.0001151303814194465 -0.00013523175316656897 2.010137174712225e-05 -0.007299717752934064 0.0 0.0
0.0 0.00560909198802671 0.0005347393516583738 -0.0005955346002934627 6.0795248635087985e-05 -0.00892729482432732 0.0 0.0
0.0 0.007059680584707693 0.0014338638111414657 -0.0016049724734771658 0.00017110866233569687 -0.010518647022878025 0.0 0.0
0.0 0.009222108390747653 0.0026125222789861046 -0.0029119098087840973 0.0002993875297979937 -0.011712237872334512 0.0 0.0
0.0 0.013565349152701104 0.005644208253263232 -0.0054799878092527425 -0.00016422044401048612 -0.011711503837096767 0.0 0.0
0.0 0.02368084799736411 0.010457098007105411 -0.011174199784703817 0.0007171017775984106 1.0052288862416603e-14 0.0 0.0
0.0 0.013565349152706668 0.005644208253263798 -0.005479987809253425 -0.00016422044401037146 0.01171150383711317 0.0 0.0
0.0 0.009222108390747198 0.002612522278985675 -0.0029119098087829406 0.0002993875297972651 0.011712237872340612 0.0 0.0
0.0 0.007059680584697802 0.0014338638111395705 -0.0016049724734749817 0.0001711086623354089 0.010518647022871745 0.0 0.0
0.0 0.005609091988021307 0.000534739351660439 -0.0005955346002959958 6.079524863555788e-05 0.008927294824319145 0.0 0.0
0.0 0.0043233276376944026 0.00011513038142044413 -0.00013523175316782198 2.0101371747379234e-05 0.007299717752925877 0.0 0.0
0.0 0.0032411684418925317 -6.363579468882336e-06 4.424668458198296e-06 1.938911010683538e-06 0.005772163193438986 0.0 0.0
0.0 0.0022933722491312886 -1.750865779705696e-05 2.07165886007847e-05 -3.207930803727604e-06 0.004393091003242741 0.0 0.0
0.0 0.0015384285043508422 -4.831870683580418e-06 6.92725793250841e-06 -2.0953872489278905e-06 0.003154951579241773 0.0 0.0
0.0 0.0010512315654704109 1.8709709975192948e-06 -1.238762252431968e-06 -6.322087450876183e-07 0.0021139582310021237 0.0 0.0
0.0 0.0007644885234665145 -7.319363866209287e-07 2.757454091571759e-07 4.561909774638375e-07 0.0012639387531329404 0.0 0.0
0.0 0.0004295467581125615 1.4879268481418363e-07 -8.864299150329266e-08 -6.014969331081982e-08 0.0007417263569733698 0.0 0.0
0.0 0.00026234289440681564 -2.8314362314419068e-08 3.224862599589727e-08 -3.934263681526483e-09 0.00036902552400671387 0.0 0.0
0.0 9.152551032134793e-05 -5.897963202691092e-07 5.872858856262062e-07 2.510434642913174e-09 0.00015467526327720462 0.0 0.0
0.0 1.707106979110403e-05 -5.857152704018321e-07 5.711520904160738e-07 1.4563179985773169e-08 4.215768660958759e-06 0.0 0.0
0.0 -7.422198382120897e-06 -1.836931415229501e-07 1.998931250362115e-07 -1.619998351326799e-08 -1.5445770132323848e-05 0.0 0.0
0.0 -1.598550851200626e-06 1.263081122685826e-07 -1.2005226191352838e-07 -6.255850355051025e-09 -2.8903947645522244e-06 0.0 0.0
0.0 1.0565381701899316e-06 4.321387573898413e-08 -3.774202913259743e-08 -5.471846606387609e-09 -5.704321710461905e-07 0.0 0.0
0.0 3.575925458066122e-06 6.28473798266573e-09 1.024088353745481e-08 -1.6525621520111347e-08 -7.505723859733494e-07 0.0 0.0
0.0 -2.7774566655084573e-06 -2.1221598628274107e-06 3.1251548321509762e-06 -1.002994969323579e-06 -3.7054800838722337e-06 0.0 0.0
0.0 2.038376507985496e-05 1.3277448862475107e-05 -2.0509604953507098e-05 7.232156091032097e-06 2.0398654060580226e-05 0.0 0.0
0.0 1.0159866981269367e-06 -2.2603567521279327e-07 3.3585190377729715e-07 -1.0981622856451756e-07 4.7010530678047716e-07 0.0 0.0
0.0 -2.2510285926344757e-07 3.6110942001446924e-08 -5.134009778536627e-08 1.5229155783921618e-08 -3.344367828391808e-08 0.0 0.0
0.0 -3.1596413400037433e-07 -4.17852996314081e-10 -2.7414724682447286e-09 3.1593254645584295e-09 -1.2024302826491752e-07 0.0 0.0
0.0 9.199998451433997e-07 1.5178487496379498e-07 -1.2894761229488498e-07 -2.2837262668911575e-08 9.877890792555668e-07 0.0 0.0
0.0 -1.5502097841660755e-06 1.33302812567071e-07 -1.2687221605365254e-07 -6.43059651341618e-09 8.222831577488531e-07 0.0 0.0
0.0 -6.719437072354986e-06 6.885888810171978e-07 -4.485994291520553e-07 -2.399894518651073e-07 7.81733673003569e-06 0.0 0.0
0.0 3.05990132324108e-05 2.8484880122681012e-06 -2.1442694429792563e-06 -7.042185692889098e-07 2.9333540552966733e-06 0.0 0.0
0.0 9.535647906681806e-05 -3.497917898534003e-06 3.074584980293604e-06 4.2333291824042397e-07 -0.00012386234655796047 0.0 0.0
0.0 0.00032341144717536527 -8.814350184744088e-05 7.707815062766798e-05 1.1065351219772707e-05 -0.00048297675110036667 0.0 0.0
0.0 0.000890637195019773 -0.0004025434657248068 0.00035847907268322774 4.4064393041579484e-05 -0.001183695826182939 0.0 0.0
0.0 0.002014379205839681 -0.001043754376850667 0.0009337372380560965 0.00011001713879457047 -0.002195457307633612 0.0 0.0
0.0 0.0032044436741379603 -0.001953472849779753 0.0017620913765786458 0.00019138147320110614 -0.0034102508024056876 0.0 0.0
0.0 0.004716726679492765 -0.003015435376785434 0.0027477934502977454 0.00026764192648768225 -0.004668696835543969 0.0 0.0
0.0 0.006464046515633421 -0.004228497670283547 0.003891176440673054 0.0003373212296104951 -0.005965835692010728 0.0 0.0
0.0 0.00836749996188471 -0.005589972327497448 0.005199035767115063 0.0003909365603823858 -0.007341132894745524 0.0 0.0
0.0 0.01037865417589096 -0.006984368782001916 0.00657096712007265 0.00041340166192926995 -0.008861340240525937 0.0 0.0
0.0 0.01220890139529033 -0.008147615465678458 0.007752246204421661 0.00039536926125680044 -0.010594966586998931 0.0 0.0
0.0 0.013670415005039514 -0.008662176571009495 0.008346909723843778 0.00031526684716571385 -0.012578363213924046 0.0 0.0
0.0 0.013867833800711007 -0.008009001483967057 0.007851017755899085 0.00015798372806798475 -0.014776319645047348 0.0 0.0
0.0 0.011458448856562806 -0.005786570032239323 0.005900833248252554 -0.0001142632160132232 -0.01645784752096703 0.0 0.0
0.0 0.02262579651677167 -0.0031097457885070874 0.001275434257978198 0.001834311530528888 1.2310465147269412e-14 0.0 0.0
0.0 0.011458448856567001 -0.005786570032240163 0.005900833248253544 -0.0001142632160133792 0.016457847520977585 0.0 0.0
0.0 0.013867833800707427 -0.00800900148396381 0.007851017755895666 0.00015798372806814803 0.014776319645056858 0.0 0.0
0.0 0.01367041500503441 -0.0086621765710055 0.008346909723840593 0.00031526684716490325 0.012578363213927617 0.0 0.0
0.0 0.012208901395274705 -0.008147615465667396 0.007752246204410611 0.00039536926125678174 0.010594966586989918 0.0 0.0
0.0 0.010378654175876955 -0.006984368781991554 0.006570967120062582 0.00041340166192896914 0.008861340240515572 0.0 0.0
0.0 0.00836749996187667 -0.005589972327490545 0.0051990357671086625 0.0003909365603818844 0.007341132894739307 0.0 0.0
0.0 0.006464046515623231 -0.004228497670275757 0.0038911764406654686 0.00033732122961028957 0.005965835692003919 0.0 0.0
0.0 0.004716726679479866 -0.003015435376776366 0.0027477934502889625 0.00026764192648740334 0.004668696835533805 0.0 0.0
0.0 0.00320444367412555 -0.0019534728497710876 0.0017620913765706418 0.0001913814732004471 0.003410250802394615 0.0 0.0
0.0 0.0020143792058280965 -0.0010437543768438465 0.0009337372380499709 0.00011001713879387493 0.002195457307623146 0.0 0.0
0.0 0.000890637195013711 -0.0004025434657219752 0.0003584790726805716 4.4064393041403125e-05 0.001183695826178386 0.0 0.0
0.0 0.00032341144717367717 -8.814350184676041e-05 7.707815062706094e-05 1.1065351219699567e-05 0.00048297675109891124 0.0 0.0
0.0 9.535647906531422e-05 -3.4979178984490523e-06 3.0745849802341406e-06 4.2333291821489905e-07 0.00012386234655642483 0.0 0.0
0.0 3.0599013230907306e-05 2.8484880122797395e-06 -2.144269442986811e-06 -7.042185692929168e-07 -2.933354055433562e-06 0.0 0.0
0.0 -6.719437072850915e-06 6.885888809086791e-07 -4.485994290657566e-07 -2.3998945184292403e-07 -7.817336729178622e-06 0.0 0.0
0.0 -1.5502097840865163e-06 1.3330281243221502e-07 -1.268722159391758e-07 -6.43059649304291e-09 -8.222831566332992e-07 0.0 0.0
0.0 9.199998448869003e-07 1.5178487492843623e-07 -1.2894761226700249e-07 -2.283726266143306e-08 -9.877890787546755e-07 0.0 0.0
0.0 -3.1596413422113197e-07 -4.178530104142094e-10 -2.741472468409976e-09 3.1593254788199526e-09 1.2024302881660236e-07 0.0 0.0
0.0 -2.2510285934819422e-07 3.611094201156545e-08 -5.134009779742052e-08 1.522915578585863e-08 3.344367815251333e-08 0.0 0.0
0.0 1.0159866971314045e-06 -2.2603567527048884e-07 3.3585190385770805e-07 -1.0981622858723962e-07 -4.7010530690394026e-07 0.0 0.0
0.0 0.0 0.0 0.0 0.0 0.0 0.0 0.0
0.0 6.880248193494307e-07 2.5048177246087156e-09 8.32474642317674e-09 -1.0829564147790443e-08 1.407242047044977e-07 0.0 0.0
0.0 4.7291061821201217e-07 7.437013365741743e-08 -5.8121409582874793e-08 -1.6248724074551635e-08 5.615929107900741e-07 0.0 0.0
0.0 -2.2561209242857123e-07 -3.367832212232179e-07 2.7383906162537406e-07 6.294415959783673e-08 -2.1450118421520693e-06 0.0 0.0
0.0 4.371067205689366e-06 1.258694942199545e-06 -1.050377563331138e-06 -2.0831737886835366e-07 6.683930696152479e-06 0.0 0.0
0.0 4.282214608988359e-06 7.2118945124635175e-06 -5.762800919251827e-06 -1.4490935932116688e-06 2.669544898175973e-05 0.0 0.0
0.0 7.381863240605631e-06 1.3330815449208493e-06 -1.088291685691503e-06 -2.447898592292786e-07 -2.3597889425874996e-05 0.0 0.0
0.0 0.0003262124922801125 -0.00015690687048380202 0.00012389007884742222 3.301679163637968e-05 -0.00031575717780225415 0.0 0.0
0.0 0.0011478594583830444 -0.0007965313503590022 0.0006467395791068505 0.00014979177125215223 -0.0011427135754258078 0.0 0.0
0.0 0.002774621016967077 -0.0019925770414036675 0.0016888697678954516 0.000303707273508214 -0.0023317896248419246 0.0 0.0
0.0 0.004737500828520434 -0.003639190861843833 0.0032004910749260447 0.0004386997869177885 -0.0038428026390304217 0.0 0.0
0.0 0.007218614893410646 -0.005582790016912127 0.005044455473186689 0.0005383345437254377 -0.005418984023512683 0.0 0.0
0.0 0.009955511076091642 -0.007778750171123331 0.007159157751853633 0.0006195924192696964 -0.006988449799577044 0.0 0.0
0.0 0.013017465826846809 -0.010268469838152513 0.009585586000763435 0.000682883837389079 -0.008532911914513233 0.0 0.0
0.0 0.016509531080904943 -0.013080125807488928 0.012350813919650937 0.0007293118878379768 -0.010132994543964078 0.0 0.0
0.0 0.02033359977972357 -0.016115736214176595 0.01536221025440608 0.0007535259597705104 -0.011975971781380403 0.0 0.0
0.0 0.024114945019556213 -0.019068102817218983 0.01831366106690958 0.0007544417503094084 -0.014281048474981755 0.0 0.0
0.0 0.027124018414302186 -0.021419206591132244 0.020683881976256053 0.0007353246148761813 -0.01715902680046089 0.0 0.0
0.0 0.02877424373657904 -0.02220337138503245 0.021535136980722448 0.0006682344043099874 -0.0200378747779665 0.0 0.0
0.0 0.026648751490053715 -0.01952751735952194 0.018961672963359936 0.0005658443961620033 -0.020591694475698474 0.0 0.0
0.0 0.027917666401398592 -0.015413703659806266 0.012777070354269785 0.0026366333055364774 1.1590554904739037e-14 0.0 0.0
0.0 0.02664875149006231 -0.01952751735952303 0.018961672963361594 0.0005658443961614283 0.02059169447572522 0.0 0.0
0.0 0.02877424373657605 -0.02220337138502581 0.021535136980716307 0.0006682344043094956 0.020037874777989975 0.0 0.0
0.0 0.027124018414290997 -0.0214192065911221 0.020683881976245887 0.0007353246148762015 0.017159026800470472 0.0 0.0
0.0 0.02411494501953471 -0.0190681028172015 0.018313661066892365 0.0007544417503091403 0.014281048474975558 0.0 0.0
0.0 0.02033359977970035 -0.01611573621415789 0.015362210254387646 0.0007535259597702564 0.011975971781368604 0.0 0.0
0.0 0.016509531080884918 -0.013080125807472604 0.012350813919634957 0.0007293118878376454 0.010132994543953867 0.0 0.0
0.0 0.013017465826828622 -0.010268469838136847 0.009585586000747938 0.0006828838373888889 0.008532911914504188 0.0 0.0
0.0 0.009955511076069654 -0.007778750171105735 0.0071591577518362245 0.0006195924192695061 0.006988449799565696 0.0 0.0
0.0 0.0072186148933903885 -0.005582790016896494 0.0050444554731719484 0.0005383345437245429 0.005418984023498784 0.0 0.0
0.0 0.004737500828503374 -0.0036391908618307097 0.0032004910749135985 0.0004386997869171096 0.0038428026390163513 0.0 0.0
0.0 0.0027746210169529374 -0.00199257704139328 0.0016888697678860564 0.0003037072735072245 0.0023317896248316906 0.0 0.0
0.0 0.0011478594583764893 -0.0007965313503542605 0.0006467395791029977 0.00014979177125126297 0.0011427135754212899 0.0 0.0
0.0 0.00032621249227669444 -0.00015690687048187192 0.0001238900788459502 3.301679163592148e-05 0.000315757177798917 0.0 0.0
0.0 7.381863239662358e-06 1.3330815445188407e-06 -1.0882916853873757e-06 -2.447898591315128e-07 2.3597889426467604e-05 0.0 0.0
0.0 4.282214607954899e-06 7.211894512393392e-06 -5.7628009191941516e-06 -1.4490935931993365e-06 -2.6695448981372698e-05 0.0 0.0
0.0 4.371067204403999e-06 1.2586949421928673e-06 -1.05037756332556e-06 -2.083173788673028e-07 -6.683930696183002e-06 0.0 0.0
0.0 -2.2561209229828544e-07 -3.367832213405084e-07 2.7383906172089836e-07 6.294415961962004e-08 2.1450118429894507e-06 0.0 0.0
0.0 4.7291061730427925e-07 7.43701336672484e-08 -5.812140959294186e-08 -1.6248724074302488e-08 -5.615929108179185e-07 0.0 0.0
0.0 6.880248191809002e-07 2.5048177248053658e-09 8.324746419153091e-09 -1.0829564143958909e-08 -1.407242046677047e-07 0.0 0.0
0.0 0.0 0.0 0.0 0.0 0.0 0.0 0.0
0.0 0.0 0.0 0.0 0.0 0.0 0.0 0.0
0.0 -2.601208151042033e-07 -4.54463681070783e-09 2.796718489368658e-09 1.747918321339569e-09 -5.343306389855201e-08 0.0 0.0
0.0 8.768806017353131e-07 1.2448174449155846e-08 -4.41157639447504e-09 -8.036598054674761e-09 1.786962950399552e-07 0.0 0.0
0.0 2.088397069533896e-06 5.26721633633488e-07 -4.3437347021852103e-07 -9.234816341496869e-08 1.9680209498834208e-06 0.0 0.0
0.0 -3.3406018969463463e-07 2.30464198270094e-06 -1.8461275166809538e-06 -4.5851446602002147e-07 6.797300719338655e-06 0.0 0.0
0.0 -1.470610940618488e-05 1.7204620685038405e-06 -1.4170778962664732e-06 -3.0338417223731915e-07 -3.7963573781732622e-06 0.0 0.0
0.0 0.0001565317505954486 -7.413402161735929e-05 5.581334255892346e-05 1.832067905843562e-05 -9.346529608724514e-05 0.0 0.0
0.0 0.0008244731672074023 -0.0006596611008207487 0.000517491409773953 0.0001421696910467958 -0.0007151672071636193 0.0 0.0
0.0 0.002463529961202416 -0.001967437259928231 0.0016300218561622574 0.00033741540376597176 -0.001811671902434515 0.0 0.0
0.0 0.00519302549794703 -0.003986985644043649 0.003480097083773846 0.0005068885602698047 -0.003387597696912923 0.0 0.0
0.0 0.00808447040945391 -0.006558107162712634 0.005933131670007589 0.0006249754927050447 -0.005229916159645593 0.0 0.0
0.0 0.011596711152065705 -0.00951140739885538 0.008800888757863452 0.0007105186409919245 -0.00704669281740426 0.0 0.0
0.0 0.015615082396016507 -0.012832943142283119 0.01204979357043433 0.0007831495718487915 -0.008789686998054765 0.0 0.0
0.0 0.02010303756875487 -0.016604432750429218 0.01575753743900227 0.0008468953114269366 -0.010502615139374824 0.0 0.0
0.0 0.025282642873911697 -0.020891159680040797 0.01999264273356477 0.0008985169464760471 -0.012328385366639046 0.0 0.0
0.0 0.030889277680717607 -0.025619488969169654 0.02469113072326123 0.0009283582459084066 -0.014535474953467306 0.0 0.0
0.0 0.036919011461042026 -0.03042991558609888 0.029499314183671115 0.0009306014024277574 -0.017530177686475905 0.0 0.0
0.0 0.04207205111125468 -0.03453506100451461 0.03364485294100296 0.0008902080635116409 -0.021416227174532773 0.0 0.0
0.0 0.04485297082750144 -0.036438544535805896 0.03563499259871326 0.0008035519370926285 -0.02513007033941316 0.0 0.0
0.0 0.04201622146199258 -0.0335023798717863 0.03288403033435649 0.0006183495374298039 -0.026297157562289442 0.0 0.0
0.0 0.03925008191306809 -0.02767317638566571 0.024303410138476717 0.0033697662471889817 1.2883791256079746e-14 0.0 0.0
0.0 0.04201622146199846 -0.03350237987178509 0.03288403033435583 0.0006183495374292866 0.026297157562322048 0.0 0.0
0.0 0.04485297082749753 -0.036438544535797514 0.035634992598705416 0.0008035519370920821 0.02513007033944445 0.0 0.0
0.0 0.04207205111123616 -0.03453506100449701 0.033644852940985695 0.0008902080635113236 0.021416227174546942 0.0 0.0
0.0 0.03691901146101459 -0.03042991558607578 0.02949931418364826 0.0009306014024275304 0.017530177686472307 0.0 0.0
0.0 0.030889277680689168 -0.025619488969145603 0.02469113072323767 0.0009283582459079256 0.01453547495345633 0.0 0.0
0.0 0.025282642873882443 -0.02089115968001633 0.019992642733540872 0.0008985169464754533 0.012328385366627703 0.0 0.0
0.0 0.02010303756872954 -0.016604432750407662 0.015757537438981152 0.0008468953114264997 0.010502615139365006 0.0 0.0
0.0 0.015615082395986437 -0.01283294314225827 0.012049793570409662 0.0007831495718486012 0.008789686998041774 0.0 0.0
0.0 0.011596711152039642 -0.00951140739883442 0.008800888757843106 0.0007105186409913148 0.007046692817389343 0.0 0.0
0.0 0.008084470409427577 -0.0065581071626918735 0.005933131669987156 0.0006249754927047184 0.005229916159627644 0.0 0.0
0.0 0.005193025497927996 -0.003986985644028398 0.003480097083759668 0.0005068885602687282 0.0033875976969007598 0.0 0.0
0.0 0.002463529961189642 -0.0019674372599185253 0.0016300218561537362 0.0003374154037647863 0.0018116719024264662 0.0 0.0
0.0 0.0008244731672019938 -0.000659661100816607 0.0005174914097706982 0.00014216969104590899 0.0007151672071602653 0.0 0.0
0.0 0.0001565317505926758 -7.413402161612095e-05 5.581334255794978e-05 1.8320679058171314e-05 9.346529608537828e-05 0.0 0.0
0.0 -1.4706109406262012e-05 1.7204620677653311e-06 -1.4170778956887832e-06 -3.033841720765218e-07 3.796357379709387e-06 0.0 0.0
0.0 -3.3406018988412644e-07 2.304641982414877e-06 -1.846127516446674e-06 -4.585144659682027e-07 -6.79730071828446e-06 0.0 0.0
0.0 2.088397068167693e-06 5.267216336412617e-07 -4.3437347022631734e-07 -9.234816341494295e-08 -1.9680209498995788e-06 0.0 0.0
0.0 8.768806017548074e-07 1.2448174450744215e-08 -4.411576396546859e-09 -8.036598054201751e-09 -1.7869629504425285e-07 0.0 0.0
0.0 -2.601208150903466e-07 -4.544636810377973e-09 2.7967184891725414e-09 1.7479183212069819e-09 5.3433063895465725e-08 0.0 0.0
0.0 0.0 0.0 0.0 0.0 0.0 0.0 0.0
0.0 0.0 0.0 0.0 0.0 0.0 0.0 0.0
0.0 0.0 0.0 0.0 0.0 0.0 0.0 0.0
0.0 -2.95889627028445e-07 -1.3592507698731995e-08 1.083743040721265e-08 2.7550772915178707e-09 -5.501979115714737e-08 0.0 0.0
0.0 -1.3398449647842186e-06 -2.0311603417453952e-07 1.6838081876184672e-07 3.4735215412703064e-08 -6.31942061189288e-07 0.0 0.0
0.0 1.3084161281847683e-06 5.030715931870082e-06 -4.05840687045724e-06 -9.723090614128372e-07 1.165118155321279e-05 0.0 0.0
0.0 3.173844950321377e-05 4.521763645677873e-06 -4.55958963150955e-06 3.782598583161992e-08 1.7532345099271304e-05 0.0 0.0
0.0 0.0004121247220546359 -0.0003288237617723801 0.00025050147084790166 7.832229092447846e-05 -0.0002854803219324487 0.0 0.0
0.0 0.001660944741576359 -0.001400503346790403 0.0011225674470051942 0.0002779358997852079 -0.0010308039500472703 0.0 0.0
0.0 0.004330006867265947 -0.0033801478518621707 0.002887773553151597 0.0004923742987105715 -0.002347433951678908 0.0 0.0
0.0 0.00726164399983044 -0.006213342278038945 0.005566718479891717 0.0006466237981472302 -0.004161259933684889 0.0 0.0
0.0 0.011462866526115584 -0.009636398735046922 0.00889158453638474 0.0007448141986621719 -0.006071020439284239 0.0 0.0
0.0 0.016139608999559227 -0.013571331629786723 0.012748277795896724 0.0008230538338899964 -0.00795067269407705 0.0 0.0
0.0 0.021393745478261925 -0.018023465783138265 0.017126188456854714 0.0008972773262835524 -0.009760662103250377 0.0 0.0
0.0 0.027362360138270002 -0.023087788410664757 0.022119405859267353 0.000968382551397387 -0.011564517363499656 0.0 0.0
0.0 0.03410602273977599 -0.028866076545435316 0.02783595459215877 0.001030121953276509 -0.01349553766187895 0.0 0.0
0.0 0.04194050187202379 -0.03531329037176351 0.03424491998976993 0.0010683703819936432 -0.015889011942647236 0.0 0.0
0.0 0.049563421930227544 -0.042004782474039326 0.0409387531918645 0.0010660292821747294 -0.019239323094199397 0.0 0.0
0.0 0.05689859644376289 -0.0478112661028506 0.04680821261874913 0.0010030534841015282 -0.023674807127911104 0.0 0.0
0.0 0.0609507049523345 -0.05064880059163172 0.04978167399271512 0.00086712659891657 -0.028195715627986694 0.0 0.0
0.0 0.05736702643615412 -0.04707026477394363 0.04645341452052019 0.0006168502534234337 -0.03019440740055956 0.0 0.0
0.0 0.05160530404997182 -0.03967926747283374 0.03568686955300715 0.003992397919826548 1.4616780008580577e-14 0.0 0.0
0.0 0.05736702643615327 -0.047070264773937595 0.04645341452051375 0.0006168502534238413 0.030194407400593447 0.0 0.0
0.0 0.06095070495232673 -0.05064880059162012 0.04978167399270448 0.0008671265989156525 0.02819571562802198 0.0 0.0
0.0 0.05689859644373969 -0.047811266102828896 0.04680821261872767 0.0010030534841011522 0.02367480712792891 0.0 0.0
0.0 0.04956342193019377 -0.04200478247401014 0.04093875319183546 0.00106602928217467 0.019239323094197396 0.0 0.0
0.0 0.0419405018719869 -0.03531329037173215 0.03424491998973874 0.0010683703819934027 0.015889011942637275 0.0 0.0
0.0 0.03410602273974174 -0.028866076545405902 0.02783595459212984 0.0010301219532760815 0.013495537661867955 0.0 0.0
0.0 0.02736236013823664 -0.02308778841063601 0.02211940585923905 0.0009683825513969552 0.011564517363489317 0.0 0.0
0.0 0.021393745478224556 -0.018023465783106752 0.01712618845682346 0.0008972773262832902 0.009760662103236848 0.0 0.0
0.0 0.01613960899952611 -0.013571331629758845 0.01274827779586933 0.000823053833889518 0.007950672694061578 0.0 0.0
0.0 0.011462866526082164 -0.009636398735019154 0.00889158453635719 0.0007448141986619759 0.006071020439264916 0.0 0.0
0.0 0.007261643999807008 -0.006213342278019085 0.005566718479872577 0.0006466237981465075 0.004161259933670949 0.0 0.0
0.0 0.004330006867247915 -0.0033801478518480812 0.002887773553138786 0.0004923742987093 0.00234743395166966 0.0 0.0
0.0 0.0016609447415671336 -0.0014005033467833065 0.0011225674469992682 0.00027793589978403877 0.0010308039500421962 0.0 0.0
0.0 0.0004121247220496192 -0.00032882376176909995 0.0002505014708453927 7.832229092370708e-05 0.0002854803219298435 0.0 0.0
0.0 3.173844950227189e-05 4.521763645600068e-06 -4.559589631439882e-06 3.782598583978172e-08 -1.75323450989136e-05 0.0 0.0
0.0 1.3084161269146646e-06 5.030715931856851e-06 -4.058406870446978e-06 -9.72309061409853e-07 -1.1651181553181108e-05 0.0 0.0
0.0 -1.3398449654381877e-06 -2.0311603421675676e-07 1.6838081879519536e-07 3.4735215421578315e-08 6.319420613328839e-07 0.0 0.0
0.0 -2.9588962689353585e-07 -1.3592507692400482e-08 1.0837430402124616e-08 2.755077290274585e-09 5.50197911312241e-08 0.0 0.0
0.0 0.0 0.0 0.0 0.0 0.0 0.0 0.0
0.0 0.0 0.0 0.0 0.0 0.0 0.0 0.0
0.0 0.0 0.0 0.0 0.0 0.0 0.0 0.0
0.0 0.0 0.0 0.0 0.0 0.0 0.0 0.0
0.0 -3.008317283811859e-07 -1.6894082401111415e-08 1.3667650964936457e-08 3.226431436173586e-09 -5.3084951058647605e-08 0.0 0.0
0.0 9.258174201992844e-07 5.318857362433259e-09 -1.3231233494668671e-09 -3.9957340129414e-09 2.6343555545011327e-08 0.0 0.0
0.0 -1.4175053269881703e-05 3.0163914801428128e-06 -2.573371391682379e-06 -4.430200884604383e-07 6.131489403790977e-06 0.0 0.0
0.0 0.00013166745287356094 -6.207208579453171e-05 4.461126113282467e-05 1.746082466170718e-05 -2.1385836325272554e-05 0.0 0.0
0.0 0.0008499952442188497 -0.0007260419347986957 0.0005604173746550426 0.00016562456014365294 -0.0004081879354112808 0.0 0.0
0.0 0.0029362372707428994 -0.0023169798223821774 0.0019095390321919835 0.00040744079019019357 -0.0012442760210466693 0.0 0.0
0.0 0.005640730056674023 -0.004995868136885558 0.00438047300316568 0.0006153951337198749 -0.002712964696778237 0.0 0.0
0.0 0.009914531170782342 -0.008525509776546158 0.007782056588840321 0.0007434531877058418 -0.004473814602633441 0.0 0.0
0.0 0.014924394582928598 -0.012789843168866631 0.011956595925868911 0.000833247242997719 -0.006322891105099391 0.0 0.0
0.0 0.02070573975055933 -0.017711052613401893 0.01679832393679948 0.0009127286766024029 -0.008150293545688162 0.0 0.0
0.0 0.027270239324834633 -0.02330341246164172 0.02231084792271226 0.0009925645389294415 -0.009929865214223762 0.0 0.0
0.0 0.03480484553100646 -0.029668377963080684 0.02859717651459626 0.001071201448484434 -0.011729122339746706 0.0 0.0
0.0 0.04323145582709329 -0.03693626584127969 0.03579214793270069 0.001144117908578957 -0.013664823264235869 0.0 0.0
0.0 0.05260315940974009 -0.045087929163784464 0.04389547590658952 0.0011924532571949587 -0.01598740938169603 0.0 0.0
0.0 0.06290394058572198 -0.05360900614634239 0.05242489205417611 0.0011841140921662855 -0.01920974955630876 0.0 0.0
0.0 0.07177347650494237 -0.06106835843753214 0.05997625816143938 0.0010921002760926743 -0.02373536961517607 0.0 0.0
0.0 0.07637863959115189 -0.0647403566025698 0.06383585134502676 0.0009045052575430853 -0.02891025213748469 0.0 0.0
0.0 0.0723630542797321 -0.060489934707915596 0.059883298074649816 0.0006066366332657616 -0.03269936766367985 0.0 0.0
0.0 0.06495014598478571 -0.05170153865366264 0.04714980515130253 0.004551733502360119 1.569057384021022e-14 0.0 0.0
0.0 0.0723630542797277 -0.06048993470790666 0.059883298074640844 0.0006066366332658216 0.032699367663715284 0.0 0.0
0.0 0.07637863959113647 -0.06474035660255242 0.0638358513450098 0.0009045052575426063 0.02891025213752081 0.0 0.0
0.0 0.07177347650491156 -0.06106835843750411 0.059976258161411465 0.0010921002760926554 0.02373536961519464 0.0 0.0
0.0 0.06290394058568344 -0.053609006146308986 0.05242489205414271 0.0011841140921661543 0.019209749556309302 0.0 0.0
0.0 0.05260315940969462 -0.045087929163745336 0.04389547590655043 0.0011924532571949784 0.01598740938168862 0.0 0.0
0.0 0.04323145582705092 -0.03693626584124326 0.03579214793266476 0.0011441179085785026 0.013664823264226238 0.0 0.0
0.0 0.03480484553096256 -0.029668377963042458 0.02859717651455866 0.0010712014484837952 0.011729122339735248 0.0 0.0
0.0 0.027270239324791196 -0.023303412461604344 0.02231084792267505 0.0009925645389292758 0.009929865214211703 0.0 0.0
0.0 0.02070573975051919 -0.01771105261336776 0.016798323936765763 0.0009127286766019772 0.008150293545673322 0.0 0.0
0.0 0.014924394582890289 -0.01278984316883447 0.011956595925836809 0.0008332472429976574 0.006322891105081248 0.0 0.0
0.0 0.009914531170753063 -0.008525509776521289 0.007782056588816224 0.0007434531877050763 0.004473814602619242 0.0 0.0
0.0 0.005640730056653363 -0.004995868136866789 0.004380473003147879 0.0006153951337189075 0.002712964696768142 0.0 0.0
0.0 0.0029362372707302385 -0.0023169798223722075 0.001909539032183342 0.00040744079018886504 0.0012442760210413413 0.0 0.0
0.0 0.0008499952442124571 -0.0007260419347937722 0.0005604173746511429 0.00016562456014263 0.0004081879354083729 0.0 0.0
0.0 0.00013166745287103502 -6.207208579348244e-05 4.461126113204125e-05 1.7460824661440994e-05 2.1385836324650323e-05 0.0 0.0
0.0 -1.4175053270273521e-05 3.016391479664353e-06 -2.5733713913091406e-06 -4.430200883552453e-07 -6.131489403186094e-06 0.0 0.0
0.0 9.258174195361528e-07 5.318857308670211e-09 -1.323123306914905e-09 -3.995734001750711e-09 -2.634355540023758e-08 0.0 0.0
0.0 -3.0083172820327663e-07 -1.6894082390560128e-08 1.3667650956397697e-08 3.226431434162971e-09 5.3084951026648725e-08 0.0 0.0
0.0 0.0 0.0 0.0 0.0 0.0 0.0 0.0
0.0 0.0 0.0 0.0 0.0 0.0 0.0 0.0
0.0 0.0 0.0 0.0 0.0 0.0 0.0 0.0
0.0 0.0 0.0 0.0 0.0 0.0 0.0 0.0
0.0 -1.680433764396781e-07 -1.0793184899027673e-08 8.54508648894806e-09 2.2480984100807976e-09 -2.827633481288059e-08 0.0 0.0
0.0 -1.0786668998639616e-06 -7.336634828685421e-08 5.8376567523833337e-08 1.498978076299206e-08 -2.6205552189983828e-08 0.0 0.0
0.0 9.450836803033163e-07 1.3556741261788679e-05 -1.1285833079774115e-05 -2.270908182014511e-06 1.8750221295073644e-05 0.0 0.0
0.0 0.0002481140276370411 -0.00024514162861741614 0.00018260293637529742 6.253869224211846e-05 -0.0001058435678612036 0.0 0.0
0.0 0.0016102700460130497 -0.0012477284607362068 0.0009836085812583962 0.00026411987947781067 -0.00046315687484762647 0.0 0.0
0.0 0.003829555035675179 -0.0034218212584331397 0.002897361228409808 0.0005244600300233304 -0.0013810982636083369 0.0 0.0
0.0 0.007578281898282566 -0.006670768295160973 0.0059667695469748224 0.0007039987481861536 -0.0027389673658377413 0.0 0.0
0.0 0.012491513984613975 -0.010892979150704673 0.010074476205882957 0.0008185029448217194 -0.004325232147538087 0.0 0.0
0.0 0.018454535807172177 -0.015988436393567736 0.015081838742819756 0.0009065976507479719 -0.006014412068983719 0.0 0.0
0.0 0.025381932734088185 -0.021897554641172552 0.02090661643116535 0.0009909382100072037 -0.007683134820722673 0.0 0.0
0.0 0.033345845365855976 -0.02864206354417841 0.02756471230295398 0.0010773512412244283 -0.00932523414355482 0.0 0.0
0.0 0.04206868072080545 -0.03632670882281389 0.035162938651917164 0.0011637701708967292 -0.01102297630498554 0.0 0.0
0.0 0.05231164354771414 -0.045059487682771196 0.04381526031139466 0.0012442273713765446 -0.012851754212241521 0.0 0.0
0.0 0.06373477726058775 -0.05483033703551501 0.05352783954026041 0.0013024974952544886 -0.014896611165297982 0.0 0.0
0.0 0.07553096018342392 -0.06510101765526574 0.06380430076253138 0.001296716892734339 -0.01753563114760892 0.0 0.0
0.0 0.08621525282562659 -0.07416345136507296 0.07298652742979912 0.0011769239352738903 -0.02157421973449681 0.0 0.0
0.0 0.09198912223303556 -0.07872947154854737 0.07779385616206205 0.0009356153864852401 -0.02735910212177341 0.0 0.0
0.0 0.08742253574367106 -0.07402798213595842 0.07344300889640543 0.0005849732395529317 -0.03410837832396177 0.0 0.0
0.0 0.07853081897423532 -0.06404759645993618 0.058991671522497936 0.005055924937438309 1.591261844513525e-14 0.0 0.0
0.0 0.08742253574366436 -0.07402798213594805 0.07344300889639566 0.0005849732395523451 0.034108378323996165 0.0 0.0
0.0 0.09198912223301445 -0.07872947154852572 0.07779385616204121 0.0009356153864844153 0.027359102121807206 0.0 0.0
0.0 0.08621525282558769 -0.07416345136503877 0.07298652742976457 0.0011769239352741893 0.021574219734513844 0.0 0.0
0.0 0.0755309601833789 -0.06510101765522629 0.06380430076249254 0.001296716892733816 0.017535631147611468 0.0 0.0
0.0 0.06373477726053786 -0.05483033703547169 0.05352783954021743 0.0013024974952541939 0.014896611165292884 0.0 0.0
0.0 0.05231164354766203 -0.04505948768272614 0.04381526031135019 0.0012442273713759568 0.012851754212233129 0.0 0.0
0.0 0.04206868072075422 -0.03632670882276945 0.03516293865187355 0.0011637701708958875 0.011022976304975146 0.0 0.0
0.0 0.03334584536580625 -0.028642063544135118 0.027564712302910854 0.0010773512412242878 0.009325234143544392 0.0 0.0
0.0 0.025381932734039256 -0.02189755464113038 0.020906616431123775 0.0009909382100065896 0.0076831348207077495 0.0 0.0
0.0 0.01845453580712924 -0.015988436393530803 0.015081838742783142 0.0009065976507476601 0.006014412068967944 0.0 0.0
0.0 0.012491513984581351 -0.010892979150676269 0.010074476205855262 0.0008185029448209986 0.004325232147525148 0.0 0.0
0.0 0.007578281898255258 -0.006670768295136811 0.005966769546951569 0.0007039987481852391 0.002738967365827566 0.0 0.0
0.0 0.00382955503565947 -0.003421821258419255 0.002897361228397191 0.0005244600300220635 0.0013810982636024978 0.0 0.0
0.0 0.0016102700460030568 -0.0012477284607285077 0.0009836085812520278 0.00026411987947647775 0.00046315687484420256 0.0 0.0
0.0 0.00024811402763385925 -0.0002451416286154433 0.00018260293637382591 6.253869224161709e-05 0.00010584356786052191 0.0 0.0
0.0 9.450836798596994e-07 1.3556741261208712e-05 -1.1285833079316426e-05 -2.2709081818921553e-06 -1.8750221294380375e-05 0.0 0.0
0.0 -1.0786669000900643e-06 -7.336634826940071e-08 5.837656750884583e-08 1.4989780760556376e-08 2.620555213939508e-08 0.0 0.0
0.0 -1.6804337643450485e-07 -1.0793184898566844e-08 8.545086488621468e-09 2.248098409945835e-09 2.8276334812116163e-08 0.0 0.0
0.0 0.0 0.0 0.0 0.0 0.0 0.0 0.0
0.0 0.0 0.0 0.0 0.0 0.0 0.0 0.0
0.0 0.0 0.0 0.0 0.0 0.0 0.0 0.0
0.0 0.0 0.0 0.0 0.0 0.0 0.0 0.0
0.0 0.0 0.0 0.0 0.0 0.0 0.0 0.0
0.0 -1.180459598193475e-06 2.6684880884530595e-07 -2.1161331658720732e-07 -5.5235492258090306e-08 4.5865913608135364e-07 0.0 0.0
0.0 2.8812658034547406e-05 -2.8335519095276365e-06 2.2236041418155427e-07 2.6111914953463177e-06 1.0039467727941156e-05 0.0 0.0
0.0 0.0005790288934269354 -0.0004664614015550382 0.00034995531076349013 0.00011650609079154816 -9.307882728833386e-05 0.0 0.0
0.0 0.002230304339752363 -0.001935506120091908 0.0015638869906687723 0.0003716191294231338 -0.0004759345499210532 0.0 0.0
0.0 0.005087971384274408 -0.00459269581816385 0.0039790881811087465 0.0006136076370551061 -0.0013091907569767482 0.0 0.0
0.0 0.00944510822747267 -0.008388715046942363 0.007614782086525791 0.0007739329604165631 -0.002420436011378106 0.0 0.0
0.0 0.01514821920402713 -0.013285686596069112 0.012405217579687149 0.0008804690163819715 -0.0037473219416348114 0.0 0.0
0.0 0.022000233985574092 -0.019207965595738896 0.018236993155219313 0.0009709724405195702 -0.0051649094137574255 0.0 0.0
0.0 0.030077258165802638 -0.026109487279610998 0.025047536308999186 0.0010619509706117952 -0.0065689301007608725 0.0 0.0
0.0 0.0391077116536587 -0.034023518174656854 0.03286735022365516 0.001156167951001695 -0.007961844193868643 0.0 0.0
0.0 0.049767182918158154 -0.04302935876567578 0.04178200409689816 0.0012473546687776036 -0.00943864533785155 0.0 0.0
0.0 0.061440015883635304 -0.053207007870938086 0.05187568839724986 0.001331319473688211 -0.011059764066794632 0.0 0.0
0.0 0.07429454653534258 -0.06448323636994205 0.06308544079674218 0.0013977955731999836 -0.012734500257113535 0.0 0.0
0.0 0.08805244729226352 -0.07631126224452613 0.0749042903947873 0.0014069718497387602 -0.014460988822452881 0.0 0.0
0.0 0.100448150619658 -0.08693881753426946 0.0856623689647814 0.0012764485694880315 -0.01726000667288162 0.0 0.0
0.0 0.10745310662629327 -0.09266766922765861 0.09169139001253758 0.0009762792151211157 -0.02344455033338277 0.0 0.0
0.0 0.1030206686747567 -0.08795303969396506 0.08740849539857845 0.0005445442953867768 -0.034201363197841984 0.0 0.0
0.0 0.09337344292428156 -0.07703858626321515 0.07154123584301353 0.005497350420201587 1.4382592339323708e-14 0.0 0.0
0.0 0.10302066867474588 -0.08795303969395213 0.08740849539856611 0.0005445442953860105 0.034201363197872106 0.0 0.0
0.0 0.10745310662626487 -0.09266766922763198 0.09169139001251143 0.0009762792151205022 0.023444550333412237 0.0 0.0
0.0 0.10044815061961443 -0.0869388175342313 0.08566236896474363 0.0012764485694875861 0.01726000667289681 0.0 0.0
0.0 0.08805244729221119 -0.0763112622444806 0.07490429039474206 0.0014069718497385247 0.014460988822455422 0.0 0.0
0.0 0.07429454653528862 -0.06448323636989484 0.06308544079669608 0.001397795573198787 0.012734500257111887 0.0 0.0
0.0 0.06144001588357586 -0.053207007870886766 0.051875688397198784 0.0013313194736879767 0.011059764066789185 0.0 0.0
0.0 0.049767182918101324 -0.04302935876562625 0.041782004096849575 0.0012473546687766408 0.009438645337843513 0.0 0.0
0.0 0.03910771165360067 -0.03402351817460682 0.032867350223605145 0.0011561679510016826 0.007961844193860479 0.0 0.0
0.0 0.03007725816574801 -0.026109487279563103 0.025047536308952137 0.001061950970610991 0.006568930100749202 0.0 0.0
0.0 0.02200023398552565 -0.019207965595696846 0.018236993155177583 0.0009709724405192589 0.005164909413744138 0.0 0.0
0.0 0.015148219203988619 -0.013285686596035661 0.012405217579654189 0.0008804690163814644 0.0037473219416232764 0.0 0.0
0.0 0.009445108227442591 -0.00838871504691569 0.00761478208649987 0.0007739329604158126 0.0024204360113699286 0.0 0.0
0.0 0.005087971384255471 -0.004592695818146414 0.003979088181092477 0.0006136076370539404 0.0013091907569710642 0.0 0.0
0.0 0.002230304339739768 -0.0019355061200811599 0.001563886990659542 0.000371619129421619 0.0004759345499176195 0.0 0.0
0.0 0.0005790288934217681 -0.0004664614015513037 0.00034995531076060734 0.00011650609079069605 9.307882728743417e-05 0.0 0.0
0.0 2.8812658033898785e-05 -2.8335519097120453e-06 2.223604143534171e-07 2.6111914953585192e-06 -1.0039467727456804e-05 0.0 0.0
0.0 -1.1804595987185054e-06 2.668488088603235e-07 -2.116133166013064e-07 -5.523549225901169e-08 -4.586591361336772e-07 0.0 0.0
0.0 0.0 0.0 0.0 0.0 0.0 0.0 0.0
0.0 0.0 0.0 0.0 0.0 0.0 0.0 0.0
0.0 0.0 0.0 0.0 0.0 0.0 0.0 0.0
0.0 0.0 0.0 0.0 0.0 0.0 0.0 0.0
0.0 0.0 0.0 0.0 0.0 0.0 0.0 0.0
0.0 0.0 0.0 0.0 0.0 0.0 0.0 0.0
0.0 -6.578551943836578e-07 1.2549426671249877e-06 -9.95331871370557e-07 -2.596107957544456e-07 1.027504045365991e-06 0.0 0.0
0.0 7.270892650463512e-05 -7.254979464923903e-05 5.0443456715950464e-05 2.2106337933288586e-05 4.390157845759213e-06 0.0 0.0
0.0 0.001023737140684236 -0.0008038817248914989 0.0006139099914338699 0.00018997173345762803 -4.4866472580894977e-05 0.0 0.0
0.0 0.0028847881148209814 -0.002724119517316977 0.0022564155946387236 0.0004677039226782548 -0.00039460992217895833 0.0 0.0
0.0 0.006424415580126518 -0.005802477629215381 0.0051159341502251465 0.0006865434789902387 -0.0009789443084926486 0.0 0.0
0.0 0.011347049912777733 -0.010125226696162313 0.009294685629736944 0.0008305410664253659 -0.0017858947499512605 0.0 0.0
0.0 0.017804220496424928 -0.015683049279992572 0.01474910412192868 0.0009339451580638828 -0.0027517010888535253 0.0 0.0
0.0 0.025640283617907933 -0.02242649067610124 0.021397049476408758 0.0010294411996924627 -0.003787496646707964 0.0 0.0
0.0 0.034705868750880206 -0.030326641743582374 0.02919902833928616 0.0011276134042962121 -0.0048145377635168485 0.0 0.0
0.0 0.04538614392404618 -0.03941315908456845 0.03818470415904034 0.0012284549255280987 -0.005846991192335533 0.0 0.0
0.0 0.057067261026133964 -0.0497623170518179 0.04843643471034303 0.001325882341474831 -0.006990986224532235 0.0 0.0
0.0 0.07047470985467487 -0.06136134275176432 0.05995078667692115 0.0014105560748432567 -0.008264964023745686 0.0 0.0
0.0 0.0850902877759341 -0.0740096085277311 0.07253742711145009 0.0014721814162809393 -0.009493955727381643 0.0 0.0
0.0 0.10024276182237622 -0.0871232328457943 0.08562560701777892 0.0014976258280155227 -0.01037779702892377 0.0 0.0
0.0 0.11417266892534407 -0.09917976697090192 0.09775897790579217 0.0014207890651097362 -0.011459480063992982 0.0 0.0
0.0 0.12287723586638613 -0.1065018369323607 0.10543686777637665 0.001064969155983969 -0.016520218981907274 0.0 0.0
0.0 0.11936673881778168 -0.10257025380096635 0.10210633392719543 0.00046391987377072567 -0.032053250220429576 0.0 0.0
0.0 0.10956627610417546 -0.09114209537086918 0.08529746159755833 0.00584463377331079 1.0401401961956935e-14 0.0 0.0
0.0 0.11936673881776817 -0.10257025380095225 0.10210633392718226 0.00046391987377001384 0.032053250220453494 0.0 0.0
0.0 0.122877235866349 -0.10650183693232773 0.10543686777634348 0.0010649691559842759 0.01652021898193048 0.0 0.0
0.0 0.11417266892529215 -0.09917976697085701 0.0977589779057476 0.001420789065109394 0.0114594800640038 0.0 0.0
0.0 0.1002427618223157 -0.08712323284574199 0.08562560701772659 0.0014976258280154115 0.01037779702892507 0.0 0.0
0.0 0.08509028777587418 -0.07400960852767836 0.07253742711139932 0.0014721814162790721 0.00949395572738096 0.0 0.0
0.0 0.07047470985460842 -0.061361342751707015 0.05995078667686393 0.0014105560748430418 0.008264964023741968 0.0 0.0
0.0 0.05706726102606742 -0.049762317051760166 0.04843643471028597 0.0013258823414742222 0.006990986224526088 0.0 0.0
0.0 0.045386143923980306 -0.03941315908451135 0.038184704158983285 0.0012284549255280515 0.005846991192329781 0.0 0.0
0.0 0.03470586875081833 -0.03032664174352888 0.029199028339233202 0.0011276134042956217 0.00481453776350894 0.0 0.0
0.0 0.025640283617854524 -0.02242649067605428 0.021397049476362156 0.0010294411996921381 0.0037874966466977245 0.0 0.0
0.0 0.017804220496381543 -0.015683049279954096 0.014749104121890864 0.0009339451580632416 0.0027517010888447532 0.0 0.0
0.0 0.011347049912744307 -0.010125226696132405 0.009294685629707738 0.0008305410664246686 0.001785894749945207 0.0 0.0
0.0 0.006424415580105081 -0.00580247762919568 0.005115934150206657 0.0006865434789890203 0.000978944308488454 0.0 0.0
0.0 0.0028847881148058984 -0.002724119517303004 0.002256415594626173 0.00046770392267683097 0.00039460992217569597 0.0 0.0
0.0 0.0010237371406774576 -0.00080388172488585 0.0006139099914294425 0.0001899717334564065 4.486647258033225e-05 0.0 0.0
0.0 7.270892650358274e-05 -7.254979464919164e-05 5.0443456715973523e-05 2.210633793321795e-05 -4.390157845274216e-06 0.0 0.0
0.0 -6.578551948077405e-07 1.2549426671791317e-06 -9.953318714156762e-07 -2.59610795763476e-07 -1.0275040454295847e-06 0.0 0.0
0.0 0.0 0.0 0.0 0.0 0.0 0.0 0.0
0.0 0.0 0.0 0.0 0.0 0.0 0.0 0.0
0.0 0.0 0.0 0.0 0.0 0.0 0.0 0.0
0.0 0.0 0.0 0.0 0.0 0.0 0.0 0.0
0.0 0.0 0.0 0.0 0.0 0.0 0.0 0.0
0.0 0.0 0.0 0.0 0.0 0.0 0.0 0.0
0.0 -2.9161755015567786e-06 1.995142212183611e-06 -1.683279783233963e-06 -3.1186242894964396e-07 1.3276636834583684e-06 0.0 0.0
0.0 0.00024142414130931132 -0.00016723027975913292 0.00011830184346713125 4.8928436292001594e-05 3.814696002880632e-05 0.0 0.0
0.0 0.0014448444971777387 -0.0012579459699704975 0.0009823048875728171 0.0002756410823976804 5.182434118137698e-05 0.0 0.0
0.0 0.0038299828354667756 -0.0035419833964214767 0.0029984744201556443 0.0005435089762658339 -0.00013079634845812425 0.0 0.0
0.0 0.007773301770252367 -0.007031325787407283 0.006285908626494739 0.0007454171609125385 -0.00042890547459866255 0.0 0.0
0.0 0.01332797102093214 -0.011858012333144236 0.010980554414547053 0.000877457918597181 -0.0008418150089430495 0.0 0.0
0.0 0.020463115151310766 -0.01806417065682343 0.017082166367123192 0.0009820042897002183 -0.0013461157108996375 0.0 0.0
0.0 0.02920511535076511 -0.025625658279485923 0.024542335704293067 0.0010833225751928663 -0.0018836783988121913 0.0 0.0
0.0 0.03963048766993271 -0.03452696677257774 0.0333387470024462 0.0011882197701315537 -0.0024211037766491534 0.0 0.0
0.0 0.05119284315664141 -0.044805126504353324 0.04350891420666579 0.0012962122976874946 -0.00300588310947144 0.0 0.0
0.0 0.06466196509817859 -0.05648218991839657 0.05508301626390107 0.0013991736544954757 -0.003670138222922182 0.0 0.0
0.0 0.07964972917894278 -0.06947889390248613 0.06799553876659578 0.0014833551358904259 -0.0044078870237252345 0.0 0.0
0.0 0.09577597093201967 -0.08343898413136636 0.08190300126492871 0.001535982866437665 -0.0051164502500260075 0.0 0.0
0.0 0.11215189445261932 -0.09758592456318517 0.09603405870434556 0.0015518658588396113 -0.005496393077368375 0.0 0.0
0.0 0.12721020362140067 -0.11059809838583344 0.10905843221087244 0.0015396661749610672 -0.005429979685734129 0.0 0.0
0.0 0.13781239111537508 -0.1197585150128638 0.11839464481662208 0.0013638701962415383 -0.007415947170613235 0.0 0.0
0.0 0.13678222176324045 -0.11821726565108173 0.11780929618921201 0.0004079694618697839 -0.022980716945877246 0.0 0.0
0.0 0.12823628880147447 -0.10738638530030609 0.10157516680882075 0.005811218491485209 5.629177679544739e-15 0.0 0.0
0.0 0.1367822217632232 -0.1182172656510655 0.11780929618919628 0.0004079694618691933 0.022980716945890628 0.0 0.0
0.0 0.13781239111533272 -0.11975851501282703 0.11839464481658489 0.001363870196241926 0.007415947170626412 0.0 0.0
0.0 0.12721020362134197 -0.11059809838578279 0.1090584322108219 0.0015396661749608662 0.005429979685739972 0.0 0.0
0.0 0.11215189445255011 -0.0975859245631254 0.09603405870428564 0.0015518658588397963 0.005496393077369853 0.0 0.0
0.0 0.09577597093194716 -0.08343898413130338 0.08190300126486617 0.0015359828664370885 0.005116450250025716 0.0 0.0
0.0 0.07964972917886938 -0.06947889390242233 0.06799553876653278 0.0014833551358896136 0.00440788702372236 0.0 0.0
0.0 0.06466196509810203 -0.056482189918330275 0.05508301626383518 0.0013991736544950006 0.0036701382229189293 0.0 0.0
0.0 0.05119284315656814 -0.04480512650428976 0.0435089142066026 0.0012962122976871654 0.0030058831094682986 0.0 0.0
0.0 0.039630487669863566 -0.034526966772517535 0.03333874700238652 0.0011882197701309778 0.0024211037766442758 0.0 0.0
0.0 0.02920511535070531 -0.025625658279434076 0.02454233570424165 0.0010833225751924157 0.00188367839880652 0.0 0.0
0.0 0.02046311515126234 -0.018064170656780634 0.01708216636708114 0.0009820042896994921 0.0013461157108949557 0.0 0.0
0.0 0.01332797102089524 -0.011858012333111139 0.010980554414514678 0.0008774579185964518 0.0008418150089397089 0.0 0.0
0.0 0.007773301770226188 -0.007031325787383449 0.0062859086264718395 0.0007454171609116019 0.0004289054745964278 0.0 0.0
0.0 0.0038299828354504063 -0.0035419833964061057 0.0029984744201415883 0.0005435089762645165 0.00013079634845633505 0.0 0.0
0.0 0.0014448444971698901 -0.0012579459699636674 0.0009823048875672456 0.0002756410823964222 -5.182434118129344e-05 0.0 0.0
0.0 0.00024142414130714723 -0.0001672302797580488 0.00011830184346638329 4.8928436291665505e-05 -3.8146960028373554e-05 0.0 0.0
0.0 -2.91617550176585e-06 1.9951422118954177e-06 -1.6832797830197444e-06 -3.1186242887561126e-07 -1.3276636834554633e-06 0.0 0.0
0.0 0.0 0.0 0.0 0.0 0.0 0.0 0.0
0.0 0.0 0.0 0.0 0.0 0.0 0.0 0.0
0.0 0.0 0.0 0.0 0.0 0.0 0.0 0.0
0.0 0.0 0.0 0.0 0.0 0.0 0.0 0.0
0.0 0.0 0.0 0.0 0.0 0.0 0.0 0.0
0.0 0.0 0.0 0.0 0.0 0.0 0.0 0.0
0.0 2.2932058547522743e-06 -8.996249512082856e-07 1.797748329069179e-07 7.198501183014838e-07 2.523044510809034e-06 0.0 0.0
0.0 0.0004695995136973753 -0.0003101625232994214 0.0002189611252889403 9.120139801048126e-05 8.856123069843005e-05 0.0 0.0
0.0 0.0019148042778759377 -0.0016741003831810637 0.001295046600467181 0.0003790537827138823 0.0002176916589189119 0.0 0.0
0.0 0.00457291542500172 -0.004238724419868997 0.0035503098161761035 0.0006884146036928957 0.00027327922652192006 0.0 0.0
0.0 0.008849908678133631 -0.008045984219729825 0.007102803002596851 0.0009431812171329693 0.0003084205908306175 0.0 0.0
0.0 0.014780661941205689 -0.013280650405913887 0.012128558344606452 0.0011520920613074367 0.0003179812722618866 0.0 0.0
0.0 0.022514568489321506 -0.020016462803004433 0.01865304606669814 0.0013634167363062932 0.0002756096016152808 0.0 0.0
0.0 0.03204012351434546 -0.028258751622766594 0.02665409866883584 0.0016046529539307372 0.00022552608659245736 0.0 0.0
0.0 0.04302669204397408 -0.03801040491633362 0.03612750603916265 0.0018828988771709724 0.0001631033718433898 0.0 0.0
0.0 0.0558381147677665 -0.049274850828869655 0.047085158936753205 0.0021896918921163995 2.7088266564541906e-05 0.0 0.0
0.0 0.07040831929122728 -0.062046241057071565 0.05953465780247252 0.002511583254599054 -0.00014705718622525562 0.0 0.0
0.0 0.08659122864770415 -0.07619084354705755 0.07336893062605498 0.0028219129210023996 -0.00042339806828909244 0.0 0.0
0.0 0.10388444782717007 -0.09122797218724288 0.08814477791981322 0.0030831942674295976 -0.0007831878407723886 0.0 0.0
0.0 0.12112378155911999 -0.10617043190533687 0.10292132929398692 0.00324910261134988 -0.001088635430784822 0.0 0.0
0.0 0.13658288243815897 -0.11953230020299309 0.11625780170012123 0.0032744985028716925 -0.0010846716438507147 0.0 0.0
0.0 0.1480028606567202 -0.12953029994321644 0.12627322570621338 0.003257074237003164 -0.0016885895691291222 0.0 0.0
0.0 0.150317997212625 -0.132016945021012 0.128819326881729 0.0031976181392829013 -0.016496312396155535 0.0 0.0
0.0 0.1460954859480145 -0.1241856830645163 0.11461964636787147 0.009566036696644707 1.8596235662471372e-15 0.0 0.0
0.0 0.15031799721260392 -0.132016945020993 0.12881932688171116 0.003197618139281771 0.0164963123961599 0.0 0.0
0.0 0.14800286065667273 -0.12953029994317544 0.12627322570617297 0.003257074237002543 0.0016885895691339265 0.0 0.0
0.0 0.13658288243809732 -0.11953230020293884 0.11625780170006905 0.003274498502869847 0.0010846716438517087 0.0 0.0
0.0 0.12112378155904285 -0.10617043190526973 0.10292132929392041 0.003249102611349088 0.001088635430785018 0.0 0.0
0.0 0.1038844478270877 -0.09122797218717126 0.08814477791974244 0.0030831942674288014 0.000783187840772491 0.0 0.0
0.0 0.08659122864762697 -0.0761908435469896 0.07336893062598943 0.0028219129210001587 0.0004233980682866612 0.0 0.0
0.0 0.07040831929114441 -0.06204624105699905 0.05953465780240176 0.0025115832545972872 0.00014705718622441168 0.0 0.0
0.0 0.05583811476768863 -0.049274850828801495 0.04708515893668672 0.00218969189211473 -2.7088266564986863e-05 0.0 0.0
0.0 0.04302669204390053 -0.0380104049162693 0.036127506039100026 0.0018828988771692695 -0.00016310337184672914 0.0 0.0
0.0 0.032040123514280795 -0.028258751622709903 0.026654098668780407 0.0016046529539294912 -0.00022552608659444145 0.0 0.0
0.0 0.022514568489268156 -0.020016462802957796 0.018653046066653016 0.0013634167363048063 -0.00027560960161612845 0.0 0.0
0.0 0.014780661941166418 -0.013280650405879085 0.012128558344572861 0.0011520920613062305 -0.0003179812722629591 0.0 0.0
0.0 0.00884990867810273 -0.00804598421970188 0.007102803002570005 0.0009431812171318789 -0.00030842059083037443 0.0 0.0
0.0 0.004572915424985202 -0.004238724419853351 0.003550309816161901 0.0006884146036914507 -0.0002732792265217591 0.0 0.0
0.0 0.001914804277867627 -0.0016741003831730098 0.0012950466004605964 0.00037905378271241346 -0.00021769165891796866 0.0 0.0
0.0 0.00046959951369414306 -0.0003101625232972496 0.00021896112528741124 9.120139800983913e-05 -8.856123069782752e-05 0.0 0.0
0.0 2.2932058546179416e-06 -8.996249512871275e-07 1.7977483296787038e-07 7.198501183192355e-07 -2.5230445107887077e-06 0.0 0.0
0.0 0.0 0.0 0.0 0.0 0.0 0.0 0.0
0.0 0.0 0.0 0.0 0.0 0.0 0.0 0.0
0.0 0.0 0.0 0.0 0.0 0.0 0.0 0.0
SCALARS Wm float 4
LOOKUP_TABLE default
11.322975789891686 1.961566298129438 4.588712043686156 4.772697448076082
5.379105930449719 2.6312535258793703 1.2104005896623231 1.537451814908027
0.5999666948360147 0.5823076246336661 -0.0009393995189814295 0.018598469721330006
0.47957769101956954 0.4664129531364934 0.0035779175269920792 0.009586820356084245
0.8950816893080766 0.7024696912707069 0.06785572965084433 0.12475626838652493
1.8279904512879865 0.9681508870087168 0.29946664454472904 0.5603729197345402
3.6647859346446228 1.3447938804483166 0.9541103024178401 1.3658817517784687
6.596231270693796 1.7882375324648212 2.1648640749239165 2.643129663305052
10.872143662862731 2.326331826374485 4.119508440248424 4.426303396239824
16.69871200957174 2.994757990442901 6.972910157728579 6.731043861400273
24.220984544631442 3.832734093981769 10.833475262657739 9.554775187991932
33.4529864278835 4.865456881588245 15.688466378387101 12.899063167908166
44.61104851885627 6.088998954319777 21.752950861050515 16.769098703486
57.761731215886684 7.499552515993675 29.09172960417484 21.17044909571817
72.81845592832366 8.996504035854866 37.75147273681088 26.070479155657907
89.37487968671078 10.39304142873014 47.623377885474824 31.358460372505803
106.52420147860963 11.450446413332216 58.24531186427643 36.82844320100102
122.93493856866637 11.970022980934589 68.8638519630178 42.101063624713916
137.08603245910047 11.95748021058349 78.41870763730046 46.709844611216496
146.99480808730408 11.372272792285136 85.49479414119935 50.127741153819485
150.3005378985304 10.364971479948249 88.38305694464354 51.55250947393862
146.9948080872838 11.372272792283452 85.4947941411864 50.12774115381397
137.08603245907233 11.957480210599238 78.41870763727086 46.709844611202215
122.93493856860519 11.970022980928459 68.8638519629811 42.101063624695655
106.524201478534 11.450446413319066 58.24531186423497 36.82844320097995
89.37487968664539 10.393041428732419 47.62337788543065 31.358460372482345
72.81845592825437 8.99650403585304 37.751472736767596 26.070479155633727
57.761731215813924 7.49955251598252 29.091729604135924 21.170449095695467
44.61104851879553 6.088998954320483 21.752950861012497 16.7690987034626
33.452986427824996 4.865456881581771 15.688466378355756 12.899063167887487
24.220984544582915 3.832734093976391 10.833475262632492 9.554775187974023
16.69871200953443 2.9947579904385475 6.972910157709979 6.731043861385911
10.872143662835107 2.3263318263694868 4.119508440236317 4.42630339622931
6.596231270675761 1.7882375324631805 2.164864074915733 2.6431296632968486
3.6647859346331133 1.344793880445312 0.9541103024140083 1.365881751773794
1.8279904512820226 0.9681508870068093 0.2994666445433874 0.5603729197318252
0.8950816893060938 0.7024696912697371 0.06785572965046056 0.12475626838589651
0.47957769101897063 0.4664129531359085 0.0035779175269802913 0.00958682035608193
0.59996669483494 0.5823076246327777 -0.0009393995190203283 0.018598469721182273
5.379105930445038 2.6312535258798815 1.2104005896598442 1.5374518149053107
11.322975789865966 1.961566298116658 4.58871204367913 4.77269744807019
13.329487677261273 5.915634582351686 3.5227618698122547 3.891091225097335
2.0432835393630966 0.448370377437475 0.6528738406195929 0.9420393213060276
0.2454067515100996 0.2739802117259662 -0.008017241705967276 -0.02055621850989932
0.3793015774955784 0.3777677695132911 0.00010830068540472223 0.0014255072968825417
0.6830102961925533 0.5777566313489081 0.030740974984038653 0.07451268985960674
1.4679087542785758 0.8295939684782963 0.22682137552594017 0.4114934102743393
3.010468519963924 1.0995103555019943 0.7629210548030185 1.1480371096589106
5.5861914293495945 1.4185318486090528 1.8434976012282287 2.324161979512312
9.365044226932936 1.7690930066729578 3.6151942474642746 3.9807569727957066
14.468315602054922 2.161208428538702 6.18595045239166 6.121156721124558
20.993287102548972 2.603537768639168 9.654647963548266 8.735101370361534
29.06813365974996 3.1142529909083825 14.137765847397073 11.816114821444518
38.60701176156075 3.706537578564787 19.518795308319195 15.381678874676773
49.96574149230659 4.364199367316468 26.16054628696711 19.44099583802303
63.01718834352483 5.043664770843196 33.99196023896709 23.98156333371452
77.46167696206233 5.638050412137572 42.921067222973484 28.90255932695127
92.59762716384365 6.012072253910134 52.60689029284404 33.97866461708943
107.31059451744595 6.066607638681425 62.348039823961535 38.89594705480296
120.09548499387853 5.750836036317477 71.13222097642722 43.212427981133814
129.1201478021264 5.110530343115315 77.66561595883672 46.34400150017434
132.4612525698591 4.413854625287782 80.40962582212376 47.63777212244763
129.1201478021166 5.110530343125412 77.66561595882331 46.34400150016787
120.09548499382947 5.750836036302826 71.1322209764041 43.21242798112254
107.31059451740275 6.066607638688992 62.34803982392761 38.8959470547862
92.59762716378783 6.01207225391127 52.60689029280655 33.97866461707002
77.46167696200047 5.638050412136489 42.92106722293396 28.90255932693003
63.01718834346088 5.043664770839149 33.9919602389288 23.98156333369293
49.965741492246536 4.364199367313157 26.16054628693148 19.440995838001893
38.607011761504516 3.7065375785636085 19.518795308285473 15.38167887465542
29.06813365969906 3.1142529909045606 14.137765847368993 11.816114821425517
20.99328710250594 2.6035377686347854 9.654647963525889 8.73510137034526
14.468315602022727 2.1612084285370305 6.18595045237471 6.121156721110984
9.36504422690869 1.7690930066689687 3.615194247453636 3.9807569727860836
5.586191429333796 1.418531848608521 1.8434976012207436 2.3241619795045336
3.010468519954406 1.099510355499978 0.7629210547997392 1.148037109654688
1.4679087542737288 0.8295939684769117 0.2268213755245308 0.41149341027228653
0.6830102961911222 0.5777566313480204 0.030740974983836593 0.0745126898592654
0.37930157749535387 0.37776776951297614 0.00010830068541847239 0.001425507296959289
0.2454067515099828 0.27398021172568343 -0.008017241705912854 -0.020556218509787814
2.0432835393572066 0.44837037743651775 0.6528738406172618 0.9420393213034276
13.329487677236989 5.915634582341009 3.5227618698050702 3.8910912250909044
9.936185631996711 4.654776032087087 2.4007191494069957 2.8806904505026285
1.2501080402500913 0.16649860318542983 0.42975460773358354 0.6538548293310774
0.1547256485474352 0.15472653377713624 -3.6811495252537546e-08 -8.48418205815541e-07
0.28516915157809986 0.2860009168731713 -0.00014112450707149695 -0.0006906407879999311
0.524643484272161 0.4911089185799495 0.007665575505278029 0.02586899018693365
1.142385398606512 0.7447060910309353 0.13640586883129124 0.2612734387442859
2.4281448783492507 1.0060414496654126 0.5410053351275753 0.8810980935562627
4.674586747380496 1.310827944226084 1.446682514898246 1.9170762882561663
7.994575887699286 1.6339888022266225 2.958634841032988 3.4019522444396753
12.501443660243037 1.9823255158018516 5.195410754107105 5.323707390334079
18.22617674684363 2.368237310035595 8.198359317987148 7.659580118820886
25.19765907032042 2.8075250429497016 11.98875332727585 10.401380700094851
33.651855185919004 3.3236503046158195 16.77023579282104 13.557969088482139
43.46070309128829 3.91023352573776 22.384703176069603 17.16576638948093
54.89308395884787 4.5189014317986675 29.16442883052213 21.20975369652704
67.61211339416872 5.075893273341479 36.91840338726111 25.617816733566144
81.04041145964396 5.472160190516786 45.351516151952254 30.216735117174935
94.1813103797064 5.588004094495677 53.91048991901506 34.68281636619564
105.63130259532309 5.332413305311177 61.69448181421876 38.60440747579317
113.75895592944899 4.83771231672896 67.48341907757003 41.43782453514997
116.68101031801874 4.0126341279163995 69.99832567800155 42.67005051210083
113.75895592942955 4.83771231672735 67.4834190775583 41.4378245351439
105.63130259530041 5.3324133053166864 61.694481814199996 38.60440747578375
94.18131037965487 5.588004094486189 53.91048991898747 34.6828163661812
81.04041145959927 5.472160190524236 45.35151615191826 30.216735117156777
67.61211339411689 5.07589327334232 36.91840338722721 25.617816733547347
54.89308395879117 4.518901431791264 29.16442883049096 21.209753696508944
43.46070309123695 3.910233525737523 22.38470317603794 17.16576638946149
33.65185518587059 3.3236503046141106 16.77023579279278 13.557969088463697
25.19765907027586 2.807525042946477 11.988753327251478 10.401380700077913
18.22617674680712 2.3682373100325025 8.19835931796818 7.659580118806431
12.501443660214672 1.9823255158004167 5.1954107540924275 5.323707390321826
7.994575887678747 1.6339888022244058 2.9586348410235463 3.401952244430795
4.674586747365686 1.3108279442242317 1.4466825148920122 1.9170762882494445
2.4281448783412585 1.0060414496640615 0.5410053351248592 0.8810980935523375
1.1423853986026256 0.7447060910297647 0.13640586883025196 0.2612734387426088
0.524643484271212 0.49110891857916217 0.0076655755052165014 0.025868990186833158
0.28516915157792916 0.2860009168730064 -0.0001411245070732283 -0.0006906407880040399
0.15472564854743412 0.1547265337771344 -3.68114952114993e-08 -8.484182050657688e-07
1.2501080402456672 0.16649860318521634 0.42975460773169805 0.6538548293287519
9.936185631973673 4.654776032077232 2.4007191494003095 2.880690450496133
7.444695033540489 3.6160902727034685 1.6690878683049877 2.1595168925320345
0.8244968658099509 0.08630530186688429 0.274492228175151 0.4636993357679152
0.1091287734397316 0.1091287734397316 0.0 0.0
0.2152921993071461 0.2153218286320132 1.7502908862247832e-06 -3.1379615753315455e-05
0.40494831868986514 0.40494208724961944 -0.0006076518288740764 0.0006138832691199608
0.8529654066790945 0.6412604625265985 0.06361341853235002 0.148091525620146
1.91275589146192 0.9179627621113778 0.36829567117177164 0.6264974581787698
3.7995205435041948 1.1973870449162498 1.08100347772159 1.5211300208663538
6.674301821219088 1.4955498499476603 2.34905725351854 2.829694717752884
10.577953694779424 1.8051478058242205 4.242689436705287 4.530116452249919
15.4983843406589 2.1375738864465315 6.770643034532764 6.590167419679606
21.523217904166486 2.517498683813266 10.012861017561688 8.992858202791536
28.651439331260487 2.9598437366177492 13.93865155331385 11.752944041328888
37.213020316129686 3.468374472233618 18.84817904422489 14.89646679967119
47.00813151989809 4.0175672063814885 24.54602865858491 18.44453565493171
57.96071916694054 4.54123409732755 31.0811503195712 22.338334750041795
69.7473509005354 4.952661193745184 38.37254371854674 26.422145988243464
81.38658748516161 5.132513380502701 45.80669982760035 30.44737427705854
91.62998450860076 4.983655960782348 52.61596440627453 34.03036414154386
99.02442439873035 4.588810062438619 57.75999964196241 36.675614694329354
101.68850304123947 3.6016627093878197 60.20119835323444 37.88564197861721
99.02442439871295 4.58881006243264 57.75999964195472 36.67561469432557
91.62998450857201 4.983655960781119 52.615964406256424 34.030364141534484
81.38658748513353 5.132513380509902 45.80669982757728 30.447374277046368
69.74735090048713 4.9526611937408065 38.3725437185185 26.422145988227847
57.960719166890705 4.541234097321249 31.081150319543546 22.338334750025943
47.00813151985297 4.017567206378584 24.54602865855856 18.44453565491581
37.21302031608366 3.4683744722315133 18.84817904419805 14.896466799654089
28.65143933121871 2.959843736615718 13.938651553290116 11.752944041312874
21.52321790412995 2.517498683812897 10.012861017540782 8.992858202776274
15.498384340627242 2.137573886444514 6.770643034516223 6.590167419666507
10.577953694754349 1.80514780582233 4.242689436692851 4.530116452239161
6.674301821201419 1.4955498499471354 2.3490572535098786 2.8296947177444034
3.7995205434923527 1.1973870449141322 1.0810034777172317 1.5211300208609893
1.912755891455 0.9179627621100446 0.3682956711693607 0.6264974581755938
0.8529654066764043 0.641260462525504 0.06361341853176615 0.14809152561913408
0.4049483186893068 0.40494208724903274 -0.0006076518288793171 0.0006138832691532855
0.21529219930698124 0.2153218286318669 1.7502908846992924e-06 -3.137961577034015e-05
0.10912877343966115 0.10912877343966115 0.0 0.0
0.824496865806159 0.08630530186673402 0.27449222817353697 0.463699335765888
7.444695033522035 3.6160902726958946 1.6690878682998047 2.1595168925263395
5.492248546827911 2.786957462235353 1.1172078655372326 1.5880832190553253
0.6034965406466115 0.10707421962695891 0.19027614635240503 0.3061461746672477
0.09930215198640627 0.09930215198640627 0.0 0.0
0.1717236219263466 0.1717173323593536 3.5059575947504334e-07 5.938971233487455e-06
0.3159177489319251 0.3207850978676504 -0.0014010012393046707 -0.0034663476964207395
0.6310259453549439 0.5524010084361459 0.020009024358531267 0.05861591256026631
1.444784104481389 0.8091283857455427 0.23105135665605173 0.40460436207979505
2.974780434597614 1.0794374897749366 0.7542927338740647 1.1410502109486131
5.399090555449243 1.35223488855962 1.7798732689244863 2.2669823979651382
8.70309848778105 1.6270766729258153 3.332405610386548 3.743616204468687
12.873861544313034 1.9152794731562546 5.431276133384659 5.5273059377721205
17.925846445878847 2.237042846908607 8.094553747363841 7.594249851606404
23.96691058484233 2.61547655423598 11.39570909661703 9.955724933989325
30.98831485608041 3.0543864305235693 15.284382445605452 12.649545979951386
39.286067715822405 3.532422182246635 20.062093268293914 15.691552265281862
48.672633017184204 4.021474709890226 25.596817401059738 19.05434090623423
58.7183527036625 4.449997493406176 31.636015806324316 22.632339403931994
68.87653581911707 4.704092452906053 37.973048792206384 26.19939457400463
78.0228411401061 4.6712577549439125 43.917381914396906 29.434201470765316
84.85560690464412 4.360745791492219 48.58311827152115 31.911742841630694
87.35885412611368 3.193799979012367 50.99226415083647 33.17278999626486
84.85560690463544 4.360745791493227 48.58311827151487 31.91174284162734
78.0228411400822 4.671257754941401 43.91738191438294 29.43420147075783
68.87653581908387 4.704092452905107 37.97304879218559 26.19939457399318
58.71835270362939 4.449997493408647 31.636015806301693 22.632339403919055
48.67263301715386 4.021474709897873 25.596817401035953 19.054340906220027
39.28606771578672 3.5324221822495345 20.0620932682702 15.69155226526699
30.98831485604181 3.054386430519913 15.284382445584438 12.649545979937448
23.966910584808222 2.615476554235595 11.39570909659731 9.955724933975315
17.925846445846414 2.2370428469059975 8.094553747346922 7.5942498515934895
12.873861544285381 1.915279473153168 5.431276133371215 5.527305937760996
8.703098487759943 1.6270766729248995 3.332405610375964 3.7436162044590855
5.399090555433894 1.3522348885585558 1.7798732689175485 2.2669823979577903
2.9747804345879323 1.0794374897735437 0.7542927338703591 1.1410502109440288
1.4447841044761007 0.8091283857442491 0.23105135665440163 0.40460436207745043
0.6310259453532248 0.5524010084350969 0.02000902435830747 0.05861591255982062
0.31591774893149266 0.32078509786708315 -0.001401001239281086 -0.003466347696309361
0.17172362192616028 0.17171733235917083 3.5059575927603094e-07 5.938971230153005e-06
0.09930215198633413 0.09930215198633413 0.0 0.0
0.6034965406436537 0.1070742196268852 0.19027614635111006 0.3061461746656588
5.49224854681294 2.7869574622288815 1.1172078655333522 1.588083219050706
3.9733512098025248 2.1321215325558 0.7247220631395851 1.1165076141071406
0.4267875007182659 0.14268725330585194 0.09418707268208551 0.18991317473032804
0.11145226035789202 0.11145226035789202 0.0 0.0
0.15021210171554392 0.15019437296408475 1.169214643420643e-06 1.655953681576686e-05
0.2566097518286965 0.25899327406594075 -0.00041532526323672243 -0.001968196974007437
0.4642555150516775 0.4506583323771919 0.00026072569103763636 0.013336456983448083
1.019499939969694 0.6804203376471905 0.10329705506407044 0.23578254725843306
2.2508403762933327 0.9546196467894295 0.5128174065342151 0.7834033229696876
4.160031730723585 1.2001566812159463 1.242373501055525 1.7175015484521148
6.9052128441724285 1.4480414182229733 2.490152549479323 2.9670188764701306
10.330674915271466 1.6960012988229127 4.161566404204878 4.473107212243675
14.448124886782042 1.9679862043283278 6.272951064822449 6.207187617631267
19.322485077297348 2.2856730124558506 8.862114761230973 8.174697303610523
25.108099167830854 2.6572904684726133 12.036305234627275 10.414503464730958
31.824568755595465 3.080284764268379 15.7866793713869 12.957604619940192
39.47028550503804 3.518410057732646 20.16232253421383 15.789552913091576
48.018669428006646 3.944865551154223 25.24729673378554 18.82650714306688
56.69101581850497 4.28539579879152 30.471218655041998 21.934401364671448
64.72505796921946 4.381283009521479 35.49761411968477 24.846160840013223
71.11344553016336 4.155093014824025 39.77150725711399 27.18684525822536
73.54275078506558 2.7971983986294533 42.225936037677144 28.519616348758966
71.1134455301571 4.155093014827425 39.771507257107785 27.186845258221876
64.72505796920328 4.381283009522742 35.49761411967356 24.846160840006984
56.69101581847896 4.28539579879032 30.47121865502621 21.934401364662435
48.01866942797304 3.944865551149464 25.24729673376745 18.826507143056137
39.470285505000845 3.5184100577285027 20.162322534193496 15.789552913078866
31.82456875556737 3.08028476427409 15.786679371366496 12.957604619926782
25.10809916779936 2.6572904684674534 12.036305234611808 10.4145034647201
19.322485077268173 2.2856730124539624 8.862114761215304 8.174697303598904
14.448124886756137 1.9679862043256826 6.2729510648095355 6.207187617620921
10.33067491524958 1.6960012988211 4.1615664041941445 4.473107212234338
6.905212844154464 1.4480414182212078 2.490152549471132 2.9670188764621224
4.1600317307112755 1.20015668121433 1.2423735010505277 1.7175015484464196
2.250840376285442 0.9546196467877719 0.5128174065314228 0.7834033229662467
1.0194999399657034 0.6804203376459628 0.10329705506303845 0.23578254725670253
0.46425551505049667 0.45065833237619074 0.0002607256909833802 0.013336456983322684
0.2566097518282814 0.2589932740655004 -0.00041532526323204356 -0.0019681969739869065
0.15021210171527394 0.15019437296382115 1.1692146428938903e-06 1.6559536809874406e-05
0.1114522603576745 0.1114522603576745 0.0 0.0
0.426787500716161 0.14268725330578916 0.09418707268121657 0.1899131747291557
3.973351209790929 2.1321215325507064 0.7247220631367671 1.1165076141034562
2.768016782668886 1.6063334709057786 0.4227085306396582 0.73897478112345
0.32343508428477935 0.1850077773541303 0.04128538934757254 0.09714191758307653
0.13343318864966353 0.13343318864966353 0.0 0.0
0.14539464453413475 0.1453889825868526 3.8189143181449443e-07 5.280055850313281e-06
0.21839903851509646 0.2188427208157973 -8.259221561065285e-05 -0.0003610900850902681
0.3525719365906453 0.3649543781093687 -0.0041660058937161406 -0.00821643562500721
0.7061941532607602 0.5673196017238232 0.035433836027691054 0.10344071550924586
1.5391836450827383 0.7951154721555524 0.25656901974113366 0.48749915318605236
3.0862878696344698 1.0494839492703485 0.8470149516356746 1.189788968728446
5.159284046114995 1.2607865922859953 1.6962477616943534 2.202249692134645
7.893137824427565 1.4776705580592353 2.984499574601656 3.4309676917666754
11.126274873690049 1.7064745915695043 4.586901254383846 4.832899027736696
14.913582288974272 1.9700289488917835 6.532104779863845 6.411448560218648
19.379735097098333 2.2809531342972056 8.896916246623933 8.201865716177196
24.62153246588133 2.6395305082646394 11.737380735312344 10.244621222304346
30.782910534025525 3.0387966554871437 15.203984184581527 12.540129693956857
37.431828345284494 3.447203608426009 18.936893255232576 15.047731481625927
44.70769847428364 3.845454798446358 23.216922595675836 17.64532108016144
51.8498516979135 4.090980812026236 27.549323370706123 20.20954751518112
57.79570533103946 3.9767826279133307 31.369632470557153 22.449290232568995
60.25232603908799 2.4229059806196056 33.92913015173724 23.900289906731167
57.79570533103216 3.976782627913142 31.369632470552578 22.449290232566433
51.84985169789894 4.090980812025731 27.549323370697284 20.209547515175917
44.70769847426422 3.8454547984461653 23.216922595663885 17.64532108015415
37.431828345263696 3.4472036084270314 18.936893255219182 15.047731481617497
30.78291053399703 3.038796655482044 15.203984184567421 12.540129693947556
24.621532465853843 2.6395305082637663 11.737380735296718 10.244621222293347
19.379735097076118 2.280953134294393 8.896916246612824 8.201865716168909
14.913582288951067 1.9700289488877993 6.5321047798530945 6.411448560210177
11.126274873671223 1.706474591570423 4.586901254373159 4.832899027727643
7.893137824410009 1.4776705580585032 2.9844995745929785 3.430967691758528
5.159284046101363 1.2607865922838657 1.6962477616887053 2.2022496921287935
3.086287869625022 1.0494839492694308 0.8470149516316585 1.1897889687239336
1.5391836450770497 0.7951154721538717 0.2565690197394793 0.48749915318369913
0.706194153258086 0.567319601722962 0.035433836027061905 0.1034407155080621
0.35257193658974867 0.36495437810821996 -0.004166005893646155 -0.008216435624824872
0.21839903851492887 0.21884272081565057 -8.259221561429147e-05 -0.0003610900851074484
0.14539464453374512 0.14538898258646482 3.8189143166517263e-07 5.28005584866719e-06
0.13343318864938353 0.13343318864938353 0.0 0.0
0.323435084283001 0.1850077773538132 0.041285389346989394 0.09714191758219803
2.7680167826608075 1.606333470902617 0.42270853063767433 0.7389747811205173
1.9087013491236442 1.2341174882536605 0.2505329270339206 0.4240509338360633
0.24253651596288672 0.20412101404986513 0.0033055612973853826 0.03510994061563619
0.1571085117355916 0.1571058551721251 2.588575604077927e-07 2.397705906053998e-06
0.15183808833722207 0.15181504000177837 1.6035202761400769e-06 2.1444815167550736e-05
0.1958090848273056 0.19646221943066458 -8.901700679208982e-05 -0.0005641175965668303
0.28487473283214787 0.29421955957145995 -0.002420586720004151 -0.00692424001930797
0.4782588123368691 0.4528167015759337 0.0015657140017166621 0.023876396759218706
0.9870647445880578 0.6387333912572386 0.1018242969508686 0.2465070563799506
2.0050255978891363 0.8560835836660943 0.42420876822473463 0.7247332459983075
3.6064479215467617 1.0678995653808445 1.0752276066049533 1.4633207495609637
5.573308636910512 1.2510073494560319 1.9191827000581707 2.40311858739631
7.9496424720168655 1.4426279588560909 3.0300380035656804 3.4769765095950937
10.726864400402892 1.6604348213089433 4.395297508446218 4.671132070647736
13.968146657375216 1.913657046966999 6.035151122385744 6.019338488022474
17.834571679687407 2.216469778505088 8.056211961640457 7.5618899395418655
22.332285566455198 2.566203837745284 10.443338940004152 9.32274278870577
27.5316121676792 2.9478828034296174 13.313743328849261 11.26998603540032
33.160372745218545 3.375453584479909 16.41605379861642 13.368865362122216
39.07070492622198 3.7642506815329546 19.758199390152203 15.548254854536816
44.70518795580274 3.817973816387893 23.22529519566703 17.661918943747814
47.31652515118545 2.077544916978626 25.95964069079104 19.279339543415787
44.7051879557969 3.8179738163843933 23.225295195665495 17.66191894374701
39.0707049262158 3.7642506815374346 19.75819939014565 15.548254854532725
33.160372745201144 3.375453584475879 16.41605379860833 13.368865362116948
27.53161216765969 2.947882803426698 13.313743328839397 11.26998603539359
22.332285566436223 2.5662038377432745 10.443338939994252 9.3227427886987
17.8345716796695 2.2164697785053997 8.056211961630074 7.561889939534029
13.968146657359329 1.9136570469652576 6.035151122377883 6.019338488016187
10.726864400389704 1.6604348213100004 4.395297508438544 4.671132070641161
7.949642472000646 1.4426279588540436 3.0300380035583414 3.476976509588262
5.573308636896005 1.2510073494534506 1.9191827000522719 2.40311858739028
3.6064479215376313 1.0678995653802 1.0752276066009028 1.4633207495565286
2.005025597882113 0.8560835836641466 0.4242087682225213 0.7247332459954453
0.9870647445845322 0.6387333912564198 0.1018242969498711 0.24650705637824044
0.47825881233548023 0.45281670157525394 0.0015657140015335742 0.023876396758692697
0.28487473283167075 0.2942195595706456 -0.002420586719947092 -0.0069242400190279
0.19580908482692805 0.1964622194303154 -8.901700679420726e-05 -0.0005641175965931036
0.15183808833687798 0.15181504000144033 1.6035202755702054e-06 2.1444815162099012e-05
0.15710851173528453 0.15710585517180956 2.5885756083359733e-07 2.3977059141668625e-06
0.24253651596173997 0.20412101404950658 0.003305561297121473 0.03510994061511177
1.9087013491177012 1.234117488251036 0.2505329270325286 0.42405093383413683
1.229702720144475 0.9157831343305195 0.09779729743908791 0.2161222883748676
0.19961273938169274 0.20887107103572006 -0.0062545046720905925 -0.0030038269819366937
0.17788788334554545 0.17797731653740595 -7.491667817260607e-06 -8.19415240432175e-05
0.1647532799241508 0.16478158167932844 -1.911838206656354e-06 -2.6389916971011686e-05
0.18612701069153942 0.18676707395704634 -9.277869006487048e-05 -0.0005472845754420383
0.24385862103127004 0.2476532518544316 -0.00119721462720885 -0.002597416195952745
0.3464651999412531 0.35576171242626936 -0.0044769249427432465 -0.0048195875422729914
0.5916814990768974 0.4959710083713939 0.02197786520772524 0.0737326254977781
1.1457160072996828 0.6540039808790001 0.1560253458803718 0.33568668054031064
2.1103532008855965 0.8279989201493815 0.4876538693001975 0.7947004114360188
3.394453743728197 0.9887177244357004 0.9842630645280643 1.4214729547644336
4.971099289573644 1.1525335669527015 1.6648530284394147 2.153712694181527
6.795899386797034 1.3316449259133267 2.493422399411986 2.9708320614717203
8.91347250048532 1.5338962303611565 3.490518067213961 3.889058202910198
11.442861313685873 1.7782194903983177 4.7228402732311805 4.941801550056375
14.48879792009858 2.079299637768645 6.246548002831309 6.162950279498624
18.080073995735468 2.436408698449675 8.079639015792738 7.5640262814930495
22.118217988526382 2.8265602167953596 10.170103868382531 9.1215539033485
26.802299168017782 3.3215440391916586 12.622671498729947 10.858083630096171
32.06885690471667 3.6675983881063488 15.593788839151625 12.80746967745869
34.909118116245416 1.7976596726054406 18.39778744237005 14.713671001269947
32.068856904724306 3.667598388114333 15.593788839151436 12.80746967745853
26.802299168007742 3.321544039188163 12.622671498726072 10.858083630093512
22.1182179885218 2.8265602168003987 10.170103868376886 9.12155390334451
18.080073995722227 2.436408698447613 8.07963901578636 7.564026281488251
14.488797920085698 2.0792996377674675 6.24654800282476 6.162950279493472
11.442861313672044 1.7782194903959438 4.722840273224926 4.941801550051171
8.913472500475386 1.533896230359709 3.4905180672094565 3.8890582029062233
6.795899386787525 1.331644925913797 2.4934223994069487 2.9708320614667785
4.971099289563962 1.1525335669512184 1.664853028435337 2.153712694177408
3.3944537437205593 0.9887177244354186 0.984263064524686 1.4214729547604545
2.1103532008793424 0.82799892014894 0.4876538692976197 0.7947004114327825
1.14571600729649 0.6540039808778499 0.15602534587958075 0.3356866805390597
0.5916814990751817 0.4959710083709391 0.02197786520732626 0.07373262549691643
0.34646519994026326 0.3557617124252228 -0.004476924942760099 -0.004819587542199364
0.2438586210308489 0.24765325185365775 -0.0011972146271538788 -0.002597416195654905
0.18612701069107157 0.18676707395661477 -9.277869006942512e-05 -0.0005472845754737564
0.16475327992389993 0.16478158167907359 -1.91183820609508e-06 -2.638991696751545e-05
0.17788788334516262 0.177977316536999 -7.491667815417641e-06 -8.194152402093453e-05
0.19961273938110188 0.20887107103533872 -0.006254504672152103 -0.0030038269820848685
1.2297027201404582 0.9157831343284991 0.09779729743832227 0.21612228837363662
0.789437105331912 0.6963406003496347 0.02508183364623194 0.06801467133604545
0.1793720522562985 0.19349611686714965 -0.003901658838016295 -0.010222405772834885
0.19330438490387325 0.1933170658251486 -6.695763111968447e-07 -1.2011344964188092e-05
0.18025946283005753 0.18027008578603207 -2.5347012616387444e-07 -1.0369485848408956e-05
0.18743140182340978 0.187750923694434 -5.181854649304834e-05 -0.0002677033245311902
0.22235328991592979 0.2273779685835683 -0.0012021492296777564 -0.00382252943796077
0.2832440179742187 0.28503060196399604 -0.0014677477970564915 -0.00031883619272101083
0.3708525328793762 0.3470346324552893 0.004226009592808343 0.019591890831278564
0.5492855646916204 0.430969142363216 0.02966092461626592 0.08865549771213829
0.9207244722355151 0.5447791800610098 0.11859723584732858 0.257348056327177
1.5442367156566326 0.6657883930785049 0.3260867297451764 0.5523615928329509
2.314770831321552 0.7693725631721339 0.5991273568535095 0.9462709112959083
3.2615042374551715 0.8899995775116761 0.9737797136768872 1.3977249462666097
4.389702557750921 1.0373930631937236 1.4439111177862902 1.9083983767709092
5.743593204492286 1.216582419516016 2.0247500942673846 2.5022606907088853
7.435928193736827 1.455738399227469 2.764179888984483 3.2160099055248725
9.592973086715208 1.773138179513555 3.731435696891529 4.088399210310124
12.259704134039747 2.1406352130499005 4.988264136821368 5.13080478416848
15.411033295167536 2.5435686949325373 6.512605286167943 6.354859314067064
19.82728315957223 3.2929603116342356 8.577463270497999 7.956859577439991
23.649150624521603 1.6558036570312882 11.753754116425899 10.239592851064412
19.827283159569202 3.2929603116300115 8.57746327049869 7.956859577440501
15.411033295161294 2.5435686949276666 6.512605286167137 6.354859314066491
12.25970413403197 2.1406352130495727 4.988264136817275 5.130804784165126
9.592973086702367 1.773138179506916 3.731435696888144 4.08839921030731
7.435928193731178 1.4557383992276076 2.7641798889815163 3.2160099055220557
5.74359320448575 1.2165824195143957 2.024750094264978 2.5022606907063776
4.389702557743558 1.037393063189147 1.443911117784861 1.9083983767695492
3.261504237449896 0.8899995775112939 0.9737797136745789 1.3977249462640222
2.314770831316957 0.7693725631718422 0.5991273568515746 0.9462709112935396
1.544236715652645 0.6657883930788456 0.32608672974336755 0.5523615928304326
0.9207244722332537 0.5447791800602966 0.11859723584672756 0.25734805632622954
0.5492855646907521 0.4309691423630068 0.029660924616071 0.08865549771167407
0.37085253287903625 0.3470346324549379 0.004226009592800486 0.0195918908312981
0.2832440179734479 0.2850306019633567 -0.0014677477971071543 -0.00031883619280174665
0.22235328991541045 0.22737796858286405 -0.0012021492296391265 -0.0038225294378144863
0.18743140182295367 0.18775092369403507 -5.1818546500622883e-05 -0.0002677033245807777
0.18025946282960736 0.18027008578555298 -2.53470123799209e-07 -1.0369485821869193e-05
0.19330438490336688 0.19331706582463265 -6.695763105209002e-07 -1.2011344955200635e-05
0.17937205225604294 0.19349611686660118 -0.003901658837949058 -0.010222405772609125
0.7894371053295377 0.6963406003482704 0.025081833645912648 0.06801467133535459
0.507428052942338 0.49923968073942443 0.0010403830969848015 0.007147989105928452
0.17253825619825444 0.17386906421849266 -0.00016977174601135746 -0.0011610362742268052
0.2029850945673984 0.20311476776842008 -1.0395022350448423e-05 -0.00011927817867116049
0.1956101592156383 0.1957165552393238 -9.601768566929491e-06 -9.679425511851198e-05
0.19698375934849002 0.1975920950468987 -0.00010446760821771674 -0.0005038680901909709
0.22019666134703952 0.22384732177867211 -0.0009831692915365992 -0.0026674911400959215
0.26450083067534735 0.2645742671981167 -0.0008745443464833866 0.0008011078237141591
0.31258517661106944 0.2788709030466003 0.0069254558937748584 0.026788817670694177
0.35054539537054596 0.2598832645791985 0.026652080467316142 0.06401005032403148
0.4034364946132828 0.21988220308858386 0.056970110662613316 0.1265841808620855
0.5346344877338365 0.21652142022311227 0.11782502474623611 0.20028804276448822
0.7460514388197768 0.24340420426750614 0.19026499296372013 0.31238224158855055
1.04898929662297 0.28748501959578565 0.3023220052171186 0.45918227181006593
1.4468165352701874 0.2972956799700296 0.46740089947391783 0.6821199558262401
1.963782601681838 0.30093557304351215 0.6979797464646917 0.9648672821736343
2.6006105130541295 0.32431164683023334 0.9802351051017518 1.2960637611221455
3.4092338520177266 0.3840038387881191 1.3484547413465315 1.6767752718830755
4.411341745957459 0.4859702248671956 1.8134358424576549 2.1119356786326065
5.957197219975929 0.7314211398367549 2.489733857835827 2.7360422223033463
9.565918926691959 1.8475710064436361 3.6796259991683664 4.038721921079959
15.899507588806593 1.5940673170303636 7.2436030117614285 7.061837260014806
9.565918926692467 1.847571006440915 3.6796259991701543 4.038721921081399
5.95719721997902 0.7314211398397987 2.4897338578357386 2.736042222303479
4.411341745949295 0.48597022486450936 1.8134358424548025 2.111935678629985
3.409233852018805 0.38400383879228517 1.3484547413449 1.6767752718816165
2.600610513048432 0.3243116468281504 0.9802351051001136 1.2960637611201669
1.963782601681857 0.3009355730453269 0.6979797464638047 0.9648672821727262
1.4468165352728302 0.29729567997360995 0.467400899473405 0.6821199558258166
1.048989296620213 0.2874850195959684 0.3023220052156868 0.4591822718085574
0.7460514388182098 0.24340420426749282 0.1902649929630571 0.3123822415876603
0.5346344877316349 0.21652142022236665 0.1178250247455738 0.20028804276369394
0.4034364946130874 0.2198822030887784 0.05697011066248805 0.1265841808618212
0.35054539537013046 0.25988326457926997 0.026652080467145834 0.06401005032371462
0.3125851766109813 0.2788709030467608 0.006925455893692231 0.026788817670528264
0.26450083067462843 0.2645742671975013 -0.0008745443465203581 0.0008011078236474251
0.22019666134658317 0.22384732177801459 -0.0009831692915001778 -0.002667491139931387
0.19698375934822462 0.19759209504640998 -0.00010446760819353819 -0.0005038680899917913
0.1956101592151423 0.1957165552389169 -9.601768576534882e-06 -9.679425519810421e-05
0.20298509456710986 0.20311476776813953 -1.0395022349928407e-05 -0.00011927817867974824
0.1725382561981334 0.17386906421838294 -0.00016977174601150437 -0.0011610362742380388
0.5074280529411612 0.49923968073799363 0.001040383096991613 0.007147989106175755
0.33538519085331986 0.3355299079654954 -1.6094606864207092e-05 -0.00012862250531139993
0.1639965033170027 0.16398229667599304 1.6036732839311183e-06 1.2602967725723642e-05
0.20680746881844958 0.20678646165829173 1.8570657812089004e-06 1.915009437668974e-05
0.20876609234917304 0.20896619661401117 -2.6533468255790603e-05 -0.0001735707965823733
0.2121997992541576 0.21242229399236703 -6.889460965309567e-05 -0.00015360012855632796
0.23706884882850698 0.23932370805713363 -0.0008761862419299136 -0.0013786729866967732
0.29129543911081834 0.2928831472995411 -0.0010055706021022603 -0.0005821375866206298
0.3738626778225018 0.34857590195801114 0.0048309615124627284 0.020455814352027812
0.5498702839540139 0.4306715586846553 0.02996115417561926 0.0892375710937395
0.9196323943352795 0.5442526627613411 0.11833515360881344 0.2570445779651251
1.5442852787115102 0.6677552311577231 0.32563225317534245 0.5508977943784452
2.322701584246329 0.7705374160480778 0.6034202766548705 0.9487438915433803
3.2821964538384147 0.8935807880302988 0.9817647382249517 1.406850927583165
4.422307011665067 1.0413076120761589 1.458481080933177 1.9225183186557322
5.724032547311481 1.206460736509064 2.02101028736556 2.4965615234368546
7.144621510692137 1.3934183343020783 2.651248570034005 3.099954606356053
8.503748669529672 1.5899050883521086 3.2598224767331923 3.65402110444437
9.616186722922738 1.8062748035595888 3.774076274270761 4.035835645092384
10.008087734717297 1.9435648578214055 3.9441279961381586 4.120394880757733
7.989216314248277 1.0908289971879994 3.455090998035972 3.4432963190243013
16.096450885528043 2.777028025380245 6.6064508212985 6.712972038849304
7.989216314255513 1.0908289971913565 3.455090998038096 3.443296319026053
10.008087734709088 1.9435648578155673 3.944127996136877 4.120394880756645
9.616186722923167 1.8062748035634864 3.7740762742688787 4.035835645090803
8.50374866951363 1.5899050883462569 3.2598224767278086 3.654021104439572
7.144621510683368 1.3934183343020512 2.6512485700295176 3.0999546063518015
5.724032547303097 1.2064607365059372 2.0210102873630174 2.496561523434143
4.4223070116554615 1.041307612072507 1.4584810809302218 1.9225183186527302
3.2821964538289676 0.8935807880282336 0.9817647382214845 1.4068509275792502
2.322701584237541 0.770537416046075 0.6034202766518258 0.9487438915396396
1.5442852787050259 0.6677552311566237 0.3256322531730397 0.5508977943753628
0.919632394331575 0.5442526627597386 0.11833515360798726 0.25704457796384916
0.549870283952797 0.4306715586839584 0.029961154175442813 0.0892375710933957
0.3738626778214834 0.34857590195737514 0.004830961512336457 0.02045581435177176
0.2912954391101409 0.29288314729891196 -0.0010055706021203715 -0.0005821375866506863
0.2370688488278952 0.2393237080563459 -0.0008761862419030879 -0.0013786729865476492
0.21219979925378804 0.2124222939917746 -6.889460962662449e-05 -0.00015360012835989638
0.20876609234891547 0.20896619661366053 -2.6533468248680124e-05 -0.00017357079649637965
0.20680746881835368 0.20678646165809547 1.857065786712666e-06 1.9150094471561197e-05
0.16399650331677634 0.16398229667578948 1.6036732826141167e-06 1.2602967704324146e-05
0.33538519085254354 0.33552990796476095 -1.6094606871249697e-05 -0.00012862250534624497
0.21701195510134375 0.21701195510134375 0.0 0.0
0.1503887102045304 0.150413306279048 -1.5725880685879657e-06 -2.3023486449051548e-05
0.20393797538226657 0.20404709960973663 -9.834584425701e-06 -9.92896430443435e-05
0.21838540640948517 0.2179547192001736 4.965683469834626e-05 0.00038103037461325885
0.23121316161366548 0.23267506618206818 -0.0002614264580513933 -0.0012004781103512956
0.2716833129298407 0.2782550202251765 -0.0014871927105653672 -0.005084514584770539
0.3588706517768345 0.35812361770008794 -0.002600158614644309 0.0033471926913908557
0.5968584562157027 0.49655185851689865 0.023639455919882618 0.07666714177892146
1.1454250453217705 0.65383139889242 0.15595332930606032 0.33564031712329023
2.1083081824309624 0.8277934696368788 0.48673457313970736 0.7937801396543752
3.39443345375894 0.9887917785305023 0.9841294851824469 1.4215121900459897
4.977705950454156 1.1534461947277246 1.667639105383968 2.156620650342462
6.814542839698474 1.3336421629239463 2.502027242877913 2.978873433896615
8.93979254814655 1.5343064680635583 3.5045370919323573 3.9009489881506347
11.415778371015731 1.7619714108098448 4.717957657720252 4.935849302485631
14.189771622153884 2.0099192798826158 6.120390114393706 6.059462227877566
17.034414401356965 2.2728771422050356 7.578374747115541 7.1831625120363825
19.53579410014591 2.5676051560056785 8.817643403932012 8.15054554020822
20.818599580923323 2.6669071757648406 9.514208522528527 8.637483882629958
19.239541517039036 2.6320015297189787 8.714050559897993 7.893489427422063
23.41137796400639 5.942576660613087 9.083585090958378 8.38521621243492
19.239541517044824 2.632001529718651 8.714050559901565 7.8934894274246155
20.818599580927174 2.6669071757707705 9.514208522527325 8.637483882629084
19.53579410012602 2.567605155993782 8.817643403927333 8.150545540204902
17.03441440134905 2.272877142212012 7.578374747107077 7.183162512029954
14.18977162213783 2.0099192798823187 6.120390114384929 6.0594622278705845
11.415778370999664 1.761971410807034 4.717957657713043 4.935849302479589
8.939792548134173 1.5343064680629748 3.5045370919261574 3.900948988145039
6.814542839684014 1.3336421629230768 2.502027242870941 2.978873433889996
4.977705950441771 1.1534461947272225 1.6676391053781086 2.1566206503364387
3.3944334537475895 0.9887917785288733 0.9841294851779328 1.421512190040783
2.108308182422608 0.8277934696356168 0.486734573136553 0.793780139650439
1.1454250453174255 0.6538313988909634 0.15595332930493527 0.33564031712152653
0.5968584562138697 0.49655185851632017 0.02363945591949436 0.07666714177805545
0.3588706517757356 0.3581236176988359 -0.002600158614639734 0.0033471926915394625
0.2716833129291694 0.27825502022441034 -0.0014871927105348439 -0.0050845145847060545
0.23121316161315314 0.23267506618156644 -0.00026142645805409047 -0.0012004781103592528
0.218385406409156 0.21795471919968065 4.9656834713190474e-05 0.0003810303747621313
0.20393797538194836 0.204047099609427 -9.834584427161224e-06 -9.928964305149277e-05
0.15038871020422362 0.1504133062787348 -1.5725880679371782e-06 -2.302348644323898e-05
0.21701195510081894 0.21701195510081894 0.0 0.0
0.13378445736136843 0.13378445736136843 0.0 0.0
0.1314891925486033 0.13147982035818828 6.316936465528355e-07 8.74049676847986e-06
0.1944165014020288 0.19444755257310317 -1.8256901364633365e-06 -2.9225480937948953e-05
0.22410243264597937 0.22453006263622852 -5.334263777790562e-05 -0.0003742873524712671
0.25383359135516814 0.2555568796791038 -0.00035023999964213417 -0.0013730483242935143
0.31762841596253794 0.31899194078960175 -0.001516845874985635 0.00015332104792196684
0.4981257812051916 0.4635348487426354 0.0055389965544812144 0.029051935908075057
0.9921266751855914 0.6397831919033827 0.10384678714251505 0.24849669613969383
2.003090971911801 0.8560224917711142 0.42336160235786346 0.7237068777828232
3.6049260753329397 1.06800571656801 1.0747152341657145 1.4622051245992154
5.573521365262836 1.250966440478799 1.9180838852361426 2.4044710395478965
7.955031638662215 1.4428889490844408 3.0327643319674977 3.479378357610277
10.736827513476145 1.6611108239988623 4.400357811392401 4.675358878084877
13.975421322900328 1.912334025019622 6.04005883610309 6.023028461777618
17.790892560929706 2.1988262222884463 8.041645663283866 7.550420675357393
22.083251572360965 2.5036691829279283 10.335329785322777 9.244252604110255
26.724122619269693 2.816324188944649 12.913386505696398 10.994411924628645
30.812367850290315 3.0310426938362784 15.209553763108635 12.57177139334539
32.9702963109083 3.0335759937929074 16.512152694642126 13.424567622473266
30.54553171451574 2.667246575516732 15.28228148374911 12.596003655249895
34.3292691473482 8.636832950020153 13.949922247391935 11.742513949936123
30.545531714516578 2.6672465755130945 15.28228148375181 12.596003655251677
32.97029631090447 3.033575993792078 16.512152694640278 13.42456762247211
30.812367850277884 3.031042693837863 15.209553763100216 12.571771393339802
26.724122619241726 2.8163241889369526 12.913386505684313 10.994411924620456
22.08325157234292 2.5036691829303743 10.33532978531086 9.244252604101685
17.79089256091183 2.1988262222909825 8.041645663272215 7.5504206753486285
13.975421322882003 1.9123340250184113 6.040058836093562 6.023028461770027
10.736827513456673 1.6611108239990544 4.40035781138177 4.675358878075853
7.955031638642419 1.4428889490809769 3.032764331958966 3.4793783576024775
5.573521365245133 1.2509664404768523 1.9180838852282625 2.4044710395400184
3.604926075321641 1.0680057165672259 1.0747152341607085 1.4622051245937078
2.0030909719036916 0.8560224917693305 0.4233616023550965 0.7237068777792647
0.9921266751818191 0.6397831919019349 0.10384678714166326 0.2484966961382203
0.49812578120343587 0.46353484874161344 0.0055389965542694455 0.029051935907552756
0.3176284159618285 0.31899194078848864 -0.0015168458749341526 0.00015332104827407776
0.25383359135460987 0.255556879678309 -0.0003502399996074951 -0.0013730483240916172
0.2241024326454339 0.22453006263569353 -5.334263778157454e-05 -0.00037428735247808394
0.19441650140160363 0.19444755257267887 -1.8256901365811306e-06 -2.9225480938672146e-05
0.1314891925482036 0.13147982035778913 6.316936464977709e-07 8.740496767980233e-06
0.13378445736111685 0.13378445736111685 0.0 0.0
0.07817570971252609 0.07817570971252609 0.0 0.0
0.10898640728685367 0.10898640728685367 0.0 0.0
0.17927097615954266 0.1792605353340937 6.169848764971448e-07 9.823840572470336e-06
0.22632272653690777 0.22618584027253008 1.9247385707933516e-05 0.00011763887866971328
0.2781254523645525 0.28131425094934054 -0.0006197755252860584 -0.0025690230595018914
0.38793868137860976 0.3931452518318814 -0.002328819057229868 -0.002877751396041811
0.7212721127542935 0.5644078262090374 0.04071870882586513 0.11614557771939096
1.5412823099498962 0.7955318275724659 0.2576589955541441 0.4880914868232861
3.0835862842762296 1.0498070248668965 0.8455750324963366 1.1882042269129967
5.158497791044509 1.261045670900314 1.6955492856643417 2.2019028344798532
7.895565373552062 1.4775347002450867 2.9860772917266476 3.4319533815803256
11.128380840055172 1.7055587228813471 4.588564511795211 4.83425760537861
14.907756235937418 1.9676910172139759 6.53024689279345 6.409818325929994
19.354568886842706 2.276746154867605 8.885042440604089 8.192780291371008
24.56348752612032 2.6294098083392714 11.709235569606175 10.224842148174877
30.646685466433553 3.010417009107956 15.138844891161687 12.497423566163915
36.91434560403842 3.3260180250481475 18.694408927388285 14.893918651602004
42.668447023789284 3.4331801242363387 22.20790629601593 17.02736060353699
45.588193191157984 3.180640447694468 24.20850100689009 18.19905173657341
42.39072150057711 2.742485406371869 22.48785797239472 17.160378121810513
46.35389933316266 11.22081890560295 19.65831419510342 15.474766232456286
42.39072150057001 2.7424854063654047 22.487857972394355 17.160378121810254
45.58819319114922 3.1806404476919505 24.20850100688619 18.19905173657111
42.66844702376816 3.4331801242334956 22.20790629600454 17.027360603530116
36.91434560401565 3.3260180250515208 18.69440892737235 14.893918651591772
30.646685466398814 3.0104170091009856 15.138844891144947 12.497423566152882
24.563487526094477 2.629409808338599 11.709235569591428 10.224842148164456
19.354568886815066 2.2767461548636243 8.885042440590484 8.19278029136096
14.907756235912158 1.9676910172142514 6.530246892779163 6.409818325918744
11.128380840030111 1.7055587228782514 4.588564511783382 4.834257605368483
7.895565373531142 1.477534700245359 2.9860772917157132 3.431953381570067
5.158497791028443 1.2610456708982916 1.6955492856574688 2.201902834472685
3.083586284265554 1.049807024865653 0.845575032491893 1.1882042269080082
1.541282309943224 0.7955318275700889 0.2576589955523569 0.48809148682077846
0.7212721127513554 0.564407826207878 0.04071870882523267 0.11614557771824442
0.38793868137777043 0.3931452518309651 -0.0023288190572068506 -0.002877751395987862
0.2781254523640554 0.2813142509488381 -0.0006197755252828065 -0.002569023059499947
0.22632272653646607 0.22618584027205968 1.924738570947758e-05 0.00011763887869706021
0.17927097615934917 0.17926053533390512 6.169848761276928e-07 9.823840567913113e-06
0.1089864072865506 0.1089864072865506 0.0 0.0
0.07817570971231406 0.07817570971231406 0.0 0.0
0.043005083483733664 0.043005083483733664 0.0 0.0
0.08558740461373582 0.08558740461373582 0.0 0.0
0.1601973398491073 0.16018668125481295 6.366593226293898e-07 1.002193497175889e-05
0.22591384784451135 0.22591569192472638 4.12374227509706e-06 -5.967822490102971e-06
0.30512984055541115 0.30735476797199524 -0.0007395008013244651 -0.0014854266152597379
0.4941471900939737 0.4710532391570164 0.004044992272421497 0.0190489586645357
1.0321070416333573 0.6816336036852592 0.10850241277654124 0.2419710251715563
2.2502739020257 0.9552660642651212 0.5124243871470134 0.7825834506135653
4.158174877023331 1.2007783457910257 1.241325898606725 1.7160706326255817
6.905998221574377 1.448303291604695 2.490356964107531 2.967337965862149
10.33341698470261 1.6956515473572753 4.163215094737211 4.474550342608126
14.445112360148153 1.965393302404586 6.272726651858257 6.20699240588531
19.295393464294392 2.2784245461594113 8.850782790934545 8.166186127200431
25.041998880444716 2.6486195456613086 12.0025474847359 10.390831850047498
31.75332051858597 3.0853877149841575 15.7406558853041 12.927276918297725
39.4481791496602 3.5312336208205117 20.140456193090998 15.776489335748682
47.7813413848499 3.843905469304663 25.161408824241203 18.776027091304023
54.93322261320225 3.7809269671343504 29.67755221626261 21.474743429805308
58.268555381574956 3.234501340115847 32.10334153743001 22.930712504029103
54.5823192489952 2.880022015834206 30.03873593988773 21.663561293273276
59.461800193040915 13.863416215335064 26.20050001988494 19.397883957820913
54.58231924899548 2.8800220158380005 30.0387359398855 21.663561293271982
58.268555381555295 3.234501340109027 32.10334153742187 22.9307125040244
54.933222613173896 3.7809269671312458 29.677552216246603 21.47474342979606
47.78134138481555 3.8439054693011077 25.16140882422186 18.776027091292594
39.44817914962822 3.5312336208240227 20.140456193069223 15.776489335734992
31.753320518548698 3.0853877149790376 15.740655885284763 12.92727691828491
25.041998880410926 2.648619545659816 12.002547484716894 10.390831850034218
19.29539346426448 2.2784245461603465 8.850782790916877 8.166186127187258
14.445112360117408 1.965393302401257 6.272726651843016 6.206992405873138
10.333416984677067 1.695651547356761 4.163215094723821 4.47455034259648
6.905998221554846 1.4483032916031762 2.4903569640983534 2.9673379658533166
4.158174877009182 1.2007783457892331 1.2413258986009885 1.716070632618962
2.250273902017009 0.9552660642626298 0.51242438714422 0.7825834506101585
1.0321070416288947 0.6816336036835001 0.10850241277552079 0.24197102516987426
0.4941471900924391 0.47105323915597636 0.004044992272273903 0.01904895866418874
0.30512984055482734 0.307354767971204 -0.0007395008012981755 -0.0014854266150784708
0.2259138478442235 0.2259156919244071 4.1237422778047185e-06 -5.967822461345125e-06
0.1601973398488687 0.1601866812545808 6.366593221431451e-07 1.0021934965748754e-05
0.08558740461368698 0.08558740461368698 0.0 0.0
0.04300508348363512 0.04300508348363512 0.0 0.0
0.02220407970108091 0.02220407970108091 0.0 0.0
0.06369658321648936 0.06369658321648936 0.0 0.0
0.13952423322865004 0.1395182590856064 3.662909033654852e-07 5.6078521402870744e-06
0.22473815302713393 0.22472311480220242 -4.589311026298651e-07 1.5497156034104898e-05
0.34331643709508264 0.35045854351640426 -0.0017871114929261275 -0.005354994928395416
0.6401291217576852 0.5371979037448836 0.02406705773648191 0.07886416027631932
1.4503509527022862 0.8097251557516554 0.2341402877302809 0.4064855092203494
2.973579437305524 1.0802816372999944 0.7531950602762211 1.1401027397293089
5.399018986876286 1.3528680133925237 1.7797528686419224 2.2663981048418407
8.705497216101461 1.6273139669855106 3.3335658530096453 3.7446173961063067
12.876098102049182 1.9144827519280776 5.432951566050296 5.528663784070805
17.91594407404881 2.232452948793652 8.09154643401916 7.591944691235993
23.918154141426363 2.6030818880921527 11.374400481750985 9.940671771583228
30.883125939336566 3.040321727668565 15.229654847137143 12.613149364530859
39.18518001215093 3.54599159307753 19.99175032799673 15.647438091076666
48.700735349849786 4.071789385709433 25.58247819104406 19.046467773096293
58.659281340030724 4.375184529656593 31.645390180499263 22.63870662987488
67.27924106741922 4.095112078497952 37.33628801756159 25.84784097135968
71.33736006695258 3.271899477434955 40.48779713724638 27.577663452271267
67.27659669140466 3.0316730852207847 38.026576833551495 26.21834677263237
73.34364473133229 16.545238681997596 33.235690832280895 23.562715217053807
67.27659669139447 3.0316730852161786 38.02657683354789 26.218346772630383
71.33736006693633 3.271899477436829 40.487797137234644 27.577663452264858
67.27924106738823 4.095112078499614 37.3362880175405 25.847840971348106
58.659281339994884 4.375184529657967 31.64539018047563 22.63870662986129
48.70073534980928 4.071789385709041 25.58247819101896 19.04646777308129
39.18518001210681 3.5459915930739823 19.991750327971815 15.647438091061009
30.88312593929768 3.040321727668287 15.22965484711395 12.61314936451544
23.91815414138827 2.603081888090527 11.374400481729658 9.940671771568084
17.915944074012444 2.2324529487917553 8.091546433999573 7.5919446912211175
12.876098102018345 1.9144827519261853 5.432951566034447 5.528663784057711
8.705497216076969 1.6273139669818923 3.3335658529987313 3.744617396096347
5.39901898685879 1.352868013391532 1.7797528686339388 2.266398104833318
2.9735794372944997 1.0802816372976016 0.7531950602722968 1.1401027397246024
1.450350952696386 0.8097251557501425 0.2341402877284508 0.40648550921779175
0.6401291217554481 0.5371979037436221 0.02406705773614594 0.07886416027568034
0.34331643709453064 0.35045854351557615 -0.001787111492869666 -0.005354994928175825
0.2247381530267179 0.2247231148017994 -4.589311056542868e-07 1.549715602416273e-05
0.13952423322822147 0.13951825908517804 3.662909033509835e-07 5.607852140109466e-06
0.06369658321639654 0.06369658321639654 0.0 0.0
0.022204079700996596 0.022204079700996596 0.0 0.0
0.010898124358455222 0.010898124358455222 0.0 0.0
0.04513219439313817 0.04513219439313817 0.0 0.0
0.11973476555875331 0.11973476555875331 0.0 0.0
0.2259690054984089 0.2261039147270169 -1.8788711297743166e-05 -0.00011612051731031704
0.39889405549845386 0.39951308411548375 -0.000752249381088267 0.00013322076405845092
0.8490132542674111 0.6375448784797905 0.06414081641003568 0.14732755937758524
1.9118983464490846 0.9173732929927518 0.3682117012847352 0.6263133521715986
3.8005798850223393 1.1979846563769687 1.0814706653788129 1.5211245632665569
6.676869550980815 1.4961154819741271 2.3501839337959676 2.830570135210721
10.581467628090905 1.8052396595935642 4.244585602765357 4.531642365731982
15.49865008798545 2.1360323162598993 6.771685839148332 6.590931932577216
21.505070095697928 2.5108916554963363 10.006179217257035 8.987999222944563
28.58559562997211 2.9441143363337354 13.90875269079846 11.732728602839915
37.078676216183375 3.4491588482711983 18.777762205939652 14.851755161972537
46.851498599067405 4.021811570272916 24.44561269101381 18.384074337780664
57.90900841822546 4.59272851154015 31.015798162935745 22.300481743749582
69.6486997418506 4.903791571506287 38.34053952068445 26.40436864965988
79.75757303990164 4.44832423555401 45.1900854761461 30.119163328201513
84.69869470306142 3.326580357348569 49.14312412678012 32.22899021893271
80.69975312347589 3.1478392873167365 46.66319852037408 30.888715315785106
88.46858782781923 19.213220743851153 41.262861524740295 27.99250555922777
80.69975312346436 3.1478392873144627 46.663198520367914 30.888715315781983
84.69869470302916 3.3265803573411388 49.14312412676382 32.228990218924196
79.75757303986715 4.448324235557059 45.190085476121546 30.119163328188513
69.64869974180262 4.903791571502581 38.340539520655966 26.404368649644073
57.909008418177486 4.592728511536412 31.015798162907615 22.300481743733442
46.85149859901977 4.021811570272755 24.445612690984213 18.38407433776281
37.078676216136415 3.449158848268175 18.777762205912783 14.851755161955458
28.585595629926093 2.9441143363309656 13.908752690772676 11.732728602822451
21.505070095657747 2.510891655495709 10.006179217234212 8.987999222927831
15.498650087950182 2.136032316258076 6.771685839129646 6.5909319325624605
10.581467628062393 1.8052396595902378 4.2445856027518305 4.531642365720323
6.676869550960558 1.4961154819725124 2.3501839337865693 2.830570135201475
3.8005798850091757 1.197984656374824 1.0814706653739214 1.5211245632604307
1.9118983464415582 0.9173732929914271 0.3682117012820747 0.6263133521680564
0.84901325426435 0.637544878478614 0.06414081640934426 0.1473275593763916
0.39889405549763424 0.3995130841145637 -0.0007522493810769873 0.00013322076414746782
0.22596900549792248 0.22610391472654237 -1.8788711300283644e-05 -0.00011612051731960044
0.11973476555841972 0.11973476555841972 0.0 0.0
0.045132194392969366 0.045132194392969366 0.0 0.0
0.01089812435840315 0.01089812435840315 0.0 0.0
0.005302232686476403 0.005302232686476403 0.0 0.0
0.030946756025925063 0.030946756025925063 0.0 0.0
0.10353057580969982 0.10353057580969982 0.0 0.0
0.2343922274222622 0.23489684409989353 -7.016983918213457e-05 -0.000434446838449085
0.47985308155901246 0.4530094391474978 0.005137208717293446 0.021706433694221428
1.1206422945070316 0.7373531752506848 0.1308431002775223 0.25244601897882396
2.425242699808377 1.0057097171369187 0.5391080786268743 0.8804249040445835
4.681099843239881 1.311069445048619 1.4511097480768729 1.9189206501143892
7.999603053897473 1.634340925287392 2.9610334359443544 3.404228692665727
12.505409479631291 1.982151483496938 5.19777219664607 5.325485799488285
18.223092074264738 2.365652274757697 8.198121229324615 7.659318570182421
25.170965173657397 2.7992664566362215 11.977907340094253 10.39379137692692
33.57478582611971 3.306857348476746 16.733726807473055 13.534201670169903
43.30965851034257 3.887426864687848 22.305250221401106 17.116981424253627
54.66494839930982 4.498434831169586 29.03323378143322 21.13327978670703
67.31563563526741 5.0581499304943724 36.73952353309147 25.517962171681557
80.52706410417876 5.381642638246198 45.079759100415814 30.065662365516776
92.22339904150628 4.948857728456188 53.03180172765888 34.24273958539121
98.38183873266253 3.42449979658345 58.1447714484467 36.81256748763239
95.00467302819213 3.1524294476995567 56.09814615101341 35.754097429479145
104.95855439256009 21.725455632647378 50.37357702200233 32.859521737910406
95.00467302817793 3.152429447697296 56.09814615100551 35.75409742947511
98.3818387326326 3.424499796586808 58.14477144842464 36.81256748762117
92.22339904145667 4.948857728452298 53.031801727628725 34.242739585375624
80.5270641041295 5.381642638249071 45.07975910038173 30.0656623654987
67.31563563520837 5.058149930485655 36.739523533059156 25.517962171663537
54.664948399250136 4.49843483116397 29.033233781398984 21.13327978668718
43.30965851028583 3.8874268646836647 22.305250221368567 17.116981424233618
33.574785826066744 3.3068573484740083 16.733726807442658 13.53420167015007
25.170965173607907 2.7992664566320364 11.977907340067546 10.39379137690833
18.22309207422468 2.3656522747554893 8.198121229303148 7.659318570166044
12.505409479599589 1.9821514834944558 5.197772196630164 5.325485799474969
7.999603053873767 1.6343409252849515 2.9610334359334307 3.404228692655386
4.681099843224134 1.3110694450456615 1.4511097480707849 1.9189206501076885
2.425242699799091 1.0057097171358065 0.5391080786235656 0.8804249040397187
1.120642294503058 0.7373531752496083 0.13084310027641555 0.25244601897703484
0.4798530815578855 0.45300943914641895 0.005137208717242889 0.021706433694223835
0.2343922274219482 0.23489684409960332 -7.01698391851443e-05 -0.00043444683846999787
0.1035305758096164 0.1035305758096164 0.0 0.0
0.030946756025821 0.030946756025821 0.0 0.0
0.005302232686456602 0.005302232686456602 0.0 0.0
0.0025162552278412188 0.0025162552278412188 0.0 0.0
0.021203551264602622 0.021203551264602622 0.0 0.0
0.09449884820513281 0.09449884820513281 0.0 0.0
0.2577317464781575 0.25860278487371535 -0.0001966728464533318 -0.0006743655491045406
0.6065130498410528 0.5348875783113016 0.020404246006082136 0.0512212255236693
1.432192976813773 0.8220099781974525 0.21337555689467513 0.39680744172164534
3.007288086246983 1.0986265294154947 0.7608581979759768 1.147803358855512
5.591864244283464 1.4179223119725237 1.8449673470242243 2.328974585286714
9.374063346015884 1.769319416067277 3.6206086461898517 3.9841352837587602
14.472100306186617 2.1606364739400656 6.188488461697303 6.122975370549247
20.986025928267352 2.599748604021501 9.652690181096013 8.733587143149837
29.033426349552734 3.104811967940562 14.122692277913828 11.805922103698332
38.522877311408386 3.6901502164947715 19.47724382301787 15.355483271895762
49.80376183536511 4.338310200735315 26.075218625640595 19.390233008989206
62.71042670998694 4.991022247271706 33.829887021173896 23.88951744154134
76.8205890864531 5.503193951370026 42.591824250822995 28.72557088426008
91.20359484453002 5.702017662981092 51.888127160443794 33.61345002110513
104.2864583709466 5.448977158340155 60.74005304978533 38.097428162821075
112.29556812676634 3.923179878055007 67.11821784380231 41.25417040490897
110.27469304733796 2.8687004314832865 66.49547930009606 40.910513315758614
122.86862049682965 23.099467520119212 61.358879738307046 38.410273238403406
110.27469304731274 2.86870043147374 66.49547930008552 40.91051331575347
112.29556812673059 3.923179878058028 67.11821784377648 41.25417040489613
104.2864583709015 5.448977158347645 60.740053049750315 38.097428162803546
91.2035948444684 5.702017662980384 51.88812716040375 33.613450021084255
76.82058908638405 5.503193951363032 42.59182425078258 28.725570884238458
62.71042670992428 4.991022247270072 33.82988702113489 23.889517441519306
49.803761835303455 4.3383102007351955 26.075218625601998 19.390233008966252
38.522877311350676 3.690150216493902 19.477243822983 15.355483271873755
29.03342634949873 3.10481196793833 14.122692277882958 11.805922103677439
20.986025928221345 2.59974860401816 9.652690181071309 8.733587143131892
14.472100306150413 2.1606364739369495 6.188488461678943 6.1229753705345225
9.374063345988805 1.7693194160641827 3.620608646177261 3.9841352837473614
5.59186424426497 1.417922311969949 1.8449673470164498 2.328974585278574
3.0072880862367115 1.098626529414375 0.7608581979719825 1.1478033588503527
1.4321929768085033 0.8220099781957915 0.2133755568932092 0.396807441719503
0.6065130498392681 0.5348875783100439 0.020404246005882382 0.05122122552334151
0.2577317464777944 0.25860278487325766 -0.00019667284644704202 -0.0006743655490162329
0.0944988482050409 0.0944988482050409 0.0 0.0
0.02120355126458031 0.02120355126458031 0.0 0.0
0.002516255227834429 0.002516255227834429 0.0 0.0
0.0007202165583313747 0.0007202165583313747 0.0 0.0
0.015304383744300386 0.015304383744300386 0.0 0.0
0.0978322476032613 0.0978322476032613 0.0 0.0
0.3100830686863337 0.3100871260775965 -0.00019330033362778207 0.0001892429423649704
0.7913668345137262 0.649507745954125 0.04600425835755104 0.09585483020205009
1.8200351151871637 0.9880318925696123 0.3046828996613855 0.5273203229561659
3.662940251802824 1.3433070423433835 0.9512322117229299 1.3684009977365115
6.6102189818473684 1.7886007914159916 2.1724675606931103 2.6491506297382648
10.881719268361453 2.326539606722047 4.124749751192945 4.430429910446464
16.701306653523606 2.993032950673551 6.9754568872891936 6.732816815560861
24.20789261017633 3.825533880819226 10.830078270909908 9.552280458447191
33.40813283848394 4.850711450602379 15.670312389477456 12.887108998404099
44.515054323579534 6.065934765514616 21.7078325246443 16.74128703342062
57.56633059883016 7.447927575823893 29.00085595594705 21.117547067059217
72.34808522417269 8.824363214554953 37.55791943904855 25.965802570569167
88.15186653089899 9.870763595518747 47.16282565403331 31.118277281346938
103.58466495266447 10.18975999287844 57.12877461196949 36.26613034781655
116.86012148381693 9.603137442795568 66.37409664250816 40.88288739851327
126.35233615144939 8.68123833240481 73.374475956172 44.29662186287263
122.75669213979332 2.8879151768200524 74.8036488447625 45.06512811821074
175.9595993077072 60.15115947597871 72.17682940466645 43.63161042706206
122.75669213976765 2.887915176813862 74.80364884474938 45.0651281182044
126.35233615141269 8.681238332411306 73.37447595614273 44.296621862858586
116.86012148375067 9.603137442785583 66.3740966424707 40.88288739849449
103.58466495259545 10.189759992877907 57.12877461192399 36.266130347793556
88.15186653083497 9.870763595526293 47.16282565398657 31.11827728132203
72.34808522409517 8.824363214542629 37.55791943900664 25.965802570545932
57.56633059876262 7.447927575823913 29.000855955904314 21.117547067034415
44.5150543235124 6.065934765508695 21.707832524606467 16.741287033397253
33.40813283842179 4.850711450595761 15.670312389443978 12.887108998382047
24.20789261012301 3.8255338808127437 10.830078270882542 9.55228045842773
16.70130665348259 2.993032950669066 6.975456887268597 6.73281681554492
10.881719268329947 2.326539606716107 4.124749751179252 4.43042991043459
6.610218981827062 1.788600791414678 2.1724675606836277 2.6491506297287564
3.6629402517903946 1.343307042340379 0.9512322117186938 1.3684009977313227
1.8200351151806227 0.9880318925673408 0.3046828996597719 0.5273203229535095
0.7913668345112393 0.6495077459526921 0.04600425835716615 0.09585483020138119
0.3100830686858167 0.3100871260770447 -0.0001933003336171289 0.00018924294238913423
0.09783224760314888 0.09783224760314888 0.0 0.0
0.015304383744308186 0.015304383744308186 0.0 0.0
0.0007202165583187 0.0007202165583187 0.0 0.0
CELL_DATA 800
SCALARS Stress float 6
LOOKUP_TABLE default
156.91611554595877 -509.71420041385426 -182.52117371633926 -107.65655768669757 0.0 0.0
397.53949085338814 -45.882066642473546 116.78320372303634 57.983388828774636 0.0 0.0
392.5943159903497 8.613149062135625 120.16605351084085 -4.145424713461809 0.0 0.0
452.93966932372075 -9.666782345230065 137.03112983534976 -13.831729226920467 0.0 0.0
527.1000501873084 -14.55302610657712 183.16765033610955 -11.344921027600538 0.0 0.0
597.365088451078 -7.960610904574512 252.1715812454089 -9.759946735350734 0.0 0.0
665.404925813888 -0.42192934908417357 313.30533478248265 -9.867186296528313 0.0 0.0
733.5260856873433 15.001315346578615 366.14208203898977 -10.995036519749819 0.0 0.0
802.9607656928061 37.18190756198963 415.758143705783 -12.357629027181463 0.0 0.0
874.0538136157154 65.33342682123005 466.61281801119685 -13.355731001125141 0.0 0.0
946.0087088799926 97.6973310061056 519.2969491875942 -13.822831359083553 0.0 0.0
1017.9391551190101 133.4732139083565 573.4803392153864 -13.767310765255274 0.0 0.0
1089.828782520464 171.0724076295017 628.4539173320994 -13.537376338458733 0.0 0.0
1162.3903162624429 211.01256488728865 684.8546444883834 -13.262703863333266 0.0 0.0
1236.3795593028462 254.28804966550462 743.5862372280551 -12.867200256483628 0.0 0.0
1311.3001573898657 300.8107081526812 804.3800540581699 -12.163510559146857 0.0 0.0
1384.8707166295208 349.13611733103994 865.3890675997906 -10.955277356193125 0.0 0.0
1453.836751546893 396.98809106868623 923.8323605010397 -9.275785937827534 0.0 0.0
1515.0206923271103 442.28657699247054 977.0340898885604 -7.93338836515904 0.0 0.0
1586.4289319897143 504.99478703053035 1043.5624342045683 -10.523816793284482 0.0 0.0
1586.4289319900581 504.99478703088766 1043.562434204778 10.523816793299725 0.0 0.0
1515.020692327592 442.28657699299174 977.0340898888815 7.933388365224293 0.0 0.0
1453.8367515468817 396.988091068741 923.8323605009192 9.275785937884846 0.0 0.0
1384.8707166286445 349.13611733025556 865.3890675989936 10.955277356334204 0.0 0.0
1311.3001573896686 300.81070815260443 804.3800540578679 12.16351055925823 0.0 0.0
1236.379559302828 254.28804966560554 743.5862372280212 12.867200256286736 0.0 0.0
1162.3903162623064 211.01256488730178 684.8546444883477 13.262703863382756 0.0 0.0
1089.828782520435 171.0724076296528 628.4539173320444 13.537376338447817 0.0 0.0
1017.9391551188102 133.47321390836373 573.4803392151683 13.767310765328402 0.0 0.0
946.0087088794678 97.69733100579808 519.296949187172 13.822831359035014 0.0 0.0
874.053813615165 65.33342682090738 466.6128180107634 13.355731001105552 0.0 0.0
802.9607656921526 37.18190756157452 415.758143705336 12.357629027191116 0.0 0.0
733.5260856868998 15.001315346383151 366.14208203865974 10.995036519681879 0.0 0.0
665.4049258135245 -0.4219293491980949 313.30533478218257 9.867186296518726 0.0 0.0
597.365088450526 -7.960610904863046 252.17158124495842 9.75994673534239 0.0 0.0
527.1000501871107 -14.553026106506588 183.167650335946 11.344921027586084 0.0 0.0
452.9396693236174 -9.666782345061492 137.03112983535902 13.831729226827779 0.0 0.0
392.59431599010946 8.613149061986482 120.16605351072718 4.145424713418377 0.0 0.0
397.539490853194 -45.88206664254528 116.7832037229181 -57.98338882872824 0.0 0.0
156.916115546463 -509.7142004133566 -182.52117371583392 107.65655768633877 0.0 0.0
58.86671773500464 -539.3408491744252 -240.86134451384936 -151.76126472998487 0.0 0.0
251.38412665965026 -31.596902668371527 65.93580119766231 11.59030805396598 0.0 0.0
344.1285482106865 26.2063715842919 111.09998581216561 -10.24244705720498 0.0 0.0
415.31567659627535 -7.15000222035975 123.12512102675541 -33.52334318708243 0.0 0.0
497.78337811646236 -15.535474968961665 162.14660302599415 -32.21106350562185 0.0 0.0
572.8616547110597 -9.247239445981288 230.27834607983988 -28.87121603994759 0.0 0.0
644.9402461651389 -1.8242906738450948 296.5329373930575 -29.33352703222292 0.0 0.0
714.071141253733 12.924294984963836 352.74740119713755 -31.05384870542889 0.0 0.0
782.4132986197802 33.7101519909811 402.67389424071155 -33.13810539372622 0.0 0.0
850.8296266146592 59.50189085369894 451.5819390112392 -34.43940882503436 0.0 0.0
918.8422023632463 88.62562185574531 500.89619860646167 -34.62959977186678 0.0 0.0
986.1982456532776 119.75868133447837 550.5581307950074 -34.02274848001996 0.0 0.0
1053.0752199705757 153.20426411962814 600.9868936368025 -33.108145448489466 0.0 0.0
1120.6266272646076 188.8564000310749 652.7666901640835 -32.1641297730147 0.0 0.0
1189.253327480142 227.20697491173684 706.3808098424591 -31.02471590959593 0.0 0.0
1258.4339403443832 268.3159174490732 761.6230456321183 -29.25915030310145 0.0 0.0
1326.661663565389 311.39655054340966 817.3440983714752 -26.576051124118404 0.0 0.0
1391.9914556573278 355.52336053777964 872.083290481546 -23.252628687540444 0.0 0.0
1456.6539508991887 404.3361685097035 928.6598670439223 -20.287529374277128 0.0 0.0
1503.76236752272 442.3506987288499 971.04013694305 -17.03217936250771 0.0 0.0
1503.7623675229022 442.3506987290481 971.0401369431955 17.032179362590742 0.0 0.0
1456.6539508983574 404.3361685089101 928.6598670432886 20.287529374385297 0.0 0.0
1391.991455656795 355.52336053730824 872.0832904810671 23.25262868760381 0.0 0.0
1326.6616635658372 311.3965505439569 817.3440983717264 26.576051124198884 0.0 0.0
1258.4339403440185 268.3159174488251 761.6230456317622 29.259150303156108 0.0 0.0
1189.2533274797213 227.2069749114182 706.3808098420118 31.02471590944283 0.0 0.0
1120.6266272639077 188.85640003050693 652.7666901635283 32.16412977299011 0.0 0.0
1053.0752199704773 153.20426411971928 600.9868936366673 33.10814544857419 0.0 0.0
986.198245652448 119.75868133383452 550.5581307944168 34.02274848000523 0.0 0.0
918.8422023623357 88.62562185504044 500.8961986058344 34.629599771839814 0.0 0.0
850.8296266140271 59.501890853280315 451.58193901080244 34.43940882491683 0.0 0.0
782.4132986191546 33.71015199058688 402.6738942402727 33.13810539375753 0.0 0.0
714.0711412533193 12.924294984828009 352.74740119680325 31.05384870537396 0.0 0.0
644.9402461649803 -1.8242906737578082 296.5329373928651 29.33352703208947 0.0 0.0
572.8616547105736 -9.247239446185791 230.27834607943754 28.871216039941046 0.0 0.0
497.7833781162448 -15.5354749688908 162.1466030258529 32.21106350553909 0.0 0.0
415.31567659607305 -7.150002220362271 123.12512102670328 33.52334318697338 0.0 0.0
344.1285482105783 26.206371584124952 111.09998581208345 10.24244705718769 0.0 0.0
251.3841266596768 -31.59690266824231 65.93580119770944 -11.590308054063625 0.0 0.0
58.86671773524205 -539.3408491741394 -240.86134451353155 151.76126472972896 0.0 0.0
11.336840416360388 -543.1537808195723 -258.5004994103126 -165.8901774460316 0.0 0.0
145.0637677564044 -27.39066477652417 35.30193089396407 -41.268571212923405 0.0 0.0
280.0313349530498 30.278796020571583 93.0930392920864 -32.54513193093761 0.0 0.0
368.1122903469394 0.586548828733843 110.76547104632294 -52.42032457664139 0.0 0.0
458.82270755845997 -13.965946675173265 142.12629010108878 -55.24637189304088 0.0 0.0
545.2630825368575 -12.718786726225765 204.35794600472806 -50.11733680452144 0.0 0.0
620.2176451597265 -2.336789149587588 276.35150141342933 -49.10431516191574 0.0 0.0
690.2094935294431 10.874700424928335 335.98876315082197 -51.07666441100982 0.0 0.0
758.021026266236 30.33024419256794 387.2057596297266 -53.51502355769529 0.0 0.0
823.7841142658551 53.505260065531424 434.3688539203166 -54.84915118962196 0.0 0.0
887.9152869078043 79.02853947898562 480.26059170173755 -54.70542680798875 0.0 0.0
950.5729678971094 106.3164184877584 525.7768508094066 -53.53335164129321 0.0 0.0
1012.8749766290795 135.10270864518333 571.649045425477 -52.11701243370208 0.0 0.0
1075.280452259985 166.28176708677017 618.6602671592041 -50.58433614100681 0.0 0.0
1138.3386402373878 199.5540939817572 666.9832589135408 -48.73460564582185 0.0 0.0
1201.7590900766604 235.01535708276612 716.547216486932 -46.07156834460698 0.0 0.0
1264.765805201464 272.76460435469915 766.9957308105922 -42.279823336726615 0.0 0.0
1327.7547544341642 314.3158641771863 819.2401636073876 -37.650791052598414 0.0 0.0
1386.1139689810932 356.31391569214827 869.3169260569557 -31.867293767270407 0.0 0.0
1426.5426659402162 386.66965743221533 904.5862996230165 -22.796701611985263 0.0 0.0
1426.5426659398363 386.66965743186097 904.5862996226917 22.79670161212074 0.0 0.0
1386.1139689808692 356.31391569196285 869.3169260567582 31.867293767258726 0.0 0.0
1327.7547544336032 314.31586417668336 819.2401636069399 37.6507910526574 0.0 0.0
1264.7658052010981 272.76460435442107 766.9957308102947 42.27982333677997 0.0 0.0
1201.759090077097 235.01535708333196 716.5472164873106 46.071568344694576 0.0 0.0
1138.3386402367705 199.55409398124777 666.9832589130509 48.73460564577621 0.0 0.0
1075.2804522593526 166.2817670862696 618.6602671586107 50.58433614097192 0.0 0.0
1012.8749766290564 135.10270864534087 571.6490454253963 52.117012433749274 0.0 0.0
950.572967896597 106.31641848741862 525.776850809034 53.53335164126136 0.0 0.0
887.9152869075999 79.02853947902591 480.2605917015964 54.705426808076155 0.0 0.0
823.7841142654715 53.50526006535402 434.3688539200009 54.84915118951103 0.0 0.0
758.0210262659944 30.3302441925659 387.20575962954314 53.515023557688046 0.0 0.0
690.2094935288906 10.874700424646988 335.98876315042816 51.07666441106797 0.0 0.0
620.2176451594031 -2.336789149622234 276.3515014131107 49.1043151618898 0.0 0.0
545.2630825367096 -12.718786726022795 204.35794600454474 50.117336804491785 0.0 0.0
458.8227075584624 -13.965946674761508 142.1262901011395 55.24637189305717 0.0 0.0
368.112290346838 0.5865488289699341 110.76547104637213 52.420324576591284 0.0 0.0
280.0313349530183 30.278796020448286 93.09303929203998 32.54513193081591 0.0 0.0
145.06376775657495 -27.39066477615828 35.30193089412499 41.268571212746195 0.0 0.0
11.336840416544078 -543.1537808192763 -258.50049941001856 165.89017744587886 0.0 0.0
-6.111065419840969 -528.1773707512534 -250.6196270350091 -168.26015865777455 0.0 0.0
85.5169152193858 -30.43869579542544 16.523465827188105 -86.04295225346395 0.0 0.0
219.16703803910534 28.737932482586146 74.37149115650743 -61.85548773032363 0.0 0.0
317.3005577312707 6.800248350023143 97.2221770077693 -72.91825732841039 0.0 0.0
410.2561825365939 -11.099934808196036 122.93706069727709 -79.93843003300242 0.0 0.0
505.8851343290669 -14.10694817431509 176.59055619797508 -73.49993787181529 0.0 0.0
588.3643857617573 -4.382619286257576 249.8903635915992 -69.74668098296131 0.0 0.0
661.6948091504207 9.452896537101406 315.56048505080844 -71.21792122872901 0.0 0.0
728.865023444548 26.80443145081776 368.41257990922884 -73.46923219709144 0.0 0.0
792.2330297733776 47.268054471989245 414.41438369601804 -74.59436040665094 0.0 0.0
852.7021247952115 69.2972886707183 457.2633398198476 -74.05393589187895 0.0 0.0
911.1972999627378 92.59063726405594 498.90055953360644 -72.3997911601343 0.0 0.0
968.4651818926737 117.08191866148584 540.1977661225271 -70.48500047449495 0.0 0.0
1026.0406469774334 143.52072251995986 582.482339467349 -68.51333006779439 0.0 0.0
1083.6328988551481 171.44705409777862 625.4421532786523 -66.06163199844488 0.0 0.0
1140.9204379434843 201.2302923185744 669.1280318958277 -62.63731358242358 0.0 0.0
1198.9650998005325 233.76942741612916 714.4987784252878 -58.0745551675519 0.0 0.0
1257.1866648606485 269.93126346283924 761.6777616983985 -52.14244346044131 0.0 0.0
1310.8702357150194 306.09570672893915 806.5229083307302 -43.367705874924916 0.0 0.0
1348.8860892440075 332.34210123611393 838.5434836043423 -28.917613694817568 0.0 0.0
1348.8860892437308 332.3421012358763 838.5434836041368 28.917613695037943 0.0 0.0
1310.8702357141296 306.09570672808144 806.5229083301163 43.367705874950296 0.0 0.0
1257.1866648607745 269.93126346303086 761.677761698428 52.14244346051056 0.0 0.0
1198.9650998008663 233.76942741657942 714.4987784254924 58.07455516765332 0.0 0.0
1140.9204379423177 201.2302923174852 669.1280318949789 62.63731358242348 0.0 0.0
1083.6328988537205 171.44705409642404 625.4421532777102 66.06163199830749 0.0 0.0
1026.0406469770105 143.52072251966464 582.4823394671081 68.513330067797 0.0 0.0
968.4651818926578 117.08191866164535 540.1977661224929 70.48500047452997 0.0 0.0
911.1972999627626 92.59063726427688 498.90055953357785 72.39979116013623 0.0 0.0
852.7021247948619 69.2972886705652 457.2633398195769 74.05393589187561 0.0 0.0
792.23302977315 47.26805447198555 414.4143836958738 74.5943604066041 0.0 0.0
728.8650234446563 26.80443145118832 368.4125799092409 73.46923219706227 0.0 0.0
661.6948091502776 9.452896537200054 315.5604850506436 71.21792122861177 0.0 0.0
588.3643857612914 -4.3826192864987235 249.890363591178 69.74668098280804 0.0 0.0
505.88513432864124 -14.106948174459568 176.59055619765357 73.49993787168236 0.0 0.0
410.2561825364721 -11.099934807892007 122.93706069731698 79.93843003296581 0.0 0.0
317.3005577312582 6.800248350413669 97.22217700788403 72.91825732834818 0.0 0.0
219.16703803922968 28.737932482798055 74.37149115660831 61.85548773024036 0.0 0.0
85.51691521949978 -30.4386957951204 16.523465827313807 86.04295225331664 0.0 0.0
-6.111065419720404 -528.1773707509402 -250.61962703471843 168.26015865768 0.0 0.0
-9.38617466326673 -502.33555202827006 -228.96451195948697 -166.32846486664465 0.0 0.0
51.00159316717166 -34.360653075229955 4.992282027582514 -120.84087302403793 0.0 0.0
166.40515851943562 24.268399389742783 57.20206737275352 -91.5182640592636 0.0 0.0
263.6228428218573 10.365077290142882 82.19527562873877 -94.86956031420753 0.0 0.0
353.0939888676918 -6.224270980305355 104.93195641776862 -103.61198053033553 0.0 0.0
455.1348640067662 -14.33089243118673 148.19008358212423 -99.92968630822931 0.0 0.0
548.7206447802575 -7.148910291616113 217.97948241092706 -92.60519416840336 0.0 0.0
626.7907119046498 7.596843516196177 289.3612993648317 -91.47641907854104 0.0 0.0
694.1662787061382 23.36361609572408 345.4190437863135 -93.07560156521184 0.0 0.0
755.4877409836878 40.81210440317828 391.0775017471178 -93.73009020094503 0.0 0.0
812.6997454539702 59.388917289537595 431.4712596267202 -92.72265196484908 0.0 0.0
866.9063418333873 78.69746011699371 469.3265934261027 -90.57981819355284 0.0 0.0
919.6355749703623 98.94221043822427 506.403429347114 -88.31918670154063 0.0 0.0
971.6931108323913 120.63609262463953 543.6359482207544 -85.91191420599345 0.0 0.0
1023.8259890121091 143.39564584984436 581.3322592160152 -82.95735795378901 0.0 0.0
1075.9658710949766 167.4289314265157 619.6148215443532 -79.03787080794163 0.0 0.0
1127.758986536398 193.72831818208326 658.7758532897392 -73.84477670495143 0.0 0.0
1180.2932698353209 223.42318966446294 699.9017010625894 -66.78992085167758 0.0 0.0
1230.2595969822037 254.041417449501 740.1199628840611 -55.328531091924035 0.0 0.0
1268.2932933011082 277.7342269259028 770.8519374383424 -35.90252836514055 0.0 0.0
1268.2932933009354 277.7342269257631 770.8519374383153 35.90252836526024 0.0 0.0
1230.259596981758 254.04141744911044 740.1199628837808 55.328531092126255 0.0 0.0
1180.2932698348811 223.42318966411722 699.9017010621819 66.7899208518227 0.0 0.0
1127.7589865368668 193.7283181826597 658.7758532900666 73.84477670502693 0.0 0.0
1075.9658710959511 167.42893142757345 619.6148215450185 79.03787080785929 0.0 0.0
1023.8259890132307 143.39564585113413 581.3322592167387 82.95735795390553 0.0 0.0
971.6931108322445 120.6360926246926 543.6359482205842 85.91191420613109 0.0 0.0
919.6355749699921 98.94221043800746 506.40342934683906 88.31918670153652 0.0 0.0
866.906341832911 78.69746011671201 469.3265934257352 90.57981819358156 0.0 0.0
812.6997454532495 59.38891728895051 431.4712596261449 92.72265196472723 0.0 0.0
755.48774098322 40.812104402898285 391.077501746734 93.73009020086897 0.0 0.0
694.1662787061989 23.36361609608423 345.4190437863183 93.0756015652437 0.0 0.0
626.7907119044361 7.596843516250189 289.36129936457144 91.47641907847364 0.0 0.0
548.7206447798195 -7.148910291718543 217.97948241054846 92.60519416840239 0.0 0.0
455.1348640063963 -14.330892431212039 148.1900835818983 99.929686308182 0.0 0.0
353.093988867344 -6.224270980423781 104.93195641763796 103.61198053021313 0.0 0.0
263.62284282174994 10.365077290174733 82.19527562871723 94.8695603140251 0.0 0.0
166.40515851939398 24.268399389602934 57.20206737269907 91.51826405912482 0.0 0.0
51.001593167265604 -34.36065307489689 4.992282027710617 120.84087302384151 0.0 0.0
-9.38617466311176 -502.3355520279654 -228.9645119591873 166.32846486652736 0.0 0.0
-6.309565887432385 -469.27834596406524 -199.96798319504052 -163.07730503407242 0.0 0.0
29.30593358892389 -37.49460112035658 -2.4566002594298064 -146.62484745534425 0.0 0.0
121.02136779724083 18.6595410409817 41.904272651466755 -117.94187170801948 0.0 0.0
209.1836185238886 12.229144390555838 66.42115206578023 -116.52563633708147 0.0 0.0
292.1201651313446 -1.6460542606181272 87.28824221105629 -125.5634522080182 0.0 0.0
388.57163619162526 -12.569065745373583 119.95661322400497 -127.37328459646577 0.0 0.0
492.65746914820295 -8.619711186181492 181.269503022258 -118.63049758637321 0.0 0.0
580.5790033331833 4.182992985430529 254.15765300677873 -113.18512927626641 0.0 0.0
652.1817145572386 19.5649870755736 316.18277803368045 -112.61321428786297 0.0 0.0
712.3501603894254 34.30837560529366 363.1527363188926 -112.29138461898262 0.0 0.0
766.3065894356048 49.17706723084664 401.67093803644235 -110.73331385572448 0.0 0.0
816.6892565840153 64.69308483130865 436.42349592308494 -108.15738953721967 0.0 0.0
864.7179007570585 80.85919958485493 469.42416466220345 -105.51051355943238 0.0 0.0
911.5954640142447 97.66964533747384 501.7878498712797 -102.8905823910429 0.0 0.0
958.3991933173273 115.27233204307659 534.3175289516469 -99.59338214424837 0.0 0.0
1004.5889001290375 133.99772414013114 567.0201019358392 -95.1035795488789 0.0 0.0
1050.3032427460064 153.34460184710116 599.7369364299652 -89.49908052645038 0.0 0.0
1096.222687969864 175.13438886845756 633.6546333541152 -81.7400405550066 0.0 0.0
1142.3615220996842 199.78758036377644 668.9671876898637 -68.17551171337728 0.0 0.0
1182.3112337494604 221.70305365943042 699.7101989036724 -44.290279231771045 0.0 0.0
1182.3112337494485 221.7030536594394 699.7101989035754 44.29027923184492 0.0 0.0
1142.3615220997021 199.78758036389365 668.9671876898179 68.17551171360117 0.0 0.0
1096.2226879697694 175.13438886841385 633.6546333541065 81.7400405550251 0.0 0.0
1050.30324274556 153.34460184674842 599.7369364296824 89.49908052651557 0.0 0.0
1004.5889001281677 133.997724139348 567.0201019351339 95.10357954891413 0.0 0.0
958.3991933178029 115.27233204371674 534.3175289518967 99.59338214432594 0.0 0.0
911.5954640143469 97.66964533774191 501.7878498713458 102.89058239104648 0.0 0.0
864.7179007563631 80.85919958424638 469.4241646616624 105.51051355938779 0.0 0.0
816.6892565831951 64.69308483066683 436.42349592250974 108.1573895372516 0.0 0.0
766.3065894352776 49.177067230715465 401.6709380361946 110.73331385572664 0.0 0.0
712.3501603890766 34.30837560518734 363.15273631860475 112.2913846189692 0.0 0.0
652.1817145566007 19.564987075226718 316.1827780332141 112.6132142879222 0.0 0.0
580.5790033325829 4.182992985112847 254.15765300630835 113.18512927623975 0.0 0.0
492.6574691474734 -8.61971118666779 181.26950302172523 118.63049758627554 0.0 0.0
388.57163619143563 -12.569065745072134 119.95661322396948 127.37328459633173 0.0 0.0
292.1201651311248 -1.6460542606515443 87.28824221098336 125.56345220790053 0.0 0.0
209.18361852373152 12.229144390418682 66.42115206569285 116.52563633695875 0.0 0.0
121.02136779715703 18.659541040835983 41.9042726513979 117.94187170777609 0.0 0.0
29.305933588951643 -37.49460112023488 -2.4566002593849694 146.62484745520976 0.0 0.0
-6.309565887389759 -469.2783459637999 -199.96798319477696 163.07730503394905 0.0 0.0
-0.6655997776523961 -430.4441599984628 -167.33685522454178 -159.644605496208 0.0 0.0
13.282871117583662 -40.50241287343998 -8.165862526756895 -164.59503481920123 0.0 0.0
80.88289740106964 13.152252826655683 28.210545068317593 -139.60974294545724 0.0 0.0
155.4213043201226 13.734317729719772 50.743563037265524 -136.29197983802365 0.0 0.0
227.57120496562504 1.5028352234033133 68.82450559054374 -145.35211440206174 0.0 0.0
312.24898133209507 -8.482561581097759 93.51841542607372 -153.05277078970784 0.0 0.0
418.2044234198544 -9.096371790436036 141.31167798539803 -147.55572804322907 0.0 0.0
517.5435964103167 1.0388423406079794 209.84287727150323 -137.74575672841982 0.0 0.0
597.0595398243164 14.475425142361647 276.12192564519125 -132.95316189832522 0.0 0.0
659.7809802509321 27.556829897156476 327.66176653514225 -130.55496186151188 0.0 0.0
711.1726855784095 38.70075556386427 365.8052631669418 -128.1467052086329 0.0 0.0
758.030550767922 50.618968321047824 398.4482738701772 -125.14174296682157 0.0 0.0
801.5347137208211 62.66155365798053 427.8330295577171 -122.18036894125322 0.0 0.0
843.0792845122704 74.98935875195579 455.66307591070876 -119.37364147856309 0.0 0.0
883.7889205068985 87.15159380786159 482.6004517238156 -115.94931972605521 0.0 0.0
925.2861608797548 100.68877594292663 510.4349302191327 -111.11410684998668 0.0 0.0
964.6388938696507 113.52402109780475 536.8130118232368 -104.85767271029526 0.0 0.0
1002.4066122579771 126.1079625636018 562.1631806637049 -96.84911837430447 0.0 0.0
1043.973193778693 142.53543590257925 591.0719695973924 -82.35602229532851 0.0 0.0
1087.7765715025175 162.87838305435673 622.8427651083172 -54.88973901587377 0.0 0.0
1087.7765715024952 162.87838305436605 622.8427651084086 54.889739016026425 0.0 0.0
1043.973193778053 142.53543590203907 591.0719695970887 82.35602229556972 0.0 0.0
1002.4066122580149 126.10796256378467 562.1631806636937 96.84911837454193 0.0 0.0
964.638893870034 113.52402109835748 536.8130118234169 104.85767271051245 0.0 0.0
925.2861608788662 100.6887759422095 510.434930218543 111.11410685013553 0.0 0.0
883.7889205062386 87.15159380728204 482.60045172336777 115.94931972606153 0.0 0.0
843.0792845118087 74.9893587516774 455.66307591040436 119.37364147867132 0.0 0.0
801.534713719909 62.66155365718643 427.83302955707546 122.18036894121376 0.0 0.0
758.0305507678797 50.618968321142276 398.44827387012174 125.14174296681075 0.0 0.0
711.1726855786085 38.700755564325846 365.80526316705607 128.146705208629 0.0 0.0
659.7809802507935 27.55682989713285 327.6617665349717 130.55496186132106 0.0 0.0
597.0595398239166 14.475425142260882 276.1219256448795 132.95316189835668 0.0 0.0
517.543596410006 1.0388423406915095 209.84287727123805 137.7457567284286 0.0 0.0
418.20442341967805 -9.096371789983099 141.31167798535003 147.55572804330907 0.0 0.0
312.24898133185826 -8.482561580871813 93.51841542604978 153.0527707895601 0.0 0.0
227.57120496538792 1.5028352232657634 68.82450559043957 145.35211440190864 0.0 0.0
155.42130432014602 13.73431773002652 50.74356303736556 136.29197983785963 0.0 0.0
80.88289740107552 13.152252826804599 28.210545068364034 139.60974294521168 0.0 0.0
13.282871117673869 -40.502412873236615 -8.165862526668823 164.59503481898773 0.0 0.0
-0.6655997776386329 -430.4441599982025 -167.3368552243153 159.64460549609782 0.0 0.0
3.5326238422389196 -387.3666721939111 -135.92134809774637 -156.66523338830658 0.0 0.0
-2.0497663499481367 -43.80101518835758 -13.754698652731275 -175.09544822202102 0.0 0.0
44.28583952219555 8.751543324379824 15.911214853972613 -156.5081402046296 0.0 0.0
103.04258075771487 15.070834162767 35.43236771339741 -152.87050981497674 0.0 0.0
160.97164587592238 4.02885868947272 49.554211066331106 -162.51034941775785 0.0 0.0
226.6312382483882 -3.852176191499821 67.87788715906069 -173.5721012960824 0.0 0.0
319.0134484357464 -6.734350934959744 100.68250010323153 -176.68142968978162 0.0 0.0
427.946170503763 -1.2395006698089541 156.478137383471 -166.62808351463653 0.0 0.0
519.8941126206398 8.711897951097523 221.03003920678813 -156.0517861280248 0.0 0.0
588.7771881118153 19.787049609734453 277.3172724389657 -149.2904473566034 0.0 0.0
641.563095862416 27.871614699043384 318.6303025040645 -145.4096157167616 0.0 0.0
684.9862063864723 36.152077445192376 350.6780403299788 -141.63231328598192 0.0 0.0
724.2256960309874 44.627268169114814 377.9096621058794 -138.32621444440053 0.0 0.0
760.5233309592022 52.478615693488706 401.8804230005412 -135.41010434557015 0.0 0.0
795.4646472970185 59.537487977012745 423.9700633550634 -132.09457072980913 0.0 0.0
830.8364768164831 67.0229667528894 445.92169354792776 -127.15738737746024 0.0 0.0
866.5353024795988 74.89315047612186 468.0668150719103 -120.14197954172874 0.0 0.0
896.2893940613417 78.16857818756921 485.01851322865247 -111.7194070079333 0.0 0.0
928.1910463763527 81.6951485733802 502.73363160791985 -97.82756770592849 0.0 0.0
976.6795561475375 98.99779987070636 535.086717062069 -68.82237944967663 0.0 0.0
976.6795561475035 98.99779987074055 535.0867170619774 68.82237944984772 0.0 0.0
928.1910463763351 81.69514857352092 502.7336316078733 97.82756770629575 0.0 0.0
896.289394061208 78.16857818762662 485.01851322852735 111.71940700818763 0.0 0.0
866.5353024789509 74.893150475488 468.0668150713395 120.14197954169687 0.0 0.0
830.8364768160155 67.0229667524795 445.92169354756936 127.15738737745588 0.0 0.0
795.464647296448 59.53748797653677 423.9700633546776 132.0945707298126 0.0 0.0
760.5233309593452 52.47861569384081 401.88042300065223 135.41010434569642 0.0 0.0
724.2256960313221 44.62726816964695 377.9096621061019 138.32621444448256 0.0 0.0
684.9862063862768 36.152077445253695 350.67804032982247 141.63231328606855 0.0 0.0
641.5630958616426 27.87161469838184 318.6303025035069 145.40961571671193 0.0 0.0
588.7771881112491 19.787049609255092 277.31727243848474 149.2904473564393 0.0 0.0
519.8941126198678 8.711897950480235 221.03003920623547 156.05178612796504 0.0 0.0
427.94617050311416 -1.2395006702657945 156.47813738300164 166.62808351455408 0.0 0.0
319.01344843562634 -6.734350934410541 100.6825001033089 176.68142968977637 0.0 0.0
226.6312382482234 -3.852176191343955 67.87788715904883 173.5721012958884 0.0 0.0
160.97164587558368 4.028858688919977 49.554211066070685 162.51034941756345 0.0 0.0
103.04258075756289 15.070834162534027 35.432367713282744 152.87050981484043 0.0 0.0
44.28583952207226 8.751543324241581 15.911214853894151 156.50814020443104 0.0 0.0
-2.0497663500241003 -43.801015188425524 -13.754698652774724 175.09544822191955 0.0 0.0
3.5326238422936704 -387.3666721935355 -135.92134809751315 156.6652333882206 0.0 0.0
1.130765130977185 -340.873675572327 -110.54064382487594 -151.89960513065554 0.0 0.0
-19.484737218177855 -48.24418913472839 -20.31695275130171 -181.0354162758924 0.0 0.0
10.31324025031408 6.191110850510379 4.951009488390358 -168.72270154845143 0.0 0.0
52.172252158985486 15.972883341299479 20.442426926585057 -165.73407666189803 0.0 0.0
93.10941500344697 7.5134181262910165 30.22635788539858 -175.02849786252375 0.0 0.0
136.7671741387104 -0.6124868960087559 41.34658122582011 -189.5534821224672 0.0 0.0
197.59048606665075 -2.7295392404305536 60.844270933265655 -199.03315812483277 0.0 0.0
290.79027822232905 -0.2910049787700233 96.16583744791893 -197.12022564238714 0.0 0.0
395.7678130337124 4.379372889414228 146.88161666123148 -184.89249192243634 0.0 0.0
478.1594782534553 10.577146579887934 200.2218867693851 -171.31090461672585 0.0 0.0
536.6470214195025 17.06432828537299 245.38767600995436 -163.2685093895629 0.0 0.0
579.5000811305435 21.156996303314322 279.0600422166684 -158.2041486633929 0.0 0.0
615.5903865428164 26.34894691601233 306.8468520499998 -154.24800280499414 0.0 0.0
647.0618945552771 30.403762702450344 329.49047725816496 -151.01412766520718 0.0 0.0
675.608696002411 32.42153830261289 347.99210082652576 -147.72259296888876 0.0 0.0
704.2563211867252 33.45015016981712 364.6102622630177 -143.2921760880269 0.0 0.0
736.5271953488764 35.361125847137785 382.40465047798796 -135.90996966639293 0.0 0.0
767.372929751856 35.18304068493673 398.464896795439 -125.89756259038938 0.0 0.0
784.490123286352 18.88562479531801 399.6940338306905 -113.55147348497793 0.0 0.0
833.8687359242152 24.671657321933495 426.17849300789305 -87.7957710161923 0.0 0.0
833.8687359242689 24.67165732199095 426.17849300800026 87.79577101630005 0.0 0.0
784.4901232865801 18.885624795786157 399.6940338309977 113.55147348537179 0.0 0.0
767.372929752451 35.18304068573997 398.4648967958588 125.89756259067909 0.0 0.0
736.5271953492436 35.3611258478208 382.4046504782574 135.9099696666671 0.0 0.0
704.2563211862462 33.45015016926246 364.61026226263476 143.29217608790594 0.0 0.0
675.6086960019228 32.421538302220625 347.9921008262412 147.72259296889098 0.0 0.0
647.0618945550749 30.403762702251015 329.49047725800733 151.01412766519024 0.0 0.0
615.5903865430073 26.348946916374175 306.8468520500937 154.24800280506906 0.0 0.0
579.5000811303652 21.156996303386435 279.0600422165121 158.20414866342946 0.0 0.0
536.6470214193796 17.06432828535148 245.38767600977928 163.26850938946222 0.0 0.0
478.15947825352026 10.577146580376429 200.22188676940772 171.31090461674506 0.0 0.0
395.76781303357836 4.37937288982495 146.8816166612113 184.8924919225451 0.0 0.0
290.7902782218847 -0.2910049786992275 96.16583744776511 197.12022564245027 0.0 0.0
197.59048606626695 -2.729539240602069 60.84427093309937 199.03315812472925 0.0 0.0
136.76717413850844 -0.6124868961969918 41.346581225696816 189.5534821221991 0.0 0.0
93.1094150034619 7.513418126433397 30.226357885449428 175.02849786227844 0.0 0.0
52.17225215901974 15.972883341339644 20.44242692660779 165.73407666169135 0.0 0.0
10.313240250414417 6.191110850772908 4.951009488499338 168.7227015482328 0.0 0.0
-19.484737218170284 -48.24418913451653 -20.316952751236645 181.03541627572076 0.0 0.0
1.130765130964022 -340.87367557202595 -110.54064382473102 151.8996051304702 0.0 0.0
-7.121663535018088 -292.237835230978 -91.52456784066251 -143.43289854666995 0.0 0.0
-37.36942943797237 -53.07124936739922 -27.129455401556086 -184.42022836073667 0.0 0.0
-21.7898774336204 4.988967333268168 -5.040120405198847 -176.6557270454379 0.0 0.0
2.8427416069511087 16.67128050188383 5.853871031905336 -174.29140667704942 0.0 0.0
25.139998942855833 11.159271761288442 10.899477047721387 -182.6805647930672 0.0 0.0
44.007317245579905 3.4197362054816294 14.393898787119731 -198.01852407403965 0.0 0.0
65.98960142093479 -0.07515266243706087 20.506908945101355 -211.95706246162842 0.0 0.0
99.59422637137868 0.09169246295889 31.83914412184468 -217.99101316467664 0.0 0.0
153.44343653776022 3.2572145770470797 51.50702823911493 -210.956826199098 0.0 0.0
220.1777276425908 4.750719070790524 76.75661630668289 -198.47418427930745 0.0 0.0
281.1107157651429 7.254572329484837 105.9138016141516 -184.58373107589628 0.0 0.0
330.530173376417 8.647565499652131 134.24933313138487 -176.57160151958337 0.0 0.0
373.10228775592174 9.437496753961426 161.49190442576855 -171.13217066604926 0.0 0.0
405.0090948487576 8.93221033250893 184.11017133431284 -166.22008249145333 0.0 0.0
430.31574414750133 6.145461839661152 202.26631881974242 -162.0951121965313 0.0 0.0
457.808266826746 0.36733051474917033 218.4966003143984 -158.2679566465829 0.0 0.0
493.62642990959233 -5.86476120664986 236.27360879414874 -152.10657757808025 0.0 0.0
540.1170167207948 -8.96549928343913 259.6195904878423 -141.45774208411964 0.0 0.0
575.9614735730792 -27.91043474993245 271.55427024238276 -125.76965304854672 0.0 0.0
601.5669956224212 -77.12342222982906 259.2822509148839 -110.37748919864335 0.0 0.0
601.5669956223574 -77.12342222981167 259.2822509148504 110.37748919895216 0.0 0.0
575.9614735726248 -27.91043475018438 271.55427024211275 125.76965304900588 0.0 0.0
540.1170167203584 -8.965499284018819 259.61959048749833 141.45774208435483 0.0 0.0
493.6264299087343 -5.864761207574702 236.27360879359986 152.10657757820928 0.0 0.0
457.8082668266986 0.3673305143266816 218.4966003142096 158.26795664644374 0.0 0.0
430.315744147106 6.145461839321499 202.26631881947074 162.09511219661783 0.0 0.0
405.0090948477706 8.9322103310937 184.11017133356484 166.2200824914445 0.0 0.0
373.10228775537604 9.437496752648912 161.49190442516334 171.13217066602414 0.0 0.0
330.53017337644525 8.647565499701123 134.2493331313562 176.5716015195821 0.0 0.0
281.110715765487 7.2545723302017215 105.91380161440196 184.5837310759103 0.0 0.0
220.1777276427353 4.750719071488948 76.75661630691563 198.47418427931808 0.0 0.0
153.44343653768263 3.257214577114384 51.50702823909048 210.95682619911761 0.0 0.0
99.59422637117773 0.09169246259468089 31.839144121667434 217.9910131647029 0.0 0.0
65.9896014205605 -0.07515266314135616 20.506908944778285 211.95706246148535 0.0 0.0
44.007317245481374 3.4197362052872124 14.393898787031056 198.01852407382472 0.0 0.0
25.139998942650916 11.159271760836315 10.89947704752494 182.68056479282305 0.0 0.0
2.8427416068778397 16.671280501605082 5.8538710317993905 174.29140667679962 0.0 0.0
-21.789877433706625 4.988967333071586 -5.0401204052837985 176.65572704521293 0.0 0.0
-37.369429438021555 -53.07124936745603 -27.129455401588853 184.42022836057822 0.0 0.0
-7.121663535091873 -292.2378352307353 -91.52456784060163 143.4328985465038 0.0 0.0
-18.287817463388194 -244.7911757505255 -78.92628814342584 -132.22801045182396 0.0 0.0
-52.66676482603075 -54.87359087798251 -32.260232795266226 -184.2903780610365 0.0 0.0
-52.39730157135408 3.9311199159946257 -14.540911793934324 -180.67693615023617 0.0 0.0
-44.92307508803839 17.258429967683742 -8.302940107335903 -178.26755705973085 0.0 0.0
-42.1919545261678 14.50370570254406 -8.319148148440206 -184.91816434417058 0.0 0.0
-49.31624189731126 7.752425203450738 -12.64452212988634 -198.980024564561 0.0 0.0
-67.4853330418915 2.723855817587496 -20.174560721447424 -212.1043510718682 0.0 0.0
-99.7820544539826 0.3183978143050865 -31.776660024882823 -218.11050343730562 0.0 0.0
-153.1760286058203 -3.200617845485352 -51.404332260636785 -210.98686231581542 0.0 0.0
-219.9486267601558 -4.777231883797761 -76.69749873373843 -198.4458465961163 0.0 0.0
-281.3032772580742 -6.55494314360492 -105.55220872850713 -184.52486146656955 0.0 0.0
-331.68332913526615 -7.345762200381394 -134.26364370077306 -176.22266167163812 0.0 0.0
-376.47636670165105 -8.134692125663555 -162.44717248849474 -170.57726774492258 0.0 0.0
-411.0162279941978 -11.314293018537441 -187.71233280126808 -165.99306817931475 0.0 0.0
-435.1031474627973 -18.355810077743456 -209.96326226354034 -163.68795282931353 0.0 0.0
-448.6628024712992 -29.124395445787044 -228.8161594855472 -164.00996205272995 0.0 0.0
-441.64536985389486 -42.070391237349014 -239.8055992973759 -165.47964991175334 0.0 0.0
-385.0056183278873 -40.653844664742024 -228.97637695596723 -166.3599640984538 0.0 0.0
-205.5583443366038 -34.17469551108016 -159.2278304764518 -168.39362398888807 0.0 0.0
15.47561183703516 -172.0963705399388 -64.72382157612056 -140.39644880237856 0.0 0.0
15.47561183640147 -172.09637054107145 -64.72382157665214 140.39644880267952 0.0 0.0
-205.55834433708037 -34.174695511766345 -159.2278304767525 168.39362398932371 0.0 0.0
-385.00561832769165 -40.653844664449906 -228.97637695574053 166.3599640986809 0.0 0.0
-441.6453698537167 -42.07039123730689 -239.80559929722773 165.47964991184435 0.0 0.0
-448.66280247072734 -29.124395445210723 -228.8161594851141 164.0099620526628 0.0 0.0
-435.10314746270694 -18.355810078041486 -209.9632622635544 163.68795282939712 0.0 0.0
-411.01622799318307 -11.314293017461281 -187.71233280052104 165.99306817930045 0.0 0.0
-376.47636670008103 -8.134692124038239 -162.44717248741568 170.57726774492866 0.0 0.0
-331.6833291343838 -7.345762199830041 -134.26364370023612 176.22266167156835 0.0 0.0
-281.30327725717166 -6.5549431430924585 -105.55220872797256 184.5248614665212 0.0 0.0
-219.9486267593561 -4.777231883566998 -76.69749873340186 198.4458465960277 0.0 0.0
-153.1760286049665 -3.2006178447243414 -51.40433226013528 210.98686231585975 0.0 0.0
-99.78205445350794 0.3183978147494173 -31.77666002460137 218.1105034373067 0.0 0.0
-67.48533304147529 2.7238558181733064 -20.174560721137993 212.10435107168615 0.0 0.0
-49.31624189690493 7.752425204024407 -12.644522129589582 198.98002456433173 0.0 0.0
-42.1919545260754 14.503705702527183 -8.319148148418588 184.91816434393965 0.0 0.0
-44.92307508801177 17.2584299675838 -8.302940107359717 178.26755705951462 0.0 0.0
-52.397301571339725 3.931119915928544 -14.540911793951977 180.67693615010873 0.0 0.0
-52.666764826012965 -54.87359087798198 -32.26023279526373 184.29037806088843 0.0 0.0
-18.287817463457994 -244.7911757503588 -78.92628814340998 132.2280104517081 0.0 0.0
-24.50058967285534 -199.58623396270548 -67.22604709066823 -119.31576666551331 0.0 0.0
-65.27786291271687 -53.69318364884153 -35.689709705158386 -180.27095766214097 0.0 0.0
-81.24300020359405 2.9461646549282143 -23.49157960999701 -180.62618967192284 0.0 0.0
-91.17887923400518 17.52834257235376 -22.0931269166751 -177.77155755063467 0.0 0.0
-108.09604337999346 17.187558452617225 -27.36280568137227 -181.5011733677124 0.0 0.0
-141.02768899676732 11.225954966640858 -39.58523952563086 -191.87479943320778 0.0 0.0
-198.81356815815815 5.299248794067312 -60.479656219725236 -200.00329074828358 0.0 0.0
-290.7311418948941 0.6184823162159798 -96.08640374070305 -197.3718630854417 0.0 0.0
-395.49794651918717 -4.380734802138299 -146.77942666584062 -184.96249806758675 0.0 0.0
-477.98431208639664 -10.461727969697936 -200.0873501132374 -171.25942914958483 0.0 0.0
-536.3293326399445 -16.479223499205887 -245.03196871482282 -163.09691124988478 0.0 0.0
-579.3186470114531 -19.984540858251876 -278.5360252780221 -157.67915277100383 0.0 0.0
-616.3279482275092 -25.240569499456143 -306.705584133261 -153.21946553194593 0.0 0.0
-650.47265397795 -32.419149602976745 -331.9386136531492 -150.27781084932585 0.0 0.0
-683.0260423022827 -42.93966113202603 -356.37117243894033 -149.6191793525695 0.0 0.0
-713.1163951724186 -57.453402747764 -380.46499857859544 -151.88354035463414 0.0 0.0
-736.7017238318485 -74.20965123209294 -402.2039824841768 -157.59098706425533 0.0 0.0
-748.4951425364345 -89.62470222649813 -417.5640059011163 -166.59685796712333 0.0 0.0
-785.3438970635063 -144.44865520424784 -463.8753042845171 -175.69795435819998 0.0 0.0
-770.5179817319975 -219.1172077267638 -493.9040210481387 -191.34532646908673 0.0 0.0
-770.5179817322482 -219.1172077273052 -493.9040210483833 191.34532646942642 0.0 0.0
-785.3438970641215 -144.44865520515418 -463.87530428498695 175.69795435860644 0.0 0.0
-748.4951425355979 -89.62470222604068 -417.5640059006571 166.5968579674384 0.0 0.0
-736.7017238315146 -74.209651231695 -402.20398248391433 157.5909870643302 0.0 0.0
-713.1163951724977 -57.45340274807516 -380.46499857863785 151.88354035463763 0.0 0.0
-683.0260423027364 -42.9396611328537 -356.37117243923615 149.6191793527045 0.0 0.0
-650.4726539779538 -32.41914960315927 -331.93861365317684 150.27781084935398 0.0 0.0
-616.3279482274793 -25.240569499664403 -306.7055841332765 153.21946553198546 0.0 0.0
-579.3186470112539 -19.984540858334647 -278.53602527782533 157.6791527710409 0.0 0.0
-536.329332639433 -16.479223499045112 -245.03196871443384 163.0969112498375 0.0 0.0
-477.9843120859388 -10.461727969672715 -200.08735011288104 171.25942914953936 0.0 0.0
-395.49794651839557 -4.380734801753215 -146.7794266653452 184.96249806760306 0.0 0.0
-290.731141894377 0.6184823161545605 -96.08640374050643 197.3718630854823 0.0 0.0
-198.81356815780512 5.2992487939431 -60.479656219641754 200.0032907481853 0.0 0.0
-141.02768899659202 11.225954966292091 -39.58523952567944 191.87479943301054 0.0 0.0
-108.09604337989745 17.187558452383335 -27.362805681414788 181.50117336750068 0.0 0.0
-91.17887923380522 17.528342572501863 -22.093126916572132 177.77155755050944 0.0 0.0
-81.24300020349979 2.9461646549538427 -23.491579609964248 180.62618967184702 0.0 0.0
-65.2778629127295 -53.693183648865315 -35.68970970517054 180.2709576620411 0.0 0.0
-24.50058967283426 -199.58623396254242 -67.226047090613 119.31576666531475 0.0 0.0
-26.420038992929882 -157.50663468777623 -55.17800210421183 -105.6154410403785 0.0 0.0
-75.72509998858138 -50.03714723284067 -37.727489557648994 -172.18124576727058 0.0 0.0
-108.29996463558395 2.1081191332536244 -31.853107559858202 -176.37736707423431 0.0 0.0
-135.68708276678078 17.394997977823458 -35.48231291921002 -172.59287825733975 0.0 0.0
-172.32732435288756 18.582862336259602 -46.34022039199084 -172.85698227172583 0.0 0.0
-229.42331642473732 13.538975441543155 -66.05027217173294 -177.34637842944812 0.0 0.0
-319.0660788219366 9.018751398189156 -100.22426975338337 -177.80121183567013 0.0 0.0
-427.45305053844135 1.451883770199906 -156.28165808043724 -167.0488082241155 0.0 0.0
-519.7448473268847 -8.714394464742867 -220.946665781064 -156.05099653821563 0.0 0.0
-588.686807634869 -19.70398739263267 -277.248106597489 -149.2391236355912 0.0 0.0
-641.3336708332163 -27.453469891144508 -318.3680826224844 -145.26656701924483 0.0 0.0
-684.7093140997388 -35.19896782693332 -350.13141642779306 -141.06082075274185 0.0 0.0
-724.5003263406484 -43.578808688577865 -377.5047897184181 -137.04579254964636 0.0 0.0
-762.9355378823184 -53.71082991076847 -403.5133832049923 -134.08669657362177 0.0 0.0
-801.8363263443812 -67.55742124344223 -430.7977211298291 -133.33859272185683 0.0 0.0
-840.3310760466585 -86.08421231069094 -459.86307905545857 -136.02346601518647 0.0 0.0
-875.6064550564166 -107.6179717650268 -488.83151576815226 -142.4782278224058 0.0 0.0
-915.5967141820304 -141.42781844270183 -526.2828740832442 -149.74329159058158 0.0 0.0
-959.0438920919858 -191.3318187905812 -573.5954668225061 -156.75354724118165 0.0 0.0
-1037.8058451700356 -314.16607438934835 -672.3166080092216 -167.80576450102816 0.0 0.0
-1037.8058451699317 -314.16607438938007 -672.3166080092024 167.80576450123655 0.0 0.0
-959.0438920911488 -191.33181878989114 -573.5954668219308 156.75354724142682 0.0 0.0
-915.5967141819507 -141.42781844286822 -526.282874083236 149.74329159088194 0.0 0.0
-875.6064550556459 -107.61797176445097 -488.83151576764345 142.47822782254048 0.0 0.0
-840.3310760465044 -86.08421231061483 -459.86307905533636 136.02346601517297 0.0 0.0
-801.8363263449482 -67.55742124415552 -430.79772113019226 133.3385927218762 0.0 0.0
-762.9355378824623 -53.71082991118824 -403.5133832050744 134.08669657377774 0.0 0.0
-724.5003263409684 -43.57880868923335 -377.5047897186477 137.0457925498304 0.0 0.0
-684.7093140986474 -35.198967825979466 -350.13141642710417 141.06082075263413 0.0 0.0
-641.333670832491 -27.45346989056574 -318.3680826219618 145.2665670191129 0.0 0.0
-588.6868076348194 -19.703987392921327 -277.24810659740257 149.23912363552583 0.0 0.0
-519.7448473264833 -8.714394464762895 -220.9466657807726 156.0509965382389 0.0 0.0
-427.4530505376861 1.4518837706420316 -156.28165807991377 167.04880822408333 0.0 0.0
-319.06607882100997 9.018751398837239 -100.22426975287635 177.80121183558427 0.0 0.0
-229.4233164240993 13.538975441998263 -66.05027217140352 177.34637842920773 0.0 0.0
-172.32732435268858 18.58286233601462 -46.3402203920073 172.85698227153188 0.0 0.0
-135.6870827666336 17.394997977647314 -35.482312919222636 172.59287825715512 0.0 0.0
-108.299964635423 2.108119133365862 -31.85310755977749 176.37736707396917 0.0 0.0
-75.72509998855666 -50.03714723280639 -37.72748955763165 172.1812457670332 0.0 0.0
-26.4200389929022 -157.50663468766183 -55.178002104169195 105.61544104022906 0.0 0.0
-27.22657282037858 -119.30968953789377 -43.9608787074817 -91.59458891639255 0.0 0.0
-84.72390396295172 -44.30330774770532 -38.70816351319711 -160.03716443573813 0.0 0.0
-133.58927365780454 1.4761913577243506 -39.63113275758733 -167.80236132527295 0.0 0.0
-178.42803659609302 16.4502970772639 -48.601048758672576 -162.935833850305 0.0 0.0
-233.77638914066497 18.645870767120808 -64.86871922340087 -158.88333911445872 0.0 0.0
-312.06221861387326 16.41038020936337 -91.82275502829167 -157.45655119254204 0.0 0.0
-416.97642199330113 11.13640459520444 -140.49493936710758 -149.14045964708416 0.0 0.0
-517.1520252034994 -0.8984936498366523 -209.59990540063905 -137.97720166661543 0.0 0.0
-597.0663785962156 -14.549647985300837 -276.13645928194956 -132.89769654855147 0.0 0.0
-659.7292463661553 -27.509007705224825 -327.6346557076488 -130.51734829871825 0.0 0.0
-711.0377493324356 -38.426272562519976 -365.630439427425 -128.0282844973077 0.0 0.0
-757.879228372738 -49.99766521302742 -398.0884538335239 -124.57455097316084 0.0 0.0
-801.5811962332903 -61.7432948937449 -427.38524872626635 -120.78485018966848 0.0 0.0
-844.1772751754218 -75.11338694351632 -456.1808292032705 -117.66941047373744 0.0 0.0
-887.4397101600887 -91.72165080974864 -486.51185018795434 -116.68565416991821 0.0 0.0
-933.0600941286656 -114.59546555294051 -520.9800994091028 -119.3251623141058 0.0 0.0
-982.2150942826717 -146.37937605005544 -561.6637670705996 -125.14732391724249 0.0 0.0
-1036.2633358596331 -190.01307165329774 -610.8538101511305 -131.42514569275616 0.0 0.0
-1103.2744430830458 -258.09430734289447 -678.4042515577776 -135.25970730417419 0.0 0.0
-1191.6536371976727 -380.2179776398694 -782.7310811021914 -142.86554808623447 0.0 0.0
-1191.6536371974034 -380.2179776397403 -782.7310811020889 142.86554808643928 0.0 0.0
-1103.2744430824273 -258.09430734232956 -678.4042515574013 135.25970730427372 0.0 0.0
-1036.263335858945 -190.0130716527085 -610.853810150621 131.42514569289116 0.0 0.0
-982.2150942823782 -146.37937604986422 -561.6637670703217 125.14732391730863 0.0 0.0
-933.060094128168 -114.59546555256064 -520.9800994086767 119.32516231410277 0.0 0.0
-887.4397101595732 -91.72165080931016 -486.51185018753506 116.68565416989179 0.0 0.0
-844.1772751744448 -75.11338694272591 -456.1808292026287 117.669410473836 0.0 0.0
-801.5811962327973 -61.74329489344102 -427.3852487259216 120.78485018972125 0.0 0.0
-757.8792283726326 -49.997665213260106 -398.0884538334452 124.5745509732996 0.0 0.0
-711.0377493321657 -38.42627256253778 -365.6304394272063 128.0282844973456 0.0 0.0
-659.7292463663008 -27.509007705768905 -327.6346557077088 130.5173482987421 0.0 0.0
-597.0663785953969 -14.549647984676342 -276.13645928129006 132.89769654844022 0.0 0.0
-517.1520252029347 -0.8984936496546263 -209.59990540019248 137.97720166661065 0.0 0.0
-416.97642199277897 11.136404595180585 -140.49493936682174 149.14045964714214 0.0 0.0
-312.06221861360376 16.41038020890724 -91.82275502832711 157.45655119249483 0.0 0.0
-233.77638914039417 18.645870767102988 -64.86871922332769 158.88333911432437 0.0 0.0
-178.4280365958786 16.450297077234456 -48.60104875862162 162.93583385010487 0.0 0.0
-133.58927365768727 1.4761913576610075 -39.63113275757192 167.80236132510365 0.0 0.0
-84.7239039627713 -44.30330774751209 -38.70816351308501 160.03716443553532 0.0 0.0
-27.226572820334408 -119.30968953779784 -43.96087870743967 91.59458891623454 0.0 0.0
-27.890777498809413 -85.51089927167226 -34.0205030311445 -77.27145055084931 0.0 0.0
-92.96624251170289 -37.12830563184413 -39.028364443064106 -144.24491517128342 0.0 0.0
-157.32955495528728 1.149319731598565 -46.852838311091965 -154.92117475619793 0.0 0.0
-219.5911112904413 14.651438845828125 -61.45878121379029 -148.7927040569957 0.0 0.0
-292.33065094180165 18.531831014568365 -82.59222678119296 -141.09397515558237 0.0 0.0
-386.7454589718575 18.522699161406685 -118.35173446216146 -132.37272531364493 0.0 0.0
-491.12792697141754 10.2533643004565 -180.23541651433405 -119.7278455335396 0.0 0.0
-580.4666284165824 -4.203768249414239 -254.03675336760756 -113.1981467420644 0.0 0.0
-652.2859631804154 -19.687683085626034 -316.2856512877365 -112.54757193139125 0.0 0.0
-712.3460469556429 -34.274006191974046 -363.15026301376554 -112.27385813652985 0.0 0.0
-766.2866124199095 -49.04840929801199 -401.604520913059 -110.61754090965722 0.0 0.0
-816.743003558453 -64.44775407454577 -436.3311584397095 -107.62619750022024 0.0 0.0
-864.6223012869157 -80.17916782703685 -469.041353111965 -104.18692654354108 0.0 0.0
-911.046757393729 -96.50482030457533 -500.9260181275505 -101.14564512084091 0.0 0.0
-958.6294078645969 -115.90727029447584 -534.6508572234285 -99.80078059285808 0.0 0.0
-1011.2309930844358 -144.05419265529403 -575.0665538388579 -101.62794689133291 0.0 0.0
-1072.5310236343366 -185.1305498659009 -626.3230740213655 -106.69377609130476 0.0 0.0
-1143.0338519189768 -242.6962603895228 -690.4735176879342 -111.89025548804129 0.0 0.0
-1223.59751643304 -323.1679937826127 -770.9793435619256 -114.97510275825712 0.0 0.0
-1305.7999083826273 -436.8266108335421 -868.5917901116013 -124.50717077325052 0.0 0.0
-1305.799908382865 -436.8266108338469 -868.5917901118648 124.50717077338804 0.0 0.0
-1223.5975164329311 -323.1679937826186 -770.979343561896 114.97510275846112 0.0 0.0
-1143.0338519180034 -242.69626038865533 -690.4735176872186 111.89025548822568 0.0 0.0
-1072.5310236335108 -185.13054986523707 -626.3230740208273 106.69377609146161 0.0 0.0
-1011.2309930839901 -144.0541926549132 -575.0665538385963 101.62794689128498 0.0 0.0
-958.6294078643451 -115.90727029433063 -534.6508572233349 99.80078059277898 0.0 0.0
-911.0467573936031 -96.50482030461453 -500.92601812747466 101.14564512092028 0.0 0.0
-864.6223012870599 -80.17916782742655 -469.0413531120195 104.18692654367405 0.0 0.0
-816.7430035577604 -64.44775407412982 -436.3311584392941 107.6261975003278 0.0 0.0
-766.2866124196503 -49.048409297924664 -401.6045209129122 110.61754090952647 0.0 0.0
-712.3460469557862 -34.274006192416806 -363.1502630138576 112.27385813653814 0.0 0.0
-652.2859631801168 -19.68768308571118 -316.285651287542 112.54757193148143 0.0 0.0
-580.466628415613 -4.2037682487168 -254.03675336689867 113.19814674203201 0.0 0.0
-491.12792697049883 10.253364301174182 -180.23541651363544 119.72784553335674 0.0 0.0
-386.7454589711566 18.52269916184231 -118.35173446175766 132.37272531345866 0.0 0.0
-292.330650941502 18.53183101447453 -82.59222678113849 141.0939751554566 0.0 0.0
-219.5911112901543 14.651438845988679 -61.4587812136585 148.7927040569376 0.0 0.0
-157.32955495504558 1.1493197317603205 -46.85283831097151 154.92117475612335 0.0 0.0
-92.96624251169595 -37.128305632005855 -39.02836444311053 144.244915171198 0.0 0.0
-27.890777498790197 -85.5108992716381 -34.020503031128484 77.27145055074043 0.0 0.0
-28.60428531160064 -56.568995982285315 -25.551984388165785 -62.53566059100742 0.0 0.0
-100.64327117073505 -29.078414047714592 -38.916505565534884 -125.22184035515527 0.0 0.0
-179.76787035022915 1.0170700797294439 -53.623052975329415 -137.8378433694799 0.0 0.0
-258.52299021709484 11.90649773282035 -73.98667329484074 -130.275333414794 0.0 0.0
-346.2713219309045 18.920015437798682 -99.66448570287241 -119.41761707604552 0.0 0.0
-450.6098663164395 18.51375182623271 -146.21711969784803 -104.84241483291406 0.0 0.0
-547.5692633955854 8.277915519839496 -217.04313953179604 -93.16282276804175 0.0 0.0
-626.9212854941344 -7.7606666917409015 -289.43304418104725 -91.31660729874302 0.0 0.0
-694.2975543030499 -23.48809062520776 -345.5499635176598 -93.03546937015226 0.0 0.0
-755.5073999643989 -40.79466141975727 -391.0853186551226 -93.72024540360576 0.0 0.0
-812.7850461619335 -59.38859598336478 -431.50793205856525 -92.59577097598773 0.0 0.0
-867.1226317748906 -78.76212904127871 -469.4598684860016 -90.10816566755148 0.0 0.0
-919.4248488433982 -98.51967556465283 -506.10529232382163 -87.25462737140165 0.0 0.0
-969.7978941743429 -118.53208465503685 -541.6836929481557 -84.43801783324652 0.0 0.0
-1021.1219603371419 -140.77877008402592 -578.6367565405916 -82.56970044369405 0.0 0.0
-1080.29555315678 -173.2243808439187 -624.4005386232035 -83.24213381205927 0.0 0.0
-1152.4232206169343 -223.77362347822577 -685.6579705181307 -87.04900557260588 0.0 0.0
-1237.5088938181136 -294.8887161397542 -763.7691665172586 -91.99460348162874 0.0 0.0
-1326.406686730059 -383.66282957152396 -852.6553260584989 -96.90071459899849 0.0 0.0
-1404.831520308051 -492.10575878597547 -946.1107902544045 -110.5661262343973 0.0 0.0
-1404.8315203078957 -492.1057587858843 -946.1107902542997 110.56612623454237 0.0 0.0
-1326.4066867300655 -383.6628295716366 -852.6553260585097 96.90071459922001 0.0 0.0
-1237.5088938179256 -294.8887161396584 -763.769166517169 91.99460348171291 0.0 0.0
-1152.4232206172094 -223.77362347860355 -685.6579705182695 87.04900557267156 0.0 0.0
-1080.2955531565583 -173.22438084382944 -624.4005386229148 83.24213381215597 0.0 0.0
-1021.1219603365269 -140.7787700835777 -578.6367565400423 82.56970044378339 0.0 0.0
-969.7978941742863 -118.53208465512863 -541.6836929480719 84.43801783323829 0.0 0.0
-919.4248488436253 -98.51967556509275 -506.1052923239755 87.25462737149498 0.0 0.0
-867.122631774356 -78.76212904099634 -469.4598684856612 90.10816566763697 0.0 0.0
-812.7850461610115 -59.388595982575254 -431.50793205790734 92.59577097581158 0.0 0.0
-755.5073999638954 -40.79466141951788 -391.08531865477266 93.72024540357776 0.0 0.0
-694.2975543025636 -23.488090625032708 -345.549963517269 93.0354693701719 0.0 0.0
-626.9212854937566 -7.7606666916607985 -289.4330441806996 91.31660729873057 0.0 0.0
-547.569263394842 8.277915520249381 -217.04313953122866 93.16282276804758 0.0 0.0
-450.6098663158931 18.513751826402896 -146.21711969750973 104.84241483284438 0.0 0.0
-346.27132193055934 18.92001543768447 -99.66448570280502 119.41761707593355 0.0 0.0
-258.52299021691306 11.906497732675287 -73.98667329483581 130.27533341468973 0.0 0.0
-179.76787034996073 1.0170700798646504 -53.62305297520916 137.83784336939607 0.0 0.0
-100.6432711706582 -29.078414047663355 -38.91650556549645 125.22184035510617 0.0 0.0
-28.604285311534124 -56.56899598217636 -25.55198438811314 62.535660590979674 0.0 0.0
-29.131594016621758 -32.91001779474675 -18.612483543410548 -47.32010128014693 0.0 0.0
-107.47739471807877 -20.670569854543224 -38.44438937178659 -103.32291748622774 0.0 0.0
-201.03075696679426 0.926707119074238 -60.031214954316 -116.53990664219178 0.0 0.0
-296.050867409443 8.730533794752295 -86.22818725360347 -108.10082456298845 0.0 0.0
-398.59835830595716 19.219853611520193 -117.26589325794677 -94.37253999009108 0.0 0.0
-502.10944013836 17.420043650878362 -174.1912262689764 -77.36942058286327 0.0 0.0
-588.0225442168156 4.702493103558659 -249.50286731267275 -69.66965062184451 0.0 0.0
-661.9180947872115 -9.629439965619824 -315.7433182395972 -71.0263930020645 0.0 0.0
-728.9884084628281 -26.89877065993265 -368.52401573112627 -73.45306578209477 0.0 0.0
-792.288903109255 -47.28440255962259 -414.44939932613954 -74.58514723424688 0.0 0.0
-852.8571406426622 -69.39562329272553 -457.3783313850714 -73.91354379447739 0.0 0.0
-911.4403156903945 -92.80632391569287 -499.122284077569 -72.0114989532733 0.0 0.0
-968.1171864062869 -116.80544719085917 -539.9076786683172 -69.76819224442882 0.0 0.0
-1023.7262157239985 -141.34399306636644 -580.2920557111631 -67.50422401224702 0.0 0.0
-1079.314933893442 -167.18887216688412 -621.1708769672248 -65.26139303997199 0.0 0.0
-1141.4487977997378 -202.0989105874204 -669.6149636334635 -64.24137606893834 0.0 0.0
-1222.3616229571721 -259.7694014158267 -738.6904014744 -66.56892966520745 0.0 0.0
-1320.1932804580724 -342.6140005227377 -828.9767433558293 -72.09756664676584 0.0 0.0
-1419.2519498921197 -441.46361556813304 -928.0314685586194 -80.40559200593114 0.0 0.0
-1498.7283350092152 -549.9396279562183 -1022.2309019264146 -99.06888126282016 0.0 0.0
-1498.7283350089888 -549.9396279560572 -1022.2309019262448 99.06888126295594 0.0 0.0
-1419.2519498914917 -441.4636155675739 -928.0314685581006 80.40559200608244 0.0 0.0
-1320.1932804576138 -342.61400052237997 -828.9767433554193 72.0975666469411 0.0 0.0
-1222.3616229564664 -259.76940141521743 -738.6904014738798 66.56892966524752 0.0 0.0
-1141.4487977985852 -202.09891058634088 -669.6149636326458 64.2413760688556 0.0 0.0
-1079.3149338933508 -167.18887216690197 -621.1708769671606 65.26139303990779 0.0 0.0
-1023.7262157238421 -141.3439930663728 -580.2920557109419 67.50422401227031 0.0 0.0
-968.1171864058872 -116.8054471906451 -539.9076786679861 69.76819224448212 0.0 0.0
-911.440315690578 -92.80632391611051 -499.12228407762353 72.01149895332355 0.0 0.0
-852.857140642413 -69.39562329267405 -457.3783313848721 73.9135437943634 0.0 0.0
-792.288903108393 -47.284402558966505 -414.44939932556747 74.58514723413155 0.0 0.0
-728.9884084622129 -26.898770659548724 -368.5240157307097 73.453065782 0.0 0.0
-661.9180947870566 -9.62943996576125 -315.743318239412 71.0263930019828 0.0 0.0
-588.0225442163422 4.702493103711298 -249.50286731223306 69.66965062181293 0.0 0.0
-502.10944013776657 17.420043651049568 -174.19122626858555 77.36942058296516 0.0 0.0
-398.5983583055447 19.21985361154288 -117.26589325780236 94.37253999004284 0.0 0.0
-296.05086740900776 8.730533795071123 -86.22818725338611 108.10082456288563 0.0 0.0
-201.03075696660397 0.9267071190093854 -60.03121495427837 116.53990664194626 0.0 0.0
-107.47739471793334 -20.67056985445649 -38.44438937171694 103.3229174859886 0.0 0.0
-29.131594016617488 -32.91001779472967 -18.612483543404146 47.32010128000815 0.0 0.0
-28.832642069982647 -14.941915903971404 -13.132367392186215 -31.753544894387908 0.0 0.0
-112.58107992407531 -12.329345574835854 -37.473127649673344 -78.74086120544266 0.0 0.0
-221.3851452952376 0.4826694810553809 -66.27074274425465 -90.94385768719835 0.0 0.0
-333.10367403299426 6.622372813028768 -97.98107393358197 -82.50920647544879 0.0 0.0
-445.92593623279373 19.14142996107048 -135.83667784952186 -66.76400714213369 0.0 0.0
-542.8139244353757 14.132245363483683 -202.47356254019658 -52.238976408144424 0.0 0.0
-620.4715247738047 2.115764842892453 -276.54203712408423 -48.80894238282973 0.0 0.0
-690.4391287985621 -11.002761432516735 -336.18366279583665 -50.907637772533676 0.0 0.0
-758.117964134492 -30.382627313864063 -387.27962879225845 -53.51353183691535 0.0 0.0
-823.8818343757572 -53.56732646662029 -434.4428028544612 -54.836798412728 0.0 0.0
-888.0905754664309 -79.18630159142191 -480.4160721018125 -54.568149498317766 0.0 0.0
-950.6966367182845 -106.50988685612205 -525.9322377670301 -53.25134007293917 0.0 0.0
-1012.3873298621211 -134.84309905710754 -571.2931324777026 -51.71654320135561 0.0 0.0
-1073.3287021717342 -164.68263949044405 -616.9203875306669 -50.048168892561456 0.0 0.0
-1134.5296224720396 -196.01393298525386 -663.337464584785 -47.91526783493155 0.0 0.0
-1199.3393586314846 -232.740319174548 -714.0978593255538 -45.49796771819085 0.0 0.0
-1279.0654887166997 -288.34927381991685 -781.4760205381154 -45.599717542037205 0.0 0.0
-1389.9211434338702 -383.0849702806579 -884.0516272947045 -51.60741814371395 0.0 0.0
-1505.1624374579453 -497.0804642234054 -998.8423595033087 -64.3145295868418 0.0 0.0
-1595.905449461143 -614.8955426820469 -1103.484743245955 -88.73915308288832 0.0 0.0
-1595.9054494610054 -614.8955426819459 -1103.4847432457718 88.73915308297886 0.0 0.0
-1505.1624374580315 -497.08046422355187 -998.842359503276 64.31452958692498 0.0 0.0
-1389.9211434334359 -383.08497028030547 -884.0516272943107 51.60741814383529 0.0 0.0
-1279.0654887162461 -288.3492738195598 -781.4760205376635 45.59971754209502 0.0 0.0
-1199.3393586305588 -232.74031917372506 -714.0978593247683 45.497967718212806 0.0 0.0
-1134.5296224704334 -196.01393298375777 -663.3374645836582 47.91526783491522 0.0 0.0
-1073.3287021708652 -164.68263948973708 -616.9203875300885 50.04816889264062 0.0 0.0
-1012.387329861173 -134.84309905634808 -571.2931324770328 51.71654320142883 0.0 0.0
-950.6966367176504 -106.50988685568397 -525.932237766579 53.25134007291476 0.0 0.0
-888.090575465904 -79.18630159109858 -480.4160721014472 54.56814949821819 0.0 0.0
-823.8818343753898 -53.56732646649083 -434.44280285421064 54.83679841264531 0.0 0.0
-758.1179641338881 -30.382627313517393 -387.27962879184525 53.51353183686878 0.0 0.0
-690.4391287978433 -11.002761432080753 -336.18366279533404 50.90763777252293 0.0 0.0
-620.4715247732734 2.1157648431371214 -276.5420371236101 48.808942382686446 0.0 0.0
-542.8139244352454 14.132245363204635 -202.47356254000226 52.23897640812646 0.0 0.0
-445.9259362326222 19.141429960750035 -135.83667784949793 66.76400714217294 0.0 0.0
-333.1036740328525 6.622372812643216 -97.98107393366267 82.5092064754044 0.0 0.0
-221.38514529523 0.4826694807048302 -66.27074274435753 90.94385768715566 0.0 0.0
-112.58107992398978 -12.329345574890699 -37.47312764966414 78.74086120529961 0.0 0.0
-28.83264206996857 -14.94191590399015 -13.132367392187614 31.753544894293963 0.0 0.0
-26.439058132861664 -2.999256546947469 -8.83149440394274 -16.351093645554904 0.0 0.0
-114.28184312427045 -4.612026582965511 -35.66816091217078 -51.44309452789123 0.0 0.0
-241.0763968262367 -0.3890211361934064 -72.43962538872901 -60.536807264259636 0.0 0.0
-371.60896050096954 5.86216990585683 -109.81584008865512 -53.609456616973084 0.0 0.0
-485.85531804589687 19.036884777148003 -155.2759071604256 -39.260001096220954 0.0 0.0
-572.0768715045916 9.101800508341753 -229.37940069888583 -29.56874783163926 0.0 0.0
-645.5660028865742 1.3042879514196883 -297.13923456778844 -29.071258587099265 0.0 0.0
-714.1852150759663 -12.988472082250013 -352.86652163267576 -30.934353262898522 0.0 0.0
-782.4880122985571 -33.726086834495774 -402.7164795650825 -33.139583263943706 0.0 0.0
-850.9672309287121 -59.61377777413685 -451.69826234838024 -34.423762682146865 0.0 0.0
-918.9839733297999 -88.7927462415633 -501.04407916794713 -34.52494833046904 0.0 0.0
-986.1279810594825 -119.82243912358028 -550.5560452859958 -33.85847709165189 0.0 0.0
-1052.4893034850502 -152.90533119878296 -600.5537815038405 -32.935043203859564 0.0 0.0
-1119.367704299834 -188.03028761922062 -651.7337518961679 -31.931271750885706 0.0 0.0
-1187.5084481730214 -226.0008547170981 -704.9077827241181 -30.42518513892837 0.0 0.0
-1256.814038089471 -267.38486620545973 -760.3112277460623 -27.77622985202025 0.0 0.0
-1330.7087954296908 -316.9786214465791 -821.8989170258417 -25.354325438264894 0.0 0.0
-1427.8581435227604 -396.6025312525642 -909.8235430164507 -29.486208547560274 0.0 0.0
-1589.1093125099455 -553.8865237325206 -1069.1146301047806 -46.539092839927804 0.0 0.0
-1706.3643761755065 -695.1064426599613 -1198.9912720528441 -78.61875899315237 0.0 0.0
-1706.364376174826 -695.1064426593097 -1198.9912720524117 78.61875899321763 0.0 0.0
-1589.1093125096918 -553.8865237323052 -1069.114630104657 46.53909283996389 0.0 0.0
-1427.8581435230813 -396.60253125296606 -909.8235430166737 29.48620854764086 0.0 0.0
-1330.7087954297149 -316.9786214466995 -821.8989170257514 25.35432543831511 0.0 0.0
-1256.8140380884636 -267.38486620456007 -760.3112277452484 27.7762298520635 0.0 0.0
-1187.5084481721885 -226.00085471638872 -704.907782723424 30.425185138860293 0.0 0.0
-1119.367704299711 -188.03028761924153 -651.7337518960089 31.9312717508217 0.0 0.0
-1052.489303485298 -152.9053311992251 -600.5537815039909 32.93504320387724 0.0 0.0
-986.1279810594256 -119.82243912374103 -550.5560452859595 33.85847709165573 0.0 0.0
-918.9839733295671 -88.79274624156267 -501.04407916773266 34.52494833044938 0.0 0.0
-850.9672309280578 -59.613777773716734 -451.69826234792197 34.42376268205232 0.0 0.0
-782.4880122980057 -33.72608683420307 -402.7164795647061 33.139583263921764 0.0 0.0
-714.1852150754353 -12.98847208200656 -352.86652163225915 30.93435326295173 0.0 0.0
-645.5660028861976 1.3042879514773347 -297.139234567424 29.071258587062417 0.0 0.0
-572.0768715044758 9.101800508084033 -229.37940069868762 29.56874783157879 0.0 0.0
-485.85531804537214 19.036884777353094 -155.27590716011446 39.26000109628126 0.0 0.0
-371.6089605006537 5.862169905813916 -109.81584008858623 53.609456616918344 0.0 0.0
-241.07639682611244 -0.389021136225578 -72.43962538870142 60.536807264246825 0.0 0.0
-114.2818431241925 -4.612026582926009 -35.668160912135555 51.443094527891226 0.0 0.0
-26.439058132810494 -2.9992565469259187 -8.83149440392092 16.3510936455058 0.0 0.0
-19.51751206870142 2.7019528192073343 -5.044667774848226 -2.3498453982746694 0.0 0.0
-109.68817491418557 1.7348840486954007 -32.385987259647045 -20.926030023498814 0.0 0.0
-260.91734483394066 -1.8475085078077456 -78.82945600252451 -24.209206260019144 0.0 0.0
-411.4733810663056 7.611165185179133 -122.16800730536734 -21.76383588448487 0.0 0.0
-520.4107011426273 16.635967341810723 -176.8569188803015 -13.514851042817554 0.0 0.0
-598.2173962374771 6.328890402342751 -252.78877426161878 -9.647675211744541 0.0 0.0
-665.9513161117576 -0.03141573770550821 -313.8680181153935 -9.781570264530046 0.0 0.0
-733.7087814982901 -15.028163154089398 -366.278590167067 -10.933998391972509 0.0 0.0
-803.0300308744365 -37.18395848515047 -415.7895168612767 -12.348653359872522 0.0 0.0
-874.2030510904069 -65.46963248867036 -466.74649922039913 -13.343375806076088 0.0 0.0
-946.0934646872727 -97.84150964192264 -519.4097244382828 -13.779660001374943 0.0 0.0
-1017.6858659533377 -133.38752465651606 -573.314288242105 -13.718519312982016 0.0 0.0
-1089.215665507452 -170.75225651722016 -627.9868406485198 -13.49175254365316 0.0 0.0
-1161.9075233556375 -210.97977487033745 -684.5842749953476 -13.129085170492234 0.0 0.0
-1236.8913471049668 -255.56051530268155 -744.4499137189903 -12.38166930881049 0.0 0.0
-1313.34794958061 -304.3408537094687 -807.1207980110714 -10.828633297505036 0.0 0.0
-1387.6448048877824 -354.8953033386518 -869.53784607909 -8.111785840267508 0.0 0.0
-1460.6445113294612 -409.9586988955302 -933.3238063534363 -7.341423788880142 0.0 0.0
-1567.221478228323 -508.5129153147359 -1035.2925689550557 -22.291466963969867 0.0 0.0
-1903.8235828774336 -861.4281271623494 -1380.8776639282428 -63.9998667561121 0.0 0.0
-1903.8235828775996 -861.4281271625302 -1380.8776639283558 63.999866756119275 0.0 0.0
-1567.221478228183 -508.5129153146357 -1035.2925689549154 22.29146696402114 0.0 0.0
-1460.644511328907 -409.958698895047 -933.3238063529095 7.34142378888201 0.0 0.0
-1387.6448048871919 -354.8953033381503 -869.5378460786544 8.111785840250928 0.0 0.0
-1313.3479495810357 -304.3408537100149 -807.1207980114096 10.82863329754782 0.0 0.0
-1236.891347104627 -255.560515302469 -744.4499137186867 12.381669308723925 0.0 0.0
-1161.9075233553742 -210.97977487023704 -684.5842749950864 13.129085170514083 0.0 0.0
-1089.2156655072315 -170.75225651717992 -627.9868406482682 13.491752543671058 0.0 0.0
-1017.6858659526299 -133.38752465602062 -573.3142882415189 13.718519312941918 0.0 0.0
-946.0934646865647 -97.84150964144348 -519.4097244377713 13.779660001342295 0.0 0.0
-874.2030510899998 -65.46963248851318 -466.7464992200977 13.343375806053006 0.0 0.0
-803.0300308738747 -37.183958484860625 -415.78951686088965 12.348653359936344 0.0 0.0
-733.708781497985 -15.02816315407373 -366.2785901668613 10.933998391901966 0.0 0.0
-665.9513161116543 -0.031415737890860385 -313.8680181152782 9.781570264564422 0.0 0.0
-598.2173962368894 6.3288904026376045 -252.78877426114155 9.647675211811617 0.0 0.0
-520.4107011420389 16.635967342101512 -176.85691887990407 13.514851042905685 0.0 0.0
-411.4733810659045 7.611165185247852 -122.16800730523639 21.7638358843853 0.0 0.0
-260.91734483377184 -1.8475085078451787 -78.82945600248509 24.209206260046898 0.0 0.0
-109.68817491426354 1.7348840484667818 -32.385987259739025 20.926030023443303 0.0 0.0
-19.517512068647243 2.701952819201196 -5.044667774833814 2.349845398193538 0.0 0.0
SCALARS Strain float 6
LOOKUP_TABLE default
0.010495403219137073 -0.011566041736305543 0.0 -0.006341661682600447 0.0 0.0
0.0021848374327615074 -0.0012479561768936054 0.0 0.0010658785464170706 0.0 0.0
0.0017650487010362828 -0.0007223016639096302 0.0 -5.3328488061388235e-05 0.0 0.0
0.002165748334787738 -0.0010051403011600568 0.0 -0.0001924035833326676 0.0 0.0
0.003163581457654106 -0.001772152108820424 0.0 -0.00023370963009824997 0.0 0.0
0.005204003398087437 -0.003520851280503612 0.0 -0.0003388349377061728 0.0 0.0
0.008430941525410768 -0.006474364862916193 0.0 -0.0005218275995492738 0.0 0.0
0.013019790042202412 -0.010790451076056584 0.0 -0.0007945934756476702 0.0 0.0
0.01905791827676694 -0.016546116642845776 0.0 -0.0011667965019456494 0.0 0.0
0.026551039936876443 -0.023739039819980157 0.0 -0.001608367561802465 0.0 0.0
0.035489078963314324 -0.03236307298516694 0.0 -0.002064624708658813 0.0 0.0
0.04588718462755778 -0.04243739921107226 0.0 -0.0025254797950463037 0.0 0.0
0.057770171280925486 -0.05399146106596131 0.0 -0.0029981999300079387 0.0 0.0
0.07113389448543092 -0.06701737943415464 0.0 -0.0034838999322228947 0.0 0.0
0.08582161236144538 -0.08135310466905255 0.0 -0.00397896143777568 0.0 0.0
0.10136739795833447 -0.09653441611913305 0.0 -0.004395258534765967 0.0 0.0
0.11692131898200778 -0.11172252717888709 0.0 -0.004541169951879365 0.0 0.0
0.13128400705245052 -0.12573469264621728 0.0 -0.004177981595969993 0.0 0.0
0.14301209873745868 -0.13714341601904234 0.0 -0.003375203925041814 0.0 0.0
0.15024465482693383 -0.14397468252048418 0.0 -0.003248426235923696 0.0 0.0
0.1502446548269254 -0.14397468252047396 0.0 0.003248426235929025 0.0 0.0
0.14301209873743106 -0.13714341601901214 0.0 0.0033752039250606325 0.0 0.0
0.1312840070524051 -0.12573469264617199 0.0 0.004177981595978153 0.0 0.0
0.11692131898194918 -0.11172252717883335 0.0 0.004541169951887136 0.0 0.0
0.1013673979582716 -0.09653441611907132 0.0 0.0043952585347598605 0.0 0.0
0.08582161236137972 -0.08135310466898682 0.0 0.00397896143777321 0.0 0.0
0.0711338944853635 -0.06701737943408759 0.0 0.003483899932222312 0.0 0.0
0.057770171280859844 -0.053991461065895585 0.0 0.0029981999300079387 0.0 0.0
0.04588718462749433 -0.04243739921100964 0.0 0.0025254797950421404 0.0 0.0
0.03548907896325765 -0.03236307298511276 0.0 0.0020646247086555936 0.0 0.0
0.026551039936828974 -0.023739039819935304 0.0 0.0016083675617967197 0.0 0.0
0.019057918276729924 -0.016546116642811803 0.0 0.0011667965019440119 0.0 0.0
0.01301979004217449 -0.010790451076030605 0.0 0.0007945934756447559 0.0 0.0
0.008430941525391672 -0.006474364862898652 0.0 0.0005218275995479971 0.0 0.0
0.0052040033980751965 -0.003520851280493953 0.0 0.00033883493770514583 0.0 0.0
0.003163581457649306 -0.001772152108816205 0.0 0.0002337096300976116 0.0 0.0
0.0021657483347866657 -0.0010051403011588356 0.0 0.0001924035833313631 0.0 0.0
0.0017650487010355542 -0.0007223016639099078 0.0 5.3328488060833124e-05 0.0 0.0
0.0021848374327597397 -0.0012479561768926062 0.0 -0.0010658785464150167 0.0 0.0
0.010495403219126898 -0.011566041736292356 0.0 0.00634166168257036 0.0 0.0
0.007358983291432659 -0.008801654243339202 0.0 -0.007568351363747811 0.0 0.0
0.0012054025003345008 -0.0006339564499566186 0.0 0.00015066673430153 0.0 0.0
0.0015146729954436042 -0.0005518031842293158 0.0 -0.00013314817247922495 0.0 0.0
0.0019180457412201618 -0.0008554641504148197 0.0 -0.00044266926425723385 0.0 0.0
0.0027124827287652517 -0.0014236937164182617 0.0 -0.000538631437466297 0.0 0.0
0.00445720741053162 -0.002869421887841783 0.0 -0.0007986239652564286 0.0 0.0
0.007341588148245513 -0.005462290362476807 0.0 -0.0012704263455964315 0.0 0.0
0.011493386379560759 -0.009333900704689091 0.0 -0.0019334576499064338 0.0 0.0
0.01696431792163866 -0.014526723231935712 0.0 -0.0027888669747683226 0.0 0.0
0.023724487694459284 -0.02100066078150009 0.0 -0.0037691705268336484 0.0 0.0
0.03173693519618906 -0.028720207150538135 0.0 -0.004773023373285612 0.0 0.0
0.04101675500610072 -0.037703724890535195 0.0 -0.005748260317301024 0.0 0.0
0.051629807831185474 -0.048015275075731445 0.0 -0.006765064448685937 0.0 0.0
0.06360274271828623 -0.05967824328336668 0.0 -0.00785714622581482 0.0 0.0
0.0768070816599328 -0.07256139943546414 0.0 -0.008963748852286069 0.0 0.0
0.09084542255396817 -0.08626867674711702 0.0 -0.009902506298140767 0.0 0.0
0.10497677787012798 -0.10006597324516742 0.0 -0.010278238951984986 0.0 0.0
0.11811927847046522 -0.11288008225711188 0.0 -0.00967040364745475 0.0 0.0
0.12882738675472627 -0.12324808678182064 0.0 -0.008089212703776716 0.0 0.0
0.13525156470336736 -0.12941725829697814 0.0 -0.005398319877270186 0.0 0.0
0.13525156470335908 -0.12941725829696882 0.0 0.005398319877288893 0.0 0.0
0.12882738675470085 -0.12324808678179977 0.0 0.00808921270380869 0.0 0.0
0.11811927847042539 -0.11288008225707502 0.0 0.009670403647474957 0.0 0.0
0.1049767778700777 -0.10006597324511457 0.0 0.010278238951995755 0.0 0.0
0.09084542255391162 -0.0862686767470624 0.0 0.009902506298134606 0.0 0.0
0.07680708165987404 -0.07256139943540774 0.0 0.008963748852282016 0.0 0.0
0.06360274271822619 -0.059678243283310284 0.0 0.007857146225812128 0.0 0.0
0.051629807831127 -0.04801527507567327 0.0 0.006765064448684743 0.0 0.0
0.04101675500604399 -0.03770372489048257 0.0 0.005748260317293419 0.0 0.0
0.031736935196138155 -0.028720207150491728 0.0 0.0047730233732783955 0.0 0.0
0.02372448769441679 -0.021000660781460567 0.0 0.003769170526822685 0.0 0.0
0.016964317921605104 -0.01452672323190507 0.0 0.0027888669747643258 0.0 0.0
0.011493386379535231 -0.009333900704665332 0.0 0.0019334576499012712 0.0 0.0
0.0073415881482285505 -0.005462290362460376 0.0 0.001270426345591491 0.0 0.0
0.00445720741052133 -0.0028694218878336786 0.0 0.0007986239652542637 0.0 0.0
0.002712482728761345 -0.001423693716414931 0.0 0.0005386314374643542 0.0 0.0
0.0019180457412194263 -0.0008554641504145977 0.0 0.00044266926425587383 0.0 0.0
0.0015146729954434446 -0.000551803184229871 0.0 0.0001331481724790029 0.0 0.0
0.0012054025003343793 -0.0006339564499560912 0.0 -0.00015066673430280675 0.0 0.0
0.00735898329142029 -0.008801654243325147 0.0 0.007568351363722803 0.0 0.0
0.0054004321980461595 -0.006981067077673209 0.0 -0.00699150774404117 0.0 0.0
0.0007134519396058622 -0.00040750187185817355 0.0 -0.0005364914257680042 0.0 0.0
0.0012150989217962621 -0.00040829258126484635 0.0 -0.00042308671510218887 0.0 0.0
0.0016770391116066527 -0.0007181104911626601 0.0 -0.0006839263609828006 0.0 0.0
0.0023130528186150606 -0.0011390867166463092 0.0 -0.0008211355141782839 0.0 0.0
0.003735916107100508 -0.002262111623469787 0.0 -0.0011478878871841736 0.0 0.0
0.006256945217365716 -0.004468480502518579 0.0 -0.0018253086978783084 0.0 0.0
0.00994985494871424 -0.007875709034503853 0.0 -0.002812684195867554 0.0 0.0
0.01483467678576477 -0.012483562725587705 0.0 -0.004053278304458868 0.0 0.0
0.020851474039559482 -0.01822815758305607 0.0 -0.0054531984560796665 0.0 0.0
0.027942036485889304 -0.025047627649712245 0.0 -0.0068872814157595885 0.0 0.0
0.03611628070219064 -0.03295094822780209 0.0 -0.008283896192978951 0.0 0.0
0.04545132787715053 -0.042012074415751055 0.0 -0.00970810141891909 0.0 0.0
0.05601101562265432 -0.052290570649642376 0.0 -0.01125774405931057 0.0 0.0
0.06771284233818853 -0.06370309035192312 0.0 -0.012865817608694319 0.0 0.0
0.08023516295125638 -0.07592851962396363 0.0 -0.014228894257049984 0.0 0.0
0.09295710440182443 -0.08834805212109087 0.0 -0.014848898918073838 0.0 0.0
0.10490466154021333 -0.09998203997577582 0.0 -0.01418340005432217 0.0 0.0
0.11469204606534397 -0.10946855644388354 0.0 -0.011774303315774115 0.0 0.0
0.12073371229851192 -0.11529811505252097 0.0 -0.006999456678208615 0.0 0.0
0.12073371229850402 -0.1152981150525152 0.0 0.006999456678237537 0.0 0.0
0.11469204606532052 -0.10946855644386133 0.0 0.011774303315813306 0.0 0.0
0.10490466154017838 -0.09998203997574384 0.0 0.014183400054350925 0.0 0.0
0.09295710440178073 -0.08834805212104913 0.0 0.014848898918087605 0.0 0.0
0.08023516295120628 -0.07592851962391078 0.0 0.014228894257043434 0.0 0.0
0.06771284233813638 -0.06370309035187427 0.0 0.012865817608690433 0.0 0.0
0.05601101562260155 -0.05229057064959308 0.0 0.011257744059307018 0.0 0.0
0.04545132787709913 -0.04201207441569954 0.0 0.009708101418914317 0.0 0.0
0.0361162807021409 -0.032950948227754795 0.0 0.008283896192967044 0.0 0.0
0.027942036485844285 -0.025047627649667836 0.0 0.006887281415750568 0.0 0.0
0.020851474039521978 -0.01822815758302032 0.0 0.005453198456065733 0.0 0.0
0.01483467678573483 -0.012483562725558617 0.0 0.0040532783044510134 0.0 0.0
0.009949854948691578 -0.007875709034483647 0.0 0.00281268419586167 0.0 0.0
0.006256945217350818 -0.0044684805025050345 0.0 0.0018253086978736732 0.0 0.0
0.0037359161070922575 -0.0022621116234617933 0.0 0.0011478878871808151 0.0 0.0
0.0023130528186124377 -0.0011390867166427565 0.0 0.0008211355141775067 0.0 0.0
0.0016770391116059102 -0.0007181104911615499 0.0 0.0006839263609822732 0.0 0.0
0.0012150989217963593 -0.00040829258126534596 0.0 0.0004230867151006068 0.0 0.0
0.0007134519396059247 -0.0004075018718568413 0.0 0.0005364914257657005 0.0 0.0
0.005400432198034516 -0.006981067077660016 0.0 0.006991507744020464 0.0 0.0
0.0040434989215828235 -0.005613315047995032 0.0 -0.005930608604089144 0.0 0.0
0.00044845742104928504 -0.00030525405054698806 0.0 -0.0011185583792950315 0.0 0.0
0.0009411710547368862 -0.0002966181313804883 0.0 -0.0008041213404942071 0.0 0.0
0.001430290952779592 -0.0005876449866014655 0.0 -0.000947749525137126 0.0 0.0
0.0019596792434470878 -0.0009154926265957375 0.0 -0.0010996531768494577 0.0 0.0
0.0030735862667382943 -0.0017368487820328404 0.0 -0.0014161499317441872 0.0 0.0
0.005184467370559366 -0.0035167231104251684 0.0 -0.0021949573093596186 0.0 0.0
0.008405153538312532 -0.0064317371568358706 0.0 -0.0034263972326180336 0.0 0.0
0.012686448477740184 -0.010438284408130993 0.0 -0.0049519450543107635 0.0 0.0
0.017951513101835043 -0.015443682165952266 0.0 -0.006661638501674366 0.0 0.0
0.02412199804367924 -0.021363472537107686 0.0 -0.00840402529446621 0.0 0.0
0.03119746169480301 -0.028192084701282205 0.0 -0.01010813763934218 0.0 0.0
0.039259112758357535 -0.036007623025004154 0.0 -0.01185596604047634 0.0 0.0
0.04839395398349009 -0.0448898665655606 0.0 -0.013714837686751524 0.0 0.0
0.05856997946971344 -0.05480893525725028 0.0 -0.01563802664638342 0.0 0.0
0.06955578652875191 -0.06553322900443614 0.0 -0.017340782924865683 0.0 0.0
0.08085188506332737 -0.07655741845204345 0.0 -0.018236659306370695 0.0 0.0
0.09161517169771903 -0.08703758031767528 0.0 -0.017594430075626666 0.0 0.0
0.1006274272291556 -0.09578044952760623 0.0 -0.014586327445078207 0.0 0.0
0.10648779701318237 -0.10144825366501342 0.0 -0.008321361200502253 0.0 0.0
0.10648779701317465 -0.1014482536650072 0.0 0.008321361200539501 0.0 0.0
0.10062742722913404 -0.09578044952758935 0.0 0.014586327445126002 0.0 0.0
0.09161517169768868 -0.08703758031764419 0.0 0.01759443007565953 0.0 0.0
0.08085188506328889 -0.07655741845200303 0.0 0.018236659306387182 0.0 0.0
0.06955578652870886 -0.06553322900439928 0.0 0.017340782924858966 0.0 0.0
0.05856997946966738 -0.054808935257211644 0.0 0.015638026646376035 0.0 0.0
0.04839395398344465 -0.04488986656551708 0.0 0.01371483768674664 0.0 0.0
0.0392591127583129 -0.0360076230249593 0.0 0.0118559660404699 0.0 0.0
0.031197461694760148 -0.028192084701238906 0.0 0.010108137639329384 0.0 0.0
0.02412199804364082 -0.021363472537070827 0.0 0.008404025294453554 0.0 0.0
0.017951513101801875 -0.015443682165919848 0.0 0.006661638501658185 0.0 0.0
0.01268644847771408 -0.010438284408103904 0.0 0.004951945054300577 0.0 0.0
0.00840515353829302 -0.006431737156816775 0.0 0.003426397232608014 0.0 0.0
0.005184467370546897 -0.0035167231104149543 0.0 0.002194957309352652 0.0 0.0
0.00307358626673207 -0.0017368487820283995 0.0 0.0014161499317395243 0.0 0.0
0.0019596792434455335 -0.0009154926265937391 0.0 0.001099653176848625 0.0 0.0
0.001430290952778801 -0.0005876449865996891 0.0 0.0009477495251363488 0.0 0.0
0.0009411710547370389 -0.00029661813137976667 0.0 0.0008041213404931247 0.0 0.0
0.0004484574210492087 -0.00030525405054582233 0.0 0.0011185583792931164 0.0 0.0
0.0040434989215729356 -0.005613315047983694 0.0 0.005930608604073573 0.0 0.0
0.0030234334031002605 -0.004504805880402307 0.0 -0.004855594912618083 0.0 0.0
0.0002990605224073295 -0.00025579407816828104 0.0 -0.0015709313493124932 0.0 0.0
0.0007098200924534337 -0.00021406884188956976 0.0 -0.0011897374327704269 0.0 0.0
0.0011792480668804672 -0.00046688167539898906 0.0 -0.0012332621797133958 0.0 0.0
0.0016384846337882675 -0.0007348812851779574 0.0 -0.0013731172326331975 0.0 0.0
0.002485032455873913 -0.0013070443455585057 0.0 -0.00166017406284516 0.0 0.0
0.004161392345752725 -0.002642289911953588 0.0 -0.002401620736352944 0.0 0.0
0.006867670947125461 -0.005020173237554104 0.0 -0.003734212612725718 0.0 0.0
0.010537586085901864 -0.00841168820872551 0.0 -0.005476095640081641 0.0 0.0
0.015042821158724032 -0.012668066464456063 0.0 -0.007385674654135033 0.0 0.0
0.020294870891350035 -0.01768775104660958 0.0 -0.00932757966077774 0.0 0.0
0.026277829440004882 -0.023447968649251916 0.0 -0.01122176586266288 0.0 0.0
0.03307101921024848 -0.030021056780737077 0.0 -0.01315290631541216 0.0 0.0
0.040779643051182285 -0.037507712747826716 0.0 -0.015220978404543728 0.0 0.0
0.049418340543068526 -0.045921232754912555 0.0 -0.017340869252941093 0.0 0.0
0.05883484544599843 -0.05510882619786672 0.0 -0.01921695116036687 0.0 0.0
0.06865870197268514 -0.06469817565666869 0.0 -0.02034233974601879 0.0 0.0
0.07823692099345683 -0.07402968467233206 0.0 -0.01986360900048484 0.0 0.0
0.08656252974741481 -0.08211368779278327 0.0 -0.016613409980351435 0.0 0.0
0.09237398412174887 -0.08774022520641811 0.0 -0.009442390232444031 0.0 0.0
0.09237398412174155 -0.08774022520641145 0.0 0.00944239023248128 0.0 0.0
0.08656252974739576 -0.0821136877927664 0.0 0.016613409980402172 0.0 0.0
0.07823692099343044 -0.07402968467230808 0.0 0.019863609000520976 0.0 0.0
0.06865870197265234 -0.06469817565663316 0.0 0.020342339746036053 0.0 0.0
0.058834845445961625 -0.055108826197824534 0.0 0.019216951160358375 0.0 0.0
0.049418340543029016 -0.045921232754866814 0.0 0.017340869252933877 0.0 0.0
0.04077964305114401 -0.03750771274778897 0.0 0.015220978404540175 0.0 0.0
0.0330710192102108 -0.030021056780701105 0.0 0.013152906315405888 0.0 0.0
0.026277829439968675 -0.023447968649217943 0.0 0.011221765862649946 0.0 0.0
0.020294870891317845 -0.017687751046581157 0.0 0.00932757966076192 0.0 0.0
0.01504282115869579 -0.012668066464430083 0.0 0.007385674654116214 0.0 0.0
0.010537586085879624 -0.008411688208702417 0.0 0.005476095640070788 0.0 0.0
0.0068676709471093 -0.005020173237538783 0.0 0.0037342126127157815 0.0 0.0
0.0041613923457426705 -0.0026422899119453724 0.0 0.0024016207363477537 0.0 0.0
0.0024850324558694514 -0.001307044345555286 0.0 0.001660174062841857 0.0 0.0
0.001638484633787074 -0.0007348812851779574 0.0 0.0013731172326317542 0.0 0.0
0.0011792480668799399 -0.000466881675398656 0.0 0.0012332621797110643 0.0 0.0
0.000709820092453517 -0.00021406884189012487 0.0 0.0011897374327686228 0.0 0.0
0.00029906052240710745 -0.00025579407816694877 0.0 0.0015709313493099397 0.0 0.0
0.0030234334030925514 -0.004504805880393082 0.0 0.004855594912605343 0.0 0.0
0.002231739529049745 -0.0035828513191428213 0.0 -0.0039226173282258525 0.0 0.0
0.000206456470014299 -0.000227747005596024 0.0 -0.0019061230169194754 0.0 0.0
0.0005142611184475315 -0.00015109075546815287 0.0 -0.0015332443322042533 0.0 0.0
0.0009278871565536889 -0.0003522193265932394 0.0 -0.0015147099030597688 0.0 0.0
0.0013356118264962052 -0.0005800871203326396 0.0 -0.001638348591385258 0.0 0.0
0.001960620423604828 -0.0009687020562643145 0.0 -0.0018968865137707625 0.0 0.0
0.003225960405836975 -0.0018953458838684156 0.0 -0.0025523369652680206 0.0 0.0
0.005371924572917186 -0.003694085274266401 0.0 -0.003805604853027833 0.0 0.0
0.00840076349914913 -0.006424904539816145 0.0 -0.005589422507277064 0.0 0.0
0.012144515369598999 -0.009924892824971776 0.0 -0.007610474721353622 0.0 0.0
0.016477201502534178 -0.014042892313128386 0.0 -0.009637177358445603 0.0 0.0
0.021375875240213074 -0.018740263565536264 0.0 -0.011611369814506334 0.0 0.0
0.026909968065282147 -0.024079965535273917 0.0 -0.013615442481421547 0.0 0.0
0.03319294415171417 -0.03017083823326816 0.0 -0.015731823189465144 0.0 0.0
0.040286200946112474 -0.0370702228374884 0.0 -0.017915206177621323 0.0 0.0
0.04810678856463488 -0.04469557511222488 0.0 -0.01988962375258785 0.0 0.0
0.05640101637831314 -0.05279424681626699 0.0 -0.02114495971301028 0.0 0.0
0.06474308139981182 -0.06093305797942694 0.0 -0.02089521743287781 0.0 0.0
0.0724045149145619 -0.06838228233425525 0.0 -0.017819345572529066 0.0 0.0
0.078261642749325 -0.07405419377669986 0.0 -0.01038172949850752 0.0 0.0
0.07826164274931856 -0.07405419377669364 0.0 0.010381729498544434 0.0 0.0
0.07240451491454564 -0.06838228233423882 0.0 0.017819345572578915 0.0 0.0
0.06474308139978929 -0.06093305797940474 0.0 0.02089521743291245 0.0 0.0
0.05640101637828612 -0.05279424681624212 0.0 0.0211449597130261 0.0 0.0
0.048106788564604014 -0.04469557511219868 0.0 0.019889623752582408 0.0 0.0
0.04028620094607971 -0.03707022283745287 0.0 0.01791520617761222 0.0 0.0
0.03319294415168261 -0.03017083823323574 0.0 0.015731823189456984 0.0 0.0
0.026909968065252254 -0.024079965535247716 0.0 0.013615442481414108 0.0 0.0
0.021375875240183695 -0.01874026356551095 0.0 0.011611369814494066 0.0 0.0
0.01647720150250767 -0.014042892313103295 0.0 0.009637177358431226 0.0 0.0
0.012144515369575976 -0.009924892824950238 0.0 0.007610474721335692 0.0 0.0
0.008400763499130909 -0.006424904539800824 0.0 0.005589422507267017 0.0 0.0
0.0053719245729044185 -0.003694085274256409 0.0 0.0038056048530191733 0.0 0.0
0.003225960405829259 -0.0018953458838641968 0.0 0.002552336965262081 0.0 0.0
0.00196062042360165 -0.0009687020562609838 0.0 0.0018968865137666269 0.0 0.0
0.001335611826495331 -0.0005800871203324176 0.0 0.0016383485913838425 0.0 0.0
0.0009278871565532587 -0.00035221932659357247 0.0 0.0015147099030582145 0.0 0.0
0.0005142611184474344 -0.00015109075546865247 0.0 0.0015332443322010891 0.0 0.0
0.000206456470014188 -0.0002277470055955244 0.0 0.0019061230169177268 0.0 0.0
0.002231739529043514 -0.003582851319135447 0.0 0.003922617328215999 0.0 0.0
0.0016128810563540014 -0.0028097742863553155 0.0 -0.003158447953925503 0.0 0.0
0.00013941676868821362 -0.00021018757725344006 0.0 -0.002139735452649616 0.0 0.0
0.00034237029016288834 -9.787889957080242e-05 0.0 -0.001814926658290944 0.0 0.0
0.0006803222459439984 -0.00024052387576978251 0.0 -0.0017715450556874401 0.0 0.0
0.0010348202705321857 -0.00043902317897304144 0.0 -0.0018960707593456971 0.0 0.0
0.0014929860984031623 -0.0006984164280490202 0.0 -0.0021111500212718515 0.0 0.0
0.002381147990690183 -0.00128030853146055 0.0 -0.002639959288062599 0.0 0.0
0.003970102372025261 -0.0025132517399804044 0.0 -0.003716894848940111 0.0 0.0
0.0063098513725776545 -0.004534537591353915 0.0 -0.005333454375139712 0.0 0.0
0.009272222146806591 -0.007242222993440128 0.0 -0.007293726468922512 0.0 0.0
0.012685348681494929 -0.010453991272876495 0.0 -0.009315782655787641 0.0 0.0
0.01650886222489481 -0.014094666638976516 0.0 -0.011261516040927733 0.0 0.0
0.020796721486672484 -0.018212662892799436 0.0 -0.013210808510905836 0.0 0.0
0.025663947785255062 -0.022916484346905186 0.0 -0.015258150805124437 0.0 0.0
0.031200706445588408 -0.02829362451351125 0.0 -0.01736365417444552 0.0 0.0
0.037400810858525924 -0.03432799112444229 0.0 -0.01928264476174346 0.0 0.0
0.04410993909645938 -0.040879987242878 0.0 -0.020601983725176076 0.0 0.0
0.05111941630219312 -0.04773806079122256 0.0 -0.02065955039284545 0.0 0.0
0.058052025242346636 -0.054496864043789284 0.0 -0.018141636646760162 0.0 0.0
0.06400816727542209 -0.0602611718360917 0.0 -0.011126322013554346 0.0 0.0
0.06400816727541739 -0.06026117183608681 0.0 0.011126322013589318 0.0 0.0
0.05805202524233298 -0.054496864043778626 0.0 0.018141636646810122 0.0 0.0
0.051119416302174925 -0.04773806079120391 0.0 0.02065955039288281 0.0 0.0
0.04410993909643807 -0.040879987242854465 0.0 0.02060198372519184 0.0 0.0
0.03740081085850111 -0.034327991124421864 0.0 0.019282644761738466 0.0 0.0
0.031200706445562387 -0.028293624513488602 0.0 0.017363654174436416 0.0 0.0
0.025663947785230762 -0.02291648434688298 0.0 0.015258150805119053 0.0 0.0
0.020796721486650016 -0.018212662892781672 0.0 0.013210808510898842 0.0 0.0
0.016508862224872606 -0.014094666638954312 0.0 0.011261516040914576 0.0 0.0
0.012685348681473835 -0.010453991272853846 0.0 0.009315782655771376 0.0 0.0
0.009272222146788828 -0.007242222993423031 0.0 0.007293726468901973 0.0 0.0
0.00630985137256404 -0.004534537591341925 0.0 0.005333454375130109 0.0 0.0
0.003970102372015838 -0.0025132517399719667 0.0 0.0037168948489322284 0.0 0.0
0.0023811479906848676 -0.0012803085314547769 0.0 0.002639959288058935 0.0 0.0
0.0014929860984010945 -0.0006984164280470218 0.0 0.0021111500212686873 0.0 0.0
0.0010348202705315612 -0.0004390231789733745 0.0 0.0018960707593442538 0.0 0.0
0.0006803222459435265 -0.00024052387576845025 0.0 0.0017715450556853862 0.0 0.0
0.00034237029016262466 -9.787889957013629e-05 0.0 0.0018149266582877521 0.0 0.0
0.0001394167686882275 -0.00021018757725269066 0.0 0.0021397354526468404 0.0 0.0
0.0016128810563493523 -0.0028097742863496655 0.0 0.00315844795391787 0.0 0.0
0.0011397307129668716 -0.002179241505865709 0.0 -0.002570187006011193 0.0 0.0
7.607767167140678e-05 -0.0001952886320534808 0.0 -0.0022761265873149084 0.0 0.0
0.00018443506034344914 -4.6537864942353124e-05 0.0 -0.002034605822660185 0.0 0.0
0.0004394282238541214 -0.0001323366585863628 0.0 -0.001987143136860492 0.0 0.0
0.0007257560473525326 -0.00029664661608908016 0.0 -0.0021178510088052938 0.0 0.0
0.001062352237593031 -0.0004810383391611328 0.0 -0.0023364698735264255 0.0 0.0
0.001630223244114673 -0.0008043000489066365 0.0 -0.0027238498088867358 0.0 0.0
0.0026863845109133117 -0.001520014896478461 0.0 -0.0035153303752369913 0.0 0.0
0.004320581781194016 -0.002821309681636963 0.0 -0.004807566092232318 0.0 0.0
0.006458090418526435 -0.004686327398205403 0.0 -0.006478419388000978 0.0 0.0
0.008939210171642217 -0.006963080145511169 0.0 -0.008310079598915554 0.0 0.0
0.011691829539729692 -0.009548196891406402 0.0 -0.010117420177043035 0.0 0.0
0.014750624550133665 -0.012457099297521701 0.0 -0.011917235805885718 0.0 0.0
0.018215190882114332 -0.015785426142807868 0.0 -0.013765358633546776 0.0 0.0
0.022194339364629653 -0.019636394967371462 0.0 -0.015659423376620574 0.0 0.0
0.026745480815018485 -0.024057918540783874 0.0 -0.017419335163471106 0.0 0.0
0.031824339567947266 -0.029005349031892003 0.0 -0.01865419626007392 0.0 0.0
0.03737140347701995 -0.034452450506064825 0.0 -0.018963898402338697 0.0 0.0
0.04339941760384228 -0.04037417795072695 0.0 -0.01739854943446728 0.0 0.0
0.04944372628657645 -0.04622219814041584 0.0 -0.011632604396298374 0.0 0.0
0.04944372628657363 -0.04622219814041317 0.0 0.011632604396328239 0.0 0.0
0.0433994176038322 -0.04037417795071674 0.0 0.01739854943451352 0.0 0.0
0.03737140347700624 -0.0344524505060515 0.0 0.01896389840237178 0.0 0.0
0.03182433956793157 -0.029005349031880012 0.0 0.018654196260083578 0.0 0.0
0.026745480815000028 -0.024057918540767886 0.0 0.017419335163462724 0.0 0.0
0.022194339364610793 -0.019636394967355475 0.0 0.015659423376611525 0.0 0.0
0.018215190882097776 -0.015785426142790104 0.0 0.013765358633541669 0.0 0.0
0.01475062455011808 -0.012457099297503937 0.0 0.011917235805880666 0.0 0.0
0.011691829539714677 -0.009548196891391969 0.0 0.01011742017703321 0.0 0.0
0.008939210171627132 -0.006963080145500067 0.0 0.008310079598902453 0.0 0.0
0.006458090418513834 -0.004686327398195855 0.0 0.006478419387985546 0.0 0.0
0.004320581781185023 -0.002821309681631856 0.0 0.004807566092223603 0.0 0.0
0.002686384510907275 -0.0015200148964755744 0.0 0.0035153303752304965 0.0 0.0
0.0016302232441116893 -0.0008043000489026397 0.0 0.002723849808883516 0.0 0.0
0.0010623522375917682 -0.00048103833915991157 0.0 0.0023364698735231504 0.0 0.0
0.0007257560473522273 -0.00029664661609107856 0.0 0.0021178510088034896 0.0 0.0
0.00043942822385389935 -0.00013233665858713994 0.0 0.0019871431368588266 0.0 0.0
0.0001844350603431577 -4.65378649427417e-05 0.0 0.0020346058226576036 0.0 0.0
7.607767167119861e-05 -0.00019528863205364733 0.0 0.002276126587313715 0.0 0.0
0.0011397307129640266 -0.002179241505861537 0.0 0.00257018700600653 0.0 0.0
0.0007982670875982256 -0.0016988341961306774 0.0 -0.0021669290457915213 0.0 0.0
5.411860884721453e-06 -0.0001815036190931374 0.0 -0.0023530236257145176 0.0 0.0
3.4852047764405425e-05 8.05867341402422e-06 0.0 -0.002193228351618781 0.0 0.0
0.00020622109291326685 -2.904596805952675e-05 0.0 -0.0021542547086552677 0.0 0.0
0.000409729031598971 -0.00014803064956869783 0.0 -0.002281008798504708 0.0 0.0
0.0006349516976769665 -0.00027994916073992293 0.0 -0.002534378993325953 0.0 0.0
0.000960528406064004 -0.0004491179705450321 0.0 -0.0028613345778449872 0.0 0.0
0.001537094659243371 -0.0007637644378604147 0.0 -0.003334997991018551 0.0 0.0
0.0024793777714657156 -0.0013853201662969994 0.0 -0.004128826573452982 0.0 0.0
0.00375841697030678 -0.002380499947101322 0.0 -0.00527862716622246 0.0 0.0
0.005275764495615148 -0.003677566444185487 0.0 -0.006679814865468703 0.0 0.0
0.006942176450633469 -0.005182742211332414 0.0 -0.008170958651580962 0.0 0.0
0.008782539413757215 -0.006884967042739554 0.0 -0.00972347073418861 0.0 0.0
0.010865587237084737 -0.008851674968052947 0.0 -0.011299656890891241 0.0 0.0
0.013287134057384076 -0.011175089387120973 0.0 -0.01289322332854026 0.0 0.0
0.01615939351248144 -0.01395476004524232 0.0 -0.014420920706745999 0.0 0.0
0.01956919704784861 -0.01726061110450061 0.0 -0.015583041759010208 0.0 0.0
0.02357199054621406 -0.021169948811749606 0.0 -0.015960026240198377 0.0 0.0
0.02838099652718605 -0.025974856963361326 0.0 -0.015311709267002094 0.0 0.0
0.03433016770864074 -0.03176072993613266 0.0 -0.011715139857748635 0.0 0.0
0.03433016770863939 -0.03176072993613088 0.0 0.011715139857773615 0.0 0.0
0.02838099652718007 -0.025974856963353332 0.0 0.015311709267041784 0.0 0.0
0.023571990546204832 -0.021169948811736727 0.0 0.01596002624022591 0.0 0.0
0.019569197047838383 -0.017260611104487733 0.0 0.015583041759018035 0.0 0.0
0.016159393512470616 -0.013954760045234327 0.0 0.01442092070673573 0.0 0.0
0.013287134057372418 -0.011175089387111647 0.0 0.012893223328531267 0.0 0.0
0.010865587237076063 -0.008851674968045398 0.0 0.011299656890886411 0.0 0.0
0.00878253941374918 -0.006884967042730228 0.0 0.009723470734185224 0.0 0.0
0.006942176450624948 -0.00518274221132442 0.0 0.008170958651572358 0.0 0.0
0.0052757644956067384 -0.0036775664441777156 0.0 0.006679814865455824 0.0 0.0
0.003758416970299494 -0.0023804999470928845 0.0 0.00527862716621097 0.0 0.0
0.002479377771461122 -0.0013853201662918924 0.0 0.004128826573448374 0.0 0.0
0.0015370946592403179 -0.0007637644378584163 0.0 0.003334997991016886 0.0 0.0
0.0009605284060625607 -0.0004491179705450321 0.0 0.002861334577843211 0.0 0.0
0.0006349516976762726 -0.000279949160740256 0.0 0.0025343789933215677 0.0 0.0
0.00040972903159883223 -0.00014803064956814271 0.0 0.0022810087985021266 0.0 0.0
0.0002062210929133501 -2.9045968059415728e-05 0.0 0.0021542547086526864 0.0 0.0
3.4852047764349914e-05 8.05867341502342e-06 0.0 0.0021932283516160334 0.0 0.0
5.411860884346753e-06 -0.0001815036190921937 0.0 0.002353023625712436 0.0 0.0
0.0007982670875966158 -0.001698834196128202 0.0 0.0021669290457877743 0.0 0.0
0.0005598483976822499 -0.0013416165308955674 0.0 -0.0018997570540676134 0.0 0.0
-6.654544039873256e-05 -0.00016859482801512282 0.0 -0.002396975767417958 0.0 0.0
-0.00010886390023820414 6.518183922710197e-05 0.0 -0.0022963557224257025 0.0 0.0
-1.9574417165796332e-05 7.03102034472769e-05 0.0 -0.0022657082118278937 0.0 0.0
9.275353694655764e-05 1.643958557173697e-06 0.0 -0.0023796500622273176 0.0 0.0
0.00019707732862442318 -7.343542414806059e-05 0.0 -0.002647962253460784 0.0 0.0
0.00031742263988400465 -0.00014457992447680645 0.0 -0.003019236048905083 0.0 0.0
0.0004987928579535533 -0.00023574273204118867 0.0 -0.003387909985250237 0.0 0.0
0.0008008196034501314 -0.00038440424474228685 0.0 -0.0037723325661195295 0.0 0.0
0.0012226308227578225 -0.0006192606967176939 0.0 -0.004299622353963917 0.0 0.0
0.0017353736014058263 -0.0009468154219882674 0.0 -0.005097996857461984 0.0 0.0
0.0022897916874473068 -0.0013429375434323987 0.0 -0.0061078498658634905 0.0 0.0
0.002897633777889805 -0.0018095704000185009 0.0 -0.007299167958814579 0.0 0.0
0.0035912516727005517 -0.0023951487196693932 0.0 -0.00866704071458635 0.0 0.0
0.004445456787322069 -0.003168001737708259 0.0 -0.010200213149910542 0.0 0.0
0.0056132420430774765 -0.004259897647765687 0.0 -0.01178650482167004 0.0 0.0
0.007325236530398627 -0.005877165975404441 0.0 -0.01309456924335689 0.0 0.0
0.00980407133700524 -0.008222529121154842 0.0 -0.013564578594717713 0.0 0.0
0.013216436782238009 -0.011577226164106946 0.0 -0.012945574496652956 0.0 0.0
0.018407473767577356 -0.016840022118962406 0.0 -0.011462040825946873 0.0 0.0
0.018407473767577648 -0.01684002211896285 0.0 0.011462040825968356 0.0 0.0
0.013216436782235164 -0.011577226164106058 0.0 0.012945574496684598 0.0 0.0
0.009804071337000744 -0.008222529121153066 0.0 0.013564578594736476 0.0 0.0
0.007325236530394852 -0.00587716597540533 0.0 0.013094569243356835 0.0 0.0
0.00561324204307527 -0.004259897647764799 0.0 0.011786504821659605 0.0 0.0
0.00444545678731828 -0.003168001737706483 0.0 0.010200213149904158 0.0 0.0
0.003591251672699136 -0.0023951487196742782 0.0 0.008667040714582186 0.0 0.0
0.002897633777889319 -0.0018095704000229418 0.0 0.00729916795881036 0.0 0.0
0.0022897916874458496 -0.0013429375434308444 0.0 0.006107849865855164 0.0 0.0
0.0017353736014044524 -0.0009468154219842706 0.0 0.005097996857454434 0.0 0.0
0.0012226308227564209 -0.0006192606967141412 0.0 0.004299622353957588 0.0 0.0
0.0008008196034493958 -0.0003844042447416207 0.0 0.0037723325661170315 0.0 0.0
0.0004987928579531786 -0.0002357427320422989 0.0 0.0033879099852483496 0.0 0.0
0.00031742263988364383 -0.00014457992447924894 0.0 0.0030192360489026404 0.0 0.0
0.00019707732862432603 -7.343542414872672e-05 0.0 0.00264796225345737 0.0 0.0
9.2753536946516e-05 1.6439585555083625e-06 0.0 0.0023796500622245698 0.0 0.0
-1.9574417165602043e-05 7.031020344616667e-05 0.0 0.002265708211825229 0.0 0.0
-0.00010886390023821801 6.518183922638032e-05 0.0 0.0022963557224228714 0.0 0.0
-6.654544039884358e-05 -0.00016859482801528936 0.0 0.002396975767416043 0.0 0.0
0.0005598483976813479 -0.0013416165308942057 0.0 0.0018997570540654762 0.0 0.0
0.0003941667756601902 -0.0010781773383748694 0.0 -0.0017190034633147722 0.0 0.0
-0.00013262920371111264 -0.00014697197328744638 0.0 -0.0023954457884520775 0.0 0.0
-0.0002460950939394413 0.00012008090704085372 0.0 -0.002349029886733023 0.0 0.0
-0.00023815924412932954 0.00016622407367394842 0.0 -0.002318680266064327 0.0 0.0
-0.0002208140550020582 0.0001487992610579303 0.0 -0.0024128135500494086 0.0 0.0
-0.0002441740223373401 0.00013575734468984635 0.0 -0.0026615508265385446 0.0 0.0
-0.0003303888047842263 0.0001605167288927234 0.0 -0.0030232410961297806 0.0 0.0
-0.0005005398917770076 0.0002380592584478869 0.0 -0.0033906297551931086 0.0 0.0
-0.0007994786145161387 0.00038391665709225364 0.0 -0.003773161543597303 0.0 0.0
-0.0012209191128635666 0.0006180723981081826 0.0 -0.004297787173192735 0.0 0.0
-0.001735804823592646 0.0009489839653322729 0.0 -0.005094002322317215 0.0 0.0
-0.002305867851455007 0.0013592823813821653 0.0 -0.006107037463417231 0.0 0.0
-0.0029449864399748032 0.0018508699773431836 0.0 -0.007302060186567982 0.0 0.0
-0.0036580754590501835 0.002437989751422176 0.0 -0.008672228191515197 0.0 0.0
-0.004381861301653953 0.0030550168620457896 0.0 -0.010220504061991154 0.0 0.0
-0.004938844903180972 0.0035256381883757015 0.0 -0.011912513687412085 0.0 0.0
-0.00499727831933762 0.0035502355985603806 0.0 -0.013720324200211464 0.0 0.0
-0.004175755474970566 0.0028664837950733713 0.0 -0.01564343257211015 0.0 0.0
-0.0021744751944773044 0.0013765534538290325 0.0 -0.017293982980685463 0.0 0.0
0.0026084347698373672 -0.0030511239303954163 0.0 -0.015496102103558618 0.0 0.0
0.0026084347698372146 -0.003051123930399857 0.0 0.01549610210357294 0.0 0.0
-0.002174475194478012 0.001376553453826812 0.0 0.017293982980699063 0.0 0.0
-0.004175755474969137 0.0028664837950733713 0.0 0.015643432572113702 0.0 0.0
-0.004997278319332887 0.003550235598556384 0.0 0.013720324200205691 0.0 0.0
-0.004938844903174255 0.003525638188372149 0.0 0.011912513687401427 0.0 0.0
-0.004381861301649512 0.0030550168620409046 0.0 0.010220504061983549 0.0 0.0
-0.0036580754590449516 0.00243798975142262 0.0 0.00867222819150898 0.0 0.0
-0.002944986439968031 0.00185086997734496 0.0 0.007302060186562875 0.0 0.0
-0.002305867851448401 0.0013592823813795007 0.0 0.006107037463406573 0.0 0.0
-0.001735804823586748 0.0009489839653302745 0.0 0.0050940023223081665 0.0 0.0
-0.0012209191128590563 0.0006180723981064062 0.0 0.004297787173184964 0.0 0.0
-0.0007994786145132382 0.0003839166570935859 0.0 0.0037731615435951937 0.0 0.0
-0.000500539891775495 0.00023805925844877507 0.0 0.003390629755191721 0.0 0.0
-0.00033038880478337973 0.00016051672889449975 0.0 0.003023241096125895 0.0 0.0
-0.00024417402233656293 0.0001357573446916227 0.0 0.0026615508265348253 0.0 0.0
-0.00022081405500164186 0.00014879926105770824 0.0 0.002412813550046966 0.0 0.0
-0.00023815924412907974 0.00016622407367350434 0.0 0.0023186802660623007 0.0 0.0
-0.0002460950939393025 0.00012008090704057617 0.0 0.002349029886731968 0.0 0.0
-0.00013262920371104325 -0.00014697197328747413 0.0 0.002395445788450662 0.0 0.0
0.00039416677565971836 -0.001078177338374172 0.0 0.0017190034633136064 0.0 0.0
0.0002777154732157838 -0.0008603412146682421 0.0 -0.001551104966651673 0.0 0.0
-0.0001923094119148372 -0.00011701210061859646 0.0 -0.0023433635018519916 0.0 0.0
-0.00037546564797771853 0.00017188881766039277 0.0 -0.0023486059074098453 0.0 0.0
-0.00044904590050617865 0.0002575585733495256 0.0 -0.0023112286494278156 0.0 0.0
-0.0005279882488407883 0.00029144566762329127 0.0 -0.0023764770386828227 0.0 0.0
-0.0006790445464602279 0.0003402705993487132 0.0 -0.002581696893446256 0.0 0.0
-0.0009727915492046546 0.0004648035980370224 0.0 -0.0028789966295996727 0.0 0.0
-0.0015383620351316907 0.0007659639084929282 0.0 -0.00334126546658442 0.0 0.0
-0.0024771350088843846 0.001383818792910052 0.0 -0.004128849798671619 0.0 0.0
-0.003756271123840471 0.002379204343501806 0.0 -0.005276026019523317 0.0 0.0
-0.005277364989325378 0.0036816839396174306 0.0 -0.006677913505239608 0.0 0.0
-0.0069581579531302895 0.005202479526834836 0.0 -0.008163907436667783 0.0 0.0
-0.00882709781684446 0.006930549613124004 0.0 -0.009696785176793066 0.0 0.0
-0.010927104142504362 0.008897443308036213 0.0 -0.011266620389889459 0.0 0.0
-0.013224478529770212 0.011059804778023707 0.0 -0.012957602036655635 0.0 0.0
-0.015523956564108932 0.013221886971111374 0.0 -0.014872416109964148 0.0 0.0
-0.017432943543767954 0.01500671282867172 0.0 -0.01707862304914476 0.0 0.0
-0.018413370552045616 0.015902002850717523 0.0 -0.01947752706987782 0.0 0.0
-0.017537741021064895 0.014750405307960346 0.0 -0.020501095955884674 0.0 0.0
-0.0124220835793893 0.009455005158375496 0.0 -0.01809273946760015 0.0 0.0
-0.012422083579390925 0.009455005158375052 0.0 0.018092739467625463 0.0 0.0
-0.017537741021063105 0.014750405307954573 0.0 0.020501095955917037 0.0 0.0
-0.018413370552038122 0.015902002850713526 0.0 0.019477527069898526 0.0 0.0
-0.017432943543754867 0.015006712828660618 0.0 0.017078623049146202 0.0 0.0
-0.015523956564093805 0.013221886971095387 0.0 0.014872416109952491 0.0 0.0
-0.013224478529757819 0.011059804778008164 0.0 0.012957602036645643 0.0 0.0
-0.010927104142492358 0.008897443308023778 0.0 0.011266620389880744 0.0 0.0
-0.008827097816830637 0.006930549613109793 0.0 0.009696785176785683 0.0 0.0
-0.006958157953115676 0.005202479526820847 0.0 0.00816390743665546 0.0 0.0
-0.005277364989312597 0.0036816839396067724 0.0 0.006677913505225286 0.0 0.0
-0.00375627112382991 0.0023792043434929244 0.0 0.005276026019509883 0.0 0.0
-0.0024771350088772653 0.0013838187929062773 0.0 0.00412884979866468 0.0 0.0
-0.0015383620351279437 0.0007659639084904857 0.0 0.003341265466581922 0.0 0.0
-0.0009727915492024758 0.0004648035980354681 0.0 0.002878996629596786 0.0 0.0
-0.0006790445464586736 0.0003402705993467148 0.0 0.0025816968934432583 0.0 0.0
-0.0005279882488399279 0.00029144566762207 0.0 0.002376477038680297 0.0 0.0
-0.00044904590050560966 0.00025755857334985865 0.0 0.0023112286494265666 0.0 0.0
-0.0003754656479774132 0.00017188881766039277 0.0 0.002348605907409429 0.0 0.0
-0.00019230941191485107 -0.00011701210061867973 0.0 0.002343363501850826 0.0 0.0
0.0002777154732155618 -0.0008603412146675413 0.0 0.0015511049666490917 0.0 0.0
0.00018692676022333266 -0.0006651361117931687 0.0 -0.0013730007335249206 0.0 0.0
-0.00024696317982325633 -8.001629373488583e-05 0.0 -0.0022381592244294923 0.0 0.0
-0.0004967744602770718 0.00022068455415269472 0.0 -0.0022922752714343853 0.0 0.0
-0.0006511388106175686 0.0003435900152012339 0.0 -0.0022429108783137974 0.0 0.0
-0.0008256697189403805 0.0004255003541231428 0.0 -0.00226752320876375 0.0 0.0
-0.001101163483485601 0.0005372942571757466 0.0 -0.0024076227816009765 0.0 0.0
-0.0016410816042505272 0.0008205384098962654 0.0 -0.0027513494845677333 0.0 0.0
-0.0026854424245109643 0.0015208767748136065 0.0 -0.0035240438356977655 0.0 0.0
-0.004317238938550683 0.0028184271234052982 0.0 -0.004803946283754856 0.0 0.0
-0.006456876501408637 0.004685598698158655 0.0 -0.0064755827613260375 0.0 0.0
-0.008942252793452704 0.006967942346759015 0.0 -0.008308385692196885 0.0 0.0
-0.011704276198558544 0.009564196801849612 0.0 -0.01010029779070648 0.0 0.0
-0.014782793796869476 0.012491625947374185 0.0 -0.011847964455550142 0.0 0.0
-0.01826046916835386 0.015820149666357697 0.0 -0.013643254796433468 0.0 0.0
-0.02214233258489534 0.019541949647460033 0.0 -0.015672855003592612 0.0 0.0
-0.026224603404789326 0.0234520466699637 0.0 -0.018194587821162456 0.0 0.0
-0.030026618243629538 0.02708250635845033 0.0 -0.021399985269896282 0.0 0.0
-0.032685186758793616 0.02951857194537766 0.0 -0.024708981493576365 0.0 0.0
-0.03254800619953714 0.029100063844127 0.0 -0.026405920235905933 0.0 0.0
-0.0266385160201163 0.022589938964979073 0.0 -0.022947348983426985 0.0 0.0
-0.02663851602011655 0.022589938964979517 0.0 0.02294734898345635 0.0 0.0
-0.032548006199532506 0.029100063844126556 0.0 0.02640592023594529 0.0 0.0
-0.03268518675878135 0.029518571945365224 0.0 0.0247089814936039 0.0 0.0
-0.030026618243609818 0.027082506358434344 0.0 0.021399985269900446 0.0 0.0
-0.026224603404766844 0.02345204666994194 0.0 0.01819458782115274 0.0 0.0
-0.022142332584875093 0.019541949647436496 0.0 0.0156728550035814 0.0 0.0
-0.018260469168334723 0.01582014966633727 0.0 0.013643254796423976 0.0 0.0
-0.014782793796848798 0.012491625947351093 0.0 0.011847964455542648 0.0 0.0
-0.011704276198536867 0.009564196801833402 0.0 0.010100297790691493 0.0 0.0
-0.008942252793433289 0.00696794234674325 0.0 0.008308385692178621 0.0 0.0
-0.006456876501392067 0.00468559869814178 0.0 0.006475582761308385 0.0 0.0
-0.0043172389385391224 0.002818427123395084 0.0 0.004803946283745197 0.0 0.0
-0.00268544242450397 0.0015208767748100538 0.0 0.003524043835691437 0.0 0.0
-0.001641081604246808 0.0008205384098967095 0.0 0.0027513494845648467 0.0 0.0
-0.0011011634834835332 0.0005372942571765238 0.0 0.002407622781597507 0.0 0.0
-0.0008256697189390622 0.0004255003541216995 0.0 0.002267523208761474 0.0 0.0
-0.0006511388106166527 0.0003435900152002347 0.0 0.002242910878311827 0.0 0.0
-0.0004967744602765861 0.00022068455415291677 0.0 0.00229227527143111 0.0 0.0
-0.0002469631798232147 -8.001629373477481e-05 0.0 0.002238159224426467 0.0 0.0
0.0001869267602232355 -0.000665136111792702 0.0 0.0013730007335229777 0.0 0.0
0.00010877298826617032 -0.0004897672703976785 0.0 -0.001190729655913103 0.0 0.0
-0.00029910231292340494 -3.636843752430341e-05 0.0 -0.002080483137664596 0.0 0.0
-0.0006106397050306134 0.00026715127491527824 0.0 -0.0021810857980165688 0.0 0.0
-0.0008442183761808442 0.00042306079962584064 0.0 -0.002119295858448028 0.0 0.0
-0.001108409878221861 0.0005484114030279708 0.0 -0.002088393616195755 0.0 0.0
-0.0015259087451864328 0.0007509595583208295 0.0 -0.002206709907032145 0.0 0.0
-0.0023878921410783738 0.0012952222275479652 0.0 -0.002676159718315252 0.0 0.0
-0.003966129222123443 0.0025108283736154924 0.0 -0.0037188334628113773 0.0 0.0
-0.006306641307078004 0.004531136335351071 0.0 -0.005327184746578839 0.0 0.0
-0.009272856338793045 0.007243110519234985 0.0 -0.007291795163675341 0.0 0.0
-0.012689280114749957 0.010459091192105197 0.0 -0.009314634785247189 0.0 0.0
-0.01651472622658956 0.014102795531750978 0.0 -0.011237152370141335 0.0 0.0
-0.02080504128144503 0.01822362180173842 0.0 -0.013106238351936028 0.0 0.0
-0.025673809838684586 0.02292286685604017 0.0 -0.015044649183137637 0.0 0.0
-0.031162835463555 0.0282314890412394 0.0 -0.017285812322440086 0.0 0.0
-0.03708202962948626 0.033944758311304835 0.0 -0.020223415132783362 0.0 0.0
-0.042796258147732386 0.03941574167292572 0.0 -0.024070228746169264 0.0 0.0
-0.04697873758935825 0.043304477154030074 0.0 -0.02816544673775012 0.0 0.0
-0.04732990001646102 0.04325035401249355 0.0 -0.03038167740516179 0.0 0.0
-0.03989217977008451 0.035182974378205056 0.0 -0.027274625139160347 0.0 0.0
-0.03989217977008219 0.035182974378203724 0.0 0.027274625139193598 0.0 0.0
-0.04732990001645343 0.04325035401248911 0.0 0.03038167740520331 0.0 0.0
-0.04697873758934132 0.04330447715401675 0.0 0.028165446737781374 0.0 0.0
-0.04279625814770689 0.03941574167290174 0.0 0.024070228746175204 0.0 0.0
-0.03708202962945746 0.03394475831127863 0.0 0.02022341513277448 0.0 0.0
-0.031162835463526925 0.028231489041214086 0.0 0.01728581232242965 0.0 0.0
-0.02567380983865801 0.02292286685601841 0.0 0.015044649183127534 0.0 0.0
-0.02080504128141787 0.018223621801713552 0.0 0.013106238351927146 0.0 0.0
-0.016514726226561235 0.014102795531722556 0.0 0.011237152370127401 0.0 0.0
-0.012689280114723922 0.010459091192080106 0.0 0.009314634785229148 0.0 0.0
-0.00927285633877123 0.007243110519211671 0.0 0.007291795163656467 0.0 0.0
-0.006306641307061808 0.004531136335339081 0.0 0.005327184746566682 0.0 0.0
-0.003966129222112619 0.0025108283736070547 0.0 0.003718833462802884 0.0 0.0
-0.0023878921410723647 0.0012952222275435243 0.0 0.0026761597183113106 0.0 0.0
-0.0015259087451837683 0.0007509595583177209 0.0 0.002206709907030341 0.0 0.0
-0.0011084098782206536 0.0005484114030274156 0.0 0.002088393616194173 0.0 0.0
-0.0008442183761799282 0.00042306079962539656 0.0 0.0021192958584458355 0.0 0.0
-0.000610639705029975 0.00026715127491477864 0.0 0.0021810857980144593 0.0 0.0
-0.00029910231292296086 -3.6368437523776054e-05 0.0 0.0020804831376619592 0.0 0.0
0.0001087729882661842 -0.0004897672703973281 0.0 0.0011907296559110492 0.0 0.0
3.9843215960178036e-05 -0.00033468757556343043 0.0 -0.0010045288571610411 0.0 0.0
-0.00035059620744615216 1.2350382272929838e-05 0.0 -0.0018751838972266843 0.0 0.0
-0.0007180607255716231 0.0003119945785020617 0.0 -0.0020138613341597056 0.0 0.0
-0.0010271629919832714 0.0004943660846664644 0.0 -0.0019328331171507285 0.0 0.0
-0.0013772710585856496 0.0006644889651687969 0.0 -0.001855327258483197 0.0 0.0
-0.001985301240792492 0.001012152252247267 0.0 -0.001994107557050734 0.0 0.0
-0.003226800558724513 0.0019045806003539223 0.0 -0.0025792959284895445 0.0 0.0
-0.005366565159058784 0.0036891508589915745 0.0 -0.0038019163815036228 0.0 0.0
-0.008399096069586387 0.00642257747447883 0.0 -0.005581618948490408 0.0 0.0
-0.01214709420874438 0.00992755357642161 0.0 -0.00760877735731319 0.0 0.0
-0.01648123082082678 0.014047351735564817 0.0 -0.009634523955253327 0.0 0.0
-0.02137290827230509 0.01873786444015968 0.0 -0.011581821494561828 0.0 0.0
-0.02688647152018936 0.02405878587573751 0.0 -0.013493426595351465 0.0 0.0
-0.03315080241439275 0.03013384722274104 0.0 -0.015465758212506842 0.0 0.0
-0.04025442976788968 0.037036054697124676 0.0 -0.017738834942966908 0.0 0.0
-0.04801092532974496 0.04455022185058777 0.0 -0.02072392044383653 0.0 0.0
-0.0556017735491805 0.051833804254137306 0.0 -0.02471428718105373 0.0 0.0
-0.06122432360346028 0.05707191634346742 0.0 -0.029220426775613872 0.0 0.0
-0.06181504334132655 0.05717955363377136 0.0 -0.03226069506962953 0.0 0.0
-0.05273905754057022 0.047516620921914665 0.0 -0.03123796208660845 0.0 0.0
-0.052739057540566514 0.047516620921909336 0.0 0.031237962086643256 0.0 0.0
-0.06181504334131517 0.05717955363376026 0.0 0.03226069506967372 0.0 0.0
-0.061224323603438296 0.057071916343450546 0.0 0.029220426775648123 0.0 0.0
-0.05560177354915029 0.051833804254111104 0.0 0.024714287181062722 0.0 0.0
-0.048010925329710366 0.04455022185055535 0.0 0.020723920443830035 0.0 0.0
-0.04025442976785448 0.03703605469709048 0.0 0.01773883494295614 0.0 0.0
-0.033150802414358235 0.030133847222706844 0.0 0.015465758212495406 0.0 0.0
-0.02688647152015544 0.024058785875702426 0.0 0.013493426595342417 0.0 0.0
-0.021372908272270078 0.018737864440127705 0.0 0.011581821494549172 0.0 0.0
-0.01648123082079471 0.01404735173553373 0.0 0.009634523955232621 0.0 0.0
-0.012147094208717304 0.009927553576393189 0.0 0.007608777357293817 0.0 0.0
-0.008399096069565362 0.006422577474458624 0.0 0.0055816189484790835 0.0 0.0
-0.005366565159044483 0.0036891508589820265 0.0 0.0038019163814953516 0.0 0.0
-0.0032268005587158463 0.0019045806003499255 0.0 0.0025792959284817174 0.0 0.0
-0.001985301240788634 0.0010121522522464899 0.0 0.0019941075570463207 0.0 0.0
-0.001377271058584241 0.0006644889651679087 0.0 0.0018553272584818092 0.0 0.0
-0.0010271629919823347 0.0004943660846666864 0.0 0.0019328331171501179 0.0 0.0
-0.0007180607255708529 0.00031199457850233925 0.0 0.0020138613341587897 0.0 0.0
-0.0003505962074458052 1.2350382272180438e-05 0.0 0.001875183897225574 0.0 0.0
3.984321596019885e-05 -0.00033468757556331247 0.0 0.0010045288571596256 0.0 0.0
-1.9839956002326575e-05 -0.00020161057536177696 0.0 -0.0008129635876830965 0.0 0.0
-0.00040122397643380103 6.39475948658319e-05 0.0 -0.0016278839246170185 0.0 0.0
-0.0008198740748703026 0.0003551263683786443 0.0 -0.0017917351492526268 0.0 0.0
-0.0011995350368887991 0.0005583287053305686 0.0 -0.0016936134908401845 0.0 0.0
-0.0016467088144311304 0.0007926772300391738 0.0 -0.001600315513434536 0.0 0.0
-0.002495604545631136 0.0013389780772550264 0.0 -0.001760935424733906 0.0 0.0
-0.004158304393602458 0.002645635418787373 0.0 -0.0024201557776921123 0.0 0.0
-0.006863591763056648 0.0050153617703228015 0.0 -0.0037241541465740102 0.0 0.0
-0.010538291408089512 0.008411620191197677 0.0 -0.005469013465685513 0.0 0.0
-0.015046821815334482 0.01267204705525593 0.0 -0.00738462866063766 0.0 0.0
-0.02029768882288821 0.017690325674480478 0.0 -0.009322497295741361 0.0 0.0
-0.02626450620300208 0.023433816944397723 0.0 -0.011188075369368167 0.0 0.0
-0.03301506681779276 0.029966967184329008 0.0 -0.013036217771078107 0.0 0.0
-0.04068058463667207 0.037420557293116996 0.0 -0.014965930160442675 0.0 0.0
-0.04936342757951778 0.04588235260559426 0.0 -0.01707841453142578 0.0 0.0
-0.05889038799760524 0.05513454705235743 0.0 -0.019692609230796077 0.0 0.0
-0.06829916660451854 0.06417545697529192 0.0 -0.023333176323725335 0.0 0.0
-0.07531143625533862 0.07071910270238835 0.0 -0.027980649664589685 0.0 0.0
-0.07614434847927723 0.07101889879455703 0.0 -0.032432910416733574 0.0 0.0
-0.06561857774047122 0.059932481601774334 0.0 -0.035074951284952915 0.0 0.0
-0.06561857774046653 0.05993248160177034 0.0 0.035074951284988276 0.0 0.0
-0.07614434847926195 0.07101889879454149 0.0 0.03243291041677915 0.0 0.0
-0.07531143625531167 0.07071910270236215 0.0 0.027980649664621382 0.0 0.0
-0.06829916660448325 0.06417545697525506 0.0 0.02333317632373333 0.0 0.0
-0.05889038799756498 0.05513454705231835 0.0 0.019692609230793967 0.0 0.0
-0.04936342757947593 0.04588235260555562 0.0 0.017078414531420782 0.0 0.0
-0.04068058463663024 0.03742055729307525 0.0 0.014965930160431462 0.0 0.0
-0.03301506681775177 0.029966967184286375 0.0 0.013036217771068087 0.0 0.0
-0.026264506202960683 0.023433816944358643 0.0 0.011188075369356454 0.0 0.0
-0.020297688822850386 0.017690325674447394 0.0 0.009322497295721294 0.0 0.0
-0.01504682181530189 0.01267204705522551 0.0 0.007384628660619674 0.0 0.0
-0.010538291408063873 0.00841162019117414 0.0 0.005469013465673828 0.0 0.0
-0.006863591763038607 0.00501536177030637 0.0 0.0037241541465645456 0.0 0.0
-0.0041583043935914665 0.0026456354187798237 0.0 0.0024201557776866445 0.0 0.0
-0.002495604545625696 0.0013389780772516957 0.0 0.0017609354247299647 0.0 0.0
-0.0016467088144293124 0.0007926772300379525 0.0 0.0016003155134329816 0.0 0.0
-0.0011995350368878277 0.0005583287053296804 0.0 0.001693613490839102 0.0 0.0
-0.0008198740748693659 0.00035512636837875533 0.0 0.0017917351492515998 0.0 0.0
-0.00040122397643355123 6.394759486591517e-05 0.0 0.00162788392461638 0.0 0.0
-1.983995600223637e-05 -0.00020161057536141093 0.0 0.0008129635876827357 0.0 0.0
-6.837421807587285e-05 -9.29339726336853e-05 0.0 -0.0006151613166419101 0.0 0.0
-0.0004487145347508992 0.00011552982686208191 0.0 -0.0013431979273209604 0.0 0.0
-0.0009164970230811087 0.00039622649347703653 0.0 -0.0015150187863484932 0.0 0.0
-0.0013647561439203981 0.0006176591021838096 0.0 -0.0014062937496351346 0.0 0.0
-0.0019328847344928235 0.0009395959385880559 0.0 -0.0013078312658034164 0.0 0.0
-0.003067417056255739 0.0017496558107428228 0.0 -0.0014965145530738133 0.0 0.0
-0.005180795677008521 0.0035151498401566617 0.0 -0.002199547981341976 0.0 0.0
-0.008405116251641864 0.006430534545657007 0.0 -0.0034142086755900025 0.0 0.0
-0.012689697483148382 0.010440875093440605 0.0 -0.004946427733924397 0.0 0.0
-0.01795612766601526 0.01544808225602523 0.0 -0.006660871811650371 0.0 0.0
-0.02412173531412387 0.02136247312348294 0.0 -0.008395728278232706 0.0 0.0
-0.03117293791369763 0.028166200066330305 0.0 -0.010072652978093899 0.0 0.0
-0.039177400362547604 0.03592773973801666 0.0 -0.011762723253658791 0.0 0.0
-0.04824713758551208 0.044756413056509015 0.0 -0.01352537537550147 0.0 0.0
-0.058449533664733794 0.05471418429867869 0.0 -0.015352519882106286 0.0 0.0
-0.06960485588573312 0.06557853054169183 0.0 -0.017312674345718593 0.0 0.0
-0.08071588765135373 0.07627424479965894 0.0 -0.01999920538832911 0.0 0.0
-0.08916520260261787 0.08418163455394456 0.0 -0.02442752107454016 0.0 0.0
-0.09051546574097502 0.08493797167293726 0.0 -0.030915709977135775 0.0 0.0
-0.07888582537028398 0.07274402764050025 0.0 -0.038770397307634985 0.0 0.0
-0.07888582537027837 0.07274402764049581 0.0 0.03877039730767007 0.0 0.0
-0.09051546574095605 0.08493797167292172 0.0 0.030915709977176187 0.0 0.0
-0.08916520260258619 0.08418163455391525 0.0 0.02442752107457008 0.0 0.0
-0.08071588765131277 0.07627424479962164 0.0 0.01999920538833655 0.0 0.0
-0.06960485588568704 0.06557853054165186 0.0 0.01731267434571626 0.0 0.0
-0.05844953366468466 0.05471418429862984 0.0 0.015352519882100818 0.0 0.0
-0.04824713758546384 0.0447564130564615 0.0 0.013525375375492754 0.0 0.0
-0.039177400362499504 0.03592773973797048 0.0 0.011762723253650187 0.0 0.0
-0.031172937913650063 0.028166200066281455 0.0 0.010072652978082769 0.0 0.0
-0.02412173531407979 0.021362473123439862 0.0 0.00839572827821422 0.0 0.0
-0.017956127665978004 0.015448082255992146 0.0 0.006660871811633745 0.0 0.0
-0.012689697483118462 0.010440875093413515 0.0 0.004946427733913017 0.0 0.0
-0.00840511625161993 0.006430534545635469 0.0 0.003414208675580177 0.0 0.0
-0.005180795676994622 0.0035151498401448933 0.0 0.0021995479813360086 0.0 0.0
-0.0030674170562485434 0.0017496558107379379 0.0 0.0014965145530720925 0.0 0.0
-0.0019328847344905545 0.0009395959385869457 0.0 0.0013078312658023616 0.0 0.0
-0.0013647561439192324 0.0006176591021845868 0.0 0.00140629374963408 0.0 0.0
-0.0009164970230801164 0.0003962264934763704 0.0 0.0015150187863453013 0.0 0.0
-0.0004487145347504065 0.00011552982686219293 0.0 0.0013431979273178518 0.0 0.0
-6.837421807588673e-05 -9.293397263361591e-05 0.0 0.000615161316640106 0.0 0.0
-0.00010205178540567683 -1.1762065326603732e-05 0.0 -0.0004127960836270428 0.0 0.0
-0.0004882016897836128 0.00016343458348644369 0.0 -0.0010236311956707544 0.0 0.0
-0.001008243616581389 0.0004338971794645152 0.0 -0.0011822701499335786 0.0 0.0
-0.0015293532050241476 0.0006804284547170525 0.0 -0.0010734490956378628 0.0 0.0
-0.0022501211238206975 0.001124878755578207 0.0 -0.0009830761877261673 0.0 0.0
-0.0037162723751940907 0.0022539618919699134 0.0 -0.0012017220258178085 0.0 0.0
-0.00625755582613266 0.004467760232022666 0.0 -0.00182159125530873 0.0 0.0
-0.00995527388472267 0.007880022778668838 0.0 -0.0028014668424497513 0.0 0.0
-0.014840188926325548 0.01248862848584431 0.0 -0.0040497343060045266 0.0 0.0
-0.020855711944683247 0.018231928017289567 0.0 -0.0054521217171277225 0.0 0.0
-0.027936937128438755 0.02504155123011942 0.0 -0.006876772613174542 0.0 0.0
-0.03608068478815524 0.032914407265472345 0.0 -0.008251405971489822 0.0 0.0
-0.04535346210365207 0.041916414980858185 0.0 -0.009645939449390073 0.0 0.0
-0.05583367264773445 0.05212380918934878 0.0 -0.011151252028046454 0.0 0.0
-0.06749756410495891 0.06350980206487478 0.0 -0.012639353392710384 0.0 0.0
-0.08007369195060651 0.07578133687634336 0.0 -0.013798454331008125 0.0 0.0
-0.09264403118418515 0.08794624961803565 0.0 -0.014986240603926726 0.0 0.0
-0.102679610170474 0.09736549468845546 0.0 -0.018542807460678934 0.0 0.0
-0.1050959580888936 0.09909378756652432 0.0 -0.027313521524885864 0.0 0.0
-0.09293538389864375 0.08630681242786542 0.0 -0.04203442914843769 0.0 0.0
-0.09293538389863705 0.08630681242785965 0.0 0.04203442914846528 0.0 0.0
-0.10509595808887096 0.09909378756650122 0.0 0.02731352152491945 0.0 0.0
-0.10267961017043699 0.09736549468842082 0.0 0.018542807460705246 0.0 0.0
-0.09264403118413861 0.08794624961799169 0.0 0.014986240603932499 0.0 0.0
-0.08007369195055439 0.07578133687629629 0.0 0.013798454331007709 0.0 0.0
-0.06749756410490293 0.06350980206482726 0.0 0.012639353392708608 0.0 0.0
-0.05583367264767956 0.052123809189298154 0.0 0.011151252028041403 0.0 0.0
-0.045353462103597086 0.041916414980808 0.0 0.009645939449383856 0.0 0.0
-0.03608068478810133 0.0329144072654215 0.0 0.008251405971482412 0.0 0.0
-0.0279369371283888 0.0250415512300719 0.0 0.006876772613160054 0.0 0.0
-0.020855711944641336 0.018231928017249155 0.0 0.00545212171711329 0.0 0.0
-0.014840188926291503 0.012488628485813003 0.0 0.004049734305995145 0.0 0.0
-0.009955273884697372 0.007880022778646856 0.0 0.0028014668424427014 0.0 0.0
-0.006257555826115948 0.004467760232008455 0.0 0.0018215912553019298 0.0 0.0
-0.0037162723751848967 0.0022539618919608095 0.0 0.001201722025814228 0.0 0.0
-0.0022501211238175056 0.0011248787555747652 0.0 0.0009830761877256122 0.0 0.0
-0.001529353205022909 0.0006804284547151651 0.0 0.0010734490956374465 0.0 0.0
-0.0010082436165806709 0.0004338971794629054 0.0 0.0011822701499330235 0.0 0.0
-0.00048820168978311665 0.00016343458348602735 0.0 0.0010236311956688948 0.0 0.0
-0.00010205178540557622 -1.176206532671649e-05 0.0 0.00041279608362582154 0.0 0.0
-0.00011444916423797302 3.790954607046926e-05 0.0 -0.00021256421739221376 0.0 0.0
-0.0005109889343786478 0.00020186487313983426 0.0 -0.000668760228862586 0.0 0.0
-0.0010961390143438 0.0004683289276414815 0.0 -0.0007869784944353753 0.0 0.0
-0.0017044686494486205 0.0007533433880810847 0.0 -0.0006984644501631387 0.0 0.0
-0.002617943547282009 0.0013737548664236598 0.0 -0.0006429425698365743 0.0 0.0
-0.004431656084590313 0.0028469471412000402 0.0 -0.0008240182459725576 0.0 0.0
-0.007349853837425785 0.005467051938419898 0.0 -0.0012634377224901572 0.0 0.0
-0.011504211169458461 0.009344130751876678 0.0 -0.0019262991579137578 0.0 0.0
-0.016971567902495738 0.014533706745099462 0.0 -0.002786221433182856 0.0 0.0
-0.023727539953284082 0.02100298141118162 0.0 -0.0037676678502205907 0.0 0.0
-0.031725924738211425 0.028708283140732815 0.0 -0.004763200597982409 0.0 0.0
-0.040971194282972384 0.03765818135203425 0.0 -0.005724661230948058 0.0 0.0
-0.051523466241913146 0.04791156940953778 0.0 -0.006733307822964996 0.0 0.0
-0.06340888908584441 0.05949062559821394 0.0 -0.007813805099548654 0.0 0.0
-0.07649004915021987 0.0722532149789914 0.0 -0.00881868635481986 0.0 0.0
-0.09032025487637926 0.08575123461229728 0.0 -0.009369101575887218 0.0 0.0
-0.10396202974931007 0.09902285708150593 0.0 -0.009176493619727277 0.0 0.0
-0.11543646707451852 0.10996789863893497 0.0 -0.010335053540907024 0.0 0.0
-0.11998559770144479 0.11356137676875022 0.0 -0.020299732197652798 0.0 0.0
-0.10836477246084997 0.10116384827907332 0.0 -0.04413318132229893 0.0 0.0
-0.10836477246084156 0.10116384827906844 0.0 0.04413318132231914 0.0 0.0
-0.11998559770141871 0.11356137676872535 0.0 0.020299732197678055 0.0 0.0
-0.11543646707447648 0.109967898638891 0.0 0.010335053540926398 0.0 0.0
-0.10396202974925699 0.09902285708145264 0.0 0.009176493619730164 0.0 0.0
-0.09032025487632012 0.08575123461224354 0.0 0.009369101575887079 0.0 0.0
-0.07649004915015768 0.07225321497893367 0.0 0.008818686354818028 0.0 0.0
-0.0634088890857826 0.05949062559815266 0.0 0.007813805099543908 0.0 0.0
-0.0515234662418513 0.047911569409474275 0.0 0.006733307822959084 0.0 0.0
-0.0409711942829119 0.03765818135197363 0.0 0.005724661230943562 0.0 0.0
-0.031725924738155935 0.028708283140678192 0.0 0.004763200597972417 0.0 0.0
-0.023727539953237706 0.02100298141113832 0.0 0.003767667850209988 0.0 0.0
-0.016971567902457765 0.014533706745063935 0.0 0.002786221433177194 0.0 0.0
-0.011504211169429884 0.009344130751850477 0.0 0.001926299157909428 0.0 0.0
-0.0073498538374068695 0.005467051938402578 0.0 0.0012634377224862159 0.0 0.0
-0.004431656084578763 0.002846947141188605 0.0 0.0008240182459691991 0.0 0.0
-0.002617943547277485 0.0013737548664212174 0.0 0.0006429425698365465 0.0 0.0
-0.001704468649447382 0.0007533433880805296 0.0 0.0006984644501626114 0.0 0.0
-0.001096139014343172 0.0004683289276410929 0.0 0.0007869784944352087 0.0 0.0
-0.0005109889343783702 0.000201864873139862 0.0 0.000668760228862586 0.0 0.0
-0.0001144491642377822 3.790954607046752e-05 0.0 0.00021256421739157538 0.0 0.0
-9.407348791004577e-05 5.035303386136114e-05 0.0 -3.0547990177570705e-05 0.0 0.0
-0.0005024642197545004 0.0002217856635042259 0.0 -0.0002720383903054846 0.0 0.0
-0.001183571277404205 0.000500382658715659 0.0 -0.00031471968138024886 0.0 0.0
-0.0019094845370883073 0.0008574240907153197 0.0 -0.00028960166665403797 0.0 0.0
-0.003048140390472187 0.0016868770851099502 0.0 -0.00026709324904783394 0.0 0.0
-0.00518263451475745 0.0034932799545639437 0.0 -0.00033706453474596776 0.0 0.0
-0.008447586449811889 0.006487884949882172 0.0 -0.000519916572482515 0.0 0.0
-0.013034837876326838 0.010804806806687939 0.0 -0.0007907404565996035 0.0 0.0
-0.019066573973011064 0.01655456696056934 0.0 -0.0011642778277046184 0.0 0.0
-0.026552386523694266 0.023739548158095314 0.0 -0.0016069159683950729 0.0 0.0
-0.03547220093945452 0.03234551154191956 0.0 -0.00205928737395622 0.0 0.0
-0.04583324600607552 0.042384470648371586 0.0 -0.002516396737737847 0.0 0.0
-0.057658377118196824 0.053882467592850425 0.0 -0.00299078105181827 0.0 0.0
-0.07092599199116778 0.06681104884472511 0.0 -0.0034673847147582704 0.0 0.0
-0.08540064763005098 0.08092684407779771 0.0 -0.003868147665110677 0.0 0.0
-0.10042748811439908 0.09557786891179676 0.0 -0.003946813601642951 0.0 0.0
-0.11483937963543153 0.10961522372682042 0.0 -0.0033035280008046897 0.0 0.0
-0.12695196373673434 0.12134410970357745 0.0 -0.0020700421642333433 0.0 0.0
-0.13390083498653924 0.12767878106154296 0.0 -0.006986796377886684 0.0 0.0
-0.12689699097407706 0.11860473222614099 0.0 -0.04068882443137667 0.0 0.0
-0.12689699097406734 0.11860473222613033 0.0 0.04068882443138433 0.0 0.0
-0.13390083498650962 0.1276787810615141 0.0 0.006986796377898397 0.0 0.0
-0.12695196373668682 0.12134410970353304 0.0 0.002070042164242225 0.0 0.0
-0.11483937963537028 0.10961522372676225 0.0 0.0033035280008036627 0.0 0.0
-0.10042748811433286 0.09557786891172793 0.0 0.003946813601643895 0.0 0.0
-0.0854006476299827 0.0809268440777311 0.0 0.003868147665108429 0.0 0.0
-0.07092599199109857 0.06681104884465716 0.0 0.0034673847147568826 0.0 0.0
-0.05765837711812832 0.05388246759278292 0.0 0.0029907810518162714 0.0 0.0
-0.04583324600600889 0.042384470648308525 0.0 0.0025163967377358487 0.0 0.0
-0.03547220093939294 0.03234551154186138 0.0 0.0020592873739502526 0.0 0.0
-0.02655238652364346 0.023739548158046242 0.0 0.0016069159683902157 0.0 0.0
-0.019066573972969514 0.01655456696053026 0.0 0.0011642778277033972 0.0 0.0
-0.013034837876294916 0.010804806806657075 0.0 0.0007907404565965503 0.0 0.0
-0.008447586449790725 0.006487884949861078 0.0 0.0005199165724812937 0.0 0.0
-0.005182634514744073 0.0034932799545532855 0.0 0.00033706453474585674 0.0 0.0
-0.003048140390466302 0.0016868770851066195 0.0 0.00026709324904863885 0.0 0.0
-0.001909484537086773 0.0008574240907149866 0.0 0.00028960166665273346 0.0 0.0
-0.0011835712774033638 0.0005003826587151594 0.0 0.0003147196813806097 0.0 0.0
-0.0005024642197544093 0.00022178566350333773 0.0 0.00027203839030476296 0.0 0.0
-9.40734879097873e-05 5.035303386122757e-05 0.0 3.054799017651599e-05 0.0 0.0
SCALARS Statev float 8
LOOKUP_TABLE default
0.0 0.011298818066916358 0.00867246958021199 -0.009055878321491843 0.00038340874127985305 -0.004942126432673379 0.0 0.0
0.0 0.00046610016562090783 0.00030349168411541094 -0.00024706180181660104 -5.642988229880992e-05 0.00031209449164300036 0.0 0.0
0.0 3.342380937738801e-05 -4.754075056001044e-06 3.773145031477424e-06 9.809300245235895e-07 5.62033213615258e-07 0.0 0.0
0.0 0.0001664097378378777 9.209650940431344e-05 -7.185019069530073e-05 -2.0246318709012807e-05 -1.2591103382701541e-05 0.0 0.0
0.0 0.0010301113750383992 0.0007810031430618622 -0.0006339854275024115 -0.00014701771555945071 -8.622565673944302e-05 0.0 0.0
0.0 0.002821785288971524 0.0025834944113432984 -0.0022067432214360094 -0.00037675118990728937 -0.00021195563014661325 0.0 0.0
0.0 0.00619072958233912 0.005573242004491425 -0.005004189825276216 -0.0005690521792152074 -0.00039355417769440575 0.0 0.0
0.0 0.011163929199688578 0.009923874709844047 -0.009215955401199977 -0.000707919308644066 -0.0006516580008909226 0.0 0.0
0.0 0.017842987956423424 0.015722524525204565 -0.01490394781655784 -0.0008185767086467213 -0.0010061473245922905 0.0 0.0
0.0 0.026234301340059215 0.022978690236046505 -0.02205470700664594 -0.0009239832294005664 -0.0014347430587878384 0.0 0.0
0.0 0.0363489486693541 0.03168452683920492 -0.030653601153096087 -0.0010309256861088239 -0.0018849279009907271 0.0 0.0
0.0 0.047921076081590054 0.041857919181648336 -0.040717636039112444 -0.0011402831425358822 -0.002346504755097985 0.0 0.0
0.0 0.06128402776533431 0.05352031685576557 -0.05226939905432997 -0.0012509178014355488 -0.0028222140376079753 0.0 0.0
0.0 0.07642861957868313 0.06666574371818222 -0.06530157481746485 -0.0013641689007173206 -0.0033114847819995623 0.0 0.0
0.0 0.09310922493302734 0.08113652599527149 -0.07965459622258372 -0.0014819297726877498 -0.003811687834441393 0.0 0.0
0.0 0.1108253854350388 0.09646868331470142 -0.09486494934272441 -0.0016037339719770299 -0.004237132897497057 0.0 0.0
0.0 0.1285701656660369 0.11181875317625642 -0.11009281808919832 -0.001725935087058113 -0.004398751346248854 0.0 0.0
0.0 0.14494987139731097 0.12599605397207067 -0.12415312943348882 -0.0018429245385818294 -0.004057396378778236 0.0 0.0
0.0 0.15830967025722129 0.13756597627614467 -0.13561676673068118 -0.001949209545463431 -0.003272069876294747 0.0 0.0
0.0 0.1663103181202581 0.1446353459988379 -0.1425546694063454 -0.0020806765924924753 -0.0031116166176109973 0.0 0.0
0.0 0.16631031812024752 0.1446353459988286 -0.14255466940633615 -0.002080676592492471 0.0031116166176161286 0.0 0.0
0.0 0.15830967025718812 0.13756597627611591 -0.1356167667306524 -0.001949209545463532 0.0032720698763127167 0.0 0.0
0.0 0.14494987139725862 0.12599605397202515 -0.12415312943344399 -0.001842924538581162 0.00405739637878565 0.0 0.0
0.0 0.12857016566597226 0.11181875317619984 -0.11009281808914317 -0.0017259350870566183 0.0043987513462547916 0.0 0.0
0.0 0.1108253854349672 0.09646868331463895 -0.09486494934266304 -0.0016037339719759307 0.004237132897489504 0.0 0.0
0.0 0.09310922493295187 0.08113652599520602 -0.07965459622251858 -0.0014819297726874558 0.0038116878344414823 0.0 0.0
0.0 0.07642861957860589 0.06666574371811546 -0.06530157481739812 -0.0013641689007173271 0.003311484781998336 0.0 0.0
0.0 0.061284027765259 0.05352031685570022 -0.052269399054265135 -0.0012509178014350913 0.002822214037608117 0.0 0.0
0.0 0.04792107608151793 0.04185791918158557 -0.040717636039050494 -0.0011402831425350811 0.002346504755092871 0.0 0.0
0.0 0.03634894866929113 0.03168452683914976 -0.030653601153041794 -0.001030925686107962 0.0018849279009881385 0.0 0.0
0.0 0.0262343013400066 0.022978690236000653 -0.02205470700660095 -0.0009239832293997086 0.0014347430587823475 0.0 0.0
0.0 0.017842987956383824 0.015722524525169528 -0.014903947816523443 -0.0008185767086460894 0.0010061473245905274 0.0 0.0
0.0 0.011163929199659157 0.009923874709817555 -0.009215955401174182 -0.0007079193086433743 0.0006516580008888914 0.0 0.0
0.0 0.006190729582319594 0.005573242004473526 -0.005004189825259101 -0.0005690521792144233 0.0003935541776932536 0.0 0.0
0.0 0.0028217852889604435 0.0025834944113327096 -0.0022067432214264112 -0.00037675118990629765 0.00021195563014569477 0.0 0.0
0.0 0.001030111375033444 0.0007810031430579116 -0.0006339854274990872 -0.00014701771555882407 8.62256567389925e-05 0.0 0.0
0.0 0.00016640973783651683 9.20965094040248e-05 -7.185019069506363e-05 -2.0246318708961195e-05 1.2591103382601974e-05 0.0 0.0
0.0 3.342380937687491e-05 -4.754075055922566e-06 3.7731450314146314e-06 9.80930024507978e-07 -5.620332136057866e-07 0.0 0.0
0.0 0.0004661001656188223 0.000303491684114329 -0.0002470618018157117 -5.64298822986176e-05 -0.0003120944916415496 0.0 0.0
0.0 0.011298818066899708 0.008672469580200796 -0.00905587832147963 0.0003834087412788294 0.0049421264326479555 0.0 0.0
0.0 0.008191397481077804 0.005894346412225224 -0.0063779419376353425 0.00048359552541011615 -0.0055954549222580075 0.0 0.0
0.0 9.735811856412316e-08 -9.785169814275069e-09 7.955171207828274e-09 1.8299986064463344e-09 -7.27040002772591e-09 0.0 0.0
0.0 9.430826945183483e-08 -1.020951514236367e-08 7.758883502814768e-09 2.450631639548195e-09 3.6392644398315674e-09 0.0 0.0
0.0 4.9017920669586184e-05 1.5430036448378274e-05 -1.205294287847483e-05 -3.3770935699036792e-06 -6.86580282516223e-06 0.0 0.0
0.0 0.0006470981609120966 0.00044348253026848866 -0.0003561213698597688 -8.736116040871994e-05 -0.00011988761189321296 0.0 0.0
0.0 0.0020990371421866073 0.0019244457969271093 -0.0016184756894255276 -0.0003059701075015818 -0.00042329815673710996 0.0 0.0
0.0 0.005064441474396468 0.004558949887498636 -0.004040959133770287 -0.0005179907537283468 -0.0008890904941775336 0.0 0.0
0.0 0.009537379121721867 0.008471538217565246 -0.007798294365937604 -0.0006732438516276427 -0.001529757616735858 0.0 0.0
0.0 0.01556282381613186 0.013706827497887299 -0.01291764320259988 -0.0007891842952874158 -0.0023580716046498816 0.0 0.0
0.0 0.023105622623964546 0.020236965306183394 -0.01934455288732974 -0.0008924124188536594 -0.003321458212108202 0.0 0.0
0.0 0.032122777486151624 0.02802700691506614 -0.027033727658362303 -0.000993279256703821 -0.004322838576251344 0.0 0.0
0.0 0.0426735427349428 0.037091238996028564 -0.035997383732535165 -0.0010938552634934032 -0.005305964587060764 0.0 0.0
0.0 0.054538956167443045 0.04749571846796724 -0.04630020322591852 -0.001195515242048707 -0.006334658557855573 0.0 0.0
0.0 0.06804315863033263 0.059262044217255935 -0.05796243530737902 -0.0012996089098768937 -0.007439012538765629 0.0 0.0
0.0 0.08303528862666942 0.07226119669966338 -0.07085398310403893 -0.0014072135956244777 -0.008560427545461323 0.0 0.0
0.0 0.09898504892375923 0.08609816129686805 -0.08458017085539764 -0.0015179904414704074 -0.009522137344200448 0.0 0.0
0.0 0.11505316378921762 0.10003658052567337 -0.09840694735497917 -0.0016296331706941783 -0.009932750287371447 0.0 0.0
0.0 0.13000540695049245 0.11300073116870757 -0.11126158694059246 -0.0017391442281150696 -0.009368119474516724 0.0 0.0
0.0 0.14214680948933728 0.12354361105356075 -0.12169179689745449 -0.0018518141561062735 -0.007825474821911113 0.0 0.0
0.0 0.1493863306621385 0.12985283911926163 -0.12791680803392375 -0.0019360310853378964 -0.005176901545557586 0.0 0.0
0.0 0.1493863306621286 0.12985283911925294 -0.12791680803391492 -0.001936031085338053 0.005176901545575213 0.0 0.0
0.0 0.1421468094893112 0.12354361105353737 -0.12169179689743186 -0.0018518141561055421 0.007825474821941682 0.0 0.0
0.0 0.1300054069504488 0.11300073116866896 -0.11126158694055477 -0.0017391442281141816 0.009368119474536108 0.0 0.0
0.0 0.11505316378915859 0.10003658052562203 -0.09840694735492803 -0.001629633170693941 0.00993275028738117 0.0 0.0
0.0 0.0989850489236952 0.08609816129681241 -0.08458017085534286 -0.0015179904414695457 0.009522137344193576 0.0 0.0
0.0 0.08303528862660317 0.07226119669960558 -0.07085398310398222 -0.0014072135956233502 0.00856042754545926 0.0 0.0
0.0 0.06804315863026575 0.059262044217197704 -0.05796243530732166 -0.00129960890987602 0.007439012538763257 0.0 0.0
0.0 0.05453895616737634 0.04749571846790919 -0.04630020322586115 -0.001195515242048042 0.006334658557853279 0.0 0.0
0.0 0.042673542734880346 0.03709123899597412 -0.035997383732481444 -0.0010938552634926601 0.005305964587053351 0.0 0.0
0.0 0.03212277748609615 0.028027006915017787 -0.027033727658314678 -0.000993279256703108 0.004322838576244478 0.0 0.0
0.0 0.023105622623918128 0.02023696530614278 -0.019344552887289725 -0.0008924124188530516 0.003321458212098766 0.0 0.0
0.0 0.015562823816096343 0.013706827497855619 -0.012917643202568864 -0.0007891842952867514 0.002358071604645478 0.0 0.0
0.0 0.009537379121694878 0.008471538217541081 -0.007798294365914289 -0.0006732438516267955 0.00152975761673141 0.0 0.0
0.0 0.005064441474378644 0.0045589498874823095 -0.004040959133754819 -0.0005179907537274921 0.0008890904941743279 0.0 0.0
0.0 0.0020990371421768642 0.0019244457969183396 -0.001618475689417733 -0.0003059701075006061 0.00042329815673503013 0.0 0.0
0.0 0.0006470981609079016 0.0004434825302655641 -0.00035612136985733057 -8.736116040823354e-05 0.00011988761189234602 0.0 0.0
0.0 4.901792066909072e-05 1.5430036448572286e-05 -1.205294287862185e-05 -3.3770935699502914e-06 6.865802825219895e-06 0.0 0.0
0.0 9.430826938068039e-08 -1.0209515134588993e-08 7.758883496907494e-09 2.4506316376819497e-09 -3.6392644370560787e-09 0.0 0.0
0.0 9.735811846572097e-08 -9.78516980428818e-09 7.9551711997036e-09 1.8299986045861706e-09 7.270400020323914e-09 0.0 0.0
0.0 0.008191397481058738 0.005894346412212574 -0.006377941937621885 0.0004835955254093114 0.005595454922236326 0.0 0.0
0.0 0.006093913534042367 0.0041412665756195306 -0.004636043662066275 0.0004947770864467452 -0.004834935437242759 0.0 0.0
0.0 0.0 0.0 0.0 0.0 0.0 0.0 0.0
0.0 0.0 0.0 0.0 0.0 0.0 0.0 0.0
0.0 7.064803683874494e-06 3.5056896845407094e-06 -2.726593216435874e-06 -7.790964681048556e-07 -2.462141486462389e-06 0.0 0.0
0.0 0.00031272355951449875 0.00021117979596163382 -0.00016783348678111988 -4.3346309180513895e-05 -0.00010293267956875234 0.0 0.0
0.0 0.0015993881677608653 0.0012970594333339737 -0.0010740861470262797 -0.0002229732863076928 -0.0004963625087253947 0.0 0.0
0.0 0.003982376736668439 0.0035668790599628457 -0.0031119428369109072 -0.00045493622305193843 -0.0011869526007734037 0.0 0.0
0.0 0.007931915011629369 0.0070191026764306495 -0.006390785151608097 -0.0006283175248225526 -0.002148687558524426 0.0 0.0
0.0 0.013310904604622613 0.011670875660167033 -0.0109173737677066 -0.0007535018924604271 -0.0033575829982088294 0.0 0.0
0.0 0.020021465401993333 0.01746436463920898 -0.01660845443110447 -0.0008559102081045033 -0.004740159490614581 0.0 0.0
0.0 0.02801836882800686 0.024341393748121366 -0.02339050652919286 -0.0009508872189285029 -0.006176110867255735 0.0 0.0
0.0 0.03722068706294936 0.03231155576665084 -0.031268005592181104 -0.0010435501744697315 -0.00758796262164214 0.0 0.0
0.0 0.047881617557152034 0.04144708062511113 -0.04031080192589514 -0.0011362786992159912 -0.009030580257280964 0.0 0.0
0.0 0.05974013594572845 0.05181202641272336 -0.05058106840594744 -0.0012309580067758877 -0.010600147689477483 0.0 0.0
0.0 0.07297582217248944 0.06332095516634453 -0.06199287797310551 -0.0013280771932389864 -0.012232267735298634 0.0 0.0
0.0 0.08720682043149511 0.07565371136122762 -0.07422613694953206 -0.001427574411695521 -0.013629963868570093 0.0 0.0
0.0 0.10163701274137694 0.08819291587856506 -0.08666423283884629 -0.0015286830397187173 -0.014299261214696391 0.0 0.0
0.0 0.11513044339729137 0.09996622180971937 -0.09833312691959942 -0.001633094890119912 -0.01369393977063839 0.0 0.0
0.0 0.12612799464852434 0.10959992248306216 -0.10786697967978721 -0.0017329428032749168 -0.0113600284967996 0.0 0.0
0.0 0.13284819002606177 0.11553788290439368 -0.1137347698913372 -0.0018031130130564353 -0.006703099557252808 0.0 0.0
0.0 0.13284819002605447 0.11553788290438666 -0.1137347698913307 -0.001803113013055913 0.0067030995572799675 0.0 0.0
0.0 0.12612799464849928 0.10959992248303925 -0.1078669796797647 -0.0017329428032745434 0.011360028496838943 0.0 0.0
0.0 0.11513044339725409 0.09996622180968578 -0.09833312691956644 -0.0016330948901192698 0.01369393977066638 0.0 0.0
0.0 0.10163701274132857 0.08819291587852232 -0.08666423283880414 -0.001528683039718195 0.014299261214709466 0.0 0.0
0.0 0.0872068204314358 0.07565371136117675 -0.07422613694948083 -0.0014275744116959102 0.013629963868562404 0.0 0.0
0.0 0.07297582217243151 0.06332095516629396 -0.06199287797305578 -0.0013280771932382273 0.012232267735295344 0.0 0.0
0.0 0.059740135945670014 0.05181202641267211 -0.05058106840589749 -0.0012309580067746213 0.010600147689474383 0.0 0.0
0.0 0.04788161755709328 0.04144708062505995 -0.04031080192584456 -0.0011362786992153856 0.009030580257275576 0.0 0.0
0.0 0.037220687062893526 0.03231155576660259 -0.03126800559213344 -0.0010435501744691467 0.0075879626216306464 0.0 0.0
0.0 0.028018368827956348 0.024341393748077214 -0.02339050652914917 -0.0009508872189280435 0.006176110867245578 0.0 0.0
0.0 0.02002146540195192 0.017464364639172652 -0.016608454431068884 -0.0008559102081037663 0.004740159490602089 0.0 0.0
0.0 0.013310904604589613 0.01167087566013802 -0.01091737376767814 -0.0007535018924598755 0.003357582998201069 0.0 0.0
0.0 0.007931915011605867 0.007019102676409738 -0.006390785151587903 -0.0006283175248218348 0.002148687558517786 0.0 0.0
0.0 0.003982376736653246 0.0035668790599490347 -0.0031119428368981527 -0.0004549362230508824 0.0011869526007691057 0.0 0.0
0.0 0.0015993881677518213 0.0012970594333264929 -0.001074086147019798 -0.00022297328630669383 0.000496362508722422 0.0 0.0
0.0 0.000312723559511556 0.0002111797959596927 -0.00016783348677954616 -4.334630918014642e-05 0.00010293267956776352 0.0 0.0
0.0 7.064803683498864e-06 3.5056896847332955e-06 -2.7265932165844623e-06 -7.790964681488516e-07 2.462141486586502e-06 0.0 0.0
0.0 0.0 0.0 0.0 0.0 0.0 0.0 0.0
0.0 0.0 0.0 0.0 0.0 0.0 0.0 0.0
0.0 0.0060939135340253685 0.004141266575607854 -0.004636043662053847 0.0004947770864459947 0.004834935437224039 0.0 0.0
0.0 0.0044747216810003656 0.0029058587520026345 -0.0033575242329210403 0.00045166548091840413 -0.0037432265415380745 0.0 0.0
0.0 0.0 0.0 0.0 0.0 0.0 0.0 0.0
0.0 0.0 0.0 0.0 0.0 0.0 0.0 0.0
0.0 1.7764958665315978e-06 -1.7819784007305854e-07 1.3787375697884427e-07 4.03240830942293e-08 1.8782013220909485e-07 0.0 0.0
0.0 0.00012348709798895468 7.615401959773983e-05 -6.0203087703950926e-05 -1.5950931893788785e-05 -6.045358642042629e-05 0.0 0.0
0.0 0.001028270033455302 0.0007878860071284496 -0.0006426005053707021 -0.00014528550175774775 -0.00046065073941058853 0.0 0.0
0.0 0.0030058008169991817 0.002610907058208592 -0.002237427889963846 -0.0003734791682447466 -0.0012882504565811216 0.0 0.0
0.0 0.006370123738716648 0.005584199564942292 -0.005013118698219534 -0.0005710808667227593 -0.0025005642566445566 0.0 0.0
0.0 0.011080432768151842 0.009634948877557514 -0.008926390160354417 -0.0007085587172030957 -0.003996845035748575 0.0 0.0
0.0 0.016951118918976146 0.014682871610220166 -0.01387005131810812 -0.00081282029211204 -0.005691911816387904 0.0 0.0
0.0 0.023909451283101152 0.02064832836243903 -0.01974501078353869 -0.0009033175789003437 -0.007441324127871785 0.0 0.0
0.0 0.03193073074544459 0.027528711990185813 -0.026539891098357967 -0.0009888208918278415 -0.009166940354260434 0.0 0.0
0.0 0.04108256137283241 0.03540270637607019 -0.034330038196288784 -0.0010726681797813967 -0.010939661034307905 0.0 0.0
0.0 0.05150340602693851 0.044352755341583894 -0.043194685698493225 -0.001158069643090656 -0.012824164395870197 0.0 0.0
0.0 0.06311570556516509 0.05434714878650235 -0.05310255794953847 -0.0012445908369638718 -0.014779225430403635 0.0 0.0
0.0 0.07542634154634253 0.06515672182535609 -0.06382430776127004 -0.0013324140640860508 -0.016526497848294176 0.0 0.0
0.0 0.08822559154131498 0.07627946187308683 -0.07485606977178536 -0.001423392101301447 -0.01748169008919252 0.0 0.0
0.0 0.1003316205594211 0.08687665191115765 -0.0853589399951509 -0.0015177119160067613 -0.016916578310640928 0.0 0.0
0.0 0.11034981996139022 0.09574200397317001 -0.0941348383451823 -0.0016071656279877129 -0.014022547268704184 0.0 0.0
0.0 0.11674437016757933 0.101499694944223 -0.09982881981192146 -0.0016708751323015298 -0.007945432222469625 0.0 0.0
0.0 0.1167443701675721 0.10149969494421601 -0.09982881981191478 -0.0016708751323012737 0.007945432222504007 0.0 0.0
0.0 0.11034981996137018 0.09574200397315069 -0.0941348383451634 -0.0016071656279872649 0.014022547268751647 0.0 0.0
0.0 0.10033162055938771 0.08687665191112698 -0.08535893999512055 -0.0015177119160064323 0.016916578310672892 0.0 0.0
0.0 0.08822559154127096 0.07627946187304767 -0.07485606977174639 -0.0014233921013012936 0.017481690089207687 0.0 0.0
0.0 0.07542634154629632 0.06515672182531597 -0.06382430776123077 -0.0013324140640851904 0.01652649784828746 0.0 0.0
0.0 0.06311570556511625 0.05434714878645998 -0.053102557949496615 -0.0012445908369633346 0.014779225430398038 0.0 0.0
0.0 0.05150340602688768 0.044352755341539755 -0.043194685698449226 -0.0011580696430905284 0.012824164395865277 0.0 0.0
0.0 0.04108256137278145 0.035402706376025814 -0.034330038196244805 -0.0010726681797810103 0.010939661034301012 0.0 0.0
0.0 0.031930730745395465 0.027528711990143118 -0.026539891098315782 -0.0009888208918273301 0.009166940354247614 0.0 0.0
0.0 0.02390945128305842 0.02064832836240172 -0.019745010783501996 -0.0009033175788997444 0.007441324127859171 0.0 0.0
0.0 0.016951118918938534 0.014682871610187914 -0.013870051318076239 -0.0008128202921116661 0.005691911816372332 0.0 0.0
0.0 0.011080432768122008 0.00963494887753144 -0.008926390160329 -0.0007085587172024378 0.003996845035738768 0.0 0.0
0.0 0.006370123738695087 0.005584199564923398 -0.005013118698201393 -0.0005710808667220017 0.0025005642566360608 0.0 0.0
0.0 0.0030058008169863634 0.002610907058197458 -0.0022374278899537567 -0.000373479168243701 0.0012882504565761474 0.0 0.0
0.0 0.0010282700334485883 0.0007878860071236549 -0.0006426005053666596 -0.00014528550175699534 0.00046065073940765354 0.0 0.0
0.0 0.00012348709798742352 7.615401959731019e-05 -6.020308770359548e-05 -1.5950931893714784e-05 6.045358642006948e-05 0.0 0.0
0.0 1.7764958662467406e-06 -1.7819784004332652e-07 1.3787375695581053e-07 4.032408308752122e-08 -1.8782013217738892e-07 0.0 0.0
0.0 0.0 0.0 0.0 0.0 0.0 0.0 0.0
0.0 0.0 0.0 0.0 0.0 0.0 0.0 0.0
0.0 0.004474721680985819 0.0029058587519930493 -0.0033575242329106515 0.0004516654809176012 0.0037432265415237326 0.0 0.0
0.0 0.0031666294193425345 0.0019734141804349592 -0.0023506541501950875 0.00037723996976012975 -0.002693324869351702 0.0 0.0
0.0 0.0 0.0 0.0 0.0 0.0 0.0 0.0
0.0 0.0 0.0 0.0 0.0 0.0 0.0 0.0
0.0 3.1234164431588785e-07 -2.5617850497127908e-08 2.0115826190663957e-08 5.502024306463789e-09 4.21043713021938e-08 0.0 0.0
0.0 4.274439224368063e-05 2.1076217606003752e-05 -1.672101234824015e-05 -4.3552052577636164e-06 -2.6161485738835658e-05 0.0 0.0
0.0 0.0005681513944559053 0.00041014692256648866 -0.00033040246201923655 -7.974446054725216e-05 -0.0003610881408381791 0.0 0.0
0.0 0.002196626291699259 0.0017340349800304036 -0.001456495169708731 -0.00027753981032167335 -0.0011977532121637006 0.0 0.0
0.0 0.004912512731050172 0.004179154601923753 -0.003683929438230863 -0.0004952251636928897 -0.0025450191647046847 0.0 0.0
0.0 0.00888757578478665 0.007619928682194229 -0.006969128305465451 -0.0006508003767287743 -0.0042661128197338865 0.0 0.0
0.0 0.01392122143422075 0.011913216863031036 -0.011152279122375746 -0.0007609377406552902 -0.006167183481522747 0.0 0.0
0.0 0.019857897029247278 0.01696766242945457 -0.01611843912543623 -0.0008492233040183397 -0.008122185185234703 0.0 0.0
0.0 0.026642641661150532 0.022765333811152588 -0.02183710654694765 -0.0009282272642049422 -0.010044228226146694 0.0 0.0
0.0 0.034433527659038024 0.029380859795074675 -0.028376709326451983 -0.0010041504686226904 -0.012004756888292133 0.0 0.0
0.0 0.043151328968736455 0.03691758555828842 -0.03583789962237019 -0.001079685935918226 -0.014104123519865813 0.0 0.0
0.0 0.05303080851928127 0.045386302455606764 -0.044230473611819594 -0.0011558288437871463 -0.016262423599541834 0.0 0.0
0.0 0.06386424677117661 0.054635581719979856 -0.05340259981604031 -0.0012329819039395278 -0.01818945883986363 0.0 0.0
0.0 0.07484229642961422 0.06429866329721089 -0.0629870149878399 -0.0013116483093709738 -0.019382357648854417 0.0 0.0
0.0 0.08550268701232477 0.0737204419803708 -0.07232650816430751 -0.0013939338160632714 -0.01899534002941303 0.0 0.0
0.0 0.0946538011228217 0.08190247383300414 -0.08042832554023138 -0.0014741482927727496 -0.015894139076156423 0.0 0.0
0.0 0.10087185879104238 0.0876053969017897 -0.08607017849493845 -0.0015352184068511956 -0.008975657363697204 0.0 0.0
0.0 0.10087185879103552 0.087605396901783 -0.0860701784949314 -0.0015352184068515298 0.008975657363732896 0.0 0.0
0.0 0.09465380112280392 0.0819024738329863 -0.08042832554021363 -0.0014741482927726015 0.01589413907620453 0.0 0.0
0.0 0.08550268701229866 0.07372044198034548 -0.07232650816428307 -0.0013939338160624127 0.018995340029447284 0.0 0.0
0.0 0.07484229642957677 0.0642986632971771 -0.06298701498780607 -0.0013116483093710443 0.019382357648870703 0.0 0.0
0.0 0.06386424677113108 0.05463558171994076 -0.05340259981600095 -0.0012329819039398064 0.018189458839856204 0.0 0.0
0.0 0.05303080851923246 0.04538630245556467 -0.04423047361177753 -0.0011558288437871467 0.016262423599533105 0.0 0.0
0.0 0.04315132896869337 0.0369175855582507 -0.035837899622333184 -0.0010796859359175157 0.014104123519860472 0.0 0.0
0.0 0.034433527658996446 0.02938085979503811 -0.028376709326415894 -0.0010041504686221965 0.012004756888285912 0.0 0.0
0.0 0.02664264166111039 0.022765333811117793 -0.021837106546913534 -0.000928227264204242 0.010044228226133385 0.0 0.0
0.0 0.019857897029212215 0.01696766242942424 -0.01611843912540682 -0.0008492233040174246 0.008122185185220466 0.0 0.0
0.0 0.013921221434188656 0.01191321686300414 -0.011152279122349644 -0.0007609377406544931 0.006167183481504917 0.0 0.0
0.0 0.008887575784761069 0.007619928682172233 -0.006969128305444063 -0.000650800376728167 0.00426611281972262 0.0 0.0
0.0 0.004912512731031975 0.004179154601908352 -0.003683929438216523 -0.0004952251636918278 0.0025450191646956243 0.0 0.0
0.0 0.002196626291688611 0.0017340349800218178 -0.0014564951697012278 -0.00027753981032059083 0.0011977532121585225 0.0 0.0
0.0 0.000568151394451351 0.00041014692256349946 -0.0003304024620167841 -7.974446054671531e-05 0.000361088140835491 0.0 0.0
0.0 4.274439224305667e-05 2.1076217606175212e-05 -1.67210123483656e-05 -4.355205257809538e-06 2.616148573898353e-05 0.0 0.0
0.0 3.1234164401444015e-07 -2.5617850471780222e-08 2.0115826170972936e-08 5.502024300809174e-09 -4.2104371261965705e-08 0.0 0.0
0.0 0.0 0.0 0.0 0.0 0.0 0.0 0.0
0.0 0.0 0.0 0.0 0.0 0.0 0.0 0.0
0.0 0.0031666294193305887 0.001973414180427381 -0.0023506541501867027 0.00037723996975932105 0.0026933248693404876 0.0 0.0
0.0 0.002088967561037174 0.0012594178647482484 -0.0015458759129462047 0.00028645804819795633 -0.0018026123627829112 0.0 0.0
0.0 0.0 0.0 0.0 0.0 0.0 0.0 0.0
0.0 0.0 0.0 0.0 0.0 0.0 0.0 0.0
0.0 7.616774122468806e-07 -5.549138125016537e-08 4.2107338484635224e-08 1.338404276552882e-08 1.233693222903045e-07 0.0 0.0
0.0 1.6856976974433254e-05 3.474282765139591e-06 -2.744238015947754e-06 -7.300447491918371e-07 -6.0237126810213556e-06 0.0 0.0
0.0 0.0002555016422195032 0.0001788435638646489 -0.0001430643534140013 -3.577921045064744e-05 -0.0002410338140167075 0.0 0.0
0.0 0.001348196852252388 0.001021647747850075 -0.0008413568696818167 -0.000180290878168258 -0.0010101404966451689 0.0 0.0
0.0 0.003548295431264659 0.002856540525239583 -0.0024628952546836102 -0.0003936452705559728 -0.00233419817243637 0.0 0.0
0.0 0.006795849498036367 0.005643476574026818 -0.005070182736307635 -0.000573293837719184 -0.004125450721534845 0.0 0.0
0.0 0.010946155987982126 0.009178956235538152 -0.008483180357935768 -0.0006957758776023849 -0.006150686721306847 0.0 0.0
0.0 0.015839724588843314 0.013321940563257088 -0.01253681135807455 -0.0007851292051825346 -0.008197644278321186 0.0 0.0
0.0 0.02142549474564004 0.018044103828424588 -0.017184059860932157 -0.000860043967492439 -0.010205323750522478 0.0 0.0
0.0 0.027759836310991985 0.023411803607867446 -0.0224830484350693 -0.0009287551727981474 -0.012243805805148927 0.0 0.0
0.0 0.03497604268624756 0.029534153074456077 -0.02853911148912724 -0.0009950415853288207 -0.014394245618381587 0.0 0.0
0.0 0.043165010207531364 0.036468589771017926 -0.03540750941430032 -0.0010610803567176284 -0.016620492209746096 0.0 0.0
0.0 0.05195270541417308 0.044135370803103646 -0.04300815022982822 -0.0011272205732754438 -0.018653277218452422 0.0 0.0
0.0 0.06144085895980687 0.052279122471998715 -0.051085909556738536 -0.0011932129152601653 -0.019981471666166425 0.0 0.0
0.0 0.07077692651492776 0.06047515149329636 -0.05921391394178326 -0.0012612375515130944 -0.019832596905662726 0.0 0.0
0.0 0.07892919351766034 0.06799583945614394 -0.06666422717138981 -0.0013316122847541283 -0.016933063920255162 0.0 0.0
0.0 0.08506698084950859 0.07373220645942234 -0.07233967689601731 -0.0013925295634050266 -0.009805955868494497 0.0 0.0
0.0 0.08506698084950273 0.07373220645941583 -0.07233967689601131 -0.0013925295634045448 0.00980595586853045 0.0 0.0
0.0 0.07892919351764535 0.0679958394561277 -0.066664227171374 -0.0013316122847536966 0.0169330639203021 0.0 0.0
0.0 0.07077692651490552 0.06047515149327423 -0.05921391394176099 -0.0012612375515132586 0.019832596905697122 0.0 0.0
0.0 0.06144085895977906 0.05227912247197297 -0.051085909556713 -0.001193212915259949 0.0199814716661814 0.0 0.0
0.0 0.05195270541414014 0.0441353708030749 -0.04300815022980047 -0.0011272205732743958 0.018653277218446524 0.0 0.0
0.0 0.0431650102074921 0.03646858977098411 -0.0354075094142669 -0.0010610803567172038 0.016620492209735983 0.0 0.0
0.0 0.03497604268621117 0.02953415307442451 -0.028539111489095912 -0.0009950415853285965 0.01439424561837338 0.0 0.0
0.0 0.027759836310959844 0.0234118036078393 -0.02248304843504191 -0.0009287551727973979 0.012243805805142068 0.0 0.0
0.0 0.021425494745608235 0.018044103828397485 -0.01718405986090573 -0.0008600439674917561 0.010205323750509795 0.0 0.0
0.0 0.015839724588813196 0.01332194056323165 -0.012536811358049663 -0.0007851292051819837 0.00819764427830678 0.0 0.0
0.0 0.010946155987955643 0.009178956235516282 -0.008483180357914653 -0.0006957758776016281 0.006150686721289092 0.0 0.0
0.0 0.006795849498017224 0.005643476574010566 -0.005070182736292236 -0.0005732938377183295 0.004125450721524028 0.0 0.0
0.0 0.0035482954312511987 0.002856540525228635 -0.0024628952546736364 -0.0003936452705549979 0.0023341981724280566 0.0 0.0
0.0 0.0013481968522449505 0.0010216477478444778 -0.0008413568696770599 -0.00018029087816741777 0.0010101404966404988 0.0 0.0
0.0 0.00025550164221615167 0.00017884356386281786 -0.0001430643534125156 -3.5779210450302276e-05 0.00024103381401431421 0.0 0.0
0.0 1.685697697386009e-05 3.4742827652046033e-06 -2.7442380159976814e-06 -7.300447492069117e-07 6.0237126811356415e-06 0.0 0.0
0.0 7.616774120036076e-07 -5.54913812317514e-08 4.210733847065235e-08 1.3384042761090036e-08 -1.2336932224923908e-07 0.0 0.0
0.0 0.0 0.0 0.0 0.0 0.0 0.0 0.0
0.0 0.0 0.0 0.0 0.0 0.0 0.0 0.0
0.0 0.002088967561027863 0.0012594178647425973 -0.001545875912939697 0.0002864580481971004 0.001802612362774662 0.0 0.0
0.0 0.0012628793029348657 0.0007195375324077565 -0.0009095571688662923 0.00019001963645853609 -0.0010830680824747987 0.0 0.0
0.0 0.0 0.0 0.0 0.0 0.0 0.0 0.0
0.0 0.0 0.0 0.0 0.0 0.0 0.0 0.0
0.0 1.343535810957597e-06 -6.745450613659108e-08 5.1836617700734505e-08 1.5617888435866596e-08 2.5068220686766373e-07 0.0 0.0
0.0 8.135096565982198e-06 2.4552569249810887e-06 -1.9437892558049087e-06 -5.114676691761844e-07 -6.493272118894444e-06 0.0 0.0
0.0 0.00012868634534614616 5.9294972510150825e-05 -4.735252500627816e-05 -1.1942447503872722e-05 -0.00012146400100564914 0.0 0.0
0.0 0.0007196265512324261 0.000488448832883354 -0.0003955525204004913 -9.289631248286281e-05 -0.0007217348235006211 0.0 0.0
0.0 0.0022695367436348464 0.0016987069693918443 -0.0014273662411607147 -0.00027134072823112944 -0.0019262000114706537 0.0 0.0
0.0 0.004786413322302797 0.0037604496996374017 -0.0032971425188614623 -0.0004633071807759393 -0.0036050632704614847 0.0 0.0
0.0 0.008046010072530804 0.006506145140200379 -0.005898843022746799 -0.0006073021174535785 -0.005596511964722858 0.0 0.0
0.0 0.011897492026000963 0.00973624428169909 -0.00903202812757779 -0.0007042161541212985 -0.007649875488075414 0.0 0.0
0.0 0.016269057847680287 0.013392310334342038 -0.012613043243624607 -0.0007792670907174319 -0.009634673382359054 0.0 0.0
0.0 0.02122352001782704 0.017524789792891925 -0.016681919046171532 -0.0008428707467203836 -0.011622463714669545 0.0 0.0
0.0 0.026819112660547338 0.022244530014687708 -0.021343317600030498 -0.0009012124146572047 -0.013706293465903118 0.0 0.0
0.0 0.03322233837995781 0.02763638991135143 -0.02667979842420449 -0.000956591487146938 -0.015856313018006805 0.0 0.0
0.0 0.04034174856690453 0.033691065613370236 -0.03267785336750859 -0.0010132122458616415 -0.017838161372693638 0.0 0.0
0.0 0.04789801439723808 0.04026225017649269 -0.039195429489827696 -0.0010668206866650018 -0.019238833979942235 0.0 0.0
0.0 0.055687292979717445 0.047139789955744194 -0.04602174591465805 -0.001118044041086157 -0.01940051185397949 0.0 0.0
0.0 0.06322903783185072 0.05393257038170313 -0.05275697347823805 -0.0011755969034650544 -0.01707100835692089 0.0 0.0
0.0 0.06941077803568191 0.05974786614015351 -0.05850963474644723 -0.001238231393706275 -0.010412755406347987 0.0 0.0
0.0 0.06941077803567794 0.05974786614014908 -0.05850963474644229 -0.001238231393706751 0.010412755406380975 0.0 0.0
0.0 0.06322903783184133 0.05393257038169141 -0.05275697347822611 -0.0011755969034653055 0.017071008356967718 0.0 0.0
0.0 0.05568729297970093 0.04713978995572607 -0.04602174591464027 -0.0011180440410857692 0.019400511854013765 0.0 0.0
0.0 0.04789801439721503 0.04026225017647056 -0.039195429489806075 -0.001066820686664498 0.01923883397995518 0.0 0.0
0.0 0.04034174856687873 0.033691065613347906 -0.0326778533674868 -0.0010132122458611013 0.017838161372686706 0.0 0.0
0.0 0.03322233837992941 0.02763638991132717 -0.0266797984241806 -0.000956591487146558 0.015856313017997618 0.0 0.0
0.0 0.026819112660521005 0.022244530014664837 -0.021343317600008047 -0.0009012124146567931 0.013706293465896326 0.0 0.0
0.0 0.021223520017804066 0.017524789792871864 -0.016681919046152127 -0.0008428707467197342 0.011622463714663063 0.0 0.0
0.0 0.016269057847654037 0.013392310334320104 -0.01261304324360302 -0.0007792670907170761 0.009634673382346037 0.0 0.0
0.0 0.011897492025974864 0.009736244281677865 -0.00903202812755698 -0.000704216154120879 0.007649875488059199 0.0 0.0
0.0 0.008046010072508464 0.006506145140183018 -0.005898843022730047 -0.0006073021174529695 0.005596511964704799 0.0 0.0
0.0 0.004786413322287285 0.0037604496996251685 -0.0032971425188500353 -0.00046330718077513167 0.0036050632704514723 0.0 0.0
0.0 0.0022695367436240373 0.0016987069693837026 -0.0014273662411535585 -0.0002713407282301442 0.0019262000114626567 0.0 0.0
0.0 0.0007196265512267733 0.0004884488328795277 -0.0003955525203973194 -9.28963124822078e-05 0.000721734823495917 0.0 0.0
0.0 0.0001286863453442476 5.9294972509569957e-05 -4.735252500580063e-05 -1.1942447503769233e-05 0.0001214640010044062 0.0 0.0
0.0 8.135096565775137e-06 2.4552569251794367e-06 -1.9437892559621024e-06 -5.1146766921734e-07 6.493272119441249e-06 0.0 0.0
0.0 1.343535810551308e-06 -6.74545061154224e-08 5.1836617684484416e-08 1.561788843093987e-08 -2.5068220678900275e-07 0.0 0.0
0.0 0.0 0.0 0.0 0.0 0.0 0.0 0.0
0.0 0.0 0.0 0.0 0.0 0.0 0.0 0.0
0.0 0.0012628793029276074 0.0007195375324037688 -0.0009095571688615838 0.00019001963645781477 0.0010830680824685983 0.0 0.0
0.0 0.0006509002498475874 0.00033713556331819083 -0.0004409912312794145 0.00010385566796122381 -0.0005335389719632078 0.0 0.0
0.0 5.68229300698234e-07 -7.067340485817422e-09 9.746384288017086e-09 -2.679043802201258e-09 1.14239571365149e-07 0.0 0.0
0.0 0.0 0.0 0.0 0.0 0.0 0.0 0.0
0.0 8.694762653476193e-07 -2.987712020632065e-08 2.159330647060148e-08 8.283813735721381e-09 1.7349073420562356e-07 0.0 0.0
0.0 6.6103123192475e-06 1.2724226066265193e-06 -1.002124123063594e-06 -2.702984835629385e-07 -5.216466374442017e-06 0.0 0.0
0.0 7.454292526302227e-05 2.5234612802431455e-05 -2.001377009246043e-05 -5.220842709971019e-06 -8.003255667735422e-05 0.0 0.0
0.0 0.00034294086495118676 0.0001760782256883486 -0.00014108437142337096 -3.4993854264977674e-05 -0.0004269912229195746 0.0 0.0
0.0 0.0012113503146491229 0.0007795116134649894 -0.0006371809312985653 -0.00014233068216642402 -0.0013491652895467165 0.0 0.0
0.0 0.0029317620482392577 0.0020657241238276457 -0.001753482943651309 -0.00031224118017633484 -0.002778892872567996 0.0 0.0
0.0 0.005206217032124503 0.003959860961040409 -0.003486120955427904 -0.0004737400056125039 -0.004537643572365133 0.0 0.0
0.0 0.00809788700311146 0.006251147568134799 -0.0056621481214566656 -0.0005889994466781337 -0.006419754594597653 0.0 0.0
0.0 0.011227674612031722 0.008847143684460088 -0.008175460908557688 -0.0006716827759023973 -0.00827620010432527 0.0 0.0
0.0 0.01476652766800614 0.011763301465391219 -0.011027032601161975 -0.0007362688642292442 -0.01011899501810851 0.0 0.0
0.0 0.01881866614026443 0.015094112785359366 -0.014304213590335697 -0.0007898991950236701 -0.012005027277054364 0.0 0.0
0.0 0.023518864812408478 0.018942277455142674 -0.018104930341278403 -0.0008373471138642704 -0.013942193957133054 0.0 0.0
0.0 0.028778860099533253 0.023360715421387294 -0.0224778961190017 -0.0008828193023855803 -0.015766289127564122 0.0 0.0
0.0 0.034596447919384835 0.02830610300387132 -0.027377911607945348 -0.0009281913959259704 -0.017092350526031443 0.0 0.0
0.0 0.04068811716488178 0.03373473714383757 -0.03277133153606768 -0.0009634056077698959 -0.017511546111235565 0.0 0.0
0.0 0.047077763605070336 0.039635105542232464 -0.038636266676617445 -0.0009988388656150004 -0.01612679105429021 0.0 0.0
0.0 0.05318854263729737 0.04551145528123793 -0.044449537729954955 -0.0010619175512829797 -0.010737913463452578 0.0 0.0
0.0 0.05318854263729628 0.045511455281235194 -0.04444953772995266 -0.0010619175512825213 0.01073791346348022 0.0 0.0
0.0 0.04707776360506395 0.03963510554222262 -0.038636266676608036 -0.0009988388656145826 0.01612679105433168 0.0 0.0
0.0 0.04068811716487129 0.033734737143824425 -0.032771331536055034 -0.0009634056077693852 0.01751154611126534 0.0 0.0
0.0 0.03459644791937079 0.02830610300385706 -0.027377911607932015 -0.0009281913959250395 0.01709235052604152 0.0 0.0
0.0 0.028778860099512513 0.023360715421370023 -0.02247789611898491 -0.0008828193023851049 0.0157662891275558 0.0 0.0
0.0 0.02351886481238762 0.018942277455125375 -0.01810493034126147 -0.0008373471138639109 0.013942193957123962 0.0 0.0
0.0 0.018818666140244727 0.01509411278534279 -0.014304213590319312 -0.0007898991950234824 0.012005027277047615 0.0 0.0
0.0 0.014766527667987276 0.011763301465375093 -0.011027032601146037 -0.0007362688642290559 0.010118995018102393 0.0 0.0
0.0 0.011227674612014179 0.008847143684445906 -0.00817546090854409 -0.0006716827759018163 0.008276200104314319 0.0 0.0
0.0 0.008097887003094786 0.006251147568121752 -0.005662148121444252 -0.0005889994466774983 0.006419754594585198 0.0 0.0
0.0 0.005206217032109241 0.003959860961029198 -0.0034861209554175304 -0.00047374000561166744 0.004537643572351835 0.0 0.0
0.0 0.002931762048229732 0.002065724123820758 -0.0017534829436451026 -0.0003122411801756555 0.002778892872560058 0.0 0.0
0.0 0.0012113503146431305 0.0007795116134608076 -0.0006371809312950719 -0.0001423306821657358 0.0013491652895412935 0.0 0.0
0.0 0.0003429408649479786 0.00017607822568690496 -0.00014108437142218422 -3.49938542647208e-05 0.00042699122291642343 0.0 0.0
0.0 7.454292526155054e-05 2.5234612802208475e-05 -2.001377009228349e-05 -5.2208427099249726e-06 8.003255667660112e-05 0.0 0.0
0.0 6.610312319128941e-06 1.2724226067949929e-06 -1.0021241231969526e-06 -2.70298483598033e-07 5.216466375164865e-06 0.0 0.0
0.0 8.694762648168817e-07 -2.987712019000699e-08 2.1593306458356525e-08 8.283813731647456e-09 -1.7349073409897767e-07 0.0 0.0
0.0 0.0 0.0 0.0 0.0 0.0 0.0 0.0
0.0 5.682293000733039e-07 -7.067340481250902e-09 9.746384282047934e-09 -2.6790438007974454e-09 -1.1423957123934295e-07 0.0 0.0
0.0 0.0006509002498427747 0.00033713556331598524 -0.0004409912312766879 0.00010385566796070281 0.0005335389719596623 0.0 0.0
0.0 0.00022651340375416136 0.00011549178284753534 -0.00015858063630989032 4.308885346235502e-05 -0.00019223417909299917 0.0 0.0
0.0 2.0717276247831737e-06 -6.165853434397743e-09 1.47916262852059e-08 -8.625772850807937e-09 4.367858720835785e-07 0.0 0.0
0.0 8.129603515550081e-07 -9.729788138728575e-10 -5.062304710215263e-10 1.479209284894036e-09 1.6676851108718092e-07 0.0 0.0
0.0 1.3942118126280809e-06 -1.7202479833820512e-08 1.1633862331670308e-08 5.568617502153395e-09 2.882879494068393e-07 0.0 0.0
0.0 6.809107790222815e-06 7.916205992705262e-07 -5.940808668845906e-07 -1.9753973238593996e-07 -5.63832629189948e-06 0.0 0.0
0.0 6.188935186233886e-05 1.22169684781316e-05 -9.716093213083455e-06 -2.5008752650481488e-06 -7.018372573387934e-05 0.0 0.0
0.0 0.0002016952527286954 5.9748073270002754e-05 -4.781813884300471e-05 -1.1929934426998001e-05 -0.000273903522222161 0.0 0.0
0.0 0.000527293383694855 0.00022695551683544888 -0.00018187523946119264 -4.508027737425613e-05 -0.0007724350576675185 0.0 0.0
0.0 0.0013581833328413862 0.0007274301906231219 -0.0005932428862016548 -0.00013418730442146755 -0.0017252241784613091 0.0 0.0
0.0 0.002689552872799556 0.0016838181290634129 -0.0014158136324665014 -0.0002680044965969107 -0.0030515854062050244 0.0 0.0
0.0 0.004384792075821113 0.002986207394960627 -0.002589836039468167 -0.00039637135549245857 -0.004557324243404386 0.0 0.0
0.0 0.006407458275304314 0.004495001602760725 -0.004000687007828168 -0.0004943145949325553 -0.006114304718956853 0.0 0.0
0.0 0.008634564630085972 0.0062043811794921504 -0.005633055919430392 -0.0005713252600617559 -0.007718246697723686 0.0 0.0
0.0 0.01117740911823201 0.008170119124249274 -0.007538865223845035 -0.0006312539004042339 -0.009336473231243548 0.0 0.0
0.0 0.014120181209810711 0.01047971103606573 -0.009801795883390634 -0.0006779151526750931 -0.010972829619944705 0.0 0.0
0.0 0.017543309118490093 0.013235202525197066 -0.012518710920916793 -0.0007164916042802755 -0.01255812241760165 0.0 0.0
0.0 0.021507334900330424 0.016513209735591918 -0.015759018964996003 -0.0007541907705959191 -0.0138162121533471 0.0 0.0
0.0 0.025950384961438665 0.020385597803675347 -0.019597107275353347 -0.0007884905283220061 -0.014323357926523317 0.0 0.0
0.0 0.03113879889416229 0.0250864153986933 -0.024293008851662353 -0.0007934065470309476 -0.013835540111697383 0.0 0.0
0.0 0.03702333072224105 0.030837099254514402 -0.029994017379344165 -0.0008430818751702426 -0.010573794834538136 0.0 0.0
0.0 0.03702333072224155 0.030837099254513035 -0.029994017379342434 -0.0008430818751706115 0.010573794834561716 0.0 0.0
0.0 0.031138798894159964 0.02508641539868734 -0.024293008851655896 -0.0007934065470314389 0.01383554011173195 0.0 0.0
0.0 0.025950384961431004 0.020385597803664973 -0.019597107275342963 -0.0007884905283220072 0.014323357926547082 0.0 0.0
0.0 0.021507334900319336 0.01651320973558128 -0.015759018964985584 -0.0007541907705956908 0.013816212153351362 0.0 0.0
0.0 0.01754330911847683 0.01323520252518723 -0.012518710920907318 -0.000716491604279911 0.012558122417592951 0.0 0.0
0.0 0.014120181209797092 0.010479711036055496 -0.009801795883380504 -0.0006779151526749907 0.010972829619935684 0.0 0.0
0.0 0.011177409118221853 0.008170119124241076 -0.007538865223837029 -0.0006312539004040481 0.009336473231238939 0.0 0.0
0.0 0.00863456463007593 0.006204381179483845 -0.0056330559194224476 -0.0005713252600613963 0.0077182466977193265 0.0 0.0
0.0 0.006407458275293447 0.004495001602752971 -0.0040006870078210365 -0.0004943145949319331 0.006114304718947775 0.0 0.0
0.0 0.004384792075809114 0.0029862073949525362 -0.002589836039460735 -0.0003963713554917999 0.004557324243392816 0.0 0.0
0.0 0.0026895528727885103 0.0016838181290565687 -0.0014158136324603748 -0.00026800449659619355 0.0030515854061932838 0.0 0.0
0.0 0.0013581833328359663 0.0007274301906197842 -0.0005932428861988325 -0.00013418730442095155 0.001725224178455288 0.0 0.0
0.0 0.0005272933836925645 0.00022695551683449294 -0.00018187523946044547 -4.5080277374047344e-05 0.0007724350576650324 0.0 0.0
0.0 0.00020169525272774493 5.974807326997194e-05 -4.781813884297233e-05 -1.1929934426999594e-05 0.0002739035222217305 0.0 0.0
0.0 6.188935186096376e-05 1.2216968477980202e-05 -9.716093212963196e-06 -2.5008752650169864e-06 7.018372573297906e-05 0.0 0.0
0.0 6.809107790002184e-06 7.916205993469018e-07 -5.940808669427125e-07 -1.975397324041911e-07 5.638326292506858e-06 0.0 0.0
0.0 1.3942118121365584e-06 -1.7202479827439693e-08 1.1633862327329383e-08 5.568617500112952e-09 -2.8828794930130727e-07 0.0 0.0
0.0 8.12960351106587e-07 -9.729788137991681e-10 -5.062304704954294e-10 1.479209284295063e-09 -1.667685109932312e-07 0.0 0.0
0.0 2.0717276240791394e-06 -6.165853431574411e-09 1.4791626278552993e-08 -8.625772846978897e-09 -4.3678587193397695e-07 0.0 0.0
0.0 0.00022651340375160224 0.00011549178284666034 -0.00015858063630872272 4.308885346206224e-05 0.00019223417909166178 0.0 0.0
0.0 4.522832151521707e-05 1.9813110749879572e-05 -2.8396701804197998e-05 8.583591054318423e-06 -3.512937296090403e-05 0.0 0.0
0.0 2.3409661729961703e-06 6.496376963596438e-10 1.3091562580591183e-08 -1.3741200276949575e-08 4.872012716183131e-07 0.0 0.0
0.0 8.28283976103979e-07 8.757322001854407e-09 -7.994197467743662e-09 -7.631245341108108e-10 1.6872916499049268e-07 0.0 0.0
0.0 1.1109466591733398e-06 -3.978998681316671e-10 -1.2801038575931478e-09 1.6780037257254121e-09 8.007497374889007e-08 0.0 0.0
0.0 8.947092034348947e-06 1.416654457932233e-07 -9.318626340269402e-08 -4.8479182390535617e-08 -4.802719917444328e-06 0.0 0.0
0.0 5.725223991916275e-05 3.7611948854256612e-06 -2.9322811264192824e-06 -8.289137590063686e-07 -7.372144049826853e-05 0.0 0.0
0.0 0.0001726747929149892 1.8122267203327092e-05 -1.445939561556694e-05 -3.662871587760173e-06 -0.0002637942369039131 0.0 0.0
0.0 0.000378278817912436 4.8717980973865196e-05 -3.905113861614809e-05 -9.666842357717045e-06 -0.0005540268141094409 0.0 0.0
0.0 0.0006454872070466658 0.00011574878498557322 -9.32646204622095e-05 -2.2484164523363747e-05 -0.0010298938255312558 0.0 0.0
0.0 0.0011228703816406858 0.0002440031876110785 -0.00019761277614773604 -4.639041146334241e-05 -0.0017194579583329197 0.0 0.0
0.0 0.0016988888700539394 0.0004995725834955663 -0.0004025515075667498 -9.702107592881645e-05 -0.002698408353475332 0.0 0.0
0.0 0.002519173129990978 0.0008514861685117771 -0.0006890061111689565 -0.00016248005734282063 -0.003812419046108907 0.0 0.0
0.0 0.0034878703919563113 0.001288516440879791 -0.0010548665955157726 -0.00023364984536401823 -0.005074449740155937 0.0 0.0
0.0 0.0046936714494678925 0.0018557697709569957 -0.0015561308720573321 -0.0002996388988996642 -0.006506179642197455 0.0 0.0
0.0 0.006129954366926077 0.002606495737573668 -0.0022498559524556996 -0.0003566397851179684 -0.008092976691355636 0.0 0.0
0.0 0.00789726880387882 0.0036524966051874673 -0.0032472769996277164 -0.000405219605559749 -0.009729021385264464 0.0 0.0
0.0 0.010034235796147416 0.005202717652231913 -0.004752992111315581 -0.0004497255409163304 -0.011117183734841846 0.0 0.0
0.0 0.01262890508573549 0.00747946739020787 -0.0069780967139246915 -0.0005013706762831778 -0.011725627947624159 0.0 0.0
0.0 0.016004144550266504 0.010702095167611288 -0.01016640037463409 -0.0005356947929771939 -0.01131056900702185 0.0 0.0
0.0 0.021030750083855403 0.015672877032492833 -0.015163131138007303 -0.0005097458944855316 -0.01002713346636451 0.0 0.0
0.0 0.0210307500838582 0.01567287703249342 -0.01516313113800798 -0.0005097458944854339 0.010027133466381979 0.0 0.0
0.0 0.01600414455026954 0.010702095167609933 -0.010166400374633032 -0.0005356947929769035 0.011310569007047522 0.0 0.0
0.0 0.012628905085734683 0.007479467390204172 -0.0069780967139211865 -0.0005013706762829825 0.011725627947639863 0.0 0.0
0.0 0.010034235796144273 0.005202717652230218 -0.004752992111313955 -0.00044972554091626 0.011117183734840115 0.0 0.0
0.0 0.007897268803871968 0.003652496605184581 -0.0032472769996250692 -0.00040521960555950994 0.009729021385255835 0.0 0.0
0.0 0.00612995436691988 0.0026064957375709387 -0.002249855952453225 -0.0003566397851177124 0.008092976691348126 0.0 0.0
0.0 0.004693671449466082 0.0018557697709572706 -0.0015561308720577435 -0.00029963889889952775 0.006506179642193408 0.0 0.0
0.0 0.0034878703919536736 0.0012885164408791574 -0.0010548665955153773 -0.00023364984536377944 0.0050744497401520455 0.0 0.0
0.0 0.002519173129985163 0.0008514861685102094 -0.000689006111167648 -0.00016248005734256147 0.0038124190461005965 0.0 0.0
0.0 0.0016988888700489434 0.000499572583493923 -0.0004025515075654459 -9.702107592847677e-05 0.002698408353467601 0.0 0.0
0.0 0.0011228703816362588 0.00024400318761035123 -0.00019761277614710959 -4.639041146324177e-05 0.0017194579583264535 0.0 0.0
0.0 0.0006454872070449512 0.00011574878498528992 -9.326462046203297e-05 -2.2484164523256892e-05 0.0010298938255285024 0.0 0.0
0.0 0.00037827881791108555 4.871798097368319e-05 -3.905113861600456e-05 -9.6668423576786e-06 0.0005540268141072117 0.0 0.0
0.0 0.00017267479291371303 1.8122267203296727e-05 -1.4459395615534e-05 -3.662871587762722e-06 0.0002637942369033313 0.0 0.0
0.0 5.7252239918278366e-05 3.7611948853965813e-06 -2.9322811263941623e-06 -8.289137590024226e-07 7.372144049764867e-05 0.0 0.0
0.0 8.947092034030454e-06 1.4166544580329822e-07 -9.318626340944123e-08 -4.8479182393860294e-08 4.802719917869996e-06 0.0 0.0
0.0 1.1109466589282175e-06 -3.9789988453399575e-10 -1.2801038428895473e-09 1.6780037274234584e-09 -8.00749731658254e-08 0.0 0.0
0.0 8.282839756553083e-07 8.757321996808003e-09 -7.99419746324245e-09 -7.631245335657651e-10 -1.687291648967851e-07 0.0 0.0
0.0 2.340966172321822e-06 6.496376968874008e-10 1.3091562575233056e-08 -1.3741200272117913e-08 -4.87201271473837e-07 0.0 0.0
0.0 4.5228321514212106e-05 1.981311074980192e-05 -2.8396701804069374e-05 8.583591054267406e-06 3.512937296092701e-05 0.0 0.0
0.0 2.263936098232047e-06 2.966713620421419e-08 -4.2618032462893674e-08 1.2950896258672839e-08 -3.93274410604934e-08 0.0 0.0
0.0 1.946939154890783e-06 3.884909168020541e-09 5.4846705207199305e-09 -9.369579688735615e-09 3.291263413969357e-07 0.0 0.0
0.0 1.2618780417594082e-06 -2.3273899580464563e-08 1.7987412948005965e-08 5.286486632459903e-09 -2.2971677995247509e-07 0.0 0.0
0.0 2.2535142641107146e-06 -1.1063389861583772e-07 9.290104246828235e-08 1.7732856147555486e-08 -1.2020242878255907e-06 0.0 0.0
0.0 1.2345043605811432e-05 -5.77446040063412e-07 5.140785332979938e-07 6.336750676542749e-08 -8.877413575191072e-06 0.0 0.0
0.0 6.262339210822074e-05 -4.930958240437218e-06 4.0540726317962705e-06 8.768856086409414e-07 -7.48105071992513e-05 0.0 0.0
0.0 0.00017383615464672077 -1.9138196930558688e-05 1.5407609159777545e-05 3.730587770781133e-06 -0.0002658845321954943 0.0 0.0
0.0 0.0003782990067049612 -4.881701282296128e-05 3.912919765806335e-05 9.687815164897864e-06 -0.0005551932105081353 0.0 0.0
0.0 0.0006453886535047914 -0.00011550589664622023 9.304920501999478e-05 2.245669162622544e-05 -0.0010303323334917025 0.0 0.0
0.0 0.001121466399470021 -0.00024338807498909188 0.00019698936928633012 4.639870570276182e-05 -0.0017179911674432234 0.0 0.0
0.0 0.0017052689018079324 -0.0004974491651104429 0.0004014754520704255 9.597371304001696e-05 -0.0026951791232518105 0.0 0.0
0.0 0.002522856652068498 -0.0008598653146304073 0.0006970907331300133 0.000162774581500394 -0.0038161428616859355 0.0 0.0
0.0 0.003511575582846679 -0.0013184774033877852 0.0010831581291862826 0.0002353192742015019 -0.005084555705883989 0.0 0.0
0.0 0.004730041090099895 -0.001901534257808903 0.0015964683753216646 0.0003050658824872378 -0.006514318305184104 0.0 0.0
0.0 0.006081405568083079 -0.0025488241728518924 0.002179196297845001 0.0003696278750068908 -0.008092560675210077 0.0 0.0
0.0 0.007477692151265831 -0.0030824417232214775 0.0026550417226693674 0.00042740000055210673 -0.009780384180726596 0.0 0.0
0.0 0.008641514476779076 -0.0032118654558702326 0.0027384111010202196 0.00047345435485001384 -0.01156908875135867 0.0 0.0
0.0 0.009413844420014915 -0.0026551727157621934 0.0021487800254713 0.0005063926902908921 -0.01348075303883025 0.0 0.0
0.0 0.009722342481348805 -0.0014367872617755831 0.00100024766916485 0.00043653959261073306 -0.015104865868829918 0.0 0.0
0.0 0.009312979973541649 0.002175826422478103 -0.0022645143923043505 8.868796982624725e-05 -0.013670948269127695 0.0 0.0
0.0 0.009312979973545882 0.002175826422478622 -0.002264514392304876 8.868796982625592e-05 0.013670948269138106 0.0 0.0
0.0 0.009722342481351594 -0.0014367872617753884 0.0010002476691648944 0.0004365395926104926 0.015104865868837854 0.0 0.0
0.0 0.009413844420011915 -0.002655172715760964 0.0021487800254704724 0.0005063926902904903 0.01348075303883085 0.0 0.0
0.0 0.008641514476771004 -0.0032118654558661057 0.002738411101016502 0.00047345435484960315 0.011569088751351715 0.0 0.0
0.0 0.007477692151256408 -0.003082441723216106 0.002655041722664441 0.00042740000055166346 0.009780384180716811 0.0 0.0
0.0 0.006081405568075748 -0.002548824172848371 0.00217919629784172 0.0003696278750066496 0.008092560675201386 0.0 0.0
0.0 0.004730041090094074 -0.0019015342578060093 0.0015964683753193704 0.00030506588248663865 0.006514318305178074 0.0 0.0
0.0 0.0035115755828410526 -0.0013184774033848062 0.001083158129183906 0.00023531927420089967 0.005084555705878803 0.0 0.0
0.0 0.0025228566520596025 -0.0008598653146265809 0.000697090733126721 0.0001627745814998599 0.003816142861676184 0.0 0.0
0.0 0.0017052689018015703 -0.000497449165107487 0.0004014754520680205 9.597371303946669e-05 0.002695179123243391 0.0 0.0
0.0 0.0011214663994648672 -0.00024338807498772887 0.0001969893692851043 4.639870570262457e-05 0.0017179911674366035 0.0 0.0
0.0 0.000645388653502866 -0.0001155058966456951 9.304920501955499e-05 2.2456691626140128e-05 0.001030332333489017 0.0 0.0
0.0 0.000378299006703765 -4.881701282273317e-05 3.9129197657864025e-05 9.687815164869103e-06 0.0005551932105067336 0.0 0.0
0.0 0.0001738361546449928 -1.913819693045037e-05 1.5407609159713337e-05 3.7305877707370243e-06 0.0002658845321939745 0.0 0.0
0.0 6.262339210714688e-05 -4.930958240386038e-06 4.054072631758918e-06 8.768856086271293e-07 7.48105071985129e-05 0.0 0.0
0.0 1.2345043605431489e-05 -5.774460401019903e-07 5.140785333313576e-07 6.336750677062875e-08 8.877413575750391e-06 0.0 0.0
0.0 2.2535142640228044e-06 -1.1063389868473176e-07 9.290104252810511e-08 1.773285615662709e-08 1.2020242886107882e-06 0.0 0.0
0.0 1.2618780414311266e-06 -2.3273899639041636e-08 1.7987412995903388e-08 5.286486643138726e-09 2.2971678055435335e-07 0.0 0.0
0.0 1.946939154304024e-06 3.884909153002226e-09 5.4846705207563836e-09 -9.369579673753719e-09 -3.291263408872528e-07 0.0 0.0
0.0 2.2639360976802496e-06 2.9667136355218302e-08 -4.261803268003876e-08 1.295089632482369e-08 3.93274414012348e-08 0.0 0.0
0.0 0.0 0.0 0.0 0.0 0.0 0.0 0.0
0.0 7.864401988905609e-07 5.562617747313795e-09 2.4586987983438436e-09 -8.021316545659175e-09 1.5894775584115108e-07 0.0 0.0
0.0 2.418501574382871e-06 -6.876939235145695e-08 5.612466536512984e-08 1.2644726986323e-08 -4.654416748484639e-07 0.0 0.0
0.0 5.12533312446498e-06 1.3191473652427151e-09 8.851261736383589e-09 -1.0170409101612823e-08 -1.984012695649116e-07 0.0 0.0
0.0 1.6593956787092248e-05 -2.7709027839536075e-06 2.319601768156583e-06 4.5130101579703175e-07 -1.6961784902561436e-05 0.0 0.0
0.0 7.252443405217287e-05 -1.6445028314876278e-05 1.3221431731911622e-05 3.2235965829646257e-06 -8.732450081455482e-05 0.0 0.0
0.0 0.0002107879986027458 -6.149431955235083e-05 4.9367517499860845e-05 1.2126802052490004e-05 -0.00027895384987198607 0.0 0.0
0.0 0.00053012074991725 -0.0002279082077939507 0.00018264517845845258 4.526302933549814e-05 -0.0007754312464736779 0.0 0.0
0.0 0.0013556139985742039 -0.000726385518490417 0.0005923064071432019 0.00013407911134721498 -0.0017243373237929912 0.0 0.0
0.0 0.0026865017812160888 -0.0016821731805328909 0.0014144054900508448 0.0002677676904820452 -0.0030496534405787135 0.0 0.0
0.0 0.004386357345849976 -0.002987985114446699 0.002592038105081309 0.0003959470093653887 -0.004557653658991106 0.0 0.0
0.0 0.00642100755968839 -0.004509345567277435 0.004015620222691882 0.0004937253445855535 -0.0061140784506447336 0.0 0.0
0.0 0.00866954574675556 -0.006243377306155988 0.005672202162080129 0.0005711751440758571 -0.007704932124877769 0.0 0.0
0.0 0.011222968060930373 -0.008221277517498802 0.0075859221546044475 0.0006353553628943563 -0.009313008848848224 0.0 0.0
0.0 0.014060602319669728 -0.010408314568615247 0.009715407261572004 0.0006929073070432388 -0.011012552705072232 0.0 0.0
0.0 0.01699862399882472 -0.012615252190236377 0.011868781894223674 0.0007464702960127036 -0.012897930085353905 0.0 0.0
0.0 0.01969330089269464 -0.014464055375183115 0.013669402525358147 0.0007946528498249721 -0.01502994021730944 0.0 0.0
0.0 0.02154654987153971 -0.015431677901554867 0.014601037639193688 0.0008306402623611827 -0.017311767916305214 0.0 0.0
0.0 0.02106802151351336 -0.014523507474980511 0.013598819781959549 0.0009246876930209542 -0.018217022549228072 0.0 0.0
0.0 0.01612634953019161 -0.009639025513891668 0.00865395819283911 0.0009850673210525518 -0.015605250223502022 0.0 0.0
0.0 0.016126349530199105 -0.009639025513893215 0.00865395819284063 0.000985067321052587 0.01560525022352292 0.0 0.0
0.0 0.02106802151351687 -0.014523507474977708 0.01359881978195668 0.0009246876930210216 0.018217022549255155 0.0 0.0
0.0 0.02154654987153829 -0.01543167790155018 0.014601037639189348 0.0008306402623608282 0.017311767916321826 0.0 0.0
0.0 0.01969330089268104 -0.014464055375170707 0.013669402525345951 0.0007946528498247575 0.01502994021730991 0.0 0.0
0.0 0.01699862399880586 -0.012615252190221386 0.01186878189420906 0.00074647029601233 0.0128979300853422 0.0 0.0
0.0 0.014060602319652895 -0.010408314568602271 0.009715407261559474 0.0006929073070427957 0.011012552705060484 0.0 0.0
0.0 0.01122296806091532 -0.008221277517487094 0.007585922154592879 0.0006353553628942149 0.009313008848839142 0.0 0.0
0.0 0.008669545746739492 -0.006243377306142652 0.005672202162066982 0.0005711751440756672 0.0077049321248698725 0.0 0.0
0.0 0.0064210075596701985 -0.0045093455672636455 0.004015620222678901 0.0004937253445847439 0.006114078450631929 0.0 0.0
0.0 0.004386357345834239 -0.0029879851144356496 0.0025920381050711975 0.00039594700936445204 0.004557653658977398 0.0 0.0
0.0 0.002686501781202829 -0.0016821731805240466 0.0014144054900430583 0.00026776769048098806 0.0030496534405658714 0.0 0.0
0.0 0.0013556139985673927 -0.0007263855184859351 0.0005923064071394323 0.00013407911134650298 0.00172433732378584 0.0 0.0
0.0 0.0005301207499145827 -0.00022790820779258623 0.00018264517845738775 4.5263029335198526e-05 0.0007754312464706522 0.0 0.0
0.0 0.0002107879986007896 -6.149431955199819e-05 4.9367517499582334e-05 1.2126802052415813e-05 0.0002789538498703772 0.0 0.0
0.0 7.252443405068394e-05 -1.6445028314794478e-05 1.3221431731847122e-05 3.223596582947335e-06 8.732450081412154e-05 0.0 0.0
0.0 1.659395678661833e-05 -2.7709027839877904e-06 2.319601768185004e-06 4.5130101580276923e-07 1.6961784902787726e-05 0.0 0.0
0.0 5.125333124165837e-06 1.3191473110290596e-09 8.851261783325453e-09 -1.017040909435065e-08 1.984012699434409e-07 0.0 0.0
0.0 2.418501573659431e-06 -6.876939242984306e-08 5.612466542750139e-08 1.2644727002341756e-08 4.6544167541764474e-07 0.0 0.0
0.0 7.864401982389868e-07 5.562617742716562e-09 2.4586987968030427e-09 -8.021316539519248e-09 -1.5894775570840683e-07 0.0 0.0
0.0 0.0 0.0 0.0 0.0 0.0 0.0 0.0
0.0 0.0 0.0 0.0 0.0 0.0 0.0 0.0
0.0 9.659038647247042e-07 1.536493391610939e-08 -9.441890028047111e-09 -5.923043888061976e-09 1.9697054502569396e-07 0.0 0.0
0.0 3.123797815057657e-06 1.0788026094104876e-07 -8.564980673659911e-08 -2.2230454204453356e-08 6.305005306608872e-07 0.0 0.0
0.0 7.311618910661778e-06 1.6563080425544318e-07 -1.3906821686957316e-07 -2.6562587385858982e-08 7.965390316194568e-07 0.0 0.0
0.0 2.3489990023394152e-05 -5.669134259539472e-06 4.584725324527193e-06 1.084408935012295e-06 -2.0382439231314062e-05 0.0 0.0
0.0 9.263057107740654e-05 -3.2813846457198996e-05 2.6388997073325507e-05 6.424849383873462e-06 -0.0001021198620181512 0.0 0.0
0.0 0.0003597130570495916 -0.00018255948767363536 0.00014650913004233965 3.605035763129573e-05 -0.00043993373070402164 0.0 0.0
0.0 0.0012141989839828202 -0.0007804218332841137 0.0006380152930342892 0.0001424065402498243 -0.0013524093287842639 0.0 0.0
0.0 0.0029266533461639525 -0.0020630062922849693 0.0017509618260670898 0.00031204446621787885 -0.0027752833287580532 0.0 0.0
0.0 0.00520374049875928 -0.003958870604219475 0.003485216263773282 0.00047365434044619316 -0.004535474154063352 0.0 0.0
0.0 0.008101080255833393 -0.006254316768057066 0.005665657066031187 0.0005886597020258806 -0.0064199203209467015 0.0 0.0
0.0 0.011237845350633612 -0.00885872520444194 0.00818793054519298 0.0006707946592489571 -0.008266507120920837 0.0 0.0
0.0 0.01478390875645845 -0.011791917562776727 0.011056512316728474 0.0007354052460482512 -0.01006636915240474 0.0 0.0
0.0 0.018833413320231 -0.01513162779861591 0.014339030434280572 0.0007925973643353314 -0.011900127740976386 0.0 0.0
0.0 0.02345032123811701 -0.01888068366673334 0.018030785682465928 0.0008498979842674105 -0.013939453298208473 0.0 0.0
0.0 0.028354973805416798 -0.022841868961605255 0.02193217649886398 0.0009096924627412689 -0.016426282762965032 0.0 0.0
0.0 0.03316669853995325 -0.026543260199647225 0.02557393926103861 0.0009693209386085961 -0.019547768308205007 0.0 0.0
0.0 0.03657444388421803 -0.029108769226672382 0.028062891655193253 0.0010458775714791227 -0.022762318702898802 0.0 0.0
0.0 0.03684536214860769 -0.02890017766749684 0.027757763899708167 0.0011424137677886804 -0.024368124121770574 0.0 0.0
0.0 0.029728299300283038 -0.022929210817863973 0.02159558565715693 0.001333625160707032 -0.020765874044913618 0.0 0.0
0.0 0.02972829930028982 -0.022929210817864764 0.021595585657157714 0.0013336251607070444 0.020765874044940277 0.0 0.0
0.0 0.03684536214861291 -0.028900177667494496 0.027757763899706394 0.0011424137677880945 0.024368124121806743 0.0 0.0
0.0 0.03657444388420989 -0.029108769226660752 0.028062891655181787 0.001045877571478952 0.022762318702922432 0.0 0.0
0.0 0.03316669853993452 -0.02654326019962973 0.025573939261021663 0.0009693209386080719 0.019547768308207418 0.0 0.0
0.0 0.028354973805390746 -0.02284186896158325 0.021932176498842253 0.0009096924627410031 0.01642628276295549 0.0 0.0
0.0 0.02345032123809103 -0.018880683666711875 0.018030785682444563 0.000849897984267306 0.013939453298197006 0.0 0.0
0.0 0.01883341332020791 -0.015131627798596805 0.014339030434261903 0.0007925973643348964 0.011900127740964866 0.0 0.0
0.0 0.014783908756433789 -0.011791917562755777 0.011056512316707836 0.0007354052460479362 0.010066369152394852 0.0 0.0
0.0 0.01123784535061055 -0.008858725204423256 0.008187930545174672 0.0006707946592485807 0.008266507120907249 0.0 0.0
0.0 0.008101080255811102 -0.006254316768039626 0.0056656570660144 0.0005886597020252243 0.006419920320930154 0.0 0.0
0.0 0.005203740498738036 -0.003958870604203456 0.0034852162637580538 0.00047365434044540185 0.004535474154046549 0.0 0.0
0.0 0.0029266533461509946 -0.002063006292275009 0.0017509618260580148 0.00031204446621699387 0.0027752833287480916 0.0 0.0
0.0 0.0012141989839760917 -0.0007804218332794464 0.0006380152930304438 0.00014240654024900266 0.001352409328778354 0.0 0.0
0.0 0.0003597130570471179 -0.00018255948767281652 0.0001465091300416938 3.605035763112271e-05 0.0004399337307022513 0.0 0.0
0.0 9.263057107598148e-05 -3.281384645714433e-05 2.6388997073278236e-05 6.424849383866049e-06 0.0001021198620178065 0.0 0.0
0.0 2.3489990022397963e-05 -5.669134259608288e-06 4.584725324582611e-06 1.084408935025639e-06 2.038243923155964e-05 0.0 0.0
0.0 7.3116189100775745e-06 1.6563080415249726e-07 -1.3906821678625452e-07 -2.6562587366252803e-08 -7.965390311899782e-07 0.0 0.0
0.0 3.1237978142420583e-06 1.0788026091149483e-07 -8.564980671326711e-08 -2.2230454198221235e-08 -6.305005304893692e-07 0.0 0.0
0.0 9.659038644330307e-07 1.5364933911636078e-08 -9.441890025310556e-09 -5.923043886328447e-09 -1.969705449648645e-07 0.0 0.0
0.0 0.0 0.0 0.0 0.0 0.0 0.0 0.0
0.0 0.0 0.0 0.0 0.0 0.0 0.0 0.0
0.0 0.0 0.0 0.0 0.0 0.0 0.0 0.0
0.0 1.762862297087584e-06 7.425115861487428e-08 -6.029149643128876e-08 -1.3959662183589334e-08 3.448992119798501e-07 0.0 0.0
0.0 6.4481095568871e-06 -3.0432072249199796e-07 2.6568620737277507e-07 3.8634515119219155e-08 -1.1300183940633123e-06 0.0 0.0
0.0 3.0396767080589245e-05 -8.86220520295614e-06 7.214386646268e-06 1.6478185566881724e-06 -2.2910207707791765e-05 0.0 0.0
0.0 0.00015246822256558985 -7.871621434545891e-05 6.308019681076532e-05 1.5636017534693577e-05 -0.00015977474152909814 0.0 0.0
0.0 0.0007452101699558414 -0.0004970478332697228 0.00040333316253133005 9.371467073839292e-05 -0.0007373337429031577 0.0 0.0
0.0 0.002267973477309331 -0.0016961166946816595 0.0014251929459584678 0.00027092374872319115 -0.0019251298411453767 0.0 0.0
0.0 0.0047808962567292 -0.0037573385749978005 0.003294080318460328 0.00046325825653747304 -0.0035995146914476702 0.0 0.0
0.0 0.008043581162740794 -0.006506925602081579 0.005899609704650404 0.0006073158974311741 -0.0055950696357920035 0.0 0.0
0.0 0.011901960488024475 -0.009740176436072697 0.009036220271778006 0.000703956164294692 -0.00765026708678219 0.0 0.0
0.0 0.016271359153982538 -0.013397459263295696 0.012618832334506721 0.0007786269287889713 -0.009617683207490244 0.0 0.0
0.0 0.021213217293067167 -0.017530828115708597 0.016688888608767813 0.0008419395069407792 -0.01153603529947034 0.0 0.0
0.0 0.026788915349990193 -0.022249864787027656 0.021347896634189713 0.0009019681528379453 -0.013514946846979051 0.0 0.0
0.0 0.0331580585984781 -0.027592987164251112 0.02662916995476608 0.0009638172094850159 -0.01576889881823115 0.0 0.0
0.0 0.04012491014791069 -0.033370092506285996 0.03233667534876288 0.0010334171575231048 -0.018672188022699987 0.0 0.0
0.0 0.04693158257252226 -0.03894724739100001 0.03783182026114609 0.0011154271298539076 -0.02244331353524511 0.0 0.0
0.0 0.05209531673512761 -0.042998721232766726 0.041783866793280416 0.0012148544394862567 -0.026456919843744292 0.0 0.0
0.0 0.052707322322943555 -0.0432182756393968 0.04186830750724679 0.0013499681321499776 -0.028623301210207525 0.0 0.0
0.0 0.0438445194907762 -0.03567833517220924 0.0341224871889546 0.0015558479832546448 -0.025417373014039298 0.0 0.0
0.0 0.04384451949078048 -0.03567833517220792 0.034122487188953186 0.0015558479832547291 0.025417373014069888 0.0 0.0
0.0 0.052707322322943874 -0.04321827563939089 0.04186830750724102 0.0013499681321498716 0.028623301210247754 0.0 0.0
0.0 0.052095316735115804 -0.042998721232751586 0.04178386679326594 0.0012148544394856252 0.02645691984377379 0.0 0.0
0.0 0.04693158257249562 -0.03894724739097528 0.037831820261122015 0.0011154271298532447 0.02244331353525019 0.0 0.0
0.0 0.04012491014787896 -0.03337009250625848 0.032336675348736174 0.0010334171575222908 0.018672188022691143 0.0 0.0
0.0 0.03315805859844686 -0.027592987164224324 0.026629169954739976 0.0009638172094843502 0.015768898818221057 0.0 0.0
0.0 0.02678891534996203 -0.022249864787003817 0.02134789663416643 0.0009019681528373874 0.013514946846967666 0.0 0.0
0.0 0.021213217293037292 -0.017530828115682927 0.01668888860874268 0.0008419395069402507 0.011536035299460769 0.0 0.0
0.0 0.016271359153949838 -0.01339745926326813 0.01261883233447974 0.0007786269287883874 0.009617683207474506 0.0 0.0
0.0 0.011901960487993975 -0.00974017643604771 0.009036220271753737 0.0007039561642939763 0.007650267086763655 0.0 0.0
0.0 0.008043581162713689 -0.006506925602059942 0.005899609704629501 0.0006073158974304398 0.00559506963577282 0.0 0.0
0.0 0.004780896256711683 -0.003757338574983773 0.003294080318447432 0.0004632582565363404 0.003599514691436959 0.0 0.0
0.0 0.002267973477297741 -0.0016961166946727155 0.0014251929459506369 0.0002709237487220783 0.0019251298411369455 0.0 0.0
0.0 0.0007452101699500053 -0.0004970478332659319 0.00040333316252822056 9.37146707377112e-05 0.000737333742898463 0.0 0.0
0.0 0.00015246822256342042 -7.871621434487912e-05 6.30801968102884e-05 1.563601753459074e-05 0.00015977474152790815 0.0 0.0
0.0 3.0396767079672993e-05 -8.862205203019664e-06 7.214386646317935e-06 1.6478185567016852e-06 2.2910207707956296e-05 0.0 0.0
0.0 6.448109556134902e-06 -3.043207226158591e-07 2.6568620747396194e-07 3.863451514189001e-08 1.130018394472091e-06 0.0 0.0
0.0 1.7628622966370727e-06 7.425115859493936e-08 -6.029149641515662e-08 -1.3959662179784548e-08 -3.4489921188806817e-07 0.0 0.0
0.0 0.0 0.0 0.0 0.0 0.0 0.0 0.0
0.0 0.0 0.0 0.0 0.0 0.0 0.0 0.0
0.0 0.0 0.0 0.0 0.0 0.0 0.0 0.0
0.0 0.0 0.0 0.0 0.0 0.0 0.0 0.0
0.0 6.301117771691601e-07 3.177133557320747e-08 -2.5610055499987776e-08 -6.161280073216576e-09 1.139376708674144e-07 0.0 0.0
0.0 7.970808409918044e-06 5.815509169919215e-07 -4.6594831902360824e-07 -1.1560259796830223e-07 1.4720355902156086e-06 0.0 0.0
0.0 4.649554299553762e-05 -1.1708397526577994e-05 9.44549351146311e-06 2.262904015114885e-06 -2.1105581460626384e-05 0.0 0.0
0.0 0.00030474802743516116 -0.00020131749888433625 0.0001618929662892052 3.942453259513104e-05 -0.00027326212797334977 0.0 0.0
0.0 0.001365845706857965 -0.0010261340021882413 0.0008462687636230125 0.00017986523856522877 -0.00102283393655353 0.0 0.0
0.0 0.003543595159342902 -0.0028515927994014045 0.002458414627562361 0.000393178171839043 -0.0023303404738567856 0.0 0.0
0.0 0.006792015734475118 -0.005641626255244355 0.0050681584682047325 0.0005734677870396207 -0.004118500513382322 0.0 0.0
0.0 0.010948592427362076 -0.009181500377774775 0.008485679142427368 0.0006958212353474023 -0.006149217201538301 0.0 0.0
0.0 0.015843703770778112 -0.01332577715404384 0.012540757082055425 0.0007850200719884128 -0.008196495923427784 0.0 0.0
0.0 0.021417450934541973 -0.018040361623284207 0.017180491967535166 0.0008598696557490498 -0.010182680927058966 0.0 0.0
0.0 0.02771578872505749 -0.023387190795163285 0.022459186233274375 0.0009280045618888964 -0.012138996550285431 0.0 0.0
0.0 0.03489312120985352 -0.029491714885072295 0.028498412160982 0.0009933027240902961 -0.01415086482593591 0.0 0.0
0.0 0.04310580214614359 -0.03643711991984355 0.035375670650965016 0.001061449268878534 -0.016441424795259754 0.0 0.0
0.0 0.051935073429578225 -0.04403345148406401 0.0428910464934793 0.001142404990584695 -0.0194027571342492 0.0 0.0
0.0 0.06092195865800451 -0.05145629886683971 0.05021117585698326 0.0012451230098564714 -0.023327268091866766 0.0 0.0
0.0 0.06766283134642186 -0.05690890901098158 0.05553513659100467 0.0013737724199769218 -0.027765853454269334 0.0 0.0
0.0 0.0684772375584468 -0.05733827676517815 0.055803528312691975 0.0015347484524861497 -0.030766018733772188 0.0 0.0
0.0 0.05802686524209641 -0.0481681856000748 0.04643916642834103 0.001729019171733753 -0.029619368866556195 0.0 0.0
0.0 0.05802686524209711 -0.04816818560007075 0.04643916642833648 0.0017290191717342566 0.02961936886658921 0.0 0.0
0.0 0.06847723755844058 -0.057338276765167284 0.05580352831268111 0.0015347484524861552 0.03076601873381372 0.0 0.0
0.0 0.06766283134640444 -0.056908909010962086 0.05553513659098599 0.0013737724199761048 0.02776585345430119 0.0 0.0
0.0 0.0609219586579741 -0.05145629886681183 0.05021117585695578 0.0012451230098560152 0.023327268091873722 0.0 0.0
0.0 0.05193507342953979 -0.04403345148403068 0.042891046493446036 0.0011424049905846268 0.01940275713424333 0.0 0.0
0.0 0.04310580214610361 -0.036437119919809254 0.03537567065093061 0.0010614492688786614 0.01644142479525001 0.0 0.0
0.0 0.034893121209813915 -0.029491714885038354 0.0284984121609483 0.0009933027240900468 0.014150864825923442 0.0 0.0
0.0 0.02771578872501828 -0.023387190795129312 0.02245918623324094 0.000928004561888368 0.012138996550274655 0.0 0.0
0.0 0.021417450934503694 -0.01804036162325141 0.01718049196750277 0.0008598696557486354 0.01018268092704491 0.0 0.0
0.0 0.015843703770740823 -0.013325777154012713 0.01254075708202451 0.0007850200719881988 0.008196495923408778 0.0 0.0
0.0 0.01094859242732972 -0.009181500377747785 0.008485679142400806 0.0006958212353469839 0.006149217201518821 0.0 0.0
0.0 0.006792015734451535 -0.005641626255224658 0.005068158468185691 0.0005734677870389681 0.004118500513369825 0.0 0.0
0.0 0.00354359515932884 -0.002851592799389841 0.0024584146275518433 0.0003931781718379986 0.0023303404738489355 0.0 0.0
0.0 0.0013658457068495941 -0.0010261340021820442 0.0008462687636178533 0.0001798652385641905 0.0010228339365480794 0.0 0.0
0.0 0.0003047480274319124 -0.000201317498882724 0.00016189296628790702 3.942453259481693e-05 0.00027326212797135836 0.0 0.0
0.0 4.649554299461349e-05 -1.17083975267267e-05 9.445493511575292e-06 2.262904015151307e-06 2.110558146087339e-05 0.0 0.0
0.0 7.970808409158845e-06 5.815509169319078e-07 -4.659483189760668e-07 -1.1560259795583037e-07 -1.4720355900711992e-06 0.0 0.0
0.0 6.301117768796378e-07 3.177133555832444e-08 -2.5610055487985994e-08 -6.161280070339225e-09 -1.1393767081387647e-07 0.0 0.0
0.0 0.0 0.0 0.0 0.0 0.0 0.0 0.0
0.0 0.0 0.0 0.0 0.0 0.0 0.0 0.0
0.0 0.0 0.0 0.0 0.0 0.0 0.0 0.0
0.0 0.0 0.0 0.0 0.0 0.0 0.0 0.0
0.0 9.159772724021529e-07 5.630253744311479e-08 -4.536700834069255e-08 -1.0935529102421052e-08 1.5681455061216043e-07 0.0 0.0
0.0 4.073080618138307e-06 -4.034914635548336e-08 3.1721398563478105e-08 8.62774779204646e-09 -3.415644786245501e-08 0.0 0.0
0.0 7.352487260049002e-05 -3.64689101742186e-05 2.917344139951517e-05 7.2954687747034425e-06 -4.788649144594419e-05 0.0 0.0
0.0 0.0006003060915304503 -0.00043411026585636186 0.0003511688391024318 8.294142675393016e-05 -0.00039798403190602317 0.0 0.0
0.0 0.0022044215527585714 -0.0017336059126424651 0.0014573272367971036 0.0002762786758453615 -0.0012090390817075696 0.0 0.0
0.0 0.004907284833861899 -0.004174775901895157 0.0036796336092687334 0.0004951422926264234 -0.002537038251690351 0.0 0.0
0.0 0.00888698953431479 -0.0076203607177885635 0.006969289367592652 0.0006510713501959128 -0.0042595523638735335 0.0 0.0
0.0 0.013925434975561228 -0.011917104785624808 0.011156131284425434 0.000760973501199379 -0.006166265470390785 0.0 0.0
0.0 0.019860011014532684 -0.016970108384141435 0.016120829187066553 0.0008492791970748792 -0.00811875227305352 0.0 0.0
0.0 0.02662267127830663 -0.02275122604041855 0.02182275383921278 0.0009284722012057542 -0.010016669215689998 0.0 0.0
0.0 0.03435728980137265 -0.029324880025408482 0.028321270350401443 0.001003609675007032 -0.011901907615249886 0.0 0.0
0.0 0.04301675982146931 -0.03682191883220515 0.035745995335708436 0.0010759234964967093 -0.013868235928610471 0.0 0.0
0.0 0.05294927127747309 -0.045336941067769 0.04418660838069778 0.0011503326870712066 -0.016005008425657757 0.0 0.0
0.0 0.06395844259647446 -0.05468534761102203 0.05344362481890705 0.0012417227921149698 -0.018610461491239304 0.0 0.0
0.0 0.07464710946273984 -0.0639011978924284 0.06253720330598045 0.0013639945864479136 -0.02220153925128146 0.0 0.0
0.0 0.0827565175388901 -0.07071187861023356 0.06919162919258406 0.001520249417649491 -0.02678471981932851 0.0 0.0
0.0 0.08396282790738747 -0.07136679227907197 0.06966861992323181 0.0016981723558401208 -0.031173201126946593 0.0 0.0
0.0 0.07253115594897915 -0.060751744962491534 0.05886659692986053 0.001885148032630983 -0.03363759164390575 0.0 0.0
0.0 0.07253115594897953 -0.060751744962487336 0.05886659692985646 0.0018851480326308285 0.03363759164393922 0.0 0.0
0.0 0.08396282790737547 -0.07136679227905685 0.0696686199232168 0.0016981723558399955 0.031173201126989288 0.0 0.0
0.0 0.08275651753886334 -0.07071187861020728 0.0691916291925578 0.001520249417649469 0.026784719819359114 0.0 0.0
0.0 0.0746471094626997 -0.06390119789239251 0.06253720330594487 0.0013639945864476284 0.0222015392512886 0.0 0.0
0.0 0.06395844259642927 -0.0546853476109823 0.05344362481886829 0.0012417227921139927 0.01861046149123594 0.0 0.0
0.0 0.05294927127742727 -0.045336941067728724 0.04418660838065866 0.0011503326870700543 0.0160050084256516 0.0 0.0
0.0 0.043016759821421294 -0.03682191883216361 0.03574599533566736 0.0010759234964962372 0.013868235928599364 0.0 0.0
0.0 0.03435728980132516 -0.029324880025367244 0.028321270350360438 0.001003609675006801 0.011901907615238651 0.0 0.0
0.0 0.02662267127826098 -0.02275122604037889 0.0218227538391736 0.0009284722012052782 0.010016669215677173 0.0 0.0
0.0 0.019860011014491284 -0.016970108384106054 0.016120829187031893 0.0008492791970741569 0.008118752273035743 0.0 0.0
0.0 0.01392543497552479 -0.011917104785593848 0.011156131284395097 0.0007609735011987434 0.006166265470373163 0.0 0.0
0.0 0.00888698953428707 -0.007620360717764507 0.0069692893675695556 0.0006510713501949509 0.004259552363861593 0.0 0.0
0.0 0.004907284833842347 -0.004174775901878364 0.00367963360925299 0.0004951422926253721 0.002537038251681048 0.0 0.0
0.0 0.002204421552747678 -0.0017336059126337251 0.0014573272367894709 0.00027627867584425445 0.0012090390817020259 0.0 0.0
0.0 0.0006003060915252342 -0.00043411026585289073 0.00035116883909957727 8.29414267533134e-05 0.00039798403190298773 0.0 0.0
0.0 7.352487259930935e-05 -3.646891017419661e-05 2.9173441399483736e-05 7.295468774712889e-06 4.7886491445845494e-05 0.0 0.0
0.0 4.073080617750931e-06 -4.034914650307154e-08 3.172139868064686e-08 8.627747822402048e-09 3.4156448135440584e-08 0.0 0.0
0.0 9.159772720464821e-07 5.630253742091469e-08 -4.5367008322703315e-08 -1.0935529098212496e-08 -1.5681455054918204e-07 0.0 0.0
0.0 0.0 0.0 0.0 0.0 0.0 0.0 0.0
0.0 0.0 0.0 0.0 0.0 0.0 0.0 0.0
0.0 0.0 0.0 0.0 0.0 0.0 0.0 0.0
0.0 0.0 0.0 0.0 0.0 0.0 0.0 0.0
0.0 0.0 0.0 0.0 0.0 0.0 0.0 0.0
0.0 4.0648286437058125e-06 -7.482870614597193e-07 5.878512154784511e-07 1.604358459812867e-07 -9.830303162846774e-07 0.0 0.0
0.0 0.0001421938702731788 -8.696200243267742e-05 6.970029318459914e-05 1.7261709248078392e-05 -8.098824593223229e-05 0.0 0.0
0.0 0.0010486373757795581 -0.0007920266294910859 0.0006481045928774264 0.0001439220366136597 -0.0004907120854965907 0.0 0.0
0.0 0.0030051046953311813 -0.002607883517238114 0.0022353492573446362 0.0003725342598934787 -0.0012938425232579976 0.0 0.0
0.0 0.006369597112889592 -0.005583584915013632 0.005012189625944893 0.0005713952890687389 -0.0024908655665631637 0.0 0.0
0.0 0.011083650749711429 -0.00963788962042083 0.008929100310449335 0.0007087893099714903 -0.003991537878757165 0.0 0.0
0.0 0.01695616368430484 -0.014687283853297628 0.013874396815170251 0.0008128870381273819 -0.005691264897605162 0.0 0.0
0.0 0.02390775460793622 -0.020647610542927256 0.019744098031904966 0.0009035125110222754 -0.0074348522089045 0.0 0.0
0.0 0.031898599951142255 -0.02750362924723555 0.026514387786256824 0.0009892414609787147 -0.009136503491701345 0.0 0.0
0.0 0.0409824018138962 -0.03532188411930493 0.03424972967635905 0.001072154442945867 -0.010855736754481218 0.0 0.0
0.0 0.051327435617939614 -0.044210960580058384 0.043057105614688104 0.001153854965370269 -0.01264782046334226 0.0 0.0
0.0 0.06296693141609684 -0.054235498618967745 0.052999399943222114 0.0012360986757456354 -0.01450412177258665 0.0 0.0
0.0 0.07547377798236701 -0.06520518270806576 0.06387242945247912 0.0013327532555865807 -0.016477536456822393 0.0 0.0
0.0 0.08811648982209243 -0.07610176924090321 0.07463151377009071 0.001470255470812502 -0.019133809302681413 0.0 0.0
0.0 0.09780627648499321 -0.08432162231614536 0.08267094952083741 0.0016506727953079314 -0.023490252708132205 0.0 0.0
0.0 0.09964836211136671 -0.08547344861770455 0.08362436462310183 0.0018490839946027184 -0.02987043728105867 0.0 0.0
0.0 0.08741289237158463 -0.07375043949006185 0.0717122869248779 0.002038152565183923 -0.037482501851218326 0.0 0.0
0.0 0.08741289237158395 -0.07375043949005688 0.07171228692487325 0.0020381525651836548 0.03748250185125164 0.0 0.0
0.0 0.09964836211135102 -0.0854734486176871 0.0836243646230852 0.0018490839946019052 0.02987043728109711 0.0 0.0
0.0 0.0978062764849607 -0.08432162231611481 0.0826709495208076 0.0016506727953071061 0.023490252708159846 0.0 0.0
0.0 0.08811648982204828 -0.07610176924086409 0.07463151377005221 0.0014702554708118738 0.019133809302688334 0.0 0.0
0.0 0.07547377798231775 -0.0652051827080226 0.06387242945243672 0.0013327532555858397 0.016477536456821137 0.0 0.0
0.0 0.06296693141604066 -0.054235498618919 0.052999399943173583 0.0012360986757454242 0.014504121772582017 0.0 0.0
0.0 0.051327435617884574 -0.0442109605800106 0.04305710561464118 0.0011538549653693875 0.01264782046333324 0.0 0.0
0.0 0.0409824018138423 -0.03532188411925802 0.034249729676312894 0.0010721544429451323 0.01085573675447192 0.0 0.0
0.0 0.031898599951087514 -0.027503629247187772 0.026514387786209702 0.000989241460978085 0.009136503491689563 0.0 0.0
0.0 0.023907754607886314 -0.020647610542884044 0.019744098031862306 0.0009035125110217302 0.007434852208887496 0.0 0.0
0.0 0.01695616368426474 -0.014687283853262838 0.013874396815136037 0.0008128870381267979 0.005691264897590035 0.0 0.0
0.0 0.011083650749679512 -0.009637889620392784 0.008929100310421875 0.0007087893099709064 0.003991537878747017 0.0 0.0
0.0 0.006369597112865577 -0.005583584914992407 0.005012189625924573 0.0005713952890678334 0.0024908655665544007 0.0 0.0
0.0 0.0030051046953169552 -0.0026078835172256933 0.002235349257333474 0.0003725342598922189 0.0012938425232524404 0.0 0.0
0.0 0.00104863737577247 -0.0007920266294860141 0.000648104592873162 0.00014392203661285218 0.0004907120854935454 0.0 0.0
0.0 0.00014219387027141714 -8.696200243221992e-05 6.97002931842107e-05 1.7261709248009084e-05 8.098824593180455e-05 0.0 0.0
0.0 4.0648286432160115e-06 -7.482870616659796e-07 5.878512156403827e-07 1.6043584602560948e-07 9.830303165667222e-07 0.0 0.0
0.0 0.0 0.0 0.0 0.0 0.0 0.0 0.0
0.0 0.0 0.0 0.0 0.0 0.0 0.0 0.0
0.0 0.0 0.0 0.0 0.0 0.0 0.0 0.0
0.0 0.0 0.0 0.0 0.0 0.0 0.0 0.0
0.0 0.0 0.0 0.0 0.0 0.0 0.0 0.0
0.0 0.0 0.0 0.0 0.0 0.0 0.0 0.0
0.0 4.578175833163302e-06 -8.728865400059621e-07 6.894687020443061e-07 1.834178379616459e-07 -8.294114570286024e-07 0.0 0.0
0.0 0.0002926430077910009 -0.0001955343144894059 0.00015652768464938124 3.900662984002459e-05 -0.00011514409487842929 0.0 0.0
0.0 0.0015889731523544273 -0.0012847147287822812 0.0010653694346891367 0.00021934529409314485 -0.0005226153325119309 0.0 0.0
0.0 0.003981976393729859 -0.0035668376106854243 0.0031116610649613704 0.0004551765457240529 -0.0011870750043319433 0.0 0.0
0.0 0.007938286024433675 -0.00702385787707239 0.006395102398439824 0.0006287554786325649 -0.0021396675514068135 0.0 0.0
0.0 0.013317164671755843 -0.011676092489812273 0.010922445233023506 0.0007536472567887585 -0.003354058392124627 0.0 0.0
0.0 0.02002618801854775 -0.017468317966786082 0.01661227769377734 0.0008560402730087397 -0.004739243337762259 0.0 0.0
0.0 0.028011234913176152 -0.024335887811646452 0.023384722766724163 0.0009511650449222837 -0.006167386669696412 0.0 0.0
0.0 0.03717732846827587 -0.03227586479149854 0.031232013388024983 0.0010438514034735403 -0.007559138550541614 0.0 0.0
0.0 0.04776758268453954 -0.04135072980164368 0.040215109782633984 0.0011356200190096703 -0.00897362438777245 0.0 0.0
0.0 0.059537481648267276 -0.05163943367740745 0.0504118487522474 0.001227584925160067 -0.010500625832443154 0.0 0.0
0.0 0.07272616149746819 -0.06311394308895377 0.06179307109921581 0.001320871989737985 -0.012016454910856273 0.0 0.0
0.0 0.08699473642642042 -0.07549725242519925 0.07407488264528055 0.0014223697799187205 -0.013206980750671645 0.0 0.0
0.0 0.1012176195984702 -0.08785344168213871 0.08629718372325303 0.0015562579588856529 -0.014393444275880244 0.0 0.0
0.0 0.11257628730885727 -0.0976307093496677 0.09586996038376588 0.0017607489659017313 -0.017871911024810654 0.0 0.0
0.0 0.11561296928526028 -0.09981403013719395 0.09782318269219946 0.0019908474449945182 -0.026477432640256923 0.0 0.0
0.0 0.10330663103473159 -0.08753342708023004 0.085332204852215 0.002201222228014992 -0.04088082015836014 0.0 0.0
0.0 0.10330663103472804 -0.08753342708022359 0.08533220485220921 0.002201222228014433 0.04088082015838655 0.0 0.0
0.0 0.11561296928523661 -0.09981403013717105 0.09782318269217702 0.001990847444994006 0.02647743264028942 0.0 0.0
0.0 0.11257628730881758 -0.09763070934963174 0.09586996038373072 0.0017607489659009418 0.017871911024835388 0.0 0.0
0.0 0.10121761959841855 -0.08785344168209322 0.08629718372320863 0.001556257958884609 0.014393444275885264 0.0 0.0
0.0 0.08699473642636349 -0.07549725242514932 0.07407488264523193 0.001422369779917416 0.013206980750670942 0.0 0.0
0.0 0.0727261614974089 -0.06311394308890189 0.06179307109916492 0.001320871989737005 0.01201645491085471 0.0 0.0
0.0 0.05953748164820683 -0.05163943367735496 0.05041184875219541 0.0012275849251595398 0.010500625832437074 0.0 0.0
0.0 0.04776758268447948 -0.04135072980159129 0.040215109782582435 0.0011356200190088827 0.008973624387765281 0.0 0.0
0.0 0.03717732846821603 -0.03227586479144647 0.031232013387973573 0.0010438514034728941 0.007559138550534519 0.0 0.0
0.0 0.02801123491312086 -0.0243358878115981 0.02338472276667637 0.0009511650449217322 0.006167386669683217 0.0 0.0
0.0 0.020026188018501253 -0.017468317966745438 0.016612277693737208 0.0008560402730082323 0.004739243337748901 0.0 0.0
0.0 0.013317164671719409 -0.011676092489780106 0.01092244523299199 0.0007536472567881184 0.003354058392115851 0.0 0.0
0.0 0.00793828602440783 -0.0070238578770492775 0.006395102398417494 0.0006287554786317844 0.002139667551399903 0.0 0.0
0.0 0.003981976393713189 -0.00356683761067029 0.003111661064947445 0.0004551765457228462 0.0011870750043270059 0.0 0.0
0.0 0.0015889731523443188 -0.0012847147287738659 0.0010653694346819148 0.0002193452940919502 0.0005226153325085841 0.0 0.0
0.0 0.0002926430077877679 -0.0001955343144875165 0.00015652768464783495 3.900662983968163e-05 0.00011514409487736393 0.0 0.0
0.0 4.578175832531128e-06 -8.728865401758928e-07 6.894687021763541e-07 1.8341783799954705e-07 8.294114571891987e-07 0.0 0.0
0.0 0.0 0.0 0.0 0.0 0.0 0.0 0.0
0.0 0.0 0.0 0.0 0.0 0.0 0.0 0.0
0.0 0.0 0.0 0.0 0.0 0.0 0.0 0.0
0.0 0.0 0.0 0.0 0.0 0.0 0.0 0.0
0.0 0.0 0.0 0.0 0.0 0.0 0.0 0.0
0.0 0.0 0.0 0.0 0.0 0.0 0.0 0.0
0.0 1.1123593097790608e-05 -2.3543522179700904e-06 1.8953376673635887e-06 4.590145506065308e-07 -1.541514142488662e-06 0.0 0.0
0.0 0.0005620569415873685 -0.0003930254906274409 0.0003168736047284363 7.615188589900469e-05 -0.0001325625555857018 0.0 0.0
0.0 0.0020773206177949546 -0.0019016881273531704 0.0015992537303531154 0.00030243439700005444 -0.0004396245241612472 0.0 0.0
0.0 0.005070721091046086 -0.004565776242917467 0.0040464726424812554 0.0005193036004362103 -0.0008855113608578667 0.0 0.0
0.0 0.00954175102394736 -0.008482067584651018 0.0078084955072249655 0.0006735720774260544 -0.001524152565496077 0.0 0.0
0.0 0.01557171275834696 -0.013713791690602321 0.012924530441476482 0.0007892612491258338 -0.002355406850751588 0.0 0.0
0.0 0.023109017125108076 -0.020239671858824297 0.019347052060136666 0.0008926197986876282 -0.0033201589353526813 0.0 0.0
0.0 0.03210932823002402 -0.028015760109676692 0.02702220479319401 0.0009935553164826913 -0.0043143762696863115 0.0 0.0
0.0 0.04262054042792632 -0.037046122104289335 0.035952267508133934 0.0010938545961553844 -0.005284501028756583 0.0 0.0
0.0 0.05441785357219583 -0.04739120839354183 0.04619653143804836 0.001194676955493453 -0.006305152261314822 0.0 0.0
0.0 0.06782354122039738 -0.059071696623618324 0.057774124852016044 0.0012975717716022582 -0.00739869856678714 0.0 0.0
0.0 0.08266893684983229 -0.07194886986551659 0.07054459490623118 0.0014042749592854111 -0.00842315894801379 0.0 0.0
0.0 0.0983544905216069 -0.08557772882685918 0.08406247104457128 0.0015152577822879155 -0.009008010587810955 0.0 0.0
0.0 0.11379496432619451 -0.09901680207987024 0.09737883862005553 0.001637963459814804 -0.008846887389029834 0.0 0.0
0.0 0.12674878407491652 -0.11025681546830825 0.10844438876538896 0.0018124267029192669 -0.00995173282978874 0.0 0.0
0.0 0.13202760514821393 -0.11447455286965103 0.11234347347349073 0.002131079396160205 -0.019694723990733735 0.0 0.0
0.0 0.12068683685134579 -0.10267409715204165 0.10028134702003061 0.0023927501320110188 -0.04311113745538796 0.0 0.0
0.0 0.12068683685134053 -0.10267409715203502 0.10028134702002414 0.0023927501320108557 0.04311113745540731 0.0 0.0
0.0 0.13202760514818587 -0.1144745528696257 0.11234347347346536 0.0021310793961602896 0.019694723990758525 0.0 0.0
0.0 0.12674878407486762 -0.11025681546826553 0.1084443887653462 0.0018124267029192983 0.009951732829807066 0.0 0.0
0.0 0.11379496432613348 -0.09901680207981708 0.09737883862000295 0.0016379634598141356 0.008846887389032068 0.0 0.0
0.0 0.09835449052154199 -0.08557772882680251 0.08406247104451578 0.0015152577822867064 0.009008010587810252 0.0 0.0
0.0 0.08266893684976345 -0.07194886986545647 0.07054459490617218 0.0014042749592842545 0.008423158948012845 0.0 0.0
0.0 0.06782354122032663 -0.05907169662355693 0.05777412485195528 0.0012975717716016163 0.007398698566783225 0.0 0.0
0.0 0.05441785357212404 -0.04739120839347963 0.046196531437986466 0.00119467695549317 0.006305152261308679 0.0 0.0
0.0 0.04262054042785745 -0.03704612210422932 0.03595226750807426 0.0010938545961550479 0.005284501028752038 0.0 0.0
0.0 0.03210932822996126 -0.02801576010962204 0.027022204793140055 0.0009935553164819688 0.0043143762696765744 0.0 0.0
0.0 0.02310901712505735 -0.020239671858779878 0.019347052060092938 0.0008926197986869485 0.003320158935343308 0.0 0.0
0.0 0.01557171275830626 -0.013713791690566099 0.012924530441440882 0.0007892612491252177 0.0023554068507462113 0.0 0.0
0.0 0.009541751023917359 -0.008482067584624105 0.007808495507198968 0.0006735720774251328 0.0015241525654910554 0.0 0.0
0.0 0.005070721091026927 -0.004565776242899801 0.00404647264246476 0.0005193036004350397 0.0008855113608544045 0.0 0.0
0.0 0.002077320617783094 -0.0019016881273422898 0.00159925373034344 0.0003024343969988508 0.00043962452415867486 0.0 0.0
0.0 0.0005620569415833289 -0.00039302549062476605 0.00031687360472622213 7.615188589854377e-05 0.00013256255558489016 0.0 0.0
0.0 1.1123593097153919e-05 -2.3543522182716654e-06 1.8953376676001197e-06 4.590145506714985e-07 1.5415141426728754e-06 0.0 0.0
0.0 0.0 0.0 0.0 0.0 0.0 0.0 0.0
0.0 0.0 0.0 0.0 0.0 0.0 0.0 0.0
0.0 0.0 0.0 0.0 0.0 0.0 0.0 0.0
0.0 0.0 0.0 0.0 0.0 0.0 0.0 0.0
0.0 0.0 0.0 0.0 0.0 0.0 0.0 0.0
0.0 0.0 0.0 0.0 0.0 0.0 0.0 0.0
0.0 4.0733094506698296e-05 -2.3952894937061602e-05 1.8906182231914632e-05 5.046712705147119e-06 -6.671800155734666e-06 0.0 0.0
0.0 0.0009641401844438945 -0.0006864183120667863 0.0005577958183665033 0.00012862249370028273 -9.140018549120575e-05 0.0 0.0
0.0 0.0027972520773811658 -0.002561237359358979 0.002185126246803586 0.00037611111255539257 -0.00021164475699328867 0.0 0.0
0.0 0.006199291408183434 -0.00558867902003275 0.005018313027229973 0.0005703659928027731 -0.00039275615904362426 0.0 0.0
0.0 0.011182306565951696 -0.009938254098817122 0.00922996656496035 0.0007082875338567656 -0.0006485984775039609 0.0 0.0
0.0 0.017853826090587978 -0.01573088403165852 0.014912257431391521 0.0008186266002670032 -0.0010037453340262757 0.0 0.0
0.0 0.02623586290677955 -0.022979695465805833 0.022055471995072455 0.00092422347073338 -0.0014334520829160837 0.0 0.0
0.0 0.03632931152174526 -0.031667610467138466 0.030636464306440837 0.001031146160697621 -0.0018801517939383457 0.0 0.0
0.0 0.04785965276604374 -0.041804869395656766 0.040664908040361006 0.0011399613552957447 -0.002338055986669081 0.0 0.0
0.0 0.0611575155951993 -0.053410407436408174 0.05216042511620257 0.001249982320205591 -0.002815388268750779 0.0 0.0
0.0 0.07619085073581401 -0.06645980044918812 0.0650962100215503 0.001363590427637776 -0.003296706607541871 0.0 0.0
0.0 0.0926164291230673 -0.08071620653805864 0.07923263476307518 0.0014835717749834788 -0.0037071859640961415 0.0 0.0
0.0 0.10970500982620805 -0.09552794084407684 0.09391887005895658 0.0016090707851202399 -0.0038060413687753857 0.0 0.0
0.0 0.12608876722201304 -0.10973780533511925 0.10800392626706337 0.0017338790680557986 -0.0031980747848812116 0.0 0.0
0.0 0.13979517289194368 -0.12166366493796048 0.11980295072153076 0.0018607142164296948 -0.001974603654977901 0.0 0.0
0.0 0.1476565193498242 -0.1283804358218023 0.12631757456734155 0.0020628612544606913 -0.006697007307355076 0.0 0.0
0.0 0.14091669056203618 -0.12074133174632577 0.11798482099174423 0.00275651075458154 -0.039856826163547215 0.0 0.0
0.0 0.14091669056202524 -0.12074133174631567 0.11798482099173405 0.002756510754581585 0.03985682616355478 0.0 0.0
0.0 0.14765651934979074 -0.12838043582177303 0.12631757456731263 0.0020628612544603495 0.006697007307366122 0.0 0.0
0.0 0.13979517289189078 -0.12166366493791422 0.11980295072148556 0.0018607142164286173 0.001974603654986759 0.0 0.0
0.0 0.12608876722194434 -0.10973780533505952 0.10800392626700422 0.001733879068055259 0.0031980747848804007 0.0 0.0
0.0 0.10970500982613046 -0.09552794084400981 0.09391887005888933 0.0016090707851204723 0.0038060413687757734 0.0 0.0
0.0 0.0926164291229898 -0.0807162065379913 0.07923263476300847 0.0014835717749827901 0.003707185964095018 0.0 0.0
0.0 0.07619085073573525 -0.06645980044911969 0.06509621002148265 0.0013635904276370157 0.0032967066075401995 0.0 0.0
0.0 0.06115751559512133 -0.05341040743634033 0.05216042511613558 0.0012499823202047242 0.002815388268748548 0.0 0.0
0.0 0.047859652765969575 -0.041804869395592054 0.040664908040297404 0.0011399613552946187 0.002338055986667604 0.0 0.0
0.0 0.036329311521677045 -0.031667610467078944 0.030636464306382095 0.001031146160696844 0.0018801517939328028 0.0 0.0
0.0 0.026235862906722626 -0.02297969546575638 0.022055471995023664 0.0009242234707327189 0.0014334520829115266 0.0 0.0
0.0 0.017853826090542965 -0.015730884031618764 0.014912257431352416 0.0008186266002663451 0.0010037453340242248 0.0 0.0
0.0 0.011182306565917401 -0.009938254098786393 0.009229966564930173 0.0007082875338562186 0.0006485984775018248 0.0 0.0
0.0 0.006199291408160745 -0.005588679020012207 0.005018313027210133 0.0005703659928020734 0.0003927561590419562 0.0 0.0
0.0 0.0027972520773689737 -0.002561237359347382 0.002185126246793051 0.00037611111255433027 0.00021164475699230573 0.0 0.0
0.0 0.0009641401844384253 -0.0006864183120628115 0.0005577958183631977 0.0001286224936996145 9.140018549086494e-05 0.0 0.0
0.0 4.0733094506112725e-05 -2.3952894937233028e-05 1.8906182232036046e-05 5.046712705196964e-06 6.67180015572455e-06 0.0 0.0
0.0 0.0 0.0 0.0 0.0 0.0 0.0 0.0
0.0 0.0 0.0 0.0 0.0 0.0 0.0 0.0
0.0 0.0 0.0 0.0 0.0 0.0 0.0 0.0