# vtk DataFile Version 3.0
Some data
ASCII
DATASET UNSTRUCTURED_GRID
POINTS 861 float
0.0 0.0 0.0
0.4 0.0 0.0
0.8 0.0 0.0
1.2000000000000002 0.0 0.0
1.6 0.0 0.0
2.0 0.0 0.0
2.4000000000000004 0.0 0.0
2.8000000000000003 0.0 0.0
3.2 0.0 0.0
3.6 0.0 0.0
4.0 0.0 0.0
4.4 0.0 0.0
4.800000000000001 0.0 0.0
5.2 0.0 0.0
5.6000000000000005 0.0 0.0
6.0 0.0 0.0
6.4 0.0 0.0
6.800000000000001 0.0 0.0
7.2 0.0 0.0
7.6000000000000005 0.0 0.0
8.0 0.0 0.0
8.4 0.0 0.0
8.8 0.0 0.0
9.200000000000001 0.0 0.0
9.600000000000001 0.0 0.0
10.0 0.0 0.0
10.4 0.0 0.0
10.8 0.0 0.0
11.200000000000001 0.0 0.0
11.600000000000001 0.0 0.0
12.0 0.0 0.0
12.4 0.0 0.0
12.8 0.0 0.0
13.200000000000001 0.0 0.0
13.600000000000001 0.0 0.0
14.0 0.0 0.0
14.4 0.0 0.0
14.8 0.0 0.0
15.200000000000001 0.0 0.0
15.600000000000001 0.0 0.0
16.0 0.0 0.0
0.0 0.1 0.0
0.4 0.1 0.0
0.8 0.1 0.0
1.2000000000000002 0.1 0.0
1.6 0.1 0.0
2.0 0.1 0.0
2.4000000000000004 0.1 0.0
2.8000000000000003 0.1 0.0
3.2 0.1 0.0
3.6 0.1 0.0
4.0 0.1 0.0
4.4 0.1 0.0
4.800000000000001 0.1 0.0
5.2 0.1 0.0
5.6000000000000005 0.1 0.0
6.0 0.1 0.0
6.4 0.1 0.0
6.800000000000001 0.1 0.0
7.2 0.1 0.0
7.6000000000000005 0.1 0.0
8.0 0.1 0.0
8.4 0.1 0.0
8.8 0.1 0.0
9.200000000000001 0.1 0.0
9.600000000000001 0.1 0.0
10.0 0.1 0.0
10.4 0.1 0.0
10.8 0.1 0.0
11.200000000000001 0.1 0.0
11.600000000000001 0.1 0.0
12.0 0.1 0.0
12.4 0.1 0.0
12.8 0.1 0.0
13.200000000000001 0.1 0.0
13.600000000000001 0.1 0.0
14.0 0.1 0.0
14.4 0.1 0.0
14.8 0.1 0.0
15.200000000000001 0.1 0.0
15.600000000000001 0.1 0.0
16.0 0.1 0.0
0.0 0.2 0.0
0.4 0.2 0.0
0.8 0.2 0.0
1.2000000000000002 0.2 0.0
1.6 0.2 0.0
2.0 0.2 0.0
2.4000000000000004 0.2 0.0
2.8000000000000003 0.2 0.0
3.2 0.2 0.0
3.6 0.2 0.0
4.0 0.2 0.0
4.4 0.2 0.0
4.800000000000001 0.2 0.0
5.2 0.2 0.0
5.6000000000000005 0.2 0.0
6.0 0.2 0.0
6.4 0.2 0.0
6.800000000000001 0.2 0.0
7.2 0.2 0.0
7.6000000000000005 0.2 0.0
8.0 0.2 0.0
8.4 0.2 0.0
8.8 0.2 0.0
9.200000000000001 0.2 0.0
9.600000000000001 0.2 0.0
10.0 0.2 0.0
10.4 0.2 0.0
10.8 0.2 0.0
11.200000000000001 0.2 0.0
11.600000000000001 0.2 0.0
12.0 0.2 0.0
12.4 0.2 0.0
12.8 0.2 0.0
13.200000000000001 0.2 0.0
13.600000000000001 0.2 0.0
14.0 0.2 0.0
14.4 0.2 0.0
14.8 0.2 0.0
15.200000000000001 0.2 0.0
15.600000000000001 0.2 0.0
16.0 0.2 0.0
0.0 0.30000000000000004 0.0
0.4 0.30000000000000004 0.0
0.8 0.30000000000000004 0.0
1.2000000000000002 0.30000000000000004 0.0
1.6 0.30000000000000004 0.0
2.0 0.30000000000000004 0.0
2.4000000000000004 0.30000000000000004 0.0
2.8000000000000003 0.30000000000000004 0.0
3.2 0.30000000000000004 0.0
3.6 0.30000000000000004 0.0
4.0 0.30000000000000004 0.0
4.4 0.30000000000000004 0.0
4.800000000000001 0.30000000000000004 0.0
5.2 0.30000000000000004 0.0
5.6000000000000005 0.30000000000000004 0.0
6.0 0.30000000000000004 0.0
6.4 0.30000000000000004 0.0
6.800000000000001 0.30000000000000004 0.0
7.2 0.30000000000000004 0.0
7.6000000000000005 0.30000000000000004 0.0
8.0 0.30000000000000004 0.0
8.4 0.30000000000000004 0.0
8.8 0.30000000000000004 0.0
9.200000000000001 0.30000000000000004 0.0
9.600000000000001 0.30000000000000004 0.0
10.0 0.30000000000000004 0.0
10.4 0.30000000000000004 0.0
10.8 0.30000000000000004 0.0
11.200000000000001 0.30000000000000004 0.0
11.600000000000001 0.30000000000000004 0.0
12.0 0.30000000000000004 0.0
12.4 0.30000000000000004 0.0
12.8 0.30000000000000004 0.0
13.200000000000001 0.30000000000000004 0.0
13.600000000000001 0.30000000000000004 0.0
14.0 0.30000000000000004 0.0
14.4 0.30000000000000004 0.0
14.8 0.30000000000000004 0.0
15.200000000000001 0.30000000000000004 0.0
15.600000000000001 0.30000000000000004 0.0
16.0 0.30000000000000004 0.0
0.0 0.4 0.0
0.4 0.4 0.0
0.8 0.4 0.0
1.2000000000000002 0.4 0.0
1.6 0.4 0.0
2.0 0.4 0.0
2.4000000000000004 0.4 0.0
2.8000000000000003 0.4 0.0
3.2 0.4 0.0
3.6 0.4 0.0
4.0 0.4 0.0
4.4 0.4 0.0
4.800000000000001 0.4 0.0
5.2 0.4 0.0
5.6000000000000005 0.4 0.0
6.0 0.4 0.0
6.4 0.4 0.0
6.800000000000001 0.4 0.0
7.2 0.4 0.0
7.6000000000000005 0.4 0.0
8.0 0.4 0.0
8.4 0.4 0.0
8.8 0.4 0.0
9.200000000000001 0.4 0.0
9.600000000000001 0.4 0.0
10.0 0.4 0.0
10.4 0.4 0.0
10.8 0.4 0.0
11.200000000000001 0.4 0.0
11.600000000000001 0.4 0.0
12.0 0.4 0.0
12.4 0.4 0.0
12.8 0.4 0.0
13.200000000000001 0.4 0.0
13.600000000000001 0.4 0.0
14.0 0.4 0.0
14.4 0.4 0.0
14.8 0.4 0.0
15.200000000000001 0.4 0.0
15.600000000000001 0.4 0.0
16.0 0.4 0.0
0.0 0.5 0.0
0.4 0.5 0.0
0.8 0.5 0.0
1.2000000000000002 0.5 0.0
1.6 0.5 0.0
2.0 0.5 0.0
2.4000000000000004 0.5 0.0
2.8000000000000003 0.5 0.0
3.2 0.5 0.0
3.6 0.5 0.0
4.0 0.5 0.0
4.4 0.5 0.0
4.800000000000001 0.5 0.0
5.2 0.5 0.0
5.6000000000000005 0.5 0.0
6.0 0.5 0.0
6.4 0.5 0.0
6.800000000000001 0.5 0.0
7.2 0.5 0.0
7.6000000000000005 0.5 0.0
8.0 0.5 0.0
8.4 0.5 0.0
8.8 0.5 0.0
9.200000000000001 0.5 0.0
9.600000000000001 0.5 0.0
10.0 0.5 0.0
10.4 0.5 0.0
10.8 0.5 0.0
11.200000000000001 0.5 0.0
11.600000000000001 0.5 0.0
12.0 0.5 0.0
12.4 0.5 0.0
12.8 0.5 0.0
13.200000000000001 0.5 0.0
13.600000000000001 0.5 0.0
14.0 0.5 0.0
14.4 0.5 0.0
14.8 0.5 0.0
15.200000000000001 0.5 0.0
15.600000000000001 0.5 0.0
16.0 0.5 0.0
0.0 0.6000000000000001 0.0
0.4 0.6000000000000001 0.0
0.8 0.6000000000000001 0.0
1.2000000000000002 0.6000000000000001 0.0
1.6 0.6000000000000001 0.0
2.0 0.6000000000000001 0.0
2.4000000000000004 0.6000000000000001 0.0
2.8000000000000003 0.6000000000000001 0.0
3.2 0.6000000000000001 0.0
3.6 0.6000000000000001 0.0
4.0 0.6000000000000001 0.0
4.4 0.6000000000000001 0.0
4.800000000000001 0.6000000000000001 0.0
5.2 0.6000000000000001 0.0
5.6000000000000005 0.6000000000000001 0.0
6.0 0.6000000000000001 0.0
6.4 0.6000000000000001 0.0
6.800000000000001 0.6000000000000001 0.0
7.2 0.6000000000000001 0.0
7.6000000000000005 0.6000000000000001 0.0
8.0 0.6000000000000001 0.0
8.4 0.6000000000000001 0.0
8.8 0.6000000000000001 0.0
9.200000000000001 0.6000000000000001 0.0
9.600000000000001 0.6000000000000001 0.0
10.0 0.6000000000000001 0.0
10.4 0.6000000000000001 0.0
10.8 0.6000000000000001 0.0
11.200000000000001 0.6000000000000001 0.0
11.600000000000001 0.6000000000000001 0.0
12.0 0.6000000000000001 0.0
12.4 0.6000000000000001 0.0
12.8 0.6000000000000001 0.0
13.200000000000001 0.6000000000000001 0.0
13.600000000000001 0.6000000000000001 0.0
14.0 0.6000000000000001 0.0
14.4 0.6000000000000001 0.0
14.8 0.6000000000000001 0.0
15.200000000000001 0.6000000000000001 0.0
15.600000000000001 0.6000000000000001 0.0
16.0 0.6000000000000001 0.0
0.0 0.7000000000000001 0.0
0.4 0.7000000000000001 0.0
0.8 0.7000000000000001 0.0
1.2000000000000002 0.7000000000000001 0.0
1.6 0.7000000000000001 0.0
2.0 0.7000000000000001 0.0
2.4000000000000004 0.7000000000000001 0.0
2.8000000000000003 0.7000000000000001 0.0
3.2 0.7000000000000001 0.0
3.6 0.7000000000000001 0.0
4.0 0.7000000000000001 0.0
4.4 0.7000000000000001 0.0
4.800000000000001 0.7000000000000001 0.0
5.2 0.7000000000000001 0.0
5.6000000000000005 0.7000000000000001 0.0
6.0 0.7000000000000001 0.0
6.4 0.7000000000000001 0.0
6.800000000000001 0.7000000000000001 0.0
7.2 0.7000000000000001 0.0
7.6000000000000005 0.7000000000000001 0.0
8.0 0.7000000000000001 0.0
8.4 0.7000000000000001 0.0
8.8 0.7000000000000001 0.0
9.200000000000001 0.7000000000000001 0.0
9.600000000000001 0.7000000000000001 0.0
10.0 0.7000000000000001 0.0
10.4 0.7000000000000001 0.0
10.8 0.7000000000000001 0.0
11.200000000000001 0.7000000000000001 0.0
11.600000000000001 0.7000000000000001 0.0
12.0 0.7000000000000001 0.0
12.4 0.7000000000000001 0.0
12.8 0.7000000000000001 0.0
13.200000000000001 0.7000000000000001 0.0
13.600000000000001 0.7000000000000001 0.0
14.0 0.7000000000000001 0.0
14.4 0.7000000000000001 0.0
14.8 0.7000000000000001 0.0
15.200000000000001 0.7000000000000001 0.0
15.600000000000001 0.7000000000000001 0.0
16.0 0.7000000000000001 0.0
0.0 0.8 0.0
0.4 0.8 0.0
0.8 0.8 0.0
1.2000000000000002 0.8 0.0
1.6 0.8 0.0
2.0 0.8 0.0
2.4000000000000004 0.8 0.0
2.8000000000000003 0.8 0.0
3.2 0.8 0.0
3.6 0.8 0.0
4.0 0.8 0.0
4.4 0.8 0.0
4.800000000000001 0.8 0.0
5.2 0.8 0.0
5.6000000000000005 0.8 0.0
6.0 0.8 0.0
6.4 0.8 0.0
6.800000000000001 0.8 0.0
7.2 0.8 0.0
7.6000000000000005 0.8 0.0
8.0 0.8 0.0
8.4 0.8 0.0
8.8 0.8 0.0
9.200000000000001 0.8 0.0
9.600000000000001 0.8 0.0
10.0 0.8 0.0
10.4 0.8 0.0
10.8 0.8 0.0
11.200000000000001 0.8 0.0
11.600000000000001 0.8 0.0
12.0 0.8 0.0
12.4 0.8 0.0
12.8 0.8 0.0
13.200000000000001 0.8 0.0
13.600000000000001 0.8 0.0
14.0 0.8 0.0
14.4 0.8 0.0
14.8 0.8 0.0
15.200000000000001 0.8 0.0
15.600000000000001 0.8 0.0
16.0 0.8 0.0
0.0 0.9 0.0
0.4 0.9 0.0
0.8 0.9 0.0
1.2000000000000002 0.9 0.0
1.6 0.9 0.0
2.0 0.9 0.0
2.4000000000000004 0.9 0.0
2.8000000000000003 0.9 0.0
3.2 0.9 0.0
3.6 0.9 0.0
4.0 0.9 0.0
4.4 0.9 0.0
4.800000000000001 0.9 0.0
5.2 0.9 0.0
5.6000000000000005 0.9 0.0
6.0 0.9 0.0
6.4 0.9 0.0
6.800000000000001 0.9 0.0
7.2 0.9 0.0
7.6000000000000005 0.9 0.0
8.0 0.9 0.0
8.4 0.9 0.0
8.8 0.9 0.0
9.200000000000001 0.9 0.0
9.600000000000001 0.9 0.0
10.0 0.9 0.0
10.4 0.9 0.0
10.8 0.9 0.0
11.200000000000001 0.9 0.0
11.600000000000001 0.9 0.0
12.0 0.9 0.0
12.4 0.9 0.0
12.8 0.9 0.0
13.200000000000001 0.9 0.0
13.600000000000001 0.9 0.0
14.0 0.9 0.0
14.4 0.9 0.0
14.8 0.9 0.0
15.200000000000001 0.9 0.0
15.600000000000001 0.9 0.0
16.0 0.9 0.0
0.0 1.0 0.0
0.4 1.0 0.0
0.8 1.0 0.0
1.2000000000000002 1.0 0.0
1.6 1.0 0.0
2.0 1.0 0.0
2.4000000000000004 1.0 0.0
2.8000000000000003 1.0 0.0
3.2 1.0 0.0
3.6 1.0 0.0
4.0 1.0 0.0
4.4 1.0 0.0
4.800000000000001 1.0 0.0
5.2 1.0 0.0
5.6000000000000005 1.0 0.0
6.0 1.0 0.0
6.4 1.0 0.0
6.800000000000001 1.0 0.0
7.2 1.0 0.0
7.6000000000000005 1.0 0.0
8.0 1.0 0.0
8.4 1.0 0.0
8.8 1.0 0.0
9.200000000000001 1.0 0.0
9.600000000000001 1.0 0.0
10.0 1.0 0.0
10.4 1.0 0.0
10.8 1.0 0.0
11.200000000000001 1.0 0.0
11.600000000000001 1.0 0.0
12.0 1.0 0.0
12.4 1.0 0.0
12.8 1.0 0.0
13.200000000000001 1.0 0.0
13.600000000000001 1.0 0.0
14.0 1.0 0.0
14.4 1.0 0.0
14.8 1.0 0.0
15.200000000000001 1.0 0.0
15.600000000000001 1.0 0.0
16.0 1.0 0.0
0.0 1.1 0.0
0.4 1.1 0.0
0.8 1.1 0.0
1.2000000000000002 1.1 0.0
1.6 1.1 0.0
2.0 1.1 0.0
2.4000000000000004 1.1 0.0
2.8000000000000003 1.1 0.0
3.2 1.1 0.0
3.6 1.1 0.0
4.0 1.1 0.0
4.4 1.1 0.0
4.800000000000001 1.1 0.0
5.2 1.1 0.0
5.6000000000000005 1.1 0.0
6.0 1.1 0.0
6.4 1.1 0.0
6.800000000000001 1.1 0.0
7.2 1.1 0.0
7.6000000000000005 1.1 0.0
8.0 1.1 0.0
8.4 1.1 0.0
8.8 1.1 0.0
9.200000000000001 1.1 0.0
9.600000000000001 1.1 0.0
10.0 1.1 0.0
10.4 1.1 0.0
10.8 1.1 0.0
11.200000000000001 1.1 0.0
11.600000000000001 1.1 0.0
12.0 1.1 0.0
12.4 1.1 0.0
12.8 1.1 0.0
13.200000000000001 1.1 0.0
13.600000000000001 1.1 0.0
14.0 1.1 0.0
14.4 1.1 0.0
14.8 1.1 0.0
15.200000000000001 1.1 0.0
15.600000000000001 1.1 0.0
16.0 1.1 0.0
0.0 1.2000000000000002 0.0
0.4 1.2000000000000002 0.0
0.8 1.2000000000000002 0.0
1.2000000000000002 1.2000000000000002 0.0
1.6 1.2000000000000002 0.0
2.0 1.2000000000000002 0.0
2.4000000000000004 1.2000000000000002 0.0
2.8000000000000003 1.2000000000000002 0.0
3.2 1.2000000000000002 0.0
3.6 1.2000000000000002 0.0
4.0 1.2000000000000002 0.0
4.4 1.2000000000000002 0.0
4.800000000000001 1.2000000000000002 0.0
5.2 1.2000000000000002 0.0
5.6000000000000005 1.2000000000000002 0.0
6.0 1.2000000000000002 0.0
6.4 1.2000000000000002 0.0
6.800000000000001 1.2000000000000002 0.0
7.2 1.2000000000000002 0.0
7.6000000000000005 1.2000000000000002 0.0
8.0 1.2000000000000002 0.0
8.4 1.2000000000000002 0.0
8.8 1.2000000000000002 0.0
9.200000000000001 1.2000000000000002 0.0
9.600000000000001 1.2000000000000002 0.0
10.0 1.2000000000000002 0.0
10.4 1.2000000000000002 0.0
10.8 1.2000000000000002 0.0
11.200000000000001 1.2000000000000002 0.0
11.600000000000001 1.2000000000000002 0.0
12.0 1.2000000000000002 0.0
12.4 1.2000000000000002 0.0
12.8 1.2000000000000002 0.0
13.200000000000001 1.2000000000000002 0.0
13.600000000000001 1.2000000000000002 0.0
14.0 1.2000000000000002 0.0
14.4 1.2000000000000002 0.0
14.8 1.2000000000000002 0.0
15.200000000000001 1.2000000000000002 0.0
15.600000000000001 1.2000000000000002 0.0
16.0 1.2000000000000002 0.0
0.0 1.3 0.0
0.4 1.3 0.0
0.8 1.3 0.0
1.2000000000000002 1.3 0.0
1.6 1.3 0.0
2.0 1.3 0.0
2.4000000000000004 1.3 0.0
2.8000000000000003 1.3 0.0
3.2 1.3 0.0
3.6 1.3 0.0
4.0 1.3 0.0
4.4 1.3 0.0
4.800000000000001 1.3 0.0
5.2 1.3 0.0
5.6000000000000005 1.3 0.0
6.0 1.3 0.0
6.4 1.3 0.0
6.800000000000001 1.3 0.0
7.2 1.3 0.0
7.6000000000000005 1.3 0.0
8.0 1.3 0.0
8.4 1.3 0.0
8.8 1.3 0.0
9.200000000000001 1.3 0.0
9.600000000000001 1.3 0.0
10.0 1.3 0.0
10.4 1.3 0.0
10.8 1.3 0.0
11.200000000000001 1.3 0.0
11.600000000000001 1.3 0.0
12.0 1.3 0.0
12.4 1.3 0.0
12.8 1.3 0.0
13.200000000000001 1.3 0.0
13.600000000000001 1.3 0.0
14.0 1.3 0.0
14.4 1.3 0.0
14.8 1.3 0.0
15.200000000000001 1.3 0.0
15.600000000000001 1.3 0.0
16.0 1.3 0.0
0.0 1.4000000000000001 0.0
0.4 1.4000000000000001 0.0
0.8 1.4000000000000001 0.0
1.2000000000000002 1.4000000000000001 0.0
1.6 1.4000000000000001 0.0
2.0 1.4000000000000001 0.0
2.4000000000000004 1.4000000000000001 0.0
2.8000000000000003 1.4000000000000001 0.0
3.2 1.4000000000000001 0.0
3.6 1.4000000000000001 0.0
4.0 1.4000000000000001 0.0
4.4 1.4000000000000001 0.0
4.800000000000001 1.4000000000000001 0.0
5.2 1.4000000000000001 0.0
5.6000000000000005 1.4000000000000001 0.0
6.0 1.4000000000000001 0.0
6.4 1.4000000000000001 0.0
6.800000000000001 1.4000000000000001 0.0
7.2 1.4000000000000001 0.0
7.6000000000000005 1.4000000000000001 0.0
8.0 1.4000000000000001 0.0
8.4 1.4000000000000001 0.0
8.8 1.4000000000000001 0.0
9.200000000000001 1.4000000000000001 0.0
9.600000000000001 1.4000000000000001 0.0
10.0 1.4000000000000001 0.0
10.4 1.4000000000000001 0.0
10.8 1.4000000000000001 0.0
11.200000000000001 1.4000000000000001 0.0
11.600000000000001 1.4000000000000001 0.0
12.0 1.4000000000000001 0.0
12.4 1.4000000000000001 0.0
12.8 1.4000000000000001 0.0
13.200000000000001 1.4000000000000001 0.0
13.600000000000001 1.4000000000000001 0.0
14.0 1.4000000000000001 0.0
14.4 1.4000000000000001 0.0
14.8 1.4000000000000001 0.0
15.200000000000001 1.4000000000000001 0.0
15.600000000000001 1.4000000000000001 0.0
16.0 1.4000000000000001 0.0
0.0 1.5 0.0
0.4 1.5 0.0
0.8 1.5 0.0
1.2000000000000002 1.5 0.0
1.6 1.5 0.0
2.0 1.5 0.0
2.4000000000000004 1.5 0.0
2.8000000000000003 1.5 0.0
3.2 1.5 0.0
3.6 1.5 0.0
4.0 1.5 0.0
4.4 1.5 0.0
4.800000000000001 1.5 0.0
5.2 1.5 0.0
5.6000000000000005 1.5 0.0
6.0 1.5 0.0
6.4 1.5 0.0
6.800000000000001 1.5 0.0
7.2 1.5 0.0
7.6000000000000005 1.5 0.0
8.0 1.5 0.0
8.4 1.5 0.0
8.8 1.5 0.0
9.200000000000001 1.5 0.0
9.600000000000001 1.5 0.0
10.0 1.5 0.0
10.4 1.5 0.0
10.8 1.5 0.0
11.200000000000001 1.5 0.0
11.600000000000001 1.5 0.0
12.0 1.5 0.0
12.4 1.5 0.0
12.8 1.5 0.0
13.200000000000001 1.5 0.0
13.600000000000001 1.5 0.0
14.0 1.5 0.0
14.4 1.5 0.0
14.8 1.5 0.0
15.200000000000001 1.5 0.0
15.600000000000001 1.5 0.0
16.0 1.5 0.0
0.0 1.6 0.0
0.4 1.6 0.0
0.8 1.6 0.0
1.2000000000000002 1.6 0.0
1.6 1.6 0.0
2.0 1.6 0.0
2.4000000000000004 1.6 0.0
2.8000000000000003 1.6 0.0
3.2 1.6 0.0
3.6 1.6 0.0
4.0 1.6 0.0
4.4 1.6 0.0
4.800000000000001 1.6 0.0
5.2 1.6 0.0
5.6000000000000005 1.6 0.0
6.0 1.6 0.0
6.4 1.6 0.0
6.800000000000001 1.6 0.0
7.2 1.6 0.0
7.6000000000000005 1.6 0.0
8.0 1.6 0.0
8.4 1.6 0.0
8.8 1.6 0.0
9.200000000000001 1.6 0.0
9.600000000000001 1.6 0.0
10.0 1.6 0.0
10.4 1.6 0.0
10.8 1.6 0.0
11.200000000000001 1.6 0.0
11.600000000000001 1.6 0.0
12.0 1.6 0.0
12.4 1.6 0.0
12.8 1.6 0.0
13.200000000000001 1.6 0.0
13.600000000000001 1.6 0.0
14.0 1.6 0.0
14.4 1.6 0.0
14.8 1.6 0.0
15.200000000000001 1.6 0.0
15.600000000000001 1.6 0.0
16.0 1.6 0.0
0.0 1.7000000000000002 0.0
0.4 1.7000000000000002 0.0
0.8 1.7000000000000002 0.0
1.2000000000000002 1.7000000000000002 0.0
1.6 1.7000000000000002 0.0
2.0 1.7000000000000002 0.0
2.4000000000000004 1.7000000000000002 0.0
2.8000000000000003 1.7000000000000002 0.0
3.2 1.7000000000000002 0.0
3.6 1.7000000000000002 0.0
4.0 1.7000000000000002 0.0
4.4 1.7000000000000002 0.0
4.800000000000001 1.7000000000000002 0.0
5.2 1.7000000000000002 0.0
5.6000000000000005 1.7000000000000002 0.0
6.0 1.7000000000000002 0.0
6.4 1.7000000000000002 0.0
6.800000000000001 1.7000000000000002 0.0
7.2 1.7000000000000002 0.0
7.6000000000000005 1.7000000000000002 0.0
8.0 1.7000000000000002 0.0
8.4 1.7000000000000002 0.0
8.8 1.7000000000000002 0.0
9.200000000000001 1.7000000000000002 0.0
9.600000000000001 1.7000000000000002 0.0
10.0 1.7000000000000002 0.0
10.4 1.7000000000000002 0.0
10.8 1.7000000000000002 0.0
11.200000000000001 1.7000000000000002 0.0
11.600000000000001 1.7000000000000002 0.0
12.0 1.7000000000000002 0.0
12.4 1.7000000000000002 0.0
12.8 1.7000000000000002 0.0
13.200000000000001 1.7000000000000002 0.0
13.600000000000001 1.7000000000000002 0.0
14.0 1.7000000000000002 0.0
14.4 1.7000000000000002 0.0
14.8 1.7000000000000002 0.0
15.200000000000001 1.7000000000000002 0.0
15.600000000000001 1.7000000000000002 0.0
16.0 1.7000000000000002 0.0
0.0 1.8 0.0
0.4 1.8 0.0
0.8 1.8 0.0
1.2000000000000002 1.8 0.0
1.6 1.8 0.0
2.0 1.8 0.0
2.4000000000000004 1.8 0.0
2.8000000000000003 1.8 0.0
3.2 1.8 0.0
3.6 1.8 0.0
4.0 1.8 0.0
4.4 1.8 0.0
4.800000000000001 1.8 0.0
5.2 1.8 0.0
5.6000000000000005 1.8 0.0
6.0 1.8 0.0
6.4 1.8 0.0
6.800000000000001 1.8 0.0
7.2 1.8 0.0
7.6000000000000005 1.8 0.0
8.0 1.8 0.0
8.4 1.8 0.0
8.8 1.8 0.0
9.200000000000001 1.8 0.0
9.600000000000001 1.8 0.0
10.0 1.8 0.0
10.4 1.8 0.0
10.8 1.8 0.0
11.200000000000001 1.8 0.0
11.600000000000001 1.8 0.0
12.0 1.8 0.0
12.4 1.8 0.0
12.8 1.8 0.0
13.200000000000001 1.8 0.0
13.600000000000001 1.8 0.0
14.0 1.8 0.0
14.4 1.8 0.0
14.8 1.8 0.0
15.200000000000001 1.8 0.0
15.600000000000001 1.8 0.0
16.0 1.8 0.0
0.0 1.9000000000000001 0.0
0.4 1.9000000000000001 0.0
0.8 1.9000000000000001 0.0
1.2000000000000002 1.9000000000000001 0.0
1.6 1.9000000000000001 0.0
2.0 1.9000000000000001 0.0
2.4000000000000004 1.9000000000000001 0.0
2.8000000000000003 1.9000000000000001 0.0
3.2 1.9000000000000001 0.0
3.6 1.9000000000000001 0.0
4.0 1.9000000000000001 0.0
4.4 1.9000000000000001 0.0
4.800000000000001 1.9000000000000001 0.0
5.2 1.9000000000000001 0.0
5.6000000000000005 1.9000000000000001 0.0
6.0 1.9000000000000001 0.0
6.4 1.9000000000000001 0.0
6.800000000000001 1.9000000000000001 0.0
7.2 1.9000000000000001 0.0
7.6000000000000005 1.9000000000000001 0.0
8.0 1.9000000000000001 0.0
8.4 1.9000000000000001 0.0
8.8 1.9000000000000001 0.0
9.200000000000001 1.9000000000000001 0.0
9.600000000000001 1.9000000000000001 0.0
10.0 1.9000000000000001 0.0
10.4 1.9000000000000001 0.0
10.8 1.9000000000000001 0.0
11.200000000000001 1.9000000000000001 0.0
11.600000000000001 1.9000000000000001 0.0
12.0 1.9000000000000001 0.0
12.4 1.9000000000000001 0.0
12.8 1.9000000000000001 0.0
13.200000000000001 1.9000000000000001 0.0
13.600000000000001 1.9000000000000001 0.0
14.0 1.9000000000000001 0.0
14.4 1.9000000000000001 0.0
14.8 1.9000000000000001 0.0
15.200000000000001 1.9000000000000001 0.0
15.600000000000001 1.9000000000000001 0.0
16.0 1.9000000000000001 0.0
0.0 2.0 0.0
0.4 2.0 0.0
0.8 2.0 0.0
1.2000000000000002 2.0 0.0
1.6 2.0 0.0
2.0 2.0 0.0
2.4000000000000004 2.0 0.0
2.8000000000000003 2.0 0.0
3.2 2.0 0.0
3.6 2.0 0.0
4.0 2.0 0.0
4.4 2.0 0.0
4.800000000000001 2.0 0.0
5.2 2.0 0.0
5.6000000000000005 2.0 0.0
6.0 2.0 0.0
6.4 2.0 0.0
6.800000000000001 2.0 0.0
7.2 2.0 0.0
7.6000000000000005 2.0 0.0
8.0 2.0 0.0
8.4 2.0 0.0
8.8 2.0 0.0
9.200000000000001 2.0 0.0
9.600000000000001 2.0 0.0
10.0 2.0 0.0
10.4 2.0 0.0
10.8 2.0 0.0
11.200000000000001 2.0 0.0
11.600000000000001 2.0 0.0
12.0 2.0 0.0
12.4 2.0 0.0
12.8 2.0 0.0
13.200000000000001 2.0 0.0
13.600000000000001 2.0 0.0
14.0 2.0 0.0
14.4 2.0 0.0
14.8 2.0 0.0
15.200000000000001 2.0 0.0
15.600000000000001 2.0 0.0
16.0 2.0 0.0
CELLS 800 4000
4 0 1 42 41
4 1 2 43 42
4 2 3 44 43
4 3 4 45 44
4 4 5 46 45
4 5 6 47 46
4 6 7 48 47
4 7 8 49 48
4 8 9 50 49
4 9 10 51 50
4 10 11 52 51
4 11 12 53 52
4 12 13 54 53
4 13 14 55 54
4 14 15 56 55
4 15 16 57 56
4 16 17 58 57
4 17 18 59 58
4 18 19 60 59
4 19 20 61 60
4 20 21 62 61
4 21 22 63 62
4 22 23 64 63
4 23 24 65 64
4 24 25 66 65
4 25 26 67 66
4 26 27 68 67
4 27 28 69 68
4 28 29 70 69
4 29 30 71 70
4 30 31 72 71
4 31 32 73 72
4 32 33 74 73
4 33 34 75 74
4 34 35 76 75
4 35 36 77 76
4 36 37 78 77
4 37 38 79 78
4 38 39 80 79
4 39 40 81 80
4 41 42 83 82
4 42 43 84 83
4 43 44 85 84
4 44 45 86 85
4 45 46 87 86
4 46 47 88 87
4 47 48 89 88
4 48 49 90 89
4 49 50 91 90
4 50 51 92 91
4 51 52 93 92
4 52 53 94 93
4 53 54 95 94
4 54 55 96 95
4 55 56 97 96
4 56 57 98 97
4 57 58 99 98
4 58 59 100 99
4 59 60 101 100
4 60 61 102 101
4 61 62 103 102
4 62 63 104 103
4 63 64 105 104
4 64 65 106 105
4 65 66 107 106
4 66 67 108 107
4 67 68 109 108
4 68 69 110 109
4 69 70 111 110
4 70 71 112 111
4 71 72 113 112
4 72 73 114 113
4 73 74 115 114
4 74 75 116 115
4 75 76 117 116
4 76 77 118 117
4 77 78 119 118
4 78 79 120 119
4 79 80 121 120
4 80 81 122 121
4 82 83 124 123
4 83 84 125 124
4 84 85 126 125
4 85 86 127 126
4 86 87 128 127
4 87 88 129 128
4 88 89 130 129
4 89 90 131 130
4 90 91 132 131
4 91 92 133 132
4 92 93 134 133
4 93 94 135 134
4 94 95 136 135
4 95 96 137 136
4 96 97 138 137
4 97 98 139 138
4 98 99 140 139
4 99 100 141 140
4 100 101 142 141
4 101 102 143 142
4 102 103 144 143
4 103 104 145 144
4 104 105 146 145
4 105 106 147 146
4 106 107 148 147
4 107 108 149 148
4 108 109 150 149
4 109 110 151 150
4 110 111 152 151
4 111 112 153 152
4 112 113 154 153
4 113 114 155 154
4 114 115 156 155
4 115 116 157 156
4 116 117 158 157
4 117 118 159 158
4 118 119 160 159
4 119 120 161 160
4 120 121 162 161
4 121 122 163 162
4 123 124 165 164
4 124 125 166 165
4 125 126 167 166
4 126 127 168 167
4 127 128 169 168
4 128 129 170 169
4 129 130 171 170
4 130 131 172 171
4 131 132 173 172
4 132 133 174 173
4 133 134 175 174
4 134 135 176 175
4 135 136 177 176
4 136 137 178 177
4 137 138 179 178
4 138 139 180 179
4 139 140 181 180
4 140 141 182 181
4 141 142 183 182
4 142 143 184 183
4 143 144 185 184
4 144 145 186 185
4 145 146 187 186
4 146 147 188 187
4 147 148 189 188
4 148 149 190 189
4 149 150 191 190
4 150 151 192 191
4 151 152 193 192
4 152 153 194 193
4 153 154 195 194
4 154 155 196 195
4 155 156 197 196
4 156 157 198 197
4 157 158 199 198
4 158 159 200 199
4 159 160 201 200
4 160 161 202 201
4 161 162 203 202
4 162 163 204 203
4 164 165 206 205
4 165 166 207 206
4 166 167 208 207
4 167 168 209 208
4 168 169 210 209
4 169 170 211 210
4 170 171 212 211
4 171 172 213 212
4 172 173 214 213
4 173 174 215 214
4 174 175 216 215
4 175 176 217 216
4 176 177 218 217
4 177 178 219 218
4 178 179 220 219
4 179 180 221 220
4 180 181 222 221
4 181 182 223 222
4 182 183 224 223
4 183 184 225 224
4 184 185 226 225
4 185 186 227 226
4 186 187 228 227
4 187 188 229 228
4 188 189 230 229
4 189 190 231 230
4 190 191 232 231
4 191 192 233 232
4 192 193 234 233
4 193 194 235 234
4 194 195 236 235
4 195 196 237 236
4 196 197 238 237
4 197 198 239 238
4 198 199 240 239
4 199 200 241 240
4 200 201 242 241
4 201 202 243 242
4 202 203 244 243
4 203 204 245 244
4 205 206 247 246
4 206 207 248 247
4 207 208 249 248
4 208 209 250 249
4 209 210 251 250
4 210 211 252 251
4 211 212 253 252
4 212 213 254 253
4 213 214 255 254
4 214 215 256 255
4 215 216 257 256
4 216 217 258 257
4 217 218 259 258
4 218 219 260 259
4 219 220 261 260
4 220 221 262 261
4 221 222 263 262
4 222 223 264 263
4 223 224 265 264
4 224 225 266 265
4 225 226 267 266
4 226 227 268 267
4 227 228 269 268
4 228 229 270 269
4 229 230 271 270
4 230 231 272 271
4 231 232 273 272
4 232 233 274 273
4 233 234 275 274
4 234 235 276 275
4 235 236 277 276
4 236 237 278 277
4 237 238 279 278
4 238 239 280 279
4 239 240 281 280
4 240 241 282 281
4 241 242 283 282
4 242 243 284 283
4 243 244 285 284
4 244 245 286 285
4 246 247 288 287
4 247 248 289 288
4 248 249 290 289
4 249 250 291 290
4 250 251 292 291
4 251 252 293 292
4 252 253 294 293
4 253 254 295 294
4 254 255 296 295
4 255 256 297 296
4 256 257 298 297
4 257 258 299 298
4 258 259 300 299
4 259 260 301 300
4 260 261 302 301
4 261 262 303 302
4 262 263 304 303
4 263 264 305 304
4 264 265 306 305
4 265 266 307 306
4 266 267 308 307
4 267 268 309 308
4 268 269 310 309
4 269 270 311 310
4 270 271 312 311
4 271 272 313 312
4 272 273 314 313
4 273 274 315 314
4 274 275 316 315
4 275 276 317 316
4 276 277 318 317
4 277 278 319 318
4 278 279 320 319
4 279 280 321 320
4 280 281 322 321
4 281 282 323 322
4 282 283 324 323
4 283 284 325 324
4 284 285 326 325
4 285 286 327 326
4 287 288 329 328
4 288 289 330 329
4 289 290 331 330
4 290 291 332 331
4 291 292 333 332
4 292 293 334 333
4 293 294 335 334
4 294 295 336 335
4 295 296 337 336
4 296 297 338 337
4 297 298 339 338
4 298 299 340 339
4 299 300 341 340
4 300 301 342 341
4 301 302 343 342
4 302 303 344 343
4 303 304 345 344
4 304 305 346 345
4 305 306 347 346
4 306 307 348 347
4 307 308 349 348
4 308 309 350 349
4 309 310 351 350
4 310 311 352 351
4 311 312 353 352
4 312 313 354 353
4 313 314 355 354
4 314 315 356 355
4 315 316 357 356
4 316 317 358 357
4 317 318 359 358
4 318 319 360 359
4 319 320 361 360
4 320 321 362 361
4 321 322 363 362
4 322 323 364 363
4 323 324 365 364
4 324 325 366 365
4 325 326 367 366
4 326 327 368 367
4 328 329 370 369
4 329 330 371 370
4 330 331 372 371
4 331 332 373 372
4 332 333 374 373
4 333 334 375 374
4 334 335 376 375
4 335 336 377 376
4 336 337 378 377
4 337 338 379 378
4 338 339 380 379
4 339 340 381 380
4 340 341 382 381
4 341 342 383 382
4 342 343 384 383
4 343 344 385 384
4 344 345 386 385
4 345 346 387 386
4 346 347 388 387
4 347 348 389 388
4 348 349 390 389
4 349 350 391 390
4 350 351 392 391
4 351 352 393 392
4 352 353 394 393
4 353 354 395 394
4 354 355 396 395
4 355 356 397 396
4 356 357 398 397
4 357 358 399 398
4 358 359 400 399
4 359 360 401 400
4 360 361 402 401
4 361 362 403 402
4 362 363 404 403
4 363 364 405 404
4 364 365 406 405
4 365 366 407 406
4 366 367 408 407
4 367 368 409 408
4 369 370 411 410
4 370 371 412 411
4 371 372 413 412
4 372 373 414 413
4 373 374 415 414
4 374 375 416 415
4 375 376 417 416
4 376 377 418 417
4 377 378 419 418
4 378 379 420 419
4 379 380 421 420
4 380 381 422 421
4 381 382 423 422
4 382 383 424 423
4 383 384 425 424
4 384 385 426 425
4 385 386 427 426
4 386 387 428 427
4 387 388 429 428
4 388 389 430 429
4 389 390 431 430
4 390 391 432 431
4 391 392 433 432
4 392 393 434 433
4 393 394 435 434
4 394 395 436 435
4 395 396 437 436
4 396 397 438 437
4 397 398 439 438
4 398 399 440 439
4 399 400 441 440
4 400 401 442 441
4 401 402 443 442
4 402 403 444 443
4 403 404 445 444
4 404 405 446 445
4 405 406 447 446
4 406 407 448 447
4 407 408 449 448
4 408 409 450 449
4 410 411 452 451
4 411 412 453 452
4 412 413 454 453
4 413 414 455 454
4 414 415 456 455
4 415 416 457 456
4 416 417 458 457
4 417 418 459 458
4 418 419 460 459
4 419 420 461 460
4 420 421 462 461
4 421 422 463 462
4 422 423 464 463
4 423 424 465 464
4 424 425 466 465
4 425 426 467 466
4 426 427 468 467
4 427 428 469 468
4 428 429 470 469
4 429 430 471 470
4 430 431 472 471
4 431 432 473 472
4 432 433 474 473
4 433 434 475 474
4 434 435 476 475
4 435 436 477 476
4 436 437 478 477
4 437 438 479 478
4 438 439 480 479
4 439 440 481 480
4 440 441 482 481
4 441 442 483 482
4 442 443 484 483
4 443 444 485 484
4 444 445 486 485
4 445 446 487 486
4 446 447 488 487
4 447 448 489 488
4 448 449 490 489
4 449 450 491 490
4 451 452 493 492
4 452 453 494 493
4 453 454 495 494
4 454 455 496 495
4 455 456 497 496
4 456 457 498 497
4 457 458 499 498
4 458 459 500 499
4 459 460 501 500
4 460 461 502 501
4 461 462 503 502
4 462 463 504 503
4 463 464 505 504
4 464 465 506 505
4 465 466 507 506
4 466 467 508 507
4 467 468 509 508
4 468 469 510 509
4 469 470 511 510
4 470 471 512 511
4 471 472 513 512
4 472 473 514 513
4 473 474 515 514
4 474 475 516 515
4 475 476 517 516
4 476 477 518 517
4 477 478 519 518
4 478 479 520 519
4 479 480 521 520
4 480 481 522 521
4 481 482 523 522
4 482 483 524 523
4 483 484 525 524
4 484 485 526 525
4 485 486 527 526
4 486 487 528 527
4 487 488 529 528
4 488 489 530 529
4 489 490 531 530
4 490 491 532 531
4 492 493 534 533
4 493 494 535 534
4 494 495 536 535
4 495 496 537 536
4 496 497 538 537
4 497 498 539 538
4 498 499 540 539
4 499 500 541 540
4 500 501 542 541
4 501 502 543 542
4 502 503 544 543
4 503 504 545 544
4 504 505 546 545
4 505 506 547 546
4 506 507 548 547
4 507 508 549 548
4 508 509 550 549
4 509 510 551 550
4 510 511 552 551
4 511 512 553 552
4 512 513 554 553
4 513 514 555 554
4 514 515 556 555
4 515 516 557 556
4 516 517 558 557
4 517 518 559 558
4 518 519 560 559
4 519 520 561 560
4 520 521 562 561
4 521 522 563 562
4 522 523 564 563
4 523 524 565 564
4 524 525 566 565
4 525 526 567 566
4 526 527 568 567
4 527 528 569 568
4 528 529 570 569
4 529 530 571 570
4 530 531 572 571
4 531 532 573 572
4 533 534 575 574
4 534 535 576 575
4 535 536 577 576
4 536 537 578 577
4 537 538 579 578
4 538 539 580 579
4 539 540 581 580
4 540 541 582 581
4 541 542 583 582
4 542 543 584 583
4 543 544 585 584
4 544 545 586 585
4 545 546 587 586
4 546 547 588 587
4 547 548 589 588
4 548 549 590 589
4 549 550 591 590
4 550 551 592 591
4 551 552 593 592
4 552 553 594 593
4 553 554 595 594
4 554 555 596 595
4 555 556 597 596
4 556 557 598 597
4 557 558 599 598
4 558 559 600 599
4 559 560 601 600
4 560 561 602 601
4 561 562 603 602
4 562 563 604 603
4 563 564 605 604
4 564 565 606 605
4 565 566 607 606
4 566 567 608 607
4 567 568 609 608
4 568 569 610 609
4 569 570 611 610
4 570 571 612 611
4 571 572 613 612
4 572 573 614 613
4 574 575 616 615
4 575 576 617 616
4 576 577 618 617
4 577 578 619 618
4 578 579 620 619
4 579 580 621 620
4 580 581 622 621
4 581 582 623 622
4 582 583 624 623
4 583 584 625 624
4 584 585 626 625
4 585 586 627 626
4 586 587 628 627
4 587 588 629 628
4 588 589 630 629
4 589 590 631 630
4 590 591 632 631
4 591 592 633 632
4 592 593 634 633
4 593 594 635 634
4 594 595 636 635
4 595 596 637 636
4 596 597 638 637
4 597 598 639 638
4 598 599 640 639
4 599 600 641 640
4 600 601 642 641
4 601 602 643 642
4 602 603 644 643
4 603 604 645 644
4 604 605 646 645
4 605 606 647 646
4 606 607 648 647
4 607 608 649 648
4 608 609 650 649
4 609 610 651 650
4 610 611 652 651
4 611 612 653 652
4 612 613 654 653
4 613 614 655 654
4 615 616 657 656
4 616 617 658 657
4 617 618 659 658
4 618 619 660 659
4 619 620 661 660
4 620 621 662 661
4 621 622 663 662
4 622 623 664 663
4 623 624 665 664
4 624 625 666 665
4 625 626 667 666
4 626 627 668 667
4 627 628 669 668
4 628 629 670 669
4 629 630 671 670
4 630 631 672 671
4 631 632 673 672
4 632 633 674 673
4 633 634 675 674
4 634 635 676 675
4 635 636 677 676
4 636 637 678 677
4 637 638 679 678
4 638 639 680 679
4 639 640 681 680
4 640 641 682 681
4 641 642 683 682
4 642 643 684 683
4 643 644 685 684
4 644 645 686 685
4 645 646 687 686
4 646 647 688 687
4 647 648 689 688
4 648 649 690 689
4 649 650 691 690
4 650 651 692 691
4 651 652 693 692
4 652 653 694 693
4 653 654 695 694
4 654 655 696 695
4 656 657 698 697
4 657 658 699 698
4 658 659 700 699
4 659 660 701 700
4 660 661 702 701
4 661 662 703 702
4 662 663 704 703
4 663 664 705 704
4 664 665 706 705
4 665 666 707 706
4 666 667 708 707
4 667 668 709 708
4 668 669 710 709
4 669 670 711 710
4 670 671 712 711
4 671 672 713 712
4 672 673 714 713
4 673 674 715 714
4 674 675 716 715
4 675 676 717 716
4 676 677 718 717
4 677 678 719 718
4 678 679 720 719
4 679 680 721 720
4 680 681 722 721
4 681 682 723 722
4 682 683 724 723
4 683 684 725 724
4 684 685 726 725
4 685 686 727 726
4 686 687 728 727
4 687 688 729 728
4 688 689 730 729
4 689 690 731 730
4 690 691 732 731
4 691 692 733 732
4 692 693 734 733
4 693 694 735 734
4 694 695 736 735
4 695 696 737 736
4 697 698 739 738
4 698 699 740 739
4 699 700 741 740
4 700 701 742 741
4 701 702 743 742
4 702 703 744 743
4 703 704 745 744
4 704 705 746 745
4 705 706 747 746
4 706 707 748 747
4 707 708 749 748
4 708 709 750 749
4 709 710 751 750
4 710 711 752 751
4 711 712 753 752
4 712 713 754 753
4 713 714 755 754
4 714 715 756 755
4 715 716 757 756
4 716 717 758 757
4 717 718 759 758
4 718 719 760 759
4 719 720 761 760
4 720 721 762 761
4 721 722 763 762
4 722 723 764 763
4 723 724 765 764
4 724 725 766 765
4 725 726 767 766
4 726 727 768 767
4 727 728 769 768
4 728 729 770 769
4 729 730 771 770
4 730 731 772 771
4 731 732 773 772
4 732 733 774 773
4 733 734 775 774
4 734 735 776 775
4 735 736 777 776
4 736 737 778 777
4 738 739 780 779
4 739 740 781 780
4 740 741 782 781
4 741 742 783 782
4 742 743 784 783
4 743 744 785 784
4 744 745 786 785
4 745 746 787 786
4 746 747 788 787
4 747 748 789 788
4 748 749 790 789
4 749 750 791 790
4 750 751 792 791
4 751 752 793 792
4 752 753 794 793
4 753 754 795 794
4 754 755 796 795
4 755 756 797 796
4 756 757 798 797
4 757 758 799 798
4 758 759 800 799
4 759 760 801 800
4 760 761 802 801
4 761 762 803 802
4 762 763 804 803
4 763 764 805 804
4 764 765 806 805
4 765 766 807 806
4 766 767 808 807
4 767 768 809 808
4 768 769 810 809
4 769 770 811 810
4 770 771 812 811
4 771 772 813 812
4 772 773 814 813
4 773 774 815 814
4 774 775 816 815
4 775 776 817 816
4 776 777 818 817
4 777 778 819 818
4 779 780 821 820
4 780 781 822 821
4 781 782 823 822
4 782 783 824 823
4 783 784 825 824
4 784 785 826 825
4 785 786 827 826
4 786 787 828 827
4 787 788 829 828
4 788 789 830 829
4 789 790 831 830
4 790 791 832 831
4 791 792 833 832
4 792 793 834 833
4 793 794 835 834
4 794 795 836 835
4 795 796 837 836
4 796 797 838 837
4 797 798 839 838
4 798 799 840 839
4 799 800 841 840
4 800 801 842 841
4 801 802 843 842
4 802 803 844 843
4 803 804 845 844
4 804 805 846 845
4 805 806 847 846
4 806 807 848 847
4 807 808 849 848
4 808 809 850 849
4 809 810 851 850
4 810 811 852 851
4 811 812 853 852
4 812 813 854 853
4 813 814 855 854
4 814 815 856 855
4 815 816 857 856
4 816 817 858 857
4 817 818 859 858
4 818 819 860 859
CELL_TYPES 800
9
9
9
9
9
9
9
9
9
9
9
9
9
9
9
9
9
9
9
9
9
9
9
9
9
9
9
9
9
9
9
9
9
9
9
9
9
9
9
9
9
9
9
9
9
9
9
9
9
9
9
9
9
9
9
9
9
9
9
9
9
9
9
9
9
9
9
9
9
9
9
9
9
9
9
9
9
9
9
9
9
9
9
9
9
9
9
9
9
9
9
9
9
9
9
9
9
9
9
9
9
9
9
9
9
9
9
9
9
9
9
9
9
9
9
9
9
9
9
9
9
9
9
9
9
9
9
9
9
9
9
9
9
9
9
9
9
9
9
9
9
9
9
9
9
9
9
9
9
9
9
9
9
9
9
9
9
9
9
9
9
9
9
9
9
9
9
9
9
9
9
9
9
9
9
9
9
9
9
9
9
9
9
9
9
9
9
9
9
9
9
9
9
9
9
9
9
9
9
9
9
9
9
9
9
9
9
9
9
9
9
9
9
9
9
9
9
9
9
9
9
9
9
9
9
9
9
9
9
9
9
9
9
9
9
9
9
9
9
9
9
9
9
9
9
9
9
9
9
9
9
9
9
9
9
9
9
9
9
9
9
9
9
9
9
9
9
9
9
9
9
9
9
9
9
9
9
9
9
9
9
9
9
9
9
9
9
9
9
9
9
9
9
9
9
9
9
9
9
9
9
9
9
9
9
9
9
9
9
9
9
9
9
9
9
9
9
9
9
9
9
9
9
9
9
9
9
9
9
9
9
9
9
9
9
9
9
9
9
9
9
9
9
9
9
9
9
9
9
9
9
9
9
9
9
9
9
9
9
9
9
9
9
9
9
9
9
9
9
9
9
9
9
9
9
9
9
9
9
9
9
9
9
9
9
9
9
9
9
9
9
9
9
9
9
9
9
9
9
9
9
9
9
9
9
9
9
9
9
9
9
9
9
9
9
9
9
9
9
9
9
9
9
9
9
9
9
9
9
9
9
9
9
9
9
9
9
9
9
9
9
9
9
9
9
9
9
9
9
9
9
9
9
9
9
9
9
9
9
9
9
9
9
9
9
9
9
9
9
9
9
9
9
9
9
9
9
9
9
9
9
9
9
9
9
9
9
9
9
9
9
9
9
9
9
9
9
9
9
9
9
9
9
9
9
9
9
9
9
9
9
9
9
9
9
9
9
9
9
9
9
9
9
9
9
9
9
9
9
9
9
9
9
9
9
9
9
9
9
9
9
9
9
9
9
9
9
9
9
9
9
9
9
9
9
9
9
9
9
9
9
9
9
9
9
9
9
9
9
9
9
9
9
9
9
9
9
9
9
9
9
9
9
9
9
9
9
9
9
9
9
9
9
9
9
9
9
9
9
9
9
9
9
9
9
9
9
9
9
9
9
9
9
9
9
9
9
9
9
9
9
9
9
9
9
9
9
9
9
9
9
9
9
9
9
9
9
9
9
9
9
9
9
9
9
9
9
9
9
9
9
9
9
9
9
9
9
9
9
9
9
9
9
9
9
9
9
9
9
9
9
9
9
9
9
9
9
9
9
9
9
9
9
9
9
9
9
9
9
9
9
9
9
9
9
9
9
9
9
9
9
9
9
9
9
9
9
9
9
9
9
9
9
9
9
9
9
9
9
9
9
9
9
9
9
9
9
9
9
9
9
9
9
9
9
9
9
9
9
9
9
9
9
9
9
9
9
9
9
9
9
9
9
9
9
9
9
9
9
9
9
9
9
9
9
9
9
9
9
9
9
9
9
9
9
9
9
9
9
9
9
9
9
9
9
9
9
9
9
9
9
9
9
9
9
9
9
9
9
9
POINT_DATA 861
SCALARS Disp float 2
LOOKUP_TABLE default
0.0 0.0
0.004189379858692259 -0.12786441878998786
0.00518644063929355 -0.24874530335807932
0.005900411224016694 -0.36896340896225194
0.006754218681625552 -0.48889256688304006
0.007934975211450665 -0.6083151253834637
0.009744081419135266 -0.7269577434323261
0.01247765693755507 -0.8445104432282766
0.01646488045069583 -0.9605908648532275
0.02205726358246916 -1.0747053174748427
0.029623851836584423 -1.1861912234351004
0.0395816660872433 -1.294168041871785
0.05242450656851718 -1.3975196332244586
0.06871428098151114 -1.4949221577513245
0.08907415021179382 -1.5848738701841043
0.11411082902334785 -1.6657186337741408
0.14427570079920668 -1.7356744606348409
0.179691508813578 -1.7928858956192277
0.21999702393451132 -1.8355506322377253
0.2642739430971837 -1.86214152156027
0.3110030611578831 -1.8716228672961253
0.3577321792185812 -1.8621415215602224
0.40200909838124715 -1.8355506322376278
0.44231461350216844 -1.7928858956190863
0.4777304215165251 -1.7356744606346635
0.5078952932923679 -1.665718633773939
0.5329319721039065 -1.5848738701838823
0.5532918413341734 -1.4949221577510885
0.5695816157471505 -1.3975196332242155
0.582424456228408 -1.2941680418715427
0.5923822704790522 -1.1861912234348655
0.5999488587331552 -1.0747053174746202
0.6055412418649188 -0.9605908648530205
0.6095284653780517 -0.8445104432280885
0.612262040896466 -0.7269577434321587
0.6140711471041468 -0.6083151253833208
0.6152519036339702 -0.48889256688292154
0.6161057110915786 -0.36896340896215973
0.6168196816763015 -0.24874530335801293
0.617816742456902 -0.127864418789949
0.6220061223155914 0.0
0.031910485991016424 -0.0018441679613581032
0.03472096805958857 -0.12798725921480575
0.03526972988219079 -0.24880923618710277
0.03591397391619791 -0.3690416112618083
0.03667805288420437 -0.4889937117866585
0.03770451189805504 -0.6084997680775528
0.039282846062679386 -0.7272981410363446
0.041697233411163916 -0.8450815538089417
0.04525500822526872 -0.9614753990656143
0.05027168795644046 -1.075986597331537
0.057072406144076236 -1.1879579809529088
0.06601715574911261 -1.2965244904389168
0.07753652730385406 -1.4005909928927418
0.09214903778952704 -1.4988522685955548
0.11042985213671772 -1.589816616573092
0.1329480984180115 -1.671810949093821
0.16013267247982985 -1.7429964704623426
0.19211397685551346 -1.8014198437224085
0.2285877347315373 -1.8451509687249275
0.2687173794931771 -1.8725227870021455
0.31100306115787735 -1.8823126984490717
0.35328874282257605 -1.872522787002097
0.3934183875842099 -1.8451509687248278
0.42989214546022336 -1.801419843722264
0.46187344983589446 -1.7429964704621617
0.48905802389769865 -1.6718109490936157
0.5115762701789783 -1.5898166165728664
0.5298570845261548 -1.498852268595315
0.5444695950118128 -1.400590992892495
0.5559889665665396 -1.296524490438671
0.5649337161715627 -1.1879579809526708
0.5717344343591874 -1.075986597331312
0.5767511140903502 -0.9614753990654054
0.5803088889044479 -0.8450815538087522
0.5827232762529273 -0.7272981410361762
0.5843016104175486 -0.6084997680774095
0.5853280694313979 -0.4889937117865399
0.5860921483994039 -0.3690416112617161
0.5867363924334109 -0.24880923618703638
0.5872851542560131 -0.1279872592147667
0.5900956363245812 -0.0018441679613559565
0.06304916031453076 -0.0032814400386580868
0.06505756124716759 -0.12804200878149216
0.06537700758835926 -0.24884851790865914
0.06590403114733023 -0.36911292451353905
0.06658458237690254 -0.4890795259061042
0.06747345632917769 -0.6086473761458147
0.06882033427138795 -0.7275798170425845
0.07091425891404271 -0.8455683597730611
0.07403536169097215 -0.9622436057082525
0.07846692816709869 -1.0771107636826505
0.08449181685193305 -1.1895156286466966
0.09241891666947541 -1.2986050625656806
0.10261828126614632 -1.4033049655777958
0.1155476754563853 -1.5023323623552833
0.13173904512621268 -1.594205104158932
0.15171634350632532 -1.6772361793571477
0.17588848581444289 -1.7495369745871014
0.2044091296240378 -1.809067164852636
0.23704026113483756 -1.8537797614922167
0.27302059771932236 -1.8818605686106267
0.31100306115787185 -1.8919372370087586
0.3489855245964198 -1.8818605686105774
0.38496586118089915 -1.853779761492115
0.41759699269169 -1.8090671648524888
0.44611763650127406 -1.7495369745869178
0.47028977880937906 -1.677236179356939
0.49026707718947904 -1.594205104158703
0.5064584468592938 -1.5023323623550404
0.5193878410495195 -1.4033049655775458
0.5295872056461776 -1.298605062565432
0.537514305463708 -1.1895156286464559
0.5435391941485325 -1.0771107636824233
0.5479707606246509 -0.9622436057080419
0.5510918634015739 -0.8455683597728704
0.5531857880442242 -0.7275798170424153
0.554532665986432 -0.6086473761456708
0.5554215399387061 -0.4890795259059856
0.5561020911682781 -0.36911292451344685
0.5566291147272491 -0.24884851790859278
0.5569485610684408 -0.12804200878145286
0.5589569620010737 -0.003281440038653741
0.09378587125094613 -0.004426201354277222
0.09527036939239893 -0.1280789712216129
0.09546593365129513 -0.2488705746327415
0.095877776903814 -0.369172070839738
0.09646806632194334 -0.4891547049612522
0.0972376283980432 -0.6087634759280366
0.09836436202443476 -0.7278035563246643
0.10013616260775617 -0.8459719847933939
0.10281693859237451 -0.9628950141986188
0.1066571310604777 -1.0780770165288303
0.11190067501371946 -1.190863529064277
0.11880717353851937 -1.3004111409536667
0.1276899410759206 -1.4056641078267
0.13894432641047233 -1.5053625529749852
0.15304016871361778 -1.5980372260475106
0.17046244925644385 -1.681989624026009
0.19160106737163532 -1.7552899554628305
0.21663450386506827 -1.815823370169438
0.24539687683587935 -1.8614337233718594
0.27724370332715537 -1.8901704092771558
0.3110030611578667 -1.9005325945681086
0.34476241898857635 -1.890170409277106
0.3766092454798475 -1.8614337233717564
0.4053716184506506 -1.8158233701692885
0.4304050549440741 -1.7552899554626442
0.45154367305925475 -1.6819896240257974
0.46896595360206955 -1.598037226047279
0.48306179590520376 -1.5053625529747394
0.4943161812397441 -1.4056641078264471
0.5031989487771341 -1.3004111409534156
0.5101054473019238 -1.1908635290640337
0.5153489912551567 -1.078077016528601
0.5191891837232527 -0.9628950141984066
0.5218699597078654 -0.8459719847932019
0.523641760291183 -0.7278035563244946
0.5247684939175726 -0.6087634759278926
0.5255380559936718 -0.4891547049611335
0.5261283454118009 -0.36917207083964587
0.5265401886643197 -0.24887057463267526
0.5267357529232161 -0.12807897122157333
0.5282202510646653 -0.0044262013542709176
0.12428887385435808 -0.005342652596652836
0.12539399811812946 -0.1281121800750065
0.1255210101757925 -0.2488827889378676
0.1258334057919846 -0.3692177729779008
0.12632802930626044 -0.48922025853924417
0.12698722863554796 -0.6088570227945322
0.1279202248323684 -0.727974206524588
0.12937091694366298 -0.8462935823323723
0.13161104016701355 -0.9634307140966927
0.13485719915806207 -1.0788856294422793
0.13931680287939954 -1.192002624967579
0.14520433854918233 -1.301944281619396
0.15277561655064273 -1.4076713879143556
0.16236239602771596 -1.5079461765213376
0.17437435392568681 -1.6013133309496805
0.1892389903491779 -1.6860690523136124
0.2073281822141254 -1.7602510646955691
0.22884862473070902 -1.821682147781417
0.25371435293924266 -1.8681100958208265
0.28142649375029793 -1.8974625108691738
0.3110030611578616 -1.9081192246116083
0.3405796285654239 -1.8974625108691228
0.3682917693764743 -1.8681100958207222
0.39315749758500124 -1.8216821477812655
0.41467794010157655 -1.7602510646953806
0.43276713196651473 -1.686069052313398
0.44763176838999597 -1.6013133309494463
0.45964372628795724 -1.5079461765210893
0.4692305057650208 -1.4076713879141005
0.4768017837664716 -1.3019442816191422
0.48268931943624566 -1.1920026249673337
0.4871489231575755 -1.0788856294420484
0.4903950821486178 -0.9634307140964792
0.4926352053719636 -0.8462935823321794
0.4940858974832551 -0.7279742065244177
0.4950188936800741 -0.608857022794388
0.4956780930093611 -0.4892202585391255
0.4961727165236367 -0.3692177729778086
0.4964851121398288 -0.24888278893780139
0.4966121241974919 -0.12811218007496672
0.49771724846126036 -0.005342652596644832
0.15463643015219375 -0.006071964928243937
0.15545396291103544 -0.12814544649315884
0.15553982776728834 -0.24889019594295836
0.15576858087019538 -0.3692509460821991
0.156165462387887 -0.48927534452265403
0.15671694272800457 -0.608933498908048
0.15747837555862812 -0.7281018478284867
0.15863382102427293 -0.8465351667407145
0.16042982047840695 -0.9638527221001277
0.1630827339938309 -1.079538420070396
0.16675940731283975 -1.192934568018156
0.17163142831450298 -1.3032074664399669
0.1779008090756937 -1.4093308105168527
0.18583503962830608 -1.5100874513144418
0.19577323017261478 -1.6040377274886664
0.20809353450306284 -1.689475912184224
0.22313411579151451 -1.7644174007032047
0.24111643241425051 -1.8266370538682182
0.2620500792148295 -1.873803925715672
0.28560411083046167 -1.9037397807020584
0.3110030611578565 -1.914708056662975
0.3364020114852501 -1.9037397807020064
0.35995604310087764 -1.8738039257155663
0.3808896899014511 -1.8266370538680647
0.39887200652418003 -1.7644174007030142
0.41391258781262386 -1.6894759121840073
0.4262328921430634 -1.60403772748843
0.43617108268736426 -1.5100874513141913
0.4441053132399686 -1.4093308105165956
0.4503746940011513 -1.303207466439711
0.45524671500280733 -1.1929345680179093
0.45892338832180996 -1.0795384200701634
0.4615763018372286 -0.9638527220999131
0.46337230129135876 -0.846535166740521
0.4645277467570012 -0.7281018478283161
0.4652891795876238 -0.6089334989079037
0.46584065992774093 -0.4892753445225353
0.4662375414454324 -0.36925094608210696
0.4664662945483394 -0.24889019594289216
0.46655215940459227 -0.12814544649311893
0.46736969216343166 -0.006071964928234505
0.1848712065246001 -0.00664621257645226
0.18546843559151238 -0.12817935168678365
0.1855257243010799 -0.24889541760545336
0.18568249636344386 -0.3692731109091084
0.18598303743069405 -0.4893188677391906
0.1864240221377836 -0.6089960454045569
0.18702773597520395 -0.728197146508753
0.18791844170782046 -0.8467077570687792
0.18929210662088908 -0.9641637255668603
0.1913507408195996 -1.080038466192031
0.19424927741698172 -1.1936627630846892
0.1981123714297667 -1.304204670784031
0.20309148354684103 -1.4106477621583735
0.20939073268134814 -1.511793032379741
0.21728054321272958 -1.606215999043886
0.22707215116539578 -1.6922151086728034
0.23907262650760983 -1.767790116461811
0.2535095715620833 -1.8306825239213853
0.2704703631805427 -1.878506567484441
0.28981365559190175 -1.908997217221248
0.31100306115785126 -1.9203017135227274
0.3321924667237996 -1.908997217221195
0.3515357591351548 -1.878506567484334
0.36849655075360943 -1.8306825239212305
0.3829334958080772 -1.7677901164616192
0.3949339711502847 -1.6922151086725852
0.404725579102944 -1.6062159990436482
0.4126153896343192 -1.5117930323794888
0.41891463876882007 -1.4106477621581146
0.4238937508858881 -1.3042046707837733
0.42775684489866733 -1.193662763084441
0.4306553814960444 -1.0800384661917977
0.4327140156947507 -0.9641637255666448
0.4340876806078165 -0.846707757068585
0.4349783863404313 -0.7281971465085822
0.43558210017785093 -0.6089960454044125
0.43602308488494024 -0.48931886773907174
0.43632362595219026 -0.3692731109090163
0.4364803980145542 -0.24889541760538714
0.43653768672412163 -0.12817935168674363
0.43713491579103225 -0.006646212576441677
0.2150225274055186 -0.007090579221476915
0.21545028040348388 -0.1282147622190233
0.21548397909831019 -0.24889909318206105
0.21557614641510867 -0.3692857385999301
0.21578337822747692 -0.48935017091321853
0.2161094545271631 -0.609045294166977
0.21656514207064903 -0.7282663759533902
0.2172151025983402 -0.8468250434355842
0.21820120161031753 -0.9643742574531374
0.2196851862451263 -1.080390631344111
0.2218095759632744 -1.1941922581287479
0.22467218724200683 -1.304941585075366
0.22837570315178024 -1.4116293352891007
0.23306258423442996 -1.5130715531146044
0.2389314338413004 -1.6078578973295192
0.24622565708710395 -1.6942940630766279
0.2552048663121861 -1.770373217176045
0.26609230653955135 -1.8338164767877392
0.27904359591589994 -1.8822067385019812
0.29409818389501047 -1.9132209592908547
0.31100306115784576 -1.9248939618515692
0.3279079384206802 -1.9132209592908014
0.34296252639978775 -1.8822067385018735
0.35591381577613235 -1.833816476787583
0.36680125600349317 -1.770373217175852
0.37578046522857034 -1.6942940630764083
0.3830746884743685 -1.60785789732928
0.3889435380812343 -1.5130715531143513
0.3936304191638797 -1.4116293352888405
0.39733393507364845 -1.3049415850751074
0.4001965463523765 -1.1941922581284987
0.4023209360705209 -1.0803906313438767
0.4038049207053267 -0.9643742574529213
0.4047910197173021 -0.8468250434353898
0.4054409802449922 -0.7282663759532192
0.4058966677884777 -0.6090452941668326
0.4062227440881637 -0.4893501709130997
0.4064299759005318 -0.36928573859983793
0.4065221432173302 -0.2488990931819948
0.40655584191215643 -0.12821476221898326
0.4069835949101206 -0.007090579221465449
0.24510653314674785 -0.007430119560319485
0.24541124529627625 -0.1282521129315714
0.245419182592022 -0.24890077274696673
0.24545208118253545 -0.3692899503093789
0.24556933920838414 -0.48936933463918475
0.24577809797922906 -0.6090797558706298
0.24608214552774638 -0.7283158372927983
0.2465145426294558 -0.8468995900033978
0.24714975874623848 -0.9645011700688711
0.2480969800264335 -1.0806076922562267
0.24946781343768765 -1.1945314671790757
0.25134282803875013 -1.3054270186741075
0.2537852716404158 -1.4122855283401936
0.25688408874933183 -1.5139349522367143
0.2607663230830331 -1.6089764617385391
0.265600808609459 -1.6957249885026584
0.27158734534865514 -1.7721754573784048
0.2789398780008809 -1.8360402442526795
0.2878487074784756 -1.8848925313983187
0.29850898659120173 -1.9163885676092483
0.31100306115784 -1.9284694855021611
0.32349713572447764 -1.9163885676091943
0.3341574148372019 -1.88489253139821
0.3430662443147937 -1.8360402442525228
0.3504187769670163 -1.7721754573782107
0.35640531370620904 -1.6957249885024377
0.3612397992326313 -1.608976461738299
0.3651220335663296 -1.5139349522364602
0.368220850675243 -1.4122855283399327
0.3706632942769057 -1.3054270186738484
0.3725383088779655 -1.1945314671788256
0.37390914228921723 -1.080607692255992
0.37485636356941054 -0.9645011700686548
0.3754915796861921 -0.8468995900032033
0.37592397678790085 -0.7283158372926274
0.376228024336418 -0.6090797558704855
0.3764367831072628 -0.4893693346390659
0.3765540411331115 -0.36928995030928674
0.3765869397236248 -0.24890077274690042
0.37659487701937044 -0.12825211293153135
0.37689958916889815 -0.007430119560307379
0.27513389566469115 -0.007691528514795315
0.27535387008494827 -0.12829169905583504
0.2753363978424211 -0.24889961056345314
0.2753136862983177 -0.36928662085151864
0.2753442866880756 -0.4893766007662563
0.27543509832837876 -0.6090985284024711
0.2755834141672699 -0.7283454803413871
0.2758000516594125 -0.8469431666962391
0.2761152456909181 -0.9645669639605093
0.2765782606538411 -1.0807135620346697
0.27723922776985216 -1.1947002446656607
0.27815560058344524 -1.3056778540636373
0.2793567688199421 -1.4126331150596518
0.28088977715445995 -1.514401851205651
0.28281925480166037 -1.6095920980100427
0.285233684894591 -1.6965279690489141
0.2882628855625561 -1.7732123846824437
0.2920913414205143 -1.837364958905573
0.29696107064921123 -1.8865590057341188
0.3031255992842565 -1.9184690826595172
0.311003061157834 -1.930999529525713
0.3188805230314113 -1.9184690826594633
0.3250450516664556 -1.8865590057340096
0.3299147808951507 -1.8373649589054153
0.33374323675310713 -1.7732123846822487
0.33677243742107066 -1.696527969048693
0.33918686751399957 -1.6095920980098017
0.3411163451611989 -1.5144018512053965
0.34264935349571585 -1.4126331150593905
0.3438505217322113 -1.3056778540633778
0.34476689454580334 -1.1947002446654102
0.3454278616618135 -1.0807135620344346
0.3458908766247359 -0.9645669639602928
0.34620607065624104 -0.8469431666960444
0.3464227081483834 -0.7283454803412164
0.3465710239872745 -0.6090985284023267
0.34666183562757763 -0.4893766007661374
0.34669243601733546 -0.3692866208514265
0.3466697244732321 -0.24889961056338675
0.3466522522307049 -0.12829169905579504
0.3468722266509616 -0.007691528514782785
0.3051198776227547 -0.007895037514809166
0.3052803509269432 -0.12833235773338242
0.3052398803984246 -0.24889539226170235
0.3051650206851085 -0.3692762902752406
0.30511204980066986 -0.4893722983529356
0.30508571182241506 -0.6091014126389506
0.30507614468509714 -0.7283544727052161
0.30507401998515243 -0.8469576452321571
0.3050739347650227 -0.9645882520485612
0.3050743157520598 -1.0807456115954248
0.3050746001567776 -1.1947465908358734
0.3050747925198601 -1.3057436923882693
0.30507357241168653 -1.4127233335652358
0.30506922538014564 -1.5145235361636438
0.30506200296188624 -1.6097540712234366
0.3050650492649564 -1.6967491473052438
0.3051410361439982 -1.7735254548058332
0.3054512593023578 -1.8378248332101192
0.3062855338431572 -1.8872386623848092
0.30799216788125877 -1.919447735551477
0.3110030611578277 -1.9324481251902037
0.31401395443439695 -1.919447735551423
0.31572058847249823 -1.8872386623846993
0.3165548630132971 -1.8378248332099614
0.31686508617165665 -1.7735254548056387
0.3169410730506991 -1.6967491473050227
0.31694411935376937 -1.6097540712231957
0.3169368969355104 -1.5145235361633893
0.31693254990397035 -1.4127233335649745
0.31693132979579747 -1.3057436923880097
0.3169315221588805 -1.194746590835623
0.3169318065635989 -1.08074561159519
0.3169321875506363 -0.9645882520483446
0.3169321023305067 -0.8469576452319623
0.3169299776305621 -0.7283544727050453
0.3169204104932443 -0.6091014126388063
0.31689407251498963 -0.4893722983528167
0.3168411016305511 -0.3692762902751484
0.316766241917235 -0.24889539226163596
0.3167257713887164 -0.12833235773334242
0.3168862446929047 -0.007895037514796399
0.33507648463846346 -0.00805557686579189
0.3351954352712598 -0.12837150358123656
0.3351338055822608 -0.24888839830257287
0.3350103304407391 -0.3692593323932398
0.3348768909646684 -0.4893568883509805
0.3347355558527775 -0.6090885183473888
0.33456927190771857 -0.7283425752216574
0.33434782652416495 -0.8469426509128656
0.33403264610964756 -0.964567100504383
0.33357038056521 -1.080713670497188
0.3329101886582609 -1.194700395572042
0.3319940657479672 -1.305677629168012
0.33079048921530935 -1.4126319958616054
0.329248987465553 -1.5143995365327345
0.32730443895238925 -1.6095898310821268
0.32489632441921096 -1.6965395844825248
0.3220118617232812 -1.773283382220605
0.31875490357001174 -1.8375900627767556
0.31540827617139794 -1.8870847079460555
0.31245661358342497 -1.9194319423977713
0.3110030611578218 -1.9329291505370412
0.3095495087322181 -1.919431942397717
0.30659784614424523 -1.8870847079459463
0.3032512187456325 -1.8375900627765978
0.2999942605923652 -1.7732833822204108
0.29710979789643843 -1.6965395844823041
0.29470168336326186 -1.6095898310818857
0.29275713485010024 -1.51439953653248
0.2912156331003464 -1.4126319958613445
0.2900120565676912 -1.3056776291677525
0.28909593365739983 -1.194700395571792
0.2884357417504528 -1.0807136704969533
0.2879734762060164 -0.9645671005041667
0.2876582957914998 -0.8469426509126707
0.28743685040794664 -0.7283425752214864
0.28727056646288807 -0.6090885183472444
0.2871292313509974 -0.48935688835086166
0.28699579187492685 -0.3692593323931477
0.28687231673340524 -0.24888839830250648
0.28681068704440627 -0.12837150358119656
0.2869296376772026 -0.008055576865778935
0.36501925103932187 -0.008179605314704522
0.36510411818482513 -0.1284074388241313
0.36502292845032425 -0.24887865766908163
0.36485395508539525 -0.36923616115449015
0.36464334826515266 -0.4893309520067411
0.3643901446350577 -0.6090601955601783
0.3640694911124991 -0.728310102772699
0.3636333103562226 -0.8468985962446087
0.36299806828057035 -0.9645014408532466
0.36205188533527816 -1.080607993868443
0.3606817316390078 -1.1945316879840886
0.3588066603802833 -1.3054265268188516
0.35636244338325557 -1.4122832022622405
0.3532565819376236 -1.5139295374706832
0.349359571069063 -1.6089712356871715
0.3445258853152581 -1.6957482221581637
0.3386609158808214 -1.772316414166929
0.3318136996842433 -1.836487848189718
0.3242766341369151 -1.885946344429062
0.31683056317410774 -1.918504356895456
0.3110030611578158 -1.932586528381411
0.30517555914152333 -1.9185043568954014
0.2977294881787168 -1.8859463444289528
0.290192422631391 -1.8364878481895608
0.28334520643481675 -1.7723164141667351
0.2774802370003849 -1.6957482221579436
0.27264655124658355 -1.6089712356869312
0.2687495403780266 -1.5139295374704294
0.265643678932399 -1.4122832022619805
0.2631994619353756 -1.3054265268185927
0.26132439067665525 -1.1945316879838395
0.2599542369803884 -1.0806079938682087
0.25900805403509863 -0.9645014408530305
0.2583728119594478 -0.8468985962444139
0.2579366312031721 -0.7283101027725281
0.257615977680614 -0.609060195560034
0.2573627740505193 -0.4893309520066222
0.257152167230277 -0.369236161154398
0.2569831938653482 -0.24887865766901524
0.2569020041308474 -0.12840743882409128
0.25698687127635056 -0.008179605314691423
0.39495782344845204 -0.0082722474635438
0.39501249353199386 -0.12843861504479143
0.3949121584365389 -0.24886611587937305
0.3947003976211034 -0.36920719911041056
0.3944160769195987 -0.4892950601695667
0.39405474395529183 -0.6090173304142076
0.3935858780208665 -0.7282578403018464
0.3929323557895884 -0.846823635808979
0.391946971826853 -0.9643747938522195
0.3904640927718154 -1.0803911796043204
0.38834000244544237 -1.1941924702791904
0.3854769947685831 -1.3049408516188663
0.381772759519431 -1.4116262025576716
0.3770826989046207 -1.5130637556329192
0.3712042340821036 -1.607849675649974
0.3639055079060361 -1.6943246642236516
0.3550011585865786 -1.770569120843327
0.34448278892112366 -1.8344504235385521
0.3327338053748248 -1.8837658640153427
0.32083692362420063 -1.9165121814854087
0.3110030611578098 -1.9314248249080495
0.3011691986914191 -1.9165121814853545
0.28927231694079625 -1.8837658640152337
0.2775233333945009 -1.8344504235383958
0.2670049637290516 -1.7705691208431344
0.2581006144096004 -1.6943246642234329
0.25080188823353816 -1.607849675649735
0.24492342341102663 -1.5130637556326667
0.24023336279622223 -1.411626202557413
0.23652912754707617 -1.3049408516186085
0.23366611987022265 -1.1941924702789422
0.2315420295438546 -1.0803911796040868
0.23005915048882056 -0.9643747938520039
0.2290737665260876 -0.8468236358087845
0.22842024429481075 -0.7282578403016755
0.2279513783603861 -0.6090173304140633
0.22759004539607972 -0.48929506016944785
0.22730572469457527 -0.36920719911031835
0.22709396387913997 -0.2488661158793067
0.22699362878368512 -0.1284386150447514
0.22704829886722694 -0.008272247463530589
0.42489881346124053 -0.008338151109407945
0.42492627249276815 -0.12846388592678742
0.42480654435188514 -0.24885057553751802
0.4245542265602963 -0.369172826066557
0.4241994649787339 -0.4892500037666821
0.4237359792167132 -0.6089609925412443
0.42312146823698027 -0.7281858600820594
0.42222931629311 -0.8467062027130101
0.42085674613692753 -0.9641646315339419
0.4187989419692224 -1.0800391996714875
0.41590013259581293 -1.1936628352485852
0.4120364235897195 -1.3042037340601096
0.4070577595791502 -1.4106444868414678
0.4007613129051293 -1.5117846896567972
0.39287322928843615 -1.6062062379840687
0.38307572775562976 -1.6922474222210422
0.3710858316278827 -1.7680148981042494
0.3568538941701827 -1.831456132176499
0.3408798757863774 -1.8805289972111574
0.3246185443795807 -1.9134893144718483
0.3110030611578041 -1.9294791445169568
0.2973875779360279 -1.9134893144717942
0.28112624652923357 -1.880528997211049
0.2651522281454328 -1.831456132176344
0.25092029068773963 -1.7680148981040582
0.23893039456000034 -1.692247422220825
0.22913289302720097 -1.606206237983831
0.22124480941051483 -1.511784689656546
0.21494836273650167 -1.410644486841211
0.20996969872594 -1.3042037340598533
0.20610598971985386 -1.1936628352483383
0.20320718034645066 -1.080039199671255
0.20114937617875037 -0.964164631533727
0.19977680602257128 -0.8467062027128158
0.19888465407870295 -0.7281858600818887
0.19827014309897104 -0.6089609925411001
0.19780665733695083 -0.4892500037665633
0.1974518957553888 -0.36917282606646484
0.19719957796380014 -0.24885057553745168
0.1970798498229173 -0.1284638859267474
0.19710730885444483 -0.008338151109394659
0.4548471263393538 -0.008381731601112816
0.4548504342630717 -0.12848257195792143
0.4547111225294316 -0.24883176231756107
0.45442010866165533 -0.369133443839006
0.45399839209703663 -0.4891964702465544
0.45343876723621934 -0.6088929793813205
0.4526706541348931 -0.7280882785639133
0.4515146990622141 -0.846533727593831
0.4497200296440948 -0.9638540107765037
0.4470672134390296 -1.0795391835975674
0.4433898443459792 -1.1929344158613369
0.4385170370071663 -1.3032063645444287
0.4322493623587328 -1.409328169523492
0.42432472152811473 -1.5100811773070493
0.4144034981908685 -1.6040295446226722
0.40208224257483516 -1.6895044284296155
0.3869964704350451 -1.764643218369449
0.36905912775566824 -1.827497628472428
0.3488856968698176 -1.876238840776185
0.3283333296717286 -1.9094603753160055
0.3110030611577985 -1.9267684141083488
0.2936727926438691 -1.9094603753159516
0.2731204254457834 -1.8762388407760775
0.25294699455993847 -1.8274976284722744
0.2350096518805696 -1.7646432183692597
0.2199238797407887 -1.6895044284294
0.2076026241247638 -1.6040295446224362
0.19768140078752638 -1.5100811773068004
0.18975675995691768 -1.409328169523237
0.1834890853084935 -1.3032063645441745
0.17861627796968926 -1.1929344158610917
0.1749389088766466 -1.0795391835973362
0.1722860926715873 -0.9638540107762897
0.17049142325347236 -0.8465337275936373
0.16933546818079614 -0.7280882785637428
0.16856735507947115 -0.6088929793811763
0.16800773021865445 -0.48919647024643564
0.16758601365403614 -0.36913344383891383
0.16729499978626017 -0.24883176231749476
0.1671556880526201 -0.12848257195788143
0.16715899597633804 -0.008381731601099467
0.4848063799646819 -0.008407339988431083
0.48478918352202094 -0.1284944303991349
0.48463086312218506 -0.24880946346424082
0.48430274420165126 -0.3690893578922726
0.4838174541818407 -0.48913551106789627
0.48316293693898493 -0.6088120170859554
0.48222917934938303 -0.7279590031306321
0.4807795969849239 -0.8462924851115483
0.47853972401314776 -0.9634321895563707
0.47529285493335494 -1.078886262375936
0.4708322185426228 -1.1920021964736862
0.4649440651136406 -1.301943112424393
0.45737604186272635 -1.407670163411074
0.4478047697544117 -1.5079445949197607
0.43582364814842545 -1.6013107048504458
0.4209729390426864 -1.6860919988410912
0.4028171623150625 -1.7604566390941163
0.3812280786886552 -1.8225812438925284
0.3569221475429717 -1.8709048432778699
0.33210255907905906 -1.9044283432717497
0.31100306115779297 -1.9232823452926189
0.28990356323652805 -1.9044283432716962
0.26508397477261947 -1.8709048432777635
0.24077804362694297 -1.8225812438923765
0.2191889600005447 -1.7604566390939296
0.2010331832729313 -1.686091998840878
0.18618247416720243 -1.601310704850212
0.1742013525612265 -1.5079445949195138
0.16463008045292274 -1.4076701634108213
0.1570620572020195 -1.301943112424141
0.15117390377304749 -1.192002196473443
0.14671326738232424 -1.0788862623757067
0.1434663983025384 -0.963432189556158
0.14122652533076752 -0.8462924851113555
0.13977694296631196 -0.7279590031304619
0.13884318537671186 -0.6088120170858113
0.13818866813385677 -0.48913551106777753
0.13770337811404668 -0.3690893578921805
0.13737525919351315 -0.24880946346417449
0.1372169387936774 -0.12849443039909492
0.13719974235101645 -0.008407339988417705
0.5147789135265313 -0.008419385719850783
0.5147459565846673 -0.1284996289386452
0.514570648760147 -0.24878365582655187
0.5142072102526801 -0.36904076467169383
0.5136603098005307 -0.4890681947591569
0.5129086623962225 -0.60871588819529
0.5117880831910877 -0.7277880576945789
0.5100168136753909 -0.8459710105088548
0.5073345609543379 -0.962896350534138
0.5034928583645609 -1.0780773914211523
0.4982481222950585 -1.1908628277002202
0.4913415813649342 -1.3004101291940586
0.4824640749487625 -1.40566504368459
0.4712291236972207 -1.5053674667569334
0.4571722058246571 -1.5980437672902694
0.439785540497292 -1.6820114088605378
0.4186156019291198 -1.7554701591226827
0.39350002711957577 -1.8167298474643754
0.3651629859442852 -1.8645369470619175
0.3360417232559421 -1.8983731517597389
0.3110030611577875 -1.9189829134674825
0.2859643990596343 -1.8983731517596862
0.2568431363712962 -1.8645369470618123
0.22850609519601375 -1.8167298474642255
0.20339052038648014 -1.7554701591224982
0.18222058181831968 -1.682011408860327
0.16483391649096626 -1.5980437672900383
0.1507769986184147 -1.5053674667566892
0.13954204736688536 -1.40566504368434
0.13066454095072616 -1.3004101291938093
0.12375800002061359 -1.19086282769998
0.11851326395112115 -1.0780773914209247
0.11467156136135219 -0.9628963505339267
0.11198930864030551 -0.8459710105086631
0.11021803912461296 -0.7277880576944094
0.10909745991948057 -0.608715888195146
0.10834581251517321 -0.48906819475903823
0.10779891206302422 -0.36904076467160174
0.1074354735555577 -0.24878365582648554
0.10726016573103753 -0.1284996289386052
0.10722720878917362 -0.008419385719837389
0.5447655131266417 -0.00842239418847829
0.5447233444130066 -0.12849880450861287
0.5445356134432003 -0.24875458114656068
0.5441386511071935 -0.36898789585690384
0.5435305558785934 -0.48899454294929046
0.5426729243920417 -0.6086004398080178
0.5413367320094475 -0.7275648096343363
0.5392412131193967 -0.8455669028009166
0.5361165953319952 -0.9622444696252255
0.5316829219862065 -1.077110790464752
0.5256568181043215 -1.1895147188434114
0.5177306639729699 -1.2986045720250416
0.5075388491970851 -1.403308726221782
0.4946308155870491 -1.5023444876304526
0.4784801785140863 -1.594222945917229
0.45855897682096186 -1.6772660991882116
0.4344425986706294 -1.7497113815894718
0.40599158586088996 -1.8099851238705031
0.3737913957358072 -1.8571482049969203
0.3403036395568411 -1.8912509794452952
0.3110030611577819 -1.9137966382649072
0.2817024827587242 -1.8912509794452432
0.24821472657976423 -1.8571482049968169
0.21601453645469082 -1.8099851238703555
0.18756352364496345 -1.7497113815892904
0.16344714549464395 -1.6772660991880037
0.14352594380153275 -1.594222945917001
0.12737530672858352 -1.5023444876302112
0.11446727311856159 -1.4033087262215354
0.10427545834269109 -1.2986045720247954
0.09634930421135238 -1.1895147188431736
0.09032320032947846 -1.0771107904645267
0.08588952698369898 -0.962244469625016
0.08276490919630454 -0.8455669028007261
0.08066939030625868 -0.7275648096341675
0.07933319792366747 -0.6086004398078741
0.0784755664371169 -0.48899454294917194
0.0778674712085173 -0.3689878958568118
0.07747050887251085 -0.2487545811464944
0.07728277790270477 -0.12849880450857284
0.07724060918906975 -0.008422394188464903
0.5747647412453183 -0.008420985627143818
0.5747230271449942 -0.12849325031811584
0.5745315834525773 -0.24872291320742493
0.5741027930131051 -0.368930777120073
0.5734294102818285 -0.4889134450739632
0.5724463159852746 -0.6084566530000528
0.5708795992018934 -0.7272835742013763
0.5684601807156543 -0.84507884728221
0.564897340117539 -0.9614755212239359
0.5598780080228462 -1.0759862086045413
0.5530761892605449 -1.1879569830791081
0.5441336383134328 -1.2965249779874872
0.5326240693450062 -1.4005981235518061
0.5180334996081074 -1.4988715236454504
0.4997919123118007 -1.5898464322691124
0.4773469747305373 -1.6718598641868347
0.4503241273765038 -1.7432047142809397
0.41871610180927243 -1.8024159863334805
0.3830543106310306 -1.8487799062998624
0.3451510769282579 -1.8829869360326803
0.3110030611577761 -1.9075889129326429
0.27685504538729605 -1.8829869360326292
0.2389518116845305 -1.848779906299761
0.2032900205062995 -1.8024159863333356
0.17168199493908173 -1.7432047142807616
0.1446591475850628 -1.6718598641866302
0.12221421000381417 -1.5898464322688877
0.1039726227075226 -1.4988715236452128
0.08938205297063961 -1.400598123551563
0.07787248400222883 -1.2965249779872445
0.0689299330551309 -1.1879569830788732
0.062128114292841895 -1.0759862086043184
0.057108782198159194 -0.9614755212237283
0.05354594160005165 -0.845078847282021
0.05112652311381841 -0.7272835742012085
0.0495598063304406 -0.6084566529999095
0.04857671203388839 -0.48891344507384477
0.047903329302612305 -0.36893077711998107
0.04747453886314055 -0.24872291320735868
0.04728309517072377 -0.12849325031807585
0.047241381070399734 -0.008420985627130433
0.6047715873856302 -0.008419714110520464
0.6047457806372397 -0.12848540701319364
0.604566020260877 -0.2486898587953797
0.6041059826999857 -0.36886914085511063
0.6033552757311927 -0.4888209125762463
0.6022244021122296 -0.608278833755726
0.6004226626842388 -0.7269422793247369
0.597681404206914 -0.8445061100083909
0.5936879388108415 -0.9605899904180552
0.5880922917504793 -1.0747044582431486
0.5805248897640013 -1.1861903025003082
0.570570530448899 -1.2941699668036049
0.557739392847058 -1.397530561432005
0.5414718907754337 -1.494948189202784
0.5211505057256515 -1.5849160037848213
0.49620576947995815 -1.6657973512061734
0.46630842024688185 -1.7359629560850722
0.43160397097379427 -1.794076270995908
0.3928938040221939 -1.8395902913194697
0.35150083569357365 -1.8735164011168943
0.31100306115777004 -1.9000000000000006
0.27050528662196827 -1.8735164011168441
0.22911231829335604 -1.8395902913193705
0.1904021513417686 -1.7940762709957658
0.1556977020686963 -1.7359629560848977
0.1258003528356361 -1.6657973512059727
0.10085561658995924 -1.5849160037846002
0.08053423154019401 -1.4949481892025502
0.06426672946858715 -1.3975305614317657
0.05143559186676324 -1.2941699668033657
0.04148123255167667 -1.1861903025000764
0.03391383056521202 -1.0747044582429286
0.028318183504860754 -0.9605899904178496
0.024324718108796925 -0.8445061100082036
0.021583459631478515 -0.7269422793245701
0.01978172020349163 -0.6082788337555833
0.01865084658453055 -0.488820912576128
0.017900139615738244 -0.36886914085501865
0.01744010205484734 -0.24868985879531347
0.017260341678484833 -0.12848540701315367
0.017234534930094372 -0.00841971411050709
SCALARS Stress float 6
LOOKUP_TABLE default
-965.5237643052744 -1743.3342675180982 -1275.256951601807 -5.686584635245641 0.0 0.0
1154.0737765930187 667.0927609425662 806.1567379334474 -24.90128083491937 0.0 0.0
500.9476320032785 75.5082652103907 173.27456099689925 -34.23885493524236 0.0 0.0
437.7633027671813 15.250513019673795 135.83596288874472 -3.989239423431248 0.0 0.0
538.1452928433675 42.50549348075576 185.22718772976842 -0.6987604360977566 0.0 0.0
613.5486085189671 71.59859609565098 260.3035358829154 0.0020143778913284116 0.0 0.0
703.1731529186887 91.55202859506333 342.4628772091293 -0.5069686674228677 0.0 0.0
789.6642349621662 128.0451793376331 427.237077100545 -1.0991507986422984 0.0 0.0
880.1616771838069 175.26716475775044 509.15424919530074 -1.8549665924340513 0.0 0.0
982.326946853578 238.32153999391085 597.3093458603547 -2.7792353353496386 0.0 0.0
1100.2702736217268 319.80942797852344 698.884274842964 -3.7912790506875664 0.0 0.0
1233.3028712822338 419.38280051152805 815.4807000047233 -4.808455551605894 0.0 0.0
1377.618743764561 530.6297347413779 942.8374889956162 -5.451277224345994 0.0 0.0
1528.9237451692027 649.318761362997 1077.2305493652023 -6.001388243708666 0.0 0.0
1679.6778225596681 768.1079505905273 1211.3248080594653 -6.4437644849377795 0.0 0.0
1821.9997116819663 879.7484545303603 1337.6443525179704 -6.764649998656715 0.0 0.0
1949.1072972549375 978.6569280701013 1450.111506060848 -6.782032410634596 0.0 0.0
2054.1602999037063 1059.2925337470026 1542.63361000971 -6.264107089390666 0.0 0.0
2132.6630718787505 1118.3840662987764 1611.2918530667205 -5.133687719778096 0.0 0.0
2175.867091150319 1148.56339084095 1648.0155732385172 -4.422629923530966 0.0 0.0
2173.9176041913975 1143.4918237177276 1644.8323832317271 -3.132782921966282e-11 0.0 0.0
2175.8670911502395 1148.5633908408931 1648.015573238364 4.422629923575526 0.0 0.0
2132.6630718779434 1118.3840662980049 1611.2918530660288 5.133687719786849 0.0 0.0
2054.1602999038487 1059.2925337472034 1542.6336100097737 6.264107089398829 0.0 0.0
1949.1072972540358 978.6569280692763 1450.1115060600212 6.782032410636845 0.0 0.0
1821.9997116818022 879.7484545302889 1337.6443525177522 6.76464999868737 0.0 0.0
1679.6778225591413 768.1079505901121 1211.3248080588771 6.443764484951949 0.0 0.0
1528.923745168522 649.318761362453 1077.2305493646322 6.0013882436760895 0.0 0.0
1377.618743763662 530.6297347406263 942.8374889948811 5.451277224432131 0.0 0.0
1233.3028712816424 419.3828005111262 815.4807000041583 4.808455551643078 0.0 0.0
1100.2702736207148 319.8094279776987 698.8842748421034 3.7912790507618173 0.0 0.0
982.326946853475 238.32153999403346 597.3093458601385 2.779235335408913 0.0 0.0
880.1616771833965 175.26716475755887 509.15424919489806 1.8549665923491574 0.0 0.0
789.6642349617847 128.04517933748824 427.23707710016623 1.0991507987008688 0.0 0.0
703.1731529180961 91.55202859470249 342.4628772085922 0.5069686674084863 0.0 0.0
613.548608518669 71.59859609568164 260.30353588261244 -0.0020143779358114955 0.0 0.0
538.1452928430496 42.505493480674986 185.22718772956657 0.698760436291364 0.0 0.0
437.7633027669194 15.25051301958578 135.8359628886504 3.9892394233916537 0.0 0.0
500.9476320029658 75.50826521022381 173.27456099675356 34.23885493527471 0.0 0.0
1154.0737765926372 667.0927609421767 806.1567379329185 24.90128083496596 0.0 0.0
-965.5237643029127 -1743.3342675157198 -1275.25695159941 5.686584634750627 0.0 0.0
-1230.2805159861648 -1975.8553266111246 -1484.3616683327396 -3.7582889972158675 0.0 0.0
778.4425355848996 376.56642687782744 500.54349076052154 -38.820481430569586 0.0 0.0
345.06352146520175 30.4900648409439 112.03869762521094 -27.131756310409912 0.0 0.0
387.4963334451542 2.0061678346236236 116.91049676082329 -16.479277553104556 0.0 0.0
479.96822727059526 17.175041018045228 154.54541271150535 -14.97266173821637 0.0 0.0
562.6656831077772 22.759566966141154 211.9435805952548 -18.00060033390685 0.0 0.0
628.7608078953267 31.55297537540468 279.95313677666945 -20.25074174248812 0.0 0.0
695.9211906099046 46.46832746204976 345.42047158520455 -21.126615963191057 0.0 0.0
759.6538033628774 66.13724439007972 401.39090548220435 -21.26903700183172 0.0 0.0
825.3216728795129 92.90770913339618 454.0287977215826 -21.217544819344695 0.0 0.0
894.9289459732707 126.7598179785072 508.21557747847265 -20.946600390972357 0.0 0.0
967.7254539993598 165.1535105591687 564.6450255632783 -20.58925419056194 0.0 0.0
1040.6904214956526 206.4647945637332 621.9401758563465 -20.01253559528847 0.0 0.0
1111.4807873254617 244.8812474010068 676.4544759175826 -19.39618877491308 0.0 0.0
1173.5130170083376 275.2827900022639 722.5321487231195 -18.888000527777393 0.0 0.0
1221.7522384246586 293.1863910609345 755.4601274420254 -18.296195983770957 0.0 0.0
1253.1196718702604 296.54054412310717 772.7289267944609 -17.30059540222678 0.0 0.0
1268.2764413171267 287.276323453458 775.6880590258636 -15.555965617304313 0.0 0.0
1268.9794278741037 268.5004132459543 766.8236711917424 -12.9806400554567 0.0 0.0
1244.5548425528382 230.9778004530308 736.4287475647149 -10.299145136015149 0.0 0.0
1198.8182521692324 182.2168783000449 690.1426688210454 -2.934985587899064e-11 0.0 0.0
1244.5548425527807 230.97780045299447 736.4287475646224 10.299145136066873 0.0 0.0
1268.979427874119 268.5004132460125 766.8236711917418 12.980640055499787 0.0 0.0
1268.2764413171615 287.27632345354914 775.6880590259143 15.555965617376053 0.0 0.0
1253.1196718696858 296.54054412259813 772.7289267939966 17.300595402255155 0.0 0.0
1221.7522384244471 293.1863910608132 755.4601274418717 18.29619598379055 0.0 0.0
1173.5130170082546 275.28279000228656 722.5321487229427 18.888000527790847 0.0 0.0
1111.4807873246398 244.88124740030923 676.4544759169551 19.39618877490645 0.0 0.0
1040.690421495244 206.46479456347265 621.9401758560412 20.01253559529786 0.0 0.0
967.7254539988047 165.15351055878642 564.6450255628826 20.589254190576554 0.0 0.0
894.9289459727567 126.75981797819006 508.21557747803877 20.94660039100758 0.0 0.0
825.3216728794549 92.9077091335435 454.02879772148555 21.21754481935405 0.0 0.0
759.6538033623605 66.1372443897591 401.3909054817916 21.26903700175196 0.0 0.0
695.921190609592 46.46832746198433 345.4204715848977 21.126615963175233 0.0 0.0
628.7608078947706 31.55297537506448 279.9531367761912 20.250741742467056 0.0 0.0
562.6656831077918 22.759566966533725 211.9435805951769 18.00060033380335 0.0 0.0
479.968227270222 17.175041018016344 154.54541271134423 14.972661738299346 0.0 0.0
387.49633344493037 2.0061678346060674 116.91049676076128 16.479277553062563 0.0 0.0
345.0635214650804 30.490064840876464 112.03869762515836 27.131756310385775 0.0 0.0
778.4425355843936 376.56642687740907 500.54349075996345 38.82048143057639 0.0 0.0
-1230.2805159843415 -1975.855326609194 -1484.3616683307712 3.7582889967590667 0.0 0.0
-1002.3836056569712 -1713.7254462654803 -1228.4732645793376 -43.6434184104811 0.0 0.0
580.3930308744964 282.5553162658343 362.6761819845977 -102.28817338350538 0.0 0.0
249.482323580971 39.515860395472714 86.69938952845622 -27.50971593122865 0.0 0.0
331.07796358060955 -1.4077469848723312 98.91508141938753 -36.10429063693556 0.0 0.0
432.2244298739064 11.676647770141658 134.50672452632165 -36.76120493910344 0.0 0.0
531.3286084618641 19.392590914987093 187.3541084667974 -35.80043992549977 0.0 0.0
600.5724592395516 30.232835804526513 256.1580996977948 -38.451094499696374 0.0 0.0
670.0480609926187 40.84920612068086 322.417408996281 -40.030920078613406 0.0 0.0
733.0130706870425 58.37945226371387 379.9879276979494 -40.543822829562956 0.0 0.0
796.0859690950259 81.64547497695631 431.50503829525735 -40.56542974409577 0.0 0.0
861.7472732387647 111.59078378888613 482.7844785372282 -40.13502582855395 0.0 0.0
929.8478750694821 146.80295999290365 535.7631369459939 -39.188540326100615 0.0 0.0
999.6558414524791 183.58336391140725 589.4477015586574 -38.051224734684915 0.0 0.0
1065.750787912341 218.86065102743413 640.1550250263986 -36.88028662101592 0.0 0.0
1124.4824132261049 246.29218477645296 683.11924716353 -35.843916266311226 0.0 0.0
1170.4819821382719 262.26578115841846 713.9653363775201 -34.65474592724777 0.0 0.0
1201.9546230517126 265.8847059247429 731.4394933744156 -32.734622586634266 0.0 0.0
1218.0825243928196 257.55169289645204 735.4092403838907 -29.601927861292417 0.0 0.0
1215.9071556545955 235.68195277438716 723.6918337937707 -25.15293025745759 0.0 0.0
1199.8503730334521 206.42861252545526 701.415341311548 -19.252436430663522 0.0 0.0
1141.0483987647237 144.7916190786438 642.4989827494896 1.2822631845210708e-11 0.0 0.0
1199.8503730333937 206.42861252542772 701.4153413114893 19.252436430749174 0.0 0.0
1215.907155654404 235.68195277422922 723.6918337936261 25.152930257547506 0.0 0.0
1218.0825243927907 257.5516928964695 735.4092403838966 29.601927861327777 0.0 0.0
1201.9546230512103 265.8847059243069 731.4394933739845 32.73462258663031 0.0 0.0
1170.481982138074 262.26578115833746 713.9653363773192 34.65474592732169 0.0 0.0
1124.4824132256917 246.29218477612946 683.1192471631692 35.843916266338695 0.0 0.0
1065.7507879117034 218.8606510269248 640.1550250258659 36.8802866210163 0.0 0.0
999.6558414520604 183.58336391110976 589.4477015583128 38.051224734619446 0.0 0.0
929.847875068644 146.80295999222014 535.7631369454498 39.18854032604918 0.0 0.0
861.7472732386174 111.5907837889375 482.78447853704336 40.1350258285405 0.0 0.0
796.0859690947283 81.64547497683958 431.50503829500803 40.5654297440275 0.0 0.0
733.0130706866827 58.379452263582124 379.9879276976229 40.54382282955082 0.0 0.0
670.04806099219 40.84920612051221 322.4174089958874 40.03092007856239 0.0 0.0
600.5724592388672 30.23283580402597 256.158099697233 38.45109449962714 0.0 0.0
531.3286084617432 19.392590915188237 187.35410846666318 35.80043992538483 0.0 0.0
432.224429873558 11.676647770101164 134.5067245261931 36.76120493910604 0.0 0.0
331.07796358048944 -1.4077469849473614 98.91508141933127 36.10429063690144 0.0 0.0
249.48232358087483 39.51586039525382 86.69938952836173 27.50971593110831 0.0 0.0
580.3930308740219 282.55531626566477 362.6761819841599 102.28817338344857 0.0 0.0
-1002.3836056552419 -1713.7254462636652 -1228.473264577444 43.643418410189 0.0 0.0
-805.6630249741827 -1485.5489186129653 -1006.1967745837353 -58.05091631942861 0.0 0.0
431.92386301330424 188.7963734048179 253.8905300142327 -142.52596136701254 0.0 0.0
184.64424179828578 41.4727748273593 67.8351049876935 -49.720121960789136 0.0 0.0
276.7507264656323 3.408197702751899 84.05283408210022 -54.47893255135857 0.0 0.0
379.37920520391737 4.384255786193694 114.31214005346254 -60.243792632967924 0.0 0.0
484.5181176392988 15.359225901231072 161.19084872256553 -55.76983302265829 0.0 0.0
571.9601432656558 25.689595392091547 227.96043740438205 -58.21984789080636 0.0 0.0
638.9472161260053 35.570562610419664 295.2861779480963 -59.306749691993375 0.0 0.0
702.3096418746536 50.61439937834306 354.91027059758943 -59.674164255315674 0.0 0.0
763.1297124330139 70.74676352865256 406.2943883070289 -59.509869462881 0.0 0.0
824.601903796554 96.72763286528559 454.9562099083339 -58.66871627154922 0.0 0.0
888.6563756464258 127.28467740669282 504.3026015344342 -57.225462018977666 0.0 0.0
953.7902918721396 161.25154775554174 554.6228639429402 -55.44175299433303 0.0 0.0
1016.4325252894132 191.62114835881644 601.3031847769689 -53.901349227455356 0.0 0.0
1071.2898869908965 216.07624156043295 640.8936733093083 -52.4214948936598 0.0 0.0
1115.9798748577634 231.54946494775066 670.849930293479 -50.65473019478773 0.0 0.0
1148.0078217716305 235.50608073177216 688.7949567180777 -48.02934511338086 0.0 0.0
1164.5501556164882 227.27832258494294 693.095114998351 -43.86683443393452 0.0 0.0
1164.5166749741763 207.0902077587353 683.3069595468812 -37.58837333187474 0.0 0.0
1152.7369357875853 181.41388497553152 664.8587341117623 -27.656476102007396 0.0 0.0
1068.6053539137283 94.32874932979725 581.2941780201139 4.037570278114799e-11 0.0 0.0
1152.7369357877283 181.41388497571623 664.8587341118473 27.656476102128458 0.0 0.0
1164.5166749733733 207.09020775795466 683.3069595462534 37.58837333193293 0.0 0.0
1164.5501556167178 227.27832258524592 693.0951149985423 43.86683443401331 0.0 0.0
1148.0078217713096 235.50608073150727 688.7949567177749 48.02934511337383 0.0 0.0
1115.9798748581056 231.54946494819717 670.8499302936606 50.65473019485812 0.0 0.0
1071.289886990526 216.0762415601796 640.8936733089981 52.421494893638396 0.0 0.0
1016.4325252891553 191.62114835868869 601.3031847767686 53.90134922747768 0.0 0.0
953.7902918716669 161.2515477552005 554.6228639425744 55.44175299436421 0.0 0.0
888.6563756460654 127.28467740652931 504.30260153416464 57.22546201899318 0.0 0.0
824.6019037964296 96.72763286534595 454.95620990820305 58.66871627159203 0.0 0.0
763.1297124327252 70.74676352855725 406.294388306757 59.50986946280437 0.0 0.0
702.309641874416 50.61439937833937 354.910270597346 59.674164255303516 0.0 0.0
638.9472161253768 35.570562610016154 295.28617794757184 59.30674969195454 0.0 0.0
571.9601432652328 25.68959539194539 227.96043740399494 58.219847890729184 0.0 0.0
484.5181176388759 15.359225901145637 161.19084872232781 55.76983302262056 0.0 0.0
379.37920520354913 4.384255786085718 114.31214005333572 60.243792632956996 0.0 0.0
276.750726465626 3.4081977028111576 84.05283408211501 54.47893255125143 0.0 0.0
184.64424179826474 41.47277482718273 67.83510498763422 49.7201219606064 0.0 0.0
431.92386301286734 188.79637340468537 253.89053001386193 142.52596136696584 0.0 0.0
-805.6630249727336 -1485.5489186113996 -1006.1967745820746 58.05091631923871 0.0 0.0
-636.2766888313387 -1284.809681508118 -811.91723486311 -60.05416161082243 0.0 0.0
323.8173555541991 108.27085600111185 171.8088104764503 -170.63814264700812 0.0 0.0
136.55759588382324 36.962804591018305 52.05612014245245 -77.88619605013375 0.0 0.0
226.08507110741485 10.221155841310111 70.89262344080934 -74.44559498687416 0.0 0.0
318.5601728038251 4.133791854058231 96.84640906477063 -81.56556946974547 0.0 0.0
432.65522401314246 4.101020268910884 133.3085095068062 -82.31485022290829 0.0 0.0
529.9670231176899 19.24507409374024 194.86433580441766 -78.24412665931261 0.0 0.0
602.0587629708275 32.1764468948047 264.5695059862746 -78.59214635094496 0.0 0.0
666.2208683490855 43.21032951647918 325.2254323613573 -78.69890126976092 0.0 0.0
725.27752974396 60.08861162825822 377.2266999555494 -78.02178959378585 0.0 0.0
783.4948171851256 81.7671927644779 424.10272480298096 -76.6625956021423 0.0 0.0
843.003246196061 107.85280142205713 470.08878115879116 -74.60581158378365 0.0 0.0
903.9669778857889 136.72222755411968 516.3399932611201 -72.41371839206666 0.0 0.0
962.0841584438369 164.9094104622118 559.9714418546082 -70.40508928728565 0.0 0.0
1014.040375641582 186.02672322729322 596.5507491552438 -68.55333986572305 0.0 0.0
1056.8829330950157 199.12732176960552 624.4120298724611 -66.41346522685899 0.0 0.0
1089.591987376921 204.41498204298034 643.4014181010972 -63.23840820993555 0.0 0.0
1108.6701809091633 198.38182096250614 650.0954543765878 -58.295858842548355 0.0 0.0
1111.9179758973557 180.5881198095513 643.1561820042676 -50.2076601428927 0.0 0.0
1101.6287104317587 154.93501324002713 625.4503507090863 -36.41885182840504 0.0 0.0
985.5322887274947 35.64797279887237 510.8737607603981 7.764988652070315e-11 0.0 0.0
1101.6287104318708 154.9350132401786 625.450350709224 36.41885182853977 0.0 0.0
1111.917975896952 180.58811980919734 643.1561820039813 50.20766014295741 0.0 0.0
1108.670180909031 198.3818209624621 650.0954543764663 58.29585884274968 0.0 0.0
1089.5919873767816 204.4149820429389 643.4014181009303 63.2384082100169 0.0 0.0
1056.882933095144 199.12732176983457 624.4120298725501 66.41346522697825 0.0 0.0
1014.0403756415652 186.02672322737885 596.5507491551512 68.5533398657099 0.0 0.0
962.084158443601 164.90941046211609 559.9714418544137 70.40508928730625 0.0 0.0
903.9669778856749 136.72222755417917 516.3399932610544 72.4137183921524 0.0 0.0
843.0032461960644 107.85280142225874 470.0887811587599 74.60581158384467 0.0 0.0
783.494817184757 81.76719276428184 424.1027248026913 76.66259560212696 0.0 0.0
725.2775297435937 60.08861162810011 377.226699955232 78.02178959379052 0.0 0.0
666.2208683488225 43.21032951643714 325.22543236107435 78.69890126966718 0.0 0.0
602.0587629701761 32.17644689439173 264.5695059857404 78.59214635089955 0.0 0.0
529.967023117411 19.24507409379352 194.8643358041684 78.2441266592799 0.0 0.0
432.65522401283556 4.101020269119994 133.3085095067364 82.31485022284689 0.0 0.0
318.5601728035467 4.133791853943994 96.84640906465414 81.565569469693 0.0 0.0
226.08507110738927 10.221155841399401 70.89262344082799 74.44559498675244 0.0 0.0
136.55759588384086 36.96280459098866 52.05612014244887 77.88619604994324 0.0 0.0
323.8173555537444 108.2708560008877 171.80881047609597 170.63814264686386 0.0 0.0
-636.2766888301096 -1284.809681506692 -811.917234861646 60.054161610715596 0.0 0.0
-488.50445268840963 -1106.6257949766161 -641.8537532814657 -62.36281537246541 0.0 0.0
238.92927177777352 47.128581370819155 110.63662684267132 -184.42332864247146 0.0 0.0
98.5952741870414 28.37746082107601 38.09182050243523 -104.48491229718486 0.0 0.0
178.6245040880253 15.742301347626324 58.310004419564734 -95.07569585746418 0.0 0.0
262.39530659096505 3.939441959186578 79.8684127144561 -102.23597190078472 0.0 0.0
362.7946000656337 1.1624108783576124 109.05719570722108 -105.41272676595194 0.0 0.0
467.5519722511 13.247801544662162 159.899200959517 -100.63691407417434 0.0 0.0
559.0153057949499 24.017812269746933 226.18311578003002 -99.63226730182703 0.0 0.0
620.9158759643428 37.311911380140806 289.8141432098193 -96.91745959465364 0.0 0.0
681.6495948381906 49.424215279204226 342.8260870240623 -96.22637613322453 0.0 0.0
736.8403799716708 66.86628112426614 388.8819965484991 -94.13572026227546 0.0 0.0
792.0099231758297 88.31731492840525 432.07595209157915 -91.39655910465504 0.0 0.0
848.359847669536 113.04614884433377 474.91546456794043 -88.70366999453438 0.0 0.0
902.3988963927662 136.2127338794131 514.5119092947865 -86.43377765295328 0.0 0.0
951.0947410729124 155.18544552632684 548.6088746099052 -84.30974113302953 0.0 0.0
992.2943870781573 167.6730186033674 575.4452081537221 -81.72197974027404 0.0 0.0
1025.4507188580105 172.0196261846666 594.2114338446542 -78.28306903982117 0.0 0.0
1048.0129810406154 169.25546115430163 604.2683474570068 -72.81930899938955 0.0 0.0
1056.1423331108663 155.60258308970884 601.8749348940504 -63.21693883745235 0.0 0.0
1046.6043066240727 128.4120453327096 583.8314822499658 -46.04551438908555 0.0 0.0
891.2917006711749 -30.303773681446536 431.4777044541065 8.274092522242427e-11 0.0 0.0
1046.604306623885 128.4120453325488 583.8314822498912 46.04551438921147 0.0 0.0
1056.1423331112671 155.60258309020918 601.8749348943592 63.216938837605525 0.0 0.0
1048.012981040087 169.25546115382636 604.2683474566045 72.81930899950547 0.0 0.0
1025.4507188575976 172.01962618433365 594.2114338442798 78.28306903988732 0.0 0.0
992.2943870776207 167.67301860285497 575.4452081533531 81.72197974024854 0.0 0.0
951.0947410724908 155.18544552602714 548.6088746095381 84.30974113301946 0.0 0.0
902.3988963927245 136.21273387951365 514.5119092947077 86.43377765303025 0.0 0.0
848.3598476696831 113.04614884467111 474.91546456805185 88.70366999460504 0.0 0.0
792.009923175957 88.31731492874623 432.0759520916289 91.39655910473527 0.0 0.0
736.8403799713382 66.86628112412805 388.88199654819095 94.1357202622588 0.0 0.0
681.649594837541 49.42421527871357 342.82608702357226 96.22637613318992 0.0 0.0
620.9158759643294 37.31191138042673 289.8141432096944 96.91745959464811 0.0 0.0
559.0153057944323 24.01781226953182 226.1831157796014 99.63226730180774 0.0 0.0
467.5519722506054 13.24780154445113 159.89920095918407 100.63691407413116 0.0 0.0
362.7946000653066 1.162410878565471 109.05719570718912 105.41272676575801 0.0 0.0
262.39530659089 3.9394419593779784 79.86841271449038 102.23597190065323 0.0 0.0
178.62450408786987 15.742301347388754 58.31000441944692 95.07569585731419 0.0 0.0
98.59527418702454 28.377460821082305 38.09182050243206 104.48491229701006 0.0 0.0
238.92927177735444 47.12858137061167 110.6366268423782 184.4233286422959 0.0 0.0
-488.5044526873655 -1106.6257949753042 -641.8537532801992 62.362815372459096 0.0 0.0
-363.4352555119246 -941.7315122217053 -494.8326317084589 -65.762751268589 0.0 0.0
172.72661185431767 -1.859687268412351 64.91737105281167 -191.30819750965017 0.0 0.0
66.90666030230327 18.897097159546167 25.741127238554828 -126.64941329206592 0.0 0.0
133.83085069846226 19.122542902722902 45.88601808035554 -114.72961096961706 0.0 0.0
206.35566868755978 6.2444696669905095 63.787494196372755 -120.27960032065684 0.0 0.0
289.1914078597686 -1.5031846154154787 85.76021975172361 -127.59760307829227 0.0 0.0
396.5153764091457 2.5726963602743527 123.60384624514111 -127.91177246093514 0.0 0.0
489.9491488404531 18.12871585749713 182.46205168109472 -120.02819171054816 0.0 0.0
570.5446714057848 26.119722613148603 244.6841683187618 -118.45820656302087 0.0 0.0
627.3840840394885 39.64014347660353 300.6793357543327 -113.49182901344284 0.0 0.0
682.8576559991252 51.95036392347535 346.98583495197374 -111.05243014047299 0.0 0.0
734.2122271821694 68.49701691772651 388.37299856383754 -107.71833239955308 0.0 0.0
785.8951905079205 88.55862360962992 428.21003750139414 -104.53502727542227 0.0 0.0
835.3690805036434 107.91653110238326 464.62217916841917 -101.91640224336321 0.0 0.0
880.5562911228045 123.89843907410445 496.00722020049557 -99.51160897883028 0.0 0.0
920.1668453032929 133.66357558348807 520.8444074045783 -97.04812699876558 0.0 0.0
953.1323145704837 140.05622275736224 540.658028501324 -92.99071065965823 0.0 0.0
980.2874980368216 140.2766198304032 554.4640039140786 -87.20342873872103 0.0 0.0
994.8735457395182 130.77101217994175 557.3759949437456 -76.8945129946989 0.0 0.0
987.1162506092514 102.85172189827266 540.0217913202808 -57.1037539202377 0.0 0.0
783.7609571531486 -103.78174227245793 342.01477107025073 7.324274520215113e-11 0.0 0.0
987.1162506089113 102.85172189799204 540.0217913200344 57.103753920374984 0.0 0.0
994.8735457392847 130.7710121797943 557.3759949436501 76.89451299495055 0.0 0.0
980.2874980363681 140.27661982999933 554.4640039137867 87.20342873880685 0.0 0.0
953.1323145702186 140.0562227572133 540.6580285010518 92.99071065977134 0.0 0.0
920.1668453026208 133.6635755828616 520.8444074041824 97.04812699877479 0.0 0.0
880.556291122336 123.89843907374846 496.0072202001368 99.51160897885471 0.0 0.0
835.3690805030323 107.91653110183516 464.62217916796106 101.91640224334972 0.0 0.0
785.8951905077738 88.55862360969985 428.21003750124225 104.53502727552784 0.0 0.0
734.2122271820343 68.49701691775972 388.3729985637507 107.71833239961897 0.0 0.0
682.8576559987785 51.95036392326073 346.9858349516352 111.05243014040471 0.0 0.0
627.3840840390422 39.64014347628921 300.6793357539652 113.49182901328679 0.0 0.0
570.544671405587 26.119722613292538 244.6841683185339 118.45820656304888 0.0 0.0
489.94914884008995 18.128715857492644 182.4620516808187 120.02819171052754 0.0 0.0
396.5153764087312 2.572696360309405 123.60384624496801 127.91177246090045 0.0 0.0
289.1914078593908 -1.5031846155722048 85.76021975157805 127.59760307817834 0.0 0.0
206.35566868758573 6.244469667307189 63.787494196475656 120.27960032052609 0.0 0.0
133.83085069835465 19.12254290258764 45.88601808028269 114.72961096942278 0.0 0.0
66.90666030229129 18.89709715961483 25.74112723857183 126.6494132918508 0.0 0.0
172.72661185394767 -1.8596872686112995 64.91737105257373 191.30819750946668 0.0 0.0
-363.4352555110648 -941.7315122205462 -494.83263170741685 65.76275126862477 0.0 0.0
-252.79239175957463 -803.6686913018964 -368.61512915004937 -80.40290084340346 0.0 0.0
114.89064969274118 -37.72691657709338 29.340462909763268 -188.96721510910461 0.0 0.0
39.26940061559417 10.944732235424663 15.0642706309564 -143.95865627273764 0.0 0.0
91.04428369816279 20.514143265780962 33.467528089183126 -131.9940821914467 0.0 0.0
150.36935434893493 8.977934536050897 47.8030311634452 -135.99972060933524 0.0 0.0
215.45145870935536 -0.4496023202893078 64.3243804111533 -145.12750065753974 0.0 0.0
305.78146050836403 -2.0756214100699424 90.59724527432252 -152.47418769630494 0.0 0.0
402.9245719982393 6.307329099077134 133.72297464894277 -144.34983617211898 0.0 0.0
491.28143599165355 18.384473196209306 190.52511502630747 -137.2119806361259 0.0 0.0
561.8050224893362 25.231912351393117 245.13187526856947 -133.4099943801285 0.0 0.0
615.8118186260949 36.14001984793518 293.1635486102537 -127.36395778819539 0.0 0.0
664.747141910941 48.675492709200284 334.5371330046406 -123.1996833587122 0.0 0.0
712.8878714329753 63.93862900573312 372.7561652757026 -119.76439907397308 0.0 0.0
757.4339196695329 78.69934114389206 406.39877770380974 -116.81360674864372 0.0 0.0
799.1856225553544 91.11529501825382 435.4628787149177 -114.29487244914137 0.0 0.0
836.3715930180156 100.36552461829929 459.45860203044487 -111.76522608130465 0.0 0.0
869.4837587995485 105.01148678066573 478.80837071406853 -107.82821108616122 0.0 0.0
900.0910838339272 108.74916508092852 496.06492517146864 -101.40677793440237 0.0 0.0
923.616823539277 107.52465692302565 507.6220820054986 -90.85802332655136 0.0 0.0
921.296819331662 80.9782185494679 494.0147683351021 -70.27132830250846 0.0 0.0
657.1832885861044 -185.16847203551913 239.65181340858197 6.728129164912389e-11 0.0 0.0
921.2968193317814 80.97821854963293 494.01476833518325 70.27132830262317 0.0 0.0
923.6168235389954 107.52465692299336 507.6220820053314 90.85802332685623 0.0 0.0
900.0910838333992 108.74916508046309 496.0649251711466 101.40677793462245 0.0 0.0
869.4837588000172 105.01148678131247 478.8083707142693 107.82821108632837 0.0 0.0
836.3715930175739 100.36552461793616 459.45860203018043 111.7652260813368 0.0 0.0
799.1856225548637 91.11529501784776 435.4628787145808 114.29487244915924 0.0 0.0
757.433919669039 78.69934114350833 406.3987777034246 116.8136067486317 0.0 0.0
712.8878714327466 63.938629005614686 372.7561652754745 119.76439907401854 0.0 0.0
664.7471419104028 48.675492708761 334.5371330042562 123.19968335865262 0.0 0.0
615.811818625657 36.14001984765719 293.16354860985894 127.36395778812982 0.0 0.0
561.8050224889184 25.231912351109585 245.1318752682137 133.40999438002433 0.0 0.0
491.2814359912711 18.384473196110175 190.52511502600055 137.21198063612852 0.0 0.0
402.92457199790965 6.307329099117763 133.72297464876206 144.3498361721094 0.0 0.0
305.78146050799046 -2.0756214100091994 90.59724527422902 152.47418769619236 0.0 0.0
215.4514587090776 -0.44960232039070425 64.32438041105586 145.12750065731422 0.0 0.0
150.3693543489442 8.977934536219683 47.803031163495596 135.999720609176 0.0 0.0
91.04428369806742 20.514143265708224 33.4675280891327 131.99408219131092 0.0 0.0
39.26940061561688 10.944732235578618 15.064270631009316 143.95865627252667 0.0 0.0
114.89064969239588 -37.726916577330286 29.340462909550535 188.9672151088843 0.0 0.0
-252.79239175888583 -803.6686913008872 -368.615129149238 80.40290084344953 0.0 0.0
-178.33723046286215 -667.5666644997866 -275.57915142285566 -91.82782491799983 0.0 0.0
64.9904524948411 -64.73480581214717 2.8081645844494574 -180.60473965355604 0.0 0.0
13.44499058512317 5.191658889963106 5.592325956668779 -156.59513764386614 0.0 0.0
50.023766475767246 20.46999875043335 21.148491028740995 -145.99638189252437 0.0 0.0
94.47046003892025 11.442449819178131 31.77295548092551 -148.68076651049054 0.0 0.0
141.85794614103497 2.306160151208582 43.25425457357177 -158.1039522961597 0.0 0.0
204.24508846119988 -1.904616530970911 60.17646446894259 -171.44427897134184 0.0 0.0
290.58644968317816 -4.529872147012698 85.8935323834798 -174.8908006064516 0.0 0.0
380.74809469709487 1.4048041757820817 125.10420580864573 -162.47124967663703 0.0 0.0
459.16669181188917 10.179452336393602 172.1113116102874 -151.2929442142731 0.0 0.0
520.8207729543536 19.12250174726394 218.74539071454174 -142.46653338287123 0.0 0.0
571.9012648623443 26.671383651348172 259.1662575133986 -137.28060292872868 0.0 0.0
617.8724742416832 38.49670017272604 297.4693433213476 -133.7207744482112 0.0 0.0
658.4944644895565 48.71787319541868 330.1995863346517 -130.79797432630812 0.0 0.0
696.2825782110601 57.763101015808886 358.40253204410413 -128.3551643007014 0.0 0.0
731.3118616943239 64.93258260143881 382.1295410018873 -126.17375031664888 0.0 0.0
764.9314539282911 70.6209578733237 403.44719184046323 -122.50150007444685 0.0 0.0
796.1833730581455 74.19198013395058 421.7706833614883 -115.62872406780927 0.0 0.0
829.4280671166314 79.1755797405004 441.421141748619 -104.88347571726652 0.0 0.0
844.0751470600856 64.32796223362476 442.75951865318956 -86.52675478403768 0.0 0.0
503.41945993977436 -271.8493207698474 122.103883768173 7.555911452072905e-11 0.0 0.0
844.0751470601066 64.32796223374993 442.75951865329074 86.5267547842518 0.0 0.0
829.4280671173664 79.17557974152051 441.4211417490847 104.88347571765745 0.0 0.0
796.1833730578963 74.19198013387327 421.7706833613316 115.62872406807513 0.0 0.0
764.9314539283971 70.62095787349875 403.44719184040673 122.50150007458272 0.0 0.0
731.3118616940973 64.93258260124787 382.12954100170305 126.17375031661498 0.0 0.0
696.2825782108838 57.763101015824155 358.40253204398994 128.35516430074688 0.0 0.0
658.4944644896493 48.71787319573313 330.19958633468076 130.7979743264224 0.0 0.0
617.8724742416438 38.496700172813114 297.46934332126614 133.7207744483013 0.0 0.0
571.9012648618191 26.671383650935233 259.16625751301575 137.28060292867815 0.0 0.0
520.8207729542617 19.122501747345183 218.74539071439185 142.4665333828599 0.0 0.0
459.1666918115552 10.179452336314096 172.1113116100161 151.29294421418703 0.0 0.0
380.7480946965604 1.4048041754508915 125.10420580832175 162.47124967668833 0.0 0.0
290.58644968290025 -4.529872146685888 85.89353238348087 174.8908006064138 0.0 0.0
204.24508846082162 -1.9046165311716412 60.17646446877949 171.4442789711659 0.0 0.0
141.85794614104958 2.306160151431321 43.25425457364284 158.10395229598453 0.0 0.0
94.47046003888669 11.442449819193088 31.772955480920064 148.68076651032476 0.0 0.0
50.0237664756969 20.469998750401125 21.148491028710094 145.996381892356 0.0 0.0
13.444990585128814 5.191658890149705 5.5923259567263806 156.59513764371493 0.0 0.0
64.99045249442058 -64.73480581239565 2.8081645842237357 180.60473965327944 0.0 0.0
-178.3372304624388 -667.566664498953 -275.5791514223174 91.82782491809441 0.0 0.0
-124.59073361012187 -555.719429434326 -207.0166978583472 -107.47123390943153 0.0 0.0
22.64357374554213 -79.92432757196347 -16.76738961984355 -167.18488169004877 0.0 0.0
-10.41936210609269 1.4470755554851809 -2.6913669326415497 -164.63621337769135 0.0 0.0
10.534437048583275 19.527447626494485 9.018729204629388 -156.27607293970118 0.0 0.0
39.146286171752394 13.52466944110044 15.802278798025338 -157.7949863950851 0.0 0.0
68.06222908613617 5.274484709152907 21.976039899202235 -167.5609889938709 0.0 0.0
101.11368210055066 0.16015813814937174 30.233460612548 -181.71475986084036 0.0 0.0
145.3708905001113 -1.381891004461297 43.267630885512105 -187.71259687878788 0.0 0.0
210.52731173336088 -3.929648574621454 62.07800913415993 -186.06901677831826 0.0 0.0
283.9575468828702 -10.689560807352809 84.42246526274731 -177.05114006421095 0.0 0.0
354.74582127005124 -15.826148130454612 109.10864086856644 -169.42295416530138 0.0 0.0
412.01989605775617 -15.82337667398724 135.58235151877585 -158.2125550363736 0.0 0.0
456.1298473114213 -6.66422109334675 164.88166806046056 -150.76313325087895 0.0 0.0
494.41990217572567 4.42025863519153 193.75376043968456 -145.5754061592103 0.0 0.0
528.9003291994785 18.821176727608037 223.19711941114224 -142.8914761187772 0.0 0.0
562.278713184771 28.226490871724426 251.3670150391615 -144.12819724731222 0.0 0.0
597.007017240241 34.37886343706142 279.65587945471844 -143.2445508071765 0.0 0.0
632.5095637084671 36.85843265589976 305.5252891956985 -136.2425363840156 0.0 0.0
668.7075594663377 34.918294184562356 327.4578449609108 -123.15045092932205 0.0 0.0
720.3221528609881 46.03813006841307 361.9639293881457 -107.42099418050583 0.0 0.0
290.020883874473 -364.80301242152495 -24.989749587238975 6.45172804070171e-11 0.0 0.0
720.3221528607045 46.03813006834295 361.9639293880549 107.4209941807693 0.0 0.0
668.7075594670619 34.918294185671336 327.4578449613869 123.15045092971388 0.0 0.0
632.5095637086409 36.858432656118985 305.52528919582676 136.2425363843092 0.0 0.0
597.0070172393208 34.37886343577948 279.6558794540393 143.24455080717718 0.0 0.0
562.2787131847915 28.226490871908293 251.36701503921068 144.12819724727046 0.0 0.0
528.9003291994045 18.821176727561145 223.19711941109162 142.8914761188317 0.0 0.0
494.41990217576597 4.420258635400657 193.7537604397139 145.5754061592487 0.0 0.0
456.12984731132735 -6.664221093381622 164.88166806038075 150.76313325100455 0.0 0.0
412.01989605718086 -15.823376674577952 135.58235151840117 158.21255503629646 0.0 0.0
354.7458212699974 -15.82614813045895 109.10864086850677 169.42295416529674 0.0 0.0
283.9575468827314 -10.689560807084021 84.42246526276674 177.05114006409593 0.0 0.0
210.5273117330449 -3.9296485747140806 62.07800913403253 186.0690167783048 0.0 0.0
145.37089050021808 -1.3818910037962238 43.26763088574292 187.71259687874615 0.0 0.0
101.1136821004577 0.1601581381689372 30.233460612528322 181.71475986064624 0.0 0.0
68.0622290859857 5.274484708898141 21.976039899080927 167.56098899366572 0.0 0.0
39.14628617181604 13.524669441323205 15.80227879811138 157.79498639488813 0.0 0.0
10.53443704862957 19.527447626587907 9.018729204671258 156.27607293947986 0.0 0.0
-10.419362105999003 1.4470755556610844 -2.69136693256092 164.63621337754327 0.0 0.0
22.64357374534916 -79.92432757213874 -16.76738961995939 167.1848816898887 0.0 0.0
-124.59073360994432 -555.7194294336059 -207.01669785804745 107.47123390946186 0.0 0.0
-102.38690893618076 -443.20834546703037 -163.93399285259085 -105.88126907750235 0.0 0.0
-5.608109822221536 -90.1938878747087 -28.7075810131688 -157.14399054777448 0.0 0.0
-32.34601861348952 -1.5418357716403892 -10.162894561034207 -168.74297701852763 0.0 0.0
-27.28010418274762 18.30033275951467 -2.6932064764289216 -162.55124474578554 0.0 0.0
-15.320943580163913 15.09984440136685 -0.06590181530675165 -162.95194515245652 0.0 0.0
-6.314590999064109 8.301992482281893 0.5970389898537705 -171.57952577189397 0.0 0.0
-2.2519161146209914 2.2216834856359897 -0.014366335653533291 -185.87748188334706 0.0 0.0
-0.4073844002978788 0.3357564638376882 -0.020113676496209543 -192.20604432078284 0.0 0.0
0.023758800312361217 -0.14448559723843069 -0.0357785701724449 -190.85919119826505 0.0 0.0
0.1411597769886086 -0.03311811016868127 0.03667188460953952 -180.8744757556644 0.0 0.0
0.22037804834567964 -0.2232128677990417 -0.07645125921345652 -174.2361448098601 0.0 0.0
-0.3460751472484276 0.2554178549831967 0.010555673716581282 -170.19768877913336 0.0 0.0
-1.5172779187357577 0.9022901023822136 -0.06647938908673723 -169.46404544911596 0.0 0.0
-2.624804065480973 1.3363323535250942 -0.15575212239482994 -167.03759205075485 0.0 0.0
1.609639349696323 0.731235479791188 0.7163729666571115 -162.268491746724 0.0 0.0
13.93745580362885 3.7791111289212367 2.640587860386887 -153.4913007270569 0.0 0.0
46.08990980609812 10.500859364573422 7.296658802412907 -146.97957685126175 0.0 0.0
129.26787101188458 7.039537170908552 16.24397583444341 -142.57622094925011 0.0 0.0
292.8415849064941 -54.048405910947814 35.019152975299335 -138.7405578283501 0.0 0.0
439.2626115102163 -38.34056336077773 140.38317788479898 -145.6344046774551 0.0 0.0
-225.00588687648167 -526.8820543713422 -308.5479913619579 3.531397396727698e-12 0.0 0.0
439.26261151033464 -38.340563360582436 140.38317788485733 145.6344046775513 0.0 0.0
292.8415849068264 -54.04840591086614 35.01915297545233 138.74055782897454 0.0 0.0
129.26787101212653 7.03953717125178 16.24397583470585 142.57622094974198 0.0 0.0
46.08990980546149 10.500859363504297 7.296658801826538 146.97957685137362 0.0 0.0
13.937455803689602 3.779111128911758 2.640587860383235 153.4913007270934 0.0 0.0
1.6096393501140227 0.73123548016029 0.7163729669372714 162.2684917466962 0.0 0.0
-2.624804064992354 1.336332354068734 -0.15575212207606626 167.03759205077841 0.0 0.0
-1.5172779184991825 0.9022901020007126 -0.0664793891412927 169.4640454492698 0.0 0.0
-0.34607514694490504 0.2554178549817223 0.010555673800691778 170.19768877906384 0.0 0.0
0.22037804846967646 -0.2232128681051897 -0.07645125925952634 174.23614480985557 0.0 0.0
0.14115977714786965 -0.033118110331693984 0.03667188460895332 180.87447575550613 0.0 0.0
0.023758800404028335 -0.1444855972922081 -0.03577857016056374 190.85919119830396 0.0 0.0
-0.4073844001551006 0.33575646401879133 -0.020113676397677693 192.2060443207328 0.0 0.0
-2.2519161144262707 2.221683485908535 -0.014366335513452011 185.8774818831042 0.0 0.0
-6.31459099907513 8.30199248203494 0.5970389897762827 171.57952577166645 0.0 0.0
-15.320943580005212 15.099844401616108 -0.06590181518447968 162.95194515224756 0.0 0.0
-27.28010418275467 18.30033275945631 -2.6932064764488377 162.55124474557704 0.0 0.0
-32.34601861346524 -1.5418357715873823 -10.162894561011296 168.74297701837392 0.0 0.0
-5.608109822296625 -90.19388787476466 -28.707581013204237 157.14399054761884 0.0 0.0
-102.38690893614772 -443.2083454664562 -163.93399285244064 105.88126907742269 0.0 0.0
-84.12148213124948 -348.7437549586599 -129.86597165313054 -99.4457674546377 0.0 0.0
-24.02397176555695 -92.80516423879298 -35.04800099454198 -147.86312845994271 0.0 0.0
-52.6383230720989 -4.171909296638608 -17.04380515489497 -168.7965168242625 0.0 0.0
-63.31676035177221 16.970316265194104 -13.90239003250542 -164.71176258844673 0.0 0.0
-68.63063105403452 16.038983716930183 -15.776604652608157 -163.88079558562123 0.0 0.0
-79.69269580261563 11.070495259229082 -20.59701311970507 -169.9509338231123 0.0 0.0
-105.77673394113069 4.511426154956784 -30.14069130370982 -183.79714504919676 0.0 0.0
-146.30136149408844 1.9238890072752337 -43.391182436768155 -187.94672370336102 0.0 0.0
-210.3372453538205 3.5989790475195065 -62.13746975379407 -186.0272077827201 0.0 0.0
-283.728424808702 10.602169122303948 -84.36533397576036 -177.02672904213452 0.0 0.0
-355.2855685733373 16.215627258991667 -108.86969000030626 -169.56598422119689 0.0 0.0
-412.0111506574529 15.828342059654874 -135.71541970314868 -158.19188482850234 0.0 0.0
-456.7712601475841 6.79448378250903 -165.36889265516928 -150.2666710775039 0.0 0.0
-495.4107159979498 -4.030571744607151 -194.34339418153746 -144.90124706797778 0.0 0.0
-527.5950473510178 -15.002381361771917 -220.72813458834955 -142.94166465522136 0.0 0.0
-551.4729018910037 -16.892792979835527 -237.18220562086123 -145.57924746504733 0.0 0.0
-563.0706094882898 -12.556484752430322 -240.1593392476953 -151.63272004304943 0.0 0.0
-561.422145810214 0.4160849995513587 -223.77235811364247 -162.6661857685928 0.0 0.0
-548.6183429438834 30.760642288574843 -187.7786515942542 -168.28044201099695 0.0 0.0
-338.34809279313174 40.89331884509582 -97.35796948429558 -111.03229131175506 0.0 0.0
-728.2645586503123 -727.7236012408227 -706.9603501316471 -1.2661871551244985e-10 0.0 0.0
-338.34809279286185 40.89331884539574 -97.35796948408418 111.03229131219966 0.0 0.0
-548.618342943453 30.76064228887582 -187.77865159389148 168.2804420112364 0.0 0.0
-561.4221458099344 0.41608499972894464 -223.77235811346839 162.66618576886685 0.0 0.0
-563.0706094879472 -12.556484752164437 -240.15933924749868 151.63272004307976 0.0 0.0
-551.4729018910961 -16.89279298013951 -237.18220562086384 145.57924746505748 0.0 0.0
-527.5950473508268 -15.002381361527473 -220.72813458817663 142.94166465533982 0.0 0.0
-495.4107159971383 -4.030571743758401 -194.3433941809963 144.90124706794083 0.0 0.0
-456.77126014748603 6.794483782306628 -165.36889265508495 150.26667107760736 0.0 0.0
-412.01115065670746 15.82834206023905 -135.7154197026584 158.19188482847133 0.0 0.0
-355.28556857309894 16.215627258268064 -108.8696900004033 169.56598422124742 0.0 0.0
-283.72842480806827 10.602169122273347 -84.3653339755489 177.02672904205852 0.0 0.0
-210.33724535343794 3.5989790470612455 -62.1374697538171 186.0272077827413 0.0 0.0
-146.301361493749 1.9238890072630332 -43.391182436665815 187.94672370331926 0.0 0.0
-105.77673394087915 4.511426155081165 -30.14069130359938 183.79714504899658 0.0 0.0
-79.69269580237417 11.070495259439735 -20.597013119572345 169.95093382288513 0.0 0.0
-68.63063105392929 16.03898371698144 -15.776604652560962 163.88079558540255 0.0 0.0
-63.31676035171608 16.9703162652022 -13.902390032486654 164.71176258824968 0.0 0.0
-52.63832307207376 -4.171909296612508 -17.04380515487995 168.79651682413424 0.0 0.0
-24.023971765537343 -92.80516423876576 -35.048000994527776 147.86312845980396 0.0 0.0
-84.12148213103093 -348.7437549582031 -129.86597165292633 99.44576745448829 0.0 0.0
-67.88015076809833 -267.1910511554473 -100.52136057706366 -89.45305566336931 0.0 0.0
-37.480443753733965 -89.81201836168631 -38.18781489525306 -137.57779215256252 0.0 0.0
-71.33148934336589 -6.08808861675928 -23.22630118398343 -164.92757672945555 0.0 0.0
-97.65769035566214 15.424960878070127 -24.671679181498575 -162.67673608261606 0.0 0.0
-120.43071289049851 16.34483605677655 -31.22520109272836 -160.3748013727109 0.0 0.0
-152.76155063909627 13.632898462339126 -41.5622352790719 -165.24448712699225 0.0 0.0
-206.39776143375968 5.367739872380847 -60.154103183307164 -170.48259257696287 0.0 0.0
-290.95173779202383 4.838631460878197 -85.98840390763655 -175.14156325098313 0.0 0.0
-380.7167666091152 -1.7240588451251924 -125.1831822272663 -162.462507528495 0.0 0.0
-459.11705948937083 -10.274386103320232 -172.0917232151549 -151.24411853426452 0.0 0.0
-520.7197567551011 -19.047745025027886 -218.68486296228107 -142.4192625604996 0.0 0.0
-571.89206798735 -26.5462125280323 -259.173006464889 -137.15456378091824 0.0 0.0
-618.2694990354856 -38.34281166704975 -297.7034561251003 -133.19219671544772 0.0 0.0
-659.0061703471702 -48.039081937549774 -330.2976945474581 -129.86390150554524 0.0 0.0
-694.8508014767526 -54.98288926277809 -356.46311785676653 -127.90286085757597 0.0 0.0
-721.2025348816619 -55.526406566432584 -372.629904020262 -128.4347998315177 0.0 0.0
-734.1111978870516 -48.41567763674142 -376.93570066442743 -132.62078677889772 0.0 0.0
-732.3396093903225 -37.42195584052607 -371.3164292016577 -141.10628527644684 0.0 0.0
-706.6539741189335 -12.766602650396806 -347.9299152840479 -150.77647574984195 0.0 0.0
-675.9682411666425 4.190317834829337 -324.8029076979538 -151.41041237205974 0.0 0.0
-1405.7223058086256 -979.4005647007232 -1138.4405773773628 2.1657342585967854e-11 0.0 0.0
-675.9682411665482 4.190317834784025 -324.80290769794334 151.41041237240862 0.0 0.0
-706.6539741181385 -12.76660264959824 -347.9299152835588 150.77647574998707 0.0 0.0
-732.3396093904853 -37.421955840914215 -371.31642920177154 141.10628527668484 0.0 0.0
-734.1111978872209 -48.41567763701931 -376.93570066457687 132.62078677905953 0.0 0.0
-721.2025348809982 -55.52640656582723 -372.62990401981966 128.43479983144277 0.0 0.0
-694.8508014771785 -54.98288926343503 -356.4631178569713 127.90286085767481 0.0 0.0
-659.0061703469705 -48.03908193752278 -330.29769454731536 129.86390150561903 0.0 0.0
-618.2694990353274 -38.34281166719961 -297.7034561249667 133.19219671550644 0.0 0.0
-571.8920679871416 -26.546212528076385 -259.1730064646944 137.15456378098463 0.0 0.0
-520.7197567548924 -19.047745025222127 -218.6848629620871 142.4192625604791 0.0 0.0
-459.11705948873464 -10.27438610298603 -172.09172321468822 151.24411853419682 0.0 0.0
-380.716766608652 -1.7240588452586088 -125.18318222706324 162.46250752861016 0.0 0.0
-290.9517377915815 4.838631460686982 -85.98840390753965 175.14156325101237 0.0 0.0
-206.39776143325514 5.367739872542455 -60.15410318311537 170.48259257674448 0.0 0.0
-152.76155063882067 13.632898462498837 -41.562235278940925 165.2444871268316 0.0 0.0
-120.43071289031037 16.34483605685257 -31.225201092650302 160.37480137255739 0.0 0.0
-97.65769035542615 15.424960878331635 -24.671679181349898 162.67673608246056 0.0 0.0
-71.33148934332336 -6.088088616781468 -23.226301183977387 164.92757672929525 0.0 0.0
-37.48044375372908 -89.81201836164081 -38.18781489523788 137.5777921524602 0.0 0.0
-67.88015076803615 -267.1910511551619 -100.52136057695938 89.4530556632274 0.0 0.0
-54.671556098821355 -197.65681492522555 -75.69851130721405 -78.31591104041334 0.0 0.0
-47.93366900316497 -82.5727841399452 -39.151935942933044 -125.50492154392172 0.0 0.0
-88.82696765524807 -7.214271506464086 -28.81337623580901 -157.11686389103312 0.0 0.0
-130.4222558372803 13.7177458492336 -35.00871826673513 -156.55358302204044 0.0 0.0
-170.75183920458326 15.97932145701753 -46.390423237020954 -152.74559323560078 0.0 0.0
-222.085420949644 13.745809906936445 -62.527153330105364 -151.63868731999426 0.0 0.0
-308.44718689769616 7.307321657776418 -89.7460117258523 -156.52941876042735 0.0 0.0
-403.1451528278956 -6.351970585715518 -133.8354188479912 -144.79196981954289 0.0 0.0
-491.3479684332716 -18.690152642046794 -190.60296677121394 -137.16995857012697 0.0 0.0
-561.8587233051553 -25.33088964931941 -245.18075803889212 -133.35922888183632 0.0 0.0
-615.6775560321719 -36.03560938380312 -293.0912478460406 -127.30827055061545 0.0 0.0
-664.6365490650744 -48.480590156478954 -334.42779267994615 -123.06401077132391 0.0 0.0
-713.0562136739304 -63.78705283607409 -372.80309653498585 -119.22461258250627 0.0 0.0
-758.0472658936424 -78.48850429233268 -406.6730934292331 -115.65975350617995 0.0 0.0
-798.8596318345034 -89.70085259897992 -434.6896319247261 -113.36151237975328 0.0 0.0
-829.0897440434567 -93.29184844630029 -452.54074941026136 -113.77875199110687 0.0 0.0
-843.9092946897837 -85.03051554728243 -456.4693986339417 -118.18017503725876 0.0 0.0
-835.11215819844 -61.42535477976844 -441.2682113203927 -126.0690564003801 0.0 0.0
-802.4976375973391 -24.54714202485438 -408.25298619334484 -133.84536455409346 0.0 0.0
-730.4011976662389 34.62681403869256 -348.334692986767 -139.0461903839247 0.0 0.0
-1833.848511270894 -1211.869998169224 -1478.1499124138545 5.362110755413596e-11 0.0 0.0
-730.4011976663555 34.62681403841853 -348.3346929869067 139.04619038413995 0.0 0.0
-802.4976375971977 -24.54714202485451 -408.2529861932579 133.84536455436987 0.0 0.0
-835.1121581984796 -61.42535477998022 -441.2682113203872 126.06905640056978 0.0 0.0
-843.9092946898984 -85.03051554754046 -456.46939863402656 118.1801750373773 0.0 0.0
-829.0897440429109 -93.29184844578431 -452.5407494098899 113.77875199107044 0.0 0.0
-798.8596318345532 -89.70085259923601 -434.68963192468885 113.36151237987544 0.0 0.0
-758.0472658933473 -78.48850429216941 -406.6730934290167 115.65975350619607 0.0 0.0
-713.0562136736921 -63.787052836069016 -372.8030965348086 119.22461258254216 0.0 0.0
-664.636549064902 -48.480590156531356 -334.42779267974873 123.06401077134952 0.0 0.0
-615.6775560318238 -36.035609383638075 -293.09124784577625 127.3082705505105 0.0 0.0
-561.8587233045093 -25.330889648916582 -245.180758038383 133.35922888174176 0.0 0.0
-491.34796843287165 -18.69015264209222 -190.60296677089562 137.16995857016042 0.0 0.0
-403.14515282735806 -6.3519705856323245 -133.8354188476942 144.79196981958484 0.0 0.0
-308.447186897102 7.307321657928956 -89.746011725633 156.52941876027256 0.0 0.0
-222.08542094929044 13.745809906862226 -62.527153330036505 151.63868731981034 0.0 0.0
-170.75183920445778 15.97932145688797 -46.390423237020634 152.7455932355276 0.0 0.0
-130.4222558370659 13.717745849463087 -35.00871826660271 156.55358302188088 0.0 0.0
-88.82696765517198 -7.2142715065062255 -28.81337623579853 157.11686389086987 0.0 0.0
-47.93366900309837 -82.57278413989849 -39.151935942899065 125.50492154382937 0.0 0.0
-54.671556098730065 -197.65681492499874 -75.69851130711861 78.3159110403237 0.0 0.0
-44.68188506929763 -139.4616184022483 -55.24305104146378 -66.7555837645392 0.0 0.0
-56.41186168495051 -72.48081229351041 -38.66780219353827 -111.60206767290892 0.0 0.0
-105.38631199684772 -7.416958964301628 -33.84153230380309 -145.48459157361802 0.0 0.0
-161.7293254542963 11.705978598825332 -45.013082852633076 -146.17631571671828 0.0 0.0
-218.56591380517298 14.758687002364425 -61.12255540576769 -140.38248714555888 0.0 0.0
-294.9506234308705 15.017490499167415 -82.93724844689196 -137.95767565346048 0.0 0.0
-393.8242606067586 -0.7131133448508944 -123.22260846768387 -128.2744583289203 0.0 0.0
-489.8690918364399 -18.344591562431248 -182.46709126376078 -120.35279999870639 0.0 0.0
-570.7374797098347 -26.447831802336676 -244.84095162839776 -118.37784553399744 0.0 0.0
-627.4403065796844 -39.70175700129727 -300.75138273310097 -113.44086965437853 0.0 0.0
-682.7487185793469 -51.79539277442719 -346.89383120112353 -111.02697025352944 0.0 0.0
-733.9556930281985 -68.1866379882446 -388.1231183035375 -107.58996880950227 0.0 0.0
-785.7033907567538 -88.2021855480921 -427.95601611571414 -104.03568866353044 0.0 0.0
-835.9356933898573 -107.98101051343379 -464.9689131181824 -100.73181745871905 0.0 0.0
-881.8502740510932 -124.38769695146422 -496.9251791802542 -98.33137539207317 0.0 0.0
-917.4873045468504 -130.80591018219638 -518.2408380264627 -98.58206346905223 0.0 0.0
-931.4490608164526 -121.3959951679973 -521.0447502254669 -101.96187992660369 0.0 0.0
-914.8072535830198 -85.98951316431884 -495.9379688826839 -108.64524501973561 0.0 0.0
-862.183234997749 -25.907904525387153 -441.4443817089385 -116.10418232354431 0.0 0.0
-759.274613575145 65.37513908057792 -349.59424485508094 -123.05955743873295 0.0 0.0
-2165.6332265955425 -1444.6206126631769 -1768.0731887104134 4.898836891698011e-11 0.0 0.0
-759.2746135749436 65.37513908069329 -349.59424485490825 123.05955743889857 0.0 0.0
-862.1832349974632 -25.907904525238052 -441.44438170875264 116.1041823237772 0.0 0.0
-914.807253582901 -85.98951316436407 -495.9379688825453 108.64524501992706 0.0 0.0
-931.4490608160821 -121.3959951676679 -521.0447502252377 101.96187992664274 0.0 0.0
-917.4873045467326 -130.80591018220377 -518.2408380263325 98.58206346908304 0.0 0.0
-881.8502740505462 -124.38769695107734 -496.92517917977966 98.33137539215193 0.0 0.0
-835.9356933898057 -107.98101051347751 -464.9689131181476 100.73181745873961 0.0 0.0
-785.7033907559253 -88.20218554744424 -427.9560161151457 104.03568866351317 0.0 0.0
-733.9556930280031 -68.18663798827428 -388.1231183033529 107.58996880956343 0.0 0.0
-682.7487185794 -51.79539277474571 -346.89383120114013 111.02697025351867 0.0 0.0
-627.4403065792637 -39.70175700116968 -300.7513827327617 113.44086965436847 0.0 0.0
-570.7374797093013 -26.447831802184947 -244.84095162793022 118.37784553403677 0.0 0.0
-489.8690918360116 -18.344591562385475 -182.4670912634317 120.35279999869817 0.0 0.0
-393.82426060617075 -0.7131133447024633 -123.2226084673971 128.27445832884953 0.0 0.0
-294.9506234303108 15.017490499428183 -82.93724844665658 137.95767565332952 0.0 0.0
-218.56591380495092 14.758687002284361 -61.12255540572995 140.38248714545452 0.0 0.0
-161.72932545412317 11.70597859888234 -45.0130828525644 146.17631571656662 0.0 0.0
-105.38631199679175 -7.416958964352466 -33.84153230380131 145.4845915734892 0.0 0.0
-56.41186168496065 -72.48081229356815 -38.66780219355863 111.60206767277717 0.0 0.0
-44.68188506925847 -139.46161840207108 -55.24305104139886 66.75558376447387 0.0 0.0
-37.69017385708764 -92.18466684330704 -38.9624522101184 -54.94372113960146 0.0 0.0
-63.39232392427791 -60.733493052646615 -37.23774509307734 -95.99871148431575 0.0 0.0
-121.10152295391335 -6.7238796018736515 -38.34791513641428 -130.15169512916717 0.0 0.0
-191.69129333865877 9.551260290865912 -54.64605148801237 -131.77646289254727 0.0 0.0
-263.8781623684902 12.326948806103301 -75.55543037072067 -123.57274254477711 0.0 0.0
-363.1966542259723 11.043342584205131 -105.24427647616494 -116.58394266769874 0.0 0.0
-465.92668097115165 -10.645115736922257 -158.82843347685807 -102.85771622522283 0.0 0.0
-559.1268419479047 -24.43352934222799 -226.28593180390487 -99.7507664144256 0.0 0.0
-621.0958079200528 -37.52156526345368 -289.9561973789844 -96.83667777144423 0.0 0.0
-681.6937941703167 -49.4422251875087 -342.88655308585857 -96.1954140481126 0.0 0.0
-736.737129453006 -66.72931036336601 -388.7968928501156 -94.10756538753144 0.0 0.0
-791.6332430440982 -87.90342875712436 -431.7104809360409 -91.26715485080086 0.0 0.0
-847.7336433768949 -112.3699719424127 -474.28498310356713 -88.26485005941272 0.0 0.0
-902.5861749452947 -136.22111692568538 -514.6209704528675 -85.40890657420644 0.0 0.0
-953.9218477805371 -157.59112966680317 -551.2035342951928 -83.17913524781389 0.0 0.0
-994.2840866254128 -169.22086215564192 -577.3289487311162 -82.57290329655098 0.0 0.0
-1008.8432797672067 -156.34038590375235 -578.6155709761636 -84.86416112925914 0.0 0.0
-981.2380001694212 -108.80775405084059 -541.9670141197661 -90.17617402018348 0.0 0.0
-905.1152213542662 -24.56277933582645 -463.5609685534654 -97.49219877917739 0.0 0.0
-775.1045120662161 94.32370560465995 -343.43851330392556 -108.12788815902971 0.0 0.0
-2460.1749207026855 -1674.7155934378736 -2035.9470674266183 9.458389627070574e-11 0.0 0.0
-775.1045120656379 94.3237056051482 -343.4385133034341 108.12788815920044 0.0 0.0
-905.1152213541214 -24.562779335754144 -463.5609685534033 97.49219877931283 0.0 0.0
-981.2380001692927 -108.80775405083943 -541.9670141196865 90.17617402036845 0.0 0.0
-1008.8432797671015 -156.34038590372768 -578.6155709760826 84.86416112932774 0.0 0.0
-994.2840866251015 -169.2208621554363 -577.3289487308391 82.5729032965753 0.0 0.0
-953.9218477798141 -157.59112966617462 -551.2035342946441 83.17913524782027 0.0 0.0
-902.5861749451476 -136.22111692570655 -514.6209704526746 85.40890657427948 0.0 0.0
-847.7336433761329 -112.36997194179558 -474.2849831031118 88.26485005940016 0.0 0.0
-791.6332430440813 -87.90342875734274 -431.7104809359629 91.26715485085089 0.0 0.0
-736.7371294528679 -66.72931036350325 -388.79689284999563 94.10756538757956 0.0 0.0
-681.6937941700628 -49.44222518751937 -342.88655308560004 96.19541404810063 0.0 0.0
-621.0958079193306 -37.52156526300485 -289.9561973783975 96.83667777144179 0.0 0.0
-559.1268419476328 -24.43352934237882 -226.28593180361096 99.7507664144457 0.0 0.0
-465.92668097058817 -10.645115736745234 -158.82843347649214 102.85771622521625 0.0 0.0
-363.19665422528897 11.043342584495663 -105.24427647587851 116.58394266755468 0.0 0.0
-263.87816236811597 12.326948806326302 -75.55543037054468 123.57274254472361 0.0 0.0
-191.69129333852408 9.551260290801356 -54.646051487991244 131.77646289241866 0.0 0.0
-121.10152295382262 -6.723879601859665 -38.34791513638275 130.15169512906317 0.0 0.0
-63.39232392428262 -60.73349305272368 -37.23774509310189 95.99871148423716 0.0 0.0
-37.690173857009434 -92.18466684316874 -38.962452210053456 54.94372113953351 0.0 0.0
-33.2980587552193 -55.64874906869106 -26.684042347173108 -42.983853144076036 0.0 0.0
-68.90873395015157 -48.27624941134576 -35.15549500844919 -78.84944129113437 0.0 0.0
-135.95179569601606 -5.40077946398067 -42.40577254799902 -111.23293944961061 0.0 0.0
-220.25221721954256 7.423920071937221 -63.854372287207084 -113.21586213550579 0.0 0.0
-311.0010844117351 9.414147654970483 -90.10388391620509 -104.23040255486129 0.0 0.0
-418.1891055840787 -1.1419059173348636 -130.61279370827995 -87.93008186873837 0.0 0.0
-528.452820779677 -17.071011877543093 -193.51146529471333 -80.04518087700309 0.0 0.0
-602.0984433741628 -32.419783809471866 -264.5986455231106 -78.4952333009494 0.0 0.0
-666.3873807737575 -43.31993476169221 -325.3558607804076 -78.63075262109739 0.0 0.0
-725.3251313364515 -60.100299135903846 -377.28504756870745 -78.01448270345463 0.0 0.0
-783.3863940027823 -81.63028077323666 -424.00655975360326 -76.63600012903592 0.0 0.0
-842.530848280702 -107.35849467739948 -469.63270605210994 -74.46813977234305 0.0 0.0
-903.0158624818993 -135.80101320905607 -515.4281265723688 -72.04354549602054 0.0 0.0
-961.707454259948 -164.61549175668688 -559.6467501323187 -69.67867654305265 0.0 0.0
-1017.0100641279398 -188.9611500604223 -599.4796496327666 -67.72061295998652 0.0 0.0
-1062.4353915824279 -204.2546443415679 -629.8146872338967 -66.55848858933672 0.0 0.0
-1079.7833351679192 -194.23262141365024 -633.87364777222 -66.95103803942011 0.0 0.0
-1042.7573308034202 -135.31206019857953 -586.862321423121 -70.7366438911589 0.0 0.0
-941.743743395582 -24.44167899936437 -482.53004793410514 -79.13325361871375 0.0 0.0
-778.9029711066544 126.49732308729308 -328.9644520520008 -94.8851117698478 0.0 0.0
-2728.6990108081404 -1896.269237426191 -2285.65255118173 8.29594171136705e-11 0.0 0.0
-778.9029711059045 126.49732308800276 -328.9644520514488 94.88511176997199 0.0 0.0
-941.7437433949799 -24.44167899881836 -482.53004793372764 79.13325361880533 0.0 0.0
-1042.7573308033107 -135.3120601985577 -586.8623214230404 70.73664389128754 0.0 0.0
-1079.7833351678823 -194.23262141371126 -633.8736477721435 66.95103803950614 0.0 0.0
-1062.4353915819488 -204.25464434116708 -629.8146872334712 66.55848858933383 0.0 0.0
-1017.0100641277119 -188.96115006031644 -599.479649632611 67.72061296002403 0.0 0.0
-961.7074542593605 -164.6154917562272 -559.6467501318044 69.67867654308857 0.0 0.0
-903.0158624814998 -135.80101320883062 -515.4281265721373 72.04354549604335 0.0 0.0
-842.530848280538 -107.35849467740942 -469.63270605193196 74.46813977231953 0.0 0.0
-783.3863940028239 -81.63028077353319 -424.00655975358984 76.63600012907256 0.0 0.0
-725.3251313359069 -60.10029913559096 -377.28504756827476 78.01448270340184 0.0 0.0
-666.3873807733163 -43.31993476150291 -325.3558607800032 78.63075262108804 0.0 0.0
-602.0984433736904 -32.419783809334625 -264.59864552268 78.49523330095866 0.0 0.0
-528.4528207793421 -17.07101187759936 -193.5114652944071 80.04518087696816 0.0 0.0
-418.18910558359033 -1.1419059173953068 -130.61279370810826 87.93008186867195 0.0 0.0
-311.00108441132 9.414147655098613 -90.10388391604904 104.23040255478467 0.0 0.0
-220.25221721935645 7.423920071904726 -63.854372287160444 113.21586213542483 0.0 0.0
-135.95179569585693 -5.400779463903227 -42.405772547928045 111.2329394495429 0.0 0.0
-68.90873395008477 -48.27624941130021 -35.15549500841549 78.84944129107741 0.0 0.0
-33.298058755219415 -55.64874906864171 -26.684042347158336 42.98385314401755 0.0 0.0
-30.867672435683126 -29.772079447389515 -18.191925564921792 -31.149402860519643 0.0 0.0
-72.6126287704227 -35.9264117565383 -32.56171215808829 -60.34870603445742 0.0 0.0
-149.64598614169856 -3.8237548517547575 -46.040922298035994 -88.66677394116142 0.0 0.0
-247.81513768824746 5.274451522944183 -72.76607517278565 -90.4661112999452 0.0 0.0
-358.9700965426671 5.04815402164987 -105.25017125054478 -80.20490935716535 0.0 0.0
-476.2286273211987 -8.670284983383198 -156.29952375300564 -63.40221669318757 0.0 0.0
-570.15696247025 -24.82148357737542 -226.9432637329372 -58.99916986442105 0.0 0.0
-638.8715962879772 -35.43569838847887 -295.1883267127414 -59.15088907893122 0.0 0.0
-702.4657542222826 -50.675080517915 -355.0314066648825 -59.626781383510185 0.0 0.0
-763.1998914203461 -70.77822312422045 -406.36626954583016 -59.52012860674488 0.0 0.0
-824.4617048904669 -96.56696463333115 -454.8253795563521 -58.64184512220756 0.0 0.0
-888.1260876577334 -126.75617032540114 -503.796335073501 -57.08478010539478 0.0 0.0
-952.746129676566 -160.29706463116673 -553.6498747836499 -55.152623077676935 0.0 0.0
-1015.5742121193343 -190.99094910330817 -600.5848180736439 -53.49367416508605 0.0 0.0
-1072.6889957473538 -217.72001506452375 -642.4331561007962 -51.986882921122906 0.0 0.0
-1120.942249518956 -236.39151067400726 -675.7945423195823 -50.40384274412965 0.0 0.0
-1145.8964649051804 -232.7447710569291 -686.6608634984502 -49.02690460531769 0.0 0.0
-1107.9923806845434 -171.52640062107014 -638.0661541531477 -50.70021814397748 0.0 0.0
-980.5940756920802 -32.70939030756939 -506.5407463979539 -60.53115294472794 0.0 0.0
-769.8051784347442 166.91085187890496 -303.6490988696522 -82.16278175491527 0.0 0.0
-2971.533724221447 -2099.600077975855 -2512.9262512161285 1.376321279167314e-11 0.0 0.0
-769.8051784342039 166.91085187939865 -303.64909886925795 82.16278175500639 0.0 0.0
-980.5940756911751 -32.70939030670753 -506.54074639735506 60.53115294482721 0.0 0.0
-1107.9923806841061 -171.5264006206843 -638.0661541527983 50.70021814400576 0.0 0.0
-1145.896464905321 -232.74477105716485 -686.6608634984926 49.026904605432115 0.0 0.0
-1120.9422495182093 -236.39151067333864 -675.7945423189798 50.403842744085594 0.0 0.0
-1072.6889957474623 -217.72001506475453 -642.4331561008847 51.98688292118098 0.0 0.0
-1015.5742121185784 -190.99094910269133 -600.5848180730417 53.49367416510243 0.0 0.0
-952.746129676252 -160.29706463102414 -553.6498747834654 55.15262307773669 0.0 0.0
-888.1260876575652 -126.7561703253997 -503.7963350733397 57.08478010536177 0.0 0.0
-824.4617048900324 -96.56696463313243 -454.82537955604397 58.64184512219771 0.0 0.0
-763.1998914194932 -70.77822312354976 -406.3662695452443 59.52012860666167 0.0 0.0
-702.465754222135 -50.67508051803002 -355.0314066646806 59.62678138346712 0.0 0.0
-638.8715962876739 -35.43569838846143 -295.1883267124 59.150889078918595 0.0 0.0
-570.156962469711 -24.821483577178395 -226.9432637324758 58.99916986436726 0.0 0.0
-476.2286273207831 -8.670284983425987 -156.29952375278296 63.40221669321158 0.0 0.0
-358.97009654232994 5.048154021450614 -105.25017125051228 80.20490935710467 0.0 0.0
-247.81513768803885 5.274451522903074 -72.7660751727344 90.46611129987461 0.0 0.0
-149.64598614164635 -3.8237548518520175 -46.040922298049516 88.66677394103739 0.0 0.0
-72.61262877034407 -35.92641175638556 -32.56171215801889 60.34870603444019 0.0 0.0
-30.867672435641147 -29.772079447379177 -18.191925564906104 31.149402860560684 0.0 0.0
-29.305811461906572 -14.317773366130135 -13.087075448411008 -20.145169723160205 0.0 0.0
-73.6901123912461 -24.572003629952512 -29.47863480635957 -40.76006892061016 0.0 0.0
-161.72796688308273 -2.5618548983046443 -49.2869465344162 -62.053132554864426 0.0 0.0
-274.79919036214875 3.10944287099272 -81.50235133578583 -63.23770043573353 0.0 0.0
-401.27597886518345 -4.88633932565005 -123.04266579465008 -51.86478683834135 0.0 0.0
-523.540555594194 -16.37647086912628 -183.13490365984143 -40.2288817531809 0.0 0.0
-599.0201555067065 -29.390433998618715 -255.20022289143918 -38.684101331869535 0.0 0.0
-669.7924661992574 -40.28670653543955 -322.09818406132 -39.909715461805256 0.0 0.0
-733.2159326570694 -58.48431576912809 -380.15843431238034 -40.51620556545835 0.0 0.0
-796.1588691614752 -81.6753148717959 -431.5695417354585 -40.58058596149321 0.0 0.0
-861.5566455625113 -111.38990984159727 -482.60315008926733 -40.10993963582536 0.0 0.0
-929.3048024176206 -146.2931132583345 -535.2546349183233 -39.065497718437335 0.0 0.0
-998.7211657834008 -182.77758858514974 -588.60615487212 -37.856736458672685 0.0 0.0
-1064.614040820778 -217.99628442027293 -639.2010729254841 -36.71899931885799 0.0 0.0
-1123.4964466556462 -245.6746982575353 -682.3905309980864 -35.73089607784875 0.0 0.0
-1169.5983554714696 -261.68999946506494 -713.3373629667294 -34.36572280515474 0.0 0.0
-1199.1104678452662 -263.1209408698375 -728.7758369711144 -32.09282170340126 0.0 0.0
-1187.9680083399194 -228.03921354857644 -706.341785138819 -30.940600257176456 0.0 0.0
-1041.055441485981 -67.10065629610165 -554.2084371110382 -39.96189235102733 0.0 0.0
-741.1115938361062 224.0981172834381 -260.15631706697013 -68.54733099248539 0.0 0.0
-3173.441505425443 -2266.1490807740865 -2701.131075524217 1.738342803037085e-11 0.0 0.0
-741.1115938354612 224.09811728406632 -260.1563170664949 68.54733099247747 0.0 0.0
-1041.0554414856588 -67.10065629581764 -554.2084371108332 39.96189235109917 0.0 0.0
-1187.968008339484 -228.03921354819892 -706.3417851384818 30.94060025718243 0.0 0.0
-1199.1104678457207 -263.1209408703843 -728.7758369714634 32.09282170348921 0.0 0.0
-1169.5983554708534 -261.6899994645193 -713.3373629662073 34.36572280512497 0.0 0.0
-1123.4964466555862 -245.67469825760566 -682.3905309980447 35.73089607788259 0.0 0.0
-1064.6140408205376 -217.99628442014682 -639.201072925256 36.7189993188729 0.0 0.0
-998.7211657831475 -182.7775885850574 -588.606154871988 37.85673645861169 0.0 0.0
-929.3048024173204 -146.29311325821504 -535.254634918071 39.06549771840503 0.0 0.0
-861.5566455618159 -111.3899098410844 -482.60315008880355 40.10993963571865 0.0 0.0
-796.1588691607798 -81.67531487131052 -431.5695417349461 40.58058596146154 0.0 0.0
-733.2159326567046 -58.48431576900529 -380.1584343120372 40.51620556539103 0.0 0.0
-669.792466198837 -40.28670653528995 -322.0981840609106 39.909715461779726 0.0 0.0
-599.0201555062546 -29.39043399846 -255.20022289100712 38.6841013318354 0.0 0.0
-523.5405555938477 -16.376470869147443 -183.13490365957742 40.22888175315043 0.0 0.0
-401.275978864864 -4.88633932583282 -123.04266579460175 51.86478683834732 0.0 0.0
-274.79919036204166 3.109442870809394 -81.50235133581128 63.23770043572562 0.0 0.0
-161.72796688296683 -2.5618548983797935 -49.28694653440397 62.053132554784696 0.0 0.0
-73.6901123911235 -24.5720036298592 -29.47863480629481 40.76006892066877 0.0 0.0
-29.305811461874733 -14.31777336614097 -13.087075448404713 20.145169723202482 0.0 0.0
-26.530599473152872 -8.425116304066112 -10.486714733165696 -11.560802499029586 0.0 0.0
-70.73724058439294 -15.593437811755575 -25.899203518844555 -20.402181091202895 0.0 0.0
-171.39282255059067 -2.330603971166625 -52.117027956527174 -30.374954927930585 0.0 0.0
-302.4915018629503 0.959688982098434 -90.4389143542086 -30.898813201093496 0.0 0.0
-448.28010819134 -11.400789540930802 -141.54131205134547 -23.361109176474386 0.0 0.0
-556.7474282529902 -23.505157252951346 -209.36420872399867 -19.512446956403643 0.0 0.0
-626.678698593705 -29.813318686327026 -278.5167522336415 -20.414805967096424 0.0 0.0
-695.6300438999613 -46.066889610675915 -345.23301289718114 -21.082674823595276 0.0 0.0
-759.9088576686632 -66.20123429310513 -401.5498231176188 -21.252850392705067 0.0 0.0
-825.385756334125 -92.92541705583255 -454.07755822206866 -21.225766394415224 0.0 0.0
-894.6868635000627 -126.51872766490119 -507.98461946077646 -20.927761162506677 0.0 0.0
-967.2018847244839 -164.69289052313195 -564.16711837263 -20.51233671236483 0.0 0.0
-1039.9622337571354 -205.89087741257197 -621.321605215841 -19.919555523079325 0.0 0.0
-1110.173774729172 -243.83353931985596 -675.3447625327942 -19.37598169014891 0.0 0.0
-1170.076921441909 -272.23788626811114 -719.4079097518704 -18.91504178311208 0.0 0.0
-1213.0581360569633 -285.15450818784984 -747.2829852203232 -18.081619530528837 0.0 0.0
-1236.0265628814184 -280.7332921155805 -756.4719597939326 -16.349953291614778 0.0 0.0
-1247.0763161222937 -268.4831951672278 -755.9437681434445 -13.890735147460106 0.0 0.0
-1192.080127834321 -197.1206981595681 -694.1555310139262 -17.392137542007273 0.0 0.0
-727.918242760885 264.9261861378691 -232.5930431592996 -47.535709583565286 0.0 0.0
-3206.976468665959 -2264.541657557171 -2721.9059246106885 1.4734879982825078e-11 0.0 0.0
-727.9182427601203 264.9261861386304 -232.5930431587429 47.53570958353235 0.0 0.0
-1192.0801278339895 -197.12069815928567 -694.1555310136893 17.39213754205313 0.0 0.0
-1247.0763161218008 -268.48319516679635 -755.9437681430676 13.890735147539663 0.0 0.0
-1236.0265628813177 -280.7332921155531 -756.4719597938831 16.34995329160776 0.0 0.0
-1213.0581360566855 -285.15450818766965 -747.2829852199897 18.08161953055376 0.0 0.0
-1170.0769214412826 -272.2378862675808 -719.4079097513705 18.91504178309267 0.0 0.0
-1110.1737747290538 -243.8335393199003 -675.3447625326058 19.375981690204302 0.0 0.0
-1039.9622337564806 -205.8908774120731 -621.3216052153643 19.919555523064798 0.0 0.0
-967.2018847238623 -164.69289052270017 -564.1671183721483 20.51233671240443 0.0 0.0
-894.6868634994372 -126.51872766447917 -507.98461946034973 20.927761162479495 0.0 0.0
-825.3857563339537 -92.92541705589584 -454.07755822186584 21.22576639443517 0.0 0.0
-759.9088576680812 -66.20123429274761 -401.54982311716174 21.252850392662094 0.0 0.0
-695.6300438995839 -46.06688961055527 -345.2330128968159 21.082674823567082 0.0 0.0
-626.6786985935246 -29.813318686474126 -278.51675223336827 20.41480596713598 0.0 0.0
-556.7474282527147 -23.5051572530412 -209.3642087237347 19.512446956386007 0.0 0.0
-448.2801081907663 -11.40078954074763 -141.54131205108143 23.361109176428894 0.0 0.0
-302.4915018625626 0.9596889821607224 -90.43891435409313 30.89881320118443 0.0 0.0
-171.39282255040695 -2.330603971123873 -52.11702795645922 30.37495492789897 0.0 0.0
-70.73724058443383 -15.593437811873564 -25.89920351889222 20.40218109120466 0.0 0.0
-26.53059947320722 -8.42511630409938 -10.486714733191977 11.560802499022552 0.0 0.0
-15.90279223588706 -4.02094035745408 -5.977119778002342 -7.366988735635758 0.0 0.0
-60.131276689373564 -8.532514356523986 -20.59913731376926 -8.472764124467641 0.0 0.0
-177.17690729288574 -3.2859008283165956 -54.138842436360676 -10.407632261405052 0.0 0.0
-336.3049620345163 -8.722711077302524 -103.50633312910784 -10.11158107514368 0.0 0.0
-505.39808449661206 -36.83734824853205 -171.08994601785076 -4.141330296426226 0.0 0.0
-619.04861869581 -67.7242552622264 -257.0140587541154 -0.854892773079289 0.0 0.0
-701.4918399343799 -90.01854223783263 -341.3889254525215 -0.5006493761982789 0.0 0.0
-790.0017138679574 -128.01480571620897 -427.49953219368155 -1.0914999709368942 0.0 0.0
-880.5466921742378 -175.51729309058885 -509.477270602888 -1.8576908739914284 0.0 0.0
-982.4127002312703 -238.35946308093463 -597.3816839989075 -2.787949821588656 0.0 0.0
-1099.8390582985562 -319.3876045097402 -698.4712566801649 -3.785590309168702 0.0 0.0
-1232.4960208913321 -418.6567615640362 -814.7268712229061 -4.772775129365021 0.0 0.0
-1376.779945182952 -529.9495245227204 -942.10972720425 -5.425950813516566 0.0 0.0
-1527.4114238264024 -648.0417601277355 -1075.9290535935656 -6.065575918868534 0.0 0.0
-1672.7610853234792 -761.5887932953901 -1204.8335095978332 -6.5854617280619046 0.0 0.0
-1796.180651555236 -854.8148486838896 -1312.7430206852737 -6.764896725634461 0.0 0.0
-1877.5813986959554 -909.2362067974448 -1380.5154815216472 -6.291859573354056 0.0 0.0
-1894.6433394355336 -904.1272323679664 -1386.7878807630186 -4.567165617223335 0.0 0.0
-1879.745328668239 -872.7026459432835 -1363.9366735632084 -5.27426683985896 0.0 0.0
-1787.2050780222364 -775.9132662081979 -1265.9213671047357 -34.370555732892704 0.0 0.0
-4721.583101896858 -3750.6951726635257 -4205.375231980208 2.2581048142455984e-11 0.0 0.0
-1787.2050780215457 -775.913266207523 -1265.921367104177 34.37055573291052 0.0 0.0
-1879.7453286673867 -872.7026459424742 -1363.9366735625322 5.274266839864396 0.0 0.0
-1894.6433394345045 -904.1272323669887 -1386.7878807621692 4.567165617295206 0.0 0.0
-1877.5813986950661 -909.2362067966258 -1380.5154815208957 6.291859573304933 0.0 0.0
-1796.1806515547476 -854.814848683514 -1312.7430206846807 6.764896725651937 0.0 0.0
-1672.7610853222156 -761.5887932942175 -1204.8335095967236 6.585461728053701 0.0 0.0
-1527.411423825204 -648.0417601266827 -1075.9290535925306 6.065575918893241 0.0 0.0
-1376.7799451818619 -529.9495245217755 -942.1097272033251 5.425950813462656 0.0 0.0
-1232.4960208901605 -418.65676156305307 -814.7268712219379 4.772775129348911 0.0 0.0
-1099.8390582972709 -319.3876045086413 -698.4712566791975 3.785590309138712 0.0 0.0
-982.4127002311586 -238.35946308107611 -597.3816839986741 2.7879498215431866 0.0 0.0
-880.546692173582 -175.51729309016287 -509.47727060234456 1.8576908740112152 0.0 0.0
-790.0017138675768 -128.01480571610625 -427.4995321932896 1.0914999709129347 0.0 0.0
-701.4918399339242 -90.0185422376624 -341.38892545205596 0.5006493762729072 0.0 0.0
-619.0486186956557 -67.72425526244768 -257.0140587538632 0.8548927731416924 0.0 0.0
-505.3980844958817 -36.837348248103 -171.0899460174321 4.141330296381298 0.0 0.0
-336.30496203408825 -8.722711076933653 -103.50633312886146 10.111581075234678 0.0 0.0
-177.17690729272232 -3.2859008282709468 -54.13884243629798 10.407632261316778 0.0 0.0
-60.13127668939429 -8.532514356687123 -20.59913731382442 8.472764124449473 0.0 0.0
-15.902792235865487 -4.02094035745765 -5.977119777996942 7.366988735607011 0.0 0.0
SCALARS Strain float 6
LOOKUP_TABLE default
0.010473449646730658 -0.018441679613580994 0.0 -0.0005561870648053907 0.0 0.0
0.006483050799116942 -0.0012284042481788778 0.0 -0.005615747188636149 0.0 0.0
0.0021387892066555415 -0.0006393282902344047 0.0 -0.000540845286357632 0.0 0.0
0.001959722552914997 -0.000782022995563797 0.0 -4.845248438871366e-05 0.0 0.0
0.0025432049842924625 -0.0010114490361846783 0.0 4.8696499273524754e-05 0.0 0.0
0.003737328421887143 -0.0018464269408920743 0.0 0.00011389617943638527 0.0 0.0
0.005678352157630507 -0.003403976040184744 0.0 0.0001434991294250604 0.0 0.0
0.00840099878945071 -0.00571110580665002 0.0 0.00015436295996165393 0.0 0.0
0.01197450830614262 -0.008845342123868904 0.0 0.00015768493752161397 0.0 0.0
0.016448714232360755 -0.012812798566945064 0.0 0.00014379551237191204 0.0 0.0
0.02190550313096769 -0.017667575178081252 0.0 0.00015713757874034147 0.0 0.0
0.028500818414915946 -0.02356448567131899 0.0 0.00019438438199573813 0.0 0.0
0.03641576861783482 -0.030713596682831683 0.0 0.000177562503944249 0.0 0.0
0.045812054554095864 -0.039301108442301065 0.0 0.00015477188060193723 0.0 0.0
0.056745685052296005 -0.04942746388987669 0.0 6.142422071851554e-05 0.0 0.0
0.06900193823426612 -0.060923153196805496 0.0 -0.00012804411678384682 0.0 0.0
0.08197584973778761 -0.07322009827501594 0.0 -0.0003893605001264993 0.0 0.0
0.09465165391913076 -0.08533948103180981 0.0 -0.0006205340842506848 0.0 0.0
0.10572804285450713 -0.09600336487201869 0.0 -0.0006624244560430015 0.0 0.0
0.11375754652921496 -0.1038126544187555 0.0 -0.0006559298630658171 0.0 0.0
0.11682279515174704 -0.10689831152946533 0.0 1.2455314557513475e-15 0.0 0.0
0.11375754652920497 -0.10381265441874585 0.0 0.0006559298630709736 0.0 0.0
0.10572804285448417 -0.0960033648720002 0.0 0.0006624244560474576 0.0 0.0
0.0946516539190976 -0.08533948103177592 0.0 0.0006205340842543759 0.0 0.0
0.08197584973774956 -0.07322009827498294 0.0 0.0003893605001270206 0.0 0.0
0.06900193823422701 -0.06092315319676732 0.0 0.0001280441167842163 0.0 0.0
0.05674568505225691 -0.04942746388984064 0.0 -6.142422071936469e-05 0.0 0.0
0.04581205455405508 -0.03930110844226382 0.0 -0.00015477188060361818 0.0 0.0
0.03641576861779326 -0.030713596682794914 0.0 -0.00017756250394371622 0.0 0.0
0.02850081841487711 -0.02356448567128327 0.0 -0.00019438438199580188 0.0 0.0
0.021905503130934013 -0.017667575178052973 0.0 -0.0001571375787403819 0.0 0.0
0.01644871423233318 -0.012812798566917891 0.0 -0.00014379551237193422 0.0 0.0
0.011974508306120651 -0.008845342123848928 0.0 -0.00015768493752322225 0.0 0.0
0.008400998789433914 -0.005711105806635032 0.0 -0.00015436295996084845 0.0 0.0
0.00567835215761894 -0.003403976040176156 0.0 -0.00014349912942527738 0.0 0.0
0.003737328421880427 -0.0018464269408865015 0.0 -0.00011389617943652198 0.0 0.0
0.002543204984289839 -0.0010114490361832565 0.0 -4.8696499270650575e-05 0.0 0.0
0.0019597225529141868 -0.0007820229955638742 0.0 4.845248438822207e-05 0.0 0.0
0.0021387892066543476 -0.0006393282902344615 0.0 0.0005408452863574619 0.0 0.0
0.006483050799112424 -0.0012284042481769538 0.0 0.005615747188628607 0.0 0.0
0.010473449646723426 -0.01844167961355954 0.0 0.000556187064772017 0.0 0.0
0.007026205171430355 -0.016407200193290433 0.0 -0.00011192656096531742 0.0 0.0
0.004199054863967952 -0.0008879499575214511 0.0 -0.004365428339804202 0.0 0.0
0.0014912573207616843 -0.0005160727528989707 0.0 -0.0003651053134245701 0.0 0.0
0.0017604037525169912 -0.0007475777564357891 0.0 -0.0002124948828768514 0.0 0.0
0.0022381724773214264 -0.0009347951153211344 0.0 -0.0001708775432957273 0.0 0.0
0.003255991473093771 -0.0016612538117554258 0.0 -0.00018813097347226203 0.0 0.0
0.00499090189138609 -0.003110368051291285 0.0 -0.0003459679029723859 0.0 0.0
0.0074652027032366675 -0.00528958272392235 0.0 -0.0005385626541488316 0.0 0.0
0.010718068181595673 -0.008263704275125348 0.0 -0.0007788982018624422 0.0 0.0
0.0147717473985094 -0.012027231039040411 0.0 -0.001054904435970829 0.0 0.0
0.019681834740840183 -0.01662202605797968 0.0 -0.0013325413074816211 0.0 0.0
0.02558015144972227 -0.02218510346947864 0.0 -0.0016050120136303224 0.0 0.0
0.03266485255051804 -0.02892666176668659 0.0 -0.0019408492076517633 0.0 0.0
0.041116656041079606 -0.03705102301979148 0.0 -0.002365057226067368 0.0 0.0
0.05099882578560564 -0.0466561698741382 0.0 -0.0028738760507390905 0.0 0.0
0.0621285254288902 -0.057587727915034984 0.0 -0.0034472449466759285 0.0 0.0
0.07395734804687738 -0.0693125697613017 0.0 -0.003947193209553278 0.0 0.0
0.08556882781463424 -0.08090634616704138 0.0 -0.004105018775931999 0.0 0.0
0.09575425329707951 -0.09114564627245585 0.0 -0.00366249309804007 0.0 0.0
0.10301915803292519 -0.09859523525178401 0.0 -0.0027188890444874866 0.0 0.0
0.1057142041617488 -0.10157184856316816 0.0 3.2192130905439598e-15 0.0 0.0
0.10301915803291561 -0.09859523525177484 0.0 0.0027188890444982566 0.0 0.0
0.09575425329705918 -0.0911456462724353 0.0 0.0036624930980519214 0.0 0.0
0.08556882781460573 -0.08090634616701248 0.0 0.004105018775940543 0.0 0.0
0.0739573480468441 -0.06931256976127151 0.0 0.003947193209554622 0.0 0.0
0.06212852542885486 -0.05758772791500051 0.0 0.0034472449466747663 0.0 0.0
0.05099882578557011 -0.046656169874103176 0.0 0.002873876050738091 0.0 0.0
0.041116656041043136 -0.037051023019759315 0.0 0.00236505722606641 0.0 0.0
0.03266485255048114 -0.028926661766651644 0.0 0.0019408492076495607 0.0 0.0
0.025580151449687526 -0.02218510346944655 0.0 0.0016050120136281946 0.0 0.0
0.019681834740809756 -0.016622026057951787 0.0 0.0013325413074789625 0.0 0.0
0.014771747398484272 -0.012027231039015296 0.0 0.0010549044359683263 0.0 0.0
0.01071806818157551 -0.008263704275107685 0.0 0.0007788982018596354 0.0 0.0
0.0074652027032214 -0.00528958272390845 0.0 0.0005385626541471026 0.0 0.0
0.004990901891375961 -0.0031103680512839064 0.0 0.00034596790297132367 0.0 0.0
0.0032559914730882814 -0.0016612538117492758 0.0 0.00018813097347078844 0.0 0.0
0.002238172477319185 -0.0009347951153200189 0.0 0.00017087754329711611 0.0 0.0
0.0017604037525162089 -0.0007475777564356129 0.0 0.00021249488287629386 0.0 0.0
0.001491257320761423 -0.0005160727528991922 0.0 0.0003651053134241299 0.0 0.0
0.0041990548639627605 -0.0008879499575192241 0.0 0.004365428339795392 0.0 0.0
0.0070262051714200776 -0.01640720019326871 0.0 0.00011192656094000412 0.0 0.0
0.005021002331592068 -0.01291016696459565 0.0 -0.002524495557436739 0.0 0.0
0.0029098090922856194 -0.00045856003403576097 0.0 -0.004211840673449576 0.0 0.0
0.001058087375203293 -0.00030669222819349287 0.0 -0.00035762581953698854 0.0 0.0
0.0015094684856790917 -0.000652297889648842 0.0 -0.00046974505872589777 0.0 0.0
0.0019617814773093267 -0.0008049658729685872 0.0 -0.0004679973516496488 0.0 0.0
0.0027946898681067774 -0.0013185392524194797 0.0 -0.0004597814206594601 0.0 0.0
0.004301003231081278 -0.0025270764415975333 0.0 -0.0007436497252813491 0.0 0.0
0.006518784274480257 -0.004452154922261095 0.0 -0.0011350898491240791 0.0 0.0
0.00944083656631998 -0.007098075665022564 0.0 -0.0016183530514577277 0.0 0.0
0.013070568951201114 -0.01045209598646663 0.0 -0.0021628131528689653 0.0 0.0
0.0174399856279709 -0.01452774055684113 0.0 -0.0027265292555716286 0.0 0.0
0.0226580805177666 -0.019433252573749837 0.0 -0.0032865822168403973 0.0 0.0
0.02891094848363736 -0.025365574669792283 0.0 -0.0038920558766708116 0.0 0.0
0.03640095482508296 -0.03255142189715062 0.0 -0.004648730121693643 0.0 0.0
0.0452108350624251 -0.04110304737209297 0.0 -0.005578188367830356 0.0 0.0
0.05518680086028778 -0.05089337466093933 0.0 -0.006593083843049775 0.0 0.0
0.06586598264714046 -0.061467425002438736 0.0 -0.0074467574103327236 0.0 0.0
0.07643971915049326 -0.07201763223514693 0.0 -0.007700848583619985 0.0 0.0
0.08576433511910574 -0.08141377323466023 0.0 -0.00694604417577758 0.0 0.0
0.09245350002879305 -0.08823811137505208 0.0 -0.005065225225785968 0.0 0.0
0.09495615859637188 -0.09109948059518612 0.0 8.201772594418344e-15 0.0 0.0
0.09245350002878397 -0.08823811137504337 0.0 0.005065225225806198 0.0 0.0
0.0857643351190877 -0.08141377323464329 0.0 0.006946044175799143 0.0 0.0
0.07643971915046867 -0.07201763223512231 0.0 0.007700848583632826 0.0 0.0
0.06586598264711141 -0.06146742500241245 0.0 0.007446757410335137 0.0 0.0
0.05518680086025622 -0.05089337466090876 0.0 0.0065930838430488525 0.0 0.0
0.045210835062393324 -0.04110304737206335 0.0 0.005578188367829249 0.0 0.0
0.03640095482505066 -0.03255142189712167 0.0 0.004648730121692053 0.0 0.0
0.028910948483604808 -0.025365574669761824 0.0 0.003892055876666207 0.0 0.0
0.022658080517735785 -0.019433252573723157 0.0 0.003286582216835068 0.0 0.0
0.017439985627943765 -0.014527740556814567 0.0 0.00272652925556615 0.0 0.0
0.013070568951178578 -0.010452095986445429 0.0 0.0021628131528634745 0.0 0.0
0.009440836566301828 -0.007098075665006051 0.0 0.0016183530514542414 0.0 0.0
0.006518784274466607 -0.004452154922249427 0.0 0.0011350898491206945 0.0 0.0
0.0043010032310726335 -0.0025270764415923808 0.0 0.0007436497252792306 0.0 0.0
0.002794689868102417 -0.001318539252415228 0.0 0.00045978142065752827 0.0 0.0
0.0019617814773076805 -0.0008049658729679753 0.0 0.0004679973516498356 0.0 0.0
0.0015094684856787304 -0.0006522978896489834 0.0 0.0004697450587254619 0.0 0.0
0.0010580873752032828 -0.00030669222819430206 0.0 0.0003576258195354244 0.0 0.0
0.0029098090922806963 -0.0004585600340330015 0.0 0.004211840673439404 0.0 0.0
0.0050210023315821785 -0.01291016696457488 0.0 0.002524495557419707 0.0 0.0
0.003711245353632018 -0.010306062789973787 0.0 -0.0029333569692026216 0.0 0.0
0.002100078000436278 -0.00035085646757156933 0.0 -0.0038732822432709264 0.0 0.0
0.0007592593892688496 -0.00017135514604217224 0.0 -0.0006463615854902586 0.0 0.0
0.0012526658383102524 -0.0005242423218092835 0.0 -0.0007082896873666627 0.0 0.0
0.0016998143677865063 -0.000703663165699359 0.0 -0.0007720217135837658 0.0 0.0
0.002370369628114264 -0.0010482332435880722 0.0 -0.0007422026724136453 0.0 0.0
0.003623167762141193 -0.0019719474100169327 0.0 -0.001011183276794291 0.0 0.0
0.005565720709924686 -0.0036261127965556443 0.0 -0.0015810321943417827 0.0 0.0
0.008151210565901906 -0.005935541942200734 0.0 -0.002252897289088542 0.0 0.0
0.0113546705266812 -0.008874328798143805 0.0 -0.0030092886272559015 0.0 0.0
0.015187553097552084 -0.012434981604411735 0.0 -0.0037927253937128976 0.0 0.0
0.01973658257775141 -0.016696095268576287 0.0 -0.004573614054493766 0.0 0.0
0.02517144108994121 -0.02183211168279996 0.0 -0.005402588604166064 0.0 0.0
0.03168778454712153 -0.02806907083027113 0.0 -0.006392794919359903 0.0 0.0
0.03939765355746448 -0.035541133953743184 0.0 -0.007607294816409631 0.0 0.0
0.048201123322521945 -0.044164364782323946 0.0 -0.008952677554887075 0.0 0.0
0.05771506826078047 -0.053570450542337486 0.0 -0.010093700680873598 0.0 0.0
0.06724476183030499 -0.06307491464390548 0.0 -0.010482234352930227 0.0 0.0
0.0757614993276088 -0.07165167164304909 0.0 -0.009563339862621865 0.0 0.0
0.08200773040248424 -0.07800971129273454 0.0 -0.006844108840433771 0.0 0.0
0.08439839457677632 -0.08090993801424907 0.0 1.1195037952216325e-14 0.0 0.0
0.08200773040247594 -0.07800971129272534 0.0 0.006844108840460746 0.0 0.0
0.07576149932759287 -0.07165167164303766 0.0 0.009563339862647159 0.0 0.0
0.06724476183028327 -0.06307491464388226 0.0 0.010482234352946512 0.0 0.0
0.05771506826075516 -0.053570450542314 0.0 0.010093700680876266 0.0 0.0
0.048201123322494266 -0.044164364782294345 0.0 0.008952677554884608 0.0 0.0
0.03939765355743615 -0.03554113395371675 0.0 0.00760729481640684 0.0 0.0
0.03168778454709323 -0.02806907083024399 0.0 0.006392794919357639 0.0 0.0
0.025171441089913028 -0.02183211168277414 0.0 0.005402588604161853 0.0 0.0
0.019736582577724603 -0.016696095268551085 0.0 0.004573614054487529 0.0 0.0
0.015187553097528086 -0.012434981604388124 0.0 0.0037927253937064427 0.0 0.0
0.011354670526661203 -0.008874328798125122 0.0 0.0030092886272482934 0.0 0.0
0.008151210565886037 -0.005935541942185828 0.0 0.0022528972890839137 0.0 0.0
0.005565720709912759 -0.0036261127965468293 0.0 0.0015810321943378455 0.0 0.0
0.003623167762133942 -0.001971947410011594 0.0 0.0010111832767916147 0.0 0.0
0.002370369628110951 -0.0010482332435862514 0.0 0.0007422026724129934 0.0 0.0
0.0016998143677853547 -0.0007036631656994133 0.0 0.0007720217135838337 0.0 0.0
0.001252665838310087 -0.000524242321808982 0.0 0.0007082896873652558 0.0 0.0
0.000759259389269098 -0.00017135514604293473 0.0 0.0006463615854878834 0.0 0.0
0.0021000780004320025 -0.0003508564675691735 0.0 0.0038732822432622476 0.0 0.0
0.0037112453536230845 -0.010306062789955503 0.0 0.0029333569691903138 0.0 0.0
0.0027628106594284716 -0.008228817869833604 0.0 -0.0026710241896460343 0.0 0.0
0.0015401704017930376 -0.0003323763577295153 0.0 -0.0035072028333360114 0.0 0.0
0.00054925959231891 -9.810655108432197e-05 0.0 -0.0010125205486517393 0.0 0.0
0.0010087739130849227 -0.0003943762123058538 0.0 -0.0009678171698137012 0.0 0.0
0.0014422785544542095 -0.000603197807008902 0.0 -0.0010620819410708897 0.0 0.0
0.0019902444076349466 -0.0008501149000572269 0.0 -0.001045863331872838 0.0 0.0
0.002979610385143814 -0.0014914575191121175 0.0 -0.0012256317513332936 0.0 0.0
0.0046135191683064625 -0.0028159097366026497 0.0 -0.001832342382547062 0.0 0.0
0.0068578527679988574 -0.004788539507545013 0.0 -0.0026756494572215453 0.0 0.0
0.00963220339048253 -0.007307017707826996 0.0 -0.0035868739218419855 0.0 0.0
0.012933924238900362 -0.010355194769395193 0.0 -0.0045296537257942275 0.0 0.0
0.01682351708905398 -0.013981627431500155 0.0 -0.005464679803552631 0.0 0.0
0.02144757184816705 -0.01833351345076498 0.0 -0.0064480286285617085 0.0 0.0
0.026998421718805142 -0.023624491697283815 0.0 -0.007598862704987518 0.0 0.0
0.03359574290182747 -0.030002507205779225 0.0 -0.00898828744535928 0.0 0.0
0.04119228536054826 -0.03743144079107408 0.0 -0.01051674094926555 0.0 0.0
0.049512042976913855 -0.04563722620187185 0.0 -0.011851127235359079 0.0 0.0
0.05798271340639657 -0.054068418493900046 0.0 -0.012414146160660108 0.0 0.0
0.06572233627448613 -0.06185101171906382 0.0 -0.011459441964945421 0.0 0.0
0.07161088527327372 -0.06784685712451193 0.0 -0.008209373471945777 0.0 0.0
0.07394141851890756 -0.070877310474334 0.0 1.2967925344664621e-14 0.0 0.0
0.07161088527326583 -0.06784685712450325 0.0 0.00820937347197643 0.0 0.0
0.06572233627447165 -0.06185101171905136 0.0 0.011459441964972599 0.0 0.0
0.05798271340637781 -0.05406841849388191 0.0 0.012414146160679783 0.0 0.0
0.049512042976891824 -0.04563722620185053 0.0 0.01185112723536402 0.0 0.0
0.04119228536052425 -0.03743144079104917 0.0 0.010516740949263928 0.0 0.0
0.03359574290180311 -0.030002507205754904 0.0 0.008988287445355425 0.0 0.0
0.026998421718781064 -0.023624491697260802 0.0 0.007598862704984503 0.0 0.0
0.02144757184814302 -0.018333513450741197 0.0 0.006448028628557003 0.0 0.0
0.01682351708903112 -0.01398162743147696 0.0 0.005464679803545481 0.0 0.0
0.012933924238879938 -0.010355194769376483 0.0 0.00452965372578538 0.0 0.0
0.009632203390465194 -0.00730701770781134 0.0 0.003586873921834415 0.0 0.0
0.006857852767985034 -0.004788539507532363 0.0 0.0026756494572148805 0.0 0.0
0.004613519168296568 -0.0028159097365959506 0.0 0.0018323423825427217 0.0 0.0
0.0029796103851381455 -0.001491457519107399 0.0 0.001225631751331009 0.0 0.0
0.0019902444076325076 -0.0008501149000551228 0.0 0.001045863331872031 0.0 0.0
0.0014422785544531984 -0.0006031978070089089 0.0 0.001062081941070272 0.0 0.0
0.0010087739130846222 -0.0003943762123053886 0.0 0.0009678171698121044 0.0 0.0
0.0005492595923190483 -9.810655108449135e-05 0.0 0.0010125205486492621 0.0 0.0
0.001540170401789407 -0.0003323763577279502 0.0 0.003507202833327547 0.0 0.0
0.0027628106594210357 -0.008228817869817934 0.0 0.0026710241896376343 0.0 0.0
0.002043831897104183 -0.006517799898997168 0.0 -0.002272040561077108 0.0 0.0
0.0011292470188682118 -0.0003358580588856835 0.0 -0.0031506014014785924 0.0 0.0
0.0003932724489499403 -6.314333792883491e-05 0.0 -0.001358303859863403 0.0 0.0
0.0007820432757483527 -0.00027668965603792 0.0 -0.001235982867323427 0.0 0.0
0.0011854523222614825 -0.0004930459997322669 0.0 -0.0013281504101433658 0.0 0.0
0.0016411414634263809 -0.0006951130501239563 0.0 -0.0013491616211127567 0.0 0.0
0.0023960978703354337 -0.0011146999208248747 0.0 -0.001464529076655534 0.0 0.0
0.0036893061497235338 -0.0020708736820340802 0.0 -0.0019509690187640332 0.0 0.0
0.005561141211947457 -0.003665057350838847 0.0 -0.0028487343927240697 0.0 0.0
0.007911983543041007 -0.005764183748758088 0.0 -0.003884599089847704 0.0 0.0
0.010685867900840099 -0.008300690585551223 0.0 -0.004923935274052949 0.0 0.0
0.013926752203567417 -0.011301945823175787 0.0 -0.005955138720448902 0.0 0.0
0.0177545141422539 -0.01488187122009028 0.0 -0.0070206461121024594 0.0 0.0
0.0223405263711514 -0.019234279292017466 0.0 -0.008241962946606219 0.0 0.0
0.027823118593445984 -0.024513340471027704 0.0 -0.009704629652014622 0.0 0.0
0.03420110702362465 -0.030730281795954162 0.0 -0.011308787437084009 0.0 0.0
0.041278622388984484 -0.03769525883120982 0.0 -0.012729205637570528 0.0 0.0
0.04864495427914363 -0.04500188069983978 0.0 -0.013428422108712411 0.0 0.0
0.05560959802026393 -0.05198235831807465 0.0 -0.012598357335800404 0.0 0.0
0.061191227428783815 -0.05767353176037031 0.0 -0.009194354476109548 0.0 0.0
0.06349737581848568 -0.06091244455559798 0.0 1.3757224526234069e-14 0.0 0.0
0.06119122742877646 -0.05767353176036383 0.0 0.009194354476139248 0.0 0.0
0.05560959802025124 -0.05198235831805956 0.0 0.012598357335829521 0.0 0.0
0.04864495427912798 -0.04500188069982691 0.0 0.01342842210873067 0.0 0.0
0.04127862238896592 -0.03769525883119353 0.0 0.012729205637574926 0.0 0.0
0.034201107023604266 -0.030730281795936606 0.0 0.01130878743707993 0.0 0.0
0.027823118593425476 -0.024513340471009355 0.0 0.009704629652009885 0.0 0.0
0.022340526371131514 -0.01923427929199763 0.0 0.008241962946602888 0.0 0.0
0.017754514142233883 -0.014881871220069072 0.0 0.0070206461120974045 0.0 0.0
0.01392675220354844 -0.011301945823155768 0.0 0.00595513872044164 0.0 0.0
0.010685867900823317 -0.008300690585536006 0.0 0.0049239352740434545 0.0 0.0
0.007911983543026536 -0.005764183748746876 0.0 0.0038845990898395567 0.0 0.0
0.005561141211935938 -0.0036650573508270378 0.0 0.00284873439271758 0.0 0.0
0.0036893061497157075 -0.002070873682028576 0.0 0.0019509690187605126 0.0 0.0
0.0023960978703311984 -0.001114699920822717 0.0 0.0014645290766535444 0.0 0.0
0.001641141463424615 -0.0006951130501224926 0.0 0.0013491616211106 0.0 0.0
0.0011854523222607533 -0.0004930459997312364 0.0 0.0013281504101416161 0.0 0.0
0.0007820432757481105 -0.0002766896560386993 0.0 0.0012359828673214794 0.0 0.0
0.00039327244894985116 -6.314333792877332e-05 0.0 0.0013583038598611306 0.0 0.0
0.0011292470188652933 -0.0003358580588846037 0.0 0.0031506014014713577 0.0 0.0
0.0020438318970984696 -0.0065177998989842095 0.0 0.002272040561071946 0.0 0.0
0.0014930726672807326 -0.005093071466164911 0.0 -0.0019023615092041328 0.0 0.0
0.0008181472205997685 -0.00034657862932233453 0.0 -0.002829918824009233 0.0 0.0
0.0002675759649143649 -4.448619551355631e-05 0.0 -0.0016464423727968569 0.0 0.0
0.0005716414120176937 -0.00017396258865461217 0.0 -0.0014914849426050218 0.0 0.0
0.000926907217924677 -0.00037413195282283077 0.0 -0.0015640889213610005 0.0 0.0
0.0013058731806373349 -0.0005589762946451813 0.0 -0.0016352894661599343 0.0 0.0
0.0018680244625460265 -0.0008226406245169041 0.0 -0.001705807020173229 0.0 0.0
0.002830463307106426 -0.0014493834743483356 0.0 -0.002051815952297765 0.0 0.0
0.004290373889723943 -0.002607676765048552 0.0 -0.0028064807445118433 0.0 0.0
0.0061964634951157975 -0.004261056368574949 0.0 -0.0038615356408091966 0.0 0.0
0.00845203826270888 -0.006288450552959726 0.0 -0.004956912487826678 0.0 0.0
0.011052757662324133 -0.008670593176996663 0.0 -0.0060274542045860345 0.0 0.0
0.0140979515644768 -0.011492623861238917 0.0 -0.007110981614204984 0.0 0.0
0.017736324582360703 -0.0149205090008118 0.0 -0.008322573076271537 0.0 0.0
0.022101773105059598 -0.01910084920426477 0.0 -0.009736577022900367 0.0 0.0
0.027240104118600315 -0.024090754462017604 0.0 -0.011307033852200455 0.0 0.0
0.03304677549585934 -0.029779082364201008 0.0 -0.012730516457369149 0.0 0.0
0.039247170841166 -0.03589711459760338 0.0 -0.013516193151783441 0.0 0.0
0.04538010503727307 -0.042014063931546664 0.0 -0.012925783119476184 0.0 0.0
0.05066587247163588 -0.047405892943980246 0.0 -0.009773567225113975 0.0 0.0
0.052973513914872365 -0.05092952594297051 0.0 1.2629654266849144e-14 0.0 0.0
0.050665872471629375 -0.04740589294397544 0.0 0.009773567225142082 0.0 0.0
0.045380105037262336 -0.04201406393153688 0.0 0.012925783119506755 0.0 0.0
0.03924717084115304 -0.03589711459759273 0.0 0.01351619315179969 0.0 0.0
0.033046775495844186 -0.029779082364187207 0.0 0.012730516457372503 0.0 0.0
0.02724010411858356 -0.024090754462004222 0.0 0.011307033852196145 0.0 0.0
0.022101773105043077 -0.019100849204250623 0.0 0.009736577022895727 0.0 0.0
0.01773632458234509 -0.014920509000799432 0.0 0.00832257307626787 0.0 0.0
0.01409795156446114 -0.0114926238612237 0.0 0.007110981614200981 0.0 0.0
0.0110527576623091 -0.008670593176982018 0.0 0.006027454204578674 0.0 0.0
0.008452038262695414 -0.00628845055294806 0.0 0.004956912487816178 0.0 0.0
0.00619646349510424 -0.004261056368565645 0.0 0.003861535640799536 0.0 0.0
0.004290373889715121 -0.0026076767650402926 0.0 0.002806480744506754 0.0 0.0
0.0028304633071006627 -0.0014493834743438596 0.0 0.0020518159522943573 0.0 0.0
0.0018680244625430189 -0.0008226406245150019 0.0 0.0017058070201719385 0.0 0.0
0.001305873180636214 -0.000558976294645421 0.0 0.0016352894661587833 0.0 0.0
0.0009269072179241826 -0.0003741319528214455 0.0 0.0015640889213593234 0.0 0.0
0.0005716414120174679 -0.00017396258865501782 0.0 0.0014914849426024967 0.0 0.0
0.00026757596491417643 -4.4486195513220516e-05 0.0 0.0016464423727940612 0.0 0.0
0.0008181472205975883 -0.00034657862932176836 0.0 0.0028299188240034473 0.0 0.0
0.0014930726672766456 -0.005093071466154702 0.0 0.0019023615092008306 0.0 0.0
0.0010693824949131385 -0.00391953491933618 0.0 -0.0016338243831271653 0.0 0.0
0.0005768146159894475 -0.0003638062239386255 0.0 -0.0025465939269108005 0.0 0.0
0.0001573325145309612 -2.6775707567010686e-05 0.0 -0.0018714290214227407 0.0 0.0
0.0003742489114583679 -8.419700135211404e-05 0.0 -0.0017159230684888065 0.0 0.0
0.0006666351400679843 -0.00025233449997112207 0.0 -0.0017679355703582307 0.0 0.0
0.0009772048039651457 -0.00041855233036470726 0.0 -0.001874877092986874 0.0 0.0
0.0013820600889714234 -0.0005934539202261904 0.0 -0.001952638823046797 0.0 0.0
0.0020450744245856475 -0.0009591646730931283 0.0 -0.0021543472665071766 0.0 0.0
0.0030876045584826177 -0.0016872225100542759 0.0 -0.002668724258911203 0.0 0.0
0.004510467941196098 -0.002846130320977498 0.0 -0.0035413048103437573 0.0 0.0
0.006233751246100667 -0.004343520471932097 0.0 -0.004596012060539141 0.0 0.0
0.008207658985632275 -0.0061117394503827135 0.0 -0.005644063405523566 0.0 0.0
0.010487996240528897 -0.008188830909100065 0.0 -0.0066935195811741125 0.0 0.0
0.013194663361900203 -0.010709599284865737 0.0 -0.007818922210604567 0.0 0.0
0.01645384106584253 -0.013802313473265476 0.0 -0.009099238101012052 0.0 0.0
0.020341790588607078 -0.01754939914927355 0.0 -0.010500862587841218 0.0 0.0
0.024833311815559186 -0.021926704582970614 0.0 -0.011829422933662417 0.0 0.0
0.029798412004642297 -0.02678860165646963 0.0 -0.012640369463432572 0.0 0.0
0.035007346694323885 -0.03192981956938829 0.0 -0.012363881639230188 0.0 0.0
0.03994933155243231 -0.03695675193999985 0.0 -0.00988237419048561 0.0 0.0
0.042262193157087194 -0.04083885989716884 0.0 1.0449974219284286e-14 0.0 0.0
0.039949331552427435 -0.036956751939994245 0.0 0.009882374190509986 0.0 0.0
0.03500734669431513 -0.031929819569380485 0.0 0.012363881639258726 0.0 0.0
0.029798412004631715 -0.026788601656461724 0.0 0.01264036946344848 0.0 0.0
0.024833311815547432 -0.02192670458295622 0.0 0.011829422933664084 0.0 0.0
0.02034179058859409 -0.01754939914926272 0.0 0.010500862587836465 0.0 0.0
0.01645384106582989 -0.013802313473255312 0.0 0.009099238101007606 0.0 0.0
0.013194663361889026 -0.010709599284857079 0.0 0.007818922210601209 0.0 0.0
0.010487996240517631 -0.00818883090908996 0.0 0.006693519581169465 0.0 0.0
0.008207658985620968 -0.006111739450374124 0.0 0.00564406340551552 0.0 0.0
0.006233751246090613 -0.004343520471924265 0.0 0.004596012060529687 0.0 0.0
0.0045104679411877464 -0.0028461303209712614 0.0 0.003541304810335844 0.0 0.0
0.003087604558476477 -0.001687222510049713 0.0 0.0026687242589072298 0.0 0.0
0.0020450744245819005 -0.0009591646730903217 0.0 0.002154347266504733 0.0 0.0
0.0013820600889696117 -0.000593453920225191 0.0 0.00195263882304523 0.0 0.0
0.0009772048039644573 -0.00041855233036497137 0.0 0.0018748770929850611 0.0 0.0
0.0006666351400676245 -0.00025233449997030555 0.0 0.0017679355703559304 0.0 0.0
0.0003742489114580758 -8.419700135225897e-05 0.0 0.0017159230684870414 0.0 0.0
0.00015733251453076697 -2.6775707566357336e-05 0.0 0.0018714290214200853 0.0 0.0
0.0005768146159880406 -0.0003638062239388085 0.0 0.0025465939269062854 0.0 0.0
0.0010693824949104648 -0.003919534919328486 0.0 0.0016338243831248147 0.0 0.0
0.0007617803738210476 -0.003004746466592056 0.0 -0.0014981421322670962 0.0 0.0
0.0003908118065927014 -0.00038468418405841455 0.0 -0.0023203680759870857 0.0 0.0
5.104485782398296e-05 -2.58690696047283e-06 0.0 -0.002035203001704575 0.0 0.0
0.00018769577045264543 -4.411257942762206e-06 0.0 -0.0018980029492273957 0.0 0.0
0.0004075209958669927 -0.00013214926518894475 0.0 -0.0019327146485703574 0.0 0.0
0.0006410078992027904 -0.0002661711774711596 0.0 -0.0020549093109384366 0.0 0.0
0.0009205558127834421 -0.0003955219399850991 0.0 -0.0021834321828556537 0.0 0.0
0.0013345165231151352 -0.0005906163032758441 0.0 -0.002306920664729295 0.0 0.0
0.001978046746222085 -0.0009635325368590392 0.0 -0.002564907413032927 0.0 0.0
0.002897568364311436 -0.0016146534527942955 0.0 -0.0030724993441815503 0.0 0.0
0.004057310015395799 -0.0025399326845634788 0.0 -0.003875898989462414 0.0 0.0
0.005396822753410223 -0.0036813449413560404 0.0 -0.00477550974420527 0.0 0.0
0.006926575888227136 -0.0050188988527556195 0.0 -0.005729588612449219 0.0 0.0
0.008726314303271563 -0.006651490455232303 0.0 -0.0067277021477819875 0.0 0.0
0.010895899825158902 -0.008671003402616957 0.0 -0.007798440530630776 0.0 0.0
0.013526277832027539 -0.011169529861432237 0.0 -0.008958605512397142 0.0 0.0
0.016673836739277338 -0.01419583753199317 0.0 -0.010103973435676657 0.0 0.0
0.020326702662275493 -0.017742410589168332 0.0 -0.010901168120077466 0.0 0.0
0.02446138573790101 -0.021761336160689492 0.0 -0.010848030529154729 0.0 0.0
0.028942942099205587 -0.026240616843311772 0.0 -0.009334115683572666 0.0 0.0
0.031235186416594896 -0.030527838370718714 0.0 8.69573510420274e-15 0.0 0.0
0.028942942099202368 -0.026240616843308074 0.0 0.00933411568359439 0.0 0.0
0.024461385737895195 -0.021761336160679236 0.0 0.01084803052917882 0.0 0.0
0.020326702662268006 -0.017742410589161785 0.0 0.010901168120090962 0.0 0.0
0.016673836739269133 -0.01419583753198453 0.0 0.010103973435676457 0.0 0.0
0.013526277832018709 -0.011169529861424596 0.0 0.008958605512390862 0.0 0.0
0.010895899825150712 -0.008671003402609307 0.0 0.007798440530627334 0.0 0.0
0.008726314303264737 -0.006651490455224612 0.0 0.006727702147780941 0.0 0.0
0.006926575888220151 -0.005018898852748703 0.0 0.005729588612445876 0.0 0.0
0.005396822753403183 -0.003681344941351643 0.0 0.004775509744198673 0.0 0.0
0.004057310015389469 -0.002539932684557473 0.0 0.0038758989894548956 0.0 0.0
0.0028975683643062927 -0.001614653452790521 0.0 0.0030724993441765148 0.0 0.0
0.0019780467462186223 -0.0009635325368579563 0.0 0.0025649074130311878 0.0 0.0
0.0013345165231128948 -0.0005906163032735043 0.0 0.002306920664727878 0.0 0.0
0.0009205558127823388 -0.0003955219399854798 0.0 0.0021834321828541454 0.0 0.0
0.0006410078992024214 -0.00026617117747017386 0.0 0.0020549093109362335 0.0 0.0
0.00040752099586680924 -0.00013214926518880939 0.0 0.0019327146485682272 0.0 0.0
0.00018769577045238663 -4.411257942770373e-06 0.0 0.001898002949225187 0.0 0.0
5.104485782364444e-05 -2.586906959634621e-06 0.0 0.00203520300170266 0.0 0.0
0.0003908118065916605 -0.00038468418405916325 0.0 0.0023203680759841198 0.0 0.0
0.0007617803738192004 -0.0030047464665866196 0.0 0.0014981421322660178 0.0 0.0
0.0005499360506428161 -0.002324589772448406 0.0 -0.0014337039725647904 0.0 0.0
0.0002531277221624439 -0.0004012240090549738 0.0 -0.0021645744074871936 0.0 0.0
-5.022973328823097e-05 2.690242632173286e-05 0.0 -0.002140163212591448 0.0 0.0
9.861057068094515e-06 6.830017069131981e-05 0.0 -0.002031540240638822 0.0 0.0
0.00015176503757633977 -1.4818568754583414e-05 0.0 -0.002051331477262193 0.0 0.0
0.0002989093489929036 -0.000108283841603921 0.0 -0.0021730302529837067 0.0 0.0
0.0004561916637921394 -0.00019317706208964313 0.0 -0.002335802080455812 0.0 0.0
0.0006647894045602574 -0.0002902761437979331 0.0 -0.002479467745419122 0.0 0.0
0.0009727612430357859 -0.0004354098984499867 0.0 -0.0025921140791173606 0.0 0.0
0.001404977598667612 -0.0006895966959910826 0.0 -0.0027799222533076567 0.0 0.0
0.001971674912005226 -0.0010756182839889 0.0 -0.003171431440759779 0.0 0.0
0.0026469263126124233 -0.001583368570807333 0.0 -0.0037562655869394675 0.0 0.0
0.0034177207137684102 -0.002189026125211338 0.0 -0.004463492571163383 0.0 0.0
0.004328107477147822 -0.00294291963464662 0.0 -0.005273045533919793 0.0 0.0
0.005429884675163845 -0.003888047424487385 0.0 -0.006179247909813903 0.0 0.0
0.00680453845111979 -0.005120794012928474 0.0 -0.00720415506301389 0.0 0.0
0.008572070657404179 -0.0067499871371401385 0.0 -0.008277783344108402 0.0 0.0
0.010872731358318942 -0.008922944787198808 0.0 -0.009126369807209196 0.0 0.0
0.013792822329677767 -0.011730654932454163 0.0 -0.009196022869022283 0.0 0.0
0.01755248813577847 -0.015295839711143365 0.0 -0.008134748289207206 0.0 0.0
0.019693654683943573 -0.01989319844021217 0.0 6.338679581219253e-15 0.0 0.0
0.017552488135776995 -0.015295839711142789 0.0 0.008134748289225927 0.0 0.0
0.013792822329674263 -0.011730654932446018 0.0 0.009196022869041708 0.0 0.0
0.01087273135831452 -0.008922944787193354 0.0 0.009126369807217875 0.0 0.0
0.008572070657399986 -0.006749987137141705 0.0 0.008277783344104873 0.0 0.0
0.006804538451115516 -0.005120794012923695 0.0 0.007204155063008557 0.0 0.0
0.005429884675160238 -0.0038880474244841244 0.0 0.006179247909811182 0.0 0.0
0.004328107477145343 -0.0029429196346435825 0.0 0.005273045533918119 0.0 0.0
0.0034177207137655987 -0.0021890261252089445 0.0 0.004463492571160381 0.0 0.0
0.0026469263126094773 -0.0015833685708074685 0.0 0.0037562655869342997 0.0 0.0
0.0019716749120027304 -0.0010756182839866393 0.0 0.003171431440753776 0.0 0.0
0.001404977598665628 -0.0006895966959887996 0.0 0.0027799222533044757 0.0 0.0
0.0009727612430344484 -0.0004354098984497215 0.0 0.0025921140791161862 0.0 0.0
0.000664789404559392 -0.00029027614379506246 0.0 0.0024794677454178246 0.0 0.0
0.0004561916637917475 -0.0001931770620894374 0.0 0.002335802080453896 0.0 0.0
0.0002989093489927159 -0.00010828384160478632 0.0 0.0021730302529811172 0.0 0.0
0.00015176503757619503 -1.4818568753693767e-05 0.0 0.0020513314772597165 0.0 0.0
9.861057068119903e-06 6.830017069165759e-05 0.0 0.0020315402406359748 0.0 0.0
-5.022973328814732e-05 2.690242632234965e-05 0.0 0.002140163212589608 0.0 0.0
0.00025312772216198057 -0.00040122400905547853 0.0 0.0021645744074852446 0.0 0.0
0.0005499360506418778 -0.0023245897724450734 0.0 0.0014337039725648474 0.0 0.0
0.0004011832604712804 -0.0018202417549828846 0.0 -0.0013803556775717615 0.0 0.0
0.00015000346958732118 -0.0003990226270075193 0.0 -0.0020426175020589465 0.0 0.0
-0.00014416280229347602 5.606130440114774e-05 0.0 -0.0021928769781241852 0.0 0.0
-0.0001597882471934117 0.00013644229139408794 0.0 -0.0021129119019349467 0.0 0.0
-9.913607836675557e-05 9.856207637854799e-05 0.0 -0.0021183815716738254 0.0 0.0
-4.488139446591559e-05 5.005027541205874e-05 0.0 -0.002225430318357295 0.0 0.0
-1.4614796578318328e-05 1.4525598649041245e-05 0.0 -0.002391002039264558 0.0 0.0
-2.7624000930869143e-06 2.578916867174107e-06 0.0 -0.0025533498554190584 0.0 0.0
3.6970863424646606e-07 -6.827193684434194e-07 0.0 -0.0026479558604377115 0.0 0.0
8.317396937110603e-07 -5.423125908521041e-07 0.0 -0.002737323927295578 0.0 0.0
5.959597503928376e-07 -7.545319077267127e-07 0.0 -0.002892796549011898 0.0 0.0
-1.2846813637614157e-06 1.1244781266642217e-06 0.0 -0.0032786025890935108 0.0 0.0
-6.9589246429928656e-06 5.595990232112348e-06 0.0 -0.0038062027423816313 0.0 0.0
-1.4461812250394558e-05 1.1573364581692899e-05 0.0 -0.004492370517285907 0.0 0.0
-5.220143986588827e-06 1.1334639578877514e-05 0.0 -0.005356093173355815 0.0 0.0
9.879147763991046e-05 -5.8077168054035985e-05 0.0 -0.0064010318548958604 0.0 0.0
0.00048276254675166496 -0.00035498769080549513 0.0 -0.007599726577468766 0.0 0.0
0.0014306221239487518 -0.0011255193559142796 0.0 -0.008823698726232471 0.0 0.0
0.003176135723626253 -0.0026285110596845603 0.0 -0.009792600315763624 0.0 0.0
0.005896909143338128 -0.004814298691269651 0.0 -0.009856757010900474 0.0 0.0
0.007527233191422669 -0.00964810505664223 0.0 6.0658943146219e-15 0.0 0.0
0.005896909143338145 -0.004814298691268926 0.0 0.009856757010914804 0.0 0.0
0.0031761357236252674 -0.00262851105968244 0.0 0.009792600315775044 0.0 0.0
0.00143062212394807 -0.0011255193559119021 0.0 0.008823698726234877 0.0 0.0
0.0004827625467524473 -0.00035498769081086323 0.0 0.007599726577464444 0.0 0.0
9.879147764085328e-05 -5.807716805488356e-05 0.0 0.006401031854892877 0.0 0.0
-5.220143985890059e-06 1.1334639580312997e-05 0.0 0.005356093173352408 0.0 0.0
-1.446181224884572e-05 1.1573364582846381e-05 0.0 0.004492370517283562 0.0 0.0
-6.95892464119824e-06 5.595990229918587e-06 0.0 0.003806202742377784 0.0 0.0
-1.2846813623449327e-06 1.124478126019948e-06 0.0 0.0032786025890888734 0.0 0.0
5.959597517754122e-07 -7.545319095654925e-07 0.0 0.0028927965490074463 0.0 0.0
8.317396947720064e-07 -5.423125919217102e-07 0.0 0.0027373239272937503 0.0 0.0
3.697086347900308e-07 -6.827193688875222e-07 0.0 0.0026479558604369704 0.0 0.0
-2.76240009280265e-06 2.5789168677346735e-06 0.0 0.0025533498554177374 0.0 0.0
-1.4614796577967514e-05 1.4525598649905124e-05 0.0 0.002391002039261743 0.0 0.0
-4.488139446548828e-05 5.005027541096047e-05 0.0 0.0022254303183545034 0.0 0.0
-9.913607836652523e-05 9.856207637937806e-05 0.0 0.0021183815716712064 0.0 0.0
-0.00015978824719333924 0.00013644229139384484 0.0 0.0021129119019323486 0.0 0.0
-0.00014416280229346786 5.606130440134005e-05 0.0 0.0021928769781222606 0.0 0.0
0.00015000346958703541 -0.00039902262700756643 0.0 0.0020426175020568462 0.0 0.0
0.00040118326047068457 -0.0018202417549807747 0.0 0.0013803556775713402 0.0 0.0
0.000297376581990709 -0.0014228389994767891 0.0 -0.0012929497057760683 0.0 0.0
7.165117974663458e-05 -0.00037540545374441844 0.0 -0.001922190506567134 0.0 0.0
-0.00023138103815081715 8.367296310355217e-05 0.0 -0.0021945457555055965 0.0 0.0
-0.0003211432719904481 0.00020064560375228105 0.0 -0.002140940559075538 0.0 0.0
-0.0003434682349519784 0.0002067317309725533 0.0 -0.0021299901202723234 0.0 0.0
-0.00038452382118723855 0.00020608539386105526 0.0 -0.0022099445251324615 0.0 0.0
-0.00048466166076562066 0.00022184966258585325 0.0 -0.0023509335698363508 0.0 0.0
-0.0006707822475888034 0.00029524493774164075 0.0 -0.002484204748056529 0.0 0.0
-0.0009718074486937966 0.0004340559765736062 0.0 -0.0025931069026650082 0.0 0.0
-0.001403071814233409 0.0006880886349090921 0.0 -0.002778770918482146 0.0 0.0
-0.00197039352155356 0.0010745142589242559 0.0 -0.003169290927378782 0.0 0.0
-0.0026496243036894435 0.0015858278470875496 0.0 -0.003755161059838103 0.0 0.0
-0.0034313478530177714 0.0022006565149772827 0.0 -0.004458029348057749 0.0 0.0
-0.004357562828650187 0.0029699934648019966 0.0 -0.005260511238261733 0.0 0.0
-0.005440828807927485 0.003914177681325208 0.0 -0.006187219401354229 0.0 0.0
-0.00661572153638498 0.005004625735401574 0.0 -0.007312758671589446 0.0 0.0
-0.007676776061499094 0.006045203194522262 0.0 -0.00871369918367244 0.0 0.0
-0.008254481939854208 0.006684925102005591 0.0 -0.010439455247385631 0.0 0.0
-0.007872862483233522 0.006461589778734405 0.0 -0.01234684805748001 0.0 0.0
-0.005506518766970192 0.00471689328010553 0.0 -0.013113576774486956 0.0 0.0
-0.0036338810640085717 -0.0006920159560369932 0.0 7.382983113757291e-15 0.0 0.0
-0.005506518766970661 0.004716893280107564 0.0 0.01311357677450056 0.0 0.0
-0.007872862483231956 0.006461589778735026 0.0 0.012346848057491713 0.0 0.0
-0.00825448193985 0.006684925102002652 0.0 0.010439455247389028 0.0 0.0
-0.007676776061492667 0.006045203194517447 0.0 0.008713699183668069 0.0 0.0
-0.006615721536379321 0.005004625735395122 0.0 0.007312758671585665 0.0 0.0
-0.005440828807922727 0.003914177681321665 0.0 0.006187219401350471 0.0 0.0
-0.004357562828644263 0.002969993464800478 0.0 0.0052605112382578595 0.0 0.0
-0.003431347853011367 0.002200656514970837 0.0 0.0044580293480523565 0.0 0.0
-0.002649624303683256 0.001585827847085002 0.0 0.0037551610598311365 0.0 0.0
-0.001970393521547988 0.0010745142589175184 0.0 0.003169290927373179 0.0 0.0
-0.0014030718142292703 0.0006880886349065821 0.0 0.002778770918478906 0.0 0.0
-0.0009718074486911451 0.00043405597657075734 0.0 0.0025931069026646054 0.0 0.0
-0.0006707822475871672 0.00029524493774086354 0.0 0.0024842047480551272 0.0 0.0
-0.00048466166076476446 0.00022184966258596963 0.0 0.002350933569834123 0.0 0.0
-0.00038452382118665514 0.00020608539386164152 0.0 0.002209944525130303 0.0 0.0
-0.0003434682349515885 0.0002067317309725708 0.0 0.0021299901202694155 0.0 0.0
-0.00032114327199022117 0.0002006456037522201 0.0 0.0021409405590730956 0.0 0.0
-0.00023138103815075167 8.36729631036192e-05 0.0 0.002194545755503985 0.0 0.0
7.165117974667335e-05 -0.00037540545374433517 0.0 0.0019221905065652909 0.0 0.0
0.0002973765819907928 -0.0014228389994751136 0.0 0.001292949705774087 0.0 0.0
0.00021216786375827473 -0.0010833529887594937 0.0 -0.0011628897236238011 0.0 0.0
4.596763753065343e-06 -0.00033555731777441204 0.0 -0.001788524139301135 0.0 0.0
-0.00031270387428730743 0.00011141211599909021 0.0 -0.002144138641558051 0.0 0.0
-0.00047447523146449907 0.0002606664141463178 0.0 -0.002115032020252578 0.0 0.0
-0.000579763062921955 0.00030914090706905443 0.0 -0.0020841132324584803 0.0 0.0
-0.0007173214408169906 0.0003559396659053325 0.0 -0.0021279979448751846 0.0 0.0
-0.0009460428485439498 0.00042367459905457816 0.0 -0.002214970289798668 0.0 0.0
-0.0013392785399109805 0.0005950755194334156 0.0 -0.0023165262735672203 0.0 0.0
-0.0019767812761805714 0.0009615332608175575 0.0 -0.00256511844376531 0.0 0.0
-0.0028954208019531607 0.0016124544643374673 0.0 -0.00306924788052612 0.0 0.0
-0.004056531193743512 0.002539626464258689 0.0 -0.003874097252103254 0.0 0.0
-0.005399110319690264 0.003683887745729723 0.0 -0.0047747477446101185 0.0 0.0
-0.006937598053324624 0.005028966519669348 0.0 -0.005717411794180619 0.0 0.0
-0.008753590392740694 0.006678904499076337 0.0 -0.006691484585825175 0.0 0.0
-0.010913370777956987 0.008700777160764391 0.0 -0.007774380210779268 0.0 0.0
-0.013373318985302054 0.011074601294365338 0.0 -0.009135555665571045 0.0 0.0
-0.01589023203876843 0.013571306886391975 0.0 -0.010978048222955838 0.0 0.0
-0.017980352179882815 0.01569819619101781 0.0 -0.013397986072107154 0.0 0.0
-0.0187289206376694 0.01659421965356263 0.0 -0.015892989865038513 0.0 0.0
-0.016591966223874204 0.014598804561814664 0.0 -0.016398679736557786 0.0 0.0
-0.014568755040730567 0.007521628144957149 0.0 8.537007906150862e-15 0.0 0.0
-0.016591966223873725 0.014598804561814303 0.0 0.016398679736577854 0.0 0.0
-0.018728920637665396 0.016594219653562805 0.0 0.015892989865055943 0.0 0.0
-0.017980352179875033 0.0156981961910087 0.0 0.013397986072114395 0.0 0.0
-0.01589023203875761 0.013571306886379964 0.0 0.010978048222953325 0.0 0.0
-0.013373318985291486 0.01107460129435819 0.0 0.009135555665565082 0.0 0.0
-0.01091337077794788 0.008700777160752708 0.0 0.007774380210773892 0.0 0.0
-0.008753590392730742 0.006678904499067114 0.0 0.006691484585820629 0.0 0.0
-0.006937598053313775 0.005028966519658789 0.0 0.005717411794175048 0.0 0.0
-0.005399110319679712 0.003683887745719883 0.0 0.004774747744601661 0.0 0.0
-0.004056531193734027 0.002539626464249623 0.0 0.0038740972520946333 0.0 0.0
-0.002895420801945807 0.0016124544643329887 0.0 0.003069247880519988 0.0 0.0
-0.0019767812761758204 0.0009615332608138719 0.0 0.0025651184437640025 0.0 0.0
-0.0013392785399080828 0.0005950755194312139 0.0 0.002316526273565933 0.0 0.0
-0.0009460428485421506 0.0004236745990544943 0.0 0.0022149702897963754 0.0 0.0
-0.0007173214408160357 0.00035593966590551 0.0 0.002127997944873032 0.0 0.0
-0.0005797630629212829 0.00030914090706906657 0.0 0.0020841132324566822 0.0 0.0
-0.0004744752314639494 0.00026066641414706056 0.0 0.0021150320202506677 0.0 0.0
-0.00031270387428706706 0.00011141211599890262 0.0 0.0021441386415559736 0.0 0.0
4.5967637529995425e-06 -0.0003355573177742152 0.0 0.001788524139299791 0.0 0.0
0.00021216786375800114 -0.0010833529887583162 0.0 0.001162889723621956 0.0 0.0
0.00013667520885455255 -0.0007927289735170746 0.0 -0.0010181068435253734 0.0 0.0
-5.708126489150756e-05 -0.00028223551328057905 0.0 -0.0016315639800709829 0.0 0.0
-0.00039011988861309887 0.00014041065781805645 0.0 -0.0020426505742192316 0.0 0.0
-0.0006201018961751707 0.000316675439665607 0.0 -0.002034822988236838 0.0 0.0
-0.0008070670822644047 0.00040474120029523116 0.0 -0.001982080561839508 0.0 0.0
-0.0010377486234152283 0.0004960150946696026 0.0 -0.0019743022570715826 0.0 0.0
-0.0014029852071292604 0.0006212134531977158 0.0 -0.0019979961210585388 0.0 0.0
-0.0020486327425167745 0.00096196765799357 0.0 -0.0021661622535290924 0.0 0.0
-0.003085328772216302 0.001684046596523236 0.0 -0.0026660404623904694 0.0 0.0
-0.004508711726763372 0.0028439709847766378 0.0 -0.0035368123639924164 0.0 0.0
-0.006233872504040409 0.004344263677516378 0.0 -0.0045950852341563025 0.0 0.0
-0.00820905365751425 0.006113963793711246 0.0 -0.005643349300920324 0.0 0.0
-0.010492869829952981 0.008193577103863002 0.0 -0.006677049038092957 0.0 0.0
-0.013210656796659276 0.01072423906942886 0.0 -0.007755686527849725 0.0 0.0
-0.016471488748230765 0.013824988515514343 0.0 -0.009007844641549669 0.0 0.0
-0.020253844369406228 0.0175039996856062 0.0 -0.010650094289832861 0.0 0.0
-0.024278398731140526 0.021507580313398514 0.0 -0.013032620408318278 0.0 0.0
-0.027834191514692214 0.025158580066095004 0.0 -0.01629495653532257 0.0 0.0
-0.029557331621153746 0.02708673608952267 0.0 -0.01956098918625897 0.0 0.0
-0.027163430271268746 0.02507521211804013 0.0 -0.020633795088518942 0.0 0.0
-0.024584656165976833 0.015536919322268878 0.0 9.22525944524466e-15 0.0 0.0
-0.02716343027126686 0.025075212118037156 0.0 0.020633795088542135 0.0 0.0
-0.029557331621147785 0.027086736089517126 0.0 0.019560989186282705 0.0 0.0
-0.02783419151468082 0.025158580066083108 0.0 0.016294956535332944 0.0 0.0
-0.02427839873112564 0.021507580313382714 0.0 0.013032620408317642 0.0 0.0
-0.020253844369391823 0.01750399968559465 0.0 0.010650094289826828 0.0 0.0
-0.016471488748217206 0.013824988515500243 0.0 0.009007844641544447 0.0 0.0
-0.013210656796644878 0.010724239069415813 0.0 0.007755686527843607 0.0 0.0
-0.010492869829938039 0.0081935771038489 0.0 0.006677049038085966 0.0 0.0
-0.008209053657499464 0.006113963793697096 0.0 0.005643349300910412 0.0 0.0
-0.0062338725040269535 0.004344263677504477 0.0 0.004595085234144779 0.0 0.0
-0.004508711726752589 0.002843970984768969 0.0 0.003536812363983504 0.0 0.0
-0.0030853287722087466 0.0016840465965170266 0.0 0.002666040462386266 0.0 0.0
-0.0020486327425122746 0.0009619676579909055 0.0 0.002166162253527225 0.0 0.0
-0.0014029852071269164 0.0006212134531973044 0.0 0.0019979961210565187 0.0 0.0
-0.001037748623413831 0.0004960150946689011 0.0 0.0019743022570702508 0.0 0.0
-0.0008070670822635458 0.00040474120029436456 0.0 0.0019820805618384766 0.0 0.0
-0.0006201018961746606 0.0003166754396662496 0.0 0.0020348229882348736 0.0 0.0
-0.00039011988861266335 0.00014041065781770977 0.0 0.002042650574217069 0.0 0.0
-5.708126489129563e-05 -0.0002822355132804963 0.0 0.0016315639800697822 0.0 0.0
0.0001366752088545256 -0.0007927289735162206 0.0 0.0010181068435242081 0.0 0.0
6.86475788190799e-05 -0.0005474206878450995 0.0 -0.0008678225889390096 0.0 0.0
-0.00011533638669417951 -0.00021978456564981894 0.0 -0.0014508268797478157 0.0 0.0
-0.0004650574155897804 0.00017176780905987533 0.0 -0.0018913547102481915 0.0 0.0
-0.0007588492164390608 0.0003687763570228527 0.0 -0.0019007300836951326 0.0 0.0
-0.0010228091794788465 0.0004929496150616939 0.0 -0.0018236322061686433 0.0 0.0
-0.001347495927191951 0.0006217551644347605 0.0 -0.0017497039895835588 0.0 0.0
-0.0018833286545038856 0.0008478086896652989 0.0 -0.0017576321445738024 0.0 0.0
-0.002830902625065918 0.0014495410757406537 0.0 -0.0020617479517244515 0.0 0.0
-0.004287967904859561 0.0026039153785784213 0.0 -0.002800957111887244 0.0 0.0
-0.006195766926393282 0.004259980033765117 0.0 -0.003857151307232103 0.0 0.0
-0.00845314797437865 0.006290272089268852 0.0 -0.0049564584830929055 0.0 0.0
-0.011052966270828479 0.008672435372188517 0.0 -0.006026853298186827 0.0 0.0
-0.014093888355737796 0.011490165170896679 0.0 -0.007093180299349953 0.0 0.0
-0.017730662863392525 0.01491289162934958 0.0 -0.008242075810780658 0.0 0.0
-0.0221069814368745 0.019100655136508875 0.0 -0.009582095161481107 0.0 0.0
-0.02723424707569183 0.024101178970180798 0.0 -0.011377151806230203 0.0 0.0
-0.0327772919818087 0.029629512369388822 0.0 -0.014034328201988583 0.0 0.0
-0.0377574448018816 0.03476397533062156 0.0 -0.017760929710911946 0.0 0.0
-0.04029418723825256 0.037635116195788375 0.0 -0.02178202039422211 0.0 0.0
-0.037346018285716834 0.03525903084701752 0.0 -0.023705653894609043 0.0 0.0
-0.03403870805444116 0.023282053998502878 0.0 1.1431827706687159e-14 0.0 0.0
-0.037346018285713156 0.035259030847014844 0.0 0.023705653894633836 0.0 0.0
-0.04029418723824392 0.03763511619578102 0.0 0.021782020394248328 0.0 0.0
-0.03775744480186755 0.034763975330607884 0.0 0.01776092971092608 0.0 0.0
-0.032777291981790635 0.029629512369372654 0.0 0.01403432820198899 0.0 0.0
-0.027234247075673297 0.024101178970162767 0.0 0.011377151806225106 0.0 0.0
-0.022106981436856896 0.019100655136494095 0.0 0.009582095161476073 0.0 0.0
-0.017730662863374182 0.014912891629331307 0.0 0.008242075810773923 0.0 0.0
-0.01409388835571853 0.0114901651708815 0.0 0.007093180299342918 0.0 0.0
-0.011052966270809768 0.00867243537217051 0.0 0.006026853298177455 0.0 0.0
-0.008453147974361721 0.006290272089251146 0.0 0.004956458483081302 0.0 0.0
-0.006195766926379389 0.004259980033752996 0.0 0.0038571513072232413 0.0 0.0
-0.00428796790484923 0.0026039153785703977 0.0 0.0028009571118822957 0.0 0.0
-0.0028309026250592432 0.0014495410757355857 0.0 0.0020617479517206355 0.0 0.0
-0.001883328654500307 0.0008478086896637664 0.0 0.001757632144571817 0.0 0.0
-0.0013474959271901547 0.0006217551644350763 0.0 0.001749703989582279 0.0 0.0
-0.001022809179477787 0.0004929496150609938 0.0 0.0018236322061675483 0.0 0.0
-0.000758849216438393 0.0003687763570227824 0.0 0.0019007300836932145 0.0 0.0
-0.00046505741558942046 0.00017176780905952933 0.0 0.001891354710246491 0.0 0.0
-0.00011533638669411307 -0.00021978456565006183 0.0 0.0014508268797461031 0.0 0.0
6.864757881891249e-05 -0.0005474206878443694 0.0 0.0008678225889381605 0.0 0.0
8.269809294699926e-06 -0.0003459443951157262 0.0 -0.0007142683748148192 0.0 0.0
-0.00017000476240280356 -0.00015272236173720027 0.0 -0.0012479832492961046 0.0 0.0
-0.0005379070017704333 0.00020556036638603062 0.0 -0.0016919959998558376 0.0 0.0
-0.0008909130404936003 0.00041734087142198973 0.0 -0.001713296704466794 0.0 0.0
-0.001226676781794985 0.0005724634939287695 0.0 -0.0016094734123586456 0.0 0.0
-0.0016596724526794944 0.0007448772764436304 0.0 -0.0014799717853400847 0.0 0.0
-0.0024050852175066238 0.0011342847571367603 0.0 -0.001512379703623984 0.0 0.0
-0.0036882806134979117 0.0020685880073098356 0.0 -0.0019557618066684385 0.0 0.0
-0.005559357028980636 0.0036622098878556523 0.0 -0.0028419306235691485 0.0 0.0
-0.007912731622644496 0.0057646864777571305 0.0 -0.0038809415353787072 0.0 0.0
-0.010687720539829157 0.008303193874496177 0.0 -0.0049235464495275185 0.0 0.0
-0.013925602484058046 0.011303108178583515 0.0 -0.005953984458088219 0.0 0.0
-0.017740394348814487 0.014871617151968722 0.0 -0.007002104535394536 0.0 0.0
-0.022307330209830428 0.019200473685182736 0.0 -0.008159434627563465 0.0 0.0
-0.027803098691599533 0.02447766566811444 0.0 -0.009526969603261558 0.0 0.0
-0.03425878469477934 0.030777116899754993 0.0 -0.011281035748187514 0.0 0.0
-0.04127889352395863 0.03779129505066439 0.0 -0.013834846617616445 0.0 0.0
-0.047638466956534356 0.044374441419854284 0.0 -0.017623605416057078 0.0 0.0
-0.0509072476049245 0.04812076966643741 0.0 -0.02224207477150068 0.0 0.0
-0.04735329464002384 0.04530485600049289 0.0 -0.02574189316781294 0.0 0.0
-0.043325671284824445 0.03098399612169011 0.0 1.215347267269351e-14 0.0 0.0
-0.047353294640018875 0.04530485600049103 0.0 0.02574189316784006 0.0 0.0
-0.05090724760491325 0.04812076966642669 0.0 0.022242074771526288 0.0 0.0
-0.047638466956517175 0.04437444141983756 0.0 0.01762360541607318 0.0 0.0
-0.0412788935239372 0.037791295050643346 0.0 0.01383484661761811 0.0 0.0
-0.034258784694757294 0.03077711689973455 0.0 0.011281035748183977 0.0 0.0
-0.027803098691577863 0.024477665668096598 0.0 0.009526969603256588 0.0 0.0
-0.02230733020980768 0.01920047368516062 0.0 0.008159434627557801 0.0 0.0
-0.017740394348791166 0.014871617151949092 0.0 0.007002104535387799 0.0 0.0
-0.01392560248403556 0.011303108178560775 0.0 0.005953984458079269 0.0 0.0
-0.010687720539808656 0.008303193874475921 0.0 0.004923546449516779 0.0 0.0
-0.007912731622627456 0.005764686477741093 0.0 0.0038809415353697726 0.0 0.0
-0.005559357028967766 0.0036622098878462987 0.0 0.002841930623563346 0.0 0.0
-0.003688280613488898 0.0020685880073016524 0.0 0.0019557618066642466 0.0 0.0
-0.0024050852175015115 0.0011342847571338603 0.0 0.0015123797036221505 0.0 0.0
-0.001659672452677138 0.0007448772764437944 0.0 0.0014799717853386744 0.0 0.0
-0.001226676781793785 0.0005724634939291163 0.0 0.0016094734123580795 0.0 0.0
-0.0008909130404928592 0.0004173408714214312 0.0 0.001713296704465129 0.0 0.0
-0.0005379070017700452 0.00020556036638591488 0.0 0.001691995999854476 0.0 0.0
-0.00017000476240267476 -0.00015272236173754166 0.0 0.0012479832492950837 0.0 0.0
8.269809294786092e-06 -0.00034594439511524943 0.0 0.0007142683748139354 0.0 0.0
-4.2991106652300214e-05 -0.00018827059368986678 0.0 -0.0005587900908729886 0.0 0.0
-0.0002193960531210655 -8.528490361882764e-05 0.0 -0.0010250427367847466 0.0 0.0
-0.0006080491504621109 0.00024053245504611928 0.0 -0.0014460282128449377 0.0 0.0
-0.0010167611754304208 0.0004633958365607956 0.0 -0.0014720515494453653 0.0 0.0
-0.0014247590783329459 0.0006413774369870061 0.0 -0.0013437354746338446 0.0 0.0
-0.0019853435405720785 0.0008854559301526917 0.0 -0.001179889278404613 0.0 0.0
-0.0029791749425763553 0.0015011043466724885 0.0 -0.0012634397510182778 0.0 0.0
-0.004611819170294156 0.0028135854248806645 0.0 -0.0018309099662894845 0.0 0.0
-0.0068584275644611534 0.00478830121182944 0.0 -0.002669565029269782 0.0 0.0
-0.009634381838156122 0.0073089608820739935 0.0 -0.0035842840189881683 0.0 0.0
-0.012935987274642843 0.010357940805583589 0.0 -0.004529672815175096 0.0 0.0
-0.016820220849870615 0.013981176751850184 0.0 -0.005462236882895632 0.0 0.0
-0.021424119199036154 0.018315629194509513 0.0 -0.006428290169061438 0.0 0.0
-0.026940492142876145 0.02356855275057824 0.0 -0.007528665953685433 0.0 0.0
-0.03353978838965668 0.029928886662014445 0.0 -0.008840716732720893 0.0 0.0
-0.041258107291703656 0.03746509784538783 0.0 -0.01041592819230471 0.0 0.0
-0.04968107544253892 0.045865296233831315 0.0 -0.012515898843923113 0.0 0.0
-0.05736876846511349 0.05383890504026328 0.0 -0.01585575841015411 0.0 0.0
-0.0614068995119952 0.058509468571337056 0.0 -0.020922428851688976 0.0 0.0
-0.05739885798147343 0.05543611778133069 0.0 -0.026929909597368865 0.0 0.0
-0.05274874480316378 0.03892750320433165 0.0 1.1956581558170143e-14 0.0 0.0
-0.057398857981466864 0.05543611778132812 0.0 0.026929909597395163 0.0 0.0
-0.061406899511981396 0.0585094685713263 0.0 0.02092242885171388 0.0 0.0
-0.05736876846509351 0.053838905040243655 0.0 0.015855758410169413 0.0 0.0
-0.04968107544251464 0.045865296233807196 0.0 0.012515898843926652 0.0 0.0
-0.04125810729167789 0.0374650978453647 0.0 0.010415928192302448 0.0 0.0
-0.033539788389630974 0.029928886661989673 0.0 0.008840716732717375 0.0 0.0
-0.02694049214284964 0.023568552750554857 0.0 0.007528665953680543 0.0 0.0
-0.021424119199008818 0.018315629194483887 0.0 0.006428290169054852 0.0 0.0
-0.01682022084984409 0.013981176751824323 0.0 0.0054622368828865465 0.0 0.0
-0.012935987274619112 0.010357940805559221 0.0 0.004529672815165335 0.0 0.0
-0.009634381838136337 0.0073089608820567885 0.0 0.0035842840189796964 0.0 0.0
-0.006858427564445909 0.004788301211816264 0.0 0.0026695650292638596 0.0 0.0
-0.0046118191702831084 0.0028135854248716977 0.0 0.0018309099662854444 0.0 0.0
-0.002979174942569624 0.001501104346666926 0.0 0.001263439751015463 0.0 0.0
-0.0019853435405690033 0.0008854559301508149 0.0 0.0011798892784037024 0.0 0.0
-0.0014247590783314607 0.0006413774369869196 0.0 0.0013437354746330345 0.0 0.0
-0.0010167611754294975 0.000463395836560273 0.0 0.0014720515494442894 0.0 0.0
-0.0006080491504615377 0.00024053245504616124 0.0 0.0014460282128440577 0.0 0.0
-0.00021939605312085031 -8.528490361875073e-05 0.0 0.001025042736784006 0.0 0.0
-4.299110665239704e-05 -0.00018827059368964192 0.0 0.0005587900908722281 0.0 0.0
-8.239235465994866e-05 -7.527100023604025e-05 0.0 -0.0004049422371867554 0.0 0.0
-0.0002603309579801735 -2.187054738992506e-05 0.0 -0.0007845331784479465 0.0 0.0
-0.0006734329149838066 0.00027441158840082797 0.0 -0.0011526680612350985 0.0 0.0
-0.0011379236995204321 0.0005073101768442542 0.0 -0.0011761391380448354 0.0 0.0
-0.0016231848205721102 0.000704840593028986 0.0 -0.001028395920731808 0.0 0.0
-0.002340283261803814 0.001057886389688639 0.0 -0.000849891403993062 0.0 0.0
-0.0036148109010394986 0.0019709674814783716 0.0 -0.0010311395916336914 0.0 0.0
-0.0055669027959370804 0.003627911553158684 0.0 -0.0015772853770855098 0.0 0.0
-0.008154944138537358 0.005938599655727192 0.0 -0.002248619546135804 0.0 0.0
-0.011358048324099302 0.008877359555918514 0.0 -0.0030077611933452975 0.0 0.0
-0.01518909624953341 0.012437388151373097 0.0 -0.003792924407638753 0.0 0.0
-0.019730059182870047 0.01669270199675677 0.0 -0.004569775683816291 0.0 0.0
-0.02514057208464195 0.021807185946459168 0.0 -0.005382635281799705 0.0 0.0
-0.03161483640513175 0.028000536446539187 0.0 -0.006343175343912375 0.0 0.0
-0.03930447899991094 0.03543879466608555 0.0 -0.0075222758012014205 0.0 0.0
-0.048195754869421785 0.04412949826439675 0.0 -0.008852800899139536 0.0 0.0
-0.05785689172214528 0.05372628752322411 0.0 -0.010270866476962211 0.0 0.0
-0.06681576998104319 0.06298060011012567 0.0 -0.012515949062869878 0.0 0.0
-0.07182287982954215 0.06878319140474695 0.0 -0.017707889405026545 0.0 0.0
-0.06769990598312242 0.06588681913227147 0.0 -0.027052055618045533 0.0 0.0
-0.06259665524538503 0.047428535138558166 0.0 1.0325941490751944e-14 0.0 0.0
-0.06769990598311405 0.0658868191322659 0.0 0.02705205561806861 0.0 0.0
-0.0718228798295256 0.0687831914047351 0.0 0.017707889405049738 0.0 0.0
-0.06681576998102005 0.06298060011010484 0.0 0.0125159490628819 0.0 0.0
-0.05785689172211755 0.053726287523195526 0.0 0.010270866476966765 0.0 0.0
-0.04819575486939231 0.04412949826437122 0.0 0.008852800899138003 0.0 0.0
-0.039304478999881154 0.03543879466605494 0.0 0.007522275801198941 0.0 0.0
-0.031614836405101175 0.028000536446512535 0.0 0.00634317534390825 0.0 0.0
-0.025140572084610725 0.02180718594642924 0.0 0.005382635281795012 0.0 0.0
-0.019730059182839765 0.01669270199672715 0.0 0.004569775683808789 0.0 0.0
-0.015189096249506314 0.012437388151347893 0.0 0.00379292440763054 0.0 0.0
-0.011358048324076763 0.00887735955590019 0.0 0.0030077611933375064 0.0 0.0
-0.00815494413851954 0.005938599655709846 0.0 0.0022486195461300018 0.0 0.0
-0.005566902795924015 0.003627911553146947 0.0 0.0015772853770815408 0.0 0.0
-0.003614810901031193 0.0019709674814724636 0.0 0.0010311395916309364 0.0 0.0
-0.0023402832617996873 0.0010578863896857026 0.0 0.0008498914039928459 0.0 0.0
-0.00162318482057041 0.0007048405930276267 0.0 0.0010283959207312437 0.0 0.0
-0.001137923699519382 0.0005073101768436415 0.0 0.0011761391380438935 0.0 0.0
-0.0006734329149833795 0.0002744115884002837 0.0 0.0011526680612334865 0.0 0.0
-0.00026033095798011377 -2.1870547389383298e-05 0.0 0.0007845331784477223 0.0 0.0
-8.239235465977788e-05 -7.527100023607504e-05 0.0 0.0004049422371872889 0.0 0.0
-0.00010542178408772115 -7.999536465174312e-06 0.0 -0.00026188720640108257 0.0 0.0
-0.00028737460430176246 3.189310264664593e-05 0.0 -0.000529880895967932 0.0 0.0
-0.0007308666322663327 0.00030371309563472523 0.0 -0.0008066907232132374 0.0 0.0
-0.001256321955758363 0.000549937758104479 0.0 -0.0008220384512871708 0.0 0.0
-0.001832158393939597 0.0007737484259686294 0.0 -0.0006701775324038972 0.0 0.0
-0.0027422798364323295 0.0012961759761860058 0.0 -0.0005245654110462253 0.0 0.0
-0.004289639090806299 0.0025224174660127695 0.0 -0.0007504986870953289 0.0 0.0
-0.006525170846815485 0.004460816133223454 0.0 -0.0011327397872941299 0.0 0.0
-0.009447863916487857 0.007104146551010696 0.0 -0.0016159637637903994 0.0 0.0
-0.013074721534592252 0.010455914083054792 0.0 -0.002162063231306066 0.0 0.0
-0.01744032251654587 0.014529223105559107 0.0 -0.002726892122929978 0.0 0.0
-0.022647461134045567 0.01942575603285701 0.0 -0.003282224480470693 0.0 0.0
-0.02887481048240101 0.025334600663919665 0.0 -0.003874922525546183 0.0 0.0
-0.03632333835374853 0.03247971555741542 0.0 -0.004620895064875387 0.0 0.0
-0.045089798457609076 0.04098667510578658 0.0 -0.0055534820114816665 0.0 0.0
-0.05504697480432122 0.05075772336851464 0.0 -0.006553373424078135 0.0 0.0
-0.06570923870008977 0.061327224208717404 0.0 -0.0073561536159441965 0.0 0.0
-0.07581400366852756 0.07156930565447293 0.0 -0.008215655810827395 0.0 0.0
-0.08210993288006092 0.0787852038102747 0.0 -0.012125696034762939 0.0 0.0
-0.07848541822253162 0.07693107863529224 0.0 -0.025263773223404774 0.0 0.0
-0.07325144599764608 0.056970002674198494 0.0 7.84008274967718e-15 0.0 0.0
-0.07848541822252199 0.07693107863528624 0.0 0.02526377322342139 0.0 0.0
-0.0821099328800418 0.07878520381025723 0.0 0.01212569603478124 0.0 0.0
-0.07581400366850104 0.07156930565444868 0.0 0.008215655810836737 0.0 0.0
-0.06570923870005865 0.06132722420868354 0.0 0.00735615361594805 0.0 0.0
-0.05504697480428843 0.0507577233684853 0.0 0.006553373424077288 0.0 0.0
-0.04508979845757549 0.04098667510575303 0.0 0.005553482011480321 0.0 0.0
-0.03632333835371394 0.032479715557382036 0.0 0.004620895064871816 0.0 0.0
-0.028874810482365572 0.02533460066388519 0.0 0.00387492252554166 0.0 0.0
-0.022647461134011525 0.019425756032824284 0.0 0.0032822244804658366 0.0 0.0
-0.017440322516515783 0.014529223105532379 0.0 0.002726892122922324 0.0 0.0
-0.013074721534566725 0.01045591408303265 0.0 0.0021620632313004927 0.0 0.0
-0.009447863916467389 0.0071041465509919 0.0 0.0016159637637856235 0.0 0.0
-0.006525170846800359 0.0044608161332102825 0.0 0.0011327397872909258 0.0 0.0
-0.004289639090796352 0.0025224174660049064 0.0 0.000750498687093058 0.0 0.0
-0.0027422798364272714 0.0012961759761821257 0.0 0.0005245654110453599 0.0 0.0
-0.0018321583939377465 0.0007737484259671495 0.0 0.0006701775324041467 0.0 0.0
-0.0012563219557575622 0.0005499377581034751 0.0 0.000822038451287089 0.0 0.0
-0.0007308666322656586 0.0003037130956341572 0.0 0.0008066907232122012 0.0 0.0
-0.0002873746043013865 3.1893102646831486e-05 0.0 0.0005298808959686941 0.0 0.0
-0.00010542178408755513 -7.9995364652857e-06 0.0 0.00026188720640163215 0.0 0.0
-0.00010428525080991667 1.3400389789147288e-05 0.0 -0.00015029043248738466 0.0 0.0
-0.0002914472409260645 6.698747709607832e-05 0.0 -0.00026522835418563764 0.0 0.0
-0.0007752926648614127 0.0003236117559048436 0.0 -0.0003948744140630976 0.0 0.0
-0.0013777164634361035 0.0005937750089659821 0.0 -0.0004015068692105467 0.0 0.0
-0.0020705962847880773 0.0008681518652208441 0.0 -0.0002837455869788381 0.0 0.0
-0.0031872638499188294 0.0016080302614589486 0.0 -0.00020527280832609627 0.0 0.0
-0.00498266908702534 0.0031126515479979917 0.0 -0.0003480894787393926 0.0 0.0
-0.007477823855442947 0.005303963962627306 0.0 -0.0005389783406126098 0.0 0.0
-0.010727715866010158 0.00827239603585139 0.0 -0.0007774842586823855 0.0 0.0
-0.014776438571242615 0.012031661108018555 0.0 -0.0010549784976009347 0.0 0.0
-0.019680462136766757 0.016622081715515262 0.0 -0.001333103430283222 0.0 0.0
-0.02556514989442338 0.022173026107182893 0.0 -0.0016020932112256739 0.0 0.0
-0.03262517338165676 0.028890823948885667 0.0 -0.0019304638225901226 0.0 0.0
-0.04104019629150693 0.03698149213834329 0.0 -0.002355009954709307 0.0 0.0
-0.050858156096962676 0.046534710662038924 0.0 -0.002883789618904823 0.0 0.0
-0.06183473116912111 0.057343739910190886 0.0 -0.0034638892198026227 0.0 0.0
-0.07328859115158097 0.06874212752199907 0.0 -0.003866044802044764 0.0 0.0
-0.08408727093184137 0.07954426437297551 0.0 -0.003907064459131479 0.0 0.0
-0.09195628110126809 0.08778956838725244 0.0 -0.005201645692065446 0.0 0.0
-0.09006406184156833 0.08867289164200368 0.0 -0.017525277607312824 0.0 0.0
-0.08537003942620251 0.06898319132453481 0.0 4.315124646492308e-15 0.0 0.0
-0.0900640618415569 0.08867289164199645 0.0 0.017525277607322164 0.0 0.0
-0.09195628110124568 0.08778956838723159 0.0 0.005201645692076001 0.0 0.0
-0.084087270931811 0.07954426437294772 0.0 0.003907064459138189 0.0 0.0
-0.07328859115154589 0.06874212752196443 0.0 0.0038660448020458524 0.0 0.0
-0.06183473116908444 0.05734373991015575 0.0 0.0034638892198027545 0.0 0.0
-0.05085815609692518 0.04653471066200472 0.0 0.0028837896189041366 0.0 0.0
-0.041040196291468226 0.03698149213830507 0.0 0.002355009954708583 0.0 0.0
-0.03262517338161726 0.028890823948849398 0.0 0.0019304638225885163 0.0 0.0
-0.02556514989438593 0.022173026107148497 0.0 0.0016020932112235848 0.0 0.0
-0.019680462136733714 0.016622081715485175 0.0 0.0013331034302796222 0.0 0.0
-0.014776438571214624 0.01203166110799119 0.0 0.0010549784975985093 0.0 0.0
-0.010727715865987801 0.00827239603583182 0.0 0.0007774842586798559 0.0 0.0
-0.007477823855425965 0.005303963962612051 0.0 0.000538978340610656 0.0 0.0
-0.004982669087013815 0.0031126515479870803 0.0 0.000348089478738898 0.0 0.0
-0.0031872638499125254 0.0016080302614535438 0.0 0.0002052728083257633 0.0 0.0
-0.002070596284785369 0.0008681518652201781 0.0 0.00028374558697853936 0.0 0.0
-0.0013777164634348063 0.0005937750089658163 0.0 0.0004015068692117371 0.0 0.0
-0.00077529266486066 0.0003236117559046798 0.0 0.00039487441406268667 0.0 0.0
-0.0002914472409260205 6.698747709562124e-05 0.0 0.0002652283541856607 0.0 0.0
-0.0001042852508100991 1.3400389789101895e-05 0.0 0.0001502904324872932 0.0 0.0
-6.45168709762507e-05 1.2715166233563701e-05 0.0 -9.577085356326487e-05 0.0 0.0
-0.0002569589059414279 7.843304922209427e-05 0.0 -0.00011014593361807935 0.0 0.0
-0.0007997474215674129 0.00033054412045228665 0.0 -0.0001352992193982657 0.0 0.0
-0.0015134306621053788 0.0006163626496235252 0.0 -0.00013192035727496726 0.0 0.0
-0.0023519757346951685 0.0009253249771691792 0.0 -3.4616321265290313e-06 0.0 0.0
-0.0036657663086923607 0.0017781924432680551 0.0 0.0001291528339387283 0.0 0.0
-0.005678747381644697 0.0034129487663952292 0.0 0.00014653950762524956 0.0 0.0
-0.008418404841746644 0.005727372738190944 0.0 0.00015259604594870498 0.0 0.0
-0.01198639057054308 0.008855308058807647 0.0 0.00015805163957937176 0.0 0.0
-0.016453811308550073 0.012817503613927844 0.0 0.00014244717351490034 0.0 0.0
-0.02190220162697524 0.017666805787998317 0.0 0.00015511933399483722 0.0 0.0
-0.02848187114617914 0.023550111838822593 0.0 0.00019359769004270895 0.0 0.0
-0.036373299591831706 0.03067562119801185 0.0 0.00018045702154373617 0.0 0.0
-0.045736108901758235 0.0392333444266628 0.0 0.00015210873224305328 0.0 0.0
-0.05658265161934464 0.04930428484291115 0.0 2.448163427178681e-05 0.0 0.0
-0.06855260684846214 0.06062512980661334 0.0 -0.00022074288110439204 0.0 0.0
-0.08075224813270464 0.07241758195867448 0.0 -0.000505721033387546 0.0 0.0
-0.09176827028085975 0.08339715337572651 0.0 -0.00065547739777801 0.0 0.0
-0.10012891910027572 0.09189614980392626 0.0 -0.0009052287395995484 0.0 0.0
-0.10236342858052995 0.09470534915785966 0.0 -0.012014548197506133 0.0 0.0
-0.10124443633950678 0.0758891293264256 0.0 2.1996293675385914e-15 0.0 0.0
-0.10236342858051742 0.0947053491578509 0.0 0.012014548197509769 0.0 0.0
-0.10012891910024964 0.0918961498039049 0.0 0.0009052287396028695 0.0 0.0
-0.09176827028082467 0.08339715337569742 0.0 0.0006554773977819079 0.0 0.0
-0.08075224813266559 0.07241758195864022 0.0 0.0005057210333866725 0.0 0.0
-0.06855260684842131 0.060625129806575466 0.0 0.0002207428811043053 0.0 0.0
-0.05658265161930255 0.04930428484287626 0.0 -2.4481634272172786e-05 0.0 0.0
-0.045736108901715145 0.0392333444266263 0.0 -0.00015210873224352252 0.0 0.0
-0.0363732995917885 0.030675621197974588 0.0 -0.00018045702154491274 0.0 0.0
-0.028481871146138107 0.023550111838787795 0.0 -0.00019359769004509766 0.0 0.0
-0.021902201626939042 0.01766680578796883 0.0 -0.00015511933399639868 0.0 0.0
-0.016453811308519875 0.012817503613898064 0.0 -0.0001424471735165466 0.0 0.0
-0.011986390570518854 0.008855308058786678 0.0 -0.00015805163957928426 0.0 0.0
-0.008418404841727782 0.005727372738173835 0.0 -0.00015259604594921542 0.0 0.0
-0.005678747381631624 0.0034129487663843413 0.0 -0.00014653950762412243 0.0 0.0
-0.0036657663086849613 0.0017781924432610278 0.0 -0.0001291528339374754 0.0 0.0
-0.002351975734691728 0.0009253249771688952 0.0 3.4616321263830976e-06 0.0 0.0
-0.0015134306621040153 0.0006163626496242483 0.0 0.0001319203572761442 0.0 0.0
-0.0007997474215667582 0.0003305441204521757 0.0 0.00013529921939711811 0.0 0.0
-0.00025695890594120406 7.843304922139241e-05 0.0 0.00011014593361784309 0.0 0.0
-6.451687097614558e-05 1.2715166233505391e-05 0.0 9.577085356289113e-05 0.0 0.0
SCALARS Statev float 8
LOOKUP_TABLE default
0.0 0.013655472374037228 0.010773181639577176 -0.013086179349851127 0.002312997710273977 -0.00048226146454719704 0.0 0.0
0.0 0.004119032149274933 0.00292255616446587 -0.0016235222811020102 -0.00129903388336386 -0.0052920305377821995 0.0 0.0
0.0 -2.8591248251488303e-05 7.225285950083764e-06 -5.536326786091462e-06 -1.688959163992463e-06 -9.574017219948156e-05 0.0 0.0
0.0 8.022451459327909e-05 -2.4642470582817184e-06 2.1233378217227532e-06 3.4090923655887915e-07 3.4076281158925434e-06 0.0 0.0
0.0 0.0004911752235848473 0.00019407754189140942 -0.00013891778272875303 -5.5159759162656693e-05 5.778038494279559e-05 0.0 0.0
0.0 0.0011027290270228573 0.001167438577260157 -0.0008936417047675064 -0.00027379687249265037 0.00011386999252379802 0.0 0.0
0.0 0.003030584942443841 0.0028135087517433526 -0.0022932821379683327 -0.0005202266137750188 0.0001500897221015576 0.0 0.0
0.0 0.0057498232109129774 0.005285600999297145 -0.004525979735244118 -0.0007596212640530264 0.00016865192034400383 0.0 0.0
0.0 0.009471141978975205 0.008600332041153158 -0.0076377040580889975 -0.0009626279830641678 0.00018179950322325656 0.0 0.0
0.0 0.014274389748673795 0.01279052582687427 -0.01163495182784372 -0.0011555739990305415 0.00017992557173145745 0.0 0.0
0.0 0.020234442363793934 0.017932192317091283 -0.01656789049527683 -0.0013643018218144438 0.00020642420639927975 0.0 0.0
0.0 0.027202469962852156 0.02418659930927916 -0.022588224316946195 -0.0015983749923329739 0.0002568943041666144 0.0 0.0
0.0 0.03574990017378633 0.03173787573461751 -0.029886061007398317 -0.0018518147272191718 0.0002484291078607466 0.0 0.0
0.0 0.04601113686297234 0.04075725979434216 -0.03863847080731445 -0.0021187889870277143 0.00023278992777015005 0.0 0.0
0.0 0.05807304392491533 0.051316445077472655 -0.048931499696900624 -0.0023849453805720347 0.00014519315902270717 0.0 0.0
0.0 0.07175129886103403 0.0632180288864288 -0.060582429373157415 -0.0026355995132713635 -4.010366680131088e-05 0.0 0.0
0.0 0.08632975206708118 0.07587346590270935 -0.07301455471039275 -0.0028589111923166834 -0.00030119407878825095 0.0 0.0
0.0 0.10064256083388842 0.08828374163524728 -0.0852407528356747 -0.0030429887995724846 -0.0005391006920886065 0.0 0.0
0.0 0.11319453586096037 0.09915924137416159 -0.09597935281609436 -0.003179888558067313 -0.0005956865156858866 0.0 0.0
0.0 0.12212563615106622 0.10707307951958253 -0.103819647376377 -0.0032534321432056827 -0.0005984356740599138 0.0 0.0
0.0 0.12556350230055124 0.11013569344121422 -0.10688764566691929 -0.0032480477742949467 1.6544925152128798e-15 0.0 0.0
0.0 0.12212563615105497 0.10707307951957265 -0.1038196473763674 -0.0032534321432051206 0.0005984356740644939 0.0 0.0
0.0 0.11319453586093628 0.09915924137414049 -0.0959793528160743 -0.0031798885580662252 0.0005956865156902264 0.0 0.0
0.0 0.10064256083384984 0.08828374163521382 -0.08524075283564148 -0.0030429887995722907 0.0005391006920921898 0.0 0.0
0.0 0.08632975206704 0.07587346590267331 -0.07301455471035823 -0.0028589111923151395 0.0003011940787887397 0.0 0.0
0.0 0.0717512988609899 0.06321802888639007 -0.060582429373119424 -0.0026355995132706245 4.010366680127966e-05 0.0 0.0
0.0 0.05807304392487221 0.051316445077434686 -0.04893149969686417 -0.002384945380570507 -0.00014519315902374085 0.0 0.0
0.0 0.046011136862927654 0.04075725979430308 -0.03863847080727636 -0.002118788987026698 -0.00023278992777140697 0.0 0.0
0.0 0.03574990017374148 0.0317378757345782 -0.029886061007360222 -0.0018518147272179731 -0.00024842910786133476 0.0 0.0
0.0 0.027202469962809846 0.02418659930924183 -0.022588224316910207 -0.0015983749923316384 -0.0002568943041671622 0.0 0.0
0.0 0.020234442363758876 0.017932192317060135 -0.016567890495247234 -0.001364301821812896 -0.0002064242064002853 0.0 0.0
0.0 0.014274389748642785 0.01279052582684706 -0.011634951827817631 -0.0011555739990294297 -0.0001799255717322502 0.0 0.0
0.0 0.009471141978952094 0.008600332041132357 -0.007637704058069286 -0.0009626279830630568 -0.00018179950322376142 0.0 0.0
0.0 0.005749823210896128 0.005285600999281471 -0.004525979735229548 -0.000759621264051921 -0.00016865192034395962 0.0 0.0
0.0 0.0030305849424339466 0.002813508751733403 -0.0022932821379596366 -0.0005202266137737642 -0.00015008972210158757 0.0 0.0
0.0 0.001102729027017762 0.0011674385772545244 -0.0008936417047629882 -0.0002737968724915366 -0.00011386999252335643 0.0 0.0
0.0 0.0004911752235821662 0.00019407754188995445 -0.00013891778272770756 -5.515975916224633e-05 -5.778038494243833e-05 0.0 0.0
0.0 8.02245145926522e-05 -2.4642470580568735e-06 2.1233378215516263e-06 3.40909236505727e-07 -3.407628115869407e-06 0.0 0.0
0.0 -2.859124825183618e-05 7.225285949985749e-06 -5.536326786001748e-06 -1.6889591639835294e-06 9.57401721988907e-05 0.0 0.0
0.0 0.004119032149267295 0.002922556164461882 -0.0016235222810995033 -0.0012990338833623722 0.00529203053777405 0.0 0.0
0.0 0.013655472374019881 0.0107731816395653 -0.013086179349834418 0.002312997710269101 0.0004822614645202594 0.0 0.0
0.0 0.010912141059404124 0.007987282258945384 -0.01059988683671316 0.0026126045777677635 -6.306880400151098e-05 0.0 0.0
0.0 0.002280887943879601 0.0016225070625009751 -0.0008523030523924557 -0.0007702040101085172 -0.0038607620812067976 0.0 0.0
0.0 -4.30455499067022e-06 -2.026714286509256e-05 1.713025153192887e-05 3.136891333163712e-06 -1.2392481389241257e-05 0.0 0.0
0.0 9.753363970107552e-06 1.2970821843909044e-06 -9.983502999409141e-07 -2.987318844500404e-07 1.7357253135078075e-06 0.0 0.0
0.0 0.00019560095594118462 9.591202156277556e-05 -6.889986043820967e-05 -2.7012161124565924e-05 2.3767059301085507e-05 0.0 0.0
0.0 0.001004372146089864 0.0007947177788969777 -0.0006131377510315832 -0.0001815800278653962 4.5876830868526906e-05 0.0 0.0
0.0 0.0024875539652342233 0.0023143570201375674 -0.0019050620111603145 -0.0004092950089772503 -8.270826032004045e-05 0.0 0.0
0.0 0.005011055952786641 0.004573429948758026 -0.003959911867939935 -0.0006135180808180909 -0.0002639166466273476 0.0 0.0
0.0 0.008475893778869916 0.007621091389589713 -0.006852823433808122 -0.0007682679557815861 -0.0005024007208386304 0.0 0.0
0.0 0.012870761488240092 0.011465543794394302 -0.010572743878805748 -0.0008927999155885493 -0.000779076353319348 0.0 0.0
0.0 0.01828442564510548 0.016159653104159302 -0.015151108362694602 -0.001008544741464697 -0.0010602355023989806 0.0 0.0
0.0 0.02496954407089748 0.021836221983909145 -0.02071231530293053 -0.0011239066809785989 -0.0013373517091530163 0.0 0.0
0.0 0.032579493867657315 0.02870400789866991 -0.027465039843477257 -0.0012389680551926536 -0.0016806862449130137 0.0 0.0
0.0 0.04206200468739059 0.036941255689430186 -0.03559352636193197 -0.001347729327498211 -0.002112906771993497 0.0 0.0
0.0 0.05321071452944245 0.04662798310865203 -0.04518851607555234 -0.0014394670330996953 -0.0026283320438779834 0.0 0.0
0.0 0.06586310870872941 0.05759273401452134 -0.05608784132153963 -0.001504892692981738 -0.0032093943988869083 0.0 0.0
0.0 0.0794244272124203 0.06929565389390242 -0.06775649958392016 -0.0015391543099822532 -0.0037222854693243286 0.0 0.0
0.0 0.09283171506661131 0.0808218921817676 -0.07927678103379421 -0.001545111147973442 -0.0039027912229070458 0.0 0.0
0.0 0.10462951402508675 0.09096234228436555 -0.08943444369008687 -0.001527898594278624 -0.0034937447773191323 0.0 0.0
0.0 0.1131574854315672 0.09824749364218761 -0.09677864886887286 -0.0014688447733147713 -0.00258500015771929 0.0 0.0
0.0 0.11658081180155075 0.10102865222158425 -0.09964949157318298 -0.001379160648401311 3.6034543404728225e-15 0.0 0.0
0.0 0.11315748543155676 0.09824749364217812 -0.0967786488688637 -0.00146884477331445 0.0025850001577293886 0.0 0.0
0.0 0.10462951402506328 0.0909623422843452 -0.08943444369006658 -0.0015278985942785124 0.003493744777330426 0.0 0.0
0.0 0.0928317150665784 0.08082189218173912 -0.0792767810337656 -0.0015451111479735063 0.0039027912229146547 0.0 0.0
0.0 0.07942442721238346 0.06929565389387057 -0.06775649958388899 -0.0015391543099815565 0.0037222854693253053 0.0 0.0
0.0 0.06586310870868949 0.05759273401448664 -0.056087841321505114 -0.001504892692981468 0.003209394398885487 0.0 0.0
0.0 0.05321071452940202 0.046627983108616676 -0.04518851607551781 -0.001439467033098903 0.002628332043876809 0.0 0.0
0.0 0.042062004687351294 0.03694125568939583 -0.03559352636189847 -0.001347729327497352 0.0021129067719926264 0.0 0.0
0.0 0.03257949386761617 0.02870400789863421 -0.027465039843442084 -0.0012389680551921313 0.0016806862449106892 0.0 0.0
0.0 0.024969544070859873 0.021836221983876004 -0.020712315302897952 -0.0011239066809780273 0.0013373517091506992 0.0 0.0
0.0 0.018284425645072416 0.01615965310413032 -0.015151108362666546 -0.0010085447414637744 0.0010602355023958637 0.0 0.0
0.0 0.012870761488212451 0.011465543794369544 -0.0105727438787816 -0.0008927999155879302 0.0007790763533167236 0.0 0.0
0.0 0.008475893778849655 0.007621091389571033 -0.0068528234337902555 -0.0007682679557807786 0.0005024007208368601 0.0 0.0
0.0 0.005011055952771391 0.004573429948743764 -0.003959911867926637 -0.0006135180808171245 0.0002639166466258246 0.0 0.0
0.0 0.0024875539652254694 0.002314357020128991 -0.0019050620111527863 -0.0004092950089762033 8.270826031925183e-05 0.0 0.0
0.0 0.0010043721460839688 0.0007947177788918886 -0.0006131377510274915 -0.00018158002786439661 -4.58768308686552e-05 0.0 0.0
0.0 0.00019560095593956767 9.591202156211425e-05 -6.889986043775125e-05 -2.7012161124363304e-05 -2.3767059300775327e-05 0.0 0.0
0.0 9.753363969627469e-06 1.2970821846081163e-06 -9.98350300105962e-07 -2.9873188450199284e-07 -1.7357253135193817e-06 0.0 0.0
0.0 -4.304554990649382e-06 -2.026714286492712e-05 1.7130251531783636e-05 3.1368913331433665e-06 1.23924813891148e-05 0.0 0.0
0.0 0.002280887943872226 0.0016225070624968523 -0.0008523030523897349 -0.0007702040101071142 0.0038607620811978967 0.0 0.0
0.0 0.010912141059386263 0.007987282258931838 -0.010599886836695403 0.002612604577763552 6.306880398213591e-05 0.0 0.0
0.0 0.00785759059687882 0.005619622293609696 -0.0076878250386227115 0.002068202745013013 -0.001957131118100485 0.0 0.0
0.0 0.001572922566719601 0.0009756911852887851 -0.0004567327960762915 -0.0005189583892124928 -0.0028820944194640065 0.0 0.0
0.0 1.2634912319597936e-08 -1.3678156687548327e-09 1.0394932843731892e-09 3.2832238438154863e-10 4.875689838480855e-10 0.0 0.0
0.0 2.545393814067468e-06 3.396694278164418e-07 -2.695872244847925e-07 -7.00822033317737e-08 -3.892804457356405e-07 0.0 0.0
0.0 5.246933283920442e-05 1.9934386384489697e-05 -1.3252380218953618e-05 -6.6820061655362845e-06 9.898312558695928e-06 0.0 0.0
0.0 0.00065483266149616 0.00044816687487013305 -0.0003374781316014227 -0.00011068874326871014 5.624298372037122e-06 0.0 0.0
0.0 0.0017952387435283814 0.0017277273381370029 -0.0013931447822141466 -0.00033458255592285705 -0.00024378549678529627 0.0 0.0
0.0 0.004062926962988947 0.003713443892192606 -0.0031677027478811495 -0.0005457411443114559 -0.0006146878881021047 0.0 0.0
0.0 0.0071195503958360355 0.006433322282827261 -0.0057204714287636465 -0.0007128508540636125 -0.001091283354673409 0.0 0.0
0.0 0.011083612781562828 0.009859864875634302 -0.00901893685026599 -0.0008409280253683136 -0.0016354625661957204 0.0 0.0
0.0 0.015910580314392464 0.014022812155266247 -0.013068896848121568 -0.0009539153071446651 -0.0022047739198004265 0.0 0.0
0.0 0.021612725648810772 0.019032690287827538 -0.017968850855691144 -0.0010638394321363907 -0.0027771311926010895 0.0 0.0
0.0 0.028752991514926208 0.025072215874580063 -0.023899836174832607 -0.0011723796997474582 -0.0033973899551199074 0.0 0.0
0.0 0.03688142741859312 0.03236072439960201 -0.03108686643287967 -0.0012738579667223304 -0.004169286395620436 0.0 0.0
0.0 0.04683412047749976 0.04098254014420455 -0.039623105805390794 -0.0013594343388138145 -0.005112217456368308 0.0 0.0
0.0 0.05817021433911673 0.05079873762590034 -0.049378032588957725 -0.0014207050369425662 -0.006142572145995555 0.0 0.0
0.0 0.07037958382333595 0.06135219583083064 -0.05989675735742325 -0.0014554384734073954 -0.007021207316706482 0.0 0.0
0.0 0.08252040213590356 0.07183874792844967 -0.07037515305246411 -0.0014635948759855457 -0.0073160235214231855 0.0 0.0
0.0 0.09330203747011351 0.08112386002068499 -0.0796827845143596 -0.0014410755063253792 -0.006619056082430631 0.0 0.0
0.0 0.10110742774331687 0.08781601409438129 -0.08641835586616185 -0.0013976582282193798 -0.004814943552187344 0.0 0.0
0.0 0.10433091417279777 0.09043185250529046 -0.08914811761830803 -0.0012837348869823963 8.033938098117588e-15 0.0 0.0
0.0 0.10110742774330751 0.0878160140943724 -0.08641835586615321 -0.0013976582282192152 0.00481494355220646 0.0 0.0
0.0 0.09330203747009361 0.08112386002066747 -0.07968278451434238 -0.0014410755063251812 0.006619056082451027 0.0 0.0
0.0 0.08252040213587544 0.07183874792842526 -0.0703751530524396 -0.0014635948759855937 0.007316023521435561 0.0 0.0
0.0 0.07037958382330388 0.06135219583080282 -0.059896757357396184 -0.0014554384734066462 0.007021207316708942 0.0 0.0
0.0 0.05817021433908127 0.05079873762586933 -0.04937803258892737 -0.0014207050369419796 0.006142572145993671 0.0 0.0
0.0 0.046834120477464554 0.04098254014417381 -0.039623105805360714 -0.0013594343388131133 0.005112217456366846 0.0 0.0
0.0 0.03688142741855819 0.03236072439957133 -0.031086866432849945 -0.001273857966721388 0.004169286395618843 0.0 0.0
0.0 0.028752991514890202 0.025072215874548644 -0.02389983617480182 -0.0011723796997468098 0.0033973899551161544 0.0 0.0
0.0 0.02161272564877795 0.019032690287799074 -0.017968850855663118 -0.0010638394321359536 0.0027771311925964288 0.0 0.0
0.0 0.015910580314362828 0.014022812155239652 -0.013068896848095765 -0.0009539153071438847 0.002204773919795123 0.0 0.0
0.0 0.011083612781538948 0.009859864875612707 -0.009018936850245018 -0.0008409280253676884 0.0016354625661911173 0.0 0.0
0.0 0.007119550395817335 0.00643332228281022 -0.005720471428747505 -0.0007128508540627178 0.0010912833546700806 0.0 0.0
0.0 0.004062926962975391 0.0037134438921802566 -0.0031677027478698707 -0.0005457411443103837 0.0006146878880993834 0.0 0.0
0.0 0.0017952387435215844 0.001727727338130186 -0.0013931447822083604 -0.0003345825559218253 0.00024378549678407774 0.0 0.0
0.0 0.0006548326614915534 0.00044816687486647826 -0.0003374781315985596 -0.0001106887432679186 -5.624298372474277e-06 0.0 0.0
0.0 5.2469332838198905e-05 1.9934386384331257e-05 -1.3252380218854524e-05 -6.682006165476716e-06 -9.8983125585429e-06 0.0 0.0
0.0 2.5453938137839257e-06 3.3966942785859014e-07 -2.69587224515523e-07 -7.00822033430431e-08 3.89280445743202e-07 0.0 0.0
0.0 1.2634912310065045e-08 -1.367815667713223e-09 1.0394932835817643e-09 3.283223841315191e-10 -4.875689834762404e-10 0.0 0.0
0.0 0.0015729225667138413 0.0009756911852853236 -0.00045673279607405293 -0.0005189583892112701 0.0028820944194545713 0.0 0.0
0.0 0.007857590596861117 0.005619622293596726 -0.007687825038605582 0.00206820274500886 0.0019571311180872505 0.0 0.0
0.0 0.005769505362025543 0.0040019419387078824 -0.005596107896245838 0.0015941659575379552 -0.00217869505705005 0.0 0.0
0.0 0.0010400703151339816 0.0006044890404983334 -0.00026611674505435344 -0.00033837229544398035 -0.0020204447454997623 0.0 0.0
0.0 0.0 0.0 0.0 0.0 0.0 0.0 0.0
0.0 -9.513615554386662e-07 1.0375365936915567e-07 -7.796950144420907e-08 -2.5784157924954802e-08 -6.35641990013178e-08 0.0 0.0
0.0 4.687367972120251e-06 -1.9037064473595612e-05 1.4952573255742148e-05 4.084491217853704e-06 1.1147590644817406e-05 0.0 0.0
0.0 0.0002895365525549229 0.000212604151853465 -0.00015646592355143143 -5.613822830203319e-05 -1.7194843119087412e-05 0.0 0.0
0.0 0.0013616346411376243 0.0011438420950076245 -0.0009005145159723338 -0.00024332757903528936 -0.00025432525421380757 0.0 0.0
0.0 0.0031435001022753054 0.0028672697401324323 -0.0024026155184965897 -0.000464654221635844 -0.0008100444483458685 0.0 0.0
0.0 0.005834576997567628 0.005247949361492536 -0.004602784070384084 -0.0006451652911084524 -0.0014771331537694384 0.0 0.0
0.0 0.009309108817805552 0.008254583692269652 -0.007473926464677004 -0.0007806572275926452 -0.0022356603242384477 0.0 0.0
0.0 0.013477512253065012 0.01189206934272974 -0.010999282598180834 -0.0008927867445489107 -0.0030300320821827578 0.0 0.0
0.0 0.018567820892339264 0.01624068161793097 -0.015243080189838464 -0.000997601428092494 -0.0038296830482470573 0.0 0.0
0.0 0.024474664996718253 0.02147630124812823 -0.02037574968785505 -0.0011005515602731794 -0.004681845815239735 0.0 0.0
0.0 0.03200776429269426 0.027795008420378145 -0.02660057300696564 -0.0011944354134124997 -0.0056920773794029815 0.0 0.0
0.0 0.04061010872484318 0.0353266589948146 -0.034053239821095045 -0.0012734191737195479 -0.006925815382792053 0.0 0.0
0.0 0.0504272947263195 0.04397482304109497 -0.04264186739933584 -0.0013329556417591246 -0.008294166062354833 0.0 0.0
0.0 0.06136835051360456 0.053361480708097084 -0.05199277677826179 -0.001368703929835285 -0.009469319194399644 0.0 0.0
0.0 0.0723044419818981 0.0628025712085975 -0.06142483835090794 -0.0013777328576896081 -0.009911965505289085 0.0 0.0
0.0 0.08209576869759007 0.07127451170369635 -0.06991538723006119 -0.001359124473635039 -0.009074691009307492 0.0 0.0
0.0 0.0892834296245259 0.07751345465217724 -0.0761903872127632 -0.0013230674394141364 -0.006484574651107673 0.0 0.0
0.0 0.09245364166976024 0.08006880219823256 -0.07890673246299731 -0.0011620697352352812 1.0667248334650381e-14 0.0 0.0
0.0 0.08928342962451706 0.07751345465216865 -0.07619038721275456 -0.0013230674394140703 0.006484574651133076 0.0 0.0
0.0 0.08209576869757503 0.0712745117036823 -0.06991538723004796 -0.001359124473634276 0.00907469100933203 0.0 0.0
0.0 0.07230444198187282 0.06280257120857537 -0.0614248383508856 -0.0013777328576897662 0.009911965505304337 0.0 0.0
0.0 0.06136835051357613 0.053361480708072555 -0.0519927767782379 -0.0013687039298346498 0.009469319194402408 0.0 0.0
0.0 0.05042729472628677 0.043974823041066535 -0.04264186739930768 -0.0013329556417588494 0.00829416606235145 0.0 0.0
0.0 0.040610108724811904 0.03532665899478729 -0.034053239821068365 -0.0012734191737189325 0.0069258153827895415 0.0 0.0
0.0 0.0320077642926629 0.027795008420350646 -0.026600573006938546 -0.0011944354134120767 0.005692077379400431 0.0 0.0
0.0 0.024474664996687163 0.02147630124810136 -0.02037574968782878 -0.0011005515602725703 0.004681845815235118 0.0 0.0
0.0 0.018567820892310447 0.016240681617905314 -0.01524308018981339 -0.0009976014280919318 0.003829683048240617 0.0 0.0
0.0 0.01347751225303852 0.011892069342706268 -0.010999282598157906 -0.0008927867445483521 0.0030300320821757456 0.0 0.0
0.0 0.009309108817784097 0.008254583692250553 -0.007473926464658685 -0.0007806572275918619 0.002235660324231836 0.0 0.0
0.0 0.005834576997550827 0.0052479493614774825 -0.004602784070369883 -0.0006451652911075974 0.0014771331537649672 0.0 0.0
0.0 0.0031435001022649253 0.002867269740122256 -0.0024026155184874868 -0.0004646542216347695 0.0008100444483424363 0.0 0.0
0.0 0.0013616346411303446 0.0011438420950016875 -0.000900514515967479 -0.0002433275790342075 0.0002543252542121352 0.0 0.0
0.0 0.0002895365525521405 0.00021260415185178088 -0.000156465923550174 -5.613822830160681e-05 1.7194843118926185e-05 0.0 0.0
0.0 4.687367971539503e-06 -1.9037064473259194e-05 1.4952573255485468e-05 4.084491217773695e-06 -1.1147590644607286e-05 0.0 0.0
0.0 -9.513615552303042e-07 1.0375365934567915e-07 -7.796950142640135e-08 -2.5784157919273087e-08 6.35641989870952e-08 0.0 0.0
0.0 0.0 0.0 0.0 0.0 0.0 0.0 0.0
0.0 0.001040070315128933 0.0006044890404954865 -0.0002661167450525069 -0.0003383722954429805 0.002020444745491691 0.0 0.0
0.0 0.005769505362010946 0.004001941938696542 -0.005596107896230716 0.001594165957534174 0.0021786950570402107 0.0 0.0
0.0 0.004040034733383844 0.0027991037290283232 -0.0039770603478346865 0.0011779566188063657 -0.0018903200887053421 0.0 0.0
0.0 0.0008354726516198389 0.00034120312373838504 -0.00013029138868910005 -0.00021091173504928537 -0.001288906978924906 0.0 0.0
0.0 0.0 0.0 0.0 0.0 0.0 0.0 0.0
0.0 -2.1175026786527247e-07 1.9226471027512064e-08 -1.544969006812908e-08 -3.77678095938152e-09 -2.443498433731356e-08 0.0 0.0
0.0 -5.3254692859841536e-06 9.47991813327779e-07 -7.568934762996443e-07 -1.9109833702813593e-07 -1.7295379641988202e-06 0.0 0.0
0.0 0.00010098009281484903 3.3082582232809606e-05 -2.1674401121858324e-05 -1.1408181110951087e-05 2.422972102496958e-05 0.0 0.0
0.0 0.0009295153412357323 0.0006509393844026001 -0.0005004358511976571 -0.00015050353320494292 -0.00020845810476222902 0.0 0.0
0.0 0.0022769850566188143 0.0020483442827739454 -0.00167684956764102 -0.000371494715132925 -0.0008106444799847771 0.0 0.0
0.0 0.004580979251142337 0.004079402069070184 -0.0035174217040617427 -0.0005619803650084388 -0.001652563740714652 0.0 0.0
0.0 0.007539712505837901 0.006661788709138442 -0.00595370442141902 -0.0007080842877194202 -0.002572590657122769 0.0 0.0
0.0 0.011151183036922977 0.00977525502932592 -0.008952634420235424 -0.0008226206090904994 -0.003533039982966379 0.0 0.0
0.0 0.015473846209682052 0.013475413231944946 -0.012551253397578163 -0.0009241598343667791 -0.004494804252963443 0.0 0.0
0.0 0.02072526936105772 0.017907330289960964 -0.016886664131815207 -0.0010206661581457378 -0.005506650289464841 0.0 0.0
0.0 0.026743917068566707 0.02327532220506118 -0.022165955349147202 -0.001109366855913969 -0.006683596544252803 0.0 0.0
0.0 0.0343080492337787 0.029699407232193376 -0.028516754134720462 -0.001182653097472907 -0.008097094027104882 0.0 0.0
0.0 0.043041418288747094 0.037143179722536286 -0.03590513495547089 -0.0012380447670653745 -0.00965336590131638 0.0 0.0
0.0 0.05238887526017689 0.045335807640245356 -0.04405981100386972 -0.001275996636375635 -0.011029027928629915 0.0 0.0
0.0 0.062064979147190544 0.05371207841485941 -0.052422179145783954 -0.001289899269075435 -0.01165629999570698 0.0 0.0
0.0 0.0709280613467372 0.0613983628477201 -0.06012134108125913 -0.001277021766460978 -0.010806742383087813 0.0 0.0
0.0 0.0776683274565819 0.0672733197670386 -0.06603091359900078 -0.0012424061680377516 -0.007735928398176515 0.0 0.0
0.0 0.08088007798288017 0.06983353967560899 -0.06881094126409652 -0.00102259841151244 1.1959183643384108e-14 0.0 0.0
0.0 0.07766832745657395 0.06727331976703056 -0.06603091359899249 -0.0012424061680380459 0.007735928398205412 0.0 0.0
0.0 0.07092806134672296 0.06139836284770665 -0.06012134108124594 -0.0012770217664606828 0.010806742383114151 0.0 0.0
0.0 0.06206497914717021 0.05371207841484106 -0.05242217914576596 -0.0012898992690750914 0.01165629999572404 0.0 0.0
0.0 0.05238887526015194 0.04533580764022373 -0.04405981100384867 -0.0012759966363750709 0.0110290279286338 0.0 0.0
0.0 0.04304141828871924 0.03714317972251211 -0.0359051349554468 -0.0012380447670652828 0.009653365901313209 0.0 0.0
0.0 0.034308049233750845 0.02969940723216908 -0.028516754134696724 -0.0011826530974723406 0.008097094027101197 0.0 0.0
0.0 0.026743917068540124 0.023275322205037856 -0.02216595534912436 -0.001109366855913493 0.00668359654424952 0.0 0.0
0.0 0.020725269361030953 0.017907330289937497 -0.016886664131791993 -0.0010206661581454906 0.005506650289459021 0.0 0.0
0.0 0.015473846209656377 0.01347541323192233 -0.012551253397556016 -0.0009241598343663153 0.0044948042529555 0.0 0.0
0.0 0.011151183036900865 0.009775255029306614 -0.008952634420216718 -0.000822620609089899 0.003533039982957731 0.0 0.0
0.0 0.00753971250581942 0.006661788709122222 -0.005953704421403603 -0.0007080842877186192 0.002572590657115139 0.0 0.0
0.0 0.0045809792511280045 0.004079402069057189 -0.0035174217040497046 -0.0005619803650074826 0.0016525637407092074 0.0 0.0
0.0 0.0022769850566100396 0.0020483442827658846 -0.0016768495676340342 -0.00037149471513185065 0.0008106444799810275 0.0 0.0
0.0 0.0009295153412295543 0.0006509393843980321 -0.0005004358511939976 -0.00015050353320403487 0.00020845810476037002 0.0 0.0
0.0 0.00010098009281308488 3.3082582232113894e-05 -2.167440112136494e-05 -1.1408181110748552e-05 -2.422972102497867e-05 0.0 0.0
0.0 -5.325469286657887e-06 9.479918133622579e-07 -7.568934763275871e-07 -1.910983370347371e-07 1.729537964262953e-06 0.0 0.0
0.0 -2.117502677458955e-07 1.9226471016883667e-08 -1.5449690059872236e-08 -3.776780957015529e-09 2.4434984322558555e-08 0.0 0.0
0.0 0.0 0.0 0.0 0.0 0.0 0.0 0.0
0.0 0.0008354726516148014 0.00034120312373616 -0.00013029138868762797 -0.0002109117350485314 0.0012889069789183169 0.0 0.0
0.0 0.004040034733371963 0.0027991037290190776 -0.003977060347822108 0.0011779566188030279 0.0018903200886983313 0.0 0.0
0.0 0.002811274823046352 0.0018636348381591084 -0.002680208233068898 0.0008165733949097902 -0.0014613239612350577 0.0 0.0
0.0 0.0004017212151189114 0.0001712484722995797 -4.7152117809112006e-05 -0.00012409635449046766 -0.0007530981291264629 0.0 0.0
0.0 0.0 0.0 0.0 0.0 0.0 0.0 0.0
0.0 9.284367499638105e-09 -7.860409871244372e-10 5.99985333389106e-10 1.8605565373520125e-10 1.1788236078775784e-09 0.0 0.0
0.0 -2.250069901053649e-06 -8.124286828788053e-07 6.52369429931969e-07 1.6005925294684626e-07 9.172245668360939e-07 0.0 0.0
0.0 -7.254066562656484e-06 -7.502127023419139e-06 6.852589143537668e-06 6.495378798813534e-07 2.1203826844618317e-05 0.0 0.0
0.0 0.000369955966258868 0.0003180585128362018 -0.00023976216873226004 -7.829634410394178e-05 -0.00015624919369126755 0.0 0.0
0.0 0.0017372375555390548 0.0012695310128234489 -0.0010131651110203447 -0.00025636590180310505 -0.0006557495438402809 0.0 0.0
0.0 0.0032479670565467686 0.0029472509140106825 -0.002485521878978308 -0.0004617290350323714 -0.0015888074179935725 0.0 0.0
0.0 0.00585079479194946 0.005092111022304953 -0.00447459130236073 -0.0006175197199442194 -0.002633656200115784 0.0 0.0
0.0 0.008850529915754876 0.007685288417490891 -0.0069464384263923 -0.0007388499910985908 -0.003700170910643367 0.0 0.0
0.0 0.012415164509142033 0.010747292488218246 -0.009907403584916697 -0.0008398889033015438 -0.004766983452088386 0.0 0.0
0.0 0.016678756701937584 0.014394657324024628 -0.013462188995955736 -0.000932468328068898 -0.005867498402173514 0.0 0.0
0.0 0.02191991786682198 0.01880461885394887 -0.0177899767528832 -0.001014642101065664 -0.007118323837117825 0.0 0.0
0.0 0.028081869839980397 0.02412333636828577 -0.02303971227513511 -0.0010836240931506671 -0.008608603017285237 0.0 0.0
0.0 0.035214998136221864 0.030354312428369508 -0.02921703749612318 -0.0011372749322463229 -0.010246401700460449 0.0 0.0
0.0 0.04358978627077137 0.03730071538473842 -0.036125863733079154 -0.0011748516516592547 -0.011711525740052853 0.0 0.0
0.0 0.05190976562542913 0.04456517508685752 -0.04336973601286487 -0.001195439073992659 -0.012481771091720346 0.0 0.0
0.0 0.05965726772919947 0.05146510263168524 -0.050273345331515826 -0.0011917573001693905 -0.011776537130913525 0.0 0.0
0.0 0.06606574050349896 0.05702657118703747 -0.05586993830372279 -0.0011566328833146561 -0.008595762789051439 0.0 0.0
0.0 0.06940989562180583 0.0596426782112888 -0.05877677157950283 -0.0008659066317859407 1.2682997013735431e-14 0.0 0.0
0.0 0.06606574050349298 0.05702657118703067 -0.0558699383037159 -0.0011566328833148066 0.0085957627890795 0.0 0.0
0.0 0.059657267729185434 0.051465102631671776 -0.05027334533150216 -0.001191757300169582 0.01177653713094065 0.0 0.0
0.0 0.05190976562541363 0.044565175086843184 -0.043369736012851025 -0.0011954390739921535 0.0124817710917371 0.0 0.0
0.0 0.04358978627075119 0.03730071538472086 -0.03612586373306239 -0.0011748516516585017 0.01171152574005639 0.0 0.0
0.0 0.03521499813619992 0.03035431242835047 -0.029217037496104412 -0.0011372749322460512 0.010246401700456698 0.0 0.0
0.0 0.028081869839958307 0.02412333636826637 -0.02303971227511645 -0.001083624093149913 0.008608603017280631 0.0 0.0
0.0 0.021919917866799875 0.01880461885392922 -0.017789976752864055 -0.0010146421010651808 0.007118323837113493 0.0 0.0
0.0 0.016678756701914165 0.014394657324004561 -0.013462188995935825 -0.0009324683280687285 0.0058674984021675385 0.0 0.0
0.0 0.012415164509120002 0.010747292488199216 -0.009907403584898118 -0.0008398889033010899 0.004766983452080081 0.0 0.0
0.0 0.008850529915736406 0.007685288417475105 -0.006946438426377353 -0.000738849991097755 0.0037001709106340907 0.0 0.0
0.0 0.005850794791935195 0.005092111022292262 -0.004474591302348776 -0.0006175197199434806 0.002633656200108087 0.0 0.0
0.0 0.0032479670565346954 0.002947250913999473 -0.0024855218789681358 -0.00046172903503133777 0.0015888074179871545 0.0 0.0
0.0 0.0017372375555310098 0.0012695310128172457 -0.0010131651110151852 -0.00025636590180206086 0.0006557495438370113 0.0 0.0
0.0 0.0003699559662551742 0.0003180585128336242 -0.00023976216873028853 -7.82963441033356e-05 0.00015624919368983876 0.0 0.0
0.0 -7.254066563353603e-06 -7.502127023286009e-06 6.852589143423582e-06 6.495378798624003e-07 -2.120382684425438e-05 0.0 0.0
0.0 -2.2500699011119534e-06 -8.124286828941217e-07 6.523694299441323e-07 1.6005925294997464e-07 -9.172245668754097e-07 0.0 0.0
0.0 9.284367478450311e-09 -7.860409853173938e-10 5.99985332009828e-10 1.8605565330757216e-10 -1.1788236051675036e-09 0.0 0.0
0.0 0.0 0.0 0.0 0.0 0.0 0.0 0.0
0.0 0.0004017212151149748 0.000171248472298006 -4.715211780806347e-05 -0.00012409635448994207 0.000753098129121511 0.0 0.0
0.0 0.002811274823037263 0.0018636348381520426 -0.002680208233059035 0.0008165733949069913 0.0014613239612299787 0.0 0.0
0.0 0.001698206722802175 0.0011554027289451094 -0.00167181573588696 0.0005164130069418502 -0.0010474457427124757 0.0 0.0
0.0 0.0001897480518317804 4.910068700477864e-05 1.9185781380421507e-05 -6.828646838520031e-05 -0.0003429122563837806 0.0 0.0
0.0 0.0 0.0 0.0 0.0 0.0 0.0 0.0
0.0 0.0 0.0 0.0 0.0 0.0 0.0 0.0
0.0 -2.2122289415403274e-06 1.768202819230157e-07 -1.3955683188459526e-07 -3.726345003840926e-08 -4.541171924611221e-07 0.0 0.0
0.0 -1.4425922582551167e-05 -1.3698305957045704e-05 1.0967069849134345e-05 2.7312361079114494e-06 2.3479373857865588e-05 0.0 0.0
0.0 0.00012819117672781713 7.47123944084211e-05 -5.5325272336845745e-05 -1.9387122071575466e-05 -4.295397818107169e-05 0.0 0.0
0.0 0.0008133739360318603 0.0006816037142120476 -0.0005314102528534997 -0.00015019346135854784 -0.0004914494600606387 0.0 0.0
0.0 0.0025064796621233347 0.0018438563690928848 -0.0015154321185274749 -0.0003284242505654089 -0.001266524059192572 0.0 0.0
0.0 0.004083423643033456 0.003570022293764759 -0.003067161956267235 -0.0005028603374975259 -0.0023861418636344387 0.0 0.0
0.0 0.006623992776461944 0.0056361542810264235 -0.005003437136150453 -0.0006327171448759676 -0.0035132308960005316 0.0 0.0
0.0 0.009479536273629078 0.008067001549635633 -0.007329200422966287 -0.0007378011266693445 -0.0046271158833918425 0.0 0.0
0.0 0.012845721875042664 0.010943628603603733 -0.010114259137273094 -0.0008293694663306457 -0.005752026259624497 0.0 0.0
0.0 0.01693283830806389 0.014418287245248686 -0.013510104766815623 -0.0009081824784330553 -0.006997659847107817 0.0 0.0
0.0 0.021842040772912085 0.018628850138357474 -0.017655496132650345 -0.0009733540057071149 -0.008442926106175573 0.0 0.0
0.0 0.027956961865474177 0.02362103186656595 -0.022597555460873234 -0.0010234764056927205 -0.0100454082012165 0.0 0.0
0.0 0.03425318027682793 0.02930218529989494 -0.028238677963380095 -0.0010635073365148511 -0.011521637218793592 0.0 0.0
0.0 0.04152563319961461 0.03538784428659862 -0.03429637044382904 -0.0010914738427695555 -0.012382548578180072 0.0 0.0
0.0 0.04862750765909967 0.041437957819261 -0.04033954468142147 -0.0010984131378395383 -0.011926154450545099 0.0 0.0
0.0 0.05454803509772505 0.04669460148841745 -0.0456294444905773 -0.0010651569978401185 -0.009031218424150882 0.0 0.0
0.0 0.05813733676959725 0.04941205867230332 -0.048721953639273126 -0.0006901050330302169 1.1673821631585923e-14 0.0 0.0
0.0 0.054548035097720965 0.046694601488411855 -0.045629444490572 -0.0010651569978398167 0.009031218424177208 0.0 0.0
0.0 0.04862750765909019 0.04143795781925108 -0.04033954468141145 -0.001098413137839633 0.011926154450572397 0.0 0.0
0.0 0.04152563319960201 0.03538784428658689 -0.03429637044381749 -0.0010914738427693824 0.012382548578195202 0.0 0.0
0.0 0.03425318027681118 0.02930218529988049 -0.028238677963366363 -0.0010635073365141124 0.011521637218795476 0.0 0.0
0.0 0.027956961865456702 0.023621031866551023 -0.022597555460858332 -0.0010234764056926875 0.010045408201212072 0.0 0.0
0.0 0.02184204077289501 0.018628850138342225 -0.017655496132635652 -0.0009733540057065576 0.008442926106170616 0.0 0.0
0.0 0.016932838308048127 0.014418287245234624 -0.01351010476680212 -0.0009081824784325042 0.006997659847104321 0.0 0.0
0.0 0.0128457218750251 0.010943628603588686 -0.010114259137258679 -0.000829369466330001 0.005752026259619121 0.0 0.0
0.0 0.009479536273611772 0.008067001549621191 -0.007329200422952138 -0.0007378011266690631 0.004627115883383626 0.0 0.0
0.0 0.006623992776447029 0.005636154281013864 -0.005003437136138743 -0.0006327171448751167 0.0035132308959909164 0.0 0.0
0.0 0.004083423643021359 0.003570022293754409 -0.00306716195625758 -0.0005028603374968289 0.002386141863626807 0.0 0.0
0.0 0.0025064796621127533 0.0018438563690849254 -0.001515432118520574 -0.00032842425056435037 0.0012665240591871177 0.0 0.0
0.0 0.0008133739360262109 0.0006816037142076811 -0.0005314102528499602 -0.00015019346135772 0.0004914494600574995 0.0 0.0
0.0 0.00012819117672537245 7.47123944072793e-05 -5.532527233600034e-05 -1.9387122071279052e-05 4.295397818023252e-05 0.0 0.0
0.0 -1.442592258314631e-05 -1.3698305956731026e-05 1.0967069848893247e-05 2.731236107837699e-06 -2.3479373857534787e-05 0.0 0.0
0.0 -2.212228941358966e-06 1.7682028192832712e-07 -1.395568318893792e-07 -3.726345003894467e-08 4.5411719248410635e-07 0.0 0.0
0.0 0.0 0.0 0.0 0.0 0.0 0.0 0.0
0.0 0.0 0.0 0.0 0.0 0.0 0.0 0.0
0.0 0.0001897480518289074 4.910068700379344e-05 1.918578138107031e-05 -6.828646838486394e-05 0.0003429122563803804 0.0 0.0
0.0 0.0016982067227955667 0.0011554027289400262 -0.0016718157358796934 0.0005164130069396679 0.001047445742708709 0.0 0.0
0.0 0.0012857824431710143 0.000574918723033093 -0.0008333027441911332 0.0002583840211580403 -0.0005885866721629203 0.0 0.0
0.0 -3.1103630558653486e-05 -1.0218312975253608e-05 4.117502785059814e-05 -3.095671487534458e-05 -9.00201304924401e-05 0.0 0.0
0.0 1.683476983325989e-07 -9.842474380911868e-10 1.1381256918532304e-09 -1.5387825376230337e-10 3.35101228491758e-08 0.0 0.0
0.0 0.0 0.0 0.0 0.0 0.0 0.0 0.0
0.0 -7.26942774012242e-07 -4.018312744631731e-08 3.440561719362403e-08 5.7775102526992085e-09 6.079756312740252e-08 0.0 0.0
0.0 -6.494783009509255e-06 -4.240322445334801e-06 3.3594399175022e-06 8.808825278325654e-07 1.178041556114285e-05 0.0 0.0
0.0 -6.96555990206868e-06 -1.4064777774017708e-05 1.1492245498189183e-05 2.572532275828406e-06 2.9525617005167173e-05 0.0 0.0
0.0 0.0002959266588158161 0.00024049702021648067 -0.00018572999861774122 -5.4767021598739466e-05 -0.0002777993962696299 0.0 0.0
0.0 0.001206528127671943 0.0009445617608581249 -0.0007564350495083813 -0.00018812671134974316 -0.0008849685106415667 0.0 0.0
0.0 0.002872212398144191 0.0021069885101793586 -0.0017618845360976047 -0.0003451039740817536 -0.0018069748834020865 0.0 0.0
0.0 0.004487499384786112 0.0036486475056574747 -0.00316075752031725 -0.00048788998534022367 -0.0029402806092926016 0.0 0.0
0.0 0.006578294330689029 0.005458742214648329 -0.004856190501555343 -0.0006025517130929914 -0.004042467521860305 0.0 0.0
0.0 0.009127042896439013 0.007578599074786173 -0.006880057999065716 -0.0006985410757204506 -0.0051365823932124615 0.0 0.0
0.0 0.012151076951459937 0.010135140941824092 -0.009357346944525183 -0.0007777939972989115 -0.006300345322872199 0.0 0.0
0.0 0.015931196302891 0.013247780213665513 -0.012405917196451337 -0.0008418630172141759 -0.007613404759173214 0.0 0.0
0.0 0.02034498329896383 0.016999668813490118 -0.01610748147979235 -0.0008921873336977525 -0.009047914648784258 0.0 0.0
0.0 0.025683399544560365 0.021361622807803543 -0.020429323822603516 -0.0009322989852000217 -0.010427656189542321 0.0 0.0
0.0 0.031289543466793336 0.026205177720851253 -0.025238113468366186 -0.0009670642524850591 -0.011322081350285344 0.0 0.0
0.0 0.036993602905888025 0.03131198268502029 -0.030320584495686257 -0.0009913981893340397 -0.011182727335985021 0.0 0.0
0.0 0.04267494313751813 0.036205336936100854 -0.03523867565124704 -0.000966661284853816 -0.008968846922552997 0.0 0.0
0.0 0.046653243340379895 0.03905800172621626 -0.03856776488399922 -0.0004902368422170313 9.575239906522981e-15 0.0 0.0
0.0 0.042674943137514826 0.03620533693609576 -0.03523867565124195 -0.0009666612848537946 0.008968846922575886 0.0 0.0
0.0 0.036993602905881745 0.03131198268501263 -0.030320584495678957 -0.0009913981893336734 0.011182727336009597 0.0 0.0
0.0 0.031289543466783545 0.026205177720842132 -0.02523811346835722 -0.0009670642524849389 0.011322081350298389 0.0 0.0
0.0 0.02568339954454537 0.021361622807790717 -0.020429323822591362 -0.0009322989851993525 0.010427656189541817 0.0 0.0
0.0 0.020344983298949612 0.016999668813478398 -0.016107481479780774 -0.0008921873336976375 0.009047914648779085 0.0 0.0
0.0 0.015931196302877974 0.013247780213654217 -0.012405917196440382 -0.0008418630172138374 0.007613404759168538 0.0 0.0
0.0 0.012151076951448616 0.01013514094181423 -0.009357346944515926 -0.0007777939972983024 0.006300345322868998 0.0 0.0
0.0 0.00912704289642637 0.007578599074775533 -0.006880057999055703 -0.0006985410757198303 0.005136582393207223 0.0 0.0
0.0 0.006578294330677339 0.005458742214638478 -0.00485619050154594 -0.0006025517130925352 0.004042467521853037 0.0 0.0
0.0 0.004487499384775122 0.003648647505648602 -0.0031607575203092776 -0.000487889985339324 0.0029402806092839995 0.0 0.0
0.0 0.0028722123981347932 0.0021069885101721387 -0.0017618845360911123 -0.0003451039740810264 0.0018069748833955263 0.0 0.0
0.0 0.001206528127665521 0.0009445617608532882 -0.0007564350495043568 -0.0001881267113489309 0.0008849685106375589 0.0 0.0
0.0 0.00029592665881248125 0.00024049702021417208 -0.000185729998615903 -5.476702159826926e-05 0.0002777993962673101 0.0 0.0
0.0 -6.965559902520328e-06 -1.4064777774010645e-05 1.1492245498183983e-05 2.572532275826606e-06 -2.9525617005269772e-05 0.0 0.0
0.0 -6.494783010187896e-06 -4.240322444933269e-06 3.359439917182197e-06 8.808825277511154e-07 -1.1780415560023405e-05 0.0 0.0
0.0 -7.269427739659645e-07 -4.018312752361796e-08 3.440561725576135e-08 5.7775102678514914e-09 -6.079756335764454e-08 0.0 0.0
0.0 0.0 0.0 0.0 0.0 0.0 0.0 0.0
0.0 1.6834769789144244e-07 -9.84247435487633e-10 1.1381256888423935e-09 -1.5387825335482658e-10 -3.351012276057265e-08 0.0 0.0
0.0 -3.110363055992282e-05 -1.0218312975608394e-05 4.11750278507625e-05 -3.0956714875154325e-05 9.002013049078968e-05 0.0 0.0
0.0 0.0012857824431647114 0.0005749187230297067 -0.0008333027441862362 0.0002583840211565308 0.0005885866721599714 0.0 0.0
0.0 0.0004723251495110292 0.0002387478022513953 -0.0003477877169217 0.00010903991467030545 -0.00030438040833309784 0.0 0.0
0.0 -5.266571502740981e-05 -2.7030417723050662e-05 4.068777062125698e-05 -1.3657352898206374e-05 2.7493539509142818e-05 0.0 0.0
0.0 2.460681027693135e-06 -4.117831685075156e-09 1.0773402399554574e-08 -6.6555707144781685e-09 5.337876656849256e-07 0.0 0.0
0.0 -2.4363969988976666e-07 4.67274257071459e-09 -2.865438166614223e-09 -1.807304404100963e-09 -4.998462457855251e-08 0.0 0.0
0.0 6.233628489086471e-07 -8.196377453290556e-09 3.608994933244982e-09 4.587382520045591e-09 1.3531606602111735e-07 0.0 0.0
0.0 -9.699298306662575e-06 5.879058478595196e-08 -3.367715529243573e-08 -2.5113429493511017e-08 4.4206891163942375e-07 0.0 0.0
0.0 -7.933086234590181e-06 -1.3261857615599563e-05 1.0633472064969047e-05 2.628385550630481e-06 4.5343443771790056e-05 0.0 0.0
0.0 8.629775023176727e-05 3.629765053944652e-06 -3.246969440793697e-06 -3.827956131509102e-07 -3.3340256845423994e-05 0.0 0.0
0.0 0.0004300228853277969 0.0002640697877132521 -0.0002117781069793388 -5.2291680733913355e-05 -0.00045278116723664573 0.0 0.0
0.0 0.0013135148097316567 0.0008751710511720116 -0.0007186337093429984 -0.00015653734182901306 -0.0011056910693960007 0.0 0.0
0.0 0.002370085431890545 0.0018100079893167383 -0.0015261959477964554 -0.000283812041520282 -0.0020238340554850874 0.0 0.0
0.0 0.0038435812748380048 0.0029660728908456196 -0.002568100576049166 -0.00039797231479645384 -0.002990861906131797 0.0 0.0
0.0 0.005536300076029978 0.004341162582259831 -0.0038383696272747034 -0.0005027929549851246 -0.003991218544622473 0.0 0.0
0.0 0.00755892838086097 0.006002218170118886 -0.005412038744973084 -0.0005901794251457956 -0.005027328481539983 0.0 0.0
0.0 0.010083052969794074 0.008038735383693471 -0.007377791242313258 -0.0006609441413802172 -0.0061298233947216585 0.0 0.0
0.0 0.013203312547373178 0.010540311708960904 -0.009824030670395112 -0.0007162810385657925 -0.007318346758280709 0.0 0.0
0.0 0.016916948426536103 0.01356028169420656 -0.012796374352706658 -0.0007639073414998941 -0.008511453934708852 0.0 0.0
0.0 0.021011344115189436 0.017089729792227924 -0.016286439405208634 -0.000803290387019298 -0.009397994707195942 0.0 0.0
0.0 0.025629993185700133 0.02109514048455153 -0.02025094024609412 -0.0008442002384573972 -0.009484545344830267 0.0 0.0
0.0 0.030872479956077843 0.025483197585235377 -0.024632004655909978 -0.0008511929293253818 -0.008209267871380177 0.0 0.0
0.0 0.035042376280591016 0.028493470961393503 -0.02823030675130755 -0.00026316421008597507 7.713881616799867e-15 0.0 0.0
0.0 0.03087247995607725 0.025483197585232393 -0.024632004655906724 -0.0008511929293256687 0.008209267871399119 0.0 0.0
0.0 0.02562999318569397 0.02109514048454427 -0.020250940246087163 -0.0008442002384570931 0.009484545344849271 0.0 0.0
0.0 0.021011344115182178 0.017089729792221335 -0.016286439405202316 -0.0008032903870190036 0.009397994707205985 0.0 0.0
0.0 0.0169169484265254 0.013560281694198007 -0.012796374352698819 -0.0007639073414991903 0.00851145393470688 0.0 0.0
0.0 0.013203312547362822 0.010540311708952647 -0.009824030670387132 -0.000716281038565497 0.0073183467582748655 0.0 0.0
0.0 0.010083052969785128 0.008038735383686012 -0.0073777912423061195 -0.0006609441413798878 0.006129823394717624 0.0 0.0
0.0 0.0075589283808529875 0.006002218170112109 -0.005412038744966782 -0.0005901794251453301 0.00502732848153745 0.0 0.0
0.0 0.0055363000760219 0.004341162582253052 -0.0038383696272684033 -0.0005027929549846458 0.00399121854461796 0.0 0.0
0.0 0.00384358127483009 0.002966072890840013 -0.002568100576044066 -0.0003979723147959472 0.0029908619061258575 0.0 0.0
0.0 0.0023700854318829444 0.0018100079893107672 -0.001526195947791219 -0.0002838120415195488 0.0020238340554777174 0.0 0.0
0.0 0.0013135148097259148 0.0008751710511680116 -0.0007186337093397345 -0.00015653734182827656 0.0011056910693920839 0.0 0.0
0.0 0.00043002288532477704 0.0002640697877114797 -0.00021177810697788768 -5.2291680733592066e-05 0.00045278116723423983 0.0 0.0
0.0 8.629775023056279e-05 3.629765053586228e-06 -3.2469694405031593e-06 -3.827956130829615e-07 3.33402568444985e-05 0.0 0.0
0.0 -7.933086235951875e-06 -1.3261857615357537e-05 1.06334720647801e-05 2.628385550577496e-06 -4.534344377101139e-05 0.0 0.0
0.0 -9.69929830718231e-06 5.879058478459788e-08 -3.3677155291833e-08 -2.511342949279918e-08 -4.4206891156584597e-07 0.0 0.0
0.0 6.23362848792628e-07 -8.196377454568047e-09 3.6089949352570515e-09 4.587382519321487e-09 -1.3531606599445892e-07 0.0 0.0
0.0 -2.436396997976858e-07 4.67274256891026e-09 -2.865438165498191e-09 -1.8073044034137032e-09 4.9984624558949425e-08 0.0 0.0
0.0 2.460681027502763e-06 -4.117831685514943e-09 1.0773402399628777e-08 -6.655570714112477e-09 -5.337876656339691e-07 0.0 0.0
0.0 -5.266571502758283e-05 -2.703041772270026e-05 4.0687770620781595e-05 -1.3657352898081315e-05 -2.7493539508511958e-05 0.0 0.0
0.0 0.0004723251495068517 0.0002387478022494889 -0.0003477877169189886 0.00010903991466949955 0.0003043804083307906 0.0 0.0
0.0 0.0001243863106163944 2.878552775441574e-05 -4.340377247948003e-05 1.4618244725064411e-05 -3.657793174218054e-05 0.0 0.0
0.0 -1.3776892212708167e-05 -5.1277223529772226e-06 7.211904993391532e-06 -2.0841826404143054e-06 8.82905448344061e-06 0.0 0.0
0.0 5.349852057421339e-07 6.401764979369936e-10 9.549862055818769e-10 -1.5951627035180371e-09 1.0756131853937915e-07 0.0 0.0
0.0 2.436080776126386e-07 8.137071863921834e-09 -7.318061333627642e-09 -8.19010530296412e-10 4.870757729381507e-08 0.0 0.0
0.0 1.3594309053105892e-07 2.4029076266449467e-08 -1.9068505419017562e-08 -4.96057084742354e-09 3.3458739142496685e-09 0.0 0.0
0.0 -2.4467631996363797e-07 -5.260095252445229e-07 4.011383283220629e-07 1.248711969224344e-07 5.262603936615092e-06 0.0 0.0
0.0 -4.800573607915337e-06 -3.7863185845679794e-06 3.04286128925797e-06 7.434572953100301e-07 2.6489797735112776e-05 0.0 0.0
0.0 4.2783780502386985e-05 7.635618812770569e-07 -4.089066971915233e-07 -3.5465518408554877e-07 -3.920398599487963e-05 0.0 0.0
0.0 0.00011996590765630238 7.347225208288796e-06 -6.853674275598174e-06 -4.935509326905863e-07 -0.00017321686099922403 0.0 0.0
0.0 0.00032420432406833117 9.578922093635256e-05 -8.357887373589222e-05 -1.2210347200460504e-05 -0.0004782574324729144 0.0 0.0
0.0 0.000875848327097616 0.000337869544762138 -0.00030070585012870063 -3.716369463343745e-05 -0.0009689330366108608 0.0 0.0
0.0 0.0014133236355871929 0.0007664652945908254 -0.0006828483160725984 -8.361697851822589e-05 -0.001699502371466611 0.0 0.0
0.0 0.0022917350482878204 0.0013743976476619736 -0.001224187746686782 -0.00015020990097519104 -0.002503571838901959 0.0 0.0
0.0 0.0034184139514903053 0.0021532689948815078 -0.0019327604338994627 -0.00022050856098204734 -0.0033805652538500567 0.0 0.0
0.0 0.004795954802406015 0.0031484104733745786 -0.0028540071352094938 -0.0002944033381650815 -0.0043216587202697995 0.0 0.0
0.0 0.006514788985214792 0.004412535144062262 -0.0040414578749511975 -0.0003710772691110643 -0.00533048849879883 0.0 0.0
0.0 0.008744618405109067 0.006058087685540643 -0.005606887109283008 -0.0004512005762576384 -0.0064156041836151085 0.0 0.0
0.0 0.01162605205979562 0.008223759122554004 -0.00770018467112206 -0.0005235744514319418 -0.007355216834216993 0.0 0.0
0.0 0.01496180073874708 0.010992848741064293 -0.010410998296736102 -0.000581850444328204 -0.007595067006941096 0.0 0.0
0.0 0.018896554152353067 0.01456288046065837 -0.013902601238111734 -0.0006602792225466273 -0.006738275364860626 0.0 0.0
0.0 0.024114781600807874 0.01765886112155806 -0.017671636676673694 1.2775555115616843e-05 5.499940780584467e-15 0.0 0.0
0.0 0.018896554152356304 0.014562880460658071 -0.013902601238111365 -0.000660279222546704 0.0067382753648759265 0.0 0.0
0.0 0.014961800738743284 0.010992848741059536 -0.0104109982967317 -0.000581850444327834 0.007595067006955427 0.0 0.0
0.0 0.011626052059789341 0.008223759122549234 -0.007700184671117248 -0.0005235744514319942 0.007355216834221854 0.0 0.0
0.0 0.00874461840510353 0.0060580876855381065 -0.005606887109280563 -0.0004512005762575455 0.006415604183611568 0.0 0.0
0.0 0.006514788985209099 0.004412535144058237 -0.004041457874947233 -0.0003710772691110043 0.0053304884987940395 0.0 0.0
0.0 0.004795954802401669 0.003148410473371195 -0.002854007135206186 -0.0002944033381650097 0.004321658720266368 0.0 0.0
0.0 0.0034184139514863636 0.002153268994879184 -0.0019327604338973652 -0.00022050856098181911 0.0033805652538478866 0.0 0.0
0.0 0.0022917350482835087 0.0013743976476594606 -0.0012241877466844747 -0.0001502099009749853 0.002503571838897322 0.0 0.0
0.0 0.0014133236355838973 0.0007664652945893078 -0.0006828483160712061 -8.36169785181017e-05 0.0016995023714624447 0.0 0.0
0.0 0.0008758483270926493 0.0003378695447598143 -0.000300705850126588 -3.7163694633226024e-05 0.000968933036604918 0.0 0.0
0.0 0.00032420432406641295 9.578922093549504e-05 -8.357887373513236e-05 -1.2210347200362682e-05 0.00047825743247122837 0.0 0.0
0.0 0.00011996590765561669 7.347225208201449e-06 -6.853674275534919e-06 -4.93550932666495e-07 0.0001732168609982231 0.0 0.0
0.0 4.278378050121612e-05 7.63561881221766e-07 -4.0890669713995023e-07 -3.5465518408182717e-07 3.9203985994124804e-05 0.0 0.0
0.0 -4.800573608038169e-06 -3.7863185844953336e-06 3.042861289196954e-06 7.434572952983899e-07 -2.6489797734505596e-05 0.0 0.0
0.0 -2.4467632043541457e-07 -5.260095252439966e-07 4.0113832832289116e-07 1.2487119692110638e-07 -5.262603936537906e-06 0.0 0.0
0.0 1.3594309011922446e-07 2.4029076266739186e-08 -1.906850541868594e-08 -4.960570848056445e-09 -3.3458738293035996e-09 0.0 0.0
0.0 2.436080774645492e-07 8.137071860818163e-09 -7.3180613307116555e-09 -8.190105301053078e-10 -4.870757726290399e-08 0.0 0.0
0.0 5.349852053347855e-07 6.401764979348632e-10 9.54986204320233e-10 -1.5951627022593786e-09 -1.0756131845488952e-07 0.0 0.0
0.0 -1.3776892213254642e-05 -5.127722352912371e-06 7.211904993299779e-06 -2.0841826403873994e-06 -8.829054483308864e-06 0.0 0.0
0.0 0.00012438631061490333 2.8785527754119624e-05 -4.340377247903174e-05 1.4618244724912017e-05 3.6577931741843076e-05 0.0 0.0
0.0 2.6274968993472442e-06 2.40429767275245e-06 -3.6813803308901694e-06 1.2770826581376708e-06 -3.899179564230818e-06 0.0 0.0
0.0 -1.6523785590209853e-06 -3.0818463338735867e-07 4.732761129387416e-07 -1.6509147955137008e-07 2.543750621210169e-07 0.0 0.0
0.0 3.6187657992177032e-06 1.0195274959671077e-08 7.11349756412122e-09 -1.7308772523796264e-08 7.81723116672718e-07 0.0 0.0
0.0 1.2405663355666563e-06 2.296314495505155e-08 -1.9338392250235115e-08 -3.624752704813151e-09 2.542797602654144e-07 0.0 0.0
0.0 7.821947515459587e-08 1.9553413154148733e-08 -1.741372149231297e-08 -2.139691661835925e-09 -6.284691891100786e-09 0.0 0.0
0.0 -1.4789615925431609e-06 4.0107737608408225e-08 -3.601501316622338e-08 -4.092724442181717e-09 5.103516677326627e-06 0.0 0.0
0.0 -6.947108473341845e-07 -4.4240280239682624e-08 1.7757545449506525e-08 2.6482734790165194e-08 2.5405225218953518e-05 0.0 0.0
0.0 3.253106519142083e-05 -2.520139105852982e-07 2.588874327945511e-07 -6.873522209243792e-09 -5.467127924888219e-05 0.0 0.0
0.0 0.00014639913585202672 -1.948161843171364e-08 2.167896295860398e-08 -2.197344526864294e-09 -0.0001667863748602662 0.0 0.0
0.0 0.00023378954412565055 1.3127147042927203e-07 -1.0997454761147044e-07 -2.129692281779905e-08 -0.00038595574247194086 0.0 0.0
0.0 0.0004579217500567685 -9.554266818540645e-07 5.774226149668134e-07 3.780040668872068e-07 -0.0006277266664837172 0.0 0.0
0.0 0.0005865098224540621 8.446546655302087e-07 -6.558903585494473e-07 -1.887643069807224e-07 -0.0010660326349647767 0.0 0.0
0.0 0.0008216247148438484 1.8811810206291143e-06 -1.2910962415324894e-06 -5.900847790965775e-07 -0.0016031701515431228 0.0 0.0
0.0 0.00114248057195791 4.330784237061014e-07 7.208685322536922e-07 -1.1539469559597665e-06 -0.002320881820626092 0.0 0.0
0.0 0.0015830453918598436 -1.109692806539785e-05 1.1167480654452082e-05 -7.055258905443423e-08 -0.0032466027806484035 0.0 0.0
0.0 0.0022965354856327195 3.8733747105727974e-05 -5.2105658202619e-05 1.3371911096890862e-05 -0.004405644945444118 0.0 0.0
0.0 0.003266373154793485 0.0002790092749716536 -0.00032741213471559563 4.840285974394276e-05 -0.005688992078402361 0.0 0.0
0.0 0.004513403321919595 0.0008192080383973569 -0.0009424492714993304 0.00012324123310197263 -0.00697020785389222 0.0 0.0
0.0 0.006391515426281451 0.00168338391969031 -0.001866477923307131 0.0001830940036168229 -0.007988973063995071 0.0 0.0
0.0 0.009414227198334853 0.0038536600075730785 -0.00375312719037324 -0.00010053281719983736 -0.00796350975009356 0.0 0.0
0.0 0.01628360332551458 0.007399117557205127 -0.007814025602143178 0.00041490804493805384 6.0233935894604684e-15 0.0 0.0
0.0 0.009414227198338931 0.0038536600075728847 -0.0037531271903732256 -0.0001005328171996584 0.00796350975010664 0.0 0.0
0.0 0.006391515426279326 0.0016833839196880142 -0.0018664779233046919 0.00018309400361667873 0.007988973063998374 0.0 0.0
0.0 0.004513403321914025 0.0008192080383963736 -0.0009424492714979111 0.00012324123310153792 0.006970207853888228 0.0 0.0
0.0 0.0032663731547907483 0.0002790092749731356 -0.00032741213471745216 4.840285974431596e-05 0.005688992078396587 0.0 0.0
0.0 0.0022965354856299535 3.873374710634776e-05 -5.2105658203333407e-05 1.3371911096985974e-05 0.004405644945440663 0.0 0.0
0.0 0.0015830453918580791 -1.1096928065813913e-05 1.1167480655088888e-05 -7.055258927501516e-08 0.0032466027806453573 0.0 0.0
0.0 0.0011424805719562655 4.3307842410487095e-07 7.208685319002694e-07 -1.1539469560051404e-06 0.0023208818206234424 0.0 0.0
0.0 0.0008216247148408915 1.8811810205867355e-06 -1.2910962415455744e-06 -5.900847790412764e-07 0.0016031701515372755 0.0 0.0
0.0 0.0005865098224522883 8.446546655531531e-07 -6.558903586049381e-07 -1.8876430694823867e-07 0.0010660326349610427 0.0 0.0
0.0 0.0004579217500539156 -9.554266816200153e-07 5.774226147757499e-07 3.780040668443078e-07 0.000627726666479324 0.0 0.0
0.0 0.00023378954412565722 1.3127147044851323e-07 -1.0997454762799775e-07 -2.129692282049685e-08 0.0003859557424721711 0.0 0.0
0.0 0.0001463991358510742 -1.9481618409342654e-08 2.1678962938742753e-08 -2.197344529416616e-09 0.00016678637485901924 0.0 0.0
0.0 3.2531065190631936e-05 -2.520139105954571e-07 2.5888743281154175e-07 -6.873522216069078e-09 5.4671279248211474e-05 0.0 0.0
0.0 -6.947108477600795e-07 -4.424028024350174e-08 1.7757545452870543e-08 2.6482734790639387e-08 -2.5405225218612858e-05 0.0 0.0
0.0 -1.4789615931019125e-06 4.010773760420531e-08 -3.6015013162516303e-08 -4.092724441695247e-09 -5.103516677159918e-06 0.0 0.0
0.0 7.821947466927294e-08 1.955341314824257e-08 -1.741372148698716e-08 -2.13969166125215e-09 6.284691988554587e-09 0.0 0.0
0.0 1.2405663350389034e-06 2.2963144945294832e-08 -1.9338392241929008e-08 -3.624752703366745e-09 -2.542797601527055e-07 0.0 0.0
0.0 3.618765798929172e-06 1.0195274960301875e-08 7.113497562151617e-09 -1.7308772522443827e-08 -7.817231166001966e-07 0.0 0.0
0.0 -1.6523785589167844e-06 -3.0818463343469013e-07 4.732761130053754e-07 -1.6509147957070255e-07 -2.5437506219753297e-07 0.0 0.0
0.0 2.627496898248641e-06 2.404297673077956e-06 -3.6813803313752745e-06 1.2770826582974212e-06 3.899179564845136e-06 0.0 0.0
0.0 -1.1154274967154842e-06 6.94027292706571e-08 -1.0140536005932449e-07 3.200263078866925e-08 -1.5472886577778064e-07 0.0 0.0
0.0 1.7918000042185022e-07 -8.709275583130871e-09 1.2408309398132015e-08 -3.6990338150030894e-09 3.0163412121232195e-08 0.0 0.0
0.0 -8.826497244967562e-07 -1.2994467622963783e-08 9.317246254383222e-09 3.677221368580728e-09 -1.9103679018332728e-07 0.0 0.0
0.0 1.490317100255079e-06 4.241911744592017e-08 -3.470315010590186e-08 -7.71596734001991e-09 3.1235457426870176e-07 0.0 0.0
0.0 -1.3369152117354392e-06 7.848891467735815e-08 -7.404117206165371e-08 -4.447742615702365e-09 4.6022234075321854e-07 0.0 0.0
0.0 -2.5809266302537774e-06 -3.501189648742507e-07 2.983541814287437e-07 5.176478344553952e-08 -5.823854320022419e-07 0.0 0.0
0.0 5.954200032858578e-06 5.778111216903208e-06 -4.583606056191534e-06 -1.1945051607117555e-06 3.842931580320717e-05 0.0 0.0
0.0 4.805755174540099e-05 -1.4763802626005893e-06 1.0866768089796697e-06 3.8970345362093374e-07 -4.089733991283537e-05 0.0 0.0
0.0 0.00012088141593415035 -7.928957984105322e-06 7.349008674586474e-06 5.799493095186969e-07 -0.00017475320148964632 0.0 0.0
0.0 0.00032269998590497373 -9.507443747008342e-05 8.29371511208788e-05 1.2137286349204652e-05 -0.000477423440934397 0.0 0.0
0.0 0.0008814363210071694 -0.0003329467727988452 0.0002972032347688325 3.574353803001313e-05 -0.0009649331325032224 0.0 0.0
0.0 0.0014241226662909394 -0.0007693991668674194 0.0006850962812483727 8.430288561904629e-05 -0.0016986665570675728 0.0 0.0
0.0 0.002306154977071567 -0.0013853531655888412 0.0012334738668606069 0.00015187929872823364 -0.0025045626240501966 0.0 0.0
0.0 0.0034511653260240987 -0.002178070197549655 0.001955515158255802 0.00022255503929385228 -0.0033767950263780214 0.0 0.0
0.0 0.004795316900102276 -0.0031564493450975794 0.002866704815225016 0.00028974452987256334 -0.004328977760836352 0.0 0.0
0.0 0.006327141673434203 -0.004239469524831005 0.003906107039032956 0.0003333624857980468 -0.005420228454543831 0.0 0.0
0.0 0.007843441092909013 -0.005240496750057829 0.004903140695180435 0.0003373560548773965 -0.0067424738231128 0.0 0.0
0.0 0.009173337022261517 -0.0057824056204742735 0.005505052921122048 0.00027735269935221874 -0.00832479483239393 0.0 0.0
0.0 0.009417535101335844 -0.0053652977824726255 0.005203191075484326 0.00016210670698830806 -0.010159202311337049 0.0 0.0
0.0 0.008009642331349986 -0.0038994752789633332 0.0038588675924639106 4.060768649942419e-05 -0.011670156987434135 0.0 0.0
0.0 0.015412691818111049 -0.002144584197815714 0.0007937646869941799 0.0013508195108215347 9.02706728811431e-15 0.0 0.0
0.0 0.008009642331355328 -0.0038994752789643867 0.003858867592465163 4.060768649922158e-05 0.011670156987441964 0.0 0.0
0.0 0.009417535101336659 -0.005365297782472215 0.005203191075484628 0.0001621067069875917 0.010159202311345643 0.0 0.0
0.0 0.009173337022256263 -0.005782405620470938 0.0055050529211189015 0.00027735269935203366 0.00832479483239376 0.0 0.0
0.0 0.007843441092901556 -0.005240496750052424 0.004903140695175099 0.0003373560548773257 0.006742473823108032 0.0 0.0
0.0 0.00632714167342722 -0.004239469524825346 0.0039061070390278793 0.00033336248579746646 0.005420228454539917 0.0 0.0
0.0 0.004795316900096973 -0.0031564493450931498 0.0028667048152207983 0.0002897445298723519 0.004328977760831052 0.0 0.0
0.0 0.003451165326019136 -0.0021780701975457045 0.001955515158252068 0.0002225550392936368 0.003376795026374628 0.0 0.0
0.0 0.002306154977063329 -0.0013853531655831036 0.0012334738668554478 0.00015187929872765554 0.0025045626240434607 0.0 0.0
0.0 0.0014241226662841575 -0.000769399166863347 0.0006850962812447576 8.43028856185895e-05 0.0016986665570610095 0.0 0.0
0.0 0.0008814363210001238 -0.00033294677279569515 0.0002972032347659246 3.5743538029770204e-05 0.0009649331324969621 0.0 0.0
0.0 0.0003226999859026135 -9.507443746884197e-05 8.293715111978962e-05 1.2137286349052291e-05 0.00047742344093214533 0.0 0.0
0.0 0.00012088141593344633 -7.928957984088757e-06 7.34900867456831e-06 5.799493095204232e-07 0.00017475320148896834 0.0 0.0
0.0 4.805755174429643e-05 -1.4763802625262139e-06 1.086676808926127e-06 3.897034536000915e-07 4.089733991197612e-05 0.0 0.0
0.0 5.954200032448568e-06 5.778111216854072e-06 -4.583606056153976e-06 -1.1945051607000819e-06 -3.842931580283248e-05 0.0 0.0
0.0 -2.5809266304574393e-06 -3.501189649831627e-07 2.983541815230867e-07 5.1764783460078275e-08 5.823854327968445e-07 0.0 0.0
0.0 -1.3369152123556039e-06 7.84889146886808e-08 -7.404117207171854e-08 -4.447742616966184e-09 -4.6022234081775143e-07 0.0 0.0
0.0 1.4903170996868914e-06 4.241911743258753e-08 -3.470315009501489e-08 -7.715967337572316e-09 -3.123545741501756e-07 0.0 0.0
0.0 -8.826497247984758e-07 -1.2994467621539304e-08 9.317246251181477e-09 3.677221370354842e-09 1.9103679023936508e-07 0.0 0.0
0.0 1.791800006106036e-07 -8.709275580154348e-09 1.2408309395914994e-08 -3.699033815758634e-09 -3.0163412160347144e-08 0.0 0.0
0.0 -1.1154274964526031e-06 6.940272925345171e-08 -1.0140536003419192e-07 3.2002630780733594e-08 1.5472886573936063e-07 0.0 0.0
0.0 0.0 0.0 0.0 0.0 0.0 0.0 0.0
0.0 -6.422239837672116e-08 -7.673636738658928e-10 3.860605389357296e-10 3.81303134929867e-10 -1.284131782217668e-08 0.0 0.0
0.0 -3.7874344330713723e-07 -1.8012271592059652e-08 1.5873291862660503e-08 2.138979729398885e-09 -8.014407512813873e-08 0.0 0.0
0.0 -9.073015980962664e-07 -5.68571413310864e-08 4.755545022616241e-08 9.301691104915119e-09 -2.3445117856962518e-07 0.0 0.0
0.0 7.415440523874061e-06 6.995397660981471e-08 -6.714418966863625e-08 -2.809786941129607e-09 7.591853867611081e-07 0.0 0.0
0.0 6.645526707660833e-06 4.59230715339145e-06 -3.710505283615223e-06 -8.818018697762122e-07 2.0180387775715228e-05 0.0 0.0
0.0 -5.1089580381642415e-06 3.766413658458771e-06 -2.991897232926371e-06 -7.745164255323187e-07 1.303413701849188e-06 0.0 0.0
0.0 9.482441270042514e-05 -6.244509620998596e-06 5.472149579534066e-06 7.723600414643704e-07 -3.968595130443855e-05 0.0 0.0
0.0 0.0004289699257398335 -0.00026355830474358215 0.00021130363178861137 5.225467295497086e-05 -0.00045310584589487485 0.0 0.0
0.0 0.0013098342553937603 -0.0008733846684840184 0.0007170132207972799 0.0001563714476867379 -0.0011030743395806823 0.0 0.0
0.0 0.0023685750369598843 -0.0018095313219489676 0.0015257582598077542 0.00028377306214121196 -0.00202264683881676 0.0 0.0
0.0 0.0038465576220175733 -0.0029682288082428956 0.0025700211966915272 0.00039820761155137094 -0.0029917384154581803 0.0 0.0
0.0 0.005547030384635335 -0.0043503199598354195 0.003846721145263717 0.000503598814571699 -0.0039859132368797985 0.0 0.0
0.0 0.007582132042056768 -0.006026064705732354 0.0054351441114221435 0.0005909205943102108 -0.005003253866253088 0.0 0.0
0.0 0.01009401194090919 -0.00805628578125254 0.007398720728078003 0.0006575650531745364 -0.0061116430196307804 0.0 0.0
0.0 0.013052575601863433 -0.010409540776773784 0.00971148466884462 0.0006980561079291686 -0.007465903267761316 0.0 0.0
0.0 0.016162487490436937 -0.012857703116784924 0.012146814926748463 0.000710888190036448 -0.009253977994830166 0.0 0.0
0.0 0.018730262587514437 -0.014931761710494481 0.014229821912332468 0.0007019397981620159 -0.011563604363513348 0.0 0.0
0.0 0.020258532042272764 -0.015736695543976397 0.01507617683271014 0.0006605187112662447 -0.013932895680290571 0.0 0.0
0.0 0.018779135106230777 -0.013693043902835678 0.013076696249343624 0.0006163476534920493 -0.014430344375721016 0.0 0.0
0.0 0.019206315209626314 -0.010716905224804571 0.00860238664368178 0.0021145185811227915 8.25511534130463e-15 0.0 0.0
0.0 0.018779135106235 -0.013693043902835721 0.013076696249343645 0.0006163476534920712 0.01443034437573654 0.0 0.0
0.0 0.02025853204227331 -0.015736695543974447 0.01507617683270824 0.0006605187112661892 0.01393289568030611 0.0 0.0
0.0 0.01873026258750535 -0.014931761710486638 0.014229821912324886 0.0007019397981617584 0.01156360436351749 0.0 0.0
0.0 0.016162487490423063 -0.012857703116773896 0.012146814926737363 0.000710888190036524 0.00925397799482555 0.0 0.0
0.0 0.01305257560185289 -0.010409540776764965 0.0097114846688361 0.0006980561079288604 0.007465903267756325 0.0 0.0
0.0 0.01009401194089701 -0.008056285781242596 0.007398720728068659 0.000657565053173936 0.00611164301962412 0.0 0.0
0.0 0.007582132042046411 -0.006026064705723145 0.005435144111413301 0.0005909205943098371 0.005003253866247582 0.0 0.0
0.0 0.0055470303846230935 -0.004350319959825389 0.0038467211452543467 0.0005035988145710431 0.003985913236873465 0.0 0.0
0.0 0.0038465576220047875 -0.0029682288082331586 0.0025700211966825106 0.0003982076115506454 0.002991738415448861 0.0 0.0
0.0 0.0023685750369493615 -0.0018095313219405277 0.0015257582598002645 0.0002837730621402632 0.002022646838808405 0.0 0.0
0.0 0.0013098342553860788 -0.0008733846684786446 0.0007170132207927848 0.00015637144768585994 0.001103074339575428 0.0 0.0
0.0 0.00042896992573591703 -0.00026355830474104284 0.0002113036317865924 5.2254672954450396e-05 0.00045310584589207056 0.0 0.0
0.0 9.482441269879426e-05 -6.24450962045395e-06 5.472149579097455e-06 7.723600413564609e-07 3.968595130277244e-05 0.0 0.0
0.0 -5.108958039660874e-06 3.766413658265831e-06 -2.9918972327737534e-06 -7.745164254920931e-07 -1.3034137013030639e-06 0.0 0.0
0.0 6.645526707248042e-06 4.592307153404488e-06 -3.710505283626511e-06 -8.818018697780564e-07 -2.0180387775777583e-05 0.0 0.0
0.0 7.415440523385657e-06 6.995397657250316e-08 -6.714418963730467e-08 -2.8097869352004922e-09 -7.591853865632028e-07 0.0 0.0
0.0 -9.073015986570772e-07 -5.6857141346010775e-08 4.755545023829637e-08 9.301691107725905e-09 2.3445117868003778e-07 0.0 0.0
0.0 -3.7874344334963774e-07 -1.8012271588564516e-08 1.5873291858862447e-08 2.138979729702004e-09 8.014407513526805e-08 0.0 0.0
0.0 -6.422239831149007e-08 -7.673636730775991e-10 3.8606053854000237e-10 3.8130313453729685e-10 1.284131780894419e-08 0.0 0.0
0.0 0.0 0.0 0.0 0.0 0.0 0.0 0.0
0.0 0.0 0.0 0.0 0.0 0.0 0.0 0.0
0.0 0.0 0.0 0.0 0.0 0.0 0.0 0.0
0.0 -6.673786689358188e-07 -2.6521950268112564e-08 2.1499513791296284e-08 5.022436476819881e-09 -1.3134363579990852e-07 0.0 0.0
0.0 1.8682322036662964e-06 7.292438497842065e-08 -5.975073658410082e-08 -1.3173648394326133e-08 3.735910496881116e-07 0.0 0.0
0.0 -4.4042599619187585e-07 1.075461088506549e-06 -8.688006522628115e-07 -2.066604362437806e-07 3.612150223302381e-06 0.0 0.0
0.0 -1.2762629450285562e-05 -4.935338017616786e-07 3.6718371529619743e-07 1.2635008646554128e-07 -2.9993219116567743e-06 0.0 0.0
0.0 3.394246878857592e-05 1.5592692257106855e-05 -1.2612953026488888e-05 -2.979739230618166e-06 3.688632282701639e-05 0.0 0.0
0.0 0.0003081797976134847 -0.0002431880625278565 0.0001882566534083172 5.4931409119539495e-05 -0.0002838666458750347 0.0 0.0
0.0 0.001203764432069761 -0.0009425286091698341 0.0007545709569267411 0.0001879576522430919 -0.0008828310009788183 0.0 0.0
0.0 0.0028697366996901386 -0.002105185581769912 0.0017600662110071638 0.0003451193707627486 -0.0018031423885285444 0.0 0.0
0.0 0.004483177185089872 -0.0036491750097243144 0.003161288518618076 0.00048788649110624073 -0.0029400777169983016 0.0 0.0
0.0 0.006580846586489522 -0.005460233486443514 0.004857770231876111 0.0006024632545674007 -0.004043517160893112 0.0 0.0
0.0 0.009131196942516968 -0.007582473985639918 0.006883723402729995 0.0006987505829099225 -0.005127129074520376 0.0 0.0
0.0 0.012159493902415773 -0.010148162863773414 0.00936960105190621 0.0007785618118672032 -0.006252109732269386 0.0 0.0
0.0 0.015930948561289883 -0.013263776315843806 0.0124231688828704 0.0008406074329734056 -0.007534144980612877 0.0 0.0
0.0 0.020248708032448375 -0.016927144545973796 0.01604801318765713 0.0008791313583166713 -0.009170970513948471 0.0 0.0
0.0 0.02519628511231277 -0.02087110212896344 0.019982164851149335 0.0008889372778141092 -0.011496278132833916 0.0 0.0
0.0 0.029582608329652406 -0.02441267107285025 0.0235511362857156 0.0008615347871346513 -0.014656058802117625 0.0 0.0
0.0 0.03210280379750748 -0.02619404362549435 0.025393345863960907 0.0008006977615334338 -0.017820999447055758 0.0 0.0
0.0 0.03000211923486111 -0.023981986101359667 0.023283974211867158 0.0006980118894925155 -0.018826194613527913 0.0 0.0
0.0 0.02741742963286674 -0.019450443475496973 0.016628271677587875 0.0028221717979090943 8.52963533137796e-15 0.0 0.0
0.0 0.030002119234863504 -0.023981986101357808 0.02328397421186518 0.0006980118894926273 0.018826194613548314 0.0 0.0
0.0 0.032102803797504756 -0.026194043625488963 0.025393345863955717 0.0008006977615332116 0.017820999447075898 0.0 0.0
0.0 0.029582608329640374 -0.024412671072838968 0.02355113628570471 0.0008615347871342464 0.014656058802125532 0.0 0.0
0.0 0.02519628511229496 -0.020871102128948493 0.019982164851134528 0.000888937277813976 0.011496278132831734 0.0 0.0
0.0 0.02024870803243313 -0.016927144545960785 0.01604801318764437 0.0008791313583164055 0.009170970513942911 0.0 0.0
0.0 0.015930948561273847 -0.013263776315830327 0.012423168882857556 0.0008406074329727609 0.007534144980606065 0.0 0.0
0.0 0.012159493902399858 -0.010148162863759922 0.009369601051893113 0.0007785618118668083 0.0062521097322630545 0.0 0.0
0.0 0.00913119694250022 -0.007582473985625896 0.006883723402716495 0.000698750582909402 0.005127129074512918 0.0 0.0
0.0 0.00658084658647204 -0.005460233486429373 0.0048577702318627755 0.0006024632545665935 0.004043517160882867 0.0 0.0
0.0 0.0044831771850744806 -0.003649175009711957 0.0031612885186062673 0.0004878864911056886 0.0029400777169881417 0.0 0.0
0.0 0.002869736699678729 -0.00210518558176099 0.0017600662109992142 0.00034511937076177617 0.001803142388520862 0.0 0.0
0.0 0.0012037644320617717 -0.0009425286091638702 0.0007545709569218367 0.0001879576522420326 0.0008828310009741806 0.0 0.0
0.0 0.00030817979761002583 -0.00024318806252547428 0.00018825665340648873 5.493140911898553e-05 0.0002838666458726219 0.0 0.0
0.0 3.394246878761487e-05 1.5592692257037083e-05 -1.261295302644276e-05 -2.979739230594176e-06 -3.6886322827025067e-05 0.0 0.0
0.0 -1.2762629451134445e-05 -4.935338021400832e-07 3.6718371559968473e-07 1.263500865404111e-07 2.999321912716728e-06 0.0 0.0
0.0 -4.4042599669158113e-07 1.0754610885445204e-06 -8.688006522929313e-07 -2.0666043625157762e-07 -3.61215022338247e-06 0.0 0.0
0.0 1.8682322031391885e-06 7.292438495947189e-08 -5.975073656882235e-08 -1.3173648390657147e-08 -3.73591049577993e-07 0.0 0.0
0.0 -6.673786687448563e-07 -2.6521950260483167e-08 2.1499513785132376e-08 5.022436475351499e-09 1.3134363576041204e-07 0.0 0.0
0.0 0.0 0.0 0.0 0.0 0.0 0.0 0.0
0.0 0.0 0.0 0.0 0.0 0.0 0.0 0.0
0.0 0.0 0.0 0.0 0.0 0.0 0.0 0.0
0.0 0.0 0.0 0.0 0.0 0.0 0.0 0.0
0.0 -2.95889627028445e-07 -1.3592507698731995e-08 1.083743040721265e-08 2.7550772915178707e-09 -5.501979115714737e-08 0.0 0.0
0.0 -2.112291098398292e-06 -1.6324554829102846e-07 1.3285156833206997e-07 3.0393979958964755e-08 -4.379793777943576e-07 0.0 0.0
0.0 9.481734513846096e-06 4.745869419134247e-07 -3.7652376653918543e-07 -9.806317537423491e-08 1.3401267236223233e-06 0.0 0.0
0.0 4.6767902578914805e-06 2.537755304081475e-05 -2.0164095877720062e-05 -5.21345716309477e-06 4.374579391142761e-05 0.0 0.0
0.0 0.00014433250446130584 -0.00010011093418889466 7.580395277788967e-05 2.4306981411005212e-05 -9.006418629783807e-05 0.0 0.0
0.0 0.0008218019462380569 -0.0006827746901230068 0.0005327597589025087 0.00015001493122049757 -0.0004971615517412689 0.0 0.0
0.0 0.002502594610352791 -0.0018412136814564876 0.0015127868905827557 0.00032842679087373184 -0.0012620451199452764 0.0 0.0
0.0 0.004080910949087464 -0.0035692451030964576 0.0030662012848024244 0.0005030438182940329 -0.0023824200017251813 0.0 0.0
0.0 0.006626122247133133 -0.005637438217445241 0.005004785228470285 0.0006326529889749564 -0.003513107869797024 0.0 0.0
0.0 0.009480830086937344 -0.008067652440125162 0.007330250345132133 0.0007374020949930236 -0.004628183703663298 0.0 0.0
0.0 0.012841525386292327 -0.010939608704449738 0.010110686988328437 0.0008289217161213018 -0.005740716346724057 0.0 0.0
0.0 0.016918368497394372 -0.014410409281890666 0.013501439772154686 0.0009089695097359762 -0.00693256218381731 0.0 0.0
0.0 0.021821107423184688 -0.018629699380816607 0.017654430441419174 0.0009752689393974357 -0.008303787281384156 0.0 0.0
0.0 0.027928530518858873 -0.02362038067527057 0.02260161630723181 0.0010187643680387446 -0.010095584981132524 0.0 0.0
0.0 0.0340626237278593 -0.029083707795816628 0.028057751628665924 0.0010259561671506607 -0.012708823762942734 0.0 0.0
0.0 0.04033336563834146 -0.034056299757036994 0.03307780506274459 0.000978494694292411 -0.01634854152565538 0.0 0.0
0.0 0.04403527142485779 -0.03668429949261531 0.03580921429335528 0.0008750851992599878 -0.020272666024016034 0.0 0.0
0.0 0.04137934635636676 -0.033975973876502856 0.0332688518639693 0.0007071220125335552 -0.022105879647905512 0.0 0.0
0.0 0.036289099931709666 -0.02802958262352384 0.024604597438859836 0.0034249851846639913 1.0793449467527694e-14 0.0 0.0
0.0 0.04137934635636772 -0.033975973876499754 0.0332688518639666 0.0007071220125331659 0.022105879647928154 0.0 0.0
0.0 0.044035271424852286 -0.0366842994926076 0.03580921429334787 0.0008750851992597118 0.02027266602403922 0.0 0.0
0.0 0.04033336563832717 -0.03405629975702341 0.03307780506273153 0.0009784946942918288 0.016348541525667032 0.0 0.0
0.0 0.03406262372783961 -0.02908370779579958 0.028057751628649017 0.0010259561671505633 0.012708823762942635 0.0 0.0
0.0 0.027928530518837893 -0.023620380675252434 0.02260161630721418 0.0010187643680382593 0.010095584981127025 0.0 0.0
0.0 0.021821107423166383 -0.01862969938080045 0.017654430441403995 0.0009752689393964635 0.008303787281378098 0.0 0.0
0.0 0.016918368497373316 -0.014410409281872585 0.013501439772136765 0.0009089695097358132 0.006932562183810308 0.0 0.0
0.0 0.012841525386272576 -0.010939608704432788 0.010110686988312112 0.0008289217161206746 0.005740716346717247 0.0 0.0
0.0 0.00948083008691641 -0.008067652440107194 0.007330250345114845 0.0007374020949923487 0.004628183703653131 0.0 0.0
0.0 0.006626122247113517 -0.005637438217428549 0.005004785228454064 0.0006326529889744821 0.00351310786978556 0.0 0.0
0.0 0.004080910949073111 -0.003569245103083968 0.0030662012847908066 0.0005030438182931585 0.00238242000171645 0.0 0.0
0.0 0.0025025946103415238 -0.001841213681447896 0.0015127868905754748 0.0003284267908724219 0.001262045119939818 0.0 0.0
0.0 0.0008218019462311991 -0.0006827746901179114 0.0005327597588983482 0.00015001493121956328 0.0004971615517375589 0.0 0.0
0.0 0.0001443325044585874 -0.00010011093418760319 7.580395277692721e-05 2.430698141067582e-05 9.006418629677251e-05 0.0 0.0
0.0 4.676790257152647e-06 2.5377553040556643e-05 -2.0164095877515676e-05 -5.213457163041007e-06 -4.374579391100514e-05 0.0 0.0
0.0 9.481734512523845e-06 4.7458694179930437e-07 -3.7652376644914276e-07 -9.806317535014153e-08 -1.3401267233614137e-06 0.0 0.0
0.0 -2.1122910987118115e-06 -1.6324554830016535e-07 1.3285156833938794e-07 3.039397996078572e-08 4.3797937784828425e-07 0.0 0.0
0.0 -2.9588962689353585e-07 -1.3592507692400482e-08 1.0837430402124616e-08 2.755077290274585e-09 5.50197911312241e-08 0.0 0.0
0.0 0.0 0.0 0.0 0.0 0.0 0.0 0.0
0.0 0.0 0.0 0.0 0.0 0.0 0.0 0.0
0.0 0.0 0.0 0.0 0.0 0.0 0.0 0.0
0.0 0.0 0.0 0.0 0.0 0.0 0.0 0.0
0.0 -1.336041538324973e-07 -7.0791082984345225e-09 5.607259907490537e-09 1.4718483909442396e-09 -2.3963176664436898e-08 0.0 0.0
0.0 -1.150862233485828e-06 -9.876059602605095e-08 7.855272765354809e-08 2.0207868372501855e-08 -2.0268686367933702e-07 0.0 0.0
0.0 -6.15176148102137e-06 -2.12869229945939e-06 1.6783607894365308e-06 4.5033151002285756e-07 -3.027759276543199e-06 0.0 0.0
0.0 4.43444154306401e-05 1.5009417612427124e-05 -1.3000832530601059e-05 -2.0085850818258738e-06 3.561946933999905e-05 0.0 0.0
0.0 0.0004067820568557823 -0.0003296621364715367 0.0002503776641493571 7.928447232217955e-05 -0.00017522939269608694 0.0 0.0
0.0 0.0017409394109119424 -0.0012687255954775861 0.0010126364933932615 0.0002560891020843251 -0.0006590018432809054 0.0 0.0
0.0 0.0032456916799049633 -0.0029450946333440275 0.0024832397062243654 0.0004618549271196626 -0.0015830538125403734 0.0 0.0
0.0 0.005850432165107842 -0.005092755819202963 0.004475027082810411 0.0006177287363925543 -0.002630401152753244 0.0 0.0
0.0 0.008852585655709793 -0.007687324197384349 0.006948539392858326 0.0007387848045260206 -0.003700148099489609 0.0 0.0
0.0 0.01241504931497853 -0.010746857133377303 0.009907609736398927 0.0008392473969783709 -0.00476751144502781 0.0 0.0
0.0 0.016664473475139236 -0.014381708564498982 0.013450439071960096 0.000931269492538875 -0.0058546614846221685 0.0 0.0
0.0 0.021876988399443468 -0.018770662466171782 0.017755768551713923 0.0010148939144578677 -0.0070491188420987805 0.0 0.0
0.0 0.02803167934074207 -0.02409668144863984 0.023007933243334867 0.0010887482053049537 -0.00844564084503998 0.0 0.0
0.0 0.035245805530747285 -0.030407188977982405 0.029265801657498407 0.0011413873204839983 -0.01020758800533235 0.0 0.0
0.0 0.04365678428758279 -0.037337111060442456 0.0361918087040681 0.001145302356374378 -0.01273161252293608 0.0 0.0
0.0 0.05118567694216497 -0.04370843910794315 0.0426336726686747 0.0010747664392684385 -0.016451315153794683 0.0 0.0
0.0 0.055388833765193976 -0.04711385711998711 0.04619056927825497 0.000923287841732188 -0.020974676187371376 0.0 0.0
0.0 0.05243212057889275 -0.04385144429124166 0.043155422934414364 0.0006960213568272937 -0.02433623062174555 0.0 0.0
0.0 0.04591789663726011 -0.03659079067260776 0.03261339110668551 0.003977399565922253 1.0922686366487966e-14 0.0 0.0
0.0 0.05243212057889327 -0.04385144429123812 0.043155422934411665 0.0006960213568264365 0.02433623062177044 0.0 0.0
0.0 0.055388833765184414 -0.04711385711997638 0.04619056927824418 0.0009232878417322038 0.020974676187395222 0.0 0.0
0.0 0.05118567694214702 -0.04370843910792651 0.04263367266865829 0.0010747664392682346 0.016451315153808384 0.0 0.0
0.0 0.04365678428755844 -0.0373371110604214 0.03619180870404721 0.0011453023563741695 0.012731612522936852 0.0 0.0
0.0 0.03524580553072299 -0.0304071889779612 0.029265801657477823 0.0011413873204833896 0.010207588005328498 0.0 0.0
0.0 0.028031679340719262 -0.024096681448620014 0.02300793324331579 0.0010887482053042374 0.008445640845034926 0.0 0.0
0.0 0.021876988399418415 -0.01877066246614951 0.017755768551692423 0.0010148939144570919 0.007049118842092164 0.0 0.0
0.0 0.016664473475114926 -0.014381708564477864 0.013450439071939196 0.0009312694925386667 0.005854661484615596 0.0 0.0
0.0 0.012415049314952836 -0.010746857133355117 0.009907609736377419 0.000839247396977679 0.004767511445018208 0.0 0.0
0.0 0.008852585655686668 -0.007687324197364559 0.006948539392839141 0.0007387848045254216 0.0037001480994782454 0.0 0.0
0.0 0.005850432165089179 -0.005092755819186822 0.0044750270827951955 0.0006177287363916273 0.002630401152744463 0.0 0.0
0.0 0.0032456916798939616 -0.0029450946333332176 0.0024832397062147316 0.00046185492711848446 0.001583053812534603 0.0 0.0
0.0 0.0017409394109017338 -0.0012687255954697194 0.0010126364933866815 0.0002560891020830379 0.0006590018432764525 0.0 0.0
0.0 0.0004067820568514817 -0.0003296621364684257 0.0002503776641469659 7.928447232146023e-05 0.00017522939269433983 0.0 0.0
0.0 4.434441542957085e-05 1.5009417612232194e-05 -1.3000832530435056e-05 -2.0085850817973533e-06 -3.561946933953675e-05 0.0 0.0
0.0 -6.1517614819737224e-06 -2.128692299532686e-06 1.678360789493706e-06 4.5033151003895246e-07 3.0277592766724583e-06 0.0 0.0
0.0 -1.1508622335227065e-06 -9.876059602363591e-08 7.855272765149146e-08 2.02078683721454e-08 2.02686863685958e-07 0.0 0.0
0.0 -1.3360415377959937e-07 -7.079108295548217e-09 5.6072599052097004e-09 1.4718483903391005e-09 2.396317665472527e-08 0.0 0.0
0.0 0.0 0.0 0.0 0.0 0.0 0.0 0.0
0.0 0.0 0.0 0.0 0.0 0.0 0.0 0.0
0.0 0.0 0.0 0.0 0.0 0.0 0.0 0.0
0.0 0.0 0.0 0.0 0.0 0.0 0.0 0.0
0.0 0.0 0.0 0.0 0.0 0.0 0.0 0.0
0.0 -1.6427912562006257e-06 -1.4576765561260727e-07 1.1635194098500306e-07 2.9415714627583024e-08 -2.453416837903687e-07 0.0 0.0
0.0 7.22420637416922e-06 9.21173933387817e-06 -7.350753779756641e-06 -1.8609855541214793e-06 1.1259758579351761e-05 0.0 0.0
0.0 8.311158388231191e-05 -9.203006209010785e-05 6.796261080082791e-05 2.4067451289279602e-05 -3.679821411101431e-05 0.0 0.0
0.0 0.0009582900907229588 -0.0006527845544363545 0.0005035129769486182 0.00014927157748773664 -0.00022285239961723747 0.0 0.0
0.0 0.002276212027563143 -0.002046854597422215 0.0016756387105821137 0.000371215886840101 -0.0008104719333771422 0.0 0.0
0.0 0.004581370644699694 -0.0040795043539055146 0.0035172860233066545 0.0005622183305988636 -0.0016473652451955156 0.0 0.0
0.0 0.007541633972950565 -0.006663834201530781 0.005955547109395775 0.0007082870921350045 -0.0025700957438432584 0.0 0.0
0.0 0.011153731065709275 -0.00977751056541919 0.008955002778815193 0.0008225077866039876 -0.003533404813497629 0.0 0.0
0.0 0.01547157722540777 -0.013473053409561368 0.012549723893737964 0.0009233295158233979 -0.0044941510658551695 0.0 0.0
0.0 0.02070109927151155 -0.01788588359629879 0.016866968276973388 0.0010189153193254116 -0.005491724077613173 0.0 0.0
0.0 0.02667619253044716 -0.02321834823440992 0.022109598902773277 0.0011087493316366426 -0.0066228431586257495 0.0 0.0
0.0 0.03422495599666541 -0.02963739926855677 0.028448957841675504 0.0011884414268812891 -0.007960348764241069 0.0 0.0
0.0 0.043076080923115906 -0.0371970343311547 0.03594799594887119 0.00124903838228349 -0.009550667840643333 0.0 0.0
0.0 0.05259707957798639 -0.045524318170478126 0.044265973866489366 0.0012583443039887467 -0.011645535349410648 0.0 0.0
0.0 0.06166160804509661 -0.05323824338352894 0.052071035862916344 0.0011672075206126046 -0.014936182039569042 0.0 0.0
0.0 0.0669496698911137 -0.0574586383854175 0.05649526627933934 0.0009633721060781072 -0.019893696554645696 0.0 0.0
0.0 0.06349337769299732 -0.05380804381938722 0.05314183003115623 0.0006662137882309616 -0.025696403144360842 0.0 0.0
0.0 0.05557440609122447 -0.04537813243203496 0.0408873220484778 0.0044908103835571535 1.0877583556112569e-14 0.0 0.0
0.0 0.06349337769299568 -0.05380804381938249 0.05314183003115207 0.0006662137882303908 0.025696403144385524 0.0 0.0
0.0 0.06694966989110208 -0.0574586383854053 0.05649526627932734 0.0009633721060779413 0.019893696554669407 0.0 0.0
0.0 0.06166160804507475 -0.05323824338350936 0.05207103586289692 0.0011672075206123984 0.014936182039582675 0.0 0.0
0.0 0.052597079577958956 -0.04552431817045402 0.044265973866465705 0.0012583443039883278 0.01164553534941307 0.0 0.0
0.0 0.04307608092308799 -0.03719703433113011 0.03594799594884739 0.0012490383822826826 0.009550667840641108 0.0 0.0
0.0 0.034224955996636594 -0.029637399268531796 0.02844895784165077 0.0011884414268810144 0.007960348764237062 0.0 0.0
0.0 0.02667619253041865 -0.023218348234384886 0.022109598902749248 0.001108749331635642 0.006622843158620392 0.0 0.0
0.0 0.02070109927148193 -0.017885883596272766 0.016866968276947582 0.001018915319325191 0.005491724077606288 0.0 0.0
0.0 0.01547157722537813 -0.013473053409535406 0.012549723893712667 0.000923329515822739 0.004494151065846392 0.0 0.0
0.0 0.011153731065682342 -0.009777510565395678 0.008955002778792267 0.0008225077866034131 0.0035334048134873907 0.0 0.0
0.0 0.007541633972930199 -0.0066638342015125996 0.0059555471093784675 0.0007082870921341267 0.002570095743835472 0.0 0.0
0.0 0.004581370644684604 -0.0040795043538915865 0.0035172860232937997 0.0005622183305977873 0.001647365245189715 0.0 0.0
0.0 0.002276212027552533 -0.0020468545974126765 0.0016756387105738145 0.00037121588683886183 0.0008104719333729814 0.0 0.0
0.0 0.0009582900907155642 -0.0006527845544309235 0.000503512976944299 0.00014927157748662354 0.000222852399614877 0.0 0.0
0.0 8.311158388041786e-05 -9.203006208930676e-05 6.796261080024359e-05 2.4067451289062843e-05 3.6798214110967084e-05 0.0 0.0
0.0 7.2242063730987475e-06 9.211739333713673e-06 -7.350753779626794e-06 -1.8609855540867503e-06 -1.1259758579166455e-05 0.0 0.0
0.0 -1.642791256056295e-06 -1.457676555988268e-07 1.1635194097405649e-07 2.9415714624769247e-08 2.4534168376624963e-07 0.0 0.0
0.0 0.0 0.0 0.0 0.0 0.0 0.0 0.0
0.0 0.0 0.0 0.0 0.0 0.0 0.0 0.0
0.0 0.0 0.0 0.0 0.0 0.0 0.0 0.0
0.0 0.0 0.0 0.0 0.0 0.0 0.0 0.0
0.0 0.0 0.0 0.0 0.0 0.0 0.0 0.0
0.0 0.0 0.0 0.0 0.0 0.0 0.0 0.0
0.0 -8.417872576605753e-07 -8.544655395676276e-08 6.60999379835288e-08 1.9346615973240632e-08 -7.969114554795907e-08 0.0 0.0
0.0 4.572946406372094e-06 2.13626362978828e-05 -1.6730578769080903e-05 -4.632057528801685e-06 1.4267900911341518e-05 0.0 0.0
0.0 0.00030370968436310296 -0.00020659483830240416 0.00015244558799424858 5.41492503081557e-05 -2.566258698162324e-05 0.0 0.0
0.0 0.0013641307305919184 -0.001141673209653717 0.0008994245600604682 0.00024224864959324817 -0.00026415038339621777 0.0 0.0
0.0 0.0031466660550852022 -0.002868480852149026 0.002404000160600001 0.0004644806915490234 -0.000808323819059404 0.0 0.0
0.0 0.005838602044919068 -0.0052511750982001375 0.00460572931698602 0.0006454457812141161 -0.0014734713881501718 0.0 0.0
0.0 0.009312770047003628 -0.008257765606002648 0.00747690143009035 0.0007808641759123008 -0.002233999521457614 0.0 0.0
0.0 0.013479825350088672 -0.011893876241365599 0.011001292347869528 0.000892583893496064 -0.003030580421050055 0.0 0.0
0.0 0.0185620486434739 -0.016235257502679727 0.015238599214286924 0.0009966582883928037 -0.0038276735424461585 0.0 0.0
0.0 0.024442065977612858 -0.021447761845381347 0.02034907726292468 0.0010986845824566506 -0.004665651181789904 0.0 0.0
0.0 0.03192558499819821 -0.027724328995300508 0.026531252646766257 0.0011930763485342559 -0.005647757579766256 0.0 0.0
0.0 0.04049626704144601 -0.035231263777922156 0.03395471151363594 0.001276552264286165 -0.006846446323226822 0.0 0.0
0.0 0.050397378736170985 -0.04395932270131739 0.04261635063000899 0.0013429720713084676 -0.008197550943465852 0.0 0.0
0.0 0.06151045264685624 -0.053506517849452456 0.05214117538590331 0.0013653424635490879 -0.009633516717093081 0.0 0.0
0.0 0.07197034232052635 -0.0624901969097818 0.06121914431097448 0.0012710525988073177 -0.011856846226998174 0.0 0.0
0.0 0.07832992178438583 -0.06772878465614 0.06671603612314975 0.0010127485329902964 -0.016920984416745076 0.0 0.0
0.0 0.07497743130389782 -0.06405598746143479 0.06344208345692035 0.0006139040045145018 -0.025983939455231635 0.0 0.0
0.0 0.06626592592474528 -0.05465777611806576 0.049699845565281085 0.004957930552784693 1.0144662887512368e-14 0.0 0.0
0.0 0.07497743130389277 -0.06405598746142781 0.06344208345691373 0.0006139040045140833 0.025983939455253527 0.0 0.0
0.0 0.07832992178437098 -0.06772878465612583 0.06671603612313583 0.0010127485329899516 0.01692098441676698 0.0 0.0
0.0 0.07197034232050144 -0.06249019690975976 0.061219144310952905 0.0012710525988068062 0.01185684622700982 0.0 0.0
0.0 0.061510452646824164 -0.05350651784942444 0.05214117538587564 0.0013653424635487346 0.009633516717096148 0.0 0.0
0.0 0.05039737873613941 -0.04395932270128974 0.04261635062998213 0.0013429720713075773 0.008197550943464891 0.0 0.0
0.0 0.04049626704141139 -0.035231263777892305 0.0339547115136062 0.0012765522642860982 0.006846446323223587 0.0 0.0
0.0 0.03192558499816573 -0.027724328995271885 0.026531252646738564 0.0011930763485333052 0.005647757579761917 0.0 0.0
0.0 0.02444206597757795 -0.021447761845351195 0.02034907726289479 0.001098684582456413 0.0046656511817844346 0.0 0.0
0.0 0.018562048643440465 -0.01623525750265005 0.015238599214257796 0.0009966582883922516 0.0038276735424390847 0.0 0.0
0.0 0.013479825350059618 -0.011893876241339918 0.01100129234784444 0.0008925838934954726 0.00303058042104197 0.0 0.0
0.0 0.009312770046980794 -0.00825776560598249 0.007476901430070832 0.0007808641759116572 0.0022339995214509046 0.0 0.0
0.0 0.005838602044900199 -0.005251175098182931 0.004605729316969772 0.0006454457812131559 0.0014734713881449284 0.0 0.0
0.0 0.003146666055072564 -0.0028684808521369383 0.0024040001605891426 0.00046448069154779746 0.0008083238190555995 0.0 0.0
0.0 0.0013641307305840332 -0.00114167320964712 0.0008994245600550757 0.0002422486495920453 0.000264150383394162 0.0 0.0
0.0 0.00030370968435944654 -0.00020659483830008416 0.00015244558799248328 5.41492503076013e-05 2.5662586981095314e-05 0.0 0.0
0.0 4.572946405504865e-06 2.1362636297646706e-05 -1.6730578768889423e-05 -4.632057528757431e-06 -1.4267900911116962e-05 0.0 0.0
0.0 -8.417872574397398e-07 -8.544655393450504e-08 6.609993796626954e-08 1.9346615968240957e-08 7.969114552353769e-08 0.0 0.0
0.0 0.0 0.0 0.0 0.0 0.0 0.0 0.0
0.0 0.0 0.0 0.0 0.0 0.0 0.0 0.0
0.0 0.0 0.0 0.0 0.0 0.0 0.0 0.0
0.0 0.0 0.0 0.0 0.0 0.0 0.0 0.0
0.0 0.0 0.0 0.0 0.0 0.0 0.0 0.0
0.0 0.0 0.0 0.0 0.0 0.0 0.0 0.0
0.0 7.187229598705419e-07 8.463335519122874e-08 -6.176879738647556e-08 -2.286455780476825e-08 5.165437736512387e-08 0.0 0.0
0.0 1.7515234228003527e-05 -1.767200729412903e-05 1.1702155607128981e-05 5.96985168700005e-06 4.064696494540389e-06 0.0 0.0
0.0 0.000622236328673544 -0.00042384412025481114 0.00031804514165058415 0.00010579897860422686 -1.5899482548735882e-06 0.0 0.0
0.0 0.0017882743906733176 -0.001721424298607852 0.0013880390684086444 0.00033338523019920785 -0.00024760536978102505 0.0 0.0
0.0 0.004079320043121118 -0.0037197858517143373 0.0031744136905097857 0.0005453721612045549 -0.0006139134862906616 0.0 0.0
0.0 0.007126082978282831 -0.006439748378324772 0.0057265065794021635 0.000713241798922605 -0.0010892530914394408 0.0 0.0
0.0 0.011088618416606041 -0.009863794473695751 0.009022698041068374 0.0008410964326273857 -0.001634515613806653 0.0 0.0
0.0 0.01591189500131552 -0.014023528878629607 0.013069932961289422 0.0009535959173401743 -0.0022054629076642485 0.0 0.0
0.0 0.02160236748001135 -0.019023258744222442 0.017960382443144768 0.0010628763010776835 -0.0027743730101310077 0.0 0.0
0.0 0.028714242436003384 -0.02503828026866991 0.023867497625862127 0.0011707826428077742 -0.003382784951583437 0.0 0.0
0.0 0.03679587027374781 -0.03228606418566328 0.03101397430889739 0.001272089876765844 -0.004143548073730234 0.0 0.0
0.0 0.046699981591317545 -0.04086441406821428 0.03950621813059367 0.0013581959376206601 -0.005088980362469633 0.0 0.0
0.0 0.05801366770499339 -0.05066152407061155 0.04924176978818266 0.0014197542824288451 -0.006106619027611122 0.0 0.0
0.0 0.07019310947400635 -0.06120153152762485 0.05975099945584202 0.0014505320717829173 -0.006938946933799978 0.0 0.0
0.0 0.08182290791503448 -0.07127573512485907 0.0698680370319977 0.0014076980928613516 -0.007813428007484101 0.0 0.0
0.0 0.0895927585763009 -0.07783661931274174 0.07672781127385968 0.0011088080388820675 -0.011606191434199584 0.0 0.0
0.0 0.08702344176902213 -0.07483394755302641 0.07430868618252041 0.0005252613705058484 -0.024372657920502458 0.0 0.0
0.0 0.07803495548070495 -0.06483515870496631 0.05948888920664443 0.0053462694983217925 7.616303421276172e-15 0.0 0.0
0.0 0.08702344176901484 -0.07483394755301831 0.07430868618251295 0.0005252613705053823 0.024372657920519188 0.0 0.0
0.0 0.08959275857628064 -0.0778366193127235 0.0767278112738416 0.0011088080388819512 0.011606191434216949 0.0 0.0
0.0 0.08182290791500528 -0.07127573512483364 0.06986803703197274 0.001407698092860885 0.007813428007493364 0.0 0.0
0.0 0.07019310947396919 -0.06120153152759282 0.059750999455809695 0.00145053207178316 0.006938946933802691 0.0 0.0
0.0 0.05801366770495768 -0.050661524070580256 0.04924176978815231 0.001419754282427978 0.006106619027610662 0.0 0.0
0.0 0.046699981591279124 -0.040864414068181025 0.03950621813056061 0.0013581959376204361 0.005088980362467848 0.0 0.0
0.0 0.036795870273708786 -0.032286064185629355 0.031013974308864087 0.0012720898767652545 0.004143548073726469 0.0 0.0
0.0 0.028714242435963783 -0.025038280268635398 0.023867497625827776 0.0011707826428076322 0.0033827849515797076 0.0 0.0
0.0 0.021602367479973232 -0.01902325874418935 0.017960382443112276 0.0010628763010770519 0.002774373010126571 0.0 0.0
0.0 0.015911895001284187 -0.014023528878601539 0.013069932961261868 0.0009535959173396669 0.0022054629076579814 0.0 0.0
0.0 0.011088618416580083 -0.00986379447367221 0.009022698041045614 0.0008410964326265951 0.0016345156138014927 0.0 0.0
0.0 0.007126082978261867 -0.006439748378305431 0.005726506579383813 0.0007132417989216211 0.0010892530914355398 0.0 0.0
0.0 0.004079320043106457 -0.0037197858517004742 0.00317441369049711 0.0005453721612033625 0.0006139134862877893 0.0 0.0
0.0 0.0017882743906644327 -0.00172142429859928 0.001388039068401315 0.00033338523019796394 0.0002476053697791979 0.0 0.0
0.0 0.0006222363286688333 -0.0004238441202511202 0.00031804514164772505 0.00010579897860339453 1.5899482544044478e-06 0.0 0.0
0.0 1.7515234226923045e-05 -1.7672007294078772e-05 1.170215560711512e-05 5.969851686963553e-06 -4.064696494368753e-06 0.0 0.0
0.0 7.187229594391122e-07 8.463335514353968e-08 -6.176879735139436e-08 -2.2864557792165992e-08 -5.165437734438602e-08 0.0 0.0
0.0 0.0 0.0 0.0 0.0 0.0 0.0 0.0
0.0 0.0 0.0 0.0 0.0 0.0 0.0 0.0
0.0 0.0 0.0 0.0 0.0 0.0 0.0 0.0
0.0 0.0 0.0 0.0 0.0 0.0 0.0 0.0
0.0 0.0 0.0 0.0 0.0 0.0 0.0 0.0
0.0 0.0 0.0 0.0 0.0 0.0 0.0 0.0
0.0 -1.237017356890018e-06 5.222078204834115e-07 -4.1906027024846305e-07 -1.0314755023494747e-07 1.7770240366883073e-07 0.0 0.0
0.0 0.00013089995359750063 -5.86088962197911e-05 4.042368256146989e-05 1.8185213658321073e-05 1.9948832315328905e-05 0.0 0.0
0.0 0.0009081785888846068 -0.0007528307576193035 0.0005763885922582224 0.00017644216536108113 4.838900210715123e-05 0.0 0.0
0.0 0.002476638422491413 -0.0023117707004367666 0.001903924965188607 0.00040784573524816 -8.269700116713919e-05 0.0 0.0
0.0 0.005014227223694311 -0.004586623489704925 0.003973003825484973 0.0006136196642199501 -0.0002649035679058711 0.0 0.0
0.0 0.008492004695430877 -0.007629798163782929 0.006861214186137492 0.0007685839776454419 -0.00050119720357722 0.0 0.0
0.0 0.012876635979707323 -0.011470014252488843 0.01057709322146343 0.0008929210310254067 -0.0007790435344735371 0.0 0.0
0.0 0.01828403793933088 -0.016158782839954963 0.01515066812939851 0.0010081147105564367 -0.0010610425351706347 0.0 0.0
0.0 0.024954259683641098 -0.021822430484144603 0.020699437055152887 0.0011229934289917263 -0.001335432833964931 0.0 0.0
0.0 0.03253609365427406 -0.028666180936813702 0.027428352577489046 0.001237828359324644 -0.001671509600790091 0.0 0.0
0.0 0.04197875268172771 -0.036868094870640036 0.035522382029049615 0.00134571284159043 -0.0021031221927373714 0.0 0.0
0.0 0.05306288558730333 -0.04649524018378311 0.045061672846588796 0.0014335673371943226 -0.0026378940757243656 0.0 0.0
0.0 0.06555582039567265 -0.05731809672894855 0.0558290007692142 0.0014890959597343972 -0.0032288281659057475 0.0 0.0
0.0 0.07869318134597639 -0.06866426621503816 0.06715704619856395 0.001507220016474165 -0.003653495409253773 0.0 0.0
0.0 0.09111432903401377 -0.0793885297961959 0.07788215022241303 0.0015063795737829397 -0.003726484902214499 0.0 0.0
0.0 0.10030166523488837 -0.08733279480585675 0.08594581838977793 0.001386976416078797 -0.004975547904019351 0.0 0.0
0.0 0.09986342129891537 -0.08637597091329603 0.08590749378243406 0.000468477130861974 -0.016907313382726476 0.0 0.0
0.0 0.09187930438127295 -0.07681482845612453 0.07141257602240571 0.005402252433718747 4.1321113197767545e-15 0.0 0.0
0.0 0.09986342129890552 -0.08637597091328647 0.08590749378242497 0.00046847713086147895 0.016907313382736246 0.0 0.0
0.0 0.10030166523486371 -0.08733279480583524 0.08594581838975648 0.001386976416078535 0.00497554790402931 0.0 0.0
0.0 0.09111432903398024 -0.0793885297961668 0.0778821502223844 0.0015063795737824423 0.0037264849022201714 0.0 0.0
0.0 0.0786931813459364 -0.06866426621500343 0.06715704619852939 0.0015072200164741101 0.0036534954092549508 0.0 0.0
0.0 0.06555582039563146 -0.05731809672891251 0.0558290007691791 0.001489095959733417 0.0032288281659055545 0.0 0.0
0.0 0.053062885587262194 -0.04649524018374719 0.04506167284655366 0.0014335673371935584 0.0026378940757239315 0.0 0.0
0.0 0.04197875268168376 -0.03686809487060173 0.035522382029012076 0.001345712841589598 0.0021031221927359277 0.0 0.0
0.0 0.032536093654230845 -0.028666180936776003 0.027428352577451992 0.0012378283593239914 0.0016715096007886743 0.0 0.0
0.0 0.024954259683600547 -0.021822430484108882 0.02069943705511798 0.0011229934289908976 0.0013354328339623273 0.0 0.0
0.0 0.01828403793929513 -0.016158782839923766 0.015150668129367892 0.001008114710555874 0.0010610425351673888 0.0 0.0
0.0 0.012876635979676797 -0.011470014252461498 0.010577093221436941 0.0008929210310245555 0.000779043534470852 0.0 0.0
0.0 0.008492004695408464 -0.007629798163762261 0.006861214186117693 0.0007685839776445665 0.0005011972035752488 0.0 0.0
0.0 0.0050142272236775 -0.004586623489689101 0.003973003825470228 0.0006136196642188705 0.00026490356790428386 0.0 0.0
0.0 0.0024766384224803035 -0.0023117707004259554 0.0019039249651791115 0.00040784573524684366 8.269700116613033e-05 0.0 0.0
0.0 0.0009081785888785261 -0.000752830757614116 0.0005763885922540761 0.00017644216536003983 -4.838900210725487e-05 0.0 0.0
0.0 0.00013089995359592355 -5.860889621928062e-05 4.042368256114444e-05 1.8185213658136213e-05 -1.9948832315036258e-05 0.0 0.0
0.0 -1.2370173570085008e-06 5.222078201080593e-07 -4.190602699708655e-07 -1.0314755013713524e-07 -1.7770240366046104e-07 0.0 0.0
0.0 0.0 0.0 0.0 0.0 0.0 0.0 0.0
0.0 0.0 0.0 0.0 0.0 0.0 0.0 0.0
0.0 0.0 0.0 0.0 0.0 0.0 0.0 0.0
0.0 0.0 0.0 0.0 0.0 0.0 0.0 0.0
0.0 0.0 0.0 0.0 0.0 0.0 0.0 0.0
0.0 0.0 0.0 0.0 0.0 0.0 0.0 0.0
0.0 1.9460181543015836e-06 -2.4941824241273755e-07 2.592622646017516e-07 -9.844022188889107e-09 -4.6980329809947066e-07 0.0 0.0
0.0 0.0002907999037286982 -0.00013687625361168297 9.477967264014564e-05 4.2096580971537946e-05 5.0375661727011875e-05 0.0 0.0
0.0 0.0012599258649912063 -0.0010576306862378237 0.0008027197034042993 0.00025491098283352286 0.00014026643998875902 0.0 0.0
0.0 0.0030166277621892614 -0.0028183993835083293 0.002298720329504041 0.0005196790540042892 0.00015304794951582722 0.0 0.0
0.0 0.005774243873094428 -0.005301667779271692 0.00454119489767953 0.0007604728815921583 0.00016678554557088466 0.0 0.0
0.0 0.009484993235224951 -0.008611148955212106 0.007647858580094903 0.0009632903751172002 0.00018220162094126043 0.0 0.0
0.0 0.01428078159708417 -0.012795359528013485 0.011639609352987251 0.0011557501750262306 0.0001786905211955533 0.0 0.0
0.0 0.02023245068740812 -0.017929794627267317 0.016566278338078937 0.00136351628918838 0.00020433200801403062 0.0 0.0
0.0 0.02718335426294122 -0.0241694664909029 0.02257256130847142 0.0015969051824314784 0.00025564376672445417 0.0 0.0
0.0 0.03570386683477553 -0.031697488743507404 0.029847034312044652 0.0018504544314627415 0.0002509943821194529 0.0 0.0
0.0 0.04592927043674737 -0.04068500800320817 0.03856854251117152 0.002116465492036622 0.00023096121918834284 0.0 0.0
0.0 0.05790768402242534 -0.05116847964706708 0.04879583691700614 0.002372642730060863 0.00011009263673659054 0.0 0.0
0.0 0.07131398938819869 -0.06282304039473971 0.06023581854167202 0.0025872218530676805 -0.00013279922367114092 0.0 0.0
0.0 0.08513925199052781 -0.07479896867170352 0.07207661767233531 0.0027223509993681357 -0.0004239268589339429 0.0 0.0
0.0 0.09780407242532481 -0.08573142625337855 0.0829956427072685 0.002735783546109845 -0.0005961042447541068 0.0 0.0
0.0 0.10738532325475633 -0.09408515143619427 0.0913941400302955 0.0026910114058987604 -0.0008366632706813815 0.0 0.0
0.0 0.10968888033485333 -0.09649015514038817 0.0940052258212102 0.002484929319178028 -0.011567730972978533 0.0 0.0
0.0 0.10564298791641848 -0.08957062643698811 0.08125216768892761 0.008318458748060472 1.9012569296705806e-15 0.0 0.0
0.0 0.10968888033484117 -0.09649015514037723 0.09400522582119993 0.0024849293191772826 0.011567730972981931 0.0 0.0
0.0 0.10738532325472891 -0.0940851514361702 0.09139414003027238 0.0026910114058978692 0.0008366632706846332 0.0 0.0
0.0 0.09780407242528781 -0.08573142625334589 0.08299564270723733 0.0027357835461086057 0.0005961042447570689 0.0 0.0
0.0 0.08513925199048586 -0.07479896867166655 0.0720766176722994 0.0027223509993669404 0.0004239268589337087 0.0 0.0
0.0 0.07131398938815355 -0.06282304039469985 0.0602358185416339 0.0025872218530660117 0.00013279922367082954 0.0 0.0
0.0 0.05790768402238117 -0.05116847964702788 0.04879583691696893 0.0023726427300589693 -0.00011009263673686983 0.0 0.0
0.0 0.0459292704367018 -0.04068500800316795 0.03856854251113311 0.0021164654920348236 -0.00023096121918913387 0.0 0.0
0.0 0.03570386683472958 -0.03169748874346684 0.029847034312005683 0.0018504544314611698 -0.0002509943821199269 0.0 0.0
0.0 0.027183354262897967 -0.024169466490864794 0.022572561308434907 0.0015969051824298703 -0.0002556437667266334 0.0 0.0
0.0 0.020232450687370982 -0.01792979462723445 0.016566278338047333 0.0013635162891871202 -0.000204332008015202 0.0 0.0
0.0 0.014280781597050127 -0.012795359527983705 0.011639609352958696 0.0011557501750250197 -0.0001786905211966078 0.0 0.0
0.0 0.009484993235200002 -0.008611148955189706 0.0076478585800736016 0.0009632903751161064 -0.0001822016209414301 0.0 0.0
0.0 0.005774243873075411 -0.005301667779253991 0.004541194897663067 0.0007604728815909236 -0.00016678554557108378 0.0 0.0
0.0 0.0030166277621771933 -0.002818399383496581 0.0022987203294936834 0.0005196790540028999 -0.0001530479495156701 0.0 0.0
0.0 0.0012599258649844199 -0.001057630686231149 0.0008027197033989881 0.00025491098283216126 -0.00014026643998831748 0.0 0.0
0.0 0.0002907999037266306 -0.00013687625361062214 9.477967263943979e-05 4.2096580971183554e-05 -5.037566172657383e-05 0.0 0.0
0.0 1.9460181539317928e-06 -2.494182422666879e-07 2.5926226449206263e-07 -9.84402222538924e-09 4.698032980933382e-07 0.0 0.0
0.0 0.0 0.0 0.0 0.0 0.0 0.0 0.0
0.0 0.0 0.0 0.0 0.0 0.0 0.0 0.0
0.0 0.0 0.0 0.0 0.0 0.0 0.0 0.0
SCALARS Wm float 4
LOOKUP_TABLE default
9.558813194369332 1.9066532709912924 3.669808378754703 3.982351544623329
4.178151342343554 2.106405712393742 0.8866500330573732 1.185095596892441
0.48643680920316834 0.49324101979277246 -0.004925285704581323 -0.00187892488502306
0.42664374878414 0.42665205488683794 0.00027291111356718813 -0.00028121721626498905
0.7252275981373846 0.6315831526114217 0.033305999011621956 0.060338446514340796
1.362568685599817 0.8219000725847119 0.17327719989767307 0.3673914131174314
2.566205756884185 1.099894990888529 0.5669775063154231 0.8993332596802337
4.393911925555063 1.4065060295388023 1.266453610484481 1.7209522855317783
6.964544430187889 1.7625490991664061 2.3639415023481734 2.838053828673309
10.404008671959245 2.1991441796239055 3.943833952952205 4.26103053938314
14.85920937778253 2.759279435210037 6.0892125736750735 6.0107173688974225
20.44747572432265 3.477591403854003 8.83001256443527 8.139871756033385
27.504411094782817 4.361227027367662 12.428355048701869 10.71482901871329
36.24932207893069 5.417444354795835 17.033473189655727 13.798404534479124
46.76971749161451 6.573489566148285 22.787663042647626 17.40856488281859
58.84767170477838 7.68266144006706 29.68963662521812 21.475373639493174
71.77067777239246 8.54739543729718 37.400345068160775 25.82293726693451
84.38410468387482 8.995199889280313 45.29566764056098 30.093237154033478
95.31122541296585 9.01548206092883 52.45536633980694 33.8403770122301
102.91077539474969 8.652360719136947 57.67427255803627 36.5841421175765
105.50026550783444 8.098489475890604 59.712549401209564 37.68922663073429
102.9107753947413 8.652360719138176 57.674272558029664 36.5841421175735
95.31122541294074 9.015482060924686 52.455366339793 33.84037701222303
84.38410468384394 8.995199889282919 45.295667640539286 30.093237154021732
71.77067777235257 8.547395437291742 37.400345068138506 25.822937266922292
58.8476717047417 7.682661440066653 29.689636625195252 21.475373639479827
46.76971749157724 6.573489566145094 22.787663042626512 17.408564882805617
36.24932207889273 5.4174443547919395 17.03347318963506 13.798404534465723
27.50441109474528 4.36122702736312 12.428355048682363 10.714829018699803
20.44747572428888 3.477591403850196 8.83001256441807 8.139871756020625
14.859209377754622 2.759279435205953 6.0892125736618175 6.010717368886841
10.404008671937877 2.199144179622482 3.943833952941504 4.261030539373895
6.964544430171703 1.7625490991644672 2.36394150234096 2.8380538286662746
4.393911925543521 1.4065060295371632 1.2664536104798338 1.7209522855265234
2.566205756876905 1.0998949908868463 0.5669775063130671 0.8993332596769933
1.3625686855960326 0.8219000725837136 0.17327719989691495 0.36739141311540396
0.7252275981358639 0.6315831526105978 0.03330599901137403 0.060338446513892065
0.4266437487837498 0.4266520548863645 0.0002729111135857542 -0.0002812172162005547
0.4864368092026576 0.4932410197922521 -0.004925285704563836 -0.0018789248850309742
4.178151342339471 2.1064057123939803 0.8866500330553826 1.1850955968901051
9.558813194347985 1.9066532709810424 3.6698083787487774 3.9823515446181728
11.019437034845748 5.029746334496138 2.7766013247137935 3.2130893756358163
1.4625522128897945 0.33663251699689634 0.4400242581467244 0.685895437746173
0.22127526898099967 0.2309240219858104 -0.002139156608050173 -0.007509596396760558
0.3430299415741071 0.3425742002633434 5.82558950094689e-05 0.00039748541575426884
0.5609269512111885 0.5194754137292312 0.011516304242952878 0.029935233239004513
1.1021779768459636 0.7284999543376225 0.12451904449595588 0.2491589780123851
2.115303901521102 0.9308579870889886 0.4420620975343259 0.7423838168977885
3.7266107206977246 1.1660070681333121 1.0639888803175488 1.4966147722468641
5.9981706233149055 1.4129047656591542 2.054902546806778 2.5303633108489736
8.995761145549118 1.6859217786617111 3.4643248547767787 3.8455145121106282
12.832229992214394 2.002392949810121 5.372330464707547 5.4575065776967255
17.70778694029755 2.3830971813213813 7.916953577780405 7.407736181195764
23.680663727021905 2.839675599373156 11.069499905696794 9.771488221951955
31.204561125604812 3.3659931434732178 15.2283152816782 12.610252700453387
40.309508623696644 3.9276988565692514 20.42366268166781 15.958147085459576
50.844225150279186 4.4336630046585235 26.65952789872912 19.75103424689154
62.2514089753675 4.763957856926031 33.69867641354564 23.788774704895808
73.55828248316598 4.8302050080357395 40.95272373076776 27.77535374436246
83.45452582102462 4.610286047695271 47.55091585371558 31.293323919613766
90.42262057853 4.1573256160207315 52.43871673307954 33.82657822942969
92.96917944373537 3.704680286845762 54.4269697719209 34.83752938496874
90.42262057852139 4.157325616021265 52.43871673307355 33.826578229426545
83.45452582100882 4.610286047699816 47.55091585370226 31.293323919606774
73.55828248313578 4.830205008033637 40.95272373074951 27.775353744352643
62.251408975334726 4.763957856923883 33.69867641352614 23.788774704884702
50.844225150244974 4.433663004656477 26.659527898708884 19.751034246879637
40.30950862366448 3.9276988565686595 20.423662681648366 15.958147085447434
31.204561125570894 3.3659931434688732 15.228315281660395 12.61025270044162
23.680663726990254 2.8396755993713745 11.069499905679297 9.771488221939574
17.70778694026849 2.3830971813187376 7.916953577765402 7.407736181184353
12.832229992190438 2.002392949808303 5.372330464695371 5.457506577686768
8.995761145530139 1.6859217786605674 3.464324854767415 3.845514512102155
5.998170623300529 1.412904765657351 2.054902546800575 2.5303633108426027
3.7266107206875017 1.1660070681319423 1.0639888803134883 1.4966147722420704
2.1153039015148556 0.9308579870874836 0.44206209753240744 0.742383816894964
1.1021779768429436 0.7284999543371827 0.12451904449496362 0.24915897801079667
0.5609269512100724 0.5194754137284219 0.01151630424284519 0.029935233238805422
0.34302994157378086 0.34257420026294194 5.825589502010581e-05 0.0003974854158188443
0.22127526898097818 0.23092402198569872 -0.0021391566080243055 -0.007509596396696226
1.4625522128855812 0.33663251699661223 0.44002425814493473 0.6858954377440345
11.019437034824682 5.0297463344862505 2.7766013247080266 3.2130893756303975
8.103821377085925 3.9246421585661633 1.8449905479707411 2.334188670549023
0.869214157959816 0.11619711109855543 0.2808734251946252 0.47214362166663526
0.138715105722736 0.13871554218039434 -1.80369121587346e-08 -4.1842074621861334e-07
0.26002181627917537 0.2598656978342671 4.213737540245374e-05 0.00011398106950584263
0.4390041092841178 0.43180581845985033 0.0012018374747520227 0.005996453349515449
0.8609599805755597 0.6543662617908311 0.06697046807661573 0.13962325070811302
1.7036941043641876 0.8515281378274268 0.29986471531095593 0.5523012512258045
3.1113560852729005 1.0813627109622401 0.8165773700304688 1.2134160042801916
5.102687278773575 1.3142140626601222 1.6526472976732292 2.1358259184402235
7.744932040072414 1.5632475008490758 2.8721768833082533 3.309507655915085
11.096124710754895 1.8445319609732511 4.5110814306216325 4.74051131916001
15.26411622757804 2.1739778460959065 6.6242308844461855 6.465907497035957
20.566536445505875 2.5744265680469858 9.447796101059339 8.54431377639955
27.02426690439429 3.040530603768333 12.922492208065048 11.061244092560905
34.99248215741925 3.5364546727057022 17.414948696033697 14.041078788679851
44.26887105350646 3.9984440624156257 22.82845676219736 17.44197022889348
54.394379932938854 4.331864365168034 28.952075610362115 21.11043995740871
64.50841762342583 4.439909748725001 35.32982374601126 24.738684128689577
73.40908299253847 4.2650379430163 41.19906788262556 27.944977166896592
79.7207885831186 3.90702892160294 45.56312676291859 30.250632898597086
81.98412884326233 3.388339150208341 47.381436605981534 31.214353087072467
79.72078858311144 3.9070289216040344 45.56312676291331 30.250632898594084
73.40908299251863 4.265037943013478 41.199067882614514 27.944977166890606
64.50841762340397 4.439909748726621 35.3298237459963 24.738684128681083
54.394379932912095 4.331864365167475 28.952075610345563 21.110439957399066
44.268871053478364 3.9984440624155733 22.828456762179947 17.44197022888283
34.99248215738883 3.5364546727021677 17.41494869601733 14.04107878866933
27.02426690436749 3.0405306037673374 12.922492208049734 11.061244092550416
20.566536445478224 2.574426568045048 9.44779610104449 8.544313776388687
15.264116227552947 2.173977846093248 6.624230884433598 6.4659074970261035
11.09612471073388 1.8445319609720354 4.511081430611021 4.740511319150826
7.744932040055788 1.5632475008476732 2.872176883300457 3.3095076559076593
5.102687278761234 1.3142140626590377 1.6526472976677895 2.1358259184344077
3.1113560852639104 1.081362710960776 0.8165773700270863 1.2134160042760491
1.7036941043589158 0.8515281378258006 0.2998647153096305 0.5523012512234846
0.860959980573069 0.6543662617901468 0.06697046807596786 0.13962325070695422
0.4390041092833797 0.4318058184591839 0.0012018374747303374 0.0059964533494651796
0.26002181627901655 0.25986569783409497 4.2137375403554e-05 0.00011398106951797344
0.13871510572264345 0.13871554218030152 -1.8036912141597065e-08 -4.184207459031903e-07
0.8692141579568182 0.11619711109875584 0.28087342519327035 0.47214362166479185
8.103821377066504 3.924642158557492 1.8449905479654343 2.3341886705435817
6.014415075473497 3.044058411688523 1.2523714784777091 1.7179851853072665
0.5572103594256874 0.07174354407532349 0.16657902418672943 0.31888779116363414
0.09807161552036234 0.09807161552036234 0.0 0.0
0.1957842892681461 0.1957493034225082 2.5512937102303255e-06 3.2434551927668304e-05
0.34678625683235725 0.35501051736258105 -0.0019024521740051176 -0.006321808356218688
0.6486612925372854 0.5578307127452407 0.024572542499033304 0.06625803729301116
1.3397309637210928 0.7825819464189813 0.19073411513546723 0.36641490216664396
2.519165928092894 0.9907216209857272 0.5902119604397761 0.9382323466673907
4.244126591723866 1.211013867180378 1.285454045169475 1.747658679374013
6.525992832382456 1.4384335777561845 2.307536245330702 2.7800230092955696
9.387740480217904 1.6850145910324663 3.668562965963727 4.034162923221713
12.97932561321848 1.9733003639334943 5.470818222030874 5.535207027254108
17.400683271220437 2.3156943638107346 7.742150895117121 7.342838012292578
23.04801482989528 2.7183618663566698 10.805783631069328 9.52386933246929
29.853363847472522 3.1578280911522603 14.560653812952921 12.134881943367331
37.82392077555367 3.579654184223159 19.104009103402365 15.14025748792815
46.716129737579315 3.912666132157448 24.404649605280383 18.398814000141478
55.686822037086706 4.061923721393101 29.948047507790484 21.676850807903104
63.66623064144501 3.959973329485373 35.087542132711576 24.61871517924807
69.41461717786507 3.671271279940766 38.963213255909125 26.78013264201521
71.48294697162459 3.0543050812617567 40.71498651247942 27.71365537788337
69.4146171778599 3.671271279943004 38.9632132559043 26.780132642012585
63.666230641431 3.9599733294839963 35.08754213270348 24.618715179243523
55.68682203706646 4.061923721393557 29.948047507777332 21.67685080789557
46.71612973755627 3.912666132157074 24.40464960526626 18.39881400013295
37.82392077552993 3.5796541842247738 19.104009103386847 15.140257487918323
29.853363847448517 3.1578280911516714 14.560653812938895 12.134881943357943
23.04801482987068 2.7183618663548366 10.805783631056045 9.52386933245981
17.40068327119691 2.3156943638088126 7.742150895104854 7.342838012283246
12.979325613197792 1.9733003639324396 5.470818222020157 5.535207027245199
9.387740480199723 1.6850145910315524 3.6685629659546506 4.034162923213519
6.525992832367864 1.4384335777548647 2.30753624532401 2.7800230092889864
4.244126591712994 1.211013867179291 1.2854540451648495 1.7476586793688518
2.5191659280852603 0.9907216209839571 0.5902119604373992 0.9382323466639036
1.3397309637167727 0.7825819464178732 0.1907341151341596 0.3664149021647399
0.648661292535551 0.5578307127443092 0.024572542498757424 0.06625803729248439
0.34678625683188635 0.355010517361972 -0.0019024521739775617 -0.006321808356107987
0.19578428926801067 0.19574930342238062 2.5512937095611208e-06 3.243455192045186e-05
0.098071615520276 0.098071615520276 0.0 0.0
0.5572103594231802 0.0717435440754084 0.16657902418563938 0.3188877911621323
6.014415075458138 3.0440584116820464 1.2523714784736255 1.7179851853024666
4.388440683849231 2.338665662515018 0.8129876905806571 1.236787330753555
0.41073030741363253 0.10747459501314216 0.11058590423764965 0.19266980816284068
0.08889603277911781 0.08889603277911781 0.0 0.0
0.15413613307090632 0.15412870425238806 4.1024249203392503e-07 7.018576026238409e-06
0.2769382817602286 0.2764901497489495 9.11843804321241e-05 0.00035694763084696254
0.4896328054944352 0.48004230611480403 0.0012942251650284692 0.008296274214602656
1.0107507794073065 0.6922278821661131 0.10919480135906899 0.20932809588212475
1.9596727923380004 0.8952182629446982 0.39026021898713936 0.6741943104061631
3.414462897643711 1.101011056121759 0.9458383001465559 1.3676135413753963
5.339638352885048 1.308423974339875 1.7720974099744031 2.259116968570771
7.757812851438653 1.5272827244910707 2.8928780483003678 3.337652078647217
10.748946473927907 1.7738788594268577 4.355528820818906 4.619538793682148
14.490474394117976 2.067359157220349 6.268562514508546 6.154552722389076
19.06833709107385 2.4097892094302065 8.642780487636738 8.015767394006904
24.824367934031805 2.785485045373096 11.79268673338272 10.246196155275998
31.65699838283961 3.1699414159915946 15.649565851069415 12.837491115778596
39.22154323486319 3.5043876695887106 20.021940747203196 15.695214818071284
47.04940495156926 3.6979033964581784 24.748273312335584 18.603228242775497
54.17360395529062 3.6753389350451453 29.238019418078824 21.26024560216666
59.47308656151114 3.4456892063523226 32.747197797440634 23.280199557718174
61.40714995851715 2.7165046078414194 34.447104788034856 24.243540562640906
59.47308656150577 3.4456892063535074 32.74719779743647 23.280199557715775
54.1736039552789 3.6753389350450485 29.23801941807146 21.26024560216239
47.04940495155179 3.6979033964570007 24.748273312325423 18.603228242769383
39.22154323484399 3.504387669588927 20.021940747191255 15.69521481806381
31.656998382817548 3.169941415990608 15.649565851056694 12.837491115770245
24.82436793401046 2.7854850453721185 11.79268673337072 10.246196155267626
19.068337091054733 2.4097892094298783 8.642780487625972 8.015767393998873
14.490474394099202 2.067359157220052 6.268562514498318 6.154552722380829
10.748946473910129 1.773878859426118 4.355528820809796 4.619538793674216
7.75781285142319 1.5272827244896663 2.8928780482931473 3.3376520786403767
5.339638352872388 1.3084239743382737 1.7720974099689732 2.2591169685651424
3.4144628976347016 1.1010110561209445 0.9458383001428896 1.3676135413708663
1.9596727923317352 0.8952182629430403 0.3902602189852499 0.6741943104034439
1.0107507794038524 0.6922278821651082 0.10919480135812326 0.20932809588062115
0.48963280549324384 0.4800423061139061 0.0012942251649444114 0.008296274214393403
0.2769382817598673 0.2764901497485753 9.118438043199066e-05 0.00035694763085999075
0.15413613307066407 0.15412870425215 4.1024249179030226e-07 7.018576022264267e-06
0.08889603277896098 0.08889603277896098 0.0 0.0
0.41073030741148286 0.10747459501309296 0.11058590423674575 0.19266980816164442
4.3884406838372145 2.3386656625100177 0.8129876905775822 1.2367873307496138
3.137922991961993 1.7875603028411253 0.5074702948342021 0.8428923942866664
0.2929187984709723 0.14326938893761623 0.04379255180102633 0.10585685773232953
0.09940378175475734 0.09940378175475734 0.0 0.0
0.13287629595148429 0.1328766154141646 -1.2239768657509634e-08 -3.072229116306911e-07
0.2268866817387756 0.2272503396013155 -5.6985267232108896e-05 -0.00030667259530778654
0.3742242350061212 0.3809533125131562 -0.002739988443344291 -0.00398908906369074
0.7163370486106772 0.5762288303251484 0.036223748332544645 0.10388446995298396
1.4741765683974193 0.7991720181122519 0.251115373385414 0.4238891768997534
2.6035270994417754 0.9781597714585075 0.6268320248287356 0.9985353031545319
4.206231963373466 1.1732833460838679 1.2848690275545864 1.7480795897350123
6.183276931145011 1.3658146448481525 2.1651113747548663 2.6523509115419905
8.604207413154409 1.5762467781692093 3.308159050198671 3.719801584786531
11.595280023372206 1.8223468901830273 4.784123531691602 4.988809601497577
15.361076718353583 2.108544557500699 6.727071259376128 6.525460901476755
19.98629705757992 2.4336801497126705 9.17037695557134 8.382239952295903
25.52299103459439 2.7691439885657045 12.19428726648076 10.559559779547927
31.96892116676365 3.091300935946314 15.896510762184057 12.98110946863328
38.63707658118246 3.3375915423353897 19.78277759045195 15.516707448395138
44.86616806250416 3.401392445380021 23.558442973296046 17.90633264382809
49.792475961495676 3.2308735356539873 26.758808986059552 19.802793439782143
51.64771443740132 2.380670977288347 28.462824703158375 20.804218756954608
49.79247596149022 3.2308735356533975 26.758808986056486 19.80279343978032
44.86616806249644 3.401392445383473 23.55844297328911 17.906332643823884
38.637076581168195 3.3375915423331266 19.782777590444535 15.516707448390536
31.968921166744952 3.091300935942858 15.896510762174847 12.981109468627254
25.522991034575643 2.7691439885630915 12.194287266471248 10.55955977954131
19.986297057561355 2.433680149709811 9.17037695556227 8.382239952289273
15.361076718337504 2.108544557499968 6.727071259367565 6.525460901469963
11.595280023356624 1.8223468901829678 4.784123531683178 4.988809601490482
8.60420741314019 1.5762467781691074 3.308159050191307 3.7198015847797765
6.1832769311328715 1.365814644847331 2.1651113747492037 2.6523509115363377
4.206231963363394 1.173283346082212 1.284869027550656 1.7480795897305248
2.6035270994342232 0.9781597714578115 0.6268320248257875 0.9985353031506246
1.4741765683926074 0.7991720181110472 0.25111537338390416 0.42388917689765565
0.7163370486082591 0.5762288303240453 0.03622374833210137 0.10388446995211263
0.37422423500517826 0.38095331251212683 -0.0027399884433231035 -0.003989089063625388
0.22688668173841925 0.2272503396009672 -5.6985267232409626e-05 -0.000306672595315575
0.13287629595121267 0.13287661541389223 -1.2239768622387086e-08 -3.0722291093115194e-07
0.09940378175452098 0.09940378175452098 0.0 0.0
0.2929187984693229 0.14326938893747204 0.043792551800420576 0.10585685773143054
3.13792299195291 1.7875603028372233 0.5074702948320639 0.8428923942836226
2.15833881844769 1.3454260112304464 0.2784455938350129 0.5344672133822308
0.2307116676166864 0.18118805077904035 0.011263409709467792 0.038260207128178306
0.11914696809010283 0.11914696809010283 0.0 0.0
0.12780746365443021 0.12780746365443021 0.0 0.0
0.19233849737189773 0.19224106115369466 8.941548156788033e-06 8.849467004632368e-05
0.29564476196525674 0.3033011286213737 -0.0016780171508643416 -0.0059783495052525785
0.5091919185894743 0.48083199000416516 0.004064690778154062 0.02429523780715506
0.9966535216049129 0.6593727157352295 0.10187182161866903 0.23540898425101445
1.914245098647098 0.8649199161742529 0.40827588487701205 0.6410492975958332
3.100721848442803 1.02375076608579 0.8288640421558333 1.2481070402011798
4.6802367259771405 1.198297196248487 1.5012453073620238 1.9806942223666304
6.570631344983494 1.3773872532931342 2.35699714285598 2.8362469488343773
8.875021438175649 1.5809910349801555 3.448544340326149 3.845486062869344
11.753053796269016 1.816304647927827 4.872638169894708 5.064110978446482
15.334615305853573 2.0837874875347504 6.7051059894575396 6.545721828861284
19.78929428757532 2.3836646944536097 9.103813948507824 8.301815644613875
24.76107480564091 2.682535007616894 11.777715702960677 10.300824095063346
30.34421359165504 2.95808318731346 14.971843999996974 12.414286404344592
35.85752164932369 3.121804838468777 18.227419518871237 14.508297291983665
40.38725104521707 3.029583603122227 21.050079616050166 16.30758782604469
42.230547267947216 2.054508721150115 22.79697904886108 17.379059497936016
40.38725104521351 3.029583603121832 21.050079616048183 16.30758782604349
35.85752164931013 3.1218048384625505 18.22741951886674 14.508297291980828
30.34421359164502 2.9580831873129223 14.971843999991268 12.414286404340825
24.761074805630617 2.682535007618787 11.777715702953472 10.30082409505835
19.789294287561304 2.383664694451999 9.103813948500662 8.301815644608638
15.334615305839488 2.083787487532508 6.705105989450952 6.545721828856024
11.753053796255667 1.8163046479250224 4.872638169888994 5.0641109784416525
8.875021438163362 1.5809910349791223 3.448544340320214 3.845486062864023
6.57063134497151 1.3773872532918041 2.356997142850568 2.8362469488291375
4.680236725966848 1.1982971962470808 1.5012453073577743 1.9806942223619914
3.100721848435159 1.023750766084914 0.8288640421527523 1.2481070401974927
1.9142450986411665 0.8649199161733623 0.40827588487477956 0.6410492975930248
0.9966535216016141 0.6593727157343662 0.10187182161775353 0.23540898424949452
0.5091919185879555 0.48083199000322374 0.00406469077797456 0.02429523780675698
0.29564476196475964 0.30330112862072656 -0.0016780171508244473 -0.005978349505142497
0.1923384973715783 0.19224106115337003 8.941548156953332e-06 8.849467005130647e-05
0.1278074636541033 0.1278074636541033 0.0 0.0
0.11914696808974766 0.11914696808974766 0.0 0.0
0.2307116676155331 0.18118805077881903 0.011263409709120606 0.03826020712759328
2.158338818441136 1.345426011227535 0.27844559383363693 0.5344672133799645
1.4747456799557452 1.0491729437956967 0.15168802148009577 0.2738847146799529
0.1840585692736259 0.19105989605910173 -0.008098574632639279 0.001097247847163415
0.14112302172346033 0.14112883213867747 -2.3757776738740996e-07 -5.5728374497752275e-06
0.13382398147348099 0.13382398147348099 0.0 0.0
0.17186730410268705 0.17188703941651073 -2.337062590046876e-06 -1.7398251233662473e-05
0.24354156249343883 0.24666061260693745 -0.0006625770845375482 -0.0024564730289610903
0.36474819832054384 0.37565067114224165 -0.004290656540109496 -0.00661181628158841
0.6455893976157161 0.5270809072573451 0.02633818458681247 0.09217030577155867
1.2140619287821315 0.6996619302526162 0.1678876763201901 0.34651232220932504
2.1348687680330083 0.8733765818627416 0.49525900022280445 0.7662331859474615
3.2524938329111017 1.0166465080935505 0.9125874234056031 1.323259901411948
4.631946609008457 1.1665218434248013 1.4914665370810916 1.9739582285025636
6.3093867826566985 1.3349818020085 2.245462306224598 2.728942674423599
8.375985961215516 1.5229024595940321 3.215532627478932 3.6375508741425517
10.996156052431918 1.742922066872676 4.507810759854158 4.745423225705085
14.202868497217974 1.9951651325412356 6.125592236352901 6.082111128323841
18.089048893094887 2.271615723312565 8.192670961104707 7.624762208677621
22.37869827724776 2.5606946820447147 10.484668030486175 9.333335564716869
26.867446469548504 2.8082861094728706 12.959289416939743 11.099870943135887
31.091372283465237 2.829981133937572 15.490973254072484 12.770417895455175
33.00437086360367 1.7386329134473717 17.326236700056604 13.9395012500997
31.091372283465606 2.8299811339403957 15.490973254070978 12.770417895454232
26.867446469548025 2.808286109477055 12.959289416936977 11.099870943134002
22.378698277237394 2.5606946820414476 10.484668030482034 9.333335564713913
18.089048893085565 2.2716157233138 8.192670961098674 7.624762208673088
14.202868497206996 1.995165132539842 6.125592236347553 6.0821111283196005
10.996156052421302 1.742922066870655 4.507810759849512 4.745423225701141
8.375985961208036 1.5229024595937066 3.2155326274751834 3.637550874139145
6.309386782648361 1.3349818020079143 2.2454623062206855 2.7289426744197605
4.631946609000026 1.1665218434234121 1.4914665370777374 1.9739582284988746
3.252493832903704 1.0166465080923854 0.9125874234027822 1.3232599014085347
2.1348687680271103 0.8733765818616056 0.495259000220679 0.7662331859448256
1.214061928778352 0.6996619302517406 0.1678876763190385 0.34651232220757294
0.6455893976137 0.5270809072565958 0.02633818458640895 0.09217030577069496
0.3647481983196095 0.37565067114131623 -0.004290656540103128 -0.006611816281603757
0.2435415624930374 0.2466606126062765 -0.000662577084506997 -0.0024564730287321927
0.17186730410230786 0.1718870394161821 -2.3370625943166396e-06 -1.7398251279904513e-05
0.13382398147322253 0.13382398147322253 0.0 0.0
0.14112302172307448 0.1411288321382763 -2.3757776660358785e-07 -5.5728374351892456e-06
0.18405856927291528 0.19105989605873017 -0.00809857463272522 0.0010972478469103114
1.4747456799510983 1.0491729437935924 0.15168802147908295 0.2738847146784228
0.950110169582026 0.7826444281874908 0.04756862883773561 0.11989711255679973
0.16728296007721477 0.18667587246722428 -0.006312967225951907 -0.01307994516405775
0.16094030902393952 0.16103313164613126 -7.822639585496173e-06 -8.499998260625417e-05
0.14632106285706686 0.14631229587318667 5.897935051999962e-07 8.177190374985282e-06
0.16384227324471337 0.16386596373663803 -1.9461531036676694e-06 -2.1744338820966167e-05
0.2088086597430017 0.2089880013955143 -7.654692196479891e-05 -0.00010279473054784638
0.2799089612210963 0.2920547404263565 -0.003325342070863241 -0.008820437134396805
0.41433708622686516 0.40866978479713906 -0.000235351645558417 0.0059026530752844955
0.694217524559649 0.5328008007470454 0.0413594206577281 0.12005730315487548
1.2084052899807713 0.6713650016722905 0.18195967655205747 0.3550806117564241
1.9202003071461582 0.7968214250133516 0.4123017212927831 0.7110771608400239
2.823888936142553 0.9258742307794802 0.7538821070977004 1.1441325982653712
3.9129207799716728 1.0618399011121626 1.1977213424605098 1.6533595363990004
5.245098379868251 1.208425357939814 1.7726028410552448 2.264070180873193
6.931845960667756 1.3807086124669659 2.5414910376038438 3.009646310596945
9.068037778932911 1.5879110225701834 3.55777213355319 3.9223546228095354
11.707778528569397 1.839823016231794 4.849158988050714 5.018796524286889
14.76934802999077 2.1063984504184825 6.382181981460059 6.2807675981122335
18.27909261931131 2.4131466878850554 8.185962180874945 7.6799837505513056
22.121331631998533 2.619200666150887 10.31353075718077 9.188600208666873
24.113193454731075 1.4566259534710815 12.113164388295953 10.543403112964036
22.12133163199583 2.619200666148656 10.313530757180478 9.188600208666701
18.27909261930739 2.41314668788552 8.185962180872442 7.679983750549432
14.769348029987256 2.1063984504198277 6.382181981457309 6.2807675981101205
11.70777852856084 1.8398230162303757 4.849158988046819 5.018796524283646
9.068037778925847 1.587911022569733 3.5577721335496744 3.9223546228064388
6.931845960662186 1.3807086124668542 2.5414910376010353 3.009646310594292
5.245098379863542 1.2084253579398256 1.7726028410528945 2.264070180870825
3.912920779966684 1.0618399011120665 1.1977213424582525 1.653359536396366
2.8238889361369637 0.9258742307780972 0.7538821070957555 1.1441325982631112
1.9202003071416525 0.7968214250130368 0.4123017212910398 0.7110771608375764
1.208405289977852 0.6713650016718382 0.1819596765510661 0.35508061175494765
0.694217524557717 0.5328008007462426 0.04135942065734068 0.12005730315413378
0.4143370862259542 0.40866978479650606 -0.00023535164563398677 0.005902653075082288
0.27990896122054965 0.2920547404256166 -0.0033253420708186147 -0.008820437134248252
0.20880865974260923 0.20898800139511173 -7.654692196481598e-05 -0.00010279473053767554
0.16384227324436818 0.16386596373628834 -1.946153103291718e-06 -2.174433881687147e-05
0.14632106285673294 0.14631229587285619 5.897935049128192e-07 8.177190371824514e-06
0.1609403090236325 0.16103313164581526 -7.822639584174224e-06 -8.499998259859527e-05
0.16728296007689905 0.1866758724666572 -0.006312967225892598 -0.013079945163865658
0.9501101695791907 0.782644428186099 0.04756862883723414 0.11989711255585771
0.6228018045791767 0.6025583555252308 0.005224521928257451 0.015018927125688336
0.16316661067264165 0.16683924441257658 -0.0008513067183683766 -0.0028213270215665977
0.17611369775614788 0.1761319195088119 -9.360311742304601e-07 -1.728572148978798e-05
0.161547533991255 0.16155604650743238 -4.624563956504184e-07 -8.050059781740452e-06
0.16569394227144071 0.16569374680735197 1.7247569551195297e-06 -1.5292928663885773e-06
0.19143446722618293 0.19257208799875566 -0.00021430243196411274 -0.000923318340608597
0.23303734231494247 0.23943343320822705 -0.0017090915050250264 -0.00468699938825952
0.2905098639501619 0.2828309753710706 0.0010142987483010564 0.006664589830790228
0.3772058982577705 0.34094828020538404 0.008370432381340895 0.027887185671045554
0.5400898478917825 0.419071455486191 0.03209169463615241 0.08892669776943926
0.846727861296141 0.5235338052566351 0.11128402094038198 0.21191003509912384
1.2488811962379371 0.614783948260154 0.21971344908436585 0.4143837988934175
1.782535541820255 0.7024651121530345 0.4001191614230594 0.6799512682441612
2.466224409301852 0.7984843787786633 0.656100936226757 1.0116390942964317
3.3388423928807276 0.9124893906871392 1.0009819244464575 1.4253710777471305
4.481916736939815 1.0661414179385154 1.470930684059503 1.9448446349417954
6.005254812311242 1.2746262219575037 2.123306314614772 2.607322275738966
8.002820823829122 1.5340449290709743 3.030847714443034 3.437928180315115
10.368700140417028 1.7927412300445813 4.1520446892996095 4.42391422107284
13.439592743594092 2.228382166575692 5.577047786186351 5.634162790832047
16.02222742128513 1.2375491045736309 7.58211645893447 7.20256185777703
13.439592743596421 2.2283821665758947 5.57704778618754 5.634162790832985
10.368700140417667 1.7927412300476429 4.152044689298293 4.423914221071733
8.002820823824237 1.5340449290700575 3.0308477144409496 3.4379281803132327
6.005254812303545 1.2746262219531017 2.123306314613039 2.607322275737403
4.481916736936669 1.0661414179387758 1.4709306840578715 1.9448446349400221
3.3388423928768387 0.9124893906858209 1.0009819244452964 1.4253710777457225
2.466224409299648 0.7984843787783753 0.6561009362258594 1.0116390942954125
1.782535541817384 0.7024651121525559 0.40011916142203136 0.6799512682427966
1.2488811962354625 0.6147839482593113 0.21971344908369225 0.4143837988924585
0.8467278612934875 0.5235338052562363 0.11128402093950054 0.21191003509775053
0.540089847890603 0.41907145548561664 0.03209169463597584 0.08892669776901044
0.3772058982572819 0.34094828020513407 0.008370432381265024 0.027887185670882803
0.2905098639496927 0.28283097537079205 0.0010142987482430381 0.006664589830657553
0.23303734231456935 0.23943343320771715 -0.001709091504993459 -0.00468699938815441
0.19143446722566265 0.19257208799822179 -0.000214302431961962 -0.0009233183405972115
0.16569394227106696 0.16569374680696358 1.7247569561690236e-06 -1.5292928527816401e-06
0.16154753399082017 0.1615560465069922 -4.624563952485292e-07 -8.05005977674842e-06
0.17611369775582902 0.17613191950847853 -9.360311732457195e-07 -1.7285721476226596e-05
0.16316661067248933 0.16683924441237633 -0.0008513067183564355 -0.0028213270215305866
0.6228018045777072 0.602558355523983 0.005224521928188338 0.01501892712553571
0.4144794138003925 0.41307437526498175 0.000115083675806727 0.0012899548596040978
0.1604774529586776 0.1606170835978767 -1.1430793294785097e-05 -0.00012819984590431123
0.18597506841824601 0.18611095917519366 -1.1143274495061744e-05 -0.00012474748245261706
0.17657733116061813 0.1766219360318771 -3.0090264717618683e-06 -4.159584478721377e-05
0.1748123676578201 0.17481191136229352 1.2746668436716983e-06 -8.183713171120655e-07
0.1903620494215654 0.19145636521484136 -0.00020984069237345638 -0.0008844751009025855
0.2190931809745136 0.22490827820571002 -0.001483895670598687 -0.004331201560597709
0.25308158680397663 0.2421070389012206 0.0014969705160915378 0.009477577386664512
0.2834341120971243 0.24334858326254954 0.011024964596102728 0.029060564238472038
0.31380229826885336 0.22128426671366727 0.02577417023070481 0.0667438613244814
0.3680535112662045 0.20423585082729032 0.05519915035336129 0.10861851008555305
0.4530409697446794 0.1896243588213573 0.0882235458245762 0.17519306509874577
0.5861269228189353 0.20170639968068507 0.13840586949717024 0.24601465364107994
0.7796788379420142 0.23493786683476126 0.20853490542443276 0.33620606568282
1.0601072618022067 0.2793152067419238 0.3133643778942421 0.4674276771660405
1.4445442540815152 0.28887504454714086 0.4676417769653136 0.688027432569061
1.9747496292133577 0.2955324302599317 0.7052561279649252 0.9739610709885013
2.711545116382045 0.31667019759973414 1.0468175572216414 1.348057361560668
3.9142822071706824 0.4672734758650523 1.5595079886356173 1.8875007426700126
6.340457820348938 1.2091264436921705 2.338313255918811 2.7930181207379574
10.41506306105245 1.0465299327066877 4.525761291093938 4.842771837251825
6.340457820352367 1.209126443692965 2.3383132559202475 2.7930181207391573
3.914282207164886 0.4672734758606602 1.559507988634918 1.8875007426693076
2.7115451163804223 0.3166701976007522 1.0468175572203307 1.34805736155934
1.9747496292138713 0.2955324302618977 0.7052561279641321 0.9739610709878399
1.44454425407895 0.2888750445461578 0.4676417769647435 0.6880274325680485
1.0601072618027347 0.2793152067431422 0.313364377893812 0.4674276771657807
0.7796788379420723 0.23493786683539977 0.2085349054241936 0.33620606568247907
0.5861269228173591 0.20170639968063747 0.13840586949652 0.2460146536402015
0.4530409697441463 0.18962435882177262 0.08822354582424338 0.17519306509813054
0.3680535112649168 0.20423585082723786 0.05519915035286993 0.10861851008480894
0.31380229826876926 0.22128426671350743 0.025774170230737702 0.06674386132452424
0.28343411209677005 0.24334858326252004 0.011024964595995768 0.029060564238254216
0.25308158680357207 0.24210703890098786 0.0014969705160382063 0.009477577386545987
0.219093180973971 0.22490827820509407 -0.0014838956705816454 -0.00433120156054138
0.1903620494211321 0.1914563652143761 -0.00020984069236801447 -0.0008844751008759785
0.1748123676573802 0.17481191136183666 1.2746668447383521e-06 -8.183713012188865e-07
0.17657733116019192 0.1766219360314311 -3.009026470089872e-06 -4.1595844769073125e-05
0.1859750684179193 0.1861109591748543 -1.1143274493439908e-05 -0.00012474748244152296
0.16047745295841856 0.1606170835976427 -1.143079329673031e-05 -0.00012819984592745142
0.4144794137995848 0.41307437526398333 0.00011508367581858765 0.0012899548597829456
0.2777579835067835 0.2777169255587259 3.1449235594818967e-06 3.791302449810016e-05
0.15205179642256084 0.15205893652910019 -7.809730483392966e-07 -6.359133490956365e-06
0.18968283618640147 0.18964926094333012 3.0357384811359583e-06 3.053950459020256e-05
0.18935194733954525 0.18940776376573187 -4.477284794431172e-06 -5.13391413922115e-05
0.18889722841616052 0.18899965360182008 -1.2802540677736578e-05 -8.962264498179209e-05
0.2043954540244401 0.20433423683902574 -4.695763613647548e-05 0.00010817482155085501
0.239357418503917 0.24826965031277123 -0.0021347650475441625 -0.00677746676130998
0.2924627816074146 0.28414250162435273 0.0012913705501105648 0.007028909432951164
0.37729492020009264 0.3405247611132216 0.008541068592416415 0.02822909049445462
0.539268243824459 0.4186541068669559 0.03193820381066764 0.0886759331468356
0.8456214585383584 0.5248411922931319 0.1103018916028294 0.21047837464239721
1.2524900369256764 0.6157088883623937 0.2221573328281913 0.4146238157350919
1.7904007360447072 0.7041909661692467 0.40264231689468855 0.683567452980772
2.4824582930172436 0.8015289720394888 0.6622416665492719 1.0186876544284846
3.335987025715402 0.9094135953118944 1.0016643755103576 1.424909054893151
4.337158013408613 1.0318762348369652 1.4207795963148828 1.8845021822567645
5.369702990768554 1.158376608694859 1.8669425612238046 2.34438382084989
6.238709634866721 1.2664189764222353 2.2855786544007732 2.686712004043713
6.556442887315503 1.3235874765592044 2.447719928165305 2.785135482590994
5.287864473774231 0.6663840811940843 2.212015150497658 2.4094652420824874
10.531472377775566 1.9088654957050364 4.073971919090201 4.548634962980326
5.287864473777601 0.6663840811941024 2.2120151504994086 2.4094652420840856
6.55644288732061 1.3235874765635558 2.4477199281657374 2.785135482591318
6.238709634860339 1.2664189764193141 2.2855786543989387 2.686712004042084
5.369702990763559 1.1583766086945437 1.8669425612214752 2.3443838208475434
4.337158013404588 1.0318762348370192 1.420779596312947 1.8845021822546204
3.3359870257094677 0.9094135953093886 1.0016643755088168 1.4249090548912617
2.482458293012874 0.8015289720378511 0.6622416665480041 1.0186876544270187
1.7904007360399397 0.704190966168733 0.40264231689287955 0.6835674529783267
1.252490036921192 0.6157088883610707 0.22215733282690298 0.41462381573321805
0.8456214585346468 0.5248411922921158 0.11030189160173907 0.21047837464079225
0.5392682438226972 0.41865410686601595 0.03193820381042718 0.08867593314625405
0.37729492019939204 0.3405247611126624 0.008541068592372041 0.028229090494357525
0.2924627816068162 0.28414250162397037 0.0012913705500461198 0.007028909432799688
0.23935741850337483 0.24826965031214063 -0.0021347650475197436 -0.006777466761245906
0.20439545402402315 0.20433423683844948 -4.695763611703037e-05 0.00010817482169063205
0.18889722841566092 0.18899965360133641 -1.28025406805148e-05 -8.962264499493755e-05
0.1893519473391339 0.1894077637652996 -4.477284792821856e-06 -5.1339141372841755e-05
0.1896828361861271 0.18964926094304627 3.0357384811983143e-06 3.053950459965208e-05
0.15205179642232855 0.15205893652887414 -7.80973048571847e-07 -6.359133497039122e-06
0.27775798350606085 0.2777169255580135 3.1449235585162974e-06 3.791302448882746e-05
0.17888937248561843 0.17888937248561843 0.0 0.0
0.13802902686534563 0.1380267934128499 1.0780301602207152e-07 2.125649479689325e-06
0.18660985020663992 0.18659497210545203 1.4859508359212948e-06 1.3392150351924643e-05
0.19858415348009512 0.19853861984167814 6.741537791692081e-06 3.8792100625377955e-05
0.20626992158032592 0.2063775788214614 -1.1701306432572976e-07 -0.0001075402280712378
0.23309987673967358 0.23764933863906784 -0.0008322407598609868 -0.0037172211395331924
0.29045771795090186 0.2927128493993231 -0.0014956902927746483 -0.0007594411556466612
0.4177497994321564 0.4099689566260557 0.0004843082046194049 0.007296534601481219
0.6937597969478579 0.5324808526648147 0.04130445457011238 0.11997448971293091
1.2068215272139031 0.6711434353436492 0.18133142829574656 0.3543466635745069
1.9195230723556005 0.7966831153617246 0.4120015965746991 0.7108383604191763
2.8256511730346254 0.926044236317374 0.7545996928067126 1.145007243910539
3.9197067366230476 1.0628052539360942 1.2005694301798802 1.6563320525070733
5.259342195022275 1.2097157541248778 1.7792759672012899 2.270350473696105
6.931749990506104 1.3758721273965366 2.54468344881007 3.0111944142994975
8.935315820799223 1.5529845011758634 3.507175923039094 3.8751553965842676
11.110668045111854 1.7292964090023344 4.583946145769735 4.797425490339781
13.08926294565625 1.909009126011362 5.547834719583611 5.632419100061277
14.181391383372647 1.9654119564127097 6.133208901953216 6.082770525006717
13.140372981186283 1.9801503989490876 5.627616934331577 5.532605647905621
15.734142393097642 4.274557777291478 5.687769655627122 5.771814960179039
13.14037298118571 1.9801503989456697 5.62761693433319 5.532605647906854
14.181391383367169 1.9654119564068804 6.133208901953386 6.082770525006907
13.089262945650686 1.9090091260118924 5.5478347195802 5.632419100058593
11.110668045100589 1.7292964090001957 4.58394614576475 4.797425490335642
8.935315820791821 1.552984501175184 3.507175923035547 3.875155396581091
6.931749990499689 1.3758721273976724 2.544683448806202 3.011194414295815
5.259342195014572 1.2097157541235484 1.7792759671981768 2.270350473692846
3.919706736615609 1.0628052539357014 1.2005694301765306 1.656332052503378
2.8256511730265528 0.9260442363162562 0.7545996928035344 1.1450072439067622
1.919523072349843 0.79668311536155 0.41200159657236146 0.7108383604159315
1.2068215272093186 0.6711434353424338 0.18133142829437837 0.35434666357250716
0.6937597969456936 0.5324808526641047 0.04130445456962846 0.11997448971196034
0.41774979943084317 0.40996895662521843 0.0004843082044833852 0.007296534601141356
0.29045771795010117 0.2927128493983962 -0.001495690292751409 -0.0007594411555436485
0.23309987673919025 0.23764933863859153 -0.0008322407598537894 -0.0037172211395474206
0.2062699215799449 0.20637757882104182 -1.1701305971821103e-07 -0.00010754022803715425
0.198584153479743 0.19853861984130647 6.74153779291067e-06 3.879210064361902e-05
0.1866098502062764 0.18659497210508758 1.485950835800389e-06 1.3392150353024234e-05
0.13802902686516652 0.13802679341267313 1.078030158836325e-07 2.1256494775240985e-06
0.17888937248518 0.17888937248518 0.0 0.0
0.11004219177616242 0.11004219177616242 0.0 0.0
0.11909294712157764 0.11909294712157764 0.0 0.0
0.17719103382983586 0.17716677125834418 1.7498561801295798e-06 2.2512715311568723e-05
0.20381065777917493 0.20388018856337234 -5.218320297586886e-06 -6.431246389986003e-05
0.22629934875932473 0.22713910796315467 -0.00013287488111441152 -0.000706884322715524
0.27257737854187686 0.2724141269403063 -0.0002846400424147351 0.0004478916439853043
0.3803406021942314 0.39189808098460543 -0.003851448135601246 -0.007706030654772739
0.6494938981470482 0.5282779548419652 0.0276069710788498 0.09360897222623338
1.2127409235016624 0.699593025529547 0.16736915759874954 0.34577874037336576
2.1335803150218413 0.8734258004497407 0.49493264290169564 0.765221871670405
3.251630596691719 1.0164003605167182 0.9111439214515973 1.324086314723404
4.633134886145226 1.166339684979102 1.492174074559156 1.9746211266069673
6.312274647903479 1.3352855619857027 2.2467946855913925 2.730194400326384
8.382224671378648 1.5238754678912039 3.2183832828941124 3.6399659205933292
10.991747271476164 1.7391774957143153 4.5076570571160826 4.744912718645767
14.105180210055865 1.9641131938732261 6.08898504248728 6.052081973695363
17.65864225327334 2.1823562162352466 7.998691758105174 7.4775942789329175
20.924986681826866 2.3205239475928385 9.77952394881452 8.824938785419501
22.76026808467976 2.2979541100028023 10.862796334526148 9.599517640150816
21.091167666884445 2.0658773805205657 10.033517433121668 8.991772853242203
23.678817002534732 6.583719750992998 8.902373148895347 8.192724102646402
21.09116766688728 2.06587738052161 10.033517433122727 8.99177285324294
22.760268084678266 2.2979541100032845 10.862796334524978 9.599517640150003
20.92498668181827 2.320523947592867 9.779523948809514 8.824938785415892
17.65864225326353 2.182356216237797 7.998691758098105 7.47759427892763
14.105180210041489 1.9641131938692369 6.088985042481502 6.052081973690757
10.991747271465787 1.7391774957144468 4.507657057110379 4.74491271864096
8.382224671368423 1.5238754678910185 3.2183832828888357 3.63996592058857
6.312274647892413 1.3352855619848636 2.246794685586206 2.7301944003213423
4.633134886134605 1.1663396849786718 1.4921740745541923 1.974621126601741
3.251630596681771 1.0164003605153313 0.9111439214476318 1.3240863147188084
2.1335803150145143 0.8734258004482056 0.4949326428991252 0.7652218716671834
1.2127409234971327 0.6995930255285527 0.1673691575973377 0.3457787403712424
0.6494938981448368 0.5282779548410472 0.027606971078444224 0.09360897222534516
0.38034060219308236 0.3918980809834398 -0.003851448135594438 -0.0077060306547630875
0.2725773785413222 0.2724141269394989 -0.0002846400423772082 0.0004478916442004
0.22629934875899085 0.2271391079628433 -0.00013287488111749562 -0.0007068843227350135
0.20381065777879925 0.20388018856297663 -5.218320295818337e-06 -6.431246388149186e-05
0.17719103382946205 0.1771667712579776 1.749856179479478e-06 2.2512715304933934e-05
0.11909294712142153 0.11909294712142153 0.0 0.0
0.11004219177592259 0.11004219177592259 0.0 0.0
0.06422316178909933 0.06422316178909933 0.0 0.0
0.0976176009037609 0.0976176009037609 0.0 0.0
0.16257736618297786 0.16256692535752887 6.169848764971448e-07 9.823840572470336e-06
0.20543345052782758 0.20534092966900713 1.1433964402413846e-05 8.108689441796222e-05
0.24822716623301372 0.2485018878712175 -1.5824995890545302e-05 -0.00025889664231314136
0.32532327452390714 0.3392590180755448 -0.0029642199814186062 -0.01097152357021909
0.5222578060425771 0.4785269197088209 0.007923094628805378 0.035807791704950784
0.9992141899167697 0.6599066978946813 0.10295827124453494 0.23634922077755396
1.912520211512202 0.8651219328383936 0.4074154130195726 0.6399828656542362
3.0997957918069767 1.0239144489401006 0.8281956779047568 1.2476856649621193
4.680982801933822 1.1981317933996227 1.5019189652928346 1.9809320432413644
6.570761588998531 1.3767223131397284 2.357414341168492 2.83662493469031
8.871181641737788 1.5798426979690057 3.4471861724633537 3.8441527713054295
11.74302235507231 1.8159303412749492 4.867508961796242 5.059583052001118
15.3206960631975 2.0842460373268317 6.697082246511769 6.539367779358901
19.76141751721488 2.3753143010129363 9.092270782857021 8.29383243334492
24.55020165710509 2.6114241534590232 11.695097921528394 10.24367958211769
29.173848853008266 2.679195840916421 14.436861275209104 12.057791736882743
31.713340761700348 2.474903410842338 16.11401554443447 13.12442180642353
29.44304313623183 2.134521368298973 14.94444718043343 12.364074587499433
32.33780598170079 8.804795128841773 12.653097206128137 10.879913646730873
29.443043136231573 2.1345213682979765 14.944447180433906 12.364074587499706
31.713340761694802 2.474903410840999 16.114015544431904 13.124421806421907
29.173848852998066 2.6791958409168823 14.436861275202673 12.057791736878503
24.550201657089286 2.6114241534576395 11.695097921519913 10.243679582111726
19.761417517199348 2.375314301012291 9.092270782848434 8.293832433338617
15.320696063184098 2.084246037326108 6.697082246504708 6.539367779353274
11.743022355056711 1.8159303412733139 4.86750896178863 5.0595830519947675
8.871181641723684 1.5798426979674962 3.447186172456717 3.844152771299471
6.570761588984121 1.3767223131383655 2.3574143411619146 2.8366249346838397
4.680982801921727 1.1981317933992397 1.5019189652872353 1.9809320432352515
3.0997957917974692 1.0239144489387026 0.8281956779010913 1.2476856649576757
1.9125202115057798 0.8651219328372806 0.40741541301721873 0.639982865651281
0.9992141899125468 0.6599066978933611 0.10295827124342921 0.23634922077575682
0.5222578060407396 0.478526919707648 0.007923094628597844 0.03580779170449367
0.32532327452325904 0.33925901807474385 -0.002964219981370804 -0.010971523570113806
0.2482271662326087 0.24850188787075259 -1.582499588415341e-05 -0.0002588966422597098
0.2054334505274291 0.2053409296685993 1.143396440262814e-05 8.108689442716989e-05
0.16257736618269217 0.16256692535724815 6.169848761276928e-07 9.823840567913113e-06
0.09761760090358879 0.09761760090358879 0.0 0.0
0.0642231617889602 0.0642231617889602 0.0 0.0
0.03529834760880259 0.03529834760880259 0.0 0.0
0.07600280148481453 0.07600280148481453 0.0 0.0
0.1445394008994685 0.14453468721433987 2.7264122338958563e-07 4.441043905202767e-06
0.20462834301678653 0.2045818480006336 5.023327296910349e-06 4.1471688856069486e-05
0.27192304691485303 0.27093637081250893 0.0001891751890531562 0.0007975009132909685
0.39907754458412176 0.4094442462394361 -0.0032193492795325575 -0.007147352375781748
0.7278758131578347 0.5790325776814261 0.0398360485475026 0.10900718692890621
1.474965402633564 0.7996219918488624 0.2513481891054028 0.4239952216792992
2.602467984530954 0.9786204191219863 0.626286262045675 0.9975613033632923
4.206337723683204 1.1734422384104917 1.2847852789602412 1.7481102063124716
6.184400228249859 1.3656393973208814 2.165752097601736 2.6530087333272414
8.602943118555865 1.5750188296332739 3.3081385238115306 3.7197857651110557
11.582355866170646 1.8188737741725398 4.779025473840897 4.984456618157208
15.327974780189724 2.10486633710485 6.71063355431896 6.5124748887659125
19.95890716903284 2.4414443460341166 9.150118648748979 8.367344174249748
25.567820238729137 2.791061513342839 12.207475279672332 10.569283445713967
31.976994189513682 3.0484652505049414 15.926648229601934 13.001880709406802
37.745062992807625 3.0103624027073126 19.436296384100096 15.298404206000226
40.67784821933124 2.569056810923571 21.47502047408414 16.633770934323532
37.97865127725239 2.2186136638647054 20.07575467231464 15.68428294107304
41.78678627547803 11.124691005925921 16.97387308937838 13.688222180173724
37.978651277252375 2.2186136638642653 20.0757546723149 15.684282941073215
40.677848219323145 2.569056810922972 21.475020474079518 16.633770934320655
37.74506299279195 3.010362402705604 19.436296384091527 15.298404205994832
31.976994189493762 3.048465250503397 15.926648229590805 13.001880709399572
25.56782023871008 2.7910615133416288 12.20747527966181 10.569283445706644
19.95890716901291 2.44144434603042 9.150118648739621 8.367344174242865
15.327974780173147 2.104866337105612 6.7106335543092825 6.512474888758259
11.582355866150948 1.8188737741690515 4.7790254738321325 4.984456618149762
8.602943118538938 1.5750188296327845 3.308138523802935 3.71978576510322
6.184400228234863 1.3656393973200713 2.1657520975946394 2.6530087333201524
4.206337723671469 1.1734422384095173 1.2847852789551242 1.7481102063068277
2.6024679845227228 0.9786204191201776 0.6262862620429746 0.9975613033595706
1.4749654026279961 0.7996219918479051 0.2513481891034639 0.4239952216766274
0.7278758131550225 0.5790325776801986 0.03983604854697176 0.10900718692785205
0.39907754458303124 0.4094442462382278 -0.0032193492795048293 -0.007147352375691669
0.2719230469144597 0.27093637081208544 0.00018917518905397745 0.0007975009133203122
0.2046283430164059 0.2045818480002524 5.0233272966949e-06 4.147168885674738e-05
0.1445394008992334 0.14453468721410673 2.726412232514537e-07 4.441043903424872e-06
0.0760028014847134 0.0760028014847134 0.0 0.0
0.03529834760871405 0.03529834760871405 0.0 0.0
0.018221701729530318 0.018221701729530318 0.0 0.0
0.05619571850782196 0.05619571850782196 0.0 0.0
0.12525059517765125 0.12525059517765125 0.0 0.0
0.2030768952955131 0.20301406562362984 5.622717784786087e-06 5.720695409850619e-05
0.3015788910750366 0.30584564632338 -0.0007950731009043966 -0.0034716821474389276
0.4994687977176577 0.4640470893706803 0.006058413532470746 0.02936329481450646
1.0162004726045983 0.693837366598969 0.11147131728872461 0.2108917887169047
1.9597119999628454 0.8957086849647015 0.38990211794597884 0.6741011970521652
3.4148110442991726 1.101486309925496 0.9459981729354684 1.3673265614382089
5.340902965428468 1.3085841806498135 1.77266415159716 2.259654633181495
7.7591684992079255 1.5270314788452979 2.8937140597406685 3.338422960621961
10.74558698787057 1.7720109577096768 4.354737713034002 4.618838317126892
14.46810098447181 2.0614510071991177 6.259401855971157 6.147248121301536
19.01293840741998 2.4020521133887764 8.615483215049403 7.995403078981803
24.77467073895535 2.796110142526192 11.757128574987258 10.221432021441899
31.733220599418274 3.2185034586373185 15.665858032205769 12.848859108575189
39.377227428500305 3.497232731346446 20.121451755190925 15.758542941962933
46.34826203165539 3.321417868788412 24.545095671733048 18.48174849113395
49.90684833031647 2.6390205353041676 27.201999725715535 20.065828069296774
46.81633520802064 2.288965358659942 25.487767224821006 19.03960262453969
51.78347226482903 13.54366511632896 21.563997205630212 16.675809942869872
46.81633520801372 2.2889653586543277 25.487767224820185 19.0396026245392
49.9068483303079 2.639020535305064 27.201999725709598 20.065828069293246
46.34826203163896 3.3214178687893305 24.54509567172216 18.48174849112747
39.37722742847968 3.4972327313472533 20.121451755177773 15.758542941954666
31.733220599394187 3.21850345863437 15.665858032193027 12.848859108566787
24.774670738932734 2.7961101425246517 11.757128574974846 10.221432021433221
19.01293840739755 2.4020521133864556 8.61548321503789 7.995403078973204
14.468100984450373 2.061451007198074 6.259401855959842 6.147248121292456
10.745586987849828 1.772010957708553 4.354737713023493 4.618838317117784
7.759168499189888 1.5270314788443293 2.8937140597318853 3.338422960613672
5.340902965414752 1.3085841806483998 1.7726641515911474 2.259654633175204
3.4148110442888817 1.1014863099239254 0.9459981729316029 1.3673265614333536
1.9597119999559833 0.8957086849633605 0.3899021179436356 0.6741011970489869
1.0162004726005485 0.6938373665978271 0.1114713172875954 0.21089178871512537
0.4994687977161725 0.4640470893695726 0.006058413532345756 0.029363294814254367
0.30157889107446406 0.3058456463227343 -0.0007950731008890732 -0.003471682147381152
0.2030768952951733 0.20301406562329616 5.6227177840943e-06 5.7206954093084954e-05
0.12525059517747472 0.12525059517747472 0.0 0.0
0.05619571850772864 0.05619571850772864 0.0 0.0
0.01822170172948117 0.01822170172948117 0.0 0.0
0.00896358945126354 0.00896358945126354 0.0 0.0
0.039614636323286434 0.039614636323286434 0.0 0.0
0.10692505288480084 0.10692505288480084 0.0 0.0
0.20355582047355694 0.2035256491155737 2.0410054128779405e-06 2.8130352570346785e-05
0.3416671124549267 0.3509153330969061 -0.0020981445940055523 -0.007150076047973747
0.6445964109382787 0.5553500770692297 0.02451453936454904 0.06473179450450019
1.3389199066083939 0.7816841516969505 0.1907739982449054 0.366461756666538
2.5209026279830953 0.9911322818487012 0.5910360054645197 0.9387343406698733
4.246556644573473 1.2114115900115094 1.2865253970602106 1.748619657501753
6.528255768721369 1.4385961647011904 2.3086512123441674 2.7810083916760115
9.388706251051156 1.684551000430932 3.66934555549899 4.0348096951212336
12.972815491726939 1.9706966148018472 5.468682322821682 5.533436554103411
17.370570719136854 2.3082673307113017 7.729268329109029 7.333035059316521
22.978137063286162 2.7077835256129568 10.771077570122598 9.499275967550613
29.772675788852162 3.1619143112003423 14.509811606989729 12.10094987066208
37.84849717699288 3.6267695695972337 19.090396015932157 15.131331591463502
46.8537565934586 3.9356492654463358 24.47633674922577 18.44177057878649
55.016828028876354 3.667505100055676 29.77350095699756 21.575821971823114
59.29186675997166 2.723189307612689 33.07664197272683 23.49203547963217
56.13599294346767 2.3073997026045916 31.352844551491664 22.475748689371407
62.74524464316774 16.01849491932839 26.86647473583942 19.860274987999922
56.13599294345945 2.307399702600465 31.35284455148904 22.47574868936995
59.291866759955624 2.723189307608891 33.07664197271896 23.492035479627773
55.016828028854704 3.667505100054394 29.773500956984645 21.575821971815643
46.85375659343234 3.9356492654457202 24.476336749209757 18.44177057877687
37.84849717696512 3.6267695695938076 19.090396015917207 15.131331591454085
29.77267578882594 3.161914311200058 14.509811606974216 12.100949870651679
22.97813706326075 2.7077835256111005 10.77107757010883 9.499275967540813
17.37057071911063 2.3082673307093673 7.729268329095238 7.333035059306024
12.97281549170338 1.9706966148010712 5.468682322809243 5.53343655409307
9.388706251031307 1.6845510004299378 3.6693455554890706 4.0348096951122985
6.528255768704537 1.4385961646984284 2.308651212337064 2.7810083916690433
4.246556644561342 1.2114115900105014 1.2865253970549615 1.7486196574958768
2.520902627974979 0.9911322818476483 0.5910360054616941 0.9387343406656372
1.338919906603567 0.7816841516956768 0.19077399824348068 0.36646175666441017
0.6445964109360605 0.5553500770681256 0.024514539364175407 0.06473179450375972
0.3416671124542245 0.35091533309609124 -0.0020981445939758734 -0.007150076047890813
0.20355582047319581 0.2035256491152208 2.0410054121905157e-06 2.8130352562807396e-05
0.10692505288457443 0.10692505288457443 0.0 0.0
0.039614636323254404 0.039614636323254404 0.0 0.0
0.008963589451273308 0.008963589451273308 0.0 0.0
0.004389262860263557 0.004389262860263557 0.0 0.0
0.027026231545401843 0.027026231545401843 0.0 0.0
0.09193778572312869 0.09193778572312869 0.0 0.0
0.20975507392408888 0.20978303335008053 -2.1449399111980753e-06 -2.5814486080462045e-05
0.399513687480319 0.39389091877204185 0.00047322161768967134 0.005149547090587452
0.839996014224148 0.6451618564682893 0.06283832569684591 0.13199583205901255
1.7003256522038437 0.8508117106893814 0.2980425141538056 0.5514714273606565
3.117552583189731 1.0815397544970975 0.8206195772964071 1.2153932513962267
5.107080626549175 1.3145147253628604 1.6546263131129926 2.1379395880733223
7.7479377267592735 1.5633840784670598 2.8737479994057513 3.3108056488864657
11.095999152205493 1.843678169693174 4.5115187755164055 4.740802206995918
15.253635808002526 2.1706504557530795 6.620244211749532 6.462741140499917
20.531200666971436 2.566758515106181 9.431810777881049 8.53263137398421
26.949820869970075 3.0292367963521913 12.885019699066438 11.035564374551447
34.88160805392484 3.5279885886246087 17.352757987302162 14.000861477998072
44.145681687830816 3.998281782991035 22.752423601606235 17.394976303233534
54.22562326600048 4.31409011943939 28.860766324500226 21.05076682206087
63.60686053099052 4.120835399870117 34.94821313156046 24.537811999559956
68.85976347741155 2.8758289276913773 39.15670864636648 26.82722590335366
66.02954675850403 2.201543738852279 37.77688974271948 26.051113276932256
74.74247092614064 18.404398045161653 32.93791789901424 23.400154981964757
66.02954675849435 2.2015437388487813 37.77688974271554 26.051113276930035
68.8597634773922 2.8758289276893056 39.15670864635538 26.827225903347532
63.60686053096444 4.120835399868331 34.94821313154487 24.537811999551256
54.225623265972686 4.314090119441863 28.860766324481077 21.050766822049734
44.1456816877984 3.9982817829868784 22.752423601588706 17.394976303222805
34.88160805389613 3.527988588625282 17.352757987284292 14.000861477986557
26.949820869938193 3.0292367963491413 12.885019699049339 11.035564374539716
20.531200666942457 2.566758515105481 9.431810777864731 8.53263137397224
15.253635807975364 2.1706504557519746 6.6202442117349305 6.462741140488468
11.0959991521814 1.843678169690039 4.511518775505182 4.7408022069861815
7.747937726739899 1.5633840784642337 2.873747999397275 3.3108056488783895
5.107080626535125 1.314514725361527 1.6546263131068824 2.1379395880667182
3.1175525831800988 1.081539754495856 0.8206195772926838 1.215393251391558
1.700325652197729 0.8508117106879165 0.298042514152161 0.5514714273576506
0.8399960142213534 0.6451618564672984 0.06283832569621094 0.13199583205784393
0.3995136874795109 0.3938909187712617 0.0004732216176776159 0.005149547090571595
0.20975507392384973 0.20978303334982615 -2.1449399102669095e-06 -2.581448606613111e-05
0.09193778572294764 0.09193778572294764 0.0 0.0
0.02702623154539585 0.02702623154539585 0.0 0.0
0.004389262860272094 0.004389262860272094 0.0 0.0
0.0020836661893923465 0.0020836661893923465 0.0 0.0
0.018359725715780317 0.018359725715780317 0.0 0.0
0.08336033802219761 0.08336033802219761 0.0 0.0
0.22784814887531388 0.22805014181438818 -3.1349377252511105e-05 -0.00017064356182183317
0.4917394644235745 0.46712991682811555 0.006545548518413338 0.018063999077045492
1.0673804540071516 0.7177293614035499 0.11384327504333773 0.23580781756026375
2.1112471697545323 0.9294290997367832 0.44001729200702966 0.7418007780107201
3.7319192637602883 1.165437102376906 1.0652288612204994 1.5012533001628816
6.005940209671924 1.4132918455038233 2.0593023059482567 2.5333460582198426
8.999228069365387 1.6859555517046827 3.4662406094961646 3.8470319081645368
12.830435669536246 2.0010253408581695 5.372146263320268 5.457264065357808
17.6930342534685 2.3791536724976616 7.910826755752956 7.403053825217878
23.64224310079561 2.832738601720139 11.051045946421937 9.758458552653543
31.131233699947426 3.355325325927614 15.1906389388804 12.585269435139415
40.170538754455855 3.9039859146545357 20.35308832931578 15.91346451048554
50.52526982604942 4.361364699283716 26.504379278800084 19.659525847965615
61.461991195442856 4.576170065950877 33.30998492231541 23.575836207176557
71.76927170768474 4.490717405174918 40.00988847308566 27.26866582942414
78.56863500253499 3.466259316606801 45.10142165698251 30.00095402894566
76.53070033143071 1.8392381121243315 44.85658508162868 29.834877137677715
87.69215334920308 19.754381589546668 40.43456351819397 27.50320824146243
76.53070033141634 1.839238112118536 44.856585081623095 29.834877137674713
78.56863500251391 3.466259316606962 45.101421656968654 30.000954028938306
71.76927170765568 4.490717405174233 40.009888473067264 27.26866582941417
61.46199119540954 4.576170065950852 33.30998492229423 23.57583620716447
50.52526982601453 4.361364699282014 26.50437927877924 19.659525847953276
40.170538754421386 3.9039859146521243 20.353088329296025 15.913464510473236
31.131233699915303 3.355325325928525 15.190638938860506 12.58526943512626
23.642243100762037 2.8327386017178613 11.05104594640358 9.758458552640603
17.693034253437613 2.3791536724952667 7.910826755736786 7.403053825205568
12.830435669510113 2.0010253408559318 5.372146263307128 5.457264065347058
8.999228069343983 1.6859555517029663 3.466240609485834 3.847031908155183
6.005940209655874 1.4132918455016885 2.0593023059413893 2.533346058212795
3.7319192637490413 1.1654371023754644 1.0652288612160292 1.5012533001575492
2.11124716974757 0.9294290997358238 0.4400172920046096 0.7418007780071366
1.067380454003597 0.7177293614025941 0.11384327504235035 0.23580781755865268
0.49173946442226646 0.4671299168270436 0.006545548518328985 0.018063999076893784
0.2278481488749722 0.22805014181392097 -3.134937724247051e-05 -0.0001706435617063466
0.0833603380220229 0.0833603380220229 0.0 0.0
0.018359725715768667 0.018359725715768667 0.0 0.0
0.0020836661893989437 0.0020836661893989437 0.0 0.0
0.0005438892711968524 0.0005438892711968524 0.0 0.0
0.013072844531367717 0.013072844531367717 0.0 0.0
0.08547726505720304 0.08547726505720304 0.0 0.0
0.2686206700131392 0.26850425978177045 3.13061865908496e-05 8.510404477792363e-05
0.6297194563401172 0.5675136810603516 0.019990476381473013 0.0422152988982925
1.3488364683289271 0.8446145008254067 0.17336497419847613 0.3308569933050444
2.5632879259670633 1.0975918759601881 0.5641806350937079 0.9015154149131674
4.406473352872462 1.4072376734398133 1.2727836146891545 1.7264520647434933
6.9729844570385175 1.7631003980217181 2.368154287681566 2.8417297713352374
10.407521003735926 2.1988796926346206 3.9459603878462035 4.262680923255101
14.854793716837417 2.7564209953875185 6.088394033650481 6.009978687799416
20.427529446925575 3.4712065444247133 8.82221518267332 8.134107719827544
27.46251527403959 4.353193122440499 12.408309441941213 10.701012709657874
36.171387589645555 5.401975555610651 16.995579563273157 13.773832470761747
46.56484665331893 6.498481601461096 22.705625805191474 17.36073924666636
58.20130352830529 7.390622434455317 29.46354127648492 21.34713981736505
69.9775853068924 7.749532216358112 36.757281505302124 25.470771585232168
80.32516852240411 7.370284724081381 43.70563955126725 29.249244247055493
87.97286450908919 6.746287950583986 49.11521527420418 32.11136128430103
85.1646585343942 1.8603102396794426 50.427953347077704 32.876394947637024
126.39827558797478 46.797640723125284 48.1047440976231 31.495890767226392
85.16465853437839 1.8603102396742868 50.42795334707069 32.8763949476334
87.97286450906094 6.746287950579584 49.11521527418853 32.111361284292805
80.32516852236516 7.370284724074615 43.70563955124657 29.249244247044018
69.97758530684936 7.749532216350304 36.75728150527945 25.47077158521959
58.2013035282671 7.390622434453953 29.463541276461612 21.347139817351515
46.5648466532756 6.498481601452817 22.705625805169795 17.360739246652972
36.171387589604485 5.401975555604402 16.99557956325204 13.773832470748069
27.462515273999596 4.353193122434326 12.408309441921233 10.701012709644031
20.427529446889295 3.4712065444189784 8.822215182655754 8.134107719814567
14.854793716806356 2.7564209953816805 6.088394033636456 6.009978687788216
10.407521003712333 2.198879692632879 3.9459603878344804 4.262680923244974
6.972984457020434 1.7631003980190267 2.3681542876737707 2.8417297713276395
4.406473352859664 1.4072376734382002 1.2727836146839107 1.7264520647375525
2.563287925958741 1.0975918759585097 0.5641806350909205 0.9015154149093111
1.3488364683248109 0.8446145008246304 0.17336497419733607 0.33085699330284474
0.6297194563382531 0.5675136810589785 0.019990476381302053 0.0422152988979724
0.2686206700126498 0.2685042597813314 3.130618658707378e-05 8.510404473117467e-05
0.08547726505703034 0.08547726505703034 0.0 0.0
0.013072844531346627 0.013072844531346627 0.0 0.0
0.0005438892711948256 0.0005438892711948256 0.0 0.0
CELL_DATA 800
SCALARS Stress float 6
LOOKUP_TABLE default
143.16200583722397 -501.4055755504376 -184.36369118653684 -105.00092873294732 0.0 0.0
392.82339059047735 -13.502384599990725 119.88498640834905 61.51455300358358 0.0 0.0
375.82181866986565 3.980105377645425 113.74439120934859 -6.107938955297471 0.0 0.0
437.8179445537595 -5.602233089029596 130.59529660766336 -12.445066398004126 0.0 0.0
508.6542323113737 -11.096474051873852 167.48296226884432 -10.899147329225457 0.0 0.0
575.7255874418532 -1.5919377245711726 230.41583770674157 -9.209798553703767 0.0 0.0
640.0332118349806 7.238829527174175 291.4342887440637 -9.19155870109936 0.0 0.0
703.9959903811639 24.44351625140761 348.07246526634367 -10.005553289369889 0.0 0.0
768.483760298818 47.67901760447721 399.966338734072 -11.030435198934795 0.0 0.0
833.8688690524447 75.57976565678877 450.02445512870054 -11.755049546212486 0.0 0.0
899.9153049153028 106.39238671364993 499.7795058299811 -12.080727468310588 0.0 0.0
966.4440256570099 140.01536045322453 550.4025478617865 -12.01720847620568 0.0 0.0
1033.8023520513304 174.74823785216694 601.7011904799866 -11.84629441584015 0.0 0.0
1102.5948111025916 211.23120270263414 654.4581390712046 -11.664745603636213 0.0 0.0
1173.5450877187582 250.83123916918498 709.7975844717726 -11.399479374403782 0.0 0.0
1246.119470981036 293.8358714652317 767.6354381463709 -10.88637956703005 0.0 0.0
1317.9258910790086 339.144208031644 826.2303179673488 -9.938844316812311 0.0 0.0
1384.9879445415627 384.10644137530846 882.2397612245043 -8.42360010583319 0.0 0.0
1442.8096704733543 425.5090592303362 931.778900297867 -6.826071770284936 0.0 0.0
1499.5385086267925 473.3728124827846 983.5970202106391 -7.392556942731611 0.0 0.0
1499.538508626661 473.3728124826549 983.5970202105092 7.392556942732179 0.0 0.0
1442.8096704729687 425.50905922997623 931.7789002975293 6.826071770318763 0.0 0.0
1384.9879445411304 384.10644137492454 882.2397612241637 8.423600105873039 0.0 0.0
1317.9258910790495 339.1442080317534 826.230317967337 9.938844316824188 0.0 0.0
1246.1194709808246 293.83587146510365 767.635438146153 10.8863795670346 0.0 0.0
1173.5450877185192 250.8312391690438 709.7975844715315 11.399479374409404 0.0 0.0
1102.5948111022585 211.23120270241873 654.4581390709202 11.664745603629349 0.0 0.0
1033.802352050945 174.74823785192262 601.7011904796977 11.846294415909114 0.0 0.0
966.4440256564865 140.01536045287196 550.4025478613427 12.017208476212268 0.0 0.0
899.9153049150036 106.39238671354336 499.7795058296962 12.0807274683953 0.0 0.0
833.8688690519641 75.5797656565172 450.0244551282931 11.755049546248141 0.0 0.0
768.4837602986345 47.67901760451107 399.96633873388345 11.03043519895395 0.0 0.0
703.9959903809255 24.443516251391706 348.07246526612147 10.005553289358577 0.0 0.0
640.0332118347008 7.238829527140197 291.43428874379305 9.191558701098456 0.0 0.0
575.7255874415162 -1.5919377246461544 230.41583770642734 9.209798553646634 0.0 0.0
508.6542323111312 -11.09647405185715 167.48296226867433 10.89914732936603 0.0 0.0
437.8179445535727 -5.602233088882879 130.59529660765472 12.445066398043881 0.0 0.0
375.82181866971905 3.9801053775974293 113.74439120929334 6.107938955303146 0.0 0.0
392.82339059041334 -13.502384599935517 119.88498640831286 -61.5145530034906 0.0 0.0
143.16200583771456 -501.4055755499353 -184.3636911860346 105.00092873262963 0.0 0.0
49.63586535339306 -530.4708207336876 -237.41727883007582 -145.27922899697688 0.0 0.0
237.93661959826974 -1.3582490103772855 70.97351117636774 14.13437264672656 0.0 0.0
330.3733722043137 20.0537835801853 105.12765660902177 -10.331234787855575 0.0 0.0
395.5445187782771 -3.170807213146058 117.70173398029117 -31.918322231642872 0.0 0.0
478.0078248190758 -12.679039957955162 148.19884969860783 -31.312136050415994 0.0 0.0
550.0547329854643 -3.348184832356006 208.3408323641256 -27.587714105171198 0.0 0.0
618.9792754289305 5.171876479864196 272.3389166549479 -27.869035967861148 0.0 0.0
683.923762983935 21.248122617703924 331.5950919008789 -29.090225380053013 0.0 0.0
747.210737023225 42.78300190912194 384.22765624968076 -30.55952396328714 0.0 0.0
810.0469509285386 68.33603713969069 433.08619497227704 -31.42896383633949 0.0 0.0
872.6365690508534 96.35507314400479 480.3646955379135 -31.440614580932497 0.0 0.0
935.185258347105 125.5632113570024 527.0995953835616 -30.818163211833394 0.0 0.0
997.8221221172992 156.45240165905193 574.2497867126781 -29.98845934809377 0.0 0.0
1061.943591697413 188.96170550885506 622.7563495090886 -29.233315439372287 0.0 0.0
1127.9879612027541 224.0139684451404 673.4188608154953 -28.38194061264911 0.0 0.0
1195.3297901312653 262.0776158447643 726.204355021035 -27.015970888050962 0.0 0.0
1262.0380198531673 302.3601023546614 779.7563561259708 -24.773968771743213 0.0 0.0
1325.2056917923621 343.2701997369402 831.7952314442177 -21.546102513560495 0.0 0.0
1384.2064034926348 385.7331130701428 882.3628853387002 -17.89430765346516 0.0 0.0
1425.461146600669 417.6038213443915 918.7253011644553 -12.87058882171107 0.0 0.0
1425.4611466010742 417.60382134480597 918.72530116477 12.87058882173222 0.0 0.0
1384.206403492915 385.7331130704556 882.3628853389285 17.894307653535662 0.0 0.0
1325.2056917919863 343.27019973661174 831.7952314439132 21.54610251364082 0.0 0.0
1262.0380198526618 302.3601023542186 779.7563561254904 24.77396877179926 0.0 0.0
1195.3297901305193 262.07761584409513 726.2043550204598 27.01597088805652 0.0 0.0
1127.9879612023838 224.0139684448705 673.4188608151768 28.381940612696603 0.0 0.0
1061.9435916968825 188.96170550843294 622.7563495085972 29.23331543938555 0.0 0.0
997.8221221164533 156.45240165834872 574.2497867119972 29.98845934813285 0.0 0.0
935.185258346496 125.56321135654228 527.0995953830932 30.81816321178127 0.0 0.0
872.6365690501237 96.35507314344802 480.36469553735446 31.440614580876115 0.0 0.0
810.0469509281302 68.33603713947977 433.0861949719546 31.428963836338404 0.0 0.0
747.2107370228834 42.78300190897272 384.22765624940854 30.55952396320918 0.0 0.0
683.9237629832269 21.248122617197758 331.59509190033026 29.09022537992179 0.0 0.0
618.9792754284945 5.171876479664533 272.3389166545509 27.869035967828182 0.0 0.0
550.0547329853878 -3.3481848321048204 208.34083236398206 27.587714105059852 0.0 0.0
478.0078248189618 -12.679039957716682 148.19884969856483 31.31213605038956 0.0 0.0
395.5445187780823 -3.170807213044663 117.70173398026986 31.91832223160271 0.0 0.0
330.37337220423325 20.05378358014005 105.12765660898444 10.331234787810525 0.0 0.0
237.93661959840622 -1.3582490100747768 70.97351117649943 -14.13437264683545 0.0 0.0
49.635865353701774 -530.470820733319 -237.41727882969863 145.27922899676236 0.0 0.0
6.856518486670723 -529.6292348702056 -248.4747516601249 -159.07118729405408 0.0 0.0
139.27135722008813 -5.1684998761284575 40.2308572031879 -37.61304861796694 0.0 0.0
269.116878704457 26.101683970764938 88.56556880256656 -30.309185980572554 0.0 0.0
350.23312757508234 2.4401012199033243 105.78872265117946 -50.041348288610536 0.0 0.0
437.2851866306691 -10.019244324111035 131.05948200293565 -53.62267336821108 0.0 0.0
521.9160779752895 -8.274936485814873 182.76842813233503 -48.539417096821396 0.0 0.0
593.4151722944684 4.118735242148073 250.13360266728483 -46.83934610617336 0.0 0.0
659.2646639613918 17.987653514173935 311.33813174385455 -48.164674209243415 0.0 0.0
722.1767109453157 37.91508341087 365.6042044224027 -49.74544856601388 0.0 0.0
782.6839305914328 60.958528840471836 413.7447799650983 -50.530931189589666 0.0 0.0
841.8386279094407 85.66224475713076 458.551077381267 -50.194595132658264 0.0 0.0
900.0299143739348 111.42030312442708 501.8307740705678 -48.9882431900005 0.0 0.0
958.6603464598109 137.8882690232152 544.9814159952385 -47.678697752233504 0.0 0.0
1018.0857499906331 166.38750542158084 589.252956994351 -46.41294159726964 0.0 0.0
1078.9690246162752 196.78302461663765 635.0683840042393 -45.018216432513924 0.0 0.0
1140.970424774435 229.59462499457678 682.5963533234366 -42.94305848616399 0.0 0.0
1202.617833830556 264.6792323743381 731.0376418590188 -39.68644523320151 0.0 0.0
1262.9665315331945 302.46147708899645 780.0943012727796 -35.05019341506665 0.0 0.0
1317.22263549764 339.5780689765583 825.6698524465792 -28.53629285957819 0.0 0.0
1353.4994159612893 365.51028162943976 856.633030998939 -17.90280698293376 0.0 0.0
1353.4994159614967 365.5102816296576 856.6330309990881 17.902806982962872 0.0 0.0
1317.222635497189 339.5780689761423 825.6698524462172 28.536292859712212 0.0 0.0
1262.966531532591 302.46147708844273 780.0943012722844 35.05019341512114 0.0 0.0
1202.6178338305715 264.6792323744162 731.037641858982 39.68644523321521 0.0 0.0
1140.9704247741975 229.59462499441827 682.596353323163 42.94305848617242 0.0 0.0
1078.9690246156692 196.7830246161369 635.0683840037334 45.01821643255302 0.0 0.0
1018.0857499902768 166.38750542133874 589.2529569940625 46.412941597262936 0.0 0.0
958.6603464595818 137.88826902312792 544.9814159950248 47.67869775226478 0.0 0.0
900.0299143733067 111.42030312392872 501.8307740700841 48.98824318991326 0.0 0.0
841.8386279088903 85.66224475676643 458.55107738084024 50.194595132670344 0.0 0.0
782.6839305912376 60.95852884047369 413.7447799648985 50.53093118954262 0.0 0.0
722.1767109450413 37.91508341079885 365.60420442214615 49.74544856597392 0.0 0.0
659.2646639611881 17.987653514231667 311.338131743615 48.16467420924218 0.0 0.0
593.4151722939226 4.118735241869146 250.13360266683412 46.83934610620163 0.0 0.0
521.9160779747306 -8.274936486158143 182.7684281319257 48.53941709673889 0.0 0.0
437.28518663023357 -10.019244324268772 131.0594820027327 53.62267336815165 0.0 0.0
350.23312757490623 2.440101219789198 105.78872265109504 50.04134828858473 0.0 0.0
269.11687870439425 26.10168397057946 88.5655688024921 30.309185980476474 0.0 0.0
139.27135722025292 -5.1684998758809275 40.2308572033116 37.61304861785378 0.0 0.0
6.856518486855535 -529.629234869828 -248.47475165977716 159.0711872939466 0.0 0.0
-7.982239133691266 -511.5756604382339 -236.07833658589757 -161.7947030341439 0.0 0.0
82.3536689268629 -14.621129272745744 20.319761896235143 -81.47993010366044 0.0 0.0
210.32090199564107 26.493086252042637 71.0441964743051 -57.082557342088045 0.0 0.0
300.95635413786005 6.689305233656332 92.28563299483605 -69.50985086658076 0.0 0.0
387.05247266527863 -6.543885522504011 114.71618000558286 -76.81824830756194 0.0 0.0
480.33493940120593 -10.340912433695374 156.84444649169978 -71.70242794166317 0.0 0.0
560.1751379809283 1.1026894541140138 222.1607594448085 -66.8276390583311 0.0 0.0
629.7123955023822 15.380659549531018 287.22535729858197 -67.46866170666215 0.0 0.0
692.3239585613906 32.85512892803908 343.0085456730875 -68.59970015715062 0.0 0.0
750.8527875434451 53.26915873034669 391.07330846098756 -69.0989222181625 0.0 0.0
806.8438045275557 74.79603414707124 434.04011036172875 -68.35032707680023 0.0 0.0
861.4366387257321 96.90676009077379 474.38317950998805 -66.64290947513844 0.0 0.0
915.4073864947223 119.47618632088178 513.5853494301559 -64.85666441123172 0.0 0.0
970.6186335002322 143.6599292709851 553.7754416207094 -63.23367457625271 0.0 0.0
1026.5522256965464 169.1642099739695 594.7736938443494 -61.369741314869025 0.0 0.0
1082.6391053773912 196.66655746398592 636.7317738911387 -58.688049811801 0.0 0.0
1139.5050976894745 226.6825110209897 680.2696607559016 -54.72586027559877 0.0 0.0
1195.5455224420562 259.44803680688267 724.6945254762251 -48.74951877673358 0.0 0.0
1245.9088952740901 291.4530358154866 765.8075304052045 -39.24042377483393 0.0 0.0
1280.2550782721257 313.8234950306765 794.0456118248613 -23.268245920932756 0.0 0.0
1280.2550782726955 313.8234950312739 794.0456118252492 23.268245921073472 0.0 0.0
1245.9088952738089 291.4530358152592 765.807530404929 39.24042377497119 0.0 0.0
1195.5455224418686 259.44803680674966 724.6945254760632 48.74951877683382 0.0 0.0
1139.505097689381 226.6825110209785 680.2696607557829 54.725860275672076 0.0 0.0
1082.639105377131 196.6665574638082 636.7317738909126 58.68804981185515 0.0 0.0
1026.5522256967533 169.16420997428503 594.7736938444376 61.3697413148693 0.0 0.0
970.6186335001756 143.65992927104347 553.7754416206352 63.23367457626138 0.0 0.0
915.4073864941383 119.47618632044303 513.5853494297073 64.85666441131686 0.0 0.0
861.4366387255218 96.90676009074079 474.38317950979786 66.64290947516494 0.0 0.0
806.8438045275584 74.7960341472891 434.0401103616875 68.35032707688563 0.0 0.0
750.8527875430641 53.26915873014196 391.07330846067515 69.09892221809238 0.0 0.0
692.3239585612298 32.85512892809376 343.0085456728903 68.59970015710653 0.0 0.0
629.7123955015109 15.38065954882478 287.22535729793134 67.46866170655714 0.0 0.0
560.1751379806467 1.1026894541475656 222.16075944452564 66.82763905832542 0.0 0.0
480.33493940100675 -10.340912433509576 156.84444649158473 71.70242794163856 0.0 0.0
387.05247266495775 -6.543885522408591 114.71618000552044 76.81824830750966 0.0 0.0
300.95635413772897 6.68930523364227 92.28563299479386 69.50985086650786 0.0 0.0
210.3209019957259 26.493086252176614 71.04419647437074 57.08255734188948 0.0 0.0
82.35366892700542 -14.621129272519962 20.319761896345632 81.47993010347042 0.0 0.0
-7.982239133627957 -511.5756604379555 -236.07833658561535 161.79470303404673 0.0 0.0
-9.634037498652503 -483.57499521205597 -211.5772025147894 -160.31182473897545 0.0 0.0
48.175832619937125 -24.04928408934134 7.237964559178737 -115.40661298590514 0.0 0.0
158.70575581851102 23.423225692452142 54.63869445328895 -84.59264427379115 0.0 0.0
249.10793009429267 9.771457180196364 77.66353843468559 -90.04407707080543 0.0 0.0
331.5116389379692 -2.45509907201731 98.71301119794536 -98.65732773806181 0.0 0.0
427.3077649213197 -10.413102702852447 131.8299363974782 -97.29838118913239 0.0 0.0
518.8460126760438 -3.0611653889355095 189.98685769767465 -89.63570101535498 0.0 0.0
593.6199586736968 12.412611070843784 257.5630742400417 -86.87063352658335 0.0 0.0
656.6289274340049 27.82996939576459 315.4648408364658 -87.29265709328152 0.0 0.0
713.8086283132841 45.33006770025291 364.20025746925717 -87.21741535238142 0.0 0.0
767.1368970988523 63.659793122424034 406.1065515622088 -85.98656610687144 0.0 0.0
817.9555489854854 82.12042467153933 443.8171953297498 -83.77123376111632 0.0 0.0
868.1000899287885 100.95575621708207 479.83193340331513 -81.65364294615627 0.0 0.0
918.181293837068 120.86716872963837 515.6159836327146 -79.63856101119703 0.0 0.0
969.0226095726816 141.5947474147411 551.8295902310657 -77.40754372099859 0.0 0.0
1020.5181122464282 163.71439306336913 588.8860199461578 -74.37334682497712 0.0 0.0
1071.516794849133 187.9551433071174 626.6472878265913 -69.82983945023638 0.0 0.0
1122.4297556329109 214.7676811218519 665.5719898235917 -62.68890079982411 0.0 0.0
1169.5083375099257 241.60312783251325 702.4969820114497 -50.42847329509332 0.0 0.0
1203.7224229106423 261.3561210442392 729.3653297645566 -29.384289159562186 0.0 0.0
1203.7224229111534 261.3561210447799 729.365329764928 29.38428915969422 0.0 0.0
1169.5083375094414 241.60312783207536 702.4969820111799 50.42847329519885 0.0 0.0
1122.4297556327006 214.76768112170706 665.5719898234139 62.68890079996703 0.0 0.0
1071.5167948488559 187.95514330693146 626.647287826355 69.82983945034742 0.0 0.0
1020.5181122465182 163.7143930635836 588.886019946149 74.37334682511272 0.0 0.0
969.0226095724008 141.5947474145421 551.8295902308092 77.40754372096804 0.0 0.0
918.1812938368603 120.86716872956322 515.615983632504 79.6385610112668 0.0 0.0
868.1000899288325 100.95575621729249 479.83193340334145 81.65364294623257 0.0 0.0
817.9555489853918 82.1204246716303 443.8171953296526 83.77123376117665 0.0 0.0
767.1368970986061 63.65979312237342 406.10655156199505 85.98656610688758 0.0 0.0
713.8086283127259 45.33006769989692 364.20025746883056 87.21741535239767 0.0 0.0
656.6289274336947 27.82996939568166 315.4648408361686 87.29265709323798 0.0 0.0
593.6199586734236 12.412611070856705 257.56307423975386 86.87063352657194 0.0 0.0
518.8460126755011 -3.061165389165268 189.9868576972711 89.63570101536686 0.0 0.0
427.30776492109317 -10.413102702652328 131.82993639740394 97.29838118905934 0.0 0.0
331.51163893778266 -2.455099071781823 98.7130111979658 98.65732773788812 0.0 0.0
249.107930094151 9.771457180174725 77.66353843463723 90.04407707073128 0.0 0.0
158.7057558184974 23.423225692409712 54.63869445327214 84.59264427361181 0.0 0.0
48.17583262000305 -24.049284089191087 7.237964559243587 115.40661298572579 0.0 0.0
-9.63403749856775 -483.5749952117326 -211.5772025144896 160.31182473889044 0.0 0.0
-5.563549429496909 -449.0740369573557 -181.51837709968706 -157.28917757609113 0.0 0.0
25.603494581989523 -32.02361893715461 -1.926037306549526 -140.32101071109534 0.0 0.0
113.94414827141614 18.73816310060484 39.804693411606294 -109.53801295536418 0.0 0.0
196.81257563662382 12.163583574035894 62.69284776319791 -110.01856983799107 0.0 0.0
272.95212911792953 0.24704785749293978 81.91719491528225 -119.05031340062418 0.0 0.0
358.97780841452186 -8.15022585661585 107.77614303174653 -122.31182754544584 0.0 0.0
458.8883061546977 -5.303912411218846 155.53758434270298 -115.669855082788 0.0 0.0
544.8447065334682 7.471707806661473 219.73932816827985 -108.36070911043609 0.0 0.0
613.3081181045214 22.528230412957377 281.2570018974028 -106.09349712163454 0.0 0.0
670.074220422468 37.29616263340167 331.53284426733205 -105.00283661474832 0.0 0.0
720.862440856509 52.08902834816716 372.99688833169273 -103.14157635117364 0.0 0.0
768.6087691794905 67.12699517163718 409.1823206024627 -100.5020905866489 0.0 0.0
814.7322641694059 82.42516737172488 442.4356058588364 -97.99966585524493 0.0 0.0
860.4049912800147 98.02505816969517 474.4390715591893 -95.77093036205072 0.0 0.0
906.2740028521425 113.94841769829468 506.0526468985629 -93.29701343123878 0.0 0.0
951.9059308053011 131.13778043877548 537.8360649586555 -89.85693194362301 0.0 0.0
997.6449996930642 149.04232491589448 569.886694214056 -84.97858037496695 0.0 0.0
1042.7706799263892 168.60942048017753 602.3643566519381 -76.9991696591648 0.0 0.0
1086.2349941746843 189.72513056246075 634.6716722354873 -62.44211391857926 0.0 0.0
1121.7504813703426 207.19155813894 661.0469464762638 -36.6963851990691 0.0 0.0
1121.750481370155 207.19155813877802 661.046946476153 36.69638519921218 0.0 0.0
1086.2349941748612 189.72513056270398 634.6716722356432 62.44211391874099 0.0 0.0
1042.7706799264724 168.6094204803886 602.3643566519605 76.99916965939633 0.0 0.0
997.6449996924571 149.04232491535953 569.886694213576 84.97858037504763 0.0 0.0
951.905930804212 131.1377804377506 537.8360649578563 89.85693194364609 0.0 0.0
906.2740028510632 113.94841769724304 506.05264689777607 93.29701343114917 0.0 0.0
860.4049912800791 98.0250581699055 474.43907155918816 95.77093036213942 0.0 0.0
814.732264169386 82.42516737186871 442.4356058587858 97.99966585532161 0.0 0.0
768.608769179482 67.12699517185126 409.1823206024235 100.50209058674659 0.0 0.0
720.8624408567534 52.08902834864126 372.9968883317583 103.14157635120972 0.0 0.0
670.0742204221604 37.29616263328028 331.53284426704596 105.00283661469498 0.0 0.0
613.3081181038813 22.52823041248225 281.25700189688405 106.09349712156019 0.0 0.0
544.8447065331954 7.4717078067222396 219.73932816801968 108.36070911044455 0.0 0.0
458.88830615418453 -5.303912411330947 155.53758434239506 115.66985508281896 0.0 0.0
358.97780841408223 -8.150225856707724 107.77614303157723 122.31182754530465 0.0 0.0
272.9521291178036 0.24704785764146298 81.91719491529086 119.05031340045387 0.0 0.0
196.81257563656965 12.16358357409808 62.69284776320031 110.01856983782241 0.0 0.0
113.94414827134969 18.738163100503158 39.804693411555846 109.53801295514855 0.0 0.0
25.603494582007407 -32.023618937031046 -1.9260373065070924 140.32101071090747 0.0 0.0
-5.563549429460501 -449.07403695705165 -181.51837709942498 157.28917757602673 0.0 0.0
0.06763427087479812 -409.2527882956241 -149.64399858763525 -153.53718631388006 0.0 0.0
8.071082912905164 -39.49273243003377 -9.426494855138579 -157.6921581634886 0.0 0.0
74.37194447041443 13.958011993502948 26.498986939175207 -130.45378134072763 0.0 0.0
145.54037399678901 14.098770339679366 47.891743300940504 -128.29093745960026 0.0 0.0
211.68828198980538 2.1880938562829444 64.15691226861428 -137.44071812837365 0.0 0.0
286.03871372198864 -4.996815304505306 84.88844700567589 -144.94480040123145 0.0 0.0
381.259054834207 -5.336234535450218 120.70406378810236 -142.78094446651625 0.0 0.0
476.8382942583538 2.915843840046155 175.55268235018164 -133.3230895391096 0.0 0.0
555.0459055547834 15.835254722349802 236.51301478018507 -126.28953217092794 0.0 0.0
616.0927546239798 29.04201041720056 290.0436918184927 -122.80168965063815 0.0 0.0
665.3744291402702 40.16000394833793 332.00803562527824 -119.99365856459217 0.0 0.0
710.603373209644 51.92628847657738 367.8942999383417 -116.88615717493838 0.0 0.0
753.1371139834737 63.59129460388583 399.3683131595814 -114.0780083156838 0.0 0.0
794.3202521197173 75.38906414760841 428.4057188989272 -111.60350345907807 0.0 0.0
834.6093803601943 86.45152541905668 455.4518696208959 -109.01255561380553 0.0 0.0
875.7478729163212 98.63029369997368 482.78689279806434 -105.4414131115404 0.0 0.0
915.5454868347955 110.54225445794583 509.0191083869265 -100.0357269199649 0.0 0.0
953.7305795735715 121.94007626498106 534.0702561817493 -91.5825759677507 0.0 0.0
993.2207998237172 135.14055447399096 560.5311718797553 -75.68706414404488 0.0 0.0
1031.6398478487724 150.16374363979958 587.1471803805963 -45.888105832752395 0.0 0.0
1031.6398478489007 150.1637436399777 587.1471803806995 45.88810583293986 0.0 0.0
993.2207998225283 135.1405544728548 560.5311718789958 75.68706414421999 0.0 0.0
953.7305795728633 121.94007626437806 534.0702561813034 91.582575967949 0.0 0.0
915.5454868349366 110.54225445816482 509.0191083870002 100.03572692004397 0.0 0.0
875.7478729161344 98.63029369993411 482.78689279794304 105.44141311167795 0.0 0.0
834.6093803596702 86.45152541860787 455.4518696205621 109.01255561379277 0.0 0.0
794.3202521191066 75.38906414705541 428.4057188985092 111.6035034590357 0.0 0.0
753.13711398285 63.591294603313216 399.3683131590814 114.07800831565254 0.0 0.0
710.6033732090234 51.92628847611038 367.8942999378744 116.8861571749734 0.0 0.0
665.3744291395647 40.1600039477219 332.0080356247629 119.99365856448767 0.0 0.0
616.092754623863 29.042010417250474 290.04369181830606 122.80168965052474 0.0 0.0
555.0459055544791 15.835254722309017 236.51301477991237 126.28953217090017 0.0 0.0
476.8382942579774 2.915843839997816 175.5526823498955 133.32308953908134 0.0 0.0
381.25905483384366 -5.336234535313784 120.70406378796832 142.7809444665154 0.0 0.0
286.03871372179935 -4.996815304355394 84.88844700565612 144.94480040111574 0.0 0.0
211.68828198965392 2.188093856274474 64.15691226857302 137.4407181282377 0.0 0.0
145.54037399675138 14.09877033977304 47.891743300957316 128.2909374593825 0.0 0.0
74.37194447043818 13.958011993647332 26.49898693922565 130.45378134051197 0.0 0.0
8.071082912877939 -39.49273242999053 -9.426494855133777 157.69215816330285 0.0 0.0
0.06763427093503083 -409.252788295279 -149.64399858738588 153.5371863137702 0.0 0.0
2.4751592442591743 -365.7661839200812 -121.14588661719603 -149.49235255939706 0.0 0.0
-8.505274402859515 -46.53566099672206 -16.51226412725294 -168.10880758008005 0.0 0.0
38.69067591007244 10.107790385101499 14.63953988855218 -147.23749381987693 0.0 0.0
95.71748281434776 15.334486684175182 33.31559084955688 -143.86862016906565 0.0 0.0
149.0762891312805 4.935298704677565 46.19675719830727 -152.65361366970538 0.0 0.0
206.39334351713094 -2.7215138975661457 61.35499523025705 -163.5430729060119 0.0 0.0
283.149316988016 -3.252561972436916 86.556995305576 -167.6824693634569 0.0 0.0
381.5010451887621 0.7121306722672207 127.4608207456033 -161.34891830189213 0.0 0.0
471.32982331710946 8.475689665867748 179.76436427080466 -150.36788347354872 0.0 0.0
540.6583468162494 19.755594126967356 233.42560882463704 -141.74485070076707 0.0 0.0
594.0456372657877 27.82347733303962 277.5404376001429 -137.32206691266026 0.0 0.0
637.2008508429241 36.09039842917949 313.8668207915614 -133.15818206795214 0.0 0.0
676.8915431275259 44.75421259645431 345.43518099764003 -129.97914403235288 0.0 0.0
714.0239429709077 52.618751596003456 372.8759404658068 -127.30210004688854 0.0 0.0
749.824430592473 59.58704556673011 397.3069188577973 -124.71349276748015 0.0 0.0
784.964978551056 66.0282398295625 419.68393831744936 -121.11943011757964 0.0 0.0
820.7187420294528 72.62761446348922 441.6175250005693 -115.30003160331682 0.0 0.0
852.637468852497 76.12479938289158 459.9111122842344 -106.18319116093488 0.0 0.0
883.9188431461246 77.6562261435351 476.7138262814862 -90.07945049531227 0.0 0.0
925.5458981854758 88.24113938155665 502.7279333904637 -57.86778852364771 0.0 0.0
925.5458981855866 88.24113938169884 502.72793339053226 57.86778852377129 0.0 0.0
883.9188431464493 77.6562261439696 476.71382628170653 90.07945049555389 0.0 0.0
852.6374688526523 76.1247993833484 459.91111228435796 106.18319116138917 0.0 0.0
820.7187420294974 72.62761446371411 441.617525000515 115.30003160352976 0.0 0.0
784.9649785508146 66.02823982948141 419.6839383172218 121.11943011767693 0.0 0.0
749.8244305920155 59.587045566378166 397.30691885746023 124.7134927675104 0.0 0.0
714.0239429709271 52.6187515961705 372.8759404658027 127.3021000469611 0.0 0.0
676.8915431275014 44.75421259664107 345.43518099761786 129.9791440324788 0.0 0.0
637.2008508424234 36.09039842873368 313.8668207911623 133.1581820678594 0.0 0.0
594.045637265545 27.823477332964067 277.54043759987826 137.32206691263255 0.0 0.0
540.6583468159025 19.75559412679917 233.42560882430516 141.74485070067192 0.0 0.0
471.3298233164538 8.47568966542249 179.7643642703377 150.36788347354647 0.0 0.0
381.50104518828687 0.7121306721560963 127.46082074534996 161.34891830187473 0.0 0.0
283.1493169875232 -3.2525619726079746 86.55699530536555 167.68246936339398 0.0 0.0
206.39334351688265 -2.7215138977712723 61.35499523012069 163.5430729057848 0.0 0.0
149.0762891312475 4.935298704789809 46.1967571983321 152.65361366953067 0.0 0.0
95.71748281427142 15.334486684118065 33.31559084951684 143.868620168929 0.0 0.0
38.69067590998918 10.107790385078012 14.639539888520153 147.23749381973388 0.0 0.0
-8.505274402899227 -46.53566099671434 -16.51226412726258 168.1088075799077 0.0 0.0
2.4751592442003165 -365.7661839198123 -121.14588661705301 149.49235255925583 0.0 0.0
-3.9272037292720654 -319.8022356433717 -100.82915136003965 -142.77297637591704 0.0 0.0
-25.375891800888297 -53.10136504754598 -23.541936765012217 -174.76129815519215 0.0 0.0
6.0196644882846435 7.515725850845379 4.060617101739006 -159.70253709156228 0.0 0.0
47.49153493486729 16.02458079531374 19.053720995553878 -156.09466278925316 0.0 0.0
85.80528630888162 8.146968044901103 28.182605331293303 -163.95038582748901 0.0 0.0
124.07880194556004 0.2517444231965631 37.357619685670606 -177.22797362132943 0.0 0.0
172.33358636059938 -1.9057611130744734 52.169442333999385 -186.50639121390154 0.0 0.0
242.65305052071503 1.0056808110077604 76.92115014957618 -186.39361278167445 0.0 0.0
334.87859708153724 4.596309768131118 112.76356989604457 -178.91737673964099 0.0 0.0
418.7881032654927 9.138096915856677 155.33096678900142 -165.7895179118268 0.0 0.0
481.9280674863108 15.73643287811068 197.92044350780756 -156.28259115339912 0.0 0.0
527.9884319697022 19.695915623609377 233.51777878862964 -150.5810664414052 0.0 0.0
567.2798640568204 25.412614705161992 265.9842023971135 -146.4459058800684 0.0 0.0
601.7663473157166 29.976500786074148 294.2390388610647 -143.15082279162408 0.0 0.0
632.9749958388747 32.9060064274651 318.1492154335563 -140.32155974498713 0.0 0.0
662.7668943640869 34.05087954286733 338.24847983268086 -136.92790297003017 0.0 0.0
693.9000858693554 33.86740041956229 356.2454402454146 -131.0803739075948 0.0 0.0
726.7421255518091 33.082645217678774 373.8019489285637 -120.7692731800954 0.0 0.0
748.9947900550329 19.3243989480509 379.7121881806416 -104.88041414361872 0.0 0.0
790.0259609375158 16.80865071734752 398.9779789285977 -73.84902844724584 0.0 0.0
790.0259609372763 16.8086507171777 398.9779789284532 73.84902844747364 0.0 0.0
748.994790055216 19.324398948390694 379.71218818076613 104.88041414393004 0.0 0.0
726.742125551797 33.08264521793069 373.80194892855695 120.76927318044758 0.0 0.0
693.9000858697036 33.8674004201424 356.2454402456406 131.08037390778654 0.0 0.0
662.7668943638693 34.050879542631165 338.24847983245326 136.92790296995102 0.0 0.0
632.9749958385768 32.90600642720575 318.149215433328 140.32155974497985 0.0 0.0
601.7663473161092 29.97650078671805 294.2390388613195 143.1508227917688 0.0 0.0
567.2798640568958 25.412614705504964 265.9842023971611 146.44590588026543 0.0 0.0
527.9884319692297 19.695915623273272 233.5177787882655 150.5810664413912 0.0 0.0
481.9280674862671 15.736432878278453 197.92044350772497 156.28259115337818 0.0 0.0
418.7881032654594 9.138096916137034 155.33096678895552 165.78951791173293 0.0 0.0
334.87859708114524 4.596309768137134 112.76356989588228 178.91737673970698 0.0 0.0
242.65305052033835 1.0056808109195021 76.9211501494166 186.3936127816147 0.0 0.0
172.33358636045855 -1.905761112879988 52.16944233400818 186.5063912138216 0.0 0.0
124.07880194550576 0.25174442322837187 37.35761968566535 177.22797362116907 0.0 0.0
85.80528630894415 8.146968045174308 28.182605331394704 163.95038582730723 0.0 0.0
47.491534934882324 16.02458079539447 19.053720995583014 156.0946627889995 0.0 0.0
6.01966448830386 7.515725850975617 4.060617101783842 159.70253709134877 0.0 0.0
-25.375891800901393 -53.10136504753249 -23.541936765012622 174.76129815507807 0.0 0.0
-3.927203729401846 -319.80223564312547 -100.82915135997821 142.77297637582114 0.0 0.0
-13.152186076735216 -273.34460638699335 -86.1425736608544 -133.14860357439292 0.0 0.0
-40.5234473472851 -57.413156866898355 -29.378567180925792 -178.02495123615785 0.0 0.0
-24.444244664503827 5.513480479787179 -5.679076630508172 -168.1514917075595 0.0 0.0
0.9130416720813423 16.472454117995024 5.215419031153906 -164.40080317460087 0.0 0.0
22.51893416574322 11.206723875592395 10.11582284196563 -171.01178419837717 0.0 0.0
39.75460609554639 4.092541677810507 13.179289938754373 -184.38538857837793 0.0 0.0
57.48541972343317 0.2630597466979383 17.644766286159182 -196.50006549919397 0.0 0.0
81.90702106452464 0.07046676771274285 25.548959352694187 -202.6836998766276 0.0 0.0
116.71699270691792 1.7414269106779052 37.81992709000008 -198.37384048495386 0.0 0.0
160.75149611783505 3.025939078227001 53.5154378401238 -189.86554592989373 0.0 0.0
213.1823814146939 5.676559211832625 73.53305768447967 -178.2455811352315 0.0 0.0
260.2822036480444 5.916876073542362 93.6264249409552 -170.50129287788866 0.0 0.0
301.47444469176287 8.019230564309588 116.1609801626442 -164.79922784381452 0.0 0.0
342.02650738029297 9.671336275948377 140.56624596530384 -160.7053501548418 0.0 0.0
380.66386434819856 7.622512103918027 164.75769673899848 -156.68636367950808 0.0 0.0
415.52382057268477 2.9588096051552526 186.6386374034083 -152.583261208819 0.0 0.0
452.5711377018058 -4.974910189033608 206.71708784630266 -146.92466736084978 0.0 0.0
498.61439230133476 -12.9842509939361 230.54482653616924 -137.31770619563605 0.0 0.0
547.0225036594875 -26.648717913114837 253.3290283448807 -118.31203882163642 0.0 0.0
571.1605607332677 -77.49504979255451 243.43506677413566 -92.08299202546294 0.0 0.0
571.1605607335109 -77.49504979225213 243.43506677432111 92.08299202569626 0.0 0.0
547.0225036600926 -26.648717912273867 253.32902834531387 118.3120388220632 0.0 0.0
498.61439230141895 -12.984250993523219 230.54482653633073 137.3177061960301 0.0 0.0
452.57113770097845 -4.974910189981998 206.71708784576822 146.92466736093039 0.0 0.0
415.52382057257574 2.95880960473184 186.63863740321892 152.58326120874997 0.0 0.0
380.66386434792025 7.62251210367333 164.7576967388138 156.68636367955583 0.0 0.0
342.02650738007156 9.671336275531687 140.5662459650887 160.70535015484302 0.0 0.0
301.47444469175576 8.019230564205266 116.16098016258893 164.79922784393207 0.0 0.0
260.28220364773176 5.9168760729929915 93.62642494067923 170.50129287784966 0.0 0.0
213.18238141455046 5.676559211578368 73.53305768433611 178.24558113524458 0.0 0.0
160.75149611774765 3.025939078061013 53.51543784003716 189.8655459297455 0.0 0.0
116.71699270684938 1.7414269106772835 37.819927089972076 198.37384048497978 0.0 0.0
81.90702106463499 0.07046676810750441 25.548959352841333 202.6836998766128 0.0 0.0
57.48541972358201 0.26305974711638136 17.644766286327407 196.5000654990393 0.0 0.0
39.75460609552554 4.092541677655083 13.179289938701693 184.38538857812603 0.0 0.0
22.518934165688485 11.206723875422798 10.115822841898533 171.0117841981351 0.0 0.0
0.9130416721698031 16.472454118178753 5.2154190312356015 164.40080317437463 0.0 0.0
-24.44424466445234 5.513480479869219 -5.679076630468224 168.15149170740494 0.0 0.0
-40.52344734729847 -57.413156866921796 -29.378567180937566 178.02495123600312 0.0 0.0
-13.152186076817891 -273.34460638671965 -86.1425736608077 133.14860357426818 0.0 0.0
-21.15542011610634 -228.52106988604785 -74.89654647448852 -121.78896894323864 0.0 0.0
-52.91085934904282 -58.00781519758031 -33.27368321349135 -177.32652001714527 0.0 0.0
-52.93182934714662 3.639360684354745 -14.787212785232736 -172.60161633668287 0.0 0.0
-44.06439358728652 16.689514308628524 -8.211886149879163 -168.57569956699356 0.0 0.0
-40.117659323293466 13.933634029274998 -7.850922254787065 -173.38116832811812 0.0 0.0
-44.79088877355278 7.938292606963944 -11.0748925174728 -185.39857764419168 0.0 0.0
-58.492477897180166 2.9699655194137 -16.97928268302413 -196.58920820227027 0.0 0.0
-81.74457965552682 0.420604909996511 -25.352388234775177 -202.77508355217003 0.0 0.0
-116.39589437853874 -1.8126942799197074 -37.73765367905672 -198.36973403515105 0.0 0.0
-160.51117367416003 -3.125677875880651 -53.46443217470171 -189.84586857223917 0.0 0.0
-213.33320706972003 -5.215316521353973 -73.26185819510845 -178.29388894908791 0.0 0.0
-260.8548272544796 -5.099684312182337 -93.54107923380337 -170.2918339923958 0.0 0.0
-303.9072728463823 -7.119848383018663 -116.78503073279136 -164.40339669729113 0.0 0.0
-346.70054779306435 -9.886783804518004 -142.67006999497818 -160.3235393137798 0.0 0.0
-384.67844919249285 -14.61314877091155 -169.3686357824081 -157.52714197186108 0.0 0.0
-408.9316525171489 -24.220082084036918 -193.05713108553985 -156.9348844864156 0.0 0.0
-408.1308460620057 -35.025290553049004 -206.44568872372787 -158.619401217152 0.0 0.0
-356.59719960493084 -42.05741943262089 -199.7537368040351 -161.3565344670429 0.0 0.0
-189.79083893027075 -36.92716038857232 -127.05586320250421 -161.6605805474331 0.0 0.0
31.965998614026617 -164.53627129109168 -57.1721782988717 -121.02728664170382 0.0 0.0
31.9659986140162 -164.53627129100946 -57.17217829887369 121.02728664204737 0.0 0.0
-189.7908389306662 -36.92716038925897 -127.0558632028168 161.66058054791353 0.0 0.0
-356.5971996047209 -42.0574194324017 -199.7537368038806 161.35653446739423 0.0 0.0
-408.1308460617642 -35.025290552886815 -206.4456887235283 158.61940121720062 0.0 0.0
-408.9316525171673 -24.220082084405476 -193.0571310855979 156.934884486461 0.0 0.0
-384.6784491918766 -14.61314877030189 -169.36863578198955 157.52714197188453 0.0 0.0
-346.7005477921996 -9.886783803501167 -142.67006999433414 160.3235393137652 0.0 0.0
-303.9072728456277 -7.119848382457917 -116.78503073232343 164.40339669735596 0.0 0.0
-260.8548272538453 -5.0996843119105755 -93.54107923347428 170.29183399235444 0.0 0.0
-213.33320706907864 -5.215316521232015 -73.26185819484486 178.29388894903846 0.0 0.0
-160.51117367366442 -3.125677876050254 -53.46443217458359 189.84586857213554 0.0 0.0
-116.39589437833772 -1.8126942802693975 -37.73765367908845 198.36973403517936 0.0 0.0
-81.74457965535856 0.42060490978126097 -25.352388234783703 202.77508355215707 0.0 0.0
-58.49247789704757 2.9699655194323173 -16.97928268297413 196.58920820212808 0.0 0.0
-44.79088877323764 7.938292607390653 -11.074892517250158 185.39857764395072 0.0 0.0
-40.11765932316143 13.933634029378108 -7.850922254716886 173.38116832790777 0.0 0.0
-44.06439358727807 16.689514308508187 -8.21188614991299 168.5756995667956 0.0 0.0
-52.931829347135135 3.6393606843328854 -14.787212785236234 172.60161633649167 0.0 0.0
-52.91085934904842 -58.007815197600706 -33.27368321350005 177.32652001698378 0.0 0.0
-21.155420116065486 -228.5210698858286 -74.89654647441206 121.7889689431076 0.0 0.0
-23.694223730347648 -185.9389440244065 -62.889950326426245 -109.41951607466325 0.0 0.0
-63.17699889952424 -55.86069872261406 -35.71096557400172 -172.78296947077473 0.0 0.0
-79.43704399690795 2.128126434725927 -23.19171836724849 -172.84927000735388 0.0 0.0
-87.47815300098961 16.504529344424245 -21.286354066521923 -168.53734459323533 0.0 0.0
-101.47661484612084 16.135776119864975 -25.598046390104205 -170.820568566853 0.0 0.0
-128.15716828862526 11.106964892553579 -35.297623443001775 -179.62810245562815 0.0 0.0
-173.18911238816233 5.0045030515922875 -51.51393501898785 -187.4141101069906 0.0 0.0
-242.4444193140114 -0.5571542757244821 -76.72668428322143 -186.5560238771961 0.0 0.0
-334.5381441154833 -4.713809661630734 -112.68765260067252 -178.9048136898381 0.0 0.0
-418.6209095794028 -9.135574868484742 -155.2489758175258 -165.74319599026188 0.0 0.0
-481.75624558257755 -15.45401579692286 -197.76125147179795 -156.18267352626935 0.0 0.0
-527.9102232479327 -18.9764666931978 -233.24439479900397 -150.23913710242883 0.0 0.0
-567.5513248809334 -24.346000878952744 -265.72301781671433 -145.67619102166643 0.0 0.0
-603.692690071672 -30.444856932612268 -295.35092405678614 -142.35317701800835 0.0 0.0
-638.3625074545005 -39.34788189791756 -323.52049172037744 -141.2406136363632 0.0 0.0
-670.4606288384673 -51.95363643188756 -350.1548711157354 -143.2530869174623 0.0 0.0
-697.740440273318 -69.12796376601452 -375.28396283046663 -149.54877690010912 0.0 0.0
-715.2631501014857 -89.23102937579029 -396.36865165890225 -160.17617494426474 0.0 0.0
-750.1589062597308 -143.73564336381264 -439.81637134301684 -169.8782890240649 0.0 0.0
-720.3730144446258 -204.02049100961412 -450.74637586610686 -176.41474702313755 0.0 0.0
-720.3730144443524 -204.02049100932115 -450.7463758659312 176.41474702337737 0.0 0.0
-750.1589062586963 -143.73564336281257 -439.8163713423643 169.87828902427205 0.0 0.0
-715.263150101078 -89.23102937544135 -396.3686516586031 160.1761749444817 0.0 0.0
-697.7404402731077 -69.12796376598321 -375.2839628303394 149.54877690024932 0.0 0.0
-670.4606288376368 -51.95363643103752 -350.15487111515586 143.25308691737774 0.0 0.0
-638.362507455256 -39.34788189892694 -323.5204917208541 141.24061363650466 0.0 0.0
-603.6926900715519 -30.4448569327269 -295.3509240566952 142.35317701806187 0.0 0.0
-567.5513248807281 -24.3460008789315 -265.72301781653044 145.67619102168976 0.0 0.0
-527.9102232475523 -18.976466693161413 -233.24439479873405 150.23913710249673 0.0 0.0
-481.7562455824658 -15.45401579722694 -197.76125147166113 156.1826735262489 0.0 0.0
-418.62090957905406 -9.135574868843818 -155.2489758173559 165.74319599029118 0.0 0.0
-334.53814411494756 -4.713809661778946 -112.68765260048417 178.90481368992772 0.0 0.0
-242.444419313369 -0.5571542754946517 -76.72668428294179 186.55602387722442 0.0 0.0
-173.18911238786882 5.004503051568307 -51.51393501889657 187.41411010686667 0.0 0.0
-128.1571682883888 11.1069648925837 -35.29762344292144 179.62810245543022 0.0 0.0
-101.47661484599767 16.135776119855418 -25.59804639007207 170.82056856662157 0.0 0.0
-87.47815300076553 16.50452934467565 -21.28635406637985 168.5373445930137 0.0 0.0
-79.43704399680288 2.1281264348293796 -23.19171836718641 172.84927000722007 0.0 0.0
-63.17699889951147 -55.86069872262123 -35.71096557400038 172.78296947063296 0.0 0.0
-23.69422373029274 -185.93894402420722 -62.889950326349975 109.41951607449033 0.0 0.0
-24.474030321016272 -146.55301244461862 -51.30811282969046 -96.7701986037235 0.0 0.0
-71.84072024566048 -51.26627675533512 -36.93209910029867 -164.2594563460079 0.0 0.0
-104.1996427865081 0.9671594034186826 -30.966794874308363 -168.87329961532956 0.0 0.0
-129.1942739480948 15.959066608601082 -33.95979061764312 -164.14371692999356 0.0 0.0
-161.25911834528978 17.29099776210959 -43.224793055292906 -163.48445522427517 0.0 0.0
-209.35750070187282 13.008147199891592 -59.281265054828424 -167.53640363023382 0.0 0.0
-283.235424503281 6.093860659369729 -85.86553717176211 -168.68540559726705 0.0 0.0
-381.14455995082676 -0.4480659065090489 -127.28005649297965 -161.61562888070432 0.0 0.0
-471.2295999375941 -8.564616317051925 -179.71637107739986 -150.31178919657475 0.0 0.0
-540.6402500447152 -19.766144158631946 -233.41619739749672 -141.674654687661 0.0 0.0
-593.9650019073831 -27.640584810377547 -277.4614858128632 -137.23143206218148 0.0 0.0
-637.0213358654881 -35.506619999788086 -313.5674366112321 -132.81139244911117 0.0 0.0
-676.8032499902912 -43.759608847598166 -344.93457310644214 -129.08886338448625 0.0 0.0
-715.2325559662582 -52.690184643787866 -373.39487891010566 -126.1034333460143 0.0 0.0
-754.1534555280887 -64.29606514612121 -401.513006222475 -125.04462193910427 0.0 0.0
-792.9573563154488 -80.29171316851509 -430.447006414572 -127.32080998719309 0.0 0.0
-830.0752229229972 -101.20709620190189 -460.413907725621 -134.08695670371782 0.0 0.0
-872.5935652825119 -136.52154344036347 -499.902912581301 -142.78116410374355 0.0 0.0
-918.6271080426038 -189.5518113520398 -549.5269670830058 -151.2898038576939 0.0 0.0
-979.2383869283265 -296.1213393228416 -628.2958669033515 -160.79864589530092 0.0 0.0
-979.238386928977 -296.12133932375195 -628.2958669039344 160.79864589563792 0.0 0.0
-918.6271080429357 -189.5518113526158 -549.5269670833072 151.28980385799895 0.0 0.0
-872.5935652822773 -136.52154344020684 -499.9029125811405 142.78116410386025 0.0 0.0
-830.0752229230917 -101.2070962021758 -460.41390772565717 134.08695670388948 0.0 0.0
-792.9573563153532 -80.29171316861999 -430.44700641453437 127.32080998727275 0.0 0.0
-754.1534555278395 -64.29606514589219 -401.51300622228325 125.04462193906267 0.0 0.0
-715.2325559663168 -52.69018464404443 -373.3948789101161 126.10343334613503 0.0 0.0
-676.8032499902248 -43.759608847792855 -344.9345731063555 129.08886338457313 0.0 0.0
-637.0213358654038 -35.50662000001894 -313.5674366111371 132.81139244921016 0.0 0.0
-593.9650019070704 -27.640584810329198 -277.46148581258495 137.23143206213945 0.0 0.0
-540.6402500438952 -19.76614415799095 -233.41619739688662 141.67465468753642 0.0 0.0
-471.2295999370173 -8.564616316885582 -179.7163710770155 150.31178919661656 0.0 0.0
-381.1445599502593 -0.44806590654469236 -127.28005649272747 161.6156288807939 0.0 0.0
-283.2354245029074 6.093860659136335 -85.86553717170116 168.68540559721393 0.0 0.0
-209.3575007014661 13.008147200128363 -59.28126505463226 167.53640363002145 0.0 0.0
-161.2591183450624 17.29099776216764 -43.22479305521055 163.48445522414818 0.0 0.0
-129.1942739478744 15.95906660876312 -33.959790617529414 164.14371692985975 0.0 0.0
-104.1996427863646 0.967159403561404 -30.96679487422332 168.87329961516167 0.0 0.0
-71.84072024559295 -51.26627675533057 -36.93209910027706 164.25945634586702 0.0 0.0
-24.474030320980912 -146.55301244446852 -51.30811282963482 96.77019860362743 0.0 0.0
-24.961083117084943 -110.88939590746195 -40.75514370736406 -83.94485618995259 0.0 0.0
-79.67351615661174 -44.838693892352254 -37.3536630146892 -152.07028277207058 0.0 0.0
-127.39553963341311 0.2659572863094324 -38.136082771694376 -160.6490635854902 0.0 0.0
-169.29442049113948 14.78363041043239 -46.34201999072083 -155.4715055583682 0.0 0.0
-219.1000555623476 17.53299085595768 -60.4589496285724 -151.4245415370201 0.0 0.0
-286.7492941461323 13.45422613748742 -83.02027146452278 -149.6134595608089 0.0 0.0
-380.6738127682114 7.984016910994763 -119.82327422065035 -144.42755901684455 0.0 0.0
-476.5646753443691 -2.7891225240980795 -175.37899083917858 -133.4681016712979 0.0 0.0
-555.0902787911928 -15.945154875935074 -236.53595277113564 -126.18707183254838 0.0 0.0
-616.114344586246 -29.07666077605021 -290.0838984070057 -122.73379420608194 0.0 0.0
-665.3257080789483 -40.03301383419869 -331.9577315271547 -119.92701376088647 0.0 0.0
-710.4813994633457 -51.552016203947794 -367.69543425762515 -116.5709656367799 0.0 0.0
-752.9524042657575 -62.777188976732376 -398.88323146291515 -113.1478292190191 0.0 0.0
-794.6952405652355 -74.87602828653002 -428.26240058675864 -110.15081147110466 0.0 0.0
-836.9475081097662 -88.82785110420943 -457.66778754537876 -108.8892422726706 0.0 0.0
-881.6215849406838 -108.27627663501467 -490.3436887100286 -110.98726965010268 0.0 0.0
-930.570473141418 -137.46965549373544 -529.6165705103066 -116.76647873223354 0.0 0.0
-986.7452816476327 -181.95839634602743 -580.2771127248194 -124.36852691981417 0.0 0.0
-1052.681823349771 -249.81345063266238 -647.0534050415883 -130.9875958368887 0.0 0.0
-1130.190377223636 -364.22285186704505 -740.0593143817113 -140.7456129149169 0.0 0.0
-1130.1903772235846 -364.2228518670707 -740.059314381728 140.745612915064 0.0 0.0
-1052.6818233490826 -249.8134506320486 -647.0534050411395 130.98759583708912 0.0 0.0
-986.7452816477219 -181.95839634630372 -580.2771127248693 124.36852692005706 0.0 0.0
-930.5704731413742 -137.46965549387807 -529.6165705102609 116.76647873241848 0.0 0.0
-881.6215849399465 -108.27627663431635 -490.34368870946787 110.98726965005108 0.0 0.0
-836.9475081099212 -88.82785110451246 -457.66778754541434 108.88924227277295 0.0 0.0
-794.695240564806 -74.87602828627385 -428.26240058646704 110.15081147117363 0.0 0.0
-752.9524042653328 -62.777188976384004 -398.8832314626129 113.14782921893614 0.0 0.0
-710.4813994629642 -51.552016203808165 -367.69543425734315 116.57096563685532 0.0 0.0
-665.3257080787159 -40.03301383416062 -331.95773152693687 119.92701376080784 0.0 0.0
-616.1143445858759 -29.076660775919073 -290.0838984066775 122.73379420599731 0.0 0.0
-555.0902787909027 -15.945154876004743 -236.5359527708422 126.18707183255007 0.0 0.0
-476.56467534356557 -2.789122523641246 -175.37899083862783 133.46810167131855 0.0 0.0
-380.6738127676025 7.9840169112306585 -119.82327422032597 144.42755901675014 0.0 0.0
-286.74929414580185 13.454226137335983 -83.0202714644589 149.6134595606566 0.0 0.0
-219.1000555621905 17.53299085566252 -60.458949628618115 151.42454153692555 0.0 0.0
-169.294420490989 14.78363041038154 -46.34201999069208 155.47150555822608 0.0 0.0
-127.39553963330809 0.26595728633843585 -38.13608277165494 160.64906358535077 0.0 0.0
-79.67351615653008 -44.83869389235385 -37.35366301466517 152.070282771966 0.0 0.0
-24.961083117074203 -110.88939590739062 -40.75514370733944 83.94485618982876 0.0 0.0
-25.568730160945968 -79.38277758421458 -31.485452323548166 -70.83428658848837 0.0 0.0
-87.10350268203136 -37.19030464069192 -37.28814219681698 -136.62694028559167 0.0 0.0
-149.2825920064194 -0.02117767760299749 -44.789898649192075 -148.2867389421325 0.0 0.0
-207.78709625812238 13.149390296557707 -58.37176620493412 -142.50156698246548 0.0 0.0
-274.57371755769725 16.356682820561804 -77.36040440807436 -135.05769341936073 0.0 0.0
-358.78498590957656 14.755452448755694 -106.12382202654256 -127.79336473218024 0.0 0.0
-457.545171734878 7.228597632178992 -154.60871792758883 -116.86049811367857 0.0 0.0
-544.7300384436658 -7.440057345751331 -219.61494660579183 -108.36807664308589 0.0 0.0
-613.4745928396511 -22.691629951584158 -281.37943179428817 -105.96213066266965 0.0 0.0
-670.1239311918072 -37.31400127842657 -331.5849561451272 -104.96283111053005 0.0 0.0
-720.8523463749067 -52.01842879448822 -372.97968307368455 -103.08191020493548 0.0 0.0
-768.6173135195295 -66.98709641426858 -409.14016780118504 -100.2225602578627 0.0 0.0
-814.5779058695966 -81.91133473434391 -442.1162804861789 -97.13641040649742 0.0 0.0
-859.8218816035645 -96.90183069010146 -473.57885605700073 -94.32033365877066 0.0 0.0
-905.9239653524653 -113.46803290377656 -505.6133377113074 -92.83797569809164 0.0 0.0
-955.9923769313918 -136.97343942537478 -542.6430352858226 -94.00427102247815 0.0 0.0
-1015.6519480634902 -173.84447583049854 -590.8450646001754 -98.64040267452121 0.0 0.0
-1086.2091954653015 -230.01926703802084 -654.2769834232327 -105.11399635523533 0.0 0.0
-1166.0668281659334 -310.3843303658748 -734.3714924826465 -111.58175255846048 0.0 0.0
-1242.4090046389147 -422.5961492456957 -826.9157698050038 -125.7797234244976 0.0 0.0
-1242.4090046385925 -422.59614924546815 -826.9157698047884 125.77972342468857 0.0 0.0
-1166.066828165774 -310.38433036584047 -734.3714924825229 111.58175255866794 0.0 0.0
-1086.2091954648845 -230.01926703769405 -654.2769834228874 105.11399635535759 0.0 0.0
-1015.6519480630789 -173.84447583022967 -590.8450645998455 98.64040267468219 0.0 0.0
-955.9923769312958 -136.97343942538836 -542.6430352856962 94.00427102252893 0.0 0.0
-905.9239653517668 -113.46803290317737 -505.6133377107672 92.8379756981077 0.0 0.0
-859.8218816034428 -96.9018306901147 -473.57885605685794 94.32033365882816 0.0 0.0
-814.5779058689849 -81.91133473387814 -442.11628048571293 97.1364104064914 0.0 0.0
-768.6173135189779 -66.98709641391967 -409.14016780077344 100.2225602579168 0.0 0.0
-720.8523463748759 -52.018428794716776 -372.97968307363357 103.08191020496078 0.0 0.0
-670.1239311916412 -37.314001278557846 -331.5849561449653 104.96283111056366 0.0 0.0
-613.4745928391691 -22.691629951401833 -281.3794317938974 105.96213066268427 0.0 0.0
-544.7300384432593 -7.440057345774344 -219.61494660544707 108.36807664316908 0.0 0.0
-457.54517173449904 7.228597632033982 -154.60871792736833 116.86049811374755 0.0 0.0
-358.78498590893366 14.755452449056047 -106.12382202624029 127.79336473204295 0.0 0.0
-274.57371755723517 16.356682820887606 -77.36040440784218 135.05769341925705 0.0 0.0
-207.78709625784614 13.149390296717636 -58.37176620480476 142.50156698233616 0.0 0.0
-149.2825920063154 -0.02117767763445899 -44.789898649170894 148.2867389419896 0.0 0.0
-87.10350268201535 -37.19030464078266 -37.288142196839395 136.62694028542938 0.0 0.0
-25.5687301609437 -79.38277758417016 -31.485452323534155 70.83428658839657 0.0 0.0
-26.28949879720851 -52.43926710180889 -23.618629769705215 -57.299926000325534 0.0 0.0
-94.14134562743534 -28.87331064603857 -36.90439688204217 -118.2946171091219 0.0 0.0
-170.06307295800843 0.06615560438030954 -50.999075206088435 -131.92994408449508 0.0 0.0
-244.67919383107272 10.62025389019706 -70.20736184867344 -125.26904569984045 0.0 0.0
-325.8778033051343 15.261956930706173 -93.41928336351148 -114.8477768162049 0.0 0.0
-423.0314033471327 14.934599753569948 -129.9780566206144 -102.85175629752956 0.0 0.0
-517.5407131092174 4.459560841400858 -189.08495703358835 -90.5313180214464 0.0 0.0
-593.770945884477 -12.546131586312342 -257.6126601745161 -86.64067771258911 0.0 0.0
-656.8229999550995 -27.993462522836097 -315.6307361479862 -87.1938744532796 0.0 0.0
-713.8405277743151 -45.32951726106751 -364.2318591234864 -87.19825607057123 0.0 0.0
-767.1647278612918 -63.637210589568745 -406.1197722053189 -85.92392327498025 0.0 0.0
-818.0799472909259 -82.17300483145898 -443.9126538352444 -83.52101475859754 0.0 0.0
-868.0096063504793 -100.7560248927592 -479.7087063232958 -80.96196184037576 0.0 0.0
-916.8300457747447 -119.35305751138571 -514.227087446702 -78.45345842156871 0.0 0.0
-966.3808716627815 -138.78276166129413 -549.1409159066 -76.6755883233696 0.0 0.0
-1022.143900289066 -165.7063981234552 -590.5955840790996 -76.69259768643593 0.0 0.0
-1090.2561415868463 -209.85222284587798 -646.4984386022571 -79.65956265556763 0.0 0.0
-1173.804385525565 -277.76323177839794 -722.0784568683486 -85.54458332701465 0.0 0.0
-1263.32486456678 -367.3489098383868 -811.7246579189255 -93.9555254336736 0.0 0.0
-1339.659969769858 -478.9146731373547 -904.7772291263552 -114.40901592791278 0.0 0.0
-1339.6599697696158 -478.9146731372138 -904.7772291261836 114.40901592808943 0.0 0.0
-1263.324864566419 -367.34890983808305 -811.7246579186669 93.95552543379684 0.0 0.0
-1173.8043855252927 -277.7632317782004 -722.07845686818 85.54458332714535 0.0 0.0
-1090.2561415868386 -209.8522228459795 -646.4984386022436 79.65956265568077 0.0 0.0
-1022.1439002885636 -165.70639812304722 -590.5955840787196 76.69259768646603 0.0 0.0
-966.3808716625581 -138.78276166116956 -549.1409159063869 76.67558832339078 0.0 0.0
-916.8300457742829 -119.35305751105714 -514.2270874463495 78.45345842162938 0.0 0.0
-868.0096063499625 -100.7560248923877 -479.70870632294236 80.9619618403844 0.0 0.0
-818.0799472906563 -82.17300483138112 -443.91265383504003 83.52101475861058 0.0 0.0
-767.1647278608829 -63.63721058936167 -406.11977220494396 85.92392327496496 0.0 0.0
-713.8405277742288 -45.32951726125977 -364.2318591233335 87.1982560705858 0.0 0.0
-656.8229999545626 -27.99346252255868 -315.6307361475304 87.19387445329039 0.0 0.0
-593.7709458838824 -12.546131586011054 -257.6126601740167 86.64067771258772 0.0 0.0
-517.5407131086821 4.4595608415726975 -189.08495703316459 90.53131802142376 0.0 0.0
-423.0314033467682 14.934599753451124 -129.97805662046093 102.85175629747485 0.0 0.0
-325.87780330472214 15.261956930793563 -93.4192833633657 114.84777681613164 0.0 0.0
-244.67919383085115 10.620253890150213 -70.20736184862261 125.26904569976168 0.0 0.0
-170.06307295786138 0.06615560440673418 -50.99907520603638 131.92994408442675 0.0 0.0
-94.14134562734569 -28.87331064600014 -36.90439688200374 118.2946171090429 0.0 0.0
-26.289498797214783 -52.439267101809286 -23.61862976970722 57.29992600029991 0.0 0.0
-26.827160713194452 -30.447102866094593 -17.18227907378671 -43.27953187653077 0.0 0.0
-100.38886501675519 -20.376438656981822 -36.2295911021211 -97.38703370961849 0.0 0.0
-189.81210080730872 0.41114170645038506 -56.820287730257505 -111.53812665485191 0.0 0.0
-280.53773702621083 7.187962532598837 -81.99544718604173 -104.28730536268323 0.0 0.0
-375.7769586303768 14.668370363702572 -109.13131769872297 -91.64081286688828 0.0 0.0
-476.09354925515913 14.187957799838612 -154.3690884584992 -76.5369294767859 0.0 0.0
-559.6630463351569 -0.611829005155407 -221.70745289057496 -66.97198718669182 0.0 0.0
-630.0195681484163 -15.582064727271842 -287.4428628267567 -67.18520287339066 0.0 0.0
-692.4786896492514 -32.96009001583372 -343.14357127485687 -68.54112865633127 0.0 0.0
-750.8866969145527 -53.271128050014894 -391.10064205785864 -69.09465749203447 0.0 0.0
-806.9030768892532 -74.818038072154 -434.0828499797365 -68.27790193316142 0.0 0.0
-861.5980190414618 -97.05925860936387 -474.5413722325088 -66.42224716432388 0.0 0.0
-915.293872744988 -119.43884285312747 -513.5371610347902 -64.38804094397827 0.0 0.0
-969.052358105493 -142.22249104555277 -552.335517433685 -62.46185324590259 0.0 0.0
-1022.901237792516 -165.4710186448135 -591.1679124283921 -60.56044980038184 0.0 0.0
-1081.0874157886813 -194.81283145396455 -634.9969326623657 -59.11400054906505 0.0 0.0
-1155.619344769222 -243.700507844416 -696.4006708895643 -60.18691021550407 0.0 0.0
-1250.1847255429811 -321.29885586453696 -782.1425089380862 -65.92356118248576 0.0 0.0
-1350.921328195343 -421.6152485977012 -882.7760734594741 -77.60902413033965 0.0 0.0
-1431.7811888781948 -537.2485627163767 -980.7619176754715 -104.80131101604368 0.0 0.0
-1431.7811888783283 -537.2485627165579 -980.7619176756339 104.80131101615905 0.0 0.0
-1350.9213281943994 -421.6152485968115 -882.7760734588139 77.60902413046718 0.0 0.0
-1250.184725542187 -321.2988558637984 -782.1425089374729 65.92356118256724 0.0 0.0
-1155.6193447686212 -243.7005078438829 -696.4006708890024 60.18691021554791 0.0 0.0
-1081.0874157880974 -194.81283145346669 -634.9969326618581 59.11400054907094 0.0 0.0
-1022.9012377923124 -165.47101864470997 -591.1679124281869 60.560449800406666 0.0 0.0
-969.0523581053646 -142.22249104555348 -552.3355174335419 62.461853245933085 0.0 0.0
-915.2938727444389 -119.43884285273482 -513.5371610343195 64.38804094402664 0.0 0.0
-861.5980190409949 -97.05925860909304 -474.5413722321456 66.42224716437008 0.0 0.0
-806.9030768891641 -74.81803807225012 -434.0828499796331 68.27790193308476 0.0 0.0
-750.886696914259 -53.271128049952736 -391.10064205763297 69.09465749201226 0.0 0.0
-692.478689648754 -32.96009001555734 -343.14357127445277 68.5411286562673 0.0 0.0
-630.0195681481657 -15.58206472732234 -287.44286282647147 67.18520287340644 0.0 0.0
-559.6630463347826 -0.6118290051545188 -221.70745289022145 66.97198718671399 0.0 0.0
-476.0935492547667 14.187957799806643 -154.36908845826105 76.53692947676299 0.0 0.0
-375.77695863003544 14.66837036357904 -109.13131769865447 91.64081286680509 0.0 0.0
-280.53773702595845 7.18796253255325 -81.9954471859813 104.28730536259123 0.0 0.0
-189.81210080711872 0.41114170649522697 -56.82028773018705 111.53812665477504 0.0 0.0
-100.38886501669208 -20.37643865696087 -36.22959110209588 97.38703370950533 0.0 0.0
-26.82716071314741 -30.447102866016866 -17.18227907374928 43.279531876483794 0.0 0.0
-26.542694790184903 -13.775483036665207 -12.095453348055033 -28.91382933937075 0.0 0.0
-104.92703076934683 -12.112562611525753 -35.11187801426178 -74.07629618111581 0.0 0.0
-208.6290368721418 0.6353520891312758 -62.398105434903144 -87.00013511718187 0.0 0.0
-315.7570088204065 3.7687655399377515 -93.58249554653864 -79.57538503103103 0.0 0.0
-423.22969660264744 15.08121519924183 -124.90033253728117 -65.9175147887973 0.0 0.0
-518.5284032527504 10.28833637760442 -180.5010566689103 -51.544986588153186 0.0 0.0
-593.6775008482009 -4.360185967583906 -250.31564632451807 -46.60546379245975 0.0 0.0
-659.5798776554544 -18.14310317665654 -311.5995448247272 -47.92518187166064 0.0 0.0
-722.2716768768584 -37.95011574389316 -365.68350382587425 -49.71914022528136 0.0 0.0
-782.7363051123853 -60.98005536910899 -413.78407611396597 -50.5325094713687 0.0 0.0
-841.9196311202218 -85.72732947425015 -458.6223882638697 -50.11932231667939 0.0 0.0
-900.1246601926445 -111.56181913166148 -501.95268614850306 -48.81157579214834 0.0 0.0
-958.4285066529668 -137.83083352326372 -544.8647250880654 -47.41503610634106 0.0 0.0
-1016.7585684416454 -165.33971376331382 -588.1223099458449 -46.03327819550726 0.0 0.0
-1075.951253722639 -193.9406336354243 -632.1973870307102 -44.385341031583465 0.0 0.0
-1137.9156906949904 -226.3465266209719 -679.467717906768 -42.0186319381563 0.0 0.0
-1209.9976172992078 -272.1842100593357 -738.1826169848906 -40.6869910295114 0.0 0.0
-1313.2436433329262 -357.16846741537256 -831.6933048120189 -45.7614628651674 0.0 0.0
-1431.2883783950026 -473.2722187071622 -948.7902463646979 -61.34655527946661 0.0 0.0
-1527.2535273303588 -602.1382322427759 -1061.5147586381797 -95.66099824011346 0.0 0.0
-1527.253527330113 -602.1382322425453 -1061.5147586379771 95.66099824014842 0.0 0.0
-1431.2883783940188 -473.2722187062151 -948.7902463639793 61.34655527955082 0.0 0.0
-1313.2436433323905 -357.16846741488484 -831.693304811609 45.76146286519952 0.0 0.0
-1209.9976172992378 -272.18421005943907 -738.1826169848808 40.68699102959883 0.0 0.0
-1137.9156906945566 -226.346526620638 -679.4677179064325 42.018631938214035 0.0 0.0
-1075.9512537225332 -193.94063363540994 -632.1973870306131 44.38534103156923 0.0 0.0
-1016.7585684411386 -165.33971376293508 -588.1223099454737 46.0332781955604 0.0 0.0
-958.428506652452 -137.830833522884 -544.8647250877005 47.41503610631449 0.0 0.0
-900.1246601924536 -111.56181913166006 -501.95268614836425 48.811575792170885 0.0 0.0
-841.9196311193109 -85.72732947350131 -458.62238826324284 50.11932231656874 0.0 0.0
-782.736305111296 -60.98005536820802 -413.7840761132136 50.53250947130111 0.0 0.0
-722.2716768766472 -37.950115743913145 -365.6835038256678 49.71914022519324 0.0 0.0
-659.5798776552563 -18.143103176733938 -311.599544824494 47.9251818716359 0.0 0.0
-593.6775008475851 -4.360185967230425 -250.31564632400793 46.605463792415364 0.0 0.0
-518.5284032521557 10.288336377887248 -180.50105666847958 51.544986588159475 0.0 0.0
-423.2296966024585 15.081215198845129 -124.9003325373077 65.9175147888125 0.0 0.0
-315.7570088203009 3.768765539643239 -93.5824955465978 79.57538503098844 0.0 0.0
-208.62903687201447 0.6353520889906252 -62.39810543490715 87.00013511704309 0.0 0.0
-104.92703076931909 -12.112562611574859 -35.111878014268186 74.07629618108164 0.0 0.0
-26.54269479011485 -13.775483036592483 -12.0954533480122 28.913829339436937 0.0 0.0
-24.21282094882276 -2.725547624780352 -8.081510572080933 -14.714577735574196 0.0 0.0
-106.13255192161547 -4.5819402381194845 -33.214347647920484 -48.348900172986774 0.0 0.0
-226.6744863823931 0.42156733785237854 -67.8758757133622 -57.762592484360376 0.0 0.0
-351.6642732822529 1.3388869518585809 -105.0568081971566 -51.708651343562394 0.0 0.0
-463.65132454210357 16.4392673032246 -141.029848971592 -39.60637166556501 0.0 0.0
-548.4738338806736 3.631336042924051 -206.92012858438972 -28.690988862494944 0.0 0.0
-619.7489602582655 -5.8265472810033 -273.03297347585647 -27.573935610058776 0.0 0.0
-684.0617131512223 -21.313369559225983 -331.77660824743987 -28.95122098296781 0.0 0.0
-747.2685977058059 -42.76877682804485 -384.26537201633255 -30.544652840758395 0.0 0.0
-810.1244184272332 -68.38591450711235 -433.14725839660207 -31.429548010444766 0.0 0.0
-872.7180601046532 -96.44783550075766 -480.4502737907262 -31.38061717378543 0.0 0.0
-935.1452615487644 -125.61362926618241 -527.1141805540046 -30.70419859542856 0.0 0.0
-997.4389916024877 -156.2759433840969 -573.9955194019058 -29.8768181842617 0.0 0.0
-1061.0372252364466 -188.3636817289925 -622.0452410305904 -29.09753492549124 0.0 0.0
-1126.6426624301168 -223.0319848587883 -672.2907754695552 -27.981460226363126 0.0 0.0
-1193.8331321004207 -260.9998483764846 -724.9271849790148 -25.761198594895944 0.0 0.0
-1262.7160493287802 -303.90037351640973 -780.7704488744745 -22.5572451494635 0.0 0.0
-1346.970594660001 -368.60740676369073 -854.569727953201 -24.472713459196314 0.0 0.0
-1505.8867991179418 -522.2776078865068 -1010.3489949003829 -42.88391701379902 0.0 0.0
-1636.720759018037 -682.3850092883263 -1156.8437254590935 -85.73979729497236 0.0 0.0
-1636.7207590179007 -682.3850092881967 -1156.8437254590128 85.73979729495876 0.0 0.0
-1505.886799117295 -522.2776078858795 -1010.3489948998995 42.88391701381859 0.0 0.0
-1346.9705946597933 -368.6074067635358 -854.5697279529662 24.47271345924458 0.0 0.0
-1262.716049328387 -303.9003735160882 -780.770448874196 22.55724514949059 0.0 0.0
-1193.833132100166 -260.99984837631166 -724.9271849787425 25.76119859489332 0.0 0.0
-1126.642662429918 -223.03198485869112 -672.2907754693542 27.9814602263652 0.0 0.0
-1061.0372252364716 -188.363681729144 -622.0452410305304 29.097534925497314 0.0 0.0
-997.4389916024735 -156.2759433842435 -573.9955194018571 29.876818184279706 0.0 0.0
-935.145261548286 -125.61362926587672 -527.11418055365 30.704198595397948 0.0 0.0
-872.7180601041646 -96.44783550046566 -480.4502737903398 31.380617173743296 0.0 0.0
-810.1244184268652 -68.38591450695607 -433.1472583962976 31.429548010416966 0.0 0.0
-747.2685977053131 -42.76877682779099 -384.26537201594954 30.544652840763348 0.0 0.0
-684.0617131508257 -21.313369559078172 -331.77660824706777 28.95122098294398 0.0 0.0
-619.7489602578831 -5.826547280913143 -273.03297347545623 27.573935610024684 0.0 0.0
-548.4738338804192 3.6313360428373205 -206.92012858412448 28.690988862469943 0.0 0.0
-463.6513245416658 16.43926730330676 -141.02984897136835 39.60637166552485 0.0 0.0
-351.66427328209227 1.3388869515910224 -105.05680819719362 51.70865134356661 0.0 0.0
-226.67448638221074 0.42156733778412736 -67.87587571332797 57.762592484381734 0.0 0.0
-106.13255192150466 -4.581940238084192 -33.21434764787664 48.348900173008126 0.0 0.0
-24.212820948839905 -2.7255476248212513 -8.081510572098345 14.714577735614762 0.0 0.0
-17.464811656455872 2.531368131387616 -4.480033057520476 -1.8806791745211542 0.0 0.0
-101.32960951190505 1.5155706129596815 -29.9442116696836 -19.74552589554556 0.0 0.0
-244.4955710795037 -0.7281271575985748 -73.56710947113065 -22.753845351565815 0.0 0.0
-390.37178772439734 2.1732236214281677 -116.43559174238513 -20.979356075221368 0.0 0.0
-499.7778240690675 14.499422833474766 -160.07219085335726 -13.86060248645474 0.0 0.0
-576.42799792675 -0.30414074695848825 -230.7676910179294 -8.99192960688644 0.0 0.0
-640.5996636382653 -7.688211748309612 -292.0548506941998 -9.115028497405012 0.0 0.0
-704.2424038442971 -24.485351416058386 -348.29329185740824 -9.945565639061904 0.0 0.0
-768.5293932709185 -47.6434740645539 -399.9861863899224 -11.015527382554026 0.0 0.0
-833.9522909458032 -75.64126463204803 -450.0920619280545 -11.752541523346475 0.0 0.0
-899.9813048408018 -106.49416799276838 -499.86403434492865 -12.055944350443616 0.0 0.0
-966.2622649812037 -139.9519059328079 -550.2941762944196 -11.980470476518564 0.0 0.0
-1033.294889413888 -174.4423756163332 -601.316209128142 -11.825309751579725 0.0 0.0
-1102.165749181031 -211.08852235206635 -654.1961273787015 -11.604859337546419 0.0 0.0
-1173.9653128419661 -251.74897984853786 -710.4781867770553 -11.08075431018994 0.0 0.0
-1247.8526031915035 -296.69201573340393 -769.9003066958785 -9.878651635942028 0.0 0.0
-1319.473782183107 -343.19121408404646 -828.9479453322992 -7.336564639970243 0.0 0.0
-1385.0641642412315 -389.43317904103617 -884.6506929556178 -4.843238262821883 0.0 0.0
-1473.7922159258408 -468.53649266778723 -967.4228205802972 -17.693123723299117 0.0 0.0
-1828.6215893519652 -843.1671750882459 -1333.2105559169847 -68.71218619085319 0.0 0.0
-1828.621589352027 -843.1671750883289 -1333.2105559170286 68.71218619089763 0.0 0.0
-1473.7922159250759 -468.53649266705145 -967.4228205797433 17.693123723304517 0.0 0.0
-1385.064164240509 -389.4331790403609 -884.6506929550357 4.843238262885751 0.0 0.0
-1319.4737821822996 -343.1912140833099 -828.9479453316368 7.336564639987156 0.0 0.0
-1247.8526031914043 -296.69201573339234 -769.9003066957564 9.878651635927632 0.0 0.0
-1173.9653128412306 -251.74897984790266 -710.4781867764208 11.080754310248594 0.0 0.0
-1102.1657491803267 -211.08852235147745 -654.196127378094 11.604859337496464 0.0 0.0
-1033.2948894128936 -174.4423756154895 -601.316209127343 11.825309751643777 0.0 0.0
-966.2622649802804 -139.9519059320567 -550.2941762936731 11.980470476514169 0.0 0.0
-899.981304839851 -106.49416799200903 -499.86403434420515 12.055944350436395 0.0 0.0
-833.9522909451547 -75.64126463161821 -450.09206192756693 11.752541523286599 0.0 0.0
-768.5293932706757 -47.64347406454321 -399.98618638970765 11.015527382561476 0.0 0.0
-704.2424038440242 -24.485351416036742 -348.2932918571494 9.94556563904943 0.0 0.0
-640.599663637985 -7.688211748314096 -292.0548506939134 9.115028497437395 0.0 0.0
-576.42799792665 -0.30414074718344963 -230.7676910177466 8.991929606938362 0.0 0.0
-499.7778240686925 14.499422833504378 -160.07219085312164 13.860602486481614 0.0 0.0
-390.37178772391144 2.173223621604614 -116.43559174220431 20.979356075193383 0.0 0.0
-244.4955710791794 -0.7281271574107979 -73.56710947097704 22.753845351574352 0.0 0.0
-101.32960951186567 1.5155706128789461 -29.944211669696017 19.745525895475105 0.0 0.0
-17.464811656515657 2.5313681312712557 -4.480033057573319 1.8806791744998042 0.0 0.0
SCALARS Strain float 6
LOOKUP_TABLE default
0.0087498274090805 -0.00983504193088 0.0 -0.005299016594730727 0.0 0.0
0.0019322782540043895 -0.0009338662692067179 0.0 0.0009458102934820911 0.0 0.0
0.0016977682734128363 -0.0007106756428991168 0.0 -7.884117320525186e-05 0.0 0.0
0.002022358032019153 -0.0008967360158743665 0.0 -0.0001645885832477767 0.0 0.0
0.0027590194295947362 -0.0014289379885380482 0.0 -0.00019391404323138017 0.0 0.0
0.004234300465386179 -0.0026252014905381316 0.0 -0.00025973210882501707 0.0 0.0
0.0064349535836304185 -0.00455754092341798 0.0 -0.0003784351249196405 0.0 0.0
0.009431247909056955 -0.007278223965259123 0.0 -0.0005443123611206524 0.0 0.0
0.013261328578681328 -0.010829070345406588 0.0 -0.0007593028667011725 0.0 0.0
0.01795913305218881 -0.01524018687251294 0.0 -0.001006718569721926 0.0 0.0
0.02362820481961904 -0.02061603042470117 0.0 -0.001258940056559521 0.0 0.0
0.030452765045019165 -0.027139041177075107 0.0 -0.001535065272092323 0.0 0.0
0.03862785612333369 -0.03500735256256671 0.0 -0.0018458625703348108 0.0 0.0
0.04830085447184175 -0.044364286166088895 0.0 -0.002192781848197503 0.0 0.0
0.05944365636605986 -0.05517530854334041 0.0 -0.002584013540519403 0.0 0.0
0.07168680729709644 -0.06707162573591119 0.0 -0.0029554799100926787 0.0 0.0
0.08424639048756852 -0.07927978965341254 0.0 -0.0031463116927724355 0.0 0.0
0.09597409124619644 -0.09067142295191366 0.0 -0.0029289328314633933 0.0 0.0
0.10550820490539017 -0.09990800964538704 0.0 -0.0022826485346068015 0.0 0.0
0.1112684996567499 -0.10535548297410946 0.0 -0.0018718894985392809 0.0 0.0
0.11126849965674582 -0.10535548297410613 0.0 0.001871889498542445 0.0 0.0
0.10550820490537469 -0.09990800964537372 0.0 0.0022826485346181813 0.0 0.0
0.09597409124616858 -0.09067142295188813 0.0 0.0029289328314700547 0.0 0.0
0.08424639048753464 -0.07927978965337834 0.0 0.003146311692777237 0.0 0.0
0.07168680729705892 -0.06707162573587477 0.0 0.002955479910088432 0.0 0.0
0.05944365636602286 -0.05517530854330466 0.0 0.002584013540519625 0.0 0.0
0.04830085447180413 -0.044364286166052924 0.0 0.002192781848196712 0.0 0.0
0.038627856123294085 -0.03500735256252896 0.0 0.0018458625703355325 0.0 0.0
0.030452765044980318 -0.027139041177038914 0.0 0.0015350652720900193 0.0 0.0
0.02362820481958436 -0.020616030424667864 0.0 0.0012589400565592435 0.0 0.0
0.017959133052159404 -0.01524018687248585 0.0 0.0010067185697189007 0.0 0.0
0.013261328578658 -0.01082907034538394 0.0 0.0007593028667004509 0.0 0.0
0.009431247909038126 -0.007278223965241248 0.0 0.0005443123611190703 0.0 0.0
0.006434953583617148 -0.004557540923405878 0.0 0.0003784351249188911 0.0 0.0
0.004234300465377733 -0.002625201490531137 0.0 0.00025973210882360154 0.0 0.0
0.0027590194295909476 -0.0014289379885350506 0.0 0.00019391404323290673 0.0 0.0
0.0020223580320180568 -0.0008967360158733673 0.0 0.00016458858324824854 0.0 0.0
0.0016977682734123367 -0.0007106756428991168 0.0 7.884117320533512e-05 0.0 0.0
0.0019322782540033556 -0.0009338662692057742 0.0 -0.0009458102934798707 0.0 0.0
0.008749827409071737 -0.009835041930868253 0.0 0.005299016594705913 0.0 0.0
0.006023603751511213 -0.007460108219931955 0.0 -0.006253237439885345 0.0 0.0
0.001085260204742363 -0.0004701564412138426 0.0 0.00018374684440744526 0.0 0.0
0.0014640844912226156 -0.0005529748664355738 0.0 -0.00013430241297768264 0.0 0.0
0.0018057877469734654 -0.000785636855882621 0.0 -0.00041544377761673634 0.0 0.0
0.002394166207657287 -0.0011671109385378298 0.0 -0.0004650135441517378 0.0 0.0
0.003656515133543252 -0.002146420372508784 0.0 -0.000631354120295774 0.0 0.0
0.00563538998892411 -0.0038424098517966243 0.0 -0.0009423758209053945 0.0 0.0
0.008348596988792811 -0.0062750630337877755 0.0 -0.0013494691469188858 0.0 0.0
0.01181030775912284 -0.009461864968758782 0.0 -0.0018449769185923948 0.0 0.0
0.016032008590587676 -0.013409070224506658 0.0 -0.0023970561391973844 0.0 0.0
0.021089811778223402 -0.018191099102757846 0.0 -0.0029640711151415755 0.0 0.0
0.027148420189265457 -0.023972724059090122 0.0 -0.0035404324191500858 0.0 0.0
0.03442738084488994 -0.03097033222391188 0.0 -0.0042088824546229475 0.0 0.0
0.04309023002127263 -0.03934290672784191 0.0 -0.0050072089447166235 0.0 0.0
0.05311943082675811 -0.04906858924583135 0.0 -0.0058945692596372445 0.0 0.0
0.06419589546241986 -0.05982867194042574 0.0 -0.0067376036334596545 0.0 0.0
0.07562743523159798 -0.07093912627493038 0.0 -0.007187123891313624 0.0 0.0
0.0863811117335295 -0.08138056948758243 0.0 -0.006816256193501624 0.0 0.0
0.09513747668265572 -0.0898328718788528 0.0 -0.005537058597307243 0.0 0.0
0.1003351813790625 -0.0948116008408435 0.0 -0.00331713367562414 0.0 0.0
0.10033518137905816 -0.09481160084083684 0.0 0.0033171336756359637 0.0 0.0
0.0951374766826414 -0.08983287187883682 0.0 0.005537058597330002 0.0 0.0
0.08638111173350549 -0.08138056948756045 0.0 0.006816256193517445 0.0 0.0
0.07562743523156894 -0.07093912627490417 0.0 0.007187123891322422 0.0 0.0
0.06419589546238659 -0.05982867194039643 0.0 0.006737603633456102 0.0 0.0
0.05311943082672446 -0.0490685892457996 0.0 0.005894569259636884 0.0 0.0
0.04309023002123891 -0.039342906727811044 0.0 0.005007208944716068 0.0 0.0
0.03442738084485483 -0.030970332223881236 0.0 0.004208882454622309 0.0 0.0
0.02714842018923108 -0.023972724059058814 0.0 0.0035404324191446457 0.0 0.0
0.021089811778192163 -0.018191099102730313 0.0 0.00296407111513719 0.0 0.0
0.016032008590561364 -0.013409070224482234 0.0 0.0023970561391915 0.0 0.0
0.011810307759101552 -0.00946186496873902 0.0 0.0018449769185886478 0.0 0.0
0.008348596988775853 -0.006275063033774342 0.0 0.0013494691469141396 0.0 0.0
0.005635389988912165 -0.0038424098517867433 0.0 0.0009423758209030075 0.0 0.0
0.003656515133536431 -0.0021464203725019004 0.0 0.0006313541202929984 0.0 0.0
0.0023941662076543413 -0.0011671109385347211 0.0 0.00046501354415076634 0.0 0.0
0.0018057877469725148 -0.0007856368558818994 0.0 0.0004154437776162645 0.0 0.0
0.001464084491222345 -0.0005529748664356293 0.0 0.00013430241297709977 0.0 0.0
0.0010852602047423943 -0.00047015644121273237 0.0 -0.0001837468444088608 0.0 0.0
0.006023603751501128 -0.0074601082199197595 0.0 0.006253237439864917 0.0 0.0
0.004366123842612039 -0.005908618778699359 0.0 -0.005769077854478777 0.0 0.0
0.0006437632501098516 -0.0002950958210155563 0.0 -0.0004889696320335701 0.0 0.0
0.0011735835143622877 -0.0004060152514067106 0.0 -0.0003940194177474432 0.0 0.0
0.001588550809627054 -0.0006716269067347236 0.0 -0.0006503958849766178 0.0 0.0
0.002073045035468773 -0.0009563941868497849 0.0 -0.0007324964385869992 0.0 0.0
0.00309201446075226 -0.0016991953215086397 0.0 -0.0009246525071850697 0.0 0.0
0.0048321565324702075 -0.0031368215120624043 0.0 -0.001366556765206639 0.0 0.0
0.007252348451934728 -0.005275167553495885 0.0 -0.0019804411999414795 0.0 0.0
0.01033969868028715 -0.008088306682729973 0.0 -0.002702551406855047 0.0 0.0
0.014085540797595168 -0.011570766318801162 0.0 -0.003493916598539204 0.0 0.0
0.018541997927927812 -0.015769894027832132 0.0 -0.004310732106315107 0.0 0.0
0.023852665167590187 -0.020826103184452327 0.0 -0.005141503962344363 0.0 0.0
0.030229724405988374 -0.026946664343031834 0.0 -0.006065748587909314 0.0 0.0
0.037859014966216124 -0.034311562541402996 0.0 -0.00719539588775725 0.0 0.0
0.04674947365367345 -0.04292783278719914 0.0 -0.008493194783274927 0.0 0.0
0.056638450529136256 -0.05253212772295135 0.0 -0.009707971796913933 0.0 0.0
0.06694260037878466 -0.06254593096265681 0.0 -0.010389727224062867 0.0 0.0
0.07674188060201359 -0.07205083598222362 0.0 -0.009993737592141505 0.0 0.0
0.08478395384470094 -0.07981901273085934 0.0 -0.008123259735258959 0.0 0.0
0.08967727658657633 -0.08452599112939696 0.0 -0.004433039072216982 0.0 0.0
0.0896772765865719 -0.08452599112939141 0.0 0.0044330390722368 0.0 0.0
0.08478395384468802 -0.0798190127308489 0.0 0.008123259735289212 0.0 0.0
0.07674188060199254 -0.07205083598220585 0.0 0.009993737592162655 0.0 0.0
0.06694260037875945 -0.0625459309626315 0.0 0.010389727224072276 0.0 0.0
0.056638450529107154 -0.052532127722923594 0.0 0.009707971796910797 0.0 0.0
0.04674947365364335 -0.04292783278717227 0.0 0.008493194783273761 0.0 0.0
0.037859014966186155 -0.034311562541374796 0.0 0.007195395887755529 0.0 0.0
0.03022972440595778 -0.026946664343002302 0.0 0.00606574858790726 0.0 0.0
0.0238526651675601 -0.02082610318442546 0.0 0.005141503962336813 0.0 0.0
0.01854199792790026 -0.015769894027807263 0.0 0.004310732106309334 0.0 0.0
0.014085540797571516 -0.011570766318778292 0.0 0.0034939165985305443 0.0 0.0
0.010339698680268183 -0.00808830668271221 0.0 0.0027025514068498846 0.0 0.0
0.007252348451919632 -0.005275167553481563 0.0 0.0019804411999371496 0.0 0.0
0.004832156532459775 -0.0031368215120545218 0.0 0.0013665567652044186 0.0 0.0
0.0030920144607467503 -0.0016991953215057531 0.0 0.0009246525071824885 0.0 0.0
0.002073045035466514 -0.0009563941868491188 0.0 0.000732496438585889 0.0 0.0
0.0015885508096265266 -0.0006716269067349456 0.0 0.0006503958849763125 0.0 0.0
0.001173583514362364 -0.0004060152514074322 0.0 0.0003940194177461942 0.0 0.0
0.0006437632501101187 -0.0002950958210147514 0.0 0.0004889696320320991 0.0 0.0
0.004366123842602626 -0.005908618778688125 0.0 0.005769077854462595 0.0 0.0
0.0032370280065302445 -0.0047483004788458905 0.0 -0.004894715036399183 0.0 0.0
0.0004032203956990804 -0.00022711579259837578 0.0 -0.0010592390913475858 0.0 0.0
0.0009052985858886836 -0.00028958221644470594 0.0 -0.0007420732454471446 0.0 0.0
0.0013561411655064887 -0.0005562785807737836 0.0 -0.0009034402411333409 0.0 0.0
0.0017859517567342317 -0.0007955022224375163 0.0 -0.0010091029184812472 0.0 0.0
0.00257466227901499 -0.0013209853320965692 0.0 -0.0011692649311621228 0.0 0.0
0.004028115868270017 -0.002461238694510315 0.0 -0.0016566696264400937 0.0 0.0
0.006151124009961137 -0.004286487185260146 0.0 -0.002430921909202327 0.0 0.0
0.008857939323939627 -0.006721564057614593 0.0 -0.003325298733630383 0.0 0.0
0.012128934593224082 -0.009738544083754519 0.0 -0.004298405259611032 0.0 0.0
0.015992542743228352 -0.01336118284515564 0.0 -0.005295121294792787 0.0 0.0
0.020567556923577042 -0.01770210376692405 0.0 -0.0063108890330657585 0.0 0.0
0.02605145601453121 -0.022954518170039684 0.0 -0.007447816734254875 0.0 0.0
0.03263475025139544 -0.029298642242611583 0.0 -0.008791010229522722 0.0 0.0
0.04035864620789652 -0.03677766594886678 0.0 -0.010331517654022654 0.0 0.0
0.04903476247517368 -0.045202687601708647 0.0 -0.01183465009735174 0.0 0.0
0.05819234876252061 -0.05409943422358787 0.0 -0.012749443699914542 0.0 0.0
0.06703512647418094 -0.0626757503047306 0.0 -0.012389891707268619 0.0 0.0
0.07444870912791403 -0.06984237020492445 0.0 -0.010110043559525106 0.0 0.0
0.07916990654784395 -0.07439365817758858 0.0 -0.005359671676046507 0.0 0.0
0.07916990654783991 -0.07439365817758148 0.0 0.005359671676072708 0.0 0.0
0.07444870912790182 -0.0698423702049138 0.0 0.010110043559559412 0.0 0.0
0.06703512647416267 -0.06267575030471328 0.0 0.01238989170729321 0.0 0.0
0.0581923487624984 -0.05409943422356611 0.0 0.012749443699926477 0.0 0.0
0.0490347624751486 -0.04520268760168489 0.0 0.011834650097349297 0.0 0.0
0.04035864620786998 -0.03677766594883902 0.0 0.010331517654019129 0.0 0.0
0.032634750251369304 -0.029298642242585604 0.0 0.008791010229519836 0.0 0.0
0.026051456014504953 -0.02295451817001637 0.0 0.007447816734253154 0.0 0.0
0.020567556923551084 -0.017702103766898958 0.0 0.006310889033058598 0.0 0.0
0.01599254274320472 -0.013361182845131658 0.0 0.005295121294786154 0.0 0.0
0.012128934593203411 -0.009738544083735645 0.0 0.0042984052596007905 0.0 0.0
0.008857939323923036 -0.006721564057598606 0.0 0.003325298733623916 0.0 0.0
0.0061511240099480224 -0.004286487185251486 0.0 0.0024309219091961654 0.0 0.0
0.004028115868261295 -0.0024612386945026543 0.0 0.0016566696264366243 0.0 0.0
0.0025746622790108475 -0.0013209853320926834 0.0 0.0011692649311599301 0.0 0.0
0.0017859517567326566 -0.0007955022224365171 0.0 0.001009102918480581 0.0 0.0
0.0013561411655059474 -0.000556278580773617 0.0 0.0009034402411324249 0.0 0.0
0.0009052985858888085 -0.00028958221644426185 0.0 0.0007420732454445633 0.0 0.0
0.0004032203956992886 -0.00022711579259762638 0.0 0.0010592390913451155 0.0 0.0
0.0032370280065220636 -0.004748300478836462 0.0 0.004894715036386471 0.0 0.0
0.0024033212782663266 -0.003812893748717322 0.0 -0.004016155850377484 0.0 0.0
0.00026609614239492957 -0.0002033671162153805 0.0 -0.001500285968816767 0.0 0.0
0.0006764358988739436 -0.00020290054694543924 0.0 -0.001099704375559285 0.0 0.0
0.0011143812899593389 -0.0004412954385409895 0.0 -0.001170564203061275 0.0 0.0
0.0015133495867563351 -0.0006578104846285404 0.0 -0.0012829124304369055 0.0 0.0
0.002118036284304979 -0.0010205870870730882 0.0 -0.0014175917195363152 0.0 0.0
0.0032576719711742627 -0.0018461285612046963 0.0 -0.0018355943656669094 0.0 0.0
0.005045153346855735 -0.00331796205888657 0.0 -0.002659936944650443 0.0 0.0
0.0073738406330905795 -0.005373993157758106 0.0 -0.0037041909090073377 0.0 0.0
0.010170346300432953 -0.007923668393467365 0.0 -0.004800732995279694 0.0 0.0
0.013449445839307503 -0.01097563935574053 0.0 -0.005919722848230169 0.0 0.0
0.017300823453313893 -0.014613037115340344 0.0 -0.007051651512948676 0.0 0.0
0.021901262537107058 -0.019003486978008688 0.0 -0.008300106127508367 0.0 0.0
0.027437685552849478 -0.024328356660450634 0.0 -0.009789189015619565 0.0 0.0
0.03398117594242397 -0.030656282047986982 0.0 -0.011475280570297869 0.0 0.0
0.04141221644174895 -0.03786597939123704 0.0 -0.013101987469801374 0.0 0.0
0.04937844892414941 -0.04560621047218372 0.0 -0.01419471400892286 0.0 0.0
0.0572492187613908 -0.05324367990823409 0.0 -0.013975855062937748 0.0 0.0
0.06408271553335926 -0.05985549863865147 0.0 -0.011543620764664364 0.0 0.0
0.06871939716869828 -0.0643305094212594 0.0 -0.006143151728395857 0.0 0.0
0.06871939716869495 -0.06433050942125318 0.0 0.0061431517284230575 0.0 0.0
0.06408271553334732 -0.059855498638641924 0.0 0.01154362076469867 0.0 0.0
0.05724921876137555 -0.053243679908219876 0.0 0.013975855062963727 0.0 0.0
0.04937844892413022 -0.04560621047216595 0.0 0.014194714008935683 0.0 0.0
0.041412216441727545 -0.037865979391215054 0.0 0.013101987469800402 0.0 0.0
0.033981175942400965 -0.030656282047965444 0.0 0.011475280570293844 0.0 0.0
0.02743768555282762 -0.024328356660429762 0.0 0.009789189015616928 0.0 0.0
0.02190126253708498 -0.01900348697798604 0.0 0.008300106127505424 0.0 0.0
0.01730082345329194 -0.014613037115318583 0.0 0.007051651512941293 0.0 0.0
0.013449445839287602 -0.010975639355721656 0.0 0.005919722848221065 0.0 0.0
0.01017034630041562 -0.00792366839345271 0.0 0.004800732995269563 0.0 0.0
0.007373840633076098 -0.005373993157745005 0.0 0.003704190909000149 0.0 0.0
0.005045153346844869 -0.0033179620588768 0.0 0.00265993694464442 0.0 0.0
0.0032576719711673585 -0.0018461285612001443 0.0 0.0018355943656638563 0.0 0.0
0.0021180362843020023 -0.0010205870870703126 0.0 0.0014175917195338728 0.0 0.0
0.0015133495867551416 -0.0006578104846272081 0.0 0.001282912430434796 0.0 0.0
0.001114381289958749 -0.000441295438540823 0.0 0.0011705642030603314 0.0 0.0
0.0006764358988739644 -0.00020290054694560578 0.0 0.0010997043755569536 0.0 0.0
0.0002660961423949365 -0.0002033671162148254 0.0 0.0015002859688144354 0.0 0.0
0.002403321278259818 -0.0038128937487093987 0.0 0.004016155850367437 0.0 0.0
0.0017684522821924675 -0.0030407642091655473 0.0 -0.0032620305796415283 0.0 0.0
0.00017894195727550383 -0.00019563428059893306 0.0 -0.0018241731392442395 0.0 0.0
0.000481906456588764 -0.00013693244702150942 0.0 -0.0014239941684197344 0.0 0.0
0.0008717782311772684 -0.0003284402172295531 0.0 -0.001430241407893884 0.0 0.0
0.0012405813090088993 -0.0005303485652274897 0.0 -0.0015458928005199768 0.0 0.0
0.0017064333350548383 -0.0007892258838755328 0.0 -0.001679613399018981 0.0 0.0
0.00255768899782665 -0.0013394450416542858 0.0 -0.002010006339700915 0.0 0.0
0.003962080459003314 -0.002417968973986495 0.0 -0.0027323706917196933 0.0 0.0
0.005889434642668077 -0.004055247941838314 0.0 -0.00379908340304444 0.0 0.0
0.008219012395488737 -0.006141205940842331 0.0 -0.004986171400969824 0.0 0.0
0.010918893768060267 -0.008626997052987528 0.0 -0.006164441554412287 0.0 0.0
0.014060616097831283 -0.011570779927924102 0.0 -0.007349956381980521 0.0 0.0
0.017791849608899388 -0.015112663534099458 0.0 -0.00864555115274887 0.0 0.0
0.022285001344612698 -0.019419263102594897 0.0 -0.01015152308217837 0.0 0.0
0.027639890353892888 -0.02458734021899489 0.0 -0.011866969393355381 0.0 0.0
0.03380132078833208 -0.030559561235926624 0.0 -0.013559983492844319 0.0 0.0
0.040524077096511735 -0.037090929058865685 0.0 -0.014731826461093667 0.0 0.0
0.04736804802379793 -0.04374055910968089 0.0 -0.014671528695407277 0.0 0.0
0.053621655033739044 -0.049800391439793756 0.0 -0.01238398726822526 0.0 0.0
0.0582354448666806 -0.0542554668947095 0.0 -0.006793241520820503 0.0 0.0
0.058235444866677435 -0.05425546689470728 0.0 0.006793241520847648 0.0 0.0
0.0536216550337284 -0.04980039143978199 0.0 0.012383987268259622 0.0 0.0
0.047368048023785206 -0.043740559109667565 0.0 0.014671528695434088 0.0 0.0
0.04052407709649583 -0.03709092905885303 0.0 0.014731826461104547 0.0 0.0
0.033801320788314285 -0.030559561235914634 0.0 0.01355998349284171 0.0 0.0
0.027639890353873514 -0.024587340218981346 0.0 0.011866969393349691 0.0 0.0
0.022285001344595032 -0.01941926310257669 0.0 0.010151523082175373 0.0 0.0
0.017791849608881555 -0.015112663534081472 0.0 0.008645551152745845 0.0 0.0
0.014060616097813408 -0.011570779927905894 0.0 0.007349956381973832 0.0 0.0
0.010918893768044072 -0.008626997052969765 0.0 0.006164441554403044 0.0 0.0
0.00821901239547465 -0.006141205940829675 0.0 0.004986171400958639 0.0 0.0
0.0058894346426561495 -0.004055247941829654 0.0 0.0037990834030370846 0.0 0.0
0.003962080458994932 -0.0024179689739790566 0.0 0.002732370691714253 0.0 0.0
0.002557688997821453 -0.0013394450416509551 0.0 0.002010006339698417 0.0 0.0
0.0017064333350527705 -0.0007892258838748667 0.0 0.001679613399016705 0.0 0.0
0.0012405813090080736 -0.0005303485652266016 0.0 0.0015458928005178396 0.0 0.0
0.0008717782311769007 -0.0003284402172291645 0.0 0.0014302414078916914 0.0 0.0
0.00048190645658865994 -0.00013693244702184248 0.0 0.001423994168416931 0.0 0.0
0.00017894195727534423 -0.0001956342805984057 0.0 0.001824173139241797 0.0 0.0
0.001768452282187527 -0.0030407642091594012 0.0 0.003262030579634284 0.0 0.0
0.0012812275810969304 -0.0023988858863217 0.0 -0.002655824170397142 0.0 0.0
0.00011373425549228433 -0.00019543054423681872 0.0 -0.0020499980561253517 0.0 0.0
0.0003111742239530549 -8.151633714686968e-05 0.0 -0.001695899157429459 0.0 0.0
0.0006347160995230153 -0.00021965432424819742 0.0 -0.0016677821869748033 0.0 0.0
0.0009588262584696444 -0.00040275968224023906 0.0 -0.0017865102180939507 0.0 0.0
0.0013242517261328399 -0.0005923910352865214 0.0 -0.001913536189138254 0.0 0.0
0.0019258328253846102 -0.0009325790572108916 0.0 -0.0021662626229511928 0.0 0.0
0.00294970490630745 -0.0016390912654102863 0.0 -0.0027276987448017764 0.0 0.0
0.004428273541899119 -0.0028134851917844816 0.0 -0.0036461910704043976 0.0 0.0
0.006278657894412794 -0.004408300980693447 0.0 -0.0048086847375219954 0.0 0.0
0.008407131614396733 -0.006332046676968961 0.0 -0.006013471514785124 0.0 0.0
0.010853285033559673 -0.008592437110310547 0.0 -0.007193374899199939 0.0 0.0
0.013732662771446032 -0.011300469327952145 0.0 -0.008454004268483695 0.0 0.0
0.017198325172814853 -0.014602095102482338 0.0 -0.009897927690562025 0.0 0.0
0.02135728899808724 -0.01860426344728694 0.0 -0.011522111468638019 0.0 0.0
0.02622460570912015 -0.02331027559029142 0.0 -0.013138973729108216 0.0 0.0
0.03165548160229836 -0.028585267902939027 0.0 -0.014344709928864163 0.0 0.0
0.0373901012435099 -0.034170619419469306 0.0 -0.014488043032496067 0.0 0.0
0.04299735048808703 -0.039619565435732085 0.0 -0.012592282964770718 0.0 0.0
0.047617853535981136 -0.044079951992242794 0.0 -0.007299232062226602 0.0 0.0
0.0476178535359784 -0.04407995199223924 0.0 0.007299232062251304 0.0 0.0
0.0429973504880784 -0.03961956543572964 0.0 0.012592282964804136 0.0 0.0
0.03739010124349906 -0.03417061941946198 0.0 0.014488043032521825 0.0 0.0
0.03165548160228568 -0.028585267902925482 0.0 0.014344709928872434 0.0 0.0
0.02622460570910591 -0.023310275590277874 0.0 0.013138973729105663 0.0 0.0
0.02135728899807174 -0.01860426344727406 0.0 0.011522111468631968 0.0 0.0
0.017198325172801246 -0.014602095102471901 0.0 0.009897927690557862 0.0 0.0
0.013732662771432869 -0.011300469327942375 0.0 0.008454004268480309 0.0 0.0
0.010853285033545906 -0.008592437110299889 0.0 0.007193374899193028 0.0 0.0
0.00840713161438418 -0.006332046676960079 0.0 0.006013471514775159 0.0 0.0
0.006278657894401851 -0.004408300980683011 0.0 0.0048086847375099495 0.0 0.0
0.004428273541890113 -0.00281348519177671 0.0 0.003646191070397542 0.0 0.0
0.0029497049063014757 -0.0016390912654057344 0.0 0.002727698744796836 0.0 0.0
0.001925832825381113 -0.0009325790572081161 0.0 0.0021662626229488058 0.0 0.0
0.0013242517261315007 -0.0005923910352853001 0.0 0.0019135361891363112 0.0 0.0
0.0009588262584691309 -0.00040275968224012804 0.0 0.001786510218092674 0.0 0.0
0.0006347160995226614 -0.00021965432424769782 0.0 0.0016677821869719722 0.0 0.0
0.0003111742239528814 -8.151633714625905e-05 0.0 0.0016958991574266558 0.0 0.0
0.00011373425549207616 -0.00019543054423656891 0.0 0.002049998056122937 0.0 0.0
0.0012812275810935303 -0.00239888588631699 0.0 0.002655824170391341 0.0 0.0
0.0009155814343670965 -0.0018844552569531325 0.0 -0.002207867290889731 0.0 0.0
5.2044988215052546e-05 -0.0001951513872687216 0.0 -0.002185396540520329 0.0 0.0
0.0001563323841398817 -2.9456371772429435e-05 0.0 -0.0019140874196584001 0.0 0.0
0.0004056122977711407 -0.00011687717707498102 0.0 -0.0018702920621978536 0.0 0.0
0.0006685438381638514 -0.0002681271480953207 0.0 -0.0019839084416384267 0.0 0.0
0.0009496688650040691 -0.00041961521530442525 0.0 -0.002143219464910223 0.0 0.0
0.0013529470367507623 -0.0006200395361084521 0.0 -0.002345807799926991 0.0 0.0
0.0020266439109500045 -0.001007295917736739 0.0 -0.0026985067686003394 0.0 0.0
0.0030390073937547057 -0.0017198676392471413 0.0 -0.0033518655117705243 0.0 0.0
0.004369028911752823 -0.0027813498122171154 0.0 -0.004306595855755768 0.0 0.0
0.0059220323497436445 -0.004123213245345703 0.0 -0.005411706696279439 0.0 0.0
0.007682449389298851 -0.005708133249171521 0.0 -0.006531778422881884 0.0 0.0
0.009732122739457186 -0.007597960866013942 0.0 -0.007709187134843087 0.0 0.0
0.012188854925714573 -0.009909817655649134 0.0 -0.009002848362751892 0.0 0.0
0.015160885965286836 -0.012747449175252834 0.0 -0.010430661818596476 0.0 0.0
0.018707182455347804 -0.016165828141951666 0.0 -0.011873875924833799 0.0 0.0
0.022799966099488755 -0.020130038336501732 0.0 -0.012984805618467932 0.0 0.0
0.027325148567429083 -0.024547801806389824 0.0 -0.013289770955325853 0.0 0.0
0.03214358386479582 -0.029267006073653512 0.0 -0.012058249955919365 0.0 0.0
0.03674868978684208 -0.03371565984492708 0.0 -0.007638387086106868 0.0 0.0
0.036748689786840066 -0.03371565984492442 0.0 0.007638387086126741 0.0 0.0
0.03214358386478977 -0.02926700607364552 0.0 0.012058249955948008 0.0 0.0
0.02732514856742055 -0.024547801806379832 0.0 0.013289770955349778 0.0 0.0
0.022799966099479194 -0.02013003833649174 0.0 0.01298480561847648 0.0 0.0
0.01870718245533738 -0.01616582814194234 0.0 0.011873875924830135 0.0 0.0
0.015160885965275442 -0.01274744917524373 0.0 0.01043066181859087 0.0 0.0
0.012188854925705164 -0.009909817655639364 0.0 0.00900284836274945 0.0 0.0
0.009732122739448582 -0.00759796086600506 0.0 0.007709187134841755 0.0 0.0
0.007682449389289275 -0.0057081332491646375 0.0 0.006531778422874002 0.0 0.0
0.005922032349734929 -0.004123213245338153 0.0 0.005411706696271057 0.0 0.0
0.004369028911745135 -0.00278134981221112 0.0 0.004306595855746276 0.0 0.0
0.003039007393748905 -0.0017198676392444767 0.0 0.00335186551176625 0.0 0.0
0.002026643910946216 -0.0010072959177346297 0.0 0.0026985067685971476 0.0 0.0
0.0013529470367485696 -0.000620039536108008 0.0 0.0023458077999253812 0.0 0.0
0.0009496688650033336 -0.00041961521530486934 0.0 0.0021432194649072533 0.0 0.0
0.0006685438381635045 -0.00026812714809476557 0.0 0.001983908441636262 0.0 0.0
0.0004056122977709048 -0.00011687717707509204 0.0 0.0018702920621960772 0.0 0.0
0.00015633238413954864 -2.9456371772373924e-05 0.0 0.0019140874196565405 0.0 0.0
5.2044988214858257e-05 -0.0001951513872686106 0.0 0.0021853965405181364 0.0 0.0
0.0009155814343648622 -0.0018844552569501922 0.0 0.0022078672908859287 0.0 0.0
0.0006558582122319218 -0.0015049753936972887 0.0 -0.0019277683572878068 0.0 0.0
-1.1918683476788705e-05 -0.00019211970375010434 0.0 -0.002271513958411242 0.0 0.0
1.2733808012546644e-05 2.245820686919142e-05 0.0 -0.0020761329821903096 0.0 0.0
0.00018482301950820124 -1.9683346056731388e-05 0.0 -0.0020289423283108843 0.0 0.0
0.00037446301393513626 -0.00013019329456498419 0.0 -0.00213069694036927 0.0 0.0
0.0005654542342605484 -0.0002420779021516939 0.0 -0.0023124467579892782 0.0 0.0
0.0008112932423150337 -0.000366098707151985 0.0 -0.0025429104844130745 0.0 0.0
0.001188012685360354 -0.0005468529223977558 0.0 -0.002776741788997783 0.0 0.0
0.001762795303897488 -0.0008583183504060621 0.0 -0.003082562466458272 0.0 0.0
0.0025397506590815605 -0.0013732363251408586 0.0 -0.003624597144439745 0.0 0.0
0.0034892342683194855 -0.0020980643805750265 0.0 -0.0044205167319623095 0.0 0.0
0.004554514797703191 -0.002992110544939308 0.0 -0.005345864706519099 0.0 0.0
0.00578978180429239 -0.004072428441974196 0.0 -0.006386772129877649 0.0 0.0
0.00726463997612703 -0.005412676202201316 0.0 -0.007496594763994557 0.0 0.0
0.009061144524195736 -0.007093084088795942 0.0 -0.008676457234942536 0.0 0.0
0.011269671758951591 -0.009199539251472322 0.0 -0.009876523141430282 0.0 0.0
0.0139762356377299 -0.011808209784661239 0.0 -0.010886683204083036 0.0 0.0
0.017223198382864513 -0.014955944943468413 0.0 -0.011238784515886335 0.0 0.0
0.021031009684714275 -0.01873494693034683 0.0 -0.01061276210145784 0.0 0.0
0.02546442055026979 -0.023052795369102874 0.0 -0.007681142483642045 0.0 0.0
0.02546442055026868 -0.023052795369102874 0.0 0.0076811424836592535 0.0 0.0
0.021031009684710694 -0.018734946930341945 0.0 0.010612762101484097 0.0 0.0
0.017223198382858768 -0.014955944943462196 0.0 0.011238784515905764 0.0 0.0
0.01397623563772378 -0.011808209784652801 0.0 0.010886683204087422 0.0 0.0
0.011269671758945346 -0.009199539251467437 0.0 0.009876523141423454 0.0 0.0
0.009061144524188838 -0.007093084088790613 0.0 0.008676457234936763 0.0 0.0
0.0072646399761220615 -0.005412676202193767 0.0 0.007496594763992781 0.0 0.0
0.005789781804287991 -0.004072428441968867 0.0 0.006386772129878426 0.0 0.0
0.004554514797697737 -0.0029921105449361995 0.0 0.005345864706513492 0.0 0.0
0.003489234268314906 -0.0020980643805703636 0.0 0.00442051673195587 0.0 0.0
0.0025397506590773 -0.0013732363251361956 0.0 0.003624597144431585 0.0 0.0
0.0017627953038946154 -0.0008583183504042857 0.0 0.0030825624664564955 0.0 0.0
0.0011880126853584388 -0.0005468529223970897 0.0 0.002776741788995646 0.0 0.0
0.0008112932423138264 -0.00036609870715065274 0.0 0.002542910484411076 0.0 0.0
0.0005654542342602709 -0.00024207790215147185 0.0 0.0023124467579874186 0.0 0.0
0.00037446301393490034 -0.00013019329456387396 0.0 0.0021306969403670217 0.0 0.0
0.00018482301950811797 -1.968334605639832e-05 0.0 0.0020289423283076924 0.0 0.0
1.273380801238011e-05 2.2458206869746533e-05 0.0 0.002076132982187534 0.0 0.0
-1.1918683476871972e-05 -0.00019211970375002108 0.0 0.002271513958409882 0.0 0.0
0.000655858212230534 -0.0015049753936955453 0.0 0.0019277683572862803 0.0 0.0
0.0004755596555570396 -0.0012208383878062057 0.0 -0.0017345494492234104 0.0 0.0
-7.242846380728363e-05 -0.00018220187898293494 0.0 -0.002313865554930128 0.0 0.0
-0.0001219640717744358 7.274439014398615e-05 0.0 -0.0021858006630332827 0.0 0.0
-2.796311835090437e-05 7.316494799336493e-05 0.0 -0.0021369974936158442 0.0 0.0
8.059207756046238e-05 7.0908842061401245e-06 0.0 -0.002221919369634645 0.0 0.0
0.00017343587696651286 -5.938300154229026e-05 0.0 -0.002408294947158912 0.0 0.0
0.00026814099024731475 -0.00011735449873473414 0.0 -0.0026675793844049 0.0 0.0
0.00039388601421987135 -0.00017883311985000816 0.0 -0.0029047181016202406 0.0 0.0
0.0005792449374501657 -0.0002666882440349738 0.0 -0.0031062261646631617 0.0 0.0
0.0008265644009111256 -0.0003919786548387538 0.0 -0.003327439913578867 0.0 0.0
0.0011457064708444709 -0.0005609224742224583 0.0 -0.003695567071263728 0.0 0.0
0.0014999351604041977 -0.0007802841510791136 0.0 -0.004238650075429784 0.0 0.0
0.0019108266287212183 -0.0010595173178837847 0.0 -0.004979914343358094 0.0 0.0
0.0024028190361762153 -0.0014182908569331243 0.0 -0.005914995400673029 0.0 0.0
0.0030218454950010493 -0.0019157573486188184 0.0 -0.007043121247892026 0.0 0.0
0.0038814844337586307 -0.002671241898596133 0.0 -0.008278329158610764 0.0 0.0
0.005173348770397185 -0.0038647221396790332 0.0 -0.009374598467840944 0.0 0.0
0.007130004711870475 -0.005697654776183336 0.0 -0.009837939625097547 0.0 0.0
0.009838953341433532 -0.008291547713251024 0.0 -0.009193778660341101 0.0 0.0
0.013610443937683042 -0.012136242782253337 0.0 -0.007580702646173332 0.0 0.0
0.013610443937683167 -0.012136242782252005 0.0 0.0075807026461856 0.0 0.0
0.009838953341431964 -0.008291547713245695 0.0 0.00919377866036275 0.0 0.0
0.007130004711867574 -0.005697654776179117 0.0 0.009837939625110592 0.0 0.0
0.005173348770395006 -0.0038647221396814757 0.0 0.009374598467841 0.0 0.0
0.0038814844337574095 -0.002671241898596355 0.0 0.00827832915860488 0.0 0.0
0.0030218454949989676 -0.0019157573486181523 0.0 0.007043121247888695 0.0 0.0
0.0024028190361753965 -0.0014182908569340125 0.0 0.00591499540067042 0.0 0.0
0.0019108266287211073 -0.0010595173178840067 0.0 0.004979914343356928 0.0 0.0
0.001499935160403254 -0.0007802841510804459 0.0 0.0042386500754246215 0.0 0.0
0.0011457064708438325 -0.0005609224742229024 0.0 0.003695567071260064 0.0 0.0
0.0008265644009106676 -0.00039197865483897587 0.0 0.003327439913572927 0.0 0.0
0.0005792449374497494 -0.0002666882440347518 0.0 0.0031062261646622735 0.0 0.0
0.00039388601421951053 -0.00017883311984834283 0.0 0.002904718101618853 0.0 0.0
0.00026814099024712046 -0.0001173544987330688 0.0 0.0026675793844020135 0.0 0.0
0.00017343587696672103 -5.938300154295639e-05 0.0 0.002408294947155637 0.0 0.0
8.059207756054565e-05 7.090884205473991e-06 0.0 0.0022219193696316197 0.0 0.0
-2.7963118350862737e-05 7.316494799403106e-05 0.0 0.002136997493613013 0.0 0.0
-0.00012196407177436641 7.27443901442637e-05 0.0 0.0021858006630313676 0.0 0.0
-7.24284638072975e-05 -0.0001822018789830182 0.0 0.0023138655549282405 0.0 0.0
0.00047555965555626245 -0.0012208383878049532 0.0 0.0017345494492220226 0.0 0.0
0.00034927992123100216 -0.0009984259941842877 0.0 -0.0015831018673963249 0.0 0.0
-0.000127625271897025 -0.00016075944362320405 0.0 -0.00230486392130666 0.0 0.0
-0.00024791856854726457 0.00011975920565121534 0.0 -0.0022436154329226465 0.0 0.0
-0.00023301295063661576 0.00016183941977954142 0.0 -0.002191200446149094 0.0 0.0
-0.00020959136268211553 0.00014152146758450446 0.0 -0.0022525043812246792 0.0 0.0
-0.0002198138529710264 0.00012395887560290308 0.0 -0.002419039910748655 0.0 0.0
-0.0002794626043729348 0.00013445901425135354 0.0 -0.0026693914645171124 0.0 0.0
-0.00039408204330897145 0.0001807293173483604 0.0 -0.00290623109171545 0.0 0.0
-0.0005773556967505755 0.00026546321207554513 0.0 -0.0031060311357105075 0.0 0.0
-0.0008248843777891174 0.00039068181033963256 0.0 -0.0033263638209614643 0.0 0.0
-0.0011449131840140375 0.0005612924204416725 0.0 -0.003693610287505311 0.0 0.0
-0.0015059958010391894 0.0007870046194382585 0.0 -0.004236559679550389 0.0 0.0
-0.0019323109766216096 0.0010766866726972246 0.0 -0.004976284641770579 0.0 0.0
-0.0024397136642789613 0.0014411988610938398 0.0 -0.00591504663193021 0.0 0.0
-0.0030063352876350813 0.0018690148201434553 0.0 -0.007062481128969067 0.0 0.0
-0.0035105947711099733 0.0022581770397365197 0.0 -0.008389627880649009 0.0 0.0
-0.0036834187436373955 0.0023842150929598294 0.0 -0.009885224465860765 0.0 0.0
-0.003140441072267991 0.001943624360584817 0.0 -0.01150365995051389 0.0 0.0
-0.0015562856873392594 0.0008487379622965641 0.0 -0.012759444370944228 0.0 0.0
0.0019466760637072006 -0.0023261609656590743 0.0 -0.010799768711694913 0.0 0.0
0.0019466760637068953 -0.00232616096565863 0.0 0.010799768711707292 0.0 0.0
-0.0015562856873393843 0.0008487379622938995 0.0 0.012759444370958606 0.0 0.0
-0.0031404410722672693 0.001943624360585261 0.0 0.011503659950520384 0.0 0.0
-0.003683418743634634 0.002384215092958275 0.0 0.009885224465857212 0.0 0.0
-0.0035105947711055324 0.0022581770397311907 0.0 0.008389627880643402 0.0 0.0
-0.0030063352876329025 0.0018690148201445655 0.0 0.007062481128965792 0.0 0.0
-0.002439713664275686 0.0014411988610956161 0.0 0.0059150466319262685 0.0 0.0
-0.0019323109766173768 0.0010766866726965585 0.0 0.004976284641768525 0.0 0.0
-0.0015059958010351648 0.0007870046194367042 0.0 0.004236559679544338 0.0 0.0
-0.0011449131840104293 0.0005612924204401182 0.0 0.003693610287500093 0.0 0.0
-0.0008248843777857867 0.00039068181033719007 0.0 0.003326363820955691 0.0 0.0
-0.0005773556967487159 0.0002654632120733247 0.0 0.0031060311357094528 0.0 0.0
-0.0003940820433076392 0.0001807293173469171 0.0 0.0029062310917140344 0.0 0.0
-0.0002794626043723103 0.0001344590142511315 0.0 0.0026693914645143924 0.0 0.0
-0.00021981385297042966 0.00012395887560423535 0.0 0.0024190399107456018 0.0 0.0
-0.00020959136268172696 0.0001415214675847265 0.0 0.002252504381222098 0.0 0.0
-0.00023301295063635208 0.0001618394197789863 0.0 0.002191200446146624 0.0 0.0
-0.0002479185685471813 0.00011975920565110432 0.0 0.0022436154329202873 0.0 0.0
-0.00012762527189701112 -0.0001607594436232873 0.0 0.0023048639213046895 0.0 0.0
0.0003492799212307801 -0.0009984259941833926 0.0 0.0015831018673946595 0.0 0.0
0.00025477222287451085 -0.0007998184590368718 0.0 -0.0014224537089706224 0.0 0.0
-0.00017852427937480042 -0.0001309730470174797 0.0 -0.0022461130497143655 0.0 0.0
-0.00036556063306332487 0.0001645593612044638 0.0 -0.0022468094064958255 0.0 0.0
-0.0004300578703915897 0.0002455379149454151 0.0 -0.0021900237867871764 0.0 0.0
-0.000493173427482313 0.0002712956572495928 0.0 -0.0022208615234840523 0.0 0.0
-0.000608671834521915 0.000303976180843768 0.0 -0.0023559151731821493 0.0 0.0
-0.0008220326747876566 0.0003826355860765407 0.0 -0.0025571962697067685 0.0 0.0
-0.0011880281127121112 0.0005485715969661964 0.0 -0.0027795877352919107 0.0 0.0
-0.001760560612162218 0.0008566813994066447 0.0 -0.0030817690550469234 0.0 0.0
-0.0025379320040243153 0.001371921083493488 0.0 -0.0036227852340494082 0.0 0.0
-0.003488992711272773 0.0020990496855701757 0.0 -0.004419402473101297 0.0 0.0
-0.004559741912106979 0.0029994797426267095 0.0 -0.005341058669915466 0.0 0.0
-0.005809203994235429 0.004093963307082227 0.0 -0.006369601649380108 0.0 0.0
-0.007301949227155463 0.005442972285033321 0.0 -0.007476358013629114 0.0 0.0
-0.009052250358729044 0.007049788596583451 0.0 -0.008734959775633544 0.0 0.0
-0.01093679016295801 0.008791651890185825 0.0 -0.01024691191562016 0.0 0.0
-0.01263021793730952 0.010345913203569923 0.0 -0.012058391864815554 0.0 0.0
-0.013604616182427462 0.011202890520155107 0.0 -0.01405565636206163 0.0 0.0
-0.012997166938475399 0.010329745096542275 0.0 -0.014920020866637351 0.0 0.0
-0.009101318052368967 0.0063510382897282724 0.0 -0.012604476578147505 0.0 0.0
-0.009101318052370147 0.006351038289730937 0.0 0.012604476578163104 0.0 0.0
-0.012997166938474247 0.010329745096546494 0.0 0.014920020866658057 0.0 0.0
-0.013604616182423132 0.011202890520152886 0.0 0.014055656362076174 0.0 0.0
-0.012630217937301902 0.01034591320356304 0.0 0.012058391864816054 0.0 0.0
-0.010936790162948379 0.008791651890180718 0.0 0.010246911915613055 0.0 0.0
-0.009052250358722425 0.007049788596572348 0.0 0.008734959775629492 0.0 0.0
-0.007301949227148163 0.005442972285026215 0.0 0.007476358013623896 0.0 0.0
-0.005809203994226839 0.004093963307074455 0.0 0.006369601649375722 0.0 0.0
-0.004559741912098278 0.002999479742619382 0.0 0.005341058669909082 0.0 0.0
-0.0034889927112646685 0.00209904968556196 0.0 0.004419402473092138 0.0 0.0
-0.0025379320040173348 0.0013719210834868267 0.0 0.0036227852340418587 0.0 0.0
-0.0017605606121577355 0.000856681399403314 0.0 0.003081769055044592 0.0 0.0
-0.0011880281127092523 0.0005485715969656413 0.0 0.0027795877352911613 0.0 0.0
-0.0008220326747860468 0.0003826355860756525 0.0 0.002557196269704076 0.0 0.0
-0.000608671834520888 0.0003039761808434349 0.0 0.0023559151731795402 0.0 0.0
-0.0004931734274817995 0.00027129565724937077 0.0 0.002220861523481499 0.0 0.0
-0.00043005787039107624 0.00024553791494613675 0.0 0.002190023786784401 0.0 0.0
-0.0003655606330630612 0.00016455936120474135 0.0 0.002246809406494188 0.0 0.0
-0.00017852427937473103 -0.0001309730470175352 0.0 0.002246113049712589 0.0 0.0
0.00025477222287437207 -0.0007998184590360721 0.0 0.0014224537089683742 0.0 0.0
0.00017442153630638224 -0.0006190918474970331 0.0 -0.0012580125818484056 0.0 0.0
-0.00022690603744485172 -9.317215475773688e-05 0.0 -0.002135372932498103 0.0 0.0
-0.00047591772545553523 0.00020751916894073963 0.0 -0.0021948707859435757 0.0 0.0
-0.000618659402184113 0.00032426940626983924 0.0 -0.0021324589384879022 0.0 0.0
-0.0007681707430022278 0.0003937849157252815 0.0 -0.002127752374196684 0.0 0.0
-0.0009868993212299448 0.00047563808411632547 0.0 -0.0022080902321917895 0.0 0.0
-0.0013621287344432048 0.0006361145324118578 0.0 -0.0023656995151369598 0.0 0.0
-0.0020257825479845365 0.0010080371832839052 0.0 -0.0027027584166054996 0.0 0.0
-0.0030363275004123835 0.0017173063257482912 0.0 -0.003348118545022094 0.0 0.0
-0.004367805028304181 0.0027801598451024923 0.0 -0.004303839773285856 0.0 0.0
-0.0059225986694797506 0.004124464524418503 0.0 -0.00541099924437638 0.0 0.0
-0.0076855653077247815 0.005713374522771764 0.0 -0.00652428035536623 0.0 0.0
-0.009744902575552813 0.007613907711664147 0.0 -0.007672694838750382 0.0 0.0
-0.012219344613847147 0.00993670937480684 0.0 -0.00893062289174068 0.0 0.0
-0.015165514912340583 0.012725589858547215 0.0 -0.010443540786744532 0.0 0.0
-0.018461648442367654 0.01585425629057058 0.0 -0.012416484302874231 0.0 0.0
-0.021706982327541285 0.01892358987384024 0.0 -0.015019261184329724 0.0 0.0
-0.024107561367033778 0.02108952532442543 0.0 -0.01783611852121847 0.0 0.0
-0.024178690891789423 0.02086327911883412 0.0 -0.019312753980562092 0.0 0.0
-0.019576705603353547 0.015769394417044502 0.0 -0.016211716385309882 0.0 0.0
-0.01957670560335384 0.015769394417040505 0.0 0.016211716385329866 0.0 0.0
-0.024178690891786744 0.020863279118829015 0.0 0.01931275398058796 0.0 0.0
-0.024107561367026464 0.02108952532441921 0.0 0.017836118521234456 0.0 0.0
-0.021706982327529434 0.018923589873827584 0.0 0.015019261184332444 0.0 0.0
-0.01846164844235383 0.015854256290556812 0.0 0.012416484302867958 0.0 0.0
-0.01516551491232948 0.012725589858537445 0.0 0.01044354078673887 0.0 0.0
-0.012219344613835587 0.009936709374794628 0.0 0.008930622891735351 0.0 0.0
-0.009744902575540018 0.007613907711651269 0.0 0.007672694838745497 0.0 0.0
-0.007685565307711785 0.005713374522758663 0.0 0.006524280355358875 0.0 0.0
-0.005922598669467372 0.004124464524407401 0.0 0.005410999244365111 0.0 0.0
-0.004367805028293599 0.002780159845096053 0.0 0.004303839773275309 0.0 0.0
-0.0030363275004047993 0.0017173063257429622 0.0 0.0033481185450169315 0.0 0.0
-0.0020257825479797487 0.0010080371832806856 0.0 0.002702758416603418 0.0 0.0
-0.001362128734440582 0.0006361145324096373 0.0 0.0023656995151349336 0.0 0.0
-0.0009868993212284877 0.0004756380841165475 0.0 0.002208090232188792 0.0 0.0
-0.0007681707430013812 0.0003937849157251705 0.0 0.002127752374195324 0.0 0.0
-0.0006186594021834538 0.0003242694062701723 0.0 0.0021324589384862924 0.0 0.0
-0.00047591772545518135 0.0002075191689411282 0.0 0.0021948707859415217 0.0 0.0
-0.00022690603744455334 -9.31721547578479e-05 0.0 0.002135372932496271 0.0 0.0
0.0001744215363062504 -0.000619091847496419 0.0 0.0012580125818471566 0.0 0.0
0.00010266139383681427 -0.00045587263930063626 0.0 -0.0010912831304693837 0.0 0.0
-0.0002750790454224966 -4.865270070480987e-05 0.0 -0.0019769136760369177 0.0 0.0
-0.0005800982587803732 0.00024956692854277707 0.0 -0.002088092927399393 0.0 0.0
-0.0007988528538338535 0.0003971472336909976 0.0 -0.0020202134574605346 0.0 0.0
-0.0010310234079094205 0.0005069713792394959 0.0 -0.0019684571712203225 0.0 0.0
-0.0013542211426977868 0.0006415904637514513 0.0 -0.0019975943978911836 0.0 0.0
-0.001932092718935366 0.0009470665787796317 0.0 -0.0021949190744269542 0.0 0.0
-0.002947442648647325 0.001637977071232033 0.0 -0.002728309512234517 0.0 0.0
-0.004425854028428516 0.0028107112555519898 0.0 -0.003640574824649856 0.0 0.0
-0.006278624624728127 0.004408074817189522 0.0 -0.00480626107607135 0.0 0.0
-0.008408395853690923 0.006333762946810317 0.0 -0.006013805331465061 0.0 0.0
-0.010853624074651763 0.008594166374801926 0.0 -0.00718548524592616 0.0 0.0
-0.01373313411103902 0.01130390846162821 0.0 -0.008404124562082227 0.0 0.0
-0.01720818554901281 0.014612518210135761 0.0 -0.00977128939620181 0.0 0.0
-0.02137028463609246 0.01860339834257374 0.0 -0.011449140733682694 0.0 0.0
-0.026117806809005606 0.023157323708434152 0.0 -0.013740451174113766 0.0 0.0
-0.030937883903943586 0.027742570505652653 0.0 -0.016874279507527457 0.0 0.0
-0.034653752412630204 0.031155790831193242 0.0 -0.020399503586252754 0.0 0.0
-0.03519776644677608 0.031298669088728026 0.0 -0.022494837578782623 0.0 0.0
-0.029311682110209458 0.02484273702326467 0.0 -0.019719988057814664 0.0 0.0
-0.029311682110208556 0.024842737023263783 0.0 0.019719988057836757 0.0 0.0
-0.03519776644677146 0.031298669088726916 0.0 0.02249483757881282 0.0 0.0
-0.03465375241262017 0.03115579083118236 0.0 0.020399503586274847 0.0 0.0
-0.03093788390392814 0.02774257050563711 0.0 0.016874279507533507 0.0 0.0
-0.02611780680898808 0.023157323708420607 0.0 0.013740451174108215 0.0 0.0
-0.021370284636077014 0.01860339834255731 0.0 0.011449140733678115 0.0 0.0
-0.01720818554899709 0.014612518210121994 0.0 0.00977128939619576 0.0 0.0
-0.013733134111021991 0.011303908461613332 0.0 0.008404124562074816 0.0 0.0
-0.010853624074634617 0.008594166374786383 0.0 0.007185485245918083 0.0 0.0
-0.008408395853674623 0.006333762946794996 0.0 0.006013805331452543 0.0 0.0
-0.006278624624714034 0.004408074817177088 0.0 0.004806261076058721 0.0 0.0
-0.0044258540284179415 0.002810711255542442 0.0 0.003640574824642445 0.0 0.0
-0.002947442648640039 0.0016379770712283692 0.0 0.0027283095122302425 0.0 0.0
-0.0019320927189314732 0.0009470665787780774 0.0 0.002194919074423346 0.0 0.0
-0.0013542211426957468 0.000641590463749897 0.0 0.001997594397888658 0.0 0.0
-0.001031023407908234 0.0005069713792379416 0.0 0.001968457171219379 0.0 0.0
-0.0007988528538330972 0.000397147233690498 0.0 0.002020213457458786 0.0 0.0
-0.0005800982587799708 0.00024956692854272156 0.0 0.0020880929273976723 0.0 0.0
-0.0002750790454221219 -4.8652700704976404e-05 0.0 0.0019769136760355577 0.0 0.0
0.00010266139383672407 -0.0004558726393003327 0.0 0.001091283130467774 0.0 0.0
3.8458694056914267e-05 -0.0003113326141943318 0.0 -0.0009208457256503488 0.0 0.0
-0.00032379984315389354 6.359441148129363e-07 0.0 -0.0017761502237126914 0.0 0.0
-0.0006791645742063313 0.00029097723753990223 0.0 -0.0019276136685768552 0.0 0.0
-0.0009705976827263374 0.00046457873839333974 0.0 -0.0018512090362824418 0.0 0.0
-0.0012788882785475242 0.0006077334002571044 0.0 -0.001750796697615381 0.0 0.0
-0.0017282801013239618 0.0008279733903492348 0.0 -0.0017653388171648687 0.0 0.0
-0.002560133770686576 0.0013502831866260001 0.0 -0.002034396241000186 0.0 0.0
-0.003959049467877257 0.002415479383086838 0.0 -0.002730058623148207 0.0 0.0
-0.005888275465962947 0.0040531841567919 0.0 -0.003791901313388968 0.0 0.0
-0.008220223083074824 0.006142177305844099 0.0 -0.004983668701216082 0.0 0.0
-0.010920645431132955 0.008628944514646797 0.0 -0.006164433530204183 0.0 0.0
-0.014057923323753538 0.01156843416828357 0.0 -0.00734211621537928 0.0 0.0
-0.017776359380798717 0.015099148338618473 0.0 -0.008591456235767736 0.0 0.0
-0.022261633692424232 0.0194010285557229 0.0 -0.009994006926528853 0.0 0.0
-0.027648446436049787 0.02459843576411469 0.0 -0.011711166446706833 0.0 0.0
-0.03384458533442135 0.03057336763113616 0.0 -0.01404706414696133 0.0 0.0
-0.04021160017134598 0.036650917194357646 0.0 -0.01729019325579606 0.0 0.0
-0.04518431158706997 0.04124330069521687 0.0 -0.021212323328390514 0.0 0.0
-0.04601712325610706 0.04159547795407814 0.0 -0.024124282872698355 0.0 0.0
-0.038682189669633577 0.03369834782225434 0.0 -0.023048409586102547 0.0 0.0
-0.038682189669632036 0.03369834782225434 0.0 0.023048409586128082 0.0 0.0
-0.04601712325609998 0.0415954779540717 0.0 0.02412428287272883 0.0 0.0
-0.045184311587057144 0.04124330069520621 0.0 0.02121232332841222 0.0 0.0
-0.04021160017132755 0.036650917194341215 0.0 0.01729019325580386 0.0 0.0
-0.03384458533440028 0.03057336763111551 0.0 0.014047064146957666 0.0 0.0
-0.027648446436030344 0.024598435764098925 0.0 0.01171116644670267 0.0 0.0
-0.022261633692404414 0.01940102855570358 0.0 0.009994006926522164 0.0 0.0
-0.017776359380777415 0.015099148338600266 0.0 0.008591456235761519 0.0 0.0
-0.014057923323732263 0.011568434168264918 0.0 0.007342116215371924 0.0 0.0
-0.010920645431113048 0.00862894451462659 0.0 0.00616443353019272 0.0 0.0
-0.00822022308305733 0.006142177305827001 0.0 0.004983668701204591 0.0 0.0
-0.0058882754659495135 0.004053184156780576 0.0 0.003791901313381585 0.0 0.0
-0.003959049467867473 0.0024154793830785115 0.0 0.0027300586231438773 0.0 0.0
-0.0025601337706806712 0.001350283186621004 0.0 0.002034396240997133 0.0 0.0
-0.0017282801013211377 0.0008279733903489017 0.0 0.0017653388171623152 0.0 0.0
-0.0012788882785461503 0.0006077334002577706 0.0 0.0017507966976142153 0.0 0.0
-0.0009705976827254284 0.0004645787383935618 0.0 0.0018512090362808598 0.0 0.0
-0.0006791645742058108 0.00029097723753956917 0.0 0.0019276136685750511 0.0 0.0
-0.00032379984315364374 6.359441143688471e-07 0.0 0.001776150223710582 0.0 0.0
3.845869405683794e-05 -0.000311332614194134 0.0 0.0009208457256491553 0.0 0.0
-1.7360648678771406e-05 -0.00018733414265867387 0.0 -0.000744899038004232 0.0 0.0
-0.0003720401668450557 5.220206053402343e-05 0.0 -0.0015378300224185848 0.0 0.0
-0.00077391598538748 0.0003319240002680468 0.0 -0.0017150892730984357 0.0 0.0
-0.0011337582305365468 0.0005252256269574485 0.0 -0.0016279863549652218 0.0 0.0
-0.001517677629591374 0.0007096073701154948 0.0 -0.001500110003183508 0.0 0.0
-0.0021273383636601917 0.0010511886432318374 0.0 -0.0015143819478092013 0.0 0.0
-0.003256921796422785 0.0018525895778199741 0.0 -0.0018565480775436793 0.0 0.0
-0.0050431779873692795 0.003315318512078669 0.0 -0.0026520230755553154 0.0 0.0
-0.0073746066060725035 0.005373712208820658 0.0 -0.0036973777338948355 0.0 0.0
-0.01017250685472812 0.007925703046410382 0.0 -0.0047988794970554305 0.0 0.0
-0.013451200959743906 0.010977357538431542 0.0 -0.00591906927665925 0.0 0.0
-0.01729462237418479 0.014606291162269525 0.0 -0.0070425319048413315 0.0 0.0
-0.021869891173665834 0.018972942498532763 0.0 -0.008250660463852422 0.0 0.0
-0.027377931179040665 0.024277110797574997 0.0 -0.00964210563861595 0.0 0.0
-0.03396495590221553 0.030656346803754175 0.0 -0.011265990119946168 0.0 0.0
-0.04155193608426749 0.037995044319284244 0.0 -0.013322346001729657 0.0 0.0
-0.049408032882230044 0.04551481927616008 0.0 -0.01627555456171692 0.0 0.0
-0.05559920253941776 0.05125191039107313 0.0 -0.020304006580667666 0.0 0.0
-0.056714944577501966 0.05183014771285377 0.0 -0.024402892764703088 0.0 0.0
-0.04803720804399533 0.04259050429992817 0.0 -0.02635640397989114 0.0 0.0
-0.04803720804399289 0.042590504299926835 0.0 0.026356403979916898 0.0 0.0
-0.05671494457749279 0.05183014771284644 0.0 0.024402892764733786 0.0 0.0
-0.05559920253940184 0.051251910391058475 0.0 0.020304006580691036 0.0 0.0
-0.04940803288220889 0.04551481927613876 0.0 0.016275554561725275 0.0 0.0
-0.04155193608424294 0.03799504431926226 0.0 0.013322346001727908 0.0 0.0
-0.0339649559021922 0.03065634680373197 0.0 0.011265990119943559 0.0 0.0
-0.027377931179016615 0.024277110797553236 0.0 0.00964210563861101 0.0 0.0
-0.02186989117364071 0.018972942498510115 0.0 0.008250660463846732 0.0 0.0
-0.01729462237415926 0.0146062911622451 0.0 0.007042531904833449 0.0 0.0
-0.013451200959720383 0.010977357538410004 0.0 0.005919069276648176 0.0 0.0
-0.010172506854707379 0.007925703046389732 0.0 0.004798879497044384 0.0 0.0
-0.007374606606056419 0.005373712208807113 0.0 0.003697377733887952 0.0 0.0
-0.005043177987357275 0.003315318512069454 0.0 0.0026520230755499308 0.0 0.0
-0.0032569217964147495 0.001852589577814201 0.0 0.001856548077539294 0.0 0.0
-0.002127338363656396 0.0010511886432288398 0.0 0.00151438194780662 0.0 0.0
-0.0015176776295897504 0.0007096073701151617 0.0 0.0015001100031826753 0.0 0.0
-0.0011337582305354851 0.0005252256269568378 0.0 0.0016279863549642781 0.0 0.0
-0.0007739159853868624 0.00033192400026788027 0.0 0.0017150892730975476 0.0 0.0
-0.00037204016684472263 5.220206053402343e-05 0.0 0.0015378300224175578 0.0 0.0
-1.7360648678799162e-05 -0.00018733414265866347 0.0 0.0007448990380038989 0.0 0.0
-6.26917306561503e-05 -8.622135465000125e-05 0.0 -0.0005626339143949 0.0 0.0
-0.0004170352804451216 0.00010304549089340531 0.0 -0.0012660314382250404 0.0 0.0
-0.000864446785000833 0.00037200429133860125 0.0 -0.0014499956465130748 0.0 0.0
-0.0012902380899500465 0.000579547646590739 0.0 -0.0013553707302645934 0.0 0.0
-0.0017577058089549569 0.0008172259970241624 0.0 -0.0012123439381034884 0.0 0.0
-0.002567920993420847 0.0013353716335932075 0.0 -0.0012507979352464893 0.0 0.0
-0.004026064850194938 0.0024621001937331632 0.0 -0.0016649408331322335 0.0 0.0
-0.006152657116036242 0.004286568124631351 0.0 -0.0024210374293471004 0.0 0.0
-0.008860714586962276 0.006723549885082392 0.0 -0.0033196902712443466 0.0 0.0
-0.01213171557529319 0.009741198641248339 0.0 -0.0042971770528149045 0.0 0.0
-0.01599336794888309 0.013361760019000801 0.0 -0.005293171787035311 0.0 0.0
-0.02055691208385757 0.017690514784090894 0.0 -0.006299710159866911 0.0 0.0
-0.02600777919982053 0.02291123944655471 0.0 -0.00740913308206248 0.0 0.0
-0.03254754934818735 0.029220328615017888 0.0 -0.008688454984823568 0.0 0.0
-0.04029671804138024 0.036737637703648796 0.0 -0.010130373796956527 0.0 0.0
-0.049157144119745186 0.04533534975993514 0.0 -0.011724032800648043 0.0 0.0
-0.05838082304493905 0.05418938199793266 0.0 -0.013878426200241933 0.0 0.0
-0.06580371540121763 0.06109646322052642 0.0 -0.01759943956743415 0.0 0.0
-0.06742606394031965 0.06211543863981461 0.0 -0.02329961797364366 0.0 0.0
-0.057672700024276144 0.05177311668573603 0.0 -0.02963388377637821 0.0 0.0
-0.05767270002427263 0.05177311668573159 0.0 0.02963388377640247 0.0 0.0
-0.06742606394030823 0.062115438639808174 0.0 0.023299617973673026 0.0 0.0
-0.06580371540119873 0.061096463220511765 0.0 0.0175994395674553 0.0 0.0
-0.05838082304491481 0.05418938199791179 0.0 0.013878426200249122 0.0 0.0
-0.049157144119717375 0.04533534975991049 0.0 0.011724032800648015 0.0 0.0
-0.040296718041352805 0.03673763770362237 0.0 0.01013037379695464 0.0 0.0
-0.032547549348159295 0.029220328614990354 0.0 0.008688454984819127 0.0 0.0
-0.026007779199791498 0.02291123944652851 0.0 0.007409133082057651 0.0 0.0
-0.020556912083828045 0.017690514784063582 0.0 0.006299710159860639 0.0 0.0
-0.015993367948855815 0.013361760018973712 0.0 0.0052931717870241535 0.0 0.0
-0.012131715575269604 0.009741198641225912 0.0 0.004297177052804857 0.0 0.0
-0.008860714586943489 0.00672354988506596 0.0 0.0033196902712371856 0.0 0.0
-0.006152657116021948 0.004286568124618029 0.0 0.002421037429342021 0.0 0.0
-0.004026064850185154 0.0024621001937248366 0.0 0.0016649408331287086 0.0 0.0
-0.002567920993415653 0.0013353716335892107 0.0 0.0012507979352439913 0.0 0.0
-0.0017577058089530521 0.0008172259970228302 0.0 0.001212343938102295 0.0 0.0
-0.001290238089948846 0.0005795476465900729 0.0 0.0013553707302634554 0.0 0.0
-0.0008644467850000559 0.0003720042913384347 0.0 0.0014499956465120756 0.0 0.0
-0.0004170352804448753 0.00010304549089337756 0.0 0.0012660314382235693 0.0 0.0
-6.269173065608785e-05 -8.62213546497393e-05 0.0 0.0005626339143942893 0.0 0.0
-9.390706937384419e-05 -1.0920192975966136e-05 0.0 -0.00037587978141181977 0.0 0.0
-0.00045379849290805296 0.00014949555011778415 0.0 -0.0009629918503545054 0.0 0.0
-0.0009505010543420511 0.0004097174739062237 0.0 -0.0011310017565233643 0.0 0.0
-0.0014437446009367416 0.0006326031232827267 0.0 -0.0010341618119310558 0.0 0.0
-0.002011598613574944 0.0009455009856935703 0.0 -0.0008944474991648133 0.0 0.0
-0.003070964484661154 0.0016934822375730407 0.0 -0.0009811200861130631 0.0 0.0
-0.004833485507184626 0.00313677884090402 0.0 -0.0013660661642420358 0.0 0.0
-0.007258588135567956 0.005279943084254279 0.0 -0.0019714644536756865 0.0 0.0
-0.01034421991945722 0.008092409326563965 0.0 -0.0026987121616625642 0.0 0.0
-0.01408854993923428 0.011573549066043354 0.0 -0.003492908667616257 0.0 0.0
-0.018540868826844942 0.01576833012912826 0.0 -0.004307551257842268 0.0 0.0
-0.023836651490070637 0.02080937315912501 0.0 -0.005129551577298552 0.0 0.0
-0.03017873107697236 0.026896482946443756 0.0 -0.006040399910512528 0.0 0.0
-0.03775944368190795 0.03421900249760634 0.0 -0.0071451256288526666 0.0 0.0
-0.04663483377561203 0.04283065522683449 0.0 -0.008356448486069423 0.0 0.0
-0.05660789589813087 0.05252043602768541 0.0 -0.009377875503359057 0.0 0.0
-0.06695823452410413 0.06251750563541725 0.0 -0.010324010864285582 0.0 0.0
-0.07567153912546662 0.07066732829434597 0.0 -0.013112883240768036 0.0 0.0
-0.07826127358413643 0.07255457189720271 0.0 -0.020472093470639885 0.0 0.0
-0.06792405062151756 0.06154223758509492 0.0 -0.03263469415472764 0.0 0.0
-0.06792405062151351 0.06154223758509225 0.0 0.03263469415474707 0.0 0.0
-0.07826127358412249 0.07255457189719405 0.0 0.020472093470665087 0.0 0.0
-0.07567153912544491 0.07066732829432709 0.0 0.013112883240785883 0.0 0.0
-0.06695823452407618 0.06251750563538905 0.0 0.010324010864292493 0.0 0.0
-0.05660789589810001 0.05252043602765677 0.0 0.009377875503360306 0.0 0.0
-0.04663483377558074 0.04283065522680363 0.0 0.00835644848606798 0.0 0.0
-0.037759443681875914 0.03421900249757681 0.0 0.0071451256288498355 0.0 0.0
-0.030178731076939184 0.026896482946413114 0.0 0.006040399910507324 0.0 0.0
-0.02383665149003711 0.020809373159092148 0.0 0.005129551577294278 0.0 0.0
-0.018540868826814175 0.01576833012910206 0.0 0.004307551257832998 0.0 0.0
-0.014088549939207919 0.011573549066022482 0.0 0.003492908667607819 0.0 0.0
-0.01034421991943555 0.008092409326543093 0.0 0.0026987121616561804 0.0 0.0
-0.007258588135551372 0.005279943084238403 0.0 0.001971464453670857 0.0 0.0
-0.004833485507173007 0.00313677884089536 0.0 0.00136606616423815 0.0 0.0
-0.003070964484654541 0.001693482237569044 0.0 0.0009811200861112312 0.0 0.0
-0.002011598613572415 0.0009455009856905727 0.0 0.0008944474991644247 0.0 0.0
-0.001443744600935739 0.0006326031232812279 0.0 0.0010341618119305562 0.0 0.0
-0.0009505010543411976 0.00040971747390533553 0.0 0.0011310017565215602 0.0 0.0
-0.0004537984929078309 0.0001494955501175066 0.0 0.0009629918503540613 0.0 0.0
-9.390706937366725e-05 -1.0920192975771847e-05 0.0 0.0003758797814126802 0.0 0.0
-0.00010485351744882188 3.481375915745377e-05 0.0 -0.00019128951056246457 0.0 0.0
-0.00047396832777901743 0.00018611064816370648 0.0 -0.000628535702248828 0.0 0.0
-0.0010321909693487008 0.0004439333798328948 0.0 -0.000750913702296685 0.0 0.0
-0.001601847449845789 0.000691083060790687 0.0 -0.0006716622621135149 0.0 0.0
-0.00230090722888196 0.0011244234164610178 0.0 -0.0005751509986822445 0.0 0.0
-0.0036286364574692753 0.0021251112046249965 0.0 -0.0006578198561593973 0.0 0.0
-0.005643671720362481 0.0038464547583322295 0.0 -0.0009375338657503507 0.0 0.0
-0.008359322981895956 0.0062850195999801794 0.0 -0.0013442390485363942 0.0 0.0
-0.01181625680060197 0.009467651307501601 0.0 -0.0018421061642475145 0.0 0.0
-0.016034903305232828 0.013411588122570928 0.0 -0.0023960926022178475 0.0 0.0
-0.021085881348079732 0.01818664900928746 0.0 -0.0029605826290801662 0.0 0.0
-0.02712672968038915 0.023950983537651238 0.0 -0.0035306522594049095 0.0 0.0
-0.0343732541836686 0.030917833274891615 0.0 -0.004196931032997064 0.0 0.0
-0.04299028046158687 0.03924738816559481 0.0 -0.004994619544184953 0.0 0.0
-0.05295767409298491 0.048913743247468 0.0 -0.005822072949433377 0.0 0.0
-0.06392403188045741 0.05956451154954556 0.0 -0.0063900325419580795 0.0 0.0
-0.07507379797121329 0.07037902422777398 0.0 -0.006326044645680373 0.0 0.0
-0.08482747662915562 0.07968718117040186 0.0 -0.006971597147969744 0.0 0.0
-0.08923873735217344 0.08316171054836374 0.0 -0.014835493893289586 0.0 0.0
-0.07931074271192654 0.0723588437243956 0.0 -0.03469735779241395 0.0 0.0
-0.07931074271192208 0.07235884372439183 0.0 0.03469735779242683 0.0 0.0
-0.08923873735215684 0.08316171054835064 0.0 0.014835493893308349 0.0 0.0
-0.08482747662913068 0.0796871811703781 0.0 0.006971597147983427 0.0 0.0
-0.07507379797118136 0.070379024227744 0.0 0.006326044645683898 0.0 0.0
-0.06392403188042312 0.0595645115495127 0.0 0.006390032541958579 0.0 0.0
-0.05295767409294972 0.048913743247433805 0.0 0.005822072949432849 0.0 0.0
-0.04299028046155093 0.03924738816555862 0.0 0.004994619544183385 0.0 0.0
-0.03437325418363124 0.03091783327485409 0.0 0.004196931032993886 0.0 0.0
-0.027126729680351572 0.023950983537615933 0.0 0.003530652259402356 0.0 0.0
-0.021085881348045878 0.01818664900925593 0.0 0.002960582629073949 0.0 0.0
-0.01603490330520363 0.013411588122543394 0.0 0.002396092602212019 0.0 0.0
-0.011816256800577726 0.009467651307479619 0.0 0.0018421061642442393 0.0 0.0
-0.008359322981877469 0.006285019599963526 0.0 0.0013442390485329803 0.0 0.0
-0.005643671720348856 0.00384645475832035 0.0 0.0009375338657475474 0.0 0.0
-0.0036286364574613043 0.002125111204617891 0.0 0.0006578198561573434 0.0 0.0
-0.002300907228878475 0.0011244234164590194 0.0 0.0005751509986811343 0.0 0.0
-0.0016018474498446338 0.0006910830607892438 0.0 0.0006716622621136259 0.0 0.0
-0.001032190969347738 0.0004439333798322287 0.0 0.0007509137022969625 0.0 0.0
-0.000473968327778582 0.00018611064816365097 0.0 0.0006285357022491056 0.0 0.0
-0.00010485351744882014 3.4813759157301116e-05 0.0 0.00019128951056299193 0.0 0.0
-8.440106089308008e-05 4.55741077279026e-05 0.0 -2.4448829268775008e-05 0.0 0.0
-0.00046400508597443935 0.00020448858483718135 0.0 -0.0002566918366420923 0.0 0.0
-0.0011110350004544245 0.00047345338503795853 0.0 -0.0002957999895703556 0.0 0.0
-0.0017801121250870244 0.0007708438133963158 0.0 -0.0002727739125570894 0.0 0.0
-0.0026424598943962097 0.0013517587102183093 0.0 -0.00023165350036408183 0.0 0.0
-0.004210570264215008 0.0025955706048317317 0.0 -0.0002572104164141331 0.0 0.0
-0.006450846204454991 0.0045701607522934395 0.0 -0.00037744483758297975 0.0 0.0
-0.009445382492734633 0.007291340398499102 0.0 -0.0005415820164260399 0.0 0.0
-0.0132687239438187 0.010836405836367913 0.0 -0.0007570319024445271 0.0 0.0
-0.017961525935974054 0.01524215470096224 0.0 -0.001005852259209905 0.0 0.0
-0.023621137827768007 0.020608458813411 0.0 -0.0012566108199802972 0.0 0.0
-0.03042588321283457 0.02711286651841771 0.0 -0.0015310970533073398 0.0 0.0
-0.03857258976065389 0.03495448281233715 0.0 -0.0018452114836383093 0.0 0.0
-0.04820371543261123 0.0442688146347876 0.0 -0.0021934811012384037 0.0 0.0
-0.05923709228369611 0.054964707324761 0.0 -0.002531533357484239 0.0 0.0
-0.07115024573388717 0.06652135588264563 0.0 -0.0026726306172593084 0.0 0.0
-0.08289059355039848 0.07790736766719952 0.0 -0.0022949235297206605 0.0 0.0
-0.09296494766230268 0.08764665158982687 0.0 -0.00121061258400329 0.0 0.0
-0.09912025253924119 0.09330074948089329 0.0 -0.004220163630407392 0.0 0.0
-0.09330723788285711 0.08529723924214272 0.0 -0.03210817590228782 0.0 0.0
-0.0933072378828522 0.08529723924213739 0.0 0.032108175902293645 0.0 0.0
-0.09912025253922215 0.09330074948087841 0.0 0.004220163630415691 0.0 0.0
-0.09296494766227319 0.08764665158980134 0.0 0.0012106125840106174 0.0 0.0
-0.08289059355036252 0.07790736766716799 0.0 0.0022949235297206882 0.0 0.0
-0.071150245733849 0.06652135588260788 0.0 0.0026726306172593084 0.0 0.0
-0.05923709228365679 0.05496470732472569 0.0 0.0025315333574848775 0.0 0.0
-0.04820371543257097 0.044268814634751186 0.0 0.0021934811012375155 0.0 0.0
-0.03857258976061243 0.03495448281230096 0.0 0.0018452114836377265 0.0 0.0
-0.030425883212793332 0.027112866518381296 0.0 0.0015310970533066737 0.0 0.0
-0.02362113782773071 0.020608458813378583 0.0 0.0012566108199768555 0.0 0.0
-0.017961525935942052 0.015242154700933375 0.0 0.0010058522592067132 0.0 0.0
-0.013268723943792455 0.0108364058363426 0.0 0.0007570319024434169 0.0 0.0
-0.009445382492714205 0.007291340398479784 0.0 0.0005415820164246798 0.0 0.0
-0.006450846204439542 0.004570160752279118 0.0 0.0003774448375824524 0.0 0.0
-0.0042105702642059 0.002595570604822739 0.0 0.0002572104164140776 0.0 0.0
-0.002642459894391598 0.0013517587102149786 0.0 0.00023165350036399857 0.0 0.0
-0.0017801121250855048 0.0007708438133964823 0.0 0.00027277391255678407 0.0 0.0
-0.0011110350004533151 0.0004734533850381806 0.0 0.0002957999895704666 0.0 0.0
-0.0004640050859741028 0.00020448858483673726 0.0 0.00025669183664117634 0.0 0.0
-8.440106089312518e-05 4.557410772748974e-05 0.0 2.4448829268497452e-05 0.0 0.0
SCALARS Statev float 8
LOOKUP_TABLE default
0.0 0.009224657801018025 0.007005363479788919 -0.007389816581151782 0.00038445310136286373 -0.003934004521202412 0.0 0.0
0.0 0.00024349709623243545 0.00012773520376454015 -9.729178070852477e-05 -3.0443423056015356e-05 0.00014612110443550458 0.0 0.0
0.0 3.342380937738801e-05 -4.754075056001044e-06 3.773145031477424e-06 9.809300245235895e-07 5.62033213615258e-07 0.0 0.0
0.0 9.089095396496868e-05 2.0757904528306315e-05 -1.6104988687084385e-05 -4.6529158412220236e-06 -2.80272007372305e-06 0.0 0.0
0.0 0.0006730418732539144 0.00045032800036332336 -0.000359249826408352 -9.107817395497187e-05 -5.222512795144923e-05 0.0 0.0
0.0 0.0018384158544358356 0.0016989083781501688 -0.0014080296641923837 -0.00029087871395778504 -0.0001400047276268681 0.0 0.0
0.0 0.0040414768598548275 0.003682797201862372 -0.0031965338201852844 -0.00048626338167708665 -0.00025894486180534876 0.0 0.0
0.0 0.007193396931544183 0.0064700419294277615 -0.005822338863044899 -0.0006477030663828615 -0.0004142401683588439 0.0 0.0
0.0 0.011342839789099616 0.010090377811695061 -0.009314790284879639 -0.0007755875268154174 -0.0006159072091150202 0.0 0.0
0.0 0.016528768025565476 0.01457819503810482 -0.013692245714525167 -0.0008859493235796529 -0.0008539029256211638 0.0 0.0
0.0 0.022889988054251117 0.02003788613385797 -0.019048450142151493 -0.0009894359917064766 -0.0011018905994714834 0.0 0.0
0.0 0.030353380834210974 0.026656171779206633 -0.025563848119063034 -0.0010923236601435814 -0.0013788415619016491 0.0 0.0
0.0 0.03944617584720746 0.03462351850557527 -0.033427838438030565 -0.001195680067544687 -0.0016918607429288889 0.0 0.0
0.0 0.050335074356289054 0.04408641442898955 -0.042784862754341374 -0.0013015516746481854 -0.002041140155350232 0.0 0.0
0.0 0.06292418334000222 0.055016874162927505 -0.05360445073090053 -0.001412423432026948 -0.0024358203086521537 0.0 0.0
0.0 0.07682619447366781 0.06704841690660866 -0.06552017272954623 -0.001528244177062453 -0.002813956975721288 0.0 0.0
0.0 0.09111262917351752 0.07940482282117196 -0.07775927638000121 -0.0016455464411707654 -0.0030171067166538754 0.0 0.0
0.0 0.10445210695372242 0.09094867082738835 -0.0891911136001411 -0.0017575572272472148 -0.0028194260300875617 0.0 0.0
0.0 0.11528588697193215 0.1003300884923157 -0.0984736720853819 -0.0018564164069337999 -0.0021939096015930973 0.0 0.0
0.0 0.12162305249646002 0.10595626186265607 -0.10399764374326724 -0.0019586181193888305 -0.0017757862582837704 0.0 0.0
0.0 0.12162305249645575 0.10595626186265225 -0.10399764374326365 -0.001958618119388573 0.0017757862582869267 0.0 0.0
0.0 0.11528588697191558 0.1003300884923011 -0.09847367208536786 -0.0018564164069332294 0.0021939096016040374 0.0 0.0
0.0 0.10445210695369166 0.09094867082736155 -0.08919111360011481 -0.0017575572272467365 0.002819426030093705 0.0 0.0
0.0 0.09111262917347843 0.07940482282113803 -0.07775927637996753 -0.0016455464411704807 0.0030171067166585228 0.0 0.0
0.0 0.0768261944736254 0.06704841690657168 -0.06552017272950983 -0.0015282441770618728 0.0028139569757169823 0.0 0.0
0.0 0.06292418333996055 0.05501687416289113 -0.053604450730864804 -0.0014124234320263133 0.002435820308652303 0.0 0.0
0.0 0.0503350743562469 0.04408641442895284 -0.04278486275430525 -0.0013015516746475854 0.0020411401553495304 0.0 0.0
0.0 0.039446175847163215 0.03462351850553679 -0.03342783843799261 -0.0011956800675441872 0.001691860742928714 0.0 0.0
0.0 0.030353380834168248 0.026656171779169204 -0.02556384811902653 -0.001092323660142676 0.0013788415618992598 0.0 0.0
0.0 0.02288998805421287 0.0200378861338242 -0.019048450142118534 -0.0009894359917056606 0.0011018905994701045 0.0 0.0
0.0 0.016528768025533536 0.014578195038076797 -0.013692245714498051 -0.0008859493235787441 0.0008539029256176749 0.0 0.0
0.0 0.011342839789074407 0.010090377811672418 -0.009314790284857719 -0.000775587526814699 0.0006159072091140495 0.0 0.0
0.0 0.007193396931524627 0.006470041929409769 -0.005822338863027637 -0.0006477030663821319 0.0004142401683574088 0.0 0.0
0.0 0.004041476859841804 0.0036827972018500434 -0.0031965338201738387 -0.00048626338167620395 0.0002589448618046112 0.0 0.0
0.0 0.001838415854428494 0.0016989083781428235 -0.0014080296641859912 -0.00029087871395683186 0.0001400047276261953 0.0 0.0
0.0 0.0006730418732502312 0.00045032800036051723 -0.0003592498264060566 -9.10781739544606e-05 5.222512795114833e-05 0.0 0.0
0.0 9.089095396396367e-05 2.0757904528350673e-05 -1.610498868711172e-05 -4.652915841238954e-06 2.8027200736780843e-06 0.0 0.0
0.0 3.342380937687491e-05 -4.754075055922566e-06 3.7731450314146314e-06 9.80930024507978e-07 -5.620332136057866e-07 0.0 0.0
0.0 0.0002434970962309134 0.00012773520376385496 -9.729178070800741e-05 -3.0443423055847718e-05 -0.00014612110443449282 0.0 0.0
0.0 0.00922465780100368 0.007005363479779208 -0.007389816581141056 0.0003844531013618419 0.003934004521181728 0.0 0.0
0.0 0.006497058094154811 0.004623592275398603 -0.005089426236478541 0.0004658339610799374 -0.004364607462924646 0.0 0.0
0.0 0.0 0.0 0.0 0.0 0.0 0.0 0.0
0.0 9.430826945183483e-08 -1.020951514236367e-08 7.758883502814768e-09 2.450631639548195e-09 3.6392644398315674e-09 0.0 0.0
0.0 3.22252859619274e-05 -1.3845676720251966e-07 8.655932096165553e-08 5.1897446240630025e-08 -5.055886053789713e-07 0.0 0.0
0.0 0.0003919212953044076 0.00020740679817288698 -0.0001644057269715286 -4.300107120135836e-05 -5.795577549632985e-05 0.0 0.0
0.0 0.0013113030337287223 0.0012137304399135848 -0.0009920861003226192 -0.00022164433959096565 -0.00027271383692854844 0.0 0.0
0.0 0.003245620049080231 0.0029567598014816764 -0.002531291946070128 -0.0004254678554115479 -0.0005800783533231995 0.0 0.0
0.0 0.006069461828362002 0.00545824299565101 -0.004858025364549075 -0.0006002176311019363 -0.0009712962169781966 0.0 0.0
0.0 0.009786470351109492 0.008714770061244917 -0.007978622388395033 -0.0007361476728498836 -0.0014477031070696618 0.0 0.0
0.0 0.01441027256327244 0.012733907184112936 -0.01188605069135389 -0.0008478564927590412 -0.0019884796093249707 0.0 0.0
0.0 0.0200268282387846 0.017591708585992013 -0.01664337257159472 -0.0009483360143972806 -0.002555343125589453 0.0 0.0
0.0 0.02686653070213784 0.023451488107640778 -0.022407112835279134 -0.0010443752723616464 -0.0031397962973962515 0.0 0.0
0.0 0.03488807332121089 0.030534323516861042 -0.02939448636896217 -0.0011398371478988647 -0.0038190324830977285 0.0 0.0
0.0 0.044571790537790285 0.038998089145312484 -0.03776066534357643 -0.0012374238017360418 -0.0046271758440047835 0.0 0.0
0.0 0.055896567176004774 0.04882564026463529 -0.047486548855029675 -0.0013390914096056352 -0.005525604031672806 0.0 0.0
0.0 0.06842583768130538 0.05970166946806223 -0.058256758801921105 -0.001444910666141131 -0.0063863960119149915 0.0 0.0
0.0 0.0813802840402564 0.0709404198200531 -0.06938823522273498 -0.0015521845973181115 -0.006865062297280962 0.0 0.0
0.0 0.09358450146678021 0.08151768142133943 -0.07986141910141226 -0.0016562623199271364 -0.006536156860825338 0.0 0.0
0.0 0.10349386026213224 0.09011858866280581 -0.08836168351095652 -0.0017569051518493354 -0.005304432597812195 0.0 0.0
0.0 0.10934464866526053 0.09521236932982242 -0.09338334027591777 -0.0018290290539046865 -0.0031498160209418955 0.0 0.0
0.0 0.10934464866525431 0.09521236932981715 -0.09338334027591211 -0.00182902905390503 0.003149816020953445 0.0 0.0
0.0 0.10349386026211517 0.0901185886627909 -0.08836168351094133 -0.0017569051518495872 0.005304432597834039 0.0 0.0
0.0 0.09358450146675412 0.08151768142131634 -0.07986141910138966 -0.0016562623199266693 0.006536156860840114 0.0 0.0
0.0 0.08138028404022493 0.07094041982002519 -0.06938823522270804 -0.0015521845973171314 0.006865062297289032 0.0 0.0
0.0 0.06842583768126934 0.05970166946803082 -0.058256758801890435 -0.0014449106661403785 0.006386396011911367 0.0 0.0
0.0 0.05589656717596732 0.04882564026460261 -0.04748654885499761 -0.0013390914096050026 0.005525604031671828 0.0 0.0
0.0 0.0445717905377533 0.03899808914528004 -0.037760665343545 -0.0012374238017350135 0.004627175844004057 0.0 0.0
0.0 0.034888073321173434 0.030534323516828082 -0.029394486368930304 -0.0011398371478977837 0.0038190324830965823 0.0 0.0
0.0 0.026866530702100544 0.023451488107608054 -0.022407112835247146 -0.0010443752723609094 0.0031397962973914893 0.0 0.0
0.0 0.020026828238751383 0.017591708585962748 -0.016643372571566336 -0.0009483360143964148 0.0025553431255858007 0.0 0.0
0.0 0.014410272563244174 0.012733907184087864 -0.011886050691329506 -0.0008478564927583586 0.001988479609319101 0.0 0.0
0.0 0.009786470351087267 0.008714770061224706 -0.007978622388375446 -0.0007361476728492586 0.0014477031070669285 0.0 0.0
0.0 0.006069461828345676 0.00545824299563601 -0.004858025364534995 -0.0006002176311010147 0.0009712962169751563 0.0 0.0
0.0 0.0032456200490690967 0.002956759801471016 -0.002531291946060498 -0.0004254678554105164 0.0005800783533212411 0.0 0.0
0.0 0.0013113030337218992 0.0012137304399073075 -0.0009920861003173216 -0.0002216443395899858 0.0002727138369272203 0.0 0.0
0.0 0.00039192129530115673 0.0002074067981708043 -0.00016440572696984785 -4.30010712009565e-05 5.795577549570206e-05 0.0 0.0
0.0 3.222528596137894e-05 -1.384567670592597e-07 8.655932085222015e-08 5.189744620717953e-08 5.055886054292398e-07 0.0 0.0
0.0 9.430826938068039e-08 -1.0209515134588993e-08 7.758883496907494e-09 2.4506316376819497e-09 -3.6392644370560787e-09 0.0 0.0
0.0 0.0 0.0 0.0 0.0 0.0 0.0 0.0
0.0 0.006497058094138938 0.004623592275388093 -0.005089426236467159 0.0004658339610790673 0.004364607462907006 0.0 0.0
0.0 0.004725917925516592 0.0031646852703831898 -0.0036228999541085133 0.0004582146837253224 -0.0037011524196560743 0.0 0.0
0.0 0.0 0.0 0.0 0.0 0.0 0.0 0.0
0.0 0.0 0.0 0.0 0.0 0.0 0.0 0.0
0.0 2.4307082921929654e-06 -2.7159244173351415e-07 2.053625051523891e-07 6.622993658110159e-08 1.4164277531911574e-07 0.0 0.0
0.0 0.00015567432572574974 6.817945883366396e-05 -5.378096227882268e-05 -1.4398496554841189e-05 -3.5401684800255146e-05 0.0 0.0
0.0 0.000984896540505087 0.0007441743083455923 -0.0006007938799181287 -0.00014338042842746324 -0.0002936400849263915 0.0 0.0
0.0 0.0024807860014754816 0.0022464591778620143 -0.0018920920258305148 -0.0003543671520314996 -0.0007576452658263854 0.0 0.0
0.0 0.004963528525696425 0.004450013810014811 -0.003909201627508885 -0.0005408121825059241 -0.0013543004352213148 0.0 0.0
0.0 0.008264808735795447 0.007334094057310481 -0.006646210726732746 -0.000687883330577735 -0.002055860575496867 0.0 0.0
0.0 0.012349569557751449 0.01088417610784636 -0.010080915897168724 -0.000803260210677635 -0.0028370144930745383 0.0 0.0
0.0 0.017301636452853212 0.015149124771588206 -0.014247620693681726 -0.0009015040779064784 -0.0036582023695905497 0.0 0.0
0.0 0.02319530963306657 0.020272392211513005 -0.01928041366740771 -0.000991978544105296 -0.0045046568008743565 0.0 0.0
0.0 0.030436890714226134 0.026460727201216998 -0.025380643044465336 -0.0010800841567516536 -0.005445925517130279 0.0 0.0
0.0 0.03890730747232402 0.03390204690988686 -0.03273249200803342 -0.0011695549018534348 -0.006592027646992744 0.0 0.0
0.0 0.04889272459611936 0.04260240564352339 -0.04134069179735155 -0.0012617138461718282 -0.007907957969652246 0.0 0.0
0.0 0.06008351676338078 0.0523018848727411 -0.05094475068077743 -0.0013571341919636653 -0.009149712036593802 0.0 0.0
0.0 0.0717316833672122 0.06242308652098191 -0.06096884391099414 -0.001454242609987753 -0.009873803436031246 0.0 0.0
0.0 0.08276620217218669 0.07205088161189027 -0.07049855211845964 -0.0015523294934306126 -0.009538085077745638 0.0 0.0
0.0 0.09178340342541723 0.07994571254934744 -0.0783025643438258 -0.0016431482055215987 -0.0077522879280844436 0.0 0.0
0.0 0.09722639891773108 0.08474299447571246 -0.08303834386710382 -0.001704650608608602 -0.004200302581438844 0.0 0.0
0.0 0.09722639891772572 0.08474299447570754 -0.08303834386709882 -0.0017046506086087101 0.004200302581458282 0.0 0.0
0.0 0.09178340342540464 0.0799457125493356 -0.07830256434381451 -0.0016431482055210898 0.007752287928112953 0.0 0.0
0.0 0.08276620217216527 0.07205088161187068 -0.07049855211844075 -0.001552329493429872 0.00953808507776608 0.0 0.0
0.0 0.07173168336718364 0.062423086520956676 -0.06096884391096925 -0.0014542426099874287 0.009873803436040478 0.0 0.0
0.0 0.06008351676334809 0.05230188487271254 -0.05094475068074965 -0.0013571341919628916 0.009149712036590554 0.0 0.0
0.0 0.048892724596086824 0.0426024056434948 -0.04134069179732385 -0.0012617138461709575 0.007907957969650572 0.0 0.0
0.0 0.038907307472290875 0.033902046909857875 -0.03273249200800498 -0.0011695549018528892 0.006592027646991111 0.0 0.0
0.0 0.030436890714192047 0.026460727201187098 -0.025380643044436033 -0.0010800841567510594 0.005445925517127819 0.0 0.0
0.0 0.023195309633033973 0.020272392211484584 -0.019280413667380016 -0.0009919785441045673 0.004504656800867941 0.0 0.0
0.0 0.017301636452824044 0.015149124771562219 -0.0142476206936565 -0.0009015040779057164 0.0036582023695846196 0.0 0.0
0.0 0.01234956955772567 0.010884176107823385 -0.010080915897146457 -0.0008032602106769255 0.00283701449306649 0.0 0.0
0.0 0.008264808735775332 0.007334094057292393 -0.006646210726715422 -0.0006878833305769706 0.0020558605754922234 0.0 0.0
0.0 0.004963528525680778 0.004450013810000462 -0.003909201627495517 -0.0005408121825049459 0.0013543004352170012 0.0 0.0
0.0 0.00248078600146616 0.0022464591778532167 -0.0018920920258227326 -0.0003543671520304832 0.0007576452658237974 0.0 0.0
0.0 0.0009848965405001983 0.0007441743083417488 -0.0006007938799149781 -0.0001433804284267701 0.0002936400849248829 0.0 0.0
0.0 0.00015567432572427184 6.817945883304208e-05 -5.378096227832559e-05 -1.4398496554716355e-05 3.540168479991747e-05 0.0 0.0
0.0 2.430708291709614e-06 -2.715924416780426e-07 2.0536250511018518e-07 6.622993656783338e-08 -1.4164277528895462e-07 0.0 0.0
0.0 0.0 0.0 0.0 0.0 0.0 0.0 0.0
0.0 0.0 0.0 0.0 0.0 0.0 0.0 0.0
0.0 0.004725917925503111 0.003164685270373941 -0.0036228999540983678 0.00045821468372442715 0.0037011524196412893 0.0 0.0
0.0 0.003383819762081646 0.002155458206662504 -0.002556513040234104 0.00040105483357160017 -0.0027913838969553123 0.0 0.0
0.0 0.0 0.0 0.0 0.0 0.0 0.0 0.0
0.0 0.0 0.0 0.0 0.0 0.0 0.0 0.0
0.0 1.7764958665315978e-06 -1.7819784007305854e-07 1.3787375697884427e-07 4.03240830942293e-08 1.8782013220909485e-07 0.0 0.0
0.0 5.049249959428427e-05 1.2947835132456367e-05 -1.0129815818704012e-05 -2.8180193137522568e-06 -1.046569048294189e-05 0.0 0.0
0.0 0.0005819059503935149 0.0003927428830959672 -0.0003135116910887339 -7.923119200723326e-05 -0.00023713336792050151 0.0 0.0
0.0 0.0018044286267888407 0.0015621353517137595 -0.0012932482956422799 -0.00026888705607147926 -0.0007879103186817894 0.0 0.0
0.0 0.0038931445586020703 0.0034564710577213954 -0.002987983853806355 -0.0004684872039150403 -0.0015538293070157193 0.0 0.0
0.0 0.006766668524036172 0.005960115043034364 -0.005332840945903071 -0.000627274097131293 -0.002433502631587425 0.0 0.0
0.0 0.01031268658746059 0.009041184356293856 -0.008292000733399604 -0.0007491836228942506 -0.0034001192707749195 0.0 0.0
0.0 0.014586979828019236 0.012721577937353774 -0.011873837143557069 -0.0008477407937967033 -0.0044065670427943845 0.0 0.0
0.0 0.019704603148034478 0.017117308639349526 -0.016182907840024338 -0.0009344007993251817 -0.0054445312098889585 0.0 0.0
0.0 0.025865872649386255 0.022424011385684152 -0.021408409997756776 -0.001015601387927374 -0.006604680096908863 0.0 0.0
0.0 0.03332725880955674 0.02882781014023182 -0.027730350776285096 -0.0010974593639467211 -0.007968972460031436 0.0 0.0
0.0 0.042099746277856176 0.036371791935141264 -0.035191498119425284 -0.0011802938157159733 -0.009533711016929356 0.0 0.0
0.0 0.05174502206230684 0.04487166444531941 -0.043606964070125785 -0.0012647003751936282 -0.011071705449798326 0.0 0.0
0.0 0.06208930448949335 0.05385525153173858 -0.05250318464102476 -0.0013520668907138116 -0.012038007516331758 0.0 0.0
0.0 0.07201006003972638 0.06253361270539533 -0.061092630416887596 -0.001440982288507718 -0.01175614796317108 0.0 0.0
0.0 0.08023922790971795 0.06980505550087461 -0.06828206074548294 -0.0015229947553916574 -0.009599918050452265 0.0 0.0
0.0 0.08539865462006 0.07443043481676663 -0.0728513246175965 -0.0015791101991701035 -0.005057184479074381 0.0 0.0
0.0 0.08539865462005407 0.07443043481676122 -0.07285132461759093 -0.0015791101991702926 0.005057184479098753 0.0 0.0
0.0 0.08023922790970626 0.06980505550086305 -0.06828206074547198 -0.0015229947553910433 0.009599918050484785 0.0 0.0
0.0 0.07201006003970728 0.06253361270537754 -0.06109263041687014 -0.0014409822885073885 0.011756147963194371 0.0 0.0
0.0 0.06208930448946902 0.05385525153171664 -0.05250318464100326 -0.0013520668907133755 0.01203800751634274 0.0 0.0
0.0 0.05174502206227877 0.044871664445295015 -0.04360696407010187 -0.001264700375193154 0.011071705449795181 0.0 0.0
0.0 0.04209974627782508 0.0363717919351143 -0.03519149811939866 -0.00118029381571563 0.009533711016925829 0.0 0.0
0.0 0.0333272588095271 0.028827810140205946 -0.027730350776259606 -0.001097459363946348 0.007968972460028438 0.0 0.0
0.0 0.02586587264935842 0.022424011385659488 -0.021408409997732816 -0.0010156013879266648 0.006604680096906035 0.0 0.0
0.0 0.019704603148005834 0.017117308639324282 -0.016182907839999684 -0.0009344007993245955 0.005444531209881453 0.0 0.0
0.0 0.01458697982799286 0.012721577937330392 -0.011873837143534235 -0.0008477407937961664 0.004406567042786641 0.0 0.0
0.0 0.0103126865874383 0.009041184356274316 -0.008292000733380746 -0.0007491836228935669 0.0034001192707655897 0.0 0.0
0.0 0.006766668524018307 0.005960115043018363 -0.005332840945887895 -0.0006272740971304666 0.002433502631581531 0.0 0.0
0.0 0.003893144558590205 0.003456471057710602 -0.0029879838537964468 -0.0004684872039141533 0.0015538293070109224 0.0 0.0
0.0 0.001804428626780113 0.0015621353517060715 -0.0012932482956356337 -0.000268887056070437 0.000787910318678394 0.0 0.0
0.0 0.0005819059503888405 0.0003927428830929264 -0.00031351169108624844 -7.923119200667795e-05 0.0002371333679186288 0.0 0.0
0.0 5.049249959333715e-05 1.29478351325353e-05 -1.0129815818756907e-05 -2.8180193137784856e-06 1.0465690482955511e-05 0.0 0.0
0.0 1.7764958662467406e-06 -1.7819784004332652e-07 1.3787375695581053e-07 4.032408308752122e-08 -1.8782013217738892e-07 0.0 0.0
0.0 0.0 0.0 0.0 0.0 0.0 0.0 0.0
0.0 0.0 0.0 0.0 0.0 0.0 0.0 0.0
0.0 0.0033838197620698553 0.002155458206654847 -0.0025565130402255497 0.00040105483357070175 0.0027913838969438635 0.0 0.0
0.0 0.0023172804819773653 0.001408763169169321 -0.001726835632677205 0.00031807246350788444 -0.0019321021287708033 0.0 0.0
0.0 0.0 0.0 0.0 0.0 0.0 0.0 0.0
0.0 0.0 0.0 0.0 0.0 0.0 0.0 0.0
0.0 6.929946244958124e-08 -5.867089801559984e-09 4.478351496008589e-09 1.388738305550426e-09 8.798859195521545e-09 0.0 0.0
0.0 1.6111786067273453e-05 1.7826025538098862e-07 -1.980140645820076e-07 1.9753809200995758e-08 -3.671698421018671e-07 0.0 0.0
0.0 0.0002773956507190311 0.00016362271024031942 -0.00012981502158062927 -3.380768865969027e-05 -0.00015271276407759427 0.0 0.0
0.0 0.0012752358783894326 0.0009438304462571522 -0.0007675734286994411 -0.0001762570175577109 -0.0006703302524672946 0.0 0.0
0.0 0.002911801378735473 0.0024820170814535787 -0.002103250564870181 -0.00037876651658339775 -0.0015306187088048595 0.0 0.0
0.0 0.005303721495312918 0.0046056382112688995 -0.004055002352331223 -0.0005506358589376746 -0.002569386366794678 0.0 0.0
0.0 0.008322040358089774 0.007215598646620798 -0.006533305403294817 -0.0006822932433259803 -0.0036669065956987353 0.0 0.0
0.0 0.011941672710777096 0.01031841087084019 -0.009534073148361058 -0.0007843377224791291 -0.0048018974888408405 0.0 0.0
0.0 0.016233430164658946 0.013999952138388401 -0.013130980122225189 -0.0008689720161632119 -0.005962625474054164 0.0 0.0
0.0 0.02146450824606364 0.018431943621893713 -0.017486367724095942 -0.0009455758977977699 -0.007238608769208335 0.0 0.0
0.0 0.02765200595692109 0.023801503812207667 -0.022781996587894156 -0.0010195072243135137 -0.008753887722474004 0.0 0.0
0.0 0.03509861923098673 0.03017619940102927 -0.029082977485355068 -0.001093221915674195 -0.010468982501924887 0.0 0.0
0.0 0.043638255788919375 0.0374385265000311 -0.036270445158265004 -0.0011680813417660938 -0.01213513396107667 0.0 0.0
0.0 0.052487971592946506 0.04524276859660431 -0.04399874006470572 -0.0012440285318985815 -0.013286926096069787 0.0 0.0
0.0 0.061218404278184764 0.05295757948964441 -0.05163551569565859 -0.0013220637939858147 -0.013160899352540034 0.0 0.0
0.0 0.06872824086171947 0.059651324010575574 -0.058255506298531975 -0.001395817712043591 -0.01088805061182815 0.0 0.0
0.0 0.0737079334959984 0.06418686723035825 -0.0627376583974678 -0.001449208832890461 -0.005761155969321549 0.0 0.0
0.0 0.0737079334959937 0.06418686723035374 -0.06273765839746295 -0.0014492088328907403 0.005761155969347033 0.0 0.0
0.0 0.06872824086170903 0.059651324010565 -0.05825550629852137 -0.001395817712043625 0.010888050611861086 0.0 0.0
0.0 0.061218404278169755 0.05295757948962972 -0.051635515695644243 -0.001322063793985459 0.013160899352564155 0.0 0.0
0.0 0.052487971592926536 0.045242768596585874 -0.0439987400646878 -0.0012440285318980936 0.013286926096081167 0.0 0.0
0.0 0.043638255788894804 0.037438526500009554 -0.03627044515824397 -0.0011680813417655922 0.012135133961073937 0.0 0.0
0.0 0.035098619230961345 0.03017619940100699 -0.029082977485333342 -0.0010932219156736319 0.01046898250192126 0.0 0.0
0.0 0.027652005956896937 0.023801503812186417 -0.02278199658787353 -0.0010195072243128851 0.00875388772247046 0.0 0.0
0.0 0.021464508246038815 0.01843194362187177 -0.01748636772407424 -0.0009455758977975199 0.0072386087692044 0.0 0.0
0.0 0.01623343016463439 0.013999952138366904 -0.013130980122204169 -0.00086897201616273 0.005962625474045996 0.0 0.0
0.0 0.011941672710755247 0.010318410870821124 -0.009534073148342622 -0.000784337722478506 0.004801897488831527 0.0 0.0
0.0 0.008322040358071298 0.00721559864660508 -0.00653330540327986 -0.0006822932433252187 0.0036669065956883937 0.0 0.0
0.0 0.005303721495297696 0.0046056382112554 -0.004055002352318619 -0.0005506358589367787 0.0025693863667880555 0.0 0.0
0.0 0.0029118013787239 0.0024820170814436665 -0.002103250564861317 -0.00037876651658234905 0.0015306187087989849 0.0 0.0
0.0 0.0012752358783828324 0.0009438304462520111 -0.0007675734286951597 -0.00017625701755685167 0.0006703302524640871 0.0 0.0
0.0 0.000277395650716086 0.00016362271023866393 -0.00012981502157930546 -3.3807688659358485e-05 0.00015271276407610127 0.0 0.0
0.0 1.6111786066607034e-05 1.7826025550432827e-07 -1.980140646763855e-07 1.9753809172128267e-08 3.671698422506931e-07 0.0 0.0
0.0 6.92994622914334e-08 -5.86708978807203e-09 4.478351485713519e-09 1.3887383023585593e-09 -8.798859175293273e-09 0.0 0.0
0.0 0.0 0.0 0.0 0.0 0.0 0.0 0.0
0.0 0.0 0.0 0.0 0.0 0.0 0.0 0.0
0.0 0.0023172804819676764 0.0014087631691633235 -0.0017268356326703219 0.00031807246350699784 0.0019321021287618608 0.0 0.0
0.0 0.001451211280428775 0.0008503814082543881 -0.0010760169141725445 0.0002256355059181564 -0.0012172712711523432 0.0 0.0
0.0 0.0 0.0 0.0 0.0 0.0 0.0 0.0
0.0 0.0 0.0 0.0 0.0 0.0 0.0 0.0
0.0 0.0 0.0 0.0 0.0 0.0 0.0 0.0
0.0 1.0042081989473157e-05 -9.329724215854319e-07 7.201815348631364e-07 2.1279088672229382e-07 1.7612736881375419e-06 0.0 0.0
0.0 0.00010207518039488046 6.0983168744924665e-05 -4.834382742305098e-05 -1.2639341321873652e-05 -8.955964092818515e-05 0.0 0.0
0.0 0.000698165686937718 0.0004885979749503875 -0.00039128664385209053 -9.731133109829667e-05 -0.000506298223624671 0.0 0.0
0.0 0.002006426715216935 0.0015786734802983855 -0.0013084514609671806 -0.00027022201933120496 -0.0013236814732840243 0.0 0.0
0.0 0.00393147530386486 0.0032785719006110103 -0.002826041413900214 -0.0004525304867107961 -0.002419867940463191 0.0 0.0
0.0 0.0063885692783182775 0.005421884803727496 -0.00482527615697464 -0.0005966086467528557 -0.0036211345249780964 0.0 0.0
0.0 0.009339379807026666 0.007952210438797512 -0.007246653200946062 -0.0007055572378514494 -0.004823601061847029 0.0 0.0
0.0 0.012847641332382162 0.01093203622559498 -0.010139728269109357 -0.0007923079564856222 -0.006043429204354085 0.0 0.0
0.0 0.017058199255502535 0.0145054794478982 -0.01363903756591572 -0.0008664418819824863 -0.007371555496630687 0.0 0.0
0.0 0.022172604776509605 0.01884167258280595 -0.01790712229918457 -0.0009345502836213819 -0.008906500987471712 0.0 0.0
0.0 0.028333083443890045 0.02403852193652746 -0.023038592332860305 -0.000999929603667159 -0.010654108218749276 0.0 0.0
0.0 0.035201948610798464 0.03004525190240172 -0.028980637144474568 -0.0010646147579271626 -0.012391843377577219 0.0 0.0
0.0 0.042889325727101885 0.03661424562674134 -0.035484843142584474 -0.0011294024841568418 -0.013627104916219098 0.0 0.0
0.0 0.05054038959147513 0.04331065528986416 -0.042115903657214286 -0.001194751632649841 -0.013670539489838134 0.0 0.0
0.0 0.0571705274436735 0.04942707526706255 -0.048167657092990805 -0.0012594181740717195 -0.01157223978728373 0.0 0.0
0.0 0.062032038730780885 0.05392905021675169 -0.05261722854363429 -0.0013118216731173953 -0.006316188513232604 0.0 0.0
0.0 0.06203203873077874 0.053929050216749055 -0.05261722854363171 -0.001311821673117366 0.00631618851325789 0.0 0.0
0.0 0.05717052744366308 0.04942707526705162 -0.04816765709297975 -0.001259418174071869 0.011572239787315988 0.0 0.0
0.0 0.05054038959146283 0.04331065528985136 -0.04211590365720186 -0.0011947516326495113 0.013670539489861935 0.0 0.0
0.0 0.042889325727086716 0.03661424562672695 -0.03548484314257078 -0.001129402484156155 0.013627104916228927 0.0 0.0
0.0 0.0352019486107813 0.030045251902386636 -0.028980637144460284 -0.0010646147579263375 0.01239184337757431 0.0 0.0
0.0 0.028333083443871043 0.024038521936510727 -0.023038592332844304 -0.0009999296036664214 0.010654108218744752 0.0 0.0
0.0 0.022172604776489586 0.018841672582788276 -0.017907122299167313 -0.0009345502836209642 0.00890650098746756 0.0 0.0
0.0 0.01705819925548255 0.014505479447880608 -0.013639037565898557 -0.0008664418819820472 0.007371555496626664 0.0 0.0
0.0 0.012847641332361676 0.01093203622557741 -0.010139728269092292 -0.0007923079564851179 0.006043429204346126 0.0 0.0
0.0 0.009339379807007244 0.007952210438780905 -0.0072466532009302035 -0.0007055572378507 0.004823601061837318 0.0 0.0
0.0 0.0063885692783027265 0.005421884803714338 -0.004825276156962267 -0.000596608646752069 0.003621134524967604 0.0 0.0
0.0 0.003931475303853219 0.003278571900600792 -0.0028260414138909173 -0.0004525304867098751 0.0024198679404568023 0.0 0.0
0.0 0.0020064267152079796 0.0015786734802910683 -0.0013084514609608454 -0.00027022201933022224 0.001323681473278474 0.0 0.0
0.0 0.0006981656869330695 0.0004885979749471264 -0.00039128664384943115 -9.731133109769504e-05 0.0005062982236217706 0.0 0.0
0.0 0.00010207518039355863 6.0983168744663244e-05 -4.83438274228389e-05 -1.2639341321824381e-05 8.95596409277447e-05 0.0 0.0
0.0 1.0042081989081814e-05 -9.329724215460563e-07 7.201815348328094e-07 2.127908867132563e-07 -1.7612736880608109e-06 0.0 0.0
0.0 0.0 0.0 0.0 0.0 0.0 0.0 0.0
0.0 0.0 0.0 0.0 0.0 0.0 0.0 0.0
0.0 0.0 0.0 0.0 0.0 0.0 0.0 0.0
0.0 0.0014512112804214688 0.0008503814082501146 -0.001076016914167471 0.0002256355059173568 0.0012172712711459365 0.0 0.0
0.0 0.0008136316599797236 0.0004425442294176674 -0.0005769864913187199 0.0001344422619010524 -0.0006598407483167011 0.0 0.0
0.0 0.0 0.0 0.0 0.0 0.0 0.0 0.0
0.0 0.0 0.0 0.0 0.0 0.0 0.0 0.0
0.0 0.0 0.0 0.0 0.0 0.0 0.0 0.0
0.0 3.414621966702618e-06 -9.764229203665496e-08 6.763986597565844e-08 3.000242606099222e-08 2.1911757490674137e-07 0.0 0.0
0.0 5.681504008437829e-05 1.3895605074652556e-05 -1.1016217672498098e-05 -2.8793874021544973e-06 -2.925378392224529e-05 0.0 0.0
0.0 0.00032059278629396914 0.00019258929509255332 -0.00015295320660017655 -3.963608849237672e-05 -0.00031011034488648135 0.0 0.0
0.0 0.0011710887121558077 0.0008332162243010228 -0.000675084019697714 -0.00015813220460330843 -0.000994498580793352 0.0 0.0
0.0 0.0026268322933328636 0.0020315664183790045 -0.0017053230848937781 -0.0003262433334852257 -0.0020044271521823345 0.0 0.0
0.0 0.004526114085273597 0.003676822674646435 -0.0031943063631157415 -0.000482516311530693 -0.0032122627720637 0.0 0.0
0.0 0.006819521294032274 0.005638511528055806 -0.005036772999562328 -0.000601738528493479 -0.004453553953445426 0.0 0.0
0.0 0.009534173871734502 0.007929999050133831 -0.007234322042971455 -0.0006956770071623763 -0.005673854855925741 0.0 0.0
0.0 0.01280379194024918 0.010661416613173866 -0.009889667660256993 -0.0007717489529168685 -0.006970990160379805 0.0 0.0
0.0 0.016731031659610374 0.013982416086786069 -0.013144951466692414 -0.0008374646200936477 -0.00844708214559401 0.0 0.0
0.0 0.021509981564913707 0.0179970971888462 -0.017101429199410587 -0.0008956679894356033 -0.010104948245658548 0.0 0.0
0.0 0.027081435657917586 0.0227179921242856 -0.02176562491021971 -0.0009523672140658796 -0.011768235358658192 0.0 0.0
0.0 0.033173180082584706 0.028007096212391693 -0.027001132282396173 -0.001005963929995521 -0.01304424547890462 0.0 0.0
0.0 0.03952870266977211 0.03360546384431214 -0.03254861854716123 -0.0010568452971509176 -0.013297469544915307 0.0 0.0
0.0 0.04565209903269224 0.039074754078499065 -0.037964640250546834 -0.001110113827952214 -0.011608351130898134 0.0 0.0
0.0 0.05049136335179082 0.04356562068276787 -0.042402590168097734 -0.0011630305146701238 -0.00670268668640082 0.0 0.0
0.0 0.050491363351788256 0.04356562068276492 -0.04240259016809473 -0.0011630305146701795 0.006702686686423086 0.0 0.0
0.0 0.04565209903268866 0.039074754078493534 -0.03796464025054164 -0.0011101138279519045 0.011608351130929275 0.0 0.0
0.0 0.03952870266976478 0.03360546384430327 -0.032548618547152616 -0.0010568452971506555 0.013297469544938488 0.0 0.0
0.0 0.03317318008257113 0.028007096212378745 -0.027001132282383402 -0.0010059639299953493 0.013044245478911863 0.0 0.0
0.0 0.02708143565790188 0.022717992124272054 -0.02176562491020643 -0.0009523672140656123 0.011768235358653848 0.0 0.0
0.0 0.02150998156489725 0.01799709718883214 -0.01710142919939675 -0.0008956679894353929 0.010104948245652662 0.0 0.0
0.0 0.016731031659596683 0.01398241608677406 -0.013144951466680753 -0.000837464620093303 0.008447082145590397 0.0 0.0
0.0 0.012803791940236186 0.01066141661316221 -0.009889667660246045 -0.0007717489529161625 0.006970990160376826 0.0 0.0
0.0 0.009534173871720432 0.007929999050121766 -0.007234322042960094 -0.0006956770071616714 0.005673854855918373 0.0 0.0
0.0 0.0068195212940192675 0.005638511528045084 -0.005036772999552198 -0.0006017385284928846 0.00445355395343682 0.0 0.0
0.0 0.00452611408526033 0.0036768226746358703 -0.0031943063631060097 -0.0004825163115298603 0.0032122627720531276 0.0 0.0
0.0 0.002626832293322754 0.002031566418371049 -0.001705323084886668 -0.00032624333348437975 0.0020044271521758397 0.0 0.0
0.0 0.0011710887121494965 0.0008332162242964288 -0.0006750840196939143 -0.0001581322046025147 0.0009944985807887785 0.0 0.0
0.0 0.00032059278629101604 0.00019258929509087622 -0.0001529532065988292 -3.963608849204681e-05 0.00031011034488410565 0.0 0.0
0.0 5.6815040083099834e-05 1.3895605074454636e-05 -1.101621767233992e-05 -2.879387402114644e-06 2.9253783921806747e-05 0.0 0.0
0.0 3.4146219664517046e-06 -9.764229186732725e-08 6.763986583994117e-08 3.000242602737976e-08 -2.1911757441621437e-07 0.0 0.0
0.0 0.0 0.0 0.0 0.0 0.0 0.0 0.0
0.0 0.0 0.0 0.0 0.0 0.0 0.0 0.0
0.0 0.0 0.0 0.0 0.0 0.0 0.0 0.0
0.0 0.0008136316599743057 0.0004425442294148579 -0.0005769864913152713 0.00013444226190041352 0.0006598407483123281 0.0 0.0
0.0 0.0003731679597043974 0.0001728375323398848 -0.0002336304284121317 6.0792896072247216e-05 -0.00026446670761756934 0.0 0.0
0.0 9.021725963171627e-08 -5.274566123778698e-10 6.099197200343717e-10 -8.24631076566411e-11 1.7958020711408732e-08 0.0 0.0
0.0 0.0 0.0 0.0 0.0 0.0 0.0 0.0
0.0 0.0 0.0 0.0 0.0 0.0 0.0 0.0
0.0 2.941446764786285e-06 -1.3952363807393717e-07 1.0592787567314353e-07 3.3595762400780106e-08 5.885360677433528e-07 0.0 0.0
0.0 3.151343868508722e-05 5.652369417450737e-06 -4.385137695512554e-06 -1.2672317219381787e-06 -1.7159517132068378e-05 0.0 0.0
0.0 0.00014844384998823868 6.215710181039094e-05 -4.9217257805879556e-05 -1.2939844004511402e-05 -0.0001659356982020513 0.0 0.0
0.0 0.0005391913439193935 0.0003113981121329999 -0.00024741377219652725 -6.398433993647262e-05 -0.0006009708306757416 0.0 0.0
0.0 0.0014613771751291488 0.0009647183580741668 -0.0007856048061946088 -0.00017911355187955763 -0.0013970830266143912 0.0 0.0
0.0 0.0027157092689008497 0.0020455089820989826 -0.0017190018493906227 -0.00032650713270836006 -0.002463912796645796 0.0 0.0
0.0 0.004441813936843888 0.0034098500358144797 -0.0029549515197120047 -0.00045489851610247366 -0.0036265198264148553 0.0 0.0
0.0 0.006342398008156624 0.005021380963915341 -0.00446198373386569 -0.0005593972300496519 -0.0048007220559985065 0.0 0.0
0.0 0.008638148728831261 0.006932949114210698 -0.0062882418428084645 -0.00064470727140223 -0.0060194582624225 0.0 0.0
0.0 0.011457149479520982 0.00925697724895275 -0.008542561588474079 -0.0007144156604786678 -0.00734792106214234 0.0 0.0
0.0 0.014940307769145407 0.012097104758961261 -0.01132468737891108 -0.0007724173800501826 -0.008809386412619235 0.0 0.0
0.0 0.019018758035284196 0.015510925829813043 -0.01468899596579672 -0.0008219298640163192 -0.010299323333305263 0.0 0.0
0.0 0.02370833585575397 0.019467740098537578 -0.018599672008274146 -0.0008680680902634333 -0.011485905207624813 0.0 0.0
0.0 0.02864401728857177 0.023866015090667287 -0.022959602931599186 -0.0009064121590680892 -0.011909389470233699 0.0 0.0
0.0 0.0337337344155801 0.02855554472770273 -0.02761433820022977 -0.0009412065274729416 -0.010887217099480305 0.0 0.0
0.0 0.03841473539103498 0.03300741390507273 -0.03201445479447096 -0.0009929591106017704 -0.006886105835299448 0.0 0.0
0.0 0.03841473539103352 0.03300741390507048 -0.03201445479446874 -0.000992959110601734 0.006886105835317714 0.0 0.0
0.0 0.03373373441557519 0.028555544727696038 -0.027614338200223132 -0.0009412065274729046 0.010887217099505807 0.0 0.0
0.0 0.028644017288564774 0.023866015090658846 -0.02295960293159106 -0.0009064121590677887 0.011909389470251719 0.0 0.0
0.0 0.023708335855744417 0.01946774009852805 -0.018599672008265292 -0.0008680680902627578 0.011485905207630594 0.0 0.0
0.0 0.019018758035272715 0.015510925829803363 -0.014688995965787693 -0.0008219298640156653 0.010299323333300334 0.0 0.0
0.0 0.014940307769133167 0.012097104758951122 -0.011324687378901407 -0.0007724173800497111 0.008809386412613234 0.0 0.0
0.0 0.011457149479510143 0.009256977248943487 -0.008542561588465121 -0.0007144156604783675 0.007347921062138955 0.0 0.0
0.0 0.008638148728821857 0.0069329491142024625 -0.006288241842800586 -0.0006447072714018757 0.006019458262419531 0.0 0.0
0.0 0.006342398008146413 0.005021380963907002 -0.004461983733857927 -0.000559397230049076 0.0048007220559918296 0.0 0.0
0.0 0.004441813936833756 0.003409850035806468 -0.002954951519704839 -0.00045489851610162804 0.0036265198264068335 0.0 0.0
0.0 0.0027157092688916405 0.002045508982092278 -0.0017190018493848046 -0.0003265071327074731 0.0024639127966375406 0.0 0.0
0.0 0.0014613771751237504 0.0009647183580702757 -0.0007856048061914019 -0.00017911355187887412 0.0013970830266101454 0.0 0.0
0.0 0.0005391913439162224 0.00031139811213104073 -0.00024741377219495504 -6.398433993608558e-05 0.0006009708306727758 0.0 0.0
0.0 0.0001484438499868762 6.215710181009002e-05 -4.921725780563506e-05 -1.2939844004454992e-05 0.0001659356982012594 0.0 0.0
0.0 3.151343868430577e-05 5.652369417444485e-06 -4.385137695508005e-06 -1.2672317219364575e-06 1.715951713205091e-05 0.0 0.0
0.0 2.9414467642801842e-06 -1.3952363805020315e-07 1.0592787565476392e-07 3.359576239544616e-08 -5.885360676368125e-07 0.0 0.0
0.0 0.0 0.0 0.0 0.0 0.0 0.0 0.0
0.0 0.0 0.0 0.0 0.0 0.0 0.0 0.0
0.0 9.021725939530122e-08 -5.274566109826295e-10 6.099197184208691e-10 -8.246310743827494e-11 -1.7958020663926448e-08 0.0 0.0
0.0 0.00037316795970107673 0.00017283753233856262 -0.00023363042841040947 6.079289607184705e-05 0.0002644667076156025 0.0 0.0
0.0 0.00010258263900908542 4.4547150373165145e-05 -6.30987481143977e-05 1.85515977412326e-05 -7.171966440088515e-05 0.0 0.0
0.0 1.8030073051673429e-06 -4.177191184509683e-09 1.0378638774830307e-08 -6.201447590320216e-09 3.8291760625588695e-07 0.0 0.0
0.0 0.0 0.0 0.0 0.0 0.0 0.0 0.0
0.0 1.3942118126280809e-06 -1.7202479833820512e-08 1.1633862331670308e-08 5.568617502153395e-09 2.882879494068393e-07 0.0 0.0
0.0 3.0628381032312882e-06 -6.90575449801798e-08 5.370267077264668e-08 1.5354874207528902e-08 6.580753880870616e-07 0.0 0.0
0.0 2.433057757010567e-05 1.474270696048887e-06 -1.1819918208307587e-06 -2.922788752181327e-07 -8.48310091199579e-06 0.0 0.0
0.0 0.00010439153056090346 2.5020832343424172e-05 -1.9815358544714534e-05 -5.205473798709596e-06 -0.0001183273986323545 0.0 0.0
0.0 0.0002432910470445061 9.163767919765472e-05 -7.25200254473579e-05 -1.9117653750296787e-05 -0.00035362482283601496 0.0 0.0
0.0 0.0005923959820853858 0.00026444213798606565 -0.00020983664878034512 -5.460548920572049e-05 -0.0007566365688429389 0.0 0.0
0.0 0.0012267547886299893 0.0006925137383113841 -0.000557748204638401 -0.00013476553367298313 -0.0014693334115859968 0.0 0.0
0.0 0.0021457199570853003 0.001400079245466809 -0.0011569737784744027 -0.00024310546699240576 -0.0023888430469681207 0.0 0.0
0.0 0.003360499817709668 0.002294393179473038 -0.0019483308069198572 -0.00034606237255318086 -0.003388310842780832 0.0 0.0
0.0 0.004781773187754107 0.003390477709661702 -0.0029495954158191054 -0.00044088229384259416 -0.00448297535343676 0.0 0.0
0.0 0.0065224473031296895 0.004742131549019155 -0.004218550626866515 -0.0005235809221526375 -0.005635634067703445 0.0 0.0
0.0 0.008658082831865083 0.006422852377792894 -0.005830927804024622 -0.0005919245737682718 -0.006852276958257703 0.0 0.0
0.0 0.011261795113715126 0.008514286326194479 -0.007868270587891506 -0.0006460157383029732 -0.00809646040281989 0.0 0.0
0.0 0.014418189235040992 0.011091904469380588 -0.010402328497586896 -0.0006895759717936969 -0.009182638343284305 0.0 0.0
0.0 0.018014242511594985 0.01419981464632483 -0.01347054205783625 -0.0007292725884885871 -0.009668783964545095 0.0 0.0
0.0 0.022088251563701866 0.01788459061513215 -0.017138508457733573 -0.0007460821573985826 -0.009249316717590796 0.0 0.0
0.0 0.026461918539756275 0.022137970690051127 -0.021353332712890444 -0.0007846379771606933 -0.00672110511382785 0.0 0.0
0.0 0.02646191853975714 0.022137970690050746 -0.021353332712890166 -0.0007846379771605848 0.006721105113842095 0.0 0.0
0.0 0.022088251563700555 0.01788459061512835 -0.017138508457729927 -0.0007460821573984208 0.009249316717613006 0.0 0.0
0.0 0.018014242511591654 0.014199814646319513 -0.013470542057831318 -0.0007292725884881933 0.009668783964559946 0.0 0.0
0.0 0.014418189235033955 0.011091904469373935 -0.010402328497580497 -0.0006895759717934345 0.009182638343286196 0.0 0.0
0.0 0.011261795113707156 0.008514286326188626 -0.007868270587886108 -0.0006460157383025153 0.008096460402814091 0.0 0.0
0.0 0.008658082831856935 0.006422852377786754 -0.005830927804018785 -0.000591924573767966 0.0068522769582520255 0.0 0.0
0.0 0.0065224473031227975 0.004742131549013573 -0.004218550626861215 -0.0005235809221523569 0.005635634067699787 0.0 0.0
0.0 0.004781773187749395 0.0033904777096575114 -0.002949595415815307 -0.0004408822938422047 0.004482975353434976 0.0 0.0
0.0 0.003360499817703702 0.0022943931794688964 -0.0019483308069163231 -0.0003460623725525731 0.003388310842775407 0.0 0.0
0.0 0.002145719957078959 0.0014000792454625752 -0.0011569737784707678 -0.00024310546699180663 0.002388843046961954 0.0 0.0
0.0 0.0012267547886235621 0.000692513738307642 -0.0005577482046352586 -0.00013476553367238316 0.0014693334115790566 0.0 0.0
0.0 0.0005923959820831391 0.0002644421379849184 -0.00020983664877943022 -5.4605489205488025e-05 0.0007566365688403049 0.0 0.0
0.0 0.00024329104704310235 9.163767919725125e-05 -7.252002544705484e-05 -1.9117653750196376e-05 0.0003536248228346543 0.0 0.0
0.0 0.0001043915305596884 2.502083234322581e-05 -1.9815358544552706e-05 -5.205473798673081e-06 0.00011832739863139546 0.0 0.0
0.0 2.4330577569678857e-05 1.4742706960826825e-06 -1.1819918208570697e-06 -2.9227887522560094e-07 8.483100912220556e-06 0.0 0.0
0.0 3.062838102718457e-06 -6.905754496692381e-08 5.3702670762761436e-08 1.535487420416051e-08 -6.580753879724068e-07 0.0 0.0
0.0 1.3942118121365584e-06 -1.7202479827439693e-08 1.1633862327329383e-08 5.568617500112952e-09 -2.8828794930130727e-07 0.0 0.0
0.0 0.0 0.0 0.0 0.0 0.0 0.0 0.0
0.0 1.8030073045943297e-06 -4.1771911826671024e-09 1.0378638770354691e-08 -6.201447587687759e-09 -3.8291760613307903e-07 0.0 0.0
0.0 0.0001025826390075696 4.454715037288767e-05 -6.309874811398782e-05 1.855159774110013e-05 7.171966440060552e-05 0.0 0.0
0.0 1.2536742011437404e-05 2.0898158689440947e-06 -3.05749547762318e-06 9.676796086790924e-07 -3.6176027563023253e-06 0.0 0.0
0.0 2.1979396482406107e-06 1.1868574056845524e-09 1.0883559240507842e-08 -1.207041664619258e-08 4.588111399241068e-07 0.0 0.0
0.0 8.28283976103979e-07 8.757322001854407e-09 -7.994197467743662e-09 -7.631245341108108e-10 1.6872916499049268e-07 0.0 0.0
0.0 1.0341171999299922e-06 3.4830124123105497e-09 -4.631541757330647e-09 1.1485293450206947e-09 2.129476539670559e-07 0.0 0.0
0.0 5.455561020512527e-06 -1.877319191668789e-08 9.400339741409076e-09 9.372852175272426e-09 1.2338249442580408e-06 0.0 0.0
0.0 2.101036559954894e-05 5.705939136281625e-07 -4.448658798916437e-07 -1.2572803373650855e-07 -1.1284895639999109e-05 0.0 0.0
0.0 8.210551617432033e-05 7.575630679434574e-06 -5.974518453835309e-06 -1.6011122255992673e-06 -0.00011307853291537865 0.0 0.0
0.0 0.00020834522004222332 2.278004807785857e-05 -1.8001483062743668e-05 -4.778565015114872e-06 -0.000269830003224082 0.0 0.0
0.0 0.00034671336115633293 5.5002004916592984e-05 -4.358999889298636e-05 -1.141200602360665e-05 -0.0005273662383587613 0.0 0.0
0.0 0.0005953951627650368 0.0001076189856994766 -8.570794929295056e-05 -2.1911036406526005e-05 -0.0008591878164902482 0.0 0.0
0.0 0.0008332786544322318 0.00019860898911546978 -0.00015923211163286114 -3.9376877482608625e-05 -0.0013783745165057179 0.0 0.0
0.0 0.0012564152108874294 0.00034783909368572217 -0.00027900558856332614 -6.883350512239592e-05 -0.0020221332680172314 0.0 0.0
0.0 0.0018372417659708717 0.000589724721352834 -0.00047316033342372193 -0.00011656438792911222 -0.002837524381388505 0.0 0.0
0.0 0.0026041421704401835 0.0009180428726366287 -0.0007427584082944711 -0.00017528446434215725 -0.0038258258486600855 0.0 0.0
0.0 0.0035499509989847617 0.0013770964865244312 -0.0011357375675076131 -0.00024135891901681756 -0.005006198520058421 0.0 0.0
0.0 0.004821268422531982 0.002088261501408052 -0.0017827922596577695 -0.0003054692417502814 -0.0062947467628961164 0.0 0.0
0.0 0.006446096235157656 0.0032131063483740595 -0.0028509152504117025 -0.00036219109796235507 -0.007464577792149897 0.0 0.0
0.0 0.008512038549789495 0.004963273613677151 -0.0045389946929574 -0.0004242789207197485 -0.008052809444554278 0.0 0.0
0.0 0.011117905523194024 0.007443861288783743 -0.006957776825678898 -0.0004860844631048444 -0.007655722155659826 0.0 0.0
0.0 0.014700590460131072 0.011003551159489077 -0.010526874092029459 -0.0004766770674596086 -0.006383623749842314 0.0 0.0
0.0 0.014700590460131575 0.011003551159488714 -0.010526874092028996 -0.0004766770674597174 0.006383623749851549 0.0 0.0
0.0 0.011117905523193852 0.007443861288781059 -0.006957776825676216 -0.0004860844631048414 0.007655722155675929 0.0 0.0
0.0 0.00851203854978835 0.004963273613674691 -0.004538994692954877 -0.00042427892071981023 0.0080528094445622 0.0 0.0
0.0 0.006446096235156773 0.0032131063483737928 -0.002850915250411446 -0.00036219109796234656 0.0074645777921489055 0.0 0.0
0.0 0.00482126842252827 0.0020882615014064564 -0.0017827922596563221 -0.0003054692417501332 0.006294746762891131 0.0 0.0
0.0 0.003549950998981764 0.0013770964865230972 -0.001135737567506418 -0.00024135891901667862 0.005006198520054469 0.0 0.0
0.0 0.0026041421704382298 0.0009180428726359692 -0.0007427584082939306 -0.00017528446434203878 0.00382582584865746 0.0 0.0
0.0 0.0018372417659692048 0.0005897247213525195 -0.00047316033342351604 -0.00011656438792900316 0.002837524381385811 0.0 0.0
0.0 0.001256415210884611 0.0003478390936851036 -0.0002790055885627944 -6.883350512230913e-05 0.0020221332680125754 0.0 0.0
0.0 0.0008332786544300876 0.0001986089891149518 -0.00015923211163246443 -3.9376877482487364e-05 0.0013783745165018846 0.0 0.0
0.0 0.0005953951627623744 0.00010761898569907659 -8.570794929260375e-05 -2.191103640647282e-05 0.0008591878164862356 0.0 0.0
0.0 0.0003467133611554541 5.5002004916476534e-05 -4.358999889290604e-05 -1.1412006023570455e-05 0.0005273662383575366 0.0 0.0
0.0 0.00020834522004135902 2.2780048077758814e-05 -1.8001483062665873e-05 -4.778565015092935e-06 0.0002698300032228868 0.0 0.0
0.0 8.210551617346404e-05 7.575630679376063e-06 -5.974518453786583e-06 -1.6011122255894701e-06 0.00011307853291450234 0.0 0.0
0.0 2.1010365599023834e-05 5.705939136285244e-07 -4.448658798909813e-07 -1.2572803373754741e-07 1.1284895639998695e-05 0.0 0.0
0.0 5.4555610200182124e-06 -1.87731919147807e-08 9.400339740515117e-09 9.372852174262189e-09 -1.2338249441362645e-06 0.0 0.0
0.0 1.0341171994111593e-06 3.4830124097744975e-09 -4.63154175459075e-09 1.1485293448161685e-09 -2.1294765385734702e-07 0.0 0.0
0.0 8.282839756553083e-07 8.757321996808003e-09 -7.99419746324245e-09 -7.631245335657651e-10 -1.687291648967851e-07 0.0 0.0
0.0 2.1979396476663126e-06 1.1868574058352821e-09 1.0883559236708018e-08 -1.2070416642541689e-08 -4.588111397997392e-07 0.0 0.0
0.0 1.2536742010970618e-05 2.0898158690608603e-06 -3.057495477793102e-06 9.676796087321922e-07 3.617602756536164e-06 0.0 0.0
0.0 1.1154274967154838e-06 -6.940272927065707e-08 1.0140536005932445e-07 -3.2002630788669234e-08 1.5472886577778056e-07 0.0 0.0
0.0 1.7796170291698353e-06 6.777231581667589e-09 2.818520896233413e-09 -9.595752477896557e-09 3.8083891622846305e-07 0.0 0.0
0.0 1.006612653282911e-06 1.8800037151531995e-08 -1.6160969127413305e-08 -2.6390680241173787e-09 2.0557945423080885e-07 0.0 0.0
0.0 1.3830639415008088e-06 2.5459537940910303e-08 -2.257136934973081e-08 -2.8881685911793595e-09 2.8364822182210734e-07 0.0 0.0
0.0 6.329568723119171e-06 1.2100159608371412e-07 -9.95749289913299e-08 -2.1426667092374816e-08 1.450807040856032e-06 0.0 0.0
0.0 2.4222871862406387e-05 -5.643089690257524e-07 4.687406315449839e-07 9.556833748076231e-08 -8.858401374163097e-06 0.0 0.0
0.0 8.391835009066698e-05 -8.014190632449591e-06 6.401545783978611e-06 1.612644848470965e-06 -0.00011373175788759867 0.0 0.0
0.0 0.00020863180670789767 -2.2756820018505305e-05 1.7980840962924834e-05 4.775979055580432e-06 -0.0002701550055372394 0.0 0.0
0.0 0.00034641799665712035 -5.4701746796346466e-05 4.332636138875049e-05 1.1375385407595951e-05 -0.0005272245932535439 0.0 0.0
0.0 0.0005947029518397379 -0.00010721367449419066 8.534679094574319e-05 2.1866883548447558e-05 -0.0008583675295223552 0.0 0.0
0.0 0.0008395444995561294 -0.00019596291074013106 0.0001574764051511997 3.8486505588931293e-05 -0.0013757897311671684 0.0 0.0
0.0 0.0012579370400873655 -0.0003496828100857698 0.00028090918126674573 6.8773628819024e-05 -0.002022765837649244 0.0 0.0
0.0 0.001843812549606652 -0.0005986319310634131 0.00048124745924355754 0.00011738447181985543 -0.0028390404847057934 0.0 0.0
0.0 0.0026158341085188545 -0.0009350462060128838 0.0007565768534343659 0.0001784693525785175 -0.0038308406208510722 0.0 0.0
0.0 0.0035397256210868543 -0.0013589157185025966 0.0011110099365356618 0.000247905781966934 -0.005014628283334873 0.0 0.0
0.0 0.004628427854572028 -0.001791852328278594 0.0014762942747526713 0.00031555805352592064 -0.006349474382325606 0.0 0.0
0.0 0.005649138505764863 -0.0020049709822425326 0.001637476743546474 0.0003674942386960574 -0.007823172250037789 0.0 0.0
0.0 0.006437967443478884 -0.0017201718085983206 0.0013193850531344727 0.00040078675546384804 -0.00940602500244233 0.0 0.0
0.0 0.006764683843363418 -0.0008533060280745203 0.0005581037110402632 0.00029520231703425643 -0.010657856823827598 0.0 0.0
0.0 0.006303144965068152 0.0014542833962521227 -0.0015412888787308837 8.700548247876102e-05 -0.009226413985352762 0.0 0.0
0.0 0.006303144965071365 0.0014542833962519893 -0.0015412888787308691 8.700548247887887e-05 0.009226413985360676 0.0 0.0
0.0 0.006764683843366483 -0.0008533060280741668 0.0005581037110399699 0.0002952023170341963 0.010657856823835729 0.0 0.0
0.0 0.006437967443478552 -0.0017201718085980882 0.0013193850531343673 0.00040078675546371923 0.009406025002444258 0.0 0.0
0.0 0.005649138505760512 -0.0020049709822404353 0.0016374767435447704 0.000367494238695665 0.007823172250033605 0.0 0.0
0.0 0.004628427854565602 -0.0017918523282747009 0.0014762942747490702 0.0003155580535256303 0.0063494743823194096 0.0 0.0
0.0 0.003539725621084526 -0.0013589157185019563 0.0011110099365352758 0.00024790578196668013 0.005014628283331293 0.0 0.0
0.0 0.0026158341085153565 -0.0009350462060114409 0.0007565768534333214 0.0001784693525781195 0.0038308406208473213 0.0 0.0
0.0 0.0018438125496036504 -0.0005986319310614103 0.0004812474592419215 0.00011738447181948878 0.0028390404847028973 0.0 0.0
0.0 0.0012579370400832455 -0.0003496828100840154 0.0002809091812652777 6.877362881873761e-05 0.0020227658376437306 0.0 0.0
0.0 0.0008395444995530487 -0.00019596291073915143 0.00015747640515039306 3.84865055887584e-05 0.0013757897311625932 0.0 0.0
0.0 0.0005947029518367801 -0.00010721367449341539 8.534679094506935e-05 2.1866883548346015e-05 0.0008583675295179287 0.0 0.0
0.0 0.0003464179966560859 -5.470174679606413e-05 4.3326361388532453e-05 1.1375385407531666e-05 0.000527224593252121 0.0 0.0
0.0 0.00020863180670685402 -2.2756820018350013e-05 1.7980840962797413e-05 4.7759790555525895e-06 0.00027015500553599246 0.0 0.0
0.0 8.391835008981038e-05 -8.014190632385154e-06 6.401545783937359e-06 1.6126448484477866e-06 0.0001137317578867273 0.0 0.0
0.0 2.4222871861809185e-05 -5.643089690307004e-07 4.6874063155040144e-07 9.55683374803106e-08 8.85840137424246e-06 0.0 0.0
0.0 6.329568722502479e-06 1.210015960720766e-07 -9.957492898152986e-08 -2.142666709055061e-08 -1.4508070407032778e-06 0.0 0.0
0.0 1.38306394101384e-06 2.5459537931086613e-08 -2.257136934122153e-08 -2.8881685898646692e-09 -2.8364822171881803e-07 0.0 0.0
0.0 1.0066126526757192e-06 1.8800037139368483e-08 -1.616096911716342e-08 -2.639068022204588e-09 -2.0557945410441137e-07 0.0 0.0
0.0 1.7796170285604457e-06 6.777231579867834e-09 2.8185208935578717e-09 -9.595752473420792e-09 -3.808389160997736e-07 0.0 0.0
0.0 1.1154274964526031e-06 -6.940272925345171e-08 1.0140536003419192e-07 -3.2002630780733594e-08 -1.5472886573936063e-07 0.0 0.0
0.0 0.0 0.0 0.0 0.0 0.0 0.0 0.0
0.0 3.276462985221994e-07 3.2186778971512715e-09 -1.5001146982919518e-09 -1.7185631988585876e-09 6.55534057056826e-08 0.0 0.0
0.0 1.1358547083526696e-06 2.9199022431040485e-08 -2.4414515400477513e-08 -4.784507030563987e-09 2.311035997749412e-07 0.0 0.0
0.0 4.433390297608247e-06 1.6015753021184142e-07 -1.3149237797340506e-07 -2.8665152238422848e-08 9.6169292488308e-07 0.0 0.0
0.0 6.458003998279744e-06 1.6241342932327513e-08 4.784795930407271e-09 -2.1026138862726976e-08 -1.9413211496319038e-07 0.0 0.0
0.0 3.021847317704984e-05 -4.171980904460991e-06 3.259168783559565e-06 9.128121209013885e-07 -2.074984125898322e-05 0.0 0.0
0.0 0.00011065196417778713 -2.5851260797938252e-05 2.0558499707854006e-05 5.2927610900842404e-06 -0.00012081283831589036 0.0 0.0
0.0 0.0002444990438914069 -9.173177398047293e-05 7.260071294896956e-05 1.9131061031503355e-05 -0.00035435942488836137 0.0 0.0
0.0 0.0005903996599972653 -0.0002639720849782563 0.00020941175264056465 5.4560332337691674e-05 -0.0007560064770790281 0.0 0.0
0.0 0.0012243808102403453 -0.0006914042821563171 0.000556794129740519 0.0001346101524157978 -0.001468123686176004 0.0 0.0
0.0 0.0021453086008109334 -0.0014000343842629666 0.0011570435189732268 0.00024299086528973928 -0.0023890277172597956 0.0 0.0
0.0 0.0033640907990761496 -0.002298522088105618 0.0019526301490222935 0.0003458919390833242 -0.0033879498875838913 0.0 0.0
0.0 0.004796061044843712 -0.003406550897874263 0.002965781797430519 0.00044076910044374277 -0.004475811166098444 0.0 0.0
0.0 0.0065520032387197035 -0.0047721794482812 0.004246631148503694 0.0005255482997775045 -0.005625766712395005 0.0 0.0
0.0 0.008657074362560191 -0.006404740381883985 0.0058037035073107215 0.0006010368745732603 -0.006898831798360822 0.0 0.0
0.0 0.011003794522498372 -0.008187649780087108 0.007520496822413959 0.0006671529576731448 -0.00838462178569315 0.0 0.0
0.0 0.013305566197046995 -0.009808133625837653 0.009082016417744318 0.0007261172080933347 -0.010114257765114135 0.0 0.0
0.0 0.014971866424128311 -0.010756699953472072 0.009981597964393477 0.0007751019890785975 -0.011973366087786187 0.0 0.0
0.0 0.014692769281973092 -0.010121700429236989 0.009263460396957218 0.000858240032279769 -0.012711603109324508 0.0 0.0
0.0 0.010853992197109098 -0.0064816032804594186 0.005614461659310244 0.0008671416211491747 -0.010311084866846718 0.0 0.0
0.0 0.010853992197114791 -0.006481603280461264 0.005614461659312118 0.0008671416211491459 0.010311084866859197 0.0 0.0
0.0 0.014692769281979382 -0.010121700429238531 0.009263460396958967 0.0008582400322795585 0.01271160310934252 0.0 0.0
0.0 0.014971866424127424 -0.010756699953468809 0.009981597964390571 0.0007751019890782366 0.011973366087797912 0.0 0.0
0.0 0.013305566197039164 -0.009808133625830846 0.009082016417737785 0.0007261172080930607 0.010114257765112813 0.0 0.0
0.0 0.011003794522488947 -0.008187649780079485 0.007520496822406717 0.0006671529576727678 0.008384621785687144 0.0 0.0
0.0 0.008657074362550043 -0.0064047403818758165 0.005803703507302818 0.0006010368745729962 0.006898831798354931 0.0 0.0
0.0 0.006552003238711042 -0.004772179448274537 0.004246631148497479 0.000525548299777058 0.005625766712389091 0.0 0.0
0.0 0.004796061044834524 -0.003406550897866391 0.002965781797423225 0.0004407691004431629 0.004475811166093756 0.0 0.0
0.0 0.003364090799066288 -0.0022985220880983592 0.0019526301490157597 0.00034589193908259974 0.0033879498875766254 0.0 0.0
0.0 0.0021453086008004583 -0.0014000343842556712 0.0011570435189669043 0.00024299086528876659 0.002389027717250902 0.0 0.0
0.0 0.0012243808102324115 -0.000691404282151364 0.000556794129736431 0.00013461015241493269 0.0014681236861680733 0.0 0.0
0.0 0.0005903996599940515 -0.00026397208497639236 0.00020941175263906121 5.456033233733106e-05 0.0007560064770755315 0.0 0.0
0.0 0.0002444990438902381 -9.17317739800619e-05 7.260071294864842e-05 1.913106103141349e-05 0.0003543594248872435 0.0 0.0
0.0 0.00011065196417639887 -2.5851260797695072e-05 2.0558499707662916e-05 5.292761090032092e-06 0.00012081283831480949 0.0 0.0
0.0 3.0218473176414908e-05 -4.171980904450685e-06 3.259168783551099e-06 9.12812120899589e-07 2.0749841258947277e-05 0.0 0.0
0.0 6.45800399794328e-06 1.6241342863874122e-08 4.784795989096675e-09 -2.1026138852987754e-08 1.941321154181845e-07 0.0 0.0
0.0 4.433390297146278e-06 1.6015753019507324e-07 -1.3149237795953612e-07 -2.8665152235533242e-08 -9.61692924777465e-07 0.0 0.0
0.0 1.1358547078605477e-06 2.919902241766033e-08 -2.441451538947173e-08 -4.7845070281886985e-09 -2.3110359967327132e-07 0.0 0.0
0.0 3.276462981955824e-07 3.218677893892744e-09 -1.500114696772239e-09 -1.7185631971203247e-09 -6.555340563942545e-08 0.0 0.0
0.0 0.0 0.0 0.0 0.0 0.0 0.0 0.0
0.0 0.0 0.0 0.0 0.0 0.0 0.0 0.0
0.0 0.0 0.0 0.0 0.0 0.0 0.0 0.0
0.0 2.3595770756542535e-06 8.103527067074457e-08 -6.628456757845172e-08 -1.4750703092293867e-08 4.821090557083344e-07 0.0 0.0
0.0 6.5906872819304125e-06 3.108815427979235e-07 -2.5702362177301864e-07 -5.385792102489637e-08 1.4093816020137892e-06 0.0 0.0
0.0 1.0315981286296058e-05 -7.758442155538482e-07 6.040598138595502e-07 1.7178440169430782e-07 -2.4544562811069863e-06 0.0 0.0
0.0 4.3748044941786324e-05 -9.521494502985964e-06 7.639199481815648e-06 1.8822950211702939e-06 -3.0116984998749656e-05 0.0 0.0
0.0 0.00016036498834625098 -6.560912669538799e-05 5.1993786602444396e-05 1.3615340092943595e-05 -0.00017278924237248814 0.0 0.0
0.0 0.0005406238457558377 -0.0003116519318296356 0.0002476405881507409 6.401134367889466e-05 -0.0006017552411563434 0.0 0.0
0.0 0.001457032081637468 -0.0009626009818160904 0.0007837104508110599 0.00017889053100503022 -0.0013940652854666222 0.0 0.0
0.0 0.00271308787920462 -0.0020443772904147972 0.001717905894732334 0.000326471395682463 -0.002462069262346263 0.0 0.0
0.0 0.004442224121905285 -0.0034104267658776957 0.002955527716890021 0.00045489904898767517 -0.0036269906275680206 0.0 0.0
0.0 0.006344875700203532 -0.005024069713313871 0.0044650244640556235 0.0005590452492582463 -0.004797732253527785 0.0 0.0
0.0 0.008643831278961803 -0.006943927598532418 0.006300099021257039 0.0006438285772753767 -0.005994539614752061 0.0 0.0
0.0 0.011471006632090316 -0.009282309429346696 0.008567219145711234 0.0007150902836354593 -0.007291278258242494 0.0 0.0
0.0 0.014937948376260215 -0.012093461241753034 0.011313570491651976 0.0007798907501010606 -0.008817960701536176 0.0 0.0
0.0 0.018844286845893524 -0.01526296974016504 0.014420608312318124 0.0008423614278469142 -0.010761313773040721 0.0 0.0
0.0 0.022889261527426645 -0.018399037718817582 0.017493891658876822 0.0009051460599407567 -0.013276130747181392 0.0 0.0
0.0 0.025880375557763312 -0.020699230224653715 0.019713388324831528 0.000985841899822192 -0.015979963387869802 0.0 0.0
0.0 0.02629446289164527 -0.020694173519228972 0.019608807062905905 0.001085366456323064 -0.01734598653041207 0.0 0.0
0.0 0.02066777397294373 -0.016067139478051204 0.014838699732911194 0.001228439745140005 -0.014121333988670971 0.0 0.0
0.0 0.020667773972946075 -0.016067139478050482 0.014838699732909898 0.001228439745140579 0.014121333988686573 0.0 0.0
0.0 0.026294462891646407 -0.02069417351922595 0.01960880706290273 0.0010853664563232088 0.017345986530433972 0.0 0.0
0.0 0.025880375557758895 -0.0206992302246471 0.01971338832482512 0.0009858418998219768 0.015979963387884273 0.0 0.0
0.0 0.022889261527413628 -0.018399037718805723 0.017493891658865342 0.0009051460599403848 0.013276130747181881 0.0 0.0
0.0 0.018844286845877564 -0.015262969740151795 0.014420608312305079 0.0008423614278467123 0.010761313773033413 0.0 0.0
0.0 0.014937948376247793 -0.012093461241742546 0.011313570491641722 0.000779890750100819 0.008817960701531055 0.0 0.0
0.0 0.011471006632076588 -0.009282309429335243 0.008567219145700201 0.0007150902836350388 0.007291278258235595 0.0 0.0
0.0 0.00864383127894757 -0.006943927598520116 0.006300099021245363 0.0006438285772747512 0.005994539614746046 0.0 0.0
0.0 0.006344875700188511 -0.005024069713301499 0.004465024464043946 0.0005590452492575514 0.004797732253519142 0.0 0.0
0.0 0.00444222412189099 -0.0034104267658663905 0.002955527716879564 0.00045489904898682543 0.003626990627557298 0.0 0.0
0.0 0.0027130878791934506 -0.002044377290406439 0.001717905894724835 0.00032647139568160396 0.002462069262337335 0.0 0.0
0.0 0.001457032081630177 -0.0009626009818105644 0.000783710450806341 0.0001788905310042233 0.001394065285460916 0.0 0.0
0.0 0.0005406238457521403 -0.0003116519318273604 0.000247640588148929 6.401134367843148e-05 0.0006017552411530973 0.0 0.0
0.0 0.00016036498834419302 -6.560912669489224e-05 5.1993786602042916e-05 1.3615340092849296e-05 0.00017278924237115251 0.0 0.0
0.0 4.374804494069589e-05 -9.521494502913065e-06 7.639199481758253e-06 1.8822950211547658e-06 3.0116984998513168e-05 0.0 0.0
0.0 1.0315981285943367e-05 -7.758442156335786e-07 6.040598139229163e-07 1.7178440171061876e-07 2.4544562813978714e-06 0.0 0.0
0.0 6.590687281374371e-06 3.1088154276881837e-07 -2.570236217490074e-07 -5.385792101982278e-08 -1.4093816018841068e-06 0.0 0.0
0.0 2.3595770750547986e-06 8.103527064889636e-08 -6.628456756069521e-08 -1.4750703088195763e-08 -4.821090555798598e-07 0.0 0.0
0.0 0.0 0.0 0.0 0.0 0.0 0.0 0.0
0.0 0.0 0.0 0.0 0.0 0.0 0.0 0.0
0.0 0.0 0.0 0.0 0.0 0.0 0.0 0.0
0.0 0.0 0.0 0.0 0.0 0.0 0.0 0.0
0.0 1.762862297087584e-06 7.425115861487428e-08 -6.029149643128876e-08 -1.3959662183589334e-08 3.448992119798501e-07 0.0 0.0
0.0 4.567888438468323e-06 2.816642514112822e-07 -2.2557908395482e-07 -5.6085167456466286e-08 9.161147982519621e-07 0.0 0.0
0.0 1.3473059015494612e-05 8.793174339530603e-08 -3.208282667244616e-08 -5.584891672282843e-08 6.186876093870517e-08 0.0 0.0
0.0 6.797104201074656e-05 -2.482373995767841e-05 1.9664984648031723e-05 5.158755309646694e-06 -5.261942360066809e-05 0.0 0.0
0.0 0.00033918032991963416 -0.00019648254105879184 0.00015640086374136522 4.008167731742679e-05 -0.0003173608072079751 0.0 0.0
0.0 0.0011707113127000341 -0.000831871441970394 0.0006740071845772018 0.00015786425739319212 -0.0009932241905076444 0.0 0.0
0.0 0.002622306329520175 -0.0020291242959431586 0.0017029976825881725 0.0003261266133549866 -0.002000142890826727 0.0 0.0
0.0 0.004522694992486153 -0.0036767937405714807 0.003194160756579896 0.0004826329839915844 -0.0032107217513922845 0.0 0.0
0.0 0.006821134824224442 -0.005639753431338211 0.005038002856572157 0.0006017505747660531 -0.004454754152573536 0.0 0.0
0.0 0.009533710453539155 -0.007930088253027394 0.007234661205240208 0.0006954270477871854 -0.0056700626926480206 0.0 0.0
0.0 0.012796203425994947 -0.010660862720369703 0.009890040952918861 0.000770821767450841 -0.0069332027822349785 0.0 0.0
0.0 0.016718909741044306 -0.013989416989496566 0.013152461889840419 0.0008369550996561453 -0.00833932884707745 0.0 0.0
0.0 0.021505594638634797 -0.01800529055351801 0.01710561465461207 0.0008996758989059303 -0.010033580584137976 0.0 0.0
0.0 0.0270449330181001 -0.022607628832319752 0.021640757181133154 0.0009668716511865955 -0.012297616668662432 0.0 0.0
0.0 0.03271952866226469 -0.02728566087724256 0.026239638217643742 0.0010460226595988033 -0.01535631528400842 0.0 0.0
0.0 0.0372439187219043 -0.03086337926799831 0.0297150492213647 0.0011483300466336068 -0.01878271273629517 0.0 0.0
0.0 0.038040730333889494 -0.0312796576135386 0.029998133499304296 0.0012815241142342926 -0.020791998832903072 0.0 0.0
0.0 0.03095193362992879 -0.02531715347346441 0.023858476745191877 0.0014586767282725342 -0.017890295089920745 0.0 0.0
0.0 0.03095193362993194 -0.025317153473463833 0.02385847674519117 0.0014586767282726574 0.017890295089940923 0.0 0.0
0.0 0.03804073033389127 -0.03127965761353583 0.02999813349930183 0.0012815241142340012 0.02079199883293066 0.0 0.0
0.0 0.037243918721896314 -0.03086337926798832 0.029715049221354997 0.0011483300466333082 0.018782712736314107 0.0 0.0
0.0 0.03271952866224846 -0.027285660877227474 0.02623963821762905 0.001046022659598426 0.015356315284012066 0.0 0.0
0.0 0.02704493301808208 -0.022607628832304022 0.02164075718111807 0.0009668716511859457 0.01229761666865755 0.0 0.0
0.0 0.021505594638616562 -0.018005290553502296 0.017105614654596868 0.0008996758989054214 0.010033580584132066 0.0 0.0
0.0 0.01671890974102739 -0.013989416989482173 0.013152461889826455 0.0008369550996557157 0.008339328847070502 0.0 0.0
0.0 0.012796203425976399 -0.010660862720353824 0.009890040952903334 0.0007708217674504895 0.006933202782228646 0.0 0.0
0.0 0.009533710453520597 -0.007930088253011523 0.007234661205224962 0.0006954270477865575 0.0056700626926389636 0.0 0.0
0.0 0.006821134824205672 -0.00563975343132269 0.0050380028565573205 0.0006017505747653699 0.004454754152562041 0.0 0.0
0.0 0.004522694992470152 -0.0036767937405585496 0.003194160756567853 0.00048263298399069533 0.003210721751380756 0.0 0.0
0.0 0.002622306329508261 -0.002029124295933698 0.0017029976825798483 0.00032612661335384996 0.002000142890819294 0.0 0.0
0.0 0.0011707113126936753 -0.0008318714419656148 0.0006740071845732855 0.00015786425739232915 0.0009932241905031014 0.0 0.0
0.0 0.0003391803299164481 -0.00019648254105710374 0.0001564008637400315 4.008167731707223e-05 0.0003173608072055945 0.0 0.0
0.0 6.797104200908662e-05 -2.4823739957421694e-05 1.966498464782597e-05 5.158755309595766e-06 5.261942360012208e-05 0.0 0.0
0.0 1.3473059014899224e-05 8.79317432853133e-08 -3.20828265839616e-08 -5.58489167013921e-08 -6.186876065319471e-08 0.0 0.0
0.0 4.567888437996252e-06 2.8166425138205025e-07 -2.255790839313278e-07 -5.6085167450732297e-08 -9.161147981532237e-07 0.0 0.0
0.0 1.7628622966370727e-06 7.425115859493936e-08 -6.029149641515662e-08 -1.3959662179784548e-08 -3.4489921188806817e-07 0.0 0.0
0.0 0.0 0.0 0.0 0.0 0.0 0.0 0.0
0.0 0.0 0.0 0.0 0.0 0.0 0.0 0.0
0.0 0.0 0.0 0.0 0.0 0.0 0.0 0.0
0.0 0.0 0.0 0.0 0.0 0.0 0.0 0.0
0.0 6.301117771691601e-07 3.177133557320747e-08 -2.5610055499987776e-08 -6.161280073216576e-09 1.139376708674144e-07 0.0 0.0
0.0 6.9346823109825144e-06 5.042347017098303e-07 -4.065067840334973e-07 -9.772791767633461e-08 1.3113344896096305e-06 0.0 0.0
0.0 2.5212619995950892e-05 2.4747268596932223e-06 -1.951196794361913e-06 -5.235300653313059e-07 4.953316836308696e-06 0.0 0.0
0.0 0.00013474808896384575 -7.140772614275925e-05 5.683291620127769e-05 1.4574809941481593e-05 -0.00010402507564652554 0.0 0.0
0.0 0.0007151092503061527 -0.0004934780924553007 0.00039590936397140494 9.75687284838956e-05 -0.0005152097655223646 0.0 0.0
0.0 0.0020044189934125007 -0.0015759817815862427 0.0013061621922414086 0.00026981958934483365 -0.0013212736267880904 0.0 0.0
0.0 0.0039282079554101 -0.0032770090943835 0.0028243612695989123 0.0004526478247845883 -0.0024143936147742622 0.0 0.0
0.0 0.0063892002655567695 -0.005422951863251119 0.0048261839812308305 0.0005967678820202855 -0.003619151896779191 0.0 0.0
0.0 0.00934126294533183 -0.00795388086706068 0.007248288614446351 0.0007055922526143306 -0.004824368697540021 0.0 0.0
0.0 0.012843635722818405 -0.010929027652479072 0.010136733428373842 0.0007922942241052284 -0.006039222932027064 0.0 0.0
0.0 0.017033996400933296 -0.014489511274281518 0.01362366373275653 0.0008658475415249839 -0.007328682900483269 0.0 0.0
0.0 0.022126877840764204 -0.01881824531452706 0.017885436602682558 0.0009328087118445048 -0.008767842588964833 0.0 0.0
0.0 0.028322883945872547 -0.024047448665210087 0.023048469974037915 0.0009989786911721746 -0.010504272762631642 0.0 0.0
0.0 0.0352998421396833 -0.030084048161831186 0.029010281709937216 0.0010737664518939635 -0.012825008623669115 0.0 0.0
0.0 0.04279683588182037 -0.03628037474167454 0.03511039405451464 0.0011699806871598938 -0.016007868021027286 0.0 0.0
0.0 0.04871349677954266 -0.04107970998543534 0.03978266776207417 0.0012970422233611804 -0.019845841375772454 0.0 0.0
0.0 0.049775283135661985 -0.04175392284955017 0.04029674212493465 0.0014571807246155206 -0.02267372008943837 0.0 0.0
0.0 0.04125605577484482 -0.03434441252501505 0.03270734140681694 0.0016370711181981038 -0.021413273181584078 0.0 0.0
0.0 0.041256055774848296 -0.03434441252501445 0.0327073414068166 0.0016370711181978516 0.02141327318160713 0.0 0.0
0.0 0.04977528313565892 -0.041753922849543657 0.04029674212492847 0.0014571807246151931 0.022673720089466148 0.0 0.0
0.0 0.04871349677953231 -0.041079709985423596 0.03978266776206302 0.0012970422233605694 0.01984584137579257 0.0 0.0
0.0 0.04279683588180186 -0.03628037474165727 0.03511039405449798 0.0011699806871592648 0.01600786802103299 0.0 0.0
0.0 0.03529984213965955 -0.03008404816181043 0.029010281709916964 0.0010737664518934548 0.01282500862366479 0.0 0.0
0.0 0.02832288394585255 -0.024047448665192428 0.02304846997402101 0.00099897869117142 0.010504272762627269 0.0 0.0
0.0 0.02212687784074186 -0.01881824531450766 0.017885436602663705 0.0009328087118439534 0.008767842588957398 0.0 0.0
0.0 0.01703399640091096 -0.014489511274261877 0.01362366373273761 0.0008658475415242704 0.007328682900477131 0.0 0.0
0.0 0.012843635722795939 -0.010929027652459414 0.01013673342835489 0.0007922942241045214 0.006039222932019006 0.0 0.0
0.0 0.009341262945308843 -0.007953880867041192 0.00724828861442741 0.0007055922526137787 0.0048243686975282295 0.0 0.0
0.0 0.006389200265537266 -0.005422951863234408 0.0048261839812148806 0.0005967678820195278 0.0036191518967672635 0.0 0.0
0.0 0.003928207955396154 -0.0032770090943716173 0.0028243612695879857 0.0004526478247836307 0.0024143936147666893 0.0 0.0
0.0 0.0020044189934025946 -0.0015759817815780084 0.0013061621922343235 0.0002698195893436849 0.0013212736267826796 0.0 0.0
0.0 0.0007151092503002102 -0.0004934780924511772 0.00039590936396803313 9.756872848314414e-05 0.0005152097655184145 0.0 0.0
0.0 0.00013474808896196905 -7.140772614224575e-05 5.6832916200860656e-05 1.4574809941385136e-05 0.00010402507564575696 0.0 0.0
0.0 2.5212619994963567e-05 2.474726859593644e-06 -1.951196794283381e-06 -5.235300653103639e-07 -4.9533168361263605e-06 0.0 0.0
0.0 6.934682310505462e-06 5.042347016716486e-07 -4.0650678400268413e-07 -9.772791766897146e-08 -1.3113344895102354e-06 0.0 0.0
0.0 6.301117768796378e-07 3.177133555832444e-08 -2.5610055487985994e-08 -6.161280070339225e-09 -1.1393767081387647e-07 0.0 0.0
0.0 0.0 0.0 0.0 0.0 0.0 0.0 0.0
0.0 0.0 0.0 0.0 0.0 0.0 0.0 0.0
0.0 0.0 0.0 0.0 0.0 0.0 0.0 0.0
0.0 0.0 0.0 0.0 0.0 0.0 0.0 0.0
0.0 0.0 0.0 0.0 0.0 0.0 0.0 0.0
0.0 3.2006597007079794e-06 2.5707668110242285e-07 -2.054760131561159e-07 -5.160066794626825e-08 5.112391327039601e-07 0.0 0.0
0.0 3.308949210481181e-05 -5.524602714910622e-06 4.3519554589953e-06 1.1726472559153381e-06 -7.088904572844291e-06 0.0 0.0
0.0 0.0003035749394732838 -0.00018474653222509473 0.00014700145451236694 3.774507771272804e-05 -0.00017730911594131702 0.0 0.0
0.0 0.0012854365640051165 -0.0009461563251649786 0.0007703532683987612 0.00017580305676621693 -0.0006796409432648763 0.0 0.0
0.0 0.002909162315881917 -0.002479561445588137 0.002100973760921741 0.0003785876846663967 -0.0015256942652916567 0.0 0.0
0.0 0.005303075058193022 -0.004605927904303239 0.00405499891728021 0.0005509289870230279 -0.0025638573660022005 0.0 0.0
0.0 0.00832404865125155 -0.007217646280433375 0.006535242052369017 0.0006824042280643584 -0.003665302168138005 0.0 0.0
0.0 0.011943415000014355 -0.010320012794629779 0.00953561684127947 0.0007843959533503039 -0.004802058274084507 0.0 0.0
0.0 0.01622504593651937 -0.013993351125730216 0.013124167284737564 0.0008691838409926447 -0.005956758712979564 0.0 0.0
0.0 0.021424095006973377 -0.01840054023873752 0.0174551451539859 0.0009453950847516214 -0.007198154959927537 0.0 0.0
0.0 0.02757300173450145 -0.023744151167604075 0.022727290385299755 0.001016860782304314 -0.008622210679135555 0.0 0.0
0.0 0.03506661858634947 -0.030164937060253465 0.029076977930706575 0.001087959129546887 -0.010269207471742363 0.0 0.0
0.0 0.043808867594169576 -0.037575669556126 0.03640446708334927 0.0011712024727767163 -0.01232534223180599 0.0 0.0
0.0 0.05265908247162396 -0.045241278166468016 0.04395894852010582 0.0012823296463621995 -0.01523998024719454 0.0 0.0
0.0 0.059762025283115666 -0.05122994314476005 0.04979690228637425 0.0014330408583857986 -0.019191926997416474 0.0 0.0
0.0 0.061237230468079856 -0.052166930606304035 0.05055431797831715 0.0016126126279868772 -0.023181470934065328 0.0 0.0
0.0 0.05178584718824014 -0.04341444604854161 0.04161842186727062 0.0017960241812709572 -0.024869086772828276 0.0 0.0
0.0 0.05178584718824204 -0.043414446048539904 0.04161842186726921 0.0017960241812706736 0.024869086772851733 0.0 0.0
0.0 0.061237230468074264 -0.05216693060629582 0.05055431797830923 0.001612612627986582 0.023181470934094426 0.0 0.0
0.0 0.059762025283100706 -0.05122994314474495 0.04979690228635927 0.0014330408583856607 0.019191926997438147 0.0 0.0
0.0 0.05265908247160076 -0.045241278166447026 0.043958948520085035 0.0012823296463619909 0.015239980247201424 0.0 0.0
0.0 0.04380886759414308 -0.03757566955610277 0.03640446708332657 0.0011712024727761824 0.01232534223180385 0.0 0.0
0.0 0.035066618586323636 -0.030164937060230747 0.0290769779306844 0.0010879591295463436 0.010269207471739478 0.0 0.0
0.0 0.027573001734475463 -0.02374415116758131 0.02272729038527757 0.0010168607823037377 0.008622210679129827 0.0 0.0
0.0 0.021424095006946642 -0.01840054023871389 0.017455145153962695 0.0009453950847511869 0.007198154959921735 0.0 0.0
0.0 0.01622504593649133 -0.013993351125705612 0.01312416728471346 0.0008691838409921446 0.005956758712971511 0.0 0.0
0.0 0.011943414999988718 -0.010320012794607428 0.009535616841258072 0.0007843959533493533 0.0048020582740736315 0.0 0.0
0.0 0.00832404865122819 -0.0072176462804131244 0.006535242052349686 0.0006824042280634346 0.003665302168126768 0.0 0.0
0.0 0.005303075058176794 -0.004605927904288739 0.004054998917266767 0.00055092898702197 0.002563857365995177 0.0 0.0
0.0 0.0029091623158703605 -0.0024795614455779044 0.0021009737609126605 0.0003785876846652434 0.0015256942652862905 0.0 0.0
0.0 0.001285436563997197 -0.0009461563251587264 0.0007703532683935672 0.00017580305676515896 0.000679640943260785 0.0 0.0
0.0 0.0003035749394697816 -0.00018474653222307 0.00014700145451074063 3.774507771232921e-05 0.00017730911593944693 0.0 0.0
0.0 3.308949210380054e-05 -5.524602714997829e-06 4.351955459062187e-06 1.1726472559356603e-06 7.0889045729638634e-06 0.0 0.0
0.0 3.200659700236418e-06 2.5707668106207243e-07 -2.0547601312382118e-07 -5.1600667938269986e-08 -5.112391326237518e-07 0.0 0.0
0.0 0.0 0.0 0.0 0.0 0.0 0.0 0.0
0.0 0.0 0.0 0.0 0.0 0.0 0.0 0.0
0.0 0.0 0.0 0.0 0.0 0.0 0.0 0.0
0.0 0.0 0.0 0.0 0.0 0.0 0.0 0.0
0.0 0.0 0.0 0.0 0.0 0.0 0.0 0.0
0.0 0.0 0.0 0.0 0.0 0.0 0.0 0.0
0.0 2.6184053184797525e-06 2.3936820084323267e-07 -1.9194239063393857e-07 -4.7425810209277095e-08 3.642394502886807e-07 0.0 0.0
0.0 6.355075965177589e-05 -2.0515436805603274e-05 1.652173071199991e-05 3.993706093603501e-06 -2.1013370833940693e-05 0.0 0.0
0.0 0.0006011115894325608 -0.0003977249431330416 0.000318737888023527 7.898705510951509e-05 -0.0002558178520482725 0.0 0.0
0.0 0.0018060935337268827 -0.001561228541362749 0.0012931035899203427 0.00026812495144240637 -0.0007943049997052399 0.0 0.0
0.0 0.003894350649546714 -0.0034570966666252027 0.0029882848018049513 0.0004688118648202515 -0.001547629791993022 0.0 0.0
0.0 0.006769218279906026 -0.005962476630652055 0.005334916943775398 0.0006275596868766567 -0.00242865559871204 0.0 0.0
0.0 0.010315692614719265 -0.009043839745882236 0.008294573273039797 0.0007492664728424418 -0.003398946505418456 0.0 0.0
0.0 0.0145875638790087 -0.012722203896514662 0.011874371319058087 0.0008478325774565721 -0.004405559061904213 0.0 0.0
0.0 0.019691024384519355 -0.01710632293491307 0.01617160199022676 0.0009347209446863058 -0.005436220946730701 0.0 0.0
0.0 0.025813460968376674 -0.02238077384192747 0.021365187110150678 0.0010155867317767782 -0.006572088549790763 0.0 0.0
0.0 0.033224866114964335 -0.02874412457037874 0.027649359256936883 0.0010947653134418568 -0.007876450892626834 0.0 0.0
0.0 0.042023779496033066 -0.036317170249027475 0.0351438890715415 0.0011732811774859667 -0.009343087949551562 0.0 0.0
0.0 0.051877771220539715 -0.04499642168697627 0.043735287394528394 0.0012611342924478601 -0.010955550793510198 0.0 0.0
0.0 0.06232627494472788 -0.054012878089193916 0.05262985451366656 0.001383023575527365 -0.01309599636744038 0.0 0.0
0.0 0.0707821868343043 -0.06120795382070666 0.059654466648127506 0.0015534871725791542 -0.016742433272061836 0.0 0.0
0.0 0.07284776885253948 -0.06262804428242869 0.0608729687803209 0.0017550755021078042 -0.022290700659949245 0.0 0.0
0.0 0.06255228136649604 -0.05279080980047294 0.05084054483948741 0.0019502649609855005 -0.028271466733169645 0.0 0.0
0.0 0.06255228136649521 -0.05279080980046928 0.05084054483948344 0.0019502649609858403 0.028271466733192405 0.0 0.0
0.0 0.07284776885253222 -0.06262804428241966 0.06087296878031241 0.0017550755021072534 0.02229070065997695 0.0 0.0
0.0 0.07078218683428675 -0.06120795382068969 0.05965446664811127 0.001553487172578387 0.016742433272081927 0.0 0.0
0.0 0.06232627494470261 -0.05401287808917103 0.05262985451364477 0.0013830235755262557 0.013095996367446999 0.0 0.0
0.0 0.05187777122050989 -0.044996421686949874 0.043735287394502886 0.0012611342924469448 0.010955550793510092 0.0 0.0
0.0 0.042023779496002354 -0.036317170249000594 0.03514388907151517 0.0011732811774854016 0.009343087949549352 0.0 0.0
0.0 0.03322486611493255 -0.028744124570351116 0.02764935925690976 0.001094765313441333 0.007876450892621997 0.0 0.0
0.0 0.025813460968345338 -0.022380773841899883 0.021365187110124046 0.0010155867317758374 0.006572088549785304 0.0 0.0
0.0 0.019691024384487534 -0.017106322934884927 0.016171601990199336 0.0009347209446855961 0.005436220946723827 0.0 0.0
0.0 0.014587563878978142 -0.012722203896487818 0.011874371319031766 0.0008478325774560439 0.004405559061894051 0.0 0.0
0.0 0.010315692614693662 -0.009043839745859688 0.008294573273017839 0.0007492664728418476 0.0033989465054086974 0.0 0.0
0.0 0.006769218279886869 -0.005962476630634734 0.005334916943758938 0.0006275596868757969 0.002428655598705711 0.0 0.0
0.0 0.0038943506495321013 -0.00345709666661181 0.002988284801792685 0.0004688118648191251 0.0015476297919877376 0.0 0.0
0.0 0.0018060935337173463 -0.0015612285413543054 0.0012931035899131033 0.0002681249514412019 0.0007943049997014267 0.0 0.0
0.0 0.0006011115894272409 -0.00039772494312950105 0.0003187378880206359 7.898705510886514e-05 0.0002558178520460725 0.0 0.0
0.0 6.355075965042632e-05 -2.0515436805488294e-05 1.6521730711900204e-05 3.993706093588004e-06 2.1013370833828787e-05 0.0 0.0
0.0 2.618405318069889e-06 2.393682008043899e-07 -1.9194239060307888e-07 -4.7425810201298124e-08 -3.6423945023065724e-07 0.0 0.0
0.0 0.0 0.0 0.0 0.0 0.0 0.0 0.0
0.0 0.0 0.0 0.0 0.0 0.0 0.0 0.0
0.0 0.0 0.0 0.0 0.0 0.0 0.0 0.0
0.0 0.0 0.0 0.0 0.0 0.0 0.0 0.0
0.0 0.0 0.0 0.0 0.0 0.0 0.0 0.0
0.0 0.0 0.0 0.0 0.0 0.0 0.0 0.0
0.0 3.1285138629805582e-06 3.198481553894005e-07 -2.499609673796126e-07 -6.988718800979791e-08 3.1819347234759094e-07 0.0 0.0
0.0 0.00014175357155154247 -6.0178806568766026e-05 4.789986598746838e-05 1.2278940581297558e-05 -3.751980691044826e-05 0.0 0.0
0.0 0.0009755310451820846 -0.0007336415488343602 0.0005934963658025276 0.00014014518303183263 -0.00031103526046707156 0.0 0.0
0.0 0.002481344545326259 -0.002247111751381774 0.0018925900499828607 0.000354521701398913 -0.0007601951349400589 0.0 0.0
0.0 0.004970615529086935 -0.004455302719292759 0.00391388946641729 0.0005414132528754699 -0.001348437089344098 0.0 0.0
0.0 0.008269875187679958 -0.00733831196442758 0.006650227134229332 0.0006880848301982442 -0.0020523633387339066 0.0 0.0
0.0 0.01235307550839981 -0.010887014610896965 0.010083668771049372 0.0008033458398475888 -0.002835986044488464 0.0 0.0
0.0 0.017299991597778723 -0.015147795247851013 0.014246153747423374 0.0009016415004276411 -0.003656000067725436 0.0 0.0
0.0 0.02317598446346325 -0.02025629994702766 0.019264066235271597 0.0009922337117560564 -0.004495001092000624 0.0 0.0
0.0 0.030378136435288958 -0.02641063188162452 0.02533069726644853 0.0010799346151759816 -0.005424004441130094 0.0 0.0
0.0 0.038795552603842404 -0.03380584387526346 0.03263837974884168 0.0011674641264217858 -0.0065466930123110716 0.0 0.0
0.0 0.04876297276878036 -0.04249428453799804 0.04123813543388159 0.0012561491041164561 -0.007779439052658838 0.0 0.0
0.0 0.060033298258653944 -0.052277038811447525 0.05092609354788763 0.001350945263559897 -0.008831633288163025 0.0 0.0
0.0 0.07170486763272463 -0.06242379667817443 0.060956156334287775 0.001467640343886638 -0.009795079980901934 0.0 0.0
0.0 0.08151018604595622 -0.07088861356714307 0.06923576520920541 0.0016528483579376467 -0.012517984223520861 0.0 0.0
0.0 0.08462926666221166 -0.0732379253897692 0.07135081505359897 0.001887110336170242 -0.01967458825200682 0.0 0.0
0.0 0.07413391407885507 -0.06278326247118719 0.06066977631735599 0.0021134861538311973 -0.031391101177606164 0.0 0.0
0.0 0.07413391407885395 -0.06278326247118372 0.06066977631735284 0.002113486153830899 0.03139110117762514 0.0 0.0
0.0 0.08462926666220057 -0.0732379253897577 0.07135081505358813 0.0018871103361695466 0.019674588252030924 0.0 0.0
0.0 0.08151018604593385 -0.0708886135671227 0.06923576520918552 0.0016528483579371324 0.012517984223538288 0.0 0.0
0.0 0.07170486763269274 -0.06242379667814647 0.06095615633426006 0.0014676403438863893 0.009795079980907707 0.0 0.0
0.0 0.06003329825862002 -0.052277038811417834 0.05092609354785848 0.001350945263559371 0.008831633288163523 0.0 0.0
0.0 0.04876297276874477 -0.04249428453796711 0.04123813543385096 0.0012561491041161504 0.0077794390526575805 0.0 0.0
0.0 0.03879555260380727 -0.03380584387523284 0.03263837974881156 0.001167464126421259 0.00654669301230755 0.0 0.0
0.0 0.03037813643525266 -0.026410631881592803 0.025330697266417304 0.0010799346151754991 0.005424004441125236 0.0 0.0
0.0 0.023175984463425586 -0.020256299946994877 0.01926406623523922 0.0009922337117556509 0.004495001091996057 0.0 0.0
0.0 0.017299991597746905 -0.015147795247822735 0.014246153747395737 0.000901641500426996 0.003656000067717604 0.0 0.0
0.0 0.012353075508373685 -0.010887014610873571 0.010083668771026757 0.0008033458398468121 0.0028359860444809046 0.0 0.0
0.0 0.008269875187656785 -0.007338311964406685 0.006650227134209186 0.0006880848301974988 0.002052363338728668 0.0 0.0
0.0 0.0049706155290697475 -0.004455302719276933 0.003913889466402447 0.0005414132528744846 0.0013484370893395905 0.0 0.0
0.0 0.0024813445453157443 -0.002247111751371939 0.001892590049974123 0.00035452170139781657 0.0007601951349367503 0.0 0.0
0.0 0.0009755310451761851 -0.0007336415488296507 0.0005934963657986548 0.00014014518303099525 0.000311035260465158 0.0 0.0
0.0 0.00014175357154935824 -6.017880656781637e-05 4.789986598669788e-05 1.2278940581118627e-05 3.7519806909862323e-05 0.0 0.0
0.0 3.12851386246432e-06 3.1984815533367717e-07 -2.4996096733628395e-07 -6.988718799738491e-08 -3.181934722935766e-07 0.0 0.0
0.0 0.0 0.0 0.0 0.0 0.0 0.0 0.0
0.0 0.0 0.0 0.0 0.0 0.0 0.0 0.0
0.0 0.0 0.0 0.0 0.0 0.0 0.0 0.0
0.0 0.0 0.0 0.0 0.0 0.0 0.0 0.0
0.0 0.0 0.0 0.0 0.0 0.0 0.0 0.0
0.0 0.0 0.0 0.0 0.0 0.0 0.0 0.0
0.0 7.480929744594875e-06 8.970346975284954e-07 -6.929961877200582e-07 -2.0403850980840786e-07 5.50205352796341e-07 0.0 0.0
0.0 0.0003193353306210816 -0.00016953647867399296 0.0001352053196743516 3.433115899964157e-05 -6.0268167029899324e-05 0.0 0.0
0.0 0.0012898844224980533 -0.0011912004768781057 0.0009738635807127813 0.00021733689616532442 -0.00028483700094696296 0.0 0.0
0.0 0.0032514972098629945 -0.002963216200206443 0.002536414594136063 0.0004268016060703792 -0.0005790727028195865 0.0 0.0
0.0 0.006073608760954146 -0.005468649382849843 0.004867828965678316 0.0006008204171715271 -0.0009678731757578126 0.0 0.0
0.0 0.009793867216431256 -0.008720465035339508 0.007984194237058618 0.000736270798280887 -0.0014450256773176555 0.0 0.0
0.0 0.014413750183825047 -0.012736580972452234 0.011888610179870737 0.0008479707925814922 -0.0019875084780820655 0.0 0.0
0.0 0.020022091616814192 -0.017587638211493693 0.016639135685948176 0.0009485025255455152 -0.0025526346058209557 0.0 0.0
0.0 0.026841506311845252 -0.023430095087375608 0.022385662520828 0.0010444325665476032 -0.0031314976776643383 0.0 0.0
0.0 0.03482708998786009 -0.030481466419835165 0.02934206122530551 0.0011394051945296524 -0.003808532396601662 0.0 0.0
0.0 0.0444604596555218 -0.038900707719544014 0.03766458287483922 0.0012361248447047934 -0.004616351590153567 0.0 0.0
0.0 0.05571202562552786 -0.04866744492132684 0.04733050301491243 0.0013369419064144191 -0.005458313966490656 0.0 0.0
0.0 0.06809800413486024 -0.059433756769988556 0.05799137031580883 0.0014423864541797161 -0.006055136960224432 0.0 0.0
0.0 0.08067965861652551 -0.0703872239581557 0.06883329634805115 0.001553927610104588 -0.006032800458737347 0.0 0.0
0.0 0.09166094905729918 -0.07992738935793095 0.0782279077203005 0.0016994816376304672 -0.006653451873000192 0.0 0.0
0.0 0.09667590616223262 -0.08400824326076406 0.08199874489676878 0.002009498363995243 -0.014278002972110198 0.0 0.0
0.0 0.08692087844463883 -0.07388598201895748 0.07158042204412154 0.0023055599748359247 -0.03358274042757931 0.0 0.0
0.0 0.08692087844463584 -0.0738859820189534 0.07158042204411744 0.0023055599748359186 0.033582740427592364 0.0 0.0
0.0 0.09667590616221643 -0.08400824326074904 0.08199874489675425 0.0020094983639947356 0.014278002972128707 0.0 0.0
0.0 0.09166094905727154 -0.07992738935790646 0.07822790772027663 0.0016994816376298381 0.006653451873013248 0.0 0.0
0.0 0.08067965861649011 -0.07038722395812486 0.06883329634802057 0.0015539276101042669 0.006032800458740521 0.0 0.0
0.0 0.06809800413482173 -0.05943375676995487 0.05799137031577589 0.0014423864541789964 0.0060551369602249655 0.0 0.0
0.0 0.055712025625488104 -0.0486674449212922 0.04733050301487836 0.0013369419064138584 0.005458313966490102 0.0 0.0
0.0 0.04446045965548052 -0.03890070771950808 0.03766458287480383 0.0012361248447042286 0.00461635159015192 0.0 0.0
0.0 0.034827089987817396 -0.03048146641979803 0.029342061225268813 0.0011394051945292102 0.00380853239659825 0.0 0.0
0.0 0.026841506311804143 -0.023430095087339432 0.02238566252079241 0.001044432566547006 0.003131497677662183 0.0 0.0
0.0 0.020022091616777288 -0.01758763821146126 0.0166391356859165 0.0009485025255447539 0.0025526346058152858 0.0 0.0
0.0 0.014413750183793386 -0.012736580972424184 0.011888610179843431 0.0008479707925807563 0.0019875084780765985 0.0 0.0
0.0 0.00979386721640631 -0.00872046503531677 0.007984194237036678 0.0007362707982800919 0.0014450256773143157 0.0 0.0
0.0 0.006073608760935411 -0.00546864938283256 0.0048678289656620775 0.0006008204171704834 0.0009678731757547085 0.0 0.0
0.0 0.0032514972098499602 -0.002963216200193994 0.002536414594124907 0.00042680160606908677 0.0005790727028172264 0.0 0.0
0.0 0.0012898844224906853 -0.001191200476871139 0.000973863580706889 0.00021733689616424982 0.0002848370009452341 0.0 0.0
0.0 0.00031933533061805617 -0.00016953647867223789 0.00013520531967293442 3.433115899930329e-05 6.026816702931125e-05 0.0 0.0
0.0 7.48092974373735e-06 8.970346974239649e-07 -6.929961876401887e-07 -2.040385097838224e-07 -5.502053527401145e-07 0.0 0.0
0.0 0.0 0.0 0.0 0.0 0.0 0.0 0.0
0.0 0.0 0.0 0.0 0.0 0.0 0.0 0.0
0.0 0.0 0.0 0.0 0.0 0.0 0.0 0.0
0.0 0.0 0.0 0.0 0.0 0.0 0.0 0.0
0.0 0.0 0.0 0.0 0.0 0.0 0.0 0.0
0.0 0.0 0.0 0.0 0.0 0.0 0.0 0.0
0.0 1.4768066423454649e-05 3.532613535266842e-07 -2.3337391099860333e-07 -1.1988744252793412e-07 -4.228357921164074e-08 0.0 0.0
0.0 0.0006140276039959837 -0.00036192992608069594 0.0002894865736672986 7.244335241339729e-05 -5.1465668040170236e-05 0.0 0.0
0.0 0.0018125027129408952 -0.0016750380222285898 0.0013862977751495052 0.0002887402470790846 -0.00014031533152460937 0.0 0.0
0.0 0.0040489683390968895 -0.0036974624799274284 0.00320962003953629 0.0004878424403911368 -0.0002589494671167146 0.0 0.0
0.0 0.007210359444743941 -0.006483338438423347 0.005834963612026837 0.000648374826396508 -0.00041228966311823516 0.0 0.0
0.0 0.011352271994084319 -0.010097521468145822 0.009321849837199421 0.0007756716309464037 -0.0006138300464713247 0.0 0.0
0.0 0.016531799053028075 -0.014580364471085192 0.013694294494811694 0.0008860699762734955 -0.000853069219406401 0.0 0.0
0.0 0.02288182728655501 -0.020030768607070544 0.019041161644596245 0.0009896069624742885 -0.0010998835434245303 0.0 0.0
0.0 0.03032299546545706 -0.026629941011269392 0.025537791386168317 0.001092149625101081 -0.0013753509371125985 0.0 0.0
0.0 0.03938454640861839 -0.034569753190701165 0.033374778042605774 0.001194975148095378 -0.0016914824568677726 0.0 0.0
0.0 0.05022539674770053 -0.04399081366130223 0.04268971443170833 0.0013010992295938613 -0.0020426179298503 0.0 0.0
0.0 0.0626814451622182 -0.05481060646942467 0.05339678697457515 0.0014138194948495214 -0.00238748355145177 0.0 0.0
0.0 0.07617906252127091 -0.06651087120157358 0.06497818659648158 0.001532684605092032 -0.002544208145992062 0.0 0.0
0.0 0.08948769561965808 -0.07805143337860745 0.07640069114634665 0.001650742232260766 -0.0021995481894010478 0.0 0.0
0.0 0.1008621692279522 -0.0879507526490915 0.08618924519923679 0.0017615074498546878 -0.0011476504865866053 0.0 0.0
0.0 0.10780595091701045 -0.09390523042948412 0.09198160938947303 0.0019236210400110445 -0.003990153022004503 0.0 0.0
0.0 0.10204217226776628 -0.08742869653260513 0.08477032689968053 0.0026583696329246075 -0.031214917481806725 0.0 0.0
0.0 0.1020421722677611 -0.0874286965326001 0.08477032689967545 0.0026583696329246093 0.031214917481811974 0.0 0.0
0.0 0.10780595091699105 -0.09390523042946697 0.09198160938945643 0.0019236210400105259 0.003990153022012732 0.0 0.0
0.0 0.10086216922792055 -0.08795075264906374 0.08618924519920983 0.001761507449853874 0.0011476504865931027 0.0 0.0
0.0 0.08948769561961933 -0.07805143337857344 0.07640069114631363 0.0016507422322597702 0.002199548189400855 0.0 0.0
0.0 0.07617906252122744 -0.0665108712015357 0.06497818659644411 0.001532684605091587 0.002544208145992249 0.0 0.0
0.0 0.06268144516217541 -0.054810606469387124 0.05339678697453873 0.001413819494848404 0.0023874835514516458 0.0 0.0
0.0 0.05022539674765659 -0.04399081366126369 0.042689714431670946 0.0013010992295927643 0.0020426179298500616 0.0 0.0
0.0 0.03938454640857403 -0.03456975319066222 0.033374778042568054 0.0011949751480941405 0.0016914824568663575 0.0 0.0
0.0 0.030322995465412853 -0.026629941011230524 0.025537791386130652 0.0010921496250998605 0.0013753509371119896 0.0 0.0
0.0 0.022881827286515614 -0.020030768607035777 0.019041161644562543 0.0009896069624732357 0.0010998835434211825 0.0 0.0
0.0 0.01653179905299363 -0.014580364471055058 0.013694294494782384 0.0008860699762726756 0.0008530692194039874 0.0 0.0
0.0 0.011352271994055961 -0.010097521468120454 0.009321849837174741 0.00077567163094571 0.0006138300464701177 0.0 0.0
0.0 0.007210359444722841 -0.006483338438403863 0.005834963612008208 0.0006483748263956561 0.0004122896631170373 0.0 0.0
0.0 0.004048968339081407 -0.0036974624799129578 0.0032096200395228406 0.00048784244039011814 0.0002589494671157663 0.0 0.0
0.0 0.0018125027129322628 -0.0016750380222200442 0.001386297775142061 0.0002887402470779829 0.0001403153315238789 0.0 0.0
0.0 0.0006140276039914399 -0.0003619299260775614 0.00028948657366473566 7.244335241282616e-05 5.14656680397376e-05 0.0 0.0
0.0 1.4768066423087521e-05 3.53261353152828e-07 -2.3337391071425394e-07 -1.1988744243858417e-07 4.228357927007682e-08 0.0 0.0
0.0 0.0 0.0 0.0 0.0 0.0 0.0 0.0
0.0 0.0 0.0 0.0 0.0 0.0 0.0 0.0
0.0 0.0 0.0 0.0 0.0 0.0 0.0 0.0