# vtk DataFile Version 3.0
Some data
ASCII
DATASET UNSTRUCTURED_GRID
POINTS 861 float
0.0 0.0 0.0
0.4 0.0 0.0
0.8 0.0 0.0
1.2000000000000002 0.0 0.0
1.6 0.0 0.0
2.0 0.0 0.0
2.4000000000000004 0.0 0.0
2.8000000000000003 0.0 0.0
3.2 0.0 0.0
3.6 0.0 0.0
4.0 0.0 0.0
4.4 0.0 0.0
4.800000000000001 0.0 0.0
5.2 0.0 0.0
5.6000000000000005 0.0 0.0
6.0 0.0 0.0
6.4 0.0 0.0
6.800000000000001 0.0 0.0
7.2 0.0 0.0
7.6000000000000005 0.0 0.0
8.0 0.0 0.0
8.4 0.0 0.0
8.8 0.0 0.0
9.200000000000001 0.0 0.0
9.600000000000001 0.0 0.0
10.0 0.0 0.0
10.4 0.0 0.0
10.8 0.0 0.0
11.200000000000001 0.0 0.0
11.600000000000001 0.0 0.0
12.0 0.0 0.0
12.4 0.0 0.0
12.8 0.0 0.0
13.200000000000001 0.0 0.0
13.600000000000001 0.0 0.0
14.0 0.0 0.0
14.4 0.0 0.0
14.8 0.0 0.0
15.200000000000001 0.0 0.0
15.600000000000001 0.0 0.0
16.0 0.0 0.0
0.0 0.1 0.0
0.4 0.1 0.0
0.8 0.1 0.0
1.2000000000000002 0.1 0.0
1.6 0.1 0.0
2.0 0.1 0.0
2.4000000000000004 0.1 0.0
2.8000000000000003 0.1 0.0
3.2 0.1 0.0
3.6 0.1 0.0
4.0 0.1 0.0
4.4 0.1 0.0
4.800000000000001 0.1 0.0
5.2 0.1 0.0
5.6000000000000005 0.1 0.0
6.0 0.1 0.0
6.4 0.1 0.0
6.800000000000001 0.1 0.0
7.2 0.1 0.0
7.6000000000000005 0.1 0.0
8.0 0.1 0.0
8.4 0.1 0.0
8.8 0.1 0.0
9.200000000000001 0.1 0.0
9.600000000000001 0.1 0.0
10.0 0.1 0.0
10.4 0.1 0.0
10.8 0.1 0.0
11.200000000000001 0.1 0.0
11.600000000000001 0.1 0.0
12.0 0.1 0.0
12.4 0.1 0.0
12.8 0.1 0.0
13.200000000000001 0.1 0.0
13.600000000000001 0.1 0.0
14.0 0.1 0.0
14.4 0.1 0.0
14.8 0.1 0.0
15.200000000000001 0.1 0.0
15.600000000000001 0.1 0.0
16.0 0.1 0.0
0.0 0.2 0.0
0.4 0.2 0.0
0.8 0.2 0.0
1.2000000000000002 0.2 0.0
1.6 0.2 0.0
2.0 0.2 0.0
2.4000000000000004 0.2 0.0
2.8000000000000003 0.2 0.0
3.2 0.2 0.0
3.6 0.2 0.0
4.0 0.2 0.0
4.4 0.2 0.0
4.800000000000001 0.2 0.0
5.2 0.2 0.0
5.6000000000000005 0.2 0.0
6.0 0.2 0.0
6.4 0.2 0.0
6.800000000000001 0.2 0.0
7.2 0.2 0.0
7.6000000000000005 0.2 0.0
8.0 0.2 0.0
8.4 0.2 0.0
8.8 0.2 0.0
9.200000000000001 0.2 0.0
9.600000000000001 0.2 0.0
10.0 0.2 0.0
10.4 0.2 0.0
10.8 0.2 0.0
11.200000000000001 0.2 0.0
11.600000000000001 0.2 0.0
12.0 0.2 0.0
12.4 0.2 0.0
12.8 0.2 0.0
13.200000000000001 0.2 0.0
13.600000000000001 0.2 0.0
14.0 0.2 0.0
14.4 0.2 0.0
14.8 0.2 0.0
15.200000000000001 0.2 0.0
15.600000000000001 0.2 0.0
16.0 0.2 0.0
0.0 0.30000000000000004 0.0
0.4 0.30000000000000004 0.0
0.8 0.30000000000000004 0.0
1.2000000000000002 0.30000000000000004 0.0
1.6 0.30000000000000004 0.0
2.0 0.30000000000000004 0.0
2.4000000000000004 0.30000000000000004 0.0
2.8000000000000003 0.30000000000000004 0.0
3.2 0.30000000000000004 0.0
3.6 0.30000000000000004 0.0
4.0 0.30000000000000004 0.0
4.4 0.30000000000000004 0.0
4.800000000000001 0.30000000000000004 0.0
5.2 0.30000000000000004 0.0
5.6000000000000005 0.30000000000000004 0.0
6.0 0.30000000000000004 0.0
6.4 0.30000000000000004 0.0
6.800000000000001 0.30000000000000004 0.0
7.2 0.30000000000000004 0.0
7.6000000000000005 0.30000000000000004 0.0
8.0 0.30000000000000004 0.0
8.4 0.30000000000000004 0.0
8.8 0.30000000000000004 0.0
9.200000000000001 0.30000000000000004 0.0
9.600000000000001 0.30000000000000004 0.0
10.0 0.30000000000000004 0.0
10.4 0.30000000000000004 0.0
10.8 0.30000000000000004 0.0
11.200000000000001 0.30000000000000004 0.0
11.600000000000001 0.30000000000000004 0.0
12.0 0.30000000000000004 0.0
12.4 0.30000000000000004 0.0
12.8 0.30000000000000004 0.0
13.200000000000001 0.30000000000000004 0.0
13.600000000000001 0.30000000000000004 0.0
14.0 0.30000000000000004 0.0
14.4 0.30000000000000004 0.0
14.8 0.30000000000000004 0.0
15.200000000000001 0.30000000000000004 0.0
15.600000000000001 0.30000000000000004 0.0
16.0 0.30000000000000004 0.0
0.0 0.4 0.0
0.4 0.4 0.0
0.8 0.4 0.0
1.2000000000000002 0.4 0.0
1.6 0.4 0.0
2.0 0.4 0.0
2.4000000000000004 0.4 0.0
2.8000000000000003 0.4 0.0
3.2 0.4 0.0
3.6 0.4 0.0
4.0 0.4 0.0
4.4 0.4 0.0
4.800000000000001 0.4 0.0
5.2 0.4 0.0
5.6000000000000005 0.4 0.0
6.0 0.4 0.0
6.4 0.4 0.0
6.800000000000001 0.4 0.0
7.2 0.4 0.0
7.6000000000000005 0.4 0.0
8.0 0.4 0.0
8.4 0.4 0.0
8.8 0.4 0.0
9.200000000000001 0.4 0.0
9.600000000000001 0.4 0.0
10.0 0.4 0.0
10.4 0.4 0.0
10.8 0.4 0.0
11.200000000000001 0.4 0.0
11.600000000000001 0.4 0.0
12.0 0.4 0.0
12.4 0.4 0.0
12.8 0.4 0.0
13.200000000000001 0.4 0.0
13.600000000000001 0.4 0.0
14.0 0.4 0.0
14.4 0.4 0.0
14.8 0.4 0.0
15.200000000000001 0.4 0.0
15.600000000000001 0.4 0.0
16.0 0.4 0.0
0.0 0.5 0.0
0.4 0.5 0.0
0.8 0.5 0.0
1.2000000000000002 0.5 0.0
1.6 0.5 0.0
2.0 0.5 0.0
2.4000000000000004 0.5 0.0
2.8000000000000003 0.5 0.0
3.2 0.5 0.0
3.6 0.5 0.0
4.0 0.5 0.0
4.4 0.5 0.0
4.800000000000001 0.5 0.0
5.2 0.5 0.0
5.6000000000000005 0.5 0.0
6.0 0.5 0.0
6.4 0.5 0.0
6.800000000000001 0.5 0.0
7.2 0.5 0.0
7.6000000000000005 0.5 0.0
8.0 0.5 0.0
8.4 0.5 0.0
8.8 0.5 0.0
9.200000000000001 0.5 0.0
9.600000000000001 0.5 0.0
10.0 0.5 0.0
10.4 0.5 0.0
10.8 0.5 0.0
11.200000000000001 0.5 0.0
11.600000000000001 0.5 0.0
12.0 0.5 0.0
12.4 0.5 0.0
12.8 0.5 0.0
13.200000000000001 0.5 0.0
13.600000000000001 0.5 0.0
14.0 0.5 0.0
14.4 0.5 0.0
14.8 0.5 0.0
15.200000000000001 0.5 0.0
15.600000000000001 0.5 0.0
16.0 0.5 0.0
0.0 0.6000000000000001 0.0
0.4 0.6000000000000001 0.0
0.8 0.6000000000000001 0.0
1.2000000000000002 0.6000000000000001 0.0
1.6 0.6000000000000001 0.0
2.0 0.6000000000000001 0.0
2.4000000000000004 0.6000000000000001 0.0
2.8000000000000003 0.6000000000000001 0.0
3.2 0.6000000000000001 0.0
3.6 0.6000000000000001 0.0
4.0 0.6000000000000001 0.0
4.4 0.6000000000000001 0.0
4.800000000000001 0.6000000000000001 0.0
5.2 0.6000000000000001 0.0
5.6000000000000005 0.6000000000000001 0.0
6.0 0.6000000000000001 0.0
6.4 0.6000000000000001 0.0
6.800000000000001 0.6000000000000001 0.0
7.2 0.6000000000000001 0.0
7.6000000000000005 0.6000000000000001 0.0
8.0 0.6000000000000001 0.0
8.4 0.6000000000000001 0.0
8.8 0.6000000000000001 0.0
9.200000000000001 0.6000000000000001 0.0
9.600000000000001 0.6000000000000001 0.0
10.0 0.6000000000000001 0.0
10.4 0.6000000000000001 0.0
10.8 0.6000000000000001 0.0
11.200000000000001 0.6000000000000001 0.0
11.600000000000001 0.6000000000000001 0.0
12.0 0.6000000000000001 0.0
12.4 0.6000000000000001 0.0
12.8 0.6000000000000001 0.0
13.200000000000001 0.6000000000000001 0.0
13.600000000000001 0.6000000000000001 0.0
14.0 0.6000000000000001 0.0
14.4 0.6000000000000001 0.0
14.8 0.6000000000000001 0.0
15.200000000000001 0.6000000000000001 0.0
15.600000000000001 0.6000000000000001 0.0
16.0 0.6000000000000001 0.0
0.0 0.7000000000000001 0.0
0.4 0.7000000000000001 0.0
0.8 0.7000000000000001 0.0
1.2000000000000002 0.7000000000000001 0.0
1.6 0.7000000000000001 0.0
2.0 0.7000000000000001 0.0
2.4000000000000004 0.7000000000000001 0.0
2.8000000000000003 0.7000000000000001 0.0
3.2 0.7000000000000001 0.0
3.6 0.7000000000000001 0.0
4.0 0.7000000000000001 0.0
4.4 0.7000000000000001 0.0
4.800000000000001 0.7000000000000001 0.0
5.2 0.7000000000000001 0.0
5.6000000000000005 0.7000000000000001 0.0
6.0 0.7000000000000001 0.0
6.4 0.7000000000000001 0.0
6.800000000000001 0.7000000000000001 0.0
7.2 0.7000000000000001 0.0
7.6000000000000005 0.7000000000000001 0.0
8.0 0.7000000000000001 0.0
8.4 0.7000000000000001 0.0
8.8 0.7000000000000001 0.0
9.200000000000001 0.7000000000000001 0.0
9.600000000000001 0.7000000000000001 0.0
10.0 0.7000000000000001 0.0
10.4 0.7000000000000001 0.0
10.8 0.7000000000000001 0.0
11.200000000000001 0.7000000000000001 0.0
11.600000000000001 0.7000000000000001 0.0
12.0 0.7000000000000001 0.0
12.4 0.7000000000000001 0.0
12.8 0.7000000000000001 0.0
13.200000000000001 0.7000000000000001 0.0
13.600000000000001 0.7000000000000001 0.0
14.0 0.7000000000000001 0.0
14.4 0.7000000000000001 0.0
14.8 0.7000000000000001 0.0
15.200000000000001 0.7000000000000001 0.0
15.600000000000001 0.7000000000000001 0.0
16.0 0.7000000000000001 0.0
0.0 0.8 0.0
0.4 0.8 0.0
0.8 0.8 0.0
1.2000000000000002 0.8 0.0
1.6 0.8 0.0
2.0 0.8 0.0
2.4000000000000004 0.8 0.0
2.8000000000000003 0.8 0.0
3.2 0.8 0.0
3.6 0.8 0.0
4.0 0.8 0.0
4.4 0.8 0.0
4.800000000000001 0.8 0.0
5.2 0.8 0.0
5.6000000000000005 0.8 0.0
6.0 0.8 0.0
6.4 0.8 0.0
6.800000000000001 0.8 0.0
7.2 0.8 0.0
7.6000000000000005 0.8 0.0
8.0 0.8 0.0
8.4 0.8 0.0
8.8 0.8 0.0
9.200000000000001 0.8 0.0
9.600000000000001 0.8 0.0
10.0 0.8 0.0
10.4 0.8 0.0
10.8 0.8 0.0
11.200000000000001 0.8 0.0
11.600000000000001 0.8 0.0
12.0 0.8 0.0
12.4 0.8 0.0
12.8 0.8 0.0
13.200000000000001 0.8 0.0
13.600000000000001 0.8 0.0
14.0 0.8 0.0
14.4 0.8 0.0
14.8 0.8 0.0
15.200000000000001 0.8 0.0
15.600000000000001 0.8 0.0
16.0 0.8 0.0
0.0 0.9 0.0
0.4 0.9 0.0
0.8 0.9 0.0
1.2000000000000002 0.9 0.0
1.6 0.9 0.0
2.0 0.9 0.0
2.4000000000000004 0.9 0.0
2.8000000000000003 0.9 0.0
3.2 0.9 0.0
3.6 0.9 0.0
4.0 0.9 0.0
4.4 0.9 0.0
4.800000000000001 0.9 0.0
5.2 0.9 0.0
5.6000000000000005 0.9 0.0
6.0 0.9 0.0
6.4 0.9 0.0
6.800000000000001 0.9 0.0
7.2 0.9 0.0
7.6000000000000005 0.9 0.0
8.0 0.9 0.0
8.4 0.9 0.0
8.8 0.9 0.0
9.200000000000001 0.9 0.0
9.600000000000001 0.9 0.0
10.0 0.9 0.0
10.4 0.9 0.0
10.8 0.9 0.0
11.200000000000001 0.9 0.0
11.600000000000001 0.9 0.0
12.0 0.9 0.0
12.4 0.9 0.0
12.8 0.9 0.0
13.200000000000001 0.9 0.0
13.600000000000001 0.9 0.0
14.0 0.9 0.0
14.4 0.9 0.0
14.8 0.9 0.0
15.200000000000001 0.9 0.0
15.600000000000001 0.9 0.0
16.0 0.9 0.0
0.0 1.0 0.0
0.4 1.0 0.0
0.8 1.0 0.0
1.2000000000000002 1.0 0.0
1.6 1.0 0.0
2.0 1.0 0.0
2.4000000000000004 1.0 0.0
2.8000000000000003 1.0 0.0
3.2 1.0 0.0
3.6 1.0 0.0
4.0 1.0 0.0
4.4 1.0 0.0
4.800000000000001 1.0 0.0
5.2 1.0 0.0
5.6000000000000005 1.0 0.0
6.0 1.0 0.0
6.4 1.0 0.0
6.800000000000001 1.0 0.0
7.2 1.0 0.0
7.6000000000000005 1.0 0.0
8.0 1.0 0.0
8.4 1.0 0.0
8.8 1.0 0.0
9.200000000000001 1.0 0.0
9.600000000000001 1.0 0.0
10.0 1.0 0.0
10.4 1.0 0.0
10.8 1.0 0.0
11.200000000000001 1.0 0.0
11.600000000000001 1.0 0.0
12.0 1.0 0.0
12.4 1.0 0.0
12.8 1.0 0.0
13.200000000000001 1.0 0.0
13.600000000000001 1.0 0.0
14.0 1.0 0.0
14.4 1.0 0.0
14.8 1.0 0.0
15.200000000000001 1.0 0.0
15.600000000000001 1.0 0.0
16.0 1.0 0.0
0.0 1.1 0.0
0.4 1.1 0.0
0.8 1.1 0.0
1.2000000000000002 1.1 0.0
1.6 1.1 0.0
2.0 1.1 0.0
2.4000000000000004 1.1 0.0
2.8000000000000003 1.1 0.0
3.2 1.1 0.0
3.6 1.1 0.0
4.0 1.1 0.0
4.4 1.1 0.0
4.800000000000001 1.1 0.0
5.2 1.1 0.0
5.6000000000000005 1.1 0.0
6.0 1.1 0.0
6.4 1.1 0.0
6.800000000000001 1.1 0.0
7.2 1.1 0.0
7.6000000000000005 1.1 0.0
8.0 1.1 0.0
8.4 1.1 0.0
8.8 1.1 0.0
9.200000000000001 1.1 0.0
9.600000000000001 1.1 0.0
10.0 1.1 0.0
10.4 1.1 0.0
10.8 1.1 0.0
11.200000000000001 1.1 0.0
11.600000000000001 1.1 0.0
12.0 1.1 0.0
12.4 1.1 0.0
12.8 1.1 0.0
13.200000000000001 1.1 0.0
13.600000000000001 1.1 0.0
14.0 1.1 0.0
14.4 1.1 0.0
14.8 1.1 0.0
15.200000000000001 1.1 0.0
15.600000000000001 1.1 0.0
16.0 1.1 0.0
0.0 1.2000000000000002 0.0
0.4 1.2000000000000002 0.0
0.8 1.2000000000000002 0.0
1.2000000000000002 1.2000000000000002 0.0
1.6 1.2000000000000002 0.0
2.0 1.2000000000000002 0.0
2.4000000000000004 1.2000000000000002 0.0
2.8000000000000003 1.2000000000000002 0.0
3.2 1.2000000000000002 0.0
3.6 1.2000000000000002 0.0
4.0 1.2000000000000002 0.0
4.4 1.2000000000000002 0.0
4.800000000000001 1.2000000000000002 0.0
5.2 1.2000000000000002 0.0
5.6000000000000005 1.2000000000000002 0.0
6.0 1.2000000000000002 0.0
6.4 1.2000000000000002 0.0
6.800000000000001 1.2000000000000002 0.0
7.2 1.2000000000000002 0.0
7.6000000000000005 1.2000000000000002 0.0
8.0 1.2000000000000002 0.0
8.4 1.2000000000000002 0.0
8.8 1.2000000000000002 0.0
9.200000000000001 1.2000000000000002 0.0
9.600000000000001 1.2000000000000002 0.0
10.0 1.2000000000000002 0.0
10.4 1.2000000000000002 0.0
10.8 1.2000000000000002 0.0
11.200000000000001 1.2000000000000002 0.0
11.600000000000001 1.2000000000000002 0.0
12.0 1.2000000000000002 0.0
12.4 1.2000000000000002 0.0
12.8 1.2000000000000002 0.0
13.200000000000001 1.2000000000000002 0.0
13.600000000000001 1.2000000000000002 0.0
14.0 1.2000000000000002 0.0
14.4 1.2000000000000002 0.0
14.8 1.2000000000000002 0.0
15.200000000000001 1.2000000000000002 0.0
15.600000000000001 1.2000000000000002 0.0
16.0 1.2000000000000002 0.0
0.0 1.3 0.0
0.4 1.3 0.0
0.8 1.3 0.0
1.2000000000000002 1.3 0.0
1.6 1.3 0.0
2.0 1.3 0.0
2.4000000000000004 1.3 0.0
2.8000000000000003 1.3 0.0
3.2 1.3 0.0
3.6 1.3 0.0
4.0 1.3 0.0
4.4 1.3 0.0
4.800000000000001 1.3 0.0
5.2 1.3 0.0
5.6000000000000005 1.3 0.0
6.0 1.3 0.0
6.4 1.3 0.0
6.800000000000001 1.3 0.0
7.2 1.3 0.0
7.6000000000000005 1.3 0.0
8.0 1.3 0.0
8.4 1.3 0.0
8.8 1.3 0.0
9.200000000000001 1.3 0.0
9.600000000000001 1.3 0.0
10.0 1.3 0.0
10.4 1.3 0.0
10.8 1.3 0.0
11.200000000000001 1.3 0.0
11.600000000000001 1.3 0.0
12.0 1.3 0.0
12.4 1.3 0.0
12.8 1.3 0.0
13.200000000000001 1.3 0.0
13.600000000000001 1.3 0.0
14.0 1.3 0.0
14.4 1.3 0.0
14.8 1.3 0.0
15.200000000000001 1.3 0.0
15.600000000000001 1.3 0.0
16.0 1.3 0.0
0.0 1.4000000000000001 0.0
0.4 1.4000000000000001 0.0
0.8 1.4000000000000001 0.0
1.2000000000000002 1.4000000000000001 0.0
1.6 1.4000000000000001 0.0
2.0 1.4000000000000001 0.0
2.4000000000000004 1.4000000000000001 0.0
2.8000000000000003 1.4000000000000001 0.0
3.2 1.4000000000000001 0.0
3.6 1.4000000000000001 0.0
4.0 1.4000000000000001 0.0
4.4 1.4000000000000001 0.0
4.800000000000001 1.4000000000000001 0.0
5.2 1.4000000000000001 0.0
5.6000000000000005 1.4000000000000001 0.0
6.0 1.4000000000000001 0.0
6.4 1.4000000000000001 0.0
6.800000000000001 1.4000000000000001 0.0
7.2 1.4000000000000001 0.0
7.6000000000000005 1.4000000000000001 0.0
8.0 1.4000000000000001 0.0
8.4 1.4000000000000001 0.0
8.8 1.4000000000000001 0.0
9.200000000000001 1.4000000000000001 0.0
9.600000000000001 1.4000000000000001 0.0
10.0 1.4000000000000001 0.0
10.4 1.4000000000000001 0.0
10.8 1.4000000000000001 0.0
11.200000000000001 1.4000000000000001 0.0
11.600000000000001 1.4000000000000001 0.0
12.0 1.4000000000000001 0.0
12.4 1.4000000000000001 0.0
12.8 1.4000000000000001 0.0
13.200000000000001 1.4000000000000001 0.0
13.600000000000001 1.4000000000000001 0.0
14.0 1.4000000000000001 0.0
14.4 1.4000000000000001 0.0
14.8 1.4000000000000001 0.0
15.200000000000001 1.4000000000000001 0.0
15.600000000000001 1.4000000000000001 0.0
16.0 1.4000000000000001 0.0
0.0 1.5 0.0
0.4 1.5 0.0
0.8 1.5 0.0
1.2000000000000002 1.5 0.0
1.6 1.5 0.0
2.0 1.5 0.0
2.4000000000000004 1.5 0.0
2.8000000000000003 1.5 0.0
3.2 1.5 0.0
3.6 1.5 0.0
4.0 1.5 0.0
4.4 1.5 0.0
4.800000000000001 1.5 0.0
5.2 1.5 0.0
5.6000000000000005 1.5 0.0
6.0 1.5 0.0
6.4 1.5 0.0
6.800000000000001 1.5 0.0
7.2 1.5 0.0
7.6000000000000005 1.5 0.0
8.0 1.5 0.0
8.4 1.5 0.0
8.8 1.5 0.0
9.200000000000001 1.5 0.0
9.600000000000001 1.5 0.0
10.0 1.5 0.0
10.4 1.5 0.0
10.8 1.5 0.0
11.200000000000001 1.5 0.0
11.600000000000001 1.5 0.0
12.0 1.5 0.0
12.4 1.5 0.0
12.8 1.5 0.0
13.200000000000001 1.5 0.0
13.600000000000001 1.5 0.0
14.0 1.5 0.0
14.4 1.5 0.0
14.8 1.5 0.0
15.200000000000001 1.5 0.0
15.600000000000001 1.5 0.0
16.0 1.5 0.0
0.0 1.6 0.0
0.4 1.6 0.0
0.8 1.6 0.0
1.2000000000000002 1.6 0.0
1.6 1.6 0.0
2.0 1.6 0.0
2.4000000000000004 1.6 0.0
2.8000000000000003 1.6 0.0
3.2 1.6 0.0
3.6 1.6 0.0
4.0 1.6 0.0
4.4 1.6 0.0
4.800000000000001 1.6 0.0
5.2 1.6 0.0
5.6000000000000005 1.6 0.0
6.0 1.6 0.0
6.4 1.6 0.0
6.800000000000001 1.6 0.0
7.2 1.6 0.0
7.6000000000000005 1.6 0.0
8.0 1.6 0.0
8.4 1.6 0.0
8.8 1.6 0.0
9.200000000000001 1.6 0.0
9.600000000000001 1.6 0.0
10.0 1.6 0.0
10.4 1.6 0.0
10.8 1.6 0.0
11.200000000000001 1.6 0.0
11.600000000000001 1.6 0.0
12.0 1.6 0.0
12.4 1.6 0.0
12.8 1.6 0.0
13.200000000000001 1.6 0.0
13.600000000000001 1.6 0.0
14.0 1.6 0.0
14.4 1.6 0.0
14.8 1.6 0.0
15.200000000000001 1.6 0.0
15.600000000000001 1.6 0.0
16.0 1.6 0.0
0.0 1.7000000000000002 0.0
0.4 1.7000000000000002 0.0
0.8 1.7000000000000002 0.0
1.2000000000000002 1.7000000000000002 0.0
1.6 1.7000000000000002 0.0
2.0 1.7000000000000002 0.0
2.4000000000000004 1.7000000000000002 0.0
2.8000000000000003 1.7000000000000002 0.0
3.2 1.7000000000000002 0.0
3.6 1.7000000000000002 0.0
4.0 1.7000000000000002 0.0
4.4 1.7000000000000002 0.0
4.800000000000001 1.7000000000000002 0.0
5.2 1.7000000000000002 0.0
5.6000000000000005 1.7000000000000002 0.0
6.0 1.7000000000000002 0.0
6.4 1.7000000000000002 0.0
6.800000000000001 1.7000000000000002 0.0
7.2 1.7000000000000002 0.0
7.6000000000000005 1.7000000000000002 0.0
8.0 1.7000000000000002 0.0
8.4 1.7000000000000002 0.0
8.8 1.7000000000000002 0.0
9.200000000000001 1.7000000000000002 0.0
9.600000000000001 1.7000000000000002 0.0
10.0 1.7000000000000002 0.0
10.4 1.7000000000000002 0.0
10.8 1.7000000000000002 0.0
11.200000000000001 1.7000000000000002 0.0
11.600000000000001 1.7000000000000002 0.0
12.0 1.7000000000000002 0.0
12.4 1.7000000000000002 0.0
12.8 1.7000000000000002 0.0
13.200000000000001 1.7000000000000002 0.0
13.600000000000001 1.7000000000000002 0.0
14.0 1.7000000000000002 0.0
14.4 1.7000000000000002 0.0
14.8 1.7000000000000002 0.0
15.200000000000001 1.7000000000000002 0.0
15.600000000000001 1.7000000000000002 0.0
16.0 1.7000000000000002 0.0
0.0 1.8 0.0
0.4 1.8 0.0
0.8 1.8 0.0
1.2000000000000002 1.8 0.0
1.6 1.8 0.0
2.0 1.8 0.0
2.4000000000000004 1.8 0.0
2.8000000000000003 1.8 0.0
3.2 1.8 0.0
3.6 1.8 0.0
4.0 1.8 0.0
4.4 1.8 0.0
4.800000000000001 1.8 0.0
5.2 1.8 0.0
5.6000000000000005 1.8 0.0
6.0 1.8 0.0
6.4 1.8 0.0
6.800000000000001 1.8 0.0
7.2 1.8 0.0
7.6000000000000005 1.8 0.0
8.0 1.8 0.0
8.4 1.8 0.0
8.8 1.8 0.0
9.200000000000001 1.8 0.0
9.600000000000001 1.8 0.0
10.0 1.8 0.0
10.4 1.8 0.0
10.8 1.8 0.0
11.200000000000001 1.8 0.0
11.600000000000001 1.8 0.0
12.0 1.8 0.0
12.4 1.8 0.0
12.8 1.8 0.0
13.200000000000001 1.8 0.0
13.600000000000001 1.8 0.0
14.0 1.8 0.0
14.4 1.8 0.0
14.8 1.8 0.0
15.200000000000001 1.8 0.0
15.600000000000001 1.8 0.0
16.0 1.8 0.0
0.0 1.9000000000000001 0.0
0.4 1.9000000000000001 0.0
0.8 1.9000000000000001 0.0
1.2000000000000002 1.9000000000000001 0.0
1.6 1.9000000000000001 0.0
2.0 1.9000000000000001 0.0
2.4000000000000004 1.9000000000000001 0.0
2.8000000000000003 1.9000000000000001 0.0
3.2 1.9000000000000001 0.0
3.6 1.9000000000000001 0.0
4.0 1.9000000000000001 0.0
4.4 1.9000000000000001 0.0
4.800000000000001 1.9000000000000001 0.0
5.2 1.9000000000000001 0.0
5.6000000000000005 1.9000000000000001 0.0
6.0 1.9000000000000001 0.0
6.4 1.9000000000000001 0.0
6.800000000000001 1.9000000000000001 0.0
7.2 1.9000000000000001 0.0
7.6000000000000005 1.9000000000000001 0.0
8.0 1.9000000000000001 0.0
8.4 1.9000000000000001 0.0
8.8 1.9000000000000001 0.0
9.200000000000001 1.9000000000000001 0.0
9.600000000000001 1.9000000000000001 0.0
10.0 1.9000000000000001 0.0
10.4 1.9000000000000001 0.0
10.8 1.9000000000000001 0.0
11.200000000000001 1.9000000000000001 0.0
11.600000000000001 1.9000000000000001 0.0
12.0 1.9000000000000001 0.0
12.4 1.9000000000000001 0.0
12.8 1.9000000000000001 0.0
13.200000000000001 1.9000000000000001 0.0
13.600000000000001 1.9000000000000001 0.0
14.0 1.9000000000000001 0.0
14.4 1.9000000000000001 0.0
14.8 1.9000000000000001 0.0
15.200000000000001 1.9000000000000001 0.0
15.600000000000001 1.9000000000000001 0.0
16.0 1.9000000000000001 0.0
0.0 2.0 0.0
0.4 2.0 0.0
0.8 2.0 0.0
1.2000000000000002 2.0 0.0
1.6 2.0 0.0
2.0 2.0 0.0
2.4000000000000004 2.0 0.0
2.8000000000000003 2.0 0.0
3.2 2.0 0.0
3.6 2.0 0.0
4.0 2.0 0.0
4.4 2.0 0.0
4.800000000000001 2.0 0.0
5.2 2.0 0.0
5.6000000000000005 2.0 0.0
6.0 2.0 0.0
6.4 2.0 0.0
6.800000000000001 2.0 0.0
7.2 2.0 0.0
7.6000000000000005 2.0 0.0
8.0 2.0 0.0
8.4 2.0 0.0
8.8 2.0 0.0
9.200000000000001 2.0 0.0
9.600000000000001 2.0 0.0
10.0 2.0 0.0
10.4 2.0 0.0
10.8 2.0 0.0
11.200000000000001 2.0 0.0
11.600000000000001 2.0 0.0
12.0 2.0 0.0
12.4 2.0 0.0
12.8 2.0 0.0
13.200000000000001 2.0 0.0
13.600000000000001 2.0 0.0
14.0 2.0 0.0
14.4 2.0 0.0
14.8 2.0 0.0
15.200000000000001 2.0 0.0
15.600000000000001 2.0 0.0
16.0 2.0 0.0
CELLS 800 4000
4 0 1 42 41
4 1 2 43 42
4 2 3 44 43
4 3 4 45 44
4 4 5 46 45
4 5 6 47 46
4 6 7 48 47
4 7 8 49 48
4 8 9 50 49
4 9 10 51 50
4 10 11 52 51
4 11 12 53 52
4 12 13 54 53
4 13 14 55 54
4 14 15 56 55
4 15 16 57 56
4 16 17 58 57
4 17 18 59 58
4 18 19 60 59
4 19 20 61 60
4 20 21 62 61
4 21 22 63 62
4 22 23 64 63
4 23 24 65 64
4 24 25 66 65
4 25 26 67 66
4 26 27 68 67
4 27 28 69 68
4 28 29 70 69
4 29 30 71 70
4 30 31 72 71
4 31 32 73 72
4 32 33 74 73
4 33 34 75 74
4 34 35 76 75
4 35 36 77 76
4 36 37 78 77
4 37 38 79 78
4 38 39 80 79
4 39 40 81 80
4 41 42 83 82
4 42 43 84 83
4 43 44 85 84
4 44 45 86 85
4 45 46 87 86
4 46 47 88 87
4 47 48 89 88
4 48 49 90 89
4 49 50 91 90
4 50 51 92 91
4 51 52 93 92
4 52 53 94 93
4 53 54 95 94
4 54 55 96 95
4 55 56 97 96
4 56 57 98 97
4 57 58 99 98
4 58 59 100 99
4 59 60 101 100
4 60 61 102 101
4 61 62 103 102
4 62 63 104 103
4 63 64 105 104
4 64 65 106 105
4 65 66 107 106
4 66 67 108 107
4 67 68 109 108
4 68 69 110 109
4 69 70 111 110
4 70 71 112 111
4 71 72 113 112
4 72 73 114 113
4 73 74 115 114
4 74 75 116 115
4 75 76 117 116
4 76 77 118 117
4 77 78 119 118
4 78 79 120 119
4 79 80 121 120
4 80 81 122 121
4 82 83 124 123
4 83 84 125 124
4 84 85 126 125
4 85 86 127 126
4 86 87 128 127
4 87 88 129 128
4 88 89 130 129
4 89 90 131 130
4 90 91 132 131
4 91 92 133 132
4 92 93 134 133
4 93 94 135 134
4 94 95 136 135
4 95 96 137 136
4 96 97 138 137
4 97 98 139 138
4 98 99 140 139
4 99 100 141 140
4 100 101 142 141
4 101 102 143 142
4 102 103 144 143
4 103 104 145 144
4 104 105 146 145
4 105 106 147 146
4 106 107 148 147
4 107 108 149 148
4 108 109 150 149
4 109 110 151 150
4 110 111 152 151
4 111 112 153 152
4 112 113 154 153
4 113 114 155 154
4 114 115 156 155
4 115 116 157 156
4 116 117 158 157
4 117 118 159 158
4 118 119 160 159
4 119 120 161 160
4 120 121 162 161
4 121 122 163 162
4 123 124 165 164
4 124 125 166 165
4 125 126 167 166
4 126 127 168 167
4 127 128 169 168
4 128 129 170 169
4 129 130 171 170
4 130 131 172 171
4 131 132 173 172
4 132 133 174 173
4 133 134 175 174
4 134 135 176 175
4 135 136 177 176
4 136 137 178 177
4 137 138 179 178
4 138 139 180 179
4 139 140 181 180
4 140 141 182 181
4 141 142 183 182
4 142 143 184 183
4 143 144 185 184
4 144 145 186 185
4 145 146 187 186
4 146 147 188 187
4 147 148 189 188
4 148 149 190 189
4 149 150 191 190
4 150 151 192 191
4 151 152 193 192
4 152 153 194 193
4 153 154 195 194
4 154 155 196 195
4 155 156 197 196
4 156 157 198 197
4 157 158 199 198
4 158 159 200 199
4 159 160 201 200
4 160 161 202 201
4 161 162 203 202
4 162 163 204 203
4 164 165 206 205
4 165 166 207 206
4 166 167 208 207
4 167 168 209 208
4 168 169 210 209
4 169 170 211 210
4 170 171 212 211
4 171 172 213 212
4 172 173 214 213
4 173 174 215 214
4 174 175 216 215
4 175 176 217 216
4 176 177 218 217
4 177 178 219 218
4 178 179 220 219
4 179 180 221 220
4 180 181 222 221
4 181 182 223 222
4 182 183 224 223
4 183 184 225 224
4 184 185 226 225
4 185 186 227 226
4 186 187 228 227
4 187 188 229 228
4 188 189 230 229
4 189 190 231 230
4 190 191 232 231
4 191 192 233 232
4 192 193 234 233
4 193 194 235 234
4 194 195 236 235
4 195 196 237 236
4 196 197 238 237
4 197 198 239 238
4 198 199 240 239
4 199 200 241 240
4 200 201 242 241
4 201 202 243 242
4 202 203 244 243
4 203 204 245 244
4 205 206 247 246
4 206 207 248 247
4 207 208 249 248
4 208 209 250 249
4 209 210 251 250
4 210 211 252 251
4 211 212 253 252
4 212 213 254 253
4 213 214 255 254
4 214 215 256 255
4 215 216 257 256
4 216 217 258 257
4 217 218 259 258
4 218 219 260 259
4 219 220 261 260
4 220 221 262 261
4 221 222 263 262
4 222 223 264 263
4 223 224 265 264
4 224 225 266 265
4 225 226 267 266
4 226 227 268 267
4 227 228 269 268
4 228 229 270 269
4 229 230 271 270
4 230 231 272 271
4 231 232 273 272
4 232 233 274 273
4 233 234 275 274
4 234 235 276 275
4 235 236 277 276
4 236 237 278 277
4 237 238 279 278
4 238 239 280 279
4 239 240 281 280
4 240 241 282 281
4 241 242 283 282
4 242 243 284 283
4 243 244 285 284
4 244 245 286 285
4 246 247 288 287
4 247 248 289 288
4 248 249 290 289
4 249 250 291 290
4 250 251 292 291
4 251 252 293 292
4 252 253 294 293
4 253 254 295 294
4 254 255 296 295
4 255 256 297 296
4 256 257 298 297
4 257 258 299 298
4 258 259 300 299
4 259 260 301 300
4 260 261 302 301
4 261 262 303 302
4 262 263 304 303
4 263 264 305 304
4 264 265 306 305
4 265 266 307 306
4 266 267 308 307
4 267 268 309 308
4 268 269 310 309
4 269 270 311 310
4 270 271 312 311
4 271 272 313 312
4 272 273 314 313
4 273 274 315 314
4 274 275 316 315
4 275 276 317 316
4 276 277 318 317
4 277 278 319 318
4 278 279 320 319
4 279 280 321 320
4 280 281 322 321
4 281 282 323 322
4 282 283 324 323
4 283 284 325 324
4 284 285 326 325
4 285 286 327 326
4 287 288 329 328
4 288 289 330 329
4 289 290 331 330
4 290 291 332 331
4 291 292 333 332
4 292 293 334 333
4 293 294 335 334
4 294 295 336 335
4 295 296 337 336
4 296 297 338 337
4 297 298 339 338
4 298 299 340 339
4 299 300 341 340
4 300 301 342 341
4 301 302 343 342
4 302 303 344 343
4 303 304 345 344
4 304 305 346 345
4 305 306 347 346
4 306 307 348 347
4 307 308 349 348
4 308 309 350 349
4 309 310 351 350
4 310 311 352 351
4 311 312 353 352
4 312 313 354 353
4 313 314 355 354
4 314 315 356 355
4 315 316 357 356
4 316 317 358 357
4 317 318 359 358
4 318 319 360 359
4 319 320 361 360
4 320 321 362 361
4 321 322 363 362
4 322 323 364 363
4 323 324 365 364
4 324 325 366 365
4 325 326 367 366
4 326 327 368 367
4 328 329 370 369
4 329 330 371 370
4 330 331 372 371
4 331 332 373 372
4 332 333 374 373
4 333 334 375 374
4 334 335 376 375
4 335 336 377 376
4 336 337 378 377
4 337 338 379 378
4 338 339 380 379
4 339 340 381 380
4 340 341 382 381
4 341 342 383 382
4 342 343 384 383
4 343 344 385 384
4 344 345 386 385
4 345 346 387 386
4 346 347 388 387
4 347 348 389 388
4 348 349 390 389
4 349 350 391 390
4 350 351 392 391
4 351 352 393 392
4 352 353 394 393
4 353 354 395 394
4 354 355 396 395
4 355 356 397 396
4 356 357 398 397
4 357 358 399 398
4 358 359 400 399
4 359 360 401 400
4 360 361 402 401
4 361 362 403 402
4 362 363 404 403
4 363 364 405 404
4 364 365 406 405
4 365 366 407 406
4 366 367 408 407
4 367 368 409 408
4 369 370 411 410
4 370 371 412 411
4 371 372 413 412
4 372 373 414 413
4 373 374 415 414
4 374 375 416 415
4 375 376 417 416
4 376 377 418 417
4 377 378 419 418
4 378 379 420 419
4 379 380 421 420
4 380 381 422 421
4 381 382 423 422
4 382 383 424 423
4 383 384 425 424
4 384 385 426 425
4 385 386 427 426
4 386 387 428 427
4 387 388 429 428
4 388 389 430 429
4 389 390 431 430
4 390 391 432 431
4 391 392 433 432
4 392 393 434 433
4 393 394 435 434
4 394 395 436 435
4 395 396 437 436
4 396 397 438 437
4 397 398 439 438
4 398 399 440 439
4 399 400 441 440
4 400 401 442 441
4 401 402 443 442
4 402 403 444 443
4 403 404 445 444
4 404 405 446 445
4 405 406 447 446
4 406 407 448 447
4 407 408 449 448
4 408 409 450 449
4 410 411 452 451
4 411 412 453 452
4 412 413 454 453
4 413 414 455 454
4 414 415 456 455
4 415 416 457 456
4 416 417 458 457
4 417 418 459 458
4 418 419 460 459
4 419 420 461 460
4 420 421 462 461
4 421 422 463 462
4 422 423 464 463
4 423 424 465 464
4 424 425 466 465
4 425 426 467 466
4 426 427 468 467
4 427 428 469 468
4 428 429 470 469
4 429 430 471 470
4 430 431 472 471
4 431 432 473 472
4 432 433 474 473
4 433 434 475 474
4 434 435 476 475
4 435 436 477 476
4 436 437 478 477
4 437 438 479 478
4 438 439 480 479
4 439 440 481 480
4 440 441 482 481
4 441 442 483 482
4 442 443 484 483
4 443 444 485 484
4 444 445 486 485
4 445 446 487 486
4 446 447 488 487
4 447 448 489 488
4 448 449 490 489
4 449 450 491 490
4 451 452 493 492
4 452 453 494 493
4 453 454 495 494
4 454 455 496 495
4 455 456 497 496
4 456 457 498 497
4 457 458 499 498
4 458 459 500 499
4 459 460 501 500
4 460 461 502 501
4 461 462 503 502
4 462 463 504 503
4 463 464 505 504
4 464 465 506 505
4 465 466 507 506
4 466 467 508 507
4 467 468 509 508
4 468 469 510 509
4 469 470 511 510
4 470 471 512 511
4 471 472 513 512
4 472 473 514 513
4 473 474 515 514
4 474 475 516 515
4 475 476 517 516
4 476 477 518 517
4 477 478 519 518
4 478 479 520 519
4 479 480 521 520
4 480 481 522 521
4 481 482 523 522
4 482 483 524 523
4 483 484 525 524
4 484 485 526 525
4 485 486 527 526
4 486 487 528 527
4 487 488 529 528
4 488 489 530 529
4 489 490 531 530
4 490 491 532 531
4 492 493 534 533
4 493 494 535 534
4 494 495 536 535
4 495 496 537 536
4 496 497 538 537
4 497 498 539 538
4 498 499 540 539
4 499 500 541 540
4 500 501 542 541
4 501 502 543 542
4 502 503 544 543
4 503 504 545 544
4 504 505 546 545
4 505 506 547 546
4 506 507 548 547
4 507 508 549 548
4 508 509 550 549
4 509 510 551 550
4 510 511 552 551
4 511 512 553 552
4 512 513 554 553
4 513 514 555 554
4 514 515 556 555
4 515 516 557 556
4 516 517 558 557
4 517 518 559 558
4 518 519 560 559
4 519 520 561 560
4 520 521 562 561
4 521 522 563 562
4 522 523 564 563
4 523 524 565 564
4 524 525 566 565
4 525 526 567 566
4 526 527 568 567
4 527 528 569 568
4 528 529 570 569
4 529 530 571 570
4 530 531 572 571
4 531 532 573 572
4 533 534 575 574
4 534 535 576 575
4 535 536 577 576
4 536 537 578 577
4 537 538 579 578
4 538 539 580 579
4 539 540 581 580
4 540 541 582 581
4 541 542 583 582
4 542 543 584 583
4 543 544 585 584
4 544 545 586 585
4 545 546 587 586
4 546 547 588 587
4 547 548 589 588
4 548 549 590 589
4 549 550 591 590
4 550 551 592 591
4 551 552 593 592
4 552 553 594 593
4 553 554 595 594
4 554 555 596 595
4 555 556 597 596
4 556 557 598 597
4 557 558 599 598
4 558 559 600 599
4 559 560 601 600
4 560 561 602 601
4 561 562 603 602
4 562 563 604 603
4 563 564 605 604
4 564 565 606 605
4 565 566 607 606
4 566 567 608 607
4 567 568 609 608
4 568 569 610 609
4 569 570 611 610
4 570 571 612 611
4 571 572 613 612
4 572 573 614 613
4 574 575 616 615
4 575 576 617 616
4 576 577 618 617
4 577 578 619 618
4 578 579 620 619
4 579 580 621 620
4 580 581 622 621
4 581 582 623 622
4 582 583 624 623
4 583 584 625 624
4 584 585 626 625
4 585 586 627 626
4 586 587 628 627
4 587 588 629 628
4 588 589 630 629
4 589 590 631 630
4 590 591 632 631
4 591 592 633 632
4 592 593 634 633
4 593 594 635 634
4 594 595 636 635
4 595 596 637 636
4 596 597 638 637
4 597 598 639 638
4 598 599 640 639
4 599 600 641 640
4 600 601 642 641
4 601 602 643 642
4 602 603 644 643
4 603 604 645 644
4 604 605 646 645
4 605 606 647 646
4 606 607 648 647
4 607 608 649 648
4 608 609 650 649
4 609 610 651 650
4 610 611 652 651
4 611 612 653 652
4 612 613 654 653
4 613 614 655 654
4 615 616 657 656
4 616 617 658 657
4 617 618 659 658
4 618 619 660 659
4 619 620 661 660
4 620 621 662 661
4 621 622 663 662
4 622 623 664 663
4 623 624 665 664
4 624 625 666 665
4 625 626 667 666
4 626 627 668 667
4 627 628 669 668
4 628 629 670 669
4 629 630 671 670
4 630 631 672 671
4 631 632 673 672
4 632 633 674 673
4 633 634 675 674
4 634 635 676 675
4 635 636 677 676
4 636 637 678 677
4 637 638 679 678
4 638 639 680 679
4 639 640 681 680
4 640 641 682 681
4 641 642 683 682
4 642 643 684 683
4 643 644 685 684
4 644 645 686 685
4 645 646 687 686
4 646 647 688 687
4 647 648 689 688
4 648 649 690 689
4 649 650 691 690
4 650 651 692 691
4 651 652 693 692
4 652 653 694 693
4 653 654 695 694
4 654 655 696 695
4 656 657 698 697
4 657 658 699 698
4 658 659 700 699
4 659 660 701 700
4 660 661 702 701
4 661 662 703 702
4 662 663 704 703
4 663 664 705 704
4 664 665 706 705
4 665 666 707 706
4 666 667 708 707
4 667 668 709 708
4 668 669 710 709
4 669 670 711 710
4 670 671 712 711
4 671 672 713 712
4 672 673 714 713
4 673 674 715 714
4 674 675 716 715
4 675 676 717 716
4 676 677 718 717
4 677 678 719 718
4 678 679 720 719
4 679 680 721 720
4 680 681 722 721
4 681 682 723 722
4 682 683 724 723
4 683 684 725 724
4 684 685 726 725
4 685 686 727 726
4 686 687 728 727
4 687 688 729 728
4 688 689 730 729
4 689 690 731 730
4 690 691 732 731
4 691 692 733 732
4 692 693 734 733
4 693 694 735 734
4 694 695 736 735
4 695 696 737 736
4 697 698 739 738
4 698 699 740 739
4 699 700 741 740
4 700 701 742 741
4 701 702 743 742
4 702 703 744 743
4 703 704 745 744
4 704 705 746 745
4 705 706 747 746
4 706 707 748 747
4 707 708 749 748
4 708 709 750 749
4 709 710 751 750
4 710 711 752 751
4 711 712 753 752
4 712 713 754 753
4 713 714 755 754
4 714 715 756 755
4 715 716 757 756
4 716 717 758 757
4 717 718 759 758
4 718 719 760 759
4 719 720 761 760
4 720 721 762 761
4 721 722 763 762
4 722 723 764 763
4 723 724 765 764
4 724 725 766 765
4 725 726 767 766
4 726 727 768 767
4 727 728 769 768
4 728 729 770 769
4 729 730 771 770
4 730 731 772 771
4 731 732 773 772
4 732 733 774 773
4 733 734 775 774
4 734 735 776 775
4 735 736 777 776
4 736 737 778 777
4 738 739 780 779
4 739 740 781 780
4 740 741 782 781
4 741 742 783 782
4 742 743 784 783
4 743 744 785 784
4 744 745 786 785
4 745 746 787 786
4 746 747 788 787
4 747 748 789 788
4 748 749 790 789
4 749 750 791 790
4 750 751 792 791
4 751 752 793 792
4 752 753 794 793
4 753 754 795 794
4 754 755 796 795
4 755 756 797 796
4 756 757 798 797
4 757 758 799 798
4 758 759 800 799
4 759 760 801 800
4 760 761 802 801
4 761 762 803 802
4 762 763 804 803
4 763 764 805 804
4 764 765 806 805
4 765 766 807 806
4 766 767 808 807
4 767 768 809 808
4 768 769 810 809
4 769 770 811 810
4 770 771 812 811
4 771 772 813 812
4 772 773 814 813
4 773 774 815 814
4 774 775 816 815
4 775 776 817 816
4 776 777 818 817
4 777 778 819 818
4 779 780 821 820
4 780 781 822 821
4 781 782 823 822
4 782 783 824 823
4 783 784 825 824
4 784 785 826 825
4 785 786 827 826
4 786 787 828 827
4 787 788 829 828
4 788 789 830 829
4 789 790 831 830
4 790 791 832 831
4 791 792 833 832
4 792 793 834 833
4 793 794 835 834
4 794 795 836 835
4 795 796 837 836
4 796 797 838 837
4 797 798 839 838
4 798 799 840 839
4 799 800 841 840
4 800 801 842 841
4 801 802 843 842
4 802 803 844 843
4 803 804 845 844
4 804 805 846 845
4 805 806 847 846
4 806 807 848 847
4 807 808 849 848
4 808 809 850 849
4 809 810 851 850
4 810 811 852 851
4 811 812 853 852
4 812 813 854 853
4 813 814 855 854
4 814 815 856 855
4 815 816 857 856
4 816 817 858 857
4 817 818 859 858
4 818 819 860 859
CELL_TYPES 800
9
9
9
9
9
9
9
9
9
9
9
9
9
9
9
9
9
9
9
9
9
9
9
9
9
9
9
9
9
9
9
9
9
9
9
9
9
9
9
9
9
9
9
9
9
9
9
9
9
9
9
9
9
9
9
9
9
9
9
9
9
9
9
9
9
9
9
9
9
9
9
9
9
9
9
9
9
9
9
9
9
9
9
9
9
9
9
9
9
9
9
9
9
9
9
9
9
9
9
9
9
9
9
9
9
9
9
9
9
9
9
9
9
9
9
9
9
9
9
9
9
9
9
9
9
9
9
9
9
9
9
9
9
9
9
9
9
9
9
9
9
9
9
9
9
9
9
9
9
9
9
9
9
9
9
9
9
9
9
9
9
9
9
9
9
9
9
9
9
9
9
9
9
9
9
9
9
9
9
9
9
9
9
9
9
9
9
9
9
9
9
9
9
9
9
9
9
9
9
9
9
9
9
9
9
9
9
9
9
9
9
9
9
9
9
9
9
9
9
9
9
9
9
9
9
9
9
9
9
9
9
9
9
9
9
9
9
9
9
9
9
9
9
9
9
9
9
9
9
9
9
9
9
9
9
9
9
9
9
9
9
9
9
9
9
9
9
9
9
9
9
9
9
9
9
9
9
9
9
9
9
9
9
9
9
9
9
9
9
9
9
9
9
9
9
9
9
9
9
9
9
9
9
9
9
9
9
9
9
9
9
9
9
9
9
9
9
9
9
9
9
9
9
9
9
9
9
9
9
9
9
9
9
9
9
9
9
9
9
9
9
9
9
9
9
9
9
9
9
9
9
9
9
9
9
9
9
9
9
9
9
9
9
9
9
9
9
9
9
9
9
9
9
9
9
9
9
9
9
9
9
9
9
9
9
9
9
9
9
9
9
9
9
9
9
9
9
9
9
9
9
9
9
9
9
9
9
9
9
9
9
9
9
9
9
9
9
9
9
9
9
9
9
9
9
9
9
9
9
9
9
9
9
9
9
9
9
9
9
9
9
9
9
9
9
9
9
9
9
9
9
9
9
9
9
9
9
9
9
9
9
9
9
9
9
9
9
9
9
9
9
9
9
9
9
9
9
9
9
9
9
9
9
9
9
9
9
9
9
9
9
9
9
9
9
9
9
9
9
9
9
9
9
9
9
9
9
9
9
9
9
9
9
9
9
9
9
9
9
9
9
9
9
9
9
9
9
9
9
9
9
9
9
9
9
9
9
9
9
9
9
9
9
9
9
9
9
9
9
9
9
9
9
9
9
9
9
9
9
9
9
9
9
9
9
9
9
9
9
9
9
9
9
9
9
9
9
9
9
9
9
9
9
9
9
9
9
9
9
9
9
9
9
9
9
9
9
9
9
9
9
9
9
9
9
9
9
9
9
9
9
9
9
9
9
9
9
9
9
9
9
9
9
9
9
9
9
9
9
9
9
9
9
9
9
9
9
9
9
9
9
9
9
9
9
9
9
9
9
9
9
9
9
9
9
9
9
9
9
9
9
9
9
9
9
9
9
9
9
9
9
9
9
9
9
9
9
9
9
9
9
9
9
9
9
9
9
9
9
9
9
9
9
9
9
9
9
9
9
9
9
9
9
9
9
9
9
9
9
9
9
9
9
9
9
9
9
9
9
9
9
9
9
9
9
9
9
9
9
9
9
9
9
9
9
9
9
9
9
9
9
9
9
9
9
9
9
9
9
9
9
9
9
9
9
9
9
9
9
9
9
9
9
9
9
9
9
9
9
9
9
9
9
9
9
9
9
9
9
9
9
9
9
9
9
9
9
9
9
9
9
9
9
9
9
9
9
9
9
9
POINT_DATA 861
SCALARS Disp float 2
LOOKUP_TABLE default
0.0 0.0
0.006461029277674508 -0.32101479274187367
0.007964764353549892 -0.631892408777793
0.008787920693549691 -0.9415356373918209
0.009904924064465434 -1.2507488846847254
0.01185150283988538 -1.5590102591723747
0.015438433490804294 -1.8656146535459175
0.02168129465706133 -2.1696714650121143
0.0317801226140109 -2.47005622458645
0.04703737703920323 -2.765280189543195
0.06873583827272103 -3.053321786219155
0.09805311037644913 -3.3315534239621623
0.13602339033458802 -3.596805816874329
0.1835250758795157 -3.8455153857132256
0.24126750117421947 -4.07382370787281
0.30971666053664265 -4.277667732137395
0.3889728863902961 -4.452903436675642
0.4786348878625681 -4.595496585780201
0.5776939098970285 -4.701803069615435
0.6845026333534556 -4.768827839562144
0.796467496008162 -4.79459587578357
0.9084323586628618 -4.768827839561993
1.015241082119266 -4.701803069615128
1.114300104153687 -4.595496585779757
1.2039621056259107 -4.452903436675087
1.2832183314795094 -4.27766773213676
1.3516674908418767 -4.073823707872114
1.4094099161365254 -3.845515385712489
1.4569116016813985 -3.596805816873574
1.4948818816394849 -3.3315534239614135
1.5241991537431676 -3.053321786218433
1.5458976149766461 -2.7652801895425156
1.5611548694018085 -2.470056224585823
1.5712536973587359 -2.1696714650115494
1.577496558524978 -1.8656146535454203
1.5810834891758876 -1.5590102591719541
1.5830300679513032 -1.250748884684382
1.5841470713222179 -0.9415356373915587
1.5849702276622173 -0.6318924087776103
1.5864739627380913 -0.32101479274177414
1.592934992015762 0.0
0.08006910357127145 -0.002645367742768562
0.08465563663619424 -0.32134581454578476
0.08542610182393606 -0.6319577954368896
0.08614921054976665 -0.9416316710544934
0.08711728451103044 -1.250925388253553
0.0887577427395549 -1.5594272181186752
0.09183342896663335 -1.8665000437609376
0.09730275389359075 -2.171298484338837
0.1062897374554285 -2.472730080266419
0.11998033344137086 -2.7693107305777795
0.1395182078373432 -3.058999678395254
0.16594025014308827 -3.339138505962875
0.20016383886179798 -3.606524688090622
0.2429855800918887 -3.8575590634022436
0.2950514112229519 -4.088337995147594
0.3567967801831053 -4.294729693192143
0.4283407434366686 -4.472489434626396
0.5093648784909398 -4.617451657688789
0.5989995499181228 -4.725816000639608
0.6956418459315845 -4.794398521425382
0.7964674960081434 -4.820815593621461
0.8972931460846958 -4.794398521425228
0.9939354420981366 -4.725816000639294
1.0835701135252844 -4.617451657688335
1.164594248579514 -4.472489434625827
1.2361382118330284 -4.294729693191495
1.2978835807931315 -4.088337995146884
1.349949411924145 -3.8575590634014936
1.3927711531541864 -3.606524688089854
1.4269947418728492 -3.339138505962115
1.453416784178553 -3.0589996783945215
1.4729546585744904 -2.7693107305770925
1.4866452545604054 -2.4727300802657863
1.495632238122223 -2.1712984843382688
1.501101563049167 -1.8665000437604378
1.504177249276237 -1.5594272181182534
1.505817707504758 -1.2509253882532092
1.506785781466021 -0.9416316710542312
1.5075088901918516 -0.6319577954367069
1.5082793553795932 -0.32134581454568484
1.51286588844451 -0.0026453677427659876
0.15907263313869707 -0.004763384917760212
0.16247061824744502 -0.3215135441941588
0.16290687218983163 -0.6319880035003556
0.16349398037892765 -0.9417153449877191
0.1643252780415849 -1.2510633040557047
0.1656903537047934 -1.5597573932261575
0.16826904666764844 -1.867236742135766
0.17296762087531609 -2.172700298208942
0.18082158119052158 -2.4750789764225005
0.192903825649714 -2.7728852991170188
0.21022624329689651 -3.064056279224499
0.23369565105143145 -3.3459049801414817
0.26411404461023696 -3.615202191433324
0.30218586641496475 -3.868320574920837
0.34849851327491255 -4.10131738953979
0.40346174410791086 -4.310002805785175
0.46722706934291147 -4.490046953642023
0.5395731190824542 -4.637167506547818
0.6197446319666285 -4.747408855370427
0.7061963909970694 -4.81735059858107
0.7964674960081254 -4.844343620179443
0.8867386010191749 -4.817350598580911
0.973190360049597 -4.7474088553701055
1.0533618729337406 -4.637167506547354
1.1257079226732467 -4.490046953641445
1.189473247908204 -4.3100028057845154
1.244436478741158 -4.101317389539068
1.2907491256010615 -3.8683205749200753
1.3288209474057449 -3.615202191432544
1.3592393409645092 -3.3459049801407112
1.382708748719007 -3.0640562792237573
1.4000311663661589 -2.7728852991163246
1.4121134108253266 -2.4750789764218624
1.4199673711405139 -2.1727002982083694
1.4246659453481698 -1.867236742135264
1.427244638311018 -1.5597573932257347
1.4286097139742235 -1.2510633040553605
1.4294410116368803 -0.9417153449874569
1.4300281198259763 -0.631988003500173
1.430464373768363 -0.3215135441940585
1.4338623588771051 -0.00476338491775475
0.23750939420942752 -0.00647435872126507
0.24010041649816366 -0.3216276621571372
0.24036455802322776 -0.6320040418010782
0.24082258891594355 -0.94178141095566
0.2415245372021133 -1.2511722555176361
0.2426464623546617 -1.5600103665182312
0.24475674915696963 -1.8678296680858637
0.24869436982556326 -2.1738774613957927
0.25540768193519225 -2.4770979343916286
0.26585777746573963 -2.7759951658508015
0.2809302556039743 -3.0684808228670866
0.30140631883459357 -3.3518418024361156
0.32797665689910127 -3.622826436951548
0.3612527846826329 -3.877785422750383
0.4017549523965516 -4.112745778051671
0.44987432744773515 -4.323471273241121
0.5057989879363944 -4.505562601426351
0.5694010593450448 -4.654633374958215
0.6400539763871618 -4.766570578010605
0.7164340383256008 -4.837746913321092
0.7964674960081076 -4.865321058994812
0.8765009536906088 -4.83774691332093
0.9528810156290308 -4.7665705780102785
1.0235339326711212 -4.654633374957743
1.0871360040797386 -4.505562601425763
1.1430606645683612 -4.323471273240451
1.1911800396195056 -4.1127457780509395
1.2316822073333853 -3.8777854227496107
1.264958335116878 -3.622826436950759
1.2915286731813496 -3.3518418024353362
1.3120047364119367 -3.068480822866337
1.3270772145501446 -2.7759951658501003
1.3375273100806702 -2.4770979343909856
1.3442406221902834 -2.1738774613952168
1.3481782428588667 -1.8678296680853594
1.3502885296611689 -1.5600103665178076
1.3514104548137151 -1.2511722555172917
1.3521124030998848 -0.9417814109553977
1.3525704339926006 -0.6320040418008956
1.3528345755176647 -0.3216276621570365
1.3554255978063956 -0.006474358721256925
0.31562460756713007 -0.007863101116227416
0.31760680198610297 -0.32171541206013016
0.31777830475261193 -0.6320131157661777
0.31812875076922764 -0.9418320720926932
0.31871098867725073 -1.251258164404884
0.3196188187572755 -1.5601996078572884
0.3213046872515672 -1.8682880827418804
0.3245000957335965 -2.174833145603727
0.33008036122520334 -2.4787864740648913
0.33889169942022196 -2.7786364118413234
0.3516983946912407 -3.0722676714286146
0.36916009097919095 -3.356942028768948
0.3918556917458173 -3.6293897765196506
0.42030623294107833 -3.8859451952915784
0.45496870700927927 -4.122612703398761
0.4962026231976156 -4.335122476206056
0.5442259653238295 -4.519021228058784
0.5990086195879427 -4.669832402063226
0.6601046494850757 -4.78330456834397
0.7264825333418476 -4.855635118668301
0.7964674960080904 -4.883823036736949
0.8664524586743276 -4.855635118668137
0.9328303425310843 -4.783304568343638
0.9939263724281943 -4.669832402062747
1.0487090266922792 -4.519021228058189
1.0967323688184616 -4.335122476205377
1.137966285006764 -4.12261270339802
1.1726287590749316 -3.8859451952907977
1.2010793002701594 -3.6293897765188534
1.2237749010367545 -3.3569420287681604
1.241236597324678 -3.0722676714278583
1.2540432925956733 -2.778636411840617
1.2628546307906732 -2.478786474064244
1.2684348962822667 -2.1748331456031478
1.2716303047642872 -1.8682880827413748
1.2733161732585747 -1.5601996078568643
1.2742240033385979 -1.2512581644045395
1.274806241246621 -0.9418320720924308
1.2751566872632365 -0.6320131157659953
1.2753281900297457 -0.32171541206002907
1.277310384448714 -0.007863101116216901
0.39352848180942773 -0.00898380432795077
0.39502776595327166 -0.3217857486817509
0.3951459512622073 -0.6320198978998797
0.39540865628263366 -0.9418696559763825
0.3958783617567884 -1.2513259601392224
0.3966013497519239 -1.5603381438344956
0.3979069697265705 -1.8686268317798924
0.40040812230164136 -2.1755745214723223
0.4048718578360286 -2.480147961447257
0.41205467719893885 -2.7808100083247456
0.42259806847412024 -3.0754159071983502
0.4370424428283235 -3.361203759511734
0.4558575340176454 -3.634889306164054
0.4794730216811352 -3.8927962683286794
0.5082807189750054 -4.130914021171326
0.5426112609886433 -4.344948497184047
0.5826912544535566 -4.530407955932459
0.6285827973805264 -4.682748402884759
0.6800619896048652 -4.797609178579294
0.7364429880437967 -4.871040112049766
0.796467496008073 -4.899894208856055
0.8564920039723445 -4.871040112049599
0.9128730024112627 -4.797609178578958
0.964352194635582 -4.682748402884274
1.0102437375625277 -4.530407955931857
1.0503237310274143 -4.34494849718336
1.0846542730410238 -4.130914021170578
1.1134619703348665 -3.8927962683278907
1.137077457998329 -3.634889306163249
1.1558925491876246 -3.3612037595109396
1.1703369235418055 -3.0754159071975886
1.1808803148169675 -2.780810008324034
1.1880631341798624 -2.4801479614466055
1.1925268697142382 -2.175574521471741
1.1950280222893024 -1.8686268317793855
1.196333642263946 -1.560338143834071
1.1970566302590806 -1.2513259601388773
1.197526335733235 -0.9418696559761199
1.1977890407536615 -0.6320198978996973
1.1979072260625971 -0.32178574868164955
1.1994065102064373 -0.008983804327938225
0.4712777485773239 -0.009877847729858343
0.47238891766436936 -0.32184236403386823
0.4724732453308251 -0.632026716806166
0.4726620685120099 -0.9418958071211275
0.47302335667351914 -1.2513789262759942
0.47358512389924073 -1.5604379463247162
0.4745553159860134 -1.868864262769269
0.47641978196202794 -2.1761175239583266
0.47981707941349344 -2.4811903560476027
0.48539629159324066 -2.782521515442271
0.4936970403353714 -3.0779297730732904
0.5051405545693706 -3.3646302061527957
0.5200882146427486 -3.639327552853857
0.5388793269900218 -3.8983405085461507
0.5618407591504336 -4.137650287733915
0.5892654831247619 -4.3529470784709146
0.6213818253587557 -4.539713181837228
0.6583275597144576 -4.693364662980107
0.7001024276438009 -4.809471223584968
0.7464141356191517 -4.88396454617592
0.7964674960080553 -4.913554486995309
0.8465208563969552 -4.883964546175751
0.8928325643722949 -4.809471223584627
0.9346074323016219 -4.693364662979617
0.9715531666573044 -4.539713181836619
1.0036695088912764 -4.352947078470222
1.0310942328655814 -4.13765028773316
1.054055665025971 -3.8983405085453553
1.072846777373223 -3.6393275528530467
1.0877944374465807 -3.364630206151996
1.0992379516805617 -3.077929773072524
1.1075387004226769 -2.7825215154415557
1.1131179126024118 -2.481190356046949
1.116515210053869 -2.176117523957743
1.1183796760298783 -1.8688642627687615
1.1193498681166487 -1.560437946324291
1.11991163534237 -1.2513789262756494
1.120272923503879 -0.941895807120865
1.1204617466850637 -0.6320267168059835
1.1205460743515194 -0.32184236403376665
1.121657243438562 -0.009877847729844147
0.5489096083574698 -0.010578792237158949
0.5497092183810166 -0.32188800151555613
0.5497685196727395 -0.6320340496453907
0.5498911713856234 -0.9419117670709687
0.5501458112056079 -1.2514182508161453
0.5505599332645477 -1.5605088498092419
0.5512437831914944 -1.8690196598392355
0.5525338345960457 -2.1764842144772767
0.5549354422225975 -2.481930853098163
0.5589684973760572 -2.78378215912603
0.5650649682788689 -3.079818639092376
0.5735413219084753 -3.367230101203348
0.5846561595302674 -3.6427130378239667
0.5986554462080328 -3.9025855848748296
0.61579562737195 -4.142827920037889
0.6363345593068962 -4.3591221268476925
0.660495460335418 -4.546934285227399
0.6884581576667815 -4.701665876164866
0.7204191919729086 -4.818864796780679
0.7565064393935144 -4.894386877364326
0.7964674960080375 -4.924799128460845
0.8364285526225572 -4.8943868773641555
0.8725158000431548 -4.818864796780335
0.9044768343492688 -4.701665876164373
0.9324395316806176 -4.546934285226786
0.9566004327091222 -4.359122126846994
0.9771393646440506 -4.142827920037129
0.9942795458079515 -3.9025855848740294
1.0082788324857017 -3.6427130378231523
1.019393670107479 -3.3672301012025443
1.0278700237370715 -3.0798186390916062
1.033966494639872 -2.7837821591253125
1.037999549793323 -2.481930853097507
1.0404011574198688 -2.1764842144766914
1.0416912088244166 -1.8690196598387272
1.0423750587513618 -1.5605088498088169
1.0427891808103011 -1.2514182508158007
1.0430438206302854 -0.941911767070706
1.0431664723431693 -0.6320340496452082
1.0432257736348922 -0.3218880015154545
1.0440253836584368 -0.010578792237143399
0.626447441095376 -0.011117789135472482
0.6270058806577621 -0.3219251900241606
0.6270394346990239 -0.6320410515493908
0.6270995732992731 -0.9419184730559397
0.6272492616176923 -1.2514435675317508
0.6275187495912086 -1.5605570895171075
0.6279557344305439 -1.8691138733968935
0.6287465731308111 -2.176702491435263
0.6302377964961415 -2.4823961936734755
0.6328100570569086 -2.784613057494971
0.6367717586384424 -3.0810988771145897
0.6423379260084902 -3.3690187748289704
0.6496723287084359 -3.645061107541366
0.658933207687454 -3.9055463388268064
0.6703009486752496 -4.1464595025210045
0.6839876424182579 -4.363484159296763
0.7002207190150485 -4.552078925820389
0.7192127703977291 -4.707643156292795
0.7412501241080234 -4.8257527396195705
0.7668600621400531 -4.902257635214268
0.7964674960080188 -4.933595466812966
0.8260749298759822 -4.902257635214096
0.8516848679080066 -4.825752739619225
0.8737222216182917 -4.707643156292298
0.8927142730009614 -4.552078925819773
0.9089473495977399 -4.363484159296061
0.922634043340737 -4.1464595025202415
0.9340017843285223 -3.905546338826003
0.9432626633075314 -3.6450611075405486
0.9505970660074675 -3.369018774828163
0.9561632333775062 -3.0810988771138175
0.9601249349590327 -2.7846130574942505
0.9626971955197943 -2.4823961936728183
0.964188418885121 -2.176702491434677
0.9649792575853864 -1.8691138733963848
0.9654162424247208 -1.5605570895166825
0.9656857303982369 -1.2514435675314057
0.965835418716656 -0.941918473055677
0.9658955573169052 -0.6320410515492083
0.9659291113581668 -0.32192519002405895
0.9664875509205516 -0.011117789135455853
0.7039088093939367 -0.011525404365173396
0.7042903010705572 -0.32195701691469053
0.7042932955425775 -0.6320458296301169
0.7042913369402721 -0.9419166447984441
0.7043388460434427 -1.2514543589008167
0.7044600930558819 -1.5605845645336622
0.7046731112552741 -1.8691644182617175
0.7050419045238733 -2.1768074920885776
0.7057271774250016 -2.482625914027402
0.706948970346902 -2.7850492747933804
0.7088754316242603 -3.0817999346700624
0.7116167253150396 -3.3700222508306137
0.7152436721543166 -3.6463966437003386
0.7198354884807134 -3.9072477522586606
0.7254980379174656 -4.148567990374828
0.732383458693571 -4.366051278524392
0.740712145518347 -4.555163776735126
0.7507657493857766 -4.71130786008568
0.7628720485252434 -4.830101586751561
0.7776888555186566 -4.907493211007469
0.7964674960079996 -4.939871502129069
0.8152461364973416 -4.907493211007296
0.8300629434907524 -4.830101586751214
0.8421692426302132 -4.711307860085181
0.8522228464976369 -4.555163776734508
0.8605515333224071 -4.366051278523688
0.8674369540985075 -4.148567990374063
0.8730995035352553 -3.907247752257857
0.8776913198616489 -3.6463966436995197
0.8813182667009217 -3.370022250829805
0.8840595603916971 -3.0817999346692893
0.8859860216690523 -2.7850492747926596
0.8872078145909504 -2.4826259140267437
0.8878930874920771 -2.176807492087992
0.8882618807606755 -1.8691644182612088
0.8884748989600676 -1.560584564533237
0.8885961459725067 -1.2514543589004719
0.8886436550756773 -0.9419166447981815
0.8886416964733718 -0.6320458296299344
0.8886446909453919 -0.3219570169145889
0.8890261826220115 -0.011525404365155999
0.7813124096890176 -0.011828433233367457
0.781568069449659 -0.32198698581170915
0.7815354570846832 -0.6320462071625639
0.7814713041255485 -0.9419066888522704
0.78141906540071 -1.2514506058301975
0.7813919269252918 -1.5605906397628746
0.7813808629494405 -1.8691800708478288
0.7813763071354615 -2.1768371064939123
0.7813743279618282 -2.482683876749577
0.7813738732626807 -2.7851587777347455
0.7813738099189406 -3.0819829076813914
0.7813709217941378 -3.3702957776229243
0.7813582564010154 -3.646772727026305
0.7813359287415513 -3.907741028078687
0.7813318860926183 -4.149201886890514
0.7814397850719539 -4.366865685276455
0.7818659851921239 -4.556223735709592
0.7829752478554809 -4.712703206992792
0.7852511700432026 -4.83193853256041
0.789238050719625 -4.91000607007397
0.7964674960079796 -4.94350104726779
0.8036969412963347 -4.9100060700737975
0.8076838219727563 -4.831938532560063
0.8099597441604768 -4.712703206992292
0.8110690068238336 -4.556223735708972
0.8114952069440043 -4.366865685275751
0.8116031059233411 -4.149201886889747
0.8115990632744098 -3.907741028077883
0.8115767356149483 -3.646772727025486
0.8115640702218277 -3.3702957776221147
0.8115611820970265 -3.081982907680618
0.8115611187532873 -2.7851587777340243
0.8115606640541405 -2.482683876748919
0.8115586848805076 -2.176837106493326
0.8115541290665287 -1.86918007084732
0.8115430650906776 -1.5605906397624494
0.8115159266152594 -1.2514506058298525
0.811463687890421 -0.9419066888520077
0.8113995349312864 -0.6320462071623812
0.8113669225663104 -0.32198698581160756
0.8116225823269512 -0.01182843323334947
0.8586700384819005 -0.012053521401289577
0.8588380378363502 -0.3220169749663505
0.858770707877735 -0.6320409424395028
0.8586449263043349 -0.9418887788703242
0.8584955659235775 -1.2514326272381302
0.8583221919377976 -1.560575003746469
0.8580873764626619 -1.8691618546620445
0.8577090726120797 -2.176806479444111
0.8570204243597963 -2.4826255341186356
0.8557986120512181 -2.7850492220180123
0.8538720301843994 -3.0817994505948794
0.8511232040542529 -3.370018603624463
0.8474704468696332 -3.646387821750274
0.8428364882756368 -3.907238587046048
0.8371725864179373 -4.148583877627298
0.8305111515385364 -4.366158241771819
0.8230258412308634 -4.555490136786929
0.8150894971743936 -4.712052949138238
0.8072478565939224 -4.8314825712112786
0.8002913038695848 -4.909910896624779
0.7964674960079593 -4.944562466584392
0.792643688146333 -4.909910896624606
0.7856871354219955 -4.831482571210931
0.7778454948415296 -4.712052949137738
0.7699091507850672 -4.555490136786311
0.7624238404774022 -4.3661582417711156
0.7557624055980082 -4.148583877626534
0.7500985037403164 -3.907238587045245
0.7454645451463282 -3.646387821749456
0.7418117879617164 -3.3700186036236546
0.739062961831577 -3.081799450594107
0.7371363799647638 -2.7850492220172915
0.7359145676561892 -2.482625534117978
0.7352259194039078 -2.1768064794435253
0.734847615553327 -1.869161854661536
0.7346128000781916 -1.5605750037460437
0.734439426092412 -1.251432627237785
0.7342900657116549 -0.9418887788700616
0.7341642841382547 -0.6320409424393202
0.7340969541796395 -0.32201697496624904
0.7342649535340889 -0.012053521401271262
0.9359916736939218 -0.012223450699869982
0.936101150641397 -0.32204594635317035
0.9360029476724048 -0.6320302111487066
0.9358179279543761 -0.9418630284859488
0.9355748456897351 -1.2514010200238646
0.9352588483500849 -1.5605380337643837
0.9347997313191411 -1.8691083019555632
0.934000694079674 -2.1767001761937155
0.9325085427348784 -2.482395622387326
0.929937509622004 -2.7846130802863684
0.9259748026447998 -3.0810974292348194
0.9204005137896323 -3.369011119083503
0.9130440854742942 -3.645043711404342
0.9037507549780963 -3.9055294689096627
0.8923945842652438 -4.146494721785563
0.8789382752167159 -4.363703393853141
0.8635172779714289 -4.552730907198254
0.8464954480235748 -4.709105576559824
0.8285333645662409 -4.828525130532645
0.8109520886064392 -4.907330776370012
0.7964674960079398 -4.943237269063495
0.7819829034094401 -4.907330776369838
0.7644016274496414 -4.8285251305323005
0.746439543992316 -4.709105576559325
0.7294177140444755 -4.552730907197639
0.7139967167992023 -4.3637033938524405
0.7005404077506878 -4.1464947217848005
0.6891842370378488 -3.9055294689088624
0.6798909065416646 -3.6450437114035266
0.67253447822634 -3.3690111190826975
0.6669601893711845 -3.0810974292340485
0.6629974823939906 -2.7846130802856495
0.660426449281123 -2.482395622386669
0.6589342979363317 -2.17670017619313
0.6581352606968671 -1.8691083019550547
0.6576761436659243 -1.5605380337639585
0.6573601463262744 -1.2514010200235197
0.6571170640616337 -0.9418630284856861
0.6569320443436052 -0.6320302111485239
0.656833841374613 -0.3220459463530689
0.6569433183220881 -0.012223450699851472
1.0132945575713321 -0.01235017586144635
1.0133618488313092 -0.32207219365912243
1.013236773578417 -0.6320146790173876
1.0129959643641557 -0.9418297501365972
1.0126629511085303 -1.2513566141375216
1.0122087419436367 -1.5604802326065248
1.0115046004390693 -1.8690104038906599
1.010210076570139 -2.176481170454202
1.0078108771092926 -2.4819306424918333
1.003778970842739 -2.7837821303719634
0.9976801514515561 -3.0798159555971365
0.9891969631379787 -3.367219154177421
0.9780702588748352 -3.642689840990698
0.9640600452208437 -3.9025653493064176
0.9469519425179225 -4.142884952654057
0.9266243100774112 -4.359445705556948
0.9031489356991983 -4.547878898610382
0.8769117025883936 -4.70379082653461
0.8488291613970327 -4.823019195830233
0.82074255596054 -4.902168105691866
0.7964674960079207 -4.9396086105155605
0.7721924360553025 -4.902168105691693
0.7441058306188152 -4.82301919582989
0.7160232894274662 -4.703790826534115
0.6897860563166793 -4.547878898609771
0.6663106819384863 -4.359445705556252
0.6459830494979949 -4.142884952653299
0.6288749467950926 -3.902565349305621
0.6148647331411207 -3.642689840989887
0.6037380288779962 -3.3672191541766194
0.5952548405644359 -3.0798159555963696
0.5891560211732676 -2.7837821303712476
0.5851241149067242 -2.481930642491178
0.5827249154458847 -2.1764811704536178
0.5814303915769581 -1.8690104038901518
0.5807262500723923 -1.5604802326060996
0.5802720409074994 -1.2513566141371768
0.5799390276518743 -0.9418297501363346
0.5796982184376135 -0.6320146790172049
0.5795731431847211 -0.32207219365902096
0.579640434444698 -0.012350175861427651
1.0905936498371382 -0.01244066240022494
1.0906261780341713 -0.3220942280318546
1.0904766493585107 -0.6319948298205215
1.090183803087975 -0.9417894998445795
1.0897653157737712 -1.2513004743461593
1.089172352664766 -1.5603997516069996
1.0881864447586533 -1.8688516735785203
1.0863235046394117 -2.1761150380530396
1.082929899027476 -2.4811907185964053
1.0773507038404109 -2.782521088939866
1.0690463990330774 -3.0779257635681465
1.0575993887452488 -3.3646176235355276
1.042655835963767 -3.639303674562062
1.0238865105633157 -3.898324394257835
1.0009849766735657 -4.13773066149829
0.9737310766174032 -4.3533540082486235
0.9421269525927611 -4.5408956308505095
0.9066261575324177 -4.696085010104697
0.8684571258511135 -4.814967345377333
0.8301676383497392 -4.894521356961915
0.796467496007902 -4.933790959745256
0.7627673536660675 -4.894521356961743
0.7244778661647014 -4.814967345376991
0.6863088344834125 -4.6960850101042055
0.6508080394230911 -4.540895630849904
0.6192039153984736 -4.353354008247933
0.5919500153423372 -4.137730661497537
0.5690484814526117 -3.8983243942570445
0.5502791560521858 -3.6393036745612566
0.535335603270728 -3.364617623534731
0.5238885929829216 -3.0779257635673836
0.5155842881756066 -2.7825210889391534
0.5100050929885555 -2.481190718595753
0.5066114873766294 -2.176115038052456
0.5047485472573932 -1.8688516735780127
0.503762639351283 -1.5603997516065746
0.5031696762422786 -1.2513004743458145
0.5027511889280756 -0.9417894998443169
0.5024583426575397 -0.6319948298203387
0.5023088139818792 -0.32209422803175314
0.502341342178912 -0.012440662400206087
1.167897975377048 -0.012501109955586485
1.1679007036751767 -0.32211074490652325
1.1677277756018465 -0.6319709194528161
1.167386628555337 -0.9417430288911877
1.1668875519624782 -1.251233617703521
1.1661458251071832 -1.5602915814263258
1.1648332974736526 -1.8686126067504427
1.1623362073201249 -2.1755733878962458
1.1578758341246496 -2.4801487062984173
1.1506914952329623 -2.7808088151417127
1.1401442053961863 -3.075410777450787
1.1257016001733846 -3.361191940745497
1.1069099302196443 -3.634871499041869
1.0833544417815308 -3.8927940883992624
1.0546407843815353 -4.131019497874264
1.0204476661427788 -4.3454140615617005
0.9807195788887377 -4.53176947817519
0.9359926516711633 -4.685987726911472
0.8878589201894529 -4.804404529046071
0.8395365061958654 -4.884447989055273
0.7964674960078836 -4.925804733346997
0.753398485819905 -4.8844479890551025
0.7050760718263291 -4.804404529045732
0.6569423403446379 -4.6859877269109855
0.6122154131270893 -4.531769478174589
0.572487325873078 -4.345414061561017
0.538294207634353 -4.131019497873518
0.5095805502343875 -3.892794088398478
0.4860250617963053 -3.6348714990410707
0.4672333918425946 -3.361191940744707
0.45279078661981925 -3.07541077745003
0.4422434967830661 -2.7808088151410044
0.4350591578913958 -2.4801487062977676
0.430598784695933 -2.1755733878956645
0.4281016945424125 -1.868612606749936
0.4267891669088857 -1.5602915814259017
0.42604744005359196 -1.2512336177031764
0.4255483634607335 -0.941743028890925
0.42520721641422426 -0.6319709194526334
0.42503428834089396 -0.32211074490642183
0.42503701663902277 -0.012501109955567514
1.24521358454882 -0.012537413743112708
1.245191206763205 -0.32212090696232454
1.2449957957781985 -0.631943007376394
1.2446093276640318 -0.9416911795252146
1.24403142125848 -1.251155723350216
1.2431217439501203 -1.5601472460341155
1.2414373290363685 -1.8682739527229442
1.2382465685236785 -2.174833283433726
1.2326676681481996 -2.4787872218569165
1.2238534168435498 -2.778634201211505
1.2110437323888381 -3.0722620188018754
1.1935909644672356 -3.356933844681613
1.1709379819879029 -3.6293850439370723
1.1425828271018772 -3.8859674162324946
1.108056255121986 -4.122748575092301
1.0669666607734734 -4.335630459504002
1.0192010316503217 -4.520512512468065
0.9653702213956477 -4.673521274041317
0.9073927154864019 -4.7913582930663825
0.8490563307312582 -4.871951749786328
0.7964674960078654 -4.915614364256701
0.7438786612844772 -4.8719517497861595
0.6855422765293475 -4.791358293066048
0.6275647706201246 -4.673521274040836
0.5737339603654807 -4.520512512467473
0.5259683312423636 -4.335630459503327
0.48487873689388805 -4.122748575091564
0.4503521649140328 -3.8859674162317184
0.42199701002804335 -3.6293850439362823
0.3993440275487458 -3.3569338446808303
0.38189125962717413 -3.072262018801125
0.36908157517248924 -2.778634201210802
0.3602673238678599 -2.4787872218562708
0.35468842349239593 -2.1748332834331476
0.3514976629797152 -1.868273952722439
0.34981324806596814 -1.5601472460336918
0.3489035707576102 -1.2511557233498716
0.34832566435205875 -0.941691179524952
0.34793919623789243 -0.6319430073762111
0.347743785252886 -0.3221209069622231
0.34772140746727126 -0.0125374137430937
1.3225443762613467 -0.012555388769158779
1.3225024908015097 -0.322124422306742
1.3222864768397349 -0.6319111158520118
1.3218568516569211 -0.9416346294521485
1.3211981353237146 -1.2510653338375883
1.3200935508367229 -1.559956162179176
1.3179901146715436 -1.867816552284233
1.3140549547591278 -2.173878233485061
1.3073402998613075 -2.47709819654007
1.2968862423013854 -2.775991903214724
1.2818132161399085 -3.068475686911226
1.2613545028281543 -3.3518402724217298
1.234843097187658 -3.622840674376751
1.2016892990814303 -3.877841480641758
1.1613696837851888 -4.1129233780657
1.1134613866642467 -4.324024825249417
1.0578305251827798 -4.507161472012426
0.9951030367108091 -4.658722507713852
0.9273883864142713 -4.775837268945801
0.8589163592242717 -4.856990485607339
0.7964674960078473 -4.903138943378974
0.7340186327914286 -4.856990485607174
0.6655466056014455 -4.775837268945471
0.5978319553049339 -4.658722507713379
0.5351044668329983 -4.507161472011842
0.47947360535157124 -4.324024825248751
0.4315653082306711 -4.112923378064972
0.39124569293447164 -3.877841480640992
0.358091894828285 -3.6228406743759702
0.33158048918782906 -3.351840272420956
0.3111217758761105 -3.0684756869104826
0.2960487497146639 -2.7759919032140274
0.28559469215476585 -2.4770981965394285
0.2788800372569628 -2.1738782334844853
0.27494487734455836 -1.8678165522837293
0.2728414411793851 -1.5599561621787528
0.2717368566923958 -1.251065333837244
0.2710781403591895 -0.9416346294518858
0.2706485151763761 -0.631911115851829
0.2704325012146015 -0.32212442230664057
0.2703906157547647 -0.012555388769139737
1.399892113021471 -0.012560897884167678
1.39983827957996 -0.32212162224296637
1.399606041017188 -0.6318754062398568
1.3991347122823772 -0.9415738904951101
1.3983862760418087 -1.2509586758771225
1.3970539532644453 -1.559705228449817
1.3944839547634689 -1.8672244104347473
1.389784331149026 -2.1727008142549193
1.3819259295398825 -2.4750782467989874
1.3698393838903444 -2.772881213245402
1.3525201302768322 -3.0640530590496553
1.329076756950076 -3.3459129430713426
1.2987299007345547 -3.615239669537306
1.2607988457298418 -3.8684178764209136
1.2147139349115512 -4.10155305223408
1.160080887068362 -4.310630644835551
1.0968180304680089 -4.491778965977728
1.0255148669381962 -4.641645634909207
0.9481940542433589 -4.757835604960327
0.8693570784196984 -4.839477224608344
0.7964674960078291 -4.888242736917465
0.7235779135959657 -4.839477224608182
0.6447409377723248 -4.757835604960003
0.5674201250775182 -4.641645634908742
0.4961169615477449 -4.491778965977154
0.4328541049474368 -4.310630644834895
0.37822105710429543 -4.101553052233363
0.33213614628605204 -3.8684178764201587
0.2942050912813857 -3.615239669536536
0.26385823506590955 -3.3459129430705787
0.24041486173919363 -3.064053059048921
0.22309560812571555 -2.7728812132447125
0.21100906247620424 -2.475078246798352
0.20315066086708036 -2.1727008142543474
0.1984510372526508 -1.867224410434246
0.1958810387516819 -1.5597052284493949
0.1945487159743215 -1.2509586758767783
0.1938002797337539 -0.9415738904948474
0.19332895099894334 -0.6318754062396741
0.19309671243617166 -0.3221216222428649
0.19304287899466074 -0.012560897884148641
1.477255808756758 -0.012559875957739304
1.4772011320405734 -0.3221136628905322
1.4769618187485107 -0.6318365021507901
1.476448282191916 -0.9415083601559097
1.4755916564248435 -1.2508297995764024
1.473994026260765 -1.5593793611850624
1.4709262743994629 -1.8664877390379235
1.465451168941664 -2.171297700567691
1.4564571226457812 -2.472727965214559
1.4427626706638288 -2.7693062816531997
1.4232322268435569 -3.0589999251191813
1.3968442707905147 -3.3391584279360997
1.3627019770479378 -3.6065883944871358
1.3200351258448897 -3.857703370207435
1.2682407406992227 -4.088650252953064
1.2069687980272488 -4.29548114356501
1.1362716467418124 -4.474439335808092
1.0568149115758227 -4.622389590546196
0.9703193955377273 -4.737360882434043
0.8807622027203706 -4.819263094399142
0.7964674960078106 -4.870705759501297
0.7121727892952572 -4.819263094398984
0.6226155964779228 -4.737360882433725
0.5361200804398621 -4.622389590545741
0.4566633452739173 -4.47443933580753
0.38596619398853216 -4.295481143564365
0.324694251316611 -4.088650252952359
0.27289986617099665 -3.857703370206692
0.23023301496800078 -3.6065883944863777
0.19609072122547377 -3.339158427935347
0.16970276517247612 -3.0589999251184565
0.15017232135224215 -2.7693062816525176
0.13647786937031905 -2.472727965213929
0.12748382307445838 -2.1712977005671235
0.122008717616675 -1.8664877390374248
0.11894096575538123 -1.559379361184641
0.11734333559130646 -1.2508297995760584
0.11648670982423517 -0.9415083601556471
0.11597317326764066 -0.6318365021506075
0.11573385997557847 -0.32211366289043075
0.11567918325939396 -0.012559875957720278
1.5546303891679034 -0.012558141073291595
1.5545922883904766 -0.32210310214269183
1.5543636526234155 -0.6317957360673273
1.5538017779832398 -0.9414351698725004
1.5528079032996278 -1.250668811305246
1.5509108924944643 -1.5589677677186629
1.5473268847573458 -1.8656010146016428
1.5410737843619562 -2.1696685213234033
1.530966320568543 -2.470052522735338
1.5157061509081062 -2.765275947765469
1.494019170919497 -3.053326971560391
1.464742859709766 -3.3315873873025743
1.4268625974342335 -3.596898236278855
1.379531295186488 -3.8457123586134085
1.322109278160571 -4.074232376679993
1.2542852029943354 -4.278600731307821
1.1762600485659578 -4.455198116068266
1.0889452542466165 -4.601082082177325
0.9940929371164738 -4.714573843559924
0.8945042070643604 -4.796159791472394
0.7964674960077919 -4.849999999999991
0.6984307849512295 -4.796159791472238
0.5988420548991409 -4.714573843559614
0.5039897377690389 -4.60108208217688
0.4166749434497483 -4.455198116067717
0.3386497890214275 -4.278600731307191
0.2708257138552503 -4.074232376679301
0.21340369682939123 -3.8457123586126793
0.1660723945817037 -3.596898236278111
0.12819213230622534 -3.331587387301834
0.09891582109654382 -3.0533269715596765
0.0772288411079758 -2.765275947764796
0.06196867144757091 -2.4700525227347154
0.0518612076541822 -2.1696685213228406
0.045608107258809795 -1.865601014601147
0.0420240995217008 -1.558967767718243
0.04012708871654203 -1.2506688113049027
0.03913321403293132 -0.941435169872238
0.038571339392756275 -0.6317957360671448
0.03834270362569547 -0.32210310214259036
0.03830460284826887 -0.012558141073272602
SCALARS Stress float 6
LOOKUP_TABLE default
-1337.739434549866 -2146.200732688485 -1666.6119495112775 -32.127290352590265 0.0 0.0
1414.0383827158137 837.0218080704126 1071.8085106268875 -18.81677907369263 0.0 0.0
655.1079596133657 191.13388844199332 281.1319913832057 -43.13027537190503 0.0 0.0
516.0752706557722 40.01585242292337 176.34038288132973 -0.1778594738697905 0.0 0.0
651.7509062906647 96.96934167230195 283.50074935877785 3.6890811897239604 0.0 0.0
788.0447860923765 158.7521709239623 426.8517029433096 1.6000932345482854 0.0 0.0
931.7874713760705 226.2280783684472 558.6532608907221 0.07237201494235057 0.0 0.0
1081.9041629157366 312.2777193911586 684.2771860814656 -1.4852211827419788 0.0 0.0
1243.9703044105918 415.80106284958487 818.5017217312502 -3.3948110350142975 0.0 0.0
1426.239812071303 544.40896638657 973.9683353122967 -5.480986505651938 0.0 0.0
1634.4939068501303 703.582155891832 1157.2963925435324 -7.3735276932032185 0.0 0.0
1868.0920092263166 892.9120194454268 1368.306006429806 -8.747866748112479 0.0 0.0
2120.6704773281062 1104.8428065813973 1600.1090740428153 -9.59013901972055 0.0 0.0
2383.9469893885725 1330.883688772168 1844.3501515173277 -10.222285071326125 0.0 0.0
2647.4545934777548 1560.3834925723854 2090.465950738326 -10.594173270183331 0.0 0.0
2898.868117268931 1781.0311877422723 2326.161181297116 -10.584290985552052 0.0 0.0
3125.1711933882584 1980.12297021677 2538.6081613302936 -10.030336564742978 0.0 0.0
3313.972204015986 2145.6831994603476 2715.624745294929 -8.95375355409404 0.0 0.0
3465.9284763251994 2278.818487267484 2857.938847344557 -8.000355013028813 0.0 0.0
3565.308782680816 2364.58425694334 2950.1889636482942 -11.312915543670961 0.0 0.0
3557.8970461552667 2356.855006185204 2942.737076583456 -8.139089402448008e-11 0.0 0.0
3565.3087826800797 2364.5842569426877 2950.188963647643 11.312915543954915 0.0 0.0
3465.928476322699 2278.8184872649617 2857.9388473425315 8.000355013017774 0.0 0.0
3313.9722040146585 2145.683199459101 2715.6247452938555 8.953753553750003 0.0 0.0
3125.171193389342 1980.1229702180315 2538.6081613308065 10.030336564679876 0.0 0.0
2898.8681172674906 1781.0311877409656 2326.161181295989 10.584290985639246 0.0 0.0
2647.4545934756707 1560.3834925704577 2090.4659507367105 10.594173270118162 0.0 0.0
2383.946989387956 1330.8836887717637 1844.3501515165515 10.222285071447729 0.0 0.0
2120.670477328217 1104.8428065817332 1600.109074042423 9.59013901968746 0.0 0.0
1868.09200922441 892.9120194437464 1368.3060064281733 8.747866748028377 0.0 0.0
1634.4939068493209 703.5821558913059 1157.2963925426038 7.373527693064217 0.0 0.0
1426.2398120704818 544.4089663860431 973.9683353115771 5.480986505945639 0.0 0.0
1243.9703044094074 415.8010628486784 818.5017217302916 3.394811035086777 0.0 0.0
1081.9041629143169 312.27771939000496 684.2771860803934 1.485221182829168 0.0 0.0
931.7874713749227 226.22807836759154 558.6532608897908 -0.0723720147139435 0.0 0.0
788.0447860911275 158.75217092291672 426.85170294229187 -1.6000932346198926 0.0 0.0
651.7509062899296 96.96934167182509 283.50074935817975 -3.6890811897727183 0.0 0.0
516.0752706551385 40.015852422389145 176.34038288095246 0.17785947390310142 0.0 0.0
655.1079596129933 191.13388844196982 281.1319913830023 43.130275372064446 0.0 0.0
1414.0383827154744 837.0218080701582 1071.8085106264662 18.816779073629263 0.0 0.0
-1337.7394345471514 -2146.200732685791 -1666.6119495085327 32.127290352157885 0.0 0.0
-1703.287910448049 -2483.5814482388228 -1988.4266045601325 -35.3865009621849 0.0 0.0
964.9072560406564 460.91222431350053 675.4257968483461 -26.29426273726652 0.0 0.0
460.020800984199 74.36528878956507 160.11079980244816 -38.17800676428232 0.0 0.0
453.5764968005883 10.587083427108466 143.55660946094227 -15.482289316523765 0.0 0.0
574.6030929461951 44.18904000032846 225.49205822310637 -17.628808202663716 0.0 0.0
683.0442803869161 64.18260864218465 332.5282612657585 -23.892581257756436 0.0 0.0
777.1007582295849 86.88083375815143 421.42890466408915 -24.932797550312834 0.0 0.0
866.4100056101081 110.50127112148128 486.19853669515373 -25.211612531980542 0.0 0.0
946.6527408872173 131.71006507978737 538.2448212692293 -26.079749954058393 0.0 0.0
1019.3461001510616 151.10149038144056 584.5724636045271 -27.114371676473 0.0 0.0
1088.0775991034193 171.46296911545716 629.1748569951541 -27.700039179291686 0.0 0.0
1155.5004615409207 194.64117403278584 674.4873064112248 -27.74779599240973 0.0 0.0
1221.2481233243063 220.72658299465803 720.4201141937949 -27.383525971753016 0.0 0.0
1282.7395121356742 245.46768031419924 763.5525142420461 -26.811769802956633 0.0 0.0
1334.8394062329596 264.0429858407096 798.9134974897086 -26.00066786145521 0.0 0.0
1373.4589762569785 272.30759673256193 822.3819411331483 -24.69071280488964 0.0 0.0
1396.3219210946215 268.17937023864687 831.7677351119123 -22.662447236120396 0.0 0.0
1403.9889280684042 252.62991139840193 827.8332924025278 -20.09698332480324 0.0 0.0
1388.0431575411553 217.94952923246532 802.6475761492011 -18.059237157191557 0.0 0.0
1294.9407558360222 111.85393230155455 703.7740708108229 -19.781092052845104 0.0 0.0
1144.974196271585 -37.461005810061806 555.1884155504354 -5.538502989566041e-11 0.0 0.0
1294.940755836428 111.85393230200506 703.7740708110257 19.781092052830928 0.0 0.0
1388.043157540271 217.9495292316376 802.6475761487163 18.059237157247004 0.0 0.0
1403.9889280682482 252.6299113983665 827.833292402443 20.096983324939234 0.0 0.0
1396.3219210943798 268.1793702384921 831.7677351118474 22.662447236166493 0.0 0.0
1373.4589762562043 272.3075967319219 822.3819411327073 24.69071280486108 0.0 0.0
1334.839406231951 264.04298583985553 798.9134974890667 26.000667861384606 0.0 0.0
1282.739512136138 245.4676803148974 763.5525142423714 26.81176980317494 0.0 0.0
1221.248123325881 220.72658299643422 720.4201141947995 27.38352597173573 0.0 0.0
1155.5004615403811 194.64117403249523 674.48730641092 27.747795992361585 0.0 0.0
1088.0775991034277 171.46296911569883 629.1748569951582 27.700039179213206 0.0 0.0
1019.3461001505898 151.1014903812857 584.5724636042578 27.114371676683227 0.0 0.0
946.6527408860371 131.7100650788138 538.2448212684382 26.079749953932783 0.0 0.0
866.4100056100449 110.50127112175389 486.1985366950825 25.211612531951065 0.0 0.0
777.1007582285539 86.88083375741321 421.4289046633588 24.932797550329152 0.0 0.0
683.0442803861051 64.18260864161579 332.52826126506193 23.89258125765742 0.0 0.0
574.6030929457685 44.18904000023564 225.4920582227611 17.62880820264941 0.0 0.0
453.5764968003236 10.587083426965911 143.55660946082662 15.482289316563119 0.0 0.0
460.02080098410556 74.36528878946761 160.11079980239694 38.178006764213436 0.0 0.0
964.9072560401082 460.9122243130452 675.425796847711 26.294262737182592 0.0 0.0
-1703.2879104460078 -2483.58144823673 -1988.4266045580196 35.386500961765385 0.0 0.0
-1440.6936560360332 -2185.773024264576 -1698.5293800057816 -73.97185700374543 0.0 0.0
789.8433638671765 368.30824759278113 533.6287671181858 -94.11351579959604 0.0 0.0
317.68409428109123 85.32940796968677 120.97191945428281 -43.05074141927145 0.0 0.0
389.8547160450358 3.6537420745721585 118.64544630978493 -37.46486664579348 0.0 0.0
529.1848287973351 33.70581394016215 192.67452572100194 -40.23134034183987 0.0 0.0
648.7984668003297 57.838153858568255 300.3477717403674 -44.42697558690762 0.0 0.0
746.0959561269561 80.51354837842662 397.62166475643113 -45.93719323998401 0.0 0.0
834.3068300897326 99.9068777369454 463.67772658067855 -46.79716073574792 0.0 0.0
910.8414846465553 116.99837064059477 512.6528156878134 -48.46269764038766 0.0 0.0
979.4455947914332 132.3980220136565 554.9820171248787 -49.850721190382885 0.0 0.0
1045.0720420909627 150.21077951124747 596.7468748896705 -50.23027752247634 0.0 0.0
1109.8157554127758 171.85344857924952 639.9654337445497 -49.747314691181444 0.0 0.0
1173.1316016373164 195.43150904778054 683.4493392064268 -48.848059840425954 0.0 0.0
1231.7329324810355 218.40014737794564 724.2614652155489 -47.6464684163244 0.0 0.0
1282.7517618005545 236.41941553146984 758.7951205641988 -46.0580383362797 0.0 0.0
1322.2177446393919 245.89860649280158 783.2810689223362 -43.75546671184672 0.0 0.0
1347.404263133832 244.22186219302324 795.0662338729147 -40.467343335314474 0.0 0.0
1353.158774564198 226.7258827259691 789.2988089679203 -36.610719792787464 0.0 0.0
1323.6891529167524 178.61212811825948 750.8002381053016 -33.4251344080331 0.0 0.0
1272.4586107251478 114.74230921970599 693.6093667152151 -32.13965937714994 0.0 0.0
1102.8001396213876 -53.43439229723424 525.8520831145906 6.374101246819919e-11 0.0 0.0
1272.4586107251564 114.74230921973111 693.6093667152227 32.139659377216645 0.0 0.0
1323.6891529180596 178.6121281196439 750.8002381063578 33.42513440814905 0.0 0.0
1353.1587745657064 226.72588272757758 789.2988089689861 36.61071979284326 0.0 0.0
1347.4042631349396 244.22186219432163 795.0662338736023 40.467343335263266 0.0 0.0
1322.2177446381029 245.89860649162858 783.2810689215355 43.75546671199462 0.0 0.0
1282.7517618011143 236.41941553224012 758.7951205644803 46.05803833638434 0.0 0.0
1231.7329324809616 218.40014737811498 724.2614652155061 47.64646841656815 0.0 0.0
1173.1316016380645 195.43150904868025 683.4493392069743 48.84805984040317 0.0 0.0
1109.8157554126035 171.85344857930968 639.9654337445269 49.74731469101294 0.0 0.0
1045.0720420909336 150.2107795114359 596.7468748897255 50.230277522431564 0.0 0.0
979.4455947915952 132.39802201412977 554.9820171249497 49.85072119041632 0.0 0.0
910.8414846461962 116.99837064049566 512.6528156875132 48.46269764025312 0.0 0.0
834.3068300896032 99.90687773713682 463.6777265805914 46.79716073586239 0.0 0.0
746.095956126245 80.51354837797817 397.62166475587253 45.937193239867064 0.0 0.0
648.7984668000161 57.83815385858511 300.34777173996343 44.426975586797724 0.0 0.0
529.1848287970997 33.705813940325854 192.67452572082192 40.23134034186551 0.0 0.0
389.854716044833 3.6537420745396503 118.64544630971972 37.464866645844275 0.0 0.0
317.68409428106224 85.32940796958664 120.9719194542402 43.05074141902989 0.0 0.0
789.8433638664726 368.30824759241506 533.628767117508 94.11351579949093 0.0 0.0
-1440.6936560339477 -2185.7730242623993 -1698.5293800035795 73.97185700349269 0.0 0.0
-1186.3334757953244 -1900.6935882922667 -1423.4855711602409 -87.82431021809887 0.0 0.0
607.7604510190565 273.2880030056941 398.75926467207 -146.01562509203532 0.0 0.0
228.55094877849086 70.35451011143485 89.67163766697769 -64.23255263475373 0.0 0.0
324.2401551666426 9.210576685095415 99.71849251652672 -61.0027209201373 0.0 0.0
472.9835803810851 20.72498172909054 159.06146414112692 -65.42448674092437 0.0 0.0
602.6222714532134 49.918017302760546 262.05560520141796 -66.11365320774286 0.0 0.0
711.2178961871508 72.34671877479649 368.0260390654572 -68.23017364549462 0.0 0.0
797.3486978871604 89.50878405795336 437.85701748241496 -68.51118075090305 0.0 0.0
870.883227860875 102.59439505082662 484.9080462220984 -70.38061176891907 0.0 0.0
935.7623080805533 114.33893233084436 523.7254918172625 -71.74389569154258 0.0 0.0
997.8788445687742 129.21392848563968 562.2650721898427 -71.79196349481842 0.0 0.0
1059.9645604130696 148.45232932221288 602.96235105342 -70.89904579323706 0.0 0.0
1120.4256642165656 170.41172895988691 644.2410460304436 -69.46465472834991 0.0 0.0
1176.6037600990308 190.74836291407615 682.5316360399779 -67.7111618484419 0.0 0.0
1226.199305928952 208.01497841285706 715.9652964175663 -65.41323830996231 0.0 0.0
1266.9937926011119 219.32355151728615 742.0288160836074 -62.29438024320726 0.0 0.0
1293.8446523107789 219.21463771610595 755.4621038840745 -58.228603611450026 0.0 0.0
1298.3670923524837 200.3124913499273 748.4494095067319 -53.53122118951692 0.0 0.0
1277.463344085548 160.518267049068 718.3478178527747 -48.538031983452605 0.0 0.0
1247.6494520458687 117.40843581531622 682.0916571520339 -42.74040196145443 0.0 0.0
1011.3757421779259 -116.75452593639949 448.6594931229318 5.700684369003284e-11 0.0 0.0
1247.6494520454955 117.40843581496858 682.091657151817 42.74040196158457 0.0 0.0
1277.463344087044 160.51826705062146 718.3478178537755 48.538031983433484 0.0 0.0
1298.36709235251 200.3124913499774 748.4494095069549 53.53122118946881 0.0 0.0
1293.8446523139512 219.21463771937286 755.4621038863394 58.22860361129449 0.0 0.0
1266.9937925999923 219.32355151639672 742.0288160827877 62.29438024339605 0.0 0.0
1226.1993059307729 208.01497841480466 715.9652964188786 65.41323831005718 0.0 0.0
1176.6037600982254 190.74836291347214 682.5316360394188 67.71116184843171 0.0 0.0
1120.425664216306 170.41172895979753 644.2410460303363 69.4646547283453 0.0 0.0
1059.9645604133623 148.4523293227456 602.9623510536136 70.8990457931367 0.0 0.0
997.8788445687752 129.21392848593416 562.2650721898433 71.79196349501629 0.0 0.0
935.7623080804434 114.33893233094437 523.7254918171639 71.74389569145742 0.0 0.0
870.8832278609268 102.59439505113454 484.90804622212477 70.3806117688504 0.0 0.0
797.3486978865741 89.5087840577249 437.857017482019 68.51118075098469 0.0 0.0
711.2178961863585 72.34671877424142 368.02603906479163 68.23017364536305 0.0 0.0
602.622271452906 49.918017302827295 262.0556052010623 66.11365320767725 0.0 0.0
472.9835803805042 20.724981728684117 159.0614641407712 65.42448674082242 0.0 0.0
324.24015516675246 9.210576685385893 99.71849251664689 61.002720920171 0.0 0.0
228.55094877851982 70.35451011143381 89.67163766698609 64.2325526345385 0.0 0.0
607.7604510184594 273.2880030054398 398.75926467150515 146.01562509192536 0.0 0.0
-1186.3334757933499 -1900.693588290177 -1423.4855711581822 87.82431021795438 0.0 0.0
-963.1216011586846 -1652.1218253908635 -1180.6275664485079 -86.15808469840186 0.0 0.0
472.1899721287532 187.18871017006643 291.4657470929912 -179.69870828619148 0.0 0.0
166.50809116613559 53.93632610257392 66.13332518061286 -95.29683429274182 0.0 0.0
263.13779727994347 15.598706892029565 83.57839692064925 -86.72797450471712 0.0 0.0
406.57137627813495 11.834768110126898 128.62479417704373 -92.41133044382616 0.0 0.0
546.4650107591204 36.804170848737854 218.3491366787652 -91.25487845666945 0.0 0.0
665.3783790447083 62.89703403715205 329.6134620466752 -90.81909780387107 0.0 0.0
754.585987212811 79.62562694878626 407.9344280369249 -90.59385544407479 0.0 0.0
826.2014206657851 88.82770726085494 454.65553714404206 -91.74527493161341 0.0 0.0
887.3870114806555 96.64765313794786 490.13006679648294 -92.76211311740188 0.0 0.0
946.242114285049 108.32290848803423 525.4688734229214 -92.40333681148637 0.0 0.0
1005.1612086967748 124.95749215808515 563.2992692086156 -91.10182148338019 0.0 0.0
1062.9043931973906 144.31817531916073 601.9431263978179 -89.29716256418182 0.0 0.0
1116.5853811391455 163.49963874740192 638.4355740356616 -86.96411811032677 0.0 0.0
1164.767207321668 179.39029339154268 670.4786104869105 -83.9979883772945 0.0 0.0
1205.6068017554446 190.61355888733453 696.5062286372723 -80.33909188571462 0.0 0.0
1234.7749637051427 193.14938042408906 712.4371345531496 -75.88250351450483 0.0 0.0
1245.305498100858 179.9894440903276 711.3128422286587 -70.50559422496413 0.0 0.0
1234.4464517317717 149.4189215189963 690.8293012162874 -63.43485297167582 0.0 0.0
1214.8294005694406 114.98836160670477 663.9644930229437 -53.571006068955896 0.0 0.0
897.3160251976792 -199.56842877892288 350.58108327382683 2.5282886895183765e-11 0.0 0.0
1214.8294005698688 114.98836160721697 663.9644930234399 53.5710060691164 0.0 0.0
1234.4464517322415 149.4189215194828 690.8293012166821 63.43485297168696 0.0 0.0
1245.305498099178 179.98944408874115 711.3128422274391 70.50559422497376 0.0 0.0
1234.7749637059808 193.14938042512378 712.4371345537025 75.8825035146557 0.0 0.0
1205.6068017557018 190.61355888771877 696.5062286373573 80.33909188581788 0.0 0.0
1164.7672073218096 179.3902933918132 670.4786104869921 83.99798837717915 0.0 0.0
1116.585381138946 163.4996387474744 638.4355740354899 86.96411811049991 0.0 0.0
1062.9043931980984 144.31817532020222 601.9431263983241 89.29716256447757 0.0 0.0
1005.1612086974637 124.95749215901924 563.299269209043 91.10182148340932 0.0 0.0
946.2421142849015 108.3229084881445 525.4688734227689 92.40333681159191 0.0 0.0
887.3870114794894 96.64765313689294 490.1300667957427 92.76211311711235 0.0 0.0
826.2014206659737 88.82770726150471 454.65553714419747 91.74527493184937 0.0 0.0
754.5859872126216 79.6256269487994 407.93442803669643 90.59385544390841 0.0 0.0
665.3783790441016 62.89703403675864 329.61346204608014 90.81909780360614 0.0 0.0
546.465010758614 36.804170848614746 218.34913667834505 91.25487845661468 0.0 0.0
406.5713762778079 11.834768110191934 128.62479417693459 92.41133044377662 0.0 0.0
263.13779728021535 15.59870689266682 83.57839692092001 86.7279745046055 0.0 0.0
166.50809116605447 53.93632610236292 66.13332518052519 95.29683429267979 0.0 0.0
472.1899721282196 187.18871016984428 291.46574709250376 179.69870828606486 0.0 0.0
-963.1216011570242 -1652.1218253890731 -1180.6275664466978 86.15808469827418 0.0 0.0
-766.1353034584773 -1432.626826810041 -963.9992240038817 -80.91016742844718 0.0 0.0
365.6596733315642 119.81304947318755 208.06575083715936 -199.8804758606923 0.0 0.0
120.33796660560134 36.6266060974687 47.089283177833686 -125.4007302887058 0.0 0.0
209.70023470022315 19.84906954333755 68.8696837830862 -112.75846508592491 0.0 0.0
334.2660774502515 7.1552412548154 102.10742182574337 -119.94163090710076 0.0 0.0
475.24923470726077 23.296131798038207 173.4884460389883 -117.96105955508189 0.0 0.0
604.0981728296798 52.66578955519197 282.01881271658004 -114.55202586338105 0.0 0.0
704.345669789925 67.60255454583064 370.1609575765345 -113.54471005817028 0.0 0.0
774.0667851868559 75.33447449348438 419.9905943520324 -112.57185975953867 0.0 0.0
833.4798007077827 79.12448639539886 453.5183593351368 -112.89218555424704 0.0 0.0
888.9581119353561 87.49470439739088 485.6465903435281 -112.02316847166549 0.0 0.0
944.6913517056306 101.45987489156887 520.5712784852444 -110.2889355604164 0.0 0.0
999.4319838593866 118.60957919351085 556.6293844379545 -108.12865279084885 0.0 0.0
1050.479762255598 135.1915628984876 590.5361367658229 -105.43232134323186 0.0 0.0
1096.6964661757142 149.77481886767976 620.9674442640808 -101.88908218119721 0.0 0.0
1137.1124132318319 161.1204667045184 646.8461320107824 -97.67262114418156 0.0 0.0
1169.7770798560698 166.59581091808369 665.9529080431702 -93.11524204404947 0.0 0.0
1189.607804014996 162.46801221022076 673.981361138807 -87.40361795908001 0.0 0.0
1189.8623899951324 141.9842587637093 664.1344132895638 -78.72116818801192 0.0 0.0
1176.3637392698106 111.29334390408773 642.2156497841754 -65.43607946337275 0.0 0.0
763.581992447946 -297.07260422870735 235.4999212218636 4.899014527381951e-11 0.0 0.0
1176.3637392702904 111.29334390467216 642.2156497846245 65.4360794635053 0.0 0.0
1189.8623899969632 141.98425876573157 664.1344132911353 78.72116818830301 0.0 0.0
1189.6078040156135 162.46801221091852 673.9813611392825 87.40361795926259 0.0 0.0
1169.7770798555955 166.59581091784298 665.9529080426944 93.11524204429648 0.0 0.0
1137.11241323203 161.12046670475746 646.8461320110978 97.6726211442702 0.0 0.0
1096.6964661761183 149.77481886827277 620.9674442642565 101.88908218111868 0.0 0.0
1050.4797622564088 135.19156289955257 590.5361367663692 105.43232134335264 0.0 0.0
999.4319838596501 118.60957919401902 556.6293844382036 108.12865279103534 0.0 0.0
944.6913517062792 101.45987489251172 520.5712784856707 110.28893556051563 0.0 0.0
888.9581119348919 87.49470439714665 485.6465903432687 112.02316847169119 0.0 0.0
833.4798007076467 79.12448639546155 453.51835933500377 112.89218555412344 0.0 0.0
774.0667851863012 75.33447449315464 419.9905943517245 112.57185975951168 0.0 0.0
704.345669789781 67.6025545459171 370.1609575763054 113.54471005797296 0.0 0.0
604.0981728292169 52.66578955505226 282.0188127161347 114.5520258633532 0.0 0.0
475.2492347073584 23.296131798657047 173.48844603899914 117.96105955498687 0.0 0.0
334.2660774499743 7.155241255067604 102.10742182575198 119.94163090705959 0.0 0.0
209.700234700372 19.84906954379817 68.86968378326748 112.758465085683 0.0 0.0
120.33796660549689 36.62660609721549 47.08928317772648 125.4007302885327 0.0 0.0
365.65967333102486 119.8130494730879 208.06575083676455 199.88047586059582 0.0 0.0
-766.1353034570848 -1432.626826808538 -963.999224002311 80.91016742830038 0.0 0.0
-594.8517846961599 -1233.2227191416227 -770.433910375873 -75.61994414790817 0.0 0.0
281.1186240098876 66.88004263701606 143.55471977822097 -212.86758425068453 0.0 0.0
83.76106022158451 20.346450505071513 31.232405271495047 -150.3066720113102 0.0 0.0
160.84523294536945 22.65027036383463 55.046349408913706 -136.76046997911632 0.0 0.0
260.01944970456947 6.775484795681589 79.38799021122597 -144.2924878831649 0.0 0.0
391.9469396557312 9.073191580588887 129.68950220706975 -148.06060837503492 0.0 0.0
527.1988970919598 37.43655700494513 224.95568678766205 -141.14181369530604 0.0 0.0
637.1806246277681 56.29483536670636 320.89416979472674 -136.33282961448765 0.0 0.0
715.0044851433676 59.58321885946569 378.5016882402842 -134.29444664180858 0.0 0.0
771.0066374519558 61.65849981303267 411.9334356972389 -132.01360301301912 0.0 0.0
824.6178207366615 66.82270115458137 441.89410312617804 -130.5370296869768 0.0 0.0
877.009478700708 77.86698095646474 473.7532534174487 -128.37575066953755 0.0 0.0
928.279274240496 92.35083513593777 506.77350374910804 -125.90606032339889 0.0 0.0
976.5529606599462 107.09163105849176 538.404360209705 -122.96392648039526 0.0 0.0
1020.2549157078662 119.69608327615619 566.6494188188757 -119.07871944784098 0.0 0.0
1059.1911231588924 129.08738560139977 590.8137123258317 -114.45504168683004 0.0 0.0
1095.2408681002496 138.9811723254416 613.7525907841003 -109.50498022223267 0.0 0.0
1127.1737767401232 146.10935186056992 633.4100992819965 -104.01538261406286 0.0 0.0
1141.1930126052805 137.45436076489318 636.4170636003993 -94.86606143225772 0.0 0.0
1133.2410024157352 109.34111738195534 618.6723214582257 -79.20764756643985 0.0 0.0
608.7709354094734 -407.83951968776967 103.47005843131741 2.1787727177979832e-10 0.0 0.0
1133.2410024167407 109.34111738309218 618.6723214587466 79.20764756670947 0.0 0.0
1141.193012607773 137.45436076760691 636.4170636022254 94.86606143270342 0.0 0.0
1127.1737767396908 146.1093518601097 633.4100992819392 104.01538261398045 0.0 0.0
1095.2408680994577 138.9811723249062 613.7525907833651 109.50498022247243 0.0 0.0
1059.1911231588024 129.08738560146088 590.8137123258302 114.45504168696215 0.0 0.0
1020.2549157091364 119.69608327764101 566.6494188197273 119.07871944794132 0.0 0.0
976.5529606601991 107.09163105879585 538.4043602097497 122.96392648025687 0.0 0.0
928.2792742392261 92.35083513470478 506.7735037482792 125.90606032316053 0.0 0.0
877.0094787009639 77.86698095697724 473.75325341760555 128.37575066961836 0.0 0.0
824.6178207356278 66.82270115365088 441.8941031255322 130.53702968684448 0.0 0.0
771.0066374513335 61.65849981254044 411.93343569683634 132.01360301291746 0.0 0.0
715.0044851419055 59.583218858159654 378.5016882393147 134.29444664158956 0.0 0.0
637.1806246283049 56.29483536799033 320.89416979505853 136.3328296148702 0.0 0.0
527.1988970910197 37.43655700425374 224.95568678692226 141.14181369522885 0.0 0.0
391.94693965545804 9.073191580711955 129.68950220693407 148.0606083749871 0.0 0.0
260.01944970406396 6.7754847951036075 79.38799021092794 144.2924878828941 0.0 0.0
160.84523294534964 22.650270363979736 55.046349408949624 136.76046997883253 0.0 0.0
83.76106022131424 20.346450504696655 31.23240527130148 150.3066720109601 0.0 0.0
281.1186240094587 66.8800426369137 143.5547197779089 212.86758425062524 0.0 0.0
-594.8517846948664 -1233.2227191403006 -770.4339103744674 75.61994414764752 0.0 0.0
-443.6462018763683 -1058.5167874777344 -598.1779952477948 -77.44290543412471 0.0 0.0
209.77810312824585 26.8308700218085 93.14562316255409 -218.13525117206427 0.0 0.0
52.945769552798325 6.965536107819578 17.972464156504245 -168.9495636760125 0.0 0.0
113.89884631251023 23.903550261307764 41.339974438956965 -157.104713848187 0.0 0.0
189.0389192073829 8.418453295196738 58.91566243304373 -164.841948683336 0.0 0.0
296.70569898422434 0.5270535621600133 91.14175765420349 -176.7984869859958 0.0 0.0
427.9576594007644 19.503347231351064 162.20075649352253 -170.18655231928605 0.0 0.0
549.4780921895485 40.04389619479623 255.3462137140933 -160.34690280996313 0.0 0.0
637.5080293965259 45.25730831668553 324.30483511223207 -154.8124418042231 0.0 0.0
698.0703351277367 42.122018535486134 361.9062997570255 -151.1932986322841 0.0 0.0
748.9146615828206 45.44563241947894 390.89493551063447 -147.76401046749058 0.0 0.0
798.3353079843868 54.27668744211245 420.4608462613108 -145.08194859573376 0.0 0.0
846.0672234567139 65.98823692098881 450.38550807433666 -142.33540847637036 0.0 0.0
890.5856148072099 78.13765901013372 478.8684255944452 -139.30671974121975 0.0 0.0
932.0424824568934 89.13623300496259 505.23000360267434 -135.49597676942983 0.0 0.0
969.0747900629723 97.55808240588388 528.0606650768722 -130.5599370815944 0.0 0.0
1005.4725702364469 106.65236629639314 550.7640804924264 -125.07841646733935 0.0 0.0
1049.0340287312822 125.27098144083105 581.7939815394633 -119.83978200410611 0.0 0.0
1084.1464530569197 136.75071924873924 605.4888203947023 -111.88126272882785 0.0 0.0
1086.4903772342682 114.72786532475624 596.2491835243039 -95.9826725215821 0.0 0.0
427.39022601870323 -530.8742767561124 -47.644725247238966 6.844302902209165e-11 0.0 0.0
1086.4903772343314 114.72786532499936 596.2491835243874 95.98267252186591 0.0 0.0
1084.1464530561727 136.75071924792144 605.4888203941504 111.88126272911528 0.0 0.0
1049.0340287306499 125.27098144036687 581.7939815390791 119.8397820041199 0.0 0.0
1005.4725702363613 106.65236629646262 550.7640804921521 125.07841646747849 0.0 0.0
969.0747900629467 97.55808240584375 528.0606650768673 130.55993708148867 0.0 0.0
932.0424824566766 89.13623300484963 505.2300036025068 135.49597676939123 0.0 0.0
890.5856148072845 78.13765901030959 478.86842559439367 139.30671974122865 0.0 0.0
846.0672234562381 65.98823692071261 450.38550807398747 142.33540847635476 0.0 0.0
798.335307984544 54.27668744253106 420.4608462614444 145.08194859586584 0.0 0.0
748.914661582458 45.44563241922803 390.8949355102966 147.76401046735666 0.0 0.0
698.0703351276695 42.122018535805324 361.9062997570258 151.19329863233733 0.0 0.0
637.5080293960583 45.257308316499504 324.3048351118804 154.8124418042317 0.0 0.0
549.4780921895551 40.04389619525324 255.34621371402457 160.34690281005228 0.0 0.0
427.9576594001458 19.503347230989164 162.20075649303325 170.18655231917344 0.0 0.0
296.7056989835269 0.5270535615792205 91.14175765379328 176.79848698575083 0.0 0.0
189.03891920735703 8.418453295630652 58.91566243317429 164.8419486831058 0.0 0.0
113.8988463123712 23.903550261244163 41.33997443890181 157.10471384796233 0.0 0.0
52.9457695527715 6.965536107802942 17.972464156489526 168.94956367575935 0.0 0.0
209.7781031278139 26.830870021409915 93.14562316219812 218.13525117191116 0.0 0.0
-443.6462018753118 -1058.5167874764443 -598.1779952465789 77.44290543398056 0.0 0.0
-323.02687463058555 -892.0038147051214 -453.4501777176224 -80.8562653903992 0.0 0.0
148.69664659851904 -5.562896718592338 54.32375456406058 -217.1640745125273 0.0 0.0
24.724417760594143 -2.3316584861947933 6.715179854240195 -182.00453397114163 0.0 0.0
67.83848047461525 23.66710206536434 27.441922939780174 -173.31287439383811 0.0 0.0
120.82355821101153 11.376927935825826 39.514484633713145 -180.7671961519931 0.0 0.0
194.82108649499688 -0.8191776908759987 58.256788177130936 -198.93770061769595 0.0 0.0
303.340886720833 2.246336242512268 99.90643308405444 -202.59148258012567 0.0 0.0
429.5675688509637 16.89774471722086 171.62944917694549 -188.3208052629268 0.0 0.0
531.7290967999355 25.149559489545005 245.14647442578917 -174.8359648604653 0.0 0.0
600.4643871461861 22.58156440140128 292.89121901416706 -168.01433617782584 0.0 0.0
652.6502488982565 23.75751534348813 325.27138627902275 -163.0387528861376 0.0 0.0
699.3813964718387 29.80330940000113 353.29751971095476 -159.87159827354054 0.0 0.0
743.1384591188266 39.318687490566866 380.579211814832 -156.93205987979943 0.0 0.0
783.1657425551923 48.735795108827716 405.5674820149499 -153.97806357794272 0.0 0.0
821.2532550568948 58.09045404323757 429.50215530519876 -150.6500774235637 0.0 0.0
857.8610114213013 66.71428350045201 452.401975705651 -146.19468952549482 0.0 0.0
893.2448106467251 74.44452953730328 474.2868776677407 -140.21825248928846 0.0 0.0
938.673135851739 93.36377055560088 506.3814746695599 -134.17711102162275 0.0 0.0
1001.3179088146213 130.0547384461069 556.2097644853839 -129.06513938563154 0.0 0.0
1034.690219760649 134.09525408526014 576.2378557961044 -117.66503154331497 0.0 0.0
209.73116387426325 -661.39553181822 -219.97746765958445 9.526957001071423e-11 0.0 0.0
1034.6902197597406 134.09525408443912 576.2378557955792 117.66503154359005 0.0 0.0
1001.3179088142034 130.05473844575943 556.2097644850476 129.06513938572044 0.0 0.0
938.6731358519635 93.36377055591666 506.38147466991074 134.17711102178023 0.0 0.0
893.2448106459968 74.44452953664839 474.2868776672051 140.2182524894051 0.0 0.0
857.8610114200568 66.7142834989292 452.4019757047974 146.19468952524883 0.0 0.0
821.2532550568836 58.09045404356911 429.5021553052193 150.6500774235794 0.0 0.0
783.1657425550013 48.73579510862072 405.5674820148025 153.97806357803145 0.0 0.0
743.1384591181575 39.31868749011968 380.57921181439457 156.93205987982236 0.0 0.0
699.3813964714857 29.803309399836014 353.2975197108049 159.87159827363286 0.0 0.0
652.6502488984913 23.757515344022586 325.27138627921425 163.03875288620588 0.0 0.0
600.4643871460295 22.581564401557827 292.89121901412204 168.0143361778444 0.0 0.0
531.7290967995156 25.14955948931596 245.14647442542295 174.8359648603984 0.0 0.0
429.5675688503821 16.89774471684401 171.62944917651808 188.32080526291068 0.0 0.0
303.3408867202963 2.2463362421408153 99.90643308370777 202.5914825799692 0.0 0.0
194.82108649466474 -0.8191776909444419 58.25678817701698 198.93770061737638 0.0 0.0
120.82355821107942 11.376927936189496 39.514484633850294 180.76719615175355 0.0 0.0
67.83848047435167 23.66710206486398 27.44192293954951 173.31287439384613 0.0 0.0
24.72441776058017 -2.331658485994516 6.715179854295846 182.00453397095214 0.0 0.0
148.6966465980434 -5.562896719001017 54.32375456373053 217.16407451231768 0.0 0.0
-323.0268746298405 -892.0038147039804 -453.45017771669353 80.85626539049872 0.0 0.0
-224.0530026092978 -742.8369680550654 -332.85567829762624 -92.40165418855581 0.0 0.0
93.96356561017971 -31.77657038970187 23.62737880850892 -210.16117802706515 0.0 0.0
-2.6427455590742186 -6.755894238858231 -2.8429745632133283 -189.47106273408056 0.0 0.0
22.16861083097939 22.396328479584724 13.364632903603605 -184.3722886951888 0.0 0.0
52.99143835617077 14.641664469592987 20.243723313560068 -191.94206955875873 0.0 0.0
93.69638010365932 2.523659339439644 28.820103533650858 -212.7404898868509 0.0 0.0
154.49590594890037 -2.84479214446057 46.487426352997524 -227.1531366290128 0.0 0.0
251.13901084211423 -7.266428701372715 78.38112731458962 -222.86776650179203 0.0 0.0
363.93837325613504 -13.232126154420813 122.00220203733242 -199.80948527279477 0.0 0.0
446.72590145065857 -10.6114766937445 167.2438503415651 -177.90174151903094 0.0 0.0
503.21434386294237 -2.244421310406537 206.30051552785176 -171.91808331491416 0.0 0.0
545.7132625228192 5.06616662296787 236.8639172538717 -170.58120012342383 0.0 0.0
582.3495386537568 12.706876684110355 262.62185086232705 -169.85488577126898 0.0 0.0
616.1439362449701 20.443754036465336 285.6677819835084 -168.90726522463885 0.0 0.0
649.3416101649901 28.643492324842626 308.53535677134926 -167.3863099529387 0.0 0.0
684.4973558418326 37.464860629246814 333.0400848511655 -164.6598437925278 0.0 0.0
722.2869301665756 45.63014289312875 358.98988656039205 -159.39123175434753 0.0 0.0
762.131002796724 52.46969843782267 385.21192808368613 -151.90689933268968 0.0 0.0
833.7661736731033 89.11182389476093 439.5809833821634 -146.85661257648783 0.0 0.0
940.132944815782 156.43673558295208 529.4978470713759 -147.18976440060638 0.0 0.0
-77.70729653172594 -789.6809619515565 -423.2622669023617 2.959410494440817e-11 0.0 0.0
940.1329448143824 156.43673558130268 529.497847070439 147.18976440068153 0.0 0.0
833.7661736734183 89.11182389491904 439.5809833824975 146.85661257676884 0.0 0.0
762.1310027971995 52.469698438823414 385.21192808412593 151.90689933270878 0.0 0.0
722.2869301670272 45.6301428942629 358.9898865606227 159.3912317547688 0.0 0.0
684.4973558404746 37.46486062755525 333.0400848501997 164.65984379237563 0.0 0.0
649.3416101674895 28.643492328104102 308.53535677305456 167.3863099533334 0.0 0.0
616.1439362446417 20.443754036020877 285.6677819832924 168.90726522437706 0.0 0.0
582.3495386526482 12.706876682644591 262.62185086147696 169.85488577110695 0.0 0.0
545.7132625233056 5.066166623779814 236.8639172541188 170.5812001233873 0.0 0.0
503.21434386295 -2.24442131010537 206.30051552791687 171.91808331493388 0.0 0.0
446.7259014505796 -10.611476693534927 167.24385034146792 177.90174151895727 0.0 0.0
363.9383732558394 -13.232126154375207 122.00220203719424 199.80948527286893 0.0 0.0
251.13901084193793 -7.266428700637247 78.38112731474139 222.8677665019568 0.0 0.0
154.49590594858478 -2.8447921447423026 46.48742635280682 227.15313662880445 0.0 0.0
93.69638010353361 2.523659339344638 28.820103533594978 212.74048988656324 0.0 0.0
52.99143835611133 14.64166446941292 20.2437233134908 191.9420695584337 0.0 0.0
22.168610830897087 22.396328479398367 13.364632903523212 184.37228869500498 0.0 0.0
-2.642745558931885 -6.755894238322477 -2.8429745630117047 189.47106273400595 0.0 0.0
93.96356560986644 -31.776570389980954 23.62737880830085 210.16117802685633 0.0 0.0
-224.0530026086669 -742.8369680540096 -332.85567829690336 92.401654188673 0.0 0.0
-154.44399697960307 -604.7213987440889 -241.55249376492606 -105.59007776838934 0.0 0.0
42.98355461676354 -52.35763552930527 -1.1164259465221686 -196.4204134422423 0.0 0.0
-29.77696803782866 -7.340941367991935 -11.142441628135767 -193.31350005417127 0.0 0.0
-23.003398792728404 20.648618844142224 -0.7252022351138327 -190.7069901732929 0.0 0.0
-14.043378207330264 17.675533654595938 1.0862511089343379 -197.66036449762728 0.0 0.0
-7.031351667791741 7.039911716329677 0.01687589119776689 -217.90831293285413 0.0 0.0
-3.3801688383505457 0.8029351079037284 -0.7761357307870798 -234.77395449595792 0.0 0.0
-1.3507050352797378 0.15787968440524747 -0.35993074050653995 -237.54167233046113 0.0 0.0
-0.4034345190114834 -0.032476984955843946 -0.13548706978911795 -232.2680385474263 0.0 0.0
-0.1480090578075277 -0.00011102612720392813 -0.04371830146713762 -227.07610695623544 0.0 0.0
-0.5339500771890187 -0.006864395201688467 -0.09366541029311293 -214.7676495802984 0.0 0.0
-1.1533334543350975 0.23948858147879548 0.3109115467811705 -201.91876577674364 0.0 0.0
-1.6528536373848226 1.2162941153743105 0.6207768173365764 -193.32163183266215 0.0 0.0
1.561837621721594 3.5888220864841003 1.2809290755682383 -186.74672077730952 0.0 0.0
13.57431182269437 8.582621240318161 3.035142259362061 -181.97581436719278 0.0 0.0
41.200920074202855 17.39893268412787 7.803965866573407 -177.70349602481483 0.0 0.0
93.85288127737039 31.883217357611386 18.028011559259483 -172.04128621442456 0.0 0.0
184.90000377785992 43.04806285990742 25.069833891877494 -162.9047483746016 0.0 0.0
411.0346620913715 4.638786733780734 46.11719197050118 -159.4088901153613 0.0 0.0
653.438831542091 44.05973149733248 268.4911216714555 -208.08651011003144 0.0 0.0
-793.8012124722142 -1052.2230588081668 -844.5802565871211 -4.696687483374262e-12 0.0 0.0
653.4388315417834 44.05973149696638 268.49112167118886 208.0865101097365 0.0 0.0
411.03466209126645 4.638786734226727 46.11719197054893 159.40889011607078 0.0 0.0
184.9000037790166 43.04806286188162 25.069833892872538 162.9047483752775 0.0 0.0
93.85288127779289 31.88321735834495 18.0280115594924 172.0412862149491 0.0 0.0
41.20092007397179 17.39893268342516 7.803965866293851 177.7034960246986 0.0 0.0
13.574311824752044 8.582621242843004 3.0351422610406615 181.97581436732938 0.0 0.0
1.5618376216033312 3.5888220859132502 1.2809290752883413 186.7467207772949 0.0 0.0
-1.652853637153683 1.2162941151231834 0.620776817276635 193.32163183271555 0.0 0.0
-1.1533334534059065 0.23948858226950165 0.3109115473472386 201.91876577701137 0.0 0.0
-0.5339500771448726 -0.00686439541825834 -0.093665410407624 214.7676495802424 0.0 0.0
-0.14800905700894873 -0.00011102549003538797 -0.04371830101948504 227.07610695595773 0.0 0.0
-0.4034345186218111 -0.03247698482939754 -0.13548706963334567 232.26803854749673 0.0 0.0
-1.3507050351376684 0.15787968434771038 -0.35993074047988305 237.54167233053772 0.0 0.0
-3.3801688381387613 0.8029351081709212 -0.7761357306404735 234.7739544957884 0.0 0.0
-7.03135166789972 7.039911715992215 0.016875891062547943 217.9083129325508 0.0 0.0
-14.043378207066187 17.67553365519218 1.086251109192434 197.6603644973068 0.0 0.0
-23.003398792626925 20.648618844303517 -0.7252022350361449 190.7069901730521 0.0 0.0
-29.776968037692583 -7.340941367603165 -11.142441627980007 193.31350005413745 0.0 0.0
42.983554616406835 -52.35763552952724 -1.1164259467155113 196.42041344193606 0.0 0.0
-154.44399697936547 -604.7213987432905 -241.55249376453034 105.59007776859323 0.0 0.0
-116.00799214683833 -481.381848922164 -180.1546321251689 -115.33476110235158 0.0 0.0
0.11480894632446237 -65.21037476131184 -19.38741544158229 -178.86047188065186 0.0 0.0
-55.79695700574694 -6.268482853457011 -18.63923300717736 -192.2541702274153 0.0 0.0
-67.29052981355079 18.996664353400025 -14.518940085018164 -192.07513635682076 0.0 0.0
-79.8319650396458 20.038010003258776 -17.950508216423124 -197.56656775679363 0.0 0.0
-106.32227878302727 11.30121014588255 -28.582348207046323 -214.00952158158628 0.0 0.0
-160.27227053918133 4.419634186101816 -47.924711556049125 -228.11012787013388 0.0 0.0
-252.69149871441078 7.256303633705958 -79.08411871804864 -223.28634595618652 0.0 0.0
-364.24580476756523 13.09502299870013 -122.25116314252364 -199.94673764385848 0.0 0.0
-446.76651360973227 10.555706815825474 -167.29193188604415 -177.85283377849592 0.0 0.0
-503.78575797876 2.0861884825377217 -206.73431217907432 -171.92887866094622 0.0 0.0
-546.6437887919882 -4.852561145578747 -237.84687323640304 -170.33617565883097 0.0 0.0
-583.0661837176177 -10.722989318819145 -262.86913369121 -169.10759263302117 0.0 0.0
-612.5124707601931 -13.893216357130981 -280.85917263076453 -168.24969834325935 0.0 0.0
-632.1543426099655 -13.16094941233554 -290.107406291509 -168.49218444086998 0.0 0.0
-640.0958259625638 -7.353027823808134 -288.5383298496266 -170.4631183309898 0.0 0.0
-635.269906818105 3.1891963587999896 -274.38198878503806 -174.9760380356219 0.0 0.0
-626.9113483387329 10.970638615020846 -251.22360594353205 -184.19529926394333 0.0 0.0
-599.6495333950443 67.63738920091428 -183.35360189967813 -197.66649254794206 0.0 0.0
-321.13458242150193 203.81927920514465 67.82419688488224 -173.54335517190617 0.0 0.0
-1380.6289731306529 -1340.007576226336 -1399.6777669398393 -1.602842303327634e-10 0.0 0.0
-321.13458242097914 203.81927920624668 67.82419688544573 173.54335517244223 0.0 0.0
-599.6495333951032 67.6373892003738 -183.3536018997987 197.66649254836483 0.0 0.0
-626.911348337168 10.970638616812579 -251.2236059424697 184.19529926398982 0.0 0.0
-635.2699068190161 3.189196357315822 -274.3819887857599 174.97603803604977 0.0 0.0
-640.0958259624667 -7.353027823685579 -288.5383298494819 170.46311833099358 0.0 0.0
-632.1543426091879 -13.160949411841614 -290.10740629099934 168.4921844409383 0.0 0.0
-612.5124707608052 -13.893216358428191 -280.859172631302 168.2496983435442 0.0 0.0
-583.0661837171457 -10.722989318474966 -262.86913369094833 169.10759263304487 0.0 0.0
-546.6437887921464 -4.85256114634587 -237.84687323650965 170.33617565902026 0.0 0.0
-503.78575797762204 2.086188483716466 -206.73431217816022 171.9288786605627 0.0 0.0
-446.7665136096891 10.555706815172963 -167.29193188607016 177.8528337787265 0.0 0.0
-364.2458047670819 13.095022998741253 -122.25116314227908 199.94673764406627 0.0 0.0
-252.69149871421743 7.256303632842198 -79.08411871817694 223.2863459562497 0.0 0.0
-160.27227053878573 4.4196341859528925 -47.92471155596959 228.11012787008067 0.0 0.0
-106.32227878309652 11.301210145395292 -28.582348207218164 214.00952158132674 0.0 0.0
-79.8319650395708 20.038010003190426 -17.950508216422815 197.56656775653337 0.0 0.0
-67.29052981328415 18.996664353817074 -14.51894008481644 192.07513635656431 0.0 0.0
-55.79695700571391 -6.268482853350467 -18.63923300713639 192.2541702273761 0.0 0.0
0.11480894626785809 -65.21037476134991 -19.38741544160859 178.8604718804799 0.0 0.0
-116.00799214685748 -481.3818489213926 -180.15463212502237 115.3347611022314 0.0 0.0
-97.4284141875072 -367.81118196246473 -139.55036989781834 -110.31863890062486 0.0 0.0
-28.078795573295597 -72.69604148581465 -30.225658318845717 -164.65424004596983 0.0 0.0
-80.26369810792227 -5.4047973079019975 -25.687128684120786 -187.99939373932625 0.0 0.0
-109.87603387517117 17.60652335808597 -27.72239433413731 -188.3634038289885 0.0 0.0
-144.36518002064147 21.728644635325537 -36.755465775270636 -192.5182833577443 0.0 0.0
-203.81671861688642 13.906327600374675 -57.60824074414343 -202.8569455518301 0.0 0.0
-305.1697084968829 -1.504212791595588 -101.04556925607105 -202.65401327638241 0.0 0.0
-429.6821198915125 -17.091764617096395 -171.94650588319539 -189.04491348948446 0.0 0.0
-531.6916377214235 -25.3359554501069 -245.2336258658829 -174.97249986690807 0.0 0.0
-600.3779122245498 -22.59538115547746 -292.8851477974383 -168.0294756048278 0.0 0.0
-652.7695861499681 -23.741399774360303 -325.373914950313 -162.917247319106 0.0 0.0
-699.9226147059962 -29.58024488619661 -353.57175436882125 -159.22594358433258 0.0 0.0
-743.2339702858033 -37.81921628696654 -380.094171695721 -155.67066474601663 0.0 0.0
-778.9330296458846 -43.0074511937822 -400.9034257412152 -153.031286615043 0.0 0.0
-804.3532711107271 -42.55397481736989 -413.58017183205925 -152.26259929389087 0.0 0.0
-816.7864560285473 -34.472636742583376 -415.7168036846153 -153.68771960854707 0.0 0.0
-817.8653628021405 -21.493953456868837 -409.31223808781994 -157.51113959390167 0.0 0.0
-808.0228483291774 -5.697971708139022 -395.9185491351823 -163.53359929805458 0.0 0.0
-755.8024819339145 44.0406902662036 -344.39939142965363 -170.45020192117408 0.0 0.0
-622.493819340773 159.71883286292336 -221.4155301765505 -178.10191812149313 0.0 0.0
-2193.14274759099 -1640.2166262424328 -1887.741202213234 3.90087961932295e-12 0.0 0.0
-622.4938193410995 159.71883286249266 -221.41553017686093 178.10191812173056 0.0 0.0
-755.802481933913 44.040690265527246 -344.39939142982587 170.45020192144983 0.0 0.0
-808.0228483291264 -5.697971707879219 -395.91854913515294 163.53359929843302 0.0 0.0
-817.8653628014791 -21.49395345635328 -409.3122380874544 157.51113959358494 0.0 0.0
-816.7864560294299 -34.472636743876805 -415.71680368522175 153.68771960869714 0.0 0.0
-804.3532711107609 -42.55397481750679 -413.5801718320504 152.26259929417063 0.0 0.0
-778.9330296455926 -43.00745119367353 -400.90342574101686 153.0312866148771 0.0 0.0
-743.2339702862314 -37.819216287757925 -380.09417169616364 155.67066474609618 0.0 0.0
-699.9226147061531 -29.580244886864765 -353.57175436892953 159.2259435845086 0.0 0.0
-652.7695861497671 -23.741399774229173 -325.37391495029595 162.91724731899706 0.0 0.0
-600.3779122249733 -22.595381156496376 -292.88514779774493 168.02947560490364 0.0 0.0
-531.6916377209218 -25.335955449948955 -245.23362586544582 174.9724998669159 0.0 0.0
-429.68211989130344 -17.091764617679907 -171.9465058830785 189.04491348964285 0.0 0.0
-305.1697084964626 -1.504212791797756 -101.0455692559138 202.6540132763773 0.0 0.0
-203.81671861652956 13.906327600376898 -57.608240744030525 202.85694555163633 0.0 0.0
-144.36518002058858 21.728644634786534 -36.75546577543309 192.51828335749278 0.0 0.0
-109.87603387489833 17.60652335834519 -27.72239433398033 188.36340382888483 0.0 0.0
-80.26369810782018 -5.404797307838852 -25.68712868407666 187.99939373918136 0.0 0.0
-28.07879557327212 -72.69604148563995 -30.225658318786394 164.6542400458784 0.0 0.0
-97.42841418739215 -367.81118196208394 -139.55036989765478 110.31863890056805 0.0 0.0
-80.02224829714932 -272.9894254844334 -105.9035021344748 -99.62798293131776 0.0 0.0
-47.300365799951166 -73.33013452377055 -36.18869195902999 -150.4178513484019 0.0 0.0
-102.85580068846832 -5.035759820425929 -32.332910999257706 -179.47960639332018 0.0 0.0
-150.856385496622 16.359090596834722 -40.3201453556101 -180.60485484598058 0.0 0.0
-206.59431864021508 21.544326289694567 -55.59982621161105 -180.48127958426602 0.0 0.0
-297.71458743067893 9.68701188972236 -90.23619941182352 -180.12144914723814 0.0 0.0
-427.79830091977885 -17.81902133977098 -161.9775935688835 -172.89948885755135 0.0 0.0
-549.5558265128935 -40.612668957721624 -255.56323395031626 -160.9937739718897 0.0 0.0
-637.4053393648528 -45.41735938543823 -324.358903572137 -154.90941144785995 0.0 0.0
-697.9031430064238 -42.00977605623095 -361.8122507670505 -151.24232111048653 0.0 0.0
-748.726966818807 -45.16591821769991 -390.6977637554031 -147.62270505553298 0.0 0.0
-798.3779199934518 -53.77832309831278 -420.2877474218973 -144.33078078016726 0.0 0.0
-845.9538146126409 -64.72500589370924 -449.80277200209343 -140.76554557157058 0.0 0.0
-887.3096365436716 -73.72068023136424 -475.23077672831596 -137.90980128090717 0.0 0.0
-918.4138863736487 -76.41821206703727 -492.3516480216151 -137.04473187054515 0.0 0.0
-935.3886706684493 -70.19996169751371 -497.82661804194834 -138.99569579088978 0.0 0.0
-937.2928564042824 -54.12447331149312 -490.77148155863927 -143.5340849570862 0.0 0.0
-915.0596181290621 -20.576032089430925 -462.8071508172055 -148.82410023744856 0.0 0.0
-854.0734971877521 43.50147493444992 -400.6817318765692 -152.53364770818837 0.0 0.0
-678.5509197267387 208.71215787973097 -232.65358610810551 -151.7978540212463 0.0 0.0
-2632.681773564552 -1866.962096996586 -2228.407774614397 4.401812248033821e-12 0.0 0.0
-678.5509197254426 208.7121578808904 -232.65358610707744 151.79785402137952 0.0 0.0
-854.0734971860845 43.501474936053626 -400.68173187559796 152.53364770829157 0.0 0.0
-915.0596181299094 -20.576032090714307 -462.8071508178226 148.82410023802598 0.0 0.0
-937.2928564041672 -54.12447331133973 -490.77148155872055 143.5340849570255 0.0 0.0
-935.3886706688384 -70.1999616983247 -497.82661804235204 138.9956957910736 0.0 0.0
-918.4138863731965 -76.41821206685394 -492.35164802124467 137.04473187075357 0.0 0.0
-887.309636543308 -73.72068023104148 -475.2307767280254 137.90980128086576 0.0 0.0
-845.9538146128591 -64.72500589417595 -449.80277200236577 140.7655455715021 0.0 0.0
-798.3779199927493 -53.7783230978467 -420.28774742142735 144.33078078014577 0.0 0.0
-748.726966818958 -45.16591821817771 -390.6977637555931 147.62270505551993 0.0 0.0
-697.903143006548 -42.00977605675766 -361.8122507671696 151.2423211104817 0.0 0.0
-637.4053393650456 -45.41735938615765 -324.3589035722582 154.90941144805973 0.0 0.0
-549.555826512106 -40.61266895736383 -255.56323394965207 160.99377397187786 0.0 0.0
-427.7983009194851 -17.819021340098985 -161.97759356869867 172.899488857621 0.0 0.0
-297.71458743014193 9.687011889922953 -90.236199411557 180.12144914707176 0.0 0.0
-206.5943186397446 21.544326290009156 -55.599826211387445 180.48127958402267 0.0 0.0
-150.85638549644668 16.359090596714086 -40.32014535560567 180.60485484591695 0.0 0.0
-102.85580068845961 -5.035759820483422 -32.33291099926882 179.47960639313405 0.0 0.0
-47.30036579996356 -73.33013452366907 -36.188691959005645 150.41785134822754 0.0 0.0
-80.02224829704751 -272.98942548404585 -105.90350213432801 99.62798293120692 0.0 0.0
-65.18338323164463 -193.79737758297185 -77.69422824438493 -85.90961926876125 0.0 0.0
-61.615808672831264 -68.77127855250731 -39.116330418678146 -134.49300930674212 0.0 0.0
-123.72523340143202 -4.820764137843568 -38.5394324046676 -166.66166365979706 0.0 0.0
-189.51359936268528 14.277226963538075 -52.54400453937979 -167.616611447527 0.0 0.0
-268.69467563049955 19.215075417787794 -75.18582929125466 -163.8027318317888 0.0 0.0
-387.94724645062547 0.22744788132457927 -127.44663538217551 -154.22674902148069 0.0 0.0
-525.1891354293396 -36.705643977307545 -224.1423858963301 -142.2063449222214 0.0 0.0
-637.463463494281 -57.140391444586754 -321.2808321553123 -136.67367388190354 0.0 0.0
-714.9257522069581 -59.66632744052089 -378.5679361876204 -134.38475456034422 0.0 0.0
-770.7496336164345 -61.4194117290962 -411.73037552618496 -132.06127831981215 0.0 0.0
-824.0854800630384 -66.19027205579623 -441.35081648474477 -130.3862704838384 0.0 0.0
-876.3171237515093 -76.82827775845348 -472.9229369979498 -127.6112201291206 0.0 0.0
-927.7277978498314 -91.06744669722426 -505.89874708843536 -124.269368045026 0.0 0.0
-974.9308313711593 -104.70088316832712 -536.5030739503696 -121.33231587916343 0.0 0.0
-1012.1909961661681 -112.22094058779066 -559.0973299574216 -120.26921262460571 0.0 0.0
-1032.9419965959771 -107.12042373606573 -567.0926420523369 -122.26815893868074 0.0 0.0
-1029.3373514696632 -83.8787892622826 -553.80719940018 -126.45299053087523 0.0 0.0
-992.7841628374267 -32.901542996709566 -510.20694985205705 -130.85584698620178 0.0 0.0
-900.380705285914 65.78726311293053 -415.3140865960395 -132.04442812592222 0.0 0.0
-710.5001574315177 247.89782105531646 -230.62472414995315 -128.5989429845509 0.0 0.0
-2982.5846474525774 -2105.25442701105 -2527.645931419495 3.439737383814645e-11 0.0 0.0
-710.5001574307 247.89782105605872 -230.6247241493678 128.59894298476695 0.0 0.0
-900.3807052837742 65.78726311498887 -415.31408659459055 132.0444281260366 0.0 0.0
-992.784162837412 -32.901542996768256 -510.2069498519352 130.85584698641006 0.0 0.0
-1029.337351470035 -83.87878926275494 -553.8071994004783 126.45299053066607 0.0 0.0
-1032.9419965949173 -107.12042373525284 -567.0926420516647 122.26815893879835 0.0 0.0
-1012.1909961650255 -112.22094058676329 -559.0973299564978 120.26921262469372 0.0 0.0
-974.9308313709817 -104.70088316830899 -536.5030739502333 121.33231587902668 0.0 0.0
-927.7277978498146 -91.06744669747785 -505.8987470885359 124.26936804514054 0.0 0.0
-876.3171237519184 -76.82827775913748 -472.9229369981896 127.6112201291727 0.0 0.0
-824.0854800621456 -66.1902720549554 -441.3508164841728 130.38627048359632 0.0 0.0
-770.7496336159514 -61.419411728796874 -411.73037552590466 132.06127831962792 0.0 0.0
-714.9257522072962 -59.66632744142159 -378.5679361877722 134.38475456046356 0.0 0.0
-637.4634634933792 -57.14039144396513 -321.2808321546161 136.67367388190698 0.0 0.0
-525.1891354291324 -36.70564397759791 -224.14238589607416 142.20634492220185 0.0 0.0
-387.9472464505398 0.22744788066072363 -127.44663538222673 154.2267490215691 0.0 0.0
-268.6946756300715 19.215075417726673 -75.18582929114906 163.80273183160028 0.0 0.0
-189.51359936226137 14.277226963992133 -52.54400453912827 167.61661144732048 0.0 0.0
-123.72523340154241 -4.820764138079914 -38.53943240477635 166.66166365961317 0.0 0.0
-61.61580867294756 -68.77127855260972 -39.116330418743416 134.4930093066225 0.0 0.0
-65.18338323166778 -193.79737758265992 -77.6942282442983 85.9096192686848 0.0 0.0
-53.9817279255236 -129.45518327334145 -55.0310733596595 -71.10875530251027 0.0 0.0
-72.67046115615062 -60.46198936355766 -39.93973515591248 -116.31678664377426 0.0 0.0
-143.13966769538433 -4.359840122710038 -44.241331762708505 -149.63722287703555 0.0 0.0
-226.65590135706253 11.667733347936524 -64.35080818423006 -150.6460052170299 0.0 0.0
-329.4499320032588 12.637752791530275 -96.81248602525386 -140.3128817562576 0.0 0.0
-468.7769008717007 -14.449731703587316 -169.41849073084316 -125.06168138241334 0.0 0.0
-603.2399796973251 -52.3194003507892 -281.1495979224854 -115.58134156917629 0.0 0.0
-704.8493814247255 -68.43116994329989 -370.7474934755798 -113.7136530907904 0.0 0.0
-773.9466535888728 -75.28515992462486 -419.9713922399005 -112.65705929932307 0.0 0.0
-833.1134809171327 -78.74558077740807 -453.1895726925658 -112.92616067283984 0.0 0.0
-888.0584912663479 -86.51558573432361 -484.74841955780187 -111.83988423493655 0.0 0.0
-943.1845674625055 -99.78298315269382 -519.0072999331078 -109.57165448034391 0.0 0.0
-998.1536050368836 -117.03778533877986 -555.206042058663 -106.69122030713899 0.0 0.0
-1050.4716378105359 -134.89337797657083 -590.4060696814349 -103.91217203631152 0.0 0.0
-1094.4826701687748 -147.93011459701813 -619.1059744818388 -102.491163742816 0.0 0.0
-1118.0015094345752 -144.49604818471397 -629.3840138259362 -103.70763433874075 0.0 0.0
-1107.4933480087525 -111.3262375613856 -607.7685030797019 -107.34779508795306 0.0 0.0
-1049.2930070296145 -37.32192641476925 -541.95659515845 -110.84214492388163 0.0 0.0
-930.5272450576297 88.3186549860834 -420.25155461401226 -111.48328832814076 0.0 0.0
-737.6031875446797 273.7116921817909 -231.73067914902938 -110.04057882451696 0.0 0.0
-3277.784971235519 -2327.2826925386353 -2789.706349812565 9.674039347373764e-12 0.0 0.0
-737.6031875465372 273.71169217980326 -231.7306791504829 110.04057882479705 0.0 0.0
-930.5272450556838 88.3186549880255 -420.251554612871 111.48328832808137 0.0 0.0
-1049.2930070297139 -37.321926414915424 -541.9565951584543 110.84214492394341 0.0 0.0
-1107.4933480079462 -111.32623756052519 -607.7685030793677 107.34779508764142 0.0 0.0
-1118.001509434795 -144.4960481850778 -629.3840138261393 103.70763433874284 0.0 0.0
-1094.482670169383 -147.93011459789372 -619.1059744821516 102.49116374293854 0.0 0.0
-1050.47163780964 -134.89337797587447 -590.4060696808347 103.91217203644445 0.0 0.0
-998.1536050366083 -117.03778533871652 -555.2060420585406 106.69122030710032 0.0 0.0
-943.184567464166 -99.78298315482147 -519.0072999341944 109.5716544806171 0.0 0.0
-888.0584912663948 -86.5155857345774 -484.7484195578842 111.83988423479379 0.0 0.0
-833.1134809164115 -78.74558077694223 -453.1895726921375 112.92616067279663 0.0 0.0
-773.9466535892054 -75.28515992544058 -419.97139224010084 112.65705929956175 0.0 0.0
-704.8493814242001 -68.43116994308512 -370.74749347514245 113.71365309069029 0.0 0.0
-603.2399796971276 -52.31940035096363 -281.1495979221267 115.58134156910141 0.0 0.0
-468.7769008715554 -14.44973170413595 -169.4184907307438 125.06168138245516 0.0 0.0
-329.4499320029801 12.637752791310305 -96.81248602523311 140.31288175630922 0.0 0.0
-226.6559013566627 11.667733348381429 -64.35080818398396 150.6460052167266 0.0 0.0
-143.13966769537925 -4.359840122809678 -44.24133176273589 149.63722287696487 0.0 0.0
-72.67046115626951 -60.46198936365455 -39.93973515597722 116.31678664365099 0.0 0.0
-53.981727925395035 -129.45518327309713 -55.03107335954764 71.1087553026616 0.0 0.0
-46.37667122493273 -79.52276412090558 -37.769830603751494 -55.90220204129471 0.0 0.0
-81.18510562389304 -49.82372682648182 -39.30264973511245 -96.00433922595819 0.0 0.0
-161.32070588009833 -3.4215460227380907 -49.42318306932445 -128.40787924403816 0.0 0.0
-262.6641644584823 7.372078879082829 -76.44339164697166 -128.623836293997 0.0 0.0
-391.67224687877894 3.6468260364283798 -121.0047355204979 -113.68013739116465 0.0 0.0
-536.0402965636849 -32.42623097222369 -214.2929934091036 -94.83606842772896 0.0 0.0
-665.0373983058387 -62.82037665831542 -328.9907010365065 -91.35149085158973 0.0 0.0
-754.8525016560294 -80.0232930373241 -408.2762324517161 -90.64671149792899 0.0 0.0
-826.0989607756653 -88.73649004445213 -454.6099533903104 -91.81345787902471 0.0 0.0
-886.8937417352217 -96.12308829140348 -489.66320210485253 -92.77534005223112 0.0 0.0
-945.0120412615961 -107.0418600407983 -524.2524849904746 -92.18825524193093 0.0 0.0
-1002.9954667236707 -122.7781999041243 -561.1495245368915 -90.4831457716998 0.0 0.0
-1060.8186412528066 -142.31853544138374 -599.887013859248 -88.24807974666417 0.0 0.0
-1116.844938906594 -163.9422147366198 -638.7727437940355 -85.83240422130105 0.0 0.0
-1166.2805235246337 -181.24794245688972 -672.275967859485 -83.9665989647159 0.0 0.0
-1194.430067413516 -180.67750363181722 -686.3163180394213 -83.97812945991146 0.0 0.0
-1178.2896825646417 -140.82679042545294 -658.6427312391427 -86.4096577087777 0.0 0.0
-1099.9222830247634 -45.247924998865074 -571.9794003743043 -89.71243142106218 0.0 0.0
-957.1655088302359 104.95335088190643 -425.81925662007836 -92.11191108051514 0.0 0.0
-755.1971460233123 298.84534739185057 -228.15175561888273 -94.55187789640189 0.0 0.0
-3529.6289790199244 -2524.982577337329 -3016.9569278221875 -1.2711609542748192e-11 0.0 0.0
-755.1971460256298 298.8453473893327 -228.15175562056203 94.55187789683086 0.0 0.0
-957.1655088297161 104.95335088238218 -425.8192566197788 92.11191108069286 0.0 0.0
-1099.9222830258977 -45.247925000080386 -571.9794003750861 89.71243142105371 0.0 0.0
-1178.2896825659045 -140.82679042681264 -658.6427312401481 86.40965770876551 0.0 0.0
-1194.430067413188 -180.67750363159684 -686.3163180390791 83.97812945987815 0.0 0.0
-1166.2805235247558 -181.2479424572622 -672.275967859597 83.96659896463505 0.0 0.0
-1116.8449389071222 -163.9422147373895 -638.7727437943281 85.83240422163234 0.0 0.0
-1060.8186412523676 -142.3185354411272 -599.8870138590445 88.24807974653925 0.0 0.0
-1002.9954667247792 -122.77819990556496 -561.1495245376389 90.48314577181976 0.0 0.0
-945.0120412612231 -107.04186004061626 -524.252484990274 92.18825524180957 0.0 0.0
-886.8937417343193 -96.12308829072427 -489.6632021042971 92.77534005203822 0.0 0.0
-826.0989607762035 -88.7364900454355 -454.60995339066284 91.81345787922018 0.0 0.0
-754.8525016546834 -80.02329303624074 -408.27623245077774 90.64671149779812 0.0 0.0
-665.037398305579 -62.820376658477635 -328.99070103615037 91.35149085163756 0.0 0.0
-536.0402965628434 -32.426230971692256 -214.29299340844378 94.83606842757753 0.0 0.0
-391.67224687808437 3.6468260366610536 -121.0047355201898 113.68013739126509 0.0 0.0
-262.664164458103 7.372078879332101 -76.44339164679165 128.62383629387983 0.0 0.0
-161.32070588000005 -3.4215460228578216 -49.423183069330804 128.40787924376315 0.0 0.0
-81.18510562368223 -49.823726826337165 -39.302649735005794 96.00433922588863 0.0 0.0
-46.376671224675775 -79.52276412071396 -37.76983060361691 55.90220204131275 0.0 0.0
-41.740679345057785 -43.69561098853978 -25.630887100079264 -40.764729284951855 0.0 0.0
-87.20573648955812 -38.15990975024259 -37.60969387194021 -73.79190536844217 0.0 0.0
-178.28092993201972 -2.1201497196986923 -54.12054437321976 -102.80938860625034 0.0 0.0
-299.5376002062338 1.708178196215239 -89.16145024151803 -101.8433819430616 0.0 0.0
-450.86790078982136 -9.580471263307418 -148.9959578369843 -82.97772910736832 0.0 0.0
-596.3706262018063 -45.83581227274519 -257.76250838586657 -69.30729503878003 0.0 0.0
-710.6222297829408 -72.15224986933202 -367.49234835201685 -68.3501381054177 0.0 0.0
-797.4346565106459 -89.57980480651216 -437.94684806443513 -68.50176253070872 0.0 0.0
-870.7582273805181 -102.43727270236965 -484.8121411835532 -70.43048461528434 0.0 0.0
-935.1441287472525 -113.68597469242368 -523.127307178698 -71.73318827073102 0.0 0.0
-996.3968128581513 -127.72773207231623 -560.8132452877653 -71.566817248208 0.0 0.0
-1057.462813595703 -146.0697615757486 -600.5377443094051 -70.42299870723092 0.0 0.0
-1117.6705764514604 -167.9962658664021 -641.6494999678537 -68.83749136028864 0.0 0.0
-1175.3914560795133 -190.06487232730294 -681.577519182892 -67.06507512788305 0.0 0.0
-1227.0497679054397 -209.4244941439741 -717.1638531339224 -65.03263967507982 0.0 0.0
-1261.2220345790693 -214.3090421504931 -736.9063786512636 -63.51818964595697 0.0 0.0
-1249.665995952264 -177.40578732160571 -713.0307117794707 -64.2376237987989 0.0 0.0
-1157.8029750851817 -67.13168127170877 -612.3042436856554 -67.85550093118567 0.0 0.0
-985.9772649468873 112.71863768020913 -436.69453668187765 -73.24738983944789 0.0 0.0
-758.5095200704334 332.42106000190995 -213.15509898500434 -80.63734066198347 0.0 0.0
-3738.1262739881467 -2688.8381874172906 -3205.04621102714 1.0273026873619528e-10 0.0 0.0
-758.5095200735115 332.4210599986932 -213.15509898708825 80.63734066220701 0.0 0.0
-985.9772649458419 112.71863768114999 -436.69453668118825 73.24738983961723 0.0 0.0
-1157.8029750854446 -67.13168127209039 -612.3042436858232 67.85550093133673 0.0 0.0
-1249.6659959539027 -177.405787323326 -713.0307117805932 64.2376237987133 0.0 0.0
-1261.2220345772619 -214.3090421488096 -736.9063786499759 63.51818964580737 0.0 0.0
-1227.0497679059629 -209.4244941446817 -717.1638531344539 65.03263967504341 0.0 0.0
-1175.3914560808817 -190.06487232888682 -681.5775191836993 67.06507512801713 0.0 0.0
-1117.6705764510914 -167.99626586624578 -641.649499967663 68.83749136026023 0.0 0.0
-1057.4628135957396 -146.06976157605249 -600.5377443093503 70.42299870715568 0.0 0.0
-996.3968128578219 -127.72773207222482 -560.8132452875861 71.56681724821892 0.0 0.0
-935.1441287466009 -113.68597469206259 -523.1273071783149 71.73318827064952 0.0 0.0
-870.7582273805677 -102.43727270270603 -484.81214118361095 70.43048461526053 0.0 0.0
-797.4346565090401 -89.57980480515212 -437.9468480633849 68.50176253058589 0.0 0.0
-710.6222297823703 -72.15224986906799 -367.49234835149707 68.35013810532053 0.0 0.0
-596.3706262011059 -45.8358122723739 -257.76250838524305 69.30729503865226 0.0 0.0
-450.8679007894998 -9.580471263480984 -148.99595783685444 82.97772910737228 0.0 0.0
-299.53760020579176 1.708178196585185 -89.16145024130309 101.84338194322004 0.0 0.0
-178.28092993201722 -2.1201497199496186 -54.12054437329403 102.8093886058868 0.0 0.0
-87.20573648944497 -38.159909750110124 -37.60969387186652 73.79190536857702 0.0 0.0
-41.74067934490113 -43.69561098841278 -25.630887099994165 40.764729284838914 0.0 0.0
-38.82280981344382 -21.56932352503109 -18.11764000154247 -26.511416918585148 0.0 0.0
-90.06687670499045 -26.77655571995682 -35.05302972748418 -49.994557637868084 0.0 0.0
-193.73108982796373 -1.0345316607233603 -58.42968644660609 -72.20198240782607 0.0 0.0
-338.79684201761006 -4.900560286162592 -102.98246671176247 -69.69288963781277 0.0 0.0
-505.18694752927325 -25.6021210381757 -180.84966467542026 -51.97872190158742 0.0 0.0
-644.0006535508837 -55.71093868488312 -297.2367214424359 -46.07635531218684 0.0 0.0
-745.096752341072 -79.67366568111413 -396.7102883411547 -45.882570686066245 0.0 0.0
-834.2234959519265 -99.6890411605653 -463.5209342052309 -46.7589178844131 0.0 0.0
-910.6957648012203 -116.79735787265774 -512.5206002255266 -48.50042260417878 0.0 0.0
-978.6960773866945 -131.6239119140785 -554.2506462946343 -49.82107311602569 0.0 0.0
-1043.4400187852948 -148.63246256816956 -595.1648762022226 -50.03380057170446 0.0 0.0
-1107.2506327693727 -169.50717993924616 -637.5244371399676 -49.43630724333178 0.0 0.0
-1169.8908696015567 -192.6538551447233 -680.4500638606651 -48.552608102557514 0.0 0.0
-1228.1379910463195 -215.51676110638275 -721.047801415993 -47.38640347074372 0.0 0.0
-1278.272025724956 -232.81269422910293 -754.826661882041 -45.66274967790705 0.0 0.0
-1313.087292393887 -237.80845866108916 -774.8403151439818 -43.35000872260656 0.0 0.0
-1316.892912635133 -215.64118307869313 -765.8879748060814 -41.96230440109139 0.0 0.0
-1246.4081369241808 -125.36768003346992 -685.9164043081623 -44.71931251141161 0.0 0.0
-1034.4185211421282 96.22306826220682 -469.45609178746173 -53.5077946694744 0.0 0.0
-732.1916228051359 391.9713704663644 -170.40062437326316 -67.11303988865276 0.0 0.0
-3889.4642168025193 -2801.1200448103405 -3338.4340590254606 7.273648350292206e-11 0.0 0.0
-732.1916228070551 391.97137046442356 -170.4006243744367 67.11303988851763 0.0 0.0
-1034.4185211399513 96.2230682643454 -469.4560917862012 53.507794669427945 0.0 0.0
-1246.4081369240107 -125.36768003339137 -685.9164043080171 44.71931251148399 0.0 0.0
-1316.892912636632 -215.641183080286 -765.8879748071406 41.96230440087173 0.0 0.0
-1313.0872923912557 -237.80845865859513 -774.8403151423278 43.350008722569186 0.0 0.0
-1278.2720257240333 -232.81269422836496 -754.8266618816459 45.662749677801344 0.0 0.0
-1228.1379910468288 -215.51676110713427 -721.0478014162037 47.386403470903815 0.0 0.0
-1169.8908696012875 -192.65385514469895 -680.450063860542 48.552608102694236 0.0 0.0
-1107.2506327690098 -169.5071799391159 -637.5244371397143 49.4363072432791 0.0 0.0
-1043.4400187854585 -148.63246256858764 -595.1648762023694 50.03380057164545 0.0 0.0
-978.6960773856166 -131.62391191333296 -554.2506462939089 49.821073116079994 0.0 0.0
-910.6957648011429 -116.79735787281683 -512.5206002254699 48.500422603921564 0.0 0.0
-834.2234959513838 -99.68904116031223 -463.5209342048502 46.758917884330366 0.0 0.0
-745.096752340694 -79.67366568108963 -396.710288340772 45.88257068608756 0.0 0.0
-644.0006535499459 -55.71093868425526 -297.23672144162674 46.076355311981395 0.0 0.0
-505.18694752863064 -25.602121037952596 -180.84966467500962 51.9787219014321 0.0 0.0
-338.7968420170304 -4.900560285890168 -102.98246671152731 69.69288963800182 0.0 0.0
-193.73108982777092 -1.034531660788359 -58.42968644656778 72.20198240758864 0.0 0.0
-90.06687670483436 -26.776555719849682 -35.05302972740522 49.994557637921 0.0 0.0
-38.82280981345626 -21.569323525051182 -18.11764000155223 26.51141691847077 0.0 0.0
-35.21116808035164 -12.061038104682066 -14.181661855510109 -14.852815370798396 0.0 0.0
-88.25427184797212 -17.47150081999664 -31.717731800390617 -25.05682220993631 0.0 0.0
-207.39936876193548 -1.335803612704273 -62.62055171239193 -35.02411927558701 0.0 0.0
-379.3823328675874 -11.694314643153648 -118.47324825784386 -32.13295880187725 0.0 0.0
-555.9948047092128 -39.006235710024484 -214.24748685831545 -23.899053203648844 0.0 0.0
-678.9690246668562 -62.861004576985984 -330.38190873357894 -24.40607354906051 0.0 0.0
-775.5244457876693 -85.36595478612767 -419.9058411028674 -24.850486023633287 0.0 0.0
-866.2371095808243 -110.2580227513033 -485.99238492945926 -25.1988425156273 0.0 0.0
-946.4945918295975 -131.4443901822147 -538.0622825115964 -26.100618918971758 0.0 0.0
-1018.4660800341143 -150.21619075112326 -583.7139057734994 -27.079472999881187 0.0 0.0
-1086.3738583235138 -169.86707638742425 -627.5402629496879 -27.573472239324236 0.0 0.0
-1152.9846523695405 -192.4055680282617 -672.1264799432707 -27.593046536367993 0.0 0.0
-1217.5636154740919 -217.55097342521915 -717.0178559868046 -27.28587684922572 0.0 0.0
-1276.5681619218126 -240.0793840185072 -757.8306532435494 -26.727900918843144 0.0 0.0
-1323.222920521841 -253.56759636583223 -787.9754839237589 -25.669406297147347 0.0 0.0
-1351.8033662738771 -252.360678592334 -801.7358591930129 -23.723002172087497 0.0 0.0
-1360.7973192938803 -235.45569016177876 -797.8012490331944 -21.285678365185337 0.0 0.0
-1343.5212518965072 -197.45304413892774 -770.3008768119682 -21.309973934199746 0.0 0.0
-1205.291457264867 -46.796250430257714 -626.4518259533763 -30.00011961711519 0.0 0.0
-698.8185202599843 456.7097218556455 -121.74556791926852 -51.240004396009624 0.0 0.0
-3818.1276109922615 -2693.079032131963 -3250.334453886321 5.398703706305241e-11 0.0 0.0
-698.818520258282 456.7097218572775 -121.74556791803468 51.24000439596301 0.0 0.0
-1205.291457264504 -46.796250429919425 -626.4518259530518 30.000119617235868 0.0 0.0
-1343.521251896178 -197.4530441387142 -770.3008768117686 21.309973934242663 0.0 0.0
-1360.7973192942773 -235.45569016232932 -797.8012490335021 21.285678365179056 0.0 0.0
-1351.8033662726075 -252.36067859117787 -801.7358591921218 23.723002172218788 0.0 0.0
-1323.2229205186684 -253.56759636278147 -787.9754839215672 25.669406296936973 0.0 0.0
-1276.5681619225427 -240.0793840194865 -757.8306532440527 26.727900918986286 0.0 0.0
-1217.563615474627 -217.5509734259847 -717.0178559873043 27.2858768493991 0.0 0.0
-1152.9846523695132 -192.40556802849252 -672.1264799433498 27.59304653623226 0.0 0.0
-1086.373858323175 -169.86707638736658 -627.5402629495179 27.573472239348916 0.0 0.0
-1018.4660800328987 -150.21619075017537 -583.7139057726401 27.079472999896637 0.0 0.0
-946.4945918296297 -131.44439018253104 -538.0622825116106 26.10061891880234 0.0 0.0
-866.2371095809347 -110.25802275174046 -485.99238492947393 25.198842515487023 0.0 0.0
-775.524445787266 -85.36595478609053 -419.9058411025052 24.85048602380666 0.0 0.0
-678.9690246660768 -62.861004576480056 -330.38190873291444 24.406073549034588 0.0 0.0
-555.994804708643 -39.00623570984781 -214.24748685787287 23.899053203538045 0.0 0.0
-379.38233286711767 -11.694314643111671 -118.47324825767548 32.13295880167727 0.0 0.0
-207.39936876172152 -1.3358036128050665 -62.62055171235795 35.0241192755086 0.0 0.0
-88.25427184773257 -17.4715008198989 -31.71773180028943 25.05682220986226 0.0 0.0
-35.21116808032211 -12.061038104708024 -14.181661855509038 14.852815370664342 0.0 0.0
-23.642964290010113 -6.319766129358021 -8.988819125810439 -8.969120157226083 0.0 0.0
-77.581628040712 -10.038834346292582 -26.28613871610137 -10.417711039175325 0.0 0.0
-218.99936767059143 -4.261084028346211 -66.97813550968128 -11.288147169949452 0.0 0.0
-428.65769482755417 -34.200479806676626 -143.5337356872419 -6.317533620517529 0.0 0.0
-634.4343063335873 -94.52557461063017 -272.9021937569457 1.2796212756978278 0.0 0.0
-788.678956929375 -154.5154786857227 -424.4748213135138 1.3962662762254574 0.0 0.0
-931.0622061192083 -225.5849238777815 -557.9232714171924 0.12087703758112411 0.0 0.0
-1082.3423833581155 -312.5148239656194 -684.5991892396935 -1.505508909686565 0.0 0.0
-1243.7596411583095 -415.50503626404173 -818.2938351296154 -3.4224252153824786 0.0 0.0
-1424.7803936802447 -542.9601555282035 -972.5585427946792 -5.480298317825005 0.0 0.0
-1631.7220003046737 -700.9483697635586 -1154.6188349430222 -7.330911173211751 0.0 0.0
-1864.0472020105021 -889.1733697012269 -1364.4346889509889 -8.714143004011683 0.0 0.0
-2113.996189711235 -1098.6863832333775 -1593.7542126990884 -9.63030932189016 0.0 0.0
-2369.009184557476 -1316.7604346890157 -1829.9969566596078 -10.294227683188742 0.0 0.0
-2610.3773496309645 -1524.619472245662 -2054.42943286592 -10.47562094854699 0.0 0.0
-2813.420865213346 -1697.8068123169526 -2242.4795331602645 -9.873931937069852 0.0 0.0
-2952.139383146465 -1810.910418614549 -2368.3194664377993 -8.297021545220204 0.0 0.0
-3024.4957668546813 -1862.60458434241 -2429.8024603736826 -7.531474171747071 0.0 0.0
-3123.2873334728165 -1947.173435611267 -2519.999349229465 -15.631222360904669 0.0 0.0
-3260.9525144606996 -2083.50832263808 -2654.925222089926 -41.4189706879844 0.0 0.0
-6923.362707537467 -5770.256351278722 -6323.472255358418 1.1864642601722153e-10 0.0 0.0
-3260.9525144557992 -2083.5083226331035 -2654.9252220866156 41.41897068777536 0.0 0.0
-3123.287333473386 -1947.1734356119377 -2519.9993492292233 15.631222360877103 0.0 0.0
-3024.4957668522757 -1862.6045843400593 -2429.802460371695 7.531474171711476 0.0 0.0
-2952.139383144802 -1810.9104186130803 -2368.31946643635 8.297021545199062 0.0 0.0
-2813.420865213467 -1697.8068123172002 -2242.479533159966 9.87393193723885 0.0 0.0
-2610.3773496275494 -1524.6194722424063 -2054.429432862957 10.475620948559623 0.0 0.0
-2369.0091845580737 -1316.7604346898763 -1829.9969566597435 10.294227683428034 0.0 0.0
-2113.9961897109297 -1098.6863832333165 -1593.7542126985873 9.630309322091513 0.0 0.0
-1864.0472020090829 -889.1733697000527 -1364.4346889498547 8.714143003869474 0.0 0.0
-1631.7220003030325 -700.9483697621847 -1154.6188349417698 7.330911173127092 0.0 0.0
-1424.7803936788987 -542.9601555271331 -972.5585427934599 5.48029831768935 0.0 0.0
-1243.7596411580462 -415.5050362641213 -818.293835129219 3.422425215406026 0.0 0.0
-1082.3423833575785 -312.51482396542974 -684.5991892391709 1.5055089096239271 0.0 0.0
-931.0622061182705 -225.58492387716038 -557.9232714164023 -0.12087703752017376 0.0 0.0
-788.6789569290236 -154.51547868569492 -424.47482131302877 -1.3962662761367355 0.0 0.0
-634.4343063333832 -94.52557461089383 -272.90219375665237 -1.2796212757488163 0.0 0.0
-428.65769482711596 -34.20047980656487 -143.5337356870355 6.317533620143195 0.0 0.0
-218.99936767041044 -4.261084028508492 -66.97813550967565 11.28814717004293 0.0 0.0
-77.5816280405072 -10.038834346185688 -26.286138716007876 10.417711039122098 0.0 0.0
-23.642964289804254 -6.319766129281157 -8.988819125725623 8.969120157190245 0.0 0.0
SCALARS Strain float 6
LOOKUP_TABLE default
0.01615257319418628 -0.026453677427685528 0.0 -0.0018459461419697335 0.0 0.0
0.009955955441937371 -0.0033102180391111364 0.0 -0.00791943738704377 0.0 0.0
0.002908614269843984 -0.0006538665909668535 0.0 -0.0010376811085720716 0.0 0.0
0.002425199638644428 -0.0009603366267243781 0.0 4.230367850410107e-05 0.0 0.0
0.0038294776829196145 -0.0017650356882761243 0.0 0.00028032723995779227 0.0 0.0
0.006916886782923581 -0.004169589463004289 0.0 0.00048018792020529844 0.0 0.0
0.012287239771469949 -0.008853902150199454 0.0 0.0006234474586162152 0.0 0.0
0.020427111404008276 -0.016270193267231534 0.0 0.0006626285646286405 0.0 0.0
0.03169510297767739 -0.026738556799694523 0.0 0.0005852427503256106 0.0 0.0
0.046194644573387705 -0.04030541034584738 0.0 0.0003476119807952013 0.0 0.0
0.0637696666715574 -0.05677892176098637 0.0 -1.78473774876686e-05 0.0 0.0
0.08410944007733377 -0.0758508200071306 0.0 -0.0004836406525764687 0.0 0.0
0.10683995687883327 -0.09718871216292857 0.0 -0.001047966916729499 0.0 0.0
0.13155513854953946 -0.12043677689018317 0.0 -0.0016673216243712277 0.0 0.0
0.1577394808214091 -0.145142872747832 0.0 -0.002351332542889049 0.0 0.0
0.1846317315200959 -0.1706196105474791 0.0 -0.0030484645389143687 0.0 0.0
0.21114778415740665 -0.19585997950753614 0.0 -0.0036074965897822915 0.0 0.0
0.23590127938341554 -0.21955071908587298 0.0 -0.003824634891024999 0.0 0.0
0.2573346818636095 -0.24012931024173434 0.0 -0.0036076670164864005 0.0 0.0
0.2734669826389174 -0.25570681863237277 0.0 -0.004598881928879039 0.0 0.0
0.27991215663675817 -0.26219717837891005 0.0 3.0912772341906702e-15 0.0 0.0
0.27346698263887986 -0.25570681863233924 0.0 0.004598881928895316 0.0 0.0
0.257334681863532 -0.24012931024167106 0.0 0.0036076670164994634 0.0 0.0
0.23590127938330613 -0.21955071908577095 0.0 0.0038246348910249 0.0 0.0
0.21114778415727808 -0.19585997950740192 0.0 0.0036074965897791526 0.0 0.0
0.18463173151995765 -0.17061961054734853 0.0 0.0030484645389075114 0.0 0.0
0.15773948082126987 -0.14514287274770418 0.0 0.002351332542888206 0.0 0.0
0.13155513854940237 -0.12043677689004992 0.0 0.001667321624373005 0.0 0.0
0.10683995687869946 -0.09718871216279454 0.0 0.0010479669167240751 0.0 0.0
0.08410944007721158 -0.07585082000701883 0.0 0.0004836406525711937 0.0 0.0
0.06376966667145156 -0.0567789217608851 0.0 1.784737747743178e-05 0.0 0.0
0.04619464457330101 -0.04030541034576489 0.0 -0.00034761198079381493 0.0 0.0
0.031695102977612404 -0.02673855679963562 0.0 -0.0005852427503236907 0.0 0.0
0.02042711140396196 -0.016270193267192493 0.0 -0.0006626285646277324 0.0 0.0
0.012287239771439739 -0.008853902150175131 0.0 -0.0006234474586128999 0.0 0.0
0.00691688678290658 -0.004169589462993919 0.0 -0.00048018792020503693 0.0 0.0
0.003829477682912757 -0.0017650356882728847 0.0 -0.0002803272399573383 0.0 0.0
0.002425199638642292 -0.0009603366267253314 0.0 -4.230367850347951e-05 0.0 0.0
0.0029086142698413133 -0.0006538665909653803 0.0 0.001037681108572487 0.0 0.0
0.009955955441930862 -0.003310218039106669 0.0 0.007919437387032977 0.0 0.0
0.01615257319417713 -0.026453677427660093 0.0 0.0018459461419178232 0.0 0.0
0.011466332662307014 -0.02381692458880103 0.0 -0.0013879513140551594 0.0 0.0
0.006696247815830779 -0.0024937572614257683 0.0 -0.0065925897687987775 0.0 0.0
0.0018669673919655102 -0.00047797361281308524 0.0 -0.0006467814544769915 0.0 0.0
0.002113978358867969 -0.00089853797949069 0.0 -0.000179192593939279 0.0 0.0
0.003260665237235296 -0.001572096854896035 0.0 -0.00014266394462992134 0.0 0.0
0.005895180569503616 -0.0037356702689139033 0.0 -0.00027406505969038245 0.0 0.0
0.010681263942544794 -0.00811044294924114 0.0 -0.0006860168909809877 0.0 0.0
0.018070385610993923 -0.01514416598414045 0.0 -0.001355914540578604 0.0 0.0
0.02834697443472515 -0.02511375918025266 0.0 -0.0023080149161247786 0.0 0.0
0.04153558797739338 -0.03802554786911936 0.0 -0.0035047546084896394 0.0 0.0
0.057449895877146766 -0.05367246502671874 0.0 -0.004832694110491311 0.0 0.0
0.07580703878056845 -0.07175778089659851 0.0 -0.0061935587442975394 0.0 0.0
0.09630666243600056 -0.09198187279497501 0.0 -0.007572425420966238 0.0 0.0
0.11860946545144252 -0.11402594603805871 0.0 -0.008962681143970239 0.0 0.0
0.1422640001140209 -0.13746840833489393 0.0 -0.01030822673390938 0.0 0.0
0.1666116652671459 -0.16167536823890064 0.0 -0.011463881492161258 0.0 0.0
0.1907101228847928 -0.18571758483190237 0.0 -0.012131540857730074 0.0 0.0
0.21332350810181738 -0.2083546038380787 0.0 -0.011967051417084928 0.0 0.0
0.2328462093008057 -0.2280289287749599 0.0 -0.010929969322741056 0.0 0.0
0.24683493261252606 -0.24261379509462905 0.0 -0.010280703009248002 0.0 0.0
0.25206412519138954 -0.2487387219793657 0.0 9.162809400109495e-15 0.0 0.0
0.2468349326124913 -0.2426137950945922 0.0 0.010280703009274325 0.0 0.0
0.23284620930073574 -0.22802892877489433 0.0 0.010929969322770924 0.0 0.0
0.21332350810172201 -0.2083546038379838 0.0 0.011967051417104614 0.0 0.0
0.19071012288468012 -0.18571758483179077 0.0 0.01213154085773114 0.0 0.0
0.16661166526702176 -0.16167536823877973 0.0 0.011463881492151343 0.0 0.0
0.1422640001138956 -0.13746840833477386 0.0 0.010308226733906193 0.0 0.0
0.11860946545131906 -0.1140259460379322 0.0 0.008962681143969371 0.0 0.0
0.09630666243588064 -0.09198187279484646 0.0 0.007572425420956655 0.0 0.0
0.07580703878045816 -0.07175778089649062 0.0 0.006193558744288112 0.0 0.0
0.05744989587705142 -0.05367246502662286 0.0 0.004832694110477468 0.0 0.0
0.041535587977315436 -0.038025547869043115 0.0 0.0035047546084837596 0.0 0.0
0.02834697443466554 -0.02511375918019895 0.0 0.0023080149161187197 0.0 0.0
0.01807038561095206 -0.015144165984098321 0.0 0.0013559145405732786 0.0 0.0
0.010681263942518 -0.008110442949219334 0.0 0.0006860168909785246 0.0 0.0
0.005895180569488778 -0.003735670268903207 0.0 0.0002740650596884235 0.0 0.0
0.0032606652372298367 -0.001572096854892306 0.0 0.00014266394463020548 0.0 0.0
0.0021139783588673346 -0.0008985379794911018 0.0 0.00017919259393998183 0.0 0.0
0.0018669673919655414 -0.00047797361281360143 0.0 0.0006467814544757197 0.0 0.0
0.00669624781582322 -0.002493757261421488 0.0 0.006592589768785748 0.0 0.0
0.011466332662292349 -0.023816924588773877 0.0 0.0013879513140144547 0.0 0.0
0.00849496277186987 -0.019144954892482646 0.0 -0.004673945000216343 0.0 0.0
0.004792798813918198 -0.001409238056761913 0.0 -0.006806873918397267 0.0 0.0
0.0012792026643532678 -0.0002312318209431464 0.0 -0.0005599699954920456 0.0 0.0
0.001773007314691574 -0.0007486995058327883 0.0 -0.000477233863302012 0.0 0.0
0.0027454666573322353 -0.0012343363204152357 0.0 -0.0005162968426335 0.0 0.0
0.004929710782579483 -0.0029157419977809485 0.0 -0.0007731995245425265 0.0 0.0
0.009096583963153363 -0.006648121624629738 0.0 -0.001562030276799002 0.0 0.0
0.015690668153591436 -0.012894885284776716 0.0 -0.0028447131985555618 0.0 0.0
0.024920255967997424 -0.021839270626047465 0.0 -0.0046415287362772464 0.0 0.0
0.03675582763296868 -0.033422176365108754 0.0 -0.006834408380655161 0.0 0.0
0.050989781752146815 -0.04740572235916302 0.0 -0.009214362447423479 0.0 0.0
0.0673597516416756 -0.06351648236620247 0.0 -0.011602046803504816 0.0 0.0
0.08561276920441666 -0.08150874430463353 0.0 -0.013955403287677819 0.0 0.0
0.10548058583084452 -0.10113179674069545 0.0 -0.01630797467936114 0.0 0.0
0.1265948471161827 -0.12203891452039048 0.0 -0.01858508271242509 0.0 0.0
0.14841069508499866 -0.14370790024488947 0.0 -0.0205242188046431 0.0 0.0
0.17013921871817902 -0.1653658339997797 0.0 -0.021664653454673274 0.0 0.0
0.19064695327964626 -0.18590858634713012 0.0 -0.021521472889979975 0.0 0.0
0.208279089893269 -0.2037728868549881 0.0 -0.019956732696371153 0.0 0.0
0.22090358005187152 -0.2167419594785509 0.0 -0.017207494041189337 0.0 0.0
0.2256777625276322 -0.22252732686675475 0.0 2.0258100752457153e-14 0.0 0.0
0.2209035800518393 -0.21674195947851907 0.0 0.017207494041237316 0.0 0.0
0.20827908989320706 -0.2037728868549191 0.0 0.019956732696418546 0.0 0.0
0.19064695327956213 -0.18590858634703744 0.0 0.02152147289000969 0.0 0.0
0.17013921871807944 -0.1653658339996738 0.0 0.021664653454672646 0.0 0.0
0.1484106950848893 -0.14370790024478672 0.0 0.02052421880463752 0.0 0.0
0.1265948471160718 -0.12203891452027599 0.0 0.01858508271242088 0.0 0.0
0.10548058583073375 -0.10113179674058458 0.0 0.01630797467935792 0.0 0.0
0.08561276920430956 -0.08150874430452207 0.0 0.013955403287665015 0.0 0.0
0.06735975164157769 -0.06351648236610473 0.0 0.011602046803485807 0.0 0.0
0.05098978175206231 -0.04740572235907816 0.0 0.009214362447404837 0.0 0.0
0.03675582763289933 -0.033422176365037956 0.0 0.0068344083806404585 0.0 0.0
0.024920255967943575 -0.021839270625995173 0.0 0.00464152873626566 0.0 0.0
0.015690668153554167 -0.012894885284739473 0.0 0.0028447131985488055 0.0 0.0
0.009096583963130329 -0.006648121624610142 0.0 0.0015620302767924074 0.0 0.0
0.00492971078256724 -0.002915741997770109 0.0 0.0007731995245390771 0.0 0.0
0.002745466657328054 -0.001234336320411559 0.0 0.0005162968426338281 0.0 0.0
0.0017730073146908743 -0.0007486995058326896 0.0 0.00047723386330279186 0.0 0.0
0.0012792026643532687 -0.00023123182094349047 0.0 0.0005599699954888753 0.0 0.0
0.004792798813910788 -0.0014092380567579852 0.0 0.006806873918381645 0.0 0.0
0.008494962771854825 -0.019144954892454703 0.0 0.004673945000189742 0.0 0.0
0.006477555721840366 -0.015498580992336062 0.0 -0.0051233864475153145 0.0 0.0
0.0035689547672502833 -0.0010093393298566344 0.0 -0.006231185156476863 0.0 0.0
0.0009027155222248355 -0.00012556132911102863 0.0 -0.0008350231842517986 0.0 0.0
0.0014499739736069394 -0.0005836355248704099 0.0 -0.0007864151941978302 0.0 0.0
0.002279841798397684 -0.0009743017458950785 0.0 -0.0008576412748850177 0.0 0.0
0.004040264943570386 -0.002211073155655599 0.0 -0.0011794404478737378 0.0 0.0
0.007559884338626968 -0.0052567030305721565 0.0 -0.002155665677357962 0.0 0.0
0.013313665972778287 -0.010664236973923233 0.0 -0.003922958590804776 0.0 0.0
0.021454259550220397 -0.01853748821195279 0.0 -0.006353230395351816 0.0 0.0
0.03190321708597746 -0.028755563621520118 0.0 -0.009289241741782325 0.0 0.0
0.044435676711067365 -0.041056961020578764 0.0 -0.012447538759921474 0.0 0.0
0.05880800161890869 -0.055185243137331266 0.0 -0.015609817966779412 0.0 0.0
0.07480808231004914 -0.07093792543163532 0.0 -0.018721289714932744 0.0 0.0
0.0922228693718131 -0.08812310185370685 0.0 -0.021797343744587645 0.0 0.0
0.11077692845637802 -0.10647656929485917 0.0 -0.024756344441589813 0.0 0.0
0.1300550444248035 -0.1255983521043995 0.0 -0.02731663376982538 0.0 0.0
0.14940841487163675 -0.14487137208381487 0.0 -0.028958147241777227 0.0 0.0
0.16781873556345886 -0.16332447757704047 0.0 -0.029082468202874797 0.0 0.0
0.18379122372569487 -0.17947856486772004 0.0 -0.02709183536135964 0.0 0.0
0.19551689952618262 -0.19142260043615653 0.0 -0.02200738950636882 0.0 0.0
0.20008364420626015 -0.19739708278753132 0.0 2.8237828741950466e-14 0.0 0.0
0.19551689952615384 -0.19142260043612935 0.0 0.0220073895064328 0.0 0.0
0.18379122372564063 -0.17947856486765765 0.0 0.02709183536142075 0.0 0.0
0.1678187355633849 -0.16332447757696597 0.0 0.029082468202910328 0.0 0.0
0.1494084148715499 -0.1448713720837107 0.0 0.02895814724177663 0.0 0.0
0.1300550444247085 -0.12559835210431 0.0 0.027316633769819278 0.0 0.0
0.11077692845628022 -0.1064765692947514 0.0 0.0247563444415799 0.0 0.0
0.09222286937171587 -0.08812310185361372 0.0 0.021797343744577456 0.0 0.0
0.07480808230995545 -0.07093792543154254 0.0 0.01872128971491667 0.0 0.0
0.058808001618823505 -0.055185243137244155 0.0 0.015609817966755174 0.0 0.0
0.044435676710993945 -0.04105696102050479 0.0 0.012447538759901561 0.0 0.0
0.03190321708591701 -0.02875556362145988 0.0 0.00928924174176103 0.0 0.0
0.021454259550173677 -0.018537488211905283 0.0 0.006353230395336293 0.0 0.0
0.013313665972745508 -0.010664236973892866 0.0 0.0039229585907955816 0.0 0.0
0.007559884338606918 -0.005256703030556132 0.0 0.0021556656773498227 0.0 0.0
0.004040264943560842 -0.0022110731556472503 0.0 0.0011794404478703666 0.0 0.0
0.002279841798395009 -0.00097430174589509 0.0 0.0008576412748839165 0.0 0.0
0.0014499739736068835 -0.000583635524869313 0.0 0.0007864151941982705 0.0 0.0
0.0009027155222249693 -0.00012556132911108978 0.0 0.0008350231842490009 0.0 0.0
0.0035689547672437772 -0.0010093393298529706 0.0 0.006231185156463123 0.0 0.0
0.006477555721827234 -0.01549858099231067 0.0 0.005123386447496767 0.0 0.0
0.004955486047432308 -0.012547228033428412 0.0 -0.00453533935975555 0.0 0.0
0.002692121481852406 -0.0007904326230687848 0.0 -0.005550771036898178 0.0 0.0
0.0006524359789058981 -7.9280494007253e-05 0.0 -0.001238858845805644 0.0 0.0
0.0011658549057985321 -0.0004412251036132873 0.0 -0.001125973964932215 0.0 0.0
0.0018625849850598614 -0.00076852310792925 0.0 -0.001190296932368277 0.0 0.0
0.0032421232178956342 -0.0016388865813223865 0.0 -0.0015129609349341358 0.0 0.0
0.006101596220401242 -0.003985818470144167 0.0 -0.002540819335043414 0.0 0.0
0.010969592467045151 -0.00848530038264811 0.0 -0.004554226773372873 0.0 0.0
0.0179895046082818 -0.01525013527814045 0.0 -0.007433203292813511 0.0 0.0
0.027022541832546716 -0.024074212369716522 0.0 -0.010866998038658314 0.0 0.0
0.03783548944871126 -0.03467542165631926 0.0 -0.014542956808800668 0.0 0.0
0.05019662131822078 -0.04680978537809383 0.0 -0.018222011395145257 0.0 0.0
0.06393267745235927 -0.06031434606253051 0.0 -0.02184957256056732 0.0 0.0
0.07889126907932753 -0.07505422789148318 0.0 -0.025427473606376424 0.0 0.0
0.09487048782067173 -0.09084121559827146 0.0 -0.02884276825082812 0.0 0.0
0.11157157289318784 -0.10738611971462772 0.0 -0.031825988120487085 0.0 0.0
0.12850749548790882 -0.1242267725305441 0.0 -0.033926074735649646 0.0 0.0
0.14484835520155784 -0.14057513963271792 0.0 -0.03444548517907464 0.0 0.0
0.1593423921923811 -0.15519300284344675 0.0 -0.032213329667825724 0.0 0.0
0.17045355815376848 -0.16646599364337042 0.0 -0.02560333690024329 0.0 0.0
0.17496240666560023 -0.17286574930621487 0.0 3.152426236718853e-14 0.0 0.0
0.17045355815374222 -0.1664659936433412 0.0 0.025603336900317318 0.0 0.0
0.15934239219233326 -0.15519300284339627 0.0 0.032213329667897465 0.0 0.0
0.1448483552014936 -0.14057513963266285 0.0 0.034445485179115214 0.0 0.0
0.12850749548783433 -0.12422677253046469 0.0 0.03392607473565773 0.0 0.0
0.11157157289310624 -0.10738611971454473 0.0 0.031825988120476725 0.0 0.0
0.09487048782058723 -0.09084121559818611 0.0 0.02884276825081246 0.0 0.0
0.07889126907924415 -0.07505422789140027 0.0 0.025427473606365894 0.0 0.0
0.06393267745227861 -0.060314346062445234 0.0 0.021849572560551683 0.0 0.0
0.05019662131814818 -0.04680978537801706 0.0 0.0182220113951192 0.0 0.0
0.037835489448648715 -0.03467542165625709 0.0 0.014542956808774477 0.0 0.0
0.027022541832493953 -0.024074212369669692 0.0 0.010866998038630869 0.0 0.0
0.0179895046082416 -0.015250135278098233 0.0 0.007433203292799107 0.0 0.0
0.010969592467017652 -0.008485300382621429 0.0 0.004554226773358055 0.0 0.0
0.0061015962203851675 -0.003985818470131284 0.0 0.002540819335033212 0.0 0.0
0.003242123217888348 -0.001638886581317201 0.0 0.0015129609349309998 0.0 0.0
0.0018625849850579415 -0.0007685231079280722 0.0 0.0011902969323678554 0.0 0.0
0.0011658549057984818 -0.0004412251036108771 0.0 0.0011259739649306958 0.0 0.0
0.0006524359789059402 -7.928049400805485e-05 0.0 0.001238858845804837 0.0 0.0
0.002692121481846872 -0.0007904326230657338 0.0 0.005550771036886036 0.0 0.0
0.004955486047420782 -0.012547228033406382 0.0 0.004535339359742017 0.0 0.0
0.0037482103596097587 -0.010073733068154567 0.0 -0.003739155833531605 0.0 0.0
0.002021836815974447 -0.0006347598686906222 0.0 -0.004884538573579376 0.0 0.0
0.00047611291170250613 -6.800519994069854e-05 0.0 -0.0016301812272240084 0.0 0.0
0.0009155131182263813 -0.00031867514217308736 0.0 -0.0014659890852670428 0.0 0.0
0.0014908668366128042 -0.0006038093555511838 0.0 -0.0015237698413000356 0.0 0.0
0.0025357599622275683 -0.0011916923371389934 0.0 -0.0017945638410117467 0.0 0.0
0.004758465687146705 -0.0028809001369437984 0.0 -0.00279232837505246 0.0 0.0
0.008706110136822499 -0.006421891772997905 0.0 -0.004802980942049008 0.0 0.0
0.014558193621621824 -0.012019409913557091 0.0 -0.00786076762407903 0.0 0.0
0.022157763297614506 -0.01942551800473788 0.0 -0.011561971323773344 0.0 0.0
0.031234707036730786 -0.028310508223378224 0.0 -0.015498960763081871 0.0 0.0
0.04157433192940649 -0.038440886919241544 0.0 -0.019439430756231606 0.0 0.0
0.0530382235660147 -0.049688881671033004 0.0 -0.023328021536525176 0.0 0.0
0.06552898119670013 -0.06197656627286027 0.0 -0.027165423514372573 0.0 0.0
0.07892279913438527 -0.07518792167577042 0.0 -0.030830025363439532 0.0 0.0
0.09301316934818911 -0.08912301132429476 0.0 -0.03405311881568601 0.0 0.0
0.10746442048985362 -0.10345976889221893 0.0 -0.03647058195125885 0.0 0.0
0.12171341893913565 -0.11766130458440763 0.0 -0.03740682767596956 0.0 0.0
0.134825238329088 -0.13083327620499113 0.0 -0.03537574566263279 0.0 0.0
0.14550688300400985 -0.14164713753809374 0.0 -0.028198276459431473 0.0 0.0
0.15006126991068486 -0.14865725129180235 0.0 3.3003981492196743e-14 0.0 0.0
0.145506883003987 -0.14164713753806782 0.0 0.028198276459508384 0.0 0.0
0.13482523832904683 -0.13083327620493915 0.0 0.03537574566270882 0.0 0.0
0.12171341893908133 -0.11766130458434959 0.0 0.037406827676015525 0.0 0.0
0.1074644204897905 -0.10345976889215819 0.0 0.036470581951268774 0.0 0.0
0.09301316934812033 -0.0891230113242247 0.0 0.03405311881567462 0.0 0.0
0.07892279913431535 -0.07518792167569804 0.0 0.03083002536342324 0.0 0.0
0.06552898119663149 -0.06197656627278682 0.0 0.027165423514358918 0.0 0.0
0.05303822356594775 -0.04968888167096401 0.0 0.023328021536507836 0.0 0.0
0.04157433192934589 -0.03844088691917696 0.0 0.01943943075620563 0.0 0.0
0.031234707036678785 -0.028310508223328184 0.0 0.01549896076305348 0.0 0.0
0.022157763297571346 -0.01942551800469512 0.0 0.011561971323745715 0.0 0.0
0.014558193621588538 -0.012019409913526185 0.0 0.007860767624059985 0.0 0.0
0.008706110136799899 -0.0064218917729758915 0.0 0.004802980942033638 0.0 0.0
0.004758465687134599 -0.0028809001369337903 0.0 0.002792328375045115 0.0 0.0
0.0025357599622229067 -0.001191692337132877 0.0 0.0017945638410075903 0.0 0.0
0.0014908668366114533 -0.0006038093555498652 0.0 0.0015237698413002306 0.0 0.0
0.000915513118226124 -0.00031867514217124866 0.0 0.001465989085263828 0.0 0.0
0.00047611291170252716 -6.800519994164933e-05 0.0 0.0016301812272217807 0.0 0.0
0.00202183681596951 -0.0006347598686877532 0.0 0.004884538573569621 0.0 0.0
0.0037482103596003353 -0.010073733068136206 0.0 0.003739155833521263 0.0 0.0
0.0027779227176136 -0.007974939546040918 0.0 -0.0030056580198143694 0.0 0.0
0.0014943709418764844 -0.000511264169026234 0.0 -0.004278824206659759 0.0 0.0
0.0003414385595506881 -7.075872755438591e-05 0.0 -0.0019539618064137016 0.0 0.0
0.0006876391783674998 -0.00021055547293126413 0.0 -0.0017776863223368878 0.0 0.0
0.0011538192340385534 -0.0004614533846155995 0.0 -0.0018404267603883994 0.0 0.0
0.0019149491406179578 -0.0008535298737311778 0.0 -0.0020637530534750497 0.0 0.0
0.0035433225784840226 -0.001964140296714889 0.0 -0.0029154047173935707 0.0 0.0
0.006577204284350009 -0.004548465024771605 0.0 -0.0047790551258949775 0.0 0.0
0.011220637039015827 -0.008914458254529594 0.0 -0.007687067422086984 0.0 0.0
0.017349951152347356 -0.014860754006422908 0.0 -0.011355170396517691 0.0 0.0
0.02468032872016242 -0.022013659470127588 0.0 -0.015301364364412734 0.0 0.0
0.03298896788422157 -0.030131708458072365 0.0 -0.019252829324950444 0.0 0.0
0.042173465525814066 -0.03911865829956291 0.0 -0.023144750428584857 0.0 0.0
0.05219068063460626 -0.04894658273075004 0.0 -0.02699129596558522 0.0 0.0
0.06298269516842517 -0.05956949433281929 0.0 -0.03068367042123287 0.0 0.0
0.0744263327604025 -0.0708681483182303 0.0 -0.03396212603787736 0.0 0.0
0.08632759573711928 -0.08263164647469973 0.0 -0.03650095122718369 0.0 0.0
0.09840075285630637 -0.09458736640054084 0.0 -0.03782075075339924 0.0 0.0
0.1101082198808676 -0.10627809100692659 0.0 -0.036463842154550265 0.0 0.0
0.12045633545531811 -0.11673382657280626 0.0 -0.02978682251433968 0.0 0.0
0.1251334009722544 -0.12452459802394844 0.0 3.5019730171281793e-14 0.0 0.0
0.12045633545529916 -0.11673382657278208 0.0 0.02978682251441729 0.0 0.0
0.11010821988083346 -0.10627809100687834 0.0 0.036463842154626995 0.0 0.0
0.09840075285626203 -0.09458736640049861 0.0 0.03782075075344253 0.0 0.0
0.08632759573706804 -0.08263164647465257 0.0 0.03650095122719303 0.0 0.0
0.07442633276034606 -0.07086814831817391 0.0 0.03396212603786512 0.0 0.0
0.06298269516836806 -0.059569494332755046 0.0 0.030683670421216787 0.0 0.0
0.05219068063455207 -0.04894658273069458 0.0 0.02699129596556707 0.0 0.0
0.04217346552576203 -0.03911865829951762 0.0 0.023144750428564904 0.0 0.0
0.03298896788417313 -0.030131708458022065 0.0 0.01925282932492505 0.0 0.0
0.0246803287201199 -0.022013659470090274 0.0 0.01530136436438273 0.0 0.0
0.017349951152312332 -0.014860754006390905 0.0 0.011355170396490876 0.0 0.0
0.01122063703898993 -0.008914458254511176 0.0 0.007687067422068573 0.0 0.0
0.00657720428433297 -0.004548465024750255 0.0 0.004779055125887077 0.0 0.0
0.0035433225784747367 -0.001964140296710346 0.0 0.0029154047173871487 0.0 0.0
0.0019149491406145781 -0.0008535298737283696 0.0 0.0020637530534721865 0.0 0.0
0.0011538192340379767 -0.000461453384617785 0.0 0.0018404267603862293 0.0 0.0
0.0006876391783670925 -0.0002105554729305341 0.0 0.0017776863223331108 0.0 0.0
0.0003414385595501903 -7.075872755556547e-05 0.0 0.001953961806409198 0.0 0.0
0.0014943709418728623 -0.0005112641690242998 0.0 0.004278824206652384 0.0 0.0
0.002777922717606589 -0.00797493954602586 0.0 0.0030056580198046193 0.0 0.0
0.0019990250588669293 -0.006199707028070727 0.0 -0.0024245606057323754 0.0 0.0
0.0010736391440870799 -0.00041412995146186324 0.0 -0.003734256793326101 0.0 0.0
0.00022744125575851587 -7.167371612427158e-05 0.0 -0.0021987601032720347 0.0 0.0
0.00047161441608563467 -0.00011332967406008448 0.0 -0.002042727527127101 0.0 0.0
0.0008359523486554505 -0.00032320627878420377 0.0 -0.0021168287019751983 0.0 0.0
0.001372464982358099 -0.0005957159619569232 0.0 -0.0023336328190237295 0.0 0.0
0.002467376664372632 -0.0012480531381213543 0.0 -0.002967113612391337 0.0 0.0
0.004614573788878982 -0.0029248373846821065 0.0 -0.004505035729744131 0.0 0.0
0.008043328475014504 -0.006029188129363616 0.0 -0.007018845397701217 0.0 0.0
0.012661907570339291 -0.01045771026349879 0.0 -0.010290905174425772 0.0 0.0
0.0182160306655225 -0.015845520206496613 0.0 -0.013936336081292041 0.0 0.0
0.024488989064248096 -0.021942843380872493 0.0 -0.017631141218889698 0.0 0.0
0.03139265537444686 -0.028667773437542787 0.0 -0.021273784260915404 0.0 0.0
0.038924334802103354 -0.03602915140327972 0.0 -0.024874199280241795 0.0 0.0
0.04709889137357924 -0.04404607393545018 0.0 -0.028369729841999817 0.0 0.0
0.055874791204334764 -0.052685404129243274 0.0 -0.03152216001940752 0.0 0.0
0.0651544979498565 -0.06182871991580599 0.0 -0.033985218365003525 0.0 0.0
0.07490466454686324 -0.07139246656343994 0.0 -0.035487086025241664 0.0 0.0
0.0850603521584161 -0.08140758017301536 0.0 -0.03516276917821075 0.0 0.0
0.09506038004391133 -0.09146544519174461 0.0 -0.030188281995698948 0.0 0.0
0.09990264153630378 -0.10020489908827311 0.0 2.929080589186839e-14 0.0 0.0
0.09506038004389657 -0.09146544519172908 0.0 0.03018828199577249 0.0 0.0
0.08506035215838952 -0.081407580172993 0.0 0.03516276917828676 0.0 0.0
0.07490466454682856 -0.07139246656340824 0.0 0.035487086025284116 0.0 0.0
0.06515449794981674 -0.061828719915766786 0.0 0.033985218365007196 0.0 0.0
0.055874791204291424 -0.05268540412920014 0.0 0.031522160019389636 0.0 0.0
0.047098891373536664 -0.04404607393540855 0.0 0.028369729841983382 0.0 0.0
0.038924334802064 -0.036029151403240034 0.0 0.0248741992802283 0.0 0.0
0.031392655374409724 -0.028667773437507843 0.0 0.02127378426089991 0.0 0.0
0.024488989064212516 -0.021942843380835464 0.0 0.01763114121886768 0.0 0.0
0.018216030665491177 -0.01584552020646719 0.0 0.013936336081263028 0.0 0.0
0.012661907570314329 -0.010457710263473328 0.0 0.01029090517440393 0.0 0.0
0.008043328474996345 -0.006029188129347473 0.0 0.007018845397687093 0.0 0.0
0.004614573788867224 -0.0029248373846695575 0.0 0.004505035729734192 0.0 0.0
0.0024673766643662823 -0.0012480531381179455 0.0 0.0029671136123843676 0.0 0.0
0.0013724649823556865 -0.0005957159619578877 0.0 0.0023336328190200735 0.0 0.0
0.0008359523486546372 -0.0003232062787823134 0.0 0.0021168287019728647 0.0 0.0
0.00047161441608520023 -0.00011332967406016576 0.0 0.002042727527125296 0.0 0.0
0.00022744125575842927 -7.167371612430135e-05 0.0 0.002198760103269008 0.0 0.0
0.0010736391440845769 -0.0004141299514617327 0.0 0.0037342567933188334 0.0 0.0
0.001999025058861772 -0.006199707028058443 0.0 0.0024245606057261863 0.0 0.0
0.0013960989059654738 -0.004733060640072132 0.0 -0.0020224970393854305 0.0 0.0
0.0007399920045600564 -0.00034507699567208177 0.0 -0.0032486645696949584 0.0 0.0
0.00011711580188891972 -5.8899923631640605e-05 0.0 -0.0023677244405343537 0.0 0.0
0.00026228364833561695 -2.4388637376097316e-05 0.0 -0.002252317204706464 0.0 0.0
0.000523970364919336 -0.00018054042335823495 0.0 -0.002333096387286472 0.0 0.0
0.0008830910160644348 -0.00037857362210193105 0.0 -0.0025870833747571836 0.0 0.0
0.0015347794245030909 -0.0007237921124082915 0.0 -0.0030351120787955464 0.0 0.0
0.0028525775819970753 -0.0016163880565068147 0.0 -0.004062550706589915 0.0 0.0
0.005079354907621934 -0.0034753046461913936 0.0 -0.005929531562614191 0.0 0.0
0.008167452677876115 -0.00633557833675261 0.0 -0.008475989447168887 0.0 0.0
0.011909836189477009 -0.009906477888435471 0.0 -0.01145482994054267 0.0 0.0
0.016125712587491924 -0.013960748136326334 0.0 -0.014575771000647992 0.0 0.0
0.020744102098704715 -0.018418029381856254 0.0 -0.017721891877049444 0.0 0.0
0.025785774958517103 -0.02331083691915918 0.0 -0.02084778236114432 0.0 0.0
0.03131804341350505 -0.028700351684694383 0.0 -0.023910222859869146 0.0 0.0
0.03739971292474858 -0.0346457583834937 0.0 -0.026779782190857634 0.0 0.0
0.04403140997433878 -0.041147457538635246 0.0 -0.02911532033039479 0.0 0.0
0.05128675636621854 -0.048209919604064816 0.0 -0.03055430865400127 0.0 0.0
0.059559114677905006 -0.05618394985441274 0.0 -0.031003815890167374 0.0 0.0
0.06902171487499441 -0.06553166821571042 0.0 -0.028891328366031786 0.0 0.0
0.07401858466991153 -0.07536186834111869 0.0 2.576411306520754e-14 0.0 0.0
0.06902171487498461 -0.06553166821570508 0.0 0.028891328366098576 0.0 0.0
0.059559114677886923 -0.05618394985439688 0.0 0.03100381589023568 0.0 0.0
0.05128675636619358 -0.048209919604038 0.0 0.030554308654037368 0.0 0.0
0.04403140997431026 -0.04114745753861058 0.0 0.02911532033039338 0.0 0.0
0.0373997129247195 -0.03464575838347191 0.0 0.02677978219083855 0.0 0.0
0.031318043413477895 -0.028700351684666562 0.0 0.02391022285985622 0.0 0.0
0.025785774958492897 -0.023310836919136064 0.0 0.020847782361136075 0.0 0.0
0.020744102098681303 -0.01841802938183593 0.0 0.017721891877037384 0.0 0.0
0.016125712587468435 -0.013960748136304182 0.0 0.014575771000629012 0.0 0.0
0.011909836189456522 -0.009906477888413062 0.0 0.011454829940519672 0.0 0.0
0.008167452677860136 -0.006335578336736724 0.0 0.008475989447151196 0.0 0.0
0.005079354907610297 -0.003475304646181786 0.0 0.0059295315626026 0.0 0.0
0.0028525775819900844 -0.0016163880565025959 0.0 0.004062550706582207 0.0 0.0
0.0015347794244997858 -0.0007237921124074954 0.0 0.0030351120787896453 0.0 0.0
0.0008830910160631755 -0.00037857362210170104 0.0 0.002587083374753726 0.0 0.0
0.0005239703649190787 -0.00018054042335684026 0.0 0.0023330963872844764 0.0 0.0
0.00026228364833535695 -2.4388637377826534e-05 0.0 0.0022523172047064464 0.0 0.0
0.00011711580188850438 -5.8899923630741354e-05 0.0 0.002367724440533123 0.0 0.0
0.0007399920045579938 -0.0003450769956724472 0.0 0.0032486645696891236 0.0 0.0
0.0013960989059618825 -0.004733060640062913 0.0 0.002022497039383777 0.0 0.0
0.0009537291915508493 -0.003553220489474828 0.0 -0.0017541884055839595 0.0 0.0
0.0004806076858007291 -0.0003089789377427556 0.0 -0.002839587621695345 0.0 0.0
1.294837143467755e-06 -2.5778065865759315e-05 0.0 -0.0024694229263953977 0.0 0.0
5.693812608130369e-05 5.892101834703175e-05 0.0 -0.0024020074569971145 0.0 0.0
0.0002109451445121846 -3.51914922335369e-05 0.0 -0.0024858807539345036 0.0 0.0
0.00041783151478923383 -0.00016775122883573413 0.0 -0.0027716875307093655 0.0 0.0
0.0007272643349891507 -0.0003309872546742757 0.0 -0.003153016849160833 0.0 0.0
0.0013175827121592665 -0.0006730752932486047 0.0 -0.0036781996838527713 0.0 0.0
0.002383832278785943 -0.0014384153805078485 0.0 -0.004619571052570014 0.0 0.0
0.003935317749073474 -0.002728601198876517 0.0 -0.006148444774464908 0.0 0.0
0.005834693710172015 -0.004420152834011235 0.0 -0.008205963644050407 0.0 0.0
0.007960300662570452 -0.0063850139697711385 0.0 -0.0105809073596066 0.0 0.0
0.010273453957092327 -0.00855809742469194 0.0 -0.013102238322162183 0.0 0.0
0.012817957203936152 -0.010973446259406262 0.0 -0.015700578072626693 0.0 0.0
0.015684962766071956 -0.013711921847549588 0.0 -0.018349720745320718 0.0 0.0
0.019017634501101874 -0.0169076298984574 0.0 -0.02098401968189305 0.0 0.0
0.0229778633652571 -0.020724049446016905 0.0 -0.023344396066232502 0.0 0.0
0.027699878758620546 -0.025300253499984063 0.0 -0.024859875231784505 0.0 0.0
0.033653882666099935 -0.030928964704199875 0.0 -0.025226458976340405 0.0 0.0
0.04199430935344522 -0.038742174298504954 0.0 -0.02532245132402658 0.0 0.0
0.04694660122335606 -0.049527902274127344 0.0 2.0201722239487907e-14 0.0 0.0
0.041994309353440756 -0.03874217429850856 0.0 0.025322451324082146 0.0 0.0
0.033653882666089444 -0.030928964704187753 0.0 0.025226458976391225 0.0 0.0
0.02769987875860577 -0.025300253499965446 0.0 0.02485987523180634 0.0 0.0
0.022977863365242414 -0.020724049445998614 0.0 0.02334439606622857 0.0 0.0
0.019017634501088152 -0.016907629898451692 0.0 0.020984019681878425 0.0 0.0
0.015684962766060247 -0.013711921847522951 0.0 0.018349720745309345 0.0 0.0
0.012817957203926747 -0.010973446259398842 0.0 0.015700578072616423 0.0 0.0
0.010273453957083083 -0.008558097424689553 0.0 0.013102238322149993 0.0 0.0
0.007960300662560222 -0.0063850139697578055 0.0 0.01058090735958881 0.0 0.0
0.005834693710163049 -0.004420152834001525 0.0 0.008205963644035074 0.0 0.0
0.003935317749066683 -0.0027286011988696558 0.0 0.006148444774453789 0.0 0.0
0.00238383227878105 -0.0014384153805037324 0.0 0.004619571052564159 0.0 0.0
0.0013175827121560907 -0.0006730752932440063 0.0 0.0036781996838513697 0.0 0.0
0.00072726433498797 -0.00033098725467467125 0.0 0.003153016849155745 0.0 0.0
0.00041783151478906534 -0.0001677512288361187 0.0 0.0027716875307068757 0.0 0.0
0.00021094514451230103 -3.51914922342709e-05 0.0 0.0024858807539310268 0.0 0.0
5.693812608127867e-05 5.892101834635872e-05 0.0 0.0024020074569953546 0.0 0.0
1.2948371430727326e-06 -2.5778065863604883e-05 0.0 0.002469422926395093 0.0 0.0
0.00048060768579966876 -0.0003089789377432961 0.0 0.002839587621691319 0.0 0.0
0.0009537291915489858 -0.0035532204894681467 0.0 0.0017541884055833254 0.0 0.0
0.0006391494016036024 -0.0026405851805808393 0.0 -0.0015902360060353372 0.0 0.0
0.0002788092445820139 -0.00029979025830014145 0.0 -0.002533533582531737 0.0 0.0
-0.00012095665513805315 2.4435953070140433e-05 0.0 -0.0025125671249135377 0.0 0.0
-0.00014548960496636216 0.00013932964059896216 0.0 -0.002487551514228171 0.0 0.0
-9.922150032091629e-05 0.0001086583134333163 0.0 -0.00257133923758142 0.0 0.0
-4.775306408691694e-05 4.780393596638842e-05 0.0 -0.002851336862460184 0.0 0.0
-1.9524737287947327e-05 1.2817998365479395e-05 0.0 -0.0032367573768580875 0.0 0.0
-8.168734515474885e-06 5.063222332712911e-06 0.0 -0.003543916936153297 0.0 0.0
-3.0423409758997258e-06 1.8995438283866641e-06 0.0 -0.0039358543770680555 0.0 0.0
-6.475536094457707e-07 2.638768386422426e-07 0.0 -0.004875580143186865 0.0 0.0
-3.689335678549164e-06 2.4203759131818697e-06 0.0 -0.006438257059527955 0.0 0.0
-1.9441897406530196e-05 1.8236030754379545e-05 0.0 -0.008454880485076612 0.0 0.0
-4.374131573321423e-05 4.410975032386735e-05 0.0 -0.010672689493120422 0.0 0.0
-3.296288549631417e-05 4.582606306386414e-05 0.0 -0.013031450855644326 0.0 0.0
0.0001298204130032155 -7.943626235846634e-05 0.0 -0.015533078994851967 0.0 0.0
0.0006676238743819132 -0.000534816237132109 0.0 -0.018138846799021214 0.0 0.0
0.0019193284794086242 -0.00163180025902014 0.0 -0.020728423582838558 0.0 0.0
0.004231481063848302 -0.0037254452627890075 0.0 -0.023024757120437583 0.0 0.0
0.007828503580180094 -0.006904922298588782 0.0 -0.024749538508076305 0.0 0.0
0.014020407455971162 -0.012088428086549407 0.0 -0.0264409016295826 0.0 0.0
0.01807361322088713 -0.02345482227662214 0.0 1.3627987627273797e-14 0.0 0.0
0.014020407455971004 -0.01208842808655111 0.0 0.02644090162961614 0.0 0.0
0.007828503580177589 -0.006904922298585512 0.0 0.024749538508097614 0.0 0.0
0.004231481063846488 -0.003725445262778946 0.0 0.023024757120445313 0.0 0.0
0.0019193284794092203 -0.0016318002590179645 0.0 0.020728423582828344 0.0 0.0
0.0006676238743841476 -0.0005348162371367673 0.0 0.01813884679900552 0.0 0.0
0.00012982041300683565 -7.943626234956157e-05 0.0 0.015533078994837492 0.0 0.0
-3.2962885490953444e-05 4.582606305656215e-05 0.0 0.01303145085563278 0.0 0.0
-4.374131572765531e-05 4.410975031814829e-05 0.0 0.01067268949310639 0.0 0.0
-1.9441897402311457e-05 1.823603075473153e-05 0.0 0.008454880485059735 0.0 0.0
-3.689335675586148e-06 2.42037590964466e-06 0.0 0.006438257059514068 0.0 0.0
-6.475536076020849e-07 2.6387684056510224e-07 0.0 0.004875580143179693 0.0 0.0
-3.042340974615407e-06 1.8995438284461326e-06 0.0 0.003935854377066839 0.0 0.0
-8.168734514716431e-06 5.0632223321767395e-06 0.0 0.003543916936151162 0.0 0.0
-1.9524737287486907e-05 1.2817998366270337e-05 0.0 0.0032367573768549438 0.0 0.0
-4.775306408672136e-05 4.780393596503146e-05 0.0 0.0028513368624568975 0.0 0.0
-9.922150032090282e-05 0.0001086583134355397 0.0 0.0025713392375778426 0.0 0.0
-0.00014548960496627012 0.00013932964059955102 0.0 0.0024875515142258864 0.0 0.0
-0.00012095665513820313 2.4435953071651577e-05 0.0 0.0025125671249138035 0.0 0.0
0.0002788092445810989 -0.00029979025830077083 0.0 0.0025335335825287623 0.0 0.0
0.0006391494016020525 -0.0026405851805764253 0.0 0.001590236006036742 0.0 0.0
0.00041999838612417667 -0.0019750873325125196 0.0 -0.0015123138881325947 0.0 0.0
0.00012583674479308714 -0.00029480270730622654 0.0 -0.002318870339077331 0.0 0.0
-0.0002413894150191634 7.998006928640073e-05 0.0 -0.002502301941358253 0.0 0.0
-0.0003439274426968817 0.00021830183160654378 0.0 -0.0025064868541463266 0.0 0.0
-0.00040341795817150556 0.0002479290316658853 0.0 -0.0025788796500555854 0.0 0.0
-0.0005102368261444475 0.0002630299924560656 0.0 -0.002826927155926998 0.0 0.0
-0.0007663991571474221 0.00035884446132916485 0.0 -0.003195002773549886 0.0 0.0
-0.0013336901285819812 0.0006846515009844735 0.0 -0.0037076645996766116 0.0 0.0
-0.0023880757010770353 0.0014412718112542578 0.0 -0.004632354352125562 0.0 0.0
-0.003935492719246339 0.002728487241886437 0.0 -0.00614921379868713 0.0 0.0
-0.0058442599962066095 0.004427392232856014 0.0 -0.008206763378766501 0.0 0.0
-0.008001979143457677 0.006423292697109734 0.0 -0.010587503966770781 0.0 0.0
-0.010358394723270044 0.008645078109814741 0.0 -0.01309583391058746 0.0 0.0
-0.012872325564619778 0.01105779584512362 0.0 -0.015670938663555973 0.0 0.0
-0.015406670921375584 0.013535825524747958 0.0 -0.018336077544086053 0.0 0.0
-0.017683431483842556 0.015811457116570532 0.0 -0.021140373225729828 0.0 0.0
-0.019277067955178542 0.017464142556689863 0.0 -0.02411192031149804 0.0 0.0
-0.01972248079617629 0.017988152164841793 0.0 -0.02738954218996692 0.0 0.0
-0.018497741631011044 0.01706701013882344 0.0 -0.03091146174298507 0.0 0.0
-0.013475450732453875 0.013376468519790932 0.0 -0.03277967978232063 0.0 0.0
-0.009559519654064711 0.0013188910214710424 0.0 1.710263874965534e-14 0.0 0.0
-0.013475450732454809 0.01337646851979623 0.0 0.03277967978235328 0.0 0.0
-0.018497741631004427 0.01706701013881536 0.0 0.03091146174301019 0.0 0.0
-0.01972248079616055 0.017988152164834903 0.0 0.02738954218997231 0.0 0.0
-0.019277067955159308 0.017464142556664414 0.0 0.024111920311488677 0.0 0.0
-0.01768343148382377 0.015811457116552487 0.0 0.02114037322571135 0.0 0.0
-0.015406670921357342 0.013535825524733272 0.0 0.01833607754407155 0.0 0.0
-0.012872325564600086 0.011057795845099017 0.0 0.0156709386635437 0.0 0.0
-0.010358394723249953 0.00864507810979682 0.0 0.013095833910570481 0.0 0.0
-0.008001979143438902 0.006423292697088895 0.0 0.010587503966749316 0.0 0.0
-0.0058442599961908695 0.0044273922328467415 0.0 0.008206763378744514 0.0 0.0
-0.003935492719234725 0.002728487241873552 0.0 0.0061492137986776906 0.0 0.0
-0.0023880757010699295 0.0014412718112486902 0.0 0.0046323543521198446 0.0 0.0
-0.0013336901285776694 0.0006846515009785645 0.0 0.003707664599671633 0.0 0.0
-0.0007663991571450668 0.0003588444613274618 0.0 0.003195002773547739 0.0 0.0
-0.0005102368261439437 0.00026302999245410487 0.0 0.0028269271559242673 0.0 0.0
-0.00040341795817104754 0.0002479290316654412 0.0 0.002578879650052458 0.0 0.0
-0.00034392744269658274 0.00021830183160801575 0.0 0.0025064868541438867 0.0 0.0
-0.0002413894150192355 7.998006928683391e-05 0.0 0.0025023019413581665 0.0 0.0
0.00012583674479279105 -0.0002948027073061725 0.0 0.002318870339075469 0.0 0.0
0.0004199983861235334 -0.0019750873325100793 0.0 0.001512313888132971 0.0 0.0
0.00027369236868819767 -0.0014832723007837784 0.0 -0.0014336436860932994 0.0 0.0
1.4092473103865505e-05 -0.0002760934638597775 0.0 -0.0021393955862508245 0.0 0.0
-0.00035402835877613585 0.00013131711057624558 0.0 -0.0024410241625636396 0.0 0.0
-0.0005351274783371312 0.00029514366863468597 0.0 -0.0024583207948414257 0.0 0.0
-0.0006988495053640233 0.0003800655030428501 0.0 -0.0025068306732790014 0.0 0.0
-0.0009688929632425849 0.00047385569972127443 0.0 -0.0027013523854267896 0.0 0.0
-0.0015726928380135853 0.0007572538569244867 0.0 -0.003116558154626991 0.0 0.0
-0.0028639857303283485 0.001626544949544739 0.0 -0.004104130749408159 0.0 0.0
-0.005078980572087374 0.0034744581340125464 0.0 -0.005938866368334693 0.0 0.0
-0.008167175112598034 0.006335458230243101 0.0 -0.00847546460176227 0.0 0.0
-0.011921244790464552 0.009917474988715268 0.0 -0.011456942160634588 0.0 0.0
-0.016163396463131988 0.01399724723520998 0.0 -0.01456405729327416 0.0 0.0
-0.020812198514419938 0.018489903797882935 0.0 -0.017648877256689753 0.0 0.0
-0.025811876511313028 0.023366188698151238 0.0 -0.0206959782504937 0.0 0.0
-0.031015599701725627 0.028494624866205284 0.0 -0.023820625679424213 0.0 0.0
-0.03609663286726853 0.03356268107435705 0.0 -0.027229439071488608 0.0 0.0
-0.04055353399142618 0.0380561908827325 0.0 -0.031137256041678857 0.0 0.0
-0.04372989175648488 0.04131061301813994 0.0 -0.03563175209798961 0.0 0.0
-0.044429199271419556 0.04231687690522479 0.0 -0.0398749757471836 0.0 0.0
-0.04008233569787659 0.038713954664567785 0.0 -0.04113391270878697 0.0 0.0
-0.036211481496248886 0.02476928034415553 0.0 2.2931309628937413e-14 0.0 0.0
-0.04008233569787282 0.03871395466456189 0.0 0.041133912708841355 0.0 0.0
-0.04442919927140493 0.042316876905208516 0.0 0.039874975747239916 0.0 0.0
-0.04372989175645723 0.04131061301811292 0.0 0.03563175209800834 0.0 0.0
-0.0405535339913921 0.0380561908827015 0.0 0.031137256041665166 0.0 0.0
-0.03609663286723465 0.033562681074317556 0.0 0.027229439071468978 0.0 0.0
-0.031015599701691862 0.028494624866171256 0.0 0.02382062567940574 0.0 0.0
-0.02581187651127901 0.0233661886981184 0.0 0.020695978250473392 0.0 0.0
-0.02081219851438596 0.018489903797845646 0.0 0.017648877256669842 0.0 0.0
-0.016163396463100124 0.013997247235176227 0.0 0.014564057293247931 0.0 0.0
-0.011921244790436793 0.00991747498868821 0.0 0.01145694216060472 0.0 0.0
-0.008167175112576714 0.006335458230218285 0.0 0.008475464601742314 0.0 0.0
-0.005078980572073499 0.0034744581340008657 0.0 0.0059388663683233285 0.0 0.0
-0.0028639857303198683 0.0016265449495357432 0.0 0.004104130749400919 0.0 0.0
-0.001572692838009245 0.0007572538569208964 0.0 0.003116558154622201 0.0 0.0
-0.0009688929632408261 0.00047385569972045944 0.0 0.0027013523854238055 0.0 0.0
-0.0006988495053631971 0.00038006550304072687 0.0 0.0025068306732775538 0.0 0.0
-0.0005351274783364776 0.0002951436686354106 0.0 0.002458320794840761 0.0 0.0
-0.0003540283587758403 0.00013131711057636874 0.0 0.002441024162562688 0.0 0.0
1.409247310366753e-05 -0.0002760934638590645 0.0 0.002139395586249355 0.0 0.0
0.0002736923686877989 -0.0014832723007820608 0.0 0.0014336436860921849 0.0 0.0
0.0001682281499426157 -0.0010860585017747311 0.0 -0.001295163778107131 0.0 0.0
-7.222999114410965e-05 -0.0002414083934213939 0.0 -0.0019554919810549527 0.0 0.0
-0.0004573555839418068 0.00017690664092550286 0.0 -0.0023284371663140086 0.0 0.0
-0.0007172780873581371 0.00036764320684734217 0.0 -0.0023480432321722256 0.0 0.0
-0.000984028025648709 0.0005027283885244462 0.0 -0.0023607526672285626 0.0 0.0
-0.0014479383368263 0.0006914107869207397 0.0 -0.0024997156180161587 0.0 0.0
-0.0024983317168722776 0.0012831418852154105 0.0 -0.0030676051120345476 0.0 0.0
-0.004617154162220872 0.002925690703379007 0.0 -0.004536245452777962 0.0 0.0
-0.008038882159250096 0.0060245189546052295 0.0 -0.007019418434213392 0.0 0.0
-0.012663407072170679 0.010459956732511277 0.0 -0.01029067028959378 0.0 0.0
-0.0182275096309504 0.015858328333366565 0.0 -0.013938297815432293 0.0 0.0
-0.024512365720901187 0.021967477739873845 0.0 -0.017597981963867016 0.0 0.0
-0.031421147396418804 0.02870018421140194 0.0 -0.021123991463881598 0.0 0.0
-0.038897895446140925 0.03602537325913417 0.0 -0.02456511165310159 0.0 0.0
-0.0467946689292907 0.04382030143636616 0.0 -0.028148483271554003 0.0 0.0
-0.054753758523405416 0.05174692802258954 0.0 -0.03227842544196732 0.0 0.0
-0.06214075936127207 0.059176381738723194 0.0 -0.03738302811541385 0.0 0.0
-0.0678997178777071 0.06510283227563565 0.0 -0.04327182398059799 0.0 0.0
-0.07021143328481698 0.06778892577655718 0.0 -0.04835279252220682 0.0 0.0
-0.06545208173639014 0.06404709704047995 0.0 -0.049659019640158716 0.0 0.0
-0.06068764988154694 0.047231546591195946 0.0 2.5320023855357476e-14 0.0 0.0
-0.06545208173638188 0.06404709704047862 0.0 0.04965901964022634 0.0 0.0
-0.0702114332847956 0.06778892577654426 0.0 0.04835279252227512 0.0 0.0
-0.06789971787766992 0.065102832275593 0.0 0.043271823980632076 0.0 0.0
-0.06214075936122497 0.05917638173867659 0.0 0.03738302811540606 0.0 0.0
-0.05475375852335568 0.0517469280225366 0.0 0.0322784254419477 0.0 0.0
-0.04679466892924211 0.0438203014363195 0.0 0.02814848327153406 0.0 0.0
-0.03889789544609278 0.03602537325908802 0.0 0.024565111653079102 0.0 0.0
-0.03142114739637063 0.028700184211351794 0.0 0.021123991463857728 0.0 0.0
-0.02451236572085612 0.021967477739832056 0.0 0.017597981963837103 0.0 0.0
-0.018227509630910813 0.015858328333325365 0.0 0.013938297815399923 0.0 0.0
-0.01266340707213963 0.010459956732478671 0.0 0.01029067028956848 0.0 0.0
-0.008038882159228716 0.006024518954581792 0.0 0.007019418434198409 0.0 0.0
-0.004617154162207741 0.002925690703369497 0.0 0.0045362454527686155 0.0 0.0
-0.002498331716865504 0.0012831418852089383 0.0 0.003067605112029065 0.0 0.0
-0.0014479383368233769 0.0006914107869198245 0.0 0.0024997156180123583 0.0 0.0
-0.0009840280256474664 0.0005027283885252208 0.0 0.0023607526672262224 0.0 0.0
-0.0007172780873573862 0.0003676432068467098 0.0 0.002348043232172768 0.0 0.0
-0.00045735558394159083 0.00017690664092516703 0.0 0.0023284371663111563 0.0 0.0
-7.222999114437334e-05 -0.00024140839342090342 0.0 0.001955491981052876 0.0 0.0
0.00016822814994232318 -0.0010860585017731662 0.0 0.0012951637781056903 0.0 0.0
8.132049258281202e-05 -0.0007546704707008148 0.0 -0.0011168250504938965 0.0 0.0
-0.00014625059828426193 -0.00019275623700377165 0.0 -0.0017484350560320774 0.0 0.0
-0.0005529686827453273 0.0002187978228574409 0.0 -0.002164079648757064 0.0 0.0
-0.0008891669809243203 0.0004336062270472661 0.0 -0.0021787347011401454 0.0 0.0
-0.0012643130290110808 0.0006149821700031479 0.0 -0.002139810433285926 0.0 0.0
-0.001973588768897296 0.0009432559009943421 0.0 -0.0022535832227169473 0.0 0.0
-0.0035610600316927843 0.00198898570108683 0.0 -0.0030006228846321424 0.0 0.0
-0.006570682163971419 0.004538912789783056 0.0 -0.004793152522426501 0.0 0.0
-0.011216000998750995 0.008909680967080794 0.0 -0.007682778531746795 0.0 0.0
-0.01735437499299836 0.014866576151254939 0.0 -0.011356184263558626 0.0 0.0
-0.024689143868952594 0.022025890731745427 0.0 -0.015300398521424244 0.0 0.0
-0.032988203836638086 0.03013606715962222 0.0 -0.019199203565363594 0.0 0.0
-0.04214109772741631 0.03909170974414532 0.0 -0.022935106678837993 0.0 0.0
-0.05208857411275142 0.04885630453577169 0.0 -0.026561750866848997 0.0 0.0
-0.06269429243239064 0.059327273898967886 0.0 -0.030342808170422973 0.0 0.0
-0.07357253010100565 0.07015821997623684 0.0 -0.03483943136343526 0.0 0.0
-0.08388114885623156 0.08054710217596722 0.0 -0.04056053637239336 0.0 0.0
-0.09208728342705941 0.08901549811568699 0.0 -0.04718489774468029 0.0 0.0
-0.09557314897834807 0.0930733339208099 0.0 -0.052896639609420766 0.0 0.0
-0.08998703730401442 0.08860058318296211 0.0 -0.05455976678327534 0.0 0.0
-0.08425035585458973 0.06901938584282334 0.0 2.998643000573509e-14 0.0 0.0
-0.08998703730400062 0.08860058318295262 0.0 0.054559766783343844 0.0 0.0
-0.09557314897831895 0.09307333392079208 0.0 0.05289663960949087 0.0 0.0
-0.09208728342701311 0.08901549811564068 0.0 0.04718489774471696 0.0 0.0
-0.08388114885617345 0.08054710217590692 0.0 0.04056053637238751 0.0 0.0
-0.0735725301009422 0.07015821997617849 0.0 0.03483943136341622 0.0 0.0
-0.06269429243232746 0.059327273898910876 0.0 0.03034280817040086 0.0 0.0
-0.052088574112689336 0.04885630453571025 0.0 0.026561750866824725 0.0 0.0
-0.04214109772735446 0.03909170974408278 0.0 0.022935106678815355 0.0 0.0
-0.03298820383658027 0.030136067159561776 0.0 0.01919920356533311 0.0 0.0
-0.02468914386890183 0.022025890731699256 0.0 0.015300398521387804 0.0 0.0
-0.017354374992957687 0.014866576151216383 0.0 0.011356184263528425 0.0 0.0
-0.011216000998721526 0.00890968096704855 0.0 0.007682778531728083 0.0 0.0
-0.006570682163952909 0.004538912789768987 0.0 0.0047931525224153265 0.0 0.0
-0.0035610600316831435 0.001988985701077534 0.0 0.0030006228846244736 0.0 0.0
-0.001973588768893173 0.0009432559009889614 0.0 0.002253583222715142 0.0 0.0
-0.0012643130290091694 0.0006149821700021814 0.0 0.0021398104332838305 0.0 0.0
-0.0008891669809235479 0.0004336062270487529 0.0 0.0021787347011384193 0.0 0.0
-0.0005529686827454312 0.00021879782285663386 0.0 0.0021640796487549527 0.0 0.0
-0.00014625059828458984 -0.0001927562370040116 0.0 0.0017484350560304977 0.0 0.0
8.132049258209843e-05 -0.0007546704706993506 0.0 0.001116825050492902 0.0 0.0
6.820745321883313e-06 -0.0004837567144389325 0.0 -0.0009244138189326335 0.0 0.0
-0.0002127497190015479 -0.00013339465234969372 0.0 -0.0015121182263690654 0.0 0.0
-0.0006425938997996295 0.00025911222063802346 0.0 -0.001944622882390474 0.0 0.0
-0.0010502795492103776 0.0004916015968236657 0.0 -0.001950749933097067 0.0 0.0
-0.0015510043101917726 0.0007237549797178075 0.0 -0.0018551632453774562 0.0 0.0
-0.0025678181110317696 0.001262527864419507 0.0 -0.0019767798818796194 0.0 0.0
-0.004762022233822975 0.002888604277881776 0.0 -0.002847836698824744 0.0 0.0
-0.008696829186254001 0.006408773096566792 0.0 -0.004804805013635743 0.0 0.0
-0.014555890108953282 0.01201748369744648 0.0 -0.00785543845321394 0.0 0.0
-0.022164535910578955 0.019434438641804757 0.0 -0.011564023924768123 0.0 0.0
-0.03123736882447225 0.02831872383135526 0.0 -0.015492240225928048 0.0 0.0
-0.04154284397067766 0.03841889426958106 0.0 -0.01936802337891926 0.0 0.0
-0.05293394798981739 0.04959315312494858 0.0 -0.023091954446527556 0.0 0.0
-0.06533643229763651 0.061784890126699535 0.0 -0.02670341584768453 0.0 0.0
-0.07863346954844001 0.0749104320299447 0.0 -0.03041857421094684 0.0 0.0
-0.092401506865997 0.08861774372310656 0.0 -0.03475955459580638 0.0 0.0
-0.10556876808951932 0.10191559191221963 0.0 -0.040346686399412836 0.0 0.0
-0.11607582337410577 0.11281868031689993 0.0 -0.04707349427245136 0.0 0.0
-0.12057018184412233 0.1180452615547512 0.0 -0.05339737950330844 0.0 0.0
-0.11423928022696184 0.11284803587793804 0.0 -0.05730679346856258 0.0 0.0
-0.10767252546995078 0.09088297744277732 0.0 3.06213387979426e-14 0.0 0.0
-0.11423928022694307 0.1128480358779087 0.0 0.05730679346863132 0.0 0.0
-0.12057018184408375 0.11804526155472278 0.0 0.05339737950337575 0.0 0.0
-0.11607582337404992 0.11281868031684364 0.0 0.04707349427248682 0.0 0.0
-0.10556876808944998 0.10191559191215424 0.0 0.040346686399410296 0.0 0.0
-0.09240150686592041 0.08861774372302826 0.0 0.03475955459578958 0.0 0.0
-0.0786334695483631 0.07491043202986421 0.0 0.030418574210927238 0.0 0.0
-0.06533643229755969 0.06178489012662705 0.0 0.026703415847664412 0.0 0.0
-0.0529339479897412 0.04959315312487346 0.0 0.023091954446503027 0.0 0.0
-0.04154284397060757 0.03841889426950114 0.0 0.01936802337889055 0.0 0.0
-0.031237368824410625 0.028318723831292907 0.0 0.015492240225891966 0.0 0.0
-0.022164535910529238 0.01943443864175824 0.0 0.011564023924740204 0.0 0.0
-0.014555890108916343 0.012017483697406846 0.0 0.007855438453196752 0.0 0.0
-0.008696829186229077 0.006408773096544218 0.0 0.004804805013620923 0.0 0.0
-0.004762022233809116 0.0028886042778686785 0.0 0.0028478366988151467 0.0 0.0
-0.0025678181110256456 0.0012625278644127751 0.0 0.00197677988187683 0.0 0.0
-0.0015510043101901972 0.0007237549797163913 0.0 0.0018551632453786813 0.0 0.0
-0.0010502795492095668 0.0004916015968250359 0.0 0.0019507499330935294 0.0 0.0
-0.0006425938997993897 0.00025911222063754 0.0 0.00194462288238948 0.0 0.0
-0.0002127497190018999 -0.00013339465234990278 0.0 0.001512118226367462 0.0 0.0
6.8207453219919655e-06 -0.0004837567144380717 0.0 0.0009244138189346008 0.0 0.0
-5.5944464037678086e-05 -0.00027139406786150157 0.0 -0.0007267286265368314 0.0 0.0
-0.0002722359632770739 -6.838700109390087e-05 0.0 -0.0012480564099374566 0.0 0.0
-0.0007273488739665176 0.0002990180040221957 0.0 -0.0016693345141723358 0.0 0.0
-0.001205468149648212 0.0005419971951954695 0.0 -0.0016647794593569393 0.0 0.0
-0.0018594796423897176 0.0008414193296640206 0.0 -0.0015171663299434262 0.0 0.0
-0.003242615277639452 0.0016770962357494272 0.0 -0.0016591580682138072 0.0 0.0
-0.006093969283051931 0.003980272331050609 0.0 -0.002573460760058928 0.0 0.0
-0.01096207611021104 0.008475772055920903 0.0 -0.004547849222452311 0.0 0.0
-0.017991439600161207 0.01525254879174033 0.0 -0.0074288185389350895 0.0 0.0
-0.027029919699201793 0.024084559634938846 0.0 -0.010869760839083873 0.0 0.0
-0.037828065470392566 0.03467545269780682 0.0 -0.014529500619025627 0.0 0.0
-0.05013218800116894 0.04675834161883954 0.0 -0.01813926814514816 0.0 0.0
-0.06376017170669775 0.060154123325590836 0.0 -0.021626129598534556 0.0 0.0
-0.07860215858239605 0.07476303878752157 0.0 -0.025030127444539915 0.0 0.0
-0.09452020791050503 0.09048059904282311 0.0 -0.02843430707111915 0.0 0.0
-0.11106902933958074 0.10694618156141111 0.0 -0.03213631911236691 0.0 0.0
-0.12699554922228204 0.12304003081382359 0.0 -0.0368087867014324 0.0 0.0
-0.1397603952048996 0.1363260959881037 0.0 -0.04300530054966676 0.0 0.0
-0.1453923633304868 0.14283630050134988 0.0 -0.050390763557172855 0.0 0.0
-0.13865652434817072 0.1372875172396701 0.0 -0.058420823845866734 0.0 0.0
-0.13147208680847627 0.11332894984011749 0.0 2.8347116320937005e-14 0.0 0.0
-0.13865652434814718 0.13728751723963337 0.0 0.05842082384593625 0.0 0.0
-0.14539236333044087 0.1428363005013064 0.0 0.05039076355723682 0.0 0.0
-0.1397603952048336 0.1363260959880315 0.0 0.043005300549697714 0.0 0.0
-0.1269955492222012 0.1230400308137353 0.0 0.03680878670143262 0.0 0.0
-0.11106902933949082 0.10694618156132304 0.0 0.0321363191123532 0.0 0.0
-0.09452020791041343 0.09048059904273023 0.0 0.02843430707110177 0.0 0.0
-0.07860215858230603 0.0747630387874282 0.0 0.025030127444524507 0.0 0.0
-0.06376017170660887 0.060154123325503725 0.0 0.0216261295985107 0.0 0.0
-0.05013218800108659 0.04675834161875068 0.0 0.01813926814512023 0.0 0.0
-0.037828065470320825 0.03467545269773665 0.0 0.0145295006189929 0.0 0.0
-0.027029919699142736 0.024084559634884026 0.0 0.010869760839056358 0.0 0.0
-0.01799143960011661 0.015252548791692008 0.0 0.007428818538918391 0.0 0.0
-0.010962076110180864 0.00847577205589746 0.0 0.0045478492224387095 0.0 0.0
-0.0060939692830347105 0.003980272331034296 0.0 0.002573460760051835 0.0 0.0
-0.0032426152776312556 0.0016770962357452956 0.0 0.0016591580682091033 0.0 0.0
-0.0018594796423866736 0.0008414193296634469 0.0 0.0015171663299449248 0.0 0.0
-0.0012054681496471364 0.0005419971951960111 0.0 0.0016647794593556422 0.0 0.0
-0.0007273488739658351 0.0002990180040214577 0.0 0.0016693345141687572 0.0 0.0
-0.00027223596327639665 -6.83870010936538e-05 0.0 0.0012480564099365524 0.0 0.0
-5.594446403688261e-05 -0.00027139406786113083 0.0 0.0007267286265370656 0.0 0.0
-0.00010471364959236036 -0.00011742070527499335 0.0 -0.0005299414807043741 0.0 0.0
-0.0003223742770145164 -3.5764032089655455e-06 0.0 -0.0009592947697897481 0.0 0.0
-0.0008070489307355705 0.00033800568268569395 0.0 -0.0013365327368140268 0.0 0.0
-0.0013604268950253838 0.0005864451505223104 0.0 -0.0013158493902415685 0.0 0.0
-0.002204126025247718 0.0009852373654674921 0.0 -0.0011276419921411427 0.0 0.0
-0.004010025815213688 0.002210087921492851 0.0 -0.0012779764866816677 0.0 0.0
-0.007548245096993908 0.005247711440985325 0.0 -0.002169460496854407 0.0 0.0
-0.013312268512794864 0.010662345894031675 0.0 -0.003913242193056773 0.0 0.0
-0.021460890572177562 0.018544875289644665 0.0 -0.006350780203665981 0.0 0.0
-0.03190885465174858 0.028764939830511822 0.0 -0.009292027729972034 0.0 0.0
-0.04441467434153856 0.04104479876110206 0.0 -0.012428472068786334 0.0 0.0
-0.05871264869031262 0.05510450805135092 0.0 -0.015527271917704307 0.0 0.0
-0.0745815046834051 0.07072687199883369 0.0 -0.018541916541776456 0.0 0.0
-0.09184176675308685 0.0877476990579074 0.0 -0.02152328647136412 0.0 0.0
-0.11028489052147969 0.105977614291113 0.0 -0.02444078181174979 0.0 0.0
-0.12942394825301112 0.12499907334224947 0.0 -0.027226485958963598 0.0 0.0
-0.14794793744179666 0.14366773245169007 0.0 -0.030287108992108337 0.0 0.0
-0.16305267346063546 0.15937819566055025 0.0 -0.0351215184539773 0.0 0.0
-0.1702333468581716 0.16761344053027438 0.0 -0.043828278582073804 0.0 0.0
-0.1636511130080303 0.16237262588992343 0.0 -0.05762335459926528 0.0 0.0
-0.15612215804105406 0.1368581366961887 0.0 2.5113591761716236e-14 0.0 0.0
-0.16365111300800206 0.16237262588987839 0.0 0.05762335459932118 0.0 0.0
-0.17023334685811845 0.16761344053022662 0.0 0.04382827858212996 0.0 0.0
-0.16305267346055904 0.15937819566047226 0.0 0.035121518454004894 0.0 0.0
-0.14794793744170326 0.1436677324515875 0.0 0.03028710899210746 0.0 0.0
-0.129423948252909 0.1249990733421569 0.0 0.02722648595895373 0.0 0.0
-0.11028489052137441 0.10597761429100408 0.0 0.02444078181173517 0.0 0.0
-0.09184176675298263 0.08774769905779575 0.0 0.021523286471349115 0.0 0.0
-0.0745815046833033 0.07072687199873345 0.0 0.018541916541757852 0.0 0.0
-0.058712648690218236 0.05510450805125597 0.0 0.015527271917679508 0.0 0.0
-0.04441467434145659 0.041044798761021316 0.0 0.012428472068760205 0.0 0.0
-0.0319088546516808 0.02876493983044684 0.0 0.00929202772994978 0.0 0.0
-0.021460890572126315 0.01854487528959255 0.0 0.0063507802036490545 0.0 0.0
-0.013312268512759311 0.010662345894004154 0.0 0.00391324219304466 0.0 0.0
-0.007548245096972165 0.005247711440966288 0.0 0.0021694604968457375 0.0 0.0
-0.004010025815203306 0.0022100879214858623 0.0 0.0012779764866775757 0.0 0.0
-0.0022041260252445975 0.0009852373654649276 0.0 0.001127641992140993 0.0 0.0
-0.0013604268950246567 0.0005864451505236378 0.0 0.001315849390244173 0.0 0.0
-0.0008070489307350636 0.0003380056826845417 0.0 0.0013365327368092866 0.0 0.0
-0.0003223742770142598 -3.576403208583464e-06 0.0 0.0009592947697915012 0.0 0.0
-0.00010471364959189523 -0.00011742070527472097 0.0 0.0005299414807029059 0.0 0.0
-0.00013458360377735873 -2.2435942902676034e-05 0.0 -0.0003446484199416069 0.0 0.0
-0.00035759000535379084 5.379708104892784e-05 0.0 -0.0006499292492922851 0.0 0.0
-0.0008794591219788241 0.0003730685061082379 0.0 -0.0009386257713017388 0.0 0.0
-0.001524706219224403 0.0006313464811933323 0.0 -0.0008969343716058065 0.0 0.0
-0.0026009487724150955 0.0011776713059293569 0.0 -0.000696566937740784 0.0 0.0
-0.0048779015979248394 0.0028840049705684333 0.0 -0.000829791076821608 0.0 0.0
-0.009087027644273906 0.0066440662315472195 0.0 -0.0015636836167810732 0.0 0.0
-0.015697531529482955 0.012902664586847528 0.0 -0.002836224542619076 0.0 0.0
-0.02493118407335194 0.02185115662755311 0.0 -0.004641384815738117 0.0 0.0
-0.036757249078813045 0.03342810780762224 0.0 -0.006836373501118174 0.0 0.0
-0.05095328367533562 0.04737880896022421 0.0 -0.009194608764182474 0.0 0.0
-0.06723778692784677 0.0634092224281495 0.0 -0.01153442329776142 0.0 0.0
-0.08534738902529292 0.08126139944807914 0.0 -0.013836767385564625 0.0 0.0
-0.10501995727875454 0.10069055217161708 0.0 -0.016162594553669783 0.0 0.0
-0.1258974483268498 0.12136562556317751 0.0 -0.018410675948129476 0.0 0.0
-0.1473698805544279 0.1427184084220301 0.0 -0.020245335364547225 0.0 0.0
-0.16820752516270712 0.1636106810216672 0.0 -0.021563129796908824 0.0 0.0
-0.18577997028081214 0.18166458583828052 0.0 -0.02401142440318059 0.0 0.0
-0.19519723564812202 0.19238193255878716 0.0 -0.032634441506642485 0.0 0.0
-0.18965819779441237 0.18863695604098815 0.0 -0.05377969746592996 0.0 0.0
-0.1822239560296659 0.1621659193883894 0.0 1.9133999940024182e-14 0.0 0.0
-0.18965819779438006 0.18863695604094563 0.0 0.053779697465968744 0.0 0.0
-0.19519723564805944 0.19238193255873612 0.0 0.0326344415066858 0.0 0.0
-0.18577997028072488 0.1816645858381939 0.0 0.02401142440320216 0.0 0.0
-0.1682075251626018 0.1636106810215539 0.0 0.021563129796903183 0.0 0.0
-0.14736988055431188 0.1427184084219276 0.0 0.02024533536454332 0.0 0.0
-0.12589744832673086 0.12136562556306285 0.0 0.018410675948120993 0.0 0.0
-0.10501995727863729 0.10069055217149699 0.0 0.016162594553660817 0.0 0.0
-0.08534738902517819 0.08126139944796505 0.0 0.013836767385554876 0.0 0.0
-0.06723778692774014 0.06340922242804442 0.0 0.011534423297743483 0.0 0.0
-0.050953283675242586 0.047378808960129686 0.0 0.00919460876416149 0.0 0.0
-0.036757249078736724 0.03342810780755099 0.0 0.006836373501102373 0.0 0.0
-0.024931184073293942 0.02185115662749509 0.0 0.00464138481572272 0.0 0.0
-0.015697531529441727 0.012902664586808632 0.0 0.002836224542609039 0.0 0.0
-0.009087027644248076 0.006644066231522972 0.0 0.0015636836167756349 0.0 0.0
-0.00487790159791163 0.002884004970559971 0.0 0.0008297910768171818 0.0 0.0
-0.002600948772409966 0.001177671305926779 0.0 0.0006965669377385149 0.0 0.0
-0.0015247062192227305 0.0006313464811938346 0.0 0.0008969343716085428 0.0 0.0
-0.0008794591219778205 0.0003730685061075663 0.0 0.0009386257712986523 0.0 0.0
-0.00035759000535328956 5.379708104911096e-05 0.0 0.000649929249292973 0.0 0.0
-0.00013458360377737615 -2.24359429027432e-05 0.0 0.00034464841994012003 0.0 0.0
-0.00013669179046146997 1.3784054380382291e-05 0.0 -0.00019308659982037916 0.0 0.0
-0.0003674875103092798 9.260050137256093e-05 0.0 -0.0003257386887291721 0.0 0.0
-0.0009410623108220338 0.0003983508626479698 0.0 -0.00045531355058263113 0.0 0.0
-0.0017127029045843887 0.000693603113047218 0.0 -0.0004062932777015833 0.0 0.0
-0.0030678199139391195 0.001449322859384013 0.0 -0.00023061499734540827 0.0 0.0
-0.005831727531725618 0.0036873036557707748 0.0 -0.00028772817680443677 0.0 0.0
-0.010678571648875722 0.008116979165522398 0.0 -0.0006832742588989541 0.0 0.0
-0.018086439692101934 0.015161464657578734 0.0 -0.0013530166561435768 0.0 0.0
-0.028360622847293793 0.02512862031824698 0.0 -0.0023087712135825764 0.0 0.0
-0.041531119752780156 0.03802632739966266 0.0 -0.0035061147919682486 0.0 0.0
-0.05739799984164276 0.05363043744632155 0.0 -0.004819979640299561 0.0 0.0
-0.07566281224452383 0.07162777884384174 0.0 -0.0061550729114924095 0.0 0.0
-0.09601143118203122 0.09170716629225886 0.0 -0.007517694340774703 0.0 0.0
-0.11807654543589399 0.11352758903752619 0.0 -0.008915075799177621 0.0 0.0
-0.14133290977205112 0.13660337777042833 0.0 -0.010245500451871573 0.0 0.0
-0.16496136744676307 0.16014956763864438 0.0 -0.011214773938916834 0.0 0.0
-0.18769235806428253 0.18290424954730508 0.0 -0.01142546823673827 0.0 0.0
-0.20744031400510649 0.20281776365941162 0.0 -0.011499996740335014 0.0 0.0
-0.22006588606931535 0.21630880700201818 0.0 -0.01659746545060878 0.0 0.0
-0.21731487441239616 0.21658716567974873 0.0 -0.04094545311075816 0.0 0.0
-0.21073676678139222 0.19121368458737098 0.0 1.2836953722228372e-14 0.0 0.0
-0.2173148744123598 0.21658716567972167 0.0 0.040945453110784555 0.0 0.0
-0.2200658860692438 0.21630880700194885 0.0 0.01659746545063353 0.0 0.0
-0.2074403140050069 0.20281776365931356 0.0 0.01149999674034611 0.0 0.0
-0.18769235806416257 0.18290424954718226 0.0 0.011425468236736031 0.0 0.0
-0.16496136744663287 0.16014956763852087 0.0 0.011214773938915904 0.0 0.0
-0.14133290977191923 0.13660337777031342 0.0 0.010245500451864772 0.0 0.0
-0.11807654543576292 0.11352758903739063 0.0 0.008915075799172865 0.0 0.0
-0.09601143118190376 0.09170716629212798 0.0 0.007517694340770539 0.0 0.0
-0.07566281224440594 0.07162777884372326 0.0 0.006155072911480637 0.0 0.0
-0.05739799984153962 0.05363043744621953 0.0 0.004819979640288062 0.0 0.0
-0.041531119752696265 0.038026327399584864 0.0 0.0035061147919583924 0.0 0.0
-0.02836062284722968 0.025128620318182148 0.0 0.0023087712135739296 0.0 0.0
-0.018086439692055013 0.015161464657530706 0.0 0.0013530166561366158 0.0 0.0
-0.010678571648846424 0.008116979165494692 0.0 0.0006832742588985374 0.0 0.0
-0.005831727531710715 0.0036873036557597714 0.0 0.00028772817680326464 0.0 0.0
-0.00306781991393256 0.0014493228593798321 0.0 0.00023061499734423478 0.0 0.0
-0.0017127029045822223 0.0006936031130464126 0.0 0.00040629327769914136 0.0 0.0
-0.0009410623108208629 0.0003983508626470938 0.0 0.000455313550581612 0.0 0.0
-0.0003674875103083804 9.260050137253849e-05 0.0 0.0003257386887282095 0.0 0.0
-0.00013669179046128495 1.3784054380206586e-05 0.0 0.0001930865998186365 0.0 0.0
-9.525194356729789e-05 1.7348844476940718e-05 0.0 -0.00011659856204393907 0.0 0.0
-0.0003334206806099691 0.00010560747840375714 0.0 -0.00013543024350927922 0.0 0.0
-0.0009881380090459159 0.000407660834628678 0.0 -0.00014674591320934288 0.0 0.0
-0.0019446866547344443 0.0007319028340914988 0.0 -5.63861341601468e-05 0.0 0.0
-0.003613606860968917 0.00160988271156659 0.0 0.00024672144014151285 0.0 0.0
-0.00685127317785224 0.0041159346639950125 0.0 0.0005034082165023024 0.0 0.0
-0.012296385165635419 0.008867244362807065 0.0 0.0006301615729078301 0.0 0.0
-0.020450705236003754 0.01629179244287691 0.0 0.000661769035804567 0.0 0.0
-0.03170954181731312 0.02675442479220917 0.0 0.0005826961750390199 0.0 0.0
-0.04618393706130829 0.04030333887730196 0.0 0.0003417414114605861 0.0 0.0
-0.06370411399792535 0.05672953558790287 0.0 -1.985866197822591e-05 0.0 0.0
-0.08394571685657949 0.07571040633525393 0.0 -0.0004781917055631567 0.0 0.0
-0.10651445565409759 0.09690158208281013 0.0 -0.0010500102755848333 0.0 0.0
-0.13094164909207828 0.11991011594026604 0.0 -0.001705982085435086 0.0 0.0
-0.15655761524019113 0.14417876273070598 0.0 -0.0024250912545313186 0.0 0.0
-0.18231153699326652 0.16880412257188532 0.0 -0.003043124564471235 0.0 0.0
-0.20667493593464822 0.19241219739825027 0.0 -0.0032176703454241742 0.0 0.0
-0.22770888931185435 0.21307508368871264 0.0 -0.002916232656634276 0.0 0.0
-0.2430513089778198 0.2278703887411926 0.0 -0.006111720831371346 0.0 0.0
-0.2470318013858529 0.23103302926747563 0.0 -0.031862652110184915 0.0 0.0
-0.24509177764141385 0.2070575950130642 0.0 7.008282842946301e-15 0.0 0.0
-0.2470318013858132 0.23103302926746203 0.0 0.03186265211019353 0.0 0.0
-0.24305130897773808 0.22787038874110868 0.0 0.006111720831377444 0.0 0.0
-0.22770888931174071 0.2130750836886129 0.0 0.0029162326566346507 0.0 0.0
-0.20667493593451425 0.19241219739812573 0.0 0.003217670345421114 0.0 0.0
-0.1823115369931226 0.16880412257174077 0.0 0.003043124564472279 0.0 0.0
-0.15655761524004516 0.1441787627305793 0.0 0.0024250912545291207 0.0 0.0
-0.1309416490919333 0.11991011594011779 0.0 0.0017059820854329992 0.0 0.0
-0.10651445565395751 0.09690158208267168 0.0 0.0010500102755850657 0.0 0.0
-0.08394571685644987 0.07571040633513182 0.0 0.0004781917055568779 0.0 0.0
-0.06370411399781198 0.056729535587797975 0.0 1.985866197299138e-05 0.0 0.0
-0.04618393706121606 0.04030333887721702 0.0 -0.0003417414114655244 0.0 0.0
-0.031709541817241955 0.02675442479213917 0.0 -0.0005826961750405066 0.0 0.0
-0.02045070523595135 0.01629179244282699 0.0 -0.0006617690358051917 0.0 0.0
-0.012296385165601765 0.008867244362778082 0.0 -0.0006301615729059102 0.0 0.0
-0.006851273177834723 0.004115934663979232 0.0 -0.0005034082164999817 0.0 0.0
-0.0036136068609618406 0.001609882711559983 0.0 -0.0002467214401408014 0.0 0.0
-0.0019446866547321797 0.0007319028340907463 0.0 5.638613415555251e-05 0.0 0.0
-0.000988138009044776 0.00040766083462758656 0.0 0.00014674591321055805 0.0 0.0
-0.0003334206806092458 0.00010560747840384419 0.0 0.0001354302435085873 0.0 0.0
-9.525194356651111e-05 1.734884447688903e-05 0.0 0.00011659856204347319 0.0 0.0
SCALARS Statev float 8
LOOKUP_TABLE default
0.0 0.021248406701938102 0.01712205134363597 -0.02022920084033481 0.003107149496698861 -0.0014282913673860605 0.0 0.0
0.0 0.00769716477692028 0.00574900900640425 -0.003766556739449147 -0.0019824522669551 -0.007674819259085766 0.0 0.0
0.0 0.0002818574593180083 0.0003414732915149531 -0.00020517610668196296 -0.00013629718483299013 -0.00047698752873730595 0.0 0.0
0.0 0.0002568510123132573 0.00016935763832194687 -0.00012179240853334203 -4.756522978860542e-05 4.461585166440841e-05 0.0 0.0
0.0 0.0014798642027495867 0.00114142828801291 -0.0008470049131634699 -0.0002944233748494396 0.00023236918449138073 0.0 0.0
0.0 0.003998313261032902 0.003855068663262606 -0.003141005584070572 -0.0007140630791920396 0.00045938670815617063 0.0 0.0
0.0 0.009683417010075785 0.008805624423478348 -0.007749381443641502 -0.0010562429798368347 0.0006225066224219649 0.0 0.0
0.0 0.018426019090290402 0.016512422947638522 -0.015182309840691521 -0.0013301131069469849 0.0006819364400042862 0.0 0.0
0.0 0.030772544556403263 0.027326705632495684 -0.0257238540747297 -0.001602851557765987 0.0006293752937807967 0.0 0.0
0.0 0.046864321432654996 0.0413410114655795 -0.039427142956704825 -0.0019138685088746752 0.0004188648053686761 0.0 0.0
0.0 0.06650157917244195 0.058388514959959795 -0.05610914709135505 -0.0022793678686047194 7.800848252397278e-05 0.0 0.0
0.0 0.08899701941692606 0.07816080707001505 -0.07546078308087355 -0.0027000239891414157 -0.0003699183848510072 0.0 0.0
0.0 0.11429022258120593 0.10029403231312903 -0.09713175686877917 -0.0031622754443498204 -0.0009232951094731326 0.0 0.0
0.0 0.1418734949662643 0.12439825436303087 -0.1207487496226852 -0.003649504740345527 -0.001534431918443987 0.0 0.0
0.0 0.1711835165361711 0.14997848201898636 -0.1458379093943698 -0.004140572624616418 -0.002213608290376665 0.0 0.0
0.0 0.20141812166472606 0.17629817948731033 -0.17168722253834134 -0.004610956948968777 -0.0029108687561021926 0.0 0.0
0.0 0.2313243135584976 0.2023000248877859 -0.19726492532654222 -0.005035099561243926 -0.003477102214440632 0.0 0.0
0.0 0.25931915275322087 0.22662338028046852 -0.22123473965920826 -0.005388640621260143 -0.003708236094821781 0.0 0.0
0.0 0.2835813103334184 0.24771017548390156 -0.24203760169256713 -0.005672573791333761 -0.0035036624013170285 0.0 0.0
0.0 0.3016251716929246 0.2636125985564007 -0.2577564932975959 -0.005856105258805236 -0.004451814026811319 0.0 0.0
0.0 0.30956319470112154 0.2700720595301348 -0.2642305022257279 -0.005841557304406576 4.154662724964453e-15 0.0 0.0
0.0 0.30162517169288405 0.26361259855636493 -0.2577564932975611 -0.005856105258804065 0.004451814026823901 0.0 0.0
0.0 0.2835813103333377 0.2477101754838297 -0.24203760169249808 -0.00567257379133117 0.003503662401330229 0.0 0.0
0.0 0.25931915275309875 0.22662338028036236 -0.22123473965910373 -0.005388640621258642 0.0037082360948261523 0.0 0.0
0.0 0.23132431355834562 0.20230002488765458 -0.19726492532641188 -0.005035099561242976 0.0034771022144383136 0.0 0.0
0.0 0.20141812166457204 0.17629817948717558 -0.17168722253820815 -0.004610956948967265 0.0029108687560942008 0.0 0.0
0.0 0.17118351653601696 0.14997848201885228 -0.14583790939423785 -0.00414057262461436 0.0022136082903766703 0.0 0.0
0.0 0.14187349496610865 0.12439825436289509 -0.12074874962255197 -0.0036495047403431796 0.0015344319184441846 0.0 0.0
0.0 0.11429022258105162 0.10029403231299464 -0.09713175686864724 -0.0031622754443471892 0.0009232951094681396 0.0 0.0
0.0 0.08899701941679178 0.07816080706989742 -0.07546078308075865 -0.0027000239891386323 0.0003699183848468249 0.0 0.0
0.0 0.06650157917232305 0.05838851495985585 -0.056109147091253746 -0.002279367868602078 -7.8008482532403e-05 0.0 0.0
0.0 0.046864321432558274 0.04134101146549502 -0.03942714295662202 -0.001913868508873097 -0.00041886480537110826 0.0 0.0
0.0 0.03077254455633293 0.027326705632433827 -0.025723854074669473 -0.0016028515577643314 -0.000629375293779819 0.0 0.0
0.0 0.018426019090242735 0.016512422947595973 -0.01518230984065046 -0.0013301131069454848 -0.0006819364400045115 0.0 0.0
0.0 0.009683417010046255 0.008805624423451201 -0.007749381443616019 -0.001056242979835183 -0.0006225066224216187 0.0 0.0
0.0 0.003998313261018644 0.0038550686632487577 -0.0031410055840583742 -0.0007140630791903931 -0.000459386708154978 0.0 0.0
0.0 0.0014798642027433863 0.0011414282880081177 -0.0008470049131598467 -0.0002944233748482672 -0.00023236918449029293 0.0 0.0
0.0 0.0002568510123120668 0.0001693576383216117 -0.00012179240853314059 -4.756522978847041e-05 -4.461585166421984e-05 0.0 0.0
0.0 0.0002818574593166552 0.00034147329151380427 -0.00020517610668123622 -0.0001362971848325667 0.0004769875287356491 0.0 0.0
0.0 0.007697164776908789 0.005749009006398431 -0.0037665567394445515 -0.0019824522669538826 0.007674819259075798 0.0 0.0
0.0 0.021248406701915894 0.0171220513436214 -0.02022920084031466 0.0031071494966932525 0.0014282913673397703 0.0 0.0
0.0 0.017535487374741664 0.013274760135348822 -0.01693658912011918 0.003661828984770357 -0.0009279268015467545 0.0 0.0
0.0 0.0049605152813566675 0.0035762185673702657 -0.002337818803659768 -0.0012383997637104946 -0.006250764353214311 0.0 0.0
0.0 -0.00010358630074432321 -8.14224800674653e-05 8.039734441906012e-05 1.025135648405142e-06 -0.00015046736654132149 0.0 0.0
0.0 8.647873689852838e-05 7.731141419710271e-05 -5.5773737233936465e-05 -2.1537676963166155e-05 2.2077167175530105e-05 0.0 0.0
0.0 0.0009178462820368864 0.0007921714198394724 -0.0005928993281437251 -0.00019927209169574663 8.651056200470705e-05 0.0 0.0
0.0 0.0034624997909763746 0.0030750254724309506 -0.002533224499645814 -0.0005418009727851412 3.6538496660451374e-05 0.0 0.0
0.0 0.008347427438782805 0.007558224759030228 -0.006747052623691385 -0.000811172135338841 -0.0003618905228269211 0.0 0.0
0.0 0.016471113395076318 0.014633385294668339 -0.013667759526289963 -0.0009656257683783847 -0.0010281635776628571 0.0 0.0
0.0 0.0279933665898569 0.02461864305981258 -0.02354496316241693 -0.0010736798973956406 -0.0019689781667220196 0.0 0.0
0.0 0.042920306980307535 0.03754236840761702 -0.03637517747539317 -0.001167190932223882 -0.0031522677766954907 0.0 0.0
0.0 0.06106044815764409 0.05321046462079557 -0.05195390118814816 -0.0012565634326474557 -0.004472593601160519 0.0 0.0
0.0 0.08217565328904428 0.07133322919352988 -0.06998600511483422 -0.0013472240786955648 -0.005832837396396214 0.0 0.0
0.0 0.1053282047920653 0.09161214186516171 -0.09017300335367114 -0.0014391385114905287 -0.007216439583333447 0.0 0.0
0.0 0.13087057662446244 0.11370929818259855 -0.1121838464000631 -0.0015254517825354222 -0.008614128136531804 0.0 0.0
0.0 0.15799526976462172 0.13718423780785174 -0.13558799390851353 -0.0015962438993380383 -0.009970218051710465 0.0 0.0
0.0 0.18598346366133256 0.16138640469265955 -0.15974314484647822 -0.001643259846181431 -0.011142902225697691 0.0 0.0
0.0 0.21377483117936563 0.18537843393734554 -0.18371634719878577 -0.0016620867385596606 -0.01183692904366051 0.0 0.0
0.0 0.23992814606946863 0.20792425826717673 -0.2062700200643643 -0.0016542382028124326 -0.011705790633862487 0.0 0.0
0.0 0.26256016361305107 0.22743688917117244 -0.2258326403205867 -0.0016042488505855748 -0.010695199239697566 0.0 0.0
0.0 0.27907416992635936 0.24158367083801444 -0.24017499251616656 -0.0014086783218477499 -0.01002354881256102 0.0 0.0
0.0 0.28642698878344097 0.24711584532464223 -0.24600117303258243 -0.001114672292059892 9.87751547221194e-15 0.0 0.0
0.0 0.27907416992631906 0.24158367083797871 -0.24017499251613106 -0.0014086783218474784 0.010023548812587529 0.0 0.0
0.0 0.2625601636129731 0.22743688917110494 -0.225832640320519 -0.0016042488505857164 0.010695199239726715 0.0 0.0
0.0 0.23992814606935875 0.20792425826708197 -0.20627002006426962 -0.0016542382028122923 0.011705790633880404 0.0 0.0
0.0 0.21377483117923557 0.18537843393723372 -0.18371634719867394 -0.0016620867385599295 0.011836929043660974 0.0 0.0
0.0 0.18598346366119115 0.16138640469253773 -0.159743144846356 -0.0016432598461813474 0.011142902225688148 0.0 0.0
0.0 0.15799526976448092 0.1371842378077292 -0.13558799390839166 -0.0015962438993376246 0.009970218051708196 0.0 0.0
0.0 0.1308705766243187 0.11370929818247429 -0.1121838463999389 -0.0015254517825353045 0.008614128136528097 0.0 0.0
0.0 0.10532820479192187 0.0916121418650381 -0.09017300335354762 -0.0014391385114905252 0.007216439583324089 0.0 0.0
0.0 0.0821756532889194 0.07133322919342139 -0.06998600511472615 -0.0013472240786952857 0.005832837396387412 0.0 0.0
0.0 0.061060448157534045 0.05321046462070055 -0.05195390118805347 -0.001256563432647102 0.004472593601147695 0.0 0.0
0.0 0.04292030698022019 0.03754236840754081 -0.03637517747531728 -0.0011671909322234768 0.0031522677766868774 0.0 0.0
0.0 0.027993366589792987 0.02461864305975623 -0.023544963162361314 -0.0010736798973949137 0.001968978166717594 0.0 0.0
0.0 0.01647111339502968 0.014633385294627092 -0.013667759526249402 -0.0009656257683777149 0.0010281635776579145 0.0 0.0
0.0 0.008347427438756322 0.00755822475900639 -0.006747052623668532 -0.0008111721353378443 0.00036189052282424583 0.0 0.0
0.0 0.0034624997909619326 0.003075025472418268 -0.002533224499634535 -0.000541800972783728 -3.6538496661122814e-05 0.0 0.0
0.0 0.000917846282031797 0.0007921714198354875 -0.0005928993281406898 -0.00019927209169479896 -8.65105620042368e-05 0.0 0.0
0.0 8.647873689823351e-05 7.731141419740526e-05 -5.577373723420605e-05 -2.153767696319903e-05 -2.2077167175338757e-05 0.0 0.0
0.0 -0.000103586300744739 -8.14224800671897e-05 8.039734441881428e-05 1.0251356483750383e-06 0.00015046736654094508 0.0 0.0
0.0 0.004960515281344857 0.00357621856736381 -0.0023378188036549856 -0.0012383997637088254 0.00625076435320237 0.0 0.0
0.0 0.017535487374717256 0.013274760135330264 -0.016936589120096258 0.0036618289847659895 0.0009279268015115057 0.0 0.0
0.0 0.013319538067920696 0.009871977445644503 -0.012924924325222487 0.003052946879577995 -0.0037123108591676514 0.0 0.0
0.0 0.003416057147423415 0.0021964875166487633 -0.0012655710982477752 -0.0009309164184009932 -0.005583398213002518 0.0 0.0
0.0 -1.183788518431776e-06 2.3418408376648285e-07 1.0515981148075713e-07 -3.39343895247234e-07 -3.1035704151654266e-07 0.0 0.0
0.0 8.452533489728644e-06 7.182517042930788e-06 -4.217972673418054e-06 -2.964544369512854e-06 9.809403093303428e-06 0.0 0.0
0.0 0.000481855669714841 0.00043911302283730565 -0.00032007635833854127 -0.00011903666449876412 6.710581810418221e-06 0.0 0.0
0.0 0.0025514930400142894 0.002222997336976237 -0.0017812134092627446 -0.00044178392771349024 -0.00019564884191272729 0.0 0.0
0.0 0.006642833728502173 0.006083307002220866 -0.005335112935196788 -0.000748194067024082 -0.0009648467646792093 0.0 0.0
0.0 0.013924459955846836 0.012364510909619203 -0.011447442838455826 -0.0009170680711633755 -0.0022363501089908387 0.0 0.0
0.0 0.024255729085560687 0.021310525324257257 -0.02028902102874889 -0.0010215042955083423 -0.004011513666952206 0.0 0.0
0.0 0.037726098043423736 0.03288966971771931 -0.03178252505730257 -0.00110714466041676 -0.006186349005180183 0.0 0.0
0.0 0.054001754945821004 0.04688485802329337 -0.04569404788124831 -0.0011908101420450379 -0.008561368839631284 0.0 0.0
0.0 0.07265190907370142 0.06302840118809742 -0.06175107782536274 -0.0012773233627347107 -0.010955331712519459 0.0 0.0
0.0 0.0937301710882993 0.0810654324686114 -0.07970103043860682 -0.0013644020300044896 -0.013320378509752286 0.0 0.0
0.0 0.1162333598378566 0.10073591358732958 -0.09928980588104032 -0.0014461077062892724 -0.015688570589948922 0.0 0.0
0.0 0.14047617842684082 0.1216739101113235 -0.12015869127450074 -0.0015152188368229573 -0.017986328214053455 0.0 0.0
0.0 0.1655530488967117 0.1433433758749244 -0.1417791450570109 -0.0015642308179133935 -0.019955397737389094 0.0 0.0
0.0 0.1905683686198401 0.16496112954660874 -0.16337323756523472 -0.0015878919813742903 -0.02113857799131419 0.0 0.0
0.0 0.2142114008601225 0.18540519644436612 -0.18382852938546182 -0.0015766670589043505 -0.02104553353267374 0.0 0.0
0.0 0.23466019120549014 0.20305476267802056 -0.20155421340904633 -0.0015005492689739886 -0.01952220594906671 0.0 0.0
0.0 0.24943381595377712 0.21575381451214815 -0.21436656905848891 -0.0013872454536587937 -0.01678967846928638 0.0 0.0
0.0 0.2563502044520437 0.2208723883657512 -0.2198171765711646 -0.0010552117945867232 1.9437576548320123e-14 0.0 0.0
0.0 0.249433815953742 0.21575381451211598 -0.21436656905845716 -0.001387245453658784 0.0167896784693335 0.0 0.0
0.0 0.23466019120541548 0.20305476267795575 -0.20155421340898072 -0.0015005492689752324 0.01952220594911261 0.0 0.0
0.0 0.2142114008600209 0.18540519644427844 -0.1838285293853733 -0.0015766670589050075 0.021045533532702724 0.0 0.0
0.0 0.1905683686197213 0.16496112954650666 -0.16337323756513264 -0.0015878919813741212 0.021138577991314227 0.0 0.0
0.0 0.1655530488965895 0.14334337587481855 -0.14177914505690542 -0.0015642308179130793 0.019955397737381586 0.0 0.0
0.0 0.14047617842671148 0.12167391011121131 -0.1201586912743888 -0.00151521883682237 0.01798632821404788 0.0 0.0
0.0 0.1162333598377292 0.10073591358721935 -0.09928980588093045 -0.0014461077062889178 0.01568857058994253 0.0 0.0
0.0 0.09373017108817298 0.08106543246850273 -0.07970103043849791 -0.0013644020300047528 0.013320378509739772 0.0 0.0
0.0 0.07265190907358861 0.0630284011880004 -0.0617510778252656 -0.0012773233627347649 0.01095533171250264 0.0 0.0
0.0 0.05400175494572381 0.0468848580232094 -0.04569404788116435 -0.0011908101420450737 0.008561368839613224 0.0 0.0
0.0 0.03772609804334454 0.032889669717649964 -0.031782525057233786 -0.0011071446604161612 0.006186349005165047 0.0 0.0
0.0 0.02425572908550051 0.021310525324204604 -0.020289021028697077 -0.0010215042955075285 0.00401151366694237 0.0 0.0
0.0 0.013924459955804892 0.012364510909582745 -0.011447442838419867 -0.0009170680711628468 0.0022363501089825944 0.0 0.0
0.0 0.006642833728478854 0.0060833070021998805 -0.005335112935176857 -0.0007481940670230285 0.000964846764674136 0.0 0.0
0.0 0.0025514930400012447 0.0022229973369649807 -0.0017812134092530657 -0.00044178392771191527 0.00019564884191070682 0.0 0.0
0.0 0.00048185566971086326 0.00043911302283427666 -0.0003200763583363054 -0.0001190366644979712 -6.710581810423479e-06 0.0 0.0
0.0 8.452533489727177e-06 7.182517043098686e-06 -4.217972673558806e-06 -2.9645443695398595e-06 -9.809403093183624e-06 0.0 0.0
0.0 -1.1837885183255944e-06 2.341840836981056e-07 1.0515981152978335e-07 -3.3934389522788904e-07 3.1035704148668284e-07 0.0 0.0
0.0 0.003416057147413985 0.002196487516643307 -0.0012655710982440896 -0.0009309164183992089 0.005583398212988261 0.0 0.0
0.0 0.013319538067895131 0.009871977445625598 -0.012924924325198999 0.003052946879573378 0.0037123108591443355 0.0 0.0
0.0 0.010263502718634047 0.007422954361638228 -0.009909841621308077 0.0024868872596698196 -0.003981670414680028 0.0 0.0
0.0 0.002543027535239009 0.0015382234136716464 -0.000865999771348416 -0.0006722236423232243 -0.004332982030280403 0.0 0.0
0.0 0.0 0.0 0.0 0.0 0.0 0.0 0.0
0.0 -8.812774654955116e-06 -7.833198423840367e-06 6.249563228867106e-06 1.5836351949732577e-06 6.620177763954612e-06 0.0 0.0
0.0 0.00020916899423526424 0.00018460356529758517 -0.00012985908775721322 -5.474447754037133e-05 -7.122947253000841e-06 0.0 0.0
0.0 0.0016550802007791578 0.0014951140200605863 -0.0011636464271874548 -0.000331467592873129 -0.0003199629561730806 0.0 0.0
0.0 0.0052740075157415665 0.004664353994451595 -0.003999570721567225 -0.000664783272884365 -0.001268673419966532 0.0 0.0
0.0 0.011435744367766117 0.010117971185653041 -0.009258972321158632 -0.0008589988644944046 -0.0030323132410430362 0.0 0.0
0.0 0.02059051103561554 0.017981097072825407 -0.017016773276082458 -0.0009643237967429405 -0.005438282442355868 0.0 0.0
0.0 0.03252135397193236 0.02818150218179684 -0.02713802658332761 -0.0010434755984692168 -0.008356571097792273 0.0 0.0
0.0 0.04684275778680244 0.04048350098923673 -0.039362814787869044 -0.0011206862013675928 -0.011514243234488833 0.0 0.0
0.0 0.06338874728874565 0.054635300837406774 -0.0534331144167426 -0.0012021864206641763 -0.014688130371467326 0.0 0.0
0.0 0.08160719201326111 0.07042793315145184 -0.06914298401106425 -0.0012849491403875396 -0.017818249203464195 0.0 0.0
0.0 0.10183691313934941 0.08764977056974901 -0.08628814057406872 -0.0013616299956802293 -0.020917098640557904 0.0 0.0
0.0 0.12305527951422415 0.10603190233897886 -0.1046033972834037 -0.0014285050555751173 -0.023905972343560306 0.0 0.0
0.0 0.14503461886155783 0.1251621040131993 -0.12368143594895888 -0.0014806680642404394 -0.026506806826663686 0.0 0.0
0.0 0.1673742529868208 0.14440120672248313 -0.14289348513810315 -0.001507721584380047 -0.028201175394828377 0.0 0.0
0.0 0.18858640278700706 0.16275004295298146 -0.1612558152810013 -0.001494227671980043 -0.02838656232741108 0.0 0.0
0.0 0.2070176895496879 0.17872220613261985 -0.17728743946005787 -0.00143476667256195 -0.026460840945574757 0.0 0.0
0.0 0.22053658403037726 0.1904779024054043 -0.18911503095143625 -0.0013628714539683923 -0.021451764280869923 0.0 0.0
0.0 0.22747381673270886 0.1955246229461504 -0.19462325730489796 -0.0009013656412523703 2.749623445597038e-14 0.0 0.0
0.0 0.22053658403034823 0.19047790240537654 -0.18911503095140825 -0.0013628714539683897 0.021451764280932192 0.0 0.0
0.0 0.20701768954962319 0.17872220613256207 -0.17728743945999953 -0.0014347666725623791 0.026460840945636117 0.0 0.0
0.0 0.1885864027869221 0.16275004295290774 -0.1612558152809267 -0.0014942276719810453 0.02838656232744724 0.0 0.0
0.0 0.16737425298671024 0.14440120672238874 -0.14289348513800706 -0.0015077215843817104 0.028201175394829785 0.0 0.0
0.0 0.1450346188614516 0.12516210401310737 -0.12368143594886781 -0.0014806680642393557 0.026506806826655127 0.0 0.0
0.0 0.12305527951410605 0.10603190233887687 -0.10460339728330097 -0.0014285050555760263 0.023905972343549155 0.0 0.0
0.0 0.1018369131392403 0.08764977056965409 -0.08628814057397464 -0.0013616299956795488 0.02091709864054784 0.0 0.0
0.0 0.08160719201315281 0.07042793315135913 -0.06914298401097155 -0.001284949140387527 0.017818249203448183 0.0 0.0
0.0 0.06338874728864663 0.05463530083732126 -0.05343311441665742 -0.001202186420663907 0.014688130371444393 0.0 0.0
0.0 0.046842757786717565 0.04048350098916375 -0.03936281478779653 -0.0011206862013671526 0.01151424323446635 0.0 0.0
0.0 0.032521353971862996 0.02818150218173695 -0.027138026583268193 -0.0010434755984687386 0.00835657109777208 0.0 0.0
0.0 0.020590511035561577 0.017981097072778927 -0.017016773276036384 -0.0009643237967425325 0.005438282442341236 0.0 0.0
0.0 0.011435744367731416 0.010117971185622254 -0.009258972321128598 -0.0008589988644936465 0.00303231324103278 0.0 0.0
0.0 0.005274007515720237 0.004664353994433676 -0.003999570721550614 -0.000664783272883058 0.0012686734199601028 0.0 0.0
0.0 0.0016550802007689236 0.0014951140200521473 -0.001163646427180435 -0.00033146759287171147 0.00031996295617056213 0.0 0.0
0.0 0.00020916899423360034 0.00018460356529667124 -0.00012985908775659723 -5.474447754007361e-05 7.122947253225024e-06 0.0 0.0
0.0 -8.81277465522964e-06 -7.833198423829577e-06 6.249563228856451e-06 1.5836351949731552e-06 -6.620177763952528e-06 0.0 0.0
0.0 0.0 0.0 0.0 0.0 0.0 0.0 0.0
0.0 0.0025430275352308334 0.0015382234136668968 -0.0008659997713452235 -0.0006722236423216771 0.004332982030268094 0.0 0.0
0.0 0.010263502718612365 0.007422954361621444 -0.00990984162128708 0.0024868872596656216 0.003981670414663361 0.0 0.0
0.0 0.007681771371302271 0.005521969965466676 -0.007502242657884882 0.0019802726924182177 -0.003415284258676327 0.0 0.0
0.0 0.0020408384671742534 0.0010491533071032267 -0.0005808925950865004 -0.000468260712016727 -0.0032146878291776887 0.0 0.0
0.0 0.0 0.0 0.0 0.0 0.0 0.0 0.0
0.0 -1.139811024907107e-06 -1.0684248821671476e-06 8.556532274538258e-07 2.12771654713325e-07 1.489703629107703e-06 0.0 0.0
0.0 2.7294213225525347e-05 4.041744709994232e-05 -2.4902692797116455e-05 -1.5514754302825924e-05 1.1050363401463136e-05 0.0 0.0
0.0 0.0010244681672920523 0.0008925281253912862 -0.0006756862144092474 -0.0002168419109820388 -0.00032664751499743294 0.0 0.0
0.0 0.003954959232732329 0.003363470069303441 -0.002807815878692853 -0.0005556541906105852 -0.00136017106359309 0.0 0.0
0.0 0.009047002129924887 0.007928002613459662 -0.007139647894517438 -0.0007883547189422282 -0.003376506652599899 0.0 0.0
0.0 0.016973584396556666 0.014673722371560217 -0.013772988377729984 -0.0009007339938302498 -0.006240514718702536 0.0 0.0
0.0 0.027314222185577285 0.023465773355045082 -0.02249117501799055 -0.0009745983370545092 -0.009661090568132087 0.0 0.0
0.0 0.03976403993575674 0.03405496655015245 -0.033009469717197475 -0.0010454968329549833 -0.013341713430251343 0.0 0.0
0.0 0.05402770737136755 0.046203200416786966 -0.04508188212202617 -0.0011213182947607883 -0.017037687715861314 0.0 0.0
0.0 0.0699540535110803 0.059737547438947776 -0.0585386656597335 -0.0011988817792142619 -0.02068870944723295 0.0 0.0
0.0 0.08697647450920568 0.0745112449928064 -0.07323919465245796 -0.0012720503403484875 -0.024296940070942175 0.0 0.0
0.0 0.10548945312875571 0.09032145513988106 -0.08898529833851629 -0.0013361568013647357 -0.027750794401923292 0.0 0.0
0.0 0.12480868557582249 0.10687421856569751 -0.10548601796347533 -0.0013882006022221942 -0.03078157992597279 0.0 0.0
0.0 0.1441381038736389 0.123692000441849 -0.12227170128527712 -0.0014202991565718998 -0.03293960218996107 0.0 0.0
0.0 0.16290513801137885 0.13995878114053198 -0.13854015934267527 -0.001418621797856515 -0.033528912454150114 0.0 0.0
0.0 0.17954317813511572 0.15443053226782513 -0.15305218382161964 -0.0013783484462052864 -0.03138867657919394 0.0 0.0
0.0 0.19221310701456595 0.16554784043286574 -0.16422274461101535 -0.0013250958218504996 -0.02490691382134687 0.0 0.0
0.0 0.19943568575079154 0.17070234552135424 -0.16999606149961302 -0.0007062840217409994 3.11972669919669e-14 0.0 0.0
0.0 0.1922131070145384 0.16554784043283888 -0.1642227446109873 -0.0013250958218515704 0.024906913821418804 0.0 0.0
0.0 0.17954317813506288 0.1544305322677763 -0.15305218382157026 -0.0013783484462058248 0.03138867657926553 0.0 0.0
0.0 0.16290513801131198 0.13995878114047203 -0.13854015934261665 -0.001418621797855318 0.033528912454190554 0.0 0.0
0.0 0.14413810387354992 0.12369200044177266 -0.1222717012852008 -0.0014202991565718578 0.03293960218996721 0.0 0.0
0.0 0.12480868557572783 0.10687421856561535 -0.10548601796339374 -0.0013882006022216556 0.03078157992596108 0.0 0.0
0.0 0.1054894531286576 0.09032145513979639 -0.08898529833843195 -0.0013361568013645266 0.027750794401909137 0.0 0.0
0.0 0.08697647450911045 0.07451124499272385 -0.07323919465237602 -0.0012720503403478196 0.02429694007092939 0.0 0.0
0.0 0.06995405351098491 0.059737547438865904 -0.05853866565965162 -0.00119888177921417 0.020688709447213478 0.0 0.0
0.0 0.05402770737128101 0.04620320041671295 -0.045081882121952424 -0.001121318294760491 0.01703768771583488 0.0 0.0
0.0 0.03976403993568387 0.034054966550090576 -0.0330094697171363 -0.001045496832954276 0.013341713430223778 0.0 0.0
0.0 0.027314222185518974 0.023465773354995462 -0.022491175017941317 -0.0009745983370541412 0.009661090568108406 0.0 0.0
0.0 0.016973584396510026 0.014673722371520277 -0.013772988377690502 -0.00090073399382977 0.006240514718685065 0.0 0.0
0.0 0.00904700212989368 0.007928002613432789 -0.007139647894491449 -0.0007883547189413506 0.003376506652587245 0.0 0.0
0.0 0.0039549592327145005 0.0033634700692889187 -0.0028078158786798047 -0.0005556541906091106 0.0013601710635863322 0.0 0.0
0.0 0.0010244681672848868 0.0008925281253857179 -0.0006756862144048364 -0.00021684191098088237 0.0003266475149950092 0.0 0.0
0.0 2.7294213224673317e-05 4.041744709959174e-05 -2.4902692796918388e-05 -1.551475430267341e-05 -1.1050363401240783e-05 0.0 0.0
0.0 -1.1398110250255602e-06 -1.068424882214991e-06 8.556532274917729e-07 2.1277165472320047e-07 -1.4897036291760387e-06 0.0 0.0
0.0 0.0 0.0 0.0 0.0 0.0 0.0 0.0
0.0 0.0020408384671664363 0.0010491533070992951 -0.0005808925950838705 -0.0004682607120154228 0.0032146878291671927 0.0 0.0
0.0 0.007681771371283867 0.0055219699654522475 -0.0075022426578666 0.0019802726924143432 0.0034152842586644525 0.0 0.0
0.0 0.005705400459702635 0.003983947800681261 -0.005505800725297897 0.0015218529246166308 -0.0026873236569617915 0.0 0.0
0.0 0.0013271256934749653 0.000685356649782146 -0.0003732369798034748 -0.0003121196699786694 -0.0022860923873903754 0.0 0.0
0.0 1.4483749750251462e-07 -3.087412547042466e-09 2.644247110450392e-09 4.4316543659177474e-10 2.8266529167811133e-08 0.0 0.0
0.0 -3.5987170652192836e-07 9.007471490107853e-08 -6.561216481106642e-08 -2.4462550090011982e-08 -1.2903915001924028e-07 0.0 0.0
0.0 -2.5708439303709185e-05 -1.656955601761534e-05 1.4974687088731667e-05 1.594868928883677e-06 3.547136049227458e-05 0.0 0.0
0.0 0.0004998265936276687 0.00045469065544680404 -0.00033506647500981145 -0.00011962418043699326 -0.00026107006679568245 0.0 0.0
0.0 0.002547429611796815 0.002240001726405963 -0.0018150536064003684 -0.0004249481200055925 -0.0013031520388285063 0.0 0.0
0.0 0.007064328770469983 0.00584102705605642 -0.005148144604677371 -0.0006928824513790397 -0.003326899711292794 0.0 0.0
0.0 0.013307431353531234 0.01143084729895582 -0.010604996216716183 -0.0008258510822396522 -0.006397333447205027 0.0 0.0
0.0 0.0221969217137904 0.018789328562671397 -0.017890643196650496 -0.0008986853660209114 -0.01009437291156813 0.0 0.0
0.0 0.032697186846350375 0.027649628419165385 -0.02668607469194685 -0.0009635537272185208 -0.014042659572950218 0.0 0.0
0.0 0.044665099634602974 0.037783921900943554 -0.03675029234841308 -0.0010336295525304228 -0.018005674593946194 0.0 0.0
0.0 0.05794120348013894 0.04905392209216495 -0.04794783751455456 -0.001106084577610425 -0.021922349050244143 0.0 0.0
0.0 0.07249025703695976 0.06136517393491861 -0.06019100023882057 -0.001174173696097987 -0.025794803336910557 0.0 0.0
0.0 0.0879296732539693 0.07459543019820435 -0.07336029990444912 -0.0012351302937553136 -0.029505467295083975 0.0 0.0
0.0 0.10405406056207585 0.08853955718010288 -0.08725267583995344 -0.0012868813401493864 -0.03278337474081166 0.0 0.0
0.0 0.12097846870327057 0.10286435816901515 -0.1015391529649605 -0.0013252052040546203 -0.03526008380468622 0.0 0.0
0.0 0.13723423212658376 0.11702005397908417 -0.11567826089772802 -0.0013417930813562115 -0.03627058064250152 0.0 0.0
0.0 0.15201156739945293 0.13008510438719229 -0.12876220229388266 -0.0013229020933095575 -0.03435237047618862 0.0 0.0
0.0 0.16411549973635248 0.1407553277981932 -0.1394757351740332 -0.001279592624160028 -0.027347607426407627 0.0 0.0
0.0 0.1718735622094199 0.1461510009239348 -0.14567326540015413 -0.00047773552378046113 3.2367337976513255e-14 0.0 0.0
0.0 0.16411549973633027 0.14075532779816952 -0.13947573517400882 -0.0012795926241606784 0.027347607426482817 0.0 0.0
0.0 0.15201156739940525 0.13008510438714732 -0.12876220229383567 -0.001322902093311634 0.03435237047626087 0.0 0.0
0.0 0.13723423212652186 0.11702005397902857 -0.11567826089767182 -0.001341793081356614 0.03627058064254511 0.0 0.0
0.0 0.12097846870319931 0.10286435816895334 -0.10153915296489997 -0.001325205204053315 0.03526008380469292 0.0 0.0
0.0 0.10405406056199525 0.08853955718003395 -0.08725267583988382 -0.001286881340150308 0.03278337474079911 0.0 0.0
0.0 0.08792967325388756 0.07459543019813357 -0.07336029990437884 -0.0012351302937546962 0.0295054672950687 0.0 0.0
0.0 0.07249025703687847 0.06136517393484833 -0.060191000238750424 -0.0011741736960979036 0.025794803336895336 0.0 0.0
0.0 0.05794120348005985 0.04905392209209783 -0.047947837514487314 -0.0011060845776105154 0.02192234905022438 0.0 0.0
0.0 0.04466509963452974 0.03778392190088178 -0.0367502923483516 -0.0010336295525301676 0.01800567459391892 0.0 0.0
0.0 0.03269718684628959 0.027649628419114954 -0.026686074691896676 -0.0009635537272182864 0.01404265957292149 0.0 0.0
0.0 0.022196921713739874 0.01878932856262881 -0.017890643196608453 -0.0008986853660203561 0.010094372911542105 0.0 0.0
0.0 0.013307431353494133 0.01143084729892435 -0.010604996216684922 -0.0008258510822394384 0.006397333447186333 0.0 0.0
0.0 0.007064328770442757 0.005841027056034328 -0.005148144604656347 -0.0006928824513779799 0.0033268997112799892 0.0 0.0
0.0 0.0025474296117834415 0.002240001726395295 -0.0018150536063910247 -0.00042494812000426995 0.0013031520388215232 0.0 0.0
0.0 0.0004998265936220892 0.00045469065544259836 -0.00033506647500662547 -0.00011962418043597284 0.00026107006679276096 0.0 0.0
0.0 -2.570843930411198e-05 -1.6569556017189203e-05 1.4974687088386296e-05 1.594868928802869e-06 -3.547136049154445e-05 0.0 0.0
0.0 -3.598717064151673e-07 9.007471486231193e-08 -6.561216478025335e-08 -2.4462550082055395e-08 1.2903914994917422e-07 0.0 0.0
0.0 1.4483749738291524e-07 -3.0874125444692183e-09 2.6442471082460284e-09 4.431654362230215e-10 -2.8266529144286692e-08 0.0 0.0
0.0 0.0013271256934687004 0.0006853566497791638 -0.00037323697980150847 -0.0003121196699776537 0.0022860923873818753 0.0 0.0
0.0 0.005705400459687623 0.003983947800669487 -0.0055058007252826125 0.0015218529246131224 0.0026873236569533586 0.0 0.0
0.0 0.003925168207274534 0.002746696696818156 -0.0038567544929408535 0.0011100577961226919 -0.0020225987458915634 0.0 0.0
0.0 0.0008722565743502843 0.0004044299654499015 -0.00020865436652915163 -0.0001957755989207494 -0.0015115456114008614 0.0 0.0
0.0 1.1853683892268223e-07 1.5421076153843974e-09 -7.818401241691979e-10 -7.602674912153491e-10 2.4929733331571593e-08 0.0 0.0
0.0 5.1030881011982764e-08 -4.205670022496863e-08 3.054878098742029e-08 1.1507919237545495e-08 1.9978739162441665e-07 0.0 0.0
0.0 -2.648127437726419e-05 -1.7032801973932293e-05 1.3780351279685612e-05 3.2524506942467427e-06 3.5375582092744976e-05 0.0 0.0
0.0 0.0001904387060870127 0.00016335848302078933 -0.00011644116883992069 -4.691731418086861e-05 -0.00013896514459959533 0.0 0.0
0.0 0.0015740406702974574 0.0013009164587131352 -0.0010230912059201822 -0.0002778252527929531 -0.0010805611393545924 0.0 0.0
0.0 0.004723829478254323 0.003957084668953319 -0.0033928270099713937 -0.0005642576589819225 -0.0030067283409066386 0.0 0.0
0.0 0.010321657639397977 0.008302741973948613 -0.007572115088751444 -0.0007306268851971708 -0.005941239615743469 0.0 0.0
0.0 0.01702350606328632 0.014205305868352986 -0.013394636395764279 -0.0008106694725887121 -0.00963899355734844 0.0 0.0
0.0 0.025704951185764047 0.021320314822900255 -0.020448005090106237 -0.0008723097327940257 -0.013604382978482035 0.0 0.0
0.0 0.0354051926641243 0.0294313508422789 -0.028494899264677444 -0.0009364515776014856 -0.01758394456624645 0.0 0.0
0.0 0.04609880337287969 0.03843075566293916 -0.0374278333082582 -0.0010029223546808893 -0.021507971644380664 0.0 0.0
0.0 0.05777080247395065 0.048276159818208826 -0.04720960490473802 -0.001066554913470869 -0.02539276492134008 0.0 0.0
0.0 0.07028269903122535 0.05891093884302838 -0.057787618247409966 -0.0011233205956183454 -0.029135647068410934 0.0 0.0
0.0 0.08379525441635237 0.07021022879149888 -0.06903857799301022 -0.0011716507984887222 -0.03247421049594857 0.0 0.0
0.0 0.09716485521274287 0.08198049204128234 -0.0807630621480004 -0.001217429893281965 -0.03507738648429466 0.0 0.0
0.0 0.1112000753984109 0.09393416314931961 -0.0926770373458105 -0.0012571258035089428 -0.03646855077941642 0.0 0.0
0.0 0.12465652550963134 0.10556306195438912 -0.10429894769644256 -0.0012641142579467364 -0.03523058335593092 0.0 0.0
0.0 0.1361707372977073 0.11588215060149971 -0.1146526621739051 -0.0012294884275945953 -0.028757123095975966 0.0 0.0
0.0 0.14476790769720954 0.12163299210332232 -0.12141703893474838 -0.0002159531685740318 3.2188661458487644e-14 0.0 0.0
0.0 0.13617073729769008 0.11588215060147822 -0.11465266217388433 -0.0012294884275939851 0.028757123096050066 0.0 0.0
0.0 0.12465652550959044 0.10556306195434934 -0.10429894769640136 -0.0012641142579480579 0.03523058335600185 0.0 0.0
0.0 0.11120007539836434 0.09393416314927666 -0.09267703734576672 -0.0012571258035099957 0.03646855077946078 0.0 0.0
0.0 0.09716485521268625 0.08198049204123319 -0.08076306214795287 -0.0012174298932802795 0.03507738648430088 0.0 0.0
0.0 0.08379525441628687 0.07021022879144301 -0.06903857799295426 -0.0011716507984887573 0.032474210495934616 0.0 0.0
0.0 0.07028269903115585 0.05891093884296844 -0.057787618247349945 -0.0011233205956184687 0.02913564706839354 0.0 0.0
0.0 0.05777080247388681 0.04827615981815388 -0.047209604904683636 -0.0010665549134702558 0.025392764921323727 0.0 0.0
0.0 0.04609880337282195 0.03843075566289038 -0.03742783330820989 -0.0010029223546805005 0.021507971644363813 0.0 0.0
0.0 0.03540519266406545 0.029431350842230183 -0.028494899264629097 -0.0009364515776011148 0.017583944566220013 0.0 0.0
0.0 0.025704951185715013 0.021320314822860533 -0.020448005090066782 -0.0008723097327937428 0.013604382978453757 0.0 0.0
0.0 0.01702350606324568 0.01420530586831973 -0.013394636395731355 -0.0008106694725883709 0.00963899355732295 0.0 0.0
0.0 0.010321657639369862 0.008302741973926612 -0.007572115088730142 -0.000730626885196476 0.005941239615727909 0.0 0.0
0.0 0.0047238294782327266 0.003957084668936017 -0.003392827009955161 -0.0005642576589808497 0.003006728340893763 0.0 0.0
0.0 0.0015740406702883084 0.0013009164587064026 -0.0010230912059147016 -0.0002778252527917011 0.0010805611393491729 0.0 0.0
0.0 0.00019043870608358523 0.00016335848301875675 -0.00011644116883834134 -4.691731418041538e-05 0.00013896514459735398 0.0 0.0
0.0 -2.6481274376895776e-05 -1.703280197329645e-05 1.3780351279184662e-05 3.2524506941117887e-06 -3.5375582091394074e-05 0.0 0.0
0.0 5.103088071980681e-08 -4.205670026193204e-08 3.05487810160413e-08 1.1507919245892125e-08 -1.997873917120751e-07 0.0 0.0
0.0 1.1853683869198745e-07 1.5421076161875886e-09 -7.818401251826872e-10 -7.602674910048665e-10 -2.492973328350805e-08 0.0 0.0
0.0 0.0008722565743453113 0.00040442996544780236 -0.00020865436652781652 -0.00019577559891998587 0.0015115456113942555 0.0 0.0
0.0 0.003925168207262442 0.00274669669680877 -0.0038567544929283566 0.0011100577961195865 0.002022598745885202 0.0 0.0
0.0 0.002967380103950885 0.0017322138941604779 -0.0024698593863682994 0.0007376454922078203 -0.0014178028350887543 0.0 0.0
0.0 0.0004209842935605909 0.0002047133682223949 -9.389871213470604e-05 -0.00011081465608768914 -0.0008984985280892668 0.0 0.0
0.0 1.6069533134400687e-06 1.194083910099858e-07 -1.2404609941562812e-07 4.637708405642707e-09 -2.415775483872464e-06 0.0 0.0
0.0 -6.696644124952695e-07 -1.4528426519658273e-08 1.0805760577461986e-08 3.7226659421960107e-09 -3.6624710066964964e-07 0.0 0.0
0.0 -1.4114591144877392e-05 -8.241073789103286e-06 6.633327200452547e-06 1.6077465886507336e-06 2.611663090817032e-05 0.0 0.0
0.0 3.4590886910659775e-05 2.6439704261522745e-05 -1.6580044810081712e-05 -9.859659451441023e-06 -3.525248820578387e-05 0.0 0.0
0.0 0.0007934096905243713 0.0006001445229561195 -0.00046033225043667935 -0.00013981227251943964 -0.0007546884322406185 0.0 0.0
0.0 0.002896550210449593 0.002310268492794574 -0.001917820406800625 -0.0003924480859939497 -0.00242052599321461 0.0 0.0
0.0 0.006800797533590601 0.005410131543175252 -0.004812755374183906 -0.0005973761689913432 -0.005006283654246315 0.0 0.0
0.0 0.012479685464373344 0.009777598372139373 -0.009078355403849077 -0.0006992429682902935 -0.008325392292206076 0.0 0.0
0.0 0.018823864495794485 0.015125968209503566 -0.014363033972953831 -0.0007629342365497231 -0.012015403945214661 0.0 0.0
0.0 0.026176138100234597 0.021209418824881296 -0.020386032586714505 -0.0008233862381668053 -0.015745075887145157 0.0 0.0
0.0 0.03434823039217116 0.027936879874656283 -0.027053035524851155 -0.0008838443498051294 -0.019423423950722593 0.0 0.0
0.0 0.043208444848188185 0.035306915854974176 -0.034365658637727906 -0.0009412572172462105 -0.023063211923605928 0.0 0.0
0.0 0.05289651372487521 0.043330228316206226 -0.04233584637138564 -0.000994381944820588 -0.026608282143997228 0.0 0.0
0.0 0.06312137735914142 0.05196784537524403 -0.05092749135856292 -0.001040354016681076 -0.02982488083734678 0.0 0.0
0.0 0.07405359579745002 0.06111325976885751 -0.06002762677119464 -0.0010856329976628716 -0.032359198950928106 0.0 0.0
0.0 0.08515212185147451 0.07072009184767727 -0.06957257945523797 -0.0011475123924391474 -0.033929168859188286 0.0 0.0
0.0 0.09649525356045772 0.08075297920259668 -0.07955688085908161 -0.001196098343515023 -0.03370831276273598 0.0 0.0
0.0 0.1077751332515078 0.09069439373101358 -0.08951497517723053 -0.0011794185537829847 -0.02894050725291838 0.0 0.0
0.0 0.11763813163621926 0.09689791190320522 -0.09698090945333537 8.299755013008181e-05 2.8400025386954297e-14 0.0 0.0
0.0 0.10777513325149984 0.09069439373099901 -0.08951497517721599 -0.0011794185537829414 0.028940507252988232 0.0 0.0
0.0 0.0964952535604367 0.08075297920257177 -0.07955688085905711 -0.001196098343514611 0.03370831276280825 0.0 0.0
0.0 0.08515212185144036 0.07072009184764448 -0.06957257945520548 -0.0011475123924388714 0.033929168859230564 0.0 0.0
0.0 0.07405359579740337 0.061113259768817874 -0.060027626771156334 -0.001085632997661525 0.03235919895092997 0.0 0.0
0.0 0.06312137735908993 0.05196784537520075 -0.05092749135851966 -0.001040354016681151 0.02982488083733027 0.0 0.0
0.0 0.052896513724825775 0.04333022831616431 -0.04233584637134402 -0.0009943819448202458 0.0266082821439813 0.0 0.0
0.0 0.0432084448481419 0.03530691585493464 -0.03436565863768907 -0.0009412572172455767 0.02306321192359232 0.0 0.0
0.0 0.03434823039212811 0.02793687987462059 -0.027053035524816072 -0.0008838443498045118 0.0194234239507073 0.0 0.0
0.0 0.026176138100190968 0.021209418824845762 -0.020386032586679138 -0.0008233862381666099 0.015745075887121422 0.0 0.0
0.0 0.01882386449575554 0.015125968209473175 -0.014363033972924197 -0.0007629342365489544 0.012015403945187391 0.0 0.0
0.0 0.0124796854643422 0.00977759837211523 -0.009078355403825315 -0.0006992429682899167 0.008325392292183542 0.0 0.0
0.0 0.0068007975335691515 0.005410131543158622 -0.004812755374168062 -0.0005973761689905653 0.005006283654232078 0.0 0.0
0.0 0.0028965502104348097 0.002310268492783363 -0.0019178204067904544 -0.0003924480859929103 0.002420525993203512 0.0 0.0
0.0 0.0007934096905180428 0.0006001445229515868 -0.0004603322504331227 -0.00013981227251846386 0.0007546884322351123 0.0 0.0
0.0 3.459088690909294e-05 2.6439704261110863e-05 -1.6580044809803597e-05 -9.859659451307217e-06 3.5252488205312894e-05 0.0 0.0
0.0 -1.411459114593197e-05 -8.24107378894039e-06 6.633327200330341e-06 1.607746588610022e-06 -2.6116630907511403e-05 0.0 0.0
0.0 -6.696644125159989e-07 -1.4528426436899587e-08 1.0805760522921025e-08 3.722665913977923e-09 3.662471017863457e-07 0.0 0.0
0.0 1.6069533131853556e-06 1.1940839101054153e-07 -1.2404609942454685e-07 4.63770841400582e-09 2.4157754841368024e-06 0.0 0.0
0.0 0.0004209842935569825 0.000204713368220919 -9.389871213376427e-05 -0.00011081465608715495 0.0008984985280839889 0.0 0.0
0.0 0.002967380103940354 0.0017322138941537968 -0.002469859386359058 0.0007376454922052609 0.0014178028350844388 0.0 0.0
0.0 0.0016182555474691766 0.0009930522904842863 -0.0014377571450688376 0.0004447048545845516 -0.0009713655893102415 0.0 0.0
0.0 0.0001821515146679516 6.965005833566358e-05 -1.273191033525034e-05 -5.6918148000412794e-05 -0.0004255316010321035 0.0 0.0
0.0 4.025072887257598e-06 6.89951380171038e-08 -8.223477841514782e-08 1.3239640398045034e-08 -1.6654989095124265e-06 0.0 0.0
0.0 1.2878072386008252e-06 -2.4521652974254696e-07 1.9645741867406679e-07 4.875911106848014e-08 7.501624134321689e-07 0.0 0.0
0.0 -8.799747354979518e-06 -3.810307281413196e-06 3.0820012297228986e-06 7.283060516903002e-07 1.687716268943871e-05 0.0 0.0
0.0 -8.992024345344139e-06 -4.858000681166996e-06 5.139078360640516e-06 -2.8107767947349414e-07 -8.932667271372834e-07 0.0 0.0
0.0 0.0003201375231261005 0.0001713041448887756 -0.00013015281391352165 -4.1151330975254364e-05 -0.00040142280525391256 0.0 0.0
0.0 0.001516133356527855 0.0009875305285835059 -0.0007990812530510553 -0.00018844927553245055 -0.0016143802381718654 0.0 0.0
0.0 0.00389505812496134 0.002826153474495257 -0.0024357390868005317 -0.0003904143876947255 -0.0036566640194281423 0.0 0.0
0.0 0.007614058236311596 0.005638339917268539 -0.005108452749519086 -0.000529887167749454 -0.006291803076857149 0.0 0.0
0.0 0.01200051079555033 0.009170128297419493 -0.008558383012386995 -0.0006117452850324966 -0.009335326153022884 0.0 0.0
0.0 0.017151494697758396 0.013203456848799158 -0.012530746309052144 -0.0006727105397470134 -0.012497440223091964 0.0 0.0
0.0 0.022754584709458035 0.017658256652068674 -0.016929046312908598 -0.0007292103391600706 -0.015681775098612048 0.0 0.0
0.0 0.028849565111024888 0.022551401161426808 -0.0217714160578481 -0.0007799851035787202 -0.018846067534631073 0.0 0.0
0.0 0.035559708734403 0.027943166052243232 -0.027114670839367434 -0.0008284952128757954 -0.021951771853362823 0.0 0.0
0.0 0.042912765192484624 0.03388908225645122 -0.03301393532030554 -0.0008751469361456254 -0.0248792512270262 0.0 0.0
0.0 0.0507924707550282 0.04038828303191271 -0.03946838265385006 -0.0009199003780626597 -0.02729248304803404 0.0 0.0
0.0 0.05901780835990286 0.047493008554797586 -0.04650915654106086 -0.0009838520137367894 -0.028810006210720163 0.0 0.0
0.0 0.06831951490170804 0.055581921888229135 -0.05449793203669327 -0.0010839898515358256 -0.029325969078154164 0.0 0.0
0.0 0.07916303755125827 0.06491376344101321 -0.0637857523728016 -0.0011280110682116587 -0.02736168295596869 0.0 0.0
0.0 0.0905935485747662 0.07164786935132351 -0.07207026013770558 0.0004223907863819856 2.4528989950312052e-14 0.0 0.0
0.0 0.07916303755126067 0.06491376344100594 -0.0637857523727943 -0.0011280110682116275 0.02736168295603191 0.0 0.0
0.0 0.06831951490169685 0.05558192188821212 -0.0544979320366768 -0.0010839898515352944 0.029325969078221315 0.0 0.0
0.0 0.05901780835987554 0.04749300855477249 -0.04650915654103475 -0.0009838520137377333 0.02881000621075422 0.0 0.0
0.0 0.05079247075499436 0.04038828303188606 -0.03946838265382403 -0.0009199003780620573 0.027292483048031113 0.0 0.0
0.0 0.04291276519245166 0.03388908225642481 -0.033013935320279277 -0.0008751469361455097 0.02487925122701032 0.0 0.0
0.0 0.03555970873437091 0.027943166052216657 -0.027114670839341246 -0.000828495212875417 0.021951771853349688 0.0 0.0
0.0 0.028849565110996234 0.02255140116140302 -0.02177141605782446 -0.0007799851035785796 0.018846067534621667 0.0 0.0
0.0 0.022754584709431182 0.017658256652047285 -0.016929046312887705 -0.0007292103391595569 0.01568177509859969 0.0 0.0
0.0 0.01715149469772843 0.01320345684877697 -0.012530746309029929 -0.0006727105397470426 0.012497440223071785 0.0 0.0
0.0 0.01200051079552224 0.009170128297398921 -0.008558383012366617 -0.0006117452850323002 0.009335326152998995 0.0 0.0
0.0 0.007614058236290496 0.00563833991725351 -0.005108452749504287 -0.000529887167749229 0.006291803076839219 0.0 0.0
0.0 0.0038950581249472048 0.0028261534744848282 -0.0024357390867909582 -0.00039041438769386785 0.0036566640194174217 0.0 0.0
0.0 0.0015161333565198013 0.0009875305285782165 -0.0007990812530464659 -0.00018844927553175132 0.0016143802381643675 0.0 0.0
0.0 0.00032013752312151227 0.00017130414488707684 -0.00013015281391219342 -4.11513309748832e-05 0.0004014228052500449 0.0 0.0
0.0 -8.992024345874188e-06 -4.85800068103884e-06 5.139078360543508e-06 -2.8107767950472313e-07 8.93266727833054e-07 0.0 0.0
0.0 -8.799747356076854e-06 -3.8103072812586807e-06 3.08200122960677e-06 7.283060516519192e-07 -1.6877162688319184e-05 0.0 0.0
0.0 1.287807238349877e-06 -2.4521652978116616e-07 1.964574187052962e-07 4.8759111075870924e-08 -7.501624135531006e-07 0.0 0.0
0.0 4.025072886607013e-06 6.899513805548703e-08 -8.22347784547374e-08 1.3239640399251075e-08 1.6654989107439897e-06 0.0 0.0
0.0 0.00018215151466494594 6.965005833487092e-05 -1.2731910334781227e-05 -5.6918148000089065e-05 0.000425531601028992 0.0 0.0
0.0 0.0016182555474620157 0.000993052290480075 -0.0014377571450628133 0.00044470485458273664 0.0009713655893072931 0.0 0.0
0.0 0.0008266139981722787 0.000460455235068301 -0.000674398670559887 0.0002139434354915868 -0.0005529669011327341 0.0 0.0
0.0 2.1921270459557252e-05 -1.433929621958938e-06 2.629033083378668e-05 -2.4856401211827864e-05 -0.00010749230734349879 0.0 0.0
0.0 4.8612819578890695e-06 1.1026173573149891e-07 -2.271748548994688e-07 1.1691311916797016e-07 -6.299110852349727e-06 0.0 0.0
0.0 3.888262376434002e-06 -2.6348599881079484e-07 2.392415509826421e-07 2.424444782814816e-08 -5.167703959660511e-06 0.0 0.0
0.0 -3.7053074358181643e-06 -1.6839655939397146e-06 1.4529279230944254e-06 2.3103767084529677e-07 9.366150329360108e-06 0.0 0.0
0.0 4.975007320761136e-06 -3.6347414194270187e-06 3.405199923032886e-06 2.2954149639411273e-07 -6.0611621803032125e-06 0.0 0.0
0.0 0.0001305663176881357 2.024875655745401e-05 -1.5288295499126047e-05 -4.960461058327919e-06 -0.00020002607298366592 0.0 0.0
0.0 0.0005175168492707516 0.00016855970586852092 -0.00014246294250668548 -2.6096763361835866e-05 -0.0007809187193294743 0.0 0.0
0.0 0.0015082629379872114 0.0007272955263296353 -0.0006433438867955435 -8.395163953409079e-05 -0.002022047744023682 0.0 0.0
0.0 0.0033312838506467765 0.0019366368022919116 -0.001754589187719459 -0.00018204761457245408 -0.003835722134717505 0.0 0.0
0.0 0.005907492098252941 0.0036247061321834713 -0.0033446584383730106 -0.000280047693810455 -0.005971028560956523 0.0 0.0
0.0 0.008630065069992652 0.005594629475771615 -0.005236479033220942 -0.0003581504425506782 -0.008363351758002093 0.0 0.0
0.0 0.011789650655773832 0.007774699355143202 -0.0073541747238383675 -0.00042052463130483455 -0.010894124807135684 0.0 0.0
0.0 0.015298245789014675 0.010196404826741261 -0.00972294745224587 -0.00047345737449538895 -0.013504783624706387 0.0 0.0
0.0 0.01917769205360472 0.01294402298889129 -0.012418323858769294 -0.0005256991301219975 -0.016173698715932522 0.0 0.0
0.0 0.023572218054227583 0.01615090514011333 -0.015568648040564136 -0.0005822570995492071 -0.018843441712590184 0.0 0.0
0.0 0.02863313664421166 0.0199733587586045 -0.0193302849353921 -0.0006430738232124043 -0.021272310053425978 0.0 0.0
0.0 0.03437587742580251 0.02454574618441919 -0.023841587595852563 -0.0007041585885666118 -0.022885085540459538 0.0 0.0
0.0 0.04100234536515277 0.030278091008649793 -0.02946450308809078 -0.0008135879205590205 -0.023317323012846062 0.0 0.0
0.0 0.05002171520506117 0.038322546503347786 -0.03731991178858899 -0.0010026347147587787 -0.023408984386818692 0.0 0.0
0.0 0.06484090145424937 0.04551572286273382 -0.046330951809520696 0.0008152289467868847 1.981921571303502e-14 0.0 0.0
0.0 0.05002171520507241 0.03832254650334645 -0.03731991178858785 -0.0010026347147586668 0.023408984386873277 0.0 0.0
0.0 0.04100234536514481 0.03027809100863848 -0.029464503088078478 -0.0008135879205599821 0.023317323012893226 0.0 0.0
0.0 0.034375877425783526 0.024545746184404194 -0.023841587595837575 -0.0007041585885665953 0.02288508554048113 0.0 0.0
0.0 0.028633136644187228 0.019973358758589608 -0.019330284935378448 -0.0006430738232111792 0.021272310053416572 0.0 0.0
0.0 0.02357221805421206 0.01615090514010241 -0.015568648040553452 -0.0005822570995489542 0.01884344171257754 0.0 0.0
0.0 0.01917769205358106 0.012944022988874536 -0.012418323858752656 -0.0005256991301218819 0.01617369871591601 0.0 0.0
0.0 0.015298245789001439 0.01019640482673251 -0.009722947452237046 -0.00047345737449546837 0.013504783624699522 0.0 0.0
0.0 0.011789650655761085 0.007774699355136025 -0.00735417472383159 -0.0004205246313044451 0.0108941248071256 0.0 0.0
0.0 0.008630065069974348 0.005594629475760542 -0.005236479033210568 -0.0003581504425499658 0.008363351757984774 0.0 0.0
0.0 0.0059074920982381315 0.0036247061321750163 -0.0033446584383646973 -0.00028004769381031753 0.005971028560940933 0.0 0.0
0.0 0.0033312838506362997 0.001936636802285684 -0.00175458918771391 -0.0001820476145717726 0.003835722134707345 0.0 0.0
0.0 0.0015082629379812172 0.0007272955263260809 -0.0006433438867923064 -8.395163953377489e-05 0.002022047744016863 0.0 0.0
0.0 0.0005175168492679361 0.0001685597058675575 -0.00014246294250580113 -2.6096763361756174e-05 0.0007809187193259317 0.0 0.0
0.0 0.00013056631768573198 2.024875655714283e-05 -1.5288295498872445e-05 -4.9604610582704265e-06 0.00020002607298128886 0.0 0.0
0.0 4.975007320491978e-06 -3.634741419193435e-06 3.4051999228509542e-06 2.295414963424903e-07 6.061162181555009e-06 0.0 0.0
0.0 -3.705307436850547e-06 -1.6839655939000408e-06 1.4529279230677138e-06 2.3103767083232046e-07 -9.366150328611131e-06 0.0 0.0
0.0 3.888262376218563e-06 -2.634859988244417e-07 2.3924155099732065e-07 2.424444782712215e-08 5.167703960289767e-06 0.0 0.0
0.0 4.861281957667059e-06 1.1026173573088075e-07 -2.2717485490786727e-07 1.1691311917698297e-07 6.299110853016464e-06 0.0 0.0
0.0 2.192127045815428e-05 -1.4339296221835474e-06 2.6290330833859525e-05 -2.4856401211676025e-05 0.000107492307342186 0.0 0.0
0.0 0.0008266139981676153 0.0004604552350659505 -0.000674398670556453 0.0002139434354905024 0.0005529669011305773 0.0 0.0
0.0 0.00024593567262695925 0.0001419585477380955 -0.00021097292297718833 6.901437523909252e-05 -0.00021756499504627574 0.0 0.0
0.0 -2.6203119905115997e-05 -1.631962071554512e-05 2.4798612351746934e-05 -8.478991636201752e-06 1.9931792217412432e-05 0.0 0.0
0.0 4.82384530900398e-06 2.0311055689853663e-07 -2.384545888465019e-07 3.5344031947961266e-08 5.083757906895392e-07 0.0 0.0
0.0 5.847448977251083e-06 -5.874860891775824e-07 4.936448364876956e-07 9.384125268989065e-08 -8.36064197536276e-06 0.0 0.0
0.0 1.56840295701877e-06 -8.619321389695688e-07 8.449545127427367e-07 1.6977626226829873e-08 -1.754499112264776e-06 0.0 0.0
0.0 1.5203541218859661e-05 -2.011124336667171e-06 2.0826637198490758e-06 -7.1539383181908e-08 -1.8528794333080817e-05 0.0 0.0
0.0 0.00011999006237144454 -2.583694030519473e-06 2.568865972254329e-06 1.4828058265142042e-08 -0.0001846959684106345 0.0 0.0
0.0 0.00026185449620480246 -1.718285923228311e-06 1.7078702470073238e-06 1.0415676220987979e-08 -0.00045587519585730185 0.0 0.0
0.0 0.0005459162569277376 -1.2771144629597148e-06 1.2535463699650347e-06 2.3568092994593663e-08 -0.0009163698759515143 0.0 0.0
0.0 0.0009639245634922853 2.6747688200337138e-08 -2.315906963381751e-08 -3.5886185664450883e-09 -0.0019235907527558052 0.0 0.0
0.0 0.001964356805319761 -1.1703800008464266e-06 1.513274657967184e-06 -3.428946571204728e-07 -0.003646277614984076 0.0 0.0
0.0 0.003229161320301723 -1.284962994246516e-05 1.5774954985654495e-05 -2.925325043190175e-06 -0.005829936529978945 0.0 0.0
0.0 0.004816641241777412 -3.27214411472241e-05 3.648016451692312e-05 -3.7587233696985867e-06 -0.008159508279295813 0.0 0.0
0.0 0.006596402403858754 -3.3467446861843125e-05 3.2146102677378034e-05 1.3213441844673408e-06 -0.010603743485539305 0.0 0.0
0.0 0.008536709015748429 7.937549913926358e-05 -9.743518743697229e-05 1.8059688297708364e-05 -0.01316739340807846 0.0 0.0
0.0 0.010586189630437 0.0004994236218369519 -0.0005483035716415845 4.8879949804629035e-05 -0.015828701350698617 0.0 0.0
0.0 0.012774819659048049 0.001524930916397077 -0.0016233950065532511 9.846409015617499e-05 -0.01849188686205104 0.0 0.0
0.0 0.01502250673163006 0.00340915789008668 -0.0036257308205839404 0.0002165729304972637 -0.020906995391567765 0.0 0.0
0.0 0.018060422788711776 0.00584946423777966 -0.006242388451164878 0.00039292421338522204 -0.02267722293657661 0.0 0.0
0.0 0.025815968671347445 0.011222039578013888 -0.01092583181421575 -0.0002962077637981421 -0.023735776998152183 0.0 0.0
0.0 0.04639775374777097 0.019197414310155272 -0.020651279186170303 0.001453864876015035 1.3683498778505054e-14 0.0 0.0
0.0 0.025815968671360767 0.011222039578014322 -0.010925831814216481 -0.0002962077637978205 0.02373577699818956 0.0 0.0
0.0 0.018060422788706357 0.005849464237778421 -0.006242388451163923 0.0003929242133854952 0.022677222936588692 0.0 0.0
0.0 0.015022506731616543 0.003409157890083534 -0.003625730820580519 0.00021657293049698545 0.0209069953915667 0.0 0.0
0.0 0.012774819659028018 0.0015249309163970107 -0.0016233950065537585 9.846409015674447e-05 0.018491886862034002 0.0 0.0
0.0 0.010586189630427742 0.0004994236218388666 -0.000548303571643494 4.8879949804626e-05 0.01582870135068444 0.0 0.0
0.0 0.008536709015733373 7.937549913890037e-05 -9.743518743508697e-05 1.8059688296189586e-05 0.013167393408062212 0.0 0.0
0.0 0.006596402403848542 -3.3467446857166744e-05 3.214610267233346e-05 1.3213441848333404e-06 0.010603743485527947 0.0 0.0
0.0 0.0048166412417667915 -3.272144114328758e-05 3.648016451271679e-05 -3.758723369428837e-06 0.008159508279281084 0.0 0.0
0.0 0.00322916132028606 -1.284962994085718e-05 1.5774954984296478e-05 -2.925325043440802e-06 0.005829936529958585 0.0 0.0
0.0 0.001964356805309611 -1.1703799986008813e-06 1.513274655407491e-06 -3.428946568065285e-07 0.003646277614970916 0.0 0.0
0.0 0.0009639245634893406 2.6747687678348002e-08 -2.3159069027328368e-08 -3.5886186510602916e-09 0.001923590752752244 0.0 0.0
0.0 0.0005459162569265658 -1.2771144632003738e-06 1.2535463702103219e-06 2.3568092989906183e-08 0.0009163698759493803 0.0 0.0
0.0 0.0002618544962030614 -1.718285923226372e-06 1.7078702470118487e-06 1.041567621447853e-08 0.00045587519585417154 0.0 0.0
0.0 0.00011999006236992741 -2.5836940304974778e-06 2.5688659722468956e-06 1.4828058250618604e-08 0.00018469596840969393 0.0 0.0
0.0 1.5203541218163486e-05 -2.011124336640642e-06 2.0826637198146324e-06 -7.153938317400132e-08 1.8528794333737363e-05 0.0 0.0
0.0 1.5684029562575372e-06 -8.619321389949579e-07 8.449545127681205e-07 1.6977626226842413e-08 1.7544991128543302e-06 0.0 0.0
0.0 5.8474489764574485e-06 -5.874860892344391e-07 4.936448365388326e-07 9.384125269560618e-08 8.360641976209056e-06 0.0 0.0
0.0 4.823845308244942e-06 2.031105568850422e-07 -2.384545888414634e-07 3.5344031956429915e-08 -5.083757899827435e-07 0.0 0.0
0.0 -2.620311990520212e-05 -1.6319620715299473e-05 2.4798612351402477e-05 -8.478991636103048e-06 -1.9931792216407037e-05 0.0 0.0
0.0 0.00024593567262441463 0.00014195854773714858 -0.00021097292297581624 6.901437523866792e-05 0.0002175649950450302 0.0 0.0
0.0 1.6786004207557552e-05 7.73362528736916e-06 -1.2422024309710382e-05 4.688399022341185e-06 -1.2961993802024264e-05 0.0 0.0
0.0 -3.5466052624219853e-06 -1.6339852428763822e-06 2.3402567574460433e-06 -7.062715145696621e-07 6.315795371143441e-06 0.0 0.0
0.0 1.6551851166245043e-06 2.337962186197737e-07 -3.318014657006762e-07 9.800524708090244e-08 -2.9977284018535336e-06 0.0 0.0
0.0 8.12071059514676e-06 -7.582072265549839e-07 6.043049916902754e-07 1.539022348647063e-07 -9.51008150765576e-06 0.0 0.0
0.0 6.19561329288524e-06 -1.1268802930232247e-06 1.0652717654880603e-06 6.160852753516562e-08 -1.051426921726795e-05 0.0 0.0
0.0 2.339707176771751e-05 -4.54713932105691e-06 4.167001241542372e-06 3.801380795145899e-07 -4.480337536637653e-05 0.0 0.0
0.0 0.00016931042211998284 -3.0295420506436553e-05 2.445081725581017e-05 5.8446032506263195e-06 -0.0002295711112381463 0.0 0.0
0.0 0.000539303002057279 -0.00017797435763644055 0.00015070655666725446 2.726780096918578e-05 -0.0008049421022461852 0.0 0.0
0.0 0.0015150575626280592 -0.0007305808874549438 0.0006460512443956234 8.452964305932031e-05 -0.0020330467627554015 0.0 0.0
0.0 0.0033310646939593565 -0.0019367644888030056 0.0017546210395636445 0.00018214344923936075 -0.0038371269595666845 0.0 0.0
0.0 0.0059277567072908485 -0.003632303391857615 0.003351181185206573 0.00028112220665103837 -0.0059716879561742 0.0 0.0
0.0 0.008683928418532763 -0.005632809351070709 0.005270819509795041 0.000361989841275665 -0.008373133683205978 0.0 0.0
0.0 0.01187323314460699 -0.007853451989197003 0.007429790080295596 0.00042366190890139467 -0.01089743520635819 0.0 0.0
0.0 0.015339337286927298 -0.010251891794300656 0.009787204461822836 0.0004646873324778362 -0.0134836925850936 0.0 0.0
0.0 0.018857639593596286 -0.01270080174188152 0.012218237648457421 0.00048256409342409354 -0.016145679146354733 0.0 0.0
0.0 0.02220413748284652 -0.01492678939053989 0.014455271021971288 0.00047151836856857576 -0.01892435268742696 0.0 0.0
0.0 0.02491474833725465 -0.01650750760972737 0.01608371873149115 0.0004237888782362335 -0.021837231817034956 0.0 0.0
0.0 0.026756844979554294 -0.01694830350547539 0.016616096540343284 0.0003322069651320929 -0.02499500329953566 0.0 0.0
0.0 0.02674534786075011 -0.01567306828308397 0.01555431848987679 0.00011874979320719667 -0.02834179733986182 0.0 0.0
0.0 0.02187033228546929 -0.011462312606211323 0.011977406545460284 -0.0005150939392489478 -0.03052361616508586 0.0 0.0
0.0 0.04495825133298493 -0.006765902803160709 0.003848468792496983 0.0029174340106637143 1.9179970112137568e-14 0.0 0.0
0.0 0.02187033228547986 -0.011462312606212374 0.0119774065454617 -0.0005150939392493271 0.030523616165111532 0.0 0.0
0.0 0.02674534786074571 -0.015673068283078052 0.015554318489871138 0.00011874979320689993 0.028341797339881448 0.0 0.0
0.0 0.026756844979537887 -0.0169483035054632 0.016616096540331384 0.0003322069651318153 0.024995003299540443 0.0 0.0
0.0 0.024914748337225817 -0.016507507609706887 0.016083718731470666 0.0004237888782362495 0.021837231817020034 0.0 0.0
0.0 0.02220413748282121 -0.014926789390521177 0.01445527102195299 0.00047151836856818116 0.01892435268740843 0.0 0.0
0.0 0.0188576395935761 -0.012700801741865662 0.012218237648442199 0.00048256409342345284 0.016145679146339353 0.0 0.0
0.0 0.015339337286901523 -0.010251891794280658 0.009787204461803 0.00046468733247765996 0.013483692585077624 0.0 0.0
0.0 0.011873233144581255 -0.007853451989178358 0.007429790080277055 0.0004236619089013102 0.0108974352063409 0.0 0.0
0.0 0.008683928418505972 -0.005632809351052452 0.005270819509777637 0.00036198984127481 0.008373133683182054 0.0 0.0
0.0 0.00592775670727071 -0.003632303391844425 0.0033511811851944864 0.0002811222066499427 0.005971687956157199 0.0 0.0
0.0 0.0033310646939441265 -0.0019367644887926258 0.0017546210395540484 0.00018214344923857698 0.0038371269595542453 0.0 0.0
0.0 0.0015150575626197474 -0.0007305808874498261 0.0006460512443909425 8.452964305888437e-05 0.002033046762746982 0.0 0.0
0.0 0.0005393030020526149 -0.0001779743576345843 0.00015070655666576211 2.726780096882191e-05 0.0008049421022403884 0.0 0.0
0.0 0.00016931042211778624 -3.0295420506162907e-05 2.4450817255564263e-05 5.844603250598688e-06 0.0002295711112366902 0.0 0.0
0.0 2.339707176680499e-05 -4.547139321195315e-06 4.167001241656366e-06 3.801380795389405e-07 4.480337536702006e-05 0.0 0.0
0.0 6.195613292051998e-06 -1.1268802930421464e-06 1.065271765498593e-06 6.160852754354277e-08 1.0514269217524572e-05 0.0 0.0
0.0 8.12071059462254e-06 -7.582072266611583e-07 6.043049917795615e-07 1.5390223488159501e-07 9.510081508550803e-06 0.0 0.0
0.0 1.6551851161085024e-06 2.3379621860385218e-07 -3.318014656891918e-07 9.800524708533511e-08 2.997728402277577e-06 0.0 0.0
0.0 -3.546605262873892e-06 -1.6339852429859643e-06 2.340256757566108e-06 -7.062715145801462e-07 -6.31579537076992e-06 0.0 0.0
0.0 1.678600420733606e-05 7.73362528819841e-06 -1.242202431093532e-05 4.68839902273692e-06 1.2961993803962563e-05 0.0 0.0
0.0 1.9624009578069014e-06 -2.0788816469082483e-07 3.15432900557112e-07 -1.0754473586620966e-07 4.986196148238547e-07 0.0 0.0
0.0 5.448566113380216e-08 1.0390126335287492e-07 -6.993726891618797e-08 -3.39639944367016e-08 1.1095343467836512e-06 0.0 0.0
0.0 -1.1300935873909077e-06 6.52242775441458e-07 -5.851430723089987e-07 -6.709970313246917e-08 2.967956047602126e-06 0.0 0.0
0.0 4.956298551748043e-06 -9.211154253521853e-07 7.134095302934029e-07 2.07705895058774e-07 -9.596545064575595e-06 0.0 0.0
0.0 1.126151207153644e-05 4.361630292666123e-07 -2.5868882764577445e-07 -1.7747420162077529e-07 -4.092989628324928e-06 0.0 0.0
0.0 6.20248625472989e-05 -1.5362239873805856e-05 1.2186622677856305e-05 3.175617195949457e-06 -6.421209325299827e-05 0.0 0.0
0.0 0.0003519841265246608 -0.00020066896860067117 0.00015545200425303395 4.521696434763756e-05 -0.0004820559820340198 0.0 0.0
0.0 0.0015420591291152436 -0.0009991325366212238 0.000809560833968159 0.00018957170265306353 -0.0016465468740448604 0.0 0.0
0.0 0.0038972231708400665 -0.002826376755454243 0.0024357500158821216 0.00039062673957211935 -0.003664223870064887 0.0 0.0
0.0 0.007613415038286542 -0.005638506344904657 0.005108540545987505 0.0005299657989171502 -0.006291081418899507 0.0 0.0
0.0 0.012013444872872925 -0.009181069831801721 0.008568966735936651 0.000612103095865073 -0.00933901794548621 0.0 0.0
0.0 0.017191071430249814 -0.01323851138848453 0.012564906906028737 0.0006736044824558174 -0.012494120026677838 0.0 0.0
0.0 0.02281499484685334 -0.017722898744964945 0.01699400766634548 0.000728891078619451 -0.015625158614991537 0.0 0.0
0.0 0.028847617566326096 -0.0225830776784861 0.0218114712710395 0.0007716064074465767 -0.018706571524498145 0.0 0.0
0.0 0.03521185114893886 -0.02767803456614614 0.02688049457587796 0.0007975399902681507 -0.021841211888603634 0.0 0.0
0.0 0.04156993559221595 -0.032687984747766595 0.03188628936850022 0.0008016953792663809 -0.02523149871657749 0.0 0.0
0.0 0.0473339671138133 -0.03711041646473251 0.03632289424868192 0.0007875222160505848 -0.029089611226958148 0.0 0.0
0.0 0.05163581982166857 -0.040292202296103974 0.03953319078048409 0.0007590115156199365 -0.033505815307114904 0.0 0.0
0.0 0.05367189547876451 -0.041100724913495146 0.04044637064384841 0.0006543542696467028 -0.037659123122208336 0.0 0.0
0.0 0.05024498870311428 -0.03706241164714316 0.03664949647597718 0.0004129151711659776 -0.03881858777320756 0.0 0.0
0.0 0.05517206479598191 -0.030537704500977425 0.026849037550661363 0.003688666950316034 2.288967626551397e-14 0.0 0.0
0.0 0.05024498870312301 -0.037062411647138874 0.03664949647597249 0.0004129151711663951 0.03881858777325886 0.0 0.0
0.0 0.05367189547875957 -0.04110072491348181 0.040446370643835265 0.0006543542696465517 0.037659123122261065 0.0 0.0
0.0 0.05163581982163655 -0.04029220229607615 0.03953319078045589 0.0007590115156202565 0.033505815307128706 0.0 0.0
0.0 0.04733396711377366 -0.037110416464700424 0.036322894248649866 0.0007875222160505232 0.029089611226948555 0.0 0.0
0.0 0.04156993559217202 -0.032687984747731144 0.03188628936846496 0.000801695379266149 0.02523149871655591 0.0 0.0
0.0 0.03521185114889713 -0.02767803456611239 0.02688049457584457 0.0007975399902678502 0.02184121188858152 0.0 0.0
0.0 0.02884761756628719 -0.022583077678453082 0.021811471271006848 0.0007716064074461861 0.018706571524479985 0.0 0.0
0.0 0.02281499484681038 -0.017722898744930687 0.016994007666310835 0.0007288910786198341 0.015625158614970592 0.0 0.0
0.0 0.017191071430208586 -0.013238511388453045 0.012564906905997928 0.0006736044824551208 0.012494120026649319 0.0 0.0
0.0 0.012013444872836813 -0.009181069831774745 0.00856896673590926 0.0006121030958654857 0.00933901794545776 0.0 0.0
0.0 0.007613415038258164 -0.005638506344883207 0.0051085405459666885 0.0005299657989165196 0.006291081418878564 0.0 0.0
0.0 0.003897223170823837 -0.002826376755441981 0.0024357500158710584 0.00039062673957092337 0.003664223870053421 0.0 0.0
0.0 0.0015420591291053353 -0.0009991325366144885 0.0008095608339625701 0.00018957170265191756 0.0016465468740355616 0.0 0.0
0.0 0.00035198412651955667 -0.000200668968598499 0.0001554520042513206 4.5216964347178685e-05 0.00048205598202929665 0.0 0.0
0.0 6.202486254577835e-05 -1.5362239873658706e-05 1.2186622677734934e-05 3.175617195923683e-06 6.421209325253284e-05 0.0 0.0
0.0 1.1261512071332277e-05 4.361630287757351e-07 -2.5868882723811534e-07 -1.7747420153762304e-07 4.092989630148594e-06 0.0 0.0
0.0 4.956298551382856e-06 -9.211154254385774e-07 7.134095303666364e-07 2.0770589507194577e-07 9.596545065258447e-06 0.0 0.0
0.0 -1.130093587735552e-06 6.522427753873627e-07 -5.851430722821912e-07 -6.709970310516661e-08 -2.967956046669498e-06 0.0 0.0
0.0 5.4485660897694266e-08 1.0390126338877112e-07 -6.993726895261624e-08 -3.396399443615212e-08 -1.1095343470646774e-06 0.0 0.0
0.0 1.9624009576256723e-06 -2.0788816484832698e-07 3.1543290078828957e-07 -1.0754473594000346e-07 -4.986196151998297e-07 0.0 0.0
0.0 0.0 0.0 0.0 0.0 0.0 0.0 0.0
0.0 2.2092858907009698e-07 -6.401868554660855e-09 8.692558987243302e-09 -2.2906904325868954e-09 -5.991352572725956e-08 0.0 0.0
0.0 -1.440736507458101e-06 8.70413271009328e-07 -6.97627503956511e-07 -1.7278576705280956e-07 4.797716799153615e-06 0.0 0.0
0.0 2.691505840959195e-06 1.0622579868101513e-06 -9.170424151796422e-07 -1.452155716305092e-07 -1.8011917447857411e-07 0.0 0.0
0.0 1.2823116031613546e-05 -2.1396823305088e-06 1.7155397982341386e-06 4.2414253227461476e-07 -1.4496032633104032e-05 0.0 0.0
0.0 0.0001104887438340794 -8.018918095605693e-05 6.104954720837427e-05 1.9139633747682893e-05 -0.00015813677910206267 0.0 0.0
0.0 0.0008875550406686947 -0.0006290351346363648 0.00048757315018127187 0.0001414619844550929 -0.0008199117568863805 0.0 0.0
0.0 0.0029146572061704403 -0.0023136388840184607 0.0019210754574728003 0.00039256342654565856 -0.0024433263911433955 0.0 0.0
0.0 0.006797336091174343 -0.0054065198568621926 0.004808959387126935 0.0005975604697352485 -0.0050055960853912125 0.0 0.0
0.0 0.01248241886265738 -0.009779624397373482 0.009080432522132217 0.000699191875241271 -0.008324520115157458 0.0 0.0
0.0 0.018833801989024925 -0.015137670319816016 0.014375020828593748 0.0007626494912222558 -0.01201920264971037 0.0 0.0
0.0 0.02619962306727918 -0.02123157522671424 0.020408370854242394 0.0008232043724718395 -0.015721681813724835 0.0 0.0
0.0 0.034358033564141445 -0.0279631699901993 0.027080174360948388 0.0008829956292509412 -0.01929403937145117 0.0 0.0
0.0 0.04312952050181402 -0.035284774448862084 0.03435016604038301 0.0009346084084790266 -0.0227722842364498 0.0 0.0
0.0 0.052516644622190176 -0.04305575428755543 0.04208624419510845 0.0009695100924470461 -0.02636690175723691 0.0 0.0
0.0 0.06196984920047108 -0.05092885503967235 0.04994810489801152 0.0009807501416607967 -0.03047148139668576 0.0 0.0
0.0 0.07119370232424736 -0.05827163901155587 0.057304907598336265 0.000966731413219534 -0.03551708501097172 0.0 0.0
0.0 0.078587888682528 -0.06404949456142171 0.0631389122826634 0.0009105822787582878 -0.04133711067751116 0.0 0.0
0.0 0.08226046849461364 -0.0664768361842914 0.06568928555828843 0.0007875506260028918 -0.04636985510200037 0.0 0.0
0.0 0.07792846947687902 -0.06209523928009898 0.061636729492329026 0.0004585097877700162 -0.0476856475378825 0.0 0.0
0.0 0.07612891709501253 -0.053667295821140645 0.049274722753910434 0.004392573067230276 2.5254104363270358e-14 0.0 0.0
0.0 0.07792846947688842 -0.06209523928009393 0.06163672949232539 0.00045850978776855835 0.047685647537948406 0.0 0.0
0.0 0.08226046849460568 -0.06647683618427447 0.06568928555827146 0.000787550626002943 0.046369855102067314 0.0 0.0
0.0 0.07858788868248677 -0.06404949456138317 0.06313891228262498 0.0009105822787581784 0.041337110677537744 0.0 0.0
0.0 0.07119370232419175 -0.05827163901150921 0.05730490759828896 0.0009667314132203433 0.035517085010964726 0.0 0.0
0.0 0.06196984920041123 -0.05092885503962249 0.04994810489796144 0.0009807501416610157 0.03047148139666375 0.0 0.0
0.0 0.05251664462213379 -0.043055754287508276 0.0420862441950621 0.000969510092446148 0.026366901757214258 0.0 0.0
0.0 0.043129520501758056 -0.03528477444881485 0.034350166040336236 0.0009346084084786037 0.02277228423642784 0.0 0.0
0.0 0.03435803356408321 -0.027963169990151138 0.02708017436089985 0.0008829956292512769 0.019294039371428207 0.0 0.0
0.0 0.026199623067225692 -0.021231575226671275 0.020408370854200015 0.0008232043724712423 0.015721681813695206 0.0 0.0
0.0 0.01883380198897519 -0.015137670319776676 0.014375020828554427 0.0007626494912222623 0.01201920264967816 0.0 0.0
0.0 0.012482418862618612 -0.00977962439734278 0.009080432522101887 0.0006991918752408897 0.008324520115132218 0.0 0.0
0.0 0.006797336091147027 -0.005406519856841113 0.0048089593871066235 0.0005975604697344858 0.0050055960853736346 0.0 0.0
0.0 0.0029146572061568505 -0.002313638884007735 0.0019210754574636793 0.0003925634265440556 0.002443326391134204 0.0 0.0
0.0 0.0008875550406609487 -0.0006290351346312752 0.00048757315017715754 0.00014146198445411743 0.0008199117568799922 0.0 0.0
0.0 0.00011048874383144002 -8.018918095511842e-05 6.104954720766162e-05 1.913963374745676e-05 0.00015813677910042582 0.0 0.0
0.0 1.282311603129254e-05 -2.1396823308108796e-06 1.7155397984767788e-06 4.24142532334095e-07 1.4496032633927897e-05 0.0 0.0
0.0 2.6915058406380356e-06 1.062257986509535e-06 -9.170424149390976e-07 -1.452155715704329e-07 1.8011917584694652e-07 0.0 0.0
0.0 -1.4407365079822901e-06 8.704132710789227e-07 -6.976275040084942e-07 -1.727857670704353e-07 -4.797716799586498e-06 0.0 0.0
0.0 2.2092858834767266e-07 -6.4018685675202564e-09 8.692558988219051e-09 -2.2906904206958275e-09 5.991352591805786e-08 0.0 0.0
0.0 0.0 0.0 0.0 0.0 0.0 0.0 0.0
0.0 0.0 0.0 0.0 0.0 0.0 0.0 0.0
0.0 -1.3075163678298636e-07 -2.968376883690807e-09 1.9471215008150875e-09 1.0212553828761417e-09 -2.5935044429845048e-08 0.0 0.0
0.0 -9.77927709393761e-07 6.171894480660058e-07 -4.953551624906055e-07 -1.2183428557540267e-07 2.521978820298336e-06 0.0 0.0
0.0 -2.5482163002358316e-06 1.000849525343631e-06 -8.663136235218041e-07 -1.345359018218181e-07 2.812476777056153e-07 0.0 0.0
0.0 1.7996960246709494e-05 -4.795781668783238e-06 3.086035531577545e-06 1.709746137205712e-06 -1.0374919472671427e-05 0.0 0.0
0.0 0.00031928275928731016 -0.00022468131789544427 0.00016902783883851762 5.565347905692632e-05 -0.00024863548543769827 0.0 0.0
0.0 0.001598489621318731 -0.0013263863993565421 0.001048516638984863 0.0002778697603716796 -0.0011519404006432646 0.0 0.0
0.0 0.004726279168187755 -0.003950996681899862 0.0033864983035316004 0.0005644983783682597 -0.0030163947619617536 0.0 0.0
0.0 0.010316477956740126 -0.008298723633158415 0.007567772071691533 0.0007309515614668837 -0.005935776722462323 0.0 0.0
0.0 0.017028581606921923 -0.014210351505799109 0.01339995319618649 0.0008103983096126285 -0.009639387645401067 0.0 0.0
0.0 0.025718099408464902 -0.02133002810144822 0.020458687647202732 0.0008713404542454719 -0.013605377005134343 0.0 0.0
0.0 0.03540181940428447 -0.02943124504001515 0.0284963484572903 0.000934896582724805 -0.017540257703685027 0.0 0.0
0.0 0.046038963358080255 -0.03839790802884563 0.03739660716022403 0.0010013008686215947 -0.021319604894252657 0.0 0.0
0.0 0.05759767620054304 -0.048175725891573665 0.04711265809363102 0.0010630677979426185 -0.024984430760419875 0.0 0.0
0.0 0.06989802717494592 -0.0586403148573776 0.05753144611272145 0.0011088687446561708 -0.0287793084063031 0.0 0.0
0.0 0.08291590590187906 -0.06941913971670836 0.06829377013694465 0.0011253695797636214 -0.0332499452972324 0.0 0.0
0.0 0.0949166449686474 -0.07969099108187691 0.07859177929597386 0.0010992117859029817 -0.03891664749549199 0.0 0.0
0.0 0.10534815505372122 -0.0879380253521454 0.08692551916163632 0.0010125061905090806 -0.045483771733859674 0.0 0.0
0.0 0.11057162581127855 -0.09159553568714317 0.09077085541742232 0.0008246802697207219 -0.05118006204378378 0.0 0.0
0.0 0.10518464084489157 -0.08640862687149878 0.0859494067553133 0.00045922011618546466 -0.052887980524476186 0.0 0.0
0.0 0.09922381980632486 -0.07628678315497264 0.07128031210957048 0.005006471045402035 2.954581024283698e-14 0.0 0.0
0.0 0.10518464084489035 -0.0864086268714871 0.08594940675530224 0.0004592201161848765 0.05288798052454186 0.0 0.0
0.0 0.11057162581126187 -0.09159553568711946 0.09077085541739958 0.0008246802697197762 0.051180062043852385 0.0 0.0
0.0 0.10534815505367183 -0.0879380253520991 0.08692551916159048 0.001012506190508405 0.045483771733893626 0.0 0.0
0.0 0.09491664496857893 -0.07969099108181814 0.0785917792959149 0.001099211785903208 0.03891664749548884 0.0 0.0
0.0 0.08291590590180824 -0.06941913971664797 0.06829377013688487 0.0011253695797630683 0.033249945297211835 0.0 0.0
0.0 0.06989802717487544 -0.05864031485731722 0.05753144611266243 0.001108868744654806 0.028779308406279853 0.0 0.0
0.0 0.05759767620047125 -0.04817572589151222 0.04711265809356997 0.001063067797942232 0.024984430760397372 0.0 0.0
0.0 0.046038963358007536 -0.03839790802878441 0.03739660716016264 0.0010013008686217406 0.021319604894228527 0.0 0.0
0.0 0.03540181940421433 -0.029431245039956658 0.028496348457232302 0.0009348965827243649 0.017540257703653868 0.0 0.0
0.0 0.025718099408405973 -0.021330028101399792 0.02045868764715455 0.0008713404542452127 0.013605377005101055 0.0 0.0
0.0 0.017028581606874562 -0.014210351505759977 0.013399953196147583 0.0008103983096124014 0.009639387645373263 0.0 0.0
0.0 0.010316477956702909 -0.008298723633128837 0.007567772071663055 0.0007309515614657851 0.005935776722442059 0.0 0.0
0.0 0.00472627916816762 -0.003950996681883882 0.0033864983035168197 0.0005644983783670643 0.003016394761950535 0.0 0.0
0.0 0.0015984896213071995 -0.00132638639934799 0.001048516638977714 0.000277869760370275 0.0011519404006358489 0.0 0.0
0.0 0.00031928275928290955 -0.00022468131789282346 0.00016902783883650824 5.5653479056315196e-05 0.00024863548543474306 0.0 0.0
0.0 1.799696024568491e-05 -4.795781668945165e-06 3.086035531717049e-06 1.7097461372281226e-06 1.0374919473026943e-05 0.0 0.0
0.0 -2.5482163002745173e-06 1.0008495250548354e-06 -8.663136232922531e-07 -1.3453590176256364e-07 -2.812476767466142e-07 0.0 0.0
0.0 -9.7792770939514e-07 6.171894479964912e-07 -4.953551624446951e-07 -1.218342855517967e-07 -2.5219788200189875e-06 0.0 0.0
0.0 -1.3075163665647826e-07 -2.9683768817357188e-09 1.947121500571764e-09 1.0212553811632798e-09 2.5935044404943458e-08 0.0 0.0
0.0 0.0 0.0 0.0 0.0 0.0 0.0 0.0
0.0 0.0 0.0 0.0 0.0 0.0 0.0 0.0
0.0 0.0 0.0 0.0 0.0 0.0 0.0 0.0
0.0 -6.280881707493764e-07 2.0268084916454994e-07 -1.6007793556554758e-07 -4.2602913599003644e-08 6.610150109887021e-07 0.0 0.0
0.0 -5.181497777621964e-06 3.975345320494325e-06 -3.247134227955791e-06 -7.282110925385072e-07 7.648134724322466e-06 0.0 0.0
0.0 2.671821605914983e-05 -3.001675002606422e-05 2.1172588717387346e-05 8.844161308676764e-06 -3.109578254610695e-05 0.0 0.0
0.0 0.0006318023081940621 -0.0004997359403249113 0.0003774834355336276 0.0001222525047912837 -0.00035097802390824604 0.0 0.0
0.0 0.0025860167779452573 -0.0022460258327462613 0.0018236169132060064 0.00042240891954025545 -0.0013452792584254525 0.0 0.0
0.0 0.007058152822129706 -0.005831350274258695 0.005137533633932834 0.0006938166403258614 -0.0033265275234554666 0.0 0.0
0.0 0.013305586770717814 -0.011429041669255709 0.010603032428326442 0.0008260092409292565 -0.006390896682322739 0.0 0.0
0.0 0.022205542114298697 -0.018796871236198248 0.017898711965277245 0.0008981592709210178 -0.010095983836021203 0.0 0.0
0.0 0.03270293251814462 -0.027653972376078695 0.02669209139379065 0.0009618809822880027 -0.014038321730873871 0.0 0.0
0.0 0.04462817219024758 -0.037755106557993835 0.03672452138425112 0.0010305851737427393 -0.01794359187067478 0.0 0.0
0.0 0.057803744199467114 -0.04895154570572913 0.047848302580999154 0.0011032431247298203 -0.021704968582534748 0.0 0.0
0.0 0.07221829991584305 -0.06117202328007085 0.05999804045534441 0.0011739828247265152 -0.02535255761121248 0.0 0.0
0.0 0.08753480750517721 -0.0743116103312144 0.07307969963595388 0.0012319106952605055 -0.029086189082290232 0.0 0.0
0.0 0.10340630356843578 -0.08797231941184012 0.08671914567913935 0.0012531737327007484 -0.033411355349402753 0.0 0.0
0.0 0.11923642071569306 -0.10110994346043721 0.09989933032339388 0.0012106131370433028 -0.038951165063269455 0.0 0.0
0.0 0.1319542445162063 -0.1116982761213175 0.11061841554569163 0.0010798605756256745 -0.04563254638844089 0.0 0.0
0.0 0.13794176840151343 -0.11641544496827606 0.11557750008031331 0.0008379448879627424 -0.05194809675504258 0.0 0.0
0.0 0.13204916670940978 -0.11048829276968933 0.11002547661698854 0.00046281615270081294 -0.05587626594384384 0.0 0.0
0.0 0.12394344427782655 -0.09895908417729998 0.09341815392389839 0.005540930253401595 3.050684704852813e-14 0.0 0.0
0.0 0.13204916670939285 -0.1104882927696664 0.11002547661696414 0.0004628161527023124 0.055876265943908945 0.0 0.0
0.0 0.13794176840148314 -0.11641544496824258 0.11557750008027982 0.0008379448879628666 0.05194809675511071 0.0 0.0
0.0 0.13195424451614485 -0.11169827612126139 0.11061841554563595 0.0010798605756253282 0.04563254638847555 0.0 0.0
0.0 0.11923642071561547 -0.10110994346037011 0.09989933032332587 0.0012106131370441318 0.038951165063270954 0.0 0.0
0.0 0.10340630356834592 -0.08797231941176327 0.08671914567906226 0.0012531737327008859 0.03341135534938592 0.0 0.0
0.0 0.08753480750508597 -0.07431161033113626 0.07307969963587638 0.0012319106952598433 0.029086189082269037 0.0 0.0
0.0 0.07221829991575704 -0.06117202327999655 0.059998040455270726 0.0011739828247259014 0.025352557611190624 0.0 0.0
0.0 0.05780374419937938 -0.04895154570565406 0.04784830258092432 0.001103243124729716 0.02170496858251072 0.0 0.0
0.0 0.04462817219016021 -0.03775510655792027 0.03672452138417771 0.0010305851737424912 0.017943591870642532 0.0 0.0
0.0 0.03270293251807101 -0.027653972376017345 0.02669209139372938 0.0009618809822879626 0.014038321730839645 0.0 0.0
0.0 0.022205542114242055 -0.0187968712361508 0.017898711965230123 0.0008981592709206574 0.010095983835993848 0.0 0.0
0.0 0.01330558677067493 -0.011429041669218631 0.01060303242829009 0.0008260092409285353 0.006390896682302449 0.0 0.0
0.0 0.007058152822100781 -0.005831350274235418 0.005137533633910632 0.0006938166403247849 0.0033265275234419496 0.0 0.0
0.0 0.002586016777929055 -0.0022460258327331125 0.0018236169131946149 0.0004224089195384968 0.0013452792584168274 0.0 0.0
0.0 0.0006318023081873351 -0.0004997359403201883 0.00037748343553000607 0.0001222525047901822 0.0003509780239049121 0.0 0.0
0.0 2.6718216058451682e-05 -3.0016750026180965e-05 2.117258871752018e-05 8.844161308660774e-06 3.109578254666091e-05 0.0 0.0
0.0 -5.1814977781147065e-06 3.9753453203431415e-06 -3.2471342278410414e-06 -7.282110925020972e-07 -7.64813472391621e-06 0.0 0.0
0.0 -6.280881705594419e-07 2.026808491880378e-07 -1.6007793558421436e-07 -4.260291360382199e-08 -6.610150110633155e-07 0.0 0.0
0.0 0.0 0.0 0.0 0.0 0.0 0.0 0.0
0.0 0.0 0.0 0.0 0.0 0.0 0.0 0.0
0.0 0.0 0.0 0.0 0.0 0.0 0.0 0.0
0.0 0.0 0.0 0.0 0.0 0.0 0.0 0.0
0.0 -1.9259891853480113e-07 -1.2438204119640457e-08 9.900711751953166e-09 2.537492367688598e-09 -3.208399983975565e-08 0.0 0.0
0.0 -7.2533001078031754e-06 4.2457034923662835e-06 -3.524533358125607e-06 -7.211701342407052e-07 7.330412465022059e-06 0.0 0.0
0.0 0.00010046193901612328 -7.715527222192743e-05 5.416972588296369e-05 2.2985546338963752e-05 -3.932454385828541e-05 0.0 0.0
0.0 0.0009977855441381368 -0.0009324926313930182 0.0007137274556513633 0.00021876517574165506 -0.0004262891786533308 0.0 0.0
0.0 0.003978646740744477 -0.00335649890806497 0.002803332065328668 0.0005531668427363015 -0.0013858913789882611 0.0 0.0
0.0 0.009038474491824443 -0.007920262890164452 0.007131195419945904 0.0007890674702185507 -0.0033694419729792327 0.0 0.0
0.0 0.016976387221258733 -0.01467596446143502 0.013775167870713626 0.0009007965907213766 -0.006235243586507769 0.0 0.0
0.0 0.027324588404592766 -0.023474130426120062 0.022500339660635756 0.0009737907654843252 -0.009663681418404863 0.0 0.0
0.0 0.03975893946598083 -0.034049946781631486 0.03300676520863271 0.0010431815729987815 -0.013331053300880526 0.0 0.0
0.0 0.053955170102214824 -0.046143102254212115 0.04502601513146932 0.0011170871227427649 -0.01696298725011606 0.0 0.0
0.0 0.06974631063619434 -0.05956938682438467 0.05837465752012966 0.0011947293042549546 -0.020478904561827924 0.0 0.0
0.0 0.08661057830702795 -0.07422200632565908 0.0729493233371537 0.001272682988505356 -0.023914306189663004 0.0 0.0
0.0 0.10503354307431188 -0.08996909115835644 0.0886290040180314 0.00134008714032514 -0.027342741284577844 0.0 0.0
0.0 0.12423340545118014 -0.10639736973502001 0.10502844950139079 0.0013689202336291078 -0.031044603429388053 0.0 0.0
0.0 0.14267574329411398 -0.12230330509195575 0.12098876614524513 0.0013145389467105716 -0.035685461151218296 0.0 0.0
0.0 0.1579582964903042 -0.1351866247778355 0.13404448308799943 0.0011421416898360803 -0.041839038941192945 0.0 0.0
0.0 0.16544261841211005 -0.14108783464494284 0.14023705659876487 0.0008507780461778983 -0.04919330871312614 0.0 0.0
0.0 0.15913818158243342 -0.13477449823039472 0.1343182671502475 0.00045623108014722016 -0.05719164943321352 0.0 0.0
0.0 0.14940440656262127 -0.12213685117111596 0.116133983866541 0.006002867304575058 2.852232339201066e-14 0.0 0.0
0.0 0.159138181582408 -0.13477449823036589 0.13431826715021739 0.000456231080148365 0.05719164943327743 0.0 0.0
0.0 0.1654426184120649 -0.14108783464489838 0.14023705659872024 0.0008507780461778918 0.04919330871318782 0.0 0.0
0.0 0.1579582964902265 -0.13518662477776683 0.13404448308793043 0.0011421416898364642 0.04183903894122401 0.0 0.0
0.0 0.1426757432940168 -0.1223033050918721 0.12098876614516031 0.0013145389467116653 0.03568546115121867 0.0 0.0
0.0 0.12423340545107764 -0.10639736973493089 0.10502844950130265 0.0013689202336282188 0.03104460342937478 0.0 0.0
0.0 0.10503354307420538 -0.08996909115826497 0.08862900401794001 0.0013400871403249576 0.0273427412845615 0.0 0.0
0.0 0.08661057830692233 -0.07422200632556798 0.072949323337063 0.001272682988504873 0.02391430618964328 0.0 0.0
0.0 0.06974631063609299 -0.059569386824297306 0.05837465752004224 0.0011947293042549813 0.020478904561805688 0.0 0.0
0.0 0.05395517010211549 -0.04614310225412751 0.04502601513138488 0.0011170871227426783 0.016962987250086565 0.0 0.0
0.0 0.03975893946589797 -0.034049946781561057 0.03300676520856248 0.0010431815729986112 0.013331053300849372 0.0 0.0
0.0 0.02732458840452691 -0.023474130426063677 0.02250033966057973 0.0009737907654839211 0.00966368141837986 0.0 0.0
0.0 0.016976387221206098 -0.014675964461389742 0.013775167870668889 0.0009007965907208558 0.006235243586488528 0.0 0.0
0.0 0.009038474491793682 -0.007920262890137976 0.007131195419920471 0.0007890674702175027 0.0033694419729673347 0.0 0.0
0.0 0.00397864674072441 -0.0033564989080487567 0.0028033320653140905 0.0005531668427346669 0.001385891378980546 0.0 0.0
0.0 0.000997785544130708 -0.0009324926313872422 0.0007137274556468258 0.00021876517574041584 0.000426289178650595 0.0 0.0
0.0 0.00010046193901465615 -7.715527222154422e-05 5.4169725882730195e-05 2.2985546338814027e-05 3.932454385847854e-05 0.0 0.0
0.0 -7.2533001078542125e-06 4.2457034921893324e-06 -3.5245333579912455e-06 -7.211701341980871e-07 -7.330412464795766e-06 0.0 0.0
0.0 -1.9259891850927365e-07 -1.243820411784055e-08 9.900711750511593e-09 2.5374923673294314e-09 3.208399983580417e-08 0.0 0.0
0.0 0.0 0.0 0.0 0.0 0.0 0.0 0.0
0.0 0.0 0.0 0.0 0.0 0.0 0.0 0.0
0.0 0.0 0.0 0.0 0.0 0.0 0.0 0.0
0.0 0.0 0.0 0.0 0.0 0.0 0.0 0.0
0.0 -7.18462332870173e-08 -5.322214849680892e-09 4.219826328331633e-09 1.102388521349622e-09 -1.0684932772376604e-08 0.0 0.0
0.0 -8.530703880948723e-06 6.081197937831061e-06 -5.144316130393344e-06 -9.368818074377096e-07 8.114575018232332e-06 0.0 0.0
0.0 0.0002214267845944867 -0.00018765116494904867 0.00013334393384382056 5.4307231105228345e-05 -4.8931513745354305e-05 0.0 0.0
0.0 0.001672684121777127 -0.001483570165192574 0.001158067280975068 0.0003255028842175059 -0.00037698165117752697 0.0 0.0
0.0 0.005270852265521143 -0.004654600845411227 0.003991300823129549 0.0006633000222816751 -0.001280908701483977 0.0 0.0
0.0 0.011434934329940756 -0.010116385209548056 0.009257172661201614 0.0008592125483464384 -0.0030227192801575587 0.0 0.0
0.0 0.02059878404503903 -0.017987973556103848 0.017023706100310405 0.000964267455793434 -0.005435183903667285 0.0 0.0
0.0 0.03253043753000036 -0.028188353930819 0.02714596255008501 0.001042391380733976 -0.00835949628245253 0.0 0.0
0.0 0.046822862115862666 -0.04046550174328792 0.03934762233424476 0.0011178794090431266 -0.011498103444559631 0.0 0.0
0.0 0.06328288718887394 -0.054545245881161816 0.053347856022372006 0.0011973898587898477 -0.014611772934510306 0.0 0.0
0.0 0.08134571306808011 -0.07020762044989917 0.0689278732135367 0.0012797472363624744 -0.0176470291540927 0.0 0.0
0.0 0.10138676209565671 -0.08727227305995458 0.08591256995665031 0.0013597031033042366 -0.020651440494701648 0.0 0.0
0.0 0.12246197355677788 -0.10553952420286934 0.10410841633027382 0.0014311078725954916 -0.02359535749597375 0.0 0.0
0.0 0.14429103184689546 -0.12454466121131842 0.12307342593315643 0.0014712352781619748 -0.026400749493566147 0.0 0.0
0.0 0.165815286509519 -0.14303526221068694 0.14161071632670047 0.0014245458839865493 -0.029452019882723942 0.0 0.0
0.0 0.18368008234573088 -0.15828281247264564 0.15705869323875257 0.0012241192338929415 -0.03423939694187187 0.0 0.0
0.0 0.19291365509100475 -0.16578942438193972 0.16491583963943024 0.0008735847425093703 -0.04287606251416099 0.0 0.0
0.0 0.18706855371366357 -0.15967966646615278 0.15925302366133073 0.0004266428048222383 -0.0565750691706595 0.0 0.0
0.0 0.176651077635208 -0.14627235326877994 0.13988756890575224 0.006384784363027552 2.379173247302191e-14 0.0 0.0
0.0 0.18706855371362813 -0.15967966646611712 0.15925302366129399 0.00042664280482321293 0.05657506917071249 0.0 0.0
0.0 0.19291365509095076 -0.16578942438188926 0.16491583963938033 0.0008735847425089033 0.04287606251421492 0.0 0.0
0.0 0.18368008234564304 -0.15828281247256867 0.15705869323867583 0.001224119233892814 0.03423939694189751 0.0 0.0
0.0 0.1658152865094059 -0.1430352622105896 0.14161071632660244 0.0014245458839871224 0.02945201988272419 0.0 0.0
0.0 0.14429103184678338 -0.12454466121122085 0.12307342593306014 0.0014712352781607733 0.02640074949355824 0.0 0.0
0.0 0.12246197355665425 -0.10553952420276332 0.10410841633016683 0.0014311078725963032 0.023595357495959608 0.0 0.0
0.0 0.1013867620955326 -0.0872722730598471 0.08591256995654332 0.0013597031033038445 0.02065144049468489 0.0 0.0
0.0 0.08134571306796332 -0.0702076204497987 0.06892787321343656 0.0012797472363623085 0.017647029154074467 0.0 0.0
0.0 0.06328288718876515 -0.05454524588106764 0.05334785602227858 0.0011973898587890638 0.014611772934486482 0.0 0.0
0.0 0.046822862115768714 -0.0404655017432072 0.039347622334164334 0.0011178794090428606 0.01149810344453336 0.0 0.0
0.0 0.03253043752992422 -0.028188353930753356 0.027145962550019786 0.0010423913807335791 0.008359496282431335 0.0 0.0
0.0 0.020598784044980195 -0.01798797355605295 0.017023706100259814 0.0009642674557931442 0.005435183903650667 0.0 0.0
0.0 0.011434934329905498 -0.010116385209516918 0.009257172661171275 0.0008592125483456362 0.003022719280147043 0.0 0.0
0.0 0.005270852265497455 -0.004654600845391163 0.003991300823110827 0.0006633000222803285 0.0012809087014765707 0.0 0.0
0.0 0.0016726841217668473 -0.0014835701651842014 0.0011580672809682082 0.00032550288421599575 0.00037698165117509646 0.0 0.0
0.0 0.00022142678459209745 -0.00018765116494760223 0.00013334393384280125 5.4307231104801115e-05 4.893151374515336e-05 0.0 0.0
0.0 -8.530703881111725e-06 6.0811979372246144e-06 -5.144316129930354e-06 -9.368818072942555e-07 -8.114575017687688e-06 0.0 0.0
0.0 -7.184623319621463e-08 -5.322214842869262e-09 4.219826322927047e-09 1.1023885199412321e-09 1.0684932758656047e-08 0.0 0.0
0.0 0.0 0.0 0.0 0.0 0.0 0.0 0.0
0.0 0.0 0.0 0.0 0.0 0.0 0.0 0.0
0.0 0.0 0.0 0.0 0.0 0.0 0.0 0.0
0.0 0.0 0.0 0.0 0.0 0.0 0.0 0.0
0.0 0.0 0.0 0.0 0.0 0.0 0.0 0.0
0.0 -8.733953505383712e-06 7.453450366760181e-06 -6.819680469913617e-06 -6.337698968466006e-07 9.073193685759386e-06 0.0 0.0
0.0 0.0003929195004989695 -0.00038469171333912284 0.00027662699281319486 0.00010806472052592807 -2.0843553020147844e-05 0.0 0.0
0.0 0.002510678804827765 -0.002187319820361398 0.001750703601502869 0.0004366162188585291 -0.00023079845776317887 0.0 0.0
0.0 0.0066365772491248295 -0.006076119813601949 0.0053297239989294485 0.0007463958146724944 -0.0009672101978622117 0.0 0.0
0.0 0.013940839877569073 -0.012371229012772014 0.011454493147414613 0.0009167358653574167 -0.002228358610121706 0.0 0.0
0.0 0.024267917275411437 -0.021321682186493118 0.02030031886937628 0.0010213633171168165 -0.004010879321883791 0.0 0.0
0.0 0.03773101884577558 -0.032892580529192646 0.03178680728167064 0.0011057732475220116 -0.0061886995506098405 0.0 0.0
0.0 0.05396490348834919 -0.04685177958956475 0.04566406393058379 0.0011877156589809165 -0.008544169356750316 0.0 0.0
0.0 0.07251753169253661 -0.06291208118961872 0.06163959572298172 0.0012724854666369102 -0.010891751303598107 0.0 0.0
0.0 0.09343112214077609 -0.0808075905557932 0.07944915732360945 0.0013584332321839052 -0.01320558348023138 0.0 0.0
0.0 0.11571034775165955 -0.10028411416730652 0.09884435728845553 0.0014397568788509113 -0.015546571308550115 0.0 0.0
0.0 0.13968148967150706 -0.12098754723239172 0.11948004100291255 0.001507506229479118 -0.01781706020231669 0.0 0.0
0.0 0.16436214880502611 -0.1423234172531661 0.14077555930402869 0.0015478579491374433 -0.019681785251153338 0.0 0.0
0.0 0.1883818949308077 -0.1630953543363587 0.16156471560589883 0.0015306387304596684 -0.02101761983969464 0.0 0.0
0.0 0.20885965447902494 -0.18076485572270373 0.1793929374265994 0.001371918296104337 -0.02343007334053223 0.0 0.0
0.0 0.2206029205074628 -0.19058499257769926 0.1896450052980818 0.0009399872796174259 -0.03193884017593933 0.0 0.0
0.0 0.21621007090743158 -0.1856648835612471 0.18532321081788877 0.0003416727433581587 -0.05290722794737748 0.0 0.0
0.0 0.20587618249502693 -0.171985966101407 0.16532967219869912 0.00665629390270802 1.8197249262996706e-14 0.0 0.0
0.0 0.2162100709073922 -0.18566488356120983 0.1853232108178513 0.000341672743358236 0.05290722794741802 0.0 0.0
0.0 0.22060292050739977 -0.19058499257764247 0.18964500529802514 0.000939987279617598 0.031938840175983245 0.0 0.0
0.0 0.20885965447892443 -0.18076485572261694 0.17939293742651286 0.0013719182961039827 0.023430073340552863 0.0 0.0
0.0 0.1883818949306812 -0.16309535433624972 0.16156471560578967 0.0015306387304603263 0.021017619839691856 0.0 0.0
0.0 0.1643621488049005 -0.14232341725305697 0.1407755593039202 0.001547857949136862 0.01968178525114992 0.0 0.0
0.0 0.13968148967137256 -0.12098754723227573 0.11948004100279619 0.001507506229479633 0.017817060202309574 0.0 0.0
0.0 0.11571034775152304 -0.10028411416718816 0.09884435728833811 0.001439756878850074 0.015546571308539068 0.0 0.0
0.0 0.09343112214064461 -0.08080759055567964 0.07944915732349578 0.001358433232183729 0.013205583480219853 0.0 0.0
0.0 0.07251753169241443 -0.06291208118951336 0.06163959572287691 0.0012724854666363832 0.010891751303580856 0.0 0.0
0.0 0.05396490348824196 -0.04685177958947174 0.045664063930490884 0.001187715658980779 0.008544169356730096 0.0 0.0
0.0 0.03773101884569205 -0.0328925805291195 0.03178680728159836 0.0011057732475211201 0.006188699550593334 0.0 0.0
0.0 0.024267917275345767 -0.021321682186435653 0.020300318869319267 0.0010213633171164101 0.00401087932187174 0.0 0.0
0.0 0.01394083987752429 -0.01237122901273255 0.011454493147375842 0.0009167358653567072 0.0022283586101127448 0.0 0.0
0.0 0.006636577249097378 -0.006076119813577396 0.005329723998906222 0.000746395814671185 0.0009672101978564967 0.0 0.0
0.0 0.002510678804815387 -0.002187319820350724 0.0017507036014938887 0.0004366162188568323 0.00023079845776142352 0.0 0.0
0.0 0.00039291950049491595 -0.0003846917133362553 0.0002766269928110815 0.00010806472052517337 2.0843553019897593e-05 0.0 0.0
0.0 -8.733953505224016e-06 7.45345036629533e-06 -6.819680469551098e-06 -6.337698967442661e-07 -9.073193685480748e-06 0.0 0.0
0.0 0.0 0.0 0.0 0.0 0.0 0.0 0.0
0.0 0.0 0.0 0.0 0.0 0.0 0.0 0.0
0.0 0.0 0.0 0.0 0.0 0.0 0.0 0.0
0.0 0.0 0.0 0.0 0.0 0.0 0.0 0.0
0.0 0.0 0.0 0.0 0.0 0.0 0.0 0.0
0.0 0.0 0.0 0.0 0.0 0.0 0.0 0.0
0.0 8.507544457321145e-06 -1.1042584597947196e-05 5.291314574839265e-06 5.7512700231079566e-06 1.1435186722820995e-05 0.0 0.0
0.0 0.0007580522258071027 -0.0006677264742455643 0.0004889906005828428 0.00017873587366272145 8.007269430202659e-05 0.0 0.0
0.0 0.0033600602831708477 -0.003026746778357184 0.0024875822785550518 0.0005391644998021317 2.9550779333349794e-05 0.0 0.0
0.0 0.008341569436771385 -0.007558857113770869 0.00675066350911723 0.0008081936046536418 -0.0003602179405917213 0.0 0.0
0.0 0.016478054995740704 -0.014649629755718954 0.013684410529569823 0.0009652192261491048 -0.001025431703440422 0.0 0.0
0.0 0.02801555786890555 -0.024632409897186527 0.02355900695764626 0.0010734029395402637 -0.0019694631676359436 0.0 0.0
0.0 0.04291889419114495 -0.03753968449739652 0.03637413837470686 0.00116554612268964 -0.0031540816429697933 0.0 0.0
0.0 0.061006567968887884 -0.053162241559030855 0.05190890164634885 0.0012533399126820322 -0.004461524501188347 0.0 0.0
0.0 0.08201735717559988 -0.07119468705463343 0.0698521399855138 0.00134254706911965 -0.005796363306519628 0.0 0.0
0.0 0.10499946652184841 -0.09132546634877878 0.08989304895219365 0.0014324173965850563 -0.0071629779417347675 0.0 0.0
0.0 0.1302773538123528 -0.11319056968217799 0.11167638773487068 0.0015141819473072685 -0.008567613087232655 0.0 0.0
0.0 0.156961957989277 -0.1362791097898763 0.13470441814558912 0.0015746916442872854 -0.00991179817000866 0.0 0.0
0.0 0.1841446007018775 -0.15978349542207165 0.15818106219340572 0.0016024332286657475 -0.0109063749106797 0.0 0.0
0.0 0.21035990477665403 -0.18243825687660567 0.1808436301456234 0.001594626730982485 -0.011148754417990861 0.0 0.0
0.0 0.23318574805950487 -0.2021743386270503 0.20063429568704352 0.0015400429400066898 -0.011222967079190418 0.0 0.0
0.0 0.24813722170521407 -0.2150493008975664 0.21379517332934211 0.001254127568224194 -0.016207463895586288 0.0 0.0
0.0 0.24712406623068828 -0.21331833558019164 0.21307277093820168 0.0002455646419898351 -0.040279333053610034 0.0 0.0
0.0 0.23846018728790347 -0.20056124895545835 0.19407638665071292 0.006484862304745272 1.2134390714457766e-14 0.0 0.0
0.0 0.2471240662306542 -0.21331833558015953 0.21307277093817079 0.0002455646419886662 0.040279333053637026 0.0 0.0
0.0 0.2481372217051331 -0.21504930089749574 0.21379517332927211 0.0012541275682236236 0.01620746389560946 0.0 0.0
0.0 0.23318574805939096 -0.2021743386269517 0.2006342956869452 0.0015400429400065049 0.011222967079200955 0.0 0.0
0.0 0.210359904776514 -0.18243825687648493 0.18084363014550225 0.0015946267309826007 0.011148754417988706 0.0 0.0
0.0 0.18414460070173166 -0.1597834954219448 0.15818106219327963 0.00160243322866493 0.010906374910677058 0.0 0.0
0.0 0.15696195798913465 -0.13627910978975244 0.13470441814546694 0.0015746916442856598 0.009911798170004593 0.0 0.0
0.0 0.13027735381219935 -0.11319056968204554 0.11167638773473819 0.0015141819473072189 0.008567613087226044 0.0 0.0
0.0 0.10499946652169989 -0.09132546634865055 0.08989304895206503 0.0014324173965856045 0.007162977941728349 0.0 0.0
0.0 0.08201735717546403 -0.07119468705451615 0.06985213998539644 0.0013425470691197402 0.005796363306509618 0.0 0.0
0.0 0.061006567968770145 -0.05316224155892909 0.05190890164624732 0.0012533399126817767 0.004461524501176526 0.0 0.0
0.0 0.04291889419105302 -0.037539684497316005 0.03637413837462743 0.0011655461226885904 0.0031540816429597362 0.0 0.0
0.0 0.02801555786883297 -0.024632409897122752 0.02355900695758294 0.0010734029395398118 0.0019694631676294995 0.0 0.0
0.0 0.016478054995687805 -0.01464962975567216 0.013684410529523796 0.0009652192261483556 0.0010254317034352842 0.0 0.0
0.0 0.008341569436740451 -0.007558857113742983 0.006750663509090489 0.0008081936046524909 0.0003602179405890508 0.0 0.0
0.0 0.0033600602831562183 -0.003026746778344422 0.0024875822785436845 0.0005391644998007371 -2.9550779334185022e-05 0.0 0.0
0.0 0.0007580522258011766 -0.0006677264742409273 0.0004889906005792981 0.0001787358736616287 -8.007269430175991e-05 0.0 0.0
0.0 8.507544456706894e-06 -1.1042584597814636e-05 5.291314574781182e-06 5.751270023033544e-06 -1.1435186722662995e-05 0.0 0.0
0.0 0.0 0.0 0.0 0.0 0.0 0.0 0.0
0.0 0.0 0.0 0.0 0.0 0.0 0.0 0.0
0.0 0.0 0.0 0.0 0.0 0.0 0.0 0.0
0.0 0.0 0.0 0.0 0.0 0.0 0.0 0.0
0.0 0.0 0.0 0.0 0.0 0.0 0.0 0.0
0.0 0.0 0.0 0.0 0.0 0.0 0.0 0.0
0.0 6.935851582507622e-05 -6.799950383755123e-05 4.461808735268803e-05 2.3381416484863248e-05 2.574180290658104e-05 0.0 0.0
0.0 0.001179523522775274 -0.0009925769818523436 0.0007215058344839415 0.0002710711473684022 0.0002300863635574411 0.0 0.0
0.0 0.004186520224960326 -0.003776363843204218 0.0030687813900592926 0.0007075824531449228 0.00048525675491137114 0.0 0.0
0.0 0.00967676807470636 -0.008816336427981837 0.007761690765891373 0.0010546456620904763 0.0006285901714192757 0.0 0.0
0.0 0.018457740866536308 -0.016534664339021145 0.015203954203808292 0.0013307101352128653 0.0006813406516304921 0.0 0.0
0.0 0.03079129777779704 -0.027341441918612062 0.02573886975909749 0.0016025721595145505 0.0006271877028389918 0.0 0.0
0.0 0.046857649629455406 -0.04133331314039139 0.0394221312502306 0.0019111818901607239 0.00041298528959231133 0.0 0.0
0.0 0.06643574160164907 -0.058328854803461866 0.05605476618384912 0.0022740886196127626 7.544318327352799e-05 0.0 0.0
0.0 0.08882189569521907 -0.0780058929345053 0.07531355034731785 0.0026923425871873503 -0.0003649078465110048 0.0 0.0
0.0 0.1139376951237514 -0.09998313559944011 0.09683338839536153 0.0031497472040785254 -0.0009248162544002597 0.0 0.0
0.0 0.1412176616958056 -0.1238167392563138 0.12019540890188553 0.0036213303544283012 -0.0015721571255536328 0.0 0.0
0.0 0.16994516529754095 -0.14887430184970368 0.14480464991818898 0.004069651931514661 -0.002288908182200209 0.0 0.0
0.0 0.19902127651351378 -0.17415486218541562 0.16970930603590967 0.0044455561495058745 -0.002914763449289332 0.0 0.0
0.0 0.22671523505780178 -0.19818308384649444 0.19348606121694667 0.004697022629547478 -0.0031098090653363143 0.0 0.0
0.0 0.25073662771116445 -0.2190250210446551 0.21420665926958213 0.004818361775072775 -0.0028183234924015685 0.0 0.0
0.0 0.267864012367789 -0.2341356314877168 0.22914132589519554 0.004994305592521203 -0.0059085149406795795 0.0 0.0
0.0 0.27151829233961156 -0.2378346891306414 0.2325767542758401 0.0052579348548014646 -0.03132420549124112 0.0 0.0
0.0 0.26772979675906844 -0.22861555701368222 0.216038624325114 0.01257693268856781 5.4539706084710815e-15 0.0 0.0
0.0 0.2715182923395811 -0.23783468913061379 0.2325767542758139 0.005257934854799725 0.031324205491252456 0.0 0.0
0.0 0.26786401236769347 -0.23413563148763294 0.2291413258951145 0.004994305592518131 0.00590851494068604 0.0 0.0
0.0 0.2507366277110406 -0.21902502104454696 0.21420665926947727 0.004818361775069975 0.0028183234924024046 0.0 0.0
0.0 0.22671523505765345 -0.1981830838463644 0.19348606121681938 0.004697022629544929 0.003109809065333525 0.0 0.0
0.0 0.1990212765133475 -0.17415486218527101 0.16970930603576662 0.004445556149503831 0.002914763449288177 0.0 0.0
0.0 0.16994516529738404 -0.14887430184956546 0.14480464991805558 0.004069651931509856 0.002288908182197843 0.0 0.0
0.0 0.14121766169563738 -0.12381673925616736 0.12019540890174046 0.003621330354426794 0.0015721571255484321 0.0 0.0
0.0 0.1139376951235912 -0.0999831355993007 0.09683338839522398 0.0031497472040765678 0.0009248162543978727 0.0 0.0
0.0 0.08882189569507414 -0.07800589293437932 0.07531355034719368 0.0026923425871855696 0.00036490784650657256 0.0 0.0
0.0 0.06643574160152399 -0.058328854803352745 0.0560547661837417 0.0022740886196110257 -7.544318327766183e-05 0.0 0.0
0.0 0.04685764962935382 -0.04133331314030246 0.03942213125014416 0.001911181890158252 -0.0004129852895954859 0.0 0.0
0.0 0.030791297777716997 -0.027341441918541733 0.02573886975902888 0.001602572159512844 -0.000627187702840786 0.0 0.0
0.0 0.01845774086647924 -0.01653466433897036 0.015203954203759012 0.0013307101352113423 -0.0006813406516303034 0.0 0.0
0.0 0.009676768074672059 -0.008816336427950756 0.007761690765861875 0.0010546456620888647 -0.0006285901714181475 0.0 0.0
0.0 0.004186520224942486 -0.003776363843187691 0.0030687813900446286 0.0007075824531430654 -0.0004852567549102042 0.0 0.0
0.0 0.0011795235227679002 -0.0009925769818462426 0.0007215058344793989 0.0002710711473668465 -0.00023008636355606682 0.0 0.0
0.0 6.93585158243127e-05 -6.799950383700021e-05 4.4618087352343903e-05 2.3381416484656352e-05 -2.574180290630902e-05 0.0 0.0
0.0 0.0 0.0 0.0 0.0 0.0 0.0 0.0
0.0 0.0 0.0 0.0 0.0 0.0 0.0 0.0
0.0 0.0 0.0 0.0 0.0 0.0 0.0 0.0
SCALARS Wm float 4
LOOKUP_TABLE default
14.78712771747542 2.108586899156762 6.418309119368448 6.260231698950199
7.851074184950718 3.679819035108433 1.912722252949728 2.2585328968925618
0.9196052119102354 0.8008091957292741 0.027540016232693577 0.09125599994826762
0.6486679988538272 0.5750163016467503 0.020944958804793905 0.05270673840228275
1.4896875976061241 0.9218778889420729 0.21086460410563385 0.3569451045584168
3.484197600422993 1.4261193555662337 0.8220121638832208 1.2360660809735404
7.472366045286432 2.14382961414139 2.43335496229956 2.895181468845481
14.081431991480759 3.1205851432019323 5.4370369988041585 5.523809849474664
23.978116567651504 4.431636566639547 10.31800596489139 9.228474036120563
37.57509372717196 6.089045536175483 17.448038385410847 14.038009805585641
54.96562345074848 8.067297844211163 27.007467376627112 19.890858229910208
75.88651717932397 10.323370078171935 38.8849106946311 26.678236406520934
100.23476010144 12.79954289854985 53.15829166278762 34.27692554010254
127.62649355782168 15.424341389120379 69.64504042250233 42.55711174619901
157.3922989977653 17.98141931986045 88.06917324755645 51.34170643034832
188.44570194907442 20.143649908497164 107.92663179087299 60.37542024970426
219.19499225616684 21.57239919730118 128.3012875434851 69.3213055153806
247.7492857526774 22.070633504663626 147.9824377193387 77.69621452867491
272.25169496506084 21.81944424017191 165.47584173798796 84.9564089869013
289.41332936543444 20.246307436849097 178.73302103828615 90.43400089029893
294.6875412419572 17.16592242678569 184.63248920109672 92.88912961407505
289.4133293653965 20.24630743685261 178.73302103825603 90.43400089028782
272.25169496496045 21.819444240155697 165.47584173792845 84.95640898687626
247.74928575254756 22.070633504658282 147.98243771925158 77.69621452863763
219.194992256042 21.57239919732668 128.30128754338 69.32130551533531
188.4457019489173 20.143649908489735 107.92663179076956 60.37542024965808
157.39229899759482 17.981419319835425 88.06917324745761 51.3417064303018
127.62649355767213 15.42434138911317 69.64504042240677 42.55711174615215
100.23476010130616 12.799542898551937 53.15829166269802 34.27692554005623
75.88651717918782 10.32337007814945 38.884910694557746 26.678236406480693
54.96562345064315 8.067297844201786 27.007467376566716 19.890858229874645
37.57509372708755 6.089045536165052 17.448038385365862 14.038009805556621
23.978116567592796 4.431636566631503 10.31800596486192 9.228474036099374
14.081431991439414 3.1205851431926614 5.437036998786595 5.523809849460152
7.472366045262646 2.1438296141360507 2.433354962290256 2.8951814688363395
3.4841976004104835 1.4261193555619394 0.8220121638797849 1.2360660809687578
1.489687597601415 0.921877888939952 0.21086460410454927 0.35694510455691425
0.6486679988526285 0.5750163016457275 0.020944958804723166 0.052706738402177794
0.9196052119088218 0.8008091957283305 0.02754001623253272 0.09125599994795737
7.851074184945234 3.679819035109965 1.9127222529462202 2.258532896889049
14.787127717444486 2.108586899140988 6.418309119359939 6.2602316989435645
17.927992525586657 7.675038264776751 5.052862458306036 5.200091802503877
3.3723712962789 0.7429496970435896 1.1394391428290653 1.4899824564062452
0.31420596432712855 0.37420195720932486 -0.02245866024402029 -0.0375373326381761
0.4918250650652539 0.46164257245714746 0.006697718355806015 0.02348477425230056
1.1096714891250132 0.740907757183777 0.12215484351525079 0.24660888842598594
2.7698026635139605 1.128740173863722 0.6544658078101989 0.9865966818400393
6.131666367022275 1.6128702114297806 2.0184518054650713 2.500344350127423
11.906994983454245 2.2516283432385062 4.720736089377489 4.934630550838252
20.590515565859036 3.0440327057794483 9.160878469262263 8.38560439081732
32.45218865300385 3.964284230748549 15.627526593225584 12.860377829029726
47.5471386315718 4.978539400795913 24.278286108063256 18.290313122712625
65.82863600903636 6.082375599896528 35.17669166884128 24.569568740298575
86.86236884155096 7.2652546856203015 48.00101290875108 31.596101247179572
110.68279140635119 8.46842461503072 62.961542820724524 39.25282397059593
136.66200164142154 9.601075512704654 79.66741280646886 47.39351332224811
163.962873798759 10.500009747262046 97.67572361292045 55.78714043857641
191.33481373359183 10.984747131633561 116.25617092412796 64.0938956778303
217.13985320126122 10.93909643349672 134.2964739408992 71.90428282686533
239.19740775378503 10.220067897456412 150.3048215656296 78.67251829069896
254.79013404695044 8.981219618998987 162.2073334298679 83.60158099808359
260.9343310429257 7.577861997249869 167.56509173868977 85.7913773069861
254.7901340469277 8.981219619017493 162.2073334298388 83.60158099807136
239.19740775372296 10.220067897473918 150.30482156557377 78.67251829067538
217.1398532011468 10.939096433491786 134.2964739408222 71.90428282683297
191.33481373344074 10.984747131609817 116.25617092403938 64.09389567779144
163.9628737986145 10.50000974725242 97.67572361282764 55.787140438534394
136.66200164127682 9.601075512691203 79.6674128063799 47.393513322205756
110.68279140622066 8.46842461502982 62.961542820637995 39.25282397055283
86.86236884142691 7.265254685621149 48.00101290866943 31.596101247136325
65.82863600892412 6.0823755998888025 35.17669166877439 24.569568740260888
47.54713863147764 4.978539400789594 24.27828610800856 18.290313122679507
32.452188652931504 3.9642842307422366 15.627526593185788 12.860377829003472
20.59051556580581 3.0440327057719414 9.160878469236042 8.38560439079782
11.906994983420402 2.2516283432355797 4.720736089360781 4.934630550824048
6.131666367002792 1.6128702114263838 2.018451805457116 2.500344350119289
2.7698026635038158 1.1287401738611842 0.6544658078067419 0.9865966818358919
1.1096714891216741 0.7409077571824916 0.12215484351443932 0.24660888842474327
0.49182506506490636 0.46164257245670004 0.006697718355806374 0.02348477425240004
0.3142059643271599 0.374201957209156 -0.02245866024395146 -0.0375373326380444
3.3723712962703813 0.7429496970419152 1.1394391428256658 1.4899824564028008
17.927992525558263 7.675038264764593 5.052862458297166 5.200091802496493
13.746874292491409 6.185732737694709 3.5883700780782184 3.972771476718472
2.134632989538438 0.3457178428654724 0.7646621491696749 1.024252997503293
0.1910067489371871 0.1909565317680394 8.397194627355649e-05 -3.3754777125848904e-05
0.3575627351621424 0.35617706851400865 -0.00034624794983663864 0.00173191459797034
0.8277392267347768 0.6378867988100069 0.05505590930123086 0.13479651862353942
2.1587901145375956 1.0076404838813067 0.44252864241849443 0.7086209882377941
4.993428357122102 1.4643279211018072 1.5225221757413887 2.0065782602789066
10.033683848093911 2.0388566857866897 3.8229530716866664 4.171874090620551
17.661314858006445 2.728831565153969 7.655804885681371 7.276678407171106
28.10973074019575 3.51233126423079 13.295146756449789 11.30225271951517
41.35773055767008 4.375939667879036 20.81392744928966 16.1678634405014
57.26571593808324 5.32124186844381 30.166811754550977 21.77766231508845
75.85309585915599 6.35400242849301 41.461626028083664 28.037467402579356
96.59254751272161 7.443479389301983 54.282244613894285 34.86682350952532
119.41902344388365 8.50403740480866 68.78129018067963 42.13369585839537
143.52931249783444 9.420976924063195 84.45151522691852 49.656820346852776
167.87015698638174 10.025554368835726 100.67752739939725 57.16707521814875
190.88668943028762 10.110454733141944 116.5302511973671 64.24598349977857
210.49048519506854 9.53323906447542 130.6048235916503 70.35242253894282
224.31984380460457 8.59645309646455 140.9748447957456 74.74854591239432
229.44230986932422 6.748316799861253 145.8738584846855 76.8201345847774
224.31984380455785 8.596453096454002 140.97484479572068 74.74854591238314
210.49048519501184 9.533239064493449 130.60482359159835 70.35242253892005
190.88668943021182 10.110454733165625 116.53025119729811 64.24598349974804
167.87015698632263 10.025554368891246 100.67752739931878 57.16707521811255
143.5293124977035 9.420976924046675 84.4515152268406 49.656820346816275
119.41902344377527 8.504037404818098 68.7812901806004 42.1336958583568
96.59254751260949 7.443479389302302 54.28224461381991 34.86682350948721
75.85309585903805 6.3540024284829055 41.46162602801375 28.037467402541456
57.26571593798333 5.321241868436293 30.16681175449249 21.77766231505458
41.35773055758847 4.375939667873764 20.81392744924275 16.16786344047193
28.109730740136445 3.512331264230494 13.29514675641483 11.302252719491117
17.661314857962104 2.7288315651516184 7.655804885657636 7.276678407152846
10.033683848062655 2.0388566857824806 3.822953071672287 4.171874090607894
4.993428357106103 1.4643279210996525 1.5225221757348193 2.0065782602716298
2.1587901145294808 1.007640483879732 0.44252864241564543 0.7086209882341029
0.827739226732398 0.6378867988090982 0.05505590930070058 0.13479651862259934
0.3575627351618973 0.3561770685136909 -0.00034624794982074966 0.0017319145980272078
0.1910067489371151 0.19095653176799168 8.397194627122417e-05 -3.375477714775345e-05
2.1346329895315987 0.3457178428641915 0.7646621491670097 1.0242529975003964
13.746874292463286 6.185732737683104 3.588370078069484 3.9727714767107027
10.495574430054809 4.839363736832026 2.5900276082204217 3.0661830850023652
1.4557681038703467 0.1559215739424675 0.5300715085309973 0.769775021396881
0.13263060728085346 0.13263060728085346 0.0 0.0
0.2622393963080462 0.26567365621260797 -0.0006864649900839742 -0.00274779491447781
0.6092008647102426 0.5362043770941485 0.017860732559102407 0.0551357550569914
1.6102050074029939 0.8731851126253307 0.2610989226830759 0.4759209720945873
3.972152474484251 1.3154749401554329 1.1165521700793781 1.5401253642494375
8.235345374312278 1.8250816492064768 2.9843602450632534 3.4259034800425545
14.82647453787939 2.420247305939294 6.231789961955486 6.174437269984606
23.863107304492143 3.0818610992198785 11.03755047320315 9.743695732069112
35.27342225889185 3.807752852796236 17.421933208064146 14.043736198031473
49.02327824574234 4.617087644896967 25.424705888316904 18.981484712528488
64.87808458817821 5.512370689303945 34.883118020816084 24.482595878058163
82.94105700248403 6.479919226152785 45.98852408072786 30.472613695603393
102.62336249566896 7.481528826578293 58.273400769092234 36.86843289999843
123.52005632082485 8.416156251882079 71.58144554715997 43.522454521782784
144.92829597298737 9.120572828847536 85.6071385699183 50.20058457422158
165.30082018550291 9.36993510163724 99.36944631846708 56.5614387653985
182.7654399809482 9.028197347655498 111.64195207678387 62.095290556508836
195.24576196383455 8.26558276005345 120.82410399033111 66.15607521345001
199.89523607623286 6.066452841018585 125.60908132751827 68.2197019076959
195.24576196381696 8.265582760063953 120.82410399031117 66.1560752134417
182.76543998088584 9.028197347656892 111.64195207673988 62.095290556489005
165.30082018538664 9.369935101602206 99.36944631841098 56.56143876537342
144.92829597287414 9.120572828838705 85.60713856984748 50.20058457418795
123.52005632072466 8.416156251878846 71.58144554709452 43.5224545217513
102.6233624955646 7.4815288265797255 58.27340076902224 36.86843289996257
82.94105700238275 6.479919226146119 45.98852408066611 30.47261369557053
64.8780845880802 5.512370689296241 34.88311802075827 24.482595878025645
49.02327824565843 4.6170876448928 25.42470588826719 18.981484712498442
35.273422258821924 3.807752852791556 17.421933208024644 14.043736198005748
23.863107304436703 3.081861099214838 11.037550473173674 9.743695732048186
14.826474537837859 2.4202473059345206 6.231789961935059 6.174437269968284
8.235345374287945 1.8250816492041442 2.9843602450520144 3.4259034800317805
3.972152474469467 1.3154749401524433 1.1165521700737067 1.540125364243318
1.610205007396753 0.8731851126238429 0.2610989226810873 0.4759209720918234
0.6092008647086443 0.5362043770929693 0.017860732558938955 0.05513575505673565
0.2622393963080777 0.2656736562126307 -0.000686464990078107 -0.0027477949144748886
0.1326306072807117 0.1326306072807117 0.0 0.0
1.4557681038653025 0.15592157394205386 0.5300715085288069 0.769775021394441
10.495574430030478 4.839363736821593 2.5900276082134623 3.066183084995429
7.900802569427412 3.757195584629499 1.8142996492229608 2.329307335574957
1.0676832396495426 0.127464224298576 0.38593945257708806 0.5542795627738777
0.12041521646937406 0.12041521646937406 0.0 0.0
0.20861303747597212 0.2090932160342289 -5.4491150669592454e-05 -0.00042568740758720943
0.44564968652435266 0.4361258740917291 -0.000697932141381415 0.010221744574005058
1.1703197037821982 0.7474308348124077 0.1375466022347588 0.2853422667350316
3.034940435031099 1.1472795497056922 0.7707006653748688 1.1169602199505384
6.5394369847269385 1.6142331206804286 2.2200068354444986 2.70519702860201
12.092769208271454 2.120071612722489 4.887304773557737 5.085392821991228
19.733662627054663 2.67276031019723 8.86943377581255 8.191468541044888
29.389357822514793 3.2792286596232354 14.188620640833857 11.92150852205769
40.96255521887332 3.9613851218174188 20.81547326382293 16.185696833232974
54.40748096554048 4.7384769779293 28.74581626385685 20.923187723754324
69.45181012720558 5.601910169149402 37.764365591553066 26.085534366503104
86.18357304518462 6.520472129846885 48.06248383055066 31.600617084787082
104.12421163984813 7.455728091054084 59.30081242341872 37.36767112537534
122.49765439708038 8.266682919608188 71.01098824879315 43.219983228678984
140.3314613417553 8.721971391195325 82.7542143599559 48.85527559060411
155.9166937089457 8.622721157797734 93.44919283219004 53.84477971895798
167.4253014593639 8.019408043963324 101.76226393233347 57.64362948306709
171.8236237582117 5.449384711389508 106.56402256463988 59.810216482182355
167.42530145934083 8.019408043966846 101.7622639323154 57.643629483058454
155.91669370889923 8.6227211578018 93.44919283215542 53.84477971894204
140.33146134170298 8.721971391205996 82.75421435991349 48.855275590583524
122.4976543969941 8.266682919602951 71.01098824873844 43.21998322865271
104.12421163977194 7.455728091062933 59.300812423362316 37.36767112534668
86.18357304509053 6.520472129838266 48.06248383049468 31.600617084757587
69.45181012712433 5.601910169148367 37.764365591501395 26.085534366474555
54.40748096546776 4.738476977934463 28.745816263807708 20.92318772372558
40.962555218803 3.9613851218150065 20.81547326378118 16.185696833206812
29.38935782245771 3.2792286596206996 14.188620640801362 11.92150852203565
19.73366262700878 2.672760310192649 8.869433775788872 8.191468541027263
12.092769208238815 2.120071612720786 4.887304773540996 5.085392821977034
6.539436984705838 1.6142331206783693 2.2200068354349125 2.705197028592554
3.0349404350196036 1.147279549703513 0.7707006653705516 1.1169602199455402
1.1703197037779156 0.7474308348111403 0.13754660223357273 0.2853422667332024
0.44564968652347964 0.43612587409098014 -0.0006979321414276094 0.01022174457392729
0.2086130374758626 0.20909321603413952 -5.449115067057698e-05 -0.00042568740760640133
0.1204152164693533 0.1204152164693533 0.0 0.0
1.067683239645311 0.12746422429823376 0.3859394525752313 0.5542795627718474
7.900802569408074 3.757195584621578 1.8142996492174321 2.3293073355690592
5.843621498509989 2.8907080960045892 1.2417839505165693 1.7111294519888307
0.7602697332014101 0.14740915923755327 0.2293694711958983 0.3834911027679582
0.136625711252669 0.13663070579497485 -1.966034484966458e-07 -4.797938857358676e-06
0.18589688232274412 0.18585696779801214 5.0255323086116004e-06 3.488899242339052e-05
0.34135152354441584 0.35335708437468055 -0.0040032449242313395 -0.008002315906033307
0.820771004590788 0.6182001212609848 0.05440535584849007 0.1481655274813131
2.173922292311389 0.9680797315720685 0.44871655425457335 0.7571260064847467
5.016632286061045 1.3944836548901685 1.6001344940897908 2.0220141370810865
9.460334958084443 1.829984886277952 3.613978405911671 4.0163716658948205
15.771524337368204 2.2868699846075655 6.832738841744516 6.651915511016117
23.695639215915453 2.786737611508935 11.102554731545906 9.806346872860614
33.15778617201843 3.359081598949198 16.403922963466258 13.394781609602997
44.10858270790669 4.026745035556258 22.71429432872235 17.367543343628075
56.543814354788324 4.792722575545002 30.05452937021129 21.696562409032026
70.24362401296618 5.6440053868247215 38.2630378561453 26.336580769996125
85.00755912169608 6.541579135137112 47.25470164317609 31.211278343382933
100.65802737872863 7.430869207279195 57.029444169641906 36.19771400180757
116.00781823954057 8.120943368864124 66.77282781725108 41.11404705342539
129.81003111196313 8.29705943458696 75.90035009779554 45.61262157958063
140.6007471899919 7.85513566858409 83.52789446246777 49.217717058940046
144.93572593905182 4.898236792577593 88.49417726976003 51.54331187671421
140.60074718997402 7.855135668586831 83.52789446245362 49.217717058933545
129.8100311119438 8.297059434611759 75.90035009776577 45.612621579566365
116.00781823949492 8.120943368874666 66.77282781721323 41.114047053407006
100.65802737864837 7.430869207262064 57.02944416959981 36.1977140017864
85.00755912161716 6.541579135128419 47.25470164313036 31.211278343358376
70.24362401290377 5.644005386831206 38.2630378561008 26.336580769971782
56.54381435472118 4.792722575544636 30.054529370169064 21.696562409007466
44.108582707836746 4.026745035548945 22.714294328683522 17.367543343604282
33.15778617196083 3.3590815989473564 16.403922963432578 13.394781609580884
23.69563921586897 2.7867376115066835 11.102554731520065 9.80634687284223
15.77152433733175 2.286869984605918 6.832738841725058 6.651915511000771
9.460334958054613 1.829984886272217 3.6139784058989948 4.016371665883401
5.016632286044343 1.3944836548890887 1.6001344940820263 2.022014137073228
2.1739222923026627 0.968079731570046 0.44871655425164525 0.7571260064809708
0.8207710045880416 0.6182001212604366 0.05440535584771373 0.14816552747989148
0.3413515235438884 0.35335708437391944 -0.0040032449241808425 -0.008002315905850198
0.18589688232229204 0.18585696779757888 5.025532306678977e-06 3.488899240654195e-05
0.13662571125241854 0.13663070579472028 -1.9660344829240563e-07 -4.797938853403843e-06
0.7602697331982557 0.14740915923736864 0.22936947119453854 0.38349110276634885
5.843621498495004 2.8907080959985816 1.2417839505124095 1.711129451984014
4.180722317689094 2.191194480892419 0.7869725291194551 1.202555307677221
0.5640650553064108 0.18948804902561467 0.13159615639391364 0.24298084988688207
0.1649053282033922 0.16490948808701766 -2.3246729076969345e-07 -3.92741633463526e-06
0.1831685903145592 0.1832102265398173 -4.68039919736844e-06 -3.6955826060749576e-05
0.2816770953403931 0.29246576533432117 -0.0025824904619593963 -0.008206179531968753
0.5740432449629862 0.506432468433181 0.01199141606106658 0.055619360468738985
1.4928186955020988 0.7970697261326363 0.2376990855173356 0.4580498838521271
3.5405948541442007 1.1579046348182762 0.9741462869297758 1.4085439323961493
7.112867666884853 1.5467260832451664 2.5805424928080725 2.9855990908316152
11.959701810603967 1.9210821115561472 4.908491183133422 5.130128515914394
18.242480267371086 2.330663926162242 8.206836690457326 7.7049796507515165
25.67909220620356 2.80604530176106 12.259104082888747 10.613942821553747
34.256021312926 3.375963445090083 17.058647852179877 13.821410015656046
43.996343505251176 4.054759260155435 22.62608430552199 17.315499939573765
54.8289034785851 4.830327478976776 28.920656909695136 21.0779190899132
66.74969515096112 5.685953392671608 36.01043854019353 25.053303218095948
79.15796727907015 6.608656224518087 43.37498473421316 29.174326320338924
92.15893954069118 7.505701384671843 51.336619512599164 33.316618643420156
104.54030731405254 8.014370304840527 59.2089354390839 37.317001570128085
114.71303232699552 7.785581463923373 66.13305688072019 40.79439398235199
119.19131134177752 4.4274341357190465 71.39565374486733 43.368223461191064
114.7130323269865 7.785581463930144 66.13305688070962 40.794393982346705
104.54030731401139 8.014370304836053 59.208935439059516 37.317001570115835
92.15893954062895 7.505701384650619 51.33661951257218 33.31661864340616
79.15796727902305 6.608656224519727 43.374984734181545 29.174326320321754
66.7496951509087 5.685953392673932 36.01043854015831 25.053303218076486
54.82890347852374 4.830327478972305 28.920656909659236 21.0779190898922
43.99634350519715 4.054759260151961 22.62608430549068 17.315499939554506
34.25602131287749 3.3759634450857714 17.058647852153097 13.821410015638643
25.67909220615758 2.806045301758333 12.259104082863196 10.613942821536032
18.242480267332446 2.330663926158055 8.206836690437722 7.70497965073667
11.959701810572637 1.9210821115517784 4.908491183118719 5.13012851590214
7.112867666864336 1.546726083241518 2.580542492799274 2.985599090823543
3.5405948541326633 1.1579046348186695 0.9741462869241454 1.4085439323898492
1.4928186954959997 0.7970697261306743 0.23769908551560992 0.4580498838497147
0.5740432449607602 0.5064324684320516 0.011991416060728588 0.055619360467980314
0.2816770953399657 0.29246576533351004 -0.0025824904618881594 -0.00820617953165638
0.18316859031394606 0.18321022653922622 -4.680399200309514e-06 -3.695582607985754e-05
0.16490532820270284 0.16490948808632 -2.3246729021856114e-07 -3.927416326937905e-06
0.5640650553042553 0.1894880490255696 0.13159615639298586 0.2429808498856996
4.180722317677234 2.1911944808875177 0.78697252911641 1.2025553076733093
2.955210780527311 1.6665753095074667 0.5102716980545383 0.7783637729653058
0.41062303640119985 0.22051207518232854 0.05366654411185378 0.13644441710701763
0.19417816370118063 0.1937012888624732 5.611635759662717e-05 0.00042075848111069954
0.1920913724895046 0.19203417060515224 -1.8851704909850964e-06 5.9087054843342634e-05
0.2525091679238346 0.259154230852811 -0.001428277814521674 -0.005216785114454669
0.4204609793763646 0.41365858994386645 -0.003350661026362013 0.010153050458859964
0.9581919952078459 0.6299238926873076 0.09481543214157445 0.23345267037896353
2.317882681497634 0.9229196720235682 0.5226066435896715 0.8723563658843954
4.808124655073546 1.246830194782757 1.536504425909165 2.0247900343816223
8.501332568797187 1.5686130529395068 3.2842489823323984 3.6484705335252823
13.069850095013996 1.901976900404173 5.543707479739812 5.6241657148700135
18.546630324253005 2.2958420918535545 8.39747916797821 7.853309064421241
24.87264441449916 2.7775960502252053 11.799750634103532 10.295297730170429
32.05474404193068 3.3695831883901683 15.730400179856739 12.954760673683761
40.176187923690485 4.082933218878458 20.258236585988424 15.835018118823621
49.07775112562266 4.887091820009216 25.27563025662391 18.91502904898955
58.77334418594396 5.776411918342489 30.86111158478905 22.13582068281243
69.05579328672644 6.818186454277693 36.74549833562353 25.49210849682521
79.66604591263076 7.717995364028151 42.997685750223205 28.95036479837941
89.49420116012797 7.823102934697308 49.37062843788135 32.3004697875493
94.3833349552192 4.057158363778498 55.091216572204296 35.234960019236375
89.49420116010795 7.823102934684104 49.370628437876775 32.30046978754707
79.66604591258455 7.71799536400009 42.99768575021126 28.95036479837318
69.05579328670854 6.818186454288733 36.745498335605056 25.492108496814783
58.77334418590061 5.77641191833748 30.861111584764664 22.13582068279848
49.077751125573016 4.887091820000871 25.27563025659805 18.915029048974084
40.176187923639255 4.08293321886581 20.25823658596465 15.835018118808797
32.05474404189428 3.3695831883887832 15.730400179835653 12.954760673669846
24.872644414468954 2.7775960502264962 11.79975063408499 10.29529773015745
18.54663032422143 2.2958420918527827 8.397479167960638 7.853309064408005
13.069850094987803 1.9019769004041513 5.543707479725438 5.624165714858215
8.50133256877882 1.568613052940588 3.284248982322115 3.6484705335161185
4.808124655058721 1.2468301947802716 1.5365044259030851 2.024790034375366
2.3178826814888267 0.9229196720224527 0.5226066435862781 0.8723563658800961
0.9581919952040012 0.62992389268624 0.09481543214056798 0.23345267037719342
0.4204609793749242 0.41365858994266463 -0.003350661026451079 0.010153050458710348
0.2525091679234282 0.25915423085224676 -0.001428277814486119 -0.0052167851143324565
0.19209137248917746 0.1920341706046176 -1.885170477912682e-06 5.9087055037780714e-05
0.19417816370069338 0.19370128886193763 5.6116357600098976e-05 0.00042075848115560014
0.41062303639954734 0.22051207518218124 0.05366654411126818 0.13644441710609742
2.9552107805185788 1.6665753095038152 0.5102716980522578 0.7783637729625059
1.9486484209709969 1.2344332279057206 0.25053918648876017 0.46367600657651564
0.3134403970060768 0.2400310383591704 0.01602813961735753 0.05738121902954899
0.21822065274438196 0.21786629425669213 5.7107161888490014e-05 0.000297251325801333
0.20737110140202433 0.20752343527495182 -1.6885809690797928e-05 -0.00013544806323663265
0.24099126371589308 0.24514706988309254 -0.0010207004997369602 -0.003135105667462523
0.3412769648816865 0.3461338504353458 -0.004345445852327697 -0.0005114397013316727
0.6036669250292428 0.4907851198561977 0.023076024603884082 0.08980578056916085
1.3462210246382806 0.69318138458761 0.2181895568406578 0.4348500832100127
2.8537780740555716 0.9397931998044503 0.7544194223006669 1.1595654519504532
5.208157854577778 1.198315458872907 1.7646031425131803 2.245239253191693
8.228171268312162 1.4727081053896725 3.1552635632263106 3.6001995996961798
11.87452462986211 1.799930948264898 4.938091463919853 5.136502217677356
16.070349929235974 2.2060024550060646 7.045505615465592 6.818841858764311
20.852810622284103 2.7122184723078515 9.489332639466898 8.65125951050936
26.330931285975787 3.3490513747112596 12.329237766646223 10.6526421446183
32.54857119050936 4.117980936821597 15.595400495175923 12.83518975851185
39.39610504326282 4.961263384954592 19.253389182979586 15.18145247532866
46.866871753824555 5.935227697685789 23.24893818334193 17.682705872796827
55.627611354070666 7.222339071853892 27.91843385709534 20.48683842512145
65.21478335779857 7.994377937629512 33.54464444602144 23.675760974147575
70.79600047865135 3.8553776287360284 39.73187586204014 27.208746987875188
65.21478335780056 7.99437793762962 33.54464444602265 23.675760974148293
55.62761135408976 7.22233907188215 27.918433857089614 20.486838425117984
46.86687175379098 5.935227697673851 23.24893818332837 17.68270587278874
39.39610504322874 4.9612633849468475 19.253389182963435 15.18145247531846
32.54857119047386 4.117980936811019 15.595400495160872 12.835189758501993
26.33093128595876 3.3490513747176713 12.32923776663236 10.652642144608718
20.852810622256722 2.7122184723008926 9.489332639455053 8.651259510500788
16.07034992920955 2.206002454998421 7.0455056154550615 6.81884185875607
11.874524629837692 1.799930948260238 4.938091463908995 5.136502217668466
8.228171268292575 1.472708105388045 3.1552635632169466 3.6001995996875813
5.208157854562119 1.198315458869502 1.7646031425070126 2.2452392531856087
2.853778074047344 0.9397931998037582 0.7544194222972098 1.159565451946377
1.3462210246333977 0.6931813845865044 0.21818955683913416 0.43485008320775975
0.6036669250266831 0.4907851198550401 0.023076024603373026 0.08980578056827021
0.341276964880732 0.3461338504342466 -0.004345445852306234 -0.0005114397012082302
0.24099126371543103 0.24514706988241172 -0.0010207004997158273 -0.0031351056672648814
0.20737110140196902 0.2075234352749164 -1.6885809687621307e-05 -0.00013544806325977533
0.2182206527441451 0.2178662942562235 5.7107161910021395e-05 0.00029725132601154903
0.3134403970049523 0.2400310383588874 0.016028139617028415 0.05738121902903641
1.9486484209652488 1.2344332279031573 0.2505391864874146 0.46367600657467734
1.2484721101741194 0.9183251028718526 0.10452509309782373 0.22562191420444366
0.2464218640530109 0.2406834631916615 -0.002128076786054854 0.007866477647404096
0.23471814520023418 0.23344784492925824 0.0001758762523256738 0.0010944240186502676
0.22502814898593126 0.22400521821448696 0.0001265604311013663 0.0008963703403428673
0.24231482838117127 0.2447613569680516 -0.0007855158248196956 -0.0016610127620607005
0.3101143597766764 0.31135448097861673 -0.0020573599317583366 0.0008172387298178378
0.42880826565620944 0.3877880171219263 0.005887182996676891 0.03513306553760622
0.6762811823313915 0.47506595881452274 0.052623055435384994 0.14859216808148398
1.2756182679379564 0.6083087751893977 0.22270212799541472 0.4446073647531435
2.3810480403088974 0.7719004196955956 0.6200083518025543 0.9891392688107469
3.9780704183409674 0.9734153007077364 1.2824353243949846 1.7222197932382464
5.888022475696777 1.2170953799261095 2.091039811328966 2.5798872844417025
8.162279205335004 1.5314990163873239 3.1010722283992416 3.529707960548439
10.818357722360192 1.9415601867223875 4.301354330882047 4.575443204755759
13.927684993697417 2.4763005068455866 5.711495381567865 5.739889105283963
17.625310539923095 3.169649806530574 7.393589780796237 7.062070952596284
21.99468120402667 3.998800834019738 9.422005083037554 8.57387528696938
26.9147730507945 4.820738528987997 11.831161580765647 10.262872941040857
32.92889606174079 5.967535380466158 14.72528596221496 12.236074719059653
41.766243472818886 7.911780756002646 18.882760581354475 14.971702135461774
49.58829766353344 4.054717828231469 26.113188779510196 19.420391055791782
41.76624347281223 7.911780755987411 18.882760581359744 14.97170213546508
32.92889606171318 5.967535380444709 14.725285962211178 12.236074719057292
26.914773050791524 4.820738528998908 11.831161580757458 10.262872941035159
21.994681204020985 3.998800834031329 9.422005083027486 8.573875286962167
17.625310539909176 3.1696498065274694 7.393589780790149 7.062070952591551
13.927684993690866 2.476300506855062 5.711495381559045 5.739889105276766
10.818357722351253 1.941560186721809 4.301354330877501 4.575443204751944
8.162279205324701 1.5314990163851763 3.1010722283949366 3.529707960544585
5.888022475689927 1.217095379930354 2.0910398113233577 2.579887284436216
3.9780704183312223 0.9734153007065904 1.2824353243908175 1.7222197932338152
2.381048040305293 0.7719004196971532 0.620008351800251 0.989139268807889
1.2756182679344976 0.6083087751888722 0.22270212799425093 0.44460736475137447
0.6762811823303227 0.47506595881455754 0.05262305543499614 0.14859216808076928
0.42880826565490926 0.387788017121264 0.005887182996469102 0.03513306553717597
0.31011435977611457 0.3113544809778028 -0.002057359931732547 0.0008172387300443519
0.2423148283805312 0.2447613569672674 -0.0007855158248020321 -0.0016610127619342298
0.22502814898559925 0.22400521821404018 0.0001265604311085715 0.0008963703404504611
0.23471814520016157 0.23344784492905973 0.00017587625233747093 0.0010944240187643328
0.24642186405240282 0.2406834631913327 -0.002128076786142827 0.007866477647213025
1.2484721101703835 0.9183251028698923 0.10452509309713226 0.22562191420335861
0.7691699585157045 0.6709489932656352 0.02344850926651265 0.0747724559835565
0.2092085009494817 0.22056533047519342 -0.003244765630344328 -0.008112063895367432
0.24396252225730697 0.24404092075632255 1.8022282379050726e-06 -8.020072725359225e-05
0.24194674589177234 0.24025220226974717 0.00023273945220128695 0.001461804169823903
0.2545181283731425 0.2545989402643619 -0.0004046825968755224 0.00032387070565620114
0.30675002346739055 0.30453475657652246 -0.001011147620860419 0.0032264145117287518
0.3887263363318186 0.34905974258546796 0.007742098025684704 0.03192449572066621
0.4477536786449801 0.34194431770730827 0.027921814937750554 0.0778875459999211
0.5213333348598368 0.2975185449171259 0.07547098914547212 0.1483438007972389
0.7429609449565583 0.29518486182365633 0.1627250154433467 0.2850510676895566
1.2403259821270602 0.31140762150530454 0.37055091140924107 0.5583674492125134
1.959654308457798 0.314941526494134 0.6783042613226112 0.9664085206410538
2.894356983782645 0.3494083912542388 1.1023026578685704 1.4426459346598348
4.032912614767267 0.4417453259275731 1.6181392584619965 1.9730280303777006
5.396945154670524 0.6186084998713676 2.2248080684758564 2.5535285863232984
6.9821643126090285 0.9029757335895157 2.9042671898597066 3.1749213891598056
8.831618086357636 1.3187334860825732 3.68639239314001 3.8264922071350513
10.885508331769836 1.8160179191972579 4.568708158144302 4.500782254428276
13.65404386321007 2.529952964012273 5.736555832740256 5.387535066457547
21.106287833529674 5.156660621050893 8.235724284120101 7.713902928358685
35.24008986058659 4.548978940701387 16.81420631554068 13.87690460434453
21.106287833562597 5.1566606210745345 8.235724284125647 7.713902928362414
13.654043863220643 2.529952964025967 5.736555832738468 5.387535066456213
10.885508331754345 1.816017919190302 4.568708158139465 4.500782254424578
8.831618086328536 1.3187334860662312 3.686392393133092 3.826492207129207
6.982164312605024 0.902975733591696 2.9042671898564985 3.1749213891568275
5.396945154650591 0.618608499860283 2.224808068471255 2.553528586319051
4.032912614758518 0.4417453259247074 1.6181392584591137 1.973028030374695
2.8943569837788434 0.34940839125662326 1.1023026578654525 1.442645934656769
1.9596543084459286 0.3149415264901533 0.6783042613188347 0.9664085206369415
1.2403259821219108 0.3114076215045292 0.37055091140734164 0.5583674492100394
0.74296094495369 0.29518486182127535 0.16272501544313167 0.2850510676892842
0.5213333348597758 0.29751854491754637 0.07547098914526462 0.1483438007969644
0.4477536786440195 0.34194431770717165 0.027921814937454492 0.07788754599939353
0.3887263363310584 0.3490597425849956 0.007742098025562086 0.03192449572050064
0.3067500234666308 0.3045347565756572 -0.0010111476208639273 0.0032264145118376863
0.2545181283724831 0.2545989402635949 -0.0004046825968681017 0.00032387070575635654
0.24194674589133208 0.24025220226914693 0.00023273945221589896 0.0014618041699691697
0.2439625222573409 0.24404092075621434 1.8022282612245114e-06 -8.020072713476345e-05
0.20920850094908794 0.2205653304745413 -0.0032447656303048428 -0.008112063895148599
0.7691699585138138 0.6709489932645081 0.023448509266229454 0.07477245598307634
0.4821291516747889 0.4771499595371478 0.000582649150230453 0.00439654298741067
0.1910416195846433 0.19270129325174745 -0.00021609327744761525 -0.0014435803896566248
0.24630315849203 0.24578556193886286 1.4262299525284697e-05 0.0005033342536418606
0.25595257038094665 0.25402619168475604 0.0002584353276118539 0.00166794336857884
0.2733125913170639 0.27156166777729185 -0.00010624275466946208 0.0018571662944417131
0.3308086557331512 0.32334350890016683 -0.00040026186377307467 0.007865408696757555
0.44570723681545754 0.39511942590655635 0.009583552388956754 0.04100425851994478
0.6871693361257433 0.4775348807192605 0.055994840017574515 0.15363961538890836
1.2794586575566416 0.6084036353193211 0.22430590398680522 0.44674911825051455
2.381110777871808 0.7716167040090307 0.6200630104073006 0.9894310634554749
3.9874383638610515 0.9760703995667634 1.2861931906761124 1.7251747736181755
5.921923430469738 1.2225090007150243 2.1069165917957466 2.592497837958965
8.218989995162564 1.5373756975863815 3.1278125066576896 3.5538017909184934
10.832996435060815 1.931616901833097 4.316274839296426 4.585104693931293
13.651246641693604 2.4061244484290305 5.601519238622718 5.643602954641848
16.491822000246977 2.9578522514465186 6.886370344486388 6.647599404314073
19.007602356597545 3.5613488388558645 7.980478561145409 7.465774956596265
21.011075317231928 4.277712588371111 8.771598494679488 7.961764234181338
21.684220541825148 4.769201823569523 8.931369795299874 7.9836489229557435
17.953089429144175 3.7262864708379526 7.659942705387532 6.566860252918684
35.71135290893234 6.626339456358004 15.672312558346407 13.412700894227928
17.953089429149532 3.726286470834517 7.659942705392666 6.566860252922346
21.684220541794247 4.769201823542229 8.931369795297622 7.983648922954401
21.011075317213013 4.277712588364051 8.771598494672592 7.961764234176361
19.007602356571507 3.5613488388503076 7.980478561133715 7.465774956587496
16.491822000224477 2.9578522514414534 6.886370344476571 6.647599404306446
13.651246641675964 2.4061244484254125 5.601519238615067 5.643602954635492
10.832996435042464 1.9316169018315583 4.316274839287287 4.5851046939236255
8.218989995141275 1.5373756975814838 3.1278125066490734 3.5538017909107182
5.921923430451833 1.222509000713454 2.1069165917874435 2.592497837950938
3.987438363850343 0.9760703995672331 1.2861931906706334 1.7251747736124767
2.3811107778629985 0.7716167040078439 0.6200630104038709 0.9894310634512835
1.2794586575516822 0.6084036353183183 0.22430590398519715 0.4467491182481664
0.6871693361235962 0.47753488071896766 0.05599484001692427 0.15363961538770385
0.44570723681441166 0.39511942590593013 0.009583552388809934 0.04100425851967121
0.3308086557324256 0.32334350889935354 -0.00040026186380110536 0.007865408696873303
0.27331259131631613 0.2715616677765108 -0.00010624275467801961 0.0018571662944832778
0.25595257038049424 0.2540261916841319 0.0002584353276271668 0.001667943368735275
0.24630315849200446 0.24578556193876286 1.4262299527478846e-05 0.0005033342537139944
0.1910416195843969 0.19270129325145682 -0.00021609327744535008 -0.0014435803896144532
0.4821291516738602 0.4771499595356731 0.000582649150278299 0.004396542987908875
0.30883521751419046 0.3089720437605639 -1.2356772916602596e-05 -0.00012446947345680725
0.17621061647722883 0.17641701045069264 -2.027071118556535e-05 -0.000186123262278208
0.24226370436093636 0.24294961419604003 -0.00013999850225255604 -0.0005459113328510405
0.26556078055155286 0.26372024352483336 0.00017032942836302833 0.001670207598356374
0.2969545622691915 0.2966811870665158 -0.00037009131892089714 0.0006434665215966931
0.3836262964594315 0.3704961784804865 0.0008130284448072101 0.01231708953413737
0.6293496608031945 0.4928116384041258 0.029810129588228283 0.10672789281084032
1.3586054230213913 0.6938876167801327 0.22329715020426774 0.4414206560369909
2.8548260156026144 0.9393117181388542 0.7550662483766722 1.1604480490870877
5.2083899783309064 1.198520387771096 1.764453090262836 2.245416500296976
8.23851021997635 1.4746909090555511 3.1595251769777013 3.604294133943093
11.904696314725033 1.804001184652209 4.952338180091355 5.148356949981466
16.112440823040963 2.2067294528302455 7.068993133715047 6.836718236495672
20.827617303433744 2.6883776383033604 9.489245316847207 8.649994348283172
25.979803391717287 3.2519649154802206 12.181293229699534 10.546545246537539
31.310763909546914 3.88518879342336 14.995212248748906 12.43036286737464
36.39791169730335 4.600306940713011 17.64873577169073 14.148868984899591
40.637265607842835 5.40550812272118 19.72767163295233 15.504085852169304
42.700929373758115 5.847834856948417 20.746315295618682 16.106779221191026
39.93927990889739 5.741552766569992 19.22536579784107 14.972361344486313
49.34032493109842 11.481000761068247 21.297795440308033 16.561528729722138
39.939279908889574 5.74155276655542 19.225365797845285 14.972361344488885
42.70092937377645 5.84783485697053 20.74631529561636 16.106779221189534
40.637265607799755 5.405508122703148 19.727671632936822 15.504085852159793
36.39791169728666 4.600306940726666 17.64873577167223 14.148868984887747
31.310763909504786 3.885188793414365 14.995212248728988 12.430362867361444
25.979803391677912 3.251964915471566 12.181293229681376 10.54654524652497
20.82761730340955 2.6883776383070495 9.489245316831145 8.64999434827136
16.112440823007415 2.2067294528263606 7.068993133698294 6.8367182364827634
11.904696314695634 1.8040011846500283 4.952338180076453 5.148356949969149
8.23851021994559 1.4746909090477622 3.159525176965649 3.6042941339321812
5.208389978314155 1.1985203877708226 1.7644530902545688 2.245416500288764
2.8548260155933183 0.9393117181381734 0.7550662483727238 1.1604480490824223
1.3586054230157927 0.693887616779247 0.22329715020236862 0.44142065603417757
0.6293496608006496 0.492811638403287 0.02981012958762213 0.10672789280974078
0.38362629645847135 0.3704961784796623 0.0008130284447700293 0.012317089534038898
0.29695456226878353 0.2966811870657048 -0.00037009131886758155 0.0006434665219461877
0.26556078055131316 0.26372024352446616 0.00017032942837169328 0.0016702075984753838
0.24226370436072764 0.24294961419565456 -0.00013999850223602285 -0.0005459113326908031
0.17621061647697284 0.17641701045048552 -2.0270711188687288e-05 -0.00018612326232396174
0.30883521751353826 0.3089720437600194 -1.2356772928738808e-05 -0.00012446947355244855
0.19241575622413992 0.19241575622413992 0.0 0.0
0.15713198113163906 0.15711941851219452 1.8842543780624308e-06 1.0678365066566243e-05
0.2316699131185585 0.23270071072140816 -0.0001559524997314721 -0.0008748451031182002
0.27144738361626697 0.2716971586490148 -0.00014873799560676475 -0.00010103703714115086
0.3247728561287847 0.32254066033472456 -0.0003289727555503532 0.002561168549610488
0.47188471739772164 0.42902067900411334 0.0051522453824620175 0.03771179301114675
0.9922326862004313 0.6358629627195265 0.10801087162317582 0.2483588518577287
2.324746893164464 0.922824345068374 0.5263713547678154 0.875551193328275
4.806257787203938 1.2469494561953778 1.5354612095297009 2.0238471214788567
8.503754414154225 1.5693391918911135 3.2853932831126142 3.649021939150495
13.07965728666213 1.9033040000377766 5.547083241223543 5.629270045400811
18.564308745765544 2.297015234575028 8.407041742969051 7.860251768221465
24.874657700935042 2.772066174660604 11.804347368155115 10.298244158119314
31.960232608662032 3.334156446066087 15.695102865307705 12.930973297288244
39.772306459404476 3.9742562863129063 20.077429044889236 15.720621128202334
47.94884422346276 4.67781196980375 24.702608406525947 18.568423847133054
56.0941985939844 5.4322405944451795 29.385139077572887 21.27681892196636
62.83837800547132 6.051133040861485 33.26072241646547 23.52652254814438
66.1793596865493 6.267367742739058 35.265175154419865 24.646816789390392
62.081101301512206 5.6561297923756415 33.05529433350015 23.36967717563641
69.33340981953346 14.574670856985303 31.952582000399655 22.80615696214848
62.08110130154548 5.6561297924008995 33.05529433350533 23.36967717563921
66.17935968653457 6.267367742731011 35.26517515441559 24.64681678938799
62.83837800544033 6.0511330408648805 33.260722416443514 23.526522548131936
56.0941985939093 5.432240594415655 29.385139077544032 21.2768189219496
47.9488442234232 4.677811969811972 24.7026084064961 18.56842384711513
39.77230645936441 3.9742562863166646 20.0774290448623 15.720621128185442
31.960232608612063 3.3341564460584685 15.695102865282148 12.930973297271448
24.874657700893366 2.7720661746614645 11.804347368130047 10.298244158101864
18.564308745726198 2.2970152345731853 8.407041742947566 7.860251768205437
13.079657286632873 1.9033040000417905 5.547083241205183 5.629270045385903
8.503754414128897 1.5693391918900652 3.2853932830997534 3.649021939139078
4.806257787185724 1.246949456192859 1.5354612095219353 2.02384712147093
2.324746893156447 0.922824345067342 0.5263713547647574 0.8755511933243463
0.9922326861960858 0.6358629627184337 0.10801087162193797 0.24835885185571432
0.4718847173959826 0.4290206790030102 0.005152245382242546 0.037711793010729806
0.324772856128128 0.3225406603338701 -0.0003289727555223908 0.002561168549780436
0.2714473836162326 0.2716971586486937 -0.00014873799557275149 -0.00010103703688842553
0.2316699131180144 0.2327007107209519 -0.00015595249973986676 -0.0008748451031975062
0.15713198113136698 0.15711941851188818 1.8842543801315931e-06 1.0678365098644978e-05
0.19241575622363982 0.19241575622363982 0.0 0.0
0.11313944928469366 0.11313944928469366 0.0 0.0
0.1332081013115512 0.13320351566985378 2.4297873496715517e-07 4.342662962442389e-06
0.2152852096940342 0.2158410166608286 -7.751969413317242e-05 -0.00047828727266116826
0.27375629445450345 0.27423537123504915 -0.00026985894838071103 -0.00020921783216513602
0.3587640557154757 0.35733752959791787 -0.0010109262796201314 0.0024374523971779694
0.6297017810563351 0.5194786774196334 0.0268375481759438 0.08338555546075777
1.510923603867675 0.7934585649078334 0.24541017291721312 0.4720548660426289
3.540691539228055 1.1586623184679936 0.9743385286452836 1.4076906921147778
7.110653759191883 1.547648689962828 2.5788608187807585 2.9841442504482942
11.964253059990844 1.9219883259018953 4.9102811235302815 5.131983610558667
18.250863519484177 2.3301188635122365 8.21222155210032 7.708523103871616
25.671452503684478 2.8006615778495347 12.257870240001122 10.612920685833823
34.19404879215428 3.3592625985251883 17.031402524747566 13.803383668881555
43.81898936239278 4.013774737188197 22.541839542879075 17.263375082325467
54.43295751054904 4.747287040611159 28.723227094421137 20.96244337551673
65.85220924025694 5.523214748417252 35.538950063677895 24.790044428161792
76.8314597691398 6.20545244260871 42.12612221930599 28.499885107225122
86.1232104137907 6.569446816687929 47.99153560481824 31.562227992284534
90.34728902571209 6.259382215053638 51.00257899141472 33.085327819243766
85.20351078451475 5.7158707347749775 47.981979884616116 31.505660165123658
92.01340612788533 17.722792441439545 44.5303022297427 29.760311456703086
85.203510784471 5.7158707347325795 47.98197988461533 31.505660165123114
90.34728902569682 6.259382215052943 51.00257899140506 33.0853278192388
86.12321041375432 6.569446816694634 47.991535604790016 31.562227992269662
76.83145976910245 6.205452442629863 42.12612221926796 28.499885107204648
65.85220924019222 5.523214748411968 35.53895006363986 24.79004442814035
54.43295751047816 4.747287040597883 28.723227094384832 20.962443375495436
43.81898936234009 4.013774737192361 22.54183954284388 17.263375082303856
34.194048792093724 3.359262598520134 17.031402524713855 13.803383668859743
25.671452503624923 2.800661577841692 12.257870239970648 10.612920685812586
18.250863519436642 2.3301188635061734 8.212221552076745 7.708523103853722
11.964253059956715 1.9219883258992656 4.91028112351314 5.13198361054431
7.110653759169722 1.5476486899630706 2.5788608187691024 2.984144250437552
3.5406915392136966 1.158662318464636 0.9743385286400661 1.4076906921089947
1.510923603861419 0.7934585649069059 0.2454101729149858 0.472054866039527
0.6297017810540859 0.5194786774188538 0.026837548175458147 0.08338555545977391
0.35876405571454306 0.3573375295969009 -0.001010926279611757 0.002437452397253837
0.2737562944540371 0.2742353712343738 -0.0002698589483606207 -0.00020921783197617528
0.21528520969369724 0.2158410166604357 -7.751969413015917e-05 -0.0004782872726083315
0.1332081013113675 0.13320351566967448 2.4297873480463597e-07 4.342662958242992e-06
0.1131394492844125 0.1131394492844125 0.0 0.0
0.06250241017268823 0.06250241017268823 0.0 0.0
0.10659402306877434 0.10659402306877434 0.0 0.0
0.19416429160263501 0.19431561156347119 -1.9672487349513712e-05 -0.00013164747348661307
0.27383379274721 0.2761556052593087 -0.0004953059209141437 -0.0018265065911846953
0.4063803151330544 0.3960134739412993 -0.00041568539508921856 0.010782526586844296
0.8645746681797085 0.6252879591199347 0.070197299624685 0.16908940943508885
2.185716196935732 0.9673749631393245 0.4555641797666959 0.7627770540297121
5.013192176670042 1.3962648132701299 1.5977705293908828 2.019156834009028
9.460305582233032 1.8314498761187852 3.6133288197838525 4.015526886330397
15.77817811218883 2.287446232663958 6.836090840834992 6.654641038689872
23.69616708163295 2.7829733670023638 11.105082036652963 9.80811167797763
33.11444164789521 3.343535812002609 16.387183712854206 13.383722123038407
43.968331736598756 3.994783945351964 22.647310216676978 17.326237574569806
56.28314967168976 4.754258524094849 29.914023015064252 21.614868132530653
69.87290836830712 5.6059759171933505 38.04865014734608 26.218282303767708
84.32479674047813 6.420433814706426 46.88693076191254 31.01743216385923
98.65475776227814 6.974558087931168 56.00442920666883 35.6757704676781
110.03163445370818 6.9238298514210745 63.57883108254093 39.528973519746216
114.81911208411796 6.177793820894084 67.24166732284424 41.39965094037958
109.25681350224062 5.970304272365064 63.7171173110675 39.56939191880802
116.78003300684362 20.880589172447223 58.80358219074383 37.09586164365259
109.25681350223422 5.970304272373973 63.71711731105737 39.56939191880286
114.81911208406832 6.177793820872203 67.24166732282568 41.39965094037045
110.03163445364466 6.923829851413074 63.578831082503775 39.52897351972779
98.65475776219661 6.974558087918926 56.00442920662308 35.67577046765465
84.32479674038488 6.420433814690746 46.88693076186154 31.017432163832616
69.8729083682207 5.605975917184124 38.04865014729642 26.218282303740143
56.28314967161491 4.754258524090587 29.914023015019623 21.614868132504682
43.96833173652552 3.9947839453482707 22.647310216633947 17.326237574543317
33.11444164783043 3.3435358120042937 16.387183712814036 13.383722123012097
23.69616708157769 2.7829733670006 11.1050820366217 9.808111677955392
15.778178112144646 2.287446232658609 6.836090840813194 6.654641038672842
9.460305582203173 1.831449876116865 3.613328819769202 4.015526886317102
5.013192176650695 1.396264813267285 1.5977705293826638 2.0191568340007433
2.185716196926184 0.9673749631379764 0.4555641797631198 0.7627770540250887
0.8645746681763583 0.6252879591191308 0.07019729962374609 0.16908940943348127
0.40638031513266043 0.3960134739408161 -0.000415685395089516 0.010782526586933882
0.27383379274648134 0.27615560525848726 -0.0004953059209045384 -0.0018265065911015062
0.1941642916024071 0.19431561156325858 -1.9672487350460064e-05 -0.00013164747350099328
0.1065940230686708 0.1065940230686708 0.0 0.0
0.06250241017272261 0.06250241017272261 0.0 0.0
0.03233943213007309 0.03233943213007309 0.0 0.0
0.08051485432809707 0.08051485432809707 0.0 0.0
0.1707259645700773 0.17071914780640943 3.960330448053176e-07 6.420730623111643e-06
0.27472339024062464 0.27713915536775685 -0.0005483547178606312 -0.0018674104092716707
0.4846284228365716 0.45496239625682644 0.005165998671503469 0.02450002790824172
1.178031887859456 0.7345882869058654 0.13967802652289021 0.30376557443070035
3.0384795719544457 1.1478638915584944 0.7736179002264949 1.1169977801694555
6.536224670971383 1.6162862918103107 2.217160867444575 2.7027775117164947
12.09589267327128 2.121694658023598 4.8883687499739015 5.085829265273777
19.74055856134823 2.6723525131032133 8.87366641512134 8.19453963312368
29.377212997674896 3.2708064150247975 14.18642172515165 11.919984857498434
40.87915071549532 3.9345488821009145 20.780685947413783 16.163915885980614
54.191609394907324 4.691470895112644 28.639327174575968 20.860811325218755
69.10427100215745 5.562295561957186 37.566256851042944 25.975718589157385
85.78143442914629 6.514114665435324 47.80331192333303 31.46400784037791
103.5301345366924 7.3745370571858615 58.95954161983266 37.196055859673834
120.6272943980109 7.7341278650029 70.11102574943757 42.78214078357043
134.2148960171063 7.220067088079782 79.62407540308004 47.370753525946526
140.13695873755825 6.1483383921160115 84.37490827636375 49.61371206907846
134.46419107195115 6.308451310071597 80.42270283034088 47.73303693153869
143.1283738762969 24.013136186512675 74.29046011863346 44.82477757115071
134.46419107191446 6.308451310058183 80.42270283032484 47.73303693153137
140.13695873750856 6.148338392108826 84.37490827633498 49.61371206906479
134.2148960170327 7.220067088078679 79.62407540303096 47.37075352592294
120.62729439792037 7.734127865001194 70.11102574937772 42.78214078354149
103.53013453661842 7.374537057203747 58.95954161977178 37.196055859642925
85.78143442905963 6.5141146654410065 47.80331192327247 31.46400784034613
69.10427100205987 5.562295561948472 37.5662568509856 25.97571858912581
54.191609394818464 4.691470895106565 28.63932717452375 20.860811325188124
40.87915071541639 3.9345488820999206 20.780685947365917 16.163915885950544
29.377212997611082 3.270806415023072 14.18642172511466 11.919984857473342
19.74055856129692 2.6723525130986077 8.873666415094554 8.194539633103766
12.09589267323622 2.1216946580235536 4.888368749955008 5.0858292652576536
6.536224670948068 1.6162862918056846 2.2171608674351098 2.702777511707271
3.0384795719422573 1.1478638915567272 0.7736179002216528 1.1169977801638753
1.178031887854518 0.7345882869040777 0.13967802652165043 0.3037655744287892
0.484628422835401 0.45496239625581253 0.005165998671434551 0.024500027908154066
0.27472339024012404 0.27713915536718425 -0.0005483547178562818 -0.0018674104092038834
0.17072596456952713 0.1707191478058601 3.960330447626668e-07 6.4207306222634735e-06
0.0805148543279633 0.0805148543279633 0.0 0.0
0.0323394321300505 0.0323394321300505 0.0 0.0
0.01582933694512614 0.01582933694512614 0.0 0.0
0.05772569676271689 0.05772569676271689 0.0 0.0
0.14809938741980244 0.14809688509513075 1.22441077168008e-07 2.379883594554421e-06
0.28123367017365547 0.28439859722744243 -0.0007544175142203956 -0.0024105095395666075
0.6021857503125942 0.5253751254255228 0.01889318161958712 0.057917443267484756
1.6065886841757773 0.8687964301870295 0.26236827070972596 0.47542398327902136
3.9699284088144653 1.3162514156846683 1.1152001604656054 1.538476832664191
8.236214394213778 1.8268352235138476 2.9841665026755475 3.425212668024384
14.833168168140746 2.4216044777709826 6.234891054584993 6.176672635784767
23.867152521145137 3.079439827898449 11.041404880008292 9.746307813238394
35.24429729842642 3.7938546536523194 17.41272230005734 14.037720344716778
48.902376718990936 4.580994883337077 25.371693934787437 18.949687900866437
64.6016394248293 5.453902440783597 34.74360800975006 24.40412897429567
82.49707004065253 6.424721351591392 45.73471985516575 30.33762883389536
102.07291838078825 7.459391001918792 57.92286583720441 36.690661541665065
122.75348701997024 8.330427217686825 71.12363268725854 43.29942711502488
142.8585978030506 8.513556117459313 84.61182195246873 49.73321973312256
158.80868654711986 7.573983617763135 96.14596104449967 55.088741884857086
166.26089348354716 6.184123066611521 102.20961604422229 57.86715437271335
161.16997438576544 6.663013811124904 98.40388347239842 56.10307710224215
171.6528654144816 27.08401982966229 91.5930652218341 52.97578036298522
161.16997438573947 6.663013811132983 98.40388347237503 56.10307710223152
166.260893483497 6.1841230666135 102.20961604418645 57.86715437269699
158.8086865470517 7.573983617778817 96.14596104444198 55.08874188483098
142.85859780295834 8.513556117472689 84.61182195239668 49.733219733088866
122.7534870198522 8.33042721767124 71.12363268718953 43.29942711499132
102.07291838066168 7.459391001902457 57.92286583713117 36.69066154162805
82.49707004054693 6.424721351593251 45.73471985509569 30.337628833858016
64.60163942473062 5.453902440782366 34.74360800968777 24.404128974260438
48.90237671890206 4.580994883335754 25.371693934732786 18.949687900833506
35.244297298347206 3.7938546536452606 17.412722300013634 14.037720344688305
23.867152521085032 3.0794398278936366 11.04140487997595 9.746307813215434
14.83316816809591 2.4216044777663264 6.234891054562716 6.17667263576687
8.23621439418563 1.8268352235080285 2.9841665026642343 3.425212668013368
3.969928408797544 1.3162514156808922 1.1152001604593287 1.5384768326573222
1.6065886841689736 0.8687964301849163 0.26236827070776514 0.47542398327629126
0.6021857503109248 0.5253751254245114 0.0188931816193624 0.05791744326705105
0.28123367017367973 0.2843985972272336 -0.0007544175141991529 -0.0024105095393544993
0.14809938741916828 0.14809688509449975 1.2244107697319608e-07 2.3798835915387224e-06
0.05772569676282104 0.05772569676282104 0.0 0.0
0.01582933694501642 0.01582933694501642 0.0 0.0
0.007621592422736717 0.007621592422736717 0.0 0.0
0.04003703194847201 0.04003703194847201 0.0 0.0
0.129708185571994 0.129708185571994 0.0 0.0
0.3016031202498743 0.3056521215158149 -0.0011917071448840446 -0.0028572941210563974
0.7706624252422325 0.6083920575511605 0.04450074707558577 0.11776962061548607
2.136905111714904 1.0040797549082479 0.43429715049068907 0.6985282063159673
4.99123589394863 1.464974505783722 1.5203005904768356 2.005960797688069
10.042753737003578 2.0403883451118623 3.828517993210224 4.173847398681492
17.670317725199286 2.7291079805594203 7.6607209878740194 7.280488756765843
28.107809183128182 3.507013821331428 13.297270099137553 11.3035252626592
41.30953541145189 4.356680605165458 20.79615031421799 16.15670449206844
57.11354532803005 5.2791761870058735 30.09707893304842 21.73729020797579
75.53174257310923 6.287787223094423 41.29626029997862 27.947695050036145
96.04722255709999 7.360109426000772 53.977205805714334 34.70990732538489
118.58895705290983 8.398010865688622 68.29563255922977 41.89531362799143
142.1992423788975 9.20592119225762 83.69380081060251 49.29952037603741
165.08483376192711 9.337753006429589 99.23967879267862 56.50740196281891
183.67196967224504 8.131174735737307 112.8919608665372 62.64883406997049
193.2564154609027 6.231335557137279 120.89480808481939 66.13027181894599
189.72120893606814 6.991458574012253 117.9226566895847 64.80709367247108
202.64171408372295 29.998933556338784 110.89030349855389 61.752477028830185
189.7212089360353 6.991458574017287 117.92265668955795 64.80709367246
193.256415460831 6.231335557128682 120.89480808477566 66.13027181892677
183.67196967214062 8.131174735730717 112.89196086646962 62.64883406994031
165.08483376181576 9.33775300643995 99.23967879259519 56.50740196278072
142.19924237878297 9.205921192261073 83.69380081052249 49.29952037599941
118.58895705280375 8.398010865705178 68.29563255914748 41.895313627951055
96.04722255698059 7.360109426002025 53.97720580563472 34.70990732534389
75.53174257298997 6.287787223087151 41.29626029990596 27.947695049996852
57.11354532791809 5.279176186994106 30.097078932984985 21.73729020793899
41.30953541136567 4.356680605163437 20.796150314166248 16.156704492036
28.107809183059956 3.507013821325447 13.29727009910068 11.303525262633828
17.670317725149875 2.7291079805559626 7.660720987848081 7.28048875674583
10.042753736969473 2.0403883451068543 3.828517993194829 4.17384739866779
4.991235893929884 1.464974505781195 1.5203005904692046 2.0059607976794878
2.1369051117063704 1.004079754905835 0.4342971504880342 0.6985282063125017
0.7706624252392412 0.6083920575495805 0.044500747075073455 0.1177696206145874
0.3016031202494475 0.30565212151519694 -0.001191707144847716 -0.002857294120901935
0.12970818557156344 0.12970818557156344 0.0 0.0
0.04003703194845184 0.04003703194845184 0.0 0.0
0.007621592422703511 0.007621592422703511 0.0 0.0
0.0036214797702586836 0.0036214797702586836 0.0 0.0
0.027943910583728946 0.027943910583728946 0.0 0.0
0.12041080417131184 0.12041080417131184 0.0 0.0
0.34914244262559685 0.34690299778716316 -0.0005132906616855844 0.00275273550011902
1.0171303087596586 0.7126348129574713 0.09828584148202389 0.20620965432016336
2.7334794766239376 1.125910176264054 0.636197595234971 0.9713717051249118
6.13163332521073 1.6133604111699014 2.016994315623171 2.5012785984176604
11.915886453015133 2.251957340814373 4.723528921999395 4.940400190201364
20.602633517704565 3.0427977199810208 9.169424554324701 8.390411243398848
32.44225615970014 3.9557375328376434 15.626809585785793 12.859709041076693
47.48003115604606 4.954567047919385 24.251441236553326 18.274022871573322
65.65054414520245 6.036681819539702 35.091879452437084 24.521982873225653
86.5032089214963 7.191967672897118 47.81377108669282 31.497470161906364
110.02726088429088 8.347445114917228 62.60496629225259 39.07484947712105
135.46500335632413 9.364864550891738 79.01695284603944 47.08318595939303
161.7090719901726 10.002673177645157 96.47023907636654 55.236159736160786
187.01183017115494 9.99800184544269 113.93797526997056 63.07585305574171
208.47224375291557 8.985608062472757 129.59654474979718 69.89009094064558
220.77576496756302 6.373674969364824 140.05047235456308 74.3516176436352
220.44509167045146 7.087181829782422 139.34484538536492 74.01306445530398
236.79099334058387 32.032153698052554 133.2814130499623 71.47742659256895
220.4450916704352 7.087181829801052 139.34484538534093 74.01306445529326
220.77576496746255 6.373674969346012 140.05047235450593 74.35161764361055
208.47224375280587 8.985608062476665 129.59654474971794 69.89009094061127
187.0118301710336 9.998001845458104 113.9379752698757 63.075853055699724
161.70907199001417 10.002673177626445 96.47023907627081 55.236159736117
135.46500335616446 9.364864550864347 79.01695284594983 47.08318595935028
110.02726088414109 8.34744511490542 62.60496629216042 39.07484947707525
86.50320892136558 7.191967672895775 47.8137710866082 31.497470161861585
65.65054414508414 6.036681819534817 35.09187945236442 24.521982873184925
47.48003115595008 4.954567047917333 24.251441236494838 18.274022871537916
32.44225615961567 3.9557375328228654 15.62680958574391 12.859709041048893
20.60263351765018 3.0427977199785334 9.169424554294908 8.390411243376736
11.915886452978038 2.251957340812395 4.723528921980436 4.940400190185206
6.1316333251888695 1.613360411166855 2.0169943156138785 2.501278598408136
2.7334794766134776 1.1259101762612191 0.6361975952315213 0.971371705120738
1.0171303087558015 0.7126348129559739 0.09828584148112034 0.20620965431870736
0.34914244262455363 0.3469029977861797 -0.0005132906617113838 0.002752735500085388
0.12041080417105268 0.12041080417105268 0.0 0.0
0.02794391058358527 0.02794391058358527 0.0 0.0
0.0036214797702220237 0.0036214797702220237 0.0 0.0
0.0012015472821816898 0.0012015472821816898 0.0 0.0
0.02077294398897376 0.02077294398897376 0.0 0.0
0.12848862276393413 0.12848862276393413 0.0 0.0
0.4467172414258712 0.42118816711995244 0.005220240175174636 0.020308834130744156
1.3664369690800964 0.889438699711253 0.16816625082854786 0.30883201854029596
3.4901591745427223 1.4424870903784834 0.8388374860834167 1.2088345980808204
7.475915092796491 2.144663186515145 2.4316957834286335 2.899556122852709
14.100148375022727 3.1203667375456337 5.448281664960038 5.531499972517059
23.986520302471696 4.427164012313463 10.325735724669894 9.233620565488359
37.5520263997962 6.071475874905817 17.44480943110498 14.035741093785402
54.87188938301592 8.027018651940459 26.97390494679938 19.870965784276134
75.66690108063463 10.252062131128872 38.789168985400416 26.625669964105278
99.79138241451686 12.666987477078528 52.95323394944502 34.171160987993346
126.72303518723284 15.120125665017815 69.24255988917311 42.36034963304192
155.4864826938516 17.242310215838863 87.27218903842828 50.971983439584335
184.49079550371422 18.508201983895066 106.32326770481791 59.659325815001324
211.52415277910907 18.466319658026077 125.1142667369736 67.94356638410937
234.26303404797358 17.24699794805153 141.88702509336431 75.1290110065579
249.73717101952008 15.389387435347324 154.09281834207374 80.25496524209899
245.42197770746964 7.280960256956184 156.7158015502509 81.42521590026266
332.5238881429575 98.42515189443935 153.97684826291515 80.121887985603
245.4219777073625 7.280960256879389 156.715801550229 81.42521590025402
249.73717101944814 15.389387435372523 154.09281834200502 80.25496524207055
234.2630340478231 17.246997948026344 141.88702509327686 75.12901100652006
211.52415277894562 18.4663196580104 125.1142667368711 67.94356638406413
184.49079550357055 18.50820198391132 106.32326770470686 59.65932581495227
155.48648269365918 17.24231021579495 87.27218903832735 50.971983439536956
126.72303518708335 15.120125665022334 69.24255988906988 42.360349632991124
99.79138241437767 12.66698747708016 52.95323394935202 34.17116098794553
75.66690108050346 10.252062131120583 38.789168985321396 26.62566996406148
54.87188938290248 8.027018651928042 26.973904946735807 19.870965784238646
37.5520263996995 6.07147587488669 17.444809431057745 14.035741093755057
23.986520302408962 4.427164012308419 10.325735724636335 9.233620565464225
14.100148374981563 3.1203667375428568 5.448281664938971 5.531499972499737
7.475915092768614 2.144663186508471 2.4316957834179305 2.8995561228422133
3.4901591745300364 1.442487090375698 0.8388374860790377 1.2088345980753
1.366436969075791 0.8894386997101267 0.16816625082728032 0.30883201853838355
0.4467172414248046 0.4211881671191111 0.005220240175112708 0.020308834130580447
0.12848862276369127 0.12848862276369127 0.0 0.0
0.02077294398890286 0.02077294398890286 0.0 0.0
0.0012015472821602328 0.0012015472821602328 0.0 0.0
CELL_DATA 800
SCALARS Stress float 6
LOOKUP_TABLE default
173.3745592357336 -527.4830073960202 -182.1389544156225 -111.33747479624729 0.0 0.0
405.53209057811256 -90.77323395303873 115.59515061619689 53.87980473549782 0.0 0.0
425.90921894298583 6.724475253891143 130.23116752416956 -2.5031558747914247 0.0 0.0
485.04410623195224 -18.626493066962382 155.41264069709794 -16.10629120047213 0.0 0.0
564.2950732015055 -25.81941413393755 219.7661805779182 -11.66868345852706 0.0 0.0
640.9458477535186 -22.95297259352526 290.26977028704124 -10.613621165654745 0.0 0.0
714.9944582640973 -17.832462798164215 341.9304584348362 -11.83273080150573 0.0 0.0
790.6925567070675 -3.948216106478796 389.7003419105745 -14.003800035227297 0.0 0.0
870.1638331108236 19.314583583371018 441.9363038798564 -15.979969326670535 0.0 0.0
952.3480528903629 50.27856150258148 499.00012732918924 -17.179623829549037 0.0 0.0
1034.9245977591008 86.1323758070287 558.5790903253699 -17.64891525864771 0.0 0.0
1116.4829293966925 125.49348348595478 619.3084676328979 -17.64763697334959 0.0 0.0
1197.27264663131 167.56633497320746 680.9304895037712 -17.476429543524606 0.0 0.0
1278.1437771796523 212.92568538116183 744.1783940393648 -17.13057897708681 0.0 0.0
1359.5048283000986 261.9736041964701 809.4809452870181 -16.44645769517495 0.0 0.0
1440.3996494466978 313.8662411149843 875.9547876964243 -15.227504650297181 0.0 0.0
1518.3348373053743 366.512524483342 941.3133189484495 -13.40576260308467 0.0 0.0
1591.2952214768338 418.45331447804006 1003.8025456711459 -11.456829527992603 0.0 0.0
1660.7074173731958 471.9444270482847 1065.2031057321763 -11.51945417482692 0.0 0.0
1771.9577322336218 574.4863913560853 1171.6270806312168 -19.57414210175581 0.0 0.0
1771.9577322325867 574.48639135505 1171.6270806304294 19.574142101690157 0.0 0.0
1660.7074173719202 471.9444270470647 1065.20310573118 11.51945417505063 0.0 0.0
1591.2952214748607 418.45331447613773 1003.8025456696273 11.456829527811925 0.0 0.0
1518.3348373057702 366.5125244838435 941.3133189487355 13.405762602997566 0.0 0.0
1440.39964944717 313.86624111559644 875.9547876969332 15.227504650384649 0.0 0.0
1359.5048282991943 261.9736041957193 809.4809452865302 16.446457695153132 0.0 0.0
1278.143777179615 212.92568538130172 744.1783940393457 17.130578977078805 0.0 0.0
1197.2726466319664 167.566334974087 680.9304895040716 17.47642954363049 0.0 0.0
1116.4829293963899 125.49348348587426 619.3084676325778 17.647636973249092 0.0 0.0
1034.9245977589478 86.13237580713445 558.5790903251008 17.648915258677757 0.0 0.0
952.3480528902422 50.27856150271842 499.0001273290932 17.179623829560484 0.0 0.0
870.163833110512 19.314583583356892 441.93630387968835 15.979969326888568 0.0 0.0
790.692556706003 -3.948216107279336 389.70034190987775 14.003800035200305 0.0 0.0
714.9944582634698 -17.83246279850684 341.9304584344143 11.832730801646294 0.0 0.0
640.9458477526451 -22.952972594102107 290.26977028645365 10.613621165799815 0.0 0.0
564.2950732007685 -25.81941413444642 219.76618057738625 11.668683458391993 0.0 0.0
485.04410623164347 -18.626493067096177 155.4126406969297 16.106291200497733 0.0 0.0
425.909218942912 6.7244752540073485 130.2311675241879 2.5031558748366907 0.0 0.0
405.5320905781634 -90.77323395281175 115.59515061623873 -53.87980473545338 0.0 0.0
173.37455923625856 -527.4830073954935 -182.13895441510465 111.33747479595469 0.0 0.0
72.6438079669924 -552.9085150706092 -243.77849276632443 -162.9834591750198 0.0 0.0
286.29369029398435 -87.22955288593559 60.2910393222128 7.47406138358193 0.0 0.0
375.14501246450453 35.740777516870864 123.29479011857738 -9.508697900323494 0.0 0.0
450.6255175927198 -17.320808963473308 137.3282178782229 -36.77693797671616 0.0 0.0
537.2077323747667 -25.684003641327074 196.70767951523146 -33.90977090291856 0.0 0.0
618.0365824021296 -23.351913720331112 272.11861924962534 -31.35619951483579 0.0 0.0
695.6841896812512 -17.365669610212308 330.33782673638626 -33.05963458333842 0.0 0.0
772.2812190138116 -3.4738354540579905 380.0074741275363 -36.34815379373062 0.0 0.0
850.0757218298131 18.268083631405702 431.0197344470331 -39.21733564562984 0.0 0.0
928.6480279982793 46.2016231314381 484.90945463195135 -40.55135026155092 0.0 0.0
1006.3662544731155 78.0073332737708 540.0951802988103 -40.58654035484017 0.0 0.0
1082.8018289030729 112.59310090485383 595.9001903665342 -40.00401546332703 0.0 0.0
1158.2032041370285 150.1453959495489 652.5911434375466 -39.17093580399015 0.0 0.0
1233.3137997431618 190.4912457173565 710.478921948584 -38.08428873769671 0.0 0.0
1308.2909265411645 233.650056721124 769.6664243866645 -36.450420018897795 0.0 0.0
1382.6444878094212 279.31557791849184 829.7662179771552 -33.90137178945398 0.0 0.0
1455.6286366575196 327.10863239392654 890.2085404439315 -30.495281785510116 0.0 0.0
1527.5004017972888 378.0180816266468 951.5877365557126 -27.395425789166367 0.0 0.0
1606.7670395201965 441.74208339708576 1022.9455632547886 -26.502230721360917 0.0 0.0
1665.7590011254763 491.9846225915806 1077.4690218662397 -28.103941789411554 0.0 0.0
1665.7590011259276 491.9846225920615 1077.4690218665448 28.103941789504766 0.0 0.0
1606.767039520514 441.7420833974478 1022.9455632550078 26.502230721514373 0.0 0.0
1527.500401796529 378.0180816259664 951.5877365551702 27.395425789229034 0.0 0.0
1455.6286366561085 327.1086323926286 890.2085404427278 30.495281785613983 0.0 0.0
1382.644487806677 279.3155779158791 829.7662179751726 33.90137178953333 0.0 0.0
1308.2909265400563 233.65005672014712 769.6664243858166 36.45042001879427 0.0 0.0
1233.313799743196 190.4912457175672 710.478921948524 38.084288737766435 0.0 0.0
1158.2032041367863 150.14539594956233 652.5911434373826 39.170935804209606 0.0 0.0
1082.8018289035313 112.59310090551031 595.9001903668022 40.004015463132504 0.0 0.0
1006.366254473186 78.00733327408221 540.0951802989039 40.58654035482239 0.0 0.0
928.6480279979248 46.201623131315955 484.90945463176365 40.55135026146345 0.0 0.0
850.0757218287141 18.268083630577138 431.019734446348 39.21733564563376 0.0 0.0
772.2812190134944 -3.4738354541287038 380.00747412733324 36.3481537934362 0.0 0.0
695.6841896813955 -17.36566960976856 330.3378267364754 33.05963458327712 0.0 0.0
618.0365824014771 -23.351913720696103 272.1186192491482 31.356199514758124 0.0 0.0
537.207732374351 -25.684003641459356 196.70767951490828 33.909770902854234 0.0 0.0
450.6255175926705 -17.32080896323039 137.32821787825122 36.77693797679511 0.0 0.0
375.1450124644074 35.7407775166736 123.29479011849362 9.508697900288062 0.0 0.0
286.29369029407474 -87.22955288567357 60.291039322328885 -7.474061383862464 0.0 0.0
72.64380796721608 -552.9085150703803 -243.77849276606202 162.9834591747939 0.0 0.0
16.114442959987684 -563.6253295002491 -272.08890624022877 -179.24039674032653 0.0 0.0
160.6198609491247 -74.19177794608699 25.92842490091131 -48.1637128537617 0.0 0.0
304.36165138080537 40.216236675855676 103.3733664169983 -34.57049618245282 0.0 0.0
406.73161536621876 -7.941053970550563 121.9445819400375 -57.71830755511149 0.0 0.0
501.75485928721264 -24.39148517595229 172.20025072378988 -58.14401638966001 0.0 0.0
591.3734181991756 -24.750692541534523 249.24152214121585 -53.627131899718016 0.0 0.0
672.3575984515048 -16.030283367841527 316.0716402089519 -54.66394491233528 0.0 0.0
749.3653317560756 -2.9244877614538183 367.8015315798625 -58.48540721914427 0.0 0.0
825.6405932650125 17.17553835992473 417.83460468457235 -61.823761498236514 0.0 0.0
900.5517957527325 41.80843526737948 468.4236939403431 -63.070933940471626 0.0 0.0
973.6633080581689 69.5164279767919 519.3247866322691 -62.68533022923643 0.0 0.0
1044.9831234468306 99.83172226273307 570.4728867151443 -61.55026708116556 0.0 0.0
1115.174805005373 132.44265895242995 622.1176592796625 -60.162117900208344 0.0 0.0
1184.311685286686 167.466693226095 674.389876583657 -58.36737635762014 0.0 0.0
1252.7189594389715 204.50906081136662 727.2607377928645 -55.8644974445842 0.0 0.0
1320.793801398483 244.01408811360412 781.145087088931 -52.32665645541366 0.0 0.0
1389.3560523097447 287.31965010603756 837.1095283885827 -47.9429749552692 0.0 0.0
1460.7371338765004 337.6346415494239 897.919302063563 -43.71287307501927 0.0 0.0
1528.1892283077402 389.2179693528631 957.3874573892616 -39.73937518813017 0.0 0.0
1576.758577603073 428.1396758331731 1001.0695415642303 -35.20392247203033 0.0 0.0
1576.7585776018968 428.13967583200974 1001.0695415633741 35.20392247212921 0.0 0.0
1528.18922830761 389.217969352769 957.3874573890507 39.739375188092694 0.0 0.0
1460.73713387885 337.63464155186233 897.9193020651039 43.71287307502449 0.0 0.0
1389.35605231428 287.31965011068644 837.1095283917066 47.94297495511729 0.0 0.0
1320.7938013991488 244.01408811440888 781.1450870893935 52.326656455530156 0.0 0.0
1252.7189594397662 204.50906081237224 727.2607377933864 55.86449744484641 0.0 0.0
1184.3116852877931 167.46669322740382 674.3898765842596 58.367376357703435 0.0 0.0
1115.1748050043057 132.4426589515695 622.11765927899 60.16211790028848 0.0 0.0
1044.9831234463923 99.83172226246745 570.4728867149051 61.55026708097373 0.0 0.0
973.6633080583986 69.51642797730187 519.324786632405 62.685330229394594 0.0 0.0
900.5517957534112 41.8084352683361 468.4236939407114 63.070933940476394 0.0 0.0
825.6405932657888 17.175538361032636 417.83460468501937 61.82376149833208 0.0 0.0
749.3653317559797 -2.9244877612325695 367.80153157980664 58.48540721928873 0.0 0.0
672.3575984510305 -16.030283367966987 316.07164020862774 54.663944912458035 0.0 0.0
591.3734181988912 -24.750692541461916 249.2415221409352 53.627131899687235 0.0 0.0
501.75485928719934 -24.39148517559228 172.20025072373477 58.14401638962008 0.0 0.0
406.7316153663147 -7.941053970091772 121.9445819401974 57.71830755505971 0.0 0.0
304.3616513808774 40.216236675959756 103.37336641705114 34.570496182418665 0.0 0.0
160.61986094952823 -74.19177794523083 25.928424901289205 48.16371285355673 0.0 0.0
16.114442960149887 -563.6253295000012 -272.0889062399905 179.24039674018832 0.0 0.0
-6.079652548789198 -554.5589428943606 -272.33170712702247 -181.25305200221283 0.0 0.0
90.75113576449155 -67.50651114764693 6.973387385053382 -95.53408468217549 0.0 0.0
237.62101633305758 36.194609051827186 82.14468761546541 -68.91261061768252 0.0 0.0
352.0437874079098 2.4298437197937988 106.71767954094653 -80.69848879605038 0.0 0.0
456.62721169618425 -22.58340173566788 146.67764463583637 -85.00930430517964 0.0 0.0
555.7825059387557 -24.35206820961783 222.02663496060455 -77.60655621249721 0.0 0.0
642.4910337686086 -15.780096972841868 296.18512246580667 -76.8931360383181 0.0 0.0
721.7713680837646 -1.8329740466718931 352.98790374422333 -80.48020349170534 0.0 0.0
796.1759709511263 15.876343270040792 401.87960479874187 -83.7739612454337 0.0 0.0
867.665539160118 37.20900769745231 449.3724538011697 -84.7531398573435 0.0 0.0
936.3429070599445 60.914935342065064 496.15462080313455 -83.95199938473384 0.0 0.0
1002.7955189243241 86.80041713170772 542.7010810651004 -82.3472048892776 0.0 0.0
1067.5047394818562 114.63355250811676 589.2495465089169 -80.37799965334304 0.0 0.0
1130.9501423669374 144.21469766181974 635.9915530840927 -77.94600111667931 0.0 0.0
1192.9173849928911 175.01625362331643 682.5526060251789 -74.74423145241221 0.0 0.0
1254.4820525953946 208.3446211795532 730.1009670994063 -70.55489099200892 0.0 0.0
1318.3254766717328 246.74774300498063 781.2459821907361 -65.53522712072503 0.0 0.0
1383.88506200619 290.68691172069623 835.9762673656828 -59.84417050269531 0.0 0.0
1444.9209040754652 334.7907491636695 888.5152673293942 -52.55603515665518 0.0 0.0
1489.8628473067745 368.43726572655487 927.7548815680708 -42.66712199126215 0.0 0.0
1489.862847307161 368.4372657269757 927.754881568342 42.667121991371474 0.0 0.0
1444.9209040765252 334.79074916481284 888.5152673301283 52.556035156788184 0.0 0.0
1383.8850620044386 290.68691171900343 835.9762673644329 59.84417050272928 0.0 0.0
1318.3254766693892 246.7477430026766 781.2459821891794 65.53522712057199 0.0 0.0
1254.4820525961156 208.3446211804187 730.1009670997963 70.5548909921021 0.0 0.0
1192.917384992845 175.0162536234617 682.5526060251029 74.74423145252446 0.0 0.0
1130.950142366339 144.2146976613596 635.9915530837679 77.94600111665031 0.0 0.0
1067.5047394813175 114.63355250783286 589.2495465085551 80.37799965353108 0.0 0.0
1002.79551892416 86.8004171317346 542.7010810649409 82.34720488916867 0.0 0.0
936.3429070601156 60.914935342522824 496.15462080318696 83.95199938492101 0.0 0.0
867.6655391597689 37.209007697357094 449.3724538008943 84.75313985731744 0.0 0.0
796.1759709496037 15.876343268614505 401.87960479773096 83.77396124509323 0.0 0.0
721.7713680835908 -1.8329740465649849 352.9879037441056 80.4802034916323 0.0 0.0
642.4910337683386 -15.780096972803491 296.18512246559465 76.8931360382238 0.0 0.0
555.7825059380916 -24.352068210081153 222.0266349600797 77.60655621228867 0.0 0.0
456.6272116953788 -22.583401736235796 146.67764463536403 85.00930430515412 0.0 0.0
352.0437874077921 2.4298437196506093 106.71767954088125 80.69848879600772 0.0 0.0
237.62101633303303 36.19460905184107 82.1446876154622 68.91261061752024 0.0 0.0
90.75113576461965 -67.50651114743343 6.973387385155867 95.53408468197479 0.0 0.0
-6.079652548637284 -554.5589428940228 -272.3317071267538 181.25305200212867 0.0 0.0
-11.750987683369814 -533.2194353289947 -256.70505858736976 -178.25080131679752 0.0 0.0
52.99958962691956 -62.0317751299189 -2.7096556508998013 -132.44336703078955 0.0 0.0
180.7531274326225 28.711760777356332 62.83946646299364 -103.7025299050433 0.0 0.0
292.9959523966245 10.041057282979796 90.97855911219852 -104.95250892260626 0.0 0.0
399.9880690043931 -18.49033040572519 121.934279512773 -113.33550249911511 0.0 0.0
509.64268093752963 -23.553527142514902 190.37860124314886 -104.55670733826149 0.0 0.0
605.5010104824817 -15.73453481652938 270.2719185032586 -100.41389883698253 0.0 0.0
687.8403388923826 -1.212858725783029 333.7150336760058 -102.40045308584358 0.0 0.0
761.136933680754 14.633680528353032 382.86819502678804 -105.08462815737069 0.0 0.0
829.349466982932 32.4550808852173 427.41891061340505 -105.65082472420973 0.0 0.0
893.8536010942008 52.22993110279739 470.2943378439078 -104.3863560581582 0.0 0.0
955.2622229071394 73.62305396599507 512.1462276202554 -102.33522769450283 0.0 0.0
1014.6155787356548 96.53954540807504 553.6062088138023 -99.91729021318122 0.0 0.0
1072.206721832475 120.85411962581618 594.8192356721145 -96.82911525909563 0.0 0.0
1128.0915210594617 145.86648154324132 635.4814972405682 -93.01625574475722 0.0 0.0
1183.3829726941938 172.66898572681012 676.6606568669266 -88.49739158497253 0.0 0.0
1240.0641724946154 203.85419794385143 720.6331359687692 -83.02275966202203 0.0 0.0
1299.1153729093448 240.43471003144194 768.436100835753 -76.02510665249986 0.0 0.0
1355.9254741674201 278.51644738799496 815.8504712867058 -65.77925662814482 0.0 0.0
1401.245934243086 310.0521286319633 854.2073297753104 -51.13415658972527 0.0 0.0
1401.2459342426885 310.0521286315908 854.2073297751597 51.13415658981053 0.0 0.0
1355.9254741671334 278.51644738777765 815.8504712866244 65.77925662827604 0.0 0.0
1299.1153729093744 240.4347100315564 768.4361008356753 76.02510665259568 0.0 0.0
1240.0641724951274 203.8541979444762 720.6331359688613 83.02275966204851 0.0 0.0
1183.3829726950778 172.6689857279212 676.660656867442 88.49739158522809 0.0 0.0
1128.0915210597027 145.86648154356175 635.4814972405443 93.01625574457114 0.0 0.0
1072.2067218319983 120.85411962550273 594.8192356715695 96.8291152591315 0.0 0.0
1014.6155787371067 96.53954540986285 553.6062088147673 99.9172902135167 0.0 0.0
955.2622229079867 73.6230539672168 512.1462276208424 102.33522769476363 0.0 0.0
893.8536010945686 52.22993110342429 470.29433784409844 104.38635605820528 0.0 0.0
829.3494669821039 32.455080884588995 427.418910612828 105.65082472410538 0.0 0.0
761.1369336810853 14.633680528994773 382.86819502699916 105.0846281574498 0.0 0.0
687.8403388929172 -1.2128587248367353 333.71503367633846 102.40045308586934 0.0 0.0
605.50101048201 -15.73453481683795 270.2719185028396 100.41389883672105 0.0 0.0
509.64268093761405 -23.55352714204026 190.37860124311015 104.55670733816663 0.0 0.0
399.9880690043772 -18.49033040509321 121.9342795128924 113.33550249914948 0.0 0.0
292.9959523970422 10.04105728421159 90.97855911270007 104.95250892248121 0.0 0.0
180.75312743274313 28.71176077765203 62.83946646311854 103.70252990488105 0.0 0.0
52.99958962710584 -62.03177512953406 -2.7096556507284646 132.44336703070417 0.0 0.0
-11.75098768335134 -533.2194353287897 -256.7050585871686 178.25080131669907 0.0 0.0
-9.950853040165342 -503.5786257657579 -231.58413695051388 -174.00891872020574 0.0 0.0
31.556972183810302 -56.18388671527711 -7.38812185776838 -160.07028749567755 0.0 0.0
132.93542302409347 20.74149884392756 46.10307656040631 -134.23299995081783 0.0 0.0
234.03013601248614 13.340475491992468 74.20720699276002 -129.4190567691586 0.0 0.0
333.0431437975557 -11.350683990650944 99.3579857471741 -140.08653967994763 0.0 0.0
447.231521629528 -22.57740503127685 154.64472279614185 -135.08318118427397 0.0 0.0
555.7498265962311 -14.743751640247146 236.42183102034898 -126.06158951901116 0.0 0.0
644.3279727807419 -1.7178525168649372 307.0427800195898 -124.82249987191015 0.0 0.0
718.9736367562175 13.073144416230065 359.46863831050115 -126.01629479304039 0.0 0.0
784.4868940975765 27.697887384747332 401.97024817341526 -125.76763352430929 0.0 0.0
844.7582592368308 43.42607393185434 440.96474445314266 -124.00163205150797 0.0 0.0
901.2844260130715 60.40648239358157 478.2953036190202 -121.5201367938824 0.0 0.0
954.9950559281589 78.38047141240494 514.5322112006909 -118.68712352646934 0.0 0.0
1006.8928138977234 97.30890098912033 550.2372438880386 -115.16968307289054 0.0 0.0
1057.3262641006368 117.03084704813999 585.5645076882706 -110.79192573847158 0.0 0.0
1105.6639361799716 137.40962668460463 620.1182698602929 -105.83101584426024 0.0 0.0
1154.116814734675 159.8279926703236 655.6384939711438 -100.22161055368524 0.0 0.0
1205.4810637167034 187.4316456798248 695.1121340997519 -92.53178221531068 0.0 0.0
1258.921125585608 219.84252464253538 737.9800291268011 -80.03937407359997 0.0 0.0
1307.6737221804974 251.26253209904823 777.9508029349555 -61.317812102166265 0.0 0.0
1307.6737221812061 251.2625320998265 777.9508029354391 61.31781210233969 0.0 0.0
1258.9211255874475 219.84252464455068 737.9800291281956 80.03937407400886 0.0 0.0
1205.4810637189423 187.4316456822882 695.1121341015888 92.53178221568825 0.0 0.0
1154.116814733944 159.82799266969846 655.6384939708088 100.22161055381639 0.0 0.0
1105.6639361791642 137.40962668407587 620.1182698597888 105.83101584468398 0.0 0.0
1057.326264100416 117.03084704805383 585.564507688144 110.79192573845121 0.0 0.0
1006.8928138995932 97.30890099122814 550.2372438893342 115.16968307298458 0.0 0.0
954.9950559279123 78.38047141227565 514.5322112005617 118.68712352637081 0.0 0.0
901.2844260121336 60.406482392771466 478.295303618376 121.5201367938096 0.0 0.0
844.7582592368586 43.42607393220757 440.96474445320473 124.00163205166645 0.0 0.0
784.486894097434 27.697887384842574 401.9702481733289 125.7676335242551 0.0 0.0
718.9736367549899 13.073144415067091 359.4686383096565 126.01629479275306 0.0 0.0
644.3279727798022 -1.7178525176883284 307.04278001889816 124.82249987172145 0.0 0.0
555.7498265958176 -14.743751640275327 236.42183102002662 126.06158951905076 0.0 0.0
447.2315216292522 -22.577405031071685 154.64472279596254 135.08318118426183 0.0 0.0
333.0431437975917 -11.350683990188035 99.35798574730663 140.08653967980132 0.0 0.0
234.0301360121851 13.340475491625245 74.20720699256096 129.41905676907604 0.0 0.0
132.93542302403742 20.74149884390354 46.10307656038228 134.23299995051462 0.0 0.0
31.55697218376632 -56.183886715222485 -7.388121857765148 160.070287495446 0.0 0.0
-9.950853040026416 -503.5786257653324 -231.58413695019556 174.0089187201494 0.0 0.0
-4.594464262492025 -467.2989341899319 -200.32462989867662 -170.16388314322117 0.0 0.0
17.778463665354018 -50.59223721562451 -9.843929869539522 -179.6354452011176 0.0 0.0
91.38680381556406 13.567391642605518 31.48564067027673 -158.59213555544943 0.0 0.0
175.3840544474237 14.417567619623084 56.942141386191935 -152.2418338172633 0.0 0.0
259.9659146683845 -3.7414380822883464 78.1362646351883 -163.0423623249606 0.0 0.0
368.53586418536634 -18.896595930617345 118.38560409016688 -167.3880278367503 0.0 0.0
487.79195428815234 -14.430264974168473 192.99270124862036 -155.57446154404124 0.0 0.0
587.6843274299978 -1.9975615914784637 270.6599841460056 -148.52380135418468 0.0 0.0
665.7338637374262 10.663884116792698 328.4174996020485 -146.9385497798795 0.0 0.0
730.4180153991609 22.78195379885222 371.2880517802673 -145.30594499523613 0.0 0.0
786.6709379203958 34.49370268201465 406.85010005590163 -142.8143571971378 0.0 0.0
838.4071923722178 47.2786092721399 439.92520618118783 -139.87853902623308 0.0 0.0
886.392866631889 60.26901722380343 470.93425982153457 -136.7220113978796 0.0 0.0
932.090726597586 73.75740191739996 500.8886175573163 -132.94373170745592 0.0 0.0
976.7854749347373 88.11557993792694 530.6821865423663 -128.1463314774232 0.0 0.0
1019.9149499984892 103.01468188653931 559.9679898122652 -122.61623806426456 0.0 0.0
1059.204854676596 116.3118651532133 586.4616472578329 -116.78867026373301 0.0 0.0
1100.2906334177972 132.5540915779714 615.1282209953941 -109.29716104390859 0.0 0.0
1149.8220860910662 157.51173438354851 652.2523417027315 -95.97416891342688 0.0 0.0
1205.1135352621568 190.35722141558463 696.1082356117747 -74.2730273260751 0.0 0.0
1205.113535261549 190.35722141507335 696.1082356112587 74.27302732631227 0.0 0.0
1149.822086091857 157.51173438453725 652.2523417031133 95.97416891391387 0.0 0.0
1100.2906334172294 132.5540915775867 615.1282209949013 109.29716104407268 0.0 0.0
1059.2048546760113 116.3118651526691 586.4616472572563 116.78867026373285 0.0 0.0
1019.9149499987171 103.01468188696776 559.9679898122392 122.61623806438408 0.0 0.0
976.785474935456 88.11557993876784 530.6821865427189 128.14633147739073 0.0 0.0
932.0907265978112 73.75740191779948 500.8886175573807 132.94373170746667 0.0 0.0
886.3928666317377 60.26901722369632 470.934259821346 136.72201139771315 0.0 0.0
838.4071923715568 47.278609271562885 439.92520618069045 139.8785390261391 0.0 0.0
786.6709379195177 34.493702681252955 406.8501000552271 142.814357197024 0.0 0.0
730.4180153975146 22.781953797191562 371.28805177916075 145.30594499500347 0.0 0.0
665.733863736352 10.663884115923892 328.4174996013857 146.93854977985535 0.0 0.0
587.6843274304174 -1.9975615902584138 270.6599841463101 148.52380135463451 0.0 0.0
487.7919542879811 -14.43026497369394 192.99270124852427 155.5744615441754 0.0 0.0
368.53586418445525 -18.89659593139019 118.38560408958861 167.38802783661808 0.0 0.0
259.9659146679375 -3.741438082781067 78.1362646349068 163.04236232462193 0.0 0.0
175.38405444723108 14.41756761936358 56.94214138606118 152.24183381690816 0.0 0.0
91.38680381544802 13.567391642582287 31.48564067023559 158.5921355550116 0.0 0.0
17.778463665385424 -50.5922372155597 -9.843929869510822 179.63544520089272 0.0 0.0
-4.594464262398013 -467.2989341897482 -200.3246298984363 170.16388314299297 0.0 0.0
0.9874726743585001 -425.7251932122407 -166.94480554905147 -167.6622370797125 0.0 0.0
5.7372712012610165 -46.07659433764078 -12.102125259718548 -191.30546064068005 0.0 0.0
53.60380588582254 7.913507038614246 18.45691035607882 -176.6988053499572 0.0 0.0
117.50333377355368 15.281200168311688 39.86380111897225 -171.2544975231603 0.0 0.0
184.93190983342845 1.717691412464253 56.71561036044619 -182.56144575553986 0.0 0.0
271.8551474802243 -11.31188755372429 83.84530519006567 -195.35897601157882 0.0 0.0
391.2833374328619 -12.958825465853721 141.00551443432957 -189.8315779751491 0.0 0.0
507.89178950677064 -2.838552574132547 218.92229974723077 -175.88326062062313 0.0 0.0
595.2643111795874 7.9279973263315 284.53265225278 -168.65623485370548 0.0 0.0
660.5800151904257 17.341964577506843 330.59484506112034 -164.51163298641978 0.0 0.0
714.1864231270418 25.3637803944838 364.7463016729881 -161.05622815004475 0.0 0.0
760.8780330917762 34.10939760829693 393.9294128333378 -157.4876908879009 0.0 0.0
803.0159792514008 42.508961669043494 420.01942112908006 -153.93130991610593 0.0 0.0
842.1033896895749 50.450198249677015 444.05666915116615 -150.09156412140112 0.0 0.0
880.3612777479422 58.88546234154954 467.73197816887114 -145.2878157103773 0.0 0.0
918.7394061128032 68.70753784769755 492.10646670791436 -139.06680269143854 0.0 0.0
952.7986086696917 75.97299100929501 513.144544301808 -132.45398682606248 0.0 0.0
980.2556945941232 77.75185634126817 527.9275422788825 -125.74539982212478 0.0 0.0
1020.3753227888351 89.84328570814736 553.7705773169134 -113.91258221415586 0.0 0.0
1084.869139727481 124.69366536121058 603.003241310819 -91.58308514731783 0.0 0.0
1084.8691397271577 124.69366536094668 603.0032413107745 91.5830851475545 0.0 0.0
1020.3753227872163 89.84328570661546 553.7705773159124 113.91258221435595 0.0 0.0
980.2556945922647 77.75185633924553 527.9275422774682 125.7453998219566 0.0 0.0
952.7986086702723 75.97299101016074 513.1445443020975 132.4539868263149 0.0 0.0
918.7394061126231 68.70753784761962 492.1064667078498 139.0668026914136 0.0 0.0
880.3612777463734 58.88546233983715 467.73197816780157 145.28781571008454 0.0 0.0
842.1033896891227 50.45019824930699 444.05666915080076 150.09156412145686 0.0 0.0
803.0159792516868 42.50896166954027 420.019421129238 153.93130991624218 0.0 0.0
760.8780330916326 34.10939760857494 393.9294128332994 157.48769088818523 0.0 0.0
714.1864231274407 25.363780395221227 364.74630167327825 161.05622815011435 0.0 0.0
660.5800151913403 17.341964578821717 330.5948450616646 164.51163298650292 0.0 0.0
595.2643111797631 7.927997326952848 284.532652252901 168.65623485377108 0.0 0.0
507.89178950627416 -2.8385525745596567 218.92229974678048 175.88326062042066 0.0 0.0
391.2833374323002 -12.958825466375227 141.00551443385822 189.83157797492382 0.0 0.0
271.85514747986565 -11.311887553674737 83.84530518993056 195.35897601135395 0.0 0.0
184.93190983363243 1.7176914132841885 56.71561036075454 182.561445755406 0.0 0.0
117.50333377370055 15.28120016888595 39.8638011191948 171.25449752313176 0.0 0.0
53.60380588563893 7.913507038325295 18.45691035594076 176.6988053498521 0.0 0.0
5.737271201146935 -46.07659433772848 -12.102125259780436 191.30546064053067 0.0 0.0
0.9874726743663444 -425.7251932119969 -166.94480554885152 167.66223707965074 0.0 0.0
3.73810296191391 -379.59267633364425 -135.29370282633704 -165.20001713103554 0.0 0.0
-8.834397600281385 -43.98260660054056 -15.852603138100623 -196.94899275239865 0.0 0.0
17.86842626427937 4.4244694739780766 6.695044900567473 -188.71155964241223 0.0 0.0
61.08353732595363 16.45401508932074 23.303057152515553 -185.50456299120933 0.0 0.0
107.82174163844685 6.096975699808413 34.6246848325146 -197.74223864442178 0.0 0.0
164.5168289253074 -3.831616301684413 50.51698313494667 -215.3845904590579 0.0 0.0
257.14398262001913 -6.632223469828142 85.39442604462361 -222.28687435501024 0.0 0.0
380.4292709293966 -3.027354979436886 146.1057324846997 -210.15100233833647 0.0 0.0
486.77729561322 5.0775553746869555 214.5844448391394 -194.07154389806436 0.0 0.0
558.6849921021842 11.140203161921313 267.08945683645663 -184.38198966901984 0.0 0.0
610.4471481653304 16.53395169846094 303.8481703621126 -178.82916203722155 0.0 0.0
651.864702223022 20.777910793111943 330.6704474585603 -174.4946723619936 0.0 0.0
687.7779040657189 24.951695940218002 352.8309888114442 -170.40411456579852 0.0 0.0
719.8338088284568 27.87100905437366 371.4734832637403 -166.39992982281947 0.0 0.0
750.2980500421544 29.913703289524193 388.34211748386883 -161.85628700838305 0.0 0.0
782.2382408511568 32.85412425628226 406.08441745788247 -155.82080132302406 0.0 0.0
816.5191783499065 37.357704721884005 425.77087919345087 -147.66944576554565 0.0 0.0
839.3100952793208 31.656050303021004 434.9395733303667 -140.18649550796945 0.0 0.0
855.4242221078604 15.533225073575494 434.7008807425384 -132.95267561895713 0.0 0.0
928.3556740378995 47.80782275531345 486.10520326410375 -116.13633775086717 0.0 0.0
928.3556740376641 47.80782275522904 486.10520326399376 116.13633775118612 0.0 0.0
855.4242221087756 15.533225074709549 434.70088074314003 132.9526756193416 0.0 0.0
839.3100952793236 31.656050303223424 434.9395733305096 140.1864955080957 0.0 0.0
816.519178349113 37.35770472098494 425.7708791930679 147.6694457655766 0.0 0.0
782.2382408500879 32.8541242553369 406.0844174571903 155.82080132310602 0.0 0.0
750.298050042021 29.913703289317425 388.3421174837065 161.85628700838396 0.0 0.0
719.8338088282163 27.87100905439155 371.473483263677 166.3999298228982 0.0 0.0
687.7779040647084 24.951695939011785 352.83098881069026 170.4041145655496 0.0 0.0
651.864702222122 20.777910792207194 330.6704474579133 174.49467236191836 0.0 0.0
610.4471481646372 16.533951697720866 303.8481703616322 178.82916203709902 0.0 0.0
558.684992101678 11.140203161565097 267.08945683613877 184.3819896689099 0.0 0.0
486.7772956127218 5.077555374413038 214.5844448387737 194.07154389806075 0.0 0.0
380.4292709286262 -3.027354979811747 146.1057324842492 210.15100233841298 0.0 0.0
257.1439826194351 -6.6322234702997935 85.39442604424998 222.28687435484264 0.0 0.0
164.5168289249444 -3.831616302092481 50.516983134704624 215.38459045876252 0.0 0.0
107.82174163832934 6.096975699658546 34.62468483243502 197.7422386442489 0.0 0.0
61.08353732569955 16.45401508872972 23.30305715226431 185.50456299103126 0.0 0.0
17.868426264037474 4.424469473631829 6.695044900392339 188.71155964218934 0.0 0.0
-8.834397600278777 -43.98260660034876 -15.852603138045232 196.94899275224077 0.0 0.0
3.7381029619480763 -379.59267633334247 -135.29370282614363 165.20001713095078 0.0 0.0
2.5570993262029944 -329.6354410530545 -107.19642301617964 -160.68318896635552 0.0 0.0
-27.473915733715536 -45.11362629744579 -21.789714730027015 -198.4462961119296 0.0 0.0
-16.668893878072033 3.306428172848836 -4.01122587817954 -195.58259096106408 0.0 0.0
6.34981835265922 17.72421315967725 7.242496927458898 -194.54744280807517 0.0 0.0
29.953228869948994 10.709756411304639 12.349453873408494 -206.73031579803614 0.0 0.0
52.81842130375111 1.959315100132995 17.12411500002079 -226.70540099059198 0.0 0.0
87.32999333028964 -0.9885517662112138 28.139488959357788 -241.4046097391947 0.0 0.0
154.1176838974791 1.3243161802785242 52.67376083061501 -242.07315122073356 0.0 0.0
247.33374351153861 5.563617672376768 91.77486918389675 -226.61583265947166 0.0 0.0
330.27308053122994 7.162685693896655 135.37306054938816 -209.5496863728564 0.0 0.0
387.9411783691326 8.484205671870214 173.828585595652 -197.5541669498197 0.0 0.0
424.51258761634705 8.639190972836658 201.74882956466973 -190.4893015639371 0.0 0.0
451.38149885809406 8.453643695125294 222.6974092970395 -185.3009874733134 0.0 0.0
474.3235944661992 6.051723848616092 238.26058478974272 -180.80343775178457 0.0 0.0
497.6782849782525 1.7059079057123938 250.68248489299918 -176.44688649723037 0.0 0.0
526.2857419555511 -3.5747796511810463 263.17906196439515 -171.52084360800373 0.0 0.0
564.4493329109602 -6.358119175761487 280.4356640601392 -164.13111708821 0.0 0.0
610.5706978881444 -5.843780914271122 303.4296226154886 -153.16135808793402 0.0 0.0
624.5248705722063 -40.50756911034921 293.77530381161705 -146.1173133809856 0.0 0.0
666.0896762982983 -65.55449220335584 298.50791390923257 -148.5777745830177 0.0 0.0
666.0896762976956 -65.554492204047 298.50791390888634 148.57777458314143 0.0 0.0
624.5248705700678 -40.5075691130985 293.7753038100947 146.1173133811225 0.0 0.0
610.5706978882818 -5.8437809144229504 303.4296226154064 153.16135808803935 0.0 0.0
564.4493329123626 -6.358119173471891 280.4356640610848 164.13111708875545 0.0 0.0
526.2857419563774 -3.574779649358703 263.1790619651591 171.52084360820334 0.0 0.0
497.6782849795604 1.705907906912472 250.68248489379667 176.44688649719114 0.0 0.0
474.32359446740486 6.051723850576792 238.26058479075382 180.8034377518976 0.0 0.0
451.38149885877715 8.453643695964388 222.69740929752913 185.30098747345613 0.0 0.0
424.51258761679526 8.639190973067784 201.74882956479593 190.48930156397705 0.0 0.0
387.9411783696644 8.484205672883519 173.82858559602292 197.55416694984547 0.0 0.0
330.27308053178297 7.1626856951032 135.37306054979382 209.5496863728423 0.0 0.0
247.333743511717 5.563617673170338 91.77486918413224 226.6158326596186 0.0 0.0
154.11768389761554 1.3243161811046775 52.67376083087365 242.07315122083276 0.0 0.0
87.32999333026373 -0.9885517659173377 28.139488959436697 241.40460973906778 0.0 0.0
52.81842130381145 1.9593151001474265 17.12411500004318 226.70540099034534 0.0 0.0
29.953228870035268 10.709756411634617 12.349453873533472 206.7303157977982 0.0 0.0
6.349818352950065 17.724213160165483 7.242496927692898 194.54744280782944 0.0 0.0
-16.668893877973204 3.30642817325228 -4.011225878029554 195.5825909608652 0.0 0.0
-27.47391573373332 -45.11362629733834 -21.789714730005645 198.44629611176887 0.0 0.0
2.557099326160081 -329.6354410526981 -107.19642301603419 160.6831889663018 0.0 0.0
-7.6032127037386985 -277.9724412855675 -87.33070548753703 -151.86264356150178 0.0 0.0
-47.87232322234885 -47.70567345409804 -28.697034518856444 -197.85421030656713 0.0 0.0
-50.349424464010056 3.6300845115492586 -14.05298036411861 -198.0430108235107 0.0 0.0
-46.72636334532109 18.86758814701623 -8.419230765050642 -198.14904260630908 0.0 0.0
-46.984232031456806 15.379165886083005 -9.678700920456787 -208.89883402476977 0.0 0.0
-59.81147863360886 7.296122238358678 -16.528794996611403 -227.60787350730936 0.0 0.0
-90.8948180840894 2.567693350772281 -28.852076653973626 -241.57445673563552 0.0 0.0
-155.3701071200903 -0.8399042157650065 -53.00792800580235 -242.31112950371133 0.0 0.0
-247.2226516558742 -5.272935669253538 -91.67542331680815 -226.74738856854924 0.0 0.0
-329.9765438153364 -6.575785792276932 -135.06891887928964 -209.52445382557724 0.0 0.0
-388.23394528006975 -6.7936701393303025 -173.21608148982105 -197.33863741900137 0.0 0.0
-426.59217767487337 -7.160035754859848 -201.9387114279502 -190.01133610206375 0.0 0.0
-456.1108082486966 -10.24284308603049 -225.4594854023506 -185.0973817230241 0.0 0.0
-479.2133923604782 -16.43378744112772 -245.69239720828378 -182.01153222422508 0.0 0.0
-493.87191581313067 -25.69670348699003 -262.7593986126594 -180.5904187031853 0.0 0.0
-496.6690119596741 -36.95989768143235 -275.7088893008232 -180.29188314437698 0.0 0.0
-478.8141699417712 -47.33972939927938 -281.1300283132133 -180.0449944585408 0.0 0.0
-411.0639834356544 -39.417974420435655 -262.5440283991291 -179.68563825021712 0.0 0.0
-230.30327137672555 -42.750865705842614 -205.15389705823952 -182.75820292977735 0.0 0.0
-36.41642842155784 -175.46509018467833 -75.209758218024 -181.9111755499434 0.0 0.0
-36.41642842090562 -175.46509018333984 -75.20975821744986 181.91117555030615 0.0 0.0
-230.30327137598607 -42.75086570420359 -205.15389705755132 182.7582029302082 0.0 0.0
-411.0639834341835 -39.41797441838173 -262.54402839789475 179.68563825054014 0.0 0.0
-478.81416994115926 -47.33972939852697 -281.1300283127195 180.04499445872273 0.0 0.0
-496.6690119596869 -36.95989768171967 -275.7088893008698 180.29188314444775 0.0 0.0
-493.87191581281445 -25.696703486886406 -262.7593986124947 180.5904187032625 0.0 0.0
-479.2133923604601 -16.433787441445446 -245.69239720830524 182.0115322242513 0.0 0.0
-456.1108082482387 -10.242843086215032 -225.45948540220826 185.09738172317606 0.0 0.0
-426.5921776742722 -7.160035754571041 -201.9387114275638 190.01133610206773 0.0 0.0
-388.2339452803434 -6.793670140548201 -173.2160814901055 197.3386374189733 0.0 0.0
-329.9765438149155 -6.575785792833216 -135.06891887916782 209.52445382549655 0.0 0.0
-247.22265165516865 -5.272935669305184 -91.67542331653235 226.7473885687386 0.0 0.0
-155.37010711979235 -0.83990421614876 -53.00792800578592 242.31112950373597 0.0 0.0
-90.89481808390653 2.56769335031806 -28.852076654035336 241.57445673553798 0.0 0.0
-59.81147863354319 7.2961222381514395 -16.528794996650248 227.6078735070861 0.0 0.0
-46.9842320313779 15.37916588632288 -9.678700920359221 208.89883402448794 0.0 0.0
-46.7263633450854 18.867588147282966 -8.419230764900803 198.14904260611257 0.0 0.0
-50.34942446396441 3.6300845116762903 -14.052980364069235 198.04301082336164 0.0 0.0
-47.872323222376195 -47.70567345409524 -28.697034518873537 197.85421030642235 0.0 0.0
-7.603212703895858 -277.97244128534476 -87.3307054875237 151.8626435614082 0.0 0.0
-21.368494253554044 -227.73083032635682 -74.72970021755638 -139.13385474506381 0.0 0.0
-66.19048398998348 -48.45051021706867 -34.4173256066447 -194.49638018439242 0.0 0.0
-83.20122502042034 3.9926839896065243 -23.83807818333385 -196.65441721744727 0.0 0.0
-98.12688997433767 19.882579008340123 -23.638345805179135 -196.46035065120162 0.0 0.0
-122.12415434443918 19.228258542690373 -31.518191714494787 -204.0379440950063 0.0 0.0
-170.02074862949888 12.560167224503877 -49.94051347738066 -217.5771389921283 0.0 0.0
-258.5178338359264 8.098256240677209 -85.77871149244481 -223.29341524325176 0.0 0.0
-379.8898137426525 3.417819101932494 -145.99029927039874 -210.7900404546475 0.0 0.0
-486.28812805173686 -4.7994901380923665 -214.30711283414544 -194.28258968095778 0.0 0.0
-558.2169150398578 -10.537972107142593 -266.6429111085589 -184.33454424557172 0.0 0.0
-609.9458111882043 -15.210176874279327 -303.026125208615 -178.44971291730351 0.0 0.0
-652.1792895810096 -19.444603306212343 -330.12982735750995 -173.61504943958334 0.0 0.0
-690.4854168409432 -26.358658541326918 -354.640400195136 -169.6145944806583 0.0 0.0
-726.3890180990788 -36.660235591261426 -378.8111576030673 -167.4796615089145 0.0 0.0
-759.8454123646502 -50.45647291737782 -403.27866864223887 -167.50986404770882 0.0 0.0
-788.5385198524946 -66.30392196004482 -426.40601040619174 -169.6030064566914 0.0 0.0
-807.4597925010206 -80.80037662707178 -444.09316585008804 -174.2850470351179 0.0 0.0
-815.7198663748571 -93.99387011452018 -455.5806445184451 -181.56680295758983 0.0 0.0
-846.6947937712844 -146.6965971473137 -498.84920316677443 -191.2372652529257 0.0 0.0
-872.9064022198467 -244.27863514472855 -562.2708110547069 -209.70142430403962 0.0 0.0
-872.9064022189523 -244.2786351437319 -562.2708110540764 209.7014243041476 0.0 0.0
-846.6947937722989 -146.6965971485174 -498.84920316744643 191.23726525326947 0.0 0.0
-815.7198663757275 -93.9938701164636 -455.58064451937366 181.5668029583967 0.0 0.0
-807.459792500857 -80.80037662679075 -444.09316584992496 174.2850470350921 0.0 0.0
-788.5385198527498 -66.30392196070619 -426.40601040630236 169.60300645684046 0.0 0.0
-759.8454123642921 -50.456472917213745 -403.2786686419763 167.5098640478871 0.0 0.0
-726.3890180988328 -36.660235591196454 -378.811157602976 167.47966150895425 0.0 0.0
-690.4854168411298 -26.35865854200796 -354.64040019534514 169.61459448083275 0.0 0.0
-652.1792895808558 -19.444603306482236 -330.12982735743645 173.61504943970402 0.0 0.0
-609.9458111873987 -15.210176873716591 -303.0261252080681 178.449712917099 0.0 0.0
-558.2169150392828 -10.537972106600414 -266.6429111080402 184.33454424544038 0.0 0.0
-486.28812805179757 -4.799490138933397 -214.30711283423028 194.28258968116762 0.0 0.0
-379.88981374227325 3.417819101866126 -145.99029927012884 210.7900404546606 0.0 0.0
-258.51783383549457 8.098256240263105 -85.7787114923516 223.29341524326344 0.0 0.0
-170.02074862936544 12.560167224155698 -49.940513477429604 217.5771389919537 0.0 0.0
-122.1241543444443 19.228258542343788 -31.518191714601038 204.03794409482728 0.0 0.0
-98.12688997436385 19.88257900791777 -23.63834580531345 196.46035065101594 0.0 0.0
-83.20122502017517 3.9926839900146796 -23.838078183140645 196.65441721731108 0.0 0.0
-66.19048398988221 -48.4505102168452 -34.41732560655309 194.49638018424247 0.0 0.0
-21.368494253584227 -227.73083032607843 -74.72970021749843 139.13385474497647 0.0 0.0
-28.764046066137567 -180.42906098272857 -62.75793211465984 -124.05626746985881 0.0 0.0
-81.31864115761488 -46.6321979763559 -38.38598612657269 -187.3416626578586 0.0 0.0
-114.79695115663677 3.9998353244338958 -33.31976517203854 -191.3311457279939 0.0 0.0
-147.78768031383322 20.424697877958955 -38.486128494663916 -189.5363586326235 0.0 0.0
-194.7149298538125 21.961534652013384 -53.10805963394709 -192.7563541062635 0.0 0.0
-273.4437973652006 18.75769323186603 -83.1024236553447 -198.57627789496885 0.0 0.0
-389.95522535732425 14.336166610540005 -140.59712295971278 -191.4620727113956 0.0 0.0
-506.949403982062 3.2534170669136415 -218.43417909621053 -176.5296589673149 0.0 0.0
-594.941928470138 -7.754076522901215 -284.3165824056659 -168.75603153175376 0.0 0.0
-660.2334696534975 -16.90785202203378 -330.25377834578626 -164.48290014971184 0.0 0.0
-713.8062904718574 -24.404672749036067 -364.1159078300807 -160.64258351710623 0.0 0.0
-760.9952162942645 -32.98038344742679 -393.3939624939737 -156.34845477358144 0.0 0.0
-805.0597250548198 -43.370480872702046 -421.30984571910153 -152.52834429528352 0.0 0.0
-847.9388380878181 -57.34231136663277 -450.1678985264765 -150.38966286710527 0.0 0.0
-890.0783346021765 -75.5175873921504 -480.72393940554457 -150.73996526685536 0.0 0.0
-928.9319589702804 -96.14741579754465 -510.9106797555215 -153.84464239282977 0.0 0.0
-962.9816571238098 -117.86866979484444 -539.1675520310646 -159.1848798773857 0.0 0.0
-1000.696224821295 -150.69351789119128 -574.7888436596274 -165.0535286507319 0.0 0.0
-1046.171272220031 -201.64905515762484 -623.0920939108025 -169.8249512426507 0.0 0.0
-1155.677554198876 -342.7275611199426 -748.0546639289788 -172.55648759175054 0.0 0.0
-1155.6775542001842 -342.7275611213576 -748.0546639299574 172.55648759193969 0.0 0.0
-1046.171272220574 -201.64905515835625 -623.0920939114114 169.82495124283335 0.0 0.0
-1000.6962248197984 -150.69351788977212 -574.7888436587236 165.053528650968 0.0 0.0
-962.9816571225616 -117.86866979367107 -539.1675520303352 159.18487987716045 0.0 0.0
-928.9319589710942 -96.14741579832386 -510.9106797561253 153.8446423927254 0.0 0.0
-890.0783346028031 -75.51758739321784 -480.7239394060672 150.7399652672142 0.0 0.0
-847.938838087937 -57.342311366988966 -450.16789852655796 150.38966286710615 0.0 0.0
-805.0597250539506 -43.37048087179731 -421.3098457185098 152.52834429505083 0.0 0.0
-760.9952162942254 -32.980383447771565 -393.39396249404 156.34845477373008 0.0 0.0
-713.8062904735009 -24.404672751335738 -364.1159078312778 160.64258351744596 0.0 0.0
-660.2334696541807 -16.907852023269253 -330.25377834633883 164.48290014982905 0.0 0.0
-594.9419284699859 -7.754076523269582 -284.3165824056436 168.7560315319186 0.0 0.0
-506.9494039816346 3.2534170668721907 -218.43417909588868 176.5296589673666 0.0 0.0
-389.95522535701946 14.336166610008604 -140.59712295961086 191.46207271152875 0.0 0.0
-273.4437973649527 18.757693231570983 -83.10242365529756 198.57627789482126 0.0 0.0
-194.7149298534742 21.961534652165312 -53.10805963379896 192.75635410603599 0.0 0.0
-147.7876803135287 20.42469787811988 -38.4861284945326 189.53635863252737 0.0 0.0
-114.79695115658231 3.9998353241595983 -33.31976517211015 191.33114572787463 0.0 0.0
-81.31864115763466 -46.632197976344706 -38.385986126577954 187.34166265775335 0.0 0.0
-28.764046066067976 -180.42906098242386 -62.75793211454754 124.05626746967948 0.0 0.0
-31.32282399317312 -137.07342073416154 -50.51887341820039 -107.87476486848405 0.0 0.0
-93.67682184003806 -42.54700756714985 -40.86656560343823 -175.60879925358245 0.0 0.0
-144.63947341401615 3.7023198484529445 -42.348802222973646 -181.95504724497954 0.0 0.0
-195.54299241000356 19.920476421208548 -53.09013170467913 -177.6532857000969 0.0 0.0
-263.5674739838744 24.68997351708653 -74.0531935008345 -176.04261288096177 0.0 0.0
-365.6535613820702 24.58101991766062 -117.18006104862205 -171.469561749082 0.0 0.0
-485.59332643459135 16.051533784500997 -191.7164167020262 -157.29226524553923 0.0 0.0
-587.1929374356044 2.156537270770613 -270.32602884665675 -148.81804981348554 0.0 0.0
-665.5924917705088 -10.600704312110608 -328.331893615164 -146.99402894365315 0.0 0.0
-730.2398521788666 -22.534202444124176 -371.0949167315601 -145.28474408435943 0.0 0.0
-786.5633347676694 -33.96193933574034 -406.54217456804304 -142.38736097827308 0.0 0.0
-838.5614970502646 -46.503979186404024 -439.6025003330891 -138.61242054865653 0.0 0.0
-887.5130380835428 -60.4121840294238 -471.48299386813306 -134.9239184517485 0.0 0.0
-935.5676947300144 -77.83295588617881 -504.5067089290821 -132.6788123607858 0.0 0.0
-983.758901549488 -99.86357184084869 -539.8641768025934 -133.1664126147661 0.0 0.0
-1032.264715826131 -127.05061698345986 -577.9584984825774 -136.53918645568945 0.0 0.0
-1082.2444676624532 -161.11117031184784 -620.2014945257619 -141.51341098111507 0.0 0.0
-1136.9300207173756 -206.02888128274878 -670.1069363831955 -145.45861309086783 0.0 0.0
-1212.4273800229685 -280.957654769891 -745.1750942496144 -144.9090610866802 0.0 0.0
-1312.5763953820456 -404.0478169382464 -856.8784710781108 -141.80192224070424 0.0 0.0
-1312.5763953803616 -404.04781693667724 -856.8784710769122 141.80192224095137 0.0 0.0
-1212.42738002038 -280.9576547672987 -745.1750942477047 144.90906108676336 0.0 0.0
-1136.9300207164679 -206.02888128207763 -670.1069363825598 145.45861309126 0.0 0.0
-1082.2444676637506 -161.111170313395 -620.2014945265198 141.51341098129728 0.0 0.0
-1032.2647158259963 -127.05061698354777 -577.9584984824072 136.53918645576334 0.0 0.0
-983.7589015488852 -99.86357184049089 -539.8641768023227 133.16641261490133 0.0 0.0
-935.5676947303441 -77.83295588666842 -504.5067089292503 132.678812360789 0.0 0.0
-887.5130380831872 -60.4121840292763 -471.4829938678919 134.92391845174194 0.0 0.0
-838.5614970493626 -46.503979185615854 -439.6025003324859 138.61242054850126 0.0 0.0
-786.5633347659812 -33.96193933407126 -406.5421745668709 142.38736097798895 0.0 0.0
-730.239852178026 -22.53420244335796 -371.0949167309328 145.28474408410244 0.0 0.0
-665.5924917706827 -10.600704312640953 -328.33189361523955 146.99402894366335 0.0 0.0
-587.1929374356738 2.1565372700704266 -270.32602884669166 148.81804981372346 0.0 0.0
-485.5933264337709 16.05153378496133 -191.7164167014197 157.29226524553553 0.0 0.0
-365.6535613815473 24.58101991765379 -117.18006104837487 171.46956174905316 0.0 0.0
-263.56747398362506 24.68997351693401 -74.05319350079249 176.04261288078558 0.0 0.0
-195.54299240959088 19.920476421514486 -53.090131704467964 177.65328569995438 0.0 0.0
-144.6394734139409 3.702319848448328 -42.34880222296103 181.95504724478536 0.0 0.0
-93.676821840068 -42.547007567151276 -40.86656560344849 175.60879925335024 0.0 0.0
-31.322823993217753 -137.0734207340095 -50.51887341816817 107.87476486827907 0.0 0.0
-32.5373891455995 -98.5208920845509 -39.31748436904511 -91.1342172023642 0.0 0.0
-104.25362146597769 -36.55540586256157 -42.24270819856177 -159.4393074609931 0.0 0.0
-172.60332253124483 3.1765009300926437 -50.86569880951759 -168.09152408862263 0.0 0.0
-241.66147520302897 18.786951970712362 -67.28392860584619 -161.47608260715413 0.0 0.0
-329.2467959095085 27.670015903418786 -95.03738940136013 -154.27443757369042 0.0 0.0
-443.0394489106467 27.23964611771269 -152.62988760600746 -139.67013754757636 0.0 0.0
-554.1229830040711 16.00392806342449 -235.1074033609327 -126.89174695409844 0.0 0.0
-644.2320026807904 1.6390153215385226 -306.9876303183553 -124.9025614950044 0.0 0.0
-718.9471348128345 -13.077035655836369 -359.4693883975292 -126.06902404242099 0.0 0.0
-784.5113002642486 -27.634922137198913 -401.95064138503835 -125.73220546702505 0.0 0.0
-844.966302780185 -43.34713729269197 -441.0239855938563 -123.5753793443254 0.0 0.0
-901.5297196319693 -60.080655061650845 -478.25805925923834 -120.29756394682619 0.0 0.0
-954.9245040738834 -77.72473044311954 -514.1559676723623 -116.85282581181859 0.0 0.0
-1007.176578441126 -98.00543232646919 -550.6388388263629 -114.54191172980966 0.0 0.0
-1061.4353398615785 -124.1802813767498 -590.9950357115347 -114.74899694399022 0.0 0.0
-1119.9748162936307 -159.4014447941032 -638.0073824816449 -117.72183506025631 0.0 0.0
-1184.7065305197748 -205.500784523621 -693.5294372960581 -121.99954598147235 0.0 0.0
-1259.2016873943048 -267.82412719497967 -761.9523510779263 -124.27388594816853 0.0 0.0
-1344.1907693256114 -351.5008514705902 -846.286218791596 -122.60177001343604 0.0 0.0
-1430.1629832366002 -458.6122176827546 -942.9593679630146 -120.51537171477314 0.0 0.0
-1430.1629832371036 -458.61221768324305 -942.9593679634434 120.5153717147748 0.0 0.0
-1344.1907693258768 -351.5008514709559 -846.2862187918814 122.60177001353026 0.0 0.0
-1259.2016873932216 -267.8241271939935 -761.9523510771371 124.27388594833198 0.0 0.0
-1184.7065305176782 -205.50078452149756 -693.5294372945739 121.99954598122602 0.0 0.0
-1119.9748162915344 -159.40144479201334 -638.0073824801588 117.72183506012826 0.0 0.0
-1061.4353398602068 -124.18028137560134 -590.9950357104773 114.74899694415112 0.0 0.0
-1007.1765784409688 -98.00543232651299 -550.6388388261727 114.54191172981339 0.0 0.0
-954.9245040729618 -77.72473044235207 -514.1559676717422 116.85282581179882 0.0 0.0
-901.5297196327931 -60.08065506285425 -478.25805925974845 120.29756394701633 0.0 0.0
-844.9663027812431 -43.34713729417553 -441.0239855945274 123.57537934447808 0.0 0.0
-784.5113002636987 -27.634922136837968 -401.9506413846615 125.73220546687389 0.0 0.0
-718.9471348124121 -13.077035655648864 -359.46938839723396 126.0690240423396 0.0 0.0
-644.2320026801551 1.6390153218831571 -306.9876303178775 124.90256149490058 0.0 0.0
-554.1229830041777 16.00392806290067 -235.10740336089222 126.89174695405313 0.0 0.0
-443.03944891053357 27.239646117231956 -152.6298876059172 139.67013754760723 0.0 0.0
-329.2467959097577 27.670015902165588 -95.03738940177281 154.2744375738267 0.0 0.0
-241.6614752027113 18.78695197075992 -67.28392860574644 161.4760826070484 0.0 0.0
-172.60332253096126 3.17650093039337 -50.865698809345524 168.091524088352 0.0 0.0
-104.25362146618639 -36.55540586287062 -42.2427081987171 159.43930746088634 0.0 0.0
-32.53738914567215 -98.52089208452827 -39.317484369060125 91.13421720239407 0.0 0.0
-33.42002559301896 -65.38423440530238 -29.6412779994964 -73.91145489889975 0.0 0.0
-113.71986350508509 -29.231567193547747 -42.88542920958985 -139.2482598885999 0.0 0.0
-198.86293192839685 2.433657666562083 -58.92659517272993 -149.76249025435112 0.0 0.0
-285.20677326104817 17.39289903774621 -80.9412015882278 -140.98713508080095 0.0 0.0
-389.647713152921 30.039676521107832 -116.9452018636508 -127.71566897666747 0.0 0.0
-505.088763713241 27.21486025829537 -187.7416393239401 -108.15946184301235 0.0 0.0
-604.787285163895 16.283422323219213 -269.5065785002811 -100.5732965298629 0.0 0.0
-687.8808085128817 1.0906769736620134 -333.7835902556775 -102.40160060715313 0.0 0.0
-761.2191636276624 -14.705987561634345 -382.94779224956767 -105.12817658183029 0.0 0.0
-829.5485577674938 -32.56722945855489 -427.5616971551133 -105.58285499928513 0.0 0.0
-894.3015022035302 -52.51978641984991 -470.6501446381425 -103.9782091461252 0.0 0.0
-955.5267693980322 -73.68202161439339 -512.3210579555548 -101.32532463410283 0.0 0.0
-1013.5262503629173 -95.32412744137488 -552.483520871135 -98.39306167859033 0.0 0.0
-1069.8015601607126 -118.80455182837528 -592.5498786164906 -95.9434448228411 0.0 0.0
-1129.2702353490213 -148.7784236401368 -637.334608903776 -95.41989429421606 0.0 0.0
-1197.6124887569422 -191.5937084045696 -692.9471265272646 -97.53107943176968 0.0 0.0
-1276.9134822240476 -250.85981595388841 -762.2661787769752 -100.93699370223814 0.0 0.0
-1365.8911970169884 -327.0303882574659 -844.8796594649134 -103.17436488541122 0.0 0.0
-1455.6098224915404 -415.7779547534025 -934.1733191293156 -103.3626970037287 0.0 0.0
-1533.4836769794874 -513.8526147364558 -1022.2958797916464 -104.8056793948475 0.0 0.0
-1533.4836769798312 -513.8526147368796 -1022.295879791968 104.80567939510242 0.0 0.0
-1455.6098224916977 -415.7779547537205 -934.1733191296585 103.36269700401928 0.0 0.0
-1365.891197016443 -327.03038825697814 -844.8796594646658 103.1743648854279 0.0 0.0
-1276.913482224932 -250.85981595483366 -762.2661787776617 100.93699370213213 0.0 0.0
-1197.6124887577578 -191.5937084054314 -692.9471265278985 97.53107943158034 0.0 0.0
-1129.270235350149 -148.7784236413793 -637.3346089046136 95.41989429408056 0.0 0.0
-1069.801560160745 -118.80455182869112 -592.549878616477 95.94344482316455 0.0 0.0
-1013.5262503621002 -95.32412744079686 -552.4835208705692 98.39306167858116 0.0 0.0
-955.5267693979946 -73.68202161454994 -512.3210579555084 101.32532463404904 0.0 0.0
-894.3015022042889 -52.51978642097461 -470.6501446387319 103.97820914623905 0.0 0.0
-829.5485577673053 -32.56722945863216 -427.56169715498834 105.58285499923625 0.0 0.0
-761.2191636281677 -14.705987562535412 -382.94779224982665 105.1281765819709 0.0 0.0
-687.8808085128451 1.090676973259356 -333.78359025567585 102.40160060726163 0.0 0.0
-604.787285163946 16.283422322735596 -269.5065785002043 100.57329652991164 0.0 0.0
-505.08876371299857 27.214860258165174 -187.74163932369095 108.15946184289109 0.0 0.0
-389.64771315253665 30.0396765210379 -116.94520186349325 127.71566897662812 0.0 0.0
-285.2067732606756 17.392899038027654 -80.94120158804219 140.9871350807253 0.0 0.0
-198.86293192815057 2.433657666663394 -58.926595172626506 149.76249025416695 0.0 0.0
-113.71986350507389 -29.23156719345754 -42.885429209559426 139.24825988848033 0.0 0.0
-33.42002559285049 -65.38423440515126 -29.641277999400522 73.91145489892111 0.0 0.0
-34.025344409912464 -38.19808217951743 -21.667027976828965 -56.17536091061355 0.0 0.0
-122.08944557171458 -21.141432756271136 -42.969263498395705 -115.47438076695218 0.0 0.0
-223.6257125462746 1.3525760263158206 -66.6811804718985 -126.81703912172577 0.0 0.0
-328.03230146921106 16.739876174046547 -94.24782219412423 -116.81323402620944 0.0 0.0
-444.8524410162376 30.444706017215182 -140.8224681777484 -97.72554967534403 0.0 0.0
-553.0774547694554 26.641161240335578 -219.75989667484873 -79.50698411497193 0.0 0.0
-642.3853736156077 15.817659982354712 -296.00658361703677 -76.71134479697469 0.0 0.0
-721.888508485778 1.7112500224329636 -353.1066235700292 -80.45983931097652 0.0 0.0
-796.3501641813893 -16.00818474200605 -402.02640736684117 -83.79527052159666 0.0 0.0
-867.9964622742675 -37.471243734496966 -449.6517105329477 -84.65396041599828 0.0 0.0
-936.8648916483436 -61.4029609673303 -496.6475419010764 -83.59168276135917 0.0 0.0
-1002.9420169937661 -87.03783946438213 -542.9081679223057 -81.64029998825066 0.0 0.0
-1066.011223753749 -113.39947602980567 -587.922042729131 -79.34848792989067 0.0 0.0
-1127.3572783560799 -141.06571778798616 -632.6125080918418 -77.0050111506465 0.0 0.0
-1191.1882206298055 -174.25691145167383 -681.1588333622229 -75.46908547787096 0.0 0.0
-1265.98601324481 -222.50475857245573 -742.629080507194 -76.05521779435277 0.0 0.0
-1357.785563640716 -292.9082838675462 -823.7258988810661 -78.92752316281032 0.0 0.0
-1458.9974566330716 -380.7896644233755 -918.3343874416056 -82.49716448114759 0.0 0.0
-1556.496890947273 -477.509896732915 -1015.5299291063352 -86.11546492636562 0.0 0.0
-1632.4255044233669 -573.0229045682496 -1101.4001616020048 -92.26729810845329 0.0 0.0
-1632.4255044249562 -573.0229045698806 -1101.4001616031271 92.26729810860235 0.0 0.0
-1556.496890948791 -477.5098967346208 -1015.5299291071262 86.11546492676615 0.0 0.0
-1458.9974566339488 -380.78966442439327 -918.3343874420075 82.4971644813068 0.0 0.0
-1357.785563641919 -292.9082838688712 -823.725898881809 78.92752316285569 0.0 0.0
-1265.9860132442702 -222.5047585720501 -742.6290805065502 76.05521779435989 0.0 0.0
-1191.1882206277648 -174.25691144974274 -681.1588333605671 75.46908547766756 0.0 0.0
-1127.3572783561226 -141.06571778828038 -632.6125080918844 77.0050111508936 0.0 0.0
-1066.0112237546475 -113.39947603091697 -587.922042729725 79.34848792990464 0.0 0.0
-1002.9420169939268 -87.0378394647963 -542.9081679223854 81.64029998822247 0.0 0.0
-936.8648916479863 -61.40296096726582 -496.64754190080004 83.59168276148537 0.0 0.0
-867.996462273602 -37.47124373404084 -449.6517105325068 84.6539604157994 0.0 0.0
-796.3501641802973 -16.00818474115824 -402.0264073662157 83.79527052153453 0.0 0.0
-721.888508484711 1.711250023236552 -353.1066235693635 80.45983931088726 0.0 0.0
-642.3853736143877 15.817659983269117 -296.00658361622067 76.71134479696931 0.0 0.0
-553.0774547689308 26.641161240510595 -219.75989667444458 79.50698411492918 0.0 0.0
-444.8524410154706 30.44470601764263 -140.8224681773051 97.72554967536215 0.0 0.0
-328.0323014689359 16.739876174077533 -94.24782219404872 116.81323402621119 0.0 0.0
-223.62571254614363 1.352576026148152 -66.68118047191041 126.81703912152153 0.0 0.0
-122.08944557170283 -21.14143275640031 -42.969263498430934 115.47438076671305 0.0 0.0
-34.02534440973599 -38.19808217943303 -21.667027976750703 56.17536091050252 0.0 0.0
-33.77600597278668 -17.452410508406174 -15.368524944357855 -38.043821354092 0.0 0.0
-128.6370942625463 -12.811858056917568 -42.43468569583916 -88.37170370643236 0.0 0.0
-247.56224005064206 -0.11066420480839945 -74.30187127663513 -99.2594849762355 0.0 0.0
-370.92746792058415 17.518046311850565 -107.56864324036542 -88.66072965976878 0.0 0.0
-492.0273435271743 29.11591000890042 -166.17638214223766 -66.93026007704387 0.0 0.0
-590.3180211284938 25.255138973545677 -248.14483708031685 -54.272173983646475 0.0 0.0
-672.508572203849 15.887460165930591 -316.21589318113126 -54.42129020456351 0.0 0.0
-749.5612708704338 2.7862399065265606 -367.9628578286072 -58.44545280313871 0.0 0.0
-825.8818653856149 -17.360352281741 -418.0355122347217 -61.824209636482685 0.0 0.0
-900.93774723007 -42.16340637657365 -468.7791285294538 -62.96033803375675 0.0 0.0
-974.0962487301624 -70.02584321549239 -519.7890272286711 -62.40895385818575 0.0 0.0
-1044.937760280376 -100.06391524197483 -570.5765099083981 -61.135311565891925 0.0 0.0
-1113.8456348639352 -131.60873431092512 -621.0561744391084 -59.60519219460628 0.0 0.0
-1181.2746158477594 -165.0606212732893 -671.6684532990291 -57.61575707307128 0.0 0.0
-1249.8769859031731 -202.46765314257 -724.7303498205093 -55.32116504185358 0.0 0.0
-1327.0048269471235 -251.9093421991626 -787.9435105838356 -54.10540596668734 0.0 0.0
-1422.8221322276377 -325.38394501269363 -872.5043255186963 -56.09124484074676 0.0 0.0
-1539.9193571978421 -428.3254934510636 -982.5775436632559 -61.55627459264677 0.0 0.0
-1650.583511107242 -537.5833632671015 -1092.6475479907217 -69.62671681472642 0.0 0.0
-1735.3674502698886 -640.7307109770361 -1186.7617051731545 -81.46148926068827 0.0 0.0
-1735.367450271604 -640.7307109788258 -1186.761705174352 81.46148926077075 0.0 0.0
-1650.5835111075576 -537.5833632674853 -1092.6475479910425 69.62671681479947 0.0 0.0
-1539.9193571971816 -428.3254934504788 -982.5775436628182 61.55627459275415 0.0 0.0
-1422.8221322266932 -325.3839450118603 -872.5043255179917 56.09124484070685 0.0 0.0
-1327.0048269465453 -251.909342198673 -787.9435105834987 54.105405966489826 0.0 0.0
-1249.8769859039976 -202.46765314353763 -724.7303498212631 55.32116504175921 0.0 0.0
-1181.274615848859 -165.06062127461928 -671.668453299798 57.61575707325046 0.0 0.0
-1113.8456348639131 -131.60873431112296 -621.0561744389574 59.605192194639514 0.0 0.0
-1044.9377602793868 -100.06391524120448 -570.5765099076344 61.13531156582232 0.0 0.0
-974.0962487299821 -70.02584321557728 -519.7890272285202 62.408953858184205 0.0 0.0
-900.937747229977 -42.163406376736546 -468.7791285293514 62.96033803362721 0.0 0.0
-825.8818653851205 -17.360352281583033 -418.0355122343981 61.82420963653777 0.0 0.0
-749.5612708701856 2.7862399065060828 -367.96285782848196 58.445452803037185 0.0 0.0
-672.5085722030194 15.887460166491053 -316.2158931805675 54.421290204346235 0.0 0.0
-590.3180211284451 25.25513897325999 -248.14483708014882 54.27217398345485 0.0 0.0
-492.0273435269494 29.11591000870057 -166.17638214207187 66.93026007703595 0.0 0.0
-370.9274679202532 17.518046311876862 -107.5686432402647 88.66072965985244 0.0 0.0
-247.56224005038717 -0.11066420477237626 -74.30187127654787 99.25948497626112 0.0 0.0
-128.63709426238245 -12.811858056883942 -42.434685695779905 88.37170370639392 0.0 0.0
-33.7760059727281 -17.452410508351328 -15.368524944323829 38.04382135422865 0.0 0.0
-31.336334496088273 -3.56032042962161 -10.468996477712963 -20.030625768424198 0.0 0.0
-131.6587348958389 -4.926884734603062 -40.97568588913259 -57.894470135044784 0.0 0.0
-271.19441829980525 -1.46307128558494 -81.79724687561705 -66.6299708582375 0.0 0.0
-414.26904394218894 19.173654688454377 -122.05176572104392 -56.73832826785495 0.0 0.0
-530.2815056736781 27.402154830889522 -191.48232387147243 -38.35760616655248 0.0 0.0
-618.086962320375 22.885591727962016 -272.0459518859794 -31.457799004838844 0.0 0.0
-696.0714402298051 17.057157534644034 -330.7286773256893 -32.84676091349871 0.0 0.0
-772.4678200608475 3.336571056067868 -380.16051249600116 -36.29472755093529 0.0 0.0
-850.3507851659776 -18.487187299728078 -431.25260563821246 -39.207124174044516 0.0 0.0
-929.0223455601958 -46.59229252669968 -485.28245133737744 -40.459304896766724 0.0 0.0
-1006.6170803319059 -78.41781565100419 -540.4233020977007 -40.41780572539538 0.0 0.0
-1082.6002942558912 -112.7589365744168 -595.8840294474908 -39.811195443143916 0.0 0.0
-1157.3394292104194 -149.87601092810712 -652.022780589311 -38.91799054171455 0.0 0.0
-1231.918733908971 -189.90511119932995 -709.4723961310608 -37.573604580160726 0.0 0.0
-1307.1877271316762 -233.62849364054318 -769.0514723160161 -35.42883152647787 0.0 0.0
-1385.2857646169418 -283.7409743581218 -833.149589202433 -32.89746801556985 0.0 0.0
-1474.7165335290906 -350.10279917488515 -910.9310205531797 -32.744525315408296 0.0 0.0
-1590.039728136986 -449.86967801998014 -1018.3788286881979 -38.95101955289313 0.0 0.0
-1747.036209390878 -603.4032973147358 -1173.7840552147634 -52.305374571823144 0.0 0.0
-1851.5512293711581 -724.2311444891078 -1286.6292654836454 -71.34696468768767 0.0 0.0
-1851.5512293714091 -724.2311444893686 -1286.6292654837916 71.34696468762016 0.0 0.0
-1747.0362093900933 -603.4032973140287 -1173.7840552141815 52.305374572023595 0.0 0.0
-1590.0397281358828 -449.8696780189442 -1018.3788286872357 38.95101955277988 0.0 0.0
-1474.7165335301995 -350.1027991761103 -910.931020553819 32.744525315307804 0.0 0.0
-1385.2857646154985 -283.74097435679784 -833.1495892013926 32.897468015592054 0.0 0.0
-1307.1877271273506 -233.62849363635405 -769.0514723130998 35.42883152631166 0.0 0.0
-1231.9187339063174 -189.90511119682418 -709.4723961292639 37.5736045800142 0.0 0.0
-1157.3394292098812 -149.87601092780812 -652.022780588901 38.917990541926656 0.0 0.0
-1082.600294255643 -112.7589365744306 -595.8840294473455 39.81119544318039 0.0 0.0
-1006.6170803323545 -78.41781565171856 -540.4233020979494 40.417805725410346 0.0 0.0
-929.0223455591148 -46.592292525877866 -485.2824513366811 40.45930489670437 0.0 0.0
-850.3507851655967 -18.48718729966231 -431.2526056379856 39.207124174023065 0.0 0.0
-772.4678200603157 3.3365710563375472 -380.16051249562867 36.294727550689046 0.0 0.0
-696.0714402299583 17.057157534148935 -330.72867732574053 32.84676091358274 0.0 0.0
-618.0869623195756 22.885591728438328 -272.0459518854238 31.457799004863084 0.0 0.0
-530.2815056727563 27.40215483159426 -191.4823238708248 38.357606166337064 0.0 0.0
-414.26904394156634 19.173654688677136 -122.0517657207756 56.73832826776121 0.0 0.0
-271.1944182996421 -1.4630712856613965 -81.79724687559103 66.62997085813073 0.0 0.0
-131.65873489561247 -4.926884734713411 -40.97568588909776 57.89447013486544 0.0 0.0
-31.33633449606232 -3.5603204296215427 -10.468996477705158 20.030625768236316 0.0 0.0
-24.129560953052042 3.170443424620731 -6.287735258529391 -3.4423998072971798 0.0 0.0
-127.87122299176127 1.6011586114430134 -37.88101931409548 -23.414642851895028 0.0 0.0
-296.1731718715148 -1.7045825909752352 -89.36332633874702 -27.88203320930754 0.0 0.0
-453.75708851918614 21.130675121468755 -138.48998186572607 -22.522521607843974 0.0 0.0
-561.7021187968184 25.252891678227385 -216.24703476689086 -12.912503610728297 0.0 0.0
-641.9511995811653 21.677127709585562 -291.2809204411334 -10.59550853435172 0.0 0.0
-715.4523033619873 17.458639912334675 -342.37579337232694 -11.694679131930451 0.0 0.0
-790.903183649359 3.8582361529926743 -389.844549542083 -13.960023453035028 0.0 0.0
-870.4519124946087 -19.557511933616922 -442.1881846867809 -15.962322701897047 0.0 0.0
-952.66876939079 -50.65735598048758 -499.3451388788176 -17.136680809373434 0.0 0.0
-1035.0021658812962 -86.41894286532573 -558.7604496967417 -17.59231587164861 0.0 0.0
-1116.224532207641 -125.63402804522468 -619.2418465502595 -17.58654738972923 0.0 0.0
-1197.0180225043089 -167.9364646941998 -680.9669137776691 -17.33093583842698 0.0 0.0
-1278.6118307080885 -214.33782942141403 -745.0820293681558 -16.69885728170488 0.0 0.0
-1361.544166037459 -265.52321191669074 -812.222445278473 -15.429574091415926 0.0 0.0
-1444.8434586379435 -320.90398266489524 -881.6136372958765 -13.324256978040033 0.0 0.0
-1527.4572868507241 -380.315872537269 -952.6124972034124 -11.222414795065385 0.0 0.0
-1617.7998077281977 -453.83005304995805 -1034.397761895853 -13.934951188547897 0.0 0.0
-1749.4518115766516 -578.5227436409145 -1162.372736033474 -29.939688503644017 0.0 0.0
-2058.4620005563474 -898.6973904849159 -1477.3206445283513 -59.501218324206 0.0 0.0
-2058.46200055578 -898.6973904843849 -1477.3206445279952 59.50121832425971 0.0 0.0
-1749.4518115741225 -578.5227436384002 -1162.3727360316238 29.939688503567723 0.0 0.0
-1617.7998077269858 -453.8300530488199 -1034.3977618947279 13.934951188564913 0.0 0.0
-1527.4572868500572 -380.3158725367236 -952.6124972028491 11.222414795031991 0.0 0.0
-1444.8434586382493 -320.9039826653599 -881.6136372960698 13.324256978366527 0.0 0.0
-1361.5441660361705 -265.5232119155526 -812.2224452773831 15.429574091384804 0.0 0.0
-1278.6118307082213 -214.3378294217369 -745.0820293680905 16.698857281684663 0.0 0.0
-1197.018022505573 -167.93646469571684 -680.9669137785846 17.33093583870108 0.0 0.0
-1116.2245322076337 -125.63402804547505 -619.2418465502274 17.586547389725077 0.0 0.0
-1035.00216588049 -86.41894286478178 -558.7604496962477 17.59231587160812 0.0 0.0
-952.6687693892424 -50.65735597921173 -499.345138877773 17.13668080923415 0.0 0.0
-870.4519124951087 -19.55751193441796 -442.1881846870196 15.962322701820167 0.0 0.0
-790.9031836497155 3.8582361523009467 -389.8445495422814 13.960023453060758 0.0 0.0
-715.4523033611275 17.458639912888785 -342.3757933718047 11.694679131842147 0.0 0.0
-641.951199581139 21.67712770928796 -291.28092044106666 10.595508534435252 0.0 0.0
-561.702118797026 25.252891677594377 -216.2470347669326 12.912503610729098 0.0 0.0
-453.75708851907757 21.130675121072027 -138.48998186573965 22.522521607807512 0.0 0.0
-296.1731718713292 -1.704582591090869 -89.363326338726 27.88203320907696 0.0 0.0
-127.87122299150313 1.6011586114804448 -37.88101931400681 23.414642851809624 0.0 0.0
-24.129560952924066 3.17044342466223 -6.287735258478552 3.44239980730572 0.0 0.0
SCALARS Strain float 6
LOOKUP_TABLE default
0.013809452928246643 -0.01488194773339846 0.0 -0.00832549478215644 0.0 0.0
0.0028427503295214984 -0.0019820423150389566 0.0 0.0014177279857493508 0.0 0.0
0.0019328313322879882 -0.0008071016088458949 0.0 -3.3243656523740395e-05 0.0 0.0
0.0026063466652244127 -0.001362686157500237 0.0 -0.00026545410104522604 0.0 0.0
0.004483796254930509 -0.0029673125756395358 0.0 -0.0003610037097918628 0.0 0.0
0.0083282710974967 -0.006511745806602631 0.0 -0.000590348142262942 0.0 0.0
0.014640232616518041 -0.012562047708716495 0.0 -0.000986791493328032 0.0 0.0
0.023857264398484145 -0.02150437503346181 0.0 -0.0016150739876626963 0.0 0.0
0.03618481301391836 -0.03352198357277025 0.0 -0.0024929128672047107 0.0 0.0
0.051545419536862695 -0.048542166053418434 0.0 -0.003536550782844816 0.0 0.0
0.06967414301184142 -0.06631487088405841 0.0 -0.004615534981977754 0.0 0.0
0.09024233584606077 -0.08651976608502965 0.0 -0.005660277330647223 0.0 0.0
0.112904283468773 -0.10881274452655632 0.0 -0.0066751664902328645 0.0 0.0
0.13726032053220893 -0.13278982481900847 0.0 -0.007636996075642 0.0 0.0
0.1627431604032209 -0.1578812416476536 0.0 -0.008474504410443062 0.0 0.0
0.1885002363840208 -0.18323979502750465 0.0 -0.009004424001448408 0.0 0.0
0.21335767065817848 -0.20770534929670426 0.0 -0.008954976834968487 0.0 0.0
0.23586711682705425 -0.229840014663802 0.0 -0.008160380235237574 0.0 0.0
0.25431377433736074 -0.24791806443705333 0.0 -0.007284850419487454 0.0 0.0
0.2659881409140824 -0.25895199850564055 0.0 -0.009535322631329946 0.0 0.0
0.26598814091406514 -0.258951998505629 0.0 0.009535322631340937 0.0 0.0
0.2543137743373058 -0.24791806443700537 0.0 0.007284850419521316 0.0 0.0
0.23586711682696165 -0.22984001466372028 0.0 0.008160380235253673 0.0 0.0
0.21335767065806638 -0.20770534929658968 0.0 0.008954976834975259 0.0 0.0
0.18850023638389163 -0.1832397950273723 0.0 0.009004424001437084 0.0 0.0
0.16274316040308773 -0.15788124164752482 0.0 0.00847450441043951 0.0 0.0
0.1372603205320776 -0.13278982481887702 0.0 0.00763699607564261 0.0 0.0
0.11290428346864378 -0.10881274452642353 0.0 0.00667516649023292 0.0 0.0
0.09024233584593638 -0.08651976608490664 0.0 0.005660277330635455 0.0 0.0
0.0696741430117333 -0.06631487088395094 0.0 0.004615534981970315 0.0 0.0
0.05154541953676972 -0.04854216605332562 0.0 0.003536550782831105 0.0 0.0
0.03618481301384674 -0.03352198357269964 0.0 0.002492912867204655 0.0 0.0
0.023857264398431055 -0.021504375033413847 0.0 0.0016150739876580333 0.0 0.0
0.01464023261648284 -0.012562047708684076 0.0 0.0009867914933275879 0.0 0.0
0.00832827109747486 -0.006511745806584868 0.0 0.0005903481422629975 0.0 0.0
0.0044837962549205135 -0.0029673125756330965 0.0 0.0003610037097892538 0.0 0.0
0.0026063466652221923 -0.0013626861574992377 0.0 0.00026545410104528155 0.0 0.0
0.0019328313322875545 -0.0008071016088453398 0.0 3.324365652435102e-05 0.0 0.0
0.0028427503295193612 -0.001982042315036181 0.0 -0.0014177279857466307 0.0 0.0
0.013809452928234656 -0.01488194773338334 0.0 0.008325494782118859 0.0 0.0
0.00998064771708844 -0.01142873411682832 0.0 -0.010220701705886459 0.0 0.0
0.0015083989126605316 -0.0009896885592000082 0.0 0.00012070963910476573 0.0 0.0
0.0016377711436582412 -0.0005694099834583355 0.0 -0.00012382040592606725 0.0 0.0
0.002249214529901289 -0.00110794867688635 0.0 -0.0005382785352289754 0.0 0.0
0.003756917364666233 -0.002340454548168891 0.0 -0.0007918763155039255 0.0 0.0
0.007067973987416869 -0.00533436741155402 0.0 -0.001349074858570054 0.0 0.0
0.012709873918281295 -0.010692561224666441 0.0 -0.0023250724001417367 0.0 0.0
0.02105117984630407 -0.018753550130929497 0.0 -0.0037792890923341593 0.0 0.0
0.03221605055641847 -0.029617323476601953 0.0 -0.005707036540166577 0.0 0.0
0.04607536505394358 -0.04315584684242024 0.0 -0.00791727156671207 0.0 0.0
0.06236431257534997 -0.059115375039258566 0.0 -0.010167228766270908 0.0 0.0
0.08080247784689405 -0.07721988760654508 0.0 -0.01232620849057564 0.0 0.0
0.10111695379352313 -0.0971950743064749 0.0 -0.014438488141343131 0.0 0.0
0.12297309748876391 -0.11870452955394573 0.0 -0.01648274108019554 0.0 0.0
0.14588574974143975 -0.14126253492614183 0.0 -0.018286062978589146 0.0 0.0
0.16913661061070479 -0.16415315804329467 0.0 -0.01949841245863221 0.0 0.0
0.19171273099226702 -0.18636683937327625 0.0 -0.019630637471448775 0.0 0.0
0.2122577303891966 -0.2065435179492372 0.0 -0.018490501516684743 0.0 0.0
0.22886756880487807 -0.22272465943253383 0.0 -0.016657194425568567 0.0 0.0
0.2388709438595194 -0.23240051856835287 0.0 -0.013989891915730412 0.0 0.0
0.23887094385950228 -0.23240051856833333 0.0 0.013989891915762387 0.0 0.0
0.22886756880482825 -0.22272465943248232 0.0 0.01665719442562219 0.0 0.0
0.21225773038911455 -0.20654351794915904 0.0 0.018490501516722713 0.0 0.0
0.19171273099216968 -0.18636683937318654 0.0 0.019630637471465873 0.0 0.0
0.16913661061058993 -0.1641531580431943 0.0 0.019498412458622827 0.0 0.0
0.14588574974132112 -0.14126253492602903 0.0 0.018286062978580153 0.0 0.0
0.12297309748864621 -0.1187045295538276 0.0 0.016482741080192875 0.0 0.0
0.10111695379340646 -0.09719507430635899 0.0 0.014438488141340189 0.0 0.0
0.08080247784678357 -0.07721988760643184 0.0 0.01232620849055599 0.0 0.0
0.06236431257525232 -0.05911537503915998 0.0 0.010167228766256753 0.0 0.0
0.04607536505386145 -0.04315584684233942 0.0 0.007917271566690642 0.0 0.0
0.03221605055635329 -0.029617323476542 0.0 0.00570703654015825 0.0 0.0
0.02105117984625582 -0.018753550130882424 0.0 0.0037792890923209477 0.0 0.0
0.012709873918250458 -0.010692561224634245 0.0 0.00232507240013452 0.0 0.0
0.007067973987397891 -0.005334367411538032 0.0 0.0013490748585651136 0.0 0.0
0.0037569173646580523 -0.0023404545481624517 0.0 0.0007918763155013719 0.0 0.0
0.0022492145298997346 -0.0011079486768843516 0.0 0.0005382785352296415 0.0 0.0
0.001637771143658262 -0.0005694099834591126 0.0 0.00012382040592562316 0.0 0.0
0.0015083989126604136 -0.0009896885591989535 0.0 -0.00012070963910831845 0.0 0.0
0.009980647717073632 -0.011428734116812094 0.0 0.01022070170585504 0.0 0.0
0.007486259246855129 -0.009125458832416111 0.0 -0.00954653178309317 0.0 0.0
0.000875494334313387 -0.0006507813185054889 0.0 -0.0006261282670989021 0.0 0.0
0.0013064238522647459 -0.00041052134331742707 0.0 -0.0004494164503718867 0.0 0.0
0.001916557436033764 -0.0008750871493623524 0.0 -0.0007841660497309721 0.0 0.0
0.0031087510196961265 -0.0018096237700260254 0.0 -0.001138411161826669 0.0 0.0
0.005861224706453713 -0.004229496210855999 0.0 -0.0019042574006037372 0.0 0.0
0.01079524359532659 -0.00885044568474136 0.0 -0.003316929531039514 0.0 0.0
0.01820909053104311 -0.01598060577989413 0.0 -0.005434690537154452 0.0 0.0
0.02816542498717471 -0.025644123514555694 0.0 -0.00817917988863226 0.0 0.0
0.04049361973177143 -0.03767205188185052 0.0 -0.011280975789190517 0.0 0.0
0.05493183873144275 -0.05180682968610828 0.0 -0.014438700156314821 0.0 0.0
0.07123591452914152 -0.06780533906429209 0.0 -0.017485906898962067 0.0 0.0
0.08918493698532429 -0.08544546673884934 0.0 -0.020449058825273425 0.0 0.0
0.10851851821733333 -0.1044661817071404 0.0 -0.023329675453766296 0.0 0.0
0.1288532573552274 -0.12448427983914101 0.0 -0.025918526986228485 0.0 0.0
0.1496124821545748 -0.14492057620137277 0.0 -0.027746835386059487 0.0 0.0
0.169935151435241 -0.16490758097363223 0.0 -0.028239863766706508 0.0 0.0
0.18853053740786407 -0.18313795525288512 0.0 -0.027036766428130576 0.0 0.0
0.20353977621109978 -0.19779018690099992 0.0 -0.02366263940609037 0.0 0.0
0.21288070336695436 -0.20686876777695318 0.0 -0.01702072244754893 0.0 0.0
0.21288070336693798 -0.2068687677769434 0.0 0.017020722447600112 0.0 0.0
0.20353977621105515 -0.1977901869009564 0.0 0.02366263940616009 0.0 0.0
0.18853053740779258 -0.18313795525280074 0.0 0.027036766428180536 0.0 0.0
0.1699351514351543 -0.1649075809735212 0.0 0.02823986376672183 0.0 0.0
0.14961248215447487 -0.14492057620126886 0.0 0.027746835386050384 0.0 0.0
0.12885325735512282 -0.12448427983903176 0.0 0.02591852698622321 0.0 0.0
0.10851851821722919 -0.10446618170703026 0.0 0.023329675453760856 0.0 0.0
0.08918493698522051 -0.08544546673875075 0.0 0.020449058825266375 0.0 0.0
0.07123591452904454 -0.06780533906419706 0.0 0.017485906898938253 0.0 0.0
0.0549318387313566 -0.05180682968602035 0.0 0.01443870015629689 0.0 0.0
0.040493619731699515 -0.03767205188177458 0.0 0.011280975789164649 0.0 0.0
0.02816542498711677 -0.025644123514493078 0.0 0.008179179888618493 0.0 0.0
0.018209090531000616 -0.015980605779851498 0.0 0.005434690537142739 0.0 0.0
0.010795243595299209 -0.008850445684715824 0.0 0.003316929531033186 0.0 0.0
0.005861224706438073 -0.004229496210841344 0.0 0.0019042574005975754 0.0 0.0
0.003108751019690048 -0.001809623770019364 0.0 0.0011384111618234494 0.0 0.0
0.001916557436033084 -0.000875087149360243 0.0 0.000784166049730084 0.0 0.0
0.0013064238522648708 -0.000410521343317094 0.0 0.0004494164503714426 0.0 0.0
0.0008754943343135535 -0.0006507813185023803 0.0 0.0006261282670962376 0.0 0.0
0.007486259246841098 -0.009125458832400787 0.0 0.009546531783068024 0.0 0.0
0.005716520884636325 -0.0073824614897766705 0.0 -0.008149023746509054 0.0 0.0
0.0005445553644663481 -0.0004841193404625521 0.0 -0.0012419431008682813 0.0 0.0
0.001010596136664349 -0.0002986755106636485 0.0 -0.0008958639380298727 0.0 0.0
0.001605232742741089 -0.0006828501214037885 0.0 -0.001058104450600894 0.0 0.0
0.0025371940407164784 -0.0013757511315237725 0.0 -0.0014304036774932527 0.0 0.0
0.004745194120749557 -0.003238279975370073 0.0 -0.0022832480792231435 0.0 0.0
0.008916286438278631 -0.007070494319755483 0.0 -0.003972750201565511 0.0 0.0
0.01536697200154477 -0.01322111940598214 0.0 -0.00657522583102832 0.0 0.0
0.024076792156957433 -0.021648928318917626 0.0 -0.009900955322038607 0.0 0.0
0.03484896676156675 -0.03214047276024923 0.0 -0.013635840545726696 0.0 0.0
0.047422199398211864 -0.04443537447180157 0.0 -0.017434614977383522 0.0 0.0
0.061582423538917616 -0.058317829504675345 0.0 -0.021126442876101603 0.0 0.0
0.07715833622349079 -0.07361556054649299 0.0 -0.024730590187645896 0.0 0.0
0.09395580222764977 -0.09013348944142408 0.0 -0.02819881490472359 0.0 0.0
0.1116916140493999 -0.1075906415601171 0.0 -0.031333833182890625 0.0 0.0
0.12993500326859142 -0.1255491479868427 0.0 -0.033711234360868536 0.0 0.0
0.14798090709095418 -0.14328826868721922 0.0 -0.03467974626871673 0.0 0.0
0.16468618367406246 -0.15966508719187722 0.0 -0.033470544962357573 0.0 0.0
0.17844743224401344 -0.17311097840287637 0.0 -0.028887766472716292 0.0 0.0
0.18752302543593757 -0.18195091544673492 0.0 -0.019460104596813133 0.0 0.0
0.1875230254359228 -0.18195091544671804 0.0 0.019460104596877192 0.0 0.0
0.17844743224397322 -0.17311097840283018 0.0 0.02888776647279967 0.0 0.0
0.16468618367400065 -0.15966508719182482 0.0 0.033470544962416415 0.0 0.0
0.1479809070908778 -0.14328826868715527 0.0 0.03467974626873893 0.0 0.0
0.12993500326850654 -0.12554914798675387 0.0 0.03371123436086032 0.0 0.0
0.1116916140493085 -0.10759064156002562 0.0 0.0313338331828783 0.0 0.0
0.09395580222755906 -0.09013348944133615 0.0 0.02819881490471232 0.0 0.0
0.0771583362234009 -0.0736155605464055 0.0 0.024730590187635793 0.0 0.0
0.061582423538833087 -0.05831782950459141 0.0 0.021126442876074125 0.0 0.0
0.04742219939813863 -0.04443537447172696 0.0 0.01743461497736032 0.0 0.0
0.03484896676150401 -0.032140472760187944 0.0 0.013635840545695777 0.0 0.0
0.02407679215690689 -0.021648928318874994 0.0 0.00990095532201618 0.0 0.0
0.015366972001508439 -0.013221119405946169 0.0 0.006575225831011333 0.0 0.0
0.00891628643825465 -0.00707049431973239 0.0 0.003972750201553854 0.0 0.0
0.004745194120737373 -0.0032382799753611913 0.0 0.0022832480792145393 0.0 0.0
0.0025371940407118987 -0.0013757511315228843 0.0 0.0014304036774913098 0.0 0.0
0.0016052327427411028 -0.0006828501214044547 0.0 0.0010581044506006165 0.0 0.0
0.0010105961366642102 -0.0002986755106635375 0.0 0.0008958639380277633 0.0 0.0
0.0005445553644665146 -0.00048411934046183047 0.0 0.0012419431008656723 0.0 0.0
0.005716520884624043 -0.007382461489762874 0.0 0.008149023746489514 0.0 0.0
0.004351848203521025 -0.005955199166720493 0.0 -0.0066936280747970645 0.0 0.0
0.00036211009430582586 -0.00038559377661362415 0.0 -0.0017217637714002643 0.0 0.0
0.0007664387963025876 -0.00022183008695664252 0.0 -0.001348132888765563 0.0 0.0
0.0013149292277223334 -0.0005268980901387277 0.0 -0.0013666026290696798 0.0 0.0
0.002038522593950348 -0.0010316585577274662 0.0 -0.0016925135636665645 0.0 0.0
0.0037393605861728713 -0.0023864250760965433 0.0 -0.0025473861892267857 0.0 0.0
0.007120701321375114 -0.005400624533036691 0.0 -0.0043143954776049265 0.0 0.0
0.012555001282492581 -0.010514316254807365 0.0 -0.007160844650773213 0.0 0.0
0.019992696947411015 -0.017675419328939235 0.0 -0.010867608869690182 0.0 0.0
0.029187608182750166 -0.02660916126578705 0.0 -0.014983190268137714 0.0 0.0
0.03988258830269187 -0.037049832562610074 0.0 -0.019167633907085757 0.0 0.0
0.0518883649449354 -0.04880630193594859 0.0 -0.023245647398974556 0.0 0.0
0.06508253607343854 -0.06175301340752348 0.0 -0.02723482111126707 0.0 0.0
0.07933771420258909 -0.0757619540483283 0.0 -0.031087572658371143 0.0 0.0
0.09445557275246794 -0.09063669375278138 0.0 -0.03457706224125301 0.0 0.0
0.11012916948890894 -0.10606374425833298 0.0 -0.03732812864764945 0.0 0.0
0.12584274648885338 -0.12151364347603888 0.0 -0.03874219158437331 0.0 0.0
0.14071902765183997 -0.1361030552842868 0.0 -0.0377585879072343 0.0 0.0
0.1534486028696292 -0.1485480180839449 0.0 -0.03261288063481005 0.0 0.0
0.16251183828814925 -0.15738082750284832 0.0 -0.02150024508401338 0.0 0.0
0.1625118382881358 -0.15738082750283677 0.0 0.021500245084082326 0.0 0.0
0.15344860286959336 -0.14854801808391027 0.0 0.03261288063489953 0.0 0.0
0.14071902765178676 -0.1361030552842335 0.0 0.03775858790730102 0.0 0.0
0.12584274648878835 -0.12151364347597138 0.0 0.03874219158439951 0.0 0.0
0.11012916948883655 -0.10606374425825571 0.0 0.0373281286476439 0.0 0.0
0.09445557275238986 -0.09063669375270234 0.0 0.03457706224123491 0.0 0.0
0.07933771420251268 -0.07576195404825459 0.0 0.031087572658359708 0.0 0.0
0.06508253607336306 -0.06175301340743955 0.0 0.027234821111256302 0.0 0.0
0.05188836494486343 -0.04880630193587132 0.0 0.023245647398950187 0.0 0.0
0.03988258830263075 -0.03704983256254657 0.0 0.01916763390705678 0.0 0.0
0.029187608182696778 -0.026609161265737757 0.0 0.014983190268103352 0.0 0.0
0.01999269694736855 -0.01767541932889438 0.0 0.010867608869668866 0.0 0.0
0.012555001282461564 -0.010514316254772726 0.0 0.007160844650754505 0.0 0.0
0.007120701321355838 -0.0054006245330198155 0.0 0.004314395477590605 0.0 0.0
0.00373936058616392 -0.0023864250760865513 0.0 0.002547386189218348 0.0 0.0
0.0020385225939473783 -0.0010316585577230253 0.0 0.0016925135636651212 0.0 0.0
0.0013149292277219726 -0.0005268980901340647 0.0 0.001366602629068292 0.0 0.0
0.0007664387963025598 -0.0002218300869555323 0.0 0.0013481328887634536 0.0 0.0
0.000362110094305923 -0.00038559377661223637 0.0 0.001721763771399154 0.0 0.0
0.004351848203510422 -0.005955199166709044 0.0 0.006693628074781077 0.0 0.0
0.003263066538611692 -0.004753293770124567 0.0 -0.0054059834272933704 0.0 0.0
0.0002531412192392224 -0.0003171712920176928 0.0 -0.0020808985894564813 0.0 0.0
0.0005644102520139666 -0.00016485025515711182 0.0 -0.0017450289993606316 0.0 0.0
0.0010387420445800016 -0.0003955864075855242 0.0 -0.0016822434165989497 0.0 0.0
0.001605944026071407 -0.0007638431349632491 0.0 -0.0019451593597573091 0.0 0.0
0.002844765076774114 -0.0016861673979853276 0.0 -0.002733153453638393 0.0 0.0
0.00545702318885663 -0.0039021673769039644 0.0 -0.004451159002712757 0.0 0.0
0.009826291232315904 -0.007926985431748967 0.0 -0.007273433891006764 0.0 0.0
0.015952539428321783 -0.013769508589355883 0.0 -0.011057327981363718 0.0 0.0
0.023555175021640118 -0.02112686496232863 0.0 -0.01531476435301593 0.0 0.0
0.0323598607352531 -0.029701562580009444 0.0 -0.0196249387296209 0.0 0.0
0.042203439078374955 -0.039323466654323624 0.0 -0.023834654860976023 0.0 0.0
0.0530082500134538 -0.049912434536371286 0.0 -0.02796496765120038 0.0 0.0
0.06471141181785259 -0.061402533900302814 0.0 -0.03195268761643966 0.0 0.0
0.07719408248495782 -0.07367423924728378 0.0 -0.035592771879419116 0.0 0.0
0.09024541962363375 -0.086519035958184 0.0 -0.038557987436817376 0.0 0.0
0.1035465966033392 -0.09960743000058692 0.0 -0.04031324392332247 0.0 0.0
0.11656757519210281 -0.11239152550511022 0.0 -0.03978316850991037 0.0 0.0
0.12836588301785268 -0.12393239565914271 0.0 -0.03484739200532738 0.0 0.0
0.1375973354414752 -0.13292356132704608 0.0 -0.02319930915541124 0.0 0.0
0.13759733544146394 -0.13292356132703098 0.0 0.023199309155483516 0.0 0.0
0.12836588301782223 -0.12393239565910186 0.0 0.03484739200542042 0.0 0.0
0.11656757519205813 -0.11239152550505249 0.0 0.039783168509978095 0.0 0.0
0.10354659660328525 -0.09960743000053629 0.0 0.04031324392335045 0.0 0.0
0.09024541962357324 -0.08651903595812716 0.0 0.03855798743681338 0.0 0.0
0.07719408248489307 -0.07367423924721983 0.0 0.03559277187940402 0.0 0.0
0.06471141181779028 -0.06140253390022998 0.0 0.03195268761642467 0.0 0.0
0.053008250013393265 -0.04991243453631178 0.0 0.027964967651183503 0.0 0.0
0.042203439078316474 -0.03932346665426989 0.0 0.023834654860949933 0.0 0.0
0.03235986073520247 -0.02970156257995793 0.0 0.019624938729593033 0.0 0.0
0.02355517502159632 -0.021126864962285108 0.0 0.015314764352981736 0.0 0.0
0.015952539428287338 -0.013769508589327906 0.0 0.011057327981337961 0.0 0.0
0.009826291232291007 -0.007926985431728983 0.0 0.007273433890988001 0.0 0.0
0.005457023188842003 -0.003902167376890864 0.0 0.004451159002702487 0.0 0.0
0.002844765076767397 -0.0016861673979791103 0.0 0.002733153453632231 0.0 0.0
0.0016059440260700053 -0.0007638431349605845 0.0 0.001945159359754034 0.0 0.0
0.0010387420445793771 -0.00039558640758663444 0.0 0.0016822434165979505 0.0 0.0
0.0005644102520137584 -0.00016485025515711182 0.0 0.0017450289993566903 0.0 0.0
0.0002531412192389171 -0.0003171712920173597 0.0 0.0020808985894534837 0.0 0.0
0.003263066538603643 -0.004753293770114752 0.0 0.005405983427281658 0.0 0.0
0.0023884738882403167 -0.0037329099449425196 0.0 -0.004331354494043038 0.0 0.0
0.0001795361977232901 -0.0002648516045629101 0.0 -0.0023351258348568438 0.0 0.0
0.00038934361758594105 -0.00011646394532904836 0.0 -0.002061623598034912 0.0 0.0
0.0007699099768672113 -0.00027642244996073373 0.0 -0.0019792165965433206 0.0 0.0
0.0012198616058267664 -0.0005511401233841973 0.0 -0.0022007043152946215 0.0 0.0
0.002067552517149268 -0.0011315027724594362 0.0 -0.0028550252392435804 0.0 0.0
0.003943146725707364 -0.0026104379445821557 0.0 -0.004384670586380202 0.0 0.0
0.007248631347521628 -0.0055359378475525745 0.0 -0.006987261172093029 0.0 0.0
0.012015334166508684 -0.010005703671596144 0.0 -0.010525238818565708 0.0 0.0
0.017996524556177895 -0.015747548514221332 0.0 -0.014605253365135518 0.0 0.0
0.024899834829506973 -0.02244380534819035 0.0 -0.018796392575085252 0.0 0.0
0.03257812211896266 -0.02992690010331156 0.0 -0.022881793018983076 0.0 0.0
0.040987998781298274 -0.038152806493943814 0.0 -0.026886557901297237 0.0 0.0
0.05012701665541139 -0.04711354316326677 0.0 -0.030785205740893273 0.0 0.0
0.059954569886593034 -0.05676340340376296 0.0 -0.03436902491525251 0.0 0.0
0.0703465540781443 -0.06698075883474974 0.0 -0.03730927138854212 0.0 0.0
0.08113553960883152 -0.0776115828746562 0.0 -0.03925767545550174 0.0 0.0
0.09216987779433805 -0.08847393190235575 0.0 -0.03939504011868322 0.0 0.0
0.10299869424494565 -0.09907952192059089 0.0 -0.0354739134508969 0.0 0.0
0.11251802125428384 -0.10833486326970476 0.0 -0.024541221023161364 0.0 0.0
0.11251802125427438 -0.10833486326969854 0.0 0.024541221023230864 0.0 0.0
0.10299869424492139 -0.09907952192056246 0.0 0.035473913450990935 0.0 0.0
0.09216987779430152 -0.088473931902322 0.0 0.03939504011874839 0.0 0.0
0.08113553960878897 -0.07761158287461711 0.0 0.03925767545552994 0.0 0.0
0.07034655407809584 -0.0669807588347 0.0 0.037309271388531906 0.0 0.0
0.0599545698865418 -0.05676340340370789 0.0 0.03436902491523419 0.0 0.0
0.05012701665536301 -0.04711354316321703 0.0 0.03078520574087773 0.0 0.0
0.04098799878125298 -0.038152806493899405 0.0 0.026886557901280472 0.0 0.0
0.03257812211891875 -0.029926900103271148 0.0 0.022881793018957985 0.0 0.0
0.024899834829466838 -0.02244380534815482 0.0 0.01879639257505561 0.0 0.0
0.0179965245561442 -0.015747548514196463 0.0 0.014605253365102211 0.0 0.0
0.012015334166482594 -0.010005703671575272 0.0 0.0105252388185465 0.0 0.0
0.007248631347503753 -0.005535937847530814 0.0 0.006987261172082926 0.0 0.0
0.003943146725696456 -0.0026104379445708314 0.0 0.004384670586371098 0.0 0.0
0.002067552517144522 -0.0011315027724592142 0.0 0.0028550252392377518 0.0 0.0
0.0012198616058256562 -0.0005511401233855295 0.0 0.0022007043152900696 0.0 0.0
0.0007699099768669337 -0.0002764224499616219 0.0 0.0019792165965390462 0.0 0.0
0.0003893436175854692 -0.00011646394532893733 0.0 0.002061623598029305 0.0 0.0
0.00017953619772331786 -0.0002648516045626881 0.0 0.002335125834854068 0.0 0.0
0.002388473888234155 -0.0037329099449353205 0.0 0.004331354494031214 0.0 0.0
0.0016975619824161625 -0.0028809270345900306 0.0 -0.003473287635598843 0.0 0.0
0.00011606916623099761 -0.00022095206302319426 0.0 -0.0024895005536820225 0.0 0.0
0.0002284878914164401 -6.853944485540886e-05 0.0 -0.002297338965487561 0.0 0.0
0.0005054101730047056 -0.00016011350288303028 0.0 -0.002230211147563277 0.0 0.0
0.0008545125405700071 -0.00036778211735732924 0.0 -0.0024438175293398645 0.0 0.0
0.0014010434578524689 -0.0007122663276193375 0.0 -0.002980654558671525 0.0 0.0
0.0026011126310231947 -0.001562452578220519 0.0 -0.004193016976439867 0.0 0.0
0.004866038739852835 -0.003418087666493097 0.0 -0.006349962032327183 0.0 0.0
0.008256644642783584 -0.006481194721266181 0.0 -0.009365642539725272 0.0 0.0
0.012572715605431828 -0.010555681955773721 0.0 -0.012911124280332253 0.0 0.0
0.017553151249567717 -0.015344558239178685 0.0 -0.01664722748374814 0.0 0.0
0.02306155040217231 -0.020683716715105493 0.0 -0.020342720275350556 0.0 0.0
0.029075207070979242 -0.026544118346880197 0.0 -0.02397756963242914 0.0 0.0
0.0356349026896412 -0.03296168217546036 0.0 -0.027528959657968533 0.0 0.0
0.04278203209744308 -0.039968074660926334 0.0 -0.03085655740864668 0.0 0.0
0.05049247203164023 -0.04753336521030338 0.0 -0.033616947174203604 0.0 0.0
0.058693435892555046 -0.05560960360459344 0.0 -0.03547041970945064 0.0 0.0
0.0674979850205267 -0.06432611483409811 0.0 -0.03620790559792375 0.0 0.0
0.07712148181579437 -0.07379350344416657 0.0 -0.03411094581466201 0.0 0.0
0.08696061310311134 -0.0833354810103124 0.0 -0.025419489636419712 0.0 0.0
0.08696061310310393 -0.08333548101030619 0.0 0.025419489636479664 0.0 0.0
0.07712148181577719 -0.0737935034441577 0.0 0.034110945814748606 0.0 0.0
0.06749798502049922 -0.06432611483408124 0.0 0.036207905597984036 0.0 0.0
0.05869343589252296 -0.05560960360455791 0.0 0.03547041970947329 0.0 0.0
0.05049247203160406 -0.04753336521026785 0.0 0.03361694717418706 0.0 0.0
0.0427820320974068 -0.0399680746608988 0.0 0.03085655740862714 0.0 0.0
0.03563490268960773 -0.032961682175429274 0.0 0.027528959657956764 0.0 0.0
0.029075207070949155 -0.026544118346848222 0.0 0.023977569632419815 0.0 0.0
0.02306155040214186 -0.02068371671507485 0.0 0.020342720275333015 0.0 0.0
0.017553151249539045 -0.015344558239147155 0.0 0.016647227483722715 0.0 0.0
0.012572715605408513 -0.010555681955744856 0.0 0.012911124280302833 0.0 0.0
0.008256644642765876 -0.006481194721246641 0.0 0.009365642539706953 0.0 0.0
0.004866038739840761 -0.003418087666483771 0.0 0.006349962032311196 0.0 0.0
0.0026011126310165333 -0.0015624525782169663 0.0 0.00419301697642771 0.0 0.0
0.0014010434578495823 -0.0007122663276173391 0.0 0.002980654558665252 0.0 0.0
0.000854512540569341 -0.00036778211735399857 0.0 0.0024438175293381437 0.0 0.0
0.0005054101730043725 -0.00016011350288080983 0.0 0.002230211147563721 0.0 0.0
0.00022848789141621806 -6.853944485640806e-05 0.0 0.0022973389654868948 0.0 0.0
0.0001160691662306923 -0.0002209520630234163 0.0 0.002489500553681079 0.0 0.0
0.0016975619824117216 -0.002880927034584686 0.0 0.0034732876355918485 0.0 0.0
0.0011749140487581078 -0.0021972106011542425 0.0 -0.0028198232409770707 0.0 0.0
4.5685641602566385e-05 -0.00018302485628041154 0.0 -0.0025644365190769514 0.0 0.0
7.272499742971839e-05 -1.4749116152068531e-05 0.0 -0.0024571734208324036 0.0 0.0
0.0002464967769872095 -4.4815557851629606e-05 0.0 -0.002421770388984057 0.0 0.0
0.0004884187324443734 -0.00019133192810283361 0.0 -0.002650020070634862 0.0 0.0
0.0008125037984093031 -0.0003900994068921637 0.0 -0.0031271955627838466 0.0 0.0
0.0014495399610829074 -0.0007777275906932779 0.0 -0.003976073742575026 0.0 0.0
0.0027206203330733814 -0.0016736050362040622 0.0 -0.005466593611684556 0.0 0.0
0.0047425668533345455 -0.0033296882616804524 0.0 -0.007658809640074704 0.0 0.0
0.0073602035736151095 -0.005686374269413985 0.0 -0.01033266799132071 0.0 0.0
0.010384326326033894 -0.008522667785582083 0.0 -0.013265405881827674 0.0 0.0
0.013701686924028428 -0.011695060803079027 0.0 -0.016270193215500273 0.0 0.0
0.01731586913176858 -0.015184747954133826 0.0 -0.01930230360900298 0.0 0.0
0.021287863030684695 -0.01904950642839154 0.0 -0.02229490208558149 0.0 0.0
0.02571514314889234 -0.023378035407261244 0.0 -0.025170403569008237 0.0 0.0
0.030702204276958106 -0.02825985071182746 0.0 -0.027697867024893297 0.0 0.0
0.03630706906263778 -0.03374777353810732 0.0 -0.0294133648219691 0.0 0.0
0.04267956606220136 -0.04006775462437595 0.0 -0.03025462046448424 0.0 0.0
0.0505334312818036 -0.047922114625955636 0.0 -0.03011706083413901 0.0 0.0
0.060482592946635994 -0.05755805554652138 0.0 -0.025501186507449702 0.0 0.0
0.06048259294663158 -0.05755805554651783 0.0 0.025501186507504325 0.0 0.0
0.05053343128179383 -0.04792211462594054 0.0 0.030117060834218057 0.0 0.0
0.04267956606218254 -0.04006775462435641 0.0 0.03025462046453553 0.0 0.0
0.03630706906261677 -0.03374777353809044 0.0 0.029413364821983312 0.0 0.0
0.03070220427693582 -0.028259850711810586 0.0 0.027697867024878087 0.0 0.0
0.0257151431488718 -0.023378035407241704 0.0 0.025170403568994693 0.0 0.0
0.02128786303066635 -0.019049506428373775 0.0 0.0222949020855725 0.0 0.0
0.017315869131753314 -0.0151847479541245 0.0 0.019302303608994653 0.0 0.0
0.01370168692401108 -0.011695060803066593 0.0 0.016270193215483175 0.0 0.0
0.010384326326017629 -0.008522667785569649 0.0 0.01326540588180547 0.0 0.0
0.007360203573602092 -0.005686374269403327 0.0 0.010332667991298061 0.0 0.0
0.00474256685332472 -0.003329688261672903 0.0 0.007658809640062603 0.0 0.0
0.0027206203330666368 -0.0016736050362005095 0.0 0.0054665936116776725 0.0 0.0
0.0014495399610796045 -0.0007777275906928338 0.0 0.003976073742567587 0.0 0.0
0.0008125037984081651 -0.0003900994068930519 0.0 0.003127195562778129 0.0 0.0
0.0004884187324441236 -0.0001913319281032777 0.0 0.0026500200706325305 0.0 0.0
0.00024649677698723726 -4.481555785385005e-05 0.0 0.0024217703889822806 0.0 0.0
7.272499742930205e-05 -1.4749116153178754e-05 0.0 0.0024571734208302942 0.0 0.0
4.568564160223332e-05 -0.00018302485627957887 0.0 0.002564436519075841 0.0 0.0
0.0011749140487554155 -0.002197210601150492 0.0 0.0028198232409722968 0.0 0.0
0.0007964392965773004 -0.0016649888260633627 0.0 -0.0023308630389102247 0.0 0.0
-3.7022366194489065e-05 -0.00015173214732788765 0.0 -0.002585392976814649 0.0 0.0
-8.263945180000953e-05 4.7892068633204055e-05 0.0 -0.002553477435630669 0.0 0.0
-5.9120270849977175e-06 6.854508396458847e-05 0.0 -0.0025511061376551902 0.0 0.0
0.00011763567127617836 -1.1610792966854078e-05 0.0 -0.002777533323516712 0.0 0.0
0.0002524427794260986 -0.00010863907661828875 0.0 -0.003263678198378861 0.0 0.0
0.00045529681827510826 -0.00022633495722823582 0.0 -0.003914365312406076 0.0 0.0
0.000854117159368728 -0.0004378856375519824 0.0 -0.004673724501036869 0.0 0.0
0.0015266727784412903 -0.0008373283177056656 0.0 -0.005762559925906352 0.0 0.0
0.0024079974170226615 -0.0014623797634736313 0.0 -0.007352081226864038 0.0 0.0
0.003423006957470859 -0.002282499018197548 0.0 -0.009406108758712506 0.0 0.0
0.004517851807693152 -0.003248050591385443 0.0 -0.011720274212396964 0.0 0.0
0.005711860833665955 -0.004346795729965436 0.0 -0.014199139475696732 0.0 0.0
0.007073133484773897 -0.00563586167856478 0.0 -0.0168049289800406 0.0 0.0
0.008741649694301301 -0.007241516338747367 0.0 -0.019482985401703345 0.0 0.0
0.010943608681182493 -0.009371828632644963 0.0 -0.022037355544039183 0.0 0.0
0.013953583163483274 -0.012276529407892589 0.0 -0.023962752574785084 0.0 0.0
0.01797777665898559 -0.016161463579806856 0.0 -0.024593215353556297 0.0 0.0
0.023504609587294473 -0.021749024376747528 0.0 -0.02468236861719597 0.0 0.0
0.03251010722212194 -0.03071202102611359 0.0 -0.024595609389533202 0.0 0.0
0.03251010722212133 -0.030712021026116254 0.0 0.02459560938957206 0.0 0.0
0.02350460958729053 -0.02174902437675641 0.0 0.02468236861725681 0.0 0.0
0.017977776658976513 -0.016161463579797974 0.0 0.024593215353589715 0.0 0.0
0.013953583163475669 -0.012276529407875714 0.0 0.0239627525747933 0.0 0.0
0.010943608681175998 -0.00937182863263164 0.0 0.02203735554402142 0.0 0.0
0.00874164969429636 -0.007241516338735821 0.0 0.019482985401689024 0.0 0.0
0.007073133484770705 -0.005635861678553233 0.0 0.016804928980026723 0.0 0.0
0.0057118608336650945 -0.004346795729960551 0.0 0.01419913947568896 0.0 0.0
0.004517851807690321 -0.003248050591381002 0.0 0.011720274212383308 0.0 0.0
0.0034230069574675837 -0.0022824990181904425 0.0 0.00940610875869563 0.0 0.0
0.002407997417019886 -0.0014623797634665259 0.0 0.007352081226850382 0.0 0.0
0.0015266727784392642 -0.0008373283177012247 0.0 0.005762559925900468 0.0 0.0
0.0008541171593671737 -0.0004378856375479856 0.0 0.004673724501033316 0.0 0.0
0.00045529681827424784 -0.0002263349572266815 0.0 0.00391436531240219 0.0 0.0
0.0002524427794262929 -0.00010863907661828875 0.0 0.003263678198374309 0.0 0.0
0.00011763567127592855 -1.161079296552181e-05 0.0 0.0027775333235134925 0.0 0.0
-5.912027084636895e-06 6.85450839662538e-05 0.0 0.002551106137652359 0.0 0.0
-8.263945180037036e-05 4.789206863486939e-05 0.0 0.002553477435628615 0.0 0.0
-3.702236619476662e-05 -0.00015173214732738804 0.0 0.002585392976813705 0.0 0.0
0.0007964392965754963 -0.001664988826060641 0.0 0.00233086303890806 0.0 0.0
0.0005295738938638772 -0.001275386612817564 0.0 -0.002014521781383727 0.0 0.0
-0.00012492790448875857 -0.00012362215790184816 0.0 -0.0025778901312945024 0.0 0.0
-0.00023741816566844043 0.00011587352503528159 0.0 -0.0025910327914691056 0.0 0.0
-0.0002519988819948138 0.00017944287006810278 0.0 -0.0026090931738976253 0.0 0.0
-0.00025064057649754057 0.0001680730423658794 0.0 -0.002819185374404287 0.0 0.0
-0.0003073493137337735 0.0001692610109500503 0.0 -0.003286459872026748 0.0 0.0
-0.0004785745807016073 0.00024421617792702577 0.0 -0.003930680585990165 0.0 0.0
-0.0008632842823958209 0.00044484840371250556 0.0 -0.00468797178980529 0.0 0.0
-0.001527833759657038 0.0008394917383731659 0.0 -0.005769060173153706 0.0 0.0
-0.0024083065131986214 0.0014650640162248152 0.0 -0.00735315288441063 0.0 0.0
-0.0034396428186864725 0.002303155424868031 0.0 -0.009412516086026335 0.0 0.0
-0.0045817782221777015 0.003310396372462332 0.0 -0.01173534576782631 0.0 0.0
-0.005820357816825494 0.0044367315433513355 0.0 -0.014210082921678802 0.0 0.0
-0.0070849306332906314 0.005602251479270848 0.0 -0.016801387444324356 0.0 0.0
-0.008191919875081721 0.006627263839256159 0.0 -0.019487369203570304 0.0 0.0
-0.00882388773437881 0.007205212136494943 0.0 -0.022206319283698872 0.0 0.0
-0.008533851741391069 0.006919283886082539 0.0 -0.024932327754874528 0.0 0.0
-0.0069571479909369405 0.005531096018426496 0.0 -0.02777650520266106 0.0 0.0
-0.00371209005989398 0.002755673991612362 0.0 -0.030370130155426667 0.0 0.0
0.004257046783411295 -0.004831229337059817 0.0 -0.029916918192093966 0.0 0.0
0.0042570467834111 -0.004831229337054488 0.0 0.029916918192113062 0.0 0.0
-0.0037120900598949513 0.0027556739916194672 0.0 0.03037013015544987 0.0 0.0
-0.006957147990931861 0.005531096018430937 0.0 0.027776505202665724 0.0 0.0
-0.00853385174138202 0.00691928388607721 0.0 0.024932327754866423 0.0 0.0
-0.008823887734367958 0.0072052121364833965 0.0 0.022206319283678888 0.0 0.0
-0.008191919875071674 0.006627263839247277 0.0 0.019487369203556315 0.0 0.0
-0.007084930633278835 0.005602251479258413 0.0 0.01680138744430959 0.0 0.0
-0.005820357816812227 0.004436731543338901 0.0 0.014210082921667477 0.0 0.0
-0.004581778222165378 0.003310396372452562 0.0 0.011735345767808103 0.0 0.0
-0.0034396428186758143 0.00230315542485382 0.0 0.009412516086004463 0.0 0.0
-0.0024083065131906556 0.0014650640162168216 0.0 0.007353152884394976 0.0 0.0
-0.0015278337596516256 0.0008394917383696132 0.0 0.00576906017314982 0.0 0.0
-0.000863284282392851 0.00044484840370939693 0.0 0.004687971789801626 0.0 0.0
-0.0004785745806996089 0.00024421617792436123 0.0 0.003930680585985613 0.0 0.0
-0.0003073493137330241 0.00016926101094894008 0.0 0.0032864598720230287 0.0 0.0
-0.0002506405764975961 0.00016807304236676757 0.0 0.0028191853743998463 0.0 0.0
-0.00025199888199428644 0.00017944287006887993 0.0 0.0026090931738953493 0.0 0.0
-0.00023741816566855145 0.0001158735250358367 0.0 0.0025910327914679954 0.0 0.0
-0.00012492790448889735 -0.00012362215790179265 0.0 0.002577890131294003 0.0 0.0
0.0005295738938628225 -0.0012753866128163514 0.0 0.0020145217813828387 0.0 0.0
0.0003468453774061464 -0.000994503427001081 0.0 -0.001808696437611279 0.0 0.0
-0.00020691615950926834 -9.120048011812543e-05 0.0 -0.002533527337277852 0.0 0.0
-0.0003885016142861075 0.0001824083758578121 0.0 -0.0025746099865230354 0.0 0.0
-0.0004905533067479373 0.0002867879932055839 0.0 -0.0025908928011572074 0.0 0.0
-0.0006117141567876239 0.0003428859817551366 0.0 -0.002769556918847227 0.0 0.0
-0.0008674156325993998 0.00045261344283464844 0.0 -0.0032013425396101858 0.0 0.0
-0.001471676362561486 0.0007992797843860977 0.0 -0.004025742154905865 0.0 0.0
-0.0027259994963487744 0.0016810749085265364 0.0 -0.005494426871788027 0.0 0.0
-0.004741056776815661 0.0033302673147677098 0.0 -0.007666352518682085 0.0 0.0
-0.007361611055028694 0.005690815458517573 0.0 -0.010334871750715346 0.0 0.0
-0.010403893731642494 0.008547529505100293 0.0 -0.013265642618934259 0.0 0.0
-0.013761481874947273 0.011757974434457807 0.0 -0.016247521358110584 0.0 0.0
-0.017409111362742674 0.015266142411587857 0.0 -0.019231126965766898 0.0 0.0
-0.02127509071319006 0.018991369890603238 0.0 -0.022206856572610234 0.0 0.0
-0.025147179909911194 0.022720018802062647 0.0 -0.025233187637694 0.0 0.0
-0.028632884441199963 0.026070387536762496 0.0 -0.028356458356553982 0.0 0.0
-0.031197717505404815 0.028533010835448458 0.0 -0.03168491419236574 0.0 0.0
-0.03225465504725636 0.029524066285240735 0.0 -0.03510417594982829 0.0 0.0
-0.03067228585517426 0.02768780466700349 0.0 -0.03681100051771957 0.0 0.0
-0.022885500575156176 0.019526588878317597 0.0 -0.03489365463219629 0.0 0.0
-0.02288550057515734 0.019526588878323814 0.0 0.03489365463224192 0.0 0.0
-0.03067228585517026 0.02768780466699372 0.0 0.036811000517780634 0.0 0.0
-0.03225465504723901 0.029524066285215866 0.0 0.03510417594987114 0.0 0.0
-0.031197717505378725 0.02853301083542359 0.0 0.03168491419236419 0.0 0.0
-0.028632884441172707 0.026070387536733186 0.0 0.028356458356534997 0.0 0.0
-0.02514717990988563 0.022720018802038666 0.0 0.025233187637676124 0.0 0.0
-0.021275090713163497 0.01899136989057748 0.0 0.022206856572592693 0.0 0.0
-0.01740911136271553 0.015266142411558548 0.0 0.019231126965752576 0.0 0.0
-0.013761481874920267 0.011757974434430718 0.0 0.016247521358088046 0.0 0.0
-0.01040389373161868 0.008547529505080309 0.0 0.013265642618903506 0.0 0.0
-0.0073616110550089875 0.005690815458501142 0.0 0.010334871750688368 0.0 0.0
-0.0047410567768025325 0.0033302673147526107 0.0 0.007666352518669872 0.0 0.0
-0.0027259994963409473 0.001681074908519875 0.0 0.005494426871777036 0.0 0.0
-0.001471676362556601 0.0007992797843814348 0.0 0.004025742154899203 0.0 0.0
-0.0008674156325977067 0.000452613442832428 0.0 0.003201342539605856 0.0 0.0
-0.0006117141567869855 0.0003428859817535823 0.0 0.002769556918844951 0.0 0.0
-0.0004905533067472156 0.0002867879932036965 0.0 0.002590892801154654 0.0 0.0
-0.0003885016142858577 0.0001824083758592554 0.0 0.002574609986521814 0.0 0.0
-0.00020691615950926834 -9.120048011729276e-05 0.0 0.0025335273372766864 0.0 0.0
0.00034684537740567456 -0.0009945034269999969 0.0 0.001808696437610613 0.0 0.0
0.00022096025931539476 -0.0007648623376424468 0.0 -0.0016127314771081647 0.0 0.0
-0.00027909777735563024 -5.3575873165456755e-05 0.0 -0.00243581721263042 0.0 0.0
-0.0005322861653622724 0.00024405240335378942 0.0 -0.002500548991605789 0.0 0.0
-0.000720119400333008 0.0003884211784719316 0.0 -0.00250036028067524 0.0 0.0
-0.0009627581306797528 0.0005110352210082603 0.0 -0.0026357952001672125 0.0 0.0
-0.001454073169389114 0.0007784961138117552 0.0 -0.003101735776742276 0.0 0.0
-0.0026169513854967796 0.0015845190220837857 0.0 -0.004257042950151724 0.0 0.0
-0.004864188507052503 0.003419928175029785 0.0 -0.006372563464656311 0.0 0.0
-0.008253674224285024 0.0064796490494876124 0.0 -0.009367204248220462 0.0 0.0
-0.012576907960483774 0.010562117760441136 0.0 -0.01291366757957424 0.0 0.0
-0.017571846460931184 0.015367192718829248 0.0 -0.01663711976069515 0.0 0.0
-0.023103915723101942 0.020729176598630605 0.0 -0.02026598517320699 0.0 0.0
-0.029129430187736782 0.026589950084443537 0.0 -0.023774264059859163 0.0 0.0
-0.035580341769717194 0.03286944367375533 0.0 -0.027272827802296007 0.0 0.0
-0.042229926861299144 0.03933728713849938 0.0 -0.030994815646215645 0.0 0.0
-0.04862046452937474 0.045548484420327995 0.0 -0.035237420055857505 0.0 0.0
-0.05407382882332337 0.050833793065423905 0.0 -0.04011868514430561 0.0 0.0
-0.05755578081086843 0.05410342363812415 0.0 -0.044749647107503066 0.0 0.0
-0.057084851745367954 0.053343026902791024 0.0 -0.04701187369928628 0.0 0.0
-0.04844956568889866 0.043956646130403065 0.0 -0.04273141012606474 0.0 0.0
-0.04844956568889719 0.043956646130394184 0.0 0.04273141012612025 0.0 0.0
-0.05708485174535752 0.05334302690277681 0.0 0.04701187369935966 0.0 0.0
-0.057555780810843005 0.054103423638106385 0.0 0.044749647107558244 0.0 0.0
-0.054073828823284154 0.05083379306539104 0.0 0.040118685144306054 0.0 0.0
-0.048620464529332885 0.04554848442028181 0.0 0.035237420055836854 0.0 0.0
-0.04222992686125737 0.03933728713845319 0.0 0.03099481564619655 0.0 0.0
-0.03558034176967656 0.03286944367371358 0.0 0.02727282780227236 0.0 0.0
-0.029129430187695204 0.026589950084406677 0.0 0.023774264059838623 0.0 0.0
-0.02310391572306139 0.020729176598589305 0.0 0.020265985173181456 0.0 0.0
-0.017571846460894852 0.015367192718782618 0.0 0.016637119760664065 0.0 0.0
-0.012576907960452743 0.010562117760405165 0.0 0.012913667579542043 0.0 0.0
-0.008253674224263652 0.006479649049465852 0.0 0.009367204248203365 0.0 0.0
-0.004864188507038653 0.0034199281750173505 0.0 0.006372563464643655 0.0 0.0
-0.002616951385489036 0.001584519022075792 0.0 0.004257042950143841 0.0 0.0
-0.0014540731693857833 0.0007784961138084245 0.0 0.0031017357767358367 0.0 0.0
-0.000962758130678476 0.0005110352210082603 0.0 0.002635795200163993 0.0 0.0
-0.0007201194003321476 0.00038842117847226465 0.0 0.002500360280674907 0.0 0.0
-0.000532286165361634 0.00024405240335256817 0.0 0.0025005489916051227 0.0 0.0
-0.000279097777355769 -5.357587316534573e-05 0.0 0.0024358172126294764 0.0 0.0
0.0002209602593151172 -0.0007648623376411961 0.0 0.0016127314771058332 0.0 0.0
0.0001247743212626773 -0.0005626045575537475 0.0 -0.0014023719432902926 0.0 0.0
-0.00034325491069098213 -1.0925879330270227e-05 0.0 -0.0022828340188848495 0.0 0.0
-0.0006670693559960306 0.00030049744441895676 0.0 -0.0023736039095186845 0.0 0.0
-0.0009393757122863056 0.00048195041689935714 0.0 -0.002346281182829646 0.0 0.0
-0.0013089653423734027 0.0006831039544381579 0.0 -0.002448742730452369 0.0 0.0
-0.0021125617633502847 0.001196056558324221 0.0 -0.00300034136600158 0.0 0.0
-0.003946829985214728 0.0026243135665104944 0.0 -0.004441301853291724 0.0 0.0
-0.007241006340977518 0.0055302814829545355 0.0 -0.0069941907889644606 0.0 0.0
-0.012013876817023594 0.010004826637628028 0.0 -0.010523548200211064 0.0 0.0
-0.01800390524814538 0.015756167305436275 0.0 -0.01460822192084843 0.0 0.0
-0.0249127482517576 0.02245861335441468 0.0 -0.018775457240622018 0.0 0.0
-0.03258782130578164 0.029938485352642097 0.0 -0.022755908818753112 0.0 0.0
-0.04097442381805344 0.03813560738609123 0.0 -0.026560072857345962 0.0 0.0
-0.05001204574083884 0.046976231021748305 0.0 -0.030359840744543343 0.0 0.0
-0.05947691562084234 0.056229942320456416 0.0 -0.03453112108835521 0.0 0.0
-0.06884937300356866 0.06537482534098427 0.0 -0.039544602401374584 0.0 0.0
-0.07717253521393497 0.0734454209489348 0.0 -0.04541427478508264 0.0 0.0
-0.08281446609083146 0.07878833441406474 0.0 -0.05092628371979968 0.0 0.0
-0.0829701161723336 0.07849299591424863 0.0 -0.053113417591368006 0.0 0.0
-0.07246900286807101 0.06732199750127421 0.0 -0.048762222562890756 0.0 0.0
-0.07246900286806571 0.06732199750127776 0.0 0.04876222256295648 0.0 0.0
-0.08297011617231673 0.07849299591424597 0.0 0.05311341759145116 0.0 0.0
-0.08281446609079768 0.07878833441403543 0.0 0.05092628371986474 0.0 0.0
-0.07717253521388531 0.07344542094887796 0.0 0.04541427478509574 0.0 0.0
-0.0688493730035131 0.0653748253409292 0.0 0.03954460240135704 0.0 0.0
-0.059476915620784804 0.05622994232040135 0.0 0.03453112108833378 0.0 0.0
-0.050012045740784855 0.04697623102169235 0.0 0.030359840744518474 0.0 0.0
-0.04097442381799732 0.03813560738603661 0.0 0.026560072857324646 0.0 0.0
-0.032587821305727765 0.029938485352592803 0.0 0.02275590881872447 0.0 0.0
-0.024912748251708555 0.022458613354374712 0.0 0.018775457240584936 0.0 0.0
-0.018003905248104052 0.015756167305399416 0.0 0.014608221920811015 0.0 0.0
-0.012013876816993174 0.010004826637596054 0.0 0.010523548200187527 0.0 0.0
-0.007241006340956924 0.005530281482932331 0.0 0.0069941907889493615 0.0 0.0
-0.003946829985203626 0.002624313566503167 0.0 0.004441301853282287 0.0 0.0
-0.0021125617633449834 0.0011960565583204463 0.0 0.0030003413659961953 0.0 0.0
-0.0013089653423715708 0.0006831039544366035 0.0 0.0024487427304490383 0.0 0.0
-0.0009393757122851121 0.00048195041690002327 0.0 0.002346281182828036 0.0 0.0
-0.000667069355995864 0.00030049744441895676 0.0 0.002373603909517019 0.0 0.0
-0.0003432549106911209 -1.0925879330214716e-05 0.0 0.0022828340188819074 0.0 0.0
0.0001247743212621777 -0.0005626045575529686 0.0 0.001402371943287628 0.0 0.0
4.40706189523965e-05 -0.0003848221501507876 0.0 -0.0011847448236307345 0.0 0.0
-0.00040307093623820345 3.696746518400129e-05 0.0 -0.0020727109969929103 0.0 0.0
-0.0007924916463069032 0.0003519066054855635 0.0 -0.0021887157745473784 0.0 0.0
-0.0011469548838279886 0.000566637980151663 0.0 -0.002126645862045362 0.0 0.0
-0.0016683624553749388 0.000875134116560039 0.0 -0.002218008073933686 0.0 0.0
-0.002873044424554161 0.0017361850437562776 0.0 -0.0028645583324622415 0.0 0.0
-0.005450037840961652 0.003903584924358494 0.0 -0.004482405046839832 0.0 0.0
-0.009817473509263819 0.007918312273908601 0.0 -0.007270559792487807 0.0 0.0
-0.015954417598440573 0.013771430480708169 0.0 -0.011054466534819563 0.0 0.0
-0.02356449330513688 0.02113629957756391 0.0 -0.01531530739339193 0.0 0.0
-0.03236201938828803 0.029703344536954557 0.0 -0.01959119012138877 0.0 0.0
-0.042169028419027754 0.03928929155112204 0.0 -0.02367548323356783 0.0 0.0
-0.05290601729820604 0.049812406893827266 0.0 -0.027569008945994566 0.0 0.0
-0.06451898911218185 0.06120734741299394 0.0 -0.03142090126339725 0.0 0.0
-0.07680877286864879 0.07325555155474905 0.0 -0.035660401880485804 0.0 0.0
-0.08916526409835396 0.08533049681121518 0.0 -0.04082521991245591 0.0 0.0
-0.10028465284739696 0.09611717934271802 0.0 -0.04696393281447575 0.0 0.0
-0.1078784539537683 0.10330049762243387 0.0 -0.0527824793736178 0.0 0.0
-0.10826487686870215 0.10318092118952649 0.0 -0.0556435285699014 0.0 0.0
-0.09596144066227408 0.09029797152450936 0.0 -0.0539385946132912 0.0 0.0
-0.09596144066226628 0.0902979715244987 0.0 0.05393859461335426 0.0 0.0
-0.10826487686867733 0.10318092118949984 0.0 0.05564352856997823 0.0 0.0
-0.10787845395372536 0.10330049762239657 0.0 0.052782479373679636 0.0 0.0
-0.10028465284733765 0.09611717934267006 0.0 0.04696393281448852 0.0 0.0
-0.08916526409828582 0.08533049681115834 0.0 0.04082521991244237 0.0 0.0
-0.07680877286857679 0.07325555155468422 0.0 0.035660401880468484 0.0 0.0
-0.06451898911211373 0.06120734741292644 0.0 0.0314209012633726 0.0 0.0
-0.05290601729813524 0.049812406893761096 0.0 0.02756900894597214 0.0 0.0
-0.04216902841896045 0.039289291551049654 0.0 0.023675483233541184 0.0 0.0
-0.032362019388227414 0.0297033445368875 0.0 0.019591190121352464 0.0 0.0
-0.02356449330508502 0.021136299577514617 0.0 0.015315307393353517 0.0 0.0
-0.015954417598401896 0.01377143048067131 0.0 0.011054466534794749 0.0 0.0
-0.009817473509236035 0.007918312273883732 0.0 0.007270559792468323 0.0 0.0
-0.0054500378409459566 0.0039035849243416187 0.0 0.004482405046826177 0.0 0.0
-0.0028730444245462783 0.0017361850437478399 0.0 0.002864558332455136 0.0 0.0
-0.0016683624553725518 0.0008751341165538218 0.0 0.0022180080739336305 0.0 0.0
-0.0011469548838268367 0.000566637980151441 0.0 0.002126645862044474 0.0 0.0
-0.0007924916463062787 0.0003519066054864517 0.0 0.0021887157745441588 0.0 0.0
-0.0004030709362385504 3.696746518300209e-05 0.0 0.0020727109969915225 0.0 0.0
4.40706189520218e-05 -0.000384822150150543 0.0 0.001184744823631123 0.0 0.0
-2.4561859357896676e-05 -0.00023232921663773887 0.0 -0.0009608489136856968 0.0 0.0
-0.00046042382292071915 8.875010310427367e-05 0.0 -0.0018102273785517986 0.0 0.0
-0.0009095189508452894 0.00039880721197615987 0.0 -0.0019467555587559526 0.0 0.0
-0.0013462287480132118 0.0006487185963901521 0.0 -0.0018610737731846183 0.0 0.0
-0.002064255204568377 0.001111148727577449 0.0 -0.001962917313686696 0.0 0.0
-0.003746178184102833 0.0024149470985450616 0.0 -0.0026599129879183447 0.0 0.0
-0.007109813332772108 0.005393792450090196 0.0 -0.0043281759893847305 0.0 0.0
-0.01254909196369286 0.010507944520103063 0.0 -0.007150594896185858 0.0 0.0
-0.01999823774542131 0.01768049185854359 0.0 -0.010865082076667809 0.0 0.0
-0.029196217864359275 0.02661686289559695 0.0 -0.014979981858111557 0.0 0.0
-0.03986921643050545 0.03703427356398237 0.0 -0.01912178003554532 0.0 0.0
-0.05180581554134095 0.04872275584340491 0.0 -0.023076366629243172 0.0 0.0
-0.06488830415517405 0.061565636357823195 0.0 -0.026849016622994215 0.0 0.0
-0.07905028672485853 0.07548797474364743 0.0 -0.03053893011452624 0.0 0.0
-0.09410339073408658 0.09027262419830073 0.0 -0.03442323326819752 0.0 0.0
-0.10936714547149107 0.10520283882411352 0.0 -0.0390446000105491 0.0 0.0
-0.1231971718403102 0.11861709288640032 0.0 -0.04473865045657588 0.0 0.0
-0.13263904673869514 0.1275634442492164 0.0 -0.05076045134241303 0.0 0.0
-0.13332349843591387 0.12771237624316534 0.0 -0.055528046749726 0.0 0.0
-0.11957230613921868 0.1134330417962035 0.0 -0.05867507577574704 0.0 0.0
-0.11957230613920847 0.11343304179619107 0.0 0.0586750757758151 0.0 0.0
-0.1333234984358818 0.1277123762431316 0.0 0.0555280467498076 0.0 0.0
-0.13263904673864285 0.12756344424916666 0.0 0.050760451342472646 0.0 0.0
-0.12319717184024065 0.11861709288632571 0.0 0.044738650456589424 0.0 0.0
-0.10936714547141047 0.10520283882402826 0.0 0.03904460001053556 0.0 0.0
-0.09410339073400067 0.09027262419820836 0.0 0.034423233268179865 0.0 0.0
-0.07905028672477582 0.07548797474356395 0.0 0.03053893011450859 0.0 0.0
-0.06488830415508981 0.061565636357742815 0.0 0.02684901662297401 0.0 0.0
-0.051805815541260195 0.048722755843324084 0.0 0.02307636662921614 0.0 0.0
-0.039869216430433965 0.037034273563905984 0.0 0.01912178003551085 0.0 0.0
-0.02919621786429752 0.026616862895535665 0.0 0.014979981858075642 0.0 0.0
-0.019998237745374473 0.017680491858493408 0.0 0.010865082076646049 0.0 0.0
-0.012549091963658512 0.01050794452006798 0.0 0.007150594896168261 0.0 0.0
-0.007109813332751486 0.005393792450068657 0.0 0.004328175989373018 0.0 0.0
-0.0037461781840923414 0.0024149470985352917 0.0 0.0026599129879089634 0.0 0.0
-0.002064255204564547 0.0011111487275745624 0.0 0.0019629173136838096 0.0 0.0
-0.0013462287480123097 0.0006487185963909292 0.0 0.0018610737731841187 0.0 0.0
-0.0009095189508443874 0.00039880721197615987 0.0 0.0019467555587536212 0.0 0.0
-0.00046042382292084405 8.875010310466225e-05 0.0 0.0018102273785502443 0.0 0.0
-2.456185935742483e-05 -0.00023232921663737978 0.0 0.0009608489136859744 0.0 0.0
-8.032905681504277e-05 -0.000107451852317475 0.0 -0.0007302796918379761 0.0 0.0
-0.0005142811834765726 0.0001418808998238097 0.0 -0.0015011669499703784 0.0 0.0
-0.0010201166212255308 0.0004422079872418161 0.0 -0.001648581914068914 0.0 0.0
-0.001545778423448052 0.0007346979284694743 0.0 -0.0015478699724322809 0.0 0.0
-0.0025178272441893634 0.0014073668378358217 0.0 -0.00166033402267457 0.0 0.0
-0.004734813848663755 0.0032424214682558183 0.0 -0.0023609083834695843 0.0 0.0
-0.00890740053138206 0.007062251936881481 0.0 -0.003970405536390165 0.0 0.0
-0.015366944091623869 0.013220376327557126 0.0 -0.006562287104965425 0.0 0.0
-0.02408538608071492 0.021656616568134446 0.0 -0.009898571681836943 0.0 0.0
-0.03485338827023543 0.03214314943715202 0.0 -0.013627955564061711 0.0 0.0
-0.04738935154169571 0.04439952075266218 0.0 -0.01738040367785587 0.0 0.0
-0.06145548514978599 0.058189709101025056 0.0 -0.020971233709733195 0.0 0.0
-0.07688619124031687 0.07335152575529147 0.0 -0.02442103730399736 0.0 0.0
-0.0935577340951661 0.08975566308669425 0.0 -0.027729317140907428 0.0 0.0
-0.1112473643368187 0.10715415640593129 0.0 -0.03093839172439372 0.0 0.0
-0.12924561325577305 0.12478337355112412 0.0 -0.034402277542683324 0.0 0.0
-0.14569787340830553 0.14074903391552684 0.0 -0.03890070235524923 0.0 0.0
-0.1571151952572293 0.15159895224023323 0.0 -0.04504729410611441 0.0 0.0
-0.15851051493142906 0.1524114414978559 0.0 -0.05290484462244127 0.0 0.0
-0.14379712242477197 0.13718342528358463 0.0 -0.06296369783753275 0.0 0.0
-0.14379712242475826 0.13718342528356242 0.0 0.06296369783759403 0.0 0.0
-0.15851051493139084 0.15241144149780972 0.0 0.05290484462251577 0.0 0.0
-0.15711519525716833 0.1515989522401675 0.0 0.045047294106165925 0.0 0.0
-0.14569787340822418 0.14074903391543891 0.0 0.038900702355259664 0.0 0.0
-0.12924561325568024 0.12478337355103442 0.0 0.03440227754267433 0.0 0.0
-0.11124736433671956 0.10715415640584336 0.0 0.030938391724380176 0.0 0.0
-0.09355773409506828 0.08975566308659566 0.0 0.027729317140892384 0.0 0.0
-0.07688619124022035 0.07335152575518977 0.0 0.024421037303977933 0.0 0.0
-0.06145548514969178 0.058189709100929576 0.0 0.02097123370970777 0.0 0.0
-0.047389351541613015 0.04439952075258091 0.0 0.017380403677825673 0.0 0.0
-0.034853388270164376 0.03214314943708407 0.0 0.013627955564028293 0.0 0.0
-0.02408538608065916 0.02165661656808382 0.0 0.009898571681816737 0.0 0.0
-0.01536694409158372 0.013220376327522043 0.0 0.006562287104947606 0.0 0.0
-0.0089074005313564 0.007062251936861719 0.0 0.003970405536380006 0.0 0.0
-0.004734813848650446 0.003242421468244716 0.0 0.002360908383462368 0.0 0.0
-0.00251782724418409 0.0014073668378338233 0.0 0.001660334022672738 0.0 0.0
-0.0015457784234471778 0.0007346979284693633 0.0 0.001547869972432725 0.0 0.0
-0.0010201166212246288 0.0004422079872408169 0.0 0.001648581914066305 0.0 0.0
-0.0005142811834762673 0.00014188089982319907 0.0 0.0015011669499672697 0.0 0.0
-8.032905681440439e-05 -0.0001074518523174351 0.0 0.0007302796918365329 0.0 0.0
-0.00011964862668478737 -1.3545256166314079e-05 0.0 -0.000494569677603196 0.0 0.0
-0.0005603156556835964 0.00019254837965299032 0.0 -0.0011488321481836206 0.0 0.0
-0.001126192397031045 0.0004822428459668737 0.0 -0.0012903733046910615 0.0 0.0
-0.001758940717218882 0.0008369845875206838 0.0 -0.0011893554915640703 0.0 0.0
-0.003046134080443963 0.0017879584491229394 0.0 -0.0013040104137698738 0.0 0.0
-0.005841793332694523 0.004215377894223993 0.0 -0.001953252514245274 0.0 0.0
-0.010793479408573226 0.008847805398135122 0.0 -0.0033065238671308728 0.0 0.0
-0.018216320633704597 0.015986844856119564 0.0 -0.005421714156479074 0.0 0.0
-0.028175754011824927 0.02565319855202075 0.0 -0.008176985063666042 0.0 0.0
-0.04049034971873672 0.037666589154464525 0.0 -0.011269258246530245 0.0 0.0
-0.05487760829813754 0.05174978605978886 0.0 -0.014384745621009998 0.0 0.0
-0.07107282732002179 0.06764167094916029 0.0 -0.017363622182137606 0.0 0.0
-0.08885606638867616 0.08512304530144821 0.0 -0.02024201545922688 0.0 0.0
-0.10800565764316522 0.10396965026232508 0.0 -0.023002352672516713 0.0 0.0
-0.128176681205164 0.12382253122743148 0.0 -0.025405042079095663 0.0 0.0
-0.148617147602275 0.14388343224281464 0.0 -0.02732118143475981 0.0 0.0
-0.167538315002229 0.1622968941967109 0.0 -0.02978795322805139 0.0 0.0
-0.18129432873921875 0.17539268395059437 0.0 -0.03554342382146425 0.0 0.0
-0.18413625376707493 0.17757462492234488 0.0 -0.047261610264372256 0.0 0.0
-0.16917305703536767 0.16204733730252752 0.0 -0.06643886662390353 0.0 0.0
-0.16917305703535224 0.16204733730250265 0.0 0.06643886662394827 0.0 0.0
-0.1841362537670299 0.1775746249222978 0.0 0.04726161026443276 0.0 0.0
-0.18129432873914791 0.17539268395052687 0.0 0.03554342382150999 0.0 0.0
-0.16753831500213598 0.16229689419662297 0.0 0.029787953228059827 0.0 0.0
-0.14861714760216904 0.1438834322427116 0.0 0.027321181434749486 0.0 0.0
-0.12817668120505177 0.12382253122731424 0.0 0.025405042079087614 0.0 0.0
-0.1080056576430535 0.10396965026220695 0.0 0.023002352672504278 0.0 0.0
-0.08885606638856645 0.08512304530133852 0.0 0.020242015459212892 0.0 0.0
-0.07107282731991507 0.0676416709490586 0.0 0.01736362218211923 0.0 0.0
-0.054877608298043334 0.05174978605969516 0.0 0.014384745620984407 0.0 0.0
-0.040490349718655824 0.0376665891543837 0.0 0.011269258246502711 0.0 0.0
-0.028175754011761672 0.025653198551959466 0.0 0.008176985063649722 0.0 0.0
-0.018216320633658585 0.015986844856074267 0.0 0.005421714156463309 0.0 0.0
-0.010793479408542445 0.008847805398108255 0.0 0.0033065238671186603 0.0 0.0
-0.005841793332677786 0.004215377894207117 0.0 0.0019532525142363366 0.0 0.0
-0.003046134080437142 0.0017879584491165001 0.0 0.0013040104137668762 0.0 0.0
-0.001758940717217411 0.0008369845875201287 0.0 0.0011893554915650695 0.0 0.0
-0.0011261923970299556 0.00048224284596654066 0.0 0.0012903733046913946 0.0 0.0
-0.0005603156556829164 0.0001925483796528238 0.0 0.001148832148183121 0.0 0.0
-0.00011964862668462778 -1.354525616617877e-05 0.0 0.0004945696776049724 0.0 0.0
-0.00013563769711943952 4.49063943125938e-05 0.0 -0.0002603981349895146 0.0 0.0
-0.0005894398185435912 0.00023431720750444196 0.0 -0.0007526281117555822 0.0 0.0
-0.0012310816142572234 0.0005221721413352087 0.0 -0.0008661896211570874 0.0 0.0
-0.0020063275095514865 0.0009720331996019294 0.0 -0.0007880295402641346 0.0 0.0
-0.003662441176802478 0.0022737178273739556 0.0 -0.0008928758299228678 0.0 0.0
-0.0070471879528478665 0.005312693307891081 0.0 -0.0013724866356716325 0.0 0.0
-0.012718411340301772 0.010698925420260075 0.0 -0.0023121695442660517 0.0 0.0
-0.02106555988128317 0.018766976358281617 0.0 -0.0037694669959890126 0.0 0.0
-0.03222624703936272 0.029626065883154862 0.0 -0.005704204209404651 0.0 0.0
-0.046062121792230515 0.043140327613381935 0.0 -0.007904944886748755 0.0 0.0
-0.062289161724747744 0.05903824532858648 0.0 -0.010124931512441315 0.0 0.0
-0.08061143744762278 0.07702895092706719 0.0 -0.012247915502141549 0.0 0.0
-0.10074738275970135 0.0968289063182457 0.0 -0.014324696112727353 0.0 0.0
-0.12234911995494707 0.11808652747246828 0.0 -0.016287143684899474 0.0 0.0
-0.14488123814395382 0.14026150275777738 0.0 -0.017812020283981322 0.0 0.0
-0.16745000985723713 0.1624456572008821 0.0 -0.018425505568123945 0.0 0.0
-0.18844987336975255 0.18297837266323835 0.0 -0.018502850029827655 0.0 0.0
-0.204770410916166 0.19865383444647566 0.0 -0.021824647763735383 0.0 0.0
-0.21049271080127124 0.2034442636774303 0.0 -0.03677746154119266 0.0 0.0
-0.19648036140553732 0.1887555381268493 0.0 -0.06823460026082595 0.0 0.0
-0.19648036140552083 0.18875553812683155 0.0 0.06823460026086003 0.0 0.0
-0.21049271080121895 0.20344426367738233 0.0 0.036777461541244394 0.0 0.0
-0.2047704109160842 0.19865383444640017 0.0 0.021824647763765803 0.0 0.0
-0.18844987336964755 0.18297837266312733 0.0 0.018502850029830376 0.0 0.0
-0.16745000985711675 0.1624456572007693 0.0 0.018425505568118006 0.0 0.0
-0.14488123814382797 0.14026150275767435 0.0 0.017812020283977603 0.0 0.0
-0.1223491199548221 0.11808652747235726 0.0 0.016287143684891536 0.0 0.0
-0.10074738275957806 0.09682890631812491 0.0 0.01432469611272219 0.0 0.0
-0.08061143744750388 0.07702895092694906 0.0 0.012247915502131224 0.0 0.0
-0.06228916172464219 0.05903824532847812 0.0 0.010124931512422108 0.0 0.0
-0.04606212179214001 0.04314032761329667 0.0 0.00790494488672877 0.0 0.0
-0.03222624703929297 0.029626065883086472 0.0 0.0057042042093935486 0.0 0.0
-0.021065559881230662 0.018766976358231435 0.0 0.003769466995976578 0.0 0.0
-0.012718411340266092 0.010698925420222993 0.0 0.0023121695442593904 0.0 0.0
-0.007047187952828438 0.005312693307875316 0.0 0.0013724866356676912 0.0 0.0
-0.0036624411767939326 0.0022737178273699588 0.0 0.000892875829918538 0.0 0.0
-0.002006327509548593 0.0009720331996012632 0.0 0.0007880295402626358 0.0 0.0
-0.0012310816142563318 0.0005221721413345426 0.0 0.0008661896211556996 0.0 0.0
-0.0005894398185423456 0.00023431720750349827 0.0 0.0007526281117532507 0.0 0.0
-0.00013563769711932155 4.490639431254349e-05 0.0 0.0002603981349870721 0.0 0.0
-0.00011597186701439721 6.14781614404758e-05 0.0 -4.475119749486334e-05 0.0 0.0
-0.0005849363239048277 0.0002566341565160002 0.0 -0.00030439035707463535 0.0 0.0
-0.001344263995962991 0.0005697818343605165 0.0 -0.000362466431720998 0.0 0.0
-0.002313125563355778 0.001170892772828891 0.0 -0.0003451377360048635 0.0 0.0
-0.00436830121155235 0.0028629086877813847 0.0 -0.00039508198517490545 0.0 0.0
-0.008314699498025546 0.00649158951340012 0.0 -0.0005896479618855976 0.0 0.0
-0.014660257316485625 0.01257951840284166 0.0 -0.0009807064235321516 0.0 0.0
-0.023876887611620046 0.02152310861754314 0.0 -0.001608765858229888 0.0 0.0
-0.036193277052986805 0.033528881834756774 0.0 -0.0024887860007662965 0.0 0.0
-0.051521779761101616 0.04851643723260146 0.0 -0.003528712475039719 0.0 0.0
-0.06958033407846653 0.06621997096157983 0.0 -0.004595983222916877 0.0 0.0
-0.09002819502263681 0.08630599420903051 0.0 -0.005629972881408429 0.0 0.0
-0.112497691813492 0.1084058490115396 0.0 -0.006627423929092213 0.0 0.0
-0.1365205027144803 0.13204443933548493 0.0 -0.007510092000533541 0.0 0.0
-0.1613700222977621 0.15649144265129689 0.0 -0.008074344407541956 0.0 0.0
-0.18590288214226752 0.18060815998506996 0.0 -0.007920437298244432 0.0 0.0
-0.2084644118566632 0.20274364054348037 0.0 -0.00669905358425571 0.0 0.0
-0.22668479146029769 0.22047273621494945 0.0 -0.006059395340356488 0.0 0.0
-0.23643240358683756 0.2294517090043353 0.0 -0.016782470233280167 0.0 0.0
-0.22791427221141153 0.21904531214027223 0.0 -0.06289357031733367 0.0 0.0
-0.2279142722113946 0.21904531214025802 0.0 0.06289357031734977 0.0 0.0
-0.2364324035867785 0.22945170900429002 0.0 0.016782470233305702 0.0 0.0
-0.2266847914602035 0.2204727362148624 0.0 0.006059395340369478 0.0 0.0
-0.20846441185654413 0.2027436405433649 0.0 0.006699053584253545 0.0 0.0
-0.1859028821421327 0.18060815998493318 0.0 0.007920437298245264 0.0 0.0
-0.16137002229762287 0.15649144265116455 0.0 0.008074344407540401 0.0 0.0
-0.13652050271434163 0.1320444393353455 0.0 0.00751009200052799 0.0 0.0
-0.11249769181335463 0.10840584901139483 0.0 0.006627423929090881 0.0 0.0
-0.09002819502250664 0.08630599420889995 0.0 0.005629972881404155 0.0 0.0
-0.06958033407834921 0.06621997096146615 0.0 0.004595983222906275 0.0 0.0
-0.051521779761002424 0.04851643723250998 0.0 0.0035287124750281174 0.0 0.0
-0.03619327705290994 0.03352888183467684 0.0 0.002488786000760135 0.0 0.0
-0.023876887611561714 0.0215231086174823 0.0 0.0016087658582256692 0.0 0.0
-0.014660257316444665 0.01257951840280458 0.0 0.0009807064235280993 0.0 0.0
-0.00831469949800353 0.0064915895133776935 0.0 0.0005896479618849315 0.0 0.0
-0.0043683012115419 0.0028629086877691723 0.0 0.00039508198517396176 0.0 0.0
-0.002313125563352496 0.0011708927728250051 0.0 0.0003451377360038643 0.0 0.0
-0.0013442639959619206 0.0005697818343596284 0.0 0.0003624664317180004 0.0 0.0
-0.0005849363239037262 0.0002566341565156671 0.0 0.00030439035707352513 0.0 0.0
-0.00011597186701389588 6.147816144041508e-05 0.0 4.475119749497436e-05 0.0 0.0
SCALARS Statev float 8
LOOKUP_TABLE default
0.0 0.015256972259218623 0.01187814718935051 -0.012257679289188191 0.00037953209983768236 -0.006878107609805225 0.0 0.0
0.0 0.0011578720399660369 0.0008523227516256727 -0.0007464852834822987 -0.00010583746814337374 0.0007172905241878792 0.0 0.0
0.0 4.7586294444690765e-05 8.718701740149825e-06 -6.513405414617493e-06 -2.2052963255323598e-06 -7.02630151451898e-07 0.0 0.0
0.0 0.0004811087089632525 0.0003863053555098547 -0.0003088685717718498 -7.7436783738005e-05 -5.6072315439088323e-05 0.0 0.0
0.0 0.002322472703619542 0.001953241038588952 -0.0016621236243007124 -0.0002911174142882392 -0.000209310824831011 0.0 0.0
0.0 0.006163824385634858 0.005524517055269381 -0.005000157516574165 -0.0005243595386952165 -0.0004523710671094303 0.0 0.0
0.0 0.013078072466789784 0.011551407318652562 -0.010887498019677274 -0.0006639092989752817 -0.0008329659929084575 0.0 0.0
0.0 0.023370408446689094 0.02048242980365495 -0.01971404460500295 -0.0007683851986519896 -0.0014330245872047412 0.0 0.0
0.0 0.037277725354881594 0.03252587017955909 -0.03165040628520109 -0.0008754638943579902 -0.0022851732659579936 0.0 0.0
0.0 0.05471924534809803 0.04760759730565854 -0.04661653659060201 -0.00099106071505653 -0.003313215673060679 0.0 0.0
0.0 0.07541769119272157 0.06546658722224452 -0.06435527723096685 -0.001111309991277655 -0.0043860990836153335 0.0 0.0
0.0 0.09871025511239781 0.08577712412575558 -0.08454354640691504 -0.001233577718840518 -0.005430858049993679 0.0 0.0
0.0 0.12450295046206923 0.10819066547233191 -0.10683327149721975 -0.0013573939751120802 -0.006447972906167045 0.0 0.0
0.0 0.15232848579826078 0.13230525776544144 -0.13082096998908574 -0.001484287776355603 -0.007414298548939871 0.0 0.0
0.0 0.18146633209190066 0.15755281808594565 -0.15593763100825528 -0.0016151870776902374 -0.00826070046040579 0.0 0.0
0.0 0.21096780208528348 0.18308296968000443 -0.1813345945773649 -0.001748375102639599 -0.008806466440994545 0.0 0.0
0.0 0.23944955048725924 0.20772773523679933 -0.20584843968474023 -0.0018792955520591733 -0.008780701921128386 0.0 0.0
0.0 0.26522731105422825 0.23004402450989386 -0.22803963458547022 -0.00200438992442342 -0.00801144145137367 0.0 0.0
0.0 0.2863326236195498 0.24831595854966548 -0.2461889207876367 -0.0021270377620286616 -0.007135097515214703 0.0 0.0
0.0 0.2993969864864181 0.2597475224608953 -0.2574090532431237 -0.002338469217771524 -0.009280858784007119 0.0 0.0
0.0 0.2993969864864017 0.2597475224608804 -0.25740905324310975 -0.0023384692177706922 0.009280858784018964 0.0 0.0
0.0 0.2863326236194911 0.24831595854961355 -0.24618892078758603 -0.002127037762027423 0.007135097515245658 0.0 0.0
0.0 0.26522731105412767 0.23004402450980602 -0.22803963458538423 -0.0020043899244216387 0.008011441451392117 0.0 0.0
0.0 0.23944955048712868 0.2077277352366864 -0.20584843968462715 -0.0018792955520592573 0.00878070192113629 0.0 0.0
0.0 0.21096780208513272 0.18308296967987459 -0.18133459457723414 -0.0017483751026405167 0.008806466440982083 0.0 0.0
0.0 0.18146633209175 0.15755281808581512 -0.15593763100812483 -0.0016151870776902814 0.00826070046040252 0.0 0.0
0.0 0.15232848579810954 0.1323052577653105 -0.1308209699889551 -0.001484287776355354 0.007414298548940585 0.0 0.0
0.0 0.12450295046191859 0.10819066547220119 -0.1068332714970899 -0.0013573939751112775 0.006447972906165724 0.0 0.0
0.0 0.09871025511225552 0.08577712412563211 -0.08454354640679256 -0.0012335777188394932 0.0054308580499832166 0.0 0.0
0.0 0.0754176911925982 0.06546658722213691 -0.06435527723086054 -0.0011113099912763804 0.004386099083607504 0.0 0.0
0.0 0.05471924534799126 0.04760759730556623 -0.04661653659051021 -0.0009910607150560246 0.0033132156730468184 0.0 0.0
0.0 0.03727772535480099 0.03252587017948875 -0.03165040628513113 -0.0008754638943576387 0.002285173265955104 0.0 0.0
0.0 0.023370408446632466 0.02048242980360494 -0.01971404460495363 -0.0007683851986513034 0.0014330245872004293 0.0 0.0
0.0 0.013078072466752449 0.011551407318619353 -0.010887498019644717 -0.0006639092989746275 0.000832965992906186 0.0 0.0
0.0 0.006163824385613638 0.00552451705525016 -0.0050001575165557095 -0.0005243595386944538 0.0004523710671075999 0.0 0.0
0.0 0.0023224727036101037 0.0019532410385810807 -0.0016621236242936324 -0.0002911174142874483 0.00020931082483015788 0.0 0.0
0.0 0.0004811087089609693 0.000386305355508725 -0.0003088685717708971 -7.743678373782771e-05 5.607231543881101e-05 0.0 0.0
0.0 4.7586294444240326e-05 8.718701740287402e-06 -6.513405414726792e-06 -2.2052963255605617e-06 7.026301514740276e-07 0.0 0.0
0.0 0.0011578720399626772 0.0008523227516236848 -0.0007464852834805192 -0.00010583746814316626 -0.0007172905241857368 0.0 0.0
0.0 0.015256972259198798 0.011878147189337466 -0.012257679289174142 0.0003795320998366713 0.006878107609771448 0.0 0.0
0.0 0.011549787459400631 0.008422398165498078 -0.008920893568674274 0.0004984954031761972 -0.008101916736611202 0.0 0.0
0.0 4.502141048505929e-05 3.652269084502553e-05 -3.366370034603459e-05 -2.85899049899092e-06 2.354684111820064e-05 0.0 0.0
0.0 1.2092842884030786e-06 5.994327888909671e-07 -4.5416716806705996e-07 -1.4526562082390918e-07 -2.0733322186185497e-07 0.0 0.0
0.0 0.00022228827117454876 0.00017609805530981412 -0.00013941402886256946 -3.668402644724483e-05 -6.017834153166523e-05 0.0 0.0
0.0 0.001620151095721622 0.001327414216603256 -0.0011111614121272584 -0.000216252804475998 -0.0003510492937659842 0.0 0.0
0.0 0.004851900602543897 0.004350941133700162 -0.0038823750404747316 -0.00046856609322542896 -0.0009414442648771887 0.0 0.0
0.0 0.010998301578888777 0.0097009112055643 -0.009066699851988925 -0.0006342113535753732 -0.0018952971505583373 0.0 0.0
0.0 0.020305403158631344 0.017754574209245227 -0.017007747913947185 -0.0007468262952980515 -0.0033067630930156615 0.0 0.0
0.0 0.03289987356943306 0.028639603674387063 -0.027787020710343713 -0.0008525829640433377 -0.005197211176773389 0.0 0.0
0.0 0.04863547117733229 0.04222879153059726 -0.041266518734132084 -0.0009622727964651806 -0.007390104013311908 0.0 0.0
0.0 0.06720674682887902 0.05825963507334326 -0.05718571955346953 -0.0010739155198737224 -0.009639603741657985 0.0 0.0
0.0 0.08833081689904808 0.07645120863928577 -0.07526480008216493 -0.0011864085571207813 -0.011806156289552389 0.0 0.0
0.0 0.11139725169957729 0.09653004258191863 -0.09522960976486078 -0.0013004328170578673 -0.013929265975891258 0.0 0.0
0.0 0.13631444838923024 0.11815798374154701 -0.11674129669999489 -0.0014166870415521426 -0.01598764532660548 0.0 0.0
0.0 0.1625154976867984 0.1408492698303956 -0.1393138491833557 -0.0015354206470398904 -0.017812207518343476 0.0 0.0
0.0 0.18909257526766132 0.16388701086550114 -0.16223111987420724 -0.0016558909912939065 -0.019057694625369305 0.0 0.0
0.0 0.2148878687095679 0.18626056356823617 -0.1844836267695937 -0.0017769367986424883 -0.019234198808237145 0.0 0.0
0.0 0.23835484679840843 0.20661463710748368 -0.2047149761498409 -0.0018996609576426603 -0.018134360981425582 0.0 0.0
0.0 0.2572682052286192 0.2230307650772549 -0.22098880094535678 -0.0020419641318980197 -0.016312665426190875 0.0 0.0
0.0 0.2686058226547453 0.23289632932057874 -0.23074559964682317 -0.002150729673755612 -0.013624540672468063 0.0 0.0
0.0 0.26860582265472477 0.23289632932056056 -0.2307455996468049 -0.002150729673755742 0.013624540672498825 0.0 0.0
0.0 0.257268205228562 0.22303076507720437 -0.22098880094530626 -0.0020419641318980965 0.016312665426242504 0.0 0.0
0.0 0.23835484679831703 0.2066146371074036 -0.2047149761497613 -0.001899660957642109 0.018134360981462733 0.0 0.0
0.0 0.2148878687094605 0.1862605635681422 -0.18448362676950142 -0.0017769367986405333 0.01923419880825289 0.0 0.0
0.0 0.18909257526753703 0.16388701086539312 -0.1622311198741009 -0.0016558909912920297 0.019057694625358893 0.0 0.0
0.0 0.16251549768666504 0.1408492698302798 -0.13931384918324094 -0.0015354206470387783 0.01781220751833583 0.0 0.0
0.0 0.13631444838909462 0.11815798374142936 -0.11674129669987786 -0.0014166870415514747 0.015987645326601914 0.0 0.0
0.0 0.11139725169944377 0.09653004258180295 -0.09522960976474555 -0.0013004328170573903 0.013929265975885464 0.0 0.0
0.0 0.08833081689891928 0.07645120863917439 -0.07526480008205388 -0.001186408557120449 0.011806156289535267 0.0 0.0
0.0 0.06720674682876634 0.05825963507324588 -0.057185719553372254 -0.0010739155198736168 0.009639603741644062 0.0 0.0
0.0 0.04863547117723875 0.042228791530516445 -0.04126651873405146 -0.0009622727964649568 0.007390104013291618 0.0 0.0
0.0 0.032899873569362414 0.02863960367432511 -0.027787020710282294 -0.0008525829640428031 0.005197211176765011 0.0 0.0
0.0 0.020305403158577463 0.017754574209198154 -0.017007747913900535 -0.0007468262952976179 0.003306763093006277 0.0 0.0
0.0 0.010998301578853897 0.00970091120553354 -0.009066699851958597 -0.0006342113535749368 0.0018952971505519175 0.0 0.0
0.0 0.004851900602524508 0.004350941133683184 -0.0038823750404586143 -0.00046856609322456957 0.0009414442648732579 0.0 0.0
0.0 0.0016201510957130555 0.0013274142165964698 -0.001111161412121266 -0.00021625280447520388 0.0003510492937642669 0.0 0.0
0.0 0.00022228827117285558 0.00017609805530891337 -0.00013941402886181716 -3.66840264470961e-05 6.017834153130503e-05 0.0 0.0
0.0 1.209284288270948e-06 5.994327889759939e-07 -4.5416716812921937e-07 -1.4526562084677674e-07 2.073332218783281e-07 0.0 0.0
0.0 4.502141048466744e-05 3.6522690845022993e-05 -3.366370034598022e-05 -2.8589904990427735e-06 -2.354684111810643e-05 0.0 0.0
0.0 0.011549787459377375 0.008422398165482887 -0.008920893568658463 0.0004984954031755641 0.008101916736582719 0.0 0.0
0.0 0.008893457210241512 0.006152115678444474 -0.006691293879835227 0.0005391782013907519 -0.007216406625468925 0.0 0.0
0.0 0.0 0.0 0.0 0.0 0.0 0.0 0.0
0.0 0.0 0.0 0.0 0.0 0.0 0.0 0.0
0.0 6.337813093467554e-05 5.390465115690062e-05 -4.2367583550215354e-05 -1.15370676066853e-05 -3.382805151452283e-05 0.0 0.0
0.0 0.0009922276561727767 0.0008216898715818198 -0.0006767336791297602 -0.00014495619245205905 -0.000382538948761089 0.0 0.0
0.0 0.0038109222794453076 0.003241093859857357 -0.0028448203376377386 -0.0003962735222196177 -0.001207104685907403 0.0 0.0
0.0 0.008988792385642796 0.007883517638330732 -0.007287650409911467 -0.0005958672284192648 -0.0026062982471791556 0.0 0.0
0.0 0.01726457043593748 0.015009579437990344 -0.014290233046082953 -0.0007193463919073803 -0.004674380243305576 0.0 0.0
0.0 0.028536094747495973 0.024689737235416395 -0.02386478840943094 -0.0008249488259854562 -0.007375470989155185 0.0 0.0
0.0 0.0425716113261616 0.03675620894681935 -0.0358276308236478 -0.0009285781231715478 -0.010461053647964387 0.0 0.0
0.0 0.059085728954976435 0.050946784013065495 -0.04991492968395658 -0.0010318543291089046 -0.013623790863334748 0.0 0.0
0.0 0.07770204603637265 0.06701645582537417 -0.0658813136603628 -0.0011351421650113763 -0.016685753426906914 0.0 0.0
0.0 0.09833321382131856 0.08474090343764555 -0.08350174133718394 -0.001239162100461609 -0.01966695129257072 0.0 0.0
0.0 0.12034088961144111 0.10385974464561452 -0.10251546283046535 -0.001344281815149113 -0.022570899561117234 0.0 0.0
0.0 0.14355173481871156 0.12398731725593891 -0.12253685559735009 -0.0014504616585888158 -0.025192288519448887 0.0 0.0
0.0 0.16727834124524976 0.14454625191038617 -0.1429877383092097 -0.0015585136011765257 -0.02706658885213911 0.0 0.0
0.0 0.19044174671385206 0.1646750149414342 -0.16300448085311492 -0.00167053408831924 -0.02761660509228801 0.0 0.0
0.0 0.21154936959463858 0.18308018265390105 -0.18128814380672215 -0.001792038847178929 -0.026468499078155325 0.0 0.0
0.0 0.22850232003333554 0.1979187382096743 -0.19600791171921875 -0.001910826490455404 -0.023146027528644676 0.0 0.0
0.0 0.23893145167804755 0.2071407243050351 -0.20514272397736807 -0.0019980003276667832 -0.01656307145541254 0.0 0.0
0.0 0.23893145167803354 0.20714072430502156 -0.20514272397735556 -0.0019980003276660117 0.01656307145546243 0.0 0.0
0.0 0.22850232003328722 0.19791873820962985 -0.19600791171917525 -0.001910826490454686 0.023146027528714884 0.0 0.0
0.0 0.21154936959455103 0.18308018265382378 -0.18128814380664415 -0.0017920388471794509 0.02646849907820522 0.0 0.0
0.0 0.1904417467137393 0.1646750149413365 -0.16300448085301567 -0.001670534088321084 0.027616605092305305 0.0 0.0
0.0 0.1672783412451322 0.1445462519102848 -0.1429877383091081 -0.0015585136011766303 0.027066588852128492 0.0 0.0
0.0 0.14355173481858868 0.12398731725583262 -0.1225368555972439 -0.0014504616585887245 0.025192288519440206 0.0 0.0
0.0 0.1203408896113182 0.10385974464550772 -0.1025154628303592 -0.0013442818151485026 0.022570899561110712 0.0 0.0
0.0 0.09833321382120244 0.08474090343754483 -0.08350174133708366 -0.001239162100461137 0.019666951292562625 0.0 0.0
0.0 0.07770204603626152 0.06701645582527864 -0.06588131366026745 -0.0011351421650112362 0.016685753426885594 0.0 0.0
0.0 0.05908572895487676 0.05094678401297917 -0.04991492968387066 -0.0010318543291084744 0.01362379086331476 0.0 0.0
0.0 0.04257161132607659 0.036756208946746034 -0.03582763082357508 -0.0009285781231709366 0.010461053647938456 0.0 0.0
0.0 0.028536094747427514 0.024689737235356907 -0.02386478840937203 -0.0008249488259848651 0.007375470989140176 0.0 0.0
0.0 0.017264570435889366 0.015009579437948579 -0.014290233046041654 -0.0007193463919069125 0.004674380243291985 0.0 0.0
0.0 0.008988792385613531 0.007883517638305047 -0.007287650409886502 -0.0005958672284185436 0.0026062982471712313 0.0 0.0
0.0 0.003810922279427956 0.0032410938598428267 -0.0028448203376242945 -0.00039627352221853224 0.0012071046859016413 0.0 0.0
0.0 0.0009922276561657199 0.000821689871576265 -0.0006767336791250016 -0.00014495619245126335 0.00038253894875838834 0.0 0.0
0.0 6.337813093380804e-05 5.3904651156668466e-05 -4.236758355001595e-05 -1.1537067606652545e-05 3.382805151430772e-05 0.0 0.0
0.0 0.0 0.0 0.0 0.0 0.0 0.0 0.0
0.0 0.0 0.0 0.0 0.0 0.0 0.0 0.0
0.0 0.008893457210220862 0.006152115678430361 -0.006691293879820542 0.0005391782013901759 0.007216406625445576 0.0 0.0
0.0 0.006774237628744908 0.004506583172348197 -0.005027283814818585 0.0005207006424703877 -0.005792734070480287 0.0 0.0
0.0 0.0 0.0 0.0 0.0 0.0 0.0 0.0
0.0 0.0 0.0 0.0 0.0 0.0 0.0 0.0
0.0 1.341251434657635e-05 8.735090592650464e-06 -6.857139579473099e-06 -1.8779510131773485e-06 -9.02409625223909e-06 0.0 0.0
0.0 0.0005433606279418596 0.00044019934658581 -0.00035787683834740227 -8.232250823840751e-05 -0.0003252827215259175 0.0 0.0
0.0 0.0027272470381910154 0.002262793441182259 -0.0019498059229729435 -0.0003129875182093162 -0.00127436284846068 0.0 0.0
0.0 0.0071201664530715445 0.006124438807675036 -0.00558357960053965 -0.0005408592071353835 -0.002973139433067376 0.0 0.0
0.0 0.014283061413304626 0.012284847555672275 -0.011599815628006799 -0.0006850319276654779 -0.005528983185636151 0.0 0.0
0.0 0.024192764367111208 0.020722546224304975 -0.01993122667164303 -0.0007913195526619588 -0.00881189382584797 0.0 0.0
0.0 0.03650749162587451 0.031240511258014095 -0.030350960809294558 -0.0008895504487194931 -0.01253404972758123 0.0 0.0
0.0 0.050933674110999604 0.043576089197129936 -0.042591202856717275 -0.0009848863404126585 -0.01634323898538198 0.0 0.0
0.0 0.0671983284920294 0.05751269819159121 -0.056433586690349744 -0.0010791115012414544 -0.020055929212540992 0.0 0.0
0.0 0.08507880470976092 0.07287663717460706 -0.07170359688004742 -0.0011730402945596251 -0.023685676192152436 0.0 0.0
0.0 0.10438766323667573 0.08947136089193394 -0.08820415038655663 -0.001267210505377328 -0.02718551689020676 0.0 0.0
0.0 0.12474753420440457 0.10701338041390818 -0.1056525178417066 -0.0013608625722015839 -0.030362158174009266 0.0 0.0
0.0 0.1454224325678482 0.1250702613880329 -0.12361399656319826 -0.0014562648248346093 -0.03279402077797242 0.0 0.0
0.0 0.16596055119672462 0.1429312702953891 -0.1413726502139504 -0.0015586200814386106 -0.0338277883161473 0.0 0.0
0.0 0.18483642403489267 0.15945675313266108 -0.15778872975642289 -0.0016680233762380852 -0.03269257074582254 0.0 0.0
0.0 0.20020175875417112 0.1730577867483757 -0.17128477789158741 -0.0017730088567882699 -0.028204538015679775 0.0 0.0
0.0 0.21011933167412505 0.18201799942034563 -0.18016667518205542 -0.0018513242382903613 -0.018905432010926725 0.0 0.0
0.0 0.21011933167410873 0.18201799942032998 -0.18016667518203966 -0.0018513242382905048 0.018905432010989362 0.0 0.0
0.0 0.20020175875412566 0.173057786748333 -0.17128477789154425 -0.0017730088567886357 0.028204538015761425 0.0 0.0
0.0 0.18483642403483058 0.1594567531326036 -0.15778872975636654 -0.0016680233762370014 0.03269257074588094 0.0 0.0
0.0 0.1659605511966455 0.14293127029531863 -0.1413726502138808 -0.0015586200814377976 0.033827788316171496 0.0 0.0
0.0 0.1454224325677482 0.1250702613879463 -0.1236139965631121 -0.0014562648248341806 0.03279402077796299 0.0 0.0
0.0 0.12474753420429915 0.10701338041381711 -0.10565251784161601 -0.0013608625722010541 0.030362158173995485 0.0 0.0
0.0 0.10438766323657306 0.08947136089184506 -0.08820415038646778 -0.0012672105053772916 0.027185516890195865 0.0 0.0
0.0 0.08507880470965949 0.0728766371745189 -0.07170359687995985 -0.00117304029455905 0.02368567619213989 0.0 0.0
0.0 0.06719832849193197 0.057512698191507304 -0.056433586690266435 -0.0010791115012408626 0.02005592921251493 0.0 0.0
0.0 0.05093367411091443 0.04357608919705662 -0.042591202856644625 -0.0009848863404119776 0.016343238985356345 0.0 0.0
0.0 0.03650749162580207 0.03124051125795254 -0.030350960809233732 -0.0008895504487187824 0.01253404972755065 0.0 0.0
0.0 0.024192764367057123 0.02072254622425839 -0.019931226671597066 -0.0007913195526613277 0.008811893825829968 0.0 0.0
0.0 0.014283061413263232 0.012284847555636795 -0.011599815627971799 -0.0006850319276649891 0.0055289831856201125 0.0 0.0
0.0 0.007120166453044556 0.006124438807652144 -0.0055835796005174725 -0.0005408592071346706 0.002973139433056945 0.0 0.0
0.0 0.0027272470381777126 0.0022627934411719123 -0.0019498059229635287 -0.000312987518208383 0.0012743628484547867 0.0 0.0
0.0 0.0005433606279383477 0.000440199346583697 -0.0003578768383455912 -8.23225082381058e-05 0.00032528272152430626 0.0 0.0
0.0 1.3412514346159642e-05 8.735090592940093e-06 -6.857139579697752e-06 -1.8779510132423341e-06 9.024096252516073e-06 0.0 0.0
0.0 0.0 0.0 0.0 0.0 0.0 0.0 0.0
0.0 0.0 0.0 0.0 0.0 0.0 0.0 0.0
0.0 0.006774237628726711 0.004506583172336065 -0.0050272838148058465 0.0005207006424697787 0.005792734070461841 0.0 0.0
0.0 0.005016245284099619 0.003225716401063327 -0.003691786059481628 0.0004660696584183018 -0.004376367657678696 0.0 0.0
0.0 0.0 0.0 0.0 0.0 0.0 0.0 0.0
0.0 0.0 0.0 0.0 0.0 0.0 0.0 0.0
0.0 2.3604892479017184e-06 1.4788903319784238e-06 -1.1416092903921987e-06 -3.3728104158622444e-07 -2.2200130757983163e-06 0.0 0.0
0.0 0.00025837381043875034 0.00019374817258895435 -0.00015632338292309114 -3.7424789665863216e-05 -0.00021915203117806788 0.0 0.0
0.0 0.001795526211345578 0.0014413847926361741 -0.001218625517112951 -0.0002227592755232224 -0.0011881489938293864 0.0 0.0
0.0 0.005462801724112889 0.004475002344492799 -0.0040082924654754335 -0.00046670987901736464 -0.0030090147927241536 0.0 0.0
0.0 0.011436441556437549 0.009614552850456003 -0.008975918902325868 -0.0006386339481301297 -0.005829638760657245 0.0 0.0
0.0 0.0198976529468557 0.016783265092339954 -0.01603258003851969 -0.0007506850538202792 -0.009501508703644362 0.0 0.0
0.0 0.030481461095899578 0.02573067183508344 -0.024886284103818632 -0.0008443877312648014 -0.013609729546722987 0.0 0.0
0.0 0.0428217655950093 0.03619710670064092 -0.0352647603097169 -0.0009323463909240416 -0.0178106112783297 0.0 0.0
0.0 0.05666264939344184 0.04799070775277908 -0.04697330452998748 -0.001017403222791576 -0.021915289438946023 0.0 0.0
0.0 0.07193147436153449 0.06098467681109308 -0.059883378453239676 -0.0011012983578534163 -0.025935896338495714 0.0 0.0
0.0 0.08827097854386723 0.07505019062637361 -0.0738656857102005 -0.0011845049161731357 -0.0298287941600029 0.0 0.0
0.0 0.10566461951829503 0.08998713711534634 -0.08872066663304753 -0.0012664704822987864 -0.033367850916571164 0.0 0.0
0.0 0.12371845735313698 0.10548624908932858 -0.10413702374262536 -0.0013492253467031275 -0.036177662557044805 0.0 0.0
0.0 0.14144121896588516 0.12102915662724922 -0.11959186850306305 -0.001437288124186146 -0.037662895708767026 0.0 0.0
0.0 0.15810025817731893 0.13573675700359403 -0.13420390162382634 -0.0015328553797675846 -0.036770261520751794 0.0 0.0
0.0 0.17212892016277992 0.14831052587680416 -0.1466829364027037 -0.001627589474100407 -0.031757750298644166 0.0 0.0
0.0 0.1818093609494794 0.15725199780454474 -0.15554790824998055 -0.0017040895545639785 -0.02083550104834695 0.0 0.0
0.0 0.18180936094946773 0.15725199780453247 -0.15554790824996795 -0.001704089554564379 0.02083550104841479 0.0 0.0
0.0 0.172128920162745 0.1483105258767693 -0.1466829364026685 -0.0016275894741007559 0.03175775029873194 0.0 0.0
0.0 0.1581002581772631 0.13573675700354074 -0.1342039016237737 -0.001532855379766981 0.03677026152081728 0.0 0.0
0.0 0.14144121896581174 0.12102915662718272 -0.11959186850299779 -0.0014372881241849016 0.03766289570879288 0.0 0.0
0.0 0.12371845735305143 0.1054862490892542 -0.10413702374255153 -0.0013492253467027111 0.03617766255703593 0.0 0.0
0.0 0.10566461951820412 0.08998713711526751 -0.08872066663296978 -0.0012664704822978252 0.03336785091655549 0.0 0.0
0.0 0.08827097854378105 0.0750501906262983 -0.07386568571012675 -0.0011845049161715963 0.029828794159991 0.0 0.0
0.0 0.07193147436144383 0.060984676811014465 -0.05988337845316105 -0.0011012983578533827 0.025935896338480584 0.0 0.0
0.0 0.05666264939335573 0.047990707752705586 -0.04697330452991416 -0.0010174032227914063 0.02191528943891826 0.0 0.0
0.0 0.04282176559493653 0.03619710670057919 -0.03526476030965569 -0.0009323463909235036 0.01781061127830011 0.0 0.0
0.0 0.03048146109583813 0.025730671835032384 -0.024886284103768305 -0.0008443877312641006 0.013609729546689982 0.0 0.0
0.0 0.019897652946804976 0.016783265092297113 -0.01603258003847723 -0.0007506850538198761 0.009501508703622019 0.0 0.0
0.0 0.011436441556399259 0.009614552850424231 -0.008975918902294659 -0.0006386339481295717 0.005829638760638204 0.0 0.0
0.0 0.005462801724090736 0.00447500234447479 -0.004008292465458352 -0.00046670987901643987 0.003009014792713231 0.0 0.0
0.0 0.0017955262113340908 0.0014413847926274543 -0.0012186255171052636 -0.00022275927552219002 0.0011881489938221819 0.0 0.0
0.0 0.0002583738104357388 0.0001937481725871911 -0.0001563233829216549 -3.7424789665536105e-05 0.00021915203117617787 0.0 0.0
0.0 2.3604892477745576e-06 1.4788903321290648e-06 -1.141609290509341e-06 -3.3728104161972094e-07 2.2200130760362076e-06 0.0 0.0
0.0 0.0 0.0 0.0 0.0 0.0 0.0 0.0
0.0 0.0 0.0 0.0 0.0 0.0 0.0 0.0
0.0 0.00501624528408418 0.0032257164010532414 -0.003691786059470875 0.0004660696584176317 0.004376367657663989 0.0 0.0
0.0 0.0035374282846983803 0.002210076659738111 -0.0025977031262817965 0.00038762646654368467 -0.0031438674839306957 0.0 0.0
0.0 7.761818097908707e-08 -1.6545393973634885e-09 1.4170477556670242e-09 2.3749164169630387e-10 1.5147987326691532e-08 0.0 0.0
0.0 0.0 0.0 0.0 0.0 0.0 0.0 0.0
0.0 1.2459832782016668e-06 -8.711175530045244e-08 6.722946238267231e-08 1.9882292917777628e-08 2.0432140011233723e-07 0.0 0.0
0.0 0.00011779915306346887 7.273925971841309e-05 -5.848802069289967e-05 -1.425123902551339e-05 -0.00012403434391798995 0.0 0.0
0.0 0.0010599764073367596 0.0008067084452737715 -0.0006704660061904387 -0.0001362424390833326 -0.0009770720982428312 0.0 0.0
0.0 0.003804417702777224 0.003010791174945627 -0.0026401911322778584 -0.00037060004266776907 -0.0028123583389656117 0.0 0.0
0.0 0.008722890119717299 0.007062638759666281 -0.006491340039964145 -0.0005712987197021336 -0.005650741392671932 0.0 0.0
0.0 0.015730553289297303 0.012916483918630792 -0.012217210898836955 -0.0006992730197938344 -0.009419116149054193 0.0 0.0
0.0 0.024518364291579862 0.02027724275448948 -0.019485668685845878 -0.0007915740686435907 -0.01367978511719991 0.0 0.0
0.0 0.034737216445916604 0.02886265566664644 -0.027990108444133757 -0.0008725472225126859 -0.018012917512951296 0.0 0.0
0.0 0.04617494134612423 0.0385050696273285 -0.03755612947184339 -0.0009489401554851216 -0.022254893082655554 0.0 0.0
0.0 0.05871888071390537 0.049122643757732655 -0.04810004599274004 -0.0010225977649926084 -0.026422035045356278 0.0 0.0
0.0 0.07228619728016747 0.06064826696567971 -0.05955338331856977 -0.0010948836471099278 -0.03045548173649208 0.0 0.0
0.0 0.08674826757966754 0.07296134419655925 -0.07179505732484112 -0.001166286871718188 -0.03415247684481899 0.0 0.0
0.0 0.10158498531043263 0.08585339178755123 -0.08461741078254661 -0.0012359810050046008 -0.03718218423084199 0.0 0.0
0.0 0.11681487822484751 0.09899921225962802 -0.0976919370008798 -0.0013072752587482207 -0.039010362986124564 0.0 0.0
0.0 0.1314251526727642 0.11186398554318866 -0.11047779393678467 -0.001386191606403967 -0.038580255341111334 0.0 0.0
0.0 0.14408313993846433 0.12350801122057865 -0.12203625655028678 -0.0014717546702917909 -0.03380688014237058 0.0 0.0
0.0 0.15371631062055988 0.1326027868331237 -0.13105143719986814 -0.0015513496332554596 -0.02240217759808308 0.0 0.0
0.0 0.1537163106205483 0.1326027868331108 -0.13105143719985515 -0.0015513496332556474 0.0224021775981531 0.0 0.0
0.0 0.14408313993843092 0.12350801122054411 -0.12203625655025116 -0.0014717546702929813 0.033806880142458307 0.0 0.0
0.0 0.13142515267271254 0.11186398554313923 -0.11047779393673314 -0.0013861916064060995 0.03858025534117415 0.0 0.0
0.0 0.1168148782247911 0.09899921225957628 -0.09769193700082765 -0.0013072752587485813 0.039010362986150834 0.0 0.0
0.0 0.10158498531036564 0.08585339178749321 -0.0846174107824891 -0.0012359810050040839 0.03718218423083249 0.0 0.0
0.0 0.08674826757959334 0.07296134419649528 -0.07179505732477726 -0.001166286871718015 0.03415247684480415 0.0 0.0
0.0 0.07228619728009025 0.06064826696561315 -0.05955338331850273 -0.0010948836471104389 0.030455481736475866 0.0 0.0
0.0 0.05871888071383606 0.04912264375767296 -0.048100045992680446 -0.0010225977649925267 0.026422035045340683 0.0 0.0
0.0 0.04617494134605811 0.03850506962727253 -0.037556129471787984 -0.0009489401554845226 0.022254893082630407 0.0 0.0
0.0 0.034737216445856166 0.028862655666596296 -0.027990108444083873 -0.0008725472225124247 0.01801291751292137 0.0 0.0
0.0 0.024518364291526932 0.02027724275444641 -0.019485668685803176 -0.0007915740686432297 0.013679785117166419 0.0 0.0
0.0 0.0157305532892594 0.012916483918599474 -0.012217210898806272 -0.0006992730197931971 0.00941911614903217 0.0 0.0
0.0 0.008722890119689597 0.00706263875964381 -0.006491340039942492 -0.00057129871970132 0.005650741392655622 0.0 0.0
0.0 0.0038044177027604523 0.003010791174932542 -0.002640191132265721 -0.0003706000426668199 0.0028123583389548274 0.0 0.0
0.0 0.001059976407329052 0.0008067084452684723 -0.0006704660061859298 -0.00013624243908254207 0.0009770720982368274 0.0 0.0
0.0 0.00011779915306148222 7.273925971772473e-05 -5.848802069229697e-05 -1.425123902542775e-05 0.0001240343439166169 0.0 0.0
0.0 1.245983277765114e-06 -8.711175526903953e-08 6.722946235833695e-08 1.9882292910690027e-08 -2.0432140003799813e-07 0.0 0.0
0.0 0.0 0.0 0.0 0.0 0.0 0.0 0.0
0.0 7.761818091499395e-08 -1.6545393959844891e-09 1.4170477544857094e-09 2.374916414986896e-10 -1.5147987314084823e-08 0.0 0.0
0.0 0.003537428284686295 0.002210076659730483 -0.0025977031262734225 0.00038762646654293966 0.0031438674839197153 0.0 0.0
0.0 0.00235562598342628 0.0014100108634198642 -0.0017037939152346128 0.0002937830518147473 -0.002119224013181163 0.0 0.0
0.0 6.808126749334917e-07 -1.0371231226033877e-08 1.1382208934150606e-08 -1.010977708115995e-09 1.3495275768488005e-07 0.0 0.0
0.0 3.7869285625906513e-07 -1.0853022555903305e-08 7.76318668522007e-09 3.0898358706842675e-09 7.416418593090768e-08 0.0 0.0
0.0 1.5557257637676407e-06 2.926813881526236e-08 -2.0994308425718364e-08 -8.273830389533942e-09 -7.275691889758259e-08 0.0 0.0
0.0 6.233006707247738e-05 3.162427231419362e-05 -2.527966401739637e-05 -6.344608296797273e-06 -8.115360507013354e-05 0.0 0.0
0.0 0.0005971698474712503 0.0003741067084617604 -0.0003066375903930496 -6.746911806871091e-05 -0.0006789808773658266 0.0 0.0
0.0 0.002428584135603453 0.0017720306086782796 -0.0015171096364061543 -0.0002549209722721261 -0.0023622025863076655 0.0 0.0
0.0 0.00613935298025854 0.00471320334420343 -0.004238433572231177 -0.00047476977197224936 -0.005056451754488628 0.0 0.0
0.0 0.011684030930062816 0.009195286923399815 -0.008567796047170896 -0.0006274908762289143 -0.008615037671427274 0.0 0.0
0.0 0.018653564117411467 0.014935539487550772 -0.01420889918244645 -0.0007266403051043171 -0.012716276080197448 0.0 0.0
0.0 0.026736052395132062 0.021628495844011865 -0.020825992304635974 -0.0008025035393758923 -0.016939805931522462 0.0 0.0
0.0 0.03574031248677396 0.029116891880281562 -0.02824579455184215 -0.0008710973284394028 -0.021063372011642045 0.0 0.0
0.0 0.04561740010954815 0.037352839363706834 -0.036418160890382696 -0.0009346784733241346 -0.0251091717531248 0.0 0.0
0.0 0.05627536537939867 0.046328532051635535 -0.04533286115662142 -0.000995670895014103 -0.029056937228696348 0.0 0.0
0.0 0.06770827347384818 0.05599883916163979 -0.054942779811236936 -0.0010560593504028355 -0.03270312260604601 0.0 0.0
0.0 0.07969259777713338 0.06624145333570007 -0.0651260078344663 -0.0011154455012337828 -0.03571526029370668 0.0 0.0
0.0 0.09194515232561495 0.07689367560406511 -0.07572464244752061 -0.0011690331565444513 -0.03773942274207321 0.0 0.0
0.0 0.10427865886809981 0.08778994809610913 -0.08656357407862583 -0.0012263740174833185 -0.03797417702511241 0.0 0.0
0.0 0.11601985029363916 0.09846422992861974 -0.09716396895081794 -0.0013002609778017351 -0.03422624925502235 0.0 0.0
0.0 0.1258123629394683 0.10782215176351409 -0.10643481672047178 -0.0013873350430422613 -0.023575671667922387 0.0 0.0
0.0 0.12581236293946363 0.10782215176350612 -0.1064348167204647 -0.0013873350430413608 0.023575671667988803 0.0 0.0
0.0 0.11601985029361814 0.09846422992859358 -0.09716396895079268 -0.0013002609778009757 0.03422624925511006 0.0 0.0
0.0 0.10427865886806784 0.0877899480960741 -0.08656357407859173 -0.0012263740174822835 0.03797417702517545 0.0 0.0
0.0 0.09194515232557271 0.0768936756040238 -0.07572464244748056 -0.0011690331565432609 0.03773942274210142 0.0 0.0
0.0 0.07969259777707699 0.06624145333565107 -0.06512600783441841 -0.0011154455012326692 0.035715260293694914 0.0 0.0
0.0 0.06770827347378625 0.05599883916158675 -0.05494277981118447 -0.0010560593504022593 0.03270312260602811 0.0 0.0
0.0 0.05627536537934188 0.04632853205158672 -0.04533286115657324 -0.000995670895013488 0.029056937228680663 0.0 0.0
0.0 0.04561740010949585 0.03735283936366185 -0.03641816089033826 -0.0009346784733235788 0.0251091717531102 0.0 0.0
0.0 0.035740312486723394 0.029116891880239346 -0.028245794551800592 -0.0008710973284387727 0.021063372011618176 0.0 0.0
0.0 0.02673605239508555 0.021628495843973968 -0.02082599230459897 -0.0008025035393749796 0.016939805931494297 0.0 0.0
0.0 0.01865356411737317 0.014935539487521157 -0.014208899182417408 -0.0007266403051037449 0.012716276080167167 0.0 0.0
0.0 0.011684030930033543 0.009195286923376797 -0.008567796047148284 -0.000627490876228515 0.008615037671408381 0.0 0.0
0.0 0.00613935298023572 0.004713203344185744 -0.004238433572214431 -0.00047476977197131217 0.005056451754472677 0.0 0.0
0.0 0.0024285841355904518 0.0017720306086687959 -0.0015171096363976037 -0.0002549209722711907 0.0023622025862968174 0.0 0.0
0.0 0.0005971698474669147 0.0003741067084595433 -0.0003066375903911975 -6.746911806834557e-05 0.0006789808773617167 0.0 0.0
0.0 6.233006707119594e-05 3.162427231415718e-05 -2.5279664017357802e-05 -6.344608296799385e-06 8.115360506998461e-05 0.0 0.0
0.0 1.5557257635345152e-06 2.9268138915392482e-08 -2.0994308501439906e-08 -8.273830413950686e-09 7.275691924018794e-08 0.0 0.0
0.0 3.786928558295237e-07 -1.0853022544114866e-08 7.763186676628835e-09 3.0898358674860974e-09 -7.416418584570931e-08 0.0 0.0
0.0 6.808126741997652e-07 -1.0371231215047161e-08 1.1382208922371451e-08 -1.0109777073237724e-09 -1.34952757536912e-07 0.0 0.0
0.0 0.00235562598341612 0.0014100108634138683 -0.0017037939152278311 0.0002937830518139624 0.002119224013172306 0.0 0.0
0.0 0.0014239866469725848 0.0008036196209024317 -0.0010012370678408667 0.00019761744693843415 -0.0012936785535625805 0.0 0.0
0.0 2.2960744010756846e-06 1.147308286535501e-07 -1.1637242267665478e-07 1.6415940231033766e-09 -2.529565353181783e-06 0.0 0.0
0.0 8.54098042523105e-07 2.448807936698847e-08 -1.5905685628059567e-08 -8.582393738928377e-09 -2.544959381171543e-07 0.0 0.0
0.0 3.3178145241374552e-06 6.110060678630489e-07 -4.6880138579985714e-07 -1.4220468206318962e-07 -3.90267976219298e-06 0.0 0.0
0.0 4.881086651862129e-05 1.7502944062230486e-05 -1.3899294128838564e-05 -3.6036499333919343e-06 -7.051873451784595e-05 0.0 0.0
0.0 0.00032283760484783797 0.00015056784690585965 -0.00012215621084528123 -2.8411636060578464e-05 -0.0004409878705210001 0.0 0.0
0.0 0.0013873860214386159 0.0008367659773115989 -0.0006992251730904632 -0.00013754080422113572 -0.0017252064627629293 0.0 0.0
0.0 0.0038390992401648974 0.002650705413078629 -0.0023136737697414325 -0.0003370316433371969 -0.004063479644259082 0.0 0.0
0.0 0.007837358149301478 0.005719014061254314 -0.005201139262749288 -0.0005178747985050219 -0.007173111486627101 0.0 0.0
0.0 0.01288607157110209 0.009791720743937641 -0.009155629488283936 -0.000636091255653703 -0.010772473051508797 0.0 0.0
0.0 0.018906790128139426 0.014567384257033713 -0.013852978053951059 -0.0007144062030826523 -0.014553496517797557 0.0 0.0
0.0 0.02543892596004823 0.019899218452375883 -0.019122052534259307 -0.0007771659181165796 -0.018295380293807846 0.0 0.0
0.0 0.032596006169727125 0.025753919748919423 -0.02492211005465469 -0.0008318096942647341 -0.021976462603519764 0.0 0.0
0.0 0.040400122226061916 0.03216614604229459 -0.03128469307844763 -0.000881452963846953 -0.02557776932439032 0.0 0.0
0.0 0.04888091195705859 0.039170151869469 -0.03824036208875886 -0.0009297897807101185 -0.02896781580441177 0.0 0.0
0.0 0.05783214455073881 0.04673999600790963 -0.045760634090310795 -0.0009793619175988207 -0.0318090787392149 0.0 0.0
0.0 0.06725625694526398 0.05481311915217324 -0.053790553830182664 -0.0010225653219905603 -0.03374851788071182 0.0 0.0
0.0 0.07707405145483923 0.06350522564548632 -0.06245259926049495 -0.0010526263849913267 -0.034573215400236126 0.0 0.0
0.0 0.08735552743890264 0.07298502599638779 -0.07188150102254869 -0.0011035249738390936 -0.03263008224587798 0.0 0.0
0.0 0.09727068058753906 0.08262781276448199 -0.08142714076556101 -0.0012006719989210582 -0.02422890952950458 0.0 0.0
0.0 0.09727068058753605 0.08262781276447573 -0.08142714076555402 -0.0012006719989217161 0.024228909529561457 0.0 0.0
0.0 0.08735552743889809 0.0729850259963749 -0.07188150102253608 -0.0011035249738388143 0.03263008224596198 0.0 0.0
0.0 0.07707405145482234 0.06350522564546296 -0.06245259926047286 -0.0010526263849900755 0.0345732154002986 0.0 0.0
0.0 0.06725625694523006 0.05481311915213999 -0.05379055383015016 -0.0010225653219898389 0.033748517880731195 0.0 0.0
0.0 0.057832144550695984 0.046739996007874145 -0.04576063409027524 -0.0009793619175988858 0.031809078739198686 0.0 0.0
0.0 0.048880911957019386 0.0391701518694364 -0.03824036208872672 -0.0009297897807096919 0.02896781580439604 0.0 0.0
0.0 0.04040012222602367 0.03216614604226228 -0.03128469307841592 -0.0008814529638463591 0.025577769324377823 0.0 0.0
0.0 0.032596006169691355 0.02575391974888889 -0.02492211005462454 -0.00083180969426435 0.02197646260350867 0.0 0.0
0.0 0.02543892596001169 0.01989921845234651 -0.019122052534230327 -0.000777165918116186 0.018295380293786606 0.0 0.0
0.0 0.01890679012810204 0.014567384257004594 -0.013852978053922183 -0.0007144062030823988 0.014553496517771228 0.0 0.0
0.0 0.012886071571067645 0.009791720743912541 -0.009155629488259456 -0.0006360912556530802 0.010772473051478295 0.0 0.0
0.0 0.007837358149277865 0.005719014061236842 -0.005201139262732409 -0.0005178747985044314 0.007173111486607929 0.0 0.0
0.0 0.0038390992401498795 0.0026507054130677217 -0.002313673769731391 -0.0003370316433363311 0.004063479644245727 0.0 0.0
0.0 0.0013873860214298466 0.0008367659773062569 -0.0006992251730858527 -0.0001375408042204039 0.0017252064627537008 0.0 0.0
0.0 0.00032283760484451255 0.0001505678469046375 -0.00012215621084427108 -2.841163606036645e-05 0.00044098787051765053 0.0 0.0
0.0 4.881086651724648e-05 1.75029440622369e-05 -1.389929412883908e-05 -3.603649933397801e-06 7.051873451786585e-05 0.0 0.0
0.0 3.317814524032285e-06 6.110060679908609e-07 -4.6880138589659296e-07 -1.4220468209427088e-07 3.9026797630082445e-06 0.0 0.0
0.0 8.540980422698072e-07 2.448807942248029e-08 -1.5905685665004613e-08 -8.58239375747473e-09 2.5449593881752596e-07 0.0 0.0
0.0 2.2960744005398253e-06 1.147308286942492e-07 -1.1637242272411419e-07 1.6415940298649126e-09 2.5295653541803907e-06 0.0 0.0
0.0 0.0014239866469652096 0.0008036196208986172 -0.001001237067836429 0.00019761744693781198 0.0012936785535563888 0.0 0.0
0.0 0.000694571014878337 0.00038389396520856634 -0.0004965806192826556 0.00011268665407408969 -0.000672223018273609 0.0 0.0
0.0 4.696762463403099e-06 1.048149960115405e-07 -1.4232438528175338e-07 3.7509389270213056e-08 -4.099613295768908e-06 0.0 0.0
0.0 3.776960652779175e-06 6.213767013985381e-08 -2.6256774688654815e-08 -3.588089545119921e-08 -3.923145481044852e-06 0.0 0.0
0.0 7.505550049230622e-06 7.146987201957734e-07 -5.057415805295477e-07 -2.0895713966622255e-07 -1.0211070098335462e-05 0.0 0.0
0.0 5.164935982672892e-05 1.0392515050623699e-05 -8.147166895433542e-06 -2.245348155190162e-06 -7.937096825737896e-05 0.0 0.0
0.0 0.0002190686026797432 5.994770403265944e-05 -4.8390607293360554e-05 -1.15570967392989e-05 -0.00032719588681609377 0.0 0.0
0.0 0.0007306589473151294 0.00028196335184500515 -0.0002307588603471732 -5.1204491497831725e-05 -0.0010863443759598925 0.0 0.0
0.0 0.001980713237343183 0.0010330915446842925 -0.0008686657561857334 -0.00016442578849855906 -0.002734630581286182 0.0 0.0
0.0 0.0043173449901013055 0.0026381733755891845 -0.0023030334278753483 -0.0003351399477138366 -0.005135879569399867 0.0 0.0
0.0 0.007493875924858247 0.004984123103101755 -0.004503413611815631 -0.00048070949128612496 -0.007935702125623452 0.0 0.0
0.0 0.011227755443792438 0.007812663768298101 -0.007233894566283224 -0.0005787692020148761 -0.010940626775343795 0.0 0.0
0.0 0.015441597817317533 0.010969535950290826 -0.010325147632522211 -0.0006443883177686006 -0.014001762474794356 0.0 0.0
0.0 0.019990455525501293 0.01444365363856748 -0.013748593094519172 -0.0006950605440483156 -0.017087050119647597 0.0 0.0
0.0 0.02496678459212137 0.01828771072501958 -0.017551900535525113 -0.0007358101894944564 -0.02013170299788484 0.0 0.0
0.0 0.03042784031060657 0.02259103662984166 -0.021819643672419828 -0.0007713929574218264 -0.02306627183789926 0.0 0.0
0.0 0.036402139900310375 0.027449420885273572 -0.026641637345645314 -0.0008077835396282544 -0.025672196607693987 0.0 0.0
0.0 0.04289459743371545 0.032919166046761254 -0.0320711269754017 -0.0008480390713595687 -0.027493662027017005 0.0 0.0
0.0 0.05008198553972444 0.03918290902125483 -0.038314660372976525 -0.0008682486482783211 -0.028432196022880635 0.0 0.0
0.0 0.05869589405563391 0.04693166132998847 -0.04606459309704792 -0.0008670682329405386 -0.028388676051092566 0.0 0.0
0.0 0.06862350680999092 0.05664168411547562 -0.05567540334434494 -0.0009662807711306996 -0.023991414116688432 0.0 0.0
0.0 0.06862350680999259 0.056641684115472095 -0.055675403344341484 -0.0009662807711306292 0.023991414116738906 0.0 0.0
0.0 0.058695894055631234 0.046931661329976726 -0.04606459309703621 -0.000867068232940473 0.028388676051166614 0.0 0.0
0.0 0.05008198553971211 0.039182909021236514 -0.038314660372957776 -0.0008682486482787279 0.02843219602293029 0.0 0.0
0.0 0.04289459743369649 0.03291916604674228 -0.0320711269753821 -0.0008480390713601928 0.027493662027030817 0.0 0.0
0.0 0.036402139900284715 0.02744942088525417 -0.02664163734562635 -0.0008077835396278145 0.025672196607677708 0.0 0.0
0.0 0.03042784031058031 0.02259103662982123 -0.021819643672399698 -0.0007713929574215251 0.023066271837885698 0.0 0.0
0.0 0.02496678459209943 0.01828771072500237 -0.01755190053550789 -0.000735810189494473 0.020131702997874822 0.0 0.0
0.0 0.01999045552548546 0.014443653638554325 -0.013748593094506462 -0.0006950605440478708 0.01708705011964251 0.0 0.0
0.0 0.01544159781729653 0.01096953595027565 -0.010325147632507577 -0.000644388317768073 0.014001762474778235 0.0 0.0
0.0 0.011227755443770684 0.007812663768283473 -0.00723389456626885 -0.000578769202014624 0.010940626775323183 0.0 0.0
0.0 0.007493875924839289 0.004984123103090258 -0.004503413611804428 -0.00048070949128582925 0.007935702125602233 0.0 0.0
0.0 0.004317344990089063 0.0026381733755808908 -0.002303033427867725 -0.0003351399477131664 0.005135879569387812 0.0 0.0
0.0 0.0019807132373361497 0.0010330915446801617 -0.0008686657561821378 -0.00016442578849802433 0.0027346305812783037 0.0 0.0
0.0 0.0007306589473108744 0.00028196335184335413 -0.00023075886034580728 -5.120449149754697e-05 0.0010863443759546332 0.0 0.0
0.0 0.00021906860267742475 5.99477040323613e-05 -4.839060729311597e-05 -1.1557096739245291e-05 0.000327195886814216 0.0 0.0
0.0 5.1649359825680624e-05 1.0392515050617237e-05 -8.147166895423935e-06 -2.245348155193301e-06 7.93709682572947e-05 0.0 0.0
0.0 7.505550048990961e-06 7.14698720230535e-07 -5.057415805528638e-07 -2.0895713967766835e-07 1.0211070098874065e-05 0.0 0.0
0.0 3.776960651989975e-06 6.213767015093241e-08 -2.6256774693188003e-08 -3.58808954577437e-08 3.923145481832748e-06 0.0 0.0
0.0 4.6967624631581635e-06 1.0481499603623272e-07 -1.423243853210977e-07 3.750938928486459e-08 4.0996132967109635e-06 0.0 0.0
0.0 0.0006945710148736257 0.0003838939652064461 -0.0004965806192800731 0.00011268665407362672 0.0006722230182699362 0.0 0.0
0.0 0.00024276785498572774 0.0001284060038424343 -0.0001737706063330554 4.5364602490621095e-05 -0.00024198158234760297 0.0 0.0
0.0 5.851846756828386e-06 -7.799067120563438e-09 -5.946153627253572e-08 6.726060339310033e-08 -5.591127359564172e-06 0.0 0.0
0.0 8.135039965433509e-06 -3.521789676454256e-07 3.397481345825172e-07 1.2430833062909058e-08 -1.090375313683564e-05 0.0 0.0
0.0 1.434817239964661e-05 -2.1105371758960853e-07 3.124910863793922e-07 -1.0143736878978424e-07 -2.1989381150212936e-05 0.0 0.0
0.0 5.9078948980910807e-05 2.458342353503072e-06 -1.7055509083410557e-06 -7.527914451620226e-07 -9.003921814224233e-05 0.0 0.0
0.0 0.0001991326026976271 1.697581805757373e-05 -1.3521847663295884e-05 -3.4539703942778245e-06 -0.0003165079855011653 0.0 0.0
0.0 0.00047240955479562895 5.9373257413379914e-05 -4.8187974962708614e-05 -1.118528245067132e-05 -0.0007761053857965446 0.0 0.0
0.0 0.0009568629737828697 0.00016452585539767267 -0.00013432005136123384 -3.0205804036438655e-05 -0.0015267735351673323 0.0 0.0
0.0 0.0017563776391256484 0.0004360117911680075 -0.0003564834870243964 -7.952830414361082e-05 -0.0028165541013332202 0.0 0.0
0.0 0.0030756912305980573 0.0009704356337314387 -0.0007997239803221875 -0.000170711653409251 -0.004627935304016905 0.0 0.0
0.0 0.004689082480034492 0.001756770252526479 -0.001482265400609722 -0.0002745048519167557 -0.0068379045883648504 0.0 0.0
0.0 0.006677797968459929 0.002710870900417676 -0.0023518544204781016 -0.0003590164799395729 -0.00924391329206578 0.0 0.0
0.0 0.00889638578359642 0.0038016799188637317 -0.003377945586208362 -0.0004237343326553686 -0.011790226638543658 0.0 0.0
0.0 0.011389024405535958 0.005067983975400438 -0.004597244028923948 -0.00047073994647649046 -0.014454484289267404 0.0 0.0
0.0 0.01417406598759536 0.006631840858608106 -0.006127504723469051 -0.0005043361351390485 -0.01718917587723935 0.0 0.0
0.0 0.0173890975535335 0.00870158639487456 -0.008169757528509139 -0.000531828866365421 -0.019807584577135138 0.0 0.0
0.0 0.02105869351878784 0.01154245281625504 -0.01097741131655713 -0.0005650414996978981 -0.021829048052638356 0.0 0.0
0.0 0.025278000471182623 0.015371301932096692 -0.01476124419448005 -0.0006100577376166334 -0.02260211769841315 0.0 0.0
0.0 0.03110589430360862 0.02076188683648534 -0.020169036269620043 -0.0005928505668652995 -0.02278284354324316 0.0 0.0
0.0 0.04012646132135578 0.029529088973189267 -0.028937352179785512 -0.0005917367934037493 -0.02266409831995397 0.0 0.0
0.0 0.04012646132136181 0.029529088973190114 -0.028937352179786147 -0.0005917367934039592 0.02266409831999122 0.0 0.0
0.0 0.03110589430361997 0.020761886836485687 -0.020169036269620674 -0.0005928505668650198 0.02278284354330222 0.0 0.0
0.0 0.02527800047117717 0.015371301932086578 -0.014761244194470328 -0.0006100577376162441 0.022602117698445202 0.0 0.0
0.0 0.021058693518775037 0.011542452816245274 -0.010977411316548183 -0.0005650414996970878 0.02182904805263948 0.0 0.0
0.0 0.01738909755351739 0.008701586394867813 -0.008169757528502542 -0.0005318288663652675 0.019807584577114776 0.0 0.0
0.0 0.014174065987579176 0.006631840858599623 -0.006127504723460348 -0.0005043361351392739 0.017189175877225536 0.0 0.0
0.0 0.011389024405523241 0.0050679839753956755 -0.00459724402891888 -0.0004707399464767965 0.014454484289252053 0.0 0.0
0.0 0.008896385783588371 0.0038016799188614484 -0.003377945586205913 -0.00042373433265553316 0.01179022663853403 0.0 0.0
0.0 0.0066777979684478255 0.00271087090041314 -0.0023518544204739543 -0.0003590164799391854 0.009243913292051606 0.0 0.0
0.0 0.004689082480022294 0.0017567702525226215 -0.0014822654006063295 -0.00027450485191629273 0.006837904588347639 0.0 0.0
0.0 0.003075691230588053 0.0009704356337283167 -0.0007997239803196767 -0.00017071165340863992 0.0046279353040034315 0.0 0.0
0.0 0.0017563776391207645 0.0004360117911666332 -0.0003564834870233027 -7.952830414333033e-05 0.0028165541013254257 0.0 0.0
0.0 0.000956862973779921 0.0001645258553970633 -0.00013432005136077523 -3.0205804036287914e-05 0.0015267735351624902 0.0 0.0
0.0 0.00047240955479338194 5.937325741320815e-05 -4.818797496254418e-05 -1.1185282450663922e-05 0.0007761053857943094 0.0 0.0
0.0 0.00019913260269581126 1.6975818057521544e-05 -1.352184766324394e-05 -3.4539703942776085e-06 0.0003165079854998195 0.0 0.0
0.0 5.907894897965402e-05 2.4583423535043226e-06 -1.7055509083417918e-06 -7.527914451625335e-07 9.003921814211556e-05 0.0 0.0
0.0 1.4348172398553714e-05 -2.11053717599657e-07 3.1249108639083067e-07 -1.0143736879117358e-07 2.198938115057649e-05 0.0 0.0
0.0 8.135039964617344e-06 -3.52178967670245e-07 3.3974813460385563e-07 1.2430833066388699e-08 1.0903753137367633e-05 0.0 0.0
0.0 5.8518467567334986e-06 -7.799067115989562e-09 -5.9461536304775244e-08 6.726060342076732e-08 5.591127360710043e-06 0.0 0.0
0.0 0.00024276785498333748 0.00012840600384159747 -0.00017377060633196138 4.536460249036394e-05 0.00024198158234613645 0.0 0.0
0.0 4.000185196323472e-05 1.9635237222913884e-05 -2.7925283676639763e-05 8.290046453725862e-06 -4.0307415084203756e-05 0.0 0.0
0.0 5.48302016803734e-06 -1.703503364460317e-07 5.217275683413452e-08 1.1817757961190198e-07 -5.7853973091295605e-06 0.0 0.0
0.0 1.1487341128402361e-05 -1.3053871272441755e-06 1.1194952353423087e-06 1.8589189190186722e-07 -1.6473650763466003e-05 0.0 0.0
0.0 2.1434536518295078e-05 -2.6945291952599437e-06 2.386538167464016e-06 3.079910277959289e-07 -3.315562001560758e-05 0.0 0.0
0.0 6.862649959363236e-05 -7.168718891817214e-06 6.182813507593973e-06 9.859053842232478e-07 -0.00010350053208228009 0.0 0.0
0.0 0.00021087169996424396 -2.214092970310831e-05 1.8269989312926544e-05 3.870940390181758e-06 -0.000327557516431726 0.0 0.0
0.0 0.000480980307586852 -6.352706523596232e-05 5.1757369066069846e-05 1.1769696169892472e-05 -0.0007902126484269032 0.0 0.0
0.0 0.0009632029523518886 -0.0001672054951277204 0.00013648087210249167 3.0724623025228826e-05 -0.0015379271062570424 0.0 0.0
0.0 0.0017581490911146294 -0.00043714303985675963 0.00035750930426041016 7.963373559634923e-05 -0.002821344121762566 0.0 0.0
0.0 0.003076294341832698 -0.0009708908511292893 0.0008003747511442609 0.00017051609998502824 -0.004629334984678126 0.0 0.0
0.0 0.004711383188688649 -0.0017684877197298504 0.0014949487354098462 0.00027353898432000526 -0.006847113799579316 0.0 0.0
0.0 0.006721300651757047 -0.0027624654545775496 0.002403400217582396 0.00035906523699515136 -0.009265198398499482 0.0 0.0
0.0 0.008966867374116342 -0.0038933572683145833 0.0034655903183049177 0.00042776695000966235 -0.01180381695927949 0.0 0.0
0.0 0.011383394585617572 -0.005082052948462357 0.004597061732123344 0.00048499121633900985 -0.01443523752540943 0.0 0.0
0.0 0.013767437937476906 -0.006155244449165542 0.0056208003850524236 0.0005344440641131161 -0.017139693760428894 0.0 0.0
0.0 0.015919913248849164 -0.006809545855053823 0.006231444773011359 0.0005781010820424568 -0.019862524802821968 0.0 0.0
0.0 0.01747745318165863 -0.006632485528250951 0.00601606623569646 0.0006164192925544908 -0.022591742826913497 0.0 0.0
0.0 0.018343266580366335 -0.005354771077988015 0.004717773872776498 0.0006369972052115106 -0.02544059190540824 0.0 0.0
0.0 0.01852697307942159 -0.002932430847156475 0.0023162425674891273 0.0006161882796673456 -0.02799427351733956 0.0 0.0
0.0 0.018620326019955183 0.0040631166529150305 -0.004121343166095798 5.8226513180766024e-05 -0.027552072909944703 0.0 0.0
0.0 0.01862032601995939 0.004063116652914444 -0.004121343166095322 5.822651318088091e-05 0.027552072909959084 0.0 0.0
0.0 0.018526973079426794 -0.002932430847157653 0.0023162425674901786 0.0006161882796674727 0.027994273517357164 0.0 0.0
0.0 0.01834326658035937 -0.005354771077985358 0.004717773872774728 0.0006369972052106259 0.025440591905408705 0.0 0.0
0.0 0.0174774531816436 -0.006632485528243094 0.006016066235689027 0.0006164192925540683 0.02259174282690303 0.0 0.0
0.0 0.015919913248830214 -0.006809545855043408 0.0062314447730011605 0.0005781010820422391 0.019862524802801068 0.0 0.0
0.0 0.01376743793746146 -0.006155244449156673 0.005620800385043745 0.0005344440641129225 0.017139693760413903 0.0 0.0
0.0 0.011383394585599206 -0.0050820529484511615 0.0045970617321124925 0.00048499121633866805 0.014435237525394322 0.0 0.0
0.0 0.008966867374099435 -0.003893357268303668 0.003465590318294305 0.00042776695000936083 0.011803816959266189 0.0 0.0
0.0 0.006721300651738475 -0.0027624654545672193 0.002403400217572664 0.0003590652369945541 0.009265198398481223 0.0 0.0
0.0 0.004711383188669871 -0.0017684877197200778 0.0014949487354008878 0.0002735389843191901 0.006847113799557811 0.0 0.0
0.0 0.0030762943418197594 -0.0009708908511240796 0.0008003747511398627 0.00017051609998421614 0.00462933498466352 0.0 0.0
0.0 0.001758149091109791 -0.0004371430398545387 0.00035750930425858767 7.963373559595104e-05 0.0028213441217562188 0.0 0.0
0.0 0.0009632029523490358 -0.00016720549512679131 0.00013648087210177336 3.0724623025017975e-05 0.0015379271062530581 0.0 0.0
0.0 0.0004809803075840808 -6.35270652356522e-05 5.175736906585816e-05 1.1769696169794016e-05 0.000790212648423619 0.0 0.0
0.0 0.0002108716999626485 -2.214092970305633e-05 1.8269989312892734e-05 3.8709403901636085e-06 0.00032755751643090945 0.0 0.0
0.0 6.862649959183104e-05 -7.168718891761077e-06 6.182813507547482e-06 9.859053842135825e-07 0.00010350053208150309 0.0 0.0
0.0 2.1434536517838232e-05 -2.694529195286156e-06 2.386538167485799e-06 3.079910278003553e-07 3.3155620015885764e-05 0.0 0.0
0.0 1.1487341127861382e-05 -1.3053871273187932e-06 1.1194952354047869e-06 1.8589189191400682e-07 1.6473650764293747e-05 0.0 0.0
0.0 5.483020167956264e-06 -1.7035033646951437e-07 5.217275680896479e-08 1.1817757966055435e-07 5.7853973105120495e-06 0.0 0.0
0.0 4.000185196250063e-05 1.963523722299907e-05 -2.792528367675673e-05 8.29004645375765e-06 4.030741508453216e-05 0.0 0.0
0.0 1.838288999669909e-06 -2.9471419531590106e-09 3.4329240374709813e-09 -4.857820842934782e-10 4.3674074550274506e-08 0.0 0.0
0.0 3.821477293275845e-06 -2.6549329492100716e-07 1.4035657227568665e-07 1.251367226453189e-07 -5.074394880750773e-06 0.0 0.0
0.0 1.2871101305285227e-05 -2.2635804745967223e-06 1.8860011041481988e-06 3.7757937044852016e-07 -1.8102562696220918e-05 0.0 0.0
0.0 2.7631406010858025e-05 -5.552507071507452e-06 4.727244494608091e-06 8.252625768993748e-07 -3.690824269158615e-05 0.0 0.0
0.0 7.816621622027128e-05 -1.9528284823134587e-05 1.628116995328385e-05 3.247114869850739e-06 -0.00011706364561214468 0.0 0.0
0.0 0.0002485147344560988 -7.338240883122065e-05 5.987071355180978e-05 1.351169527941088e-05 -0.0003728397327125174 0.0 0.0
0.0 0.0007619660948761368 -0.00029560787625950525 0.0002423436851901549 5.326419106935032e-05 -0.001122927756743592 0.0 0.0
0.0 0.0019952855596515775 -0.0010404091478882114 0.0008751656434972972 0.00016524350439091372 -0.0027541563458776098 0.0 0.0
0.0 0.00431781989689065 -0.002638276041015333 0.0023033719041293484 0.0003349041368859834 -0.005140678852829634 0.0 0.0
0.0 0.007496293343793361 -0.004986297804652957 0.004506215579830661 0.0004800822248222943 -0.007938522675522914 0.0 0.0
0.0 0.011247483893555947 -0.007831519128825813 0.007254122484876461 0.0005773966439493498 -0.010945796351009314 0.0 0.0
0.0 0.01549113619044184 -0.011024947073037809 0.01038173377558109 0.000643213297456717 -0.013990525715396 0.0 0.0
0.0 0.02005375019019575 -0.014528182866642652 0.013830246978740373 0.000697935887902275 -0.017026137237518342 0.0 0.0
0.0 0.024912904615700723 -0.018266352712486156 0.017516870805006326 0.0007494819074798261 -0.020029620972994346 0.0 0.0
0.0 0.029856563049860244 -0.022028555560427366 0.021227615045139203 0.0008009405152881522 -0.023055559405073783 0.0 0.0
0.0 0.03448350281770045 -0.025429256740486843 0.024579490351174692 0.00084976638931215 -0.026151619272616996 0.0 0.0
0.0 0.038320404351427334 -0.027947758856615452 0.027059683281057154 0.000888075575558302 -0.029419208580909212 0.0 0.0
0.0 0.040687039991273835 -0.029000417487331516 0.028087084869473384 0.0009133326178581596 -0.03274380751137962 0.0 0.0
0.0 0.039832759482982455 -0.027407130586788966 0.026402971657332974 0.001004158929455975 -0.034324916069431534 0.0 0.0
0.0 0.03267105498377512 -0.019730792733356095 0.018595216234129408 0.0011355764992266714 -0.032167536116243775 0.0 0.0
0.0 0.03267105498379069 -0.019730792733359294 0.01859521623413293 0.001135576499226356 0.032167536116288004 0.0 0.0
0.0 0.039832759482989276 -0.02740713058678271 0.026402971657326687 0.001004158929456008 0.034324916069488134 0.0 0.0
0.0 0.04068703999126208 -0.029000417487314127 0.028087084869455534 0.0009133326178585819 0.03274380751141198 0.0 0.0
0.0 0.038320404351398246 -0.027947758856589514 0.02705968328103137 0.0008880755755581532 0.02941920858090799 0.0 0.0
0.0 0.034483502817665955 -0.02542925674045947 0.024579490351148137 0.000849766389311328 0.02615161927259607 0.0 0.0
0.0 0.02985656304982874 -0.022028555560402955 0.021227615045115333 0.000800940515287623 0.02305555940505359 0.0 0.0
0.0 0.024912904615668217 -0.018266352712460594 0.01751687080498075 0.0007494819074798367 0.020029620972976288 0.0 0.0
0.0 0.020053750190162978 -0.01452818286661591 0.013830246978713875 0.0006979358879020188 0.01702613723750175 0.0 0.0
0.0 0.015491136190407775 -0.011024947073011866 0.010381733775555691 0.0006432132974561754 0.013990525715371894 0.0 0.0
0.0 0.011247483893525177 -0.007831519128804363 0.007254122484855692 0.0005773966439486676 0.01094579635098122 0.0 0.0
0.0 0.007496293343766612 -0.004986297804634535 0.004506215579813159 0.0004800822248213765 0.007938522675497644 0.0 0.0
0.0 0.0043178198968740825 -0.0026382760410032903 0.002303371904118236 0.00033490413688505496 0.005140678852814693 0.0 0.0
0.0 0.0019952855596417417 -0.001040409147881975 0.0008751656434919414 0.00016524350439003365 0.002754156345866448 0.0 0.0
0.0 0.0007619660948705476 -0.0002956078762572609 0.00024234368518835005 5.326419106891089e-05 0.0011229277567367788 0.0 0.0
0.0 0.00024851473445359833 -7.33824088307903e-05 5.987071355145696e-05 1.3511695279333386e-05 0.0003728397327104578 0.0 0.0
0.0 7.816621621931891e-05 -1.952828482314979e-05 1.6281169953295376e-05 3.2471148698544087e-06 0.00011706364561219602 0.0 0.0
0.0 2.7631406009817726e-05 -5.552507071489814e-06 4.727244494591708e-06 8.252625768981083e-07 3.69082426914466e-05 0.0 0.0
0.0 1.2871101304549658e-05 -2.2635804746707865e-06 1.886001104208287e-06 3.775793704624979e-07 1.8102562696770245e-05 0.0 0.0
0.0 3.821477293001813e-06 -2.654932949546983e-07 1.4035657228030943e-07 1.2513672267438922e-07 5.074394881534124e-06 0.0 0.0
0.0 1.8382889993077794e-06 -2.9471417694959038e-09 3.432923771253317e-09 -4.857820017572379e-10 -4.367407408116135e-08 0.0 0.0
0.0 0.0 0.0 0.0 0.0 0.0 0.0 0.0
0.0 1.947972496782601e-06 -3.1847721948763466e-08 2.817579004144257e-08 3.671931907318227e-09 -3.755980782583667e-07 0.0 0.0
0.0 1.1531279260685808e-05 -2.2813043504953783e-06 1.878152238606974e-06 4.031521118883989e-07 -1.3244097141867686e-05 0.0 0.0
0.0 3.093619126577887e-05 -8.273144688899335e-06 6.886975869391121e-06 1.3861688195082228e-06 -3.638761845113489e-05 0.0 0.0
0.0 9.457914129092758e-05 -3.590326888359079e-05 2.9493063516553962e-05 6.410205367036824e-06 -0.00012996259678578703 0.0 0.0
0.0 0.00038365204559850826 -0.0001833712781983288 0.00014988831612160712 3.348296207672163e-05 -0.0005202441641076806 0.0 0.0
0.0 0.001426735242730319 -0.0008565666932339175 0.0007170096665555303 0.00013955702667838764 -0.0017680360049035812 0.0 0.0
0.0 0.0038460277276895836 -0.002652212630186138 0.002315585715077808 0.0003366269151083303 -0.004077677898081217 0.0 0.0
0.0 0.007834252863227564 -0.005717070570327184 0.0051995316657884125 0.0005175389045387708 -0.007173375838307662 0.0 0.0
0.0 0.012891174020299783 -0.009796483057768016 0.00916092614855238 0.0006355569092156347 -0.010775389877627987 0.0 0.0
0.0 0.018924303461888267 -0.01458559587944057 0.013872332785121521 0.0007132630943190632 -0.014548766174972772 0.0 0.0
0.0 0.025464168761168592 -0.01993850116054272 0.01916249474768538 0.0007760064128573316 -0.018233455261150434 0.0 0.0
0.0 0.03259930402651671 -0.02580115205235039 0.024967248132646166 0.0008339039197042252 -0.021791395584020476 0.0 0.0
0.0 0.04026876879615533 -0.03210191289411776 0.03120899512566705 0.0008929177684507065 -0.02531776218502364 0.0 0.0
0.0 0.04829881636143256 -0.0386138974784848 0.03765867166444855 0.0009552258140362324 -0.029035196097746525 0.0 0.0
0.0 0.05614281863619599 -0.04488639187785294 0.043869457541227015 0.0010169343366258701 -0.03323743970475072 0.0 0.0
0.0 0.06317904869159585 -0.05024447487044319 0.04916991260066582 0.0010745622697773422 -0.03804928170589959 0.0 0.0
0.0 0.06783661419122068 -0.053640523229088174 0.05249366362485872 0.0011468596042294077 -0.04260395123504355 0.0 0.0
0.0 0.06793284081478705 -0.05309110710787043 0.0518473771293829 0.0012437299784875296 -0.044804149333131815 0.0 0.0
0.0 0.0577239873113716 -0.04430735125547766 0.04281468560881099 0.0014926656466666662 -0.040488175787371974 0.0 0.0
0.0 0.057723987311377956 -0.04430735125547324 0.04281468560880576 0.0014926656466674746 0.04048817578742503 0.0 0.0
0.0 0.06793284081478876 -0.053091107107859296 0.05184737712937062 0.0012437299784886615 0.04480414933320283 0.0 0.0
0.0 0.0678366141912076 -0.05364052322906676 0.05249366362483746 0.001146859604229263 0.04260395123509566 0.0 0.0
0.0 0.06317904869155685 -0.050244474870407355 0.049169912600630056 0.0010745622697773275 0.038049281705902965 0.0 0.0
0.0 0.056142818636143454 -0.04488639187780909 0.0438694575411826 0.0010169343366264996 0.03323743970473143 0.0 0.0
0.0 0.04829881636138081 -0.03861389747844229 0.03765867166440597 0.0009552258140363048 0.029035196097722767 0.0 0.0
0.0 0.04026876879610607 -0.0321019128940772 0.031208995125626783 0.0008929177684504008 0.02531776218499998 0.0 0.0
0.0 0.032599304026470086 -0.025801152052310913 0.024967248132606975 0.0008339039197039273 0.021791395584002962 0.0 0.0
0.0 0.02546416876111958 -0.019938501160502983 0.019162494747645767 0.0007760064128572048 0.018233455261122966 0.0 0.0
0.0 0.01892430346183772 -0.014585595879401269 0.013872332785082129 0.0007132630943191342 0.014548766174937267 0.0 0.0
0.0 0.012891174020257405 -0.009796483057736251 0.009160926148520732 0.0006355569092155194 0.010775389877594264 0.0 0.0
0.0 0.007834252863201474 -0.005717070570307093 0.005199531665768756 0.000517538904538335 0.007173375838288422 0.0 0.0
0.0 0.0038460277276733262 -0.0026522126301740043 0.0023155857150667044 0.00033662691510729997 0.004077677898067889 0.0 0.0
0.0 0.0014267352427209225 -0.0008565666932283415 0.0007170096665508036 0.00013955702667753795 0.0017680360048939673 0.0 0.0
0.0 0.0003836520455940731 -0.0001833712781966097 0.00014988831612019435 3.34829620764153e-05 0.0005202441641031601 0.0 0.0
0.0 9.457914128962119e-05 -3.590326888355568e-05 2.9493063516524062e-05 6.41020536703157e-06 0.00012996259678552477 0.0 0.0
0.0 3.093619126531591e-05 -8.273144689123133e-06 6.886975869573348e-06 1.386168819549768e-06 3.638761845205129e-05 0.0 0.0
0.0 1.1531279260302662e-05 -2.281304350648223e-06 1.8781522387314985e-06 4.031521119167301e-07 1.3244097142752525e-05 0.0 0.0
0.0 1.947972496409392e-06 -3.184772197963682e-08 2.817579005888702e-08 3.671931920746088e-09 3.7559807868296083e-07 0.0 0.0
0.0 0.0 0.0 0.0 0.0 0.0 0.0 0.0
0.0 0.0 0.0 0.0 0.0 0.0 0.0 0.0
0.0 4.063806097121623e-07 8.83875332606981e-09 -5.922659735395461e-09 -2.916093590674856e-09 8.037141172206253e-08 0.0 0.0
0.0 7.469124171314559e-06 -1.8417124877308196e-06 1.5034317212073747e-06 3.3828076652343985e-07 -8.188295333950622e-06 0.0 0.0
0.0 3.0212895191955094e-05 -1.1415233161493507e-05 9.398348621290365e-06 2.0168845402031295e-06 -3.6788468728386556e-05 0.0 0.0
0.0 0.00012994183332316116 -6.517280242965269e-05 5.3223085625662e-05 1.1949716803990716e-05 -0.00016018876299986586 0.0 0.0
0.0 0.0006660494483649352 -0.00042319251813637557 0.00034890102508987965 7.429149304649595e-05 -0.0007712370632635137 0.0 0.0
0.0 0.002461711254347301 -0.0017823606774180591 0.0015280912828830632 0.0002542693945349956 -0.0023965024050997138 0.0 0.0
0.0 0.006135496742630297 -0.004707295891163325 0.004233220347177291 0.0004740755439860331 -0.0050595561413891476 0.0 0.0
0.0 0.01168168307605825 -0.009194313255061964 0.008566943581110072 0.0006273696739518912 -0.008612625823943572 0.0 0.0
0.0 0.018659678132438535 -0.014943149666014573 0.014216836164291258 0.0007263135017233144 -0.012719520247751758 0.0 0.0
0.0 0.02674571591601319 -0.02164068774877493 0.020838764787089813 0.0008019229616851009 -0.016924421547904467 0.0 0.0
0.0 0.03572478743991688 -0.029124173539809554 0.028253759252499087 0.0008704142873104427 -0.02095394735162058 0.0 0.0
0.0 0.045536612709565084 -0.03733470139448206 0.03639917425831084 0.0009355271361712158 -0.02480606191747323 0.0 0.0
0.0 0.05606325028224971 -0.046207716764411655 0.04520528419569055 0.0010024325687211207 -0.028635016183853126 0.0 0.0
0.0 0.06719738016619653 -0.055517712736060064 0.054443825562132536 0.0010738871739274622 -0.032799957724363255 0.0 0.0
0.0 0.07838831647721152 -0.06474556309763707 0.06359474360443851 0.0011508194931985013 -0.03776959297745062 0.0 0.0
0.0 0.08847918617858212 -0.07293328187287912 0.07169730785721173 0.0012359740156673582 -0.043574600442328144 0.0 0.0
0.0 0.09554328791121179 -0.0784440197137435 0.07710792338482764 0.001336096328915791 -0.049035321749618395 0.0 0.0
0.0 0.09593042686875726 -0.07844717839574802 0.07696138047668921 0.0014857979190587831 -0.05122959979724116 0.0 0.0
0.0 0.08350470376279076 -0.06779751032318532 0.0660880542862752 0.0017094560369101174 -0.0469187975737616 0.0 0.0
0.0 0.08350470376280156 -0.06779751032318428 0.06608805428627523 0.0017094560369090035 0.04691879757382411 0.0 0.0
0.0 0.09593042686876008 -0.07844717839573732 0.07696138047668033 0.0014857979190570053 0.051229599797323236 0.0 0.0
0.0 0.09554328791118726 -0.0784440197137123 0.07710792338479729 0.001336096328914981 0.04903532174967836 0.0 0.0
0.0 0.08847918617852511 -0.07293328187282642 0.07169730785715953 0.001235974015666881 0.04357460044233888 0.0 0.0
0.0 0.07838831647714757 -0.06474556309758205 0.06359474360438433 0.0011508194931977205 0.03776959297743212 0.0 0.0
0.0 0.06719738016613071 -0.055517712736004594 0.054443825562077 0.0010738871739275498 0.032799957724340065 0.0 0.0
0.0 0.05606325028218481 -0.04620771676435701 0.0452052841956363 0.001002432568720733 0.028635016183828216 0.0 0.0
0.0 0.04553661270950059 -0.037334701394427135 0.036399174258256374 0.0009355271361707646 0.024806061917452 0.0 0.0
0.0 0.03572478743985576 -0.029124173539758106 0.028253759252448107 0.000870414287309962 0.020953947351593952 0.0 0.0
0.0 0.026745715915958108 -0.021640687748730063 0.020838764787045792 0.0008019229616842759 0.01692442154787108 0.0 0.0
0.0 0.018659678132389234 -0.014943149665975358 0.014216836164252768 0.0007263135017225885 0.012719520247717683 0.0 0.0
0.0 0.011681683076020084 -0.009194313255031582 0.008566943581080375 0.0006273696739512126 0.008612625823919903 0.0 0.0
0.0 0.006135496742604777 -0.004707295891143486 0.004233220347158431 0.0004740755439850533 0.005059556141370956 0.0 0.0
0.0 0.0024617112543354595 -0.0017823606774094586 0.0015280912828755744 0.00025426939453388397 0.0023965024050903246 0.0 0.0
0.0 0.0006660494483592883 -0.0004231925181333282 0.00034890102508729415 7.429149304603413e-05 0.000771237063258504 0.0 0.0
0.0 0.00012994183332137738 -6.517280242923312e-05 5.3223085625307194e-05 1.1949716803925884e-05 0.0001601887629988257 0.0 0.0
0.0 3.0212895191103792e-05 -1.1415233161587802e-05 9.398348621362573e-06 2.0168845402252226e-06 3.6788468728629235e-05 0.0 0.0
0.0 7.469124170975618e-06 -1.8417124879284914e-06 1.5034317213622413e-06 3.382807665662491e-07 8.188295334809702e-06 0.0 0.0
0.0 4.063806093257621e-07 8.838753319458759e-09 -5.922659733024222e-09 -2.916093586432878e-09 -8.037141164573473e-08 0.0 0.0
0.0 0.0 0.0 0.0 0.0 0.0 0.0 0.0
0.0 0.0 0.0 0.0 0.0 0.0 0.0 0.0
0.0 0.0 0.0 0.0 0.0 0.0 0.0 0.0
0.0 3.468587405435707e-06 -1.0088304698164081e-06 8.205688239567186e-07 1.8826164585969308e-07 -3.5259613952840203e-06 0.0 0.0
0.0 2.8982577174400472e-05 -1.1392972765544621e-05 9.285114584788516e-06 2.107858180756119e-06 -2.7456788152358532e-05 0.0 0.0
0.0 0.00020902299257546069 -0.00012317953607430843 0.00010035775907664226 2.2821776997666183e-05 -0.00021244038547571062 0.0 0.0
0.0 0.0011371868305629256 -0.0008459325422333695 0.0007064828083927329 0.0001394497338406364 -0.0010488465443437484 0.0 0.0
0.0 0.0038168159583912083 -0.0030080781388875585 0.002639719704493866 0.0003683584343936936 -0.0028328123364365528 0.0 0.0
0.0 0.00871457994254986 -0.007054336418355092 0.00648328774780219 0.0005710486705528986 -0.00564682649305275 0.0 0.0
0.0 0.015731774732979067 -0.01291850156045645 0.012219190874171804 0.0006993106862846398 -0.00941556922226809 0.0 0.0
0.0 0.02452840228611723 -0.020286315149098993 0.019494781275775974 0.0007915338733230208 -0.013680788722320605 0.0 0.0
0.0 0.03473272171379516 -0.02886374455871693 0.027991094790856957 0.0008726497678599662 -0.017984710189912538 0.0 0.0
0.0 0.04610938466920244 -0.03846888789234924 0.03752001315809349 0.0009488747342557616 -0.02211161490225909 0.0 0.0
0.0 0.05854340257837731 -0.04901921582500984 0.047997409838423495 0.0010218059865863072 -0.026049922210440925 0.0 0.0
0.0 0.07199408313410308 -0.060456072626705465 0.05936065144872505 0.0010954211779804215 -0.029931856410909723 0.0 0.0
0.0 0.08631986865464186 -0.07257435914497333 0.07139780739827314 0.001176551746700181 -0.03416866492021393 0.0 0.0
0.0 0.10064152099691114 -0.08476150325779942 0.08349053073702278 0.001270972520776624 -0.03929483605667258 0.0 0.0
0.0 0.11391891904939626 -0.09570966552752762 0.09432732931361237 0.0013823362139151973 -0.045377938716716616 0.0 0.0
0.0 0.12307034923004342 -0.10312711023420613 0.10160788720070044 0.001519223033505705 -0.05116691885629161 0.0 0.0
0.0 0.12363602888621042 -0.10334060362746737 0.10165270996470362 0.0016878936627636773 -0.054049705559726734 0.0 0.0
0.0 0.1095169944573138 -0.09091298312455973 0.0890313490861237 0.0018816340384360418 -0.052371894780999156 0.0 0.0
0.0 0.10951699445731333 -0.09091298312455079 0.0890313490861141 0.0018816340384366966 0.05237189478106219 0.0 0.0
0.0 0.12363602888619252 -0.10334060362744221 0.10165270996467798 0.0016878936627641578 0.05404970555980234 0.0 0.0
0.0 0.12307034923000643 -0.10312711023416596 0.10160788720066101 0.001519223033504863 0.051166918856351315 0.0 0.0
0.0 0.11391891904933761 -0.09570966552747337 0.09432732931355917 0.0013823362139141065 0.04537793871673258 0.0 0.0
0.0 0.10064152099683901 -0.0847615032577364 0.08349053073696086 0.0012709725207754722 0.039294836056660704 0.0 0.0
0.0 0.0863198686545629 -0.07257435914490487 0.0713978073982062 0.0011765517466986743 0.03416866492019452 0.0 0.0
0.0 0.07199408313402417 -0.06045607262663792 0.05936065144865829 0.001095421177979641 0.029931856410885027 0.0 0.0
0.0 0.05854340257829789 -0.04901921582494157 0.0479974098383558 0.0010218059865857408 0.026049922210418755 0.0 0.0
0.0 0.046109384669121525 -0.03846888789228039 0.03752001315802511 0.0009488747342552713 0.022111614902229973 0.0 0.0
0.0 0.03473272171371969 -0.02886374455865425 0.027991094790794722 0.0008726497678595091 0.01798471018987425 0.0 0.0
0.0 0.02452840228605625 -0.020286315149048773 0.019494781275726267 0.0007915338733225027 0.013680788722284155 0.0 0.0
0.0 0.015731774732934016 -0.01291850156041916 0.012219190874135085 0.0006993106862840784 0.009415569222244334 0.0 0.0
0.0 0.00871457994251813 -0.007054336418329251 0.006483287747777267 0.0005710486705519797 0.0056468264930346155 0.0 0.0
0.0 0.0038168159583712212 -0.0030080781388720557 0.0026397197044795108 0.00036835843439254575 0.002832812336423486 0.0 0.0
0.0 0.0011371868305532148 -0.0008459325422266383 0.0007064828083870041 0.00013944973383963377 0.0010488465443362419 0.0 0.0
0.0 0.00020902299257271028 -0.00012317953607317438 0.00010035775907569819 2.2821776997476075e-05 0.00021244038547388352 0.0 0.0
0.0 2.898257717389753e-05 -1.1392972765759967e-05 9.285114584954794e-06 2.1078581808051845e-06 2.7456788152844857e-05 0.0 0.0
0.0 3.4685874052574227e-06 -1.0088304699004319e-06 8.205688240246355e-07 1.882616458757944e-07 3.525961395582617e-06 0.0 0.0
0.0 0.0 0.0 0.0 0.0 0.0 0.0 0.0
0.0 0.0 0.0 0.0 0.0 0.0 0.0 0.0
0.0 0.0 0.0 0.0 0.0 0.0 0.0 0.0
0.0 0.0 0.0 0.0 0.0 0.0 0.0 0.0
0.0 9.159772724021529e-07 5.630253744311479e-08 -4.536700834069255e-08 -1.0935529102421052e-08 1.5681455061216043e-07 0.0 0.0
0.0 2.7214221313938517e-05 -1.551733553369312e-05 1.2532138927507088e-05 2.985196606186065e-06 -2.824101713420563e-05 0.0 0.0
0.0 0.00034227412107597243 -0.00024637492681758665 0.00020106097244705233 4.531395437053427e-05 -0.00030261361699001894 0.0 0.0
0.0 0.0018308879879430826 -0.0014615245341350947 0.001239627192697813 0.00022189734143728218 -0.0012538399839591842 0.0 0.0
0.0 0.005461231387322318 -0.004465711641218225 0.004000934542977836 0.0004647770982403917 -0.0030207231344965128 0.0 0.0
0.0 0.01142935353774861 -0.009608727291051474 0.008969994537081916 0.0006387327539695584 -0.0058193740882928665 0.0 0.0
0.0 0.019903210817354945 -0.0167886225969998 0.016037771362535917 0.0007508512344638933 -0.009498415781104014 0.0 0.0
0.0 0.030489767098341208 -0.02573866846544231 0.024894033660505813 0.000844634804936493 -0.01360740474312085 0.0 0.0
0.0 0.042798482486786346 -0.03618246381607479 0.03524944502581911 0.0009330187902556427 -0.017770063316645695 0.0 0.0
0.0 0.056546102035381726 -0.04790718631370572 0.046889394210446494 0.0010177921032591356 -0.02175913740899984 0.0 0.0
0.0 0.07166763305413915 -0.06079238437582822 0.059693242338178985 0.0010991420376492372 -0.025569906821172543 0.0 0.0
0.0 0.0878897619094947 -0.07476831056972226 0.07358847034462351 0.0011798402250988215 -0.02929166533182931 0.0 0.0
0.0 0.10524724791777586 -0.08963620910615734 0.08836660905012222 0.0012696000560351434 -0.03318277464237271 0.0 0.0
0.0 0.12299243504688645 -0.1047058942801041 0.10332496794321006 0.0013809263368940554 -0.03777669597793609 0.0 0.0
0.0 0.1389333351882123 -0.11833229342128626 0.11681262247466823 0.0015196709466179723 -0.04342646953844678 0.0 0.0
0.0 0.14996378114181486 -0.12756745582519377 0.12588243990578088 0.0016850159194128867 -0.049419184598902675 0.0 0.0
0.0 0.1510573014697444 -0.12807037623428025 0.12620659130450107 0.001863784929779164 -0.054184331688677534 0.0 0.0
0.0 0.1360872604857406 -0.1142091104961134 0.11216863553472908 0.0020404749613843164 -0.057312601943614025 0.0 0.0
0.0 0.13608726048573683 -0.11420911049610258 0.11216863553471779 0.0020404749613847743 0.057312601943678765 0.0 0.0
0.0 0.15105730146971671 -0.12807037623424838 0.12620659130446815 0.001863784929780165 0.054184331688755354 0.0 0.0
0.0 0.1499637811417634 -0.12756745582514312 0.1258824399057299 0.0016850159194131977 0.04941918459896208 0.0 0.0
0.0 0.13893333518813195 -0.11833229342121473 0.11681262247459599 0.0015196709466186599 0.0434264695384617 0.0 0.0
0.0 0.12299243504679089 -0.10470589428002167 0.10332496794312694 0.001380926336894709 0.03777669597792502 0.0 0.0
0.0 0.10524724791767306 -0.08963620910606893 0.08836660905003312 0.0012696000560357755 0.03318277464235682 0.0 0.0
0.0 0.08788976190939898 -0.07476831056963985 0.07358847034454156 0.0011798402250982312 0.02929166533180745 0.0 0.0
0.0 0.07166763305404478 -0.060792384375746356 0.05969324233809779 0.0010991420376485002 0.025569906821152455 0.0 0.0
0.0 0.05654610203528831 -0.04790718631362531 0.04688939421036658 0.0010177921032587254 0.0217591374089735 0.0 0.0
0.0 0.04279848248670001 -0.03618246381600208 0.035249445025746326 0.0009330187902557642 0.01777006331660974 0.0 0.0
0.0 0.030489767098268533 -0.025738668465381424 0.024894033660445385 0.0008446348049360357 0.013607404743085569 0.0 0.0
0.0 0.01990321081729899 -0.016788622596952178 0.016037771362489094 0.0007508512344630788 0.009498415781080427 0.0 0.0
0.0 0.011429353537708575 -0.009608727291017912 0.008969994537048902 0.000638732753969001 0.005819374088273859 0.0 0.0
0.0 0.005461231387297512 -0.004465711641197958 0.004000934542958754 0.00046477709823920603 0.0030207231344841663 0.0 0.0
0.0 0.0018308879879306008 -0.001461524534125637 0.0012396271926894316 0.0002218973414362048 0.0012538399839513792 0.0 0.0
0.0 0.00034227412107224603 -0.0002463749268155463 0.00020106097244532801 4.5313954370218166e-05 0.00030261361698764394 0.0 0.0
0.0 2.7214221313722154e-05 -1.551733553395331e-05 1.2532138927714269e-05 2.9851966062390204e-06 2.8241017134689964e-05 0.0 0.0
0.0 9.159772720464821e-07 5.630253742091469e-08 -4.5367008322703315e-08 -1.0935529098212496e-08 -1.5681455054918204e-07 0.0 0.0
0.0 0.0 0.0 0.0 0.0 0.0 0.0 0.0
0.0 0.0 0.0 0.0 0.0 0.0 0.0 0.0
0.0 0.0 0.0 0.0 0.0 0.0 0.0 0.0
0.0 0.0 0.0 0.0 0.0 0.0 0.0 0.0
0.0 2.633745482838499e-07 1.9034837468267232e-08 -1.5232417022672714e-08 -3.80242044559584e-09 3.959451352121644e-08 0.0 0.0
0.0 3.181294616582562e-05 -2.1878835132113044e-05 1.7578362104238717e-05 4.300473027874349e-06 -2.9297930091558124e-05 0.0 0.0
0.0 0.0005802065561187621 -0.0004591316823489751 0.00037663094395876687 8.250073839020845e-05 -0.00038990187689509745 0.0 0.0
0.0 0.002743016523891752 -0.0022591046779682476 0.0019499596348876845 0.00030914504308056416 -0.001327317589974949 0.0 0.0
0.0 0.007112469464668109 -0.006115757048756044 0.005575575701120741 0.0005401813476353047 -0.002973158054029494 0.0 0.0
0.0 0.014282803910583697 -0.012284594609516373 0.01159932737936125 0.0006852672301551288 -0.00551630919392273 0.0 0.0
0.0 0.02420217184901252 -0.020730687147971244 0.01993909263452213 0.0007915945134491127 -0.008809233165056187 0.0 0.0
0.0 0.0365103723246815 -0.03124409039026526 0.03035403339661368 0.0008900569936515921 -0.012527454078653733 0.0 0.0
0.0 0.050888419016775086 -0.043542102837756606 0.042556266907174706 0.0009858359305818718 -0.0162937118019582 0.0 0.0
0.0 0.06703748700094632 -0.05738569407589719 0.05630612302097286 0.0010795710549243065 -0.019909909809885936 0.0 0.0
0.0 0.08474423583756416 -0.07260811739968653 0.07143762323571617 0.0011704941639703234 -0.02338950696090878 0.0 0.0
0.0 0.10390206205166827 -0.08908146504220545 0.08782103699596229 0.00126042804624311 -0.026728251995949023 0.0 0.0
0.0 0.12420796551734581 -0.10657454685089052 0.10521692038220161 0.001357626468688896 -0.029957293613181397 0.0 0.0
0.0 0.1446489035326975 -0.12436338394816848 0.1228829747033584 0.0014804092448100715 -0.03341355971135674 0.0 0.0
0.0 0.16354462844868017 -0.14058389686422487 0.1389413081410819 0.0016425887231429376 -0.0378746445541327 0.0 0.0
0.0 0.17678925002723933 -0.15176889405186142 0.1499369027962381 0.0018319912556233576 -0.04397483096785949 0.0 0.0
0.0 0.17883666021689903 -0.1529675902154516 0.15094095075144007 0.0020266394640113946 -0.051785343578398514 0.0 0.0
0.0 0.16336317862545335 -0.1381466295019105 0.13594780130738782 0.0021988281945225993 -0.06176422296212286 0.0 0.0
0.0 0.16336317862544059 -0.138146629501893 0.1359478013073697 0.0021988281945233812 0.06176422296218221 0.0 0.0
0.0 0.17883666021685807 -0.1529675902154095 0.15094095075139896 0.0020266394640105143 0.051785343578467806 0.0 0.0
0.0 0.1767892500271712 -0.1517688940517982 0.14993690279617555 0.0018319912556225247 0.04397483096790894 0.0 0.0
0.0 0.1635446284485842 -0.1405838968641406 0.13894130814099767 0.0016425887231428602 0.037874644554142536 0.0 0.0
0.0 0.14464890353259258 -0.12436338394807679 0.12288297470326844 0.0014804092448082707 0.03341355971134766 0.0 0.0
0.0 0.12420796551723803 -0.10657454685079619 0.10521692038210957 0.0013576264686865748 0.029957293613170496 0.0 0.0
0.0 0.10390206205155511 -0.08908146504210791 0.08782103699586505 0.0012604280462428178 0.02672825199593077 0.0 0.0
0.0 0.08474423583745003 -0.07260811739958807 0.07143762323561781 0.0011704941639702783 0.02338950696088917 0.0 0.0
0.0 0.0670374870008371 -0.05738569407580292 0.05630612302087909 0.0010795710549238425 0.01990990980986088 0.0 0.0
0.0 0.050888419016680245 -0.043542102837675185 0.04255626690709406 0.0009858359305811226 0.01629371180192636 0.0 0.0
0.0 0.03651037232460065 -0.031244090390196187 0.030354033396545115 0.0008900569936510699 0.012527454078622902 0.0 0.0
0.0 0.024202171848951605 -0.020730687147918737 0.019939092634469843 0.0007915945134488959 0.008809233165036788 0.0 0.0
0.0 0.014282803910540622 -0.012284594609479355 0.011599327379324748 0.0006852672301546059 0.005516309193906072 0.0 0.0
0.0 0.007112469464642114 -0.006115757048733888 0.005575575701099461 0.0005401813476344256 0.002973158054019405 0.0 0.0
0.0 0.002743016523876925 -0.002259104677956693 0.0019499596348771004 0.0003091450430795927 0.0013273175899682884 0.0 0.0
0.0 0.0005802065561143487 -0.00045913168234623045 0.0003766309439564467 8.250073838978352e-05 0.0003899018768930302 0.0 0.0
0.0 3.181294616549726e-05 -2.1878835132454923e-05 1.7578362104498794e-05 4.300473027956135e-06 2.9297930091979228e-05 0.0 0.0
0.0 2.633745479801639e-07 1.90348374459991e-08 -1.5232417004860948e-08 -3.802420441135515e-09 -3.959451347502403e-08 0.0 0.0
0.0 0.0 0.0 0.0 0.0 0.0 0.0 0.0
0.0 0.0 0.0 0.0 0.0 0.0 0.0 0.0
0.0 0.0 0.0 0.0 0.0 0.0 0.0 0.0
0.0 0.0 0.0 0.0 0.0 0.0 0.0 0.0
0.0 0.0 0.0 0.0 0.0 0.0 0.0 0.0
0.0 5.0421694219530146e-05 -3.937927300873348e-05 3.1650189220006746e-05 7.729083788726747e-06 -3.676600598707621e-05 0.0 0.0
0.0 0.000962754967386442 -0.0007915880710080974 0.0006550733105743196 0.00013651476043377762 -0.0004339170327683034 0.0 0.0
0.0 0.0037968793145650463 -0.003224537774212211 0.0028314079120430485 0.0003931298621691623 -0.00124771425245787 0.0 0.0
0.0 0.008985602831176324 -0.00788142919707678 0.007285281399227999 0.0005961477978487787 -0.002599047094471547 0.0 0.0
0.0 0.01727309331489469 -0.01501627920623555 0.01429662746353837 0.0007196517426971754 -0.0046619232700382705 0.0 0.0
0.0 0.028547428174535774 -0.024699438481671547 0.023874124246998953 0.0008253142346725752 -0.007373270338391767 0.0 0.0
0.0 0.04256563353672317 -0.03675207478494541 0.03582283087270811 0.0009292439122373039 -0.010450773852091406 0.0 0.0
0.0 0.059017766396990745 -0.050891849360152966 0.04985908736192807 0.001032761998224873 -0.013573429220853582 0.0 0.0
0.0 0.07750651968368724 -0.06685409915634548 0.065718719120087 0.0011353800362584646 -0.01656886313178101 0.0 0.0
0.0 0.09794698519177332 -0.08441583557748153 0.08317873625904827 0.0012370993184332522 -0.019467147960697 0.0 0.0
0.0 0.11974023267792304 -0.10335437817578491 0.10201553876497134 0.001338839410813573 -0.022253347830566785 0.0 0.0
0.0 0.1427447775642213 -0.12331809328009276 0.12187295848955881 0.0014451347905339326 -0.02468586693355157 0.0 0.0
0.0 0.16607221281320741 -0.14354190274671388 0.141970556447514 0.0015713462991997487 -0.026617811157192875 0.0 0.0
0.0 0.18764493550667205 -0.1622210367468879 0.16048082423515486 0.0017402125117329849 -0.02905876704512168 0.0 0.0
0.0 0.20342491812685837 -0.175711086508901 0.17375056606655803 0.001960520442342921 -0.03474319225175984 0.0 0.0
0.0 0.20719489534093188 -0.17832868257842546 0.17614769515003345 0.002180987428392094 -0.04635646294578081 0.0 0.0
0.0 0.19210864041170694 -0.1632374584082435 0.16086779712424815 0.002369661283995386 -0.06537986726351458 0.0 0.0
0.0 0.19210864041168935 -0.16323745840822398 0.16086779712422783 0.002369661283996117 0.06537986726355824 0.0 0.0
0.0 0.20719489534088356 -0.17832868257837992 0.17614769514998732 0.002180987428392649 0.046356462945840365 0.0 0.0
0.0 0.20342491812678165 -0.17571108650883194 0.17375056606648925 0.0019605204423426012 0.03474319225180419 0.0 0.0
0.0 0.1876449355065684 -0.16222103674679728 0.1604808242350652 0.0017402125117321283 0.02905876704513064 0.0 0.0
0.0 0.16607221281308673 -0.14354190274660958 0.1419705564474099 0.0015713462991996659 0.026617811157185117 0.0 0.0
0.0 0.14274477756408932 -0.123318093279979 0.12187295848944404 0.0014451347905350134 0.024685866933544742 0.0 0.0
0.0 0.11974023267779077 -0.10335437817567084 0.10201553876485707 0.0013388394108137733 0.022253347830552023 0.0 0.0
0.0 0.09794698519164728 -0.084415835577372 0.08317873625893983 0.0012370993184322335 0.01946714796068258 0.0 0.0
0.0 0.0775065196835672 -0.06685409915624138 0.06571871911998409 0.001135380036257285 0.01656886313176354 0.0 0.0
0.0 0.05901776639688286 -0.05089184936005957 0.049859087361835294 0.0010327619982242627 0.013573429220828012 0.0 0.0
0.0 0.04256563353663026 -0.03675207478486507 0.035822830872628386 0.0009292439122366868 0.010450773852065557 0.0 0.0
0.0 0.028547428174465102 -0.02469943848161004 0.023874124246938102 0.0008253142346719356 0.0073732703383747305 0.0 0.0
0.0 0.017273093314842922 -0.01501627920619062 0.014296627463493736 0.0007196517426968908 0.0046619232700238255 0.0 0.0
0.0 0.008985602831143904 -0.007881429197048463 0.00728528139920042 0.0005961477978480452 0.002599047094462159 0.0 0.0
0.0 0.003796879314545586 -0.0032245377741958936 0.002831407912027927 0.00039312986216796645 0.0012477142524514235 0.0 0.0
0.0 0.0009627549673789379 -0.0007915880710024515 0.0006550733105694654 0.00013651476043298615 0.0004339170327654088 0.0 0.0
0.0 5.04216942186576e-05 -3.937927300872669e-05 3.16501892199676e-05 7.729083788759129e-06 3.6766005986987775e-05 0.0 0.0
0.0 0.0 0.0 0.0 0.0 0.0 0.0 0.0
0.0 0.0 0.0 0.0 0.0 0.0 0.0 0.0
0.0 0.0 0.0 0.0 0.0 0.0 0.0 0.0
0.0 0.0 0.0 0.0 0.0 0.0 0.0 0.0
0.0 0.0 0.0 0.0 0.0 0.0 0.0 0.0
0.0 0.0 0.0 0.0 0.0 0.0 0.0 0.0
0.0 0.00010773786514553445 -8.929945638942594e-05 7.168371166480818e-05 1.76157447246178e-05 -5.043127278202028e-05 0.0 0.0
0.0 0.0015156271302702031 -0.0012571539019949618 0.0010540613089017824 0.00020309259309317937 -0.00039422694975768565 0.0 0.0
0.0 0.004832190302895508 -0.004330493681483017 0.003863065977941739 0.0004674277035412775 -0.0009635352486087274 0.0 0.0
0.0 0.011005587345676773 -0.009708561418839313 0.009073439456253614 0.0006351219625857051 -0.0018851616523905682 0.0 0.0
0.0 0.020313592571045074 -0.017768456693138833 0.017021351004166005 0.0007471056889728363 -0.003297635537826854 0.0 0.0
0.0 0.032911367067473905 -0.028649102802939745 0.027796096733447215 0.0008530060694925039 -0.005194511595142072 0.0 0.0
0.0 0.04861849264944047 -0.04221482218022565 0.04125183188066907 0.0009629902995565442 -0.0073789739230907874 0.0 0.0
0.0 0.06711729744629025 -0.058184337999711275 0.05710977383319709 0.0010745641665141387 -0.009599500038011174 0.0 0.0
0.0 0.08810835945559066 -0.07626140042537619 0.07507501912438419 0.001186381300991992 -0.011730369961380677 0.0 0.0
0.0 0.11097041342001518 -0.09616353380092538 0.09486424305818664 0.0012992907427387657 -0.013818762235685065 0.0 0.0
0.0 0.135591442889671 -0.11753859254639781 0.11612396633340488 0.0014146262129928532 -0.015798686825357386 0.0 0.0
0.0 0.161334327224723 -0.13984931945723025 0.13831528642680854 0.0015340330304217519 -0.01735144547413711 0.0 0.0
0.0 0.18707552352456655 -0.16219891687949323 0.16053670904194364 0.0016622078375495702 -0.017997838483921537 0.0 0.0
0.0 0.21097805418219345 -0.1829678414316992 0.18115041532798937 0.001817426103709936 -0.018077171200727347 0.0 0.0
0.0 0.22957992636673877 -0.19902258503554332 0.1969905550013378 0.002032030034205541 -0.021318284509547772 0.0 0.0
0.0 0.2364969955364481 -0.2044233107831111 0.2020800497670955 0.0023432610160153966 -0.036097491671758956 0.0 0.0
0.0 0.22299202854551645 -0.19023889587364068 0.18766942310701265 0.0025694727666278295 -0.06730708971988601 0.0 0.0
0.0 0.2229920285455001 -0.19023889587362353 0.18766942310699558 0.0025694727666277927 0.06730708971992097 0.0 0.0
0.0 0.23649699553639314 -0.20442331078306078 0.20208004976704608 0.0023432610160147253 0.03609749167180809 0.0 0.0
0.0 0.229579926366649 -0.19902258503546405 0.19699055500126023 0.002032030034203938 0.021318284509579663 0.0 0.0
0.0 0.21097805418206947 -0.18296784143159148 0.18115041532788187 0.001817426103709631 0.018077171200731372 0.0 0.0
0.0 0.18707552352443196 -0.16219891687937654 0.16053670904182796 0.0016622078375485188 0.01799783848391531 0.0 0.0
0.0 0.1613343272245915 -0.1398493194571154 0.13831528642669544 0.0015340330304199424 0.01735144547413555 0.0 0.0
0.0 0.13559144288953512 -0.11753859254627966 0.116123966333288 0.001414626212991607 0.015798686825351353 0.0 0.0
0.0 0.110970413419875 -0.09616353380080372 0.09486424305806578 0.0012992907427379714 0.013818762235677143 0.0 0.0
0.0 0.08810835945545496 -0.07626140042525834 0.07507501912426673 0.0011863813009916177 0.011730369961369877 0.0 0.0
0.0 0.0671172974461673 -0.058184337999604915 0.05710977383309126 0.001074564166513638 0.009599500037991773 0.0 0.0
0.0 0.04861849264933975 -0.04221482218013828 0.04125183188058237 0.0009629902995559169 0.007378973923071614 0.0 0.0
0.0 0.03291136706739589 -0.02864910280287146 0.027796096733379412 0.0008530060694920396 0.005194511595131249 0.0 0.0
0.0 0.02031359257098718 -0.01776845669308802 0.01702135100411583 0.000747105688972176 0.0032976355378176204 0.0 0.0
0.0 0.011005587345636413 -0.009708561418803689 0.0090734394562187 0.0006351219625849889 0.0018851616523828147 0.0 0.0
0.0 0.004832190302876328 -0.004330493681466038 0.003863065977925625 0.0004674277035404134 0.0009635352486044712 0.0 0.0
0.0 0.0015156271302624812 -0.0012571539019889965 0.0010540613088966158 0.00020309259309238107 0.0003942269497561562 0.0 0.0
0.0 0.00010773786514397793 -8.929945638890915e-05 7.168371166436471e-05 1.7615744724544365e-05 5.0431272781740066e-05 0.0 0.0
0.0 0.0 0.0 0.0 0.0 0.0 0.0 0.0
0.0 0.0 0.0 0.0 0.0 0.0 0.0 0.0
0.0 0.0 0.0 0.0 0.0 0.0 0.0 0.0
0.0 0.0 0.0 0.0 0.0 0.0 0.0 0.0
0.0 0.0 0.0 0.0 0.0 0.0 0.0 0.0
0.0 0.0 0.0 0.0 0.0 0.0 0.0 0.0
0.0 0.00025175140847121154 -0.0002203790808762332 0.00017686879164417898 4.351028923205432e-05 -5.234495510289186e-05 0.0 0.0
0.0 0.002241165122316685 -0.001846281832201253 0.0015697204990446842 0.0002765613331565678 -0.00022721943823543754 0.0 0.0
0.0 0.006146656541527944 -0.0055093491892170415 0.004983355694818744 0.0005259934943982977 -0.00045190635093902526 0.0 0.0
0.0 0.013091001060768813 -0.011570371529865677 0.010905483058178515 0.0006648884716871557 -0.0008286755948170557 0.0 0.0
0.0 0.023394058997294288 -0.020501351163456884 0.019732695836991016 0.0007686553264658652 -0.0014272855533404326 0.0 0.0
0.0 0.03728745028550091 -0.03253363603544436 0.03165770924865278 0.0008759267867915663 -0.0022812758056416347 0.0 0.0
0.0 0.05469104519208089 -0.04758343965643662 0.04659170315009949 0.0009917365063371716 -0.0033059356245178644 0.0 0.0
0.0 0.07530888424820018 -0.06537309233790314 0.0642614217525394 0.0011116705853637754 -0.004367283116585445 0.0 0.0
0.0 0.0984636374418765 -0.08556438617349182 0.08433096478111977 0.0012334213923719992 -0.0054013477653419495 0.0 0.0
0.0 0.12403403792082311 -0.10778595676867826 0.10642855393058764 0.001357402838090583 -0.006402121763192664 0.0 0.0
0.0 0.1514693639323494 -0.1315665733491242 0.13008058769247763 0.0014859856566465253 -0.007293006855871379 0.0 0.0
0.0 0.179857217191235 -0.15617891995336752 0.15455840879390642 0.0016205111594611403 -0.007873759944353548 0.0 0.0
0.0 0.20790104449577845 -0.18048244127901897 0.1787229942544937 0.001759447024525124 -0.00774722195752991 0.0 0.0
0.0 0.2336662587619578 -0.2028265179770206 0.2009251152300855 0.0019014027469350726 -0.006553162191919859 0.0 0.0
0.0 0.2544040788484669 -0.22082813414407543 0.21876359012576316 0.0020645440183120313 -0.0058782409749053655 0.0 0.0
0.0 0.26561309784591913 -0.2302964877484659 0.2279765859011247 0.002319901847341021 -0.016393254282732795 0.0 0.0
0.0 0.2578606396385207 -0.22118598926114968 0.21823512512506976 0.0029508641360798627 -0.06212005447911899 0.0 0.0
0.0 0.25786063963850414 -0.22118598926113428 0.21823512512505427 0.00295086413607973 0.06212005447913439 0.0 0.0
0.0 0.2656130978458595 -0.23029648774841294 0.2279765859010734 0.002319901847339335 0.016393254282759322 0.0 0.0
0.0 0.25440407884836247 -0.2208281341439839 0.21876359012567392 0.002064544018309932 0.005878240974918134 0.0 0.0
0.0 0.23366625876182262 -0.2028265179769032 0.2009251152299692 0.001901402746934075 0.0065531621919181285 0.0 0.0
0.0 0.20790104449562213 -0.1804824412788836 0.1787229942543585 0.001759447024524935 0.007747221957526499 0.0 0.0
0.0 0.17985721719107864 -0.1561789199532314 0.15455840879377197 0.001620511159459332 0.0078737599443524 0.0 0.0
0.0 0.15146936393218932 -0.13156657334898528 0.1300805876923397 0.0014859856566455155 0.007293006855866089 0.0 0.0
0.0 0.12403403792066095 -0.10778595676853821 0.10642855393044719 0.0013574028380909891 0.006402121763187767 0.0 0.0
0.0 0.09846363744172666 -0.08556438617336203 0.08433096478099053 0.0012334213923714736 0.005401347765337729 0.0 0.0
0.0 0.07530888424806766 -0.0653730923377883 0.06426142175242495 0.0011116705853633313 0.004367283116575369 0.0 0.0
0.0 0.05469104519197149 -0.047583439656341694 0.04659170315000552 0.0009917365063361841 0.0033059356245080736 0.0 0.0
0.0 0.037287450285411944 -0.032533636035366555 0.031657709248575736 0.000875926786790808 0.0022812758056364726 0.0 0.0
0.0 0.023394058997227504 -0.020501351163398105 0.0197326958369328 0.0007686553264652854 0.0014272855533358792 0.0 0.0
0.0 0.013091001060725457 -0.011570371529827402 0.010905483058140738 0.0006648884716866655 0.0008286755948141513 0.0 0.0
0.0 0.006146656541504042 -0.005509349189195504 0.004983355694797945 0.0005259934943975567 0.00045190635093727324 0.0 0.0
0.0 0.0022411651223038435 -0.0018462818321907776 0.0015697204990352627 0.0002765613331555157 0.00022721943823448347 0.0 0.0
0.0 0.0002517514084681435 -0.00022037908087410937 0.00017686879164241937 4.351028923168999e-05 5.234495510236665e-05 0.0 0.0
0.0 0.0 0.0 0.0 0.0 0.0 0.0 0.0
0.0 0.0 0.0 0.0 0.0 0.0 0.0 0.0
0.0 0.0 0.0 0.0 0.0 0.0 0.0 0.0