# vtk DataFile Version 3.0
Some data
ASCII
DATASET UNSTRUCTURED_GRID
POINTS 861 float
0.0 0.0 0.0
0.4 0.0 0.0
0.8 0.0 0.0
1.2000000000000002 0.0 0.0
1.6 0.0 0.0
2.0 0.0 0.0
2.4000000000000004 0.0 0.0
2.8000000000000003 0.0 0.0
3.2 0.0 0.0
3.6 0.0 0.0
4.0 0.0 0.0
4.4 0.0 0.0
4.800000000000001 0.0 0.0
5.2 0.0 0.0
5.6000000000000005 0.0 0.0
6.0 0.0 0.0
6.4 0.0 0.0
6.800000000000001 0.0 0.0
7.2 0.0 0.0
7.6000000000000005 0.0 0.0
8.0 0.0 0.0
8.4 0.0 0.0
8.8 0.0 0.0
9.200000000000001 0.0 0.0
9.600000000000001 0.0 0.0
10.0 0.0 0.0
10.4 0.0 0.0
10.8 0.0 0.0
11.200000000000001 0.0 0.0
11.600000000000001 0.0 0.0
12.0 0.0 0.0
12.4 0.0 0.0
12.8 0.0 0.0
13.200000000000001 0.0 0.0
13.600000000000001 0.0 0.0
14.0 0.0 0.0
14.4 0.0 0.0
14.8 0.0 0.0
15.200000000000001 0.0 0.0
15.600000000000001 0.0 0.0
16.0 0.0 0.0
0.0 0.1 0.0
0.4 0.1 0.0
0.8 0.1 0.0
1.2000000000000002 0.1 0.0
1.6 0.1 0.0
2.0 0.1 0.0
2.4000000000000004 0.1 0.0
2.8000000000000003 0.1 0.0
3.2 0.1 0.0
3.6 0.1 0.0
4.0 0.1 0.0
4.4 0.1 0.0
4.800000000000001 0.1 0.0
5.2 0.1 0.0
5.6000000000000005 0.1 0.0
6.0 0.1 0.0
6.4 0.1 0.0
6.800000000000001 0.1 0.0
7.2 0.1 0.0
7.6000000000000005 0.1 0.0
8.0 0.1 0.0
8.4 0.1 0.0
8.8 0.1 0.0
9.200000000000001 0.1 0.0
9.600000000000001 0.1 0.0
10.0 0.1 0.0
10.4 0.1 0.0
10.8 0.1 0.0
11.200000000000001 0.1 0.0
11.600000000000001 0.1 0.0
12.0 0.1 0.0
12.4 0.1 0.0
12.8 0.1 0.0
13.200000000000001 0.1 0.0
13.600000000000001 0.1 0.0
14.0 0.1 0.0
14.4 0.1 0.0
14.8 0.1 0.0
15.200000000000001 0.1 0.0
15.600000000000001 0.1 0.0
16.0 0.1 0.0
0.0 0.2 0.0
0.4 0.2 0.0
0.8 0.2 0.0
1.2000000000000002 0.2 0.0
1.6 0.2 0.0
2.0 0.2 0.0
2.4000000000000004 0.2 0.0
2.8000000000000003 0.2 0.0
3.2 0.2 0.0
3.6 0.2 0.0
4.0 0.2 0.0
4.4 0.2 0.0
4.800000000000001 0.2 0.0
5.2 0.2 0.0
5.6000000000000005 0.2 0.0
6.0 0.2 0.0
6.4 0.2 0.0
6.800000000000001 0.2 0.0
7.2 0.2 0.0
7.6000000000000005 0.2 0.0
8.0 0.2 0.0
8.4 0.2 0.0
8.8 0.2 0.0
9.200000000000001 0.2 0.0
9.600000000000001 0.2 0.0
10.0 0.2 0.0
10.4 0.2 0.0
10.8 0.2 0.0
11.200000000000001 0.2 0.0
11.600000000000001 0.2 0.0
12.0 0.2 0.0
12.4 0.2 0.0
12.8 0.2 0.0
13.200000000000001 0.2 0.0
13.600000000000001 0.2 0.0
14.0 0.2 0.0
14.4 0.2 0.0
14.8 0.2 0.0
15.200000000000001 0.2 0.0
15.600000000000001 0.2 0.0
16.0 0.2 0.0
0.0 0.30000000000000004 0.0
0.4 0.30000000000000004 0.0
0.8 0.30000000000000004 0.0
1.2000000000000002 0.30000000000000004 0.0
1.6 0.30000000000000004 0.0
2.0 0.30000000000000004 0.0
2.4000000000000004 0.30000000000000004 0.0
2.8000000000000003 0.30000000000000004 0.0
3.2 0.30000000000000004 0.0
3.6 0.30000000000000004 0.0
4.0 0.30000000000000004 0.0
4.4 0.30000000000000004 0.0
4.800000000000001 0.30000000000000004 0.0
5.2 0.30000000000000004 0.0
5.6000000000000005 0.30000000000000004 0.0
6.0 0.30000000000000004 0.0
6.4 0.30000000000000004 0.0
6.800000000000001 0.30000000000000004 0.0
7.2 0.30000000000000004 0.0
7.6000000000000005 0.30000000000000004 0.0
8.0 0.30000000000000004 0.0
8.4 0.30000000000000004 0.0
8.8 0.30000000000000004 0.0
9.200000000000001 0.30000000000000004 0.0
9.600000000000001 0.30000000000000004 0.0
10.0 0.30000000000000004 0.0
10.4 0.30000000000000004 0.0
10.8 0.30000000000000004 0.0
11.200000000000001 0.30000000000000004 0.0
11.600000000000001 0.30000000000000004 0.0
12.0 0.30000000000000004 0.0
12.4 0.30000000000000004 0.0
12.8 0.30000000000000004 0.0
13.200000000000001 0.30000000000000004 0.0
13.600000000000001 0.30000000000000004 0.0
14.0 0.30000000000000004 0.0
14.4 0.30000000000000004 0.0
14.8 0.30000000000000004 0.0
15.200000000000001 0.30000000000000004 0.0
15.600000000000001 0.30000000000000004 0.0
16.0 0.30000000000000004 0.0
0.0 0.4 0.0
0.4 0.4 0.0
0.8 0.4 0.0
1.2000000000000002 0.4 0.0
1.6 0.4 0.0
2.0 0.4 0.0
2.4000000000000004 0.4 0.0
2.8000000000000003 0.4 0.0
3.2 0.4 0.0
3.6 0.4 0.0
4.0 0.4 0.0
4.4 0.4 0.0
4.800000000000001 0.4 0.0
5.2 0.4 0.0
5.6000000000000005 0.4 0.0
6.0 0.4 0.0
6.4 0.4 0.0
6.800000000000001 0.4 0.0
7.2 0.4 0.0
7.6000000000000005 0.4 0.0
8.0 0.4 0.0
8.4 0.4 0.0
8.8 0.4 0.0
9.200000000000001 0.4 0.0
9.600000000000001 0.4 0.0
10.0 0.4 0.0
10.4 0.4 0.0
10.8 0.4 0.0
11.200000000000001 0.4 0.0
11.600000000000001 0.4 0.0
12.0 0.4 0.0
12.4 0.4 0.0
12.8 0.4 0.0
13.200000000000001 0.4 0.0
13.600000000000001 0.4 0.0
14.0 0.4 0.0
14.4 0.4 0.0
14.8 0.4 0.0
15.200000000000001 0.4 0.0
15.600000000000001 0.4 0.0
16.0 0.4 0.0
0.0 0.5 0.0
0.4 0.5 0.0
0.8 0.5 0.0
1.2000000000000002 0.5 0.0
1.6 0.5 0.0
2.0 0.5 0.0
2.4000000000000004 0.5 0.0
2.8000000000000003 0.5 0.0
3.2 0.5 0.0
3.6 0.5 0.0
4.0 0.5 0.0
4.4 0.5 0.0
4.800000000000001 0.5 0.0
5.2 0.5 0.0
5.6000000000000005 0.5 0.0
6.0 0.5 0.0
6.4 0.5 0.0
6.800000000000001 0.5 0.0
7.2 0.5 0.0
7.6000000000000005 0.5 0.0
8.0 0.5 0.0
8.4 0.5 0.0
8.8 0.5 0.0
9.200000000000001 0.5 0.0
9.600000000000001 0.5 0.0
10.0 0.5 0.0
10.4 0.5 0.0
10.8 0.5 0.0
11.200000000000001 0.5 0.0
11.600000000000001 0.5 0.0
12.0 0.5 0.0
12.4 0.5 0.0
12.8 0.5 0.0
13.200000000000001 0.5 0.0
13.600000000000001 0.5 0.0
14.0 0.5 0.0
14.4 0.5 0.0
14.8 0.5 0.0
15.200000000000001 0.5 0.0
15.600000000000001 0.5 0.0
16.0 0.5 0.0
0.0 0.6000000000000001 0.0
0.4 0.6000000000000001 0.0
0.8 0.6000000000000001 0.0
1.2000000000000002 0.6000000000000001 0.0
1.6 0.6000000000000001 0.0
2.0 0.6000000000000001 0.0
2.4000000000000004 0.6000000000000001 0.0
2.8000000000000003 0.6000000000000001 0.0
3.2 0.6000000000000001 0.0
3.6 0.6000000000000001 0.0
4.0 0.6000000000000001 0.0
4.4 0.6000000000000001 0.0
4.800000000000001 0.6000000000000001 0.0
5.2 0.6000000000000001 0.0
5.6000000000000005 0.6000000000000001 0.0
6.0 0.6000000000000001 0.0
6.4 0.6000000000000001 0.0
6.800000000000001 0.6000000000000001 0.0
7.2 0.6000000000000001 0.0
7.6000000000000005 0.6000000000000001 0.0
8.0 0.6000000000000001 0.0
8.4 0.6000000000000001 0.0
8.8 0.6000000000000001 0.0
9.200000000000001 0.6000000000000001 0.0
9.600000000000001 0.6000000000000001 0.0
10.0 0.6000000000000001 0.0
10.4 0.6000000000000001 0.0
10.8 0.6000000000000001 0.0
11.200000000000001 0.6000000000000001 0.0
11.600000000000001 0.6000000000000001 0.0
12.0 0.6000000000000001 0.0
12.4 0.6000000000000001 0.0
12.8 0.6000000000000001 0.0
13.200000000000001 0.6000000000000001 0.0
13.600000000000001 0.6000000000000001 0.0
14.0 0.6000000000000001 0.0
14.4 0.6000000000000001 0.0
14.8 0.6000000000000001 0.0
15.200000000000001 0.6000000000000001 0.0
15.600000000000001 0.6000000000000001 0.0
16.0 0.6000000000000001 0.0
0.0 0.7000000000000001 0.0
0.4 0.7000000000000001 0.0
0.8 0.7000000000000001 0.0
1.2000000000000002 0.7000000000000001 0.0
1.6 0.7000000000000001 0.0
2.0 0.7000000000000001 0.0
2.4000000000000004 0.7000000000000001 0.0
2.8000000000000003 0.7000000000000001 0.0
3.2 0.7000000000000001 0.0
3.6 0.7000000000000001 0.0
4.0 0.7000000000000001 0.0
4.4 0.7000000000000001 0.0
4.800000000000001 0.7000000000000001 0.0
5.2 0.7000000000000001 0.0
5.6000000000000005 0.7000000000000001 0.0
6.0 0.7000000000000001 0.0
6.4 0.7000000000000001 0.0
6.800000000000001 0.7000000000000001 0.0
7.2 0.7000000000000001 0.0
7.6000000000000005 0.7000000000000001 0.0
8.0 0.7000000000000001 0.0
8.4 0.7000000000000001 0.0
8.8 0.7000000000000001 0.0
9.200000000000001 0.7000000000000001 0.0
9.600000000000001 0.7000000000000001 0.0
10.0 0.7000000000000001 0.0
10.4 0.7000000000000001 0.0
10.8 0.7000000000000001 0.0
11.200000000000001 0.7000000000000001 0.0
11.600000000000001 0.7000000000000001 0.0
12.0 0.7000000000000001 0.0
12.4 0.7000000000000001 0.0
12.8 0.7000000000000001 0.0
13.200000000000001 0.7000000000000001 0.0
13.600000000000001 0.7000000000000001 0.0
14.0 0.7000000000000001 0.0
14.4 0.7000000000000001 0.0
14.8 0.7000000000000001 0.0
15.200000000000001 0.7000000000000001 0.0
15.600000000000001 0.7000000000000001 0.0
16.0 0.7000000000000001 0.0
0.0 0.8 0.0
0.4 0.8 0.0
0.8 0.8 0.0
1.2000000000000002 0.8 0.0
1.6 0.8 0.0
2.0 0.8 0.0
2.4000000000000004 0.8 0.0
2.8000000000000003 0.8 0.0
3.2 0.8 0.0
3.6 0.8 0.0
4.0 0.8 0.0
4.4 0.8 0.0
4.800000000000001 0.8 0.0
5.2 0.8 0.0
5.6000000000000005 0.8 0.0
6.0 0.8 0.0
6.4 0.8 0.0
6.800000000000001 0.8 0.0
7.2 0.8 0.0
7.6000000000000005 0.8 0.0
8.0 0.8 0.0
8.4 0.8 0.0
8.8 0.8 0.0
9.200000000000001 0.8 0.0
9.600000000000001 0.8 0.0
10.0 0.8 0.0
10.4 0.8 0.0
10.8 0.8 0.0
11.200000000000001 0.8 0.0
11.600000000000001 0.8 0.0
12.0 0.8 0.0
12.4 0.8 0.0
12.8 0.8 0.0
13.200000000000001 0.8 0.0
13.600000000000001 0.8 0.0
14.0 0.8 0.0
14.4 0.8 0.0
14.8 0.8 0.0
15.200000000000001 0.8 0.0
15.600000000000001 0.8 0.0
16.0 0.8 0.0
0.0 0.9 0.0
0.4 0.9 0.0
0.8 0.9 0.0
1.2000000000000002 0.9 0.0
1.6 0.9 0.0
2.0 0.9 0.0
2.4000000000000004 0.9 0.0
2.8000000000000003 0.9 0.0
3.2 0.9 0.0
3.6 0.9 0.0
4.0 0.9 0.0
4.4 0.9 0.0
4.800000000000001 0.9 0.0
5.2 0.9 0.0
5.6000000000000005 0.9 0.0
6.0 0.9 0.0
6.4 0.9 0.0
6.800000000000001 0.9 0.0
7.2 0.9 0.0
7.6000000000000005 0.9 0.0
8.0 0.9 0.0
8.4 0.9 0.0
8.8 0.9 0.0
9.200000000000001 0.9 0.0
9.600000000000001 0.9 0.0
10.0 0.9 0.0
10.4 0.9 0.0
10.8 0.9 0.0
11.200000000000001 0.9 0.0
11.600000000000001 0.9 0.0
12.0 0.9 0.0
12.4 0.9 0.0
12.8 0.9 0.0
13.200000000000001 0.9 0.0
13.600000000000001 0.9 0.0
14.0 0.9 0.0
14.4 0.9 0.0
14.8 0.9 0.0
15.200000000000001 0.9 0.0
15.600000000000001 0.9 0.0
16.0 0.9 0.0
0.0 1.0 0.0
0.4 1.0 0.0
0.8 1.0 0.0
1.2000000000000002 1.0 0.0
1.6 1.0 0.0
2.0 1.0 0.0
2.4000000000000004 1.0 0.0
2.8000000000000003 1.0 0.0
3.2 1.0 0.0
3.6 1.0 0.0
4.0 1.0 0.0
4.4 1.0 0.0
4.800000000000001 1.0 0.0
5.2 1.0 0.0
5.6000000000000005 1.0 0.0
6.0 1.0 0.0
6.4 1.0 0.0
6.800000000000001 1.0 0.0
7.2 1.0 0.0
7.6000000000000005 1.0 0.0
8.0 1.0 0.0
8.4 1.0 0.0
8.8 1.0 0.0
9.200000000000001 1.0 0.0
9.600000000000001 1.0 0.0
10.0 1.0 0.0
10.4 1.0 0.0
10.8 1.0 0.0
11.200000000000001 1.0 0.0
11.600000000000001 1.0 0.0
12.0 1.0 0.0
12.4 1.0 0.0
12.8 1.0 0.0
13.200000000000001 1.0 0.0
13.600000000000001 1.0 0.0
14.0 1.0 0.0
14.4 1.0 0.0
14.8 1.0 0.0
15.200000000000001 1.0 0.0
15.600000000000001 1.0 0.0
16.0 1.0 0.0
0.0 1.1 0.0
0.4 1.1 0.0
0.8 1.1 0.0
1.2000000000000002 1.1 0.0
1.6 1.1 0.0
2.0 1.1 0.0
2.4000000000000004 1.1 0.0
2.8000000000000003 1.1 0.0
3.2 1.1 0.0
3.6 1.1 0.0
4.0 1.1 0.0
4.4 1.1 0.0
4.800000000000001 1.1 0.0
5.2 1.1 0.0
5.6000000000000005 1.1 0.0
6.0 1.1 0.0
6.4 1.1 0.0
6.800000000000001 1.1 0.0
7.2 1.1 0.0
7.6000000000000005 1.1 0.0
8.0 1.1 0.0
8.4 1.1 0.0
8.8 1.1 0.0
9.200000000000001 1.1 0.0
9.600000000000001 1.1 0.0
10.0 1.1 0.0
10.4 1.1 0.0
10.8 1.1 0.0
11.200000000000001 1.1 0.0
11.600000000000001 1.1 0.0
12.0 1.1 0.0
12.4 1.1 0.0
12.8 1.1 0.0
13.200000000000001 1.1 0.0
13.600000000000001 1.1 0.0
14.0 1.1 0.0
14.4 1.1 0.0
14.8 1.1 0.0
15.200000000000001 1.1 0.0
15.600000000000001 1.1 0.0
16.0 1.1 0.0
0.0 1.2000000000000002 0.0
0.4 1.2000000000000002 0.0
0.8 1.2000000000000002 0.0
1.2000000000000002 1.2000000000000002 0.0
1.6 1.2000000000000002 0.0
2.0 1.2000000000000002 0.0
2.4000000000000004 1.2000000000000002 0.0
2.8000000000000003 1.2000000000000002 0.0
3.2 1.2000000000000002 0.0
3.6 1.2000000000000002 0.0
4.0 1.2000000000000002 0.0
4.4 1.2000000000000002 0.0
4.800000000000001 1.2000000000000002 0.0
5.2 1.2000000000000002 0.0
5.6000000000000005 1.2000000000000002 0.0
6.0 1.2000000000000002 0.0
6.4 1.2000000000000002 0.0
6.800000000000001 1.2000000000000002 0.0
7.2 1.2000000000000002 0.0
7.6000000000000005 1.2000000000000002 0.0
8.0 1.2000000000000002 0.0
8.4 1.2000000000000002 0.0
8.8 1.2000000000000002 0.0
9.200000000000001 1.2000000000000002 0.0
9.600000000000001 1.2000000000000002 0.0
10.0 1.2000000000000002 0.0
10.4 1.2000000000000002 0.0
10.8 1.2000000000000002 0.0
11.200000000000001 1.2000000000000002 0.0
11.600000000000001 1.2000000000000002 0.0
12.0 1.2000000000000002 0.0
12.4 1.2000000000000002 0.0
12.8 1.2000000000000002 0.0
13.200000000000001 1.2000000000000002 0.0
13.600000000000001 1.2000000000000002 0.0
14.0 1.2000000000000002 0.0
14.4 1.2000000000000002 0.0
14.8 1.2000000000000002 0.0
15.200000000000001 1.2000000000000002 0.0
15.600000000000001 1.2000000000000002 0.0
16.0 1.2000000000000002 0.0
0.0 1.3 0.0
0.4 1.3 0.0
0.8 1.3 0.0
1.2000000000000002 1.3 0.0
1.6 1.3 0.0
2.0 1.3 0.0
2.4000000000000004 1.3 0.0
2.8000000000000003 1.3 0.0
3.2 1.3 0.0
3.6 1.3 0.0
4.0 1.3 0.0
4.4 1.3 0.0
4.800000000000001 1.3 0.0
5.2 1.3 0.0
5.6000000000000005 1.3 0.0
6.0 1.3 0.0
6.4 1.3 0.0
6.800000000000001 1.3 0.0
7.2 1.3 0.0
7.6000000000000005 1.3 0.0
8.0 1.3 0.0
8.4 1.3 0.0
8.8 1.3 0.0
9.200000000000001 1.3 0.0
9.600000000000001 1.3 0.0
10.0 1.3 0.0
10.4 1.3 0.0
10.8 1.3 0.0
11.200000000000001 1.3 0.0
11.600000000000001 1.3 0.0
12.0 1.3 0.0
12.4 1.3 0.0
12.8 1.3 0.0
13.200000000000001 1.3 0.0
13.600000000000001 1.3 0.0
14.0 1.3 0.0
14.4 1.3 0.0
14.8 1.3 0.0
15.200000000000001 1.3 0.0
15.600000000000001 1.3 0.0
16.0 1.3 0.0
0.0 1.4000000000000001 0.0
0.4 1.4000000000000001 0.0
0.8 1.4000000000000001 0.0
1.2000000000000002 1.4000000000000001 0.0
1.6 1.4000000000000001 0.0
2.0 1.4000000000000001 0.0
2.4000000000000004 1.4000000000000001 0.0
2.8000000000000003 1.4000000000000001 0.0
3.2 1.4000000000000001 0.0
3.6 1.4000000000000001 0.0
4.0 1.4000000000000001 0.0
4.4 1.4000000000000001 0.0
4.800000000000001 1.4000000000000001 0.0
5.2 1.4000000000000001 0.0
5.6000000000000005 1.4000000000000001 0.0
6.0 1.4000000000000001 0.0
6.4 1.4000000000000001 0.0
6.800000000000001 1.4000000000000001 0.0
7.2 1.4000000000000001 0.0
7.6000000000000005 1.4000000000000001 0.0
8.0 1.4000000000000001 0.0
8.4 1.4000000000000001 0.0
8.8 1.4000000000000001 0.0
9.200000000000001 1.4000000000000001 0.0
9.600000000000001 1.4000000000000001 0.0
10.0 1.4000000000000001 0.0
10.4 1.4000000000000001 0.0
10.8 1.4000000000000001 0.0
11.200000000000001 1.4000000000000001 0.0
11.600000000000001 1.4000000000000001 0.0
12.0 1.4000000000000001 0.0
12.4 1.4000000000000001 0.0
12.8 1.4000000000000001 0.0
13.200000000000001 1.4000000000000001 0.0
13.600000000000001 1.4000000000000001 0.0
14.0 1.4000000000000001 0.0
14.4 1.4000000000000001 0.0
14.8 1.4000000000000001 0.0
15.200000000000001 1.4000000000000001 0.0
15.600000000000001 1.4000000000000001 0.0
16.0 1.4000000000000001 0.0
0.0 1.5 0.0
0.4 1.5 0.0
0.8 1.5 0.0
1.2000000000000002 1.5 0.0
1.6 1.5 0.0
2.0 1.5 0.0
2.4000000000000004 1.5 0.0
2.8000000000000003 1.5 0.0
3.2 1.5 0.0
3.6 1.5 0.0
4.0 1.5 0.0
4.4 1.5 0.0
4.800000000000001 1.5 0.0
5.2 1.5 0.0
5.6000000000000005 1.5 0.0
6.0 1.5 0.0
6.4 1.5 0.0
6.800000000000001 1.5 0.0
7.2 1.5 0.0
7.6000000000000005 1.5 0.0
8.0 1.5 0.0
8.4 1.5 0.0
8.8 1.5 0.0
9.200000000000001 1.5 0.0
9.600000000000001 1.5 0.0
10.0 1.5 0.0
10.4 1.5 0.0
10.8 1.5 0.0
11.200000000000001 1.5 0.0
11.600000000000001 1.5 0.0
12.0 1.5 0.0
12.4 1.5 0.0
12.8 1.5 0.0
13.200000000000001 1.5 0.0
13.600000000000001 1.5 0.0
14.0 1.5 0.0
14.4 1.5 0.0
14.8 1.5 0.0
15.200000000000001 1.5 0.0
15.600000000000001 1.5 0.0
16.0 1.5 0.0
0.0 1.6 0.0
0.4 1.6 0.0
0.8 1.6 0.0
1.2000000000000002 1.6 0.0
1.6 1.6 0.0
2.0 1.6 0.0
2.4000000000000004 1.6 0.0
2.8000000000000003 1.6 0.0
3.2 1.6 0.0
3.6 1.6 0.0
4.0 1.6 0.0
4.4 1.6 0.0
4.800000000000001 1.6 0.0
5.2 1.6 0.0
5.6000000000000005 1.6 0.0
6.0 1.6 0.0
6.4 1.6 0.0
6.800000000000001 1.6 0.0
7.2 1.6 0.0
7.6000000000000005 1.6 0.0
8.0 1.6 0.0
8.4 1.6 0.0
8.8 1.6 0.0
9.200000000000001 1.6 0.0
9.600000000000001 1.6 0.0
10.0 1.6 0.0
10.4 1.6 0.0
10.8 1.6 0.0
11.200000000000001 1.6 0.0
11.600000000000001 1.6 0.0
12.0 1.6 0.0
12.4 1.6 0.0
12.8 1.6 0.0
13.200000000000001 1.6 0.0
13.600000000000001 1.6 0.0
14.0 1.6 0.0
14.4 1.6 0.0
14.8 1.6 0.0
15.200000000000001 1.6 0.0
15.600000000000001 1.6 0.0
16.0 1.6 0.0
0.0 1.7000000000000002 0.0
0.4 1.7000000000000002 0.0
0.8 1.7000000000000002 0.0
1.2000000000000002 1.7000000000000002 0.0
1.6 1.7000000000000002 0.0
2.0 1.7000000000000002 0.0
2.4000000000000004 1.7000000000000002 0.0
2.8000000000000003 1.7000000000000002 0.0
3.2 1.7000000000000002 0.0
3.6 1.7000000000000002 0.0
4.0 1.7000000000000002 0.0
4.4 1.7000000000000002 0.0
4.800000000000001 1.7000000000000002 0.0
5.2 1.7000000000000002 0.0
5.6000000000000005 1.7000000000000002 0.0
6.0 1.7000000000000002 0.0
6.4 1.7000000000000002 0.0
6.800000000000001 1.7000000000000002 0.0
7.2 1.7000000000000002 0.0
7.6000000000000005 1.7000000000000002 0.0
8.0 1.7000000000000002 0.0
8.4 1.7000000000000002 0.0
8.8 1.7000000000000002 0.0
9.200000000000001 1.7000000000000002 0.0
9.600000000000001 1.7000000000000002 0.0
10.0 1.7000000000000002 0.0
10.4 1.7000000000000002 0.0
10.8 1.7000000000000002 0.0
11.200000000000001 1.7000000000000002 0.0
11.600000000000001 1.7000000000000002 0.0
12.0 1.7000000000000002 0.0
12.4 1.7000000000000002 0.0
12.8 1.7000000000000002 0.0
13.200000000000001 1.7000000000000002 0.0
13.600000000000001 1.7000000000000002 0.0
14.0 1.7000000000000002 0.0
14.4 1.7000000000000002 0.0
14.8 1.7000000000000002 0.0
15.200000000000001 1.7000000000000002 0.0
15.600000000000001 1.7000000000000002 0.0
16.0 1.7000000000000002 0.0
0.0 1.8 0.0
0.4 1.8 0.0
0.8 1.8 0.0
1.2000000000000002 1.8 0.0
1.6 1.8 0.0
2.0 1.8 0.0
2.4000000000000004 1.8 0.0
2.8000000000000003 1.8 0.0
3.2 1.8 0.0
3.6 1.8 0.0
4.0 1.8 0.0
4.4 1.8 0.0
4.800000000000001 1.8 0.0
5.2 1.8 0.0
5.6000000000000005 1.8 0.0
6.0 1.8 0.0
6.4 1.8 0.0
6.800000000000001 1.8 0.0
7.2 1.8 0.0
7.6000000000000005 1.8 0.0
8.0 1.8 0.0
8.4 1.8 0.0
8.8 1.8 0.0
9.200000000000001 1.8 0.0
9.600000000000001 1.8 0.0
10.0 1.8 0.0
10.4 1.8 0.0
10.8 1.8 0.0
11.200000000000001 1.8 0.0
11.600000000000001 1.8 0.0
12.0 1.8 0.0
12.4 1.8 0.0
12.8 1.8 0.0
13.200000000000001 1.8 0.0
13.600000000000001 1.8 0.0
14.0 1.8 0.0
14.4 1.8 0.0
14.8 1.8 0.0
15.200000000000001 1.8 0.0
15.600000000000001 1.8 0.0
16.0 1.8 0.0
0.0 1.9000000000000001 0.0
0.4 1.9000000000000001 0.0
0.8 1.9000000000000001 0.0
1.2000000000000002 1.9000000000000001 0.0
1.6 1.9000000000000001 0.0
2.0 1.9000000000000001 0.0
2.4000000000000004 1.9000000000000001 0.0
2.8000000000000003 1.9000000000000001 0.0
3.2 1.9000000000000001 0.0
3.6 1.9000000000000001 0.0
4.0 1.9000000000000001 0.0
4.4 1.9000000000000001 0.0
4.800000000000001 1.9000000000000001 0.0
5.2 1.9000000000000001 0.0
5.6000000000000005 1.9000000000000001 0.0
6.0 1.9000000000000001 0.0
6.4 1.9000000000000001 0.0
6.800000000000001 1.9000000000000001 0.0
7.2 1.9000000000000001 0.0
7.6000000000000005 1.9000000000000001 0.0
8.0 1.9000000000000001 0.0
8.4 1.9000000000000001 0.0
8.8 1.9000000000000001 0.0
9.200000000000001 1.9000000000000001 0.0
9.600000000000001 1.9000000000000001 0.0
10.0 1.9000000000000001 0.0
10.4 1.9000000000000001 0.0
10.8 1.9000000000000001 0.0
11.200000000000001 1.9000000000000001 0.0
11.600000000000001 1.9000000000000001 0.0
12.0 1.9000000000000001 0.0
12.4 1.9000000000000001 0.0
12.8 1.9000000000000001 0.0
13.200000000000001 1.9000000000000001 0.0
13.600000000000001 1.9000000000000001 0.0
14.0 1.9000000000000001 0.0
14.4 1.9000000000000001 0.0
14.8 1.9000000000000001 0.0
15.200000000000001 1.9000000000000001 0.0
15.600000000000001 1.9000000000000001 0.0
16.0 1.9000000000000001 0.0
0.0 2.0 0.0
0.4 2.0 0.0
0.8 2.0 0.0
1.2000000000000002 2.0 0.0
1.6 2.0 0.0
2.0 2.0 0.0
2.4000000000000004 2.0 0.0
2.8000000000000003 2.0 0.0
3.2 2.0 0.0
3.6 2.0 0.0
4.0 2.0 0.0
4.4 2.0 0.0
4.800000000000001 2.0 0.0
5.2 2.0 0.0
5.6000000000000005 2.0 0.0
6.0 2.0 0.0
6.4 2.0 0.0
6.800000000000001 2.0 0.0
7.2 2.0 0.0
7.6000000000000005 2.0 0.0
8.0 2.0 0.0
8.4 2.0 0.0
8.8 2.0 0.0
9.200000000000001 2.0 0.0
9.600000000000001 2.0 0.0
10.0 2.0 0.0
10.4 2.0 0.0
10.8 2.0 0.0
11.200000000000001 2.0 0.0
11.600000000000001 2.0 0.0
12.0 2.0 0.0
12.4 2.0 0.0
12.8 2.0 0.0
13.200000000000001 2.0 0.0
13.600000000000001 2.0 0.0
14.0 2.0 0.0
14.4 2.0 0.0
14.8 2.0 0.0
15.200000000000001 2.0 0.0
15.600000000000001 2.0 0.0
16.0 2.0 0.0
CELLS 800 4000
4 0 1 42 41
4 1 2 43 42
4 2 3 44 43
4 3 4 45 44
4 4 5 46 45
4 5 6 47 46
4 6 7 48 47
4 7 8 49 48
4 8 9 50 49
4 9 10 51 50
4 10 11 52 51
4 11 12 53 52
4 12 13 54 53
4 13 14 55 54
4 14 15 56 55
4 15 16 57 56
4 16 17 58 57
4 17 18 59 58
4 18 19 60 59
4 19 20 61 60
4 20 21 62 61
4 21 22 63 62
4 22 23 64 63
4 23 24 65 64
4 24 25 66 65
4 25 26 67 66
4 26 27 68 67
4 27 28 69 68
4 28 29 70 69
4 29 30 71 70
4 30 31 72 71
4 31 32 73 72
4 32 33 74 73
4 33 34 75 74
4 34 35 76 75
4 35 36 77 76
4 36 37 78 77
4 37 38 79 78
4 38 39 80 79
4 39 40 81 80
4 41 42 83 82
4 42 43 84 83
4 43 44 85 84
4 44 45 86 85
4 45 46 87 86
4 46 47 88 87
4 47 48 89 88
4 48 49 90 89
4 49 50 91 90
4 50 51 92 91
4 51 52 93 92
4 52 53 94 93
4 53 54 95 94
4 54 55 96 95
4 55 56 97 96
4 56 57 98 97
4 57 58 99 98
4 58 59 100 99
4 59 60 101 100
4 60 61 102 101
4 61 62 103 102
4 62 63 104 103
4 63 64 105 104
4 64 65 106 105
4 65 66 107 106
4 66 67 108 107
4 67 68 109 108
4 68 69 110 109
4 69 70 111 110
4 70 71 112 111
4 71 72 113 112
4 72 73 114 113
4 73 74 115 114
4 74 75 116 115
4 75 76 117 116
4 76 77 118 117
4 77 78 119 118
4 78 79 120 119
4 79 80 121 120
4 80 81 122 121
4 82 83 124 123
4 83 84 125 124
4 84 85 126 125
4 85 86 127 126
4 86 87 128 127
4 87 88 129 128
4 88 89 130 129
4 89 90 131 130
4 90 91 132 131
4 91 92 133 132
4 92 93 134 133
4 93 94 135 134
4 94 95 136 135
4 95 96 137 136
4 96 97 138 137
4 97 98 139 138
4 98 99 140 139
4 99 100 141 140
4 100 101 142 141
4 101 102 143 142
4 102 103 144 143
4 103 104 145 144
4 104 105 146 145
4 105 106 147 146
4 106 107 148 147
4 107 108 149 148
4 108 109 150 149
4 109 110 151 150
4 110 111 152 151
4 111 112 153 152
4 112 113 154 153
4 113 114 155 154
4 114 115 156 155
4 115 116 157 156
4 116 117 158 157
4 117 118 159 158
4 118 119 160 159
4 119 120 161 160
4 120 121 162 161
4 121 122 163 162
4 123 124 165 164
4 124 125 166 165
4 125 126 167 166
4 126 127 168 167
4 127 128 169 168
4 128 129 170 169
4 129 130 171 170
4 130 131 172 171
4 131 132 173 172
4 132 133 174 173
4 133 134 175 174
4 134 135 176 175
4 135 136 177 176
4 136 137 178 177
4 137 138 179 178
4 138 139 180 179
4 139 140 181 180
4 140 141 182 181
4 141 142 183 182
4 142 143 184 183
4 143 144 185 184
4 144 145 186 185
4 145 146 187 186
4 146 147 188 187
4 147 148 189 188
4 148 149 190 189
4 149 150 191 190
4 150 151 192 191
4 151 152 193 192
4 152 153 194 193
4 153 154 195 194
4 154 155 196 195
4 155 156 197 196
4 156 157 198 197
4 157 158 199 198
4 158 159 200 199
4 159 160 201 200
4 160 161 202 201
4 161 162 203 202
4 162 163 204 203
4 164 165 206 205
4 165 166 207 206
4 166 167 208 207
4 167 168 209 208
4 168 169 210 209
4 169 170 211 210
4 170 171 212 211
4 171 172 213 212
4 172 173 214 213
4 173 174 215 214
4 174 175 216 215
4 175 176 217 216
4 176 177 218 217
4 177 178 219 218
4 178 179 220 219
4 179 180 221 220
4 180 181 222 221
4 181 182 223 222
4 182 183 224 223
4 183 184 225 224
4 184 185 226 225
4 185 186 227 226
4 186 187 228 227
4 187 188 229 228
4 188 189 230 229
4 189 190 231 230
4 190 191 232 231
4 191 192 233 232
4 192 193 234 233
4 193 194 235 234
4 194 195 236 235
4 195 196 237 236
4 196 197 238 237
4 197 198 239 238
4 198 199 240 239
4 199 200 241 240
4 200 201 242 241
4 201 202 243 242
4 202 203 244 243
4 203 204 245 244
4 205 206 247 246
4 206 207 248 247
4 207 208 249 248
4 208 209 250 249
4 209 210 251 250
4 210 211 252 251
4 211 212 253 252
4 212 213 254 253
4 213 214 255 254
4 214 215 256 255
4 215 216 257 256
4 216 217 258 257
4 217 218 259 258
4 218 219 260 259
4 219 220 261 260
4 220 221 262 261
4 221 222 263 262
4 222 223 264 263
4 223 224 265 264
4 224 225 266 265
4 225 226 267 266
4 226 227 268 267
4 227 228 269 268
4 228 229 270 269
4 229 230 271 270
4 230 231 272 271
4 231 232 273 272
4 232 233 274 273
4 233 234 275 274
4 234 235 276 275
4 235 236 277 276
4 236 237 278 277
4 237 238 279 278
4 238 239 280 279
4 239 240 281 280
4 240 241 282 281
4 241 242 283 282
4 242 243 284 283
4 243 244 285 284
4 244 245 286 285
4 246 247 288 287
4 247 248 289 288
4 248 249 290 289
4 249 250 291 290
4 250 251 292 291
4 251 252 293 292
4 252 253 294 293
4 253 254 295 294
4 254 255 296 295
4 255 256 297 296
4 256 257 298 297
4 257 258 299 298
4 258 259 300 299
4 259 260 301 300
4 260 261 302 301
4 261 262 303 302
4 262 263 304 303
4 263 264 305 304
4 264 265 306 305
4 265 266 307 306
4 266 267 308 307
4 267 268 309 308
4 268 269 310 309
4 269 270 311 310
4 270 271 312 311
4 271 272 313 312
4 272 273 314 313
4 273 274 315 314
4 274 275 316 315
4 275 276 317 316
4 276 277 318 317
4 277 278 319 318
4 278 279 320 319
4 279 280 321 320
4 280 281 322 321
4 281 282 323 322
4 282 283 324 323
4 283 284 325 324
4 284 285 326 325
4 285 286 327 326
4 287 288 329 328
4 288 289 330 329
4 289 290 331 330
4 290 291 332 331
4 291 292 333 332
4 292 293 334 333
4 293 294 335 334
4 294 295 336 335
4 295 296 337 336
4 296 297 338 337
4 297 298 339 338
4 298 299 340 339
4 299 300 341 340
4 300 301 342 341
4 301 302 343 342
4 302 303 344 343
4 303 304 345 344
4 304 305 346 345
4 305 306 347 346
4 306 307 348 347
4 307 308 349 348
4 308 309 350 349
4 309 310 351 350
4 310 311 352 351
4 311 312 353 352
4 312 313 354 353
4 313 314 355 354
4 314 315 356 355
4 315 316 357 356
4 316 317 358 357
4 317 318 359 358
4 318 319 360 359
4 319 320 361 360
4 320 321 362 361
4 321 322 363 362
4 322 323 364 363
4 323 324 365 364
4 324 325 366 365
4 325 326 367 366
4 326 327 368 367
4 328 329 370 369
4 329 330 371 370
4 330 331 372 371
4 331 332 373 372
4 332 333 374 373
4 333 334 375 374
4 334 335 376 375
4 335 336 377 376
4 336 337 378 377
4 337 338 379 378
4 338 339 380 379
4 339 340 381 380
4 340 341 382 381
4 341 342 383 382
4 342 343 384 383
4 343 344 385 384
4 344 345 386 385
4 345 346 387 386
4 346 347 388 387
4 347 348 389 388
4 348 349 390 389
4 349 350 391 390
4 350 351 392 391
4 351 352 393 392
4 352 353 394 393
4 353 354 395 394
4 354 355 396 395
4 355 356 397 396
4 356 357 398 397
4 357 358 399 398
4 358 359 400 399
4 359 360 401 400
4 360 361 402 401
4 361 362 403 402
4 362 363 404 403
4 363 364 405 404
4 364 365 406 405
4 365 366 407 406
4 366 367 408 407
4 367 368 409 408
4 369 370 411 410
4 370 371 412 411
4 371 372 413 412
4 372 373 414 413
4 373 374 415 414
4 374 375 416 415
4 375 376 417 416
4 376 377 418 417
4 377 378 419 418
4 378 379 420 419
4 379 380 421 420
4 380 381 422 421
4 381 382 423 422
4 382 383 424 423
4 383 384 425 424
4 384 385 426 425
4 385 386 427 426
4 386 387 428 427
4 387 388 429 428
4 388 389 430 429
4 389 390 431 430
4 390 391 432 431
4 391 392 433 432
4 392 393 434 433
4 393 394 435 434
4 394 395 436 435
4 395 396 437 436
4 396 397 438 437
4 397 398 439 438
4 398 399 440 439
4 399 400 441 440
4 400 401 442 441
4 401 402 443 442
4 402 403 444 443
4 403 404 445 444
4 404 405 446 445
4 405 406 447 446
4 406 407 448 447
4 407 408 449 448
4 408 409 450 449
4 410 411 452 451
4 411 412 453 452
4 412 413 454 453
4 413 414 455 454
4 414 415 456 455
4 415 416 457 456
4 416 417 458 457
4 417 418 459 458
4 418 419 460 459
4 419 420 461 460
4 420 421 462 461
4 421 422 463 462
4 422 423 464 463
4 423 424 465 464
4 424 425 466 465
4 425 426 467 466
4 426 427 468 467
4 427 428 469 468
4 428 429 470 469
4 429 430 471 470
4 430 431 472 471
4 431 432 473 472
4 432 433 474 473
4 433 434 475 474
4 434 435 476 475
4 435 436 477 476
4 436 437 478 477
4 437 438 479 478
4 438 439 480 479
4 439 440 481 480
4 440 441 482 481
4 441 442 483 482
4 442 443 484 483
4 443 444 485 484
4 444 445 486 485
4 445 446 487 486
4 446 447 488 487
4 447 448 489 488
4 448 449 490 489
4 449 450 491 490
4 451 452 493 492
4 452 453 494 493
4 453 454 495 494
4 454 455 496 495
4 455 456 497 496
4 456 457 498 497
4 457 458 499 498
4 458 459 500 499
4 459 460 501 500
4 460 461 502 501
4 461 462 503 502
4 462 463 504 503
4 463 464 505 504
4 464 465 506 505
4 465 466 507 506
4 466 467 508 507
4 467 468 509 508
4 468 469 510 509
4 469 470 511 510
4 470 471 512 511
4 471 472 513 512
4 472 473 514 513
4 473 474 515 514
4 474 475 516 515
4 475 476 517 516
4 476 477 518 517
4 477 478 519 518
4 478 479 520 519
4 479 480 521 520
4 480 481 522 521
4 481 482 523 522
4 482 483 524 523
4 483 484 525 524
4 484 485 526 525
4 485 486 527 526
4 486 487 528 527
4 487 488 529 528
4 488 489 530 529
4 489 490 531 530
4 490 491 532 531
4 492 493 534 533
4 493 494 535 534
4 494 495 536 535
4 495 496 537 536
4 496 497 538 537
4 497 498 539 538
4 498 499 540 539
4 499 500 541 540
4 500 501 542 541
4 501 502 543 542
4 502 503 544 543
4 503 504 545 544
4 504 505 546 545
4 505 506 547 546
4 506 507 548 547
4 507 508 549 548
4 508 509 550 549
4 509 510 551 550
4 510 511 552 551
4 511 512 553 552
4 512 513 554 553
4 513 514 555 554
4 514 515 556 555
4 515 516 557 556
4 516 517 558 557
4 517 518 559 558
4 518 519 560 559
4 519 520 561 560
4 520 521 562 561
4 521 522 563 562
4 522 523 564 563
4 523 524 565 564
4 524 525 566 565
4 525 526 567 566
4 526 527 568 567
4 527 528 569 568
4 528 529 570 569
4 529 530 571 570
4 530 531 572 571
4 531 532 573 572
4 533 534 575 574
4 534 535 576 575
4 535 536 577 576
4 536 537 578 577
4 537 538 579 578
4 538 539 580 579
4 539 540 581 580
4 540 541 582 581
4 541 542 583 582
4 542 543 584 583
4 543 544 585 584
4 544 545 586 585
4 545 546 587 586
4 546 547 588 587
4 547 548 589 588
4 548 549 590 589
4 549 550 591 590
4 550 551 592 591
4 551 552 593 592
4 552 553 594 593
4 553 554 595 594
4 554 555 596 595
4 555 556 597 596
4 556 557 598 597
4 557 558 599 598
4 558 559 600 599
4 559 560 601 600
4 560 561 602 601
4 561 562 603 602
4 562 563 604 603
4 563 564 605 604
4 564 565 606 605
4 565 566 607 606
4 566 567 608 607
4 567 568 609 608
4 568 569 610 609
4 569 570 611 610
4 570 571 612 611
4 571 572 613 612
4 572 573 614 613
4 574 575 616 615
4 575 576 617 616
4 576 577 618 617
4 577 578 619 618
4 578 579 620 619
4 579 580 621 620
4 580 581 622 621
4 581 582 623 622
4 582 583 624 623
4 583 584 625 624
4 584 585 626 625
4 585 586 627 626
4 586 587 628 627
4 587 588 629 628
4 588 589 630 629
4 589 590 631 630
4 590 591 632 631
4 591 592 633 632
4 592 593 634 633
4 593 594 635 634
4 594 595 636 635
4 595 596 637 636
4 596 597 638 637
4 597 598 639 638
4 598 599 640 639
4 599 600 641 640
4 600 601 642 641
4 601 602 643 642
4 602 603 644 643
4 603 604 645 644
4 604 605 646 645
4 605 606 647 646
4 606 607 648 647
4 607 608 649 648
4 608 609 650 649
4 609 610 651 650
4 610 611 652 651
4 611 612 653 652
4 612 613 654 653
4 613 614 655 654
4 615 616 657 656
4 616 617 658 657
4 617 618 659 658
4 618 619 660 659
4 619 620 661 660
4 620 621 662 661
4 621 622 663 662
4 622 623 664 663
4 623 624 665 664
4 624 625 666 665
4 625 626 667 666
4 626 627 668 667
4 627 628 669 668
4 628 629 670 669
4 629 630 671 670
4 630 631 672 671
4 631 632 673 672
4 632 633 674 673
4 633 634 675 674
4 634 635 676 675
4 635 636 677 676
4 636 637 678 677
4 637 638 679 678
4 638 639 680 679
4 639 640 681 680
4 640 641 682 681
4 641 642 683 682
4 642 643 684 683
4 643 644 685 684
4 644 645 686 685
4 645 646 687 686
4 646 647 688 687
4 647 648 689 688
4 648 649 690 689
4 649 650 691 690
4 650 651 692 691
4 651 652 693 692
4 652 653 694 693
4 653 654 695 694
4 654 655 696 695
4 656 657 698 697
4 657 658 699 698
4 658 659 700 699
4 659 660 701 700
4 660 661 702 701
4 661 662 703 702
4 662 663 704 703
4 663 664 705 704
4 664 665 706 705
4 665 666 707 706
4 666 667 708 707
4 667 668 709 708
4 668 669 710 709
4 669 670 711 710
4 670 671 712 711
4 671 672 713 712
4 672 673 714 713
4 673 674 715 714
4 674 675 716 715
4 675 676 717 716
4 676 677 718 717
4 677 678 719 718
4 678 679 720 719
4 679 680 721 720
4 680 681 722 721
4 681 682 723 722
4 682 683 724 723
4 683 684 725 724
4 684 685 726 725
4 685 686 727 726
4 686 687 728 727
4 687 688 729 728
4 688 689 730 729
4 689 690 731 730
4 690 691 732 731
4 691 692 733 732
4 692 693 734 733
4 693 694 735 734
4 694 695 736 735
4 695 696 737 736
4 697 698 739 738
4 698 699 740 739
4 699 700 741 740
4 700 701 742 741
4 701 702 743 742
4 702 703 744 743
4 703 704 745 744
4 704 705 746 745
4 705 706 747 746
4 706 707 748 747
4 707 708 749 748
4 708 709 750 749
4 709 710 751 750
4 710 711 752 751
4 711 712 753 752
4 712 713 754 753
4 713 714 755 754
4 714 715 756 755
4 715 716 757 756
4 716 717 758 757
4 717 718 759 758
4 718 719 760 759
4 719 720 761 760
4 720 721 762 761
4 721 722 763 762
4 722 723 764 763
4 723 724 765 764
4 724 725 766 765
4 725 726 767 766
4 726 727 768 767
4 727 728 769 768
4 728 729 770 769
4 729 730 771 770
4 730 731 772 771
4 731 732 773 772
4 732 733 774 773
4 733 734 775 774
4 734 735 776 775
4 735 736 777 776
4 736 737 778 777
4 738 739 780 779
4 739 740 781 780
4 740 741 782 781
4 741 742 783 782
4 742 743 784 783
4 743 744 785 784
4 744 745 786 785
4 745 746 787 786
4 746 747 788 787
4 747 748 789 788
4 748 749 790 789
4 749 750 791 790
4 750 751 792 791
4 751 752 793 792
4 752 753 794 793
4 753 754 795 794
4 754 755 796 795
4 755 756 797 796
4 756 757 798 797
4 757 758 799 798
4 758 759 800 799
4 759 760 801 800
4 760 761 802 801
4 761 762 803 802
4 762 763 804 803
4 763 764 805 804
4 764 765 806 805
4 765 766 807 806
4 766 767 808 807
4 767 768 809 808
4 768 769 810 809
4 769 770 811 810
4 770 771 812 811
4 771 772 813 812
4 772 773 814 813
4 773 774 815 814
4 774 775 816 815
4 775 776 817 816
4 776 777 818 817
4 777 778 819 818
4 779 780 821 820
4 780 781 822 821
4 781 782 823 822
4 782 783 824 823
4 783 784 825 824
4 784 785 826 825
4 785 786 827 826
4 786 787 828 827
4 787 788 829 828
4 788 789 830 829
4 789 790 831 830
4 790 791 832 831
4 791 792 833 832
4 792 793 834 833
4 793 794 835 834
4 794 795 836 835
4 795 796 837 836
4 796 797 838 837
4 797 798 839 838
4 798 799 840 839
4 799 800 841 840
4 800 801 842 841
4 801 802 843 842
4 802 803 844 843
4 803 804 845 844
4 804 805 846 845
4 805 806 847 846
4 806 807 848 847
4 807 808 849 848
4 808 809 850 849
4 809 810 851 850
4 810 811 852 851
4 811 812 853 852
4 812 813 854 853
4 813 814 855 854
4 814 815 856 855
4 815 816 857 856
4 816 817 858 857
4 817 818 859 858
4 818 819 860 859
CELL_TYPES 800
9
9
9
9
9
9
9
9
9
9
9
9
9
9
9
9
9
9
9
9
9
9
9
9
9
9
9
9
9
9
9
9
9
9
9
9
9
9
9
9
9
9
9
9
9
9
9
9
9
9
9
9
9
9
9
9
9
9
9
9
9
9
9
9
9
9
9
9
9
9
9
9
9
9
9
9
9
9
9
9
9
9
9
9
9
9
9
9
9
9
9
9
9
9
9
9
9
9
9
9
9
9
9
9
9
9
9
9
9
9
9
9
9
9
9
9
9
9
9
9
9
9
9
9
9
9
9
9
9
9
9
9
9
9
9
9
9
9
9
9
9
9
9
9
9
9
9
9
9
9
9
9
9
9
9
9
9
9
9
9
9
9
9
9
9
9
9
9
9
9
9
9
9
9
9
9
9
9
9
9
9
9
9
9
9
9
9
9
9
9
9
9
9
9
9
9
9
9
9
9
9
9
9
9
9
9
9
9
9
9
9
9
9
9
9
9
9
9
9
9
9
9
9
9
9
9
9
9
9
9
9
9
9
9
9
9
9
9
9
9
9
9
9
9
9
9
9
9
9
9
9
9
9
9
9
9
9
9
9
9
9
9
9
9
9
9
9
9
9
9
9
9
9
9
9
9
9
9
9
9
9
9
9
9
9
9
9
9
9
9
9
9
9
9
9
9
9
9
9
9
9
9
9
9
9
9
9
9
9
9
9
9
9
9
9
9
9
9
9
9
9
9
9
9
9
9
9
9
9
9
9
9
9
9
9
9
9
9
9
9
9
9
9
9
9
9
9
9
9
9
9
9
9
9
9
9
9
9
9
9
9
9
9
9
9
9
9
9
9
9
9
9
9
9
9
9
9
9
9
9
9
9
9
9
9
9
9
9
9
9
9
9
9
9
9
9
9
9
9
9
9
9
9
9
9
9
9
9
9
9
9
9
9
9
9
9
9
9
9
9
9
9
9
9
9
9
9
9
9
9
9
9
9
9
9
9
9
9
9
9
9
9
9
9
9
9
9
9
9
9
9
9
9
9
9
9
9
9
9
9
9
9
9
9
9
9
9
9
9
9
9
9
9
9
9
9
9
9
9
9
9
9
9
9
9
9
9
9
9
9
9
9
9
9
9
9
9
9
9
9
9
9
9
9
9
9
9
9
9
9
9
9
9
9
9
9
9
9
9
9
9
9
9
9
9
9
9
9
9
9
9
9
9
9
9
9
9
9
9
9
9
9
9
9
9
9
9
9
9
9
9
9
9
9
9
9
9
9
9
9
9
9
9
9
9
9
9
9
9
9
9
9
9
9
9
9
9
9
9
9
9
9
9
9
9
9
9
9
9
9
9
9
9
9
9
9
9
9
9
9
9
9
9
9
9
9
9
9
9
9
9
9
9
9
9
9
9
9
9
9
9
9
9
9
9
9
9
9
9
9
9
9
9
9
9
9
9
9
9
9
9
9
9
9
9
9
9
9
9
9
9
9
9
9
9
9
9
9
9
9
9
9
9
9
9
9
9
9
9
9
9
9
9
9
9
9
9
9
9
9
9
9
9
9
9
9
9
9
9
9
9
9
9
9
9
9
9
9
9
9
9
9
9
9
9
9
9
9
9
9
9
9
9
9
9
9
9
9
9
9
9
9
9
9
9
9
9
9
9
9
9
9
9
9
9
9
9
9
9
9
9
9
9
9
9
9
9
9
9
9
9
9
9
9
9
9
9
9
9
9
9
9
9
9
9
9
9
9
9
9
9
9
9
9
9
9
9
9
9
9
9
9
9
9
9
9
9
9
9
9
9
9
9
9
9
9
9
9
9
9
POINT_DATA 861
SCALARS Disp float 2
LOOKUP_TABLE default
0.0 0.0
0.0035254172182992696 -0.06442963656582525
0.006279342935820672 -0.11887034264682808
0.008488363088647189 -0.17237657027204417
0.01101208107128073 -0.22485370413625794
0.014047299094212776 -0.276278409332775
0.017690798485721363 -0.3264049468162953
0.021981421294899266 -0.37496781416748604
0.026931882505318947 -0.4216926530085781
0.03254512908078797 -0.4663084781568243
0.038820720320378914 -0.5085474425019879
0.04575764023963219 -0.5481441551507854
0.05335526358003867 -0.5848348572759412
0.06161428248195431 -0.6183570545003271
0.07053869640850038 -0.6484486452345491
0.08013945764330516 -0.6748443163888603
0.0904381399982317 -0.6972652573432783
0.1014633113284964 -0.7153984483719166
0.11322384474720737 -0.72886991209172
0.12564321167066683 -0.7372413146739113
0.13847590080472155 -0.7400950976998599
0.1513085899387763 -0.7372413146739114
0.16372795686223585 -0.7288699120917201
0.17548849028094685 -0.7153984483719166
0.1865136616112115 -0.6972652573432783
0.196812343966138 -0.6748443163888603
0.2064131052009428 -0.6484486452345491
0.21533751912748897 -0.618357054500327
0.22359653802940452 -0.5848348572759409
0.23119416136981108 -0.5481441551507852
0.23813108128906427 -0.5085474425019878
0.24440667252865514 -0.46630847815682397
0.2500199191041242 -0.421692653008578
0.2549703803145439 -0.37496781416748604
0.25926100312372186 -0.32640494681629506
0.26290450251523034 -0.2762784093327752
0.26593972053816245 -0.22485370413625802
0.26846343852079596 -0.17237657027204434
0.27067245867362255 -0.11887034264682798
0.2734263843911439 -0.06442963656582505
0.2769518016094432 0.0
0.015960091211577897 -0.0021893523440606197
0.018155376277950303 -0.06425896897670678
0.01967484002829145 -0.11917948604481893
0.021721706886108954 -0.17259210448829973
0.023966216559959647 -0.22513767560941916
0.026706586687581108 -0.2766166579937138
0.029990266180623993 -0.3268086980968859
0.03385488131493304 -0.37543807449107736
0.03831167943022356 -0.42223031829808944
0.043364118085739055 -0.4669135690915974
0.049012320267519546 -0.5092198916141296
0.055255699024792784 -0.5488838764924329
0.06209393418320541 -0.5856418420627374
0.06952784688937699 -0.6192314916977895
0.0775610002137664 -0.6493911876508692
0.08620229937436953 -0.6758564696313212
0.09546788604553288 -0.6983495182430822
0.10537601087065993 -0.71655707694561
0.11592260611815945 -0.7301005205586337
0.1270278759158871 -0.7385286997925496
0.13847590080472155 -0.741404997141753
0.1499239256935561 -0.7385286997925498
0.16102919549128375 -0.7301005205586338
0.1715757907387833 -0.7165570769456099
0.1814839155639103 -0.6983495182430822
0.19074950223507361 -0.6758564696313212
0.19939080139567678 -0.6493911876508691
0.20742395472006622 -0.6192314916977893
0.2148578674262378 -0.5856418420627373
0.22169610258465045 -0.5488838764924326
0.22793948134192363 -0.5092198916141294
0.2335876835237041 -0.46691356909159726
0.2386401221792196 -0.4222303182980893
0.2430969202945101 -0.37543807449107736
0.24696153542881916 -0.3268086980968856
0.250245214921862 -0.27661665799371404
0.2529855850494835 -0.22513767560941922
0.2552300947233342 -0.17259210448829995
0.2572769615811517 -0.11917948604481883
0.2587964253314929 -0.06425896897670659
0.2609917103978653 -0.002189352344060624
0.030833462548923215 -0.004069946245657988
0.03240804544900862 -0.0641338017934026
0.03322581255214423 -0.11934981969768425
0.034864668949382074 -0.17280193337972422
0.03685494858698602 -0.22538352410029205
0.03928010000328511 -0.2769204411060456
0.042201475995776144 -0.32716969789297107
0.04563816988688639 -0.3758590464520093
0.049601007083415395 -0.42271146345902
0.0540926614791566 -0.46745502178765574
0.05911358860548112 -0.5098215874202139
0.06466349416570735 -0.5495457638399129
0.07074225684975145 -0.5863639158980878
0.07735059511848433 -0.6200138858278286
0.08449120725753582 -0.6502343611370499
0.09217050637024313 -0.676761498005816
0.10039962727157639 -0.6993182317092577
0.10918982515505916 -0.7175911890928007
0.11853261391406521 -0.7311981951543216
0.12835649002975646 -0.7396775201740889
0.13847590080472158 -0.7425748677433176
0.1485953115796867 -0.739677520174089
0.15841918769537797 -0.7311981951543216
0.16776197645438404 -0.7175911890928007
0.1765521743378668 -0.6993182317092578
0.18478129523920003 -0.676761498005816
0.19246059435190735 -0.6502343611370499
0.19960120649095886 -0.6200138858278283
0.20620954475969172 -0.5863639158980877
0.21228830744373584 -0.5495457638399127
0.21783821300396206 -0.5098215874202138
0.22285914013028657 -0.4674550217876556
0.22735079452602777 -0.42271146345901994
0.23131363172255678 -0.3758590464520092
0.23475032561366702 -0.3271696978929708
0.23767170160615805 -0.27692044110604574
0.24009685302245717 -0.22538352410029208
0.24208713266006107 -0.1728019333797244
0.24372598905729895 -0.11934981969768414
0.24454375616043456 -0.0641338017934024
0.24611833906051991 -0.004069946245657997
0.04506473095928945 -0.005677276434826157
0.046315479459066264 -0.06409699894811206
0.0467490994675642 -0.11942524931201674
0.04796890269796897 -0.17297530164101046
0.049670748308961864 -0.22559746052979343
0.05178054077547104 -0.2771861917617401
0.05433376507060075 -0.3274881127995688
0.057341668424840925 -0.3762304331531539
0.06081000351283398 -0.42313610394583195
0.06474086274719561 -0.4679328413750421
0.06913456397790003 -0.5103525475621397
0.07399102518612033 -0.5501298171946336
0.07931021397855588 -0.5870010382719167
0.08509257067777419 -0.6207041013477216
0.09133964530205246 -0.6509778562350955
0.09805515754306215 -0.6775588918064771
0.10524585655502652 -0.7001709599793776
0.11291900744332052 -0.7185014173489701
0.12106856862251299 -0.7321665533962711
0.1296395483482365 -0.7406959166339435
0.13847590080472158 -0.7436153974661989
0.14731225326120664 -0.7406959166339435
0.15588323298693021 -0.7321665533962711
0.16403279416612265 -0.7185014173489702
0.17170594505441664 -0.7001709599793776
0.178896644066381 -0.6775588918064771
0.1856121563073907 -0.6509778562350954
0.19185923093166898 -0.6207041013477215
0.1976415876308873 -0.5870010382719167
0.20296077642332283 -0.5501298171946335
0.20781723763154314 -0.5103525475621397
0.21221093886224757 -0.467932841375042
0.2161417980966092 -0.4231361039458319
0.21961013318460224 -0.3762304331531538
0.2226180365388424 -0.3274881127995685
0.2251712608339721 -0.27718619176174036
0.22728105330048132 -0.22559746052979346
0.2289828989114742 -0.17297530164101066
0.23020270214187896 -0.11942524931201662
0.23063632215037688 -0.06409699894811187
0.2318870706501537 -0.0056772764348261675
0.05888571350701 -0.0070462816386574504
0.05994137258045308 -0.06414403632019143
0.06017042907402983 -0.11944640370286418
0.06103008782626013 -0.17310342028149966
0.06242406171070739 -0.2257776059632316
0.06421489757927237 -0.2774137332233843
0.066397630482655 -0.327763282258217
0.06897534364381884 -0.3765521998600056
0.07194885240987763 -0.42350418108571997
0.0753188027603179 -0.46834703843148207
0.0790852916597352 -0.510812777283264
0.08324830180227795 -0.5506360328711195
0.08780781548928322 -0.58755317334161
0.09276387522479904 -0.6213020355383617
0.09811673497661609 -0.6516214586446099
0.10386740057726286 -0.6782483336778035
0.11001888882063583 -0.7009075307652727
0.1165769306306894 -0.7192885413124904
0.1235431975775131 -0.7330088044315279
0.1308852957750975 -0.7415906795055563
0.13847590080472158 -0.7445354939759559
0.14606650583434566 -0.7415906795055563
0.1534086040319301 -0.7330088044315279
0.16037487097875375 -0.7192885413124904
0.16693291278880734 -0.7009075307652726
0.17308440103218029 -0.6782483336778035
0.17883506663282706 -0.6516214586446097
0.18418792638464418 -0.6213020355383616
0.1891439861201599 -0.5875531733416098
0.19370349980716522 -0.5506360328711195
0.19786650994970795 -0.5108127772832641
0.20163299884912525 -0.46834703843148195
0.20500294919956552 -0.4235041810857199
0.20797645796562433 -0.37655219986000554
0.21055417112678818 -0.3277632822582167
0.21273690403017076 -0.2774137332233845
0.21452773989873578 -0.22577760596323163
0.21592171378318303 -0.17310342028149986
0.21678137253541335 -0.11944640370286404
0.21701042902899007 -0.06414403632019124
0.21806608810243314 -0.007046281638657468
0.07242957852884739 -0.00820908898956986
0.07334694154027036 -0.06425561443076518
0.0734679435364658 -0.11944137397009655
0.07403639213621575 -0.17318849626458926
0.07512327536902821 -0.22592178990961126
0.076591493206828 -0.27760297954511426
0.07840274587197249 -0.3279949008623876
0.08054931168528044 -0.37682423435113144
0.08302764479548845 -0.42381567008652143
0.08583657184089365 -0.46869760450462716
0.08897581422931604 -0.5112022780169267
0.0924453440677544 -0.5510644037698319
0.0962450923562784 -0.5880202944735805
0.1003746491598025 -0.621807624293139
0.1048329455797608 -0.6521650513042034
0.10961838541326362 -0.6788296770155765
0.1147308200770559 -0.7015279514903516
0.12017619794837633 -0.7199533054282568
0.12596770000442611 -0.7337275719954727
0.13210042652538026 -0.7423674333474259
0.13847590080472158 -0.7453428177727454
0.14485137508406293 -0.7423674333474259
0.15098410160501705 -0.7337275719954727
0.15677560366106683 -0.7199533054282568
0.16222098153238726 -0.7015279514903516
0.1673334161961795 -0.6788296770155764
0.17211885602968235 -0.6521650513042034
0.1765771524496407 -0.6218076242931388
0.1807067092531647 -0.5880202944735805
0.18450645754168876 -0.5510644037698319
0.1879759873801271 -0.5112022780169267
0.1911152297685495 -0.46869760450462716
0.19392415681395467 -0.4238156700865214
0.1964024899241627 -0.37682423435113127
0.1985490557374707 -0.32799490086238736
0.20036030840261518 -0.2776029795451144
0.20182852624041495 -0.2259217899096113
0.2029154094732274 -0.17318849626458943
0.20348385807297736 -0.11944137397009642
0.20360486006917278 -0.064255614430765
0.2045222230805957 -0.008209088989569872
0.08577936827602059 -0.009193633610369891
0.08658341770652246 -0.06441031048834439
0.08664460576812635 -0.11942689188063896
0.0869809729401731 -0.17323682002824986
0.0877742154235416 -0.22602948971954256
0.08891920793739043 -0.27775377599875956
0.09035862058892459 -0.32818289880521173
0.09207360884371422 -0.3770464491737939
0.09405646544330148 -0.42407054635965685
0.09630424388644487 -0.4689845283574466
0.0988161771985195 -0.5115210445647039
0.10159217840350002 -0.5514149222914905
0.10463209029227334 -0.5884023862294018
0.10793505197751926 -0.6222208441808088
0.11149875408186294 -0.6526086114080644
0.11531921039728056 -0.6793029248551994
0.11939351786666617 -0.7020323426153858
0.12372879467594741 -0.7204962862318189
0.12835215692295543 -0.7343247792300702
0.13329053778577155 -0.7430307686398833
0.13847590080472158 -0.7460441824137537
0.14366126382367167 -0.7430307686398833
0.14859964468648776 -0.7343247792300702
0.15322300693349575 -0.7204962862318189
0.15755828374277697 -0.7020323426153857
0.1616325912121626 -0.6793029248551994
0.16545304752758022 -0.6526086114080643
0.1690167496319239 -0.6222208441808086
0.17231971131716978 -0.5884023862294017
0.17535962320594314 -0.5514149222914904
0.17813562441092365 -0.511521044564704
0.18064755772299826 -0.46898452835744653
0.18289533616614165 -0.42407054635965685
0.18487819276572892 -0.3770464491737938
0.18659318102051856 -0.3281828988052115
0.18803259367205272 -0.2777537759987597
0.18917758618590155 -0.2260294897195426
0.18997082866927006 -0.17323682002825005
0.19030719584131678 -0.11942689188063882
0.19036838390292066 -0.0644103104883442
0.19117243333342254 -0.009193633610369904
0.09899060380788612 -0.01002340137348982
0.09969218097581314 -0.06458914138154938
0.09971454146932592 -0.11941150645960667
0.09986367012390297 -0.17325523768189616
0.1003821340624608 -0.2261017177482359
0.10120686943027025 -0.2778661717105527
0.10227482979041226 -0.3283273215802016
0.10355819930754549 -0.3772188154903921
0.10504538656016575 -0.42426878648722555
0.10673188315642598 -0.46920779669603685
0.10861642492750043 -0.5117690674844455
0.11069883624794208 -0.5516875810515286
0.11297886266961035 -0.588699445192911
0.11545524407515752 -0.6225417107922004
0.11812460780331145 -0.6529522034328676
0.12098087727374672 -0.6796682117677396
0.12401863140840301 -0.7024208936887929
0.12724626406604483 -0.7209178060358231
0.13070589881112912 -0.7348015608626337
0.1344604484142324 -0.7435843165415471
0.1384759008047216 -0.7466458897176961
0.14249135319521078 -0.743584316541547
0.14624590279831404 -0.7348015608626336
0.14970553754339833 -0.720917806035823
0.15293317020104014 -0.7024208936887929
0.15597092433569645 -0.6796682117677396
0.1588271938061317 -0.6529522034328675
0.1614965575342856 -0.6225417107922002
0.16397293893983275 -0.588699445192911
0.16625296536150108 -0.5516875810515284
0.1683353766819427 -0.5117690674844455
0.17021991845301715 -0.46920779669603674
0.1719064150492774 -0.4242687864872255
0.17339360230189765 -0.37721881549039205
0.1746769718190309 -0.3283273215802014
0.1757449321791729 -0.2778661717105529
0.17656966754698236 -0.22610171774823593
0.17708813148554015 -0.17325523768189632
0.1772372601401172 -0.11941150645960655
0.17725962063363 -0.06458914138154918
0.177961197801557 -0.010023401373489836
0.11210274709278335 -0.010717849124703074
0.11270665412558724 -0.06477682299596431
0.11269630902544683 -0.11939846308696823
0.11268978803380478 -0.17324963879871277
0.11295305613236654 -0.2261404149545785
0.11346323688558563 -0.2779405525031134
0.11416102032482527 -0.3284283018798537
0.11501302793479536 -0.377341354926662
0.11600446172956544 -0.42441037528607045
0.11712954687634936 -0.46936739398841426
0.11838659939148631 -0.5119463346694405
0.11977535165003826 -0.5518823734944664
0.12129546443775965 -0.588911479158504
0.12294537088411768 -0.622770273995971
0.1247208914195012 -0.6531959685630588
0.12661425051890024 -0.679925789713584
0.12861760894236798 -0.7026938445543618
0.1307398929573683 -0.7212178898237376
0.13303784885958503 -0.7351581839943881
0.13561444404166156 -0.7440307618923536
0.13847590080472158 -0.7471540446848584
0.14133735756778157 -0.7440307618923535
0.14391395274985813 -0.735158183994388
0.14621190865207487 -0.7212178898237376
0.14833419266707515 -0.7026938445543618
0.15033755109054292 -0.679925789713584
0.15223091018994198 -0.6531959685630587
0.15400643072532544 -0.6227702739959707
0.15565633717168345 -0.5889114791585038
0.15717644995940488 -0.5518823734944664
0.1585652022179568 -0.5119463346694407
0.1598222547330938 -0.4693673939884142
0.16094733987987767 -0.4244103752860704
0.1619387736746478 -0.37734135492666193
0.16279078128461788 -0.32842830187985345
0.16348856472385753 -0.2779405525031135
0.1639987454770766 -0.2261404149545785
0.16426201357563835 -0.17324963879871294
0.1642554925839963 -0.11939846308696812
0.16424514748385588 -0.06477682299596411
0.16484905451665977 -0.010717849124703095
0.125145424400993 -0.011293114076019998
0.12565424052721402 -0.06496173055867079
0.12560964730486984 -0.11938783270365382
0.1254684429547477 -0.17322449470122525
0.1254943297777249 -0.22614788834890565
0.1256972018530984 -0.27797761731333187
0.12602690083206003 -0.3284860605004071
0.12644805043671775 -0.37741412563184745
0.12694373071318604 -0.424495307713062
0.12750728463907557 -0.46946330351706883
0.12813673985228477 -0.5120528321429706
0.12883175906781819 -0.5519992941772617
0.1295919470484956 -0.5890385051430906
0.13041555054043882 -0.6229066105638122
0.1312978992103375 -0.6533401104500578
0.13223001679839363 -0.6800760170388415
0.13320170788850455 -0.7028514925530344
0.1342208961391667 -0.7213962660235818
0.13535686703001742 -0.7353939690671758
0.136756490650231 -0.7443717832377199
0.13847590080472158 -0.7475748864225173
0.14019531095921217 -0.7443717832377198
0.14159493457942576 -0.7353939690671756
0.1427309054702764 -0.7213962660235816
0.14375009372093858 -0.7028514925530344
0.14472178481104947 -0.6800760170388414
0.14565390239910564 -0.6533401104500577
0.14653625106900428 -0.622906610563812
0.14735985456094752 -0.5890385051430905
0.14812004254162492 -0.5519992941772616
0.14881506175715833 -0.5120528321429707
0.14944451697036754 -0.46946330351706883
0.1500080708962571 -0.424495307713062
0.1505037511727254 -0.3774141256318474
0.15092490077738313 -0.3284860605004068
0.15125459975634475 -0.277977617313332
0.15145747183171826 -0.22614788834890565
0.15148335865469542 -0.17322449470122542
0.15134215430457326 -0.11938783270365372
0.1512975610822291 -0.06496173055867059
0.1518063772084501 -0.01129311407602002
0.1381419750463955 -0.011762784471473614
0.13855788311842088 -0.06513541089044024
0.13847397124688898 -0.11937795556587764
0.13821117499931074 -0.17318288993932499
0.13801469134372704 -0.2261264238037954
0.13791798077671996 -0.27797827549917464
0.1378822603323336 -0.3285008984150948
0.13787324527301048 -0.37743721114986817
0.13787322617787737 -0.4245235867487959
0.1378751380962634 -0.4694955083863605
0.13787688237838588 -0.5120885446836533
0.13787809176353774 -0.5520383386079383
0.13787835461364126 -0.5890805466257147
0.13787586587037637 -0.6229508148889945
0.13786581439601003 -0.653384876893169
0.13783864160786755 -0.6801193476570816
0.1377819813771233 -0.7028942247197887
0.137700587239491 -0.7214524174364976
0.13767212418017277 -0.7355072115253435
0.13789045476192396 -0.7446078984973128
0.13847590080472158 -0.7479151705493109
0.1390613468475192 -0.7446078984973128
0.1392796774292704 -0.7355072115253434
0.13925121436995216 -0.7214524174364972
0.13916982023231986 -0.7028942247197886
0.13911316000157556 -0.6801193476570816
0.1390859872134331 -0.6533848768931689
0.13907593573906676 -0.6229508148889944
0.1390734469958019 -0.5890805466257147
0.1390737098459054 -0.5520383386079382
0.13907491923105725 -0.5120885446836534
0.1390766635131797 -0.4694955083863605
0.13907857543156577 -0.4245235867487959
0.13907855633643268 -0.37743721114986806
0.13906954127710955 -0.3285008984150945
0.1390338208327232 -0.2779782754991747
0.1389371102657161 -0.22612642380379538
0.1387406266101324 -0.17318288993932518
0.13847783036255412 -0.11937795556587753
0.13839391849102223 -0.06513541089044006
0.13880982656304763 -0.011762784471473633
0.1511115329678765 -0.012138622169382059
0.15143720795816235 -0.06529200098847793
0.1513077391507487 -0.11936637202976173
0.15093094722222444 -0.17312675321451246
0.1505241068529206 -0.22607806525808005
0.1501352289199799 -0.27794352535213934
0.149737000644665 -0.3284731717977003
0.14929861860872934 -0.3774107103303468
0.14880297785011837 -0.42449521978353016
0.1482431412896394 -0.4694639919294822
0.14761705939508948 -0.5120534564277823
0.1469243808387764 -0.5519995027486249
0.14616472139633288 -0.5890376303416003
0.14533636089603708 -0.6229029888289492
0.14443469845071163 -0.6533305371813213
0.14345032348116243 -0.6800563149544097
0.14236922228307275 -0.7028225708794429
0.14119051550299774 -0.721385695150468
0.1399935399484446 -0.7354951159693986
0.13902037711211698 -0.7447381802331334
0.13847590080472158 -0.7481826424800568
0.13793142449732615 -0.7447381802331333
0.13695826166099853 -0.7354951159693984
0.13576128610644542 -0.7213856951504678
0.13458257932637038 -0.7028225708794427
0.13350147812828067 -0.6800563149544097
0.13251710315873153 -0.6533305371813212
0.13161544071340603 -0.622902988828949
0.13078708021311028 -0.5890376303416003
0.1300274207706667 -0.5519995027486246
0.12933474221435365 -0.5120534564277824
0.12870866031980374 -0.4694639919294821
0.12814882375932476 -0.42449521978353016
0.12765318300071382 -0.3774107103303467
0.12721480096477816 -0.3284731717977001
0.12681657268946325 -0.2779435253521394
0.12642769475652255 -0.22607806525808002
0.12602085438721866 -0.1731267532145126
0.12564406245869442 -0.11936637202976161
0.1255145936512808 -0.06529200098847776
0.12584026864156664 -0.012138622169382076
0.16407024940267403 -0.012431195902906167
0.16430931417748287 -0.06542769055930825
0.16412824714162003 -0.11935040310335814
0.16364148731099865 -0.17305714358835378
0.16303354629748668 -0.2260045146435537
0.16235907614161388 -0.27787434454103227
0.1616011628417008 -0.32840325483945054
0.160734206664403 -0.37733472602656126
0.1597430137149308 -0.42441021479769336
0.15862132099769186 -0.46936873767723064
0.15736729947491537 -0.5119475514530241
0.15598065503393455 -0.55188278233718
0.1544610706742505 -0.5889097828360498
0.15280704106773163 -0.6227632319648412
0.15101449381187712 -0.6531773558775876
0.1490749527427566 -0.6798875024582108
0.14697384445705888 -0.7026372674066385
0.14470252861394525 -0.7211955151478486
0.14233232257717007 -0.7353537729152362
0.1401508725236063 -0.7447597833652617
0.13847590080472155 -0.7483866476312241
0.13680092908583685 -0.7447597833652616
0.13461947903227306 -0.735353772915236
0.1322492729954979 -0.7211955151478484
0.12997795715238425 -0.7026372674066381
0.12787684886668654 -0.6798875024582106
0.12593730779756604 -0.6531773558775875
0.1241447605417115 -0.622763231964841
0.12249073093519262 -0.5889097828360497
0.12097114657550855 -0.5518827823371797
0.11958450213452775 -0.5119475514530242
0.11833048061175126 -0.46936873767723064
0.11720878789451232 -0.4244102147976934
0.11621759494504015 -0.3773347260265612
0.11535063876774233 -0.32840325483945026
0.11459272546782927 -0.27787434454103244
0.11391825531195646 -0.22600451464355367
0.1133103142984445 -0.1730571435883539
0.11282355446782309 -0.11935040310335804
0.11264248743196026 -0.06542769055930808
0.11288155220676907 -0.012431195902906188
0.17703197628628642 -0.012650417572099818
0.17718928242482218 -0.06554027308183923
0.17695162904812634 -0.11932750827779531
0.17635689679570157 -0.1729745271257565
0.17555476914798443 -0.2259071060726327
0.1746001055659547 -0.2777716024848447
0.1734849364895057 -0.3282914978945936
0.1721900750518397 -0.3772093522424468
0.17070335900083675 -0.4242685767935002
0.16901969672820266 -0.4692097292273519
0.1671376273567669 -0.5117708143853963
0.16505694138331353 -0.5516881722383887
0.1627774153611355 -0.5886970267733597
0.16029787518408636 -0.6225316334557658
0.15761504170370363 -0.6529255662152368
0.15472209282429766 -0.6796134920531552
0.15160568533413638 -0.7023393095298268
0.148248684537518 -0.7208816624629222
0.14470164829444748 -0.7350782413657686
0.14128778548123494 -0.7446671981249748
0.13847590080472158 -0.7485389302354245
0.1356640161282082 -0.7446671981249747
0.13225015331499565 -0.7350782413657684
0.12870311707192514 -0.720881662462922
0.12534611627530673 -0.7023393095298266
0.12222970878514548 -0.6796134920531551
0.11933675990573953 -0.6529255662152366
0.11665392642535677 -0.6225316334557657
0.11417438624830759 -0.5886970267733596
0.11189486022612959 -0.5516881722383885
0.10981417425267621 -0.5117708143853963
0.1079321048812405 -0.4692097292273519
0.10624844260860637 -0.42426857679350016
0.10476172655760345 -0.37720935224244667
0.10346686511993744 -0.3282914978945934
0.10235169604348844 -0.2777716024848449
0.1013970324614587 -0.22590710607263267
0.10059490481374155 -0.17297452712575664
0.10000017256131681 -0.11932750827779522
0.09976251918462095 -0.06554027308183905
0.0999198253231567 -0.012650417572099833
0.1900085773220916 -0.012805986918828017
0.19009045986014053 -0.06562879378361301
0.1897929594042989 -0.11929551509469291
0.1890914645761894 -0.17287901822426302
0.18810015263743243 -0.22578681642066314
0.18686929544311867 -0.2776359936701054
0.18539864838411296 -0.3281381871965795
0.18367631352011482 -0.3770346608815398
0.18169403352383107 -0.4240703047323948
0.17944828036086702 -0.46898695030075116
0.17693806414682883 -0.5115232310664755
0.1741632664432579 -0.5514156661656099
0.1711237614854634 -0.5883993769307843
0.1678187967897574 -0.6222082654985809
0.16424610981643867 -0.652575349962914
0.1604010166299772 -0.6792347838502617
0.1562737376572418 -0.7019299487556508
0.15184086840712163 -0.7204447245769858
0.14711749467676602 -0.7346628625785228
0.1424393520180925 -0.7444511001061941
0.13847590080472158 -0.7486546671515129
0.13451244959135059 -0.744451100106194
0.1298343069326771 -0.7346628625785225
0.12511093320232147 -0.7204447245769856
0.12067806395220133 -0.7019299487556506
0.11655078497946597 -0.6792347838502616
0.11270569179300445 -0.6525753499629139
0.10913300481968571 -0.6222082654985808
0.10582804012397966 -0.5883993769307843
0.1027885351661852 -0.5514156661656099
0.1000137374626143 -0.5115232310664755
0.0975035212485761 -0.4689869503007512
0.09525776808561202 -0.4240703047323948
0.09327548808932834 -0.37703466088153975
0.09155315322533016 -0.3281381871965793
0.09008250616632447 -0.27763599367010555
0.08885164897201071 -0.22578681642066317
0.08786033703325376 -0.17287901822426313
0.08715884220514425 -0.1192955150946928
0.08686134174930261 -0.06562879378361283
0.08694322428735154 -0.01280598691882803
0.20300994190959928 -0.012907750676343211
0.20302456189120235 -0.06569329473696045
0.20266642764323325 -0.11925279051922089
0.2018596426632482 -0.1727705759872065
0.20068256714285096 -0.22564428309247375
0.19917793726386532 -0.27746798677440315
0.1973527322754339 -0.3279435104059695
0.19520302516068097 -0.37681068984316324
0.19272504769063242 -0.42381538930705914
0.1899170755744043 -0.46870038522029556
0.18677862790660887 -0.511204789232351
0.18330965721278417 -0.5510652571085067
0.17951011554173849 -0.5880168365329775
0.1753797071011806 -0.6217931755741413
0.17091740958636234 -0.6521268333339315
0.1661208374663866 -0.6787516972278741
0.16098589158798782 -0.7014105585087899
0.15548986117344143 -0.7198866450640165
0.14959954061146982 -0.734102049387957
0.1436183851449848 -0.7440966206582643
0.13847590080472155 -0.7487537387412693
0.13333341646445834 -0.7440966206582642
0.1273522609979733 -0.7341020493879568
0.12146194043600163 -0.7198866450640163
0.1159659100214553 -0.7014105585087896
0.11083096414305656 -0.678751697227874
0.1060343920230808 -0.6521268333339314
0.10157209450826252 -0.6217931755741409
0.0974416860677046 -0.5880168365329774
0.09364214439665894 -0.5510652571085067
0.09017317370283424 -0.5112047892323511
0.08703472603503883 -0.46870038522029567
0.0842267539188107 -0.42381538930705914
0.08174877644876216 -0.3768106898431632
0.07959906933400923 -0.3279435104059692
0.07777386434557786 -0.27746798677440326
0.07626923446659216 -0.22564428309247375
0.07509215894619493 -0.17277057598720663
0.07428537396620988 -0.11925279051922077
0.07392723971824076 -0.06569329473696027
0.07394185969984383 -0.01290775067634323
0.21604370861744346 -0.012965974487388487
0.2160016161987295 -0.06573466623218925
0.2155856034687635 -0.11919840801143235
0.2146761601138343 -0.17264914760907143
0.2133152848798056 -0.22547980622580052
0.21153753623631724 -0.2772677847025292
0.209357683449413 -0.32770753069342545
0.206780310071782 -0.3765374341601267
0.20380639750938565 -0.4235038119748521
0.20043607709353312 -0.4683500200010679
0.1966693350406748 -0.5108154792320952
0.19250614137718391 -0.5506369380623763
0.18794649247198925 -0.5875493967515539
0.18299049395766565 -0.6212863717610536
0.17763856776830236 -0.6515801016227436
0.17189073221511186 -0.6781643032257673
0.1657489530946665 -0.7007822538048222
0.15920347402336435 -0.7192112765851237
0.15217168494058567 -0.7333920255004386
0.14484662296043388 -0.7435808293505868
0.13847590080472155 -0.7488620753793908
0.13210517864900923 -0.7435808293505868
0.12478011666885742 -0.7333920255004384
0.1177483275860787 -0.7192112765851235
0.11120284851477659 -0.700782253804822
0.10506106939433128 -0.6781643032257672
0.09931323384114073 -0.6515801016227435
0.0939613076517775 -0.6212863717610534
0.08900530913745384 -0.5875493967515538
0.08444566023225919 -0.5506369380623761
0.08028246656876833 -0.5108154792320954
0.07651572451591003 -0.468350020001068
0.07314540410005747 -0.42350381197485215
0.07017149153766115 -0.37653743416012664
0.06759411816003014 -0.32770753069342523
0.0654142653731259 -0.27726778470252933
0.06363651672963752 -0.22547980622580052
0.06227564149560884 -0.17264914760907157
0.061366198140679624 -0.11919840801143222
0.060950185410713634 -0.06573466623218907
0.06090809299199968 -0.012965974487388506
0.22911463288679412 -0.012991509768986536
0.22902976776189962 -0.06575463933143053
0.22856386940898907 -0.11913235272661711
0.22755625751385675 -0.17251474050917326
0.22601189224133986 -0.2252933181380462
0.2239596973520333 -0.27703529381703945
0.2214240027162171 -0.32743017082778936
0.21841824418152989 -0.37621484155600143
0.2149480592062164 -0.4231355457872389
0.21101527006892595 -0.4679358439263738
0.20662020150422278 -0.5103552955243535
0.20176275100842475 -0.5501307010117681
0.1964429109460618 -0.5869970433958859
0.19066108972652673 -0.6206878025841269
0.18441905595317887 -0.6509351983295991
0.1777200547463705 -0.6774725128430423
0.17056956413193652 -0.7000451714775133
0.16298342953954223 -0.7184244705476569
0.15486051255619707 -0.7325344331345949
0.14616394278151915 -0.7428693126477238
0.13847590080472155 -0.7490123981359842
0.13078785882792393 -0.7428693126477237
0.122091289053246 -0.7325344331345948
0.11396837206990085 -0.7184244705476567
0.10638223747750657 -0.7000451714775132
0.09923174686307265 -0.6774725128430422
0.09253274565626422 -0.6509351983295989
0.08629071188291641 -0.6206878025841266
0.08050889066338131 -0.5869970433958857
0.07518905060101837 -0.5501307010117679
0.07033160010522033 -0.5103552955243537
0.06593653154051718 -0.4679358439263739
0.062003742403226716 -0.42313554578723894
0.05853355742791328 -0.3762148415560014
0.05552779889322601 -0.3274301708277891
0.052992104257409814 -0.2770352938170397
0.050939909368103255 -0.22529331813804618
0.0493955440955864 -0.17251474050917345
0.04838793220045406 -0.11913235272661699
0.04792203384754348 -0.06575463933143036
0.047837168722648996 -0.012991509768986548
0.2422234250857345 -0.012995810256153808
0.24211497319252875 -0.06575600699750106
0.24161518351614028 -0.11905579288278943
0.24051600001852017 -0.17236738111332037
0.23878616274386633 -0.22508431246674837
0.2364560044094673 -0.2767701050393096
0.23356213223722178 -0.3271112072815386
0.23012685516211606 -0.375842813660773
0.22615998370306958 -0.42271055862576423
0.22166463134735293 -0.4674578510410658
0.2166412401559034 -0.5098242397207607
0.21108953548103698 -0.5495465348014724
0.20500937622652576 -0.5863597609371212
0.1984015126647132 -0.619997375358302
0.19126832942038566 -0.6501919931917478
0.18361765829544455 -0.6766764771323093
0.17545688416547303 -0.6991976706330251
0.16682219423782307 -0.7175322603682278
0.15768580712134506 -0.7315435506028456
0.14764944795121746 -0.741912366523995
0.13847590080472155 -0.7492420507579574
0.12930235365822562 -0.7419123665239948
0.11926599448809803 -0.7315435506028454
0.11012960737162002 -0.7175322603682277
0.10149491744397006 -0.6991976706330248
0.09333414331399859 -0.6766764771323092
0.08568347218905743 -0.6501919931917476
0.0785502889447299 -0.6199973753583018
0.07194242538291737 -0.5863597609371209
0.06586226612840612 -0.5495465348014722
0.06031056145353975 -0.5098242397207607
0.05528717026209025 -0.4674578510410659
0.05079181790637355 -0.42271055862576423
0.04682494644732707 -0.37584281366077293
0.04338966937222134 -0.3271112072815383
0.04049579719997582 -0.2767701050393099
0.038165638865576806 -0.2250843124667484
0.03643580159092297 -0.17236738111332053
0.03533661809330284 -0.1190557928827893
0.03483682841691436 -0.06575600699750088
0.03472837652370862 -0.012995810256153826
0.255364679651486 -0.012990706147644877
0.2552606573320867 -0.06574326822375944
0.25475550723506435 -0.11897140887490826
0.2535725107754256 -0.17220687562603662
0.25165186484291996 -0.2248517519277995
0.24903790436472056 -0.2764714890121424
0.2457823803101884 -0.3267502734493066
0.24191609979919934 -0.37542121490516683
0.23745209243160645 -0.4222288177846674
0.2323941283703003 -0.46691604432192174
0.22674246991132077 -0.5092223169169803
0.22049653446363707 -0.548884444055593
0.21365598776781225 -0.585637482088891
0.2062215578497722 -0.6192151031727741
0.1981967824022936 -0.6493498775133791
0.18958998650776343 -0.6757768635378473
0.18042487228465842 -0.6982374620550362
0.17071015299749512 -0.7165329721932046
0.16062186298572984 -0.7304601432813966
0.14947451722888172 -0.7406441319754266
0.13847590080472155 -0.7495803784151487
0.12747728438056133 -0.7406441319754263
0.11632993862371321 -0.7304601432813964
0.10624164861194796 -0.7165329721932043
0.0965269293247847 -0.6982374620550362
0.08736181510167969 -0.6757768635378473
0.07875501920714947 -0.649349877513379
0.07073024375967091 -0.6192151031727737
0.06329581384163088 -0.5856374820888907
0.05645526714580602 -0.5488844440555927
0.05020933169812241 -0.5092223169169805
0.04455767323914285 -0.46691604432192185
0.039499709177836684 -0.4222288177846675
0.035035701810243736 -0.3754212149051668
0.031169421299254714 -0.32675027344930635
0.027913897244722555 -0.27647148901214263
0.025299936766523173 -0.22485175192779952
0.023379290834017564 -0.17220687562603676
0.022196294374378773 -0.1189714088749081
0.021691144277356408 -0.06574326822375924
0.02158712195795711 -0.012990706147644897
0.2685231068896798 -0.012987752375398027
0.2684675008558836 -0.06572412260364427
0.26800565608243376 -0.11888365891462357
0.2667435354794836 -0.17203222263070225
0.26462268577372666 -0.22459404938400732
0.2617165356194415 -0.27613837657398904
0.25809485541318367 -0.3263468837502255
0.25379584176846676 -0.3749498860916691
0.2488342747035905 -0.4216902981030241
0.2432137227424369 -0.46631043665164845
0.2369339092109928 -0.5085495449822096
0.2299938145052774 -0.5481444208267356
0.22239279628228178 -0.5848302069481945
0.21413141450721931 -0.6183406936614165
0.20521347306164858 -0.6484092041025016
0.19564949780650553 -0.6747703629103051
0.18546552132593574 -0.6971736997915832
0.17471017097614175 -0.7153918255575089
0.16344911914027604 -0.7293754253549937
0.1520520320452095 -0.7389996709577031
0.13847590080472152 -0.7500000000000001
0.12489976956423353 -0.7389996709577029
0.11350268246916698 -0.7293754253549936
0.10224163063330133 -0.7153918255575086
0.09148628028350737 -0.697173699791583
0.08130230380293758 -0.6747703629103051
0.07173832854779452 -0.6484092041025014
0.06282038710222373 -0.6183406936614162
0.054559005327161354 -0.5848302069481942
0.04695798710416575 -0.5481444208267352
0.04001789239845044 -0.50854954498221
0.03373807886700617 -0.4663104366516486
0.028117526905852615 -0.42169029810302405
0.02315595984097632 -0.3749498860916692
0.018856946196259463 -0.32634688375022525
0.015235265990001592 -0.2761383765739892
0.012329115835716402 -0.22459404938400734
0.010208266129959526 -0.17203222263070242
0.00894614552700938 -0.11888365891462344
0.008484300753559498 -0.06572412260364406
0.008428694719763383 -0.012987752375398051
SCALARS Stress float 6
LOOKUP_TABLE default
-153.29880775313293 -4877.4628825768905 -1509.2285070990074 -113.3214845218615 0.0 0.0
2310.164552384043 1365.1641249084887 1102.5986031877594 -176.02597784806244 0.0 0.0
1313.5182471468677 -116.49964790597417 359.1055797722681 -75.28432369737419 0.0 0.0
1344.055084523397 102.32203346481087 433.91313539646205 -11.212606705356698 0.0 0.0
1543.1363789947156 37.23103459947201 474.1102240782565 -25.841841471101993 0.0 0.0
1857.3583672381017 52.60707840131745 572.9896336918258 -26.629032027942397 0.0 0.0
2204.270416857338 57.32186966296234 678.4776859560902 -28.23685341250077 0.0 0.0
2567.3721332207233 66.76317008066793 790.2405909904169 -28.84865692429257 0.0 0.0
2934.710940045619 76.05130504958218 903.2286735285603 -29.06621058666269 0.0 0.0
3302.8693399454255 85.64524509062869 1016.5543755108164 -29.122832096253276 0.0 0.0
3670.615356755232 95.21073060565776 1129.7478262082673 -29.122828541931835 0.0 0.0
4037.908202792256 104.7708964769598 1242.8037297807643 -29.129278141208708 0.0 0.0
4405.23369293984 114.3643589608303 1355.879415570201 -29.18601194304897 0.0 0.0
4773.920050968014 124.12574170630636 1469.4137378022963 -29.353144156389373 0.0 0.0
5146.885006623803 134.28606587164444 1584.3513217486343 -29.69533138513391 0.0 0.0
5529.059005243284 145.0840957399 1702.2429302949556 -30.180601943685687 0.0 0.0
5925.226644280965 156.39185896891595 1824.485550974964 -30.400346600645264 0.0 0.0
6331.386897797511 167.01510192773696 1949.5205999175737 -29.140231839761597 0.0 0.0
6717.533614868478 174.30898458385892 2067.5527798357016 -24.30532061327451 0.0 0.0
7012.843728619202 176.08661196132437 2156.6791021741574 -14.218427536330076 0.0 0.0
7125.9644841988065 175.08490665007557 2190.314817254665 -2.582112301752204e-11 0.0 0.0
7012.8437286192675 176.0866119614314 2156.6791021742106 14.21842753637489 0.0 0.0
6717.533614868463 174.3089845837589 2067.552779835667 24.30532061326865 0.0 0.0
6331.386897797569 167.0151019278872 1949.5205999176374 29.140231839754307 0.0 0.0
5925.22664428094 156.39185896886954 1824.4855509749432 30.400346600621248 0.0 0.0
5529.059005243288 145.08409573989834 1702.2429302949563 30.18060194364729 0.0 0.0
5146.885006623964 134.2860658719684 1584.3513217487796 29.695331385096964 0.0 0.0
4773.9200509680695 124.12574170642657 1469.4137378023493 29.35314415637297 0.0 0.0
4405.233692939546 114.36435896013137 1355.8794155699034 29.186011943074988 0.0 0.0
4037.9082027922586 104.77089647694578 1242.8037297807616 29.12927814116734 0.0 0.0
3670.615356755347 95.21073060601299 1129.7478262084082 29.12282854194566 0.0 0.0
3302.8693399451663 85.645245090072 1016.5543755105715 29.122832096283794 0.0 0.0
2934.710940045647 76.05130504962351 903.2286735285809 29.066210586671936 0.0 0.0
2567.3721332207483 66.7631700806626 790.2405909904232 28.848656924292044 0.0 0.0
2204.270416857316 57.321869662899275 678.4776859560644 28.236853412461272 0.0 0.0
1857.358367238044 52.60707840119754 572.9896336917723 26.629032027986423 0.0 0.0
1543.136378994735 37.231034599477766 474.11022407826385 25.84184147103954 0.0 0.0
1344.0550845233652 102.32203346469375 433.9131353964177 11.212606705378569 0.0 0.0
1313.5182471468947 -116.49964790594117 359.10557977228586 75.28432369730315 0.0 0.0
2310.1645523840434 1365.1641249084773 1102.5986031877567 176.02597784806946 0.0 0.0
-153.2988077531205 -4877.462882576886 -1509.2285070990026 113.32148452179574 0.0 0.0
-870.4501932058781 -4845.51848462449 -1714.7906033491108 -77.44067976917584 0.0 0.0
1420.8297589455244 934.0201960565103 706.4549865006104 -140.34815172316266 0.0 0.0
923.5860407132762 -131.0752692066191 237.75323145199724 -52.62086983641532 0.0 0.0
1198.8114629575307 46.3443548059057 373.5467453290309 -43.55443477506635 0.0 0.0
1371.9384154757804 5.7538659356935895 413.30768442344225 -62.79648486470711 0.0 0.0
1656.9214454520743 4.579769731541374 498.4503645550847 -71.13642799782009 0.0 0.0
1964.4735322767006 1.5314295738837018 589.8014885551754 -74.87562087926302 0.0 0.0
2286.303141005683 0.4680664494311325 686.031362236534 -76.40633012067772 0.0 0.0
2612.448653381694 0.048927886758522776 783.7492743805358 -76.82656616675787 0.0 0.0
2939.709725533378 -0.062459201599462055 881.894179899534 -76.86958870823368 0.0 0.0
3266.8907478204183 -0.06321601756730022 980.0482595408554 -76.8109865794794 0.0 0.0
3593.845824051393 -0.009689832562665313 1078.150840265649 -76.78218695261201 0.0 0.0
3920.9774801121503 0.13471988719289785 1176.333659999803 -76.88866601015296 0.0 0.0
4249.398379034129 0.4769673866868027 1274.9626039262444 -77.31683096267099 0.0 0.0
4581.373873314474 1.1207781231559588 1374.748395431289 -78.35909013365043 0.0 0.0
4920.289491293156 1.902510602941481 1476.6576005688294 -80.20535427509286 0.0 0.0
5268.2830808788685 1.8198193004497174 1581.0308700537953 -82.178675087479 0.0 0.0
5618.757300854652 -1.5663445612919649 1685.1572868880085 -81.2449047404151 0.0 0.0
5943.445123335237 -11.362048901864204 1779.6249223300117 -70.8217480296457 0.0 0.0
6184.54792325977 -26.628362754209807 1847.3758681516679 -43.40030257315345 0.0 0.0
6274.764803951534 -35.837109798360345 1871.6783082459522 -3.574029960873304e-12 0.0 0.0
6184.547923259821 -26.628362754128656 1847.375868151708 43.40030257316054 0.0 0.0
5943.445123335256 -11.362048901850798 1779.6249223300217 70.82174802964937 0.0 0.0
5618.757300854579 -1.5663445614753364 1685.1572868879302 81.24490474045334 0.0 0.0
5268.283080878734 1.8198193001824858 1581.0308700536748 82.17867508749748 0.0 0.0
4920.289491293126 1.9025106028975394 1476.657600568807 80.2053542751218 0.0 0.0
4581.373873314434 1.1207781230526752 1374.7483954312463 78.35909013363928 0.0 0.0
4249.398379034143 0.4769673866856756 1274.9626039262482 77.3168309626445 0.0 0.0
3920.977480111958 0.13471988671851598 1176.3336599996028 76.88866601016639 0.0 0.0
3593.8458240513974 -0.009689832524518494 1078.150840265662 76.7821869526232 0.0 0.0
3266.890747820449 -0.06321601744686234 980.0482595409009 76.81098657949865 0.0 0.0
2939.7097255332824 -0.06245920180273146 881.8941798994441 76.8695887082323 0.0 0.0
2612.448653381682 0.048927886737160975 783.7492743805259 76.82656616674558 0.0 0.0
2286.303141005732 0.4680664495731204 686.0313622365916 76.4063301206817 0.0 0.0
1964.473532276671 1.531429573831991 589.8014885551511 74.87562087924591 0.0 0.0
1656.9214454520861 4.579769731583955 498.45036455510115 71.1364279978524 0.0 0.0
1371.9384154757943 5.75386593572299 413.30768442345527 62.79648486469105 0.0 0.0
1198.8114629575416 46.344354805890255 373.5467453290298 43.554434775093476 0.0 0.0
923.5860407133155 -131.0752692065543 237.75323145202844 52.62086983639318 0.0 0.0
1420.829758945528 934.0201960564967 706.4549865006074 140.3481517231619 0.0 0.0
-870.4501932058578 -4845.518484624484 -1714.7906033491026 77.44067976912741 0.0 0.0
-952.4484849995573 -4241.075824082822 -1558.0572927247133 -356.6492408310561 0.0 0.0
898.5620368117233 563.0870581882423 438.49472849998966 -253.79430072715567 0.0 0.0
684.9617930884799 23.48552978757547 212.5341968628166 -35.68209896448545 0.0 0.0
1000.2685774694056 7.590760991568608 302.3578015382923 -100.47318799689404 0.0 0.0
1220.701842924557 17.899778424586003 371.58048640474306 -125.03660868389566 0.0 0.0
1470.7349348661096 4.453688540076451 442.5565870218559 -143.30360010761754 0.0 0.0
1747.7650362026252 2.432594984790714 525.0592893562248 -150.4432486592907 0.0 0.0
2033.0968109883142 0.6034002296246004 610.1100633653816 -153.32856984782666 0.0 0.0
2322.69295062405 0.07099230855310501 696.829182879781 -154.10375050046036 0.0 0.0
2613.307848707855 -0.09035433918028679 783.9652483106025 -154.14858801612382 0.0 0.0
2904.036414891164 -0.08983099160397146 871.1839751698681 -154.0160779553171 0.0 0.0
3194.6821770904703 -0.01610234680407263 958.3998224230995 -153.9445992849661 0.0 0.0
3485.545776888879 0.1831250631654351 1045.7186705856136 -154.1348852417009 0.0 0.0
3777.4681276589154 0.6625492910673207 1133.4392030849945 -154.95673897820484 0.0 0.0
4072.084411134525 1.5871825454224906 1222.1014781039844 -157.02229085031877 0.0 0.0
4371.62855751981 2.7614970073965024 1312.3170163581617 -160.8113362920517 0.0 0.0
4676.823589334936 2.7686412584315 1403.8776691780101 -165.17394702020692 0.0 0.0
4980.712579668341 -2.0467003179765832 1493.5997638051094 -164.22857254053085 0.0 0.0
5258.377888040111 -16.77523219955939 1572.4807967521656 -144.46933306480173 0.0 0.0
5461.365679705194 -40.971677262501174 1626.118200732808 -89.4214288075506 0.0 0.0
5535.910911353869 -56.47809782190349 1643.82984405959 5.7980287238024175e-12 0.0 0.0
5461.365679705244 -40.97167726235925 1626.1182007328655 89.42142880750762 0.0 0.0
5258.3778880401305 -16.775232199533573 1572.4807967521792 144.46933306482177 0.0 0.0
4980.7125796681585 -2.0467003184133326 1493.5997638049237 164.22857254051414 0.0 0.0
4676.823589334865 2.768641258276549 1403.8776691779424 165.17394702019422 0.0 0.0
4371.62855751983 2.761497007441152 1312.317016358181 160.81133629205902 0.0 0.0
4072.0844111344218 1.5871825451762938 1222.1014781038793 157.02229085028563 0.0 0.0
3777.4681276588376 0.6625492908930717 1133.4392030849192 154.95673897822618 0.0 0.0
3485.5457768887127 0.18312506277531426 1045.7186705854465 154.13488524168324 0.0 0.0
3194.6821770904808 -0.016102346805144663 958.3998224231032 153.9445992849617 0.0 0.0
2904.0364148910508 -0.08983099188052002 871.1839751697511 154.01607795531478 0.0 0.0
2613.3078487078533 -0.09035433916699454 783.9652483106061 154.14858801610723 0.0 0.0
2322.6929506240594 0.0709923085829054 696.8291828797925 154.10375050043675 0.0 0.0
2033.0968109883834 0.6034002298030394 610.1100633654561 153.3285698478506 0.0 0.0
1747.7650362026084 2.4325949847591337 525.0592893562102 150.44324865930096 0.0 0.0
1470.7349348661105 4.453688540048004 442.5565870218476 143.30360010762843 0.0 0.0
1220.7018429245588 17.89977842460145 371.58048640474806 125.03660868390095 0.0 0.0
1000.268577469417 7.590760991605187 302.35780153830666 100.47318799693124 0.0 0.0
684.9617930885199 23.485529787641212 212.53419686284838 35.68209896448868 0.0 0.0
898.5620368116914 563.0870581882052 438.4947284999691 253.79430072712853 0.0 0.0
-952.4484849995958 -4241.075824082834 -1558.057292724729 356.64924083105905 0.0 0.0
-875.2666211114492 -3645.812500255962 -1356.3237364102233 -445.2347302139068 0.0 0.0
560.9502517527485 229.16051801619366 237.03323093068272 -347.56387994353406 0.0 0.0
500.7189716423245 108.4575755611292 182.75296416103615 -105.75351974577153 0.0 0.0
809.3124552152896 15.54390742691519 247.45690879266144 -145.24381829465491 0.0 0.0
1055.407893617322 19.26067645190594 322.40057102076855 -186.003617869634 0.0 0.0
1284.6928809330443 8.503413434232115 387.95888831018294 -206.8713428679186 0.0 0.0
1529.0808251268115 3.0298423664894587 459.63320024799043 -217.27148499023207 0.0 0.0
1779.6071249844956 0.9817260963660779 534.1766553242585 -221.08616524359513 0.0 0.0
2032.776381542444 0.0716067050016087 609.8543964742336 -222.21412654224252 0.0 0.0
2286.9097850743187 -0.13387653560804447 686.0327725616131 -222.29600881369544 0.0 0.0
2541.195130570861 -0.13600233768464465 762.3177384699528 -222.13111563221858 0.0 0.0
2795.49623221688 -0.02802268358772686 838.6404628599876 -222.0442464898767 0.0 0.0
3049.9869768900094 0.2609642472955964 915.0743823411917 -222.31246105394428 0.0 0.0
3305.2030162538153 0.966445940573184 991.8508386583165 -223.43245556925226 0.0 0.0
3562.1604791488844 2.357230008942798 1069.355312747348 -226.2191906187205 0.0 0.0
3822.185130142681 4.193987657246485 1147.9137353399783 -231.30066501953425 0.0 0.0
4085.353876424373 4.383467901524178 1226.9212032977696 -237.06532175530296 0.0 0.0
4345.709511352327 -2.775286002549967 1302.8802676049331 -235.30495330505403 0.0 0.0
4582.522836920012 -25.742165722494615 1367.0342013592558 -206.9389068443953 0.0 0.0
4754.491023935212 -64.73388146439015 1406.9271427412466 -128.2327969772731 0.0 0.0
4816.414403804336 -90.35671995026624 1417.8173051562214 2.2239987629291136e-12 0.0 0.0
4754.491023935271 -64.73388146424843 1406.9271427413073 128.23279697725636 0.0 0.0
4582.522836919996 -25.742165722569933 1367.0342013592276 206.9389068443905 0.0 0.0
4345.70951135236 -2.7752860024657195 1302.8802676049681 235.3049533050368 0.0 0.0
4085.3538764244618 4.383467901721673 1226.9212032978548 237.06532175531834 0.0 0.0
3822.1851301427264 4.193987657364122 1147.9137353400274 231.30066501953726 0.0 0.0
3562.1604791489112 2.3572300090129197 1069.3553127473774 226.21919061868405 0.0 0.0
3305.2030162537244 0.9664459403419414 991.85083865822 223.4324555692402 0.0 0.0
3049.986976890001 0.2609642472575491 915.0743823411775 222.3124610539 0.0 0.0
2795.4962322167926 -0.028022683824922012 838.6404628598904 222.04424648990528 0.0 0.0
2541.1951305707225 -0.13600233801984807 762.3177384698109 222.1311156322176 0.0 0.0
2286.9097850742996 -0.1338765356401801 686.032772561598 222.29600881368825 0.0 0.0
2032.7763815424664 0.07160670505044386 609.854396474255 222.21412654222246 0.0 0.0
1779.6071249844456 0.9817260962625776 534.1766553242126 221.08616524361662 0.0 0.0
1529.080825126814 3.0298423665099605 459.63320024799725 217.2714849902215 0.0 0.0
1284.6928809330311 8.503413434189277 387.9588883101661 206.87134286790442 0.0 0.0
1055.4078936173355 19.260676451926894 322.4005710207787 186.00361786962597 0.0 0.0
809.312455215287 15.543907426917917 247.45690879266144 145.2438182946884 0.0 0.0
500.7189716423219 108.45757556113607 182.7529641610373 105.75351974576996 0.0 0.0
560.9502517527383 229.16051801617505 237.0332309306739 347.56387994352974 0.0 0.0
-875.2666211114506 -3645.8125002559696 -1356.323736410226 445.234730213917 0.0 0.0
-750.121328303914 -3103.69216789256 -1156.1440488589424 -455.3960658496364 0.0 0.0
340.847268139487 -28.225327559031907 93.78658217413651 -410.98785955676556 0.0 0.0
357.0918665236523 135.31996688400056 147.72355002229585 -200.38535439440167 0.0 0.0
635.4371622017892 38.050406241637965 202.04627053302815 -198.19658724810085 0.0 0.0
884.6978708303428 22.75031846808032 272.234456789527 -240.40429823262244 0.0 0.0
1096.8042309203852 12.050402950370056 332.65639016122657 -263.64101630362126 0.0 0.0
1309.6954662499422 4.388097822636363 394.22506922177365 -275.24456068598744 0.0 0.0
1525.6220728282694 1.3092422258188572 458.0793945162266 -279.8390178600802 0.0 0.0
1742.7605830394145 0.12141395154704604 522.8645990972885 -281.1801385440885 0.0 0.0
1960.4767881722228 -0.19470571198002906 588.084624738073 -281.3230598799903 0.0 0.0
2178.3522998209974 -0.19017346898269727 653.4486379056043 -281.1532148051347 0.0 0.0
2396.280187714199 -0.040991197649044686 718.8717589549653 -281.06928190477595 0.0 0.0
2614.3240162346774 0.36281831611949755 784.4060503652395 -281.39318811076964 0.0 0.0
2832.7000512655814 1.3517303037588322 850.2155344708021 -282.68955527756594 0.0 0.0
3051.8431075937488 3.322794344502618 916.5497705814756 -285.8747142892738 0.0 0.0
3272.3872307185084 5.984407561305142 983.5114914839442 -291.6500615247099 0.0 0.0
3494.3659731873613 6.385954471454515 1050.225578297645 -298.1109179393576 0.0 0.0
3713.8223243605207 -3.8432667980486688 1112.9937172687416 -295.4338121184451 0.0 0.0
3914.727539444205 -37.66468001998203 1163.1188578272672 -260.1550639820391 0.0 0.0
4061.0924052245964 -96.363379609594 1189.4187076845012 -161.84392652430103 0.0 0.0
4112.472439239316 -135.7758848827498 1193.0089663069698 -2.0889956431346945e-12 0.0 0.0
4061.092405224608 -96.36337960957286 1189.4187076845105 161.84392652433428 0.0 0.0
3914.7275394441817 -37.66468002004342 1163.1188578272413 260.1550639820176 0.0 0.0
3713.8223243606762 -3.843266797682567 1112.993717268898 295.433812118446 0.0 0.0
3494.365973187371 6.385954471483121 1050.2255782976565 298.1109179393723 0.0 0.0
3272.387230718553 5.984407561413919 983.5114914839899 291.6500615247081 0.0 0.0
3051.843107593785 3.3227943445466988 916.5497705814996 285.8747142892888 0.0 0.0
2832.700051265567 1.3517303037437571 850.2155344707933 282.6895552775797 0.0 0.0
2614.32401623468 0.3628183161492071 784.4060503652487 281.3931881107368 0.0 0.0
2396.280187714153 -0.04099119776930671 718.8717589549153 281.0692819047514 0.0 0.0
2178.3522998210246 -0.1901734689221044 653.4486379056304 281.1532148051457 0.0 0.0
1960.4767881721484 -0.1947057121488598 588.0846247379999 281.32305987999746 0.0 0.0
1742.7605830393743 0.1214139514592425 522.8645990972501 281.180138544052 0.0 0.0
1525.6220728282872 1.309242225867802 458.0793945162464 279.8390178601105 0.0 0.0
1309.6954662499156 4.388097822622116 394.22506922176143 275.2445606859846 0.0 0.0
1096.804230920419 12.050402950459013 332.65639016126335 263.64101630361563 0.0 0.0
884.697870830404 22.750318468186716 272.23445678957717 240.40429823261232 0.0 0.0
635.437162201814 38.050406241660156 202.0462705330422 198.19658724811646 0.0 0.0
357.09186652363854 135.31996688397584 147.72355002228434 200.38535439439084 0.0 0.0
340.84726813945906 -28.225327559060446 93.78658217411956 410.9878595567742 0.0 0.0
-750.1213283039298 -3103.6921678925687 -1156.1440488589494 455.396065849597 0.0 0.0
-621.4010336840291 -2626.0421701639716 -974.2329611544003 -434.46459676426764 0.0 0.0
195.8300497833313 -208.68181179941092 -3.855528604823899 -448.4715842547306 0.0 0.0
243.2834633807863 125.70590433375759 110.69681031436313 -291.93990936903765 0.0 0.0
480.12143591031264 59.17320137891797 161.78839118676925 -257.391873448351 0.0 0.0
714.5722316612308 29.44990553502032 223.20664115887524 -289.7950412681001 0.0 0.0
907.4894334667125 15.25066338112855 276.8220290543523 -313.06437695231944 0.0 0.0
1089.871672366767 5.970774976017042 328.75273420283526 -324.73984432103885 0.0 0.0
1271.3125336131154 1.717114638321074 381.90889447543094 -329.5873485146552 0.0 0.0
1452.6172020216106 0.17080752914060726 435.83640286522547 -331.049809596183 0.0 0.0
1634.0051406355826 -0.25046276542542856 490.1264033610471 -331.2349447978311 0.0 0.0
1815.490298593583 -0.248423064174907 544.5725626588224 -331.0824144295731 0.0 0.0
1997.032396359858 -0.05141295671981183 599.0942950209414 -331.0105819005325 0.0 0.0
2178.585624559336 0.4785777870995327 653.7192607039308 -331.3578183987049 0.0 0.0
2360.061002644771 1.7748885542002517 708.5507673596915 -332.69709805213 0.0 0.0
2541.361567921804 4.371701137330974 763.7199807177407 -335.959259754835 0.0 0.0
2722.597468861275 7.936082923034358 819.1600655352929 -341.89047173821285 0.0 0.0
2904.1800742514847 8.59162510430218 873.8315098067361 -348.56848351528805 0.0 0.0
3084.866368252292 -5.106632648618531 923.927920681102 -345.40041577779175 0.0 0.0
3253.7453104096676 -51.663876354321104 960.624430216604 -305.60485936537714 0.0 0.0
3378.6699995262497 -134.51410385894715 973.2467687001905 -191.75747447850378 0.0 0.0
3420.7874354425335 -191.84762414862922 968.6819433881712 -1.3145040611561853e-12 0.0 0.0
3378.6699995262197 -134.5141038589925 973.2467687001687 191.7574744785396 0.0 0.0
3253.7453104096644 -51.66387635432153 960.6244302166028 305.6048593653785 0.0 0.0
3084.8663682523434 -5.106632648529963 923.927920681144 345.4004157778106 0.0 0.0
2904.1800742515243 8.59162510437983 873.831509806771 348.56848351526764 0.0 0.0
2722.5974688612623 7.936082923000974 819.160065535279 341.8904717382061 0.0 0.0
2541.361567921851 4.371701137410726 763.7199807177788 335.9592597548365 0.0 0.0
2360.061002644907 1.7748885545629385 708.5507673598411 332.6970980521388 0.0 0.0
2178.5856245592777 0.47857778698156217 653.7192607038774 331.357818398707 0.0 0.0
1997.0323963599735 -0.0514129564747936 599.0942950210496 331.01058190053266 0.0 0.0
1815.4902985935714 -0.2484230641843297 544.5725626588162 331.0824144295745 0.0 0.0
1634.0051406355408 -0.2504627655020055 490.1264033610118 331.2349447978165 0.0 0.0
1452.6172020215365 0.170807528965641 435.83640286515055 331.04980959617455 0.0 0.0
1271.3125336131204 1.7171146382964846 381.9088944754251 329.5873485146534 0.0 0.0
1089.871672366804 5.970774976090274 328.7527342028684 324.7398443210156 0.0 0.0
907.4894334666872 15.25066338108375 276.82202905433127 313.06437695232194 0.0 0.0
714.5722316612465 29.449905535075203 223.20664115889653 289.79504126809184 0.0 0.0
480.1214359103041 59.17320137890869 161.78839118676387 257.3918734483685 0.0 0.0
243.2834633807576 125.7059043337254 110.69681031434492 291.9399093690181 0.0 0.0
195.8300497833052 -208.6818117994178 -3.855528604833765 448.4715842547284 0.0 0.0
-621.4010336840477 -2626.042170163969 -974.2329611544053 434.46459676425945 0.0 0.0
-505.53156634679743 -2210.406258016723 -814.7813473090562 -402.8127538263634 0.0 0.0
98.76629977549152 -324.18471854037546 -67.62552562946517 -466.56735847094944 0.0 0.0
151.0238827612004 97.54596128213069 74.57095321299934 -369.24209696779036 0.0 0.0
341.6524317415177 73.08025392556817 124.41980570012576 -316.68133539949 0.0 0.0
548.4861017800754 37.342572603940226 175.74860231520472 -334.7616535364758 0.0 0.0
717.9101044432552 18.45359922464713 220.90911110037072 -354.9907876827076 0.0 0.0
869.7960447354478 7.472241354634769 263.18048582702477 -365.8016828149184 0.0 0.0
1016.8240533418787 2.1760896073937928 305.7000428847817 -370.39394859470315 0.0 0.0
1162.358100512717 0.22336098438524932 348.7744384491307 -371.8377043214945 0.0 0.0
1307.4844225774395 -0.3002929718787044 392.1552388816683 -372.0435522036403 0.0 0.0
1452.5994235173175 -0.3029586231441588 435.6889394682521 -371.91837897176697 0.0 0.0
1597.7530901883165 -0.05887530022323606 479.30826446642806 -371.86278307184557 0.0 0.0
1742.8031916427492 0.596181769469128 523.0198120236653 -372.1962149990971 0.0 0.0
1887.3850258840641 2.19083630024827 566.8727586552938 -373.4466843502664 0.0 0.0
2030.9270862673245 5.394983494710457 610.8966209286108 -376.4838250180966 0.0 0.0
2173.121609022254 9.87107181907778 654.8978042523995 -382.09266974894456 0.0 0.0
2314.9895946814286 10.883234598429375 697.7618487839574 -388.6650049260796 0.0 0.0
2458.4839472705507 -6.254800143877549 735.6687441380022 -385.7857830779348 0.0 0.0
2598.285353982595 -66.65668033813583 759.4886020933374 -344.3929981973531 0.0 0.0
2704.9811943706068 -177.95662452381995 758.1073709540358 -219.16496425721124 0.0 0.0
2738.375909898736 -258.3575165825344 744.0055179948606 1.4800605185882887e-11 0.0 0.0
2704.981194370685 -177.95662452365875 758.1073709541079 219.16496425719708 0.0 0.0
2598.2853539826683 -66.65668033794444 759.4886020934172 344.3929981973463 0.0 0.0
2458.483947270557 -6.254800143832014 735.6687441380174 385.78578307795243 0.0 0.0
2314.989594681403 10.883234598380316 697.761848783935 388.6650049260594 0.0 0.0
2173.121609022269 9.871071819102287 654.8978042524116 382.0926697489762 0.0 0.0
2030.92708626736 5.394983494798563 610.8966209286475 376.4838250180775 0.0 0.0
1887.385025884152 2.190836300483653 566.8727586553906 373.4466843502138 0.0 0.0
1742.8031916427058 0.5961817693581537 523.0198120236192 372.1962149990802 0.0 0.0
1597.7530901885202 -0.05887529979942663 479.30826446661627 371.8627830718292 0.0 0.0
1452.5994235173341 -0.3029586231046313 435.6889394682688 371.91837897174304 0.0 0.0
1307.4844225775332 -0.3002929716452787 392.1552388817664 372.0435522036325 0.0 0.0
1162.358100512724 0.22336098437711005 348.77443844913034 371.83770432148526 0.0 0.0
1016.824053341805 2.1760896071893887 305.7000428846983 370.3939485947275 0.0 0.0
869.7960447354703 7.472241354686254 263.18048582704705 365.80168281492627 0.0 0.0
717.9101044432223 18.453599224590423 220.90911110034386 354.9907876826797 0.0 0.0
548.4861017800862 37.3425726039637 175.74860231521495 334.7616535364674 0.0 0.0
341.6524317415232 73.0802539255909 124.41980570013426 316.6813353994868 0.0 0.0
151.02388276116685 97.54596128209225 74.57095321297771 369.24209696778524 0.0 0.0
98.76629977550171 -324.1847185403699 -67.62552562946044 466.5673584709618 0.0 0.0
-505.53156634675963 -2210.406258016699 -814.7813473090376 402.81275382635886 0.0 0.0
-407.13970293364457 -1849.4505477772589 -676.9770752132708 -369.0350720257788 0.0 0.0
32.183343203829835 -388.9681360114474 -107.03543784228525 -470.6884047940112 0.0 0.0
74.11392118641808 63.003541685086695 41.135238861451434 -428.77723760238837 0.0 0.0
217.27513973026154 79.03135607901835 88.89194874278397 -370.6683571252356 0.0 0.0
388.0429001990133 44.4082374084162 129.73534128222883 -374.5741532073793 0.0 0.0
529.2092328564576 21.55505105516467 165.22928517348672 -389.37384992162407 0.0 0.0
649.7342425587804 8.783824127398143 197.55542000585356 -398.36969579197984 0.0 0.0
762.2609785508246 2.6110206227717 229.46159975207888 -402.28735987494724 0.0 0.0
872.0115300576567 0.2808464931942005 261.6877129652552 -403.5573135181659 0.0 0.0
980.9077403716877 -0.34243101393591324 294.16959280732556 -403.7566382309681 0.0 0.0
1089.6726146044455 -0.34921433072028574 326.79702008211757 -403.66303688695984 0.0 0.0
1198.4446999547436 -0.06348350939204561 359.5143649336056 -403.6235309915791 0.0 0.0
1307.0067135230947 0.7029551337423818 392.31290059705134 -403.9070344929396 0.0 0.0
1414.7624112481822 2.5577200271035725 425.1960393825858 -404.9502513041303 0.0 0.0
1520.7281985668892 6.293233457869707 458.1064296074277 -407.49534855636887 0.0 0.0
1624.220525722274 11.62763367790574 490.75444782005405 -412.35863167752785 0.0 0.0
1726.9078979988672 13.178177190888928 522.0258225569268 -418.5798043534751 0.0 0.0
1834.212919041236 -6.879729112815195 548.1999569785264 -416.94942770743063 0.0 0.0
1947.0400608412933 -81.38367097773323 559.696916959068 -377.2829576159034 0.0 0.0
2037.9853329568484 -225.4713984804914 543.754180342907 -245.06767610597657 0.0 0.0
2062.4031833458166 -335.74179076897616 517.9984177730523 -1.0302869668521453e-11 0.0 0.0
2037.985332956928 -225.47139848026725 543.7541803429983 245.0676761059485 0.0 0.0
1947.0400608413265 -81.38367097766368 559.6969169590989 377.28295761592426 0.0 0.0
1834.2129190412638 -6.879729112772402 548.1999569785473 416.9494277074141 0.0 0.0
1726.9078979987419 13.178177190585156 522.0258225567982 418.5798043534669 0.0 0.0
1624.2205257223377 11.627633678069902 490.7544478201223 412.3586316775587 0.0 0.0
1520.7281985668244 6.2932334577495705 458.10642960737226 407.49534855637825 0.0 0.0
1414.762411248167 2.557720027079122 425.1960393825739 404.95025130413666 0.0 0.0
1307.0067135231182 0.7029551337656912 392.31290059706527 403.907034492946 0.0 0.0
1198.444699954691 -0.06348350952365855 359.5143649335502 403.6235309915915 0.0 0.0
1089.6726146045075 -0.3492143305527087 326.7970200821865 403.6630368869621 0.0 0.0
980.9077403717199 -0.3424310138639264 294.1695928073569 403.7566382309726 0.0 0.0
872.0115300577311 0.28084649338768486 261.6877129653356 403.5573135181413 0.0 0.0
762.2609785508313 2.6110206227773576 229.46159975208266 402.2873598749495 0.0 0.0
649.7342425587989 8.783824127417681 197.55542000586493 398.3696957919958 0.0 0.0
529.2092328564742 21.555051055201385 165.22928517350266 389.37384992162515 0.0 0.0
388.0429001990286 44.40823740847745 129.7353412822518 374.57415320737914 0.0 0.0
217.2751397302647 79.03135607905335 88.8919487427954 370.668357125229 0.0 0.0
74.1139211863943 63.003541685005544 41.13523886141994 428.77723760238734 0.0 0.0
32.18334320384144 -388.9681360114284 -107.03543784227611 470.68840479400717 0.0 0.0
-407.13970293366367 -1849.4505477772739 -676.9770752132813 369.03507202575906 0.0 0.0
-326.05067168787605 -1535.0246862510364 -558.3226073816738 -336.41013173991087 0.0 0.0
-15.198874846767175 -415.9524596831464 -129.34540035897408 -464.6515150636274 0.0 0.0
7.981847546016292 29.435908237149 11.225326734949586 -470.42235197814364 0.0 0.0
104.14161136967424 78.41561440122203 54.76716773126889 -415.659667714552 0.0 0.0
233.65840165524904 49.40239118221392 84.91823785123887 -407.897196475412 0.0 0.0
342.2308708587227 24.202677863479718 109.9300646166607 -416.01511865024355 0.0 0.0
429.9841491347481 9.840547205616126 131.94740890210926 -422.3575247074476 0.0 0.0
507.71000652485384 2.963473724546432 153.20204407482015 -425.2566239930538 0.0 0.0
581.6047058096661 0.33473563665314643 174.58183243389573 -426.2175432376038 0.0 0.0
654.2731625510919 -0.37394245826079064 196.16976602784936 -426.38013968957614 0.0 0.0
726.7046881499832 -0.384428732660397 217.89607782519684 -426.31921220334084 0.0 0.0
799.1104718806521 -0.06597988958878087 239.713347597319 -426.2935778422178 0.0 0.0
871.2218863653341 0.7874565964137439 261.6028028885243 -426.4964409580369 0.0 0.0
942.2688275408212 2.840737504515957 283.53286951360116 -427.23687917590763 0.0 0.0
1010.9265979421632 6.982808799295137 305.3728220224375 -429.0721239912498 0.0 0.0
1076.1230484060047 13.057931622468248 326.7542940085419 -432.8190281456845 0.0 0.0
1140.0149374220823 15.392265223298354 346.6221607936143 -438.4417490141642 0.0 0.0
1211.5461330487901 -6.546149307323724 361.49999512244005 -439.0203026479757 0.0 0.0
1298.6999584397436 -94.41233049527114 361.2862883833418 -404.71146087143745 0.0 0.0
1375.8059260520645 -275.7169066070878 330.026705833493 -270.354975622666 0.0 0.0
1390.0208762011166 -425.1522671461181 289.4605827164998 -8.803624496067641e-12 0.0 0.0
1375.8059260521347 -275.71690660691667 330.0267058335655 270.3549756226771 0.0 0.0
1298.6999584397765 -94.41233049520389 361.28628838337164 404.71146087144865 0.0 0.0
1211.5461330488156 -6.546149307266173 361.4999951224649 439.0203026479432 0.0 0.0
1140.0149374220402 15.392265223176734 346.6221607935651 438.4417490141785 0.0 0.0
1076.1230484060943 13.057931622668931 326.75429400862896 432.81902814569867 0.0 0.0
1010.9265979421066 6.982808799211773 305.37282202239555 429.0721239912509 0.0 0.0
942.2688275407804 2.8407375044639913 283.53286951357336 427.2368791759364 0.0 0.0
871.2218863654515 0.7874565966729854 261.60280288863737 426.4964409580225 0.0 0.0
799.1104718805826 -0.06597988975881641 239.71334759724706 426.29357784216 0.0 0.0
726.7046881500538 -0.38442873252514254 217.89607782525854 426.3192122033549 0.0 0.0
654.2731625510672 -0.3739424583236399 196.1697660278231 426.3801396895952 0.0 0.0
581.6047058096649 0.33473563666769746 174.5818324338998 426.2175432375876 0.0 0.0
507.7100065248637 2.9634737245616694 153.2020440748276 425.2566239930446 0.0 0.0
429.9841491347997 9.840547205739266 131.94740890216173 422.3575247074755 0.0 0.0
342.2308708587418 24.202677863528088 109.93006461668098 416.01511865025907 0.0 0.0
233.65840165524207 49.40239118220648 84.91823785123457 407.8971964754203 0.0 0.0
104.1416113696712 78.41561440121079 54.767167731264614 415.65966771456164 0.0 0.0
7.981847545975405 29.43590823706785 11.22532673491298 470.4223519781454 0.0 0.0
-15.198874846740768 -415.9524596830803 -129.34540035894634 464.6515150636217 0.0 0.0
-326.0506716878736 -1535.0246862510508 -558.3226073816772 336.4101317398824 0.0 0.0
-260.37492279577594 -1259.8698534735076 -456.0734328807851 -305.8001106589371 0.0 0.0
-50.648769546800594 -415.7592468123116 -139.92240490773366 -450.9425631057055 0.0 0.0
-50.69676702774812 0.8085515931470053 -14.96646463038033 -495.3956977678493 0.0 0.0
-0.29982583466165824 73.22189814537101 21.87662169321281 -449.4719022334594 0.0 0.0
85.05798547365136 51.82831331627731 41.0658896369786 -433.3251698715988 0.0 0.0
157.4673763274731 26.032176600559737 55.04986587840986 -434.5381333619191 0.0 0.0
210.80681069434834 10.569363659021963 66.4128523060111 -437.648873892507 0.0 0.0
253.24685045230393 3.197855461771066 76.9334117742225 -439.267101903309 0.0 0.0
291.15874345193146 0.3741178251320907 87.45985838311906 -439.8192396128588 0.0 0.0
327.5813076123113 -0.39306371148774133 98.15647317024711 -439.919187524255 0.0 0.0
363.69234762712017 -0.40659191019196683 108.98572671507847 -439.89026082640646 0.0 0.0
399.7533178757365 -0.06738406612693115 119.90578014288289 -439.87620635787835 0.0 0.0
435.467822202632 0.840641151889308 130.89253900635637 -439.9765079831034 0.0 0.0
469.9603084909437 3.0149750417721473 141.8925850598148 -440.3485924935045 0.0 0.0
501.6521079020241 7.402188979839848 152.7162890645592 -441.3187085570958 0.0 0.0
529.03679928834 14.029020027221186 162.9197457946684 -443.63632183723337 0.0 0.0
554.4035288600368 17.40352838296026 171.54211717289914 -448.3422351652646 0.0 0.0
589.9895498783796 -4.869987151033307 175.5358688182039 -451.89417169715864 0.0 0.0
651.9630387492955 -104.13400642106905 164.34870969846784 -426.77076267184395 0.0 0.0
716.7114020874925 -327.0540199395477 116.89721464438344 -295.8533148357522 0.0 0.0
718.1842206459958 -528.6088114293459 56.87262276499493 2.0818902157770935e-12 0.0 0.0
716.7114020874673 -327.05401993962727 116.89721464435203 295.85331483578625 0.0 0.0
651.963038749269 -104.13400642108277 164.34870969845588 426.7707626718221 0.0 0.0
589.9895498785198 -4.869987150644651 175.5358688183625 451.8941716971292 0.0 0.0
554.4035288600915 17.403528383124446 171.5421171729648 448.34223516529033 0.0 0.0
529.0367992883523 14.029020027270885 162.91974579468706 443.63632183724746 0.0 0.0
501.6521079020544 7.4021889799118465 152.71628906458997 441.3187085570902 0.0 0.0
469.96030849089857 3.0149750416584773 141.8925850597671 440.3485924935111 0.0 0.0
435.4678222025937 0.8406411517862722 130.89253900631402 439.9765079830941 0.0 0.0
399.75331787580427 -0.0673840659580387 119.9057801429539 439.8762063578823 0.0 0.0
363.692347627191 -0.4065919100235327 108.98572671515026 439.8902608264035 0.0 0.0
327.5813076123375 -0.3930637114354667 98.15647317027063 439.919187524248 0.0 0.0
291.1587434519147 0.3741178250653503 87.459858383094 439.8192396128602 0.0 0.0
253.24685045236225 3.1978554618881843 76.93341177427513 439.2671019033283 0.0 0.0
210.8068106944296 10.569363659192803 66.41285230608672 437.64887389254983 0.0 0.0
157.4673763274934 26.032176600589107 55.04986587842476 434.5381333619324 0.0 0.0
85.05798547366888 51.82831331632983 41.06588963699961 433.32516987159227 0.0 0.0
-0.2998258347132694 73.22189814528333 21.876621693171035 449.47190223345564 0.0 0.0
-50.69676702775897 0.8085515931301615 -14.966464630388638 495.39569776787397 0.0 0.0
-50.6487695467867 -415.7592468122744 -139.92240490771835 450.9425631056887 0.0 0.0
-260.3749227957879 -1259.8698534735147 -456.07343288079085 305.8001106589343 0.0 0.0
-207.85500538410602 -1018.2104895185337 -367.81964847079195 -277.00178561530436 0.0 0.0
-78.8111420303537 -396.7107419769049 -142.6565652021776 -431.08667025104694 0.0 0.0
-104.29945899356636 -21.116610016941486 -37.62482070315236 -505.29919859320444 0.0 0.0
-98.17603276826455 65.33278454196568 -9.852974467889652 -471.00492000103577 0.0 0.0
-58.38858020330807 51.704994006874706 -2.005075858929998 -449.6420441410428 0.0 0.0
-24.89968968475203 26.792398039044407 0.5678125062877157 -444.45830228589045 0.0 0.0
-7.619427571435402 10.897940608618768 0.9835539111550098 -444.0900384878471 0.0 0.0
-1.069974191594845 3.2945182043794112 0.6673632038353663 -444.27073515911167 0.0 0.0
0.6877364015724652 0.39137003129561165 0.32373192986041666 -444.35660468875517 0.0 0.0
0.8332910864410081 -0.3993724063094506 0.1301756040394686 -444.37801275019257 0.0 0.0
0.6338583259181831 -0.41437369744070374 0.0658453885432504 -444.3800048422002 0.0 0.0
0.3751341553130203 -0.06842751925210422 0.0920119908182695 -444.37642867580735 0.0 0.0
-0.2444054925964423 0.8565751079028043 0.18365088459191625 -444.3633547795346 0.0 0.0
-2.130803127930001 3.066727080495184 0.2807771857695549 -444.335465871295 0.0 0.0
-7.00435638094536 7.518208514212601 0.15415563998016424 -444.3592121721563 0.0 0.0
-16.846448030102323 14.430735934073702 -0.7247136288085976 -445.01164380234565 0.0 0.0
-29.775023823985748 19.021334395690396 -3.2261068284886214 -448.3665578022254 0.0 0.0
-30.87259140814372 -1.6147665225117862 -9.746207379196644 -455.2412836760203 0.0 0.0
5.543741844083854 -108.77455264133857 -30.969243239176432 -443.1528256833316 0.0 0.0
59.11886667695773 -377.29740374656717 -95.45356112088285 -322.34742080994175 0.0 0.0
43.42172637938801 -649.2544881886207 -181.74982854276985 -1.2015277661703294e-11 0.0 0.0
59.118866676917236 -377.2974037466891 -95.45356112093154 322.3474208099291 0.0 0.0
5.543741844081467 -108.77455264135745 -30.9692432391828 443.15282568332225 0.0 0.0
-30.872591408018067 -1.614766522231461 -9.746207379074832 455.2412836760662 0.0 0.0
-29.77502382387521 19.02133439595651 -3.2261068283756025 448.36655780217427 0.0 0.0
-16.846448030141183 14.430735934004698 -0.7247136288409557 445.0116438023593 0.0 0.0
-7.00435638089413 7.518208514325593 0.15415564002942972 444.3592121721721 0.0 0.0
-2.1308031279066526 3.0667270805429663 0.2807771857908925 444.3354658712675 0.0 0.0
-0.24440549264000566 0.8565751077841366 0.18365088454323697 444.3633547795604 0.0 0.0
0.3751341553476806 -0.06842751915509382 0.09201199085777922 444.3764286758295 0.0 0.0
0.6338583259248907 -0.4143736974086849 0.06584538855486599 444.38000484221885 0.0 0.0
0.8332910865514052 -0.3993724060810546 0.13017560414110285 444.37801275019825 0.0 0.0
0.6877364016073386 0.39137003133375714 0.32373192988232447 444.356604688766 0.0 0.0
-1.0699741915513137 3.294518204464124 0.6673632038738422 444.2707351591353 0.0 0.0
-7.619427571429107 10.897940608635894 0.9835539111620388 444.0900384878667 0.0 0.0
-24.899689684772927 26.792398039025606 0.5678125062758053 444.45830228590995 0.0 0.0
-58.38858020326121 51.70499400700779 -2.0050758588760234 449.64204414101744 0.0 0.0
-98.17603276825754 65.33278454197774 -9.85297446788394 471.0049200010168 0.0 0.0
-104.29945899355612 -21.11661001691882 -37.62482070314249 505.29919859322393 0.0 0.0
-78.81114203035892 -396.7107419769208 -142.6565652021839 431.0866702510294 0.0 0.0
-207.8550053840991 -1018.2104895185221 -367.81964847078643 277.00178561531993 0.0 0.0
-166.41765928793757 -805.8399104998343 -291.6772709363316 -249.39040510361437 0.0 0.0
-102.59195895725078 -365.1544317157508 -140.32391720190049 -405.9640023203652 0.0 0.0
-154.48055775631008 -35.92852198401452 -57.12272392209737 -501.696985299087 0.0 0.0
-191.17643620873355 56.25004488993125 -40.4779173956407 -479.85038284294 0.0 0.0
-197.45760542362908 49.341422117009486 -44.43485499198586 -455.8992617873436 0.0 0.0
-204.93134423463513 26.382125154840004 -53.56476572393852 -445.2620269273704 0.0 0.0
-225.21871495305507 10.778326167578582 -64.33211663564293 -441.49759045563235 0.0 0.0
-255.20856164149473 3.2459167766524413 -75.58879345945267 -440.2117711788371 0.0 0.0
-289.8018182883549 0.3837823848220845 -86.82541077105984 -439.8203318193998 0.0 0.0
-325.9702247905997 -0.39305333905200435 -97.90898343889549 -439.7600998594569 0.0 0.0
-362.4713648313326 -0.40725456606758037 -108.8635858192201 -439.79254163698124 0.0 0.0
-399.0235933748386 -0.06915456911507611 -119.72782438318609 -439.80008002218017 0.0 0.0
-435.91221746139126 0.8329943460525513 -130.52376693460167 -439.6751767199508 0.0 0.0
-473.99834276478964 2.992934588076041 -141.30162245301406 -439.25058175962647 0.0 0.0
-515.000467170461 7.330586137290972 -152.30096430995104 -438.32773672998525 0.0 0.0
-561.3553262992555 14.19408968565955 -164.14837098407878 -437.1912652466768 0.0 0.0
-612.2676966033611 19.970232390058825 -177.68923926399066 -438.646911184213 0.0 0.0
-651.2956191639619 3.1835133790751193 -194.43363173546604 -448.53649924410695 0.0 0.0
-641.8127603306721 -106.44875430953519 -224.47845439206222 -453.0472591034779 0.0 0.0
-598.3698279541668 -423.35066027574055 -306.5161464689721 -350.56302537775946 0.0 0.0
-638.4804464660674 -791.7411604779869 -429.0664820832163 4.718003765447065e-12 0.0 0.0
-598.3698279541511 -423.3506602756797 -306.5161464689492 350.56302537780795 0.0 0.0
-641.8127603305558 -106.44875430930199 -224.47845439195734 453.04725910346406 0.0 0.0
-651.2956191639626 3.183513379055613 -194.43363173547218 448.5364992441099 0.0 0.0
-612.2676966032825 19.97023239026202 -177.68923926390616 438.6469111841932 0.0 0.0
-561.355326299052 14.194089686085457 -164.1483709838899 437.19126524669053 0.0 0.0
-515.0004671704271 7.330586137360946 -152.30096430991983 438.3277367300344 0.0 0.0
-473.9983427647787 2.9929345881226794 -141.3016224529968 439.25058175961345 0.0 0.0
-435.9122174612762 0.8329943463438729 -130.52376693447968 439.6751767199421 0.0 0.0
-399.0235933747661 -0.06915456893106331 -119.72782438310918 439.8000800221787 0.0 0.0
-362.47136483126155 -0.40725456591060993 -108.8635858191517 439.79254163699227 0.0 0.0
-325.9702247905662 -0.3930533389566122 -97.90898343885684 439.7600998594597 0.0 0.0
-289.80181828839636 0.3837823847149333 -86.82541077110443 439.8203318193911 0.0 0.0
-255.20856164153756 3.2459167765553785 -75.58879345949467 440.2117711788286 0.0 0.0
-225.21871495306817 10.778326167564394 -64.3321166356511 441.4975904556526 0.0 0.0
-204.931344234739 26.38212515458718 -53.56476572404553 445.26202692737445 0.0 0.0
-197.45760542362095 49.34142211706019 -44.43485499196824 455.89926178732986 0.0 0.0
-191.17643620870868 56.250044890019424 -40.47791739560677 479.85038284296377 0.0 0.0
-154.48055775631488 -35.92852198404105 -57.122723922106786 501.69698529908123 0.0 0.0
-102.59195895725092 -365.15443171576436 -140.32391720190458 405.9640023203782 0.0 0.0
-166.417659287928 -805.8399104998304 -291.6772709363276 249.39040510360888 0.0 0.0
-134.357595446604 -619.9943570790504 -226.3055857576964 -222.23231145810908 0.0 0.0
-123.71543017853982 -325.84737486915117 -134.8688415143073 -376.0489744050602 0.0 0.0
-202.32803085541389 -44.004593480439524 -73.89978730075602 -485.95129226298013 0.0 0.0
-280.5861944164177 47.030190036904 -70.06680131385413 -475.99165829682363 0.0 0.0
-332.9503827079474 45.17421559476623 -86.33285013395434 -451.3992088868496 0.0 0.0
-382.8658549502713 24.840861389017924 -107.40749806837601 -436.46477038439184 0.0 0.0
-442.0192068843883 10.204848815185718 -129.5443074207608 -429.67674097750864 0.0 0.0
-509.170520797584 3.0566865812906454 -151.834150264888 -427.0321332501412 0.0 0.0
-580.3117205104712 0.3532077263186979 -173.98755383524573 -426.20067767266397 0.0 0.0
-652.8291949300299 -0.3743779037482682 -195.96107185013352 -426.06874048823045 0.0 0.0
-725.6229441187539 -0.3856107916340399 -217.80256647311637 -426.1320012730373 0.0 0.0
-798.4440135490828 -0.06885170113996075 -239.5538595750669 -426.15280816126415 0.0 0.0
-871.5411031025845 0.7720198137882264 -261.23072498663885 -425.93017004334325 0.0 0.0
-945.662190308244 2.7990318277850825 -282.85894754413766 -425.1457585904701 0.0 0.0
-1022.3541673947137 6.871253627091668 -304.64487413028667 -423.3555270578575 0.0 0.0
-1104.3591667632222 13.321787051353342 -327.3112139135607 -420.46482274134314 0.0 0.0
-1192.684264725383 19.906028981366283 -351.83347072320504 -419.4385082099267 0.0 0.0
-1271.2625436861147 9.055269789311229 -378.6621821690412 -431.13743947275435 0.0 0.0
-1291.3027590774775 -95.31150814300105 -415.98428016614344 -454.9841185963021 0.0 0.0
-1256.883034097914 -460.661840812745 -515.263462473198 -381.08088841500944 0.0 0.0
-1332.93543888447 -962.7830511346361 -688.7155470057319 1.2192913345643319e-11 0.0 0.0
-1256.8830340979507 -460.66184081287093 -515.2634624732466 381.0808884150258 0.0 0.0
-1291.3027590774473 -95.31150814292026 -415.98428016611024 454.9841185963211 0.0 0.0
-1271.262543686101 9.055269789350579 -378.66218216902513 431.13743947275657 0.0 0.0
-1192.6842647253518 19.906028981452884 -351.8334707231696 419.43850820992805 0.0 0.0
-1104.3591667631474 13.321787051519511 -327.3112139134885 420.4648227413243 0.0 0.0
-1022.354167394675 6.87125362719506 -304.64487413024375 423.355527057839 0.0 0.0
-945.6621903083203 2.7990318276344612 -282.8589475442059 425.1457585904827 0.0 0.0
-871.5411031025043 0.7720198139982717 -261.2307249865518 425.9301700433027 0.0 0.0
-798.4440135491241 -0.06885170123115003 -239.55385957510663 426.15280816127495 0.0 0.0
-725.622944118662 -0.3856107914363287 -217.80256647302951 426.1320012730367 0.0 0.0
-652.8291949300203 -0.3743779037543087 -195.96107185013238 426.06874048824693 0.0 0.0
-580.3117205104701 0.3532077262775193 -173.98755383525784 426.2006776726682 0.0 0.0
-509.1705207975843 3.056686581268975 -151.83415026489456 427.0321332501446 0.0 0.0
-442.01920688438713 10.204848815201396 -129.54430742075573 429.67674097751456 0.0 0.0
-382.8658549503642 24.84086138880757 -107.40749806846702 436.4647703843795 0.0 0.0
-332.95038270794015 45.17421559478589 -86.3328501339463 451.3992088868402 0.0 0.0
-280.58619441645203 47.03019003685095 -70.06680131388036 475.99165829683716 0.0 0.0
-202.32803085543995 -44.004593480485966 -73.89978730077775 485.9512922629881 0.0 0.0
-123.71543017853384 -325.84737486912303 -134.86884151429706 376.0489744050598 0.0 0.0
-134.357595446628 -619.9943570790591 -226.30558575770618 222.23231145812824 0.0 0.0
-110.34645440200188 -459.149596855642 -170.84881537729322 -194.84609055851863 0.0 0.0
-143.06102686430916 -282.304422837183 -127.60963491044765 -341.5873052946902 0.0 0.0
-248.46362018566003 -46.167915612316364 -88.38946073939293 -459.1735570386355 0.0 0.0
-367.3324486492486 38.31396606323297 -98.7055447758047 -459.5854551994376 0.0 0.0
-465.632689112557 39.671949600742266 -127.78822185354441 -435.63942301012037 0.0 0.0
-559.0681806840785 22.323385120945822 -161.02343866893983 -417.6456361482214 0.0 0.0
-658.1443213630508 9.221272021474194 -194.67691480247302 -408.4430373032071 0.0 0.0
-762.9933019434725 2.7447882017189693 -228.074554122526 -404.6780265441722 0.0 0.0
-870.852282782537 0.3051373772761119 -261.16414362157826 -403.49016820228906 0.0 0.0
-979.7438937852739 -0.3436726337208782 -294.0262699256984 -403.30770569184796 0.0 0.0
-1088.8193642135006 -0.3507313128414431 -326.7510286579027 -403.4023387868364 0.0 0.0
-1197.8889380085866 -0.06649917938669425 -359.386631156392 -403.43911064134903 0.0 0.0
-1307.143871702112 0.6810937381105937 -391.9388333892005 -403.144035819735 0.0 0.0
-1417.1643272547624 2.4971193746878875 -424.40016236402244 -402.0688994013644 0.0 0.0
-1529.1541126171824 6.193198629599671 -456.88827419627495 -399.55717107147916 0.0 0.0
-1645.811119787455 11.925572782637744 -490.16566410144526 -395.1430543949742 0.0 0.0
-1770.482413250392 18.495065736057583 -525.5962042543005 -391.2113085610832 0.0 0.0
-1890.3255974744034 14.905041591082158 -562.6261667649967 -402.4589099265402 0.0 0.0
-1944.008141991317 -73.90421831110172 -605.3737080907255 -446.61992919894436 0.0 0.0
-1917.1169865033364 -482.40919304246137 -719.8578538637394 -414.1125857414708 0.0 0.0
-2047.2413324352424 -1171.916087844578 -965.7472260839461 2.134470378223341e-11 0.0 0.0
-1917.1169865033953 -482.409193042593 -719.8578538637967 414.1125857414475 0.0 0.0
-1944.0081419913154 -73.9042183111332 -605.3737080907346 446.6199291989675 0.0 0.0
-1890.3255974743804 14.905041591127045 -562.626166764976 402.45890992653017 0.0 0.0
-1770.482413250405 18.49506573602139 -525.5962042543149 391.2113085610739 0.0 0.0
-1645.8111197875623 11.9255727823661 -490.165664101559 395.1430543949808 0.0 0.0
-1529.1541126171592 6.193198629649766 -456.8882741962528 399.55717107145233 0.0 0.0
-1417.1643272548633 2.497119374522809 -424.4001623641022 402.068899401368 0.0 0.0
-1307.1438717021906 0.6810937379627715 -391.9388333892686 403.1440358197507 0.0 0.0
-1197.888938008788 -0.06649917987855236 -359.38663115660006 403.4391106413385 0.0 0.0
-1088.819364213473 -0.35073131278554026 -326.7510286578775 403.4023387868085 0.0 0.0
-979.7438937853435 -0.3436726338492124 -294.0262699257579 403.3077056918525 0.0 0.0
-870.8522827825778 0.3051373772248276 -261.1641436216059 403.4901682022934 0.0 0.0
-762.9933019434749 2.7447882017123706 -228.07455412252872 404.678026544153 0.0 0.0
-658.1443213630864 9.221272021392899 -194.67691480250807 408.4430373031967 0.0 0.0
-559.0681806840737 22.3233851209744 -161.02343866892977 417.6456361482407 0.0 0.0
-465.6326891125982 39.671949600658905 -127.78822185358176 435.6394230101193 0.0 0.0
-367.33244864926075 38.313966063186385 -98.70554477582235 459.5854551994544 0.0 0.0
-248.46362018564238 -46.16791561227465 -88.38946073937511 459.1735570386393 0.0 0.0
-143.06102686430435 -282.304422837154 -127.60963491043749 341.58730529468846 0.0 0.0
-110.34645440200369 -459.1495968556349 -170.8488153772916 194.84609055852366 0.0 0.0
-93.34815953054897 -322.78998512121683 -124.84144339552977 -166.70684964601224 0.0 0.0
-160.84544644247856 -237.0894277294503 -119.38046225157865 -302.73176061000186 0.0 0.0
-293.09393676755775 -43.50426018124938 -100.97945908464216 -422.2144288675236 0.0 0.0
-452.03046660891744 30.394787442326855 -126.49070374997723 -430.799793825324 0.0 0.0
-596.216738922459 33.29500217497582 -168.87652102424497 -408.24841022847977 0.0 0.0
-733.9971753816137 19.073419827169886 -214.47712666633322 -388.4657677186279 0.0 0.0
-873.7992114200374 7.91845733007343 -259.76422622698925 -377.64269881936434 0.0 0.0
-1016.747847623597 2.34147111025685 -304.321912954002 -373.1074135048155 0.0 0.0
-1161.441455646282 0.24760300984206296 -348.3581557909321 -371.6860250027359 0.0 0.0
-1306.714305497076 -0.3017275686406169 -392.10480991971497 -371.4818220455627 0.0 0.0
-1452.0574801308276 -0.3046859404419422 -435.70864982138085 -371.60708322027034 0.0 0.0
-1597.3623591813987 -0.06174747106007494 -479.2272319957375 -371.6617833102072 0.0 0.0
-1742.7406100922935 0.5729697208850073 -522.6502921114226 -371.3267894768113 0.0 0.0
-1888.5609184460573 2.108926846846682 -565.9355974797631 -370.0620542069999 0.0 0.0
-2035.5608914807272 5.345201788692226 -609.0647069076108 -367.02373279288537 0.0 0.0
-2185.8205389905015 10.247049532960013 -652.6720468372625 -361.5019446520247 0.0 0.0
-2345.001216708916 15.604996176308592 -698.8188661597824 -354.7226645498295 0.0 0.0
-2507.379426752931 18.83453018916683 -746.5634689691296 -362.32762299788743 0.0 0.0
-2600.7841821857774 -41.88335520968179 -792.800261218638 -424.50060203067085 0.0 0.0
-2579.049399220397 -478.29868020372317 -917.204423827236 -448.9813382683443 0.0 0.0
-2791.6355316024406 -1432.468530955743 -1267.2312187674552 -2.4584778657299466e-12 0.0 0.0
-2579.0493992204524 -478.29868020383566 -917.2044238272863 448.9813382683574 0.0 0.0
-2600.7841821858415 -41.88335520982791 -792.8002612187009 424.50060203066954 0.0 0.0
-2507.379426753022 18.834530188965818 -746.563468969217 362.3276229978651 0.0 0.0
-2345.001216708895 15.604996176352216 -698.8188661597628 354.72266454983446 0.0 0.0
-2185.8205389905247 10.247049532925573 -652.67204683728 361.50194465203185 0.0 0.0
-2035.560891480779 5.345201788594588 -609.0647069076555 367.0237327928765 0.0 0.0
-1888.560918445971 2.108926847083647 -565.9355974796663 370.06205420699905 0.0 0.0
-1742.7406100922528 0.5729697209669089 -522.650292111386 371.32678947682825 0.0 0.0
-1597.3623591815303 -0.06174747141409842 -479.2272319958833 371.66178331020075 0.0 0.0
-1452.057480130929 -0.30468594067734145 -435.70864982148197 371.6070832202729 0.0 0.0
-1306.7143054971546 -0.30172756883120977 -392.10480991979574 371.4818220455548 0.0 0.0
-1161.4414556463166 0.24760300971249682 -348.3581557909812 371.6860250027428 0.0 0.0
-1016.7478476235921 2.3414711102549983 -304.3219129540012 373.10741350482107 0.0 0.0
-873.7992114200196 7.918457330128286 -259.7642262269674 377.64269881937787 0.0 0.0
-733.9971753815709 19.073419827265237 -214.47712666629167 388.4657677186303 0.0 0.0
-596.2167389224832 33.295002174920754 -168.87652102426873 408.2484102284741 0.0 0.0
-452.0304666089202 30.39478744230603 -126.49070374998422 430.79979382536044 0.0 0.0
-293.0939367675296 -43.504260181191825 -100.97945908461645 422.2144288675136 0.0 0.0
-160.84544644248152 -237.08942772943794 -119.38046225157582 302.73176061000055 0.0 0.0
-93.34815953056862 -322.78998512122746 -124.84144339553885 166.70684964599482 0.0 0.0
-82.46014809052575 -211.15057836897944 -88.08321793785157 -137.55412882950733 0.0 0.0
-176.68602151333982 -192.06593073237494 -110.62558567371444 -259.65523928093114 0.0 0.0
-336.01680752653795 -37.296122719535106 -111.99387907382189 -375.6447108065173 0.0 0.0
-535.0276980950491 23.307486741225972 -153.51606340614694 -389.6836944877911 0.0 0.0
-725.3757431407901 26.498522019509576 -209.6631663363842 -368.9309440099933 0.0 0.0
-908.1892529329627 15.401273551958575 -267.83639381430123 -348.679244298204 0.0 0.0
-1089.2551290597025 6.425277825006741 -324.8489553704087 -337.1695007269048 0.0 0.0
-1270.5322806083445 1.8891560173803663 -380.5929373772892 -332.2973744635421 0.0 0.0
-1452.1025967992498 0.18982944065989038 -435.5738302075772 -330.79225335712175 0.0 0.0
-1633.7391774984112 -0.25052696835590105 -490.19691134003017 -330.5974033295524 0.0 0.0
-1815.332044172041 -0.25017895261572853 -544.6746669373969 -330.7488762333843 0.0 0.0
-1996.867755542759 -0.055298272589146436 -599.0769161446045 -330.8218812425383 0.0 0.0
-2178.3600303107073 0.46128286706165156 -653.3696242330939 -330.48024226260543 0.0 0.0
-2359.914271024243 1.6782107999317635 -707.4708180672935 -329.154627819336 0.0 0.0
-2541.784007765072 4.343491364836419 -761.2321549200708 -325.83556214212985 0.0 0.0
-2724.7528122446192 8.601129361629317 -814.8455048648968 -319.6983494538019 0.0 0.0
-2915.6007038784687 11.660083863815597 -871.182186004396 -310.9698160041709 0.0 0.0
-3120.3404294846173 18.148598201272474 -930.6575493850034 -311.6411936727027 0.0 0.0
-3262.0330414512364 -1.4898989909614109 -979.0568821326593 -383.96293643933853 0.0 0.0
-3241.4533451898633 -432.85280111721767 -1102.2918438921247 -482.94284461028894 0.0 0.0
-3580.9461297221505 -1762.6123279885792 -1603.0675373132192 -1.318767317570746e-11 0.0 0.0
-3241.453345189947 -432.85280111742367 -1102.2918438922109 482.94284461029275 0.0 0.0
-3262.0330414513187 -1.4898989910823541 -979.0568821327204 383.96293643934035 0.0 0.0
-3120.3404294846887 18.14859820111367 -930.6575493850728 311.6411936727107 0.0 0.0
-2915.6007038784355 11.660083863832535 -871.1821860043808 310.9698160041824 0.0 0.0
-2724.75281224463 8.60112936156581 -814.8455048649192 319.6983494537981 0.0 0.0
-2541.784007765101 4.343491364780939 -761.2321549200958 325.83556214212445 0.0 0.0
-2359.9142710241968 1.678210800080608 -707.4708180672347 329.15462781934156 0.0 0.0
-2178.3600303106873 0.461282867108733 -653.3696242330736 330.48024226258485 0.0 0.0
-1996.8677555426018 -0.055298272245106084 -599.0769161444543 330.82188124252235 0.0 0.0
-1815.3320441721592 -0.25017895291681524 -544.674666937523 330.74887623339396 0.0 0.0
-1633.7391774983907 -0.2505269683285887 -490.1969113400157 330.5974033295674 0.0 0.0
-1452.1025967992507 0.18982944063509977 -435.5738302075847 330.7922533571344 0.0 0.0
-1270.5322806082963 1.8891560174636695 -380.5929373772498 332.2973744635537 0.0 0.0
-1089.2551290597 6.425277825003208 -324.84895537040904 337.1695007269287 0.0 0.0
-908.189252932897 15.401273552140267 -267.83639381422716 348.6792442982031 0.0 0.0
-725.3757431408022 26.498522019482962 -209.66316633639576 368.9309440099781 0.0 0.0
-535.0276980950748 23.307486741163878 -153.51606340617323 389.68369448780487 0.0 0.0
-336.0168075265399 -37.29612271950993 -111.993879073815 375.6447108064899 0.0 0.0
-176.6860215133284 -192.0659307323522 -110.62558567370417 259.65523928093677 0.0 0.0
-82.46014809051442 -211.15057836897833 -88.08321793784785 137.55412882951424 0.0 0.0
-76.65398912091483 -124.89466857195178 -60.464597307860004 -107.55957507906771 0.0 0.0
-189.56111415387898 -148.65211976933324 -101.4639701769637 -212.6548116591287 0.0 0.0
-376.5836097606307 -29.04375297018028 -121.6882088192433 -319.68406864029987 0.0 0.0
-616.4521339570387 16.94411625273042 -179.85240531129244 -336.05180883981546 0.0 0.0
-853.7878696869517 19.766687087525387 -250.20635477982785 -317.4362211060098 0.0 0.0
-1082.2545444415628 11.66339014443508 -321.1773462891384 -298.1427033608524 0.0 0.0
-1304.8321256531112 4.895658434577235 -389.98094016556007 -286.9776629293033 0.0 0.0
-1524.4626026081773 1.4372221369258842 -456.90761414137546 -282.2504998106927 0.0 0.0
-1742.8609908605263 0.14036635677254772 -522.8161873511262 -280.82113255820724 0.0 0.0
-1960.814507399756 -0.19380655402938984 -588.3024941861357 -280.66243068814424 0.0 0.0
-2178.6358422344024 -0.19150601540430223 -653.6482044749421 -280.8291991204855 0.0 0.0
-2396.405039419957 -0.04600948915764391 -718.9353146727346 -280.91753239389527 0.0 0.0
-2614.0391486312055 0.34930673121136735 -784.1069525699983 -280.60116167154473 0.0 0.0
-2831.2979348862464 1.2821927570257188 -849.0047226387663 -279.34368940433916 0.0 0.0
-3048.0150070138916 3.1968698866851106 -913.4454411381621 -276.09096129303987 0.0 0.0
-3263.3216393014072 7.130709345341604 -976.8572789868199 -269.7387559752957 0.0 0.0
-3482.0270657169913 8.127995216425608 -1042.16972115017 -260.7964599578354 0.0 0.0
-3725.7107154927708 10.05201903021215 -1114.6976089387679 -253.41329146281214 0.0 0.0
-3927.238576931125 39.55297621872092 -1166.3056802137207 -319.7754794763329 0.0 0.0
-3901.095808873183 -323.20808232963554 -1267.2911673608455 -508.44416661682425 0.0 0.0
-4437.212640218836 -2185.903653187108 -1986.9348880217829 -3.311129148642067e-12 0.0 0.0
-3901.095808873164 -323.20808232961383 -1267.2911673608335 508.4441666168045 0.0 0.0
-3927.2385769311923 39.552976218580724 -1166.305680213784 319.77547947633013 0.0 0.0
-3725.710715492769 10.05201903023302 -1114.6976089387606 253.41329146280643 0.0 0.0
-3482.0270657170495 8.127995216255773 -1042.1697211502378 260.7964599578337 0.0 0.0
-3263.321639301458 7.13070934522659 -976.8572789868693 269.73875597527905 0.0 0.0
-3048.0150070137897 3.1968698869164056 -913.4454411380622 276.0909612930206 0.0 0.0
-2831.297934886298 1.2821927569145615 -849.0047226388152 279.3436894043564 0.0 0.0
-2614.039148631175 0.3493067313106719 -784.1069525699596 280.60116167155394 0.0 0.0
-2396.405039419807 -0.046009488843547164 -718.9353146725957 280.91753239388726 0.0 0.0
-2178.6358422344056 -0.19150601542300638 -653.6482044749486 280.82919912044355 0.0 0.0
-1960.814507399774 -0.19380655405563885 -588.3024941861489 280.6624306881369 0.0 0.0
-1742.8609908605285 0.14036635675848375 -522.8161873511309 280.82113255822406 0.0 0.0
-1524.4626026081437 1.4372221369883889 -456.9076141413464 282.25049981069816 0.0 0.0
-1304.8321256531922 4.895658434389056 -389.980940165641 286.97766292930834 0.0 0.0
-1082.2545444415327 11.66339014452386 -321.1773462891026 298.1427033608599 0.0 0.0
-853.7878696869616 19.766687087520815 -250.20635477983217 317.43622110598807 0.0 0.0
-616.4521339570853 16.94411625263044 -179.8524053113365 336.051808839824 0.0 0.0
-376.58360976061675 -29.04375297015902 -121.68820881923271 319.6840686402908 0.0 0.0
-189.56111415387636 -148.65211976933773 -101.46397017696422 212.65481165912357 0.0 0.0
-76.65398912091742 -124.89466857194665 -60.4645973078592 107.55957507906632 0.0 0.0
-74.33370065897212 -64.64385936518384 -41.693268007246786 -77.63396651193459 0.0 0.0
-197.66507347967413 -108.16499337240654 -91.74902005562423 -162.25144061864418 0.0 0.0
-413.6149131050579 -20.543612602251848 -130.24755771219293 -254.01740271494947 0.0 0.0
-696.2808761794091 11.227422023183012 -205.51603624686786 -269.38517237361754 0.0 0.0
-982.2113473143654 13.660806153323879 -290.5651623483124 -253.56171650226526 0.0 0.0
-1256.878399866603 8.23855744125632 -374.59195272760405 -236.82499972527506 0.0 0.0
-1520.879387061528 3.495001025275383 -455.2153158108759 -227.09159497372787 0.0 0.0
-1778.661470084634 1.0357428798824273 -533.2877181614252 -222.9994805878371 0.0 0.0
-2033.7393557294588 0.10439599277064637 -610.0904879210066 -221.79399958044942 0.0 0.0
-2287.931557400452 -0.13664547692716233 -686.4204608632135 -221.68583863803363 0.0 0.0
-2541.9595811295844 -0.13706077595569077 -762.6289925716621 -221.84967543077323 0.0 0.0
-2795.9709027058298 -0.027902364278284963 -838.7996415210324 -221.9395630884708 0.0 0.0
-3049.807653850683 0.23168069328627716 -914.8727919472191 -221.68909175124895 0.0 0.0
-3302.8378902480895 0.9776104999349506 -990.5580839244465 -220.58462553105795 0.0 0.0
-3554.324215824305 2.112073433187657 -1065.6636427173357 -217.85227409446543 0.0 0.0
-3802.525462846141 5.319959283603545 -1139.1616510687613 -211.7566179407449 0.0 0.0
-4045.258576261166 7.6179418189991965 -1211.2921903326505 -203.86859821041426 0.0 0.0
-4318.036847472368 -5.5144545256237585 -1297.0653905993981 -193.6904614660201 0.0 0.0
-4593.976371877168 62.44407973728701 -1359.4596876419641 -229.64936317590835 0.0 0.0
-4551.477324097439 -117.15750528151351 -1400.5904488136862 -506.4100998322238 0.0 0.0
-5393.8602027867255 -2729.2097336849038 -2436.9209809414883 5.4285465012071654e-12 0.0 0.0
-4551.4773240973955 -117.15750528140052 -1400.5904488136382 506.4100998322199 0.0 0.0
-4593.9763718772065 62.44407973720797 -1359.4596876419996 229.64936317592182 0.0 0.0
-4318.0368474724155 -5.514454525754806 -1297.0653905994511 193.69046146604245 0.0 0.0
-4045.2585762611443 7.617941818993573 -1211.2921903326453 203.8685982104159 0.0 0.0
-3802.525462846138 5.319959283593699 -1139.1616510687634 211.75661794071527 0.0 0.0
-3554.3242158241974 2.112073433416344 -1065.6636427172343 217.85227409445844 0.0 0.0
-3302.8378902481104 0.9776104998710173 -990.5580839244712 220.58462553105326 0.0 0.0
-3049.807653850605 0.23168069350510967 -914.87279194713 221.68909175124818 0.0 0.0
-2795.9709027058598 -0.027902364310285144 -838.799641521051 221.93956308845796 0.0 0.0
-2541.959581129513 -0.13706077578858733 -762.6289925715905 221.84967543076144 0.0 0.0
-2287.9315574004936 -0.13664547704755903 -686.4204608632626 221.68583863804167 0.0 0.0
-2033.7393557294465 0.10439599276163361 -610.0904879210057 221.7939995804586 0.0 0.0
-1778.6614700846083 1.0357428799405242 -533.2877181614003 222.99948058781737 0.0 0.0
-1520.8793870616296 3.495001025091774 -455.2153158109614 227.0915949737328 0.0 0.0
-1256.8783998665938 8.238557441265996 -374.59195272759837 236.82499972528637 0.0 0.0
-982.2113473143465 13.660806153333084 -290.56516234830406 253.56171650226227 0.0 0.0
-696.2808761794219 11.22742202314539 -205.51603624688298 269.38517237362373 0.0 0.0
-413.6149131050553 -20.543612602237115 -130.24755771218767 254.01740271497752 0.0 0.0
-197.66507347967246 -108.16499337240666 -91.74902005562373 162.2514406186154 0.0 0.0
-74.3337006589653 -64.64385936517672 -41.693268007242615 77.63396651190594 0.0 0.0
-72.53283888369032 -30.202402003271743 -30.820572266088615 -50.01984845453755 0.0 0.0
-198.13642764935662 -72.41988913425465 -81.1668950350834 -109.27157171994831 0.0 0.0
-445.26374988237626 -13.96594587389002 -137.76890872687994 -177.38680879981462 0.0 0.0
-774.4599427056786 6.401654375189929 -230.41748649914663 -188.7987055464817 0.0 0.0
-1111.5949394427657 8.839762487932347 -330.82655308644996 -177.19553073738896 0.0 0.0
-1432.8151869109051 5.502068133856978 -428.1939356331144 -164.81411192703263 0.0 0.0
-1737.753662964681 2.388406512695373 -520.6095769355959 -157.61521592097185 0.0 0.0
-2033.2461504351363 0.725991389940404 -609.7560477135588 -154.608545533459 0.0 0.0
-2324.7514746386155 0.08233787087088196 -697.4007410303234 -153.74081526275293 0.0 0.0
-2615.0773834970605 -0.08854407892647309 -784.5497782727961 -153.677681682612 0.0 0.0
-2905.2849892178624 -0.09070156223472559 -871.6127072340295 -153.80866653987732 0.0 0.0
-3195.575193824193 -0.019087270803602507 -958.6782843284991 -153.88340341453969 0.0 0.0
-3485.645386073517 0.17539167704104486 -1045.640998318943 -153.70512209881528 0.0 0.0
-3774.7564762859756 0.5982259353992703 -1132.247475105173 -152.91920785045352 0.0 0.0
-4060.7274418384786 1.7990262670736712 -1217.6785246714217 -150.78807476426954 0.0 0.0
-4342.900246252282 2.107922150206951 -1302.2376972306226 -146.7259995870906 0.0 0.0
-4609.410352578056 11.032291177770023 -1379.5134184200858 -137.93756009913068 0.0 0.0
-4889.401877666764 -16.8883272942817 -1471.8870614883142 -138.3640517316156 0.0 0.0
-5255.660854224071 27.01331873716866 -1568.5942606460708 -128.33696515732476 0.0 0.0
-5181.114237922893 224.7759555026911 -1486.9014847260603 -428.4809966982207 0.0 0.0
-6502.183817351807 -3410.804360364568 -2973.896453314913 9.29389898374211e-12 0.0 0.0
-5181.11423792282 224.77595550282572 -1486.9014847259991 428.4809966982285 0.0 0.0
-5255.660854224077 27.01331873714714 -1568.5942606460785 128.33696515731225 0.0 0.0
-4889.401877666765 -16.888327294259895 -1471.8870614883072 138.3640517316186 0.0 0.0
-4609.4103525781065 11.032291177656166 -1379.5134184201356 137.9375600991396 0.0 0.0
-4342.90024625234 2.1079221500800234 -1302.2376972306784 146.72599958705783 0.0 0.0
-4060.727441838602 1.7990262667690704 -1217.6785246715497 150.78807476426553 0.0 0.0
-3774.7564762859174 0.5982259354719481 -1132.2474751051338 152.91920785047205 0.0 0.0
-3485.645386073468 0.17539167715859194 -1045.640998318893 153.70512209885 0.0 0.0
-3195.5751938241415 -0.01908727066849991 -958.6782843284429 153.8834034145009 0.0 0.0
-2905.2849892179734 -0.09070156251657846 -871.6127072341475 153.80866653988085 0.0 0.0
-2615.07738349707 -0.08854407893318347 -784.5497782728011 153.67768168260594 0.0 0.0
-2324.751474638693 0.0823378707232908 -697.4007410303911 153.74081526276768 0.0 0.0
-2033.246150435112 0.7259913899897577 -609.7560477135366 154.6085455334218 0.0 0.0
-1737.7536629647363 2.388406512574061 -520.6095769356486 157.615215920974 0.0 0.0
-1432.8151869109251 5.502068133833451 -428.1939356331277 164.81411192703035 0.0 0.0
-1111.5949394428076 8.839762487840947 -330.82655308649004 177.1955307374082 0.0 0.0
-774.4599427056386 6.401654375286542 -230.41748649910565 188.79870554650623 0.0 0.0
-445.2637498823892 -13.965945873905056 -137.7689087268883 177.38680879982718 0.0 0.0
-198.1364276493323 -72.41988913420498 -81.16689503506119 109.27157171993913 0.0 0.0
-72.53283888367346 -30.20240200327273 -30.820572266083865 50.01984845451452 0.0 0.0
-65.36624531349013 -19.1592911170083 -25.35766092914953 -29.46124388920542 0.0 0.0
-186.61510522452502 -44.94010679206486 -69.46656360497695 -54.864622484976536 0.0 0.0
-468.81818647295137 -11.76387314127472 -144.1746178842678 -86.70357087530584 0.0 0.0
-851.1343727689414 3.5341508111971187 -254.28006658732335 -93.28857779203103 0.0 0.0
-1243.2253789443723 5.9397636843125206 -371.18568457801786 -88.31935256386997 0.0 0.0
-1610.8485646765894 3.8434341723030645 -482.1015391512856 -82.34583477022001 0.0 0.0
-1955.8052684082543 1.7137105866355515 -586.2274673464856 -78.73396049776139 0.0 0.0
-2288.311746193638 0.5340528442951129 -686.3333080048031 -77.17287595749531 0.0 0.0
-2615.897775452462 0.06636298210198888 -784.749423741108 -76.69859756453802 0.0 0.0
-2942.2300465861626 -0.06080082562323952 -882.6872542235361 -76.64745692084175 0.0 0.0
-3268.5971386551996 -0.06389618056882362 -980.5983104507305 -76.70418397244529 0.0 0.0
-3595.192659024926 -0.012266244987182873 -1078.5614775809738 -76.73548797586413 0.0 0.0
-3921.6436745161122 0.12412732451257469 -1176.4558641574795 -76.63258597661125 0.0 0.0
-4246.839288269516 0.4553565497442076 -1273.9151795159319 -76.22962062150631 0.0 0.0
-4568.631265533938 1.1240611956547681 -1370.252161301485 -75.11401923283248 0.0 0.0
-4881.250007663284 2.666724192842647 -1463.5749850411325 -73.09870167434715 0.0 0.0
-5186.114638200721 1.5232225754262583 -1555.3774246875887 -69.38077052945883 0.0 0.0
-5429.608046340042 25.151288622311775 -1621.3370273153187 -64.4975262582383 0.0 0.0
-5895.766702214931 -144.20194067241493 -1811.9905928662038 -101.7222794709595 0.0 0.0
-5772.566753440176 726.8071785167057 -1513.7278724770415 -145.18257286383616 0.0 0.0
-7840.193309747925 -4192.994102026949 -3609.9562235324634 6.934897101018578e-12 0.0 0.0
-5772.566753440129 726.8071785168268 -1513.7278724769908 145.18257286384272 0.0 0.0
-5895.766702215016 -144.2019406726147 -1811.9905928662893 101.7222794709307 0.0 0.0
-5429.608046339946 25.15128862251238 -1621.33702731523 64.4975262582143 0.0 0.0
-5186.114638200686 1.5232225755004736 -1555.377424687556 69.38077052945476 0.0 0.0
-4881.250007663328 2.666724192756747 -1463.5749850411719 73.0987016743272 0.0 0.0
-4568.6312655340025 1.1240611955073017 -1370.2521613015483 75.11401923286951 0.0 0.0
-4246.839288269395 0.4553565500055894 -1273.9151795158168 76.22962062150268 0.0 0.0
-3921.64367451607 0.12412732461881215 -1176.4558641574354 76.63258597663419 0.0 0.0
-3595.192659024801 -0.012266244732806797 -1078.5614775808601 76.73548797583297 0.0 0.0
-3268.5971386553783 -0.06389618101603514 -980.5983104509185 76.70418397245825 0.0 0.0
-2942.2300465861567 -0.060800825571392436 -882.6872542235185 76.64745692082644 0.0 0.0
-2615.8977754524426 0.06636298218546743 -784.7494237410774 76.69859756452968 0.0 0.0
-2288.3117461937195 0.534052844109286 -686.3333080048833 77.172875957475 0.0 0.0
-1955.8052684082722 1.7137105865920659 -586.2274673465042 78.73396049775738 0.0 0.0
-1610.8485646765653 3.8434341723445398 -482.10153915126625 82.34583477019704 0.0 0.0
-1243.2253789443464 5.9397636843379304 -371.18568457800245 88.31935256386396 0.0 0.0
-851.1343727689263 3.534150811223194 -254.28006658731093 93.28857779205842 0.0 0.0
-468.8181864729753 -11.763873141334546 -144.17461788429293 86.70357087530762 0.0 0.0
-186.61510522450635 -44.940106792012536 -69.46656360495568 54.864622484976266 0.0 0.0
-65.36624531350455 -19.159291117024242 -25.357660929158634 29.461243889227894 0.0 0.0
-34.018939385675466 -8.08773831506781 -12.63200331022298 -19.74255297516076 0.0 0.0
-152.0509984595286 -23.086427658127512 -52.541227835296844 -23.188302774020478 0.0 0.0
-478.93070134457514 -12.398959291195439 -147.3988981907312 -29.510504625235473 0.0 0.0
-936.9769361983384 -17.70880708645833 -286.40572298543896 -32.90315739605144 0.0 0.0
-1394.4297100616575 -31.23351575795067 -427.6989677458825 -32.65254777236866 0.0 0.0
-1812.5054811595805 -44.67281466530934 -557.1534887474671 -31.133108504848877 0.0 0.0
-2200.1684701383583 -56.35857713381662 -676.9581141816526 -29.971989780531707 0.0 0.0
-2572.700646308039 -66.69848908207354 -791.8197406170336 -29.37294217873992 0.0 0.0
-2939.921193402351 -76.40648586844175 -904.8983037812377 -29.143498471793194 0.0 0.0
-3306.1526135396607 -85.9166799273655 -1017.6207880401075 -29.085759816537006 0.0 0.0
-3672.732270462478 -95.40847905379343 -1130.4422248548817 -29.083632472168247 0.0 0.0
-4039.7708177116015 -104.90567164054576 -1243.4029468056444 -29.079003159804984 0.0 0.0
-4406.836375465909 -114.41308246017638 -1356.374837377826 -29.019684511962424 0.0 0.0
-4772.568955377504 -123.60754932110333 -1468.8529514095824 -28.859989877871385 0.0 0.0
-5134.483415573806 -133.07880254798312 -1580.2686654365366 -28.475382120047357 0.0 0.0
-5484.598417739286 -138.4528877296047 -1686.9153916406672 -27.731278763908307 0.0 0.0
-5819.470840849706 -156.11989123665973 -1792.6772196259105 -28.487530479311346 0.0 0.0
-6092.658463601962 -103.12475759709756 -1858.7349663597179 -19.382859061286666 0.0 0.0
-6373.737609752618 -347.6063901072284 -2016.4031999579538 -95.17270806005172 0.0 0.0
-6506.993457861584 825.4885570117989 -1704.4514702549354 -0.4284725369250282 0.0 0.0
-9621.959394387784 -5045.942124740743 -4400.370455738558 -8.185452315956354e-12 0.0 0.0
-6506.993457861587 825.4885570117506 -1704.451470254951 0.42847253693361154 0.0 0.0
-6373.737609752714 -347.60639010747593 -2016.4031999580568 95.1727080600401 0.0 0.0
-6092.658463601893 -103.1247575969721 -1858.7349663596594 19.382859061294994 0.0 0.0
-5819.470840849434 -156.11989123602928 -1792.6772196256393 28.487530479305406 0.0 0.0
-5484.5984177392675 -138.45288772953694 -1686.9153916406415 27.731278763888525 0.0 0.0
-5134.483415573705 -133.0788025477276 -1580.2686654364302 28.475382120127847 0.0 0.0
-4772.568955377442 -123.60754932096754 -1468.8529514095226 28.859989877852172 0.0 0.0
-4406.836375465913 -114.4130824602044 -1356.3748373778353 29.01968451198678 0.0 0.0
-4039.770817711466 -104.90567164026304 -1243.4029468055187 29.079003159804046 0.0 0.0
-3672.732270462572 -95.40847905396035 -1130.4422248549597 29.08363247216664 0.0 0.0
-3306.1526135396925 -85.91667992735287 -1017.6207880401137 29.08575981653817 0.0 0.0
-2939.9211934021805 -76.40648586800626 -904.8983037810559 29.14349847178157 0.0 0.0
-2572.7006463081816 -66.69848908246755 -791.8197406171951 29.37294217875271 0.0 0.0
-2200.1684701382983 -56.35857713375964 -676.9581141816175 29.971989780563632 0.0 0.0
-1812.5054811595342 -44.6728146651449 -557.1534887474039 31.133108504814913 0.0 0.0
-1394.429710061624 -31.23351575785133 -427.69896774584265 32.6525477723347 0.0 0.0
-936.976936198355 -17.708807086533135 -286.40572298546647 32.903157396066355 0.0 0.0
-478.9307013446215 -12.398959291283873 -147.3988981907716 29.51050462523613 0.0 0.0
-152.05099845949843 -23.086427658063982 -52.5412278352687 23.188302774022375 0.0 0.0
-34.01893938563978 -8.08773831506621 -12.632003310211797 19.74255297521247 0.0 0.0
SCALARS Strain float 6
LOOKUP_TABLE default
0.00881354304574818 -0.021893523440606244 0.0 -0.0014731792987842003 0.0 0.0
0.007849178669775844 0.0017066758911847392 0.0 -0.0022883377120248125 0.0 0.0
0.006203682337934899 -0.003091433979908576 0.0 -0.000978696208065864 0.0 0.0
0.005915922669325074 -0.0021553421625557334 0.0 -0.00014576388716963716 0.0 0.0
0.006948670006956986 -0.002839714731612099 0.0 -0.000335943939124326 0.0 0.0
0.008348396768050794 -0.003382486609388305 0.0 -0.0003461774163632513 0.0 0.0
0.009917652750858116 -0.004037512805905331 0.0 -0.00036707909436251024 0.0 0.0
0.011551355024496987 -0.004702603235913369 0.0 -0.00037503254001580304 0.0 0.0
0.013204634732360887 -0.00537665289511336 0.0 -0.0003778607376266151 0.0 0.0
0.014861047268824961 -0.006050909347731221 0.0 -0.0003785968172512928 0.0 0.0
0.016515638948555275 -0.006724491121416962 0.0 -0.00037859677104511386 0.0 0.0
0.018168179074574693 -0.007397213416474731 0.0 -0.0003786806158357134 0.0 0.0
0.01982080280290266 -0.00806984786796091 0.0 -0.00037941815525963703 0.0 0.0
0.021479291035577178 -0.008744371974623934 0.0 -0.000381590874033062 0.0 0.0
0.0231564689516886 -0.009425424163200436 0.0 -0.0003860393080067411 0.0 0.0
0.02487430448716415 -0.010121532424607867 0.0 -0.00039234782526791393 0.0 0.0
0.02665481710648901 -0.010842608998039318 0.0 -0.0003952045058083887 0.0 0.0
0.028482130936219575 -0.011586285736933943 0.0 -0.00037882301391690124 0.0 0.0
0.030224875427713058 -0.01230608466913698 0.0 -0.0003159691679725686 0.0 0.0
0.031565070071892784 -0.012873851186383418 0.0 -0.00018483955797229186 0.0 0.0
0.03208172283513692 -0.013098994418929831 0.0 -3.363195139050035e-16 0.0 0.0
0.03156507007189289 -0.012873851186383064 0.0 0.00018483955797287364 0.0 0.0
0.030224875427713176 -0.012306084669137397 0.0 0.00031596916797249283 0.0 0.0
0.02848213093621957 -0.011586285736933375 0.0 0.00037882301391680535 0.0 0.0
0.02665481710648899 -0.010842608998039481 0.0 0.0003952045058080763 0.0 0.0
0.024874304487164167 -0.010121532424607876 0.0 0.00039234782526741444 0.0 0.0
0.023156468951688696 -0.009425424163199275 0.0 0.0003860393080062608 0.0 0.0
0.021479291035577195 -0.008744371974623499 0.0 0.00038159087403284893 0.0 0.0
0.01982080280290268 -0.00806984786796352 0.0 0.00037941815525997476 0.0 0.0
0.018168179074574735 -0.007397213416474804 0.0 0.0003786806158351759 0.0 0.0
0.01651563894855511 -0.006724491121415571 0.0 0.0003785967710452936 0.0 0.0
0.014861047268824867 -0.006050909347733249 0.0 0.0003785968172516892 0.0 0.0
0.013204634732360932 -0.0053766528951132275 0.0 0.000377860737626735 0.0 0.0
0.011551355024497119 -0.004702603235913446 0.0 0.0003750325400157966 0.0 0.0
0.009917652750858139 -0.004037512805905574 0.0 0.0003670790943619965 0.0 0.0
0.008348396768050766 -0.003382486609388736 0.0 0.0003461774163638236 0.0 0.0
0.006948670006957066 -0.0028397147316121104 0.0 0.00033594393912351426 0.0 0.0
0.00591592266932516 -0.002155342162556206 0.0 0.00014576388716992144 0.0 0.0
0.0062036823379349555 -0.0030914339799084766 0.0 0.000978696208064941 0.0 0.0
0.007849178669775869 0.0017066758911846885 0.0 0.002288337712024902 0.0 0.0
0.008813543045748235 -0.021893523440606254 0.0 0.0014731792987833442 0.0 0.0
0.005488212665931014 -0.020349731228289973 0.0 -0.0010067288369992862 0.0 0.0
0.004643436020891942 0.0014791738621133487 0.0 -0.001824525972401115 0.0 0.0
0.004457913260198317 -0.002397385254281007 0.0 -0.0006840713078733993 0.0 0.0
0.00536422066458525 -0.0021268155384003146 0.0 -0.0005662076520758626 0.0 0.0
0.006231099751840196 -0.002649099820170366 0.0 -0.0008163543032411922 0.0 0.0
0.007530062025830434 -0.0032101588663530326 0.0 -0.0009247735639716609 0.0 0.0
0.008935368284189917 -0.0038237553833783966 0.0 -0.0009733830714304195 0.0 0.0
0.010401766561999466 -0.004456161422616171 0.0 -0.0009932822915688106 0.0 0.0
0.011886545963507527 -0.0050940522522095535 0.0 -0.0009987453601678525 0.0 0.0
0.013375801046619994 -0.005732718154157367 0.0 -0.0009993046532070376 0.0 0.0
0.01486447617381716 -0.00637072459112975 0.0 -0.0009985428255332325 0.0 0.0
0.016352017394607336 -0.007008043445638377 0.0 -0.000998168430383956 0.0 0.0
0.01784018483073027 -0.00764529311073197 0.0 -0.000999552658131988 0.0 0.0
0.019333832538201243 -0.008284156637507126 0.0 -0.001005118802514723 0.0 0.0
0.020843065606240704 -0.008928579512502866 0.0 -0.0010186681717374558 0.0 0.0
0.022383607289708122 -0.009585908084778272 0.0 -0.001042669605576207 0.0 0.0
0.023967139370362975 -0.010264871829896749 0.0 -0.0010683227761372279 0.0 0.0
0.025568400090783188 -0.010963703604420453 0.0 -0.0010561837616253965 0.0 0.0
0.02706483130653396 -0.011641415313007192 0.0 -0.0009206827243853945 0.0 0.0
0.028191618358202664 -0.01218102750088821 0.0 -0.0005642039334509954 0.0 0.0
0.02862006222208628 -0.012398850217288033 0.0 -4.5644911461639737e-17 0.0 0.0
0.02819161835820274 -0.012181027500887941 0.0 0.0005642039334510879 0.0 0.0
0.02706483130653403 -0.011641415313007176 0.0 0.0009206827243854419 0.0 0.0
0.025568400090783202 -0.01096370360442114 0.0 0.001056183761625893 0.0 0.0
0.023967139370362888 -0.010264871829897703 0.0 0.0010683227761374673 0.0 0.0
0.022383607289708073 -0.009585908084778412 0.0 0.0010426696055765836 0.0 0.0
0.020843065606240725 -0.008928579512503258 0.0 0.0010186681717373105 0.0 0.0
0.01933383253820131 -0.00828415663750716 0.0 0.001005118802514379 0.0 0.0
0.017840184830730303 -0.0076452931107337495 0.0 0.0009995526581321637 0.0 0.0
0.016352017394607284 -0.007008043445638214 0.0 0.0009981684303841019 0.0 0.0
0.014864476173817066 -0.0063707245911292605 0.0 0.0009985428255334821 0.0 0.0
0.013375801046619954 -0.005732718154158105 0.0 0.00099930465320702 0.0 0.0
0.011886545963507517 -0.005094052252209628 0.0 0.0009987453601676926 0.0 0.0
0.010401766561999416 -0.004456161422615622 0.0 0.0009932822915688622 0.0 0.0
0.008935368284189883 -0.0038237553833785744 0.0 0.0009733830714301964 0.0 0.0
0.007530062025830404 -0.0032101588663528626 0.0 0.0009247735639720811 0.0 0.0
0.006231099751840205 -0.0026490998201702596 0.0 0.0008163543032409836 0.0 0.0
0.0053642206645853315 -0.0021268155384004074 0.0 0.0005662076520762156 0.0 0.0
0.004457913260198367 -0.002397385254280788 0.0 0.0006840713078731114 0.0 0.0
0.004643436020891985 0.0014791738621132795 0.0 0.0018245259724011052 0.0 0.0
0.005488212665931093 -0.020349731228289987 0.0 0.0010067288369986556 0.0 0.0
0.003936457250213515 -0.0174396204538277 0.0 -0.0046364401308037284 0.0 0.0
0.002990437504026269 0.0008098501429736425 0.0 -0.003299325909453024 0.0 0.0
0.0030707793754668118 -0.0012288163359890677 0.0 -0.0004638672865383108 0.0 0.0
0.0045364200435522375 -0.001915985763553704 0.0 -0.0013061514439596227 0.0 0.0
0.005519288817378793 -0.00229892460187102 0.0 -0.0016254759128906443 0.0 0.0
0.00668315926098765 -0.0028476688401315666 0.0 -0.001862946801399029 0.0 0.0
0.007947587354501604 -0.003397073513414321 0.0 -0.001955762232570779 0.0 0.0
0.009249413859549062 -0.003961793310382421 0.0 -0.0019932714080217466 0.0 0.0
0.010568114490337753 -0.004528928238712982 0.0 -0.002003348756505985 0.0 0.0
0.011890726902582143 -0.005096361417223588 0.0 -0.0020039316442096093 0.0 0.0
0.01321354085818843 -0.0056632797400495705 0.0 -0.0020022090134191217 0.0 0.0
0.014535835305337908 -0.006229703511004375 0.0 -0.0020012797907045595 0.0 0.0
0.01585887619097123 -0.006795981045895914 0.0 -0.0020037535081421118 0.0 0.0
0.017186188009730485 -0.007363048249660531 0.0 -0.002014437606716663 0.0 0.0
0.01852488906469852 -0.007933342921130654 0.0 -0.0020412897810541436 0.0 0.0
0.019885525017550712 -0.008512110875779978 0.0 -0.0020905473717966723 0.0 0.0
0.02127414848102002 -0.009107208681477264 0.0 -0.0021472613112626902 0.0 0.0
0.022666233303111002 -0.009721702016800058 0.0 -0.002134971443026902 0.0 0.0
0.023958331093371654 -0.010330164188186214 0.0 -0.0018781013298424223 0.0 0.0
0.024929108613320514 -0.010836084206969512 0.0 -0.0011624785744981585 0.0 0.0
0.02529852693741282 -0.011052001622229708 0.0 7.491837011874836e-17 0.0 0.0
0.024929108613320473 -0.010836084206968966 0.0 0.0011624785744975994 0.0 0.0
0.023958331093371685 -0.010330164188186133 0.0 0.0018781013298426825 0.0 0.0
0.022666233303111027 -0.00972170201680169 0.0 0.0021349714430266833 0.0 0.0
0.021274148481019998 -0.009107208681477826 0.0 0.002147261311262525 0.0 0.0
0.01988552501755072 -0.008512110875779815 0.0 0.002090547371796767 0.0 0.0
0.01852488906469853 -0.007933342921131572 0.0 0.0020412897810537143 0.0 0.0
0.01718618800973047 -0.007363048249661171 0.0 0.0020144376067169406 0.0 0.0
0.01585887619097123 -0.006795981045897364 0.0 0.002003753508141882 0.0 0.0
0.014535835305337964 -0.006229703511004404 0.0 0.002001279790704502 0.0 0.0
0.013213540858188448 -0.005663279740050605 0.0 0.002002209013419092 0.0 0.0
0.01189072690258211 -0.0050963614172235255 0.0 0.002003931644209394 0.0 0.0
0.010568114490337732 -0.0045289282387128635 0.0 0.0020033487565056783 0.0 0.0
0.009249413859549027 -0.0039617933103817445 0.0 0.001993271408022058 0.0 0.0
0.007947587354501589 -0.003397073513414433 0.0 0.001955762232570913 0.0 0.0
0.006683159260987712 -0.002847668840131698 0.0 0.0018629468013991696 0.0 0.0
0.0055192888173787695 -0.002298924601870953 0.0 0.0016254759128907126 0.0 0.0
0.004536420043552218 -0.0019159857635535596 0.0 0.001306151443960106 0.0 0.0
0.003070779375466866 -0.001228816335988847 0.0 0.00046386728653835253 0.0 0.0
0.002990437504026197 0.0008098501429735354 0.0 0.0032993259094526717 0.0 0.0
0.003936457250213366 -0.017439620453827687 0.0 0.004636440130803767 0.0 0.0
0.0031268712494420333 -0.014881676964997304 0.0 -0.00578805149278079 0.0 0.0
0.0021054606353434284 -5.117263394417881e-05 0.0 -0.004518330439265945 0.0 0.0
0.0020667790486283747 -0.0004829200258993951 0.0 -0.00137479575669503 0.0 0.0
0.003652061051747084 -0.001507434508877351 0.0 -0.001888169637830514 0.0 0.0
0.004764547596877601 -0.0019704093146976076 0.0 -0.0024180470323052414 0.0 0.0
0.005828770952048599 -0.0024664605866936804 0.0 -0.002689327457282941 0.0 0.0
0.00695140956171234 -0.002967921826229757 0.0 -0.002824529304873018 0.0 0.0
0.008095298052791541 -0.003465767039981301 0.0 -0.0028741201481667375 0.0 0.0
0.009248992902943367 -0.0039635881335000085 0.0 -0.0028887836450491515 0.0 0.0
0.010405700581332587 -0.0044600832191319375 0.0 -0.002889848114578041 0.0 0.0
0.011562703048655903 -0.004955949315249644 0.0 -0.002887704503218841 0.0 0.0
0.0127195625008198 -0.005451345156033242 0.0 -0.002886575204368398 0.0 0.0
0.013876931864567317 -0.005946287217610326 0.0 -0.0028900619937012764 0.0 0.0
0.015036789154370744 -0.006440748552665332 0.0 -0.00290462192240028 0.0 0.0
0.01620323358160999 -0.006935487537799635 0.0 -0.002940849478043367 0.0 0.0
0.017382764066217575 -0.007434178359937758 0.0 -0.0030069086452539466 0.0 0.0
0.018579812375322934 -0.007946495280075596 0.0 -0.003081849182818938 0.0 0.0
0.01977839008435806 -0.008486761098448639 0.0 -0.0030589643929657025 0.0 0.0
0.020900676131144925 -0.009053046386031379 0.0 -0.0026902057889771403 0.0 0.0
0.02175916522776078 -0.009565796657336645 0.0 -0.001667026360704551 0.0 0.0
0.022090881141212763 -0.00980313116319217 0.0 2.8514517136368767e-17 0.0 0.0
0.02175916522776077 -0.009565796657336109 0.0 0.0016670263607043328 0.0 0.0
0.02090067613114499 -0.00905304638603169 0.0 0.0026902057889770757 0.0 0.0
0.019778390084358045 -0.008486761098448321 0.0 0.0030589643929654787 0.0 0.0
0.018579812375322944 -0.007946495280074867 0.0 0.003081849182819137 0.0 0.0
0.017382764066217558 -0.007434178359937314 0.0 0.0030069086452539848 0.0 0.0
0.01620323358160998 -0.006935487537799368 0.0 0.002940849478042894 0.0 0.0
0.015036789154370782 -0.006440748552666208 0.0 0.002904621922400123 0.0 0.0
0.01387693186456735 -0.00594628721761048 0.0 0.0028900619937006996 0.0 0.0
0.012719562500819865 -0.005451345156034149 0.0 0.002886575204368769 0.0 0.0
0.011562703048655927 -0.0049559493152509 0.0 0.002887704503218828 0.0 0.0
0.010405700581332564 -0.0044600832191320485 0.0 0.002889848114577947 0.0 0.0
0.009248992902943374 -0.0039635881334998315 0.0 0.002888783645048892 0.0 0.0
0.008095298052791517 -0.0034657670399816758 0.0 0.0028741201481670155 0.0 0.0
0.006951409561712312 -0.0029679218262296677 0.0 0.00282452930487288 0.0 0.0
0.005828770952048622 -0.0024664605866938495 0.0 0.0026893274572827577 0.0 0.0
0.0047645475968776186 -0.001970409314697537 0.0 0.0024180470323051377 0.0 0.0
0.0036520610517470657 -0.0015074345088773337 0.0 0.001888169637830949 0.0 0.0
0.002066779048628349 -0.0004829200258993586 0.0 0.0013747957566950094 0.0 0.0
0.002105460635343418 -5.117263394424323e-05 0.0 0.004518330439265888 0.0 0.0
0.0031268712494420398 -0.014881676964997332 0.0 0.005788051492780922 0.0 0.0
0.002639147683607684 -0.012659062773718515 0.0 -0.005920148856045273 0.0 0.0
0.0016058944587747787 -0.0007930774132655956 0.0 -0.005342842174237955 0.0 0.0
0.001360894057258817 -8.06232903989194e-05 0.0 -0.0026050096071272215 0.0 0.0
0.0028170407958469485 -0.0010659731178940368 0.0 -0.002576555634225312 0.0 0.0
0.003981012191265305 -0.0016216468990894039 0.0 -0.0031252558770240913 0.0 0.0
0.004966960964934531 -0.0020839389168705673 0.0 -0.003427333211947077 0.0 0.0
0.005950557580683097 -0.0025339403140943926 0.0 -0.0035781792889178366 0.0 0.0
0.006939027409028281 -0.002969005989887651 0.0 -0.003637907232181042 0.0 0.0
0.007929323895623822 -0.003397830703447321 0.0 -0.003655341801073151 0.0 0.0
0.008920549062321977 -0.0038238156479253457 0.0 -0.003657199778439874 0.0 0.0
0.009911873802450056 -0.004248652273934817 0.0 -0.0036549917924667517 0.0 0.0
0.010903154786935028 -0.004672932875991993 0.0 -0.0036539006647620885 0.0 0.0
0.011894466778151355 -0.005096281008319279 0.0 -0.003658111445440006 0.0 0.0
0.012886149359166068 -0.005517614727085783 0.0 -0.0036749642186083573 0.0 0.0
0.013879406690579778 -0.005935975345540325 0.0 -0.003716371285760559 0.0 0.0
0.01487769230502467 -0.006353926045497153 0.0 -0.0037914507998212284 0.0 0.0
0.015886912566783158 -0.006784957554870238 0.0 -0.003875441933211647 0.0 0.0
0.01690538594609657 -0.00725944039643414 0.0 -0.003840639557539785 0.0 0.0
0.017885456430510097 -0.00780509299600712 0.0 -0.003382015831766508 0.0 0.0
0.01866587903401063 -0.00835758356741162 0.0 -0.0021039710448159145 0.0 0.0
0.01897651257406025 -0.00863710153273318 0.0 -2.7647155398380363e-17 0.0 0.0
0.018665879034010634 -0.008357583567411545 0.0 0.0021039710448163464 0.0 0.0
0.017885456430510115 -0.007805092996007354 0.0 0.0033820158317662283 0.0 0.0
0.016905385946096557 -0.007259440396432776 0.0 0.003840639557539797 0.0 0.0
0.015886912566783155 -0.006784957554870128 0.0 0.0038754419332118406 0.0 0.0
0.01487769230502466 -0.0063539260454967455 0.0 0.003791450799821206 0.0 0.0
0.01387940669057986 -0.005935975345540195 0.0 0.003716371285760755 0.0 0.0
0.01288614935916603 -0.005517614727085823 0.0 0.003674964218608537 0.0 0.0
0.011894466778151305 -0.005096281008319148 0.0 0.0036581114454395797 0.0 0.0
0.010903154786935045 -0.004672932875992449 0.0 0.003653900664761768 0.0 0.0
0.009911873802450056 -0.004248652273934594 0.0 0.003654991792466895 0.0 0.0
0.008920549062321967 -0.0038238156479259676 0.0 0.003657199778439967 0.0 0.0
0.007929323895623808 -0.003397830703447641 0.0 0.0036553418010726747 0.0 0.0
0.006939027409028264 -0.0029690059898874605 0.0 0.0036379072321814365 0.0 0.0
0.005950557580683003 -0.002533940314094406 0.0 0.0035781792889178 0.0 0.0
0.004966960964934512 -0.0020839389168702286 0.0 0.003427333211947002 0.0 0.0
0.003981012191265374 -0.0016216468990890387 0.0 0.0031252558770239604 0.0 0.0
0.0028170407958470166 -0.0010659731178939839 0.0 0.002576555634225514 0.0 0.0
0.001360894057258803 -8.062329039900542e-05 0.0 0.0026050096071270814 0.0 0.0
0.0016058944587747067 -0.0007930774132656699 0.0 0.005342842174238064 0.0 0.0
0.002639147683607629 -0.012659062773718525 0.0 0.0059201488560447595 0.0 0.0
0.002293407528557413 -0.010736759858562218 0.0 -0.0056480397579354805 0.0 0.0
0.0012979562595230093 -0.001331370840764817 0.0 -0.0058301305953115 0.0 0.0
0.0008618132449317503 9.75591111260638e-05 0.0 -0.003795218821797489 0.0 0.0
0.002069164790703034 -0.0006669987337510336 0.0 -0.0033460943548285645 0.0 0.0
0.0031938763382653103 -0.0012594187815550574 0.0 -0.0037673355364853025 0.0 0.0
0.004099338128680341 -0.0017002138768759548 0.0 -0.004069836900380152 0.0 0.0
0.004947273098065559 -0.0020980827349743195 0.0 -0.0042216179761735044 0.0 0.0
0.0057811236543949505 -0.0024712465689412147 0.0 -0.004284635530690516 0.0 0.0
0.006609075194516505 -0.0028318263696845507 0.0 -0.004303647524750379 0.0 0.0
0.007435211792284482 -0.003187449629822073 0.0 -0.004306054282371802 0.0 0.0
0.008260965283575946 -0.003541336407199484 0.0 -0.0043040713875844485 0.0 0.0
0.009086597658702959 -0.0038944471018547986 0.0 -0.004303137564706924 0.0 0.0
0.009911631365060137 -0.0042460644389594035 0.0 -0.004307651639183165 0.0 0.0
0.01073481652935302 -0.004594043212235694 0.0 -0.00432506227467769 0.0 0.0
0.011554670316826415 -0.004935763817272663 0.0 -0.004367470376812854 0.0 0.0
0.012372343121618884 -0.005272955886979682 0.0 -0.004444576132596767 0.0 0.0
0.013197265668890868 -0.005624059250565823 0.0 -0.004531390285698745 0.0 0.0
0.014046099909212737 -0.006038724596643185 0.0 -0.004490205405111294 0.0 0.0
0.014905285721254918 -0.006579873992711015 0.0 -0.003972863171749902 0.0 0.0
0.015635251000369388 -0.007200445671634397 0.0 -0.002492847168220549 0.0 0.0
0.015938685698353362 -0.007543442188989205 0.0 -1.723881454251952e-17 0.0 0.0
0.015635251000369346 -0.00720044567163455 0.0 0.0024928471682210155 0.0 0.0
0.0149052857212549 -0.006579873992711009 0.0 0.00397286317174992 0.0 0.0
0.014046099909212795 -0.0060387245966428815 0.0 0.004490205405111538 0.0 0.0
0.013197265668890895 -0.005624059250565545 0.0 0.00453139028569848 0.0 0.0
0.012372343121618895 -0.005272955886979808 0.0 0.00444457613259668 0.0 0.0
0.01155467031682647 -0.004935763817272391 0.0 0.004367470376812875 0.0 0.0
0.010734816529352932 -0.004594043212234309 0.0 0.004325062274677805 0.0 0.0
0.009911631365060096 -0.004246064438959824 0.0 0.004307651639183192 0.0 0.0
0.009086597658703005 -0.0038944471018539087 0.0 0.004303137564706924 0.0 0.0
0.008260965283575913 -0.003541336407199504 0.0 0.004304071387584469 0.0 0.0
0.007435211792284442 -0.00318744962982234 0.0 0.004306054282371614 0.0 0.0
0.006609075194516509 -0.0028318263696852034 0.0 0.004303647524750268 0.0 0.0
0.005781123654395021 -0.0024712465689413357 0.0 0.004284635530690495 0.0 0.0
0.004947273098065583 -0.002098082734974058 0.0 0.0042216179761732035 0.0 0.0
0.004099338128680314 -0.0017002138768761092 0.0 0.004069836900380186 0.0 0.0
0.0031938763382652756 -0.0012594187815548389 0.0 0.003767335536485195 0.0 0.0
0.0020691647907030127 -0.0006669987337510592 0.0 0.0033460943548287905 0.0 0.0
0.0008618132449316827 9.755911112597346e-05 0.0 0.0037952188217972357 0.0 0.0
0.0012979562595229039 -0.0013313708407647964 0.0 0.005830130595311469 0.0 0.0
0.0022934075285573237 -0.010736759858562168 0.0 0.005648039757935374 0.0 0.0
0.0020101235762546824 -0.009071561919599836 0.0 -0.005236565799742724 0.0 0.0
0.0010815468651322188 -0.0016676347539209167 0.0 -0.006065375660122344 0.0 0.0
0.0004969440420633072 0.00014933755244935374 0.0 -0.004800147260581275 0.0 0.0
0.0014120120692690478 -0.0003337070865346243 0.0 -0.00411685736019337 0.0 0.0
0.0024227937465216604 -0.0008996391931232193 0.0 -0.004351901495974186 0.0 0.0
0.0032305064567287505 -0.0013159608271922035 0.0 -0.004614880239875197 0.0 0.0
0.00394300113290475 -0.001662103589070536 0.0 -0.004755421876593941 0.0 0.0
0.004622306067971131 -0.0019729056963030222 0.0 -0.004815121331731141 0.0 0.0
0.005288293803413312 -0.0022655820035208463 0.0 -0.004833890156179429 0.0 0.0
0.005949639694022514 -0.002550960957048056 0.0 -0.004836566178647324 0.0 0.0
0.0066099181463189285 -0.002833947337594076 0.0 -0.004834938926632971 0.0 0.0
0.007269891367192279 -0.0031158864084832342 0.0 -0.004834216179933994 0.0 0.0
0.007928591967524044 -0.0033957535966522767 0.0 -0.004838550794988262 0.0 0.0
0.008583329736987007 -0.003670432495307796 0.0 -0.004854806896553464 0.0 0.0
0.009230198024701644 -0.003935760643320352 0.0 -0.004894289725235256 0.0 0.0
0.009868454731004058 -0.004192673760816594 0.0 -0.004967204706736277 0.0 0.0
0.010511980348333566 -0.004464710992205933 0.0 -0.005052645064039034 0.0 0.0
0.01119829882036157 -0.004822503037832218 0.0 -0.005015215180013151 0.0 0.0
0.011952178887280172 -0.005369944335804578 0.0 -0.00447710897656559 0.0 0.0
0.012654679852207711 -0.0060844159706060635 0.0 -0.002849144535343745 0.0 0.0
0.012963407547375192 -0.006515359724753067 0.0 1.9244588561617704e-16 0.0 0.0
0.01265467985220775 -0.006084415970605483 0.0 0.0028491445353435608 0.0 0.0
0.011952178887280136 -0.0053699443358038515 0.0 0.004477108976565502 0.0 0.0
0.011198298820361505 -0.004822503037832023 0.0 0.005015215180013383 0.0 0.0
0.010511980348333541 -0.0044647109922061065 0.0 0.005052645064038772 0.0 0.0
0.009868454731004077 -0.0041926737608165105 0.0 0.004967204706736691 0.0 0.0
0.009230198024701628 -0.003935760643320018 0.0 0.004894289725235007 0.0 0.0
0.00858332973698695 -0.0036704324953068957 0.0 0.004854806896552781 0.0 0.0
0.007928591967524065 -0.003395753596652698 0.0 0.004838550794988041 0.0 0.0
0.0072698913671923795 -0.0031158864084817025 0.0 0.004834216179933779 0.0 0.0
0.006609918146318927 -0.002833947337593929 0.0 0.00483493892663266 0.0 0.0
0.005949639694022484 -0.0025509609570471764 0.0 0.0048365661786472225 0.0 0.0
0.00528829380341336 -0.0022655820035208966 0.0 0.004833890156179309 0.0 0.0
0.004622306067971194 -0.001972905696303808 0.0 0.004815121331731457 0.0 0.0
0.003943001132904753 -0.001662103589070345 0.0 0.004755421876594041 0.0 0.0
0.00323050645672871 -0.0013159608271923974 0.0 0.004614880239874837 0.0 0.0
0.0024227937465216634 -0.0008996391931231332 0.0 0.004351901495974075 0.0 0.0
0.001412012069269029 -0.00033370708653453185 0.0 0.004116857360193329 0.0 0.0
0.0004969440420632293 0.00014933755244924443 0.0 0.004800147260581208 0.0 0.0
0.0010815468651322543 -0.0016676347539209112 0.0 0.006065375660122502 0.0 0.0
0.0020101235762548086 -0.009071561919599803 0.0 0.005236565799742666 0.0 0.0
0.0017539429198175725 -0.00762107757166592 0.0 -0.004797455936335123 0.0 0.0
0.0009049220767997485 -0.0018325625380995539 0.0 -0.006118949262322146 0.0 0.0
0.0002143614351122832 0.00014214396835362925 0.0 -0.005574104088831048 0.0 0.0
0.0008344907414186043 -6.409385231447643e-05 0.0 -0.004818688642628063 0.0 0.0
0.001678999132959099 -0.0005546261751797824 0.0 -0.004869463991695932 0.0 0.0
0.002365869659939311 -0.000933882521769093 0.0 -0.005061860048981112 0.0 0.0
0.0029391623465940243 -0.0012270153732099605 0.0 -0.005178806045295739 0.0 0.0
0.0034631959621918467 -0.0014745287643404968 0.0 -0.005229735678374315 0.0 0.0
0.0039671048111006085 -0.0016991446320683975 0.0 -0.005246245075736155 0.0 0.0
0.004463797959168355 -0.0019143281548381994 0.0 -0.005248836297002584 0.0 0.0
0.0049586913643951324 -0.0021264505236834466 0.0 -0.005247619479530479 0.0 0.0
0.0054530471776373995 -0.0023372560148794846 0.0 -0.005247105902890526 0.0 0.0
0.005945509784019286 -0.002545464645511508 0.0 -0.005250791448408215 0.0 0.0
0.006432181417126378 -0.0027471490758106346 0.0 -0.005264353266953695 0.0 0.0
0.0069070414982365025 -0.0029367857749721285 0.0 -0.005297439531232794 0.0 0.0
0.007367529506364432 -0.0031143242919239636 0.0 -0.005360662211807862 0.0 0.0
0.007831733490372613 -0.003307509694879247 0.0 -0.005441537456595176 0.0 0.0
0.008359084253407617 -0.003608017959593722 0.0 -0.005420342560196599 0.0 0.0
0.009017730435234466 -0.004167023821589209 0.0 -0.004904678449006742 0.0 0.0
0.009712502491990618 -0.004999966262352091 0.0 -0.003185879789377694 0.0 0.0
0.01003863097622297 -0.005549311355523186 0.0 -1.341158087364569e-16 0.0 0.0
0.009712502491990545 -0.004999966262351227 0.0 0.00318587978937733 0.0 0.0
0.00901773043523448 -0.004167023821588957 0.0 0.004904678449007015 0.0 0.0
0.008359084253407657 -0.003608017959593579 0.0 0.005420342560196383 0.0 0.0
0.007831733490372635 -0.0033075096948803843 0.0 0.005441537456595071 0.0 0.0
0.007367529506364401 -0.0031143242919233413 0.0 0.005360662211808264 0.0 0.0
0.006907041498236442 -0.002936785774972548 0.0 0.005297439531232916 0.0 0.0
0.0064321814171263555 -0.0027471490758107157 0.0 0.005264353266953777 0.0 0.0
0.005945509784019344 -0.0025454646455114476 0.0 0.005250791448408298 0.0 0.0
0.005453047177637416 -0.0023372560148799807 0.0 0.0052471059028906895 0.0 0.0
0.004958691364395086 -0.0021264505236828044 0.0 0.005247619479530507 0.0 0.0
0.0044637979591683604 -0.0019143281548379353 0.0 0.005248836297002644 0.0 0.0
0.003967104811100572 -0.0016991446320676622 0.0 0.005246245075735837 0.0 0.0
0.003463195962191868 -0.0014745287643404845 0.0 0.005229735678374343 0.0 0.0
0.0029391623465940707 -0.0012270153732099076 0.0 0.005178806045295948 0.0 0.0
0.0023658696599393146 -0.0009338825217689584 0.0 0.005061860048981128 0.0 0.0
0.0016789991329590496 -0.0005546261751795335 0.0 0.0048694639916959295 0.0 0.0
0.0008344907414185504 -6.409385231432349e-05 0.0 0.004818688642627978 0.0 0.0
0.00021436143511233333 0.00014214396835330627 0.0 0.005574104088831035 0.0 0.0
0.0009049220767997641 -0.0018325625380994901 0.0 0.006118949262322092 0.0 0.0
0.0017539429198175146 -0.007621077571665951 0.0 0.004797455936334869 0.0 0.0
0.0015097675820096856 -0.006348563512650859 0.0 -0.004373331712618841 0.0 0.0
0.0007419524158293451 -0.001862945885607121 0.0 -0.006040469695827155 0.0 0.0
-2.1082614728066376e-05 0.00011836877976429614 0.0 -0.006115490575715866 0.0 0.0
0.0003209338836496348 0.00015371490335469568 0.0 -0.0054035756802891756 0.0 0.0
0.000966811064726066 -0.00023085300334866232 0.0 -0.005302663554180357 0.0 0.0
0.001509955240573403 -0.0005572280138956767 0.0 -0.005408196542453167 0.0 0.0
0.001937238811512153 -0.0007936946010272058 0.0 -0.005490647821196818 0.0 0.0
0.00230430175592522 -0.0009765507072767791 0.0 -0.005528336111909697 0.0 0.0
0.0026456486769425077 -0.0011326061291820776 0.0 -0.005540828062088849 0.0 0.0
0.0029776720774010775 -0.0012775341051597163 0.0 -0.005542941815964489 0.0 0.0
0.003307255967111112 -0.0014188232926260723 0.0 -0.005542149758643432 0.0 0.0
0.0036360813078416656 -0.001558565628664901 0.0 -0.005541816511948833 0.0 0.0
0.003962524042599263 -0.0016952997508987194 0.0 -0.005544453732454482 0.0 0.0
0.0042817837271769315 -0.0018244988580590543 0.0 -0.005554079429286798 0.0 0.0
0.004586099543478219 -0.0019395350859504265 0.0 -0.005577937611886248 0.0 0.0
0.004870896903583508 -0.002039026355509478 0.0 -0.005626647365893899 0.0 0.0
0.005157053048085045 -0.002152994321207054 0.0 -0.005699742737184134 0.0 0.0
0.005525299896521279 -0.0023922999387934645 0.0 -0.005707263934423684 0.0 0.0
0.006093188855366614 -0.002962041022710985 0.0 -0.0052612489913286846 0.0 0.0
0.0067975649314207165 -0.003937333480863777 0.0 -0.0035146146830946556 0.0 0.0
0.0071536419076500156 -0.004644983524107017 0.0 -1.1492543028346347e-16 0.0 0.0
0.006797564931420701 -0.003937333480863134 0.0 0.003514614683094802 0.0 0.0
0.006093188855366631 -0.002962041022710742 0.0 0.005261248991328833 0.0 0.0
0.005525299896521282 -0.0023922999387932524 0.0 0.005707263934423261 0.0 0.0
0.005157053048085089 -0.002152994321207525 0.0 0.00569974273718432 0.0 0.0
0.004870896903583524 -0.0020390263555087407 0.0 0.005626647365894083 0.0 0.0
0.0045860995434781225 -0.0019395350859506945 0.0 0.005577937611886261 0.0 0.0
0.0042817837271768465 -0.0018244988580592113 0.0 0.005554079429287173 0.0 0.0
0.003962524042599292 -0.0016952997508977686 0.0 0.005544453732454291 0.0 0.0
0.0036360813078416807 -0.0015585656286655385 0.0 0.00554181651194808 0.0 0.0
0.003307255967111169 -0.0014188232926255942 0.0 0.005542149758643612 0.0 0.0
0.0029776720774010884 -0.0012775341051599538 0.0 0.005542941815964737 0.0 0.0
0.0026456486769424734 -0.001132606129182009 0.0 0.005540828062088639 0.0 0.0
0.0023043017559252347 -0.0009765507072767288 0.0 0.0055283361119095814 0.0 0.0
0.0019372388115121474 -0.0007936946010267462 0.0 0.005490647821197181 0.0 0.0
0.0015099552405733962 -0.0005572280138954939 0.0 0.0054081965424533675 0.0 0.0
0.0009668110647260489 -0.00023085300334868265 0.0 0.0053026635541804645 0.0 0.0
0.00032093388364964296 0.0001537149033546503 0.0 0.005403575680289303 0.0 0.0
-2.1082614728094196e-05 0.00011836877976400672 0.0 0.0061154905757158885 0.0 0.0
0.0007419524158293365 -0.0018629458856068717 0.0 0.006040469695827083 0.0 0.0
0.001509767582009724 -0.0063485635126509276 0.0 0.004373331712618472 0.0 0.0
0.0012720403155525597 -0.0052246767338526975 0.0 -0.0039754014385661824 0.0 0.0
0.0005802786298460649 -0.0017929394723797563 0.0 -0.005862253320374172 0.0 0.0
-0.00023224696558289074 0.00010253760545292774 0.0 -0.006440144070982041 0.0 0.0
-0.000144146908931184 0.00033374429693902846 0.0 -0.005843134729034973 0.0 0.0
0.0002859486229383729 6.995575391544169e-05 0.0 -0.005633227208330786 0.0 0.0
0.0006657138179189112 -0.0001886149803060258 0.0 -0.00564899573370495 0.0 0.0
0.0009385607295241924 -0.0003629826762054294 0.0 -0.005689435360602591 0.0 0.0
0.0011460373514075293 -0.00047928111603093434 0.0 -0.0057104723247430175 0.0 0.0
0.0013240427529472808 -0.0005660573136269155 0.0 -0.005717650114967164 0.0 0.0
0.0014912614238734184 -0.0006405719897312766 0.0 -0.005718949437815315 0.0 0.0
0.0016555930359282711 -0.000711050071064258 0.0 -0.005718573390743285 0.0 0.0
0.0018190089952635493 -0.0007798255673585642 0.0 -0.005718390682652418 0.0 0.0
0.001979739340775792 -0.0008453373360540363 0.0 -0.005719694603780343 0.0 0.0
0.0021324402023023387 -0.0009027044651172772 0.0 -0.0057245317024155595 0.0 0.0
0.002268082822443523 -0.000944541650550676 0.0 -0.005737143211242244 0.0 0.0
0.0023797608477088656 -0.0009677897174884067 0.0 -0.005767272183884034 0.0 0.0
0.0024885991759663957 -0.0010019008271346028 0.0 -0.005828449057148441 0.0 0.0
0.002693948926891142 -0.0011726380638000418 0.0 -0.005874624232063063 0.0 0.0
0.0031694931388303793 -0.0017451376547769903 0.0 -0.005548019914733971 0.0 0.0
0.0038987922183802096 -0.0028856830247955528 0.0 -0.0038460930928647784 0.0 0.0
0.004298525386226507 -0.0038056293222632157 0.0 2.721347452938616e-17 0.0 0.0
0.0038987922183802495 -0.0028856830247958654 0.0 0.003846093092865221 0.0 0.0
0.003169493138830286 -0.0017451376547770014 0.0 0.005548019914733687 0.0 0.0
0.002693948926891022 -0.001172638063798547 0.0 0.005874624232062678 0.0 0.0
0.002488599175966324 -0.0010019008271339627 0.0 0.005828449057148773 0.0 0.0
0.002379760847708826 -0.0009677897174882048 0.0 0.005767272183884217 0.0 0.0
0.002268082822443521 -0.0009445416505504079 0.0 0.005737143211242171 0.0 0.0
0.0021324402023023548 -0.0009027044651177063 0.0 0.005724531702415644 0.0 0.0
0.001979739340775818 -0.0008453373360544304 0.0 0.005719694603780224 0.0 0.0
0.0018190089952635283 -0.0007798255673579278 0.0 0.00571839068265247 0.0 0.0
0.001655593035928265 -0.0007110500710636298 0.0 0.005718573390743246 0.0 0.0
0.001491261423873435 -0.0006405719897310897 0.0 0.005718949437815225 0.0 0.0
0.0013240427529473346 -0.0005660573136271864 0.0 0.005717650114967183 0.0 0.0
0.0011460373514075666 -0.0004792811160305154 0.0 0.005710472324743267 0.0 0.0
0.0009385607295242289 -0.00036298267620481065 0.0 0.005689435360603148 0.0 0.0
0.0006657138179189463 -0.0001886149803059317 0.0 0.005648995733705123 0.0 0.0
0.0002859486229383502 6.995575391564648e-05 0.0 0.005633227208330699 0.0 0.0
-0.00014414690893124787 0.00033374429693873003 0.0 0.005843134729034921 0.0 0.0
-0.00023224696558290711 0.00010253760545287234 0.0 0.006440144070982361 0.0 0.0
0.0005802786298460557 -0.001792939472379615 0.0 0.0058622533203739535 0.0 0.0
0.001272040315552519 -0.005224676733852706 0.0 0.003975401438566146 0.0 0.0
0.001039770180063459 -0.004227540466810322 0.0 -0.0036010232129989562 0.0 0.0
0.0004149952506168554 -0.0016513521490357282 0.0 -0.00560412671326361 0.0 0.0
-0.00043338514888769113 0.00010730336946037061 0.0 -0.00656888958171166 0.0 0.0
-0.0005740998789524369 0.0004887074335640598 0.0 -0.006123063960013466 0.0 0.0
-0.00036649277823845713 0.00034911545412773064 0.0 -0.005845346573833556 0.0 0.0
-0.0001655387642417582 0.00017045980596291842 0.0 -0.0057779579297165765 0.0 0.0
-5.5919379636837704e-05 6.444351353351445e-05 0.0 -0.005773170500342013 0.0 0.0
-1.1292693070296398e-05 1.7076507503536236e-05 0.0 -0.005775519557068452 0.0 0.0
2.3660290661282858e-06 4.3964765932873537e-07 0.0 -0.0057766358609538165 0.0 0.0
4.570250635610077e-06 -3.442062067267936e-06 0.0 -0.005776914165752503 0.0 0.0
3.6920840929371946e-06 -3.121424058895711e-06 0.0 -0.005776940062948602 0.0 0.0
1.8402940692157786e-06 -1.0428568154574185e-06 0.0 -0.005776893572785496 0.0 0.0
-2.7823664517241642e-06 4.3740074515207194e-06 0.0 -0.0057767236121339495 0.0 0.0
-1.567527203904693e-05 1.8108674315716448e-05 0.0 -0.0057763610563268345 0.0 0.0
-4.653032813601595e-05 4.7866343682510814e-05 0.0 -0.00577666975823803 0.0 0.0
-0.0001047912736084095 9.851042215873504e-05 0.0 -0.005785151369430494 0.0 0.0
-0.00017256796047073147 0.0001446083679571636 0.0 -0.0058287652514289285 0.0 0.0
-0.0001373214961881558 5.285436556845155e-05 0.0 -0.0059181366877882665 0.0 0.0
0.00023733440304119153 -0.0005057345111140541 0.0 -0.005760986733883312 0.0 0.0
0.001004720780685964 -0.0018319849770669482 0.0 -0.004190516470529241 0.0 0.0
0.0014636151069940262 -0.0030387802876980317 0.0 -1.562335330551612e-16 0.0 0.0
0.0010047207806860173 -0.001831984977067424 0.0 0.004190516470529078 0.0 0.0
0.00023733440304121774 -0.0005057345111141354 0.0 0.00576098673388319 0.0 0.0
-0.0001373214961881305 5.2854365569481946e-05 0.0 0.00591813668778886 0.0 0.0
-0.00017256796047074703 0.00014460836795815874 0.0 0.005828765251428265 0.0 0.0
-0.0001047912736084514 9.851042215849663e-05 0.0 0.00578515136943067 0.0 0.0
-4.653032813600321e-05 4.786634368292505e-05 0.0 0.005776669758238238 0.0 0.0
-1.5675272039033974e-05 1.810867431588843e-05 0.0 0.005776361056326478 0.0 0.0
-2.782366451691123e-06 4.374007451065788e-06 0.0 0.005776723612134286 0.0 0.0
1.840294069184391e-06 -1.042856815083755e-06 0.0 0.005776893572785786 0.0 0.0
3.692084092905292e-06 -3.1214240587630997e-06 0.0 0.005776940062948847 0.0 0.0
4.570250635666889e-06 -3.442062066444017e-06 0.0 0.005776914165752576 0.0 0.0
2.3660290662126096e-06 4.3964765943424857e-07 0.0 0.005776635860953956 0.0 0.0
-1.1292693070263547e-05 1.7076507503836865e-05 0.0 0.00577551955706876 0.0 0.0
-5.591937963684245e-05 6.444351353358007e-05 0.0 0.005773170500342269 0.0 0.0
-0.00016553876424181674 0.00017045980596287373 0.0 0.005777957929716829 0.0 0.0
-0.00036649277823850364 0.00034911545412824477 0.0 0.005845346573833226 0.0 0.0
-0.0005740998789524285 0.0004887074335641011 0.0 0.006123063960013218 0.0 0.0
-0.00043338514888768874 0.0001073033694604539 0.0 0.006568889581711911 0.0 0.0
0.0004149952506168627 -0.00165135214903579 0.0 0.005604126713263382 0.0 0.0
0.001039770180063468 -0.004227540466810283 0.0 0.0036010232129991574 0.0 0.0
0.0008141874757145616 -0.0033420571571627688 0.0 -0.0032420752663469866 0.0 0.0
0.0002452577285902229 -0.0014613983443400268 0.0 -0.005277532030164747 0.0 0.0
-0.0006328259199223827 0.00013776231259753858 0.0 -0.006522060808888131 0.0 0.0
-0.0009795403722851039 0.0006287317548562179 0.0 -0.006238054976958221 0.0 0.0
-0.000994647877805681 0.0006095458012084701 0.0 -0.005926690403235467 0.0 0.0
-0.000983882760319528 0.0005196547907120605 0.0 -0.005788406350055814 0.0 0.0
-0.0010457628890631792 0.0004882178782209401 0.0 -0.005739468675923222 0.0 0.0
-0.0011675284931832739 0.0005124256165346835 0.0 -0.005722753025324882 0.0 0.0
-0.0013193466488624181 0.0005668597555132328 0.0 -0.005717664313652199 0.0 0.0
-0.0014823980687860773 0.0006338535456489827 0.0 -0.005716881298172939 0.0 0.0
-0.0016484505635787328 0.0007049661531454916 0.0 -0.005717303041280755 0.0 0.0
-0.0018154224984457418 0.000777781353791462 0.0 -0.005717401040288342 0.0 0.0
-0.001985024928424134 0.0008538189483242526 0.0 -0.005715777297359361 0.0 0.0
-0.002162528682026542 0.0009379146207670859 0.0 -0.005710257562875142 0.0 0.0
-0.0023575467685933156 0.0010376050779070736 0.0 -0.005698260577489808 0.0 0.0
-0.0025818452095486494 0.0011592259943532994 0.0 -0.005683486448206799 0.0 0.0
-0.0028247599727059076 0.0012847865657513219 0.0 -0.005702409845394768 0.0 0.0
-0.0029696029182852235 0.0012845114432445178 0.0 -0.005830974490173391 0.0 0.0
-0.002712672988600965 0.0007671930505364256 0.0 -0.0058896143683452125 0.0 0.0
-0.0018970489296537651 -0.0007594243397439945 0.0 -0.004557319329910874 0.0 0.0
-0.0013611907684885328 -0.0023573854095660087 0.0 6.10405823109339e-17 0.0 0.0
-0.001897048929653812 -0.0007594243397437479 0.0 0.004557319329911502 0.0 0.0
-0.0027126729886008906 0.0007671930505372599 0.0 0.005889614368345033 0.0 0.0
-0.00296960291828519 0.0012845114432444306 0.0 0.005830974490173429 0.0 0.0
-0.0028247599727059475 0.0012847865657520936 0.0 0.00570240984539451 0.0 0.0
-0.002581845209548553 0.0011592259943548403 0.0 0.005683486448206979 0.0 0.0
-0.002357546768593297 0.0010376050779073254 0.0 0.005698260577490447 0.0 0.0
-0.0021625286820265827 0.0009379146207672772 0.0 0.005710257562874976 0.0 0.0
-0.001985024928424177 0.0008538189483253533 0.0 0.005715777297359246 0.0 0.0
-0.0018154224984457705 0.0007777813537921576 0.0 0.005717401040288324 0.0 0.0
-0.001648450563578715 0.000704966153146067 0.0 0.005717303041280899 0.0 0.0
-0.0014823980687861107 0.0006338535456493517 0.0 0.0057168812981729785 0.0 0.0
-0.0013193466488623973 0.0005668597555128259 0.0 0.005717664313652084 0.0 0.0
-0.001167528493183279 0.0005124256165343255 0.0 0.005722753025324773 0.0 0.0
-0.0010457628890632106 0.00048821787822090083 0.0 0.005739468675923482 0.0 0.0
-0.0009838827603195074 0.0005196547907111128 0.0 0.0057884063500558665 0.0 0.0
-0.000994647877805743 0.0006095458012086851 0.0 0.005926690403235288 0.0 0.0
-0.0009795403722851622 0.0006287317548565703 0.0 0.006238054976958529 0.0 0.0
-0.0006328259199223528 0.00013776231259742726 0.0 0.006522060808888057 0.0 0.0
0.0002452577285902491 -0.001461398344340089 0.0 0.005277532030164918 0.0 0.0
0.0008141874757145975 -0.003342057157162769 0.0 0.0032420752663469147 0.0 0.0
0.0005976619370221004 -0.002558977013588803 0.0 -0.0028890200489554187 0.0 0.0
7.249717368248866e-05 -0.0012413604668064851 0.0 -0.0048886366672657834 0.0 0.0
-0.0008347835831052763 0.00019431875983205726 0.0 -0.006317366799418741 0.0 0.0
-0.001368376055166664 0.000761130443779928 0.0 -0.00618789155785871 0.0 0.0
-0.0016030139617309554 0.0008547959272366841 0.0 -0.005868189715529043 0.0 0.0
-0.0017904793197323198 0.0008596143364730609 0.0 -0.005674042014997092 0.0 0.0
-0.00203108684651358 0.0009083695155336525 0.0 -0.005585797632707611 0.0 0.0
-0.0023226864084625242 0.0010067904395001618 0.0 -0.005551417732251835 0.0 0.0
-0.0026411070833889656 0.0011332149501501693 0.0 -0.005540608809744631 0.0 0.0
-0.002969642800019328 0.001271313510651504 0.0 -0.005538893626346996 0.0 0.0
-0.0033008324546966454 0.0014132102119296353 0.0 -0.005539716016549484 0.0 0.0
-0.003632786000831104 0.0015566525511805248 0.0 -0.005539986506096434 0.0 0.0
-0.003967017457753648 0.001703017841202777 0.0 -0.005537092210563463 0.0 0.0
-0.004308221077966693 0.0018567768659174984 0.0 -0.005526894861676112 0.0 0.0
-0.004665110406218778 0.00202485483042296 0.0 -0.0055036218517521465 0.0 0.0
-0.0050508116935228005 0.0022141145062719424 0.0 -0.005466042695637461 0.0 0.0
-0.005465530161014158 0.002416306748079714 0.0 -0.005452700606729048 0.0 0.0
-0.0058019023498609825 0.0025201634377292914 0.0 -0.005604786713145807 0.0 0.0
-0.00568957011292367 0.002084373018150426 0.0 -0.005914793541751927 0.0 0.0
-0.0048205272155606585 0.0003549105407929431 0.0 -0.004954051549395122 0.0 0.0
-0.004187429297211798 -0.0017814387768378787 0.0 1.5785983631388945e-16 0.0 0.0
-0.004820527215560577 0.0003549105407924418 0.0 0.004954051549395337 0.0 0.0
-0.005689570112923692 0.002084373018150735 0.0 0.005914793541752175 0.0 0.0
-0.005801902349860993 0.0025201634377294427 0.0 0.0056047867131458345 0.0 0.0
-0.005465530161014185 0.002416306748080048 0.0 0.005452700606729063 0.0 0.0
-0.005050811693522785 0.0022141145062725526 0.0 0.005466042695637215 0.0 0.0
-0.004665110406218802 0.0020248548304233538 0.0 0.005503621851751908 0.0 0.0
-0.004308221077966747 0.001856776865916962 0.0 0.005526894861676275 0.0 0.0
-0.003967017457753691 0.0017030178412035758 0.0 0.005537092210562935 0.0 0.0
-0.0036327860008311154 0.0015566525511801908 0.0 0.0055399865060965755 0.0 0.0
-0.003300832454696612 0.001413210211930356 0.0 0.005539716016549477 0.0 0.0
-0.0029696428000192724 0.0012713135106514582 0.0 0.00553889362634721 0.0 0.0
-0.0026411070833888797 0.0011332149501499795 0.0 0.005540608809744686 0.0 0.0
-0.002322686408462484 0.0010067904395000635 0.0 0.005551417732251881 0.0 0.0
-0.002031086846513605 0.0009083695155337216 0.0 0.005585797632707689 0.0 0.0
-0.0017904793197323328 0.000859614336472285 0.0 0.005674042014996934 0.0 0.0
-0.0016030139617309606 0.0008547959272367593 0.0 0.005868189715528922 0.0 0.0
-0.0013683760551667166 0.0007611304437797537 0.0 0.0061878915578588815 0.0 0.0
-0.0008347835831053042 0.0001943187598318968 0.0 0.006317366799418844 0.0 0.0
7.249717368246101e-05 -0.0012413604668063691 0.0 0.00488863666726578 0.0 0.0
0.0005976619370220079 -0.002558977013588795 0.0 0.0028890200489556676 0.0 0.0
0.0003932653463393937 -0.0018739550796092685 0.0 -0.002532999177260742 0.0 0.0
-0.00010043404770010001 -0.0010055161215237797 0.0 -0.004440634968830973 0.0 0.0
-0.0010404820364007365 0.00027444004332599766 0.0 -0.005969256241502262 0.0 0.0
-0.0017460748751773857 0.0008906268204537449 0.0 -0.005974610917592689 0.0 0.0
-0.0021959890371835824 0.0010884911144528634 0.0 -0.005663312499131565 0.0 0.0
-0.0025872908230984023 0.001191754354634257 0.0 -0.005429393269926876 0.0 0.0
-0.0030125381426437566 0.0013253382143556573 0.0 -0.005309759484941692 0.0 0.0
-0.003476971860836151 0.0015003257251075925 0.0 -0.005260814345074241 0.0 0.0
-0.0039629729045462326 0.0016995503264925537 0.0 -0.0052453721866297575 0.0 0.0
-0.004457164555087241 0.0019089368823978544 0.0 -0.005243000173994025 0.0 0.0
-0.004953444181111388 0.0021216019327428984 0.0 -0.005244230404228873 0.0 0.0
-0.005450264994539266 0.0023355808578505353 0.0 -0.005244708438337539 0.0 0.0
-0.005948832749033926 0.002552029526327522 0.0 -0.005240872465656556 0.0 0.0
-0.006452967071789813 0.002774832331301618 0.0 -0.005226895692217738 0.0 0.0
-0.0069697279497358995 0.0030100295733681845 0.0 -0.00519424322392923 0.0 0.0
-0.0075116954619590635 0.0032635930397465394 0.0 -0.005136859707134664 0.0 0.0
-0.008091760358474599 0.0035365932549373275 0.0 -0.0050857470112940836 0.0 0.0
-0.008630046299611149 0.003753952854314512 0.0 -0.0052319658290450235 0.0 0.0
-0.008701123820353847 0.003454551683567557 0.0 -0.005806059079586277 0.0 0.0
-0.007782184362157383 0.001543416295338308 0.0 -0.005383463614639122 0.0 0.0
-0.007029711691283426 -0.0013400976014441074 0.0 2.7712207528729493e-16 0.0 0.0
-0.007782184362157392 0.0015434162953378231 0.0 0.005383463614638818 0.0 0.0
-0.008701123820353778 0.0034545516835674103 0.0 0.005806059079586578 0.0 0.0
-0.008630046299611128 0.00375395285431467 0.0 0.005231965829044893 0.0 0.0
-0.008091760358474583 0.003536593254937187 0.0 0.00508574701129396 0.0 0.0
-0.007511695461959024 0.0032635930397455137 0.0 0.0051368597071347515 0.0 0.0
-0.006969727949735893 0.003010029573368368 0.0 0.005194243223928879 0.0 0.0
-0.006452967071789948 0.0027748323313010626 0.0 0.005226895692217785 0.0 0.0
-0.005948832749033997 0.002552029526327004 0.0 0.0052408724656567585 0.0 0.0
-0.005450264994539224 0.002335580857848691 0.0 0.0052447084383374 0.0 0.0
-0.004953444181111371 0.0021216019327430983 0.0 0.005244230404228508 0.0 0.0
-0.004457164555087308 0.0019089368823974064 0.0 0.005243000173994082 0.0 0.0
-0.003962972904546318 0.0016995503264924001 0.0 0.005245372186629814 0.0 0.0
-0.0034769718608361495 0.0015003257251075676 0.0 0.005260814345073987 0.0 0.0
-0.00301253814264376 0.0013253382143553567 0.0 0.005309759484941558 0.0 0.0
-0.0025872908230984357 0.0011917543546343774 0.0 0.005429393269927129 0.0 0.0
-0.0021959890371836075 0.0010884911144525646 0.0 0.005663312499131549 0.0 0.0
-0.00174607487517735 0.0008906268204535565 0.0 0.005974610917592906 0.0 0.0
-0.0010404820364007376 0.00027444004332615303 0.0 0.00596925624150231 0.0 0.0
-0.00010043404770013466 -0.001005516121523657 0.0 0.00444063496883095 0.0 0.0
0.0003932653463393715 -0.001873955079609232 0.0 0.0025329991772608073 0.0 0.0
0.00020470634512237512 -0.0012866655212169665 0.0 -0.0021671890453981595 0.0 0.0
-0.0002695223972408493 -0.0007651082756061657 0.0 -0.003935512887930025 0.0 0.0
-0.0012487441049389516 0.000373588792872053 0.0 -0.0054887875752778065 0.0 0.0
-0.002116008458583113 0.0010197556927499768 0.0 -0.00560039731972921 0.0 0.0
-0.002777711416338392 0.0013141149007949353 0.0 -0.005307229332970234 0.0 0.0
-0.0033768803166493245 0.0015180785522077701 0.0 -0.0050500549803421625 0.0 0.0
-0.003991227403754814 0.0017399374431209071 0.0 -0.004909355084651735 0.0 0.0
-0.004630768575352368 0.0019933119964176834 0.0 -0.004850396375562603 0.0 0.0
-0.005285041449059777 0.0022659374322050317 0.0 -0.004831918325035567 0.0 0.0
-0.005944961721252846 0.002546720035281983 0.0 -0.004829263686592315 0.0 0.0
-0.0066062673970114045 0.002830125765226103 0.0 -0.004830892081863516 0.0 0.0
-0.007267878326706799 0.003114575649410404 0.0 -0.004831603183032694 0.0 0.0
-0.007930587066875664 0.00340095120191 0.0 -0.004827248263198546 0.0 0.0
-0.00859706458628091 0.0036922894081229648 0.0 -0.004810806704690999 0.0 0.0
-0.009272225199725263 0.003993664406525969 0.0 -0.004771308526307508 0.0 0.0
-0.009965465198996055 0.004308974126406447 0.0 -0.004699525280476323 0.0 0.0
-0.010700185278569373 0.004643755105184592 0.0 -0.004611394639147785 0.0 0.0
-0.011445303725594715 0.004975086994528926 0.0 -0.004710259098972535 0.0 0.0
-0.011751895486286412 0.004880959889058216 0.0 -0.005518507826398723 0.0 0.0
-0.010801992340055544 0.0028528873335528335 0.0 -0.005836757397488476 0.0 0.0
-0.009908628033427402 -0.0010740425292238742 0.0 -3.382710778154774e-17 0.0 0.0
-0.010801992340055579 0.002852887333552431 0.0 0.005836757397488648 0.0 0.0
-0.011751895486286417 0.0048809598890576745 0.0 0.005518507826398705 0.0 0.0
-0.011445303725594734 0.00497508699452819 0.0 0.0047102590989722476 0.0 0.0
-0.01070018527856936 0.00464375510518475 0.0 0.004611394639147848 0.0 0.0
-0.009965465198996094 0.004308974126406337 0.0 0.004699525280476414 0.0 0.0
-0.009272225199725304 0.003993664406525626 0.0 0.004771308526307394 0.0 0.0
-0.008597064586280984 0.0036922894081238746 0.0 0.004810806704690988 0.0 0.0
-0.007930587066875638 0.0034009512019102938 0.0 0.004827248263198767 0.0 0.0
-0.007267878326706705 0.0031145756494090505 0.0 0.00483160318303261 0.0 0.0
-0.006606267397011407 0.00283012576522523 0.0 0.004830892081863548 0.0 0.0
-0.005944961721252833 0.00254672003528127 0.0 0.004829263686592211 0.0 0.0
-0.005285041449059679 0.0022659374322045087 0.0 0.0048319183250356565 0.0 0.0
-0.004630768575352343 0.0019933119964176656 0.0 0.004850396375562673 0.0 0.0
-0.003991227403754839 0.0017399374431211223 0.0 0.004909355084651913 0.0 0.0
-0.003376880316649314 0.0015180785522081201 0.0 0.005050054980342195 0.0 0.0
-0.0027777114163383934 0.0013141149007947317 0.0 0.005307229332970164 0.0 0.0
-0.002116008458583084 0.0010197556927498872 0.0 0.0056003973197296854 0.0 0.0
-0.0012487441049389358 0.0003735887928722601 0.0 0.005488787575277678 0.0 0.0
-0.00026952239724088663 -0.0007651082756061039 0.0 0.003935512887930007 0.0 0.0
0.00020470634512230655 -0.0012866655212169765 0.0 0.0021671890453979323 0.0 0.0
3.6549954007617796e-05 -0.0007999378428023314 0.0 -0.0017882036747835957 0.0 0.0
-0.000429392832957565 -0.0005293622428812934 0.0 -0.0033755181106521056 0.0 0.0
-0.0014561490349426544 0.0004855354163028643 0.0 -0.004883381240484724 0.0 0.0
-0.002479825625477865 0.0011493530759579243 0.0 -0.005065888028341286 0.0 0.0
-0.003352131749228639 0.0015350509743133095 0.0 -0.004796102272129913 0.0 0.0
-0.0041622935842713 0.0018410448378806893 0.0 -0.0045328301758766525 0.0 0.0
-0.004968640128980413 0.0021532825157702016 0.0 -0.0043832035094497615 0.0 0.0
-0.00578460573100186 0.002486133607065353 0.0 -0.004319865868026047 0.0 0.0
-0.006607436982845875 0.002832463787713541 0.0 -0.004300299293642583 0.0 0.0
-0.007433024730029478 0.0031846514984158834 0.0 -0.004297766243284182 0.0 0.0
-0.008259272952025184 0.0035387591719010783 0.0 -0.004299735391033996 0.0 0.0
-0.009085640456088008 0.0038936405161681007 0.0 -0.004300684456152999 0.0 0.0
-0.009912437639504489 0.00424990089615101 0.0 -0.00429624314941387 0.0 0.0
-0.010740882444220175 0.004609468687636965 0.0 -0.004279010161651368 0.0 0.0
-0.01157358704349251 0.004976241700851897 0.0 -0.004235862307847689 0.0 0.0
-0.012414397497968197 0.0053524031224724215 0.0 -0.004156078542899426 0.0 0.0
-0.013288720366181478 0.0057384747541433774 0.0 -0.004042607608054224 0.0 0.0
-0.01423293872064749 0.006167239959310794 0.0 -0.0040513355177451355 0.0 0.0
-0.014839345035570752 0.006354185390421038 0.0 -0.0049915181737114015 0.0 0.0
-0.013904549758435303 0.004351353778036893 0.0 -0.006278256979933755 0.0 0.0
-0.012856210850658058 -0.0010370411393898413 0.0 -1.695692197767329e-16 0.0 0.0
-0.013904549758435285 0.004351353778036122 0.0 0.006278256979933805 0.0 0.0
-0.01483934503557089 0.006354185390420649 0.0 0.004991518173711426 0.0 0.0
-0.014232938720647511 0.006167239959310214 0.0 0.00405133551774524 0.0 0.0
-0.013288720366181356 0.005738474754143387 0.0 0.004042607608054371 0.0 0.0
-0.012414397497968122 0.005352403122472155 0.0 0.004156078542899375 0.0 0.0
-0.011573587043492529 0.004976241700851701 0.0 0.004235862307847618 0.0 0.0
-0.010740882444220255 0.004609468687637551 0.0 0.004279010161651441 0.0 0.0
-0.009912437639504489 0.004249900896151185 0.0 0.004296243149413604 0.0 0.0
-0.009085640456087963 0.00389364051616936 0.0 0.0043006844561527926 0.0 0.0
-0.008259272952025139 0.0035387591718999403 0.0 0.0042997353910341225 0.0 0.0
-0.007433024730029438 0.003184651498415968 0.0 0.004297766243284377 0.0 0.0
-0.006607436982845831 0.0028324637877134287 0.0 0.004300299293642747 0.0 0.0
-0.005784605731001804 0.0024861336070656397 0.0 0.004319865868026199 0.0 0.0
-0.004968640128980393 0.0021532825157701808 0.0 0.004383203509450073 0.0 0.0
-0.004162293584271356 0.0018410448378813875 0.0 0.004532830175876641 0.0 0.0
-0.0033521317492286417 0.0015350509743132118 0.0 0.004796102272129715 0.0 0.0
-0.0024798256254778598 0.0011493530759576916 0.0 0.005065888028341465 0.0 0.0
-0.001456149034942713 0.000485535416302983 0.0 0.0048833812404843685 0.0 0.0
-0.0004293928329575573 -0.0005293622428812123 0.0 0.003375518110652177 0.0 0.0
3.654995400766713e-05 -0.0007999378428023483 0.0 0.0017882036747836844 0.0 0.0
-0.00010523104678485653 -0.0004187954632165968 0.0 -0.0013982744760278802 0.0 0.0
-0.0005726314358499497 -0.00030672297235040245 0.0 -0.0027645125515686733 0.0 0.0
-0.0016568201061190183 0.0006021889630189094 0.0 -0.004155892892323899 0.0 0.0
-0.002837898236197351 0.0012791773901661492 0.0 -0.004368673514917598 0.0 0.0
-0.003923279846896304 0.0017548247721377963 0.0 -0.004126670874378127 0.0 0.0
-0.00494700178799076 0.0021634647868182277 0.0 -0.0038758551436910826 0.0 0.0
-0.005946532705669081 0.0025666978909008936 0.0 -0.003730709618080942 0.0 0.0
-0.006939107425034214 0.00297924143580896 0.0 -0.0036692564975390057 0.0 0.0
-0.007930291222811104 0.0033992175991013427 0.0 -0.0036506747232566946 0.0 0.0
-0.008921328085888537 0.003822706469608691 0.0 -0.003648611598945874 0.0 0.0
-0.009912419645436498 0.004247468539986999 0.0 -0.003650779588566312 0.0 0.0
-0.010903553210856952 0.00467278048369325 0.0 -0.00365192792112064 0.0 0.0
-0.011894559274397849 0.005098965685457864 0.0 -0.003647815101730082 0.0 0.0
-0.012884905879608626 0.005526864950072648 0.0 -0.0036314679622564093 0.0 0.0
-0.013874702178192248 0.005958175021661507 0.0 -0.0035891824968095187 0.0 0.0
-0.01486201834204482 0.006395921924159051 0.0 -0.003506603827678844 0.0 0.0
-0.015859072739684347 0.006826935156382874 0.0 -0.00339035397945186 0.0 0.0
-0.016971585192601023 0.007310872581798369 0.0 -0.0032943727890165577 0.0 0.0
-0.017946063828663122 0.007838081266810874 0.0 -0.00415708123319233 0.0 0.0
-0.0171197301698302 0.006136540052702868 0.0 -0.006609774166018715 0.0 0.0
-0.015926805389280842 -0.0012932969735746098 0.0 -4.2717565595928875e-17 0.0 0.0
-0.01711973016983015 0.006136540052702928 0.0 0.00660977416601846 0.0 0.0
-0.017946063828663157 0.007838081266810371 0.0 0.004157081233192292 0.0 0.0
-0.016971585192601057 0.00731087258179846 0.0 0.0032943727890164835 0.0 0.0
-0.015859072739684277 0.006826935156382212 0.0 0.0033903539794518387 0.0 0.0
-0.014862018342044828 0.006395921924158625 0.0 0.0035066038276786275 0.0 0.0
-0.013874702178192238 0.0059581750216623625 0.0 0.003589182496809269 0.0 0.0
-0.012884905879608641 0.005526864950072243 0.0 0.003631467962256634 0.0 0.0
-0.011894559274397911 0.005098965685458259 0.0 0.0036478151017302002 0.0 0.0
-0.01090355321085688 0.004672780483694388 0.0 0.003651927921120535 0.0 0.0
-0.009912419645436469 0.004247468539986916 0.0 0.0036507795885657663 0.0 0.0
-0.008921328085888566 0.0038227064696086067 0.0 0.0036486115989457814 0.0 0.0
-0.007930291222811083 0.0033992175991012816 0.0 0.003650674723256913 0.0 0.0
-0.00693910742503418 0.0029792414358091775 0.0 0.003669256497539077 0.0 0.0
-0.005946532705669085 0.002566697890900196 0.0 0.0037307096180810087 0.0 0.0
-0.004947001787990797 0.0021634647868185725 0.0 0.0038758551436911797 0.0 0.0
-0.003923279846896342 0.001754824772137795 0.0 0.004126670874377845 0.0 0.0
-0.0028378982361973674 0.0012791773901657854 0.0 0.004368673514917713 0.0 0.0
-0.0016568201061189967 0.0006021889630189793 0.0 0.00415589289232378 0.0 0.0
-0.000572631435849929 -0.0003067229723504278 0.0 0.0027645125515686065 0.0 0.0
-0.00010523104678487836 -0.0004187954632165683 0.0 0.0013982744760278627 0.0 0.0
-0.00021216281223621482 -0.00014917884382659077 0.0 -0.0010092415646551498 0.0 0.0
-0.0006884543472563248 -0.00010670382655908516 0.0 -0.0021092687280423743 0.0 0.0
-0.0018418878100536227 0.0007130756432146172 0.0 -0.0033022262352943423 0.0 0.0
-0.003189971459561519 0.0014088324787553308 0.0 -0.0035020072408570285 0.0 0.0
-0.004495700202279344 0.0019774687952606373 0.0 -0.0032963023145294477 0.0 0.0
-0.005734861906403495 0.0024883983160975927 0.0 -0.003078724996428577 0.0 0.0
-0.00692681646312924 0.002981617059434983 0.0 -0.002952190734658462 0.0 0.0
-0.008094929387500855 0.003473102496768502 0.0 -0.0028989932476418826 0.0 0.0
-0.009253717640754944 0.0039662667454395525 0.0 -0.0028833219945458423 0.0 0.0
-0.010409822127492049 0.004460844800010863 0.0 -0.0028819159022944376 0.0 0.0
-0.011565648825626496 0.004956197556672091 0.0 -0.002884045780600053 0.0 0.0
-0.012721613197701185 0.005452016304518904 0.0 -0.002885214320150119 0.0 0.0
-0.013877076602372515 0.0059481790721632845 0.0 -0.002881958192766236 0.0 0.0
-0.01502981874110369 0.0064449820137584815 0.0 -0.002867600131903754 0.0 0.0
-0.01617629372519531 0.006940542154978403 0.0 -0.002832079563228051 0.0 0.0
-0.01731186477655297 0.0074391304672903735 0.0 -0.002752836033229683 0.0 0.0
-0.018420781508535364 0.007922915858985724 0.0 -0.0026502917767353856 0.0 0.0
-0.01963631446967432 0.008395081084479531 0.0 -0.0025179759990582615 0.0 0.0
-0.021024358447528826 0.009242374487965136 0.0 -0.0029854417212868086 0.0 0.0
-0.0204807646893444 0.008342314132959121 0.0 -0.006583331297818911 0.0 0.0
-0.019220104941994037 -0.0018998768928322 0.0 7.177418381854039e-17 0.0 0.0
-0.020480764689344417 0.008342314132959546 0.0 0.0065833312978188585 0.0 0.0
-0.021024358447528847 0.009242374487964854 0.0 0.0029854417212869834 0.0 0.0
-0.019636314469674274 0.008395081084479028 0.0 0.002517975999058552 0.0 0.0
-0.01842078150853525 0.007922915858985654 0.0 0.0026502917767354077 0.0 0.0
-0.01731186477655294 0.00743913046729032 0.0 0.002752836033229299 0.0 0.0
-0.016176293725195263 0.006940542154979232 0.0 0.0028320795632279603 0.0 0.0
-0.015029818741103648 0.006444982013758228 0.0 0.002867600131903694 0.0 0.0
-0.013877076602372595 0.005948179072164131 0.0 0.002881958192766227 0.0 0.0
-0.01272161319770126 0.005452016304518815 0.0 0.0028852143201499535 0.0 0.0
-0.011565648825626496 0.004956197556672713 0.0 0.0028840457805998994 0.0 0.0
-0.010409822127492004 0.004460844800010397 0.0 0.0028819159022945413 0.0 0.0
-0.009253717640754871 0.003966266745439489 0.0 0.0028833219945459615 0.0 0.0
-0.008094929387500855 0.003473102496768718 0.0 0.0028989932476416263 0.0 0.0
-0.006926816463129345 0.002981617059434346 0.0 0.0029521907346585267 0.0 0.0
-0.005734861906403472 0.0024883983160976187 0.0 0.0030787249964287226 0.0 0.0
-0.0044957002022792784 0.001977468795260642 0.0 0.00329630231452941 0.0 0.0
-0.003189971459561504 0.0014088324787551844 0.0 0.0035020072408571083 0.0 0.0
-0.0018418878100536391 0.0007130756432146789 0.0 0.0033022262352947087 0.0 0.0
-0.0006884543472563166 -0.00010670382655908903 0.0 0.0021092687280420005 0.0 0.0
-0.00021216281223619755 -0.00014917884382657182 0.0 0.0010092415646547773 0.0 0.0
-0.0002711297330144111 4.018106708309694e-06 0.0 -0.0006502580299089882 0.0 0.0
-0.0007603019619927766 5.6855538355386926e-05 0.0 -0.0014205304323593282 0.0 0.0
-0.0019987164675107274 0.0008047192585444345 0.0 -0.002306028514397589 0.0 0.0
-0.003536275965342459 0.0015393244156831879 0.0 -0.002454383172104262 0.0 0.0
-0.005074994511316051 0.002207831051233486 0.0 -0.0023035418995860563 0.0 0.0
-0.006530038133305641 0.002819024024485315 0.0 -0.0021425834550514236 0.0 0.0
-0.007911436559189055 0.0033994868924138934 0.0 -0.002048997806972634 0.0 0.0
-0.009252685667690257 0.003968133254172746 0.0 -0.002009911091934967 0.0 0.0
-0.010577779768453902 0.0045336400128577654 0.0 -0.0019986305984157886 0.0 0.0
-0.011898429433957717 0.0050989980222601525 0.0 -0.001997809861873956 0.0 0.0
-0.013218869832894917 0.005664893036866664 0.0 -0.0019995126650184047 0.0 0.0
-0.014539829911722014 0.006231284780875022 0.0 -0.0020004842443890163 0.0 0.0
-0.015860028520404735 0.006797806534973896 0.0 -0.001998166587284599 0.0 0.0
-0.01717630850767522 0.007363497056763722 0.0 -0.0019879497020558958 0.0 0.0
-0.018479817961585876 0.007926604081100222 0.0 -0.0019602449719355046 0.0 0.0
-0.019764306568640786 0.008478246525975392 0.0 -0.0019074379946321775 0.0 0.0
-0.020994330072026814 0.009038547112386068 0.0 -0.0017931882812886983 0.0 0.0
-0.022213846305159924 0.009457491772261212 0.0 -0.001798732672511003 0.0 0.0
-0.023965932858257006 0.010371449265991059 0.0 -0.0016683805470452224 0.0 0.0
-0.02401238289577941 0.011125903361486885 0.0 -0.005570252957076869 0.0 0.0
-0.02293386786623982 -0.00283990139582276 0.0 1.1666015375944028e-16 0.0 0.0
-0.024012382895779352 0.011125903361487364 0.0 0.005570252957076972 0.0 0.0
-0.023965932858256992 0.010371449265990972 0.0 0.0016683805470450591 0.0 0.0
-0.022213846305159976 0.009457491772261316 0.0 0.0017987326725110416 0.0 0.0
-0.020994330072026824 0.009038547112385647 0.0 0.001793188281288815 0.0 0.0
-0.019764306568640807 0.008478246525974927 0.0 0.0019074379946317512 0.0 0.0
-0.018479817961585838 0.007926604081099074 0.0 0.0019602449719354517 0.0 0.0
-0.0171763085076751 0.007363497056763939 0.0 0.0019879497020561365 0.0 0.0
-0.01586002852040474 0.0067978065349743365 0.0 0.0019981665872850505 0.0 0.0
-0.014539829911722046 0.006231284780875536 0.0 0.0020004842443885128 0.0 0.0
-0.013218869832894877 0.0056648930368656 0.0 0.0019995126650184506 0.0 0.0
-0.011898429433957749 0.005098998022260142 0.0 0.001997809861873877 0.0 0.0
-0.010577779768453968 0.004533640012857245 0.0 0.0019986305984159803 0.0 0.0
-0.00925268566769024 0.003968133254172923 0.0 0.0020099110919344827 0.0 0.0
-0.007911436559189071 0.003399486892413448 0.0 0.002048997806972663 0.0 0.0
-0.006530038133305687 0.002819024024485247 0.0 0.002142583455051395 0.0 0.0
-0.005074994511316065 0.0022078310512331518 0.0 0.0023035418995863066 0.0 0.0
-0.003536275965342464 0.0015393244156835495 0.0 0.0024543831721045807 0.0 0.0
-0.0019987164675107556 0.0008047192585443912 0.0 0.0023060285143977535 0.0 0.0
-0.0007603019619927623 5.6855538355565284e-05 0.0 0.0014205304323592087 0.0 0.0
-0.00027112973301433245 4.018106708272316e-06 0.0 0.0006502580299086888 0.0 0.0
-0.000260055798498214 4.028940377891801e-05 0.0 -0.0003829961705596706 0.0 0.0
-0.0007614655205270628 0.00015942196928392868 0.0 -0.0007132400923046949 0.0 0.0
-0.0021101831958264426 0.0008606698408294552 0.0 -0.0011271464213789763 0.0 0.0
-0.003879552990180519 0.0016757924130903832 0.0 -0.0012127515112964038 0.0 0.0
-0.005668258013381304 0.0024513154137051486 0.0 -0.0011481515833303094 0.0 0.0
-0.007336855665914473 0.0031586423266033274 0.0 -0.0010704958520128599 0.0 0.0
-0.008902255706901502 0.0038216176565652894 0.0 -0.0010235414864708976 0.0 0.0
-0.01041285984822743 0.004464637845519139 0.0 -0.0010032473874474392 0.0 0.0
-0.011902464286123805 0.005101302613700867 0.0 -0.000997081768338994 0.0 0.0
-0.013387028150357076 0.005737071947086433 0.0 -0.0009964169399709428 0.0 0.0
-0.014871992383329053 0.006373473692756054 0.0 -0.000997154391641789 0.0 0.0
-0.01635810267938569 0.007010569873683915 0.0 -0.0009975613436862334 0.0 0.0
-0.01784372076733111 0.00764776994463295 0.0 -0.0009962236176959461 0.0 0.0
-0.019324006706898312 0.008283408484426895 0.0 -0.0009909850680795823 0.0 0.0
-0.020789464177510947 0.008913945446231412 0.0 -0.000976482250026822 0.0 0.0
-0.022214887647043987 0.00953057111002084 0.0 -0.0009502831217665124 0.0 0.0
-0.023599791887835363 0.0101198542072096 0.0 -0.0009019500168829645 0.0 0.0
-0.024753761623660702 0.010702174053594605 0.0 -0.000838467841357098 0.0 0.0
-0.026544544710766733 0.01084062623925963 0.0 -0.0013223896331224746 0.0 0.0
-0.02768245272626038 0.014563477831459358 0.0 -0.0018873734472298696 0.0 0.0
-0.027496541060400524 -0.0037897462102141647 0.0 9.020562075079397e-17 0.0 0.0
-0.027682452726260406 0.014563477831459816 0.0 0.0018873734472299548 0.0 0.0
-0.026544544710766733 0.010840626239258884 0.0 0.0013223896331220997 0.0 0.0
-0.024753761623660653 0.010702174053595326 0.0 0.0008384678413567859 0.0 0.0
-0.023599791887835345 0.010119854207209867 0.0 0.0009019500168829115 0.0 0.0
-0.02221488764704402 0.009530571110020538 0.0 0.0009502831217662536 0.0 0.0
-0.020789464177510944 0.008913945446230866 0.0 0.0009764822500273035 0.0 0.0
-0.019324006706898256 0.008283408484427848 0.0 0.0009909850680795348 0.0 0.0
-0.017843720767331133 0.007647769944633355 0.0 0.0009962236176962445 0.0 0.0
-0.016358102679385613 0.007010569873684829 0.0 0.0009975613436858284 0.0 0.0
-0.014871992383328989 0.006373473692754365 0.0 0.0009971543916419572 0.0 0.0
-0.01338702815035715 0.005737071947086657 0.0 0.000996416939970744 0.0 0.0
-0.011902464286123878 0.005101302613701208 0.0 0.000997081768338886 0.0 0.0
-0.010412859848227441 0.004464637845518453 0.0 0.0010032473874471751 0.0 0.0
-0.008902255706901495 0.0038216176565651254 0.0 0.0010235414864708458 0.0 0.0
-0.007336855665914444 0.00315864232660347 0.0 0.0010704958520125615 0.0 0.0
-0.005668258013381234 0.002451315413705213 0.0 0.0011481515833302314 0.0 0.0
-0.003879552990180499 0.001675792413090472 0.0 0.0012127515112967595 0.0 0.0
-0.0021101831958264356 0.0008606698408292299 0.0 0.0011271464213789993 0.0 0.0
-0.0007614655205270797 0.00015942196928413045 0.0 0.0007132400923046913 0.0 0.0
-0.00026005579849824845 4.028940377887356e-05 0.0 0.00038299617055996267 0.0 0.0
-0.00013901508449044116 2.9537722468508628e-05 0.0 -0.0002566531886770898 0.0 0.0
-0.0006468135090575066 0.00019145620115160078 0.0 -0.0003014479360622662 0.0 0.0
-0.002154956720499986 0.0008774996028469824 0.0 -0.00038363656012806115 0.0 0.0
-0.004228712885883846 0.0017465299533433749 0.0 -0.0004277410461486687 0.0 0.0
-0.006283749825052539 0.0025770254379215577 0.0 -0.0004244831210407927 0.0 0.0
-0.008159787950678742 0.003331124381534026 0.0 -0.0004047304105630356 0.0 0.0
-0.009900867313718592 0.0040338969908109345 0.0 -0.00038963586714691205 0.0 0.0
-0.011575725886991534 0.0047132881349772416 0.0 -0.0003818482483236188 0.0 0.0
-0.013227648782537236 0.0053851968164331755 0.0 -0.0003788654801333115 0.0 0.0
-0.014875456865747096 0.006056076702732826 0.0 -0.0003781148776149806 0.0 0.0
-0.016524885296449382 0.006727719347707075 0.0 -0.0003780872221381872 0.0 0.0
-0.01817639116088873 0.0074002322885731425 0.0 -0.00037802704107746496 0.0 0.0
-0.019827999997572548 0.008072751406964724 0.0 -0.0003772558986555115 0.0 0.0
-0.0214741540257915 0.008744095113575115 0.0 -0.0003751798684123284 0.0 0.0
-0.02310239587589225 0.009406734108775596 0.0 -0.0003701799675606158 0.0 0.0
-0.024684939669641026 0.01006500627542191 0.0 -0.0003605066239308085 0.0 0.0
-0.026174158537954684 0.010637622634530133 0.0 -0.00037033789623104824 0.0 0.0
-0.02752050273207459 0.011411466356957037 0.0 -0.0002519771677967266 0.0 0.0
-0.02832267366366532 0.010847179264029718 0.0 -0.0012372452047806721 0.0 0.0
-0.031216522919443216 0.016444610177233775 0.0 -5.570142980027004e-06 0.0 0.0
-0.033940328101219976 -0.004196215848514199 0.0 -1.0408340855860843e-16 0.0 0.0
-0.03121652291944314 0.016444610177233563 0.0 5.570142980135858e-06 0.0 0.0
-0.02832267366366527 0.01084717926402878 0.0 0.001237245204780522 0.0 0.0
-0.02752050273207452 0.011411466356957469 0.0 0.00025197716779683504 0.0 0.0
-0.026174158537954673 0.010637622634532466 0.0 0.0003703378962309702 0.0 0.0
-0.024684939669641075 0.01006500627542218 0.0 0.0003605066239305509 0.0 0.0
-0.023102395875892294 0.009406734108776568 0.0 0.00037017996756166186 0.0 0.0
-0.021474154025791475 0.008744095113575611 0.0 0.00037517986841207815 0.0 0.0
-0.019827999997572503 0.0080727514069646 0.0 0.0003772558986558281 0.0 0.0
-0.018176391160888657 0.007400232288574163 0.0 0.00037802704107745303 0.0 0.0
-0.016524885296449483 0.006727719347706499 0.0 0.000378087222138166 0.0 0.0
-0.014875456865747264 0.006056076702732945 0.0 0.0003781148776149962 0.0 0.0
-0.013227648782537307 0.0053851968164348235 0.0 0.0003788654801331606 0.0 0.0
-0.011575725886991418 0.004713288134975729 0.0 0.0003818482483237851 0.0 0.0
-0.009900867313718427 0.004033896990811078 0.0 0.0003896358671473274 0.0 0.0
-0.00815978795067885 0.0033311243815346836 0.0 0.00040473041056259375 0.0 0.0
-0.00628374982505258 0.002577025437921944 0.0 0.00042448312104035094 0.0 0.0
-0.004228712885883776 0.001746529953343067 0.0 0.00042774104614886255 0.0 0.0
-0.0021549567205000246 0.0008774996028466703 0.0 0.00038363656012806966 0.0 0.0
-0.0006468135090574932 0.00019145620115183085 0.0 0.00030144793606229077 0.0 0.0
-0.0001390150844902819 2.9537722468446327e-05 0.0 0.00025665318867776213 0.0 0.0